    1C
    1UUSER                                                              
    1UDATE              27.october.2022                                 
    1UTIME              01:11:26                                        
    1UHOST                                                              
    1UPGM               CalculiX                                        
    1UVERSION           Version 2.17                             
    1UCOMPILETIME       Thu Jul 23 21:43:50 CEST 2020                    
    1UDIR                                                               
    1UDBN                                                               
    1UMAT    1SOLIDMATERIAL                                             
    2C                          4300                                     1
 -1         1 1.10966E+01 4.09092E+01 0.00000E+00
 -1         2 2.39541E+01 3.70764E+01 0.00000E+00
 -1         3 1.50000E+02 0.00000E+00 0.00000E+00
 -1         4 1.50000E+02 5.00000E+01 0.00000E+00
 -1         5 0.00000E+00 0.00000E+00 0.00000E+00
 -1         6 0.00000E+00 5.00000E+01 0.00000E+00
 -1         7 0.00000E+00 4.70000E+01 0.00000E+00
 -1         8 0.00000E+00 4.40000E+01 0.00000E+00
 -1         9 0.00000E+00 4.10000E+01 0.00000E+00
 -1        10 0.00000E+00 3.80000E+01 0.00000E+00
 -1        11 0.00000E+00 3.54500E+01 0.00000E+00
 -1        12 0.00000E+00 3.29000E+01 0.00000E+00
 -1        13 0.00000E+00 2.99000E+01 0.00000E+00
 -1        14 0.00000E+00 2.69000E+01 0.00000E+00
 -1        15 0.00000E+00 2.39000E+01 0.00000E+00
 -1        16 0.00000E+00 2.09000E+01 0.00000E+00
 -1        17 0.00000E+00 1.79000E+01 0.00000E+00
 -1        18 0.00000E+00 1.49500E+01 0.00000E+00
 -1        19 0.00000E+00 1.19500E+01 0.00000E+00
 -1        20 0.00000E+00 8.95000E+00 0.00000E+00
 -1        21 0.00000E+00 5.95000E+00 0.00000E+00
 -1        22 0.00000E+00 2.95000E+00 0.00000E+00
 -1        23 3.00000E+00 5.00000E+01 0.00000E+00
 -1        24 6.00000E+00 5.00000E+01 0.00000E+00
 -1        25 9.00000E+00 5.00000E+01 0.00000E+00
 -1        26 1.18500E+01 5.00000E+01 0.00000E+00
 -1        27 1.42500E+01 5.00000E+01 0.00000E+00
 -1        28 1.66500E+01 5.00000E+01 0.00000E+00
 -1        29 1.92000E+01 5.00000E+01 0.00000E+00
 -1        30 2.14500E+01 5.00000E+01 0.00000E+00
 -1        31 2.41500E+01 5.00000E+01 0.00000E+00
 -1        32 2.71500E+01 5.00000E+01 0.00000E+00
 -1        33 3.01500E+01 5.00000E+01 0.00000E+00
 -1        34 3.31500E+01 5.00000E+01 0.00000E+00
 -1        35 3.61500E+01 5.00000E+01 0.00000E+00
 -1        36 3.91500E+01 5.00000E+01 0.00000E+00
 -1        37 4.21500E+01 5.00000E+01 0.00000E+00
 -1        38 4.51500E+01 5.00000E+01 0.00000E+00
 -1        39 4.81500E+01 5.00000E+01 0.00000E+00
 -1        40 5.11500E+01 5.00000E+01 0.00000E+00
 -1        41 5.41500E+01 5.00000E+01 0.00000E+00
 -1        42 5.71500E+01 5.00000E+01 0.00000E+00
 -1        43 6.01500E+01 5.00000E+01 0.00000E+00
 -1        44 6.31500E+01 5.00000E+01 0.00000E+00
 -1        45 6.61500E+01 5.00000E+01 0.00000E+00
 -1        46 6.91500E+01 5.00000E+01 0.00000E+00
 -1        47 7.21500E+01 5.00000E+01 0.00000E+00
 -1        48 7.51500E+01 5.00000E+01 0.00000E+00
 -1        49 7.81500E+01 5.00000E+01 0.00000E+00
 -1        50 8.11500E+01 5.00000E+01 0.00000E+00
 -1        51 8.41500E+01 5.00000E+01 0.00000E+00
 -1        52 8.71500E+01 5.00000E+01 0.00000E+00
 -1        53 9.01500E+01 5.00000E+01 0.00000E+00
 -1        54 9.31500E+01 5.00000E+01 0.00000E+00
 -1        55 9.61500E+01 5.00000E+01 0.00000E+00
 -1        56 9.91500E+01 5.00000E+01 0.00000E+00
 -1        57 1.02150E+02 5.00000E+01 0.00000E+00
 -1        58 1.05150E+02 5.00000E+01 0.00000E+00
 -1        59 1.08150E+02 5.00000E+01 0.00000E+00
 -1        60 1.11150E+02 5.00000E+01 0.00000E+00
 -1        61 1.14150E+02 5.00000E+01 0.00000E+00
 -1        62 1.17150E+02 5.00000E+01 0.00000E+00
 -1        63 1.20150E+02 5.00000E+01 0.00000E+00
 -1        64 1.23150E+02 5.00000E+01 0.00000E+00
 -1        65 1.26150E+02 5.00000E+01 0.00000E+00
 -1        66 1.29150E+02 5.00000E+01 0.00000E+00
 -1        67 1.32150E+02 5.00000E+01 0.00000E+00
 -1        68 1.35150E+02 5.00000E+01 0.00000E+00
 -1        69 1.38150E+02 5.00000E+01 0.00000E+00
 -1        70 1.41150E+02 5.00000E+01 0.00000E+00
 -1        71 1.44150E+02 5.00000E+01 0.00000E+00
 -1        72 1.47150E+02 5.00000E+01 0.00000E+00
 -1        73 3.15000E+00 0.00000E+00 0.00000E+00
 -1        74 6.15000E+00 0.00000E+00 0.00000E+00
 -1        75 9.15000E+00 0.00000E+00 0.00000E+00
 -1        76 1.21500E+01 0.00000E+00 0.00000E+00
 -1        77 1.51500E+01 0.00000E+00 0.00000E+00
 -1        78 1.81500E+01 0.00000E+00 0.00000E+00
 -1        79 2.11500E+01 0.00000E+00 0.00000E+00
 -1        80 2.41500E+01 0.00000E+00 0.00000E+00
 -1        81 2.71500E+01 0.00000E+00 0.00000E+00
 -1        82 3.01500E+01 0.00000E+00 0.00000E+00
 -1        83 3.31500E+01 0.00000E+00 0.00000E+00
 -1        84 3.61500E+01 0.00000E+00 0.00000E+00
 -1        85 3.91500E+01 0.00000E+00 0.00000E+00
 -1        86 4.21500E+01 0.00000E+00 0.00000E+00
 -1        87 4.51500E+01 0.00000E+00 0.00000E+00
 -1        88 4.81500E+01 0.00000E+00 0.00000E+00
 -1        89 5.11500E+01 0.00000E+00 0.00000E+00
 -1        90 5.41500E+01 0.00000E+00 0.00000E+00
 -1        91 5.71500E+01 0.00000E+00 0.00000E+00
 -1        92 6.01500E+01 0.00000E+00 0.00000E+00
 -1        93 6.31500E+01 0.00000E+00 0.00000E+00
 -1        94 6.61500E+01 0.00000E+00 0.00000E+00
 -1        95 6.91500E+01 0.00000E+00 0.00000E+00
 -1        96 7.21500E+01 0.00000E+00 0.00000E+00
 -1        97 7.51500E+01 0.00000E+00 0.00000E+00
 -1        98 7.81500E+01 0.00000E+00 0.00000E+00
 -1        99 8.11500E+01 0.00000E+00 0.00000E+00
 -1       100 8.41500E+01 0.00000E+00 0.00000E+00
 -1       101 8.71500E+01 0.00000E+00 0.00000E+00
 -1       102 9.01500E+01 0.00000E+00 0.00000E+00
 -1       103 9.31500E+01 0.00000E+00 0.00000E+00
 -1       104 9.61500E+01 0.00000E+00 0.00000E+00
 -1       105 9.91500E+01 0.00000E+00 0.00000E+00
 -1       106 1.02150E+02 0.00000E+00 0.00000E+00
 -1       107 1.05150E+02 0.00000E+00 0.00000E+00
 -1       108 1.08150E+02 0.00000E+00 0.00000E+00
 -1       109 1.11150E+02 0.00000E+00 0.00000E+00
 -1       110 1.14150E+02 0.00000E+00 0.00000E+00
 -1       111 1.17150E+02 0.00000E+00 0.00000E+00
 -1       112 1.20150E+02 0.00000E+00 0.00000E+00
 -1       113 1.23150E+02 0.00000E+00 0.00000E+00
 -1       114 1.26150E+02 0.00000E+00 0.00000E+00
 -1       115 1.29150E+02 0.00000E+00 0.00000E+00
 -1       116 1.32150E+02 0.00000E+00 0.00000E+00
 -1       117 1.35150E+02 0.00000E+00 0.00000E+00
 -1       118 1.38150E+02 0.00000E+00 0.00000E+00
 -1       119 1.41150E+02 0.00000E+00 0.00000E+00
 -1       120 1.44150E+02 0.00000E+00 0.00000E+00
 -1       121 1.47150E+02 0.00000E+00 0.00000E+00
 -1       122 1.50000E+02 2.95000E+00 0.00000E+00
 -1       123 1.50000E+02 5.90000E+00 0.00000E+00
 -1       124 1.50000E+02 8.85000E+00 0.00000E+00
 -1       125 1.50000E+02 1.18000E+01 0.00000E+00
 -1       126 1.50000E+02 1.47500E+01 0.00000E+00
 -1       127 1.50000E+02 1.76500E+01 0.00000E+00
 -1       128 1.50000E+02 2.06000E+01 0.00000E+00
 -1       129 1.50000E+02 2.35500E+01 0.00000E+00
 -1       130 1.50000E+02 2.65000E+01 0.00000E+00
 -1       131 1.50000E+02 2.94500E+01 0.00000E+00
 -1       132 1.50000E+02 3.24000E+01 0.00000E+00
 -1       133 1.50000E+02 3.53000E+01 0.00000E+00
 -1       134 1.50000E+02 3.82500E+01 0.00000E+00
 -1       135 1.50000E+02 4.12000E+01 0.00000E+00
 -1       136 1.50000E+02 4.41500E+01 0.00000E+00
 -1       137 1.50000E+02 4.71000E+01 0.00000E+00
 -1       138 2.37904E+01 3.55717E+01 0.00000E+00
 -1       139 2.32612E+01 3.40400E+01 0.00000E+00
 -1       140 2.25149E+01 3.28247E+01 0.00000E+00
 -1       141 2.13432E+01 3.16233E+01 0.00000E+00
 -1       142 2.00521E+01 3.07993E+01 0.00000E+00
 -1       143 1.86539E+01 3.02859E+01 0.00000E+00
 -1       144 1.71404E+01 3.00789E+01 0.00000E+00
 -1       145 1.56717E+01 3.01948E+01 0.00000E+00
 -1       146 1.40856E+01 3.06911E+01 0.00000E+00
 -1       147 1.27508E+01 3.14789E+01 0.00000E+00
 -1       148 1.16263E+01 3.25360E+01 0.00000E+00
 -1       149 1.07389E+01 3.38559E+01 0.00000E+00
 -1       150 1.02104E+01 3.51994E+01 0.00000E+00
 -1       151 9.96831E+00 3.66299E+01 0.00000E+00
 -1       152 1.00422E+01 3.81840E+01 0.00000E+00
 -1       153 1.04329E+01 3.96209E+01 0.00000E+00
 -1       154 1.20263E+01 4.20480E+01 0.00000E+00
 -1       155 1.31549E+01 4.29557E+01 0.00000E+00
 -1       156 1.44760E+01 4.36231E+01 0.00000E+00
 -1       157 1.58768E+01 4.39930E+01 0.00000E+00
 -1       158 1.73672E+01 4.40642E+01 0.00000E+00
 -1       159 1.89203E+01 4.37946E+01 0.00000E+00
 -1       160 2.02864E+01 4.32323E+01 0.00000E+00
 -1       161 2.14982E+01 4.24009E+01 0.00000E+00
 -1       162 2.25109E+01 4.13334E+01 0.00000E+00
 -1       163 2.33151E+01 3.99981E+01 0.00000E+00
 -1       164 2.38086E+01 3.84959E+01 0.00000E+00
 -1       165 2.59800E+00 4.55000E+01 0.00000E+00
 -1       166 2.59800E+00 4.25000E+01 0.00000E+00
 -1       167 2.59800E+00 3.95000E+01 0.00000E+00
 -1       168 2.59800E+00 3.69500E+01 0.00000E+00
 -1       169 2.59800E+00 3.44000E+01 0.00000E+00
 -1       170 2.59800E+00 3.14000E+01 0.00000E+00
 -1       171 2.59800E+00 2.84000E+01 0.00000E+00
 -1       172 2.59800E+00 2.54000E+01 0.00000E+00
 -1       173 2.59800E+00 2.24000E+01 0.00000E+00
 -1       174 2.59800E+00 1.94000E+01 0.00000E+00
 -1       175 2.59800E+00 1.64500E+01 0.00000E+00
 -1       176 2.59800E+00 1.34500E+01 0.00000E+00
 -1       177 2.59800E+00 1.04500E+01 0.00000E+00
 -1       178 2.59800E+00 7.45000E+00 0.00000E+00
 -1       179 2.59800E+00 4.45000E+00 0.00000E+00
 -1       180 2.87400E+00 2.22500E+00 0.00000E+00
 -1       181 4.50000E+00 4.74020E+01 0.00000E+00
 -1       182 7.50000E+00 4.74020E+01 0.00000E+00
 -1       183 1.03500E+01 4.74020E+01 0.00000E+00
 -1       184 1.27500E+01 4.74020E+01 0.00000E+00
 -1       185 1.79250E+01 4.77822E+01 0.00000E+00
 -1       186 2.01750E+01 4.77822E+01 0.00000E+00
 -1       187 2.28750E+01 4.77822E+01 0.00000E+00
 -1       188 2.58750E+01 4.77822E+01 0.00000E+00
 -1       189 2.88750E+01 4.77822E+01 0.00000E+00
 -1       190 3.18750E+01 4.77822E+01 0.00000E+00
 -1       191 3.48750E+01 4.77822E+01 0.00000E+00
 -1       192 3.78750E+01 4.77822E+01 0.00000E+00
 -1       193 4.08750E+01 4.77822E+01 0.00000E+00
 -1       194 4.38750E+01 4.77822E+01 0.00000E+00
 -1       195 4.68750E+01 4.77822E+01 0.00000E+00
 -1       196 4.98750E+01 4.77822E+01 0.00000E+00
 -1       197 5.28750E+01 4.77822E+01 0.00000E+00
 -1       198 5.58750E+01 4.77822E+01 0.00000E+00
 -1       199 5.88750E+01 4.77822E+01 0.00000E+00
 -1       200 6.18750E+01 4.77822E+01 0.00000E+00
 -1       201 6.48750E+01 4.77822E+01 0.00000E+00
 -1       202 6.78750E+01 4.77822E+01 0.00000E+00
 -1       203 7.08750E+01 4.77822E+01 0.00000E+00
 -1       204 7.38750E+01 4.77822E+01 0.00000E+00
 -1       205 7.68750E+01 4.77822E+01 0.00000E+00
 -1       206 7.98750E+01 4.77822E+01 0.00000E+00
 -1       207 8.28750E+01 4.77822E+01 0.00000E+00
 -1       208 8.58750E+01 4.77822E+01 0.00000E+00
 -1       209 8.88750E+01 4.77822E+01 0.00000E+00
 -1       210 9.18750E+01 4.77822E+01 0.00000E+00
 -1       211 9.48750E+01 4.77822E+01 0.00000E+00
 -1       212 9.78750E+01 4.77822E+01 0.00000E+00
 -1       213 1.00875E+02 4.77822E+01 0.00000E+00
 -1       214 1.03875E+02 4.77822E+01 0.00000E+00
 -1       215 1.06875E+02 4.77822E+01 0.00000E+00
 -1       216 1.09875E+02 4.77822E+01 0.00000E+00
 -1       217 1.12875E+02 4.77822E+01 0.00000E+00
 -1       218 1.15875E+02 4.77822E+01 0.00000E+00
 -1       219 1.18875E+02 4.77822E+01 0.00000E+00
 -1       220 1.21875E+02 4.77822E+01 0.00000E+00
 -1       221 1.24875E+02 4.77822E+01 0.00000E+00
 -1       222 1.27875E+02 4.77822E+01 0.00000E+00
 -1       223 1.30875E+02 4.77822E+01 0.00000E+00
 -1       224 1.33875E+02 4.77822E+01 0.00000E+00
 -1       225 1.36875E+02 4.77822E+01 0.00000E+00
 -1       226 1.39875E+02 4.77822E+01 0.00000E+00
 -1       227 1.42875E+02 4.77822E+01 0.00000E+00
 -1       228 1.45875E+02 4.77822E+01 0.00000E+00
 -1       229 1.47938E+02 4.74411E+01 0.00000E+00
 -1       230 5.87400E+00 2.22500E+00 0.00000E+00
 -1       231 8.87400E+00 2.22500E+00 0.00000E+00
 -1       232 1.18740E+01 2.22500E+00 0.00000E+00
 -1       233 1.48740E+01 2.22500E+00 0.00000E+00
 -1       234 1.78740E+01 2.22500E+00 0.00000E+00
 -1       235 2.08740E+01 2.22500E+00 0.00000E+00
 -1       236 2.38740E+01 2.22500E+00 0.00000E+00
 -1       237 2.68740E+01 2.22500E+00 0.00000E+00
 -1       238 2.98740E+01 2.22500E+00 0.00000E+00
 -1       239 3.28740E+01 2.22500E+00 0.00000E+00
 -1       240 3.58740E+01 2.22500E+00 0.00000E+00
 -1       241 3.88740E+01 2.22500E+00 0.00000E+00
 -1       242 4.18740E+01 2.22500E+00 0.00000E+00
 -1       243 4.48740E+01 2.22500E+00 0.00000E+00
 -1       244 4.78740E+01 2.22500E+00 0.00000E+00
 -1       245 5.08740E+01 2.22500E+00 0.00000E+00
 -1       246 5.38740E+01 2.22500E+00 0.00000E+00
 -1       247 5.68740E+01 2.22500E+00 0.00000E+00
 -1       248 5.98740E+01 2.22500E+00 0.00000E+00
 -1       249 6.28740E+01 2.22500E+00 0.00000E+00
 -1       250 6.58740E+01 2.22500E+00 0.00000E+00
 -1       251 6.88740E+01 2.22500E+00 0.00000E+00
 -1       252 7.18740E+01 2.22500E+00 0.00000E+00
 -1       253 7.48740E+01 2.22500E+00 0.00000E+00
 -1       254 7.78740E+01 2.22500E+00 0.00000E+00
 -1       255 8.08740E+01 2.22500E+00 0.00000E+00
 -1       256 8.38740E+01 2.22500E+00 0.00000E+00
 -1       257 8.68740E+01 2.22500E+00 0.00000E+00
 -1       258 8.98740E+01 2.22500E+00 0.00000E+00
 -1       259 9.28740E+01 2.22500E+00 0.00000E+00
 -1       260 9.58740E+01 2.22500E+00 0.00000E+00
 -1       261 9.88740E+01 2.22500E+00 0.00000E+00
 -1       262 1.01874E+02 2.22500E+00 0.00000E+00
 -1       263 1.04874E+02 2.22500E+00 0.00000E+00
 -1       264 1.07874E+02 2.22500E+00 0.00000E+00
 -1       265 1.10874E+02 2.22500E+00 0.00000E+00
 -1       266 1.13874E+02 2.22500E+00 0.00000E+00
 -1       267 1.16874E+02 2.22500E+00 0.00000E+00
 -1       268 1.19874E+02 2.22500E+00 0.00000E+00
 -1       269 1.22874E+02 2.22500E+00 0.00000E+00
 -1       270 1.25874E+02 2.22500E+00 0.00000E+00
 -1       271 1.28874E+02 2.22500E+00 0.00000E+00
 -1       272 1.31874E+02 2.22500E+00 0.00000E+00
 -1       273 1.34874E+02 2.22500E+00 0.00000E+00
 -1       274 1.37874E+02 2.22500E+00 0.00000E+00
 -1       275 1.40874E+02 2.22500E+00 0.00000E+00
 -1       276 1.43874E+02 2.22500E+00 0.00000E+00
 -1       277 1.46874E+02 2.22500E+00 0.00000E+00
 -1       278 1.47402E+02 4.42500E+00 0.00000E+00
 -1       279 1.47402E+02 7.37500E+00 0.00000E+00
 -1       280 1.47402E+02 1.03250E+01 0.00000E+00
 -1       281 1.47402E+02 1.32750E+01 0.00000E+00
 -1       282 1.47402E+02 1.61750E+01 0.00000E+00
 -1       283 1.47402E+02 1.91250E+01 0.00000E+00
 -1       284 1.47402E+02 2.20750E+01 0.00000E+00
 -1       285 1.47402E+02 2.50250E+01 0.00000E+00
 -1       286 1.47402E+02 2.79750E+01 0.00000E+00
 -1       287 1.47402E+02 3.09250E+01 0.00000E+00
 -1       288 1.47402E+02 3.38250E+01 0.00000E+00
 -1       289 1.47402E+02 3.67750E+01 0.00000E+00
 -1       290 1.47402E+02 3.97250E+01 0.00000E+00
 -1       291 1.47402E+02 4.26750E+01 0.00000E+00
 -1       292 1.47670E+02 4.50580E+01 0.00000E+00
 -1       293 2.51608E+01 3.61839E+01 0.00000E+00
 -1       294 2.48301E+01 3.43552E+01 0.00000E+00
 -1       295 2.39212E+01 3.27979E+01 0.00000E+00
 -1       296 2.30369E+01 3.11435E+01 0.00000E+00
 -1       297 2.13950E+01 3.01187E+01 0.00000E+00
 -1       298 1.97709E+01 2.94045E+01 0.00000E+00
 -1       299 1.80728E+01 2.88982E+01 0.00000E+00
 -1       300 1.63106E+01 2.89282E+01 0.00000E+00
 -1       301 1.44166E+01 2.89660E+01 0.00000E+00
 -1       302 1.27168E+01 2.98965E+01 0.00000E+00
 -1       303 1.13581E+01 3.11241E+01 0.00000E+00
 -1       304 1.00374E+01 3.24260E+01 0.00000E+00
 -1       305 9.34638E+00 3.40839E+01 0.00000E+00
 -1       306 8.89396E+00 3.57123E+01 0.00000E+00
 -1       307 8.71055E+00 3.74685E+01 0.00000E+00
 -1       308 9.06763E+00 3.92205E+01 0.00000E+00
 -1       309 9.68698E+00 4.08203E+01 0.00000E+00
 -1       310 1.06223E+01 4.22453E+01 0.00000E+00
 -1       311 1.18307E+01 4.34466E+01 0.00000E+00
 -1       312 1.32310E+01 4.44463E+01 0.00000E+00
 -1       313 1.48669E+01 4.49803E+01 0.00000E+00
 -1       314 1.65602E+01 4.53233E+01 0.00000E+00
 -1       315 1.83798E+01 4.52890E+01 0.00000E+00
 -1       316 2.00967E+01 4.47121E+01 0.00000E+00
 -1       317 2.15782E+01 4.38164E+01 0.00000E+00
 -1       318 2.28842E+01 4.27015E+01 0.00000E+00
 -1       319 2.40951E+01 4.13778E+01 0.00000E+00
 -1       320 2.48729E+01 3.96777E+01 0.00000E+00
 -1       321 2.50874E+01 3.79097E+01 0.00000E+00
 -1       322 1.51304E+01 4.77596E+01 0.00000E+00
 -1       323 4.81582E+00 4.10000E+01 0.00000E+00
 -1       324 4.81582E+00 4.40000E+01 0.00000E+00
 -1       325 4.48069E+00 3.56750E+01 0.00000E+00
 -1       326 4.64826E+00 3.29000E+01 0.00000E+00
 -1       327 4.98339E+00 2.99000E+01 0.00000E+00
 -1       328 4.98339E+00 2.69000E+01 0.00000E+00
 -1       329 4.98339E+00 2.39000E+01 0.00000E+00
 -1       330 4.98339E+00 2.09000E+01 0.00000E+00
 -1       331 4.98339E+00 1.79500E+01 0.00000E+00
 -1       332 4.98339E+00 1.49500E+01 0.00000E+00
 -1       333 4.98339E+00 1.19500E+01 0.00000E+00
 -1       334 4.98339E+00 8.95000E+00 0.00000E+00
 -1       335 4.98339E+00 5.95000E+00 0.00000E+00
 -1       336 5.42870E+00 4.08750E+00 0.00000E+00
 -1       337 8.42870E+00 4.08750E+00 0.00000E+00
 -1       338 8.92500E+00 4.51842E+01 0.00000E+00
 -1       339 1.15500E+01 4.55193E+01 0.00000E+00
 -1       340 2.15250E+01 4.57319E+01 0.00000E+00
 -1       341 2.43750E+01 4.53968E+01 0.00000E+00
 -1       342 2.73750E+01 4.53968E+01 0.00000E+00
 -1       343 3.03750E+01 4.53968E+01 0.00000E+00
 -1       344 3.33750E+01 4.53968E+01 0.00000E+00
 -1       345 3.63750E+01 4.53968E+01 0.00000E+00
 -1       346 3.93750E+01 4.53968E+01 0.00000E+00
 -1       347 4.23750E+01 4.53968E+01 0.00000E+00
 -1       348 4.53750E+01 4.53968E+01 0.00000E+00
 -1       349 4.83750E+01 4.53968E+01 0.00000E+00
 -1       350 5.13750E+01 4.53968E+01 0.00000E+00
 -1       351 5.43750E+01 4.53968E+01 0.00000E+00
 -1       352 5.73750E+01 4.53968E+01 0.00000E+00
 -1       353 6.03750E+01 4.53968E+01 0.00000E+00
 -1       354 6.33750E+01 4.53968E+01 0.00000E+00
 -1       355 6.63750E+01 4.53968E+01 0.00000E+00
 -1       356 6.93750E+01 4.53968E+01 0.00000E+00
 -1       357 7.23750E+01 4.53968E+01 0.00000E+00
 -1       358 7.53750E+01 4.53968E+01 0.00000E+00
 -1       359 7.83750E+01 4.53968E+01 0.00000E+00
 -1       360 8.13750E+01 4.53968E+01 0.00000E+00
 -1       361 8.43750E+01 4.53968E+01 0.00000E+00
 -1       362 8.73750E+01 4.53968E+01 0.00000E+00
 -1       363 9.03750E+01 4.53968E+01 0.00000E+00
 -1       364 9.33750E+01 4.53968E+01 0.00000E+00
 -1       365 9.63750E+01 4.53968E+01 0.00000E+00
 -1       366 9.93750E+01 4.53968E+01 0.00000E+00
 -1       367 1.02375E+02 4.53968E+01 0.00000E+00
 -1       368 1.05375E+02 4.53968E+01 0.00000E+00
 -1       369 1.08375E+02 4.53968E+01 0.00000E+00
 -1       370 1.11375E+02 4.53968E+01 0.00000E+00
 -1       371 1.14375E+02 4.53968E+01 0.00000E+00
 -1       372 1.17375E+02 4.53968E+01 0.00000E+00
 -1       373 1.20375E+02 4.53968E+01 0.00000E+00
 -1       374 1.23375E+02 4.53968E+01 0.00000E+00
 -1       375 1.26375E+02 4.53968E+01 0.00000E+00
 -1       376 1.29375E+02 4.53968E+01 0.00000E+00
 -1       377 1.32375E+02 4.53968E+01 0.00000E+00
 -1       378 1.35375E+02 4.53968E+01 0.00000E+00
 -1       379 1.38375E+02 4.53968E+01 0.00000E+00
 -1       380 1.41375E+02 4.53968E+01 0.00000E+00
 -1       381 1.44375E+02 4.53968E+01 0.00000E+00
 -1       382 1.33740E+01 4.82300E+00 0.00000E+00
 -1       383 1.63740E+01 4.82300E+00 0.00000E+00
 -1       384 1.93740E+01 4.82300E+00 0.00000E+00
 -1       385 2.23740E+01 4.82300E+00 0.00000E+00
 -1       386 2.53740E+01 4.82300E+00 0.00000E+00
 -1       387 2.83740E+01 4.82300E+00 0.00000E+00
 -1       388 3.13740E+01 4.82300E+00 0.00000E+00
 -1       389 3.43740E+01 4.82300E+00 0.00000E+00
 -1       390 3.73740E+01 4.82300E+00 0.00000E+00
 -1       391 4.03740E+01 4.82300E+00 0.00000E+00
 -1       392 4.33740E+01 4.82300E+00 0.00000E+00
 -1       393 4.63740E+01 4.82300E+00 0.00000E+00
 -1       394 4.93740E+01 4.82300E+00 0.00000E+00
 -1       395 5.23740E+01 4.82300E+00 0.00000E+00
 -1       396 5.53740E+01 4.82300E+00 0.00000E+00
 -1       397 5.83740E+01 4.82300E+00 0.00000E+00
 -1       398 6.13740E+01 4.82300E+00 0.00000E+00
 -1       399 6.43740E+01 4.82300E+00 0.00000E+00
 -1       400 6.73740E+01 4.82300E+00 0.00000E+00
 -1       401 7.03740E+01 4.82300E+00 0.00000E+00
 -1       402 7.33740E+01 4.82300E+00 0.00000E+00
 -1       403 7.63740E+01 4.82300E+00 0.00000E+00
 -1       404 7.93740E+01 4.82300E+00 0.00000E+00
 -1       405 8.23740E+01 4.82300E+00 0.00000E+00
 -1       406 8.53740E+01 4.82300E+00 0.00000E+00
 -1       407 8.83740E+01 4.82300E+00 0.00000E+00
 -1       408 9.13740E+01 4.82300E+00 0.00000E+00
 -1       409 9.43740E+01 4.82300E+00 0.00000E+00
 -1       410 9.73740E+01 4.82300E+00 0.00000E+00
 -1       411 1.00374E+02 4.82300E+00 0.00000E+00
 -1       412 1.03374E+02 4.82300E+00 0.00000E+00
 -1       413 1.06374E+02 4.82300E+00 0.00000E+00
 -1       414 1.09374E+02 4.82300E+00 0.00000E+00
 -1       415 1.12374E+02 4.82300E+00 0.00000E+00
 -1       416 1.15374E+02 4.82300E+00 0.00000E+00
 -1       417 1.18374E+02 4.82300E+00 0.00000E+00
 -1       418 1.21374E+02 4.82300E+00 0.00000E+00
 -1       419 1.24374E+02 4.82300E+00 0.00000E+00
 -1       420 1.27374E+02 4.82300E+00 0.00000E+00
 -1       421 1.30374E+02 4.82300E+00 0.00000E+00
 -1       422 1.33374E+02 4.82300E+00 0.00000E+00
 -1       423 1.36374E+02 4.82300E+00 0.00000E+00
 -1       424 1.39374E+02 4.82300E+00 0.00000E+00
 -1       425 1.42374E+02 4.82300E+00 0.00000E+00
 -1       426 1.44888E+02 4.62400E+00 0.00000E+00
 -1       427 1.44804E+02 1.18000E+01 0.00000E+00
 -1       428 1.44804E+02 8.85000E+00 0.00000E+00
 -1       429 1.44804E+02 1.47000E+01 0.00000E+00
 -1       430 1.44804E+02 1.76500E+01 0.00000E+00
 -1       431 1.44804E+02 2.06000E+01 0.00000E+00
 -1       432 1.44804E+02 2.35500E+01 0.00000E+00
 -1       433 1.44804E+02 2.65000E+01 0.00000E+00
 -1       434 1.44804E+02 2.94500E+01 0.00000E+00
 -1       435 1.44804E+02 3.23500E+01 0.00000E+00
 -1       436 1.44804E+02 3.53000E+01 0.00000E+00
 -1       437 1.44804E+02 3.82500E+01 0.00000E+00
 -1       438 1.44804E+02 4.12000E+01 0.00000E+00
 -1       439 1.09013E+01 4.45525E+00 0.00000E+00
 -1       440 2.55675E+01 3.28809E+01 0.00000E+00
 -1       441 2.29023E+01 2.95315E+01 0.00000E+00
 -1       442 2.64191E+01 3.71019E+01 0.00000E+00
 -1       443 4.81582E+00 3.84500E+01 0.00000E+00
 -1       444 2.11722E+01 2.84217E+01 0.00000E+00
 -1       445 1.92922E+01 2.79092E+01 0.00000E+00
 -1       446 1.71653E+01 2.73659E+01 0.00000E+00
 -1       447 1.52713E+01 2.74037E+01 0.00000E+00
 -1       448 1.29041E+01 2.82208E+01 0.00000E+00
 -1       449 1.11124E+01 2.94864E+01 0.00000E+00
 -1       450 9.55252E+00 3.06133E+01 0.00000E+00
 -1       451 8.41813E+00 3.27240E+01 0.00000E+00
 -1       452 7.79054E+00 3.45287E+01 0.00000E+00
 -1       453 7.42975E+00 3.64471E+01 0.00000E+00
 -1       454 7.29063E+00 3.86703E+01 0.00000E+00
 -1       455 8.16853E+00 4.04884E+01 0.00000E+00
 -1       456 9.07100E+00 4.22441E+01 0.00000E+00
 -1       457 1.02536E+01 4.38247E+01 0.00000E+00
 -1       458 1.36468E+01 4.59455E+01 0.00000E+00
 -1       459 2.31815E+01 4.43722E+01 0.00000E+00
 -1       460 2.45078E+01 4.29711E+01 0.00000E+00
 -1       461 2.57389E+01 4.11019E+01 0.00000E+00
 -1       462 2.65996E+01 3.89902E+01 0.00000E+00
 -1       463 2.66832E+01 3.49644E+01 0.00000E+00
 -1       464 2.46832E+01 3.12265E+01 0.00000E+00
 -1       465 1.44589E+02 4.32984E+01 0.00000E+00
 -1       466 2.45486E+01 2.96146E+01 0.00000E+00
 -1       467 1.37588E+01 2.66585E+01 0.00000E+00
 -1       468 6.85341E+00 3.16276E+01 0.00000E+00
 -1       469 7.20122E+00 2.84000E+01 0.00000E+00
 -1       470 7.58139E+00 1.94250E+01 0.00000E+00
 -1       471 7.58139E+00 1.64250E+01 0.00000E+00
 -1       472 7.58139E+00 1.34250E+01 0.00000E+00
 -1       473 7.58139E+00 1.04250E+01 0.00000E+00
 -1       474 7.58139E+00 7.42500E+00 0.00000E+00
 -1       475 8.00504E+00 5.75625E+00 0.00000E+00
 -1       476 1.11154E+01 2.75896E+01 0.00000E+00
 -1       477 2.76373E+01 3.31130E+01 0.00000E+00
 -1       478 2.88750E+01 4.30114E+01 0.00000E+00
 -1       479 3.18750E+01 4.30114E+01 0.00000E+00
 -1       480 3.48750E+01 4.30114E+01 0.00000E+00
 -1       481 3.78750E+01 4.30114E+01 0.00000E+00
 -1       482 4.08750E+01 4.30114E+01 0.00000E+00
 -1       483 4.38750E+01 4.30114E+01 0.00000E+00
 -1       484 4.68750E+01 4.30114E+01 0.00000E+00
 -1       485 4.98750E+01 4.30114E+01 0.00000E+00
 -1       486 5.28750E+01 4.30114E+01 0.00000E+00
 -1       487 5.58750E+01 4.30114E+01 0.00000E+00
 -1       488 5.88750E+01 4.30114E+01 0.00000E+00
 -1       489 6.18750E+01 4.30114E+01 0.00000E+00
 -1       490 6.48750E+01 4.30114E+01 0.00000E+00
 -1       491 6.78750E+01 4.30114E+01 0.00000E+00
 -1       492 7.08750E+01 4.30114E+01 0.00000E+00
 -1       493 7.38750E+01 4.30114E+01 0.00000E+00
 -1       494 7.68750E+01 4.30114E+01 0.00000E+00
 -1       495 7.98750E+01 4.30114E+01 0.00000E+00
 -1       496 8.28750E+01 4.30114E+01 0.00000E+00
 -1       497 8.58750E+01 4.30114E+01 0.00000E+00
 -1       498 8.88750E+01 4.30114E+01 0.00000E+00
 -1       499 9.18750E+01 4.30114E+01 0.00000E+00
 -1       500 9.48750E+01 4.30114E+01 0.00000E+00
 -1       501 9.78750E+01 4.30114E+01 0.00000E+00
 -1       502 1.00875E+02 4.30114E+01 0.00000E+00
 -1       503 1.03875E+02 4.30114E+01 0.00000E+00
 -1       504 1.06875E+02 4.30114E+01 0.00000E+00
 -1       505 1.09875E+02 4.30114E+01 0.00000E+00
 -1       506 1.12875E+02 4.30114E+01 0.00000E+00
 -1       507 1.15875E+02 4.30114E+01 0.00000E+00
 -1       508 1.18875E+02 4.30114E+01 0.00000E+00
 -1       509 1.21875E+02 4.30114E+01 0.00000E+00
 -1       510 1.24875E+02 4.30114E+01 0.00000E+00
 -1       511 1.27875E+02 4.30114E+01 0.00000E+00
 -1       512 1.30875E+02 4.30114E+01 0.00000E+00
 -1       513 1.33875E+02 4.30114E+01 0.00000E+00
 -1       514 1.36875E+02 4.30114E+01 0.00000E+00
 -1       515 1.39875E+02 4.30114E+01 0.00000E+00
 -1       516 1.42232E+02 4.31549E+01 0.00000E+00
 -1       517 2.08740E+01 7.42100E+00 0.00000E+00
 -1       518 1.78740E+01 7.42100E+00 0.00000E+00
 -1       519 1.48740E+01 7.42100E+00 0.00000E+00
 -1       520 2.38740E+01 7.42100E+00 0.00000E+00
 -1       521 2.68740E+01 7.42100E+00 0.00000E+00
 -1       522 2.98740E+01 7.42100E+00 0.00000E+00
 -1       523 3.28740E+01 7.42100E+00 0.00000E+00
 -1       524 3.58740E+01 7.42100E+00 0.00000E+00
 -1       525 3.88740E+01 7.42100E+00 0.00000E+00
 -1       526 4.18740E+01 7.42100E+00 0.00000E+00
 -1       527 4.48740E+01 7.42100E+00 0.00000E+00
 -1       528 4.78740E+01 7.42100E+00 0.00000E+00
 -1       529 5.08740E+01 7.42100E+00 0.00000E+00
 -1       530 5.38740E+01 7.42100E+00 0.00000E+00
 -1       531 5.68740E+01 7.42100E+00 0.00000E+00
 -1       532 5.98740E+01 7.42100E+00 0.00000E+00
 -1       533 6.28740E+01 7.42100E+00 0.00000E+00
 -1       534 6.58740E+01 7.42100E+00 0.00000E+00
 -1       535 6.88740E+01 7.42100E+00 0.00000E+00
 -1       536 7.18740E+01 7.42100E+00 0.00000E+00
 -1       537 7.48740E+01 7.42100E+00 0.00000E+00
 -1       538 7.78740E+01 7.42100E+00 0.00000E+00
 -1       539 8.08740E+01 7.42100E+00 0.00000E+00
 -1       540 8.38740E+01 7.42100E+00 0.00000E+00
 -1       541 8.68740E+01 7.42100E+00 0.00000E+00
 -1       542 8.98740E+01 7.42100E+00 0.00000E+00
 -1       543 9.28740E+01 7.42100E+00 0.00000E+00
 -1       544 9.58740E+01 7.42100E+00 0.00000E+00
 -1       545 9.88740E+01 7.42100E+00 0.00000E+00
 -1       546 1.01874E+02 7.42100E+00 0.00000E+00
 -1       547 1.04874E+02 7.42100E+00 0.00000E+00
 -1       548 1.07874E+02 7.42100E+00 0.00000E+00
 -1       549 1.10874E+02 7.42100E+00 0.00000E+00
 -1       550 1.13874E+02 7.42100E+00 0.00000E+00
 -1       551 1.16874E+02 7.42100E+00 0.00000E+00
 -1       552 1.19874E+02 7.42100E+00 0.00000E+00
 -1       553 1.22874E+02 7.42100E+00 0.00000E+00
 -1       554 1.25874E+02 7.42100E+00 0.00000E+00
 -1       555 1.28874E+02 7.42100E+00 0.00000E+00
 -1       556 1.31874E+02 7.42100E+00 0.00000E+00
 -1       557 1.34874E+02 7.42100E+00 0.00000E+00
 -1       558 1.37874E+02 7.42100E+00 0.00000E+00
 -1       559 1.40874E+02 7.42100E+00 0.00000E+00
 -1       560 1.42206E+02 1.61750E+01 0.00000E+00
 -1       561 1.42206E+02 1.32750E+01 0.00000E+00
 -1       562 1.42206E+02 1.03250E+01 0.00000E+00
 -1       563 2.80870E+01 3.62229E+01 0.00000E+00
 -1       564 1.42206E+02 1.91250E+01 0.00000E+00
 -1       565 1.42206E+02 2.20750E+01 0.00000E+00
 -1       566 1.42206E+02 2.50250E+01 0.00000E+00
 -1       567 1.42206E+02 2.79750E+01 0.00000E+00
 -1       568 1.42206E+02 3.08750E+01 0.00000E+00
 -1       569 1.42206E+02 3.38250E+01 0.00000E+00
 -1       570 1.42206E+02 3.67750E+01 0.00000E+00
 -1       571 1.42206E+02 3.97250E+01 0.00000E+00
 -1       572 2.29181E+01 2.76035E+01 0.00000E+00
 -1       573 2.75247E+01 4.05985E+01 0.00000E+00
 -1       574 1.86118E+01 2.61382E+01 0.00000E+00
 -1       575 6.27648E+00 3.43909E+01 0.00000E+00
 -1       576 7.58139E+00 2.24250E+01 0.00000E+00
 -1       577 7.58139E+00 2.54250E+01 0.00000E+00
 -1       578 2.82675E+01 3.81112E+01 0.00000E+00
 -1       579 7.48455E+00 4.24610E+01 0.00000E+00
 -1       580 2.06833E+01 2.65107E+01 0.00000E+00
 -1       581 1.61891E+01 2.59213E+01 0.00000E+00
 -1       582 9.42617E+00 2.87954E+01 0.00000E+00
 -1       583 6.41144E+00 4.02158E+01 0.00000E+00
 -1       584 2.65557E+01 4.29798E+01 0.00000E+00
 -1       585 2.64162E+01 3.13637E+01 0.00000E+00
 -1       586 1.04777E+01 6.12400E+00 0.00000E+00
 -1       587 2.90411E+01 3.43715E+01 0.00000E+00
 -1       588 6.51737E+00 3.68368E+01 0.00000E+00
 -1       589 2.45644E+01 2.76866E+01 0.00000E+00
 -1       590 1.26758E+01 6.77250E+00 0.00000E+00
 -1       591 2.62816E+01 2.97517E+01 0.00000E+00
 -1       592 1.46766E+01 2.51761E+01 0.00000E+00
 -1       593 1.19701E+01 2.60272E+01 0.00000E+00
 -1       594 1.01794E+01 1.79250E+01 0.00000E+00
 -1       595 1.00540E+01 7.79275E+00 0.00000E+00
 -1       596 1.39206E+02 1.03250E+01 0.00000E+00
 -1       597 3.33750E+01 4.06260E+01 0.00000E+00
 -1       598 3.63750E+01 4.06260E+01 0.00000E+00
 -1       599 3.93750E+01 4.06260E+01 0.00000E+00
 -1       600 4.23750E+01 4.06260E+01 0.00000E+00
 -1       601 4.53750E+01 4.06260E+01 0.00000E+00
 -1       602 4.83750E+01 4.06260E+01 0.00000E+00
 -1       603 5.13750E+01 4.06260E+01 0.00000E+00
 -1       604 5.43750E+01 4.06260E+01 0.00000E+00
 -1       605 5.73750E+01 4.06260E+01 0.00000E+00
 -1       606 6.03750E+01 4.06260E+01 0.00000E+00
 -1       607 6.33750E+01 4.06260E+01 0.00000E+00
 -1       608 6.63750E+01 4.06260E+01 0.00000E+00
 -1       609 6.93750E+01 4.06260E+01 0.00000E+00
 -1       610 7.23750E+01 4.06260E+01 0.00000E+00
 -1       611 7.53750E+01 4.06260E+01 0.00000E+00
 -1       612 7.83750E+01 4.06260E+01 0.00000E+00
 -1       613 8.13750E+01 4.06260E+01 0.00000E+00
 -1       614 8.43750E+01 4.06260E+01 0.00000E+00
 -1       615 8.73750E+01 4.06260E+01 0.00000E+00
 -1       616 9.03750E+01 4.06260E+01 0.00000E+00
 -1       617 9.33750E+01 4.06260E+01 0.00000E+00
 -1       618 9.63750E+01 4.06260E+01 0.00000E+00
 -1       619 9.93750E+01 4.06260E+01 0.00000E+00
 -1       620 1.02375E+02 4.06260E+01 0.00000E+00
 -1       621 1.05375E+02 4.06260E+01 0.00000E+00
 -1       622 1.08375E+02 4.06260E+01 0.00000E+00
 -1       623 1.11375E+02 4.06260E+01 0.00000E+00
 -1       624 1.14375E+02 4.06260E+01 0.00000E+00
 -1       625 1.17375E+02 4.06260E+01 0.00000E+00
 -1       626 1.20375E+02 4.06260E+01 0.00000E+00
 -1       627 1.23375E+02 4.06260E+01 0.00000E+00
 -1       628 1.26375E+02 4.06260E+01 0.00000E+00
 -1       629 1.29375E+02 4.06260E+01 0.00000E+00
 -1       630 1.32375E+02 4.06260E+01 0.00000E+00
 -1       631 1.35375E+02 4.06260E+01 0.00000E+00
 -1       632 1.38375E+02 4.06260E+01 0.00000E+00
 -1       633 1.93740E+01 1.00190E+01 0.00000E+00
 -1       634 2.23740E+01 1.00190E+01 0.00000E+00
 -1       635 1.63740E+01 1.00190E+01 0.00000E+00
 -1       636 2.83740E+01 1.00190E+01 0.00000E+00
 -1       637 3.13740E+01 1.00190E+01 0.00000E+00
 -1       638 3.43740E+01 1.00190E+01 0.00000E+00
 -1       639 3.73740E+01 1.00190E+01 0.00000E+00
 -1       640 4.03740E+01 1.00190E+01 0.00000E+00
 -1       641 4.33740E+01 1.00190E+01 0.00000E+00
 -1       642 4.63740E+01 1.00190E+01 0.00000E+00
 -1       643 4.93740E+01 1.00190E+01 0.00000E+00
 -1       644 5.23740E+01 1.00190E+01 0.00000E+00
 -1       645 5.53740E+01 1.00190E+01 0.00000E+00
 -1       646 5.83740E+01 1.00190E+01 0.00000E+00
 -1       647 6.13740E+01 1.00190E+01 0.00000E+00
 -1       648 6.43740E+01 1.00190E+01 0.00000E+00
 -1       649 6.73740E+01 1.00190E+01 0.00000E+00
 -1       650 7.03740E+01 1.00190E+01 0.00000E+00
 -1       651 7.33740E+01 1.00190E+01 0.00000E+00
 -1       652 7.63740E+01 1.00190E+01 0.00000E+00
 -1       653 7.93740E+01 1.00190E+01 0.00000E+00
 -1       654 8.23740E+01 1.00190E+01 0.00000E+00
 -1       655 8.53740E+01 1.00190E+01 0.00000E+00
 -1       656 8.83740E+01 1.00190E+01 0.00000E+00
 -1       657 9.13740E+01 1.00190E+01 0.00000E+00
 -1       658 9.43740E+01 1.00190E+01 0.00000E+00
 -1       659 9.73740E+01 1.00190E+01 0.00000E+00
 -1       660 1.00374E+02 1.00190E+01 0.00000E+00
 -1       661 1.03374E+02 1.00190E+01 0.00000E+00
 -1       662 1.06374E+02 1.00190E+01 0.00000E+00
 -1       663 1.09374E+02 1.00190E+01 0.00000E+00
 -1       664 1.12374E+02 1.00190E+01 0.00000E+00
 -1       665 1.15374E+02 1.00190E+01 0.00000E+00
 -1       666 1.18374E+02 1.00190E+01 0.00000E+00
 -1       667 1.21374E+02 1.00190E+01 0.00000E+00
 -1       668 1.24374E+02 1.00190E+01 0.00000E+00
 -1       669 1.27374E+02 1.00190E+01 0.00000E+00
 -1       670 1.30374E+02 1.00190E+01 0.00000E+00
 -1       671 1.33374E+02 1.00190E+01 0.00000E+00
 -1       672 1.36290E+02 1.01720E+01 0.00000E+00
 -1       673 1.39608E+02 2.06000E+01 0.00000E+00
 -1       674 1.39608E+02 1.76500E+01 0.00000E+00
 -1       675 2.53740E+01 1.00190E+01 0.00000E+00
 -1       676 1.39608E+02 2.65000E+01 0.00000E+00
 -1       677 1.39608E+02 2.94000E+01 0.00000E+00
 -1       678 1.39608E+02 3.23500E+01 0.00000E+00
 -1       679 1.39608E+02 3.53000E+01 0.00000E+00
 -1       680 1.38992E+02 3.79630E+01 0.00000E+00
 -1       681 2.83644E+01 3.13046E+01 0.00000E+00
 -1       682 2.27014E+01 2.52153E+01 0.00000E+00
 -1       683 7.77836E+00 2.98233E+01 0.00000E+00
 -1       684 1.01794E+01 2.09250E+01 0.00000E+00
 -1       685 1.01794E+01 2.39250E+01 0.00000E+00
 -1       686 2.97178E+01 3.70198E+01 0.00000E+00
 -1       687 1.75533E+01 2.43215E+01 0.00000E+00
 -1       688 2.95395E+01 3.98456E+01 0.00000E+00
 -1       689 1.39608E+02 2.35500E+01 0.00000E+00
 -1       690 1.01794E+01 1.49250E+01 0.00000E+00
 -1       691 1.99808E+01 2.44715E+01 0.00000E+00
 -1       692 1.39608E+02 1.47500E+01 0.00000E+00
 -1       693 1.01794E+01 1.19250E+01 0.00000E+00
 -1       694 2.62974E+01 2.78237E+01 0.00000E+00
 -1       695 2.97683E+01 3.25631E+01 0.00000E+00
 -1       696 1.03023E+01 2.61258E+01 0.00000E+00
 -1       697 2.98428E+01 4.08856E+01 0.00000E+00
 -1       698 1.33741E+01 1.00190E+01 0.00000E+00
 -1       699 2.43476E+01 2.52983E+01 0.00000E+00
 -1       700 2.82298E+01 2.96926E+01 0.00000E+00
 -1       701 1.28879E+01 2.45449E+01 0.00000E+00
 -1       702 3.09898E+01 3.87542E+01 0.00000E+00
 -1       703 1.60408E+01 2.35762E+01 0.00000E+00
 -1       704 3.48750E+01 3.84082E+01 0.00000E+00
 -1       705 3.15282E+01 3.51466E+01 0.00000E+00
 -1       706 1.27774E+01 1.34250E+01 0.00000E+00
 -1       707 1.48741E+01 1.26170E+01 0.00000E+00
 -1       708 3.78750E+01 3.82406E+01 0.00000E+00
 -1       709 4.08750E+01 3.82406E+01 0.00000E+00
 -1       710 4.38750E+01 3.82406E+01 0.00000E+00
 -1       711 4.68750E+01 3.82406E+01 0.00000E+00
 -1       712 4.98750E+01 3.82406E+01 0.00000E+00
 -1       713 5.28750E+01 3.82406E+01 0.00000E+00
 -1       714 5.58750E+01 3.82406E+01 0.00000E+00
 -1       715 5.88750E+01 3.82406E+01 0.00000E+00
 -1       716 6.18750E+01 3.82406E+01 0.00000E+00
 -1       717 6.48750E+01 3.82406E+01 0.00000E+00
 -1       718 6.78750E+01 3.82406E+01 0.00000E+00
 -1       719 7.08750E+01 3.82406E+01 0.00000E+00
 -1       720 7.38750E+01 3.82406E+01 0.00000E+00
 -1       721 7.68750E+01 3.82406E+01 0.00000E+00
 -1       722 7.98750E+01 3.82406E+01 0.00000E+00
 -1       723 8.28750E+01 3.82406E+01 0.00000E+00
 -1       724 8.58750E+01 3.82406E+01 0.00000E+00
 -1       725 8.88750E+01 3.82406E+01 0.00000E+00
 -1       726 9.18750E+01 3.82406E+01 0.00000E+00
 -1       727 9.48750E+01 3.82406E+01 0.00000E+00
 -1       728 9.78750E+01 3.82406E+01 0.00000E+00
 -1       729 1.00875E+02 3.82406E+01 0.00000E+00
 -1       730 1.03875E+02 3.82406E+01 0.00000E+00
 -1       731 1.06875E+02 3.82406E+01 0.00000E+00
 -1       732 1.09875E+02 3.82406E+01 0.00000E+00
 -1       733 1.12875E+02 3.82406E+01 0.00000E+00
 -1       734 1.15875E+02 3.82406E+01 0.00000E+00
 -1       735 1.18875E+02 3.82406E+01 0.00000E+00
 -1       736 1.21875E+02 3.82406E+01 0.00000E+00
 -1       737 1.24875E+02 3.82406E+01 0.00000E+00
 -1       738 1.27875E+02 3.82406E+01 0.00000E+00
 -1       739 1.30875E+02 3.82406E+01 0.00000E+00
 -1       740 1.33875E+02 3.82406E+01 0.00000E+00
 -1       741 1.36433E+02 3.81018E+01 0.00000E+00
 -1       742 1.37010E+02 3.08750E+01 0.00000E+00
 -1       743 1.37010E+02 2.20750E+01 0.00000E+00
 -1       744 2.08740E+01 1.26170E+01 0.00000E+00
 -1       745 1.78740E+01 1.26170E+01 0.00000E+00
 -1       746 3.28740E+01 1.26170E+01 0.00000E+00
 -1       747 2.98740E+01 1.26170E+01 0.00000E+00
 -1       748 3.88740E+01 1.26170E+01 0.00000E+00
 -1       749 4.18740E+01 1.26170E+01 0.00000E+00
 -1       750 4.48740E+01 1.26170E+01 0.00000E+00
 -1       751 4.78740E+01 1.26170E+01 0.00000E+00
 -1       752 5.08740E+01 1.26170E+01 0.00000E+00
 -1       753 5.38740E+01 1.26170E+01 0.00000E+00
 -1       754 5.68740E+01 1.26170E+01 0.00000E+00
 -1       755 5.98740E+01 1.26170E+01 0.00000E+00
 -1       756 6.28740E+01 1.26170E+01 0.00000E+00
 -1       757 6.58740E+01 1.26170E+01 0.00000E+00
 -1       758 6.88740E+01 1.26170E+01 0.00000E+00
 -1       759 7.18740E+01 1.26170E+01 0.00000E+00
 -1       760 7.48740E+01 1.26170E+01 0.00000E+00
 -1       761 7.78740E+01 1.26170E+01 0.00000E+00
 -1       762 8.08740E+01 1.26170E+01 0.00000E+00
 -1       763 8.38740E+01 1.26170E+01 0.00000E+00
 -1       764 8.68740E+01 1.26170E+01 0.00000E+00
 -1       765 8.98740E+01 1.26170E+01 0.00000E+00
 -1       766 9.28740E+01 1.26170E+01 0.00000E+00
 -1       767 9.58740E+01 1.26170E+01 0.00000E+00
 -1       768 9.88740E+01 1.26170E+01 0.00000E+00
 -1       769 1.01874E+02 1.26170E+01 0.00000E+00
 -1       770 1.04874E+02 1.26170E+01 0.00000E+00
 -1       771 1.07874E+02 1.26170E+01 0.00000E+00
 -1       772 1.10874E+02 1.26170E+01 0.00000E+00
 -1       773 1.13874E+02 1.26170E+01 0.00000E+00
 -1       774 1.16874E+02 1.26170E+01 0.00000E+00
 -1       775 1.19874E+02 1.26170E+01 0.00000E+00
 -1       776 1.22874E+02 1.26170E+01 0.00000E+00
 -1       777 1.25874E+02 1.26170E+01 0.00000E+00
 -1       778 1.28874E+02 1.26170E+01 0.00000E+00
 -1       779 1.31874E+02 1.26170E+01 0.00000E+00
 -1       780 1.27774E+01 1.94250E+01 0.00000E+00
 -1       781 1.27774E+01 1.64250E+01 0.00000E+00
 -1       782 1.37010E+02 1.91250E+01 0.00000E+00
 -1       783 1.37010E+02 3.38250E+01 0.00000E+00
 -1       784 1.37010E+02 2.79750E+01 0.00000E+00
 -1       785 3.58740E+01 1.26170E+01 0.00000E+00
 -1       786 2.19702E+01 2.25424E+01 0.00000E+00
 -1       787 1.36692E+02 1.45970E+01 0.00000E+00
 -1       788 1.36851E+02 1.68610E+01 0.00000E+00
 -1       789 1.37010E+02 2.50250E+01 0.00000E+00
 -1       790 1.88832E+01 2.25174E+01 0.00000E+00
 -1       791 2.60807E+01 2.54355E+01 0.00000E+00
 -1       792 3.28003E+01 3.68810E+01 0.00000E+00
 -1       793 3.02112E+01 3.06568E+01 0.00000E+00
 -1       794 1.73707E+01 2.17722E+01 0.00000E+00
 -1       795 2.38740E+01 1.26170E+01 0.00000E+00
 -1       796 2.68740E+01 1.26170E+01 0.00000E+00
 -1       797 1.34283E+02 1.36070E+01 0.00000E+00
 -1       798 2.36165E+01 2.26255E+01 0.00000E+00
 -1       799 1.36722E+02 3.59634E+01 0.00000E+00
 -1       800 1.42521E+01 2.29450E+01 0.00000E+00
 -1       801 1.23972E+01 2.24250E+01 0.00000E+00
 -1       802 3.24812E+01 3.26062E+01 0.00000E+00
 -1       803 1.48741E+01 1.56170E+01 0.00000E+00
 -1       804 2.04433E+01 2.04797E+01 0.00000E+00
 -1       805 4.23750E+01 3.56426E+01 0.00000E+00
 -1       806 4.53750E+01 3.56426E+01 0.00000E+00
 -1       807 4.83750E+01 3.56426E+01 0.00000E+00
 -1       808 5.13750E+01 3.56426E+01 0.00000E+00
 -1       809 5.43750E+01 3.56426E+01 0.00000E+00
 -1       810 5.73750E+01 3.56426E+01 0.00000E+00
 -1       811 6.03750E+01 3.56426E+01 0.00000E+00
 -1       812 6.33750E+01 3.56426E+01 0.00000E+00
 -1       813 6.63750E+01 3.56426E+01 0.00000E+00
 -1       814 6.93750E+01 3.56426E+01 0.00000E+00
 -1       815 7.23750E+01 3.56426E+01 0.00000E+00
 -1       816 7.53750E+01 3.56426E+01 0.00000E+00
 -1       817 7.83750E+01 3.56426E+01 0.00000E+00
 -1       818 8.13750E+01 3.56426E+01 0.00000E+00
 -1       819 8.43750E+01 3.56426E+01 0.00000E+00
 -1       820 8.73750E+01 3.56426E+01 0.00000E+00
 -1       821 9.03750E+01 3.56426E+01 0.00000E+00
 -1       822 9.33750E+01 3.56426E+01 0.00000E+00
 -1       823 9.63750E+01 3.56426E+01 0.00000E+00
 -1       824 9.93750E+01 3.56426E+01 0.00000E+00
 -1       825 1.02375E+02 3.56426E+01 0.00000E+00
 -1       826 1.05375E+02 3.56426E+01 0.00000E+00
 -1       827 1.08375E+02 3.56426E+01 0.00000E+00
 -1       828 1.11375E+02 3.56426E+01 0.00000E+00
 -1       829 1.14375E+02 3.56426E+01 0.00000E+00
 -1       830 1.17375E+02 3.56426E+01 0.00000E+00
 -1       831 1.20375E+02 3.56426E+01 0.00000E+00
 -1       832 1.23375E+02 3.56426E+01 0.00000E+00
 -1       833 1.26375E+02 3.56426E+01 0.00000E+00
 -1       834 1.29375E+02 3.56426E+01 0.00000E+00
 -1       835 1.32375E+02 3.56426E+01 0.00000E+00
 -1       836 1.34412E+02 3.23500E+01 0.00000E+00
 -1       837 3.13740E+01 1.52150E+01 0.00000E+00
 -1       838 4.33740E+01 1.52150E+01 0.00000E+00
 -1       839 4.03740E+01 1.52150E+01 0.00000E+00
 -1       840 4.93740E+01 1.52150E+01 0.00000E+00
 -1       841 5.23740E+01 1.52150E+01 0.00000E+00
 -1       842 5.53740E+01 1.52150E+01 0.00000E+00
 -1       843 5.83740E+01 1.52150E+01 0.00000E+00
 -1       844 6.13740E+01 1.52150E+01 0.00000E+00
 -1       845 6.43740E+01 1.52150E+01 0.00000E+00
 -1       846 6.73740E+01 1.52150E+01 0.00000E+00
 -1       847 7.03740E+01 1.52150E+01 0.00000E+00
 -1       848 7.33740E+01 1.52150E+01 0.00000E+00
 -1       849 7.63740E+01 1.52150E+01 0.00000E+00
 -1       850 7.93740E+01 1.52150E+01 0.00000E+00
 -1       851 8.23740E+01 1.52150E+01 0.00000E+00
 -1       852 8.53740E+01 1.52150E+01 0.00000E+00
 -1       853 8.83740E+01 1.52150E+01 0.00000E+00
 -1       854 9.13740E+01 1.52150E+01 0.00000E+00
 -1       855 9.43740E+01 1.52150E+01 0.00000E+00
 -1       856 9.73740E+01 1.52150E+01 0.00000E+00
 -1       857 1.00374E+02 1.52150E+01 0.00000E+00
 -1       858 1.03374E+02 1.52150E+01 0.00000E+00
 -1       859 1.06374E+02 1.52150E+01 0.00000E+00
 -1       860 1.09374E+02 1.52150E+01 0.00000E+00
 -1       861 1.12374E+02 1.52150E+01 0.00000E+00
 -1       862 1.15374E+02 1.52150E+01 0.00000E+00
 -1       863 1.18374E+02 1.52150E+01 0.00000E+00
 -1       864 1.21374E+02 1.52150E+01 0.00000E+00
 -1       865 1.24374E+02 1.52150E+01 0.00000E+00
 -1       866 1.27374E+02 1.52150E+01 0.00000E+00
 -1       867 1.30374E+02 1.52150E+01 0.00000E+00
 -1       868 1.48741E+01 1.86170E+01 0.00000E+00
 -1       869 1.34412E+02 2.06000E+01 0.00000E+00
 -1       870 1.34412E+02 2.94500E+01 0.00000E+00
 -1       871 3.00443E+01 2.84818E+01 0.00000E+00
 -1       872 4.63740E+01 1.52150E+01 0.00000E+00
 -1       873 3.93750E+01 3.56426E+01 0.00000E+00
 -1       874 1.45631E+01 2.07810E+01 0.00000E+00
 -1       875 3.63750E+01 3.58102E+01 0.00000E+00
 -1       876 2.80625E+01 2.69587E+01 0.00000E+00
 -1       877 3.37532E+01 3.43406E+01 0.00000E+00
 -1       878 1.34253E+02 1.83360E+01 0.00000E+00
 -1       879 1.89308E+01 1.97345E+01 0.00000E+00
 -1       880 2.23740E+01 1.52150E+01 0.00000E+00
 -1       881 3.43740E+01 1.52150E+01 0.00000E+00
 -1       882 3.21720E+01 2.94124E+01 0.00000E+00
 -1       883 2.83740E+01 1.52150E+01 0.00000E+00
 -1       884 2.20896E+01 2.05628E+01 0.00000E+00
 -1       885 1.34412E+02 2.35500E+01 0.00000E+00
 -1       886 1.34412E+02 2.65000E+01 0.00000E+00
 -1       887 3.73740E+01 1.52150E+01 0.00000E+00
 -1       888 1.93740E+01 1.52150E+01 0.00000E+00
 -1       889 1.34442E+02 1.58710E+01 0.00000E+00
 -1       890 1.59669E+01 2.12766E+01 0.00000E+00
 -1       891 2.53495E+01 2.27627E+01 0.00000E+00
 -1       892 2.53740E+01 1.52150E+01 0.00000E+00
 -1       893 3.19969E+01 2.69151E+01 0.00000E+00
 -1       894 1.31184E+02 3.26294E+01 0.00000E+00
 -1       895 4.68750E+01 3.30446E+01 0.00000E+00
 -1       896 4.98750E+01 3.30446E+01 0.00000E+00
 -1       897 5.28750E+01 3.30446E+01 0.00000E+00
 -1       898 5.58750E+01 3.30446E+01 0.00000E+00
 -1       899 5.88750E+01 3.30446E+01 0.00000E+00
 -1       900 6.18750E+01 3.30446E+01 0.00000E+00
 -1       901 6.48750E+01 3.30446E+01 0.00000E+00
 -1       902 6.78750E+01 3.30446E+01 0.00000E+00
 -1       903 7.08750E+01 3.30446E+01 0.00000E+00
 -1       904 7.38750E+01 3.30446E+01 0.00000E+00
 -1       905 7.68750E+01 3.30446E+01 0.00000E+00
 -1       906 7.98750E+01 3.30446E+01 0.00000E+00
 -1       907 8.28750E+01 3.30446E+01 0.00000E+00
 -1       908 8.58750E+01 3.30446E+01 0.00000E+00
 -1       909 8.88750E+01 3.30446E+01 0.00000E+00
 -1       910 9.18750E+01 3.30446E+01 0.00000E+00
 -1       911 9.48750E+01 3.30446E+01 0.00000E+00
 -1       912 9.78750E+01 3.30446E+01 0.00000E+00
 -1       913 1.00875E+02 3.30446E+01 0.00000E+00
 -1       914 1.03875E+02 3.30446E+01 0.00000E+00
 -1       915 1.06875E+02 3.30446E+01 0.00000E+00
 -1       916 1.09875E+02 3.30446E+01 0.00000E+00
 -1       917 1.12875E+02 3.30446E+01 0.00000E+00
 -1       918 1.15875E+02 3.30446E+01 0.00000E+00
 -1       919 1.18875E+02 3.30446E+01 0.00000E+00
 -1       920 1.21875E+02 3.30446E+01 0.00000E+00
 -1       921 1.24875E+02 3.30446E+01 0.00000E+00
 -1       922 1.27875E+02 3.30446E+01 0.00000E+00
 -1       923 3.45341E+01 3.07956E+01 0.00000E+00
 -1       924 5.38740E+01 1.78130E+01 0.00000E+00
 -1       925 5.08740E+01 1.78130E+01 0.00000E+00
 -1       926 5.98740E+01 1.78130E+01 0.00000E+00
 -1       927 6.28740E+01 1.78130E+01 0.00000E+00
 -1       928 6.58740E+01 1.78130E+01 0.00000E+00
 -1       929 6.88740E+01 1.78130E+01 0.00000E+00
 -1       930 7.18740E+01 1.78130E+01 0.00000E+00
 -1       931 7.48740E+01 1.78130E+01 0.00000E+00
 -1       932 7.78740E+01 1.78130E+01 0.00000E+00
 -1       933 8.08740E+01 1.78130E+01 0.00000E+00
 -1       934 8.38740E+01 1.78130E+01 0.00000E+00
 -1       935 8.68740E+01 1.78130E+01 0.00000E+00
 -1       936 8.98740E+01 1.78130E+01 0.00000E+00
 -1       937 9.28740E+01 1.78130E+01 0.00000E+00
 -1       938 9.58740E+01 1.78130E+01 0.00000E+00
 -1       939 9.88740E+01 1.78130E+01 0.00000E+00
 -1       940 1.01874E+02 1.78130E+01 0.00000E+00
 -1       941 1.04874E+02 1.78130E+01 0.00000E+00
 -1       942 1.07874E+02 1.78130E+01 0.00000E+00
 -1       943 1.10874E+02 1.78130E+01 0.00000E+00
 -1       944 1.13874E+02 1.78130E+01 0.00000E+00
 -1       945 1.16874E+02 1.78130E+01 0.00000E+00
 -1       946 1.19874E+02 1.78130E+01 0.00000E+00
 -1       947 1.22874E+02 1.78130E+01 0.00000E+00
 -1       948 1.25874E+02 1.78130E+01 0.00000E+00
 -1       949 1.28874E+02 1.78130E+01 0.00000E+00
 -1       950 3.77301E+01 3.31324E+01 0.00000E+00
 -1       951 1.74270E+01 1.71170E+01 0.00000E+00
 -1       952 1.31184E+02 2.97294E+01 0.00000E+00
 -1       953 5.68740E+01 1.78130E+01 0.00000E+00
 -1       954 4.18740E+01 1.78130E+01 0.00000E+00
 -1       955 4.38750E+01 3.30446E+01 0.00000E+00
 -1       956 4.08750E+01 3.30446E+01 0.00000E+00
 -1       957 2.38227E+01 2.07000E+01 0.00000E+00
 -1       958 1.31741E+02 1.96500E+01 0.00000E+00
 -1       959 2.08740E+01 1.78130E+01 0.00000E+00
 -1       960 3.00151E+01 2.53920E+01 0.00000E+00
 -1       961 2.78543E+01 2.35139E+01 0.00000E+00
 -1       962 3.28740E+01 1.78130E+01 0.00000E+00
 -1       963 3.88740E+01 1.78130E+01 0.00000E+00
 -1       964 3.44737E+01 2.81902E+01 0.00000E+00
 -1       965 2.98740E+01 1.78130E+01 0.00000E+00
 -1       966 4.78740E+01 1.78130E+01 0.00000E+00
 -1       967 1.31184E+02 2.67794E+01 0.00000E+00
 -1       968 4.48740E+01 1.78130E+01 0.00000E+00
 -1       969 2.38740E+01 1.78130E+01 0.00000E+00
 -1       970 1.31741E+02 2.26000E+01 0.00000E+00
 -1       971 2.72872E+01 2.08534E+01 0.00000E+00
 -1       972 5.53740E+01 2.04110E+01 0.00000E+00
 -1       973 3.76698E+01 3.05270E+01 0.00000E+00
 -1       974 5.13750E+01 3.04466E+01 0.00000E+00
 -1       975 5.43750E+01 3.04466E+01 0.00000E+00
 -1       976 5.73750E+01 3.04466E+01 0.00000E+00
 -1       977 6.03750E+01 3.04466E+01 0.00000E+00
 -1       978 6.33750E+01 3.04466E+01 0.00000E+00
 -1       979 6.63750E+01 3.04466E+01 0.00000E+00
 -1       980 6.93750E+01 3.04466E+01 0.00000E+00
 -1       981 7.23750E+01 3.04466E+01 0.00000E+00
 -1       982 7.53750E+01 3.04466E+01 0.00000E+00
 -1       983 7.83750E+01 3.04466E+01 0.00000E+00
 -1       984 8.13750E+01 3.04466E+01 0.00000E+00
 -1       985 8.43750E+01 3.04466E+01 0.00000E+00
 -1       986 8.73750E+01 3.04466E+01 0.00000E+00
 -1       987 9.03750E+01 3.04466E+01 0.00000E+00
 -1       988 9.33750E+01 3.04466E+01 0.00000E+00
 -1       989 9.63750E+01 3.04466E+01 0.00000E+00
 -1       990 9.93750E+01 3.04466E+01 0.00000E+00
 -1       991 1.02375E+02 3.04466E+01 0.00000E+00
 -1       992 1.05375E+02 3.04466E+01 0.00000E+00
 -1       993 1.08375E+02 3.04466E+01 0.00000E+00
 -1       994 1.11375E+02 3.04466E+01 0.00000E+00
 -1       995 1.14375E+02 3.04466E+01 0.00000E+00
 -1       996 1.17375E+02 3.04466E+01 0.00000E+00
 -1       997 1.20375E+02 3.04466E+01 0.00000E+00
 -1       998 1.23375E+02 3.04466E+01 0.00000E+00
 -1       999 1.26375E+02 3.04466E+01 0.00000E+00
 -1      1000 6.73740E+01 2.04110E+01 0.00000E+00
 -1      1001 5.23740E+01 2.04110E+01 0.00000E+00
 -1      1002 4.83750E+01 3.04466E+01 0.00000E+00
 -1      1003 1.31463E+02 2.46897E+01 0.00000E+00
 -1      1004 6.43740E+01 2.04110E+01 0.00000E+00
 -1      1005 6.13740E+01 2.04110E+01 0.00000E+00
 -1      1006 7.03740E+01 2.04110E+01 0.00000E+00
 -1      1007 7.33740E+01 2.04110E+01 0.00000E+00
 -1      1008 7.63740E+01 2.04110E+01 0.00000E+00
 -1      1009 7.93740E+01 2.04110E+01 0.00000E+00
 -1      1010 8.23740E+01 2.04110E+01 0.00000E+00
 -1      1011 8.53740E+01 2.04110E+01 0.00000E+00
 -1      1012 8.83740E+01 2.04110E+01 0.00000E+00
 -1      1013 9.13740E+01 2.04110E+01 0.00000E+00
 -1      1014 9.43740E+01 2.04110E+01 0.00000E+00
 -1      1015 9.73740E+01 2.04110E+01 0.00000E+00
 -1      1016 1.00374E+02 2.04110E+01 0.00000E+00
 -1      1017 1.03374E+02 2.04110E+01 0.00000E+00
 -1      1018 1.06374E+02 2.04110E+01 0.00000E+00
 -1      1019 1.09374E+02 2.04110E+01 0.00000E+00
 -1      1020 1.12374E+02 2.04110E+01 0.00000E+00
 -1      1021 1.15374E+02 2.04110E+01 0.00000E+00
 -1      1022 1.18374E+02 2.04110E+01 0.00000E+00
 -1      1023 1.21374E+02 2.04110E+01 0.00000E+00
 -1      1024 1.24374E+02 2.04110E+01 0.00000E+00
 -1      1025 1.27374E+02 2.04110E+01 0.00000E+00
 -1      1026 5.83740E+01 2.04110E+01 0.00000E+00
 -1      1027 4.23750E+01 3.04466E+01 0.00000E+00
 -1      1028 4.53750E+01 3.04466E+01 0.00000E+00
 -1      1029 1.29557E+02 2.15055E+01 0.00000E+00
 -1      1030 4.00224E+01 3.04868E+01 0.00000E+00
 -1      1031 3.58740E+01 1.78130E+01 0.00000E+00
 -1      1032 3.44244E+01 2.52427E+01 0.00000E+00
 -1      1033 2.68740E+01 1.78130E+01 0.00000E+00
 -1      1034 3.24426E+01 2.37196E+01 0.00000E+00
 -1      1035 3.70467E+01 2.66730E+01 0.00000E+00
 -1      1036 3.13740E+01 2.04110E+01 0.00000E+00
 -1      1037 3.43740E+01 2.04110E+01 0.00000E+00
 -1      1038 4.93740E+01 2.04110E+01 0.00000E+00
 -1      1039 3.00676E+01 2.16514E+01 0.00000E+00
 -1      1040 1.26375E+02 2.74966E+01 0.00000E+00
 -1      1041 4.33740E+01 2.04110E+01 0.00000E+00
 -1      1042 4.03740E+01 2.04110E+01 0.00000E+00
 -1      1043 3.69795E+01 2.36770E+01 0.00000E+00
 -1      1044 5.58750E+01 2.78486E+01 0.00000E+00
 -1      1045 5.88750E+01 2.78486E+01 0.00000E+00
 -1      1046 6.18750E+01 2.78486E+01 0.00000E+00
 -1      1047 6.48750E+01 2.78486E+01 0.00000E+00
 -1      1048 6.78750E+01 2.78486E+01 0.00000E+00
 -1      1049 7.08750E+01 2.78486E+01 0.00000E+00
 -1      1050 7.38750E+01 2.78486E+01 0.00000E+00
 -1      1051 7.68750E+01 2.78486E+01 0.00000E+00
 -1      1052 7.98750E+01 2.78486E+01 0.00000E+00
 -1      1053 8.28750E+01 2.78486E+01 0.00000E+00
 -1      1054 8.58750E+01 2.78486E+01 0.00000E+00
 -1      1055 8.88750E+01 2.78486E+01 0.00000E+00
 -1      1056 9.18750E+01 2.78486E+01 0.00000E+00
 -1      1057 9.48750E+01 2.78486E+01 0.00000E+00
 -1      1058 9.78750E+01 2.78486E+01 0.00000E+00
 -1      1059 1.00875E+02 2.78486E+01 0.00000E+00
 -1      1060 1.03875E+02 2.78486E+01 0.00000E+00
 -1      1061 1.06875E+02 2.78486E+01 0.00000E+00
 -1      1062 1.09875E+02 2.78486E+01 0.00000E+00
 -1      1063 1.12875E+02 2.78486E+01 0.00000E+00
 -1      1064 1.15875E+02 2.78486E+01 0.00000E+00
 -1      1065 1.18875E+02 2.78486E+01 0.00000E+00
 -1      1066 1.21875E+02 2.78486E+01 0.00000E+00
 -1      1067 1.24125E+02 2.76726E+01 0.00000E+00
 -1      1068 5.38740E+01 2.30090E+01 0.00000E+00
 -1      1069 7.18740E+01 2.30090E+01 0.00000E+00
 -1      1070 4.68750E+01 2.78486E+01 0.00000E+00
 -1      1071 3.93993E+01 2.66328E+01 0.00000E+00
 -1      1072 6.28740E+01 2.30090E+01 0.00000E+00
 -1      1073 7.48740E+01 2.30090E+01 0.00000E+00
 -1      1074 7.78740E+01 2.30090E+01 0.00000E+00
 -1      1075 8.08740E+01 2.30090E+01 0.00000E+00
 -1      1076 8.38740E+01 2.30090E+01 0.00000E+00
 -1      1077 8.68740E+01 2.30090E+01 0.00000E+00
 -1      1078 8.98740E+01 2.30090E+01 0.00000E+00
 -1      1079 9.28740E+01 2.30090E+01 0.00000E+00
 -1      1080 9.58740E+01 2.30090E+01 0.00000E+00
 -1      1081 9.88740E+01 2.30090E+01 0.00000E+00
 -1      1082 1.01874E+02 2.30090E+01 0.00000E+00
 -1      1083 1.04874E+02 2.30090E+01 0.00000E+00
 -1      1084 1.07874E+02 2.30090E+01 0.00000E+00
 -1      1085 1.10874E+02 2.30090E+01 0.00000E+00
 -1      1086 1.13874E+02 2.30090E+01 0.00000E+00
 -1      1087 1.16874E+02 2.30090E+01 0.00000E+00
 -1      1088 1.19874E+02 2.30090E+01 0.00000E+00
 -1      1089 1.22874E+02 2.30090E+01 0.00000E+00
 -1      1090 1.25874E+02 2.30090E+01 0.00000E+00
 -1      1091 5.98740E+01 2.30090E+01 0.00000E+00
 -1      1092 6.88740E+01 2.30090E+01 0.00000E+00
 -1      1093 4.63740E+01 2.04110E+01 0.00000E+00
 -1      1094 4.38750E+01 2.78486E+01 0.00000E+00
 -1      1095 4.98750E+01 2.78486E+01 0.00000E+00
 -1      1096 3.73740E+01 2.04110E+01 0.00000E+00
 -1      1097 5.68740E+01 2.30090E+01 0.00000E+00
 -1      1098 6.58740E+01 2.30090E+01 0.00000E+00
 -1      1099 5.28750E+01 2.78486E+01 0.00000E+00
 -1      1100 3.93321E+01 2.36368E+01 0.00000E+00
 -1      1101 1.29279E+02 2.35952E+01 0.00000E+00
 -1      1102 4.48740E+01 2.30090E+01 0.00000E+00
 -1      1103 5.08740E+01 2.30090E+01 0.00000E+00
 -1      1104 2.93941E+01 1.87552E+01 0.00000E+00
 -1      1105 4.16372E+01 2.72407E+01 0.00000E+00
 -1      1106 5.73750E+01 2.52506E+01 0.00000E+00
 -1      1107 4.78740E+01 2.30090E+01 0.00000E+00
 -1      1108 1.28748E+02 2.53915E+01 0.00000E+00
 -1      1109 4.18741E+01 2.30090E+01 0.00000E+00
 -1      1110 4.33741E+01 2.56070E+01 0.00000E+00
 -1      1111 4.83750E+01 2.52506E+01 0.00000E+00
 -1      1112 3.43445E+01 2.22447E+01 0.00000E+00
 -1      1113 1.25838E+02 2.45005E+01 0.00000E+00
 -1      1114 1.24919E+02 2.59540E+01 0.00000E+00
 -1      1115 4.58745E+01 2.54288E+01 0.00000E+00
 -1      1116 4.19631E+01 2.50765E+01 0.00000E+00
 -1      1117 0.00000E+00 4.85000E+01 0.00000E+00
 -1      1118 0.00000E+00 4.55000E+01 0.00000E+00
 -1      1119 0.00000E+00 4.25000E+01 0.00000E+00
 -1      1120 0.00000E+00 3.95000E+01 0.00000E+00
 -1      1121 0.00000E+00 3.67250E+01 0.00000E+00
 -1      1122 0.00000E+00 3.41750E+01 0.00000E+00
 -1      1123 0.00000E+00 3.14000E+01 0.00000E+00
 -1      1124 0.00000E+00 2.84000E+01 0.00000E+00
 -1      1125 0.00000E+00 2.54000E+01 0.00000E+00
 -1      1126 0.00000E+00 2.24000E+01 0.00000E+00
 -1      1127 0.00000E+00 1.94000E+01 0.00000E+00
 -1      1128 0.00000E+00 1.64250E+01 0.00000E+00
 -1      1129 0.00000E+00 1.34500E+01 0.00000E+00
 -1      1130 0.00000E+00 1.04500E+01 0.00000E+00
 -1      1131 0.00000E+00 7.45000E+00 0.00000E+00
 -1      1132 0.00000E+00 4.45000E+00 0.00000E+00
 -1      1133 0.00000E+00 1.47500E+00 0.00000E+00
 -1      1134 1.50000E+00 5.00000E+01 0.00000E+00
 -1      1135 4.50000E+00 5.00000E+01 0.00000E+00
 -1      1136 7.50000E+00 5.00000E+01 0.00000E+00
 -1      1137 1.04250E+01 5.00000E+01 0.00000E+00
 -1      1138 1.30500E+01 5.00000E+01 0.00000E+00
 -1      1139 1.54500E+01 5.00000E+01 0.00000E+00
 -1      1140 1.79250E+01 5.00000E+01 0.00000E+00
 -1      1141 2.03250E+01 5.00000E+01 0.00000E+00
 -1      1142 2.28000E+01 5.00000E+01 0.00000E+00
 -1      1143 2.56500E+01 5.00000E+01 0.00000E+00
 -1      1144 2.86500E+01 5.00000E+01 0.00000E+00
 -1      1145 3.16500E+01 5.00000E+01 0.00000E+00
 -1      1146 3.46500E+01 5.00000E+01 0.00000E+00
 -1      1147 3.76500E+01 5.00000E+01 0.00000E+00
 -1      1148 4.06500E+01 5.00000E+01 0.00000E+00
 -1      1149 4.36500E+01 5.00000E+01 0.00000E+00
 -1      1150 4.66500E+01 5.00000E+01 0.00000E+00
 -1      1151 4.96500E+01 5.00000E+01 0.00000E+00
 -1      1152 5.26500E+01 5.00000E+01 0.00000E+00
 -1      1153 5.56500E+01 5.00000E+01 0.00000E+00
 -1      1154 5.86500E+01 5.00000E+01 0.00000E+00
 -1      1155 6.16500E+01 5.00000E+01 0.00000E+00
 -1      1156 6.46500E+01 5.00000E+01 0.00000E+00
 -1      1157 6.76500E+01 5.00000E+01 0.00000E+00
 -1      1158 7.06500E+01 5.00000E+01 0.00000E+00
 -1      1159 7.36500E+01 5.00000E+01 0.00000E+00
 -1      1160 7.66500E+01 5.00000E+01 0.00000E+00
 -1      1161 7.96500E+01 5.00000E+01 0.00000E+00
 -1      1162 8.26500E+01 5.00000E+01 0.00000E+00
 -1      1163 8.56500E+01 5.00000E+01 0.00000E+00
 -1      1164 8.86500E+01 5.00000E+01 0.00000E+00
 -1      1165 9.16500E+01 5.00000E+01 0.00000E+00
 -1      1166 9.46500E+01 5.00000E+01 0.00000E+00
 -1      1167 9.76500E+01 5.00000E+01 0.00000E+00
 -1      1168 1.00650E+02 5.00000E+01 0.00000E+00
 -1      1169 1.03650E+02 5.00000E+01 0.00000E+00
 -1      1170 1.06650E+02 5.00000E+01 0.00000E+00
 -1      1171 1.09650E+02 5.00000E+01 0.00000E+00
 -1      1172 1.12650E+02 5.00000E+01 0.00000E+00
 -1      1173 1.15650E+02 5.00000E+01 0.00000E+00
 -1      1174 1.18650E+02 5.00000E+01 0.00000E+00
 -1      1175 1.21650E+02 5.00000E+01 0.00000E+00
 -1      1176 1.24650E+02 5.00000E+01 0.00000E+00
 -1      1177 1.27650E+02 5.00000E+01 0.00000E+00
 -1      1178 1.30650E+02 5.00000E+01 0.00000E+00
 -1      1179 1.33650E+02 5.00000E+01 0.00000E+00
 -1      1180 1.36650E+02 5.00000E+01 0.00000E+00
 -1      1181 1.39650E+02 5.00000E+01 0.00000E+00
 -1      1182 1.42650E+02 5.00000E+01 0.00000E+00
 -1      1183 1.45650E+02 5.00000E+01 0.00000E+00
 -1      1184 1.48575E+02 5.00000E+01 0.00000E+00
 -1      1185 1.57500E+00 0.00000E+00 0.00000E+00
 -1      1186 4.65000E+00 0.00000E+00 0.00000E+00
 -1      1187 7.65000E+00 0.00000E+00 0.00000E+00
 -1      1188 1.06500E+01 0.00000E+00 0.00000E+00
 -1      1189 1.36500E+01 0.00000E+00 0.00000E+00
 -1      1190 1.66500E+01 0.00000E+00 0.00000E+00
 -1      1191 1.96500E+01 0.00000E+00 0.00000E+00
 -1      1192 2.26500E+01 0.00000E+00 0.00000E+00
 -1      1193 2.56500E+01 0.00000E+00 0.00000E+00
 -1      1194 2.86500E+01 0.00000E+00 0.00000E+00
 -1      1195 3.16500E+01 0.00000E+00 0.00000E+00
 -1      1196 3.46500E+01 0.00000E+00 0.00000E+00
 -1      1197 3.76500E+01 0.00000E+00 0.00000E+00
 -1      1198 4.06500E+01 0.00000E+00 0.00000E+00
 -1      1199 4.36500E+01 0.00000E+00 0.00000E+00
 -1      1200 4.66500E+01 0.00000E+00 0.00000E+00
 -1      1201 4.96500E+01 0.00000E+00 0.00000E+00
 -1      1202 5.26500E+01 0.00000E+00 0.00000E+00
 -1      1203 5.56500E+01 0.00000E+00 0.00000E+00
 -1      1204 5.86500E+01 0.00000E+00 0.00000E+00
 -1      1205 6.16500E+01 0.00000E+00 0.00000E+00
 -1      1206 6.46500E+01 0.00000E+00 0.00000E+00
 -1      1207 6.76500E+01 0.00000E+00 0.00000E+00
 -1      1208 7.06500E+01 0.00000E+00 0.00000E+00
 -1      1209 7.36500E+01 0.00000E+00 0.00000E+00
 -1      1210 7.66500E+01 0.00000E+00 0.00000E+00
 -1      1211 7.96500E+01 0.00000E+00 0.00000E+00
 -1      1212 8.26500E+01 0.00000E+00 0.00000E+00
 -1      1213 8.56500E+01 0.00000E+00 0.00000E+00
 -1      1214 8.86500E+01 0.00000E+00 0.00000E+00
 -1      1215 9.16500E+01 0.00000E+00 0.00000E+00
 -1      1216 9.46500E+01 0.00000E+00 0.00000E+00
 -1      1217 9.76500E+01 0.00000E+00 0.00000E+00
 -1      1218 1.00650E+02 0.00000E+00 0.00000E+00
 -1      1219 1.03650E+02 0.00000E+00 0.00000E+00
 -1      1220 1.06650E+02 0.00000E+00 0.00000E+00
 -1      1221 1.09650E+02 0.00000E+00 0.00000E+00
 -1      1222 1.12650E+02 0.00000E+00 0.00000E+00
 -1      1223 1.15650E+02 0.00000E+00 0.00000E+00
 -1      1224 1.18650E+02 0.00000E+00 0.00000E+00
 -1      1225 1.21650E+02 0.00000E+00 0.00000E+00
 -1      1226 1.24650E+02 0.00000E+00 0.00000E+00
 -1      1227 1.27650E+02 0.00000E+00 0.00000E+00
 -1      1228 1.30650E+02 0.00000E+00 0.00000E+00
 -1      1229 1.33650E+02 0.00000E+00 0.00000E+00
 -1      1230 1.36650E+02 0.00000E+00 0.00000E+00
 -1      1231 1.39650E+02 0.00000E+00 0.00000E+00
 -1      1232 1.42650E+02 0.00000E+00 0.00000E+00
 -1      1233 1.45650E+02 0.00000E+00 0.00000E+00
 -1      1234 1.48575E+02 0.00000E+00 0.00000E+00
 -1      1235 1.50000E+02 1.47500E+00 0.00000E+00
 -1      1236 1.50000E+02 4.42500E+00 0.00000E+00
 -1      1237 1.50000E+02 7.37500E+00 0.00000E+00
 -1      1238 1.50000E+02 1.03250E+01 0.00000E+00
 -1      1239 1.50000E+02 1.32750E+01 0.00000E+00
 -1      1240 1.50000E+02 1.62000E+01 0.00000E+00
 -1      1241 1.50000E+02 1.91250E+01 0.00000E+00
 -1      1242 1.50000E+02 2.20750E+01 0.00000E+00
 -1      1243 1.50000E+02 2.50250E+01 0.00000E+00
 -1      1244 1.50000E+02 2.79750E+01 0.00000E+00
 -1      1245 1.50000E+02 3.09250E+01 0.00000E+00
 -1      1246 1.50000E+02 3.38500E+01 0.00000E+00
 -1      1247 1.50000E+02 3.67750E+01 0.00000E+00
 -1      1248 1.50000E+02 3.97250E+01 0.00000E+00
 -1      1249 1.50000E+02 4.26750E+01 0.00000E+00
 -1      1250 1.50000E+02 4.56250E+01 0.00000E+00
 -1      1251 1.50000E+02 4.85500E+01 0.00000E+00
 -1      1252 2.39130E+01 3.63196E+01 0.00000E+00
 -1      1253 2.35703E+01 3.47905E+01 0.00000E+00
 -1      1254 2.29191E+01 3.34133E+01 0.00000E+00
 -1      1255 2.19652E+01 3.21888E+01 0.00000E+00
 -1      1256 2.07203E+01 3.11759E+01 0.00000E+00
 -1      1257 1.93667E+01 3.05053E+01 0.00000E+00
 -1      1258 1.79028E+01 3.01410E+01 0.00000E+00
 -1      1259 1.64030E+01 3.00981E+01 0.00000E+00
 -1      1260 1.48639E+01 3.03957E+01 0.00000E+00
 -1      1261 1.33963E+01 3.10479E+01 0.00000E+00
 -1      1262 1.21593E+01 3.19763E+01 0.00000E+00
 -1      1263 1.11450E+01 3.31707E+01 0.00000E+00
 -1      1264 1.04399E+01 3.45140E+01 0.00000E+00
 -1      1265 1.00522E+01 3.59083E+01 0.00000E+00
 -1      1266 9.96196E+00 3.74090E+01 0.00000E+00
 -1      1267 1.01992E+01 3.89128E+01 0.00000E+00
 -1      1268 1.07313E+01 4.02823E+01 0.00000E+00
 -1      1269 1.15315E+01 4.15031E+01 0.00000E+00
 -1      1270 1.25670E+01 4.25311E+01 0.00000E+00
 -1      1271 1.37978E+01 4.33244E+01 0.00000E+00
 -1      1272 1.51668E+01 4.38444E+01 0.00000E+00
 -1      1273 1.66201E+01 4.40684E+01 0.00000E+00
 -1      1274 1.81514E+01 4.39732E+01 0.00000E+00
 -1      1275 1.96182E+01 4.35496E+01 0.00000E+00
 -1      1276 2.09142E+01 4.28485E+01 0.00000E+00
 -1      1277 2.20327E+01 4.18938E+01 0.00000E+00
 -1      1278 2.29503E+01 4.06882E+01 0.00000E+00
 -1      1279 2.36044E+01 3.92610E+01 0.00000E+00
 -1      1280 2.39176E+01 3.77899E+01 0.00000E+00
 -1      1281 1.50000E+00 4.85000E+01 0.00000E+00
 -1      1282 1.29900E+00 4.47500E+01 0.00000E+00
 -1      1283 1.29900E+00 4.62500E+01 0.00000E+00
 -1      1284 1.29900E+00 4.17500E+01 0.00000E+00
 -1      1285 1.29900E+00 4.32500E+01 0.00000E+00
 -1      1286 2.59800E+00 4.40000E+01 0.00000E+00
 -1      1287 1.29900E+00 3.87500E+01 0.00000E+00
 -1      1288 1.29900E+00 4.02500E+01 0.00000E+00
 -1      1289 2.59800E+00 4.10000E+01 0.00000E+00
 -1      1290 1.29900E+00 3.62000E+01 0.00000E+00
 -1      1291 1.29900E+00 3.74750E+01 0.00000E+00
 -1      1292 2.59800E+00 3.82250E+01 0.00000E+00
 -1      1293 1.29900E+00 3.36500E+01 0.00000E+00
 -1      1294 1.29900E+00 3.49250E+01 0.00000E+00
 -1      1295 2.59800E+00 3.56750E+01 0.00000E+00
 -1      1296 1.29900E+00 3.06500E+01 0.00000E+00
 -1      1297 1.29900E+00 3.21500E+01 0.00000E+00
 -1      1298 2.59800E+00 3.29000E+01 0.00000E+00
 -1      1299 1.29900E+00 2.76500E+01 0.00000E+00
 -1      1300 1.29900E+00 2.91500E+01 0.00000E+00
 -1      1301 2.59800E+00 2.99000E+01 0.00000E+00
 -1      1302 1.29900E+00 2.46500E+01 0.00000E+00
 -1      1303 1.29900E+00 2.61500E+01 0.00000E+00
 -1      1304 2.59800E+00 2.69000E+01 0.00000E+00
 -1      1305 1.29900E+00 2.16500E+01 0.00000E+00
 -1      1306 1.29900E+00 2.31500E+01 0.00000E+00
 -1      1307 2.59800E+00 2.39000E+01 0.00000E+00
 -1      1308 1.29900E+00 1.86500E+01 0.00000E+00
 -1      1309 1.29900E+00 2.01500E+01 0.00000E+00
 -1      1310 2.59800E+00 2.09000E+01 0.00000E+00
 -1      1311 1.29900E+00 1.57000E+01 0.00000E+00
 -1      1312 1.29900E+00 1.71750E+01 0.00000E+00
 -1      1313 2.59800E+00 1.79250E+01 0.00000E+00
 -1      1314 1.29900E+00 1.27000E+01 0.00000E+00
 -1      1315 1.29900E+00 1.42000E+01 0.00000E+00
 -1      1316 2.59800E+00 1.49500E+01 0.00000E+00
 -1      1317 1.29900E+00 9.70000E+00 0.00000E+00
 -1      1318 1.29900E+00 1.12000E+01 0.00000E+00
 -1      1319 2.59800E+00 1.19500E+01 0.00000E+00
 -1      1320 1.29900E+00 6.70000E+00 0.00000E+00
 -1      1321 1.29900E+00 8.20000E+00 0.00000E+00
 -1      1322 2.59800E+00 8.95000E+00 0.00000E+00
 -1      1323 1.29900E+00 3.70000E+00 0.00000E+00
 -1      1324 1.29900E+00 5.20000E+00 0.00000E+00
 -1      1325 2.59800E+00 5.95000E+00 0.00000E+00
 -1      1326 1.43700E+00 1.11250E+00 0.00000E+00
 -1      1327 1.43700E+00 2.58750E+00 0.00000E+00
 -1      1328 2.73600E+00 3.33750E+00 0.00000E+00
 -1      1329 3.01200E+00 1.11250E+00 0.00000E+00
 -1      1330 3.75000E+00 4.87010E+01 0.00000E+00
 -1      1331 5.25000E+00 4.87010E+01 0.00000E+00
 -1      1332 6.75000E+00 4.87010E+01 0.00000E+00
 -1      1333 8.25000E+00 4.87010E+01 0.00000E+00
 -1      1334 6.00000E+00 4.74020E+01 0.00000E+00
 -1      1335 9.67500E+00 4.87010E+01 0.00000E+00
 -1      1336 1.11000E+01 4.87010E+01 0.00000E+00
 -1      1337 8.92500E+00 4.74020E+01 0.00000E+00
 -1      1338 1.23000E+01 4.87010E+01 0.00000E+00
 -1      1339 1.35000E+01 4.87010E+01 0.00000E+00
 -1      1340 1.15500E+01 4.74020E+01 0.00000E+00
 -1      1341 1.72875E+01 4.88911E+01 0.00000E+00
 -1      1342 1.85625E+01 4.88911E+01 0.00000E+00
 -1      1343 1.96875E+01 4.88911E+01 0.00000E+00
 -1      1344 2.08125E+01 4.88911E+01 0.00000E+00
 -1      1345 1.90500E+01 4.77822E+01 0.00000E+00
 -1      1346 2.21625E+01 4.88911E+01 0.00000E+00
 -1      1347 2.35125E+01 4.88911E+01 0.00000E+00
 -1      1348 2.15250E+01 4.77822E+01 0.00000E+00
 -1      1349 2.50125E+01 4.88911E+01 0.00000E+00
 -1      1350 2.65125E+01 4.88911E+01 0.00000E+00
 -1      1351 2.43750E+01 4.77822E+01 0.00000E+00
 -1      1352 2.80125E+01 4.88911E+01 0.00000E+00
 -1      1353 2.95125E+01 4.88911E+01 0.00000E+00
 -1      1354 2.73750E+01 4.77822E+01 0.00000E+00
 -1      1355 3.10125E+01 4.88911E+01 0.00000E+00
 -1      1356 3.25125E+01 4.88911E+01 0.00000E+00
 -1      1357 3.03750E+01 4.77822E+01 0.00000E+00
 -1      1358 3.40125E+01 4.88911E+01 0.00000E+00
 -1      1359 3.55125E+01 4.88911E+01 0.00000E+00
 -1      1360 3.33750E+01 4.77822E+01 0.00000E+00
 -1      1361 3.70125E+01 4.88911E+01 0.00000E+00
 -1      1362 3.85125E+01 4.88911E+01 0.00000E+00
 -1      1363 3.63750E+01 4.77822E+01 0.00000E+00
 -1      1364 4.00125E+01 4.88911E+01 0.00000E+00
 -1      1365 4.15125E+01 4.88911E+01 0.00000E+00
 -1      1366 3.93750E+01 4.77822E+01 0.00000E+00
 -1      1367 4.30125E+01 4.88911E+01 0.00000E+00
 -1      1368 4.45125E+01 4.88911E+01 0.00000E+00
 -1      1369 4.23750E+01 4.77822E+01 0.00000E+00
 -1      1370 4.60125E+01 4.88911E+01 0.00000E+00
 -1      1371 4.75125E+01 4.88911E+01 0.00000E+00
 -1      1372 4.53750E+01 4.77822E+01 0.00000E+00
 -1      1373 4.90125E+01 4.88911E+01 0.00000E+00
 -1      1374 5.05125E+01 4.88911E+01 0.00000E+00
 -1      1375 4.83750E+01 4.77822E+01 0.00000E+00
 -1      1376 5.20125E+01 4.88911E+01 0.00000E+00
 -1      1377 5.35125E+01 4.88911E+01 0.00000E+00
 -1      1378 5.13750E+01 4.77822E+01 0.00000E+00
 -1      1379 5.50125E+01 4.88911E+01 0.00000E+00
 -1      1380 5.65125E+01 4.88911E+01 0.00000E+00
 -1      1381 5.43750E+01 4.77822E+01 0.00000E+00
 -1      1382 5.80125E+01 4.88911E+01 0.00000E+00
 -1      1383 5.95125E+01 4.88911E+01 0.00000E+00
 -1      1384 5.73750E+01 4.77822E+01 0.00000E+00
 -1      1385 6.10125E+01 4.88911E+01 0.00000E+00
 -1      1386 6.25125E+01 4.88911E+01 0.00000E+00
 -1      1387 6.03750E+01 4.77822E+01 0.00000E+00
 -1      1388 6.40125E+01 4.88911E+01 0.00000E+00
 -1      1389 6.55125E+01 4.88911E+01 0.00000E+00
 -1      1390 6.33750E+01 4.77822E+01 0.00000E+00
 -1      1391 6.70125E+01 4.88911E+01 0.00000E+00
 -1      1392 6.85125E+01 4.88911E+01 0.00000E+00
 -1      1393 6.63750E+01 4.77822E+01 0.00000E+00
 -1      1394 7.00125E+01 4.88911E+01 0.00000E+00
 -1      1395 7.15125E+01 4.88911E+01 0.00000E+00
 -1      1396 6.93750E+01 4.77822E+01 0.00000E+00
 -1      1397 7.30125E+01 4.88911E+01 0.00000E+00
 -1      1398 7.45125E+01 4.88911E+01 0.00000E+00
 -1      1399 7.23750E+01 4.77822E+01 0.00000E+00
 -1      1400 7.60125E+01 4.88911E+01 0.00000E+00
 -1      1401 7.75125E+01 4.88911E+01 0.00000E+00
 -1      1402 7.53750E+01 4.77822E+01 0.00000E+00
 -1      1403 7.90125E+01 4.88911E+01 0.00000E+00
 -1      1404 8.05125E+01 4.88911E+01 0.00000E+00
 -1      1405 7.83750E+01 4.77822E+01 0.00000E+00
 -1      1406 8.20125E+01 4.88911E+01 0.00000E+00
 -1      1407 8.35125E+01 4.88911E+01 0.00000E+00
 -1      1408 8.13750E+01 4.77822E+01 0.00000E+00
 -1      1409 8.50125E+01 4.88911E+01 0.00000E+00
 -1      1410 8.65125E+01 4.88911E+01 0.00000E+00
 -1      1411 8.43750E+01 4.77822E+01 0.00000E+00
 -1      1412 8.80125E+01 4.88911E+01 0.00000E+00
 -1      1413 8.95125E+01 4.88911E+01 0.00000E+00
 -1      1414 8.73750E+01 4.77822E+01 0.00000E+00
 -1      1415 9.10125E+01 4.88911E+01 0.00000E+00
 -1      1416 9.25125E+01 4.88911E+01 0.00000E+00
 -1      1417 9.03750E+01 4.77822E+01 0.00000E+00
 -1      1418 9.40125E+01 4.88911E+01 0.00000E+00
 -1      1419 9.55125E+01 4.88911E+01 0.00000E+00
 -1      1420 9.33750E+01 4.77822E+01 0.00000E+00
 -1      1421 9.70125E+01 4.88911E+01 0.00000E+00
 -1      1422 9.85125E+01 4.88911E+01 0.00000E+00
 -1      1423 9.63750E+01 4.77822E+01 0.00000E+00
 -1      1424 1.00012E+02 4.88911E+01 0.00000E+00
 -1      1425 1.01512E+02 4.88911E+01 0.00000E+00
 -1      1426 9.93750E+01 4.77822E+01 0.00000E+00
 -1      1427 1.03012E+02 4.88911E+01 0.00000E+00
 -1      1428 1.04512E+02 4.88911E+01 0.00000E+00
 -1      1429 1.02375E+02 4.77822E+01 0.00000E+00
 -1      1430 1.06012E+02 4.88911E+01 0.00000E+00
 -1      1431 1.07512E+02 4.88911E+01 0.00000E+00
 -1      1432 1.05375E+02 4.77822E+01 0.00000E+00
 -1      1433 1.09012E+02 4.88911E+01 0.00000E+00
 -1      1434 1.10512E+02 4.88911E+01 0.00000E+00
 -1      1435 1.08375E+02 4.77822E+01 0.00000E+00
 -1      1436 1.12012E+02 4.88911E+01 0.00000E+00
 -1      1437 1.13512E+02 4.88911E+01 0.00000E+00
 -1      1438 1.11375E+02 4.77822E+01 0.00000E+00
 -1      1439 1.15012E+02 4.88911E+01 0.00000E+00
 -1      1440 1.16512E+02 4.88911E+01 0.00000E+00
 -1      1441 1.14375E+02 4.77822E+01 0.00000E+00
 -1      1442 1.18012E+02 4.88911E+01 0.00000E+00
 -1      1443 1.19512E+02 4.88911E+01 0.00000E+00
 -1      1444 1.17375E+02 4.77822E+01 0.00000E+00
 -1      1445 1.21012E+02 4.88911E+01 0.00000E+00
 -1      1446 1.22512E+02 4.88911E+01 0.00000E+00
 -1      1447 1.20375E+02 4.77822E+01 0.00000E+00
 -1      1448 1.24012E+02 4.88911E+01 0.00000E+00
 -1      1449 1.25512E+02 4.88911E+01 0.00000E+00
 -1      1450 1.23375E+02 4.77822E+01 0.00000E+00
 -1      1451 1.27012E+02 4.88911E+01 0.00000E+00
 -1      1452 1.28512E+02 4.88911E+01 0.00000E+00
 -1      1453 1.26375E+02 4.77822E+01 0.00000E+00
 -1      1454 1.30012E+02 4.88911E+01 0.00000E+00
 -1      1455 1.31512E+02 4.88911E+01 0.00000E+00
 -1      1456 1.29375E+02 4.77822E+01 0.00000E+00
 -1      1457 1.33012E+02 4.88911E+01 0.00000E+00
 -1      1458 1.34512E+02 4.88911E+01 0.00000E+00
 -1      1459 1.32375E+02 4.77822E+01 0.00000E+00
 -1      1460 1.36012E+02 4.88911E+01 0.00000E+00
 -1      1461 1.37512E+02 4.88911E+01 0.00000E+00
 -1      1462 1.35375E+02 4.77822E+01 0.00000E+00
 -1      1463 1.39012E+02 4.88911E+01 0.00000E+00
 -1      1464 1.40512E+02 4.88911E+01 0.00000E+00
 -1      1465 1.38375E+02 4.77822E+01 0.00000E+00
 -1      1466 1.42012E+02 4.88911E+01 0.00000E+00
 -1      1467 1.43512E+02 4.88911E+01 0.00000E+00
 -1      1468 1.41375E+02 4.77822E+01 0.00000E+00
 -1      1469 1.45012E+02 4.88911E+01 0.00000E+00
 -1      1470 1.46512E+02 4.88911E+01 0.00000E+00
 -1      1471 1.44375E+02 4.77822E+01 0.00000E+00
 -1      1472 1.47544E+02 4.87205E+01 0.00000E+00
 -1      1473 1.48969E+02 4.87205E+01 0.00000E+00
 -1      1474 1.48969E+02 4.72705E+01 0.00000E+00
 -1      1475 1.46906E+02 4.76116E+01 0.00000E+00
 -1      1476 6.01200E+00 1.11250E+00 0.00000E+00
 -1      1477 4.51200E+00 1.11250E+00 0.00000E+00
 -1      1478 4.37400E+00 2.22500E+00 0.00000E+00
 -1      1479 9.01200E+00 1.11250E+00 0.00000E+00
 -1      1480 7.51200E+00 1.11250E+00 0.00000E+00
 -1      1481 7.37400E+00 2.22500E+00 0.00000E+00
 -1      1482 1.20120E+01 1.11250E+00 0.00000E+00
 -1      1483 1.05120E+01 1.11250E+00 0.00000E+00
 -1      1484 1.03740E+01 2.22500E+00 0.00000E+00
 -1      1485 1.50120E+01 1.11250E+00 0.00000E+00
 -1      1486 1.35120E+01 1.11250E+00 0.00000E+00
 -1      1487 1.33740E+01 2.22500E+00 0.00000E+00
 -1      1488 1.80120E+01 1.11250E+00 0.00000E+00
 -1      1489 1.65120E+01 1.11250E+00 0.00000E+00
 -1      1490 1.63740E+01 2.22500E+00 0.00000E+00
 -1      1491 2.10120E+01 1.11250E+00 0.00000E+00
 -1      1492 1.95120E+01 1.11250E+00 0.00000E+00
 -1      1493 1.93740E+01 2.22500E+00 0.00000E+00
 -1      1494 2.40120E+01 1.11250E+00 0.00000E+00
 -1      1495 2.25120E+01 1.11250E+00 0.00000E+00
 -1      1496 2.23740E+01 2.22500E+00 0.00000E+00
 -1      1497 2.70120E+01 1.11250E+00 0.00000E+00
 -1      1498 2.55120E+01 1.11250E+00 0.00000E+00
 -1      1499 2.53740E+01 2.22500E+00 0.00000E+00
 -1      1500 3.00120E+01 1.11250E+00 0.00000E+00
 -1      1501 2.85120E+01 1.11250E+00 0.00000E+00
 -1      1502 2.83740E+01 2.22500E+00 0.00000E+00
 -1      1503 3.30120E+01 1.11250E+00 0.00000E+00
 -1      1504 3.15120E+01 1.11250E+00 0.00000E+00
 -1      1505 3.13740E+01 2.22500E+00 0.00000E+00
 -1      1506 3.60120E+01 1.11250E+00 0.00000E+00
 -1      1507 3.45120E+01 1.11250E+00 0.00000E+00
 -1      1508 3.43740E+01 2.22500E+00 0.00000E+00
 -1      1509 3.90120E+01 1.11250E+00 0.00000E+00
 -1      1510 3.75120E+01 1.11250E+00 0.00000E+00
 -1      1511 3.73740E+01 2.22500E+00 0.00000E+00
 -1      1512 4.20120E+01 1.11250E+00 0.00000E+00
 -1      1513 4.05120E+01 1.11250E+00 0.00000E+00
 -1      1514 4.03740E+01 2.22500E+00 0.00000E+00
 -1      1515 4.50120E+01 1.11250E+00 0.00000E+00
 -1      1516 4.35120E+01 1.11250E+00 0.00000E+00
 -1      1517 4.33740E+01 2.22500E+00 0.00000E+00
 -1      1518 4.80120E+01 1.11250E+00 0.00000E+00
 -1      1519 4.65120E+01 1.11250E+00 0.00000E+00
 -1      1520 4.63740E+01 2.22500E+00 0.00000E+00
 -1      1521 5.10120E+01 1.11250E+00 0.00000E+00
 -1      1522 4.95120E+01 1.11250E+00 0.00000E+00
 -1      1523 4.93740E+01 2.22500E+00 0.00000E+00
 -1      1524 5.40120E+01 1.11250E+00 0.00000E+00
 -1      1525 5.25120E+01 1.11250E+00 0.00000E+00
 -1      1526 5.23740E+01 2.22500E+00 0.00000E+00
 -1      1527 5.70120E+01 1.11250E+00 0.00000E+00
 -1      1528 5.55120E+01 1.11250E+00 0.00000E+00
 -1      1529 5.53740E+01 2.22500E+00 0.00000E+00
 -1      1530 6.00120E+01 1.11250E+00 0.00000E+00
 -1      1531 5.85120E+01 1.11250E+00 0.00000E+00
 -1      1532 5.83740E+01 2.22500E+00 0.00000E+00
 -1      1533 6.30120E+01 1.11250E+00 0.00000E+00
 -1      1534 6.15120E+01 1.11250E+00 0.00000E+00
 -1      1535 6.13740E+01 2.22500E+00 0.00000E+00
 -1      1536 6.60120E+01 1.11250E+00 0.00000E+00
 -1      1537 6.45120E+01 1.11250E+00 0.00000E+00
 -1      1538 6.43740E+01 2.22500E+00 0.00000E+00
 -1      1539 6.90120E+01 1.11250E+00 0.00000E+00
 -1      1540 6.75120E+01 1.11250E+00 0.00000E+00
 -1      1541 6.73740E+01 2.22500E+00 0.00000E+00
 -1      1542 7.20120E+01 1.11250E+00 0.00000E+00
 -1      1543 7.05120E+01 1.11250E+00 0.00000E+00
 -1      1544 7.03740E+01 2.22500E+00 0.00000E+00
 -1      1545 7.50120E+01 1.11250E+00 0.00000E+00
 -1      1546 7.35120E+01 1.11250E+00 0.00000E+00
 -1      1547 7.33740E+01 2.22500E+00 0.00000E+00
 -1      1548 7.80120E+01 1.11250E+00 0.00000E+00
 -1      1549 7.65120E+01 1.11250E+00 0.00000E+00
 -1      1550 7.63740E+01 2.22500E+00 0.00000E+00
 -1      1551 8.10120E+01 1.11250E+00 0.00000E+00
 -1      1552 7.95120E+01 1.11250E+00 0.00000E+00
 -1      1553 7.93740E+01 2.22500E+00 0.00000E+00
 -1      1554 8.40120E+01 1.11250E+00 0.00000E+00
 -1      1555 8.25120E+01 1.11250E+00 0.00000E+00
 -1      1556 8.23740E+01 2.22500E+00 0.00000E+00
 -1      1557 8.70120E+01 1.11250E+00 0.00000E+00
 -1      1558 8.55120E+01 1.11250E+00 0.00000E+00
 -1      1559 8.53740E+01 2.22500E+00 0.00000E+00
 -1      1560 9.00120E+01 1.11250E+00 0.00000E+00
 -1      1561 8.85120E+01 1.11250E+00 0.00000E+00
 -1      1562 8.83740E+01 2.22500E+00 0.00000E+00
 -1      1563 9.30120E+01 1.11250E+00 0.00000E+00
 -1      1564 9.15120E+01 1.11250E+00 0.00000E+00
 -1      1565 9.13740E+01 2.22500E+00 0.00000E+00
 -1      1566 9.60120E+01 1.11250E+00 0.00000E+00
 -1      1567 9.45120E+01 1.11250E+00 0.00000E+00
 -1      1568 9.43740E+01 2.22500E+00 0.00000E+00
 -1      1569 9.90120E+01 1.11250E+00 0.00000E+00
 -1      1570 9.75120E+01 1.11250E+00 0.00000E+00
 -1      1571 9.73740E+01 2.22500E+00 0.00000E+00
 -1      1572 1.02012E+02 1.11250E+00 0.00000E+00
 -1      1573 1.00512E+02 1.11250E+00 0.00000E+00
 -1      1574 1.00374E+02 2.22500E+00 0.00000E+00
 -1      1575 1.05012E+02 1.11250E+00 0.00000E+00
 -1      1576 1.03512E+02 1.11250E+00 0.00000E+00
 -1      1577 1.03374E+02 2.22500E+00 0.00000E+00
 -1      1578 1.08012E+02 1.11250E+00 0.00000E+00
 -1      1579 1.06512E+02 1.11250E+00 0.00000E+00
 -1      1580 1.06374E+02 2.22500E+00 0.00000E+00
 -1      1581 1.11012E+02 1.11250E+00 0.00000E+00
 -1      1582 1.09512E+02 1.11250E+00 0.00000E+00
 -1      1583 1.09374E+02 2.22500E+00 0.00000E+00
 -1      1584 1.14012E+02 1.11250E+00 0.00000E+00
 -1      1585 1.12512E+02 1.11250E+00 0.00000E+00
 -1      1586 1.12374E+02 2.22500E+00 0.00000E+00
 -1      1587 1.17012E+02 1.11250E+00 0.00000E+00
 -1      1588 1.15512E+02 1.11250E+00 0.00000E+00
 -1      1589 1.15374E+02 2.22500E+00 0.00000E+00
 -1      1590 1.20012E+02 1.11250E+00 0.00000E+00
 -1      1591 1.18512E+02 1.11250E+00 0.00000E+00
 -1      1592 1.18374E+02 2.22500E+00 0.00000E+00
 -1      1593 1.23012E+02 1.11250E+00 0.00000E+00
 -1      1594 1.21512E+02 1.11250E+00 0.00000E+00
 -1      1595 1.21374E+02 2.22500E+00 0.00000E+00
 -1      1596 1.26012E+02 1.11250E+00 0.00000E+00
 -1      1597 1.24512E+02 1.11250E+00 0.00000E+00
 -1      1598 1.24374E+02 2.22500E+00 0.00000E+00
 -1      1599 1.29012E+02 1.11250E+00 0.00000E+00
 -1      1600 1.27512E+02 1.11250E+00 0.00000E+00
 -1      1601 1.27374E+02 2.22500E+00 0.00000E+00
 -1      1602 1.32012E+02 1.11250E+00 0.00000E+00
 -1      1603 1.30512E+02 1.11250E+00 0.00000E+00
 -1      1604 1.30374E+02 2.22500E+00 0.00000E+00
 -1      1605 1.35012E+02 1.11250E+00 0.00000E+00
 -1      1606 1.33512E+02 1.11250E+00 0.00000E+00
 -1      1607 1.33374E+02 2.22500E+00 0.00000E+00
 -1      1608 1.38012E+02 1.11250E+00 0.00000E+00
 -1      1609 1.36512E+02 1.11250E+00 0.00000E+00
 -1      1610 1.36374E+02 2.22500E+00 0.00000E+00
 -1      1611 1.41012E+02 1.11250E+00 0.00000E+00
 -1      1612 1.39512E+02 1.11250E+00 0.00000E+00
 -1      1613 1.39374E+02 2.22500E+00 0.00000E+00
 -1      1614 1.44012E+02 1.11250E+00 0.00000E+00
 -1      1615 1.42512E+02 1.11250E+00 0.00000E+00
 -1      1616 1.42374E+02 2.22500E+00 0.00000E+00
 -1      1617 1.47012E+02 1.11250E+00 0.00000E+00
 -1      1618 1.45512E+02 1.11250E+00 0.00000E+00
 -1      1619 1.45374E+02 2.22500E+00 0.00000E+00
 -1      1620 1.48575E+02 1.47500E+00 0.00000E+00
 -1      1621 1.48701E+02 5.16250E+00 0.00000E+00
 -1      1622 1.48701E+02 3.68750E+00 0.00000E+00
 -1      1623 1.48701E+02 8.11250E+00 0.00000E+00
 -1      1624 1.48701E+02 6.63750E+00 0.00000E+00
 -1      1625 1.47402E+02 5.90000E+00 0.00000E+00
 -1      1626 1.48701E+02 1.10625E+01 0.00000E+00
 -1      1627 1.48701E+02 9.58750E+00 0.00000E+00
 -1      1628 1.47402E+02 8.85000E+00 0.00000E+00
 -1      1629 1.48701E+02 1.40125E+01 0.00000E+00
 -1      1630 1.48701E+02 1.25375E+01 0.00000E+00
 -1      1631 1.47402E+02 1.18000E+01 0.00000E+00
 -1      1632 1.48701E+02 1.69125E+01 0.00000E+00
 -1      1633 1.48701E+02 1.54625E+01 0.00000E+00
 -1      1634 1.47402E+02 1.47250E+01 0.00000E+00
 -1      1635 1.48701E+02 1.98625E+01 0.00000E+00
 -1      1636 1.48701E+02 1.83875E+01 0.00000E+00
 -1      1637 1.47402E+02 1.76500E+01 0.00000E+00
 -1      1638 1.48701E+02 2.28125E+01 0.00000E+00
 -1      1639 1.48701E+02 2.13375E+01 0.00000E+00
 -1      1640 1.47402E+02 2.06000E+01 0.00000E+00
 -1      1641 1.48701E+02 2.57625E+01 0.00000E+00
 -1      1642 1.48701E+02 2.42875E+01 0.00000E+00
 -1      1643 1.47402E+02 2.35500E+01 0.00000E+00
 -1      1644 1.48701E+02 2.87125E+01 0.00000E+00
 -1      1645 1.48701E+02 2.72375E+01 0.00000E+00
 -1      1646 1.47402E+02 2.65000E+01 0.00000E+00
 -1      1647 1.48701E+02 3.16625E+01 0.00000E+00
 -1      1648 1.48701E+02 3.01875E+01 0.00000E+00
 -1      1649 1.47402E+02 2.94500E+01 0.00000E+00
 -1      1650 1.48701E+02 3.45625E+01 0.00000E+00
 -1      1651 1.48701E+02 3.31125E+01 0.00000E+00
 -1      1652 1.47402E+02 3.23750E+01 0.00000E+00
 -1      1653 1.48701E+02 3.75125E+01 0.00000E+00
 -1      1654 1.48701E+02 3.60375E+01 0.00000E+00
 -1      1655 1.47402E+02 3.53000E+01 0.00000E+00
 -1      1656 1.48701E+02 4.04625E+01 0.00000E+00
 -1      1657 1.48701E+02 3.89875E+01 0.00000E+00
 -1      1658 1.47402E+02 3.82500E+01 0.00000E+00
 -1      1659 1.48701E+02 4.34125E+01 0.00000E+00
 -1      1660 1.48701E+02 4.19375E+01 0.00000E+00
 -1      1661 1.47402E+02 4.12000E+01 0.00000E+00
 -1      1662 1.48835E+02 4.60790E+01 0.00000E+00
 -1      1663 1.48835E+02 4.46040E+01 0.00000E+00
 -1      1664 1.47536E+02 4.38665E+01 0.00000E+00
 -1      1665 1.47804E+02 4.62496E+01 0.00000E+00
 -1      1666 2.44756E+01 3.58778E+01 0.00000E+00
 -1      1667 2.45574E+01 3.66302E+01 0.00000E+00
 -1      1668 2.40457E+01 3.41976E+01 0.00000E+00
 -1      1669 2.43103E+01 3.49635E+01 0.00000E+00
 -1      1670 2.32181E+01 3.28113E+01 0.00000E+00
 -1      1671 2.35912E+01 3.34189E+01 0.00000E+00
 -1      1672 2.21900E+01 3.13834E+01 0.00000E+00
 -1      1673 2.27759E+01 3.19841E+01 0.00000E+00
 -1      1674 2.07236E+01 3.04590E+01 0.00000E+00
 -1      1675 2.13691E+01 3.08710E+01 0.00000E+00
 -1      1676 1.92124E+01 2.98452E+01 0.00000E+00
 -1      1677 1.99115E+01 3.01019E+01 0.00000E+00
 -1      1678 1.76066E+01 2.94885E+01 0.00000E+00
 -1      1679 1.83634E+01 2.95921E+01 0.00000E+00
 -1      1680 1.59912E+01 2.95615E+01 0.00000E+00
 -1      1681 1.67255E+01 2.95035E+01 0.00000E+00
 -1      1682 1.42511E+01 2.98286E+01 0.00000E+00
 -1      1683 1.50442E+01 2.95804E+01 0.00000E+00
 -1      1684 1.27338E+01 3.06877E+01 0.00000E+00
 -1      1685 1.34012E+01 3.02938E+01 0.00000E+00
 -1      1686 1.14922E+01 3.18301E+01 0.00000E+00
 -1      1687 1.20544E+01 3.13015E+01 0.00000E+00
 -1      1688 1.03881E+01 3.31410E+01 0.00000E+00
 -1      1689 1.08319E+01 3.24810E+01 0.00000E+00
 -1      1690 9.77839E+00 3.46416E+01 0.00000E+00
 -1      1691 1.00426E+01 3.39699E+01 0.00000E+00
 -1      1692 9.43114E+00 3.61711E+01 0.00000E+00
 -1      1693 9.55218E+00 3.54559E+01 0.00000E+00
 -1      1694 9.37639E+00 3.78262E+01 0.00000E+00
 -1      1695 9.33943E+00 3.70492E+01 0.00000E+00
 -1      1696 9.75027E+00 3.94207E+01 0.00000E+00
 -1      1697 9.55493E+00 3.87022E+01 0.00000E+00
 -1      1698 1.03918E+01 4.08648E+01 0.00000E+00
 -1      1699 1.00599E+01 4.02206E+01 0.00000E+00
 -1      1700 1.13243E+01 4.21467E+01 0.00000E+00
 -1      1701 1.08595E+01 4.15773E+01 0.00000E+00
 -1      1702 1.24928E+01 4.32012E+01 0.00000E+00
 -1      1703 1.19285E+01 4.27473E+01 0.00000E+00
 -1      1704 1.38535E+01 4.40347E+01 0.00000E+00
 -1      1705 1.31929E+01 4.37010E+01 0.00000E+00
 -1      1706 1.53719E+01 4.44866E+01 0.00000E+00
 -1      1707 1.46714E+01 4.43017E+01 0.00000E+00
 -1      1708 1.69637E+01 4.46938E+01 0.00000E+00
 -1      1709 1.62185E+01 4.46582E+01 0.00000E+00
 -1      1710 1.86501E+01 4.45418E+01 0.00000E+00
 -1      1711 1.78735E+01 4.46766E+01 0.00000E+00
 -1      1712 2.01915E+01 4.39722E+01 0.00000E+00
 -1      1713 1.95085E+01 4.42533E+01 0.00000E+00
 -1      1714 2.15382E+01 4.31087E+01 0.00000E+00
 -1      1715 2.09323E+01 4.35244E+01 0.00000E+00
 -1      1716 2.26975E+01 4.20175E+01 0.00000E+00
 -1      1717 2.21912E+01 4.25512E+01 0.00000E+00
 -1      1718 2.37051E+01 4.06880E+01 0.00000E+00
 -1      1719 2.33030E+01 4.13556E+01 0.00000E+00
 -1      1720 2.43408E+01 3.90868E+01 0.00000E+00
 -1      1721 2.40940E+01 3.98379E+01 0.00000E+00
 -1      1722 2.45207E+01 3.74931E+01 0.00000E+00
 -1      1723 2.44480E+01 3.82028E+01 0.00000E+00
 -1      1724 1.39402E+01 4.75808E+01 0.00000E+00
 -1      1725 1.46902E+01 4.88798E+01 0.00000E+00
 -1      1726 1.58902E+01 4.88798E+01 0.00000E+00
 -1      1727 1.65277E+01 4.77709E+01 0.00000E+00
 -1      1728 2.34790E+01 3.19707E+01 0.00000E+00
 -1      1729 2.51241E+01 3.70468E+01 0.00000E+00
 -1      1730 1.48437E+02 2.58750E+00 0.00000E+00
 -1      1731 1.47138E+02 3.32500E+00 0.00000E+00
 -1      1732 2.49955E+01 3.52696E+01 0.00000E+00
 -1      1733 2.43757E+01 3.35765E+01 0.00000E+00
 -1      1734 2.22160E+01 3.06311E+01 0.00000E+00
 -1      1735 2.05830E+01 2.97616E+01 0.00000E+00
 -1      1736 1.89219E+01 2.91513E+01 0.00000E+00
 -1      1737 1.71917E+01 2.89132E+01 0.00000E+00
 -1      1738 1.53636E+01 2.89471E+01 0.00000E+00
 -1      1739 1.35667E+01 2.94313E+01 0.00000E+00
 -1      1740 1.20375E+01 3.05103E+01 0.00000E+00
 -1      1741 1.06977E+01 3.17751E+01 0.00000E+00
 -1      1742 9.69188E+00 3.32549E+01 0.00000E+00
 -1      1743 9.12017E+00 3.48981E+01 0.00000E+00
 -1      1744 8.80226E+00 3.65904E+01 0.00000E+00
 -1      1745 8.88909E+00 3.83445E+01 0.00000E+00
 -1      1746 9.37731E+00 4.00204E+01 0.00000E+00
 -1      1747 1.01546E+01 4.15328E+01 0.00000E+00
 -1      1748 1.12265E+01 4.28460E+01 0.00000E+00
 -1      1749 1.25309E+01 4.39465E+01 0.00000E+00
 -1      1750 1.40489E+01 4.47133E+01 0.00000E+00
 -1      1751 1.57135E+01 4.51518E+01 0.00000E+00
 -1      1752 1.74700E+01 4.53062E+01 0.00000E+00
 -1      1753 1.92382E+01 4.50006E+01 0.00000E+00
 -1      1754 2.08374E+01 4.42642E+01 0.00000E+00
 -1      1755 2.22312E+01 4.32589E+01 0.00000E+00
 -1      1756 2.34896E+01 4.20397E+01 0.00000E+00
 -1      1757 2.44840E+01 4.05277E+01 0.00000E+00
 -1      1758 2.49802E+01 3.87937E+01 0.00000E+00
 -1      1759 2.79900E+00 4.77500E+01 0.00000E+00
 -1      1760 3.70691E+00 4.02500E+01 0.00000E+00
 -1      1761 3.70691E+00 4.17500E+01 0.00000E+00
 -1      1762 3.70691E+00 4.32500E+01 0.00000E+00
 -1      1763 3.70691E+00 4.47500E+01 0.00000E+00
 -1      1764 4.81582E+00 4.25000E+01 0.00000E+00
 -1      1765 3.53935E+00 3.50375E+01 0.00000E+00
 -1      1766 3.53935E+00 3.63125E+01 0.00000E+00
 -1      1767 3.62313E+00 3.21500E+01 0.00000E+00
 -1      1768 3.62313E+00 3.36500E+01 0.00000E+00
 -1      1769 3.79070E+00 2.91500E+01 0.00000E+00
 -1      1770 3.79070E+00 3.06500E+01 0.00000E+00
 -1      1771 3.79070E+00 2.61500E+01 0.00000E+00
 -1      1772 3.79070E+00 2.76500E+01 0.00000E+00
 -1      1773 4.98339E+00 2.84000E+01 0.00000E+00
 -1      1774 3.79070E+00 2.31500E+01 0.00000E+00
 -1      1775 3.79070E+00 2.46500E+01 0.00000E+00
 -1      1776 4.98339E+00 2.54000E+01 0.00000E+00
 -1      1777 3.79070E+00 2.01500E+01 0.00000E+00
 -1      1778 3.79070E+00 2.16500E+01 0.00000E+00
 -1      1779 4.98339E+00 2.24000E+01 0.00000E+00
 -1      1780 3.79070E+00 1.72000E+01 0.00000E+00
 -1      1781 3.79070E+00 1.86750E+01 0.00000E+00
 -1      1782 4.98339E+00 1.94250E+01 0.00000E+00
 -1      1783 3.79070E+00 1.42000E+01 0.00000E+00
 -1      1784 3.79070E+00 1.57000E+01 0.00000E+00
 -1      1785 4.98339E+00 1.64500E+01 0.00000E+00
 -1      1786 3.79070E+00 1.12000E+01 0.00000E+00
 -1      1787 3.79070E+00 1.27000E+01 0.00000E+00
 -1      1788 4.98339E+00 1.34500E+01 0.00000E+00
 -1      1789 3.79070E+00 8.20000E+00 0.00000E+00
 -1      1790 3.79070E+00 9.70000E+00 0.00000E+00
 -1      1791 4.98339E+00 1.04500E+01 0.00000E+00
 -1      1792 3.79070E+00 5.20000E+00 0.00000E+00
 -1      1793 3.79070E+00 6.70000E+00 0.00000E+00
 -1      1794 4.98339E+00 7.45000E+00 0.00000E+00
 -1      1795 4.15135E+00 3.15625E+00 0.00000E+00
 -1      1796 4.01335E+00 4.26875E+00 0.00000E+00
 -1      1797 5.20604E+00 5.01875E+00 0.00000E+00
 -1      1798 5.65135E+00 3.15625E+00 0.00000E+00
 -1      1799 3.54900E+00 4.64510E+01 0.00000E+00
 -1      1800 8.65135E+00 3.15625E+00 0.00000E+00
 -1      1801 7.15135E+00 3.15625E+00 0.00000E+00
 -1      1802 6.92870E+00 4.08750E+00 0.00000E+00
 -1      1803 1.58453E+01 4.65415E+01 0.00000E+00
 -1      1804 1.72426E+01 4.65528E+01 0.00000E+00
 -1      1805 8.21250E+00 4.62931E+01 0.00000E+00
 -1      1806 9.63750E+00 4.62931E+01 0.00000E+00
 -1      1807 1.09500E+01 4.64607E+01 0.00000E+00
 -1      1808 1.21500E+01 4.64607E+01 0.00000E+00
 -1      1809 4.65791E+00 4.57010E+01 0.00000E+00
 -1      1810 2.08500E+01 4.67571E+01 0.00000E+00
 -1      1811 2.22000E+01 4.67571E+01 0.00000E+00
 -1      1812 2.36250E+01 4.65895E+01 0.00000E+00
 -1      1813 2.51250E+01 4.65895E+01 0.00000E+00
 -1      1814 2.66250E+01 4.65895E+01 0.00000E+00
 -1      1815 2.81250E+01 4.65895E+01 0.00000E+00
 -1      1816 2.58750E+01 4.53968E+01 0.00000E+00
 -1      1817 2.96250E+01 4.65895E+01 0.00000E+00
 -1      1818 3.11250E+01 4.65895E+01 0.00000E+00
 -1      1819 2.88750E+01 4.53968E+01 0.00000E+00
 -1      1820 3.26250E+01 4.65895E+01 0.00000E+00
 -1      1821 3.41250E+01 4.65895E+01 0.00000E+00
 -1      1822 3.18750E+01 4.53968E+01 0.00000E+00
 -1      1823 3.56250E+01 4.65895E+01 0.00000E+00
 -1      1824 3.71250E+01 4.65895E+01 0.00000E+00
 -1      1825 3.48750E+01 4.53968E+01 0.00000E+00
 -1      1826 3.86250E+01 4.65895E+01 0.00000E+00
 -1      1827 4.01250E+01 4.65895E+01 0.00000E+00
 -1      1828 3.78750E+01 4.53968E+01 0.00000E+00
 -1      1829 4.16250E+01 4.65895E+01 0.00000E+00
 -1      1830 4.31250E+01 4.65895E+01 0.00000E+00
 -1      1831 4.08750E+01 4.53968E+01 0.00000E+00
 -1      1832 4.46250E+01 4.65895E+01 0.00000E+00
 -1      1833 4.61250E+01 4.65895E+01 0.00000E+00
 -1      1834 4.38750E+01 4.53968E+01 0.00000E+00
 -1      1835 4.76250E+01 4.65895E+01 0.00000E+00
 -1      1836 4.91250E+01 4.65895E+01 0.00000E+00
 -1      1837 4.68750E+01 4.53968E+01 0.00000E+00
 -1      1838 5.06250E+01 4.65895E+01 0.00000E+00
 -1      1839 5.21250E+01 4.65895E+01 0.00000E+00
 -1      1840 4.98750E+01 4.53968E+01 0.00000E+00
 -1      1841 5.36250E+01 4.65895E+01 0.00000E+00
 -1      1842 5.51250E+01 4.65895E+01 0.00000E+00
 -1      1843 5.28750E+01 4.53968E+01 0.00000E+00
 -1      1844 5.66250E+01 4.65895E+01 0.00000E+00
 -1      1845 5.81250E+01 4.65895E+01 0.00000E+00
 -1      1846 5.58750E+01 4.53968E+01 0.00000E+00
 -1      1847 5.96250E+01 4.65895E+01 0.00000E+00
 -1      1848 6.11250E+01 4.65895E+01 0.00000E+00
 -1      1849 5.88750E+01 4.53968E+01 0.00000E+00
 -1      1850 6.26250E+01 4.65895E+01 0.00000E+00
 -1      1851 6.41250E+01 4.65895E+01 0.00000E+00
 -1      1852 6.18750E+01 4.53968E+01 0.00000E+00
 -1      1853 6.56250E+01 4.65895E+01 0.00000E+00
 -1      1854 6.71250E+01 4.65895E+01 0.00000E+00
 -1      1855 6.48750E+01 4.53968E+01 0.00000E+00
 -1      1856 6.86250E+01 4.65895E+01 0.00000E+00
 -1      1857 7.01250E+01 4.65895E+01 0.00000E+00
 -1      1858 6.78750E+01 4.53968E+01 0.00000E+00
 -1      1859 7.16250E+01 4.65895E+01 0.00000E+00
 -1      1860 7.31250E+01 4.65895E+01 0.00000E+00
 -1      1861 7.08750E+01 4.53968E+01 0.00000E+00
 -1      1862 7.46250E+01 4.65895E+01 0.00000E+00
 -1      1863 7.61250E+01 4.65895E+01 0.00000E+00
 -1      1864 7.38750E+01 4.53968E+01 0.00000E+00
 -1      1865 7.76250E+01 4.65895E+01 0.00000E+00
 -1      1866 7.91250E+01 4.65895E+01 0.00000E+00
 -1      1867 7.68750E+01 4.53968E+01 0.00000E+00
 -1      1868 8.06250E+01 4.65895E+01 0.00000E+00
 -1      1869 8.21250E+01 4.65895E+01 0.00000E+00
 -1      1870 7.98750E+01 4.53968E+01 0.00000E+00
 -1      1871 8.36250E+01 4.65895E+01 0.00000E+00
 -1      1872 8.51250E+01 4.65895E+01 0.00000E+00
 -1      1873 8.28750E+01 4.53968E+01 0.00000E+00
 -1      1874 8.66250E+01 4.65895E+01 0.00000E+00
 -1      1875 8.81250E+01 4.65895E+01 0.00000E+00
 -1      1876 8.58750E+01 4.53968E+01 0.00000E+00
 -1      1877 8.96250E+01 4.65895E+01 0.00000E+00
 -1      1878 9.11250E+01 4.65895E+01 0.00000E+00
 -1      1879 8.88750E+01 4.53968E+01 0.00000E+00
 -1      1880 9.26250E+01 4.65895E+01 0.00000E+00
 -1      1881 9.41250E+01 4.65895E+01 0.00000E+00
 -1      1882 9.18750E+01 4.53968E+01 0.00000E+00
 -1      1883 9.56250E+01 4.65895E+01 0.00000E+00
 -1      1884 9.71250E+01 4.65895E+01 0.00000E+00
 -1      1885 9.48750E+01 4.53968E+01 0.00000E+00
 -1      1886 9.86250E+01 4.65895E+01 0.00000E+00
 -1      1887 1.00125E+02 4.65895E+01 0.00000E+00
 -1      1888 9.78750E+01 4.53968E+01 0.00000E+00
 -1      1889 1.01625E+02 4.65895E+01 0.00000E+00
 -1      1890 1.03125E+02 4.65895E+01 0.00000E+00
 -1      1891 1.00875E+02 4.53968E+01 0.00000E+00
 -1      1892 1.04625E+02 4.65895E+01 0.00000E+00
 -1      1893 1.06125E+02 4.65895E+01 0.00000E+00
 -1      1894 1.03875E+02 4.53968E+01 0.00000E+00
 -1      1895 1.07625E+02 4.65895E+01 0.00000E+00
 -1      1896 1.09125E+02 4.65895E+01 0.00000E+00
 -1      1897 1.06875E+02 4.53968E+01 0.00000E+00
 -1      1898 1.10625E+02 4.65895E+01 0.00000E+00
 -1      1899 1.12125E+02 4.65895E+01 0.00000E+00
 -1      1900 1.09875E+02 4.53968E+01 0.00000E+00
 -1      1901 1.13625E+02 4.65895E+01 0.00000E+00
 -1      1902 1.15125E+02 4.65895E+01 0.00000E+00
 -1      1903 1.12875E+02 4.53968E+01 0.00000E+00
 -1      1904 1.16625E+02 4.65895E+01 0.00000E+00
 -1      1905 1.18125E+02 4.65895E+01 0.00000E+00
 -1      1906 1.15875E+02 4.53968E+01 0.00000E+00
 -1      1907 1.19625E+02 4.65895E+01 0.00000E+00
 -1      1908 1.21125E+02 4.65895E+01 0.00000E+00
 -1      1909 1.18875E+02 4.53968E+01 0.00000E+00
 -1      1910 1.22625E+02 4.65895E+01 0.00000E+00
 -1      1911 1.24125E+02 4.65895E+01 0.00000E+00
 -1      1912 1.21875E+02 4.53968E+01 0.00000E+00
 -1      1913 1.25625E+02 4.65895E+01 0.00000E+00
 -1      1914 1.27125E+02 4.65895E+01 0.00000E+00
 -1      1915 1.24875E+02 4.53968E+01 0.00000E+00
 -1      1916 1.28625E+02 4.65895E+01 0.00000E+00
 -1      1917 1.30125E+02 4.65895E+01 0.00000E+00
 -1      1918 1.27875E+02 4.53968E+01 0.00000E+00
 -1      1919 1.31625E+02 4.65895E+01 0.00000E+00
 -1      1920 1.33125E+02 4.65895E+01 0.00000E+00
 -1      1921 1.30875E+02 4.53968E+01 0.00000E+00
 -1      1922 1.34625E+02 4.65895E+01 0.00000E+00
 -1      1923 1.36125E+02 4.65895E+01 0.00000E+00
 -1      1924 1.33875E+02 4.53968E+01 0.00000E+00
 -1      1925 1.37625E+02 4.65895E+01 0.00000E+00
 -1      1926 1.39125E+02 4.65895E+01 0.00000E+00
 -1      1927 1.36875E+02 4.53968E+01 0.00000E+00
 -1      1928 1.40625E+02 4.65895E+01 0.00000E+00
 -1      1929 1.42125E+02 4.65895E+01 0.00000E+00
 -1      1930 1.39875E+02 4.53968E+01 0.00000E+00
 -1      1931 1.43625E+02 4.65895E+01 0.00000E+00
 -1      1932 1.45125E+02 4.65895E+01 0.00000E+00
 -1      1933 1.42875E+02 4.53968E+01 0.00000E+00
 -1      1934 1.46772E+02 4.64201E+01 0.00000E+00
 -1      1935 1.41240E+01 3.52400E+00 0.00000E+00
 -1      1936 1.26240E+01 3.52400E+00 0.00000E+00
 -1      1937 1.71240E+01 3.52400E+00 0.00000E+00
 -1      1938 1.56240E+01 3.52400E+00 0.00000E+00
 -1      1939 1.48740E+01 4.82300E+00 0.00000E+00
 -1      1940 2.01240E+01 3.52400E+00 0.00000E+00
 -1      1941 1.86240E+01 3.52400E+00 0.00000E+00
 -1      1942 1.78740E+01 4.82300E+00 0.00000E+00
 -1      1943 2.31240E+01 3.52400E+00 0.00000E+00
 -1      1944 2.16240E+01 3.52400E+00 0.00000E+00
 -1      1945 2.08740E+01 4.82300E+00 0.00000E+00
 -1      1946 2.61240E+01 3.52400E+00 0.00000E+00
 -1      1947 2.46240E+01 3.52400E+00 0.00000E+00
 -1      1948 2.38740E+01 4.82300E+00 0.00000E+00
 -1      1949 2.91240E+01 3.52400E+00 0.00000E+00
 -1      1950 2.76240E+01 3.52400E+00 0.00000E+00
 -1      1951 2.68740E+01 4.82300E+00 0.00000E+00
 -1      1952 3.21240E+01 3.52400E+00 0.00000E+00
 -1      1953 3.06240E+01 3.52400E+00 0.00000E+00
 -1      1954 2.98740E+01 4.82300E+00 0.00000E+00
 -1      1955 3.51240E+01 3.52400E+00 0.00000E+00
 -1      1956 3.36240E+01 3.52400E+00 0.00000E+00
 -1      1957 3.28740E+01 4.82300E+00 0.00000E+00
 -1      1958 3.81240E+01 3.52400E+00 0.00000E+00
 -1      1959 3.66240E+01 3.52400E+00 0.00000E+00
 -1      1960 3.58740E+01 4.82300E+00 0.00000E+00
 -1      1961 4.11240E+01 3.52400E+00 0.00000E+00
 -1      1962 3.96240E+01 3.52400E+00 0.00000E+00
 -1      1963 3.88740E+01 4.82300E+00 0.00000E+00
 -1      1964 4.41240E+01 3.52400E+00 0.00000E+00
 -1      1965 4.26240E+01 3.52400E+00 0.00000E+00
 -1      1966 4.18740E+01 4.82300E+00 0.00000E+00
 -1      1967 4.71240E+01 3.52400E+00 0.00000E+00
 -1      1968 4.56240E+01 3.52400E+00 0.00000E+00
 -1      1969 4.48740E+01 4.82300E+00 0.00000E+00
 -1      1970 5.01240E+01 3.52400E+00 0.00000E+00
 -1      1971 4.86240E+01 3.52400E+00 0.00000E+00
 -1      1972 4.78740E+01 4.82300E+00 0.00000E+00
 -1      1973 5.31240E+01 3.52400E+00 0.00000E+00
 -1      1974 5.16240E+01 3.52400E+00 0.00000E+00
 -1      1975 5.08740E+01 4.82300E+00 0.00000E+00
 -1      1976 5.61240E+01 3.52400E+00 0.00000E+00
 -1      1977 5.46240E+01 3.52400E+00 0.00000E+00
 -1      1978 5.38740E+01 4.82300E+00 0.00000E+00
 -1      1979 5.91240E+01 3.52400E+00 0.00000E+00
 -1      1980 5.76240E+01 3.52400E+00 0.00000E+00
 -1      1981 5.68740E+01 4.82300E+00 0.00000E+00
 -1      1982 6.21240E+01 3.52400E+00 0.00000E+00
 -1      1983 6.06240E+01 3.52400E+00 0.00000E+00
 -1      1984 5.98740E+01 4.82300E+00 0.00000E+00
 -1      1985 6.51240E+01 3.52400E+00 0.00000E+00
 -1      1986 6.36240E+01 3.52400E+00 0.00000E+00
 -1      1987 6.28740E+01 4.82300E+00 0.00000E+00
 -1      1988 6.81240E+01 3.52400E+00 0.00000E+00
 -1      1989 6.66240E+01 3.52400E+00 0.00000E+00
 -1      1990 6.58740E+01 4.82300E+00 0.00000E+00
 -1      1991 7.11240E+01 3.52400E+00 0.00000E+00
 -1      1992 6.96240E+01 3.52400E+00 0.00000E+00
 -1      1993 6.88740E+01 4.82300E+00 0.00000E+00
 -1      1994 7.41240E+01 3.52400E+00 0.00000E+00
 -1      1995 7.26240E+01 3.52400E+00 0.00000E+00
 -1      1996 7.18740E+01 4.82300E+00 0.00000E+00
 -1      1997 7.71240E+01 3.52400E+00 0.00000E+00
 -1      1998 7.56240E+01 3.52400E+00 0.00000E+00
 -1      1999 7.48740E+01 4.82300E+00 0.00000E+00
 -1      2000 8.01240E+01 3.52400E+00 0.00000E+00
 -1      2001 7.86240E+01 3.52400E+00 0.00000E+00
 -1      2002 7.78740E+01 4.82300E+00 0.00000E+00
 -1      2003 8.31240E+01 3.52400E+00 0.00000E+00
 -1      2004 8.16240E+01 3.52400E+00 0.00000E+00
 -1      2005 8.08740E+01 4.82300E+00 0.00000E+00
 -1      2006 8.61240E+01 3.52400E+00 0.00000E+00
 -1      2007 8.46240E+01 3.52400E+00 0.00000E+00
 -1      2008 8.38740E+01 4.82300E+00 0.00000E+00
 -1      2009 8.91240E+01 3.52400E+00 0.00000E+00
 -1      2010 8.76240E+01 3.52400E+00 0.00000E+00
 -1      2011 8.68740E+01 4.82300E+00 0.00000E+00
 -1      2012 9.21240E+01 3.52400E+00 0.00000E+00
 -1      2013 9.06240E+01 3.52400E+00 0.00000E+00
 -1      2014 8.98740E+01 4.82300E+00 0.00000E+00
 -1      2015 9.51240E+01 3.52400E+00 0.00000E+00
 -1      2016 9.36240E+01 3.52400E+00 0.00000E+00
 -1      2017 9.28740E+01 4.82300E+00 0.00000E+00
 -1      2018 9.81240E+01 3.52400E+00 0.00000E+00
 -1      2019 9.66240E+01 3.52400E+00 0.00000E+00
 -1      2020 9.58740E+01 4.82300E+00 0.00000E+00
 -1      2021 1.01124E+02 3.52400E+00 0.00000E+00
 -1      2022 9.96240E+01 3.52400E+00 0.00000E+00
 -1      2023 9.88740E+01 4.82300E+00 0.00000E+00
 -1      2024 1.04124E+02 3.52400E+00 0.00000E+00
 -1      2025 1.02624E+02 3.52400E+00 0.00000E+00
 -1      2026 1.01874E+02 4.82300E+00 0.00000E+00
 -1      2027 1.07124E+02 3.52400E+00 0.00000E+00
 -1      2028 1.05624E+02 3.52400E+00 0.00000E+00
 -1      2029 1.04874E+02 4.82300E+00 0.00000E+00
 -1      2030 1.10124E+02 3.52400E+00 0.00000E+00
 -1      2031 1.08624E+02 3.52400E+00 0.00000E+00
 -1      2032 1.07874E+02 4.82300E+00 0.00000E+00
 -1      2033 1.13124E+02 3.52400E+00 0.00000E+00
 -1      2034 1.11624E+02 3.52400E+00 0.00000E+00
 -1      2035 1.10874E+02 4.82300E+00 0.00000E+00
 -1      2036 1.16124E+02 3.52400E+00 0.00000E+00
 -1      2037 1.14624E+02 3.52400E+00 0.00000E+00
 -1      2038 1.13874E+02 4.82300E+00 0.00000E+00
 -1      2039 1.19124E+02 3.52400E+00 0.00000E+00
 -1      2040 1.17624E+02 3.52400E+00 0.00000E+00
 -1      2041 1.16874E+02 4.82300E+00 0.00000E+00
 -1      2042 1.22124E+02 3.52400E+00 0.00000E+00
 -1      2043 1.20624E+02 3.52400E+00 0.00000E+00
 -1      2044 1.19874E+02 4.82300E+00 0.00000E+00
 -1      2045 1.25124E+02 3.52400E+00 0.00000E+00
 -1      2046 1.23624E+02 3.52400E+00 0.00000E+00
 -1      2047 1.22874E+02 4.82300E+00 0.00000E+00
 -1      2048 1.28124E+02 3.52400E+00 0.00000E+00
 -1      2049 1.26624E+02 3.52400E+00 0.00000E+00
 -1      2050 1.25874E+02 4.82300E+00 0.00000E+00
 -1      2051 1.31124E+02 3.52400E+00 0.00000E+00
 -1      2052 1.29624E+02 3.52400E+00 0.00000E+00
 -1      2053 1.28874E+02 4.82300E+00 0.00000E+00
 -1      2054 1.34124E+02 3.52400E+00 0.00000E+00
 -1      2055 1.32624E+02 3.52400E+00 0.00000E+00
 -1      2056 1.31874E+02 4.82300E+00 0.00000E+00
 -1      2057 1.37124E+02 3.52400E+00 0.00000E+00
 -1      2058 1.35624E+02 3.52400E+00 0.00000E+00
 -1      2059 1.34874E+02 4.82300E+00 0.00000E+00
 -1      2060 1.40124E+02 3.52400E+00 0.00000E+00
 -1      2061 1.38624E+02 3.52400E+00 0.00000E+00
 -1      2062 1.37874E+02 4.82300E+00 0.00000E+00
 -1      2063 1.43124E+02 3.52400E+00 0.00000E+00
 -1      2064 1.41624E+02 3.52400E+00 0.00000E+00
 -1      2065 1.40874E+02 4.82300E+00 0.00000E+00
 -1      2066 1.45881E+02 3.42450E+00 0.00000E+00
 -1      2067 1.44381E+02 3.42450E+00 0.00000E+00
 -1      2068 1.43631E+02 4.72350E+00 0.00000E+00
 -1      2069 1.46145E+02 4.52450E+00 0.00000E+00
 -1      2070 1.46103E+02 1.25375E+01 0.00000E+00
 -1      2071 1.46103E+02 1.10625E+01 0.00000E+00
 -1      2072 1.46103E+02 9.58750E+00 0.00000E+00
 -1      2073 1.46103E+02 8.11250E+00 0.00000E+00
 -1      2074 1.44804E+02 1.03250E+01 0.00000E+00
 -1      2075 1.46145E+02 5.99950E+00 0.00000E+00
 -1      2076 1.46103E+02 1.54375E+01 0.00000E+00
 -1      2077 1.46103E+02 1.39875E+01 0.00000E+00
 -1      2078 1.44804E+02 1.32500E+01 0.00000E+00
 -1      2079 1.46103E+02 1.83875E+01 0.00000E+00
 -1      2080 1.46103E+02 1.69125E+01 0.00000E+00
 -1      2081 1.44804E+02 1.61750E+01 0.00000E+00
 -1      2082 1.46103E+02 2.13375E+01 0.00000E+00
 -1      2083 1.46103E+02 1.98625E+01 0.00000E+00
 -1      2084 1.44804E+02 1.91250E+01 0.00000E+00
 -1      2085 1.46103E+02 2.42875E+01 0.00000E+00
 -1      2086 1.46103E+02 2.28125E+01 0.00000E+00
 -1      2087 1.44804E+02 2.20750E+01 0.00000E+00
 -1      2088 1.46103E+02 2.72375E+01 0.00000E+00
 -1      2089 1.46103E+02 2.57625E+01 0.00000E+00
 -1      2090 1.44804E+02 2.50250E+01 0.00000E+00
 -1      2091 1.46103E+02 3.01875E+01 0.00000E+00
 -1      2092 1.46103E+02 2.87125E+01 0.00000E+00
 -1      2093 1.44804E+02 2.79750E+01 0.00000E+00
 -1      2094 1.46103E+02 3.30875E+01 0.00000E+00
 -1      2095 1.46103E+02 3.16375E+01 0.00000E+00
 -1      2096 1.44804E+02 3.09000E+01 0.00000E+00
 -1      2097 1.46103E+02 3.60375E+01 0.00000E+00
 -1      2098 1.46103E+02 3.45625E+01 0.00000E+00
 -1      2099 1.44804E+02 3.38250E+01 0.00000E+00
 -1      2100 1.46103E+02 3.89875E+01 0.00000E+00
 -1      2101 1.46103E+02 3.75125E+01 0.00000E+00
 -1      2102 1.44804E+02 3.67750E+01 0.00000E+00
 -1      2103 1.46103E+02 4.19375E+01 0.00000E+00
 -1      2104 1.46103E+02 4.04625E+01 0.00000E+00
 -1      2105 1.44804E+02 3.97250E+01 0.00000E+00
 -1      2106 1.13877E+01 3.34013E+00 0.00000E+00
 -1      2107 9.88767E+00 3.34013E+00 0.00000E+00
 -1      2108 9.66502E+00 4.27138E+00 0.00000E+00
 -1      2109 1.21377E+01 4.63912E+00 0.00000E+00
 -1      2110 2.47444E+01 3.28394E+01 0.00000E+00
 -1      2111 2.51988E+01 3.36181E+01 0.00000E+00
 -1      2112 2.21487E+01 2.98251E+01 0.00000E+00
 -1      2113 2.29696E+01 3.03375E+01 0.00000E+00
 -1      2114 2.57900E+01 3.66429E+01 0.00000E+00
 -1      2115 2.57533E+01 3.75058E+01 0.00000E+00
 -1      2116 3.70691E+00 3.77000E+01 0.00000E+00
 -1      2117 3.70691E+00 3.89750E+01 0.00000E+00
 -1      2118 4.81582E+00 3.97250E+01 0.00000E+00
 -1      2119 2.04716E+01 2.89131E+01 0.00000E+00
 -1      2120 2.12836E+01 2.92702E+01 0.00000E+00
 -1      2121 1.86825E+01 2.84037E+01 0.00000E+00
 -1      2122 1.95316E+01 2.86569E+01 0.00000E+00
 -1      2123 1.67380E+01 2.81471E+01 0.00000E+00
 -1      2124 1.76191E+01 2.81320E+01 0.00000E+00
 -1      2125 1.48440E+01 2.81849E+01 0.00000E+00
 -1      2126 1.57910E+01 2.81660E+01 0.00000E+00
 -1      2127 1.62183E+01 2.73848E+01 0.00000E+00
 -1      2128 1.28105E+01 2.90587E+01 0.00000E+00
 -1      2129 1.36603E+01 2.85934E+01 0.00000E+00
 -1      2130 1.12352E+01 3.03052E+01 0.00000E+00
 -1      2131 1.19146E+01 2.96914E+01 0.00000E+00
 -1      2132 9.79496E+00 3.15197E+01 0.00000E+00
 -1      2133 1.04553E+01 3.08687E+01 0.00000E+00
 -1      2134 8.88225E+00 3.34039E+01 0.00000E+00
 -1      2135 9.22776E+00 3.25750E+01 0.00000E+00
 -1      2136 8.34225E+00 3.51205E+01 0.00000E+00
 -1      2137 8.56846E+00 3.43063E+01 0.00000E+00
 -1      2138 8.07015E+00 3.69578E+01 0.00000E+00
 -1      2139 8.16185E+00 3.60797E+01 0.00000E+00
 -1      2140 8.17913E+00 3.89454E+01 0.00000E+00
 -1      2141 8.00059E+00 3.80694E+01 0.00000E+00
 -1      2142 8.92775E+00 4.06544E+01 0.00000E+00
 -1      2143 8.61808E+00 3.98544E+01 0.00000E+00
 -1      2144 9.84663E+00 4.22447E+01 0.00000E+00
 -1      2145 9.37899E+00 4.15322E+01 0.00000E+00
 -1      2146 1.10422E+01 4.36356E+01 0.00000E+00
 -1      2147 1.04380E+01 4.30350E+01 0.00000E+00
 -1      2148 1.23905E+01 4.49828E+01 0.00000E+00
 -1      2149 1.16904E+01 4.44830E+01 0.00000E+00
 -1      2150 1.42568E+01 4.54629E+01 0.00000E+00
 -1      2151 1.34389E+01 4.51959E+01 0.00000E+00
 -1      2152 1.49987E+01 4.63700E+01 0.00000E+00
 -1      2153 1.81524E+01 4.65356E+01 0.00000E+00
 -1      2154 2.15516E+01 4.47741E+01 0.00000E+00
 -1      2155 2.08108E+01 4.52220E+01 0.00000E+00
 -1      2156 2.30328E+01 4.35369E+01 0.00000E+00
 -1      2157 2.23799E+01 4.40943E+01 0.00000E+00
 -1      2158 2.43015E+01 4.21744E+01 0.00000E+00
 -1      2159 2.36960E+01 4.28363E+01 0.00000E+00
 -1      2160 2.53059E+01 4.03898E+01 0.00000E+00
 -1      2161 2.49170E+01 4.12398E+01 0.00000E+00
 -1      2162 2.58435E+01 3.84500E+01 0.00000E+00
 -1      2163 2.57363E+01 3.93339E+01 0.00000E+00
 -1      2164 2.57567E+01 3.46598E+01 0.00000E+00
 -1      2165 2.59220E+01 3.55742E+01 0.00000E+00
 -1      2166 2.38600E+01 3.11850E+01 0.00000E+00
 -1      2167 2.43022E+01 3.20122E+01 0.00000E+00
 -1      2168 2.51253E+01 3.20537E+01 0.00000E+00
 -1      2169 2.29500E+01 4.55644E+01 0.00000E+00
 -1      2170 4.56448E+00 3.42875E+01 0.00000E+00
 -1      2171 4.81583E+00 3.14000E+01 0.00000E+00
 -1      2172 1.02375E+01 4.53517E+01 0.00000E+00
 -1      2173 1.92774E+01 4.65356E+01 0.00000E+00
 -1      2174 6.15791E+00 4.57010E+01 0.00000E+00
 -1      2175 4.64826E+00 3.70625E+01 0.00000E+00
 -1      2176 1.99524E+01 4.55105E+01 0.00000E+00
 -1      2177 1.46022E+02 4.52274E+01 0.00000E+00
 -1      2178 1.44846E+02 6.73700E+00 0.00000E+00
 -1      2179 2.65512E+01 3.60331E+01 0.00000E+00
 -1      2180 1.46130E+02 4.41782E+01 0.00000E+00
 -1      2181 1.45996E+02 4.29867E+01 0.00000E+00
 -1      2182 1.44697E+02 4.22492E+01 0.00000E+00
 -1      2183 1.44482E+02 4.43476E+01 0.00000E+00
 -1      2184 2.61254E+01 3.39226E+01 0.00000E+00
 -1      2185 2.37927E+01 3.03790E+01 0.00000E+00
 -1      2186 2.46159E+01 3.04206E+01 0.00000E+00
 -1      2187 2.37254E+01 2.95731E+01 0.00000E+00
 -1      2188 2.20372E+01 2.89766E+01 0.00000E+00
 -1      2189 2.65094E+01 3.80461E+01 0.00000E+00
 -1      2190 2.61693E+01 4.00460E+01 0.00000E+00
 -1      2191 2.51234E+01 4.20365E+01 0.00000E+00
 -1      2192 1.25984E+01 4.57324E+01 0.00000E+00
 -1      2193 1.09018E+01 4.46720E+01 0.00000E+00
 -1      2194 9.66232E+00 4.30344E+01 0.00000E+00
 -1      2195 8.61976E+00 4.13662E+01 0.00000E+00
 -1      2196 7.72958E+00 3.95793E+01 0.00000E+00
 -1      2197 7.36019E+00 3.75587E+01 0.00000E+00
 -1      2198 7.61015E+00 3.54879E+01 0.00000E+00
 -1      2199 8.10433E+00 3.36264E+01 0.00000E+00
 -1      2200 8.98532E+00 3.16686E+01 0.00000E+00
 -1      2201 1.03324E+01 3.00498E+01 0.00000E+00
 -1      2202 1.40877E+01 2.78123E+01 0.00000E+00
 -1      2203 1.45151E+01 2.70311E+01 0.00000E+00
 -1      2204 1.33314E+01 2.74396E+01 0.00000E+00
 -1      2205 1.82288E+01 2.76375E+01 0.00000E+00
 -1      2206 2.02322E+01 2.81655E+01 0.00000E+00
 -1      2207 6.87041E+00 4.45921E+01 0.00000E+00
 -1      2208 1.20082E+01 2.88536E+01 0.00000E+00
 -1      2209 1.43886E+01 4.68526E+01 0.00000E+00
 -1      2210 2.38447E+01 4.36717E+01 0.00000E+00
 -1      2211 1.31984E+01 4.66738E+01 0.00000E+00
 -1      2212 5.91840E+00 3.07638E+01 0.00000E+00
 -1      2213 5.75083E+00 3.22638E+01 0.00000E+00
 -1      2214 6.09230E+00 2.76500E+01 0.00000E+00
 -1      2215 6.09230E+00 2.91500E+01 0.00000E+00
 -1      2216 6.28239E+00 1.86875E+01 0.00000E+00
 -1      2217 6.28239E+00 2.01625E+01 0.00000E+00
 -1      2218 6.28239E+00 1.56875E+01 0.00000E+00
 -1      2219 6.28239E+00 1.71875E+01 0.00000E+00
 -1      2220 7.58139E+00 1.79250E+01 0.00000E+00
 -1      2221 6.28239E+00 1.26875E+01 0.00000E+00
 -1      2222 6.28239E+00 1.41875E+01 0.00000E+00
 -1      2223 7.58139E+00 1.49250E+01 0.00000E+00
 -1      2224 6.28239E+00 9.68750E+00 0.00000E+00
 -1      2225 6.28239E+00 1.11875E+01 0.00000E+00
 -1      2226 7.58139E+00 1.19250E+01 0.00000E+00
 -1      2227 6.28239E+00 6.68750E+00 0.00000E+00
 -1      2228 6.28239E+00 8.18750E+00 0.00000E+00
 -1      2229 7.58139E+00 8.92500E+00 0.00000E+00
 -1      2230 6.71687E+00 4.92188E+00 0.00000E+00
 -1      2231 6.49422E+00 5.85313E+00 0.00000E+00
 -1      2232 7.79322E+00 6.59062E+00 0.00000E+00
 -1      2233 8.21687E+00 4.92188E+00 0.00000E+00
 -1      2234 1.11139E+01 2.85380E+01 0.00000E+00
 -1      2235 1.20097E+01 2.79052E+01 0.00000E+00
 -1      2236 2.66024E+01 3.29970E+01 0.00000E+00
 -1      2237 2.71603E+01 3.40387E+01 0.00000E+00
 -1      2238 1.43589E+02 6.83650E+00 0.00000E+00
 -1      2239 2.81250E+01 4.42041E+01 0.00000E+00
 -1      2240 2.96250E+01 4.42041E+01 0.00000E+00
 -1      2241 3.11250E+01 4.42041E+01 0.00000E+00
 -1      2242 3.26250E+01 4.42041E+01 0.00000E+00
 -1      2243 3.03750E+01 4.30114E+01 0.00000E+00
 -1      2244 3.41250E+01 4.42041E+01 0.00000E+00
 -1      2245 3.56250E+01 4.42041E+01 0.00000E+00
 -1      2246 3.33750E+01 4.30114E+01 0.00000E+00
 -1      2247 3.71250E+01 4.42041E+01 0.00000E+00
 -1      2248 3.86250E+01 4.42041E+01 0.00000E+00
 -1      2249 3.63750E+01 4.30114E+01 0.00000E+00
 -1      2250 4.01250E+01 4.42041E+01 0.00000E+00
 -1      2251 4.16250E+01 4.42041E+01 0.00000E+00
 -1      2252 3.93750E+01 4.30114E+01 0.00000E+00
 -1      2253 4.31250E+01 4.42041E+01 0.00000E+00
 -1      2254 4.46250E+01 4.42041E+01 0.00000E+00
 -1      2255 4.23750E+01 4.30114E+01 0.00000E+00
 -1      2256 4.61250E+01 4.42041E+01 0.00000E+00
 -1      2257 4.76250E+01 4.42041E+01 0.00000E+00
 -1      2258 4.53750E+01 4.30114E+01 0.00000E+00
 -1      2259 4.91250E+01 4.42041E+01 0.00000E+00
 -1      2260 5.06250E+01 4.42041E+01 0.00000E+00
 -1      2261 4.83750E+01 4.30114E+01 0.00000E+00
 -1      2262 5.21250E+01 4.42041E+01 0.00000E+00
 -1      2263 5.36250E+01 4.42041E+01 0.00000E+00
 -1      2264 5.13750E+01 4.30114E+01 0.00000E+00
 -1      2265 5.51250E+01 4.42041E+01 0.00000E+00
 -1      2266 5.66250E+01 4.42041E+01 0.00000E+00
 -1      2267 5.43750E+01 4.30114E+01 0.00000E+00
 -1      2268 5.81250E+01 4.42041E+01 0.00000E+00
 -1      2269 5.96250E+01 4.42041E+01 0.00000E+00
 -1      2270 5.73750E+01 4.30114E+01 0.00000E+00
 -1      2271 6.11250E+01 4.42041E+01 0.00000E+00
 -1      2272 6.26250E+01 4.42041E+01 0.00000E+00
 -1      2273 6.03750E+01 4.30114E+01 0.00000E+00
 -1      2274 6.41250E+01 4.42041E+01 0.00000E+00
 -1      2275 6.56250E+01 4.42041E+01 0.00000E+00
 -1      2276 6.33750E+01 4.30114E+01 0.00000E+00
 -1      2277 6.71250E+01 4.42041E+01 0.00000E+00
 -1      2278 6.86250E+01 4.42041E+01 0.00000E+00
 -1      2279 6.63750E+01 4.30114E+01 0.00000E+00
 -1      2280 7.01250E+01 4.42041E+01 0.00000E+00
 -1      2281 7.16250E+01 4.42041E+01 0.00000E+00
 -1      2282 6.93750E+01 4.30114E+01 0.00000E+00
 -1      2283 7.31250E+01 4.42041E+01 0.00000E+00
 -1      2284 7.46250E+01 4.42041E+01 0.00000E+00
 -1      2285 7.23750E+01 4.30114E+01 0.00000E+00
 -1      2286 7.61250E+01 4.42041E+01 0.00000E+00
 -1      2287 7.76250E+01 4.42041E+01 0.00000E+00
 -1      2288 7.53750E+01 4.30114E+01 0.00000E+00
 -1      2289 7.91250E+01 4.42041E+01 0.00000E+00
 -1      2290 8.06250E+01 4.42041E+01 0.00000E+00
 -1      2291 7.83750E+01 4.30114E+01 0.00000E+00
 -1      2292 8.21250E+01 4.42041E+01 0.00000E+00
 -1      2293 8.36250E+01 4.42041E+01 0.00000E+00
 -1      2294 8.13750E+01 4.30114E+01 0.00000E+00
 -1      2295 8.51250E+01 4.42041E+01 0.00000E+00
 -1      2296 8.66250E+01 4.42041E+01 0.00000E+00
 -1      2297 8.43750E+01 4.30114E+01 0.00000E+00
 -1      2298 8.81250E+01 4.42041E+01 0.00000E+00
 -1      2299 8.96250E+01 4.42041E+01 0.00000E+00
 -1      2300 8.73750E+01 4.30114E+01 0.00000E+00
 -1      2301 9.11250E+01 4.42041E+01 0.00000E+00
 -1      2302 9.26250E+01 4.42041E+01 0.00000E+00
 -1      2303 9.03750E+01 4.30114E+01 0.00000E+00
 -1      2304 9.41250E+01 4.42041E+01 0.00000E+00
 -1      2305 9.56250E+01 4.42041E+01 0.00000E+00
 -1      2306 9.33750E+01 4.30114E+01 0.00000E+00
 -1      2307 9.71250E+01 4.42041E+01 0.00000E+00
 -1      2308 9.86250E+01 4.42041E+01 0.00000E+00
 -1      2309 9.63750E+01 4.30114E+01 0.00000E+00
 -1      2310 1.00125E+02 4.42041E+01 0.00000E+00
 -1      2311 1.01625E+02 4.42041E+01 0.00000E+00
 -1      2312 9.93750E+01 4.30114E+01 0.00000E+00
 -1      2313 1.03125E+02 4.42041E+01 0.00000E+00
 -1      2314 1.04625E+02 4.42041E+01 0.00000E+00
 -1      2315 1.02375E+02 4.30114E+01 0.00000E+00
 -1      2316 1.06125E+02 4.42041E+01 0.00000E+00
 -1      2317 1.07625E+02 4.42041E+01 0.00000E+00
 -1      2318 1.05375E+02 4.30114E+01 0.00000E+00
 -1      2319 1.09125E+02 4.42041E+01 0.00000E+00
 -1      2320 1.10625E+02 4.42041E+01 0.00000E+00
 -1      2321 1.08375E+02 4.30114E+01 0.00000E+00
 -1      2322 1.12125E+02 4.42041E+01 0.00000E+00
 -1      2323 1.13625E+02 4.42041E+01 0.00000E+00
 -1      2324 1.11375E+02 4.30114E+01 0.00000E+00
 -1      2325 1.15125E+02 4.42041E+01 0.00000E+00
 -1      2326 1.16625E+02 4.42041E+01 0.00000E+00
 -1      2327 1.14375E+02 4.30114E+01 0.00000E+00
 -1      2328 1.18125E+02 4.42041E+01 0.00000E+00
 -1      2329 1.19625E+02 4.42041E+01 0.00000E+00
 -1      2330 1.17375E+02 4.30114E+01 0.00000E+00
 -1      2331 1.21125E+02 4.42041E+01 0.00000E+00
 -1      2332 1.22625E+02 4.42041E+01 0.00000E+00
 -1      2333 1.20375E+02 4.30114E+01 0.00000E+00
 -1      2334 1.24125E+02 4.42041E+01 0.00000E+00
 -1      2335 1.25625E+02 4.42041E+01 0.00000E+00
 -1      2336 1.23375E+02 4.30114E+01 0.00000E+00
 -1      2337 1.27125E+02 4.42041E+01 0.00000E+00
 -1      2338 1.28625E+02 4.42041E+01 0.00000E+00
 -1      2339 1.26375E+02 4.30114E+01 0.00000E+00
 -1      2340 1.30125E+02 4.42041E+01 0.00000E+00
 -1      2341 1.31625E+02 4.42041E+01 0.00000E+00
 -1      2342 1.29375E+02 4.30114E+01 0.00000E+00
 -1      2343 1.33125E+02 4.42041E+01 0.00000E+00
 -1      2344 1.34625E+02 4.42041E+01 0.00000E+00
 -1      2345 1.32375E+02 4.30114E+01 0.00000E+00
 -1      2346 1.36125E+02 4.42041E+01 0.00000E+00
 -1      2347 1.37625E+02 4.42041E+01 0.00000E+00
 -1      2348 1.35375E+02 4.30114E+01 0.00000E+00
 -1      2349 1.39125E+02 4.42041E+01 0.00000E+00
 -1      2350 1.40625E+02 4.42041E+01 0.00000E+00
 -1      2351 1.38375E+02 4.30114E+01 0.00000E+00
 -1      2352 1.41804E+02 4.42758E+01 0.00000E+00
 -1      2353 1.43304E+02 4.42758E+01 0.00000E+00
 -1      2354 1.43411E+02 4.32266E+01 0.00000E+00
 -1      2355 1.41054E+02 4.30831E+01 0.00000E+00
 -1      2356 2.16240E+01 6.12200E+00 0.00000E+00
 -1      2357 2.01240E+01 6.12200E+00 0.00000E+00
 -1      2358 1.86240E+01 6.12200E+00 0.00000E+00
 -1      2359 1.71240E+01 6.12200E+00 0.00000E+00
 -1      2360 1.93740E+01 7.42100E+00 0.00000E+00
 -1      2361 1.56240E+01 6.12200E+00 0.00000E+00
 -1      2362 1.41240E+01 6.12200E+00 0.00000E+00
 -1      2363 1.63740E+01 7.42100E+00 0.00000E+00
 -1      2364 2.46240E+01 6.12200E+00 0.00000E+00
 -1      2365 2.31240E+01 6.12200E+00 0.00000E+00
 -1      2366 2.23740E+01 7.42100E+00 0.00000E+00
 -1      2367 2.76240E+01 6.12200E+00 0.00000E+00
 -1      2368 2.61240E+01 6.12200E+00 0.00000E+00
 -1      2369 2.53740E+01 7.42100E+00 0.00000E+00
 -1      2370 3.06240E+01 6.12200E+00 0.00000E+00
 -1      2371 2.91240E+01 6.12200E+00 0.00000E+00
 -1      2372 2.83740E+01 7.42100E+00 0.00000E+00
 -1      2373 3.36240E+01 6.12200E+00 0.00000E+00
 -1      2374 3.21240E+01 6.12200E+00 0.00000E+00
 -1      2375 3.13740E+01 7.42100E+00 0.00000E+00
 -1      2376 3.66240E+01 6.12200E+00 0.00000E+00
 -1      2377 3.51240E+01 6.12200E+00 0.00000E+00
 -1      2378 3.43740E+01 7.42100E+00 0.00000E+00
 -1      2379 3.96240E+01 6.12200E+00 0.00000E+00
 -1      2380 3.81240E+01 6.12200E+00 0.00000E+00
 -1      2381 3.73740E+01 7.42100E+00 0.00000E+00
 -1      2382 4.26240E+01 6.12200E+00 0.00000E+00
 -1      2383 4.11240E+01 6.12200E+00 0.00000E+00
 -1      2384 4.03740E+01 7.42100E+00 0.00000E+00
 -1      2385 4.56240E+01 6.12200E+00 0.00000E+00
 -1      2386 4.41240E+01 6.12200E+00 0.00000E+00
 -1      2387 4.33740E+01 7.42100E+00 0.00000E+00
 -1      2388 4.86240E+01 6.12200E+00 0.00000E+00
 -1      2389 4.71240E+01 6.12200E+00 0.00000E+00
 -1      2390 4.63740E+01 7.42100E+00 0.00000E+00
 -1      2391 5.16240E+01 6.12200E+00 0.00000E+00
 -1      2392 5.01240E+01 6.12200E+00 0.00000E+00
 -1      2393 4.93740E+01 7.42100E+00 0.00000E+00
 -1      2394 5.46240E+01 6.12200E+00 0.00000E+00
 -1      2395 5.31240E+01 6.12200E+00 0.00000E+00
 -1      2396 5.23740E+01 7.42100E+00 0.00000E+00
 -1      2397 5.76240E+01 6.12200E+00 0.00000E+00
 -1      2398 5.61240E+01 6.12200E+00 0.00000E+00
 -1      2399 5.53740E+01 7.42100E+00 0.00000E+00
 -1      2400 6.06240E+01 6.12200E+00 0.00000E+00
 -1      2401 5.91240E+01 6.12200E+00 0.00000E+00
 -1      2402 5.83740E+01 7.42100E+00 0.00000E+00
 -1      2403 6.36240E+01 6.12200E+00 0.00000E+00
 -1      2404 6.21240E+01 6.12200E+00 0.00000E+00
 -1      2405 6.13740E+01 7.42100E+00 0.00000E+00
 -1      2406 6.66240E+01 6.12200E+00 0.00000E+00
 -1      2407 6.51240E+01 6.12200E+00 0.00000E+00
 -1      2408 6.43740E+01 7.42100E+00 0.00000E+00
 -1      2409 6.96240E+01 6.12200E+00 0.00000E+00
 -1      2410 6.81240E+01 6.12200E+00 0.00000E+00
 -1      2411 6.73740E+01 7.42100E+00 0.00000E+00
 -1      2412 7.26240E+01 6.12200E+00 0.00000E+00
 -1      2413 7.11240E+01 6.12200E+00 0.00000E+00
 -1      2414 7.03740E+01 7.42100E+00 0.00000E+00
 -1      2415 7.56240E+01 6.12200E+00 0.00000E+00
 -1      2416 7.41240E+01 6.12200E+00 0.00000E+00
 -1      2417 7.33740E+01 7.42100E+00 0.00000E+00
 -1      2418 7.86240E+01 6.12200E+00 0.00000E+00
 -1      2419 7.71240E+01 6.12200E+00 0.00000E+00
 -1      2420 7.63740E+01 7.42100E+00 0.00000E+00
 -1      2421 8.16240E+01 6.12200E+00 0.00000E+00
 -1      2422 8.01240E+01 6.12200E+00 0.00000E+00
 -1      2423 7.93740E+01 7.42100E+00 0.00000E+00
 -1      2424 8.46240E+01 6.12200E+00 0.00000E+00
 -1      2425 8.31240E+01 6.12200E+00 0.00000E+00
 -1      2426 8.23740E+01 7.42100E+00 0.00000E+00
 -1      2427 8.76240E+01 6.12200E+00 0.00000E+00
 -1      2428 8.61240E+01 6.12200E+00 0.00000E+00
 -1      2429 8.53740E+01 7.42100E+00 0.00000E+00
 -1      2430 9.06240E+01 6.12200E+00 0.00000E+00
 -1      2431 8.91240E+01 6.12200E+00 0.00000E+00
 -1      2432 8.83740E+01 7.42100E+00 0.00000E+00
 -1      2433 9.36240E+01 6.12200E+00 0.00000E+00
 -1      2434 9.21240E+01 6.12200E+00 0.00000E+00
 -1      2435 9.13740E+01 7.42100E+00 0.00000E+00
 -1      2436 9.66240E+01 6.12200E+00 0.00000E+00
 -1      2437 9.51240E+01 6.12200E+00 0.00000E+00
 -1      2438 9.43740E+01 7.42100E+00 0.00000E+00
 -1      2439 9.96240E+01 6.12200E+00 0.00000E+00
 -1      2440 9.81240E+01 6.12200E+00 0.00000E+00
 -1      2441 9.73740E+01 7.42100E+00 0.00000E+00
 -1      2442 1.02624E+02 6.12200E+00 0.00000E+00
 -1      2443 1.01124E+02 6.12200E+00 0.00000E+00
 -1      2444 1.00374E+02 7.42100E+00 0.00000E+00
 -1      2445 1.05624E+02 6.12200E+00 0.00000E+00
 -1      2446 1.04124E+02 6.12200E+00 0.00000E+00
 -1      2447 1.03374E+02 7.42100E+00 0.00000E+00
 -1      2448 1.08624E+02 6.12200E+00 0.00000E+00
 -1      2449 1.07124E+02 6.12200E+00 0.00000E+00
 -1      2450 1.06374E+02 7.42100E+00 0.00000E+00
 -1      2451 1.11624E+02 6.12200E+00 0.00000E+00
 -1      2452 1.10124E+02 6.12200E+00 0.00000E+00
 -1      2453 1.09374E+02 7.42100E+00 0.00000E+00
 -1      2454 1.14624E+02 6.12200E+00 0.00000E+00
 -1      2455 1.13124E+02 6.12200E+00 0.00000E+00
 -1      2456 1.12374E+02 7.42100E+00 0.00000E+00
 -1      2457 1.17624E+02 6.12200E+00 0.00000E+00
 -1      2458 1.16124E+02 6.12200E+00 0.00000E+00
 -1      2459 1.15374E+02 7.42100E+00 0.00000E+00
 -1      2460 1.20624E+02 6.12200E+00 0.00000E+00
 -1      2461 1.19124E+02 6.12200E+00 0.00000E+00
 -1      2462 1.18374E+02 7.42100E+00 0.00000E+00
 -1      2463 1.23624E+02 6.12200E+00 0.00000E+00
 -1      2464 1.22124E+02 6.12200E+00 0.00000E+00
 -1      2465 1.21374E+02 7.42100E+00 0.00000E+00
 -1      2466 1.26624E+02 6.12200E+00 0.00000E+00
 -1      2467 1.25124E+02 6.12200E+00 0.00000E+00
 -1      2468 1.24374E+02 7.42100E+00 0.00000E+00
 -1      2469 1.29624E+02 6.12200E+00 0.00000E+00
 -1      2470 1.28124E+02 6.12200E+00 0.00000E+00
 -1      2471 1.27374E+02 7.42100E+00 0.00000E+00
 -1      2472 1.32624E+02 6.12200E+00 0.00000E+00
 -1      2473 1.31124E+02 6.12200E+00 0.00000E+00
 -1      2474 1.30374E+02 7.42100E+00 0.00000E+00
 -1      2475 1.35624E+02 6.12200E+00 0.00000E+00
 -1      2476 1.34124E+02 6.12200E+00 0.00000E+00
 -1      2477 1.33374E+02 7.42100E+00 0.00000E+00
 -1      2478 1.38624E+02 6.12200E+00 0.00000E+00
 -1      2479 1.37124E+02 6.12200E+00 0.00000E+00
 -1      2480 1.36374E+02 7.42100E+00 0.00000E+00
 -1      2481 1.41624E+02 6.12200E+00 0.00000E+00
 -1      2482 1.40124E+02 6.12200E+00 0.00000E+00
 -1      2483 1.39374E+02 7.42100E+00 0.00000E+00
 -1      2484 1.43505E+02 1.69125E+01 0.00000E+00
 -1      2485 1.43505E+02 1.54375E+01 0.00000E+00
 -1      2486 1.43505E+02 1.39875E+01 0.00000E+00
 -1      2487 1.43505E+02 1.25375E+01 0.00000E+00
 -1      2488 1.42206E+02 1.47250E+01 0.00000E+00
 -1      2489 1.43505E+02 1.10625E+01 0.00000E+00
 -1      2490 1.43505E+02 9.58750E+00 0.00000E+00
 -1      2491 1.42206E+02 1.18000E+01 0.00000E+00
 -1      2492 2.73851E+01 3.55936E+01 0.00000E+00
 -1      2493 2.72531E+01 3.66624E+01 0.00000E+00
 -1      2494 1.43505E+02 1.98625E+01 0.00000E+00
 -1      2495 1.43505E+02 1.83875E+01 0.00000E+00
 -1      2496 1.42206E+02 1.76500E+01 0.00000E+00
 -1      2497 1.43505E+02 2.28125E+01 0.00000E+00
 -1      2498 1.43505E+02 2.13375E+01 0.00000E+00
 -1      2499 1.42206E+02 2.06000E+01 0.00000E+00
 -1      2500 1.43505E+02 2.57625E+01 0.00000E+00
 -1      2501 1.43505E+02 2.42875E+01 0.00000E+00
 -1      2502 1.42206E+02 2.35500E+01 0.00000E+00
 -1      2503 1.43505E+02 2.87125E+01 0.00000E+00
 -1      2504 1.43505E+02 2.72375E+01 0.00000E+00
 -1      2505 1.42206E+02 2.65000E+01 0.00000E+00
 -1      2506 1.43505E+02 3.16125E+01 0.00000E+00
 -1      2507 1.43505E+02 3.01625E+01 0.00000E+00
 -1      2508 1.42206E+02 2.94250E+01 0.00000E+00
 -1      2509 1.43505E+02 3.45625E+01 0.00000E+00
 -1      2510 1.43505E+02 3.30875E+01 0.00000E+00
 -1      2511 1.42206E+02 3.23500E+01 0.00000E+00
 -1      2512 1.43505E+02 3.75125E+01 0.00000E+00
 -1      2513 1.43505E+02 3.60375E+01 0.00000E+00
 -1      2514 1.42206E+02 3.53000E+01 0.00000E+00
 -1      2515 1.43505E+02 4.04625E+01 0.00000E+00
 -1      2516 1.43505E+02 3.89875E+01 0.00000E+00
 -1      2517 1.42206E+02 3.82500E+01 0.00000E+00
 -1      2518 2.20451E+01 2.80126E+01 0.00000E+00
 -1      2519 2.29102E+01 2.85675E+01 0.00000E+00
 -1      2520 2.70622E+01 3.97944E+01 0.00000E+00
 -1      2521 2.66318E+01 4.08502E+01 0.00000E+00
 -1      2522 1.78886E+01 2.67520E+01 0.00000E+00
 -1      2523 1.89520E+01 2.70237E+01 0.00000E+00
 -1      2524 5.46237E+00 3.36454E+01 0.00000E+00
 -1      2525 5.37859E+00 3.50329E+01 0.00000E+00
 -1      2526 6.28239E+00 2.16625E+01 0.00000E+00
 -1      2527 6.28239E+00 2.31625E+01 0.00000E+00
 -1      2528 7.58139E+00 2.09250E+01 0.00000E+00
 -1      2529 6.28239E+00 2.46625E+01 0.00000E+00
 -1      2530 6.28239E+00 2.61625E+01 0.00000E+00
 -1      2531 7.58139E+00 2.39250E+01 0.00000E+00
 -1      2532 9.58932E+00 4.45044E+01 0.00000E+00
 -1      2533 2.73433E+01 3.76065E+01 0.00000E+00
 -1      2534 2.74336E+01 3.85507E+01 0.00000E+00
 -1      2535 2.81773E+01 3.71670E+01 0.00000E+00
 -1      2536 6.15019E+00 4.32305E+01 0.00000E+00
 -1      2537 8.20477E+00 4.38226E+01 0.00000E+00
 -1      2538 1.99878E+01 2.72100E+01 0.00000E+00
 -1      2539 2.09278E+01 2.74662E+01 0.00000E+00
 -1      2540 1.57302E+01 2.66625E+01 0.00000E+00
 -1      2541 1.66772E+01 2.66436E+01 0.00000E+00
 -1      2542 9.48935E+00 2.97044E+01 0.00000E+00
 -1      2543 1.02693E+01 2.91409E+01 0.00000E+00
 -1      2544 7.63577E+00 3.21758E+01 0.00000E+00
 -1      2545 8.20296E+00 3.11205E+01 0.00000E+00
 -1      2546 6.85311E+00 3.54190E+01 0.00000E+00
 -1      2547 7.03351E+00 3.44598E+01 0.00000E+00
 -1      2548 7.28998E+00 4.03521E+01 0.00000E+00
 -1      2549 6.85104E+00 3.94431E+01 0.00000E+00
 -1      2550 8.27777E+00 4.23525E+01 0.00000E+00
 -1      2551 7.82654E+00 4.14747E+01 0.00000E+00
 -1      2552 8.99800E+00 4.37141E+01 0.00000E+00
 -1      2553 2.23533E+01 4.50521E+01 0.00000E+00
 -1      2554 2.61473E+01 4.20408E+01 0.00000E+00
 -1      2555 2.55318E+01 4.29755E+01 0.00000E+00
 -1      2556 2.55497E+01 3.12951E+01 0.00000E+00
 -1      2557 2.59919E+01 3.21223E+01 0.00000E+00
 -1      2558 1.42839E+02 8.13550E+00 0.00000E+00
 -1      2559 7.02731E+00 3.00138E+01 0.00000E+00
 -1      2560 7.39130E+00 2.69125E+01 0.00000E+00
 -1      2561 1.02708E+01 2.81925E+01 0.00000E+00
 -1      2562 9.45320E+00 5.10575E+00 0.00000E+00
 -1      2563 9.24137E+00 5.94012E+00 0.00000E+00
 -1      2564 1.06895E+01 5.28963E+00 0.00000E+00
 -1      2565 2.70268E+01 3.22383E+01 0.00000E+00
 -1      2566 2.83392E+01 3.37422E+01 0.00000E+00
 -1      2567 2.78622E+01 3.46679E+01 0.00000E+00
 -1      2568 2.85641E+01 3.52972E+01 0.00000E+00
 -1      2569 2.37783E+01 4.48845E+01 0.00000E+00
 -1      2570 5.49903E+00 3.62559E+01 0.00000E+00
 -1      2571 5.66660E+00 3.76434E+01 0.00000E+00
 -1      2572 2.69654E+01 4.41883E+01 0.00000E+00
 -1      2573 2.77154E+01 4.29956E+01 0.00000E+00
 -1      2574 1.41540E+02 8.87300E+00 0.00000E+00
 -1      2575 2.44414E+01 4.41839E+01 0.00000E+00
 -1      2576 2.37412E+01 2.76451E+01 0.00000E+00
 -1      2577 2.37333E+01 2.86091E+01 0.00000E+00
 -1      2578 2.45565E+01 2.86506E+01 0.00000E+00
 -1      2579 2.18007E+01 2.70571E+01 0.00000E+00
 -1      2580 1.30249E+01 5.79775E+00 0.00000E+00
 -1      2581 1.17886E+01 5.61387E+00 0.00000E+00
 -1      2582 1.15768E+01 6.44825E+00 0.00000E+00
 -1      2583 1.37749E+01 7.09675E+00 0.00000E+00
 -1      2584 2.70402E+01 4.17892E+01 0.00000E+00
 -1      2585 5.61363E+00 3.93329E+01 0.00000E+00
 -1      2586 5.61363E+00 4.06079E+01 0.00000E+00
 -1      2587 2.54151E+01 2.96832E+01 0.00000E+00
 -1      2588 2.54824E+01 3.04891E+01 0.00000E+00
 -1      2589 2.63489E+01 3.05577E+01 0.00000E+00
 -1      2590 1.96476E+01 2.63244E+01 0.00000E+00
 -1      2591 6.94800E+00 4.13384E+01 0.00000E+00
 -1      2592 1.49740E+01 2.62899E+01 0.00000E+00
 -1      2593 1.54329E+01 2.55487E+01 0.00000E+00
 -1      2594 1.42177E+01 2.59173E+01 0.00000E+00
 -1      2595 1.24371E+01 2.71240E+01 0.00000E+00
 -1      2596 1.28645E+01 2.63428E+01 0.00000E+00
 -1      2597 1.15428E+01 2.68084E+01 0.00000E+00
 -1      2598 6.56494E+00 3.30093E+01 0.00000E+00
 -1      2599 2.54654E+01 4.41883E+01 0.00000E+00
 -1      2600 6.15019E+00 4.17305E+01 0.00000E+00
 -1      2601 1.74005E+01 2.60297E+01 0.00000E+00
 -1      2602 2.78961E+01 3.93549E+01 0.00000E+00
 -1      2603 7.34730E+00 3.35574E+01 0.00000E+00
 -1      2604 6.05323E+00 3.85601E+01 0.00000E+00
 -1      2605 6.90400E+00 3.77535E+01 0.00000E+00
 -1      2606 6.97356E+00 3.66419E+01 0.00000E+00
 -1      2607 1.43518E+02 4.21774E+01 0.00000E+00
 -1      2608 1.42219E+02 4.14399E+01 0.00000E+00
 -1      2609 8.88039E+00 1.71750E+01 0.00000E+00
 -1      2610 8.88039E+00 1.86750E+01 0.00000E+00
 -1      2611 9.02954E+00 6.77450E+00 0.00000E+00
 -1      2612 8.81772E+00 7.60887E+00 0.00000E+00
 -1      2613 1.02659E+01 6.95837E+00 0.00000E+00
 -1      2614 6.39692E+00 3.56138E+01 0.00000E+00
 -1      2615 8.50378E+00 2.71102E+01 0.00000E+00
 -1      2616 8.31369E+00 2.85977E+01 0.00000E+00
 -1      2617 2.81999E+01 4.18050E+01 0.00000E+00
 -1      2618 1.40706E+02 1.03250E+01 0.00000E+00
 -1      2619 1.40040E+02 8.87300E+00 0.00000E+00
 -1      2620 1.38540E+02 8.87300E+00 0.00000E+00
 -1      2621 3.26250E+01 4.18187E+01 0.00000E+00
 -1      2622 3.41250E+01 4.18187E+01 0.00000E+00
 -1      2623 3.56250E+01 4.18187E+01 0.00000E+00
 -1      2624 3.71250E+01 4.18187E+01 0.00000E+00
 -1      2625 3.48750E+01 4.06260E+01 0.00000E+00
 -1      2626 3.86250E+01 4.18187E+01 0.00000E+00
 -1      2627 4.01250E+01 4.18187E+01 0.00000E+00
 -1      2628 3.78750E+01 4.06260E+01 0.00000E+00
 -1      2629 4.16250E+01 4.18187E+01 0.00000E+00
 -1      2630 4.31250E+01 4.18187E+01 0.00000E+00
 -1      2631 4.08750E+01 4.06260E+01 0.00000E+00
 -1      2632 4.46250E+01 4.18187E+01 0.00000E+00
 -1      2633 4.61250E+01 4.18187E+01 0.00000E+00
 -1      2634 4.38750E+01 4.06260E+01 0.00000E+00
 -1      2635 4.76250E+01 4.18187E+01 0.00000E+00
 -1      2636 4.91250E+01 4.18187E+01 0.00000E+00
 -1      2637 4.68750E+01 4.06260E+01 0.00000E+00
 -1      2638 5.06250E+01 4.18187E+01 0.00000E+00
 -1      2639 5.21250E+01 4.18187E+01 0.00000E+00
 -1      2640 4.98750E+01 4.06260E+01 0.00000E+00
 -1      2641 5.36250E+01 4.18187E+01 0.00000E+00
 -1      2642 5.51250E+01 4.18187E+01 0.00000E+00
 -1      2643 5.28750E+01 4.06260E+01 0.00000E+00
 -1      2644 5.66250E+01 4.18187E+01 0.00000E+00
 -1      2645 5.81250E+01 4.18187E+01 0.00000E+00
 -1      2646 5.58750E+01 4.06260E+01 0.00000E+00
 -1      2647 5.96250E+01 4.18187E+01 0.00000E+00
 -1      2648 6.11250E+01 4.18187E+01 0.00000E+00
 -1      2649 5.88750E+01 4.06260E+01 0.00000E+00
 -1      2650 6.26250E+01 4.18187E+01 0.00000E+00
 -1      2651 6.41250E+01 4.18187E+01 0.00000E+00
 -1      2652 6.18750E+01 4.06260E+01 0.00000E+00
 -1      2653 6.56250E+01 4.18187E+01 0.00000E+00
 -1      2654 6.71250E+01 4.18187E+01 0.00000E+00
 -1      2655 6.48750E+01 4.06260E+01 0.00000E+00
 -1      2656 6.86250E+01 4.18187E+01 0.00000E+00
 -1      2657 7.01250E+01 4.18187E+01 0.00000E+00
 -1      2658 6.78750E+01 4.06260E+01 0.00000E+00
 -1      2659 7.16250E+01 4.18187E+01 0.00000E+00
 -1      2660 7.31250E+01 4.18187E+01 0.00000E+00
 -1      2661 7.08750E+01 4.06260E+01 0.00000E+00
 -1      2662 7.46250E+01 4.18187E+01 0.00000E+00
 -1      2663 7.61250E+01 4.18187E+01 0.00000E+00
 -1      2664 7.38750E+01 4.06260E+01 0.00000E+00
 -1      2665 7.76250E+01 4.18187E+01 0.00000E+00
 -1      2666 7.91250E+01 4.18187E+01 0.00000E+00
 -1      2667 7.68750E+01 4.06260E+01 0.00000E+00
 -1      2668 8.06250E+01 4.18187E+01 0.00000E+00
 -1      2669 8.21250E+01 4.18187E+01 0.00000E+00
 -1      2670 7.98750E+01 4.06260E+01 0.00000E+00
 -1      2671 8.36250E+01 4.18187E+01 0.00000E+00
 -1      2672 8.51250E+01 4.18187E+01 0.00000E+00
 -1      2673 8.28750E+01 4.06260E+01 0.00000E+00
 -1      2674 8.66250E+01 4.18187E+01 0.00000E+00
 -1      2675 8.81250E+01 4.18187E+01 0.00000E+00
 -1      2676 8.58750E+01 4.06260E+01 0.00000E+00
 -1      2677 8.96250E+01 4.18187E+01 0.00000E+00
 -1      2678 9.11250E+01 4.18187E+01 0.00000E+00
 -1      2679 8.88750E+01 4.06260E+01 0.00000E+00
 -1      2680 9.26250E+01 4.18187E+01 0.00000E+00
 -1      2681 9.41250E+01 4.18187E+01 0.00000E+00
 -1      2682 9.18750E+01 4.06260E+01 0.00000E+00
 -1      2683 9.56250E+01 4.18187E+01 0.00000E+00
 -1      2684 9.71250E+01 4.18187E+01 0.00000E+00
 -1      2685 9.48750E+01 4.06260E+01 0.00000E+00
 -1      2686 9.86250E+01 4.18187E+01 0.00000E+00
 -1      2687 1.00125E+02 4.18187E+01 0.00000E+00
 -1      2688 9.78750E+01 4.06260E+01 0.00000E+00
 -1      2689 1.01625E+02 4.18187E+01 0.00000E+00
 -1      2690 1.03125E+02 4.18187E+01 0.00000E+00
 -1      2691 1.00875E+02 4.06260E+01 0.00000E+00
 -1      2692 1.04625E+02 4.18187E+01 0.00000E+00
 -1      2693 1.06125E+02 4.18187E+01 0.00000E+00
 -1      2694 1.03875E+02 4.06260E+01 0.00000E+00
 -1      2695 1.07625E+02 4.18187E+01 0.00000E+00
 -1      2696 1.09125E+02 4.18187E+01 0.00000E+00
 -1      2697 1.06875E+02 4.06260E+01 0.00000E+00
 -1      2698 1.10625E+02 4.18187E+01 0.00000E+00
 -1      2699 1.12125E+02 4.18187E+01 0.00000E+00
 -1      2700 1.09875E+02 4.06260E+01 0.00000E+00
 -1      2701 1.13625E+02 4.18187E+01 0.00000E+00
 -1      2702 1.15125E+02 4.18187E+01 0.00000E+00
 -1      2703 1.12875E+02 4.06260E+01 0.00000E+00
 -1      2704 1.16625E+02 4.18187E+01 0.00000E+00
 -1      2705 1.18125E+02 4.18187E+01 0.00000E+00
 -1      2706 1.15875E+02 4.06260E+01 0.00000E+00
 -1      2707 1.19625E+02 4.18187E+01 0.00000E+00
 -1      2708 1.21125E+02 4.18187E+01 0.00000E+00
 -1      2709 1.18875E+02 4.06260E+01 0.00000E+00
 -1      2710 1.22625E+02 4.18187E+01 0.00000E+00
 -1      2711 1.24125E+02 4.18187E+01 0.00000E+00
 -1      2712 1.21875E+02 4.06260E+01 0.00000E+00
 -1      2713 1.25625E+02 4.18187E+01 0.00000E+00
 -1      2714 1.27125E+02 4.18187E+01 0.00000E+00
 -1      2715 1.24875E+02 4.06260E+01 0.00000E+00
 -1      2716 1.28625E+02 4.18187E+01 0.00000E+00
 -1      2717 1.30125E+02 4.18187E+01 0.00000E+00
 -1      2718 1.27875E+02 4.06260E+01 0.00000E+00
 -1      2719 1.31625E+02 4.18187E+01 0.00000E+00
 -1      2720 1.33125E+02 4.18187E+01 0.00000E+00
 -1      2721 1.30875E+02 4.06260E+01 0.00000E+00
 -1      2722 1.34625E+02 4.18187E+01 0.00000E+00
 -1      2723 1.36125E+02 4.18187E+01 0.00000E+00
 -1      2724 1.33875E+02 4.06260E+01 0.00000E+00
 -1      2725 1.37625E+02 4.18187E+01 0.00000E+00
 -1      2726 1.39125E+02 4.18187E+01 0.00000E+00
 -1      2727 1.36875E+02 4.06260E+01 0.00000E+00
 -1      2728 1.41040E+02 4.13682E+01 0.00000E+00
 -1      2729 2.01240E+01 8.72000E+00 0.00000E+00
 -1      2730 1.86240E+01 8.72000E+00 0.00000E+00
 -1      2731 2.31240E+01 8.72000E+00 0.00000E+00
 -1      2732 2.16240E+01 8.72000E+00 0.00000E+00
 -1      2733 2.08740E+01 1.00190E+01 0.00000E+00
 -1      2734 1.71240E+01 8.72000E+00 0.00000E+00
 -1      2735 1.56240E+01 8.72000E+00 0.00000E+00
 -1      2736 1.78740E+01 1.00190E+01 0.00000E+00
 -1      2737 2.91240E+01 8.72000E+00 0.00000E+00
 -1      2738 2.76240E+01 8.72000E+00 0.00000E+00
 -1      2739 3.21240E+01 8.72000E+00 0.00000E+00
 -1      2740 3.06240E+01 8.72000E+00 0.00000E+00
 -1      2741 2.98740E+01 1.00190E+01 0.00000E+00
 -1      2742 3.51240E+01 8.72000E+00 0.00000E+00
 -1      2743 3.36240E+01 8.72000E+00 0.00000E+00
 -1      2744 3.28740E+01 1.00190E+01 0.00000E+00
 -1      2745 3.81240E+01 8.72000E+00 0.00000E+00
 -1      2746 3.66240E+01 8.72000E+00 0.00000E+00
 -1      2747 3.58740E+01 1.00190E+01 0.00000E+00
 -1      2748 4.11240E+01 8.72000E+00 0.00000E+00
 -1      2749 3.96240E+01 8.72000E+00 0.00000E+00
 -1      2750 3.88740E+01 1.00190E+01 0.00000E+00
 -1      2751 4.41240E+01 8.72000E+00 0.00000E+00
 -1      2752 4.26240E+01 8.72000E+00 0.00000E+00
 -1      2753 4.18740E+01 1.00190E+01 0.00000E+00
 -1      2754 4.71240E+01 8.72000E+00 0.00000E+00
 -1      2755 4.56240E+01 8.72000E+00 0.00000E+00
 -1      2756 4.48740E+01 1.00190E+01 0.00000E+00
 -1      2757 5.01240E+01 8.72000E+00 0.00000E+00
 -1      2758 4.86240E+01 8.72000E+00 0.00000E+00
 -1      2759 4.78740E+01 1.00190E+01 0.00000E+00
 -1      2760 5.31240E+01 8.72000E+00 0.00000E+00
 -1      2761 5.16240E+01 8.72000E+00 0.00000E+00
 -1      2762 5.08740E+01 1.00190E+01 0.00000E+00
 -1      2763 5.61240E+01 8.72000E+00 0.00000E+00
 -1      2764 5.46240E+01 8.72000E+00 0.00000E+00
 -1      2765 5.38740E+01 1.00190E+01 0.00000E+00
 -1      2766 5.91240E+01 8.72000E+00 0.00000E+00
 -1      2767 5.76240E+01 8.72000E+00 0.00000E+00
 -1      2768 5.68740E+01 1.00190E+01 0.00000E+00
 -1      2769 6.21240E+01 8.72000E+00 0.00000E+00
 -1      2770 6.06240E+01 8.72000E+00 0.00000E+00
 -1      2771 5.98740E+01 1.00190E+01 0.00000E+00
 -1      2772 6.51240E+01 8.72000E+00 0.00000E+00
 -1      2773 6.36240E+01 8.72000E+00 0.00000E+00
 -1      2774 6.28740E+01 1.00190E+01 0.00000E+00
 -1      2775 6.81240E+01 8.72000E+00 0.00000E+00
 -1      2776 6.66240E+01 8.72000E+00 0.00000E+00
 -1      2777 6.58740E+01 1.00190E+01 0.00000E+00
 -1      2778 7.11240E+01 8.72000E+00 0.00000E+00
 -1      2779 6.96240E+01 8.72000E+00 0.00000E+00
 -1      2780 6.88740E+01 1.00190E+01 0.00000E+00
 -1      2781 7.41240E+01 8.72000E+00 0.00000E+00
 -1      2782 7.26240E+01 8.72000E+00 0.00000E+00
 -1      2783 7.18740E+01 1.00190E+01 0.00000E+00
 -1      2784 7.71240E+01 8.72000E+00 0.00000E+00
 -1      2785 7.56240E+01 8.72000E+00 0.00000E+00
 -1      2786 7.48740E+01 1.00190E+01 0.00000E+00
 -1      2787 8.01240E+01 8.72000E+00 0.00000E+00
 -1      2788 7.86240E+01 8.72000E+00 0.00000E+00
 -1      2789 7.78740E+01 1.00190E+01 0.00000E+00
 -1      2790 8.31240E+01 8.72000E+00 0.00000E+00
 -1      2791 8.16240E+01 8.72000E+00 0.00000E+00
 -1      2792 8.08740E+01 1.00190E+01 0.00000E+00
 -1      2793 8.61240E+01 8.72000E+00 0.00000E+00
 -1      2794 8.46240E+01 8.72000E+00 0.00000E+00
 -1      2795 8.38740E+01 1.00190E+01 0.00000E+00
 -1      2796 8.91240E+01 8.72000E+00 0.00000E+00
 -1      2797 8.76240E+01 8.72000E+00 0.00000E+00
 -1      2798 8.68740E+01 1.00190E+01 0.00000E+00
 -1      2799 9.21240E+01 8.72000E+00 0.00000E+00
 -1      2800 9.06240E+01 8.72000E+00 0.00000E+00
 -1      2801 8.98740E+01 1.00190E+01 0.00000E+00
 -1      2802 9.51240E+01 8.72000E+00 0.00000E+00
 -1      2803 9.36240E+01 8.72000E+00 0.00000E+00
 -1      2804 9.28740E+01 1.00190E+01 0.00000E+00
 -1      2805 9.81240E+01 8.72000E+00 0.00000E+00
 -1      2806 9.66240E+01 8.72000E+00 0.00000E+00
 -1      2807 9.58740E+01 1.00190E+01 0.00000E+00
 -1      2808 1.01124E+02 8.72000E+00 0.00000E+00
 -1      2809 9.96240E+01 8.72000E+00 0.00000E+00
 -1      2810 9.88740E+01 1.00190E+01 0.00000E+00
 -1      2811 1.04124E+02 8.72000E+00 0.00000E+00
 -1      2812 1.02624E+02 8.72000E+00 0.00000E+00
 -1      2813 1.01874E+02 1.00190E+01 0.00000E+00
 -1      2814 1.07124E+02 8.72000E+00 0.00000E+00
 -1      2815 1.05624E+02 8.72000E+00 0.00000E+00
 -1      2816 1.04874E+02 1.00190E+01 0.00000E+00
 -1      2817 1.10124E+02 8.72000E+00 0.00000E+00
 -1      2818 1.08624E+02 8.72000E+00 0.00000E+00
 -1      2819 1.07874E+02 1.00190E+01 0.00000E+00
 -1      2820 1.13124E+02 8.72000E+00 0.00000E+00
 -1      2821 1.11624E+02 8.72000E+00 0.00000E+00
 -1      2822 1.10874E+02 1.00190E+01 0.00000E+00
 -1      2823 1.16124E+02 8.72000E+00 0.00000E+00
 -1      2824 1.14624E+02 8.72000E+00 0.00000E+00
 -1      2825 1.13874E+02 1.00190E+01 0.00000E+00
 -1      2826 1.19124E+02 8.72000E+00 0.00000E+00
 -1      2827 1.17624E+02 8.72000E+00 0.00000E+00
 -1      2828 1.16874E+02 1.00190E+01 0.00000E+00
 -1      2829 1.22124E+02 8.72000E+00 0.00000E+00
 -1      2830 1.20624E+02 8.72000E+00 0.00000E+00
 -1      2831 1.19874E+02 1.00190E+01 0.00000E+00
 -1      2832 1.25124E+02 8.72000E+00 0.00000E+00
 -1      2833 1.23624E+02 8.72000E+00 0.00000E+00
 -1      2834 1.22874E+02 1.00190E+01 0.00000E+00
 -1      2835 1.28124E+02 8.72000E+00 0.00000E+00
 -1      2836 1.26624E+02 8.72000E+00 0.00000E+00
 -1      2837 1.25874E+02 1.00190E+01 0.00000E+00
 -1      2838 1.31124E+02 8.72000E+00 0.00000E+00
 -1      2839 1.29624E+02 8.72000E+00 0.00000E+00
 -1      2840 1.28874E+02 1.00190E+01 0.00000E+00
 -1      2841 1.34124E+02 8.72000E+00 0.00000E+00
 -1      2842 1.32624E+02 8.72000E+00 0.00000E+00
 -1      2843 1.31874E+02 1.00190E+01 0.00000E+00
 -1      2844 1.37082E+02 8.79650E+00 0.00000E+00
 -1      2845 1.35582E+02 8.79650E+00 0.00000E+00
 -1      2846 1.34832E+02 1.00955E+01 0.00000E+00
 -1      2847 1.37748E+02 1.02485E+01 0.00000E+00
 -1      2848 1.40290E+02 4.01755E+01 0.00000E+00
 -1      2849 1.40907E+02 2.13375E+01 0.00000E+00
 -1      2850 1.40907E+02 1.98625E+01 0.00000E+00
 -1      2851 1.40706E+02 1.18000E+01 0.00000E+00
 -1      2852 1.40907E+02 1.83875E+01 0.00000E+00
 -1      2853 1.40907E+02 1.69125E+01 0.00000E+00
 -1      2854 1.39608E+02 1.91250E+01 0.00000E+00
 -1      2855 2.61240E+01 8.72000E+00 0.00000E+00
 -1      2856 2.46240E+01 8.72000E+00 0.00000E+00
 -1      2857 2.38740E+01 1.00190E+01 0.00000E+00
 -1      2858 2.68740E+01 1.00190E+01 0.00000E+00
 -1      2859 1.40907E+02 2.72375E+01 0.00000E+00
 -1      2860 1.40907E+02 2.57625E+01 0.00000E+00
 -1      2861 1.40907E+02 3.01375E+01 0.00000E+00
 -1      2862 1.40907E+02 2.86875E+01 0.00000E+00
 -1      2863 1.39608E+02 2.79500E+01 0.00000E+00
 -1      2864 1.40907E+02 3.30875E+01 0.00000E+00
 -1      2865 1.40907E+02 3.16125E+01 0.00000E+00
 -1      2866 1.39608E+02 3.08750E+01 0.00000E+00
 -1      2867 1.40907E+02 3.60375E+01 0.00000E+00
 -1      2868 1.40907E+02 3.45625E+01 0.00000E+00
 -1      2869 1.39608E+02 3.38250E+01 0.00000E+00
 -1      2870 1.40599E+02 3.88440E+01 0.00000E+00
 -1      2871 1.40599E+02 3.73690E+01 0.00000E+00
 -1      2872 1.39300E+02 3.66315E+01 0.00000E+00
 -1      2873 1.38683E+02 3.92945E+01 0.00000E+00
 -1      2874 2.73903E+01 3.13342E+01 0.00000E+00
 -1      2875 2.80009E+01 3.22088E+01 0.00000E+00
 -1      2876 2.16923E+01 2.58630E+01 0.00000E+00
 -1      2877 2.28097E+01 2.64094E+01 0.00000E+00
 -1      2878 8.66544E+00 3.02183E+01 0.00000E+00
 -1      2879 8.60226E+00 2.93093E+01 0.00000E+00
 -1      2880 8.88039E+00 2.01750E+01 0.00000E+00
 -1      2881 8.88039E+00 2.16750E+01 0.00000E+00
 -1      2882 1.01794E+01 1.94250E+01 0.00000E+00
 -1      2883 8.88039E+00 2.31750E+01 0.00000E+00
 -1      2884 8.88039E+00 2.46750E+01 0.00000E+00
 -1      2885 1.01794E+01 2.24250E+01 0.00000E+00
 -1      2886 2.89024E+01 3.66213E+01 0.00000E+00
 -1      2887 2.89927E+01 3.75655E+01 0.00000E+00
 -1      2888 1.68712E+01 2.51214E+01 0.00000E+00
 -1      2889 1.80826E+01 2.52298E+01 0.00000E+00
 -1      2890 2.89035E+01 3.89784E+01 0.00000E+00
 -1      2891 2.85321E+01 4.02221E+01 0.00000E+00
 -1      2892 1.40907E+02 2.42875E+01 0.00000E+00
 -1      2893 1.40907E+02 2.28125E+01 0.00000E+00
 -1      2894 1.39608E+02 2.50250E+01 0.00000E+00
 -1      2895 8.88039E+00 1.41750E+01 0.00000E+00
 -1      2896 8.88039E+00 1.56750E+01 0.00000E+00
 -1      2897 1.01794E+01 1.64250E+01 0.00000E+00
 -1      2898 1.92963E+01 2.53048E+01 0.00000E+00
 -1      2899 2.03321E+01 2.54911E+01 0.00000E+00
 -1      2900 1.40907E+02 1.54625E+01 0.00000E+00
 -1      2901 1.40907E+02 1.40125E+01 0.00000E+00
 -1      2902 1.39608E+02 1.62000E+01 0.00000E+00
 -1      2903 8.88039E+00 1.11750E+01 0.00000E+00
 -1      2904 8.88039E+00 1.26750E+01 0.00000E+00
 -1      2905 1.01794E+01 1.34250E+01 0.00000E+00
 -1      2906 8.81772E+00 9.10888E+00 0.00000E+00
 -1      2907 2.54230E+01 2.87192E+01 0.00000E+00
 -1      2908 2.62895E+01 2.87878E+01 0.00000E+00
 -1      2909 2.54309E+01 2.77552E+01 0.00000E+00
 -1      2910 2.87028E+01 3.28380E+01 0.00000E+00
 -1      2911 2.94047E+01 3.34673E+01 0.00000E+00
 -1      2912 2.90663E+01 3.19338E+01 0.00000E+00
 -1      2913 8.94182E+00 2.57754E+01 0.00000E+00
 -1      2914 9.86421E+00 2.74606E+01 0.00000E+00
 -1      2915 2.86838E+01 4.07420E+01 0.00000E+00
 -1      2916 2.93589E+01 4.19485E+01 0.00000E+00
 -1      2917 3.08589E+01 4.19485E+01 0.00000E+00
 -1      2918 3.16089E+01 4.07558E+01 0.00000E+00
 -1      2919 1.07088E+01 2.68577E+01 0.00000E+00
 -1      2920 1.48740E+01 1.00190E+01 0.00000E+00
 -1      2921 1.41240E+01 8.72001E+00 0.00000E+00
 -1      2922 1.39608E+02 2.20750E+01 0.00000E+00
 -1      2923 1.39407E+02 1.25375E+01 0.00000E+00
 -1      2924 2.36329E+01 2.64509E+01 0.00000E+00
 -1      2925 2.44560E+01 2.64925E+01 0.00000E+00
 -1      2926 2.35245E+01 2.52568E+01 0.00000E+00
 -1      2927 2.73230E+01 3.05282E+01 0.00000E+00
 -1      2928 2.82971E+01 3.04986E+01 0.00000E+00
 -1      2929 2.72557E+01 2.97222E+01 0.00000E+00
 -1      2930 2.13411E+01 2.48434E+01 0.00000E+00
 -1      2931 1.30250E+01 8.39576E+00 0.00000E+00
 -1      2932 1.33234E+01 2.56017E+01 0.00000E+00
 -1      2933 1.37823E+01 2.48605E+01 0.00000E+00
 -1      2934 1.24290E+01 2.52860E+01 0.00000E+00
 -1      2935 3.03538E+01 3.78870E+01 0.00000E+00
 -1      2936 2.96287E+01 3.84327E+01 0.00000E+00
 -1      2937 3.02647E+01 3.92999E+01 0.00000E+00
 -1      2938 1.11362E+01 2.60765E+01 0.00000E+00
 -1      2939 2.93795E+01 3.56956E+01 0.00000E+00
 -1      2940 1.87671E+01 2.43965E+01 0.00000E+00
 -1      2941 1.01167E+01 9.85888E+00 0.00000E+00
 -1      2942 1.02408E+01 2.50254E+01 0.00000E+00
 -1      2943 1.53587E+01 2.43762E+01 0.00000E+00
 -1      2944 1.61150E+01 2.47488E+01 0.00000E+00
 -1      2945 1.67971E+01 2.39489E+01 0.00000E+00
 -1      2946 3.41250E+01 3.95171E+01 0.00000E+00
 -1      2947 3.56250E+01 3.95171E+01 0.00000E+00
 -1      2948 3.02847E+01 3.47590E+01 0.00000E+00
 -1      2949 3.06230E+01 3.60832E+01 0.00000E+00
 -1      2950 1.14784E+01 1.26750E+01 0.00000E+00
 -1      2951 1.14784E+01 1.41750E+01 0.00000E+00
 -1      2952 1.56240E+01 1.13180E+01 0.00000E+00
 -1      2953 1.41241E+01 1.13180E+01 0.00000E+00
 -1      2954 3.71250E+01 3.94333E+01 0.00000E+00
 -1      2955 3.86250E+01 3.94333E+01 0.00000E+00
 -1      2956 4.01250E+01 3.94333E+01 0.00000E+00
 -1      2957 4.16250E+01 3.94333E+01 0.00000E+00
 -1      2958 3.93750E+01 3.82406E+01 0.00000E+00
 -1      2959 4.31250E+01 3.94333E+01 0.00000E+00
 -1      2960 4.46250E+01 3.94333E+01 0.00000E+00
 -1      2961 4.23750E+01 3.82406E+01 0.00000E+00
 -1      2962 4.61250E+01 3.94333E+01 0.00000E+00
 -1      2963 4.76250E+01 3.94333E+01 0.00000E+00
 -1      2964 4.53750E+01 3.82406E+01 0.00000E+00
 -1      2965 4.91250E+01 3.94333E+01 0.00000E+00
 -1      2966 5.06250E+01 3.94333E+01 0.00000E+00
 -1      2967 4.83750E+01 3.82406E+01 0.00000E+00
 -1      2968 5.21250E+01 3.94333E+01 0.00000E+00
 -1      2969 5.36250E+01 3.94333E+01 0.00000E+00
 -1      2970 5.13750E+01 3.82406E+01 0.00000E+00
 -1      2971 5.51250E+01 3.94333E+01 0.00000E+00
 -1      2972 5.66250E+01 3.94333E+01 0.00000E+00
 -1      2973 5.43750E+01 3.82406E+01 0.00000E+00
 -1      2974 5.81250E+01 3.94333E+01 0.00000E+00
 -1      2975 5.96250E+01 3.94333E+01 0.00000E+00
 -1      2976 5.73750E+01 3.82406E+01 0.00000E+00
 -1      2977 6.11250E+01 3.94333E+01 0.00000E+00
 -1      2978 6.26250E+01 3.94333E+01 0.00000E+00
 -1      2979 6.03750E+01 3.82406E+01 0.00000E+00
 -1      2980 6.41250E+01 3.94333E+01 0.00000E+00
 -1      2981 6.56250E+01 3.94333E+01 0.00000E+00
 -1      2982 6.33750E+01 3.82406E+01 0.00000E+00
 -1      2983 6.71250E+01 3.94333E+01 0.00000E+00
 -1      2984 6.86250E+01 3.94333E+01 0.00000E+00
 -1      2985 6.63750E+01 3.82406E+01 0.00000E+00
 -1      2986 7.01250E+01 3.94333E+01 0.00000E+00
 -1      2987 7.16250E+01 3.94333E+01 0.00000E+00
 -1      2988 6.93750E+01 3.82406E+01 0.00000E+00
 -1      2989 7.31250E+01 3.94333E+01 0.00000E+00
 -1      2990 7.46250E+01 3.94333E+01 0.00000E+00
 -1      2991 7.23750E+01 3.82406E+01 0.00000E+00
 -1      2992 7.61250E+01 3.94333E+01 0.00000E+00
 -1      2993 7.76250E+01 3.94333E+01 0.00000E+00
 -1      2994 7.53750E+01 3.82406E+01 0.00000E+00
 -1      2995 7.91250E+01 3.94333E+01 0.00000E+00
 -1      2996 8.06250E+01 3.94333E+01 0.00000E+00
 -1      2997 7.83750E+01 3.82406E+01 0.00000E+00
 -1      2998 8.21250E+01 3.94333E+01 0.00000E+00
 -1      2999 8.36250E+01 3.94333E+01 0.00000E+00
 -1      3000 8.13750E+01 3.82406E+01 0.00000E+00
 -1      3001 8.51250E+01 3.94333E+01 0.00000E+00
 -1      3002 8.66250E+01 3.94333E+01 0.00000E+00
 -1      3003 8.43750E+01 3.82406E+01 0.00000E+00
 -1      3004 8.81250E+01 3.94333E+01 0.00000E+00
 -1      3005 8.96250E+01 3.94333E+01 0.00000E+00
 -1      3006 8.73750E+01 3.82406E+01 0.00000E+00
 -1      3007 9.11250E+01 3.94333E+01 0.00000E+00
 -1      3008 9.26250E+01 3.94333E+01 0.00000E+00
 -1      3009 9.03750E+01 3.82406E+01 0.00000E+00
 -1      3010 9.41250E+01 3.94333E+01 0.00000E+00
 -1      3011 9.56250E+01 3.94333E+01 0.00000E+00
 -1      3012 9.33750E+01 3.82406E+01 0.00000E+00
 -1      3013 9.71250E+01 3.94333E+01 0.00000E+00
 -1      3014 9.86250E+01 3.94333E+01 0.00000E+00
 -1      3015 9.63750E+01 3.82406E+01 0.00000E+00
 -1      3016 1.00125E+02 3.94333E+01 0.00000E+00
 -1      3017 1.01625E+02 3.94333E+01 0.00000E+00
 -1      3018 9.93750E+01 3.82406E+01 0.00000E+00
 -1      3019 1.03125E+02 3.94333E+01 0.00000E+00
 -1      3020 1.04625E+02 3.94333E+01 0.00000E+00
 -1      3021 1.02375E+02 3.82406E+01 0.00000E+00
 -1      3022 1.06125E+02 3.94333E+01 0.00000E+00
 -1      3023 1.07625E+02 3.94333E+01 0.00000E+00
 -1      3024 1.05375E+02 3.82406E+01 0.00000E+00
 -1      3025 1.09125E+02 3.94333E+01 0.00000E+00
 -1      3026 1.10625E+02 3.94333E+01 0.00000E+00
 -1      3027 1.08375E+02 3.82406E+01 0.00000E+00
 -1      3028 1.12125E+02 3.94333E+01 0.00000E+00
 -1      3029 1.13625E+02 3.94333E+01 0.00000E+00
 -1      3030 1.11375E+02 3.82406E+01 0.00000E+00
 -1      3031 1.15125E+02 3.94333E+01 0.00000E+00
 -1      3032 1.16625E+02 3.94333E+01 0.00000E+00
 -1      3033 1.14375E+02 3.82406E+01 0.00000E+00
 -1      3034 1.18125E+02 3.94333E+01 0.00000E+00
 -1      3035 1.19625E+02 3.94333E+01 0.00000E+00
 -1      3036 1.17375E+02 3.82406E+01 0.00000E+00
 -1      3037 1.21125E+02 3.94333E+01 0.00000E+00
 -1      3038 1.22625E+02 3.94333E+01 0.00000E+00
 -1      3039 1.20375E+02 3.82406E+01 0.00000E+00
 -1      3040 1.24125E+02 3.94333E+01 0.00000E+00
 -1      3041 1.25625E+02 3.94333E+01 0.00000E+00
 -1      3042 1.23375E+02 3.82406E+01 0.00000E+00
 -1      3043 1.27125E+02 3.94333E+01 0.00000E+00
 -1      3044 1.28625E+02 3.94333E+01 0.00000E+00
 -1      3045 1.26375E+02 3.82406E+01 0.00000E+00
 -1      3046 1.30125E+02 3.94333E+01 0.00000E+00
 -1      3047 1.31625E+02 3.94333E+01 0.00000E+00
 -1      3048 1.29375E+02 3.82406E+01 0.00000E+00
 -1      3049 1.33125E+02 3.94333E+01 0.00000E+00
 -1      3050 1.34625E+02 3.94333E+01 0.00000E+00
 -1      3051 1.32375E+02 3.82406E+01 0.00000E+00
 -1      3052 1.35904E+02 3.93639E+01 0.00000E+00
 -1      3053 1.37404E+02 3.93639E+01 0.00000E+00
 -1      3054 1.37712E+02 3.80324E+01 0.00000E+00
 -1      3055 1.35154E+02 3.81712E+01 0.00000E+00
 -1      3056 1.38309E+02 3.16125E+01 0.00000E+00
 -1      3057 1.38309E+02 3.01375E+01 0.00000E+00
 -1      3058 1.38309E+02 2.28125E+01 0.00000E+00
 -1      3059 1.38309E+02 2.13375E+01 0.00000E+00
 -1      3060 2.16240E+01 1.13180E+01 0.00000E+00
 -1      3061 2.01240E+01 1.13180E+01 0.00000E+00
 -1      3062 1.86240E+01 1.13180E+01 0.00000E+00
 -1      3063 1.71240E+01 1.13180E+01 0.00000E+00
 -1      3064 1.63741E+01 1.26170E+01 0.00000E+00
 -1      3065 1.93740E+01 1.26170E+01 0.00000E+00
 -1      3066 3.36240E+01 1.13180E+01 0.00000E+00
 -1      3067 3.21240E+01 1.13180E+01 0.00000E+00
 -1      3068 3.06240E+01 1.13180E+01 0.00000E+00
 -1      3069 2.91240E+01 1.13180E+01 0.00000E+00
 -1      3070 3.13740E+01 1.26170E+01 0.00000E+00
 -1      3071 3.96240E+01 1.13180E+01 0.00000E+00
 -1      3072 3.81240E+01 1.13180E+01 0.00000E+00
 -1      3073 4.26240E+01 1.13180E+01 0.00000E+00
 -1      3074 4.11240E+01 1.13180E+01 0.00000E+00
 -1      3075 4.03740E+01 1.26170E+01 0.00000E+00
 -1      3076 4.56240E+01 1.13180E+01 0.00000E+00
 -1      3077 4.41240E+01 1.13180E+01 0.00000E+00
 -1      3078 4.33740E+01 1.26170E+01 0.00000E+00
 -1      3079 4.86240E+01 1.13180E+01 0.00000E+00
 -1      3080 4.71240E+01 1.13180E+01 0.00000E+00
 -1      3081 4.63740E+01 1.26170E+01 0.00000E+00
 -1      3082 5.16240E+01 1.13180E+01 0.00000E+00
 -1      3083 5.01240E+01 1.13180E+01 0.00000E+00
 -1      3084 4.93740E+01 1.26170E+01 0.00000E+00
 -1      3085 5.46240E+01 1.13180E+01 0.00000E+00
 -1      3086 5.31240E+01 1.13180E+01 0.00000E+00
 -1      3087 5.23740E+01 1.26170E+01 0.00000E+00
 -1      3088 5.76240E+01 1.13180E+01 0.00000E+00
 -1      3089 5.61240E+01 1.13180E+01 0.00000E+00
 -1      3090 5.53740E+01 1.26170E+01 0.00000E+00
 -1      3091 6.06240E+01 1.13180E+01 0.00000E+00
 -1      3092 5.91240E+01 1.13180E+01 0.00000E+00
 -1      3093 5.83740E+01 1.26170E+01 0.00000E+00
 -1      3094 6.36240E+01 1.13180E+01 0.00000E+00
 -1      3095 6.21240E+01 1.13180E+01 0.00000E+00
 -1      3096 6.13740E+01 1.26170E+01 0.00000E+00
 -1      3097 6.66240E+01 1.13180E+01 0.00000E+00
 -1      3098 6.51240E+01 1.13180E+01 0.00000E+00
 -1      3099 6.43740E+01 1.26170E+01 0.00000E+00
 -1      3100 6.96240E+01 1.13180E+01 0.00000E+00
 -1      3101 6.81240E+01 1.13180E+01 0.00000E+00
 -1      3102 6.73740E+01 1.26170E+01 0.00000E+00
 -1      3103 7.26240E+01 1.13180E+01 0.00000E+00
 -1      3104 7.11240E+01 1.13180E+01 0.00000E+00
 -1      3105 7.03740E+01 1.26170E+01 0.00000E+00
 -1      3106 7.56240E+01 1.13180E+01 0.00000E+00
 -1      3107 7.41240E+01 1.13180E+01 0.00000E+00
 -1      3108 7.33740E+01 1.26170E+01 0.00000E+00
 -1      3109 7.86240E+01 1.13180E+01 0.00000E+00
 -1      3110 7.71240E+01 1.13180E+01 0.00000E+00
 -1      3111 7.63740E+01 1.26170E+01 0.00000E+00
 -1      3112 8.16240E+01 1.13180E+01 0.00000E+00
 -1      3113 8.01240E+01 1.13180E+01 0.00000E+00
 -1      3114 7.93740E+01 1.26170E+01 0.00000E+00
 -1      3115 8.46240E+01 1.13180E+01 0.00000E+00
 -1      3116 8.31240E+01 1.13180E+01 0.00000E+00
 -1      3117 8.23740E+01 1.26170E+01 0.00000E+00
 -1      3118 8.76240E+01 1.13180E+01 0.00000E+00
 -1      3119 8.61240E+01 1.13180E+01 0.00000E+00
 -1      3120 8.53740E+01 1.26170E+01 0.00000E+00
 -1      3121 9.06240E+01 1.13180E+01 0.00000E+00
 -1      3122 8.91240E+01 1.13180E+01 0.00000E+00
 -1      3123 8.83740E+01 1.26170E+01 0.00000E+00
 -1      3124 9.36240E+01 1.13180E+01 0.00000E+00
 -1      3125 9.21240E+01 1.13180E+01 0.00000E+00
 -1      3126 9.13740E+01 1.26170E+01 0.00000E+00
 -1      3127 9.66240E+01 1.13180E+01 0.00000E+00
 -1      3128 9.51240E+01 1.13180E+01 0.00000E+00
 -1      3129 9.43740E+01 1.26170E+01 0.00000E+00
 -1      3130 9.96240E+01 1.13180E+01 0.00000E+00
 -1      3131 9.81240E+01 1.13180E+01 0.00000E+00
 -1      3132 9.73740E+01 1.26170E+01 0.00000E+00
 -1      3133 1.02624E+02 1.13180E+01 0.00000E+00
 -1      3134 1.01124E+02 1.13180E+01 0.00000E+00
 -1      3135 1.00374E+02 1.26170E+01 0.00000E+00
 -1      3136 1.05624E+02 1.13180E+01 0.00000E+00
 -1      3137 1.04124E+02 1.13180E+01 0.00000E+00
 -1      3138 1.03374E+02 1.26170E+01 0.00000E+00
 -1      3139 1.08624E+02 1.13180E+01 0.00000E+00
 -1      3140 1.07124E+02 1.13180E+01 0.00000E+00
 -1      3141 1.06374E+02 1.26170E+01 0.00000E+00
 -1      3142 1.11624E+02 1.13180E+01 0.00000E+00
 -1      3143 1.10124E+02 1.13180E+01 0.00000E+00
 -1      3144 1.09374E+02 1.26170E+01 0.00000E+00
 -1      3145 1.14624E+02 1.13180E+01 0.00000E+00
 -1      3146 1.13124E+02 1.13180E+01 0.00000E+00
 -1      3147 1.12374E+02 1.26170E+01 0.00000E+00
 -1      3148 1.17624E+02 1.13180E+01 0.00000E+00
 -1      3149 1.16124E+02 1.13180E+01 0.00000E+00
 -1      3150 1.15374E+02 1.26170E+01 0.00000E+00
 -1      3151 1.20624E+02 1.13180E+01 0.00000E+00
 -1      3152 1.19124E+02 1.13180E+01 0.00000E+00
 -1      3153 1.18374E+02 1.26170E+01 0.00000E+00
 -1      3154 1.23624E+02 1.13180E+01 0.00000E+00
 -1      3155 1.22124E+02 1.13180E+01 0.00000E+00
 -1      3156 1.21374E+02 1.26170E+01 0.00000E+00
 -1      3157 1.26624E+02 1.13180E+01 0.00000E+00
 -1      3158 1.25124E+02 1.13180E+01 0.00000E+00
 -1      3159 1.24374E+02 1.26170E+01 0.00000E+00
 -1      3160 1.29624E+02 1.13180E+01 0.00000E+00
 -1      3161 1.28124E+02 1.13180E+01 0.00000E+00
 -1      3162 1.27374E+02 1.26170E+01 0.00000E+00
 -1      3163 1.32624E+02 1.13180E+01 0.00000E+00
 -1      3164 1.31124E+02 1.13180E+01 0.00000E+00
 -1      3165 1.30374E+02 1.26170E+01 0.00000E+00
 -1      3166 7.31588E+00 3.07255E+01 0.00000E+00
 -1      3167 1.14784E+01 1.86750E+01 0.00000E+00
 -1      3168 1.14784E+01 2.01750E+01 0.00000E+00
 -1      3169 1.14784E+01 1.56750E+01 0.00000E+00
 -1      3170 1.14784E+01 1.71750E+01 0.00000E+00
 -1      3171 1.27774E+01 1.79250E+01 0.00000E+00
 -1      3172 1.38309E+02 1.98625E+01 0.00000E+00
 -1      3173 1.38309E+02 1.83875E+01 0.00000E+00
 -1      3174 1.37010E+02 2.06000E+01 0.00000E+00
 -1      3175 1.38309E+02 3.45625E+01 0.00000E+00
 -1      3176 1.38309E+02 3.30875E+01 0.00000E+00
 -1      3177 1.37010E+02 3.23500E+01 0.00000E+00
 -1      3178 1.38309E+02 2.86875E+01 0.00000E+00
 -1      3179 1.38309E+02 2.72375E+01 0.00000E+00
 -1      3180 1.37010E+02 2.94250E+01 0.00000E+00
 -1      3181 3.66240E+01 1.13180E+01 0.00000E+00
 -1      3182 3.51240E+01 1.13180E+01 0.00000E+00
 -1      3183 3.43740E+01 1.26170E+01 0.00000E+00
 -1      3184 3.73740E+01 1.26170E+01 0.00000E+00
 -1      3185 7.48979E+00 2.91116E+01 0.00000E+00
 -1      3186 2.09755E+01 2.35070E+01 0.00000E+00
 -1      3187 2.23358E+01 2.38789E+01 0.00000E+00
 -1      3188 2.96912E+01 4.03656E+01 0.00000E+00
 -1      3189 1.13649E+01 7.28263E+00 0.00000E+00
 -1      3190 1.38150E+02 1.46735E+01 0.00000E+00
 -1      3191 1.37949E+02 1.24610E+01 0.00000E+00
 -1      3192 1.36491E+02 1.23845E+01 0.00000E+00
 -1      3193 1.17141E+01 8.90589E+00 0.00000E+00
 -1      3194 1.17767E+01 1.09720E+01 0.00000E+00
 -1      3195 1.10748E+01 2.49761E+01 0.00000E+00
 -1      3196 1.38230E+02 1.72555E+01 0.00000E+00
 -1      3197 1.38230E+02 1.58055E+01 0.00000E+00
 -1      3198 1.36771E+02 1.57290E+01 0.00000E+00
 -1      3199 1.36930E+02 1.79930E+01 0.00000E+00
 -1      3200 1.38309E+02 2.57625E+01 0.00000E+00
 -1      3201 1.38309E+02 2.42875E+01 0.00000E+00
 -1      3202 1.37010E+02 2.35500E+01 0.00000E+00
 -1      3203 1.37010E+02 2.65000E+01 0.00000E+00
 -1      3204 1.82183E+01 2.34194E+01 0.00000E+00
 -1      3205 1.94320E+01 2.34944E+01 0.00000E+00
 -1      3206 1.15337E+01 2.42349E+01 0.00000E+00
 -1      3207 2.53225E+01 2.65610E+01 0.00000E+00
 -1      3208 2.61891E+01 2.66296E+01 0.00000E+00
 -1      3209 2.52142E+01 2.53669E+01 0.00000E+00
 -1      3210 2.72636E+01 2.87582E+01 0.00000E+00
 -1      3211 3.21642E+01 3.60138E+01 0.00000E+00
 -1      3212 3.12590E+01 3.69504E+01 0.00000E+00
 -1      3213 3.18950E+01 3.78176E+01 0.00000E+00
 -1      3214 2.92878E+01 3.09807E+01 0.00000E+00
 -1      3215 2.99897E+01 3.16099E+01 0.00000E+00
 -1      3216 1.67058E+01 2.26742E+01 0.00000E+00
 -1      3217 1.74620E+01 2.30468E+01 0.00000E+00
 -1      3218 1.81269E+01 2.21448E+01 0.00000E+00
 -1      3219 1.27774E+01 1.49250E+01 0.00000E+00
 -1      3220 1.38257E+01 1.30210E+01 0.00000E+00
 -1      3221 1.30757E+01 1.17220E+01 0.00000E+00
 -1      3222 2.31240E+01 1.13180E+01 0.00000E+00
 -1      3223 2.23740E+01 1.26170E+01 0.00000E+00
 -1      3224 2.46240E+01 1.13180E+01 0.00000E+00
 -1      3225 2.83740E+01 1.26170E+01 0.00000E+00
 -1      3226 2.76240E+01 1.13180E+01 0.00000E+00
 -1      3227 2.61240E+01 1.13180E+01 0.00000E+00
 -1      3228 1.35286E+02 1.18895E+01 0.00000E+00
 -1      3229 1.33829E+02 1.18130E+01 0.00000E+00
 -1      3230 1.33079E+02 1.31120E+01 0.00000E+00
 -1      3231 1.35488E+02 1.41020E+01 0.00000E+00
 -1      3232 2.31589E+01 2.39204E+01 0.00000E+00
 -1      3233 2.39820E+01 2.39619E+01 0.00000E+00
 -1      3234 2.27933E+01 2.25840E+01 0.00000E+00
 -1      3235 1.37857E+02 3.69632E+01 0.00000E+00
 -1      3236 1.38165E+02 3.56317E+01 0.00000E+00
 -1      3237 1.36866E+02 3.48942E+01 0.00000E+00
 -1      3238 1.36577E+02 3.70326E+01 0.00000E+00
 -1      3239 2.04267E+01 2.25299E+01 0.00000E+00
 -1      3240 2.92205E+01 3.01747E+01 0.00000E+00
 -1      3241 3.06483E+01 3.38548E+01 0.00000E+00
 -1      3242 1.35700E+01 2.37449E+01 0.00000E+00
 -1      3243 1.44644E+01 2.40606E+01 0.00000E+00
 -1      3244 1.51465E+01 2.32606E+01 0.00000E+00
 -1      3245 1.12883E+01 2.16750E+01 0.00000E+00
 -1      3246 1.12883E+01 2.31750E+01 0.00000E+00
 -1      3247 1.26426E+01 2.34849E+01 0.00000E+00
 -1      3248 1.25873E+01 2.09250E+01 0.00000E+00
 -1      3249 3.21824E+01 3.96901E+01 0.00000E+00
 -1      3250 3.29324E+01 3.85812E+01 0.00000E+00
 -1      3251 3.63750E+01 3.83244E+01 0.00000E+00
 -1      3252 3.11247E+01 3.25846E+01 0.00000E+00
 -1      3253 3.20047E+01 3.38764E+01 0.00000E+00
 -1      3254 1.48741E+01 1.41170E+01 0.00000E+00
 -1      3255 1.38257E+01 1.45210E+01 0.00000E+00
 -1      3256 1.38257E+01 1.60210E+01 0.00000E+00
 -1      3257 3.04163E+01 3.98199E+01 0.00000E+00
 -1      3258 1.96633E+01 2.14986E+01 0.00000E+00
 -1      3259 2.12068E+01 2.15111E+01 0.00000E+00
 -1      3260 4.16250E+01 3.69416E+01 0.00000E+00
 -1      3261 4.31250E+01 3.69416E+01 0.00000E+00
 -1      3262 4.46250E+01 3.69416E+01 0.00000E+00
 -1      3263 4.61250E+01 3.69416E+01 0.00000E+00
 -1      3264 4.38750E+01 3.56426E+01 0.00000E+00
 -1      3265 4.76250E+01 3.69416E+01 0.00000E+00
 -1      3266 4.91250E+01 3.69416E+01 0.00000E+00
 -1      3267 4.68750E+01 3.56426E+01 0.00000E+00
 -1      3268 5.06250E+01 3.69416E+01 0.00000E+00
 -1      3269 5.21250E+01 3.69416E+01 0.00000E+00
 -1      3270 4.98750E+01 3.56426E+01 0.00000E+00
 -1      3271 5.36250E+01 3.69416E+01 0.00000E+00
 -1      3272 5.51250E+01 3.69416E+01 0.00000E+00
 -1      3273 5.28750E+01 3.56426E+01 0.00000E+00
 -1      3274 5.66250E+01 3.69416E+01 0.00000E+00
 -1      3275 5.81250E+01 3.69416E+01 0.00000E+00
 -1      3276 5.58750E+01 3.56426E+01 0.00000E+00
 -1      3277 5.96250E+01 3.69416E+01 0.00000E+00
 -1      3278 6.11250E+01 3.69416E+01 0.00000E+00
 -1      3279 5.88750E+01 3.56426E+01 0.00000E+00
 -1      3280 6.26250E+01 3.69416E+01 0.00000E+00
 -1      3281 6.41250E+01 3.69416E+01 0.00000E+00
 -1      3282 6.18750E+01 3.56426E+01 0.00000E+00
 -1      3283 6.56250E+01 3.69416E+01 0.00000E+00
 -1      3284 6.71250E+01 3.69416E+01 0.00000E+00
 -1      3285 6.48750E+01 3.56426E+01 0.00000E+00
 -1      3286 6.86250E+01 3.69416E+01 0.00000E+00
 -1      3287 7.01250E+01 3.69416E+01 0.00000E+00
 -1      3288 6.78750E+01 3.56426E+01 0.00000E+00
 -1      3289 7.16250E+01 3.69416E+01 0.00000E+00
 -1      3290 7.31250E+01 3.69416E+01 0.00000E+00
 -1      3291 7.08750E+01 3.56426E+01 0.00000E+00
 -1      3292 7.46250E+01 3.69416E+01 0.00000E+00
 -1      3293 7.61250E+01 3.69416E+01 0.00000E+00
 -1      3294 7.38750E+01 3.56426E+01 0.00000E+00
 -1      3295 7.76250E+01 3.69416E+01 0.00000E+00
 -1      3296 7.91250E+01 3.69416E+01 0.00000E+00
 -1      3297 7.68750E+01 3.56426E+01 0.00000E+00
 -1      3298 8.06250E+01 3.69416E+01 0.00000E+00
 -1      3299 8.21250E+01 3.69416E+01 0.00000E+00
 -1      3300 7.98750E+01 3.56426E+01 0.00000E+00
 -1      3301 8.36250E+01 3.69416E+01 0.00000E+00
 -1      3302 8.51250E+01 3.69416E+01 0.00000E+00
 -1      3303 8.28750E+01 3.56426E+01 0.00000E+00
 -1      3304 8.66250E+01 3.69416E+01 0.00000E+00
 -1      3305 8.81250E+01 3.69416E+01 0.00000E+00
 -1      3306 8.58750E+01 3.56426E+01 0.00000E+00
 -1      3307 8.96250E+01 3.69416E+01 0.00000E+00
 -1      3308 9.11250E+01 3.69416E+01 0.00000E+00
 -1      3309 8.88750E+01 3.56426E+01 0.00000E+00
 -1      3310 9.26250E+01 3.69416E+01 0.00000E+00
 -1      3311 9.41250E+01 3.69416E+01 0.00000E+00
 -1      3312 9.18750E+01 3.56426E+01 0.00000E+00
 -1      3313 9.56250E+01 3.69416E+01 0.00000E+00
 -1      3314 9.71250E+01 3.69416E+01 0.00000E+00
 -1      3315 9.48750E+01 3.56426E+01 0.00000E+00
 -1      3316 9.86250E+01 3.69416E+01 0.00000E+00
 -1      3317 1.00125E+02 3.69416E+01 0.00000E+00
 -1      3318 9.78750E+01 3.56426E+01 0.00000E+00
 -1      3319 1.01625E+02 3.69416E+01 0.00000E+00
 -1      3320 1.03125E+02 3.69416E+01 0.00000E+00
 -1      3321 1.00875E+02 3.56426E+01 0.00000E+00
 -1      3322 1.04625E+02 3.69416E+01 0.00000E+00
 -1      3323 1.06125E+02 3.69416E+01 0.00000E+00
 -1      3324 1.03875E+02 3.56426E+01 0.00000E+00
 -1      3325 1.07625E+02 3.69416E+01 0.00000E+00
 -1      3326 1.09125E+02 3.69416E+01 0.00000E+00
 -1      3327 1.06875E+02 3.56426E+01 0.00000E+00
 -1      3328 1.10625E+02 3.69416E+01 0.00000E+00
 -1      3329 1.12125E+02 3.69416E+01 0.00000E+00
 -1      3330 1.09875E+02 3.56426E+01 0.00000E+00
 -1      3331 1.13625E+02 3.69416E+01 0.00000E+00
 -1      3332 1.15125E+02 3.69416E+01 0.00000E+00
 -1      3333 1.12875E+02 3.56426E+01 0.00000E+00
 -1      3334 1.16625E+02 3.69416E+01 0.00000E+00
 -1      3335 1.18125E+02 3.69416E+01 0.00000E+00
 -1      3336 1.15875E+02 3.56426E+01 0.00000E+00
 -1      3337 1.19625E+02 3.69416E+01 0.00000E+00
 -1      3338 1.21125E+02 3.69416E+01 0.00000E+00
 -1      3339 1.18875E+02 3.56426E+01 0.00000E+00
 -1      3340 1.22625E+02 3.69416E+01 0.00000E+00
 -1      3341 1.24125E+02 3.69416E+01 0.00000E+00
 -1      3342 1.21875E+02 3.56426E+01 0.00000E+00
 -1      3343 1.25625E+02 3.69416E+01 0.00000E+00
 -1      3344 1.27125E+02 3.69416E+01 0.00000E+00
 -1      3345 1.24875E+02 3.56426E+01 0.00000E+00
 -1      3346 1.28625E+02 3.69416E+01 0.00000E+00
 -1      3347 1.30125E+02 3.69416E+01 0.00000E+00
 -1      3348 1.27875E+02 3.56426E+01 0.00000E+00
 -1      3349 1.31625E+02 3.69416E+01 0.00000E+00
 -1      3350 1.33125E+02 3.69416E+01 0.00000E+00
 -1      3351 1.30875E+02 3.56426E+01 0.00000E+00
 -1      3352 1.35711E+02 3.30875E+01 0.00000E+00
 -1      3353 1.35711E+02 3.16125E+01 0.00000E+00
 -1      3354 3.21240E+01 1.39160E+01 0.00000E+00
 -1      3355 3.06240E+01 1.39160E+01 0.00000E+00
 -1      3356 4.41240E+01 1.39160E+01 0.00000E+00
 -1      3357 4.26240E+01 1.39160E+01 0.00000E+00
 -1      3358 4.11240E+01 1.39160E+01 0.00000E+00
 -1      3359 3.96240E+01 1.39160E+01 0.00000E+00
 -1      3360 4.18740E+01 1.52150E+01 0.00000E+00
 -1      3361 5.01240E+01 1.39160E+01 0.00000E+00
 -1      3362 4.86240E+01 1.39160E+01 0.00000E+00
 -1      3363 5.31240E+01 1.39160E+01 0.00000E+00
 -1      3364 5.16240E+01 1.39160E+01 0.00000E+00
 -1      3365 5.08740E+01 1.52150E+01 0.00000E+00
 -1      3366 5.61240E+01 1.39160E+01 0.00000E+00
 -1      3367 5.46240E+01 1.39160E+01 0.00000E+00
 -1      3368 5.38740E+01 1.52150E+01 0.00000E+00
 -1      3369 5.91240E+01 1.39160E+01 0.00000E+00
 -1      3370 5.76240E+01 1.39160E+01 0.00000E+00
 -1      3371 5.68740E+01 1.52150E+01 0.00000E+00
 -1      3372 6.21240E+01 1.39160E+01 0.00000E+00
 -1      3373 6.06240E+01 1.39160E+01 0.00000E+00
 -1      3374 5.98740E+01 1.52150E+01 0.00000E+00
 -1      3375 6.51240E+01 1.39160E+01 0.00000E+00
 -1      3376 6.36240E+01 1.39160E+01 0.00000E+00
 -1      3377 6.28740E+01 1.52150E+01 0.00000E+00
 -1      3378 6.81240E+01 1.39160E+01 0.00000E+00
 -1      3379 6.66240E+01 1.39160E+01 0.00000E+00
 -1      3380 6.58740E+01 1.52150E+01 0.00000E+00
 -1      3381 7.11240E+01 1.39160E+01 0.00000E+00
 -1      3382 6.96240E+01 1.39160E+01 0.00000E+00
 -1      3383 6.88740E+01 1.52150E+01 0.00000E+00
 -1      3384 7.41240E+01 1.39160E+01 0.00000E+00
 -1      3385 7.26240E+01 1.39160E+01 0.00000E+00
 -1      3386 7.18740E+01 1.52150E+01 0.00000E+00
 -1      3387 7.71240E+01 1.39160E+01 0.00000E+00
 -1      3388 7.56240E+01 1.39160E+01 0.00000E+00
 -1      3389 7.48740E+01 1.52150E+01 0.00000E+00
 -1      3390 8.01240E+01 1.39160E+01 0.00000E+00
 -1      3391 7.86240E+01 1.39160E+01 0.00000E+00
 -1      3392 7.78740E+01 1.52150E+01 0.00000E+00
 -1      3393 8.31240E+01 1.39160E+01 0.00000E+00
 -1      3394 8.16240E+01 1.39160E+01 0.00000E+00
 -1      3395 8.08740E+01 1.52150E+01 0.00000E+00
 -1      3396 8.61240E+01 1.39160E+01 0.00000E+00
 -1      3397 8.46240E+01 1.39160E+01 0.00000E+00
 -1      3398 8.38740E+01 1.52150E+01 0.00000E+00
 -1      3399 8.91240E+01 1.39160E+01 0.00000E+00
 -1      3400 8.76240E+01 1.39160E+01 0.00000E+00
 -1      3401 8.68740E+01 1.52150E+01 0.00000E+00
 -1      3402 9.21240E+01 1.39160E+01 0.00000E+00
 -1      3403 9.06240E+01 1.39160E+01 0.00000E+00
 -1      3404 8.98740E+01 1.52150E+01 0.00000E+00
 -1      3405 9.51240E+01 1.39160E+01 0.00000E+00
 -1      3406 9.36240E+01 1.39160E+01 0.00000E+00
 -1      3407 9.28740E+01 1.52150E+01 0.00000E+00
 -1      3408 9.81240E+01 1.39160E+01 0.00000E+00
 -1      3409 9.66240E+01 1.39160E+01 0.00000E+00
 -1      3410 9.58740E+01 1.52150E+01 0.00000E+00
 -1      3411 1.01124E+02 1.39160E+01 0.00000E+00
 -1      3412 9.96240E+01 1.39160E+01 0.00000E+00
 -1      3413 9.88740E+01 1.52150E+01 0.00000E+00
 -1      3414 1.04124E+02 1.39160E+01 0.00000E+00
 -1      3415 1.02624E+02 1.39160E+01 0.00000E+00
 -1      3416 1.01874E+02 1.52150E+01 0.00000E+00
 -1      3417 1.07124E+02 1.39160E+01 0.00000E+00
 -1      3418 1.05624E+02 1.39160E+01 0.00000E+00
 -1      3419 1.04874E+02 1.52150E+01 0.00000E+00
 -1      3420 1.10124E+02 1.39160E+01 0.00000E+00
 -1      3421 1.08624E+02 1.39160E+01 0.00000E+00
 -1      3422 1.07874E+02 1.52150E+01 0.00000E+00
 -1      3423 1.13124E+02 1.39160E+01 0.00000E+00
 -1      3424 1.11624E+02 1.39160E+01 0.00000E+00
 -1      3425 1.10874E+02 1.52150E+01 0.00000E+00
 -1      3426 1.16124E+02 1.39160E+01 0.00000E+00
 -1      3427 1.14624E+02 1.39160E+01 0.00000E+00
 -1      3428 1.13874E+02 1.52150E+01 0.00000E+00
 -1      3429 1.19124E+02 1.39160E+01 0.00000E+00
 -1      3430 1.17624E+02 1.39160E+01 0.00000E+00
 -1      3431 1.16874E+02 1.52150E+01 0.00000E+00
 -1      3432 1.22124E+02 1.39160E+01 0.00000E+00
 -1      3433 1.20624E+02 1.39160E+01 0.00000E+00
 -1      3434 1.19874E+02 1.52150E+01 0.00000E+00
 -1      3435 1.25124E+02 1.39160E+01 0.00000E+00
 -1      3436 1.23624E+02 1.39160E+01 0.00000E+00
 -1      3437 1.22874E+02 1.52150E+01 0.00000E+00
 -1      3438 1.28124E+02 1.39160E+01 0.00000E+00
 -1      3439 1.26624E+02 1.39160E+01 0.00000E+00
 -1      3440 1.25874E+02 1.52150E+01 0.00000E+00
 -1      3441 1.31124E+02 1.39160E+01 0.00000E+00
 -1      3442 1.29624E+02 1.39160E+01 0.00000E+00
 -1      3443 1.28874E+02 1.52150E+01 0.00000E+00
 -1      3444 1.38257E+01 1.75210E+01 0.00000E+00
 -1      3445 1.38257E+01 1.90210E+01 0.00000E+00
 -1      3446 1.48741E+01 1.71170E+01 0.00000E+00
 -1      3447 1.35711E+02 2.13375E+01 0.00000E+00
 -1      3448 1.35711E+02 1.98625E+01 0.00000E+00
 -1      3449 1.35711E+02 3.01625E+01 0.00000E+00
 -1      3450 1.35711E+02 2.87125E+01 0.00000E+00
 -1      3451 1.34412E+02 3.09000E+01 0.00000E+00
 -1      3452 2.91371E+01 2.90872E+01 0.00000E+00
 -1      3453 3.01278E+01 2.95693E+01 0.00000E+00
 -1      3454 3.13462E+01 3.16315E+01 0.00000E+00
 -1      3455 3.38376E+01 3.76446E+01 0.00000E+00
 -1      3456 4.71240E+01 1.39160E+01 0.00000E+00
 -1      3457 4.56240E+01 1.39160E+01 0.00000E+00
 -1      3458 4.48740E+01 1.52150E+01 0.00000E+00
 -1      3459 4.78740E+01 1.52150E+01 0.00000E+00
 -1      3460 1.33247E+01 2.26850E+01 0.00000E+00
 -1      3461 3.86250E+01 3.69416E+01 0.00000E+00
 -1      3462 4.01250E+01 3.69416E+01 0.00000E+00
 -1      3463 4.08750E+01 3.56426E+01 0.00000E+00
 -1      3464 1.36702E+01 2.01030E+01 0.00000E+00
 -1      3465 1.34802E+01 2.16030E+01 0.00000E+00
 -1      3466 1.44076E+01 2.18630E+01 0.00000E+00
 -1      3467 1.47186E+01 1.96990E+01 0.00000E+00
 -1      3468 3.56250E+01 3.71092E+01 0.00000E+00
 -1      3469 3.71250E+01 3.70254E+01 0.00000E+00
 -1      3470 3.78750E+01 3.57264E+01 0.00000E+00
 -1      3471 2.71800E+01 2.73912E+01 0.00000E+00
 -1      3472 2.81462E+01 2.83256E+01 0.00000E+00
 -1      3473 2.90534E+01 2.77202E+01 0.00000E+00
 -1      3474 2.70716E+01 2.61971E+01 0.00000E+00
 -1      3475 3.26407E+01 3.47436E+01 0.00000E+00
 -1      3476 3.32767E+01 3.56108E+01 0.00000E+00
 -1      3477 3.31172E+01 3.34734E+01 0.00000E+00
 -1      3478 1.34333E+02 1.94680E+01 0.00000E+00
 -1      3479 1.35632E+02 1.87305E+01 0.00000E+00
 -1      3480 1.35552E+02 1.75985E+01 0.00000E+00
 -1      3481 1.81508E+01 2.07533E+01 0.00000E+00
 -1      3482 1.89070E+01 2.11260E+01 0.00000E+00
 -1      3483 1.96871E+01 2.01071E+01 0.00000E+00
 -1      3484 2.53740E+01 1.26170E+01 0.00000E+00
 -1      3485 2.31240E+01 1.39160E+01 0.00000E+00
 -1      3486 2.16240E+01 1.39160E+01 0.00000E+00
 -1      3487 3.51240E+01 1.39160E+01 0.00000E+00
 -1      3488 3.36240E+01 1.39160E+01 0.00000E+00
 -1      3489 3.28740E+01 1.52150E+01 0.00000E+00
 -1      3490 3.11081E+01 2.89471E+01 0.00000E+00
 -1      3491 3.11916E+01 3.00346E+01 0.00000E+00
 -1      3492 1.34693E+02 3.47338E+01 0.00000E+00
 -1      3493 1.33393E+02 3.39963E+01 0.00000E+00
 -1      3494 3.23266E+01 3.10093E+01 0.00000E+00
 -1      3495 2.98740E+01 1.52150E+01 0.00000E+00
 -1      3496 2.91240E+01 1.39160E+01 0.00000E+00
 -1      3497 2.76240E+01 1.39160E+01 0.00000E+00
 -1      3498 1.63741E+01 1.41170E+01 0.00000E+00
 -1      3499 3.45876E+01 3.63456E+01 0.00000E+00
 -1      3500 1.32329E+02 1.44110E+01 0.00000E+00
 -1      3501 2.20299E+01 2.15526E+01 0.00000E+00
 -1      3502 2.28530E+01 2.15941E+01 0.00000E+00
 -1      3503 2.12665E+01 2.05213E+01 0.00000E+00
 -1      3504 1.35711E+02 2.42875E+01 0.00000E+00
 -1      3505 1.35711E+02 2.28125E+01 0.00000E+00
 -1      3506 1.34412E+02 2.20750E+01 0.00000E+00
 -1      3507 1.34412E+02 2.79750E+01 0.00000E+00
 -1      3508 1.35711E+02 2.72375E+01 0.00000E+00
 -1      3509 1.35711E+02 2.57625E+01 0.00000E+00
 -1      3510 3.81240E+01 1.39160E+01 0.00000E+00
 -1      3511 3.66240E+01 1.39160E+01 0.00000E+00
 -1      3512 3.58740E+01 1.52150E+01 0.00000E+00
 -1      3513 3.88740E+01 1.52150E+01 0.00000E+00
 -1      3514 2.08740E+01 1.52150E+01 0.00000E+00
 -1      3515 2.01240E+01 1.39160E+01 0.00000E+00
 -1      3516 1.86240E+01 1.39160E+01 0.00000E+00
 -1      3517 1.35567E+02 1.52340E+01 0.00000E+00
 -1      3518 1.34363E+02 1.47390E+01 0.00000E+00
 -1      3519 1.35646E+02 1.63660E+01 0.00000E+00
 -1      3520 1.51095E+01 2.21108E+01 0.00000E+00
 -1      3521 1.60039E+01 2.24264E+01 0.00000E+00
 -1      3522 1.66688E+01 2.15244E+01 0.00000E+00
 -1      3523 1.52650E+01 2.10288E+01 0.00000E+00
 -1      3524 2.48486E+01 2.40305E+01 0.00000E+00
 -1      3525 2.57151E+01 2.40991E+01 0.00000E+00
 -1      3526 2.44830E+01 2.26941E+01 0.00000E+00
 -1      3527 2.61240E+01 1.39160E+01 0.00000E+00
 -1      3528 2.46240E+01 1.39160E+01 0.00000E+00
 -1      3529 2.38740E+01 1.52150E+01 0.00000E+00
 -1      3530 2.68740E+01 1.52150E+01 0.00000E+00
 -1      3531 3.10206E+01 2.76985E+01 0.00000E+00
 -1      3532 3.20844E+01 2.81638E+01 0.00000E+00
 -1      3533 1.34548E+02 3.58030E+01 0.00000E+00
 -1      3534 1.35298E+02 3.71020E+01 0.00000E+00
 -1      3535 1.31780E+02 3.41360E+01 0.00000E+00
 -1      3536 1.32798E+02 3.24897E+01 0.00000E+00
 -1      3537 4.61250E+01 3.43436E+01 0.00000E+00
 -1      3538 4.76250E+01 3.43436E+01 0.00000E+00
 -1      3539 4.91250E+01 3.43436E+01 0.00000E+00
 -1      3540 5.06250E+01 3.43436E+01 0.00000E+00
 -1      3541 4.83750E+01 3.30446E+01 0.00000E+00
 -1      3542 5.21250E+01 3.43436E+01 0.00000E+00
 -1      3543 5.36250E+01 3.43436E+01 0.00000E+00
 -1      3544 5.13750E+01 3.30446E+01 0.00000E+00
 -1      3545 5.51250E+01 3.43436E+01 0.00000E+00
 -1      3546 5.66250E+01 3.43436E+01 0.00000E+00
 -1      3547 5.43750E+01 3.30446E+01 0.00000E+00
 -1      3548 5.81250E+01 3.43436E+01 0.00000E+00
 -1      3549 5.96250E+01 3.43436E+01 0.00000E+00
 -1      3550 5.73750E+01 3.30446E+01 0.00000E+00
 -1      3551 6.11250E+01 3.43436E+01 0.00000E+00
 -1      3552 6.26250E+01 3.43436E+01 0.00000E+00
 -1      3553 6.03750E+01 3.30446E+01 0.00000E+00
 -1      3554 6.41250E+01 3.43436E+01 0.00000E+00
 -1      3555 6.56250E+01 3.43436E+01 0.00000E+00
 -1      3556 6.33750E+01 3.30446E+01 0.00000E+00
 -1      3557 6.71250E+01 3.43436E+01 0.00000E+00
 -1      3558 6.86250E+01 3.43436E+01 0.00000E+00
 -1      3559 6.63750E+01 3.30446E+01 0.00000E+00
 -1      3560 7.01250E+01 3.43436E+01 0.00000E+00
 -1      3561 7.16250E+01 3.43436E+01 0.00000E+00
 -1      3562 6.93750E+01 3.30446E+01 0.00000E+00
 -1      3563 7.31250E+01 3.43436E+01 0.00000E+00
 -1      3564 7.46250E+01 3.43436E+01 0.00000E+00
 -1      3565 7.23750E+01 3.30446E+01 0.00000E+00
 -1      3566 7.61250E+01 3.43436E+01 0.00000E+00
 -1      3567 7.76250E+01 3.43436E+01 0.00000E+00
 -1      3568 7.53750E+01 3.30446E+01 0.00000E+00
 -1      3569 7.91250E+01 3.43436E+01 0.00000E+00
 -1      3570 8.06250E+01 3.43436E+01 0.00000E+00
 -1      3571 7.83750E+01 3.30446E+01 0.00000E+00
 -1      3572 8.21250E+01 3.43436E+01 0.00000E+00
 -1      3573 8.36250E+01 3.43436E+01 0.00000E+00
 -1      3574 8.13750E+01 3.30446E+01 0.00000E+00
 -1      3575 8.51250E+01 3.43436E+01 0.00000E+00
 -1      3576 8.66250E+01 3.43436E+01 0.00000E+00
 -1      3577 8.43750E+01 3.30446E+01 0.00000E+00
 -1      3578 8.81250E+01 3.43436E+01 0.00000E+00
 -1      3579 8.96250E+01 3.43436E+01 0.00000E+00
 -1      3580 8.73750E+01 3.30446E+01 0.00000E+00
 -1      3581 9.11250E+01 3.43436E+01 0.00000E+00
 -1      3582 9.26250E+01 3.43436E+01 0.00000E+00
 -1      3583 9.03750E+01 3.30446E+01 0.00000E+00
 -1      3584 9.41250E+01 3.43436E+01 0.00000E+00
 -1      3585 9.56250E+01 3.43436E+01 0.00000E+00
 -1      3586 9.33750E+01 3.30446E+01 0.00000E+00
 -1      3587 9.71250E+01 3.43436E+01 0.00000E+00
 -1      3588 9.86250E+01 3.43436E+01 0.00000E+00
 -1      3589 9.63750E+01 3.30446E+01 0.00000E+00
 -1      3590 1.00125E+02 3.43436E+01 0.00000E+00
 -1      3591 1.01625E+02 3.43436E+01 0.00000E+00
 -1      3592 9.93750E+01 3.30446E+01 0.00000E+00
 -1      3593 1.03125E+02 3.43436E+01 0.00000E+00
 -1      3594 1.04625E+02 3.43436E+01 0.00000E+00
 -1      3595 1.02375E+02 3.30446E+01 0.00000E+00
 -1      3596 1.06125E+02 3.43436E+01 0.00000E+00
 -1      3597 1.07625E+02 3.43436E+01 0.00000E+00
 -1      3598 1.05375E+02 3.30446E+01 0.00000E+00
 -1      3599 1.09125E+02 3.43436E+01 0.00000E+00
 -1      3600 1.10625E+02 3.43436E+01 0.00000E+00
 -1      3601 1.08375E+02 3.30446E+01 0.00000E+00
 -1      3602 1.12125E+02 3.43436E+01 0.00000E+00
 -1      3603 1.13625E+02 3.43436E+01 0.00000E+00
 -1      3604 1.11375E+02 3.30446E+01 0.00000E+00
 -1      3605 1.15125E+02 3.43436E+01 0.00000E+00
 -1      3606 1.16625E+02 3.43436E+01 0.00000E+00
 -1      3607 1.14375E+02 3.30446E+01 0.00000E+00
 -1      3608 1.18125E+02 3.43436E+01 0.00000E+00
 -1      3609 1.19625E+02 3.43436E+01 0.00000E+00
 -1      3610 1.17375E+02 3.30446E+01 0.00000E+00
 -1      3611 1.21125E+02 3.43436E+01 0.00000E+00
 -1      3612 1.22625E+02 3.43436E+01 0.00000E+00
 -1      3613 1.20375E+02 3.30446E+01 0.00000E+00
 -1      3614 1.24125E+02 3.43436E+01 0.00000E+00
 -1      3615 1.25625E+02 3.43436E+01 0.00000E+00
 -1      3616 1.23375E+02 3.30446E+01 0.00000E+00
 -1      3617 1.27125E+02 3.43436E+01 0.00000E+00
 -1      3618 1.28625E+02 3.43436E+01 0.00000E+00
 -1      3619 1.26375E+02 3.30446E+01 0.00000E+00
 -1      3620 1.30280E+02 3.41360E+01 0.00000E+00
 -1      3621 3.33530E+01 3.01040E+01 0.00000E+00
 -1      3622 3.35076E+01 3.17009E+01 0.00000E+00
 -1      3623 5.46240E+01 1.65140E+01 0.00000E+00
 -1      3624 5.31240E+01 1.65140E+01 0.00000E+00
 -1      3625 5.16240E+01 1.65140E+01 0.00000E+00
 -1      3626 5.01240E+01 1.65140E+01 0.00000E+00
 -1      3627 5.23740E+01 1.78130E+01 0.00000E+00
 -1      3628 6.06240E+01 1.65140E+01 0.00000E+00
 -1      3629 5.91240E+01 1.65140E+01 0.00000E+00
 -1      3630 6.36240E+01 1.65140E+01 0.00000E+00
 -1      3631 6.21240E+01 1.65140E+01 0.00000E+00
 -1      3632 6.13740E+01 1.78130E+01 0.00000E+00
 -1      3633 6.66240E+01 1.65140E+01 0.00000E+00
 -1      3634 6.51240E+01 1.65140E+01 0.00000E+00
 -1      3635 6.43740E+01 1.78130E+01 0.00000E+00
 -1      3636 6.96240E+01 1.65140E+01 0.00000E+00
 -1      3637 6.81240E+01 1.65140E+01 0.00000E+00
 -1      3638 6.73740E+01 1.78130E+01 0.00000E+00
 -1      3639 7.26240E+01 1.65140E+01 0.00000E+00
 -1      3640 7.11240E+01 1.65140E+01 0.00000E+00
 -1      3641 7.03740E+01 1.78130E+01 0.00000E+00
 -1      3642 7.56240E+01 1.65140E+01 0.00000E+00
 -1      3643 7.41240E+01 1.65140E+01 0.00000E+00
 -1      3644 7.33740E+01 1.78130E+01 0.00000E+00
 -1      3645 7.86240E+01 1.65140E+01 0.00000E+00
 -1      3646 7.71240E+01 1.65140E+01 0.00000E+00
 -1      3647 7.63740E+01 1.78130E+01 0.00000E+00
 -1      3648 8.16240E+01 1.65140E+01 0.00000E+00
 -1      3649 8.01240E+01 1.65140E+01 0.00000E+00
 -1      3650 7.93740E+01 1.78130E+01 0.00000E+00
 -1      3651 8.46240E+01 1.65140E+01 0.00000E+00
 -1      3652 8.31240E+01 1.65140E+01 0.00000E+00
 -1      3653 8.23740E+01 1.78130E+01 0.00000E+00
 -1      3654 8.76240E+01 1.65140E+01 0.00000E+00
 -1      3655 8.61240E+01 1.65140E+01 0.00000E+00
 -1      3656 8.53740E+01 1.78130E+01 0.00000E+00
 -1      3657 9.06240E+01 1.65140E+01 0.00000E+00
 -1      3658 8.91240E+01 1.65140E+01 0.00000E+00
 -1      3659 8.83740E+01 1.78130E+01 0.00000E+00
 -1      3660 9.36240E+01 1.65140E+01 0.00000E+00
 -1      3661 9.21240E+01 1.65140E+01 0.00000E+00
 -1      3662 9.13740E+01 1.78130E+01 0.00000E+00
 -1      3663 9.66240E+01 1.65140E+01 0.00000E+00
 -1      3664 9.51240E+01 1.65140E+01 0.00000E+00
 -1      3665 9.43740E+01 1.78130E+01 0.00000E+00
 -1      3666 9.96240E+01 1.65140E+01 0.00000E+00
 -1      3667 9.81240E+01 1.65140E+01 0.00000E+00
 -1      3668 9.73740E+01 1.78130E+01 0.00000E+00
 -1      3669 1.02624E+02 1.65140E+01 0.00000E+00
 -1      3670 1.01124E+02 1.65140E+01 0.00000E+00
 -1      3671 1.00374E+02 1.78130E+01 0.00000E+00
 -1      3672 1.05624E+02 1.65140E+01 0.00000E+00
 -1      3673 1.04124E+02 1.65140E+01 0.00000E+00
 -1      3674 1.03374E+02 1.78130E+01 0.00000E+00
 -1      3675 1.08624E+02 1.65140E+01 0.00000E+00
 -1      3676 1.07124E+02 1.65140E+01 0.00000E+00
 -1      3677 1.06374E+02 1.78130E+01 0.00000E+00
 -1      3678 1.11624E+02 1.65140E+01 0.00000E+00
 -1      3679 1.10124E+02 1.65140E+01 0.00000E+00
 -1      3680 1.09374E+02 1.78130E+01 0.00000E+00
 -1      3681 1.14624E+02 1.65140E+01 0.00000E+00
 -1      3682 1.13124E+02 1.65140E+01 0.00000E+00
 -1      3683 1.12374E+02 1.78130E+01 0.00000E+00
 -1      3684 1.17624E+02 1.65140E+01 0.00000E+00
 -1      3685 1.16124E+02 1.65140E+01 0.00000E+00
 -1      3686 1.15374E+02 1.78130E+01 0.00000E+00
 -1      3687 1.20624E+02 1.65140E+01 0.00000E+00
 -1      3688 1.19124E+02 1.65140E+01 0.00000E+00
 -1      3689 1.18374E+02 1.78130E+01 0.00000E+00
 -1      3690 1.23624E+02 1.65140E+01 0.00000E+00
 -1      3691 1.22124E+02 1.65140E+01 0.00000E+00
 -1      3692 1.21374E+02 1.78130E+01 0.00000E+00
 -1      3693 1.26624E+02 1.65140E+01 0.00000E+00
 -1      3694 1.25124E+02 1.65140E+01 0.00000E+00
 -1      3695 1.24374E+02 1.78130E+01 0.00000E+00
 -1      3696 1.29624E+02 1.65140E+01 0.00000E+00
 -1      3697 1.28124E+02 1.65140E+01 0.00000E+00
 -1      3698 1.27374E+02 1.78130E+01 0.00000E+00
 -1      3699 3.70526E+01 3.44713E+01 0.00000E+00
 -1      3700 3.85526E+01 3.43875E+01 0.00000E+00
 -1      3701 1.61505E+01 1.63670E+01 0.00000E+00
 -1      3702 1.61505E+01 1.78670E+01 0.00000E+00
 -1      3703 1.32798E+02 3.10397E+01 0.00000E+00
 -1      3704 1.32798E+02 2.95897E+01 0.00000E+00
 -1      3705 1.31184E+02 3.11794E+01 0.00000E+00
 -1      3706 5.76240E+01 1.65140E+01 0.00000E+00
 -1      3707 5.61240E+01 1.65140E+01 0.00000E+00
 -1      3708 5.53740E+01 1.78130E+01 0.00000E+00
 -1      3709 4.26240E+01 1.65140E+01 0.00000E+00
 -1      3710 4.11240E+01 1.65140E+01 0.00000E+00
 -1      3711 4.31250E+01 3.43436E+01 0.00000E+00
 -1      3712 4.46250E+01 3.43436E+01 0.00000E+00
 -1      3713 4.53750E+01 3.30446E+01 0.00000E+00
 -1      3714 4.01250E+01 3.43436E+01 0.00000E+00
 -1      3715 4.16250E+01 3.43436E+01 0.00000E+00
 -1      3716 4.23750E+01 3.30446E+01 0.00000E+00
 -1      3717 3.50641E+01 3.50754E+01 0.00000E+00
 -1      3718 1.32408E+02 1.55430E+01 0.00000E+00
 -1      3719 2.37196E+01 2.16627E+01 0.00000E+00
 -1      3720 2.45861E+01 2.17313E+01 0.00000E+00
 -1      3721 2.29562E+01 2.06314E+01 0.00000E+00
 -1      3722 1.33076E+02 2.01250E+01 0.00000E+00
 -1      3723 1.32997E+02 1.89930E+01 0.00000E+00
 -1      3724 2.16240E+01 1.65140E+01 0.00000E+00
 -1      3725 2.01240E+01 1.65140E+01 0.00000E+00
 -1      3726 3.00297E+01 2.69369E+01 0.00000E+00
 -1      3727 3.10060E+01 2.61536E+01 0.00000E+00
 -1      3728 2.90388E+01 2.61753E+01 0.00000E+00
 -1      3729 2.66019E+01 2.31383E+01 0.00000E+00
 -1      3730 2.69675E+01 2.44747E+01 0.00000E+00
 -1      3731 3.36240E+01 1.65140E+01 0.00000E+00
 -1      3732 3.21240E+01 1.65140E+01 0.00000E+00
 -1      3733 4.03740E+01 1.78130E+01 0.00000E+00
 -1      3734 3.96240E+01 1.65140E+01 0.00000E+00
 -1      3735 3.81240E+01 1.65140E+01 0.00000E+00
 -1      3736 1.29530E+02 3.28370E+01 0.00000E+00
 -1      3737 3.33229E+01 2.88013E+01 0.00000E+00
 -1      3738 3.45039E+01 2.94929E+01 0.00000E+00
 -1      3739 3.06240E+01 1.65140E+01 0.00000E+00
 -1      3740 2.91240E+01 1.65140E+01 0.00000E+00
 -1      3741 3.13740E+01 1.78130E+01 0.00000E+00
 -1      3742 3.57416E+01 3.37365E+01 0.00000E+00
 -1      3743 4.93740E+01 1.78130E+01 0.00000E+00
 -1      3744 4.86240E+01 1.65140E+01 0.00000E+00
 -1      3745 4.71240E+01 1.65140E+01 0.00000E+00
 -1      3746 3.93026E+01 3.30885E+01 0.00000E+00
 -1      3747 1.31057E+02 1.74325E+01 0.00000E+00
 -1      3748 1.30307E+02 1.87315E+01 0.00000E+00
 -1      3749 1.81789E+01 1.84258E+01 0.00000E+00
 -1      3750 1.69024E+01 1.91758E+01 0.00000E+00
 -1      3751 2.06587E+01 1.91464E+01 0.00000E+00
 -1      3752 2.14818E+01 1.91879E+01 0.00000E+00
 -1      3753 1.31184E+02 2.82544E+01 0.00000E+00
 -1      3754 1.32798E+02 2.81147E+01 0.00000E+00
 -1      3755 1.32798E+02 2.66397E+01 0.00000E+00
 -1      3756 1.71241E+01 1.54160E+01 0.00000E+00
 -1      3757 1.34412E+02 2.50250E+01 0.00000E+00
 -1      3758 5.83740E+01 1.78130E+01 0.00000E+00
 -1      3759 4.41240E+01 1.65140E+01 0.00000E+00
 -1      3760 4.33740E+01 1.78130E+01 0.00000E+00
 -1      3761 4.56240E+01 1.65140E+01 0.00000E+00
 -1      3762 3.41436E+01 3.25681E+01 0.00000E+00
 -1      3763 3.32353E+01 2.75527E+01 0.00000E+00
 -1      3764 1.34348E+02 1.71035E+01 0.00000E+00
 -1      3765 2.79584E+01 2.52363E+01 0.00000E+00
 -1      3766 2.31240E+01 1.65140E+01 0.00000E+00
 -1      3767 2.23740E+01 1.78130E+01 0.00000E+00
 -1      3768 2.46240E+01 1.65140E+01 0.00000E+00
 -1      3769 1.33076E+02 2.30750E+01 0.00000E+00
 -1      3770 1.33076E+02 2.16000E+01 0.00000E+00
 -1      3771 1.31741E+02 2.11250E+01 0.00000E+00
 -1      3772 1.99024E+01 1.87738E+01 0.00000E+00
 -1      3773 1.61224E+01 2.01946E+01 0.00000E+00
 -1      3774 1.91505E+01 1.74650E+01 0.00000E+00
 -1      3775 2.63184E+01 2.18081E+01 0.00000E+00
 -1      3776 2.75708E+01 2.21837E+01 0.00000E+00
 -1      3777 3.61321E+01 3.19640E+01 0.00000E+00
 -1      3778 5.61240E+01 1.91120E+01 0.00000E+00
 -1      3779 5.46240E+01 1.91120E+01 0.00000E+00
 -1      3780 3.60718E+01 2.93586E+01 0.00000E+00
 -1      3781 3.61019E+01 3.06613E+01 0.00000E+00
 -1      3782 3.76999E+01 3.18297E+01 0.00000E+00
 -1      3783 5.06250E+01 3.17456E+01 0.00000E+00
 -1      3784 5.21250E+01 3.17456E+01 0.00000E+00
 -1      3785 5.36250E+01 3.17456E+01 0.00000E+00
 -1      3786 5.51250E+01 3.17456E+01 0.00000E+00
 -1      3787 5.28750E+01 3.04466E+01 0.00000E+00
 -1      3788 5.66250E+01 3.17456E+01 0.00000E+00
 -1      3789 5.81250E+01 3.17456E+01 0.00000E+00
 -1      3790 5.58750E+01 3.04466E+01 0.00000E+00
 -1      3791 5.96250E+01 3.17456E+01 0.00000E+00
 -1      3792 6.11250E+01 3.17456E+01 0.00000E+00
 -1      3793 5.88750E+01 3.04466E+01 0.00000E+00
 -1      3794 6.26250E+01 3.17456E+01 0.00000E+00
 -1      3795 6.41250E+01 3.17456E+01 0.00000E+00
 -1      3796 6.18750E+01 3.04466E+01 0.00000E+00
 -1      3797 6.56250E+01 3.17456E+01 0.00000E+00
 -1      3798 6.71250E+01 3.17456E+01 0.00000E+00
 -1      3799 6.48750E+01 3.04466E+01 0.00000E+00
 -1      3800 6.86250E+01 3.17456E+01 0.00000E+00
 -1      3801 7.01250E+01 3.17456E+01 0.00000E+00
 -1      3802 6.78750E+01 3.04466E+01 0.00000E+00
 -1      3803 7.16250E+01 3.17456E+01 0.00000E+00
 -1      3804 7.31250E+01 3.17456E+01 0.00000E+00
 -1      3805 7.08750E+01 3.04466E+01 0.00000E+00
 -1      3806 7.46250E+01 3.17456E+01 0.00000E+00
 -1      3807 7.61250E+01 3.17456E+01 0.00000E+00
 -1      3808 7.38750E+01 3.04466E+01 0.00000E+00
 -1      3809 7.76250E+01 3.17456E+01 0.00000E+00
 -1      3810 7.91250E+01 3.17456E+01 0.00000E+00
 -1      3811 7.68750E+01 3.04466E+01 0.00000E+00
 -1      3812 8.06250E+01 3.17456E+01 0.00000E+00
 -1      3813 8.21250E+01 3.17456E+01 0.00000E+00
 -1      3814 7.98750E+01 3.04466E+01 0.00000E+00
 -1      3815 8.36250E+01 3.17456E+01 0.00000E+00
 -1      3816 8.51250E+01 3.17456E+01 0.00000E+00
 -1      3817 8.28750E+01 3.04466E+01 0.00000E+00
 -1      3818 8.66250E+01 3.17456E+01 0.00000E+00
 -1      3819 8.81250E+01 3.17456E+01 0.00000E+00
 -1      3820 8.58750E+01 3.04466E+01 0.00000E+00
 -1      3821 8.96250E+01 3.17456E+01 0.00000E+00
 -1      3822 9.11250E+01 3.17456E+01 0.00000E+00
 -1      3823 8.88750E+01 3.04466E+01 0.00000E+00
 -1      3824 9.26250E+01 3.17456E+01 0.00000E+00
 -1      3825 9.41250E+01 3.17456E+01 0.00000E+00
 -1      3826 9.18750E+01 3.04466E+01 0.00000E+00
 -1      3827 9.56250E+01 3.17456E+01 0.00000E+00
 -1      3828 9.71250E+01 3.17456E+01 0.00000E+00
 -1      3829 9.48750E+01 3.04466E+01 0.00000E+00
 -1      3830 9.86250E+01 3.17456E+01 0.00000E+00
 -1      3831 1.00125E+02 3.17456E+01 0.00000E+00
 -1      3832 9.78750E+01 3.04466E+01 0.00000E+00
 -1      3833 1.01625E+02 3.17456E+01 0.00000E+00
 -1      3834 1.03125E+02 3.17456E+01 0.00000E+00
 -1      3835 1.00875E+02 3.04466E+01 0.00000E+00
 -1      3836 1.04625E+02 3.17456E+01 0.00000E+00
 -1      3837 1.06125E+02 3.17456E+01 0.00000E+00
 -1      3838 1.03875E+02 3.04466E+01 0.00000E+00
 -1      3839 1.07625E+02 3.17456E+01 0.00000E+00
 -1      3840 1.09125E+02 3.17456E+01 0.00000E+00
 -1      3841 1.06875E+02 3.04466E+01 0.00000E+00
 -1      3842 1.10625E+02 3.17456E+01 0.00000E+00
 -1      3843 1.12125E+02 3.17456E+01 0.00000E+00
 -1      3844 1.09875E+02 3.04466E+01 0.00000E+00
 -1      3845 1.13625E+02 3.17456E+01 0.00000E+00
 -1      3846 1.15125E+02 3.17456E+01 0.00000E+00
 -1      3847 1.12875E+02 3.04466E+01 0.00000E+00
 -1      3848 1.16625E+02 3.17456E+01 0.00000E+00
 -1      3849 1.18125E+02 3.17456E+01 0.00000E+00
 -1      3850 1.15875E+02 3.04466E+01 0.00000E+00
 -1      3851 1.19625E+02 3.17456E+01 0.00000E+00
 -1      3852 1.21125E+02 3.17456E+01 0.00000E+00
 -1      3853 1.18875E+02 3.04466E+01 0.00000E+00
 -1      3854 1.22625E+02 3.17456E+01 0.00000E+00
 -1      3855 1.24125E+02 3.17456E+01 0.00000E+00
 -1      3856 1.21875E+02 3.04466E+01 0.00000E+00
 -1      3857 1.25625E+02 3.17456E+01 0.00000E+00
 -1      3858 1.27125E+02 3.17456E+01 0.00000E+00
 -1      3859 1.24875E+02 3.04466E+01 0.00000E+00
 -1      3860 1.84005E+01 1.61660E+01 0.00000E+00
 -1      3861 6.81240E+01 1.91120E+01 0.00000E+00
 -1      3862 6.66240E+01 1.91120E+01 0.00000E+00
 -1      3863 5.31240E+01 1.91120E+01 0.00000E+00
 -1      3864 5.16240E+01 1.91120E+01 0.00000E+00
 -1      3865 5.38740E+01 2.04110E+01 0.00000E+00
 -1      3866 1.29530E+02 3.13870E+01 0.00000E+00
 -1      3867 4.76250E+01 3.17456E+01 0.00000E+00
 -1      3868 4.91250E+01 3.17456E+01 0.00000E+00
 -1      3869 4.98750E+01 3.04466E+01 0.00000E+00
 -1      3870 1.32937E+02 2.55949E+01 0.00000E+00
 -1      3871 1.32937E+02 2.41199E+01 0.00000E+00
 -1      3872 1.31602E+02 2.36449E+01 0.00000E+00
 -1      3873 1.31323E+02 2.57346E+01 0.00000E+00
 -1      3874 6.51240E+01 1.91120E+01 0.00000E+00
 -1      3875 6.36240E+01 1.91120E+01 0.00000E+00
 -1      3876 6.58740E+01 2.04110E+01 0.00000E+00
 -1      3877 6.21240E+01 1.91120E+01 0.00000E+00
 -1      3878 6.06240E+01 1.91120E+01 0.00000E+00
 -1      3879 6.28740E+01 2.04110E+01 0.00000E+00
 -1      3880 7.11240E+01 1.91120E+01 0.00000E+00
 -1      3881 6.96240E+01 1.91120E+01 0.00000E+00
 -1      3882 6.88740E+01 2.04110E+01 0.00000E+00
 -1      3883 7.41240E+01 1.91120E+01 0.00000E+00
 -1      3884 7.26240E+01 1.91120E+01 0.00000E+00
 -1      3885 7.18740E+01 2.04110E+01 0.00000E+00
 -1      3886 7.71240E+01 1.91120E+01 0.00000E+00
 -1      3887 7.56240E+01 1.91120E+01 0.00000E+00
 -1      3888 7.48740E+01 2.04110E+01 0.00000E+00
 -1      3889 8.01240E+01 1.91120E+01 0.00000E+00
 -1      3890 7.86240E+01 1.91120E+01 0.00000E+00
 -1      3891 7.78740E+01 2.04110E+01 0.00000E+00
 -1      3892 8.31240E+01 1.91120E+01 0.00000E+00
 -1      3893 8.16240E+01 1.91120E+01 0.00000E+00
 -1      3894 8.08740E+01 2.04110E+01 0.00000E+00
 -1      3895 8.61240E+01 1.91120E+01 0.00000E+00
 -1      3896 8.46240E+01 1.91120E+01 0.00000E+00
 -1      3897 8.38740E+01 2.04110E+01 0.00000E+00
 -1      3898 8.91240E+01 1.91120E+01 0.00000E+00
 -1      3899 8.76240E+01 1.91120E+01 0.00000E+00
 -1      3900 8.68740E+01 2.04110E+01 0.00000E+00
 -1      3901 9.21240E+01 1.91120E+01 0.00000E+00
 -1      3902 9.06240E+01 1.91120E+01 0.00000E+00
 -1      3903 8.98740E+01 2.04110E+01 0.00000E+00
 -1      3904 9.51240E+01 1.91120E+01 0.00000E+00
 -1      3905 9.36240E+01 1.91120E+01 0.00000E+00
 -1      3906 9.28740E+01 2.04110E+01 0.00000E+00
 -1      3907 9.81240E+01 1.91120E+01 0.00000E+00
 -1      3908 9.66240E+01 1.91120E+01 0.00000E+00
 -1      3909 9.58740E+01 2.04110E+01 0.00000E+00
 -1      3910 1.01124E+02 1.91120E+01 0.00000E+00
 -1      3911 9.96240E+01 1.91120E+01 0.00000E+00
 -1      3912 9.88740E+01 2.04110E+01 0.00000E+00
 -1      3913 1.04124E+02 1.91120E+01 0.00000E+00
 -1      3914 1.02624E+02 1.91120E+01 0.00000E+00
 -1      3915 1.01874E+02 2.04110E+01 0.00000E+00
 -1      3916 1.07124E+02 1.91120E+01 0.00000E+00
 -1      3917 1.05624E+02 1.91120E+01 0.00000E+00
 -1      3918 1.04874E+02 2.04110E+01 0.00000E+00
 -1      3919 1.10124E+02 1.91120E+01 0.00000E+00
 -1      3920 1.08624E+02 1.91120E+01 0.00000E+00
 -1      3921 1.07874E+02 2.04110E+01 0.00000E+00
 -1      3922 1.13124E+02 1.91120E+01 0.00000E+00
 -1      3923 1.11624E+02 1.91120E+01 0.00000E+00
 -1      3924 1.10874E+02 2.04110E+01 0.00000E+00
 -1      3925 1.16124E+02 1.91120E+01 0.00000E+00
 -1      3926 1.14624E+02 1.91120E+01 0.00000E+00
 -1      3927 1.13874E+02 2.04110E+01 0.00000E+00
 -1      3928 1.19124E+02 1.91120E+01 0.00000E+00
 -1      3929 1.17624E+02 1.91120E+01 0.00000E+00
 -1      3930 1.16874E+02 2.04110E+01 0.00000E+00
 -1      3931 1.22124E+02 1.91120E+01 0.00000E+00
 -1      3932 1.20624E+02 1.91120E+01 0.00000E+00
 -1      3933 1.19874E+02 2.04110E+01 0.00000E+00
 -1      3934 1.25124E+02 1.91120E+01 0.00000E+00
 -1      3935 1.23624E+02 1.91120E+01 0.00000E+00
 -1      3936 1.22874E+02 2.04110E+01 0.00000E+00
 -1      3937 1.28124E+02 1.91120E+01 0.00000E+00
 -1      3938 1.26624E+02 1.91120E+01 0.00000E+00
 -1      3939 1.25874E+02 2.04110E+01 0.00000E+00
 -1      3940 1.33091E+02 1.77605E+01 0.00000E+00
 -1      3941 2.29818E+01 1.91879E+01 0.00000E+00
 -1      3942 5.91240E+01 1.91120E+01 0.00000E+00
 -1      3943 5.76240E+01 1.91120E+01 0.00000E+00
 -1      3944 5.98740E+01 2.04110E+01 0.00000E+00
 -1      3945 1.28780E+02 3.00880E+01 0.00000E+00
 -1      3946 4.16250E+01 3.17456E+01 0.00000E+00
 -1      3947 4.31250E+01 3.17456E+01 0.00000E+00
 -1      3948 4.46250E+01 3.17456E+01 0.00000E+00
 -1      3949 4.61250E+01 3.17456E+01 0.00000E+00
 -1      3950 4.38750E+01 3.04466E+01 0.00000E+00
 -1      3951 1.30649E+02 2.05778E+01 0.00000E+00
 -1      3952 1.29216E+02 1.96593E+01 0.00000E+00
 -1      3953 1.28466E+02 2.09583E+01 0.00000E+00
 -1      3954 1.30649E+02 2.20528E+01 0.00000E+00
 -1      3955 3.88762E+01 3.18096E+01 0.00000E+00
 -1      3956 4.04487E+01 3.17657E+01 0.00000E+00
 -1      3957 4.11987E+01 3.04667E+01 0.00000E+00
 -1      3958 3.88461E+01 3.05069E+01 0.00000E+00
 -1      3959 1.54205E+01 1.99468E+01 0.00000E+00
 -1      3960 3.66240E+01 1.65140E+01 0.00000E+00
 -1      3961 3.51240E+01 1.65140E+01 0.00000E+00
 -1      3962 3.73740E+01 1.78130E+01 0.00000E+00
 -1      3963 3.32106E+01 2.60789E+01 0.00000E+00
 -1      3964 3.44491E+01 2.67165E+01 0.00000E+00
 -1      3965 2.76240E+01 1.65140E+01 0.00000E+00
 -1      3966 2.61240E+01 1.65140E+01 0.00000E+00
 -1      3967 2.53740E+01 1.78130E+01 0.00000E+00
 -1      3968 2.83740E+01 1.78130E+01 0.00000E+00
 -1      3969 3.43740E+01 1.78130E+01 0.00000E+00
 -1      3970 2.89347E+01 2.44529E+01 0.00000E+00
 -1      3971 2.55549E+01 2.07767E+01 0.00000E+00
 -1      3972 3.12288E+01 2.45558E+01 0.00000E+00
 -1      3973 3.22197E+01 2.53174E+01 0.00000E+00
 -1      3974 3.34335E+01 2.44812E+01 0.00000E+00
 -1      3975 5.68740E+01 2.04110E+01 0.00000E+00
 -1      3976 3.57355E+01 2.59579E+01 0.00000E+00
 -1      3977 3.57602E+01 2.74316E+01 0.00000E+00
 -1      3978 3.21240E+01 1.91120E+01 0.00000E+00
 -1      3979 3.06240E+01 1.91120E+01 0.00000E+00
 -1      3980 3.51240E+01 1.91120E+01 0.00000E+00
 -1      3981 3.36240E+01 1.91120E+01 0.00000E+00
 -1      3982 3.28740E+01 2.04110E+01 0.00000E+00
 -1      3983 5.08740E+01 2.04110E+01 0.00000E+00
 -1      3984 5.01240E+01 1.91120E+01 0.00000E+00
 -1      3985 4.86240E+01 1.91120E+01 0.00000E+00
 -1      3986 4.68750E+01 3.04466E+01 0.00000E+00
 -1      3987 2.86774E+01 2.12524E+01 0.00000E+00
 -1      3988 2.89610E+01 2.25826E+01 0.00000E+00
 -1      3989 3.73582E+01 2.86000E+01 0.00000E+00
 -1      3990 4.63740E+01 1.78130E+01 0.00000E+00
 -1      3991 1.26375E+02 2.89716E+01 0.00000E+00
 -1      3992 1.28780E+02 2.86130E+01 0.00000E+00
 -1      3993 1.28780E+02 2.71380E+01 0.00000E+00
 -1      3994 4.41240E+01 1.91120E+01 0.00000E+00
 -1      3995 4.26240E+01 1.91120E+01 0.00000E+00
 -1      3996 4.11240E+01 1.91120E+01 0.00000E+00
 -1      3997 3.96240E+01 1.91120E+01 0.00000E+00
 -1      3998 4.18740E+01 2.04110E+01 0.00000E+00
 -1      3999 3.00413E+01 2.35217E+01 0.00000E+00
 -1      4000 2.38484E+01 1.92565E+01 0.00000E+00
 -1      4001 2.53484E+01 1.92565E+01 0.00000E+00
 -1      4002 2.70806E+01 1.93332E+01 0.00000E+00
 -1      4003 3.57019E+01 2.44599E+01 0.00000E+00
 -1      4004 3.70131E+01 2.51750E+01 0.00000E+00
 -1      4005 5.51250E+01 2.91476E+01 0.00000E+00
 -1      4006 5.66250E+01 2.91476E+01 0.00000E+00
 -1      4007 5.81250E+01 2.91476E+01 0.00000E+00
 -1      4008 5.96250E+01 2.91476E+01 0.00000E+00
 -1      4009 5.73750E+01 2.78486E+01 0.00000E+00
 -1      4010 6.11250E+01 2.91476E+01 0.00000E+00
 -1      4011 6.26250E+01 2.91476E+01 0.00000E+00
 -1      4012 6.03750E+01 2.78486E+01 0.00000E+00
 -1      4013 6.41250E+01 2.91476E+01 0.00000E+00
 -1      4014 6.56250E+01 2.91476E+01 0.00000E+00
 -1      4015 6.33750E+01 2.78486E+01 0.00000E+00
 -1      4016 6.71250E+01 2.91476E+01 0.00000E+00
 -1      4017 6.86250E+01 2.91476E+01 0.00000E+00
 -1      4018 6.63750E+01 2.78486E+01 0.00000E+00
 -1      4019 7.01250E+01 2.91476E+01 0.00000E+00
 -1      4020 7.16250E+01 2.91476E+01 0.00000E+00
 -1      4021 6.93750E+01 2.78486E+01 0.00000E+00
 -1      4022 7.31250E+01 2.91476E+01 0.00000E+00
 -1      4023 7.46250E+01 2.91476E+01 0.00000E+00
 -1      4024 7.23750E+01 2.78486E+01 0.00000E+00
 -1      4025 7.61250E+01 2.91476E+01 0.00000E+00
 -1      4026 7.76250E+01 2.91476E+01 0.00000E+00
 -1      4027 7.53750E+01 2.78486E+01 0.00000E+00
 -1      4028 7.91250E+01 2.91476E+01 0.00000E+00
 -1      4029 8.06250E+01 2.91476E+01 0.00000E+00
 -1      4030 7.83750E+01 2.78486E+01 0.00000E+00
 -1      4031 8.21250E+01 2.91476E+01 0.00000E+00
 -1      4032 8.36250E+01 2.91476E+01 0.00000E+00
 -1      4033 8.13750E+01 2.78486E+01 0.00000E+00
 -1      4034 8.51250E+01 2.91476E+01 0.00000E+00
 -1      4035 8.66250E+01 2.91476E+01 0.00000E+00
 -1      4036 8.43750E+01 2.78486E+01 0.00000E+00
 -1      4037 8.81250E+01 2.91476E+01 0.00000E+00
 -1      4038 8.96250E+01 2.91476E+01 0.00000E+00
 -1      4039 8.73750E+01 2.78486E+01 0.00000E+00
 -1      4040 9.11250E+01 2.91476E+01 0.00000E+00
 -1      4041 9.26250E+01 2.91476E+01 0.00000E+00
 -1      4042 9.03750E+01 2.78486E+01 0.00000E+00
 -1      4043 9.41250E+01 2.91476E+01 0.00000E+00
 -1      4044 9.56250E+01 2.91476E+01 0.00000E+00
 -1      4045 9.33750E+01 2.78486E+01 0.00000E+00
 -1      4046 9.71250E+01 2.91476E+01 0.00000E+00
 -1      4047 9.86250E+01 2.91476E+01 0.00000E+00
 -1      4048 9.63750E+01 2.78486E+01 0.00000E+00
 -1      4049 1.00125E+02 2.91476E+01 0.00000E+00
 -1      4050 1.01625E+02 2.91476E+01 0.00000E+00
 -1      4051 9.93750E+01 2.78486E+01 0.00000E+00
 -1      4052 1.03125E+02 2.91476E+01 0.00000E+00
 -1      4053 1.04625E+02 2.91476E+01 0.00000E+00
 -1      4054 1.02375E+02 2.78486E+01 0.00000E+00
 -1      4055 1.06125E+02 2.91476E+01 0.00000E+00
 -1      4056 1.07625E+02 2.91476E+01 0.00000E+00
 -1      4057 1.05375E+02 2.78486E+01 0.00000E+00
 -1      4058 1.09125E+02 2.91476E+01 0.00000E+00
 -1      4059 1.10625E+02 2.91476E+01 0.00000E+00
 -1      4060 1.08375E+02 2.78486E+01 0.00000E+00
 -1      4061 1.12125E+02 2.91476E+01 0.00000E+00
 -1      4062 1.13625E+02 2.91476E+01 0.00000E+00
 -1      4063 1.11375E+02 2.78486E+01 0.00000E+00
 -1      4064 1.15125E+02 2.91476E+01 0.00000E+00
 -1      4065 1.16625E+02 2.91476E+01 0.00000E+00
 -1      4066 1.14375E+02 2.78486E+01 0.00000E+00
 -1      4067 1.18125E+02 2.91476E+01 0.00000E+00
 -1      4068 1.19625E+02 2.91476E+01 0.00000E+00
 -1      4069 1.17375E+02 2.78486E+01 0.00000E+00
 -1      4070 1.21125E+02 2.91476E+01 0.00000E+00
 -1      4071 1.22625E+02 2.91476E+01 0.00000E+00
 -1      4072 1.20375E+02 2.78486E+01 0.00000E+00
 -1      4073 1.23750E+02 2.90596E+01 0.00000E+00
 -1      4074 1.25250E+02 2.90596E+01 0.00000E+00
 -1      4075 1.25250E+02 2.75846E+01 0.00000E+00
 -1      4076 1.23000E+02 2.77606E+01 0.00000E+00
 -1      4077 5.46240E+01 2.17100E+01 0.00000E+00
 -1      4078 5.31240E+01 2.17100E+01 0.00000E+00
 -1      4079 7.26240E+01 2.17100E+01 0.00000E+00
 -1      4080 7.11240E+01 2.17100E+01 0.00000E+00
 -1      4081 4.61250E+01 2.91476E+01 0.00000E+00
 -1      4082 4.76250E+01 2.91476E+01 0.00000E+00
 -1      4083 3.82230E+01 2.66529E+01 0.00000E+00
 -1      4084 3.85345E+01 2.85799E+01 0.00000E+00
 -1      4085 3.97108E+01 2.85598E+01 0.00000E+00
 -1      4086 6.36240E+01 2.17100E+01 0.00000E+00
 -1      4087 6.21240E+01 2.17100E+01 0.00000E+00
 -1      4088 7.56240E+01 2.17100E+01 0.00000E+00
 -1      4089 7.41240E+01 2.17100E+01 0.00000E+00
 -1      4090 7.33740E+01 2.30090E+01 0.00000E+00
 -1      4091 7.86240E+01 2.17100E+01 0.00000E+00
 -1      4092 7.71240E+01 2.17100E+01 0.00000E+00
 -1      4093 7.63740E+01 2.30090E+01 0.00000E+00
 -1      4094 8.16240E+01 2.17100E+01 0.00000E+00
 -1      4095 8.01240E+01 2.17100E+01 0.00000E+00
 -1      4096 7.93740E+01 2.30090E+01 0.00000E+00
 -1      4097 8.46240E+01 2.17100E+01 0.00000E+00
 -1      4098 8.31240E+01 2.17100E+01 0.00000E+00
 -1      4099 8.23740E+01 2.30090E+01 0.00000E+00
 -1      4100 8.76240E+01 2.17100E+01 0.00000E+00
 -1      4101 8.61240E+01 2.17100E+01 0.00000E+00
 -1      4102 8.53740E+01 2.30090E+01 0.00000E+00
 -1      4103 9.06240E+01 2.17100E+01 0.00000E+00
 -1      4104 8.91240E+01 2.17100E+01 0.00000E+00
 -1      4105 8.83740E+01 2.30090E+01 0.00000E+00
 -1      4106 9.36240E+01 2.17100E+01 0.00000E+00
 -1      4107 9.21240E+01 2.17100E+01 0.00000E+00
 -1      4108 9.13740E+01 2.30090E+01 0.00000E+00
 -1      4109 9.66240E+01 2.17100E+01 0.00000E+00
 -1      4110 9.51240E+01 2.17100E+01 0.00000E+00
 -1      4111 9.43740E+01 2.30090E+01 0.00000E+00
 -1      4112 9.96240E+01 2.17100E+01 0.00000E+00
 -1      4113 9.81240E+01 2.17100E+01 0.00000E+00
 -1      4114 9.73740E+01 2.30090E+01 0.00000E+00
 -1      4115 1.02624E+02 2.17100E+01 0.00000E+00
 -1      4116 1.01124E+02 2.17100E+01 0.00000E+00
 -1      4117 1.00374E+02 2.30090E+01 0.00000E+00
 -1      4118 1.05624E+02 2.17100E+01 0.00000E+00
 -1      4119 1.04124E+02 2.17100E+01 0.00000E+00
 -1      4120 1.03374E+02 2.30090E+01 0.00000E+00
 -1      4121 1.08624E+02 2.17100E+01 0.00000E+00
 -1      4122 1.07124E+02 2.17100E+01 0.00000E+00
 -1      4123 1.06374E+02 2.30090E+01 0.00000E+00
 -1      4124 1.11624E+02 2.17100E+01 0.00000E+00
 -1      4125 1.10124E+02 2.17100E+01 0.00000E+00
 -1      4126 1.09374E+02 2.30090E+01 0.00000E+00
 -1      4127 1.14624E+02 2.17100E+01 0.00000E+00
 -1      4128 1.13124E+02 2.17100E+01 0.00000E+00
 -1      4129 1.12374E+02 2.30090E+01 0.00000E+00
 -1      4130 1.17624E+02 2.17100E+01 0.00000E+00
 -1      4131 1.16124E+02 2.17100E+01 0.00000E+00
 -1      4132 1.15374E+02 2.30090E+01 0.00000E+00
 -1      4133 1.20624E+02 2.17100E+01 0.00000E+00
 -1      4134 1.19124E+02 2.17100E+01 0.00000E+00
 -1      4135 1.18374E+02 2.30090E+01 0.00000E+00
 -1      4136 1.23624E+02 2.17100E+01 0.00000E+00
 -1      4137 1.22124E+02 2.17100E+01 0.00000E+00
 -1      4138 1.21374E+02 2.30090E+01 0.00000E+00
 -1      4139 1.26624E+02 2.17100E+01 0.00000E+00
 -1      4140 1.25124E+02 2.17100E+01 0.00000E+00
 -1      4141 1.24374E+02 2.30090E+01 0.00000E+00
 -1      4142 6.06240E+01 2.17100E+01 0.00000E+00
 -1      4143 5.91240E+01 2.17100E+01 0.00000E+00
 -1      4144 6.13740E+01 2.30090E+01 0.00000E+00
 -1      4145 6.96240E+01 2.17100E+01 0.00000E+00
 -1      4146 6.81240E+01 2.17100E+01 0.00000E+00
 -1      4147 7.03740E+01 2.30090E+01 0.00000E+00
 -1      4148 4.56240E+01 1.91120E+01 0.00000E+00
 -1      4149 4.48740E+01 2.04110E+01 0.00000E+00
 -1      4150 4.71240E+01 1.91120E+01 0.00000E+00
 -1      4151 4.31250E+01 2.91476E+01 0.00000E+00
 -1      4152 4.46250E+01 2.91476E+01 0.00000E+00
 -1      4153 4.53750E+01 2.78486E+01 0.00000E+00
 -1      4154 4.91250E+01 2.91476E+01 0.00000E+00
 -1      4155 5.06250E+01 2.91476E+01 0.00000E+00
 -1      4156 4.83750E+01 2.78486E+01 0.00000E+00
 -1      4157 3.12551E+01 2.26855E+01 0.00000E+00
 -1      4158 3.81240E+01 1.91120E+01 0.00000E+00
 -1      4159 3.66240E+01 1.91120E+01 0.00000E+00
 -1      4160 3.88740E+01 2.04110E+01 0.00000E+00
 -1      4161 5.76240E+01 2.17100E+01 0.00000E+00
 -1      4162 5.61240E+01 2.17100E+01 0.00000E+00
 -1      4163 5.53740E+01 2.30090E+01 0.00000E+00
 -1      4164 5.83740E+01 2.30090E+01 0.00000E+00
 -1      4165 6.66240E+01 2.17100E+01 0.00000E+00
 -1      4166 6.51240E+01 2.17100E+01 0.00000E+00
 -1      4167 6.43740E+01 2.30090E+01 0.00000E+00
 -1      4168 5.21250E+01 2.91476E+01 0.00000E+00
 -1      4169 5.36250E+01 2.91476E+01 0.00000E+00
 -1      4170 5.13750E+01 2.78486E+01 0.00000E+00
 -1      4171 3.58740E+01 2.04110E+01 0.00000E+00
 -1      4172 3.81558E+01 2.36569E+01 0.00000E+00
 -1      4173 3.81894E+01 2.51549E+01 0.00000E+00
 -1      4174 3.93657E+01 2.51348E+01 0.00000E+00
 -1      4175 4.78740E+01 2.04110E+01 0.00000E+00
 -1      4176 3.07208E+01 2.10312E+01 0.00000E+00
 -1      4177 3.19083E+01 2.20653E+01 0.00000E+00
 -1      4178 1.30371E+02 2.41425E+01 0.00000E+00
 -1      4179 1.30510E+02 2.30976E+01 0.00000E+00
 -1      4180 1.29418E+02 2.25504E+01 0.00000E+00
 -1      4181 1.27716E+02 2.22573E+01 0.00000E+00
 -1      4182 4.56240E+01 2.17100E+01 0.00000E+00
 -1      4183 4.41240E+01 2.17100E+01 0.00000E+00
 -1      4184 5.16240E+01 2.17100E+01 0.00000E+00
 -1      4185 5.01240E+01 2.17100E+01 0.00000E+00
 -1      4186 5.23740E+01 2.30090E+01 0.00000E+00
 -1      4187 2.83406E+01 1.98043E+01 0.00000E+00
 -1      4188 2.97308E+01 2.02033E+01 0.00000E+00
 -1      4189 5.43750E+01 2.78486E+01 0.00000E+00
 -1      4190 6.73740E+01 2.30090E+01 0.00000E+00
 -1      4191 3.34083E+01 2.20653E+01 0.00000E+00
 -1      4192 4.08298E+01 2.88637E+01 0.00000E+00
 -1      4193 4.20061E+01 2.88436E+01 0.00000E+00
 -1      4194 4.27561E+01 2.75446E+01 0.00000E+00
 -1      4195 4.05182E+01 2.69367E+01 0.00000E+00
 -1      4196 3.03840E+01 1.95831E+01 0.00000E+00
 -1      4197 5.66250E+01 2.65496E+01 0.00000E+00
 -1      4198 5.81250E+01 2.65496E+01 0.00000E+00
 -1      4199 5.93745E+01 2.54288E+01 0.00000E+00
 -1      4200 6.08745E+01 2.54288E+01 0.00000E+00
 -1      4201 6.23745E+01 2.54288E+01 0.00000E+00
 -1      4202 6.38745E+01 2.54288E+01 0.00000E+00
 -1      4203 6.53745E+01 2.54288E+01 0.00000E+00
 -1      4204 6.68745E+01 2.54288E+01 0.00000E+00
 -1      4205 6.83745E+01 2.54288E+01 0.00000E+00
 -1      4206 6.98745E+01 2.54288E+01 0.00000E+00
 -1      4207 7.13745E+01 2.54288E+01 0.00000E+00
 -1      4208 7.28745E+01 2.54288E+01 0.00000E+00
 -1      4209 7.43745E+01 2.54288E+01 0.00000E+00
 -1      4210 7.58745E+01 2.54288E+01 0.00000E+00
 -1      4211 7.73745E+01 2.54288E+01 0.00000E+00
 -1      4212 7.88745E+01 2.54288E+01 0.00000E+00
 -1      4213 8.03745E+01 2.54288E+01 0.00000E+00
 -1      4214 8.18745E+01 2.54288E+01 0.00000E+00
 -1      4215 8.33745E+01 2.54288E+01 0.00000E+00
 -1      4216 8.48745E+01 2.54288E+01 0.00000E+00
 -1      4217 8.63745E+01 2.54288E+01 0.00000E+00
 -1      4218 8.78745E+01 2.54288E+01 0.00000E+00
 -1      4219 8.93745E+01 2.54288E+01 0.00000E+00
 -1      4220 9.08745E+01 2.54288E+01 0.00000E+00
 -1      4221 9.23745E+01 2.54288E+01 0.00000E+00
 -1      4222 9.38745E+01 2.54288E+01 0.00000E+00
 -1      4223 9.53745E+01 2.54288E+01 0.00000E+00
 -1      4224 9.68745E+01 2.54288E+01 0.00000E+00
 -1      4225 9.83745E+01 2.54288E+01 0.00000E+00
 -1      4226 9.98745E+01 2.54288E+01 0.00000E+00
 -1      4227 1.01374E+02 2.54288E+01 0.00000E+00
 -1      4228 1.02874E+02 2.54288E+01 0.00000E+00
 -1      4229 1.04374E+02 2.54288E+01 0.00000E+00
 -1      4230 1.05874E+02 2.54288E+01 0.00000E+00
 -1      4231 1.07374E+02 2.54288E+01 0.00000E+00
 -1      4232 1.08874E+02 2.54288E+01 0.00000E+00
 -1      4233 1.10374E+02 2.54288E+01 0.00000E+00
 -1      4234 1.11874E+02 2.54288E+01 0.00000E+00
 -1      4235 1.13374E+02 2.54288E+01 0.00000E+00
 -1      4236 1.14874E+02 2.54288E+01 0.00000E+00
 -1      4237 1.16374E+02 2.54288E+01 0.00000E+00
 -1      4238 1.17874E+02 2.54288E+01 0.00000E+00
 -1      4239 1.19374E+02 2.54288E+01 0.00000E+00
 -1      4240 1.20874E+02 2.54288E+01 0.00000E+00
 -1      4241 4.86240E+01 2.17100E+01 0.00000E+00
 -1      4242 4.71240E+01 2.17100E+01 0.00000E+00
 -1      4243 4.63740E+01 2.30090E+01 0.00000E+00
 -1      4244 5.33745E+01 2.54288E+01 0.00000E+00
 -1      4245 5.48745E+01 2.54288E+01 0.00000E+00
 -1      4246 1.29966E+02 2.60855E+01 0.00000E+00
 -1      4247 1.30105E+02 2.50406E+01 0.00000E+00
 -1      4248 1.22374E+02 2.54288E+01 0.00000E+00
 -1      4249 4.33740E+01 2.30090E+01 0.00000E+00
 -1      4250 4.26240E+01 2.17100E+01 0.00000E+00
 -1      4251 4.41240E+01 2.43080E+01 0.00000E+00
 -1      4252 4.26241E+01 2.43080E+01 0.00000E+00
 -1      4253 4.11240E+01 2.17100E+01 0.00000E+00
 -1      4254 1.27562E+02 2.64441E+01 0.00000E+00
 -1      4255 4.76250E+01 2.65496E+01 0.00000E+00
 -1      4256 4.91250E+01 2.65496E+01 0.00000E+00
 -1      4257 3.43845E+01 2.37437E+01 0.00000E+00
 -1      4258 3.56620E+01 2.29609E+01 0.00000E+00
 -1      4259 1.27577E+02 2.33021E+01 0.00000E+00
 -1      4260 3.98531E+01 2.20239E+01 0.00000E+00
 -1      4261 3.83531E+01 2.20239E+01 0.00000E+00
 -1      4262 5.03745E+01 2.54288E+01 0.00000E+00
 -1      4263 5.18745E+01 2.54288E+01 0.00000E+00
 -1      4264 1.29014E+02 2.44934E+01 0.00000E+00
 -1      4265 4.06031E+01 2.33229E+01 0.00000E+00
 -1      4266 3.71768E+01 2.20440E+01 0.00000E+00
 -1      4267 2.96340E+01 1.82841E+01 0.00000E+00
 -1      4268 4.25056E+01 2.64238E+01 0.00000E+00
 -1      4269 4.36245E+01 2.67278E+01 0.00000E+00
 -1      4270 5.56245E+01 2.41298E+01 0.00000E+00
 -1      4271 1.26106E+02 2.59986E+01 0.00000E+00
 -1      4272 1.27293E+02 2.49460E+01 0.00000E+00
 -1      4273 4.93740E+01 2.30090E+01 0.00000E+00
 -1      4274 1.23896E+02 2.44815E+01 0.00000E+00
 -1      4275 1.23397E+02 2.69013E+01 0.00000E+00
 -1      4276 2.81340E+01 1.82841E+01 0.00000E+00
 -1      4277 4.46243E+01 2.55179E+01 0.00000E+00
 -1      4278 4.48747E+01 2.66387E+01 0.00000E+00
 -1      4279 4.63747E+01 2.66387E+01 0.00000E+00
 -1      4280 4.53742E+01 2.42189E+01 0.00000E+00
 -1      4281 4.68742E+01 2.42189E+01 0.00000E+00
 -1      4282 1.25856E+02 2.37548E+01 0.00000E+00
 -1      4283 1.24356E+02 2.37548E+01 0.00000E+00
 -1      4284 4.71247E+01 2.53397E+01 0.00000E+00
 -1      4285 5.86245E+01 2.41298E+01 0.00000E+00
 -1      4286 3.58593E+01 2.13279E+01 0.00000E+00
 -1      4287 3.33936E+01 2.29822E+01 0.00000E+00
 -1      4288 1.27558E+02 2.40479E+01 0.00000E+00
 -1      4289 4.06476E+01 2.43567E+01 0.00000E+00
 -1      4290 4.06812E+01 2.58547E+01 0.00000E+00
 -1      4291 5.71245E+01 2.41298E+01 0.00000E+00
 -1      4292 4.18001E+01 2.61586E+01 0.00000E+00
 -1      4293 1.25647E+02 2.67253E+01 0.00000E+00
 -1      4294 1.25378E+02 2.52273E+01 0.00000E+00
 -1      4295 1.24522E+02 2.68133E+01 0.00000E+00
 -1      4296 4.96245E+01 2.41298E+01 0.00000E+00
 -1      4297 4.81245E+01 2.41298E+01 0.00000E+00
 -1      4298 3.43593E+01 2.13279E+01 0.00000E+00
 -1      4299 4.19186E+01 2.40428E+01 0.00000E+00
 -1      4300 4.26686E+01 2.53418E+01 0.00000E+00
 -3
    3C                          2068                                     1
 -1       165    8    0    1
 -2         6         7        23      1117      1281      1134
 -1       166    8    0    1
 -2         7         8       165      1118      1282      1283
 -1       167    8    0    1
 -2         8         9       166      1119      1284      1285
 -1       168    8    0    1
 -2         8       166       165      1285      1286      1282
 -1       169    8    0    1
 -2         9        10       167      1120      1287      1288
 -1       170    8    0    1
 -2         9       167       166      1288      1289      1284
 -1       171    8    0    1
 -2        10        11       168      1121      1290      1291
 -1       172    8    0    1
 -2        10       168       167      1291      1292      1287
 -1       173    8    0    1
 -2        11        12       169      1122      1293      1294
 -1       174    8    0    1
 -2        11       169       168      1294      1295      1290
 -1       175    8    0    1
 -2        12        13       170      1123      1296      1297
 -1       176    8    0    1
 -2        12       170       169      1297      1298      1293
 -1       177    8    0    1
 -2        13        14       171      1124      1299      1300
 -1       178    8    0    1
 -2        13       171       170      1300      1301      1296
 -1       179    8    0    1
 -2        14        15       172      1125      1302      1303
 -1       180    8    0    1
 -2        14       172       171      1303      1304      1299
 -1       181    8    0    1
 -2        15        16       173      1126      1305      1306
 -1       182    8    0    1
 -2        15       173       172      1306      1307      1302
 -1       183    8    0    1
 -2        16        17       174      1127      1308      1309
 -1       184    8    0    1
 -2        16       174       173      1309      1310      1305
 -1       185    8    0    1
 -2        17        18       175      1128      1311      1312
 -1       186    8    0    1
 -2        17       175       174      1312      1313      1308
 -1       187    8    0    1
 -2        18        19       176      1129      1314      1315
 -1       188    8    0    1
 -2        18       176       175      1315      1316      1311
 -1       189    8    0    1
 -2        19        20       177      1130      1317      1318
 -1       190    8    0    1
 -2        19       177       176      1318      1319      1314
 -1       191    8    0    1
 -2        20        21       178      1131      1320      1321
 -1       192    8    0    1
 -2        20       178       177      1321      1322      1317
 -1       193    8    0    1
 -2        21        22       179      1132      1323      1324
 -1       194    8    0    1
 -2        21       179       178      1324      1325      1320
 -1       195    8    0    1
 -2        22         5       180      1133      1326      1327
 -1       196    8    0    1
 -2       179        22       180      1323      1327      1328
 -1       197    8    0    1
 -2         5        73       180      1185      1329      1326
 -1       198    8    0    1
 -2        24        23       181      1135      1330      1331
 -1       199    8    0    1
 -2        25        24       182      1136      1332      1333
 -1       200    8    0    1
 -2        24       181       182      1331      1334      1332
 -1       201    8    0    1
 -2        26        25       183      1137      1335      1336
 -1       202    8    0    1
 -2        25       182       183      1333      1337      1335
 -1       203    8    0    1
 -2        27        26       184      1138      1338      1339
 -1       204    8    0    1
 -2        26       183       184      1336      1340      1338
 -1       205    8    0    1
 -2        29        28       185      1140      1341      1342
 -1       206    8    0    1
 -2        30        29       186      1141      1343      1344
 -1       207    8    0    1
 -2        29       185       186      1342      1345      1343
 -1       208    8    0    1
 -2        31        30       187      1142      1346      1347
 -1       209    8    0    1
 -2        30       186       187      1344      1348      1346
 -1       210    8    0    1
 -2        32        31       188      1143      1349      1350
 -1       211    8    0    1
 -2        31       187       188      1347      1351      1349
 -1       212    8    0    1
 -2        33        32       189      1144      1352      1353
 -1       213    8    0    1
 -2        32       188       189      1350      1354      1352
 -1       214    8    0    1
 -2        34        33       190      1145      1355      1356
 -1       215    8    0    1
 -2        33       189       190      1353      1357      1355
 -1       216    8    0    1
 -2        35        34       191      1146      1358      1359
 -1       217    8    0    1
 -2        34       190       191      1356      1360      1358
 -1       218    8    0    1
 -2        36        35       192      1147      1361      1362
 -1       219    8    0    1
 -2        35       191       192      1359      1363      1361
 -1       220    8    0    1
 -2        37        36       193      1148      1364      1365
 -1       221    8    0    1
 -2        36       192       193      1362      1366      1364
 -1       222    8    0    1
 -2        38        37       194      1149      1367      1368
 -1       223    8    0    1
 -2        37       193       194      1365      1369      1367
 -1       224    8    0    1
 -2        39        38       195      1150      1370      1371
 -1       225    8    0    1
 -2        38       194       195      1368      1372      1370
 -1       226    8    0    1
 -2        40        39       196      1151      1373      1374
 -1       227    8    0    1
 -2        39       195       196      1371      1375      1373
 -1       228    8    0    1
 -2        41        40       197      1152      1376      1377
 -1       229    8    0    1
 -2        40       196       197      1374      1378      1376
 -1       230    8    0    1
 -2        42        41       198      1153      1379      1380
 -1       231    8    0    1
 -2        41       197       198      1377      1381      1379
 -1       232    8    0    1
 -2        43        42       199      1154      1382      1383
 -1       233    8    0    1
 -2        42       198       199      1380      1384      1382
 -1       234    8    0    1
 -2        44        43       200      1155      1385      1386
 -1       235    8    0    1
 -2        43       199       200      1383      1387      1385
 -1       236    8    0    1
 -2        45        44       201      1156      1388      1389
 -1       237    8    0    1
 -2        44       200       201      1386      1390      1388
 -1       238    8    0    1
 -2        46        45       202      1157      1391      1392
 -1       239    8    0    1
 -2        45       201       202      1389      1393      1391
 -1       240    8    0    1
 -2        47        46       203      1158      1394      1395
 -1       241    8    0    1
 -2        46       202       203      1392      1396      1394
 -1       242    8    0    1
 -2        48        47       204      1159      1397      1398
 -1       243    8    0    1
 -2        47       203       204      1395      1399      1397
 -1       244    8    0    1
 -2        49        48       205      1160      1400      1401
 -1       245    8    0    1
 -2        48       204       205      1398      1402      1400
 -1       246    8    0    1
 -2        50        49       206      1161      1403      1404
 -1       247    8    0    1
 -2        49       205       206      1401      1405      1403
 -1       248    8    0    1
 -2        51        50       207      1162      1406      1407
 -1       249    8    0    1
 -2        50       206       207      1404      1408      1406
 -1       250    8    0    1
 -2        52        51       208      1163      1409      1410
 -1       251    8    0    1
 -2        51       207       208      1407      1411      1409
 -1       252    8    0    1
 -2        53        52       209      1164      1412      1413
 -1       253    8    0    1
 -2        52       208       209      1410      1414      1412
 -1       254    8    0    1
 -2        54        53       210      1165      1415      1416
 -1       255    8    0    1
 -2        53       209       210      1413      1417      1415
 -1       256    8    0    1
 -2        55        54       211      1166      1418      1419
 -1       257    8    0    1
 -2        54       210       211      1416      1420      1418
 -1       258    8    0    1
 -2        56        55       212      1167      1421      1422
 -1       259    8    0    1
 -2        55       211       212      1419      1423      1421
 -1       260    8    0    1
 -2        57        56       213      1168      1424      1425
 -1       261    8    0    1
 -2        56       212       213      1422      1426      1424
 -1       262    8    0    1
 -2        58        57       214      1169      1427      1428
 -1       263    8    0    1
 -2        57       213       214      1425      1429      1427
 -1       264    8    0    1
 -2        59        58       215      1170      1430      1431
 -1       265    8    0    1
 -2        58       214       215      1428      1432      1430
 -1       266    8    0    1
 -2        60        59       216      1171      1433      1434
 -1       267    8    0    1
 -2        59       215       216      1431      1435      1433
 -1       268    8    0    1
 -2        61        60       217      1172      1436      1437
 -1       269    8    0    1
 -2        60       216       217      1434      1438      1436
 -1       270    8    0    1
 -2        62        61       218      1173      1439      1440
 -1       271    8    0    1
 -2        61       217       218      1437      1441      1439
 -1       272    8    0    1
 -2        63        62       219      1174      1442      1443
 -1       273    8    0    1
 -2        62       218       219      1440      1444      1442
 -1       274    8    0    1
 -2        64        63       220      1175      1445      1446
 -1       275    8    0    1
 -2        63       219       220      1443      1447      1445
 -1       276    8    0    1
 -2        65        64       221      1176      1448      1449
 -1       277    8    0    1
 -2        64       220       221      1446      1450      1448
 -1       278    8    0    1
 -2        66        65       222      1177      1451      1452
 -1       279    8    0    1
 -2        65       221       222      1449      1453      1451
 -1       280    8    0    1
 -2        67        66       223      1178      1454      1455
 -1       281    8    0    1
 -2        66       222       223      1452      1456      1454
 -1       282    8    0    1
 -2        68        67       224      1179      1457      1458
 -1       283    8    0    1
 -2        67       223       224      1455      1459      1457
 -1       284    8    0    1
 -2        69        68       225      1180      1460      1461
 -1       285    8    0    1
 -2        68       224       225      1458      1462      1460
 -1       286    8    0    1
 -2        70        69       226      1181      1463      1464
 -1       287    8    0    1
 -2        69       225       226      1461      1465      1463
 -1       288    8    0    1
 -2        71        70       227      1182      1466      1467
 -1       289    8    0    1
 -2        70       226       227      1464      1468      1466
 -1       290    8    0    1
 -2        72        71       228      1183      1469      1470
 -1       291    8    0    1
 -2        71       227       228      1467      1471      1469
 -1       292    8    0    1
 -2         4        72       229      1184      1472      1473
 -1       293    8    0    1
 -2       137         4       229      1251      1473      1474
 -1       294    8    0    1
 -2        72       228       229      1470      1475      1472
 -1       295    8    0    1
 -2        73        74       230      1186      1476      1477
 -1       296    8    0    1
 -2        73       230       180      1477      1478      1329
 -1       297    8    0    1
 -2        74        75       231      1187      1479      1480
 -1       298    8    0    1
 -2        74       231       230      1480      1481      1476
 -1       299    8    0    1
 -2        75        76       232      1188      1482      1483
 -1       300    8    0    1
 -2        75       232       231      1483      1484      1479
 -1       301    8    0    1
 -2        76        77       233      1189      1485      1486
 -1       302    8    0    1
 -2        76       233       232      1486      1487      1482
 -1       303    8    0    1
 -2        77        78       234      1190      1488      1489
 -1       304    8    0    1
 -2        77       234       233      1489      1490      1485
 -1       305    8    0    1
 -2        78        79       235      1191      1491      1492
 -1       306    8    0    1
 -2        78       235       234      1492      1493      1488
 -1       307    8    0    1
 -2        79        80       236      1192      1494      1495
 -1       308    8    0    1
 -2        79       236       235      1495      1496      1491
 -1       309    8    0    1
 -2        80        81       237      1193      1497      1498
 -1       310    8    0    1
 -2        80       237       236      1498      1499      1494
 -1       311    8    0    1
 -2        81        82       238      1194      1500      1501
 -1       312    8    0    1
 -2        81       238       237      1501      1502      1497
 -1       313    8    0    1
 -2        82        83       239      1195      1503      1504
 -1       314    8    0    1
 -2        82       239       238      1504      1505      1500
 -1       315    8    0    1
 -2        83        84       240      1196      1506      1507
 -1       316    8    0    1
 -2        83       240       239      1507      1508      1503
 -1       317    8    0    1
 -2        84        85       241      1197      1509      1510
 -1       318    8    0    1
 -2        84       241       240      1510      1511      1506
 -1       319    8    0    1
 -2        85        86       242      1198      1512      1513
 -1       320    8    0    1
 -2        85       242       241      1513      1514      1509
 -1       321    8    0    1
 -2        86        87       243      1199      1515      1516
 -1       322    8    0    1
 -2        86       243       242      1516      1517      1512
 -1       323    8    0    1
 -2        87        88       244      1200      1518      1519
 -1       324    8    0    1
 -2        87       244       243      1519      1520      1515
 -1       325    8    0    1
 -2        88        89       245      1201      1521      1522
 -1       326    8    0    1
 -2        88       245       244      1522      1523      1518
 -1       327    8    0    1
 -2        89        90       246      1202      1524      1525
 -1       328    8    0    1
 -2        89       246       245      1525      1526      1521
 -1       329    8    0    1
 -2        90        91       247      1203      1527      1528
 -1       330    8    0    1
 -2        90       247       246      1528      1529      1524
 -1       331    8    0    1
 -2        91        92       248      1204      1530      1531
 -1       332    8    0    1
 -2        91       248       247      1531      1532      1527
 -1       333    8    0    1
 -2        92        93       249      1205      1533      1534
 -1       334    8    0    1
 -2        92       249       248      1534      1535      1530
 -1       335    8    0    1
 -2        93        94       250      1206      1536      1537
 -1       336    8    0    1
 -2        93       250       249      1537      1538      1533
 -1       337    8    0    1
 -2        94        95       251      1207      1539      1540
 -1       338    8    0    1
 -2        94       251       250      1540      1541      1536
 -1       339    8    0    1
 -2        95        96       252      1208      1542      1543
 -1       340    8    0    1
 -2        95       252       251      1543      1544      1539
 -1       341    8    0    1
 -2        96        97       253      1209      1545      1546
 -1       342    8    0    1
 -2        96       253       252      1546      1547      1542
 -1       343    8    0    1
 -2        97        98       254      1210      1548      1549
 -1       344    8    0    1
 -2        97       254       253      1549      1550      1545
 -1       345    8    0    1
 -2        98        99       255      1211      1551      1552
 -1       346    8    0    1
 -2        98       255       254      1552      1553      1548
 -1       347    8    0    1
 -2        99       100       256      1212      1554      1555
 -1       348    8    0    1
 -2        99       256       255      1555      1556      1551
 -1       349    8    0    1
 -2       100       101       257      1213      1557      1558
 -1       350    8    0    1
 -2       100       257       256      1558      1559      1554
 -1       351    8    0    1
 -2       101       102       258      1214      1560      1561
 -1       352    8    0    1
 -2       101       258       257      1561      1562      1557
 -1       353    8    0    1
 -2       102       103       259      1215      1563      1564
 -1       354    8    0    1
 -2       102       259       258      1564      1565      1560
 -1       355    8    0    1
 -2       103       104       260      1216      1566      1567
 -1       356    8    0    1
 -2       103       260       259      1567      1568      1563
 -1       357    8    0    1
 -2       104       105       261      1217      1569      1570
 -1       358    8    0    1
 -2       104       261       260      1570      1571      1566
 -1       359    8    0    1
 -2       105       106       262      1218      1572      1573
 -1       360    8    0    1
 -2       105       262       261      1573      1574      1569
 -1       361    8    0    1
 -2       106       107       263      1219      1575      1576
 -1       362    8    0    1
 -2       106       263       262      1576      1577      1572
 -1       363    8    0    1
 -2       107       108       264      1220      1578      1579
 -1       364    8    0    1
 -2       107       264       263      1579      1580      1575
 -1       365    8    0    1
 -2       108       109       265      1221      1581      1582
 -1       366    8    0    1
 -2       108       265       264      1582      1583      1578
 -1       367    8    0    1
 -2       109       110       266      1222      1584      1585
 -1       368    8    0    1
 -2       109       266       265      1585      1586      1581
 -1       369    8    0    1
 -2       110       111       267      1223      1587      1588
 -1       370    8    0    1
 -2       110       267       266      1588      1589      1584
 -1       371    8    0    1
 -2       111       112       268      1224      1590      1591
 -1       372    8    0    1
 -2       111       268       267      1591      1592      1587
 -1       373    8    0    1
 -2       112       113       269      1225      1593      1594
 -1       374    8    0    1
 -2       112       269       268      1594      1595      1590
 -1       375    8    0    1
 -2       113       114       270      1226      1596      1597
 -1       376    8    0    1
 -2       113       270       269      1597      1598      1593
 -1       377    8    0    1
 -2       114       115       271      1227      1599      1600
 -1       378    8    0    1
 -2       114       271       270      1600      1601      1596
 -1       379    8    0    1
 -2       115       116       272      1228      1602      1603
 -1       380    8    0    1
 -2       115       272       271      1603      1604      1599
 -1       381    8    0    1
 -2       116       117       273      1229      1605      1606
 -1       382    8    0    1
 -2       116       273       272      1606      1607      1602
 -1       383    8    0    1
 -2       117       118       274      1230      1608      1609
 -1       384    8    0    1
 -2       117       274       273      1609      1610      1605
 -1       385    8    0    1
 -2       118       119       275      1231      1611      1612
 -1       386    8    0    1
 -2       118       275       274      1612      1613      1608
 -1       387    8    0    1
 -2       119       120       276      1232      1614      1615
 -1       388    8    0    1
 -2       119       276       275      1615      1616      1611
 -1       389    8    0    1
 -2       120       121       277      1233      1617      1618
 -1       390    8    0    1
 -2       120       277       276      1618      1619      1614
 -1       391    8    0    1
 -2       121         3       122      1234      1235      1620
 -1       392    8    0    1
 -2       122       123       278      1236      1621      1622
 -1       393    8    0    1
 -2       123       124       279      1237      1623      1624
 -1       394    8    0    1
 -2       123       279       278      1624      1625      1621
 -1       395    8    0    1
 -2       124       125       280      1238      1626      1627
 -1       396    8    0    1
 -2       124       280       279      1627      1628      1623
 -1       397    8    0    1
 -2       125       126       281      1239      1629      1630
 -1       398    8    0    1
 -2       125       281       280      1630      1631      1626
 -1       399    8    0    1
 -2       126       127       282      1240      1632      1633
 -1       400    8    0    1
 -2       126       282       281      1633      1634      1629
 -1       401    8    0    1
 -2       127       128       283      1241      1635      1636
 -1       402    8    0    1
 -2       127       283       282      1636      1637      1632
 -1       403    8    0    1
 -2       128       129       284      1242      1638      1639
 -1       404    8    0    1
 -2       128       284       283      1639      1640      1635
 -1       405    8    0    1
 -2       129       130       285      1243      1641      1642
 -1       406    8    0    1
 -2       129       285       284      1642      1643      1638
 -1       407    8    0    1
 -2       130       131       286      1244      1644      1645
 -1       408    8    0    1
 -2       130       286       285      1645      1646      1641
 -1       409    8    0    1
 -2       131       132       287      1245      1647      1648
 -1       410    8    0    1
 -2       131       287       286      1648      1649      1644
 -1       411    8    0    1
 -2       132       133       288      1246      1650      1651
 -1       412    8    0    1
 -2       132       288       287      1651      1652      1647
 -1       413    8    0    1
 -2       133       134       289      1247      1653      1654
 -1       414    8    0    1
 -2       133       289       288      1654      1655      1650
 -1       415    8    0    1
 -2       134       135       290      1248      1656      1657
 -1       416    8    0    1
 -2       134       290       289      1657      1658      1653
 -1       417    8    0    1
 -2       135       136       291      1249      1659      1660
 -1       418    8    0    1
 -2       135       291       290      1660      1661      1656
 -1       419    8    0    1
 -2       136       137       292      1250      1662      1663
 -1       420    8    0    1
 -2       291       136       292      1659      1663      1664
 -1       421    8    0    1
 -2       137       229       292      1474      1665      1662
 -1       422    8    0    1
 -2         2       138       293      1252      1666      1667
 -1       423    8    0    1
 -2       138       139       294      1253      1668      1669
 -1       424    8    0    1
 -2       139       140       295      1254      1670      1671
 -1       425    8    0    1
 -2       140       141       296      1255      1672      1673
 -1       426    8    0    1
 -2       141       142       297      1256      1674      1675
 -1       427    8    0    1
 -2       142       143       298      1257      1676      1677
 -1       428    8    0    1
 -2       143       144       299      1258      1678      1679
 -1       429    8    0    1
 -2       144       145       300      1259      1680      1681
 -1       430    8    0    1
 -2       145       146       301      1260      1682      1683
 -1       431    8    0    1
 -2       146       147       302      1261      1684      1685
 -1       432    8    0    1
 -2       147       148       303      1262      1686      1687
 -1       433    8    0    1
 -2       148       149       304      1263      1688      1689
 -1       434    8    0    1
 -2       149       150       305      1264      1690      1691
 -1       435    8    0    1
 -2       150       151       306      1265      1692      1693
 -1       436    8    0    1
 -2       151       152       307      1266      1694      1695
 -1       437    8    0    1
 -2       152       153       308      1267      1696      1697
 -1       438    8    0    1
 -2       153         1       309      1268      1698      1699
 -1       439    8    0    1
 -2         1       154       310      1269      1700      1701
 -1       440    8    0    1
 -2       154       155       311      1270      1702      1703
 -1       441    8    0    1
 -2       155       156       312      1271      1704      1705
 -1       442    8    0    1
 -2       156       157       313      1272      1706      1707
 -1       443    8    0    1
 -2       157       158       314      1273      1708      1709
 -1       444    8    0    1
 -2       158       159       315      1274      1710      1711
 -1       445    8    0    1
 -2       159       160       316      1275      1712      1713
 -1       446    8    0    1
 -2       160       161       317      1276      1714      1715
 -1       447    8    0    1
 -2       161       162       318      1277      1716      1717
 -1       448    8    0    1
 -2       162       163       319      1278      1718      1719
 -1       449    8    0    1
 -2       163       164       320      1279      1720      1721
 -1       450    8    0    1
 -2       164         2       321      1280      1722      1723
 -1       451    8    0    1
 -2        27       184       322      1339      1724      1725
 -1       452    8    0    1
 -2       185        28       322      1341      1726      1727
 -1       453    8    0    1
 -2        28        27       322      1139      1725      1726
 -1       454    8    0    1
 -2       295       140       296      1670      1673      1728
 -1       455    8    0    1
 -2         2       293       321      1667      1729      1722
 -1       456    8    0    1
 -2       121       122       277      1620      1730      1617
 -1       457    8    0    1
 -2       122       278       277      1622      1731      1730
 -1       458    8    0    1
 -2       293       138       294      1666      1669      1732
 -1       459    8    0    1
 -2       294       139       295      1668      1671      1733
 -1       460    8    0    1
 -2       141       297       296      1675      1734      1672
 -1       461    8    0    1
 -2       142       298       297      1677      1735      1674
 -1       462    8    0    1
 -2       143       299       298      1679      1736      1676
 -1       463    8    0    1
 -2       144       300       299      1681      1737      1678
 -1       464    8    0    1
 -2       145       301       300      1683      1738      1680
 -1       465    8    0    1
 -2       146       302       301      1685      1739      1682
 -1       466    8    0    1
 -2       147       303       302      1687      1740      1684
 -1       467    8    0    1
 -2       148       304       303      1689      1741      1686
 -1       468    8    0    1
 -2       149       305       304      1691      1742      1688
 -1       469    8    0    1
 -2       150       306       305      1693      1743      1690
 -1       470    8    0    1
 -2       151       307       306      1695      1744      1692
 -1       471    8    0    1
 -2       152       308       307      1697      1745      1694
 -1       472    8    0    1
 -2       153       309       308      1699      1746      1696
 -1       473    8    0    1
 -2         1       310       309      1701      1747      1698
 -1       474    8    0    1
 -2       154       311       310      1703      1748      1700
 -1       475    8    0    1
 -2       155       312       311      1705      1749      1702
 -1       476    8    0    1
 -2       156       313       312      1707      1750      1704
 -1       477    8    0    1
 -2       157       314       313      1709      1751      1706
 -1       478    8    0    1
 -2       158       315       314      1711      1752      1708
 -1       479    8    0    1
 -2       159       316       315      1713      1753      1710
 -1       480    8    0    1
 -2       160       317       316      1715      1754      1712
 -1       481    8    0    1
 -2       161       318       317      1717      1755      1714
 -1       482    8    0    1
 -2       162       319       318      1719      1756      1716
 -1       483    8    0    1
 -2       163       320       319      1721      1757      1718
 -1       484    8    0    1
 -2       164       321       320      1723      1758      1720
 -1       485    8    0    1
 -2        23         7       165      1281      1283      1759
 -1       486    8    0    1
 -2       166       167       323      1289      1760      1761
 -1       487    8    0    1
 -2       165       166       324      1286      1762      1763
 -1       488    8    0    1
 -2       166       323       324      1761      1764      1762
 -1       489    8    0    1
 -2       168       169       325      1295      1765      1766
 -1       490    8    0    1
 -2       169       170       326      1298      1767      1768
 -1       491    8    0    1
 -2       170       171       327      1301      1769      1770
 -1       492    8    0    1
 -2       171       172       328      1304      1771      1772
 -1       493    8    0    1
 -2       171       328       327      1772      1773      1769
 -1       494    8    0    1
 -2       172       173       329      1307      1774      1775
 -1       495    8    0    1
 -2       172       329       328      1775      1776      1771
 -1       496    8    0    1
 -2       173       174       330      1310      1777      1778
 -1       497    8    0    1
 -2       173       330       329      1778      1779      1774
 -1       498    8    0    1
 -2       174       175       331      1313      1780      1781
 -1       499    8    0    1
 -2       174       331       330      1781      1782      1777
 -1       500    8    0    1
 -2       175       176       332      1316      1783      1784
 -1       501    8    0    1
 -2       175       332       331      1784      1785      1780
 -1       502    8    0    1
 -2       176       177       333      1319      1786      1787
 -1       503    8    0    1
 -2       176       333       332      1787      1788      1783
 -1       504    8    0    1
 -2       177       178       334      1322      1789      1790
 -1       505    8    0    1
 -2       177       334       333      1790      1791      1786
 -1       506    8    0    1
 -2       178       179       335      1325      1792      1793
 -1       507    8    0    1
 -2       178       335       334      1793      1794      1789
 -1       508    8    0    1
 -2       179       180       336      1328      1795      1796
 -1       509    8    0    1
 -2       335       179       336      1792      1796      1797
 -1       510    8    0    1
 -2       180       230       336      1478      1798      1795
 -1       511    8    0    1
 -2       181        23       165      1330      1759      1799
 -1       512    8    0    1
 -2       230       231       337      1481      1800      1801
 -1       513    8    0    1
 -2       230       337       336      1801      1802      1798
 -1       514    8    0    1
 -2       185       322       314      1727      1803      1804
 -1       515    8    0    1
 -2       183       182       338      1337      1805      1806
 -1       516    8    0    1
 -2       184       183       339      1340      1807      1808
 -1       517    8    0    1
 -2       181       165       324      1799      1763      1809
 -1       518    8    0    1
 -2       187       186       340      1348      1810      1811
 -1       519    8    0    1
 -2       188       187       341      1351      1812      1813
 -1       520    8    0    1
 -2       189       188       342      1354      1814      1815
 -1       521    8    0    1
 -2       188       341       342      1813      1816      1814
 -1       522    8    0    1
 -2       190       189       343      1357      1817      1818
 -1       523    8    0    1
 -2       189       342       343      1815      1819      1817
 -1       524    8    0    1
 -2       191       190       344      1360      1820      1821
 -1       525    8    0    1
 -2       190       343       344      1818      1822      1820
 -1       526    8    0    1
 -2       192       191       345      1363      1823      1824
 -1       527    8    0    1
 -2       191       344       345      1821      1825      1823
 -1       528    8    0    1
 -2       193       192       346      1366      1826      1827
 -1       529    8    0    1
 -2       192       345       346      1824      1828      1826
 -1       530    8    0    1
 -2       194       193       347      1369      1829      1830
 -1       531    8    0    1
 -2       193       346       347      1827      1831      1829
 -1       532    8    0    1
 -2       195       194       348      1372      1832      1833
 -1       533    8    0    1
 -2       194       347       348      1830      1834      1832
 -1       534    8    0    1
 -2       196       195       349      1375      1835      1836
 -1       535    8    0    1
 -2       195       348       349      1833      1837      1835
 -1       536    8    0    1
 -2       197       196       350      1378      1838      1839
 -1       537    8    0    1
 -2       196       349       350      1836      1840      1838
 -1       538    8    0    1
 -2       198       197       351      1381      1841      1842
 -1       539    8    0    1
 -2       197       350       351      1839      1843      1841
 -1       540    8    0    1
 -2       199       198       352      1384      1844      1845
 -1       541    8    0    1
 -2       198       351       352      1842      1846      1844
 -1       542    8    0    1
 -2       200       199       353      1387      1847      1848
 -1       543    8    0    1
 -2       199       352       353      1845      1849      1847
 -1       544    8    0    1
 -2       201       200       354      1390      1850      1851
 -1       545    8    0    1
 -2       200       353       354      1848      1852      1850
 -1       546    8    0    1
 -2       202       201       355      1393      1853      1854
 -1       547    8    0    1
 -2       201       354       355      1851      1855      1853
 -1       548    8    0    1
 -2       203       202       356      1396      1856      1857
 -1       549    8    0    1
 -2       202       355       356      1854      1858      1856
 -1       550    8    0    1
 -2       204       203       357      1399      1859      1860
 -1       551    8    0    1
 -2       203       356       357      1857      1861      1859
 -1       552    8    0    1
 -2       205       204       358      1402      1862      1863
 -1       553    8    0    1
 -2       204       357       358      1860      1864      1862
 -1       554    8    0    1
 -2       206       205       359      1405      1865      1866
 -1       555    8    0    1
 -2       205       358       359      1863      1867      1865
 -1       556    8    0    1
 -2       207       206       360      1408      1868      1869
 -1       557    8    0    1
 -2       206       359       360      1866      1870      1868
 -1       558    8    0    1
 -2       208       207       361      1411      1871      1872
 -1       559    8    0    1
 -2       207       360       361      1869      1873      1871
 -1       560    8    0    1
 -2       209       208       362      1414      1874      1875
 -1       561    8    0    1
 -2       208       361       362      1872      1876      1874
 -1       562    8    0    1
 -2       210       209       363      1417      1877      1878
 -1       563    8    0    1
 -2       209       362       363      1875      1879      1877
 -1       564    8    0    1
 -2       211       210       364      1420      1880      1881
 -1       565    8    0    1
 -2       210       363       364      1878      1882      1880
 -1       566    8    0    1
 -2       212       211       365      1423      1883      1884
 -1       567    8    0    1
 -2       211       364       365      1881      1885      1883
 -1       568    8    0    1
 -2       213       212       366      1426      1886      1887
 -1       569    8    0    1
 -2       212       365       366      1884      1888      1886
 -1       570    8    0    1
 -2       214       213       367      1429      1889      1890
 -1       571    8    0    1
 -2       213       366       367      1887      1891      1889
 -1       572    8    0    1
 -2       215       214       368      1432      1892      1893
 -1       573    8    0    1
 -2       214       367       368      1890      1894      1892
 -1       574    8    0    1
 -2       216       215       369      1435      1895      1896
 -1       575    8    0    1
 -2       215       368       369      1893      1897      1895
 -1       576    8    0    1
 -2       217       216       370      1438      1898      1899
 -1       577    8    0    1
 -2       216       369       370      1896      1900      1898
 -1       578    8    0    1
 -2       218       217       371      1441      1901      1902
 -1       579    8    0    1
 -2       217       370       371      1899      1903      1901
 -1       580    8    0    1
 -2       219       218       372      1444      1904      1905
 -1       581    8    0    1
 -2       218       371       372      1902      1906      1904
 -1       582    8    0    1
 -2       220       219       373      1447      1907      1908
 -1       583    8    0    1
 -2       219       372       373      1905      1909      1907
 -1       584    8    0    1
 -2       221       220       374      1450      1910      1911
 -1       585    8    0    1
 -2       220       373       374      1908      1912      1910
 -1       586    8    0    1
 -2       222       221       375      1453      1913      1914
 -1       587    8    0    1
 -2       221       374       375      1911      1915      1913
 -1       588    8    0    1
 -2       223       222       376      1456      1916      1917
 -1       589    8    0    1
 -2       222       375       376      1914      1918      1916
 -1       590    8    0    1
 -2       224       223       377      1459      1919      1920
 -1       591    8    0    1
 -2       223       376       377      1917      1921      1919
 -1       592    8    0    1
 -2       225       224       378      1462      1922      1923
 -1       593    8    0    1
 -2       224       377       378      1920      1924      1922
 -1       594    8    0    1
 -2       226       225       379      1465      1925      1926
 -1       595    8    0    1
 -2       225       378       379      1923      1927      1925
 -1       596    8    0    1
 -2       227       226       380      1468      1928      1929
 -1       597    8    0    1
 -2       226       379       380      1926      1930      1928
 -1       598    8    0    1
 -2       228       227       381      1471      1931      1932
 -1       599    8    0    1
 -2       227       380       381      1929      1933      1931
 -1       600    8    0    1
 -2       229       228       292      1475      1934      1665
 -1       601    8    0    1
 -2       232       233       382      1487      1935      1936
 -1       602    8    0    1
 -2       233       234       383      1490      1937      1938
 -1       603    8    0    1
 -2       233       383       382      1938      1939      1935
 -1       604    8    0    1
 -2       234       235       384      1493      1940      1941
 -1       605    8    0    1
 -2       234       384       383      1941      1942      1937
 -1       606    8    0    1
 -2       235       236       385      1496      1943      1944
 -1       607    8    0    1
 -2       235       385       384      1944      1945      1940
 -1       608    8    0    1
 -2       236       237       386      1499      1946      1947
 -1       609    8    0    1
 -2       236       386       385      1947      1948      1943
 -1       610    8    0    1
 -2       237       238       387      1502      1949      1950
 -1       611    8    0    1
 -2       237       387       386      1950      1951      1946
 -1       612    8    0    1
 -2       238       239       388      1505      1952      1953
 -1       613    8    0    1
 -2       238       388       387      1953      1954      1949
 -1       614    8    0    1
 -2       239       240       389      1508      1955      1956
 -1       615    8    0    1
 -2       239       389       388      1956      1957      1952
 -1       616    8    0    1
 -2       240       241       390      1511      1958      1959
 -1       617    8    0    1
 -2       240       390       389      1959      1960      1955
 -1       618    8    0    1
 -2       241       242       391      1514      1961      1962
 -1       619    8    0    1
 -2       241       391       390      1962      1963      1958
 -1       620    8    0    1
 -2       242       243       392      1517      1964      1965
 -1       621    8    0    1
 -2       242       392       391      1965      1966      1961
 -1       622    8    0    1
 -2       243       244       393      1520      1967      1968
 -1       623    8    0    1
 -2       243       393       392      1968      1969      1964
 -1       624    8    0    1
 -2       244       245       394      1523      1970      1971
 -1       625    8    0    1
 -2       244       394       393      1971      1972      1967
 -1       626    8    0    1
 -2       245       246       395      1526      1973      1974
 -1       627    8    0    1
 -2       245       395       394      1974      1975      1970
 -1       628    8    0    1
 -2       246       247       396      1529      1976      1977
 -1       629    8    0    1
 -2       246       396       395      1977      1978      1973
 -1       630    8    0    1
 -2       247       248       397      1532      1979      1980
 -1       631    8    0    1
 -2       247       397       396      1980      1981      1976
 -1       632    8    0    1
 -2       248       249       398      1535      1982      1983
 -1       633    8    0    1
 -2       248       398       397      1983      1984      1979
 -1       634    8    0    1
 -2       249       250       399      1538      1985      1986
 -1       635    8    0    1
 -2       249       399       398      1986      1987      1982
 -1       636    8    0    1
 -2       250       251       400      1541      1988      1989
 -1       637    8    0    1
 -2       250       400       399      1989      1990      1985
 -1       638    8    0    1
 -2       251       252       401      1544      1991      1992
 -1       639    8    0    1
 -2       251       401       400      1992      1993      1988
 -1       640    8    0    1
 -2       252       253       402      1547      1994      1995
 -1       641    8    0    1
 -2       252       402       401      1995      1996      1991
 -1       642    8    0    1
 -2       253       254       403      1550      1997      1998
 -1       643    8    0    1
 -2       253       403       402      1998      1999      1994
 -1       644    8    0    1
 -2       254       255       404      1553      2000      2001
 -1       645    8    0    1
 -2       254       404       403      2001      2002      1997
 -1       646    8    0    1
 -2       255       256       405      1556      2003      2004
 -1       647    8    0    1
 -2       255       405       404      2004      2005      2000
 -1       648    8    0    1
 -2       256       257       406      1559      2006      2007
 -1       649    8    0    1
 -2       256       406       405      2007      2008      2003
 -1       650    8    0    1
 -2       257       258       407      1562      2009      2010
 -1       651    8    0    1
 -2       257       407       406      2010      2011      2006
 -1       652    8    0    1
 -2       258       259       408      1565      2012      2013
 -1       653    8    0    1
 -2       258       408       407      2013      2014      2009
 -1       654    8    0    1
 -2       259       260       409      1568      2015      2016
 -1       655    8    0    1
 -2       259       409       408      2016      2017      2012
 -1       656    8    0    1
 -2       260       261       410      1571      2018      2019
 -1       657    8    0    1
 -2       260       410       409      2019      2020      2015
 -1       658    8    0    1
 -2       261       262       411      1574      2021      2022
 -1       659    8    0    1
 -2       261       411       410      2022      2023      2018
 -1       660    8    0    1
 -2       262       263       412      1577      2024      2025
 -1       661    8    0    1
 -2       262       412       411      2025      2026      2021
 -1       662    8    0    1
 -2       263       264       413      1580      2027      2028
 -1       663    8    0    1
 -2       263       413       412      2028      2029      2024
 -1       664    8    0    1
 -2       264       265       414      1583      2030      2031
 -1       665    8    0    1
 -2       264       414       413      2031      2032      2027
 -1       666    8    0    1
 -2       265       266       415      1586      2033      2034
 -1       667    8    0    1
 -2       265       415       414      2034      2035      2030
 -1       668    8    0    1
 -2       266       267       416      1589      2036      2037
 -1       669    8    0    1
 -2       266       416       415      2037      2038      2033
 -1       670    8    0    1
 -2       267       268       417      1592      2039      2040
 -1       671    8    0    1
 -2       267       417       416      2040      2041      2036
 -1       672    8    0    1
 -2       268       269       418      1595      2042      2043
 -1       673    8    0    1
 -2       268       418       417      2043      2044      2039
 -1       674    8    0    1
 -2       269       270       419      1598      2045      2046
 -1       675    8    0    1
 -2       269       419       418      2046      2047      2042
 -1       676    8    0    1
 -2       270       271       420      1601      2048      2049
 -1       677    8    0    1
 -2       270       420       419      2049      2050      2045
 -1       678    8    0    1
 -2       271       272       421      1604      2051      2052
 -1       679    8    0    1
 -2       271       421       420      2052      2053      2048
 -1       680    8    0    1
 -2       272       273       422      1607      2054      2055
 -1       681    8    0    1
 -2       272       422       421      2055      2056      2051
 -1       682    8    0    1
 -2       273       274       423      1610      2057      2058
 -1       683    8    0    1
 -2       273       423       422      2058      2059      2054
 -1       684    8    0    1
 -2       274       275       424      1613      2060      2061
 -1       685    8    0    1
 -2       274       424       423      2061      2062      2057
 -1       686    8    0    1
 -2       275       276       425      1616      2063      2064
 -1       687    8    0    1
 -2       275       425       424      2064      2065      2060
 -1       688    8    0    1
 -2       276       277       426      1619      2066      2067
 -1       689    8    0    1
 -2       425       276       426      2063      2067      2068
 -1       690    8    0    1
 -2       277       278       426      1731      2069      2066
 -1       691    8    0    1
 -2       280       281       427      1631      2070      2071
 -1       692    8    0    1
 -2       279       280       428      1628      2072      2073
 -1       693    8    0    1
 -2       280       427       428      2071      2074      2072
 -1       694    8    0    1
 -2       278       279       426      1625      2075      2069
 -1       695    8    0    1
 -2       281       282       429      1634      2076      2077
 -1       696    8    0    1
 -2       281       429       427      2077      2078      2070
 -1       697    8    0    1
 -2       282       283       430      1637      2079      2080
 -1       698    8    0    1
 -2       282       430       429      2080      2081      2076
 -1       699    8    0    1
 -2       283       284       431      1640      2082      2083
 -1       700    8    0    1
 -2       283       431       430      2083      2084      2079
 -1       701    8    0    1
 -2       284       285       432      1643      2085      2086
 -1       702    8    0    1
 -2       284       432       431      2086      2087      2082
 -1       703    8    0    1
 -2       285       286       433      1646      2088      2089
 -1       704    8    0    1
 -2       285       433       432      2089      2090      2085
 -1       705    8    0    1
 -2       286       287       434      1649      2091      2092
 -1       706    8    0    1
 -2       286       434       433      2092      2093      2088
 -1       707    8    0    1
 -2       287       288       435      1652      2094      2095
 -1       708    8    0    1
 -2       287       435       434      2095      2096      2091
 -1       709    8    0    1
 -2       288       289       436      1655      2097      2098
 -1       710    8    0    1
 -2       288       436       435      2098      2099      2094
 -1       711    8    0    1
 -2       289       290       437      1658      2100      2101
 -1       712    8    0    1
 -2       289       437       436      2101      2102      2097
 -1       713    8    0    1
 -2       290       291       438      1661      2103      2104
 -1       714    8    0    1
 -2       290       438       437      2104      2105      2100
 -1       715    8    0    1
 -2       231       232       439      1484      2106      2107
 -1       716    8    0    1
 -2       337       231       439      1800      2107      2108
 -1       717    8    0    1
 -2       232       382       439      1936      2109      2106
 -1       718    8    0    1
 -2       294       295       440      1733      2110      2111
 -1       719    8    0    1
 -2       296       297       441      1734      2112      2113
 -1       720    8    0    1
 -2       321       293       442      1729      2114      2115
 -1       721    8    0    1
 -2       167       168       443      1292      2116      2117
 -1       722    8    0    1
 -2       167       443       323      2117      2118      1760
 -1       723    8    0    1
 -2       297       298       444      1735      2119      2120
 -1       724    8    0    1
 -2       298       299       445      1736      2121      2122
 -1       725    8    0    1
 -2       299       300       446      1737      2123      2124
 -1       726    8    0    1
 -2       300       301       447      1738      2125      2126
 -1       727    8    0    1
 -2       300       447       446      2126      2127      2123
 -1       728    8    0    1
 -2       301       302       448      1739      2128      2129
 -1       729    8    0    1
 -2       302       303       449      1740      2130      2131
 -1       730    8    0    1
 -2       303       304       450      1741      2132      2133
 -1       731    8    0    1
 -2       304       305       451      1742      2134      2135
 -1       732    8    0    1
 -2       305       306       452      1743      2136      2137
 -1       733    8    0    1
 -2       306       307       453      1744      2138      2139
 -1       734    8    0    1
 -2       307       308       454      1745      2140      2141
 -1       735    8    0    1
 -2       308       309       455      1746      2142      2143
 -1       736    8    0    1
 -2       309       310       456      1747      2144      2145
 -1       737    8    0    1
 -2       310       311       457      1748      2146      2147
 -1       738    8    0    1
 -2       311       312       339      1749      2148      2149
 -1       739    8    0    1
 -2       312       313       458      1750      2150      2151
 -1       740    8    0    1
 -2       313       314       322      1751      1803      2152
 -1       741    8    0    1
 -2       314       315       185      1752      2153      1804
 -1       742    8    0    1
 -2       316       317       340      1754      2154      2155
 -1       743    8    0    1
 -2       317       318       459      1755      2156      2157
 -1       744    8    0    1
 -2       318       319       460      1756      2158      2159
 -1       745    8    0    1
 -2       319       320       461      1757      2160      2161
 -1       746    8    0    1
 -2       320       321       462      1758      2162      2163
 -1       747    8    0    1
 -2       293       294       463      1732      2164      2165
 -1       748    8    0    1
 -2       295       296       464      1728      2166      2167
 -1       749    8    0    1
 -2       295       464       440      2167      2168      2110
 -1       750    8    0    1
 -2       187       340       341      1811      2169      1812
 -1       751    8    0    1
 -2       325       169       326      1765      1768      2170
 -1       752    8    0    1
 -2       170       327       326      1770      2171      1767
 -1       753    8    0    1
 -2       339       183       338      1807      1806      2172
 -1       754    8    0    1
 -2       185       315       186      2153      2173      1345
 -1       755    8    0    1
 -2       182       181       324      1334      1809      2174
 -1       756    8    0    1
 -2       168       325       443      1766      2175      2116
 -1       757    8    0    1
 -2       186       315       340      2173      2176      1810
 -1       758    8    0    1
 -2       228       381       292      1932      2177      1934
 -1       759    8    0    1
 -2       426       279       428      2075      2073      2178
 -1       760    8    0    1
 -2       442       293       463      2114      2165      2179
 -1       761    8    0    1
 -2       291       292       465      1664      2180      2181
 -1       762    8    0    1
 -2       438       291       465      2103      2181      2182
 -1       763    8    0    1
 -2       292       381       465      2177      2183      2180
 -1       764    8    0    1
 -2       294       440       463      2111      2184      2164
 -1       765    8    0    1
 -2       464       296       466      2166      2185      2186
 -1       766    8    0    1
 -2       296       441       466      2113      2187      2185
 -1       767    8    0    1
 -2       441       297       444      2112      2120      2188
 -1       768    8    0    1
 -2       321       442       462      2115      2189      2162
 -1       769    8    0    1
 -2       461       320       462      2160      2163      2190
 -1       770    8    0    1
 -2       460       319       461      2158      2161      2191
 -1       771    8    0    1
 -2       339       312       458      2148      2151      2192
 -1       772    8    0    1
 -2       457       311       339      2146      2149      2193
 -1       773    8    0    1
 -2       456       310       457      2144      2147      2194
 -1       774    8    0    1
 -2       455       309       456      2142      2145      2195
 -1       775    8    0    1
 -2       454       308       455      2140      2143      2196
 -1       776    8    0    1
 -2       453       307       454      2138      2141      2197
 -1       777    8    0    1
 -2       452       306       453      2136      2139      2198
 -1       778    8    0    1
 -2       451       305       452      2134      2137      2199
 -1       779    8    0    1
 -2       450       304       451      2132      2135      2200
 -1       780    8    0    1
 -2       449       303       450      2130      2133      2201
 -1       781    8    0    1
 -2       447       301       467      2125      2202      2203
 -1       782    8    0    1
 -2       301       448       467      2129      2204      2202
 -1       783    8    0    1
 -2       445       299       446      2121      2124      2205
 -1       784    8    0    1
 -2       444       298       445      2119      2122      2206
 -1       785    8    0    1
 -2       182       324       338      2174      2207      1805
 -1       786    8    0    1
 -2       448       302       449      2128      2131      2208
 -1       787    8    0    1
 -2       313       322       458      2152      2209      2150
 -1       788    8    0    1
 -2       459       318       460      2156      2159      2210
 -1       789    8    0    1
 -2       322       184       458      1724      2211      2209
 -1       790    8    0    1
 -2       458       184       339      2211      1808      2192
 -1       791    8    0    1
 -2       326       327       468      2171      2212      2213
 -1       792    8    0    1
 -2       327       328       469      1773      2214      2215
 -1       793    8    0    1
 -2       330       331       470      1782      2216      2217
 -1       794    8    0    1
 -2       331       332       471      1785      2218      2219
 -1       795    8    0    1
 -2       331       471       470      2219      2220      2216
 -1       796    8    0    1
 -2       332       333       472      1788      2221      2222
 -1       797    8    0    1
 -2       332       472       471      2222      2223      2218
 -1       798    8    0    1
 -2       333       334       473      1791      2224      2225
 -1       799    8    0    1
 -2       333       473       472      2225      2226      2221
 -1       800    8    0    1
 -2       334       335       474      1794      2227      2228
 -1       801    8    0    1
 -2       334       474       473      2228      2229      2224
 -1       802    8    0    1
 -2       335       336       475      1797      2230      2231
 -1       803    8    0    1
 -2       474       335       475      2227      2231      2232
 -1       804    8    0    1
 -2       336       337       475      1802      2233      2230
 -1       805    8    0    1
 -2       448       449       476      2208      2234      2235
 -1       806    8    0    1
 -2       463       440       477      2184      2236      2237
 -1       807    8    0    1
 -2       426       428       425      2178      2238      2068
 -1       808    8    0    1
 -2       343       342       478      1819      2239      2240
 -1       809    8    0    1
 -2       344       343       479      1822      2241      2242
 -1       810    8    0    1
 -2       343       478       479      2240      2243      2241
 -1       811    8    0    1
 -2       345       344       480      1825      2244      2245
 -1       812    8    0    1
 -2       344       479       480      2242      2246      2244
 -1       813    8    0    1
 -2       346       345       481      1828      2247      2248
 -1       814    8    0    1
 -2       345       480       481      2245      2249      2247
 -1       815    8    0    1
 -2       347       346       482      1831      2250      2251
 -1       816    8    0    1
 -2       346       481       482      2248      2252      2250
 -1       817    8    0    1
 -2       348       347       483      1834      2253      2254
 -1       818    8    0    1
 -2       347       482       483      2251      2255      2253
 -1       819    8    0    1
 -2       349       348       484      1837      2256      2257
 -1       820    8    0    1
 -2       348       483       484      2254      2258      2256
 -1       821    8    0    1
 -2       350       349       485      1840      2259      2260
 -1       822    8    0    1
 -2       349       484       485      2257      2261      2259
 -1       823    8    0    1
 -2       351       350       486      1843      2262      2263
 -1       824    8    0    1
 -2       350       485       486      2260      2264      2262
 -1       825    8    0    1
 -2       352       351       487      1846      2265      2266
 -1       826    8    0    1
 -2       351       486       487      2263      2267      2265
 -1       827    8    0    1
 -2       353       352       488      1849      2268      2269
 -1       828    8    0    1
 -2       352       487       488      2266      2270      2268
 -1       829    8    0    1
 -2       354       353       489      1852      2271      2272
 -1       830    8    0    1
 -2       353       488       489      2269      2273      2271
 -1       831    8    0    1
 -2       355       354       490      1855      2274      2275
 -1       832    8    0    1
 -2       354       489       490      2272      2276      2274
 -1       833    8    0    1
 -2       356       355       491      1858      2277      2278
 -1       834    8    0    1
 -2       355       490       491      2275      2279      2277
 -1       835    8    0    1
 -2       357       356       492      1861      2280      2281
 -1       836    8    0    1
 -2       356       491       492      2278      2282      2280
 -1       837    8    0    1
 -2       358       357       493      1864      2283      2284
 -1       838    8    0    1
 -2       357       492       493      2281      2285      2283
 -1       839    8    0    1
 -2       359       358       494      1867      2286      2287
 -1       840    8    0    1
 -2       358       493       494      2284      2288      2286
 -1       841    8    0    1
 -2       360       359       495      1870      2289      2290
 -1       842    8    0    1
 -2       359       494       495      2287      2291      2289
 -1       843    8    0    1
 -2       361       360       496      1873      2292      2293
 -1       844    8    0    1
 -2       360       495       496      2290      2294      2292
 -1       845    8    0    1
 -2       362       361       497      1876      2295      2296
 -1       846    8    0    1
 -2       361       496       497      2293      2297      2295
 -1       847    8    0    1
 -2       363       362       498      1879      2298      2299
 -1       848    8    0    1
 -2       362       497       498      2296      2300      2298
 -1       849    8    0    1
 -2       364       363       499      1882      2301      2302
 -1       850    8    0    1
 -2       363       498       499      2299      2303      2301
 -1       851    8    0    1
 -2       365       364       500      1885      2304      2305
 -1       852    8    0    1
 -2       364       499       500      2302      2306      2304
 -1       853    8    0    1
 -2       366       365       501      1888      2307      2308
 -1       854    8    0    1
 -2       365       500       501      2305      2309      2307
 -1       855    8    0    1
 -2       367       366       502      1891      2310      2311
 -1       856    8    0    1
 -2       366       501       502      2308      2312      2310
 -1       857    8    0    1
 -2       368       367       503      1894      2313      2314
 -1       858    8    0    1
 -2       367       502       503      2311      2315      2313
 -1       859    8    0    1
 -2       369       368       504      1897      2316      2317
 -1       860    8    0    1
 -2       368       503       504      2314      2318      2316
 -1       861    8    0    1
 -2       370       369       505      1900      2319      2320
 -1       862    8    0    1
 -2       369       504       505      2317      2321      2319
 -1       863    8    0    1
 -2       371       370       506      1903      2322      2323
 -1       864    8    0    1
 -2       370       505       506      2320      2324      2322
 -1       865    8    0    1
 -2       372       371       507      1906      2325      2326
 -1       866    8    0    1
 -2       371       506       507      2323      2327      2325
 -1       867    8    0    1
 -2       373       372       508      1909      2328      2329
 -1       868    8    0    1
 -2       372       507       508      2326      2330      2328
 -1       869    8    0    1
 -2       374       373       509      1912      2331      2332
 -1       870    8    0    1
 -2       373       508       509      2329      2333      2331
 -1       871    8    0    1
 -2       375       374       510      1915      2334      2335
 -1       872    8    0    1
 -2       374       509       510      2332      2336      2334
 -1       873    8    0    1
 -2       376       375       511      1918      2337      2338
 -1       874    8    0    1
 -2       375       510       511      2335      2339      2337
 -1       875    8    0    1
 -2       377       376       512      1921      2340      2341
 -1       876    8    0    1
 -2       376       511       512      2338      2342      2340
 -1       877    8    0    1
 -2       378       377       513      1924      2343      2344
 -1       878    8    0    1
 -2       377       512       513      2341      2345      2343
 -1       879    8    0    1
 -2       379       378       514      1927      2346      2347
 -1       880    8    0    1
 -2       378       513       514      2344      2348      2346
 -1       881    8    0    1
 -2       380       379       515      1930      2349      2350
 -1       882    8    0    1
 -2       379       514       515      2347      2351      2349
 -1       883    8    0    1
 -2       381       380       516      1933      2352      2353
 -1       884    8    0    1
 -2       465       381       516      2183      2353      2354
 -1       885    8    0    1
 -2       380       515       516      2350      2355      2352
 -1       886    8    0    1
 -2       384       385       517      1945      2356      2357
 -1       887    8    0    1
 -2       383       384       518      1942      2358      2359
 -1       888    8    0    1
 -2       384       517       518      2357      2360      2358
 -1       889    8    0    1
 -2       382       383       519      1939      2361      2362
 -1       890    8    0    1
 -2       383       518       519      2359      2363      2361
 -1       891    8    0    1
 -2       385       386       520      1948      2364      2365
 -1       892    8    0    1
 -2       385       520       517      2365      2366      2356
 -1       893    8    0    1
 -2       386       387       521      1951      2367      2368
 -1       894    8    0    1
 -2       386       521       520      2368      2369      2364
 -1       895    8    0    1
 -2       387       388       522      1954      2370      2371
 -1       896    8    0    1
 -2       387       522       521      2371      2372      2367
 -1       897    8    0    1
 -2       388       389       523      1957      2373      2374
 -1       898    8    0    1
 -2       388       523       522      2374      2375      2370
 -1       899    8    0    1
 -2       389       390       524      1960      2376      2377
 -1       900    8    0    1
 -2       389       524       523      2377      2378      2373
 -1       901    8    0    1
 -2       390       391       525      1963      2379      2380
 -1       902    8    0    1
 -2       390       525       524      2380      2381      2376
 -1       903    8    0    1
 -2       391       392       526      1966      2382      2383
 -1       904    8    0    1
 -2       391       526       525      2383      2384      2379
 -1       905    8    0    1
 -2       392       393       527      1969      2385      2386
 -1       906    8    0    1
 -2       392       527       526      2386      2387      2382
 -1       907    8    0    1
 -2       393       394       528      1972      2388      2389
 -1       908    8    0    1
 -2       393       528       527      2389      2390      2385
 -1       909    8    0    1
 -2       394       395       529      1975      2391      2392
 -1       910    8    0    1
 -2       394       529       528      2392      2393      2388
 -1       911    8    0    1
 -2       395       396       530      1978      2394      2395
 -1       912    8    0    1
 -2       395       530       529      2395      2396      2391
 -1       913    8    0    1
 -2       396       397       531      1981      2397      2398
 -1       914    8    0    1
 -2       396       531       530      2398      2399      2394
 -1       915    8    0    1
 -2       397       398       532      1984      2400      2401
 -1       916    8    0    1
 -2       397       532       531      2401      2402      2397
 -1       917    8    0    1
 -2       398       399       533      1987      2403      2404
 -1       918    8    0    1
 -2       398       533       532      2404      2405      2400
 -1       919    8    0    1
 -2       399       400       534      1990      2406      2407
 -1       920    8    0    1
 -2       399       534       533      2407      2408      2403
 -1       921    8    0    1
 -2       400       401       535      1993      2409      2410
 -1       922    8    0    1
 -2       400       535       534      2410      2411      2406
 -1       923    8    0    1
 -2       401       402       536      1996      2412      2413
 -1       924    8    0    1
 -2       401       536       535      2413      2414      2409
 -1       925    8    0    1
 -2       402       403       537      1999      2415      2416
 -1       926    8    0    1
 -2       402       537       536      2416      2417      2412
 -1       927    8    0    1
 -2       403       404       538      2002      2418      2419
 -1       928    8    0    1
 -2       403       538       537      2419      2420      2415
 -1       929    8    0    1
 -2       404       405       539      2005      2421      2422
 -1       930    8    0    1
 -2       404       539       538      2422      2423      2418
 -1       931    8    0    1
 -2       405       406       540      2008      2424      2425
 -1       932    8    0    1
 -2       405       540       539      2425      2426      2421
 -1       933    8    0    1
 -2       406       407       541      2011      2427      2428
 -1       934    8    0    1
 -2       406       541       540      2428      2429      2424
 -1       935    8    0    1
 -2       407       408       542      2014      2430      2431
 -1       936    8    0    1
 -2       407       542       541      2431      2432      2427
 -1       937    8    0    1
 -2       408       409       543      2017      2433      2434
 -1       938    8    0    1
 -2       408       543       542      2434      2435      2430
 -1       939    8    0    1
 -2       409       410       544      2020      2436      2437
 -1       940    8    0    1
 -2       409       544       543      2437      2438      2433
 -1       941    8    0    1
 -2       410       411       545      2023      2439      2440
 -1       942    8    0    1
 -2       410       545       544      2440      2441      2436
 -1       943    8    0    1
 -2       411       412       546      2026      2442      2443
 -1       944    8    0    1
 -2       411       546       545      2443      2444      2439
 -1       945    8    0    1
 -2       412       413       547      2029      2445      2446
 -1       946    8    0    1
 -2       412       547       546      2446      2447      2442
 -1       947    8    0    1
 -2       413       414       548      2032      2448      2449
 -1       948    8    0    1
 -2       413       548       547      2449      2450      2445
 -1       949    8    0    1
 -2       414       415       549      2035      2451      2452
 -1       950    8    0    1
 -2       414       549       548      2452      2453      2448
 -1       951    8    0    1
 -2       415       416       550      2038      2454      2455
 -1       952    8    0    1
 -2       415       550       549      2455      2456      2451
 -1       953    8    0    1
 -2       416       417       551      2041      2457      2458
 -1       954    8    0    1
 -2       416       551       550      2458      2459      2454
 -1       955    8    0    1
 -2       417       418       552      2044      2460      2461
 -1       956    8    0    1
 -2       417       552       551      2461      2462      2457
 -1       957    8    0    1
 -2       418       419       553      2047      2463      2464
 -1       958    8    0    1
 -2       418       553       552      2464      2465      2460
 -1       959    8    0    1
 -2       419       420       554      2050      2466      2467
 -1       960    8    0    1
 -2       419       554       553      2467      2468      2463
 -1       961    8    0    1
 -2       420       421       555      2053      2469      2470
 -1       962    8    0    1
 -2       420       555       554      2470      2471      2466
 -1       963    8    0    1
 -2       421       422       556      2056      2472      2473
 -1       964    8    0    1
 -2       421       556       555      2473      2474      2469
 -1       965    8    0    1
 -2       422       423       557      2059      2475      2476
 -1       966    8    0    1
 -2       422       557       556      2476      2477      2472
 -1       967    8    0    1
 -2       423       424       558      2062      2478      2479
 -1       968    8    0    1
 -2       423       558       557      2479      2480      2475
 -1       969    8    0    1
 -2       424       425       559      2065      2481      2482
 -1       970    8    0    1
 -2       424       559       558      2482      2483      2478
 -1       971    8    0    1
 -2       429       430       560      2081      2484      2485
 -1       972    8    0    1
 -2       427       429       561      2078      2486      2487
 -1       973    8    0    1
 -2       429       560       561      2485      2488      2486
 -1       974    8    0    1
 -2       428       427       562      2074      2489      2490
 -1       975    8    0    1
 -2       427       561       562      2487      2491      2489
 -1       976    8    0    1
 -2       442       463       563      2179      2492      2493
 -1       977    8    0    1
 -2       430       431       564      2084      2494      2495
 -1       978    8    0    1
 -2       430       564       560      2495      2496      2484
 -1       979    8    0    1
 -2       431       432       565      2087      2497      2498
 -1       980    8    0    1
 -2       431       565       564      2498      2499      2494
 -1       981    8    0    1
 -2       432       433       566      2090      2500      2501
 -1       982    8    0    1
 -2       432       566       565      2501      2502      2497
 -1       983    8    0    1
 -2       433       434       567      2093      2503      2504
 -1       984    8    0    1
 -2       433       567       566      2504      2505      2500
 -1       985    8    0    1
 -2       434       435       568      2096      2506      2507
 -1       986    8    0    1
 -2       434       568       567      2507      2508      2503
 -1       987    8    0    1
 -2       435       436       569      2099      2509      2510
 -1       988    8    0    1
 -2       435       569       568      2510      2511      2506
 -1       989    8    0    1
 -2       436       437       570      2102      2512      2513
 -1       990    8    0    1
 -2       436       570       569      2513      2514      2509
 -1       991    8    0    1
 -2       437       438       571      2105      2515      2516
 -1       992    8    0    1
 -2       437       571       570      2516      2517      2512
 -1       993    8    0    1
 -2       441       444       572      2188      2518      2519
 -1       994    8    0    1
 -2       461       462       573      2190      2520      2521
 -1       995    8    0    1
 -2       445       446       574      2205      2522      2523
 -1       996    8    0    1
 -2       325       326       575      2170      2524      2525
 -1       997    8    0    1
 -2       329       330       576      1779      2526      2527
 -1       998    8    0    1
 -2       330       470       576      2217      2528      2526
 -1       999    8    0    1
 -2       328       329       577      1776      2529      2530
 -1      1000    8    0    1
 -2       329       576       577      2527      2531      2529
 -1      1001    8    0    1
 -2       339       338       457      2172      2532      2193
 -1      1002    8    0    1
 -2       462       442       578      2189      2533      2534
 -1      1003    8    0    1
 -2       442       563       578      2493      2535      2533
 -1      1004    8    0    1
 -2       338       324       579      2207      2536      2537
 -1      1005    8    0    1
 -2       444       445       580      2206      2538      2539
 -1      1006    8    0    1
 -2       446       447       581      2127      2540      2541
 -1      1007    8    0    1
 -2       449       450       582      2201      2542      2543
 -1      1008    8    0    1
 -2       450       451       468      2200      2544      2545
 -1      1009    8    0    1
 -2       452       453       575      2198      2546      2547
 -1      1010    8    0    1
 -2       454       455       583      2196      2548      2549
 -1      1011    8    0    1
 -2       455       456       579      2195      2550      2551
 -1      1012    8    0    1
 -2       456       457       338      2194      2532      2552
 -1      1013    8    0    1
 -2       340       317       459      2154      2157      2553
 -1      1014    8    0    1
 -2       460       461       584      2191      2554      2555
 -1      1015    8    0    1
 -2       440       464       585      2168      2556      2557
 -1      1016    8    0    1
 -2       425       428       559      2238      2558      2481
 -1      1017    8    0    1
 -2       456       338       579      2552      2537      2550
 -1      1018    8    0    1
 -2       327       469       468      2215      2559      2212
 -1      1019    8    0    1
 -2       328       577       469      2530      2560      2214
 -1      1020    8    0    1
 -2       476       449       582      2234      2543      2561
 -1      1021    8    0    1
 -2       475       337       586      2233      2562      2563
 -1      1022    8    0    1
 -2       337       439       586      2108      2564      2562
 -1      1023    8    0    1
 -2       477       440       585      2236      2557      2565
 -1      1024    8    0    1
 -2       463       477       587      2237      2566      2567
 -1      1025    8    0    1
 -2       463       587       563      2567      2568      2492
 -1      1026    8    0    1
 -2       341       340       459      2169      2553      2569
 -1      1027    8    0    1
 -2       443       325       588      2175      2570      2571
 -1      1028    8    0    1
 -2       478       342       584      2239      2572      2573
 -1      1029    8    0    1
 -2       428       562       559      2490      2574      2558
 -1      1030    8    0    1
 -2       341       459       460      2569      2210      2575
 -1      1031    8    0    1
 -2       441       572       589      2519      2576      2577
 -1      1032    8    0    1
 -2       441       589       466      2577      2578      2187
 -1      1033    8    0    1
 -2       572       444       580      2518      2539      2579
 -1      1034    8    0    1
 -2       439       382       590      2109      2580      2581
 -1      1035    8    0    1
 -2       586       439       590      2564      2581      2582
 -1      1036    8    0    1
 -2       382       519       590      2362      2583      2580
 -1      1037    8    0    1
 -2       461       573       584      2521      2584      2554
 -1      1038    8    0    1
 -2       323       443       583      2118      2585      2586
 -1      1039    8    0    1
 -2       464       466       591      2186      2587      2588
 -1      1040    8    0    1
 -2       464       591       585      2588      2589      2556
 -1      1041    8    0    1
 -2       445       574       580      2523      2590      2538
 -1      1042    8    0    1
 -2       583       455       579      2548      2551      2591
 -1      1043    8    0    1
 -2       581       447       592      2540      2592      2593
 -1      1044    8    0    1
 -2       447       467       592      2203      2594      2592
 -1      1045    8    0    1
 -2       467       448       593      2204      2595      2596
 -1      1046    8    0    1
 -2       448       476       593      2235      2597      2595
 -1      1047    8    0    1
 -2       575       326       468      2524      2213      2598
 -1      1048    8    0    1
 -2       342       341       584      1816      2599      2572
 -1      1049    8    0    1
 -2       324       323       579      1764      2600      2536
 -1      1050    8    0    1
 -2       574       446       581      2522      2541      2601
 -1      1051    8    0    1
 -2       573       462       578      2520      2534      2602
 -1      1052    8    0    1
 -2       451       452       575      2199      2547      2603
 -1      1053    8    0    1
 -2       454       583       443      2549      2585      2604
 -1      1054    8    0    1
 -2       453       454       588      2197      2605      2606
 -1      1055    8    0    1
 -2       451       575       468      2603      2598      2544
 -1      1056    8    0    1
 -2       323       583       579      2586      2591      2600
 -1      1057    8    0    1
 -2       315       316       340      1753      2155      2176
 -1      1058    8    0    1
 -2       460       584       341      2555      2599      2575
 -1      1059    8    0    1
 -2       438       465       516      2182      2354      2607
 -1      1060    8    0    1
 -2       438       516       571      2607      2608      2515
 -1      1061    8    0    1
 -2       454       443       588      2604      2571      2605
 -1      1062    8    0    1
 -2       470       471       594      2220      2609      2610
 -1      1063    8    0    1
 -2       474       475       595      2232      2611      2612
 -1      1064    8    0    1
 -2       475       586       595      2563      2613      2611
 -1      1065    8    0    1
 -2       588       325       575      2570      2525      2614
 -1      1066    8    0    1
 -2       469       577       582      2560      2615      2616
 -1      1067    8    0    1
 -2       478       584       573      2573      2584      2617
 -1      1068    8    0    1
 -2       559       562       596      2574      2618      2619
 -1      1069    8    0    1
 -2       559       596       558      2619      2620      2483
 -1      1070    8    0    1
 -2       480       479       597      2246      2621      2622
 -1      1071    8    0    1
 -2       481       480       598      2249      2623      2624
 -1      1072    8    0    1
 -2       480       597       598      2622      2625      2623
 -1      1073    8    0    1
 -2       482       481       599      2252      2626      2627
 -1      1074    8    0    1
 -2       481       598       599      2624      2628      2626
 -1      1075    8    0    1
 -2       483       482       600      2255      2629      2630
 -1      1076    8    0    1
 -2       482       599       600      2627      2631      2629
 -1      1077    8    0    1
 -2       484       483       601      2258      2632      2633
 -1      1078    8    0    1
 -2       483       600       601      2630      2634      2632
 -1      1079    8    0    1
 -2       485       484       602      2261      2635      2636
 -1      1080    8    0    1
 -2       484       601       602      2633      2637      2635
 -1      1081    8    0    1
 -2       486       485       603      2264      2638      2639
 -1      1082    8    0    1
 -2       485       602       603      2636      2640      2638
 -1      1083    8    0    1
 -2       487       486       604      2267      2641      2642
 -1      1084    8    0    1
 -2       486       603       604      2639      2643      2641
 -1      1085    8    0    1
 -2       488       487       605      2270      2644      2645
 -1      1086    8    0    1
 -2       487       604       605      2642      2646      2644
 -1      1087    8    0    1
 -2       489       488       606      2273      2647      2648
 -1      1088    8    0    1
 -2       488       605       606      2645      2649      2647
 -1      1089    8    0    1
 -2       490       489       607      2276      2650      2651
 -1      1090    8    0    1
 -2       489       606       607      2648      2652      2650
 -1      1091    8    0    1
 -2       491       490       608      2279      2653      2654
 -1      1092    8    0    1
 -2       490       607       608      2651      2655      2653
 -1      1093    8    0    1
 -2       492       491       609      2282      2656      2657
 -1      1094    8    0    1
 -2       491       608       609      2654      2658      2656
 -1      1095    8    0    1
 -2       493       492       610      2285      2659      2660
 -1      1096    8    0    1
 -2       492       609       610      2657      2661      2659
 -1      1097    8    0    1
 -2       494       493       611      2288      2662      2663
 -1      1098    8    0    1
 -2       493       610       611      2660      2664      2662
 -1      1099    8    0    1
 -2       495       494       612      2291      2665      2666
 -1      1100    8    0    1
 -2       494       611       612      2663      2667      2665
 -1      1101    8    0    1
 -2       496       495       613      2294      2668      2669
 -1      1102    8    0    1
 -2       495       612       613      2666      2670      2668
 -1      1103    8    0    1
 -2       497       496       614      2297      2671      2672
 -1      1104    8    0    1
 -2       496       613       614      2669      2673      2671
 -1      1105    8    0    1
 -2       498       497       615      2300      2674      2675
 -1      1106    8    0    1
 -2       497       614       615      2672      2676      2674
 -1      1107    8    0    1
 -2       499       498       616      2303      2677      2678
 -1      1108    8    0    1
 -2       498       615       616      2675      2679      2677
 -1      1109    8    0    1
 -2       500       499       617      2306      2680      2681
 -1      1110    8    0    1
 -2       499       616       617      2678      2682      2680
 -1      1111    8    0    1
 -2       501       500       618      2309      2683      2684
 -1      1112    8    0    1
 -2       500       617       618      2681      2685      2683
 -1      1113    8    0    1
 -2       502       501       619      2312      2686      2687
 -1      1114    8    0    1
 -2       501       618       619      2684      2688      2686
 -1      1115    8    0    1
 -2       503       502       620      2315      2689      2690
 -1      1116    8    0    1
 -2       502       619       620      2687      2691      2689
 -1      1117    8    0    1
 -2       504       503       621      2318      2692      2693
 -1      1118    8    0    1
 -2       503       620       621      2690      2694      2692
 -1      1119    8    0    1
 -2       505       504       622      2321      2695      2696
 -1      1120    8    0    1
 -2       504       621       622      2693      2697      2695
 -1      1121    8    0    1
 -2       506       505       623      2324      2698      2699
 -1      1122    8    0    1
 -2       505       622       623      2696      2700      2698
 -1      1123    8    0    1
 -2       507       506       624      2327      2701      2702
 -1      1124    8    0    1
 -2       506       623       624      2699      2703      2701
 -1      1125    8    0    1
 -2       508       507       625      2330      2704      2705
 -1      1126    8    0    1
 -2       507       624       625      2702      2706      2704
 -1      1127    8    0    1
 -2       509       508       626      2333      2707      2708
 -1      1128    8    0    1
 -2       508       625       626      2705      2709      2707
 -1      1129    8    0    1
 -2       510       509       627      2336      2710      2711
 -1      1130    8    0    1
 -2       509       626       627      2708      2712      2710
 -1      1131    8    0    1
 -2       511       510       628      2339      2713      2714
 -1      1132    8    0    1
 -2       510       627       628      2711      2715      2713
 -1      1133    8    0    1
 -2       512       511       629      2342      2716      2717
 -1      1134    8    0    1
 -2       511       628       629      2714      2718      2716
 -1      1135    8    0    1
 -2       513       512       630      2345      2719      2720
 -1      1136    8    0    1
 -2       512       629       630      2717      2721      2719
 -1      1137    8    0    1
 -2       514       513       631      2348      2722      2723
 -1      1138    8    0    1
 -2       513       630       631      2720      2724      2722
 -1      1139    8    0    1
 -2       515       514       632      2351      2725      2726
 -1      1140    8    0    1
 -2       514       631       632      2723      2727      2725
 -1      1141    8    0    1
 -2       516       515       571      2355      2728      2608
 -1      1142    8    0    1
 -2       518       517       633      2360      2729      2730
 -1      1143    8    0    1
 -2       517       520       634      2366      2731      2732
 -1      1144    8    0    1
 -2       517       634       633      2732      2733      2729
 -1      1145    8    0    1
 -2       519       518       635      2363      2734      2735
 -1      1146    8    0    1
 -2       518       633       635      2730      2736      2734
 -1      1147    8    0    1
 -2       521       522       636      2372      2737      2738
 -1      1148    8    0    1
 -2       522       523       637      2375      2739      2740
 -1      1149    8    0    1
 -2       522       637       636      2740      2741      2737
 -1      1150    8    0    1
 -2       523       524       638      2378      2742      2743
 -1      1151    8    0    1
 -2       523       638       637      2743      2744      2739
 -1      1152    8    0    1
 -2       524       525       639      2381      2745      2746
 -1      1153    8    0    1
 -2       524       639       638      2746      2747      2742
 -1      1154    8    0    1
 -2       525       526       640      2384      2748      2749
 -1      1155    8    0    1
 -2       525       640       639      2749      2750      2745
 -1      1156    8    0    1
 -2       526       527       641      2387      2751      2752
 -1      1157    8    0    1
 -2       526       641       640      2752      2753      2748
 -1      1158    8    0    1
 -2       527       528       642      2390      2754      2755
 -1      1159    8    0    1
 -2       527       642       641      2755      2756      2751
 -1      1160    8    0    1
 -2       528       529       643      2393      2757      2758
 -1      1161    8    0    1
 -2       528       643       642      2758      2759      2754
 -1      1162    8    0    1
 -2       529       530       644      2396      2760      2761
 -1      1163    8    0    1
 -2       529       644       643      2761      2762      2757
 -1      1164    8    0    1
 -2       530       531       645      2399      2763      2764
 -1      1165    8    0    1
 -2       530       645       644      2764      2765      2760
 -1      1166    8    0    1
 -2       531       532       646      2402      2766      2767
 -1      1167    8    0    1
 -2       531       646       645      2767      2768      2763
 -1      1168    8    0    1
 -2       532       533       647      2405      2769      2770
 -1      1169    8    0    1
 -2       532       647       646      2770      2771      2766
 -1      1170    8    0    1
 -2       533       534       648      2408      2772      2773
 -1      1171    8    0    1
 -2       533       648       647      2773      2774      2769
 -1      1172    8    0    1
 -2       534       535       649      2411      2775      2776
 -1      1173    8    0    1
 -2       534       649       648      2776      2777      2772
 -1      1174    8    0    1
 -2       535       536       650      2414      2778      2779
 -1      1175    8    0    1
 -2       535       650       649      2779      2780      2775
 -1      1176    8    0    1
 -2       536       537       651      2417      2781      2782
 -1      1177    8    0    1
 -2       536       651       650      2782      2783      2778
 -1      1178    8    0    1
 -2       537       538       652      2420      2784      2785
 -1      1179    8    0    1
 -2       537       652       651      2785      2786      2781
 -1      1180    8    0    1
 -2       538       539       653      2423      2787      2788
 -1      1181    8    0    1
 -2       538       653       652      2788      2789      2784
 -1      1182    8    0    1
 -2       539       540       654      2426      2790      2791
 -1      1183    8    0    1
 -2       539       654       653      2791      2792      2787
 -1      1184    8    0    1
 -2       540       541       655      2429      2793      2794
 -1      1185    8    0    1
 -2       540       655       654      2794      2795      2790
 -1      1186    8    0    1
 -2       541       542       656      2432      2796      2797
 -1      1187    8    0    1
 -2       541       656       655      2797      2798      2793
 -1      1188    8    0    1
 -2       542       543       657      2435      2799      2800
 -1      1189    8    0    1
 -2       542       657       656      2800      2801      2796
 -1      1190    8    0    1
 -2       543       544       658      2438      2802      2803
 -1      1191    8    0    1
 -2       543       658       657      2803      2804      2799
 -1      1192    8    0    1
 -2       544       545       659      2441      2805      2806
 -1      1193    8    0    1
 -2       544       659       658      2806      2807      2802
 -1      1194    8    0    1
 -2       545       546       660      2444      2808      2809
 -1      1195    8    0    1
 -2       545       660       659      2809      2810      2805
 -1      1196    8    0    1
 -2       546       547       661      2447      2811      2812
 -1      1197    8    0    1
 -2       546       661       660      2812      2813      2808
 -1      1198    8    0    1
 -2       547       548       662      2450      2814      2815
 -1      1199    8    0    1
 -2       547       662       661      2815      2816      2811
 -1      1200    8    0    1
 -2       548       549       663      2453      2817      2818
 -1      1201    8    0    1
 -2       548       663       662      2818      2819      2814
 -1      1202    8    0    1
 -2       549       550       664      2456      2820      2821
 -1      1203    8    0    1
 -2       549       664       663      2821      2822      2817
 -1      1204    8    0    1
 -2       550       551       665      2459      2823      2824
 -1      1205    8    0    1
 -2       550       665       664      2824      2825      2820
 -1      1206    8    0    1
 -2       551       552       666      2462      2826      2827
 -1      1207    8    0    1
 -2       551       666       665      2827      2828      2823
 -1      1208    8    0    1
 -2       552       553       667      2465      2829      2830
 -1      1209    8    0    1
 -2       552       667       666      2830      2831      2826
 -1      1210    8    0    1
 -2       553       554       668      2468      2832      2833
 -1      1211    8    0    1
 -2       553       668       667      2833      2834      2829
 -1      1212    8    0    1
 -2       554       555       669      2471      2835      2836
 -1      1213    8    0    1
 -2       554       669       668      2836      2837      2832
 -1      1214    8    0    1
 -2       555       556       670      2474      2838      2839
 -1      1215    8    0    1
 -2       555       670       669      2839      2840      2835
 -1      1216    8    0    1
 -2       556       557       671      2477      2841      2842
 -1      1217    8    0    1
 -2       556       671       670      2842      2843      2838
 -1      1218    8    0    1
 -2       557       558       672      2480      2844      2845
 -1      1219    8    0    1
 -2       671       557       672      2841      2845      2846
 -1      1220    8    0    1
 -2       558       596       672      2620      2847      2844
 -1      1221    8    0    1
 -2       571       515       632      2728      2726      2848
 -1      1222    8    0    1
 -2       564       565       673      2499      2849      2850
 -1      1223    8    0    1
 -2       562       561       596      2491      2851      2618
 -1      1224    8    0    1
 -2       560       564       674      2496      2852      2853
 -1      1225    8    0    1
 -2       564       673       674      2850      2854      2852
 -1      1226    8    0    1
 -2       520       521       675      2369      2855      2856
 -1      1227    8    0    1
 -2       634       520       675      2731      2856      2857
 -1      1228    8    0    1
 -2       521       636       675      2738      2858      2855
 -1      1229    8    0    1
 -2       566       567       676      2505      2859      2860
 -1      1230    8    0    1
 -2       567       568       677      2508      2861      2862
 -1      1231    8    0    1
 -2       567       677       676      2862      2863      2859
 -1      1232    8    0    1
 -2       568       569       678      2511      2864      2865
 -1      1233    8    0    1
 -2       568       678       677      2865      2866      2861
 -1      1234    8    0    1
 -2       569       570       679      2514      2867      2868
 -1      1235    8    0    1
 -2       569       679       678      2868      2869      2864
 -1      1236    8    0    1
 -2       570       571       680      2517      2870      2871
 -1      1237    8    0    1
 -2       679       570       680      2867      2871      2872
 -1      1238    8    0    1
 -2       571       632       680      2848      2873      2870
 -1      1239    8    0    1
 -2       477       585       681      2565      2874      2875
 -1      1240    8    0    1
 -2       572       580       682      2579      2876      2877
 -1      1241    8    0    1
 -2       582       450       683      2542      2878      2879
 -1      1242    8    0    1
 -2       576       470       684      2528      2880      2881
 -1      1243    8    0    1
 -2       470       594       684      2610      2882      2880
 -1      1244    8    0    1
 -2       577       576       685      2531      2883      2884
 -1      1245    8    0    1
 -2       576       684       685      2881      2885      2883
 -1      1246    8    0    1
 -2       578       563       686      2535      2886      2887
 -1      1247    8    0    1
 -2       574       581       687      2601      2888      2889
 -1      1248    8    0    1
 -2       573       578       688      2602      2890      2891
 -1      1249    8    0    1
 -2       565       566       689      2502      2892      2893
 -1      1250    8    0    1
 -2       566       676       689      2860      2894      2892
 -1      1251    8    0    1
 -2       471       472       690      2223      2895      2896
 -1      1252    8    0    1
 -2       471       690       594      2896      2897      2609
 -1      1253    8    0    1
 -2       580       574       691      2590      2898      2899
 -1      1254    8    0    1
 -2       561       560       692      2488      2900      2901
 -1      1255    8    0    1
 -2       560       674       692      2853      2902      2900
 -1      1256    8    0    1
 -2       472       473       693      2226      2903      2904
 -1      1257    8    0    1
 -2       472       693       690      2904      2905      2895
 -1      1258    8    0    1
 -2       474       595       473      2612      2906      2229
 -1      1259    8    0    1
 -2       591       466       694      2587      2907      2908
 -1      1260    8    0    1
 -2       466       589       694      2578      2909      2907
 -1      1261    8    0    1
 -2       587       477       695      2566      2910      2911
 -1      1262    8    0    1
 -2       477       681       695      2875      2912      2910
 -1      1263    8    0    1
 -2       582       577       696      2615      2913      2914
 -1      1264    8    0    1
 -2       478       573       697      2617      2915      2916
 -1      1265    8    0    1
 -2       597       479       697      2621      2917      2918
 -1      1266    8    0    1
 -2       582       696       476      2914      2919      2561
 -1      1267    8    0    1
 -2       519       635       698      2735      2920      2921
 -1      1268    8    0    1
 -2       673       565       689      2849      2893      2922
 -1      1269    8    0    1
 -2       596       561       692      2851      2901      2923
 -1      1270    8    0    1
 -2       589       572       699      2576      2924      2925
 -1      1271    8    0    1
 -2       572       682       699      2877      2926      2924
 -1      1272    8    0    1
 -2       681       585       700      2874      2927      2928
 -1      1273    8    0    1
 -2       585       591       700      2589      2929      2927
 -1      1274    8    0    1
 -2       682       580       691      2876      2899      2930
 -1      1275    8    0    1
 -2       590       519       698      2583      2921      2931
 -1      1276    8    0    1
 -2       453       588       575      2606      2614      2546
 -1      1277    8    0    1
 -2       592       467       701      2594      2932      2933
 -1      1278    8    0    1
 -2       467       593       701      2596      2934      2932
 -1      1279    8    0    1
 -2       578       686       702      2887      2935      2936
 -1      1280    8    0    1
 -2       578       702       688      2936      2937      2890
 -1      1281    8    0    1
 -2       593       476       696      2597      2919      2938
 -1      1282    8    0    1
 -2       697       479       478      2917      2243      2916
 -1      1283    8    0    1
 -2       686       563       587      2886      2568      2939
 -1      1284    8    0    1
 -2       574       687       691      2889      2940      2898
 -1      1285    8    0    1
 -2       473       595       693      2906      2941      2903
 -1      1286    8    0    1
 -2       577       685       696      2884      2942      2913
 -1      1287    8    0    1
 -2       581       592       703      2593      2943      2944
 -1      1288    8    0    1
 -2       581       703       687      2944      2945      2888
 -1      1289    8    0    1
 -2       598       597       704      2625      2946      2947
 -1      1290    8    0    1
 -2       686       587       705      2939      2948      2949
 -1      1291    8    0    1
 -2       690       693       706      2905      2950      2951
 -1      1292    8    0    1
 -2       698       635       707      2920      2952      2953
 -1      1293    8    0    1
 -2       599       598       708      2628      2954      2955
 -1      1294    8    0    1
 -2       600       599       709      2631      2956      2957
 -1      1295    8    0    1
 -2       599       708       709      2955      2958      2956
 -1      1296    8    0    1
 -2       601       600       710      2634      2959      2960
 -1      1297    8    0    1
 -2       600       709       710      2957      2961      2959
 -1      1298    8    0    1
 -2       602       601       711      2637      2962      2963
 -1      1299    8    0    1
 -2       601       710       711      2960      2964      2962
 -1      1300    8    0    1
 -2       603       602       712      2640      2965      2966
 -1      1301    8    0    1
 -2       602       711       712      2963      2967      2965
 -1      1302    8    0    1
 -2       604       603       713      2643      2968      2969
 -1      1303    8    0    1
 -2       603       712       713      2966      2970      2968
 -1      1304    8    0    1
 -2       605       604       714      2646      2971      2972
 -1      1305    8    0    1
 -2       604       713       714      2969      2973      2971
 -1      1306    8    0    1
 -2       606       605       715      2649      2974      2975
 -1      1307    8    0    1
 -2       605       714       715      2972      2976      2974
 -1      1308    8    0    1
 -2       607       606       716      2652      2977      2978
 -1      1309    8    0    1
 -2       606       715       716      2975      2979      2977
 -1      1310    8    0    1
 -2       608       607       717      2655      2980      2981
 -1      1311    8    0    1
 -2       607       716       717      2978      2982      2980
 -1      1312    8    0    1
 -2       609       608       718      2658      2983      2984
 -1      1313    8    0    1
 -2       608       717       718      2981      2985      2983
 -1      1314    8    0    1
 -2       610       609       719      2661      2986      2987
 -1      1315    8    0    1
 -2       609       718       719      2984      2988      2986
 -1      1316    8    0    1
 -2       611       610       720      2664      2989      2990
 -1      1317    8    0    1
 -2       610       719       720      2987      2991      2989
 -1      1318    8    0    1
 -2       612       611       721      2667      2992      2993
 -1      1319    8    0    1
 -2       611       720       721      2990      2994      2992
 -1      1320    8    0    1
 -2       613       612       722      2670      2995      2996
 -1      1321    8    0    1
 -2       612       721       722      2993      2997      2995
 -1      1322    8    0    1
 -2       614       613       723      2673      2998      2999
 -1      1323    8    0    1
 -2       613       722       723      2996      3000      2998
 -1      1324    8    0    1
 -2       615       614       724      2676      3001      3002
 -1      1325    8    0    1
 -2       614       723       724      2999      3003      3001
 -1      1326    8    0    1
 -2       616       615       725      2679      3004      3005
 -1      1327    8    0    1
 -2       615       724       725      3002      3006      3004
 -1      1328    8    0    1
 -2       617       616       726      2682      3007      3008
 -1      1329    8    0    1
 -2       616       725       726      3005      3009      3007
 -1      1330    8    0    1
 -2       618       617       727      2685      3010      3011
 -1      1331    8    0    1
 -2       617       726       727      3008      3012      3010
 -1      1332    8    0    1
 -2       619       618       728      2688      3013      3014
 -1      1333    8    0    1
 -2       618       727       728      3011      3015      3013
 -1      1334    8    0    1
 -2       620       619       729      2691      3016      3017
 -1      1335    8    0    1
 -2       619       728       729      3014      3018      3016
 -1      1336    8    0    1
 -2       621       620       730      2694      3019      3020
 -1      1337    8    0    1
 -2       620       729       730      3017      3021      3019
 -1      1338    8    0    1
 -2       622       621       731      2697      3022      3023
 -1      1339    8    0    1
 -2       621       730       731      3020      3024      3022
 -1      1340    8    0    1
 -2       623       622       732      2700      3025      3026
 -1      1341    8    0    1
 -2       622       731       732      3023      3027      3025
 -1      1342    8    0    1
 -2       624       623       733      2703      3028      3029
 -1      1343    8    0    1
 -2       623       732       733      3026      3030      3028
 -1      1344    8    0    1
 -2       625       624       734      2706      3031      3032
 -1      1345    8    0    1
 -2       624       733       734      3029      3033      3031
 -1      1346    8    0    1
 -2       626       625       735      2709      3034      3035
 -1      1347    8    0    1
 -2       625       734       735      3032      3036      3034
 -1      1348    8    0    1
 -2       627       626       736      2712      3037      3038
 -1      1349    8    0    1
 -2       626       735       736      3035      3039      3037
 -1      1350    8    0    1
 -2       628       627       737      2715      3040      3041
 -1      1351    8    0    1
 -2       627       736       737      3038      3042      3040
 -1      1352    8    0    1
 -2       629       628       738      2718      3043      3044
 -1      1353    8    0    1
 -2       628       737       738      3041      3045      3043
 -1      1354    8    0    1
 -2       630       629       739      2721      3046      3047
 -1      1355    8    0    1
 -2       629       738       739      3044      3048      3046
 -1      1356    8    0    1
 -2       631       630       740      2724      3049      3050
 -1      1357    8    0    1
 -2       630       739       740      3047      3051      3049
 -1      1358    8    0    1
 -2       632       631       741      2727      3052      3053
 -1      1359    8    0    1
 -2       680       632       741      2873      3053      3054
 -1      1360    8    0    1
 -2       631       740       741      3050      3055      3052
 -1      1361    8    0    1
 -2       677       678       742      2866      3056      3057
 -1      1362    8    0    1
 -2       673       689       743      2922      3058      3059
 -1      1363    8    0    1
 -2       633       634       744      2733      3060      3061
 -1      1364    8    0    1
 -2       635       633       745      2736      3062      3063
 -1      1365    8    0    1
 -2       707       635       745      2952      3063      3064
 -1      1366    8    0    1
 -2       633       744       745      3061      3065      3062
 -1      1367    8    0    1
 -2       637       638       746      2744      3066      3067
 -1      1368    8    0    1
 -2       636       637       747      2741      3068      3069
 -1      1369    8    0    1
 -2       637       746       747      3067      3070      3068
 -1      1370    8    0    1
 -2       639       640       748      2750      3071      3072
 -1      1371    8    0    1
 -2       640       641       749      2753      3073      3074
 -1      1372    8    0    1
 -2       640       749       748      3074      3075      3071
 -1      1373    8    0    1
 -2       641       642       750      2756      3076      3077
 -1      1374    8    0    1
 -2       641       750       749      3077      3078      3073
 -1      1375    8    0    1
 -2       642       643       751      2759      3079      3080
 -1      1376    8    0    1
 -2       642       751       750      3080      3081      3076
 -1      1377    8    0    1
 -2       643       644       752      2762      3082      3083
 -1      1378    8    0    1
 -2       643       752       751      3083      3084      3079
 -1      1379    8    0    1
 -2       644       645       753      2765      3085      3086
 -1      1380    8    0    1
 -2       644       753       752      3086      3087      3082
 -1      1381    8    0    1
 -2       645       646       754      2768      3088      3089
 -1      1382    8    0    1
 -2       645       754       753      3089      3090      3085
 -1      1383    8    0    1
 -2       646       647       755      2771      3091      3092
 -1      1384    8    0    1
 -2       646       755       754      3092      3093      3088
 -1      1385    8    0    1
 -2       647       648       756      2774      3094      3095
 -1      1386    8    0    1
 -2       647       756       755      3095      3096      3091
 -1      1387    8    0    1
 -2       648       649       757      2777      3097      3098
 -1      1388    8    0    1
 -2       648       757       756      3098      3099      3094
 -1      1389    8    0    1
 -2       649       650       758      2780      3100      3101
 -1      1390    8    0    1
 -2       649       758       757      3101      3102      3097
 -1      1391    8    0    1
 -2       650       651       759      2783      3103      3104
 -1      1392    8    0    1
 -2       650       759       758      3104      3105      3100
 -1      1393    8    0    1
 -2       651       652       760      2786      3106      3107
 -1      1394    8    0    1
 -2       651       760       759      3107      3108      3103
 -1      1395    8    0    1
 -2       652       653       761      2789      3109      3110
 -1      1396    8    0    1
 -2       652       761       760      3110      3111      3106
 -1      1397    8    0    1
 -2       653       654       762      2792      3112      3113
 -1      1398    8    0    1
 -2       653       762       761      3113      3114      3109
 -1      1399    8    0    1
 -2       654       655       763      2795      3115      3116
 -1      1400    8    0    1
 -2       654       763       762      3116      3117      3112
 -1      1401    8    0    1
 -2       655       656       764      2798      3118      3119
 -1      1402    8    0    1
 -2       655       764       763      3119      3120      3115
 -1      1403    8    0    1
 -2       656       657       765      2801      3121      3122
 -1      1404    8    0    1
 -2       656       765       764      3122      3123      3118
 -1      1405    8    0    1
 -2       657       658       766      2804      3124      3125
 -1      1406    8    0    1
 -2       657       766       765      3125      3126      3121
 -1      1407    8    0    1
 -2       658       659       767      2807      3127      3128
 -1      1408    8    0    1
 -2       658       767       766      3128      3129      3124
 -1      1409    8    0    1
 -2       659       660       768      2810      3130      3131
 -1      1410    8    0    1
 -2       659       768       767      3131      3132      3127
 -1      1411    8    0    1
 -2       660       661       769      2813      3133      3134
 -1      1412    8    0    1
 -2       660       769       768      3134      3135      3130
 -1      1413    8    0    1
 -2       661       662       770      2816      3136      3137
 -1      1414    8    0    1
 -2       661       770       769      3137      3138      3133
 -1      1415    8    0    1
 -2       662       663       771      2819      3139      3140
 -1      1416    8    0    1
 -2       662       771       770      3140      3141      3136
 -1      1417    8    0    1
 -2       663       664       772      2822      3142      3143
 -1      1418    8    0    1
 -2       663       772       771      3143      3144      3139
 -1      1419    8    0    1
 -2       664       665       773      2825      3145      3146
 -1      1420    8    0    1
 -2       664       773       772      3146      3147      3142
 -1      1421    8    0    1
 -2       665       666       774      2828      3148      3149
 -1      1422    8    0    1
 -2       665       774       773      3149      3150      3145
 -1      1423    8    0    1
 -2       666       667       775      2831      3151      3152
 -1      1424    8    0    1
 -2       666       775       774      3152      3153      3148
 -1      1425    8    0    1
 -2       667       668       776      2834      3154      3155
 -1      1426    8    0    1
 -2       667       776       775      3155      3156      3151
 -1      1427    8    0    1
 -2       668       669       777      2837      3157      3158
 -1      1428    8    0    1
 -2       668       777       776      3158      3159      3154
 -1      1429    8    0    1
 -2       669       670       778      2840      3160      3161
 -1      1430    8    0    1
 -2       669       778       777      3161      3162      3157
 -1      1431    8    0    1
 -2       670       671       779      2843      3163      3164
 -1      1432    8    0    1
 -2       670       779       778      3164      3165      3160
 -1      1433    8    0    1
 -2       683       450       468      2878      2545      3166
 -1      1434    8    0    1
 -2       684       594       780      2882      3167      3168
 -1      1435    8    0    1
 -2       594       690       781      2897      3169      3170
 -1      1436    8    0    1
 -2       594       781       780      3170      3171      3167
 -1      1437    8    0    1
 -2       674       673       782      2854      3172      3173
 -1      1438    8    0    1
 -2       673       743       782      3059      3174      3172
 -1      1439    8    0    1
 -2       678       679       783      2869      3175      3176
 -1      1440    8    0    1
 -2       678       783       742      3176      3177      3056
 -1      1441    8    0    1
 -2       676       677       784      2863      3178      3179
 -1      1442    8    0    1
 -2       677       742       784      3057      3180      3178
 -1      1443    8    0    1
 -2       638       639       785      2747      3181      3182
 -1      1444    8    0    1
 -2       746       638       785      3066      3182      3183
 -1      1445    8    0    1
 -2       639       748       785      3072      3184      3181
 -1      1446    8    0    1
 -2       582       683       469      2879      3185      2616
 -1      1447    8    0    1
 -2       682       691       786      2930      3186      3187
 -1      1448    8    0    1
 -2       573       688       697      2891      3188      2915
 -1      1449    8    0    1
 -2       586       590       595      2582      3189      2613
 -1      1450    8    0    1
 -2       596       692       787      2923      3190      3191
 -1      1451    8    0    1
 -2       596       787       672      3191      3192      2847
 -1      1452    8    0    1
 -2       693       595       698      2941      3193      3194
 -1      1453    8    0    1
 -2       696       685       593      2942      3195      2938
 -1      1454    8    0    1
 -2       692       674       788      2902      3196      3197
 -1      1455    8    0    1
 -2       787       692       788      3190      3197      3198
 -1      1456    8    0    1
 -2       674       782       788      3173      3199      3196
 -1      1457    8    0    1
 -2       689       676       789      2894      3200      3201
 -1      1458    8    0    1
 -2       743       689       789      3058      3201      3202
 -1      1459    8    0    1
 -2       676       784       789      3179      3203      3200
 -1      1460    8    0    1
 -2       691       687       790      2940      3204      3205
 -1      1461    8    0    1
 -2       595       590       698      3189      2931      3193
 -1      1462    8    0    1
 -2       593       685       701      3195      3206      2934
 -1      1463    8    0    1
 -2       694       589       791      2909      3207      3208
 -1      1464    8    0    1
 -2       589       699       791      2925      3209      3207
 -1      1465    8    0    1
 -2       591       694       700      2908      3210      2929
 -1      1466    8    0    1
 -2       686       705       792      2949      3211      3212
 -1      1467    8    0    1
 -2       686       792       702      3212      3213      2935
 -1      1468    8    0    1
 -2       695       681       793      2912      3214      3215
 -1      1469    8    0    1
 -2       687       703       794      2945      3216      3217
 -1      1470    8    0    1
 -2       687       794       790      3217      3218      3204
 -1      1471    8    0    1
 -2       690       706       781      2951      3219      3169
 -1      1472    8    0    1
 -2       698       707       706      2953      3220      3221
 -1      1473    8    0    1
 -2       744       634       795      3060      3222      3223
 -1      1474    8    0    1
 -2       634       675       795      2857      3224      3222
 -1      1475    8    0    1
 -2       469       683       468      3185      3166      2559
 -1      1476    8    0    1
 -2       636       747       796      3069      3225      3226
 -1      1477    8    0    1
 -2       636       796       675      3226      3227      2858
 -1      1478    8    0    1
 -2       698       706       693      3221      2950      3194
 -1      1479    8    0    1
 -2       671       672       797      2846      3228      3229
 -1      1480    8    0    1
 -2       779       671       797      3163      3229      3230
 -1      1481    8    0    1
 -2       672       787       797      3192      3231      3228
 -1      1482    8    0    1
 -2       699       682       798      2926      3232      3233
 -1      1483    8    0    1
 -2       682       786       798      3187      3234      3232
 -1      1484    8    0    1
 -2       679       680       799      2872      3235      3236
 -1      1485    8    0    1
 -2       783       679       799      3175      3236      3237
 -1      1486    8    0    1
 -2       680       741       799      3054      3238      3235
 -1      1487    8    0    1
 -2       691       790       786      3205      3239      3186
 -1      1488    8    0    1
 -2       681       700       793      2928      3240      3214
 -1      1489    8    0    1
 -2       587       695       705      2911      3241      2948
 -1      1490    8    0    1
 -2       592       701       800      2933      3242      3243
 -1      1491    8    0    1
 -2       592       800       703      3243      3244      2943
 -1      1492    8    0    1
 -2       685       684       801      2885      3245      3246
 -1      1493    8    0    1
 -2       701       685       801      3206      3246      3247
 -1      1494    8    0    1
 -2       684       780       801      3168      3248      3245
 -1      1495    8    0    1
 -2       704       597       702      2946      3249      3250
 -1      1496    8    0    1
 -2       708       598       704      2954      2947      3251
 -1      1497    8    0    1
 -2       705       695       802      3241      3252      3253
 -1      1498    8    0    1
 -2       706       707       803      3220      3254      3255
 -1      1499    8    0    1
 -2       706       803       781      3255      3256      3219
 -1      1500    8    0    1
 -2       597       697       702      2918      3257      3249
 -1      1501    8    0    1
 -2       786       790       804      3239      3258      3259
 -1      1502    8    0    1
 -2       710       709       805      2961      3260      3261
 -1      1503    8    0    1
 -2       711       710       806      2964      3262      3263
 -1      1504    8    0    1
 -2       710       805       806      3261      3264      3262
 -1      1505    8    0    1
 -2       712       711       807      2967      3265      3266
 -1      1506    8    0    1
 -2       711       806       807      3263      3267      3265
 -1      1507    8    0    1
 -2       713       712       808      2970      3268      3269
 -1      1508    8    0    1
 -2       712       807       808      3266      3270      3268
 -1      1509    8    0    1
 -2       714       713       809      2973      3271      3272
 -1      1510    8    0    1
 -2       713       808       809      3269      3273      3271
 -1      1511    8    0    1
 -2       715       714       810      2976      3274      3275
 -1      1512    8    0    1
 -2       714       809       810      3272      3276      3274
 -1      1513    8    0    1
 -2       716       715       811      2979      3277      3278
 -1      1514    8    0    1
 -2       715       810       811      3275      3279      3277
 -1      1515    8    0    1
 -2       717       716       812      2982      3280      3281
 -1      1516    8    0    1
 -2       716       811       812      3278      3282      3280
 -1      1517    8    0    1
 -2       718       717       813      2985      3283      3284
 -1      1518    8    0    1
 -2       717       812       813      3281      3285      3283
 -1      1519    8    0    1
 -2       719       718       814      2988      3286      3287
 -1      1520    8    0    1
 -2       718       813       814      3284      3288      3286
 -1      1521    8    0    1
 -2       720       719       815      2991      3289      3290
 -1      1522    8    0    1
 -2       719       814       815      3287      3291      3289
 -1      1523    8    0    1
 -2       721       720       816      2994      3292      3293
 -1      1524    8    0    1
 -2       720       815       816      3290      3294      3292
 -1      1525    8    0    1
 -2       722       721       817      2997      3295      3296
 -1      1526    8    0    1
 -2       721       816       817      3293      3297      3295
 -1      1527    8    0    1
 -2       723       722       818      3000      3298      3299
 -1      1528    8    0    1
 -2       722       817       818      3296      3300      3298
 -1      1529    8    0    1
 -2       724       723       819      3003      3301      3302
 -1      1530    8    0    1
 -2       723       818       819      3299      3303      3301
 -1      1531    8    0    1
 -2       725       724       820      3006      3304      3305
 -1      1532    8    0    1
 -2       724       819       820      3302      3306      3304
 -1      1533    8    0    1
 -2       726       725       821      3009      3307      3308
 -1      1534    8    0    1
 -2       725       820       821      3305      3309      3307
 -1      1535    8    0    1
 -2       727       726       822      3012      3310      3311
 -1      1536    8    0    1
 -2       726       821       822      3308      3312      3310
 -1      1537    8    0    1
 -2       728       727       823      3015      3313      3314
 -1      1538    8    0    1
 -2       727       822       823      3311      3315      3313
 -1      1539    8    0    1
 -2       729       728       824      3018      3316      3317
 -1      1540    8    0    1
 -2       728       823       824      3314      3318      3316
 -1      1541    8    0    1
 -2       730       729       825      3021      3319      3320
 -1      1542    8    0    1
 -2       729       824       825      3317      3321      3319
 -1      1543    8    0    1
 -2       731       730       826      3024      3322      3323
 -1      1544    8    0    1
 -2       730       825       826      3320      3324      3322
 -1      1545    8    0    1
 -2       732       731       827      3027      3325      3326
 -1      1546    8    0    1
 -2       731       826       827      3323      3327      3325
 -1      1547    8    0    1
 -2       733       732       828      3030      3328      3329
 -1      1548    8    0    1
 -2       732       827       828      3326      3330      3328
 -1      1549    8    0    1
 -2       734       733       829      3033      3331      3332
 -1      1550    8    0    1
 -2       733       828       829      3329      3333      3331
 -1      1551    8    0    1
 -2       735       734       830      3036      3334      3335
 -1      1552    8    0    1
 -2       734       829       830      3332      3336      3334
 -1      1553    8    0    1
 -2       736       735       831      3039      3337      3338
 -1      1554    8    0    1
 -2       735       830       831      3335      3339      3337
 -1      1555    8    0    1
 -2       737       736       832      3042      3340      3341
 -1      1556    8    0    1
 -2       736       831       832      3338      3342      3340
 -1      1557    8    0    1
 -2       738       737       833      3045      3343      3344
 -1      1558    8    0    1
 -2       737       832       833      3341      3345      3343
 -1      1559    8    0    1
 -2       739       738       834      3048      3346      3347
 -1      1560    8    0    1
 -2       738       833       834      3344      3348      3346
 -1      1561    8    0    1
 -2       740       739       835      3051      3349      3350
 -1      1562    8    0    1
 -2       739       834       835      3347      3351      3349
 -1      1563    8    0    1
 -2       742       783       836      3177      3352      3353
 -1      1564    8    0    1
 -2       747       746       837      3070      3354      3355
 -1      1565    8    0    1
 -2       749       750       838      3078      3356      3357
 -1      1566    8    0    1
 -2       748       749       839      3075      3358      3359
 -1      1567    8    0    1
 -2       749       838       839      3357      3360      3358
 -1      1568    8    0    1
 -2       751       752       840      3084      3361      3362
 -1      1569    8    0    1
 -2       752       753       841      3087      3363      3364
 -1      1570    8    0    1
 -2       752       841       840      3364      3365      3361
 -1      1571    8    0    1
 -2       753       754       842      3090      3366      3367
 -1      1572    8    0    1
 -2       753       842       841      3367      3368      3363
 -1      1573    8    0    1
 -2       754       755       843      3093      3369      3370
 -1      1574    8    0    1
 -2       754       843       842      3370      3371      3366
 -1      1575    8    0    1
 -2       755       756       844      3096      3372      3373
 -1      1576    8    0    1
 -2       755       844       843      3373      3374      3369
 -1      1577    8    0    1
 -2       756       757       845      3099      3375      3376
 -1      1578    8    0    1
 -2       756       845       844      3376      3377      3372
 -1      1579    8    0    1
 -2       757       758       846      3102      3378      3379
 -1      1580    8    0    1
 -2       757       846       845      3379      3380      3375
 -1      1581    8    0    1
 -2       758       759       847      3105      3381      3382
 -1      1582    8    0    1
 -2       758       847       846      3382      3383      3378
 -1      1583    8    0    1
 -2       759       760       848      3108      3384      3385
 -1      1584    8    0    1
 -2       759       848       847      3385      3386      3381
 -1      1585    8    0    1
 -2       760       761       849      3111      3387      3388
 -1      1586    8    0    1
 -2       760       849       848      3388      3389      3384
 -1      1587    8    0    1
 -2       761       762       850      3114      3390      3391
 -1      1588    8    0    1
 -2       761       850       849      3391      3392      3387
 -1      1589    8    0    1
 -2       762       763       851      3117      3393      3394
 -1      1590    8    0    1
 -2       762       851       850      3394      3395      3390
 -1      1591    8    0    1
 -2       763       764       852      3120      3396      3397
 -1      1592    8    0    1
 -2       763       852       851      3397      3398      3393
 -1      1593    8    0    1
 -2       764       765       853      3123      3399      3400
 -1      1594    8    0    1
 -2       764       853       852      3400      3401      3396
 -1      1595    8    0    1
 -2       765       766       854      3126      3402      3403
 -1      1596    8    0    1
 -2       765       854       853      3403      3404      3399
 -1      1597    8    0    1
 -2       766       767       855      3129      3405      3406
 -1      1598    8    0    1
 -2       766       855       854      3406      3407      3402
 -1      1599    8    0    1
 -2       767       768       856      3132      3408      3409
 -1      1600    8    0    1
 -2       767       856       855      3409      3410      3405
 -1      1601    8    0    1
 -2       768       769       857      3135      3411      3412
 -1      1602    8    0    1
 -2       768       857       856      3412      3413      3408
 -1      1603    8    0    1
 -2       769       770       858      3138      3414      3415
 -1      1604    8    0    1
 -2       769       858       857      3415      3416      3411
 -1      1605    8    0    1
 -2       770       771       859      3141      3417      3418
 -1      1606    8    0    1
 -2       770       859       858      3418      3419      3414
 -1      1607    8    0    1
 -2       771       772       860      3144      3420      3421
 -1      1608    8    0    1
 -2       771       860       859      3421      3422      3417
 -1      1609    8    0    1
 -2       772       773       861      3147      3423      3424
 -1      1610    8    0    1
 -2       772       861       860      3424      3425      3420
 -1      1611    8    0    1
 -2       773       774       862      3150      3426      3427
 -1      1612    8    0    1
 -2       773       862       861      3427      3428      3423
 -1      1613    8    0    1
 -2       774       775       863      3153      3429      3430
 -1      1614    8    0    1
 -2       774       863       862      3430      3431      3426
 -1      1615    8    0    1
 -2       775       776       864      3156      3432      3433
 -1      1616    8    0    1
 -2       775       864       863      3433      3434      3429
 -1      1617    8    0    1
 -2       776       777       865      3159      3435      3436
 -1      1618    8    0    1
 -2       776       865       864      3436      3437      3432
 -1      1619    8    0    1
 -2       777       778       866      3162      3438      3439
 -1      1620    8    0    1
 -2       777       866       865      3439      3440      3435
 -1      1621    8    0    1
 -2       778       779       867      3165      3441      3442
 -1      1622    8    0    1
 -2       778       867       866      3442      3443      3438
 -1      1623    8    0    1
 -2       780       781       868      3171      3444      3445
 -1      1624    8    0    1
 -2       781       803       868      3256      3446      3444
 -1      1625    8    0    1
 -2       782       743       869      3174      3447      3448
 -1      1626    8    0    1
 -2       784       742       870      3180      3449      3450
 -1      1627    8    0    1
 -2       742       836       870      3353      3451      3449
 -1      1628    8    0    1
 -2       793       700       871      3240      3452      3453
 -1      1629    8    0    1
 -2       697       688       702      3188      2937      3257
 -1      1630    8    0    1
 -2       695       793       802      3215      3454      3252
 -1      1631    8    0    1
 -2       704       702       792      3250      3213      3455
 -1      1632    8    0    1
 -2       750       751       872      3081      3456      3457
 -1      1633    8    0    1
 -2       838       750       872      3356      3457      3458
 -1      1634    8    0    1
 -2       751       840       872      3362      3459      3456
 -1      1635    8    0    1
 -2       701       801       800      3247      3460      3242
 -1      1636    8    0    1
 -2       709       708       873      2958      3461      3462
 -1      1637    8    0    1
 -2       709       873       805      3462      3463      3260
 -1      1638    8    0    1
 -2       801       780       874      3248      3464      3465
 -1      1639    8    0    1
 -2       800       801       874      3460      3465      3466
 -1      1640    8    0    1
 -2       780       868       874      3445      3467      3464
 -1      1641    8    0    1
 -2       708       704       875      3251      3468      3469
 -1      1642    8    0    1
 -2       708       875       873      3469      3470      3461
 -1      1643    8    0    1
 -2       700       694       876      3210      3471      3472
 -1      1644    8    0    1
 -2       871       700       876      3452      3472      3473
 -1      1645    8    0    1
 -2       694       791       876      3208      3474      3471
 -1      1646    8    0    1
 -2       792       705       877      3211      3475      3476
 -1      1647    8    0    1
 -2       705       802       877      3253      3477      3475
 -1      1648    8    0    1
 -2       782       869       878      3448      3478      3479
 -1      1649    8    0    1
 -2       782       878       788      3479      3480      3199
 -1      1650    8    0    1
 -2       790       794       879      3218      3481      3482
 -1      1651    8    0    1
 -2       790       879       804      3482      3483      3258
 -1      1652    8    0    1
 -2       795       675       796      3224      3227      3484
 -1      1653    8    0    1
 -2       744       795       880      3223      3485      3486
 -1      1654    8    0    1
 -2       746       785       881      3183      3487      3488
 -1      1655    8    0    1
 -2       746       881       837      3488      3489      3354
 -1      1656    8    0    1
 -2       793       871       882      3453      3490      3491
 -1      1657    8    0    1
 -2       836       783       835      3352      3492      3493
 -1      1658    8    0    1
 -2       802       793       882      3454      3491      3494
 -1      1659    8    0    1
 -2       747       837       883      3355      3495      3496
 -1      1660    8    0    1
 -2       747       883       796      3496      3497      3225
 -1      1661    8    0    1
 -2       707       745       803      3064      3498      3254
 -1      1662    8    0    1
 -2       875       704       792      3468      3455      3499
 -1      1663    8    0    1
 -2       867       779       797      3441      3230      3500
 -1      1664    8    0    1
 -2       798       786       884      3234      3501      3502
 -1      1665    8    0    1
 -2       786       804       884      3259      3503      3501
 -1      1666    8    0    1
 -2       743       789       885      3202      3504      3505
 -1      1667    8    0    1
 -2       743       885       869      3505      3506      3447
 -1      1668    8    0    1
 -2       784       870       886      3450      3507      3508
 -1      1669    8    0    1
 -2       784       886       789      3508      3509      3203
 -1      1670    8    0    1
 -2       785       748       887      3184      3510      3511
 -1      1671    8    0    1
 -2       881       785       887      3487      3511      3512
 -1      1672    8    0    1
 -2       748       839       887      3359      3513      3510
 -1      1673    8    0    1
 -2       744       880       888      3486      3514      3515
 -1      1674    8    0    1
 -2       744       888       745      3515      3516      3065
 -1      1675    8    0    1
 -2       797       787       889      3231      3517      3518
 -1      1676    8    0    1
 -2       787       788       889      3198      3519      3517
 -1      1677    8    0    1
 -2       703       800       890      3244      3520      3521
 -1      1678    8    0    1
 -2       794       703       890      3216      3521      3522
 -1      1679    8    0    1
 -2       800       874       890      3466      3523      3520
 -1      1680    8    0    1
 -2       791       699       891      3209      3524      3525
 -1      1681    8    0    1
 -2       699       798       891      3233      3526      3524
 -1      1682    8    0    1
 -2       795       796       892      3484      3527      3528
 -1      1683    8    0    1
 -2       880       795       892      3485      3528      3529
 -1      1684    8    0    1
 -2       796       883       892      3497      3530      3527
 -1      1685    8    0    1
 -2       882       871       893      3490      3531      3532
 -1      1686    8    0    1
 -2       740       835       799      3350      3533      3534
 -1      1687    8    0    1
 -2       836       835       894      3493      3535      3536
 -1      1688    8    0    1
 -2       807       806       895      3267      3537      3538
 -1      1689    8    0    1
 -2       808       807       896      3270      3539      3540
 -1      1690    8    0    1
 -2       807       895       896      3538      3541      3539
 -1      1691    8    0    1
 -2       809       808       897      3273      3542      3543
 -1      1692    8    0    1
 -2       808       896       897      3540      3544      3542
 -1      1693    8    0    1
 -2       810       809       898      3276      3545      3546
 -1      1694    8    0    1
 -2       809       897       898      3543      3547      3545
 -1      1695    8    0    1
 -2       811       810       899      3279      3548      3549
 -1      1696    8    0    1
 -2       810       898       899      3546      3550      3548
 -1      1697    8    0    1
 -2       812       811       900      3282      3551      3552
 -1      1698    8    0    1
 -2       811       899       900      3549      3553      3551
 -1      1699    8    0    1
 -2       813       812       901      3285      3554      3555
 -1      1700    8    0    1
 -2       812       900       901      3552      3556      3554
 -1      1701    8    0    1
 -2       814       813       902      3288      3557      3558
 -1      1702    8    0    1
 -2       813       901       902      3555      3559      3557
 -1      1703    8    0    1
 -2       815       814       903      3291      3560      3561
 -1      1704    8    0    1
 -2       814       902       903      3558      3562      3560
 -1      1705    8    0    1
 -2       816       815       904      3294      3563      3564
 -1      1706    8    0    1
 -2       815       903       904      3561      3565      3563
 -1      1707    8    0    1
 -2       817       816       905      3297      3566      3567
 -1      1708    8    0    1
 -2       816       904       905      3564      3568      3566
 -1      1709    8    0    1
 -2       818       817       906      3300      3569      3570
 -1      1710    8    0    1
 -2       817       905       906      3567      3571      3569
 -1      1711    8    0    1
 -2       819       818       907      3303      3572      3573
 -1      1712    8    0    1
 -2       818       906       907      3570      3574      3572
 -1      1713    8    0    1
 -2       820       819       908      3306      3575      3576
 -1      1714    8    0    1
 -2       819       907       908      3573      3577      3575
 -1      1715    8    0    1
 -2       821       820       909      3309      3578      3579
 -1      1716    8    0    1
 -2       820       908       909      3576      3580      3578
 -1      1717    8    0    1
 -2       822       821       910      3312      3581      3582
 -1      1718    8    0    1
 -2       821       909       910      3579      3583      3581
 -1      1719    8    0    1
 -2       823       822       911      3315      3584      3585
 -1      1720    8    0    1
 -2       822       910       911      3582      3586      3584
 -1      1721    8    0    1
 -2       824       823       912      3318      3587      3588
 -1      1722    8    0    1
 -2       823       911       912      3585      3589      3587
 -1      1723    8    0    1
 -2       825       824       913      3321      3590      3591
 -1      1724    8    0    1
 -2       824       912       913      3588      3592      3590
 -1      1725    8    0    1
 -2       826       825       914      3324      3593      3594
 -1      1726    8    0    1
 -2       825       913       914      3591      3595      3593
 -1      1727    8    0    1
 -2       827       826       915      3327      3596      3597
 -1      1728    8    0    1
 -2       826       914       915      3594      3598      3596
 -1      1729    8    0    1
 -2       828       827       916      3330      3599      3600
 -1      1730    8    0    1
 -2       827       915       916      3597      3601      3599
 -1      1731    8    0    1
 -2       829       828       917      3333      3602      3603
 -1      1732    8    0    1
 -2       828       916       917      3600      3604      3602
 -1      1733    8    0    1
 -2       830       829       918      3336      3605      3606
 -1      1734    8    0    1
 -2       829       917       918      3603      3607      3605
 -1      1735    8    0    1
 -2       831       830       919      3339      3608      3609
 -1      1736    8    0    1
 -2       830       918       919      3606      3610      3608
 -1      1737    8    0    1
 -2       832       831       920      3342      3611      3612
 -1      1738    8    0    1
 -2       831       919       920      3609      3613      3611
 -1      1739    8    0    1
 -2       833       832       921      3345      3614      3615
 -1      1740    8    0    1
 -2       832       920       921      3612      3616      3614
 -1      1741    8    0    1
 -2       834       833       922      3348      3617      3618
 -1      1742    8    0    1
 -2       833       921       922      3615      3619      3617
 -1      1743    8    0    1
 -2       835       834       894      3351      3620      3535
 -1      1744    8    0    1
 -2       802       882       923      3494      3621      3622
 -1      1745    8    0    1
 -2       741       740       799      3055      3534      3238
 -1      1746    8    0    1
 -2       841       842       924      3368      3623      3624
 -1      1747    8    0    1
 -2       840       841       925      3365      3625      3626
 -1      1748    8    0    1
 -2       841       924       925      3624      3627      3625
 -1      1749    8    0    1
 -2       843       844       926      3374      3628      3629
 -1      1750    8    0    1
 -2       844       845       927      3377      3630      3631
 -1      1751    8    0    1
 -2       844       927       926      3631      3632      3628
 -1      1752    8    0    1
 -2       845       846       928      3380      3633      3634
 -1      1753    8    0    1
 -2       845       928       927      3634      3635      3630
 -1      1754    8    0    1
 -2       846       847       929      3383      3636      3637
 -1      1755    8    0    1
 -2       846       929       928      3637      3638      3633
 -1      1756    8    0    1
 -2       847       848       930      3386      3639      3640
 -1      1757    8    0    1
 -2       847       930       929      3640      3641      3636
 -1      1758    8    0    1
 -2       848       849       931      3389      3642      3643
 -1      1759    8    0    1
 -2       848       931       930      3643      3644      3639
 -1      1760    8    0    1
 -2       849       850       932      3392      3645      3646
 -1      1761    8    0    1
 -2       849       932       931      3646      3647      3642
 -1      1762    8    0    1
 -2       850       851       933      3395      3648      3649
 -1      1763    8    0    1
 -2       850       933       932      3649      3650      3645
 -1      1764    8    0    1
 -2       851       852       934      3398      3651      3652
 -1      1765    8    0    1
 -2       851       934       933      3652      3653      3648
 -1      1766    8    0    1
 -2       852       853       935      3401      3654      3655
 -1      1767    8    0    1
 -2       852       935       934      3655      3656      3651
 -1      1768    8    0    1
 -2       853       854       936      3404      3657      3658
 -1      1769    8    0    1
 -2       853       936       935      3658      3659      3654
 -1      1770    8    0    1
 -2       854       855       937      3407      3660      3661
 -1      1771    8    0    1
 -2       854       937       936      3661      3662      3657
 -1      1772    8    0    1
 -2       855       856       938      3410      3663      3664
 -1      1773    8    0    1
 -2       855       938       937      3664      3665      3660
 -1      1774    8    0    1
 -2       856       857       939      3413      3666      3667
 -1      1775    8    0    1
 -2       856       939       938      3667      3668      3663
 -1      1776    8    0    1
 -2       857       858       940      3416      3669      3670
 -1      1777    8    0    1
 -2       857       940       939      3670      3671      3666
 -1      1778    8    0    1
 -2       858       859       941      3419      3672      3673
 -1      1779    8    0    1
 -2       858       941       940      3673      3674      3669
 -1      1780    8    0    1
 -2       859       860       942      3422      3675      3676
 -1      1781    8    0    1
 -2       859       942       941      3676      3677      3672
 -1      1782    8    0    1
 -2       860       861       943      3425      3678      3679
 -1      1783    8    0    1
 -2       860       943       942      3679      3680      3675
 -1      1784    8    0    1
 -2       861       862       944      3428      3681      3682
 -1      1785    8    0    1
 -2       861       944       943      3682      3683      3678
 -1      1786    8    0    1
 -2       862       863       945      3431      3684      3685
 -1      1787    8    0    1
 -2       862       945       944      3685      3686      3681
 -1      1788    8    0    1
 -2       863       864       946      3434      3687      3688
 -1      1789    8    0    1
 -2       863       946       945      3688      3689      3684
 -1      1790    8    0    1
 -2       864       865       947      3437      3690      3691
 -1      1791    8    0    1
 -2       864       947       946      3691      3692      3687
 -1      1792    8    0    1
 -2       865       866       948      3440      3693      3694
 -1      1793    8    0    1
 -2       865       948       947      3694      3695      3690
 -1      1794    8    0    1
 -2       866       867       949      3443      3696      3697
 -1      1795    8    0    1
 -2       866       949       948      3697      3698      3693
 -1      1796    8    0    1
 -2       873       875       950      3470      3699      3700
 -1      1797    8    0    1
 -2       868       803       951      3446      3701      3702
 -1      1798    8    0    1
 -2       870       836       952      3451      3703      3704
 -1      1799    8    0    1
 -2       836       894       952      3536      3705      3703
 -1      1800    8    0    1
 -2       842       843       953      3371      3706      3707
 -1      1801    8    0    1
 -2       842       953       924      3707      3708      3623
 -1      1802    8    0    1
 -2       839       838       954      3360      3709      3710
 -1      1803    8    0    1
 -2       806       805       955      3264      3711      3712
 -1      1804    8    0    1
 -2       806       955       895      3712      3713      3537
 -1      1805    8    0    1
 -2       805       873       956      3463      3714      3715
 -1      1806    8    0    1
 -2       805       956       955      3715      3716      3711
 -1      1807    8    0    1
 -2       875       792       877      3499      3476      3717
 -1      1808    8    0    1
 -2       867       797       889      3500      3518      3718
 -1      1809    8    0    1
 -2       891       798       957      3526      3719      3720
 -1      1810    8    0    1
 -2       798       884       957      3502      3721      3719
 -1      1811    8    0    1
 -2       878       869       958      3478      3722      3723
 -1      1812    8    0    1
 -2       888       880       959      3514      3724      3725
 -1      1813    8    0    1
 -2       893       871       960      3531      3726      3727
 -1      1814    8    0    1
 -2       871       876       960      3473      3728      3726
 -1      1815    8    0    1
 -2       791       891       961      3525      3729      3730
 -1      1816    8    0    1
 -2       837       881       962      3489      3731      3732
 -1      1817    8    0    1
 -2       839       954       963      3710      3733      3734
 -1      1818    8    0    1
 -2       839       963       887      3734      3735      3513
 -1      1819    8    0    1
 -2       894       834       922      3620      3618      3736
 -1      1820    8    0    1
 -2       923       882       964      3621      3737      3738
 -1      1821    8    0    1
 -2       883       837       965      3495      3739      3740
 -1      1822    8    0    1
 -2       837       962       965      3732      3741      3739
 -1      1823    8    0    1
 -2       875       877       950      3717      3742      3699
 -1      1824    8    0    1
 -2       840       925       966      3626      3743      3744
 -1      1825    8    0    1
 -2       840       966       872      3744      3745      3459
 -1      1826    8    0    1
 -2       873       950       956      3700      3746      3714
 -1      1827    8    0    1
 -2       949       867       958      3696      3747      3748
 -1      1828    8    0    1
 -2       868       951       879      3702      3749      3750
 -1      1829    8    0    1
 -2       884       804       959      3503      3751      3752
 -1      1830    8    0    1
 -2       870       952       967      3704      3753      3754
 -1      1831    8    0    1
 -2       870       967       886      3754      3755      3507
 -1      1832    8    0    1
 -2       803       745       888      3498      3516      3756
 -1      1833    8    0    1
 -2       885       789       886      3504      3509      3757
 -1      1834    8    0    1
 -2       953       843       926      3706      3629      3758
 -1      1835    8    0    1
 -2       954       838       968      3709      3759      3760
 -1      1836    8    0    1
 -2       838       872       968      3458      3761      3759
 -1      1837    8    0    1
 -2       877       802       923      3477      3622      3762
 -1      1838    8    0    1
 -2       882       893       964      3532      3763      3737
 -1      1839    8    0    1
 -2       889       788       878      3519      3480      3764
 -1      1840    8    0    1
 -2       791       961       876      3730      3765      3474
 -1      1841    8    0    1
 -2       783       799       835      3237      3533      3492
 -1      1842    8    0    1
 -2       959       880       969      3724      3766      3767
 -1      1843    8    0    1
 -2       880       892       969      3529      3768      3766
 -1      1844    8    0    1
 -2       869       885       970      3506      3769      3770
 -1      1845    8    0    1
 -2       869       970       958      3770      3771      3722
 -1      1846    8    0    1
 -2       804       879       959      3483      3772      3751
 -1      1847    8    0    1
 -2       868       879       794      3750      3481      3773
 -1      1848    8    0    1
 -2       959       879       951      3772      3749      3774
 -1      1849    8    0    1
 -2       961       891       971      3729      3775      3776
 -1      1850    8    0    1
 -2       950       877       923      3742      3762      3777
 -1      1851    8    0    1
 -2       924       953       972      3708      3778      3779
 -1      1852    8    0    1
 -2       923       964       973      3738      3780      3781
 -1      1853    8    0    1
 -2       923       973       950      3781      3782      3777
 -1      1854    8    0    1
 -2       897       896       974      3544      3783      3784
 -1      1855    8    0    1
 -2       898       897       975      3547      3785      3786
 -1      1856    8    0    1
 -2       897       974       975      3784      3787      3785
 -1      1857    8    0    1
 -2       899       898       976      3550      3788      3789
 -1      1858    8    0    1
 -2       898       975       976      3786      3790      3788
 -1      1859    8    0    1
 -2       900       899       977      3553      3791      3792
 -1      1860    8    0    1
 -2       899       976       977      3789      3793      3791
 -1      1861    8    0    1
 -2       901       900       978      3556      3794      3795
 -1      1862    8    0    1
 -2       900       977       978      3792      3796      3794
 -1      1863    8    0    1
 -2       902       901       979      3559      3797      3798
 -1      1864    8    0    1
 -2       901       978       979      3795      3799      3797
 -1      1865    8    0    1
 -2       903       902       980      3562      3800      3801
 -1      1866    8    0    1
 -2       902       979       980      3798      3802      3800
 -1      1867    8    0    1
 -2       904       903       981      3565      3803      3804
 -1      1868    8    0    1
 -2       903       980       981      3801      3805      3803
 -1      1869    8    0    1
 -2       905       904       982      3568      3806      3807
 -1      1870    8    0    1
 -2       904       981       982      3804      3808      3806
 -1      1871    8    0    1
 -2       906       905       983      3571      3809      3810
 -1      1872    8    0    1
 -2       905       982       983      3807      3811      3809
 -1      1873    8    0    1
 -2       907       906       984      3574      3812      3813
 -1      1874    8    0    1
 -2       906       983       984      3810      3814      3812
 -1      1875    8    0    1
 -2       908       907       985      3577      3815      3816
 -1      1876    8    0    1
 -2       907       984       985      3813      3817      3815
 -1      1877    8    0    1
 -2       909       908       986      3580      3818      3819
 -1      1878    8    0    1
 -2       908       985       986      3816      3820      3818
 -1      1879    8    0    1
 -2       910       909       987      3583      3821      3822
 -1      1880    8    0    1
 -2       909       986       987      3819      3823      3821
 -1      1881    8    0    1
 -2       911       910       988      3586      3824      3825
 -1      1882    8    0    1
 -2       910       987       988      3822      3826      3824
 -1      1883    8    0    1
 -2       912       911       989      3589      3827      3828
 -1      1884    8    0    1
 -2       911       988       989      3825      3829      3827
 -1      1885    8    0    1
 -2       913       912       990      3592      3830      3831
 -1      1886    8    0    1
 -2       912       989       990      3828      3832      3830
 -1      1887    8    0    1
 -2       914       913       991      3595      3833      3834
 -1      1888    8    0    1
 -2       913       990       991      3831      3835      3833
 -1      1889    8    0    1
 -2       915       914       992      3598      3836      3837
 -1      1890    8    0    1
 -2       914       991       992      3834      3838      3836
 -1      1891    8    0    1
 -2       916       915       993      3601      3839      3840
 -1      1892    8    0    1
 -2       915       992       993      3837      3841      3839
 -1      1893    8    0    1
 -2       917       916       994      3604      3842      3843
 -1      1894    8    0    1
 -2       916       993       994      3840      3844      3842
 -1      1895    8    0    1
 -2       918       917       995      3607      3845      3846
 -1      1896    8    0    1
 -2       917       994       995      3843      3847      3845
 -1      1897    8    0    1
 -2       919       918       996      3610      3848      3849
 -1      1898    8    0    1
 -2       918       995       996      3846      3850      3848
 -1      1899    8    0    1
 -2       920       919       997      3613      3851      3852
 -1      1900    8    0    1
 -2       919       996       997      3849      3853      3851
 -1      1901    8    0    1
 -2       921       920       998      3616      3854      3855
 -1      1902    8    0    1
 -2       920       997       998      3852      3856      3854
 -1      1903    8    0    1
 -2       922       921       999      3619      3857      3858
 -1      1904    8    0    1
 -2       921       998       999      3855      3859      3857
 -1      1905    8    0    1
 -2       951       803       888      3701      3756      3860
 -1      1906    8    0    1
 -2       928       929      1000      3638      3861      3862
 -1      1907    8    0    1
 -2       925       924      1001      3627      3863      3864
 -1      1908    8    0    1
 -2       924       972      1001      3779      3865      3863
 -1      1909    8    0    1
 -2       952       894       922      3705      3736      3866
 -1      1910    8    0    1
 -2       896       895      1002      3541      3867      3868
 -1      1911    8    0    1
 -2       896      1002       974      3868      3869      3783
 -1      1912    8    0    1
 -2       885       886      1003      3757      3870      3871
 -1      1913    8    0    1
 -2       970       885      1003      3769      3871      3872
 -1      1914    8    0    1
 -2       886       967      1003      3755      3873      3870
 -1      1915    8    0    1
 -2       927       928      1004      3635      3874      3875
 -1      1916    8    0    1
 -2       928      1000      1004      3862      3876      3874
 -1      1917    8    0    1
 -2       926       927      1005      3632      3877      3878
 -1      1918    8    0    1
 -2       927      1004      1005      3875      3879      3877
 -1      1919    8    0    1
 -2       929       930      1006      3641      3880      3881
 -1      1920    8    0    1
 -2       929      1006      1000      3881      3882      3861
 -1      1921    8    0    1
 -2       930       931      1007      3644      3883      3884
 -1      1922    8    0    1
 -2       930      1007      1006      3884      3885      3880
 -1      1923    8    0    1
 -2       931       932      1008      3647      3886      3887
 -1      1924    8    0    1
 -2       931      1008      1007      3887      3888      3883
 -1      1925    8    0    1
 -2       932       933      1009      3650      3889      3890
 -1      1926    8    0    1
 -2       932      1009      1008      3890      3891      3886
 -1      1927    8    0    1
 -2       933       934      1010      3653      3892      3893
 -1      1928    8    0    1
 -2       933      1010      1009      3893      3894      3889
 -1      1929    8    0    1
 -2       934       935      1011      3656      3895      3896
 -1      1930    8    0    1
 -2       934      1011      1010      3896      3897      3892
 -1      1931    8    0    1
 -2       935       936      1012      3659      3898      3899
 -1      1932    8    0    1
 -2       935      1012      1011      3899      3900      3895
 -1      1933    8    0    1
 -2       936       937      1013      3662      3901      3902
 -1      1934    8    0    1
 -2       936      1013      1012      3902      3903      3898
 -1      1935    8    0    1
 -2       937       938      1014      3665      3904      3905
 -1      1936    8    0    1
 -2       937      1014      1013      3905      3906      3901
 -1      1937    8    0    1
 -2       938       939      1015      3668      3907      3908
 -1      1938    8    0    1
 -2       938      1015      1014      3908      3909      3904
 -1      1939    8    0    1
 -2       939       940      1016      3671      3910      3911
 -1      1940    8    0    1
 -2       939      1016      1015      3911      3912      3907
 -1      1941    8    0    1
 -2       940       941      1017      3674      3913      3914
 -1      1942    8    0    1
 -2       940      1017      1016      3914      3915      3910
 -1      1943    8    0    1
 -2       941       942      1018      3677      3916      3917
 -1      1944    8    0    1
 -2       941      1018      1017      3917      3918      3913
 -1      1945    8    0    1
 -2       942       943      1019      3680      3919      3920
 -1      1946    8    0    1
 -2       942      1019      1018      3920      3921      3916
 -1      1947    8    0    1
 -2       943       944      1020      3683      3922      3923
 -1      1948    8    0    1
 -2       943      1020      1019      3923      3924      3919
 -1      1949    8    0    1
 -2       944       945      1021      3686      3925      3926
 -1      1950    8    0    1
 -2       944      1021      1020      3926      3927      3922
 -1      1951    8    0    1
 -2       945       946      1022      3689      3928      3929
 -1      1952    8    0    1
 -2       945      1022      1021      3929      3930      3925
 -1      1953    8    0    1
 -2       946       947      1023      3692      3931      3932
 -1      1954    8    0    1
 -2       946      1023      1022      3932      3933      3928
 -1      1955    8    0    1
 -2       947       948      1024      3695      3934      3935
 -1      1956    8    0    1
 -2       947      1024      1023      3935      3936      3931
 -1      1957    8    0    1
 -2       948       949      1025      3698      3937      3938
 -1      1958    8    0    1
 -2       948      1025      1024      3938      3939      3934
 -1      1959    8    0    1
 -2       958       867       889      3747      3718      3940
 -1      1960    8    0    1
 -2       884       959       969      3752      3767      3941
 -1      1961    8    0    1
 -2       953       926      1026      3758      3942      3943
 -1      1962    8    0    1
 -2       926      1005      1026      3878      3944      3942
 -1      1963    8    0    1
 -2       952       922       999      3866      3858      3945
 -1      1964    8    0    1
 -2       955       956      1027      3716      3946      3947
 -1      1965    8    0    1
 -2       895       955      1028      3713      3948      3949
 -1      1966    8    0    1
 -2       955      1027      1028      3947      3950      3948
 -1      1967    8    0    1
 -2       949       958      1029      3748      3951      3952
 -1      1968    8    0    1
 -2      1025       949      1029      3937      3952      3953
 -1      1969    8    0    1
 -2       958       970      1029      3771      3954      3951
 -1      1970    8    0    1
 -2       956       950      1030      3746      3955      3956
 -1      1971    8    0    1
 -2      1027       956      1030      3946      3956      3957
 -1      1972    8    0    1
 -2       950       973      1030      3782      3958      3955
 -1      1973    8    0    1
 -2       874       868       890      3467      3959      3523
 -1      1974    8    0    1
 -2       881       887      1031      3512      3960      3961
 -1      1975    8    0    1
 -2       887       963      1031      3735      3962      3960
 -1      1976    8    0    1
 -2       964       893      1032      3763      3963      3964
 -1      1977    8    0    1
 -2       892       883      1033      3530      3965      3966
 -1      1978    8    0    1
 -2       969       892      1033      3768      3966      3967
 -1      1979    8    0    1
 -2       883       965      1033      3740      3968      3965
 -1      1980    8    0    1
 -2       962       881      1031      3731      3961      3969
 -1      1981    8    0    1
 -2       876       961       960      3765      3970      3728
 -1      1982    8    0    1
 -2       951       888       959      3860      3725      3774
 -1      1983    8    0    1
 -2       971       891       957      3775      3720      3971
 -1      1984    8    0    1
 -2       893       960      1034      3727      3972      3973
 -1      1985    8    0    1
 -2       893      1034      1032      3973      3974      3963
 -1      1986    8    0    1
 -2       972       953      1026      3778      3943      3975
 -1      1987    8    0    1
 -2       964      1032      1035      3964      3976      3977
 -1      1988    8    0    1
 -2       965       962      1036      3741      3978      3979
 -1      1989    8    0    1
 -2       962      1031      1037      3969      3980      3981
 -1      1990    8    0    1
 -2       962      1037      1036      3981      3982      3978
 -1      1991    8    0    1
 -2       925      1001      1038      3864      3983      3984
 -1      1992    8    0    1
 -2       925      1038       966      3984      3985      3743
 -1      1993    8    0    1
 -2      1002       895      1028      3867      3949      3986
 -1      1994    8    0    1
 -2       961       971      1039      3776      3987      3988
 -1      1995    8    0    1
 -2       973       964      1035      3780      3977      3989
 -1      1996    8    0    1
 -2       872       966       968      3745      3990      3761
 -1      1997    8    0    1
 -2       952       999      1040      3945      3991      3992
 -1      1998    8    0    1
 -2       952      1040       967      3992      3993      3753
 -1      1999    8    0    1
 -2       954       968      1041      3760      3994      3995
 -1      2000    8    0    1
 -2       963       954      1042      3733      3996      3997
 -1      2001    8    0    1
 -2       954      1041      1042      3995      3998      3996
 -1      2002    8    0    1
 -2       961      1039       960      3988      3999      3970
 -1      2003    8    0    1
 -2       884       969       957      3941      4000      3721
 -1      2004    8    0    1
 -2       971       957      1033      3971      4001      4002
 -1      2005    8    0    1
 -2      1035      1032      1043      3976      4003      4004
 -1      2006    8    0    1
 -2       889       878       958      3764      3723      3940
 -1      2007    8    0    1
 -2       976       975      1044      3790      4005      4006
 -1      2008    8    0    1
 -2       977       976      1045      3793      4007      4008
 -1      2009    8    0    1
 -2       976      1044      1045      4006      4009      4007
 -1      2010    8    0    1
 -2       978       977      1046      3796      4010      4011
 -1      2011    8    0    1
 -2       977      1045      1046      4008      4012      4010
 -1      2012    8    0    1
 -2       979       978      1047      3799      4013      4014
 -1      2013    8    0    1
 -2       978      1046      1047      4011      4015      4013
 -1      2014    8    0    1
 -2       980       979      1048      3802      4016      4017
 -1      2015    8    0    1
 -2       979      1047      1048      4014      4018      4016
 -1      2016    8    0    1
 -2       981       980      1049      3805      4019      4020
 -1      2017    8    0    1
 -2       980      1048      1049      4017      4021      4019
 -1      2018    8    0    1
 -2       982       981      1050      3808      4022      4023
 -1      2019    8    0    1
 -2       981      1049      1050      4020      4024      4022
 -1      2020    8    0    1
 -2       983       982      1051      3811      4025      4026
 -1      2021    8    0    1
 -2       982      1050      1051      4023      4027      4025
 -1      2022    8    0    1
 -2       984       983      1052      3814      4028      4029
 -1      2023    8    0    1
 -2       983      1051      1052      4026      4030      4028
 -1      2024    8    0    1
 -2       985       984      1053      3817      4031      4032
 -1      2025    8    0    1
 -2       984      1052      1053      4029      4033      4031
 -1      2026    8    0    1
 -2       986       985      1054      3820      4034      4035
 -1      2027    8    0    1
 -2       985      1053      1054      4032      4036      4034
 -1      2028    8    0    1
 -2       987       986      1055      3823      4037      4038
 -1      2029    8    0    1
 -2       986      1054      1055      4035      4039      4037
 -1      2030    8    0    1
 -2       988       987      1056      3826      4040      4041
 -1      2031    8    0    1
 -2       987      1055      1056      4038      4042      4040
 -1      2032    8    0    1
 -2       989       988      1057      3829      4043      4044
 -1      2033    8    0    1
 -2       988      1056      1057      4041      4045      4043
 -1      2034    8    0    1
 -2       990       989      1058      3832      4046      4047
 -1      2035    8    0    1
 -2       989      1057      1058      4044      4048      4046
 -1      2036    8    0    1
 -2       991       990      1059      3835      4049      4050
 -1      2037    8    0    1
 -2       990      1058      1059      4047      4051      4049
 -1      2038    8    0    1
 -2       992       991      1060      3838      4052      4053
 -1      2039    8    0    1
 -2       991      1059      1060      4050      4054      4052
 -1      2040    8    0    1
 -2       993       992      1061      3841      4055      4056
 -1      2041    8    0    1
 -2       992      1060      1061      4053      4057      4055
 -1      2042    8    0    1
 -2       994       993      1062      3844      4058      4059
 -1      2043    8    0    1
 -2       993      1061      1062      4056      4060      4058
 -1      2044    8    0    1
 -2       995       994      1063      3847      4061      4062
 -1      2045    8    0    1
 -2       994      1062      1063      4059      4063      4061
 -1      2046    8    0    1
 -2       996       995      1064      3850      4064      4065
 -1      2047    8    0    1
 -2       995      1063      1064      4062      4066      4064
 -1      2048    8    0    1
 -2       997       996      1065      3853      4067      4068
 -1      2049    8    0    1
 -2       996      1064      1065      4065      4069      4067
 -1      2050    8    0    1
 -2       998       997      1066      3856      4070      4071
 -1      2051    8    0    1
 -2       997      1065      1066      4068      4072      4070
 -1      2052    8    0    1
 -2       999       998      1067      3859      4073      4074
 -1      2053    8    0    1
 -2      1040       999      1067      3991      4074      4075
 -1      2054    8    0    1
 -2       998      1066      1067      4071      4076      4073
 -1      2055    8    0    1
 -2      1001       972      1068      3865      4077      4078
 -1      2056    8    0    1
 -2      1006      1007      1069      3885      4079      4080
 -1      2057    8    0    1
 -2       868       794       890      3773      3522      3959
 -1      2058    8    0    1
 -2      1002      1028      1070      3986      4081      4082
 -1      2059    8    0    1
 -2       973      1035      1071      3989      4083      4084
 -1      2060    8    0    1
 -2       973      1071      1030      4084      4085      3958
 -1      2061    8    0    1
 -2      1005      1004      1072      3879      4086      4087
 -1      2062    8    0    1
 -2      1007      1008      1073      3888      4088      4089
 -1      2063    8    0    1
 -2      1007      1073      1069      4089      4090      4079
 -1      2064    8    0    1
 -2      1008      1009      1074      3891      4091      4092
 -1      2065    8    0    1
 -2      1008      1074      1073      4092      4093      4088
 -1      2066    8    0    1
 -2      1009      1010      1075      3894      4094      4095
 -1      2067    8    0    1
 -2      1009      1075      1074      4095      4096      4091
 -1      2068    8    0    1
 -2      1010      1011      1076      3897      4097      4098
 -1      2069    8    0    1
 -2      1010      1076      1075      4098      4099      4094
 -1      2070    8    0    1
 -2      1011      1012      1077      3900      4100      4101
 -1      2071    8    0    1
 -2      1011      1077      1076      4101      4102      4097
 -1      2072    8    0    1
 -2      1012      1013      1078      3903      4103      4104
 -1      2073    8    0    1
 -2      1012      1078      1077      4104      4105      4100
 -1      2074    8    0    1
 -2      1013      1014      1079      3906      4106      4107
 -1      2075    8    0    1
 -2      1013      1079      1078      4107      4108      4103
 -1      2076    8    0    1
 -2      1014      1015      1080      3909      4109      4110
 -1      2077    8    0    1
 -2      1014      1080      1079      4110      4111      4106
 -1      2078    8    0    1
 -2      1015      1016      1081      3912      4112      4113
 -1      2079    8    0    1
 -2      1015      1081      1080      4113      4114      4109
 -1      2080    8    0    1
 -2      1016      1017      1082      3915      4115      4116
 -1      2081    8    0    1
 -2      1016      1082      1081      4116      4117      4112
 -1      2082    8    0    1
 -2      1017      1018      1083      3918      4118      4119
 -1      2083    8    0    1
 -2      1017      1083      1082      4119      4120      4115
 -1      2084    8    0    1
 -2      1018      1019      1084      3921      4121      4122
 -1      2085    8    0    1
 -2      1018      1084      1083      4122      4123      4118
 -1      2086    8    0    1
 -2      1019      1020      1085      3924      4124      4125
 -1      2087    8    0    1
 -2      1019      1085      1084      4125      4126      4121
 -1      2088    8    0    1
 -2      1020      1021      1086      3927      4127      4128
 -1      2089    8    0    1
 -2      1020      1086      1085      4128      4129      4124
 -1      2090    8    0    1
 -2      1021      1022      1087      3930      4130      4131
 -1      2091    8    0    1
 -2      1021      1087      1086      4131      4132      4127
 -1      2092    8    0    1
 -2      1022      1023      1088      3933      4133      4134
 -1      2093    8    0    1
 -2      1022      1088      1087      4134      4135      4130
 -1      2094    8    0    1
 -2      1023      1024      1089      3936      4136      4137
 -1      2095    8    0    1
 -2      1023      1089      1088      4137      4138      4133
 -1      2096    8    0    1
 -2      1024      1025      1090      3939      4139      4140
 -1      2097    8    0    1
 -2      1024      1090      1089      4140      4141      4136
 -1      2098    8    0    1
 -2      1026      1005      1091      3944      4142      4143
 -1      2099    8    0    1
 -2      1005      1072      1091      4087      4144      4142
 -1      2100    8    0    1
 -2      1000      1006      1092      3882      4145      4146
 -1      2101    8    0    1
 -2      1006      1069      1092      4080      4147      4145
 -1      2102    8    0    1
 -2      1041       968      1093      3994      4148      4149
 -1      2103    8    0    1
 -2       968       966      1093      3990      4150      4148
 -1      2104    8    0    1
 -2      1028      1027      1094      3950      4151      4152
 -1      2105    8    0    1
 -2      1028      1094      1070      4152      4153      4081
 -1      2106    8    0    1
 -2       974      1002      1095      3869      4154      4155
 -1      2107    8    0    1
 -2      1002      1070      1095      4082      4156      4154
 -1      2108    8    0    1
 -2       960      1039      1034      3999      4157      3972
 -1      2109    8    0    1
 -2      1031       963      1096      3962      4158      4159
 -1      2110    8    0    1
 -2       963      1042      1096      3997      4160      4158
 -1      2111    8    0    1
 -2       957       969      1033      4000      3967      4001
 -1      2112    8    0    1
 -2       972      1026      1097      3975      4161      4162
 -1      2113    8    0    1
 -2      1068       972      1097      4077      4162      4163
 -1      2114    8    0    1
 -2      1026      1091      1097      4143      4164      4161
 -1      2115    8    0    1
 -2      1004      1000      1098      3876      4165      4166
 -1      2116    8    0    1
 -2      1004      1098      1072      4166      4167      4086
 -1      2117    8    0    1
 -2       975       974      1099      3787      4168      4169
 -1      2118    8    0    1
 -2       974      1095      1099      4155      4170      4168
 -1      2119    8    0    1
 -2      1031      1096      1037      4159      4171      3980
 -1      2120    8    0    1
 -2      1035      1043      1100      4004      4172      4173
 -1      2121    8    0    1
 -2      1035      1100      1071      4173      4174      4083
 -1      2122    8    0    1
 -2       966      1038      1093      3985      4175      4150
 -1      2123    8    0    1
 -2      1034      1039      1036      4157      4176      4177
 -1      2124    8    0    1
 -2       970      1003      1101      3872      4178      4179
 -1      2125    8    0    1
 -2       970      1101      1029      4179      4180      3954
 -1      2126    8    0    1
 -2      1025      1029      1090      3953      4181      4139
 -1      2127    8    0    1
 -2      1041      1093      1102      4149      4182      4183
 -1      2128    8    0    1
 -2      1038      1001      1103      3983      4184      4185
 -1      2129    8    0    1
 -2      1001      1068      1103      4078      4186      4184
 -1      2130    8    0    1
 -2      1039       971      1104      3987      4187      4188
 -1      2131    8    0    1
 -2       975      1099      1044      4169      4189      4005
 -1      2132    8    0    1
 -2      1000      1092      1098      4146      4190      4165
 -1      2133    8    0    1
 -2      1034      1036      1037      4177      3982      4191
 -1      2134    8    0    1
 -2      1027      1030      1105      3957      4192      4193
 -1      2135    8    0    1
 -2      1094      1027      1105      4151      4193      4194
 -1      2136    8    0    1
 -2      1030      1071      1105      4085      4195      4192
 -1      2137    8    0    1
 -2      1036      1039      1104      4176      4188      4196
 -1      2138    8    0    1
 -2      1045      1044      1106      4009      4197      4198
 -1      2139    8    0    1
 -2      1046      1045      1091      4012      4199      4200
 -1      2140    8    0    1
 -2      1047      1046      1072      4015      4201      4202
 -1      2141    8    0    1
 -2      1048      1047      1098      4018      4203      4204
 -1      2142    8    0    1
 -2      1049      1048      1092      4021      4205      4206
 -1      2143    8    0    1
 -2      1050      1049      1069      4024      4207      4208
 -1      2144    8    0    1
 -2      1051      1050      1073      4027      4209      4210
 -1      2145    8    0    1
 -2      1052      1051      1074      4030      4211      4212
 -1      2146    8    0    1
 -2      1053      1052      1075      4033      4213      4214
 -1      2147    8    0    1
 -2      1054      1053      1076      4036      4215      4216
 -1      2148    8    0    1
 -2      1055      1054      1077      4039      4217      4218
 -1      2149    8    0    1
 -2      1056      1055      1078      4042      4219      4220
 -1      2150    8    0    1
 -2      1057      1056      1079      4045      4221      4222
 -1      2151    8    0    1
 -2      1058      1057      1080      4048      4223      4224
 -1      2152    8    0    1
 -2      1059      1058      1081      4051      4225      4226
 -1      2153    8    0    1
 -2      1060      1059      1082      4054      4227      4228
 -1      2154    8    0    1
 -2      1061      1060      1083      4057      4229      4230
 -1      2155    8    0    1
 -2      1062      1061      1084      4060      4231      4232
 -1      2156    8    0    1
 -2      1063      1062      1085      4063      4233      4234
 -1      2157    8    0    1
 -2      1064      1063      1086      4066      4235      4236
 -1      2158    8    0    1
 -2      1065      1064      1087      4069      4237      4238
 -1      2159    8    0    1
 -2      1066      1065      1088      4072      4239      4240
 -1      2160    8    0    1
 -2      1073      1074      1051      4093      4211      4210
 -1      2161    8    0    1
 -2      1074      1075      1052      4096      4213      4212
 -1      2162    8    0    1
 -2      1080      1057      1079      4223      4222      4111
 -1      2163    8    0    1
 -2      1093      1038      1107      4175      4241      4242
 -1      2164    8    0    1
 -2      1093      1107      1102      4242      4243      4182
 -1      2165    8    0    1
 -2      1044      1099      1068      4189      4244      4245
 -1      2166    8    0    1
 -2      1003       967      1108      3873      4246      4247
 -1      2167    8    0    1
 -2      1092      1048      1098      4205      4204      4190
 -1      2168    8    0    1
 -2      1069      1073      1050      4090      4209      4208
 -1      2169    8    0    1
 -2      1075      1076      1053      4099      4215      4214
 -1      2170    8    0    1
 -2      1076      1077      1054      4102      4217      4216
 -1      2171    8    0    1
 -2      1077      1078      1055      4105      4219      4218
 -1      2172    8    0    1
 -2      1078      1079      1056      4108      4221      4220
 -1      2173    8    0    1
 -2      1080      1081      1058      4114      4225      4224
 -1      2174    8    0    1
 -2      1081      1082      1059      4117      4227      4226
 -1      2175    8    0    1
 -2      1082      1083      1060      4120      4229      4228
 -1      2176    8    0    1
 -2      1083      1084      1061      4123      4231      4230
 -1      2177    8    0    1
 -2      1084      1085      1062      4126      4233      4232
 -1      2178    8    0    1
 -2      1085      1086      1063      4129      4235      4234
 -1      2179    8    0    1
 -2      1086      1087      1064      4132      4237      4236
 -1      2180    8    0    1
 -2      1087      1088      1065      4135      4239      4238
 -1      2181    8    0    1
 -2      1088      1089      1066      4138      4248      4240
 -1      2182    8    0    1
 -2      1072      1098      1047      4167      4203      4202
 -1      2183    8    0    1
 -2      1041      1102      1109      4183      4249      4250
 -1      2184    8    0    1
 -2      1091      1072      1046      4144      4201      4200
 -1      2185    8    0    1
 -2      1109      1102      1110      4249      4251      4252
 -1      2186    8    0    1
 -2      1042      1041      1109      3998      4250      4253
 -1      2187    8    0    1
 -2      1092      1069      1049      4147      4207      4206
 -1      2188    8    0    1
 -2       967      1040      1108      3993      4254      4246
 -1      2189    8    0    1
 -2      1095      1070      1111      4156      4255      4256
 -1      2190    8    0    1
 -2      1043      1032      1112      4003      4257      4258
 -1      2191    8    0    1
 -2      1090      1029      1101      4181      4180      4259
 -1      2192    8    0    1
 -2      1096      1042      1100      4160      4260      4261
 -1      2193    8    0    1
 -2      1099      1095      1103      4170      4262      4263
 -1      2194    8    0    1
 -2      1068      1099      1103      4244      4263      4186
 -1      2195    8    0    1
 -2      1003      1108      1101      4247      4264      4178
 -1      2196    8    0    1
 -2      1042      1109      1100      4253      4265      4260
 -1      2197    8    0    1
 -2      1100      1043      1096      4172      4266      4261
 -1      2198    8    0    1
 -2       965      1036      1104      3979      4196      4267
 -1      2199    8    0    1
 -2      1094      1105      1110      4194      4268      4269
 -1      2200    8    0    1
 -2      1044      1068      1106      4245      4270      4197
 -1      2201    8    0    1
 -2      1108      1040      1113      4254      4271      4272
 -1      2202    8    0    1
 -2      1107      1038      1103      4241      4185      4273
 -1      2203    8    0    1
 -2      1066      1089      1114      4248      4274      4275
 -1      2204    8    0    1
 -2      1104       971      1033      4187      4002      4276
 -1      2205    8    0    1
 -2      1094      1110      1115      4269      4277      4278
 -1      2206    8    0    1
 -2      1070      1094      1115      4153      4278      4279
 -1      2207    8    0    1
 -2      1110      1102      1115      4251      4280      4277
 -1      2208    8    0    1
 -2      1102      1107      1115      4243      4281      4280
 -1      2209    8    0    1
 -2      1089      1090      1113      4141      4282      4283
 -1      2210    8    0    1
 -2      1111      1070      1115      4255      4279      4284
 -1      2211    8    0    1
 -2      1091      1045      1106      4199      4198      4285
 -1      2212    8    0    1
 -2      1043      1112      1096      4258      4286      4266
 -1      2213    8    0    1
 -2      1032      1034      1112      3974      4287      4257
 -1      2214    8    0    1
 -2      1108      1113      1101      4272      4288      4264
 -1      2215    8    0    1
 -2      1071      1100      1116      4174      4289      4290
 -1      2216    8    0    1
 -2      1106      1068      1097      4270      4163      4291
 -1      2217    8    0    1
 -2       965      1104      1033      4267      4276      3968
 -1      2218    8    0    1
 -2      1071      1116      1105      4290      4292      4195
 -1      2219    8    0    1
 -2      1106      1097      1091      4291      4164      4285
 -1      2220    8    0    1
 -2      1113      1040      1114      4271      4293      4294
 -1      2221    8    0    1
 -2      1040      1067      1114      4075      4295      4293
 -1      2222    8    0    1
 -2      1114      1089      1113      4274      4283      4294
 -1      2223    8    0    1
 -2      1095      1111      1103      4256      4296      4262
 -1      2224    8    0    1
 -2      1111      1115      1107      4284      4281      4297
 -1      2225    8    0    1
 -2      1096      1112      1037      4286      4298      4171
 -1      2226    8    0    1
 -2      1111      1107      1103      4297      4273      4296
 -1      2227    8    0    1
 -2      1100      1109      1116      4265      4299      4289
 -1      2228    8    0    1
 -2      1110      1105      1116      4268      4292      4300
 -1      2229    8    0    1
 -2      1109      1110      1116      4252      4300      4299
 -1      2230    8    0    1
 -2      1067      1066      1114      4076      4275      4295
 -1      2231    8    0    1
 -2      1113      1090      1101      4282      4259      4288
 -1      2232    8    0    1
 -2      1034      1037      1112      4191      4298      4287
 -3
    1PSTEP                         1           1           1          
  100CL  101 1.000000000        4300                     0    1           1
 -4  DISP        4    1
 -5  D1          1    2    1    0
 -5  D2          1    2    2    0
 -5  D3          1    2    3    0
 -5  ALL         1    2    0    0    1ALL
 -1         1 4.35788E-04-8.17297E-04-1.17972E-15
 -1         2 4.92808E-03-1.08651E-03-7.94452E-15
 -1         3 1.37016E-02-7.76286E-03-1.98520E-13
 -1         4 1.68884E-02-9.19145E-03-2.12380E-13
 -1         5 0.00000E+00 0.00000E+00 0.00000E+00
 -1         6 0.00000E+00 0.00000E+00 0.00000E+00
 -1         7 0.00000E+00 0.00000E+00 0.00000E+00
 -1         8 0.00000E+00 0.00000E+00 0.00000E+00
 -1         9 0.00000E+00 0.00000E+00 0.00000E+00
 -1        10 0.00000E+00 0.00000E+00 0.00000E+00
 -1        11 0.00000E+00 0.00000E+00 0.00000E+00
 -1        12 0.00000E+00 0.00000E+00 0.00000E+00
 -1        13 0.00000E+00 0.00000E+00 0.00000E+00
 -1        14 0.00000E+00 0.00000E+00 0.00000E+00
 -1        15 0.00000E+00 0.00000E+00 0.00000E+00
 -1        16 0.00000E+00 0.00000E+00 0.00000E+00
 -1        17 0.00000E+00 0.00000E+00 0.00000E+00
 -1        18 0.00000E+00 0.00000E+00 0.00000E+00
 -1        19 0.00000E+00 0.00000E+00 0.00000E+00
 -1        20 0.00000E+00 0.00000E+00 0.00000E+00
 -1        21 0.00000E+00 0.00000E+00 0.00000E+00
 -1        22 0.00000E+00 0.00000E+00 0.00000E+00
 -1        23 6.34757E-04-2.80822E-04 3.12521E-17
 -1        24 1.23691E-03-5.39228E-04-1.65747E-16
 -1        25 1.85491E-03-9.38620E-04-6.01360E-16
 -1        26 2.39408E-03-1.46533E-03-1.26946E-15
 -1        27 2.73983E-03-1.93004E-03-2.06391E-15
 -1        28 2.97231E-03-2.25236E-03-3.11208E-15
 -1        29 3.18484E-03-2.30662E-03-4.52139E-15
 -1        30 3.43930E-03-2.15472E-03-5.99495E-15
 -1        31 3.85975E-03-1.90535E-03-7.99148E-15
 -1        32 4.40296E-03-1.72276E-03-1.04389E-14
 -1        33 4.93263E-03-1.68839E-03-1.30770E-14
 -1        34 5.40565E-03-1.76589E-03-1.58791E-14
 -1        35 5.82071E-03-1.90838E-03-1.88457E-14
 -1        36 6.19100E-03-2.08366E-03-2.19772E-14
 -1        37 6.53051E-03-2.27378E-03-2.52697E-14
 -1        38 6.84999E-03-2.46974E-03-2.87198E-14
 -1        39 7.15676E-03-2.66736E-03-3.23239E-14
 -1        40 7.45555E-03-2.86486E-03-3.60795E-14
 -1        41 7.74936E-03-3.06157E-03-3.99743E-14
 -1        42 8.04005E-03-3.25734E-03-4.40068E-14
 -1        43 8.32878E-03-3.45223E-03-4.81896E-14
 -1        44 8.61629E-03-3.64636E-03-5.25198E-14
 -1        45 8.90302E-03-3.83986E-03-5.69991E-14
 -1        46 9.18928E-03-4.03286E-03-6.16078E-14
 -1        47 9.47524E-03-4.22545E-03-6.63374E-14
 -1        48 9.76101E-03-4.41773E-03-7.11829E-14
 -1        49 1.00467E-02-4.60976E-03-7.61139E-14
 -1        50 1.03323E-02-4.80159E-03-8.11308E-14
 -1        51 1.06179E-02-4.99327E-03-8.62407E-14
 -1        52 1.09035E-02-5.18483E-03-9.14341E-14
 -1        53 1.11890E-02-5.37630E-03-9.67264E-14
 -1        54 1.14746E-02-5.56769E-03-1.02102E-13
 -1        55 1.17603E-02-5.75904E-03-1.07563E-13
 -1        56 1.20459E-02-5.95034E-03-1.13103E-13
 -1        57 1.23315E-02-6.14161E-03-1.18701E-13
 -1        58 1.26172E-02-6.33286E-03-1.24364E-13
 -1        59 1.29028E-02-6.52409E-03-1.30080E-13
 -1        60 1.31885E-02-6.71532E-03-1.35860E-13
 -1        61 1.34742E-02-6.90653E-03-1.41682E-13
 -1        62 1.37599E-02-7.09774E-03-1.47525E-13
 -1        63 1.40456E-02-7.28895E-03-1.53383E-13
 -1        64 1.43313E-02-7.48015E-03-1.59241E-13
 -1        65 1.46170E-02-7.67136E-03-1.65065E-13
 -1        66 1.49027E-02-7.86256E-03-1.70918E-13
 -1        67 1.51884E-02-8.05377E-03-1.76794E-13
 -1        68 1.54741E-02-8.24497E-03-1.82697E-13
 -1        69 1.57598E-02-8.43618E-03-1.88641E-13
 -1        70 1.60455E-02-8.62738E-03-1.94614E-13
 -1        71 1.63312E-02-8.81859E-03-2.00606E-13
 -1        72 1.66170E-02-9.00980E-03-2.06639E-13
 -1        73 3.89483E-04 2.73662E-04 1.17070E-16
 -1        74 6.36744E-04 4.20925E-04-1.30409E-17
 -1        75 8.54260E-04 5.01354E-04-3.86820E-16
 -1        76 1.05866E-03 5.28996E-04-1.00599E-15
 -1        77 1.25826E-03 5.10015E-04-1.87130E-15
 -1        78 1.45898E-03 4.48944E-04-2.98146E-15
 -1        79 1.66569E-03 3.50556E-04-4.33131E-15
 -1        80 1.88220E-03 2.20539E-04-5.91891E-15
 -1        81 2.11090E-03 6.53974E-05-7.73987E-15
 -1        82 2.35257E-03-1.08153E-04-9.78401E-15
 -1        83 2.60657E-03-2.93916E-04-1.20408E-14
 -1        84 2.87117E-03-4.86780E-04-1.45047E-14
 -1        85 3.14416E-03-6.82971E-04-1.71676E-14
 -1        86 3.42325E-03-8.80013E-04-2.00190E-14
 -1        87 3.70644E-03-1.07650E-03-2.30554E-14
 -1        88 3.99210E-03-1.27182E-03-2.62617E-14
 -1        89 4.27906E-03-1.46582E-03-2.96345E-14
 -1        90 4.56654E-03-1.65864E-03-3.31723E-14
 -1        91 4.85408E-03-1.85054E-03-3.68749E-14
 -1        92 5.14141E-03-2.04178E-03-4.07337E-14
 -1        93 5.42843E-03-2.23261E-03-4.47405E-14
 -1        94 5.71512E-03-2.42320E-03-4.88799E-14
 -1        95 6.00152E-03-2.61370E-03-5.31487E-14
 -1        96 6.28768E-03-2.80420E-03-5.75399E-14
 -1        97 6.57365E-03-2.99475E-03-6.20497E-14
 -1        98 6.85948E-03-3.18538E-03-6.66621E-14
 -1        99 7.14522E-03-3.37610E-03-7.13816E-14
 -1       100 7.43089E-03-3.56691E-03-7.62136E-14
 -1       101 7.71654E-03-3.75781E-03-8.11470E-14
 -1       102 8.00216E-03-3.94878E-03-8.61784E-14
 -1       103 8.28779E-03-4.13981E-03-9.12977E-14
 -1       104 8.57341E-03-4.33088E-03-9.64851E-14
 -1       105 8.85905E-03-4.52200E-03-1.01743E-13
 -1       106 9.14469E-03-4.71314E-03-1.07083E-13
 -1       107 9.43035E-03-4.90431E-03-1.12489E-13
 -1       108 9.71601E-03-5.09549E-03-1.17956E-13
 -1       109 1.00017E-02-5.28668E-03-1.23459E-13
 -1       110 1.02874E-02-5.47788E-03-1.29000E-13
 -1       111 1.05731E-02-5.66909E-03-1.34598E-13
 -1       112 1.08588E-02-5.86030E-03-1.40247E-13
 -1       113 1.11445E-02-6.05151E-03-1.45930E-13
 -1       114 1.14302E-02-6.24273E-03-1.51662E-13
 -1       115 1.17159E-02-6.43394E-03-1.57443E-13
 -1       116 1.20016E-02-6.62515E-03-1.63261E-13
 -1       117 1.22873E-02-6.81636E-03-1.69119E-13
 -1       118 1.25730E-02-7.00758E-03-1.75007E-13
 -1       119 1.28587E-02-7.19879E-03-1.80940E-13
 -1       120 1.31444E-02-7.39000E-03-1.86874E-13
 -1       121 1.34301E-02-7.58121E-03-1.92834E-13
 -1       122 1.38896E-02-7.84714E-03-1.99408E-13
 -1       123 1.40776E-02-7.93143E-03-2.00286E-13
 -1       124 1.42656E-02-8.01571E-03-2.01145E-13
 -1       125 1.44537E-02-8.10000E-03-2.02014E-13
 -1       126 1.46417E-02-8.18429E-03-2.02876E-13
 -1       127 1.48265E-02-8.26715E-03-2.03715E-13
 -1       128 1.50145E-02-8.35143E-03-2.04579E-13
 -1       129 1.52026E-02-8.43572E-03-2.05461E-13
 -1       130 1.53906E-02-8.52001E-03-2.06350E-13
 -1       131 1.55786E-02-8.60430E-03-2.07198E-13
 -1       132 1.57666E-02-8.68859E-03-2.08018E-13
 -1       133 1.59515E-02-8.77145E-03-2.08814E-13
 -1       134 1.61395E-02-8.85573E-03-2.09610E-13
 -1       135 1.63275E-02-8.94002E-03-2.10356E-13
 -1       136 1.65155E-02-9.02431E-03-2.11058E-13
 -1       137 1.67036E-02-9.10859E-03-2.11721E-13
 -1       138 4.78301E-03-9.06209E-04-7.83752E-15
 -1       139 4.51869E-03-7.18293E-04-7.48045E-15
 -1       140 4.20462E-03-5.60765E-04-6.98999E-15
 -1       141 3.75671E-03-3.93156E-04-6.24975E-15
 -1       142 3.29272E-03-2.63664E-04-5.47511E-15
 -1       143 2.81174E-03-1.64951E-04-4.68518E-15
 -1       144 2.31222E-03-9.44854E-05-3.88537E-15
 -1       145 1.84220E-03-5.66002E-05-3.16156E-15
 -1       146 1.35766E-03-4.73442E-05-2.44004E-15
 -1       147 9.63640E-04-6.38806E-05-1.87930E-15
 -1       148 6.43800E-04-9.96338E-05-1.43932E-15
 -1       149 3.98302E-04-1.52603E-04-1.11346E-15
 -1       150 2.49906E-04-2.16631E-04-9.26558E-16
 -1       151 1.71120E-04-3.02821E-04-8.39117E-16
 -1       152 1.68131E-04-4.30841E-04-8.53110E-16
 -1       153 2.54217E-04-6.01091E-04-9.69158E-16
 -1       154 7.29406E-04-1.08400E-03-1.49627E-15
 -1       155 1.12811E-03-1.37618E-03-1.91496E-15
 -1       156 1.63463E-03-1.66940E-03-2.45600E-15
 -1       157 2.20174E-03-1.90322E-03-3.09084E-15
 -1       158 2.81468E-03-2.03955E-03-3.83379E-15
 -1       159 3.43833E-03-2.04729E-03-4.68257E-15
 -1       160 3.95550E-03-1.95597E-03-5.49455E-15
 -1       161 4.37605E-03-1.80820E-03-6.26333E-15
 -1       162 4.68555E-03-1.63637E-03-6.93609E-15
 -1       163 4.88904E-03-1.44896E-03-7.49149E-15
 -1       164 4.96619E-03-1.25884E-03-7.83865E-15
 -1       165 3.06334E-04-6.57267E-05-5.08152E-17
 -1       166 1.82998E-04-3.54499E-05-7.55587E-17
 -1       167 9.89627E-05-5.77880E-05-8.64279E-17
 -1       168 7.78305E-05-9.70416E-05-9.08917E-17
 -1       169 1.03243E-04-1.28441E-04-9.48067E-17
 -1       170 1.64169E-04-1.32711E-04-1.00397E-16
 -1       171 2.21345E-04-1.02219E-04-1.05672E-16
 -1       172 2.55161E-04-5.49658E-05-1.10223E-16
 -1       173 2.66456E-04-8.25896E-06-1.12893E-16
 -1       174 2.63593E-04 3.01323E-05-1.13394E-16
 -1       175 2.54119E-04 5.92913E-05-1.10826E-16
 -1       176 2.42274E-04 8.27012E-05-1.03528E-16
 -1       177 2.30982E-04 1.02947E-04-8.96567E-17
 -1       178 2.22953E-04 1.23386E-04-6.49776E-17
 -1       179 2.24489E-04 1.49633E-04-2.15553E-17
 -1       180 2.73822E-04 2.03135E-04 2.57430E-17
 -1       181 7.01781E-04-2.55116E-04-1.30341E-16
 -1       182 1.20421E-03-5.67850E-04-4.76229E-16
 -1       183 1.69564E-03-1.02267E-03-1.03454E-15
 -1       184 2.11948E-03-1.51516E-03-1.71620E-15
 -1       185 3.01357E-03-2.24940E-03-3.96086E-15
 -1       186 3.36787E-03-2.17220E-03-5.29798E-15
 -1       187 3.80573E-03-1.90994E-03-7.15604E-15
 -1       188 4.29364E-03-1.66436E-03-9.48473E-15
 -1       189 4.75636E-03-1.57740E-03-1.20293E-14
 -1       190 5.18131E-03-1.62587E-03-1.47501E-14
 -1       191 5.56929E-03-1.75621E-03-1.76351E-14
 -1       192 5.92676E-03-1.92817E-03-2.06817E-14
 -1       193 6.26136E-03-2.11876E-03-2.38875E-14
 -1       194 6.57975E-03-2.31643E-03-2.72523E-14
 -1       195 6.88705E-03-2.51593E-03-3.07723E-14
 -1       196 7.18692E-03-2.71507E-03-3.44444E-14
 -1       197 7.48187E-03-2.91309E-03-3.82607E-14
 -1       198 7.77358E-03-3.10986E-03-4.22163E-14
 -1       199 8.06315E-03-3.30550E-03-4.63155E-14
 -1       200 8.35133E-03-3.50018E-03-5.05610E-14
 -1       201 8.63859E-03-3.69409E-03-5.49522E-14
 -1       202 8.92526E-03-3.88739E-03-5.94768E-14
 -1       203 9.21152E-03-4.08021E-03-6.41285E-14
 -1       204 9.49754E-03-4.27266E-03-6.88978E-14
 -1       205 9.78339E-03-4.46481E-03-7.37741E-14
 -1       206 1.00691E-02-4.65673E-03-7.87369E-14
 -1       207 1.03548E-02-4.84848E-03-8.37908E-14
 -1       208 1.06405E-02-5.04009E-03-8.89288E-14
 -1       209 1.09261E-02-5.23159E-03-9.41603E-14
 -1       210 1.12118E-02-5.42301E-03-9.94766E-14
 -1       211 1.14974E-02-5.61438E-03-1.04877E-13
 -1       212 1.17831E-02-5.80569E-03-1.10363E-13
 -1       213 1.20687E-02-5.99697E-03-1.15915E-13
 -1       214 1.23544E-02-6.18823E-03-1.21538E-13
 -1       215 1.26400E-02-6.37946E-03-1.27223E-13
 -1       216 1.29257E-02-6.57069E-03-1.32962E-13
 -1       217 1.32114E-02-6.76190E-03-1.38744E-13
 -1       218 1.34971E-02-6.95312E-03-1.44565E-13
 -1       219 1.37828E-02-7.14432E-03-1.50406E-13
 -1       220 1.40685E-02-7.33553E-03-1.56248E-13
 -1       221 1.43542E-02-7.52673E-03-1.62086E-13
 -1       222 1.46399E-02-7.71794E-03-1.67929E-13
 -1       223 1.49256E-02-7.90914E-03-1.73794E-13
 -1       224 1.52113E-02-8.10034E-03-1.79683E-13
 -1       225 1.54970E-02-8.29155E-03-1.85606E-13
 -1       226 1.57828E-02-8.48276E-03-1.91573E-13
 -1       227 1.60685E-02-8.67396E-03-1.97563E-13
 -1       228 1.63542E-02-8.86517E-03-2.03578E-13
 -1       229 1.65289E-02-8.98688E-03-2.07650E-13
 -1       230 5.49645E-04 3.56954E-04-1.45412E-16
 -1       231 8.01631E-04 4.46290E-04-5.44920E-16
 -1       232 1.03830E-03 4.80496E-04-1.18229E-15
 -1       233 1.26749E-03 4.66304E-04-2.06115E-15
 -1       234 1.49472E-03 4.08468E-04-3.18119E-15
 -1       235 1.72444E-03 3.11890E-04-4.53991E-15
 -1       236 1.95997E-03 1.82425E-04-6.13388E-15
 -1       237 2.20349E-03 2.68505E-05-7.95859E-15
 -1       238 2.45592E-03-1.47772E-04-1.00057E-14
 -1       239 2.71707E-03-3.34906E-04-1.22658E-14
 -1       240 2.98596E-03-5.29162E-04-1.47323E-14
 -1       241 3.26112E-03-7.26586E-04-1.73950E-14
 -1       242 3.54099E-03-9.24614E-04-2.02473E-14
 -1       243 3.82414E-03-1.12183E-03-2.32814E-14
 -1       244 4.10936E-03-1.31762E-03-2.64863E-14
 -1       245 4.39576E-03-1.51191E-03-2.98570E-14
 -1       246 4.68271E-03-1.70489E-03-3.33905E-14
 -1       247 4.96982E-03-1.89685E-03-3.70862E-14
 -1       248 5.25683E-03-2.08808E-03-4.09361E-14
 -1       249 5.54366E-03-2.27887E-03-4.49342E-14
 -1       250 5.83025E-03-2.46942E-03-4.90680E-14
 -1       251 6.11661E-03-2.65987E-03-5.33311E-14
 -1       252 6.40277E-03-2.85032E-03-5.77189E-14
 -1       253 6.68878E-03-3.04083E-03-6.22251E-14
 -1       254 6.97466E-03-3.23143E-03-6.68401E-14
 -1       255 7.26045E-03-3.42212E-03-7.15595E-14
 -1       256 7.54618E-03-3.61292E-03-7.63864E-14
 -1       257 7.83188E-03-3.80380E-03-8.13156E-14
 -1       258 8.11754E-03-3.99476E-03-8.63435E-14
 -1       259 8.40320E-03-4.18578E-03-9.14573E-14
 -1       260 8.68886E-03-4.37686E-03-9.66440E-14
 -1       261 8.97452E-03-4.56797E-03-1.01904E-13
 -1       262 9.26018E-03-4.75911E-03-1.07238E-13
 -1       263 9.54585E-03-4.95028E-03-1.12633E-13
 -1       264 9.83152E-03-5.14146E-03-1.18092E-13
 -1       265 1.01172E-02-5.33266E-03-1.23598E-13
 -1       266 1.04029E-02-5.52386E-03-1.29150E-13
 -1       267 1.06886E-02-5.71507E-03-1.34750E-13
 -1       268 1.09743E-02-5.90628E-03-1.40400E-13
 -1       269 1.12600E-02-6.09749E-03-1.46092E-13
 -1       270 1.15457E-02-6.28870E-03-1.51823E-13
 -1       271 1.18314E-02-6.47992E-03-1.57595E-13
 -1       272 1.21171E-02-6.67113E-03-1.63405E-13
 -1       273 1.24028E-02-6.86234E-03-1.69253E-13
 -1       274 1.26885E-02-7.05356E-03-1.75140E-13
 -1       275 1.29742E-02-7.24477E-03-1.81063E-13
 -1       276 1.32600E-02-7.43598E-03-1.87000E-13
 -1       277 1.35457E-02-7.62719E-03-1.92959E-13
 -1       278 1.37362E-02-7.72370E-03-1.94669E-13
 -1       279 1.39242E-02-7.80798E-03-1.95545E-13
 -1       280 1.41122E-02-7.89227E-03-1.96417E-13
 -1       281 1.43002E-02-7.97656E-03-1.97289E-13
 -1       282 1.44851E-02-8.05942E-03-1.98144E-13
 -1       283 1.46731E-02-8.14370E-03-1.99014E-13
 -1       284 1.48611E-02-8.22799E-03-1.99884E-13
 -1       285 1.50491E-02-8.31228E-03-2.00760E-13
 -1       286 1.52372E-02-8.39657E-03-2.01617E-13
 -1       287 1.54252E-02-8.48086E-03-2.02441E-13
 -1       288 1.56100E-02-8.56372E-03-2.03232E-13
 -1       289 1.57980E-02-8.64800E-03-2.04007E-13
 -1       290 1.59861E-02-8.73229E-03-2.04749E-13
 -1       291 1.61741E-02-8.81658E-03-2.05464E-13
 -1       292 1.63515E-02-8.90173E-03-2.06564E-13
 -1       293 4.88211E-03-1.10430E-03-8.97518E-15
 -1       294 4.61525E-03-9.93851E-04-8.72297E-15
 -1       295 4.25221E-03-8.19885E-04-8.04161E-15
 -1       296 3.77727E-03-6.47008E-04-7.43187E-15
 -1       297 3.31812E-03-3.98779E-04-6.33909E-15
 -1       298 2.88429E-03-2.02661E-04-5.35154E-15
 -1       299 2.45758E-03-6.04276E-05-4.41163E-15
 -1       300 2.06575E-03 3.95695E-06-3.52016E-15
 -1       301 1.67039E-03 7.36858E-06-2.68322E-15
 -1       302 1.27316E-03-6.17557E-05-1.99616E-15
 -1       303 9.04212E-04-1.40129E-04-1.49568E-15
 -1       304 5.91701E-04-2.17617E-04-1.09136E-15
 -1       305 3.46909E-04-2.61778E-04-8.68783E-16
 -1       306 1.98784E-04-2.97833E-04-7.40139E-16
 -1       307 1.41807E-04-3.37080E-04-6.93922E-16
 -1       308 2.04419E-04-4.10957E-04-7.60265E-16
 -1       309 3.96811E-04-5.39348E-04-9.05525E-16
 -1       310 7.20378E-04-7.53535E-04-1.14641E-15
 -1       311 1.15225E-03-1.06378E-03-1.49669E-15
 -1       312 1.65682E-03-1.44070E-03-1.96310E-15
 -1       313 2.14614E-03-1.81837E-03-2.60116E-15
 -1       314 2.62265E-03-2.08483E-03-3.37152E-15
 -1       315 3.08841E-03-2.15760E-03-4.33223E-15
 -1       316 3.55192E-03-2.02711E-03-5.36767E-15
 -1       317 4.00428E-03-1.81676E-03-6.34641E-15
 -1       318 4.40966E-03-1.60107E-03-7.26633E-15
 -1       319 4.73443E-03-1.41178E-03-8.17105E-15
 -1       320 4.94553E-03-1.28250E-03-8.76635E-15
 -1       321 4.98907E-03-1.19047E-03-8.91757E-15
 -1       322 2.56948E-03-1.99331E-03-2.59809E-15
 -1       323 2.36134E-04-1.33699E-04-2.47971E-16
 -1       324 4.58500E-04-1.60600E-04-2.24911E-16
 -1       325 1.32561E-04-1.91918E-04-2.33735E-16
 -1       326 2.35556E-04-2.13699E-04-2.66754E-16
 -1       327 3.94123E-04-1.86146E-04-3.28486E-16
 -1       328 4.89691E-04-1.13464E-04-3.50580E-16
 -1       329 5.28154E-04-3.54803E-05-3.65383E-16
 -1       330 5.28719E-04 3.14213E-05-3.71766E-16
 -1       331 5.11121E-04 8.37805E-05-3.69584E-16
 -1       332 4.86880E-04 1.26725E-04-3.57150E-16
 -1       333 4.62839E-04 1.64156E-04-3.31563E-16
 -1       334 4.43556E-04 2.01176E-04-2.88188E-16
 -1       335 4.35753E-04 2.44118E-04-2.17918E-16
 -1       336 4.83664E-04 2.96845E-04-1.96034E-16
 -1       337 7.50453E-04 3.93282E-04-6.01383E-16
 -1       338 1.10756E-03-6.35628E-04-7.90085E-16
 -1       339 1.59059E-03-1.13582E-03-1.41114E-15
 -1       340 3.71675E-03-1.93225E-03-6.28154E-15
 -1       341 4.23113E-03-1.62232E-03-8.37844E-15
 -1       342 4.65781E-03-1.47983E-03-1.08148E-14
 -1       343 5.02551E-03-1.49285E-03-1.34385E-14
 -1       344 5.36205E-03-1.60244E-03-1.62268E-14
 -1       345 5.68262E-03-1.76375E-03-1.91760E-14
 -1       346 5.99382E-03-1.94984E-03-2.22826E-14
 -1       347 6.29846E-03-2.14632E-03-2.55485E-14
 -1       348 6.59813E-03-2.34613E-03-2.89709E-14
 -1       349 6.89398E-03-2.54615E-03-3.25474E-14
 -1       350 7.18693E-03-2.74515E-03-3.62711E-14
 -1       351 7.47775E-03-2.94282E-03-4.01379E-14
 -1       352 7.76703E-03-3.13921E-03-4.41451E-14
 -1       353 8.05519E-03-3.33449E-03-4.82965E-14
 -1       354 8.34256E-03-3.52887E-03-5.25902E-14
 -1       355 8.62938E-03-3.72253E-03-5.70237E-14
 -1       356 8.91582E-03-3.91563E-03-6.15821E-14
 -1       357 9.20198E-03-4.10828E-03-6.62659E-14
 -1       358 9.48797E-03-4.30060E-03-7.10650E-14
 -1       359 9.77384E-03-4.49264E-03-7.59644E-14
 -1       360 1.00596E-02-4.68448E-03-8.09558E-14
 -1       361 1.03454E-02-4.87616E-03-8.60336E-14
 -1       362 1.06311E-02-5.06771E-03-9.11995E-14
 -1       363 1.09167E-02-5.25917E-03-9.64487E-14
 -1       364 1.12024E-02-5.45056E-03-1.01785E-13
 -1       365 1.14881E-02-5.64190E-03-1.07203E-13
 -1       366 1.17738E-02-5.83319E-03-1.12698E-13
 -1       367 1.20594E-02-6.02446E-03-1.18267E-13
 -1       368 1.23451E-02-6.21570E-03-1.23905E-13
 -1       369 1.26308E-02-6.40693E-03-1.29602E-13
 -1       370 1.29165E-02-6.59815E-03-1.35351E-13
 -1       371 1.32022E-02-6.78936E-03-1.41134E-13
 -1       372 1.34879E-02-6.98057E-03-1.46953E-13
 -1       373 1.37736E-02-7.17177E-03-1.52786E-13
 -1       374 1.40593E-02-7.36298E-03-1.58621E-13
 -1       375 1.43450E-02-7.55418E-03-1.64461E-13
 -1       376 1.46307E-02-7.74538E-03-1.70318E-13
 -1       377 1.49164E-02-7.93659E-03-1.76192E-13
 -1       378 1.52021E-02-8.12779E-03-1.82096E-13
 -1       379 1.54879E-02-8.31900E-03-1.88038E-13
 -1       380 1.57736E-02-8.51020E-03-1.94019E-13
 -1       381 1.60593E-02-8.70141E-03-2.00021E-13
 -1       382 1.17622E-03 4.19366E-04-1.84416E-15
 -1       383 1.42887E-03 3.82833E-04-2.88435E-15
 -1       384 1.68038E-03 3.04043E-04-4.16203E-15
 -1       385 1.93392E-03 1.88353E-04-5.67447E-15
 -1       386 2.19187E-03 4.24756E-05-7.41689E-15
 -1       387 2.45549E-03-1.26115E-04-9.38408E-15
 -1       388 2.72501E-03-3.10131E-04-1.15676E-14
 -1       389 2.99985E-03-5.03316E-04-1.39586E-14
 -1       390 3.27902E-03-7.00917E-04-1.65492E-14
 -1       391 3.56141E-03-8.99748E-04-1.93309E-14
 -1       392 3.84597E-03-1.09796E-03-2.22951E-14
 -1       393 4.13188E-03-1.29471E-03-2.54350E-14
 -1       394 4.41853E-03-1.48979E-03-2.87399E-14
 -1       395 4.70548E-03-1.68334E-03-3.22072E-14
 -1       396 4.99248E-03-1.87568E-03-3.58339E-14
 -1       397 5.27938E-03-2.06714E-03-3.96157E-14
 -1       398 5.56610E-03-2.25803E-03-4.35506E-14
 -1       399 5.85262E-03-2.44859E-03-4.76248E-14
 -1       400 6.13895E-03-2.63901E-03-5.18333E-14
 -1       401 6.42512E-03-2.82940E-03-5.61704E-14
 -1       402 6.71115E-03-3.01984E-03-6.06264E-14
 -1       403 6.99706E-03-3.21037E-03-6.51974E-14
 -1       404 7.28290E-03-3.40100E-03-6.98738E-14
 -1       405 7.56868E-03-3.59173E-03-7.46581E-14
 -1       406 7.85441E-03-3.78257E-03-7.95460E-14
 -1       407 8.14012E-03-3.97349E-03-8.45292E-14
 -1       408 8.42581E-03-4.16448E-03-8.96089E-14
 -1       409 8.71150E-03-4.35553E-03-9.47666E-14
 -1       410 8.99718E-03-4.54662E-03-9.99996E-14
 -1       411 9.28286E-03-4.73776E-03-1.05302E-13
 -1       412 9.56854E-03-4.92891E-03-1.10669E-13
 -1       413 9.85423E-03-5.12009E-03-1.16100E-13
 -1       414 1.01399E-02-5.31128E-03-1.21585E-13
 -1       415 1.04256E-02-5.50248E-03-1.27123E-13
 -1       416 1.07113E-02-5.69369E-03-1.32708E-13
 -1       417 1.09970E-02-5.88490E-03-1.38345E-13
 -1       418 1.12827E-02-6.07611E-03-1.44023E-13
 -1       419 1.15684E-02-6.26732E-03-1.49740E-13
 -1       420 1.18541E-02-6.45854E-03-1.55499E-13
 -1       421 1.21398E-02-6.64975E-03-1.61289E-13
 -1       422 1.24256E-02-6.84097E-03-1.67117E-13
 -1       423 1.27113E-02-7.03218E-03-1.72983E-13
 -1       424 1.29970E-02-7.22339E-03-1.78888E-13
 -1       425 1.32827E-02-7.41460E-03-1.84811E-13
 -1       426 1.35094E-02-7.56915E-03-1.89732E-13
 -1       427 1.39588E-02-7.76883E-03-1.91706E-13
 -1       428 1.37708E-02-7.68454E-03-1.90825E-13
 -1       429 1.41436E-02-7.85168E-03-1.92571E-13
 -1       430 1.43317E-02-7.93597E-03-1.93441E-13
 -1       431 1.45197E-02-8.02026E-03-1.94313E-13
 -1       432 1.47077E-02-8.10455E-03-1.95181E-13
 -1       433 1.48957E-02-8.18884E-03-1.96038E-13
 -1       434 1.50837E-02-8.27312E-03-1.96871E-13
 -1       435 1.52686E-02-8.35598E-03-1.97659E-13
 -1       436 1.54566E-02-8.44027E-03-1.98430E-13
 -1       437 1.56446E-02-8.52456E-03-1.99171E-13
 -1       438 1.58327E-02-8.60885E-03-1.99892E-13
 -1       439 9.63368E-04 4.23275E-04-1.13787E-15
 -1       440 4.37527E-03-1.01580E-03-9.32894E-15
 -1       441 3.41364E-03-5.68023E-04-7.36513E-15
 -1       442 4.97184E-03-1.19994E-03-1.00382E-14
 -1       443 1.30457E-04-1.61453E-04-2.54730E-16
 -1       444 2.96495E-03-3.19569E-04-6.23338E-15
 -1       445 2.58858E-03-1.20390E-04-5.11317E-15
 -1       446 2.18548E-03 1.73228E-05-3.99323E-15
 -1       447 1.87152E-03 5.01245E-05-3.11138E-15
 -1       448 1.46108E-03-1.16164E-05-2.15222E-15
 -1       449 1.09391E-03-1.14959E-04-1.52804E-15
 -1       450 7.85858E-04-2.01295E-04-1.08522E-15
 -1       451 4.56653E-04-2.70376E-04-7.77888E-16
 -1       452 2.62423E-04-2.90153E-04-6.26135E-16
 -1       453 1.53067E-04-2.89045E-04-5.46482E-16
 -1       454 1.62782E-04-2.81326E-04-5.23770E-16
 -1       455 3.10813E-04-3.57676E-04-6.55507E-16
 -1       456 6.09918E-04-5.05450E-04-8.28093E-16
 -1       457 1.04084E-03-7.66730E-04-1.08799E-15
 -1       458 2.05973E-03-1.62311E-03-2.08791E-15
 -1       459 4.16320E-03-1.66165E-03-7.49115E-15
 -1       460 4.53627E-03-1.45945E-03-8.51485E-15
 -1       461 4.86119E-03-1.31196E-03-9.50244E-15
 -1       462 5.01247E-03-1.24516E-03-1.02077E-14
 -1       463 4.76878E-03-1.16507E-03-1.02466E-14
 -1       464 3.97063E-03-8.56104E-04-8.64614E-15
 -1       465 1.59460E-02-8.65513E-03-1.99959E-13
 -1       466 3.65215E-03-7.59847E-04-8.54687E-15
 -1       467 1.64011E-03 4.54712E-05-2.52541E-15
 -1       468 4.49395E-04-2.49426E-04-5.59608E-16
 -1       469 6.87348E-04-1.61608E-04-6.77691E-16
 -1       470 8.12400E-04 9.43027E-05-8.22598E-16
 -1       471 7.73899E-04 1.50096E-04-8.08618E-16
 -1       472 7.34282E-04 1.99746E-04-7.74032E-16
 -1       473 6.99948E-04 2.48713E-04-7.13940E-16
 -1       474 6.76830E-04 3.02149E-04-6.20770E-16
 -1       475 7.10329E-04 3.46200E-04-6.21617E-16
 -1       476 1.22828E-03-5.31776E-05-1.60809E-15
 -1       477 4.54971E-03-1.16969E-03-1.10203E-14
 -1       478 4.96334E-03-1.38047E-03-1.21508E-14
 -1       479 5.22788E-03-1.47338E-03-1.48468E-14
 -1       480 5.49284E-03-1.62038E-03-1.76990E-14
 -1       481 5.76477E-03-1.79620E-03-2.07055E-14
 -1       482 6.04347E-03-1.98631E-03-2.38726E-14
 -1       483 6.32671E-03-2.18266E-03-2.71984E-14
 -1       484 6.61248E-03-2.38104E-03-3.06777E-14
 -1       485 6.89940E-03-2.57945E-03-3.43093E-14
 -1       486 7.18668E-03-2.77706E-03-3.80856E-14
 -1       487 7.47393E-03-2.97363E-03-4.20045E-14
 -1       488 7.76096E-03-3.16918E-03-4.60625E-14
 -1       489 8.04773E-03-3.36383E-03-5.02619E-14
 -1       490 8.33426E-03-3.55775E-03-5.46038E-14
 -1       491 8.62057E-03-3.75106E-03-5.90753E-14
 -1       492 8.90670E-03-3.94390E-03-6.36707E-14
 -1       493 9.19271E-03-4.13636E-03-6.83866E-14
 -1       494 9.47861E-03-4.32852E-03-7.32162E-14
 -1       495 9.76444E-03-4.52045E-03-7.81412E-14
 -1       496 1.00502E-02-4.71220E-03-8.31579E-14
 -1       497 1.03360E-02-4.90381E-03-8.82620E-14
 -1       498 1.06217E-02-5.09531E-03-9.34522E-14
 -1       499 1.09074E-02-5.28673E-03-9.87225E-14
 -1       500 1.11931E-02-5.47809E-03-1.04076E-13
 -1       501 1.14788E-02-5.66940E-03-1.09510E-13
 -1       502 1.17645E-02-5.86068E-03-1.15018E-13
 -1       503 1.20502E-02-6.05193E-03-1.20601E-13
 -1       504 1.23359E-02-6.24317E-03-1.26253E-13
 -1       505 1.26216E-02-6.43439E-03-1.31962E-13
 -1       506 1.29073E-02-6.62560E-03-1.37713E-13
 -1       507 1.31930E-02-6.81681E-03-1.43507E-13
 -1       508 1.34787E-02-7.00802E-03-1.49320E-13
 -1       509 1.37644E-02-7.19922E-03-1.55149E-13
 -1       510 1.40501E-02-7.39042E-03-1.60986E-13
 -1       511 1.43358E-02-7.58163E-03-1.66836E-13
 -1       512 1.46215E-02-7.77283E-03-1.72702E-13
 -1       513 1.49073E-02-7.96404E-03-1.78589E-13
 -1       514 1.51930E-02-8.15524E-03-1.84509E-13
 -1       515 1.54787E-02-8.34645E-03-1.90469E-13
 -1       516 1.57123E-02-8.50079E-03-1.95208E-13
 -1       517 1.88498E-03 1.86935E-04-5.18663E-15
 -1       518 1.61486E-03 2.87154E-04-3.75403E-15
 -1       519 1.34477E-03 3.46594E-04-2.55623E-15
 -1       520 2.15753E-03 5.21225E-05-6.85054E-15
 -1       521 2.43398E-03-1.09452E-04-8.73947E-15
 -1       522 2.71463E-03-2.89606E-04-1.08472E-14
 -1       523 2.99887E-03-4.81058E-04-1.31654E-14
 -1       524 3.28561E-03-6.78176E-04-1.56847E-14
 -1       525 3.57378E-03-8.77152E-04-1.83974E-14
 -1       526 3.86250E-03-1.07576E-03-2.12939E-14
 -1       527 4.15121E-03-1.27294E-03-2.43678E-14
 -1       528 4.43961E-03-1.46839E-03-2.76102E-14
 -1       529 4.72756E-03-1.66221E-03-3.10137E-14
 -1       530 5.01506E-03-1.85473E-03-3.45762E-14
 -1       531 5.30216E-03-2.04629E-03-3.82931E-14
 -1       532 5.58891E-03-2.23721E-03-4.21632E-14
 -1       533 5.87539E-03-2.42776E-03-4.61779E-14
 -1       534 6.16165E-03-2.61813E-03-5.03308E-14
 -1       535 6.44776E-03-2.80847E-03-5.46147E-14
 -1       536 6.73374E-03-2.99884E-03-5.90234E-14
 -1       537 7.01963E-03-3.18930E-03-6.35460E-14
 -1       538 7.30545E-03-3.37987E-03-6.81807E-14
 -1       539 7.59123E-03-3.57055E-03-7.29229E-14
 -1       540 7.87698E-03-3.76134E-03-7.77662E-14
 -1       541 8.16271E-03-3.95222E-03-8.27097E-14
 -1       542 8.44842E-03-4.14318E-03-8.77490E-14
 -1       543 8.73412E-03-4.33421E-03-9.28764E-14
 -1       544 9.01982E-03-4.52529E-03-9.80832E-14
 -1       545 9.30552E-03-4.71641E-03-1.03361E-13
 -1       546 9.59122E-03-4.90755E-03-1.08703E-13
 -1       547 9.87692E-03-5.09872E-03-1.14110E-13
 -1       548 1.01626E-02-5.28991E-03-1.19574E-13
 -1       549 1.04483E-02-5.48111E-03-1.25091E-13
 -1       550 1.07340E-02-5.67231E-03-1.30660E-13
 -1       551 1.10197E-02-5.86352E-03-1.36279E-13
 -1       552 1.13054E-02-6.05473E-03-1.41945E-13
 -1       553 1.15911E-02-6.24595E-03-1.47653E-13
 -1       554 1.18769E-02-6.43716E-03-1.53398E-13
 -1       555 1.21626E-02-6.62837E-03-1.59178E-13
 -1       556 1.24483E-02-6.81959E-03-1.64990E-13
 -1       557 1.27340E-02-7.01080E-03-1.70834E-13
 -1       558 1.30197E-02-7.20201E-03-1.76721E-13
 -1       559 1.33054E-02-7.39322E-03-1.82630E-13
 -1       560 1.39902E-02-7.72824E-03-1.87877E-13
 -1       561 1.38054E-02-7.64538E-03-1.87010E-13
 -1       562 1.36174E-02-7.56109E-03-1.86127E-13
 -1       563 4.94059E-03-1.25181E-03-1.14486E-14
 -1       564 1.41782E-02-7.81253E-03-1.88755E-13
 -1       565 1.43663E-02-7.89682E-03-1.89621E-13
 -1       566 1.45543E-02-7.98111E-03-1.90477E-13
 -1       567 1.47423E-02-8.06539E-03-1.91308E-13
 -1       568 1.49271E-02-8.14825E-03-1.92100E-13
 -1       569 1.51152E-02-8.23254E-03-1.92868E-13
 -1       570 1.53032E-02-8.31683E-03-1.93613E-13
 -1       571 1.54912E-02-8.40112E-03-1.94335E-13
 -1       572 3.11999E-03-4.83403E-04-7.38658E-15
 -1       573 4.99084E-03-1.29254E-03-1.10012E-14
 -1       574 2.34244E-03-4.42767E-05-4.77446E-15
 -1       575 2.27507E-04-2.63573E-04-4.33744E-16
 -1       576 8.37413E-04 2.61611E-05-8.17048E-16
 -1       577 8.23689E-04-5.94987E-05-7.92355E-16
 -1       578 5.04612E-03-1.27504E-03-1.16259E-14
 -1       579 5.26745E-04-3.35926E-04-5.65259E-16
 -1       580 2.67193E-03-2.15044E-04-5.95565E-15
 -1       581 1.98567E-03 5.63894E-05-3.56824E-15
 -1       582 9.32331E-04-1.44666E-04-1.12561E-15
 -1       583 2.39254E-04-2.25395E-04-4.20709E-16
 -1       584 4.74831E-03-1.37539E-03-1.01746E-14
 -1       585 4.16908E-03-1.02112E-03-9.99809E-15
 -1       586 9.34181E-04 3.81037E-04-1.15059E-15
 -1       587 4.79206E-03-1.26665E-03-1.22349E-14
 -1       588 1.38700E-04-2.56908E-04-4.36595E-16
 -1       589 3.36614E-03-6.58849E-04-8.54294E-15
 -1       590 1.13726E-03 3.76505E-04-1.78431E-15
 -1       591 3.88867E-03-9.28797E-04-9.86755E-15
 -1       592 1.76039E-03 7.38331E-05-2.93048E-15
 -1       593 1.39181E-03 1.66676E-05-1.91876E-15
 -1       594 1.07977E-03 1.53725E-04-1.44286E-15
 -1       595 9.08534E-04 3.39991E-04-1.14202E-15
 -1       596 1.33317E-02-7.36988E-03-1.80219E-13
 -1       597 5.34074E-03-1.50389E-03-1.62492E-14
 -1       598 5.56431E-03-1.66436E-03-1.91597E-14
 -1       599 5.80984E-03-1.84230E-03-2.22257E-14
 -1       600 6.07086E-03-2.03020E-03-2.54535E-14
 -1       601 6.34204E-03-2.22321E-03-2.88374E-14
 -1       602 6.61955E-03-2.41843E-03-3.23736E-14
 -1       603 6.90087E-03-2.61424E-03-3.60588E-14
 -1       604 7.18439E-03-2.80987E-03-3.98871E-14
 -1       605 7.46912E-03-3.00498E-03-4.38565E-14
 -1       606 7.75449E-03-3.19947E-03-4.79670E-14
 -1       607 8.04018E-03-3.39337E-03-5.22151E-14
 -1       608 8.32600E-03-3.58673E-03-5.65986E-14
 -1       609 8.61186E-03-3.77965E-03-6.11087E-14
 -1       610 8.89772E-03-3.97219E-03-6.57412E-14
 -1       611 9.18355E-03-4.16443E-03-7.04936E-14
 -1       612 9.46936E-03-4.35643E-03-7.53507E-14
 -1       613 9.75514E-03-4.54824E-03-8.03013E-14
 -1       614 1.00409E-02-4.73990E-03-8.53423E-14
 -1       615 1.03266E-02-4.93144E-03-9.04724E-14
 -1       616 1.06124E-02-5.12289E-03-9.56855E-14
 -1       617 1.08981E-02-5.31428E-03-1.00977E-13
 -1       618 1.11838E-02-5.50560E-03-1.06347E-13
 -1       619 1.14695E-02-5.69689E-03-1.11797E-13
 -1       620 1.17552E-02-5.88816E-03-1.17321E-13
 -1       621 1.20410E-02-6.07940E-03-1.22920E-13
 -1       622 1.23267E-02-6.27062E-03-1.28584E-13
 -1       623 1.26124E-02-6.46184E-03-1.34302E-13
 -1       624 1.28981E-02-6.65305E-03-1.40062E-13
 -1       625 1.31838E-02-6.84426E-03-1.45859E-13
 -1       626 1.34695E-02-7.03546E-03-1.51673E-13
 -1       627 1.37552E-02-7.22667E-03-1.57503E-13
 -1       628 1.40409E-02-7.41787E-03-1.63346E-13
 -1       629 1.43266E-02-7.60907E-03-1.69204E-13
 -1       630 1.46124E-02-7.80028E-03-1.75085E-13
 -1       631 1.48981E-02-7.99148E-03-1.80987E-13
 -1       632 1.51838E-02-8.18269E-03-1.86921E-13
 -1       633 1.82078E-03 1.80474E-04-4.67259E-15
 -1       634 2.10666E-03 5.75887E-05-6.25803E-15
 -1       635 1.53648E-03 2.63900E-04-3.31996E-15
 -1       636 2.68896E-03-2.73332E-04-1.01047E-14
 -1       637 2.98475E-03-4.63248E-04-1.23511E-14
 -1       638 3.28171E-03-6.59780E-04-1.48017E-14
 -1       639 3.57831E-03-8.58460E-04-1.74467E-14
 -1       640 3.87357E-03-1.05679E-03-2.02783E-14
 -1       641 4.16702E-03-1.25365E-03-2.32878E-14
 -1       642 4.45862E-03-1.44876E-03-2.64667E-14
 -1       643 4.74860E-03-1.64227E-03-2.98084E-14
 -1       644 5.03727E-03-1.83451E-03-3.33098E-14
 -1       645 5.32496E-03-2.02585E-03-3.69648E-14
 -1       646 5.61196E-03-2.21659E-03-4.07725E-14
 -1       647 5.89848E-03-2.40700E-03-4.47270E-14
 -1       648 6.18468E-03-2.59726E-03-4.88212E-14
 -1       649 6.47069E-03-2.78750E-03-5.30529E-14
 -1       650 6.75657E-03-2.97780E-03-5.74094E-14
 -1       651 7.04238E-03-3.16820E-03-6.18869E-14
 -1       652 7.32815E-03-3.35871E-03-6.64749E-14
 -1       653 7.61389E-03-3.54935E-03-7.11741E-14
 -1       654 7.89961E-03-3.74010E-03-7.59774E-14
 -1       655 8.18533E-03-3.93095E-03-8.08793E-14
 -1       656 8.47104E-03-4.12189E-03-8.58798E-14
 -1       657 8.75675E-03-4.31289E-03-9.09724E-14
 -1       658 9.04247E-03-4.50395E-03-9.61515E-14
 -1       659 9.32818E-03-4.69506E-03-1.01405E-13
 -1       660 9.61389E-03-4.88620E-03-1.06727E-13
 -1       661 9.89960E-03-5.07736E-03-1.12109E-13
 -1       662 1.01853E-02-5.26854E-03-1.17556E-13
 -1       663 1.04710E-02-5.45973E-03-1.23054E-13
 -1       664 1.07567E-02-5.65094E-03-1.28603E-13
 -1       665 1.10424E-02-5.84214E-03-1.34205E-13
 -1       666 1.13282E-02-6.03335E-03-1.39856E-13
 -1       667 1.16139E-02-6.22457E-03-1.45554E-13
 -1       668 1.18996E-02-6.41578E-03-1.51291E-13
 -1       669 1.21853E-02-6.60700E-03-1.57067E-13
 -1       670 1.24710E-02-6.79821E-03-1.62867E-13
 -1       671 1.27567E-02-6.98942E-03-1.68694E-13
 -1       672 1.30442E-02-7.17965E-03-1.74445E-13
 -1       673 1.40248E-02-7.68909E-03-1.84076E-13
 -1       674 1.38368E-02-7.60480E-03-1.83207E-13
 -1       675 2.39594E-03-9.68063E-05-8.07128E-15
 -1       676 1.44009E-02-7.85766E-03-1.85760E-13
 -1       677 1.45857E-02-7.94052E-03-1.86559E-13
 -1       678 1.47737E-02-8.02481E-03-1.87333E-13
 -1       679 1.49617E-02-8.10910E-03-1.88078E-13
 -1       680 1.50728E-02-8.14589E-03-1.87508E-13
 -1       681 4.33941E-03-1.14618E-03-1.15846E-14
 -1       682 2.84600E-03-3.67182E-04-7.22914E-15
 -1       683 6.67276E-04-2.04885E-04-7.53476E-16
 -1       684 1.13269E-03 9.71706E-05-1.45072E-15
 -1       685 1.16334E-03 2.94250E-05-1.42698E-15
 -1       686 5.04508E-03-1.32055E-03-1.28756E-14
 -1       687 2.10922E-03 2.30412E-05-4.25307E-15
 -1       688 5.10639E-03-1.33266E-03-1.27473E-14
 -1       689 1.42128E-02-7.77337E-03-1.84928E-13
 -1       690 1.02370E-03 2.06409E-04-1.40463E-15
 -1       691 2.42881E-03-1.17762E-04-5.55317E-15
 -1       692 1.36520E-02-7.52194E-03-1.82339E-13
 -1       693 9.72851E-04 2.60039E-04-1.33379E-15
 -1       694 3.61705E-03-8.24920E-04-9.83813E-15
 -1       695 4.61993E-03-1.25902E-03-1.28132E-14
 -1       696 1.16319E-03-2.98576E-05-1.42127E-15
 -1       697 5.11015E-03-1.35634E-03-1.30168E-14
 -1       698 1.25138E-03 3.03268E-04-2.20248E-15
 -1       699 3.07765E-03-5.22799E-04-8.34772E-15
 -1       700 4.09892E-03-1.06676E-03-1.14257E-14
 -1       701 1.51550E-03 6.56133E-05-2.26399E-15
 -1       702 5.16455E-03-1.37938E-03-1.40317E-14
 -1       703 1.89338E-03 7.22005E-05-3.54496E-15
 -1       704 5.37774E-03-1.55749E-03-1.76476E-14
 -1       705 4.99357E-03-1.37887E-03-1.44452E-14
 -1       706 1.25983E-03 2.39344E-04-2.14763E-15
 -1       707 1.45110E-03 2.36437E-04-2.86679E-15
 -1       708 5.58430E-03-1.71686E-03-2.06119E-14
 -1       709 5.82294E-03-1.89154E-03-2.37386E-14
 -1       710 6.07851E-03-2.07517E-03-2.70245E-14
 -1       711 6.34530E-03-2.26412E-03-3.04642E-14
 -1       712 6.61936E-03-2.45592E-03-3.40557E-14
 -1       713 6.89804E-03-2.64908E-03-3.77956E-14
 -1       714 7.17960E-03-2.84271E-03-4.16760E-14
 -1       715 7.46290E-03-3.03635E-03-4.56998E-14
 -1       716 7.74726E-03-3.22977E-03-4.98604E-14
 -1       717 8.03224E-03-3.42290E-03-5.41546E-14
 -1       718 8.31757E-03-3.61571E-03-5.85776E-14
 -1       719 8.60311E-03-3.80822E-03-6.31295E-14
 -1       720 8.88875E-03-4.00047E-03-6.77998E-14
 -1       721 9.17444E-03-4.19249E-03-7.25844E-14
 -1       722 9.46017E-03-4.38433E-03-7.74675E-14
 -1       723 9.74590E-03-4.57602E-03-8.24461E-14
 -1       724 1.00316E-02-4.76758E-03-8.75121E-14
 -1       725 1.03174E-02-4.95906E-03-9.26665E-14
 -1       726 1.06031E-02-5.15046E-03-9.79032E-14
 -1       727 1.08888E-02-5.34180E-03-1.03215E-13
 -1       728 1.11746E-02-5.53310E-03-1.08606E-13
 -1       729 1.14603E-02-5.72438E-03-1.14074E-13
 -1       730 1.17460E-02-5.91562E-03-1.19615E-13
 -1       731 1.20317E-02-6.10686E-03-1.25228E-13
 -1       732 1.23174E-02-6.29808E-03-1.30902E-13
 -1       733 1.26032E-02-6.48929E-03-1.36628E-13
 -1       734 1.28889E-02-6.68050E-03-1.42394E-13
 -1       735 1.31746E-02-6.87171E-03-1.48195E-13
 -1       736 1.34603E-02-7.06291E-03-1.54012E-13
 -1       737 1.37460E-02-7.25411E-03-1.59848E-13
 -1       738 1.40317E-02-7.44532E-03-1.65699E-13
 -1       739 1.43175E-02-7.63652E-03-1.71568E-13
 -1       740 1.46032E-02-7.82773E-03-1.77462E-13
 -1       741 1.48380E-02-7.98681E-03-1.82475E-13
 -1       742 1.44323E-02-7.81708E-03-1.81812E-13
 -1       743 1.38714E-02-7.56564E-03-1.79396E-13
 -1       744 2.04488E-03 6.17713E-05-5.64200E-15
 -1       745 1.74744E-03 1.71665E-04-4.13666E-15
 -1       746 3.26944E-03-6.46398E-04-1.38998E-14
 -1       747 2.96033E-03-4.49627E-04-1.15165E-14
 -1       748 3.88029E-03-1.04242E-03-1.92470E-14
 -1       749 4.18003E-03-1.23813E-03-2.21941E-14
 -1       750 4.47601E-03-1.43198E-03-2.53110E-14
 -1       751 4.76883E-03-1.62434E-03-2.85920E-14
 -1       752 5.05921E-03-1.81561E-03-3.20320E-14
 -1       753 5.34782E-03-2.00620E-03-3.56278E-14
 -1       754 5.63523E-03-2.19640E-03-3.93756E-14
 -1       755 5.92187E-03-2.38643E-03-4.32717E-14
 -1       756 6.20803E-03-2.57644E-03-4.73094E-14
 -1       757 6.49391E-03-2.76651E-03-5.14857E-14
 -1       758 6.77966E-03-2.95670E-03-5.57916E-14
 -1       759 7.06534E-03-3.14702E-03-6.02192E-14
 -1       760 7.35100E-03-3.33749E-03-6.47625E-14
 -1       761 7.63666E-03-3.52809E-03-6.94152E-14
 -1       762 7.92232E-03-3.71882E-03-7.41752E-14
 -1       763 8.20801E-03-3.90965E-03-7.90399E-14
 -1       764 8.49370E-03-4.10057E-03-8.40013E-14
 -1       765 8.77940E-03-4.29156E-03-8.90612E-14
 -1       766 9.06511E-03-4.48261E-03-9.42076E-14
 -1       767 9.35083E-03-4.67371E-03-9.94333E-14
 -1       768 9.63655E-03-4.86484E-03-1.04732E-13
 -1       769 9.92227E-03-5.05600E-03-1.10096E-13
 -1       770 1.02080E-02-5.24718E-03-1.15522E-13
 -1       771 1.04937E-02-5.43837E-03-1.21005E-13
 -1       772 1.07794E-02-5.62957E-03-1.26538E-13
 -1       773 1.10651E-02-5.82077E-03-1.32122E-13
 -1       774 1.13509E-02-6.01198E-03-1.37756E-13
 -1       775 1.16366E-02-6.20319E-03-1.43441E-13
 -1       776 1.19223E-02-6.39441E-03-1.49172E-13
 -1       777 1.22080E-02-6.58562E-03-1.54941E-13
 -1       778 1.24937E-02-6.77683E-03-1.60741E-13
 -1       779 1.27794E-02-6.96805E-03-1.66564E-13
 -1       780 1.39986E-03 1.41230E-04-2.26031E-15
 -1       781 1.32724E-03 1.87622E-04-2.22418E-15
 -1       782 1.36834E-02-7.48135E-03-1.78542E-13
 -1       783 1.46203E-02-7.90137E-03-1.82566E-13
 -1       784 1.42474E-02-7.73422E-03-1.81037E-13
 -1       785 3.57659E-03-8.44872E-04-1.64799E-14
 -1       786 2.56992E-03-2.26509E-04-6.72183E-15
 -1       787 1.33645E-02-7.33171E-03-1.76569E-13
 -1       788 1.35239E-02-7.40653E-03-1.77560E-13
 -1       789 1.40594E-02-7.64993E-03-1.80226E-13
 -1       790 2.19433E-03-2.46880E-05-4.94495E-15
 -1       791 3.32281E-03-6.81644E-04-9.60337E-15
 -1       792 5.17967E-03-1.44692E-03-1.56523E-14
 -1       793 4.42005E-03-1.21949E-03-1.31252E-14
 -1       794 1.98770E-03 4.76877E-05-4.17441E-15
 -1       795 2.34604E-03-8.57248E-05-7.37854E-15
 -1       796 2.65167E-03-2.59881E-04-9.33982E-15
 -1       797 1.30720E-02-7.14988E-03-1.71556E-13
 -1       798 2.78007E-03-3.57116E-04-7.78033E-15
 -1       799 1.47291E-02-7.94409E-03-1.82527E-13
 -1       800 1.65791E-03 9.52655E-05-2.79856E-15
 -1       801 1.42257E-03 9.41510E-05-2.12464E-15
 -1       802 4.82037E-03-1.37936E-03-1.52149E-14
 -1       803 1.52580E-03 1.83043E-04-2.97689E-15
 -1       804 2.28746E-03-8.12501E-05-5.77245E-15
 -1       805 5.80146E-03-1.93315E-03-2.52294E-14
 -1       806 6.05931E-03-2.11267E-03-2.85696E-14
 -1       807 6.32664E-03-2.29793E-03-3.20653E-14
 -1       808 6.60040E-03-2.48668E-03-3.57114E-14
 -1       809 6.87845E-03-2.67743E-03-3.95009E-14
 -1       810 7.15931E-03-2.86923E-03-4.34355E-14
 -1       811 7.44198E-03-3.06151E-03-4.75116E-14
 -1       812 7.72582E-03-3.25393E-03-5.17191E-14
 -1       813 8.01038E-03-3.44632E-03-5.60551E-14
 -1       814 8.29540E-03-3.63858E-03-6.05190E-14
 -1       815 8.58071E-03-3.83069E-03-6.51079E-14
 -1       816 8.86619E-03-4.02265E-03-6.98136E-14
 -1       817 9.15178E-03-4.21445E-03-7.46261E-14
 -1       818 9.43744E-03-4.40613E-03-7.95387E-14
 -1       819 9.72313E-03-4.59769E-03-8.45417E-14
 -1       820 1.00088E-02-4.78917E-03-8.96331E-14
 -1       821 1.02946E-02-4.98058E-03-9.48099E-14
 -1       822 1.05803E-02-5.17193E-03-1.00067E-13
 -1       823 1.08660E-02-5.36324E-03-1.05401E-13
 -1       824 1.11518E-02-5.55452E-03-1.10814E-13
 -1       825 1.14375E-02-5.74577E-03-1.16300E-13
 -1       826 1.17232E-02-5.93701E-03-1.21859E-13
 -1       827 1.20090E-02-6.12823E-03-1.27482E-13
 -1       828 1.22947E-02-6.31945E-03-1.33164E-13
 -1       829 1.25804E-02-6.51066E-03-1.38895E-13
 -1       830 1.28661E-02-6.70187E-03-1.44670E-13
 -1       831 1.31519E-02-6.89307E-03-1.50473E-13
 -1       832 1.34376E-02-7.08428E-03-1.56297E-13
 -1       833 1.37233E-02-7.27548E-03-1.62142E-13
 -1       834 1.40090E-02-7.46669E-03-1.67999E-13
 -1       835 1.42947E-02-7.65789E-03-1.73881E-13
 -1       836 1.42789E-02-7.69364E-03-1.77068E-13
 -1       837 3.25197E-03-6.37958E-04-1.29796E-14
 -1       838 4.49313E-03-1.41902E-03-2.41431E-14
 -1       839 4.19210E-03-1.22748E-03-2.10872E-14
 -1       840 5.08147E-03-1.79856E-03-3.07432E-14
 -1       841 5.37109E-03-1.98771E-03-3.42818E-14
 -1       842 5.65894E-03-2.17686E-03-3.79719E-14
 -1       843 5.94566E-03-2.36618E-03-4.18110E-14
 -1       844 6.23173E-03-2.55572E-03-4.57939E-14
 -1       845 6.51745E-03-2.74550E-03-4.99149E-14
 -1       846 6.80300E-03-2.93552E-03-5.41668E-14
 -1       847 7.08850E-03-3.12575E-03-5.85454E-14
 -1       848 7.37401E-03-3.31617E-03-6.30438E-14
 -1       849 7.65955E-03-3.50675E-03-6.76525E-14
 -1       850 7.94513E-03-3.69747E-03-7.23678E-14
 -1       851 8.23075E-03-3.88829E-03-7.71905E-14
 -1       852 8.51640E-03-4.07921E-03-8.21163E-14
 -1       853 8.80208E-03-4.27021E-03-8.71388E-14
 -1       854 9.08778E-03-4.46126E-03-9.22532E-14
 -1       855 9.37349E-03-4.65235E-03-9.74497E-14
 -1       856 9.65921E-03-4.84348E-03-1.02722E-13
 -1       857 9.94494E-03-5.03464E-03-1.08066E-13
 -1       858 1.02307E-02-5.22581E-03-1.13470E-13
 -1       859 1.05164E-02-5.41700E-03-1.18937E-13
 -1       860 1.08021E-02-5.60820E-03-1.24460E-13
 -1       861 1.10878E-02-5.79940E-03-1.30029E-13
 -1       862 1.13736E-02-5.99061E-03-1.35646E-13
 -1       863 1.16593E-02-6.18182E-03-1.41319E-13
 -1       864 1.19450E-02-6.37303E-03-1.47042E-13
 -1       865 1.22307E-02-6.56425E-03-1.52803E-13
 -1       866 1.25165E-02-6.75546E-03-1.58597E-13
 -1       867 1.28022E-02-6.94667E-03-1.64421E-13
 -1       868 1.60858E-03 1.38525E-04-3.04088E-15
 -1       869 1.35300E-02-7.35791E-03-1.73873E-13
 -1       870 1.40940E-02-7.61078E-03-1.76313E-13
 -1       871 4.14164E-03-1.12074E-03-1.28865E-14
 -1       872 4.78918E-03-1.60915E-03-2.73621E-14
 -1       873 5.55730E-03-1.76241E-03-2.20458E-14
 -1       874 1.63602E-03 1.16366E-04-2.93168E-15
 -1       875 5.34334E-03-1.60633E-03-1.90275E-14
 -1       876 3.73705E-03-9.16782E-04-1.11897E-14
 -1       877 5.06269E-03-1.46418E-03-1.64572E-14
 -1       878 1.33705E-02-7.28309E-03-1.72907E-13
 -1       879 2.08720E-03 8.24464E-06-4.93454E-15
 -1       880 2.28855E-03-7.25454E-05-6.66350E-15
 -1       881 3.57142E-03-8.37130E-04-1.54956E-14
 -1       882 4.46053E-03-1.27261E-03-1.47810E-14
 -1       883 2.92905E-03-4.38829E-04-1.06612E-14
 -1       884 2.48131E-03-1.85807E-04-6.74393E-15
 -1       885 1.37180E-02-7.44220E-03-1.74710E-13
 -1       886 1.39060E-02-7.52649E-03-1.75523E-13
 -1       887 3.88502E-03-1.03373E-03-1.82009E-14
 -1       888 1.97668E-03 6.78813E-05-5.00632E-15
 -1       889 1.32314E-02-7.22470E-03-1.72548E-13
 -1       890 1.81034E-03 9.07292E-05-3.52325E-15
 -1       891 3.00775E-03-5.01166E-04-8.97452E-15
 -1       892 2.60657E-03-2.46458E-04-8.55253E-15
 -1       893 4.18473E-03-1.16472E-03-1.44804E-14
 -1       894 1.39893E-02-7.49590E-03-1.70795E-13
 -1       895 6.03055E-03-2.14502E-03-3.00970E-14
 -1       896 6.30147E-03-2.32824E-03-3.36479E-14
 -1       897 6.57707E-03-2.51512E-03-3.73471E-14
 -1       898 6.85597E-03-2.70428E-03-4.11906E-14
 -1       899 7.13714E-03-2.89479E-03-4.51792E-14
 -1       900 7.41985E-03-3.08605E-03-4.93055E-14
 -1       901 7.70360E-03-3.27769E-03-5.35584E-14
 -1       902 7.98805E-03-3.46948E-03-5.79363E-14
 -1       903 8.27295E-03-3.66129E-03-6.24437E-14
 -1       904 8.55816E-03-3.85306E-03-6.70672E-14
 -1       905 8.84356E-03-4.04475E-03-7.18050E-14
 -1       906 9.12909E-03-4.23635E-03-7.66481E-14
 -1       907 9.41471E-03-4.42788E-03-8.15894E-14
 -1       908 9.70037E-03-4.61934E-03-8.66190E-14
 -1       909 9.98607E-03-4.81073E-03-9.17383E-14
 -1       910 1.02718E-02-5.00208E-03-9.69410E-14
 -1       911 1.05575E-02-5.19339E-03-1.02221E-13
 -1       912 1.08433E-02-5.38467E-03-1.07577E-13
 -1       913 1.11290E-02-5.57592E-03-1.13009E-13
 -1       914 1.14147E-02-5.76716E-03-1.18515E-13
 -1       915 1.17005E-02-5.95839E-03-1.24090E-13
 -1       916 1.19862E-02-6.14961E-03-1.29723E-13
 -1       917 1.22719E-02-6.34082E-03-1.35415E-13
 -1       918 1.25577E-02-6.53203E-03-1.41154E-13
 -1       919 1.28434E-02-6.72324E-03-1.46934E-13
 -1       920 1.31291E-02-6.91444E-03-1.52744E-13
 -1       921 1.34148E-02-7.10565E-03-1.58575E-13
 -1       922 1.37006E-02-7.29685E-03-1.64424E-13
 -1       923 4.80973E-03-1.42897E-03-1.70145E-14
 -1       924 5.68350E-03-2.15811E-03-3.65557E-14
 -1       925 5.39550E-03-1.97060E-03-3.29231E-14
 -1       926 6.25591E-03-2.53512E-03-4.42688E-14
 -1       927 6.54133E-03-2.72447E-03-4.83364E-14
 -1       928 6.82661E-03-2.91424E-03-5.25339E-14
 -1       929 7.11186E-03-3.10435E-03-5.68639E-14
 -1       930 7.39717E-03-3.29472E-03-6.13167E-14
 -1       931 7.68255E-03-3.48529E-03-6.58814E-14
 -1       932 7.96802E-03-3.67601E-03-7.05540E-14
 -1       933 8.25355E-03-3.86686E-03-7.53362E-14
 -1       934 8.53915E-03-4.05780E-03-8.02250E-14
 -1       935 8.82479E-03-4.24881E-03-8.52094E-14
 -1       936 9.11047E-03-4.43987E-03-9.02876E-14
 -1       937 9.39617E-03-4.63097E-03-9.54524E-14
 -1       938 9.68189E-03-4.82211E-03-1.00700E-13
 -1       939 9.96762E-03-5.01327E-03-1.06020E-13
 -1       940 1.02533E-02-5.20445E-03-1.11403E-13
 -1       941 1.05391E-02-5.39563E-03-1.16850E-13
 -1       942 1.08248E-02-5.58683E-03-1.22357E-13
 -1       943 1.11105E-02-5.77804E-03-1.27915E-13
 -1       944 1.13963E-02-5.96924E-03-1.33521E-13
 -1       945 1.16820E-02-6.16045E-03-1.39180E-13
 -1       946 1.19677E-02-6.35166E-03-1.44895E-13
 -1       947 1.22535E-02-6.54288E-03-1.50652E-13
 -1       948 1.25392E-02-6.73409E-03-1.56440E-13
 -1       949 1.28249E-02-6.92530E-03-1.62257E-13
 -1       950 5.26105E-03-1.63350E-03-2.02425E-14
 -1       951 1.83478E-03 1.02943E-04-4.12379E-15
 -1       952 1.38044E-02-7.41304E-03-1.70050E-13
 -1       953 5.97009E-03-2.34630E-03-4.03404E-14
 -1       954 4.51234E-03-1.41057E-03-2.29609E-14
 -1       955 5.76614E-03-1.96739E-03-2.67013E-14
 -1       956 5.51050E-03-1.79791E-03-2.34622E-14
 -1       957 2.69306E-03-3.10761E-04-7.84849E-15
 -1       958 1.32150E-02-7.16052E-03-1.68374E-13
 -1       959 2.22694E-03-5.28166E-05-5.93010E-15
 -1       960 3.81130E-03-9.73581E-04-1.26992E-14
 -1       961 3.38052E-03-7.30026E-04-1.08651E-14
 -1       962 3.56688E-03-8.35622E-04-1.44938E-14
 -1       963 4.20630E-03-1.22256E-03-1.99643E-14
 -1       964 4.56076E-03-1.34702E-03-1.67944E-14
 -1       965 3.23343E-03-6.33753E-04-1.20387E-14
 -1       966 5.10520E-03-1.78373E-03-2.94431E-14
 -1       967 1.36164E-02-7.32874E-03-1.69268E-13
 -1       968 4.81135E-03-1.59725E-03-2.61214E-14
 -1       969 2.55727E-03-2.28740E-04-7.74268E-15
 -1       970 1.34030E-02-7.24481E-03-1.69209E-13
 -1       971 3.11835E-03-5.72034E-04-1.02864E-14
 -1       972 5.99552E-03-2.32673E-03-3.88592E-14
 -1       973 5.05439E-03-1.57513E-03-2.00184E-14
 -1       974 6.27321E-03-2.35500E-03-3.52153E-14
 -1       975 6.55142E-03-2.54114E-03-3.89694E-14
 -1       976 6.83180E-03-2.72950E-03-4.28671E-14
 -1       977 7.11377E-03-2.91927E-03-4.69091E-14
 -1       978 7.39690E-03-3.10989E-03-5.10821E-14
 -1       979 7.68084E-03-3.30098E-03-5.53773E-14
 -1       980 7.96536E-03-3.49233E-03-5.98003E-14
 -1       981 8.25027E-03-3.68378E-03-6.43475E-14
 -1       982 8.53547E-03-3.87527E-03-6.90047E-14
 -1       983 8.82085E-03-4.06674E-03-7.37757E-14
 -1       984 9.10637E-03-4.25818E-03-7.86553E-14
 -1       985 9.39197E-03-4.44958E-03-8.36242E-14
 -1       986 9.67763E-03-4.64094E-03-8.86825E-14
 -1       987 9.96332E-03-4.83226E-03-9.38311E-14
 -1       988 1.02490E-02-5.02356E-03-9.90639E-14
 -1       989 1.05348E-02-5.21483E-03-1.04367E-13
 -1       990 1.08205E-02-5.40608E-03-1.09745E-13
 -1       991 1.11063E-02-5.59732E-03-1.15197E-13
 -1       992 1.13920E-02-5.78854E-03-1.20722E-13
 -1       993 1.16777E-02-5.97976E-03-1.26311E-13
 -1       994 1.19635E-02-6.17098E-03-1.31956E-13
 -1       995 1.22492E-02-6.36219E-03-1.37655E-13
 -1       996 1.25349E-02-6.55339E-03-1.43402E-13
 -1       997 1.28207E-02-6.74460E-03-1.49189E-13
 -1       998 1.31064E-02-6.93581E-03-1.55003E-13
 -1       999 1.33921E-02-7.12701E-03-1.60838E-13
 -1      1000 7.13543E-03-3.08277E-03-5.51768E-14
 -1      1001 5.70955E-03-2.14007E-03-3.51312E-14
 -1      1002 5.99786E-03-2.17223E-03-3.16100E-14
 -1      1003 1.35097E-02-7.28678E-03-1.69243E-13
 -1      1004 6.85051E-03-2.89280E-03-5.09012E-14
 -1      1005 6.56566E-03-2.70334E-03-4.67515E-14
 -1      1006 7.42047E-03-3.27309E-03-5.95823E-14
 -1      1007 7.70566E-03-3.46367E-03-6.41027E-14
 -1      1008 7.99098E-03-3.65443E-03-6.87348E-14
 -1      1009 8.27642E-03-3.84532E-03-7.34767E-14
 -1      1010 8.56194E-03-4.03630E-03-7.83248E-14
 -1      1011 8.84754E-03-4.22735E-03-8.32742E-14
 -1      1012 9.13319E-03-4.41844E-03-8.83169E-14
 -1      1013 9.41887E-03-4.60957E-03-9.34506E-14
 -1      1014 9.70458E-03-4.80072E-03-9.86664E-14
 -1      1015 9.99030E-03-4.99189E-03-1.03961E-13
 -1      1016 1.02760E-02-5.18307E-03-1.09322E-13
 -1      1017 1.05618E-02-5.37427E-03-1.14749E-13
 -1      1018 1.08475E-02-5.56546E-03-1.20238E-13
 -1      1019 1.11332E-02-5.75667E-03-1.25785E-13
 -1      1020 1.14190E-02-5.94788E-03-1.31382E-13
 -1      1021 1.17047E-02-6.13909E-03-1.37030E-13
 -1      1022 1.19904E-02-6.33030E-03-1.42734E-13
 -1      1023 1.22762E-02-6.52151E-03-1.48486E-13
 -1      1024 1.25619E-02-6.71272E-03-1.54271E-13
 -1      1025 1.28476E-02-6.90393E-03-1.60079E-13
 -1      1026 6.28075E-03-2.51458E-03-4.27352E-14
 -1      1027 5.45871E-03-1.82335E-03-2.48631E-14
 -1      1028 5.72613E-03-1.99439E-03-2.81578E-14
 -1      1029 1.31253E-02-7.07437E-03-1.64636E-13
 -1      1030 5.25521E-03-1.69617E-03-2.23930E-14
 -1      1031 3.89147E-03-1.03154E-03-1.71385E-14
 -1      1032 4.28968E-03-1.23472E-03-1.65319E-14
 -1      1033 2.89488E-03-4.28274E-04-9.78410E-15
 -1      1034 3.94301E-03-1.05302E-03-1.46471E-14
 -1      1035 4.67749E-03-1.43114E-03-1.91151E-14
 -1      1036 3.56880E-03-8.40679E-04-1.34748E-14
 -1      1037 3.90504E-03-1.03657E-03-1.60600E-14
 -1      1038 5.42209E-03-1.95484E-03-3.15547E-14
 -1      1039 3.50524E-03-8.04753E-04-1.25003E-14
 -1      1040 1.32041E-02-7.04272E-03-1.60068E-13
 -1      1041 4.83777E-03-1.58879E-03-2.48691E-14
 -1      1042 4.53709E-03-1.40701E-03-2.17671E-14
 -1      1043 4.42853E-03-1.32201E-03-1.87836E-14
 -1      1044 6.52496E-03-2.56512E-03-4.05785E-14
 -1      1045 6.80692E-03-2.75331E-03-4.45307E-14
 -1      1046 7.08981E-03-2.94277E-03-4.86222E-14
 -1      1047 7.37349E-03-3.13304E-03-5.28371E-14
 -1      1048 7.65774E-03-3.32380E-03-5.71793E-14
 -1      1049 7.94243E-03-3.51484E-03-6.16478E-14
 -1      1050 8.22744E-03-3.70604E-03-6.62330E-14
 -1      1051 8.51268E-03-3.89732E-03-7.09273E-14
 -1      1052 8.79809E-03-4.08862E-03-7.57327E-14
 -1      1053 9.08362E-03-4.27992E-03-8.06432E-14
 -1      1054 9.36922E-03-4.47121E-03-8.56425E-14
 -1      1055 9.65489E-03-4.66249E-03-9.07361E-14
 -1      1056 9.94058E-03-4.85376E-03-9.59163E-14
 -1      1057 1.02263E-02-5.04501E-03-1.01175E-13
 -1      1058 1.05120E-02-5.23625E-03-1.06504E-13
 -1      1059 1.07978E-02-5.42748E-03-1.11902E-13
 -1      1060 1.10835E-02-5.61870E-03-1.17376E-13
 -1      1061 1.13693E-02-5.80992E-03-1.22919E-13
 -1      1062 1.16550E-02-6.00113E-03-1.28520E-13
 -1      1063 1.19407E-02-6.19234E-03-1.34173E-13
 -1      1064 1.22265E-02-6.38355E-03-1.39882E-13
 -1      1065 1.25122E-02-6.57476E-03-1.45640E-13
 -1      1066 1.27979E-02-6.76597E-03-1.51429E-13
 -1      1067 1.30010E-02-6.90434E-03-1.55744E-13
 -1      1068 6.02236E-03-2.30720E-03-3.73691E-14
 -1      1069 7.72884E-03-3.44185E-03-6.23133E-14
 -1      1070 5.68696E-03-2.01595E-03-2.96030E-14
 -1      1071 4.90169E-03-1.55762E-03-2.14373E-14
 -1      1072 6.87472E-03-2.87110E-03-4.92561E-14
 -1      1073 8.01400E-03-3.63269E-03-6.69050E-14
 -1      1074 8.29932E-03-3.82365E-03-7.16090E-14
 -1      1075 8.58476E-03-4.01470E-03-7.64179E-14
 -1      1076 8.87031E-03-4.20581E-03-8.13305E-14
 -1      1077 9.15592E-03-4.39695E-03-8.63395E-14
 -1      1078 9.44159E-03-4.58812E-03-9.14394E-14
 -1      1079 9.72728E-03-4.77930E-03-9.66268E-14
 -1      1080 1.00130E-02-4.97049E-03-1.01893E-13
 -1      1081 1.02987E-02-5.16169E-03-1.07229E-13
 -1      1082 1.05845E-02-5.35289E-03-1.12634E-13
 -1      1083 1.08702E-02-5.54410E-03-1.18101E-13
 -1      1084 1.11560E-02-5.73530E-03-1.23634E-13
 -1      1085 1.14417E-02-5.92651E-03-1.29221E-13
 -1      1086 1.17274E-02-6.11772E-03-1.34858E-13
 -1      1087 1.20132E-02-6.30893E-03-1.40556E-13
 -1      1088 1.22989E-02-6.50014E-03-1.46304E-13
 -1      1089 1.25846E-02-6.69135E-03-1.52084E-13
 -1      1090 1.28703E-02-6.88256E-03-1.57891E-13
 -1      1091 6.59051E-03-2.68198E-03-4.51555E-14
 -1      1092 7.44389E-03-3.25123E-03-5.78376E-14
 -1      1093 5.13204E-03-1.77114E-03-2.81317E-14
 -1      1094 5.41016E-03-1.84168E-03-2.62518E-14
 -1      1095 5.96490E-03-2.19542E-03-3.31094E-14
 -1      1096 4.22707E-03-1.22399E-03-1.88276E-14
 -1      1097 6.30645E-03-2.49387E-03-4.11907E-14
 -1      1098 7.15918E-03-3.06093E-03-5.34839E-14
 -1      1099 6.24423E-03-2.37886E-03-3.67701E-14
 -1      1100 4.66518E-03-1.45647E-03-2.10799E-14
 -1      1101 1.32320E-02-7.11634E-03-1.64675E-13
 -1      1102 5.16406E-03-1.76036E-03-2.68100E-14
 -1      1103 5.73782E-03-2.12239E-03-3.36953E-14
 -1      1104 3.23482E-03-6.37480E-04-1.17431E-14
 -1      1105 5.15887E-03-1.69884E-03-2.37969E-14
 -1      1106 6.49868E-03-2.58763E-03-4.21768E-14
 -1      1107 5.45215E-03-1.93999E-03-3.01746E-14
 -1      1108 1.32959E-02-7.13382E-03-1.64129E-13
 -1      1109 4.87160E-03-1.58348E-03-2.36058E-14
 -1      1110 5.20342E-03-1.75021E-03-2.54791E-14
 -1      1111 5.65113E-03-2.03427E-03-3.10347E-14
 -1      1112 4.03679E-03-1.10903E-03-1.62062E-14
 -1      1113 1.29619E-02-6.92285E-03-1.58225E-13
 -1      1114 1.29671E-02-6.90583E-03-1.56830E-13
 -1      1115 5.42751E-03-1.89060E-03-2.82030E-14
 -1      1116 5.03019E-03-1.65351E-03-2.39235E-14
 -1      1117 0.00000E+00 0.00000E+00 0.00000E+00
 -1      1118 0.00000E+00 0.00000E+00 0.00000E+00
 -1      1119 0.00000E+00 0.00000E+00 0.00000E+00
 -1      1120 0.00000E+00 0.00000E+00 0.00000E+00
 -1      1121 0.00000E+00 0.00000E+00 0.00000E+00
 -1      1122 0.00000E+00 0.00000E+00 0.00000E+00
 -1      1123 0.00000E+00 0.00000E+00 0.00000E+00
 -1      1124 0.00000E+00 0.00000E+00 0.00000E+00
 -1      1125 0.00000E+00 0.00000E+00 0.00000E+00
 -1      1126 0.00000E+00 0.00000E+00 0.00000E+00
 -1      1127 0.00000E+00 0.00000E+00 0.00000E+00
 -1      1128 0.00000E+00 0.00000E+00 0.00000E+00
 -1      1129 0.00000E+00 0.00000E+00 0.00000E+00
 -1      1130 0.00000E+00 0.00000E+00 0.00000E+00
 -1      1131 0.00000E+00 0.00000E+00 0.00000E+00
 -1      1132 0.00000E+00 0.00000E+00 0.00000E+00
 -1      1133 0.00000E+00 0.00000E+00 0.00000E+00
 -1      1134 3.11229E-04-1.42370E-04 6.36969E-18
 -1      1135 9.25024E-04-3.59873E-04-1.07200E-16
 -1      1136 1.54182E-03-6.86474E-04-4.23489E-16
 -1      1137 2.13425E-03-1.17436E-03-9.83615E-16
 -1      1138 2.58283E-03-1.72058E-03-1.72548E-15
 -1      1139 2.86782E-03-2.15948E-03-2.64362E-15
 -1      1140 3.07068E-03-2.36251E-03-3.86705E-15
 -1      1141 3.29357E-03-2.27695E-03-5.31985E-15
 -1      1142 3.63067E-03-2.03193E-03-7.04342E-15
 -1      1143 4.12394E-03-1.77627E-03-9.25540E-15
 -1      1144 4.66802E-03-1.66064E-03-1.17924E-14
 -1      1145 5.16964E-03-1.69278E-03-1.45081E-14
 -1      1146 5.61215E-03-1.81554E-03-1.73891E-14
 -1      1147 6.00394E-03-1.98392E-03-2.04360E-14
 -1      1148 6.35877E-03-2.17248E-03-2.36464E-14
 -1      1149 6.68859E-03-2.36877E-03-2.70177E-14
 -1      1150 7.00213E-03-2.56726E-03-3.05440E-14
 -1      1151 7.30527E-03-2.76566E-03-3.42218E-14
 -1      1152 7.60185E-03-2.96316E-03-3.80485E-14
 -1      1153 7.89429E-03-3.15957E-03-4.20099E-14
 -1      1154 8.18414E-03-3.35496E-03-4.61180E-14
 -1      1155 8.47235E-03-3.54947E-03-5.03742E-14
 -1      1156 8.75953E-03-3.74327E-03-5.47801E-14
 -1      1157 9.04607E-03-3.93650E-03-5.93245E-14
 -1      1158 9.33220E-03-4.12927E-03-6.39930E-14
 -1      1159 9.61809E-03-4.32169E-03-6.87764E-14
 -1      1160 9.90382E-03-4.51382E-03-7.36647E-14
 -1      1161 1.01895E-02-4.70574E-03-7.86350E-14
 -1      1162 1.04751E-02-4.89748E-03-8.36996E-14
 -1      1163 1.07607E-02-5.08909E-03-8.88502E-14
 -1      1164 1.10463E-02-5.28060E-03-9.40953E-14
 -1      1165 1.13318E-02-5.47202E-03-9.94288E-14
 -1      1166 1.16174E-02-5.66338E-03-1.04843E-13
 -1      1167 1.19031E-02-5.85470E-03-1.10344E-13
 -1      1168 1.21887E-02-6.04598E-03-1.15913E-13
 -1      1169 1.24743E-02-6.23724E-03-1.21541E-13
 -1      1170 1.27600E-02-6.42848E-03-1.27223E-13
 -1      1171 1.30457E-02-6.61971E-03-1.32968E-13
 -1      1172 1.33313E-02-6.81093E-03-1.38777E-13
 -1      1173 1.36170E-02-7.00214E-03-1.44604E-13
 -1      1174 1.39027E-02-7.19335E-03-1.50449E-13
 -1      1175 1.41884E-02-7.38455E-03-1.56309E-13
 -1      1176 1.44741E-02-7.57576E-03-1.62158E-13
 -1      1177 1.47598E-02-7.76696E-03-1.67995E-13
 -1      1178 1.50455E-02-7.95816E-03-1.73864E-13
 -1      1179 1.53313E-02-8.14937E-03-1.79755E-13
 -1      1180 1.56170E-02-8.34057E-03-1.85677E-13
 -1      1181 1.59027E-02-8.53178E-03-1.91631E-13
 -1      1182 1.61884E-02-8.72299E-03-1.97611E-13
 -1      1183 1.64741E-02-8.91420E-03-2.03619E-13
 -1      1184 1.67527E-02-9.10062E-03-2.09512E-13
 -1      1185 2.17837E-04 1.67535E-04 5.99428E-17
 -1      1186 5.08543E-04 3.63387E-04 2.37440E-17
 -1      1187 7.40904E-04 4.79038E-04-2.29688E-16
 -1      1188 9.53679E-04 5.32918E-04-7.29038E-16
 -1      1189 1.15708E-03 5.36044E-04-1.47241E-15
 -1      1190 1.35812E-03 4.94446E-04-2.46054E-15
 -1      1191 1.56237E-03 4.12832E-04-3.69059E-15
 -1      1192 1.77431E-03 2.96436E-04-5.15880E-15
 -1      1193 1.99712E-03 1.51486E-04-6.86228E-15
 -1      1194 2.23242E-03-1.51892E-05-8.79449E-15
 -1      1195 2.48029E-03-1.96918E-04-1.09434E-14
 -1      1196 2.73956E-03-3.87904E-04-1.33023E-14
 -1      1197 3.00827E-03-5.83655E-04-1.58648E-14
 -1      1198 3.28420E-03-7.81079E-04-1.86203E-14
 -1      1199 3.56522E-03-9.78315E-04-2.15639E-14
 -1      1200 3.84953E-03-1.17444E-03-2.46839E-14
 -1      1201 4.13575E-03-1.36917E-03-2.79722E-14
 -1      1202 4.42290E-03-1.56256E-03-3.14269E-14
 -1      1203 4.71036E-03-1.75486E-03-3.50470E-14
 -1      1204 4.99775E-03-1.94635E-03-3.88261E-14
 -1      1205 5.28491E-03-2.13732E-03-4.27585E-14
 -1      1206 5.57176E-03-2.32797E-03-4.68306E-14
 -1      1207 5.85830E-03-2.51848E-03-5.10349E-14
 -1      1208 6.14458E-03-2.70895E-03-5.53666E-14
 -1      1209 6.43065E-03-2.89945E-03-5.98138E-14
 -1      1210 6.71655E-03-3.09004E-03-6.43710E-14
 -1      1211 7.00234E-03-3.28071E-03-6.90323E-14
 -1      1212 7.28805E-03-3.47148E-03-7.38092E-14
 -1      1213 7.57371E-03-3.66233E-03-7.86961E-14
 -1      1214 7.85935E-03-3.85327E-03-8.36752E-14
 -1      1215 8.14497E-03-4.04427E-03-8.87489E-14
 -1      1216 8.43060E-03-4.23533E-03-9.39038E-14
 -1      1217 8.71623E-03-4.42643E-03-9.91263E-14
 -1      1218 9.00187E-03-4.61756E-03-1.04421E-13
 -1      1219 9.28752E-03-4.80872E-03-1.09793E-13
 -1      1220 9.57318E-03-4.99989E-03-1.15233E-13
 -1      1221 9.85885E-03-5.19108E-03-1.20717E-13
 -1      1222 1.01445E-02-5.38228E-03-1.26236E-13
 -1      1223 1.04302E-02-5.57349E-03-1.31805E-13
 -1      1224 1.07159E-02-5.76469E-03-1.37427E-13
 -1      1225 1.10016E-02-5.95591E-03-1.43094E-13
 -1      1226 1.12873E-02-6.14712E-03-1.48800E-13
 -1      1227 1.15730E-02-6.33833E-03-1.54557E-13
 -1      1228 1.18587E-02-6.52955E-03-1.60358E-13
 -1      1229 1.21444E-02-6.72076E-03-1.66197E-13
 -1      1230 1.24302E-02-6.91197E-03-1.72068E-13
 -1      1231 1.27159E-02-7.10318E-03-1.77981E-13
 -1      1232 1.30016E-02-7.29439E-03-1.83911E-13
 -1      1233 1.32873E-02-7.48560E-03-1.89852E-13
 -1      1234 1.35659E-02-7.67203E-03-1.95680E-13
 -1      1235 1.37956E-02-7.80500E-03-1.98960E-13
 -1      1236 1.39836E-02-7.88928E-03-1.99850E-13
 -1      1237 1.41716E-02-7.97357E-03-2.00714E-13
 -1      1238 1.43597E-02-8.05786E-03-2.01581E-13
 -1      1239 1.45477E-02-8.14214E-03-2.02451E-13
 -1      1240 1.47341E-02-8.22572E-03-2.03296E-13
 -1      1241 1.49205E-02-8.30929E-03-2.04144E-13
 -1      1242 1.51085E-02-8.39358E-03-2.05015E-13
 -1      1243 1.52966E-02-8.47787E-03-2.05910E-13
 -1      1244 1.54846E-02-8.56216E-03-2.06772E-13
 -1      1245 1.56726E-02-8.64644E-03-2.07599E-13
 -1      1246 1.58590E-02-8.73002E-03-2.08406E-13
 -1      1247 1.60455E-02-8.81359E-03-2.09210E-13
 -1      1248 1.62335E-02-8.89788E-03-2.09986E-13
 -1      1249 1.64215E-02-8.98216E-03-2.10714E-13
 -1      1250 1.66095E-02-9.06645E-03-2.11394E-13
 -1      1251 1.67960E-02-9.15002E-03-2.12044E-13
 -1      1252 4.91064E-03-1.01239E-03-7.93286E-15
 -1      1253 4.68472E-03-8.49232E-04-7.71754E-15
 -1      1254 4.36376E-03-6.81108E-04-7.30297E-15
 -1      1255 3.95807E-03-5.05055E-04-6.71087E-15
 -1      1256 3.48623E-03-3.30209E-04-5.96506E-15
 -1      1257 3.01724E-03-1.89723E-04-5.19159E-15
 -1      1258 2.54449E-03-8.85703E-05-4.39915E-15
 -1      1259 2.08322E-03-3.29761E-05-3.63400E-15
 -1      1260 1.62334E-03-2.48680E-05-2.89639E-15
 -1      1261 1.19048E-03-5.36930E-05-2.24086E-15
 -1      1262 8.24883E-04-1.03505E-04-1.72132E-15
 -1      1263 5.22189E-04-1.61926E-04-1.31784E-15
 -1      1264 3.04069E-04-2.19870E-04-1.04756E-15
 -1      1265 1.71056E-04-2.80321E-04-8.98849E-16
 -1      1266 1.16703E-04-3.61480E-04-8.55029E-16
 -1      1267 1.58715E-04-4.82185E-04-9.23212E-16
 -1      1268 3.07368E-04-6.54738E-04-1.09735E-15
 -1      1269 5.69393E-04-8.92222E-04-1.37806E-15
 -1      1270 9.41458E-04-1.19168E-03-1.76885E-15
 -1      1271 1.40901E-03-1.52565E-03-2.27398E-15
 -1      1272 1.94333E-03-1.83430E-03-2.88466E-15
 -1      1273 2.51420E-03-2.04715E-03-3.58616E-15
 -1      1274 3.10937E-03-2.11573E-03-4.37782E-15
 -1      1275 3.66461E-03-2.03742E-03-5.19306E-15
 -1      1276 4.13691E-03-1.87494E-03-5.96498E-15
 -1      1277 4.52202E-03-1.68212E-03-6.66595E-15
 -1      1278 4.80930E-03-1.49192E-03-7.26589E-15
 -1      1279 4.97691E-03-1.31523E-03-7.70784E-15
 -1      1280 5.00687E-03-1.16023E-03-7.92500E-15
 -1      1281 2.50646E-04-7.36114E-05-2.02204E-17
 -1      1282 1.30836E-04 6.30339E-06-4.87349E-17
 -1      1283 1.61643E-04-1.10951E-05-3.96547E-17
 -1      1284 7.70955E-05 8.90192E-06-5.99564E-17
 -1      1285 1.01588E-04 1.08515E-05-5.54569E-17
 -1      1286 2.34970E-04-1.10075E-05-1.34563E-16
 -1      1287 4.47359E-05-2.07908E-05-6.40763E-17
 -1      1288 5.72714E-05-6.88364E-06-6.22332E-17
 -1      1289 1.27559E-04-1.82094E-05-1.50982E-16
 -1      1290 4.14738E-05-5.46170E-05-6.62312E-17
 -1      1291 4.04874E-05-4.17554E-05-6.55061E-17
 -1      1292 7.54756E-05-6.83922E-05-1.57494E-16
 -1      1293 5.77315E-05-7.78523E-05-6.94635E-17
 -1      1294 4.84124E-05-7.09722E-05-6.90501E-17
 -1      1295 8.05577E-05-1.20550E-04-1.64175E-16
 -1      1296 8.72447E-05-7.99611E-05-7.53114E-17
 -1      1297 7.29975E-05-8.32713E-05-7.48371E-17
 -1      1298 1.29080E-04-1.49784E-04-1.76047E-16
 -1      1299 1.12186E-04-5.92312E-05-8.05833E-17
 -1      1300 1.01244E-04-7.07128E-05-8.01903E-17
 -1      1301 1.94000E-04-1.36817E-04-1.91064E-16
 -1      1302 1.25947E-04-2.96078E-05-8.47440E-17
 -1      1303 1.20460E-04-4.32253E-05-8.43374E-17
 -1      1304 2.41194E-04-9.12076E-05-2.03735E-16
 -1      1305 1.29841E-04-1.90183E-06-8.71021E-17
 -1      1306 1.28697E-04-1.38442E-05-8.69124E-17
 -1      1307 2.62753E-04-3.70116E-05-2.12504E-16
 -1      1308 1.27816E-04 1.98880E-05-8.73189E-17
 -1      1309 1.29206E-04 1.06672E-05-8.74409E-17
 -1      1310 2.65406E-04 1.06610E-05-2.16217E-16
 -1      1311 1.23056E-04 3.57583E-05-8.49337E-17
 -1      1312 1.25547E-04 2.89261E-05-8.57739E-17
 -1      1313 2.58078E-04 4.73662E-05-2.14618E-16
 -1      1314 1.17275E-04 4.79594E-05-7.93500E-17
 -1      1315 1.20108E-04 4.24705E-05-8.13965E-17
 -1      1316 2.46690E-04 7.50789E-05-2.06798E-16
 -1      1317 1.11754E-04 5.80322E-05-6.92670E-17
 -1      1318 1.14263E-04 5.31801E-05-7.32108E-17
 -1      1319 2.34431E-04 9.72485E-05-1.91226E-16
 -1      1320 1.07787E-04 6.78051E-05-5.22179E-17
 -1      1321 1.09120E-04 6.26938E-05-5.95363E-17
 -1      1322 2.23571E-04 1.17075E-04-1.65056E-16
 -1      1323 1.08855E-04 8.07075E-05-2.40828E-17
 -1      1324 1.06602E-04 7.32138E-05-3.78522E-17
 -1      1325 2.17248E-04 1.38799E-04-1.23518E-16
 -1      1326 1.46004E-04 1.18010E-04 2.06405E-17
 -1      1327 1.24683E-04 9.76685E-05-7.04731E-18
 -1      1328 2.35754E-04 1.75729E-04-7.24383E-17
 -1      1329 3.07943E-04 2.38793E-04 1.89735E-18
 -1      1330 6.70430E-04-2.25188E-04-1.10589E-16
 -1      1331 9.49044E-04-3.50805E-04-2.16081E-16
 -1      1332 1.22918E-03-5.09608E-04-3.83672E-16
 -1      1333 1.50999E-03-7.11891E-04-6.14716E-16
 -1      1334 9.45550E-04-3.54007E-04-3.41741E-16
 -1      1335 1.77694E-03-9.50504E-04-8.94602E-16
 -1      1336 2.03555E-03-1.23277E-03-1.23995E-15
 -1      1337 1.44783E-03-7.41789E-04-7.99138E-16
 -1      1338 2.24502E-03-1.49416E-03-1.58749E-15
 -1      1339 2.43900E-03-1.75666E-03-1.98661E-15
 -1      1340 1.91568E-03-1.25259E-03-1.43440E-15
 -1      1341 2.96413E-03-2.31893E-03-3.63209E-15
 -1      1342 3.11812E-03-2.34003E-03-4.33360E-15
 -1      1343 3.25861E-03-2.28757E-03-5.00579E-15
 -1      1344 3.41271E-03-2.19225E-03-5.73044E-15
 -1      1345 3.17887E-03-2.28369E-03-4.69744E-15
 -1      1346 3.61466E-03-2.04600E-03-6.65665E-15
 -1      1347 3.83022E-03-1.89823E-03-7.64470E-15
 -1      1348 3.57170E-03-2.06300E-03-6.27828E-15
 -1      1349 4.08174E-03-1.75959E-03-8.80348E-15
 -1      1350 4.33493E-03-1.66185E-03-1.00198E-14
 -1      1351 4.04380E-03-1.75401E-03-8.35913E-15
 -1      1352 4.58421E-03-1.61125E-03-1.12879E-14
 -1      1353 4.82520E-03-1.60101E-03-1.26023E-14
 -1      1354 4.52506E-03-1.57198E-03-1.07904E-14
 -1      1355 5.05540E-03-1.62424E-03-1.39611E-14
 -1      1356 5.27423E-03-1.67257E-03-1.53611E-14
 -1      1357 4.96827E-03-1.56176E-03-1.34193E-14
 -1      1358 5.48187E-03-1.73885E-03-1.68022E-14
 -1      1359 5.67910E-03-1.81777E-03-1.82842E-14
 -1      1360 5.37290E-03-1.66494E-03-1.62191E-14
 -1      1361 5.86716E-03-1.90501E-03-1.98075E-14
 -1      1362 6.04713E-03-1.99772E-03-2.13717E-14
 -1      1363 5.74484E-03-1.82700E-03-1.91834E-14
 -1      1364 6.22036E-03-2.09385E-03-2.29763E-14
 -1      1365 6.38783E-03-2.19195E-03-2.46194E-14
 -1      1366 6.09109E-03-2.01528E-03-2.23089E-14
 -1      1367 6.55061E-03-2.29124E-03-2.63029E-14
 -1      1368 6.70950E-03-2.39096E-03-2.80267E-14
 -1      1369 6.41822E-03-2.21346E-03-2.55939E-14
 -1      1370 6.86525E-03-2.49091E-03-2.97878E-14
 -1      1371 7.01843E-03-2.59069E-03-3.15863E-14
 -1      1372 6.73172E-03-2.41424E-03-2.90347E-14
 -1      1373 7.16956E-03-2.69032E-03-3.34231E-14
 -1      1374 7.31902E-03-2.78960E-03-3.52976E-14
 -1      1375 7.03583E-03-2.61469E-03-3.26291E-14
 -1      1376 7.46715E-03-2.88861E-03-3.72087E-14
 -1      1377 7.61420E-03-2.98725E-03-3.91543E-14
 -1      1378 7.33362E-03-2.81383E-03-3.63727E-14
 -1      1379 7.76041E-03-3.08562E-03-4.11327E-14
 -1      1380 7.90592E-03-3.18365E-03-4.31469E-14
 -1      1381 7.62721E-03-3.01149E-03-4.02585E-14
 -1      1382 8.05088E-03-3.28144E-03-4.51996E-14
 -1      1383 8.19540E-03-3.37897E-03-4.72896E-14
 -1      1384 7.91803E-03-3.20780E-03-4.42855E-14
 -1      1385 8.33957E-03-3.47628E-03-4.94161E-14
 -1      1386 8.48345E-03-3.57338E-03-5.15772E-14
 -1      1387 8.20702E-03-3.40299E-03-4.84596E-14
 -1      1388 8.62711E-03-3.67032E-03-5.37747E-14
 -1      1389 8.77059E-03-3.76709E-03-5.60094E-14
 -1      1390 8.49482E-03-3.59729E-03-5.27771E-14
 -1      1391 8.91392E-03-3.86372E-03-5.82775E-14
 -1      1392 9.05713E-03-3.96022E-03-6.05756E-14
 -1      1393 8.78183E-03-3.79088E-03-5.72355E-14
 -1      1394 9.20025E-03-4.05662E-03-6.29046E-14
 -1      1395 9.34330E-03-4.15291E-03-6.52647E-14
 -1      1396 9.06833E-03-3.98392E-03-6.18244E-14
 -1      1397 9.48628E-03-4.24913E-03-6.76515E-14
 -1      1398 9.62923E-03-4.34526E-03-7.00653E-14
 -1      1399 9.35449E-03-4.17653E-03-6.65314E-14
 -1      1400 9.77213E-03-4.44133E-03-7.25040E-14
 -1      1401 9.91501E-03-4.53734E-03-7.49661E-14
 -1      1402 9.64044E-03-4.36881E-03-7.13511E-14
 -1      1403 1.00579E-02-4.63330E-03-7.74502E-14
 -1      1404 1.02007E-02-4.72921E-03-7.99555E-14
 -1      1405 9.92625E-03-4.56084E-03-7.62666E-14
 -1      1406 1.03435E-02-4.82508E-03-8.24836E-14
 -1      1407 1.04864E-02-4.92091E-03-8.50359E-14
 -1      1408 1.02120E-02-4.75266E-03-8.12749E-14
 -1      1409 1.06292E-02-5.01671E-03-8.76101E-14
 -1      1410 1.07720E-02-5.11249E-03-9.02047E-14
 -1      1411 1.04977E-02-4.94432E-03-8.63717E-14
 -1      1412 1.09148E-02-5.20824E-03-9.28238E-14
 -1      1413 1.10576E-02-5.30397E-03-9.54652E-14
 -1      1414 1.07833E-02-5.13587E-03-9.15579E-14
 -1      1415 1.12004E-02-5.39968E-03-9.81277E-14
 -1      1416 1.13432E-02-5.49537E-03-1.00811E-13
 -1      1417 1.10689E-02-5.32733E-03-9.68314E-14
 -1      1418 1.14860E-02-5.59105E-03-1.03515E-13
 -1      1419 1.16288E-02-5.68672E-03-1.06239E-13
 -1      1420 1.13546E-02-5.51871E-03-1.02191E-13
 -1      1421 1.17717E-02-5.78238E-03-1.08984E-13
 -1      1422 1.19145E-02-5.87802E-03-1.11747E-13
 -1      1423 1.16402E-02-5.71005E-03-1.07631E-13
 -1      1424 1.20573E-02-5.97366E-03-1.14531E-13
 -1      1425 1.22001E-02-6.06930E-03-1.17329E-13
 -1      1426 1.19259E-02-5.90134E-03-1.13150E-13
 -1      1427 1.23429E-02-6.16493E-03-1.20137E-13
 -1      1428 1.24858E-02-6.26055E-03-1.22963E-13
 -1      1429 1.22115E-02-6.09261E-03-1.18736E-13
 -1      1430 1.26286E-02-6.35617E-03-1.25804E-13
 -1      1431 1.27714E-02-6.45178E-03-1.28658E-13
 -1      1432 1.24972E-02-6.28385E-03-1.24384E-13
 -1      1433 1.29143E-02-6.54739E-03-1.31529E-13
 -1      1434 1.30571E-02-6.64300E-03-1.34414E-13
 -1      1435 1.27829E-02-6.47508E-03-1.30092E-13
 -1      1436 1.32000E-02-6.73861E-03-1.37313E-13
 -1      1437 1.33428E-02-6.83422E-03-1.40221E-13
 -1      1438 1.30686E-02-6.66630E-03-1.35854E-13
 -1      1439 1.34856E-02-6.92983E-03-1.43130E-13
 -1      1440 1.36285E-02-7.02543E-03-1.46042E-13
 -1      1441 1.33543E-02-6.85751E-03-1.41654E-13
 -1      1442 1.37713E-02-7.12103E-03-1.48963E-13
 -1      1443 1.39142E-02-7.21664E-03-1.51889E-13
 -1      1444 1.36399E-02-7.04872E-03-1.47482E-13
 -1      1445 1.40570E-02-7.31224E-03-1.54815E-13
 -1      1446 1.41999E-02-7.40784E-03-1.57738E-13
 -1      1447 1.39256E-02-7.23993E-03-1.53321E-13
 -1      1448 1.43427E-02-7.50344E-03-1.60659E-13
 -1      1449 1.44856E-02-7.59905E-03-1.63582E-13
 -1      1450 1.42113E-02-7.43113E-03-1.59166E-13
 -1      1451 1.46284E-02-7.69465E-03-1.66504E-13
 -1      1452 1.47713E-02-7.79025E-03-1.69429E-13
 -1      1453 1.44971E-02-7.62233E-03-1.65007E-13
 -1      1454 1.49142E-02-7.88585E-03-1.72362E-13
 -1      1455 1.50570E-02-7.98145E-03-1.75303E-13
 -1      1456 1.47828E-02-7.81354E-03-1.70865E-13
 -1      1457 1.51999E-02-8.07706E-03-1.78250E-13
 -1      1458 1.53427E-02-8.17266E-03-1.81202E-13
 -1      1459 1.50685E-02-8.00474E-03-1.76745E-13
 -1      1460 1.54856E-02-8.26826E-03-1.84164E-13
 -1      1461 1.56284E-02-8.36386E-03-1.87136E-13
 -1      1462 1.53542E-02-8.19595E-03-1.82651E-13
 -1      1463 1.57713E-02-8.45947E-03-1.90115E-13
 -1      1464 1.59141E-02-8.55507E-03-1.93096E-13
 -1      1465 1.56399E-02-8.38715E-03-1.88595E-13
 -1      1466 1.60570E-02-8.65067E-03-1.96088E-13
 -1      1467 1.61999E-02-8.74628E-03-1.99090E-13
 -1      1468 1.59256E-02-8.57836E-03-1.94568E-13
 -1      1469 1.63427E-02-8.84188E-03-2.02095E-13
 -1      1470 1.64856E-02-8.93749E-03-2.05106E-13
 -1      1471 1.62113E-02-8.76957E-03-2.00567E-13
 -1      1472 1.65729E-02-8.99834E-03-2.07142E-13
 -1      1473 1.67086E-02-9.08916E-03-2.10011E-13
 -1      1474 1.66162E-02-9.04774E-03-2.09679E-13
 -1      1475 1.64415E-02-8.92603E-03-2.05608E-13
 -1      1476 5.79552E-04 3.98965E-04-1.45744E-16
 -1      1477 4.48753E-04 3.28460E-04-4.11861E-17
 -1      1478 4.04895E-04 2.93894E-04-9.64804E-17
 -1      1479 8.20845E-04 4.86011E-04-5.35365E-16
 -1      1480 7.03060E-04 4.49931E-04-3.10292E-16
 -1      1481 6.70537E-04 4.18909E-04-3.78034E-16
 -1      1482 1.04553E-03 5.16766E-04-1.16521E-15
 -1      1483 9.34568E-04 5.07731E-04-8.19826E-16
 -1      1484 9.17124E-04 4.80649E-04-8.98079E-16
 -1      1485 1.26265E-03 4.99328E-04-2.03720E-15
 -1      1486 1.15454E-03 5.13704E-04-1.57067E-15
 -1      1487 1.15166E-03 4.89665E-04-1.65678E-15
 -1      1488 1.47856E-03 4.38743E-04-3.15179E-15
 -1      1489 1.37038E-03 4.74106E-04-2.56433E-15
 -1      1490 1.38083E-03 4.52286E-04-2.65636E-15
 -1      1491 1.69813E-03 3.39890E-04-4.50502E-15
 -1      1492 1.58760E-03 3.93724E-04-3.79881E-15
 -1      1493 1.60988E-03 3.73350E-04-3.89561E-15
 -1      1494 1.92497E-03 2.08596E-04-6.09482E-15
 -1      1495 1.81044E-03 2.77864E-04-5.27054E-15
 -1      1496 1.84288E-03 2.58243E-04-5.37152E-15
 -1      1497 2.16139E-03 5.16217E-05-7.91521E-15
 -1      1498 2.04187E-03 1.32867E-04-6.97649E-15
 -1      1499 2.08262E-03 1.13418E-04-7.08000E-15
 -1      1500 2.40829E-03-1.24000E-04-9.95842E-15
 -1      1501 2.28351E-03-3.42766E-05-8.90959E-15
 -1      1502 2.33070E-03-5.39837E-05-9.01506E-15
 -1      1503 2.66539E-03-3.11781E-04-1.22143E-14
 -1      1504 2.53562E-03-2.16715E-04-1.10601E-14
 -1      1505 2.58750E-03-2.36941E-04-1.11675E-14
 -1      1506 2.93147E-03-5.06399E-04-1.46770E-14
 -1      1507 2.79740E-03-4.08487E-04-1.34205E-14
 -1      1508 2.85244E-03-4.29339E-04-1.35292E-14
 -1      1509 3.20483E-03-7.03973E-04-1.73373E-14
 -1      1510 3.06735E-03-6.04978E-04-1.59829E-14
 -1      1511 3.12432E-03-6.26448E-04-1.60928E-14
 -1      1512 3.48365E-03-9.02013E-04-2.01869E-14
 -1      1513 3.34367E-03-8.03023E-04-1.87387E-14
 -1      1514 3.40167E-03-8.25029E-04-1.88487E-14
 -1      1515 3.76627E-03-1.09916E-03-2.32198E-14
 -1      1516 3.62459E-03-1.00073E-03-2.16815E-14
 -1      1517 3.68302E-03-1.02316E-03-2.17911E-14
 -1      1518 4.05129E-03-1.29486E-03-2.64220E-14
 -1      1519 3.90856E-03-1.19719E-03-2.47999E-14
 -1      1520 3.96705E-03-1.21993E-03-2.49091E-14
 -1      1521 4.33768E-03-1.48905E-03-2.97943E-14
 -1      1522 4.19438E-03-1.39213E-03-2.80881E-14
 -1      1523 4.25275E-03-1.41507E-03-2.81964E-14
 -1      1524 4.62471E-03-1.68195E-03-3.33296E-14
 -1      1525 4.48116E-03-1.58564E-03-3.15412E-14
 -1      1526 4.53934E-03-1.60870E-03-3.16485E-14
 -1      1527 4.91192E-03-1.87384E-03-3.70268E-14
 -1      1528 4.76832E-03-1.77800E-03-3.51585E-14
 -1      1529 4.82630E-03-1.80112E-03-3.52629E-14
 -1      1530 5.19904E-03-2.06504E-03-4.08783E-14
 -1      1531 5.05550E-03-1.96951E-03-3.89333E-14
 -1      1532 5.11333E-03-1.99265E-03-3.90344E-14
 -1      1533 5.48594E-03-2.25581E-03-4.48779E-14
 -1      1534 5.34252E-03-2.16047E-03-4.28607E-14
 -1      1535 5.40023E-03-2.18360E-03-4.29571E-14
 -1      1536 5.77259E-03-2.44635E-03-4.90132E-14
 -1      1537 5.62930E-03-2.35110E-03-4.69292E-14
 -1      1538 5.68693E-03-2.37422E-03-4.70221E-14
 -1      1539 6.05898E-03-2.63680E-03-5.32791E-14
 -1      1540 5.91581E-03-2.54158E-03-5.11304E-14
 -1      1541 5.97340E-03-2.56467E-03-5.12211E-14
 -1      1542 6.34516E-03-2.82725E-03-5.76675E-14
 -1      1543 6.20209E-03-2.73202E-03-5.54579E-14
 -1      1544 6.25967E-03-2.75510E-03-5.55465E-14
 -1      1545 6.63116E-03-3.01777E-03-6.21705E-14
 -1      1546 6.48818E-03-2.92250E-03-5.99046E-14
 -1      1547 6.54576E-03-2.94556E-03-5.99906E-14
 -1      1548 6.91703E-03-3.20838E-03-6.67784E-14
 -1      1549 6.77411E-03-3.11307E-03-6.44626E-14
 -1      1550 6.83170E-03-3.13610E-03-6.45484E-14
 -1      1551 7.20281E-03-3.39909E-03-7.14997E-14
 -1      1552 7.05993E-03-3.30373E-03-6.91255E-14
 -1      1553 7.11754E-03-3.32675E-03-6.92127E-14
 -1      1554 7.48852E-03-3.58990E-03-7.63298E-14
 -1      1555 7.34567E-03-3.49448E-03-7.39003E-14
 -1      1556 7.40331E-03-3.51749E-03-7.39867E-14
 -1      1557 7.77420E-03-3.78079E-03-8.12615E-14
 -1      1558 7.63136E-03-3.68533E-03-7.87825E-14
 -1      1559 7.68902E-03-3.70833E-03-7.88660E-14
 -1      1560 8.05985E-03-3.97175E-03-8.62831E-14
 -1      1561 7.91703E-03-3.87626E-03-8.37613E-14
 -1      1562 7.97471E-03-3.89926E-03-8.38414E-14
 -1      1563 8.34549E-03-4.16278E-03-9.13980E-14
 -1      1564 8.20267E-03-4.06726E-03-8.88299E-14
 -1      1565 8.26037E-03-4.09025E-03-8.89092E-14
 -1      1566 8.63114E-03-4.35386E-03-9.65873E-14
 -1      1567 8.48832E-03-4.25832E-03-9.39837E-14
 -1      1568 8.54603E-03-4.28130E-03-9.40605E-14
 -1      1569 8.91678E-03-4.54497E-03-1.01844E-13
 -1      1570 8.77396E-03-4.44941E-03-9.92070E-14
 -1      1571 8.83169E-03-4.47240E-03-9.92835E-14
 -1      1572 9.20244E-03-4.73612E-03-1.07176E-13
 -1      1573 9.05961E-03-4.64054E-03-1.04501E-13
 -1      1574 9.11735E-03-4.66353E-03-1.04578E-13
 -1      1575 9.48810E-03-4.92729E-03-1.12580E-13
 -1      1576 9.34527E-03-4.83170E-03-1.09870E-13
 -1      1577 9.40301E-03-4.85469E-03-1.09944E-13
 -1      1578 9.77377E-03-5.11847E-03-1.18042E-13
 -1      1579 9.63094E-03-5.02288E-03-1.15304E-13
 -1      1580 9.68869E-03-5.04587E-03-1.15375E-13
 -1      1581 1.00594E-02-5.30967E-03-1.23541E-13
 -1      1582 9.91661E-03-5.21407E-03-1.20786E-13
 -1      1583 9.97437E-03-5.23706E-03-1.20855E-13
 -1      1584 1.03451E-02-5.50087E-03-1.29090E-13
 -1      1585 1.02023E-02-5.40527E-03-1.26309E-13
 -1      1586 1.02601E-02-5.42826E-03-1.26380E-13
 -1      1587 1.06308E-02-5.69208E-03-1.34688E-13
 -1      1588 1.04880E-02-5.59647E-03-1.31884E-13
 -1      1589 1.05457E-02-5.61946E-03-1.31957E-13
 -1      1590 1.09165E-02-5.88329E-03-1.40332E-13
 -1      1591 1.07737E-02-5.78768E-03-1.37504E-13
 -1      1592 1.08314E-02-5.81067E-03-1.37581E-13
 -1      1593 1.12022E-02-6.07450E-03-1.46022E-13
 -1      1594 1.10594E-02-5.97889E-03-1.43172E-13
 -1      1595 1.11171E-02-6.00188E-03-1.43249E-13
 -1      1596 1.14879E-02-6.26571E-03-1.51755E-13
 -1      1597 1.13451E-02-6.17011E-03-1.48884E-13
 -1      1598 1.14028E-02-6.19310E-03-1.48961E-13
 -1      1599 1.17736E-02-6.45693E-03-1.57531E-13
 -1      1600 1.16308E-02-6.36132E-03-1.54637E-13
 -1      1601 1.16885E-02-6.38431E-03-1.54716E-13
 -1      1602 1.20593E-02-6.64814E-03-1.63346E-13
 -1      1603 1.19165E-02-6.55254E-03-1.60434E-13
 -1      1604 1.19743E-02-6.57552E-03-1.60508E-13
 -1      1605 1.23451E-02-6.83935E-03-1.69199E-13
 -1      1606 1.22022E-02-6.74375E-03-1.66267E-13
 -1      1607 1.22600E-02-6.76674E-03-1.66339E-13
 -1      1608 1.26308E-02-7.03057E-03-1.75088E-13
 -1      1609 1.24879E-02-6.93496E-03-1.72138E-13
 -1      1610 1.25457E-02-6.95795E-03-1.72207E-13
 -1      1611 1.29165E-02-7.22178E-03-1.81007E-13
 -1      1612 1.27736E-02-7.12617E-03-1.78044E-13
 -1      1613 1.28314E-02-7.14916E-03-1.78110E-13
 -1      1614 1.32022E-02-7.41299E-03-1.86943E-13
 -1      1615 1.30593E-02-7.31738E-03-1.83974E-13
 -1      1616 1.31171E-02-7.34037E-03-1.84035E-13
 -1      1617 1.34879E-02-7.60420E-03-1.92901E-13
 -1      1618 1.33451E-02-7.50859E-03-1.89919E-13
 -1      1619 1.34028E-02-7.53158E-03-1.89983E-13
 -1      1620 1.36599E-02-7.71417E-03-1.96123E-13
 -1      1621 1.39069E-02-7.82756E-03-1.97478E-13
 -1      1622 1.38129E-02-7.78542E-03-1.97039E-13
 -1      1623 1.40949E-02-7.91185E-03-1.98348E-13
 -1      1624 1.40009E-02-7.86971E-03-1.97914E-13
 -1      1625 1.38302E-02-7.76584E-03-1.95113E-13
 -1      1626 1.42829E-02-7.99613E-03-1.99218E-13
 -1      1627 1.41889E-02-7.95399E-03-1.98780E-13
 -1      1628 1.40182E-02-7.85013E-03-1.95984E-13
 -1      1629 1.44710E-02-8.08042E-03-2.00086E-13
 -1      1630 1.43770E-02-8.03828E-03-1.99654E-13
 -1      1631 1.42062E-02-7.93441E-03-1.96856E-13
 -1      1632 1.46558E-02-8.16328E-03-2.00931E-13
 -1      1633 1.45634E-02-8.12185E-03-2.00509E-13
 -1      1634 1.43927E-02-8.01799E-03-1.97720E-13
 -1      1635 1.48438E-02-8.24757E-03-2.01795E-13
 -1      1636 1.47498E-02-8.20542E-03-2.01363E-13
 -1      1637 1.45791E-02-8.10156E-03-1.98580E-13
 -1      1638 1.50318E-02-8.33186E-03-2.02672E-13
 -1      1639 1.49378E-02-8.28971E-03-2.02230E-13
 -1      1640 1.47671E-02-8.18585E-03-1.99448E-13
 -1      1641 1.52199E-02-8.41615E-03-2.03549E-13
 -1      1642 1.51259E-02-8.37400E-03-2.03112E-13
 -1      1643 1.49551E-02-8.27014E-03-2.00319E-13
 -1      1644 1.54079E-02-8.50043E-03-2.04398E-13
 -1      1645 1.53139E-02-8.45829E-03-2.03977E-13
 -1      1646 1.51432E-02-8.35442E-03-2.01185E-13
 -1      1647 1.55959E-02-8.58472E-03-2.05218E-13
 -1      1648 1.55019E-02-8.54258E-03-2.04812E-13
 -1      1649 1.53312E-02-8.43871E-03-2.02022E-13
 -1      1650 1.57807E-02-8.66758E-03-2.06007E-13
 -1      1651 1.56883E-02-8.62615E-03-2.05614E-13
 -1      1652 1.55176E-02-8.52229E-03-2.02826E-13
 -1      1653 1.59688E-02-8.75187E-03-2.06796E-13
 -1      1654 1.58748E-02-8.70972E-03-2.06405E-13
 -1      1655 1.57040E-02-8.60586E-03-2.03610E-13
 -1      1656 1.61568E-02-8.83615E-03-2.07547E-13
 -1      1657 1.60628E-02-8.79401E-03-2.07177E-13
 -1      1658 1.58921E-02-8.69015E-03-2.04375E-13
 -1      1659 1.63448E-02-8.92044E-03-2.08263E-13
 -1      1660 1.62508E-02-8.87830E-03-2.07911E-13
 -1      1661 1.60801E-02-8.77443E-03-2.05112E-13
 -1      1662 1.65275E-02-9.00516E-03-2.09147E-13
 -1      1663 1.64335E-02-8.96302E-03-2.08812E-13
 -1      1664 1.62628E-02-8.85915E-03-2.06021E-13
 -1      1665 1.64402E-02-8.94430E-03-2.07108E-13
 -1      1666 4.87389E-03-1.04952E-03-8.42177E-15
 -1      1667 4.95817E-03-1.09694E-03-8.47623E-15
 -1      1668 4.57565E-03-9.20711E-04-8.13061E-15
 -1      1669 4.73163E-03-9.87146E-04-8.31218E-15
 -1      1670 4.20586E-03-7.46306E-04-7.56487E-15
 -1      1671 4.38226E-03-8.23714E-04-7.81168E-15
 -1      1672 3.71541E-03-5.52300E-04-6.90827E-15
 -1      1673 3.94483E-03-6.59086E-04-7.28470E-15
 -1      1674 3.25644E-03-3.23637E-04-5.99770E-15
 -1      1675 3.46922E-03-4.19383E-04-6.38652E-15
 -1      1676 2.81995E-03-1.46241E-04-5.12372E-15
 -1      1677 3.02025E-03-2.21331E-04-5.51929E-15
 -1      1678 2.39130E-03-2.61523E-05-4.26222E-15
 -1      1679 2.58448E-03-7.30233E-05-4.66001E-15
 -1      1680 1.99312E-03 1.71864E-05-3.45652E-15
 -1      1681 2.17380E-03 5.57747E-06-3.81506E-15
 -1      1682 1.58376E-03-4.07834E-06-2.67077E-15
 -1      1683 1.77526E-03 1.88033E-05-3.02324E-15
 -1      1684 1.18234E-03-8.09016E-05-2.03461E-15
 -1      1685 1.35754E-03-4.28373E-05-2.30716E-15
 -1      1686 8.14427E-04-1.60677E-04-1.54636E-15
 -1      1687 9.75323E-04-1.22903E-04-1.76083E-15
 -1      1688 5.07519E-04-2.37163E-04-1.16374E-15
 -1      1689 6.44739E-04-2.06419E-04-1.32037E-15
 -1      1690 2.81203E-04-2.80187E-04-9.41098E-16
 -1      1691 3.71439E-04-2.60379E-04-1.03218E-15
 -1      1692 1.47010E-04-3.18595E-04-8.20755E-16
 -1      1693 1.98775E-04-3.01460E-04-8.64534E-16
 -1      1694 1.07073E-04-3.67678E-04-7.97976E-16
 -1      1695 1.11891E-04-3.42929E-04-7.93616E-16
 -1      1696 1.89478E-04-4.55830E-04-8.89625E-16
 -1      1697 1.35631E-04-4.10197E-04-8.36245E-16
 -1      1698 4.02370E-04-6.05413E-04-1.07670E-15
 -1      1699 2.87970E-04-5.26758E-04-9.77181E-16
 -1      1700 7.45125E-04-8.46717E-04-1.37158E-15
 -1      1701 5.70969E-04-7.22270E-04-1.21968E-15
 -1      1702 1.18648E-03-1.17895E-03-1.77832E-15
 -1      1703 9.73386E-04-1.01471E-03-1.57478E-15
 -1      1704 1.69718E-03-1.56767E-03-2.30539E-15
 -1      1705 1.46147E-03-1.38209E-03-2.04071E-15
 -1      1706 2.19289E-03-1.92323E-03-2.96283E-15
 -1      1707 1.96229E-03-1.77218E-03-2.64835E-15
 -1      1708 2.68976E-03-2.14309E-03-3.72873E-15
 -1      1709 2.46511E-03-2.06450E-03-3.35872E-15
 -1      1710 3.18858E-03-2.16044E-03-4.62542E-15
 -1      1711 2.95799E-03-2.18168E-03-4.20158E-15
 -1      1712 3.67101E-03-1.99958E-03-5.53122E-15
 -1      1713 3.45530E-03-2.08613E-03-5.12264E-15
 -1      1714 4.12790E-03-1.77428E-03-6.38136E-15
 -1      1715 3.92404E-03-1.88255E-03-5.99385E-15
 -1      1716 4.52269E-03-1.55754E-03-7.15384E-15
 -1      1717 4.34950E-03-1.65423E-03-6.81437E-15
 -1      1718 4.82785E-03-1.37134E-03-7.86299E-15
 -1      1719 4.69693E-03-1.44755E-03-7.58035E-15
 -1      1720 5.00386E-03-1.24195E-03-8.31988E-15
 -1      1721 4.94276E-03-1.29580E-03-8.14256E-15
 -1      1722 5.01406E-03-1.14633E-03-8.44187E-15
 -1      1723 5.02789E-03-1.18838E-03-8.38834E-15
 -1      1724 2.36149E-03-1.79689E-03-2.22318E-15
 -1      1725 2.63788E-03-2.00439E-03-2.43039E-15
 -1      1726 2.79577E-03-2.19054E-03-2.94847E-15
 -1      1727 2.79543E-03-2.22552E-03-3.33544E-15
 -1      1728 3.99857E-03-7.74014E-04-7.79336E-15
 -1      1729 4.99470E-03-1.14855E-03-8.95834E-15
 -1      1730 1.37176E-02-7.73716E-03-1.96185E-13
 -1      1731 1.36409E-02-7.67544E-03-1.93819E-13
 -1      1732 4.79423E-03-1.07895E-03-8.87054E-15
 -1      1733 4.45020E-03-9.53006E-04-8.41718E-15
 -1      1734 3.51365E-03-5.40326E-04-6.95337E-15
 -1      1735 3.06097E-03-2.89450E-04-5.93178E-15
 -1      1736 2.64075E-03-9.76521E-05-4.97779E-15
 -1      1737 2.25905E-03 1.56599E-05-4.06560E-15
 -1      1738 1.88116E-03 4.35578E-05-3.19376E-15
 -1      1739 1.50907E-03-1.50698E-05-2.42541E-15
 -1      1740 1.12314E-03-1.17058E-04-1.82119E-15
 -1      1741 7.63121E-04-2.14880E-04-1.34983E-15
 -1      1742 4.62820E-04-2.81751E-04-1.02528E-15
 -1      1743 2.45127E-04-3.13549E-04-8.36879E-16
 -1      1744 1.25035E-04-3.31422E-04-7.42001E-16
 -1      1745 1.19317E-04-3.57025E-04-7.50522E-16
 -1      1746 2.53189E-04-4.30696E-04-8.62061E-16
 -1      1747 5.32047E-04-5.84389E-04-1.06713E-15
 -1      1748 9.38305E-04-8.50287E-04-1.37992E-15
 -1      1749 1.43332E-03-1.22412E-03-1.80894E-15
 -1      1750 1.93423E-03-1.65311E-03-2.37741E-15
 -1      1751 2.40726E-03-2.01833E-03-3.09396E-15
 -1      1752 2.84923E-03-2.20417E-03-3.95663E-15
 -1      1753 3.28269E-03-2.14645E-03-4.94431E-15
 -1      1754 3.73521E-03-1.92930E-03-5.93498E-15
 -1      1755 4.17996E-03-1.67317E-03-6.86297E-15
 -1      1756 4.57468E-03-1.44861E-03-7.75300E-15
 -1      1757 4.87572E-03-1.29412E-03-8.48877E-15
 -1      1758 5.02356E-03-1.20961E-03-8.85424E-15
 -1      1759 4.36105E-04-1.10376E-04-9.45424E-17
 -1      1760 1.45075E-04-6.62018E-05-2.18745E-16
 -1      1761 2.10353E-04-4.92619E-05-2.12910E-16
 -1      1762 2.95078E-04-4.99146E-05-2.05172E-16
 -1      1763 3.88167E-04-7.13714E-05-1.88651E-16
 -1      1764 3.26125E-04-1.03184E-04-2.98156E-16
 -1      1765 1.13826E-04-1.72712E-04-2.23684E-16
 -1      1766 9.27796E-05-1.49320E-04-2.17789E-16
 -1      1767 2.04500E-04-1.94943E-04-2.49793E-16
 -1      1768 1.55996E-04-1.92166E-04-2.38823E-16
 -1      1769 3.14275E-04-1.63732E-04-2.86907E-16
 -1      1770 2.68704E-04-1.87911E-04-2.75902E-16
 -1      1771 3.75683E-04-9.52244E-05-3.05325E-16
 -1      1772 3.50705E-04-1.30584E-04-2.96882E-16
 -1      1773 4.52755E-04-1.68904E-04-4.19369E-16
 -1      1774 3.96961E-04-2.52724E-05-3.16452E-16
 -1      1775 3.90121E-04-5.90332E-05-3.11654E-16
 -1      1776 5.18792E-04-8.26347E-05-4.44116E-16
 -1      1777 3.93529E-04 3.29621E-05-3.19880E-16
 -1      1778 3.97071E-04 5.64431E-06-3.18945E-16
 -1      1779 5.33800E-04-3.07673E-06-4.57682E-16
 -1      1780 3.78831E-04 7.72209E-05-3.15462E-16
 -1      1781 3.86735E-04 5.65406E-05-3.18674E-16
 -1      1782 5.21425E-04 6.03320E-05-4.60149E-16
 -1      1783 3.60212E-04 1.12441E-04-3.01883E-16
 -1      1784 3.69490E-04 9.57988E-05-3.10177E-16
 -1      1785 4.98120E-04 1.09822E-04-4.51462E-16
 -1      1786 3.42101E-04 1.42345E-04-2.76350E-16
 -1      1787 3.50774E-04 1.27840E-04-2.91081E-16
 -1      1788 4.72377E-04 1.50675E-04-4.29480E-16
 -1      1789 3.27677E-04 1.71735E-04-2.34743E-16
 -1      1790 3.34094E-04 1.56938E-04-2.58623E-16
 -1      1791 4.49065E-04 1.87893E-04-3.90923E-16
 -1      1792 3.23029E-04 2.07226E-04-1.69068E-16
 -1      1793 3.23364E-04 1.88478E-04-2.05998E-16
 -1      1794 4.32550E-04 2.27400E-04-3.29232E-16
 -1      1795 3.68657E-04 2.61034E-04-1.24358E-16
 -1      1796 3.46629E-04 2.33119E-04-1.56084E-16
 -1      1797 4.50874E-04 2.75926E-04-2.76688E-16
 -1      1798 5.05271E-04 3.33917E-04-2.37481E-16
 -1      1799 4.77139E-04-1.09543E-04-1.53022E-16
 -1      1800 7.69332E-04 4.29955E-04-6.42349E-16
 -1      1801 6.38901E-04 3.89345E-04-4.10913E-16
 -1      1802 6.11655E-04 3.60241E-04-4.35863E-16
 -1      1803 2.58558E-03-2.10548E-03-3.09125E-15
 -1      1804 2.85175E-03-2.24549E-03-3.77546E-15
 -1      1805 1.16869E-03-5.58950E-04-6.99703E-16
 -1      1806 1.40366E-03-7.88106E-04-9.85513E-16
 -1      1807 1.66587E-03-1.05375E-03-1.30324E-15
 -1      1808 1.88389E-03-1.31941E-03-1.65105E-15
 -1      1809 5.74697E-04-1.59616E-04-2.46060E-16
 -1      1810 3.49440E-03-2.07982E-03-5.87524E-15
 -1      1811 3.73313E-03-1.91968E-03-6.79503E-15
 -1      1812 3.99490E-03-1.74774E-03-7.83535E-15
 -1      1813 4.23962E-03-1.61356E-03-8.99140E-15
 -1      1814 4.47505E-03-1.53329E-03-1.02059E-14
 -1      1815 4.68960E-03-1.49508E-03-1.14704E-14
 -1      1816 4.44223E-03-1.49566E-03-9.62702E-15
 -1      1817 4.89462E-03-1.49891E-03-1.27830E-14
 -1      1818 5.08733E-03-1.53182E-03-1.41386E-14
 -1      1819 4.84449E-03-1.44069E-03-1.21545E-14
 -1      1820 5.27262E-03-1.58795E-03-1.55361E-14
 -1      1821 5.45133E-03-1.66012E-03-1.69736E-14
 -1      1822 5.19516E-03-1.51668E-03-1.48590E-14
 -1      1823 5.62415E-03-1.74322E-03-1.84525E-14
 -1      1824 5.79307E-03-1.83387E-03-1.99701E-14
 -1      1825 5.52161E-03-1.66411E-03-1.77278E-14
 -1      1826 5.95735E-03-1.92902E-03-2.15275E-14
 -1      1827 6.11893E-03-2.02717E-03-2.31259E-14
 -1      1828 5.83650E-03-1.84589E-03-2.07542E-14
 -1      1829 6.27698E-03-2.12685E-03-2.47635E-14
 -1      1830 6.43301E-03-2.22737E-03-2.64402E-14
 -1      1831 6.14433E-03-2.04212E-03-2.39394E-14
 -1      1832 6.58648E-03-2.32816E-03-2.81557E-14
 -1      1833 6.73845E-03-2.42887E-03-2.99098E-14
 -1      1834 6.44677E-03-2.24312E-03-2.72840E-14
 -1      1835 6.88862E-03-2.52938E-03-3.17009E-14
 -1      1836 7.03770E-03-2.62950E-03-3.35308E-14
 -1      1837 6.74490E-03-2.44462E-03-3.07801E-14
 -1      1838 7.18554E-03-2.72926E-03-3.53985E-14
 -1      1839 7.33259E-03-2.82859E-03-3.73013E-14
 -1      1840 7.03962E-03-2.64497E-03-3.44304E-14
 -1      1841 7.47881E-03-2.92755E-03-3.92396E-14
 -1      1842 7.62449E-03-3.02612E-03-4.12118E-14
 -1      1843 7.33176E-03-2.84374E-03-3.82253E-14
 -1      1844 7.76960E-03-3.12437E-03-4.32203E-14
 -1      1845 7.91432E-03-3.22229E-03-4.52655E-14
 -1      1846 7.62199E-03-3.04099E-03-4.21629E-14
 -1      1847 8.05868E-03-3.31995E-03-4.73475E-14
 -1      1848 8.20276E-03-3.41735E-03-4.94653E-14
 -1      1849 7.91084E-03-3.23692E-03-4.62430E-14
 -1      1850 8.34660E-03-3.51455E-03-5.16185E-14
 -1      1851 8.49026E-03-3.61153E-03-5.38052E-14
 -1      1852 8.19869E-03-3.43179E-03-5.04658E-14
 -1      1853 8.63375E-03-3.70836E-03-5.60270E-14
 -1      1854 8.77711E-03-3.80502E-03-5.82830E-14
 -1      1855 8.48585E-03-3.62581E-03-5.48290E-14
 -1      1856 8.92037E-03-3.90156E-03-6.05693E-14
 -1      1857 9.06354E-03-3.99798E-03-6.28862E-14
 -1      1858 8.77251E-03-3.81919E-03-5.93238E-14
 -1      1859 9.20664E-03-4.09430E-03-6.52347E-14
 -1      1860 9.34968E-03-4.19053E-03-6.76102E-14
 -1      1861 9.05884E-03-4.01205E-03-6.39449E-14
 -1      1862 9.49267E-03-4.28667E-03-7.00128E-14
 -1      1863 9.63563E-03-4.38275E-03-7.24414E-14
 -1      1864 9.34494E-03-4.20452E-03-6.86835E-14
 -1      1865 9.77856E-03-4.47877E-03-7.48962E-14
 -1      1866 9.92146E-03-4.57473E-03-7.73735E-14
 -1      1867 9.63088E-03-4.39668E-03-7.35316E-14
 -1      1868 1.00643E-02-4.67064E-03-7.98706E-14
 -1      1869 1.02072E-02-4.76651E-03-8.23908E-14
 -1      1870 9.91671E-03-4.58861E-03-7.84728E-14
 -1      1871 1.03501E-02-4.86235E-03-8.49352E-14
 -1      1872 1.04929E-02-4.95815E-03-8.75022E-14
 -1      1873 1.02025E-02-4.78036E-03-8.35053E-14
 -1      1874 1.06358E-02-5.05393E-03-9.00883E-14
 -1      1875 1.07786E-02-5.14967E-03-9.26983E-14
 -1      1876 1.04882E-02-4.97197E-03-8.86262E-14
 -1      1877 1.09214E-02-5.24540E-03-9.53322E-14
 -1      1878 1.10643E-02-5.34111E-03-9.79836E-14
 -1      1879 1.07739E-02-5.16347E-03-9.38365E-14
 -1      1880 1.12071E-02-5.43680E-03-1.00656E-13
 -1      1881 1.13499E-02-5.53248E-03-1.03350E-13
 -1      1882 1.10596E-02-5.35489E-03-9.91306E-14
 -1      1883 1.14927E-02-5.62815E-03-1.06066E-13
 -1      1884 1.16356E-02-5.72380E-03-1.08799E-13
 -1      1885 1.13453E-02-5.54625E-03-1.04506E-13
 -1      1886 1.17784E-02-5.81945E-03-1.11551E-13
 -1      1887 1.19212E-02-5.91509E-03-1.14326E-13
 -1      1888 1.16309E-02-5.73756E-03-1.09964E-13
 -1      1889 1.20641E-02-6.01072E-03-1.17115E-13
 -1      1890 1.22069E-02-6.10635E-03-1.19917E-13
 -1      1891 1.19166E-02-5.92883E-03-1.15494E-13
 -1      1892 1.23497E-02-6.20197E-03-1.22735E-13
 -1      1893 1.24926E-02-6.29759E-03-1.25572E-13
 -1      1894 1.22023E-02-6.12009E-03-1.21093E-13
 -1      1895 1.26354E-02-6.39320E-03-1.28423E-13
 -1      1896 1.27783E-02-6.48881E-03-1.31285E-13
 -1      1897 1.24880E-02-6.31132E-03-1.26756E-13
 -1      1898 1.29211E-02-6.58442E-03-1.34161E-13
 -1      1899 1.30640E-02-6.68003E-03-1.37051E-13
 -1      1900 1.27737E-02-6.50254E-03-1.32474E-13
 -1      1901 1.32068E-02-6.77564E-03-1.39949E-13
 -1      1902 1.33497E-02-6.87124E-03-1.42852E-13
 -1      1903 1.30594E-02-6.69376E-03-1.38241E-13
 -1      1904 1.34925E-02-6.96684E-03-1.45760E-13
 -1      1905 1.36353E-02-7.06245E-03-1.48674E-13
 -1      1906 1.33450E-02-6.88497E-03-1.44043E-13
 -1      1907 1.37782E-02-7.15805E-03-1.51594E-13
 -1      1908 1.39210E-02-7.25365E-03-1.54513E-13
 -1      1909 1.36307E-02-7.07617E-03-1.49866E-13
 -1      1910 1.40639E-02-7.34925E-03-1.57433E-13
 -1      1911 1.42068E-02-7.44485E-03-1.60353E-13
 -1      1912 1.39165E-02-7.26738E-03-1.55701E-13
 -1      1913 1.43496E-02-7.54046E-03-1.63273E-13
 -1      1914 1.44925E-02-7.63606E-03-1.66199E-13
 -1      1915 1.42022E-02-7.45858E-03-1.61539E-13
 -1      1916 1.46353E-02-7.73166E-03-1.69126E-13
 -1      1917 1.47782E-02-7.82726E-03-1.72060E-13
 -1      1918 1.44879E-02-7.64978E-03-1.67388E-13
 -1      1919 1.49210E-02-7.92286E-03-1.75000E-13
 -1      1920 1.50639E-02-8.01847E-03-1.77947E-13
 -1      1921 1.47736E-02-7.84099E-03-1.73255E-13
 -1      1922 1.52067E-02-8.11407E-03-1.80901E-13
 -1      1923 1.53496E-02-8.20967E-03-1.83862E-13
 -1      1924 1.50593E-02-8.03219E-03-1.79148E-13
 -1      1925 1.54924E-02-8.30527E-03-1.86834E-13
 -1      1926 1.56353E-02-8.40088E-03-1.89814E-13
 -1      1927 1.53450E-02-8.22339E-03-1.85073E-13
 -1      1928 1.57782E-02-8.49648E-03-1.92799E-13
 -1      1929 1.59210E-02-8.59208E-03-1.95793E-13
 -1      1930 1.56307E-02-8.41460E-03-1.91031E-13
 -1      1931 1.60639E-02-8.68769E-03-1.98795E-13
 -1      1932 1.62067E-02-8.78329E-03-2.01802E-13
 -1      1933 1.59164E-02-8.60581E-03-1.97018E-13
 -1      1934 1.63528E-02-8.88345E-03-2.05074E-13
 -1      1935 1.22279E-03 4.54525E-04-2.02354E-15
 -1      1936 1.10047E-03 4.61859E-04-1.57349E-15
 -1      1937 1.46457E-03 4.06395E-04-3.10293E-15
 -1      1938 1.34385E-03 4.35952E-04-2.53310E-15
 -1      1939 1.30152E-03 4.16087E-04-2.40170E-15
 -1      1940 1.70635E-03 3.17401E-04-4.41980E-15
 -1      1941 1.58517E-03 3.66731E-04-3.73167E-15
 -1      1942 1.55417E-03 3.57121E-04-3.55994E-15
 -1      1943 1.95153E-03 1.93284E-04-5.97145E-15
 -1      1944 1.82830E-03 2.59370E-04-5.16630E-15
 -1      1945 1.80702E-03 2.58092E-04-4.95403E-15
 -1      1946 2.20243E-03 4.09379E-05-7.75309E-15
 -1      1947 2.07614E-03 1.20221E-04-6.83409E-15
 -1      1948 2.06299E-03 1.25156E-04-6.58104E-15
 -1      1949 2.46022E-03-1.32232E-04-9.75802E-15
 -1      1950 2.33044E-03-4.34670E-05-8.72834E-15
 -1      1951 2.32395E-03-3.43626E-05-8.43527E-15
 -1      1952 2.72502E-03-3.19198E-04-1.19771E-14
 -1      1953 2.59180E-03-2.24366E-04-1.08410E-14
 -1      1954 2.59066E-03-2.12831E-04-1.05092E-14
 -1      1955 2.99617E-03-5.14065E-04-1.44030E-14
 -1      1956 2.85990E-03-4.15939E-04-1.31647E-14
 -1      1957 2.86292E-03-4.03283E-04-1.27950E-14
 -1      1958 3.27258E-03-7.12454E-04-1.70275E-14
 -1      1959 3.13384E-03-6.13025E-04-1.56912E-14
 -1      1960 3.13995E-03-6.00114E-04-1.52845E-14
 -1      1961 3.55299E-03-9.11503E-04-1.98416E-14
 -1      1962 3.41240E-03-8.12022E-04-1.84110E-14
 -1      1963 3.42070E-03-7.99347E-04-1.79692E-14
 -1      1964 3.83624E-03-1.10962E-03-2.28385E-14
 -1      1965 3.69436E-03-1.01074E-03-2.13175E-14
 -1      1966 3.70410E-03-9.98521E-04-2.08406E-14
 -1      1967 4.12133E-03-1.30613E-03-2.60075E-14
 -1      1968 3.97863E-03-1.20810E-03-2.44023E-14
 -1      1969 3.98925E-03-1.19637E-03-2.38908E-14
 -1      1970 4.40752E-03-1.50093E-03-2.93450E-14
 -1      1971 4.26434E-03-1.40374E-03-2.76555E-14
 -1      1972 4.27544E-03-1.39246E-03-2.71125E-14
 -1      1973 4.69424E-03-1.69423E-03-3.28448E-14
 -1      1974 4.55085E-03-1.59776E-03-3.10753E-14
 -1      1975 4.56216E-03-1.58682E-03-3.04985E-14
 -1      1976 4.98116E-03-1.88638E-03-3.65042E-14
 -1      1977 4.83770E-03-1.79044E-03-3.46548E-14
 -1      1978 4.84907E-03-1.77975E-03-3.40455E-14
 -1      1979 5.26804E-03-2.07771E-03-4.03186E-14
 -1      1980 5.12461E-03-1.98213E-03-3.83928E-14
 -1      1981 5.13597E-03-1.97160E-03-3.77496E-14
 -1      1982 5.55478E-03-2.26852E-03-4.42816E-14
 -1      1983 5.41143E-03-2.17317E-03-4.22819E-14
 -1      1984 5.42275E-03-2.16272E-03-4.16066E-14
 -1      1985 5.84133E-03-2.45905E-03-4.83846E-14
 -1      1986 5.69808E-03-2.36381E-03-4.63161E-14
 -1      1987 5.70935E-03-2.35339E-03-4.56094E-14
 -1      1988 6.12769E-03-2.64946E-03-5.26203E-14
 -1      1989 5.98453E-03-2.55426E-03-5.04860E-14
 -1      1990 5.99577E-03-2.54384E-03-4.97506E-14
 -1      1991 6.41387E-03-2.83986E-03-5.69794E-14
 -1      1992 6.27080E-03-2.74466E-03-5.47836E-14
 -1      1993 6.28202E-03-2.73422E-03-5.40216E-14
 -1      1994 6.69990E-03-3.03033E-03-6.14579E-14
 -1      1995 6.55690E-03-2.93508E-03-5.92048E-14
 -1      1996 6.56811E-03-2.92461E-03-5.84162E-14
 -1      1997 6.98582E-03-3.22088E-03-6.60462E-14
 -1      1998 6.84287E-03-3.12559E-03-6.37396E-14
 -1      1999 6.85409E-03-3.11508E-03-6.29278E-14
 -1      2000 7.27165E-03-3.41154E-03-7.07464E-14
 -1      2001 7.12874E-03-3.31620E-03-6.83828E-14
 -1      2002 7.13997E-03-3.30566E-03-6.75507E-14
 -1      2003 7.55741E-03-3.60231E-03-7.55508E-14
 -1      2004 7.41454E-03-3.50691E-03-7.31349E-14
 -1      2005 7.42578E-03-3.49634E-03-7.22815E-14
 -1      2006 7.84313E-03-3.79317E-03-8.04576E-14
 -1      2007 7.70028E-03-3.69773E-03-7.79909E-14
 -1      2008 7.71154E-03-3.68713E-03-7.71156E-14
 -1      2009 8.12883E-03-3.98411E-03-8.54593E-14
 -1      2010 7.98598E-03-3.88863E-03-8.29479E-14
 -1      2011 7.99726E-03-3.87800E-03-8.20502E-14
 -1      2012 8.41451E-03-4.17512E-03-9.05526E-14
 -1      2013 8.27167E-03-4.07961E-03-8.79954E-14
 -1      2014 8.28296E-03-4.06896E-03-8.70799E-14
 -1      2015 8.70018E-03-4.36618E-03-9.57248E-14
 -1      2016 8.55734E-03-4.27064E-03-9.31273E-14
 -1      2017 8.56865E-03-4.25999E-03-9.21954E-14
 -1      2018 8.98585E-03-4.55729E-03-1.00970E-13
 -1      2019 8.84302E-03-4.46173E-03-9.83393E-14
 -1      2020 8.85434E-03-4.45106E-03-9.73910E-14
 -1      2021 9.27152E-03-4.74843E-03-1.06285E-13
 -1      2022 9.12869E-03-4.65285E-03-1.03619E-13
 -1      2023 9.14002E-03-4.64218E-03-1.02658E-13
 -1      2024 9.55720E-03-4.93959E-03-1.11669E-13
 -1      2025 9.41436E-03-4.84401E-03-1.08968E-13
 -1      2026 9.42570E-03-4.83333E-03-1.07994E-13
 -1      2027 9.84288E-03-5.13077E-03-1.17112E-13
 -1      2028 9.70004E-03-5.03518E-03-1.14383E-13
 -1      2029 9.71139E-03-5.02449E-03-1.13393E-13
 -1      2030 1.01286E-02-5.32197E-03-1.22607E-13
 -1      2031 9.98572E-03-5.22637E-03-1.19855E-13
 -1      2032 9.99708E-03-5.21568E-03-1.18853E-13
 -1      2033 1.04143E-02-5.51317E-03-1.28151E-13
 -1      2034 1.02714E-02-5.41757E-03-1.25372E-13
 -1      2035 1.02828E-02-5.40688E-03-1.24364E-13
 -1      2036 1.07000E-02-5.70438E-03-1.33745E-13
 -1      2037 1.05571E-02-5.60877E-03-1.30941E-13
 -1      2038 1.05685E-02-5.59808E-03-1.29923E-13
 -1      2039 1.09857E-02-5.89559E-03-1.39382E-13
 -1      2040 1.08428E-02-5.79998E-03-1.36559E-13
 -1      2041 1.08542E-02-5.78929E-03-1.35532E-13
 -1      2042 1.12714E-02-6.08680E-03-1.45067E-13
 -1      2043 1.11285E-02-5.99119E-03-1.42219E-13
 -1      2044 1.11399E-02-5.98050E-03-1.41188E-13
 -1      2045 1.15571E-02-6.27801E-03-1.50792E-13
 -1      2046 1.14142E-02-6.18241E-03-1.47923E-13
 -1      2047 1.14256E-02-6.17172E-03-1.46886E-13
 -1      2048 1.18428E-02-6.46923E-03-1.56557E-13
 -1      2049 1.16999E-02-6.37362E-03-1.53671E-13
 -1      2050 1.17113E-02-6.36293E-03-1.52623E-13
 -1      2051 1.21285E-02-6.66044E-03-1.62357E-13
 -1      2052 1.19856E-02-6.56484E-03-1.59450E-13
 -1      2053 1.19970E-02-6.55415E-03-1.58397E-13
 -1      2054 1.24142E-02-6.85165E-03-1.68198E-13
 -1      2055 1.22713E-02-6.75605E-03-1.65275E-13
 -1      2056 1.22827E-02-6.74536E-03-1.64209E-13
 -1      2057 1.26999E-02-7.04287E-03-1.74074E-13
 -1      2058 1.25570E-02-6.94726E-03-1.71131E-13
 -1      2059 1.25684E-02-6.93657E-03-1.70058E-13
 -1      2060 1.29856E-02-7.23408E-03-1.79979E-13
 -1      2061 1.28428E-02-7.13847E-03-1.77025E-13
 -1      2062 1.28541E-02-7.12778E-03-1.75942E-13
 -1      2063 1.32713E-02-7.42529E-03-1.85912E-13
 -1      2064 1.31285E-02-7.32968E-03-1.82944E-13
 -1      2065 1.31398E-02-7.31900E-03-1.81854E-13
 -1      2066 1.35276E-02-7.59817E-03-1.91351E-13
 -1      2067 1.33847E-02-7.50256E-03-1.88372E-13
 -1      2068 1.33961E-02-7.49188E-03-1.87277E-13
 -1      2069 1.36228E-02-7.64642E-03-1.92203E-13
 -1      2070 1.41295E-02-7.87269E-03-1.94504E-13
 -1      2071 1.40355E-02-7.83055E-03-1.94066E-13
 -1      2072 1.39415E-02-7.78840E-03-1.93625E-13
 -1      2073 1.38475E-02-7.74626E-03-1.93189E-13
 -1      2074 1.38648E-02-7.72668E-03-1.91273E-13
 -1      2075 1.37168E-02-7.68857E-03-1.92645E-13
 -1      2076 1.43144E-02-7.95555E-03-1.95362E-13
 -1      2077 1.42219E-02-7.91412E-03-1.94932E-13
 -1      2078 1.40512E-02-7.81026E-03-1.92146E-13
 -1      2079 1.45024E-02-8.03984E-03-1.96231E-13
 -1      2080 1.44084E-02-7.99769E-03-1.95797E-13
 -1      2081 1.42377E-02-7.89383E-03-1.93012E-13
 -1      2082 1.46904E-02-8.12413E-03-1.97099E-13
 -1      2083 1.45964E-02-8.08198E-03-1.96665E-13
 -1      2084 1.44257E-02-7.97812E-03-1.93883E-13
 -1      2085 1.48784E-02-8.20841E-03-1.97966E-13
 -1      2086 1.47844E-02-8.16627E-03-1.97533E-13
 -1      2087 1.46137E-02-8.06240E-03-1.94749E-13
 -1      2088 1.50664E-02-8.29270E-03-1.98821E-13
 -1      2089 1.49724E-02-8.25056E-03-1.98398E-13
 -1      2090 1.48017E-02-8.14669E-03-1.95610E-13
 -1      2091 1.52545E-02-8.37699E-03-1.99648E-13
 -1      2092 1.51605E-02-8.33485E-03-1.99239E-13
 -1      2093 1.49897E-02-8.23098E-03-1.96455E-13
 -1      2094 1.54393E-02-8.45985E-03-2.00433E-13
 -1      2095 1.53469E-02-8.41842E-03-2.00044E-13
 -1      2096 1.51762E-02-8.31455E-03-1.97263E-13
 -1      2097 1.56273E-02-8.54414E-03-2.01210E-13
 -1      2098 1.55333E-02-8.50199E-03-2.00825E-13
 -1      2099 1.53626E-02-8.39813E-03-1.98043E-13
 -1      2100 1.58154E-02-8.62842E-03-2.01955E-13
 -1      2101 1.57213E-02-8.58628E-03-2.01583E-13
 -1      2102 1.55506E-02-8.48242E-03-1.98800E-13
 -1      2103 1.60034E-02-8.71271E-03-2.02680E-13
 -1      2104 1.59094E-02-8.67057E-03-2.02319E-13
 -1      2105 1.57386E-02-8.56670E-03-1.99533E-13
 -1      2106 9.98230E-04 4.63100E-04-1.23133E-15
 -1      2107 8.73017E-04 4.47991E-04-8.91052E-16
 -1      2108 8.52597E-04 4.22310E-04-9.15067E-16
 -1      2109 1.06697E-03 4.35183E-04-1.53706E-15
 -1      2110 4.30754E-03-9.73552E-04-8.72777E-15
 -1      2111 4.50304E-03-1.04856E-03-9.06968E-15
 -1      2112 3.32047E-03-4.98244E-04-6.93038E-15
 -1      2113 3.54729E-03-6.36069E-04-7.47605E-15
 -1      2114 4.97021E-03-1.17047E-03-9.52434E-15
 -1      2115 5.02477E-03-1.18240E-03-9.49513E-15
 -1      2116 8.98902E-05-1.22706E-04-2.24579E-16
 -1      2117 1.06523E-04-9.29037E-05-2.21191E-16
 -1      2118 1.53134E-04-1.24073E-04-3.06599E-16
 -1      2119 2.88504E-03-2.46409E-04-5.88524E-15
 -1      2120 3.07902E-03-3.62506E-04-6.37985E-15
 -1      2121 2.50767E-03-5.50406E-05-4.86346E-15
 -1      2122 2.68527E-03-1.37825E-04-5.33406E-15
 -1      2123 2.14223E-03 5.23394E-05-3.86442E-15
 -1      2124 2.29550E-03 1.79761E-05-4.30569E-15
 -1      2125 1.81120E-03 5.69539E-05-3.00007E-15
 -1      2126 1.97305E-03 6.64752E-05-3.41808E-15
 -1      2127 2.03404E-03 7.19596E-05-3.63888E-15
 -1      2128 1.42217E-03-3.69482E-05-2.17193E-15
 -1      2129 1.59442E-03 1.52713E-05-2.50703E-15
 -1      2130 1.04926E-03-1.54578E-04-1.59769E-15
 -1      2131 1.22077E-03-9.90182E-05-1.83997E-15
 -1      2132 7.19385E-04-2.52906E-04-1.16018E-15
 -1      2133 8.79142E-04-2.07205E-04-1.35616E-15
 -1      2134 4.04189E-04-3.10332E-04-8.78387E-16
 -1      2135 5.32217E-04-2.91475E-04-9.85221E-16
 -1      2136 2.10407E-04-3.23682E-04-7.25850E-16
 -1      2137 2.92227E-04-3.21273E-04-7.88520E-16
 -1      2138 1.11806E-04-3.17041E-04-6.54293E-16
 -1      2139 1.45449E-04-3.23387E-04-6.78340E-16
 -1      2140 1.46094E-04-3.16002E-04-6.73307E-16
 -1      2141 1.11770E-04-3.10749E-04-6.44060E-16
 -1      2142 3.28911E-04-3.92119E-04-8.15198E-16
 -1      2143 2.22373E-04-3.53708E-04-7.47182E-16
 -1      2144 6.65887E-04-5.60877E-04-1.03303E-15
 -1      2145 4.89840E-04-4.67984E-04-9.18014E-16
 -1      2146 1.12245E-03-8.58715E-04-1.35360E-15
 -1      2147 8.98216E-04-7.01301E-04-1.18534E-15
 -1      2148 1.66755E-03-1.26646E-03-1.76467E-15
 -1      2149 1.42601E-03-1.05908E-03-1.54354E-15
 -1      2150 2.13156E-03-1.75103E-03-2.44528E-15
 -1      2151 1.91537E-03-1.53533E-03-2.12910E-15
 -1      2152 2.41229E-03-1.95462E-03-2.71915E-15
 -1      2153 3.01161E-03-2.26787E-03-4.26089E-15
 -1      2154 3.79065E-03-1.86195E-03-6.39975E-15
 -1      2155 3.59183E-03-1.99699E-03-5.90494E-15
 -1      2156 4.24095E-03-1.58491E-03-7.44367E-15
 -1      2157 4.04083E-03-1.70694E-03-6.97817E-15
 -1      2158 4.62556E-03-1.37865E-03-8.38613E-15
 -1      2159 4.44816E-03-1.46909E-03-7.93147E-15
 -1      2160 4.92677E-03-1.25298E-03-9.16124E-15
 -1      2161 4.80710E-03-1.29682E-03-8.86049E-15
 -1      2162 5.04201E-03-1.20367E-03-9.58041E-15
 -1      2163 5.01447E-03-1.21804E-03-9.50287E-15
 -1      2164 4.71598E-03-1.12713E-03-9.51061E-15
 -1      2165 4.85822E-03-1.15644E-03-9.63935E-15
 -1      2166 3.84644E-03-7.93384E-04-8.09582E-15
 -1      2167 4.08508E-03-8.87955E-04-8.40524E-15
 -1      2168 4.16999E-03-9.78169E-04-9.03675E-15
 -1      2169 3.95646E-03-1.75039E-03-7.36940E-15
 -1      2170 1.67267E-04-2.24030E-04-3.11139E-16
 -1      2171 3.13098E-04-2.28228E-04-3.66908E-16
 -1      2172 1.35415E-03-8.31179E-04-1.14723E-15
 -1      2173 3.22274E-03-2.22265E-03-4.90813E-15
 -1      2174 7.80036E-04-2.87950E-04-4.06210E-16
 -1      2175 1.01222E-04-1.77737E-04-2.99355E-16
 -1      2176 3.39809E-03-2.11158E-03-5.35626E-15
 -1      2177 1.62054E-02-8.80157E-03-2.03293E-13
 -1      2178 1.36401E-02-7.62684E-03-1.90286E-13
 -1      2179 4.91970E-03-1.19509E-03-1.01703E-14
 -1      2180 1.61487E-02-8.77843E-03-2.03264E-13
 -1      2181 1.60600E-02-8.73585E-03-2.02715E-13
 -1      2182 1.58893E-02-8.63199E-03-1.99930E-13
 -1      2183 1.60026E-02-8.67827E-03-1.99995E-13
 -1      2184 4.60504E-03-1.13179E-03-9.82055E-15
 -1      2185 3.66540E-03-7.43970E-04-8.06008E-15
 -1      2186 3.78142E-03-8.40120E-04-8.66310E-15
 -1      2187 3.50228E-03-6.88900E-04-8.02072E-15
 -1      2188 3.14860E-03-4.46573E-04-6.87075E-15
 -1      2189 5.04390E-03-1.21247E-03-1.01450E-14
 -1      2190 4.98442E-03-1.23552E-03-9.87969E-15
 -1      2191 4.71825E-03-1.32692E-03-9.04208E-15
 -1      2192 1.84991E-03-1.37296E-03-1.81924E-15
 -1      2193 1.33274E-03-9.07878E-04-1.32155E-15
 -1      2194 8.14611E-04-5.74091E-04-1.01372E-15
 -1      2195 4.25231E-04-3.75906E-04-7.85745E-16
 -1      2196 1.89806E-04-2.85289E-04-6.26869E-16
 -1      2197 1.09362E-04-2.86120E-04-5.72810E-16
 -1      2198 1.75099E-04-3.14274E-04-6.26721E-16
 -1      2199 3.45330E-04-3.17437E-04-7.50044E-16
 -1      2200 6.26984E-04-2.75946E-04-9.87532E-16
 -1      2201 9.64271E-04-1.84228E-04-1.37241E-15
 -1      2202 1.69692E-03 4.80992E-05-2.70695E-15
 -1      2203 1.77109E-03 7.17249E-05-2.90656E-15
 -1      2204 1.58914E-03 3.10849E-05-2.43224E-15
 -1      2205 2.36621E-03-1.10931E-05-4.63445E-15
 -1      2206 2.74297E-03-1.98174E-04-5.75356E-15
 -1      2207 7.45978E-04-3.09653E-04-5.21637E-16
 -1      2208 1.31366E-03-6.63360E-05-1.91465E-15
 -1      2209 2.35874E-03-1.85155E-03-2.43832E-15
 -1      2210 4.33567E-03-1.51278E-03-8.05274E-15
 -1      2211 2.11336E-03-1.57850E-03-1.99653E-15
 -1      2212 4.34849E-04-2.45066E-04-5.10388E-16
 -1      2213 3.30279E-04-2.65674E-04-4.64113E-16
 -1      2214 6.00780E-04-1.54682E-04-5.83653E-16
 -1      2215 5.39870E-04-2.02346E-04-5.62227E-16
 -1      2216 6.59719E-04 9.35242E-05-6.61282E-16
 -1      2217 6.73238E-04 6.31568E-05-6.63071E-16
 -1      2218 6.26713E-04 1.45932E-04-6.44829E-16
 -1      2219 6.43379E-04 1.20843E-04-6.54845E-16
 -1      2220 7.94492E-04 1.27436E-04-9.03303E-16
 -1      2221 5.93891E-04 1.91443E-04-6.10338E-16
 -1      2222 6.09824E-04 1.69135E-04-6.30274E-16
 -1      2223 7.52545E-04 1.80760E-04-8.76564E-16
 -1      2224 5.66179E-04 2.35912E-04-5.52875E-16
 -1      2225 5.79075E-04 2.13493E-04-5.85035E-16
 -1      2226 7.13630E-04 2.30260E-04-8.26121E-16
 -1      2227 5.49388E-04 2.85459E-04-4.64540E-16
 -1      2228 5.55993E-04 2.59774E-04-5.13641E-16
 -1      2229 6.82779E-04 2.81594E-04-7.46161E-16
 -1      2230 5.88626E-04 3.34740E-04-4.49890E-16
 -1      2231 5.67697E-04 3.08235E-04-4.61504E-16
 -1      2232 6.88067E-04 3.31526E-04-6.93984E-16
 -1      2233 7.24181E-04 3.78249E-04-6.82058E-16
 -1      2234 1.20545E-03-9.47041E-05-1.65747E-15
 -1      2235 1.37242E-03-3.23103E-05-1.95921E-15
 -1      2236 4.46988E-03-1.13529E-03-1.02106E-14
 -1      2237 4.67598E-03-1.19472E-03-1.06749E-14
 -1      2238 1.35267E-02-7.54957E-03-1.87826E-13
 -1      2239 4.82352E-03-1.38663E-03-1.15294E-14
 -1      2240 4.98613E-03-1.40610E-03-1.28375E-14
 -1      2241 5.13935E-03-1.45234E-03-1.41880E-14
 -1      2242 5.28874E-03-1.51569E-03-1.55779E-14
 -1      2243 5.10296E-03-1.39297E-03-1.35229E-14
 -1      2244 5.43509E-03-1.59184E-03-1.70095E-14
 -1      2245 5.58164E-03-1.67707E-03-1.84789E-14
 -1      2246 5.36382E-03-1.52584E-03-1.62970E-14
 -1      2247 5.72723E-03-1.76801E-03-1.99888E-14
 -1      2248 5.87377E-03-1.86335E-03-2.15359E-14
 -1      2249 5.62944E-03-1.69564E-03-1.92282E-14
 -1      2250 6.01976E-03-1.96095E-03-2.31231E-14
 -1      2251 6.16642E-03-2.06033E-03-2.47511E-14
 -1      2252 5.90346E-03-1.88379E-03-2.23149E-14
 -1      2253 6.31255E-03-2.16034E-03-2.64182E-14
 -1      2254 6.45894E-03-2.26081E-03-2.81243E-14
 -1      2255 6.18406E-03-2.08023E-03-2.55599E-14
 -1      2256 6.60481E-03-2.36122E-03-2.98682E-14
 -1      2257 6.75069E-03-2.46150E-03-3.16488E-14
 -1      2258 6.46860E-03-2.27951E-03-2.89620E-14
 -1      2259 6.89609E-03-2.56148E-03-3.34690E-14
 -1      2260 7.04136E-03-2.66112E-03-3.53263E-14
 -1      2261 6.75513E-03-2.47902E-03-3.25159E-14
 -1      2262 7.18625E-03-2.76039E-03-3.72180E-14
 -1      2263 7.33097E-03-2.85929E-03-3.91465E-14
 -1      2264 7.04242E-03-2.67766E-03-3.62179E-14
 -1      2265 7.47537E-03-2.95785E-03-4.11105E-14
 -1      2266 7.61962E-03-3.05608E-03-4.31094E-14
 -1      2267 7.32985E-03-2.87509E-03-4.00650E-14
 -1      2268 7.76362E-03-3.15402E-03-4.51452E-14
 -1      2269 7.90749E-03-3.25167E-03-4.72161E-14
 -1      2270 7.61712E-03-3.07133E-03-4.40547E-14
 -1      2271 8.05118E-03-3.34909E-03-4.93212E-14
 -1      2272 8.19475E-03-3.44629E-03-5.14618E-14
 -1      2273 7.90412E-03-3.26652E-03-4.81845E-14
 -1      2274 8.33819E-03-3.54330E-03-5.36375E-14
 -1      2275 8.48155E-03-3.64013E-03-5.58470E-14
 -1      2276 8.19084E-03-3.46085E-03-5.24536E-14
 -1      2277 8.62481E-03-3.73682E-03-5.80873E-14
 -1      2278 8.76801E-03-3.83336E-03-6.03592E-14
 -1      2279 8.47730E-03-3.65448E-03-5.68598E-14
 -1      2280 8.91114E-03-3.92979E-03-6.26631E-14
 -1      2281 9.05422E-03-4.02612E-03-6.49985E-14
 -1      2282 8.76356E-03-3.84755E-03-6.13913E-14
 -1      2283 9.19726E-03-4.12236E-03-6.73628E-14
 -1      2284 9.34026E-03-4.21851E-03-6.97528E-14
 -1      2285 9.04965E-03-4.04020E-03-6.60473E-14
 -1      2286 9.48323E-03-4.31459E-03-7.21697E-14
 -1      2287 9.62617E-03-4.41061E-03-7.46142E-14
 -1      2288 9.33562E-03-4.23250E-03-7.08184E-14
 -1      2289 9.76909E-03-4.50658E-03-7.70814E-14
 -1      2290 9.91200E-03-4.60249E-03-7.95690E-14
 -1      2291 9.62150E-03-4.42454E-03-7.56931E-14
 -1      2292 1.00549E-02-4.69837E-03-8.20806E-14
 -1      2293 1.01978E-02-4.79420E-03-8.46155E-14
 -1      2294 9.90731E-03-4.61637E-03-8.06629E-14
 -1      2295 1.03406E-02-4.89001E-03-8.71728E-14
 -1      2296 1.04835E-02-4.98578E-03-8.97505E-14
 -1      2297 1.01931E-02-4.80804E-03-8.57217E-14
 -1      2298 1.06264E-02-5.08153E-03-9.23472E-14
 -1      2299 1.07692E-02-5.17726E-03-9.49697E-14
 -1      2300 1.04788E-02-4.99959E-03-9.08683E-14
 -1      2301 1.09121E-02-5.27297E-03-9.76123E-14
 -1      2302 1.10549E-02-5.36866E-03-1.00273E-13
 -1      2303 1.07645E-02-5.19105E-03-9.60977E-14
 -1      2304 1.11978E-02-5.46434E-03-1.02955E-13
 -1      2305 1.13406E-02-5.56001E-03-1.05658E-13
 -1      2306 1.10502E-02-5.38243E-03-1.01412E-13
 -1      2307 1.14834E-02-5.65566E-03-1.08381E-13
 -1      2308 1.16263E-02-5.75131E-03-1.11123E-13
 -1      2309 1.13359E-02-5.57376E-03-1.06805E-13
 -1      2310 1.17691E-02-5.84694E-03-1.13883E-13
 -1      2311 1.19120E-02-5.94258E-03-1.16660E-13
 -1      2312 1.16216E-02-5.76505E-03-1.12277E-13
 -1      2313 1.20548E-02-6.03820E-03-1.19456E-13
 -1      2314 1.21977E-02-6.13382E-03-1.22266E-13
 -1      2315 1.19073E-02-5.95631E-03-1.17822E-13
 -1      2316 1.23405E-02-6.22944E-03-1.25095E-13
 -1      2317 1.24834E-02-6.32505E-03-1.27938E-13
 -1      2318 1.21930E-02-6.14756E-03-1.23438E-13
 -1      2319 1.26262E-02-6.42066E-03-1.30792E-13
 -1      2320 1.27690E-02-6.51627E-03-1.33661E-13
 -1      2321 1.24787E-02-6.33878E-03-1.29113E-13
 -1      2322 1.29119E-02-6.61188E-03-1.36538E-13
 -1      2323 1.30547E-02-6.70748E-03-1.39429E-13
 -1      2324 1.27644E-02-6.53000E-03-1.34840E-13
 -1      2325 1.31976E-02-6.80309E-03-1.42327E-13
 -1      2326 1.33404E-02-6.89869E-03-1.45228E-13
 -1      2327 1.30501E-02-6.72121E-03-1.40608E-13
 -1      2328 1.34833E-02-6.99429E-03-1.48137E-13
 -1      2329 1.36262E-02-7.08990E-03-1.51052E-13
 -1      2330 1.33358E-02-6.91242E-03-1.46413E-13
 -1      2331 1.37690E-02-7.18550E-03-1.53968E-13
 -1      2332 1.39119E-02-7.28110E-03-1.56885E-13
 -1      2333 1.36216E-02-7.10362E-03-1.52233E-13
 -1      2334 1.40547E-02-7.37670E-03-1.59802E-13
 -1      2335 1.41976E-02-7.47230E-03-1.62724E-13
 -1      2336 1.39073E-02-7.29482E-03-1.58065E-13
 -1      2337 1.43404E-02-7.56790E-03-1.65650E-13
 -1      2338 1.44833E-02-7.66351E-03-1.68578E-13
 -1      2339 1.41930E-02-7.48603E-03-1.63908E-13
 -1      2340 1.46261E-02-7.75911E-03-1.71510E-13
 -1      2341 1.47690E-02-7.85471E-03-1.74451E-13
 -1      2342 1.44787E-02-7.67723E-03-1.69767E-13
 -1      2343 1.49118E-02-7.95031E-03-1.77399E-13
 -1      2344 1.50547E-02-8.04591E-03-1.80353E-13
 -1      2345 1.47644E-02-7.86843E-03-1.75647E-13
 -1      2346 1.51976E-02-8.14152E-03-1.83315E-13
 -1      2347 1.53404E-02-8.23712E-03-1.86285E-13
 -1      2348 1.50501E-02-8.05964E-03-1.81557E-13
 -1      2349 1.54833E-02-8.33272E-03-1.89262E-13
 -1      2350 1.56261E-02-8.42833E-03-1.92248E-13
 -1      2351 1.53358E-02-8.25084E-03-1.87494E-13
 -1      2352 1.57429E-02-8.50550E-03-1.94617E-13
 -1      2353 1.58858E-02-8.60110E-03-1.97617E-13
 -1      2354 1.58291E-02-8.57796E-03-1.97587E-13
 -1      2355 1.55955E-02-8.42362E-03-1.92843E-13
 -1      2356 1.91179E-03 1.95664E-04-5.49948E-15
 -1      2357 1.78018E-03 2.54808E-04-4.73479E-15
 -1      2358 1.64921E-03 3.04823E-04-4.02848E-15
 -1      2359 1.51824E-03 3.45098E-04-3.38071E-15
 -1      2360 1.74893E-03 2.49622E-04-4.50845E-15
 -1      2361 1.38724E-03 3.74747E-04-2.79197E-15
 -1      2362 1.25544E-03 3.93496E-04-2.26211E-15
 -1      2363 1.47864E-03 3.30758E-04-3.19421E-15
 -1      2364 2.17744E-03 5.39519E-05-7.20062E-15
 -1      2365 2.04408E-03 1.28436E-04-6.32133E-15
 -1      2366 2.02036E-03 1.30182E-04-6.05546E-15
 -1      2367 2.44760E-03-1.12513E-04-9.12698E-15
 -1      2368 2.31191E-03-2.66659E-05-8.13627E-15
 -1      2369 2.29501E-03-2.02611E-05-7.83085E-15
 -1      2370 2.72256E-03-2.95886E-04-1.12697E-14
 -1      2371 2.58452E-03-2.02527E-04-1.01718E-14
 -1      2372 2.57380E-03-1.93384E-04-9.82855E-15
 -1      2373 3.00179E-03-4.89324E-04-1.36214E-14
 -1      2374 2.86174E-03-3.91698E-04-1.24198E-14
 -1      2375 2.85653E-03-3.81188E-04-1.20398E-14
 -1      2376 3.28433E-03-6.87603E-04-1.61739E-14
 -1      2377 3.14276E-03-5.88104E-04-1.48732E-14
 -1      2378 3.14227E-03-5.77067E-04-1.44570E-14
 -1      2379 3.56914E-03-8.87215E-04-1.89184E-14
 -1      2380 3.42656E-03-7.87392E-04-1.75228E-14
 -1      2381 3.42990E-03-7.76270E-04-1.70719E-14
 -1      2382 3.85535E-03-1.08614E-03-2.18459E-14
 -1      2383 3.71216E-03-9.86840E-04-2.03592E-14
 -1      2384 3.71842E-03-9.75829E-04-1.98746E-14
 -1      2385 4.14229E-03-1.28346E-03-2.49501E-14
 -1      2386 3.99880E-03-1.18503E-03-2.33768E-14
 -1      2387 4.00715E-03-1.17418E-03-2.28585E-14
 -1      2388 4.42952E-03-1.47894E-03-2.82216E-14
 -1      2389 4.28591E-03-1.38142E-03-2.65651E-14
 -1      2390 4.29567E-03-1.37074E-03-2.60149E-14
 -1      2391 4.71676E-03-1.67275E-03-3.16571E-14
 -1      2392 4.57316E-03-1.57604E-03-2.99190E-14
 -1      2393 4.58379E-03-1.56548E-03-2.93367E-14
 -1      2394 5.00386E-03-1.86524E-03-3.52499E-14
 -1      2395 4.86034E-03-1.76914E-03-3.34338E-14
 -1      2396 4.87146E-03-1.75867E-03-3.28199E-14
 -1      2397 5.29077E-03-2.05677E-03-3.89993E-14
 -1      2398 5.14735E-03-1.96110E-03-3.71055E-14
 -1      2399 5.15870E-03-1.95068E-03-3.64593E-14
 -1      2400 5.57746E-03-2.24767E-03-4.28980E-14
 -1      2401 5.43414E-03-2.15228E-03-4.09304E-14
 -1      2402 5.44559E-03-2.14188E-03-4.02526E-14
 -1      2403 5.86394E-03-2.43822E-03-4.69415E-14
 -1      2404 5.72072E-03-2.34298E-03-4.49025E-14
 -1      2405 5.73217E-03-2.33258E-03-4.41944E-14
 -1      2406 6.15023E-03-2.62860E-03-5.11213E-14
 -1      2407 6.00710E-03-2.53342E-03-4.90140E-14
 -1      2408 6.01852E-03-2.52300E-03-4.82767E-14
 -1      2409 6.43637E-03-2.81895E-03-5.54264E-14
 -1      2410 6.29332E-03-2.72377E-03-5.32578E-14
 -1      2411 6.30470E-03-2.71332E-03-5.24927E-14
 -1      2412 6.72238E-03-3.00934E-03-5.98568E-14
 -1      2413 6.57939E-03-2.91414E-03-5.76271E-14
 -1      2414 6.59073E-03-2.90365E-03-5.68359E-14
 -1      2415 7.00830E-03-3.19983E-03-6.44012E-14
 -1      2416 6.86535E-03-3.10457E-03-6.21157E-14
 -1      2417 6.87667E-03-3.09406E-03-6.13005E-14
 -1      2418 7.29414E-03-3.39043E-03-6.90577E-14
 -1      2419 7.15123E-03-3.29511E-03-6.67155E-14
 -1      2420 7.16253E-03-3.28457E-03-6.58791E-14
 -1      2421 7.57993E-03-3.58113E-03-7.38181E-14
 -1      2422 7.43704E-03-3.48577E-03-7.14242E-14
 -1      2423 7.44833E-03-3.47519E-03-7.05658E-14
 -1      2424 7.86568E-03-3.77194E-03-7.86824E-14
 -1      2425 7.72281E-03-3.67653E-03-7.62388E-14
 -1      2426 7.73410E-03-3.66592E-03-7.53571E-14
 -1      2427 8.15140E-03-3.96284E-03-8.36455E-14
 -1      2428 8.00854E-03-3.86738E-03-8.11515E-14
 -1      2429 8.01984E-03-3.85676E-03-8.02509E-14
 -1      2430 8.43711E-03-4.15382E-03-8.87008E-14
 -1      2431 8.29426E-03-4.05832E-03-8.61628E-14
 -1      2432 8.30556E-03-4.04768E-03-8.52419E-14
 -1      2433 8.72281E-03-4.34486E-03-9.38407E-14
 -1      2434 8.57996E-03-4.24933E-03-9.12615E-14
 -1      2435 8.59127E-03-4.23868E-03-9.03233E-14
 -1      2436 9.00850E-03-4.53595E-03-9.90585E-14
 -1      2437 8.86566E-03-4.44040E-03-9.64388E-14
 -1      2438 8.87697E-03-4.42973E-03-9.54877E-14
 -1      2439 9.29419E-03-4.72707E-03-1.04348E-13
 -1      2440 9.15135E-03-4.63151E-03-1.01696E-13
 -1      2441 9.16267E-03-4.62083E-03-1.00728E-13
 -1      2442 9.57988E-03-4.91823E-03-1.09703E-13
 -1      2443 9.43704E-03-4.82265E-03-1.07018E-13
 -1      2444 9.44837E-03-4.81197E-03-1.06039E-13
 -1      2445 9.86558E-03-5.10940E-03-1.15120E-13
 -1      2446 9.72273E-03-5.01381E-03-1.12404E-13
 -1      2447 9.73407E-03-5.00313E-03-1.11413E-13
 -1      2448 1.01513E-02-5.30059E-03-1.20596E-13
 -1      2449 1.00084E-02-5.20499E-03-1.17852E-13
 -1      2450 1.00198E-02-5.19431E-03-1.16850E-13
 -1      2451 1.04370E-02-5.49179E-03-1.26122E-13
 -1      2452 1.02941E-02-5.39619E-03-1.23353E-13
 -1      2453 1.03055E-02-5.38550E-03-1.22341E-13
 -1      2454 1.07227E-02-5.68300E-03-1.31699E-13
 -1      2455 1.05798E-02-5.58739E-03-1.28904E-13
 -1      2456 1.05912E-02-5.57670E-03-1.27883E-13
 -1      2457 1.10084E-02-5.87421E-03-1.37323E-13
 -1      2458 1.08655E-02-5.77860E-03-1.34506E-13
 -1      2459 1.08769E-02-5.76791E-03-1.33476E-13
 -1      2460 1.12941E-02-6.06542E-03-1.42996E-13
 -1      2461 1.11512E-02-5.96981E-03-1.40155E-13
 -1      2462 1.11626E-02-5.95912E-03-1.39117E-13
 -1      2463 1.15798E-02-6.25663E-03-1.48706E-13
 -1      2464 1.14369E-02-6.16103E-03-1.45845E-13
 -1      2465 1.14483E-02-6.15034E-03-1.44804E-13
 -1      2466 1.18655E-02-6.44785E-03-1.54458E-13
 -1      2467 1.17226E-02-6.35224E-03-1.51578E-13
 -1      2468 1.17340E-02-6.34155E-03-1.50529E-13
 -1      2469 1.21512E-02-6.63906E-03-1.60243E-13
 -1      2470 1.20084E-02-6.54346E-03-1.57348E-13
 -1      2471 1.20197E-02-6.53277E-03-1.56295E-13
 -1      2472 1.24369E-02-6.83028E-03-1.66065E-13
 -1      2473 1.22941E-02-6.73467E-03-1.63147E-13
 -1      2474 1.23054E-02-6.72398E-03-1.62091E-13
 -1      2475 1.27226E-02-7.02149E-03-1.71923E-13
 -1      2476 1.25798E-02-6.92588E-03-1.68990E-13
 -1      2477 1.25911E-02-6.91519E-03-1.67920E-13
 -1      2478 1.30083E-02-7.21270E-03-1.77809E-13
 -1      2479 1.28655E-02-7.11710E-03-1.74861E-13
 -1      2480 1.28769E-02-7.10641E-03-1.73784E-13
 -1      2481 1.32941E-02-7.40391E-03-1.83727E-13
 -1      2482 1.31512E-02-7.30831E-03-1.80766E-13
 -1      2483 1.31626E-02-7.29762E-03-1.79679E-13
 -1      2484 1.41609E-02-7.83211E-03-1.90665E-13
 -1      2485 1.40669E-02-7.78996E-03-1.90227E-13
 -1      2486 1.39745E-02-7.74853E-03-1.89797E-13
 -1      2487 1.38821E-02-7.70710E-03-1.89364E-13
 -1      2488 1.38978E-02-7.68681E-03-1.87453E-13
 -1      2489 1.37881E-02-7.66496E-03-1.88923E-13
 -1      2490 1.36941E-02-7.62282E-03-1.88480E-13
 -1      2491 1.37114E-02-7.60324E-03-1.86578E-13
 -1      2492 4.88858E-03-1.22995E-03-1.08759E-14
 -1      2493 4.98695E-03-1.22862E-03-1.07692E-14
 -1      2494 1.43490E-02-7.91639E-03-1.91535E-13
 -1      2495 1.42550E-02-7.87425E-03-1.91100E-13
 -1      2496 1.40842E-02-7.77038E-03-1.88321E-13
 -1      2497 1.45370E-02-8.00068E-03-1.92397E-13
 -1      2498 1.44430E-02-7.95854E-03-1.91966E-13
 -1      2499 1.42723E-02-7.85467E-03-1.89190E-13
 -1      2500 1.47250E-02-8.08497E-03-1.93252E-13
 -1      2501 1.46310E-02-8.04283E-03-1.92826E-13
 -1      2502 1.44603E-02-7.93896E-03-1.90048E-13
 -1      2503 1.49130E-02-8.16926E-03-1.94084E-13
 -1      2504 1.48190E-02-8.12712E-03-1.93671E-13
 -1      2505 1.46483E-02-8.02325E-03-1.90891E-13
 -1      2506 1.50979E-02-8.25212E-03-1.94869E-13
 -1      2507 1.50054E-02-8.21069E-03-1.94481E-13
 -1      2508 1.48347E-02-8.10682E-03-1.91702E-13
 -1      2509 1.52859E-02-8.33641E-03-1.95642E-13
 -1      2510 1.51919E-02-8.29426E-03-1.95259E-13
 -1      2511 1.50212E-02-8.19040E-03-1.92482E-13
 -1      2512 1.54739E-02-8.42069E-03-1.96390E-13
 -1      2513 1.53799E-02-8.37855E-03-1.96022E-13
 -1      2514 1.52092E-02-8.27469E-03-1.93243E-13
 -1      2515 1.56619E-02-8.50498E-03-1.97112E-13
 -1      2516 1.55679E-02-8.46284E-03-1.96751E-13
 -1      2517 1.53972E-02-8.35897E-03-1.93979E-13
 -1      2518 3.00781E-03-4.02929E-04-6.88844E-15
 -1      2519 3.21760E-03-5.36070E-04-7.45913E-15
 -1      2520 5.03048E-03-1.24152E-03-1.06328E-14
 -1      2521 4.94735E-03-1.25441E-03-1.02767E-14
 -1      2522 2.26143E-03 1.93173E-05-4.47618E-15
 -1      2523 2.43278E-03-5.40939E-05-5.03888E-15
 -1      2524 2.29579E-04-2.63269E-04-4.07951E-16
 -1      2525 1.59963E-04-2.49421E-04-3.82290E-16
 -1      2526 6.83917E-04 2.86001E-05-6.61350E-16
 -1      2527 6.87158E-04-1.08358E-05-6.55414E-16
 -1      2528 8.31416E-04 6.38090E-05-9.08846E-16
 -1      2529 6.81395E-04-5.50771E-05-6.45859E-16
 -1      2530 6.60330E-04-1.03156E-04-6.31738E-16
 -1      2531 8.45367E-04-1.74525E-05-8.92922E-16
 -1      2532 1.09439E-03-6.51227E-04-1.00483E-15
 -1      2533 5.04253E-03-1.23598E-03-1.08533E-14
 -1      2534 5.06340E-03-1.23875E-03-1.09395E-14
 -1      2535 5.03435E-03-1.26349E-03-1.15688E-14
 -1      2536 4.99859E-04-1.98103E-04-4.37123E-16
 -1      2537 7.91367E-04-4.22213E-04-7.37840E-16
 -1      2538 2.60460E-03-1.47675E-04-5.62487E-15
 -1      2539 2.77133E-03-2.55128E-04-6.18486E-15
 -1      2540 1.94645E-03 8.30846E-05-3.43749E-15
 -1      2541 2.07994E-03 6.87151E-05-3.87638E-15
 -1      2542 8.91482E-04-1.98841E-04-1.18469E-15
 -1      2543 1.04280E-03-1.49833E-04-1.40084E-15
 -1      2544 4.63560E-04-2.97868E-04-7.29810E-16
 -1      2545 6.16507E-04-2.69402E-04-8.65071E-16
 -1      2546 1.67179E-04-2.95047E-04-5.37459E-16
 -1      2547 2.32878E-04-3.07654E-04-5.78524E-16
 -1      2548 2.49742E-04-2.52048E-04-5.77961E-16
 -1      2549 1.69717E-04-2.33415E-04-5.17730E-16
 -1      2550 5.60387E-04-3.65696E-04-7.44820E-16
 -1      2551 3.98707E-04-3.03070E-04-6.63437E-16
 -1      2552 8.66176E-04-5.14185E-04-8.82202E-16
 -1      2553 3.90445E-03-1.78039E-03-6.95085E-15
 -1      2554 4.80772E-03-1.29745E-03-9.87811E-15
 -1      2555 4.63967E-03-1.35957E-03-9.37795E-15
 -1      2556 4.05883E-03-9.79587E-04-9.37159E-15
 -1      2557 4.26301E-03-1.05740E-03-9.71697E-15
 -1      2558 1.35381E-02-7.53888E-03-1.86729E-13
 -1      2559 5.86255E-04-2.35094E-04-6.91138E-16
 -1      2560 7.78952E-04-1.23014E-04-8.17868E-16
 -1      2561 1.10551E-03-1.10853E-04-1.43826E-15
 -1      2562 8.34519E-04 3.99335E-04-9.27494E-16
 -1      2563 8.17984E-04 3.76535E-04-9.34501E-16
 -1      2564 9.44906E-04 4.11470E-04-1.21528E-15
 -1      2565 4.37081E-03-1.13120E-03-1.05520E-14
 -1      2566 4.69250E-03-1.24307E-03-1.16635E-14
 -1      2567 4.79442E-03-1.23951E-03-1.12705E-14
 -1      2568 4.89269E-03-1.27197E-03-1.18792E-14
 -1      2569 4.16710E-03-1.60756E-03-7.99483E-15
 -1      2570 1.19465E-04-2.32037E-04-3.82019E-16
 -1      2571 1.07939E-04-2.09582E-04-3.90757E-16
 -1      2572 4.69024E-03-1.38941E-03-1.05454E-14
 -1      2573 4.86264E-03-1.33276E-03-1.11938E-14
 -1      2574 1.34614E-02-7.47716E-03-1.84386E-13
 -1      2575 4.35606E-03-1.49715E-03-8.50764E-15
 -1      2576 3.21625E-03-5.80543E-04-8.03260E-15
 -1      2577 3.34586E-03-6.34573E-04-8.02947E-15
 -1      2578 3.47272E-03-7.26977E-04-8.61855E-15
 -1      2579 2.86178E-03-3.37199E-04-6.73441E-15
 -1      2580 1.15468E-03 4.07435E-04-1.88638E-15
 -1      2581 1.04391E-03 4.11321E-04-1.51805E-15
 -1      2582 1.03226E-03 3.90997E-04-1.51948E-15
 -1      2583 1.23843E-03 3.73512E-04-2.22237E-15
 -1      2584 4.89900E-03-1.28687E-03-1.06259E-14
 -1      2585 1.50370E-04-1.68179E-04-3.83462E-16
 -1      2586 2.22758E-04-1.49386E-04-3.82500E-16
 -1      2587 3.75232E-03-8.73758E-04-9.26329E-15
 -1      2588 3.90076E-03-9.29332E-04-9.31773E-15
 -1      2589 4.01521E-03-1.00442E-03-9.99121E-15
 -1      2590 2.48499E-03-1.02123E-04-5.43841E-15
 -1      2591 3.41464E-04-2.33075E-04-5.42196E-16
 -1      2592 1.83197E-03 8.59786E-05-3.12001E-15
 -1      2593 1.87809E-03 9.09712E-05-3.33414E-15
 -1      2594 1.72300E-03 8.04648E-05-2.81993E-15
 -1      2595 1.46409E-03 8.28098E-06-2.12935E-15
 -1      2596 1.53514E-03 4.28153E-05-2.30171E-15
 -1      2597 1.34130E-03-1.51408E-05-1.84974E-15
 -1      2598 3.24367E-04-2.91139E-04-5.52808E-16
 -1      2599 4.49901E-03-1.43987E-03-9.31819E-15
 -1      2600 3.43688E-04-1.78085E-04-4.43730E-16
 -1      2601 2.15737E-03 4.45531E-05-4.24151E-15
 -1      2602 5.06769E-03-1.25722E-03-1.13461E-14
 -1      2603 3.20262E-04-3.11198E-04-6.45046E-16
 -1      2604 1.23902E-04-2.05581E-04-4.27342E-16
 -1      2605 1.10586E-04-2.61577E-04-5.21184E-16
 -1      2606 1.19602E-04-2.84437E-04-5.34513E-16
 -1      2607 1.57725E-02-8.55482E-03-1.97551E-13
 -1      2608 1.56018E-02-8.45095E-03-1.94777E-13
 -1      2609 9.25142E-04 1.59624E-04-1.18636E-15
 -1      2610 9.50060E-04 1.30911E-04-1.19657E-15
 -1      2611 8.02597E-04 3.54391E-04-9.35883E-16
 -1      2612 7.88522E-04 3.32815E-04-9.32563E-16
 -1      2613 9.17543E-04 3.68872E-04-1.21921E-15
 -1      2614 1.52399E-04-2.76947E-04-4.83832E-16
 -1      2615 9.15253E-04-1.14397E-04-1.04216E-15
 -1      2616 8.24737E-04-1.75447E-04-9.66404E-16
 -1      2617 4.98387E-03-1.30296E-03-1.16145E-14
 -1      2618 1.34745E-02-7.46549E-03-1.83179E-13
 -1      2619 1.33185E-02-7.38155E-03-1.81429E-13
 -1      2620 1.31757E-02-7.28595E-03-1.78476E-13
 -1      2621 5.30334E-03-1.46817E-03-1.55920E-14
 -1      2622 5.41962E-03-1.54649E-03-1.70147E-14
 -1      2623 5.53950E-03-1.63025E-03-1.84752E-14
 -1      2624 5.66469E-03-1.71964E-03-1.99746E-14
 -1      2625 5.45634E-03-1.57173E-03-1.77295E-14
 -1      2626 5.79313E-03-1.81189E-03-2.15139E-14
 -1      2627 5.92546E-03-1.90719E-03-2.30910E-14
 -1      2628 5.68815E-03-1.74549E-03-2.07189E-14
 -1      2629 6.06005E-03-2.00379E-03-2.47082E-14
 -1      2630 6.19717E-03-2.10181E-03-2.63655E-14
 -1      2631 5.94018E-03-1.93134E-03-2.38651E-14
 -1      2632 6.33566E-03-2.20026E-03-2.80630E-14
 -1      2633 6.47569E-03-2.29921E-03-2.97976E-14
 -1      2634 6.20584E-03-2.12373E-03-2.71703E-14
 -1      2635 6.61648E-03-2.39815E-03-3.15689E-14
 -1      2636 6.75815E-03-2.49713E-03-3.33785E-14
 -1      2637 6.48012E-03-2.31907E-03-3.06290E-14
 -1      2638 6.90021E-03-2.59592E-03-3.52242E-14
 -1      2639 7.04274E-03-2.69455E-03-3.71076E-14
 -1      2640 6.75962E-03-2.51535E-03-3.42372E-14
 -1      2641 7.18544E-03-2.79294E-03-3.90256E-14
 -1      2642 7.32837E-03-2.89110E-03-4.09798E-14
 -1      2643 7.04215E-03-2.71153E-03-3.79933E-14
 -1      2644 7.47137E-03-2.98901E-03-4.29699E-14
 -1      2645 7.61447E-03-3.08670E-03-4.49962E-14
 -1      2646 7.32639E-03-2.90716E-03-4.18920E-14
 -1      2647 7.75757E-03-3.18417E-03-4.70557E-14
 -1      2648 7.90070E-03-3.28144E-03-4.91496E-14
 -1      2649 7.61154E-03-3.10212E-03-4.59331E-14
 -1      2650 8.04381E-03-3.37853E-03-5.12789E-14
 -1      2651 8.18692E-03-3.47545E-03-5.34430E-14
 -1      2652 7.89714E-03-3.29639E-03-5.01118E-14
 -1      2653 8.33001E-03-3.57222E-03-5.56402E-14
 -1      2654 8.47308E-03-3.66885E-03-5.78684E-14
 -1      2655 8.18295E-03-3.49007E-03-5.44277E-14
 -1      2656 8.61611E-03-3.76536E-03-6.01280E-14
 -1      2657 8.75914E-03-3.86176E-03-6.24197E-14
 -1      2658 8.46883E-03-3.68323E-03-5.88732E-14
 -1      2659 8.90213E-03-3.95806E-03-6.47416E-14
 -1      2660 9.04511E-03-4.05428E-03-6.70942E-14
 -1      2661 8.75472E-03-3.87597E-03-6.34443E-14
 -1      2662 9.18807E-03-4.15042E-03-6.94740E-14
 -1      2663 9.33101E-03-4.24649E-03-7.18801E-14
 -1      2664 9.04059E-03-4.06836E-03-6.81362E-14
 -1      2665 9.47394E-03-4.34250E-03-7.43119E-14
 -1      2666 9.61685E-03-4.43846E-03-7.67689E-14
 -1      2667 9.32642E-03-4.26048E-03-7.29390E-14
 -1      2668 9.75976E-03-4.53437E-03-7.92488E-14
 -1      2669 9.90265E-03-4.63024E-03-8.17512E-14
 -1      2670 9.61223E-03-4.45238E-03-7.78397E-14
 -1      2671 1.00455E-02-4.72607E-03-8.42762E-14
 -1      2672 1.01884E-02-4.82187E-03-8.68241E-14
 -1      2673 9.89800E-03-4.64411E-03-8.28363E-14
 -1      2674 1.03313E-02-4.91765E-03-8.93916E-14
 -1      2675 1.04742E-02-5.01339E-03-9.19804E-14
 -1      2676 1.01838E-02-4.83570E-03-8.79194E-14
 -1      2677 1.06170E-02-5.10912E-03-9.45916E-14
 -1      2678 1.07599E-02-5.20483E-03-9.72235E-14
 -1      2679 1.04695E-02-5.02719E-03-9.30902E-14
 -1      2680 1.09027E-02-5.30052E-03-9.98742E-14
 -1      2681 1.10456E-02-5.39619E-03-1.02545E-13
 -1      2682 1.07552E-02-5.21860E-03-9.83435E-14
 -1      2683 1.11885E-02-5.49186E-03-1.05238E-13
 -1      2684 1.13313E-02-5.58751E-03-1.07949E-13
 -1      2685 1.10410E-02-5.40995E-03-1.03677E-13
 -1      2686 1.14742E-02-5.68316E-03-1.10677E-13
 -1      2687 1.16170E-02-5.77879E-03-1.13427E-13
 -1      2688 1.13267E-02-5.60126E-03-1.09088E-13
 -1      2689 1.17599E-02-5.87442E-03-1.16195E-13
 -1      2690 1.19027E-02-5.97005E-03-1.18980E-13
 -1      2691 1.16124E-02-5.79253E-03-1.14574E-13
 -1      2692 1.20456E-02-6.06567E-03-1.21782E-13
 -1      2693 1.21884E-02-6.16129E-03-1.24603E-13
 -1      2694 1.18981E-02-5.98378E-03-1.20134E-13
 -1      2695 1.23313E-02-6.25690E-03-1.27437E-13
 -1      2696 1.24741E-02-6.35251E-03-1.30283E-13
 -1      2697 1.21838E-02-6.17502E-03-1.25764E-13
 -1      2698 1.26170E-02-6.44812E-03-1.33144E-13
 -1      2699 1.27598E-02-6.54373E-03-1.36015E-13
 -1      2700 1.24695E-02-6.36624E-03-1.31450E-13
 -1      2701 1.29027E-02-6.63933E-03-1.38896E-13
 -1      2702 1.30455E-02-6.73493E-03-1.41788E-13
 -1      2703 1.27552E-02-6.55745E-03-1.37186E-13
 -1      2704 1.31884E-02-6.83054E-03-1.44687E-13
 -1      2705 1.33312E-02-6.92614E-03-1.47591E-13
 -1      2706 1.30409E-02-6.74866E-03-1.42962E-13
 -1      2707 1.34741E-02-7.02174E-03-1.50499E-13
 -1      2708 1.36170E-02-7.11734E-03-1.53412E-13
 -1      2709 1.33266E-02-6.93986E-03-1.48767E-13
 -1      2710 1.37598E-02-7.21295E-03-1.56325E-13
 -1      2711 1.39027E-02-7.30855E-03-1.59244E-13
 -1      2712 1.36124E-02-7.13107E-03-1.54586E-13
 -1      2713 1.40455E-02-7.40415E-03-1.62166E-13
 -1      2714 1.41884E-02-7.49975E-03-1.65093E-13
 -1      2715 1.38981E-02-7.32227E-03-1.60422E-13
 -1      2716 1.43312E-02-7.59535E-03-1.68023E-13
 -1      2717 1.44741E-02-7.69095E-03-1.70957E-13
 -1      2718 1.41838E-02-7.51347E-03-1.66275E-13
 -1      2719 1.46169E-02-7.78656E-03-1.73895E-13
 -1      2720 1.47598E-02-7.88216E-03-1.76843E-13
 -1      2721 1.44695E-02-7.70468E-03-1.72145E-13
 -1      2722 1.49027E-02-7.97776E-03-1.79796E-13
 -1      2723 1.50455E-02-8.07336E-03-1.82757E-13
 -1      2724 1.47552E-02-7.89588E-03-1.78036E-13
 -1      2725 1.51884E-02-8.16896E-03-1.85727E-13
 -1      2726 1.53312E-02-8.26457E-03-1.88702E-13
 -1      2727 1.50409E-02-8.08709E-03-1.83957E-13
 -1      2728 1.54849E-02-8.37378E-03-1.92407E-13
 -1      2729 1.85328E-03 1.91674E-04-5.00016E-15
 -1      2730 1.71423E-03 2.43156E-04-4.27543E-15
 -1      2731 2.13288E-03 6.16527E-05-6.62307E-15
 -1      2732 1.99265E-03 1.30873E-04-5.78316E-15
 -1      2733 1.96187E-03 1.30687E-04-5.50426E-15
 -1      2734 1.57550E-03 2.84395E-04-3.60946E-15
 -1      2735 1.43640E-03 3.14890E-04-3.00168E-15
 -1      2736 1.67700E-03 2.35440E-04-4.03685E-15
 -1      2737 2.70300E-03-2.77105E-04-1.05407E-14
 -1      2738 2.55906E-03-1.85346E-04-9.47987E-15
 -1      2739 2.99303E-03-4.68846E-04-1.28195E-14
 -1      2740 2.84775E-03-3.71883E-04-1.16540E-14
 -1      2741 2.83569E-03-3.63582E-04-1.12631E-14
 -1      2742 3.28478E-03-6.66570E-04-1.53022E-14
 -1      2743 3.13882E-03-5.67257E-04-1.40362E-14
 -1      2744 3.13257E-03-5.58592E-04-1.36102E-14
 -1      2745 3.57700E-03-8.66131E-04-1.79789E-14
 -1      2746 3.43095E-03-7.66293E-04-1.66169E-14
 -1      2747 3.42978E-03-7.57479E-04-1.61571E-14
 -1      2748 3.86879E-03-1.06517E-03-2.08385E-14
 -1      2749 3.72303E-03-9.65796E-04-1.93857E-14
 -1      2750 3.72600E-03-9.56823E-04-1.88933E-14
 -1      2751 4.15967E-03-1.26261E-03-2.38779E-14
 -1      2752 4.01439E-03-1.16411E-03-2.23363E-14
 -1      2753 4.02051E-03-1.15492E-03-2.18113E-14
 -1      2754 4.44948E-03-1.45818E-03-2.70859E-14
 -1      2755 4.30473E-03-1.36062E-03-2.54617E-14
 -1      2756 4.31308E-03-1.35118E-03-2.49042E-14
 -1      2757 4.73830E-03-1.65205E-03-3.04578E-14
 -1      2758 4.59403E-03-1.55531E-03-2.87513E-14
 -1      2759 4.60386E-03-1.54562E-03-2.81637E-14
 -1      2760 5.02628E-03-1.84455E-03-3.39874E-14
 -1      2761 4.88239E-03-1.74845E-03-3.22031E-14
 -1      2762 4.89314E-03-1.73854E-03-3.15838E-14
 -1      2763 5.31359E-03-2.03606E-03-3.76740E-14
 -1      2764 5.17001E-03-1.94041E-03-3.58118E-14
 -1      2765 5.18127E-03-1.93032E-03-3.51614E-14
 -1      2766 5.60042E-03-2.22692E-03-4.15100E-14
 -1      2767 5.45706E-03-2.13155E-03-3.95729E-14
 -1      2768 5.46856E-03-2.12133E-03-3.88924E-14
 -1      2769 5.88689E-03-2.41741E-03-4.54932E-14
 -1      2770 5.74369E-03-2.32220E-03-4.34844E-14
 -1      2771 5.75527E-03-2.31187E-03-4.27730E-14
 -1      2772 6.17311E-03-2.60773E-03-4.96166E-14
 -1      2773 6.03003E-03-2.51258E-03-4.75377E-14
 -1      2774 6.04161E-03-2.50218E-03-4.67969E-14
 -1      2775 6.45917E-03-2.79801E-03-5.38689E-14
 -1      2776 6.31616E-03-2.70287E-03-5.17271E-14
 -1      2777 6.32769E-03-2.69240E-03-5.09595E-14
 -1      2778 6.74510E-03-2.98833E-03-5.82502E-14
 -1      2779 6.60214E-03-2.89316E-03-5.60445E-14
 -1      2780 6.61363E-03-2.88265E-03-5.52512E-14
 -1      2781 7.03096E-03-3.17876E-03-6.27472E-14
 -1      2782 6.88804E-03-3.08353E-03-6.04839E-14
 -1      2783 6.89947E-03-3.07299E-03-5.96667E-14
 -1      2784 7.31676E-03-3.36929E-03-6.73589E-14
 -1      2785 7.17387E-03-3.27401E-03-6.50397E-14
 -1      2786 7.18525E-03-3.26344E-03-6.41976E-14
 -1      2787 7.60253E-03-3.55995E-03-7.20766E-14
 -1      2788 7.45965E-03-3.46461E-03-6.97044E-14
 -1      2789 7.47100E-03-3.45401E-03-6.88402E-14
 -1      2790 7.88828E-03-3.75072E-03-7.68976E-14
 -1      2791 7.74541E-03-3.65532E-03-7.44737E-14
 -1      2792 7.75674E-03-3.64471E-03-7.35892E-14
 -1      2793 8.17400E-03-3.94158E-03-8.18216E-14
 -1      2794 8.03114E-03-3.84614E-03-7.93482E-14
 -1      2795 8.04246E-03-3.83551E-03-7.84412E-14
 -1      2796 8.45972E-03-4.13253E-03-8.68390E-14
 -1      2797 8.31686E-03-4.03704E-03-8.43183E-14
 -1      2798 8.32818E-03-4.02640E-03-8.33930E-14
 -1      2799 8.74543E-03-4.32354E-03-9.19476E-14
 -1      2800 8.60258E-03-4.22803E-03-8.93826E-14
 -1      2801 8.61389E-03-4.21737E-03-8.84386E-14
 -1      2802 9.03114E-03-4.51461E-03-9.71361E-14
 -1      2803 8.88829E-03-4.41907E-03-9.45321E-14
 -1      2804 8.89961E-03-4.40841E-03-9.35737E-14
 -1      2805 9.31685E-03-4.70573E-03-1.02400E-13
 -1      2806 9.17399E-03-4.61017E-03-9.97574E-14
 -1      2807 9.18532E-03-4.59949E-03-9.87856E-14
 -1      2808 9.60255E-03-4.89687E-03-1.07731E-13
 -1      2809 9.45970E-03-4.80129E-03-1.05057E-13
 -1      2810 9.47103E-03-4.79062E-03-1.04071E-13
 -1      2811 9.88826E-03-5.08804E-03-1.13127E-13
 -1      2812 9.74541E-03-4.99245E-03-1.10422E-13
 -1      2813 9.75674E-03-4.98177E-03-1.09425E-13
 -1      2814 1.01740E-02-5.27922E-03-1.18580E-13
 -1      2815 1.00311E-02-5.18363E-03-1.15846E-13
 -1      2816 1.00425E-02-5.17294E-03-1.14840E-13
 -1      2817 1.04597E-02-5.47042E-03-1.24086E-13
 -1      2818 1.03168E-02-5.37482E-03-1.21326E-13
 -1      2819 1.03282E-02-5.36413E-03-1.20310E-13
 -1      2820 1.07454E-02-5.66162E-03-1.29645E-13
 -1      2821 1.06025E-02-5.56602E-03-1.26859E-13
 -1      2822 1.06139E-02-5.55533E-03-1.25834E-13
 -1      2823 1.10311E-02-5.85283E-03-1.35254E-13
 -1      2824 1.08882E-02-5.75722E-03-1.32445E-13
 -1      2825 1.08996E-02-5.74654E-03-1.31409E-13
 -1      2826 1.13168E-02-6.04404E-03-1.40913E-13
 -1      2827 1.11739E-02-5.94844E-03-1.38078E-13
 -1      2828 1.11853E-02-5.93775E-03-1.37036E-13
 -1      2829 1.16025E-02-6.23526E-03-1.46614E-13
 -1      2830 1.14597E-02-6.13965E-03-1.43759E-13
 -1      2831 1.14710E-02-6.12896E-03-1.42710E-13
 -1      2832 1.18882E-02-6.42647E-03-1.52355E-13
 -1      2833 1.17454E-02-6.33086E-03-1.49479E-13
 -1      2834 1.17567E-02-6.32017E-03-1.48427E-13
 -1      2835 1.21739E-02-6.61768E-03-1.58131E-13
 -1      2836 1.20311E-02-6.52208E-03-1.55237E-13
 -1      2837 1.20424E-02-6.51139E-03-1.54182E-13
 -1      2838 1.24596E-02-6.80890E-03-1.63936E-13
 -1      2839 1.23168E-02-6.71329E-03-1.61031E-13
 -1      2840 1.23282E-02-6.70260E-03-1.59969E-13
 -1      2841 1.27454E-02-7.00011E-03-1.69780E-13
 -1      2842 1.26025E-02-6.90451E-03-1.66853E-13
 -1      2843 1.26139E-02-6.89382E-03-1.65788E-13
 -1      2844 1.30319E-02-7.19083E-03-1.75588E-13
 -1      2845 1.28891E-02-7.09523E-03-1.72652E-13
 -1      2846 1.29005E-02-7.08454E-03-1.71577E-13
 -1      2847 1.31879E-02-7.27477E-03-1.77337E-13
 -1      2848 1.53375E-02-8.29190E-03-1.90629E-13
 -1      2849 1.41955E-02-7.79295E-03-1.86845E-13
 -1      2850 1.41015E-02-7.75081E-03-1.86415E-13
 -1      2851 1.35685E-02-7.50763E-03-1.83622E-13
 -1      2852 1.40075E-02-7.70866E-03-1.85981E-13
 -1      2853 1.39135E-02-7.66652E-03-1.85544E-13
 -1      2854 1.39308E-02-7.64694E-03-1.83641E-13
 -1      2855 2.41601E-03-9.75792E-05-8.47200E-15
 -1      2856 2.27393E-03-1.48713E-05-7.51912E-15
 -1      2857 2.24941E-03-1.02052E-05-7.20207E-15
 -1      2858 2.54081E-03-1.78121E-04-9.12446E-15
 -1      2859 1.45716E-02-7.96153E-03-1.88529E-13
 -1      2860 1.44776E-02-7.91938E-03-1.88115E-13
 -1      2861 1.47564E-02-8.04439E-03-1.89316E-13
 -1      2862 1.46640E-02-8.00296E-03-1.88926E-13
 -1      2863 1.44933E-02-7.89909E-03-1.86153E-13
 -1      2864 1.49444E-02-8.12868E-03-1.90091E-13
 -1      2865 1.48504E-02-8.08653E-03-1.89709E-13
 -1      2866 1.46797E-02-7.98267E-03-1.86939E-13
 -1      2867 1.51325E-02-8.21296E-03-1.90845E-13
 -1      2868 1.50385E-02-8.17082E-03-1.90471E-13
 -1      2869 1.48677E-02-8.06696E-03-1.87705E-13
 -1      2870 1.52820E-02-8.27351E-03-1.90921E-13
 -1      2871 1.51880E-02-8.23136E-03-1.90563E-13
 -1      2872 1.50173E-02-8.12750E-03-1.87798E-13
 -1      2873 1.51283E-02-8.16429E-03-1.87225E-13
 -1      2874 4.25269E-03-1.11506E-03-1.08355E-14
 -1      2875 4.44596E-03-1.18371E-03-1.13519E-14
 -1      2876 2.73632E-03-2.83509E-04-6.66738E-15
 -1      2877 2.94329E-03-4.21131E-04-7.39129E-15
 -1      2878 7.48167E-04-2.35403E-04-9.86610E-16
 -1      2879 8.13285E-04-1.99279E-04-1.00531E-15
 -1      2880 9.73871E-04 1.00566E-04-1.20058E-15
 -1      2881 9.93373E-04 6.59331E-05-1.19722E-15
 -1      2882 1.11054E-03 1.32399E-04-1.53450E-15
 -1      2883 1.00687E-03 2.75273E-05-1.18801E-15
 -1      2884 1.00645E-03-1.77280E-05-1.17076E-15
 -1      2885 1.16101E-03 6.96954E-05-1.52854E-15
 -1      2886 5.01828E-03-1.29075E-03-1.21913E-14
 -1      2887 5.07373E-03-1.29132E-03-1.22811E-14
 -1      2888 2.05216E-03 6.67908E-05-3.99913E-15
 -1      2889 2.20989E-03 1.58819E-05-4.60081E-15
 -1      2890 5.10317E-03-1.28952E-03-1.22171E-14
 -1      2891 5.07207E-03-1.28222E-03-1.19010E-14
 -1      2892 1.43836E-02-7.87724E-03-1.87696E-13
 -1      2893 1.42896E-02-7.83510E-03-1.87272E-13
 -1      2894 1.43069E-02-7.81552E-03-1.85341E-13
 -1      2895 8.75611E-04 2.12714E-04-1.14626E-15
 -1      2896 8.99901E-04 1.86337E-04-1.16965E-15
 -1      2897 1.05161E-03 1.86827E-04-1.50898E-15
 -1      2898 2.37271E-03-6.02023E-05-5.25093E-15
 -1      2899 2.52068E-03-1.47383E-04-5.84057E-15
 -1      2900 1.38211E-02-7.62509E-03-1.85114E-13
 -1      2901 1.37287E-02-7.58366E-03-1.84681E-13
 -1      2902 1.37444E-02-7.56337E-03-1.82778E-13
 -1      2903 8.31901E-04 2.65504E-04-1.07621E-15
 -1      2904 8.52751E-04 2.38765E-04-1.11544E-15
 -1      2905 9.95816E-04 2.39901E-04-1.45187E-15
 -1      2906 8.01905E-04 3.03004E-04-9.94457E-16
 -1      2907 3.60297E-03-8.16562E-04-9.25894E-15
 -1      2908 3.73007E-03-8.96634E-04-9.91728E-15
 -1      2909 3.47290E-03-7.57761E-04-9.24978E-15
 -1      2910 4.59020E-03-1.23772E-03-1.19540E-14
 -1      2911 4.71944E-03-1.28031E-03-1.25677E-14
 -1      2912 4.49069E-03-1.22551E-03-1.22400E-14
 -1      2913 1.00519E-03-5.35658E-05-1.16904E-15
 -1      2914 1.08305E-03-9.49884E-05-1.35539E-15
 -1      2915 5.06418E-03-1.29345E-03-1.20343E-14
 -1      2916 5.06006E-03-1.33694E-03-1.26260E-14
 -1      2917 5.17137E-03-1.39075E-03-1.39650E-14
 -1      2918 5.23508E-03-1.40702E-03-1.46488E-14
 -1      2919 1.22262E-03-4.52791E-05-1.60177E-15
 -1      2920 1.39238E-03 2.97447E-04-2.80367E-15
 -1      2921 1.29703E-03 3.34075E-04-2.45287E-15
 -1      2922 1.41188E-02-7.73123E-03-1.84500E-13
 -1      2923 1.34918E-02-7.44591E-03-1.81286E-13
 -1      2924 3.06539E-03-5.08298E-04-7.94765E-15
 -1      2925 3.18823E-03-5.93944E-04-8.52114E-15
 -1      2926 2.94155E-03-4.42764E-04-7.85660E-15
 -1      2927 4.11797E-03-1.07223E-03-1.07658E-14
 -1      2928 4.21551E-03-1.12849E-03-1.15582E-14
 -1      2929 3.98580E-03-1.02372E-03-1.06952E-14
 -1      2930 2.61459E-03-2.22609E-04-6.44459E-15
 -1      2931 1.18928E-03 3.48179E-04-2.06812E-15
 -1      2932 1.59852E-03 6.88170E-05-2.48708E-15
 -1      2933 1.64885E-03 8.74473E-05-2.67554E-15
 -1      2934 1.47597E-03 5.27418E-05-2.17816E-15
 -1      2935 5.12974E-03-1.34416E-03-1.34879E-14
 -1      2936 5.12118E-03-1.31485E-03-1.28493E-14
 -1      2937 5.15781E-03-1.34041E-03-1.34235E-14
 -1      2938 1.29687E-03-4.61788E-06-1.74719E-15
 -1      2939 4.95899E-03-1.30508E-03-1.25928E-14
 -1      2940 2.25781E-03-1.86441E-05-4.96730E-15
 -1      2941 9.34628E-04 3.06396E-04-1.32181E-15
 -1      2942 1.18437E-03 1.46292E-06-1.51309E-15
 -1      2943 1.83813E-03 9.63228E-05-3.32365E-15
 -1      2944 1.94297E-03 8.64573E-05-3.65279E-15
 -1      2945 1.99819E-03 7.15566E-05-3.97824E-15
 -1      2946 5.37607E-03-1.52119E-03-1.69923E-14
 -1      2947 5.47823E-03-1.60195E-03-1.84440E-14
 -1      2948 4.91043E-03-1.33390E-03-1.33662E-14
 -1      2949 5.03980E-03-1.35239E-03-1.36960E-14
 -1      2950 1.11297E-03 2.61187E-04-1.79319E-15
 -1      2951 1.14224E-03 2.33750E-04-1.83668E-15
 -1      2952 1.49283E-03 2.58928E-04-3.16794E-15
 -1      2953 1.34709E-03 2.79186E-04-2.60122E-15
 -1      2954 5.58446E-03-1.68485E-03-1.99319E-14
 -1      2955 5.70065E-03-1.77298E-03-2.14613E-14
 -1      2956 5.82204E-03-1.86322E-03-2.30288E-14
 -1      2957 5.94817E-03-1.95617E-03-2.46361E-14
 -1      2958 5.70463E-03-1.79959E-03-2.22000E-14
 -1      2959 6.07774E-03-2.05032E-03-2.62836E-14
 -1      2960 6.21040E-03-2.14595E-03-2.79705E-14
 -1      2961 5.95075E-03-1.98019E-03-2.54051E-14
 -1      2962 6.34525E-03-2.24217E-03-2.96960E-14
 -1      2963 6.48207E-03-2.33910E-03-3.14572E-14
 -1      2964 6.21153E-03-2.16758E-03-2.87683E-14
 -1      2965 6.62023E-03-2.43625E-03-3.32577E-14
 -1      2966 6.75961E-03-2.53366E-03-3.50941E-14
 -1      2967 6.48186E-03-2.35872E-03-3.22837E-14
 -1      2968 6.89980E-03-2.63109E-03-3.69664E-14
 -1      2969 7.04072E-03-2.72856E-03-3.88753E-14
 -1      2970 6.75826E-03-2.55172E-03-3.59471E-14
 -1      2971 7.18211E-03-2.82595E-03-4.08214E-14
 -1      2972 7.32393E-03-2.92327E-03-4.28024E-14
 -1      2973 7.03845E-03-2.74544E-03-3.97563E-14
 -1      2974 7.46601E-03-3.02047E-03-4.48173E-14
 -1      2975 7.60835E-03-3.11755E-03-4.68683E-14
 -1      2976 7.32096E-03-2.93928E-03-4.37085E-14
 -1      2977 7.75083E-03-3.21452E-03-4.89529E-14
 -1      2978 7.89345E-03-3.31136E-03-5.10715E-14
 -1      2979 7.60487E-03-3.13294E-03-4.78007E-14
 -1      2980 8.03615E-03-3.40808E-03-5.32243E-14
 -1      2981 8.17892E-03-3.50469E-03-5.54087E-14
 -1      2982 7.88959E-03-3.32629E-03-5.20275E-14
 -1      2983 8.32172E-03-3.60120E-03-5.76264E-14
 -1      2984 8.46457E-03-3.69761E-03-5.98745E-14
 -1      2985 8.17479E-03-3.51930E-03-5.63870E-14
 -1      2986 8.60742E-03-3.79393E-03-6.21546E-14
 -1      2987 8.75030E-03-3.89017E-03-6.44666E-14
 -1      2988 8.46025E-03-3.71198E-03-6.08732E-14
 -1      2989 8.89318E-03-3.98634E-03-6.68064E-14
 -1      2990 9.03607E-03-4.08244E-03-6.91743E-14
 -1      2991 8.74586E-03-3.90437E-03-6.54834E-14
 -1      2992 9.17896E-03-4.17848E-03-7.15708E-14
 -1      2993 9.32184E-03-4.27446E-03-7.39916E-14
 -1      2994 9.03155E-03-4.09651E-03-7.02082E-14
 -1      2995 9.46473E-03-4.37040E-03-7.64370E-14
 -1      2996 9.60761E-03-4.46629E-03-7.89069E-14
 -1      2997 9.31727E-03-4.28844E-03-7.50411E-14
 -1      2998 9.75049E-03-4.56215E-03-8.14012E-14
 -1      2999 9.89337E-03-4.65797E-03-8.39167E-14
 -1      3000 9.60301E-03-4.48020E-03-7.99716E-14
 -1      3001 1.00362E-02-4.75376E-03-8.64548E-14
 -1      3002 1.01791E-02-4.84952E-03-8.90129E-14
 -1      3003 9.88875E-03-4.67182E-03-8.49941E-14
 -1      3004 1.03220E-02-4.94526E-03-9.15939E-14
 -1      3005 1.04649E-02-5.04099E-03-9.41960E-14
 -1      3006 1.01745E-02-4.86334E-03-9.01034E-14
 -1      3007 1.06077E-02-5.13669E-03-9.68183E-14
 -1      3008 1.07506E-02-5.23238E-03-9.94605E-14
 -1      3009 1.04602E-02-5.05477E-03-9.52983E-14
 -1      3010 1.08935E-02-5.32805E-03-1.02121E-13
 -1      3011 1.10363E-02-5.42371E-03-1.04804E-13
 -1      3012 1.07460E-02-5.24614E-03-1.00573E-13
 -1      3013 1.11792E-02-5.51936E-03-1.07504E-13
 -1      3014 1.13220E-02-5.61501E-03-1.10223E-13
 -1      3015 1.10317E-02-5.43746E-03-1.05925E-13
 -1      3016 1.14649E-02-5.71064E-03-1.12962E-13
 -1      3017 1.16078E-02-5.80627E-03-1.15718E-13
 -1      3018 1.13174E-02-5.62875E-03-1.11356E-13
 -1      3019 1.17506E-02-5.90190E-03-1.18494E-13
 -1      3020 1.18935E-02-5.99752E-03-1.21287E-13
 -1      3021 1.16031E-02-5.82001E-03-1.16861E-13
 -1      3022 1.20363E-02-6.09313E-03-1.24098E-13
 -1      3023 1.21792E-02-6.18874E-03-1.26922E-13
 -1      3024 1.18889E-02-6.01125E-03-1.22437E-13
 -1      3025 1.23221E-02-6.28435E-03-1.29762E-13
 -1      3026 1.24649E-02-6.37996E-03-1.32614E-13
 -1      3027 1.21746E-02-6.20247E-03-1.28079E-13
 -1      3028 1.26078E-02-6.47557E-03-1.35478E-13
 -1      3029 1.27506E-02-6.57117E-03-1.38353E-13
 -1      3030 1.24603E-02-6.39369E-03-1.33775E-13
 -1      3031 1.28935E-02-6.66678E-03-1.41237E-13
 -1      3032 1.30363E-02-6.76238E-03-1.44131E-13
 -1      3033 1.27460E-02-6.58490E-03-1.39516E-13
 -1      3034 1.31792E-02-6.85798E-03-1.47031E-13
 -1      3035 1.33221E-02-6.95359E-03-1.49936E-13
 -1      3036 1.30317E-02-6.77610E-03-1.45297E-13
 -1      3037 1.34649E-02-7.04919E-03-1.52846E-13
 -1      3038 1.36078E-02-7.14479E-03-1.55758E-13
 -1      3039 1.33175E-02-6.96731E-03-1.51104E-13
 -1      3040 1.37506E-02-7.24039E-03-1.58678E-13
 -1      3041 1.38935E-02-7.33599E-03-1.61600E-13
 -1      3042 1.36032E-02-7.15851E-03-1.56932E-13
 -1      3043 1.40363E-02-7.43159E-03-1.64524E-13
 -1      3044 1.41792E-02-7.52720E-03-1.67456E-13
 -1      3045 1.38889E-02-7.34972E-03-1.62775E-13
 -1      3046 1.43221E-02-7.62280E-03-1.70392E-13
 -1      3047 1.44649E-02-7.71840E-03-1.73331E-13
 -1      3048 1.41746E-02-7.54092E-03-1.68636E-13
 -1      3049 1.46078E-02-7.81400E-03-1.76276E-13
 -1      3050 1.47506E-02-7.90960E-03-1.79230E-13
 -1      3051 1.44603E-02-7.73212E-03-1.74517E-13
 -1      3052 1.48680E-02-7.98915E-03-1.81738E-13
 -1      3053 1.50109E-02-8.08475E-03-1.84706E-13
 -1      3054 1.49554E-02-8.06635E-03-1.84996E-13
 -1      3055 1.47206E-02-7.90727E-03-1.79972E-13
 -1      3056 1.46030E-02-7.92095E-03-1.84564E-13
 -1      3057 1.45090E-02-7.87880E-03-1.84176E-13
 -1      3058 1.40421E-02-7.66951E-03-1.82154E-13
 -1      3059 1.39481E-02-7.62736E-03-1.81732E-13
 -1      3060 2.07485E-03 6.66242E-05-6.02116E-15
 -1      3061 1.92856E-03 1.30272E-04-5.22011E-15
 -1      3062 1.78316E-03 1.84079E-04-4.47755E-15
 -1      3063 1.63788E-03 2.27164E-04-3.79341E-15
 -1      3064 1.59756E-03 2.18137E-04-3.54542E-15
 -1      3065 1.89361E-03 1.29669E-04-4.93117E-15
 -1      3066 3.27549E-03-6.50461E-04-1.44115E-14
 -1      3067 3.12397E-03-5.51240E-04-1.31793E-14
 -1      3068 2.97226E-03-4.52946E-04-1.19976E-14
 -1      3069 2.82083E-03-3.56291E-04-1.08673E-14
 -1      3070 3.11330E-03-5.44944E-04-1.27440E-14
 -1      3071 3.87705E-03-1.04826E-03-1.98166E-14
 -1      3072 3.72768E-03-9.49176E-04-1.83966E-14
 -1      3073 4.17365E-03-1.24499E-03-2.27918E-14
 -1      3074 4.02576E-03-1.14685E-03-2.12823E-14
 -1      3075 4.03024E-03-1.14000E-03-2.07503E-14
 -1      3076 4.46743E-03-1.43980E-03-2.59380E-14
 -1      3077 4.32090E-03-1.34261E-03-2.43441E-14
 -1      3078 4.32826E-03-1.33502E-03-2.37806E-14
 -1      3079 4.75880E-03-1.63297E-03-2.92477E-14
 -1      3080 4.61340E-03-1.53656E-03-2.75727E-14
 -1      3081 4.62270E-03-1.52823E-03-2.69781E-14
 -1      3082 5.04828E-03-1.82489E-03-3.27159E-14
 -1      3083 4.90375E-03-1.72905E-03-3.09620E-14
 -1      3084 4.91428E-03-1.72007E-03-3.03380E-14
 -1      3085 5.33640E-03-2.01595E-03-3.63418E-14
 -1      3086 5.19249E-03-1.92050E-03-3.45096E-14
 -1      3087 5.20372E-03-1.91100E-03-3.38555E-14
 -1      3088 5.62358E-03-2.20648E-03-4.01175E-14
 -1      3089 5.48009E-03-2.11126E-03-3.82112E-14
 -1      3090 5.49168E-03-2.10138E-03-3.75272E-14
 -1      3091 5.91014E-03-2.39673E-03-4.40406E-14
 -1      3092 5.76692E-03-2.30162E-03-4.20611E-14
 -1      3093 5.77865E-03-2.29147E-03-4.13483E-14
 -1      3094 6.19631E-03-2.58687E-03-4.81063E-14
 -1      3095 6.05326E-03-2.49180E-03-4.60559E-14
 -1      3096 6.06500E-03-2.48147E-03-4.53141E-14
 -1      3097 6.48225E-03-2.77703E-03-5.23061E-14
 -1      3098 6.33930E-03-2.68194E-03-5.01896E-14
 -1      3099 6.35100E-03-2.67149E-03-4.94195E-14
 -1      3100 6.76807E-03-2.96727E-03-5.66356E-14
 -1      3101 6.62517E-03-2.87213E-03-5.44557E-14
 -1      3102 6.63679E-03-2.86160E-03-5.36582E-14
 -1      3103 7.05382E-03-3.15762E-03-6.10849E-14
 -1      3104 6.91095E-03-3.06243E-03-5.88457E-14
 -1      3105 6.92249E-03-3.05185E-03-5.80235E-14
 -1      3106 7.33954E-03-3.34811E-03-6.56503E-14
 -1      3107 7.19668E-03-3.25285E-03-6.33541E-14
 -1      3108 7.20815E-03-3.24224E-03-6.25087E-14
 -1      3109 7.62524E-03-3.53873E-03-7.03236E-14
 -1      3110 7.48239E-03-3.44340E-03-6.79733E-14
 -1      3111 7.49381E-03-3.43277E-03-6.71057E-14
 -1      3112 7.91094E-03-3.72946E-03-7.51048E-14
 -1      3113 7.76809E-03-3.63408E-03-7.27022E-14
 -1      3114 7.77947E-03-3.62344E-03-7.18112E-14
 -1      3115 8.19665E-03-3.92030E-03-7.99880E-14
 -1      3116 8.05380E-03-3.82487E-03-7.75331E-14
 -1      3117 8.06515E-03-3.81422E-03-7.66238E-14
 -1      3118 8.48236E-03-4.11122E-03-8.49675E-14
 -1      3119 8.33950E-03-4.01575E-03-8.24658E-14
 -1      3120 8.35084E-03-4.00509E-03-8.15354E-14
 -1      3121 8.76807E-03-4.30222E-03-9.00419E-14
 -1      3122 8.62521E-03-4.20672E-03-8.74932E-14
 -1      3123 8.63654E-03-4.19605E-03-8.65456E-14
 -1      3124 9.05378E-03-4.49328E-03-9.52011E-14
 -1      3125 8.91093E-03-4.39774E-03-9.26117E-14
 -1      3126 8.92225E-03-4.38708E-03-9.16468E-14
 -1      3127 9.33950E-03-4.68438E-03-1.00437E-13
 -1      3128 9.19664E-03-4.58882E-03-9.78108E-14
 -1      3129 9.20797E-03-4.57815E-03-9.68318E-14
 -1      3130 9.62522E-03-4.87551E-03-1.05746E-13
 -1      3131 9.48236E-03-4.77994E-03-1.03081E-13
 -1      3132 9.49369E-03-4.76927E-03-1.02090E-13
 -1      3133 9.91093E-03-5.06668E-03-1.11120E-13
 -1      3134 9.76807E-03-4.97109E-03-1.08425E-13
 -1      3135 9.77941E-03-4.96041E-03-1.07421E-13
 -1      3136 1.01966E-02-5.25785E-03-1.16552E-13
 -1      3137 1.00538E-02-5.16226E-03-1.13828E-13
 -1      3138 1.00651E-02-5.15158E-03-1.12814E-13
 -1      3139 1.04824E-02-5.44905E-03-1.22042E-13
 -1      3140 1.03395E-02-5.35345E-03-1.19290E-13
 -1      3141 1.03508E-02-5.34277E-03-1.18267E-13
 -1      3142 1.07681E-02-5.64025E-03-1.27584E-13
 -1      3143 1.06252E-02-5.54465E-03-1.24807E-13
 -1      3144 1.06366E-02-5.53396E-03-1.23777E-13
 -1      3145 1.10538E-02-5.83146E-03-1.33177E-13
 -1      3146 1.09109E-02-5.73585E-03-1.30374E-13
 -1      3147 1.09223E-02-5.72517E-03-1.29335E-13
 -1      3148 1.13395E-02-6.02267E-03-1.38821E-13
 -1      3149 1.11967E-02-5.92706E-03-1.35993E-13
 -1      3150 1.12080E-02-5.91637E-03-1.34947E-13
 -1      3151 1.16252E-02-6.21388E-03-1.44510E-13
 -1      3152 1.14824E-02-6.11827E-03-1.41660E-13
 -1      3153 1.14937E-02-6.10759E-03-1.40606E-13
 -1      3154 1.19109E-02-6.40509E-03-1.50245E-13
 -1      3155 1.17681E-02-6.30949E-03-1.47374E-13
 -1      3156 1.17794E-02-6.29880E-03-1.46315E-13
 -1      3157 1.21967E-02-6.59631E-03-1.56012E-13
 -1      3158 1.20538E-02-6.50070E-03-1.53123E-13
 -1      3159 1.20652E-02-6.49001E-03-1.52062E-13
 -1      3160 1.24824E-02-6.78752E-03-1.61812E-13
 -1      3161 1.23395E-02-6.69191E-03-1.58908E-13
 -1      3162 1.23509E-02-6.68123E-03-1.57843E-13
 -1      3163 1.27681E-02-6.97874E-03-1.67641E-13
 -1      3164 1.26252E-02-6.88313E-03-1.64722E-13
 -1      3165 1.26366E-02-6.87244E-03-1.63655E-13
 -1      3166 5.64478E-04-2.58002E-04-7.21997E-16
 -1      3167 1.23996E-03 1.57551E-04-1.91103E-15
 -1      3168 1.27350E-03 1.31821E-04-1.91783E-15
 -1      3169 1.17343E-03 2.07821E-04-1.87051E-15
 -1      3170 1.20637E-03 1.82172E-04-1.89523E-15
 -1      3171 1.36433E-03 1.72847E-04-2.32834E-15
 -1      3172 1.38541E-02-7.58522E-03-1.81304E-13
 -1      3173 1.37601E-02-7.54307E-03-1.80873E-13
 -1      3174 1.37774E-02-7.52350E-03-1.78967E-13
 -1      3175 1.47910E-02-8.00524E-03-1.85319E-13
 -1      3176 1.46970E-02-7.96309E-03-1.84944E-13
 -1      3177 1.45263E-02-7.85923E-03-1.82190E-13
 -1      3178 1.44166E-02-7.83737E-03-1.83789E-13
 -1      3179 1.43242E-02-7.79594E-03-1.83395E-13
 -1      3180 1.43399E-02-7.77565E-03-1.81425E-13
 -1      3181 3.57750E-03-8.49751E-04-1.70219E-14
 -1      3182 3.42680E-03-7.50077E-04-1.56924E-14
 -1      3183 3.42219E-03-7.44001E-04-1.52239E-14
 -1      3184 3.72818E-03-9.42885E-04-1.78958E-14
 -1      3185 6.94391E-04-2.04203E-04-7.92755E-16
 -1      3186 2.48621E-03-1.60827E-04-6.21335E-15
 -1      3187 2.68068E-03-2.84355E-04-7.05450E-15
 -1      3188 5.12673E-03-1.32473E-03-1.29191E-14
 -1      3189 1.02142E-03 3.70922E-04-1.51562E-15
 -1      3190 1.35082E-02-7.42682E-03-1.79457E-13
 -1      3191 1.33481E-02-7.35080E-03-1.78396E-13
 -1      3192 1.32043E-02-7.25568E-03-1.75514E-13
 -1      3193 1.07376E-03 3.37005E-04-1.70323E-15
 -1      3194 1.11208E-03 2.94538E-04-1.81861E-15
 -1      3195 1.29509E-03 2.59324E-05-1.75344E-15
 -1      3196 1.36804E-02-7.50566E-03-1.80382E-13
 -1      3197 1.35880E-02-7.46423E-03-1.79951E-13
 -1      3198 1.34442E-02-7.36912E-03-1.77067E-13
 -1      3199 1.36037E-02-7.44394E-03-1.78050E-13
 -1      3200 1.42301E-02-7.75380E-03-1.82988E-13
 -1      3201 1.41361E-02-7.71165E-03-1.82575E-13
 -1      3202 1.39654E-02-7.60779E-03-1.79811E-13
 -1      3203 1.41534E-02-7.69208E-03-1.80633E-13
 -1      3204 2.14757E-03 1.81742E-05-4.68310E-15
 -1      3205 2.29515E-03-5.12264E-05-5.32899E-15
 -1      3206 1.35039E-03 5.55279E-05-1.90698E-15
 -1      3207 3.31670E-03-6.80094E-04-9.14648E-15
 -1      3208 3.44469E-03-7.61229E-04-9.78929E-15
 -1      3209 3.18365E-03-6.06144E-04-9.03776E-15
 -1      3210 3.85008E-03-9.68902E-04-1.06770E-14
 -1      3211 5.10596E-03-1.41443E-03-1.50863E-14
 -1      3212 5.12303E-03-1.37979E-03-1.42846E-14
 -1      3213 5.19331E-03-1.40669E-03-1.48788E-14
 -1      3214 4.37898E-03-1.20223E-03-1.23993E-14
 -1      3215 4.52411E-03-1.25666E-03-1.30183E-14
 -1      3216 1.94237E-03 7.89099E-05-3.94305E-15
 -1      3217 2.04301E-03 5.26895E-05-4.30411E-15
 -1      3218 2.08459E-03 3.05442E-05-4.63380E-15
 -1      3219 1.29183E-03 2.20929E-04-2.26928E-15
 -1      3220 1.35463E-03 2.48697E-04-2.57043E-15
 -1      3221 1.25300E-03 2.78410E-04-2.25818E-15
 -1      3222 2.22194E-03-5.79587E-06-6.87929E-15
 -1      3223 2.19236E-03-1.24515E-06-6.55036E-15
 -1      3224 2.37021E-03-8.55672E-05-7.79371E-15
 -1      3225 2.80359E-03-3.49575E-04-1.04655E-14
 -1      3226 2.66979E-03-2.62088E-04-9.78915E-15
 -1      3227 2.51952E-03-1.71488E-04-8.76378E-15
 -1      3228 1.30581E-02-7.16477E-03-1.73006E-13
 -1      3229 1.29143E-02-7.06965E-03-1.70136E-13
 -1      3230 1.29257E-02-7.05896E-03-1.69064E-13
 -1      3231 1.32182E-02-7.24079E-03-1.74067E-13
 -1      3232 2.79077E-03-3.57600E-04-7.58776E-15
 -1      3233 2.90259E-03-4.32722E-04-8.13812E-15
 -1      3234 2.66132E-03-2.83119E-04-7.31851E-15
 -1      3235 1.49010E-02-8.04499E-03-1.85019E-13
 -1      3236 1.48454E-02-8.02660E-03-1.85301E-13
 -1      3237 1.46747E-02-7.92273E-03-1.82547E-13
 -1      3238 1.47836E-02-7.96545E-03-1.82506E-13
 -1      3239 2.37000E-03-1.04048E-04-5.88027E-15
 -1      3240 4.26347E-03-1.16448E-03-1.23163E-14
 -1      3241 4.83582E-03-1.33596E-03-1.36640E-14
 -1      3242 1.60115E-03 9.77539E-05-2.61421E-15
 -1      3243 1.71892E-03 1.01010E-04-2.95735E-15
 -1      3244 1.77868E-03 1.04247E-04-3.24727E-15
 -1      3245 1.28245E-03 1.03775E-04-1.85709E-15
 -1      3246 1.30710E-03 7.30578E-05-1.84473E-15
 -1      3247 1.48135E-03 9.05756E-05-2.28375E-15
 -1      3248 1.41855E-03 1.28389E-04-2.28149E-15
 -1      3249 5.26155E-03-1.42703E-03-1.51687E-14
 -1      3250 5.27643E-03-1.45646E-03-1.58498E-14
 -1      3251 5.48432E-03-1.63086E-03-1.91550E-14
 -1      3252 4.72792E-03-1.33151E-03-1.40436E-14
 -1      3253 4.92100E-03-1.38854E-03-1.48764E-14
 -1      3254 1.48584E-03 2.17385E-04-3.00373E-15
 -1      3255 1.38938E-03 2.22009E-04-2.62384E-15
 -1      3256 1.42668E-03 1.97061E-04-2.66589E-15
 -1      3257 5.16718E-03-1.34912E-03-1.35635E-14
 -1      3258 2.23400E-03-4.05358E-05-5.43726E-15
 -1      3259 2.41306E-03-1.38244E-04-6.31582E-15
 -1      3260 5.81688E-03-1.91117E-03-2.45302E-14
 -1      3261 5.94257E-03-2.00140E-03-2.61665E-14
 -1      3262 6.07162E-03-2.09305E-03-2.78421E-14
 -1      3263 6.20346E-03-2.18631E-03-2.95567E-14
 -1      3264 5.93053E-03-2.02092E-03-2.69229E-14
 -1      3265 6.33751E-03-2.28040E-03-3.13095E-14
 -1      3266 6.47341E-03-2.37541E-03-3.30995E-14
 -1      3267 6.19279E-03-2.20389E-03-3.03404E-14
 -1      3268 6.61073E-03-2.47087E-03-3.49265E-14
 -1      3269 6.74926E-03-2.56682E-03-3.67891E-14
 -1      3270 6.46323E-03-2.39135E-03-3.39104E-14
 -1      3271 6.88869E-03-2.66297E-03-3.86894E-14
 -1      3272 7.02890E-03-2.75934E-03-4.06261E-14
 -1      3273 6.73913E-03-2.58143E-03-3.76285E-14
 -1      3274 7.16967E-03-2.85579E-03-4.25974E-14
 -1      3275 7.31093E-03-2.95230E-03-4.46034E-14
 -1      3276 7.01862E-03-2.77295E-03-4.14902E-14
 -1      3277 7.45253E-03-3.04881E-03-4.66439E-14
 -1      3278 7.59444E-03-3.14532E-03-4.87198E-14
 -1      3279 7.30043E-03-2.96514E-03-4.54937E-14
 -1      3280 7.73656E-03-3.24179E-03-5.08283E-14
 -1      3281 7.87887E-03-3.33821E-03-5.29693E-14
 -1      3282 7.58373E-03-3.15759E-03-4.96347E-14
 -1      3283 8.02130E-03-3.43457E-03-5.51429E-14
 -1      3284 8.16384E-03-3.53088E-03-5.73486E-14
 -1      3285 7.86797E-03-3.35006E-03-5.39066E-14
 -1      3286 8.30646E-03-3.62713E-03-5.95878E-14
 -1      3287 8.44915E-03-3.72332E-03-6.18573E-14
 -1      3288 8.15279E-03-3.54243E-03-5.83073E-14
 -1      3289 8.59187E-03-3.81946E-03-6.41550E-14
 -1      3290 8.73464E-03-3.91553E-03-6.64830E-14
 -1      3291 8.43798E-03-3.73464E-03-6.28347E-14
 -1      3292 8.87744E-03-4.01156E-03-6.88399E-14
 -1      3293 9.02025E-03-4.10754E-03-7.12239E-14
 -1      3294 8.72339E-03-3.92668E-03-6.74776E-14
 -1      3295 9.16308E-03-4.20348E-03-7.36354E-14
 -1      3296 9.30593E-03-4.29938E-03-7.60711E-14
 -1      3297 9.00894E-03-4.11857E-03-7.22350E-14
 -1      3298 9.44878E-03-4.39524E-03-7.85308E-14
 -1      3299 9.59163E-03-4.49107E-03-8.10153E-14
 -1      3300 9.29458E-03-4.31031E-03-7.70963E-14
 -1      3301 9.73449E-03-4.58687E-03-8.35229E-14
 -1      3302 9.87736E-03-4.68264E-03-8.60501E-14
 -1      3303 9.58026E-03-4.50193E-03-8.20554E-14
 -1      3304 1.00202E-02-4.77839E-03-8.86002E-14
 -1      3305 1.01631E-02-4.87412E-03-9.11722E-14
 -1      3306 9.86597E-03-4.69345E-03-8.71021E-14
 -1      3307 1.03060E-02-4.96983E-03-9.37629E-14
 -1      3308 1.04488E-02-5.06552E-03-9.63762E-14
 -1      3309 1.01517E-02-4.88489E-03-9.22354E-14
 -1      3310 1.05917E-02-5.16120E-03-9.90107E-14
 -1      3311 1.07346E-02-5.25687E-03-1.01663E-13
 -1      3312 1.04374E-02-5.07627E-03-9.74519E-14
 -1      3313 1.08774E-02-5.35253E-03-1.04333E-13
 -1      3314 1.10203E-02-5.44818E-03-1.07025E-13
 -1      3315 1.07232E-02-5.26760E-03-1.02748E-13
 -1      3316 1.11632E-02-5.54382E-03-1.09735E-13
 -1      3317 1.13060E-02-5.63945E-03-1.12463E-13
 -1      3318 1.10089E-02-5.45889E-03-1.08120E-13
 -1      3319 1.14489E-02-5.73508E-03-1.15213E-13
 -1      3320 1.15918E-02-5.83070E-03-1.17979E-13
 -1      3321 1.12946E-02-5.65015E-03-1.13570E-13
 -1      3322 1.17346E-02-5.92632E-03-1.20762E-13
 -1      3323 1.18775E-02-6.02194E-03-1.23562E-13
 -1      3324 1.15804E-02-5.84140E-03-1.19094E-13
 -1      3325 1.20203E-02-6.11755E-03-1.26378E-13
 -1      3326 1.21632E-02-6.21316E-03-1.29207E-13
 -1      3327 1.18661E-02-6.03263E-03-1.24685E-13
 -1      3328 1.23061E-02-6.30877E-03-1.32053E-13
 -1      3329 1.24489E-02-6.40437E-03-1.34909E-13
 -1      3330 1.21518E-02-6.22385E-03-1.30335E-13
 -1      3331 1.25918E-02-6.49998E-03-1.37776E-13
 -1      3332 1.27346E-02-6.59558E-03-1.40653E-13
 -1      3333 1.24375E-02-6.41506E-03-1.36040E-13
 -1      3334 1.28775E-02-6.69119E-03-1.43540E-13
 -1      3335 1.30204E-02-6.78679E-03-1.46436E-13
 -1      3336 1.27233E-02-6.60627E-03-1.41787E-13
 -1      3337 1.31632E-02-6.88239E-03-1.49337E-13
 -1      3338 1.33061E-02-6.97799E-03-1.52245E-13
 -1      3339 1.30090E-02-6.79747E-03-1.47572E-13
 -1      3340 1.34489E-02-7.07360E-03-1.55157E-13
 -1      3341 1.35918E-02-7.16920E-03-1.58077E-13
 -1      3342 1.32947E-02-6.98868E-03-1.53384E-13
 -1      3343 1.37347E-02-7.26480E-03-1.60999E-13
 -1      3344 1.38775E-02-7.36040E-03-1.63923E-13
 -1      3345 1.35804E-02-7.17988E-03-1.59219E-13
 -1      3346 1.40204E-02-7.45600E-03-1.66853E-13
 -1      3347 1.41632E-02-7.55160E-03-1.69787E-13
 -1      3348 1.38661E-02-7.37109E-03-1.65071E-13
 -1      3349 1.43061E-02-7.64721E-03-1.72727E-13
 -1      3350 1.44489E-02-7.74281E-03-1.75676E-13
 -1      3351 1.41519E-02-7.56229E-03-1.70937E-13
 -1      3352 1.44496E-02-7.79751E-03-1.79812E-13
 -1      3353 1.43556E-02-7.75536E-03-1.79435E-13
 -1      3354 3.25909E-03-6.39586E-04-1.35020E-14
 -1      3355 3.10108E-03-5.39834E-04-1.23031E-14
 -1      3356 4.48426E-03-1.42487E-03-2.47762E-14
 -1      3357 4.33552E-03-1.32857E-03-2.32135E-14
 -1      3358 4.18556E-03-1.23185E-03-2.16923E-14
 -1      3359 4.03442E-03-1.13455E-03-2.02139E-14
 -1      3360 4.34283E-03-1.32335E-03-2.26428E-14
 -1      3361 5.07023E-03-1.80686E-03-3.14340E-14
 -1      3362 4.92488E-03-1.71168E-03-2.97098E-14
 -1      3363 5.35939E-03-1.99683E-03-3.50008E-14
 -1      3364 5.21505E-03-1.90188E-03-3.31982E-14
 -1      3365 5.22655E-03-1.89319E-03-3.25380E-14
 -1      3366 5.64704E-03-2.18658E-03-3.87178E-14
 -1      3367 5.50337E-03-2.09172E-03-3.68401E-14
 -1      3368 5.51521E-03-2.08232E-03-3.61513E-14
 -1      3369 5.93372E-03-2.37630E-03-4.25831E-14
 -1      3370 5.79047E-03-2.28143E-03-4.06322E-14
 -1      3371 5.80243E-03-2.27153E-03-3.99141E-14
 -1      3372 6.21984E-03-2.56609E-03-4.65930E-14
 -1      3373 6.07683E-03-2.47118E-03-4.45707E-14
 -1      3374 6.08878E-03-2.46095E-03-4.38248E-14
 -1      3375 6.50564E-03-2.75603E-03-5.07379E-14
 -1      3376 6.36277E-03-2.66104E-03-4.86494E-14
 -1      3377 6.37463E-03-2.65060E-03-4.78765E-14
 -1      3378 6.79129E-03-2.94613E-03-5.50156E-14
 -1      3379 6.64848E-03-2.85106E-03-5.28606E-14
 -1      3380 6.66024E-03-2.84049E-03-5.20615E-14
 -1      3381 7.07688E-03-3.13640E-03-5.94161E-14
 -1      3382 6.93409E-03-3.04125E-03-5.72004E-14
 -1      3383 6.94575E-03-3.03062E-03-5.63754E-14
 -1      3384 7.36247E-03-3.32684E-03-6.39352E-14
 -1      3385 7.21967E-03-3.23160E-03-6.16609E-14
 -1      3386 7.23124E-03-3.22094E-03-6.08123E-14
 -1      3387 7.64807E-03-3.51743E-03-6.85639E-14
 -1      3388 7.50527E-03-3.42212E-03-6.62365E-14
 -1      3389 7.51676E-03-3.41144E-03-6.53637E-14
 -1      3390 7.93370E-03-3.70815E-03-7.33026E-14
 -1      3391 7.79088E-03-3.61277E-03-7.09204E-14
 -1      3392 7.80232E-03-3.60209E-03-7.00274E-14
 -1      3393 8.21936E-03-3.89897E-03-7.81452E-14
 -1      3394 8.07653E-03-3.80355E-03-7.57105E-14
 -1      3395 8.08792E-03-3.79286E-03-7.47974E-14
 -1      3396 8.50504E-03-4.08989E-03-8.30884E-14
 -1      3397 8.36219E-03-3.99442E-03-8.06050E-14
 -1      3398 8.37356E-03-3.98374E-03-7.96719E-14
 -1      3399 8.79073E-03-4.28088E-03-8.81260E-14
 -1      3400 8.64788E-03-4.18538E-03-8.55947E-14
 -1      3401 8.65923E-03-4.17470E-03-8.46436E-14
 -1      3402 9.07644E-03-4.47193E-03-9.32524E-14
 -1      3403 8.93358E-03-4.37640E-03-9.06780E-14
 -1      3404 8.94492E-03-4.36572E-03-8.97080E-14
 -1      3405 9.36216E-03-4.66303E-03-9.84623E-14
 -1      3406 9.21930E-03-4.56748E-03-9.58479E-14
 -1      3407 9.23063E-03-4.55680E-03-9.48608E-14
 -1      3408 9.64788E-03-4.85416E-03-1.03744E-13
 -1      3409 9.50502E-03-4.75859E-03-1.01095E-13
 -1      3410 9.51635E-03-4.74791E-03-1.00095E-13
 -1      3411 9.93360E-03-5.04532E-03-1.09097E-13
 -1      3412 9.79074E-03-4.94973E-03-1.06412E-13
 -1      3413 9.80207E-03-4.93905E-03-1.05401E-13
 -1      3414 1.02193E-02-5.23649E-03-1.14509E-13
 -1      3415 1.00765E-02-5.14090E-03-1.11796E-13
 -1      3416 1.00878E-02-5.13022E-03-1.10773E-13
 -1      3417 1.05051E-02-5.42768E-03-1.19985E-13
 -1      3418 1.03622E-02-5.33208E-03-1.17240E-13
 -1      3419 1.03735E-02-5.32140E-03-1.16209E-13
 -1      3420 1.07908E-02-5.61888E-03-1.25511E-13
 -1      3421 1.06479E-02-5.52328E-03-1.22740E-13
 -1      3422 1.06593E-02-5.51260E-03-1.21702E-13
 -1      3423 1.10765E-02-5.81008E-03-1.31087E-13
 -1      3424 1.09336E-02-5.71448E-03-1.28293E-13
 -1      3425 1.09450E-02-5.70380E-03-1.27246E-13
 -1      3426 1.13622E-02-6.00129E-03-1.36717E-13
 -1      3427 1.12194E-02-5.90569E-03-1.33896E-13
 -1      3428 1.12307E-02-5.89500E-03-1.32840E-13
 -1      3429 1.16479E-02-6.19251E-03-1.42393E-13
 -1      3430 1.15051E-02-6.09690E-03-1.39549E-13
 -1      3431 1.15164E-02-6.08621E-03-1.38487E-13
 -1      3432 1.19337E-02-6.38372E-03-1.48121E-13
 -1      3433 1.17908E-02-6.28811E-03-1.45251E-13
 -1      3434 1.18022E-02-6.27743E-03-1.44185E-13
 -1      3435 1.22194E-02-6.57493E-03-1.53879E-13
 -1      3436 1.20765E-02-6.47933E-03-1.50996E-13
 -1      3437 1.20879E-02-6.46864E-03-1.49925E-13
 -1      3438 1.25051E-02-6.76615E-03-1.59675E-13
 -1      3439 1.23622E-02-6.67054E-03-1.56774E-13
 -1      3440 1.23736E-02-6.65985E-03-1.55702E-13
 -1      3441 1.27908E-02-6.95736E-03-1.65498E-13
 -1      3442 1.26480E-02-6.86175E-03-1.62582E-13
 -1      3443 1.26593E-02-6.85107E-03-1.61507E-13
 -1      3444 1.46586E-03 1.74730E-04-2.69764E-15
 -1      3445 1.50676E-03 1.53856E-04-2.71818E-15
 -1      3446 1.56572E-03 1.69572E-04-3.09359E-15
 -1      3447 1.37007E-02-7.46178E-03-1.76629E-13
 -1      3448 1.36067E-02-7.41963E-03-1.76204E-13
 -1      3449 1.42632E-02-7.71393E-03-1.79058E-13
 -1      3450 1.41707E-02-7.67250E-03-1.78673E-13
 -1      3451 1.41864E-02-7.65221E-03-1.76691E-13
 -1      3452 4.11274E-03-1.10986E-03-1.22074E-14
 -1      3453 4.27871E-03-1.18580E-03-1.30600E-14
 -1      3454 4.63556E-03-1.31599E-03-1.42038E-14
 -1      3455 5.28956E-03-1.49619E-03-1.66829E-14
 -1      3456 4.77883E-03-1.61635E-03-2.80250E-14
 -1      3457 4.63202E-03-1.52074E-03-2.63804E-14
 -1      3458 4.64148E-03-1.51419E-03-2.57794E-14
 -1      3459 4.93565E-03-1.70395E-03-2.90785E-14
 -1      3460 1.54670E-03 1.09391E-04-2.53575E-15
 -1      3461 5.57876E-03-1.73822E-03-2.13762E-14
 -1      3462 5.69530E-03-1.82361E-03-2.29332E-14
 -1      3463 5.68026E-03-1.84523E-03-2.36622E-14
 -1      3464 1.51902E-03 1.41195E-04-2.66811E-15
 -1      3465 1.53806E-03 1.22696E-04-2.59863E-15
 -1      3466 1.65232E-03 1.19575E-04-2.95380E-15
 -1      3467 1.62361E-03 1.38944E-04-3.07168E-15
 -1      3468 5.37400E-03-1.58008E-03-1.83835E-14
 -1      3469 5.47279E-03-1.65785E-03-1.98607E-14
 -1      3470 5.45253E-03-1.68171E-03-2.05619E-14
 -1      3471 3.66319E-03-8.85265E-04-1.05711E-14
 -1      3472 3.90147E-03-1.00758E-03-1.13678E-14
 -1      3473 3.93552E-03-1.03461E-03-1.20829E-14
 -1      3474 3.51618E-03-8.09065E-04-1.04467E-14
 -1      3475 5.03649E-03-1.42485E-03-1.54844E-14
 -1      3476 5.13888E-03-1.45799E-03-1.61007E-14
 -1      3477 4.95505E-03-1.42844E-03-1.58764E-14
 -1      3478 1.34502E-02-7.32050E-03-1.73389E-13
 -1      3479 1.35270E-02-7.38222E-03-1.75720E-13
 -1      3480 1.34472E-02-7.34481E-03-1.75232E-13
 -1      3481 2.03464E-03 4.21567E-05-4.63267E-15
 -1      3482 2.13257E-03 4.38957E-06-5.02639E-15
 -1      3483 2.17978E-03-2.22355E-05-5.42275E-15
 -1      3484 2.49583E-03-1.64924E-04-8.39822E-15
 -1      3485 2.31473E-03-7.31482E-05-7.09330E-15
 -1      3486 2.16085E-03 4.07769E-06-6.21650E-15
 -1      3487 3.57284E-03-8.39093E-04-1.60471E-14
 -1      3488 3.41654E-03-7.39467E-04-1.47500E-14
 -1      3489 3.41009E-03-7.36270E-04-1.42725E-14
 -1      3490 4.30446E-03-1.21036E-03-1.38747E-14
 -1      3491 4.43839E-03-1.25765E-03-1.39984E-14
 -1      3492 1.44575E-02-7.77963E-03-1.78218E-13
 -1      3493 1.42868E-02-7.67577E-03-1.75476E-13
 -1      3494 4.64891E-03-1.34028E-03-1.50499E-14
 -1      3495 3.08767E-03-5.35441E-04-1.18574E-14
 -1      3496 2.94261E-03-4.40776E-04-1.11551E-14
 -1      3497 2.78438E-03-3.43382E-04-1.00588E-14
 -1      3498 1.63711E-03 1.89877E-04-3.61694E-15
 -1      3499 5.26552E-03-1.52321E-03-1.73589E-14
 -1      3500 1.29371E-02-7.04828E-03-1.67989E-13
 -1      3501 2.51269E-03-1.96914E-04-6.81353E-15
 -1      3502 2.61399E-03-2.59375E-04-7.32876E-15
 -1      3503 2.37544E-03-1.21660E-04-6.32610E-15
 -1      3504 1.38887E-02-7.54607E-03-1.77465E-13
 -1      3505 1.37947E-02-7.50392E-03-1.77048E-13
 -1      3506 1.36240E-02-7.40005E-03-1.74291E-13
 -1      3507 1.40000E-02-7.56864E-03-1.75920E-13
 -1      3508 1.40767E-02-7.63036E-03-1.78276E-13
 -1      3509 1.39827E-02-7.58821E-03-1.77876E-13
 -1      3510 3.88187E-03-1.03671E-03-1.87802E-14
 -1      3511 3.72807E-03-9.38179E-04-1.73912E-14
 -1      3512 3.72756E-03-9.35034E-04-1.68812E-14
 -1      3513 4.03848E-03-1.13058E-03-1.96744E-14
 -1      3514 2.12846E-03 1.05264E-05-5.87784E-15
 -1      3515 2.00866E-03 7.23039E-05-5.39777E-15
 -1      3516 1.85726E-03 1.29665E-04-4.63766E-15
 -1      3517 1.32980E-02-7.27820E-03-1.74560E-13
 -1      3518 1.31517E-02-7.18729E-03-1.72057E-13
 -1      3519 1.33777E-02-7.31562E-03-1.75052E-13
 -1      3520 1.74033E-03 1.12109E-04-3.23850E-15
 -1      3521 1.85273E-03 9.73973E-05-3.62376E-15
 -1      3522 1.89730E-03 8.64885E-05-3.92458E-15
 -1      3523 1.72390E-03 1.19256E-04-3.30366E-15
 -1      3524 3.02181E-03-5.11338E-04-8.73931E-15
 -1      3525 3.14235E-03-5.89226E-04-9.35877E-15
 -1      3526 2.88089E-03-4.25141E-04-8.44169E-15
 -1      3527 2.62665E-03-2.48584E-04-9.01514E-15
 -1      3528 2.46999E-03-1.58096E-04-8.02590E-15
 -1      3529 2.44284E-03-1.50197E-04-7.64886E-15
 -1      3530 2.76373E-03-3.36951E-04-9.64617E-15
 -1      3531 4.15727E-03-1.15188E-03-1.37336E-14
 -1      3532 4.32013E-03-1.22886E-03-1.46851E-14
 -1      3533 1.45119E-02-7.80099E-03-1.78199E-13
 -1      3534 1.46662E-02-7.88591E-03-1.79996E-13
 -1      3535 1.41420E-02-7.57690E-03-1.72340E-13
 -1      3536 1.41341E-02-7.59477E-03-1.73925E-13
 -1      3537 6.04669E-03-2.12883E-03-2.93785E-14
 -1      3538 6.18002E-03-2.22040E-03-3.11211E-14
 -1      3539 6.31512E-03-2.31299E-03-3.29008E-14
 -1      3540 6.45164E-03-2.40658E-03-3.47178E-14
 -1      3541 6.16596E-03-2.23567E-03-3.18968E-14
 -1      3542 6.58937E-03-2.50080E-03-3.65711E-14
 -1      3543 6.72807E-03-2.59560E-03-3.84612E-14
 -1      3544 6.43911E-03-2.42098E-03-3.55207E-14
 -1      3545 6.86757E-03-2.69077E-03-4.03887E-14
 -1      3546 7.00773E-03-2.78626E-03-4.23513E-14
 -1      3547 6.71633E-03-2.60922E-03-3.92916E-14
 -1      3548 7.14842E-03-2.88195E-03-4.43479E-14
 -1      3549 7.28955E-03-2.97780E-03-4.63794E-14
 -1      3550 6.99638E-03-2.79922E-03-4.32068E-14
 -1      3551 7.43102E-03-3.07374E-03-4.84450E-14
 -1      3552 7.57277E-03-3.16975E-03-5.05448E-14
 -1      3553 7.27834E-03-2.99022E-03-4.72616E-14
 -1      3554 7.71475E-03-3.26579E-03-5.26757E-14
 -1      3555 7.85692E-03-3.36184E-03-5.48377E-14
 -1      3556 7.56160E-03-3.18175E-03-5.14496E-14
 -1      3557 7.99922E-03-3.45789E-03-5.70337E-14
 -1      3558 8.14165E-03-3.55392E-03-5.92618E-14
 -1      3559 7.84573E-03-3.37352E-03-5.57656E-14
 -1      3560 8.28417E-03-3.64993E-03-6.15188E-14
 -1      3561 8.42676E-03-3.74592E-03-6.38052E-14
 -1      3562 8.13042E-03-3.56535E-03-6.02085E-14
 -1      3563 8.56941E-03-3.84188E-03-6.61217E-14
 -1      3564 8.71212E-03-3.93781E-03-6.84664E-14
 -1      3565 8.41549E-03-3.75716E-03-6.47724E-14
 -1      3566 8.85485E-03-4.03370E-03-7.08419E-14
 -1      3567 8.99762E-03-4.12957E-03-7.32419E-14
 -1      3568 8.70081E-03-3.94890E-03-6.94529E-14
 -1      3569 9.14042E-03-4.22541E-03-7.56655E-14
 -1      3570 9.28323E-03-4.32123E-03-7.81156E-14
 -1      3571 8.98629E-03-4.14056E-03-7.42412E-14
 -1      3572 9.42605E-03-4.41701E-03-8.05903E-14
 -1      3573 9.56889E-03-4.51278E-03-8.30879E-14
 -1      3574 9.27187E-03-4.33213E-03-7.91314E-14
 -1      3575 9.71173E-03-4.60853E-03-8.56084E-14
 -1      3576 9.85459E-03-4.70425E-03-8.81501E-14
 -1      3577 9.55752E-03-4.52362E-03-8.41172E-14
 -1      3578 9.99744E-03-4.79996E-03-9.07122E-14
 -1      3579 1.01403E-02-4.89566E-03-9.32946E-14
 -1      3580 9.84321E-03-4.71505E-03-8.91924E-14
 -1      3581 1.02832E-02-4.99134E-03-9.58994E-14
 -1      3582 1.04260E-02-5.08701E-03-9.85251E-14
 -1      3583 1.01289E-02-4.90642E-03-9.43529E-14
 -1      3584 1.05689E-02-5.18267E-03-1.01169E-13
 -1      3585 1.07118E-02-5.27832E-03-1.03832E-13
 -1      3586 1.04147E-02-5.09774E-03-9.95958E-14
 -1      3587 1.08546E-02-5.37396E-03-1.06514E-13
 -1      3588 1.09975E-02-5.46960E-03-1.09215E-13
 -1      3589 1.07004E-02-5.28903E-03-1.04913E-13
 -1      3590 1.11404E-02-5.56523E-03-1.11935E-13
 -1      3591 1.12832E-02-5.66085E-03-1.14675E-13
 -1      3592 1.09861E-02-5.48030E-03-1.10307E-13
 -1      3593 1.14261E-02-5.75647E-03-1.17432E-13
 -1      3594 1.15690E-02-5.85209E-03-1.20206E-13
 -1      3595 1.12719E-02-5.67155E-03-1.15776E-13
 -1      3596 1.17118E-02-5.94770E-03-1.22997E-13
 -1      3597 1.18547E-02-6.04331E-03-1.25803E-13
 -1      3598 1.15576E-02-5.86278E-03-1.21315E-13
 -1      3599 1.19976E-02-6.13892E-03-1.28624E-13
 -1      3600 1.21404E-02-6.23453E-03-1.31459E-13
 -1      3601 1.18433E-02-6.05400E-03-1.26919E-13
 -1      3602 1.22833E-02-6.33014E-03-1.34308E-13
 -1      3603 1.24262E-02-6.42574E-03-1.37169E-13
 -1      3604 1.21291E-02-6.24521E-03-1.32581E-13
 -1      3605 1.25690E-02-6.52135E-03-1.40039E-13
 -1      3606 1.27119E-02-6.61695E-03-1.42919E-13
 -1      3607 1.24148E-02-6.43643E-03-1.38293E-13
 -1      3608 1.28548E-02-6.71255E-03-1.45808E-13
 -1      3609 1.29976E-02-6.80816E-03-1.48705E-13
 -1      3610 1.27005E-02-6.62763E-03-1.44048E-13
 -1      3611 1.31405E-02-6.90376E-03-1.51611E-13
 -1      3612 1.32833E-02-6.99936E-03-1.54523E-13
 -1      3613 1.29863E-02-6.81884E-03-1.49838E-13
 -1      3614 1.34262E-02-7.09496E-03-1.57438E-13
 -1      3615 1.35691E-02-7.19057E-03-1.60360E-13
 -1      3616 1.32720E-02-7.01004E-03-1.55658E-13
 -1      3617 1.37119E-02-7.28617E-03-1.63285E-13
 -1      3618 1.38548E-02-7.38177E-03-1.66213E-13
 -1      3619 1.35577E-02-7.20125E-03-1.61496E-13
 -1      3620 1.39991E-02-7.48129E-03-1.69400E-13
 -1      3621 4.64326E-03-1.36067E-03-1.59324E-14
 -1      3622 4.81656E-03-1.41066E-03-1.61565E-14
 -1      3623 5.67110E-03-2.16743E-03-3.73087E-14
 -1      3624 5.52731E-03-2.07318E-03-3.54601E-14
 -1      3625 5.38311E-03-1.97904E-03-3.36483E-14
 -1      3626 5.23838E-03-1.88495E-03-3.18746E-14
 -1      3627 5.53974E-03-2.06434E-03-3.47650E-14
 -1      3628 6.24377E-03-2.54543E-03-4.50727E-14
 -1      3629 6.10086E-03-2.45078E-03-4.30776E-14
 -1      3630 6.52935E-03-2.73500E-03-4.91634E-14
 -1      3631 6.38659E-03-2.64017E-03-4.71008E-14
 -1      3632 6.39868E-03-2.62975E-03-4.63241E-14
 -1      3633 6.81477E-03-2.92490E-03-5.33878E-14
 -1      3634 6.67207E-03-2.82992E-03-5.12597E-14
 -1      3635 6.68399E-03-2.81931E-03-5.04563E-14
 -1      3636 7.10015E-03-3.11507E-03-5.77405E-14
 -1      3637 6.95746E-03-3.01995E-03-5.55496E-14
 -1      3638 6.96924E-03-3.00926E-03-5.47202E-14
 -1      3639 7.38556E-03-3.30546E-03-6.22117E-14
 -1      3640 7.24285E-03-3.21024E-03-5.99606E-14
 -1      3641 7.25451E-03-3.19950E-03-5.91092E-14
 -1      3642 7.67103E-03-3.49603E-03-6.67970E-14
 -1      3643 7.52829E-03-3.40073E-03-6.44908E-14
 -1      3644 7.53984E-03-3.38998E-03-6.36158E-14
 -1      3645 7.95655E-03-3.68675E-03-7.14944E-14
 -1      3646 7.81378E-03-3.59137E-03-6.91323E-14
 -1      3647 7.82527E-03-3.58063E-03-6.82353E-14
 -1      3648 8.24213E-03-3.87758E-03-7.62947E-14
 -1      3649 8.09933E-03-3.78215E-03-7.38811E-14
 -1      3650 8.11077E-03-3.77142E-03-7.29633E-14
 -1      3651 8.52776E-03-4.06851E-03-8.11998E-14
 -1      3652 8.38494E-03-3.97304E-03-7.87346E-14
 -1      3653 8.39633E-03-3.96231E-03-7.77971E-14
 -1      3654 8.81342E-03-4.25951E-03-8.62014E-14
 -1      3655 8.67059E-03-4.16400E-03-8.36899E-14
 -1      3656 8.68196E-03-4.15329E-03-8.27322E-14
 -1      3657 9.09912E-03-4.45056E-03-9.12935E-14
 -1      3658 8.95627E-03-4.35503E-03-8.87370E-14
 -1      3659 8.96762E-03-4.34433E-03-8.77635E-14
 -1      3660 9.38482E-03-4.64166E-03-9.64731E-14
 -1      3661 9.24197E-03-4.54611E-03-9.38729E-14
 -1      3662 9.25331E-03-4.53541E-03-9.28829E-14
 -1      3663 9.67055E-03-4.83279E-03-1.01731E-13
 -1      3664 9.52768E-03-4.73723E-03-9.90927E-14
 -1      3665 9.53902E-03-4.72654E-03-9.80873E-14
 -1      3666 9.95627E-03-5.02395E-03-1.07057E-13
 -1      3667 9.81341E-03-4.92837E-03-1.04385E-13
 -1      3668 9.82475E-03-4.91768E-03-1.03367E-13
 -1      3669 1.02420E-02-5.21513E-03-1.12452E-13
 -1      3670 1.00991E-02-5.11954E-03-1.09748E-13
 -1      3671 1.01105E-02-5.10885E-03-1.08717E-13
 -1      3672 1.05277E-02-5.40632E-03-1.17909E-13
 -1      3673 1.03849E-02-5.31072E-03-1.15171E-13
 -1      3674 1.03962E-02-5.30004E-03-1.14132E-13
 -1      3675 1.08135E-02-5.59751E-03-1.23419E-13
 -1      3676 1.06706E-02-5.50191E-03-1.20658E-13
 -1      3677 1.06819E-02-5.49123E-03-1.19608E-13
 -1      3678 1.10992E-02-5.78872E-03-1.28983E-13
 -1      3679 1.09563E-02-5.69311E-03-1.26195E-13
 -1      3680 1.09677E-02-5.68243E-03-1.25140E-13
 -1      3681 1.13849E-02-5.97992E-03-1.34598E-13
 -1      3682 1.12421E-02-5.88432E-03-1.31784E-13
 -1      3683 1.12534E-02-5.87364E-03-1.30723E-13
 -1      3684 1.16706E-02-6.17114E-03-1.40265E-13
 -1      3685 1.15278E-02-6.07553E-03-1.37426E-13
 -1      3686 1.15391E-02-6.06485E-03-1.36358E-13
 -1      3687 1.19564E-02-6.36235E-03-1.45980E-13
 -1      3688 1.18135E-02-6.26674E-03-1.43115E-13
 -1      3689 1.18249E-02-6.25606E-03-1.42045E-13
 -1      3690 1.22421E-02-6.55356E-03-1.51734E-13
 -1      3691 1.20992E-02-6.45795E-03-1.48852E-13
 -1      3692 1.21106E-02-6.44727E-03-1.47775E-13
 -1      3693 1.25278E-02-6.74477E-03-1.57527E-13
 -1      3694 1.23850E-02-6.64917E-03-1.54628E-13
 -1      3695 1.23963E-02-6.63848E-03-1.53547E-13
 -1      3696 1.28135E-02-6.93599E-03-1.63342E-13
 -1      3697 1.26707E-02-6.84038E-03-1.60430E-13
 -1      3698 1.26820E-02-6.82969E-03-1.59349E-13
 -1      3699 5.30993E-03-1.62223E-03-1.96818E-14
 -1      3700 5.41728E-03-1.69777E-03-2.11834E-14
 -1      3701 1.67695E-03 1.57409E-04-3.60366E-15
 -1      3702 1.72216E-03 1.36183E-04-3.64338E-15
 -1      3703 1.40416E-02-7.55334E-03-1.73554E-13
 -1      3704 1.39492E-02-7.51191E-03-1.73178E-13
 -1      3705 1.38968E-02-7.45447E-03-1.70424E-13
 -1      3706 5.95781E-03-2.35623E-03-4.11178E-14
 -1      3707 5.81458E-03-2.26177E-03-3.91942E-14
 -1      3708 5.82696E-03-2.25216E-03-3.84723E-14
 -1      3709 4.50186E-03-1.41427E-03-2.36018E-14
 -1      3710 4.35075E-03-1.31946E-03-2.20687E-14
 -1      3711 5.78665E-03-1.95046E-03-2.60122E-14
 -1      3712 5.91539E-03-2.03886E-03-2.76759E-14
 -1      3713 5.89855E-03-2.05498E-03-2.84245E-14
 -1      3714 5.53846E-03-1.78088E-03-2.28021E-14
 -1      3715 5.66073E-03-1.86451E-03-2.43870E-14
 -1      3716 5.63907E-03-1.88125E-03-2.51078E-14
 -1      3717 5.21264E-03-1.53457E-03-1.77697E-14
 -1      3718 1.30168E-02-7.08569E-03-1.68478E-13
 -1      3719 2.72317E-03-3.27751E-04-7.89230E-15
 -1      3720 2.83412E-03-3.98259E-04-8.47591E-15
 -1      3721 2.57729E-03-2.39548E-04-7.36202E-15
 -1      3722 1.33725E-02-7.25921E-03-1.71120E-13
 -1      3723 1.32928E-02-7.22180E-03-1.70640E-13
 -1      3724 2.25351E-03-5.57896E-05-6.37207E-15
 -1      3725 2.09475E-03 1.88589E-05-5.53550E-15
 -1      3726 3.96371E-03-1.05703E-03-1.28542E-14
 -1      3727 3.99560E-03-1.07888E-03-1.36337E-14
 -1      3728 3.76376E-03-9.53902E-04-1.20001E-14
 -1      3729 3.18270E-03-6.16648E-04-9.96821E-15
 -1      3730 3.33709E-03-7.10556E-04-1.03001E-14
 -1      3731 3.56638E-03-8.34775E-04-1.50547E-14
 -1      3732 3.40363E-03-7.34666E-04-1.37897E-14
 -1      3733 4.35953E-03-1.31701E-03-2.14922E-14
 -1      3734 4.19785E-03-1.22424E-03-2.05782E-14
 -1      3735 4.04313E-03-1.12825E-03-1.91308E-14
 -1      3736 1.38449E-02-7.39637E-03-1.67605E-13
 -1      3737 4.50916E-03-1.31640E-03-1.58302E-14
 -1      3738 4.68767E-03-1.39601E-03-1.69568E-14
 -1      3739 3.23903E-03-6.33598E-04-1.25734E-14
 -1      3740 3.07362E-03-5.31956E-04-1.14065E-14
 -1      3741 3.39743E-03-7.34309E-04-1.33027E-14
 -1      3742 5.16145E-03-1.54875E-03-1.83630E-14
 -1      3743 5.25068E-03-1.87720E-03-3.12097E-14
 -1      3744 5.09301E-03-1.79094E-03-3.01406E-14
 -1      3745 4.94685E-03-1.69690E-03-2.84455E-14
 -1      3746 5.38731E-03-1.71457E-03-2.18763E-14
 -1      3747 1.30086E-02-7.05359E-03-1.66399E-13
 -1      3748 1.30200E-02-7.04291E-03-1.65313E-13
 -1      3749 1.95442E-03 6.86046E-05-4.60023E-15
 -1      3750 1.84287E-03 1.01116E-04-4.00682E-15
 -1      3751 2.24943E-03-5.81334E-05-5.93346E-15
 -1      3752 2.34252E-03-1.07060E-04-6.40921E-15
 -1      3753 1.37104E-02-7.37089E-03-1.69659E-13
 -1      3754 1.38552E-02-7.46976E-03-1.72787E-13
 -1      3755 1.37612E-02-7.42762E-03-1.72389E-13
 -1      3756 1.74952E-03 1.48414E-04-4.00129E-15
 -1      3757 1.38120E-02-7.48435E-03-1.75117E-13
 -1      3758 6.11311E-03-2.44067E-03-4.23276E-14
 -1      3759 4.65147E-03-1.50864E-03-2.51766E-14
 -1      3760 4.66222E-03-1.50417E-03-2.45698E-14
 -1      3761 4.79972E-03-1.60286E-03-2.67906E-14
 -1      3762 4.94658E-03-1.45587E-03-1.67887E-14
 -1      3763 4.37625E-03-1.26499E-03-1.56729E-14
 -1      3764 1.33010E-02-7.25389E-03-1.72728E-13
 -1      3765 3.53544E-03-8.27461E-04-1.10948E-14
 -1      3766 2.41424E-03-1.40808E-04-7.26752E-15
 -1      3767 2.38538E-03-1.28868E-04-6.88074E-15
 -1      3768 2.57719E-03-2.32826E-04-8.21982E-15
 -1      3769 1.35605E-02-7.34350E-03-1.71955E-13
 -1      3770 1.34665E-02-7.30136E-03-1.71540E-13
 -1      3771 1.33090E-02-7.20266E-03-1.68793E-13
 -1      3772 2.15262E-03-1.14548E-05-5.50334E-15
 -1      3773 1.79162E-03 1.11231E-04-3.66844E-15
 -1      3774 2.02512E-03 4.43496E-05-5.06118E-15
 -1      3775 3.05307E-03-5.36349E-04-9.69675E-15
 -1      3776 3.23446E-03-6.49276E-04-1.06428E-14
 -1      3777 5.04775E-03-1.53550E-03-1.86492E-14
 -1      3778 5.98271E-03-2.33653E-03-3.96432E-14
 -1      3779 5.83966E-03-2.24267E-03-3.77480E-14
 -1      3780 4.81708E-03-1.46800E-03-1.84292E-14
 -1      3781 4.93433E-03-1.50451E-03-1.85423E-14
 -1      3782 5.16397E-03-1.60832E-03-2.01794E-14
 -1      3783 6.28794E-03-2.34177E-03-3.44763E-14
 -1      3784 6.42586E-03-2.43464E-03-3.63201E-14
 -1      3785 6.56463E-03-2.52819E-03-3.82007E-14
 -1      3786 6.70408E-03-2.62234E-03-4.01194E-14
 -1      3787 6.41226E-03-2.44757E-03-3.71170E-14
 -1      3788 6.84412E-03-2.71691E-03-4.20718E-14
 -1      3789 6.98465E-03-2.81185E-03-4.40590E-14
 -1      3790 6.69151E-03-2.63496E-03-4.09416E-14
 -1      3791 7.12559E-03-2.90703E-03-4.60824E-14
 -1      3792 7.26688E-03-3.00243E-03-4.81399E-14
 -1      3793 6.97268E-03-2.82414E-03-4.49085E-14
 -1      3794 7.40845E-03-3.09797E-03-5.02285E-14
 -1      3795 7.55026E-03-3.19362E-03-5.23495E-14
 -1      3796 7.25524E-03-3.01441E-03-4.90133E-14
 -1      3797 7.69226E-03-3.28934E-03-5.45040E-14
 -1      3798 7.83442E-03-3.38511E-03-5.66897E-14
 -1      3799 7.53878E-03-3.20533E-03-5.32468E-14
 -1      3800 7.97671E-03-3.48091E-03-5.89058E-14
 -1      3801 8.11912E-03-3.57672E-03-6.11528E-14
 -1      3802 7.82302E-03-3.39659E-03-5.76073E-14
 -1      3803 8.26161E-03-3.67254E-03-6.34299E-14
 -1      3804 8.40418E-03-3.76836E-03-6.57350E-14
 -1      3805 8.10775E-03-3.58802E-03-6.20921E-14
 -1      3806 8.54680E-03-3.86417E-03-6.80693E-14
 -1      3807 8.68948E-03-3.95997E-03-7.04325E-14
 -1      3808 8.39282E-03-3.77951E-03-6.66934E-14
 -1      3809 8.83219E-03-4.05575E-03-7.28224E-14
 -1      3810 8.97494E-03-4.15152E-03-7.52371E-14
 -1      3811 8.67812E-03-3.97100E-03-7.14065E-14
 -1      3812 9.11771E-03-4.24728E-03-7.76779E-14
 -1      3813 9.26051E-03-4.34302E-03-8.01442E-14
 -1      3814 8.96358E-03-4.16246E-03-7.62300E-14
 -1      3815 9.40332E-03-4.43874E-03-8.26324E-14
 -1      3816 9.54615E-03-4.53445E-03-8.51444E-14
 -1      3817 9.24914E-03-4.35388E-03-8.11524E-14
 -1      3818 9.68899E-03-4.63015E-03-8.76779E-14
 -1      3819 9.83183E-03-4.72583E-03-9.02330E-14
 -1      3820 9.53478E-03-4.54526E-03-8.61662E-14
 -1      3821 9.97469E-03-4.82151E-03-9.28090E-14
 -1      3822 1.01175E-02-4.91717E-03-9.54075E-14
 -1      3823 9.82046E-03-4.73661E-03-9.12702E-14
 -1      3824 1.02604E-02-5.01283E-03-9.80242E-14
 -1      3825 1.04033E-02-5.10847E-03-1.00662E-13
 -1      3826 1.01062E-02-4.92792E-03-9.64576E-14
 -1      3827 1.05461E-02-5.20411E-03-1.03319E-13
 -1      3828 1.06890E-02-5.29975E-03-1.05992E-13
 -1      3829 1.03919E-02-5.11920E-03-1.01727E-13
 -1      3830 1.08319E-02-5.39538E-03-1.08686E-13
 -1      3831 1.09747E-02-5.49100E-03-1.11398E-13
 -1      3832 1.06776E-02-5.31046E-03-1.07070E-13
 -1      3833 1.11176E-02-5.58662E-03-1.14127E-13
 -1      3834 1.12605E-02-5.68224E-03-1.16875E-13
 -1      3835 1.09634E-02-5.50170E-03-1.12484E-13
 -1      3836 1.14034E-02-5.77785E-03-1.19640E-13
 -1      3837 1.15462E-02-5.87347E-03-1.22422E-13
 -1      3838 1.12491E-02-5.69293E-03-1.17971E-13
 -1      3839 1.16891E-02-5.96908E-03-1.25220E-13
 -1      3840 1.18320E-02-6.06469E-03-1.28033E-13
 -1      3841 1.15349E-02-5.88415E-03-1.23528E-13
 -1      3842 1.19748E-02-6.16029E-03-1.30856E-13
 -1      3843 1.21177E-02-6.25590E-03-1.33696E-13
 -1      3844 1.18206E-02-6.07537E-03-1.29141E-13
 -1      3845 1.22606E-02-6.35150E-03-1.36553E-13
 -1      3846 1.24034E-02-6.44711E-03-1.39416E-13
 -1      3847 1.21063E-02-6.26658E-03-1.34813E-13
 -1      3848 1.25463E-02-6.54271E-03-1.42291E-13
 -1      3849 1.26892E-02-6.63832E-03-1.45174E-13
 -1      3850 1.23921E-02-6.45779E-03-1.40537E-13
 -1      3851 1.28320E-02-6.73392E-03-1.48067E-13
 -1      3852 1.29749E-02-6.82952E-03-1.50969E-13
 -1      3853 1.26778E-02-6.64900E-03-1.46299E-13
 -1      3854 1.31177E-02-6.92513E-03-1.53876E-13
 -1      3855 1.32606E-02-7.02073E-03-1.56790E-13
 -1      3856 1.29635E-02-6.84021E-03-1.52095E-13
 -1      3857 1.34035E-02-7.11633E-03-1.59707E-13
 -1      3858 1.35463E-02-7.21193E-03-1.62632E-13
 -1      3859 1.32492E-02-7.03141E-03-1.57919E-13
 -1      3860 1.90388E-03 9.58562E-05-4.63388E-15
 -1      3861 7.12363E-03-3.09358E-03-5.60584E-14
 -1      3862 6.98107E-03-2.99852E-03-5.38903E-14
 -1      3863 5.69633E-03-2.14908E-03-3.58895E-14
 -1      3864 5.55264E-03-2.05574E-03-3.40684E-14
 -1      3865 5.85273E-03-2.23329E-03-3.70206E-14
 -1      3866 1.37525E-02-7.35494E-03-1.67237E-13
 -1      3867 6.01513E-03-2.15895E-03-3.08999E-14
 -1      3868 6.15095E-03-2.24984E-03-3.26693E-14
 -1      3869 6.13558E-03-2.26297E-03-3.34380E-14
 -1      3870 1.37079E-02-7.40663E-03-1.72380E-13
 -1      3871 1.36138E-02-7.36449E-03-1.71974E-13
 -1      3872 1.34564E-02-7.26579E-03-1.69227E-13
 -1      3873 1.35631E-02-7.30776E-03-1.69254E-13
 -1      3874 6.83853E-03-2.90355E-03-5.17551E-14
 -1      3875 6.69600E-03-2.80868E-03-4.96523E-14
 -1      3876 6.99297E-03-2.98772E-03-5.30596E-14
 -1      3877 6.55346E-03-2.71393E-03-4.75819E-14
 -1      3878 6.41089E-03-2.61932E-03-4.55460E-14
 -1      3879 6.70811E-03-2.79800E-03-4.88467E-14
 -1      3880 7.40880E-03-3.28392E-03-6.04825E-14
 -1      3881 7.26620E-03-3.18872E-03-5.82562E-14
 -1      3882 7.27794E-03-3.17788E-03-5.73991E-14
 -1      3883 7.69409E-03-3.47450E-03-6.50240E-14
 -1      3884 7.55143E-03-3.37919E-03-6.27394E-14
 -1      3885 7.56305E-03-3.36835E-03-6.18614E-14
 -1      3886 7.97948E-03-3.66524E-03-6.96781E-14
 -1      3887 7.83677E-03-3.56985E-03-6.73364E-14
 -1      3888 7.84830E-03-3.55903E-03-6.64367E-14
 -1      3889 8.26497E-03-3.85610E-03-7.44375E-14
 -1      3890 8.12221E-03-3.76065E-03-7.20446E-14
 -1      3891 8.13368E-03-3.74986E-03-7.11235E-14
 -1      3892 8.55053E-03-4.04706E-03-7.93046E-14
 -1      3893 8.40774E-03-3.95157E-03-7.68581E-14
 -1      3894 8.41916E-03-3.94080E-03-7.59175E-14
 -1      3895 8.83615E-03-4.23808E-03-8.42702E-14
 -1      3896 8.69334E-03-4.14256E-03-8.17749E-14
 -1      3897 8.70472E-03-4.13181E-03-8.08159E-14
 -1      3898 9.12182E-03-4.42916E-03-8.93285E-14
 -1      3899 8.97898E-03-4.33361E-03-8.67883E-14
 -1      3900 8.99035E-03-4.32288E-03-8.58102E-14
 -1      3901 9.40751E-03-4.62027E-03-9.44742E-14
 -1      3902 9.26466E-03-4.52471E-03-9.18904E-14
 -1      3903 9.27602E-03-4.51400E-03-9.08971E-14
 -1      3904 9.69323E-03-4.81141E-03-9.97048E-14
 -1      3905 9.55037E-03-4.71584E-03-9.70805E-14
 -1      3906 9.56172E-03-4.70514E-03-9.60712E-14
 -1      3907 9.97895E-03-5.00258E-03-1.05007E-13
 -1      3908 9.83609E-03-4.90699E-03-1.02348E-13
 -1      3909 9.84743E-03-4.89630E-03-1.01326E-13
 -1      3910 1.02647E-02-5.19376E-03-1.10380E-13
 -1      3911 1.01218E-02-5.09817E-03-1.07684E-13
 -1      3912 1.01332E-02-5.08748E-03-1.06650E-13
 -1      3913 1.05504E-02-5.38495E-03-1.15814E-13
 -1      3914 1.04076E-02-5.28935E-03-1.13089E-13
 -1      3915 1.04189E-02-5.27867E-03-1.12043E-13
 -1      3916 1.08362E-02-5.57615E-03-1.21310E-13
 -1      3917 1.06933E-02-5.48055E-03-1.18556E-13
 -1      3918 1.07046E-02-5.46986E-03-1.17499E-13
 -1      3919 1.11219E-02-5.76735E-03-1.26864E-13
 -1      3920 1.09790E-02-5.67175E-03-1.24080E-13
 -1      3921 1.09904E-02-5.66107E-03-1.23017E-13
 -1      3922 1.14076E-02-5.95856E-03-1.32466E-13
 -1      3923 1.12648E-02-5.86295E-03-1.29657E-13
 -1      3924 1.12761E-02-5.85227E-03-1.28589E-13
 -1      3925 1.16934E-02-6.14977E-03-1.38123E-13
 -1      3926 1.15505E-02-6.05416E-03-1.35287E-13
 -1      3927 1.15618E-02-6.04348E-03-1.34211E-13
 -1      3928 1.19791E-02-6.34098E-03-1.43827E-13
 -1      3929 1.18362E-02-6.24537E-03-1.40970E-13
 -1      3930 1.18476E-02-6.23469E-03-1.39888E-13
 -1      3931 1.22648E-02-6.53219E-03-1.49574E-13
 -1      3932 1.21219E-02-6.43658E-03-1.46695E-13
 -1      3933 1.21333E-02-6.42590E-03-1.45613E-13
 -1      3934 1.25505E-02-6.72340E-03-1.55362E-13
 -1      3935 1.24077E-02-6.62780E-03-1.52464E-13
 -1      3936 1.24190E-02-6.61711E-03-1.51379E-13
 -1      3937 1.28363E-02-6.91461E-03-1.61174E-13
 -1      3938 1.26934E-02-6.81901E-03-1.58264E-13
 -1      3939 1.27048E-02-6.80832E-03-1.57176E-13
 -1      3940 1.32232E-02-7.19261E-03-1.70466E-13
 -1      3941 2.51195E-03-2.01818E-04-7.31911E-15
 -1      3942 6.26827E-03-2.52487E-03-4.35438E-14
 -1      3943 6.12556E-03-2.43059E-03-4.15753E-14
 -1      3944 6.42327E-03-2.60887E-03-4.47647E-14
 -1      3945 1.35983E-02-7.27002E-03-1.65437E-13
 -1      3946 5.48658E-03-1.81196E-03-2.42106E-14
 -1      3947 5.61602E-03-1.89571E-03-2.58236E-14
 -1      3948 5.74751E-03-1.98158E-03-2.74777E-14
 -1      3949 5.88052E-03-2.06950E-03-2.91694E-14
 -1      3950 5.59305E-03-1.90819E-03-2.65380E-14
 -1      3951 1.31702E-02-7.11744E-03-1.66507E-13
 -1      3952 1.29751E-02-6.99983E-03-1.63452E-13
 -1      3953 1.29865E-02-6.98915E-03-1.62359E-13
 -1      3954 1.32642E-02-7.15959E-03-1.66922E-13
 -1      3955 5.25943E-03-1.66717E-03-2.13597E-14
 -1      3956 5.38770E-03-1.74868E-03-2.29746E-14
 -1      3957 5.35835E-03-1.75993E-03-2.36621E-14
 -1      3958 5.15692E-03-1.63676E-03-2.12400E-14
 -1      3959 1.70744E-03 1.27425E-04-3.36256E-15
 -1      3960 3.88627E-03-1.03152E-03-1.77272E-14
 -1      3961 3.72745E-03-9.33676E-04-1.63678E-14
 -1      3962 4.04864E-03-1.12764E-03-1.85835E-14
 -1      3963 4.23333E-03-1.20430E-03-1.55512E-14
 -1      3964 4.42228E-03-1.29728E-03-1.67193E-14
 -1      3965 2.90753E-03-4.30345E-04-1.02911E-14
 -1      3966 2.74192E-03-3.30264E-04-9.22770E-15
 -1      3967 2.71965E-03-3.22154E-04-8.80512E-15
 -1      3968 3.05943E-03-5.28546E-04-1.09506E-14
 -1      3969 3.72801E-03-9.34042E-04-1.58501E-14
 -1      3970 3.58623E-03-8.58081E-04-1.18283E-14
 -1      3971 2.89645E-03-4.37126E-04-9.10079E-15
 -1      3972 3.87130E-03-1.01805E-03-1.37227E-14
 -1      3973 4.05434E-03-1.11398E-03-1.46243E-14
 -1      3974 4.11491E-03-1.14945E-03-1.56325E-14
 -1      3975 6.13825E-03-2.42055E-03-4.08214E-14
 -1      3976 4.48631E-03-1.33845E-03-1.78571E-14
 -1      3977 4.61752E-03-1.39207E-03-1.79955E-14
 -1      3978 3.56285E-03-8.37255E-04-1.40459E-14
 -1      3979 3.39266E-03-7.35556E-04-1.28114E-14
 -1      3980 3.89472E-03-1.03359E-03-1.66583E-14
 -1      3981 3.73048E-03-9.36413E-04-1.53291E-14
 -1      3982 3.73514E-03-9.40646E-04-1.48041E-14
 -1      3983 5.56611E-03-2.04738E-03-3.33685E-14
 -1      3984 5.40846E-03-1.96269E-03-3.22848E-14
 -1      3985 5.26365E-03-1.86988E-03-3.05411E-14
 -1      3986 5.86224E-03-2.08256E-03-2.99109E-14
 -1      3987 3.30460E-03-6.89350E-04-1.14333E-14
 -1      3988 3.43470E-03-7.70154E-04-1.17406E-14
 -1      3989 4.86984E-03-1.51051E-03-1.96208E-14
 -1      3990 4.95866E-03-1.69061E-03-2.78098E-14
 -1      3991 1.32981E-02-7.08487E-03-1.60458E-13
 -1      3992 1.35042E-02-7.22788E-03-1.65053E-13
 -1      3993 1.34102E-02-7.18573E-03-1.64661E-13
 -1      3994 4.82359E-03-1.59290E-03-2.55456E-14
 -1      3995 4.67426E-03-1.50075E-03-2.39597E-14
 -1      3996 4.52314E-03-1.40860E-03-2.24142E-14
 -1      3997 4.36995E-03-1.31600E-03-2.09115E-14
 -1      3998 4.68790E-03-1.49846E-03-2.33467E-14
 -1      3999 3.64154E-03-8.90823E-04-1.26669E-14
 -1      4000 2.61433E-03-2.62790E-04-7.87453E-15
 -1      4001 2.78804E-03-3.67887E-04-8.87560E-15
 -1      4002 2.99473E-03-4.95315E-04-1.01054E-14
 -1      4003 4.35704E-03-1.28038E-03-1.77005E-14
 -1      4004 4.55103E-03-1.38043E-03-1.90061E-14
 -1      4005 6.53839E-03-2.55323E-03-3.98174E-14
 -1      4006 6.67874E-03-2.64715E-03-4.17610E-14
 -1      4007 6.81948E-03-2.74146E-03-4.37415E-14
 -1      4008 6.96054E-03-2.83613E-03-4.57554E-14
 -1      4009 6.66591E-03-2.65894E-03-4.25774E-14
 -1      4010 7.10188E-03-2.93105E-03-4.78025E-14
 -1      4011 7.24345E-03-3.02619E-03-4.98818E-14
 -1      4012 6.94832E-03-2.84785E-03-4.65972E-14
 -1      4013 7.38524E-03-3.12148E-03-5.19941E-14
 -1      4014 7.52720E-03-3.21690E-03-5.41392E-14
 -1      4015 7.23159E-03-3.03778E-03-5.07484E-14
 -1      4016 7.66931E-03-3.31240E-03-5.63148E-14
 -1      4017 7.81155E-03-3.40798E-03-5.85223E-14
 -1      4018 7.51556E-03-3.22833E-03-5.50267E-14
 -1      4019 7.95390E-03-3.50360E-03-6.07599E-14
 -1      4020 8.09634E-03-3.59925E-03-6.30263E-14
 -1      4021 7.80003E-03-3.41927E-03-5.94330E-14
 -1      4022 8.23885E-03-3.69492E-03-6.53228E-14
 -1      4023 8.38143E-03-3.79061E-03-6.76471E-14
 -1      4024 8.08489E-03-3.61041E-03-6.39575E-14
 -1      4025 8.52407E-03-3.88630E-03-6.99987E-14
 -1      4026 8.66675E-03-3.98200E-03-7.23787E-14
 -1      4027 8.37002E-03-3.80166E-03-6.85971E-14
 -1      4028 8.80946E-03-4.07769E-03-7.47862E-14
 -1      4029 8.95221E-03-4.17338E-03-7.72181E-14
 -1      4030 8.65535E-03-3.99296E-03-7.33462E-14
 -1      4031 9.09498E-03-4.26906E-03-7.96747E-14
 -1      4032 9.23777E-03-4.36474E-03-8.21561E-14
 -1      4033 8.94083E-03-4.18427E-03-7.82030E-14
 -1      4034 9.38058E-03-4.46040E-03-8.46590E-14
 -1      4035 9.52341E-03-4.55607E-03-8.71852E-14
 -1      4036 9.22640E-03-4.37557E-03-8.31564E-14
 -1      4037 9.66624E-03-4.65172E-03-8.97360E-14
 -1      4038 9.80909E-03-4.74737E-03-9.23057E-14
 -1      4039 9.51204E-03-4.56686E-03-8.82029E-14
 -1      4040 9.95194E-03-4.84302E-03-9.48962E-14
 -1      4041 1.00948E-02-4.93865E-03-9.75079E-14
 -1      4042 9.79772E-03-4.75813E-03-9.33385E-14
 -1      4043 1.02377E-02-5.03429E-03-1.00138E-13
 -1      4044 1.03805E-02-5.12992E-03-1.02790E-13
 -1      4045 1.00834E-02-4.94938E-03-9.85551E-14
 -1      4046 1.05234E-02-5.22554E-03-1.05457E-13
 -1      4047 1.06663E-02-5.32116E-03-1.08144E-13
 -1      4048 1.03692E-02-5.14063E-03-1.03849E-13
 -1      4049 1.08091E-02-5.41678E-03-1.10847E-13
 -1      4050 1.09520E-02-5.51240E-03-1.13567E-13
 -1      4051 1.06549E-02-5.33186E-03-1.09214E-13
 -1      4052 1.10949E-02-5.60801E-03-1.16310E-13
 -1      4053 1.12377E-02-5.70362E-03-1.19067E-13
 -1      4054 1.09406E-02-5.52309E-03-1.14651E-13
 -1      4055 1.13806E-02-5.79923E-03-1.21840E-13
 -1      4056 1.15235E-02-5.89484E-03-1.24630E-13
 -1      4057 1.12264E-02-5.71431E-03-1.20158E-13
 -1      4058 1.16664E-02-5.99045E-03-1.27435E-13
 -1      4059 1.18092E-02-6.08605E-03-1.30250E-13
 -1      4060 1.15121E-02-5.90552E-03-1.25728E-13
 -1      4061 1.19521E-02-6.18166E-03-1.33081E-13
 -1      4062 1.20950E-02-6.27726E-03-1.35927E-13
 -1      4063 1.17979E-02-6.09674E-03-1.31355E-13
 -1      4064 1.22378E-02-6.37287E-03-1.38785E-13
 -1      4065 1.23807E-02-6.46847E-03-1.41653E-13
 -1      4066 1.20836E-02-6.28795E-03-1.37034E-13
 -1      4067 1.25236E-02-6.56408E-03-1.44531E-13
 -1      4068 1.26664E-02-6.65968E-03-1.47418E-13
 -1      4069 1.23693E-02-6.47916E-03-1.42765E-13
 -1      4070 1.28093E-02-6.75528E-03-1.50313E-13
 -1      4071 1.29522E-02-6.85089E-03-1.53216E-13
 -1      4072 1.26551E-02-6.67036E-03-1.48533E-13
 -1      4073 1.30537E-02-6.92008E-03-1.55377E-13
 -1      4074 1.31966E-02-7.01568E-03-1.58290E-13
 -1      4075 1.31025E-02-6.97353E-03-1.57906E-13
 -1      4076 1.28995E-02-6.83516E-03-1.53586E-13
 -1      4077 6.00883E-03-2.31703E-03-3.81590E-14
 -1      4078 5.86624E-03-2.22395E-03-3.62906E-14
 -1      4079 7.71724E-03-3.45278E-03-6.32432E-14
 -1      4080 7.57468E-03-3.35745E-03-6.09803E-14
 -1      4081 5.70694E-03-2.00585E-03-2.89290E-14
 -1      4082 5.84396E-03-2.09437E-03-3.06484E-14
 -1      4083 4.79061E-03-1.49654E-03-2.03131E-14
 -1      4084 4.97619E-03-1.57065E-03-2.07810E-14
 -1      4085 5.08181E-03-1.63188E-03-2.19673E-14
 -1      4086 6.86260E-03-2.88198E-03-5.01154E-14
 -1      4087 6.72031E-03-2.78725E-03-4.80367E-14
 -1      4088 8.00248E-03-3.64357E-03-6.78529E-14
 -1      4089 7.85984E-03-3.54816E-03-6.55332E-14
 -1      4090 7.87139E-03-3.53724E-03-6.46294E-14
 -1      4091 8.28785E-03-3.83450E-03-7.25747E-14
 -1      4092 8.14515E-03-3.73902E-03-7.02006E-14
 -1      4093 8.15663E-03-3.72815E-03-6.92754E-14
 -1      4094 8.57334E-03-4.02551E-03-7.74033E-14
 -1      4095 8.43058E-03-3.93000E-03-7.49768E-14
 -1      4096 8.44202E-03-3.91916E-03-7.40326E-14
 -1      4097 8.85891E-03-4.21658E-03-8.23308E-14
 -1      4098 8.71612E-03-4.12104E-03-7.98538E-14
 -1      4099 8.72752E-03-4.11025E-03-7.88924E-14
 -1      4100 9.14454E-03-4.40770E-03-8.73553E-14
 -1      4101 9.00172E-03-4.31214E-03-8.48322E-14
 -1      4102 9.01310E-03-4.30137E-03-8.38515E-14
 -1      4103 9.43022E-03-4.59885E-03-9.24707E-14
 -1      4104 9.28738E-03-4.50327E-03-8.99029E-14
 -1      4105 9.29874E-03-4.49253E-03-8.89063E-14
 -1      4106 9.71592E-03-4.79001E-03-9.76693E-14
 -1      4107 9.57307E-03-4.69443E-03-9.50584E-14
 -1      4108 9.58442E-03-4.68371E-03-9.40473E-14
 -1      4109 1.00016E-02-4.98119E-03-1.02946E-13
 -1      4110 9.85878E-03-4.88560E-03-1.00299E-13
 -1      4111 9.87013E-03-4.87489E-03-9.92702E-14
 -1      4112 1.02874E-02-5.17238E-03-1.08292E-13
 -1      4113 1.01445E-02-5.07679E-03-1.05611E-13
 -1      4114 1.01559E-02-5.06609E-03-1.04569E-13
 -1      4115 1.05731E-02-5.36358E-03-1.13709E-13
 -1      4116 1.04302E-02-5.26798E-03-1.10995E-13
 -1      4117 1.04416E-02-5.25729E-03-1.09941E-13
 -1      4118 1.08589E-02-5.55478E-03-1.19187E-13
 -1      4119 1.07160E-02-5.45918E-03-1.16440E-13
 -1      4120 1.07273E-02-5.44849E-03-1.15377E-13
 -1      4121 1.11446E-02-5.74599E-03-1.24725E-13
 -1      4122 1.10017E-02-5.65038E-03-1.21948E-13
 -1      4123 1.10131E-02-5.63970E-03-1.20878E-13
 -1      4124 1.14303E-02-5.93719E-03-1.30317E-13
 -1      4125 1.12875E-02-5.84159E-03-1.27515E-13
 -1      4126 1.12988E-02-5.83091E-03-1.26437E-13
 -1      4127 1.17161E-02-6.12840E-03-1.35964E-13
 -1      4128 1.15732E-02-6.03280E-03-1.33133E-13
 -1      4129 1.15846E-02-6.02211E-03-1.32051E-13
 -1      4130 1.20018E-02-6.31961E-03-1.41659E-13
 -1      4131 1.18589E-02-6.22401E-03-1.38805E-13
 -1      4132 1.18703E-02-6.21332E-03-1.37717E-13
 -1      4133 1.22875E-02-6.51082E-03-1.47401E-13
 -1      4134 1.21447E-02-6.41522E-03-1.44526E-13
 -1      4135 1.21560E-02-6.40453E-03-1.43434E-13
 -1      4136 1.25733E-02-6.70203E-03-1.53182E-13
 -1      4137 1.24304E-02-6.60643E-03-1.50286E-13
 -1      4138 1.24418E-02-6.59574E-03-1.49193E-13
 -1      4139 1.28590E-02-6.89324E-03-1.58989E-13
 -1      4140 1.27161E-02-6.79764E-03-1.56082E-13
 -1      4141 1.27275E-02-6.78695E-03-1.54984E-13
 -1      4142 6.57806E-03-2.69270E-03-4.59927E-14
 -1      4143 6.43581E-03-2.59836E-03-4.39817E-14
 -1      4144 6.73262E-03-2.77641E-03-4.72261E-14
 -1      4145 7.43217E-03-3.26218E-03-5.87446E-14
 -1      4146 7.28971E-03-3.16698E-03-5.65407E-14
 -1      4147 7.58634E-03-3.34650E-03-6.00962E-14
 -1      4148 4.97143E-03-1.68502E-03-2.71708E-14
 -1      4149 4.98539E-03-1.68019E-03-2.65287E-14
 -1      4150 5.11804E-03-1.77737E-03-2.88367E-14
 -1      4151 5.43474E-03-1.83378E-03-2.56050E-14
 -1      4152 5.57045E-03-1.91893E-03-2.72469E-14
 -1      4153 5.54904E-03-1.92848E-03-2.79531E-14
 -1      4154 5.98172E-03-2.18420E-03-3.24070E-14
 -1      4155 6.12004E-03-2.27521E-03-3.42035E-14
 -1      4156 5.82618E-03-2.10523E-03-3.13829E-14
 -1      4157 3.71790E-03-9.33134E-04-1.36142E-14
 -1      4158 4.21429E-03-1.22295E-03-1.94508E-14
 -1      4159 4.05602E-03-1.12881E-03-1.80320E-14
 -1      4160 4.38236E-03-1.31656E-03-2.03277E-14
 -1      4161 6.29355E-03-2.50427E-03-4.20050E-14
 -1      4162 6.15123E-03-2.41047E-03-4.00640E-14
 -1      4163 6.16452E-03-2.40033E-03-3.93041E-14
 -1      4164 6.44854E-03-2.58777E-03-4.31958E-14
 -1      4165 7.14729E-03-3.07187E-03-5.43676E-14
 -1      4166 7.00492E-03-2.97686E-03-5.22256E-14
 -1      4167 7.01693E-03-2.96592E-03-5.13891E-14
 -1      4168 6.25899E-03-2.36713E-03-3.60374E-14
 -1      4169 6.39844E-03-2.45988E-03-3.79093E-14
 -1      4170 6.10470E-03-2.28673E-03-3.49655E-14
 -1      4171 4.06567E-03-1.13190E-03-1.74777E-14
 -1      4172 4.54704E-03-1.39104E-03-1.99709E-14
 -1      4173 4.66758E-03-1.44526E-03-2.01459E-14
 -1      4174 4.78230E-03-1.51001E-03-2.13109E-14
 -1      4175 5.27746E-03-1.86301E-03-2.98698E-14
 -1      4176 3.53167E-03-8.23500E-04-1.30471E-14
 -1      4177 3.74598E-03-9.48494E-04-1.41180E-14
 -1      4178 1.33709E-02-7.20156E-03-1.66959E-13
 -1      4179 1.33175E-02-7.18057E-03-1.66942E-13
 -1      4180 1.31787E-02-7.09535E-03-1.64660E-13
 -1      4181 1.29978E-02-6.97846E-03-1.61261E-13
 -1      4182 5.14726E-03-1.76596E-03-2.75205E-14
 -1      4183 5.00098E-03-1.67592E-03-2.58841E-14
 -1      4184 5.72345E-03-2.13133E-03-3.44596E-14
 -1      4185 5.58029E-03-2.03917E-03-3.26662E-14
 -1      4186 5.88028E-03-2.21459E-03-3.55576E-14
 -1      4187 3.17048E-03-6.04071E-04-1.10757E-14
 -1      4188 3.35945E-03-7.19276E-04-1.21844E-14
 -1      4189 6.38464E-03-2.47165E-03-3.86988E-14
 -1      4190 7.30151E-03-3.15601E-03-5.56796E-14
 -1      4191 3.91637E-03-1.04524E-03-1.54145E-14
 -1      4192 5.20668E-03-1.70003E-03-2.31455E-14
 -1      4193 5.31156E-03-1.76369E-03-2.43800E-14
 -1      4194 5.28572E-03-1.77088E-03-2.50588E-14
 -1      4195 5.03174E-03-1.62968E-03-2.26526E-14
 -1      4196 3.39506E-03-7.38414E-04-1.26572E-14
 -1      4197 6.51186E-03-2.57647E-03-4.14207E-14
 -1      4198 6.65305E-03-2.67042E-03-4.33924E-14
 -1      4199 6.69890E-03-2.71796E-03-4.48964E-14
 -1      4200 6.84060E-03-2.81243E-03-4.69245E-14
 -1      4201 6.98243E-03-2.90714E-03-4.89867E-14
 -1      4202 7.12439E-03-3.00205E-03-5.10814E-14
 -1      4203 7.26646E-03-3.09711E-03-5.32078E-14
 -1      4204 7.40863E-03-3.19231E-03-5.53666E-14
 -1      4205 7.55090E-03-3.28760E-03-5.75563E-14
 -1      4206 7.69326E-03-3.38297E-03-5.97761E-14
 -1      4207 7.83569E-03-3.47840E-03-6.20266E-14
 -1      4208 7.97819E-03-3.57388E-03-6.43054E-14
 -1      4209 8.12075E-03-3.66940E-03-6.66117E-14
 -1      4210 8.26336E-03-3.76494E-03-6.89472E-14
 -1      4211 8.40601E-03-3.86051E-03-7.13088E-14
 -1      4212 8.54871E-03-3.95609E-03-7.36981E-14
 -1      4213 8.69143E-03-4.05168E-03-7.61162E-14
 -1      4214 8.83418E-03-4.14727E-03-7.85576E-14
 -1      4215 8.97696E-03-4.24288E-03-8.10221E-14
 -1      4216 9.11975E-03-4.33848E-03-8.35129E-14
 -1      4217 9.26256E-03-4.43409E-03-8.60266E-14
 -1      4218 9.40539E-03-4.52970E-03-8.85639E-14
 -1      4219 9.54822E-03-4.62531E-03-9.11236E-14
 -1      4220 9.69107E-03-4.72092E-03-9.37034E-14
 -1      4221 9.83392E-03-4.81653E-03-9.63023E-14
 -1      4222 9.97678E-03-4.91214E-03-9.89215E-14
 -1      4223 1.01196E-02-5.00775E-03-1.01560E-13
 -1      4224 1.02625E-02-5.10336E-03-1.04219E-13
 -1      4225 1.04054E-02-5.19897E-03-1.06892E-13
 -1      4226 1.05482E-02-5.29458E-03-1.09585E-13
 -1      4227 1.06911E-02-5.39018E-03-1.12295E-13
 -1      4228 1.08340E-02-5.48579E-03-1.15023E-13
 -1      4229 1.09769E-02-5.58140E-03-1.17765E-13
 -1      4230 1.11197E-02-5.67700E-03-1.20524E-13
 -1      4231 1.12626E-02-5.77261E-03-1.23299E-13
 -1      4232 1.14055E-02-5.86822E-03-1.26089E-13
 -1      4233 1.15483E-02-5.96382E-03-1.28893E-13
 -1      4234 1.16912E-02-6.05943E-03-1.31708E-13
 -1      4235 1.18341E-02-6.15503E-03-1.34539E-13
 -1      4236 1.19769E-02-6.25064E-03-1.37383E-13
 -1      4237 1.21198E-02-6.34624E-03-1.40241E-13
 -1      4238 1.22627E-02-6.44184E-03-1.43107E-13
 -1      4239 1.24055E-02-6.53745E-03-1.45984E-13
 -1      4240 1.25484E-02-6.63305E-03-1.48871E-13
 -1      4241 5.43668E-03-1.94755E-03-3.09115E-14
 -1      4242 5.29238E-03-1.85645E-03-2.91970E-14
 -1      4243 5.30860E-03-1.85019E-03-2.85202E-14
 -1      4244 6.13351E-03-2.34379E-03-3.71268E-14
 -1      4245 6.27466E-03-2.43663E-03-3.90155E-14
 -1      4246 1.34562E-02-7.23128E-03-1.66696E-13
 -1      4247 1.34028E-02-7.21030E-03-1.66686E-13
 -1      4248 1.26913E-02-6.72866E-03-1.51765E-13
 -1      4249 5.01849E-03-1.67225E-03-2.52364E-14
 -1      4250 4.85332E-03-1.58643E-03-2.42871E-14
 -1      4251 5.18291E-03-1.75594E-03-2.61937E-14
 -1      4252 5.03839E-03-1.66881E-03-2.45857E-14
 -1      4253 4.70381E-03-1.49710E-03-2.27303E-14
 -1      4254 1.32500E-02-7.08827E-03-1.62103E-13
 -1      4255 5.66893E-03-2.02560E-03-3.03664E-14
 -1      4256 5.80895E-03-2.11530E-03-3.21146E-14
 -1      4257 4.15755E-03-1.17520E-03-1.64278E-14
 -1      4258 4.23261E-03-1.21946E-03-1.75305E-14
 -1      4259 1.30512E-02-6.99945E-03-1.61279E-13
 -1      4260 4.59817E-03-1.43259E-03-2.14778E-14
 -1      4261 4.44462E-03-1.34361E-03-1.99962E-14
 -1      4262 5.85142E-03-2.16007E-03-3.34618E-14
 -1      4263 5.99242E-03-2.25157E-03-3.52749E-14
 -1      4264 1.32640E-02-7.12508E-03-1.64407E-13
 -1      4265 4.76845E-03-1.52062E-03-2.23784E-14
 -1      4266 4.32361E-03-1.27450E-03-1.88653E-14
 -1      4267 3.22925E-03-6.34040E-04-1.19539E-14
 -1      4268 5.18081E-03-1.72531E-03-2.46821E-14
 -1      4269 5.30774E-03-1.79734E-03-2.59130E-14
 -1      4270 6.26103E-03-2.44727E-03-3.97900E-14
 -1      4271 1.30830E-02-6.98279E-03-1.59150E-13
 -1      4272 1.31289E-02-7.02834E-03-1.61175E-13
 -1      4273 5.59534E-03-2.03105E-03-3.19619E-14
 -1      4274 1.27758E-02-6.79859E-03-1.54459E-13
 -1      4275 1.28825E-02-6.83590E-03-1.54132E-13
 -1      4276 3.05808E-03-5.29654E-04-1.08072E-14
 -1      4277 5.31593E-03-1.82058E-03-2.68751E-14
 -1      4278 5.41830E-03-1.86671E-03-2.72717E-14
 -1      4279 5.55828E-03-1.95414E-03-2.89492E-14
 -1      4280 5.29632E-03-1.82659E-03-2.75539E-14
 -1      4281 5.43928E-03-1.91549E-03-2.92333E-14
 -1      4282 1.29161E-02-6.90271E-03-1.58058E-13
 -1      4283 1.27733E-02-6.80710E-03-1.55151E-13
 -1      4284 5.53964E-03-1.96237E-03-2.96528E-14
 -1      4285 6.54451E-03-2.63478E-03-4.37010E-14
 -1      4286 4.13014E-03-1.16713E-03-1.75564E-14
 -1      4287 3.98628E-03-1.08320E-03-1.54784E-14
 -1      4288 1.30970E-02-7.01959E-03-1.61448E-13
 -1      4289 4.84934E-03-1.55704E-03-2.25330E-14
 -1      4290 4.96512E-03-1.60624E-03-2.27177E-14
 -1      4291 6.40275E-03-2.54084E-03-4.17275E-14
 -1      4292 5.09460E-03-1.67783E-03-2.39105E-14
 -1      4293 1.30856E-02-6.97428E-03-1.58453E-13
 -1      4294 1.29645E-02-6.91434E-03-1.57530E-13
 -1      4295 1.29840E-02-6.90509E-03-1.56290E-13
 -1      4296 5.69412E-03-2.07826E-03-3.24041E-14
 -1      4297 5.55195E-03-1.98772E-03-3.06529E-14
 -1      4298 3.96681E-03-1.07410E-03-1.61927E-14
 -1      4299 4.95069E-03-1.61989E-03-2.38148E-14
 -1      4300 5.11745E-03-1.70278E-03-2.47442E-14
 -3
    1PSTEP                         2           1           1          
  100CL  101 1.000000000        4300                     0    1           1
 -4  STRESS      6    1
 -5  SXX         1    4    1    1
 -5  SYY         1    4    2    2
 -5  SZZ         1    4    3    3
 -5  SXY         1    4    1    2
 -5  SYZ         1    4    2    3
 -5  SZX         1    4    3    1
 -1         1-3.37484E+00-8.18390E+00-3.56923E+00-4.50242E+00-6.81843E-12-4.52305E-12
 -1         2-6.94175E-01-2.51519E+01-3.44743E+00 7.19690E-02 8.27061E-13 1.01610E-13
 -1         3 1.99998E+01 6.73759E-07-4.75942E-06 7.12149E-07-5.54479E-13-8.92280E-13
 -1         4 1.99998E+01 1.15276E-06-4.36715E-06-8.14260E-07-2.37223E-14-6.33304E-14
 -1         5 3.14277E+01 5.84872E+00 2.80078E+00 6.38815E+00-7.02216E-14 5.56866E-12
 -1         6 5.11441E+01 1.72366E+01 6.31081E+00-9.59456E+00-2.86882E-13 3.50217E-12
 -1         7 3.05594E+01 8.83419E+00 3.90362E-01-1.84368E+00-4.88498E-15 4.63088E-13
 -1         8 2.06255E+01 6.27776E+00-8.85628E-03 6.54984E-01 9.93650E-15-5.23056E-13
 -1         9 1.24872E+01 3.95695E+00-4.18047E-01 1.48537E-01 1.82909E-14-1.06445E-12
 -1        10 8.40264E+00 2.75978E+00-5.70538E-01-2.02533E+00-1.47382E-14-1.28040E-12
 -1        11 8.79391E+00 2.80997E+00-4.39264E-01-3.97267E+00-4.54983E-14-1.33395E-12
 -1        12 1.18432E+01 3.66213E+00-1.28569E-01-5.05947E+00-6.50036E-14-1.34267E-12
 -1        13 1.65572E+01 4.98576E+00 2.03233E-01-4.73454E+00-6.30052E-14-1.34315E-12
 -1        14 2.02648E+01 6.05034E+00 3.46234E-01-3.21704E+00-4.68792E-14-1.33079E-12
 -1        15 2.22070E+01 6.62415E+00 3.26718E-01-1.36051E+00-2.01436E-14-1.34795E-12
 -1        16 2.26905E+01 6.77976E+00 2.42230E-01 2.77933E-01-7.34829E-15-1.35549E-12
 -1        17 2.22838E+01 6.67431E+00 1.61241E-01 1.53262E+00 9.79772E-15-1.34116E-12
 -1        18 2.14610E+01 6.44165E+00 1.04445E-01 2.44336E+00 2.79499E-14-1.25214E-12
 -1        19 2.04836E+01 6.16190E+00 6.56982E-02 3.15070E+00 4.63726E-14-1.04903E-12
 -1        20 1.95786E+01 5.90666E+00 3.29346E-02 3.74562E+00 5.98202E-14-6.21863E-13
 -1        21 1.90168E+01 5.77012E+00-6.08505E-03 4.33184E+00 7.54830E-14 1.99511E-13
 -1        22 1.97206E+01 6.00238E+00 5.00420E-02 5.17992E+00 1.21708E-14 1.87452E-12
 -1        23 4.28922E+01-2.09171E+00-9.77245E-01-2.40311E-05-1.42122E-13 2.91480E-12
 -1        24 4.30674E+01-8.58136E-03 1.72080E-01 2.95591E-01-8.47095E-15 2.92419E-12
 -1        25 4.26790E+01 8.61610E-02 7.05845E-01-2.39278E-01 2.71189E-14 3.13941E-12
 -1        26 3.55952E+01 8.23416E-02 1.41738E-01-1.29973E+00 3.70663E-14 3.12902E-12
 -1        27 2.47209E+01 2.82973E-02-1.35679E+00-1.32875E+00-6.68285E-14 2.09333E-12
 -1        28 1.66243E+01-1.76575E-01-2.67461E+00-2.88736E-01-1.72508E-13-1.62273E-13
 -1        29 1.91673E+01-1.48466E-01-2.05327E+00 9.56870E-01-8.38912E-14-2.81769E-12
 -1        30 2.80629E+01-2.14476E-02-5.26421E-01 1.13165E+00 5.64652E-16-3.64769E-12
 -1        31 3.65965E+01 9.67876E-02 6.08466E-01 5.58272E-01 6.19279E-14-3.50672E-12
 -1        32 3.84482E+01 9.06314E-02 5.67803E-01-4.05375E-02 2.95441E-14-2.54717E-12
 -1        33 3.52518E+01 3.43171E-02 1.69929E-01-2.01029E-01 1.49601E-14-1.84350E-12
 -1        34 3.09346E+01-1.45422E-02-5.68534E-02-1.65023E-01 1.15476E-14-1.31282E-12
 -1        35 2.72958E+01-3.21457E-02-1.09104E-01-1.00869E-01-9.44926E-15-1.35201E-12
 -1        36 2.46937E+01-3.15479E-02-9.03192E-02-5.43862E-02-4.12274E-14-1.33103E-12
 -1        37 2.29652E+01-2.48766E-02-6.01891E-02-2.73727E-02-3.18391E-14-1.52901E-12
 -1        38 2.18565E+01-1.77949E-02-3.68860E-02-1.30730E-02 7.33615E-14-1.50092E-12
 -1        39 2.11568E+01-1.21185E-02-2.19384E-02-5.86962E-03-5.77591E-14-1.39053E-12
 -1        40 2.07181E+01-8.04232E-03-1.29711E-02-2.36961E-03 9.87310E-14-1.43602E-12
 -1        41 2.04434E+01-5.26771E-03-7.69913E-03-7.34927E-04-9.09112E-14-1.48772E-12
 -1        42 2.02712E+01-3.43108E-03-4.60340E-03-1.64854E-05-3.49950E-14-1.87731E-12
 -1        43 2.01631E+01-2.23275E-03-2.77535E-03 2.64029E-04 2.30471E-14-1.89770E-12
 -1        44 2.00952E+01-1.45589E-03-1.68747E-03 3.43479E-04-1.46224E-13-2.15794E-12
 -1        45 2.00526E+01-9.52856E-04-1.03434E-03 3.36851E-04 4.23022E-14-2.38360E-12
 -1        46 2.00260E+01-6.26298E-04-6.38244E-04 2.98346E-04 7.85532E-14-2.11821E-12
 -1        47 2.00097E+01-4.13173E-04-3.95218E-04 2.52274E-04-2.63493E-15-1.63111E-12
 -1        48 2.00000E+01-2.73065E-04-2.44160E-04 2.08582E-04 1.76801E-14-1.49499E-12
 -1        49 1.99945E+01-1.80195E-04-1.49005E-04 1.70587E-04-1.47857E-14-1.44908E-12
 -1        50 1.99917E+01-1.18130E-04-8.83448E-05 1.38756E-04-2.35759E-15-1.57757E-12
 -1        51 1.99906E+01-7.63690E-05-4.93609E-05 1.12491E-04 1.71214E-14-1.38903E-12
 -1        52 1.99905E+01-4.81557E-05-2.42744E-05 9.09145E-05-3.99990E-14-1.49269E-12
 -1        53 1.99910E+01-2.90969E-05-8.27713E-06 7.31904E-05-6.18956E-14-1.32780E-12
 -1        54 1.99919E+01-1.62970E-05 1.67431E-06 5.86164E-05 1.60378E-14-1.00582E-12
 -1        55 1.99929E+01-7.81581E-06 7.56004E-06 4.66331E-05 7.89328E-14-1.06179E-12
 -1        56 1.99940E+01-2.33009E-06 1.07052E-05 3.67993E-05 3.43190E-15-5.94146E-13
 -1        57 1.99949E+01 1.07782E-06 1.20192E-05 2.87631E-05 4.47276E-14-3.20181E-13
 -1        58 1.99958E+01 3.05354E-06 1.21379E-05 2.22372E-05 9.27637E-15-2.69760E-13
 -1        59 1.99966E+01 4.05589E-06 1.15101E-05 1.69814E-05 3.46917E-14-6.20015E-13
 -1        60 1.99973E+01 4.41248E-06 1.04521E-05 1.27903E-05-3.43687E-14-1.38451E-12
 -1        61 1.99979E+01 4.35705E-06 9.18478E-06 9.48697E-06-9.53569E-16-8.71313E-13
 -1        62 1.99983E+01 4.05523E-06 7.85846E-06 6.91757E-06-1.81154E-13-1.02951E-12
 -1        63 1.99987E+01 3.62287E-06 6.57206E-06 4.94922E-06-4.99727E-14-1.85769E-12
 -1        64 1.99990E+01 3.13963E-06 5.38745E-06 3.46773E-06 1.94678E-13-1.52032E-12
 -1        65 1.99992E+01 2.65923E-06 4.34165E-06 2.37575E-06-6.85341E-15-3.21973E-13
 -1        66 1.99994E+01 2.21711E-06 3.45720E-06 1.59000E-06-8.28082E-15-4.39133E-13
 -1        67 1.99996E+01 1.83603E-06 2.75335E-06 1.03671E-06-1.53161E-15-3.61867E-13
 -1        68 1.99997E+01 1.52927E-06 2.25577E-06 6.45060E-07-5.01077E-14-5.85071E-13
 -1        69 1.99997E+01 1.29868E-06 1.99528E-06 3.34988E-07 5.26530E-15-2.22754E-13
 -1        70 1.99998E+01 1.11876E-06 1.93550E-06-1.74281E-08 1.03013E-13-1.75161E-13
 -1        71 1.99998E+01 9.42628E-07 1.67847E-06-5.98789E-07 3.17393E-14-1.08114E-13
 -1        72 1.99998E+01 2.15389E-07-4.37772E-07-2.00862E-06-2.49538E-14-6.70597E-13
 -1        73 1.86261E+01-3.97736E-01-9.69325E-01-1.98011E-01 6.81052E-14 5.13029E-12
 -1        74 1.59159E+01-7.78607E-02-3.24413E-01-2.44875E-02 4.80683E-14 3.98470E-12
 -1        75 1.46625E+01-3.21421E-02-8.92588E-02-5.97305E-04 1.71625E-14 3.14037E-12
 -1        76 1.40865E+01-2.18852E-02-3.21038E-02 1.54326E-04-6.24023E-15 2.63416E-12
 -1        77 1.39714E+01-1.66092E-02-2.35770E-02-2.95223E-03 1.60710E-14 2.18779E-12
 -1        78 1.42304E+01-1.20365E-02-2.14939E-02-9.60753E-03 1.14983E-14 1.89247E-12
 -1        79 1.47981E+01-7.19052E-03-1.60245E-02-1.78580E-02 3.79839E-15 1.63697E-12
 -1        80 1.55861E+01-2.29732E-03-7.27481E-03-2.46950E-02 6.21985E-15 1.38242E-12
 -1        81 1.64843E+01 1.93278E-03 2.15915E-03-2.80662E-02-1.65531E-16 1.22043E-12
 -1        82 1.73816E+01 4.90549E-03 9.72823E-03-2.75059E-02-9.45138E-15 1.14662E-12
 -1        83 1.81888E+01 6.42142E-03 1.40697E-02-2.38732E-02 4.11078E-14 1.03523E-12
 -1        84 1.88524E+01 6.65774E-03 1.51499E-02-1.86298E-02-1.77496E-14 8.07649E-13
 -1        85 1.93543E+01 6.00400E-03 1.38095E-02-1.31529E-02 2.73875E-15 7.49741E-13
 -1        86 1.97039E+01 4.88512E-03 1.11631E-02-8.36477E-03 1.36216E-14 6.45642E-13
 -1        87 1.99264E+01 3.64593E-03 8.16660E-03-4.68114E-03 7.25941E-15 7.13822E-13
 -1        88 2.00525E+01 2.50880E-03 5.43800E-03-2.13770E-03 9.28906E-15 5.89888E-13
 -1        89 2.01118E+01 1.58247E-03 3.26625E-03-5.60017E-04-1.48403E-14 5.21614E-13
 -1        90 2.01285E+01 8.93671E-04 1.70665E-03 2.99488E-04-2.66261E-14 4.25245E-13
 -1        91 2.01210E+01 4.21221E-04 6.85567E-04 6.78648E-04 9.04551E-15 2.94224E-13
 -1        92 2.01020E+01 1.22864E-04 7.99728E-05 7.68409E-04 2.32080E-14 2.82791E-14
 -1        93 2.00792E+01-4.74864E-05-2.34893E-04 7.04829E-04 9.94874E-17 1.00393E-13
 -1        94 2.00573E+01-1.30694E-04-3.63203E-04 5.75760E-04 2.11512E-14 2.78890E-13
 -1        95 2.00384E+01-1.58966E-04-3.82339E-04 4.32605E-04 2.29424E-14 3.49847E-13
 -1        96 2.00234E+01-1.55629E-04-3.44975E-04 3.01912E-04-5.69435E-14 7.34679E-13
 -1        97 2.00122E+01-1.36413E-04-2.84268E-04 1.94689E-04-4.30261E-15 1.01652E-12
 -1        98 2.00042E+01-1.11203E-04-2.19395E-04 1.13079E-04 2.85084E-14 8.73242E-13
 -1        99 1.99990E+01-8.57175E-05-1.60239E-04 5.47479E-05 1.05066E-13 4.80034E-13
 -1       100 1.99958E+01-6.28952E-05-1.10934E-04 1.55604E-05-5.86352E-14 2.35737E-14
 -1       101 1.99941E+01-4.39332E-05-7.23235E-05-8.92860E-06 3.03816E-14 3.89385E-13
 -1       102 1.99935E+01-2.90176E-05-4.35633E-05-2.27403E-05 4.90117E-14 2.73417E-14
 -1       103 1.99935E+01-1.78059E-05-2.30948E-05-2.91854E-05-6.10101E-14 5.43821E-14
 -1       104 1.99939E+01-9.72670E-06-9.19768E-06-3.08217E-05 4.02199E-14 3.13249E-13
 -1       105 1.99946E+01-4.15528E-06-2.71665E-07-2.95296E-05 1.25514E-13 2.06521E-13
 -1       106 1.99953E+01-5.06339E-07 5.04227E-06-2.66312E-05 4.45202E-14-6.15044E-14
 -1       107 1.99961E+01 1.72386E-06 7.83224E-06-2.30158E-05-3.22252E-14-1.77016E-13
 -1       108 1.99968E+01 2.94517E-06 8.93189E-06-1.92515E-05-1.27074E-13 2.88916E-13
 -1       109 1.99974E+01 3.47726E-06 8.95702E-06-1.56773E-05 1.25053E-14 5.68920E-13
 -1       110 1.99979E+01 3.56094E-06 8.34758E-06-1.24752E-05 3.36233E-14 3.76126E-13
 -1       111 1.99984E+01 3.37203E-06 7.40750E-06-9.72370E-06 4.05886E-14 3.26002E-13
 -1       112 1.99987E+01 3.03510E-06 6.33933E-06-7.43637E-06-1.82793E-14 3.06292E-13
 -1       113 1.99990E+01 2.63584E-06 5.27267E-06-5.58914E-06 7.47446E-14 1.02584E-13
 -1       114 1.99992E+01 2.23136E-06 4.28679E-06-4.13820E-06 2.38076E-14-1.42730E-13
 -1       115 1.99994E+01 1.85854E-06 3.42971E-06-3.03110E-06-1.61204E-13-2.94504E-13
 -1       116 1.99996E+01 1.54040E-06 2.73586E-06-2.21285E-06 2.97972E-15-2.29309E-13
 -1       117 1.99997E+01 1.28940E-06 2.24199E-06-1.62427E-06 7.62379E-15-3.91943E-13
 -1       118 1.99997E+01 1.10186E-06 1.98887E-06-1.17996E-06 2.51164E-14-6.74133E-13
 -1       119 1.99998E+01 9.32311E-07 1.95724E-06-7.41957E-07-1.11201E-13-3.66983E-13
 -1       120 1.99998E+01 6.14021E-07 1.66115E-06 6.21050E-08 1.23026E-13-3.59379E-13
 -1       121 1.99998E+01-7.23378E-07-6.31678E-07 1.68708E-06 2.64875E-13-1.02313E-12
 -1       122 1.99998E+01 5.60596E-06-3.86110E-07 2.26036E-06-5.60493E-13 5.54171E-13
 -1       123 1.99998E+01 2.49132E-06 1.82700E-06 5.18306E-07 3.93990E-13 7.83519E-14
 -1       124 1.99998E+01-2.27030E-05 1.62155E-06-8.32331E-07 4.35759E-13-8.99893E-14
 -1       125 1.99998E+01-6.34204E-05 7.25514E-07-1.41639E-06 1.25947E-13 1.41022E-13
 -1       126 1.99998E+01-1.10691E-04-1.49432E-07-1.57464E-06 9.38076E-13 2.54722E-15
 -1       127 1.99998E+01-1.54887E-04-8.81612E-07-1.38813E-06 5.51460E-13 1.92164E-13
 -1       128 1.99998E+01-1.89601E-04-1.40161E-06-9.30747E-07-1.42772E-13 1.05861E-13
 -1       129 1.99998E+01-2.08296E-04-1.66915E-06-3.18055E-07-1.19227E-12 1.26439E-13
 -1       130 1.99998E+01-2.07973E-04-1.66404E-06 3.44509E-07-5.35726E-13 3.97685E-14
 -1       131 1.99998E+01-1.88686E-04-1.38735E-06 9.51143E-07-2.79282E-13-1.73716E-13
 -1       132 1.99998E+01-1.53546E-04-8.54313E-07 1.40999E-06-1.25027E-12-1.42444E-13
 -1       133 1.99998E+01-1.09152E-04-1.22350E-07 1.58030E-06-1.76658E-12 2.87000E-13
 -1       134 1.99998E+01-6.18969E-05 7.69963E-07 1.41085E-06-1.83375E-12-1.79905E-14
 -1       135 1.99998E+01-2.16077E-05 1.60424E-06 7.63672E-07-9.71245E-13 7.78539E-14
 -1       136 1.99998E+01 3.16828E-06 1.72213E-06-7.29340E-07-6.49719E-14 1.98056E-13
 -1       137 1.99998E+01 7.52443E-06-1.22825E-07-2.21644E-06 1.10476E-12 1.28789E-13
 -1       138-1.30759E+00-1.76365E+01-2.89440E+00-3.31905E+00 3.37963E-12 7.27973E-13
 -1       139-3.88611E-01-3.86428E+00-1.84960E+00-8.61155E-01 4.67987E-12 2.32947E-12
 -1       140 5.91824E+00 7.54727E+00-5.58502E-01 6.84084E+00 4.60748E-12 3.56798E-12
 -1       141 2.20968E+01 1.29832E+01 9.88325E-01 1.66683E+01 3.18118E-12 3.80929E-12
 -1       142 4.25715E+01 1.02105E+01 2.27603E+00 2.02165E+01 1.49744E-12 2.81730E-12
 -1       143 6.02758E+01 4.24137E+00 3.10308E+00 1.44908E+01 2.39309E-13 7.28029E-13
 -1       144 6.79316E+01 8.04669E-01 3.31721E+00 1.91654E+00-4.44089E-16-2.10357E-12
 -1       145 6.19856E+01 2.86116E+00 2.88143E+00-1.13399E+01 9.53862E-13-4.57495E-12
 -1       146 4.42054E+01 8.56644E+00 1.84651E+00-1.86420E+01 2.76565E-12-6.06615E-12
 -1       147 2.42440E+01 1.25737E+01 6.38971E-01-1.72495E+01 4.56929E-12-6.08813E-12
 -1       148 8.99220E+00 1.09878E+01-4.52518E-01-1.00609E+01 5.54157E-12-4.74282E-12
 -1       149 1.28104E+00 3.65707E+00-1.17098E+00-2.48001E+00 5.02431E-12-2.66853E-12
 -1       150-4.99890E-01-5.57718E+00-1.61938E+00 1.13092E+00 3.20033E-12-9.43703E-13
 -1       151-4.16170E-01-1.40077E+01-2.11351E+00 4.98896E-01 3.57020E-13-8.63482E-14
 -1       152-1.07856E+00-1.87514E+01-2.84873E+00-3.09609E+00-2.94376E-12-5.37390E-13
 -1       153-3.07256E+00-1.65673E+01-3.52212E+00-6.18855E+00-5.54640E-12-2.22335E-12
 -1       154 3.94571E+00 2.08825E+00-2.48156E+00 3.46397E+00-6.49991E-12-6.60355E-12
 -1       155 2.33934E+01 7.95710E+00-1.25009E-01 1.37089E+01-4.93622E-12-7.62512E-12
 -1       156 5.26327E+01 7.09459E+00 3.10350E+00 1.82273E+01-2.61474E-12-6.70719E-12
 -1       157 7.87781E+01 2.83732E+00 5.98455E+00 1.09809E+01-7.24500E-13-3.69932E-12
 -1       158 8.63345E+01 2.04798E+00 6.87872E+00-5.00926E+00-2.07549E-13 6.13058E-13
 -1       159 6.90676E+01 6.24030E+00 5.01786E+00-1.83333E+01-1.38306E-12 4.33376E-12
 -1       160 4.04583E+01 1.06287E+01 2.05813E+00-2.02262E+01-3.21843E-12 5.97289E-12
 -1       161 1.51279E+01 9.15318E+00-6.20433E-01-1.19244E+01-4.88354E-12 5.77971E-12
 -1       162 1.24022E+00 5.02089E-02-2.33511E+00-1.34344E+00-5.43776E-12 4.21035E-12
 -1       163-2.83514E+00-1.31040E+01-3.25188E+00 5.10806E+00-4.49762E-12 2.15744E-12
 -1       164-1.73264E+00-2.33940E+01-3.58048E+00 4.69656E+00-2.25470E-12 6.02619E-13
 -1       165 2.70222E+01 3.86318E+00-1.33364E-02-3.40322E-01 2.07542E-14 1.44100E-13
 -1       166 1.58732E+01 4.95477E+00-9.89649E-03 2.62021E-01 1.64729E-13-7.19792E-13
 -1       167 8.05706E+00 5.76476E+00 1.37322E-02-1.17459E+00-3.36051E-14-1.23725E-12
 -1       168 6.22463E+00 5.56544E+00 2.28061E-02-3.29856E+00-3.69247E-13-1.39807E-12
 -1       169 8.82439E+00 4.57196E+00 2.73772E-02-4.91057E+00-6.71744E-13-1.34963E-12
 -1       170 1.46744E+01 3.35011E+00 2.35170E-02-5.07279E+00-8.04894E-13-1.18452E-12
 -1       171 2.00128E+01 2.87443E+00 5.44430E-03-3.64027E+00-6.85722E-13-1.05398E-12
 -1       172 2.30162E+01 3.28801E+00-4.49339E-03-1.72971E+00-4.24690E-13-1.01309E-12
 -1       173 2.39154E+01 4.02299E+00-1.45049E-02-8.10866E-02-1.60035E-13-1.03053E-12
 -1       174 2.35601E+01 4.62170E+00-2.09059E-02 1.13799E+00 8.77735E-14-1.03454E-12
 -1       175 2.26517E+01 4.92319E+00-2.41890E-02 2.00186E+00 2.96728E-13-1.00821E-12
 -1       176 2.15584E+01 4.95396E+00-2.72443E-02 2.67319E+00 4.89020E-13-8.85047E-13
 -1       177 2.05243E+01 4.77295E+00-3.42469E-02 3.24670E+00 6.60181E-13-6.26469E-13
 -1       178 1.97657E+01 4.40805E+00-5.01979E-02 3.80957E+00 7.53071E-13-1.04394E-13
 -1       179 1.97705E+01 3.64242E+00-6.69685E-02 4.36647E+00 7.11884E-13 9.14456E-13
 -1       180 2.03833E+01 1.34497E+00-3.40099E-01 3.68029E+00 5.33758E-13 2.26265E-12
 -1       181 3.50032E+01 4.38913E-01 4.08427E-02 4.39384E-01 7.25531E-14 1.25812E-12
 -1       182 3.53838E+01-1.26707E+00 9.84536E-02 1.02635E-01 1.90759E-13 1.49941E-12
 -1       183 3.63299E+01-2.39469E+00 2.31104E-02-3.28984E+00-8.53727E-14 1.55453E-12
 -1       184 3.70514E+01-1.08972E+00-5.52581E-02-6.34940E+00-8.80407E-13 1.16185E-12
 -1       185 3.27422E+01 3.04553E+00-5.81450E-01 1.21079E+00-1.74716E-12-9.16328E-13
 -1       186 3.34988E+01 8.25895E-01-3.27713E-01 5.02592E+00-8.20899E-13-1.78806E-12
 -1       187 3.41939E+01-1.60847E+00-5.65910E-02 3.99596E+00 4.51202E-14-2.14344E-12
 -1       188 3.31788E+01-1.45053E+00 8.74533E-02 1.52801E-01 5.18009E-13-1.92953E-12
 -1       189 3.09356E+01-4.68981E-01 5.48867E-02-2.20673E+00 4.12483E-13-1.47313E-12
 -1       190 2.83818E+01 7.22260E-02 5.43082E-03-2.65736E+00 3.49387E-13-1.09871E-12
 -1       191 2.60653E+01 2.23065E-01-9.02624E-03-2.22759E+00 2.48360E-14-8.55984E-13
 -1       192 2.42169E+01 2.09674E-01-5.33103E-03-1.61674E+00 3.26354E-14-7.28025E-13
 -1       193 2.28551E+01 1.55465E-01-3.60543E-05-1.09504E+00-1.13545E-13-6.07192E-13
 -1       194 2.19008E+01 1.04891E-01 2.54290E-03-7.16376E-01 2.22088E-14-5.94121E-13
 -1       195 2.12522E+01 6.77608E-02 3.00312E-03-4.60719E-01-1.61607E-14-6.66702E-13
 -1       196 2.08192E+01 4.29017E-02 2.55520E-03-2.94078E-01-9.02360E-15-7.17643E-13
 -1       197 2.05331E+01 2.69401E-02 1.90949E-03-1.87278E-01-1.89930E-13-8.17567E-13
 -1       198 2.03448E+01 1.68895E-02 1.34179E-03-1.19308E-01-1.77302E-13-7.58537E-13
 -1       199 2.02212E+01 1.06128E-02 9.14905E-04-7.61046E-02-1.30928E-13-9.06380E-13
 -1       200 2.01401E+01 6.69992E-03 6.15045E-04-4.85807E-02-1.32027E-13-1.05217E-12
 -1       201 2.00870E+01 4.25505E-03 4.11116E-04-3.09680E-02-7.02175E-14-1.06498E-12
 -1       202 2.00522E+01 2.71927E-03 2.74524E-04-1.96355E-02 1.26632E-13-9.08388E-13
 -1       203 2.00296E+01 1.74706E-03 1.83600E-04-1.23037E-02 3.30494E-13-7.69627E-13
 -1       204 2.00151E+01 1.12565E-03 1.23126E-04-7.54017E-03-2.54013E-14-6.39050E-13
 -1       205 2.00059E+01 7.24193E-04 8.28024E-05-4.44068E-03-6.60470E-15-6.36738E-13
 -1       206 2.00003E+01 4.62060E-04 5.57823E-05-2.43024E-03-4.56329E-14-7.40896E-13
 -1       207 1.99970E+01 2.89351E-04 3.75635E-05-1.13928E-03 8.92099E-14-7.45308E-13
 -1       208 1.99953E+01 1.74914E-04 2.51983E-05-3.27162E-04-5.41394E-15-7.25001E-13
 -1       209 1.99946E+01 9.90598E-05 1.67568E-05 1.65097E-04 2.09155E-13-5.20399E-13
 -1       210 1.99945E+01 4.91354E-05 1.09708E-05 4.44057E-04 1.20343E-13-3.73514E-13
 -1       211 1.99948E+01 1.68476E-05 7.00073E-06 5.82088E-04 4.77877E-14-3.21519E-13
 -1       212 1.99953E+01-3.35911E-06 4.28492E-06 6.28812E-04 2.33633E-13-5.11564E-13
 -1       213 1.99959E+01-1.52857E-05 2.44262E-06 6.18408E-04 9.63218E-14-2.95318E-13
 -1       214 1.99965E+01-2.15801E-05 1.21194E-06 5.74372E-04-2.39330E-14-1.34149E-13
 -1       215 1.99970E+01-2.41107E-05 4.10184E-07 5.12703E-04-2.61297E-13-3.49205E-13
 -1       216 1.99975E+01-2.42041E-05-9.18145E-08 4.44077E-04-3.73086E-13-3.53254E-13
 -1       217 1.99980E+01-2.28007E-05-3.86276E-07 3.75387E-04 9.52279E-14-3.71249E-13
 -1       218 1.99984E+01-2.05611E-05-5.39472E-07 3.10841E-04-1.50054E-13-3.71268E-13
 -1       219 1.99987E+01-1.79419E-05-5.99141E-07 2.52761E-04-3.76984E-13-5.73545E-13
 -1       220 1.99990E+01-1.52509E-05-5.99646E-07 2.02172E-04 7.96767E-14-4.64193E-13
 -1       221 1.99992E+01-1.26893E-05-5.65509E-07 1.59222E-04 4.60579E-13-8.20375E-13
 -1       222 1.99994E+01-1.03862E-05-5.13607E-07 1.23484E-04 1.87770E-13-6.17502E-13
 -1       223 1.99995E+01-8.42596E-06-4.54646E-07 9.41561E-05 8.69825E-14-1.52407E-13
 -1       224 1.99996E+01-6.86728E-06-3.90783E-07 7.01887E-05-2.15393E-13-1.83529E-13
 -1       225 1.99997E+01-5.75522E-06-3.13543E-07 5.03685E-05 2.45680E-13-2.31456E-14
 -1       226 1.99997E+01-5.13173E-06-2.12631E-07 3.33893E-05-1.74663E-13-8.98569E-14
 -1       227 1.99998E+01-4.88777E-06-1.17756E-07 1.81196E-05 1.42971E-13-2.92316E-13
 -1       228 1.99998E+01-4.30380E-06-2.54922E-07 4.79227E-06-3.24875E-13-3.05063E-13
 -1       229 1.99998E+01-1.85562E-06-1.55216E-07-1.08831E-06 2.14030E-13-2.20288E-13
 -1       230 1.85900E+01 3.50747E-01-5.41809E-02 1.67657E+00 5.58824E-13 1.94631E-12
 -1       231 1.70955E+01 1.82581E-01 9.75969E-03 8.00477E-01 4.16982E-13 1.53093E-12
 -1       232 1.63084E+01 1.11052E-01 1.49768E-02 3.47150E-01 2.85372E-13 1.18155E-12
 -1       233 1.59785E+01 8.22053E-02 8.56738E-03 3.15654E-02 2.69981E-13 9.23168E-13
 -1       234 1.59978E+01 6.84907E-02 4.63035E-03-2.18661E-01 1.63353E-13 7.12680E-13
 -1       235 1.62897E+01 5.04684E-02 2.78590E-03-4.13792E-01 1.38289E-13 5.62660E-13
 -1       236 1.67751E+01 2.69573E-02 1.94550E-03-5.41206E-01 1.03503E-13 4.94511E-13
 -1       237 1.73680E+01 2.47237E-03 1.38932E-03-5.92515E-01 1.02525E-13 4.25978E-13
 -1       238 1.79855E+01-1.76669E-02 8.17130E-04-5.73592E-01 5.34484E-14 3.15275E-13
 -1       239 1.85602E+01-3.02267E-02 2.09281E-04-5.02952E-01 5.74602E-14 2.48224E-13
 -1       240 1.90482E+01-3.48503E-02-3.38262E-04-4.04487E-01 8.21322E-14 2.49574E-13
 -1       241 1.94306E+01-3.32725E-02-7.30326E-04-3.00054E-01 3.76930E-14 2.26387E-13
 -1       242 1.97081E+01-2.80170E-02-9.27685E-04-2.05113E-01 3.45337E-14 1.91037E-13
 -1       243 1.98939E+01-2.13772E-02-9.49152E-04-1.27816E-01-3.37202E-14 1.60305E-13
 -1       244 2.00070E+01-1.49415E-02-8.47648E-04-7.03483E-02-4.54454E-15 1.48419E-13
 -1       245 2.00670E+01-9.55329E-03-6.82971E-04-3.10820E-02 2.53761E-14 1.73541E-13
 -1       246 2.00913E+01-5.48768E-03-5.03708E-04-6.56288E-03-9.42619E-15 2.29640E-13
 -1       247 2.00936E+01-2.67624E-03-3.40979E-04 7.08356E-03 1.37981E-13 2.30183E-13
 -1       248 2.00839E+01-8.91032E-04-2.09664E-04 1.33526E-02 1.42238E-13 1.28023E-13
 -1       249 2.00689E+01 1.34997E-04-1.13026E-04 1.50248E-02-7.78965E-14 5.36680E-14
 -1       250 2.00529E+01 6.43846E-04-4.76091E-05 1.41191E-02-1.31768E-14 6.68237E-14
 -1       251 2.00381E+01 8.27178E-04-7.08875E-06 1.19908E-02-1.78630E-13 2.01501E-13
 -1       252 2.00256E+01 8.23524E-04 1.52900E-05 9.48080E-03-1.78341E-13 4.35015E-13
 -1       253 2.00157E+01 7.25816E-04 2.54462E-05 7.06346E-03-7.50320E-14 4.51294E-13
 -1       254 2.00083E+01 5.92039E-04 2.80067E-05 4.96951E-03 2.39344E-13 2.37652E-13
 -1       255 2.00031E+01 4.55464E-04 2.62995E-05 3.27942E-03 1.01063E-13 1.41482E-13
 -1       256 1.99996E+01 3.33018E-04 2.25515E-05 1.98856E-03 8.06181E-14 2.83245E-13
 -1       257 1.99975E+01 2.31527E-04 1.81478E-05 1.05001E-03-5.07541E-14 2.02999E-13
 -1       258 1.99963E+01 1.52029E-04 1.38764E-05 4.00859E-04 2.48375E-13 2.58691E-13
 -1       259 1.99958E+01 9.25842E-05 1.01289E-05-2.29079E-05 5.10708E-14-9.41655E-15
 -1       260 1.99958E+01 5.00073E-05 7.05076E-06-2.78821E-04-1.42176E-13-5.76426E-14
 -1       261 1.99960E+01 2.08475E-05 4.64562E-06-4.14902E-04 1.77850E-13 2.11924E-14
 -1       262 1.99964E+01 1.90304E-06 2.84481E-06-4.69180E-04-2.41356E-14-1.08450E-13
 -1       263 1.99969E+01-9.55680E-06 1.54997E-06-4.70528E-04-1.29601E-13 1.26209E-14
 -1       264 1.99973E+01-1.57341E-05 6.57932E-07-4.40062E-04-1.54757E-13 1.54823E-13
 -1       265 1.99978E+01-1.83313E-05 7.37136E-08-3.92660E-04-2.14818E-15 1.32833E-13
 -1       266 1.99982E+01-1.86197E-05-2.83775E-07-3.38384E-04 1.70551E-13-5.90372E-15
 -1       267 1.99985E+01-1.75183E-05-4.80315E-07-2.83705E-04-3.09778E-14-8.16602E-14
 -1       268 1.99988E+01-1.56717E-05-5.67246E-07-2.32491E-04-4.17486E-14-2.78713E-14
 -1       269 1.99991E+01-1.35177E-05-5.83390E-07-1.86788E-04 2.15398E-13 1.10731E-13
 -1       270 1.99993E+01-1.13446E-05-5.57214E-07-1.47397E-04 8.77701E-14 4.23547E-14
 -1       271 1.99994E+01-9.33770E-06-5.08857E-07-1.14294E-04-1.02444E-13-2.54770E-15
 -1       272 1.99995E+01-7.61519E-06-4.49065E-07-8.69216E-05-2.29629E-14 1.31985E-13
 -1       273 1.99996E+01-6.26313E-06-3.78397E-07-6.43694E-05 1.17662E-13 8.29014E-14
 -1       274 1.99997E+01-5.35802E-06-2.86767E-07-4.54814E-05-8.59515E-14-3.70737E-14
 -1       275 1.99997E+01-4.87831E-06-1.64062E-07-2.90159E-05 6.83013E-14-4.34014E-15
 -1       276 1.99998E+01-4.82847E-06-1.21062E-07-1.38904E-05 1.32346E-13-3.14576E-13
 -1       277 1.99998E+01-3.41212E-06-4.04297E-07-1.26152E-06 1.92775E-13 3.03473E-13
 -1       278 1.99998E+01-1.20669E-05-1.92895E-07-8.37181E-06-1.58538E-14 4.25994E-13
 -1       279 1.99998E+01-3.23923E-05-3.86382E-08-2.23747E-05-2.67588E-14 2.22564E-13
 -1       280 1.99998E+01-6.18185E-05-3.34276E-08-3.29020E-05 2.68137E-13 6.51113E-14
 -1       281 1.99998E+01-9.64154E-05 1.11336E-08-3.74041E-05 3.01230E-13 5.01603E-13
 -1       282 1.99998E+01-1.30462E-04 8.66311E-08-3.52647E-05 1.41083E-13-1.81862E-13
 -1       283 1.99998E+01-1.59841E-04 1.54687E-07-2.71353E-05-1.58695E-13-5.45348E-13
 -1       284 1.99998E+01-1.79360E-04 2.04621E-07-1.45964E-05-2.53015E-13-2.71088E-13
 -1       285 1.99998E+01-1.86072E-04 2.22143E-07 2.42197E-07-3.49748E-13-2.39952E-15
 -1       286 1.99998E+01-1.78961E-04 2.04058E-07 1.50405E-05-4.38895E-13 3.10335E-14
 -1       287 1.99998E+01-1.59098E-04 1.53786E-07 2.74659E-05-3.75938E-13-4.10474E-13
 -1       288 1.99998E+01-1.30086E-04 8.09303E-08 3.53467E-05-5.48721E-13-2.48538E-13
 -1       289 1.99998E+01-9.53950E-05 1.58048E-08 3.73903E-05-2.89230E-13-2.15327E-14
 -1       290 1.99998E+01-6.08798E-05-2.53708E-08 3.27002E-05-1.83443E-13 5.16799E-13
 -1       291 1.99998E+01-3.17374E-05-4.97388E-08 2.17196E-05-1.28829E-13 1.94661E-13
 -1       292 1.99998E+01-1.32104E-05-2.65778E-08 8.72201E-06-3.39052E-14 6.51096E-13
 -1       293-4.23118E-01-9.55258E+00-8.67231E-01 2.73344E+00 3.84512E-13 1.25312E-12
 -1       294 4.51237E+00-6.53172E+00-5.98118E-01 5.47436E+00 9.41025E-13 1.15631E-12
 -1       295 1.16794E+01-2.51294E+00-3.47706E-01 7.26744E+00 1.46372E-12 1.23991E-12
 -1       296 2.34033E+01 7.50008E-02 4.94851E-02 8.31305E+00 1.13615E-12 5.42899E-13
 -1       297 3.32927E+01 4.55689E+00 4.51885E-01 8.64025E+00 1.37194E-12 5.83533E-13
 -1       298 4.25797E+01 6.53603E+00 8.30385E-01 7.22889E+00 1.18678E-12 2.90601E-14
 -1       299 4.73985E+01 7.21845E+00 9.07201E-01 3.15446E+00 1.26713E-12-9.37861E-13
 -1       300 4.84747E+01 6.96249E+00 9.15305E-01-1.29835E+00 1.34924E-12-1.86981E-12
 -1       301 4.15289E+01 6.54216E+00 4.42287E-01-4.07720E+00 1.64436E-12-1.98411E-12
 -1       302 3.40021E+01 5.32649E+00 2.85522E-01-8.06848E+00 1.91634E-12-2.54158E-12
 -1       303 2.30043E+01 4.66588E+00 5.08652E-03-9.51075E+00 2.23579E-12-2.69448E-12
 -1       304 1.34591E+01 2.27886E+00-2.08245E-01-8.10724E+00 1.64410E-12-2.10819E-12
 -1       305 5.36147E+00-1.87807E-01-3.99871E-01-5.76492E+00 1.27431E-12-1.78839E-12
 -1       306 9.73989E-01-3.34799E+00-5.34305E-01-4.01508E+00 2.76584E-13-1.54081E-12
 -1       307-1.33917E+00-5.25646E+00-6.59140E-01-2.83786E+00-8.35595E-13-1.63505E-12
 -1       308-1.05745E+00-6.73225E+00-9.87531E-01-1.11034E+00-1.88808E-12-1.95903E-12
 -1       309 3.19867E+00-6.41183E+00-1.16462E+00 1.34474E+00-2.57599E-12-2.46022E-12
 -1       310 1.24258E+01-5.28648E+00-1.05225E+00 3.81440E+00-2.81497E-12-2.88225E-12
 -1       311 2.61790E+01-3.42411E+00-4.53683E-01 4.63162E+00-2.59592E-12-2.99821E-12
 -1       312 4.05557E+01-6.00170E-01 4.07557E-01 2.54811E+00-2.28639E-12-2.44810E-12
 -1       313 5.17725E+01 3.92423E+00 1.49287E+00 4.76415E-01-2.19567E-12-1.83387E-12
 -1       314 5.52771E+01 7.25686E+00 1.90653E+00-1.30260E+00-2.13024E-12-8.04024E-13
 -1       315 5.29270E+01 6.60597E+00 1.58056E+00-1.15631E+00-1.96870E-12 1.36641E-13
 -1       316 4.74228E+01 2.99334E+00 1.11305E+00-4.53172E+00-1.67983E-12 1.20814E-12
 -1       317 3.46218E+01-7.51669E-02 1.91856E-01-6.33861E+00-1.78030E-12 1.95582E-12
 -1       318 2.03718E+01-3.19668E+00-5.28140E-01-6.43292E+00-1.80156E-12 2.04853E-12
 -1       319 9.66558E+00-6.57744E+00-7.78160E-01-4.97265E+00-1.36652E-12 1.74281E-12
 -1       320 1.81460E+00-8.87977E+00-8.95107E-01-2.44612E+00-1.00206E-12 1.65404E-12
 -1       321-1.39933E+00-1.10221E+01-1.06407E+00 4.69911E-01-3.74471E-13 1.54293E-12
 -1       322 3.43602E+01 2.16033E+00-3.95488E-01-5.55413E+00-1.59403E-12 4.66429E-13
 -1       323 1.00387E+01 4.23602E+00 1.59839E-01 9.07673E-01 1.78118E-13-1.09573E-12
 -1       324 2.17442E+01 1.86375E+00 7.28055E-02 1.58536E+00 3.41741E-13-1.41970E-13
 -1       325 5.67194E+00 4.84823E+00 1.42266E-01-5.13181E+00-6.72695E-13-1.53572E-12
 -1       326 1.16088E+01 3.03085E+00 9.09377E-02-6.38369E+00-9.60034E-13-1.24175E-12
 -1       327 1.91936E+01 1.33432E+00 2.84894E-02-4.99668E+00-9.64111E-13-8.35982E-13
 -1       328 2.36513E+01 1.27078E+00-1.49404E-02-2.28618E+00-6.63884E-13-6.12105E-13
 -1       329 2.50211E+01 2.16852E+00-3.18149E-02-1.38979E-01-3.10454E-13-6.06858E-13
 -1       330 2.47298E+01 3.12919E+00-2.94988E-02 1.16344E+00 2.59536E-15-6.52946E-13
 -1       331 2.37506E+01 3.74553E+00-2.63395E-02 1.90312E+00 2.70434E-13-6.82677E-13
 -1       332 2.25588E+01 3.97742E+00-2.35494E-02 2.39534E+00 5.00947E-13-6.41633E-13
 -1       333 2.14096E+01 3.85889E+00-2.26004E-02 2.78595E+00 6.87459E-13-4.99462E-13
 -1       334 2.04524E+01 3.41224E+00-2.44970E-02 3.11922E+00 8.19865E-13-1.91531E-13
 -1       335 1.98234E+01 2.50843E+00-3.07786E-02 3.24073E+00 8.45326E-13 4.20049E-13
 -1       336 1.94631E+01 1.43766E+00-2.55260E-02 2.70582E+00 7.66569E-13 1.05062E-12
 -1       337 1.85188E+01 6.82685E-01 8.68858E-03 1.52310E+00 6.21399E-13 8.20121E-13
 -1       338 3.00965E+01-4.14190E+00 6.87361E-02 1.28828E+00 1.44898E-13 4.34890E-13
 -1       339 3.63199E+01-4.65526E+00-3.69659E-02-2.20677E+00-7.67372E-13 1.58720E-13
 -1       340 3.80927E+01-1.81485E+00-1.27482E-01 2.72048E+00-6.27720E-13-8.98892E-13
 -1       341 3.16234E+01-4.93748E+00-5.60344E-03-1.14158E+00 5.46195E-13-9.78807E-13
 -1       342 2.67847E+01-2.54062E+00 6.30150E-02-3.73862E+00 7.61613E-13-7.56331E-13
 -1       343 2.43071E+01-2.68823E-01 3.61643E-02-4.33518E+00 5.81082E-13-6.15121E-13
 -1       344 2.30566E+01 6.83691E-01 1.30570E-02-3.79533E+00 3.80081E-13-4.97819E-13
 -1       345 2.23078E+01 8.35525E-01 8.68361E-03-2.91398E+00 8.32507E-14-3.10924E-13
 -1       346 2.17486E+01 6.96085E-01 8.36422E-03-2.08434E+00-3.67571E-14-2.34243E-13
 -1       347 2.13009E+01 5.05197E-01 7.53009E-03-1.43159E+00-7.26129E-14-2.04222E-13
 -1       348 2.09472E+01 3.43759E-01 5.93781E-03-9.60432E-01-5.53203E-14-2.14468E-13
 -1       349 2.06770E+01 2.26408E-01 4.26256E-03-6.35935E-01-7.11937E-14-3.33011E-13
 -1       350 2.04766E+01 1.46705E-01 2.89157E-03-4.18257E-01-8.27012E-14-4.52288E-13
 -1       351 2.03314E+01 9.43784E-02 1.90114E-03-2.74315E-01-2.28304E-13-3.21768E-13
 -1       352 2.02279E+01 6.06135E-02 1.23121E-03-1.79784E-01-1.36101E-13-2.84348E-13
 -1       353 2.01549E+01 3.89984E-02 7.92929E-04-1.17829E-01-1.70362E-13-3.08313E-13
 -1       354 2.01038E+01 2.51909E-02 5.10557E-04-7.71761E-02-2.16908E-13-3.10487E-13
 -1       355 2.00684E+01 1.63548E-02 3.29615E-04-5.04175E-02 1.56848E-13-3.15587E-13
 -1       356 2.00439E+01 1.06727E-02 2.13631E-04-3.27330E-02 2.22535E-13-2.51725E-13
 -1       357 2.00272E+01 6.99250E-03 1.38993E-04-2.10001E-02 2.34784E-13-4.26772E-13
 -1       358 2.00159E+01 4.58779E-03 9.06613E-05-1.31966E-02-2.99812E-15-3.40891E-13
 -1       359 2.00083E+01 3.00156E-03 5.91203E-05-8.00779E-03-1.69961E-13-4.61977E-13
 -1       360 2.00034E+01 1.94586E-03 3.83667E-05-4.57297E-03 7.76511E-14-3.94665E-13
 -1       361 2.00004E+01 1.23835E-03 2.46082E-05-2.32331E-03 1.33355E-13-3.04588E-13
 -1       362 1.99985E+01 7.62523E-04 1.54378E-05-8.78407E-04 1.70993E-13-3.31332E-13
 -1       363 1.99975E+01 4.43024E-04 9.31461E-06 1.93146E-05 3.37012E-13-1.19724E-13
 -1       364 1.99971E+01 2.30305E-04 5.24051E-06 5.46340E-04 8.17279E-14 1.22820E-14
 -1       365 1.99970E+01 9.11835E-05 2.55913E-06 8.24793E-04-1.21813E-13-2.49746E-13
 -1       366 1.99971E+01 3.00617E-06 8.31419E-07 9.39720E-04 3.48080E-13-5.69336E-13
 -1       367 1.99974E+01-4.99705E-05-2.41553E-07 9.50448E-04 1.62323E-13-4.83333E-13
 -1       368 1.99977E+01-7.88462E-05-8.66585E-07 8.98191E-04-1.97232E-13-4.97809E-13
 -1       369 1.99980E+01-9.15186E-05-1.18859E-06 8.11275E-04-1.57674E-13-4.77032E-13
 -1       370 1.99983E+01-9.36255E-05-1.30993E-06 7.08784E-04-1.65542E-14-3.15321E-13
 -1       371 1.99986E+01-8.91782E-05-1.30307E-06 6.03185E-04-5.95165E-14-3.23028E-13
 -1       372 1.99988E+01-8.10031E-05-1.21915E-06 5.02220E-04-3.55955E-13-1.67701E-15
 -1       373 1.99991E+01-7.10594E-05-1.09391E-06 4.10300E-04-1.39627E-13 1.48365E-13
 -1       374 1.99992E+01-6.06751E-05-9.52083E-07 3.29524E-04 2.96416E-13-3.41464E-14
 -1       375 1.99994E+01-5.07294E-05-8.10397E-07 2.60419E-04 3.32037E-13-9.03534E-14
 -1       376 1.99995E+01-4.17964E-05-6.79446E-07 2.02470E-04 3.16362E-13-8.55519E-14
 -1       377 1.99996E+01-3.42501E-05-5.67048E-07 1.54475E-04 2.85790E-14 1.71945E-13
 -1       378 1.99997E+01-2.83297E-05-4.71813E-07 1.14815E-04 2.79873E-13 3.12428E-13
 -1       379 1.99997E+01-2.41196E-05-3.82115E-07 8.16717E-05-4.98909E-14 5.27200E-13
 -1       380 1.99997E+01-2.15572E-05-3.39989E-07 5.32529E-05-2.00123E-13 3.63905E-13
 -1       381 1.99998E+01-1.90812E-05-2.43817E-07 2.85881E-05 1.33049E-14 3.41115E-13
 -1       382 1.79866E+01 4.88182E-01 1.06881E-02 4.79782E-01 4.40265E-13 3.40569E-13
 -1       383 1.77501E+01 3.92805E-01 6.52018E-03-6.62208E-02 3.53744E-13 1.95735E-13
 -1       384 1.77548E+01 3.06434E-01 4.30670E-03-5.03006E-01 2.62014E-13 5.83719E-14
 -1       385 1.79531E+01 1.97980E-01 2.64389E-03-8.17867E-01 1.70470E-13-2.52348E-14
 -1       386 1.82774E+01 7.76576E-02 1.22812E-03-9.91173E-01 1.31568E-13-1.05022E-13
 -1       387 1.86561E+01-3.15841E-02-3.41248E-05-1.02452E+00 1.43136E-13-6.45970E-14
 -1       388 1.90287E+01-1.10509E-01-1.03621E-03-9.44825E-01 9.70678E-14-3.76344E-14
 -1       389 1.93545E+01-1.51800E-01-1.67624E-03-7.93910E-01 8.93884E-14-7.43697E-14
 -1       390 1.96142E+01-1.59537E-01-1.93890E-03-6.14323E-01 5.19808E-14-9.26862E-14
 -1       391 1.98050E+01-1.44078E-01-1.89176E-03-4.39259E-01 3.51553E-14-4.31654E-14
 -1       392 1.99345E+01-1.16727E-01-1.64238E-03-2.88897E-01-3.28422E-14-5.96960E-14
 -1       393 2.00148E+01-8.64688E-02-1.29923E-03-1.71621E-01 1.35492E-14 6.94979E-14
 -1       394 2.00585E+01-5.89224E-02-9.46658E-04-8.74808E-02-2.44618E-14 3.06736E-14
 -1       395 2.00771E+01-3.67106E-02-6.35783E-04-3.18856E-02-7.30838E-14 9.49870E-14
 -1       396 2.00796E+01-2.03785E-02-3.89331E-04 1.53348E-03 5.82628E-14 8.20438E-14
 -1       397 2.00731E+01-9.31118E-03-2.10131E-04 1.91090E-02 1.39494E-13 1.34445E-13
 -1       398 2.00621E+01-2.41753E-03-8.99468E-05 2.62222E-02 9.84943E-14 2.44661E-13
 -1       399 2.00497E+01 1.44980E-03-1.60982E-05 2.70014E-02-1.58337E-14 8.51438E-14
 -1       400 2.00379E+01 3.28474E-03 2.43725E-05 2.43691E-02-2.05461E-13 1.15260E-13
 -1       401 2.00274E+01 3.85660E-03 4.26008E-05 2.02486E-02-2.78413E-13 1.18519E-13
 -1       402 2.00188E+01 3.71426E-03 4.71604E-05 1.58094E-02-1.11309E-13-1.22519E-14
 -1       403 2.00121E+01 3.22276E-03 4.41415E-05 1.16932E-02 1.57192E-13-3.60506E-14
 -1       404 2.00070E+01 2.60821E-03 3.75725E-05 8.19560E-03 1.00888E-13 1.81564E-13
 -1       405 2.00033E+01 1.99923E-03 2.99245E-05 5.40153E-03 1.08551E-13 2.39844E-13
 -1       406 2.00008E+01 1.46020E-03 2.25784E-05 3.27872E-03-4.08457E-14 4.05358E-13
 -1       407 1.99991E+01 1.01592E-03 1.62017E-05 1.73848E-03 6.06856E-14 3.01295E-13
 -1       408 1.99982E+01 6.68562E-04 1.10250E-05 6.72892E-04 3.04523E-13 2.76730E-13
 -1       409 1.99977E+01 4.08722E-04 7.03365E-06-2.42998E-05-3.07921E-14 2.35796E-13
 -1       410 1.99975E+01 2.22248E-04 4.09098E-06-4.47289E-04 6.03038E-14 4.10185E-14
 -1       411 1.99976E+01 9.41275E-05 2.01435E-06-6.74236E-04 1.23966E-13-2.39939E-14
 -1       412 1.99977E+01 1.05148E-05 6.17672E-07-7.66936E-04 3.97613E-14-1.40795E-13
 -1       413 1.99980E+01-4.03880E-05-2.66948E-07-7.72346E-04-2.69469E-13-3.20660E-13
 -1       414 1.99982E+01-6.81125E-05-7.80424E-07-7.24898E-04-1.43779E-13-1.68268E-13
 -1       415 1.99985E+01-8.00530E-05-1.03523E-06-6.48942E-04 1.36960E-13 4.77068E-14
 -1       416 1.99987E+01-8.17549E-05-1.11766E-06-5.61032E-04 1.40683E-13-1.72790E-14
 -1       417 1.99990E+01-7.72511E-05-1.09178E-06-4.71876E-04-6.79769E-14-2.44705E-13
 -1       418 1.99991E+01-6.93894E-05-1.00378E-06-3.87929E-04-2.46015E-13-1.67689E-13
 -1       419 1.99993E+01-6.01226E-05-8.86055E-07-3.12638E-04-4.94428E-14 1.29066E-13
 -1       420 1.99994E+01-5.07529E-05-7.60748E-07-2.47386E-04 2.53858E-14 4.20593E-13
 -1       421 1.99995E+01-4.21289E-05-6.43808E-07-1.92167E-04-1.20034E-14 2.27006E-13
 -1       422 1.99996E+01-3.47926E-05-5.39246E-07-1.46086E-04-1.04331E-13-7.23118E-14
 -1       423 1.99997E+01-2.90971E-05-4.46930E-07-1.07703E-04 1.16958E-13 2.71558E-14
 -1       424 1.99997E+01-2.52055E-05-3.82182E-07-7.53229E-05-1.05477E-13 1.35431E-13
 -1       425 1.99998E+01-2.25660E-05-3.08909E-07-4.76798E-05 9.74546E-14 3.10709E-13
 -1       426 1.99998E+01-1.86959E-05-2.24800E-07-2.58405E-05-1.56314E-13 3.72068E-13
 -1       427 1.99998E+01-8.93397E-05-5.10230E-08-6.53919E-05 3.28515E-13 2.41477E-13
 -1       428 1.99998E+01-5.71459E-05-1.60100E-07-5.50414E-05 9.97929E-15 3.16104E-13
 -1       429 1.99998E+01-1.21027E-04 3.56524E-08-6.58643E-05-1.82854E-13-2.97013E-13
 -1       430 1.99998E+01-1.49669E-04 1.17796E-07-5.58015E-05-2.25677E-13-3.46528E-13
 -1       431 1.99998E+01-1.71000E-04 1.82781E-07-3.70779E-05-1.23870E-13-4.14143E-13
 -1       432 1.99998E+01-1.82328E-04 2.17763E-07-1.27415E-05-4.80175E-13-4.07768E-13
 -1       433 1.99998E+01-1.82194E-04 2.17608E-07 1.35045E-05-5.46826E-13 1.23814E-13
 -1       434 1.99998E+01-1.70602E-04 1.81278E-07 3.77276E-05-7.49870E-13-4.77387E-13
 -1       435 1.99998E+01-1.49498E-04 1.14026E-07 5.59711E-05-7.02243E-13-6.40994E-13
 -1       436 1.99998E+01-1.20846E-04 2.99826E-08 6.58974E-05-3.29632E-13 5.92431E-13
 -1       437 1.99998E+01-8.85293E-05-5.55842E-08 6.52612E-05 1.67384E-13 2.54329E-13
 -1       438 1.99998E+01-5.65902E-05-1.30150E-07 5.40240E-05-1.36764E-13 3.35421E-13
 -1       439 1.81453E+01 5.39398E-01 1.34870E-02 9.59132E-01 4.93853E-13 5.37799E-13
 -1       440 1.28900E+01-4.40028E+00-6.05459E-03 8.42601E+00-2.31620E-13 4.79762E-13
 -1       441 2.98820E+01-6.73094E-01 1.20265E-02 4.87738E+00 5.61884E-13-5.16018E-13
 -1       442 8.74041E-01-3.74801E+00-8.39236E-02 1.78743E+00-2.85709E-13 1.60630E-12
 -1       443 4.40119E+00 5.32027E+00 1.74097E-01-1.95792E+00-2.12337E-13-1.57135E-12
 -1       444 3.46985E+01 3.46895E+00 5.49907E-02 2.35938E+00 9.89341E-13-7.07961E-13
 -1       445 3.76868E+01 7.17275E+00 1.00634E-01 1.33297E+00 1.37333E-12-8.47114E-13
 -1       446 3.73632E+01 9.03858E+00 2.27808E-02 5.16727E-01 1.58487E-12-8.51016E-13
 -1       447 3.62838E+01 8.14686E+00-5.27860E-02 3.05911E-01 1.47875E-12-7.20833E-13
 -1       448 3.43283E+01 4.58057E+00-2.88733E-02-1.61066E+00 1.09824E-12-8.18470E-13
 -1       449 2.91901E+01 1.87978E+00-3.37039E-02-4.88704E+00 7.65409E-13-1.08946E-12
 -1       450 2.26058E+01 3.55881E-01-1.26866E-02-6.74776E+00 1.40651E-13-1.10622E-12
 -1       451 1.25558E+01 4.94609E-01-1.58897E-02-7.93878E+00-1.41193E-13-1.48281E-12
 -1       452 5.82565E+00 6.46320E-01 1.66541E-02-6.99712E+00-3.35787E-13-1.75107E-12
 -1       453 1.17501E+00 9.02774E-01 1.38974E-02-4.82067E+00-5.32102E-13-1.87432E-12
 -1       454 8.94585E-01 1.09714E+00 3.43779E-02-1.22793E+00-4.98844E-13-1.94299E-12
 -1       455 4.55518E+00-1.74699E+00-1.79545E-01 2.15041E+00-6.98275E-13-1.82079E-12
 -1       456 1.38846E+01-4.27129E+00-2.74283E-01 4.36557E+00-7.92644E-13-1.50470E-12
 -1       457 2.60792E+01-5.77544E+00-1.36538E-01 2.99009E+00-8.42049E-13-9.70668E-13
 -1       458 4.10429E+01-7.04758E-04 5.32632E-02-4.46218E+00-1.68725E-12-2.30038E-13
 -1       459 3.17627E+01-5.26575E+00-6.76342E-02-2.88689E+00-1.89349E-13 9.27591E-14
 -1       460 2.14406E+01-5.98692E+00-1.44275E-01-6.04437E+00 6.99718E-14 5.59927E-13
 -1       461 1.02041E+01-4.96862E+00-9.55841E-02-6.13299E+00 1.55390E-13 9.64895E-13
 -1       462 3.13889E+00-3.04283E+00 5.83467E-03-2.74960E+00 8.15181E-14 1.60136E-12
 -1       463 5.39904E+00-2.98524E+00 6.98315E-02 6.38055E+00-5.73944E-13 1.01626E-12
 -1       464 2.11432E+01-3.88593E+00 8.58971E-03 7.80282E+00-5.42899E-14-1.10821E-13
 -1       465 1.99998E+01-3.68072E-05-2.06449E-07 4.27455E-05 2.70516E-14 3.06010E-13
 -1       466 2.66553E+01-3.65312E+00-2.43272E-03 5.31070E+00-1.55688E-13-6.61304E-13
 -1       467 3.25350E+01 6.23596E+00-1.34961E-01 1.21160E+00 1.07643E-12-3.00822E-13
 -1       468 1.61968E+01 6.46454E-01 4.69556E-02-7.15392E+00-8.82391E-13-1.08237E-12
 -1       469 2.42127E+01 1.16763E-01-6.93013E-03-3.48850E+00-6.64522E-13-4.93060E-13
 -1       470 2.47672E+01 3.10423E+00-1.77926E-02 2.09221E+00 2.57194E-13-4.44453E-13
 -1       471 2.34303E+01 3.37030E+00-1.28679E-02 2.30979E+00 4.63859E-13-5.04896E-13
 -1       472 2.21761E+01 3.23718E+00-1.01610E-02 2.42280E+00 6.18057E-13-4.65083E-13
 -1       473 2.10614E+01 2.77636E+00-7.08886E-03 2.49771E+00 7.32195E-13-2.86974E-13
 -1       474 2.00473E+01 1.99884E+00-2.86392E-03 2.42391E+00 7.74106E-13 6.58516E-14
 -1       475 1.93999E+01 1.31452E+00 3.37670E-03 2.05654E+00 7.15018E-13 3.86836E-13
 -1       476 3.05301E+01 2.16546E+00-5.77259E-02-8.18822E-01 3.55632E-13-3.00371E-13
 -1       477 1.26272E+01-2.56818E+00 1.43068E-01 7.83695E+00-8.40578E-13 3.81611E-13
 -1       478 1.86527E+01-1.02155E+00 1.04705E-01-5.63695E+00 6.85889E-13-6.56732E-14
 -1       479 1.86362E+01 1.07237E+00 4.94990E-02-4.48742E+00 4.82509E-13-7.15487E-14
 -1       480 1.91812E+01 1.59049E+00 1.56714E-02-3.42872E+00 1.54522E-13-2.55615E-13
 -1       481 1.96986E+01 1.44833E+00 7.35455E-03-2.52759E+00-3.12015E-14-1.73084E-13
 -1       482 2.00193E+01 1.11743E+00 4.96512E-03-1.81519E+00-2.85130E-14-1.74259E-13
 -1       483 2.01735E+01 7.96780E-01 3.72239E-03-1.27570E+00-1.21507E-13-1.91852E-13
 -1       484 2.02227E+01 5.44705E-01 2.68014E-03-8.82414E-01-1.98520E-13-3.28833E-13
 -1       485 2.02168E+01 3.63831E-01 1.83210E-03-6.03857E-01-8.64628E-14-3.05419E-13
 -1       486 2.01872E+01 2.40036E-01 1.20648E-03-4.10467E-01-4.72891E-14-2.64870E-13
 -1       487 2.01510E+01 1.57480E-01 7.79038E-04-2.77916E-01-1.95638E-13-2.70430E-13
 -1       488 2.01165E+01 1.03198E-01 4.99138E-04-1.87725E-01-1.23041E-13-3.43234E-13
 -1       489 2.00869E+01 6.77439E-02 3.19443E-04-1.26556E-01-2.02121E-13-1.81774E-13
 -1       490 2.00632E+01 4.46272E-02 2.04928E-04-8.50869E-02-8.01291E-14-2.15437E-13
 -1       491 2.00447E+01 2.95249E-02 1.31975E-04-5.69367E-02 1.91730E-13-1.39402E-13
 -1       492 2.00308E+01 1.96109E-02 8.53293E-05-3.77900E-02 9.53749E-14-4.76024E-13
 -1       493 2.00206E+01 1.30577E-02 5.53373E-05-2.47471E-02 6.24661E-14-5.64748E-13
 -1       494 2.00132E+01 8.69065E-03 3.59099E-05-1.58626E-02-5.94514E-14-4.51153E-13
 -1       495 2.00080E+01 5.75631E-03 2.32219E-05-9.82754E-03-1.05860E-14-1.90508E-13
 -1       496 2.00044E+01 3.77045E-03 1.48694E-05-5.75604E-03 1.84641E-13-7.49442E-14
 -1       497 2.00019E+01 2.42006E-03 9.33629E-06-3.04335E-03 2.03445E-13-5.17775E-14
 -1       498 2.00004E+01 1.50082E-03 5.65938E-06-1.27268E-03 3.18124E-13-1.32627E-13
 -1       499 1.99994E+01 8.77616E-04 3.22031E-06-1.53957E-04 3.21800E-13-3.62311E-13
 -1       500 1.99989E+01 4.59659E-04 1.61643E-06 5.16452E-04-1.18821E-13-3.11186E-13
 -1       501 1.99986E+01 1.84868E-04 5.81113E-07 8.82368E-04-2.81536E-13-4.27811E-13
 -1       502 1.99985E+01 1.00633E-05-6.53643E-08 1.04562E-03 2.00323E-13-7.35123E-13
 -1       503 1.99986E+01-9.52296E-05-4.46293E-07 1.07820E-03-1.65104E-13-7.17645E-13
 -1       504 1.99987E+01-1.52753E-04-6.47476E-07 1.03061E-03-3.68339E-14-4.84078E-13
 -1       505 1.99988E+01-1.78106E-04-7.29225E-07 9.37850E-04 2.45358E-14-1.65542E-13
 -1       506 1.99990E+01-1.82485E-04-7.34128E-07 8.23671E-04 2.13138E-13-3.55425E-14
 -1       507 1.99991E+01-1.73874E-04-6.92206E-07 7.03687E-04-5.00512E-14 7.92222E-14
 -1       508 1.99992E+01-1.57909E-04-6.24470E-07 5.87677E-04-3.51645E-13 1.03090E-13
 -1       509 1.99994E+01-1.38497E-04-5.45365E-07 4.81289E-04-1.14872E-13 3.36841E-13
 -1       510 1.99995E+01-1.18283E-04-4.64999E-07 3.87292E-04 1.70836E-13 2.35540E-13
 -1       511 1.99995E+01-9.90275E-05-3.89540E-07 3.06500E-04 3.43498E-13 3.93834E-14
 -1       512 1.99996E+01-8.18792E-05-3.22449E-07 2.38422E-04 3.44460E-13-2.22267E-13
 -1       513 1.99997E+01-6.75525E-05-2.69746E-07 1.81749E-04 1.97269E-13-3.91058E-14
 -1       514 1.99997E+01-5.63906E-05-2.34857E-07 1.34691E-04 9.11152E-14-7.29500E-14
 -1       515 1.99997E+01-4.83357E-05-1.83673E-07 9.55542E-05 1.45553E-14 2.45848E-14
 -1       516 1.99998E+01-4.23893E-05-2.01515E-07 6.75919E-05-1.03424E-13 2.48879E-13
 -1       517 1.91540E+01 5.84677E-01 1.50989E-03-8.01070E-01 3.02483E-13-2.25990E-13
 -1       518 1.91321E+01 8.06970E-01 2.45095E-03-2.69984E-01 4.12980E-13-1.34308E-13
 -1       519 1.92835E+01 9.83038E-01 2.80849E-03 4.01086E-01 5.01638E-13-6.10960E-14
 -1       520 1.93071E+01 3.18303E-01 9.39633E-04-1.14436E+00 2.23079E-13-2.97339E-13
 -1       521 1.95235E+01 5.37539E-02 3.68416E-04-1.28262E+00 1.46093E-13-3.73440E-13
 -1       522 1.97393E+01-1.58052E-01-1.78653E-04-1.24214E+00 1.04285E-13-3.62724E-13
 -1       523 1.99139E+01-2.88820E-01-5.95818E-04-1.07931E+00 9.66167E-14-3.60648E-13
 -1       524 2.00329E+01-3.38585E-01-8.28222E-04-8.57193E-01 2.91648E-14-3.03824E-13
 -1       525 2.01007E+01-3.26464E-01-8.87271E-04-6.27455E-01 3.39897E-14-2.77255E-13
 -1       526 2.01300E+01-2.77759E-01-8.15703E-04-4.23075E-01-3.64124E-14-1.63877E-13
 -1       527 2.01344E+01-2.14736E-01-6.70925E-04-2.59397E-01-9.47714E-14-1.11020E-13
 -1       528 2.01248E+01-1.52702E-01-5.05260E-04-1.39059E-01 7.45076E-15-7.20558E-14
 -1       529 2.01088E+01-9.99180E-02-3.50588E-04-5.73732E-02-7.30333E-14-3.12257E-14
 -1       530 2.00909E+01-5.93229E-02-2.23306E-04-6.53607E-03 3.49439E-14-5.35605E-14
 -1       531 2.00736E+01-3.05880E-02-1.27822E-04 2.16794E-02 9.81327E-14-1.54654E-14
 -1       532 2.00580E+01-1.17939E-02-6.17875E-05 3.45147E-02 4.50326E-15 7.24720E-14
 -1       533 2.00447E+01-5.44163E-04-1.97386E-05 3.76853E-02 1.13116E-13 1.02811E-13
 -1       534 2.00336E+01 5.41318E-03 4.48501E-06 3.53524E-02-4.76105E-14 2.06702E-13
 -1       535 2.00246E+01 7.91916E-03 1.65232E-05 3.03426E-02-1.40533E-13 1.33804E-13
 -1       536 2.00175E+01 8.34792E-03 2.08342E-05 2.44446E-02-1.73158E-13-5.31879E-15
 -1       537 2.00120E+01 7.65384E-03 2.06605E-05 1.86967E-02-4.39795E-14 1.02656E-13
 -1       538 2.00079E+01 6.45672E-03 1.82094E-05 1.36285E-02 7.75484E-14 1.66879E-13
 -1       539 2.00048E+01 5.13075E-03 1.48733E-05 9.44671E-03 5.24457E-14 2.28341E-13
 -1       540 2.00026E+01 3.88149E-03 1.14612E-05 6.16757E-03-6.05544E-14 2.94925E-13
 -1       541 2.00010E+01 2.80552E-03 8.39139E-06 3.70682E-03 1.99726E-13 1.01449E-13
 -1       542 2.00000E+01 1.93352E-03 5.83718E-06 1.93664E-03 2.88144E-13-5.02598E-14
 -1       543 1.99993E+01 1.25950E-03 3.82905E-06 7.19721E-04 9.61897E-14 1.28452E-13
 -1       544 1.99990E+01 7.59570E-04 2.32258E-06-7.22711E-05-3.17333E-14 2.13870E-13
 -1       545 1.99988E+01 4.03296E-04 1.24071E-06-5.50083E-04 2.79256E-13 9.83964E-14
 -1       546 1.99987E+01 1.60143E-04 4.98482E-07-8.04229E-04 3.09806E-13-9.43584E-14
 -1       547 1.99988E+01 2.67355E-06 1.60799E-08-9.05644E-04-9.93001E-14-1.16019E-13
 -1       548 1.99989E+01-9.21551E-05-2.75171E-07-9.07963E-04-2.58371E-13-2.60192E-13
 -1       549 1.99990E+01-1.42798E-04-4.31082E-07-8.50408E-04-1.43304E-13-2.20570E-13
 -1       550 1.99991E+01-1.63495E-04-4.95089E-07-7.60685E-04 1.89768E-13-2.71354E-13
 -1       551 1.99992E+01-1.64890E-04-4.99817E-07-6.57618E-04 9.38679E-14-1.85616E-13
 -1       552 1.99993E+01-1.54708E-04-4.69045E-07-5.53380E-04-3.16284E-13 1.98435E-13
 -1       553 1.99994E+01-1.38396E-04-4.19673E-07-4.55298E-04-2.49349E-13-7.74995E-15
 -1       554 1.99995E+01-1.19693E-04-3.63593E-07-3.67271E-04-1.01310E-13-2.17245E-13
 -1       555 1.99996E+01-1.01093E-04-3.08055E-07-2.90838E-04 2.15912E-14-4.05281E-14
 -1       556 1.99996E+01-8.41920E-05-2.61972E-07-2.25964E-04 6.62454E-14 1.06627E-15
 -1       557 1.99997E+01-7.00122E-05-2.13575E-07-1.71658E-04-2.02255E-13 2.38389E-13
 -1       558 1.99997E+01-5.90413E-05-1.78737E-07-1.26303E-04-1.53032E-13 4.87186E-13
 -1       559 1.99998E+01-5.15306E-05-1.83807E-07-8.80035E-05 1.13533E-13 3.59848E-13
 -1       560 1.99998E+01-1.48898E-04 4.21302E-08-8.74753E-05 7.46180E-14-7.15083E-13
 -1       561 1.99998E+01-1.17265E-04-8.02620E-08-9.59900E-05 6.49018E-14-2.38081E-13
 -1       562 1.99998E+01-8.23248E-05-8.40784E-08-9.10483E-05 2.65683E-15 5.66217E-13
 -1       563 5.23888E+00-1.94952E-01 1.75470E-01 3.45376E+00-5.38208E-13 1.12353E-12
 -1       564 1.99998E+01-1.74684E-04 7.26792E-08-6.61138E-05-1.77623E-13-3.37549E-13
 -1       565 1.99998E+01-1.91332E-04 9.25736E-08-3.53130E-05-3.47465E-13-7.20487E-13
 -1       566 1.99999E+01-1.97038E-04 9.96616E-08 4.78273E-07-5.48491E-13-1.27997E-13
 -1       567 1.99998E+01-1.91167E-04 9.15095E-08 3.62247E-05-3.98752E-13-4.73293E-14
 -1       568 1.99998E+01-1.74716E-04 6.73725E-08 6.63948E-05-2.07148E-14-6.83009E-13
 -1       569 1.99998E+01-1.48855E-04 3.97771E-08 8.76235E-05 1.76942E-13 2.24533E-13
 -1       570 1.99998E+01-1.16668E-04-2.21600E-08 9.60474E-05 1.62083E-13 5.99296E-13
 -1       571 1.99998E+01-8.13377E-05-5.40836E-08 9.06719E-05 8.12497E-14 1.06189E-13
 -1       572 3.08248E+01-2.09135E-01-1.10219E-01 1.12368E+00 4.33072E-13-9.84629E-13
 -1       573 9.82285E+00-1.55622E+00 1.53990E-01-5.30734E+00 5.05311E-13 8.90926E-13
 -1       574 3.22992E+01 7.86217E+00-1.54251E-01-3.51491E-01 1.36671E-12-8.64923E-13
 -1       575 7.09498E+00 2.67594E+00 1.49571E-01-7.02362E+00-8.11316E-13-1.60209E-12
 -1       576 2.60124E+01 2.33465E+00-2.76559E-02 1.48789E+00-3.83374E-15-3.72574E-13
 -1       577 2.66594E+01 1.02869E+00-3.78903E-02-5.41476E-02-3.48828E-13-2.96012E-13
 -1       578 5.34614E+00 4.13315E-01 2.14737E-01-6.58997E-01-9.23359E-14 1.21936E-12
 -1       579 1.51753E+01-1.14710E+00 6.88842E-02 3.57377E+00 1.11827E-13-9.55416E-13
 -1       580 3.20170E+01 4.62313E+00-1.28827E-01-6.88836E-01 1.03062E-12-1.09555E-12
 -1       581 3.19007E+01 8.54142E+00-1.79626E-01 8.82890E-01 1.36836E-12-5.11874E-13
 -1       582 2.70070E+01 1.59259E-01-3.16048E-02-3.42229E+00-1.79998E-13-4.67876E-13
 -1       583 6.05482E+00 2.58220E+00 1.82384E-01 1.00248E+00-4.77257E-14-1.55238E-12
 -1       584 1.96795E+01-4.07465E+00 8.79990E-02-6.24921E+00 7.13402E-13 1.00968E-13
 -1       585 1.90284E+01-4.24652E+00 8.25972E-02 7.87463E+00-6.72851E-13-7.03734E-14
 -1       586 1.91362E+01 1.01813E+00 8.67458E-03 1.36451E+00 6.06180E-13 2.69604E-13
 -1       587 1.00825E+01-2.93315E-01 1.51853E-01 5.91778E+00-8.35960E-13 6.57266E-13
 -1       588 1.98421E+00 2.99979E+00 1.41331E-01-4.38038E+00-5.22776E-13-1.87843E-12
 -1       589 2.87021E+01-2.65430E+00-4.21420E-02 2.24634E+00-4.24114E-14-8.61491E-13
 -1       590 1.91706E+01 9.65384E-01 5.04456E-03 8.83865E-01 5.47986E-13 8.31475E-14
 -1       591 2.36426E+01-4.35486E+00 2.11753E-02 6.06737E+00-5.09807E-13-5.70865E-13
 -1       592 3.00000E+01 7.16504E+00-1.54300E-01 1.70870E+00 1.09743E-12-2.78982E-13
 -1       593 3.01388E+01 3.80649E+00-1.24929E-01 1.38174E+00 5.45848E-13-1.19574E-13
 -1       594 2.41166E+01 3.46554E+00-8.49471E-03 2.28174E+00 4.46699E-13-3.57585E-13
 -1       595 1.99649E+01 1.54059E+00 4.57473E-03 1.72351E+00 6.49355E-13-3.67794E-15
 -1       596 1.99998E+01-9.46617E-05-4.52031E-08-1.30937E-04-1.76619E-13 2.83624E-13
 -1       597 1.52899E+01 2.29420E+00 3.90860E-02-2.82100E+00 7.24931E-14 4.51635E-14
 -1       598 1.70787E+01 2.17354E+00 1.02183E-02-2.13080E+00-8.06610E-14-2.18474E-13
 -1       599 1.82902E+01 1.76321E+00 3.42730E-03-1.62130E+00 1.43025E-14-2.01478E-13
 -1       600 1.90550E+01 1.31454E+00 1.63829E-03-1.21939E+00-1.30523E-13-2.33714E-13
 -1       601 1.95129E+01 9.34233E-01 1.08679E-03-9.00640E-01-2.93103E-13-1.20068E-13
 -1       602 1.97740E+01 6.45184E-01 7.67185E-04-6.54104E-01-1.35091E-13-1.63290E-14
 -1       603 1.99153E+01 4.38003E-01 5.19507E-04-4.68689E-01-3.07170E-14-2.98993E-14
 -1       604 1.99867E+01 2.94520E-01 3.40092E-04-3.32474E-01-3.56808E-13-2.39482E-13
 -1       605 2.00190E+01 1.97172E-01 2.19347E-04-2.34101E-01-2.00310E-13-2.65170E-13
 -1       606 2.00305E+01 1.31893E-01 1.40890E-04-1.63864E-01-8.92534E-14-3.01759E-13
 -1       607 2.00316E+01 8.83628E-02 9.07100E-05-1.14073E-01-1.49907E-13-2.16179E-13
 -1       608 2.00280E+01 5.93714E-02 5.86652E-05-7.89214E-02 1.08682E-13-7.86018E-14
 -1       609 2.00229E+01 4.00208E-02 3.80461E-05-5.41616E-02 9.14763E-15-2.81014E-14
 -1       610 2.00177E+01 2.70432E-02 2.47319E-05-3.67513E-02 1.28511E-13-1.28131E-13
 -1       611 2.00131E+01 1.82832E-02 1.60837E-05-2.45367E-02 1.31818E-13-5.17981E-14
 -1       612 2.00093E+01 1.23277E-02 1.04273E-05-1.60003E-02 4.70453E-14 8.98085E-15
 -1       613 2.00064E+01 8.25182E-03 6.70161E-06-1.00729E-02 8.22390E-14 1.82717E-13
 -1       614 2.00041E+01 5.44823E-03 4.23316E-06-5.99888E-03 2.86859E-14 1.05084E-13
 -1       615 2.00025E+01 3.51548E-03 2.59233E-06-3.24159E-03 4.10614E-14-9.61795E-14
 -1       616 2.00014E+01 2.18540E-03 1.50273E-06-1.41737E-03 1.20941E-13-4.67811E-13
 -1       617 2.00006E+01 1.27639E-03 7.84385E-07-2.50568E-04 5.39723E-14-5.26272E-13
 -1       618 2.00001E+01 6.63557E-04 3.18364E-07 4.57624E-04-2.30018E-13-3.61221E-13
 -1       619 1.99998E+01 2.59632E-04 2.47284E-08 8.50760E-04-1.05706E-13-5.80925E-14
 -1       620 1.99996E+01 2.76988E-06-1.51144E-07 1.03227E-03 4.58351E-14-1.35753E-15
 -1       621 1.99995E+01-1.51356E-04-2.47137E-07 1.07621E-03-1.32830E-13-2.45526E-14
 -1       622 1.99994E+01-2.34736E-04-2.89804E-07 1.03509E-03 6.46851E-14-1.29021E-13
 -1       623 1.99995E+01-2.70502E-04-2.97859E-07 9.45510E-04 2.30298E-13 4.58169E-14
 -1       624 1.99995E+01-2.75328E-04-2.84475E-07 8.32433E-04-1.73063E-14-2.14827E-13
 -1       625 1.99995E+01-2.61135E-04-2.58887E-07 7.12331E-04-1.83341E-13-4.28011E-14
 -1       626 1.99996E+01-2.36335E-04-2.27601E-07 5.95552E-04-2.70209E-13 2.88625E-13
 -1       627 1.99996E+01-2.06744E-04-1.94861E-07 4.88087E-04-6.62181E-14 3.45266E-13
 -1       628 1.99996E+01-1.76288E-04-1.64080E-07 3.92911E-04 9.79484E-14 9.09559E-14
 -1       629 1.99997E+01-1.47591E-04-1.33953E-07 3.10953E-04 1.06988E-13 9.80454E-14
 -1       630 1.99997E+01-1.22293E-04-1.09200E-07 2.41690E-04 1.14607E-14 4.76961E-14
 -1       631 1.99997E+01-1.01599E-04-1.33031E-07 1.84129E-04 2.34309E-13-2.93580E-13
 -1       632 1.99997E+01-8.54048E-05-1.20784E-07 1.36120E-04 2.89935E-13 1.13928E-14
 -1       633 2.02949E+01 1.22147E+00 2.70323E-04-5.63153E-01 4.13254E-13-3.10578E-13
 -1       634 2.03551E+01 7.86151E-01 4.16742E-04-1.10842E+00 3.11430E-13-3.71854E-13
 -1       635 2.03703E+01 1.54142E+00 1.38981E-03 1.83441E-01 5.10250E-13-2.27245E-13
 -1       636 2.06002E+01-1.12953E-01 1.42527E-04-1.41311E+00 1.43511E-13-4.17250E-13
 -1       637 2.06542E+01-3.99911E-01-7.24135E-05-1.25442E+00 1.07298E-13-4.20706E-13
 -1       638 2.06357E+01-5.37883E-01-2.22639E-04-1.00196E+00 1.26804E-14-4.20985E-13
 -1       639 2.05629E+01-5.53444E-01-3.07525E-04-7.30797E-01 3.70926E-15-3.19503E-13
 -1       640 2.04628E+01-4.90780E-01-3.15006E-04-4.87881E-01-9.09715E-14-2.26139E-13
 -1       641 2.03590E+01-3.91831E-01-2.66523E-04-2.94172E-01-1.31212E-13-2.32559E-13
 -1       642 2.02660E+01-2.86990E-01-2.03861E-04-1.52936E-01-6.19555E-14-1.66007E-13
 -1       643 2.01902E+01-1.93833E-01-1.42489E-04-5.79649E-02-4.12619E-14-2.01888E-13
 -1       644 2.01325E+01-1.19785E-01-9.18642E-05 5.50840E-04-2.41663E-14-2.55411E-13
 -1       645 2.00906E+01-6.57667E-02-5.38301E-05 3.26097E-02-4.42210E-14-1.83621E-13
 -1       646 2.00613E+01-2.92877E-02-2.73072E-05 4.68123E-02-4.55632E-14-2.73481E-14
 -1       647 2.00413E+01-6.56987E-03-1.01405E-05 4.98406E-02 8.44105E-14 2.64755E-14
 -1       648 2.00278E+01 6.19843E-03-1.85582E-07 4.65094E-02-5.95969E-14 1.76946E-13
 -1       649 2.00188E+01 1.22652E-02 4.92430E-06 4.00775E-02-3.92692E-14 1.01563E-13
 -1       650 2.00128E+01 1.41365E-02 6.97511E-06 3.26151E-02-1.16760E-13 8.40403E-14
 -1       651 2.00087E+01 1.36082E-02 7.20724E-06 2.53348E-02-9.97680E-14-2.08778E-14
 -1       652 2.00059E+01 1.18851E-02 6.49242E-06 1.88664E-02-1.64435E-14-5.93642E-14
 -1       653 2.00040E+01 9.72338E-03 5.38049E-06 1.34657E-02 1.18981E-13 5.07915E-14
 -1       654 2.00026E+01 7.56114E-03 4.19354E-06 9.16503E-03 6.85740E-14-6.25184E-14
 -1       655 2.00016E+01 5.62450E-03 3.10197E-06 5.87520E-03 1.93556E-13-2.06715E-13
 -1       656 2.00009E+01 4.00631E-03 2.18075E-06 3.45129E-03 2.11412E-13 8.15840E-14
 -1       657 2.00004E+01 2.72133E-03 1.44865E-06 1.73290E-03 9.29543E-14 3.06605E-13
 -1       658 2.00001E+01 1.74291E-03 8.94337E-07 5.66736E-04 9.54929E-16 3.31510E-13
 -1       659 1.99999E+01 1.02597E-03 4.92678E-07-1.82132E-04 2.06605E-13 1.71287E-13
 -1       660 1.99997E+01 5.20671E-04 2.14414E-07-6.26163E-04 4.11113E-13-1.41696E-15
 -1       661 1.99996E+01 1.79763E-04 3.13784E-08-8.55263E-04 1.86539E-13 3.16568E-14
 -1       662 1.99996E+01-3.79158E-05-8.10367E-08-9.38877E-04-5.25111E-14 9.35779E-15
 -1       663 1.99996E+01-1.66296E-04-1.43035E-07-9.28988E-04-1.90017E-13 1.52098E-14
 -1       664 1.99996E+01-2.32218E-04-1.70466E-07-8.63329E-04 1.43118E-13-2.30519E-13
 -1       665 1.99996E+01-2.56211E-04-1.75292E-07-7.68397E-04 4.66159E-14 2.99975E-14
 -1       666 1.99996E+01-2.53519E-04-1.66210E-07-6.62091E-04-1.69663E-13-2.70233E-13
 -1       667 1.99996E+01-2.35149E-04-1.49600E-07-5.55900E-04-1.08131E-13-4.33025E-13
 -1       668 1.99997E+01-2.08824E-04-1.30155E-07-4.56669E-04-1.18247E-13-2.41434E-13
 -1       669 1.99997E+01-1.79821E-04-1.09669E-07-3.67958E-04-6.15463E-14-1.91272E-13
 -1       670 1.99997E+01-1.51590E-04-1.18191E-07-2.91142E-04-8.44457E-14-1.79632E-13
 -1       671 1.99997E+01-1.26642E-04-1.44476E-07-2.26780E-04-3.77450E-13 7.45786E-14
 -1       672 1.99997E+01-1.08858E-04-1.35398E-07-1.74844E-04-3.93279E-13 2.72058E-13
 -1       673 1.99999E+01-2.08205E-04 4.09241E-08-6.70861E-05-3.66978E-14-6.38896E-13
 -1       674 1.99999E+01-1.84107E-04 6.04096E-08-1.02179E-04-4.50820E-14-6.78100E-13
 -1       675 2.04835E+01 3.06486E-01 3.50235E-04-1.38815E+00 2.10373E-13-4.13202E-13
 -1       676 1.99999E+01-2.20852E-04 3.15617E-08 2.40688E-05-1.53559E-13 4.51582E-14
 -1       677 1.99999E+01-2.08500E-04 2.56549E-08 6.73638E-05-2.03073E-13-1.93884E-13
 -1       678 1.99999E+01-1.84520E-04 2.31880E-08 1.02476E-04-3.36746E-14 6.43706E-14
 -1       679 1.99998E+01-1.51372E-04 2.91283E-08 1.23750E-04 2.01912E-13 7.44883E-13
 -1       680 1.99998E+01-1.20136E-04 2.29334E-08 1.36988E-04 1.46331E-13 3.52262E-13
 -1       681 1.78864E+01-3.00933E+00 9.70056E-02 7.18248E+00-8.12690E-13-3.87537E-14
 -1       682 2.90647E+01 1.32065E+00-1.14119E-01-1.08285E+00 5.45796E-13-1.17945E-12
 -1       683 2.25148E+01-1.27005E-01 7.85538E-02-5.22477E+00-6.91565E-13-7.71865E-13
 -1       684 2.57056E+01 3.42991E+00-2.41520E-02 2.35595E+00 3.44358E-13-2.40174E-13
 -1       685 2.75675E+01 2.75734E+00-5.61581E-02 1.90003E+00 1.74258E-13-8.97511E-14
 -1       686 7.82510E+00 1.64236E+00 1.80319E-01 1.45674E+00-4.51840E-13 8.36546E-13
 -1       687 2.86378E+01 7.56479E+00-1.60649E-01 2.68565E-02 1.15884E-12-6.19376E-13
 -1       688 1.01759E+01 1.14306E+00 1.37875E-01-3.37064E+00 3.69635E-13 6.26069E-13
 -1       689 1.99999E+01-2.20876E-04 3.57935E-08-2.30499E-05-8.03705E-14-5.05405E-13
 -1       690 2.27664E+01 3.14272E+00-3.67871E-03 2.12281E+00 5.32802E-13-4.03798E-13
 -1       691 2.88168E+01 5.48781E+00-1.35174E-01-1.29415E+00 9.79758E-13-9.62525E-13
 -1       692 1.99998E+01-1.51832E-04 1.15727E-07-1.24053E-04-2.57164E-13-5.14346E-13
 -1       693 2.15636E+01 2.58327E+00-2.54227E-03 1.98245E+00 6.35179E-13-3.14407E-13
 -1       694 2.64599E+01-3.82740E+00 3.94419E-03 3.49035E+00-4.31044E-13-7.36911E-13
 -1       695 1.46188E+01-1.17214E+00 9.66906E-02 6.48108E+00-8.83137E-13 3.33945E-13
 -1       696 2.88593E+01 2.03038E+00-9.37214E-02 5.83637E-01 1.11893E-13-9.38104E-14
 -1       697 1.30086E+01 8.73250E-01 1.36054E-01-4.34513E+00 4.98258E-13 5.24983E-13
 -1       698 2.05848E+01 1.77471E+00 3.26863E-03 1.01349E+00 5.86558E-13-2.10720E-13
 -1       699 2.83153E+01-8.80823E-01-5.06265E-02-2.33010E-01 2.03974E-13-1.16933E-12
 -1       700 2.16570E+01-3.77598E+00 3.75771E-02 6.01497E+00-7.46986E-13-4.01417E-13
 -1       701 2.88024E+01 5.17185E+00-1.04273E-01 2.18120E+00 7.09141E-13-8.08693E-14
 -1       702 1.07292E+01 2.29119E+00 1.35947E-01-1.39799E+00-3.01610E-14 4.00156E-13
 -1       703 2.76419E+01 7.16067E+00-1.23780E-01 1.05199E+00 1.04747E-12-3.83112E-13
 -1       704 1.46141E+01 2.58011E+00 1.81912E-02-8.02865E-01-2.20046E-13-3.71044E-14
 -1       705 1.15794E+01 1.57456E+00 1.00483E-01 3.41145E+00-6.35453E-13 4.79762E-13
 -1       706 2.19725E+01 2.76016E+00 2.87769E-05 1.44732E+00 5.73516E-13-2.83425E-13
 -1       707 2.15053E+01 2.40948E+00-9.52714E-06 7.66203E-01 5.49088E-13-2.62974E-13
 -1       708 1.65331E+01 2.19827E+00 5.58318E-03-6.96714E-01-5.33960E-14-7.43799E-14
 -1       709 1.78516E+01 1.72347E+00 1.15823E-03-6.70130E-01-7.36588E-14-2.33234E-13
 -1       710 1.86995E+01 1.28076E+00 2.15886E-04-5.93712E-01-8.10860E-14-1.95259E-13
 -1       711 1.92322E+01 9.20161E-01 1.53904E-04-4.95228E-01-1.52436E-13-6.00454E-14
 -1       712 1.95597E+01 6.46551E-01 1.33114E-04-3.95391E-01-1.61766E-13 3.06148E-14
 -1       713 1.97566E+01 4.47946E-01 1.00372E-04-3.05902E-01-1.82873E-13 2.27075E-14
 -1       714 1.98721E+01 3.07820E-01 7.08134E-05-2.31308E-01-3.21021E-13 5.07302E-14
 -1       715 1.99379E+01 2.10707E-01 4.80003E-05-1.71895E-01-2.06320E-13 7.99398E-14
 -1       716 1.99742E+01 1.44093E-01 3.23742E-05-1.25968E-01-7.48386E-14-3.90540E-14
 -1       717 1.99931E+01 9.86327E-02 2.21222E-05-9.11817E-02 3.59570E-14 1.25510E-13
 -1       718 2.00022E+01 6.76406E-02 1.49508E-05-6.52011E-02 1.01869E-13 8.87040E-14
 -1       719 2.00060E+01 4.64648E-02 1.00285E-05-4.60011E-02 9.87235E-14 2.88460E-14
 -1       720 2.00069E+01 3.19319E-02 6.68857E-06-3.19395E-02 3.80161E-14-6.66166E-14
 -1       721 2.00065E+01 2.19029E-02 4.43217E-06-2.17313E-02-9.69103E-14-1.66361E-13
 -1       722 2.00056E+01 1.49433E-02 2.90798E-06-1.43923E-02 1.76083E-14-3.06331E-13
 -1       723 2.00045E+01 1.00919E-02 1.87764E-06-9.17736E-03 5.26507E-14-3.79188E-13
 -1       724 2.00035E+01 6.70207E-03 1.18156E-06-5.52613E-03 2.07534E-14-3.79709E-13
 -1       725 2.00026E+01 4.33525E-03 7.12958E-07-3.01857E-03-1.67775E-13-3.36925E-13
 -1       726 2.00019E+01 2.69080E-03 3.99961E-07-1.34052E-03 9.42137E-14-2.49359E-13
 -1       727 2.00013E+01 1.55973E-03 1.93878E-07-2.57557E-04-8.07694E-14-1.86376E-13
 -1       728 2.00009E+01 7.94716E-04 6.14040E-08 4.04593E-04-2.23924E-13-1.12408E-13
 -1       729 2.00005E+01 2.90512E-04-2.04702E-08 7.74755E-04 2.29169E-13-1.75803E-13
 -1       730 2.00003E+01-2.88842E-05-6.77935E-08 9.47396E-04 5.07745E-14 2.06327E-13
 -1       731 2.00001E+01-2.18747E-04-9.18473E-08 9.91031E-04-1.42609E-13 5.47104E-13
 -1       732 2.00000E+01-3.19386E-04-1.00595E-07 9.54629E-04-2.85630E-14 3.41462E-13
 -1       733 1.99999E+01-3.60144E-04-9.96371E-08 8.72529E-04-9.41903E-14 6.99376E-14
 -1       734 1.99999E+01-3.62244E-04-9.28676E-08 7.68210E-04-7.54781E-14 1.25652E-13
 -1       735 1.99998E+01-3.40876E-04-8.30850E-08 6.57180E-04-4.39849E-14-1.78139E-14
 -1       736 1.99998E+01-3.06745E-04-7.29135E-08 5.49158E-04-7.20819E-14 3.09390E-13
 -1       737 1.99998E+01-2.67210E-04-6.34771E-08 4.49743E-04-1.14011E-13 3.46474E-13
 -1       738 1.99998E+01-2.27177E-04-4.90854E-08 3.61754E-04 2.18962E-13 6.79459E-13
 -1       739 1.99998E+01-1.90141E-04-6.26362E-08 2.86093E-04 1.47802E-13 7.99267E-13
 -1       740 1.99998E+01-1.57635E-04 2.70127E-08 2.21877E-04 9.01418E-14 9.49206E-13
 -1       741 1.99998E+01-1.37206E-04-9.07817E-08 1.76165E-04-4.38199E-14 7.18788E-13
 -1       742 1.99999E+01-2.29523E-04 1.32588E-08 1.09088E-04-1.57470E-13 1.11700E-13
 -1       743 1.99999E+01-2.50468E-04 2.40789E-08-5.78300E-05 5.89374E-14-7.44200E-13
 -1       744 2.13755E+01 1.53012E+00-3.02395E-04-9.23263E-01 4.47905E-13-3.40222E-13
 -1       745 2.13599E+01 2.11256E+00 8.47971E-05-1.52387E-01 5.16093E-13-2.86401E-13
 -1       746 2.13867E+01-7.35022E-01 7.28918E-05-1.04352E+00 8.90984E-15-4.25681E-13
 -1       747 2.15329E+01-4.50243E-01 6.19865E-05-1.33667E+00 1.04872E-13-4.59472E-13
 -1       748 2.09073E+01-7.41816E-01-1.08350E-04-4.51642E-01-1.08921E-13-3.19638E-13
 -1       749 2.06686E+01-6.05315E-01-9.28526E-05-2.42582E-01-1.69961E-13-2.45961E-13
 -1       750 2.04676E+01-4.51175E-01-7.16194E-05-9.89396E-02-1.07577E-13-3.20024E-13
 -1       751 2.03120E+01-3.10076E-01-4.68013E-05-9.04386E-03-2.53499E-14-2.75839E-13
 -1       752 2.01991E+01-1.95696E-01-2.80293E-05 4.13466E-02 2.40482E-15-3.42962E-13
 -1       753 2.01217E+01-1.10813E-01-1.55474E-05 6.49438E-02-9.25341E-14-3.33843E-13
 -1       754 2.00712E+01-5.24595E-02-7.37771E-06 7.16670E-02-1.54794E-13-2.60294E-13
 -1       755 2.00398E+01-1.53224E-02-1.70402E-06 6.86492E-02-7.57679E-14-2.07342E-13
 -1       756 2.00211E+01 6.22266E-03 1.00062E-06 6.06638E-02-1.99175E-13-2.06463E-14
 -1       757 2.00107E+01 1.70674E-02 2.05082E-06 5.07298E-02 3.90523E-14-4.87076E-14
 -1       758 2.00052E+01 2.10535E-02 2.36168E-06 4.06543E-02 4.99005E-14-2.25704E-13
 -1       759 2.00025E+01 2.09889E-02 2.21882E-06 3.14206E-02-1.50423E-13-2.62030E-13
 -1       760 2.00014E+01 1.87961E-02 1.88324E-06 2.34784E-02-2.02396E-14-2.29175E-13
 -1       761 2.00010E+01 1.57104E-02 1.49510E-06 1.69531E-02-9.37709E-15-3.02121E-13
 -1       762 2.00009E+01 1.24711E-02 1.12608E-06 1.17859E-02 1.79738E-13-1.57930E-13
 -1       763 2.00009E+01 9.47968E-03 8.08384E-07 7.82435E-03 9.42225E-14-8.73370E-14
 -1       764 2.00009E+01 6.91981E-03 5.51898E-07 4.87937E-03 9.35719E-14-4.70738E-14
 -1       765 2.00008E+01 4.84362E-03 3.54701E-07 2.75849E-03 5.72708E-14 3.63082E-14
 -1       766 2.00008E+01 3.22984E-03 2.09349E-07 1.28425E-03-2.99630E-14 1.86227E-13
 -1       767 2.00006E+01 2.02145E-03 1.06514E-07 3.02656E-04 1.07657E-13 2.50261E-13
 -1       768 2.00005E+01 1.14870E-03 3.69540E-08-3.14147E-04 4.39285E-13 3.37048E-13
 -1       769 2.00004E+01 5.42081E-04-7.55709E-09-6.68768E-04 3.49871E-13 2.99067E-13
 -1       770 2.00003E+01 1.39066E-04-3.38676E-08-8.41151E-04 1.42591E-13 1.44786E-13
 -1       771 2.00002E+01-1.13201E-04-4.74358E-08-8.91918E-04-2.35788E-15-2.43626E-14
 -1       772 2.00001E+01-2.57433E-04-5.24439E-08-8.65831E-04 1.05883E-13-1.91048E-13
 -1       773 2.00000E+01-3.26950E-04-5.19462E-08-7.95023E-04 1.53542E-13-5.00685E-13
 -1       774 2.00000E+01-3.46975E-04-4.79850E-08-7.01838E-04 1.67042E-13-7.72918E-13
 -1       775 1.99999E+01-3.36082E-04-4.17299E-08-6.01209E-04-2.80467E-13-3.81448E-13
 -1       776 1.99999E+01-3.07576E-04-3.52494E-08-5.02585E-04-3.05470E-13-6.40118E-14
 -1       777 1.99998E+01-2.70717E-04-3.01040E-08-4.11499E-04 1.72179E-14 3.83926E-14
 -1       778 1.99998E+01-2.31888E-04-4.29205E-08-3.30777E-04-5.16938E-14 1.45959E-13
 -1       779 1.99998E+01-1.94500E-04 2.92261E-07-2.60415E-04-2.51930E-13 1.86126E-13
 -1       780 2.46726E+01 4.31300E+00-1.63035E-02 2.04326E+00 5.46074E-13-2.81345E-13
 -1       781 2.31988E+01 3.55510E+00-2.44069E-03 1.71283E+00 5.34394E-13-3.77324E-13
 -1       782 1.99999E+01-2.28697E-04 6.70858E-09-1.08963E-04-1.63368E-13-2.20797E-13
 -1       783 1.99999E+01-1.96036E-04 2.52560E-09 1.46035E-04-4.79096E-14 4.85801E-13
 -1       784 1.99999E+01-2.50610E-04 1.94173E-08 5.88334E-05-3.46025E-13 7.65908E-14
 -1       785 2.11607E+01-8.08624E-01-3.65304E-05-7.26723E-01-8.76438E-14-3.55738E-13
 -1       786 2.66751E+01 2.73694E+00-6.97068E-02-1.66187E+00 5.49479E-13-8.83124E-13
 -1       787 1.99998E+01-1.76376E-04-5.33089E-08-1.65251E-04-2.90840E-13-4.46440E-13
 -1       788 1.99999E+01-2.05604E-04-5.36625E-08-1.41104E-04-1.96370E-13-6.17090E-13
 -1       789 1.99999E+01-2.57934E-04 3.36792E-08 5.12960E-07 3.76268E-15-3.36941E-13
 -1       790 2.65056E+01 5.70912E+00-9.03452E-02-7.60988E-01 9.05429E-13-6.57308E-13
 -1       791 2.72006E+01-2.41351E+00-1.60642E-02 8.78465E-01-1.97181E-13-9.88758E-13
 -1       792 1.22536E+01 2.44445E+00 5.97143E-02 9.28695E-01-2.94665E-13 2.41895E-13
 -1       793 1.84811E+01-2.14461E+00 5.89436E-02 5.96171E+00-8.53184E-13-8.93955E-14
 -1       794 2.57796E+01 6.04131E+00-5.81975E-02 1.68577E-01 8.66255E-13-5.10766E-13
 -1       795 2.14812E+01 7.90304E-01 1.72256E-04-1.38520E+00 3.09692E-13-4.57754E-13
 -1       796 2.15605E+01 7.72610E-02 1.16931E-04-1.49440E+00 1.65788E-13-4.99757E-13
 -1       797 1.99998E+01-1.86329E-04 1.93214E-08-2.09422E-04-5.53320E-13 2.16480E-14
 -1       798 2.66840E+01 9.80385E-01-3.40770E-02-1.47175E+00 3.64903E-13-9.69981E-13
 -1       799 1.99998E+01-1.68431E-04-7.13915E-08 1.66005E-04-4.10734E-13 5.47617E-13
 -1       800 2.70728E+01 6.04909E+00-8.88932E-02 1.93501E+00 8.12614E-13-2.15517E-13
 -1       801 2.67193E+01 4.65265E+00-5.51920E-02 2.35771E+00 5.41709E-13-1.16157E-13
 -1       802 1.53499E+01 2.06072E-01 4.32009E-02 4.60843E+00-7.73866E-13 2.52348E-13
 -1       803 2.26695E+01 3.40426E+00 6.90169E-05 9.79169E-01 5.65800E-13-3.43601E-13
 -1       804 2.50647E+01 3.74928E+00-3.55079E-02-1.21046E+00 6.10825E-13-7.18087E-13
 -1       805 1.80179E+01 1.41913E+00-5.13440E-05 1.20927E-01-1.80797E-13 9.90968E-14
 -1       806 1.87275E+01 1.08132E+00-1.32126E-04-5.67932E-02-1.51775E-13-7.48808E-14
 -1       807 1.91965E+01 7.98334E-01-5.92490E-05-1.34092E-01-6.85220E-14-1.33139E-13
 -1       808 1.95013E+01 5.77014E-01-2.17097E-05-1.55364E-01-1.10557E-13-9.59332E-14
 -1       809 1.96961E+01 4.11303E-01-6.70266E-06-1.48207E-01-3.54567E-13-8.82919E-14
 -1       810 1.98186E+01 2.90757E-01-3.99112E-06-1.28716E-01-2.35214E-13-3.96934E-14
 -1       811 1.98944E+01 2.04607E-01-2.86095E-06-1.05656E-01-2.07650E-13-1.11851E-14
 -1       812 1.99406E+01 1.43685E-01-6.73754E-07-8.34685E-02 1.19026E-13 8.02358E-14
 -1       813 1.99682E+01 1.00861E-01-7.97199E-09-6.40416E-02 7.58188E-14 1.76216E-14
 -1       814 1.99844E+01 7.07948E-02 5.85115E-08-4.79326E-02-4.67554E-14 8.24243E-15
 -1       815 1.99936E+01 4.96543E-02 4.51735E-08-3.50564E-02 3.92005E-14-1.17090E-14
 -1       816 1.99986E+01 3.47439E-02 4.11371E-08-2.50402E-02-1.24013E-13-9.31376E-14
 -1       817 2.00012E+01 2.41901E-02 3.97969E-08-1.74203E-02-2.48398E-13-1.74749E-13
 -1       818 2.00023E+01 1.66976E-02 3.47041E-08-1.17392E-02-5.44620E-15-3.00803E-13
 -1       819 2.00027E+01 1.13707E-02 2.65678E-08-7.58737E-03-1.05748E-13-3.34003E-13
 -1       820 2.00027E+01 7.58766E-03 1.77066E-08-4.61741E-03-7.99184E-14-2.70403E-13
 -1       821 2.00024E+01 4.91272E-03 9.70527E-09-2.54448E-03-5.00256E-14-2.51877E-13
 -1       822 2.00021E+01 3.03730E-03 3.25217E-09-1.14056E-03 5.98693E-15-3.77282E-13
 -1       823 2.00018E+01 1.74022E-03-1.52186E-09-2.26597E-04-1.30843E-13-3.68912E-13
 -1       824 2.00014E+01 8.61104E-04-4.76498E-09 3.35710E-04 6.07239E-14-4.67479E-14
 -1       825 2.00011E+01 2.82624E-04-6.73312E-09 6.51478E-04 4.05127E-13-1.86774E-13
 -1       826 2.00009E+01-8.15984E-05-7.71472E-09 7.99339E-04 1.00023E-13-1.74696E-14
 -1       827 2.00006E+01-2.95295E-04-8.00653E-09 8.37101E-04-9.47091E-14 1.28534E-13
 -1       828 2.00004E+01-4.05406E-04-7.91007E-09 8.06443E-04-2.21201E-13 1.18579E-13
 -1       829 2.00003E+01-4.46299E-04-7.70926E-09 7.36736E-04 1.62329E-13 2.59426E-13
 -1       830 2.00002E+01-4.42888E-04-7.55547E-09 6.48109E-04-1.03982E-13 2.21524E-13
 -1       831 2.00001E+01-4.13019E-04-8.07046E-09 5.53867E-04-1.85698E-13 1.34927E-13
 -1       832 2.00000E+01-3.69274E-04-1.48037E-08 4.62290E-04 1.29720E-13 9.35630E-14
 -1       833 1.99999E+01-3.20126E-04-3.02686E-08 3.78008E-04 2.24152E-13 4.11430E-13
 -1       834 1.99999E+01-2.71601E-04-1.55918E-08 3.03957E-04 2.21048E-13 5.06919E-13
 -1       835 1.99999E+01-2.26515E-04 8.26460E-09 2.39110E-04 2.14680E-13 5.23392E-13
 -1       836 1.99999E+01-2.50724E-04 3.06979E-08 1.62380E-04-8.88395E-14 4.60837E-13
 -1       837 2.22682E+01-9.24182E-01 2.63699E-04-9.87711E-01 4.23142E-14-5.09083E-13
 -1       838 2.07010E+01-6.30818E-01-1.42629E-05 5.07028E-02-1.05377E-13-3.51578E-13
 -1       839 2.10310E+01-8.43112E-01 6.83056E-06-7.42896E-02-1.86839E-13-3.81971E-13
 -1       840 2.02743E+01-2.74998E-01-6.49356E-06 1.33116E-01 2.98556E-14-3.94576E-13
 -1       841 2.01558E+01-1.56399E-01-3.48361E-06 1.31027E-01-4.05160E-14-2.64123E-13
 -1       842 2.00809E+01-7.46199E-02-2.48626E-06 1.17395E-01-1.99811E-13-2.07560E-13
 -1       843 2.00363E+01-2.23593E-02 1.23305E-06 9.93494E-02-1.45834E-13-2.00577E-13
 -1       844 2.00117E+01 8.22673E-03 2.19115E-06 8.08668E-02-1.81160E-13-2.18877E-13
 -1       845 1.99995E+01 2.38957E-02 1.52765E-06 6.38606E-02-4.23984E-14-2.48156E-13
 -1       846 1.99945E+01 2.99092E-02 1.14689E-06 4.91655E-02 1.64753E-13-2.51029E-13
 -1       847 1.99935E+01 3.01506E-02 7.98459E-07 3.69879E-02-5.97985E-14-1.52425E-13
 -1       848 1.99944E+01 2.72960E-02 5.20545E-07 2.71949E-02-8.30006E-14-2.42652E-13
 -1       849 1.99959E+01 2.30806E-02 3.15167E-07 1.95075E-02 2.92475E-14-2.38922E-13
 -1       850 1.99975E+01 1.85585E-02 1.72698E-07 1.36009E-02 9.71804E-14-4.11550E-13
 -1       851 1.99988E+01 1.43158E-02 7.94390E-08 9.15498E-03 1.01021E-13-3.69569E-13
 -1       852 1.99998E+01 1.06337E-02 2.18503E-08 5.87888E-03-2.81551E-14-1.47721E-13
 -1       853 2.00005E+01 7.60564E-03-1.12594E-08 3.52034E-03-9.60567E-14 2.37552E-13
 -1       854 2.00009E+01 5.21754E-03-2.83113E-08 1.86769E-03 3.25572E-14 2.33171E-13
 -1       855 2.00011E+01 3.40063E-03-3.52902E-08 7.47708E-04 2.65601E-14 2.27531E-14
 -1       856 2.00011E+01 2.06413E-03-3.62792E-08 2.15575E-05 1.98591E-13 2.55866E-14
 -1       857 2.00010E+01 1.11441E-03-3.39648E-08-4.19900E-04 3.76869E-13 1.75533E-13
 -1       858 2.00009E+01 4.65212E-04-3.00593E-08-6.60887E-04 3.77259E-13 2.57320E-13
 -1       859 2.00008E+01 4.22804E-05-2.56265E-08-7.65183E-04 2.02139E-13 8.60347E-14
 -1       860 2.00006E+01-2.15409E-04-2.13223E-08-7.80123E-04 2.09158E-13-2.01880E-13
 -1       861 2.00005E+01-3.56215E-04-1.75285E-08-7.40073E-04 4.94574E-13-1.63657E-13
 -1       862 2.00003E+01-4.17316E-04-1.42276E-08-6.69343E-04 2.52313E-13-2.93236E-13
 -1       863 2.00002E+01-4.26535E-04-1.06422E-08-5.84613E-04-2.86094E-13-1.75394E-13
 -1       864 2.00001E+01-4.04183E-04-5.96628E-09-4.96841E-04-3.96296E-13-2.92224E-13
 -1       865 2.00000E+01-3.64629E-04-4.73287E-09-4.12791E-04-2.51824E-13-2.44091E-13
 -1       866 2.00000E+01-3.17675E-04-3.50175E-08-3.36441E-04-1.56823E-13-3.06276E-14
 -1       867 1.99999E+01-2.70303E-04-6.14177E-08-2.69455E-04 1.13017E-13-1.76032E-13
 -1       868 2.39600E+01 4.51492E+00-1.83257E-02 1.26326E+00 6.02771E-13-3.38197E-13
 -1       869 2.00000E+01-2.82148E-04 2.15190E-09-1.05474E-04 2.28900E-14-4.67479E-13
 -1       870 2.00000E+01-2.82969E-04-6.74762E-08 1.07057E-04-1.29049E-13-5.00121E-14
 -1       871 2.18800E+01-3.00959E+00 1.84601E-02 4.71481E+00-7.15953E-13-4.59668E-13
 -1       872 2.04513E+01-4.34514E-01-1.09373E-05 1.12141E-01-6.45819E-14-3.70930E-13
 -1       873 1.69630E+01 1.77874E+00 2.80046E-03 4.64403E-01-1.21876E-13 1.91588E-13
 -1       874 2.52800E+01 5.30708E+00-4.98563E-02 1.62272E+00 6.87153E-13-2.75749E-13
 -1       875 1.53918E+01 2.12051E+00 7.23446E-03 9.51678E-01-2.40731E-13 2.23838E-13
 -1       876 2.50673E+01-3.55422E+00-2.01407E-03 3.19559E+00-5.26793E-13-7.27461E-13
 -1       877 1.42870E+01 1.52339E+00 3.44059E-02 2.92493E+00-4.68222E-13 2.21217E-13
 -1       878 1.99999E+01-2.60924E-04-4.63173E-07-1.52315E-04-6.88286E-14-3.57256E-13
 -1       879 2.44527E+01 4.39123E+00-3.02333E-02-5.86431E-01 6.62181E-13-5.72797E-13
 -1       880 2.25019E+01 1.57687E+00-1.38106E-03-1.30680E+00 4.47889E-13-3.60031E-13
 -1       881 2.18684E+01-1.08929E+00 2.35837E-04-5.99328E-01-9.68622E-14-4.30421E-13
 -1       882 1.95416E+01-1.65926E+00 2.36945E-02 4.63544E+00-7.32432E-13-1.59143E-13
 -1       883 2.25370E+01-4.16219E-01-6.11318E-04-1.35818E+00 1.52475E-13-5.05153E-13
 -1       884 2.52447E+01 2.48397E+00-2.82877E-02-1.56468E+00 4.85020E-13-8.07747E-13
 -1       885 2.00000E+01-2.99357E-04 7.51812E-08-3.64429E-05 1.76676E-13-3.03173E-13
 -1       886 2.00000E+01-2.99480E-04 4.82342E-08 3.73724E-05 3.20649E-13-5.27935E-13
 -1       887 2.14320E+01-1.02357E+00 1.13968E-05-2.86820E-01-8.30346E-14-4.36790E-13
 -1       888 2.23737E+01 2.59614E+00-5.46384E-03-6.10137E-01 5.15629E-13-3.70391E-13
 -1       889 1.99999E+01-2.22882E-04 4.21623E-08-1.87598E-04-2.56295E-13-4.82737E-13
 -1       890 2.55261E+01 5.77498E+00-6.13852E-02 9.39298E-01 7.68578E-13-3.93066E-13
 -1       891 2.64164E+01-6.37242E-01-2.38398E-02-8.83311E-01 2.06908E-13-9.51988E-13
 -1       892 2.26064E+01 4.64869E-01-9.51331E-04-1.53130E+00 2.90275E-13-4.19926E-13
 -1       893 2.19999E+01-2.38588E+00 5.56992E-03 3.42930E+00-5.10327E-13-3.31185E-13
 -1       894 2.00000E+01-3.00773E-04-1.71964E-07 2.15790E-04 2.43288E-13 3.81746E-13
 -1       895 1.89862E+01 7.98750E-01-8.89662E-05 2.78132E-01-1.02937E-13-6.24769E-14
 -1       896 1.93234E+01 6.15614E-01-2.52867E-05 1.07066E-01-2.15959E-13-1.43243E-13
 -1       897 1.95555E+01 4.62601E-01-6.30035E-06 1.51273E-02-2.05935E-13-2.07072E-13
 -1       898 1.97123E+01 3.42015E-01-1.45577E-05-2.95363E-02-2.09589E-13 6.07914E-14
 -1       899 1.98165E+01 2.50275E-01-1.47288E-05-4.70539E-02-1.82134E-13 1.52156E-13
 -1       900 1.98849E+01 1.81821E-01-1.17016E-05-4.99660E-02-4.19178E-14-2.08092E-14
 -1       901 1.99292E+01 1.31563E-01-9.11301E-06-4.57614E-02-2.81035E-14-4.99056E-14
 -1       902 1.99576E+01 9.49010E-02-7.39864E-06-3.86240E-02-5.38752E-14-2.01969E-13
 -1       903 1.99756E+01 6.82376E-02-5.70217E-06-3.08794E-02-6.15123E-14-5.98032E-14
 -1       904 1.99868E+01 4.88637E-02-4.15036E-06-2.36772E-02 4.37449E-16-1.32374E-13
 -1       905 1.99937E+01 3.47824E-02-2.89319E-06-1.75045E-02-3.68764E-13-3.18012E-13
 -1       906 1.99978E+01 2.45449E-02-1.95344E-06-1.24878E-02-1.60069E-13-2.91727E-13
 -1       907 2.00002E+01 1.71077E-02-1.28135E-06-8.56955E-03-5.58594E-14-3.66031E-13
 -1       908 2.00015E+01 1.17188E-02-8.13147E-07-5.60952E-03-8.99535E-14-1.84625E-13
 -1       909 2.00021E+01 7.83460E-03-4.93400E-07-3.44159E-03-2.06098E-13-2.53981E-13
 -1       910 2.00023E+01 5.05838E-03-2.79250E-07-1.90328E-03-1.56348E-13-3.17759E-13
 -1       911 2.00022E+01 3.09857E-03-1.39075E-07-8.49842E-04 1.35467E-13-1.85025E-13
 -1       912 2.00020E+01 1.73894E-03-5.00574E-08-1.59419E-04 1.28758E-13-1.09697E-14
 -1       913 2.00017E+01 8.18120E-04 4.05624E-09 2.66587E-04 4.01076E-14-1.53174E-13
 -1       914 2.00015E+01 2.15271E-04 3.47310E-08 5.05499E-04 3.31007E-13-3.39650E-13
 -1       915 2.00012E+01-1.60163E-04 4.99666E-08 6.16360E-04 1.14141E-13-1.25180E-13
 -1       916 2.00009E+01-3.75830E-04 5.52363E-08 6.43145E-04-1.57385E-13 2.93304E-13
 -1       917 2.00007E+01-4.81942E-04 5.41275E-08 6.17790E-04 1.18728E-14 4.22400E-13
 -1       918 2.00005E+01-5.15395E-04 4.88300E-08 5.62860E-04 6.59540E-14 2.29677E-13
 -1       919 2.00004E+01-5.02920E-04 3.91366E-08 4.93842E-04-7.33109E-14 3.54581E-13
 -1       920 2.00002E+01-4.63698E-04 2.85513E-08 4.21033E-04 4.05074E-14 3.75836E-13
 -1       921 2.00001E+01-4.11232E-04-2.40871E-08 3.50671E-04 2.17288E-13 3.62810E-13
 -1       922 2.00000E+01-3.54397E-04 9.82566E-08 2.85110E-04 3.21524E-13 5.46839E-13
 -1       923 1.77079E+01-1.02737E-01 2.02205E-02 3.77169E+00-5.23573E-13 8.59326E-14
 -1       924 2.00768E+01-8.48599E-02-1.51085E-05 1.89777E-01-1.34581E-13-2.77117E-14
 -1       925 2.01726E+01-1.88023E-01-1.47889E-05 2.39882E-01-7.10376E-14-1.68351E-13
 -1       926 1.99946E+01 1.72075E-02-9.08373E-07 1.09057E-01-1.78412E-13-1.95705E-13
 -1       927 1.99826E+01 3.58550E-02-2.24838E-06 8.04090E-02-1.15956E-13-2.83318E-13
 -1       928 1.99797E+01 4.24854E-02-1.96780E-06 5.84389E-02-7.62451E-15-2.06495E-13
 -1       929 1.99814E+01 4.20165E-02-1.58406E-06 4.19481E-02-8.98649E-14-4.24090E-14
 -1       930 1.99850E+01 3.77896E-02-1.26035E-06 2.97242E-02-8.73524E-14 1.44718E-13
 -1       931 1.99890E+01 3.19495E-02-9.97361E-07 2.07487E-02 8.56198E-14-1.85350E-13
 -1       932 1.99927E+01 2.57948E-02-7.78553E-07 1.42133E-02 2.57211E-13-4.09282E-13
 -1       933 1.99956E+01 2.00471E-02-5.93699E-07 9.49570E-03 2.56521E-14-1.78606E-13
 -1       934 1.99979E+01 1.50524E-02-4.39958E-07 6.12506E-03-1.79802E-13-1.33507E-13
 -1       935 1.99995E+01 1.09247E-02-3.15451E-07 3.74829E-03-3.08134E-13 2.57199E-14
 -1       936 2.00005E+01 7.64461E-03-2.17411E-07 2.10134E-03-6.18342E-14 7.76765E-14
 -1       937 2.00011E+01 5.12393E-03-1.42339E-07 9.86865E-04 1.41954E-13 2.61479E-13
 -1       938 2.00014E+01 3.24610E-03-8.64939E-08 2.57362E-04 1.35711E-13-1.82837E-14
 -1       939 2.00015E+01 1.89019E-03-4.62559E-08-1.97296E-04 1.97672E-13 1.20247E-13
 -1       940 2.00014E+01 9.43948E-04-1.83393E-08-4.59080E-04 3.67870E-13 8.38323E-14
 -1       941 2.00013E+01 3.09826E-04 9.41642E-11-5.88639E-04 4.14901E-13 4.13045E-14
 -1       942 2.00011E+01-9.31227E-05 1.13688E-08-6.30424E-04 3.45722E-13-1.17304E-13
 -1       943 2.00009E+01-3.29741E-04 1.72509E-08-6.16589E-04 2.94365E-13-2.54690E-13
 -1       944 2.00007E+01-4.50470E-04 1.90752E-08-5.69977E-04 2.85471E-13-1.54287E-13
 -1       945 2.00005E+01-4.93516E-04 1.85488E-08-5.06439E-04-7.04054E-14 8.82131E-14
 -1       946 2.00004E+01-4.87129E-04 1.86733E-08-4.36678E-04-3.03814E-13-1.37501E-13
 -1       947 2.00002E+01-4.51811E-04 2.12871E-08-3.67504E-04-3.67083E-13-2.69095E-13
 -1       948 2.00001E+01-4.01719E-04-6.34295E-09-3.03019E-04-8.48767E-14-4.81816E-13
 -1       949 2.00000E+01-3.46891E-04 2.35796E-07-2.45810E-04 1.08239E-13-6.23779E-13
 -1       950 1.68798E+01 1.28382E+00 1.84790E-03 1.86596E+00-2.08862E-13-4.25533E-14
 -1       951 2.31649E+01 3.77267E+00-4.89219E-03 7.56688E-02 5.77514E-13-4.29619E-13
 -1       952 2.00000E+01-3.40737E-04 6.88799E-08 1.44217E-04 1.72919E-13 1.27248E-13
 -1       953 2.00225E+01-1.99880E-02 1.10633E-06 1.45403E-01-2.09318E-13-1.54508E-13
 -1       954 2.09224E+01-8.08579E-01 7.77224E-05 3.22288E-01-2.44615E-13-1.96159E-13
 -1       955 1.85074E+01 9.97518E-01-2.76558E-04 5.75372E-01-2.44541E-13-4.67314E-14
 -1       956 1.78529E+01 1.16714E+00-6.20485E-04 1.07269E+00-1.32798E-13-8.89337E-14
 -1       957 2.53739E+01 1.03019E+00-1.89774E-02-1.57141E+00 3.38786E-13-7.85496E-13
 -1       958 2.00000E+01-3.20481E-04 8.86372E-08-1.56474E-04-4.57172E-13-3.00112E-13
 -1       959 2.35783E+01 2.76343E+00-1.16284E-02-1.15790E+00 4.76781E-13-5.56508E-13
 -1       960 2.41449E+01-2.90769E+00 3.76391E-04 2.34827E+00-3.77025E-13-6.01693E-13
 -1       961 2.56439E+01-2.22212E+00-9.57549E-03 4.47098E-01-1.54673E-13-7.93992E-13
 -1       962 2.26698E+01-1.41063E+00 1.04734E-03-3.28799E-01-6.38149E-14-3.73148E-13
 -1       963 2.14007E+01-1.09477E+00 3.24379E-04 2.42499E-01-1.87860E-13-2.43999E-13
 -1       964 1.99723E+01-1.20963E+00 4.25865E-03 3.43869E+00-5.22035E-13-1.49220E-13
 -1       965 2.32860E+01-1.11448E+00-1.07231E-03-8.38925E-01 7.68382E-14-4.03480E-13
 -1       966 2.03293E+01-3.39750E-01 4.30369E-06 2.89413E-01-7.40166E-14-1.73148E-13
 -1       967 2.00001E+01-3.62162E-04-4.48311E-08 5.67199E-05-1.36859E-13-5.25941E-13
 -1       968 2.05708E+01-5.47576E-01 1.35977E-05 3.25051E-01-7.27755E-14-1.67539E-13
 -1       969 2.37550E+01 1.13322E+00-2.49967E-03-1.56447E+00 4.00286E-13-5.32852E-13
 -1       970 2.00001E+01-3.46515E-04-1.74390E-08-7.41444E-05-4.95705E-14-1.16534E-13
 -1       971 2.49327E+01-1.09871E+00-8.37796E-03-7.87526E-01 9.39455E-14-6.50360E-13
 -1       972 1.99860E+01 2.45566E-03 7.91223E-05 2.06631E-01-1.58265E-13-1.29739E-13
 -1       973 1.81886E+01 3.45143E-01 7.37540E-03 2.50961E+00-2.96984E-13 8.58645E-15
 -1       974 1.95063E+01 4.27774E-01 1.32295E-04 2.31677E-01-2.33919E-13-6.60072E-14
 -1       975 1.96562E+01 3.39681E-01 1.61043E-05 1.12966E-01-5.39487E-14 8.59714E-14
 -1       976 1.97650E+01 2.63315E-01-4.69668E-05 4.48364E-02-1.52974E-13 1.96882E-14
 -1       977 1.98420E+01 2.00842E-01-1.18796E-05 8.20021E-03-2.79098E-13 3.97400E-15
 -1       978 1.98952E+01 1.51595E-01-3.03481E-05-9.77312E-03-1.16257E-13-1.56428E-13
 -1       979 1.99319E+01 1.13384E-01-2.57310E-05-1.67961E-02-6.76586E-14-3.10103E-13
 -1       980 1.99568E+01 8.41530E-02-2.11621E-05-1.79995E-02 1.11336E-13-2.67850E-13
 -1       981 1.99734E+01 6.19861E-02-1.62779E-05-1.63459E-02-7.31763E-14-1.22837E-15
 -1       982 1.99845E+01 4.52702E-02-1.19968E-05-1.35482E-02-3.59930E-13-9.32364E-14
 -1       983 1.99917E+01 3.27225E-02-8.61070E-06-1.05401E-02-2.92755E-13-1.01192E-13
 -1       984 1.99963E+01 2.33486E-02-6.05988E-06-7.78425E-03-1.31740E-13-2.75825E-13
 -1       985 1.99992E+01 1.63868E-02-4.18689E-06-5.47094E-03 8.52310E-14-1.54427E-13
 -1       986 2.00008E+01 1.12556E-02-2.83373E-06-3.64068E-03-1.43437E-13-1.78672E-13
 -1       987 2.00017E+01 7.51081E-03-1.86869E-06-2.25869E-03-1.73738E-13 1.46696E-13
 -1       988 2.00021E+01 4.81272E-03-1.18915E-06-1.25811E-03 4.64414E-14 2.39011E-13
 -1       989 2.00022E+01 2.90055E-03-7.17535E-07-5.63977E-04 2.89455E-13 3.05861E-13
 -1       990 2.00021E+01 1.57402E-03-3.96136E-07-1.05543E-04-6.94907E-15 3.96268E-13
 -1       991 2.00019E+01 6.79464E-04-1.82342E-07 1.78298E-04-1.29676E-13 3.04730E-13
 -1       992 2.00016E+01 9.93388E-05-4.48690E-08 3.37388E-04 5.25200E-13 3.19906E-14
 -1       993 2.00014E+01-2.55739E-04 3.91621E-08 4.10700E-04 4.29490E-13 4.39195E-13
 -1       994 2.00011E+01-4.53176E-04 8.63699E-08 4.27665E-04 1.16798E-13 4.63609E-13
 -1       995 2.00009E+01-5.43258E-04 1.08731E-07 4.09804E-04-1.50743E-13 5.05632E-13
 -1       996 2.00006E+01-5.62981E-04 1.20351E-07 3.72292E-04 7.41414E-14 6.77359E-13
 -1       997 2.00005E+01-5.38827E-04 1.15765E-07 3.25454E-04 1.68433E-13 6.42814E-13
 -1       998 2.00003E+01-4.89977E-04 2.22546E-07 2.76988E-04 2.73697E-13 5.70144E-13
 -1       999 2.00002E+01-4.30608E-04 1.17060E-07 2.30692E-04 1.53882E-13 6.46213E-13
 -1      1000 1.99654E+01 5.80509E-02-7.49726E-06 4.56452E-02-2.09760E-14-1.57616E-13
 -1      1001 2.00391E+01-6.79989E-02-3.01953E-05 2.89244E-01-1.38925E-13-1.25823E-13
 -1      1002 1.93045E+01 5.19189E-01 3.29282E-05 4.28650E-01-1.31311E-13-6.09164E-14
 -1      1003 2.00001E+01-3.59353E-04-5.06942E-08-1.04037E-05-5.21488E-14-4.37913E-13
 -1      1004 1.99587E+01 6.14691E-02-6.22395E-06 6.77314E-02-2.30400E-13-1.16316E-13
 -1      1005 1.99559E+01 5.75044E-02-1.20808E-05 9.96316E-02-9.35356E-14-2.51505E-13
 -1      1006 1.99731E+01 5.09795E-02-7.17175E-06 3.04933E-02-1.05206E-13-1.79397E-13
 -1      1007 1.99804E+01 4.25712E-02-6.41313E-06 2.01805E-02 1.41860E-13-2.40616E-13
 -1      1008 1.99867E+01 3.41918E-02-5.43838E-06 1.31975E-02 2.30847E-13-9.96267E-14
 -1      1009 1.99916E+01 2.65714E-02-4.41226E-06 8.48577E-03-7.52014E-14-8.79167E-15
 -1      1010 1.99953E+01 2.00350E-02-3.44956E-06 5.31686E-03-1.09277E-13 6.82214E-14
 -1      1011 1.99980E+01 1.46619E-02-2.61014E-06 3.19548E-03-2.41826E-13 1.60721E-13
 -1      1012 1.99997E+01 1.03929E-02-1.91415E-06 1.78665E-03-2.17650E-13-1.72051E-14
 -1      1013 2.00008E+01 7.10016E-03-1.35854E-06 8.63762E-04-3.76337E-14-1.22552E-13
 -1      1014 2.00014E+01 4.62981E-03-9.28684E-07 2.72868E-04 2.26145E-13-9.00496E-14
 -1      1015 2.00017E+01 2.82731E-03-6.05458E-07-9.14210E-05 1.70262E-13-3.88628E-15
 -1      1016 2.00018E+01 1.55103E-03-3.69175E-07-3.01879E-04 2.01770E-13 1.13275E-15
 -1      1017 2.00017E+01 6.78359E-04-2.01623E-07-4.09157E-04 4.05363E-13 1.36210E-13
 -1      1018 2.00015E+01 1.07448E-04-8.69869E-08-4.48688E-04 4.45202E-13 6.67462E-14
 -1      1019 2.00012E+01-2.43679E-04-1.21733E-08-4.45285E-04 4.57206E-13 2.42637E-13
 -1      1020 2.00010E+01-4.39224E-04 3.31742E-08-4.16230E-04 3.25302E-13 1.27140E-13
 -1      1021 2.00008E+01-5.28271E-04 5.74792E-08-3.73400E-04-2.24068E-14 6.17914E-14
 -1      1022 2.00006E+01-5.47430E-04 7.46909E-08-3.24742E-04-3.30772E-14 2.21447E-13
 -1      1023 2.00004E+01-5.23232E-04 5.99348E-08-2.75647E-04-3.24772E-13 2.43047E-14
 -1      1024 2.00003E+01-4.75456E-04 4.01151E-08-2.29229E-04-7.56906E-14-4.15495E-13
 -1      1025 2.00002E+01-4.15808E-04 1.97251E-07-1.87435E-04-1.34330E-13-2.14905E-13
 -1      1026 1.99625E+01 4.01531E-02-7.40835E-06 1.44471E-01-1.06652E-13-1.29302E-13
 -1      1027 1.87323E+01 6.11775E-01-3.95633E-05 1.23683E+00-1.94436E-13-1.78997E-13
 -1      1028 1.90451E+01 5.94301E-01 1.04752E-04 7.44732E-01-1.38910E-13-1.55438E-13
 -1      1029 2.00001E+01-3.83615E-04-1.02923E-08-1.24773E-04-9.29082E-14-2.90885E-14
 -1      1030 1.84635E+01 5.38540E-01-1.52521E-03 1.78452E+00-2.13372E-13-8.58969E-14
 -1      1031 2.19993E+01-1.33761E+00 4.65731E-04 3.88530E-02-1.45046E-13-3.56851E-13
 -1      1032 2.17278E+01-1.80702E+00-5.12621E-04 2.38518E+00-4.26758E-13-4.35268E-13
 -1      1033 2.36850E+01-2.86639E-01-1.45834E-03-1.35251E+00 2.20031E-13-4.85857E-13
 -1      1034 2.31284E+01-2.26929E+00 4.99360E-04 1.67629E+00-2.92156E-13-4.65401E-13
 -1      1035 2.02990E+01-9.01408E-01 5.38030E-03 2.39229E+00-4.38217E-13-2.20545E-13
 -1      1036 2.35525E+01-1.80887E+00-2.84610E-03 1.24052E-01-1.39026E-13-4.95414E-13
 -1      1037 2.25555E+01-1.68786E+00 1.85603E-03 5.56942E-01-1.56702E-13-2.84926E-13
 -1      1038 2.01423E+01-1.85968E-01-7.62908E-05 3.94092E-01-3.94839E-14-7.59544E-14
 -1      1039 2.42567E+01-2.01565E+00-2.60896E-03 2.73752E-01-9.13000E-14-5.50172E-13
 -1      1040 2.00002E+01-4.62771E-04-4.77319E-07 1.09153E-04 1.77720E-13-1.12856E-13
 -1      1041 2.06163E+01-6.22903E-01 2.21703E-04 6.43608E-01-1.19454E-13-1.95192E-13
 -1      1042 2.10662E+01-9.60304E-01 1.12140E-04 7.40211E-01-2.00484E-13-8.99666E-14
 -1      1043 2.13488E+01-1.34685E+00-2.55425E-03 1.64288E+00-3.72419E-13-2.47174E-13
 -1      1044 1.97609E+01 2.31669E-01 1.40861E-05 1.55655E-01-1.16507E-13-2.17758E-13
 -1      1045 1.98282E+01 1.89425E-01 3.98035E-05 8.33295E-02-2.30731E-13-2.07580E-13
 -1      1046 1.98759E+01 1.53800E-01-6.06035E-05 4.09937E-02-2.60715E-13-1.32602E-14
 -1      1047 1.99137E+01 1.21196E-01-2.31498E-05 1.63270E-02-1.01159E-13 3.65824E-14
 -1      1048 1.99413E+01 9.39595E-02-9.01682E-06 3.29380E-03 8.86995E-14 3.62804E-14
 -1      1049 1.99612E+01 7.18101E-02-1.48793E-06-2.87609E-03 5.92157E-14-1.43296E-13
 -1      1050 1.99752E+01 5.41377E-02 2.17216E-06-5.19236E-03-1.42734E-13-2.02692E-13
 -1      1051 1.99850E+01 4.02453E-02 3.52736E-06-5.49061E-03-1.25331E-13-1.35877E-14
 -1      1052 1.99916E+01 2.94627E-02 3.66163E-06-4.84891E-03-2.47937E-13 2.36546E-13
 -1      1053 1.99960E+01 2.11937E-02 3.24023E-06-3.87033E-03 2.58939E-14 2.08286E-13
 -1      1054 1.99989E+01 1.49297E-02 2.63242E-06-2.86904E-03-6.18511E-14 9.18028E-14
 -1      1055 2.00006E+01 1.02468E-02 2.02326E-06-1.98991E-03 5.86981E-14 1.44005E-13
 -1      1056 2.00016E+01 6.79757E-03 1.49259E-06-1.28326E-03 4.24690E-14 1.95011E-13
 -1      1057 2.00021E+01 4.30044E-03 1.06441E-06-7.50346E-04 2.21473E-13 5.21152E-14
 -1      1058 2.00022E+01 2.52941E-03 7.35789E-07-3.69842E-04 1.49472E-13-1.58801E-13
 -1      1059 2.00021E+01 1.30493E-03 4.92673E-07-1.12710E-04 8.48121E-14-1.48662E-13
 -1      1060 2.00019E+01 4.85782E-04 3.18128E-07 5.01205E-05 1.79912E-13 1.42161E-13
 -1      1061 2.00017E+01-3.79289E-05 1.96219E-07 1.44214E-04 4.83168E-13 9.68808E-14
 -1      1062 2.00014E+01-3.50659E-04 1.13730E-07 1.90422E-04 2.29299E-13 2.20621E-14
 -1      1063 2.00011E+01-5.16470E-04 6.09013E-08 2.04880E-04 1.09781E-13 1.47534E-13
 -1      1064 2.00009E+01-5.83250E-04 3.04620E-08 1.99591E-04 9.86499E-14 4.15976E-13
 -1      1065 2.00007E+01-5.86397E-04-1.00781E-08 1.83264E-04-3.17816E-15 3.28360E-13
 -1      1066 2.00005E+01-5.51152E-04-1.38261E-07 1.59880E-04-5.97510E-14-2.69600E-14
 -1      1067 2.00004E+01-5.07892E-04-5.05143E-07 1.32681E-04 2.99327E-13-1.01824E-13
 -1      1068 1.99087E+01 5.78560E-02 1.90790E-04 2.80478E-01-1.66794E-13-5.12734E-14
 -1      1069 1.99700E+01 5.55064E-02-3.12125E-06 1.71959E-02-6.42611E-15-1.32451E-13
 -1      1070 1.94885E+01 2.78237E-01 5.00070E-05 7.21915E-01-1.15739E-13-2.07389E-13
 -1      1071 1.99342E+01-4.75462E-01-2.54963E-03 1.91202E+00-3.03916E-13-2.75129E-13
 -1      1072 1.99283E+01 9.02089E-02-5.28096E-06 7.55188E-02-1.82437E-13 4.07982E-14
 -1      1073 1.99796E+01 4.39769E-02-2.48124E-06 1.00951E-02 5.29602E-14 7.75910E-14
 -1      1074 1.99869E+01 3.39327E-02-1.73736E-06 5.77240E-03 1.79886E-13 9.92102E-14
 -1      1075 1.99923E+01 2.55356E-02-1.02961E-06 3.17822E-03-7.83461E-14 6.88122E-14
 -1      1076 1.99962E+01 1.87364E-02-4.47089E-07 1.64360E-03-2.66170E-13 3.17714E-14
 -1      1077 1.99987E+01 1.33773E-02-1.90079E-08 7.50332E-04-1.08362E-13-1.75464E-13
 -1      1078 2.00004E+01 9.25457E-03 2.63058E-07 2.41262E-04-1.04903E-13-1.88683E-13
 -1      1079 2.00013E+01 6.15644E-03 4.24796E-07-3.95475E-05-4.63555E-14-1.80186E-13
 -1      1080 2.00018E+01 3.88340E-03 4.96362E-07-1.85659E-04-6.28222E-16-4.93427E-14
 -1      1081 2.00020E+01 2.25860E-03 5.05722E-07-2.52831E-04 1.58988E-13 4.47147E-14
 -1      1082 2.00019E+01 1.13170E-03 4.75891E-07-2.74212E-04 2.28659E-13 4.74150E-14
 -1      1083 2.00018E+01 3.78827E-04 4.24343E-07-2.69563E-04 4.56212E-13 6.85030E-14
 -1      1084 2.00016E+01-9.94268E-05 3.63548E-07-2.50741E-04 1.59591E-13 6.85976E-14
 -1      1085 2.00013E+01-3.81033E-04 3.02107E-07-2.24926E-04 4.02741E-13 2.52665E-13
 -1      1086 2.00011E+01-5.25868E-04 2.46403E-07-1.96512E-04 2.94551E-13 2.11283E-13
 -1      1087 2.00008E+01-5.78972E-04 2.02538E-07-1.68226E-04-1.43710E-13 1.11832E-13
 -1      1088 2.00006E+01-5.73452E-04 1.85221E-07-1.41808E-04-2.29222E-13 1.70693E-13
 -1      1089 2.00004E+01-5.32371E-04-6.82504E-07-1.17326E-04 1.27331E-13 3.98201E-14
 -1      1090 2.00003E+01-4.72456E-04-1.10353E-07-9.58999E-05-1.81038E-13-2.78006E-13
 -1      1091 1.99138E+01 9.39943E-02-6.89068E-05 1.19180E-01-1.24601E-13-4.41981E-15
 -1      1092 1.99580E+01 6.79871E-02-3.60998E-06 2.86848E-02-1.30053E-13-1.36759E-13
 -1      1093 2.03226E+01-3.65956E-01-2.66340E-06 5.17511E-01-5.35086E-14-1.23722E-13
 -1      1094 1.94113E+01 1.95708E-01-1.14461E-04 1.11383E+00-1.62662E-13-1.15328E-13
 -1      1095 1.95877E+01 2.87343E-01-2.58397E-04 4.54015E-01-1.38701E-13-2.41364E-13
 -1      1096 2.17184E+01-1.35594E+00 2.32483E-03 7.49517E-01-2.67387E-13-1.85318E-13
 -1      1097 1.99073E+01 8.54861E-02 2.86470E-04 1.82185E-01-1.65491E-13-1.20275E-13
 -1      1098 1.99438E+01 8.02662E-02-4.29069E-06 4.69658E-02-8.91820E-14-1.87443E-13
 -1      1099 1.96788E+01 2.67880E-01-1.15012E-04 2.74863E-01-1.73556E-13-2.19528E-13
 -1      1100 2.08207E+01-9.33904E-01-9.39754E-04 1.41911E+00-3.16706E-13-1.79792E-13
 -1      1101 2.00001E+01-4.02857E-04-8.68853E-08-5.32138E-05-2.61689E-13-1.18581E-13
 -1      1102 2.01987E+01-3.22270E-01-4.05518E-05 8.12036E-01-1.09666E-13-1.76539E-14
 -1      1103 1.99443E+01-8.81893E-03-1.32158E-04 4.13682E-01-4.09038E-14-5.61962E-14
 -1      1104 2.36943E+01-1.20249E+00 1.04510E-03-7.45415E-01 1.94510E-14-5.24466E-13
 -1      1105 1.95701E+01-6.46637E-02-1.01575E-03 1.50003E+00-2.04716E-13-1.99627E-13
 -1      1106 1.98485E+01 1.45671E-01-4.99927E-04 1.54968E-01-1.58977E-13-6.37869E-14
 -1      1107 2.00294E+01-1.25258E-01 2.02521E-04 5.84773E-01-9.65228E-14-6.96518E-14
 -1      1108 2.00002E+01-4.16960E-04 2.76235E-07 1.28775E-05-2.98996E-13-4.35703E-13
 -1      1109 2.05067E+01-6.24945E-01 1.78902E-04 1.08031E+00-1.47864E-13-5.05124E-14
 -1      1110 1.98873E+01-1.72062E-01-1.10230E-04 1.14795E+00-1.65377E-13-3.92537E-13
 -1      1111 1.98058E+01 6.30734E-02 8.86991E-04 6.01037E-01-7.78063E-14-2.51850E-13
 -1      1112 2.24860E+01-1.84652E+00-2.32192E-03 1.21188E+00-2.48241E-13-2.81801E-13
 -1      1113 2.00003E+01-4.80733E-04 3.07239E-07-2.73884E-05-6.24517E-14-1.39326E-13
 -1      1114 2.00003E+01-5.00267E-04 6.51275E-07 4.51378E-05 3.02840E-13 2.36042E-13
 -1      1115 1.98221E+01-2.39819E-02-4.25677E-04 8.37599E-01-1.20627E-13-2.85458E-13
 -1      1116 2.00962E+01-3.83291E-01-1.82908E-03 1.29814E+00-2.28334E-13-3.44165E-13
 -1      1117 4.04859E+01 1.31027E+01 3.18943E+00-5.89216E+00-6.75016E-14 1.94889E-12
 -1      1118 2.58843E+01 7.90260E+00 4.57664E-01-2.87527E-01-2.66454E-14 6.73003E-14
 -1      1119 1.65223E+01 4.88059E+00-2.53631E-01 5.49444E-01-7.99361E-15-7.69254E-13
 -1      1120 1.03492E+01 2.92617E+00-5.95191E-01-8.84460E-01-8.99281E-15-1.15909E-12
 -1      1121 8.54526E+00 2.38043E+00-6.10408E-01-3.01340E+00-1.52794E-14-1.29389E-12
 -1      1122 1.03012E+01 2.98709E+00-3.44211E-01-4.58471E+00-1.77636E-14-1.32639E-12
 -1      1123 1.41271E+01 4.23888E+00 2.53823E-03-5.00352E+00-1.98730E-14-1.32594E-12
 -1      1124 1.83767E+01 5.59816E+00 2.83827E-01-4.02733E+00-1.91513E-14-1.31512E-12
 -1      1125 2.12601E+01 6.49274E+00 3.82285E-01-2.28955E+00-1.30451E-14-1.31022E-12
 -1      1126 2.25020E+01 6.85272E+00 3.40383E-01-5.19112E-01-6.18949E-15-1.32522E-12
 -1      1127 2.25401E+01 6.83694E+00 2.49684E-01 9.30101E-01 1.37737E-15-1.31850E-12
 -1      1128 2.19104E+01 6.62315E+00 1.66721E-01 2.00579E+00 9.46465E-15-1.26453E-12
 -1      1129 2.09970E+01 6.33110E+00 1.06657E-01 2.80918E+00 1.75693E-14-1.11948E-12
 -1      1130 2.00460E+01 6.03258E+00 6.26174E-02 3.45603E+00 2.67009E-14-8.06713E-13
 -1      1131 1.93149E+01 5.80261E+00 2.70502E-02 4.04462E+00 3.54439E-14-1.73403E-13
 -1      1132 1.93520E+01 5.82197E+00 5.45815E-02 4.73924E+00 4.38677E-14 1.04663E-12
 -1      1133 2.36226E+01 7.48149E+00 1.31562E+00 6.28040E+00 9.17599E-14 3.57439E-12
 -1      1134 4.62496E+01 4.72131E+00 1.57530E+00-4.20249E+00-2.72588E-13 3.16988E-12
 -1      1135 4.20174E+01-2.01543E-01-3.45360E-01 3.37615E-01-8.87901E-14 3.03849E-12
 -1      1136 4.35078E+01 1.50770E-01 5.94512E-01 4.46664E-02-1.11300E-14 3.04050E-12
 -1      1137 4.01002E+01 3.95018E-01 7.37075E-01-7.85698E-01 2.87314E-14 3.23741E-12
 -1      1138 3.01776E+01 2.38384E-01-5.44607E-01-1.34699E+00-1.43496E-14 2.77312E-12
 -1      1139 1.94895E+01-3.32496E-01-2.36940E+00-8.12262E-01-9.46881E-14 1.05727E-12
 -1      1140 1.64174E+01-5.69120E-01-2.83405E+00 3.46450E-01-1.33074E-13-1.63941E-12
 -1      1141 2.32366E+01-2.72872E-01-1.43255E+00 1.08889E+00 2.17187E-15-3.39617E-12
 -1      1142 3.28843E+01 2.96378E-01 2.39870E-01 8.87067E-01-5.77489E-15-3.67983E-12
 -1      1143 3.83571E+01 2.73114E-01 8.09593E-01 2.82005E-01 2.46365E-14-3.03757E-12
 -1      1144 3.72221E+01 8.18337E-02 4.42054E-01-1.05487E-01 9.17842E-15-2.20366E-12
 -1      1145 3.31072E+01-3.03898E-02 4.27055E-02-1.78204E-01 1.32215E-14-1.53558E-12
 -1      1146 2.90021E+01-6.32077E-02-1.19751E-01-1.38353E-01-1.14578E-14-1.30140E-12
 -1      1147 2.58711E+01-5.97518E-02-1.34294E-01-8.63038E-02-3.89081E-14-1.33069E-12
 -1      1148 2.37316E+01-4.61881E-02-1.01629E-01-4.87410E-02-1.53423E-14-1.44378E-12
 -1      1149 2.23422E+01-3.26835E-02-6.70283E-02-2.60943E-02 2.36833E-15-1.58586E-12
 -1      1150 2.14610E+01-2.21208E-02-4.18373E-02-1.34742E-02 4.55595E-14-1.41576E-12
 -1      1151 2.09079E+01-1.46232E-02-2.56162E-02-6.72424E-03-2.75431E-14-1.46907E-12
 -1      1152 2.05619E+01-9.55100E-03-1.56334E-02-3.20569E-03-1.29074E-15-1.46275E-12
 -1      1153 2.03453E+01-6.20619E-03-9.57434E-03-1.41180E-03-3.11393E-14-1.64908E-12
 -1      1154 2.02095E+01-4.02999E-03-5.90044E-03-5.21343E-04-2.10113E-15-1.98141E-12
 -1      1155 2.01242E+01-2.62272E-03-3.66366E-03-9.68484E-05-5.60587E-14-1.88453E-12
 -1      1156 2.00707E+01-1.71373E-03-2.29305E-03 9.15826E-05-5.48216E-14-2.32440E-12
 -1      1157 2.00372E+01-1.12512E-03-1.44632E-03 1.63371E-04 6.13677E-14-2.31423E-12
 -1      1158 2.00165E+01-7.41931E-04-9.18045E-04 1.79712E-04 3.60225E-14-1.91746E-12
 -1      1159 2.00040E+01-4.90621E-04-5.84665E-04 1.71370E-04 3.92042E-14-1.63375E-12
 -1      1160 1.99967E+01-3.24368E-04-3.71652E-04 1.53395E-04-2.04769E-14-1.44190E-12
 -1      1161 1.99927E+01-2.13408E-04-2.33879E-04 1.32858E-04 3.96402E-14-1.45824E-12
 -1      1162 1.99909E+01-1.38779E-04-1.43848E-04 1.12877E-04-1.42958E-14-1.56732E-12
 -1      1163 1.99904E+01-8.83189E-05-8.46389E-05 9.46792E-05-3.84255E-14-1.44531E-12
 -1      1164 1.99907E+01-5.41552E-05-4.56924E-05 7.86240E-05-1.61290E-14-1.48137E-12
 -1      1165 1.99914E+01-3.11184E-05-2.02929E-05 6.47034E-05-2.42228E-14-1.11385E-12
 -1      1166 1.99924E+01-1.57579E-05-4.07317E-06 5.27683E-05 3.86570E-14-1.15202E-12
 -1      1167 1.99934E+01-5.72888E-06 5.87742E-06 4.26279E-05 8.44643E-15-7.94476E-13
 -1      1168 1.99945E+01 5.91567E-07 1.15457E-05 3.40873E-05 9.76694E-14-5.11233E-13
 -1      1169 1.99954E+01 4.34395E-06 1.43153E-05 2.69608E-05-4.47242E-15-3.27320E-13
 -1      1170 1.99963E+01 6.33918E-06 1.51634E-05 2.10741E-05 3.72327E-14-3.36912E-13
 -1      1171 1.99970E+01 7.15743E-06 1.47843E-05 1.62649E-05-1.91697E-14-1.08790E-12
 -1      1172 1.99976E+01 7.21393E-06 1.36701E-05 1.23828E-05 8.51583E-15-1.19652E-12
 -1      1173 1.99981E+01 6.80421E-06 1.21659E-05 9.28974E-06-1.10132E-13-8.47483E-13
 -1      1174 1.99985E+01 6.13618E-06 1.05089E-05 6.86010E-06-3.68399E-14-1.51443E-12
 -1      1175 1.99989E+01 5.35354E-06 8.85761E-06 4.98144E-06 3.33474E-14-1.85597E-12
 -1      1176 1.99991E+01 4.55355E-06 7.31467E-06 3.55436E-06 1.31398E-13-7.50615E-13
 -1      1177 1.99993E+01 3.80101E-06 5.94557E-06 2.49170E-06-7.06181E-14-3.43439E-13
 -1      1178 1.99995E+01 3.13831E-06 4.79508E-06 1.71590E-06 3.09129E-14-3.85673E-13
 -1      1179 1.99996E+01 2.59315E-06 3.90207E-06 1.15417E-06-7.81572E-14-3.78547E-13
 -1      1180 1.99997E+01 2.18122E-06 3.30595E-06 7.30268E-07 2.62067E-14-4.75788E-13
 -1      1181 1.99998E+01 1.90370E-06 3.01182E-06 3.42682E-07 7.44640E-15-5.42601E-14
 -1      1182 1.99998E+01 1.70124E-06 2.78132E-06-1.72379E-07 6.30078E-14-1.13077E-13
 -1      1183 1.99998E+01 1.10567E-06 1.50553E-06-1.02673E-06-3.92347E-14-3.84493E-13
 -1      1184 1.99998E+01 7.87505E-07-2.47409E-06-1.46140E-06 1.08575E-13-4.11865E-13
 -1      1185 2.62105E+01 5.42983E-01 5.27244E-01 2.07510E+00-6.19262E-14 5.66880E-12
 -1      1186 1.71260E+01-7.21634E-02-5.96951E-01 1.80812E-01 3.43683E-14 4.61867E-12
 -1      1187 1.51654E+01-5.63179E-02-2.28764E-01 4.65720E-02 3.65021E-14 3.57809E-12
 -1      1188 1.42894E+01-4.11125E-02-8.31864E-02 2.31684E-02 6.62057E-15 2.91193E-12
 -1      1189 1.39592E+01-3.56207E-02-4.88500E-02 1.38018E-02 8.02743E-15 2.44876E-12
 -1      1190 1.40375E+01-2.99168E-02-4.18067E-02 6.57849E-03 1.98799E-14 2.05057E-12
 -1      1191 1.44582E+01-2.28152E-02-3.53232E-02-2.13168E-03 6.50131E-15 1.80901E-12
 -1      1192 1.51475E+01-1.42014E-02-2.42044E-02-1.12724E-02 1.81270E-14 1.54236E-12
 -1      1193 1.60055E+01-5.47860E-03-1.03784E-02-1.87416E-02 1.26418E-15 1.30593E-12
 -1      1194 1.69185E+01 1.76588E-03 2.64783E-03-2.29771E-02 6.73334E-15 1.18985E-12
 -1      1195 1.77834E+01 6.58412E-03 1.21534E-02-2.36125E-02 1.25258E-14 1.14096E-12
 -1      1196 1.85274E+01 8.87079E-03 1.71117E-02-2.13407E-02 1.70064E-14 9.31154E-13
 -1      1197 1.91145E+01 9.12752E-03 1.80055E-02-1.73705E-02 3.90421E-16 7.78240E-13
 -1      1198 1.95413E+01 8.09327E-03 1.61245E-02-1.28866E-02-1.38919E-15 7.48802E-13
 -1      1199 1.98263E+01 6.45751E-03 1.28697E-02-8.73864E-03 3.84436E-15 6.46453E-13
 -1      1200 1.99985E+01 4.72144E-03 9.33582E-03-5.37202E-03 3.38900E-14 6.88861E-13
 -1      1201 2.00888E+01 3.17749E-03 6.18513E-03-2.90611E-03-4.59734E-15 5.83500E-13
 -1      1202 2.01246E+01 1.95084E-03 3.70483E-03-1.26003E-03-1.38094E-14 4.95067E-13
 -1      1203 2.01276E+01 1.05778E-03 1.93141E-03-2.63790E-04-9.34275E-15 3.63188E-13
 -1      1204 2.01130E+01 4.56919E-04 7.69486E-04 2.67567E-04 4.18120E-14 1.74701E-13
 -1      1205 2.00912E+01 8.50828E-05 7.66287E-05 4.95054E-04 2.08137E-14 5.70386E-14
 -1      1206 2.00683E+01-1.21578E-04-2.87599E-04 5.41808E-04-1.59048E-14 2.16593E-13
 -1      1207 2.00477E+01-2.17505E-04-4.39466E-04 4.93421E-04 4.34591E-14 3.11107E-13
 -1      1208 2.00306E+01-2.44596E-04-4.65435E-04 4.04604E-04 2.67406E-14 4.89610E-13
 -1      1209 2.00174E+01-2.32735E-04-4.24803E-04 3.07367E-04-1.91804E-14 8.42408E-13
 -1      1210 2.00079E+01-2.01852E-04-3.55384E-04 2.18369E-04-5.65419E-14 1.08134E-12
 -1      1211 2.00013E+01-1.64366E-04-2.79471E-04 1.44659E-04 5.83343E-14 6.73874E-13
 -1      1212 1.99972E+01-1.27396E-04-2.08912E-04 8.77439E-05 6.93719E-14 1.73195E-13
 -1      1213 1.99948E+01-9.45539E-05-1.48982E-04 4.62751E-05-3.80013E-14 2.27150E-13
 -1      1214 1.99936E+01-6.72621E-05-1.01095E-04 1.77019E-05 4.07538E-14 3.26601E-13
 -1      1215 1.99934E+01-4.56753E-05-6.46135E-05-7.91704E-07-5.46836E-15-6.44322E-14
 -1      1216 1.99936E+01-2.92857E-05-3.79579E-05-1.18078E-05 2.25219E-14 2.29223E-13
 -1      1217 1.99942E+01-1.73012E-05-1.92649E-05-1.75333E-05-1.48845E-15 3.49858E-13
 -1      1218 1.99949E+01-8.86609E-06-6.73522E-06-1.96947E-05 5.77378E-14-1.00349E-14
 -1      1219 1.99957E+01-3.17885E-06 1.20297E-06-1.95903E-05 1.36488E-14-1.27927E-13
 -1      1220 1.99964E+01 4.53458E-07 5.83993E-06-1.81574E-05-3.19474E-14 2.39015E-14
 -1      1221 1.99971E+01 2.59917E-06 8.18823E-06-1.60453E-05-2.72448E-14 4.06836E-13
 -1      1222 1.99976E+01 3.70629E-06 9.01460E-06-1.36852E-05 6.58991E-14 5.64940E-13
 -1      1223 1.99981E+01 4.11687E-06 8.88187E-06-1.13478E-05 4.24142E-15 3.83810E-13
 -1      1224 1.99985E+01 4.08496E-06 8.19135E-06-9.19139E-06-3.42218E-15 3.14535E-13
 -1      1225 1.99989E+01 3.79476E-06 7.22135E-06-7.29717E-06-3.72469E-15 2.90727E-13
 -1      1226 1.99991E+01 3.37738E-06 6.16005E-06-5.69660E-06 1.79888E-14-3.05271E-14
 -1      1227 1.99993E+01 2.92501E-06 5.13317E-06-4.39033E-06-3.48752E-14-2.69846E-13
 -1      1228 1.99995E+01 2.50355E-06 4.22890E-06-3.36091E-06-1.84040E-14-2.37290E-13
 -1      1229 1.99996E+01 2.16251E-06 3.52049E-06-2.57988E-06-5.22489E-14-2.39341E-13
 -1      1230 1.99997E+01 1.93538E-06 3.07844E-06-2.00081E-06 4.94949E-14-5.00563E-13
 -1      1231 1.99998E+01 1.81767E-06 2.93199E-06-1.53849E-06-7.34307E-14-6.20920E-13
 -1      1232 1.99998E+01 1.66854E-06 2.82848E-06-9.59984E-07-1.34482E-14-2.35703E-13
 -1      1233 1.99998E+01 8.26845E-07 1.48582E-06 2.00538E-07 1.43502E-13-5.84154E-13
 -1      1234 1.99998E+01-1.04855E-06-2.91175E-06 1.08012E-06 2.59795E-14-1.06587E-12
 -1      1235 1.99998E+01 3.17643E-06-2.69187E-06 1.09809E-06-8.50771E-13-4.15896E-14
 -1      1236 1.99998E+01 7.79362E-06 1.81631E-06 1.38992E-06-2.76164E-14 1.75835E-13
 -1      1237 1.99998E+01-6.71640E-06 2.79781E-06-1.69855E-07 5.69701E-13 5.25510E-14
 -1      1238 1.99998E+01-4.10555E-05 1.76849E-06-1.09834E-06 2.56272E-13-1.14993E-13
 -1      1239 1.99998E+01-8.67495E-05 3.59133E-07-1.47678E-06 6.42953E-13 8.68837E-14
 -1      1240 1.99998E+01-1.34111E-04-9.58797E-07-1.45335E-06 8.43618E-13 1.04591E-13
 -1      1241 1.99998E+01-1.74893E-04-1.99747E-06-1.14788E-06 1.91080E-13-2.96780E-14
 -1      1242 1.99998E+01-2.02466E-04-2.66660E-06-6.17684E-07-6.42595E-13-9.56983E-14
 -1      1243 1.99998E+01-2.11943E-04-2.88959E-06 1.32037E-08-1.11288E-12 4.95943E-14
 -1      1244 1.99998E+01-2.01827E-04-2.65013E-06 6.42063E-07-2.70391E-13-1.02598E-13
 -1      1245 1.99998E+01-1.73729E-04-1.96526E-06 1.16327E-06-6.96593E-13-1.37770E-13
 -1      1246 1.99998E+01-1.32605E-04-9.17006E-07 1.47818E-06-1.57065E-12 4.07544E-14
 -1      1247 1.99998E+01-8.51644E-05 4.09640E-07 1.47784E-06-1.90153E-12 2.00613E-14
 -1      1248 1.99998E+01-3.96777E-05 1.80117E-06 1.06327E-06-1.47732E-12 4.50559E-14
 -1      1249 1.99998E+01-6.06856E-06 2.64191E-06 6.22962E-08-5.03379E-13 9.81589E-14
 -1      1250 1.99998E+01 8.33443E-06 1.79963E-06-1.59495E-06 8.15660E-13 1.32263E-13
 -1      1251 1.99998E+01 3.33206E-06-2.30768E-06-1.29367E-06 4.08676E-13-1.21505E-13
 -1      1252-1.02070E+00-2.31105E+01-3.63307E+00-1.98334E+00 2.28040E-12 4.94070E-13
 -1      1253-1.23787E+00-1.16465E+01-2.70923E+00-2.78358E+00 4.14646E-12 1.59572E-12
 -1      1254 2.23932E+00 1.93451E+00-1.31290E+00 2.50273E+00 4.89164E-12 3.09464E-12
 -1      1255 1.36773E+01 1.10768E+01 3.58424E-01 1.18922E+01 4.04921E-12 3.94729E-12
 -1      1256 3.28819E+01 1.24451E+01 2.00888E+00 1.92582E+01 2.37788E-12 3.49409E-12
 -1      1257 5.30232E+01 7.67921E+00 3.25997E+00 1.82488E+01 8.25451E-13 1.89937E-12
 -1      1258 6.63000E+01 2.72754E+00 3.87095E+00 8.58458E+00 6.69118E-14-6.34603E-13
 -1      1259 6.75160E+01 1.84767E+00 3.81993E+00-5.02306E+00 4.01019E-13-3.48493E-12
 -1      1260 5.46848E+01 6.25576E+00 2.94113E+00-1.57452E+01 1.84641E-12-5.51048E-12
 -1      1261 3.48844E+01 1.13944E+01 1.67584E+00-1.86788E+01 3.75555E-12-6.33960E-12
 -1      1262 1.63590E+01 1.24144E+01 2.05854E-01-1.38801E+01 5.24825E-12-5.63927E-12
 -1      1263 4.72010E+00 7.49092E+00-8.65755E-01-5.95799E+00 5.44453E-12-3.83904E-12
 -1      1264 1.66622E-01-1.29941E+00-1.54037E+00-2.32406E-01 4.25904E-12-1.87850E-12
 -1      1265-5.21257E-01-1.05154E+01-2.08241E+00 1.16194E+00 1.86162E-12-5.39846E-13
 -1      1266-6.98095E-01-1.75210E+01-2.76653E+00-1.22311E+00-1.30751E-12-3.22971E-13
 -1      1267-2.14107E+00-1.91398E+01-3.59821E+00-5.07940E+00-4.35543E-12-1.42125E-12
 -1      1268-3.75737E+00-1.36055E+01-4.01883E+00-6.19413E+00-6.35147E-12-3.47994E-12
 -1      1269-7.48280E-01-3.52208E+00-3.42254E+00-1.36898E+00-6.85652E-12-5.73319E-12
 -1      1270 1.27179E+01 5.44920E+00-1.42626E+00 8.40699E+00-5.86486E-12-7.40652E-12
 -1      1271 3.82192E+01 8.30925E+00 1.76691E+00 1.67830E+01-3.89377E-12-7.48779E-12
 -1      1272 6.83383E+01 5.51322E+00 5.42886E+00 1.57789E+01-1.65779E-12-5.45208E-12
 -1      1273 8.70033E+01 2.79176E+00 7.76746E+00 3.37986E+00-3.66568E-13-1.58706E-12
 -1      1274 8.17282E+01 4.65432E+00 7.19180E+00-1.26573E+01-7.25600E-13 2.71683E-12
 -1      1275 5.63369E+01 9.38874E+00 4.25281E+00-2.05256E+01-2.36622E-12 5.37170E-12
 -1      1276 2.75743E+01 1.06991E+01 8.94638E-01-1.65823E+01-4.15024E-12 6.09202E-12
 -1      1277 7.21804E+00 4.79451E+00-1.68792E+00-6.21331E+00-5.39346E-12 5.23692E-12
 -1      1278-1.60165E+00-7.21035E+00-3.19058E+00 2.74930E+00-5.10503E-12 3.27660E-12
 -1      1279-2.59819E+00-1.97868E+01-3.89862E+00 5.66164E+00-3.54472E-12 1.43216E-12
 -1      1280-1.19119E+00-2.62201E+01-4.04274E+00 2.61156E+00-7.43294E-13 3.15005E-13
 -1      1281 3.67539E+01 2.30140E+00-6.78792E-01-1.07440E+00-4.87943E-14 1.62917E-12
 -1      1282 2.35728E+01 4.84212E+00-1.60603E-01 2.45305E-01 5.59552E-14-2.46053E-13
 -1      1283 2.89154E+01 6.16413E+00 1.84555E-01-9.77571E-01-5.95080E-14 2.14342E-13
 -1      1284 1.39991E+01 4.56259E+00-2.55140E-01 2.46497E-01 9.67004E-14-9.68711E-13
 -1      1285 1.85033E+01 5.77254E+00 9.00147E-02 3.72102E-01 6.46150E-14-6.95825E-13
 -1      1286 2.13874E+01 4.32047E+00-2.09124E-02 1.24210E-01 1.14020E-13-2.46136E-13
 -1      1287 8.20993E+00 4.46437E+00-2.43225E-01-1.54406E+00-4.27713E-14-1.32617E-12
 -1      1288 1.04966E+01 5.13241E+00-7.30259E-02-6.07522E-01-1.18794E-14-1.21358E-12
 -1      1289 1.18304E+01 5.20174E+00-2.75147E-02-3.51609E-01 6.43929E-14-9.71570E-13
 -1      1290 7.64657E+00 4.41459E+00-1.20633E-01-3.57567E+00-2.36602E-13-1.42946E-12
 -1      1291 7.43807E+00 4.43050E+00-1.83590E-01-2.73258E+00-1.94220E-13-1.39840E-12
 -1      1292 7.06947E+00 5.47570E+00-2.10623E-02-2.20450E+00-1.99868E-13-1.32128E-12
 -1      1293 1.05394E+01 4.27505E+00 3.71062E-02-4.89763E+00-4.02595E-13-1.41643E-12
 -1      1294 8.75079E+00 3.83294E+00-1.97661E-01-4.44875E+00-3.74617E-13-1.40717E-12
 -1      1295 7.45921E+00 4.92233E+00-2.50513E-03-4.15368E+00-5.01488E-13-1.38146E-12
 -1      1296 1.57622E+01 4.20658E+00 1.57248E-01-4.84897E+00-4.58800E-13-1.35688E-12
 -1      1297 1.30792E+01 3.51706E+00-1.03083E-01-5.06451E+00-4.62352E-13-1.34676E-12
 -1      1298 1.16815E+01 3.84189E+00-7.42270E-03-5.09265E+00-7.05880E-13-1.26711E-12
 -1      1299 2.01528E+01 4.40379E+00 1.59021E-01-3.44316E+00-3.78170E-13-1.29454E-12
 -1      1300 1.81571E+01 3.85390E+00 4.11939E-02-4.18186E+00-4.15112E-13-1.29034E-12
 -1      1301 1.73371E+01 3.04508E+00-1.45630E-02-4.40189E+00-7.17815E-13-1.10884E-12
 -1      1302 2.25495E+01 4.85938E+00 1.11327E-01-1.59452E+00-2.24321E-13-1.29136E-12
 -1      1303 2.15991E+01 4.57686E+00 1.26697E-01-2.45909E+00-2.70312E-13-1.27265E-12
 -1      1304 2.15480E+01 3.11755E+00 5.29225E-03-2.67853E+00-5.21527E-13-1.01834E-12
 -1      1305 2.32259E+01 5.31485E+00 6.16827E-02 5.06659E-02-7.50511E-14-1.30177E-12
 -1      1306 2.30673E+01 5.25116E+00 1.31222E-01-7.00591E-01-1.13576E-13-1.29392E-12
 -1      1307 2.35183E+01 3.75361E+00 2.10950E-02-8.83665E-01-2.77011E-13-1.00880E-12
 -1      1308 2.28613E+01 5.58952E+00 3.02108E-02 1.30356E+00 6.73211E-14-1.29742E-12
 -1      1309 2.31440E+01 5.65460E+00 9.72419E-02 7.26537E-01 2.88931E-14-1.30429E-12
 -1      1310 2.37833E+01 4.42504E+00 1.79411E-02 5.46763E-01-2.83020E-14-1.01911E-12
 -1      1311 2.20169E+01 5.65046E+00 1.39611E-02 2.20597E+00 1.89813E-13-1.23598E-12
 -1      1312 2.24819E+01 5.77368E+00 6.01983E-02 1.77993E+00 1.50650E-13-1.28583E-12
 -1      1313 2.31355E+01 4.85006E+00 6.52816E-03 1.58035E+00 1.86545E-13-1.00644E-12
 -1      1314 2.10004E+01 5.54739E+00 4.68990E-03 2.90718E+00 3.08281E-13-1.06649E-12
 -1      1315 2.15170E+01 5.68740E+00 3.17305E-02 2.56612E+00 2.62727E-13-1.17318E-12
 -1      1316 2.21237E+01 4.98869E+00-5.01918E-03 2.34339E+00 3.72159E-13-9.30367E-13
 -1      1317 2.00458E+01 5.35093E+00-5.01381E-03 3.50085E+00 4.11587E-13-7.17339E-13
 -1      1318 2.05027E+01 5.46968E+00 8.31437E-03 3.20032E+00 3.62516E-13-9.37368E-13
 -1      1319 2.10516E+01 4.89159E+00-1.61143E-02 2.96111E+00 5.47697E-13-7.37986E-13
 -1      1320 1.93964E+01 5.13159E+00-2.11978E-02 4.08645E+00 4.78894E-13-4.28893E-14
 -1      1321 1.96584E+01 5.17652E+00-1.92570E-02 3.76752E+00 4.23384E-13-4.58782E-13
 -1      1322 2.01487E+01 4.60815E+00-2.89398E-02 3.52311E+00 6.78934E-13-3.49623E-13
 -1      1323 1.96701E+01 4.85579E+00-2.76048E-02 4.80926E+00 4.05606E-13 1.28432E-12
 -1      1324 1.93490E+01 4.77050E+00-5.92136E-02 4.32742E+00 4.01228E-13 4.79297E-13
 -1      1325 1.97429E+01 4.08035E+00-3.89869E-02 4.07421E+00 7.05566E-13 4.30406E-13
 -1      1326 2.54459E+01 3.20919E+00 9.51214E-01 4.99908E+00 2.01131E-13 3.76676E-12
 -1      1327 2.03026E+01 3.52660E+00-1.94315E-01 4.51315E+00 2.00742E-13 2.05197E-12
 -1      1328 2.03947E+01 2.68582E+00-6.18402E-02 4.21623E+00 6.47855E-13 1.63378E-12
 -1      1329 1.91742E+01 4.37984E-01-7.78828E-01 1.60421E+00 3.54456E-13 3.63787E-12
 -1      1330 3.87053E+01-4.87859E-03-2.64492E-01 2.30341E-01-4.00513E-14 2.07790E-12
 -1      1331 3.89170E+01-1.08338E-02 2.89259E-02 4.83997E-01-4.19109E-15 2.05270E-12
 -1      1332 3.91585E+01-3.15320E-01 1.87806E-01 1.05826E-01 1.16348E-13 2.19016E-12
 -1      1333 3.86626E+01-6.37197E-01 2.26837E-01-1.97949E-01 5.34503E-14 2.27673E-12
 -1      1334 3.50039E+01-6.23874E-01-6.59113E-03 5.08518E-01 1.09090E-13 1.38623E-12
 -1      1335 3.90121E+01-9.84367E-01 3.07600E-01-1.74786E+00 2.06120E-14 2.29622E-12
 -1      1336 3.59329E+01-9.96318E-01 7.41689E-03-2.44806E+00-9.31217E-14 2.26119E-12
 -1      1337 3.57796E+01-1.72164E+00 9.29295E-02-1.46876E+00 5.81826E-14 1.59449E-12
 -1      1338 3.58364E+01-6.40902E-01-2.04203E-02-3.86950E+00-3.64431E-13 2.06313E-12
 -1      1339 3.14493E+01-9.86906E-02-5.28737E-01-3.99887E+00-5.48200E-13 1.57852E-12
 -1      1340 3.66303E+01-1.74904E+00 1.20575E-02-4.92646E+00-4.46435E-13 1.43249E-12
 -1      1341 2.56115E+01 1.26861E+00-1.32555E+00 3.11604E-01-9.71001E-13-5.80758E-13
 -1      1342 2.66529E+01 1.15741E+00-1.06549E+00 1.16087E+00-8.59424E-13-1.78729E-12
 -1      1343 2.69242E+01 6.17936E-01-9.71690E-01 2.89088E+00-5.17308E-13-2.22494E-12
 -1      1344 3.05937E+01 5.17624E-02-4.48560E-01 3.04663E+00-3.00010E-13-2.64527E-12
 -1      1345 3.35007E+01 2.02125E+00-3.07512E-01 3.35085E+00-1.32055E-12-1.39090E-12
 -1      1346 3.12646E+01-4.46516E-01-2.37164E-01 2.59954E+00-6.64746E-14-2.81930E-12
 -1      1347 3.49204E+01-7.68391E-01 2.05499E-01 2.13749E+00 1.02883E-13-2.78810E-12
 -1      1348 3.38960E+01-4.45536E-01-1.96018E-01 4.88212E+00-3.09086E-13-2.02727E-12
 -1      1349 3.46875E+01-6.43843E-01 2.27892E-01 4.61042E-01 2.41362E-13-2.66154E-12
 -1      1350 3.55498E+01-5.20702E-01 2.97775E-01-3.61162E-02 2.98733E-13-2.25381E-12
 -1      1351 3.37857E+01-1.45776E+00 7.68387E-02 2.08663E+00 2.97798E-13-2.06096E-12
 -1      1352 3.44188E+01-3.25936E-01 1.85395E-01-1.04905E+00 1.91930E-13-1.99520E-12
 -1      1353 3.30414E+01-9.86671E-02 1.14605E-01-1.21381E+00 2.11262E-13-1.68622E-12
 -1      1354 3.21545E+01-8.98138E-01 1.18864E-01-1.15491E+00 4.55330E-13-1.72751E-12
 -1      1355 3.16892E+01-4.90701E-02 4.33267E-02-1.40321E+00 1.95682E-13-1.45353E-12
 -1      1356 2.97091E+01 8.44146E-02-1.14288E-02-1.38384E+00 1.83465E-13-1.21353E-12
 -1      1357 2.96854E+01-1.97759E-01 3.79273E-02-2.50653E+00 3.98421E-13-1.27363E-12
 -1      1358 2.84856E+01 6.72390E-02-2.36880E-02-1.20108E+00 2.71328E-14-1.10841E-12
 -1      1359 2.67520E+01 1.16747E-01-4.44134E-02-1.13109E+00 1.88686E-14-1.10512E-12
 -1      1360 2.71842E+01 1.18260E-01-1.98220E-02-2.46687E+00 1.77443E-13-9.80674E-13
 -1      1361 2.57874E+01 8.79283E-02-3.13384E-02-8.74420E-01 2.85744E-14-1.06540E-12
 -1      1362 2.45154E+01 9.64491E-02-3.62650E-02-8.08364E-01 1.31145E-14-1.02085E-12
 -1      1363 2.50739E+01 1.82930E-01-3.36129E-02-1.92519E+00 1.47105E-14-7.82555E-13
 -1      1364 2.38130E+01 7.37032E-02-2.03870E-02-5.90853E-01-6.84834E-14-9.78856E-13
 -1      1365 2.29529E+01 6.79102E-02-2.17702E-02-5.41864E-01-4.60413E-14-1.05928E-12
 -1      1366 2.34692E+01 1.54074E-01-2.78125E-02-1.35269E+00-4.14824E-14-6.54067E-13
 -1      1367 2.24653E+01 5.32870E-02-1.00130E-02-3.84984E-01-7.28063E-15-1.07924E-12
 -1      1368 2.19069E+01 4.46539E-02-1.13916E-02-3.51860E-01 6.74018E-14-1.05044E-12
 -1      1369 2.23233E+01 1.08728E-01-1.88253E-02-9.01830E-01-5.23227E-14-6.53321E-13
 -1      1370 2.15780E+01 3.60569E-02-3.95464E-03-2.46506E-01 5.44001E-14-1.05582E-12
 -1      1371 2.12226E+01 2.84386E-02-5.54936E-03-2.25016E-01 1.18048E-14-1.00689E-12
 -1      1372 2.15360E+01 7.11362E-02-1.19039E-02-5.85461E-01 2.07976E-14-6.46118E-13
 -1      1373 2.10043E+01 2.36276E-02-1.11159E-03-1.56664E-01-5.39464E-14-1.04926E-12
 -1      1374 2.07800E+01 1.78516E-02-2.58566E-03-1.42978E-01 6.86764E-14-1.02035E-12
 -1      1375 2.10073E+01 4.49276E-02-7.43133E-03-3.75240E-01-4.69139E-14-7.40354E-13
 -1      1376 2.06364E+01 1.52491E-02 1.89693E-05-9.93551E-02-4.08603E-14-1.13501E-12
 -1      1377 2.04953E+01 1.11466E-02-1.15239E-03-9.07028E-02-1.58447E-13-1.14185E-12
 -1      1378 2.06568E+01 2.79246E-02-4.67739E-03-2.39247E-01-7.71748E-14-7.90698E-13
 -1      1379 2.04013E+01 9.78281E-03 3.76980E-04-6.30478E-02-1.43370E-13-1.12645E-12
 -1      1380 2.03124E+01 6.95869E-03-4.76352E-04-5.75827E-02-1.34855E-13-1.30613E-12
 -1      1381 2.04260E+01 1.72544E-02-2.98195E-03-1.52367E-01-1.70840E-13-7.69504E-13
 -1      1382 2.02509E+01 6.27281E-03 4.26837E-04-4.00694E-02-9.22007E-14-1.41218E-12
 -1      1383 2.01949E+01 4.35663E-03-1.65024E-04-3.66078E-02-4.66385E-14-1.44300E-12
 -1      1384 2.02744E+01 1.06587E-02-1.92316E-03-9.71129E-02-1.95036E-13-8.51825E-13
 -1      1385 2.01547E+01 4.03405E-03 3.71747E-04-2.54905E-02-2.27558E-14-1.48374E-12
 -1      1386 2.01194E+01 2.74013E-03-2.76030E-05-2.32867E-02-1.43534E-13-1.58096E-12
 -1      1387 2.01750E+01 6.60469E-03-1.25225E-03-6.19626E-02-1.03904E-13-1.03183E-12
 -1      1388 2.00931E+01 2.60759E-03 2.93158E-04-1.61978E-02-1.14008E-13-1.65707E-12
 -1      1389 2.00709E+01 1.73258E-03 2.78743E-05-1.47858E-02 1.49755E-15-1.69436E-12
 -1      1390 2.01098E+01 4.11326E-03-8.22169E-04-3.95299E-02-1.40887E-13-1.00597E-12
 -1      1391 2.00537E+01 1.69609E-03 2.20377E-04-1.02406E-02 6.31989E-14-1.66523E-12
 -1      1392 2.00398E+01 1.10089E-03 4.57757E-05-9.32971E-03 8.97354E-14-1.49909E-12
 -1      1393 2.00671E+01 2.57675E-03-5.43804E-04-2.51432E-02 2.66854E-14-1.02628E-12
 -1      1394 2.00287E+01 1.11019E-03 1.61599E-04-6.39967E-03 2.37797E-13-1.42124E-12
 -1      1395 2.00201E+01 7.01693E-04 4.74033E-05-5.80848E-03 1.81611E-13-1.18875E-12
 -1      1396 2.00392E+01 1.62318E-03-3.61948E-04-1.58654E-02 2.43613E-13-8.50896E-13
 -1      1397 2.00130E+01 7.30441E-04 1.17056E-04-3.91196E-03-2.58628E-14-1.09962E-12
 -1      1398 2.00078E+01 4.47043E-04 4.27853E-05-3.52674E-03 2.69200E-14-1.07344E-12
 -1      1399 2.00212E+01 1.02632E-03-2.41959E-04-9.85245E-03 1.37729E-13-7.01942E-13
 -1      1400 2.00033E+01 4.81853E-04 8.44175E-05-2.29778E-03 1.08512E-14-1.09392E-12
 -1      1401 2.00004E+01 2.82979E-04 3.64406E-05-2.04672E-03-1.23516E-14-1.04283E-12
 -1      1402 2.00097E+01 6.48922E-04-1.61953E-04-5.94326E-03-2.58228E-14-7.43092E-13
 -1      1403 1.99977E+01 3.17385E-04 6.09257E-05-1.25329E-03-2.61943E-14-1.11783E-12
 -1      1404 1.99961E+01 1.76308E-04 3.02381E-05-1.09060E-03-1.11777E-14-1.12747E-12
 -1      1405 2.00026E+01 4.07679E-04-1.08052E-04-3.40288E-03-3.36469E-16-6.47800E-13
 -1      1406 1.99945E+01 2.07471E-04 4.41492E-05-5.84011E-04 5.23284E-14-1.15494E-12
 -1      1407 1.99938E+01 1.06491E-04 2.48201E-05-4.80079E-04 8.63534E-14-1.05877E-12
 -1      1408 1.99983E+01 2.51899E-04-7.14101E-05-1.76188E-03 4.25499E-15-7.54455E-13
 -1      1409 1.99931E+01 1.33424E-04 3.21780E-05-1.63772E-04-5.91161E-14-1.06638E-12
 -1      1410 1.99929E+01 6.06952E-05 2.02993E-05-9.91689E-05-7.30765E-14-1.10534E-12
 -1      1411 1.99959E+01 1.50537E-04-4.63394E-05-7.16925E-04 1.76108E-14-7.84382E-13
 -1      1412 1.99926E+01 8.33129E-05 2.35988E-05 9.04703E-05 1.19567E-13-9.89811E-13
 -1      1413 1.99928E+01 3.07914E-05 1.65889E-05 1.28702E-04 1.10613E-13-8.76744E-13
 -1      1414 1.99948E+01 8.43895E-05-2.91431E-05-6.93119E-05 1.00620E-13-6.79597E-13
 -1      1415 1.99928E+01 4.94184E-05 1.74020E-05 2.34211E-04 3.03611E-14-8.12110E-13
 -1      1416 1.99932E+01 1.15401E-05 1.35500E-05 2.54844E-04 6.31552E-14-6.35732E-13
 -1      1417 1.99944E+01 4.14054E-05-1.73803E-05 3.13047E-04 2.03926E-13-4.34111E-13
 -1      1418 1.99934E+01 2.66575E-05 1.28818E-05 3.05040E-04 1.32225E-14-6.25869E-13
 -1      1419 1.99939E+01-5.04349E-07 1.10502E-05 3.14089E-04 6.24329E-14-6.52809E-13
 -1      1420 1.99946E+01 1.38808E-05-9.40981E-06 5.19192E-04 5.00205E-14-3.48240E-13
 -1      1421 1.99941E+01 1.16165E-05 9.55037E-06 3.28678E-04 1.81701E-13-6.78609E-13
 -1      1422 1.99946E+01-7.65658E-06 8.98171E-06 3.30298E-04 1.25573E-13-4.77572E-13
 -1      1423 1.99950E+01-3.21762E-06-4.10595E-06 6.09845E-04 1.51198E-13-4.42644E-13
 -1      1424 1.99949E+01 1.95543E-06 7.07185E-06 3.22817E-04 3.52153E-14-4.29622E-13
 -1      1425 1.99954E+01-1.15021E-05 7.26231E-06 3.19885E-04 6.58212E-14-2.43504E-13
 -1      1426 1.99956E+01-1.32544E-05-6.81681E-07 6.26729E-04 1.45557E-13-4.42595E-13
 -1      1427 1.99957E+01-3.96032E-06 5.21418E-06 2.99611E-04 8.36113E-15-1.83387E-13
 -1      1428 1.99961E+01-1.31438E-05 5.83067E-06 2.94105E-04 1.57441E-14-2.15159E-13
 -1      1429 1.99961E+01-1.85274E-05 1.42260E-06 5.98563E-04 9.50576E-15-1.70904E-13
 -1      1430 1.99964E+01-7.28999E-06 3.81537E-06 2.67329E-04-1.12511E-13-3.02641E-13
 -1      1431 1.99968E+01-1.33565E-05 4.64033E-06 2.60593E-04-9.92970E-14-4.65506E-13
 -1      1432 1.99967E+01-2.06332E-05 2.60963E-06 5.45012E-04-1.21137E-13-2.68446E-13
 -1      1433 1.99971E+01-8.86376E-06 2.76043E-06 2.31489E-04-1.39338E-13-5.14842E-13
 -1      1434 1.99974E+01-1.26854E-05 3.65488E-06 2.24410E-04-1.32053E-13-8.40384E-13
 -1      1435 1.99973E+01-2.06930E-05 3.17118E-06 4.79353E-04-3.39205E-13-3.38625E-13
 -1      1436 1.99977E+01-9.27830E-06 1.96615E-06 1.95653E-04 6.00519E-14-8.24897E-13
 -1      1437 1.99979E+01-1.15121E-05 2.84451E-06 1.88795E-04 7.36775E-14-6.14824E-13
 -1      1438 1.99978E+01-1.94959E-05 3.31869E-06 4.10326E-04-1.13603E-13-3.81749E-13
 -1      1439 1.99981E+01-8.96130E-06 1.37091E-06 1.61995E-04-4.05143E-14-6.27936E-13
 -1      1440 1.99984E+01-1.00996E-05 2.18379E-06 1.55690E-04-1.28069E-13-6.14989E-13
 -1      1441 1.99982E+01-1.75947E-05 3.20457E-06 3.43446E-04 7.21858E-15-3.92973E-13
 -1      1442 1.99985E+01-8.21660E-06 9.28235E-07 1.31718E-04-2.67128E-13-8.24459E-13
 -1      1443 1.99987E+01-8.62529E-06 1.65041E-06 1.26136E-04-1.37697E-13-1.15368E-12
 -1      1444 1.99986E+01-1.53706E-05 2.93734E-06 2.81954E-04-3.67589E-13-4.18194E-13
 -1      1445 1.99988E+01-7.25693E-06 6.02442E-07 1.05350E-04-2.93542E-14-1.15189E-12
 -1      1446 1.99990E+01-7.20427E-06 1.22460E-06 1.00551E-04 1.15526E-13-1.00154E-12
 -1      1447 1.99989E+01-1.30805E-05 2.59299E-06 2.27502E-04-1.28122E-13-5.20193E-13
 -1      1448 1.99991E+01-6.22861E-06 3.66061E-07 8.29691E-05 3.98041E-13-1.22592E-12
 -1      1449 1.99992E+01-5.90827E-06 8.89255E-07 7.89387E-05 2.41003E-13-7.26379E-13
 -1      1450 1.99991E+01-1.08921E-05 2.22341E-06 1.80660E-04 3.56398E-13-6.13091E-13
 -1      1451 1.99993E+01-5.23116E-06 1.98610E-07 6.43545E-05 8.60019E-14-5.49916E-13
 -1      1452 1.99994E+01-4.77993E-06 6.30805E-07 6.10313E-05 9.13370E-14-5.22884E-13
 -1      1453 1.99993E+01-8.91164E-06 1.86345E-06 1.41278E-04 3.34069E-13-7.77878E-13
 -1      1454 1.99995E+01-4.33331E-06 8.63774E-08 4.90944E-05 9.19089E-15-3.10073E-13
 -1      1455 1.99995E+01-3.84393E-06 4.41619E-07 4.63837E-05 5.52242E-14-3.15313E-13
 -1      1456 1.99994E+01-7.20610E-06 1.53673E-06 1.08733E-04 1.18283E-13-3.08207E-13
 -1      1457 1.99996E+01-3.58471E-06 2.52859E-08 3.66499E-05-9.06135E-14-2.86154E-13
 -1      1458 1.99996E+01-3.11361E-06 3.24369E-07 3.44338E-05-1.52385E-13-3.46876E-13
 -1      1459 1.99996E+01-5.82156E-06 1.26080E-06 8.20935E-05-9.10896E-15-2.10896E-13
 -1      1460 1.99997E+01-3.02402E-06 2.42214E-08 2.63969E-05 1.03374E-13-3.30649E-13
 -1      1461 1.99997E+01-2.59363E-06 2.92384E-07 2.45379E-05 1.31674E-13-1.91152E-13
 -1      1462 1.99996E+01-4.79307E-06 1.05306E-06 6.02232E-05 1.30101E-14-3.70130E-14
 -1      1463 1.99997E+01-2.68710E-06 9.91599E-08 1.76571E-05-8.69443E-14-2.45969E-13
 -1      1464 1.99998E+01-2.26954E-06 3.42534E-07 1.59933E-05-5.32278E-15-1.73776E-13
 -1      1465 1.99997E+01-4.15773E-06 9.24927E-07 4.18621E-05 1.45744E-14-1.34535E-13
 -1      1466 1.99998E+01-2.56120E-06 2.20712E-07 9.80278E-06 1.37993E-13-3.64626E-13
 -1      1467 1.99998E+01-2.04599E-06 3.20574E-07 8.17955E-06 1.01966E-13-2.48638E-13
 -1      1468 1.99998E+01-3.88688E-06 8.51989E-07 2.57647E-05 5.18428E-16-1.52780E-13
 -1      1469 1.99998E+01-2.19465E-06 1.85439E-07 2.74675E-06-1.15035E-13-1.98770E-13
 -1      1470 1.99998E+01-1.80997E-06-5.07189E-07 1.28516E-06-2.26409E-13-3.86512E-13
 -1      1471 1.99998E+01-3.61775E-06 6.74616E-07 1.13012E-05-1.85403E-14-2.79657E-13
 -1      1472 1.99998E+01-1.18863E-06-5.25879E-07-1.45818E-06 1.16082E-13-4.29695E-13
 -1      1473 1.99998E+01-3.05889E-07-2.24835E-06-8.85961E-07 1.26887E-13-1.94842E-13
 -1      1474 1.99998E+01 2.05568E-06-3.34830E-07-1.43799E-06 5.85894E-13-6.36916E-14
 -1      1475 1.99998E+01-3.00318E-06 4.23540E-08 1.64955E-06-1.24960E-13-2.22706E-13
 -1      1476 1.73684E+01 1.02487E-01-1.71690E-01 7.51279E-01 3.21364E-13 2.93039E-12
 -1      1477 1.90681E+01 2.33861E-01-2.41741E-01 1.02931E+00 2.76390E-13 3.41760E-12
 -1      1478 1.95963E+01 1.01780E+00-6.95165E-02 2.64919E+00 5.52967E-13 2.23728E-12
 -1      1479 1.59387E+01 5.40075E-02-3.19817E-02 3.66229E-01 2.23214E-13 2.31001E-12
 -1      1480 1.66551E+01 1.39659E-01-7.16702E-02 4.37057E-01 2.34285E-13 2.68413E-12
 -1      1481 1.77239E+01 2.48430E-01-5.80774E-02 1.21893E+00 4.84432E-13 1.78510E-12
 -1      1482 1.52317E+01 3.79269E-02-1.71440E-03 1.51247E-01 1.43211E-13 1.88901E-12
 -1      1483 1.55514E+01 7.96957E-02-2.93005E-03 1.96549E-01 1.47771E-13 2.12456E-12
 -1      1484 1.66155E+01 1.14393E-01-2.14195E-02 5.75396E-01 3.45383E-13 1.38450E-12
 -1      1485 1.50019E+01 3.19336E-02-2.64798E-04-9.09906E-04 1.45315E-13 1.54240E-12
 -1      1486 1.50781E+01 5.81768E-02 9.10737E-03 3.66678E-02 1.32786E-13 1.75600E-12
 -1      1487 1.60716E+01 6.82290E-02-1.53928E-02 1.90747E-01 2.79145E-13 1.07676E-12
 -1      1488 1.51374E+01 2.61026E-02-2.05393E-03-1.26491E-01 8.48419E-14 1.28263E-12
 -1      1489 1.50245E+01 4.86409E-02 6.77833E-03-9.29431E-02 9.14954E-14 1.41913E-12
 -1      1490 1.59267E+01 5.31161E-02-1.54277E-02-9.17844E-02 2.26555E-13 8.34614E-13
 -1      1491 1.55629E+01 1.82958E-02-1.42339E-03-2.25040E-01 6.60687E-14 1.08213E-12
 -1      1492 1.52986E+01 3.92911E-02 4.41713E-03-1.96914E-01 7.47787E-14 1.20580E-12
 -1      1493 1.60941E+01 4.07590E-02-1.40842E-02-3.15437E-01 1.52812E-13 6.55981E-13
 -1      1494 1.61941E+01 8.62548E-03 1.15295E-03-2.88514E-01 6.41713E-14 9.28538E-13
 -1      1495 1.58227E+01 2.71138E-02 3.90009E-03-2.68777E-01 6.20758E-14 1.02666E-12
 -1      1496 1.64951E+01 2.45771E-02-1.09831E-02-4.77955E-01 1.21114E-13 5.35039E-13
 -1      1497 1.69339E+01-1.01979E-03 4.21676E-03-3.12229E-01 3.73703E-14 8.08284E-13
 -1      1498 1.65079E+01 1.32881E-02 4.34070E-03-3.02524E-01 4.74234E-14 8.72451E-13
 -1      1499 1.70476E+01 5.96859E-03-6.76984E-03-5.68086E-01 1.06893E-13 4.76900E-13
 -1      1500 1.76861E+01-8.63040E-03 6.52952E-03-2.99511E-01 8.22899E-15 7.17735E-13
 -1      1501 1.72582E+01 5.11022E-04 4.81503E-03-2.99221E-01 1.85928E-14 7.51385E-13
 -1      1502 1.76659E+01-1.11152E-02-2.53600E-03-5.84395E-01 7.47620E-14 3.77062E-13
 -1      1503 1.83733E+01-1.31013E-02 7.50513E-03-2.60416E-01 5.18535E-14 6.26211E-13
 -1      1504 1.79858E+01-8.99137E-03 4.79915E-03-2.67112E-01 2.20297E-14 6.84487E-13
 -1      1505 1.82728E+01-2.32982E-02 8.34510E-04-5.39244E-01 5.64290E-14 3.00836E-13
 -1      1506 1.89470E+01-1.44500E-02 7.19308E-03-2.07653E-01 2.17166E-14 5.11705E-13
 -1      1507 1.86259E+01-1.43305E-02 4.20749E-03-2.18203E-01 6.51493E-14 6.12288E-13
 -1      1508 1.88116E+01-2.92154E-02 2.94403E-03-4.54139E-01 8.56940E-14 2.64564E-13
 -1      1509 1.93882E+01-1.34544E-02 6.01967E-03-1.52630E-01 3.38030E-14 4.64163E-13
 -1      1510 1.91432E+01-1.58895E-02 3.23326E-03-1.64215E-01 1.66588E-14 5.00953E-13
 -1      1511 1.92508E+01-2.95007E-02 3.84519E-03-3.52201E-01 4.70748E-14 2.55750E-13
 -1      1512 1.97018E+01-1.11365E-02 4.49244E-03-1.03235E-01 3.07326E-14 4.03156E-13
 -1      1513 1.95294E+01-1.47664E-02 2.15483E-03-1.13890E-01 1.77913E-14 4.41534E-13
 -1      1514 1.95819E+01-2.59399E-02 3.84842E-03-2.52205E-01 2.77894E-14 2.08615E-13
 -1      1515 1.99066E+01-8.38430E-03 3.00773E-03-6.34620E-02-3.99641E-14 4.18980E-13
 -1      1516 1.97953E+01-1.21920E-02 1.19695E-03-7.21634E-02-3.18105E-14 3.85592E-13
 -1      1517 1.98126E+01-2.05199E-02 3.32632E-03-1.65960E-01 6.28143E-15 1.99264E-13
 -1      1518 2.00270E+01-5.79104E-03 1.78721E-03-3.42118E-02 1.38569E-14 3.53593E-13
 -1      1519 1.99627E+01-9.16579E-03 4.76864E-04-4.06757E-02 3.44436E-14 4.39923E-13
 -1      1520 1.99600E+01-1.48168E-02 2.59107E-03-9.85842E-02 1.38800E-14 1.78997E-13
 -1      1521 2.00874E+01-3.65712E-03 9.01450E-04-1.44593E-02 1.56305E-14 3.38369E-13
 -1      1522 2.00561E+01-6.32991E-03 1.42988E-05-1.88638E-02 3.48170E-15 3.68692E-13
 -1      1523 2.00442E+01-9.79133E-03 1.85038E-03-5.02958E-02-9.05092E-15 1.62260E-13
 -1      1524 2.01086E+01-2.06717E-03 3.26291E-04-2.30022E-03-1.69472E-14 3.06577E-13
 -1      1525 2.00986E+01-4.00064E-03-2.30941E-04-5.03908E-03 2.72455E-15 3.49660E-13
 -1      1526 2.00842E+01-5.85598E-03 1.21437E-03-1.85056E-02 1.89218E-14 2.12446E-13
 -1      1527 2.01066E+01-9.79388E-04-4.91464E-06 4.32782E-03 6.83588E-14 2.49570E-13
 -1      1528 2.01089E+01-2.26323E-03-3.21604E-04 2.81328E-03 3.75613E-14 3.11575E-13
 -1      1529 2.00957E+01-3.05100E-03 7.22582E-04 4.79870E-04 4.22316E-14 2.20626E-13
 -1      1530 2.00925E+01-2.96123E-04-1.66182E-04 7.24955E-03 7.98718E-14 5.67777E-14
 -1      1531 2.01010E+01-1.07021E-03-3.18354E-04 6.56307E-03 1.01517E-13 2.03749E-13
 -1      1532 2.00906E+01-1.21863E-03 3.72622E-04 1.03585E-02 1.68879E-13 1.99808E-13
 -1      1533 2.00739E+01 9.11756E-05-2.21052E-04 7.89552E-03-3.71130E-14 6.74048E-14
 -1      1534 2.00845E+01-3.16200E-04-2.68296E-04 7.72340E-03-2.12276E-14 5.55458E-14
 -1      1535 2.00773E+01-1.30601E-04 1.42086E-04 1.42713E-02 2.44197E-14 6.31682E-14
 -1      1536 2.00551E+01 2.78682E-04-2.16678E-04 7.29108E-03-1.76800E-14 1.69363E-13
 -1      1537 2.00656E+01 1.15122E-04-2.02702E-04 7.40654E-03-2.09245E-14 8.69436E-14
 -1      1538 2.00612E+01 4.37090E-04 2.63895E-06 1.46156E-02-6.05073E-14 4.55884E-14
 -1      1539 2.00383E+01 3.41582E-04-1.84456E-04 6.11582E-03-9.62636E-14 2.69629E-13
 -1      1540 2.00475E+01 3.26943E-04-1.39397E-04 6.36706E-03-5.46332E-14 2.14881E-13
 -1      1541 2.00454E+01 6.69762E-04-7.24221E-05 1.30744E-02-6.89372E-14 1.19849E-13
 -1      1542 2.00246E+01 3.33736E-04-1.43338E-04 4.78527E-03-1.06629E-13 5.78234E-13
 -1      1543 2.00320E+01 4.00381E-04-8.66475E-05 5.07827E-03-6.21069E-14 4.28492E-13
 -1      1544 2.00316E+01 7.05130E-04-1.05014E-04 1.07415E-02-1.69162E-13 3.30698E-13
 -1      1545 2.00141E+01 2.91005E-04-1.03554E-04 3.52914E-03-2.32506E-14 7.03646E-13
 -1      1546 2.00196E+01 3.94043E-04-4.68076E-05 3.81090E-03-1.00727E-13 6.31275E-13
 -1      1547 2.00203E+01 6.37419E-04-1.11611E-04 8.27079E-03-1.74646E-13 4.64571E-13
 -1      1548 2.00064E+01 2.35596E-04-6.97558E-05 2.45533E-03 1.22668E-13 5.46078E-13
 -1      1549 2.00104E+01 3.47387E-04-1.90773E-05 2.70004E-03 8.16159E-14 6.78484E-13
 -1      1550 2.00117E+01 5.26435E-04-1.03779E-04 6.01221E-03 1.00127E-13 3.94387E-13
 -1      1551 2.00012E+01 1.80130E-04-4.33334E-05 1.59762E-03 9.68359E-14 2.81932E-13
 -1      1552 2.00038E+01 2.85196E-04-1.30160E-06 1.79624E-03 7.68857E-14 4.16892E-13
 -1      1553 2.00054E+01 4.07129E-04-8.91447E-05 4.11955E-03 1.74502E-13 1.39111E-13
 -1      1554 1.99978E+01 1.30921E-04-2.39613E-05 9.48648E-04 6.82515E-15 1.18366E-13
 -1      1555 1.99994E+01 2.21837E-04 8.98309E-06 1.10163E-03 1.33892E-13 3.41595E-13
 -1      1556 2.00011E+01 2.97779E-04-7.24148E-05 2.62955E-03 1.43947E-13 2.33569E-13
 -1      1557 1.99959E+01 9.04154E-05-1.05607E-05 4.81247E-04 1.25185E-14 2.38899E-13
 -1      1558 1.99968E+01 1.64735E-04 1.40221E-05 5.93803E-04-1.02042E-13 1.62461E-13
 -1      1559 1.99983E+01 2.06222E-04-5.62643E-05 1.51577E-03-8.27683E-14 2.74073E-13
 -1      1560 1.99949E+01 5.88560E-05-1.84508E-06 1.61394E-04 1.26458E-13 1.36327E-13
 -1      1561 1.99953E+01 1.16972E-04 1.56346E-05 2.40552E-04 1.38221E-13 3.25023E-13
 -1      1562 1.99967E+01 1.34238E-04-4.20290E-05 7.22895E-04 1.38515E-13 2.53961E-13
 -1      1563 1.99947E+01 3.53705E-05 3.40063E-06-4.45877E-05-3.33815E-14 5.91237E-15
 -1      1564 1.99947E+01 7.91091E-05 1.51820E-05 8.36111E-06 2.23886E-14 2.77380E-14
 -1      1565 1.99959E+01 8.04394E-05-3.02123E-05 1.87298E-04 1.42275E-13 1.65456E-13
 -1      1566 1.99949E+01 1.86316E-05 6.20187E-06-1.66492E-04 1.73038E-14 1.44291E-13
 -1      1567 1.99947E+01 5.03739E-05 1.36203E-05-1.33256E-04-7.65267E-14 1.11916E-14
 -1      1568 1.99957E+01 4.20546E-05-2.08365E-05-1.51857E-04-5.28098E-14-1.24276E-13
 -1      1569 1.99953E+01 7.23405E-06 7.36480E-06-2.28908E-04 1.70252E-13 1.05447E-13
 -1      1570 1.99950E+01 2.94114E-05 1.15816E-05-2.09927E-04 7.16309E-14 1.21966E-13
 -1      1571 1.99958E+01 1.59553E-05-1.36729E-05-3.47350E-04 3.11252E-14 3.19775E-14
 -1      1572 1.99959E+01-1.13126E-07 7.49086E-06-2.51131E-04-3.59160E-14-4.79280E-14
 -1      1573 1.99955E+01 1.47166E-05 9.45757E-06-2.42051E-04 3.15477E-14 2.07763E-14
 -1      1574 1.99962E+01-8.05137E-07-8.38585E-06-4.42185E-04 9.46853E-14-5.33892E-14
 -1      1575 1.99965E+01-4.50403E-06 7.00943E-06-2.47690E-04-1.19983E-13-7.40875E-14
 -1      1576 1.99961E+01 4.86697E-06 7.47043E-06-2.45176E-04 3.67079E-14-4.21399E-14
 -1      1577 1.99966E+01-1.07528E-05-4.61736E-06-4.69779E-04-1.03284E-14-7.02645E-14
 -1      1578 1.99970E+01-6.81728E-06 6.21452E-06-2.29129E-04-1.90613E-13 2.19969E-13
 -1      1579 1.99967E+01-1.37061E-06 5.72967E-06-2.30713E-04-8.14032E-14-2.93833E-14
 -1      1580 1.99971E+01-1.59253E-05-2.03272E-06-4.55094E-04-1.50070E-13 8.69936E-14
 -1      1581 1.99976E+01-7.72992E-06 5.29855E-06-2.02811E-04 8.61270E-15 3.10171E-13
 -1      1582 1.99973E+01-5.00636E-06 4.27351E-06-2.06733E-04-7.66158E-14 2.36353E-13
 -1      1583 1.99976E+01-1.78934E-05-3.41485E-07-4.16100E-04-1.24793E-13 1.95541E-13
 -1      1584 1.99980E+01-7.74589E-06 4.38069E-06-1.73669E-04 1.17549E-13 1.69146E-13
 -1      1585 1.99978E+01-6.83425E-06 3.09811E-06-1.78714E-04 8.36473E-14 2.94252E-13
 -1      1586 1.99980E+01-1.78236E-05 6.95947E-07-3.65244E-04 1.12326E-13 7.27206E-14
 -1      1587 1.99984E+01-7.22852E-06 3.52921E-06-1.44832E-04 2.16490E-14 1.03489E-13
 -1      1588 1.99982E+01-7.45760E-06 2.17716E-06-1.50200E-04-1.66647E-14 1.65064E-13
 -1      1589 1.99984E+01-1.65532E-05 1.26996E-06-3.10775E-04 5.34740E-14-6.21470E-15
 -1      1590 1.99988E+01-6.43167E-06 2.77826E-06-1.18136E-04 1.01822E-14 1.04858E-13
 -1      1591 1.99986E+01-7.32165E-06 1.47447E-06-1.23330E-04 3.04855E-14 1.45661E-13
 -1      1592 1.99987E+01-1.46633E-05 1.52723E-06-2.57853E-04-1.33234E-14-3.45164E-14
 -1      1593 1.99990E+01-5.52700E-06 2.14020E-06-9.45150E-05 1.35028E-13 1.00181E-13
 -1      1594 1.99989E+01-6.74637E-06 9.51589E-07-9.92514E-05 4.82777E-14 1.47519E-13
 -1      1595 1.99989E+01-1.25432E-05 1.57785E-06-2.09427E-04 2.89711E-14 2.81109E-15
 -1      1596 1.99993E+01-4.62675E-06 1.61448E-06-7.42939E-05-3.54663E-14-7.46473E-14
 -1      1597 1.99991E+01-5.95650E-06 5.72106E-07-7.84409E-05 5.73304E-14-2.49884E-14
 -1      1598 1.99992E+01-1.04435E-05 1.50256E-06-1.66916E-04 1.94993E-13 1.09385E-13
 -1      1599 1.99994E+01-3.80209E-06 1.19464E-06-5.73972E-05-1.66770E-13-1.98889E-13
 -1      1600 1.99993E+01-5.10761E-06 3.04014E-07-6.09254E-05 2.61827E-15-9.21466E-14
 -1      1601 1.99993E+01-8.51940E-06 1.35975E-06-1.30706E-04 1.80385E-14 6.10874E-14
 -1      1602 1.99995E+01-3.09709E-06 8.75654E-07-4.34916E-05 2.17258E-14-8.54366E-14
 -1      1603 1.99995E+01-4.30766E-06 1.22464E-07-4.64425E-05-2.01052E-14-5.25843E-14
 -1      1604 1.99995E+01-6.86479E-06 1.19243E-06-1.00509E-04-6.37204E-14 2.76315E-14
 -1      1605 1.99996E+01-2.54160E-06 6.60554E-07-3.20727E-05 9.43798E-14-1.74231E-13
 -1      1606 1.99996E+01-3.63716E-06 1.28456E-08-3.45404E-05 1.18887E-14-9.39538E-14
 -1      1607 1.99996E+01-5.53962E-06 1.03591E-06-7.55942E-05-5.12812E-14 1.47445E-13
 -1      1608 1.99997E+01-2.15699E-06 5.63442E-07-2.25045E-05-2.87268E-15-3.62478E-13
 -1      1609 1.99997E+01-3.16487E-06-2.61296E-08-2.46360E-05 1.03215E-14-3.07771E-13
 -1      1610 1.99997E+01-4.59529E-06 9.22038E-07-5.49354E-05 5.30425E-14 1.32636E-14
 -1      1611 1.99998E+01-1.93624E-06 5.72718E-07-1.41061E-05-3.76245E-14-2.53211E-13
 -1      1612 1.99997E+01-2.92306E-06 1.15001E-08-1.60767E-05-2.16933E-14-2.92966E-13
 -1      1613 1.99997E+01-4.03831E-06 8.79607E-07-3.73210E-05-5.58820E-14 1.38625E-13
 -1      1614 1.99998E+01-1.77505E-06 4.78332E-07-6.27470E-06 1.42258E-13-4.13872E-13
 -1      1615 1.99998E+01-2.87327E-06 7.91939E-08-8.29845E-06 3.19018E-14-3.06984E-13
 -1      1616 1.99998E+01-3.86013E-06 8.42913E-07-2.16343E-05 1.35041E-13-2.41180E-13
 -1      1617 1.99998E+01-1.31740E-06-5.47986E-07 3.13208E-07 1.46958E-13-3.34871E-13
 -1      1618 1.99998E+01-2.42753E-06-1.16698E-07-1.49910E-06 1.52405E-13-1.52737E-13
 -1      1619 1.99998E+01-3.43851E-06 5.54235E-07-7.60016E-06 1.61686E-13-5.89655E-14
 -1      1620 1.99998E+01 7.21439E-07-1.11641E-06 1.62366E-06-2.46462E-13-2.10587E-13
 -1      1621 1.99998E+01-6.39643E-06 3.69236E-07-4.41171E-06 1.46388E-13 1.93760E-13
 -1      1622 1.99998E+01-3.17434E-06-4.04384E-07-2.79245E-06-1.39345E-13 4.85123E-13
 -1      1623 1.99998E+01-2.88430E-05 3.52039E-07-1.19610E-05 1.72869E-13 8.43263E-14
 -1      1624 1.99998E+01-1.64989E-05 2.76567E-07-1.02956E-05 1.45700E-13 2.45870E-13
 -1      1625 1.99998E+01-2.03915E-05 5.73222E-07-1.52512E-05-3.05018E-14 2.93209E-13
 -1      1626 1.99998E+01-6.29931E-05 1.99761E-07-1.72679E-05 2.15829E-13 2.53232E-14
 -1      1627 1.99998E+01-4.37389E-05 2.69974E-07-1.63952E-05 2.96535E-13-3.77977E-14
 -1      1628 1.99998E+01-4.56003E-05 6.13963E-07-2.79062E-05 1.55039E-13 6.83778E-14
 -1      1629 1.99998E+01-1.03038E-04 7.15201E-08-1.93164E-05 5.94565E-13 2.74960E-13
 -1      1630 1.99998E+01-8.07476E-05 1.24370E-07-1.91870E-05 2.12761E-13 3.49503E-13
 -1      1631 1.99998E+01-7.85426E-05 2.20945E-07-3.55108E-05 3.22864E-13 2.02678E-13
 -1      1632 1.99998E+01-1.41426E-04 1.19251E-09-1.79145E-05 3.98309E-13 8.18811E-14
 -1      1633 1.99998E+01-1.20580E-04 4.20039E-08-1.84493E-05 5.28338E-13-7.29480E-14
 -1      1634 1.99998E+01-1.14005E-04-1.66845E-07-3.66522E-05 2.48955E-13 1.58796E-13
 -1      1635 1.99998E+01-1.73006E-04-3.65393E-08-1.34589E-05-1.01963E-13-2.05901E-13
 -1      1636 1.99998E+01-1.56613E-04-1.09324E-08-1.45514E-05 1.05386E-13-1.92022E-13
 -1      1637 1.99998E+01-1.46790E-04-5.11131E-07-3.14723E-05-8.42535E-14-3.06070E-13
 -1      1638 1.99998E+01-1.91930E-04-4.84851E-08-6.81536E-06-5.86056E-13-1.44941E-13
 -1      1639 1.99998E+01-1.83095E-04-3.60530E-08-8.25371E-06-3.14360E-13-9.07702E-14
 -1      1640 1.99998E+01-1.72045E-04-7.64006E-07-2.10383E-05-2.45669E-13-4.00973E-13
 -1      1641 1.99998E+01-1.95248E-04-4.66811E-08 9.03626E-07-4.13895E-13 9.03478E-14
 -1      1642 1.99998E+01-1.95400E-04-4.74870E-08-6.50934E-07-7.15995E-13 1.30495E-13
 -1      1643 1.99998E+01-1.85590E-04-8.95420E-07-7.23512E-06-2.21142E-13-1.91113E-13
 -1      1644 1.99998E+01-1.82456E-04-3.30585E-08 8.48045E-06-4.10772E-13-1.48279E-13
 -1      1645 1.99998E+01-1.91570E-04-4.83297E-08 7.05124E-06-4.52263E-13 8.69692E-14
 -1      1646 1.99998E+01-1.85384E-04-8.93321E-07 7.70422E-06-3.64733E-13 1.07523E-13
 -1      1647 1.99998E+01-1.55591E-04-3.69027E-09 1.47108E-05-7.88435E-13-3.67988E-13
 -1      1648 1.99998E+01-1.72193E-04-3.85392E-08 1.36391E-05-3.49124E-13-2.87288E-13
 -1      1649 1.99998E+01-1.71460E-04-7.56146E-07 2.14305E-05-3.77075E-13-2.15819E-13
 -1      1650 1.99998E+01-1.19674E-04 4.32172E-08 1.84941E-05-1.07452E-12 7.34600E-14
 -1      1651 1.99998E+01-1.40604E-04 3.94464E-10 1.79759E-05-8.82825E-13-2.48388E-13
 -1      1652 1.99998E+01-1.46185E-04-5.08697E-07 3.16690E-05-5.23507E-13-4.56323E-13
 -1      1653 1.99998E+01-7.94990E-05 1.35745E-07 1.91622E-05-1.01683E-12-1.28220E-13
 -1      1654 1.99998E+01-1.01781E-04 7.96227E-08 1.93156E-05-1.02899E-12 2.13326E-13
 -1      1655 1.99998E+01-1.13283E-04-1.57541E-07 3.67019E-05-4.81822E-13 1.05602E-13
 -1      1656 1.99998E+01-4.27336E-05 2.41475E-07 1.62639E-05-6.15667E-13 3.07015E-13
 -1      1657 1.99998E+01-6.17763E-05 2.19284E-07 1.71602E-05-9.97219E-13 2.43899E-13
 -1      1658 1.99998E+01-7.75225E-05 2.41993E-07 3.53845E-05-2.32284E-13 9.36681E-14
 -1      1659 1.99998E+01-1.58044E-05 2.50066E-07 1.00759E-05-2.09247E-13 2.60852E-13
 -1      1660 1.99998E+01-2.78595E-05 4.07925E-07 1.16668E-05-5.81011E-13 1.30754E-13
 -1      1661 1.99998E+01-4.47002E-05 5.86458E-07 2.75037E-05-2.44670E-13 3.27749E-13
 -1      1662 1.99998E+01-2.81188E-06-2.28844E-07 2.94776E-06 5.56153E-13 4.52463E-13
 -1      1663 1.99998E+01-6.39864E-06 4.82391E-07 4.43553E-06-6.26934E-14 5.29106E-13
 -1      1664 1.99998E+01-2.08419E-05 6.67667E-07 1.50447E-05-3.88110E-14 5.95604E-13
 -1      1665 1.99998E+01-6.66176E-06 6.20231E-09 3.88326E-06 1.44182E-13 1.99371E-13
 -1      1666-2.87573E-01-1.31235E+01-1.53584E+00 4.80463E-02 1.80767E-12 9.25371E-13
 -1      1667-4.66139E-01-1.65073E+01-1.88626E+00 1.16458E+00 6.38656E-13 7.53286E-13
 -1      1668 2.77053E+00-5.13379E+00-9.41509E-01 2.35809E+00 2.74714E-12 1.64069E-12
 -1      1669 1.44707E+00-1.11861E+01-1.56365E+00 1.13532E+00 2.10876E-12 9.81451E-13
 -1      1670 8.98303E+00 2.56541E+00-3.34597E-01 6.71573E+00 3.05889E-12 2.27074E-12
 -1      1671 5.29230E+00-2.71741E+00-1.10289E+00 3.44300E+00 3.02114E-12 1.80889E-12
 -1      1672 2.24927E+01 6.40074E+00 4.78525E-01 1.18713E+01 2.19880E-12 2.02094E-12
 -1      1673 1.47283E+01 3.61005E+00-3.68428E-01 8.11707E+00 2.69362E-12 2.00862E-12
 -1      1674 3.71395E+01 7.62789E+00 1.23969E+00 1.41105E+01 1.49797E-12 1.64857E-12
 -1      1675 2.75641E+01 8.11611E+00 4.30872E-01 1.28256E+01 2.14828E-12 2.11209E-12
 -1      1676 5.03105E+01 5.46330E+00 1.67660E+00 1.09229E+01 7.46143E-13 3.96017E-13
 -1      1677 4.22290E+01 7.51352E+00 1.15591E+00 1.35058E+01 1.24592E-12 1.34670E-12
 -1      1678 5.65777E+01 3.80444E+00 1.72907E+00 2.94199E+00 6.51340E-13-1.42472E-12
 -1      1679 5.31798E+01 5.03581E+00 1.58030E+00 8.34960E+00 7.49623E-13-2.07223E-13
 -1      1680 5.44417E+01 4.27487E+00 1.45489E+00-5.93151E+00 1.07361E-12-3.13316E-12
 -1      1681 5.72219E+01 3.60333E+00 1.73772E+00-1.24926E-01 6.99302E-13-2.04081E-12
 -1      1682 4.27039E+01 6.67114E+00 7.68571E-01-1.10648E+01 2.07305E-12-3.87856E-12
 -1      1683 5.05055E+01 4.78044E+00 1.32861E+00-7.77300E+00 1.40567E-12-3.26061E-12
 -1      1684 2.90356E+01 8.24828E+00 1.79908E-01-1.27367E+01 3.09325E-12-4.25882E-12
 -1      1685 3.80736E+01 6.95675E+00 8.10715E-01-1.30506E+01 2.41712E-12-4.20375E-12
 -1      1686 1.57331E+01 7.67165E+00-3.91400E-01-1.00792E+01 3.77420E-12-3.71625E-12
 -1      1687 2.32891E+01 8.76955E+00 3.07385E-01-1.30320E+01 3.46601E-12-4.28080E-12
 -1      1688 7.22489E+00 3.10320E+00-7.35518E-01-5.66420E+00 3.22720E-12-2.41029E-12
 -1      1689 1.15725E+01 6.58458E+00-1.85852E-01-8.79988E+00 3.56726E-12-3.27283E-12
 -1      1690 2.17434E+00-2.51230E+00-1.00262E+00-2.40735E+00 2.20923E-12-1.38517E-12
 -1      1691 3.76124E+00 1.80504E+00-5.98239E-01-4.03948E+00 3.11562E-12-2.12136E-12
 -1      1692 2.14511E-01-8.12540E+00-1.20140E+00-1.65181E+00 3.46612E-13-8.04967E-13
 -1      1693 6.99291E-01-4.27481E+00-8.58441E-01-1.54207E+00 1.68932E-12-1.17849E-12
 -1      1694-9.48187E-01-1.13923E+01-1.50480E+00-2.65963E+00-1.82715E-12-1.03828E-12
 -1      1695-5.43600E-01-9.28955E+00-1.16463E+00-1.38742E+00-3.00648E-13-8.54761E-13
 -1      1696-1.44020E+00-1.11575E+01-1.91108E+00-3.32940E+00-3.65780E-12-1.97917E-12
 -1      1697-1.02212E+00-1.20994E+01-1.70706E+00-2.28890E+00-2.42187E-12-1.26274E-12
 -1      1698 8.03283E-01-6.98002E+00-1.97368E+00-1.39704E+00-4.64995E-12-3.34527E-12
 -1      1699-7.28008E-02-1.06828E+01-2.15734E+00-2.30935E+00-4.00480E-12-2.38427E-12
 -1      1700 8.88648E+00-1.41423E+00-1.44254E+00 3.46352E+00-4.67604E-12-4.57367E-12
 -1      1701 4.39831E+00-6.09198E+00-2.18991E+00 1.09902E-01-4.70979E-12-3.72363E-12
 -1      1702 2.45945E+01 2.51951E+00-1.89980E-01 8.78975E+00-3.83116E-12-5.16986E-12
 -1      1703 1.49541E+01-5.50861E-01-1.51501E+00 4.67966E+00-4.41780E-12-4.79017E-12
 -1      1704 4.54578E+01 3.37695E+00 1.52834E+00 9.98295E+00-2.54619E-12-4.49440E-12
 -1      1705 3.21713E+01 3.00320E+00-9.13171E-02 8.39112E+00-3.43081E-12-4.93139E-12
 -1      1706 6.31642E+01 3.40862E+00 3.15547E+00 6.37621E+00-1.50661E-12-2.81286E-12
 -1      1707 5.19536E+01 4.56904E+00 1.86999E+00 9.43692E+00-2.26394E-12-4.16023E-12
 -1      1708 6.90759E+01 3.83343E+00 3.59816E+00-2.20546E+00-1.12516E-12-2.33730E-13
 -1      1709 6.58911E+01 4.03852E+00 3.23033E+00 4.03786E+00-1.34320E-12-2.14406E-12
 -1      1710 6.04051E+01 5.08864E+00 2.60649E+00-9.03799E+00-1.55082E-12 2.06879E-12
 -1      1711 6.78078E+01 3.81963E+00 3.47800E+00-3.92877E+00-1.10517E-12 4.42923E-13
 -1      1712 4.36781E+01 5.86646E+00 1.13694E+00-1.21132E+01-2.30327E-12 3.45679E-12
 -1      1713 5.62501E+01 4.84817E+00 2.59330E+00-1.12163E+01-1.61546E-12 2.68852E-12
 -1      1714 2.47871E+01 4.13164E+00-4.23242E-01-9.63447E+00-3.18834E-12 3.84004E-12
 -1      1715 3.67020E+01 5.40489E+00 9.90497E-01-1.28763E+01-2.56961E-12 3.87024E-12
 -1      1716 1.06201E+01-1.23572E+00-1.44063E+00-4.43732E+00-3.53606E-12 3.13294E-12
 -1      1717 1.79839E+01 3.21036E+00-3.67731E-01-8.79553E+00-3.37641E-12 3.78431E-12
 -1      1718 3.30127E+00-8.97593E+00-1.83761E+00-3.33814E-01-2.86160E-12 1.98785E-12
 -1      1719 6.34216E+00-3.14597E+00-1.19280E+00-3.07845E+00-3.33600E-12 2.83928E-12
 -1      1720-4.53838E-02-1.51488E+01-1.98435E+00 1.16339E+00-1.64385E-12 1.14958E-12
 -1      1721 3.49254E-01-1.06231E+01-1.66522E+00 1.06340E+00-2.67808E-12 1.78946E-12
 -1      1722-8.07836E-01-1.73458E+01-1.95668E+00 5.43897E-01 1.47951E-13 7.50677E-13
 -1      1723-1.06593E+00-1.65251E+01-1.96039E+00 2.18813E+00-1.24897E-12 9.97785E-13
 -1      1724 3.60093E+01 4.15261E-01-2.13003E-01-6.21983E+00-1.24151E-12 7.97792E-13
 -1      1725 2.98142E+01 5.89086E-01-7.86240E-01-3.21966E+00-7.31526E-13 1.18067E-12
 -1      1726 2.64008E+01 1.14235E+00-1.20039E+00-2.57253E+00-8.47933E-13 1.88960E-13
 -1      1727 3.39579E+01 2.98879E+00-2.84445E-01-2.24039E+00-1.77891E-12-2.50527E-13
 -1      1728 1.77218E+01-8.88548E-01-3.38110E-02 8.15928E+00 1.38267E-12 1.01558E-12
 -1      1729-1.40034E+00-1.13156E+01-1.37032E+00 1.60009E+00 4.81004E-14 1.46572E-12
 -1      1730 1.99998E+01 2.44546E-07-2.46603E-07 8.34674E-07-6.94065E-14 4.85996E-13
 -1      1731 1.99998E+01-7.72483E-06-2.64213E-07-4.46868E-06 9.53421E-14 4.78104E-13
 -1      1732 1.58038E+00-8.73756E+00-1.04308E+00 4.07565E+00 7.43960E-13 1.23410E-12
 -1      1733 7.79728E+00-5.08261E+00-6.79667E-01 6.18664E+00 1.27087E-12 1.26703E-12
 -1      1734 2.84489E+01 2.51030E+00 3.57939E-01 8.41010E+00 1.33499E-12 6.92890E-13
 -1      1735 3.87014E+01 6.13229E+00 1.01753E+00 8.09591E+00 1.29083E-12 3.61933E-13
 -1      1736 4.62936E+01 7.46778E+00 1.38614E+00 5.36017E+00 1.22050E-12-4.36595E-13
 -1      1737 4.93221E+01 7.78397E+00 1.48643E+00 9.75287E-01 1.31795E-12-1.40422E-12
 -1      1738 4.59775E+01 7.36084E+00 1.11324E+00-2.84900E+00 1.51934E-12-2.08722E-12
 -1      1739 3.89015E+01 6.38593E+00 7.84299E-01-6.32899E+00 1.79059E-12-2.34934E-12
 -1      1740 2.90845E+01 5.36907E+00 4.02599E-01-9.08680E+00 2.15589E-12-2.76246E-12
 -1      1741 1.81789E+01 3.46241E+00-9.28288E-02-8.72947E+00 2.00595E-12-2.50072E-12
 -1      1742 9.25765E+00 1.00691E+00-3.57488E-01-6.97296E+00 1.55254E-12-2.04953E-12
 -1      1743 2.91461E+00-2.15922E+00-6.36647E-01-4.79249E+00 8.25118E-13-1.71381E-12
 -1      1744-4.36950E-01-4.99181E+00-8.42948E-01-3.41492E+00-2.92322E-13-1.63081E-12
 -1      1745-1.63032E+00-6.71975E+00-1.12895E+00-2.09467E+00-1.37104E-12-1.85596E-12
 -1      1746 5.01490E-01-7.34561E+00-1.43154E+00-8.15029E-02-2.30582E-12-2.29117E-12
 -1      1747 7.22392E+00-6.42982E+00-1.41665E+00 2.43194E+00-2.78555E-12-2.79016E-12
 -1      1748 1.89781E+01-4.62015E+00-8.94338E-01 4.23424E+00-2.80886E-12-3.07843E-12
 -1      1749 3.39105E+01-1.88684E+00 1.57238E-01 3.69681E+00-2.47380E-12-2.88058E-12
 -1      1750 4.76466E+01 2.16718E+00 1.51561E+00 1.73200E+00-2.28791E-12-2.29416E-12
 -1      1751 5.56130E+01 6.82767E+00 2.63128E+00-6.11139E-01-2.18858E-12-1.35869E-12
 -1      1752 5.68303E+01 8.37925E+00 2.85956E+00-1.40469E+00-2.07190E-12-2.80387E-13
 -1      1753 5.16898E+01 6.01583E+00 2.09721E+00-3.21754E+00-1.84930E-12 7.39186E-13
 -1      1754 4.20842E+01 1.69923E+00 9.83683E-01-5.42488E+00-1.71846E-12 1.67510E-12
 -1      1755 2.76281E+01-1.52459E+00-8.85152E-02-6.53662E+00-1.86884E-12 2.15783E-12
 -1      1756 1.45888E+01-5.35507E+00-8.74457E-01-5.51362E+00-1.63158E-12 1.99452E-12
 -1      1757 5.22832E+00-8.43181E+00-1.15587E+00-3.58850E+00-1.25122E-12 1.76427E-12
 -1      1758-3.91126E-01-1.07999E+01-1.37026E+00-8.83416E-01-7.57394E-13 1.66805E-12
 -1      1759 3.60161E+01 2.04969E+00 1.03606E-01-6.92673E-01-7.15469E-14 1.46413E-12
 -1      1760 8.83700E+00 4.93542E+00-1.39986E-02-1.57060E-01 7.15469E-14-1.09240E-12
 -1      1761 1.32571E+01 4.73288E+00 1.74218E-01 4.88437E-01 1.71793E-13-8.37205E-13
 -1      1762 1.85355E+01 3.34350E+00-8.05750E-02 8.82510E-01 2.50924E-13-3.57617E-13
 -1      1763 2.42945E+01 2.85433E+00-9.18212E-03 5.67151E-01 1.53461E-13 7.67303E-14
 -1      1764 1.58115E+01 2.95642E+00 7.69325E-02 1.35692E+00 2.23307E-13-5.91860E-13
 -1      1765 7.46334E+00 4.81343E+00 1.52856E-01-4.96332E+00-6.78443E-13-1.35285E-12
 -1      1766 5.81301E+00 5.17580E+00 2.91155E-02-4.23862E+00-5.03958E-13-1.38288E-12
 -1      1767 1.34002E+01 3.33941E+00 1.58832E-01-5.66825E+00-8.85458E-13-1.12614E-12
 -1      1768 9.95492E+00 3.74181E+00-2.41322E-02-5.65874E+00-8.05037E-13-1.21983E-12
 -1      1769 1.96847E+01 2.17900E+00 7.02394E-02-4.26539E+00-8.20413E-13-8.57980E-13
 -1      1770 1.67462E+01 2.28580E+00-2.78207E-02-5.05682E+00-8.87707E-13-9.22581E-13
 -1      1771 2.32714E+01 2.26743E+00-1.45680E-02-2.02209E+00-5.35474E-13-7.24067E-13
 -1      1772 2.18148E+01 2.07233E+00 1.40087E-03-2.96683E+00-6.82912E-13-7.40966E-13
 -1      1773 2.14165E+01 1.27258E+00-2.74346E-02-3.63799E+00-7.90507E-13-7.07094E-13
 -1      1774 2.43798E+01 3.03537E+00-5.31805E-02-1.52069E-01-2.29611E-13-7.27848E-13
 -1      1775 2.40739E+01 2.73789E+00 8.41942E-03-9.07413E-01-3.77552E-13-7.09374E-13
 -1      1776 2.43571E+01 1.79238E+00-1.67778E-02-1.15881E+00-4.67227E-13-6.02785E-13
 -1      1777 2.40774E+01 3.81289E+00-5.41211E-02 1.11107E+00 5.42561E-14-7.40720E-13
 -1      1778 2.43694E+01 3.56608E+00-4.42139E-03 5.71216E-01-8.71187E-14-7.36061E-13
 -1      1779 2.49261E+01 2.75940E+00 1.45461E-03 5.46119E-01-1.46637E-13-6.23633E-13
 -1      1780 2.31603E+01 4.28805E+00-4.48195E-02 1.92404E+00 2.94664E-13-7.41997E-13
 -1      1781 2.36775E+01 4.16412E+00-1.68530E-02 1.54191E+00 1.70374E-13-7.54400E-13
 -1      1782 2.42807E+01 3.53680E+00 4.87117E-03 1.54649E+00 1.41331E-13-6.63893E-13
 -1      1783 2.20362E+01 4.43556E+00-3.65050E-02 2.51538E+00 4.98579E-13-6.66571E-13
 -1      1784 2.26135E+01 4.43191E+00-2.30868E-02 2.21191E+00 3.90776E-13-7.19442E-13
 -1      1785 2.31834E+01 3.93726E+00 1.18982E-03 2.15389E+00 3.85391E-13-6.56773E-13
 -1      1786 2.09532E+01 4.29316E+00-3.49002E-02 3.00320E+00 6.82791E-13-4.73555E-13
 -1      1787 2.14835E+01 4.39139E+00-2.75601E-02 2.73498E+00 5.77122E-13-5.96266E-13
 -1      1788 2.20035E+01 3.97407E+00-2.75438E-03 2.59081E+00 5.80239E-13-5.68379E-13
 -1      1789 2.00857E+01 3.86952E+00-4.88130E-02 3.44985E+00 7.91885E-13-7.73270E-14
 -1      1790 2.04866E+01 4.07620E+00-3.50522E-02 3.18370E+00 7.28372E-13-3.24560E-13
 -1      1791 2.09455E+01 3.68805E+00-4.35089E-03 2.95228E+00 7.48731E-13-3.38327E-13
 -1      1792 1.97652E+01 2.96724E+00-6.65634E-02 3.73939E+00 7.77149E-13 7.20209E-13
 -1      1793 1.98248E+01 3.43567E+00-4.53390E-02 3.55058E+00 7.78667E-13 2.41099E-13
 -1      1794 2.01612E+01 3.03835E+00-3.32768E-03 3.20329E+00 8.29510E-13 1.15300E-13
 -1      1795 1.99205E+01 1.41357E+00-1.22011E-01 3.05142E+00 6.60361E-13 1.72379E-12
 -1      1796 1.98037E+01 2.51109E+00 7.92348E-03 3.55211E+00 7.16227E-13 1.07506E-12
 -1      1797 1.96694E+01 2.00977E+00-2.05534E-02 3.01507E+00 8.15499E-13 7.46941E-13
 -1      1798 1.89517E+01 9.32447E-01-7.00935E-02 2.18089E+00 6.78943E-13 1.51029E-12
 -1      1799 3.11972E+01 2.33404E+00 1.01750E-01-2.45045E-01 7.05130E-14 7.87995E-13
 -1      1800 1.77999E+01 4.19797E-01-6.96689E-03 1.13473E+00 5.27037E-13 1.17634E-12
 -1      1801 1.85340E+01 5.73343E-01-1.20569E-02 1.58596E+00 5.72230E-13 1.38557E-12
 -1      1802 1.90131E+01 1.06217E+00 7.00313E-03 2.10245E+00 6.84064E-13 9.59311E-13
 -1      1803 4.28086E+01 4.31323E+00 2.06127E-01-3.29710E+00-1.92446E-12-2.16882E-13
 -1      1804 4.24145E+01 5.27135E+00 2.22179E-01-4.21492E-01-1.95788E-12-7.69065E-13
 -1      1805 3.30964E+01-2.46550E+00 2.46242E-01 5.61592E-01 2.17465E-13 9.65346E-13
 -1      1806 3.34166E+01-3.58957E+00-4.93209E-02-1.02653E+00-6.00908E-14 9.60371E-13
 -1      1807 3.65321E+01-3.60093E+00 8.18291E-02-2.77918E+00-3.88314E-13 8.73190E-13
 -1      1808 3.67634E+01-2.57241E+00-5.74646E-02-4.11881E+00-8.57169E-13 6.63164E-13
 -1      1809 2.87104E+01 1.38781E+00 1.82953E-01 8.32598E-01 2.24896E-13 5.70335E-13
 -1      1810 3.58424E+01 1.02811E-01-2.13676E-01 3.78360E+00-7.59282E-13-1.36108E-12
 -1      1811 3.64505E+01-2.19469E+00-4.40034E-02 3.22522E+00-1.99410E-13-1.54066E-12
 -1      1812 3.31623E+01-3.11800E+00-3.41449E-02 1.52336E+00 2.03143E-13-1.58816E-12
 -1      1813 3.25412E+01-3.10842E+00 1.19338E-01-3.17279E-01 5.85920E-13-1.43002E-12
 -1      1814 3.00624E+01-2.24168E+00 2.35428E-02-1.82092E+00 6.04766E-13-1.32060E-12
 -1      1815 2.89787E+01-1.28023E+00 1.30655E-01-2.90863E+00 6.17645E-13-1.10301E-12
 -1      1816 2.87967E+01-3.87953E+00-3.72215E-02-2.62635E+00 6.89726E-13-8.59146E-13
 -1      1817 2.76359E+01-5.47774E-01 2.43795E-02-3.27964E+00 4.98823E-13-1.01584E-12
 -1      1818 2.64096E+01 3.48238E-02 5.13923E-02-3.47219E+00 4.48957E-13-8.69645E-13
 -1      1819 2.53369E+01-1.40379E+00-4.51673E-03-4.11981E+00 6.55483E-13-6.74356E-13
 -1      1820 2.57385E+01 3.09096E-01 1.90586E-02-3.23613E+00 3.58002E-13-8.12548E-13
 -1      1821 2.46006E+01 4.94732E-01 3.98820E-03-2.99845E+00 2.02933E-13-6.87133E-13
 -1      1822 2.36121E+01 2.02948E-01-7.99196E-04-4.10056E+00 4.66394E-13-5.78171E-13
 -1      1823 2.42191E+01 5.26984E-01 2.33645E-02-2.58566E+00 6.85303E-14-5.65260E-13
 -1      1824 2.32902E+01 5.22683E-01-5.68978E-03-2.25412E+00 7.78023E-14-5.00250E-13
 -1      1825 2.26593E+01 7.54769E-01-1.25193E-05-3.35861E+00 1.97451E-13-4.06897E-13
 -1      1826 2.30191E+01 4.74203E-01 2.57576E-02-1.86714E+00-4.33334E-15-4.68800E-13
 -1      1827 2.23237E+01 4.13654E-01-3.26009E-03-1.57955E+00-9.48928E-14-4.04213E-13
 -1      1828 2.20102E+01 7.57421E-01 1.95655E-04-2.49338E+00 5.86909E-14-2.48474E-13
 -1      1829 2.21106E+01 3.54777E-01 2.36316E-02-1.27810E+00-1.17132E-13-3.74250E-13
 -1      1830 2.16177E+01 2.92486E-01-1.36222E-04-1.06552E+00-3.41706E-14-3.58210E-13
 -1      1831 2.15052E+01 5.91092E-01 3.85735E-05-1.75041E+00-9.00426E-14-2.33288E-13
 -1      1832 2.14498E+01 2.44759E-01 1.89397E-02-8.50006E-01-3.09319E-14-3.52281E-13
 -1      1833 2.11122E+01 1.96039E-01 1.38272E-03-7.04020E-01-4.96062E-14-4.33784E-13
 -1      1834 2.11048E+01 4.15821E-01-3.88112E-04-1.18950E+00-5.54574E-14-2.25492E-13
 -1      1835 2.09836E+01 1.62232E-01 1.39022E-02-5.56799E-01-7.90739E-14-4.85940E-13
 -1      1836 2.07571E+01 1.27931E-01 1.73650E-03-4.60182E-01-3.80147E-14-5.29811E-13
 -1      1837 2.07954E+01 2.78093E-01-7.91595E-04-7.93334E-01-6.88872E-14-2.65846E-13
 -1      1838 2.06614E+01 1.05392E-01 9.66563E-03-3.62104E-01-6.82427E-14-5.87353E-13
 -1      1839 2.05111E+01 8.24202E-02 1.57250E-03-2.99330E-01-1.49559E-13-6.14863E-13
 -1      1840 2.05635E+01 1.81259E-01-9.96159E-04-5.23723E-01-7.61956E-14-4.00511E-13
 -1      1841 2.04415E+01 6.78342E-02 6.50801E-03-2.34859E-01-2.14953E-13-5.38328E-13
 -1      1842 2.03424E+01 5.28354E-02 1.26002E-03-1.94410E-01-1.65224E-13-5.30534E-13
 -1      1843 2.03940E+01 1.16673E-01-1.00608E-03-3.44022E-01-1.61570E-13-3.75335E-13
 -1      1844 2.02926E+01 4.35333E-02 4.30442E-03-1.52290E-01-1.58805E-13-5.28715E-13
 -1      1845 2.02275E+01 3.38626E-02 9.53705E-04-1.26285E-01-1.60368E-13-5.58542E-13
 -1      1846 2.02724E+01 7.47322E-02-8.97284E-04-2.25558E-01-1.79095E-13-3.49822E-13
 -1      1847 2.01923E+01 2.79670E-02 2.82170E-03-9.88079E-02-1.00818E-13-6.04158E-13
 -1      1848 2.01495E+01 2.17632E-02 7.01248E-04-8.20641E-02-1.25810E-13-6.85717E-13
 -1      1849 2.01862E+01 4.78567E-02-7.41685E-04-1.47833E-01-1.66582E-13-2.98822E-13
 -1      1850 2.01248E+01 1.80304E-02 1.84343E-03-6.41114E-02-1.82980E-13-6.07717E-13
 -1      1851 2.00968E+01 1.40513E-02 5.07785E-04-5.32896E-02-1.44053E-13-6.73476E-13
 -1      1852 2.01257E+01 3.07295E-02-5.84296E-04-9.68688E-02-1.75009E-13-3.11688E-13
 -1      1853 2.00796E+01 1.16818E-02 1.20421E-03-4.15189E-02 4.75011E-14-6.64938E-13
 -1      1854 2.00612E+01 9.12084E-03 3.64691E-04-3.44896E-02 1.67481E-13-5.67619E-13
 -1      1855 2.00835E+01 1.98200E-02-4.46223E-04-6.33835E-02-3.75632E-14-3.83796E-13
 -1      1856 2.00493E+01 7.60888E-03 7.87988E-04-2.67390E-02 1.63441E-13-4.81794E-13
 -1      1857 2.00374E+01 5.95037E-03 2.60738E-04-2.21495E-02 2.54778E-13-5.27173E-13
 -1      1858 2.00543E+01 1.28495E-02-3.33829E-04-4.13042E-02 1.66135E-13-2.64846E-13
 -1      1859 2.00292E+01 4.97843E-03 5.16823E-04-1.70253E-02 2.32990E-13-5.49521E-13
 -1      1860 2.00215E+01 3.89543E-03 1.85874E-04-1.40166E-02 9.89231E-14-5.29485E-13
 -1      1861 2.00343E+01 8.36977E-03-2.46184E-04-2.66874E-02 2.67894E-13-3.55078E-13
 -1      1862 2.00160E+01 3.26509E-03 3.39554E-04-1.06201E-02-5.17333E-14-4.21005E-13
 -1      1863 2.00112E+01 2.55111E-03 1.32150E-04-8.64454E-03-2.31767E-14-4.13559E-13
 -1      1864 2.00206E+01 5.46790E-03-1.79564E-04-1.69788E-02 1.03931E-13-4.26775E-13
 -1      1865 2.00075E+01 2.13850E-03 2.23047E-04-6.39380E-03-6.06685E-14-4.08142E-13
 -1      1866 2.00045E+01 1.66319E-03 9.36175E-05-5.09985E-03-7.83624E-14-4.95336E-13
 -1      1867 2.00115E+01 3.57082E-03-1.29719E-04-1.05215E-02-6.42669E-14-4.36804E-13
 -1      1868 2.00021E+01 1.39079E-03 1.45989E-04-3.61542E-03-2.05609E-14-5.26691E-13
 -1      1869 2.00003E+01 1.07165E-03 6.59618E-05-2.77516E-03 7.46437E-14-5.06168E-13
 -1      1870 2.00055E+01 2.31892E-03-9.28054E-05-6.23538E-03-9.16181E-14-4.60234E-13
 -1      1871 1.99988E+01 8.90695E-04 9.47038E-05-1.80704E-03 7.31306E-14-5.60061E-13
 -1      1872 1.99979E+01 6.75104E-04 4.60973E-05-1.27092E-03 1.21831E-13-5.00585E-13
 -1      1873 2.00016E+01 1.48595E-03-6.56648E-05-3.41033E-03 1.10613E-13-3.41833E-13
 -1      1874 1.99970E+01 5.54623E-04 6.04034E-05-6.52413E-04 1.28777E-13-4.59182E-13
 -1      1875 1.99966E+01 4.08690E-04 3.18323E-05-3.20943E-04 1.34435E-13-4.60122E-13
 -1      1876 1.99992E+01 9.28577E-04-4.58311E-05-1.57472E-03 1.90207E-13-3.11198E-13
 -1      1877 1.99961E+01 3.28754E-04 3.74113E-05 6.05058E-05 1.95070E-13-3.33750E-13
 -1      1878 1.99960E+01 2.30323E-04 2.16096E-05 2.54444E-04 2.32289E-13-2.99150E-13
 -1      1879 1.99979E+01 5.55088E-04-3.14283E-05-4.11451E-04 2.08998E-13-2.72428E-13
 -1      1880 1.99958E+01 1.77898E-04 2.20289E-05 4.75775E-04 9.88182E-14-2.17445E-13
 -1      1881 1.99960E+01 1.12224E-04 1.43177E-05 5.78016E-04 5.77193E-14-2.34597E-13
 -1      1882 1.99972E+01 3.05952E-04-2.10482E-05 2.95303E-04 2.92320E-13-5.25457E-14
 -1      1883 1.99959E+01 7.86232E-05 1.18179E-05 6.92354E-04-4.79140E-14-3.54864E-13
 -1      1884 1.99962E+01 3.57068E-05 9.15732E-06 7.34489E-04 5.32810E-14-4.88334E-13
 -1      1885 1.99970E+01 1.41856E-04-1.36398E-05 6.94077E-04-7.89917E-14-1.27302E-13
 -1      1886 1.99962E+01 1.50266E-05 5.14742E-06 7.78756E-04 2.58458E-13-6.32125E-13
 -1      1887 1.99965E+01-1.20451E-05 5.54900E-06 7.82657E-04 2.43968E-13-5.40386E-13
 -1      1888 1.99970E+01 3.63373E-05-8.41993E-06 8.87954E-04 1.22839E-13-3.96779E-13
 -1      1889 1.99966E+01-2.38888E-05 9.10082E-07 7.82555E-04 1.29447E-13-4.42094E-13
 -1      1890 1.99969E+01-3.99750E-05 3.06901E-06 7.63346E-04 8.16522E-15-2.97760E-13
 -1      1891 1.99972E+01-2.87577E-05-4.80459E-06 9.48783E-04 2.38956E-13-5.46398E-13
 -1      1892 1.99971E+01-4.58467E-05-1.65752E-06 7.36691E-04-1.27509E-13-3.78538E-13
 -1      1893 1.99974E+01-5.44056E-05 1.40544E-06 7.04738E-04-2.55850E-13-4.93525E-13
 -1      1894 1.99975E+01-6.60944E-05-2.35770E-06 9.26607E-04-1.68992E-14-4.18275E-13
 -1      1895 1.99975E+01-5.63316E-05-3.08827E-06 6.63737E-04-2.19079E-13-4.25885E-13
 -1      1896 1.99978E+01-5.98408E-05 3.27669E-07 6.26025E-04-3.34983E-13-4.14996E-13
 -1      1897 1.99979E+01-8.46196E-05-7.53763E-07 8.56036E-04-2.19387E-13-5.30299E-13
 -1      1898 1.99979E+01-5.92576E-05-3.75743E-06 5.78876E-04-2.27443E-13-3.67925E-13
 -1      1899 1.99982E+01-5.94936E-05-3.35176E-07 5.39973E-04 2.33781E-14-3.64560E-13
 -1      1900 1.99982E+01-9.06975E-05 2.49819E-07 7.60658E-04-1.02890E-13-4.76169E-13
 -1      1901 1.99983E+01-5.74142E-05-3.93021E-06 4.91999E-04-2.48091E-14-3.02868E-13
 -1      1902 1.99985E+01-5.56435E-05-7.09621E-07 4.54754E-04-1.09998E-13-4.29799E-13
 -1      1903 1.99985E+01-8.88572E-05 8.33133E-07 6.56167E-04-1.15776E-14-1.79444E-13
 -1      1904 1.99986E+01-5.27739E-05-3.79369E-06 4.09237E-04-3.57238E-13-2.13157E-13
 -1      1905 1.99988E+01-4.98894E-05-8.89077E-07 3.75286E-04-4.80790E-13-3.42817E-13
 -1      1906 1.99987E+01-8.23025E-05 1.12902E-06 5.52602E-04-1.61705E-13-1.96545E-13
 -1      1907 1.99989E+01-4.67117E-05-3.47873E-06 3.34066E-04-2.06743E-13-2.14082E-13
 -1      1908 1.99990E+01-4.33315E-05-9.42215E-07 3.04200E-04 3.42804E-14-1.38960E-13
 -1      1909 1.99990E+01-7.32711E-05 1.23461E-06 4.55995E-04-3.39889E-13 1.21839E-13
 -1      1910 1.99991E+01-4.01662E-05-3.07544E-06 2.68123E-04 1.67753E-13-2.54318E-13
 -1      1911 1.99992E+01-3.67092E-05-9.19452E-07 2.42564E-04 3.06542E-13-2.85168E-13
 -1      1912 1.99991E+01-6.32957E-05 1.21996E-06 3.69565E-04 9.30417E-14-2.48857E-14
 -1      1913 1.99993E+01-3.37633E-05-2.64411E-06 2.11799E-04 3.60448E-13-3.12311E-13
 -1      1914 1.99994E+01-3.05085E-05-8.57655E-07 1.90386E-04 2.71788E-13-4.03977E-13
 -1      1915 1.99993E+01-5.34024E-05 1.13447E-06 2.94599E-04 3.49589E-13-4.33262E-14
 -1      1916 1.99994E+01-2.79136E-05-2.22290E-06 1.64657E-04 2.25776E-13-3.37722E-13
 -1      1917 1.99995E+01-2.50458E-05-7.83406E-07 1.46979E-04 2.40106E-13-1.47122E-13
 -1      1918 1.99994E+01-4.42652E-05 1.01257E-06 2.31087E-04 2.95922E-13-1.40558E-13
 -1      1919 1.99995E+01-2.28866E-05-1.83439E-06 1.25719E-04 4.61267E-14-1.75919E-14
 -1      1920 1.99996E+01-2.05265E-05-7.13397E-07 1.11202E-04-1.38845E-13-6.59379E-14
 -1      1921 1.99995E+01-3.63214E-05 8.77279E-07 1.78156E-04 2.02177E-13 6.85073E-14
 -1      1922 1.99996E+01-1.88583E-05-1.48443E-06 9.36609E-05 2.92210E-15 1.12805E-13
 -1      1923 1.99997E+01-1.70778E-05-6.49522E-07 8.16285E-05 2.98462E-13 1.79050E-13
 -1      1924 1.99996E+01-2.98574E-05 7.43015E-07 1.34388E-04 7.48948E-14 2.19267E-13
 -1      1925 1.99997E+01-1.59218E-05-1.16191E-06 6.69688E-05 9.71590E-14 2.27636E-13
 -1      1926 1.99997E+01-1.47455E-05-5.83575E-07 5.67150E-05-1.21561E-13 3.03030E-13
 -1      1927 1.99997E+01-2.50346E-05 6.21693E-07 9.80458E-05 1.84693E-13 4.09522E-13
 -1      1928 1.99997E+01-1.40582E-05-8.58525E-07 4.41098E-05-1.94463E-13 3.01320E-13
 -1      1929 1.99998E+01-1.32884E-05-5.05962E-07 3.50601E-05-4.31862E-14 1.42132E-13
 -1      1930 1.99997E+01-2.18962E-05 4.85964E-07 6.73399E-05-1.28894E-13 4.96768E-13
 -1      1931 1.99998E+01-1.26717E-05-6.00392E-07 2.39737E-05 8.33642E-14 5.27324E-14
 -1      1932 1.99998E+01-1.16127E-05-4.50750E-07 1.62796E-05-1.78621E-13-2.18038E-14
 -1      1933 1.99998E+01-1.96581E-05 3.77372E-07 4.07143E-05-5.82042E-14 2.71124E-13
 -1      1934 1.99998E+01-9.53947E-06-3.42516E-07 7.42512E-06-1.83477E-13 9.75821E-14
 -1      1935 1.70142E+01 2.79768E-01 1.70120E-02 2.30713E-01 3.41945E-13 6.21513E-13
 -1      1936 1.71875E+01 3.18360E-01 2.35347E-02 4.25335E-01 3.54328E-13 7.47005E-13
 -1      1937 1.68976E+01 2.29512E-01 1.34679E-02-1.60420E-01 2.54004E-13 4.50303E-13
 -1      1938 1.69006E+01 2.56059E-01 1.90011E-02-6.87927E-03 3.07155E-13 5.48436E-13
 -1      1939 1.78157E+01 4.15788E-01-1.05505E-02 2.01044E-01 4.01281E-13 2.85858E-13
 -1      1940 1.70366E+01 1.73931E-01 9.35923E-03-4.71938E-01 1.96228E-13 3.17026E-13
 -1      1941 1.69039E+01 2.04724E-01 1.34386E-02-3.52524E-01 2.15128E-13 3.83514E-13
 -1      1942 1.77068E+01 3.30811E-01-1.12243E-02-2.89374E-01 3.14973E-13 1.33244E-13
 -1      1943 1.73692E+01 1.04545E-01 5.71245E-03-6.88096E-01 1.23374E-13 2.29161E-13
 -1      1944 1.71399E+01 1.41335E-01 9.20732E-03-6.09831E-01 1.52348E-13 2.70335E-13
 -1      1945 1.78210E+01 2.38469E-01-8.66014E-03-6.66608E-01 2.17259E-13 2.73395E-14
 -1      1946 1.78200E+01 3.08806E-02 2.83574E-03-7.95592E-01 1.15760E-13 1.69021E-13
 -1      1947 1.75352E+01 6.77215E-02 5.19806E-03-7.62746E-01 1.17428E-13 2.08408E-13
 -1      1948 1.80960E+01 1.30209E-01-4.94299E-03-9.11363E-01 1.61796E-13-7.02570E-14
 -1      1949 1.83127E+01-3.26661E-02 8.17175E-04-7.98949E-01 9.26314E-14 1.35721E-13
 -1      1950 1.80120E+01-2.96167E-03 1.20406E-03-8.07580E-01 1.29189E-13 2.05813E-13
 -1      1951 1.84604E+01 2.12006E-02-1.30953E-03-1.01400E+00 1.34842E-13-8.36286E-14
 -1      1952 1.87835E+01-7.57717E-02-4.14720E-04-7.21274E-01 6.24726E-14 1.04524E-13
 -1      1953 1.84999E+01-5.75269E-02-2.32084E-03-7.60294E-01 9.47610E-14 1.31321E-13
 -1      1954 1.88460E+01-6.85372E-02 1.36471E-03-9.89073E-01 1.22726E-13-5.69720E-14
 -1      1955 1.91899E+01-9.57948E-02-1.04549E-03-5.95371E-01 8.86600E-14 1.04857E-13
 -1      1956 1.89456E+01-8.93185E-02-4.84650E-03-6.50808E-01 7.49431E-14 1.02328E-13
 -1      1957 1.92014E+01-1.26135E-01 2.81221E-03-8.71672E-01 9.19137E-14-4.57661E-14
 -1      1958 1.95120E+01-9.64979E-02-1.27493E-03-4.53131E-01 2.55520E-14 6.93575E-14
 -1      1959 1.93178E+01-9.91788E-02-6.13924E-03-5.12340E-01 7.70044E-14 8.14286E-14
 -1      1960 1.94969E+01-1.49766E-01 3.22573E-03-7.04605E-01 8.43644E-14-8.56995E-14
 -1      1961 1.97480E+01-8.46566E-02-1.26136E-03-3.18510E-01 1.66082E-14 8.56397E-14
 -1      1962 1.96049E+01-9.27886E-02-6.31212E-03-3.72582E-01 2.92392E-14 1.02883E-13
 -1      1963 1.97223E+01-1.46152E-01 2.98122E-03-5.26054E-01 2.30189E-14-5.13919E-14
 -1      1964 1.99078E+01-6.70113E-02-1.11340E-03-2.05357E-01-3.44180E-14 7.54210E-14
 -1      1965 1.98102E+01-7.72267E-02-5.69038E-03-2.49569E-01 1.25531E-14 9.53304E-14
 -1      1966 1.98810E+01-1.25609E-01 2.42946E-03-3.62723E-01 2.20336E-14-8.13667E-14
 -1      1967 2.00064E+01-4.86076E-02-9.03448E-04-1.18732E-01-3.23799E-14 1.28721E-13
 -1      1968 1.99457E+01-5.85513E-02-4.64662E-03-1.51762E-01-3.56551E-15 1.11621E-13
 -1      1969 1.99836E+01-9.78850E-02 1.80965E-03-2.28753E-01-2.63307E-14 9.50295E-15
 -1      1970 2.00599E+01-3.24146E-02-6.79755E-04-5.77146E-02-2.38557E-14 1.01252E-13
 -1      1971 2.00265E+01-4.08106E-02-3.49007E-03-8.04174E-02-3.84431E-14 6.84772E-14
 -1      1972 2.00433E+01-7.00355E-02 1.24898E-03-1.28179E-01 2.06672E-14 6.18253E-14
 -1      1973 2.00825E+01-1.96773E-02-4.72543E-04-1.82210E-02-5.00943E-14 1.75595E-13
 -1      1974 2.00679E+01-2.60845E-02-2.42345E-03-3.25068E-02-1.90470E-14 1.26406E-13
 -1      1975 2.00724E+01-4.60537E-02 7.97391E-04-5.85759E-02-5.97903E-14 5.83782E-14
 -1      1976 2.00858E+01-1.05076E-02-2.98413E-04 4.88598E-03 8.01912E-14 1.37508E-13
 -1      1977 2.00829E+01-1.50010E-02-1.54819E-03-3.15346E-03 6.67554E-15 1.66603E-13
 -1      1978 2.00813E+01-2.74797E-02 4.61118E-04-1.43602E-02-1.23964E-14 1.07070E-13
 -1      1979 2.00782E+01-4.42167E-03-1.63447E-04 1.65093E-02 1.41785E-13 1.80559E-13
 -1      1980 2.00820E+01-7.32575E-03-8.91490E-04 1.27408E-02 1.73384E-13 2.10007E-13
 -1      1981 2.00780E+01-1.42833E-02 2.26339E-04 1.08761E-02 1.02366E-13 9.44755E-14
 -1      1982 2.00655E+01-7.20995E-04-6.65666E-05 2.07073E-02-5.90877E-15 1.22598E-13
 -1      1983 2.00724E+01-2.43068E-03-4.36165E-04 1.96259E-02 1.08773E-13 1.93968E-13
 -1      1984 2.00684E+01-5.64054E-03 7.24981E-05 2.30132E-02 1.11675E-13 1.90120E-13
 -1      1985 2.00515E+01 1.28488E-03-2.57966E-06 2.05281E-02-1.14591E-14 3.80640E-14
 -1      1986 2.00592E+01 4.03274E-04-1.44722E-04 2.09742E-02-5.07541E-14 4.69534E-14
 -1      1987 2.00561E+01-4.69239E-04-2.09969E-05 2.68085E-02 8.87822E-15 1.68094E-13
 -1      1988 2.00382E+01 2.17453E-03 3.54232E-05 1.80875E-02-2.11129E-13 1.83871E-13
 -1      1989 2.00456E+01 1.82498E-03 2.48414E-05 1.92754E-02-7.58575E-14 9.25279E-14
 -1      1990 2.00437E+01 2.26568E-03-7.18283E-05 2.57800E-02-6.77205E-14 4.12464E-14
 -1      1991 2.00268E+01 2.38563E-03 5.44395E-05 1.47486E-02-2.40120E-13 2.56539E-13
 -1      1992 2.00331E+01 2.34996E-03 1.10409E-04 1.61853E-02-2.51930E-13 2.27804E-13
 -1      1993 2.00324E+01 3.41584E-03-9.39987E-05 2.23397E-02-2.62658E-13 1.53340E-13
 -1      1994 2.00175E+01 2.22463E-03 6.05974E-05 1.13190E-02-9.17125E-14 1.72996E-13
 -1      1995 2.00225E+01 2.35348E-03 1.42263E-04 1.27221E-02-1.55483E-13 2.22720E-13
 -1      1996 2.00228E+01 3.61704E-03-9.80649E-05 1.80233E-02-1.97996E-13 9.65861E-14
 -1      1997 2.00104E+01 1.89168E-03 5.87691E-05 8.22469E-03 2.29475E-13 1.05236E-13
 -1      1998 2.00142E+01 2.08971E-03 1.42631E-04 9.45333E-03 1.08568E-13 1.68547E-13
 -1      1999 2.00151E+01 3.30941E-03-9.16285E-05 1.37273E-02 2.78399E-14-7.24275E-14
 -1      2000 2.00052E+01 1.50830E-03 5.25443E-05 5.64715E-03 9.42865E-14 1.79953E-13
 -1      2001 2.00079E+01 1.71922E-03 1.26710E-04 6.64866E-03 2.12015E-13 1.66665E-13
 -1      2002 2.00092E+01 2.77705E-03-7.98976E-05 9.91360E-03 1.48416E-13 1.04792E-13
 -1      2003 2.00016E+01 1.14171E-03 4.43895E-05 3.62234E-03 9.56782E-14 2.99035E-13
 -1      2004 2.00034E+01 1.33561E-03 1.04191E-04 4.39500E-03 1.14767E-13 2.46639E-13
 -1      2005 2.00048E+01 2.19002E-03-6.62541E-05 6.76758E-03 9.32778E-14 1.99536E-13
 -1      2006 1.99992E+01 8.24013E-04 3.58794E-05 2.10832E-03-7.48889E-14 2.93410E-13
 -1      2007 2.00003E+01 9.87724E-04 8.07852E-05 2.67636E-03-3.22012E-14 3.56483E-13
 -1      2008 2.00018E+01 1.64052E-03-5.27519E-05 4.31236E-03-6.77608E-15 3.38468E-13
 -1      2009 1.99978E+01 5.66014E-04 2.79298E-05 1.02811E-03 1.59812E-13 3.37534E-13
 -1      2010 1.99984E+01 6.96240E-04 5.95055E-05 1.42625E-03 5.82658E-14 2.77091E-13
 -1      2011 1.99998E+01 1.17086E-03-4.05195E-05 2.48545E-03 3.35634E-14 3.17050E-13
 -1      2012 1.99970E+01 3.66669E-04 2.09996E-05 2.95363E-04 1.45652E-13 2.01546E-13
 -1      2013 1.99973E+01 4.65422E-04 4.16527E-05 5.59836E-04 2.53624E-13 2.72532E-13
 -1      2014 1.99985E+01 7.93557E-04-3.00702E-05 1.18736E-03 1.81731E-13 2.77059E-13
 -1      2015 1.99968E+01 2.19118E-04 1.52511E-05-1.71777E-04-1.46438E-13 5.93311E-14
 -1      2016 1.99968E+01 2.90834E-04 2.75152E-05-7.88701E-06 8.53850E-14 7.42697E-14
 -1      2017 1.99979E+01 5.04818E-04-2.15311E-05 3.10399E-04 1.71224E-13 3.03846E-13
 -1      2018 1.99968E+01 1.14334E-04 1.06679E-05-4.44159E-04 1.40046E-13 6.17153E-14
 -1      2019 1.99967E+01 1.64179E-04 1.68377E-05-3.52897E-04-1.07253E-13 1.74602E-14
 -1      2020 1.99976E+01 2.93131E-04-1.48045E-05-2.45927E-04-5.00022E-14 8.19312E-14
 -1      2021 1.99970E+01 4.31771E-05 7.13676E-06-5.79523E-04 3.49436E-14-9.53130E-14
 -1      2022 1.99968E+01 7.61257E-05 9.11839E-06-5.38515E-04 1.41222E-13 1.73033E-14
 -1      2023 1.99975E+01 1.44375E-04-9.67763E-06-5.67862E-04 1.56497E-13 2.33572E-14
 -1      2024 1.99973E+01-2.58047E-06 4.50227E-06-6.22831E-04-8.20814E-14-5.86231E-14
 -1      2025 1.99971E+01 1.78179E-05 3.78492E-06-6.14917E-04 6.82487E-14-1.47568E-13
 -1      2026 1.99976E+01 4.46463E-05-5.89319E-06-7.25341E-04 7.49538E-14-1.03737E-13
 -1      2027 1.99977E+01-2.98405E-05 2.59958E-06-6.07779E-04-1.84194E-13-2.90150E-14
 -1      2028 1.99974E+01-1.84218E-05 2.90092E-07-6.20279E-04-2.20461E-13-1.13558E-13
 -1      2029 1.99979E+01-1.83683E-05-3.19182E-06-7.72649E-04-1.35294E-13-2.52274E-13
 -1      2030 1.99980E+01-4.41157E-05 1.27347E-06-5.58725E-04-6.58046E-14-2.44219E-14
 -1      2031 1.99978E+01-3.88733E-05-1.84279E-06-5.82599E-04-1.26043E-13 5.97731E-15
 -1      2032 1.99981E+01-5.48826E-05-1.33568E-06-7.50371E-04-2.06532E-13-2.24781E-13
 -1      2033 1.99983E+01-4.96442E-05 3.87547E-07-4.92632E-04 1.88037E-13-4.77291E-15
 -1      2034 1.99981E+01-4.84555E-05-3.00480E-06-5.21684E-04 8.52783E-14 2.98032E-14
 -1      2035 1.99984E+01-7.29808E-05-1.19432E-07-6.87794E-04-2.91524E-14-8.16948E-14
 -1      2036 1.99986E+01-4.95787E-05-1.72496E-07-4.20818E-04 5.36734E-14-8.51159E-14
 -1      2037 1.99985E+01-5.08888E-05-3.50273E-06-4.50994E-04 1.55395E-13 1.74124E-14
 -1      2038 1.99986E+01-7.88283E-05 6.26721E-07-6.05279E-04 1.48011E-13 1.21085E-13
 -1      2039 1.99989E+01-4.61955E-05-4.99226E-07-3.50424E-04-9.83810E-14-8.78970E-14
 -1      2040 1.99987E+01-4.88995E-05-3.56859E-06-3.79233E-04-4.84055E-14-1.57065E-13
 -1      2041 1.99989E+01-7.69772E-05 1.03840E-06-5.16379E-04 3.61189E-14-1.48964E-13
 -1      2042 1.99991E+01-4.10904E-05-6.65730E-07-2.85588E-04 1.98432E-14 2.47334E-14
 -1      2043 1.99990E+01-4.44275E-05-3.37211E-06-3.11652E-04-1.68573E-13-6.37616E-14
 -1      2044 1.99991E+01-7.06884E-05 1.22075E-06-4.29615E-04-1.85460E-13-1.95709E-13
 -1      2045 1.99993E+01-3.53506E-05-7.28705E-07-2.28353E-04 1.18514E-13 1.33986E-13
 -1      2046 1.99992E+01-3.88132E-05-3.03339E-06-2.51061E-04 1.58069E-13 1.72630E-13
 -1      2047 1.99992E+01-6.22302E-05 1.25298E-06-3.49893E-04-1.54206E-13-5.88777E-14
 -1      2048 1.99994E+01-2.96976E-05-7.31757E-07-1.79338E-04-6.56985E-14 2.85497E-13
 -1      2049 1.99993E+01-3.29567E-05-2.63432E-06-1.98597E-04 4.68122E-14 2.82277E-13
 -1      2050 1.99994E+01-5.31357E-05 1.19301E-06-2.79591E-04-2.55741E-14 2.75603E-13
 -1      2051 1.99995E+01-2.46007E-05-7.06329E-07-1.38220E-04 1.53188E-14 1.10063E-13
 -1      2052 1.99995E+01-2.74485E-05-2.22853E-06-1.54275E-04-3.34813E-14 1.27722E-13
 -1      2053 1.99995E+01-4.44140E-05 1.08163E-06-2.19374E-04 2.41060E-14 3.73307E-13
 -1      2054 1.99996E+01-2.03656E-05-6.69522E-07-1.04066E-04 1.78893E-14 1.16744E-13
 -1      2055 1.99996E+01-2.26689E-05-1.84410E-06-1.17386E-04-5.84089E-14 1.03683E-13
 -1      2056 1.99996E+01-3.67165E-05 9.47983E-07-1.68773E-04-5.52106E-14 5.20686E-14
 -1      2057 1.99997E+01-1.71964E-05-6.26612E-07-7.55671E-05-1.07077E-14-1.01802E-15
 -1      2058 1.99996E+01-1.88700E-05-1.48973E-06-8.67643E-05 2.07555E-13 6.58901E-14
 -1      2059 1.99996E+01-3.04542E-05 8.16029E-07-1.26608E-04 2.96226E-14-2.31937E-14
 -1      2060 1.99997E+01-1.51248E-05-5.73927E-07-5.12239E-05 1.01033E-14 7.13138E-14
 -1      2061 1.99997E+01-1.62148E-05-1.16276E-06-6.09778E-05-1.20158E-13 6.50072E-14
 -1      2062 1.99997E+01-2.58984E-05 6.83539E-07-9.13003E-05-5.05567E-14 5.02779E-14
 -1      2063 1.99998E+01-1.38679E-05-4.88379E-07-2.98111E-05 7.51098E-14 6.11493E-14
 -1      2064 1.99998E+01-1.44875E-05-8.10335E-07-3.86187E-05 1.79676E-13 7.72713E-14
 -1      2065 1.99997E+01-2.27735E-05 6.54444E-07-6.13158E-05 7.48826E-14 1.94704E-13
 -1      2066 1.99998E+01-1.08569E-05-4.27844E-07-1.27476E-05-4.80511E-15 4.52747E-13
 -1      2067 1.99998E+01-1.22340E-05-5.55185E-07-1.97459E-05-6.52986E-14 9.21641E-14
 -1      2068 1.99998E+01-1.99789E-05 2.33653E-07-3.64096E-05-1.03010E-13 3.05917E-13
 -1      2069 1.99998E+01-1.53877E-05-1.22725E-07-1.66643E-05-7.27505E-14 4.51649E-13
 -1      2070 1.99998E+01-9.25604E-05 2.38870E-07-5.12613E-05 3.78970E-13 3.14542E-13
 -1      2071 1.99998E+01-7.61232E-05-3.95540E-07-4.88968E-05 1.95736E-13 2.97247E-13
 -1      2072 1.99998E+01-5.96479E-05 2.11610E-08-4.38557E-05 1.81586E-13 1.67852E-13
 -1      2073 1.99998E+01-4.51527E-05-3.42939E-07-3.81207E-05-4.83950E-15 2.17560E-13
 -1      2074 1.99998E+01-7.30060E-05 5.37692E-08-6.04543E-05 8.68529E-14 2.91711E-13
 -1      2075 1.99998E+01-2.61198E-05-2.42994E-07-2.48673E-05-2.11750E-14 2.28161E-13
 -1      2076 1.99998E+01-1.25007E-04 4.36874E-07-5.01767E-05-6.81255E-14-1.94042E-13
 -1      2077 1.99998E+01-1.08824E-04-1.57632E-07-5.15657E-05-8.72155E-14 3.51511E-13
 -1      2078 1.99998E+01-1.05486E-04-1.01917E-07-6.61174E-05 5.54276E-14-8.06667E-14
 -1      2079 1.99998E+01-1.53677E-04 5.93424E-07-4.08929E-05-2.29726E-13-4.60751E-13
 -1      2080 1.99998E+01-1.39724E-04 1.12627E-07-4.57632E-05-1.41281E-13-2.38199E-13
 -1      2081 1.99998E+01-1.36444E-04-3.45515E-07-6.12960E-05-1.50527E-13-3.55885E-13
 -1      2082 1.99998E+01-1.73910E-04 6.74198E-07-2.51443E-05-2.12554E-13-2.92224E-13
 -1      2083 1.99998E+01-1.64624E-04 3.69317E-07-3.25722E-05-1.07855E-13-3.58401E-13
 -1      2084 1.99998E+01-1.62089E-04-5.30470E-07-4.67805E-05-1.57971E-13-3.77595E-13
 -1      2085 1.99998E+01-1.82915E-04 6.64576E-07-5.53569E-06-5.43241E-13-2.96015E-13
 -1      2086 1.99998E+01-1.79721E-04 5.61197E-07-1.43053E-05-3.46370E-13-2.50392E-13
 -1      2087 1.99998E+01-1.78856E-04-6.52491E-07-2.50890E-05-2.83190E-13-5.08314E-13
 -1      2088 1.99998E+01-1.79460E-04 5.59172E-07 1.49062E-05-4.45874E-13 6.43343E-14
 -1      2089 1.99998E+01-1.82847E-04 6.64993E-07 6.15870E-06-5.55717E-13 2.48363E-14
 -1      2090 1.99998E+01-1.84607E-04-6.94971E-07 3.84642E-07-5.58681E-13-1.13460E-13
 -1      2091 1.99998E+01-1.64060E-04 3.70773E-07 3.30521E-05-4.91250E-13-3.54307E-13
 -1      2092 1.99998E+01-1.73522E-04 6.68385E-07 2.56947E-05-6.38105E-13-1.15640E-13
 -1      2093 1.99998E+01-1.78593E-04-6.49934E-07 2.58031E-05-6.77946E-13-1.29896E-13
 -1      2094 1.99998E+01-1.39441E-04 1.13361E-07 4.58734E-05-6.45059E-13-4.45579E-13
 -1      2095 1.99998E+01-1.53229E-04 5.87036E-07 4.11538E-05-6.25669E-13-4.41712E-13
 -1      2096 1.99998E+01-1.61780E-04-5.37204E-07 4.71864E-05-7.07096E-13-6.12726E-13
 -1      2097 1.99998E+01-1.08262E-04-1.67268E-07 5.15926E-05-2.63772E-13 3.69487E-13
 -1      2098 1.99998E+01-1.24730E-04 4.35396E-07 5.02471E-05-4.32057E-13 2.84744E-13
 -1      2099 1.99998E+01-1.36269E-04-3.44426E-07 6.13990E-05-4.85876E-13-1.94129E-14
 -1      2100 1.99998E+01-7.52550E-05-3.90492E-07 4.86679E-05 5.18426E-14 3.65043E-13
 -1      2101 1.99998E+01-9.16473E-05 2.49775E-07 5.12032E-05 2.20807E-15 8.50180E-14
 -1      2102 1.99998E+01-1.05022E-04-1.29416E-07 6.61085E-05-4.57695E-14 4.34609E-13
 -1      2103 1.99998E+01-4.48535E-05-4.99532E-07 3.73794E-05-1.00476E-13 2.05832E-13
 -1      2104 1.99998E+01-5.88137E-05 4.42125E-08 4.35497E-05-1.58543E-13 4.79284E-13
 -1      2105 1.99998E+01-7.21654E-05 1.00256E-07 6.01745E-05-4.04522E-14 3.02577E-13
 -1      2106 1.72612E+01 3.16355E-01 1.76614E-02 6.30235E-01 3.82546E-13 8.53491E-13
 -1      2107 1.76526E+01 3.90370E-01 2.22407E-02 8.94592E-01 4.45923E-13 1.02506E-12
 -1      2108 1.82891E+01 6.07810E-01-2.55009E-03 1.24197E+00 5.64698E-13 6.86729E-13
 -1      2109 1.80148E+01 4.90536E-01-8.26405E-03 7.18774E-01 4.65791E-13 4.47673E-13
 -1      2110 1.24949E+01-3.50670E+00-9.57012E-02 7.93975E+00 6.16174E-13 7.69870E-13
 -1      2111 8.60892E+00-5.21545E+00-3.07987E-01 6.88827E+00 3.11862E-13 7.73367E-13
 -1      2112 3.14761E+01 2.09847E+00 2.99696E-01 6.86956E+00 1.02213E-12 5.83977E-14
 -1      2113 2.66493E+01-1.90181E-01 1.10143E-02 6.67714E+00 8.35221E-13 8.37108E-14
 -1      2114 2.80815E-01-6.37038E+00-3.75663E-01 2.41896E+00 3.87468E-14 1.36180E-12
 -1      2115-1.18453E-01-7.09990E+00-4.68614E-01 8.83463E-01-3.32619E-13 1.57552E-12
 -1      2116 5.33991E+00 5.49155E+00 9.15492E-02-2.63198E+00-3.03451E-13-1.39871E-12
 -1      2117 6.43134E+00 5.63627E+00 1.41408E-01-1.64746E+00-1.10877E-13-1.32087E-12
 -1      2118 7.06576E+00 4.59427E+00 1.16572E-01-4.29244E-01-4.66432E-14-1.34587E-12
 -1      2119 3.81907E+01 5.06262E+00 3.87980E-01 4.83297E+00 1.12908E-12-3.49720E-13
 -1      2120 3.39394E+01 3.58423E+00 6.51343E-02 5.30122E+00 1.12461E-12-8.31557E-14
 -1      2121 4.19761E+01 7.15319E+00 3.50285E-01 2.44509E+00 1.29829E-12-8.38857E-13
 -1      2122 3.98724E+01 6.48391E+00 2.71576E-01 3.94514E+00 1.25355E-12-4.46088E-13
 -1      2123 4.23715E+01 7.80565E+00 2.74535E-01-1.38928E-02 1.46705E-12-1.26515E-12
 -1      2124 4.18732E+01 7.93643E+00 2.71694E-01 1.45587E+00 1.43824E-12-9.13297E-13
 -1      2125 3.87137E+01 7.16463E+00 5.92671E-02-1.67585E+00 1.52545E-12-1.31706E-12
 -1      2126 4.20959E+01 7.63701E+00 4.00587E-01-7.71590E-01 1.47593E-12-1.30906E-12
 -1      2127 3.74429E+01 8.97100E+00 2.45742E-01 4.30139E-01 1.54743E-12-8.08187E-13
 -1      2128 3.42715E+01 4.76318E+00 6.08709E-02-4.56509E+00 1.42265E-12-1.67100E-12
 -1      2129 3.73162E+01 5.51760E+00 6.13505E-02-2.97206E+00 1.39222E-12-1.39383E-12
 -1      2130 2.61204E+01 2.96915E+00-1.37559E-01-7.10855E+00 1.40787E-12-1.85135E-12
 -1      2131 3.11860E+01 3.60665E+00 5.89103E-02-6.51098E+00 1.40343E-12-1.77997E-12
 -1      2132 1.80945E+01 1.22769E+00-1.91729E-01-7.46048E+00 8.13627E-13-1.59833E-12
 -1      2133 2.29493E+01 2.40934E+00 5.50904E-02-8.04901E+00 1.19676E-12-1.82293E-12
 -1      2134 8.94335E+00 1.92639E-01-2.61184E-01-6.85677E+00 4.93439E-13-1.64588E-12
 -1      2135 1.31095E+01 1.48749E+00-3.83361E-02-8.02828E+00 8.02136E-13-1.73042E-12
 -1      2136 3.28301E+00-1.18200E+00-2.89847E-01-5.44238E+00-7.51066E-14-1.62031E-12
 -1      2137 5.80107E+00 3.55253E-01-7.78786E-02-6.50505E+00 4.69513E-13-1.69006E-12
 -1      2138 2.51728E-02-1.92213E+00-2.51293E-01-3.68677E+00-6.89004E-13-1.70042E-12
 -1      2139 1.25236E+00-9.80742E-01-1.36037E-01-4.62977E+00-1.21514E-13-1.68132E-12
 -1      2140 3.10659E-01-2.48989E+00-3.00385E-01-9.30223E-01-1.17030E-12-1.89826E-12
 -1      2141-2.73546E-01-1.66157E+00-2.08239E-01-2.17407E+00-6.51826E-13-1.78513E-12
 -1      2142 4.34872E+00-3.87786E+00-4.76954E-01 1.91120E+00-1.65107E-12-2.04858E-12
 -1      2143 1.60634E+00-3.91496E+00-5.56795E-01 4.79976E-01-1.26246E-12-1.88038E-12
 -1      2144 1.35524E+01-4.64071E+00-4.69338E-01 4.15675E+00-1.84175E-12-2.10641E-12
 -1      2145 8.31923E+00-5.13992E+00-7.55897E-01 2.79535E+00-1.62331E-12-1.98111E-12
 -1      2146 2.61377E+01-4.70515E+00-2.62083E-01 3.74360E+00-1.74705E-12-1.87872E-12
 -1      2147 1.89447E+01-5.51316E+00-7.36090E-01 3.33257E+00-1.71729E-12-1.89609E-12
 -1      2148 3.81281E+01-2.94121E+00 1.36877E-01 7.80046E-02-1.54565E-12-1.05682E-12
 -1      2149 3.17205E+01-4.34597E+00-3.10898E-01 9.82493E-01-1.52611E-12-1.33471E-12
 -1      2150 4.56271E+01 1.72398E+00 5.43515E-01-2.18236E+00-1.97442E-12-1.03806E-12
 -1      2151 4.03344E+01-3.26494E-01 3.76317E-02-1.25686E+00-1.94609E-12-1.31939E-12
 -1      2152 4.19031E+01 2.87143E+00 9.32522E-02-3.65506E+00-1.89515E-12-5.42455E-13
 -1      2153 4.14517E+01 4.82387E+00 8.40710E-02 6.51097E-01-1.84808E-12-5.03320E-13
 -1      2154 3.67803E+01-1.12217E+00-1.08148E-02-1.44068E+00-1.09904E-12 4.20330E-13
 -1      2155 4.22686E+01-1.11033E-01 2.23152E-01-5.94592E-01-1.17415E-12 1.88405E-13
 -1      2156 2.59762E+01-4.46975E+00-4.72288E-01-4.54081E+00-8.91065E-13 1.04317E-12
 -1      2157 3.29558E+01-2.67468E+00 7.34635E-02-4.52939E+00-1.01674E-12 9.33920E-13
 -1      2158 1.54113E+01-6.18783E+00-5.33760E-01-5.51950E+00-6.18727E-13 1.10399E-12
 -1      2159 2.11609E+01-4.62226E+00-2.15182E-01-6.23132E+00-8.90510E-13 1.20870E-12
 -1      2160 5.92097E+00-6.65332E+00-4.92998E-01-4.21903E+00-3.91798E-13 1.30246E-12
 -1      2161 1.02168E+01-5.65026E+00-2.99495E-01-5.69086E+00-6.42264E-13 1.28358E-12
 -1      2162 8.71586E-01-6.64058E+00-4.62898E-01-9.64642E-01-1.39860E-13 1.59373E-12
 -1      2163 2.75389E+00-5.67664E+00-2.79729E-01-2.83125E+00-4.48142E-13 1.57729E-12
 -1      2164 5.12326E+00-4.59753E+00-1.31034E-01 6.18899E+00 1.63591E-13 1.02868E-12
 -1      2165 2.55588E+00-5.87956E+00-3.21085E-01 4.44475E+00-1.33005E-13 1.10473E-12
 -1      2166 2.18976E+01-1.99046E+00-4.70367E-02 7.93764E+00 5.55722E-13 1.70364E-13
 -1      2167 1.65278E+01-3.33962E+00-2.44757E-01 7.55386E+00 6.04405E-13 5.73985E-13
 -1      2168 1.71120E+01-4.18583E+00 1.40142E-02 8.17838E+00-1.02640E-13 2.69784E-13
 -1      2169 3.46458E+01-3.55119E+00-5.62759E-02 7.23199E-01-4.43950E-14-9.91540E-13
 -1      2170 8.58324E+00 3.87051E+00 1.08056E-01-5.84834E+00-8.02053E-13-1.41710E-12
 -1      2171 1.54225E+01 2.07682E+00 3.02943E-02-5.81214E+00-9.34447E-13-1.04892E-12
 -1      2172 3.26634E+01-4.59460E+00-9.24305E-02-4.74614E-01-3.24241E-13 3.00038E-13
 -1      2173 4.17545E+01 3.04307E+00 2.05988E-01 2.34030E+00-1.43674E-12-8.46656E-13
 -1      2174 2.87284E+01-2.49597E-01 2.07795E-02 1.04593E+00 2.49981E-13 6.07896E-13
 -1      2175 4.85188E+00 5.02145E+00 1.45839E-01-3.62383E+00-4.35992E-13-1.59098E-12
 -1      2176 4.49667E+01 2.69817E+00 7.25408E-01 8.97280E-01-1.37756E-12-1.85851E-13
 -1      2177 1.99998E+01-1.64089E-05 1.33750E-07 1.84373E-05-9.68126E-14 4.16555E-13
 -1      2178 1.99998E+01-3.69161E-05-3.59614E-09-4.09421E-05-9.21764E-14 2.79393E-13
 -1      2179 2.80857E+00-3.59447E+00-1.29074E-01 4.15249E+00-3.74395E-13 1.32361E-12
 -1      2180 1.99998E+01-2.54460E-05-4.01987E-07 2.49781E-05-5.59773E-14 4.77306E-13
 -1      2181 1.99998E+01-3.47328E-05-1.80198E-07 3.22905E-05 8.25398E-14 2.39734E-13
 -1      2182 1.99998E+01-4.61015E-05 2.05502E-07 4.84295E-05-6.24887E-15 3.35958E-13
 -1      2183 1.99998E+01-2.79191E-05-2.81835E-07 3.57498E-05-1.75469E-14 3.45928E-13
 -1      2184 8.85901E+00-4.15687E+00-9.90029E-02 7.43607E+00-3.93519E-13 7.98639E-13
 -1      2185 2.52938E+01-2.03269E+00 3.41960E-02 6.68378E+00 4.26603E-13-9.55347E-14
 -1      2186 2.43032E+01-3.51850E+00 1.62859E-01 6.66460E+00-6.54476E-14-3.86913E-13
 -1      2187 2.79141E+01-2.50723E+00-1.58493E-01 4.99491E+00 1.58165E-13-5.86114E-13
 -1      2188 3.27087E+01 1.47767E+00 1.51004E-01 3.70286E+00 8.11989E-13-5.45897E-13
 -1      2189 1.78086E+00-3.76005E+00-1.89755E-01-4.99840E-01-1.66187E-13 1.67100E-12
 -1      2190 6.40674E+00-4.32574E+00-1.43923E-01-4.44226E+00 1.23790E-13 1.31900E-12
 -1      2191 1.57544E+01-5.74871E+00-1.68011E-01-6.14766E+00 8.80407E-14 8.53415E-13
 -1      2192 3.88614E+01-2.34930E+00 9.42282E-02-3.61102E+00-1.25738E-12-1.23457E-13
 -1      2193 3.16561E+01-5.26426E+00-2.04162E-02 7.57212E-01-8.67306E-13-4.34763E-13
 -1      2194 1.97502E+01-5.10876E+00-2.85939E-01 3.72037E+00-8.20621E-13-1.30543E-12
 -1      2195 8.91168E+00-3.25780E+00-3.34439E-01 3.13772E+00-7.77656E-13-1.75812E-12
 -1      2196 2.45648E+00-6.42314E-01-2.06964E-01 3.53047E-01-5.83755E-13-1.93184E-12
 -1      2197 7.13995E-01 6.18070E-01-1.05705E-01-3.06122E+00-5.61107E-13-1.94056E-12
 -1      2198 3.27170E+00 5.52020E-01-9.93816E-02-5.86344E+00-4.51472E-13-1.84830E-12
 -1      2199 8.95559E+00 5.12975E-01-6.67293E-02-7.52622E+00-1.72862E-13-1.60935E-12
 -1      2200 1.76906E+01 4.07958E-01-2.95016E-03-7.58157E+00 9.37583E-14-1.35000E-12
 -1      2201 2.60790E+01 1.16447E+00 5.12702E-02-5.77938E+00 4.78007E-13-1.17323E-12
 -1      2202 3.67071E+01 6.45212E+00 1.39038E-01-1.11732E+00 1.32405E-12-1.04150E-12
 -1      2203 3.42867E+01 7.10774E+00-1.36690E-01 7.89630E-01 1.24481E-12-5.11174E-13
 -1      2204 3.36804E+01 5.57931E+00 1.53880E-02-1.56679E-01 1.10342E-12-5.36821E-13
 -1      2205 3.82790E+01 8.47186E+00 3.25683E-01 9.57072E-01 1.48676E-12-8.57342E-13
 -1      2206 3.66831E+01 5.67888E+00 3.13903E-01 1.83877E+00 1.18430E-12-7.76545E-13
 -1      2207 2.52914E+01-1.22021E+00-2.10317E-02 1.76420E+00 2.74364E-13 1.78094E-13
 -1      2208 3.23304E+01 3.46800E+00 1.58803E-01-3.35916E+00 9.77385E-13-1.03823E-12
 -1      2209 3.88283E+01 1.94482E+00 2.35755E-01-5.14225E+00-1.65895E-12 2.15439E-13
 -1      2210 2.67557E+01-5.58611E+00-6.17743E-02-4.35101E+00-4.00235E-14 4.05564E-13
 -1      2211 3.93723E+01-9.64264E-01 1.71849E-02-5.16866E+00-1.26532E-12 4.73177E-13
 -1      2212 1.80458E+01 1.11766E+00 1.38964E-01-5.99613E+00-9.46965E-13-9.86285E-13
 -1      2213 1.35811E+01 1.78561E+00-1.23881E-02-6.77271E+00-9.15740E-13-1.16179E-12
 -1      2214 2.39710E+01 6.93138E-01 1.79253E-02-2.90370E+00-6.69326E-13-5.76223E-13
 -1      2215 2.16345E+01 6.39065E-01-1.71763E-02-4.26235E+00-8.46163E-13-6.64427E-13
 -1      2216 2.42082E+01 3.35501E+00-4.74799E-02 1.96240E+00 2.66084E-13-5.80347E-13
 -1      2217 2.47917E+01 3.07637E+00-2.15079E-02 1.65052E+00 1.19233E-13-5.66840E-13
 -1      2218 2.29716E+01 3.62649E+00-3.29445E-02 2.33087E+00 4.96067E-13-5.82858E-13
 -1      2219 2.36001E+01 3.51930E+00-2.76288E-02 2.12525E+00 3.57675E-13-5.99467E-13
 -1      2220 2.41308E+01 3.32646E+00 1.48830E-02 2.20615E+00 3.51680E-13-4.73225E-13
 -1      2221 2.17785E+01 3.51055E+00-2.72305E-02 2.58865E+00 6.60399E-13-4.95760E-13
 -1      2222 2.23645E+01 3.57484E+00-2.72040E-02 2.42321E+00 5.53243E-13-5.66108E-13
 -1      2223 2.28256E+01 3.36884E+00 1.12572E-02 2.36588E+00 5.41410E-13-4.84229E-13
 -1      2224 2.07254E+01 3.04816E+00-3.23894E-02 2.78696E+00 7.86362E-13-2.48003E-13
 -1      2225 2.12316E+01 3.28732E+00-2.50641E-02 2.65339E+00 7.02757E-13-3.96306E-13
 -1      2226 2.16362E+01 3.06178E+00 1.11190E-02 2.46173E+00 6.71896E-13-3.63312E-13
 -1      2227 1.99030E+01 2.20932E+00-2.87104E-02 2.79735E+00 8.13734E-13 2.23026E-13
 -1      2228 2.02868E+01 2.67699E+00-1.43349E-02 2.79323E+00 7.84570E-13-6.78121E-14
 -1      2229 2.05903E+01 2.43502E+00 1.42219E-02 2.47640E+00 7.43132E-13-1.05722E-13
 -1      2230 1.94081E+01 1.34432E+00-1.95971E-02 2.36158E+00 7.32601E-13 7.05266E-13
 -1      2231 1.96579E+01 1.89238E+00 1.22341E-03 2.64066E+00 7.68630E-13 4.10717E-13
 -1      2232 1.97247E+01 1.67375E+00 2.69000E-03 2.24267E+00 7.51992E-13 2.26075E-13
 -1      2233 1.89502E+01 1.00632E+00-1.00067E-03 1.79048E+00 6.73354E-13 6.14502E-13
 -1      2234 2.99595E+01 2.01293E+00-5.29693E-02-2.69978E+00 5.19973E-13-6.60749E-13
 -1      2235 3.20717E+01 3.26970E+00-1.33307E-01-1.27420E+00 7.45168E-13-5.38292E-13
 -1      2236 1.27011E+01-3.53201E+00 7.39675E-02 8.24699E+00-5.43343E-13 4.07258E-13
 -1      2237 9.07898E+00-2.64999E+00 1.18434E-01 7.13343E+00-6.85951E-13 6.79096E-13
 -1      2238 1.99998E+01-4.03939E-05-5.19090E-07-5.26774E-05 2.77638E-14 3.66762E-13
 -1      2239 2.28882E+01-1.87673E+00 1.29231E-01-4.75919E+00 6.86132E-13-3.84810E-13
 -1      2240 2.16320E+01-5.53393E-01 1.11176E-01-4.92929E+00 6.53019E-13-3.49339E-13
 -1      2241 2.15025E+01 3.47104E-01 6.71269E-02-4.43528E+00 5.38049E-13-3.20015E-13
 -1      2242 2.08760E+01 9.06951E-01 3.20738E-02-4.14123E+00 4.46608E-13-2.87714E-13
 -1      2243 1.85348E+01 4.91586E-02 4.06204E-02-5.08018E+00 5.80036E-13-8.47100E-14
 -1      2244 2.11279E+01 1.12900E+00 3.48467E-02-3.60439E+00 2.97961E-13-3.72701E-13
 -1      2245 2.07371E+01 1.20272E+00-5.44621E-03-3.17927E+00 1.03399E-13-2.95171E-13
 -1      2246 1.89376E+01 1.34031E+00 3.51788E-02-3.95766E+00 3.22485E-13-2.09614E-13
 -1      2247 2.10051E+01 1.15681E+00 2.55003E-02-2.71466E+00 1.12341E-14-2.59413E-13
 -1      2248 2.07084E+01 1.05054E+00-1.14246E-02-2.31267E+00 1.89258E-15-2.16205E-13
 -1      2249 1.94905E+01 1.54110E+00 2.61696E-02-2.97014E+00 2.49147E-14-1.88610E-13
 -1      2250 2.08881E+01 9.27618E-01 2.10876E-02-1.94866E+00-2.94946E-14-2.36513E-13
 -1      2251 2.06490E+01 7.89954E-01-8.97921E-03-1.62665E+00-3.66530E-14-1.98594E-13
 -1      2252 1.98957E+01 1.29578E+00 1.77279E-02-2.16468E+00-1.58207E-14-1.82367E-13
 -1      2253 2.07440E+01 6.71062E-01 1.72848E-02-1.35561E+00-8.39892E-14-2.16153E-13
 -1      2254 2.05541E+01 5.53098E-01-5.76827E-03-1.11900E+00-6.67266E-14-2.47102E-13
 -1      2255 2.01170E+01 9.63234E-01 1.11709E-02-1.53939E+00-8.50179E-14-1.56623E-13
 -1      2256 2.05926E+01 4.60812E-01 1.33259E-02-9.24506E-01-1.29578E-13-3.01556E-13
 -1      2257 2.04470E+01 3.73019E-01-3.42724E-03-7.58939E-01-1.23448E-13-3.38643E-13
 -1      2258 2.02073E+01 6.72997E-01 6.48807E-03-1.07412E+00-1.63492E-13-2.51756E-13
 -1      2259 2.04539E+01 3.07728E-01 9.73209E-03-6.22989E-01-1.06033E-13-3.88087E-13
 -1      2260 2.03458E+01 2.46602E-01-1.95207E-03-5.10366E-01-7.43815E-14-3.95687E-13
 -1      2261 2.02225E+01 4.54558E-01 3.43087E-03-7.39395E-01-1.48606E-13-3.32294E-13
 -1      2262 2.03377E+01 2.02500E-01 6.84423E-03-4.17005E-01-5.06893E-14-3.83966E-13
 -1      2263 2.02593E+01 1.61412E-01-1.07317E-03-3.41612E-01-1.35906E-13-3.02298E-13
 -1      2264 2.02015E+01 3.01369E-01 1.60582E-03-5.04465E-01-5.72231E-14-2.75177E-13
 -1      2265 2.02457E+01 1.32345E-01 4.69965E-03-2.78199E-01-1.90008E-13-3.25652E-13
 -1      2266 2.01899E+01 1.05249E-01-5.63483E-04-2.28141E-01-9.79859E-14-2.84680E-13
 -1      2267 2.01674E+01 1.97919E-01 6.03242E-04-3.42307E-01-1.52362E-13-2.65209E-13
 -1      2268 2.01756E+01 8.63328E-02 3.18216E-03-1.85325E-01-8.35567E-14-2.97940E-13
 -1      2269 2.01362E+01 6.86378E-02-2.75150E-04-1.52191E-01-1.99807E-13-2.74219E-13
 -1      2270 2.01317E+01 1.29495E-01 9.88180E-05-2.31529E-01-1.21181E-13-3.35585E-13
 -1      2271 2.01234E+01 5.63956E-02 2.13865E-03-1.23345E-01-1.97832E-13-2.03803E-13
 -1      2272 2.00959E+01 4.48831E-02-1.17171E-04-1.01406E-01-1.85013E-13-1.99254E-13
 -1      2273 2.00998E+01 8.47316E-02-1.26501E-04-1.56264E-01-1.76165E-13-2.25770E-13
 -1      2274 2.00853E+01 3.69659E-02 1.43274E-03-8.19641E-02-1.53907E-13-2.41838E-13
 -1      2275 2.00662E+01 2.94721E-02-3.44903E-05-6.74017E-02 7.26952E-14-2.40467E-13
 -1      2276 2.00735E+01 5.55810E-02-2.05805E-04-1.05230E-01-1.75143E-13-2.64227E-13
 -1      2277 2.00578E+01 2.43378E-02 9.59364E-04-5.42729E-02 1.75766E-13-2.10781E-13
 -1      2278 2.00446E+01 1.94419E-02 5.68737E-06-4.45734E-02 2.42658E-13-1.64599E-13
 -1      2279 2.00527E+01 3.66009E-02-2.14448E-04-7.06126E-02 8.21076E-14-2.06444E-13
 -1      2280 2.00382E+01 1.60940E-02 6.43059E-04-3.56856E-02 1.92448E-13-3.33373E-13
 -1      2281 2.00293E+01 1.28756E-02 2.25995E-05-2.92029E-02 2.00755E-13-4.03108E-13
 -1      2282 2.00368E+01 2.42038E-02-1.92651E-04-4.70930E-02 1.71659E-13-2.77377E-13
 -1      2283 2.00245E+01 1.06762E-02 4.31686E-04-2.31745E-02 1.04510E-13-5.35566E-13
 -1      2284 2.00184E+01 8.54385E-03 2.73540E-05-1.88323E-02 4.88791E-14-4.87609E-13
 -1      2285 2.00249E+01 1.60602E-02-1.60710E-04-3.10844E-02 4.34099E-14-5.57832E-13
 -1      2286 2.00150E+01 7.08643E-03 2.90030E-04-1.47425E-02-4.10297E-14-5.45468E-13
 -1      2287 2.00109E+01 5.66151E-03 2.62078E-05-1.18350E-02-1.26027E-13-5.28224E-13
 -1      2288 2.00163E+01 1.06706E-02-1.28239E-04-2.01785E-02 1.11833E-14-5.56937E-13
 -1      2289 2.00085E+01 4.68736E-03 1.94656E-04-9.06787E-03-1.14440E-13-3.98670E-13
 -1      2290 2.00058E+01 3.72741E-03 2.25815E-05-7.12917E-03 4.03191E-14-2.93225E-13
 -1      2291 2.00102E+01 7.07405E-03-9.92920E-05-1.27577E-02-3.38261E-14-3.06993E-13
 -1      2292 2.00041E+01 3.07141E-03 1.30095E-04-5.27000E-03 1.82250E-13-3.03248E-13
 -1      2293 2.00024E+01 2.42055E-03 1.82658E-05-3.98993E-03 1.37805E-13-2.26032E-13
 -1      2294 2.00059E+01 4.65494E-03-7.51500E-05-7.73101E-03 1.01139E-13-1.17436E-13
 -1      2295 2.00013E+01 1.97664E-03 8.61687E-05-2.75690E-03 1.82868E-13-2.26139E-13
 -1      2296 2.00003E+01 1.53388E-03 1.41338E-05-1.92666E-03 2.39010E-13-1.93118E-13
 -1      2297 2.00029E+01 3.01752E-03-5.58038E-05-4.35721E-03 1.31194E-13-1.01220E-13
 -1      2298 1.99996E+01 1.23322E-03 5.61730E-05-1.12631E-03 2.57558E-13-2.21182E-13
 -1      2299 1.99990E+01 9.32367E-04 1.05563E-05-6.03673E-04 3.75117E-13-1.04473E-13
 -1      2300 2.00010E+01 1.90550E-03-4.07114E-05-2.12827E-03 2.37074E-13-5.36698E-14
 -1      2301 1.99985E+01 7.29669E-04 3.56702E-05-1.01821E-04 3.88431E-13-1.34981E-13
 -1      2302 1.99983E+01 5.26671E-04 7.63900E-06 2.11197E-04 2.29812E-13-8.01613E-14
 -1      2303 1.99998E+01 1.15108E-03-2.91708E-05-6.92559E-04 3.72204E-13-2.34689E-13
 -1      2304 1.99980E+01 3.91639E-04 2.16974E-05 5.08469E-04 2.52033E-15-1.00301E-13
 -1      2305 1.99980E+01 2.56687E-04 5.35737E-06 6.79984E-04-9.53388E-14-1.45921E-13
 -1      2306 1.99991E+01 6.42746E-04-2.04909E-05 1.95628E-04 8.88836E-14-4.33167E-13
 -1      2307 1.99978E+01 1.68682E-04 1.22533E-05 8.38832E-04-1.17181E-13-3.13382E-13
 -1      2308 1.99979E+01 8.12387E-05 3.63036E-06 9.16489E-04 1.20264E-13-3.49359E-13
 -1      2309 1.99987E+01 3.05212E-04-1.40600E-05 7.09234E-04-2.21845E-13-3.89139E-13
 -1      2310 1.99979E+01 2.59512E-05 5.96747E-06 9.83644E-04 2.42516E-13-6.12809E-13
 -1      2311 1.99980E+01-2.83670E-05 2.35989E-06 1.00082E-03 2.28785E-13-5.52544E-13
 -1      2312 1.99986E+01 8.67060E-05-9.36661E-06 9.70560E-04-1.08010E-13-5.59807E-13
 -1      2313 1.99980E+01-6.10087E-05 1.88858E-06 1.00923E-03 3.62717E-14-6.17977E-13
 -1      2314 1.99981E+01-9.24089E-05 1.45048E-06 9.89231E-04-1.16736E-13-5.18595E-13
 -1      2315 1.99985E+01-4.89391E-05-5.99616E-06 1.06615E-03 7.44634E-14-7.08780E-13
 -1      2316 1.99982E+01-1.09573E-04-6.52601E-07 9.61966E-04-1.23030E-13-5.29036E-13
 -1      2317 1.99983E+01-1.25361E-04 8.17945E-07 9.20872E-04-8.73884E-14-3.91197E-13
 -1      2318 1.99986E+01-1.27332E-04-3.62015E-06 1.05700E-03-1.23387E-13-6.66199E-13
 -1      2319 1.99984E+01-1.32178E-04-2.13154E-06 8.73862E-04-2.07483E-14-2.80802E-13
 -1      2320 1.99986E+01-1.37601E-04 3.92155E-07 8.22595E-04 4.35756E-14-2.26763E-13
 -1      2321 1.99987E+01-1.66766E-04-1.98212E-06 9.85684E-04-3.29259E-14-2.62289E-13
 -1      2322 1.99986E+01-1.37742E-04-2.88812E-06 7.66606E-04 7.45746E-14-1.12483E-13
 -1      2323 1.99988E+01-1.36555E-04 1.16798E-07 7.12363E-04 8.41707E-14-1.92350E-13
 -1      2324 1.99989E+01-1.80354E-04-8.84394E-07 8.81438E-04 1.34273E-13-3.42497E-14
 -1      2325 1.99988E+01-1.32630E-04-3.16560E-06 6.54437E-04-3.08631E-14-1.42631E-13
 -1      2326 1.99990E+01-1.27504E-04-5.22553E-08 6.01751E-04-1.09099E-14 8.00607E-14
 -1      2327 1.99990E+01-1.77471E-04-1.76295E-07 7.63845E-04 5.36207E-14-6.65155E-14
 -1      2328 1.99990E+01-1.21346E-04-3.13741E-06 5.46260E-04-3.38826E-13 9.87151E-14
 -1      2329 1.99991E+01-1.14147E-04-1.48938E-07 4.97780E-04-3.85808E-13 2.46342E-13
 -1      2330 1.99992E+01-1.64770E-04 2.55831E-07 6.45529E-04-1.41808E-13 1.03460E-13
 -1      2331 1.99992E+01-1.07021E-04-2.92595E-06 4.47210E-04-1.39073E-13 2.09741E-13
 -1      2332 1.99993E+01-9.90317E-05-1.98998E-07 4.04268E-04 1.38568E-13 2.58110E-13
 -1      2333 1.99993E+01-1.46904E-04 4.96860E-07 5.34148E-04-2.99367E-13 1.16638E-13
 -1      2334 1.99993E+01-9.17879E-05-2.61613E-06 3.59797E-04 2.58796E-13 1.38731E-13
 -1      2335 1.99994E+01-8.38682E-05-2.22281E-07 3.22828E-04 2.82872E-13 6.05109E-14
 -1      2336 1.99994E+01-1.27066E-04 6.09008E-07 4.33868E-04 3.27921E-14 3.56030E-13
 -1      2337 1.99995E+01-7.70676E-05-2.26453E-06 2.84747E-04 3.47980E-13-5.58147E-15
 -1      2338 1.99995E+01-6.97862E-05-2.33523E-07 2.53582E-04 3.50493E-13 3.64445E-14
 -1      2339 1.99995E+01-1.07399E-04 6.36042E-07 3.46452E-04 2.65729E-13 1.02813E-13
 -1      2340 1.99995E+01-6.37941E-05-1.90689E-06 2.21591E-04 3.42704E-13-9.48688E-14
 -1      2341 1.99996E+01-5.75180E-05-2.43908E-07 1.95671E-04 2.67178E-13 2.32172E-14
 -1      2342 1.99996E+01-8.93136E-05 6.10300E-07 2.72041E-04 3.22742E-13-9.58309E-14
 -1      2343 1.99996E+01-5.25669E-05-1.56877E-06 1.69094E-04 9.94106E-14 6.17610E-14
 -1      2344 1.99997E+01-4.75157E-05-2.55982E-07 1.47617E-04 2.41673E-13 1.65312E-13
 -1      2345 1.99996E+01-7.37152E-05 5.50677E-07 2.09714E-04 1.85008E-13-1.59517E-13
 -1      2346 1.99997E+01-4.37336E-05-1.25882E-06 1.25566E-04 2.58563E-13 1.57823E-13
 -1      2347 1.99997E+01-3.99835E-05-2.67207E-07 1.07624E-04 7.11217E-14 2.41387E-13
 -1      2348 1.99997E+01-6.10944E-05 4.81926E-07 1.57896E-04 1.80778E-13-6.53137E-15
 -1      2349 1.99997E+01-3.72516E-05-9.21212E-07 8.91600E-05-1.09718E-13 2.47122E-13
 -1      2350 1.99997E+01-3.48877E-05-3.01718E-07 7.39540E-05-9.55973E-14 2.19898E-13
 -1      2351 1.99997E+01-5.15986E-05 4.36040E-07 1.14825E-04 3.59117E-14-6.00890E-14
 -1      2352 1.99998E+01-3.25033E-05-6.82059E-07 6.05781E-05-1.81727E-13 2.60348E-13
 -1      2353 1.99998E+01-3.07019E-05-4.12334E-07 4.75714E-05 3.32622E-14 3.72812E-13
 -1      2354 1.99998E+01-3.94637E-05-1.78333E-07 5.50040E-05-3.98725E-14 2.72218E-13
 -1      2355 1.99997E+01-4.52067E-05 5.99954E-08 8.13990E-05-4.80825E-14 1.95055E-13
 -1      2356 1.85597E+01 3.76344E-01 1.97162E-03-8.12909E-01 2.33365E-13-1.26870E-13
 -1      2357 1.84762E+01 4.69687E-01 1.25934E-02-6.40317E-01 2.77822E-13-8.51717E-14
 -1      2358 1.84563E+01 5.47385E-01 5.79010E-03-3.94060E-01 3.31037E-13-4.72953E-14
 -1      2359 1.84658E+01 6.21486E-01 1.47541E-02-1.54163E-01 3.87295E-13 2.62391E-14
 -1      2360 1.91135E+01 6.82874E-01-9.24678E-03-5.43132E-01 3.56500E-13-1.72464E-13
 -1      2361 1.85326E+01 6.83808E-01 8.43136E-03 1.55639E-01 4.24934E-13 7.21875E-14
 -1      2362 1.86544E+01 7.53583E-01 1.52478E-02 4.55255E-01 4.64402E-13 1.47087E-13
 -1      2363 1.91717E+01 8.79847E-01-1.00476E-02 5.97256E-02 4.67274E-13-9.22287E-14
 -1      2364 1.87924E+01 1.80229E-01-9.33659E-04-1.06752E+00 1.63487E-13-2.19752E-13
 -1      2365 1.86468E+01 2.82579E-01 9.75328E-03-9.72490E-01 2.03220E-13-1.61073E-13
 -1      2366 1.92115E+01 4.43705E-01-5.77293E-03-9.82186E-01 2.73478E-13-2.66531E-13
 -1      2367 1.90862E+01-5.13991E-03-2.31083E-03-1.15094E+00 1.33855E-13-2.38996E-13
 -1      2368 1.89107E+01 8.64363E-02 5.82794E-03-1.13193E+00 1.35311E-13-2.31359E-13
 -1      2369 1.94073E+01 1.83505E-01-1.74938E-03-1.22275E+00 1.83869E-13-3.39058E-13
 -1      2370 1.93790E+01-1.45854E-01-2.31249E-03-1.08996E+00 8.79562E-14-2.14964E-13
 -1      2371 1.92015E+01-8.08945E-02 1.44756E-03-1.13174E+00 1.36212E-13-2.25482E-13
 -1      2372 1.96320E+01-5.08741E-02 1.17765E-03-1.26947E+00 1.25360E-13-3.69534E-13
 -1      2373 1.96294E+01-2.26273E-01-1.54505E-03-9.33275E-01 9.12937E-14-2.25499E-13
 -1      2374 1.94699E+01-1.93328E-01-2.33131E-03-1.01295E+00 1.13956E-13-1.89777E-13
 -1      2375 1.98319E+01-2.20318E-01 2.49880E-03-1.16481E+00 9.80287E-14-3.71184E-13
 -1      2376 1.98198E+01-2.50215E-01-6.15994E-04-7.33116E-01 4.02623E-14-1.91434E-13
 -1      2377 1.96890E+01-2.45184E-01-4.80957E-03-8.27853E-01 6.68565E-14-1.98340E-13
 -1      2378 1.99802E+01-3.10259E-01 2.55768E-03-9.69586E-01 6.19894E-14-3.31396E-13
 -1      2379 1.99504E+01-2.33229E-01 1.11293E-04-5.31501E-01 1.50962E-14-1.60456E-13
 -1      2380 1.98513E+01-2.47100E-01-5.86654E-03-6.23741E-01 2.67466E-14-1.63211E-13
 -1      2381 2.00732E+01-3.29559E-01 1.97762E-03-7.41733E-01 2.70749E-14-2.73707E-13
 -1      2382 2.00308E+01-1.93625E-01 5.30083E-04-3.54795E-01-2.60803E-14-1.50318E-13
 -1      2383 1.99614E+01-2.16930E-01-5.79127E-03-4.33975E-01 3.51332E-14-1.12370E-13
 -1      2384 2.01205E+01-2.99874E-01 1.26316E-03-5.23647E-01 6.90084E-15-2.14904E-13
 -1      2385 2.00738E+01-1.46626E-01 6.83326E-04-2.14806E-01-3.97722E-14-4.12078E-14
 -1      2386 2.00291E+01-1.72011E-01-5.02094E-03-2.76582E-01-7.44851E-14-7.86863E-14
 -1      2387 2.01360E+01-2.44697E-01 6.74908E-04-3.39290E-01-5.85506E-14-1.35986E-13
 -1      2388 2.00913E+01-1.02207E-01 6.63968E-04-1.12896E-01-6.45566E-15-2.65670E-14
 -1      2389 2.00655E+01-1.25154E-01-3.95482E-03-1.57268E-01 4.49603E-14-1.65344E-14
 -1      2390 2.01322E+01-1.82718E-01 2.78884E-04-1.97387E-01-3.33150E-14-1.23978E-13
 -1      2391 2.00928E+01-6.54054E-02 5.60429E-04-4.44651E-02-8.02844E-14 1.19436E-14
 -1      2392 2.00805E+01-8.38519E-02-2.87267E-03-7.38417E-02-2.77869E-14 1.65651E-14
 -1      2393 2.01184E+01-1.25712E-01 4.86406E-05-9.66905E-02-3.38656E-14-1.94749E-14
 -1      2394 2.00853E+01-3.76981E-02 4.33120E-04-2.46417E-03 6.29084E-14 2.05525E-14
 -1      2395 2.00818E+01-5.12539E-02-1.93040E-03-2.01730E-02-2.11411E-14 3.26033E-14
 -1      2396 2.01008E+01-7.93039E-02-6.85840E-05-3.08024E-02-3.56987E-14-5.28968E-14
 -1      2397 2.00734E+01-1.84704E-02 3.15173E-04 2.03584E-02 8.32915E-14 2.75529E-14
 -1      2398 2.00752E+01-2.76678E-02-1.18954E-03 1.10070E-02 1.03978E-13 6.52488E-15
 -1      2399 2.00827E+01-4.48287E-02-1.19147E-04 8.37660E-03 8.98716E-14-4.12704E-14
 -1      2400 2.00602E+01-6.16024E-03 2.20005E-04 3.02946E-02 5.88859E-14 1.67827E-13
 -1      2401 2.00648E+01-1.19056E-02-6.52455E-04 2.64818E-02 5.73435E-14 1.21099E-13
 -1      2402 2.00659E+01-2.11867E-02-1.34362E-04 2.86181E-02 3.26372E-14 3.33037E-14
 -1      2403 2.00474E+01 1.00896E-03 1.49478E-04 3.22533E-02 2.03897E-14 1.59789E-13
 -1      2404 2.00530E+01-2.22946E-03-2.91103E-04 3.18102E-02 1.10964E-13 2.05889E-13
 -1      2405 2.00513E+01-6.23888E-03-1.32730E-04 3.64089E-02 7.75535E-14 8.31262E-14
 -1      2406 2.00359E+01 4.64021E-03 1.00098E-04 2.97683E-02-1.19653E-13 1.80831E-13
 -1      2407 2.00416E+01 3.09117E-03-6.65916E-05 3.11529E-02 1.83342E-15 1.59074E-13
 -1      2408 2.00390E+01 2.32457E-03-1.23791E-04 3.66802E-02 2.26775E-14 8.28789E-14
 -1      2409 2.00262E+01 6.01067E-03 6.68889E-05 2.52089E-02-1.95876E-13 9.07782E-14
 -1      2410 2.00313E+01 5.51701E-03 5.93559E-05 2.74014E-02-1.75536E-13 1.60656E-13
 -1      2411 2.00289E+01 6.53994E-03-1.11756E-04 3.29130E-02-6.23595E-14 2.24328E-13
 -1      2412 2.00183E+01 6.05472E-03 4.51400E-05 2.00503E-02-1.74432E-13 3.51828E-15
 -1      2413 2.00226E+01 6.16231E-03 1.19053E-04 2.24265E-02-1.93224E-13-2.74317E-14
 -1      2414 2.00208E+01 8.00675E-03-9.85147E-05 2.74015E-02-1.65951E-13 1.98399E-14
 -1      2415 2.00121E+01 5.40942E-03 3.10758E-05 1.51301E-02 1.51429E-14 5.21313E-14
 -1      2416 2.00156E+01 5.81456E-03 1.37339E-04 1.73444E-02-3.37496E-14-2.39689E-15
 -1      2417 2.00145E+01 7.88313E-03-8.50528E-05 2.15474E-02-7.85627E-14 5.20231E-14
 -1      2418 2.00075E+01 4.48058E-03 2.19591E-05 1.08591E-02 6.82298E-14 1.76886E-13
 -1      2419 2.00101E+01 4.99380E-03 1.31988E-04 1.27498E-02 8.33533E-14 5.49078E-14
 -1      2420 2.00097E+01 6.95174E-03-7.19523E-05 1.61255E-02-2.02482E-14 1.55058E-13
 -1      2421 2.00041E+01 3.50745E-03 1.59390E-05 7.38234E-03 8.10454E-14 1.89217E-13
 -1      2422 2.00060E+01 4.01998E-03 1.14915E-04 8.90041E-03 3.83381E-14 1.97990E-13
 -1      2423 2.00061E+01 5.70645E-03-5.96186E-05 1.14972E-02 7.31365E-14 2.15243E-13
 -1      2424 2.00017E+01 2.61694E-03 1.18313E-05 4.69117E-03-4.10611E-14 3.44536E-13
 -1      2425 2.00031E+01 3.07345E-03 9.35861E-05 5.85098E-03 4.26621E-15 2.46775E-13
 -1      2426 2.00035E+01 4.43511E-03-4.83522E-05 7.76912E-03-1.69199E-14 2.71523E-13
 -1      2427 2.00001E+01 1.86467E-03 8.91114E-06 2.69893E-03 7.40590E-14 1.73879E-13
 -1      2428 2.00010E+01 2.24313E-03 7.23224E-05 3.54588E-03 9.40547E-14 2.56954E-13
 -1      2429 2.00016E+01 3.28753E-03-3.83549E-05 4.90433E-03 1.05211E-13 1.91686E-13
 -1      2430 1.99991E+01 1.26406E-03 6.74940E-06 1.28776E-03 3.03675E-13 1.19903E-13
 -1      2431 1.99996E+01 1.56167E-03 5.33442E-05 1.87836E-03 1.47468E-13 1.36471E-13
 -1      2432 2.00004E+01 2.32671E-03-2.97285E-05 2.79490E-03 2.33554E-13 2.67271E-14
 -1      2433 1.99985E+01 8.05806E-04 5.09697E-06 3.35984E-04 1.84772E-14 2.14679E-13
 -1      2434 1.99988E+01 1.02978E-03 3.75529E-05 7.26486E-04 2.61641E-13 1.54216E-13
 -1      2435 1.99996E+01 1.56475E-03-2.24823E-05 1.30724E-03 2.11313E-13 2.81256E-14
 -1      2436 1.99983E+01 4.70138E-04 3.80898E-06-2.67475E-04 2.33627E-14 1.53676E-13
 -1      2437 1.99984E+01 6.31935E-04 2.50783E-05-2.68046E-05-2.51997E-14 2.28388E-13
 -1      2438 1.99991E+01 9.86718E-04-1.65512E-05 3.08004E-04 5.31037E-14 1.85793E-13
 -1      2439 1.99982E+01 2.34087E-04 2.79807E-06-6.16868E-04 2.09815E-13 1.02603E-13
 -1      2440 1.99982E+01 3.46107E-04 1.56422E-05-4.84049E-04 1.87150E-13 1.57423E-13
 -1      2441 1.99988E+01 5.65642E-04-1.18173E-05-3.22554E-04 1.06216E-13 1.38847E-13
 -1      2442 1.99983E+01 7.54896E-05 2.00744E-06-7.88149E-04 1.52596E-13-1.49948E-13
 -1      2443 1.99982E+01 1.49300E-04 8.78690E-06-7.29790E-04 2.53828E-13-5.60448E-14
 -1      2444 1.99987E+01 2.71289E-04-8.13262E-06-6.85075E-04 3.09158E-13 2.79060E-14
 -1      2445 1.99984E+01-2.51133E-05 1.39614E-06-8.40083E-04-2.18094E-13-2.43349E-13
 -1      2446 1.99983E+01 2.04340E-05 4.01041E-06-8.30659E-04-3.73572E-15-1.87836E-13
 -1      2447 1.99987E+01 7.49492E-05-5.33710E-06-8.60204E-04 7.08019E-14-1.55126E-13
 -1      2448 1.99986E+01-8.38014E-05 9.31644E-07-8.16543E-04-2.73747E-13-2.06178E-13
 -1      2449 1.99984E+01-5.84217E-05 8.39469E-07-8.37222E-04-3.22414E-13-3.18287E-13
 -1      2450 1.99988E+01-4.83477E-05-3.27293E-06-9.10106E-04-1.89298E-13-1.40854E-13
 -1      2451 1.99987E+01-1.13291E-04 5.86359E-07-7.49185E-04-2.86751E-14-1.06933E-13
 -1      2452 1.99986E+01-1.01756E-04-1.13638E-06-7.86554E-04-1.48296E-13-2.20899E-13
 -1      2453 1.99989E+01-1.19107E-04-1.79396E-06-8.81078E-04-2.02559E-13-2.38537E-13
 -1      2454 1.99989E+01-1.23289E-04 3.36195E-07-6.60032E-04 1.29059E-13-1.69826E-13
 -1      2455 1.99988E+01-1.20825E-04-2.25381E-06-7.04900E-04 1.20118E-13-1.26215E-13
 -1      2456 1.99990E+01-1.53466E-04-7.71062E-07-8.06463E-04 3.01056E-15-2.57229E-13
 -1      2457 1.99991E+01-1.20978E-04 1.59967E-07-5.63768E-04 2.06230E-14-3.13058E-13
 -1      2458 1.99990E+01-1.24089E-04-2.77765E-06-6.10123E-04 1.60426E-13-1.40708E-13
 -1      2459 1.99992E+01-1.63692E-04-9.43691E-08-7.09422E-04 1.95065E-13-1.52788E-13
 -1      2460 1.99992E+01-1.11519E-04 3.91545E-08-4.69642E-04-2.81795E-13-6.92425E-14
 -1      2461 1.99991E+01-1.17722E-04-2.90903E-06-5.13803E-04-1.23250E-13-1.26990E-13
 -1      2462 1.99993E+01-1.58831E-04 3.26611E-07-6.05366E-04-1.69011E-13-5.68643E-16
 -1      2463 1.99994E+01-9.85178E-05-4.24411E-08-3.82997E-04-1.98498E-13 3.02365E-14
 -1      2464 1.99993E+01-1.06098E-04-2.79579E-06-4.22940E-04-2.07370E-13-5.94185E-14
 -1      2465 1.99994E+01-1.45360E-04 5.64143E-07-5.03975E-04-2.78758E-13 1.99813E-13
 -1      2466 1.99995E+01-8.44251E-05-9.87972E-08-3.06439E-04-4.83149E-14 1.43977E-13
 -1      2467 1.99994E+01-9.22321E-05-2.54309E-06-3.41287E-04-1.55602E-13 4.74023E-14
 -1      2468 1.99995E+01-1.27791E-04 6.73919E-07-4.10812E-04-2.09356E-13-1.53985E-13
 -1      2469 1.99996E+01-7.08631E-05-1.43120E-07-2.40712E-04-4.78806E-14 1.62750E-13
 -1      2470 1.99995E+01-7.81459E-05-2.22257E-06-2.70360E-04 1.20669E-13 1.79405E-13
 -1      2471 1.99995E+01-1.09178E-04 6.97989E-07-3.28555E-04 2.56237E-14-1.60027E-13
 -1      2472 1.99996E+01-5.88687E-05-1.80572E-07-1.85324E-04-5.05686E-14-1.14818E-13
 -1      2473 1.99996E+01-6.51629E-05-1.88414E-06-2.10175E-04-1.64294E-14 2.90558E-14
 -1      2474 1.99996E+01-9.15317E-05 6.66816E-07-2.57923E-04 3.20684E-14-8.55174E-15
 -1      2475 1.99997E+01-4.90783E-05-1.92865E-07-1.39024E-04-4.44393E-15 8.84087E-14
 -1      2476 1.99996E+01-5.41289E-05-1.55378E-06-1.59795E-04-9.82368E-14-8.58900E-14
 -1      2477 1.99997E+01-7.60432E-05 6.41300E-07-1.98385E-04-8.75780E-14 1.74706E-13
 -1      2478 1.99997E+01-4.18481E-05-2.44981E-07-1.00266E-04-1.67787E-13 2.66459E-13
 -1      2479 1.99997E+01-4.55103E-05-1.26245E-06-1.17746E-04-5.61433E-14 2.35235E-13
 -1      2480 1.99997E+01-6.34951E-05 6.15325E-07-1.48587E-04-1.74017E-13 4.10642E-13
 -1      2481 1.99998E+01-3.69691E-05-4.54471E-07-6.74989E-05 1.00383E-13 3.15028E-13
 -1      2482 1.99997E+01-3.94402E-05-1.06859E-06-8.21352E-05-5.54628E-14 2.40228E-13
 -1      2483 1.99997E+01-5.44340E-05 4.92903E-07-1.06777E-04-1.70370E-14 3.79676E-13
 -1      2484 1.99998E+01-1.48223E-04 7.11060E-07-7.11191E-05-9.83900E-14-5.19770E-13
 -1      2485 1.99998E+01-1.35042E-04-2.38489E-07-7.67007E-05 3.73548E-14-6.22648E-13
 -1      2486 1.99998E+01-1.18206E-04 5.61120E-07-8.05505E-05 2.16517E-15-4.88286E-13
 -1      2487 1.99998E+01-1.03631E-04-4.85910E-07-8.03153E-05 3.03357E-13-8.78102E-14
 -1      2488 1.99998E+01-1.33864E-04-3.62756E-07-9.25111E-05 4.35067E-14-4.66097E-13
 -1      2489 1.99998E+01-8.53097E-05 4.01692E-07-7.80846E-05 1.64556E-13 3.94253E-13
 -1      2490 1.99998E+01-6.99710E-05-5.08890E-07-7.24019E-05 4.37918E-14 4.30997E-13
 -1      2491 1.99998E+01-9.99398E-05 2.18109E-07-9.38125E-05 1.83297E-14 2.52896E-13
 -1      2492 5.13000E+00-1.53570E+00 9.47993E-02 4.83220E+00-5.88196E-13 1.02862E-12
 -1      2493 3.21089E+00-1.90045E+00 7.25270E-02 2.58092E+00-4.13794E-13 1.33171E-12
 -1      2494 1.99998E+01-1.71679E-04 7.25181E-07-5.09880E-05-6.46014E-14-3.83090E-13
 -1      2495 1.99998E+01-1.61844E-04 2.87593E-08-6.11642E-05-1.43805E-13-2.72117E-13
 -1      2496 1.99998E+01-1.63187E-04-4.87588E-07-7.73146E-05-1.07396E-13-4.82039E-13
 -1      2497 1.99998E+01-1.85698E-04 6.53485E-07-2.34224E-05-3.91128E-13-5.73635E-13
 -1      2498 1.99998E+01-1.80480E-04 2.84624E-07-3.65864E-05-2.37878E-13-5.55806E-13
 -1      2499 1.99998E+01-1.84780E-04-6.28237E-07-5.10504E-05-1.98953E-13-5.44646E-13
 -1      2500 1.99998E+01-1.88652E-04 5.01560E-07 7.52046E-06-5.88975E-13 2.21684E-14
 -1      2501 1.99998E+01-1.88717E-04 5.02517E-07-6.66228E-06-5.63657E-13-2.46468E-13
 -1      2502 1.99998E+01-1.96170E-04-7.04772E-07-1.75319E-05-4.28572E-13-4.57688E-13
 -1      2503 1.99998E+01-1.80194E-04 2.88801E-07 3.73612E-05-6.41320E-13-3.95064E-13
 -1      2504 1.99998E+01-1.85554E-04 6.50636E-07 2.42586E-05-5.18197E-13 4.02459E-14
 -1      2505 1.99998E+01-1.96097E-04-7.03726E-07 1.84728E-05-4.65281E-13 5.85276E-14
 -1      2506 1.99998E+01-1.61772E-04 2.56119E-08 6.13867E-05-4.13238E-13-6.55294E-13
 -1      2507 1.99998E+01-1.71484E-04 7.22419E-07 5.14562E-05-4.11875E-13-7.07073E-13
 -1      2508 1.99998E+01-1.84701E-04-6.42296E-07 5.16412E-05-2.01521E-13-5.03251E-13
 -1      2509 1.99998E+01-1.34902E-04-2.39915E-07 7.67674E-05-1.10540E-13 3.53142E-13
 -1      2510 1.99998E+01-1.48115E-04 7.07659E-07 7.12541E-05-1.84467E-13-2.47287E-13
 -1      2511 1.99998E+01-1.63188E-04-4.97219E-07 7.75374E-05 1.43170E-13-1.53893E-13
 -1      2512 1.99998E+01-1.02995E-04-4.87544E-07 8.05929E-05 1.47063E-13 4.59832E-13
 -1      2513 1.99998E+01-1.17910E-04 6.05278E-07 8.06160E-05-1.51262E-13 5.53039E-13
 -1      2514 1.99998E+01-1.33692E-04-3.27889E-07 9.24568E-05 1.15736E-13 4.68676E-13
 -1      2515 1.99998E+01-6.93136E-05-4.95133E-07 7.20612E-05-4.87342E-14 1.59731E-13
 -1      2516 1.99998E+01-8.43596E-05 4.49483E-07 7.75842E-05 7.60833E-14 1.42228E-13
 -1      2517 1.99998E+01-9.95034E-05-2.66073E-07 9.39200E-05 1.94666E-13 3.28432E-13
 -1      2518 3.25315E+01 1.54210E+00-7.57486E-02 1.85927E+00 7.18078E-13-8.39967E-13
 -1      2519 3.04963E+01-4.33550E-01-4.35573E-02 2.93677E+00 4.78818E-13-7.71549E-13
 -1      2520 6.41597E+00-2.24353E+00 7.11809E-02-3.97101E+00 3.29542E-13 1.20265E-12
 -1      2521 9.96977E+00-3.29191E+00 1.98679E-02-5.82672E+00 3.22964E-13 8.68694E-13
 -1      2522 3.46266E+01 8.38611E+00-1.38786E-01 1.92776E-01 1.47138E-12-8.59819E-13
 -1      2523 3.48816E+01 7.43325E+00-7.83386E-02 3.06210E-01 1.38439E-12-8.91870E-13
 -1      2524 9.70294E+00 2.96508E+00 2.12541E-01-6.63589E+00-9.14227E-13-1.42486E-12
 -1      2525 6.13653E+00 3.73874E+00 6.04306E-02-6.05785E+00-7.27585E-13-1.55342E-12
 -1      2526 2.52689E+01 2.63702E+00-6.93973E-02 1.26982E+00 3.33501E-15-5.37324E-13
 -1      2527 2.56207E+01 2.22515E+00-4.91627E-03 6.98550E-01-1.76033E-13-4.96750E-13
 -1      2528 2.54366E+01 2.84336E+00 1.66680E-02 1.81391E+00 1.34639E-13-4.05517E-13
 -1      2529 2.56369E+01 1.53027E+00-8.41588E-02-1.89761E-01-3.13663E-13-4.73229E-13
 -1      2530 2.52100E+01 1.10263E+00-1.52484E-02-1.17202E+00-5.22448E-13-4.66726E-13
 -1      2531 2.63482E+01 1.86659E+00 8.52168E-03 7.45117E-01-1.55915E-13-3.19464E-13
 -1      2532 2.86143E+01-4.86653E+00 1.35827E-01 1.95338E+00-3.21354E-13-2.67980E-13
 -1      2533 3.14162E+00-1.53666E+00 8.01137E-02 6.53164E-01-1.79863E-13 1.41698E-12
 -1      2534 4.25812E+00-1.19314E+00 1.39254E-01-1.74792E+00-3.54161E-14 1.40910E-12
 -1      2535 5.27576E+00-3.35533E-02 1.76201E-01 1.42870E+00-3.04722E-13 1.19144E-12
 -1      2536 1.89140E+01 6.84595E-01 2.63415E-01 2.44551E+00 3.11098E-13-5.50421E-13
 -1      2537 2.26357E+01-3.08305E+00-6.06516E-02 2.84228E+00 6.05627E-14-2.95021E-13
 -1      2538 3.45177E+01 5.77661E+00-9.28162E-02 4.19016E-01 1.21003E-12-9.65061E-13
 -1      2539 3.32917E+01 4.03082E+00-8.27065E-02 6.66830E-01 9.99922E-13-9.32532E-13
 -1      2540 3.40050E+01 8.26420E+00-1.69738E-01 7.41813E-01 1.41442E-12-6.05391E-13
 -1      2541 3.45530E+01 8.73625E+00-9.97467E-02 5.44777E-01 1.47210E-12-7.12728E-13
 -1      2542 2.47811E+01 3.37280E-01-5.23283E-02-5.06603E+00 1.31700E-14-7.65193E-13
 -1      2543 2.78265E+01 9.50291E-01-8.37876E-02-4.25853E+00 3.21285E-13-7.55229E-13
 -1      2544 1.46789E+01 5.88818E-01 1.08124E-01-7.49900E+00-5.86253E-13-1.32156E-12
 -1      2545 1.89920E+01 3.78857E-01-2.99640E-02-6.95223E+00-3.94462E-13-1.05832E-12
 -1      2546 4.13517E+00 1.96999E+00 8.67405E-02-5.93472E+00-6.38267E-13-1.71954E-12
 -1      2547 6.69492E+00 1.70211E+00 1.54080E-01-7.01363E+00-5.88196E-13-1.70500E-12
 -1      2548 5.61008E+00 4.03168E-01 6.45243E-02 1.64233E+00-4.05620E-13-1.66789E-12
 -1      2549 3.35067E+00 1.91205E+00 6.97829E-02-2.25102E-02-2.79096E-13-1.70597E-12
 -1      2550 1.48607E+01-2.79057E+00-4.97412E-02 4.02083E+00-3.81195E-13-1.18844E-12
 -1      2551 9.75944E+00-1.31136E+00-7.04232E-02 2.93305E+00-2.64344E-13-1.36102E-12
 -1      2552 2.24858E+01-4.06766E+00-3.59676E-02 3.00168E+00-2.59348E-13-5.03788E-13
 -1      2553 3.56100E+01-3.16976E+00 1.66846E-01-4.81188E-01-4.88110E-13-3.90632E-13
 -1      2554 1.50490E+01-4.35133E+00 2.15075E-02-6.11094E+00 4.53027E-13 4.89386E-13
 -1      2555 2.04138E+01-5.22359E+00-8.93155E-02-6.23206E+00 3.96738E-13 3.23831E-13
 -1      2556 1.98292E+01-4.16814E+00-1.89388E-02 7.84163E+00-3.50525E-13-1.37557E-13
 -1      2557 1.60570E+01-4.25495E+00 3.75688E-02 8.07494E+00-4.53471E-13 1.69181E-13
 -1      2558 1.99998E+01-5.42502E-05 3.63211E-07-7.13749E-05 1.39802E-13 4.31262E-13
 -1      2559 2.05480E+01 3.17858E-01 1.60689E-02-5.35685E+00-7.65429E-13-7.86579E-13
 -1      2560 2.56095E+01 6.35041E-01 2.39474E-03-1.72144E+00-4.82732E-13-3.82435E-13
 -1      2561 2.89268E+01 1.16943E+00-1.07270E-02-2.07539E+00 8.36466E-14-4.03899E-13
 -1      2562 1.88366E+01 8.60759E-01 1.11770E-02 1.45478E+00 6.00580E-13 5.37894E-13
 -1      2563 1.92598E+01 1.17412E+00 6.93785E-03 1.71254E+00 6.51723E-13 3.39203E-13
 -1      2564 1.86537E+01 7.82066E-01 1.28991E-02 1.15495E+00 5.56302E-13 4.08453E-13
 -1      2565 1.58024E+01-3.56326E+00 1.07823E-01 7.93152E+00-7.31581E-13 1.85171E-13
 -1      2566 1.12589E+01-1.45097E+00 1.16761E-01 6.76690E+00-8.45476E-13 5.27717E-13
 -1      2567 8.13206E+00-1.53418E+00 1.64492E-01 6.15520E+00-7.09932E-13 8.27616E-13
 -1      2568 7.59979E+00-2.31073E-01 1.40220E-01 4.81082E+00-7.02938E-13 8.93202E-13
 -1      2569 3.17802E+01-5.30648E+00-5.09769E-02-1.95279E+00 1.69698E-13-4.46310E-13
 -1      2570 4.06448E+00 4.05154E+00 2.04609E-01-4.70341E+00-6.34576E-13-1.71413E-12
 -1      2571 2.97145E+00 4.25991E+00 1.23678E-01-3.10757E+00-3.74506E-13-1.70053E-12
 -1      2572 2.35276E+01-3.23725E+00 1.37999E-01-4.87912E+00 7.85622E-13-3.48381E-13
 -1      2573 1.89366E+01-2.62170E+00 1.07915E-02-5.99776E+00 6.58140E-13-4.99600E-15
 -1      2574 1.99998E+01-6.74054E-05-4.01553E-07-9.00223E-05 8.27686E-14 5.20864E-13
 -1      2575 2.69877E+01-5.30482E+00-3.23879E-03-3.60656E+00 3.33622E-13-2.07195E-13
 -1      2576 2.96719E+01-1.52532E+00-1.02671E-01 1.65370E+00 1.81674E-13-8.82183E-13
 -1      2577 2.94006E+01-1.88019E+00-1.23035E-02 3.45331E+00 2.08042E-13-7.43100E-13
 -1      2578 2.78274E+01-2.95931E+00 4.73840E-02 3.86806E+00-1.00336E-13-7.81181E-13
 -1      2579 3.17830E+01 2.22439E+00-4.65555E-02 2.03786E-01 7.50178E-13-1.03484E-12
 -1      2580 1.86016E+01 7.38221E-01 1.61103E-02 6.75882E-01 4.91961E-13 2.11461E-13
 -1      2581 1.86709E+01 7.68953E-01 1.56142E-02 9.31832E-01 5.15301E-13 3.07756E-13
 -1      2582 1.91303E+01 9.76429E-01-3.62520E-03 1.12106E+00 5.80919E-13 1.78632E-13
 -1      2583 1.91975E+01 9.63845E-01-7.86940E-03 6.43221E-01 5.26484E-13 2.16958E-14
 -1      2584 1.47227E+01-2.82508E+00 1.52609E-01-5.92424E+00 5.73819E-13 5.15421E-13
 -1      2585 4.96328E+00 3.94849E+00 1.02222E-01-5.27241E-01-9.05803E-14-1.56394E-12
 -1      2586 8.26555E+00 3.56657E+00 2.68029E-01 8.67231E-01 9.21763E-14-1.35469E-12
 -1      2587 2.48375E+01-4.13240E+00-9.17343E-02 5.59774E+00-3.35995E-13-6.08472E-13
 -1      2588 2.26696E+01-4.17278E+00 5.96381E-02 6.91653E+00-2.98622E-13-3.42629E-13
 -1      2589 2.15739E+01-4.24973E+00 1.13387E-01 7.04690E+00-5.85476E-13-3.04389E-13
 -1      2590 3.24210E+01 6.40043E+00-3.20557E-02-5.52635E-01 1.18658E-12-9.72500E-13
 -1      2591 1.02563E+01 5.63644E-01 3.73630E-02 2.36510E+00-1.80411E-15-1.28209E-12
 -1      2592 3.30746E+01 7.57812E+00-9.05262E-02 1.09484E+00 1.27282E-12-4.92717E-13
 -1      2593 3.09820E+01 7.89744E+00-1.33495E-01 1.33387E+00 1.22471E-12-3.79724E-13
 -1      2594 3.12795E+01 6.73059E+00-1.48712E-01 1.38768E+00 1.11430E-12-3.21840E-13
 -1      2595 3.22317E+01 4.20014E+00-4.03495E-02 2.22924E-03 7.96210E-13-4.15445E-13
 -1      2596 3.11347E+01 4.91265E+00-2.10677E-01 1.32158E+00 7.98694E-13-2.04295E-13
 -1      2597 3.04859E+01 3.06999E+00-4.36618E-02 2.39874E-01 4.86972E-13-2.06890E-13
 -1      2598 1.16261E+01 1.62899E+00 1.10198E-01-7.21596E+00-7.98056E-13-1.36899E-12
 -1      2599 2.58476E+01-4.71612E+00 6.67330E-02-4.04157E+00 6.61249E-13-3.36620E-13
 -1      2600 1.22473E+01 1.71188E+00 9.19967E-02 2.20271E+00 1.95122E-13-1.01077E-12
 -1      2601 3.24264E+01 8.41882E+00-7.01958E-02 3.06883E-01 1.37668E-12-6.90777E-13
 -1      2602 7.25399E+00-6.45654E-01 1.61498E-01-3.00234E+00 2.08972E-13 1.10600E-12
 -1      2603 9.48709E+00 1.36536E+00-8.75844E-03-7.44205E+00-5.27911E-13-1.50252E-12
 -1      2604 3.15831E+00 3.39283E+00 2.05711E-01-1.56151E+00-3.57235E-13-1.76673E-12
 -1      2605 1.31684E+00 1.98925E+00 5.80242E-02-2.86271E+00-4.91648E-13-1.89926E-12
 -1      2606 1.69051E+00 1.90424E+00 9.59323E-02-4.63361E+00-5.12368E-13-1.88471E-12
 -1      2607 1.99998E+01-4.94655E-05-4.23939E-09 6.10762E-05-1.30200E-13 2.01781E-13
 -1      2608 1.99998E+01-6.17251E-05 4.29587E-09 7.98476E-05-5.52550E-14 1.66184E-13
 -1      2609 2.37513E+01 3.37296E+00-2.31169E-02 2.27568E+00 4.65359E-13-4.32729E-13
 -1      2610 2.44552E+01 3.25057E+00-2.38279E-02 2.20368E+00 3.42274E-13-3.96783E-13
 -1      2611 1.96766E+01 1.42279E+00 1.84019E-03 1.88672E+00 6.72976E-13 1.87808E-13
 -1      2612 1.99881E+01 1.75962E+00-5.04831E-03 2.06577E+00 7.15360E-13 4.28377E-14
 -1      2613 1.95492E+01 1.29128E+00 8.87308E-03 1.53793E+00 6.29391E-13 1.37184E-13
 -1      2614 4.44812E+00 2.77318E+00 1.15952E-01-5.75614E+00-6.41320E-13-1.77733E-12
 -1      2615 2.69845E+01 5.96870E-01-9.14887E-03-1.51868E+00-3.15471E-13-3.53460E-13
 -1      2616 2.53300E+01 7.06451E-02-6.55477E-02-3.43705E+00-4.44429E-13-4.74128E-13
 -1      2617 1.43790E+01-1.26627E+00 1.22253E-01-5.53834E+00 6.06792E-13 4.04093E-13
 -1      2618 1.99998E+01-8.85307E-05-1.09208E-07-1.10240E-04-1.02048E-13 4.64773E-13
 -1      2619 1.99998E+01-7.26833E-05-4.81341E-09-1.09122E-04-2.59279E-14 3.09252E-13
 -1      2620 1.99997E+01-7.82615E-05-1.07547E-06-1.28961E-04-1.27098E-13 3.88369E-13
 -1      2621 1.69191E+01 1.68002E+00 6.05330E-02-3.64166E+00 2.73714E-13-9.69710E-15
 -1      2622 1.71702E+01 1.90111E+00-3.47513E-03-3.16801E+00 1.23919E-13-1.36013E-13
 -1      2623 1.80895E+01 1.89066E+00 1.95711E-02-2.75258E+00 2.57207E-14-1.83200E-13
 -1      2624 1.83365E+01 1.77773E+00-2.09337E-02-2.35772E+00-4.83116E-14-1.75850E-13
 -1      2625 1.63150E+01 2.26041E+00 6.20461E-02-2.46580E+00 7.25635E-15-8.28660E-14
 -1      2626 1.89661E+01 1.61284E+00 8.69169E-03-2.05520E+00-2.68370E-14-1.41467E-13
 -1      2627 1.91186E+01 1.41398E+00-1.79645E-02-1.73559E+00-2.21520E-14-1.68354E-13
 -1      2628 1.77815E+01 2.00466E+00 3.84906E-02-1.87115E+00-4.38926E-14-2.25770E-13
 -1      2629 1.95203E+01 1.22375E+00 6.27185E-03-1.50650E+00-8.28135E-14-1.71431E-13
 -1      2630 1.95907E+01 1.03564E+00-1.29414E-02-1.25780E+00-1.24637E-13-2.00453E-13
 -1      2631 1.87373E+01 1.56095E+00 2.41984E-02-1.41746E+00-4.45911E-14-2.20770E-13
 -1      2632 1.98350E+01 8.73962E-01 5.72027E-03-1.08292E+00-1.91073E-13-1.81829E-13
 -1      2633 1.98533E+01 7.24548E-01-8.78809E-03-8.97308E-01-2.49441E-13-1.88640E-13
 -1      2634 1.93231E+01 1.13754E+00 1.49831E-02-1.05724E+00-1.86854E-13-2.17734E-13
 -1      2635 1.99954E+01 6.02923E-01 5.01615E-03-7.66183E-01-1.68084E-13-1.82670E-13
 -1      2636 1.99868E+01 4.93702E-01-5.79563E-03-6.32083E-01-9.72470E-14-1.15879E-13
 -1      2637 1.96660E+01 7.97161E-01 9.04229E-03-7.74898E-01-2.31086E-13-5.24799E-14
 -1      2638 2.00658E+01 4.07706E-01 4.10092E-03-5.35817E-01-4.22772E-14-1.21894E-13
 -1      2639 2.00463E+01 3.31407E-01-3.75525E-03-4.41153E-01-1.59575E-14-1.35577E-13
 -1      2640 1.98570E+01 5.45612E-01 5.26087E-03-5.59333E-01-7.30512E-14-6.55725E-15
 -1      2641 2.00879E+01 2.72668E-01 3.17309E-03-3.71745E-01-1.93444E-13-2.34557E-13
 -1      2642 2.00661E+01 2.20754E-01-2.39785E-03-3.05931E-01-3.18825E-13-2.72919E-13
 -1      2643 1.99573E+01 3.68300E-01 2.93459E-03-3.98963E-01-1.78254E-13-1.24809E-13
 -1      2644 2.00864E+01 1.81415E-01 2.36613E-03-2.56545E-01-2.31271E-13-3.01033E-13
 -1      2645 2.00663E+01 1.46626E-01-1.51163E-03-2.11206E-01-1.71985E-13-3.47766E-13
 -1      2646 2.00059E+01 2.46784E-01 1.55771E-03-2.82072E-01-2.81203E-13-2.75082E-13
 -1      2647 2.00748E+01 1.20558E-01 1.72251E-03-1.76368E-01-1.24560E-13-3.26014E-13
 -1      2648 2.00580E+01 9.74280E-02-9.42656E-04-1.45282E-01-1.48525E-13-2.57310E-13
 -1      2649 2.00260E+01 1.64884E-01 7.71617E-04-1.98095E-01-1.60716E-13-2.85389E-13
 -1      2650 2.00604E+01 8.02323E-02 1.23478E-03-1.20831E-01-1.88971E-13-2.66554E-13
 -1      2651 2.00470E+01 6.48977E-02-5.82378E-04-9.95496E-02-1.23298E-13-2.47852E-13
 -1      2652 2.00313E+01 1.10185E-01 3.39508E-04-1.38332E-01-1.45046E-13-2.80264E-13
 -1      2653 2.00465E+01 5.35585E-02 8.76604E-04-8.24328E-02-2.80380E-14-1.61182E-13
 -1      2654 2.00362E+01 4.33820E-02-3.56907E-04-6.78590E-02 1.38440E-13-1.35221E-13
 -1      2655 2.00297E+01 7.37901E-02 1.12364E-04-9.60446E-02-3.89523E-14-1.30606E-13
 -1      2656 2.00345E+01 3.58825E-02 6.18691E-04-5.58895E-02 9.87596E-14-1.17985E-13
 -1      2657 2.00268E+01 2.91026E-02-2.17244E-04-4.58972E-02 6.98237E-14-3.06112E-13
 -1      2658 2.00251E+01 4.95689E-02 3.75041E-07-6.62212E-02 9.85492E-14-5.24497E-14
 -1      2659 2.00248E+01 2.41152E-02 4.35147E-04-3.75336E-02 2.58811E-14-3.63796E-13
 -1      2660 2.00192E+01 1.95708E-02-1.31414E-04-3.06764E-02 1.05673E-13-3.55457E-13
 -1      2661 2.00199E+01 3.33971E-02-4.86735E-05-4.52299E-02 3.78776E-14-6.87950E-14
 -1      2662 2.00172E+01 1.62304E-02 3.05312E-04-2.48414E-02 1.04519E-13-3.21126E-13
 -1      2663 2.00132E+01 1.31621E-02-7.89907E-05-2.01381E-02 7.31045E-14-2.31262E-13
 -1      2664 2.00151E+01 2.25398E-02-6.47063E-05-3.04835E-02 1.34365E-13-1.55591E-13
 -1      2665 2.00116E+01 1.09073E-02 2.13667E-04-1.60807E-02-2.67554E-14-1.92685E-13
 -1      2666 2.00087E+01 8.82042E-03-4.71209E-05-1.28645E-02 2.56712E-14-6.47404E-14
 -1      2667 2.00109E+01 1.52009E-02-6.44884E-05-2.01544E-02 6.95780E-14-5.17873E-14
 -1      2668 2.00074E+01 7.28738E-03 1.48968E-04-1.00608E-02 6.16583E-14 2.18268E-14
 -1      2669 2.00054E+01 5.85889E-03-2.78111E-05-7.87630E-03 1.95030E-13 1.21046E-13
 -1      2670 2.00076E+01 1.02052E-02-5.71436E-05-1.29552E-02 6.91935E-14 1.07438E-13
 -1      2671 2.00044E+01 4.81079E-03 1.03232E-04-5.95852E-03 7.65639E-14 4.45185E-14
 -1      2672 2.00031E+01 3.82899E-03-1.61369E-05-4.49248E-03 9.41905E-14 5.33801E-14
 -1      2673 2.00051E+01 6.78382E-03-4.74529E-05-7.97779E-03 5.69366E-14 1.42393E-13
 -1      2674 2.00024E+01 3.11058E-03 7.08616E-05-3.20130E-03 1.49221E-13-2.24971E-14
 -1      2675 2.00015E+01 2.43536E-03-9.08906E-06-2.23617E-03 1.42631E-13-1.11291E-13
 -1      2676 2.00032E+01 4.43129E-03-3.77776E-05-4.57877E-03 8.36487E-14 1.84100E-14
 -1      2677 2.00010E+01 1.94375E-03 4.79474E-05-1.38722E-03 2.16150E-13-3.00378E-13
 -1      2678 2.00004E+01 1.48122E-03-4.84173E-06-7.70672E-04 2.67251E-13-4.44798E-13
 -1      2679 2.00018E+01 2.81263E-03-2.91619E-05-2.29998E-03 2.31030E-14-2.57933E-13
 -1      2680 2.00001E+01 1.14722E-03 3.17594E-05-2.32116E-04 1.38288E-13-4.96863E-13
 -1      2681 1.99998E+01 8.33547E-04-2.29248E-06 1.43402E-04-2.83676E-14-5.14756E-13
 -1      2682 2.00009E+01 1.70317E-03-2.19578E-05-8.13124E-04 1.03211E-13-5.29118E-13
 -1      2683 1.99995E+01 6.09872E-04 2.03804E-05 4.66283E-04-1.88538E-13-3.60606E-13
 -1      2684 1.99994E+01 4.00910E-04-7.77440E-07 6.77092E-04-2.98848E-13-4.31826E-13
 -1      2685 2.00003E+01 9.50045E-04-1.61729E-05 1.18086E-04-4.54995E-14-4.59281E-13
 -1      2686 1.99992E+01 2.54706E-04 1.24533E-05 8.52455E-04-3.05155E-13-3.46402E-13
 -1      2687 1.99992E+01 1.19468E-04 1.03587E-07 9.52842E-04 5.44441E-14-4.50060E-13
 -1      2688 1.99999E+01 4.47575E-04-1.16610E-05 6.64184E-04-2.31202E-13-2.70822E-13
 -1      2689 1.99991E+01 2.75604E-05 7.00825E-06 1.02964E-03 1.83941E-13-4.30035E-13
 -1      2690 1.99991E+01-5.60075E-05 5.93141E-07 1.05814E-03-8.21350E-14-3.75361E-13
 -1      2691 1.99996E+01 1.21583E-04-8.22204E-06 9.48202E-04 9.72117E-14 5.59902E-14
 -1      2692 1.99990E+01-1.10161E-04 3.34535E-06 1.07132E-03-2.03654E-13-3.90350E-13
 -1      2693 1.99991E+01-1.57905E-04 8.39715E-07 1.05510E-03-4.91482E-14-3.35182E-13
 -1      2694 1.99995E+01-8.06865E-05-5.65221E-06 1.05856E-03-1.21430E-13 2.14548E-14
 -1      2695 1.99991E+01-1.86200E-04 9.55732E-07 1.02937E-03 1.71893E-15-3.61919E-13
 -1      2696 1.99991E+01-2.09560E-04 9.35555E-07 9.87341E-04-1.63858E-14-2.49461E-13
 -1      2697 1.99995E+01-1.97120E-04-3.76712E-06 1.05829E-03-7.47602E-15-1.32359E-13
 -1      2698 1.99991E+01-2.20571E-04-5.32591E-07 9.39846E-04 1.16162E-13-1.81282E-13
 -1      2699 1.99992E+01-2.27806E-04 9.38915E-07 8.84920E-04 2.40117E-13 2.03881E-14
 -1      2700 1.99994E+01-2.55058E-04-2.40994E-06 9.91764E-04 1.40967E-13-9.72769E-14
 -1      2701 1.99992E+01-2.27693E-04-1.39198E-06 8.27315E-04 1.57599E-13-1.56860E-13
 -1      2702 1.99993E+01-2.24729E-04 8.87053E-07 7.68048E-04-3.38456E-14-1.02134E-13
 -1      2703 1.99995E+01-2.74228E-04-1.45246E-06 8.89639E-04 8.06725E-14-5.05127E-14
 -1      2704 1.99993E+01-2.17882E-04-1.82133E-06 7.07973E-04-1.65796E-13-1.23271E-14
 -1      2705 1.99994E+01-2.08927E-04 8.03789E-07 6.49792E-04-1.39193E-13 3.72843E-14
 -1      2706 1.99995E+01-2.68792E-04-7.92810E-07 7.72528E-04-7.81827E-14-2.55514E-13
 -1      2707 1.99994E+01-1.98429E-04-1.96507E-06 5.92000E-04-2.76250E-13 8.05278E-14
 -1      2708 1.99995E+01-1.86424E-04 7.04478E-07 5.38102E-04-1.90653E-13 2.88979E-13
 -1      2709 1.99995E+01-2.48812E-04-3.51646E-07 6.53766E-04-2.82582E-13 1.71167E-13
 -1      2710 1.99995E+01-1.74400E-04-1.92702E-06 4.85301E-04-4.33990E-14 3.65956E-13
 -1      2711 1.99995E+01-1.61352E-04 5.99278E-07 4.37326E-04 5.51833E-14 3.02651E-13
 -1      2712 1.99996E+01-2.21324E-04-6.76751E-08 5.41463E-04-1.04811E-13 3.63694E-13
 -1      2713 1.99995E+01-1.49226E-04-1.78031E-06 3.90812E-04 1.55685E-13 1.95736E-13
 -1      2714 1.99996E+01-1.36481E-04 4.92985E-07 3.49337E-04 2.60721E-13 9.32455E-14
 -1      2715 1.99996E+01-1.91137E-04 1.04603E-07 4.40057E-04-1.43902E-14 2.38757E-13
 -1      2716 1.99996E+01-1.25203E-04-1.57261E-06 3.09445E-04 1.79066E-13 2.18027E-14
 -1      2717 1.99996E+01-1.13650E-04 3.90003E-07 2.74334E-04 2.71044E-13-7.58053E-14
 -1      2718 1.99997E+01-1.61492E-04 1.95495E-07 3.51473E-04 9.29230E-14 5.36587E-14
 -1      2719 1.99997E+01-1.03810E-04-1.33605E-06 2.40747E-04 2.26684E-13-1.63615E-13
 -1      2720 1.99997E+01-9.39735E-05 2.89617E-07 2.11418E-04 1.64452E-13-5.86874E-14
 -1      2721 1.99997E+01-1.34498E-04 2.34576E-07 2.75895E-04 1.07823E-13 2.35924E-14
 -1      2722 1.99997E+01-8.60695E-05-1.13020E-06 1.83501E-04 2.49986E-13-2.01134E-13
 -1      2723 1.99997E+01-7.81972E-05 1.84870E-07 1.58997E-04 1.29130E-13-1.98608E-13
 -1      2724 1.99997E+01-1.11522E-04 2.00079E-07 2.12566E-04 9.60416E-14-1.04095E-13
 -1      2725 1.99997E+01-7.22190E-05-9.96000E-07 1.35786E-04 2.52616E-14-5.20622E-14
 -1      2726 1.99997E+01-6.64505E-05-3.42483E-09 1.15362E-04 1.42190E-13-4.22413E-14
 -1      2727 1.99997E+01-9.26846E-05 4.00135E-07 1.59695E-04 2.51107E-13-1.49601E-13
 -1      2728 1.99998E+01-6.55932E-05-4.22391E-07 9.41295E-05 3.48244E-14 9.24970E-14
 -1      2729 1.97270E+01 8.82958E-01-2.05528E-03-6.84456E-01 3.51073E-13-2.60129E-13
 -1      2730 1.97334E+01 1.03872E+00 1.18987E-02-4.05373E-01 4.10262E-13-2.11223E-13
 -1      2731 1.98274E+01 5.25972E-01-5.13913E-03-1.12470E+00 2.71068E-13-3.14659E-13
 -1      2732 1.97733E+01 7.15889E-01 1.20408E-02-9.44976E-01 3.13402E-13-2.93285E-13
 -1      2733 2.03089E+01 9.96421E-01-6.28493E-03-8.47203E-01 3.58242E-13-3.54084E-13
 -1      2734 1.97597E+01 1.16448E+00 2.37316E-03-4.99029E-02 4.57443E-13-1.71481E-13
 -1      2735 1.98439E+01 1.27613E+00 1.01040E-02 3.01422E-01 5.08247E-13-1.47657E-13
 -1      2736 2.03098E+01 1.36950E+00-9.01082E-03-1.96497E-01 4.67564E-13-2.55678E-13
 -1      2737 2.01628E+01-1.53822E-01-4.47364E-03-1.32327E+00 1.12769E-13-3.73389E-13
 -1      2738 2.00695E+01-7.47489E-03 5.13350E-03-1.34469E+00 1.53901E-13-3.79283E-13
 -1      2739 2.02794E+01-3.53841E-01-1.96603E-03-1.16376E+00 8.87756E-14-4.10500E-13
 -1      2740 2.01988E+01-2.66809E-01 5.99198E-04-1.24759E+00 1.20446E-13-3.74287E-13
 -1      2741 2.06323E+01-2.53217E-01 3.37033E-03-1.33996E+00 1.20250E-13-4.21298E-13
 -1      2742 2.03326E+01-4.40051E-01 4.10806E-04-9.28115E-01 1.46906E-14-3.68575E-13
 -1      2743 2.02731E+01-4.10069E-01-2.70019E-03-1.04127E+00 5.39076E-14-3.91143E-13
 -1      2744 2.06493E+01-4.66556E-01 2.68520E-03-1.13037E+00 6.30130E-14-4.36004E-13
 -1      2745 2.03324E+01-4.36746E-01 1.99304E-03-6.78994E-01 2.15343E-14-3.06403E-13
 -1      2746 2.02946E+01-4.48727E-01-4.37400E-03-7.95123E-01 1.50298E-14-3.27635E-13
 -1      2747 2.06010E+01-5.44823E-01 1.21423E-03-8.65810E-01 6.90401E-15-3.89556E-13
 -1      2748 2.02984E+01-3.78658E-01 2.69617E-03-4.56122E-01-1.00924E-13-1.97024E-13
 -1      2749 2.02782E+01-4.14338E-01-4.70708E-03-5.58825E-01-2.20234E-15-2.58746E-13
 -1      2750 2.05121E+01-5.22493E-01-1.34628E-04-6.07381E-01-2.01906E-14-2.41374E-13
 -1      2751 2.02492E+01-2.97182E-01 2.73199E-03-2.77729E-01-1.05163E-13-1.54526E-13
 -1      2752 2.02414E+01-3.41286E-01-4.21680E-03-3.59619E-01-9.45791E-14-1.83878E-13
 -1      2753 2.04087E+01-4.42349E-01-9.66647E-04-3.88666E-01-1.19473E-13-2.54078E-13
 -1      2754 2.01978E+01-2.14359E-01 2.37647E-03-1.46940E-01-2.39328E-14-1.10875E-13
 -1      2755 2.01978E+01-2.56819E-01-3.36992E-03-2.06951E-01-7.19143E-14-1.41241E-13
 -1      2756 2.03097E+01-3.40654E-01-1.29578E-03-2.21355E-01-9.39923E-14-1.98333E-13
 -1      2757 2.01515E+01-1.42473E-01 1.86741E-03-5.84638E-02-6.35688E-14-1.32877E-13
 -1      2758 2.01558E+01-1.78103E-01-2.47206E-03-9.90928E-02-1.31256E-14-1.07736E-13
 -1      2759 2.02254E+01-2.41566E-01-1.28003E-03-1.03657E-01-4.76215E-14-1.65317E-13
 -1      2760 2.01132E+01-8.63060E-02 1.35626E-03-3.59970E-03-1.02109E-14-1.73263E-13
 -1      2761 2.01195E+01-1.13445E-01-1.68117E-03-2.88159E-02-5.72327E-14-1.40997E-13
 -1      2762 2.01591E+01-1.57751E-01-1.08876E-03-2.73701E-02-3.57940E-14-2.34081E-13
 -1      2763 2.00831E+01-4.59472E-02 9.19880E-04 2.67108E-02 3.49033E-14-6.46647E-14
 -1      2764 2.00900E+01-6.50184E-02-1.05546E-03 1.27770E-02 2.37375E-14-1.46479E-13
 -1      2765 2.01098E+01-9.34871E-02-8.44588E-04 1.75064E-02-2.61549E-14-2.59474E-13
 -1      2766 2.00604E+01-1.91143E-02 5.83893E-04 4.03678E-02-3.97227E-14 2.79838E-14
 -1      2767 2.00670E+01-3.15106E-02-5.97607E-04 3.40994E-02 3.55838E-14 2.94772E-14
 -1      2768 2.00747E+01-4.80376E-02-6.14602E-04 4.03076E-02-5.36331E-14-9.02127E-14
 -1      2769 2.00434E+01-2.71658E-03 3.44577E-04 4.35672E-02 1.09230E-13 7.23559E-14
 -1      2770 2.00495E+01-1.00878E-02-2.84805E-04 4.21157E-02 4.93080E-14 4.03852E-14
 -1      2771 2.00504E+01-1.82846E-02-4.27521E-04 4.86801E-02 5.04426E-15-2.87328E-14
 -1      2772 2.00310E+01 6.24619E-03 1.84841E-04 4.08031E-02-7.55231E-14 1.35593E-13
 -1      2773 2.00362E+01 2.38197E-03-8.54649E-05 4.20947E-02 6.22680E-14 1.09839E-13
 -1      2774 2.00339E+01-4.32720E-04-2.89462E-04 4.83607E-02 2.59684E-14 1.25672E-13
 -1      2775 2.00219E+01 1.02765E-02 8.48982E-05 3.51267E-02-8.71663E-14 1.29430E-13
 -1      2776 2.00263E+01 8.69151E-03 3.12823E-05 3.77507E-02-5.92220E-14 1.92562E-13
 -1      2777 2.00229E+01 9.05835E-03-1.93660E-04 4.33696E-02-7.69032E-14 1.05636E-13
 -1      2778 2.00153E+01 1.12745E-02 2.68303E-05 2.84747E-02-1.53598E-13 6.14468E-14
 -1      2779 2.00189E+01 1.10570E-02 9.12720E-05 3.15362E-02-1.16482E-13 1.30019E-13
 -1      2780 2.00155E+01 1.30760E-02-1.29853E-04 3.63561E-02-3.75176E-14 1.22008E-13
 -1      2781 2.00104E+01 1.05820E-02-3.72117E-06 2.19782E-02-1.02520E-13 1.55928E-14
 -1      2782 2.00133E+01 1.11002E-02 1.14535E-04 2.49563E-02-1.43188E-13 2.79413E-14
 -1      2783 2.00105E+01 1.37794E-02-8.86199E-05 2.89483E-02-1.35249E-13 1.67132E-14
 -1      2784 2.00069E+01 9.08564E-03-1.72991E-05 1.62210E-02 4.02251E-14 5.71522E-14
 -1      2785 2.00091E+01 9.93003E-03 1.15739E-04 1.88488E-02-3.48944E-14 8.97755E-15
 -1      2786 2.00072E+01 1.26752E-02-6.23349E-05 2.20572E-02-3.32492E-14-7.48456E-14
 -1      2787 2.00044E+01 7.33251E-03-2.11487E-05 1.14368E-02 7.78765E-14 1.27955E-13
 -1      2788 2.00061E+01 8.25574E-03 1.05014E-04 1.36098E-02 1.14633E-13 1.02821E-13
 -1      2789 2.00048E+01 1.07478E-02-4.54609E-05 1.61179E-02 3.97690E-14 3.48205E-14
 -1      2790 2.00026E+01 5.63219E-03-1.99565E-05 7.65178E-03-2.57741E-14 1.28719E-13
 -1      2791 2.00038E+01 6.49846E-03 8.89634E-05 9.36112E-03 6.45878E-14 1.21203E-13
 -1      2792 2.00032E+01 8.59703E-03-3.43059E-05 1.12694E-02 1.06767E-13 1.77236E-14
 -1      2793 2.00013E+01 4.13818E-03-1.65756E-05 4.77993E-03 2.40028E-13-2.21132E-14
 -1      2794 2.00022E+01 4.88381E-03 7.16306E-05 6.06796E-03 7.55343E-14 4.41303E-14
 -1      2795 2.00020E+01 6.55644E-03-2.65633E-05 7.47977E-03 9.37307E-14-1.77300E-13
 -1      2796 2.00005E+01 2.90757E-03-1.26228E-05 2.68548E-03 2.77135E-13 1.74375E-14
 -1      2797 2.00011E+01 3.51255E-03 5.52924E-05 3.61690E-03 2.64102E-13 9.68557E-14
 -1      2798 2.00012E+01 4.78629E-03-2.08696E-05 4.62975E-03 2.00535E-13-4.70014E-14
 -1      2799 1.99999E+01 1.94215E-03-8.92687E-06 1.21985E-03 9.25290E-14 1.87999E-13
 -1      2800 2.00003E+01 2.41088E-03 4.10612E-05 1.86454E-03 2.53151E-13 1.18515E-13
 -1      2801 2.00006E+01 3.34077E-03-1.64575E-05 2.56546E-03 1.67692E-13 2.47586E-13
 -1      2802 1.99995E+01 1.21535E-03-5.84228E-06 2.42395E-04 2.62508E-14 2.73656E-13
 -1      2803 1.99998E+01 1.56419E-03 2.93244E-05 6.65945E-04 3.24855E-14 2.38792E-13
 -1      2804 2.00002E+01 2.21416E-03-1.29111E-05 1.12940E-03-1.29611E-14 3.20786E-13
 -1      2805 1.99993E+01 6.88976E-04-3.45684E-06-3.69651E-04 2.49446E-13 5.16086E-14
 -1      2806 1.99995E+01 9.38670E-04 2.00491E-05-1.10390E-04 5.57407E-14 1.74048E-13
 -1      2807 1.99999E+01 1.37072E-03-1.00084E-05 1.77168E-04 1.49991E-13 2.98513E-13
 -1      2808 1.99992E+01 3.22823E-04-1.72291E-06-7.17712E-04 3.23370E-13-4.14950E-14
 -1      2809 1.99993E+01 4.94219E-04 1.29836E-05-5.76082E-04 3.37638E-13 2.98017E-14
 -1      2810 1.99998E+01 7.63079E-04-7.62581E-06-4.14990E-04 3.39771E-13 4.03090E-14
 -1      2811 1.99992E+01 7.97647E-05-5.35424E-07-8.82168E-04 4.10025E-14-7.25593E-14
 -1      2812 1.99992E+01 1.91639E-04 7.78462E-06-8.21441E-04 2.52564E-13-3.94358E-14
 -1      2813 1.99996E+01 3.42771E-04-5.68541E-06-7.48195E-04 3.02759E-13 5.54974E-14
 -1      2814 1.99992E+01-7.19948E-05 2.24529E-07-9.24524E-04-1.10156E-13-9.80475E-14
 -1      2815 1.99992E+01-3.82168E-06 4.09326E-06-9.16796E-04-7.24838E-14-3.63364E-14
 -1      2816 1.99996E+01 6.56801E-05-4.12803E-06-9.02004E-04 8.13855E-14-4.75426E-14
 -1      2817 1.99993E+01-1.58325E-04 6.67688E-07-8.90348E-04-1.81873E-13-9.66001E-14
 -1      2818 1.99992E+01-1.21137E-04 1.57588E-06-9.15109E-04-1.70576E-13-1.39693E-13
 -1      2819 1.99996E+01-1.05654E-04-2.90132E-06-9.36991E-04-9.77195E-14 1.52398E-14
 -1      2820 1.99993E+01-1.99470E-04 8.87269E-07-8.12330E-04 2.07049E-13-2.14380E-13
 -1      2821 1.99993E+01-1.83415E-04-5.64117E-08-8.55003E-04 4.43112E-15-1.71691E-13
 -1      2822 1.99996E+01-2.01531E-04-1.95580E-06-8.97880E-04-5.41030E-14-6.61255E-14
 -1      2823 1.99994E+01-2.10761E-04 9.56655E-07-7.13104E-04 7.13191E-14-5.49592E-14
 -1      2824 1.99993E+01-2.08444E-04-1.04188E-06-7.63713E-04 1.52560E-13-1.05566E-13
 -1      2825 1.99996E+01-2.45556E-04-1.24452E-06-8.16665E-04 7.51994E-14-1.38573E-13
 -1      2826 1.99995E+01-2.03476E-04 9.30733E-07-6.07682E-04-3.36354E-13 3.75264E-15
 -1      2827 1.99994E+01-2.09504E-04-1.56963E-06-6.59712E-04-1.14651E-13-1.54394E-13
 -1      2828 1.99996E+01-2.55546E-04-7.23920E-07-7.15441E-04-3.06336E-14-1.79255E-14
 -1      2829 1.99995E+01-1.85680E-04 8.48769E-07-5.05452E-04-1.92971E-13-2.17749E-13
 -1      2830 1.99995E+01-1.96232E-04-1.78520E-06-5.54923E-04-2.17565E-13-1.40580E-13
 -1      2831 1.99996E+01-2.44563E-04-3.54789E-07-6.08817E-04-1.45858E-13-4.43575E-13
 -1      2832 1.99996E+01-1.62981E-04 7.36730E-07-4.11771E-04-8.05642E-14-3.30206E-13
 -1      2833 1.99995E+01-1.75423E-04-1.79717E-06-4.56507E-04-1.67325E-13-2.38894E-13
 -1      2834 1.99996E+01-2.21922E-04-1.03726E-07-5.05896E-04-1.43210E-13-2.77955E-13
 -1      2835 1.99996E+01-1.39166E-04 6.16794E-07-3.29175E-04-5.13445E-14-1.94738E-13
 -1      2836 1.99996E+01-1.51741E-04-1.68391E-06-3.68250E-04-4.34923E-14-3.40290E-13
 -1      2837 1.99997E+01-1.94083E-04 5.60108E-08-4.11831E-04-8.78043E-14-2.16984E-13
 -1      2838 1.99997E+01-1.16741E-04 4.71161E-07-2.58308E-04 6.02256E-15-3.51882E-14
 -1      2839 1.99996E+01-1.28312E-04-1.50541E-06-2.91644E-04-9.27093E-14-9.36275E-14
 -1      2840 1.99997E+01-1.65375E-04 1.48849E-07-3.29030E-04-1.15086E-13-1.30279E-13
 -1      2841 1.99997E+01-9.73325E-05 3.67447E-07-1.98450E-04-2.80646E-13 1.56907E-13
 -1      2842 1.99997E+01-1.07245E-04-1.31258E-06-2.26576E-04-1.12445E-13 1.14191E-13
 -1      2843 1.99997E+01-1.38520E-04 3.19271E-07-2.58427E-04-2.29781E-13 1.02756E-14
 -1      2844 1.99997E+01-8.30388E-05 2.98719E-07-1.49651E-04-2.96029E-13 3.59978E-13
 -1      2845 1.99997E+01-9.11901E-05-1.21536E-06-1.73397E-04-3.71802E-13 3.18283E-13
 -1      2846 1.99997E+01-1.16364E-04 8.46900E-07-2.00222E-04-3.70186E-13 1.13817E-13
 -1      2847 1.99998E+01-1.00092E-04 8.95457E-07-1.52092E-04-2.10122E-13 2.29363E-13
 -1      2848 1.99998E+01-8.28076E-05 4.83709E-07 1.12795E-04 2.22238E-13 1.18357E-13
 -1      2849 1.99999E+01-1.98593E-04 7.02746E-07-5.05920E-05-2.72167E-13-7.31545E-13
 -1      2850 1.99999E+01-1.91070E-04 1.93990E-09-6.68170E-05-9.46657E-14-5.83442E-13
 -1      2851 1.99998E+01-1.05733E-04 5.03927E-07-1.12994E-04-1.08038E-13 1.15410E-13
 -1      2852 1.99998E+01-1.78256E-04 7.94183E-07-8.35764E-05-1.65390E-13-5.55342E-13
 -1      2853 1.99998E+01-1.66409E-04-2.14377E-07-9.49136E-05 1.38062E-13-6.96324E-13
 -1      2854 1.99999E+01-1.97840E-04-5.98255E-07-8.51361E-05 7.82458E-15-6.44409E-13
 -1      2855 1.99964E+01 1.54959E-01-5.91168E-03-1.33124E+00 1.71776E-13-3.94755E-13
 -1      2856 1.99093E+01 3.41873E-01 9.54854E-03-1.25970E+00 2.15637E-13-3.41926E-13
 -1      2857 2.04132E+01 5.44544E-01-1.49418E-03-1.26111E+00 2.64476E-13-3.91167E-13
 -1      2858 2.05438E+01 9.88712E-02 2.13339E-03-1.41105E+00 1.85914E-13-4.14800E-13
 -1      2859 1.99999E+01-2.05283E-04 2.68672E-07 3.05400E-05-2.73740E-13 6.25248E-14
 -1      2860 1.99999E+01-2.07942E-04 5.05867E-07 1.17466E-05-2.43671E-13-3.36055E-14
 -1      2861 1.99999E+01-1.91232E-04-1.33500E-08 6.71098E-05-1.39207E-13-4.46706E-13
 -1      2862 1.99999E+01-1.98625E-04 6.97542E-07 5.12011E-05-2.83076E-13-7.09352E-14
 -1      2863 1.99999E+01-2.16481E-04-7.50125E-07 4.59823E-05-2.31301E-13-2.64333E-14
 -1      2864 1.99998E+01-1.66656E-04-2.61643E-07 9.50952E-05 2.62541E-14 1.72102E-13
 -1      2865 1.99998E+01-1.78361E-04 8.16606E-07 8.38131E-05 6.38949E-14-2.84055E-13
 -1      2866 1.99999E+01-1.98116E-04-6.44701E-07 8.54611E-05-6.16967E-14-1.95655E-13
 -1      2867 1.99998E+01-1.33905E-04-2.98399E-07 1.09659E-04 1.57633E-13 7.10148E-13
 -1      2868 1.99998E+01-1.48952E-04 8.12163E-07 1.05242E-04 1.99571E-13 5.14183E-13
 -1      2869 1.99998E+01-1.69342E-04-4.78362E-07 1.13873E-04 3.20216E-14 4.75632E-13
 -1      2870 1.99998E+01-1.00615E-04-3.27774E-07 1.13132E-04 1.55571E-13 2.30806E-13
 -1      2871 1.99998E+01-1.17524E-04 6.63260E-07 1.15892E-04 1.69315E-13 4.48207E-13
 -1      2872 1.99998E+01-1.37069E-04-5.25209E-07 1.31052E-04 1.19226E-13 5.46166E-13
 -1      2873 1.99998E+01-1.03791E-04-6.74215E-07 1.37367E-04 2.84205E-13 1.99002E-13
 -1      2874 1.83635E+01-3.68283E+00 6.46201E-02 7.55512E+00-7.45293E-13-1.14353E-14
 -1      2875 1.53168E+01-2.78249E+00 1.11676E-01 7.49556E+00-8.31182E-13 1.78191E-13
 -1      2876 3.03808E+01 2.81200E+00-1.75797E-01-8.20973E-01 8.02122E-13-1.10614E-12
 -1      2877 3.00252E+01 6.22490E-01-9.66058E-02-5.30893E-02 5.13090E-13-1.09801E-12
 -1      2878 2.25118E+01 3.19188E-02 1.89317E-02-5.91614E+00-3.16636E-13-9.25579E-13
 -1      2879 2.47624E+01-1.95211E-02 3.78395E-02-4.45361E+00-4.32904E-13-6.49300E-13
 -1      2880 2.51703E+01 3.18743E+00-4.94117E-02 2.18619E+00 3.11746E-13-3.44264E-13
 -1      2881 2.59330E+01 2.84733E+00-2.15097E-02 1.94470E+00 1.65522E-13-3.12546E-13
 -1      2882 2.49342E+01 3.51986E+00 1.03264E-02 2.32330E+00 3.81177E-13-2.94988E-13
 -1      2883 2.66600E+01 2.42479E+00-9.41287E-02 1.63159E+00 9.40342E-14-2.32995E-13
 -1      2884 2.72502E+01 1.86053E+00-2.24569E-02 8.79944E-01-8.92051E-14-2.19266E-13
 -1      2885 2.66562E+01 3.23452E+00-5.92047E-03 2.17419E+00 2.71654E-13-1.50208E-13
 -1      2886 6.56796E+00 7.39998E-01 2.02470E-01 2.48815E+00-4.61346E-13 1.00839E-12
 -1      2887 6.54645E+00 1.02109E+00 1.64868E-01 4.13317E-01-2.57144E-13 9.96703E-13
 -1      2888 3.01842E+01 8.05839E+00-1.99054E-01 5.09851E-01 1.28406E-12-5.44976E-13
 -1      2889 3.04100E+01 7.73782E+00-1.67075E-01-2.11821E-01 1.26874E-12-7.60822E-13
 -1      2890 7.79351E+00 7.68441E-01 1.78465E-01-2.11440E+00 1.35128E-13 9.18182E-13
 -1      2891 9.99773E+00-1.13283E-01 1.75618E-01-4.22910E+00 4.29989E-13 7.92144E-13
 -1      2892 1.99999E+01-2.07951E-04 5.09142E-07-1.07569E-05-2.59720E-13-3.48757E-13
 -1      2893 1.99999E+01-2.05386E-04 2.60382E-07-2.95778E-05-1.40381E-13-6.73767E-13
 -1      2894 1.99999E+01-2.22779E-04-7.78468E-07 5.16447E-07-4.18150E-14-1.82926E-13
 -1      2895 2.24613E+01 3.15955E+00-1.42923E-02 2.25938E+00 5.90068E-13-4.32673E-13
 -1      2896 2.30911E+01 3.22738E+00-2.14575E-02 2.22887E+00 4.91381E-13-4.62667E-13
 -1      2897 2.34567E+01 3.34971E+00 1.06823E-02 2.19907E+00 4.82982E-13-3.86799E-13
 -1      2898 3.03818E+01 6.54645E+00-1.95637E-01-7.39088E-01 1.15447E-12-8.86596E-13
 -1      2899 3.03771E+01 5.15214E+00-1.16768E-01-1.07526E+00 1.00034E-12-1.03682E-12
 -1      2900 1.99998E+01-1.49323E-04 9.15933E-07-1.04976E-04 4.84607E-15-6.18176E-13
 -1      2901 1.99998E+01-1.35105E-04-6.15755E-07-1.10402E-04-4.71162E-14-3.80832E-13
 -1      2902 1.99998E+01-1.69593E-04-6.20335E-07-1.13469E-04-9.83586E-14-6.06644E-13
 -1      2903 2.12931E+01 2.65264E+00-1.49298E-02 2.22535E+00 6.99641E-13-3.09652E-13
 -1      2904 2.18648E+01 2.88534E+00-1.59321E-02 2.21049E+00 6.16016E-13-3.81785E-13
 -1      2905 2.21788E+01 2.90005E+00 1.10780E-02 2.04905E+00 5.81556E-13-3.41859E-13
 -1      2906 2.05372E+01 2.15566E+00-2.49550E-03 2.13388E+00 6.87944E-13-1.49307E-13
 -1      2907 2.65981E+01-3.74843E+00 8.94957E-03 4.37158E+00-2.83731E-13-6.84203E-13
 -1      2908 2.51990E+01-3.98751E+00 7.15569E-02 4.79412E+00-4.56260E-13-6.58334E-13
 -1      2909 2.73899E+01-3.29358E+00-7.61399E-02 2.81602E+00-2.36287E-13-7.78183E-13
 -1      2910 1.38268E+01-1.85391E+00 1.50167E-01 7.11610E+00-8.57966E-13 3.37341E-13
 -1      2911 1.22596E+01-7.65522E-01 7.70584E-02 6.21348E+00-8.18040E-13 4.47087E-13
 -1      2912 1.62531E+01-2.10388E+00 1.04472E-01 6.78501E+00-8.65842E-13 1.43038E-13
 -1      2913 2.75219E+01 1.37957E+00-1.38866E-01 2.66874E-01-1.37536E-13-1.79214E-13
 -1      2914 2.83090E+01 1.10127E+00-2.60730E-02-1.37084E+00-1.07483E-14-2.89491E-13
 -1      2915 1.15766E+01-3.34749E-01 1.35512E-01-4.76198E+00 4.94355E-13 7.00467E-13
 -1      2916 1.58398E+01-5.63289E-02 1.55214E-01-5.00827E+00 6.04294E-13 2.49994E-13
 -1      2917 1.58343E+01 1.01690E+00 7.19187E-02-4.41149E+00 4.97859E-13 1.77421E-13
 -1      2918 1.41766E+01 1.67701E+00 8.69504E-02-3.58257E+00 2.46393E-13 2.45907E-13
 -1      2919 2.98046E+01 2.07984E+00-5.38105E-02-2.06980E-01 2.46671E-13-2.29497E-13
 -1      2920 2.04531E+01 1.65239E+00-5.31637E-03 5.96612E-01 5.57550E-13-2.03400E-13
 -1      2921 1.99500E+01 1.38379E+00 7.41818E-03 7.01877E-01 5.49018E-13-1.26569E-13
 -1      2922 1.99999E+01-2.16372E-04-7.37867E-07-4.53538E-05-8.44460E-14-6.25502E-13
 -1      2923 1.99998E+01-1.24784E-04-6.13092E-07-1.29428E-04-2.65293E-13-8.19711E-14
 -1      2924 2.95697E+01-6.47608E-01-7.83043E-02 4.51010E-01 3.30899E-13-1.06531E-12
 -1      2925 2.85401E+01-1.69053E+00-4.36427E-02 1.02226E+00 1.18794E-13-1.01434E-12
 -1      2926 2.87329E+01 2.28990E-01-5.53686E-02-6.75006E-01 3.70155E-13-1.16146E-12
 -1      2927 2.05250E+01-3.92208E+00 9.63651E-02 6.87431E+00-7.13832E-13-1.93630E-13
 -1      2928 1.97973E+01-3.38828E+00 6.79967E-02 6.63731E+00-7.31956E-13-1.95066E-13
 -1      2929 2.24461E+01-4.15843E+00-3.90862E-02 6.07321E+00-6.24667E-13-5.04388E-13
 -1      2930 2.91491E+01 3.40199E+00-8.88187E-02-1.25223E+00 7.69010E-13-1.06769E-12
 -1      2931 1.98879E+01 1.38118E+00 8.51883E-03 9.53732E-01 5.71933E-13-5.90303E-14
 -1      2932 3.06646E+01 5.64483E+00-1.07994E-01 1.65408E+00 8.84404E-13-2.05419E-13
 -1      2933 2.94078E+01 6.14914E+00-1.35566E-01 1.97929E+00 8.96991E-13-1.86268E-13
 -1      2934 2.95022E+01 4.56354E+00-9.34583E-02 1.71522E+00 6.47662E-13-1.18322E-13
 -1      2935 9.23961E+00 1.92086E+00 1.29899E-01-1.03465E-01-2.41664E-13 6.27373E-13
 -1      2936 8.32747E+00 1.38502E+00 1.94429E-01-1.03946E+00-6.53956E-14 7.75074E-13
 -1      2937 1.04114E+01 1.70601E+00 1.35730E-01-2.32652E+00 1.67536E-13 4.99323E-13
 -1      2938 2.94491E+01 2.87047E+00-1.33377E-01 1.00749E+00 3.14533E-13-1.16476E-13
 -1      2939 8.74463E+00 6.36278E-01 1.70226E-01 3.71302E+00-6.79741E-13 7.97307E-13
 -1      2940 2.88707E+01 6.63743E+00-1.06835E-01-6.50475E-01 1.05993E-12-7.91950E-13
 -1      2941 2.07782E+01 2.10211E+00 9.77323E-03 1.86736E+00 6.45926E-13-1.65623E-13
 -1      2942 2.82414E+01 2.48199E+00-3.37037E-02 1.31098E+00 1.21653E-13-8.64170E-14
 -1      2943 2.87914E+01 7.20081E+00-1.54733E-01 1.35722E+00 1.07564E-12-3.24105E-13
 -1      2944 2.97172E+01 7.76784E+00-1.46798E-01 9.69153E-01 1.19005E-12-4.49630E-13
 -1      2945 2.82081E+01 7.41192E+00-1.08004E-01 5.92699E-01 1.10020E-12-4.86807E-13
 -1      2946 1.49213E+01 2.42337E+00 3.06107E-02-1.75017E+00-5.49751E-14 2.75769E-14
 -1      2947 1.57360E+01 2.33067E+00-2.32622E-02-1.52112E+00-1.55518E-13-1.47516E-13
 -1      2948 1.08229E+01 7.27736E-01 1.55158E-01 4.63338E+00-7.40324E-13 5.55056E-13
 -1      2949 9.65056E+00 1.61203E+00 1.08742E-01 2.50174E+00-5.50575E-13 6.27096E-13
 -1      2950 2.17629E+01 2.65861E+00-4.04674E-03 1.70718E+00 6.13886E-13-3.12261E-13
 -1      2951 2.23622E+01 2.94236E+00-9.75768E-03 1.79071E+00 5.49518E-13-3.48886E-13
 -1      2952 2.09443E+01 1.97826E+00 3.03441E-03 4.74170E-01 5.37101E-13-2.59987E-13
 -1      2953 2.10461E+01 2.09501E+00 2.98768E-03 8.89339E-01 5.72727E-13-2.59109E-13
 -1      2954 1.67499E+01 2.17428E+00-2.14775E-03-1.37362E+00-9.09320E-14-1.70648E-13
 -1      2955 1.73531E+01 1.95527E+00-2.10142E-02-1.19260E+00-1.51676E-14-1.41388E-13
 -1      2956 1.80286E+01 1.72977E+00-8.11095E-03-1.12087E+00-7.07767E-15-1.95263E-13
 -1      2957 1.84173E+01 1.50213E+00-1.55354E-02-9.63522E-01-1.31606E-13-2.37545E-13
 -1      2958 1.73000E+01 2.00013E+00 3.96554E-02-6.88330E-01-3.84055E-14-1.26607E-13
 -1      2959 1.88514E+01 1.29009E+00-5.18288E-03-8.91512E-01-1.24074E-13-2.32769E-13
 -1      2960 1.90833E+01 1.09519E+00-1.09874E-02-7.58480E-01-1.83478E-13-1.66740E-13
 -1      2961 1.83462E+01 1.52632E+00 2.48010E-02-6.33960E-01-1.24385E-13-2.27812E-13
 -1      2962 1.93578E+01 9.24397E-01-2.28654E-03-6.89231E-01-2.60689E-13-5.60932E-14
 -1      2963 1.94886E+01 7.73282E-01-7.61311E-03-5.81369E-01-1.72651E-13-2.63032E-14
 -1      2964 1.90097E+01 1.11579E+00 1.56891E-02-5.45142E-01-1.16438E-13-1.28223E-13
 -1      2965 1.96590E+01 6.45892E-01-5.13427E-04-5.19924E-01-1.50972E-13 6.09651E-14
 -1      2966 1.97285E+01 5.35162E-01-5.22601E-03-4.35938E-01-9.24994E-14-1.05408E-14
 -1      2967 1.94228E+01 7.92775E-01 9.87906E-03-4.45179E-01-1.51042E-13-7.45595E-15
 -1      2968 1.98321E+01 4.44331E-01 3.61701E-04-3.84764E-01-1.18676E-13-5.10678E-15
 -1      2969 1.98661E+01 3.65963E-01-3.54717E-03-3.21406E-01-2.75324E-13-7.60039E-14
 -1      2970 1.96742E+01 5.52906E-01 6.09785E-03-3.50151E-01-1.50077E-13 5.47728E-15
 -1      2971 1.99277E+01 3.02952E-01 7.00496E-04-2.80660E-01-3.72502E-13-6.57077E-14
 -1      2972 1.99422E+01 2.48681E-01-2.37852E-03-2.33931E-01-2.40008E-13-7.19895E-14
 -1      2973 1.98237E+01 3.81202E-01 3.67994E-03-2.68009E-01-2.87611E-13 2.11221E-14
 -1      2974 1.99780E+01 2.05686E-01 7.59983E-04-2.02476E-01-1.97487E-13-1.14513E-13
 -1      2975 1.99822E+01 1.68586E-01-1.57868E-03-1.68534E-01-1.27283E-13-1.19638E-13
 -1      2976 1.99103E+01 2.61156E-01 2.16720E-03-2.01037E-01-2.33898E-13 2.25908E-14
 -1      2977 2.00024E+01 1.39512E-01 6.93057E-04-1.44763E-01-5.99391E-14-1.21304E-13
 -1      2978 2.00017E+01 1.14321E-01-1.03937E-03-1.20352E-01-1.10933E-13-1.07385E-13
 -1      2979 1.99590E+01 1.78442E-01 1.24227E-03-1.48449E-01-1.35960E-13 3.18869E-14
 -1      2980 2.00126E+01 9.47374E-02 5.81168E-04-1.02651E-01-7.06632E-14-4.55592E-14
 -1      2981 2.00099E+01 7.76719E-02-6.80228E-04-8.52045E-02 8.87943E-14 3.21393E-14
 -1      2982 1.99851E+01 1.21909E-01 6.89246E-04-1.08186E-01-3.83110E-14-2.40119E-14
 -1      2983 2.00155E+01 6.44807E-02 4.64451E-04-7.21600E-02 1.39296E-13 1.58406E-14
 -1      2984 2.00121E+01 5.29058E-02-4.43847E-04-5.97395E-02 4.72120E-14 7.10247E-14
 -1      2985 1.99984E+01 8.33993E-02 3.64618E-04-7.78887E-02 1.12155E-13 1.38293E-13
 -1      2986 2.00148E+01 4.39922E-02 3.60192E-04-5.02023E-02 2.39783E-14 1.55347E-14
 -1      2987 2.00116E+01 3.61106E-02-2.89294E-04-4.13868E-02 1.63791E-13 2.16217E-14
 -1      2988 2.00044E+01 5.71597E-02 1.78917E-04-5.53699E-02 6.70128E-14 5.00748E-15
 -1      2989 2.00126E+01 3.00556E-02 2.73689E-04-3.44632E-02 8.38113E-14-3.98369E-14
 -1      2990 2.00099E+01 2.46589E-02-1.88548E-04-2.82269E-02 7.15259E-14 7.50603E-15
 -1      2991 2.00065E+01 3.92237E-02 7.60264E-05-3.87958E-02 5.24018E-14 1.11765E-14
 -1      2992 2.00101E+01 2.05194E-02 2.04850E-04-2.32379E-02-1.63382E-14-4.16109E-14
 -1      2993 2.00078E+01 1.68015E-02-1.22897E-04-1.88466E-02-8.47122E-15-7.51604E-14
 -1      2994 2.00067E+01 2.69032E-02 2.15089E-05-2.67048E-02-1.68981E-14-1.34853E-13
 -1      2995 2.00076E+01 1.39531E-02 1.51449E-04-1.52829E-02 6.09026E-14-1.06086E-13
 -1      2996 2.00059E+01 1.13774E-02-8.00274E-05-1.22122E-02 7.76879E-15-1.28053E-13
 -1      2997 2.00059E+01 1.83924E-02-5.38429E-06-1.79647E-02-4.52764E-15-1.47846E-13
 -1      2998 2.00056E+01 9.40697E-03 1.10703E-04-9.69486E-03 3.18513E-14-1.64717E-13
 -1      2999 2.00043E+01 7.61533E-03-5.19264E-05-7.56958E-03 6.37506E-14-1.93313E-13
 -1      3000 2.00049E+01 1.24826E-02-1.69658E-05-1.17129E-02-1.47463E-14-3.89904E-13
 -1      3001 2.00039E+01 6.24794E-03 7.99680E-05-5.81727E-03 4.98636E-14-1.48511E-13
 -1      3002 2.00030E+01 5.00009E-03-3.34156E-05-4.36832E-03 5.06307E-14-2.74292E-13
 -1      3003 2.00039E+01 8.36369E-03-2.04157E-05-7.29879E-03 3.73602E-14-3.08272E-13
 -1      3004 2.00026E+01 4.05133E-03 5.69951E-05-3.17225E-03-1.12828E-13-2.54799E-13
 -1      3005 2.00020E+01 3.18432E-03-2.11642E-05-2.20557E-03-6.04637E-14-3.59331E-13
 -1      3006 2.00029E+01 5.48960E-03-1.98310E-05-4.23365E-03-5.81707E-14-4.69337E-13
 -1      3007 2.00017E+01 2.52898E-03 3.99669E-05-1.41088E-03 1.08735E-13-4.10683E-13
 -1      3008 2.00012E+01 1.93090E-03-1.30306E-05-7.85972E-04 9.45863E-14-3.96547E-13
 -1      3009 2.00022E+01 3.48894E-03-1.74828E-05-2.15152E-03-6.21772E-14-2.83904E-13
 -1      3010 2.00010E+01 1.48278E-03 2.74559E-05-2.77870E-04-3.74188E-14-3.24008E-13
 -1      3011 2.00007E+01 1.07564E-03-7.63288E-06 1.07241E-04-1.41975E-13-2.81144E-13
 -1      3012 2.00015E+01 2.10598E-03-1.45797E-05-7.78990E-04 2.07697E-14-2.36210E-13
 -1      3013 2.00005E+01 7.74450E-04 1.83571E-05 4.13633E-04-2.26993E-13-1.98157E-13
 -1      3014 2.00003E+01 5.03111E-04-4.07158E-06 6.32992E-04-1.37388E-13-6.94313E-14
 -1      3015 2.00010E+01 1.16217E-03-1.17247E-05 8.76325E-05-1.75566E-13-1.25753E-13
 -1      3016 2.00002E+01 3.06097E-04 1.18217E-05 8.00141E-04 1.27510E-13 1.59462E-15
 -1      3017 2.00001E+01 1.31089E-04-1.75438E-06 9.07359E-04 2.18758E-13-3.12697E-14
 -1      3018 2.00007E+01 5.31095E-04-9.18517E-06 5.99402E-04-1.12296E-14-1.57290E-13
 -1      3019 2.00000E+01 7.55484E-06 7.19996E-06 9.80893E-04-3.13029E-15 1.35729E-13
 -1      3020 1.99999E+01-9.96649E-05-2.85250E-07 1.01454E-03-6.18828E-14 1.61216E-13
 -1      3021 2.00004E+01 1.22154E-04-7.04962E-06 8.67591E-04 1.94124E-13-6.53794E-15
 -1      3022 1.99998E+01-1.71929E-04 3.99604E-06 1.02743E-03-1.69785E-13 2.63942E-13
 -1      3023 1.99998E+01-2.32109E-04 6.04906E-07 1.01497E-03-9.41928E-15 2.44044E-13
 -1      3024 2.00002E+01-1.30220E-04-5.31713E-06 9.73406E-04-6.84074E-14 3.81630E-13
 -1      3025 1.99997E+01-2.69234E-04 1.83245E-06 9.90692E-04 6.29355E-14 2.14956E-13
 -1      3026 1.99997E+01-2.97472E-04 1.10174E-06 9.51374E-04 1.01893E-13 2.09763E-13
 -1      3027 2.00001E+01-2.73724E-04-3.94648E-06 9.75371E-04-4.09357E-14 4.74574E-13
 -1      3028 1.99997E+01-3.11159E-04 4.23008E-07 9.06318E-04 3.79366E-14 1.14480E-13
 -1      3029 1.99997E+01-3.18397E-04 1.33492E-06 8.53348E-04-1.44781E-13-3.36530E-14
 -1      3030 2.00000E+01-3.43090E-04-2.88250E-06 9.14970E-04-6.94148E-14 1.64743E-13
 -1      3031 1.99997E+01-3.17081E-04-4.47857E-07 7.98665E-04-9.76961E-14-2.43584E-14
 -1      3032 1.99997E+01-3.11184E-04 1.39536E-06 7.40825E-04-1.26684E-13-7.17266E-14
 -1      3033 1.99999E+01-3.63519E-04-2.06938E-06 8.20982E-04-1.08073E-13 1.68590E-13
 -1      3034 1.99997E+01-3.00881E-04-9.41006E-07 6.83826E-04-2.32876E-13 2.59410E-14
 -1      3035 1.99997E+01-2.87430E-04 1.34612E-06 6.26702E-04-1.84108E-13 1.58037E-13
 -1      3036 1.99998E+01-3.53143E-04-1.45722E-06 7.12801E-04-7.05428E-14-3.67612E-14
 -1      3037 1.99997E+01-2.72367E-04-1.17599E-06 5.71918E-04-1.82445E-13 3.98286E-13
 -1      3038 1.99997E+01-2.55245E-04 1.23182E-06 5.18806E-04-1.37820E-13 3.89640E-13
 -1      3039 1.99998E+01-3.24855E-04-1.00384E-06 6.02966E-04-3.11159E-15 1.87207E-13
 -1      3040 1.99997E+01-2.38317E-04-1.24088E-06 4.68800E-04-1.15694E-13 3.04929E-13
 -1      3041 1.99997E+01-2.20150E-04 1.08587E-06 4.21405E-04-2.81322E-14 2.33883E-13
 -1      3042 1.99998E+01-2.87633E-04-6.72009E-07 4.99078E-04-1.45249E-13 2.59284E-13
 -1      3043 1.99997E+01-2.03285E-04-1.19510E-06 3.77414E-04 1.53383E-13 3.05740E-13
 -1      3044 1.99997E+01-1.85843E-04 9.30032E-07 3.36371E-04 1.17818E-13 3.92746E-13
 -1      3045 1.99998E+01-2.47572E-04-4.32875E-07 4.05293E-04 1.23036E-13 5.58482E-13
 -1      3046 1.99997E+01-1.70396E-04-1.07899E-06 2.98704E-04 1.12812E-13 4.26197E-13
 -1      3047 1.99997E+01-1.54895E-04 7.40094E-07 2.63874E-04 9.25449E-14 4.19946E-13
 -1      3048 1.99998E+01-2.08822E-04-2.72120E-07 3.23440E-04 7.40747E-14 7.81444E-13
 -1      3049 1.99997E+01-1.41123E-04-8.10951E-07 2.31987E-04-3.59557E-14 6.11285E-13
 -1      3050 1.99998E+01-1.28476E-04 4.97390E-07 2.03318E-04 1.02234E-13 3.88292E-13
 -1      3051 1.99998E+01-1.74292E-04-2.37624E-07 2.53558E-04 2.01006E-13 7.77906E-13
 -1      3052 1.99998E+01-1.20752E-04-8.54861E-07 1.80474E-04 1.04106E-13 1.97248E-13
 -1      3053 1.99998E+01-1.10406E-04 1.71600E-07 1.56268E-04 3.13589E-13 3.11094E-13
 -1      3054 1.99998E+01-1.27191E-04 7.30337E-07 1.56347E-04 1.32701E-13 5.67305E-13
 -1      3055 1.99998E+01-1.47851E-04-2.18315E-07 1.98661E-04-8.99690E-14 8.68688E-13
 -1      3056 1.99999E+01-2.06937E-04-2.59416E-07 1.05928E-04-1.69411E-14 5.96657E-14
 -1      3057 1.99999E+01-2.17666E-04 8.45566E-07 8.75793E-05-1.52936E-13-3.34860E-14
 -1      3058 1.99999E+01-2.34523E-04 6.38975E-07-3.98773E-05-5.76277E-14-5.59574E-13
 -1      3059 1.99999E+01-2.28836E-04 6.99488E-08-6.27481E-05-9.28179E-15-7.15987E-13
 -1      3060 2.08573E+01 1.12369E+00-9.17546E-03-1.01268E+00 3.61556E-13-3.73346E-13
 -1      3061 2.08530E+01 1.40736E+00 1.20432E-02-7.32928E-01 4.23961E-13-3.41321E-13
 -1      3062 2.08290E+01 1.64485E+00-3.34581E-03-3.59764E-01 4.66161E-13-2.97051E-13
 -1      3063 2.08749E+01 1.83977E+00 6.77464E-03 2.52034E-02 5.04531E-13-2.68367E-13
 -1      3064 2.14196E+01 2.26645E+00-3.76453E-03 3.11656E-01 5.35492E-13-2.57036E-13
 -1      3065 2.13579E+01 1.80696E+00-7.60895E-03-5.48649E-01 4.89070E-13-3.05546E-13
 -1      3066 2.10102E+01-6.38638E-01 7.50918E-04-1.02177E+00-2.28450E-15-4.13973E-13
 -1      3067 2.10198E+01-5.61318E-01-1.73379E-03-1.14911E+00 6.82541E-14-4.17315E-13
 -1      3068 2.10867E+01-4.38996E-01-3.61186E-03-1.29130E+00 9.33841E-14-4.34562E-13
 -1      3069 2.10699E+01-2.62885E-01 2.59235E-03-1.37401E+00 1.34428E-13-4.47532E-13
 -1      3070 2.14651E+01-5.89805E-01 4.00473E-03-1.19302E+00 6.95815E-14-4.50982E-13
 -1      3071 2.06906E+01-6.07985E-01 4.64943E-03-4.72382E-01-9.85155E-14-2.72793E-13
 -1      3072 2.07335E+01-6.53583E-01-4.20714E-03-5.90989E-01-3.84451E-14-2.81820E-13
 -1      3073 2.05198E+01-4.89959E-01 4.62399E-03-2.71225E-01-1.57631E-13-2.57076E-13
 -1      3074 2.05649E+01-5.54790E-01-3.57656E-03-3.64721E-01-1.20760E-13-2.31965E-13
 -1      3075 2.07791E+01-6.77524E-01-3.02636E-03-3.44041E-01-1.32650E-13-3.01498E-13
 -1      3076 2.03722E+01-3.61642E-01 3.95238E-03-1.28464E-01-1.06610E-13-2.40855E-13
 -1      3077 2.04132E+01-4.27466E-01-2.64036E-03-1.95940E-01-1.38130E-13-2.71465E-13
 -1      3078 2.05589E+01-5.32180E-01-3.39667E-03-1.68124E-01-1.42056E-13-2.81225E-13
 -1      3079 2.02554E+01-2.46190E-01 3.05891E-03-3.54906E-02-4.16318E-14-2.11394E-13
 -1      3080 2.02893E+01-3.03159E-01-1.76133E-03-8.04091E-02-4.34913E-14-2.27350E-13
 -1      3081 2.03818E+01-3.83971E-01-3.11137E-03-5.20022E-02-6.65395E-14-3.03559E-13
 -1      3082 2.01690E+01-1.53615E-01 2.19216E-03 1.95126E-02-1.10047E-14-3.12873E-13
 -1      3083 2.01952E+01-1.98049E-01-1.07309E-03-7.83297E-03-3.00007E-14-2.30873E-13
 -1      3084 2.02492E+01-2.55463E-01-2.52884E-03 1.75297E-02-9.91908E-15-2.68078E-13
 -1      3085 2.01084E+01-8.55353E-02 1.46733E-03 4.78058E-02-8.55652E-14-2.59891E-13
 -1      3086 2.01276E+01-1.17461E-01-5.87336E-04 3.31068E-02-4.69102E-14-3.03330E-13
 -1      3087 2.01558E+01-1.55104E-01-1.89404E-03 5.40362E-02-2.30505E-14-3.85673E-13
 -1      3088 2.00677E+01-3.91607E-02 9.16569E-04 5.86229E-02-1.10327E-13-1.52949E-13
 -1      3089 2.00814E+01-6.04220E-02-2.67307E-04 5.23970E-02-1.13767E-13-1.86826E-13
 -1      3090 2.00933E+01-8.28894E-02-1.33141E-03 6.88376E-02-1.35519E-13-3.02060E-13
 -1      3091 2.00414E+01-9.96820E-03 5.28574E-04 5.88759E-02-1.31073E-14-1.16887E-13
 -1      3092 2.00509E+01-2.30127E-02-7.01201E-05 5.79125E-02-4.28840E-14-1.43318E-13
 -1      3093 2.00534E+01-3.46949E-02-8.84365E-04 7.04448E-02-9.55511E-14-2.33249E-13
 -1      3094 2.00250E+01 6.69927E-03 2.71353E-04 5.33795E-02-1.34995E-13 9.16087E-14
 -1      3095 2.00315E+01-4.82810E-04 4.22028E-05 5.53823E-02-3.53702E-14 9.03041E-15
 -1      3096 2.00292E+01-5.04427E-03-5.59962E-04 6.47864E-02-1.44698E-13-1.05141E-13
 -1      3097 2.00150E+01 1.48481E-02 1.11240E-04 4.52971E-02-2.47013E-15 1.33695E-14
 -1      3098 2.00195E+01 1.15734E-02 9.97601E-05 4.87173E-02-1.53333E-14 1.01038E-13
 -1      3099 2.00151E+01 1.13529E-02-3.39238E-04 5.57302E-02-7.65770E-14-2.16871E-14
 -1      3100 2.00091E+01 1.75984E-02 1.90986E-05 3.65866E-02-4.64153E-14-7.61320E-14
 -1      3101 2.00122E+01 1.67441E-02 1.22951E-04 4.04432E-02 2.18756E-14-3.26453E-14
 -1      3102 2.00075E+01 1.88952E-02-1.95930E-04 4.56702E-02 4.16359E-14-1.69640E-13
 -1      3103 2.00056E+01 1.72093E-02-2.83197E-05 2.83611E-02-1.00537E-13-1.24524E-13
 -1      3104 2.00078E+01 1.77200E-02 1.25368E-04 3.20822E-02-1.10631E-13-1.11275E-13
 -1      3105 2.00036E+01 2.09306E-02-1.07848E-04 3.59881E-02-6.08386E-14-2.60169E-13
 -1      3106 2.00036E+01 1.52127E-02-4.80705E-05 2.11709E-02-4.36943E-14-1.46359E-13
 -1      3107 2.00052E+01 1.63860E-02 1.16267E-04 2.44620E-02-1.17517E-14-1.21847E-13
 -1      3108 2.00018E+01 1.98435E-02-5.65991E-05 2.73899E-02-6.82707E-14-2.78435E-13
 -1      3109 2.00025E+01 1.25821E-02-5.19171E-05 1.52139E-02 8.33532E-14-1.06778E-13
 -1      3110 2.00036E+01 1.39805E-02 1.01598E-04 1.79580E-02-2.99508E-14-1.47376E-13
 -1      3111 2.00011E+01 1.72260E-02-2.85079E-05 2.01559E-02-7.07995E-14-2.28296E-13
 -1      3112 2.00017E+01 9.89152E-03-4.75248E-05 1.04812E-02 1.65820E-13-1.52075E-13
 -1      3113 2.00025E+01 1.12636E-02 8.50338E-05 1.26677E-02 1.89864E-13-1.19071E-13
 -1      3114 2.00009E+01 1.40741E-02-1.41886E-05 1.43149E-02 1.21029E-13-2.64518E-13
 -1      3115 2.00012E+01 7.44542E-03-3.96144E-05 6.85462E-03 1.03094E-13-1.78935E-13
 -1      3116 2.00018E+01 8.66347E-03 6.87477E-05 8.53063E-03 6.84497E-14-1.23496E-13
 -1      3117 2.00009E+01 1.09635E-02-7.56929E-06 9.75809E-03 1.56019E-13-8.49269E-14
 -1      3118 2.00009E+01 5.37653E-03-3.09035E-05 4.16861E-03 1.09397E-13-3.80325E-14
 -1      3119 2.00013E+01 6.39004E-03 5.39266E-05 5.40757E-03 1.88312E-13-1.30391E-13
 -1      3120 2.00009E+01 8.18987E-03-4.93247E-06 6.31312E-03 1.04520E-13 1.29678E-15
 -1      3121 2.00006E+01 3.71519E-03-2.28129E-05 2.24743E-03 3.91289E-14 1.57873E-13
 -1      3122 2.00009E+01 4.51877E-03 4.11202E-05 3.12989E-03 1.15315E-13 5.72080E-14
 -1      3123 2.00008E+01 5.87274E-03-4.13351E-06 3.78811E-03 7.75415E-14-1.62711E-14
 -1      3124 2.00004E+01 2.43596E-03-1.59669E-05 9.25980E-04-3.51033E-14 2.70907E-13
 -1      3125 2.00006E+01 3.04796E-03 3.04792E-05 1.52876E-03 5.98173E-15 2.58416E-13
 -1      3126 2.00008E+01 4.02836E-03-4.02142E-06 1.99758E-03-3.75112E-14 1.18778E-13
 -1      3127 2.00003E+01 1.48728E-03-1.05300E-05 5.98798E-05 1.52731E-13 2.56738E-13
 -1      3128 2.00004E+01 1.93642E-03 2.19180E-05 4.50632E-04 6.57573E-14 2.68561E-13
 -1      3129 2.00007E+01 2.61793E-03-4.03877E-06 7.75610E-04 6.97473E-14 2.08171E-13
 -1      3130 2.00001E+01 8.09338E-04-6.42383E-06-4.71069E-04 4.26386E-13 1.41025E-13
 -1      3131 2.00002E+01 1.12679E-03 1.52240E-05-2.35850E-04 3.11467E-13 2.55938E-13
 -1      3132 2.00006E+01 1.57814E-03-3.96056E-06-1.87460E-05 2.60899E-13 3.13152E-13
 -1      3133 2.00000E+01 3.44065E-04-3.46011E-06-7.63193E-04 1.96879E-13 2.00082E-13
 -1      3134 2.00001E+01 5.59157E-04 1.01292E-05-6.38220E-04 4.00561E-13 1.34408E-13
 -1      3135 2.00004E+01 8.39335E-04-3.73281E-06-5.00639E-04 4.26260E-13 3.07302E-13
 -1      3136 1.99999E+01 4.00076E-05-1.41796E-06-8.91265E-04 2.69619E-14 1.06235E-13
 -1      3137 2.00000E+01 1.78234E-04 6.35492E-06-8.41435E-04 1.59175E-13 7.68490E-14
 -1      3138 2.00003E+01 3.35442E-04-3.37839E-06-7.61211E-04 2.62446E-13 2.23515E-13
 -1      3139 1.99999E+01-1.45804E-04-8.47690E-08-9.11653E-04-7.33448E-14-4.44212E-14
 -1      3140 1.99999E+01-6.34317E-05 3.63852E-06-9.10586E-04-1.57223E-14-4.82170E-14
 -1      3141 2.00002E+01 8.70500E-06-2.94573E-06-8.70595E-04 4.12357E-14 1.62809E-14
 -1      3142 1.99998E+01-2.47757E-04 7.24711E-07-8.65658E-04 1.51652E-13-3.01221E-13
 -1      3143 1.99998E+01-2.04598E-04 1.74682E-06-8.94115E-04-4.57424E-14-1.10371E-13
 -1      3144 2.00001E+01-1.88707E-04-2.48364E-06-8.81342E-04 3.59555E-14-3.87974E-14
 -1      3145 1.99998E+01-2.92439E-04 1.16200E-06-7.82633E-04 3.21926E-14-2.87904E-13
 -1      3146 1.99998E+01-2.75739E-04 4.81818E-07-8.27025E-04 1.29898E-13-3.63405E-13
 -1      3147 2.00000E+01-2.94838E-04-2.03086E-06-8.31769E-04 1.43727E-13-3.04285E-13
 -1      3148 1.99998E+01-2.99807E-04 1.34526E-06-6.82726E-04 8.77588E-14-5.23695E-13
 -1      3149 1.99998E+01-3.00069E-04-3.18737E-07-7.33807E-04 9.93143E-14-3.29683E-13
 -1      3150 2.00000E+01-3.38974E-04-1.61368E-06-7.49006E-04 1.10522E-13-6.64729E-13
 -1      3151 1.99998E+01-2.84432E-04 1.36342E-06-5.79160E-04-1.55489E-13-3.74303E-13
 -1      3152 1.99998E+01-2.94776E-04-7.83906E-07-6.30938E-04-1.32157E-13-3.67996E-13
 -1      3153 1.99999E+01-3.43015E-04-1.24721E-06-6.51601E-04-1.20048E-14-5.97340E-13
 -1      3154 1.99998E+01-2.56656E-04 1.28168E-06-4.80093E-04-2.51018E-13-6.14770E-14
 -1      3155 1.99998E+01-2.72239E-04-1.01485E-06-5.28942E-04-2.34392E-13-1.57294E-13
 -1      3156 1.99999E+01-3.22893E-04-9.36813E-07-5.51671E-04-3.44009E-13-1.80445E-13
 -1      3157 1.99998E+01-2.23626E-04 1.14443E-06-3.90079E-04-2.72149E-14-5.74576E-14
 -1      3158 1.99998E+01-2.41126E-04-1.08773E-06-4.34053E-04-6.53174E-14-7.35166E-14
 -1      3159 1.99999E+01-2.89876E-04-6.84039E-07-4.56648E-04-1.04757E-13-4.36875E-15
 -1      3160 1.99998E+01-1.90284E-04 8.75985E-07-3.11218E-04-1.04270E-13-5.27865E-14
 -1      3161 1.99998E+01-2.07373E-04-1.05891E-06-3.49461E-04-7.09342E-14-1.22935E-14
 -1      3162 1.99998E+01-2.51756E-04-4.92834E-07-3.70641E-04-8.89215E-15 1.08781E-13
 -1      3163 1.99998E+01-1.59549E-04 2.80350E-07-2.43952E-04-4.06582E-13 1.87724E-13
 -1      3164 1.99998E+01-1.74618E-04-9.71935E-07-2.75789E-04-1.27868E-13-5.37917E-15
 -1      3165 1.99998E+01-2.14072E-04-3.00995E-07-2.95239E-04-1.15710E-13 1.53236E-13
 -1      3166 1.92401E+01 1.92145E-01 3.54054E-03-6.25928E+00-7.53370E-13-9.00028E-13
 -1      3167 2.43720E+01 3.86379E+00-1.93619E-02 2.15864E+00 5.08959E-13-3.14590E-13
 -1      3168 2.52073E+01 3.87997E+00-2.56998E-02 2.21618E+00 4.40661E-13-2.72339E-13
 -1      3169 2.29839E+01 3.33842E+00-3.74093E-03 1.91421E+00 5.43100E-13-3.93220E-13
 -1      3170 2.36516E+01 3.50705E+00-1.57793E-02 2.00388E+00 4.90884E-13-3.79089E-13
 -1      3171 2.39367E+01 3.94051E+00-1.35555E-03 1.87580E+00 5.32472E-13-3.17598E-13
 -1      3172 1.99999E+01-2.17209E-04 7.75933E-07-8.74791E-05-5.45617E-14-3.60381E-13
 -1      3173 1.99999E+01-2.05850E-04 2.00258E-08-1.05489E-04-2.02315E-13-3.41944E-13
 -1      3174 1.99999E+01-2.41500E-04-7.45461E-07-8.39845E-05-4.39213E-14-6.70369E-13
 -1      3175 1.99998E+01-1.73748E-04-3.10558E-07 1.34835E-04 5.11826E-14 6.80461E-13
 -1      3176 1.99999E+01-1.88824E-04 9.00929E-07 1.23914E-04-2.83494E-14 4.10820E-13
 -1      3177 1.99999E+01-2.14399E-04-7.26878E-07 1.28595E-04 4.42554E-14 2.03236E-13
 -1      3178 1.99999E+01-2.29040E-04 4.52157E-08 6.33562E-05-2.80833E-13-1.24439E-13
 -1      3179 1.99999E+01-2.34588E-04 6.25219E-07 4.08594E-05-2.61976E-13 6.57581E-14
 -1      3180 1.99999E+01-2.41742E-04-7.51962E-07 8.44220E-05-3.44796E-13 4.67192E-14
 -1      3181 2.08651E+01-6.75862E-01 3.52053E-03-7.30200E-01-5.01159E-14-3.36110E-13
 -1      3182 2.08963E+01-6.75374E-01-3.85780E-03-8.64467E-01-4.09926E-14-3.84135E-13
 -1      3183 2.12725E+01-7.72434E-01 9.77147E-04-8.84050E-01-5.27397E-14-4.00852E-13
 -1      3184 2.10276E+01-7.78234E-01-1.62796E-03-5.86372E-01-8.21147E-14-3.12425E-13
 -1      3185 2.34739E+01 8.45992E-02 7.88981E-02-4.30926E+00-6.71879E-13-6.38524E-13
 -1      3186 2.76455E+01 3.96196E+00-1.42665E-01-1.45073E+00 7.62557E-13-9.24632E-13
 -1      3187 2.78850E+01 2.13156E+00-7.24159E-02-1.40267E+00 5.45203E-13-1.06212E-12
 -1      3188 1.15413E+01 9.42962E-01 1.13242E-01-3.84732E+00 4.37345E-13 5.89639E-13
 -1      3189 1.95733E+01 1.24517E+00 7.43065E-03 1.29465E+00 5.93393E-13 5.21370E-14
 -1      3190 1.99998E+01-1.62036E-04 9.69108E-07-1.44133E-04-3.76507E-13-4.63338E-13
 -1      3191 1.99998E+01-1.35041E-04-2.24519E-08-1.49846E-04-2.23641E-13-1.43977E-13
 -1      3192 1.99998E+01-1.44972E-04-1.11944E-06-1.72434E-04-3.27912E-13-1.03970E-13
 -1      3193 2.02520E+01 1.63905E+00-3.80172E-03 1.35939E+00 6.16006E-13-1.18670E-13
 -1      3194 2.10810E+01 2.17374E+00-5.86544E-04 1.50945E+00 5.98852E-13-2.64741E-13
 -1      3195 2.87587E+01 3.18105E+00-1.09071E-01 1.57705E+00 3.41102E-13-1.22985E-13
 -1      3196 1.99999E+01-1.93315E-04 8.18116E-07-1.21142E-04-2.59820E-13-6.14608E-13
 -1      3197 1.99998E+01-1.77991E-04 1.61592E-07-1.32240E-04-3.31194E-13-5.84706E-13
 -1      3198 1.99998E+01-1.92619E-04-1.10013E-06-1.52972E-04-2.13472E-13-5.70796E-13
 -1      3199 1.99999E+01-2.18671E-04-8.44842E-07-1.25443E-04-1.84168E-13-3.30373E-13
 -1      3200 1.99999E+01-2.38534E-04 3.63577E-07 1.27409E-05-9.44822E-14-1.96790E-13
 -1      3201 1.99999E+01-2.38560E-04 3.57215E-07-1.17249E-05-9.40630E-14-2.82096E-13
 -1      3202 1.99999E+01-2.56076E-04-8.09139E-07-2.88457E-05 9.51269E-14-4.10506E-13
 -1      3203 1.99999E+01-2.56129E-04-7.94610E-07 2.98144E-05-1.10709E-13-1.76467E-13
 -1      3204 2.75109E+01 6.57273E+00-1.51351E-01-3.27472E-01 1.01982E-12-6.36598E-13
 -1      3205 2.76485E+01 5.71721E+00-8.87493E-02-1.04607E+00 9.54598E-13-8.17398E-13
 -1      3206 2.81271E+01 3.92097E+00-9.35173E-02 2.07342E+00 4.37754E-13-7.58837E-14
 -1      3207 2.79420E+01-2.53919E+00-2.82109E-02 1.54934E+00-1.16849E-13-9.21360E-13
 -1      3208 2.68416E+01-3.02253E+00 2.28715E-03 2.16892E+00-3.17872E-13-8.74814E-13
 -1      3209 2.77282E+01-1.63728E+00-2.92747E-02 3.07903E-01 1.22784E-14-1.07342E-12
 -1      3210 2.41430E+01-3.91099E+00 3.68720E-02 4.83419E+00-6.21066E-13-5.83797E-13
 -1      3211 1.18028E+01 1.94469E+00 3.16556E-02 2.06615E+00-4.53923E-13 3.58519E-13
 -1      3212 1.03163E+01 2.10660E+00 1.64041E-01 1.20599E+00-3.52264E-13 4.87707E-13
 -1      3213 1.14347E+01 2.36960E+00 8.76333E-02-1.35114E-01-1.24553E-13 3.35967E-13
 -1      3214 1.83133E+01-2.54053E+00 1.22322E-01 6.53794E+00-8.10997E-13-6.38170E-14
 -1      3215 1.64544E+01-1.70209E+00 2.37351E-02 6.24324E+00-8.49640E-13 1.09308E-13
 -1      3216 2.66523E+01 6.59471E+00-1.10979E-01 5.77954E-01 9.65783E-13-4.68478E-13
 -1      3217 2.71785E+01 6.70721E+00-1.13925E-01 8.75707E-02 9.96619E-13-5.71307E-13
 -1      3218 2.62074E+01 5.87662E+00-5.98100E-02-2.40102E-01 8.82884E-13-5.72464E-13
 -1      3219 2.25936E+01 3.16178E+00 2.66837E-03 1.57677E+00 5.55059E-13-3.22344E-13
 -1      3220 2.17342E+01 2.58529E+00-1.92354E-03 1.10714E+00 5.53052E-13-2.65412E-13
 -1      3221 2.12903E+01 2.28338E+00 7.13543E-03 1.23312E+00 5.84051E-13-2.48756E-13
 -1      3222 2.09344E+01 8.26725E-01 1.26872E-02-1.23929E+00 3.09691E-13-4.21451E-13
 -1      3223 2.14270E+01 1.15989E+00-1.04570E-03-1.17181E+00 3.69327E-13-3.97539E-13
 -1      3224 2.09693E+01 5.11852E-01-1.07211E-02-1.37954E+00 2.53508E-13-4.37143E-13
 -1      3225 2.15564E+01-1.80981E-01 5.75130E-03-1.42469E+00 1.36851E-13-4.72159E-13
 -1      3226 2.10685E+01-4.52921E-02-8.22114E-03-1.44679E+00 1.54810E-13-4.57134E-13
 -1      3227 2.10319E+01 2.23663E-01 8.29663E-03-1.43767E+00 2.02911E-13-4.56591E-13
 -1      3228 1.99998E+01-1.47592E-04-2.62721E-07-1.93351E-04-4.86737E-13 1.10344E-13
 -1      3229 1.99998E+01-1.58838E-04-1.15749E-06-2.19919E-04-5.04060E-13 4.94163E-14
 -1      3230 1.99998E+01-1.89230E-04 1.13563E-06-2.34276E-04-4.41229E-13 1.78360E-13
 -1      3231 1.99998E+01-1.79659E-04 1.28254E-06-1.86345E-04-4.14242E-13-2.27271E-13
 -1      3232 2.78288E+01 1.07636E+00-8.75800E-02-1.22299E+00 4.39634E-13-1.10550E-12
 -1      3233 2.74716E+01 9.38817E-02-5.60570E-02-8.52705E-01 2.84973E-13-1.09251E-12
 -1      3234 2.67463E+01 1.89732E+00-1.79591E-02-1.57975E+00 4.58231E-13-9.27973E-13
 -1      3235 1.99998E+01-1.44117E-04-9.24808E-10 1.51472E-04-1.33582E-13 5.17924E-13
 -1      3236 1.99998E+01-1.58481E-04 7.70529E-07 1.44610E-04-1.45409E-13 7.00122E-13
 -1      3237 1.99998E+01-1.82873E-04-3.38981E-07 1.56949E-04-3.26560E-13 4.90508E-13
 -1      3238 1.99998E+01-1.53610E-04-1.21635E-07 1.71476E-04-3.03974E-13 6.42617E-13
 -1      3239 2.66863E+01 4.25633E+00-6.17661E-02-1.28465E+00 7.29444E-13-7.75824E-13
 -1      3240 1.99443E+01-2.95720E+00 3.95397E-02 5.97532E+00-7.77288E-13-2.26517E-13
 -1      3241 1.29228E+01 2.09016E-01 1.02880E-01 4.97532E+00-7.88352E-13 4.39385E-13
 -1      3242 2.79430E+01 5.65746E+00-1.01600E-01 2.02465E+00 7.90215E-13-1.61326E-13
 -1      3243 2.85327E+01 6.53346E+00-1.23564E-01 1.80789E+00 9.46715E-13-2.60354E-13
 -1      3244 2.74086E+01 6.64945E+00-8.58504E-02 1.53743E+00 9.40512E-13-2.82097E-13
 -1      3245 2.61379E+01 3.99081E+00-6.13821E-02 2.33268E+00 4.58196E-13-1.77025E-13
 -1      3246 2.72108E+01 3.74726E+00-5.09906E-02 2.14431E+00 3.79179E-13-1.14075E-13
 -1      3247 2.77854E+01 4.86917E+00-7.63913E-02 2.26531E+00 6.08333E-13-1.02918E-13
 -1      3248 2.56749E+01 4.53964E+00-2.17880E-02 2.21689E+00 5.35298E-13-2.00701E-13
 -1      3249 1.29634E+01 2.28371E+00 4.54249E-02-2.16589E+00 6.37858E-15 2.04080E-13
 -1      3250 1.28638E+01 2.48215E+00 9.15224E-02-1.09719E+00-1.13277E-13 1.70849E-13
 -1      3251 1.57036E+01 2.44239E+00 6.22866E-02-7.46371E-01-1.43012E-13-7.31613E-14
 -1      3252 1.50572E+01-3.71869E-01 1.20550E-01 5.50816E+00-8.63341E-13 2.93224E-13
 -1      3253 1.33820E+01 8.31838E-01 2.83601E-02 4.08524E+00-6.86146E-13 3.57013E-13
 -1      3254 2.20911E+01 2.89542E+00 2.28659E-03 8.67232E-01 5.50051E-13-2.95030E-13
 -1      3255 2.23285E+01 3.07304E+00 4.29093E-03 1.21976E+00 5.73749E-13-3.16989E-13
 -1      3256 2.29415E+01 3.46271E+00-4.22689E-03 1.34410E+00 5.46314E-13-3.66306E-13
 -1      3257 1.17022E+01 1.57706E+00 1.43786E-01-2.86578E+00 2.24775E-13 4.93605E-13
 -1      3258 2.57414E+01 4.65177E+00-8.46305E-02-9.96659E-01 7.47694E-13-6.71550E-13
 -1      3259 2.58889E+01 3.33418E+00-3.75833E-02-1.44476E+00 5.93310E-13-8.07418E-13
 -1      3260 1.78813E+01 1.54356E+00-1.89961E-02-2.52058E-01-1.31036E-13-7.40443E-14
 -1      3261 1.83248E+01 1.34935E+00-9.28491E-03-2.51987E-01-1.31671E-13-5.34473E-14
 -1      3262 1.86800E+01 1.16385E+00-1.20814E-02-3.11196E-01-1.43764E-13-1.13340E-13
 -1      3263 1.89582E+01 9.99010E-01-6.83392E-03-2.85902E-01-1.54812E-13-8.86821E-14
 -1      3264 1.84295E+01 1.27054E+00 1.95725E-02 2.63788E-02-1.57063E-13 2.52136E-14
 -1      3265 1.91937E+01 8.49522E-01-7.09558E-03-3.06089E-01-8.95565E-14-9.75447E-14
 -1      3266 1.93642E+01 7.20049E-01-4.99412E-03-2.71064E-01-1.35840E-13-5.83483E-14
 -1      3267 1.89991E+01 9.53220E-01 1.30727E-02-9.85656E-02-1.15255E-13-1.60083E-13
 -1      3268 1.95181E+01 6.06759E-01-3.95241E-03-2.70315E-01-1.28313E-13-2.50764E-14
 -1      3269 1.96201E+01 5.09970E-01-3.61248E-03-2.34640E-01-1.12348E-13-2.79053E-14
 -1      3270 1.93728E+01 6.96319E-01 8.62659E-03-1.46353E-01-1.00819E-13-1.16583E-13
 -1      3271 1.97191E+01 4.27359E-01-2.06574E-03-2.24160E-01-2.72448E-13-6.70874E-14
 -1      3272 1.97785E+01 3.57279E-01-2.57200E-03-1.92269E-01-3.20361E-13-2.48627E-14
 -1      3273 1.96138E+01 4.99646E-01 5.59383E-03-1.52527E-01-2.49365E-13-1.07552E-13
 -1      3274 1.98412E+01 2.98531E-01-9.80447E-04-1.78423E-01-2.52746E-13 3.22269E-14
 -1      3275 1.98748E+01 2.48816E-01-1.80513E-03-1.51860E-01-2.03424E-13 4.99177E-14
 -1      3276 1.97668E+01 3.54447E-01 3.55763E-03-1.38722E-01-2.99084E-13-5.67929E-14
 -1      3277 1.99140E+01 2.07666E-01-3.82066E-04-1.37953E-01-2.42143E-13 7.22511E-14
 -1      3278 1.99321E+01 1.72820E-01-1.25145E-03-1.16765E-01-1.49402E-13-4.34623E-14
 -1      3279 1.98623E+01 2.49770E-01 2.22013E-03-1.17196E-01-2.24243E-13-5.48438E-14
 -1      3280 1.99562E+01 1.44240E-01-7.12015E-05-1.04328E-01-1.13151E-14 2.84312E-14
 -1      3281 1.99655E+01 1.19978E-01-8.57935E-04-8.79016E-02 6.82734E-14 7.64196E-14
 -1      3282 1.99209E+01 1.75401E-01 1.36455E-03-9.44581E-02-5.53060E-14 4.30513E-14
 -1      3283 1.99801E+01 1.00211E-01 7.53303E-05-7.74595E-02 6.34249E-14 1.33338E-13
 -1      3284 1.99844E+01 8.33588E-02-5.84550E-04-6.49653E-02 6.75332E-14 5.47066E-14
 -1      3285 1.99564E+01 1.23006E-01 8.21819E-04-7.36136E-02 1.41025E-13 4.33018E-14
 -1      3286 1.99931E+01 6.96844E-02 1.32859E-04-5.65383E-02 1.87577E-14 3.47336E-14
 -1      3287 1.99947E+01 5.79646E-02-3.96906E-04-4.71692E-02 6.00745E-14-6.38763E-15
 -1      3288 1.99774E+01 8.62450E-02 4.84701E-04-5.58425E-02-1.10440E-14-3.97305E-14
 -1      3289 1.99998E+01 4.84783E-02 1.44151E-04-4.05591E-02 3.96675E-14 2.87822E-14
 -1      3290 2.00000E+01 4.03013E-02-2.68886E-04-3.36146E-02 4.53289E-14-8.47095E-14
 -1      3291 1.99896E+01 6.04526E-02 2.78473E-04-4.13635E-02 3.05180E-15 1.45924E-14
 -1      3292 2.00028E+01 3.36916E-02 1.33563E-04-2.85438E-02-8.87453E-15-1.23570E-13
 -1      3293 2.00024E+01 2.79619E-02-1.81824E-04-2.34512E-02-1.03781E-13-1.72195E-13
 -1      3294 1.99964E+01 4.23161E-02 1.54402E-04-2.99370E-02-3.86915E-14-8.15070E-14
 -1      3295 2.00039E+01 2.33340E-02 1.14292E-04-1.96350E-02-1.66408E-13-2.19621E-13
 -1      3296 2.00033E+01 1.93023E-02-1.22659E-04-1.59415E-02-8.50398E-14-2.61189E-13
 -1      3297 2.00000E+01 2.95205E-02 8.11753E-05-2.11393E-02-1.86305E-13-1.09964E-13
 -1      3298 2.00041E+01 1.60481E-02 9.31240E-05-1.31213E-02-1.13948E-15-3.58683E-13
 -1      3299 2.00034E+01 1.32023E-02-8.23948E-05-1.04759E-02 4.00236E-14-3.37915E-13
 -1      3300 2.00018E+01 2.04622E-02 3.89386E-05-1.45075E-02-1.52081E-13-2.76718E-13
 -1      3301 2.00037E+01 1.09079E-02 7.32987E-05-8.43044E-03 1.83344E-14-2.93773E-13
 -1      3302 2.00031E+01 8.89718E-03-5.49206E-05-6.56420E-03-3.60796E-14-2.86188E-13
 -1      3303 2.00025E+01 1.40341E-02 1.52950E-05-9.60705E-03-5.02479E-14-3.17036E-13
 -1      3304 2.00032E+01 7.27952E-03 5.61456E-05-5.11147E-03-2.59077E-14-4.03396E-13
 -1      3305 2.00026E+01 5.86164E-03-3.61249E-05-3.81980E-03-7.29393E-14-3.08526E-13
 -1      3306 2.00027E+01 9.47038E-03 2.61846E-06-6.05940E-03-9.94670E-14-3.52442E-13
 -1      3307 2.00026E+01 4.72498E-03 4.20021E-05-2.81325E-03-8.11751E-14-2.47773E-13
 -1      3308 2.00022E+01 3.73104E-03-2.32515E-05-1.94128E-03 1.71380E-14-2.33457E-13
 -1      3309 2.00025E+01 6.23791E-03-3.71588E-06-3.54864E-03-5.94319E-14-2.16282E-13
 -1      3310 2.00020E+01 2.93856E-03 3.07224E-05-1.26527E-03 2.31979E-14-2.87171E-13
 -1      3311 2.00017E+01 2.24921E-03-1.44493E-05-6.96345E-04 1.87875E-14-2.81757E-13
 -1      3312 2.00022E+01 3.96211E-03-6.47281E-06-1.81867E-03-5.20337E-14-3.72602E-13
 -1      3313 2.00016E+01 1.70398E-03 2.19548E-05-2.60960E-04-1.35561E-13-2.91183E-13
 -1      3314 2.00013E+01 1.23384E-03-8.46730E-06 9.23258E-05-2.23610E-13-3.06410E-13
 -1      3315 2.00019E+01 2.37665E-03-7.27991E-06-6.66289E-04-8.47938E-14-3.67701E-13
 -1      3316 2.00012E+01 8.66265E-04 1.52862E-05 3.55995E-04-7.18607E-14-9.73458E-14
 -1      3317 2.00010E+01 5.53566E-04-4.45087E-06 5.58673E-04 1.15889E-13-1.52437E-13
 -1      3318 2.00016E+01 1.28997E-03-7.07902E-06 6.68230E-05 9.75430E-15-1.81431E-13
 -1      3319 2.00009E+01 3.13152E-04 1.03147E-05 7.02691E-04 3.05100E-13-1.81287E-13
 -1      3320 2.00007E+01 1.12790E-04-1.80919E-06 8.02719E-04 3.07639E-13 7.09232E-15
 -1      3321 2.00012E+01 5.62767E-04-6.40408E-06 5.02074E-04 1.87310E-13-1.24523E-13
 -1      3322 2.00006E+01-3.73753E-05 6.68178E-06 8.65830E-04 6.43528E-14 9.88178E-14
 -1      3323 2.00005E+01-1.58493E-04-1.28513E-07 8.98168E-04 3.84655E-14 2.76753E-13
 -1      3324 2.00010E+01 9.29729E-05-5.54989E-06 7.31082E-04 2.68269E-13-1.54688E-13
 -1      3325 2.00004E+01-2.45502E-04 4.08315E-06 9.08727E-04-9.31646E-14 3.12767E-13
 -1      3326 2.00003E+01-3.11685E-04 8.84187E-07 8.98489E-04-4.87457E-14 2.11721E-13
 -1      3327 2.00007E+01-1.94574E-04-4.67312E-06 8.21849E-04 5.37031E-16 4.73100E-14
 -1      3328 2.00002E+01-3.55408E-04 2.26905E-06 8.76845E-04-1.75962E-13 1.67136E-13
 -1      3329 2.00002E+01-3.84457E-04 1.43822E-06 8.41738E-04-1.19684E-13 7.90996E-14
 -1      3330 2.00005E+01-3.55249E-04-3.85195E-06 8.23945E-04-1.48759E-13 6.31449E-14
 -1      3331 2.00001E+01-3.99393E-04 1.03944E-06 8.02157E-04 3.96702E-14 1.28397E-13
 -1      3332 2.00001E+01-4.04244E-04 1.68408E-06 7.54366E-04 1.99620E-14 2.51101E-13
 -1      3333 2.00004E+01-4.29712E-04-3.12067E-06 7.72749E-04-1.04191E-14 2.10722E-13
 -1      3334 2.00000E+01-4.00876E-04 2.37725E-07 7.06566E-04-1.26193E-13 2.31713E-13
 -1      3335 2.00000E+01-3.90827E-04 1.72913E-06 6.54207E-04-6.46979E-14 1.19165E-13
 -1      3336 2.00002E+01-4.47590E-04-2.48985E-06 6.92899E-04 3.06719E-14 2.60786E-13
 -1      3337 2.00000E+01-3.76643E-04-2.55775E-07 6.04555E-04-8.74634E-14 1.70221E-13
 -1      3338 1.99999E+01-3.58283E-04 1.64592E-06 5.52783E-04-5.67686E-14 1.80399E-13
 -1      3339 2.00001E+01-4.30248E-04-1.96059E-06 6.01023E-04-1.31819E-13 2.17657E-13
 -1      3340 1.99999E+01-3.38542E-04-5.34839E-07 5.05188E-04-3.75645E-15 1.52606E-13
 -1      3341 1.99999E+01-3.16422E-04 1.48711E-06 4.57029E-04-1.07328E-13 2.33674E-13
 -1      3342 2.00000E+01-3.92883E-04-1.53052E-06 5.07855E-04 1.61009E-14 6.26687E-14
 -1      3343 1.99999E+01-2.94661E-04-6.69074E-07 4.13666E-04 1.09042E-13 4.21170E-13
 -1      3344 1.99999E+01-2.71754E-04 1.31390E-06 3.70692E-04 2.87836E-13 5.57964E-13
 -1      3345 2.00000E+01-3.46010E-04-1.19029E-06 4.19805E-04 1.47902E-13 3.01453E-13
 -1      3346 1.99998E+01-2.50403E-04-6.86402E-07 3.32803E-04 1.77491E-13 6.06291E-13
 -1      3347 1.99998E+01-2.28990E-04 1.19593E-06 2.95672E-04 1.13811E-13 7.32617E-13
 -1      3348 1.99999E+01-2.96668E-04-9.66753E-07 3.40512E-04 2.26456E-13 4.47123E-13
 -1      3349 1.99998E+01-2.09462E-04-6.68653E-07 2.62900E-04 2.12842E-13 7.23223E-13
 -1      3350 1.99998E+01-1.90823E-04 7.78978E-07 2.31454E-04 2.51216E-13 7.01297E-13
 -1      3351 1.99999E+01-2.50284E-04-8.80052E-07 2.71356E-04 2.19266E-13 6.08335E-13
 -1      3352 1.99999E+01-2.22795E-04 5.11147E-08 1.53535E-04-8.20911E-15 4.10131E-13
 -1      3353 1.99999E+01-2.38681E-04 1.02250E-06 1.34998E-04-1.46795E-13 2.76054E-13
 -1      3354 2.18260E+01-8.31332E-01 9.04192E-04-1.01462E+00 3.17037E-15-4.65737E-13
 -1      3355 2.18990E+01-6.78718E-01-2.02960E-03-1.16289E+00 6.14473E-14-4.82316E-13
 -1      3356 2.05933E+01-5.31302E-01 5.50698E-03-2.85437E-02-1.01531E-13-3.30623E-13
 -1      3357 2.06876E+01-6.24216E-01-1.88157E-03-9.36430E-02-1.48224E-13-3.12318E-13
 -1      3358 2.08600E+01-7.12135E-01 6.68858E-03-1.63628E-01-1.98929E-13-3.13645E-13
 -1      3359 2.09708E+01-8.00415E-01-3.30110E-03-2.60805E-01-1.71760E-13-3.64855E-13
 -1      3360 2.08491E+01-7.44211E-01-6.09240E-03-8.48117E-03-1.28503E-13-3.68406E-13
 -1      3361 2.02418E+01-2.30694E-01 2.84330E-03 8.48631E-02 1.89005E-14-3.44674E-13
 -1      3362 2.02960E+01-2.94911E-01-1.21142E-04 6.36793E-02 1.15714E-14-3.25559E-13
 -1      3363 2.01422E+01-1.30722E-01 1.83963E-03 9.64229E-02-8.73555E-14-2.90025E-13
 -1      3364 2.01798E+01-1.77258E-01 2.20378E-04 8.74033E-02-4.24567E-14-3.51029E-13
 -1      3365 2.02070E+01-2.18865E-01-3.15999E-03 1.32734E-01 1.18411E-14-3.55459E-13
 -1      3366 2.00782E+01-6.19019E-02 1.10619E-03 9.35658E-02-1.81613E-13-2.55151E-13
 -1      3367 2.01030E+01-9.31940E-02 3.54320E-04 9.20210E-02-1.56014E-13-2.89811E-13
 -1      3368 2.01129E+01-1.17621E-01-2.18601E-03 1.24499E-01-1.07398E-13-2.13176E-13
 -1      3369 2.00393E+01-1.80140E-02 6.09405E-04 8.34461E-02-1.16825E-13-1.74880E-13
 -1      3370 2.00550E+01-3.74611E-02 3.74652E-04 8.60735E-02-1.47019E-13-2.23682E-13
 -1      3371 2.00551E+01-4.98147E-02-1.42566E-03 1.08438E-01-1.92647E-13-2.18954E-13
 -1      3372 2.00171E+01 7.55346E-03 2.90843E-04 7.04732E-02-2.17944E-13-1.25811E-13
 -1      3373 2.00266E+01-3.38552E-03 3.38362E-04 7.51183E-02-1.41642E-13-2.02646E-13
 -1      3374 2.00219E+01-7.85236E-03-8.78337E-04 9.00682E-02-1.51795E-13-2.16279E-13
 -1      3375 2.00054E+01 2.05194E-02 9.75396E-05 5.71633E-02-1.29494E-14-1.48162E-13
 -1      3376 2.00109E+01 1.53175E-02 2.84386E-04 6.24881E-02-1.52367E-13-1.77570E-13
 -1      3377 2.00044E+01 1.56191E-02-5.13337E-04 7.22757E-02-1.33675E-13-2.41981E-13
 -1      3378 2.00000E+01 2.53658E-02-9.95954E-06 4.48689E-02 7.28699E-14-2.53042E-13
 -1      3379 2.00030E+01 2.37772E-02 2.30568E-04 5.00863E-02 7.75243E-14-1.93604E-13
 -1      3380 1.99964E+01 2.66798E-02-2.76420E-04 5.64068E-02 8.69050E-14-2.42560E-13
 -1      3381 1.99980E+01 2.53872E-02-6.23348E-05 3.42095E-02-1.45381E-13-1.93575E-13
 -1      3382 1.99996E+01 2.58834E-02 1.82557E-04 3.89070E-02-7.58849E-15-1.93737E-13
 -1      3383 1.99937E+01 2.99327E-02-1.32819E-04 4.29721E-02 1.48363E-14-1.84465E-13
 -1      3384 1.99978E+01 2.28468E-02-8.14433E-05 2.53618E-02-2.47480E-14-2.51359E-13
 -1      3385 1.99986E+01 2.43977E-02 1.42789E-04 2.93631E-02-1.05016E-13-2.77533E-13
 -1      3386 1.99939E+01 2.86934E-02-5.13483E-05 3.19970E-02-3.69226E-14-2.28227E-13
 -1      3387 1.99984E+01 1.92070E-02-8.19039E-05 1.82607E-02-6.36052E-15-2.61251E-13
 -1      3388 1.99988E+01 2.11602E-02 1.10948E-04 2.15311E-02-2.76262E-14-2.46922E-13
 -1      3389 1.99951E+01 2.51905E-02-8.97014E-06 2.32701E-02-7.09860E-14-2.25822E-13
 -1      3390 1.99991E+01 1.53499E-02-7.30236E-05 1.27217E-02 7.37429E-14-2.73179E-13
 -1      3391 1.99993E+01 1.73214E-02 8.57823E-05 1.53055E-02 4.65692E-14-4.01823E-13
 -1      3392 1.99967E+01 2.08340E-02 1.01170E-05 1.64868E-02 1.05640E-13-3.21896E-13
 -1      3393 1.99998E+01 1.17609E-02-6.04440E-05 8.51278E-03 1.52619E-13-2.29777E-13
 -1      3394 1.99999E+01 1.35471E-02 6.59675E-05 1.04934E-02 1.01433E-13-1.77765E-13
 -1      3395 1.99982E+01 1.64534E-02 1.62393E-05 1.13234E-02 5.73768E-14-3.46663E-13
 -1      3396 2.00003E+01 8.66774E-03-4.73719E-05 5.39640E-03-4.27282E-15-8.42804E-14
 -1      3397 2.00004E+01 1.01803E-02 5.03696E-05 6.87098E-03 3.13308E-14-1.00376E-13
 -1      3398 1.99994E+01 1.24882E-02 1.58186E-05 7.47373E-03 5.82644E-14-2.87252E-13
 -1      3399 2.00006E+01 6.14061E-03-3.54590E-05 3.15135E-03 2.95974E-14 1.15062E-13
 -1      3400 2.00007E+01 7.36015E-03 3.80935E-05 4.21653E-03 1.31917E-14 2.73412E-14
 -1      3401 2.00002E+01 9.12875E-03 1.26303E-05 4.66606E-03-6.82025E-14 6.17305E-15
 -1      3402 2.00008E+01 4.16090E-03-2.54075E-05 1.58353E-03-3.71528E-14 1.78833E-13
 -1      3403 2.00009E+01 5.10589E-03 2.84521E-05 2.32747E-03 2.73209E-14 1.59114E-13
 -1      3404 2.00007E+01 6.41644E-03 8.74047E-06 2.66845E-03-3.62764E-14 3.45551E-13
 -1      3405 2.00008E+01 2.66554E-03-1.73733E-05 5.29424E-04 5.32372E-14 1.90938E-13
 -1      3406 2.00009E+01 3.37227E-03 2.09173E-05 1.02824E-03 2.65692E-14 1.21285E-13
 -1      3407 2.00010E+01 4.31051E-03 5.16493E-06 1.28860E-03 2.78825E-14 9.85429E-14
 -1      3408 2.00008E+01 1.57452E-03-1.12236E-05-1.44418E-04 2.79882E-13 1.72798E-13
 -1      3409 2.00009E+01 2.08507E-03 1.50759E-05 1.72387E-04 1.29766E-13 1.49986E-13
 -1      3410 2.00011E+01 2.73136E-03 2.30902E-06 3.70667E-04 1.34650E-13 1.50116E-14
 -1      3411 2.00007E+01 8.06737E-04-6.69499E-06-5.44036E-04 3.60300E-13 2.39341E-13
 -1      3412 2.00008E+01 1.16215E-03 1.05974E-05-3.58578E-04 4.33364E-13 1.81210E-13
 -1      3413 2.00010E+01 1.58669E-03 2.48971E-07-2.09137E-04 2.85952E-13 4.82768E-14
 -1      3414 2.00006E+01 2.88355E-04-3.48602E-06-7.51696E-04 2.57752E-13 2.00492E-13
 -1      3415 2.00007E+01 5.25177E-04 7.21187E-06-6.58036E-04 3.73745E-13 2.58581E-13
 -1      3416 2.00010E+01 7.86405E-04-1.09721E-06-5.47301E-04 3.65629E-13 3.03351E-13
 -1      3417 2.00005E+01-4.36656E-05-1.30692E-06-8.29763E-04 1.01858E-13 3.71096E-14
 -1      3418 2.00005E+01 1.05311E-04 4.69605E-06-7.97825E-04 2.01096E-13 1.10000E-13
 -1      3419 2.00008E+01 2.50050E-04-1.87153E-06-7.17648E-04 3.05439E-13 1.69255E-13
 -1      3420 2.00003E+01-2.40721E-04 9.67392E-08-8.24422E-04 1.69466E-13-1.05348E-13
 -1      3421 2.00004E+01-1.54795E-04 2.86471E-06-8.31915E-04 6.37129E-14-2.17753E-14
 -1      3422 2.00007E+01-9.01910E-05-2.22366E-06-7.75583E-04 1.30373E-13-8.27679E-14
 -1      3423 2.00002E+01-3.43247E-04 9.35917E-07-7.69028E-04 3.57885E-13-3.39971E-13
 -1      3424 2.00003E+01-3.01040E-04 1.56463E-06-7.99872E-04 2.67774E-13-1.40571E-13
 -1      3425 2.00005E+01-2.89149E-04-2.28621E-06-7.61821E-04 3.64369E-13-1.68093E-13
 -1      3426 2.00001E+01-3.82115E-04 1.37852E-06-6.86985E-04 1.89684E-13-5.96126E-13
 -1      3427 2.00002E+01-3.68983E-04 6.70395E-07-7.29935E-04 2.45903E-13-5.25049E-13
 -1      3428 2.00004E+01-3.89696E-04-2.16562E-06-7.05590E-04 3.96129E-13-2.37817E-13
 -1      3429 2.00001E+01-3.80266E-04 1.55251E-06-5.94155E-04-3.16914E-13-3.27844E-13
 -1      3430 2.00001E+01-3.85404E-04 8.13893E-08-6.41633E-04-6.01145E-14-5.36810E-13
 -1      3431 2.00003E+01-4.24406E-04-1.94169E-06-6.27294E-04-4.17374E-14-2.33583E-13
 -1      3432 2.00000E+01-3.54303E-04 1.55304E-06-5.00778E-04-3.79474E-13-2.54904E-13
 -1      3433 2.00000E+01-3.69954E-04-2.82109E-07-5.47938E-04-4.14629E-13-4.16687E-13
 -1      3434 2.00002E+01-4.17401E-04-1.67270E-06-5.40684E-04-3.80985E-13-2.24729E-13
 -1      3435 1.99999E+01-3.15869E-04 1.45374E-06-4.13024E-04-1.25599E-13-1.26597E-13
 -1      3436 1.99999E+01-3.36646E-04-4.88300E-07-4.56984E-04-2.27407E-13-2.25988E-13
 -1      3437 2.00001E+01-3.86040E-04-1.39306E-06-4.54563E-04-2.84424E-13-1.93585E-13
 -1      3438 1.99999E+01-2.73012E-04 1.28298E-06-3.34266E-04-6.62413E-14 1.09316E-13
 -1      3439 1.99999E+01-2.95189E-04-5.92740E-07-3.73520E-04-8.26079E-14-3.91516E-14
 -1      3440 2.00000E+01-3.42425E-04-1.12768E-06-3.74206E-04-2.79875E-13-1.84519E-13
 -1      3441 1.99999E+01-2.31867E-04 3.49057E-07-2.66190E-04-5.58241E-14 5.77135E-14
 -1      3442 1.99999E+01-2.51894E-04-5.33641E-07-3.00027E-04 2.97477E-14 1.01953E-13
 -1      3443 1.99999E+01-2.94655E-04-8.02695E-07-3.02726E-04 1.61911E-14-6.48197E-14
 -1      3444 2.35979E+01 4.01291E+00-4.01928E-03 1.47969E+00 5.59011E-13-3.76066E-13
 -1      3445 2.43590E+01 4.41072E+00-1.14865E-02 1.62235E+00 5.69342E-13-3.27789E-13
 -1      3446 2.33254E+01 3.88844E+00-1.96423E-02 1.11910E+00 5.63347E-13-3.55756E-13
 -1      3447 1.99999E+01-2.65159E-04 7.55759E-07-8.10123E-05 1.67154E-14-6.47541E-13
 -1      3448 1.99999E+01-2.54886E-04 1.30698E-07-1.07330E-04-7.40040E-14-4.25486E-13
 -1      3449 1.99999E+01-2.55596E-04-9.02736E-08 1.07828E-04-2.15664E-13 6.16589E-14
 -1      3450 1.99999E+01-2.65752E-04 6.51787E-07 8.21246E-05-2.62925E-13 5.53290E-15
 -1      3451 1.99999E+01-2.68609E-04-9.09403E-07 1.35373E-04-1.85574E-13 2.70734E-13
 -1      3452 2.17877E+01-3.33763E+00 4.46850E-02 5.35415E+00-7.41580E-13-4.35735E-13
 -1      3453 2.01468E+01-2.65150E+00 7.64041E-04 5.40211E+00-7.67896E-13-2.80817E-13
 -1      3454 1.67614E+01-9.70489E-01 3.30150E-02 5.29755E+00-8.76306E-13 9.62425E-14
 -1      3455 1.33397E+01 2.49035E+00-3.01006E-03 6.35964E-03-2.73915E-13 1.10412E-13
 -1      3456 2.03886E+01-3.65310E-01 4.10894E-03 4.81782E-02-5.68389E-14-3.32482E-13
 -1      3457 2.04625E+01-4.46912E-01-7.93716E-04 8.65400E-03-7.36859E-14-3.51870E-13
 -1      3458 2.05617E+01-5.38631E-01-5.41575E-03 8.35854E-02-8.23785E-14-3.21377E-13
 -1      3459 2.03516E+01-3.59256E-01-4.30244E-03 1.23890E-01-3.03307E-14-3.96818E-13
 -1      3460 2.68982E+01 5.38379E+00-6.32642E-02 2.17113E+00 6.78180E-13-1.56292E-13
 -1      3461 1.66739E+01 1.95250E+00-2.16918E-02-7.74051E-02-9.52754E-14 5.97365E-14
 -1      3462 1.73527E+01 1.74838E+00-1.22740E-02-1.27983E-01-7.62420E-14-3.56750E-14
 -1      3463 1.75763E+01 1.62863E+00 3.01445E-02 2.81867E-01-1.56818E-13 1.52628E-13
 -1      3464 2.49485E+01 4.82059E+00-3.42301E-02 1.82199E+00 6.25645E-13-2.84918E-13
 -1      3465 2.59998E+01 5.04169E+00-5.50594E-02 1.99431E+00 6.13794E-13-1.95816E-13
 -1      3466 2.61782E+01 5.64542E+00-7.51916E-02 1.76513E+00 7.19286E-13-2.44424E-13
 -1      3467 2.46220E+01 4.92009E+00-2.04249E-02 1.43473E+00 6.50178E-13-3.13291E-13
 -1      3468 1.49518E+01 2.31813E+00 4.33261E-03 1.43731E-01-2.38642E-13 1.05526E-13
 -1      3469 1.58624E+01 2.13395E+00-1.96890E-02 8.27162E-02-1.26883E-13 6.39939E-14
 -1      3470 1.62934E+01 2.00191E+00 5.09543E-02 6.97835E-01-1.72552E-13 1.97792E-13
 -1      3471 2.56153E+01-3.72919E+00-4.01319E-02 3.39252E+00-5.00020E-13-7.48283E-13
 -1      3472 2.34372E+01-3.67658E+00 1.14603E-02 4.63305E+00-6.45373E-13-5.81704E-13
 -1      3473 2.35152E+01-3.27381E+00 3.87017E-02 3.97637E+00-6.13730E-13-5.77482E-13
 -1      3474 2.62613E+01-2.99824E+00 2.83715E-02 2.01363E+00-3.97066E-13-8.61190E-13
 -1      3475 1.31977E+01 1.60730E+00 1.43934E-01 3.15760E+00-5.32404E-13 3.64875E-13
 -1      3476 1.32074E+01 1.96348E+00 4.50996E-02 1.98057E+00-3.80689E-13 2.67220E-13
 -1      3477 1.46046E+01 8.03007E-01-3.39756E-02 3.75383E+00-5.91379E-13 2.30517E-13
 -1      3478 1.99999E+01-2.72913E-04-9.84771E-07-1.29314E-04-2.43123E-15-4.33121E-13
 -1      3479 1.99999E+01-2.43369E-04 5.91857E-07-1.30025E-04-1.21069E-13-3.26911E-13
 -1      3480 1.99999E+01-2.32436E-04 3.11077E-08-1.46340E-04-9.24978E-14-4.26082E-13
 -1      3481 2.50979E+01 5.22155E+00-4.68983E-02-2.13145E-01 7.71820E-13-5.25823E-13
 -1      3482 2.54638E+01 4.99113E+00-5.69079E-02-6.86482E-01 7.78162E-13-6.12017E-13
 -1      3483 2.47946E+01 4.02355E+00-3.17070E-02-8.83585E-01 6.31890E-13-6.18434E-13
 -1      3484 2.15287E+01 4.38909E-01 4.38459E-03-1.45506E+00 2.50975E-13-5.05839E-13
 -1      3485 2.19705E+01 1.13181E+00-1.72362E-02-1.33498E+00 3.76210E-13-3.93783E-13
 -1      3486 2.19555E+01 1.60062E+00 1.43784E-02-1.10676E+00 4.56112E-13-3.53497E-13
 -1      3487 2.15207E+01-9.39947E-01 5.41578E-03-6.66282E-01-9.58242E-14-4.06504E-13
 -1      3488 2.16256E+01-9.15569E-01-4.59293E-03-8.21195E-01-4.57403E-14-4.18437E-13
 -1      3489 2.20649E+01-1.00846E+00 1.24358E-03-7.90982E-01-3.27414E-14-4.57988E-13
 -1      3490 2.05952E+01-2.32179E+00 3.82116E-03 4.66970E+00-7.43457E-13-3.35411E-13
 -1      3491 1.91535E+01-1.79909E+00 1.00567E-01 5.28284E+00-8.22765E-13-1.44999E-13
 -1      3492 1.99999E+01-2.11094E-04 2.88495E-07 1.90373E-04-6.87481E-15 4.23074E-13
 -1      3493 1.99999E+01-2.40295E-04-4.64435E-07 2.01044E-04 6.93613E-14 3.97420E-13
 -1      3494 1.74705E+01-8.25714E-01 1.83132E-02 4.72710E+00-7.61106E-13 7.73270E-14
 -1      3495 2.24120E+01-6.65097E-01 6.40756E-03-1.17650E+00 1.01425E-13-5.12180E-13
 -1      3496 2.20232E+01-4.53208E-01-6.71818E-03-1.34003E+00 1.16866E-13-4.66045E-13
 -1      3497 2.20518E+01-1.41629E-01 3.89018E-03-1.42613E+00 1.56697E-13-4.80083E-13
 -1      3498 2.20025E+01 2.76973E+00-2.39893E-03 3.95654E-01 5.41602E-13-3.06929E-13
 -1      3499 1.39941E+01 2.33179E+00 7.36477E-02 9.24501E-01-3.06614E-13 2.52437E-13
 -1      3500 1.99999E+01-2.26870E-04 1.98287E-07-2.37777E-04-2.61174E-13-3.20401E-14
 -1      3501 2.59272E+01 2.54257E+00-7.72223E-02-1.56673E+00 5.15640E-13-8.37316E-13
 -1      3502 2.59665E+01 1.76198E+00-3.70931E-02-1.51535E+00 4.40731E-13-8.64319E-13
 -1      3503 2.51840E+01 3.18247E+00-1.03228E-02-1.42243E+00 5.51059E-13-8.03646E-13
 -1      3504 2.00000E+01-2.77641E-04 5.73932E-07-1.74921E-05 8.09619E-14-3.28159E-13
 -1      3505 2.00000E+01-2.74332E-04 1.83865E-07-4.73926E-05 8.42852E-14-4.50973E-13
 -1      3506 2.00000E+01-2.92893E-04-8.70187E-07-7.13865E-05 3.80004E-14-4.13809E-13
 -1      3507 2.00000E+01-2.93237E-04-7.78240E-07 7.22452E-05 1.70085E-13-2.17541E-13
 -1      3508 2.00000E+01-2.74228E-04 2.88055E-07 4.81694E-05-9.40178E-15-1.03394E-13
 -1      3509 2.00000E+01-2.77973E-04 4.32161E-07 1.84235E-05 7.84030E-14-4.70911E-13
 -1      3510 2.11794E+01-8.70045E-01 6.94509E-03-3.74301E-01-1.07743E-13-3.70767E-13
 -1      3511 2.12962E+01-9.24070E-01-4.58932E-03-5.05272E-01-6.10232E-14-3.91575E-13
 -1      3512 2.16373E+01-1.06279E+00-3.45344E-03-4.38371E-01-7.58195E-14-4.50468E-13
 -1      3513 2.12145E+01-9.40886E-01-5.66730E-03-1.76173E-01-1.45211E-13-4.30868E-13
 -1      3514 2.24464E+01 2.07730E+00-3.84760E-03-9.76317E-01 4.86827E-13-3.48652E-13
 -1      3515 2.18675E+01 2.01948E+00-1.13121E-02-7.57814E-01 4.94524E-13-3.36303E-13
 -1      3516 2.18769E+01 2.37622E+00 6.36980E-03-3.71126E-01 5.17765E-13-3.37471E-13
 -1      3517 1.99999E+01-1.99085E-04-1.13396E-07-1.75031E-04-2.14287E-13-4.75472E-13
 -1      3518 1.99998E+01-2.05476E-04-1.05321E-06-1.98661E-04-3.99122E-13-2.59668E-13
 -1      3519 1.99999E+01-2.13416E-04 7.06103E-07-1.63307E-04-1.55416E-13-5.99484E-13
 -1      3520 2.62796E+01 5.96108E+00-8.08671E-02 1.41682E+00 7.94947E-13-3.06926E-13
 -1      3521 2.65729E+01 6.42885E+00-9.34382E-02 9.61904E-01 9.03673E-13-4.07401E-13
 -1      3522 2.56999E+01 5.94693E+00-3.80267E-02 5.55458E-01 8.15376E-13-4.66697E-13
 -1      3523 2.54171E+01 5.55087E+00-5.07981E-02 1.30074E+00 7.32355E-13-3.15055E-13
 -1      3524 2.73204E+01-7.62643E-01-4.71422E-02-5.48891E-01 1.98008E-13-1.07835E-12
 -1      3525 2.67636E+01-1.47223E+00-3.44639E-02-1.70415E-02 4.74499E-14-1.00733E-12
 -1      3526 2.65768E+01 2.26828E-01-3.08184E-03-1.18751E+00 2.89779E-13-9.42298E-13
 -1      3527 2.20632E+01 2.30569E-01-1.42312E-02-1.50072E+00 2.06319E-13-4.43804E-13
 -1      3528 2.20554E+01 6.73467E-01 1.16345E-02-1.45512E+00 3.07029E-13-4.21314E-13
 -1      3529 2.25710E+01 1.02953E+00 5.81798E-03-1.44313E+00 3.67218E-13-3.91327E-13
 -1      3530 2.25899E+01 3.40140E-02 8.63601E-03-1.45865E+00 2.26831E-13-4.78800E-13
 -1      3531 2.19957E+01-2.65727E+00 3.35499E-02 4.03620E+00-6.15924E-13-3.89243E-13
 -1      3532 2.07282E+01-2.09297E+00-2.33543E-02 4.05082E+00-6.07630E-13-2.57043E-13
 -1      3533 1.99998E+01-1.96726E-04-4.00617E-07 2.01010E-04-2.82060E-14 4.83050E-13
 -1      3534 1.99998E+01-1.63577E-04-8.28434E-08 1.93180E-04-1.29513E-13 7.03634E-13
 -1      3535 1.99999E+01-2.62197E-04 1.33111E-06 2.28754E-04 1.98138E-13 3.86630E-13
 -1      3536 1.99999E+01-2.74793E-04 6.03420E-08 1.89072E-04 6.73480E-14 3.80138E-13
 -1      3537 1.88319E+01 9.18530E-01-1.25177E-02 1.22301E-01-1.28008E-13-5.67094E-14
 -1      3538 1.90792E+01 8.04137E-01-1.58111E-03 6.60624E-02-8.35095E-14-8.58518E-14
 -1      3539 1.92435E+01 6.93575E-01-7.90047E-03-5.93587E-03-1.28159E-13-1.18928E-13
 -1      3540 1.94039E+01 5.99001E-01-1.63383E-03-2.81475E-02-1.80839E-13-1.19217E-13
 -1      3541 1.91787E+01 7.16128E-01 8.40466E-03 1.88418E-01-1.39943E-13-1.20335E-13
 -1      3542 1.95178E+01 5.11800E-01-4.83706E-03-6.52978E-02-1.74488E-13-2.07398E-13
 -1      3543 1.96200E+01 4.37956E-01-1.47796E-03-6.92062E-02-2.69434E-13-1.42381E-13
 -1      3544 1.94558E+01 5.45264E-01 5.93315E-03 5.85946E-02-2.41873E-13-1.97815E-13
 -1      3545 1.96975E+01 3.72051E-01-2.87900E-03-8.58802E-02-2.68580E-13-1.30798E-15
 -1      3546 1.97615E+01 3.16494E-01-1.24123E-03-8.08829E-02-2.35770E-13 1.92729E-14
 -1      3547 1.96449E+01 4.06405E-01 4.06381E-03-8.66247E-03-1.87635E-13-8.23709E-14
 -1      3548 1.98135E+01 2.68004E-01-1.65233E-03-8.60688E-02-2.03459E-13 4.71540E-14
 -1      3549 1.98528E+01 2.27110E-01-9.89954E-04-7.74932E-02-1.63851E-13 8.05692E-14
 -1      3550 1.97717E+01 2.98871E-01 2.73460E-03-3.90954E-02-2.17338E-13 1.42814E-13
 -1      3551 1.98872E+01 1.91965E-01-9.02636E-04-7.67337E-02-1.34009E-13 1.97056E-14
 -1      3552 1.99110E+01 1.62271E-01-7.57402E-04-6.74531E-02 2.92526E-14 6.03332E-14
 -1      3553 1.98555E+01 2.17826E-01 1.80641E-03-4.88994E-02-1.35699E-13 4.90429E-14
 -1      3554 1.99335E+01 1.37079E-01-4.61045E-04-6.40012E-02 5.77959E-14 4.73908E-14
 -1      3555 1.99476E+01 1.15710E-01-5.66431E-04-5.53702E-02 2.97227E-14 1.77521E-14
 -1      3556 1.99101E+01 1.57811E-01 1.16814E-03-4.80430E-02-2.13346E-14-4.27303E-14
 -1      3557 1.99621E+01 9.77263E-02-2.06455E-04-5.09964E-02 1.02663E-14-1.42743E-13
 -1      3558 1.99702E+01 8.23887E-02-4.17358E-04-4.35758E-02-7.77208E-14-1.05637E-13
 -1      3559 1.99453E+01 1.13940E-01 7.48471E-04-4.22437E-02-3.47340E-14-1.65395E-13
 -1      3560 1.99796E+01 6.95599E-02-6.76460E-05-3.92337E-02-6.20175E-14-3.06747E-14
 -1      3561 1.99841E+01 5.85544E-02-3.03748E-04-3.31552E-02 3.96920E-14-2.39850E-14
 -1      3562 1.99678E+01 8.20078E-02 4.72992E-04-3.47387E-02-6.34938E-14-1.47899E-13
 -1      3563 1.99900E+01 4.93909E-02 3.41262E-06-2.92890E-02-2.52352E-14-5.58550E-14
 -1      3564 1.99924E+01 4.14840E-02-2.18894E-04-2.44756E-02-1.02915E-13-1.17082E-13
 -1      3565 1.99819E+01 5.88173E-02 2.94846E-04-2.72368E-02-3.74745E-14-7.34975E-14
 -1      3566 1.99961E+01 3.49231E-02 3.57788E-05-2.12467E-02-2.14857E-13-1.90734E-13
 -1      3567 1.99972E+01 2.92324E-02-1.56395E-04-1.75345E-02-2.89285E-13-1.71724E-13
 -1      3568 1.99907E+01 4.19816E-02 1.81128E-04-2.05400E-02-1.59662E-13-2.44355E-13
 -1      3569 1.99995E+01 2.45246E-02 4.68307E-05-1.49557E-02-2.45165E-13-1.99823E-13
 -1      3570 2.00000E+01 2.04243E-02-1.10751E-04-1.21573E-02-1.14364E-13-2.58766E-13
 -1      3571 1.99960E+01 2.97550E-02 1.09268E-04-1.49461E-02-2.90297E-13-3.42226E-13
 -1      3572 2.00013E+01 1.70423E-02 4.68399E-05-1.01689E-02-6.28878E-14-3.25593E-13
 -1      3573 2.00014E+01 1.40893E-02-7.75928E-05-8.10421E-03-1.52306E-13-3.54842E-13
 -1      3574 1.99992E+01 2.08764E-02 6.42595E-05-1.04841E-02-1.10525E-13-3.62709E-13
 -1      3575 2.00021E+01 1.16620E-02 4.17229E-05-6.61770E-03-9.36828E-14-2.98657E-13
 -1      3576 2.00020E+01 9.54120E-03-5.36058E-05-5.12786E-03-1.13150E-13-2.05550E-13
 -1      3577 2.00009E+01 1.44384E-02 3.63224E-05-7.05210E-03-5.97611E-14-2.65515E-13
 -1      3578 2.00024E+01 7.80564E-03 3.47608E-05-4.04927E-03-1.55500E-13-2.08791E-13
 -1      3579 2.00022E+01 6.29145E-03-3.63338E-05-3.00030E-03-1.29391E-13-2.59529E-13
 -1      3580 2.00018E+01 9.78699E-03 1.91651E-05-4.49545E-03-1.59698E-13-2.00370E-13
 -1      3581 2.00024E+01 5.05940E-03 2.76721E-05-2.24208E-03-1.08604E-13-2.58837E-13
 -1      3582 2.00022E+01 3.98875E-03-2.39761E-05-1.52476E-03-2.79202E-14-3.62471E-13
 -1      3583 2.00022E+01 6.44822E-03 8.78034E-06-2.64901E-03-1.84052E-13-2.96402E-13
 -1      3584 2.00022E+01 3.12415E-03 2.12723E-05-1.01098E-03 2.77004E-14-3.12953E-13
 -1      3585 2.00020E+01 2.37793E-03-1.52155E-05-5.38382E-04 9.60564E-15-2.24409E-13
 -1      3586 2.00022E+01 4.07553E-03 2.63357E-06-1.35885E-03 1.75907E-14-3.87520E-13
 -1      3587 2.00019E+01 1.78133E-03 1.58729E-05-2.06165E-04 4.35232E-14-1.28971E-13
 -1      3588 2.00017E+01 1.27177E-03-9.08603E-06 8.95321E-05 6.23304E-14-3.74800E-14
 -1      3589 2.00021E+01 2.41348E-03-8.71370E-07-4.91590E-04 1.30845E-13 1.96307E-16
 -1      3590 2.00016E+01 8.69883E-04 1.15182E-05 2.90473E-04-3.23475E-14-1.07863E-13
 -1      3591 2.00014E+01 5.31861E-04-4.87576E-06 4.61238E-04 1.94579E-13-1.84332E-13
 -1      3592 2.00019E+01 1.27234E-03-2.73804E-06 6.29235E-05 5.44804E-14-6.66916E-14
 -1      3593 2.00013E+01 2.70326E-04 8.12210E-06 5.70009E-04 3.26775E-13-2.48766E-13
 -1      3594 2.00012E+01 5.53579E-05-2.05780E-06 6.54976E-04 2.49100E-13-1.74258E-13
 -1      3595 2.00016E+01 5.10412E-04-3.59799E-06 3.92530E-04 2.27809E-13-2.94765E-13
 -1      3596 2.00010E+01-1.06235E-04 5.54606E-06 7.01233E-04 1.04374E-13-1.05007E-13
 -1      3597 2.00009E+01-2.34245E-04-2.40926E-07 7.29342E-04 1.68754E-14 4.68423E-14
 -1      3598 2.00013E+01 2.16340E-05-3.84978E-06 5.65272E-04 2.40977E-13-3.08808E-13
 -1      3599 2.00008E+01-3.25904E-04 3.64019E-06 7.35042E-04-1.93604E-13 1.66379E-13
 -1      3600 2.00007E+01-3.93732E-04 8.65347E-07 7.27281E-04-1.86759E-13 1.85710E-13
 -1      3601 2.00011E+01-2.73320E-04-3.74576E-06 6.32522E-04-5.93402E-14 1.34028E-13
 -1      3602 2.00006E+01-4.37627E-04 2.26393E-06 7.08275E-04-8.69026E-14 2.87995E-13
 -1      3603 2.00005E+01-4.64988E-04 1.47615E-06 6.79525E-04 1.09822E-13 2.97499E-13
 -1      3604 2.00008E+01-4.33519E-04-3.44605E-06 6.32112E-04-5.90401E-14 3.93374E-13
 -1      3605 2.00004E+01-4.77355E-04 1.29444E-06 6.46941E-04 8.59715E-14 2.38902E-13
 -1      3606 2.00004E+01-4.78597E-04 1.75238E-06 6.07470E-04-3.14984E-14 1.78600E-13
 -1      3607 2.00006E+01-5.02599E-04-3.05133E-06 5.91189E-04 7.05440E-14 3.37037E-13
 -1      3608 2.00003E+01-4.71173E-04 6.29704E-07 5.68891E-04-1.44745E-13 3.15331E-13
 -1      3609 2.00002E+01-4.56608E-04 1.81060E-06 5.25550E-04-1.79251E-13 2.53115E-13
 -1      3610 2.00004E+01-5.12412E-04-2.62182E-06 5.28686E-04-2.36287E-14 3.63990E-13
 -1      3611 2.00002E+01-4.37783E-04 1.91101E-07 4.85942E-04-1.09227E-13 2.22629E-13
 -1      3612 2.00001E+01-4.14751E-04 1.72090E-06 4.43079E-04 1.45030E-13 2.56877E-13
 -1      3613 2.00003E+01-4.85939E-04-2.20479E-06 4.57426E-04-9.10304E-15 3.05073E-13
 -1      3614 2.00001E+01-3.90408E-04-9.65032E-08 4.05375E-04 2.10827E-13 1.74812E-13
 -1      3615 2.00000E+01-3.63953E-04 1.50257E-06 3.65520E-04 1.48242E-13 3.04667E-13
 -1      3616 2.00002E+01-4.39562E-04-1.82929E-06 3.85596E-04 1.52711E-13 3.19956E-13
 -1      3617 2.00000E+01-3.37351E-04-1.45002E-07 3.31083E-04 1.89120E-13 3.98979E-13
 -1      3618 2.00000E+01-3.10470E-04 1.77365E-06 2.96072E-04 2.54523E-13 4.11686E-13
 -1      3619 2.00001E+01-3.84650E-04-1.63176E-06 3.17702E-04 2.49377E-13 4.84538E-13
 -1      3620 1.99999E+01-2.87798E-04-5.00768E-07 2.59231E-04 3.11512E-13 4.29562E-13
 -1      3621 1.84669E+01-9.30306E-01-2.71468E-02 4.20904E+00-6.25609E-13-9.62425E-15
 -1      3622 1.68071E+01 1.44147E-01 1.20536E-01 4.17125E+00-6.31656E-13 1.41548E-13
 -1      3623 2.00816E+01-7.87077E-02 1.04113E-03 1.52346E-01-1.25641E-13-9.02996E-14
 -1      3624 2.01197E+01-1.19638E-01 1.28489E-03 1.61972E-01-4.97283E-14-9.98913E-14
 -1      3625 2.01687E+01-1.69777E-01 1.92411E-03 1.83352E-01-2.26378E-14-2.22610E-13
 -1      3626 2.02280E+01-2.31047E-01 1.41228E-03 1.88744E-01-8.90873E-15-2.78441E-13
 -1      3627 2.01170E+01-1.39394E-01-3.05955E-03 2.14647E-01-1.05424E-13-1.18930E-13
 -1      3628 2.00039E+01 1.25686E-02 1.68664E-04 9.46352E-02-1.56771E-13-2.20103E-13
 -1      3629 2.00170E+01-1.55008E-03 8.03501E-04 1.04848E-01-1.44718E-13-1.94344E-13
 -1      3630 1.99913E+01 2.95472E-02-1.23633E-05 7.20133E-02-9.55415E-14-2.88628E-13
 -1      3631 1.99981E+01 2.28850E-02 5.82538E-04 8.10351E-02-1.34084E-13-2.05400E-13
 -1      3632 1.99871E+01 2.59647E-02-6.57721E-04 9.44316E-02-1.30367E-13-2.04117E-13
 -1      3633 1.99872E+01 3.58160E-02-1.00095E-04 5.37928E-02 1.40370E-13-2.40896E-13
 -1      3634 1.99902E+01 3.38660E-02 4.13233E-04 6.13755E-02 2.50611E-14-2.04582E-13
 -1      3635 1.99804E+01 3.89236E-02-3.29894E-04 6.91648E-02-7.61005E-14-2.72346E-13
 -1      3636 1.99874E+01 3.57175E-02-1.32209E-04 3.95109E-02-9.19640E-14-1.18185E-13
 -1      3637 1.99883E+01 3.64819E-02 2.85231E-04 4.56799E-02 7.51606E-14-1.29632E-13
 -1      3638 1.99803E+01 4.21678E-02-1.38656E-04 4.99915E-02-2.00428E-14-1.77634E-13
 -1      3639 1.99896E+01 3.22206E-02-1.34100E-04 2.85210E-02-7.41315E-14-5.75024E-14
 -1      3640 1.99895E+01 3.43628E-02 1.94843E-04 3.34199E-02-1.15705E-14-2.59993E-14
 -1      3641 1.99832E+01 3.99055E-02-3.31546E-05 3.56822E-02-1.24636E-13 5.21630E-14
 -1      3642 1.99923E+01 2.72458E-02-1.21011E-04 2.01903E-02 4.65734E-14-1.60327E-13
 -1      3643 1.99918E+01 2.99182E-02 1.32878E-04 2.40035E-02-5.46575E-14-1.04439E-13
 -1      3644 1.99871E+01 3.49099E-02 1.93374E-05 2.51207E-02 1.14409E-14 3.03232E-14
 -1      3645 1.99950E+01 2.19596E-02-1.01847E-04 1.39615E-02 2.28865E-13-4.42932E-13
 -1      3646 1.99944E+01 2.46599E-02 9.11039E-05 1.68761E-02 2.04901E-13-3.15999E-13
 -1      3647 1.99910E+01 2.89236E-02 4.05512E-05 1.73947E-02 1.74967E-13-3.76374E-13
 -1      3648 1.99971E+01 1.70112E-02-8.15982E-05 9.36902E-03 6.55012E-14-3.39081E-13
 -1      3649 1.99966E+01 1.94701E-02 6.31492E-05 1.15569E-02 8.41288E-14-3.14302E-13
 -1      3650 1.99943E+01 2.29697E-02 4.45630E-05 1.17904E-02 1.29910E-13-2.73705E-13
 -1      3651 1.99988E+01 1.27126E-02-6.28472E-05 6.03482E-03-8.64205E-14-1.65492E-13
 -1      3652 1.99984E+01 1.48103E-02 4.44025E-05 7.64618E-03-4.62952E-14-2.85485E-13
 -1      3653 1.99969E+01 1.75899E-02 4.00984E-05 7.76299E-03-6.26265E-14-1.59305E-13
 -1      3654 1.99999E+01 9.16736E-03-4.67319E-05 3.65763E-03-2.33519E-13 1.45324E-13
 -1      3655 1.99997E+01 1.08745E-02 3.16883E-05 4.81933E-03-1.68443E-13 3.95281E-15
 -1      3656 1.99988E+01 1.30186E-02 3.22876E-05 4.90176E-03-2.70490E-13-9.57080E-14
 -1      3657 2.00007E+01 6.35932E-03-3.35639E-05 2.00009E-03 1.90867E-14 1.31622E-13
 -1      3658 2.00005E+01 7.69689E-03 2.29029E-05 2.81683E-03-1.11056E-13 1.97730E-13
 -1      3659 2.00000E+01 9.30522E-03 2.39427E-05 2.89922E-03-1.97840E-13 4.29092E-14
 -1      3660 2.00011E+01 4.21086E-03-2.32131E-05 8.76926E-04 7.45425E-14 7.38815E-14
 -1      3661 2.00010E+01 5.22448E-03 1.66911E-05 1.43353E-03 1.36029E-13 1.88081E-13
 -1      3662 2.00008E+01 6.39700E-03 1.64450E-05 1.52548E-03 8.60486E-14 1.88385E-13
 -1      3663 2.00012E+01 2.61924E-03-1.53407E-05 1.44779E-04 1.69236E-13 6.84543E-16
 -1      3664 2.00012E+01 3.36326E-03 1.21955E-05 5.08814E-04 1.00889E-13-7.45453E-14
 -1      3665 2.00013E+01 4.19173E-03 1.03364E-05 6.08709E-04 1.51896E-13 5.64916E-14
 -1      3666 2.00012E+01 1.47810E-03-9.53465E-06-3.06277E-04 3.02287E-13 1.11878E-13
 -1      3667 2.00013E+01 2.00640E-03 8.87734E-06-8.18440E-05 2.26659E-13 1.17732E-13
 -1      3668 2.00014E+01 2.57057E-03 5.69857E-06 2.05290E-05 1.41657E-13 9.59540E-14
 -1      3669 2.00011E+01 6.88956E-04-5.38496E-06-5.59635E-04 4.01458E-13 2.39443E-13
 -1      3670 2.00012E+01 1.05024E-03 6.39488E-06-4.33947E-04 3.80954E-13 1.73342E-13
 -1      3671 2.00014E+01 1.41664E-03 2.38715E-06-3.34791E-04 2.43512E-13 3.26974E-14
 -1      3672 2.00010E+01 1.66595E-04-2.52091E-06-6.77770E-04 3.40116E-13 2.55973E-14
 -1      3673 2.00011E+01 4.02364E-04 4.52616E-06-6.19848E-04 4.60442E-13 1.42170E-13
 -1      3674 2.00013E+01 6.24721E-04 1.68292E-07-5.28321E-04 4.64826E-13 1.27602E-13
 -1      3675 2.00008E+01-1.59405E-04-6.26766E-07-7.06797E-04 3.17377E-13-2.97002E-13
 -1      3676 2.00009E+01-1.52595E-05 3.12097E-06-6.93583E-04 2.89744E-13-2.62872E-14
 -1      3677 2.00012E+01 1.05265E-04-1.20623E-06-6.12430E-04 3.32390E-13 1.39490E-14
 -1      3678 2.00007E+01-3.45187E-04 5.55365E-07-6.80144E-04 4.09460E-13-3.10882E-13
 -1      3679 2.00007E+01-2.65888E-04 2.07240E-06-6.94835E-04 3.04980E-13-2.94635E-13
 -1      3680 2.00010E+01-2.14869E-04-1.96186E-06-6.25282E-04 3.49877E-13-2.48870E-13
 -1      3681 2.00005E+01-4.34196E-04 1.22998E-06-6.21520E-04 3.19619E-13-1.73061E-13
 -1      3682 2.00006E+01-3.99187E-04 1.30038E-06-6.52163E-04 4.25642E-13-1.36009E-13
 -1      3683 2.00008E+01-3.93522E-04-2.28626E-06-5.94270E-04 2.71761E-13-1.96976E-13
 -1      3684 2.00004E+01-4.59159E-04 1.55716E-06-5.47283E-04-1.20430E-13-7.76216E-14
 -1      3685 2.00004E+01-4.53065E-04 7.42838E-07-5.85624E-04 1.12193E-13 2.53955E-14
 -1      3686 2.00006E+01-4.75165E-04-2.32543E-06-5.38655E-04 9.74341E-14 4.48351E-14
 -1      3687 2.00002E+01-4.44156E-04 1.65126E-06-4.68340E-04-3.05084E-13-2.85192E-13
 -1      3688 2.00003E+01-4.55730E-04 3.52921E-07-5.08889E-04-2.65328E-13-9.96493E-14
 -1      3689 2.00004E+01-4.93119E-04-2.18624E-06-4.71643E-04-1.57906E-13-3.13153E-14
 -1      3690 2.00001E+01-4.06423E-04 1.60023E-06-3.91510E-04-2.60191E-13-2.59269E-13
 -1      3691 2.00002E+01-4.27707E-04 9.34999E-08-4.30846E-04-3.21523E-13-2.12994E-13
 -1      3692 2.00003E+01-4.71871E-04-1.96159E-06-4.01973E-04-3.75514E-13-2.24672E-13
 -1      3693 2.00000E+01-3.57890E-04 1.38593E-06-3.20791E-04-1.38137E-13-2.66565E-13
 -1      3694 2.00001E+01-3.83432E-04-9.46191E-08-3.56896E-04-1.86746E-13-3.38531E-13
 -1      3695 2.00002E+01-4.28726E-04-1.68761E-06-3.34996E-04-1.58347E-13-3.66207E-13
 -1      3696 2.00000E+01-3.07183E-04 1.08583E-06-2.58091E-04 1.29169E-13-5.27845E-13
 -1      3697 2.00000E+01-3.32865E-04-3.28741E-07-2.89773E-04-1.88781E-14-3.84081E-13
 -1      3698 2.00001E+01-3.75397E-04-1.07838E-06-2.74059E-04-3.06057E-14-6.08349E-13
 -1      3699 1.61126E+01 1.64170E+00-1.89650E-02 1.47733E+00-2.09969E-13 6.67604E-14
 -1      3700 1.68793E+01 1.52498E+00-4.04401E-03 1.14969E+00-1.25329E-13 8.00384E-14
 -1      3701 2.29225E+01 3.63803E+00 1.30061E-02 5.43849E-01 5.79859E-13-3.87396E-13
 -1      3702 2.35658E+01 4.21003E+00-4.28950E-03 6.59375E-01 6.03385E-13-3.86281E-13
 -1      3703 2.00000E+01-2.95394E-04 2.63776E-07 1.54656E-04 1.32321E-14 3.36935E-13
 -1      3704 2.00000E+01-3.10041E-04 3.10109E-07 1.25762E-04 3.19227E-14-4.66492E-14
 -1      3705 2.00000E+01-3.21326E-04 2.20094E-07 1.80675E-04 1.66564E-13 3.67781E-13
 -1      3706 2.00309E+01-2.09438E-02 4.91916E-04 1.21705E-01-1.90220E-13-2.06565E-13
 -1      3707 2.00540E+01-4.61822E-02 1.05629E-03 1.32436E-01-2.08986E-13-1.56866E-13
 -1      3708 2.00449E+01-5.41869E-02-1.92705E-03 1.67253E-01-1.54067E-13-6.39324E-14
 -1      3709 2.08250E+01-7.07070E-01 7.26282E-03 1.79694E-01-1.58376E-13-2.91870E-13
 -1      3710 2.09831E+01-8.32570E-01-9.11071E-04 1.28396E-01-1.90984E-13-2.83525E-13
 -1      3711 1.82254E+01 1.17463E+00-1.94113E-02 3.65298E-01-2.17697E-13 3.14189E-14
 -1      3712 1.86002E+01 1.04973E+00-1.13422E-03 2.50699E-01-1.67978E-13-1.66910E-14
 -1      3713 1.87805E+01 9.10996E-01 1.15186E-02 4.20247E-01-1.70456E-13-3.99602E-14
 -1      3714 1.73502E+01 1.42866E+00-2.67991E-02 7.90182E-01-1.28036E-13 4.61374E-14
 -1      3715 1.79070E+01 1.31416E+00 4.40217E-04 5.82926E-01-1.64140E-13 1.80902E-14
 -1      3716 1.82230E+01 1.10208E+00 1.51515E-02 8.12485E-01-2.04837E-13-6.54318E-14
 -1      3717 1.47347E+01 1.83168E+00-1.30286E-02 1.86305E+00-3.73594E-13 2.34916E-13
 -1      3718 1.99999E+01-2.46076E-04 2.73305E-07-2.26776E-04-1.64523E-13-3.19349E-13
 -1      3719 2.60003E+01 1.00270E+00-4.13036E-02-1.50567E+00 3.40415E-13-8.72863E-13
 -1      3720 2.58939E+01 2.65675E-01-1.65828E-02-1.23512E+00 2.82009E-13-8.52667E-13
 -1      3721 2.53380E+01 1.76797E+00-1.65336E-02-1.57704E+00 4.13225E-13-7.88810E-13
 -1      3722 2.00000E+01-2.99683E-04 8.91520E-07-1.29603E-04-1.31007E-13-3.90160E-13
 -1      3723 2.00000E+01-2.89021E-04 1.53260E-07-1.54846E-04-2.06346E-13-3.77912E-13
 -1      3724 2.30173E+01 2.10187E+00-2.57705E-02-1.21392E+00 4.63763E-13-4.41137E-13
 -1      3725 2.29902E+01 2.73328E+00 8.30112E-03-8.70343E-01 5.01028E-13-4.63292E-13
 -1      3726 2.30329E+01-3.01385E+00-1.80474E-02 3.52945E+00-5.29110E-13-5.25792E-13
 -1      3727 2.31060E+01-2.62981E+00 2.73340E-02 2.90551E+00-4.64120E-13-4.83559E-13
 -1      3728 2.45378E+01-3.25737E+00-2.34044E-02 2.77935E+00-4.37672E-13-6.45926E-13
 -1      3729 2.60989E+01-1.43589E+00 1.26625E-02-2.37594E-01 2.36409E-14-8.86499E-13
 -1      3730 2.63041E+01-2.37205E+00-5.44164E-02 6.83974E-01-1.72606E-13-8.77728E-13
 -1      3731 2.22793E+01-1.23380E+00 8.72638E-03-4.70292E-01-1.02233E-13-4.20386E-13
 -1      3732 2.24660E+01-1.17462E+00-6.40137E-03-6.58413E-01 2.77556E-16-4.31736E-13
 -1      3733 2.11345E+01-9.63380E-01-9.61862E-03 2.86483E-01-2.26439E-13-2.18581E-13
 -1      3734 2.12318E+01-9.51862E-01 9.48034E-03 7.56047E-02-1.94017E-13-3.46431E-13
 -1      3735 2.14212E+01-1.07009E+00-3.18774E-03-1.80703E-02-1.40158E-13-3.41853E-13
 -1      3736 2.00000E+01-3.29220E-04-1.29653E-06 2.49603E-04 3.04966E-13 4.38639E-13
 -1      3737 1.98938E+01-1.35650E+00 6.92677E-02 3.96923E+00-6.16424E-13-1.53435E-13
 -1      3738 1.87383E+01-7.62029E-01-4.78726E-02 3.63457E+00-5.15084E-13-2.89282E-14
 -1      3739 2.27749E+01-1.02144E+00 6.62372E-04-9.12865E-01 7.83888E-14-4.50846E-13
 -1      3740 2.29120E+01-7.55963E-01-3.01078E-03-1.10166E+00 1.13607E-13-4.49562E-13
 -1      3741 2.29728E+01-1.26335E+00 2.68728E-03-5.80266E-01 1.99732E-14-3.79483E-13
 -1      3742 1.57769E+01 1.47298E+00 6.43101E-02 2.34478E+00-3.51729E-13 5.24266E-14
 -1      3743 2.02393E+01-2.68409E-01-4.52026E-03 2.64813E-01-6.15529E-14-1.84183E-13
 -1      3744 2.03087E+01-3.02712E-01 3.23671E-03 2.07938E-01-4.73153E-14-3.08334E-13
 -1      3745 2.03961E+01-3.87951E-01 1.26304E-03 2.03838E-01-6.54272E-14-2.74672E-13
 -1      3746 1.74359E+01 1.23528E+00 1.98824E-02 1.44912E+00-1.51590E-13-4.83441E-14
 -1      3747 2.00000E+01-2.98824E-04-6.81936E-07-2.14709E-04-1.81161E-13-3.47180E-13
 -1      3748 2.00000E+01-3.34584E-04 2.23547E-07-1.99958E-04-1.98232E-13-3.83124E-13
 -1      3749 2.38030E+01 4.08708E+00-2.05380E-02-2.43640E-01 6.15508E-13-5.15291E-13
 -1      3750 2.42105E+01 4.57250E+00-1.95587E-02 3.51470E-01 6.54256E-13-4.41365E-13
 -1      3751 2.42957E+01 3.18606E+00-4.15044E-02-1.17046E+00 5.36338E-13-6.47981E-13
 -1      3752 2.44149E+01 2.68761E+00-1.46460E-03-1.35827E+00 4.77262E-13-6.84868E-13
 -1      3753 2.00001E+01-3.52781E-04-9.26502E-07 1.01192E-04 8.39231E-14-3.50996E-13
 -1      3754 2.00000E+01-3.21355E-04 7.17520E-07 8.34225E-05-5.77113E-14-3.05395E-13
 -1      3755 2.00000E+01-3.29633E-04 1.24624E-07 4.73664E-05 1.37881E-13-4.71194E-13
 -1      3756 2.24973E+01 3.04973E+00-7.98569E-03 1.79269E-01 5.40293E-13-3.63992E-13
 -1      3757 2.00000E+01-3.01637E-04-7.97506E-07 4.58821E-07 2.30915E-13-4.72313E-13
 -1      3758 2.00057E+01-2.40791E-03-1.14812E-03 1.26872E-01-1.92403E-13-2.01445E-13
 -1      3759 2.06426E+01-5.92402E-01 5.73034E-04 1.91740E-01-9.39725E-14-2.38252E-13
 -1      3760 2.07242E+01-6.86970E-01-8.24432E-03 3.25994E-01-1.50045E-13-1.87421E-13
 -1      3761 2.05211E+01-4.83012E-01 5.04810E-03 2.13667E-01-7.31270E-14-2.45653E-13
 -1      3762 1.59866E+01 6.27784E-01 2.40301E-03 3.45177E+00-4.98223E-13 1.35888E-13
 -1      3763 2.09480E+01-1.79840E+00 5.31048E-03 3.44803E+00-5.12473E-13-2.38732E-13
 -1      3764 1.99999E+01-2.43378E-04-4.94241E-07-1.70568E-04-1.44801E-13-3.69663E-13
 -1      3765 2.54361E+01-2.86411E+00-8.87274E-03 1.75423E+00-3.30938E-13-7.64697E-13
 -1      3766 2.31458E+01 1.42824E+00 1.51394E-02-1.43403E+00 4.20784E-13-4.39414E-13
 -1      3767 2.37037E+01 1.95602E+00 1.12191E-03-1.39298E+00 4.44839E-13-5.39092E-13
 -1      3768 2.31524E+01 7.37995E-01-2.45866E-02-1.53578E+00 3.39325E-13-4.71502E-13
 -1      3769 2.00000E+01-3.21370E-04 7.78538E-07-5.49647E-05 1.28949E-13-2.02006E-13
 -1      3770 2.00000E+01-3.13813E-04 2.08442E-07-9.05907E-05 2.06146E-14-2.62380E-13
 -1      3771 2.00000E+01-3.35285E-04-8.96753E-07-1.15108E-04-2.25918E-13-1.04410E-13
 -1      3772 2.40172E+01 3.56498E+00-1.70451E-02-8.77985E-01 5.61598E-13-5.72462E-13
 -1      3773 2.48352E+01 5.27398E+00-3.99881E-02 7.44341E-01 7.33046E-13-3.96655E-13
 -1      3774 2.33739E+01 3.27113E+00-1.76089E-02-5.48628E-01 5.19041E-13-4.93592E-13
 -1      3775 2.56094E+01-9.49864E-01-4.52574E-02-8.07473E-01 1.22057E-13-7.92410E-13
 -1      3776 2.52592E+01-1.58734E+00-2.20355E-03-1.73600E-01-1.55848E-14-7.36767E-13
 -1      3777 1.71646E+01 6.30417E-01-3.59382E-03 2.78332E+00-3.88001E-13 1.02331E-14
 -1      3778 2.00056E+01-9.77569E-03 9.36685E-05 1.75322E-01-1.65442E-13-1.23352E-13
 -1      3779 2.00350E+01-3.84193E-02 1.98759E-03 1.99647E-01-1.56146E-13-8.93244E-14
 -1      3780 1.89642E+01-3.87380E-01 1.31042E-04 2.98283E+00-4.06863E-13-7.78310E-14
 -1      3781 1.80225E+01 2.17162E-01 6.03033E-02 3.07903E+00-3.98178E-13 4.92748E-14
 -1      3782 1.74635E+01 7.83355E-01-1.63401E-02 2.21144E+00-2.74997E-13-2.70341E-14
 -1      3783 1.94031E+01 5.08766E-01-6.79160E-03 1.74740E-01-2.51125E-13-1.26587E-13
 -1      3784 1.95274E+01 4.50682E-01 8.59156E-04 1.21424E-01-2.48881E-13-1.14841E-13
 -1      3785 1.95979E+01 3.92706E-01-4.48736E-03 6.76733E-02-1.09315E-13-6.04869E-14
 -1      3786 1.96816E+01 3.43896E-01 1.53806E-04 4.03253E-02-1.10249E-13 5.70028E-14
 -1      3787 1.95906E+01 3.87243E-01 3.40178E-03 1.69497E-01-1.61861E-13 1.52806E-14
 -1      3788 1.97334E+01 2.97415E-01-2.85581E-03 1.00529E-02-1.74954E-13 6.78259E-14
 -1      3789 1.97887E+01 2.58408E-01-1.77168E-04-2.16841E-03-1.77944E-13 1.17830E-13
 -1      3790 1.97175E+01 3.03787E-01 2.41843E-03 7.72595E-02-9.04309E-14 5.06001E-14
 -1      3791 1.98258E+01 2.22477E-01-1.76717E-03-1.78641E-02-2.45108E-13 2.72199E-14
 -1      3792 1.98619E+01 1.92111E-01-2.78255E-04-2.16162E-02-1.39209E-13-3.58379E-14
 -1      3793 1.98084E+01 2.34112E-01 1.83383E-03 2.55801E-02-2.34883E-13 1.94240E-14
 -1      3794 1.98879E+01 1.64845E-01-1.08693E-03-2.88977E-02-3.99695E-14-9.27574E-14
 -1      3795 1.99111E+01 1.41838E-01-3.06241E-04-2.82605E-02-4.35099E-14-1.02665E-13
 -1      3796 1.98720E+01 1.77462E-01 1.24758E-03-1.43700E-03-2.26169E-13-6.96666E-14
 -1      3797 1.99292E+01 1.21454E-01-6.31151E-04-3.06734E-02-1.99294E-14-1.80831E-13
 -1      3798 1.99440E+01 1.04143E-01-2.84758E-04-2.80511E-02-3.61305E-14-1.97788E-13
 -1      3799 1.99159E+01 1.33348E-01 8.62332E-04-1.36064E-02-4.99413E-14-2.65942E-13
 -1      3800 1.99564E+01 8.90067E-02-3.54038E-04-2.79462E-02 1.44255E-14-1.84367E-13
 -1      3801 1.99656E+01 7.60760E-02-2.43004E-04-2.46718E-02-2.31179E-14-1.54830E-13
 -1      3802 1.99459E+01 9.93425E-02 5.83640E-04-1.75605E-02 9.08961E-15-2.71883E-13
 -1      3803 1.99740E+01 6.48820E-02-1.86308E-04-2.33990E-02-1.15298E-13 1.12015E-14
 -1      3804 1.99797E+01 5.52615E-02-1.97057E-04-2.01688E-02 2.09179E-14-3.78956E-14
 -1      3805 1.99661E+01 7.34498E-02 3.89649E-04-1.72418E-02 5.57280E-17-1.61688E-13
 -1      3806 1.99854E+01 4.69986E-02-8.80506E-05-1.84931E-02-1.75885E-13-9.80024E-14
 -1      3807 1.99888E+01 3.98590E-02-1.54385E-04-1.56321E-02-4.41622E-13-2.17328E-13
 -1      3808 1.99796E+01 5.38769E-02 2.57494E-04-1.49644E-02-1.82679E-13-2.89135E-14
 -1      3809 1.99926E+01 3.37678E-02-3.29562E-05-1.39595E-02-3.95325E-13-2.26043E-13
 -1      3810 1.99946E+01 2.84822E-02-1.17785E-04-1.15843E-02-1.99669E-13-2.10471E-13
 -1      3811 1.99885E+01 3.91567E-02 1.68351E-04-1.20354E-02-3.71573E-13-1.08627E-13
 -1      3812 1.99970E+01 2.40001E-02-3.91189E-06-1.01069E-02-1.03975E-13-2.85653E-13
 -1      3813 1.99981E+01 2.01003E-02-8.78092E-05-8.22302E-03-4.67105E-14-2.95794E-13
 -1      3814 1.99943E+01 2.81369E-02 1.08614E-04-9.14207E-03-1.96574E-13-2.59278E-13
 -1      3815 1.99997E+01 1.68130E-02 9.91597E-06-7.01037E-03 6.37955E-14-2.66409E-13
 -1      3816 2.00002E+01 1.39500E-02-6.40083E-05-5.56974E-03 2.19128E-14-1.66545E-13
 -1      3817 1.99979E+01 1.99300E-02 6.87970E-05-6.60443E-03-3.27592E-14-1.71682E-13
 -1      3818 2.00012E+01 1.15519E-02 1.52116E-05-4.62571E-03-1.28597E-13-1.79978E-13
 -1      3819 2.00014E+01 9.46548E-03-4.55540E-05-3.55929E-03-2.04115E-13-1.74248E-13
 -1      3820 2.00001E+01 1.38578E-02 4.23985E-05-4.53380E-03-2.95791E-14-1.59736E-13
 -1      3821 2.00019E+01 7.73010E-03 1.59927E-05-2.85600E-03-2.04327E-13-5.11405E-14
 -1      3822 2.00020E+01 6.22500E-03-3.15340E-05-2.09144E-03-1.90059E-13-9.51302E-14
 -1      3823 2.00013E+01 9.40311E-03 2.50120E-05-2.93070E-03-1.87045E-13 9.43505E-15
 -1      3824 2.00022E+01 4.98335E-03 1.46028E-05-1.58876E-03-1.03270E-13 3.52697E-15
 -1      3825 2.00021E+01 3.91245E-03-2.10869E-05-1.05927E-03 1.33357E-13-3.72700E-15
 -1      3826 2.00019E+01 6.17100E-03 1.36715E-05-1.74300E-03-5.64559E-14 2.01896E-13
 -1      3827 2.00022E+01 3.03766E-03 1.23577E-05-7.15474E-04 1.91818E-13 1.24473E-13
 -1      3828 2.00021E+01 2.28950E-03-1.34568E-05-3.63619E-04 1.96876E-13 1.06260E-13
 -1      3829 2.00022E+01 3.85919E-03 6.38680E-06-8.99109E-04 2.03731E-13 2.12782E-13
 -1      3830 2.00021E+01 1.68584E-03 9.95697E-06-1.40636E-04 1.06414E-13 1.77737E-13
 -1      3831 2.00019E+01 1.17574E-03-8.00657E-06 8.07330E-05-4.37267E-15 1.84887E-13
 -1      3832 2.00022E+01 2.23584E-03 1.82123E-06-3.25861E-04 1.31229E-13 2.55150E-13
 -1      3833 2.00018E+01 7.70755E-04 7.74066E-06 2.15133E-04-5.59259E-14 5.67809E-14
 -1      3834 2.00017E+01 4.34400E-04-4.21428E-06 3.43378E-04 1.23701E-13-5.94625E-14
 -1      3835 2.00020E+01 1.12307E-03-9.25966E-07 4.27805E-05-1.19816E-13 3.91334E-13
 -1      3836 2.00016E+01 1.73285E-04 5.84680E-06 4.15142E-04 3.67340E-13-1.35404E-13
 -1      3837 2.00014E+01-3.80633E-05-1.66097E-06 4.79028E-04 2.85940E-13-9.71092E-14
 -1      3838 2.00017E+01 3.84666E-04-2.46498E-06 2.62281E-04 2.67571E-13 1.47374E-13
 -1      3839 2.00013E+01-1.96653E-04 4.30557E-06 5.08248E-04 2.67702E-13 1.79995E-13
 -1      3840 2.00012E+01-3.19720E-04-1.63252E-08 5.29353E-04 1.65631E-13 3.71577E-13
 -1      3841 2.00015E+01-8.32636E-05-3.21138E-06 3.76989E-04 4.80337E-13 1.62670E-13
 -1      3842 2.00010E+01-4.06766E-04 3.09422E-06 5.31073E-04-5.38215E-14 4.01773E-13
 -1      3843 2.00009E+01-4.68995E-04 9.75354E-07 5.25178E-04-1.86829E-15 5.00559E-13
 -1      3844 2.00012E+01-3.59395E-04-3.44939E-06 4.21029E-04 2.29577E-13 5.16872E-13
 -1      3845 2.00008E+01-5.07503E-04 2.16777E-06 5.10308E-04-7.19285E-14 5.42973E-13
 -1      3846 2.00007E+01-5.29170E-04 1.50647E-06 4.88643E-04 2.31643E-14 3.97890E-13
 -1      3847 2.00010E+01-5.02766E-04-3.37373E-06 4.19798E-04-5.93817E-14 5.11415E-13
 -1      3848 2.00006E+01-5.35999E-04 1.47357E-06 4.64813E-04 5.55491E-14 4.16140E-13
 -1      3849 2.00005E+01-5.31831E-04 1.72958E-06 4.35138E-04-1.83617E-15 4.54724E-13
 -1      3850 2.00007E+01-5.57154E-04-3.11475E-06 3.91582E-04 7.11846E-14 5.79330E-13
 -1      3851 2.00004E+01-5.19110E-04 9.52878E-07 4.07530E-04 5.07447E-14 3.55791E-13
 -1      3852 2.00003E+01-4.99599E-04 1.78283E-06 3.75034E-04 8.39294E-14 4.25642E-13
 -1      3853 2.00005E+01-5.54394E-04-2.73599E-06 3.49036E-04 3.39397E-14 6.64121E-13
 -1      3854 2.00003E+01-4.76344E-04 4.77896E-07 3.47346E-04 1.17911E-13 4.95699E-13
 -1      3855 2.00002E+01-4.49042E-04 1.63414E-06 3.15074E-04 2.83841E-13 5.40410E-13
 -1      3856 2.00004E+01-5.17220E-04-2.31629E-06 3.01162E-04 1.70451E-13 5.55531E-13
 -1      3857 2.00002E+01-4.21239E-04 7.27948E-08 2.89221E-04 2.41790E-13 6.91347E-13
 -1      3858 2.00001E+01-3.91463E-04 1.50214E-06 2.58283E-04 3.02267E-13 7.21434E-13
 -1      3859 2.00002E+01-4.62328E-04-1.69762E-06 2.53970E-04 3.29489E-13 5.71587E-13
 -1      3860 2.27596E+01 3.15556E+00-1.54233E-02-2.71508E-01 5.35908E-13-4.07528E-13
 -1      3861 1.99732E+01 4.93480E-02-2.68747E-04 4.39056E-02-4.63534E-14-7.21609E-14
 -1      3862 1.99730E+01 5.11270E-02 4.21209E-04 5.21950E-02-5.52414E-14-1.54915E-13
 -1      3863 2.00608E+01-7.69364E-02 5.58030E-04 2.38236E-01-1.59348E-13-9.49109E-14
 -1      3864 2.01112E+01-1.25014E-01 2.52297E-03 2.67002E-01-1.19424E-13-1.14619E-13
 -1      3865 2.00075E+01-3.42849E-02-1.93814E-03 2.46829E-01-1.56970E-13-1.36927E-13
 -1      3866 2.00000E+01-3.48519E-04-1.32578E-08 2.12061E-04 2.49520E-13 3.95443E-13
 -1      3867 1.91289E+01 6.39442E-01-1.01448E-02 3.61020E-01-1.24123E-13-7.65550E-14
 -1      3868 1.93096E+01 5.76719E-01 1.98878E-03 2.65115E-01-1.70004E-13-9.48796E-14
 -1      3869 1.94175E+01 4.78941E-01 4.49027E-03 3.26029E-01-1.86533E-13-8.75977E-14
 -1      3870 2.00000E+01-3.28064E-04 7.77494E-07 1.43974E-05 1.60871E-13-6.13491E-13
 -1      3871 2.00000E+01-3.28439E-04 2.77596E-07-2.35451E-05 1.34911E-13-4.24163E-13
 -1      3872 2.00001E+01-3.54285E-04-9.12265E-07-4.24745E-05-5.35209E-14-2.59108E-13
 -1      3873 2.00001E+01-3.62544E-04-1.02992E-06 2.26278E-05-1.05328E-13-4.53456E-13
 -1      3874 1.99691E+01 5.11077E-02-2.98370E-04 6.31565E-02-1.77544E-13-1.32702E-13
 -1      3875 1.99716E+01 4.98962E-02 6.60060E-04 7.43715E-02-1.83597E-13-2.15455E-13
 -1      3876 1.99620E+01 5.97951E-02-5.78236E-05 5.63233E-02-1.25239E-13-1.49488E-13
 -1      3877 1.99694E+01 4.56474E-02-2.84068E-04 8.99860E-02-7.58090E-14-2.54011E-13
 -1      3878 1.99767E+01 3.89863E-02 9.61341E-04 1.04938E-01-1.46583E-13-2.23986E-13
 -1      3879 1.99568E+01 5.93851E-02-2.49684E-04 8.31403E-02-1.58497E-13-2.04763E-13
 -1      3880 1.99788E+01 4.38605E-02-2.25577E-04 3.02230E-02-1.79519E-13-3.85312E-15
 -1      3881 1.99775E+01 4.70876E-02 2.63487E-04 3.62881E-02-1.45694E-13-5.71294E-14
 -1      3882 1.99694E+01 5.46152E-02 3.69391E-05 3.78163E-02-7.08726E-14-1.92247E-13
 -1      3883 1.99845E+01 3.68686E-02-1.81164E-04 2.05676E-02 1.41281E-13-1.99414E-13
 -1      3884 1.99828E+01 4.05811E-02 1.61161E-04 2.49739E-02 2.48839E-14-6.78593E-14
 -1      3885 1.99770E+01 4.68924E-02 7.68998E-05 2.51647E-02 9.86875E-16-2.32439E-13
 -1      3886 1.99895E+01 2.97050E-02-1.40866E-04 1.37906E-02 2.12954E-13-2.45132E-13
 -1      3887 1.99879E+01 3.33422E-02 9.67952E-05 1.69728E-02 1.73421E-13-2.32697E-13
 -1      3888 1.99838E+01 3.84916E-02 8.61778E-05 1.65730E-02 2.18815E-13-1.81671E-13
 -1      3889 1.99935E+01 2.30997E-02-1.06689E-04 9.05718E-03-5.46468E-14-4.53768E-14
 -1      3890 1.99922E+01 2.63678E-02 5.75096E-05 1.13410E-02 3.57450E-14-1.49297E-13
 -1      3891 1.99893E+01 3.04744E-02 7.98282E-05 1.07639E-02 6.37753E-14-4.99604E-14
 -1      3892 1.99965E+01 1.73931E-02-7.89157E-05 5.77035E-03-1.03132E-13 5.61468E-15
 -1      3893 1.99955E+01 2.01680E-02 3.41902E-05 7.39662E-03-2.77918E-14-3.60387E-14
 -1      3894 1.99936E+01 2.33759E-02 6.67973E-05 6.84930E-03-6.85652E-14 2.86978E-14
 -1      3895 1.99986E+01 1.26863E-02-5.70234E-05 3.50699E-03-2.99912E-13 5.15836E-14
 -1      3896 1.99979E+01 1.49456E-02 2.06809E-05 4.65264E-03-2.21683E-13 2.36918E-14
 -1      3897 1.99968E+01 1.74020E-02 5.21079E-05 4.22130E-03-1.57098E-13 6.25788E-14
 -1      3898 2.00001E+01 8.94371E-03-4.01752E-05 1.96779E-03-1.61076E-13 9.60875E-14
 -1      3899 1.99996E+01 1.07214E-02 1.29943E-05 2.76286E-03-2.57228E-13 2.49984E-14
 -1      3900 1.99989E+01 1.25646E-02 3.83513E-05 2.46762E-03-2.49330E-13 7.19617E-14
 -1      3901 2.00009E+01 6.06027E-03-2.74770E-05 9.40534E-04-9.98963E-15 1.36224E-13
 -1      3902 2.00007E+01 7.41737E-03 8.64658E-06 1.48083E-03-9.05216E-14 2.95048E-14
 -1      3903 2.00003E+01 8.77067E-03 2.66676E-05 1.30938E-03-1.12472E-13-5.35938E-14
 -1      3904 2.00014E+01 3.90300E-03-1.80964E-05 2.74087E-04 1.84491E-13 4.28291E-14
 -1      3905 2.00013E+01 4.90957E-03 6.14826E-06 6.30451E-04 1.85527E-13 1.29463E-13
 -1      3906 2.00012E+01 5.87928E-03 1.73735E-05 5.57625E-04 1.26427E-13-1.57307E-13
 -1      3907 2.00016E+01 2.33585E-03-1.13098E-05-1.39770E-04 1.29530E-13 8.84992E-14
 -1      3908 2.00016E+01 3.06064E-03 4.64141E-06 8.51560E-05 1.07520E-13 2.77557E-14
 -1      3909 2.00016E+01 3.73575E-03 1.03539E-05 8.35211E-05 2.20572E-13-3.03490E-14
 -1      3910 2.00016E+01 1.23312E-03-6.51356E-06-3.78838E-04 2.80762E-13 6.37627E-14
 -1      3911 2.00016E+01 1.73814E-03 3.65323E-06-2.46448E-04 2.03593E-13 8.17399E-14
 -1      3912 2.00017E+01 2.19151E-03 5.29650E-06-2.01459E-04 1.35701E-13-5.42845E-15
 -1      3913 2.00015E+01 4.85688E-04-3.21755E-06-4.99133E-04 3.65514E-13 1.09539E-13
 -1      3914 2.00015E+01 8.23921E-04 2.93619E-06-4.30545E-04 3.91403E-13 3.33870E-14
 -1      3915 2.00017E+01 1.11390E-03 1.82773E-06-3.58670E-04 3.50447E-13 6.69559E-14
 -1      3916 2.00013E+01 2.83015E-06-1.03230E-06-5.40897E-04 3.58078E-13 6.56099E-14
 -1      3917 2.00014E+01 2.17828E-04 2.36847E-06-5.15035E-04 3.93109E-13 5.93545E-14
 -1      3918 2.00016E+01 3.90255E-04-4.15810E-07-4.30924E-04 4.04857E-13 1.69172E-13
 -1      3919 2.00011E+01-2.88339E-04 3.46204E-07-5.32847E-04 3.55127E-13 6.10915E-14
 -1      3920 2.00012E+01-1.61905E-04 1.89438E-06-5.34421E-04 3.49771E-13 2.18036E-14
 -1      3921 2.00013E+01-7.17125E-05-1.75312E-06-4.48190E-04 4.17328E-13 7.11962E-14
 -1      3922 2.00009E+01-4.44757E-04 1.15085E-06-4.95224E-04 2.83895E-13-4.58307E-14
 -1      3923 2.00010E+01-3.80012E-04 1.49043E-06-5.13317E-04 2.64562E-13-6.65195E-14
 -1      3924 2.00011E+01-3.45382E-04-2.44704E-06-4.31413E-04 4.24705E-13 2.09902E-13
 -1      3925 2.00007E+01-5.09780E-04 1.55695E-06-4.42021E-04-7.56064E-14 8.10847E-14
 -1      3926 2.00008E+01-4.86406E-04 1.14662E-06-4.69007E-04 7.83340E-14-7.85580E-14
 -1      3927 2.00009E+01-4.87618E-04-2.70401E-06-3.95101E-04 9.81469E-14 8.31509E-14
 -1      3928 2.00005E+01-5.15596E-04 1.71240E-06-3.82640E-04-2.15990E-13 3.52097E-14
 -1      3929 2.00006E+01-5.18623E-04 8.57083E-07-4.13341E-04-8.56589E-14 7.06057E-14
 -1      3930 2.00007E+01-5.41432E-04-2.67438E-06-3.49120E-04 4.02031E-14 1.53895E-13
 -1      3931 2.00003E+01-4.85754E-04 1.67643E-06-3.23297E-04-4.02252E-13-2.17984E-13
 -1      3932 2.00004E+01-5.04213E-04 6.14976E-07-3.54303E-04-2.99663E-13-8.64407E-14
 -1      3933 2.00005E+01-5.38472E-04-2.44157E-06-3.00004E-04-1.87922E-13 1.80459E-13
 -1      3934 2.00002E+01-4.36759E-04 1.47485E-06-2.67610E-04-5.15646E-14-4.30784E-13
 -1      3935 2.00003E+01-4.63149E-04 4.21583E-07-2.96833E-04-2.23718E-13-3.33654E-13
 -1      3936 2.00004E+01-5.02040E-04-2.18074E-06-2.52318E-04-1.97460E-13-2.96236E-13
 -1      3937 2.00001E+01-3.80048E-04 1.11109E-06-2.17848E-04 1.98241E-14-4.39501E-13
 -1      3938 2.00001E+01-4.09174E-04 1.18310E-07-2.43662E-04-8.94714E-14-3.59949E-13
 -1      3939 2.00002E+01-4.47893E-04-1.64755E-06-2.08077E-04-1.33349E-13-2.77069E-13
 -1      3940 1.99999E+01-2.70948E-04 3.89297E-07-1.74732E-04-3.79676E-13-3.78084E-13
 -1      3941 2.44514E+01 1.73474E+00-3.30995E-02-1.53337E+00 4.30656E-13-6.70275E-13
 -1      3942 1.99791E+01 2.76051E-02-1.67260E-04 1.26524E-01-1.66150E-13-1.51345E-13
 -1      3943 1.99948E+01 1.23749E-02 1.41019E-03 1.45843E-01-1.58766E-13-1.52197E-13
 -1      3944 1.99577E+01 4.81055E-02-6.97449E-04 1.21475E-01-9.56422E-14-1.98994E-13
 -1      3945 2.00001E+01-3.85873E-04-5.69129E-07 1.85880E-04 1.25018E-13 3.87412E-13
 -1      3946 1.82672E+01 8.55912E-01-1.73268E-02 1.16382E+00-1.66886E-13-1.28230E-13
 -1      3947 1.86119E+01 8.29010E-01 6.85898E-03 8.97530E-01-2.13048E-13-1.45070E-13
 -1      3948 1.87537E+01 7.68356E-01-1.44719E-02 6.70647E-01-1.98862E-13-9.89746E-14
 -1      3949 1.90102E+01 7.11632E-01 3.96930E-03 5.07837E-01-1.25643E-13-1.02672E-13
 -1      3950 1.88996E+01 6.11202E-01 3.83786E-03 9.80293E-01-1.77039E-13-1.95764E-13
 -1      3951 2.00001E+01-3.51839E-04 4.00995E-08-1.40269E-04-2.61501E-13-1.39722E-13
 -1      3952 2.00001E+01-3.67404E-04-6.42703E-07-1.86250E-04 6.54038E-14-2.42381E-13
 -1      3953 2.00001E+01-3.99027E-04 4.91470E-07-1.55783E-04-9.30223E-14-1.46224E-13
 -1      3954 2.00001E+01-3.63563E-04 8.88920E-07-9.89647E-05-1.40081E-13-5.23192E-14
 -1      3955 1.76804E+01 8.96562E-01-4.59971E-03 1.82321E+00-2.14537E-13-7.17159E-14
 -1      3956 1.81629E+01 8.79798E-01 1.14997E-02 1.41851E+00-1.64300E-13-1.12115E-13
 -1      3957 1.85903E+01 5.69052E-01-5.19531E-03 1.50016E+00-2.07047E-13-9.83537E-14
 -1      3958 1.83125E+01 3.91921E-01-2.05651E-02 2.13846E+00-2.59700E-13-4.07045E-14
 -1      3959 2.46903E+01 5.06332E+00-6.01811E-02 1.13465E+00 6.77639E-13-3.41569E-13
 -1      3960 2.17314E+01-1.16083E+00 1.04483E-02-1.32856E-01-1.24120E-13-3.96345E-13
 -1      3961 2.19349E+01-1.22682E+00-5.84366E-03-2.77133E-01-1.11554E-13-3.94093E-13
 -1      3962 2.16720E+01-1.22791E+00-8.84057E-03 1.47015E-01-1.55953E-13-3.05290E-13
 -1      3963 2.18841E+01-2.06871E+00 1.38938E-02 2.88194E+00-4.63797E-13-3.54622E-13
 -1      3964 2.08314E+01-1.58252E+00-3.11277E-02 2.93402E+00-4.73461E-13-2.60215E-13
 -1      3965 2.30906E+01-3.70854E-01-1.24107E-02-1.34434E+00 1.77965E-13-5.11668E-13
 -1      3966 2.31575E+01 1.41751E-01 7.71531E-03-1.43800E+00 2.87778E-13-4.72061E-13
 -1      3967 2.37544E+01 3.93011E-01 2.97665E-03-1.47540E+00 3.15454E-13-5.08976E-13
 -1      3968 2.34939E+01-7.10235E-01 7.56049E-04-1.10044E+00 1.35515E-13-4.35409E-13
 -1      3969 2.23120E+01-1.38603E+00-5.96116E-03-1.36469E-01-1.14601E-13-3.80738E-13
 -1      3970 2.50275E+01-2.54114E+00 4.02034E-02 1.37870E+00-2.75818E-13-7.01748E-13
 -1      3971 2.52116E+01-8.81389E-02-4.85995E-03-1.21150E+00 2.12583E-13-7.18937E-13
 -1      3972 2.35694E+01-2.61005E+00-1.81532E-02 2.02619E+00-3.44132E-13-5.12256E-13
 -1      3973 2.25507E+01-2.35403E+00-1.91973E-02 2.53899E+00-4.00689E-13-4.26572E-13
 -1      3974 2.24483E+01-2.01049E+00 1.90632E-02 2.04142E+00-3.53337E-13-4.80478E-13
 -1      3975 1.99713E+01 2.03621E-02-1.15688E-03 1.74691E-01-1.24892E-13-1.24094E-13
 -1      3976 2.09609E+01-1.33407E+00 6.92277E-04 2.39981E+00-4.62658E-13-3.50369E-13
 -1      3977 2.01909E+01-9.91035E-01 3.59485E-02 2.91063E+00-4.93265E-13-1.72908E-13
 -1      3978 2.31274E+01-1.58976E+00 1.18945E-02-1.09734E-01-8.89932E-14-3.93664E-13
 -1      3979 2.34449E+01-1.46607E+00-2.40785E-03-3.69897E-01-3.33296E-14-4.43805E-13
 -1      3980 2.22988E+01-1.48841E+00 1.39996E-02 2.94533E-01-1.58777E-13-3.22303E-13
 -1      3981 2.26171E+01-1.57883E+00-8.19773E-03 1.27866E-01-8.97871E-14-3.08768E-13
 -1      3982 2.30201E+01-1.75910E+00-6.96001E-03 3.57350E-01-1.35792E-13-3.81710E-13
 -1      3983 2.00815E+01-1.30974E-01-3.84268E-03 3.40856E-01-1.06517E-13-9.26990E-14
 -1      3984 2.01627E+01-1.85909E-01 1.55677E-03 3.14544E-01-8.78045E-14-1.23001E-13
 -1      3985 2.02430E+01-2.59807E-01 3.03369E-03 3.45141E-01-4.39653E-14-1.37515E-13
 -1      3986 1.91890E+01 5.62566E-01 4.86496E-03 5.80344E-01-1.17617E-13-1.19309E-13
 -1      3987 2.46527E+01-1.54720E+00 2.08553E-02-2.51444E-01-4.18676E-15-5.87711E-13
 -1      3988 2.48396E+01-2.17892E+00-4.40482E-02 3.97373E-01-1.24664E-13-6.74293E-13
 -1      3989 1.92340E+01-3.13551E-01-1.05498E-03 2.51463E+00-3.62935E-13-8.89783E-14
 -1      3990 2.04334E+01-4.50258E-01-6.32675E-03 3.08163E-01-7.00680E-14-1.70131E-13
 -1      3991 2.00002E+01-4.46437E-04-3.58052E-07 1.69950E-04 8.90708E-14 1.96250E-13
 -1      3992 2.00001E+01-4.00378E-04 7.08585E-07 1.28707E-04 1.38026E-13 4.55095E-14
 -1      3993 2.00002E+01-4.11212E-04 2.09942E-07 8.17603E-05-7.24237E-14-3.05123E-13
 -1      3994 2.06066E+01-5.76724E-01 5.77465E-03 4.77720E-01-8.24252E-14-1.73848E-13
 -1      3995 2.07810E+01-7.17025E-01 2.97776E-03 4.88948E-01-1.96072E-13-1.88654E-13
 -1      3996 2.10111E+01-8.69522E-01 8.68562E-03 5.22827E-01-2.59980E-13-1.30387E-13
 -1      3997 2.12456E+01-1.03554E+00 1.06950E-03 4.99709E-01-2.00470E-13-1.47684E-13
 -1      3998 2.08064E+01-8.01995E-01-1.16461E-02 6.93628E-01-1.68907E-13-1.57611E-13
 -1      3999 2.42423E+01-2.43233E+00 1.08681E-03 1.25933E+00-2.09560E-13-5.87847E-13
 -1      4000 2.45392E+01 1.14095E+00 4.85416E-03-1.55310E+00 3.76073E-13-6.68608E-13
 -1      4001 2.44747E+01 2.73082E-01-2.61653E-02-1.42507E+00 2.68143E-13-6.26591E-13
 -1      4002 2.43080E+01-6.23529E-01 8.75916E-03-1.08105E+00 1.64046E-13-5.90653E-13
 -1      4003 2.15535E+01-1.54937E+00 1.15873E-02 2.00878E+00-4.18574E-13-3.61873E-13
 -1      4004 2.08272E+01-1.14563E+00-6.15931E-03 2.02337E+00-4.10557E-13-2.85463E-13
 -1      4005 1.97020E+01 2.77360E-01-4.30252E-03 1.36078E-01-9.43745E-14-5.78452E-14
 -1      4006 1.97631E+01 2.50532E-01 9.15717E-04 9.90287E-02-1.36925E-13-1.37708E-13
 -1      4007 1.97931E+01 2.21821E-01-2.30840E-03 6.49638E-02-2.13844E-13-8.87960E-14
 -1      4008 1.98347E+01 1.97864E-01 6.42145E-04 4.42180E-02-2.58693E-13-7.90376E-14
 -1      4009 1.97998E+01 2.10770E-01 1.26665E-03 1.17606E-01-1.76088E-13-2.59017E-13
 -1      4010 1.98563E+01 1.73562E-01-1.90921E-03 2.52077E-02-2.77020E-13-1.41168E-14
 -1      4011 1.98860E+01 1.53654E-01 2.46456E-04 1.44668E-02-2.28626E-13-9.49506E-14
 -1      4012 1.98551E+01 1.74236E-01 1.52271E-03 6.07569E-02-2.45801E-13-1.15020E-13
 -1      4013 1.99028E+01 1.33948E-01-1.23733E-03 3.89294E-03-1.54551E-13-6.58683E-14
 -1      4014 1.99230E+01 1.17615E-01 2.48498E-05-8.85292E-04-1.27784E-13-2.09160E-13
 -1      4015 1.98988E+01 1.39132E-01 1.48424E-03 2.73677E-02-1.90426E-13 8.55396E-15
 -1      4016 1.99356E+01 1.02129E-01-7.63743E-04-6.27281E-03-9.15969E-15-1.52825E-13
 -1      4017 1.99491E+01 8.90638E-02-7.69510E-05-7.72822E-03 1.30787E-13-1.81054E-13
 -1      4018 1.99306E+01 1.08823E-01 1.16296E-03 9.02627E-03 1.39522E-14 4.36738E-14
 -1      4019 1.99584E+01 7.70404E-02-4.55958E-04-1.00840E-02 1.06578E-13-1.80670E-13
 -1      4020 1.99673E+01 6.67583E-02-1.14848E-04-9.82151E-03 4.72905E-15-7.50379E-14
 -1      4021 1.99535E+01 8.37890E-02 8.65895E-04-2.45969E-04 6.39794E-14-1.07109E-13
 -1      4022 1.99740E+01 5.75075E-02-2.61980E-04-1.05157E-02-9.52189E-14-1.07815E-13
 -1      4023 1.99798E+01 4.95115E-02-1.19236E-04-9.48234E-03-1.83850E-13-9.77254E-14
 -1      4024 1.99697E+01 6.36128E-02 6.27342E-04-4.28308E-03-1.32599E-14-2.42348E-13
 -1      4025 1.99846E+01 4.24453E-02-1.43053E-04-9.34291E-03-2.28815E-13-1.06911E-13
 -1      4026 1.99883E+01 3.62886E-02-1.07576E-04-8.06971E-03-2.19752E-13-4.38669E-14
 -1      4027 1.99812E+01 4.76331E-02 4.44823E-04-5.46588E-03-1.40075E-13-1.23082E-13
 -1      4028 1.99916E+01 3.09275E-02-7.22691E-05-7.57505E-03-3.03171E-13 2.61698E-14
 -1      4029 1.99939E+01 2.62314E-02-8.96607E-05-6.33814E-03-2.48955E-13-7.09193E-14
 -1      4030 1.99890E+01 3.51524E-02 3.09057E-04-5.22197E-03-2.09122E-13 6.61644E-14
 -1      4031 1.99961E+01 2.21931E-02-3.16044E-05-5.74915E-03-4.61652E-14-8.36714E-14
 -1      4032 1.99975E+01 1.86459E-02-7.07352E-05-4.67430E-03 5.72741E-14-4.29322E-14
 -1      4033 1.99943E+01 2.55246E-02 2.10080E-04-4.37224E-03-9.91127E-14 2.22303E-13
 -1      4034 1.99990E+01 1.56295E-02-9.31391E-06-4.12109E-03-2.57385E-14-9.38429E-14
 -1      4035 1.99998E+01 1.29793E-02-5.33838E-05-3.24940E-03-9.22623E-14-1.19481E-13
 -1      4036 1.99978E+01 1.81866E-02 1.39091E-04-3.36238E-03-1.91849E-14 1.17913E-13
 -1      4037 2.00007E+01 1.07488E-02 2.07285E-06-2.78663E-03-1.54398E-14-1.14824E-13
 -1      4038 2.00011E+01 8.79361E-03-3.86762E-05-2.11475E-03-4.15850E-14 1.48461E-13
 -1      4039 1.99999E+01 1.26637E-02 8.89342E-05-2.41366E-03-2.63097E-14 2.20880E-14
 -1      4040 2.00017E+01 7.16474E-03 7.19874E-06-1.75599E-03-5.10756E-14 1.22058E-13
 -1      4041 2.00018E+01 5.74365E-03-2.68535E-05-1.25984E-03 3.28334E-14 1.88268E-13
 -1      4042 2.00012E+01 8.56415E-03 5.40515E-05-1.61854E-03 5.27967E-14 1.87988E-13
 -1      4043 2.00021E+01 4.57230E-03 8.88211E-06-9.98190E-04 1.07536E-13 9.08115E-14
 -1      4044 2.00021E+01 3.55795E-03-1.77344E-05-6.46513E-04 3.24197E-13 1.27091E-13
 -1      4045 2.00019E+01 5.56876E-03 3.02370E-05-9.99726E-04 8.54697E-14 1.33039E-13
 -1      4046 2.00022E+01 2.73168E-03 8.78977E-06-4.66496E-04 2.38927E-13 8.02027E-14
 -1      4047 2.00021E+01 2.02372E-03-1.09508E-05-2.27966E-04 1.17159E-13 4.96768E-14
 -1      4048 2.00021E+01 3.42042E-03 1.43602E-05-5.45368E-04 1.89680E-13-1.12552E-13
 -1      4049 2.00021E+01 1.45507E-03 7.87745E-06-1.12028E-04 4.71752E-14 2.37861E-13
 -1      4050 2.00020E+01 9.74995E-04-6.08000E-06 4.13009E-05-1.23604E-13 1.38764E-13
 -1      4051 2.00021E+01 1.91394E-03 4.11429E-06-2.29298E-04 2.11094E-13-1.55680E-13
 -1      4052 2.00019E+01 5.96202E-04 6.67154E-06 1.09557E-04-2.17475E-14 2.79608E-13
 -1      4053 2.00018E+01 2.83073E-04-2.71419E-06 2.00977E-04 4.10768E-13 1.87237E-13
 -1      4054 2.00020E+01 8.87187E-04-2.18773E-06-2.19532E-05 2.60459E-14-9.62433E-14
 -1      4055 2.00017E+01 4.20251E-05 5.44561E-06 2.35428E-04 5.61284E-13 9.08790E-14
 -1      4056 2.00015E+01-1.51010E-04-4.93002E-07 2.83455E-04 4.59138E-13 2.56130E-13
 -1      4057 2.00018E+01 2.13357E-04-5.77226E-06 1.04211E-04 4.05017E-13 1.12375E-13
 -1      4058 2.00014E+01-2.94049E-04 4.32872E-06 2.95118E-04 3.41529E-13 2.94672E-13
 -1      4059 2.00012E+01-4.02603E-04 8.85112E-07 3.13934E-04 2.19716E-13 2.67457E-13
 -1      4060 2.00015E+01-2.05607E-04-7.52430E-06 1.72473E-04 3.66959E-13 4.97995E-14
 -1      4061 2.00011E+01-4.77603E-04 3.37072E-06 3.11146E-04 1.00772E-13 1.85329E-13
 -1      4062 2.00010E+01-5.28399E-04 1.66383E-06 3.11261E-04-6.51328E-14 2.70521E-13
 -1      4063 2.00012E+01-4.44586E-04-8.07554E-06 2.01314E-04 9.41547E-14 7.08897E-14
 -1      4064 2.00009E+01-5.57682E-04 2.58086E-06 3.00082E-04-2.04616E-14 4.50137E-13
 -1      4065 2.00008E+01-5.70470E-04 2.03561E-06 2.89021E-04 1.64362E-13 6.30216E-13
 -1      4066 2.00010E+01-5.59977E-04-7.86588E-06 2.04754E-04 1.26607E-13 3.45744E-13
 -1      4067 2.00007E+01-5.70501E-04 1.94079E-06 2.73640E-04-6.41510E-15 5.39441E-13
 -1      4068 2.00006E+01-5.59615E-04 2.04639E-06 2.56569E-04 1.12274E-13 6.36995E-13
 -1      4069 2.00008E+01-5.93601E-04-7.16713E-06 1.93061E-04 1.14859E-14 3.33941E-13
 -1      4070 2.00005E+01-5.41574E-04 1.56767E-06 2.39093E-04 7.26193E-14 4.73217E-13
 -1      4071 2.00004E+01-5.16517E-04 2.11687E-06 2.19672E-04 1.17212E-14 3.49174E-13
 -1      4072 2.00006E+01-5.75866E-04-5.80762E-06 1.73241E-04 4.83320E-14 1.60229E-13
 -1      4073 2.00003E+01-4.98971E-04 4.76371E-07 2.03670E-04 3.28684E-13 1.72257E-13
 -1      4074 2.00003E+01-4.68358E-04 1.20935E-06 1.83973E-04 2.33294E-13 1.26108E-13
 -1      4075 2.00003E+01-4.85306E-04-8.13560E-07 1.21487E-04 3.18730E-13-1.45959E-13
 -1      4076 2.00004E+01-5.29382E-04-1.74611E-06 1.44615E-04-1.29859E-14-4.59114E-14
 -1      4077 1.99496E+01 2.52645E-02-9.90725E-04 2.41883E-01-1.97106E-13-8.91892E-14
 -1      4078 1.99818E+01-1.34621E-03 3.39909E-03 2.83572E-01-1.54264E-13-9.91385E-14
 -1      4079 1.99750E+01 4.82616E-02-3.14290E-04 1.87978E-02 8.45076E-14-1.97854E-13
 -1      4080 1.99719E+01 5.36328E-02 2.06592E-04 2.37038E-02 6.43711E-14-1.55742E-13
 -1      4081 1.92587E+01 4.17243E-01-8.09640E-03 7.37935E-01-1.03493E-13-1.96119E-13
 -1      4082 1.93988E+01 4.13275E-01 5.87915E-03 5.75203E-01-9.41631E-14-1.19428E-13
 -1      4083 2.00780E+01-7.31381E-01-2.23258E-02 2.15308E+00-3.58877E-13-2.40264E-13
 -1      4084 1.91238E+01-8.16850E-02 6.32211E-03 2.22205E+00-2.95691E-13-1.20889E-13
 -1      4085 1.92286E+01 4.89821E-02 1.57964E-02 1.88298E+00-2.59054E-13-1.50044E-13
 -1      4086 1.99430E+01 7.37004E-02-8.53694E-04 7.15307E-02-1.75794E-13-7.54898E-14
 -1      4087 1.99442E+01 7.56420E-02 1.07070E-03 8.71625E-02-1.57780E-13-9.32931E-14
 -1      4088 1.99830E+01 3.85501E-02-2.17336E-04 1.17472E-02 1.27785E-13 3.25341E-16
 -1      4089 1.99802E+01 4.34891E-02 1.04642E-04 1.50441E-02 1.19731E-13-1.98419E-14
 -1      4090 1.99758E+01 5.02616E-02 4.19756E-04 1.34218E-02 2.06649E-14-4.66945E-14
 -1      4091 1.99892E+01 2.98891E-02-1.48218E-04 7.21230E-03 1.17390E-14 4.96838E-14
 -1      4092 1.99869E+01 3.41739E-02 4.68340E-05 9.42488E-03 1.79569E-13 3.98322E-14
 -1      4093 1.99840E+01 3.93154E-02 3.10271E-04 7.80596E-03 1.15787E-13 4.19929E-14
 -1      4094 1.99937E+01 2.25413E-02-9.96314E-05 4.31117E-03-1.15643E-13 5.26383E-14
 -1      4095 1.99920E+01 2.61072E-02 1.62147E-05 5.79548E-03-4.31424E-14-1.61755E-15
 -1      4096 1.99902E+01 2.99774E-02 2.23177E-04 4.40602E-03 4.16039E-14 2.53887E-14
 -1      4097 1.99970E+01 1.65369E-02-6.58394E-05 2.46519E-03-2.10632E-13 3.03599E-14
 -1      4098 1.99957E+01 1.94089E-02 1.57089E-06 3.45993E-03-1.88814E-13 4.55229E-14
 -1      4099 1.99946E+01 2.22947E-02 1.56085E-04 2.37611E-03-1.90309E-13 9.60476E-14
 -1      4100 1.99992E+01 1.17787E-02-4.25455E-05 1.29917E-03-1.77954E-13-1.72638E-13
 -1      4101 1.99983E+01 1.40282E-02-4.20374E-06 1.96350E-03-1.81371E-13-1.08555E-14
 -1      4102 1.99977E+01 1.61558E-02 1.05683E-04 1.18170E-03-1.98594E-13-1.45181E-13
 -1      4103 2.00006E+01 8.10890E-03-2.66278E-05 5.71541E-04-2.96295E-14-2.37036E-13
 -1      4104 2.00000E+01 9.82646E-03-5.42658E-06 1.01164E-03-1.06741E-13-1.88814E-13
 -1      4105 1.99997E+01 1.13736E-02 6.86598E-05 4.91009E-04-9.24215E-14-2.15817E-13
 -1      4106 2.00014E+01 5.35027E-03-1.58612E-05 1.27109E-04 1.05548E-13-2.32511E-13
 -1      4107 2.00011E+01 6.62947E-03-4.59881E-06 4.14185E-04 6.64347E-14-2.13356E-13
 -1      4108 2.00009E+01 7.73526E-03 4.20663E-05 1.01267E-04-8.56034E-14-2.02021E-13
 -1      4109 2.00018E+01 3.32968E-03-8.67782E-06-1.34096E-04 1.52232E-13-5.08986E-14
 -1      4110 2.00016E+01 4.25807E-03-3.08403E-06 4.81974E-05 1.19330E-13-1.45813E-13
 -1      4111 2.00016E+01 5.03139E-03 2.34319E-05-1.09957E-04-2.24143E-14-1.67026E-13
 -1      4112 2.00019E+01 1.89056E-03-3.97847E-06-2.76882E-04 1.14125E-13-5.87647E-14
 -1      4113 2.00018E+01 2.54528E-03-1.56201E-06-1.66300E-04 1.96359E-13 3.28334E-14
 -1      4114 2.00019E+01 3.07098E-03 1.07573E-05-2.15935E-04 9.76690E-14 3.10107E-14
 -1      4115 2.00018E+01 8.98237E-04-9.93532E-07-3.43653E-04 3.16839E-13 6.76834E-14
 -1      4116 2.00018E+01 1.34449E-03-3.20945E-07-2.81836E-04 2.04327E-13-3.54037E-14
 -1      4117 2.00020E+01 1.68836E-03 2.46349E-06-2.60315E-04 1.60519E-13-1.13069E-14
 -1      4118 2.00016E+01 2.41101E-04 8.16520E-07-3.62434E-04 4.34540E-13-7.94389E-15
 -1      4119 2.00017E+01 5.32245E-04 5.61071E-07-3.33303E-04 4.81628E-13 1.25534E-13
 -1      4120 2.00018E+01 7.44923E-04-2.67360E-06-2.69107E-04 3.49363E-13 9.28978E-14
 -1      4121 2.00014E+01-1.70679E-04 1.83068E-06-3.51901E-04 3.36367E-13 1.35616E-13
 -1      4122 2.00015E+01 7.85715E-06 1.10791E-06-3.44127E-04 3.20690E-13 6.50913E-14
 -1      4123 2.00016E+01 1.27931E-04-5.58700E-06-2.57887E-04 2.97083E-13 7.65240E-14
 -1      4124 2.00012E+01-4.07595E-04 2.31586E-06-3.24547E-04 4.24759E-13 2.16680E-13
 -1      4125 2.00013E+01-3.08591E-04 1.38412E-06-3.30150E-04 5.19536E-13 3.26463E-13
 -1      4126 2.00014E+01-2.52075E-04-6.97599E-06-2.36061E-04 3.09622E-13 1.22366E-13
 -1      4127 2.00009E+01-5.23717E-04 2.46085E-06-2.88692E-04 1.31932E-13 1.25943E-13
 -1      4128 2.00010E+01-4.79066E-04 1.46243E-06-3.02101E-04 3.62508E-13 3.23023E-13
 -1      4129 2.00012E+01-4.64558E-04-7.35269E-06-2.09370E-04 3.59180E-13 2.97714E-13
 -1      4130 2.00007E+01-5.59611E-04 2.39585E-06-2.49776E-04-7.42478E-14 1.89448E-13
 -1      4131 2.00008E+01-5.50576E-04 1.40687E-06-2.67187E-04-6.78177E-14 1.78530E-13
 -1      4132 2.00009E+01-5.62322E-04-7.07071E-06-1.81362E-04 2.43460E-14 5.92552E-14
 -1      4133 2.00005E+01-5.45034E-04 2.12964E-06-2.11127E-04-3.52418E-13 2.89022E-13
 -1      4134 2.00006E+01-5.58058E-04 1.25711E-06-2.30053E-04-1.36016E-13 2.66702E-13
 -1      4135 2.00007E+01-5.84600E-04-6.28270E-06-1.54298E-04-1.64491E-13 8.33985E-14
 -1      4136 2.00004E+01-5.01512E-04 1.33407E-06-1.74263E-04 3.03098E-14-1.42015E-13
 -1      4137 2.00004E+01-5.26375E-04 1.10665E-06-1.93296E-04-9.26356E-14 1.59019E-13
 -1      4138 2.00005E+01-5.58863E-04-4.34647E-06-1.29763E-04-6.39798E-14 1.78675E-13
 -1      4139 2.00002E+01-4.44260E-04 2.34861E-07-1.43449E-04-1.80448E-13-2.23747E-13
 -1      4140 2.00003E+01-4.73651E-04 6.83384E-07-1.60911E-04-1.02358E-13-2.98187E-13
 -1      4141 2.00003E+01-5.03157E-04-1.77450E-06-1.05366E-04 3.21338E-14-1.50077E-13
 -1      4142 1.99343E+01 7.35069E-02-9.77698E-04 1.09177E-01-1.31935E-13-1.40176E-13
 -1      4143 1.99399E+01 6.93341E-02 1.14364E-03 1.32071E-01-1.12531E-13-8.87860E-14
 -1      4144 1.99228E+01 9.38351E-02 8.63606E-04 9.58225E-02-1.50146E-13-7.42801E-15
 -1      4145 1.99652E+01 5.83691E-02-4.47729E-04 2.96854E-02-6.25860E-14-2.01545E-13
 -1      4146 1.99624E+01 6.36920E-02 3.77115E-04 3.69599E-02-5.26993E-14-1.23489E-13
 -1      4147 1.99653E+01 6.24774E-02 5.51006E-04 2.25642E-02-5.97492E-14-1.57718E-13
 -1      4148 2.04561E+01-4.55179E-01 3.21494E-03 4.25920E-01-4.00779E-14-1.66237E-13
 -1      4149 2.04471E+01-5.03148E-01-8.41105E-03 5.80881E-01-5.36822E-14-1.67776E-13
 -1      4150 2.03345E+01-3.48940E-01 3.24400E-03 3.99262E-01-6.86165E-14-1.41266E-13
 -1      4151 1.90804E+01 3.89386E-01-2.81447E-03 1.18252E+00-1.95723E-13-1.56931E-13
 -1      4152 1.92366E+01 4.14387E-01 9.65483E-03 9.30250E-01-1.38380E-13-1.41408E-13
 -1      4153 1.94448E+01 2.37802E-01-1.92461E-03 9.10435E-01-1.28574E-13-1.82378E-13
 -1      4154 1.94379E+01 3.89059E-01-6.78651E-03 4.43194E-01-1.78197E-13-1.46410E-13
 -1      4155 1.95500E+01 3.69035E-01 4.54806E-03 3.38865E-01-1.69983E-13-1.56975E-13
 -1      4156 1.95416E+01 2.87111E-01 1.62484E-03 5.83154E-01-1.48083E-13-1.94006E-13
 -1      4157 2.37853E+01-2.14490E+00 2.63563E-02 9.79803E-01-1.91972E-13-5.01962E-13
 -1      4158 2.15799E+01-1.20113E+00 1.29330E-02 4.81361E-01-2.17868E-13-2.22833E-13
 -1      4159 2.18669E+01-1.35994E+00-1.97578E-03 3.96426E-01-2.02667E-13-2.80129E-13
 -1      4160 2.13488E+01-1.17620E+00-1.46775E-02 7.54074E-01-2.23704E-13-1.24820E-13
 -1      4161 1.99350E+01 6.02227E-02-6.03855E-04 1.63294E-01-1.45536E-13-1.20078E-13
 -1      4162 1.99491E+01 4.80891E-02 2.18895E-03 1.95019E-01-1.65662E-13-1.20521E-13
 -1      4163 1.99081E+01 7.38108E-02 5.62529E-04 2.27664E-01-1.81214E-13-7.62243E-14
 -1      4164 1.99097E+01 8.73885E-02-1.02703E-03 1.49514E-01-1.35150E-13-8.50282E-14
 -1      4165 1.99542E+01 6.75925E-02-6.26503E-04 4.63452E-02-4.43580E-14-1.94406E-13
 -1      4166 1.99525E+01 7.19815E-02 6.50136E-04 5.70594E-02-1.55487E-13-1.29811E-13
 -1      4167 1.99379E+01 8.65481E-02 8.26554E-04 6.02773E-02-1.51257E-13-8.85951E-14
 -1      4168 1.95837E+01 3.35871E-01-6.23229E-03 2.54040E-01-1.91140E-13-8.06684E-14
 -1      4169 1.96703E+01 3.10177E-01 2.60605E-03 1.90069E-01-1.54546E-13-7.00507E-14
 -1      4170 1.96377E+01 2.83094E-01 2.32656E-03 3.59500E-01-1.30111E-13-2.20471E-13
 -1      4171 2.20908E+01-1.52489E+00-6.75825E-03 6.55647E-01-2.18126E-13-2.41832E-13
 -1      4172 2.10485E+01-1.16731E+00-2.00941E-02 1.53317E+00-3.35396E-13-2.08061E-13
 -1      4173 2.05975E+01-9.04809E-01 8.91893E-03 1.85942E+00-3.39887E-13-1.95214E-13
 -1      4174 2.04023E+01-7.06104E-01 3.72541E-03 1.66537E+00-3.04115E-13-2.45877E-13
 -1      4175 2.02175E+01-2.81452E-01-5.79764E-03 4.55170E-01-4.37635E-14-9.86805E-14
 -1      4176 2.38486E+01-1.92921E+00-2.19724E-02 2.17326E-01-1.30094E-13-5.19611E-13
 -1      4177 2.33851E+01-2.06189E+00-2.43355E-03 8.93417E-01-2.01958E-13-4.82443E-13
 -1      4178 2.00001E+01-3.79798E-04 6.78242E-07-3.17311E-05-1.39691E-13-1.27949E-13
 -1      4179 2.00001E+01-3.74204E-04-1.39415E-08-6.35424E-05-1.70618E-13-1.82947E-13
 -1      4180 2.00001E+01-3.93915E-04-7.10207E-07-8.93739E-05-2.08561E-13-7.05235E-14
 -1      4181 2.00002E+01-4.28120E-04-1.69690E-07-1.10869E-04-1.66002E-13-2.26382E-13
 -1      4182 2.02702E+01-3.42742E-01 2.50052E-03 6.60788E-01-8.85198E-14-1.06899E-13
 -1      4183 2.04212E+01-4.66825E-01 6.20305E-03 7.34377E-01-1.20120E-13-1.35399E-13
 -1      4184 1.99917E+01-4.02286E-02-9.93452E-04 3.47841E-01-8.72061E-14-9.61205E-14
 -1      4185 2.00483E+01-9.08118E-02 3.40213E-03 4.04323E-01-1.54044E-14-3.12245E-14
 -1      4186 1.99249E+01 2.58744E-02-1.21325E-04 3.43487E-01-1.12940E-13-6.09542E-14
 -1      4187 2.42643E+01-1.19236E+00-2.38489E-02-7.34027E-01 6.35266E-14-5.69225E-13
 -1      4188 2.39680E+01-1.57054E+00 3.20302E-03-2.46117E-01-3.28515E-14-5.36480E-13
 -1      4189 1.97262E+01 2.51748E-01 2.00195E-03 2.10810E-01-1.42056E-13-2.32987E-13
 -1      4190 1.99525E+01 7.51247E-02 6.95720E-04 3.72143E-02-8.49256E-14-1.78504E-13
 -1      4191 2.28488E+01-1.95109E+00 4.82058E-03 1.08013E+00-2.22526E-13-3.74409E-13
 -1      4192 1.90509E+01 2.29397E-01 4.40875E-03 1.65654E+00-2.22930E-13-1.21035E-13
 -1      4193 1.91741E+01 2.87522E-01 1.24776E-02 1.38303E+00-2.21001E-13-1.72756E-13
 -1      4194 1.94630E+01 5.71617E-02-1.00994E-02 1.30183E+00-2.12604E-13-1.57803E-13
 -1      4195 1.97069E+01-2.75246E-01-1.41294E-02 1.69770E+00-2.44858E-13-2.11180E-13
 -1      4196 2.36637E+01-1.48214E+00 1.37950E-02-3.27298E-01-6.26454E-14-5.24136E-13
 -1      4197 1.98043E+01 1.85626E-01-1.13629E-03 1.56641E-01-1.46397E-13-1.47924E-13
 -1      4198 1.98380E+01 1.68838E-01 9.00654E-05 1.19818E-01-1.70117E-13-1.59144E-13
 -1      4199 1.98690E+01 1.38512E-01-1.15790E-03 1.04885E-01-1.64330E-13-4.13983E-14
 -1      4200 1.98914E+01 1.26910E-01 1.17320E-04 8.23773E-02-1.80605E-13 4.45523E-14
 -1      4201 1.98986E+01 1.19066E-01-1.60959E-03 6.07860E-02-2.18134E-13 6.00254E-14
 -1      4202 1.99178E+01 1.07446E-01-2.38314E-04 4.72247E-02-1.18996E-13 1.08422E-13
 -1      4203 1.99258E+01 9.88914E-02-1.18920E-03 3.32100E-02-4.02838E-14 1.10518E-14
 -1      4204 1.99400E+01 8.81463E-02-3.22423E-04 2.57670E-02 1.51412E-14-1.12330E-14
 -1      4205 1.99473E+01 7.98767E-02-8.37073E-04 1.69423E-02-6.05278E-14-3.07161E-14
 -1      4206 1.99577E+01 7.04871E-02-3.15157E-04 1.31564E-02-6.35727E-14-1.51648E-13
 -1      4207 1.99639E+01 6.30382E-02-5.74292E-04 7.72460E-03-2.45491E-14-1.03140E-13
 -1      4208 1.99712E+01 5.51384E-02-2.73597E-04 6.04729E-03-1.18293E-13-1.45015E-13
 -1      4209 1.99762E+01 4.87325E-02-3.86168E-04 2.77394E-03-7.68705E-14-4.14876E-14
 -1      4210 1.99813E+01 4.22674E-02-2.22013E-04 2.24822E-03-1.27493E-14 7.80811E-14
 -1      4211 1.99851E+01 3.69402E-02-2.54771E-04 3.16226E-04 7.80531E-14 1.24653E-13
 -1      4212 1.99886E+01 3.17644E-02-1.71751E-04 3.69312E-04 4.17858E-14 1.95025E-13
 -1      4213 1.99914E+01 2.74503E-02-1.64593E-04-7.47062E-04-9.88261E-14 2.34415E-13
 -1      4214 1.99938E+01 2.33846E-02-1.27717E-04-4.44175E-04-5.82975E-14 2.67317E-13
 -1      4215 1.99957E+01 1.99691E-02-1.03571E-04-1.07484E-03-1.54891E-13 2.19850E-13
 -1      4216 1.99972E+01 1.68311E-02-9.14839E-05-7.00797E-04-1.71218E-13 1.47496E-13
 -1      4217 1.99986E+01 1.41823E-02-6.28084E-05-1.04804E-03-6.54667E-14 9.40182E-14
 -1      4218 1.99995E+01 1.18019E-02-6.29553E-05-6.91799E-04-2.71503E-14 9.61026E-14
 -1      4219 2.00004E+01 9.78829E-03-3.59498E-05-8.76929E-04-3.87033E-14 1.52336E-13
 -1      4220 2.00009E+01 8.01473E-03-4.12760E-05-5.76126E-04-4.56959E-14 1.51517E-13
 -1      4221 2.00014E+01 6.51485E-03-1.85472E-05-6.70356E-04-4.82235E-14 1.30213E-13
 -1      4222 2.00017E+01 5.21897E-03-2.53228E-05-4.34872E-04 2.17853E-14 5.48409E-14
 -1      4223 2.00019E+01 4.12588E-03-7.52794E-06-4.79134E-04 8.27638E-14 1.09708E-13
 -1      4224 2.00020E+01 3.19979E-03-1.39582E-05-3.05131E-04 1.80647E-14 3.66467E-15
 -1      4225 2.00021E+01 2.42253E-03-7.85842E-07-3.22490E-04 1.61373E-13 2.29014E-14
 -1      4226 2.00021E+01 1.77794E-03-6.15027E-06-2.00400E-04 1.97680E-13-4.56834E-14
 -1      4227 2.00020E+01 1.24123E-03 3.11658E-06-2.03620E-04 1.76109E-13-5.32577E-14
 -1      4228 2.00020E+01 8.07194E-04-1.02069E-06-1.22457E-04 2.23698E-13 9.99240E-14
 -1      4229 2.00019E+01 4.50083E-04 5.15809E-06-1.18496E-04 2.99346E-13 1.19997E-13
 -1      4230 2.00018E+01 1.70561E-04 2.14728E-06-6.79785E-05 4.02724E-13 9.67416E-14
 -1      4231 2.00016E+01-5.52651E-05 6.00367E-06-6.05906E-05 2.68903E-13 1.02649E-13
 -1      4232 2.00015E+01-2.23849E-04 3.91923E-06-3.20184E-05 1.90964E-13-2.24266E-14
 -1      4233 2.00014E+01-3.55984E-04 6.10283E-06-2.32290E-05 2.75585E-13 9.34980E-14
 -1      4234 2.00012E+01-4.46949E-04 4.72729E-06-9.68905E-06 2.52316E-13 1.82503E-13
 -1      4235 2.00011E+01-5.14102E-04 5.75322E-06-6.05530E-07 2.36907E-13 2.00870E-13
 -1      4236 2.00010E+01-5.52502E-04 4.88246E-06 3.16447E-06 1.57729E-13 1.88256E-13
 -1      4237 2.00009E+01-5.76195E-04 5.12514E-06 1.18943E-05-3.76436E-14 2.10646E-13
 -1      4238 2.00008E+01-5.80603E-04 4.53851E-06 9.84262E-06-7.09696E-14 2.19669E-13
 -1      4239 2.00007E+01-5.76681E-04 4.16505E-06 1.77823E-05-4.11466E-14 1.50829E-13
 -1      4240 2.00006E+01-5.61476E-04 3.25139E-06 1.31879E-05-3.54160E-14-5.88564E-15
 -1      4241 2.00908E+01-1.56492E-01 9.95406E-04 4.87929E-01-6.91031E-14-6.31395E-14
 -1      4242 2.01844E+01-2.38758E-01 5.02163E-03 5.56635E-01-8.55567E-14-1.02094E-13
 -1      4243 2.00951E+01-2.29715E-01-6.99500E-03 6.96430E-01-9.04251E-14-6.92823E-14
 -1      4244 1.97908E+01 1.52759E-01-3.24607E-03 2.87077E-01-1.49553E-13-1.61585E-13
 -1      4245 1.98287E+01 1.51638E-01 1.18202E-03 2.24771E-01-1.17968E-13-1.32037E-13
 -1      4246 2.00001E+01-3.88816E-04 9.60155E-07 3.47612E-05-2.31731E-13-4.71628E-13
 -1      4247 2.00001E+01-3.87936E-04 1.40739E-07 1.16569E-06-1.27068E-13-4.17206E-13
 -1      4248 2.00005E+01-5.41823E-04 1.97782E-06 1.90325E-05 8.00244E-14-1.03451E-13
 -1      4249 2.03270E+01-4.80653E-01-8.93698E-03 9.45063E-01-1.32423E-13-2.16562E-14
 -1      4250 2.05801E+01-6.20696E-01 5.02138E-03 8.51584E-01-1.65072E-13-1.30323E-13
 -1      4251 2.00493E+01-2.50098E-01-1.31232E-04 9.74770E-01-1.39710E-13-1.78183E-13
 -1      4252 2.01953E+01-3.92571E-01 2.99125E-03 1.12723E+00-1.59587E-13-1.97039E-13
 -1      4253 2.08135E+01-7.87419E-01 8.92053E-03 9.10170E-01-1.70762E-13-9.23274E-14
 -1      4254 2.00002E+01-4.40221E-04-6.81563E-08 5.92765E-05-1.47585E-13-2.81009E-13
 -1      4255 1.96413E+01 1.60398E-01-4.60607E-03 6.61974E-01-1.24439E-13-2.27257E-13
 -1      4256 1.96918E+01 1.82017E-01 1.43458E-03 5.32337E-01-9.98263E-14-2.53409E-13
 -1      4257 2.21039E+01-1.85817E+00-1.70360E-02 1.78600E+00-3.18344E-13-3.73905E-13
 -1      4258 2.19278E+01-1.57850E+00 1.04950E-02 1.42795E+00-3.08814E-13-2.32413E-13
 -1      4259 2.00002E+01-4.36926E-04 4.50266E-07-7.40865E-05-3.14546E-13-1.84018E-13
 -1      4260 2.09736E+01-9.40789E-01 7.84937E-03 1.07320E+00-2.57285E-13-1.24432E-13
 -1      4261 2.12985E+01-1.15360E+00 6.95324E-03 1.10784E+00-3.15066E-13-1.52929E-13
 -1      4262 1.97683E+01 1.25023E-01-3.43995E-03 4.45611E-01-7.20402E-14-1.58207E-13
 -1      4263 1.98073E+01 1.37455E-01 2.31576E-03 3.57307E-01-1.10089E-13-1.68434E-13
 -1      4264 2.00002E+01-4.10608E-04-6.47942E-07-2.05537E-05-2.43492E-13-2.87373E-13
 -1      4265 2.06365E+01-7.79327E-01-6.80728E-03 1.24789E+00-2.38512E-13-1.48717E-13
 -1      4266 2.15603E+01-1.35513E+00 2.70042E-03 1.18337E+00-3.09831E-13-1.99022E-13
 -1      4267 2.34835E+01-1.16329E+00-3.38428E-03-7.84065E-01 3.86083E-14-4.69101E-13
 -1      4268 1.97422E+01-1.10463E-01 4.40105E-03 1.31490E+00-1.58906E-13-2.99946E-13
 -1      4269 1.96643E+01 2.04682E-02 7.45710E-03 1.13716E+00-1.68785E-13-2.29512E-13
 -1      4270 1.98731E+01 1.06841E-01-1.57824E-04 2.16466E-01-1.49705E-13-6.88980E-14
 -1      4271 2.00003E+01-4.73538E-04-3.88996E-07 4.17688E-05 8.88142E-14-5.47485E-14
 -1      4272 2.00002E+01-4.49427E-04-2.58795E-08-6.35711E-06-2.84752E-13-2.29519E-13
 -1      4273 1.99746E+01-7.07498E-02-4.86516E-03 4.93760E-01-6.26515E-14-5.77615E-14
 -1      4274 2.00004E+01-5.16147E-04 1.50693E-06-3.65701E-05 1.77365E-13 1.07973E-13
 -1      4275 2.00004E+01-5.28784E-04-1.95944E-06 1.00618E-04 1.22500E-13 5.07587E-14
 -1      4276 2.37154E+01-7.45548E-01 4.36873E-03-1.06064E+00 1.11458E-13-5.01847E-13
 -1      4277 1.98381E+01-1.09991E-01-8.94245E-03 9.88914E-01-1.40132E-13-3.38568E-13
 -1      4278 1.96213E+01 8.02145E-02-2.04783E-03 9.72897E-01-1.45608E-13-2.02279E-13
 -1      4279 1.96655E+01 1.39081E-01 7.12450E-03 7.83358E-01-1.28858E-13-2.75139E-13
 -1      4280 2.00230E+01-1.63186E-01 6.90081E-03 8.30314E-01-9.88593E-14-1.20041E-13
 -1      4281 1.99316E+01-7.51498E-02 7.63129E-04 7.07585E-01-1.02694E-13-1.38977E-13
 -1      4282 2.00003E+01-4.75957E-04-8.99062E-08-6.26886E-05-9.02282E-14-2.51566E-13
 -1      4283 2.00004E+01-5.06836E-04-1.03893E-06-7.15248E-05 1.01356E-13-9.83617E-14
 -1      4284 1.98047E+01 1.27541E-02-4.47155E-03 7.15552E-01-1.03601E-13-2.63723E-13
 -1      4285 1.98858E+01 1.20156E-01 1.07975E-03 1.36250E-01-1.37949E-13-2.58183E-14
 -1      4286 2.20965E+01-1.58968E+00 5.15672E-03 9.80527E-01-2.60075E-13-2.14218E-13
 -1      4287 2.27622E+01-2.03561E+00-5.19246E-03 1.43502E+00-2.72128E-13-3.98198E-13
 -1      4288 2.00002E+01-4.42005E-04 1.34489E-07-4.02488E-05-2.94745E-13-2.35180E-13
 -1      4289 2.04320E+01-6.49214E-01-2.18982E-03 1.36202E+00-2.69649E-13-2.78129E-13
 -1      4290 2.00355E+01-4.07960E-01 8.44675E-03 1.58597E+00-2.72527E-13-3.03289E-13
 -1      4291 1.98776E+01 1.15367E-01-2.22168E-04 1.69616E-01-1.66025E-13-9.88006E-14
 -1      4292 1.98457E+01-2.29909E-01-5.18200E-04 1.40487E+00-1.96201E-13-2.67965E-13
 -1      4293 2.00003E+01-4.82102E-04-4.66333E-07 7.77498E-05 3.15064E-13 1.09960E-14
 -1      4294 2.00003E+01-4.89950E-04 1.40249E-06 8.79637E-06 1.29206E-13 7.80223E-14
 -1      4295 2.00003E+01-5.02138E-04-2.28346E-07 8.80567E-05 2.91248E-13 9.70586E-14
 -1      4296 1.98871E+01 2.79581E-02 3.56719E-03 5.03263E-01-5.77906E-14-1.37511E-13
 -1      4297 1.99294E+01-2.69525E-02 5.23487E-03 5.95237E-01-8.24713E-14-1.27803E-13
 -1      4298 2.25334E+01-1.76041E+00 2.98310E-03 8.79845E-01-2.15764E-13-2.99092E-13
 -1      4299 2.02936E+01-5.05049E-01-2.44194E-03 1.19136E+00-1.78342E-13-1.78186E-13
 -1      4300 1.99781E+01-2.85549E-01-6.89124E-03 1.22387E+00-1.99777E-13-3.85160E-13
 -3
    1PSTEP                         3           1           1          
  100CL  101 1.000000000        4300                     0    1           1
 -4  TOSTRAIN    6    1
 -5  EXX         1    4    1    1
 -5  EYY         1    4    2    2
 -5  EZZ         1    4    3    3
 -5  EXY         1    4    1    2
 -5  EYZ         1    4    2    3
 -5  EZX         1    4    3    1
 -1         1 7.19533E-07-2.90508E-05-4.83857E-07-2.78721E-05-4.22085E-17-2.80010E-17
 -1         2 3.75506E-05-1.13854E-04 2.05066E-05 4.45522E-07 5.11978E-18 6.29054E-19
 -1         3 9.52371E-05-2.85711E-05-2.85712E-05 4.40854E-12-3.43249E-18-5.52364E-18
 -1         4 9.52372E-05-2.85711E-05-2.85712E-05-5.04066E-12-1.46853E-19-3.92045E-19
 -1         5 1.37299E-04-2.10467E-05-3.99150E-05 3.95457E-05-4.34898E-19 3.44734E-17
 -1         6 2.09904E-04 4.58390E-10-6.76352E-05-5.93949E-05-1.77602E-18 2.16800E-17
 -1         7 1.32343E-04-2.14632E-06-5.44176E-05-1.14132E-05-2.96462E-20 2.86662E-18
 -1         8 8.92609E-05 4.41833E-07-3.84753E-05 4.05466E-06 6.14099E-20-3.23802E-18
 -1         9 5.44072E-05 1.60101E-06-2.54823E-05 9.19514E-07 1.12867E-19-6.58949E-18
 -1        10 3.68851E-05 1.95310E-06-1.86632E-05-1.25377E-05-9.14266E-20-7.92625E-18
 -1        11 3.84891E-05 1.44560E-06-1.86687E-05-2.45927E-05-2.81850E-19-8.25778E-18
 -1        12 5.13483E-05 7.03505E-07-2.27627E-05-3.13205E-05-4.02764E-19-8.31175E-18
 -1        13 7.14311E-05-2.01807E-07-2.98079E-05-2.93090E-05-3.90694E-19-8.31473E-18
 -1        14 8.73609E-05-6.33131E-07-3.59443E-05-1.99150E-05-2.90321E-19-8.23820E-18
 -1        15 9.58180E-05-6.47481E-07-3.96316E-05-8.42222E-06-1.25149E-19-8.34442E-18
 -1        16 9.80187E-05-4.76496E-07-4.09469E-05 1.72054E-06-4.55082E-20-8.39110E-18
 -1        17 9.63480E-05-2.81830E-07-4.06009E-05 9.48764E-06 6.06158E-20-8.30238E-18
 -1        18 9.28436E-05-1.33253E-07-3.93635E-05 1.51256E-05 1.72954E-19-7.75132E-18
 -1        19 8.86444E-05-1.37494E-08-3.77522E-05 1.95043E-05 2.87118E-19-6.49401E-18
 -1        20 8.47461E-05 1.10510E-07-3.62506E-05 2.31872E-05 3.70233E-19-3.84964E-18
 -1        21 8.23218E-05 3.18601E-07-3.54388E-05 2.68162E-05 4.67264E-19 1.23510E-18
 -1        22 8.52615E-05 3.38906E-07-3.65089E-05 3.20662E-05 7.54389E-20 1.16041E-17
 -1        23 2.08633E-04-6.98390E-05-6.29399E-05-1.48764E-10-8.79908E-19 1.80439E-17
 -1        24 2.04849E-04-6.18116E-05-6.06932E-05 1.82985E-06-5.24257E-20 1.81022E-17
 -1        25 2.02102E-04-6.15680E-05-5.77319E-05-1.48125E-06 1.67871E-19 1.94340E-17
 -1        26 1.69181E-04-5.06607E-05-5.02930E-05-8.04592E-06 2.29490E-19 1.93706E-17
 -1        27 1.19616E-04-3.32426E-05-4.18169E-05-8.22557E-06-4.13537E-19 1.29588E-17
 -1        28 8.32363E-05-2.07689E-05-3.62329E-05-1.78741E-06-1.06758E-18-1.00448E-18
 -1        29 9.44184E-05-2.51557E-05-3.69473E-05 5.92348E-06-5.19072E-19-1.74425E-17
 -1        30 1.34415E-04-3.94399E-05-4.25660E-05 7.00548E-06 3.35504E-21-2.25802E-17
 -1        31 1.73261E-04-5.26890E-05-4.95215E-05 3.45597E-06 3.83362E-19-2.17075E-17
 -1        32 1.82146E-04-5.53056E-05-5.23517E-05-2.50946E-07 1.82876E-19-1.57682E-17
 -1        33 1.67574E-04-5.04391E-05-4.95996E-05-1.24447E-06 9.26095E-20-1.14121E-17
 -1        34 1.47409E-04-4.41803E-05-4.44422E-05-1.02157E-06 7.14833E-20-8.12686E-18
 -1        35 1.30182E-04-3.89912E-05-3.94676E-05-6.24425E-07-5.84999E-20-8.36959E-18
 -1        36 1.17763E-04-3.52979E-05-3.56617E-05-3.36677E-07-2.55208E-19-8.23972E-18
 -1        37 1.09479E-04-3.28399E-05-3.30585E-05-1.69450E-07-1.97094E-19-9.46530E-18
 -1        38 1.04157E-04-3.12556E-05-3.13738E-05-8.09284E-08 4.54139E-19-9.29142E-18
 -1        39 1.00795E-04-3.02503E-05-3.03111E-05-3.63358E-08-3.57558E-19-8.60805E-18
 -1        40 9.86875E-05-2.96170E-05-2.96475E-05-1.46690E-08 6.11195E-19-8.88966E-18
 -1        41 9.73680E-05-2.92189E-05-2.92340E-05-4.54955E-09-5.62782E-19-9.20967E-18
 -1        42 9.65410E-05-2.89686E-05-2.89759E-05-1.02053E-10-2.16635E-19-1.16214E-17
 -1        43 9.60219E-05-2.88111E-05-2.88145E-05 1.63447E-09 1.42673E-19-1.17477E-17
 -1        44 9.56958E-05-2.87119E-05-2.87133E-05 2.12630E-09-9.05194E-19-1.33587E-17
 -1        45 9.54912E-05-2.86496E-05-2.86501E-05 2.08527E-09 2.61870E-19-1.47556E-17
 -1        46 9.53638E-05-2.86107E-05-2.86107E-05 1.84690E-09 4.86282E-19-1.31127E-17
 -1        47 9.52855E-05-2.85867E-05-2.85866E-05 1.56170E-09-1.63114E-20-1.00973E-17
 -1        48 9.52388E-05-2.85724E-05-2.85722E-05 1.29122E-09 1.09448E-19-9.25468E-18
 -1        49 9.52123E-05-2.85642E-05-2.85640E-05 1.05601E-09-9.15303E-20-8.97050E-18
 -1        50 9.51988E-05-2.85600E-05-2.85598E-05 8.58967E-10-1.45946E-20-9.76588E-18
 -1        51 9.51933E-05-2.85582E-05-2.85581E-05 6.96371E-10 1.05990E-19-8.59877E-18
 -1        52 9.51929E-05-2.85580E-05-2.85579E-05 5.62804E-10-2.47613E-19-9.24044E-18
 -1        53 9.51955E-05-2.85588E-05-2.85586E-05 4.53083E-10-3.83163E-19-8.21969E-18
 -1        54 9.51996E-05-2.85600E-05-2.85598E-05 3.62863E-10 9.92815E-20-6.22648E-18
 -1        55 9.52044E-05-2.85614E-05-2.85613E-05 2.88681E-10 4.88631E-19-6.57295E-18
 -1        56 9.52093E-05-2.85628E-05-2.85627E-05 2.27805E-10 2.12451E-20-3.67805E-18
 -1        57 9.52140E-05-2.85642E-05-2.85642E-05 1.78057E-10 2.76885E-19-1.98208E-18
 -1        58 9.52183E-05-2.85655E-05-2.85654E-05 1.37659E-10 5.74251E-20-1.66994E-18
 -1        59 9.52220E-05-2.85666E-05-2.85666E-05 1.05123E-10 2.14758E-19-3.83819E-18
 -1        60 9.52253E-05-2.85676E-05-2.85675E-05 7.91784E-11-2.12759E-19-8.57080E-18
 -1        61 9.52280E-05-2.85684E-05-2.85684E-05 5.87288E-11-5.90304E-21-5.39384E-18
 -1        62 9.52302E-05-2.85690E-05-2.85690E-05 4.28230E-11-1.12143E-18-6.37314E-18
 -1        63 9.52320E-05-2.85696E-05-2.85696E-05 3.06380E-11-3.09355E-19-1.15000E-17
 -1        64 9.52334E-05-2.85700E-05-2.85700E-05 2.14669E-11 1.20515E-18-9.41154E-18
 -1        65 9.52345E-05-2.85703E-05-2.85703E-05 1.47070E-11-4.24259E-20-1.99316E-18
 -1        66 9.52353E-05-2.85706E-05-2.85706E-05 9.84283E-12-5.12622E-20-2.71844E-18
 -1        67 9.52360E-05-2.85708E-05-2.85708E-05 6.41772E-12-9.48138E-21-2.24013E-18
 -1        68 9.52365E-05-2.85709E-05-2.85709E-05 3.99323E-12-3.10190E-19-3.62187E-18
 -1        69 9.52368E-05-2.85710E-05-2.85710E-05 2.07373E-12 3.25947E-20-1.37895E-18
 -1        70 9.52370E-05-2.85711E-05-2.85711E-05-1.07888E-13 6.37700E-19-1.08433E-18
 -1        71 9.52372E-05-2.85711E-05-2.85711E-05-3.70679E-12 1.96482E-19-6.69279E-19
 -1        72 9.52372E-05-2.85712E-05-2.85712E-05-1.24343E-11-1.54476E-19-4.15131E-18
 -1        73 9.06485E-05-2.71179E-05-3.06563E-05-1.22578E-06 4.21531E-19 3.17594E-17
 -1        74 7.63649E-05-2.26444E-05-2.41707E-05-1.51589E-07 2.97540E-19 2.46672E-17
 -1        75 6.99948E-05-2.09719E-05-2.13255E-05-3.69760E-09 1.06241E-19 1.94404E-17
 -1        76 6.71559E-05-2.01820E-05-2.02452E-05 9.55350E-10-3.86335E-20 1.63067E-17
 -1        77 6.65877E-05-2.00045E-05-2.00476E-05-1.82757E-08 9.94850E-20 1.35435E-17
 -1        78 6.78119E-05-2.03558E-05-2.04143E-05-5.94752E-08 7.11814E-20 1.17153E-17
 -1        79 7.05002E-05-2.11514E-05-2.12061E-05-1.10550E-07 2.35122E-20 1.01336E-17
 -1        80 7.42331E-05-2.22664E-05-2.22972E-05-1.52874E-07 3.85044E-20 8.55784E-18
 -1        81 7.84908E-05-2.35429E-05-2.35415E-05-1.73743E-07-1.02467E-21 7.55502E-18
 -1        82 8.27484E-05-2.48213E-05-2.47915E-05-1.70275E-07-5.85077E-20 7.09810E-18
 -1        83 8.65843E-05-2.59736E-05-2.59262E-05-1.47786E-07 2.54477E-19 6.40860E-18
 -1        84 8.97423E-05-2.69220E-05-2.68694E-05-1.15327E-07-1.09879E-19 4.99970E-18
 -1        85 9.21351E-05-2.76402E-05-2.75919E-05-8.14224E-08 1.69533E-20 4.64126E-18
 -1        86 9.38052E-05-2.81411E-05-2.81023E-05-5.17819E-08 8.43238E-20 3.99684E-18
 -1        87 9.48707E-05-2.84606E-05-2.84326E-05-2.89785E-08 4.49399E-20 4.41890E-18
 -1        88 9.54769E-05-2.86423E-05-2.86242E-05-1.32334E-08 5.75037E-20 3.65169E-18
 -1        89 9.57635E-05-2.87282E-05-2.87178E-05-3.46677E-09-9.18683E-20 3.22904E-18
 -1        90 9.58464E-05-2.87532E-05-2.87482E-05 1.85397E-09-1.64828E-19 2.63247E-18
 -1        91 9.58129E-05-2.87433E-05-2.87417E-05 4.20116E-09 5.59960E-20 1.82139E-18
 -1        92 9.57233E-05-2.87166E-05-2.87169E-05 4.75682E-09 1.43668E-19 1.75062E-19
 -1        93 9.56155E-05-2.86844E-05-2.86856E-05 4.36322E-09 6.15881E-22 6.21481E-19
 -1        94 9.55115E-05-2.86533E-05-2.86548E-05 3.56423E-09 1.30936E-19 1.72646E-18
 -1        95 9.54218E-05-2.86265E-05-2.86279E-05 2.67803E-09 1.42024E-19 2.16572E-18
 -1        96 9.53502E-05-2.86051E-05-2.86063E-05 1.86898E-09-3.52507E-19 4.54801E-18
 -1        97 9.52966E-05-2.85890E-05-2.85900E-05 1.20522E-09-2.66353E-20 6.29272E-18
 -1        98 9.52587E-05-2.85777E-05-2.85784E-05 7.00014E-10 1.76481E-19 5.40578E-18
 -1        99 9.52336E-05-2.85702E-05-2.85706E-05 3.38915E-10 6.50408E-19 2.97164E-18
 -1       100 9.52184E-05-2.85656E-05-2.85659E-05 9.63263E-11-3.62980E-19 1.45932E-19
 -1       101 9.52102E-05-2.85631E-05-2.85633E-05-5.52723E-11 1.88076E-19 2.41048E-18
 -1       102 9.52071E-05-2.85622E-05-2.85623E-05-1.40773E-10 3.03405E-19 1.69258E-19
 -1       103 9.52072E-05-2.85622E-05-2.85622E-05-1.80671E-10-3.77682E-19 3.36651E-19
 -1       104 9.52092E-05-2.85628E-05-2.85628E-05-1.90801E-10 2.48981E-19 1.93916E-18
 -1       105 9.52123E-05-2.85637E-05-2.85637E-05-1.82802E-10 7.76989E-19 1.27846E-18
 -1       106 9.52158E-05-2.85648E-05-2.85647E-05-1.64860E-10 2.75601E-19-3.80742E-19
 -1       107 9.52193E-05-2.85658E-05-2.85658E-05-1.42479E-10-1.99489E-19-1.09581E-18
 -1       108 9.52226E-05-2.85668E-05-2.85668E-05-1.19176E-10-7.86647E-19 1.78853E-18
 -1       109 9.52256E-05-2.85677E-05-2.85676E-05-9.70501E-11 7.74137E-20 3.52189E-18
 -1       110 9.52281E-05-2.85684E-05-2.85684E-05-7.72277E-11 2.08144E-19 2.32840E-18
 -1       111 9.52303E-05-2.85691E-05-2.85690E-05-6.01943E-11 2.51263E-19 2.01811E-18
 -1       112 9.52320E-05-2.85696E-05-2.85696E-05-4.60347E-11-1.13158E-19 1.89610E-18
 -1       113 9.52334E-05-2.85700E-05-2.85700E-05-3.45994E-11 4.62705E-19 6.35045E-19
 -1       114 9.52345E-05-2.85703E-05-2.85703E-05-2.56174E-11 1.47380E-19-8.83564E-19
 -1       115 9.52353E-05-2.85706E-05-2.85706E-05-1.87640E-11-9.97930E-19-1.82312E-18
 -1       116 9.52360E-05-2.85708E-05-2.85708E-05-1.36986E-11 1.84459E-20-1.41953E-18
 -1       117 9.52365E-05-2.85709E-05-2.85709E-05-1.00550E-11 4.71949E-20-2.42631E-18
 -1       118 9.52368E-05-2.85710E-05-2.85710E-05-7.30451E-12 1.55482E-19-4.17321E-18
 -1       119 9.52370E-05-2.85711E-05-2.85711E-05-4.59307E-12-6.88385E-19-2.27180E-18
 -1       120 9.52372E-05-2.85711E-05-2.85711E-05 3.84460E-13 7.61592E-19-2.22473E-18
 -1       121 9.52372E-05-2.85712E-05-2.85712E-05 1.04438E-11 1.63970E-18-6.33369E-18
 -1       122 9.52371E-05-2.85711E-05-2.85712E-05 1.39927E-11-3.46972E-18 3.43058E-18
 -1       123 9.52371E-05-2.85711E-05-2.85711E-05 3.20856E-12 2.43899E-18 4.85036E-19
 -1       124 9.52372E-05-2.85713E-05-2.85711E-05-5.15252E-12 2.69756E-18-5.57077E-19
 -1       125 9.52372E-05-2.85714E-05-2.85710E-05-8.76815E-12 7.79673E-19 8.72991E-19
 -1       126 9.52373E-05-2.85717E-05-2.85710E-05-9.74780E-12 5.80714E-18 1.57685E-20
 -1       127 9.52374E-05-2.85719E-05-2.85709E-05-8.59316E-12 3.41380E-18 1.18959E-18
 -1       128 9.52374E-05-2.85720E-05-2.85709E-05-5.76177E-12-8.83829E-19 6.55329E-19
 -1       129 9.52374E-05-2.85721E-05-2.85709E-05-1.96891E-12-7.38075E-18 7.82717E-19
 -1       130 9.52374E-05-2.85721E-05-2.85709E-05 2.13267E-12-3.31640E-18 2.46186E-19
 -1       131 9.52374E-05-2.85720E-05-2.85709E-05 5.88803E-12-1.72889E-18-1.07539E-18
 -1       132 9.52374E-05-2.85719E-05-2.85709E-05 8.72852E-12-7.73979E-18-8.81793E-19
 -1       133 9.52373E-05-2.85717E-05-2.85710E-05 9.78282E-12-1.09360E-17 1.77667E-18
 -1       134 9.52372E-05-2.85714E-05-2.85711E-05 8.73382E-12-1.13518E-17-1.11370E-19
 -1       135 9.52372E-05-2.85712E-05-2.85711E-05 4.72749E-12-6.01247E-18 4.81953E-19
 -1       136 9.52371E-05-2.85711E-05-2.85711E-05-4.51496E-12-4.02207E-19 1.22606E-18
 -1       137 9.52371E-05-2.85711E-05-2.85712E-05-1.37208E-11 6.83901E-18 7.97263E-19
 -1       138 2.31033E-05-7.79806E-05 1.32802E-05-2.05465E-05 2.09221E-17 4.50637E-18
 -1       139 6.31216E-06-1.52039E-05-2.73205E-06-5.33096E-06 2.89694E-17 1.44209E-17
 -1       140 1.81981E-05 2.82826E-05-2.18960E-05 4.23481E-05 2.85217E-17 2.20877E-17
 -1       141 8.52636E-05 2.88459E-05-4.54080E-05 1.03185E-04 1.96927E-17 2.35818E-17
 -1       142 1.84884E-04-1.54465E-05-6.45647E-05 1.25149E-04 9.26887E-18 1.74408E-17
 -1       143 2.76536E-04-7.03443E-05-7.73908E-05 8.97050E-05 1.48138E-18 4.50749E-18
 -1       144 3.17596E-04-9.79523E-05-8.23985E-05 1.18643E-05-3.01755E-21-1.30221E-17
 -1       145 2.86966E-04-7.90427E-05-7.89172E-05-7.01992E-05 5.90487E-18-2.83216E-17
 -1       146 1.95626E-04-2.49959E-05-6.65955E-05-1.15403E-04 1.71201E-17-3.75519E-17
 -1       147 9.65722E-05 2.43277E-05-4.95539E-05-1.06783E-04 2.82856E-17-3.76887E-17
 -1       148 2.77696E-05 4.01233E-05-3.06977E-05-6.22817E-05 3.43023E-17-2.93599E-17
 -1       149 2.54863E-06 1.72574E-05-1.26305E-05-1.53524E-05 3.11035E-17-1.65193E-17
 -1       150 7.90037E-06-2.35305E-05 9.70189E-07 7.00096E-06 1.98134E-17-5.84188E-18
 -1       151 2.10485E-05-6.30893E-05 1.05411E-05 3.08840E-06 2.21076E-18-5.34465E-19
 -1       152 2.57214E-05-8.36821E-05 1.47632E-05-1.91663E-05-1.82230E-17-3.32664E-18
 -1       153 1.40679E-05-6.94709E-05 1.12850E-05-3.83101E-05-3.43343E-17-1.37632E-17
 -1       154 1.93510E-05 7.85241E-06-2.04369E-05 2.14436E-05-4.02383E-17-4.08787E-17
 -1       155 1.00208E-04 4.65038E-06-4.53817E-05 8.48649E-05-3.05597E-17-4.72026E-17
 -1       156 2.36063E-04-4.58395E-05-7.05462E-05 1.12835E-04-1.61860E-17-4.15173E-17
 -1       157 3.62531E-04-1.07578E-04-8.80955E-05 6.79768E-05-4.48496E-18-2.29021E-17
 -1       158 3.98364E-04-1.23409E-04-9.35048E-05-3.10097E-05-1.28516E-18 3.79503E-18
 -1       159 3.12810E-04-7.61206E-05-8.36881E-05-1.13492E-04-8.56170E-18 2.68272E-17
 -1       160 1.74535E-04-1.01252E-05-6.31808E-05-1.25210E-04-1.99239E-17 3.69755E-17
 -1       161 5.98478E-05 2.28617E-05-3.76417E-05-7.38177E-05-3.02327E-17 3.57744E-17
 -1       162 9.16997E-06 1.80321E-06-1.29630E-05-8.31651E-06-3.36624E-17 2.60641E-17
 -1       163 9.86492E-06-5.37045E-05 7.28512E-06 3.16213E-05-2.78428E-17 1.33552E-17
 -1       164 3.02843E-05-1.03810E-04 1.88453E-05 2.90739E-05-1.39576E-17 3.73055E-18
 -1       165 1.23177E-04-2.01879E-05-4.41854E-05-2.10676E-06 1.28378E-19 8.91979E-19
 -1       166 6.85225E-05 9.32314E-07-2.98013E-05 1.62203E-06 1.01967E-18-4.45584E-18
 -1       167 3.01120E-05 1.59215E-05-1.96801E-05-7.27130E-06-2.08026E-19-7.65914E-18
 -1       168 2.16579E-05 1.75772E-05-1.67344E-05-2.04196E-05-2.28583E-18-8.65472E-18
 -1       169 3.54504E-05 9.12585E-06-1.90073E-05-3.03987E-05-4.15846E-18-8.35482E-18
 -1       170 6.50589E-05-5.04421E-06-2.56374E-05-3.14030E-05-4.98267E-18-7.33272E-18
 -1       171 9.11850E-05-1.49097E-05-3.26701E-05-2.25350E-05-4.24483E-18-6.52468E-18
 -1       172 1.04910E-04-1.72167E-05-3.75988E-05-1.07077E-05-2.62905E-18-6.27152E-18
 -1       173 1.08156E-04-1.49870E-05-3.99810E-05-5.01965E-07-9.90690E-19-6.37948E-18
 -1       174 1.05618E-04-1.16193E-05-4.03592E-05 7.04469E-06 5.43365E-19-6.40432E-18
 -1       175 1.00867E-04-8.88121E-06-3.95079E-05 1.23925E-05 1.83687E-18-6.24138E-18
 -1       176 9.56210E-05-7.16855E-06-3.80046E-05 1.65483E-05 3.02726E-18-5.47883E-18
 -1       177 9.09653E-05-6.54319E-06-3.63021E-05 2.00986E-05 4.08684E-18-3.87818E-18
 -1       178 8.78968E-05-7.17426E-06-3.47729E-05 2.35831E-05 4.66187E-18-6.46260E-19
 -1       179 8.90375E-05-1.08031E-05-3.37659E-05 2.70305E-05 4.40687E-18 5.66099E-18
 -1       180 9.56278E-05-2.22285E-05-3.26599E-05 2.27827E-05 3.30419E-18 1.40069E-17
 -1       181 1.65997E-04-4.79729E-05-5.04371E-05 2.72000E-06 4.49139E-19 7.78844E-18
 -1       182 1.70164E-04-5.67226E-05-4.82694E-05 6.35360E-07 1.18090E-18 9.28212E-18
 -1       183 1.76387E-04-6.33361E-05-4.83688E-05-2.03657E-05-5.28535E-19 9.62331E-18
 -1       184 1.78071E-04-5.80408E-05-5.16370E-05-3.93058E-05-5.44981E-18 7.19237E-18
 -1       185 1.52395E-04-3.14415E-05-5.38942E-05 7.49535E-06-1.08151E-17-5.67258E-18
 -1       186 1.58806E-04-4.34544E-05-5.05958E-05 3.11128E-05-5.08135E-18-1.10690E-17
 -1       187 1.65207E-04-5.64270E-05-4.68201E-05 2.47369E-05 2.79336E-19-1.32689E-17
 -1       188 1.59941E-04-5.44305E-05-4.49096E-05 9.45911E-07 3.20679E-18-1.19447E-17
 -1       189 1.47904E-04-4.65053E-05-4.32623E-05-1.36607E-05 2.55349E-18-9.11937E-18
 -1       190 1.35041E-04-4.02093E-05-4.06228E-05-1.64503E-05 2.16288E-18-6.80150E-18
 -1       191 1.23815E-04-3.61610E-05-3.75977E-05-1.37898E-05 1.53733E-19-5.29889E-18
 -1       192 1.15027E-04-3.35895E-05-3.49205E-05-1.00084E-05 2.02031E-19-4.50680E-18
 -1       193 1.08612E-04-3.19098E-05-3.28724E-05-6.77883E-06-7.02892E-19-3.75882E-18
 -1       194 1.04136E-04-3.07910E-05-3.14246E-05-4.43471E-06 1.37487E-19-3.67789E-18
 -1       195 1.01100E-04-3.00419E-05-3.04428E-05-2.85207E-06-1.00046E-19-4.12720E-18
 -1       196 9.90743E-05-2.95411E-05-2.97909E-05-1.82048E-06-5.58628E-20-4.44255E-18
 -1       197 9.77353E-05-2.92074E-05-2.93623E-05-1.15934E-06-1.17576E-18-5.06113E-18
 -1       198 9.68540E-05-2.89855E-05-2.90818E-05-7.38574E-07-1.09758E-18-4.69570E-18
 -1       199 9.62751E-05-2.88382E-05-2.88983E-05-4.71124E-07-8.10506E-19-5.61092E-18
 -1       200 9.58950E-05-2.87406E-05-2.87783E-05-3.00737E-07-8.17309E-19-6.51340E-18
 -1       201 9.56456E-05-2.86760E-05-2.86998E-05-1.91707E-07-4.34680E-19-6.59272E-18
 -1       202 9.54825E-05-2.86335E-05-2.86486E-05-1.21553E-07 7.83913E-19-5.62335E-18
 -1       203 9.53763E-05-2.86057E-05-2.86154E-05-7.61660E-08 2.04591E-18-4.76436E-18
 -1       204 9.53081E-05-2.85878E-05-2.85940E-05-4.66772E-08-1.57246E-19-3.95603E-18
 -1       205 9.52649E-05-2.85765E-05-2.85805E-05-2.74899E-08-4.08863E-20-3.94171E-18
 -1       206 9.52386E-05-2.85697E-05-2.85722E-05-1.50444E-08-2.82490E-19-4.58650E-18
 -1       207 9.52233E-05-2.85658E-05-2.85674E-05-7.05271E-09 5.52252E-19-4.61381E-18
 -1       208 9.52154E-05-2.85639E-05-2.85648E-05-2.02529E-09-3.35148E-20-4.48810E-18
 -1       209 9.52121E-05-2.85632E-05-2.85637E-05 1.02203E-09 1.29477E-18-3.22152E-18
 -1       210 9.52118E-05-2.85633E-05-2.85636E-05 2.74892E-09 7.44982E-19-2.31223E-18
 -1       211 9.52132E-05-2.85639E-05-2.85640E-05 3.60340E-09 2.95829E-19-1.99036E-18
 -1       212 9.52156E-05-2.85647E-05-2.85647E-05 3.89265E-09 1.44630E-18-3.16682E-18
 -1       213 9.52184E-05-2.85656E-05-2.85655E-05 3.82824E-09 5.96278E-19-1.82816E-18
 -1       214 9.52212E-05-2.85665E-05-2.85663E-05 3.55564E-09-1.48157E-19-8.30447E-19
 -1       215 9.52239E-05-2.85673E-05-2.85671E-05 3.17387E-09-1.61755E-18-2.16175E-18
 -1       216 9.52264E-05-2.85680E-05-2.85679E-05 2.74905E-09-2.30958E-18-2.18681E-18
 -1       217 9.52286E-05-2.85687E-05-2.85685E-05 2.32383E-09 5.89506E-19-2.29821E-18
 -1       218 9.52305E-05-2.85692E-05-2.85691E-05 1.92425E-09-9.28907E-19-2.29832E-18
 -1       219 9.52320E-05-2.85697E-05-2.85696E-05 1.56471E-09-2.33371E-18-3.55052E-18
 -1       220 9.52333E-05-2.85700E-05-2.85700E-05 1.25154E-09 4.93237E-19-2.87358E-18
 -1       221 9.52343E-05-2.85703E-05-2.85703E-05 9.85660E-10 2.85120E-18-5.07851E-18
 -1       222 9.52351E-05-2.85706E-05-2.85705E-05 7.64426E-10 1.16238E-18-3.82263E-18
 -1       223 9.52357E-05-2.85708E-05-2.85707E-05 5.82871E-10 5.38463E-19-9.43471E-19
 -1       224 9.52362E-05-2.85709E-05-2.85709E-05 4.34502E-10-1.33338E-18-1.13613E-18
 -1       225 9.52366E-05-2.85710E-05-2.85710E-05 3.11805E-10 1.52087E-18-1.43283E-19
 -1       226 9.52368E-05-2.85711E-05-2.85710E-05 2.06696E-10-1.08125E-18-5.56257E-19
 -1       227 9.52370E-05-2.85711E-05-2.85711E-05 1.12169E-10 8.85058E-19-1.80957E-18
 -1       228 9.52371E-05-2.85712E-05-2.85711E-05 2.96664E-11-2.01113E-18-1.88848E-18
 -1       229 9.52371E-05-2.85711E-05-2.85711E-05-6.73716E-12 1.32495E-18-1.36369E-18
 -1       230 8.81002E-05-2.48095E-05-2.73162E-05 1.03788E-05 3.45931E-18 1.20486E-17
 -1       231 8.11325E-05-2.35667E-05-2.46365E-05 4.95534E-06 2.58131E-18 9.47719E-18
 -1       232 7.74789E-05-2.27903E-05-2.33850E-05 2.14902E-06 1.76659E-18 7.31439E-18
 -1       233 7.59582E-05-2.24472E-05-2.29030E-05 1.95405E-07 1.67132E-18 5.71485E-18
 -1       234 7.60756E-05-2.25345E-05-2.29298E-05-1.35362E-06 1.01123E-18 4.41183E-18
 -1       235 7.74941E-05-2.30347E-05-2.33299E-05-2.56157E-06 8.56074E-19 3.48314E-18
 -1       236 7.98401E-05-2.38388E-05-2.39937E-05-3.35032E-06 6.40734E-19 3.06125E-18
 -1       237 8.26995E-05-2.48017E-05-2.48084E-05-3.66795E-06 6.34679E-19 2.63700E-18
 -1       238 8.56695E-05-2.57789E-05-2.56645E-05-3.55081E-06 3.30870E-19 1.95170E-18
 -1       239 8.84246E-05-2.66588E-05-2.64703E-05-3.11351E-06 3.55708E-19 1.53663E-18
 -1       240 9.07561E-05-2.73772E-05-2.71636E-05-2.50397E-06 5.08434E-19 1.54498E-18
 -1       241 9.25755E-05-2.79155E-05-2.77140E-05-1.85748E-06 2.33337E-19 1.40144E-18
 -1       242 9.38896E-05-2.82866E-05-2.81189E-05-1.26975E-06 2.13779E-19 1.18261E-18
 -1       243 9.47649E-05-2.85203E-05-2.83939E-05-7.91242E-07-2.08746E-19 9.92361E-19
 -1       244 9.52941E-05-2.86514E-05-2.85641E-05-4.35489E-07-2.81337E-20 9.18782E-19
 -1       245 9.55719E-05-2.87117E-05-2.86568E-05-1.92413E-07 1.57089E-19 1.07430E-18
 -1       246 9.56815E-05-2.87273E-05-2.86964E-05-4.06274E-08-5.83524E-20 1.42158E-18
 -1       247 9.56881E-05-2.87174E-05-2.87030E-05 4.38506E-08 8.54171E-19 1.42494E-18
 -1       248 9.56392E-05-2.86952E-05-2.86910E-05 8.26587E-08 8.80520E-19 7.92521E-19
 -1       249 9.55664E-05-2.86691E-05-2.86706E-05 9.30106E-08-4.82216E-19 3.32231E-19
 -1       250 9.54891E-05-2.86439E-05-2.86481E-05 8.74038E-08-8.15704E-20 4.13670E-19
 -1       251 9.54183E-05-2.86219E-05-2.86271E-05 7.42285E-08-1.10580E-18 1.24738E-18
 -1       252 9.53588E-05-2.86041E-05-2.86091E-05 5.86907E-08-1.10401E-18 2.69295E-18
 -1       253 9.53119E-05-2.85905E-05-2.85948E-05 4.37262E-08-4.64484E-19 2.79372E-18
 -1       254 9.52769E-05-2.85806E-05-2.85841E-05 3.07636E-08 1.48166E-18 1.47118E-18
 -1       255 9.52522E-05-2.85737E-05-2.85764E-05 2.03011E-08 6.25631E-19 8.75840E-19
 -1       256 9.52358E-05-2.85693E-05-2.85713E-05 1.23101E-08 4.99065E-19 1.75342E-18
 -1       257 9.52257E-05-2.85667E-05-2.85681E-05 6.50009E-09-3.14192E-19 1.25666E-18
 -1       258 9.52202E-05-2.85654E-05-2.85663E-05 2.48151E-09 1.53756E-18 1.60142E-18
 -1       259 9.52180E-05-2.85650E-05-2.85655E-05-1.41811E-10 3.16153E-19-5.82929E-20
 -1       260 9.52179E-05-2.85652E-05-2.85654E-05-1.72604E-09-8.80134E-19-3.56835E-19
 -1       261 9.52190E-05-2.85656E-05-2.85657E-05-2.56844E-09 1.10098E-18 1.31191E-19
 -1       262 9.52210E-05-2.85663E-05-2.85663E-05-2.90445E-09-1.49411E-19-6.71358E-19
 -1       263 9.52232E-05-2.85670E-05-2.85669E-05-2.91279E-09-8.02289E-19 7.81291E-20
 -1       264 9.52254E-05-2.85677E-05-2.85676E-05-2.72419E-09-9.58019E-19 9.58426E-19
 -1       265 9.52275E-05-2.85683E-05-2.85682E-05-2.43075E-09-1.32983E-20 8.22301E-19
 -1       266 9.52295E-05-2.85689E-05-2.85688E-05-2.09476E-09 1.05579E-18-3.65469E-20
 -1       267 9.52311E-05-2.85694E-05-2.85693E-05-1.75627E-09-1.91767E-19-5.05516E-19
 -1       268 9.52325E-05-2.85698E-05-2.85697E-05-1.43923E-09-2.58444E-19-1.72537E-19
 -1       269 9.52337E-05-2.85702E-05-2.85701E-05-1.15630E-09 1.33342E-18 6.85477E-19
 -1       270 9.52346E-05-2.85704E-05-2.85704E-05-9.12455E-10 5.43338E-19 2.62196E-19
 -1       271 9.52353E-05-2.85706E-05-2.85706E-05-7.07535E-10-6.34178E-19-1.57714E-20
 -1       272 9.52359E-05-2.85708E-05-2.85708E-05-5.38086E-10-1.42152E-19 8.17050E-19
 -1       273 9.52364E-05-2.85709E-05-2.85709E-05-3.98477E-10 7.28382E-19 5.13199E-19
 -1       274 9.52367E-05-2.85710E-05-2.85710E-05-2.81551E-10-5.32081E-19-2.29504E-19
 -1       275 9.52369E-05-2.85711E-05-2.85711E-05-1.79622E-10 4.22818E-19-2.68675E-20
 -1       276 9.52370E-05-2.85711E-05-2.85711E-05-8.59884E-11 8.19283E-19-1.94738E-18
 -1       277 9.52371E-05-2.85712E-05-2.85711E-05-7.80940E-12 1.19337E-18 1.87864E-18
 -1       278 9.52371E-05-2.85712E-05-2.85711E-05-5.18255E-11-9.81428E-20 2.63711E-18
 -1       279 9.52372E-05-2.85713E-05-2.85711E-05-1.38510E-10-1.65650E-19 1.37778E-18
 -1       280 9.52372E-05-2.85714E-05-2.85711E-05-2.03679E-10 1.65989E-18 4.03070E-19
 -1       281 9.52373E-05-2.85716E-05-2.85710E-05-2.31549E-10 1.86476E-18 3.10516E-18
 -1       282 9.52373E-05-2.85718E-05-2.85710E-05-2.18305E-10 8.73372E-19-1.12581E-18
 -1       283 9.52374E-05-2.85719E-05-2.85709E-05-1.67980E-10-9.82396E-19-3.37597E-18
 -1       284 9.52374E-05-2.85720E-05-2.85709E-05-9.03586E-11-1.56628E-18-1.67817E-18
 -1       285 9.52374E-05-2.85720E-05-2.85709E-05 1.49931E-12-2.16511E-18-1.48542E-20
 -1       286 9.52374E-05-2.85720E-05-2.85709E-05 9.31079E-11-2.71697E-18 1.92112E-19
 -1       287 9.52374E-05-2.85719E-05-2.85709E-05 1.70027E-10-2.32724E-18-2.54103E-18
 -1       288 9.52373E-05-2.85718E-05-2.85710E-05 2.18813E-10-3.39684E-18-1.53857E-18
 -1       289 9.52373E-05-2.85716E-05-2.85710E-05 2.31464E-10-1.79047E-18-1.33298E-19
 -1       290 9.52372E-05-2.85714E-05-2.85711E-05 2.02430E-10-1.13560E-18 3.19923E-18
 -1       291 9.52372E-05-2.85713E-05-2.85711E-05 1.34454E-10-7.97512E-19 1.20504E-18
 -1       292 9.52371E-05-2.85712E-05-2.85711E-05 5.39934E-11-2.09890E-19 4.03059E-18
 -1       293 1.28706E-05-4.36451E-05 1.01213E-05 1.69213E-05 2.38059E-18 7.75755E-18
 -1       294 3.16729E-05-3.66952E-05 3.66087E-08 3.38889E-05 5.82462E-18 7.15817E-18
 -1       295 5.97028E-05-2.81545E-05-1.47507E-05 4.49889E-05 9.06113E-18 7.67581E-18
 -1       296 1.11267E-04-3.31469E-05-3.33048E-05 5.14617E-05 7.03376E-18 3.36081E-18
 -1       297 1.51381E-04-2.65071E-05-5.19191E-05 5.34873E-05 8.49299E-18 3.61217E-18
 -1       298 1.92237E-04-3.08904E-05-6.62111E-05 4.47503E-05 7.34685E-18 1.79995E-19
 -1       299 2.14099E-04-3.46345E-05-7.37042E-05 1.95276E-05 7.84458E-18-5.80604E-18
 -1       300 2.19578E-04-3.74024E-05-7.48373E-05-8.03738E-06 8.35259E-18-1.15753E-17
 -1       301 1.87779E-04-2.88057E-05-6.65668E-05-2.52398E-05 1.01794E-17-1.22826E-17
 -1       302 1.53898E-04-2.36181E-05-5.48241E-05-4.99478E-05 1.18632E-17-1.57334E-17
 -1       303 1.02872E-04-1.06521E-05-3.95046E-05-5.88761E-05 1.38414E-17-1.66802E-17
 -1       304 6.11329E-05-8.07806E-06-2.34744E-05-5.01877E-05 1.01773E-17-1.30509E-17
 -1       305 2.63703E-05-7.98231E-06-9.29509E-06-3.56876E-05 7.88799E-18-1.10710E-17
 -1       306 1.01842E-05-1.65709E-05 8.47117E-07-2.48553E-05 1.71143E-18-9.53828E-18
 -1       307 2.07384E-06-2.21760E-05 6.28357E-06-1.75677E-05-5.17294E-18-1.01217E-17
 -1       308 5.99276E-06-2.91369E-05 6.42562E-06-6.87353E-06-1.16881E-17-1.21269E-17
 -1       309 2.60553E-05-3.34383E-05-9.55596E-07 8.32455E-06-1.59473E-17-1.52298E-17
 -1       310 6.82260E-05-4.14217E-05-1.52098E-05 2.36129E-05-1.74260E-17-1.78425E-17
 -1       311 1.30202E-04-5.30558E-05-3.46674E-05 2.86719E-05-1.60703E-17-1.85602E-17
 -1       312 1.93398E-04-6.13770E-05-5.51386E-05 1.57740E-05-1.41539E-17-1.51547E-17
 -1       313 2.38797E-04-5.74066E-05-7.24579E-05 2.94924E-06-1.35922E-17-1.13528E-17
 -1       314 2.50134E-04-4.71343E-05-8.02555E-05-8.06374E-06-1.31868E-17-4.97759E-18
 -1       315 2.40338E-04-4.64110E-05-7.75206E-05-7.15812E-06-1.21871E-17 8.46398E-19
 -1       316 2.19957E-04-5.50830E-05-6.67229E-05-2.80535E-05-1.03991E-17 7.47761E-18
 -1       317 1.64699E-04-5.00918E-05-4.84388E-05-3.92390E-05-1.10203E-17 1.21083E-17
 -1       318 1.02330E-04-4.35704E-05-2.70509E-05-3.98228E-05-1.11522E-17 1.26811E-17
 -1       319 5.65345E-05-4.40174E-05-8.11715E-06-3.07831E-05-8.45889E-18 1.07886E-17
 -1       320 2.26050E-05-4.35982E-05 5.83069E-06-1.51426E-05-6.20367E-18 1.02394E-17
 -1       321 1.06024E-05-4.89669E-05 1.26779E-05 2.90897E-06-2.31825E-18 9.55188E-18
 -1       322 1.61099E-04-3.82338E-05-5.40555E-05-3.43827E-05-9.86878E-18 2.88733E-18
 -1       323 4.15237E-05 5.60213E-06-1.96314E-05 5.61893E-06 1.10265E-18-6.78309E-18
 -1       324 1.00777E-04-2.22922E-05-3.33790E-05 9.81412E-06 2.11560E-18-8.78876E-19
 -1       325 1.98799E-05 1.47808E-05-1.43514E-05-3.17684E-05-4.16432E-18-9.50694E-18
 -1       326 5.08204E-05-2.28130E-06-2.04808E-05-3.95181E-05-5.94299E-18-7.68698E-18
 -1       327 8.94511E-05-2.11062E-05-2.91899E-05-3.09318E-05-5.96825E-18-5.17511E-18
 -1       328 1.10831E-04-2.77149E-05-3.56741E-05-1.41525E-05-4.10975E-18-3.78924E-18
 -1       329 1.16096E-04-2.53727E-05-3.89938E-05-8.60347E-07-1.92186E-18-3.75676E-18
 -1       330 1.13333E-04-2.03853E-05-3.99391E-05 7.20224E-06 1.60754E-20-4.04206E-18
 -1       331 1.07785E-04-1.60560E-05-3.94056E-05 1.17812E-05 1.67412E-18-4.22611E-18
 -1       332 1.01774E-04-1.32531E-05-3.80210E-05 1.48283E-05 3.10110E-18-3.97200E-18
 -1       333 9.64702E-05-1.21772E-05-3.62055E-05 1.72463E-05 4.25570E-18-3.09193E-18
 -1       334 9.25526E-05-1.29339E-05-3.42089E-05 1.93094E-05 5.07535E-18-1.18567E-18
 -1       335 9.08576E-05-1.63303E-05-3.20492E-05 2.00616E-05 5.23296E-18 2.60032E-18
 -1       336 9.06643E-05-2.09220E-05-2.99798E-05 1.67503E-05 4.74541E-18 6.50384E-18
 -1       337 8.71970E-05-2.32169E-05-2.73893E-05 9.42872E-06 3.84675E-18 5.07694E-18
 -1       338 1.49135E-04-6.28165E-05-3.67506E-05 7.97506E-06 8.97008E-19 2.69221E-18
 -1       339 1.79655E-04-7.40007E-05-4.54113E-05-1.36610E-05-4.75048E-18 9.82876E-19
 -1       340 1.84168E-04-6.28781E-05-5.24325E-05 1.68411E-05-3.88574E-18-5.56437E-18
 -1       341 1.57649E-04-6.86800E-05-3.81494E-05-7.06692E-06 3.38125E-18-6.05946E-18
 -1       342 1.31086E-04-5.04521E-05-3.43344E-05-2.31438E-05 4.71472E-18-4.68203E-18
 -1       343 1.16080E-04-3.60562E-05-3.41682E-05-2.68368E-05 3.59718E-18-3.80789E-18
 -1       344 1.08798E-04-2.97010E-05-3.38525E-05-2.34949E-05 2.35289E-18-3.08174E-18
 -1       345 1.05022E-04-2.79020E-05-3.30205E-05-1.80390E-05 5.15358E-19-1.92477E-18
 -1       346 1.02558E-04-2.77667E-05-3.20240E-05-1.29031E-05-2.27538E-19-1.45007E-18
 -1       347 1.00700E-04-2.80349E-05-3.11157E-05-8.86223E-06-4.49505E-19-1.26423E-18
 -1       348 9.92491E-05-2.82961E-05-3.03874E-05-5.94553E-06-3.42458E-19-1.32766E-18
 -1       349 9.81322E-05-2.84665E-05-2.98417E-05-3.93674E-06-4.40720E-19-2.06150E-18
 -1       350 9.72940E-05-2.85578E-05-2.94481E-05-2.58921E-06-5.11959E-19-2.79988E-18
 -1       351 9.66789E-05-2.85982E-05-2.91707E-05-1.69814E-06-1.41331E-18-1.99190E-18
 -1       352 9.62351E-05-2.86101E-05-2.89778E-05-1.11295E-06-8.42529E-19-1.76025E-18
 -1       353 9.59189E-05-2.86081E-05-2.88447E-05-7.29416E-07-1.05462E-18-1.90860E-18
 -1       354 9.56958E-05-2.86005E-05-2.87533E-05-4.77757E-07-1.34276E-18-1.92206E-18
 -1       355 9.55398E-05-2.85917E-05-2.86909E-05-3.12108E-07 9.70962E-19-1.95363E-18
 -1       356 9.54316E-05-2.85836E-05-2.86484E-05-2.02633E-07 1.37760E-18-1.55830E-18
 -1       357 9.53573E-05-2.85771E-05-2.86196E-05-1.30001E-07 1.45342E-18-2.64192E-18
 -1       358 9.53069E-05-2.85724E-05-2.86002E-05-8.16935E-08-1.85597E-20-2.11028E-18
 -1       359 9.52734E-05-2.85691E-05-2.85873E-05-4.95720E-08-1.05214E-18-2.85985E-18
 -1       360 9.52516E-05-2.85671E-05-2.85789E-05-2.83089E-08 4.80697E-19-2.44317E-18
 -1       361 9.52380E-05-2.85661E-05-2.85736E-05-1.43824E-08 8.25531E-19-1.88554E-18
 -1       362 9.52299E-05-2.85657E-05-2.85703E-05-5.43776E-09 1.05853E-18-2.05111E-18
 -1       363 9.52257E-05-2.85658E-05-2.85685E-05 1.19567E-10 2.08626E-18-7.41149E-19
 -1       364 9.52239E-05-2.85662E-05-2.85676E-05 3.38211E-09 5.05934E-19 7.60313E-20
 -1       365 9.52237E-05-2.85667E-05-2.85673E-05 5.10586E-09-7.54082E-19-1.54605E-18
 -1       366 9.52245E-05-2.85673E-05-2.85673E-05 5.81732E-09 2.15478E-18-3.52446E-18
 -1       367 9.52257E-05-2.85679E-05-2.85676E-05 5.88372E-09 1.00486E-18-2.99206E-18
 -1       368 9.52272E-05-2.85685E-05-2.85680E-05 5.56023E-09-1.22096E-18-3.08167E-18
 -1       369 9.52288E-05-2.85690E-05-2.85685E-05 5.02218E-09-9.76074E-19-2.95306E-18
 -1       370 9.52302E-05-2.85695E-05-2.85689E-05 4.38771E-09-1.02479E-19-1.95199E-18
 -1       371 9.52315E-05-2.85698E-05-2.85693E-05 3.73400E-09-3.68436E-19-1.99970E-18
 -1       372 9.52327E-05-2.85702E-05-2.85697E-05 3.10898E-09-2.20353E-18-1.03815E-20
 -1       373 9.52337E-05-2.85704E-05-2.85700E-05 2.53995E-09-8.64360E-19 9.18449E-19
 -1       374 9.52345E-05-2.85706E-05-2.85702E-05 2.03991E-09 1.83496E-18-2.11382E-19
 -1       375 9.52352E-05-2.85708E-05-2.85705E-05 1.61212E-09 2.05547E-18-5.59330E-19
 -1       376 9.52357E-05-2.85709E-05-2.85706E-05 1.25338E-09 1.95843E-18-5.29607E-19
 -1       377 9.52362E-05-2.85710E-05-2.85708E-05 9.56277E-10 1.76917E-19 1.06442E-18
 -1       378 9.52365E-05-2.85711E-05-2.85709E-05 7.10760E-10 1.73255E-18 1.93408E-18
 -1       379 9.52367E-05-2.85711E-05-2.85710E-05 5.05587E-10-3.08848E-19 3.26362E-18
 -1       380 9.52369E-05-2.85712E-05-2.85710E-05 3.29660E-10-1.23886E-18 2.25274E-18
 -1       381 9.52370E-05-2.85712E-05-2.85711E-05 1.76974E-10 8.23635E-20 2.11166E-18
 -1       382 8.49378E-05-2.33857E-05-2.63417E-05 2.97008E-06 2.72545E-18 2.10828E-18
 -1       383 8.39538E-05-2.34961E-05-2.58874E-05-4.09938E-07 2.18984E-18 1.21169E-18
 -1       384 8.41027E-05-2.39109E-05-2.57812E-05-3.11385E-06 1.62199E-18 3.61348E-19
 -1       385 8.52042E-05-2.47083E-05-2.59175E-05-5.06299E-06 1.05529E-18-1.56217E-19
 -1       386 8.69223E-05-2.57425E-05-2.62156E-05-6.13583E-06 8.14467E-19-6.50136E-19
 -1       387 8.88839E-05-2.68020E-05-2.66067E-05-6.34226E-06 8.86083E-19-3.99886E-19
 -1       388 9.07722E-05-2.77086E-05-2.70309E-05-5.84891E-06 6.00895E-19-2.32976E-19
 -1       389 9.23835E-05-2.83697E-05-2.74404E-05-4.91468E-06 5.53357E-19-4.60384E-19
 -1       390 9.36315E-05-2.87772E-05-2.78016E-05-3.80295E-06 3.21786E-19-5.73772E-19
 -1       391 9.45182E-05-2.89763E-05-2.80961E-05-2.71922E-06 2.17629E-19-2.67214E-19
 -1       392 9.50955E-05-2.90314E-05-2.83190E-05-1.78841E-06-2.03311E-19-3.69546E-19
 -1       393 9.54339E-05-2.90024E-05-2.84752E-05-1.06241E-06 8.38759E-20 4.30225E-19
 -1       394 9.56021E-05-2.89342E-05-2.85753E-05-5.41548E-07-1.51430E-19 1.89884E-19
 -1       395 9.56584E-05-2.88554E-05-2.86321E-05-1.97387E-07-4.52423E-19 5.88015E-19
 -1       396 9.56470E-05-2.87817E-05-2.86580E-05 9.49299E-09 3.60675E-19 5.07891E-19
 -1       397 9.55997E-05-2.87199E-05-2.86635E-05 1.18294E-07 8.63534E-19 8.32280E-19
 -1       398 9.55373E-05-2.86715E-05-2.86571E-05 1.62328E-07 6.09727E-19 1.51457E-18
 -1       399 9.54729E-05-2.86356E-05-2.86446E-05 1.67151E-07-9.80181E-20 5.27081E-19
 -1       400 9.54138E-05-2.86099E-05-2.86301E-05 1.50856E-07-1.27190E-18 7.13512E-19
 -1       401 9.53632E-05-2.85923E-05-2.86159E-05 1.25348E-07-1.72351E-18 7.33691E-19
 -1       402 9.53224E-05-2.85807E-05-2.86034E-05 9.78680E-08-6.89053E-19-7.58449E-20
 -1       403 9.52908E-05-2.85734E-05-2.85930E-05 7.23866E-08 9.73091E-19-2.23171E-19
 -1       404 9.52674E-05-2.85690E-05-2.85849E-05 5.07346E-08 6.24543E-19 1.12397E-18
 -1       405 9.52508E-05-2.85666E-05-2.85788E-05 3.34381E-08 6.71980E-19 1.48475E-18
 -1       406 9.52396E-05-2.85656E-05-2.85745E-05 2.02969E-08-2.52855E-19 2.50936E-18
 -1       407 9.52325E-05-2.85654E-05-2.85716E-05 1.07620E-08 3.75673E-19 1.86516E-18
 -1       408 9.52285E-05-2.85657E-05-2.85697E-05 4.16552E-09 1.88514E-18 1.71309E-18
 -1       409 9.52265E-05-2.85662E-05-2.85687E-05-1.50427E-10-1.90618E-19 1.45969E-18
 -1       410 9.52260E-05-2.85668E-05-2.85682E-05-2.76893E-09 3.73309E-19 2.53924E-19
 -1       411 9.52264E-05-2.85675E-05-2.85681E-05-4.17384E-09 7.67406E-19-1.48533E-19
 -1       412 9.52273E-05-2.85682E-05-2.85682E-05-4.74770E-09 2.46141E-19-8.71589E-19
 -1       413 9.52285E-05-2.85687E-05-2.85685E-05-4.78119E-09-1.66814E-18-1.98504E-18
 -1       414 9.52298E-05-2.85692E-05-2.85688E-05-4.48746E-09-8.90059E-19-1.04166E-18
 -1       415 9.52311E-05-2.85697E-05-2.85692E-05-4.01726E-09 8.47847E-19 2.95328E-19
 -1       416 9.52322E-05-2.85700E-05-2.85695E-05-3.47306E-09 8.70892E-19-1.06965E-19
 -1       417 9.52332E-05-2.85703E-05-2.85698E-05-2.92114E-09-4.20809E-19-1.51484E-18
 -1       418 9.52341E-05-2.85705E-05-2.85701E-05-2.40146E-09-1.52295E-18-1.03808E-18
 -1       419 9.52348E-05-2.85707E-05-2.85703E-05-1.93538E-09-3.06074E-19 7.98979E-19
 -1       420 9.52354E-05-2.85708E-05-2.85705E-05-1.53144E-09 1.57150E-19 2.60367E-18
 -1       421 9.52359E-05-2.85710E-05-2.85707E-05-1.18961E-09-7.43070E-20 1.40527E-18
 -1       422 9.52363E-05-2.85710E-05-2.85708E-05-9.04342E-10-6.45857E-19-4.47644E-19
 -1       423 9.52366E-05-2.85711E-05-2.85709E-05-6.66730E-10 7.24028E-19 1.68107E-19
 -1       424 9.52368E-05-2.85711E-05-2.85710E-05-4.66285E-10-6.52951E-19 8.38380E-19
 -1       425 9.52370E-05-2.85712E-05-2.85710E-05-2.95161E-10 6.03291E-19 1.92344E-18
 -1       426 9.52371E-05-2.85712E-05-2.85711E-05-1.59965E-10-9.67656E-19 2.30328E-18
 -1       427 9.52372E-05-2.85716E-05-2.85710E-05-4.04807E-10 2.03366E-18 1.49486E-18
 -1       428 9.52371E-05-2.85714E-05-2.85710E-05-3.40732E-10 6.17765E-20 1.95683E-18
 -1       429 9.52373E-05-2.85717E-05-2.85710E-05-4.07732E-10-1.13196E-18-1.83865E-18
 -1       430 9.52374E-05-2.85719E-05-2.85709E-05-3.45438E-10-1.39705E-18-2.14517E-18
 -1       431 9.52375E-05-2.85720E-05-2.85709E-05-2.29530E-10-7.66817E-19-2.56374E-18
 -1       432 9.52375E-05-2.85720E-05-2.85709E-05-7.88758E-11-2.97251E-18-2.52428E-18
 -1       433 9.52375E-05-2.85720E-05-2.85709E-05 8.35992E-11-3.38511E-18 7.66469E-19
 -1       434 9.52375E-05-2.85720E-05-2.85709E-05 2.33552E-10-4.64205E-18-2.95525E-18
 -1       435 9.52374E-05-2.85719E-05-2.85709E-05 3.46488E-10-4.34722E-18-3.96806E-18
 -1       436 9.52373E-05-2.85717E-05-2.85710E-05 4.07936E-10-2.04058E-18 3.66743E-18
 -1       437 9.52372E-05-2.85716E-05-2.85710E-05 4.03998E-10 1.03619E-18 1.57442E-18
 -1       438 9.52371E-05-2.85714E-05-2.85710E-05 3.34434E-10-8.46634E-19 2.07642E-18
 -1       439 8.56164E-05-2.33726E-05-2.66282E-05 5.93748E-06 3.05718E-18 3.32923E-18
 -1       440 6.76756E-05-3.93593E-05-1.21570E-05 5.21610E-05-1.43350E-18 2.96995E-18
 -1       441 1.43240E-04-4.59110E-05-4.16698E-05 3.01933E-05 3.47818E-18-3.19416E-18
 -1       442 9.63629E-06-1.89764E-05 3.70603E-06 1.10650E-05-1.76860E-18 9.94396E-18
 -1       443 1.31090E-05 1.87985E-05-1.30588E-05-1.21204E-05-1.31446E-18-9.72738E-18
 -1       444 1.60197E-04-3.31290E-05-5.42631E-05 1.46057E-05 6.12463E-18-4.38265E-18
 -1       445 1.69070E-04-1.98260E-05-6.36058E-05 8.25171E-06 8.50156E-18-5.24419E-18
 -1       446 1.64975E-04-1.03678E-05-6.61798E-05 3.19879E-06 9.81150E-18-5.26816E-18
 -1       447 1.61217E-04-1.29640E-05-6.37237E-05 1.89374E-06 9.15410E-18-4.46238E-18
 -1       448 1.56966E-04-2.71870E-05-5.57216E-05-9.97077E-06 6.79850E-18-5.06674E-18
 -1       449 1.36363E-04-3.27007E-05-4.45461E-05-3.02531E-05 4.73809E-18-6.74439E-18
 -1       450 1.07156E-04-3.05812E-05-3.28628E-05-4.17719E-05 8.70750E-19-6.84805E-18
 -1       451 5.91057E-05-1.55589E-05-1.87191E-05-4.91448E-05-8.74350E-19-9.17934E-18
 -1       452 2.67941E-05-5.26844E-06-9.16637E-06-4.33155E-05-2.07894E-18-1.08401E-17
 -1       453 4.28576E-06 2.60048E-06-2.90209E-06-2.98422E-05-3.29411E-18-1.16031E-17
 -1       454 2.64347E-06 3.89741E-06-2.68162E-06-7.60148E-06-3.08807E-18-1.20281E-17
 -1       455 2.44435E-05-1.45699E-05-4.86668E-06 1.33121E-05-4.32262E-18-1.12720E-17
 -1       456 7.26106E-05-3.97827E-05-1.50393E-05 2.70250E-05-4.90676E-18-9.31472E-18
 -1       457 1.32632E-04-6.45630E-05-2.96555E-05 1.85101E-05-5.21285E-18-6.00864E-18
 -1       458 1.95367E-04-5.87122E-05-5.83781E-05-2.76230E-05-1.04449E-17-1.42386E-18
 -1       459 1.58870E-04-7.03536E-05-3.81748E-05-1.78712E-05-1.17251E-18 5.74606E-19
 -1       460 1.10857E-04-5.89324E-05-2.27637E-05-3.74176E-05 4.33046E-19 3.46619E-18
 -1       461 5.58255E-05-3.81008E-05-7.93441E-06-3.79661E-05 9.62124E-19 5.97344E-18
 -1       462 1.92856E-05-1.89821E-05-1.09434E-07-1.70213E-05 5.04620E-19 9.91346E-18
 -1       463 2.98746E-05-2.20281E-05-3.11576E-06 3.94986E-05-3.55277E-18 6.29091E-18
 -1       464 1.06221E-04-4.87212E-05-2.46123E-05 4.83032E-05-3.36060E-19-6.86203E-19
 -1       465 9.52371E-05-2.85713E-05-2.85711E-05 2.64615E-10 1.67462E-19 1.89435E-18
 -1       466 1.32152E-04-5.54714E-05-3.28719E-05 3.28758E-05-9.63685E-19-4.09387E-18
 -1       467 1.46213E-04-1.65908E-05-5.60298E-05 7.50040E-06 6.66371E-18-1.86225E-18
 -1       468 7.61371E-05-2.01270E-05-2.38382E-05-4.42861E-05-5.46225E-18-6.70037E-18
 -1       469 1.15142E-04-3.40236E-05-3.47894E-05-2.15955E-05-4.11369E-18-3.05226E-18
 -1       470 1.13530E-04-2.05742E-05-3.99010E-05 1.29517E-05 1.59215E-18-2.75137E-18
 -1       471 1.06776E-04-1.74044E-05-3.83478E-05 1.42987E-05 2.87150E-18-3.12554E-18
 -1       472 1.00991E-04-1.62506E-05-3.63531E-05 1.49983E-05 3.82607E-18-2.87909E-18
 -1       473 9.63363E-05-1.68568E-05-3.40877E-05 1.54620E-05 4.53264E-18-1.77650E-18
 -1       474 9.26119E-05-1.91166E-05-3.15081E-05 1.50052E-05 4.79209E-18 4.07654E-19
 -1       475 9.04979E-05-2.14594E-05-2.95760E-05 1.27309E-05 4.42629E-18 2.39469E-18
 -1       476 1.42371E-04-3.32203E-05-4.69829E-05-5.06890E-06 2.20152E-18-1.85950E-18
 -1       477 6.35939E-05-3.04726E-05-1.36887E-05 4.85145E-05-5.20364E-18 2.36216E-18
 -1       478 9.01323E-05-3.16609E-05-2.46888E-05-3.48954E-05 4.24596E-18-4.06496E-19
 -1       479 8.71412E-05-2.15873E-05-2.79194E-05-2.77793E-05 2.98696E-18-4.42919E-19
 -1       480 8.90445E-05-1.98503E-05-2.95992E-05-2.12254E-05 9.56564E-19-1.58237E-18
 -1       481 9.17231E-05-2.12545E-05-3.01748E-05-1.56470E-05-1.93154E-19-1.07147E-18
 -1       482 9.37266E-05-2.32850E-05-3.01717E-05-1.12369E-05-1.76508E-19-1.07875E-18
 -1       483 9.49208E-05-2.50304E-05-2.99398E-05-7.89718E-06-7.52188E-19-1.18766E-18
 -1       484 9.55166E-05-2.62996E-05-2.96550E-05-5.46256E-06-1.22893E-18-2.03563E-18
 -1       485 9.57481E-05-2.71512E-05-2.93922E-05-3.73816E-06-5.35247E-19-1.89069E-18
 -1       486 9.57847E-05-2.76975E-05-2.91760E-05-2.54099E-06-2.92743E-19-1.63967E-18
 -1       487 9.57309E-05-2.80383E-05-2.90084E-05-1.72043E-06-1.21109E-18-1.67409E-18
 -1       488 9.56446E-05-2.82471E-05-2.88829E-05-1.16211E-06-7.61680E-19-2.12478E-18
 -1       489 9.55549E-05-2.83735E-05-2.87909E-05-7.83441E-07-1.25123E-18-1.12527E-18
 -1       490 9.54748E-05-2.84494E-05-2.87244E-05-5.26728E-07-4.96037E-19-1.33366E-18
 -1       491 9.54086E-05-2.84949E-05-2.86768E-05-3.52465E-07 1.18690E-18-8.62966E-19
 -1       492 9.53566E-05-2.85222E-05-2.86430E-05-2.33938E-07 5.90416E-19-2.94682E-18
 -1       493 9.53173E-05-2.85387E-05-2.86192E-05-1.53196E-07 3.86695E-19-3.49606E-18
 -1       494 9.52884E-05-2.85489E-05-2.86025E-05-9.81968E-08-3.68032E-19-2.79285E-18
 -1       495 9.52678E-05-2.85554E-05-2.85909E-05-6.08371E-08-6.55326E-20-1.17933E-18
 -1       496 9.52535E-05-2.85597E-05-2.85830E-05-3.56326E-08 1.14302E-18-4.63940E-19
 -1       497 9.52439E-05-2.85627E-05-2.85776E-05-1.88398E-08 1.25942E-18-3.20528E-19
 -1       498 9.52378E-05-2.85648E-05-2.85741E-05-7.87849E-09 1.96934E-18-8.21025E-19
 -1       499 9.52341E-05-2.85664E-05-2.85718E-05-9.53068E-10 1.99209E-18-2.24288E-18
 -1       500 9.52321E-05-2.85676E-05-2.85705E-05 3.19709E-09-7.35560E-19-1.92639E-18
 -1       501 9.52313E-05-2.85686E-05-2.85697E-05 5.46228E-09-1.74284E-18-2.64835E-18
 -1       502 9.52312E-05-2.85693E-05-2.85694E-05 6.47291E-09 1.24009E-18-4.55076E-18
 -1       503 9.52315E-05-2.85699E-05-2.85693E-05 6.67456E-09-1.02207E-18-4.44257E-18
 -1       504 9.52320E-05-2.85703E-05-2.85693E-05 6.37995E-09-2.28019E-19-2.99667E-18
 -1       505 9.52327E-05-2.85706E-05-2.85695E-05 5.80574E-09 1.51888E-19-1.02478E-18
 -1       506 9.52334E-05-2.85708E-05-2.85697E-05 5.09892E-09 1.31942E-18-2.20025E-19
 -1       507 9.52341E-05-2.85710E-05-2.85699E-05 4.35616E-09-3.09841E-19 4.90423E-19
 -1       508 9.52347E-05-2.85711E-05-2.85701E-05 3.63800E-09-2.17685E-18 6.38176E-19
 -1       509 9.52352E-05-2.85712E-05-2.85703E-05 2.97941E-09-7.11112E-19 2.08521E-18
 -1       510 9.52356E-05-2.85712E-05-2.85705E-05 2.39752E-09 1.05755E-18 1.45810E-18
 -1       511 9.52360E-05-2.85712E-05-2.85706E-05 1.89738E-09 2.12641E-18 2.43802E-19
 -1       512 9.52363E-05-2.85713E-05-2.85707E-05 1.47594E-09 2.13237E-18-1.37594E-18
 -1       513 9.52366E-05-2.85713E-05-2.85708E-05 1.12511E-09 1.22119E-18-2.42084E-19
 -1       514 9.52368E-05-2.85713E-05-2.85709E-05 8.33800E-10 5.64046E-19-4.51595E-19
 -1       515 9.52369E-05-2.85713E-05-2.85710E-05 5.91526E-10 9.01043E-20 1.52192E-19
 -1       516 9.52370E-05-2.85713E-05-2.85710E-05 4.18426E-10-6.40244E-19 1.54068E-18
 -1       517 9.03723E-05-2.45809E-05-2.81910E-05-4.95900E-06 1.87252E-18-1.39899E-18
 -1       518 8.99491E-05-2.34924E-05-2.84728E-05-1.67133E-06 2.55655E-18-8.31429E-19
 -1       519 9.04178E-05-2.28707E-05-2.89388E-05 2.48292E-06 3.10538E-18-3.78213E-19
 -1       520 9.14826E-05-2.60672E-05-2.80318E-05-7.08413E-06 1.38096E-18-1.84067E-18
 -1       521 9.28919E-05-2.76353E-05-2.79658E-05-7.94001E-06 9.04383E-19-2.31177E-18
 -1       522 9.42228E-05-2.89514E-05-2.79741E-05-7.68945E-06 6.45576E-19-2.24543E-18
 -1       523 9.52413E-05-2.98228E-05-2.80386E-05-6.68147E-06 5.98104E-19-2.23258E-18
 -1       524 9.58795E-05-3.02295E-05-2.81386E-05-5.30643E-06 1.80543E-19-1.88082E-18
 -1       525 9.61852E-05-3.02686E-05-2.82531E-05-3.88425E-06 2.10413E-19-1.71634E-18
 -1       526 9.62551E-05-3.00786E-05-2.83642E-05-2.61904E-06-2.25410E-19-1.01447E-18
 -1       527 9.61858E-05-2.97850E-05-2.84598E-05-1.60579E-06-5.86680E-19-6.87264E-19
 -1       528 9.60514E-05-2.94762E-05-2.85340E-05-8.60843E-07 4.61240E-20-4.46059E-19
 -1       529 9.58995E-05-2.92022E-05-2.85858E-05-3.55168E-07-4.52111E-19-1.93302E-19
 -1       530 9.57560E-05-2.89834E-05-2.86176E-05-4.04614E-08 2.16320E-19-3.31565E-19
 -1       531 9.56323E-05-2.88220E-05-2.86334E-05 1.34206E-07 6.07488E-19-9.57381E-20
 -1       532 9.55313E-05-2.87104E-05-2.86378E-05 2.13663E-07 2.78773E-20 4.48636E-19
 -1       533 9.54517E-05-2.86378E-05-2.86346E-05 2.33290E-07 7.00245E-19 6.36450E-19
 -1       534 9.53904E-05-2.85937E-05-2.86272E-05 2.18848E-07-2.94732E-19 1.27959E-18
 -1       535 9.53441E-05-2.85689E-05-2.86179E-05 1.87835E-07-8.69964E-19 8.28312E-19
 -1       536 9.53097E-05-2.85568E-05-2.86083E-05 1.51324E-07-1.07193E-18-3.29258E-20
 -1       537 9.52844E-05-2.85522E-05-2.85995E-05 1.15741E-07-2.72254E-19 6.35487E-19
 -1       538 9.52663E-05-2.85519E-05-2.85918E-05 8.43669E-08 4.80062E-19 1.03306E-18
 -1       539 9.52535E-05-2.85538E-05-2.85855E-05 5.84796E-08 3.24664E-19 1.41354E-18
 -1       540 9.52447E-05-2.85566E-05-2.85806E-05 3.81802E-08-3.74860E-19 1.82572E-18
 -1       541 9.52389E-05-2.85595E-05-2.85768E-05 2.29470E-08 1.23640E-18 6.28020E-19
 -1       542 9.52353E-05-2.85622E-05-2.85741E-05 1.19887E-08 1.78375E-18-3.11132E-19
 -1       543 9.52331E-05-2.85645E-05-2.85723E-05 4.45541E-09 5.95460E-19 7.95178E-19
 -1       544 9.52321E-05-2.85663E-05-2.85710E-05-4.47393E-10-1.96444E-19 1.32396E-18
 -1       545 9.52318E-05-2.85678E-05-2.85703E-05-3.40528E-09 1.72873E-18 6.09120E-19
 -1       546 9.52319E-05-2.85689E-05-2.85699E-05-4.97856E-09 1.91784E-18-5.84123E-19
 -1       547 9.52323E-05-2.85697E-05-2.85697E-05-5.60637E-09-6.14715E-19-7.18211E-19
 -1       548 9.52329E-05-2.85703E-05-2.85697E-05-5.62073E-09-1.59944E-18-1.61071E-18
 -1       549 9.52335E-05-2.85707E-05-2.85698E-05-5.26443E-09-8.87118E-19-1.36544E-18
 -1       550 9.52341E-05-2.85709E-05-2.85699E-05-4.70900E-09 1.17475E-18-1.67981E-18
 -1       551 9.52346E-05-2.85711E-05-2.85701E-05-4.07097E-09 5.81087E-19-1.14905E-18
 -1       552 9.52351E-05-2.85712E-05-2.85703E-05-3.42568E-09-1.95795E-18 1.22840E-18
 -1       553 9.52356E-05-2.85713E-05-2.85704E-05-2.81851E-09-1.54359E-18-4.79759E-20
 -1       554 9.52359E-05-2.85713E-05-2.85706E-05-2.27358E-09-6.27156E-19-1.34485E-18
 -1       555 9.52362E-05-2.85713E-05-2.85707E-05-1.80043E-09 1.33660E-19-2.50888E-19
 -1       556 9.52365E-05-2.85713E-05-2.85708E-05-1.39882E-09 4.10090E-19 6.60072E-21
 -1       557 9.52367E-05-2.85713E-05-2.85709E-05-1.06265E-09-1.25206E-18 1.47574E-18
 -1       558 9.52368E-05-2.85713E-05-2.85709E-05-7.81873E-10-9.47339E-19 3.01591E-18
 -1       559 9.52370E-05-2.85713E-05-2.85710E-05-5.44783E-10 7.02824E-19 2.22763E-18
 -1       560 9.52375E-05-2.85719E-05-2.85710E-05-5.41513E-10 4.61921E-19-4.42671E-18
 -1       561 9.52373E-05-2.85717E-05-2.85710E-05-5.94224E-10 4.01773E-19-1.47383E-18
 -1       562 9.52372E-05-2.85715E-05-2.85710E-05-5.63632E-10 1.64471E-20 3.50515E-18
 -1       563 2.49749E-05-8.66313E-06-6.37004E-06 2.13804E-05-3.33175E-18 6.95520E-18
 -1       564 9.52376E-05-2.85720E-05-2.85709E-05-4.09276E-10-1.09957E-18-2.08959E-18
 -1       565 9.52376E-05-2.85721E-05-2.85709E-05-2.18604E-10-2.15098E-18-4.46016E-18
 -1       566 9.52377E-05-2.85722E-05-2.85709E-05 2.96074E-12-3.39542E-18-7.92365E-19
 -1       567 9.52376E-05-2.85721E-05-2.85709E-05 2.24248E-10-2.46846E-18-2.92991E-19
 -1       568 9.52376E-05-2.85720E-05-2.85709E-05 4.11016E-10-1.28234E-19-4.22815E-18
 -1       569 9.52374E-05-2.85719E-05-2.85710E-05 5.42431E-10 1.09536E-18 1.38996E-18
 -1       570 9.52373E-05-2.85717E-05-2.85710E-05 5.94579E-10 1.00337E-18 3.70993E-18
 -1       571 9.52371E-05-2.85715E-05-2.85710E-05 5.61302E-10 5.02974E-19 6.57361E-19
 -1       572 1.47241E-04-4.48739E-05-4.42616E-05 6.95608E-06 2.68086E-18-6.09520E-18
 -1       573 4.87787E-05-2.16632E-05-1.10762E-05-3.28549E-05 3.12815E-18 5.51556E-18
 -1       574 1.42794E-04-8.48241E-06-5.81079E-05-2.17589E-06 8.46080E-18-5.35423E-18
 -1       575 2.97492E-05 2.39323E-06-1.32462E-05-4.34796E-05-5.02243E-18-9.91759E-18
 -1       576 1.20573E-04-2.60037E-05-4.06275E-05 9.21076E-06-2.37302E-20-2.30641E-18
 -1       577 1.25534E-04-3.31322E-05-3.97349E-05-3.35200E-07-2.15942E-18-1.83244E-18
 -1       578 2.45606E-05-5.97595E-06-7.20524E-06-4.07951E-06-5.71555E-19 7.54823E-18
 -1       579 7.38036E-05-2.72398E-05-1.97122E-05 2.21234E-05 6.92344E-19-5.91446E-18
 -1       580 1.46042E-04-2.35397E-05-5.29566E-05-4.26422E-06 6.37996E-18-6.78198E-18
 -1       581 1.39962E-04-4.64232E-06-5.86298E-05 5.46551E-06 8.47086E-18-3.16872E-18
 -1       582 1.28422E-04-3.77778E-05-3.89594E-05-2.11856E-05-1.11432E-18-2.89638E-18
 -1       583 2.48831E-05 3.38590E-06-1.14701E-05 6.20583E-06-2.95429E-19-9.61001E-18
 -1       584 9.94070E-05-4.76423E-05-2.18736E-05-3.86856E-05 4.41627E-18 6.25031E-19
 -1       585 9.65598E-05-4.75229E-05-2.07236E-05 4.87477E-05-4.16523E-18-4.35646E-19
 -1       586 8.96579E-05-2.25016E-05-2.87506E-05 8.44695E-06 3.75253E-18 1.66898E-18
 -1       587 4.82141E-05-1.60173E-05-1.32615E-05 3.66339E-05-5.17492E-18 4.06888E-18
 -1       588 4.96130E-06 1.12482E-05-6.44700E-06-2.71166E-05-3.23612E-18-1.16285E-17
 -1       589 1.40529E-04-5.35823E-05-3.74118E-05 1.39059E-05-2.62542E-19-5.33305E-18
 -1       590 8.99025E-05-2.27968E-05-2.87417E-05 5.47154E-06 3.39230E-18 5.14722E-19
 -1       591 1.18775E-04-5.45428E-05-2.74531E-05 3.75599E-05-3.15591E-18-3.53389E-18
 -1       592 1.32842E-04-8.51742E-06-5.38276E-05 1.05777E-05 6.79357E-18-1.72705E-18
 -1       593 1.38259E-04-2.47508E-05-4.90882E-05 8.55366E-06 3.37911E-18-7.40095E-19
 -1       594 1.09902E-04-1.79375E-05-3.94435E-05 1.41251E-05 2.76529E-18-2.21362E-18
 -1       595 9.28637E-05-2.11917E-05-3.07004E-05 1.06694E-05 4.01982E-18-2.27685E-20
 -1       596 9.52371E-05-2.85715E-05-2.85710E-05-8.10564E-10-1.09335E-18 1.75577E-18
 -1       597 6.94759E-05-1.09738E-05-2.49341E-05-1.74633E-05 4.48766E-19 2.79607E-19
 -1       598 7.82076E-05-1.40626E-05-2.74546E-05-1.31907E-05-4.99331E-19-1.35246E-18
 -1       599 8.45722E-05-1.77375E-05-2.86313E-05-1.00366E-05 8.85405E-20-1.24725E-18
 -1       600 8.88577E-05-2.09640E-05-2.90915E-05-7.54858E-06-8.07997E-19-1.44680E-18
 -1       601 9.15825E-05-2.34284E-05-2.92050E-05-5.57539E-06-1.81445E-18-7.43281E-19
 -1       602 9.32392E-05-2.51774E-05-2.91666E-05-4.04922E-06-8.36277E-19-1.01084E-19
 -1       603 9.42083E-05-2.63654E-05-2.90737E-05-2.90141E-06-1.90153E-19-1.85091E-19
 -1       604 9.47536E-05-2.71505E-05-2.89716E-05-2.05817E-06-2.20881E-18-1.48251E-18
 -1       605 9.50468E-05-2.76600E-05-2.88793E-05-1.44920E-06-1.24001E-18-1.64153E-18
 -1       606 9.51948E-05-2.79872E-05-2.88028E-05-1.01440E-06-5.52521E-19-1.86803E-18
 -1       607 9.52622E-05-2.81959E-05-2.87424E-05-7.06168E-07-9.27998E-19-1.33825E-18
 -1       608 9.52867E-05-2.83288E-05-2.86960E-05-4.88561E-07 6.72792E-19-4.86582E-19
 -1       609 9.52899E-05-2.84136E-05-2.86611E-05-3.35286E-07 5.66282E-20-1.73961E-19
 -1       610 9.52836E-05-2.84680E-05-2.86352E-05-2.27508E-07 7.95545E-19-7.93190E-19
 -1       611 9.52743E-05-2.85031E-05-2.86162E-05-1.51894E-07 8.16018E-19-3.20655E-19
 -1       612 9.52648E-05-2.85260E-05-2.86023E-05-9.90494E-08 2.91233E-19 5.55958E-20
 -1       613 9.52566E-05-2.85412E-05-2.85923E-05-6.23558E-08 5.09099E-19 1.13110E-18
 -1       614 9.52500E-05-2.85514E-05-2.85851E-05-3.71359E-08 1.77579E-19 6.50519E-19
 -1       615 9.52451E-05-2.85583E-05-2.85800E-05-2.00670E-08 2.54189E-19-5.95397E-19
 -1       616 9.52415E-05-2.85630E-05-2.85765E-05-8.77419E-09 7.48684E-19-2.89597E-18
 -1       617 9.52391E-05-2.85662E-05-2.85741E-05-1.55114E-09 3.34114E-19-3.25788E-18
 -1       618 9.52375E-05-2.85684E-05-2.85725E-05 2.83291E-09-1.42392E-18-2.23613E-18
 -1       619 9.52366E-05-2.85698E-05-2.85715E-05 5.26661E-09-6.54372E-19-3.59620E-19
 -1       620 9.52361E-05-2.85708E-05-2.85708E-05 6.39022E-09 2.83741E-19-8.40379E-21
 -1       621 9.52358E-05-2.85714E-05-2.85705E-05 6.66228E-09-8.22278E-19-1.51992E-19
 -1       622 9.52358E-05-2.85718E-05-2.85703E-05 6.40771E-09 4.00432E-19-7.98703E-19
 -1       623 9.52359E-05-2.85719E-05-2.85703E-05 5.85316E-09 1.42565E-18 2.83628E-19
 -1       624 9.52360E-05-2.85720E-05-2.85703E-05 5.15315E-09-1.07134E-19-1.32988E-18
 -1       625 9.52362E-05-2.85720E-05-2.85704E-05 4.40967E-09-1.13497E-18-2.64959E-19
 -1       626 9.52363E-05-2.85719E-05-2.85705E-05 3.68675E-09-1.67272E-18 1.78673E-18
 -1       627 9.52365E-05-2.85718E-05-2.85706E-05 3.02149E-09-4.09922E-19 2.13736E-18
 -1       628 9.52366E-05-2.85717E-05-2.85707E-05 2.43231E-09 6.06347E-19 5.63060E-19
 -1       629 9.52367E-05-2.85717E-05-2.85707E-05 1.92495E-09 6.62306E-19 6.06948E-19
 -1       630 9.52368E-05-2.85716E-05-2.85708E-05 1.49618E-09 7.09475E-20 2.95261E-19
 -1       631 9.52369E-05-2.85715E-05-2.85709E-05 1.13985E-09 1.45049E-18-1.81740E-18
 -1       632 9.52370E-05-2.85715E-05-2.85709E-05 8.42647E-10 1.79484E-18 7.05268E-20
 -1       633 9.48970E-05-2.31765E-05-3.07364E-05-3.48619E-06 2.55824E-18-1.92262E-18
 -1       634 9.58055E-05-2.53358E-05-3.01998E-05-6.86164E-06 1.92790E-18-2.30195E-18
 -1       635 9.47975E-05-2.17623E-05-3.12959E-05 1.13559E-06 3.15869E-18-1.40675E-18
 -1       636 9.82572E-05-2.99669E-05-2.92668E-05-8.74785E-06 8.88401E-19-2.58298E-18
 -1       637 9.89248E-05-3.14103E-05-2.89351E-05-7.76544E-06 6.64225E-19-2.60437E-18
 -1       638 9.90341E-05-3.20406E-05-2.87123E-05-6.20259E-06 7.84971E-20-2.60610E-18
 -1       639 9.87094E-05-3.20105E-05-2.85863E-05-4.52398E-06 2.29622E-20-1.97788E-18
 -1       640 9.81436E-05-3.15692E-05-2.85330E-05-3.02022E-06-5.63157E-19-1.39991E-18
 -1       641 9.75078E-05-3.09498E-05-2.85258E-05-1.82107E-06-8.12267E-19-1.43965E-18
 -1       642 9.69150E-05-3.03178E-05-2.85424E-05-9.46749E-07-3.83534E-19-1.02766E-18
 -1       643 9.64210E-05-2.97660E-05-2.85670E-05-3.58831E-07-2.55431E-19-1.24978E-18
 -1       644 9.60403E-05-2.93310E-05-2.85900E-05 3.40996E-09-1.49601E-19-1.58112E-18
 -1       645 9.57636E-05-2.90140E-05-2.86072E-05 2.01870E-07-2.73749E-19-1.13670E-18
 -1       646 9.55718E-05-2.87984E-05-2.86173E-05 2.89790E-07-2.82058E-19-1.69298E-19
 -1       647 9.54440E-05-2.86617E-05-2.86210E-05 3.08537E-07 5.22541E-19 1.63896E-19
 -1       648 9.53617E-05-2.85816E-05-2.86200E-05 2.87915E-07-3.68933E-19 1.09538E-18
 -1       649 9.53102E-05-2.85399E-05-2.86158E-05 2.48099E-07-2.43095E-19 6.28724E-19
 -1       650 9.52788E-05-2.85224E-05-2.86099E-05 2.01903E-07-7.22802E-19 5.20250E-19
 -1       651 9.52602E-05-2.85191E-05-2.86033E-05 1.56835E-07-6.17612E-19-1.29244E-19
 -1       652 9.52493E-05-2.85233E-05-2.85968E-05 1.16792E-07-1.01793E-19-3.67493E-19
 -1       653 9.52432E-05-2.85308E-05-2.85910E-05 8.33590E-08 7.36549E-19 3.14424E-19
 -1       654 9.52397E-05-2.85392E-05-2.85859E-05 5.67359E-08 4.24505E-19-3.87019E-19
 -1       655 9.52378E-05-2.85470E-05-2.85818E-05 3.63703E-08 1.19820E-18-1.27966E-18
 -1       656 9.52368E-05-2.85537E-05-2.85785E-05 2.13651E-08 1.30874E-18 5.05044E-19
 -1       657 9.52363E-05-2.85591E-05-2.85759E-05 1.07275E-08 5.75431E-19 1.89803E-18
 -1       658 9.52360E-05-2.85633E-05-2.85740E-05 3.50837E-09 5.91146E-21 2.05220E-18
 -1       659 9.52360E-05-2.85663E-05-2.85727E-05-1.12749E-09 1.27898E-18 1.06035E-18
 -1       660 9.52360E-05-2.85685E-05-2.85718E-05-3.87625E-09 2.54498E-18-8.77164E-21
 -1       661 9.52361E-05-2.85700E-05-2.85712E-05-5.29449E-09 1.15477E-18 1.95971E-19
 -1       662 9.52362E-05-2.85710E-05-2.85708E-05-5.81210E-09-3.25069E-19 5.79292E-20
 -1       663 9.52363E-05-2.85716E-05-2.85706E-05-5.75088E-09-1.17630E-18 9.41559E-20
 -1       664 9.52364E-05-2.85719E-05-2.85705E-05-5.34442E-09 8.85971E-19-1.42702E-18
 -1       665 9.52365E-05-2.85721E-05-2.85705E-05-4.75674E-09 2.88574E-19 1.85699E-19
 -1       666 9.52366E-05-2.85721E-05-2.85705E-05-4.09866E-09-1.05029E-18-1.67287E-18
 -1       667 9.52367E-05-2.85720E-05-2.85706E-05-3.44129E-09-6.69385E-19-2.68063E-18
 -1       668 9.52368E-05-2.85719E-05-2.85706E-05-2.82700E-09-7.32003E-19-1.49459E-18
 -1       669 9.52369E-05-2.85718E-05-2.85707E-05-2.27784E-09-3.81001E-19-1.18407E-18
 -1       670 9.52369E-05-2.85717E-05-2.85708E-05-1.80231E-09-5.22759E-19-1.11201E-18
 -1       671 9.52370E-05-2.85716E-05-2.85709E-05-1.40388E-09-2.33659E-18 4.61677E-19
 -1       672 9.52371E-05-2.85716E-05-2.85709E-05-1.08237E-09-2.43458E-18 1.68417E-18
 -1       673 9.52378E-05-2.85722E-05-2.85710E-05-4.15295E-10-2.27177E-19-3.95507E-18
 -1       674 9.52377E-05-2.85721E-05-2.85710E-05-6.32534E-10-2.79079E-19-4.19776E-18
 -1       675 9.71022E-05-2.78032E-05-2.96983E-05-8.59332E-06 1.30231E-18-2.55792E-18
 -1       676 9.52379E-05-2.85723E-05-2.85710E-05 1.48997E-10-9.50602E-19 2.79551E-19
 -1       677 9.52378E-05-2.85722E-05-2.85710E-05 4.17014E-10-1.25712E-18-1.20024E-18
 -1       678 9.52377E-05-2.85721E-05-2.85710E-05 6.34374E-10-2.08462E-19 3.98485E-19
 -1       679 9.52374E-05-2.85719E-05-2.85710E-05 7.66072E-10 1.24993E-18 4.61118E-18
 -1       680 9.52373E-05-2.85717E-05-2.85710E-05 8.48019E-10 9.05860E-19 2.18067E-18
 -1       681 8.93339E-05-4.00208E-05-2.07910E-05 4.44630E-05-5.03098E-18-2.39949E-19
 -1       682 1.36680E-04-3.50692E-05-4.39511E-05-6.70338E-06 3.37874E-18-7.30127E-18
 -1       683 1.07283E-04-3.28811E-05-3.16086E-05-3.23438E-05-4.28128E-18-4.77814E-18
 -1       684 1.17542E-04-2.03549E-05-4.17372E-05 1.45845E-05 2.13173E-18-1.48679E-18
 -1       685 1.27415E-04-2.61717E-05-4.35886E-05 1.17621E-05 1.07873E-18-5.55627E-19
 -1       686 3.46585E-05-3.61557E-06-1.26663E-05 9.01790E-06-2.79711E-18 5.17860E-18
 -1       687 1.25793E-04-4.65877E-06-5.24829E-05 1.66254E-07 7.17373E-18-3.83422E-18
 -1       688 4.66270E-05-9.29089E-06-1.55135E-05-2.08658E-05 2.28821E-18 3.87576E-18
 -1       689 9.52379E-05-2.85723E-05-2.85710E-05-1.42690E-10-4.97532E-19-3.12870E-18
 -1       690 1.03927E-04-1.75528E-05-3.70306E-05 1.31412E-05 3.29830E-18-2.49971E-18
 -1       691 1.29576E-04-1.48413E-05-4.96503E-05-8.01138E-06 6.06513E-18-5.95848E-18
 -1       692 9.52375E-05-2.85719E-05-2.85710E-05-7.67950E-10-1.59197E-18-3.18405E-18
 -1       693 9.89972E-05-1.85003E-05-3.45077E-05 1.22723E-05 3.93206E-18-1.94633E-18
 -1       694 1.31462E-04-5.60313E-05-3.23134E-05 2.16069E-05-2.66839E-18-4.56180E-18
 -1       695 7.11497E-05-2.66037E-05-1.87491E-05 4.01210E-05-5.46706E-18 2.06716E-18
 -1       696 1.34659E-04-3.14253E-05-4.45745E-05 3.61299E-06 6.92648E-19-5.80681E-19
 -1       697 6.05039E-05-1.46198E-05-1.91834E-05-2.68984E-05 3.08442E-18 3.24977E-18
 -1       698 9.54828E-05-2.09605E-05-3.19266E-05 6.27400E-06 3.63108E-18-1.30446E-18
 -1       699 1.36165E-04-4.45725E-05-3.94332E-05-1.44244E-06 1.26269E-18-7.23878E-18
 -1       700 1.08469E-04-4.89732E-05-2.53654E-05 3.72355E-05-4.62426E-18-2.48496E-18
 -1       701 1.29915E-04-1.63695E-05-4.90312E-05 1.35027E-05 4.38991E-18-5.00623E-19
 -1       702 4.76243E-05-4.61128E-06-1.79533E-05-8.65420E-06-1.86710E-19 2.47715E-18
 -1       703 1.21575E-04-5.21320E-06-5.03074E-05 6.51235E-06 6.48425E-18-2.37165E-18
 -1       704 6.58791E-05-8.61702E-06-2.44765E-05-4.97012E-06-1.36219E-18-2.29701E-19
 -1       705 5.27471E-05-9.18764E-06-1.83129E-05 2.11185E-05-3.93376E-18 2.96999E-18
 -1       706 1.00688E-04-1.82458E-05-3.53323E-05 8.95961E-06 3.55034E-18-1.75453E-18
 -1       707 9.89640E-05-1.92481E-05-3.41640E-05 4.74316E-06 3.39912E-18-1.62794E-18
 -1       708 7.55806E-05-1.31587E-05-2.67325E-05-4.31299E-06-3.30545E-19-4.60443E-19
 -1       709 8.25439E-05-1.72969E-05-2.79589E-05-4.14843E-06-4.55981E-19-1.44383E-18
 -1       710 8.72151E-05-2.06150E-05-2.85421E-05-3.67536E-06-5.01960E-19-1.20875E-18
 -1       711 9.02669E-05-2.30930E-05-2.87883E-05-3.06570E-06-9.43651E-19-3.71711E-19
 -1       712 9.22176E-05-2.48638E-05-2.88654E-05-2.44766E-06-1.00141E-18 1.89521E-19
 -1       713 9.34390E-05-2.60908E-05-2.88632E-05-1.89368E-06-1.13207E-18 1.40571E-19
 -1       714 9.41892E-05-2.69230E-05-2.88281E-05-1.43190E-06-1.98727E-18 3.14044E-19
 -1       715 9.46415E-05-2.74795E-05-2.87835E-05-1.06411E-06-1.27722E-18 4.94865E-19
 -1       716 9.49091E-05-2.78484E-05-2.87402E-05-7.79803E-07-4.63286E-19-2.41763E-19
 -1       717 9.50643E-05-2.80919E-05-2.87024E-05-5.64458E-07 2.22591E-19 7.76967E-19
 -1       718 9.51520E-05-2.82525E-05-2.86711E-05-4.03626E-07 6.30618E-19 5.49120E-19
 -1       719 9.52001E-05-2.83587E-05-2.86463E-05-2.84769E-07 6.11146E-19 1.78570E-19
 -1       720 9.52254E-05-2.84293E-05-2.86269E-05-1.97721E-07 2.35338E-19-4.12388E-19
 -1       721 9.52378E-05-2.84764E-05-2.86120E-05-1.34527E-07-5.99921E-19-1.02985E-18
 -1       722 9.52432E-05-2.85082E-05-2.86007E-05-8.90953E-08 1.09004E-19-1.89633E-18
 -1       723 9.52450E-05-2.85298E-05-2.85922E-05-5.68123E-08 3.25933E-19-2.34736E-18
 -1       724 9.52450E-05-2.85445E-05-2.85859E-05-3.42094E-08 1.28474E-19-2.35058E-18
 -1       725 9.52442E-05-2.85545E-05-2.85813E-05-1.86864E-08-1.03860E-18-2.08573E-18
 -1       726 9.52431E-05-2.85613E-05-2.85779E-05-8.29848E-09 5.83228E-19-1.54365E-18
 -1       727 9.52421E-05-2.85659E-05-2.85755E-05-1.59440E-09-5.00001E-19-1.15375E-18
 -1       728 9.52411E-05-2.85689E-05-2.85738E-05 2.50463E-09-1.38620E-18-6.95858E-19
 -1       729 9.52403E-05-2.85708E-05-2.85726E-05 4.79610E-09 1.41867E-18-1.08831E-18
 -1       730 9.52396E-05-2.85720E-05-2.85718E-05 5.86483E-09 3.14318E-19 1.27726E-18
 -1       731 9.52390E-05-2.85727E-05-2.85713E-05 6.13495E-09-8.82818E-19 3.38683E-18
 -1       732 9.52386E-05-2.85730E-05-2.85710E-05 5.90961E-09-1.76819E-19 2.11381E-18
 -1       733 9.52383E-05-2.85730E-05-2.85708E-05 5.40137E-09-5.83083E-19 4.32947E-19
 -1       734 9.52380E-05-2.85730E-05-2.85707E-05 4.75559E-09-4.67245E-19 7.77845E-19
 -1       735 9.52378E-05-2.85728E-05-2.85707E-05 4.06826E-09-2.72288E-19-1.10276E-19
 -1       736 9.52376E-05-2.85726E-05-2.85707E-05 3.39955E-09-4.46221E-19 1.91527E-18
 -1       737 9.52375E-05-2.85724E-05-2.85707E-05 2.78412E-09-7.05782E-19 2.14484E-18
 -1       738 9.52374E-05-2.85722E-05-2.85708E-05 2.23943E-09 1.35548E-18 4.20617E-18
 -1       739 9.52373E-05-2.85720E-05-2.85708E-05 1.77105E-09 9.14964E-19 4.94784E-18
 -1       740 9.52373E-05-2.85719E-05-2.85709E-05 1.37353E-09 5.58021E-19 5.87604E-18
 -1       741 9.52373E-05-2.85718E-05-2.85709E-05 1.09055E-09-2.71266E-19 4.44964E-18
 -1       742 9.52379E-05-2.85724E-05-2.85710E-05 6.75308E-10-9.74817E-19 6.91475E-19
 -1       743 9.52381E-05-2.85725E-05-2.85710E-05-3.57995E-10 3.64851E-19-4.60695E-18
 -1       744 9.96027E-05-2.32497E-05-3.27238E-05-5.71544E-06 2.77275E-18-2.10614E-18
 -1       745 9.86959E-05-2.04545E-05-3.35317E-05-9.43350E-07 3.19487E-18-1.77296E-18
 -1       746 1.02891E-04-3.40526E-05-2.95020E-05-6.45989E-06 5.51558E-20-2.63517E-18
 -1       747 1.03181E-04-3.29054E-05-3.01178E-05-8.27463E-06 6.49210E-19-2.84435E-18
 -1       748 1.00619E-04-3.33999E-05-2.88084E-05-2.79588E-06-6.74271E-19-1.97871E-18
 -1       749 9.92866E-05-3.24088E-05-2.86622E-05-1.50170E-06-1.05214E-18-1.52261E-18
 -1       750 9.81094E-05-3.13878E-05-2.85952E-05-6.12483E-07-6.65950E-19-1.98110E-18
 -1       751 9.71668E-05-3.04936E-05-2.85744E-05-5.59858E-08-1.56928E-19-1.70757E-18
 -1       752 9.64660E-05-2.97878E-05-2.85765E-05 2.55955E-07 1.48871E-20-2.12310E-18
 -1       753 9.59760E-05-2.92730E-05-2.85871E-05 4.02033E-07-5.72830E-19-2.06665E-18
 -1       754 9.56520E-05-2.89229E-05-2.85982E-05 4.43653E-07-9.58247E-19-1.61134E-18
 -1       755 9.54493E-05-2.87012E-05-2.86063E-05 4.24971E-07-4.69040E-19-1.28355E-18
 -1       756 9.53298E-05-2.85720E-05-2.86105E-05 3.75538E-07-1.23299E-18-1.27811E-19
 -1       757 9.52645E-05-2.85054E-05-2.86111E-05 3.14042E-07 2.41752E-19-3.01523E-19
 -1       758 9.52327E-05-2.84786E-05-2.86089E-05 2.51669E-07 3.08908E-19-1.39721E-18
 -1       759 9.52201E-05-2.84751E-05-2.86050E-05 1.94508E-07-9.31189E-19-1.62209E-18
 -1       760 9.52178E-05-2.84839E-05-2.86002E-05 1.45342E-07-1.25293E-19-1.41870E-18
 -1       761 9.52203E-05-2.84980E-05-2.85953E-05 1.04948E-07-5.80486E-20-1.87027E-18
 -1       762 9.52245E-05-2.85133E-05-2.85905E-05 7.29603E-08 1.11266E-18-9.77664E-19
 -1       763 9.52288E-05-2.85276E-05-2.85862E-05 4.84365E-08 5.83282E-19-5.40658E-19
 -1       764 9.52324E-05-2.85397E-05-2.85826E-05 3.02056E-08 5.79254E-19-2.91409E-19
 -1       765 9.52352E-05-2.85496E-05-2.85795E-05 1.70764E-08 3.54533E-19 2.24765E-19
 -1       766 9.52371E-05-2.85571E-05-2.85771E-05 7.95009E-09-1.85485E-19 1.15283E-18
 -1       767 9.52383E-05-2.85627E-05-2.85752E-05 1.87359E-09 6.66451E-19 1.54923E-18
 -1       768 9.52389E-05-2.85667E-05-2.85738E-05-1.94472E-09 2.71938E-18 2.08648E-18
 -1       769 9.52392E-05-2.85694E-05-2.85728E-05-4.14000E-09 2.16587E-18 1.85137E-18
 -1       770 9.52392E-05-2.85712E-05-2.85720E-05-5.20713E-09 8.82704E-19 8.96297E-19
 -1       771 9.52391E-05-2.85722E-05-2.85715E-05-5.52140E-09-1.45964E-20-1.50816E-19
 -1       772 9.52389E-05-2.85728E-05-2.85712E-05-5.35990E-09 6.55468E-19-1.18268E-18
 -1       773 9.52386E-05-2.85730E-05-2.85710E-05-4.92157E-09 9.50498E-19-3.09948E-18
 -1       774 9.52383E-05-2.85730E-05-2.85709E-05-4.34471E-09 1.03407E-18-4.78473E-18
 -1       775 9.52381E-05-2.85729E-05-2.85708E-05-3.72177E-09-1.73622E-18-2.36135E-18
 -1       776 9.52379E-05-2.85727E-05-2.85708E-05-3.11124E-09-1.89100E-18-3.96264E-19
 -1       777 9.52377E-05-2.85725E-05-2.85708E-05-2.54738E-09 1.06587E-19 2.37669E-19
 -1       778 9.52376E-05-2.85723E-05-2.85708E-05-2.04767E-09-3.20009E-19 9.03557E-19
 -1       779 9.52375E-05-2.85721E-05-2.85709E-05-1.61209E-09-1.55957E-18 1.15221E-18
 -1       780 1.11351E-04-1.46853E-05-4.14857E-05 1.26488E-05 3.38045E-18-1.74166E-18
 -1       781 1.05395E-04-1.62087E-05-3.82315E-05 1.06032E-05 3.30815E-18-2.33581E-18
 -1       782 9.52379E-05-2.85724E-05-2.85710E-05-6.74536E-10-1.01132E-18-1.36684E-18
 -1       783 9.52377E-05-2.85722E-05-2.85709E-05 9.04029E-10-2.96583E-19 3.00734E-18
 -1       784 9.52381E-05-2.85725E-05-2.85710E-05 3.64207E-10-2.14206E-18 4.74133E-19
 -1       785 1.01920E-04-3.40801E-05-2.90745E-05-4.49876E-06-5.42557E-19-2.20219E-18
 -1       786 1.23214E-04-2.49747E-05-4.23492E-05-1.02878E-05 3.40151E-18-5.46697E-18
 -1       787 9.52375E-05-2.85720E-05-2.85709E-05-1.02298E-09-1.80044E-18-2.76367E-18
 -1       788 9.52378E-05-2.85722E-05-2.85710E-05-8.73501E-10-1.21562E-18-3.82008E-18
 -1       789 9.52382E-05-2.85726E-05-2.85710E-05 3.17547E-12 2.32928E-20-2.08582E-18
 -1       790 1.18190E-04-1.05498E-05-4.64512E-05-4.71088E-06 5.60506E-18-4.06908E-18
 -1       791 1.32997E-04-5.03279E-05-3.54866E-05 5.43811E-06-1.22065E-18-6.12089E-18
 -1       792 5.47730E-05-5.95019E-06-2.07128E-05 5.74906E-06-1.82412E-18 1.49742E-18
 -1       793 9.09850E-05-3.66983E-05-2.30572E-05 3.69058E-05-5.28164E-18-5.53377E-19
 -1       794 1.14213E-04-7.97678E-06-4.57356E-05 1.04357E-06 5.36253E-18-3.16189E-18
 -1       795 1.01162E-04-2.69243E-05-3.18156E-05-8.57502E-06 1.91714E-18-2.83371E-18
 -1       796 1.02559E-04-3.04330E-05-3.09105E-05-9.25103E-06 1.02631E-18-3.09373E-18
 -1       797 9.52375E-05-2.85721E-05-2.85709E-05-1.29642E-09-3.42531E-18 1.34011E-19
 -1       798 1.25715E-04-3.34028E-05-3.96828E-05-9.11085E-06 2.25890E-18-6.00464E-18
 -1       799 9.52375E-05-2.85720E-05-2.85709E-05 1.02765E-09-2.54264E-18 3.39001E-18
 -1       800 1.20403E-04-9.74322E-06-4.77403E-05 1.19786E-05 5.03040E-18-1.33415E-18
 -1       801 1.20667E-04-1.59361E-05-4.50798E-05 1.45953E-05 3.35344E-18-7.19065E-19
 -1       802 7.27387E-05-2.10089E-05-2.20171E-05 2.85284E-05-4.79062E-18 1.56217E-18
 -1       803 1.03087E-04-1.61744E-05-3.72480E-05 6.06153E-06 3.50257E-18-2.12705E-18
 -1       804 1.14050E-04-1.79023E-05-4.13319E-05-7.49331E-06 3.78128E-18-4.44530E-18
 -1       805 8.37723E-05-1.89820E-05-2.77674E-05 7.48593E-07-1.11922E-18 6.13457E-19
 -1       806 8.76339E-05-2.16042E-05-2.82989E-05-3.51577E-07-9.39560E-19-4.63548E-19
 -1       807 9.02713E-05-2.36218E-05-2.85643E-05-8.30091E-07-4.24183E-19-8.24192E-19
 -1       808 9.20389E-05-2.51112E-05-2.86833E-05-9.61778E-07-6.84401E-19-5.93872E-19
 -1       809 9.32033E-05-2.61787E-05-2.87249E-05-9.17475E-07-2.19494E-18-5.46569E-19
 -1       810 9.39588E-05-2.69277E-05-2.87276E-05-7.96811E-07-1.45609E-18-2.45721E-19
 -1       811 9.44429E-05-2.74462E-05-2.87129E-05-6.54063E-07-1.28545E-18-6.92408E-20
 -1       812 9.47499E-05-2.78023E-05-2.86918E-05-5.16710E-07 7.36829E-19 4.96698E-19
 -1       813 9.49425E-05-2.80457E-05-2.86701E-05-3.96448E-07 4.69354E-19 1.09086E-19
 -1       814 9.50625E-05-2.82120E-05-2.86502E-05-2.96726E-07-2.89438E-19 5.10246E-20
 -1       815 9.51365E-05-2.83258E-05-2.86332E-05-2.17016E-07 2.42669E-19-7.24840E-20
 -1       816 9.51818E-05-2.84040E-05-2.86191E-05-1.55011E-07-7.67701E-19-5.76566E-19
 -1       817 9.52091E-05-2.84579E-05-2.86077E-05-1.07840E-07-1.53770E-18-1.08178E-18
 -1       818 9.52254E-05-2.84953E-05-2.85986E-05-7.26714E-08-3.37146E-20-1.86212E-18
 -1       819 9.52348E-05-2.85212E-05-2.85916E-05-4.69695E-08-6.54633E-19-2.06764E-18
 -1       820 9.52401E-05-2.85391E-05-2.85861E-05-2.85840E-08-4.94733E-19-1.67393E-18
 -1       821 9.52427E-05-2.85515E-05-2.85819E-05-1.57516E-08-3.09682E-19-1.55924E-18
 -1       822 9.52438E-05-2.85600E-05-2.85788E-05-7.06064E-09 3.70620E-20-2.33556E-18
 -1       823 9.52440E-05-2.85657E-05-2.85764E-05-1.40274E-09-8.09977E-19-2.28374E-18
 -1       824 9.52436E-05-2.85694E-05-2.85747E-05 2.07821E-09 3.75910E-19-2.89392E-19
 -1       825 9.52430E-05-2.85717E-05-2.85734E-05 4.03296E-09 2.50793E-18-1.15622E-18
 -1       826 9.52423E-05-2.85730E-05-2.85725E-05 4.94829E-09 6.19191E-19-1.08145E-19
 -1       827 9.52415E-05-2.85737E-05-2.85719E-05 5.18206E-09-5.86294E-19 7.95684E-19
 -1       828 9.52408E-05-2.85740E-05-2.85715E-05 4.99227E-09-1.36934E-18 7.34061E-19
 -1       829 9.52401E-05-2.85740E-05-2.85712E-05 4.56075E-09 1.00490E-18 1.60597E-18
 -1       830 9.52395E-05-2.85738E-05-2.85710E-05 4.01210E-09-6.43698E-19 1.37134E-18
 -1       831 9.52390E-05-2.85735E-05-2.85709E-05 3.42870E-09-1.14956E-18 8.35262E-19
 -1       832 9.52386E-05-2.85732E-05-2.85709E-05 2.86179E-09 8.03031E-19 5.79200E-19
 -1       833 9.52383E-05-2.85729E-05-2.85709E-05 2.34005E-09 1.38761E-18 2.54695E-18
 -1       834 9.52380E-05-2.85726E-05-2.85709E-05 1.88164E-09 1.36839E-18 3.13807E-18
 -1       835 9.52378E-05-2.85723E-05-2.85709E-05 1.48020E-09 1.32897E-18 3.24005E-18
 -1       836 9.52381E-05-2.85725E-05-2.85710E-05 1.00521E-09-5.49959E-19 2.85280E-18
 -1       837 1.07359E-04-3.62129E-05-3.04902E-05-6.11440E-06 2.61945E-19-3.15147E-18
 -1       838 9.94776E-05-3.25768E-05-2.86718E-05 3.13874E-07-6.52332E-19-2.17644E-18
 -1       839 1.01352E-04-3.40590E-05-2.88397E-05-4.59888E-07-1.15662E-18-2.36458E-18
 -1       840 9.69370E-05-3.02727E-05-2.85704E-05 8.24053E-07 1.84821E-19-2.44261E-18
 -1       841 9.62035E-05-2.95388E-05-2.85706E-05 8.11117E-07-2.50813E-19-1.63504E-18
 -1       842 9.57297E-05-2.90423E-05-2.85804E-05 7.26730E-07-1.23692E-18-1.28490E-18
 -1       843 9.54428E-05-2.87297E-05-2.85913E-05 6.15020E-07-9.02782E-19-1.24167E-18
 -1       844 9.52819E-05-2.85489E-05-2.85998E-05 5.00604E-07-1.12147E-18-1.35495E-18
 -1       845 9.52014E-05-2.84569E-05-2.86048E-05 3.95328E-07-2.62466E-19-1.53620E-18
 -1       846 9.51693E-05-2.84212E-05-2.86063E-05 3.04358E-07 1.01990E-18-1.55399E-18
 -1       847 9.51642E-05-2.84186E-05-2.86053E-05 2.28973E-07-3.70181E-19-9.43583E-19
 -1       848 9.51724E-05-2.84334E-05-2.86024E-05 1.68349E-07-5.13813E-19-1.50213E-18
 -1       849 9.51857E-05-2.84557E-05-2.85986E-05 1.20761E-07 1.81056E-19-1.47904E-18
 -1       850 9.51997E-05-2.84795E-05-2.85944E-05 8.41958E-08 6.01593E-19-2.54769E-18
 -1       851 9.52121E-05-2.85016E-05-2.85902E-05 5.66737E-08 6.25370E-19-2.28781E-18
 -1       852 9.52221E-05-2.85205E-05-2.85864E-05 3.63930E-08-1.74294E-19-9.14462E-19
 -1       853 9.52296E-05-2.85359E-05-2.85830E-05 2.17926E-08-5.94637E-19 1.47056E-18
 -1       854 9.52348E-05-2.85478E-05-2.85801E-05 1.15619E-08 2.01545E-19 1.44344E-18
 -1       855 9.52383E-05-2.85567E-05-2.85778E-05 4.62867E-09 1.64419E-19 1.40853E-19
 -1       856 9.52403E-05-2.85632E-05-2.85759E-05 1.33451E-10 1.22938E-18 1.58393E-19
 -1       857 9.52414E-05-2.85676E-05-2.85745E-05-2.59938E-09 2.33300E-18 1.08663E-18
 -1       858 9.52417E-05-2.85705E-05-2.85734E-05-4.09121E-09 2.33541E-18 1.59293E-18
 -1       859 9.52416E-05-2.85723E-05-2.85726E-05-4.73684E-09 1.25134E-18 5.32596E-19
 -1       860 9.52413E-05-2.85733E-05-2.85720E-05-4.82933E-09 1.29478E-18-1.24973E-18
 -1       861 9.52408E-05-2.85738E-05-2.85716E-05-4.58140E-09 3.06165E-18-1.01311E-18
 -1       862 9.52402E-05-2.85739E-05-2.85713E-05-4.14355E-09 1.56194E-18-1.81527E-18
 -1       863 9.52397E-05-2.85738E-05-2.85711E-05-3.61903E-09-1.77106E-18-1.08577E-18
 -1       864 9.52392E-05-2.85735E-05-2.85710E-05-3.07569E-09-2.45326E-18-1.80901E-18
 -1       865 9.52388E-05-2.85732E-05-2.85710E-05-2.55537E-09-1.55891E-18-1.51104E-18
 -1       866 9.52384E-05-2.85729E-05-2.85709E-05-2.08273E-09-9.70806E-19-1.89600E-19
 -1       867 9.52381E-05-2.85726E-05-2.85709E-05-1.66806E-09 6.99632E-19-1.08972E-18
 -1       868 1.07672E-04-1.27028E-05-4.07657E-05 7.82020E-06 3.73144E-18-2.09360E-18
 -1       869 9.52383E-05-2.85727E-05-2.85710E-05-6.52934E-10 1.41700E-19-2.89392E-18
 -1       870 9.52383E-05-2.85727E-05-2.85710E-05 6.62732E-10-7.98872E-19-3.09599E-19
 -1       871 1.08464E-04-4.56149E-05-2.68699E-05 2.91869E-05-4.43210E-18-2.84557E-18
 -1       872 9.80078E-05-3.12852E-05-2.85954E-05 6.94207E-07-3.99793E-19-2.29623E-18
 -1       873 7.82311E-05-1.57666E-05-2.67606E-05 2.87488E-06-7.54473E-19 1.18602E-18
 -1       874 1.12870E-04-1.07712E-05-4.39332E-05 1.00454E-05 4.25383E-18-1.70700E-18
 -1       875 7.02545E-05-1.19009E-05-2.49831E-05 5.89134E-06-1.49023E-18 1.38566E-18
 -1       876 1.24449E-04-5.27325E-05-3.07426E-05 1.97823E-05-3.26112E-18-4.50332E-18
 -1       877 6.58078E-05-1.32049E-05-2.24224E-05 1.81067E-05-2.89851E-18 1.36946E-18
 -1       878 9.52381E-05-2.85726E-05-2.85710E-05-9.42902E-10-4.26082E-19-2.21158E-18
 -1       879 1.10211E-04-1.39786E-05-4.13496E-05-3.63029E-06 4.09922E-18-3.54589E-18
 -1       880 1.04901E-04-2.46347E-05-3.44048E-05-8.08974E-06 2.77264E-18-2.22876E-18
 -1       881 1.05691E-04-3.64280E-05-2.96834E-05-3.71013E-06-5.99623E-19-2.66451E-18
 -1       882 9.53918E-05-3.58517E-05-2.54334E-05 2.86956E-05-4.53410E-18-9.85187E-19
 -1       883 1.07915E-04-3.41769E-05-3.16040E-05-8.40780E-06 9.43895E-19-3.12714E-18
 -1       884 1.16705E-04-2.41950E-05-3.97471E-05-9.68613E-06 3.00251E-18-5.00033E-18
 -1       885 9.52385E-05-2.85728E-05-2.85710E-05-2.25599E-10 1.09371E-18-1.87678E-18
 -1       886 9.52385E-05-2.85728E-05-2.85710E-05 2.31353E-10 1.98497E-18-3.26817E-18
 -1       887 1.03520E-04-3.54914E-05-2.91549E-05-1.77556E-06-5.14024E-19-2.70394E-18
 -1       888 1.02841E-04-1.95921E-05-3.56973E-05-3.77704E-06 3.19199E-18-2.29289E-18
 -1       889 9.52378E-05-2.85723E-05-2.85709E-05-1.16132E-09-1.58659E-18-2.98837E-18
 -1       890 1.13391E-04-8.87834E-06-4.50082E-05 5.81470E-06 4.75786E-18-2.43326E-18
 -1       891 1.26737E-04-4.07382E-05-3.69409E-05-5.46812E-06 1.28085E-18-5.89326E-18
 -1       892 1.06987E-04-3.00798E-05-3.29634E-05-9.47950E-06 1.79694E-18-2.59954E-18
 -1       893 1.08162E-04-4.27977E-05-2.79935E-05 2.12290E-05-3.15916E-18-2.05020E-18
 -1       894 9.52384E-05-2.85728E-05-2.85710E-05 1.33584E-09 1.50607E-18 2.36319E-18
 -1       895 8.92698E-05-2.33195E-05-2.82647E-05 1.72177E-06-6.37229E-19-3.86762E-19
 -1       896 9.11366E-05-2.46733E-05-2.84844E-05 6.62789E-07-1.33689E-18-8.86742E-19
 -1       897 9.24604E-05-2.57335E-05-2.85973E-05 9.36451E-08-1.27483E-18-1.28187E-18
 -1       898 9.33793E-05-2.65317E-05-2.86490E-05-1.82844E-07-1.29746E-18 3.76328E-19
 -1       899 9.40067E-05-2.71175E-05-2.86669E-05-2.91286E-07-1.12749E-18 9.41918E-19
 -1       900 9.44303E-05-2.75412E-05-2.86668E-05-3.09313E-07-2.59491E-19-1.28819E-19
 -1       901 9.47130E-05-2.78438E-05-2.86583E-05-2.83285E-07-1.73974E-19-3.08939E-19
 -1       902 9.49006E-05-2.80589E-05-2.86464E-05-2.39101E-07-3.33513E-19-1.25028E-18
 -1       903 9.50243E-05-2.82116E-05-2.86340E-05-1.91158E-07-3.80790E-19-3.70210E-19
 -1       904 9.51055E-05-2.83199E-05-2.86224E-05-1.46573E-07 2.70801E-21-8.19457E-19
 -1       905 9.51585E-05-2.83968E-05-2.86121E-05-1.08361E-07-2.28282E-18-1.96864E-18
 -1       906 9.51927E-05-2.84515E-05-2.86034E-05-7.73056E-08-9.90902E-19-1.80593E-18
 -1       907 9.52147E-05-2.84903E-05-2.85962E-05-5.30496E-08-3.45796E-19-2.26590E-18
 -1       908 9.52284E-05-2.85177E-05-2.85903E-05-3.47256E-08-5.56855E-19-1.14292E-18
 -1       909 9.52368E-05-2.85371E-05-2.85856E-05-2.13051E-08-1.27584E-18-1.57227E-18
 -1       910 9.52416E-05-2.85506E-05-2.85819E-05-1.17822E-08-9.67869E-19-1.96708E-18
 -1       911 9.52441E-05-2.85598E-05-2.85790E-05-5.26093E-09 8.38607E-19-1.14540E-18
 -1       912 9.52451E-05-2.85660E-05-2.85768E-05-9.86880E-10 7.97073E-19-6.79076E-20
 -1       913 9.52452E-05-2.85700E-05-2.85751E-05 1.65030E-09 2.48285E-19-9.48223E-19
 -1       914 9.52448E-05-2.85725E-05-2.85738E-05 3.12928E-09 2.04909E-18-2.10260E-18
 -1       915 9.52440E-05-2.85739E-05-2.85729E-05 3.81556E-09 7.06589E-19-7.74923E-19
 -1       916 9.52431E-05-2.85746E-05-2.85722E-05 3.98137E-09-9.74288E-19 1.81569E-18
 -1       917 9.52422E-05-2.85748E-05-2.85718E-05 3.82441E-09 7.34986E-20 2.61486E-18
 -1       918 9.52413E-05-2.85746E-05-2.85714E-05 3.48437E-09 4.08287E-19 1.42181E-18
 -1       919 9.52406E-05-2.85743E-05-2.85712E-05 3.05712E-09-4.53830E-19 2.19502E-18
 -1       920 9.52399E-05-2.85740E-05-2.85711E-05 2.60640E-09 2.50760E-19 2.32660E-18
 -1       921 9.52393E-05-2.85736E-05-2.85710E-05 2.17082E-09 1.34512E-18 2.24597E-18
 -1       922 9.52388E-05-2.85732E-05-2.85710E-05 1.76497E-09 1.99039E-18 3.38519E-18
 -1       923 8.44414E-05-2.58152E-05-2.50540E-05 2.33485E-05-3.24117E-18 5.31963E-19
 -1       924 9.57252E-05-2.90853E-05-2.85600E-05 1.17481E-06-8.33119E-19-1.71549E-19
 -1       925 9.63286E-05-2.97133E-05-2.85494E-05 1.48498E-06-4.39757E-19-1.04217E-18
 -1       926 9.51877E-05-2.84817E-05-2.85883E-05 6.75116E-07-1.10445E-18-1.21151E-18
 -1       927 9.51040E-05-2.83758E-05-2.85978E-05 4.97770E-07-7.17826E-19-1.75388E-18
 -1       928 9.50808E-05-2.83401E-05-2.86032E-05 3.61764E-07-4.71994E-20-1.27830E-18
 -1       929 9.50896E-05-2.83448E-05-2.86049E-05 2.59679E-07-5.56306E-19-2.62532E-19
 -1       930 9.51128E-05-2.83701E-05-2.86040E-05 1.84007E-07-5.40753E-19 8.95876E-19
 -1       931 9.51402E-05-2.84036E-05-2.86014E-05 1.28445E-07 5.30027E-19-1.14741E-18
 -1       932 9.51663E-05-2.84381E-05-2.85978E-05 8.79873E-08 1.59226E-18-2.53365E-18
 -1       933 9.51887E-05-2.84697E-05-2.85939E-05 5.87829E-08 1.58799E-19-1.10566E-18
 -1       934 9.52066E-05-2.84967E-05-2.85899E-05 3.79170E-08-1.11306E-18-8.26469E-19
 -1       935 9.52200E-05-2.85187E-05-2.85863E-05 2.32037E-08-1.90750E-18 1.59219E-19
 -1       936 9.52296E-05-2.85357E-05-2.85831E-05 1.30083E-08-3.82783E-19 4.80855E-19
 -1       937 9.52360E-05-2.85486E-05-2.85803E-05 6.10916E-09 8.78766E-19 1.61868E-18
 -1       938 9.52401E-05-2.85580E-05-2.85781E-05 1.59320E-09 8.40116E-19-1.13185E-19
 -1       939 9.52424E-05-2.85645E-05-2.85762E-05-1.22135E-09 1.22368E-18 7.44386E-19
 -1       940 9.52434E-05-2.85689E-05-2.85748E-05-2.84193E-09 2.27729E-18 5.18962E-19
 -1       941 9.52436E-05-2.85717E-05-2.85737E-05-3.64396E-09 2.56843E-18 2.55694E-19
 -1       942 9.52433E-05-2.85734E-05-2.85728E-05-3.90263E-09 2.14018E-18-7.26170E-19
 -1       943 9.52427E-05-2.85743E-05-2.85722E-05-3.81698E-09 1.82226E-18-1.57665E-18
 -1       944 9.52420E-05-2.85746E-05-2.85718E-05-3.52843E-09 1.76720E-18-9.55111E-19
 -1       945 9.52413E-05-2.85745E-05-2.85715E-05-3.13510E-09-4.35843E-19 5.46081E-19
 -1       946 9.52405E-05-2.85743E-05-2.85713E-05-2.70324E-09-1.88075E-18-8.51195E-19
 -1       947 9.52399E-05-2.85739E-05-2.85711E-05-2.27502E-09-2.27242E-18-1.66583E-18
 -1       948 9.52393E-05-2.85735E-05-2.85710E-05-1.87583E-09-5.25427E-19-2.98267E-18
 -1       949 9.52388E-05-2.85731E-05-2.85710E-05-1.52168E-09 6.70051E-19-3.86149E-18
 -1       950 7.85433E-05-1.80032E-05-2.59392E-05 1.15512E-05-1.29295E-18-2.63430E-19
 -1       951 1.04927E-04-1.51207E-05-3.85056E-05 4.68426E-07 3.57510E-18-2.65955E-18
 -1       952 9.52388E-05-2.85731E-05-2.85710E-05 8.92774E-10 1.07045E-18 7.87727E-19
 -1       953 9.53737E-05-2.86987E-05-2.85750E-05 9.00114E-07-1.29578E-18-9.56481E-19
 -1       954 1.00786E-04-3.37397E-05-2.87337E-05 1.99512E-06-1.51428E-18-1.21432E-18
 -1       955 8.67057E-05-2.16886E-05-2.78654E-05 3.56183E-06-1.51383E-18-2.89290E-19
 -1       956 8.33473E-05-1.99454E-05-2.71744E-05 6.64047E-06-8.22085E-19-5.50544E-19
 -1       957 1.19384E-04-3.13157E-05-3.78105E-05-9.72777E-06 2.09725E-18-4.86258E-18
 -1       958 9.52386E-05-2.85730E-05-2.85710E-05-9.68646E-10-2.83011E-18-1.85784E-18
 -1       959 1.08346E-04-2.05074E-05-3.76864E-05-7.16795E-06 2.95149E-18-3.44505E-18
 -1       960 1.19129E-04-4.83394E-05-3.03371E-05 1.45369E-05-2.33397E-18-3.72478E-18
 -1       961 1.25302E-04-4.72020E-05-3.35053E-05 2.76775E-06-9.57510E-19-4.91518E-18
 -1       962 1.09965E-04-3.91041E-05-3.03652E-05-2.03542E-06-3.95044E-19-2.30997E-18
 -1       963 1.03472E-04-3.57861E-05-2.90069E-05 1.50118E-06-1.16294E-18-1.51047E-18
 -1       964 9.68283E-05-3.42981E-05-2.67836E-05 2.12871E-05-3.23164E-18-9.23744E-19
 -1       965 1.12479E-04-3.85712E-05-3.16787E-05-5.19334E-06 4.75666E-19-2.49773E-18
 -1       966 9.72914E-05-3.06597E-05-2.85564E-05 1.79160E-06-4.58198E-19-1.07187E-18
 -1       967 9.52390E-05-2.85733E-05-2.85710E-05 3.51123E-10-8.47222E-19-3.25583E-18
 -1       968 9.87384E-05-3.19944E-05-2.86045E-05 2.01222E-06-4.50516E-19-1.03715E-18
 -1       969 1.11504E-04-2.85359E-05-3.55666E-05-9.68481E-06 2.47796E-18-3.29861E-18
 -1       970 9.52389E-05-2.85732E-05-2.85710E-05-4.58989E-10-3.06865E-19-7.21402E-19
 -1       971 1.20309E-04-4.08381E-05-3.40885E-05-4.87516E-06 5.81569E-19-4.02604E-18
 -1       972 9.51678E-05-2.85398E-05-2.85545E-05 1.27915E-06-9.79733E-19-8.03144E-19
 -1       973 8.61088E-05-2.43507E-05-2.64417E-05 1.55357E-05-1.83847E-18 5.31542E-20
 -1       974 9.22757E-05-2.58293E-05-2.84766E-05 1.43419E-06-1.44807E-18-4.08616E-19
 -1       975 9.31157E-05-2.64628E-05-2.85655E-05 6.99311E-07-3.33968E-19 5.32204E-19
 -1       976 9.37431E-05-2.69818E-05-2.86122E-05 2.77559E-07-9.46985E-19 1.21879E-19
 -1       977 9.41989E-05-2.73893E-05-2.86327E-05 5.07632E-08-1.72775E-18 2.46010E-20
 -1       978 9.45227E-05-2.76998E-05-2.86385E-05-6.05003E-08-7.19685E-19-9.68361E-19
 -1       979 9.47518E-05-2.79342E-05-2.86362E-05-1.03976E-07-4.18839E-19-1.91968E-18
 -1       980 9.49120E-05-2.81089E-05-2.86300E-05-1.11426E-07 6.89225E-19-1.65812E-18
 -1       981 9.50231E-05-2.82383E-05-2.86221E-05-1.01189E-07-4.52996E-19-7.60418E-21
 -1       982 9.50996E-05-2.83337E-05-2.86140E-05-8.38701E-08-2.22814E-18-5.77177E-19
 -1       983 9.51518E-05-2.84037E-05-2.86064E-05-6.52480E-08-1.81230E-18-6.26427E-19
 -1       984 9.51872E-05-2.84550E-05-2.85995E-05-4.81882E-08-8.15532E-19-1.70749E-18
 -1       985 9.52107E-05-2.84922E-05-2.85936E-05-3.38677E-08 5.27620E-19-9.55977E-19
 -1       986 9.52260E-05-2.85190E-05-2.85887E-05-2.25375E-08-8.87942E-19-1.10606E-18
 -1       987 9.52356E-05-2.85381E-05-2.85846E-05-1.39824E-08-1.07552E-18 9.08116E-19
 -1       988 9.52414E-05-2.85515E-05-2.85813E-05-7.78828E-09 2.87494E-19 1.47959E-18
 -1       989 9.52445E-05-2.85608E-05-2.85787E-05-3.49128E-09 1.79187E-18 1.89343E-18
 -1       990 9.52459E-05-2.85669E-05-2.85767E-05-6.53362E-10-4.30180E-20 2.45309E-18
 -1       991 9.52461E-05-2.85709E-05-2.85751E-05 1.10375E-09-8.02755E-19 1.88642E-18
 -1       992 9.52457E-05-2.85733E-05-2.85739E-05 2.08859E-09 3.25124E-18 1.98037E-19
 -1       993 9.52449E-05-2.85746E-05-2.85730E-05 2.54243E-09 2.65875E-18 2.71883E-18
 -1       994 9.52440E-05-2.85752E-05-2.85723E-05 2.64745E-09 7.23038E-19 2.86996E-18
 -1       995 9.52429E-05-2.85752E-05-2.85719E-05 2.53688E-09-9.33173E-19 3.13010E-18
 -1       996 9.52420E-05-2.85750E-05-2.85715E-05 2.30467E-09 4.58970E-19 4.19317E-18
 -1       997 9.52411E-05-2.85747E-05-2.85713E-05 2.01472E-09 1.04268E-18 3.97932E-18
 -1       998 9.52402E-05-2.85742E-05-2.85712E-05 1.71469E-09 1.69432E-18 3.52946E-18
 -1       999 9.52396E-05-2.85737E-05-2.85711E-05 1.42810E-09 9.52600E-19 4.00036E-18
 -1      1000 9.49903E-05-2.82455E-05-2.86049E-05 2.82566E-07-1.29851E-19-9.75718E-19
 -1      1001 9.55214E-05-2.89510E-05-2.85303E-05 1.79056E-06-8.60010E-19-7.78902E-19
 -1      1002 9.11843E-05-2.51055E-05-2.83194E-05 2.65355E-06-8.12880E-19-3.77101E-19
 -1      1003 9.52390E-05-2.85732E-05-2.85710E-05-6.44038E-11-3.22826E-19-2.71089E-18
 -1      1004 9.49537E-05-2.82197E-05-2.86003E-05 4.19290E-07-1.42629E-18-7.20054E-19
 -1      1005 9.49461E-05-2.82346E-05-2.85907E-05 6.16767E-07-5.79030E-19-1.55693E-18
 -1      1006 9.50372E-05-2.82902E-05-2.86059E-05 1.88768E-07-6.51275E-19-1.11055E-18
 -1      1007 9.50841E-05-2.83407E-05-2.86043E-05 1.24927E-07 8.78181E-19-1.48953E-18
 -1      1008 9.51258E-05-2.83896E-05-2.86012E-05 8.16990E-08 1.42905E-18-6.16737E-19
 -1      1009 9.51602E-05-2.84329E-05-2.85974E-05 5.25310E-08-4.65533E-19-5.44246E-20
 -1      1010 9.51872E-05-2.84693E-05-2.85934E-05 3.29139E-08-6.76476E-19 4.22323E-19
 -1      1011 9.52075E-05-2.84987E-05-2.85895E-05 1.97816E-08-1.49702E-18 9.94939E-19
 -1      1012 9.52220E-05-2.85216E-05-2.85859E-05 1.10602E-08-1.34736E-18-1.06508E-19
 -1      1013 9.52319E-05-2.85388E-05-2.85828E-05 5.34710E-09-2.32971E-19-7.58655E-19
 -1      1014 9.52384E-05-2.85514E-05-2.85801E-05 1.68918E-09 1.39995E-18-5.57450E-19
 -1      1015 9.52422E-05-2.85604E-05-2.85779E-05-5.65939E-10 1.05401E-18-2.40579E-20
 -1      1016 9.52442E-05-2.85665E-05-2.85762E-05-1.86878E-09 1.24905E-18 7.01223E-21
 -1      1017 9.52450E-05-2.85706E-05-2.85748E-05-2.53287E-09 2.50939E-18 8.43205E-19
 -1      1018 9.52449E-05-2.85730E-05-2.85737E-05-2.77759E-09 2.75601E-18 4.13191E-19
 -1      1019 9.52444E-05-2.85744E-05-2.85729E-05-2.75653E-09 2.83032E-18 1.50204E-18
 -1      1020 9.52436E-05-2.85750E-05-2.85723E-05-2.57666E-09 2.01377E-18 7.87056E-19
 -1      1021 9.52427E-05-2.85751E-05-2.85718E-05-2.31152E-09-1.38709E-19 3.82518E-19
 -1      1022 9.52418E-05-2.85749E-05-2.85715E-05-2.01031E-09-2.04763E-19 1.37087E-18
 -1      1023 9.52409E-05-2.85745E-05-2.85713E-05-1.70638E-09-2.01049E-18 1.50458E-19
 -1      1024 9.52401E-05-2.85741E-05-2.85712E-05-1.41904E-09-4.68561E-19-2.57211E-18
 -1      1025 9.52395E-05-2.85736E-05-2.85711E-05-1.16031E-09-8.31567E-19-1.33036E-18
 -1      1026 9.50021E-05-2.83266E-05-2.85752E-05 8.94342E-07-6.60226E-19-8.00438E-19
 -1      1027 8.83273E-05-2.38471E-05-2.76345E-05 7.65658E-06-1.20365E-18-1.10808E-18
 -1      1028 8.98420E-05-2.43775E-05-2.80559E-05 4.61024E-06-8.59920E-19-9.62234E-19
 -1      1029 9.52392E-05-2.85734E-05-2.85710E-05-7.72407E-10-5.75146E-19-1.80072E-19
 -1      1030 8.71542E-05-2.38098E-05-2.71530E-05 1.10470E-05-1.32087E-18-5.31742E-19
 -1      1031 1.06669E-04-3.77978E-05-2.95145E-05 2.40518E-07-8.97905E-19-2.20908E-18
 -1      1032 1.06048E-04-3.96439E-05-2.84607E-05 1.47654E-05-2.64183E-18-2.69451E-18
 -1      1033 1.13197E-04-3.51986E-05-3.34332E-05-8.37269E-06 1.36209E-18-3.00769E-18
 -1      1034 1.13376E-04-4.38474E-05-2.97964E-05 1.03771E-05-1.80858E-18-2.88105E-18
 -1      1035 9.79421E-05-3.32987E-05-2.76853E-05 1.48094E-05-2.71277E-18-1.36527E-18
 -1      1036 1.14743E-04-4.22560E-05-3.10759E-05 7.67938E-07-8.60638E-19-3.06685E-18
 -1      1037 1.09816E-04-4.02622E-05-2.98020E-05 3.44774E-06-9.70055E-19-1.76383E-18
 -1      1038 9.61816E-05-2.96602E-05-2.85095E-05 2.43962E-06-2.44424E-19-4.70194E-19
 -1      1039 1.18391E-04-4.42470E-05-3.17853E-05 1.69466E-06-5.65188E-19-3.40582E-18
 -1      1040 9.52399E-05-2.85740E-05-2.85711E-05 6.75706E-10 1.10017E-18-6.98630E-19
 -1      1041 9.90625E-05-3.24184E-05-2.85610E-05 3.98424E-06-7.39475E-19-1.20833E-18
 -1      1042 1.01687E-04-3.46677E-05-2.87222E-05 4.58226E-06-1.24109E-18-5.56936E-19
 -1      1043 1.03589E-04-3.69082E-05-2.85864E-05 1.01702E-05-2.30545E-18-1.53013E-18
 -1      1044 9.37686E-05-2.71267E-05-2.85607E-05 9.63579E-07-7.21231E-19-1.34802E-18
 -1      1045 9.41494E-05-2.74241E-05-2.85964E-05 5.15849E-07-1.42833E-18-1.28502E-18
 -1      1046 9.44277E-05-2.76617E-05-2.86142E-05 2.53770E-07-1.61395E-18-8.20871E-20
 -1      1047 9.46542E-05-2.78710E-05-2.86214E-05 1.01072E-07-6.26223E-19 2.26462E-19
 -1      1048 9.48244E-05-2.80402E-05-2.86219E-05 2.03902E-08 5.49092E-19 2.24593E-19
 -1      1049 9.49506E-05-2.81740E-05-2.86185E-05-1.78044E-08 3.66573E-19-8.87071E-19
 -1      1050 9.50426E-05-2.82782E-05-2.86133E-05-3.21432E-08-8.83590E-19-1.25476E-18
 -1      1051 9.51090E-05-2.83583E-05-2.86074E-05-3.39895E-08-7.75860E-19-8.41142E-20
 -1      1052 9.51561E-05-2.84192E-05-2.86015E-05-3.00171E-08-1.53485E-18 1.46433E-18
 -1      1053 9.51890E-05-2.84649E-05-2.85960E-05-2.39592E-08 1.60296E-19 1.28939E-18
 -1      1054 9.52115E-05-2.84988E-05-2.85912E-05-1.77607E-08-3.82887E-19 5.68303E-19
 -1      1055 9.52264E-05-2.85235E-05-2.85869E-05-1.23185E-08 3.63369E-19 8.91459E-19
 -1      1056 9.52360E-05-2.85413E-05-2.85834E-05-7.94401E-09 2.62904E-19 1.20721E-18
 -1      1057 9.52418E-05-2.85539E-05-2.85805E-05-4.64500E-09 1.37102E-18 3.22618E-19
 -1      1058 9.52449E-05-2.85625E-05-2.85782E-05-2.28950E-09 9.25300E-19-9.83055E-19
 -1      1059 9.52463E-05-2.85682E-05-2.85763E-05-6.97727E-10 5.25028E-19-9.20288E-19
 -1      1060 9.52465E-05-2.85719E-05-2.85749E-05 3.10270E-10 1.11374E-18 8.80046E-19
 -1      1061 9.52461E-05-2.85740E-05-2.85738E-05 8.92756E-10 2.99104E-18 5.99738E-19
 -1      1062 9.52453E-05-2.85751E-05-2.85729E-05 1.17880E-09 1.41947E-18 1.36575E-19
 -1      1063 9.52442E-05-2.85755E-05-2.85723E-05 1.26830E-09 6.79594E-19 9.13303E-19
 -1      1064 9.52431E-05-2.85755E-05-2.85719E-05 1.23556E-09 6.10690E-19 2.57509E-18
 -1      1065 9.52421E-05-2.85752E-05-2.85715E-05 1.13449E-09-1.96744E-20 2.03271E-18
 -1      1066 9.52412E-05-2.85747E-05-2.85713E-05 9.89732E-10-3.69887E-19-1.66895E-19
 -1      1067 9.52405E-05-2.85743E-05-2.85712E-05 8.21357E-10 1.85298E-18-6.30337E-19
 -1      1068 9.47203E-05-2.81657E-05-2.85227E-05 1.73629E-06-1.03253E-18-3.17407E-19
 -1      1069 9.50160E-05-2.82643E-05-2.86079E-05 1.06451E-07-3.97807E-20-8.19938E-19
 -1      1070 9.24049E-05-2.65159E-05-2.82380E-05 4.46900E-06-7.16480E-19-1.28384E-18
 -1      1071 9.56077E-05-3.07379E-05-2.78104E-05 1.18363E-05-1.88138E-18-1.70318E-18
 -1      1072 9.47678E-05-2.80394E-05-2.85979E-05 4.67497E-07-1.12937E-18 2.52560E-19
 -1      1073 9.50782E-05-2.83329E-05-2.86051E-05 6.24936E-08 3.27849E-19 4.80325E-19
 -1      1074 9.51275E-05-2.83912E-05-2.86013E-05 3.57339E-08 1.11358E-18 6.14158E-19
 -1      1075 9.51652E-05-2.84389E-05-2.85970E-05 1.96747E-08-4.84999E-19 4.25980E-19
 -1      1076 9.51930E-05-2.84767E-05-2.85927E-05 1.01747E-08-1.64772E-18 1.96680E-19
 -1      1077 9.52129E-05-2.85059E-05-2.85887E-05 4.64492E-09-6.70812E-19-1.08620E-18
 -1      1078 9.52266E-05-2.85279E-05-2.85852E-05 1.49353E-09-6.49400E-19-1.16804E-18
 -1      1079 9.52356E-05-2.85440E-05-2.85821E-05-2.44818E-10-2.86963E-19-1.11544E-18
 -1      1080 9.52412E-05-2.85555E-05-2.85796E-05-1.14932E-09-3.88899E-21-3.05455E-19
 -1      1081 9.52443E-05-2.85635E-05-2.85775E-05-1.56514E-09 9.84211E-19 2.76805E-19
 -1      1082 9.52457E-05-2.85688E-05-2.85758E-05-1.69750E-09 1.41551E-18 2.93521E-19
 -1      1083 9.52460E-05-2.85722E-05-2.85745E-05-1.66872E-09 2.82417E-18 4.24066E-19
 -1      1084 9.52456E-05-2.85741E-05-2.85735E-05-1.55220E-09 9.87942E-19 4.24652E-19
 -1      1085 9.52448E-05-2.85751E-05-2.85727E-05-1.39240E-09 2.49316E-18 1.56412E-18
 -1      1086 9.52439E-05-2.85754E-05-2.85722E-05-1.21650E-09 1.82341E-18 1.30794E-18
 -1      1087 9.52428E-05-2.85754E-05-2.85718E-05-1.04140E-09-8.89632E-19 6.92294E-19
 -1      1088 9.52418E-05-2.85750E-05-2.85715E-05-8.77861E-10-1.41900E-18 1.05667E-18
 -1      1089 9.52409E-05-2.85746E-05-2.85713E-05-7.26307E-10 7.88242E-19 2.46505E-19
 -1      1090 9.52401E-05-2.85741E-05-2.85712E-05-5.93666E-10-1.12071E-18-1.72099E-18
 -1      1091 9.46935E-05-2.80006E-05-2.85829E-05 7.37780E-07-7.71340E-19-2.73607E-20
 -1      1092 9.49409E-05-2.81877E-05-2.86086E-05 1.77572E-07-8.05090E-19-8.46603E-19
 -1      1093 9.72971E-05-3.07749E-05-2.85095E-05 3.20364E-06-3.31244E-19-7.65899E-19
 -1      1094 9.21555E-05-2.67984E-05-2.80106E-05 6.89515E-06-1.00695E-18-7.13936E-19
 -1      1095 9.28646E-05-2.66138E-05-2.83941E-05 2.81057E-06-8.58627E-19-1.49416E-18
 -1      1096 1.05355E-04-3.74865E-05-2.90782E-05 4.63987E-06-1.65525E-18-1.14721E-18
 -1      1097 9.46743E-05-2.80324E-05-2.85598E-05 1.12781E-06-1.02447E-18-7.44561E-19
 -1      1098 9.48557E-05-2.81089E-05-2.86058E-05 2.90741E-07-5.52079E-19-1.16036E-18
 -1      1099 9.33262E-05-2.68368E-05-2.84959E-05 1.70153E-06-1.07439E-18-1.35898E-18
 -1      1100 1.00482E-04-3.41897E-05-2.84142E-05 8.78496E-06-1.96056E-18-1.11300E-18
 -1      1101 9.52394E-05-2.85736E-05-2.85711E-05-3.29419E-10-1.61998E-18-7.34073E-19
 -1      1102 9.66445E-05-3.03898E-05-2.83950E-05 5.02689E-06-6.78883E-19-1.09286E-19
 -1      1103 9.49858E-05-2.85337E-05-2.84799E-05 2.56089E-06-2.53214E-19-3.47881E-19
 -1      1104 1.14546E-04-3.95766E-05-3.21261E-05-4.61447E-06 1.20411E-19-3.24669E-18
 -1      1105 9.32846E-05-2.82637E-05-2.78697E-05 9.28592E-06-1.26729E-18-1.23578E-18
 -1      1106 9.43094E-05-2.76606E-05-2.85655E-05 9.59326E-07-9.84146E-19-3.94872E-19
 -1      1107 9.55566E-05-2.92101E-05-2.84335E-05 3.62002E-06-5.97522E-19-4.31178E-19
 -1      1108 9.52395E-05-2.85737E-05-2.85711E-05 7.97179E-11-1.85093E-18-2.69721E-18
 -1      1109 9.85435E-05-3.22715E-05-2.84017E-05 6.68766E-06-9.15351E-19-3.12696E-19
 -1      1110 9.49476E-05-2.92297E-05-2.81652E-05 7.10634E-06-1.02376E-18-2.42999E-18
 -1      1111 9.42220E-05-2.79949E-05-2.83799E-05 3.72070E-06-4.81658E-19-1.55907E-18
 -1      1112 1.09718E-04-4.09126E-05-2.94961E-05 7.50210E-06-1.53673E-18-1.74448E-18
 -1      1113 9.52402E-05-2.85741E-05-2.85712E-05-1.69547E-10-3.86606E-19-8.62495E-19
 -1      1114 9.52404E-05-2.85743E-05-2.85712E-05 2.79425E-10 1.87472E-18 1.46121E-18
 -1      1115 9.44258E-05-2.84309E-05-2.82850E-05 5.18514E-06-7.46739E-19-1.76712E-18
 -1      1116 9.62462E-05-3.05314E-05-2.81700E-05 8.03611E-06-1.41350E-18-2.13055E-18
 -1      1117 1.69516E-04 4.58390E-10-6.13674E-05-3.64753E-05-4.16740E-19 1.20645E-17
 -1      1118 1.11315E-04 1.15990E-10-4.60876E-05-1.77993E-06-1.64324E-19 4.16528E-19
 -1      1119 7.20676E-05-1.29970E-11-3.17833E-05 3.40132E-06-5.08220E-20-4.76206E-18
 -1      1120 4.59517E-05-9.27143E-11-2.17990E-05-5.47523E-06-5.59042E-20-7.17536E-18
 -1      1121 3.81631E-05-1.00875E-10-1.85148E-05-1.86544E-05-9.44442E-20-8.00981E-18
 -1      1122 4.52778E-05-5.39614E-11-2.06224E-05-2.83815E-05-1.10114E-19-8.21098E-18
 -1      1123 6.12125E-05 2.20677E-11-2.62250E-05-3.09742E-05-1.22820E-19-8.20815E-18
 -1      1124 7.91051E-05 7.65440E-11-3.28982E-05-2.49311E-05-1.19855E-19-8.14122E-18
 -1      1125 9.14172E-05 9.07835E-11-3.78265E-05-1.41734E-05-8.08916E-20-8.11092E-18
 -1      1126 9.68763E-05 7.96157E-11-4.03144E-05-3.21355E-06-3.85400E-20-8.20375E-18
 -1      1127 9.72100E-05 6.14714E-11-4.07782E-05 5.75777E-06 8.52327E-21-8.16214E-18
 -1      1128 9.46355E-05 4.63198E-11-3.99683E-05 1.24168E-05 5.84453E-20-7.82801E-18
 -1      1129 9.07888E-05 3.65932E-11-3.85322E-05 1.73902E-05 1.08950E-19-6.93014E-18
 -1      1130 8.67495E-05 3.23474E-11-3.69569E-05 2.13945E-05 1.65383E-19-4.99393E-18
 -1      1131 8.36479E-05 3.40756E-11-3.57534E-05 2.50381E-05 2.19382E-19-1.07342E-18
 -1      1132 8.37571E-05 4.99582E-11-3.57028E-05 2.93382E-05 2.71474E-19 6.47906E-18
 -1      1133 9.99212E-05 1.37907E-10-3.81696E-05 3.88786E-05 5.67936E-19 2.21270E-17
 -1      1134 2.11241E-04-4.58388E-05-6.53141E-05-2.60154E-05-1.68729E-18 1.96232E-17
 -1      1135 2.00864E-04-6.04912E-05-6.13815E-05 2.09000E-06-5.49671E-19 1.88096E-17
 -1      1136 2.06115E-04-6.22853E-05-5.95383E-05 2.76506E-07-6.88479E-20 1.88219E-17
 -1      1137 1.89336E-04-5.64579E-05-5.43404E-05-4.86384E-06 1.77850E-19 2.00408E-17
 -1      1138 1.44140E-04-4.11977E-05-4.60448E-05-8.33852E-06-8.86208E-20 1.71668E-17
 -1      1139 9.66670E-05-2.60406E-05-3.86500E-05-5.02829E-06-5.86147E-19 6.54418E-18
 -1      1140 8.30399E-05-2.21149E-05-3.61359E-05 2.14469E-06-8.23740E-19-1.01481E-17
 -1      1141 1.13087E-04-3.24480E-05-3.96270E-05 6.74077E-06 1.33937E-20-2.10242E-17
 -1      1142 1.55826E-04-4.59090E-05-4.62588E-05 5.49137E-06-3.58268E-20-2.27793E-17
 -1      1143 1.81106E-04-5.46518E-05-5.13308E-05 1.74574E-06 1.52506E-19-1.88037E-17
 -1      1144 1.76500E-04-5.34163E-05-5.11863E-05-6.53017E-07 5.68240E-20-1.36416E-17
 -1      1145 1.57636E-04-4.75018E-05-4.70493E-05-1.10317E-06 8.18458E-20-9.50604E-18
 -1      1146 1.38366E-04-4.15614E-05-4.19115E-05-8.56472E-07-7.09291E-20-8.05634E-18
 -1      1147 1.23473E-04-3.70514E-05-3.75128E-05-5.34262E-07-2.40858E-19-8.23771E-18
 -1      1148 1.13219E-04-3.39771E-05-3.43203E-05-3.01730E-07-9.49736E-20-8.93779E-18
 -1      1149 1.06534E-04-3.19773E-05-3.21899E-05-1.61536E-07 1.46609E-20-9.81724E-18
 -1      1150 1.02287E-04-3.07042E-05-3.08263E-05-8.34119E-08 2.82034E-19-8.76422E-18
 -1      1151 9.96191E-05-2.99015E-05-2.99696E-05-4.16262E-08-1.70504E-19-9.09424E-18
 -1      1152 9.79497E-05-2.93973E-05-2.94349E-05-1.98448E-08-7.98808E-21-9.05512E-18
 -1      1153 9.69049E-05-2.90806E-05-2.91014E-05-8.73969E-09-1.92766E-19-1.02086E-17
 -1      1154 9.62499E-05-2.88815E-05-2.88931E-05-3.22736E-09-1.30066E-20-1.22659E-17
 -1      1155 9.58387E-05-2.87562E-05-2.87626E-05-5.99537E-10-3.47030E-19-1.16661E-17
 -1      1156 9.55805E-05-2.86773E-05-2.86809E-05 5.66940E-10-3.39372E-19-1.43892E-17
 -1      1157 9.54191E-05-2.86279E-05-2.86299E-05 1.01135E-09 3.79896E-19-1.43262E-17
 -1      1158 9.53192E-05-2.85973E-05-2.85984E-05 1.11250E-09 2.22996E-19-1.18700E-17
 -1      1159 9.52586E-05-2.85786E-05-2.85792E-05 1.06086E-09 2.42693E-19-1.01137E-17
 -1      1160 9.52233E-05-2.85677E-05-2.85680E-05 9.49588E-10-1.26762E-19-8.92604E-18
 -1      1161 9.52040E-05-2.85617E-05-2.85618E-05 8.22453E-10 2.45392E-19-9.02722E-18
 -1      1162 9.51951E-05-2.85589E-05-2.85589E-05 6.98764E-10-8.84976E-20-9.70245E-18
 -1      1163 9.51925E-05-2.85580E-05-2.85580E-05 5.86109E-10-2.37872E-19-8.94717E-18
 -1      1164 9.51938E-05-2.85583E-05-2.85582E-05 4.86720E-10-9.98460E-20-9.17040E-18
 -1      1165 9.51973E-05-2.85593E-05-2.85592E-05 4.00545E-10-1.49951E-19-6.89529E-18
 -1      1166 9.52019E-05-2.85606E-05-2.85606E-05 3.26661E-10 2.39305E-19-7.13154E-18
 -1      1167 9.52068E-05-2.85621E-05-2.85620E-05 2.63887E-10 5.22874E-20-4.91819E-18
 -1      1168 9.52117E-05-2.85635E-05-2.85635E-05 2.11017E-10 6.04620E-19-3.16478E-18
 -1      1169 9.52162E-05-2.85649E-05-2.85648E-05 1.66900E-10-2.76864E-20-2.02627E-18
 -1      1170 9.52202E-05-2.85661E-05-2.85660E-05 1.30459E-10 2.30488E-19-2.08565E-18
 -1      1171 9.52237E-05-2.85671E-05-2.85671E-05 1.00687E-10-1.18669E-19-6.73460E-18
 -1      1172 9.52267E-05-2.85680E-05-2.85680E-05 7.66555E-11 5.27170E-20-7.40702E-18
 -1      1173 9.52291E-05-2.85687E-05-2.85687E-05 5.75079E-11-6.81773E-19-5.24632E-18
 -1      1174 9.52311E-05-2.85693E-05-2.85693E-05 4.24673E-11-2.28057E-19-9.37506E-18
 -1      1175 9.52327E-05-2.85698E-05-2.85698E-05 3.08375E-11 2.06436E-19-1.14894E-17
 -1      1176 9.52340E-05-2.85702E-05-2.85702E-05 2.20032E-11 8.13416E-19-4.64666E-18
 -1      1177 9.52349E-05-2.85705E-05-2.85705E-05 1.54248E-11-4.37160E-19-2.12605E-18
 -1      1178 9.52357E-05-2.85707E-05-2.85707E-05 1.06222E-11 1.91365E-19-2.38750E-18
 -1      1179 9.52363E-05-2.85709E-05-2.85709E-05 7.14485E-12-4.83831E-19-2.34339E-18
 -1      1180 9.52367E-05-2.85710E-05-2.85710E-05 4.52070E-12 1.62232E-19-2.94536E-18
 -1      1181 9.52370E-05-2.85711E-05-2.85711E-05 2.12136E-12 4.60968E-20-3.35896E-19
 -1      1182 9.52371E-05-2.85711E-05-2.85711E-05-1.06711E-12 3.90048E-19-7.00003E-19
 -1      1183 9.52372E-05-2.85712E-05-2.85712E-05-6.35594E-12-2.42881E-19-2.38020E-18
 -1      1184 9.52372E-05-2.85711E-05-2.85712E-05-9.04678E-12 6.72130E-19-2.54964E-18
 -1      1185 1.23283E-04-3.56111E-05-3.57085E-05 1.28458E-05-3.83388E-19 3.50934E-17
 -1      1186 8.25082E-05-2.39566E-05-2.72052E-05 1.11931E-06 2.12764E-19 2.85922E-17
 -1      1187 7.26236E-05-2.16063E-05-2.26738E-05 2.88303E-07 2.25946E-19 2.21500E-17
 -1      1188 6.82224E-05-2.04904E-05-2.07509E-05 1.43423E-07 4.09818E-20 1.80263E-17
 -1      1189 6.65929E-05-2.00415E-05-2.01234E-05 8.54396E-08 4.96871E-20 1.51590E-17
 -1      1190 6.69477E-05-2.01363E-05-2.02099E-05 4.07240E-08 1.23065E-19 1.26940E-17
 -1      1191 6.89314E-05-2.07127E-05-2.07901E-05-1.31961E-08 4.02423E-20 1.11986E-17
 -1      1192 7.21860E-05-2.16724E-05-2.17343E-05-6.97812E-08 1.12215E-19 9.54802E-18
 -1      1193 7.62394E-05-2.28763E-05-2.29066E-05-1.16019E-07 7.82596E-21 8.08435E-18
 -1      1194 8.05578E-05-2.41646E-05-2.41591E-05-1.42239E-07 4.16824E-20 7.36569E-18
 -1      1195 8.46561E-05-2.53909E-05-2.53564E-05-1.46172E-07 7.75416E-20 7.06312E-18
 -1      1196 8.81886E-05-2.64499E-05-2.63989E-05-1.32109E-07 1.05279E-19 5.76430E-18
 -1      1197 9.09828E-05-2.72887E-05-2.72338E-05-1.07532E-07 2.41702E-21 4.81766E-18
 -1      1198 9.30193E-05-2.79007E-05-2.78509E-05-7.97740E-08-8.59937E-21 4.63545E-18
 -1      1199 9.43832E-05-2.83109E-05-2.82712E-05-5.40964E-08 2.37972E-20 4.00185E-18
 -1      1200 9.52107E-05-2.85601E-05-2.85315E-05-3.32554E-08 2.09796E-19 4.26438E-18
 -1      1201 9.56475E-05-2.86920E-05-2.86734E-05-1.79902E-08-2.84600E-20 3.61214E-18
 -1      1202 9.58235E-05-2.87455E-05-2.87346E-05-7.80018E-09-8.54873E-20 3.06470E-18
 -1      1203 9.58412E-05-2.87514E-05-2.87460E-05-1.63298E-09-5.78361E-20 2.24830E-18
 -1      1204 9.57745E-05-2.87318E-05-2.87299E-05 1.65637E-09 2.58836E-19 1.08149E-18
 -1      1205 9.56723E-05-2.87015E-05-2.87015E-05 3.06462E-09 1.28847E-19 3.53095E-19
 -1      1206 9.55641E-05-2.86692E-05-2.86703E-05 3.35405E-09-9.84585E-20 1.34082E-18
 -1      1207 9.54660E-05-2.86399E-05-2.86413E-05 3.05451E-09 2.69033E-19 1.92590E-18
 -1      1208 9.53848E-05-2.86156E-05-2.86170E-05 2.50469E-09 1.65537E-19 3.03092E-18
 -1      1209 9.53220E-05-2.85968E-05-2.85980E-05 1.90275E-09-1.18736E-19 5.21491E-18
 -1      1210 9.52763E-05-2.85831E-05-2.85841E-05 1.35181E-09-3.50021E-19 6.69401E-18
 -1      1211 9.52450E-05-2.85737E-05-2.85744E-05 8.95509E-10 3.61117E-19 4.17160E-18
 -1      1212 9.52250E-05-2.85677E-05-2.85682E-05 5.43176E-10 4.29445E-19 1.07216E-18
 -1      1213 9.52135E-05-2.85642E-05-2.85645E-05 2.86465E-10-2.35246E-19 1.40617E-18
 -1      1214 9.52081E-05-2.85625E-05-2.85627E-05 1.09583E-10 2.52285E-19 2.02181E-18
 -1      1215 9.52067E-05-2.85621E-05-2.85622E-05-4.90102E-12-3.38517E-20-3.98866E-19
 -1      1216 9.52079E-05-2.85624E-05-2.85625E-05-7.30958E-11 1.39421E-19 1.41900E-18
 -1      1217 9.52106E-05-2.85632E-05-2.85632E-05-1.08540E-10-9.21422E-21 2.16579E-18
 -1      1218 9.52139E-05-2.85642E-05-2.85642E-05-1.21919E-10 3.57424E-19-6.21207E-20
 -1      1219 9.52175E-05-2.85653E-05-2.85652E-05-1.21273E-10 8.44926E-20-7.91930E-19
 -1      1220 9.52210E-05-2.85663E-05-2.85663E-05-1.12403E-10-1.97770E-19 1.47961E-19
 -1      1221 9.52241E-05-2.85672E-05-2.85672E-05-9.93283E-11-1.68659E-19 2.51851E-18
 -1      1222 9.52269E-05-2.85681E-05-2.85680E-05-8.47177E-11 4.07947E-19 3.49725E-18
 -1      1223 9.52292E-05-2.85688E-05-2.85687E-05-7.02484E-11 2.62564E-20 2.37597E-18
 -1      1224 9.52311E-05-2.85693E-05-2.85693E-05-5.68991E-11-2.11849E-20 1.94712E-18
 -1      1225 9.52327E-05-2.85698E-05-2.85698E-05-4.51730E-11-2.30576E-20 1.79974E-18
 -1      1226 9.52340E-05-2.85702E-05-2.85702E-05-3.52647E-11 1.11359E-19-1.88977E-19
 -1      1227 9.52349E-05-2.85705E-05-2.85705E-05-2.71782E-11-2.15894E-19-1.67048E-18
 -1      1228 9.52357E-05-2.85707E-05-2.85707E-05-2.08056E-11-1.13929E-19-1.46894E-18
 -1      1229 9.52362E-05-2.85709E-05-2.85709E-05-1.59707E-11-3.23445E-19-1.48163E-18
 -1      1230 9.52367E-05-2.85710E-05-2.85710E-05-1.23859E-11 3.06397E-19-3.09872E-18
 -1      1231 9.52369E-05-2.85711E-05-2.85711E-05-9.52400E-12-4.54571E-19-3.84379E-18
 -1      1232 9.52371E-05-2.85711E-05-2.85711E-05-5.94276E-12-8.32510E-20-1.45912E-18
 -1      1233 9.52372E-05-2.85712E-05-2.85711E-05 1.24142E-12 8.88343E-19-3.61619E-18
 -1      1234 9.52372E-05-2.85711E-05-2.85712E-05 6.68646E-12 1.60825E-19-6.59826E-18
 -1      1235 9.52371E-05-2.85711E-05-2.85712E-05 6.79768E-12-5.26668E-18-2.57459E-19
 -1      1236 9.52371E-05-2.85711E-05-2.85711E-05 8.60426E-12-1.70959E-19 1.08850E-18
 -1      1237 9.52372E-05-2.85712E-05-2.85711E-05-1.05148E-12 3.52672E-18 3.25316E-19
 -1      1238 9.52372E-05-2.85713E-05-2.85711E-05-6.79924E-12 1.58645E-18-7.11863E-19
 -1      1239 9.52373E-05-2.85716E-05-2.85710E-05-9.14198E-12 3.98019E-18 5.37852E-19
 -1      1240 9.52373E-05-2.85718E-05-2.85710E-05-8.99696E-12 5.22240E-18 6.47468E-19
 -1      1241 9.52374E-05-2.85720E-05-2.85709E-05-7.10594E-12 1.18288E-18-1.83721E-19
 -1      1242 9.52374E-05-2.85721E-05-2.85709E-05-3.82376E-12-3.97797E-18-5.92418E-19
 -1      1243 9.52374E-05-2.85721E-05-2.85709E-05 8.17371E-14-6.88927E-18 3.07012E-19
 -1      1244 9.52374E-05-2.85721E-05-2.85709E-05 3.97468E-12-1.67385E-18-6.35131E-19
 -1      1245 9.52374E-05-2.85720E-05-2.85709E-05 7.20122E-12-4.31224E-18-8.52862E-19
 -1      1246 9.52373E-05-2.85718E-05-2.85710E-05 9.15062E-12-9.72306E-18 2.52289E-19
 -1      1247 9.52373E-05-2.85715E-05-2.85710E-05 9.14852E-12-1.17713E-17 1.24189E-19
 -1      1248 9.52372E-05-2.85713E-05-2.85711E-05 6.58216E-12-9.14532E-18 2.78917E-19
 -1      1249 9.52372E-05-2.85712E-05-2.85711E-05 3.85643E-13-3.11616E-18 6.07650E-19
 -1      1250 9.52371E-05-2.85711E-05-2.85711E-05-9.87352E-12 5.04932E-18 8.18769E-19
 -1      1251 9.52371E-05-2.85711E-05-2.85712E-05-8.00846E-12 2.52990E-18-7.52172E-19
 -1      1252 3.33446E-05-1.03402E-04 1.71728E-05-1.22778E-05 1.41175E-17 3.05856E-18
 -1      1253 1.46136E-05-4.98207E-05 5.50511E-06-1.72317E-05 2.56668E-17 9.87810E-18
 -1      1254 9.77540E-06 7.88851E-06-1.22145E-05 1.54931E-05 3.02797E-17 1.91582E-17
 -1      1255 4.87940E-05 3.26955E-05-3.36562E-05 7.36185E-05 2.50654E-17 2.44369E-17
 -1      1256 1.35932E-04 9.41828E-06-5.51866E-05 1.19218E-04 1.47189E-17 2.16298E-17
 -1      1257 2.36864E-04-4.38368E-05-7.11940E-05 1.12969E-04 5.10973E-18 1.17611E-17
 -1      1258 3.06288E-04-8.72560E-05-8.01777E-05 5.31426E-05 4.14146E-19-3.92812E-18
 -1      1259 3.13408E-04-9.31101E-05-8.09008E-05-3.10952E-05 2.48244E-18-2.15731E-17
 -1      1260 2.47266E-04-5.25335E-05-7.30526E-05-9.74702E-05 1.14307E-17-3.41143E-17
 -1      1261 1.47444E-04 2.03038E-06-5.81325E-05-1.15631E-04 2.32468E-17-3.92456E-17
 -1      1262 5.98712E-05 3.54519E-05-4.01246E-05-8.59247E-05 3.24888E-17-3.49105E-17
 -1      1263 1.30121E-05 3.01648E-05-2.15669E-05-3.68828E-05 3.37060E-17-2.37644E-17
 -1      1264 4.85026E-06-4.22516E-06-5.71683E-06-1.43871E-06 2.63647E-17-1.16276E-17
 -1      1265 1.55146E-05-4.63536E-05 5.85036E-06 7.19296E-06 1.15264E-17-3.34207E-18
 -1      1266 2.56579E-05-7.84837E-05 1.28533E-05-7.57164E-06-8.09255E-18-1.99926E-18
 -1      1267 2.22873E-05-8.29430E-05 1.32670E-05-3.14439E-05-2.69625E-17-8.79818E-18
 -1      1268 7.28528E-06-5.36790E-05 5.66678E-06-3.83446E-05-3.93176E-17-2.15426E-17
 -1      1269 6.35764E-06-1.08135E-05-1.01973E-05-8.47463E-06-4.24448E-17-3.54915E-17
 -1      1270 5.48146E-05 9.81759E-06-3.27448E-05 5.20433E-05-3.63089E-17-4.58499E-17
 -1      1271 1.67601E-04-1.75551E-05-5.80553E-05 1.03895E-04-2.41049E-17-4.63530E-17
 -1      1272 3.09789E-04-7.91283E-05-7.96505E-05 9.76792E-05-1.02627E-17-3.37509E-17
 -1      1273 3.99217E-04-1.22093E-04-9.12908E-05 2.09230E-05-2.26920E-18-9.82389E-18
 -1      1274 3.72259E-04-1.04865E-04-8.91569E-05-7.83548E-05-4.49155E-18 1.68170E-17
 -1      1275 2.48783E-04-4.18484E-05-7.36423E-05-1.27063E-04-1.46469E-17 3.32562E-17
 -1      1276 1.14744E-04 1.02783E-05-5.04162E-05-1.02652E-04-2.56905E-17 3.77099E-17
 -1      1277 2.99336E-05 1.49308E-05-2.51985E-05-3.84634E-05-3.33900E-17 3.24176E-17
 -1      1278 7.23158E-06-2.74890E-05-2.60467E-06 1.70195E-05-3.16045E-17 2.02822E-17
 -1      1279 2.14640E-05-8.49419E-05 1.34137E-05 3.50482E-05-2.19407E-17 8.86526E-18
 -1      1280 3.75602E-05-1.17380E-04 1.99078E-05 1.61668E-05-4.60140E-18 1.95011E-18
 -1      1281 1.72701E-04-4.05769E-05-5.90257E-05-6.65104E-06-3.01120E-19 1.00854E-17
 -1      1282 1.05564E-04-1.03883E-05-4.13575E-05 1.51856E-06 3.47284E-19-1.52334E-18
 -1      1283 1.28623E-04-1.22183E-05-4.92347E-05-6.05163E-06-3.68459E-19 1.32677E-18
 -1      1284 6.05090E-05 2.09238E-06-2.77317E-05 1.52593E-06 5.98852E-19-5.99678E-18
 -1      1285 7.97360E-05 9.26393E-07-3.42512E-05 2.30349E-06 4.00223E-19-4.30753E-18
 -1      1286 9.57026E-05-9.94991E-06-3.68251E-05 7.68917E-07 7.05790E-19-1.52381E-18
 -1      1287 3.30647E-05 9.87791E-06-1.92644E-05-9.55848E-06-2.65121E-19-8.20963E-18
 -1      1288 4.27563E-05 9.54920E-06-2.26750E-05-3.76085E-06-7.36919E-20-7.51265E-18
 -1      1289 4.89433E-05 7.90896E-06-2.44626E-05-2.17662E-06 3.98529E-19-6.01452E-18
 -1      1290 3.02780E-05 1.02705E-05-1.78047E-05-2.21351E-05-1.46463E-18-8.84909E-18
 -1      1291 2.93524E-05 1.07341E-05-1.78293E-05-1.69160E-05-1.20247E-18-8.65681E-18
 -1      1292 2.58718E-05 1.60056E-05-1.80220E-05-1.36469E-05-1.23728E-18-8.17937E-18
 -1      1293 4.40275E-05 5.24804E-06-2.09868E-05-3.03187E-05-2.49218E-18-8.76837E-18
 -1      1294 3.64772E-05 6.03336E-06-1.89180E-05-2.75399E-05-2.31928E-18-8.71097E-18
 -1      1295 2.84917E-05 1.27872E-05-1.76998E-05-2.57133E-05-3.10459E-18-8.55191E-18
 -1      1296 6.88241E-05-2.71072E-06-2.77780E-05-3.00174E-05-2.84010E-18-8.39976E-18
 -1      1297 5.74047E-05-1.78934E-06-2.41998E-05-3.13517E-05-2.86212E-18-8.33708E-18
 -1      1298 5.01483E-05 1.61750E-06-2.22116E-05-3.15259E-05-4.36974E-18-7.84405E-18
 -1      1299 8.94473E-05-8.04640E-06-3.43236E-05-2.13148E-05-2.34120E-18-8.01381E-18
 -1      1300 8.08979E-05-7.64565E-06-3.12481E-05-2.58877E-05-2.57011E-18-7.98784E-18
 -1      1301 7.82282E-05-1.02461E-05-2.91867E-05-2.72498E-05-4.44364E-18-6.86425E-18
 -1      1302 1.00278E-04-9.23270E-06-3.86254E-05-9.87083E-06-1.38892E-18-7.99411E-18
 -1      1303 9.61334E-05-9.24225E-06-3.67909E-05-1.52229E-05-1.67310E-18-7.87836E-18
 -1      1304 9.81485E-05-1.59450E-05-3.52114E-05-1.65814E-05-3.22847E-18-6.30394E-18
 -1      1305 1.02919E-04-7.95912E-06-4.04787E-05 3.13646E-07-4.64611E-19-8.05857E-18
 -1      1306 1.02155E-04-8.13521E-06-3.98301E-05-4.33699E-06-7.03143E-19-8.00997E-18
 -1      1307 1.06599E-04-1.57533E-05-3.88594E-05-5.47030E-06-1.71483E-18-6.24502E-18
 -1      1308 1.00835E-04-6.08542E-06-4.05002E-05 8.06966E-06 4.16767E-19-8.03165E-18
 -1      1309 1.01993E-04-6.27515E-06-4.06778E-05 4.49761E-06 1.78843E-19-8.07426E-18
 -1      1310 1.06907E-04-1.29302E-05-4.02123E-05 3.38472E-06-1.75203E-19-6.30881E-18
 -1      1311 9.67505E-05-4.56577E-06-3.94584E-05 1.36560E-05 1.17499E-18-7.65130E-18
 -1      1312 9.87223E-05-4.70921E-06-4.00784E-05 1.10186E-05 9.32636E-19-7.95986E-18
 -1      1313 1.03231E-04-9.96455E-06-3.99483E-05 9.78315E-06 1.15480E-18-6.23038E-18
 -1      1314 9.20702E-05-3.59108E-06-3.79030E-05 1.79968E-05 1.90837E-18-6.60204E-18
 -1      1315 9.42917E-05-3.70104E-06-3.87123E-05 1.58855E-05 1.62646E-18-7.26257E-18
 -1      1316 9.82316E-05-7.84250E-06-3.87560E-05 1.45067E-05 2.30380E-18-5.75945E-18
 -1      1317 8.78191E-05-3.14904E-06-3.63049E-05 2.16719E-05 2.54782E-18-4.44070E-18
 -1      1318 8.98061E-05-3.25532E-06-3.70638E-05 1.98115E-05 2.24421E-18-5.80277E-18
 -1      1319 9.32808E-05-6.75743E-06-3.71385E-05 1.83307E-05 3.39049E-18-4.56847E-18
 -1      1320 8.50633E-05-3.24276E-06-3.51409E-05 2.52971E-05 2.96458E-18-2.65439E-19
 -1      1321 8.62441E-05-3.40587E-06-3.55702E-05 2.33227E-05 2.62096E-18-2.84008E-18
 -1      1322 8.94046E-05-6.79899E-06-3.55048E-05 2.18097E-05 4.20292E-18-2.16441E-18
 -1      1323 8.67696E-05-4.93787E-06-3.51684E-05 2.97716E-05 2.51082E-18 7.95062E-18
 -1      1324 8.54078E-05-4.84018E-06-3.47384E-05 2.67888E-05 2.48374E-18 2.96716E-18
 -1      1325 8.82405E-05-8.71821E-06-3.42189E-05 2.52213E-05 4.36779E-18 2.66440E-18
 -1      1326 1.15228E-04-2.24283E-05-3.64063E-05 3.09467E-05 1.24482E-18 2.33180E-17
 -1      1327 9.19188E-05-1.19328E-05-3.49671E-05 2.79386E-05 1.24260E-18 1.27025E-17
 -1      1328 9.33690E-05-1.62573E-05-3.32666E-05 2.61005E-05 4.01056E-18 1.01136E-17
 -1      1329 9.17924E-05-2.41934E-05-3.17260E-05 9.93080E-06 2.19421E-18 2.25203E-17
 -1      1330 1.84696E-04-5.49387E-05-5.65458E-05 1.42592E-06-2.47969E-19 1.28632E-17
 -1      1331 1.85293E-04-5.56886E-05-5.54425E-05 2.99617E-06-2.59139E-20 1.27072E-17
 -1      1332 1.86651E-04-5.77105E-05-5.45959E-05 6.55111E-07 7.20216E-19 1.35581E-17
 -1      1333 1.84694E-04-5.85906E-05-5.32418E-05-1.22540E-06 3.30872E-19 1.40940E-17
 -1      1334 1.67586E-04-5.29669E-05-4.91457E-05 3.14797E-06 6.75323E-19 8.58146E-18
 -1      1335 1.86739E-04-6.08585E-05-5.28606E-05-1.08201E-05 1.27584E-19 1.42145E-17
 -1      1336 1.72522E-04-5.60877E-05-4.98741E-05-1.51547E-05-5.76446E-19 1.39985E-17
 -1      1337 1.72706E-04-5.94447E-05-4.82117E-05-9.09232E-06 3.60174E-19 9.87066E-18
 -1      1338 1.71594E-04-5.42176E-05-5.03765E-05-2.39541E-05-2.25575E-18 1.27724E-17
 -1      1339 1.50655E-04-4.46421E-05-4.73043E-05-2.47549E-05-3.39321E-18 9.77180E-18
 -1      1340 1.76911E-04-6.06750E-05-4.97729E-05-3.04971E-05-2.76344E-18 8.86791E-18
 -1      1341 1.22041E-04-2.86532E-05-4.47122E-05 1.92897E-06-6.01055E-18-3.59523E-18
 -1      1342 1.26787E-04-3.10420E-05-4.48028E-05 7.18634E-06-5.31979E-18-1.10639E-17
 -1      1343 1.28716E-04-3.41325E-05-4.39730E-05 1.78959E-05-3.20221E-18-1.37736E-17
 -1      1344 1.46251E-04-4.28181E-05-4.59153E-05 1.88601E-05-1.85712E-18-1.63757E-17
 -1      1345 1.57079E-04-3.77939E-05-5.22100E-05 2.07433E-05-8.17514E-18-8.61035E-18
 -1      1346 1.49856E-04-4.64512E-05-4.51552E-05 1.60924E-05-4.11499E-19-1.74527E-17
 -1      1347 1.67092E-04-5.38388E-05-4.78100E-05 1.32321E-05 6.36956E-19-1.72596E-17
 -1      1348 1.62326E-04-5.02644E-05-4.87198E-05 3.02226E-05-1.91281E-18-1.25496E-17
 -1      1349 1.65773E-04-5.29450E-05-4.75486E-05 2.85407E-06 1.49417E-18-1.64756E-17
 -1      1350 1.69603E-04-5.36903E-05-4.86236E-05-2.23576E-07 1.84931E-18-1.39521E-17
 -1      1351 1.62857E-04-5.53167E-05-4.58168E-05 1.29172E-05 1.84361E-18-1.27583E-17
 -1      1352 1.64100E-04-5.09866E-05-4.78212E-05-6.49413E-06 1.18812E-18-1.23513E-17
 -1      1353 1.57317E-04-4.78355E-05-4.65152E-05-7.51409E-06 1.30782E-18-1.04385E-17
 -1      1354 1.54230E-04-5.03817E-05-4.40859E-05-7.14942E-06 2.81871E-18-1.06942E-17
 -1      1355 1.50909E-04-4.55658E-05-4.49938E-05-8.68652E-06 1.21136E-18-8.99814E-18
 -1      1356 1.41368E-04-4.20232E-05-4.26166E-05-8.56665E-06 1.13574E-18-7.51244E-18
 -1      1357 1.41587E-04-4.34036E-05-4.19446E-05-1.55166E-05 2.46643E-18-7.88426E-18
 -1      1358 1.35583E-04-4.03397E-05-4.09025E-05-7.43524E-06 1.67951E-19-6.86160E-18
 -1      1359 1.27287E-04-3.75978E-05-3.85954E-05-7.00202E-06 1.16798E-19-6.84127E-18
 -1      1360 1.29308E-04-3.82431E-05-3.90979E-05-1.52711E-05 1.09846E-18-6.07082E-18
 -1      1361 1.22716E-04-3.63757E-05-3.71140E-05-5.41308E-06 1.76898E-19-6.59537E-18
 -1      1362 1.16654E-04-3.45109E-05-3.53324E-05-5.00416E-06 8.11894E-20-6.31961E-18
 -1      1363 1.19186E-04-3.49008E-05-3.62413E-05-1.19178E-05 9.10560E-20-4.84431E-18
 -1      1364 1.13319E-04-3.36384E-05-3.42209E-05-3.65766E-06-4.23940E-19-6.05959E-18
 -1      1365 1.09234E-04-3.24354E-05-3.29906E-05-3.35440E-06-2.85020E-19-6.55746E-18
 -1      1366 1.11578E-04-3.27540E-05-3.38800E-05-8.37381E-06-2.56810E-19-4.04897E-18
 -1      1367 1.06916E-04-3.18252E-05-3.22171E-05-2.38324E-06-4.50582E-20-6.68101E-18
 -1      1368 1.04271E-04-3.10667E-05-3.14136E-05-2.17818E-06 4.17243E-19-6.50275E-18
 -1      1369 1.06173E-04-3.13458E-05-3.21354E-05-5.58276E-06-3.23924E-19-4.04437E-18
 -1      1370 1.02706E-04-3.06484E-05-3.08960E-05-1.52599E-06 3.36765E-19-6.53601E-18
 -1      1371 1.01027E-04-3.01746E-05-3.03850E-05-1.39296E-06 7.30698E-20-6.23315E-18
 -1      1372 1.02468E-04-3.04099E-05-3.09240E-05-3.62428E-06 1.28736E-19-3.99978E-18
 -1      1373 9.99883E-05-2.98920E-05-3.00452E-05-9.69822E-07-3.33959E-19-6.49542E-18
 -1      1374 9.89306E-05-2.95970E-05-2.97235E-05-8.85105E-07 4.25141E-19-6.31647E-18
 -1      1375 9.99810E-05-2.97858E-05-3.01099E-05-2.32291E-06-2.90426E-19-4.58314E-18
 -1      1376 9.82470E-05-2.94081E-05-2.95023E-05-6.15056E-07-2.52944E-19-7.02623E-18
 -1      1377 9.75825E-05-2.92243E-05-2.93004E-05-5.61493E-07-9.80858E-19-7.06857E-18
 -1      1378 9.83323E-05-2.93700E-05-2.95718E-05-1.48105E-06-4.77746E-19-4.89480E-18
 -1      1379 9.71344E-05-2.90986E-05-2.91568E-05-3.90296E-07-8.87529E-19-6.97324E-18
 -1      1380 9.67166E-05-2.89840E-05-2.90300E-05-3.56464E-07-8.34817E-19-8.08554E-18
 -1      1381 9.72461E-05-2.90935E-05-2.92188E-05-9.43226E-07-1.05758E-18-4.76360E-18
 -1      1382 9.64234E-05-2.89006E-05-2.89368E-05-2.48049E-07-5.70767E-19-8.74205E-18
 -1      1383 9.61604E-05-2.88289E-05-2.88569E-05-2.26620E-07-2.88714E-19-8.93285E-18
 -1      1384 9.65323E-05-2.89099E-05-2.89878E-05-6.01175E-07-1.20737E-18-5.27320E-18
 -1      1385 9.59685E-05-2.87737E-05-2.87964E-05-1.57798E-07-1.40868E-19-9.18507E-18
 -1      1386 9.58028E-05-2.87289E-05-2.87460E-05-1.44156E-07-8.88545E-19-9.78691E-18
 -1      1387 9.60636E-05-2.87881E-05-2.88368E-05-3.83578E-07-6.43215E-19-6.38754E-18
 -1      1388 9.56773E-05-2.86924E-05-2.87068E-05-1.00272E-07-7.05766E-19-1.02581E-17
 -1      1389 9.55731E-05-2.86645E-05-2.86750E-05-9.15310E-08 9.27063E-21-1.04889E-17
 -1      1390 9.57561E-05-2.87075E-05-2.87380E-05-2.44709E-07-8.72155E-19-6.22741E-18
 -1      1391 9.54912E-05-2.86404E-05-2.86496E-05-6.33941E-08 3.91231E-19-1.03086E-17
 -1      1392 9.54261E-05-2.86231E-05-2.86297E-05-5.77553E-08 5.55505E-19-9.28007E-18
 -1      1393 9.55546E-05-2.86542E-05-2.86735E-05-1.55648E-07 1.65195E-19-6.35314E-18
 -1      1394 9.53730E-05-2.86074E-05-2.86133E-05-3.96170E-08 1.47208E-18-8.79818E-18
 -1      1395 9.53328E-05-2.85969E-05-2.86009E-05-3.59573E-08 1.12426E-18-7.35893E-18
 -1      1396 9.54232E-05-2.86192E-05-2.86315E-05-9.82146E-08 1.50808E-18-5.26745E-18
 -1      1397 9.52988E-05-2.85867E-05-2.85905E-05-2.42169E-08-1.60103E-19-6.80719E-18
 -1      1398 9.52746E-05-2.85805E-05-2.85830E-05-2.18322E-08 1.66648E-19-6.64509E-18
 -1      1399 9.53380E-05-2.85965E-05-2.86044E-05-6.09914E-08 8.52610E-19-4.34536E-18
 -1      1400 9.52532E-05-2.85740E-05-2.85765E-05-1.42243E-08 6.71740E-20-6.77189E-18
 -1      1401 9.52394E-05-2.85707E-05-2.85722E-05-1.26702E-08-7.64621E-20-6.45560E-18
 -1      1402 9.52837E-05-2.85820E-05-2.85870E-05-3.67916E-08-1.59856E-19-4.60009E-18
 -1      1403 9.52264E-05-2.85666E-05-2.85682E-05-7.75848E-09-1.62155E-19-6.91992E-18
 -1      1404 9.52191E-05-2.85650E-05-2.85659E-05-6.75135E-09-6.91953E-20-6.97958E-18
 -1      1405 9.52499E-05-2.85730E-05-2.85762E-05-2.10654E-08-2.08315E-21-4.01019E-18
 -1      1406 9.52117E-05-2.85627E-05-2.85637E-05-3.61531E-09 3.23938E-19-7.14961E-18
 -1      1407 9.52086E-05-2.85622E-05-2.85627E-05-2.97192E-09 5.34568E-19-6.55430E-18
 -1      1408 9.52297E-05-2.85677E-05-2.85697E-05-1.09069E-08 2.63405E-20-4.67044E-18
 -1      1409 9.52048E-05-2.85609E-05-2.85615E-05-1.01383E-09-3.65957E-19-6.60141E-18
 -1      1410 9.52043E-05-2.85611E-05-2.85613E-05-6.13903E-10-4.52378E-19-6.84257E-18
 -1      1411 9.52185E-05-2.85648E-05-2.85660E-05-4.43811E-09 1.09020E-19-4.85570E-18
 -1      1412 9.52028E-05-2.85605E-05-2.85609E-05 5.60054E-10 7.40174E-19-6.12740E-18
 -1      1413 9.52039E-05-2.85611E-05-2.85611E-05 7.96726E-10 6.84745E-19-5.42746E-18
 -1      1414 9.52132E-05-2.85635E-05-2.85642E-05-4.29074E-10 6.22883E-19-4.20703E-18
 -1      1415 9.52038E-05-2.85610E-05-2.85612E-05 1.44988E-09 1.87950E-19-5.02735E-18
 -1      1416 9.52057E-05-2.85617E-05-2.85617E-05 1.57761E-09 3.90961E-19-3.93548E-18
 -1      1417 9.52116E-05-2.85633E-05-2.85636E-05 1.93791E-09 1.26240E-18-2.68735E-18
 -1      1418 9.52065E-05-2.85619E-05-2.85620E-05 1.88834E-09 8.18536E-20-3.87443E-18
 -1      1419 9.52088E-05-2.85627E-05-2.85626E-05 1.94436E-09 3.86489E-19-4.04120E-18
 -1      1420 9.52123E-05-2.85636E-05-2.85638E-05 3.21405E-09 3.09650E-19-2.15577E-18
 -1      1421 9.52101E-05-2.85630E-05-2.85630E-05 2.03467E-09 1.12481E-18-4.20091E-18
 -1      1422 9.52124E-05-2.85638E-05-2.85637E-05 2.04470E-09 7.77355E-19-2.95640E-18
 -1      1423 9.52143E-05-2.85643E-05-2.85643E-05 3.77523E-09 9.35990E-19-2.74018E-18
 -1      1424 9.52139E-05-2.85642E-05-2.85641E-05 1.99839E-09 2.18000E-19-2.65956E-18
 -1      1425 9.52162E-05-2.85649E-05-2.85648E-05 1.98024E-09 4.07465E-19-1.50741E-18
 -1      1426 9.52169E-05-2.85651E-05-2.85651E-05 3.87975E-09 9.01069E-19-2.73987E-18
 -1      1427 9.52176E-05-2.85653E-05-2.85653E-05 1.85474E-09 5.17594E-20-1.13525E-18
 -1      1428 9.52197E-05-2.85660E-05-2.85659E-05 1.82065E-09 9.74635E-20-1.33193E-18
 -1      1429 9.52198E-05-2.85660E-05-2.85659E-05 3.70539E-09 5.88452E-20-1.05798E-18
 -1      1430 9.52211E-05-2.85664E-05-2.85663E-05 1.65489E-09-6.96497E-19-1.87349E-18
 -1      1431 9.52230E-05-2.85670E-05-2.85668E-05 1.61319E-09-6.14696E-19-2.88170E-18
 -1      1432 9.52226E-05-2.85669E-05-2.85667E-05 3.37388E-09-7.49895E-19-1.66181E-18
 -1      1433 9.52242E-05-2.85673E-05-2.85672E-05 1.43302E-09-8.62571E-19-3.18712E-18
 -1      1434 9.52258E-05-2.85678E-05-2.85677E-05 1.38921E-09-8.17468E-19-5.20238E-18
 -1      1435 9.52252E-05-2.85677E-05-2.85675E-05 2.96742E-09-2.09984E-18-2.09625E-18
 -1      1436 9.52269E-05-2.85681E-05-2.85680E-05 1.21118E-09 3.71750E-19-5.10650E-18
 -1      1437 9.52282E-05-2.85685E-05-2.85684E-05 1.16873E-09 4.56099E-19-3.80605E-18
 -1      1438 9.52275E-05-2.85684E-05-2.85682E-05 2.54011E-09-7.03256E-19-2.36321E-18
 -1      1439 9.52292E-05-2.85688E-05-2.85687E-05 1.00283E-09-2.50803E-19-3.88722E-18
 -1      1440 9.52303E-05-2.85691E-05-2.85691E-05 9.63795E-10-7.92810E-19-3.80707E-18
 -1      1441 9.52296E-05-2.85690E-05-2.85688E-05 2.12610E-09 4.46865E-20-2.43269E-18
 -1      1442 9.52311E-05-2.85694E-05-2.85693E-05 8.15399E-10-1.65365E-18-5.10379E-18
 -1      1443 9.52320E-05-2.85696E-05-2.85696E-05 7.80840E-10-8.52412E-19-7.14180E-18
 -1      1444 9.52313E-05-2.85695E-05-2.85693E-05 1.74543E-09-2.27555E-18-2.58882E-18
 -1      1445 9.52326E-05-2.85698E-05-2.85698E-05 6.52169E-10-1.81716E-19-7.13075E-18
 -1      1446 9.52333E-05-2.85700E-05-2.85700E-05 6.22457E-10 7.15159E-19-6.20002E-18
 -1      1447 9.52327E-05-2.85699E-05-2.85698E-05 1.40834E-09-7.93134E-19-3.22024E-18
 -1      1448 9.52338E-05-2.85702E-05-2.85701E-05 5.13618E-10 2.46406E-18-7.58902E-18
 -1      1449 9.52344E-05-2.85703E-05-2.85703E-05 4.88668E-10 1.49193E-18-4.49663E-18
 -1      1450 9.52338E-05-2.85702E-05-2.85701E-05 1.11837E-09 2.20627E-18-3.79533E-18
 -1      1451 9.52348E-05-2.85705E-05-2.85704E-05 3.98385E-10 5.32393E-19-3.40424E-18
 -1      1452 9.52352E-05-2.85706E-05-2.85706E-05 3.77813E-10 5.65420E-19-3.23690E-18
 -1      1453 9.52347E-05-2.85705E-05-2.85704E-05 8.74580E-10 2.06805E-18-4.81544E-18
 -1      1454 9.52355E-05-2.85707E-05-2.85707E-05 3.03918E-10 5.68960E-20-1.91950E-18
 -1      1455 9.52359E-05-2.85708E-05-2.85707E-05 2.87137E-10 3.41864E-19-1.95194E-18
 -1      1456 9.52354E-05-2.85707E-05-2.85706E-05 6.73111E-10 7.32226E-19-1.90795E-18
 -1      1457 9.52361E-05-2.85708E-05-2.85708E-05 2.26880E-10-5.60940E-19-1.77143E-18
 -1      1458 9.52363E-05-2.85709E-05-2.85709E-05 2.13161E-10-9.43337E-19-2.14733E-18
 -1      1459 9.52360E-05-2.85708E-05-2.85708E-05 5.08198E-10-5.63888E-20-1.30555E-18
 -1      1460 9.52365E-05-2.85710E-05-2.85710E-05 1.63409E-10 6.39935E-19-2.04688E-18
 -1      1461 9.52367E-05-2.85710E-05-2.85710E-05 1.51901E-10 8.15125E-19-1.18332E-18
 -1      1462 9.52364E-05-2.85709E-05-2.85709E-05 3.72810E-10 8.05386E-20-2.29128E-19
 -1      1463 9.52368E-05-2.85711E-05-2.85710E-05 1.09306E-10-5.38227E-19-1.52267E-18
 -1      1464 9.52369E-05-2.85711E-05-2.85711E-05 9.90059E-11-3.29505E-20-1.07576E-18
 -1      1465 9.52367E-05-2.85710E-05-2.85710E-05 2.59147E-10 9.02225E-20-8.32838E-19
 -1      1466 9.52370E-05-2.85711E-05-2.85711E-05 6.06839E-11 8.54239E-19-2.25721E-18
 -1      1467 9.52371E-05-2.85711E-05-2.85711E-05 5.06353E-11 6.31216E-19-1.53919E-18
 -1      1468 9.52369E-05-2.85711E-05-2.85711E-05 1.59496E-10 3.20931E-21-9.45782E-19
 -1      1469 9.52371E-05-2.85711E-05-2.85711E-05 1.70037E-11-7.12123E-19-1.23048E-18
 -1      1470 9.52371E-05-2.85711E-05-2.85711E-05 7.95576E-12-1.40158E-18-2.39269E-18
 -1      1471 9.52371E-05-2.85711E-05-2.85711E-05 6.99597E-11-1.14773E-19-1.73121E-18
 -1      1472 9.52371E-05-2.85712E-05-2.85711E-05-9.02686E-12 7.18605E-19-2.66002E-18
 -1      1473 9.52371E-05-2.85711E-05-2.85712E-05-5.48452E-12 7.85492E-19-1.20617E-18
 -1      1474 9.52371E-05-2.85711E-05-2.85711E-05-8.90184E-12 3.62696E-18-3.94281E-19
 -1      1475 9.52371E-05-2.85712E-05-2.85711E-05 1.02115E-11-7.73559E-19-1.37866E-18
 -1      1476 8.28055E-05-2.40787E-05-2.57760E-05 4.65078E-06 1.98934E-18 1.81406E-17
 -1      1477 9.08116E-05-2.57811E-05-2.87253E-05 6.37191E-06 1.71101E-18 2.11569E-17
 -1      1478 9.19611E-05-2.30488E-05-2.97798E-05 1.63998E-05 3.42318E-18 1.38499E-17
 -1      1479 7.58670E-05-2.24667E-05-2.29990E-05 2.26713E-06 1.38180E-18 1.43001E-17
 -1      1480 7.92129E-05-2.30256E-05-2.43338E-05 2.70559E-06 1.45028E-18 1.66160E-17
 -1      1481 8.41278E-05-2.40539E-05-2.59514E-05 7.54575E-06 2.99881E-18 1.10506E-17
 -1      1482 7.24802E-05-2.15765E-05-2.18219E-05 9.36290E-07 8.86552E-19 1.16939E-17
 -1      1483 7.39444E-05-2.18325E-05-2.23440E-05 1.21673E-06 9.14776E-19 1.31521E-17
 -1      1484 7.89884E-05-2.31611E-05-2.40018E-05 3.56197E-06 2.13808E-18 8.57073E-18
 -1      1485 7.13924E-05-2.12789E-05-2.14782E-05-5.63275E-09 8.99582E-19 9.54818E-18
 -1      1486 7.17042E-05-2.12761E-05-2.15798E-05 2.26991E-07 8.22012E-19 1.08705E-17
 -1      1487 7.64560E-05-2.26126E-05-2.31302E-05 1.18081E-06 1.72804E-18 6.66569E-18
 -1      1488 7.20487E-05-2.14977E-05-2.16720E-05-7.83038E-07 5.25217E-19 7.94014E-18
 -1      1489 7.14662E-05-2.12417E-05-2.15008E-05-5.75362E-07 5.66397E-19 8.78508E-18
 -1      1490 7.57876E-05-2.24775E-05-2.29018E-05-5.68189E-07 1.40248E-18 5.16666E-18
 -1      1491 7.40847E-05-2.21435E-05-2.22656E-05-1.39310E-06 4.08994E-19 6.69887E-18
 -1      1492 7.27880E-05-2.16743E-05-2.18902E-05-1.21899E-06 4.62913E-19 7.46446E-18
 -1      1493 7.66005E-05-2.27774E-05-2.31169E-05-1.95271E-06 9.45984E-19 4.06083E-18
 -1      1494 7.71006E-05-2.30949E-05-2.31412E-05-1.78604E-06 3.97249E-19 5.74807E-18
 -1      1495 7.53018E-05-2.24803E-05-2.26240E-05-1.66386E-06 3.84278E-19 6.35549E-18
 -1      1496 7.85286E-05-2.34317E-05-2.36518E-05-2.95877E-06 7.49750E-19 3.31214E-18
 -1      1497 8.06328E-05-2.42021E-05-2.41697E-05-1.93285E-06 2.31339E-19 5.00369E-18
 -1      1498 7.85839E-05-2.35257E-05-2.35810E-05-1.87277E-06 2.93573E-19 5.40084E-18
 -1      1499 8.11804E-05-2.43157E-05-2.43945E-05-3.51672E-06 6.61721E-19 2.95223E-18
 -1      1500 8.42227E-05-2.53163E-05-2.52225E-05-1.85412E-06 5.09415E-20 4.44311E-18
 -1      1501 8.21742E-05-2.46590E-05-2.46323E-05-1.85232E-06 1.15099E-19 4.65140E-18
 -1      1502 8.41429E-05-2.52863E-05-2.52332E-05-3.61768E-06 4.62812E-19 2.33420E-18
 -1      1503 8.75001E-05-2.63207E-05-2.61932E-05-1.61210E-06 3.20999E-19 3.87655E-18
 -1      1504 8.56525E-05-2.57436E-05-2.56582E-05-1.65355E-06 1.36379E-19 4.23730E-18
 -1      1505 8.70455E-05-2.62161E-05-2.60668E-05-3.33818E-06 3.49325E-19 1.86232E-18
 -1      1506 9.02340E-05-2.71462E-05-2.70122E-05-1.28547E-06 1.34435E-19 3.16769E-18
 -1      1507 8.87093E-05-2.66827E-05-2.65679E-05-1.35078E-06 4.03302E-19 3.79037E-18
 -1      1508 8.96167E-05-2.70171E-05-2.68180E-05-2.81134E-06 5.30484E-19 1.63777E-18
 -1      1509 9.23356E-05-2.77702E-05-2.76496E-05-9.44855E-07 2.09258E-19 2.87341E-18
 -1      1510 9.11764E-05-2.74278E-05-2.73094E-05-1.01657E-06 1.03130E-19 3.10112E-18
 -1      1511 9.17074E-05-2.76472E-05-2.74408E-05-2.18029E-06 2.91412E-19 1.58322E-18
 -1      1512 9.38278E-05-2.82049E-05-2.81082E-05-6.39073E-07 1.90248E-19 2.49573E-18
 -1      1513 9.30150E-05-2.79725E-05-2.78677E-05-7.05035E-07 1.10139E-19 2.73331E-18
 -1      1514 9.32785E-05-2.81031E-05-2.79187E-05-1.56127E-06 1.72030E-19 1.29143E-18
 -1      1515 9.48009E-05-2.84822E-05-2.84117E-05-3.92860E-07-2.47395E-19 2.59369E-18
 -1      1516 9.42791E-05-2.83388E-05-2.82559E-05-4.46726E-07-1.96922E-19 2.38700E-18
 -1      1517 9.43701E-05-2.84061E-05-2.82585E-05-1.02737E-06 3.88825E-20 1.23354E-18
 -1      1518 9.53724E-05-2.86401E-05-2.85932E-05-2.11787E-07 8.57803E-20 2.18891E-18
 -1      1519 9.50728E-05-2.85624E-05-2.85027E-05-2.51802E-07 2.13223E-19 2.72333E-18
 -1      1520 9.50651E-05-2.85886E-05-2.84808E-05-6.10283E-07 8.59209E-20 1.10808E-18
 -1      1521 9.56584E-05-2.87150E-05-2.86868E-05-8.95097E-08 9.67603E-20 2.09466E-18
 -1      1522 9.55143E-05-2.86817E-05-2.86425E-05-1.16776E-07 2.15538E-20 2.28238E-18
 -1      1523 9.54601E-05-2.86839E-05-2.86118E-05-3.11355E-07-5.60291E-20 1.00447E-18
 -1      1524 9.57579E-05-2.87369E-05-2.87221E-05-1.42394E-08-1.04911E-19 1.89786E-18
 -1      1525 9.57136E-05-2.87310E-05-2.87076E-05-3.11943E-08 1.68662E-20 2.16456E-18
 -1      1526 9.56458E-05-2.87214E-05-2.86776E-05-1.14558E-07 1.17134E-19 1.31514E-18
 -1      1527 9.57470E-05-2.87283E-05-2.87223E-05 2.67913E-08 4.23173E-19 1.54496E-18
 -1      1528 9.57603E-05-2.87373E-05-2.87253E-05 1.74156E-08 2.32523E-19 1.92880E-18
 -1      1529 9.56971E-05-2.87237E-05-2.87003E-05 2.97063E-09 2.61434E-19 1.36578E-18
 -1      1530 9.56794E-05-2.87048E-05-2.87040E-05 4.48782E-08 4.94445E-19 3.51481E-19
 -1      1531 9.57210E-05-2.87204E-05-2.87157E-05 4.06285E-08 6.28441E-19 1.26130E-18
 -1      1532 9.56708E-05-2.87072E-05-2.86974E-05 6.41239E-08 1.04544E-18 1.23690E-18
 -1      1533 9.55903E-05-2.86763E-05-2.86782E-05 4.88770E-08-2.29747E-19 4.17268E-19
 -1      1534 9.56415E-05-2.86933E-05-2.86930E-05 4.78115E-08-1.31409E-19 3.43855E-19
 -1      1535 9.56063E-05-2.86827E-05-2.86810E-05 8.83459E-08 1.51170E-19 3.91041E-19
 -1      1536 9.55004E-05-2.86485E-05-2.86516E-05 4.51352E-08-1.09447E-19 1.04844E-18
 -1      1537 9.55504E-05-2.86642E-05-2.86662E-05 4.58500E-08-1.29533E-19 5.38222E-19
 -1      1538 9.55289E-05-2.86568E-05-2.86595E-05 9.04777E-08-3.74569E-19 2.82214E-19
 -1      1539 9.54205E-05-2.86243E-05-2.86276E-05 3.78598E-08-5.95917E-19 1.66913E-18
 -1      1540 9.54639E-05-2.86375E-05-2.86404E-05 3.94151E-08-3.38206E-19 1.33022E-18
 -1      1541 9.54534E-05-2.86330E-05-2.86376E-05 8.09369E-08-4.26754E-19 7.41923E-19
 -1      1542 9.53551E-05-2.86048E-05-2.86078E-05 2.96231E-08-6.60085E-19 3.57954E-18
 -1      1543 9.53899E-05-2.86151E-05-2.86181E-05 3.14369E-08-3.84471E-19 2.65257E-18
 -1      1544 9.53875E-05-2.86130E-05-2.86180E-05 6.64948E-08-1.04719E-18 2.04718E-18
 -1      1545 9.53048E-05-2.85900E-05-2.85924E-05 2.18471E-08-1.43932E-19 4.35591E-18
 -1      1546 9.53311E-05-2.85975E-05-2.86003E-05 2.35913E-08-6.23550E-19 3.90789E-18
 -1      1547 9.53340E-05-2.85972E-05-2.86019E-05 5.12001E-08-1.08114E-18 2.87591E-18
 -1      1548 9.52684E-05-2.85794E-05-2.85812E-05 1.51996E-08 7.59371E-19 3.38048E-18
 -1      1549 9.52870E-05-2.85846E-05-2.85868E-05 1.67145E-08 5.05241E-19 4.20014E-18
 -1      1550 9.52931E-05-2.85854E-05-2.85894E-05 3.72184E-08 6.19837E-19 2.44145E-18
 -1      1551 9.52434E-05-2.85722E-05-2.85735E-05 9.89003E-09 5.99460E-19 1.74529E-18
 -1      1552 9.52558E-05-2.85755E-05-2.85773E-05 1.11196E-08 4.75959E-19 2.58076E-18
 -1      1553 9.52634E-05-2.85771E-05-2.85802E-05 2.55020E-08 1.08025E-18 8.61166E-19
 -1      1554 9.52274E-05-2.85676E-05-2.85686E-05 5.87259E-09 4.22509E-20 7.32743E-19
 -1      1555 9.52351E-05-2.85696E-05-2.85709E-05 6.81963E-09 8.28858E-19 2.11464E-18
 -1      1556 9.52430E-05-2.85715E-05-2.85738E-05 1.62782E-08 8.91098E-19 1.44590E-18
 -1      1557 9.52183E-05-2.85651E-05-2.85657E-05 2.97915E-09 7.74954E-20 1.47890E-18
 -1      1558 9.52224E-05-2.85660E-05-2.85670E-05 3.67592E-09-6.31688E-19 1.00571E-18
 -1      1559 9.52299E-05-2.85680E-05-2.85696E-05 9.38332E-09-5.12375E-19 1.69664E-18
 -1      1560 9.52139E-05-2.85639E-05-2.85643E-05 9.99106E-10 7.82837E-19 8.43928E-19
 -1      1561 9.52156E-05-2.85642E-05-2.85648E-05 1.48913E-09 8.55654E-19 2.01205E-18
 -1      1562 9.52223E-05-2.85660E-05-2.85671E-05 4.47506E-09 8.57475E-19 1.57214E-18
 -1      1563 9.52127E-05-2.85637E-05-2.85639E-05-2.76019E-10-2.06648E-19 3.66004E-20
 -1      1564 9.52128E-05-2.85635E-05-2.85639E-05 5.17593E-11 1.38596E-19 1.71712E-19
 -1      1565 9.52187E-05-2.85652E-05-2.85659E-05 1.15946E-09 8.80747E-19 1.02425E-18
 -1      1566 9.52136E-05-2.85640E-05-2.85641E-05-1.03067E-09 1.07119E-19 8.93230E-19
 -1      1567 9.52127E-05-2.85636E-05-2.85639E-05-8.24918E-10-4.73737E-19 6.92812E-20
 -1      1568 9.52176E-05-2.85651E-05-2.85654E-05-9.40066E-10-3.26918E-19-7.69330E-19
 -1      1569 9.52157E-05-2.85647E-05-2.85647E-05-1.41705E-09 1.05394E-18 6.52769E-19
 -1      1570 9.52143E-05-2.85642E-05-2.85643E-05-1.29955E-09 4.43430E-19 7.55027E-19
 -1      1571 9.52182E-05-2.85654E-05-2.85656E-05-2.15026E-09 1.92680E-19 1.97956E-19
 -1      1572 9.52184E-05-2.85655E-05-2.85655E-05-1.55462E-09-2.22337E-19-2.96697E-19
 -1      1573 9.52168E-05-2.85650E-05-2.85650E-05-1.49841E-09 1.95295E-19 1.28615E-19
 -1      1574 9.52199E-05-2.85659E-05-2.85660E-05-2.73733E-09 5.86147E-19-3.30504E-19
 -1      1575 9.52213E-05-2.85664E-05-2.85663E-05-1.53332E-09-7.42750E-19-4.58637E-19
 -1      1576 9.52196E-05-2.85659E-05-2.85659E-05-1.51775E-09 2.27239E-19-2.60866E-19
 -1      1577 9.52220E-05-2.85666E-05-2.85666E-05-2.90815E-09-6.39375E-20-4.34971E-19
 -1      1578 9.52240E-05-2.85673E-05-2.85672E-05-1.41842E-09-1.17999E-18 1.36171E-18
 -1      1579 9.52224E-05-2.85668E-05-2.85667E-05-1.42823E-09-5.03924E-19-1.81897E-19
 -1      1580 9.52242E-05-2.85673E-05-2.85673E-05-2.81725E-09-9.29003E-19 5.38532E-19
 -1      1581 9.52266E-05-2.85680E-05-2.85679E-05-1.25550E-09 5.33167E-20 1.92011E-18
 -1      1582 9.52251E-05-2.85676E-05-2.85675E-05-1.27977E-09-4.74288E-19 1.46314E-18
 -1      1583 9.52265E-05-2.85680E-05-2.85679E-05-2.57586E-09-7.72529E-19 1.21049E-18
 -1      1584 9.52288E-05-2.85687E-05-2.85686E-05-1.07509E-09 7.27683E-19 1.04710E-18
 -1      1585 9.52276E-05-2.85683E-05-2.85682E-05-1.10633E-09 5.17817E-19 1.82156E-18
 -1      1586 9.52285E-05-2.85686E-05-2.85685E-05-2.26103E-09 6.95350E-19 4.50175E-19
 -1      1587 9.52307E-05-2.85692E-05-2.85692E-05-8.96578E-10 1.34018E-19 6.40645E-19
 -1      1588 9.52296E-05-2.85689E-05-2.85689E-05-9.29812E-10-1.03162E-19 1.02182E-18
 -1      1589 9.52303E-05-2.85692E-05-2.85691E-05-1.92385E-09 3.31029E-19-3.84720E-20
 -1      1590 9.52322E-05-2.85697E-05-2.85696E-05-7.31318E-10 6.30329E-20 6.49118E-19
 -1      1591 9.52314E-05-2.85695E-05-2.85694E-05-7.63469E-10 1.88720E-19 9.01711E-19
 -1      1592 9.52318E-05-2.85696E-05-2.85695E-05-1.59623E-09-8.24781E-20-2.13673E-19
 -1      1593 9.52335E-05-2.85701E-05-2.85700E-05-5.85093E-10 8.35887E-19 6.20165E-19
 -1      1594 9.52328E-05-2.85699E-05-2.85698E-05-6.14414E-10 2.98862E-19 9.13216E-19
 -1      1595 9.52331E-05-2.85700E-05-2.85699E-05-1.29645E-09 1.79345E-19 1.74020E-20
 -1      1596 9.52345E-05-2.85704E-05-2.85703E-05-4.59914E-10-2.19553E-19-4.62102E-19
 -1      1597 9.52340E-05-2.85702E-05-2.85702E-05-4.85586E-10 3.54903E-19-1.54690E-19
 -1      1598 9.52342E-05-2.85703E-05-2.85702E-05-1.03329E-09 1.20710E-18 6.77142E-19
 -1      1599 9.52353E-05-2.85706E-05-2.85706E-05-3.55316E-10-1.03239E-18-1.23122E-18
 -1      1600 9.52349E-05-2.85705E-05-2.85705E-05-3.77158E-10 1.62084E-20-5.70431E-19
 -1      1601 9.52350E-05-2.85705E-05-2.85705E-05-8.09134E-10 1.11667E-19 3.78160E-19
 -1      1602 9.52359E-05-2.85708E-05-2.85708E-05-2.69234E-10 1.34493E-19-5.28893E-19
 -1      1603 9.52356E-05-2.85707E-05-2.85707E-05-2.87501E-10-1.24461E-19-3.25522E-19
 -1      1604 9.52356E-05-2.85707E-05-2.85707E-05-6.22201E-10-3.94460E-19 1.71052E-19
 -1      1605 9.52364E-05-2.85709E-05-2.85709E-05-1.98545E-10 5.84256E-19-1.07857E-18
 -1      1606 9.52362E-05-2.85709E-05-2.85708E-05-2.13821E-10 7.35964E-20-5.81619E-19
 -1      1607 9.52362E-05-2.85709E-05-2.85708E-05-4.67964E-10-3.17455E-19 9.12758E-19
 -1      1608 9.52367E-05-2.85710E-05-2.85710E-05-1.39313E-10-1.77833E-20-2.24391E-18
 -1      1609 9.52366E-05-2.85710E-05-2.85710E-05-1.52509E-10 6.38952E-20-1.90525E-18
 -1      1610 9.52365E-05-2.85710E-05-2.85709E-05-3.40076E-10 3.28358E-19 8.21083E-20
 -1      1611 9.52370E-05-2.85711E-05-2.85711E-05-8.73237E-11-2.32914E-19-1.56749E-18
 -1      1612 9.52369E-05-2.85711E-05-2.85711E-05-9.95223E-11-1.34292E-19-1.81360E-18
 -1      1613 9.52368E-05-2.85711E-05-2.85710E-05-2.31035E-10-3.45936E-19 8.58153E-19
 -1      1614 9.52371E-05-2.85711E-05-2.85711E-05-3.88434E-11 8.80643E-19-2.56206E-18
 -1      1615 9.52370E-05-2.85711E-05-2.85711E-05-5.13714E-11 1.97487E-19-1.90038E-18
 -1      1616 9.52370E-05-2.85711E-05-2.85711E-05-1.33926E-10 8.35969E-19-1.49302E-18
 -1      1617 9.52371E-05-2.85711E-05-2.85711E-05 1.93891E-12 9.09737E-19-2.07301E-18
 -1      1618 9.52371E-05-2.85712E-05-2.85711E-05-9.28012E-12 9.43459E-19-9.45516E-19
 -1      1619 9.52371E-05-2.85711E-05-2.85711E-05-4.70486E-11 1.00091E-18-3.65024E-19
 -1      1620 9.52371E-05-2.85711E-05-2.85712E-05 1.00512E-11-1.52571E-18-1.30363E-18
 -1      1621 9.52371E-05-2.85712E-05-2.85711E-05-2.73106E-11 9.06214E-19 1.19947E-18
 -1      1622 9.52371E-05-2.85712E-05-2.85711E-05-1.72866E-11-8.62610E-19 3.00314E-18
 -1      1623 9.52372E-05-2.85713E-05-2.85711E-05-7.40441E-11 1.07014E-18 5.22020E-19
 -1      1624 9.52372E-05-2.85712E-05-2.85711E-05-6.37346E-11 9.01950E-19 1.52205E-18
 -1      1625 9.52371E-05-2.85712E-05-2.85711E-05-9.44125E-11-1.88821E-19 1.81511E-18
 -1      1626 9.52372E-05-2.85714E-05-2.85711E-05-1.06897E-10 1.33608E-18 1.56763E-19
 -1      1627 9.52372E-05-2.85713E-05-2.85711E-05-1.01494E-10 1.83569E-18-2.33985E-19
 -1      1628 9.52372E-05-2.85714E-05-2.85711E-05-1.72753E-10 9.59767E-19 4.23291E-19
 -1      1629 9.52373E-05-2.85716E-05-2.85710E-05-1.19578E-10 3.68064E-18 1.70213E-18
 -1      1630 9.52373E-05-2.85715E-05-2.85710E-05-1.18777E-10 1.31709E-18 2.16359E-18
 -1      1631 9.52373E-05-2.85715E-05-2.85710E-05-2.19829E-10 1.99868E-18 1.25467E-18
 -1      1632 9.52374E-05-2.85718E-05-2.85709E-05-1.10900E-10 2.46572E-18 5.06883E-19
 -1      1633 9.52373E-05-2.85717E-05-2.85710E-05-1.14210E-10 3.27067E-18-4.51583E-19
 -1      1634 9.52373E-05-2.85717E-05-2.85710E-05-2.26894E-10 1.54115E-18 9.83023E-19
 -1      1635 9.52374E-05-2.85720E-05-2.85709E-05-8.33167E-11-6.31202E-19-1.27462E-18
 -1      1636 9.52374E-05-2.85719E-05-2.85709E-05-9.00803E-11 6.52386E-19-1.18871E-18
 -1      1637 9.52374E-05-2.85718E-05-2.85709E-05-1.94828E-10-5.21570E-19-1.89472E-18
 -1      1638 9.52374E-05-2.85721E-05-2.85709E-05-4.21904E-11-3.62797E-18-8.97253E-19
 -1      1639 9.52374E-05-2.85720E-05-2.85709E-05-5.10944E-11-1.94604E-18-5.61911E-19
 -1      1640 9.52374E-05-2.85720E-05-2.85709E-05-1.30237E-10-1.52081E-18-2.48221E-18
 -1      1641 9.52374E-05-2.85721E-05-2.85709E-05 5.59387E-12-2.56221E-18 5.59296E-19
 -1      1642 9.52374E-05-2.85721E-05-2.85709E-05-4.02959E-12-4.43235E-18 8.07826E-19
 -1      1643 9.52374E-05-2.85720E-05-2.85709E-05-4.47888E-11-1.36897E-18-1.18308E-18
 -1      1644 9.52374E-05-2.85720E-05-2.85709E-05 5.24980E-11-2.54288E-18-9.17916E-19
 -1      1645 9.52374E-05-2.85721E-05-2.85709E-05 4.36505E-11-2.79972E-18 5.38381E-19
 -1      1646 9.52374E-05-2.85720E-05-2.85709E-05 4.76928E-11-2.25787E-18 6.65620E-19
 -1      1647 9.52374E-05-2.85719E-05-2.85709E-05 9.10667E-11-4.88079E-18-2.27802E-18
 -1      1648 9.52374E-05-2.85720E-05-2.85709E-05 8.44328E-11-2.16125E-18-1.77845E-18
 -1      1649 9.52374E-05-2.85720E-05-2.85709E-05 1.32665E-10-2.33427E-18-1.33602E-18
 -1      1650 9.52373E-05-2.85717E-05-2.85710E-05 1.14487E-10-6.65177E-18 4.54752E-19
 -1      1651 9.52374E-05-2.85718E-05-2.85709E-05 1.11280E-10-5.46511E-18-1.53764E-18
 -1      1652 9.52374E-05-2.85718E-05-2.85709E-05 1.96046E-10-3.24076E-18-2.82485E-18
 -1      1653 9.52373E-05-2.85715E-05-2.85710E-05 1.18623E-10-6.29464E-18-7.93743E-19
 -1      1654 9.52373E-05-2.85716E-05-2.85710E-05 1.19573E-10-6.36991E-18 1.32059E-18
 -1      1655 9.52373E-05-2.85717E-05-2.85710E-05 2.27202E-10-2.98271E-18 6.53725E-19
 -1      1656 9.52372E-05-2.85713E-05-2.85711E-05 1.00681E-10-3.81127E-18 1.90057E-18
 -1      1657 9.52372E-05-2.85714E-05-2.85711E-05 1.06230E-10-6.17326E-18 1.50985E-18
 -1      1658 9.52372E-05-2.85715E-05-2.85710E-05 2.19047E-10-1.43795E-18 5.79850E-19
 -1      1659 9.52371E-05-2.85712E-05-2.85711E-05 6.23745E-11-1.29534E-18 1.61480E-18
 -1      1660 9.52372E-05-2.85713E-05-2.85711E-05 7.22232E-11-3.59673E-18 8.09429E-19
 -1      1661 9.52372E-05-2.85714E-05-2.85711E-05 1.70261E-10-1.51463E-18 2.02892E-18
 -1      1662 9.52371E-05-2.85712E-05-2.85711E-05 1.82481E-11 3.44285E-18 2.80096E-18
 -1      1663 9.52371E-05-2.85712E-05-2.85711E-05 2.74581E-11-3.88102E-19 3.27542E-18
 -1      1664 9.52371E-05-2.85712E-05-2.85711E-05 9.31338E-11-2.40259E-19 3.68707E-18
 -1      1665 9.52371E-05-2.85712E-05-2.85711E-05 2.40392E-11 8.92555E-19 1.23420E-18
 -1      1666 1.95726E-05-5.98882E-05 1.18452E-05 2.97429E-07 1.11910E-17 5.72848E-18
 -1      1667 2.40569E-05-7.52458E-05 1.52656E-05 7.20933E-06 3.95310E-18 4.66292E-18
 -1      1668 2.18720E-05-2.70595E-05-1.10729E-06 1.45977E-05 1.70067E-17 1.01568E-17
 -1      1669 2.51048E-05-5.31008E-05 6.46701E-06 7.02814E-06 1.30536E-17 6.07558E-18
 -1      1670 3.95894E-05-1.38665E-07-1.80911E-05 4.15735E-05 1.89380E-17 1.40557E-17
 -1      1671 3.06590E-05-1.89249E-05-8.93028E-06 2.13138E-05 1.87008E-17 1.11986E-17
 -1      1672 9.72804E-05-2.33629E-06-3.89976E-05 7.34888E-05 1.36118E-17 1.25107E-17
 -1      1673 6.55040E-05-3.32343E-06-2.79521E-05 5.02486E-05 1.66755E-17 1.24336E-17
 -1      1674 1.64187E-04-1.85041E-05-5.80502E-05 8.73509E-05 9.27332E-18 1.02051E-17
 -1      1675 1.19047E-04-1.34462E-06-4.89199E-05 7.93963E-05 1.32988E-17 1.30748E-17
 -1      1676 2.29374E-04-4.82516E-05-7.16931E-05 6.76176E-05 4.61891E-18 2.45131E-18
 -1      1677 1.88706E-04-2.61998E-05-6.55564E-05 8.36075E-05 7.71266E-18 8.33650E-18
 -1      1678 2.61513E-04-6.51790E-05-7.80265E-05 1.82123E-05 4.03251E-18-8.81994E-18
 -1      1679 2.43786E-04-5.42487E-05-7.56400E-05 5.16880E-05 4.64068E-18-1.28241E-18
 -1      1680 2.51061E-04-5.94958E-05-7.69528E-05-3.67189E-05 6.64646E-18-1.93958E-17
 -1      1681 2.64855E-04-6.70693E-05-7.86183E-05-7.73349E-07 4.32940E-18-1.26337E-17
 -1      1682 1.92724E-04-3.03362E-05-6.68759E-05-6.84966E-05 1.28334E-17-2.40108E-17
 -1      1683 2.31775E-04-5.12847E-05-7.26532E-05-4.81186E-05 8.70183E-18-2.01848E-17
 -1      1684 1.26225E-04-2.45891E-06-5.24060E-05-7.88461E-05 1.91480E-17-2.63631E-17
 -1      1685 1.70206E-04-2.24216E-05-6.04685E-05-8.07891E-05 1.49620E-17-2.60225E-17
 -1      1686 6.45190E-05 1.46150E-05-3.52991E-05-6.23951E-05 2.33629E-17-2.30054E-17
 -1      1687 9.79332E-05 8.05054E-06-4.43343E-05-8.06740E-05 2.14570E-17-2.65020E-17
 -1      1688 3.10218E-05 5.50662E-06-1.82569E-05-3.50641E-05 1.99781E-17-1.49209E-17
 -1      1689 4.59662E-05 1.50885E-05-2.68237E-05-5.44754E-05 2.20821E-17-2.02602E-17
 -1      1690 1.53753E-05-1.36372E-05-4.29159E-06-1.49027E-05 1.36762E-17-8.57462E-18
 -1      1691 1.61867E-05 4.07685E-06-1.08006E-05-2.50063E-05 1.92869E-17-1.31318E-17
 -1      1692 1.43455E-05-3.72826E-05 5.58032E-06-1.02255E-05 2.14469E-18-4.98309E-18
 -1      1693 1.06632E-05-2.01289E-05 1.02007E-06-9.54614E-06 1.04575E-17-7.29539E-18
 -1      1694 1.39093E-05-5.07449E-05 1.04636E-05-1.64644E-05-1.13109E-17-6.42750E-18
 -1      1695 1.23460E-05-4.17956E-05 8.50149E-06-8.58877E-06-1.86093E-18-5.29099E-18
 -1      1696 1.18113E-05-4.83433E-05 8.89631E-06-2.06106E-05-2.26435E-17-1.22518E-17
 -1      1697 1.48563E-05-5.37174E-05 1.06162E-05-1.41694E-05-1.49926E-17-7.81663E-18
 -1      1698 1.66162E-05-3.15662E-05-5.74558E-07-8.64836E-06-2.87856E-17-2.07091E-17
 -1      1699 1.79964E-05-4.76847E-05 5.09215E-06-1.42960E-05-2.47914E-17-1.47595E-17
 -1      1700 4.63977E-05-1.73686E-05-1.75439E-05 2.14408E-05-2.89448E-17-2.83129E-17
 -1      1701 3.27756E-05-3.21643E-05-8.00860E-06 6.80344E-07-2.91549E-17-2.30520E-17
 -1      1702 1.13789E-04-2.28659E-05-3.96389E-05 5.44127E-05-2.37178E-17-3.20043E-17
 -1      1703 7.41613E-05-2.18219E-05-2.77904E-05 2.89693E-05-2.73482E-17-2.96529E-17
 -1      1704 2.09458E-04-5.10423E-05-6.24861E-05 6.17992E-05-1.57616E-17-2.78200E-17
 -1      1705 1.49037E-04-3.15276E-05-5.06841E-05 5.19450E-05-2.12394E-17-3.05271E-17
 -1      1706 2.91405E-04-7.85109E-05-8.00780E-05 3.94718E-05-9.32673E-18-1.74150E-17
 -1      1707 2.38199E-04-5.51335E-05-7.18419E-05 5.84190E-05-1.40150E-17-2.57532E-17
 -1      1708 3.18316E-04-8.55656E-05-8.70221E-05-1.36528E-05-6.96600E-18-1.44684E-18
 -1      1709 3.03383E-04-7.95139E-05-8.45170E-05 2.49963E-05-8.31490E-18-1.32739E-17
 -1      1710 2.76650E-04-6.57849E-05-8.11506E-05-5.59495E-05-9.60048E-18 1.28071E-17
 -1      1711 3.12469E-04-8.36482E-05-8.57631E-05-2.43209E-05-6.84191E-18 2.74185E-18
 -1      1712 1.97986E-04-3.60859E-05-6.53639E-05-7.49864E-05-1.42590E-17 2.13977E-17
 -1      1713 2.57227E-04-6.09754E-05-7.49342E-05-6.94343E-05-1.00005E-17 1.66408E-17
 -1      1714 1.12736E-04-1.51310E-05-4.33279E-05-5.96419E-05-1.97367E-17 2.37694E-17
 -1      1715 1.65635E-04-2.81089E-05-5.54361E-05-7.97107E-05-1.59090E-17 2.39609E-17
 -1      1716 5.43953E-05-1.89979E-05-2.02664E-05-2.74691E-05-2.18907E-17 1.93937E-17
 -1      1717 8.15769E-05-9.87858E-06-3.20287E-05-5.44485E-05-2.09031E-17 2.34238E-17
 -1      1718 3.11683E-05-4.48334E-05-6.43883E-07-2.06646E-06-1.77157E-17 1.23055E-17
 -1      1719 3.63990E-05-2.23370E-05-1.02460E-05-1.90570E-05-2.06498E-17 1.75755E-17
 -1      1720 2.42598E-05-6.92373E-05 1.22566E-05 7.20196E-06-1.01767E-17 7.11677E-18
 -1      1721 1.92178E-05-4.87060E-05 6.74724E-06 6.58295E-06-1.65773E-17 1.10774E-17
 -1      1722 2.37281E-05-7.86496E-05 1.66162E-05 3.36698E-06 9.15854E-19 4.64746E-18
 -1      1723 2.13320E-05-7.43677E-05 1.57949E-05 1.35456E-05-7.73214E-18 6.17699E-18
 -1      1724 1.71184E-04-4.91602E-05-5.30494E-05-3.85037E-05-7.68555E-18 4.93873E-18
 -1      1725 1.42254E-04-3.86633E-05-4.71772E-05-1.99312E-05-4.52909E-18 7.30905E-18
 -1      1726 1.25801E-04-3.05608E-05-4.50635E-05-1.59252E-05-5.24906E-18 1.16975E-18
 -1      1727 1.57841E-04-3.38725E-05-5.41354E-05-1.38691E-05-1.10123E-17-1.55093E-18
 -1      1728 8.57073E-05-2.94998E-05-2.42085E-05 5.05098E-05 8.56011E-18 6.28626E-18
 -1      1729 1.14545E-05-4.99258E-05 1.16403E-05 9.90533E-06 2.97732E-19 9.07384E-18
 -1      1730 9.52371E-05-2.85711E-05-2.85711E-05 5.16703E-12-4.29659E-19 3.00855E-18
 -1      1731 9.52371E-05-2.85712E-05-2.85711E-05-2.76633E-11 5.90213E-19 2.95969E-18
 -1      1732 2.14979E-05-4.23750E-05 5.25750E-06 2.52302E-05 4.60617E-18 7.63939E-18
 -1      1733 4.53617E-05-3.43709E-05-7.11460E-06 3.82982E-05 7.86555E-18 7.84384E-18
 -1      1734 1.31374E-04-2.91989E-05-4.25230E-05 5.20625E-05 8.26408E-18 4.28937E-18
 -1      1735 1.74079E-04-2.75400E-05-5.92028E-05 5.01175E-05 7.99101E-18 2.24040E-18
 -1      1736 2.07797E-04-3.25530E-05-7.02013E-05 3.31820E-05 7.55596E-18-2.70288E-18
 -1      1737 2.21623E-04-3.55170E-05-7.45018E-05 6.03749E-06 8.15862E-18-8.69305E-18
 -1      1738 2.06834E-04-3.22208E-05-7.08964E-05-1.76367E-05 9.40545E-18-1.29202E-17
 -1      1739 1.75002E-04-2.62848E-05-6.09616E-05-3.91794E-05 1.10846E-17-1.45431E-17
 -1      1740 1.30253E-04-1.65575E-05-4.73023E-05-5.62516E-05 1.33463E-17-1.71016E-17
 -1      1741 8.17524E-05-9.34955E-06-3.13581E-05-5.40396E-05 1.24184E-17-1.54808E-17
 -1      1742 4.31563E-05-7.91972E-06-1.63660E-05-4.31659E-05 9.61086E-18-1.26877E-17
 -1      1743 1.78732E-05-1.35362E-05-4.11078E-06-2.96678E-05 5.10676E-18-1.06092E-17
 -1      1744 6.25466E-06-2.19421E-05 3.74133E-06-2.11400E-05-1.80969E-18-1.00949E-17
 -1      1745 3.44901E-06-2.80570E-05 6.55269E-06-1.29670E-05-8.48743E-18-1.14892E-17
 -1      1746 1.49268E-05-3.36505E-05 2.96047E-06-5.04542E-07-1.42742E-17-1.41836E-17
 -1      1747 4.56089E-05-3.89143E-05-7.88037E-06 1.50548E-05-1.72439E-17-1.72723E-17
 -1      1748 9.82496E-05-4.78346E-05-2.47701E-05 2.62120E-05-1.73870E-17-1.90574E-17
 -1      1749 1.63949E-04-5.76531E-05-4.49993E-05 2.28850E-05-1.53139E-17-1.78326E-17
 -1      1750 2.21628E-04-5.99119E-05-6.39454E-05 1.07219E-05-1.41632E-17-1.42022E-17
 -1      1751 2.51311E-04-5.06935E-05-7.66711E-05-3.78324E-06-1.35487E-17-8.41188E-18
 -1      1752 2.54565E-04-4.53701E-05-7.95396E-05-8.69572E-06-1.28266E-17-1.73589E-18
 -1      1753 2.34552E-04-4.81918E-05-7.24499E-05-1.99181E-05-1.14477E-17 4.57567E-18
 -1      1754 1.96568E-04-5.34340E-05-5.78636E-05-3.35826E-05-1.06387E-17 1.03711E-17
 -1      1755 1.33867E-04-4.66022E-05-3.77122E-05-4.04648E-05-1.15679E-17 1.33577E-17
 -1      1756 7.83697E-05-4.50922E-05-1.73551E-05-3.41319E-05-1.00992E-17 1.23459E-17
 -1      1757 3.85934E-05-4.59692E-05-9.27752E-07-2.22145E-05-7.74527E-18 1.09214E-17
 -1      1758 1.55235E-05-4.89120E-05 9.46215E-06-5.46876E-06-4.68917E-18 1.03262E-17
 -1      1759 1.68429E-04-4.18392E-05-5.38863E-05-4.28798E-06-4.43051E-19 9.06357E-18
 -1      1760 3.50504E-05 1.08977E-05-1.97416E-05-9.72279E-07 4.42998E-19-6.76271E-18
 -1      1761 5.61190E-05 3.34989E-06-2.48704E-05 3.02366E-06 1.06345E-18-5.18268E-18
 -1      1762 8.36029E-05-1.04427E-05-3.16394E-05 5.46315E-06 1.55335E-18-2.21372E-18
 -1      1763 1.11623E-04-2.11012E-05-3.88277E-05 3.51094E-06 9.49842E-19 4.75027E-19
 -1      1764 7.09597E-05-8.61964E-06-2.64450E-05 8.39997E-06 1.38236E-18-3.66374E-18
 -1      1765 2.84450E-05 1.20408E-05-1.68104E-05-3.07253E-05-4.19991E-18-8.37483E-18
 -1      1766 2.02454E-05 1.63008E-05-1.55597E-05-2.62391E-05-3.11973E-18-8.56075E-18
 -1      1767 5.88131E-05-3.46811E-06-2.31574E-05-3.50892E-05-5.48147E-18-6.97137E-18
 -1      1768 4.20934E-05 3.63132E-06-1.96817E-05-3.50303E-05-4.98352E-18-7.55130E-18
 -1      1769 9.05235E-05-1.78451E-05-3.08994E-05-2.64048E-05-5.07865E-18-5.31135E-18
 -1      1770 7.65183E-05-1.29987E-05-2.73211E-05-3.13041E-05-5.49523E-18-5.71117E-18
 -1      1771 1.07598E-04-2.24267E-05-3.65534E-05-1.25177E-05-3.31486E-18-4.48229E-18
 -1      1772 1.00917E-04-2.12977E-05-3.41178E-05-1.83661E-05-4.22749E-18-4.58695E-18
 -1      1773 1.00205E-04-2.44960E-05-3.25437E-05-2.25209E-05-4.89352E-18-4.37731E-18
 -1      1774 1.11834E-04-2.02982E-05-3.94178E-05-9.41377E-07-1.42140E-18-4.50571E-18
 -1      1775 1.10714E-04-2.13657E-05-3.82625E-05-5.61732E-06-2.33723E-18-4.39134E-18
 -1      1776 1.13450E-04-2.62367E-05-3.74363E-05-7.17356E-06-2.89237E-18-3.73155E-18
 -1      1777 1.09285E-04-1.61624E-05-4.01010E-05 6.87803E-06 3.35868E-19-4.58547E-18
 -1      1778 1.10957E-04-1.78258E-05-3.99289E-05 3.53610E-06-5.39299E-19-4.55659E-18
 -1      1779 1.14752E-04-2.24708E-05-3.95438E-05 3.38074E-06-9.07741E-19-3.86056E-18
 -1      1780 1.04225E-04-1.26029E-05-3.94254E-05 1.19107E-05 1.82409E-18-4.59330E-18
 -1      1781 1.06825E-04-1.39718E-05-3.98540E-05 9.54513E-06 1.05470E-18-4.67009E-18
 -1      1782 1.10563E-04-1.78517E-05-3.97160E-05 9.57352E-06 8.74899E-19-4.10986E-18
 -1      1783 9.86498E-05-1.03064E-05-3.79906E-05 1.55714E-05 3.08643E-18-4.12640E-18
 -1      1784 1.01385E-04-1.11677E-05-3.87462E-05 1.36928E-05 2.41908E-18-4.45373E-18
 -1      1785 1.04771E-04-1.43719E-05-3.87381E-05 1.33336E-05 2.38575E-18-4.06572E-18
 -1      1786 9.36937E-05-9.43961E-06-3.62324E-05 1.85913E-05 4.22679E-18-2.93155E-18
 -1      1787 9.60684E-05-9.74002E-06-3.70954E-05 1.69309E-05 3.57265E-18-3.69116E-18
 -1      1788 9.91051E-05-1.25055E-05-3.71239E-05 1.60384E-05 3.59195E-18-3.51854E-18
 -1      1789 9.01881E-05-1.01979E-05-3.44542E-05 2.13562E-05 4.90215E-18-4.78732E-19
 -1      1790 9.17823E-05-9.80609E-06-3.52567E-05 1.97086E-05 4.50896E-18-2.00924E-18
 -1      1791 9.44778E-05-1.23537E-05-3.52114E-05 1.82760E-05 4.63500E-18-2.09442E-18
 -1      1792 8.99761E-05-1.40112E-05-3.27919E-05 2.31486E-05 4.81091E-18 4.45836E-18
 -1      1793 8.95606E-05-1.18961E-05-3.34452E-05 2.19798E-05 4.82032E-18 1.49250E-18
 -1      1794 9.16699E-05-1.43286E-05-3.31580E-05 1.98299E-05 5.13506E-18 7.13731E-19
 -1      1795 9.30143E-05-2.15522E-05-3.10582E-05 1.88897E-05 4.08794E-18 1.06709E-17
 -1      1796 9.07046E-05-1.63447E-05-3.18405E-05 2.19893E-05 4.43378E-18 6.65514E-18
 -1      1797 9.08221E-05-1.84994E-05-3.10681E-05 1.86647E-05 5.04830E-18 4.62395E-18
 -1      1798 8.90144E-05-2.25335E-05-2.87397E-05 1.35007E-05 4.20295E-18 9.34944E-18
 -1      1799 1.45078E-04-3.35983E-05-4.74172E-05-1.51695E-06 4.36381E-19 4.87796E-18
 -1      1800 8.41719E-05-2.34195E-05-2.60614E-05 7.02455E-06 3.26261E-18 7.28213E-18
 -1      1801 8.74553E-05-2.37297E-05-2.73536E-05 9.81784E-06 3.54234E-18 8.57730E-18
 -1      1802 8.90110E-05-2.21136E-05-2.86455E-05 1.30152E-05 4.23466E-18 5.93860E-18
 -1      1803 1.97394E-04-4.09104E-05-6.63353E-05-2.04106E-05-1.19127E-17-1.34276E-18
 -1      1804 1.94126E-04-3.58079E-05-6.70647E-05-2.60924E-06-1.21193E-17-4.76107E-18
 -1      1805 1.60772E-04-5.93728E-05-4.25858E-05 3.47652E-06 1.34615E-18 5.97600E-18
 -1      1806 1.64325E-04-6.47607E-05-4.28449E-05-6.35470E-06-3.72165E-19 5.94519E-18
 -1      1807 1.78990E-04-6.94529E-05-4.66549E-05-1.72045E-05-2.40399E-18 5.40534E-18
 -1      1808 1.78821E-04-6.46866E-05-4.91179E-05-2.54974E-05-5.30613E-18 4.10599E-18
 -1      1809 1.34472E-04-3.46676E-05-4.21262E-05 5.15418E-06 1.39226E-18 3.53075E-18
 -1      1810 1.70837E-04-5.04086E-05-5.23678E-05 2.34223E-05-4.70019E-18-8.42565E-18
 -1      1811 1.76772E-04-6.24602E-05-4.91465E-05 1.99656E-05-1.23434E-18-9.53759E-18
 -1      1812 1.62419E-04-6.21736E-05-4.30831E-05 9.43033E-06 1.25758E-18-9.83154E-18
 -1      1813 1.59228E-04-6.14600E-05-4.14786E-05-1.96411E-06 3.62710E-18-8.85261E-18
 -1      1814 1.46323E-04-5.36546E-05-3.96318E-05-1.12724E-05 3.74378E-18-8.17522E-18
 -1      1815 1.39636E-04-4.76812E-05-3.89471E-05-1.80058E-05 3.82340E-18-6.82817E-18
 -1      1816 1.42722E-04-5.95589E-05-3.57731E-05-1.62583E-05 4.26979E-18-5.31852E-18
 -1      1817 1.32347E-04-4.21231E-05-3.85812E-05-2.03025E-05 3.08796E-18-6.28850E-18
 -1      1818 1.25637E-04-3.76356E-05-3.75330E-05-2.14945E-05 2.77926E-18-5.38349E-18
 -1      1819 1.22664E-04-4.28738E-05-3.42117E-05-2.55036E-05 4.05771E-18-4.17460E-18
 -1      1820 1.22096E-04-3.53247E-05-3.71201E-05-2.00332E-05 2.21621E-18-5.03005E-18
 -1      1821 1.16433E-04-3.27935E-05-3.58315E-05-1.85618E-05 1.25624E-18-4.25367E-18
 -1      1822 1.12150E-04-3.27641E-05-3.40254E-05-2.53844E-05 2.88720E-18-3.57916E-18
 -1      1823 1.14543E-04-3.21226E-05-3.52402E-05-1.60065E-05 4.24218E-19-3.49923E-18
 -1      1824 1.10167E-04-3.07746E-05-3.40455E-05-1.39541E-05 4.81637E-19-3.09678E-18
 -1      1825 1.06823E-04-2.87763E-05-3.34488E-05-2.07914E-05 1.22231E-18-2.51889E-18
 -1      1826 1.08900E-04-3.06631E-05-3.34392E-05-1.15585E-05-2.68404E-20-2.90209E-18
 -1      1827 1.05717E-04-2.99165E-05-3.24974E-05-9.77816E-06-5.87431E-19-2.50227E-18
 -1      1828 1.03728E-04-2.78367E-05-3.25243E-05-1.54352E-05 3.63331E-19-1.53817E-18
 -1      1829 1.04748E-04-2.99309E-05-3.19809E-05-7.91208E-06-7.25093E-19-2.31679E-18
 -1      1830 1.02524E-04-2.94895E-05-3.13010E-05-6.59607E-06-2.11520E-19-2.21749E-18
 -1      1831 1.01561E-04-2.79070E-05-3.15659E-05-1.08359E-05-5.57394E-19-1.44416E-18
 -1      1832 1.01765E-04-2.95042E-05-3.09021E-05-5.26194E-06-1.91476E-19-2.18079E-18
 -1      1833 1.00252E-04-2.92288E-05-3.04338E-05-4.35822E-06-3.07076E-19-2.68533E-18
 -1      1834 9.99058E-05-2.81691E-05-3.07456E-05-7.36360E-06-3.43306E-19-1.39590E-18
 -1      1835 9.96704E-05-2.92239E-05-3.01422E-05-3.44685E-06-4.89506E-19-3.00820E-18
 -1      1836 9.86580E-05-2.90463E-05-2.98275E-05-2.84875E-06-2.35333E-19-3.27978E-18
 -1      1837 9.86296E-05-2.83824E-05-3.01088E-05-4.91112E-06-4.26445E-19-1.64571E-18
 -1      1838 9.82232E-05-2.90282E-05-2.96208E-05-2.24160E-06-4.22454E-19-3.63599E-18
 -1      1839 9.75520E-05-2.89114E-05-2.94118E-05-1.85300E-06-9.25837E-19-3.80629E-18
 -1      1840 9.76639E-05-2.85119E-05-2.96401E-05-3.24209E-06-4.71691E-19-2.47936E-18
 -1      1841 9.72343E-05-2.88884E-05-2.92681E-05-1.45389E-06-1.33066E-18-3.33251E-18
 -1      1842 9.67915E-05-2.88108E-05-2.91301E-05-1.20349E-06-1.02282E-18-3.28426E-18
 -1      1843 9.69491E-05-2.85773E-05-2.93058E-05-2.12966E-06-1.00019E-18-2.32350E-18
 -1      1844 9.65632E-05-2.87883E-05-2.90312E-05-9.42746E-07-9.83075E-19-3.27299E-18
 -1      1845 9.62717E-05-2.87366E-05-2.89403E-05-7.81762E-07-9.92758E-19-3.45764E-18
 -1      1846 9.64296E-05-2.86034E-05-2.90716E-05-1.39631E-06-1.10868E-18-2.16556E-18
 -1      1847 9.61097E-05-2.87170E-05-2.88726E-05-6.11668E-07-6.24111E-19-3.74002E-18
 -1      1848 9.59180E-05-2.86824E-05-2.88128E-05-5.08016E-07-7.78821E-19-4.24492E-18
 -1      1849 9.60574E-05-2.86085E-05-2.89093E-05-9.15157E-07-1.03122E-18-1.84985E-18
 -1      1850 9.58040E-05-2.86665E-05-2.87667E-05-3.96880E-07-1.13273E-18-3.76206E-18
 -1      1851 9.56781E-05-2.86435E-05-2.87273E-05-3.29888E-07-8.91756E-19-4.16914E-18
 -1      1852 9.57935E-05-2.86038E-05-2.87977E-05-5.99664E-07-1.08339E-18-1.92950E-18
 -1      1853 9.55985E-05-2.86312E-05-2.86960E-05-2.57022E-07 2.94054E-19-4.11629E-18
 -1      1854 9.55160E-05-2.86160E-05-2.86702E-05-2.13507E-07 1.03678E-18-3.51383E-18
 -1      1855 9.56081E-05-2.85957E-05-2.87212E-05-3.92374E-07-2.32534E-19-2.37588E-18
 -1      1856 9.54610E-05-2.86068E-05-2.86490E-05-1.65527E-07 1.01178E-18-2.98254E-18
 -1      1857 9.54072E-05-2.85969E-05-2.86321E-05-1.37116E-07 1.57720E-18-3.26345E-18
 -1      1858 9.54789E-05-2.85874E-05-2.86690E-05-2.55693E-07 1.02845E-18-1.63953E-18
 -1      1859 9.53695E-05-2.85902E-05-2.86178E-05-1.05395E-07 1.44232E-18-3.40180E-18
 -1      1860 9.53348E-05-2.85839E-05-2.86069E-05-8.67696E-08 6.12381E-19-3.27776E-18
 -1      1861 9.53897E-05-2.85802E-05-2.86335E-05-1.65208E-07 1.65839E-18-2.19810E-18
 -1      1862 9.53093E-05-2.85793E-05-2.85974E-05-6.57433E-08-3.20254E-19-2.60622E-18
 -1      1863 9.52874E-05-2.85754E-05-2.85904E-05-5.35138E-08-1.43475E-19-2.56012E-18
 -1      1864 9.53288E-05-2.85746E-05-2.86096E-05-1.05107E-07 6.43379E-19-2.64194E-18
 -1      1865 9.52704E-05-2.85723E-05-2.85841E-05-3.95807E-08-3.75567E-19-2.52659E-18
 -1      1866 9.52569E-05-2.85700E-05-2.85798E-05-3.15705E-08-4.85101E-19-3.06636E-18
 -1      1867 9.52878E-05-2.85706E-05-2.85935E-05-6.51333E-08-3.97843E-19-2.70402E-18
 -1      1868 9.52459E-05-2.85680E-05-2.85757E-05-2.23812E-08-1.27281E-19-3.26047E-18
 -1      1869 9.52381E-05-2.85669E-05-2.85731E-05-1.71796E-08 4.62080E-19-3.13342E-18
 -1      1870 9.52609E-05-2.85680E-05-2.85830E-05-3.86000E-08-5.67160E-19-2.84906E-18
 -1      1871 9.52312E-05-2.85657E-05-2.85706E-05-1.11864E-08 4.52713E-19-3.46705E-18
 -1      1872 9.52271E-05-2.85653E-05-2.85692E-05-7.86761E-09 7.54189E-19-3.09886E-18
 -1      1873 9.52437E-05-2.85665E-05-2.85762E-05-2.11116E-08 6.84749E-19-2.11611E-18
 -1      1874 9.52230E-05-2.85646E-05-2.85677E-05-4.03875E-09 7.97193E-19-2.84256E-18
 -1      1875 9.52213E-05-2.85647E-05-2.85670E-05-1.98679E-09 8.32217E-19-2.84837E-18
 -1      1876 9.52332E-05-2.85659E-05-2.85719E-05-9.74826E-09 1.17747E-18-1.92646E-18
 -1      1877 9.52191E-05-2.85644E-05-2.85662E-05 3.74559E-10 1.20758E-18-2.06607E-18
 -1      1878 9.52189E-05-2.85647E-05-2.85660E-05 1.57513E-09 1.43798E-18-1.85188E-18
 -1      1879 9.52273E-05-2.85657E-05-2.85694E-05-2.54708E-09 1.29380E-18-1.68646E-18
 -1      1880 9.52180E-05-2.85647E-05-2.85656E-05 2.94527E-09 6.11731E-19-1.34609E-18
 -1      1881 9.52187E-05-2.85651E-05-2.85657E-05 3.57819E-09 3.57310E-19-1.45227E-18
 -1      1882 9.52245E-05-2.85660E-05-2.85680E-05 1.82807E-09 1.80960E-18-3.25283E-19
 -1      1883 9.52186E-05-2.85652E-05-2.85657E-05 4.28600E-09-2.96610E-19-2.19678E-18
 -1      1884 9.52197E-05-2.85658E-05-2.85659E-05 4.54684E-09 3.29835E-19-3.02302E-18
 -1      1885 9.52236E-05-2.85664E-05-2.85674E-05 4.29667E-09-4.88996E-19-7.88057E-19
 -1      1886 9.52201E-05-2.85660E-05-2.85660E-05 4.82087E-09 1.59998E-18-3.91316E-18
 -1      1887 9.52214E-05-2.85665E-05-2.85664E-05 4.84502E-09 1.51028E-18-3.34525E-18
 -1      1888 9.52240E-05-2.85670E-05-2.85673E-05 5.49686E-09 7.60430E-19-2.45625E-18
 -1      1889 9.52221E-05-2.85667E-05-2.85666E-05 4.84439E-09 8.01341E-19-2.73677E-18
 -1      1890 9.52235E-05-2.85672E-05-2.85670E-05 4.72547E-09 5.05466E-20-1.84327E-18
 -1      1891 9.52250E-05-2.85676E-05-2.85675E-05 5.87342E-09 1.47925E-18-3.38247E-18
 -1      1892 9.52242E-05-2.85675E-05-2.85672E-05 4.56047E-09-7.89342E-19-2.34333E-18
 -1      1893 9.52256E-05-2.85679E-05-2.85676E-05 4.36266E-09-1.58383E-18-3.05515E-18
 -1      1894 9.52265E-05-2.85682E-05-2.85678E-05 5.73614E-09-1.04614E-19-2.58932E-18
 -1      1895 9.52263E-05-2.85681E-05-2.85678E-05 4.10885E-09-1.35620E-18-2.63643E-18
 -1      1896 9.52276E-05-2.85685E-05-2.85682E-05 3.87540E-09-2.07371E-18-2.56902E-18
 -1      1897 9.52280E-05-2.85688E-05-2.85682E-05 5.29927E-09-1.35811E-18-3.28280E-18
 -1      1898 9.52283E-05-2.85687E-05-2.85684E-05 3.58352E-09-1.40798E-18-2.27763E-18
 -1      1899 9.52294E-05-2.85691E-05-2.85687E-05 3.34269E-09 1.44721E-19-2.25680E-18
 -1      1900 9.52295E-05-2.85692E-05-2.85687E-05 4.70884E-09-6.36940E-19-2.94771E-18
 -1      1901 9.52301E-05-2.85693E-05-2.85689E-05 3.04571E-09-1.53580E-19-1.87489E-18
 -1      1902 9.52310E-05-2.85695E-05-2.85692E-05 2.81515E-09-6.80937E-19-2.66066E-18
 -1      1903 9.52309E-05-2.85697E-05-2.85691E-05 4.06198E-09-7.16711E-20-1.11085E-18
 -1      1904 9.52316E-05-2.85697E-05-2.85694E-05 2.53337E-09-2.21148E-18-1.31954E-18
 -1      1905 9.52323E-05-2.85699E-05-2.85696E-05 2.32320E-09-2.97632E-18-2.12220E-18
 -1      1906 9.52321E-05-2.85700E-05-2.85695E-05 3.42087E-09-1.00103E-18-1.21671E-18
 -1      1907 9.52328E-05-2.85700E-05-2.85698E-05 2.06803E-09-1.27984E-18-1.32527E-18
 -1      1908 9.52335E-05-2.85702E-05-2.85700E-05 1.88314E-09 2.12212E-19-8.60227E-19
 -1      1909 9.52332E-05-2.85703E-05-2.85698E-05 2.82283E-09-2.10407E-18 7.54239E-19
 -1      1910 9.52339E-05-2.85703E-05-2.85701E-05 1.65981E-09 1.03847E-18-1.57435E-18
 -1      1911 9.52344E-05-2.85705E-05-2.85703E-05 1.50159E-09 1.89764E-18-1.76533E-18
 -1      1912 9.52341E-05-2.85705E-05-2.85701E-05 2.28778E-09 5.75972E-19-1.54054E-19
 -1      1913 9.52347E-05-2.85706E-05-2.85704E-05 1.31114E-09 2.23135E-18-1.93335E-18
 -1      1914 9.52351E-05-2.85707E-05-2.85705E-05 1.17858E-09 1.68250E-18-2.50081E-18
 -1      1915 9.52349E-05-2.85707E-05-2.85704E-05 1.82371E-09 2.16412E-18-2.68210E-19
 -1      1916 9.52354E-05-2.85707E-05-2.85706E-05 1.01931E-09 1.39766E-18-2.09066E-18
 -1      1917 9.52357E-05-2.85708E-05-2.85707E-05 9.09872E-10 1.48637E-18-9.10755E-19
 -1      1918 9.52355E-05-2.85708E-05-2.85706E-05 1.43054E-09 1.83190E-18-8.70120E-19
 -1      1919 9.52359E-05-2.85709E-05-2.85707E-05 7.78260E-10 2.85546E-19-1.08902E-19
 -1      1920 9.52362E-05-2.85709E-05-2.85708E-05 6.88395E-10-8.59518E-19-4.08187E-19
 -1      1921 9.52360E-05-2.85709E-05-2.85707E-05 1.10287E-09 1.25157E-18 4.24093E-19
 -1      1922 9.52363E-05-2.85710E-05-2.85709E-05 5.79805E-10 1.80892E-20 6.98317E-19
 -1      1923 9.52365E-05-2.85710E-05-2.85709E-05 5.05319E-10 1.84762E-18 1.10841E-18
 -1      1924 9.52363E-05-2.85710E-05-2.85708E-05 8.31923E-10 4.63634E-19 1.35737E-18
 -1      1925 9.52367E-05-2.85711E-05-2.85710E-05 4.14569E-10 6.01461E-19 1.40918E-18
 -1      1926 9.52368E-05-2.85711E-05-2.85710E-05 3.51093E-10-7.52520E-19 1.87590E-18
 -1      1927 9.52366E-05-2.85711E-05-2.85709E-05 6.06950E-10 1.14334E-18 2.53514E-18
 -1      1928 9.52369E-05-2.85711E-05-2.85710E-05 2.73061E-10-1.20382E-18 1.86531E-18
 -1      1929 9.52370E-05-2.85711E-05-2.85711E-05 2.17039E-10-2.67343E-19 8.79866E-19
 -1      1930 9.52368E-05-2.85711E-05-2.85710E-05 4.16866E-10-7.97913E-19 3.07523E-18
 -1      1931 9.52370E-05-2.85712E-05-2.85711E-05 1.48409E-10 5.16064E-19 3.26439E-19
 -1      1932 9.52371E-05-2.85712E-05-2.85711E-05 1.00779E-10-1.10575E-18-1.34976E-19
 -1      1933 9.52370E-05-2.85712E-05-2.85711E-05 2.52041E-10-3.60312E-19 1.67839E-18
 -1      1934 9.52371E-05-2.85712E-05-2.85711E-05 4.59650E-11-1.13581E-18 6.04080E-19
 -1      1935 8.05961E-05-2.29981E-05-2.46247E-05 1.42822E-06 2.11681E-18 3.84746E-18
 -1      1936 8.13570E-05-2.30713E-05-2.48964E-05 2.63303E-06 2.19347E-18 4.62432E-18
 -1      1937 8.01174E-05-2.30657E-05-2.44031E-05-9.93075E-07 1.57240E-18 2.78759E-18
 -1      1938 8.00859E-05-2.29515E-05-2.44190E-05-4.25859E-08 1.90143E-18 3.39508E-18
 -1      1939 8.42576E-05-2.34559E-05-2.60952E-05 1.24456E-06 2.48412E-18 1.76960E-18
 -1      1940 8.08647E-05-2.35231E-05-2.45419E-05-2.92152E-06 1.21474E-18 1.96255E-18
 -1      1941 8.01830E-05-2.31927E-05-2.43769E-05-2.18229E-06 1.33175E-18 2.37413E-18
 -1      1942 8.38616E-05-2.37041E-05-2.58215E-05-1.79137E-06 1.94984E-18 8.24843E-19
 -1      1943 8.25529E-05-2.43235E-05-2.49353E-05-4.25964E-06 7.63752E-19 1.41862E-18
 -1      1944 8.14037E-05-2.38257E-05-2.46437E-05-3.77514E-06 9.43105E-19 1.67351E-18
 -1      1945 8.45337E-05-2.43107E-05-2.58405E-05-4.12662E-06 1.34494E-18 1.69244E-19
 -1      1946 8.48088E-05-2.53141E-05-2.54877E-05-4.92509E-06 7.16606E-19 1.04632E-18
 -1      1947 8.33968E-05-2.47352E-05-2.51223E-05-4.72176E-06 7.26936E-19 1.29014E-18
 -1      1948 8.59926E-05-2.52244E-05-2.60610E-05-5.64177E-06 1.00159E-18-4.34925E-19
 -1      1949 8.72486E-05-2.63177E-05-2.61104E-05-4.94587E-06 5.73433E-19 8.40177E-19
 -1      1950 8.57740E-05-2.57473E-05-2.57215E-05-4.99931E-06 7.99740E-19 1.27408E-18
 -1      1951 8.78781E-05-2.62691E-05-2.64085E-05-6.27714E-06 8.34736E-19-5.17699E-19
 -1      1952 8.95539E-05-2.71937E-05-2.67272E-05-4.46503E-06 3.86740E-19 6.47054E-19
 -1      1953 8.81800E-05-2.66990E-05-2.63572E-05-4.70658E-06 5.86613E-19 8.12940E-19
 -1      1954 8.98389E-05-2.72512E-05-2.68185E-05-6.12283E-06 7.59734E-19-3.52686E-19
 -1      1955 9.15187E-05-2.78688E-05-2.72822E-05-3.68563E-06 5.48844E-19 6.49115E-19
 -1      1956 9.03516E-05-2.74835E-05-2.69606E-05-4.02881E-06 4.63934E-19 6.33455E-19
 -1      1957 9.16116E-05-2.80353E-05-2.72370E-05-5.39606E-06 5.68988E-19-2.83314E-19
 -1      1958 9.30539E-05-2.83320E-05-2.77425E-05-2.80510E-06 1.58177E-19 4.29356E-19
 -1      1959 9.21398E-05-2.80603E-05-2.74843E-05-3.17163E-06 4.76694E-19 5.04084E-19
 -1      1960 9.30517E-05-2.85705E-05-2.76234E-05-4.36184E-06 5.22257E-19-5.30521E-19
 -1      1961 9.41610E-05-2.86128E-05-2.80966E-05-1.97173E-06 1.02814E-19 5.30150E-19
 -1      1962 9.34982E-05-2.84398E-05-2.79045E-05-2.30646E-06 1.81005E-19 6.36897E-19
 -1      1963 9.41201E-05-2.88749E-05-2.79517E-05-3.25652E-06 1.42498E-19-3.18140E-19
 -1      1964 9.48963E-05-2.87572E-05-2.83493E-05-1.27126E-06-2.13067E-19 4.66892E-19
 -1      1965 9.44530E-05-2.86600E-05-2.82171E-05-1.54495E-06 7.77103E-20 5.90141E-19
 -1      1966 9.48472E-05-2.90030E-05-2.82104E-05-2.24543E-06 1.36395E-19-5.03699E-19
 -1      1967 9.53393E-05-2.88107E-05-2.85154E-05-7.35005E-07-2.00447E-19 7.96843E-19
 -1      1968 9.50697E-05-2.87660E-05-2.84323E-05-9.39476E-07-2.20708E-20 6.90986E-19
 -1      1969 9.52974E-05-2.90168E-05-2.83996E-05-1.41609E-06-1.63000E-19 5.88278E-20
 -1      1970 9.55704E-05-2.88103E-05-2.86139E-05-3.57281E-07-1.47678E-19 6.26798E-19
 -1      1971 9.54275E-05-2.87986E-05-2.85676E-05-4.97822E-07-2.37982E-19 4.23906E-19
 -1      1972 9.55426E-05-2.89686E-05-2.85273E-05-7.93487E-07 1.27940E-19 3.82728E-19
 -1      1973 9.56597E-05-2.87823E-05-2.86634E-05-1.12797E-07-3.10107E-19 1.08702E-18
 -1      1974 9.56020E-05-2.87891E-05-2.86427E-05-2.01232E-07-1.17910E-19 7.82515E-19
 -1      1975 9.56473E-05-2.88953E-05-2.86052E-05-3.62613E-07-3.70130E-19 3.61389E-19
 -1      1976 9.56620E-05-2.87436E-05-2.86804E-05 3.02465E-08 4.96422E-19 8.51239E-19
 -1      1977 9.56567E-05-2.87591E-05-2.86759E-05-1.95214E-08 4.13255E-20 1.03135E-18
 -1      1978 9.56637E-05-2.88190E-05-2.86461E-05-8.88963E-08-7.67388E-20 6.62816E-19
 -1      1979 9.56169E-05-2.87039E-05-2.86776E-05 1.02200E-07 8.77716E-19 1.11774E-18
 -1      1980 9.56402E-05-2.87221E-05-2.86823E-05 7.88719E-08 1.07333E-18 1.30004E-18
 -1      1981 9.56297E-05-2.87512E-05-2.86614E-05 6.73284E-08 6.33697E-19 5.84849E-19
 -1      1982 9.55513E-05-2.86684E-05-2.86643E-05 1.28188E-07-3.65782E-20 7.58942E-19
 -1      1983 9.55870E-05-2.86858E-05-2.86735E-05 1.21494E-07 6.73354E-19 1.20076E-18
 -1      1984 9.55716E-05-2.86960E-05-2.86607E-05 1.42463E-07 6.91319E-19 1.17693E-18
 -1      1985 9.54816E-05-2.86389E-05-2.86469E-05 1.27079E-07-7.09371E-20 2.35634E-19
 -1      1986 9.55198E-05-2.86539E-05-2.86573E-05 1.29840E-07-3.14192E-19 2.90664E-19
 -1      1987 9.55061E-05-2.86538E-05-2.86510E-05 1.65958E-07 5.49604E-20 1.04058E-18
 -1      1988 9.54171E-05-2.86158E-05-2.86290E-05 1.11970E-07-1.30699E-18 1.13825E-18
 -1      1989 9.54524E-05-2.86278E-05-2.86390E-05 1.19324E-07-4.69594E-19 5.72792E-19
 -1      1990 9.54430E-05-2.86229E-05-2.86374E-05 1.59590E-07-4.19222E-19 2.55335E-19
 -1      1991 9.53622E-05-2.85984E-05-2.86128E-05 9.13007E-08-1.48646E-18 1.58810E-18
 -1      1992 9.53920E-05-2.86076E-05-2.86215E-05 1.00195E-07-1.55957E-18 1.41021E-18
 -1      1993 9.53875E-05-2.86013E-05-2.86230E-05 1.38293E-07-1.62598E-18 9.49245E-19
 -1      1994 9.53182E-05-2.85859E-05-2.85993E-05 7.00698E-08-5.67744E-19 1.07093E-18
 -1      1995 9.53418E-05-2.85926E-05-2.86063E-05 7.87560E-08-9.62515E-19 1.37874E-18
 -1      1996 9.53415E-05-2.85866E-05-2.86096E-05 1.11573E-07-1.22569E-18 5.97914E-19
 -1      1997 9.52848E-05-2.85774E-05-2.85887E-05 5.09148E-08 1.42056E-18 6.51461E-19
 -1      1998 9.53024E-05-2.85819E-05-2.85940E-05 5.85206E-08 6.72088E-19 1.04338E-18
 -1      1999 9.53053E-05-2.85771E-05-2.85981E-05 8.49787E-08 1.72342E-19-4.48361E-19
 -1      2000 9.52606E-05-2.85717E-05-2.85808E-05 3.49585E-08 5.83678E-19 1.11399E-18
 -1      2001 9.52731E-05-2.85747E-05-2.85846E-05 4.11584E-08 1.31247E-18 1.03174E-18
 -1      2002 9.52779E-05-2.85712E-05-2.85889E-05 6.13699E-08 9.18765E-19 6.48709E-19
 -1      2003 9.52439E-05-2.85683E-05-2.85751E-05 2.24240E-08 5.92294E-19 1.85117E-18
 -1      2004 9.52522E-05-2.85701E-05-2.85777E-05 2.72071E-08 7.10459E-19 1.52682E-18
 -1      2005 9.52581E-05-2.85678E-05-2.85818E-05 4.18945E-08 5.77434E-19 1.23522E-18
 -1      2006 9.52331E-05-2.85664E-05-2.85713E-05 1.30515E-08-4.63598E-19 1.81635E-18
 -1      2007 9.52382E-05-2.85673E-05-2.85730E-05 1.65679E-08-1.99341E-19 2.20680E-18
 -1      2008 9.52444E-05-2.85661E-05-2.85766E-05 2.66956E-08-4.19472E-20 2.09528E-18
 -1      2009 9.52267E-05-2.85656E-05-2.85689E-05 6.36448E-09 9.89314E-19 2.08949E-18
 -1      2010 9.52295E-05-2.85659E-05-2.85699E-05 8.82918E-09 3.60693E-19 1.71533E-18
 -1      2011 9.52355E-05-2.85655E-05-2.85730E-05 1.53861E-08 2.07774E-19 1.96269E-18
 -1      2012 9.52234E-05-2.85655E-05-2.85676E-05 1.82844E-09 9.01654E-19 1.24767E-18
 -1      2013 9.52246E-05-2.85654E-05-2.85681E-05 3.46565E-09 1.57005E-18 1.68710E-18
 -1      2014 9.52300E-05-2.85655E-05-2.85706E-05 7.35033E-09 1.12500E-18 1.71513E-18
 -1      2015 9.52223E-05-2.85658E-05-2.85670E-05-1.06338E-09-9.06519E-19 3.67287E-19
 -1      2016 9.52224E-05-2.85655E-05-2.85671E-05-4.88244E-11 5.28574E-19 4.59765E-19
 -1      2017 9.52272E-05-2.85659E-05-2.85692E-05 1.92152E-09 1.05996E-18 1.88095E-18
 -1      2018 9.52226E-05-2.85663E-05-2.85669E-05-2.74956E-09 8.66952E-19 3.82047E-19
 -1      2019 9.52220E-05-2.85659E-05-2.85668E-05-2.18460E-09-6.63950E-19 1.08087E-19
 -1      2020 9.52260E-05-2.85665E-05-2.85684E-05-1.52240E-09-3.09537E-19 5.07193E-19
 -1      2021 9.52237E-05-2.85669E-05-2.85672E-05-3.58752E-09 2.16318E-19-5.90033E-19
 -1      2022 9.52228E-05-2.85665E-05-2.85669E-05-3.33366E-09 8.74229E-19 1.07116E-19
 -1      2023 9.52261E-05-2.85672E-05-2.85681E-05-3.51534E-09 9.68791E-19 1.44592E-19
 -1      2024 9.52253E-05-2.85676E-05-2.85676E-05-3.85562E-09-5.08123E-19-3.62905E-19
 -1      2025 9.52242E-05-2.85672E-05-2.85673E-05-3.80663E-09 4.22492E-19-9.13516E-19
 -1      2026 9.52268E-05-2.85678E-05-2.85681E-05-4.49021E-09 4.64000E-19-6.42184E-19
 -1      2027 9.52270E-05-2.85682E-05-2.85680E-05-3.76244E-09-1.14025E-18-1.79617E-19
 -1      2028 9.52258E-05-2.85678E-05-2.85677E-05-3.83982E-09-1.36476E-18-7.02977E-19
 -1      2029 9.52279E-05-2.85684E-05-2.85684E-05-4.78306E-09-8.37531E-19-1.56169E-18
 -1      2030 9.52287E-05-2.85688E-05-2.85685E-05-3.45877E-09-4.07362E-19-1.51183E-19
 -1      2031 9.52276E-05-2.85684E-05-2.85682E-05-3.60657E-09-7.80263E-19 3.70024E-20
 -1      2032 9.52292E-05-2.85690E-05-2.85687E-05-4.64515E-09-1.27853E-18-1.39150E-18
 -1      2033 9.52302E-05-2.85693E-05-2.85690E-05-3.04963E-09 1.16404E-18-2.95466E-20
 -1      2034 9.52293E-05-2.85690E-05-2.85687E-05-3.22947E-09 5.27913E-19 1.84496E-19
 -1      2035 9.52304E-05-2.85695E-05-2.85690E-05-4.25777E-09-1.80467E-19-5.05730E-19
 -1      2036 9.52316E-05-2.85697E-05-2.85694E-05-2.60507E-09 3.32264E-19-5.26908E-19
 -1      2037 9.52308E-05-2.85695E-05-2.85692E-05-2.79186E-09 9.61971E-19 1.07791E-19
 -1      2038 9.52317E-05-2.85698E-05-2.85693E-05-3.74697E-09 9.16258E-19 7.49571E-19
 -1      2039 9.52328E-05-2.85701E-05-2.85698E-05-2.16929E-09-6.09025E-19-5.44124E-19
 -1      2040 9.52321E-05-2.85698E-05-2.85696E-05-2.34763E-09-2.99653E-19-9.72310E-19
 -1      2041 9.52327E-05-2.85702E-05-2.85697E-05-3.19663E-09 2.23593E-19-9.22156E-19
 -1      2042 9.52339E-05-2.85703E-05-2.85701E-05-1.76793E-09 1.22839E-19 1.53112E-19
 -1      2043 9.52333E-05-2.85702E-05-2.85699E-05-1.92927E-09-1.04355E-18-3.94715E-19
 -1      2044 9.52337E-05-2.85704E-05-2.85700E-05-2.65952E-09-1.14809E-18-1.21153E-18
 -1      2045 9.52347E-05-2.85706E-05-2.85703E-05-1.41362E-09 7.33658E-19 8.29436E-19
 -1      2046 9.52342E-05-2.85704E-05-2.85702E-05-1.55419E-09 9.78523E-19 1.06866E-18
 -1      2047 9.52345E-05-2.85706E-05-2.85702E-05-2.16600E-09-9.54608E-19-3.64481E-19
 -1      2048 9.52354E-05-2.85707E-05-2.85706E-05-1.11019E-09-4.06705E-19 1.76736E-18
 -1      2049 9.52350E-05-2.85706E-05-2.85705E-05-1.22941E-09 2.89790E-19 1.74743E-18
 -1      2050 9.52352E-05-2.85708E-05-2.85704E-05-1.73080E-09-1.58316E-19 1.70611E-18
 -1      2051 9.52359E-05-2.85709E-05-2.85707E-05-8.55648E-10 9.48306E-20 6.81341E-19
 -1      2052 9.52356E-05-2.85708E-05-2.85706E-05-9.55033E-10-2.07265E-19 7.90661E-19
 -1      2053 9.52357E-05-2.85709E-05-2.85706E-05-1.35803E-09 1.49227E-19 2.31095E-18
 -1      2054 9.52363E-05-2.85710E-05-2.85709E-05-6.44217E-10 1.10743E-19 7.22703E-19
 -1      2055 9.52361E-05-2.85709E-05-2.85708E-05-7.26672E-10-3.61579E-19 6.41846E-19
 -1      2056 9.52361E-05-2.85710E-05-2.85708E-05-1.04479E-09-3.41780E-19 3.22330E-19
 -1      2057 9.52366E-05-2.85711E-05-2.85710E-05-4.67797E-10-6.62859E-20-6.30203E-21
 -1      2058 9.52365E-05-2.85710E-05-2.85709E-05-5.37112E-10 1.28487E-18 4.07891E-19
 -1      2059 9.52364E-05-2.85711E-05-2.85709E-05-7.83763E-10 1.83378E-19-1.43580E-19
 -1      2060 9.52368E-05-2.85711E-05-2.85710E-05-3.17100E-10 6.25445E-20 4.41467E-19
 -1      2061 9.52367E-05-2.85711E-05-2.85710E-05-3.77482E-10-7.43832E-19 4.02426E-19
 -1      2062 9.52367E-05-2.85711E-05-2.85710E-05-5.65193E-10-3.12970E-19 3.11244E-19
 -1      2063 9.52370E-05-2.85712E-05-2.85711E-05-1.84545E-10 4.64966E-19 3.78543E-19
 -1      2064 9.52369E-05-2.85711E-05-2.85711E-05-2.39068E-10 1.11228E-18 4.78346E-19
 -1      2065 9.52369E-05-2.85712E-05-2.85710E-05-3.79574E-10 4.63559E-19 1.20531E-18
 -1      2066 9.52371E-05-2.85712E-05-2.85711E-05-7.89138E-11-2.97459E-20 2.80272E-18
 -1      2067 9.52371E-05-2.85712E-05-2.85711E-05-1.22236E-10-4.04229E-19 5.70540E-19
 -1      2068 9.52370E-05-2.85712E-05-2.85711E-05-2.25392E-10-6.37683E-19 1.89377E-18
 -1      2069 9.52371E-05-2.85712E-05-2.85711E-05-1.03160E-10-4.50361E-19 2.79592E-18
 -1      2070 9.52373E-05-2.85716E-05-2.85710E-05-3.17332E-10 2.34601E-18 1.94716E-18
 -1      2071 9.52372E-05-2.85715E-05-2.85710E-05-3.02694E-10 1.21170E-18 1.84010E-18
 -1      2072 9.52372E-05-2.85714E-05-2.85710E-05-2.71488E-10 1.12410E-18 1.03909E-18
 -1      2073 9.52371E-05-2.85713E-05-2.85711E-05-2.35985E-10-2.99588E-20 1.34680E-18
 -1      2074 9.52372E-05-2.85715E-05-2.85710E-05-3.74241E-10 5.37661E-19 1.80583E-18
 -1      2075 9.52371E-05-2.85712E-05-2.85711E-05-1.53941E-10-1.31083E-19 1.41242E-18
 -1      2076 9.52373E-05-2.85717E-05-2.85710E-05-3.10618E-10-4.21729E-19-1.20121E-18
 -1      2077 9.52373E-05-2.85717E-05-2.85710E-05-3.19216E-10-5.39905E-19 2.17602E-18
 -1      2078 9.52373E-05-2.85716E-05-2.85710E-05-4.09298E-10 3.43123E-19-4.99365E-19
 -1      2079 9.52374E-05-2.85719E-05-2.85709E-05-2.53147E-10-1.42211E-18-2.85227E-18
 -1      2080 9.52374E-05-2.85718E-05-2.85710E-05-2.83296E-10-8.74595E-19-1.47456E-18
 -1      2081 9.52374E-05-2.85718E-05-2.85710E-05-3.79451E-10-9.31834E-19-2.20310E-18
 -1      2082 9.52375E-05-2.85720E-05-2.85709E-05-1.55655E-10-1.31581E-18-1.80901E-18
 -1      2083 9.52374E-05-2.85719E-05-2.85709E-05-2.01638E-10-6.67675E-19-2.21867E-18
 -1      2084 9.52375E-05-2.85719E-05-2.85709E-05-2.89593E-10-9.77914E-19-2.33749E-18
 -1      2085 9.52375E-05-2.85720E-05-2.85709E-05-3.42686E-11-3.36292E-18-1.83247E-18
 -1      2086 9.52375E-05-2.85720E-05-2.85709E-05-8.85567E-11-2.14420E-18-1.55005E-18
 -1      2087 9.52375E-05-2.85720E-05-2.85709E-05-1.55313E-10-1.75308E-18-3.14671E-18
 -1      2088 9.52375E-05-2.85720E-05-2.85709E-05 9.22764E-11-2.76017E-18 3.98260E-19
 -1      2089 9.52375E-05-2.85720E-05-2.85709E-05 3.81253E-11-3.44015E-18 1.53748E-19
 -1      2090 9.52375E-05-2.85721E-05-2.85709E-05 2.38112E-12-3.45850E-18-7.02370E-19
 -1      2091 9.52374E-05-2.85719E-05-2.85709E-05 2.04608E-10-3.04107E-18-2.19333E-18
 -1      2092 9.52375E-05-2.85720E-05-2.85709E-05 1.59063E-10-3.95017E-18-7.15869E-19
 -1      2093 9.52375E-05-2.85720E-05-2.85709E-05 1.59733E-10-4.19681E-18-8.04119E-19
 -1      2094 9.52374E-05-2.85718E-05-2.85710E-05 2.83978E-10-3.99322E-18-2.75834E-18
 -1      2095 9.52374E-05-2.85719E-05-2.85709E-05 2.54762E-10-3.87319E-18-2.73441E-18
 -1      2096 9.52374E-05-2.85719E-05-2.85709E-05 2.92106E-10-4.37726E-18-3.79307E-18
 -1      2097 9.52373E-05-2.85717E-05-2.85710E-05 3.19383E-10-1.63288E-18 2.28730E-18
 -1      2098 9.52373E-05-2.85717E-05-2.85710E-05 3.11053E-10-2.67464E-18 1.76270E-18
 -1      2099 9.52374E-05-2.85718E-05-2.85710E-05 3.80089E-10-3.00780E-18-1.20175E-19
 -1      2100 9.52372E-05-2.85715E-05-2.85710E-05 3.01278E-10 3.20931E-19 2.25979E-18
 -1      2101 9.52373E-05-2.85716E-05-2.85710E-05 3.16972E-10 1.36690E-20 5.26302E-19
 -1      2102 9.52373E-05-2.85716E-05-2.85710E-05 4.09243E-10-2.83335E-19 2.69044E-18
 -1      2103 9.52371E-05-2.85713E-05-2.85711E-05 2.31396E-10-6.21994E-19 1.27420E-18
 -1      2104 9.52372E-05-2.85714E-05-2.85710E-05 2.69593E-10-9.81458E-19 2.96700E-18
 -1      2105 9.52372E-05-2.85715E-05-2.85710E-05 3.72509E-10-2.50418E-19 1.87309E-18
 -1      2106 8.17192E-05-2.31777E-05-2.50267E-05 3.90145E-06 2.36815E-18 5.28353E-18
 -1      2107 8.34705E-05-2.33909E-05-2.56697E-05 5.53795E-06 2.76045E-18 6.34557E-18
 -1      2108 8.62263E-05-2.32293E-05-2.70077E-05 7.68836E-06 3.49574E-18 4.25118E-18
 -1      2109 8.50960E-05-2.33878E-05-2.64756E-05 4.44956E-06 2.88347E-18 2.77130E-18
 -1      2110 6.46457E-05-3.44117E-05-1.32960E-05 4.91508E-05 3.81419E-18 4.76604E-18
 -1      2111 4.88855E-05-3.66940E-05-6.31441E-06 4.26417E-05 1.93124E-18 4.78743E-18
 -1      2112 1.46460E-04-3.54013E-05-4.65366E-05 4.25258E-05 6.32712E-18 3.62107E-19
 -1      2113 1.27157E-04-3.89918E-05-3.77463E-05 4.13347E-05 5.17008E-18 5.17961E-19
 -1      2114 1.09744E-05-3.01996E-05 6.91050E-06 1.49745E-05 2.40346E-19 8.42967E-18
 -1      2115 1.02481E-05-3.29704E-05 8.08043E-06 5.46906E-06-2.05910E-18 9.75443E-18
 -1      2116 1.74523E-05 1.83910E-05-1.50376E-05-1.62932E-05-1.87852E-18-8.65879E-18
 -1      2117 2.23716E-05 1.74498E-05-1.65661E-05-1.01986E-05-6.86361E-19-8.17694E-18
 -1      2118 2.69167E-05 1.16170E-05-1.61021E-05-2.65722E-06-2.88732E-19-8.33184E-18
 -1      2119 1.74074E-04-3.10048E-05-5.99430E-05 2.99184E-05 6.98950E-18-2.16459E-18
 -1      2120 1.56403E-04-3.15101E-05-5.32950E-05 3.28171E-05 6.96187E-18-5.15843E-19
 -1      2121 1.89167E-04-2.64034E-05-6.85167E-05 1.51362E-05 8.03707E-18-5.19316E-18
 -1      2122 1.80218E-04-2.64728E-05-6.49301E-05 2.44223E-05 7.76052E-18-2.76090E-18
 -1      2123 1.90226E-04-2.37531E-05-7.03743E-05-8.60028E-08 9.08189E-18-7.83209E-18
 -1      2124 1.87670E-04-2.24144E-05-6.98628E-05 9.01255E-06 8.90316E-18-5.65394E-18
 -1      2125 1.74031E-04-2.12727E-05-6.52583E-05-1.03743E-05 9.44315E-18-8.15269E-18
 -1      2126 1.88975E-04-2.43426E-05-6.91395E-05-4.77651E-06 9.13694E-18-8.10399E-18
 -1      2127 1.65133E-04-1.11219E-05-6.51354E-05 2.66276E-06 9.57867E-18-5.00300E-18
 -1      2128 1.56306E-04-2.63644E-05-5.54740E-05-2.82601E-05 8.80700E-18-1.03440E-17
 -1      2129 1.69726E-04-2.71223E-05-6.08991E-05-1.83985E-05 8.61824E-18-8.62872E-18
 -1      2130 1.20338E-04-2.29795E-05-4.22115E-05-4.40053E-05 8.71555E-18-1.14608E-17
 -1      2131 1.43268E-04-2.74611E-05-4.94233E-05-4.03061E-05 8.68812E-18-1.10191E-17
 -1      2132 8.46843E-05-1.97292E-05-2.85161E-05-4.61839E-05 5.03730E-18-9.89440E-18
 -1      2133 1.05762E-04-2.13904E-05-3.59643E-05-4.98272E-05 7.40900E-18-1.12850E-17
 -1      2134 4.26853E-05-1.14858E-05-1.42951E-05-4.24466E-05 3.05398E-18-1.01888E-17
 -1      2135 6.03561E-05-1.15899E-05-2.10354E-05-4.96989E-05 4.96531E-18-1.07124E-17
 -1      2136 1.77360E-05-9.90453E-06-4.38166E-06-3.36909E-05-4.65021E-19-1.00306E-17
 -1      2137 2.72279E-05-6.48430E-06-9.16559E-06-4.02694E-05 2.90617E-18-1.04621E-17
 -1      2138 3.22476E-06-8.82996E-06 1.51330E-06-2.28229E-05-4.26545E-18-1.05269E-17
 -1      2139 7.55904E-06-6.26495E-06-1.03583E-06-2.86605E-05-7.52165E-19-1.04079E-17
 -1      2140 5.46543E-06-1.18713E-05 1.68278E-06-5.75853E-06-7.24478E-18-1.17509E-17
 -1      2141 1.36856E-06-7.22399E-06 1.77284E-06-1.34585E-05-4.03516E-18-1.10512E-17
 -1      2142 2.69294E-05-2.39971E-05-2.94387E-06 1.18312E-05-1.02207E-17-1.26818E-17
 -1      2143 1.40374E-05-2.01420E-05 6.46621E-07 2.97128E-06-7.81536E-18-1.16408E-17
 -1      2144 7.18351E-05-4.07887E-05-1.49659E-05 2.57323E-05-1.14011E-17-1.30397E-17
 -1      2145 4.80380E-05-3.52806E-05-8.14138E-06 1.73046E-05-1.00492E-17-1.22641E-17
 -1      2146 1.31561E-04-5.93707E-05-3.18660E-05 2.31746E-05-1.08132E-17-1.16285E-17
 -1      2147 9.91402E-05-5.22654E-05-2.26931E-05 2.06302E-05-1.06311E-17-1.17382E-17
 -1      2148 1.85569E-04-6.86700E-05-4.96152E-05 4.82886E-07-9.56851E-18-6.54333E-18
 -1      2149 1.57703E-04-6.55659E-05-4.05869E-05 6.08210E-06-9.44781E-18-8.26196E-18
 -1      2150 2.14033E-04-5.77486E-05-6.50562E-05-1.35099E-05-1.22227E-17-6.42644E-18
 -1      2151 1.92481E-04-5.92290E-05-5.69749E-05-7.78053E-06-1.20472E-17-8.16794E-18
 -1      2152 1.95303E-04-4.63213E-05-6.35195E-05-2.26266E-05-1.17318E-17-3.35806E-18
 -1      2153 1.90378E-04-3.63660E-05-6.57076E-05 4.03060E-06-1.14392E-17-3.11539E-18
 -1      2154 1.76763E-04-5.78716E-05-5.09917E-05-8.91846E-06-6.80295E-18 2.60293E-18
 -1      2155 2.01119E-04-6.12313E-05-5.91625E-05-3.68080E-06-7.26860E-18 1.16552E-18
 -1      2156 1.30756E-04-5.77187E-05-3.29726E-05-2.81098E-05-5.51588E-18 6.45863E-18
 -1      2157 1.60649E-04-5.99213E-05-4.29090E-05-2.80391E-05-6.29473E-18 5.78185E-18
 -1      2158 8.29894E-05-5.07195E-05-1.57181E-05-3.41683E-05-3.83028E-18 6.83407E-18
 -1      2159 1.07677E-04-5.19332E-05-2.46513E-05-3.85748E-05-5.51164E-18 7.48269E-18
 -1      2160 3.84041E-05-3.94367E-05-1.30139E-06-2.61178E-05-2.42590E-18 8.06291E-18
 -1      2161 5.71513E-05-4.10737E-05-7.94984E-06-3.52292E-05-3.97555E-18 7.94580E-18
 -1      2162 1.42982E-05-3.22056E-05 6.03714E-06-5.97159E-06-8.65774E-19 9.86666E-18
 -1      2163 2.16229E-05-3.05661E-05 2.84332E-06-1.75268E-05-2.77446E-18 9.76417E-18
 -1      2164 3.11516E-05-2.90247E-05-1.37501E-06 3.83128E-05 1.01305E-18 6.36778E-18
 -1      2165 2.10289E-05-3.11905E-05 3.21915E-06 2.75151E-05-8.22681E-19 6.83810E-18
 -1      2166 1.07185E-04-4.06935E-05-2.86628E-05 4.91378E-05 3.44022E-18 1.05434E-18
 -1      2167 8.38241E-05-3.91644E-05-2.00057E-05 4.67620E-05 3.74177E-18 3.55330E-18
 -1      2168 8.74457E-05-4.43983E-05-1.83993E-05 5.06281E-05-6.35275E-19 1.67030E-18
 -1      2169 1.70133E-04-6.63240E-05-4.46888E-05 4.47694E-06-2.74809E-19-6.13845E-18
 -1      2170 3.51889E-05 6.01485E-06-1.72765E-05-3.62040E-05-4.96510E-18-8.77251E-18
 -1      2171 7.04305E-05-1.21859E-05-2.48548E-05-3.59799E-05-5.78471E-18-6.49325E-18
 -1      2172 1.62236E-04-6.84091E-05-4.05385E-05-2.93809E-06-2.00747E-18 1.85733E-18
 -1      2173 1.94189E-04-4.54527E-05-6.30156E-05 1.44876E-05-8.89300E-18-5.24102E-18
 -1      2174 1.37129E-04-4.22588E-05-4.05850E-05 6.47482E-06 1.54753E-18 3.76310E-18
 -1      2175 1.57224E-05 1.67721E-05-1.34103E-05-2.24332E-05-2.69902E-18-9.84888E-18
 -1      2176 2.09236E-04-5.24260E-05-6.46384E-05 5.55459E-06-8.52750E-18-1.15027E-18
 -1      2177 9.52371E-05-2.85712E-05-2.85711E-05 1.14136E-10-5.99316E-19 2.57867E-18
 -1      2178 9.52371E-05-2.85713E-05-2.85711E-05-2.53451E-10-5.70616E-19 1.72958E-18
 -1      2179 1.86935E-05-2.09444E-05 5.08075E-07 2.57059E-05-2.31748E-18 8.19335E-18
 -1      2180 9.52371E-05-2.85712E-05-2.85711E-05 1.54627E-10-3.46526E-19 2.95475E-18
 -1      2181 9.52371E-05-2.85713E-05-2.85711E-05 1.99893E-10 5.10961E-19 1.48407E-18
 -1      2182 9.52371E-05-2.85713E-05-2.85710E-05 2.99801E-10-3.86835E-20 2.07974E-18
 -1      2183 9.52371E-05-2.85712E-05-2.85711E-05 2.21308E-10-1.08624E-19 2.14146E-18
 -1      2184 4.82656E-05-3.23089E-05-7.18878E-06 4.60328E-05-2.43607E-18 4.94371E-18
 -1      2185 1.23302E-04-4.58623E-05-3.30673E-05 4.13758E-05 2.64105E-18-5.92076E-19
 -1      2186 1.20524E-04-5.17063E-05-2.89170E-05 4.12571E-05-4.05094E-19-2.39530E-18
 -1      2187 1.36733E-04-5.15901E-05-3.70503E-05 3.09208E-05 9.79064E-19-3.62827E-18
 -1      2188 1.53429E-04-3.99059E-05-4.81186E-05 2.29225E-05 5.02656E-18-3.37966E-18
 -1      2189 1.41229E-05-2.01780E-05 1.92381E-06-3.09425E-06-1.02877E-18 1.03448E-17
 -1      2190 3.68935E-05-2.95456E-05-3.65820E-06-2.74997E-05 7.66565E-19 8.16540E-18
 -1      2191 8.34733E-05-4.96411E-05-1.50938E-05-3.80569E-05 5.44642E-19 5.28310E-18
 -1      2192 1.88276E-04-6.68380E-05-5.17114E-05-2.23539E-05-7.78368E-18-7.63177E-19
 -1      2193 1.58293E-04-7.02617E-05-3.77998E-05 4.68750E-06-5.36934E-18-2.69145E-18
 -1      2194 1.01755E-04-5.21335E-05-2.22780E-05 2.30309E-05-5.07966E-18-8.08112E-18
 -1      2195 4.75684E-05-2.77665E-05-9.66955E-06 1.94240E-05-4.81369E-18-1.08839E-17
 -1      2196 1.29108E-05-6.27224E-06-3.57721E-06 2.18553E-06-3.61376E-18-1.19588E-17
 -1      2197 2.66802E-06 2.07421E-06-2.40631E-06-1.89504E-05-3.47347E-18-1.20130E-17
 -1      2198 1.49329E-05-1.90322E-06-5.93570E-06-3.62975E-05-2.79479E-18-1.14417E-17
 -1      2199 4.20082E-05-1.02556E-05-1.38443E-05-4.65909E-05-1.07023E-18-9.96270E-18
 -1      2200 8.36623E-05-2.33254E-05-2.58691E-05-4.69335E-05 5.80218E-19-8.35725E-18
 -1      2201 1.22449E-04-3.17839E-05-3.86751E-05-3.57771E-05 2.95932E-18-7.26288E-18
 -1      2202 1.65380E-04-2.19130E-05-6.09940E-05-6.91674E-06 8.19674E-18-6.44783E-18
 -1      2203 1.53311E-04-1.49394E-05-5.97858E-05 4.88819E-06 7.70588E-18-3.16473E-18
 -1      2204 1.52391E-04-2.15688E-05-5.60121E-05-9.69917E-07 6.83047E-18-3.32312E-18
 -1      2205 1.69713E-04-1.48073E-05-6.52360E-05 5.92473E-06 9.20344E-18-5.30751E-18
 -1      2206 1.66120E-04-2.58106E-05-5.90224E-05 1.13829E-05 7.33149E-18-4.80776E-18
 -1      2207 1.22209E-04-4.19111E-05-3.44876E-05 1.09212E-05 1.69830E-18 1.10252E-18
 -1      2208 1.48773E-04-2.98988E-05-5.03843E-05-2.07948E-05 6.05026E-18-6.42729E-18
 -1      2209 1.81782E-04-4.65448E-05-5.71247E-05-3.18330E-05-1.02703E-17 1.33365E-18
 -1      2210 1.35477E-04-6.47348E-05-3.05365E-05-2.69348E-05-2.47757E-19 2.51103E-18
 -1      2211 1.88840E-04-6.08624E-05-5.47867E-05-3.19965E-05-7.83294E-18 2.92946E-18
 -1      2212 8.41370E-05-2.06560E-05-2.67146E-05-3.71189E-05-5.86221E-18-6.10557E-18
 -1      2213 6.21389E-05-1.08810E-05-2.20115E-05-4.19263E-05-5.66887E-18-7.19216E-18
 -1      2214 1.13132E-04-3.09692E-05-3.51491E-05-1.79753E-05-4.14347E-18-3.56709E-18
 -1      2215 1.02133E-04-2.78388E-05-3.19012E-05-2.63860E-05-5.23813E-18-4.11313E-18
 -1      2216 1.10552E-04-1.85390E-05-3.96021E-05 1.21482E-05 1.64719E-18-3.59261E-18
 -1      2217 1.13692E-04-2.07366E-05-3.99139E-05 1.02175E-05 7.38105E-19-3.50903E-18
 -1      2218 1.04255E-04-1.55005E-05-3.81541E-05 1.44292E-05 3.07089E-18-3.60815E-18
 -1      2219 1.07393E-04-1.69164E-05-3.88735E-05 1.31563E-05 2.21418E-18-3.71098E-18
 -1      2220 1.10135E-04-1.86536E-05-3.91538E-05 1.36571E-05 2.17706E-18-2.92947E-18
 -1      2221 9.87312E-05-1.43564E-05-3.62569E-05 1.60250E-05 4.08819E-18-3.06900E-18
 -1      2222 1.01430E-04-1.48874E-05-3.71857E-05 1.50008E-05 3.42484E-18-3.50448E-18
 -1      2223 1.03865E-04-1.65820E-05-3.73670E-05 1.46459E-05 3.35158E-18-2.99761E-18
 -1      2224 9.43841E-05-1.50464E-05-3.41164E-05 1.72526E-05 4.86795E-18-1.53525E-18
 -1      2225 9.64424E-05-1.46411E-05-3.51464E-05 1.64258E-05 4.35040E-18-2.45334E-18
 -1      2226 9.86396E-05-1.63448E-05-3.52298E-05 1.52393E-05 4.15936E-18-2.24908E-18
 -1      2227 9.16609E-05-1.78712E-05-3.17257E-05 1.73169E-05 5.03740E-18 1.38064E-18
 -1      2228 9.28001E-05-1.62131E-05-3.28737E-05 1.72914E-05 4.85686E-18-4.19784E-19
 -1      2229 9.45502E-05-1.78397E-05-3.28256E-05 1.53301E-05 4.60034E-18-6.54459E-19
 -1      2230 9.05269E-05-2.12963E-05-2.97396E-05 1.46193E-05 4.53515E-18 4.36591E-18
 -1      2231 9.09038E-05-1.90731E-05-3.07802E-05 1.63469E-05 4.75817E-18 2.54257E-18
 -1      2232 9.15321E-05-2.02117E-05-3.05563E-05 1.38832E-05 4.65519E-18 1.39951E-18
 -1      2233 8.88027E-05-2.22782E-05-2.85140E-05 1.10839E-05 4.16834E-18 3.80405E-18
 -1      2234 1.39864E-04-3.31383E-05-4.59271E-05-1.67129E-05 3.21879E-18-4.09032E-18
 -1      2235 1.48242E-04-3.00562E-05-5.11225E-05-7.88791E-06 4.61284E-18-3.33223E-18
 -1      2236 6.54215E-05-3.50692E-05-1.27465E-05 5.10528E-05-3.36314E-18 2.52098E-18
 -1      2237 4.68497E-05-2.57581E-05-8.62030E-06 4.41593E-05-4.24681E-18 4.20404E-18
 -1      2238 9.52371E-05-2.85713E-05-2.85710E-05-3.26098E-10 1.71871E-19 2.27043E-18
 -1      2239 1.11488E-04-4.18189E-05-2.94010E-05-2.94616E-05 4.24745E-18-2.38212E-18
 -1      2240 1.03641E-04-3.36969E-05-2.95830E-05-3.05146E-05 4.04262E-18-2.16258E-18
 -1      2241 1.01801E-04-2.91609E-05-3.08941E-05-2.74565E-05 3.33075E-18-1.98105E-18
 -1      2242 9.80682E-05-2.55499E-05-3.09658E-05-2.56362E-05 2.76473E-18-1.78110E-18
 -1      2243 8.81327E-05-2.63022E-05-2.63551E-05-3.14488E-05 3.59068E-18-5.24419E-19
 -1      2244 9.89462E-05-2.48562E-05-3.16296E-05-2.23129E-05 1.84452E-18-2.30720E-18
 -1      2245 9.70376E-05-2.38894E-05-3.13685E-05-1.96812E-05 6.40088E-19-1.82725E-18
 -1      2246 8.82140E-05-2.07215E-05-2.88009E-05-2.44998E-05 1.99634E-18-1.29764E-18
 -1      2247 9.83353E-05-2.45351E-05-3.15384E-05-1.68050E-05 6.95493E-20-1.60589E-18
 -1      2248 9.71270E-05-2.45646E-05-3.11386E-05-1.43165E-05 1.17162E-20-1.33841E-18
 -1      2249 9.05731E-05-2.05424E-05-2.99206E-05-1.83866E-05 1.54230E-19-1.16758E-18
 -1      2250 9.81117E-05-2.54530E-05-3.10649E-05-1.20631E-05-1.82575E-19-1.46412E-18
 -1      2251 9.72129E-05-2.57241E-05-3.06698E-05-1.00697E-05-2.26896E-19-1.22939E-18
 -1      2252 9.28649E-05-2.22774E-05-3.01891E-05-1.34004E-05-9.79382E-20-1.12894E-18
 -1      2253 9.77976E-05-2.64634E-05-3.05106E-05-8.39189E-06-5.19929E-19-1.33809E-18
 -1      2254 9.70948E-05-2.67210E-05-3.01806E-05-6.92715E-06-4.13071E-19-1.52968E-18
 -1      2255 9.44033E-05-2.41677E-05-3.00614E-05-9.52954E-06-5.26302E-19-9.69574E-19
 -1      2256 9.73825E-05-2.72427E-05-3.00128E-05-5.72313E-06-8.02150E-19-1.86677E-18
 -1      2257 9.68385E-05-2.74288E-05-2.97592E-05-4.69820E-06-7.64201E-19-2.09636E-18
 -1      2258 9.52547E-05-2.56721E-05-2.97981E-05-6.64930E-06-1.01209E-18-1.55849E-18
 -1      2259 9.69460E-05-2.77684E-05-2.96131E-05-3.85660E-06-6.56394E-19-2.40245E-18
 -1      2260 9.65351E-05-2.78883E-05-2.94270E-05-3.15941E-06-4.60458E-19-2.44949E-18
 -1      2261 9.56432E-05-2.67296E-05-2.95223E-05-4.57721E-06-9.19944E-19-2.05706E-18
 -1      2262 9.65472E-05-2.80994E-05-2.93106E-05-2.58146E-06-3.13793E-19-2.37693E-18
 -1      2263 9.62439E-05-2.81717E-05-2.91776E-05-2.11474E-06-8.41323E-19-1.87137E-18
 -1      2264 9.57649E-05-2.74265E-05-2.92822E-05-3.12288E-06-3.54238E-19-1.70348E-18
 -1      2265 9.62125E-05-2.82990E-05-2.90892E-05-1.72219E-06-1.17624E-18-2.01594E-18
 -1      2266 9.59926E-05-2.83407E-05-2.89957E-05-1.41230E-06-6.06580E-19-1.76230E-18
 -1      2267 9.57514E-05-2.78689E-05-2.90904E-05-2.11904E-06-9.43191E-19-1.64177E-18
 -1      2268 9.59463E-05-2.84157E-05-2.89304E-05-1.14725E-06-5.17256E-19-1.84439E-18
 -1      2269 9.57890E-05-2.84388E-05-2.88654E-05-9.42135E-07-1.23690E-18-1.69754E-18
 -1      2270 9.56802E-05-2.81431E-05-2.89441E-05-1.43327E-06-7.50167E-19-2.07743E-18
 -1      2271 9.57420E-05-2.84822E-05-2.88181E-05-7.63565E-07-1.22467E-18-1.26164E-18
 -1      2272 9.56308E-05-2.84945E-05-2.87731E-05-6.27749E-07-1.14532E-18-1.23348E-18
 -1      2273 9.55927E-05-2.83104E-05-2.88357E-05-9.67352E-07-1.09054E-18-1.39762E-18
 -1      2274 9.55892E-05-2.85192E-05-2.87392E-05-5.07397E-07-9.52759E-19-1.49709E-18
 -1      2275 9.55112E-05-2.85256E-05-2.87082E-05-4.17249E-07 4.50018E-19-1.48861E-18
 -1      2276 9.55089E-05-2.84114E-05-2.87568E-05-6.51424E-07-1.08422E-18-1.63569E-18
 -1      2277 9.54771E-05-2.85395E-05-2.86842E-05-3.35975E-07 1.08808E-18-1.30483E-18
 -1      2278 9.54229E-05-2.85426E-05-2.86630E-05-2.75931E-07 1.50217E-18-1.01894E-18
 -1      2279 9.54369E-05-2.84721E-05-2.87000E-05-4.37126E-07 5.08286E-19-1.27799E-18
 -1      2280 9.53963E-05-2.85503E-05-2.86460E-05-2.20911E-07 1.19135E-18-2.06374E-18
 -1      2281 9.53590E-05-2.85519E-05-2.86315E-05-1.80780E-07 1.24277E-18-2.49543E-18
 -1      2282 9.53789E-05-2.85084E-05-2.86595E-05-2.91528E-07 1.06265E-18-1.71710E-18
 -1      2283 9.53388E-05-2.85562E-05-2.86196E-05-1.43461E-07 6.46966E-19-3.31541E-18
 -1      2284 9.53135E-05-2.85571E-05-2.86098E-05-1.16581E-07 3.02585E-19-3.01853E-18
 -1      2285 9.53342E-05-2.85304E-05-2.86308E-05-1.92427E-07 2.68728E-19-3.45324E-18
 -1      2286 9.52988E-05-2.85595E-05-2.86015E-05-9.12632E-08-2.53993E-19-3.37671E-18
 -1      2287 9.52819E-05-2.85601E-05-2.85950E-05-7.32643E-08-7.80164E-19-3.26996E-18
 -1      2288 9.53008E-05-2.85438E-05-2.86106E-05-1.24914E-07 6.92300E-20-3.44771E-18
 -1      2289 9.52714E-05-2.85615E-05-2.85893E-05-5.61345E-08-7.08437E-19-2.46796E-18
 -1      2290 9.52604E-05-2.85620E-05-2.85849E-05-4.41330E-08 2.49594E-19-1.81520E-18
 -1      2291 9.52766E-05-2.85521E-05-2.85965E-05-7.89763E-08-2.09400E-19-1.90044E-18
 -1      2292 9.52531E-05-2.85629E-05-2.85811E-05-3.26238E-08 1.12822E-18-1.87725E-18
 -1      2293 9.52462E-05-2.85634E-05-2.85783E-05-2.46996E-08 8.53078E-19-1.39925E-18
 -1      2294 9.52595E-05-2.85575E-05-2.85868E-05-4.78586E-08 6.26097E-19-7.26983E-19
 -1      2295 9.52413E-05-2.85640E-05-2.85757E-05-1.70665E-08 1.13204E-18-1.39991E-18
 -1      2296 9.52373E-05-2.85646E-05-2.85740E-05-1.19270E-08 1.47959E-18-1.19549E-18
 -1      2297 9.52479E-05-2.85612E-05-2.85802E-05-2.69732E-08 8.12150E-19-6.26598E-19
 -1      2298 9.52341E-05-2.85650E-05-2.85723E-05-6.97242E-09 1.59441E-18-1.36922E-18
 -1      2299 9.52320E-05-2.85656E-05-2.85713E-05-3.73702E-09 2.32216E-18-6.46737E-19
 -1      2300 9.52403E-05-2.85637E-05-2.85758E-05-1.31750E-08 1.46760E-18-3.32241E-19
 -1      2301 9.52301E-05-2.85659E-05-2.85702E-05-6.30323E-10 2.40457E-18-8.35594E-19
 -1      2302 9.52292E-05-2.85665E-05-2.85697E-05 1.30741E-09 1.42265E-18-4.96237E-19
 -1      2303 9.52355E-05-2.85656E-05-2.85729E-05-4.28727E-09 2.30412E-18-1.45284E-18
 -1      2304 9.52281E-05-2.85668E-05-2.85691E-05 3.14766E-09 1.56020E-20-6.20909E-19
 -1      2305 9.52280E-05-2.85673E-05-2.85689E-05 4.20942E-09-5.90192E-19-9.03322E-19
 -1      2306 9.52328E-05-2.85670E-05-2.85711E-05 1.21103E-09 5.50232E-19-2.68151E-18
 -1      2307 9.52276E-05-2.85676E-05-2.85685E-05 5.19277E-09-7.25403E-19-1.93998E-18
 -1      2308 9.52279E-05-2.85680E-05-2.85685E-05 5.67350E-09 7.44493E-19-2.16270E-18
 -1      2309 9.52315E-05-2.85681E-05-2.85701E-05 4.39049E-09-1.37333E-18-2.40896E-18
 -1      2310 9.52279E-05-2.85683E-05-2.85684E-05 6.08923E-09 1.50129E-18-3.79358E-18
 -1      2311 9.52285E-05-2.85687E-05-2.85685E-05 6.19557E-09 1.41629E-18-3.42051E-18
 -1      2312 9.52311E-05-2.85689E-05-2.85695E-05 6.00823E-09-6.68633E-19-3.46547E-18
 -1      2313 9.52286E-05-2.85689E-05-2.85685E-05 6.24764E-09 2.24539E-19-3.82557E-18
 -1      2314 9.52294E-05-2.85692E-05-2.85686E-05 6.12381E-09-7.22654E-19-3.21035E-18
 -1      2315 9.52312E-05-2.85696E-05-2.85693E-05 6.59999E-09 4.60964E-19-4.38768E-18
 -1      2316 9.52297E-05-2.85694E-05-2.85687E-05 5.95503E-09-7.61616E-19-3.27498E-18
 -1      2317 9.52304E-05-2.85697E-05-2.85689E-05 5.70064E-09-5.40976E-19-2.42169E-18
 -1      2318 9.52317E-05-2.85701E-05-2.85693E-05 6.54334E-09-7.63822E-19-4.12409E-18
 -1      2319 9.52307E-05-2.85698E-05-2.85690E-05 5.40962E-09-1.28442E-19-1.73830E-18
 -1      2320 9.52315E-05-2.85700E-05-2.85692E-05 5.09226E-09 2.69754E-19-1.40377E-18
 -1      2321 9.52324E-05-2.85704E-05-2.85694E-05 6.10185E-09-2.03827E-19-1.62370E-18
 -1      2322 9.52318E-05-2.85701E-05-2.85693E-05 4.74566E-09 4.61652E-19-6.96326E-19
 -1      2323 9.52325E-05-2.85703E-05-2.85695E-05 4.40987E-09 5.21057E-19-1.19073E-18
 -1      2324 9.52331E-05-2.85707E-05-2.85696E-05 5.45652E-09 8.31212E-19-2.12022E-19
 -1      2325 9.52328E-05-2.85704E-05-2.85696E-05 4.05127E-09-1.91057E-19-8.82955E-19
 -1      2326 9.52334E-05-2.85706E-05-2.85698E-05 3.72513E-09-6.75378E-20 4.95614E-19
 -1      2327 9.52338E-05-2.85709E-05-2.85698E-05 4.72857E-09 3.31938E-19-4.11762E-19
 -1      2328 9.52337E-05-2.85706E-05-2.85699E-05 3.38161E-09-2.09749E-18 6.11094E-19
 -1      2329 9.52342E-05-2.85707E-05-2.85700E-05 3.08150E-09-2.38833E-18 1.52497E-18
 -1      2330 9.52344E-05-2.85710E-05-2.85700E-05 3.99613E-09-8.77858E-19 6.40468E-19
 -1      2331 9.52344E-05-2.85708E-05-2.85701E-05 2.76844E-09-8.60926E-19 1.29840E-18
 -1      2332 9.52348E-05-2.85709E-05-2.85703E-05 2.50261E-09 8.57803E-19 1.59782E-18
 -1      2333 9.52350E-05-2.85711E-05-2.85702E-05 3.30663E-09-1.85323E-18 7.22042E-19
 -1      2334 9.52351E-05-2.85709E-05-2.85704E-05 2.22732E-09 1.60207E-18 8.58813E-19
 -1      2335 9.52354E-05-2.85710E-05-2.85705E-05 1.99846E-09 1.75111E-18 3.74591E-19
 -1      2336 9.52354E-05-2.85712E-05-2.85704E-05 2.68585E-09 2.02999E-19 2.20400E-18
 -1      2337 9.52356E-05-2.85710E-05-2.85705E-05 1.76272E-09 2.15416E-18-3.45519E-20
 -1      2338 9.52359E-05-2.85711E-05-2.85706E-05 1.56980E-09 2.16972E-18 2.25609E-19
 -1      2339 9.52358E-05-2.85712E-05-2.85706E-05 2.14470E-09 1.64499E-18 6.36462E-19
 -1      2340 9.52360E-05-2.85711E-05-2.85707E-05 1.37175E-09 2.12150E-18-5.87283E-19
 -1      2341 9.52362E-05-2.85711E-05-2.85708E-05 1.21130E-09 1.65396E-18 1.43725E-19
 -1      2342 9.52362E-05-2.85712E-05-2.85707E-05 1.68406E-09 1.99793E-18-5.93239E-19
 -1      2343 9.52364E-05-2.85711E-05-2.85708E-05 1.04677E-09 6.15399E-19 3.82330E-19
 -1      2344 9.52365E-05-2.85712E-05-2.85709E-05 9.13821E-10 1.49607E-18 1.02336E-18
 -1      2345 9.52364E-05-2.85713E-05-2.85708E-05 1.29823E-09 1.14529E-18-9.87488E-19
 -1      2346 9.52366E-05-2.85712E-05-2.85709E-05 7.77315E-10 1.60063E-18 9.76997E-19
 -1      2347 9.52367E-05-2.85712E-05-2.85709E-05 6.66242E-10 4.40277E-19 1.49430E-18
 -1      2348 9.52367E-05-2.85713E-05-2.85709E-05 9.77453E-10 1.11910E-18-4.04323E-20
 -1      2349 9.52368E-05-2.85712E-05-2.85710E-05 5.51943E-10-6.79204E-19 1.52980E-18
 -1      2350 9.52369E-05-2.85712E-05-2.85710E-05 4.57810E-10-5.91793E-19 1.36128E-18
 -1      2351 9.52368E-05-2.85713E-05-2.85710E-05 7.10823E-10 2.22310E-19-3.71979E-19
 -1      2352 9.52370E-05-2.85712E-05-2.85710E-05 3.75007E-10-1.12498E-18 1.61168E-18
 -1      2353 9.52370E-05-2.85712E-05-2.85711E-05 2.94490E-10 2.05909E-19 2.30789E-18
 -1      2354 9.52370E-05-2.85713E-05-2.85710E-05 3.40501E-10-2.46830E-19 1.68516E-18
 -1      2355 9.52370E-05-2.85713E-05-2.85710E-05 5.03898E-10-2.97654E-19 1.20748E-18
 -1      2356 8.78389E-05-2.47245E-05-2.70420E-05-5.03229E-06 1.44464E-18-7.85386E-19
 -1      2357 8.72932E-05-2.41760E-05-2.70057E-05-3.96387E-06 1.71984E-18-5.27253E-19
 -1      2358 8.70968E-05-2.37678E-05-2.71205E-05-2.43942E-06 2.04928E-18-2.92781E-19
 -1      2359 8.70235E-05-2.34414E-05-2.71973E-05-9.54344E-07 2.39754E-18 1.62433E-19
 -1      2360 9.00543E-05-2.40400E-05-2.83246E-05-3.36224E-06 2.20691E-18-1.06763E-18
 -1      2361 8.72615E-05-2.32309E-05-2.74118E-05 9.63479E-07 2.63055E-18 4.46874E-19
 -1      2362 8.77322E-05-2.30825E-05-2.76531E-05 2.81825E-06 2.87487E-18 9.10539E-19
 -1      2363 9.00512E-05-2.31840E-05-2.86929E-05 3.69730E-07 2.89265E-18-5.70940E-19
 -1      2364 8.92313E-05-2.59867E-05-2.71081E-05-6.60844E-06 1.01206E-18-1.36037E-18
 -1      2365 8.83767E-05-2.53066E-05-2.69955E-05-6.02017E-06 1.25803E-18-9.97122E-19
 -1      2366 9.08576E-05-2.53238E-05-2.81063E-05-6.08020E-06 1.69296E-18-1.64995E-18
 -1      2367 9.08972E-05-2.72871E-05-2.72696E-05-7.12485E-06 8.28627E-19-1.47950E-18
 -1      2368 8.99191E-05-2.66120E-05-2.71110E-05-7.00721E-06 8.37638E-19-1.43223E-18
 -1      2369 9.21561E-05-2.68484E-05-2.79952E-05-7.56942E-06 1.13823E-18-2.09893E-18
 -1      2370 9.24924E-05-2.83755E-05-2.74869E-05-6.74738E-06 5.44491E-19-1.33073E-18
 -1      2371 9.15492E-05-2.78180E-05-2.73083E-05-7.00598E-06 8.43217E-19-1.39584E-18
 -1      2372 9.35566E-05-2.82896E-05-2.79674E-05-7.85864E-06 7.76036E-19-2.28759E-18
 -1      2373 9.37988E-05-2.91173E-05-2.77261E-05-5.77741E-06 5.65153E-19-1.39595E-18
 -1      2374 9.29932E-05-2.87314E-05-2.75490E-05-6.27061E-06 7.05439E-19-1.17481E-18
 -1      2375 9.47489E-05-2.93840E-05-2.80047E-05-7.21074E-06 6.06845E-19-2.29781E-18
 -1      2376 9.47384E-05-2.95047E-05-2.79595E-05-4.53834E-06 2.49242E-19-1.18507E-18
 -1      2377 9.41143E-05-2.92878E-05-2.77998E-05-5.12480E-06 4.13873E-19-1.22782E-18
 -1      2378 9.55836E-05-3.00243E-05-2.80878E-05-6.00220E-06 3.83744E-19-2.05150E-18
 -1      2379 9.53348E-05-2.96113E-05-2.81668E-05-3.29024E-06 9.34532E-20-9.93301E-19
 -1      2380 9.48916E-05-2.95273E-05-2.80340E-05-3.86125E-06 1.65573E-19-1.01035E-18
 -1      2381 9.60548E-05-3.02482E-05-2.81958E-05-4.59168E-06 1.67607E-19-1.69438E-18
 -1      2382 9.56605E-05-2.95382E-05-2.83363E-05-2.19635E-06-1.61448E-19-9.30538E-19
 -1      2383 9.53723E-05-2.95410E-05-2.82339E-05-2.68651E-06 2.17491E-19-6.95623E-19
 -1      2384 9.62386E-05-3.01734E-05-2.83092E-05-3.24163E-06 4.27202E-20-1.33036E-18
 -1      2385 9.57980E-05-2.93760E-05-2.84641E-05-1.32975E-06-2.46210E-19-2.55095E-19
 -1      2386 9.56294E-05-2.94249E-05-2.83911E-05-1.71217E-06-4.61099E-19-4.87106E-19
 -1      2387 9.62342E-05-2.99319E-05-2.84129E-05-2.10037E-06-3.62455E-19-8.41816E-19
 -1      2388 9.58179E-05-2.91895E-05-2.85527E-05-6.98882E-07-3.99636E-20-1.64462E-19
 -1      2389 9.57344E-05-2.92553E-05-2.85050E-05-9.73565E-07 2.78327E-19-1.02356E-19
 -1      2390 9.61281E-05-2.96307E-05-2.84979E-05-1.22192E-06-2.06236E-19-7.67485E-19
 -1      2391 9.57728E-05-2.90163E-05-2.86079E-05-2.75260E-07-4.96998E-19 7.39363E-20
 -1      2392 9.57452E-05-2.90816E-05-2.85803E-05-4.57115E-07-1.72014E-19 1.02546E-19
 -1      2393 9.59816E-05-2.93393E-05-2.85608E-05-5.98560E-07-2.09644E-19-1.20559E-19
 -1      2394 9.56976E-05-2.88734E-05-2.86374E-05-1.52544E-08 3.89433E-19 1.27230E-19
 -1      2395 9.57036E-05-2.89296E-05-2.86243E-05-1.24881E-07-1.30873E-19 2.01830E-19
 -1      2396 9.58315E-05-2.90930E-05-2.86025E-05-1.90682E-07-2.20992E-19-3.27456E-19
 -1      2397 9.56138E-05-2.87648E-05-2.86485E-05 1.26028E-07 5.15614E-19 1.70565E-19
 -1      2398 9.56376E-05-2.88090E-05-2.86451E-05 6.81385E-08 6.43672E-19 4.03921E-20
 -1      2399 9.56961E-05-2.89029E-05-2.86261E-05 5.18551E-08 5.56348E-19-2.55484E-19
 -1      2400 9.55333E-05-2.86871E-05-2.86476E-05 1.87538E-07 3.64532E-19 1.03893E-18
 -1      2401 9.55645E-05-2.87197E-05-2.86501E-05 1.63935E-07 3.54984E-19 7.49659E-19
 -1      2402 9.55825E-05-2.87663E-05-2.86360E-05 1.77160E-07 2.02040E-19 2.06166E-19
 -1      2403 9.54620E-05-2.86345E-05-2.86398E-05 1.99664E-07 1.26222E-19 9.89172E-19
 -1      2404 9.54943E-05-2.86574E-05-2.86454E-05 1.96920E-07 6.86917E-19 1.27455E-18
 -1      2405 9.54914E-05-2.86742E-05-2.86364E-05 2.25389E-07 4.80093E-19 5.14591E-19
 -1      2406 9.54023E-05-2.86008E-05-2.86289E-05 1.84280E-07-7.40710E-19 1.11943E-18
 -1      2407 9.54319E-05-2.86160E-05-2.86356E-05 1.92851E-07 1.13497E-20 9.84747E-19
 -1      2408 9.54205E-05-2.86158E-05-2.86310E-05 2.27068E-07 1.40384E-19 5.13060E-19
 -1      2409 9.53541E-05-2.85803E-05-2.86171E-05 1.56055E-07-1.21257E-18 5.61961E-19
 -1      2410 9.53794E-05-2.85900E-05-2.86238E-05 1.69628E-07-1.08665E-18 9.94538E-19
 -1      2411 9.53664E-05-2.85814E-05-2.86225E-05 2.03747E-07-3.86035E-19 1.38869E-18
 -1      2412 9.53166E-05-2.85688E-05-2.86060E-05 1.24121E-07-1.07982E-18 2.17798E-20
 -1      2413 9.53370E-05-2.85746E-05-2.86120E-05 1.38831E-07-1.19615E-18-1.69815E-19
 -1      2414 9.53259E-05-2.85629E-05-2.86131E-05 1.69628E-07-1.02731E-18 1.22818E-19
 -1      2415 9.52882E-05-2.85631E-05-2.85964E-05 9.36623E-08 9.37416E-20 3.22717E-19
 -1      2416 9.53039E-05-2.85662E-05-2.86014E-05 1.07370E-07-2.08926E-19-1.48379E-20
 -1      2417 9.52961E-05-2.85545E-05-2.86038E-05 1.33389E-07-4.86341E-19 3.22048E-19
 -1      2418 9.52674E-05-2.85608E-05-2.85884E-05 6.72232E-08 4.22375E-19 1.09501E-18
 -1      2419 9.52791E-05-2.85623E-05-2.85924E-05 7.89276E-08 5.15997E-19 3.39906E-19
 -1      2420 9.52745E-05-2.85521E-05-2.85956E-05 9.98248E-08-1.25346E-19 9.59881E-19
 -1      2421 9.52526E-05-2.85606E-05-2.85822E-05 4.57002E-08 5.01710E-19 1.17134E-18
 -1      2422 9.52609E-05-2.85611E-05-2.85852E-05 5.50978E-08 2.37331E-19 1.22565E-18
 -1      2423 9.52591E-05-2.85529E-05-2.85886E-05 7.11731E-08 4.52750E-19 1.33246E-18
 -1      2424 9.52425E-05-2.85614E-05-2.85776E-05 2.90406E-08-2.54188E-19 2.13284E-18
 -1      2425 9.52481E-05-2.85613E-05-2.85797E-05 3.62203E-08 2.64098E-20 1.52765E-18
 -1      2426 9.52485E-05-2.85552E-05-2.85830E-05 4.80946E-08-1.04742E-19 1.68086E-18
 -1      2427 9.52360E-05-2.85627E-05-2.85742E-05 1.67077E-08 4.58461E-19 1.07639E-18
 -1      2428 9.52396E-05-2.85623E-05-2.85757E-05 2.19507E-08 5.82243E-19 1.59067E-18
 -1      2429 9.52413E-05-2.85581E-05-2.85787E-05 3.03601E-08 6.51304E-19 1.18663E-18
 -1      2430 9.52321E-05-2.85642E-05-2.85719E-05 7.97185E-09 1.87989E-18 7.42258E-19
 -1      2431 9.52341E-05-2.85636E-05-2.85729E-05 1.16279E-08 9.12899E-19 8.44823E-19
 -1      2432 9.52367E-05-2.85609E-05-2.85755E-05 1.73018E-08 1.44581E-18 1.65454E-19
 -1      2433 9.52300E-05-2.85655E-05-2.85705E-05 2.07990E-09 1.14383E-19 1.32897E-18
 -1      2434 9.52310E-05-2.85649E-05-2.85710E-05 4.49729E-09 1.61968E-18 9.54672E-19
 -1      2435 9.52339E-05-2.85633E-05-2.85732E-05 8.09245E-09 1.30813E-18 1.74111E-19
 -1      2436 9.52292E-05-2.85667E-05-2.85696E-05-1.65580E-09 1.44626E-19 9.51325E-19
 -1      2437 9.52294E-05-2.85661E-05-2.85699E-05-1.65933E-10-1.55998E-19 1.41383E-18
 -1      2438 9.52324E-05-2.85654E-05-2.85716E-05 1.90669E-09 3.28737E-19 1.15015E-18
 -1      2439 9.52292E-05-2.85677E-05-2.85692E-05-3.81871E-09 1.29885E-18 6.35159E-19
 -1      2440 9.52290E-05-2.85672E-05-2.85693E-05-2.99649E-09 1.15855E-18 9.74524E-19
 -1      2441 9.52318E-05-2.85671E-05-2.85706E-05-1.99676E-09 6.57530E-19 8.59528E-19
 -1      2442 9.52297E-05-2.85686E-05-2.85690E-05-4.87902E-09 9.44640E-19-9.28249E-19
 -1      2443 9.52292E-05-2.85681E-05-2.85690E-05-4.51775E-09 1.57132E-18-3.46944E-19
 -1      2444 9.52317E-05-2.85683E-05-2.85701E-05-4.24094E-09 1.91384E-18 1.72752E-19
 -1      2445 9.52305E-05-2.85692E-05-2.85691E-05-5.20051E-09-1.35011E-18-1.50645E-18
 -1      2446 9.52299E-05-2.85689E-05-2.85690E-05-5.14217E-09-2.31259E-20-1.16279E-18
 -1      2447 9.52320E-05-2.85693E-05-2.85698E-05-5.32507E-09 4.38298E-19-9.60305E-19
 -1      2448 9.52314E-05-2.85698E-05-2.85692E-05-5.05479E-09-1.69462E-18-1.27634E-18
 -1      2449 9.52307E-05-2.85695E-05-2.85691E-05-5.18280E-09-1.99590E-18-1.97035E-18
 -1      2450 9.52325E-05-2.85700E-05-2.85697E-05-5.63399E-09-1.17184E-18-8.71952E-19
 -1      2451 9.52323E-05-2.85702E-05-2.85695E-05-4.63781E-09-1.77512E-19-6.61963E-19
 -1      2452 9.52316E-05-2.85699E-05-2.85693E-05-4.86915E-09-9.18020E-19-1.36747E-18
 -1      2453 9.52331E-05-2.85705E-05-2.85697E-05-5.45429E-09-1.25394E-18-1.47666E-18
 -1      2454 9.52331E-05-2.85705E-05-2.85697E-05-4.08591E-09 7.98936E-19-1.05131E-18
 -1      2455 9.52326E-05-2.85703E-05-2.85696E-05-4.36366E-09 7.43590E-19-7.81328E-19
 -1      2456 9.52338E-05-2.85708E-05-2.85698E-05-4.99239E-09 1.86368E-20-1.59237E-18
 -1      2457 9.52339E-05-2.85707E-05-2.85700E-05-3.48999E-09 1.27666E-19-1.93798E-18
 -1      2458 9.52334E-05-2.85706E-05-2.85698E-05-3.77695E-09 9.93114E-19-8.71050E-19
 -1      2459 9.52343E-05-2.85710E-05-2.85700E-05-4.39166E-09 1.20755E-18-9.45832E-19
 -1      2460 9.52346E-05-2.85709E-05-2.85702E-05-2.90731E-09-1.74445E-18-4.28644E-19
 -1      2461 9.52342E-05-2.85708E-05-2.85700E-05-3.18069E-09-7.62974E-19-7.86127E-19
 -1      2462 9.52349E-05-2.85712E-05-2.85702E-05-3.74750E-09-1.04626E-18-3.52017E-21
 -1      2463 9.52352E-05-2.85710E-05-2.85704E-05-2.37094E-09-1.22880E-18 1.87178E-19
 -1      2464 9.52348E-05-2.85709E-05-2.85703E-05-2.61820E-09-1.28372E-18-3.67829E-19
 -1      2465 9.52354E-05-2.85712E-05-2.85703E-05-3.11985E-09-1.72564E-18 1.23694E-18
 -1      2466 9.52357E-05-2.85711E-05-2.85705E-05-1.89700E-09-2.99092E-19 8.91288E-19
 -1      2467 9.52354E-05-2.85710E-05-2.85705E-05-2.11273E-09-9.63252E-19 2.93443E-19
 -1      2468 9.52358E-05-2.85713E-05-2.85705E-05-2.54312E-09-1.29601E-18-9.53243E-19
 -1      2469 9.52361E-05-2.85711E-05-2.85707E-05-1.49012E-09-2.96404E-19 1.00750E-18
 -1      2470 9.52358E-05-2.85711E-05-2.85706E-05-1.67366E-09 7.46999E-19 1.11061E-18
 -1      2471 9.52361E-05-2.85713E-05-2.85706E-05-2.03391E-09 1.58623E-19-9.90641E-19
 -1      2472 9.52364E-05-2.85712E-05-2.85708E-05-1.14725E-09-3.13044E-19-7.10778E-19
 -1      2473 9.52362E-05-2.85711E-05-2.85707E-05-1.30108E-09-1.01706E-19 1.79869E-19
 -1      2474 9.52364E-05-2.85713E-05-2.85707E-05-1.59666E-09 1.98519E-19-5.29393E-20
 -1      2475 9.52366E-05-2.85712E-05-2.85709E-05-8.60626E-10-2.75101E-20 5.47292E-19
 -1      2476 9.52365E-05-2.85712E-05-2.85709E-05-9.89206E-10-6.08133E-19-5.31700E-19
 -1      2477 9.52366E-05-2.85713E-05-2.85708E-05-1.22810E-09-5.42150E-19 1.08151E-18
 -1      2478 9.52368E-05-2.85712E-05-2.85710E-05-6.20692E-10-1.03868E-18 1.64951E-18
 -1      2479 9.52367E-05-2.85712E-05-2.85709E-05-7.28906E-10-3.47554E-19 1.45622E-18
 -1      2480 9.52368E-05-2.85713E-05-2.85709E-05-9.19825E-10-1.07725E-18 2.54207E-18
 -1      2481 9.52370E-05-2.85713E-05-2.85710E-05-4.17851E-10 6.21420E-19 1.95017E-18
 -1      2482 9.52369E-05-2.85712E-05-2.85710E-05-5.08456E-10-3.43341E-19 1.48713E-18
 -1      2483 9.52369E-05-2.85713E-05-2.85710E-05-6.61004E-10-1.05467E-19 2.35037E-18
 -1      2484 9.52374E-05-2.85719E-05-2.85710E-05-4.40261E-10-6.09081E-19-3.21762E-18
 -1      2485 9.52374E-05-2.85718E-05-2.85710E-05-4.74814E-10 2.31244E-19-3.85449E-18
 -1      2486 9.52373E-05-2.85717E-05-2.85710E-05-4.98646E-10 1.34034E-20-3.02272E-18
 -1      2487 9.52373E-05-2.85716E-05-2.85710E-05-4.97190E-10 1.87793E-18-5.43587E-19
 -1      2488 9.52374E-05-2.85718E-05-2.85710E-05-5.72688E-10 2.69327E-19-2.88536E-18
 -1      2489 9.52372E-05-2.85715E-05-2.85710E-05-4.83381E-10 1.01868E-18 2.44061E-18
 -1      2490 9.52371E-05-2.85714E-05-2.85710E-05-4.48202E-10 2.71092E-19 2.66808E-18
 -1      2491 9.52372E-05-2.85716E-05-2.85710E-05-5.80744E-10 1.13469E-19 1.56555E-18
 -1      2492 2.64870E-05-1.47769E-05-4.68328E-06 2.99136E-05-3.64097E-18 6.36799E-18
 -1      2493 1.79013E-05-1.37404E-05-1.52670E-06 1.59771E-05-2.56153E-18 8.24375E-18
 -1      2494 9.52375E-05-2.85720E-05-2.85709E-05-3.15640E-10-3.99913E-19-2.37151E-18
 -1      2495 9.52375E-05-2.85719E-05-2.85709E-05-3.78635E-10-8.90222E-19-1.68453E-18
 -1      2496 9.52375E-05-2.85720E-05-2.85710E-05-4.78614E-10-6.64831E-19-2.98405E-18
 -1      2497 9.52376E-05-2.85721E-05-2.85709E-05-1.44996E-10-2.42127E-18-3.55107E-18
 -1      2498 9.52376E-05-2.85721E-05-2.85709E-05-2.26487E-10-1.47258E-18-3.44071E-18
 -1      2499 9.52376E-05-2.85721E-05-2.85709E-05-3.16026E-10-1.23162E-18-3.37162E-18
 -1      2500 9.52376E-05-2.85721E-05-2.85709E-05 4.65553E-11-3.64604E-18 1.37233E-19
 -1      2501 9.52376E-05-2.85721E-05-2.85709E-05-4.12427E-11-3.48930E-18-1.52575E-18
 -1      2502 9.52377E-05-2.85721E-05-2.85709E-05-1.08531E-10-2.65306E-18-2.83331E-18
 -1      2503 9.52376E-05-2.85720E-05-2.85709E-05 2.31284E-10-3.97007E-18-2.44563E-18
 -1      2504 9.52376E-05-2.85721E-05-2.85709E-05 1.50172E-10-3.20788E-18 2.49141E-19
 -1      2505 9.52377E-05-2.85721E-05-2.85709E-05 1.14355E-10-2.88031E-18 3.62314E-19
 -1      2506 9.52375E-05-2.85719E-05-2.85709E-05 3.80013E-10-2.55814E-18-4.05658E-18
 -1      2507 9.52375E-05-2.85720E-05-2.85709E-05 3.18538E-10-2.54970E-18-4.37712E-18
 -1      2508 9.52376E-05-2.85721E-05-2.85709E-05 3.19684E-10-1.24751E-18-3.11536E-18
 -1      2509 9.52374E-05-2.85718E-05-2.85710E-05 4.75227E-10-6.84294E-19 2.18612E-18
 -1      2510 9.52374E-05-2.85719E-05-2.85710E-05 4.41097E-10-1.14194E-18-1.53083E-18
 -1      2511 9.52375E-05-2.85720E-05-2.85710E-05 4.79993E-10 8.86288E-19-9.52672E-19
 -1      2512 9.52373E-05-2.85716E-05-2.85710E-05 4.98908E-10 9.10388E-19 2.84658E-18
 -1      2513 9.52373E-05-2.85717E-05-2.85710E-05 4.99052E-10-9.36385E-19 3.42357E-18
 -1      2514 9.52374E-05-2.85718E-05-2.85710E-05 5.72352E-10 7.16463E-19 2.90133E-18
 -1      2515 9.52371E-05-2.85714E-05-2.85710E-05 4.46093E-10-3.01688E-19 9.88812E-19
 -1      2516 9.52372E-05-2.85715E-05-2.85710E-05 4.80283E-10 4.70992E-19 8.80459E-19
 -1      2517 9.52372E-05-2.85716E-05-2.85710E-05 5.81409E-10 1.20507E-18 2.03315E-18
 -1      2518 1.52817E-04-3.90221E-05-4.90373E-05 1.15097E-05 4.44533E-18-5.19972E-18
 -1      2519 1.45902E-04-4.55685E-05-4.31542E-05 1.81800E-05 2.96403E-18-4.77600E-18
 -1      2520 3.36556E-05-1.99509E-05-5.62167E-06-2.45824E-05 2.03997E-18 7.44542E-18
 -1      2521 5.21494E-05-2.99467E-05-9.44519E-06-3.60702E-05 1.99942E-18 5.37802E-18
 -1      2522 1.53107E-04-9.33452E-06-6.21077E-05 1.19337E-06 9.10857E-18-5.32270E-18
 -1      2523 1.55596E-04-1.43226E-05-6.08229E-05 1.89559E-06 8.56964E-18-5.52117E-18
 -1      2524 4.16650E-05-4.55641E-08-1.70851E-05-4.10793E-05-5.65945E-18-8.82058E-18
 -1      2525 2.37942E-05 8.95074E-06-1.38198E-05-3.75010E-05-4.50410E-18-9.61700E-18
 -1      2526 1.16660E-04-2.34420E-05-4.01960E-05 7.86081E-06 2.06530E-20-3.32627E-18
 -1      2527 1.18832E-04-2.59981E-05-3.98032E-05 4.32436E-06-1.08972E-18-3.07513E-18
 -1      2528 1.17041E-04-2.28221E-05-4.03206E-05 1.12289E-05 8.33467E-19-2.51035E-18
 -1      2529 1.20015E-04-2.92169E-05-3.92110E-05-1.17471E-06-1.94173E-18-2.92954E-18
 -1      2530 1.18494E-04-3.07418E-05-3.76620E-05-7.25533E-06-3.23422E-18-2.88926E-18
 -1      2531 1.22789E-04-2.87640E-05-4.02663E-05 4.61263E-06-9.65181E-19-1.97762E-18
 -1      2532 1.43017E-04-6.42456E-05-3.32786E-05 1.20923E-05-1.98883E-18-1.65891E-18
 -1      2533 1.70409E-05-1.19199E-05-1.91130E-06 4.04340E-06-1.11342E-18 8.77187E-18
 -1      2534 2.17823E-05-1.19636E-05-3.71543E-06-1.08204E-05-2.19170E-19 8.72232E-18
 -1      2535 2.49189E-05-7.94829E-06-6.64981E-06 8.84436E-06-1.88642E-18 7.37533E-18
 -1      2536 8.87126E-05-2.41364E-05-2.67437E-05 1.51389E-05 1.92573E-18-3.40740E-18
 -1      2537 1.12280E-04-4.69313E-05-2.82212E-05 1.75951E-05 3.75024E-19-1.82631E-18
 -1      2538 1.56250E-04-2.16708E-05-5.80053E-05 2.59391E-06 7.49052E-18-5.97412E-18
 -1      2539 1.52892E-04-2.82470E-05-5.37117E-05 4.12799E-06 6.18991E-18-5.77274E-18
 -1      2540 1.50365E-04-8.98273E-06-6.11928E-05 4.59218E-06 8.75599E-18-3.74759E-18
 -1      2541 1.52200E-04-7.61775E-06-6.23168E-05 3.37243E-06 9.11323E-18-4.41209E-18
 -1      2542 1.17598E-04-3.37207E-05-3.61325E-05-3.13612E-05 8.15269E-20-4.73703E-18
 -1      2543 1.31269E-04-3.51072E-05-4.15087E-05-2.63623E-05 1.98883E-18-4.67562E-18
 -1      2544 6.89041E-05-1.83205E-05-2.12962E-05-4.64224E-05-3.62911E-18-8.18112E-18
 -1      2545 8.99395E-05-2.52845E-05-2.78153E-05-4.30376E-05-2.44200E-18-6.55143E-18
 -1      2546 1.67531E-05 3.34961E-06-8.30860E-06-3.67388E-05-3.95141E-18-1.06442E-17
 -1      2547 2.92288E-05-1.67898E-06-1.12620E-05-4.34177E-05-3.64161E-18-1.05547E-17
 -1      2548 2.60466E-05-6.18674E-06-8.28310E-06 1.01668E-05-2.51103E-18-1.03253E-17
 -1      2549 1.31244E-05 4.21864E-06-7.18587E-06-1.39349E-07-1.72763E-18-1.05604E-17
 -1      2550 7.48228E-05-3.44469E-05-1.74799E-05 2.48908E-05-2.35941E-18-7.35712E-18
 -1      2551 4.84475E-05-2.00860E-05-1.24040E-05 1.81570E-05-1.63647E-18-8.42586E-18
 -1      2552 1.12938E-04-5.14410E-05-2.64829E-05 1.85818E-05-1.60555E-18-3.11858E-18
 -1      2553 1.73861E-04-6.62039E-05-4.55487E-05-2.97878E-06-3.02179E-18-2.41828E-18
 -1      2554 7.78474E-05-4.22499E-05-1.51800E-05-3.78296E-05 2.80431E-18 3.02984E-18
 -1      2555 1.04798E-04-5.39092E-05-2.21256E-05-3.85794E-05 2.45640E-18 2.00458E-18
 -1      2556 1.00406E-04-4.81487E-05-2.24632E-05 4.85435E-05-2.16967E-18-8.51586E-19
 -1      2557 8.24870E-05-4.32540E-05-1.66812E-05 4.99877E-05-2.80728E-18 1.04733E-18
 -1      2558 9.52371E-05-2.85714E-05-2.85710E-05-4.41845E-10 8.65443E-19 2.66971E-18
 -1      2559 9.73706E-05-2.78636E-05-2.97318E-05-3.31614E-05-4.73841E-18-4.86929E-18
 -1      2560 1.21039E-04-3.35644E-05-3.74807E-05-1.06565E-05-2.98836E-18-2.36744E-18
 -1      2561 1.36091E-04-3.57399E-05-4.30456E-05-1.28476E-05 5.17775E-19-2.50002E-18
 -1      2562 8.84525E-05-2.28265E-05-2.80859E-05 9.00580E-06 3.71785E-18 3.32983E-18
 -1      2563 9.00260E-05-2.19328E-05-2.91582E-05 1.06015E-05 4.03446E-18 2.09983E-18
 -1      2564 8.76912E-05-2.29424E-05-2.77039E-05 7.14967E-06 3.44377E-18 2.52852E-18
 -1      2565 8.01857E-05-3.96968E-05-1.69710E-05 4.90999E-05-4.52866E-18 1.14614E-18
 -1      2566 5.55200E-05-2.31603E-05-1.34554E-05 4.18903E-05-5.23382E-18 3.26679E-18
 -1      2567 4.06808E-05-1.91579E-05-8.64225E-06 3.81036E-05-4.39451E-18 5.12370E-18
 -1      2568 3.63193E-05-1.21575E-05-9.85902E-06 2.97812E-05-4.35142E-18 5.52943E-18
 -1      2569 1.58988E-04-7.05963E-05-3.80623E-05-1.20887E-05 1.05053E-18-2.76344E-18
 -1      2570 1.32744E-05 1.31944E-05-1.06200E-05-2.91164E-05-3.92822E-18-1.06112E-17
 -1      2571 7.88749E-06 1.58637E-05-9.74158E-06-1.92373E-05-2.31846E-18-1.05265E-17
 -1      2572 1.16464E-04-4.92235E-05-2.83290E-05-3.02041E-05 4.86324E-18-2.15657E-18
 -1      2573 9.39043E-05-3.95520E-05-2.32557E-05-3.71290E-05 4.07444E-18-3.09167E-20
 -1      2574 9.52371E-05-2.85714E-05-2.85710E-05-5.57281E-10 5.12377E-19 3.22440E-18
 -1      2575 1.36096E-04-6.38103E-05-3.09910E-05-2.23264E-05 2.06528E-18-1.28262E-18
 -1      2576 1.43621E-04-4.95052E-05-4.06984E-05 1.02372E-05 1.12462E-18-5.46103E-18
 -1      2577 1.42706E-04-5.09365E-05-3.93734E-05 2.13777E-05 1.28797E-18-4.60002E-18
 -1      2578 1.36671E-04-5.39131E-05-3.53002E-05 2.39451E-05-6.21140E-19-4.83592E-18
 -1      2579 1.48236E-04-3.47455E-05-4.88037E-05 1.26153E-06 4.64386E-18-6.40611E-18
 -1      2580 8.75012E-05-2.30813E-05-2.75515E-05 4.18403E-06 3.04547E-18 1.30904E-18
 -1      2581 8.77883E-05-2.30334E-05-2.76969E-05 5.76849E-06 3.18995E-18 1.90515E-18
 -1      2582 8.97071E-05-2.26742E-05-2.87412E-05 6.93992E-06 3.59616E-18 1.10582E-18
 -1      2583 9.00512E-05-2.28241E-05-2.88395E-05 3.98184E-06 3.25919E-18 1.34304E-19
 -1      2584 7.39259E-05-3.47032E-05-1.62699E-05-3.66738E-05 3.55203E-18 3.19067E-18
 -1      2585 1.78479E-05 1.15659E-05-1.22443E-05-3.26387E-06-5.60683E-19-9.68180E-18
 -1      2586 3.38818E-05 4.79285E-06-1.56267E-05 5.36857E-06 5.70583E-19-8.38605E-18
 -1      2587 1.24308E-04-5.50292E-05-3.00156E-05 3.46527E-05-2.07978E-18-3.76665E-18
 -1      2588 1.13826E-04-5.23407E-05-2.61400E-05 4.28166E-05-1.84865E-18-2.12108E-18
 -1      2589 1.08642E-04-5.12186E-05-2.42088E-05 4.36237E-05-3.62424E-18-1.88429E-18
 -1      2590 1.45288E-04-1.57917E-05-5.56118E-05-3.42108E-06 7.34526E-18-6.02018E-18
 -1      2591 4.79809E-05-1.20212E-05-1.52791E-05 1.46411E-05-1.14349E-20-7.93691E-18
 -1      2592 1.46802E-04-1.10338E-05-5.85064E-05 6.77756E-06 7.87952E-18-3.05027E-18
 -1      2593 1.36442E-04-6.46247E-06-5.61778E-05 8.25726E-06 7.58179E-18-2.35068E-18
 -1      2594 1.39547E-04-1.24221E-05-5.50082E-05 8.59041E-06 6.89824E-18-1.99243E-18
 -1      2595 1.47542E-04-2.59870E-05-5.22376E-05 1.38000E-08 4.92867E-18-2.57180E-18
 -1      2596 1.41543E-04-2.07836E-05-5.24995E-05 8.18122E-06 4.94424E-18-1.26473E-18
 -1      2597 1.40848E-04-2.88700E-05-4.81449E-05 1.48494E-06 3.01438E-18-1.28093E-18
 -1      2598 5.28778E-05-9.00905E-06-1.84111E-05-4.46702E-05-4.93990E-18-8.47478E-18
 -1      2599 1.29726E-04-5.94781E-05-2.98700E-05-2.50192E-05 4.09350E-18-2.08381E-18
 -1      2600 5.57437E-05-9.47581E-06-1.95037E-05 1.36358E-05 1.20766E-18-6.25703E-18
 -1      2601 1.42485E-04-6.13353E-06-5.86846E-05 1.89975E-06 8.52242E-18-4.27625E-18
 -1      2602 3.52345E-05-1.36681E-05-8.67145E-06-1.85859E-05 1.29353E-18 6.84657E-18
 -1      2603 4.32386E-05-7.03876E-06-1.55452E-05-4.60699E-05-3.26764E-18-9.30127E-18
 -1      2604 9.89878E-06 1.13506E-05-8.37920E-06-9.66650E-06-2.21144E-18-1.09369E-17
 -1      2605 3.34597E-06 7.50851E-06-4.44667E-06-1.77215E-05-3.04355E-18-1.17577E-17
 -1      2606 5.19263E-06 6.51576E-06-4.67853E-06-2.86843E-05-3.17150E-18-1.16670E-17
 -1      2607 9.52371E-05-2.85713E-05-2.85710E-05 3.78091E-10-8.06003E-19 1.24912E-18
 -1      2608 9.52371E-05-2.85714E-05-2.85710E-05 4.94295E-10-3.42054E-19 1.02876E-18
 -1      2609 1.08316E-04-1.78357E-05-3.88590E-05 1.40875E-05 2.88080E-18-2.67878E-18
 -1      2610 1.11844E-04-1.94231E-05-3.96931E-05 1.36418E-05 2.11884E-18-2.45627E-18
 -1      2611 9.16629E-05-2.13369E-05-3.01332E-05 1.16797E-05 4.16602E-18 1.16262E-18
 -1      2612 9.26750E-05-2.01681E-05-3.10922E-05 1.27881E-05 4.42843E-18 2.65191E-19
 -1      2613 9.12340E-05-2.17912E-05-2.97298E-05 9.52052E-06 3.89623E-18 8.49237E-19
 -1      2614 1.70542E-05 6.68552E-06-9.76399E-06-3.56333E-05-3.97004E-18-1.10027E-17
 -1      2615 1.27658E-04-3.56939E-05-3.94455E-05-9.40135E-06-1.95290E-18-2.18804E-18
 -1      2616 1.20612E-04-3.57556E-05-3.65987E-05-2.12770E-05-2.75127E-18-2.93505E-18
 -1      2617 7.01057E-05-2.67459E-05-1.81503E-05-3.42850E-05 3.75627E-18 2.50171E-18
 -1      2618 9.52371E-05-2.85715E-05-2.85710E-05-6.82440E-10-6.31723E-19 2.87717E-18
 -1      2619 9.52370E-05-2.85714E-05-2.85710E-05-6.75519E-10-1.60506E-19 1.91441E-18
 -1      2620 9.52370E-05-2.85714E-05-2.85710E-05-7.98332E-10-7.86798E-19 2.40419E-18
 -1      2621 7.80808E-05-1.62566E-05-2.62820E-05-2.25436E-05 1.69441E-18-6.00335E-20
 -1      2622 7.90519E-05-1.54710E-05-2.72613E-05-1.96115E-05 7.67121E-19-8.41977E-19
 -1      2623 8.34115E-05-1.68670E-05-2.84499E-05-1.70398E-05 1.59226E-19-1.13408E-18
 -1      2624 8.48069E-05-1.76997E-05-2.88343E-05-1.45954E-05-2.99072E-19-1.08860E-18
 -1      2625 7.43726E-05-1.26319E-05-2.62408E-05-1.52645E-05 4.49209E-20-5.12964E-19
 -1      2626 8.79981E-05-1.94266E-05-2.93570E-05-1.27227E-05-1.66141E-19-8.75749E-19
 -1      2627 8.90467E-05-2.05534E-05-2.94178E-05-1.07441E-05-1.37128E-19-1.04219E-18
 -1      2628 8.17552E-05-1.59112E-05-2.80827E-05-1.15833E-05-2.71716E-19-1.39762E-18
 -1      2629 9.11966E-05-2.20677E-05-2.96045E-05-9.32595E-06-5.12653E-19-1.06124E-18
 -1      2630 9.18282E-05-2.30367E-05-2.95279E-05-7.78640E-06-7.71564E-19-1.24089E-18
 -1      2631 8.69606E-05-1.93690E-05-2.88822E-05-8.77474E-06-2.76042E-19-1.36667E-18
 -1      2632 9.31958E-05-2.41822E-05-2.95570E-05-6.70380E-06-1.18283E-18-1.12561E-18
 -1      2633 9.35169E-05-2.48990E-05-2.94387E-05-5.55477E-06-1.54416E-18-1.16777E-18
 -1      2634 9.03684E-05-2.22090E-05-2.91582E-05-6.54484E-06-1.15672E-18-1.34788E-18
 -1      2635 9.43477E-05-2.57010E-05-2.94023E-05-4.74304E-06-1.04053E-18-1.13081E-18
 -1      2636 9.44782E-05-2.61933E-05-2.92854E-05-3.91289E-06-6.02006E-19-7.17348E-19
 -1      2637 9.24958E-05-2.43112E-05-2.91900E-05-4.79699E-06-1.43053E-18-3.24876E-19
 -1      2638 9.49633E-05-2.67299E-05-2.92284E-05-3.31697E-06-2.61715E-19-7.54585E-19
 -1      2639 9.49905E-05-2.70541E-05-2.91289E-05-2.73095E-06-9.87844E-20-8.39284E-19
 -1      2640 9.37700E-05-2.57764E-05-2.91215E-05-3.46254E-06-4.52222E-19-4.05918E-20
 -1      2641 9.52627E-05-2.74032E-05-2.90715E-05-2.30128E-06-1.19751E-18-1.45202E-18
 -1      2642 9.52411E-05-2.76113E-05-2.89927E-05-1.89386E-06-1.97368E-18-1.68950E-18
 -1      2643 9.45046E-05-2.67609E-05-2.90227E-05-2.46977E-06-1.10348E-18-7.72625E-19
 -1      2644 9.53869E-05-2.78343E-05-2.89427E-05-1.58813E-06-1.43168E-18-1.86354E-18
 -1      2645 9.53466E-05-2.79658E-05-2.88828E-05-1.30747E-06-1.06467E-18-2.15284E-18
 -1      2646 9.49113E-05-2.74069E-05-2.89249E-05-1.74616E-06-1.74078E-18-1.70289E-18
 -1      2647 9.54198E-05-2.81067E-05-2.88424E-05-1.09180E-06-7.71088E-19-2.01818E-18
 -1      2648 9.53765E-05-2.81890E-05-2.87980E-05-8.99363E-07-9.19439E-19-1.59287E-18
 -1      2649 9.51251E-05-2.78245E-05-2.88404E-05-1.22630E-06-9.94906E-19-1.76669E-18
 -1      2650 9.54095E-05-2.82775E-05-2.87665E-05-7.48000E-07-1.16982E-18-1.65010E-18
 -1      2651 9.53702E-05-2.83288E-05-2.87341E-05-6.16259E-07-7.63273E-19-1.53432E-18
 -1      2652 9.52294E-05-2.80920E-05-2.87720E-05-8.56338E-07-8.97904E-19-1.73497E-18
 -1      2653 9.53819E-05-2.83841E-05-2.87102E-05-5.10298E-07-1.73568E-19-9.97796E-19
 -1      2654 9.53492E-05-2.84161E-05-2.86869E-05-4.20079E-07 8.57009E-19-8.37085E-19
 -1      2655 9.52738E-05-2.82626E-05-2.87187E-05-5.94562E-07-2.41133E-19-8.08515E-19
 -1      2656 9.53504E-05-2.84508E-05-2.86691E-05-3.45983E-07 6.11369E-19-7.30382E-19
 -1      2657 9.53246E-05-2.84709E-05-2.86524E-05-2.84126E-07 4.32242E-19-1.89498E-18
 -1      2658 9.52870E-05-2.83713E-05-2.86782E-05-4.09941E-07 6.10067E-19-3.24688E-19
 -1      2659 9.53212E-05-2.84927E-05-2.86392E-05-2.32351E-07 1.60216E-19-2.25207E-18
 -1      2660 9.53015E-05-2.85054E-05-2.86274E-05-1.89902E-07 6.54165E-19-2.20045E-18
 -1      2661 9.52854E-05-2.84408E-05-2.86478E-05-2.79995E-07 2.34481E-19-4.25874E-19
 -1      2662 9.52966E-05-2.85192E-05-2.86178E-05-1.53780E-07 6.47021E-19-1.98792E-18
 -1      2663 9.52822E-05-2.85275E-05-2.86094E-05-1.24664E-07 4.52552E-19-1.43162E-18
 -1      2664 9.52777E-05-2.84855E-05-2.86254E-05-1.88707E-07 8.31784E-19-9.63180E-19
 -1      2665 9.52772E-05-2.85363E-05-2.86025E-05-9.95475E-08-1.65629E-19-1.19281E-18
 -1      2666 9.52669E-05-2.85418E-05-2.85967E-05-7.96376E-08 1.58917E-19-4.00774E-19
 -1      2667 9.52684E-05-2.85145E-05-2.86090E-05-1.24766E-07 4.30721E-19-3.20588E-19
 -1      2668 9.52627E-05-2.85475E-05-2.85917E-05-6.22809E-08 3.81694E-19 1.35118E-19
 -1      2669 9.52555E-05-2.85512E-05-2.85876E-05-4.87581E-08 1.20733E-18 7.49334E-19
 -1      2670 9.52598E-05-2.85336E-05-2.85971E-05-8.01991E-08 4.28341E-19 6.65089E-19
 -1      2671 9.52521E-05-2.85550E-05-2.85841E-05-3.68861E-08 4.73967E-19 2.75591E-19
 -1      2672 9.52473E-05-2.85576E-05-2.85814E-05-2.78106E-08 5.83084E-19 3.30449E-19
 -1      2673 9.52526E-05-2.85463E-05-2.85886E-05-4.93863E-08 3.52465E-19 8.81481E-19
 -1      2674 9.52448E-05-2.85601E-05-2.85789E-05-1.98175E-08 9.23750E-19-1.39268E-19
 -1      2675 9.52417E-05-2.85619E-05-2.85771E-05-1.38430E-08 8.82957E-19-6.88947E-19
 -1      2676 9.52470E-05-2.85548E-05-2.85825E-05-2.83448E-08 5.17825E-19 1.13967E-19
 -1      2677 9.52398E-05-2.85636E-05-2.85754E-05-8.58758E-09 1.33807E-18-1.85948E-18
 -1      2678 9.52380E-05-2.85650E-05-2.85742E-05-4.77082E-09 1.65441E-18-2.75351E-18
 -1      2679 9.52429E-05-2.85606E-05-2.85782E-05-1.42380E-08 1.43019E-19-1.59673E-18
 -1      2680 9.52367E-05-2.85661E-05-2.85730E-05-1.43691E-09 8.56068E-19-3.07582E-18
 -1      2681 9.52357E-05-2.85671E-05-2.85723E-05 8.87724E-10-1.75609E-19-3.18659E-18
 -1      2682 9.52400E-05-2.85646E-05-2.85753E-05-5.03363E-09 6.38928E-19-3.27549E-18
 -1      2683 9.52349E-05-2.85679E-05-2.85715E-05 2.88652E-09-1.16714E-18-2.23232E-18
 -1      2684 9.52345E-05-2.85686E-05-2.85711E-05 4.19152E-09-1.85001E-18-2.67321E-18
 -1      2685 9.52381E-05-2.85673E-05-2.85733E-05 7.31008E-10-2.81663E-19-2.84317E-18
 -1      2686 9.52340E-05-2.85691E-05-2.85706E-05 5.27710E-09-1.88905E-18-2.14440E-18
 -1      2687 9.52339E-05-2.85697E-05-2.85704E-05 5.89855E-09 3.37035E-19-2.78608E-18
 -1      2688 9.52369E-05-2.85691E-05-2.85720E-05 4.11162E-09-1.43125E-18-1.67652E-18
 -1      2689 9.52336E-05-2.85700E-05-2.85701E-05 6.37395E-09 1.13869E-18-2.66212E-18
 -1      2690 9.52338E-05-2.85704E-05-2.85700E-05 6.55039E-09-5.08455E-19-2.32366E-18
 -1      2691 9.52362E-05-2.85703E-05-2.85711E-05 5.86982E-09 6.01787E-19 3.46606E-19
 -1      2692 9.52337E-05-2.85706E-05-2.85699E-05 6.63200E-09-1.26072E-18-2.41645E-18
 -1      2693 9.52340E-05-2.85709E-05-2.85699E-05 6.53160E-09-3.04251E-19-2.07494E-18
 -1      2694 9.52359E-05-2.85711E-05-2.85706E-05 6.55297E-09-7.51709E-19 1.32815E-19
 -1      2695 9.52339E-05-2.85710E-05-2.85698E-05 6.37228E-09 1.06410E-20-2.24045E-18
 -1      2696 9.52343E-05-2.85712E-05-2.85699E-05 6.11211E-09-1.01436E-19-1.54428E-18
 -1      2697 9.52358E-05-2.85716E-05-2.85704E-05 6.55130E-09-4.62801E-20-8.19363E-19
 -1      2698 9.52343E-05-2.85712E-05-2.85699E-05 5.81809E-09 7.19099E-19-1.12222E-18
 -1      2699 9.52346E-05-2.85714E-05-2.85700E-05 5.47807E-09 1.48644E-18 1.26212E-19
 -1      2700 9.52358E-05-2.85718E-05-2.85703E-05 6.13949E-09 8.72651E-19-6.02190E-19
 -1      2701 9.52347E-05-2.85714E-05-2.85700E-05 5.12147E-09 9.75615E-19-9.71039E-19
 -1      2702 9.52350E-05-2.85715E-05-2.85701E-05 4.75458E-09-2.09521E-19-6.32256E-19
 -1      2703 9.52359E-05-2.85720E-05-2.85703E-05 5.50729E-09 4.99401E-19-3.12698E-19
 -1      2704 9.52351E-05-2.85715E-05-2.85701E-05 4.38269E-09-1.02636E-18-7.63106E-20
 -1      2705 9.52354E-05-2.85715E-05-2.85702E-05 4.02252E-09-8.61670E-19 2.30807E-19
 -1      2706 9.52361E-05-2.85720E-05-2.85703E-05 4.78232E-09-4.83988E-19-1.58176E-18
 -1      2707 9.52355E-05-2.85715E-05-2.85703E-05 3.66476E-09-1.71012E-18 4.98505E-19
 -1      2708 9.52358E-05-2.85715E-05-2.85704E-05 3.33111E-09-1.18024E-18 1.78892E-18
 -1      2709 9.52362E-05-2.85719E-05-2.85704E-05 4.04712E-09-1.74932E-18 1.05961E-18
 -1      2710 9.52358E-05-2.85715E-05-2.85704E-05 3.00425E-09-2.68660E-19 2.26544E-18
 -1      2711 9.52361E-05-2.85715E-05-2.85705E-05 2.70726E-09 3.41611E-19 1.87356E-18
 -1      2712 9.52364E-05-2.85719E-05-2.85705E-05 3.35191E-09-6.48828E-19 2.25144E-18
 -1      2713 9.52361E-05-2.85715E-05-2.85706E-05 2.41931E-09 9.63766E-19 1.21170E-18
 -1      2714 9.52363E-05-2.85715E-05-2.85706E-05 2.16256E-09 1.61399E-18 5.77234E-19
 -1      2715 9.52366E-05-2.85718E-05-2.85706E-05 2.72416E-09-8.90819E-20 1.47802E-18
 -1      2716 9.52364E-05-2.85715E-05-2.85707E-05 1.91561E-09 1.10850E-18 1.34969E-19
 -1      2717 9.52365E-05-2.85715E-05-2.85707E-05 1.69826E-09 1.67789E-18-4.69271E-19
 -1      2718 9.52367E-05-2.85717E-05-2.85707E-05 2.17579E-09 5.75238E-19 3.32173E-19
 -1      2719 9.52366E-05-2.85714E-05-2.85708E-05 1.49034E-09 1.40328E-18-1.01286E-18
 -1      2720 9.52367E-05-2.85714E-05-2.85708E-05 1.30878E-09 1.01803E-18-3.63303E-19
 -1      2721 9.52368E-05-2.85716E-05-2.85708E-05 1.70792E-09 6.67476E-19 1.46048E-19
 -1      2722 9.52367E-05-2.85714E-05-2.85709E-05 1.13596E-09 1.54753E-18-1.24512E-18
 -1      2723 9.52368E-05-2.85714E-05-2.85709E-05 9.84270E-10 7.99373E-19-1.22948E-18
 -1      2724 9.52369E-05-2.85716E-05-2.85709E-05 1.31588E-09 5.94543E-19-6.44397E-19
 -1      2725 9.52369E-05-2.85714E-05-2.85709E-05 8.40581E-10 1.56381E-19-3.22290E-19
 -1      2726 9.52370E-05-2.85714E-05-2.85710E-05 7.14148E-10 8.80222E-19-2.61494E-19
 -1      2727 9.52370E-05-2.85715E-05-2.85709E-05 9.88590E-10 1.55447E-18-9.26104E-19
 -1      2728 9.52370E-05-2.85714E-05-2.85710E-05 5.82706E-10 2.15579E-19 5.72601E-19
 -1      2729 9.26797E-05-2.39739E-05-2.94526E-05-4.23711E-06 2.17331E-18-1.61032E-18
 -1      2730 9.24676E-05-2.32613E-05-2.96178E-05-2.50945E-06 2.53972E-18-1.30757E-18
 -1      2731 9.36720E-05-2.58129E-05-2.91007E-05-6.96246E-06 1.67804E-18-1.94789E-18
 -1      2732 9.31188E-05-2.48558E-05-2.92130E-05-5.84985E-06 1.94011E-18-1.81557E-18
 -1      2733 9.52945E-05-2.42589E-05-3.04661E-05-5.24459E-06 2.21769E-18-2.19195E-18
 -1      2734 9.24270E-05-2.26865E-05-2.98804E-05-3.08923E-07 2.83179E-18-1.06155E-18
 -1      2735 9.26573E-05-2.22861E-05-3.01234E-05 1.86595E-06 3.14629E-18-9.14068E-19
 -1      2736 9.47696E-05-2.24796E-05-3.10133E-05-1.21641E-06 2.89445E-18-1.58277E-18
 -1      2737 9.62393E-05-2.95300E-05-2.86055E-05-8.19164E-06 6.98096E-19-2.31146E-18
 -1      2738 9.55723E-05-2.87136E-05-2.86356E-05-8.32429E-06 9.52719E-19-2.34794E-18
 -1      2739 9.70770E-05-3.06528E-05-2.84745E-05-7.20421E-06 5.49563E-19-2.54119E-18
 -1      2740 9.65649E-05-3.01268E-05-2.84714E-05-7.72316E-06 7.45619E-19-2.31701E-18
 -1      2741 9.86061E-05-3.06854E-05-2.90970E-05-8.29501E-06 7.44406E-19-2.60803E-18
 -1      2742 9.74501E-05-3.11427E-05-2.84160E-05-5.74547E-06 9.09421E-20-2.28166E-18
 -1      2743 9.71284E-05-3.09105E-05-2.83887E-05-6.44598E-06 3.33714E-19-2.42136E-18
 -1      2744 9.89926E-05-3.17245E-05-2.88197E-05-6.99751E-06 3.90080E-19-2.69907E-18
 -1      2745 9.74422E-05-3.11289E-05-2.84129E-05-4.20329E-06 1.33308E-19-1.89678E-18
 -1      2746 9.72881E-05-3.11228E-05-2.83720E-05-4.92219E-06 9.30409E-20-2.02822E-18
 -1      2747 9.88766E-05-3.20261E-05-2.86459E-05-5.35978E-06 4.27385E-20-2.41154E-18
 -1      2748 9.71964E-05-3.08048E-05-2.84440E-05-2.82361E-06-6.24767E-19-1.21967E-18
 -1      2749 9.71615E-05-3.09352E-05-2.83994E-05-3.45939E-06-1.36328E-20-1.60176E-18
 -1      2750 9.84232E-05-3.17908E-05-2.85572E-05-3.75998E-06-1.24989E-19-1.49422E-18
 -1      2751 9.68454E-05-3.03465E-05-2.84899E-05-1.71928E-06-6.51012E-19-9.56590E-19
 -1      2752 9.68812E-05-3.05354E-05-2.84488E-05-2.22621E-06-5.85490E-19-1.13829E-18
 -1      2753 9.78174E-05-3.12603E-05-2.85279E-05-2.40603E-06-7.39594E-19-1.57287E-18
 -1      2754 9.64828E-05-2.98781E-05-2.85364E-05-9.09630E-07-1.48155E-19-6.86370E-19
 -1      2755 9.65516E-05-3.00721E-05-2.85031E-05-1.28112E-06-4.45184E-19-8.74350E-19
 -1      2756 9.72013E-05-3.06342E-05-2.85334E-05-1.37029E-06-5.81857E-19-1.22778E-18
 -1      2757 9.61603E-05-2.94689E-05-2.85754E-05-3.61919E-07-3.93521E-19-8.22572E-19
 -1      2758 9.62379E-05-2.96386E-05-2.85513E-05-6.13432E-07-8.12537E-20-6.66938E-19
 -1      2759 9.66585E-05-3.00420E-05-2.85545E-05-6.41689E-07-2.94800E-19-1.02339E-18
 -1      2760 9.58984E-05-2.91460E-05-2.86034E-05-2.22839E-08-6.32100E-20-1.07258E-18
 -1      2761 9.59715E-05-2.92799E-05-2.85881E-05-1.78384E-07-3.54298E-19-8.72842E-19
 -1      2762 9.62228E-05-2.95484E-05-2.85786E-05-1.69434E-07-2.21582E-19-1.44907E-18
 -1      2763 9.56983E-05-2.89103E-05-2.86202E-05 1.65353E-07 2.16068E-19-4.00305E-19
 -1      2764 9.57612E-05-2.90081E-05-2.86122E-05 7.90958E-08 1.46946E-19-9.06777E-19
 -1      2765 9.58959E-05-2.91723E-05-2.85988E-05 1.08373E-07-1.61911E-19-1.60627E-18
 -1      2766 9.55519E-05-2.87495E-05-2.86276E-05 2.49896E-07-2.45902E-19 1.73233E-19
 -1      2767 9.56032E-05-2.88164E-05-2.86250E-05 2.11092E-07 2.20280E-19 1.82478E-19
 -1      2768 9.56634E-05-2.89060E-05-2.86125E-05 2.49523E-07-3.32015E-19-5.58460E-19
 -1      2769 9.54483E-05-2.86469E-05-2.86279E-05 2.69702E-07 6.76183E-19 4.47917E-19
 -1      2770 9.54886E-05-2.86898E-05-2.86291E-05 2.60716E-07 3.05240E-19 2.50003E-19
 -1      2771 9.55049E-05-2.87299E-05-2.86194E-05 3.01353E-07 3.12264E-20-1.77870E-19
 -1      2772 9.53765E-05-2.85862E-05-2.86237E-05 2.52590E-07-4.67524E-19 8.39388E-19
 -1      2773 9.54074E-05-2.86117E-05-2.86270E-05 2.60586E-07 3.85469E-19 6.79954E-19
 -1      2774 9.54008E-05-2.86216E-05-2.86207E-05 2.99376E-07 1.60757E-19 7.77972E-19
 -1      2775 9.53276E-05-2.85539E-05-2.86170E-05 2.17451E-07-5.39601E-19 8.01235E-19
 -1      2776 9.53509E-05-2.85677E-05-2.86213E-05 2.33695E-07-3.66612E-19 1.19205E-18
 -1      2777 9.53345E-05-2.85607E-05-2.86180E-05 2.68479E-07-4.76067E-19 6.53935E-19
 -1      2778 9.52946E-05-2.85396E-05-2.86092E-05 1.76272E-07-9.50843E-19 3.80385E-19
 -1      2779 9.53119E-05-2.85458E-05-2.86137E-05 1.95224E-07-7.21078E-19 8.04877E-19
 -1      2780 9.52934E-05-2.85311E-05-2.86129E-05 2.25061E-07-2.32252E-19 7.55288E-19
 -1      2781 9.52727E-05-2.85359E-05-2.86015E-05 1.36056E-07-6.34648E-19 9.65266E-20
 -1      2782 9.52853E-05-2.85377E-05-2.86057E-05 1.54491E-07-8.86400E-19 1.72970E-19
 -1      2783 9.52687E-05-2.85207E-05-2.86066E-05 1.79204E-07-8.37259E-19 1.03463E-19
 -1      2784 9.52582E-05-2.85380E-05-2.85944E-05 1.00416E-07 2.49013E-19 3.53799E-19
 -1      2785 9.52672E-05-2.85374E-05-2.85981E-05 1.16683E-07-2.16013E-19 5.55753E-20
 -1      2786 9.52541E-05-2.85212E-05-2.86001E-05 1.36545E-07-2.05829E-19-4.63330E-19
 -1      2787 9.52486E-05-2.85428E-05-2.85883E-05 7.07995E-08 4.82093E-19 7.92103E-19
 -1      2788 9.52550E-05-2.85409E-05-2.85914E-05 8.42514E-08 7.09632E-19 6.36508E-19
 -1      2789 9.52458E-05-2.85271E-05-2.85939E-05 9.97777E-08 2.46189E-19 2.15556E-19
 -1      2790 9.52425E-05-2.85483E-05-2.85833E-05 4.73681E-08-1.59554E-19 7.96830E-19
 -1      2791 9.52469E-05-2.85461E-05-2.85857E-05 5.79498E-08 3.99829E-19 7.50307E-19
 -1      2792 9.52410E-05-2.85350E-05-2.85884E-05 6.97631E-08 6.60941E-19 1.09717E-19
 -1      2793 9.52386E-05-2.85536E-05-2.85793E-05 2.95900E-08 1.48589E-18-1.36891E-19
 -1      2794 9.52415E-05-2.85514E-05-2.85812E-05 3.75635E-08 4.67593E-19 2.73188E-19
 -1      2795 9.52384E-05-2.85431E-05-2.85838E-05 4.63033E-08 5.80238E-19-1.09757E-18
 -1      2796 9.52362E-05-2.85582E-05-2.85763E-05 1.66244E-08 1.71560E-18 1.07946E-19
 -1      2797 9.52380E-05-2.85563E-05-2.85777E-05 2.23903E-08 1.63492E-18 5.99583E-19
 -1      2798 9.52370E-05-2.85503E-05-2.85801E-05 2.86604E-08 1.24141E-18-2.90961E-19
 -1      2799 9.52348E-05-2.85620E-05-2.85741E-05 7.55147E-09 5.72799E-19 1.16381E-18
 -1      2800 9.52359E-05-2.85604E-05-2.85751E-05 1.15424E-08 1.56712E-18 7.33666E-19
 -1      2801 9.52363E-05-2.85564E-05-2.85772E-05 1.58814E-08 1.03809E-18 1.53268E-18
 -1      2802 9.52342E-05-2.85650E-05-2.85725E-05 1.50054E-09 1.62505E-19 1.69406E-18
 -1      2803 9.52347E-05-2.85637E-05-2.85732E-05 4.12251E-09 2.01101E-19 1.47824E-18
 -1      2804 9.52360E-05-2.85612E-05-2.85750E-05 6.99152E-09-8.02354E-20 1.98582E-18
 -1      2805 9.52339E-05-2.85672E-05-2.85715E-05-2.28831E-09 1.54419E-18 3.19482E-19
 -1      2806 9.52341E-05-2.85662E-05-2.85719E-05-6.83368E-10 3.45062E-19 1.07744E-18
 -1      2807 9.52359E-05-2.85648E-05-2.85734E-05 1.09676E-09 9.28518E-19 1.84794E-18
 -1      2808 9.52340E-05-2.85688E-05-2.85708E-05-4.44298E-09 2.00181E-18-2.56874E-19
 -1      2809 9.52339E-05-2.85681E-05-2.85710E-05-3.56622E-09 2.09014E-18 1.84487E-19
 -1      2810 9.52359E-05-2.85674E-05-2.85722E-05-2.56898E-09 2.10334E-18 2.49532E-19
 -1      2811 9.52342E-05-2.85699E-05-2.85704E-05-5.46104E-09 2.53825E-19-4.49176E-19
 -1      2812 9.52340E-05-2.85694E-05-2.85705E-05-5.08511E-09 1.56349E-18-2.44126E-19
 -1      2813 9.52359E-05-2.85693E-05-2.85714E-05-4.63168E-09 1.87422E-18 3.43555E-19
 -1      2814 9.52345E-05-2.85707E-05-2.85702E-05-5.72324E-09-6.81915E-19-6.06961E-19
 -1      2815 9.52343E-05-2.85703E-05-2.85703E-05-5.67540E-09-4.48709E-19-2.24940E-19
 -1      2816 9.52360E-05-2.85705E-05-2.85710E-05-5.58383E-09 5.03815E-19-2.94311E-19
 -1      2817 9.52349E-05-2.85712E-05-2.85702E-05-5.51168E-09-1.12588E-18-5.98001E-19
 -1      2818 9.52346E-05-2.85709E-05-2.85701E-05-5.66496E-09-1.05595E-18-8.64769E-19
 -1      2819 9.52362E-05-2.85713E-05-2.85707E-05-5.80042E-09-6.04931E-19 9.43418E-20
 -1      2820 9.52352E-05-2.85714E-05-2.85702E-05-5.02871E-09 1.28173E-18-1.32711E-18
 -1      2821 9.52349E-05-2.85713E-05-2.85701E-05-5.29288E-09 2.74307E-20-1.06285E-18
 -1      2822 9.52363E-05-2.85718E-05-2.85705E-05-5.55831E-09-3.34923E-19-4.09349E-19
 -1      2823 9.52356E-05-2.85716E-05-2.85703E-05-4.41445E-09 4.41499E-19-3.40224E-19
 -1      2824 9.52353E-05-2.85715E-05-2.85702E-05-4.72775E-09 9.44420E-19-6.53507E-19
 -1      2825 9.52364E-05-2.85720E-05-2.85705E-05-5.05555E-09 4.65520E-19-8.57833E-19
 -1      2826 9.52359E-05-2.85716E-05-2.85704E-05-3.76184E-09-2.08219E-18 2.32307E-20
 -1      2827 9.52356E-05-2.85716E-05-2.85703E-05-4.08393E-09-7.09744E-19-9.55773E-19
 -1      2828 9.52365E-05-2.85721E-05-2.85705E-05-4.42892E-09-1.89637E-19-1.10967E-19
 -1      2829 9.52361E-05-2.85716E-05-2.85705E-05-3.12899E-09-1.19458E-18-1.34797E-18
 -1      2830 9.52359E-05-2.85716E-05-2.85704E-05-3.43524E-09-1.34683E-18-8.70258E-19
 -1      2831 9.52366E-05-2.85721E-05-2.85705E-05-3.76887E-09-9.02931E-19-2.74594E-18
 -1      2832 9.52363E-05-2.85716E-05-2.85706E-05-2.54906E-09-4.98731E-19-2.04413E-18
 -1      2833 9.52362E-05-2.85716E-05-2.85705E-05-2.82600E-09-1.03582E-18-1.47887E-18
 -1      2834 9.52367E-05-2.85720E-05-2.85706E-05-3.13173E-09-8.86540E-19-1.72068E-18
 -1      2835 9.52365E-05-2.85716E-05-2.85707E-05-2.03775E-09-3.17847E-19-1.20552E-18
 -1      2836 9.52364E-05-2.85716E-05-2.85706E-05-2.27965E-09-2.69238E-19-2.10656E-18
 -1      2837 9.52368E-05-2.85719E-05-2.85707E-05-2.54943E-09-5.43551E-19-1.34323E-18
 -1      2838 9.52367E-05-2.85715E-05-2.85708E-05-1.59905E-09 3.72825E-20-2.17832E-19
 -1      2839 9.52366E-05-2.85715E-05-2.85707E-05-1.80542E-09-5.73914E-19-5.79599E-19
 -1      2840 9.52369E-05-2.85718E-05-2.85708E-05-2.03685E-09-7.12436E-19-8.06487E-19
 -1      2841 9.52368E-05-2.85715E-05-2.85709E-05-1.22850E-09-1.73733E-18 9.71328E-19
 -1      2842 9.52367E-05-2.85715E-05-2.85708E-05-1.40262E-09-6.96085E-19 7.06894E-19
 -1      2843 9.52370E-05-2.85717E-05-2.85708E-05-1.59979E-09-1.42245E-18 6.36109E-20
 -1      2844 9.52369E-05-2.85714E-05-2.85709E-05-9.26411E-10-1.83256E-18 2.22844E-18
 -1      2845 9.52369E-05-2.85715E-05-2.85709E-05-1.07341E-09-2.30163E-18 1.97032E-18
 -1      2846 9.52370E-05-2.85716E-05-2.85709E-05-1.23947E-09-2.29163E-18 7.04585E-19
 -1      2847 9.52371E-05-2.85716E-05-2.85709E-05-9.41523E-10-1.30075E-18 1.41987E-18
 -1      2848 9.52371E-05-2.85715E-05-2.85710E-05 6.98256E-10 1.37576E-18 7.32684E-19
 -1      2849 9.52377E-05-2.85722E-05-2.85709E-05-3.13188E-10-1.68485E-18-4.52861E-18
 -1      2850 9.52377E-05-2.85721E-05-2.85709E-05-4.13629E-10-5.86026E-19-3.61178E-18
 -1      2851 9.52372E-05-2.85716E-05-2.85710E-05-6.99486E-10-6.68805E-19 7.14440E-19
 -1      2852 9.52376E-05-2.85721E-05-2.85710E-05-5.17378E-10-1.02384E-18-3.43783E-18
 -1      2853 9.52375E-05-2.85720E-05-2.85710E-05-5.87560E-10 8.54668E-19-4.31058E-18
 -1      2854 9.52377E-05-2.85722E-05-2.85710E-05-5.27033E-10 4.84379E-20-3.98920E-18
 -1      2855 9.50082E-05-2.78200E-05-2.88158E-05-8.24104E-06 1.06338E-18-2.44372E-18
 -1      2856 9.43042E-05-2.68275E-05-2.88848E-05-7.79816E-06 1.33490E-18-2.11668E-18
 -1      2857 9.64301E-05-2.65666E-05-2.99468E-05-7.80687E-06 1.63723E-18-2.42151E-18
 -1      2858 9.76832E-05-2.88805E-05-2.94793E-05-8.73509E-06 1.15090E-18-2.56781E-18
 -1      2859 9.52378E-05-2.85722E-05-2.85709E-05 1.89057E-10-1.69458E-18 3.87059E-19
 -1      2860 9.52378E-05-2.85722E-05-2.85709E-05 7.27173E-11-1.50844E-18-2.08034E-19
 -1      2861 9.52377E-05-2.85721E-05-2.85709E-05 4.15442E-10-8.61756E-19-2.76532E-18
 -1      2862 9.52377E-05-2.85722E-05-2.85709E-05 3.16959E-10-1.75237E-18-4.39123E-19
 -1      2863 9.52378E-05-2.85723E-05-2.85710E-05 2.84653E-10-1.43187E-18-1.63634E-19
 -1      2864 9.52375E-05-2.85720E-05-2.85710E-05 5.88684E-10 1.62525E-19 1.06539E-18
 -1      2865 9.52376E-05-2.85721E-05-2.85710E-05 5.18843E-10 3.95540E-19-1.75844E-18
 -1      2866 9.52377E-05-2.85722E-05-2.85710E-05 5.29045E-10-3.81932E-19-1.21120E-18
 -1      2867 9.52374E-05-2.85718E-05-2.85710E-05 6.78840E-10 9.75825E-19 4.39615E-18
 -1      2868 9.52375E-05-2.85719E-05-2.85710E-05 6.51501E-10 1.23544E-18 3.18304E-18
 -1      2869 9.52375E-05-2.85720E-05-2.85710E-05 7.04929E-10 1.98229E-19 2.94439E-18
 -1      2870 9.52372E-05-2.85716E-05-2.85710E-05 7.00343E-10 9.63059E-19 1.42880E-18
 -1      2871 9.52373E-05-2.85717E-05-2.85710E-05 7.17429E-10 1.04814E-18 2.77462E-18
 -1      2872 9.52374E-05-2.85718E-05-2.85710E-05 8.11272E-10 7.38065E-19 3.38103E-18
 -1      2873 9.52371E-05-2.85716E-05-2.85709E-05 8.50368E-10 1.75937E-18 1.23192E-18
 -1      2874 9.26139E-05-4.38631E-05-2.06646E-05 4.67698E-05-4.61358E-18-7.08331E-20
 -1      2875 7.67528E-05-3.52907E-05-1.73744E-05 4.64011E-05-5.14541E-18 1.10315E-18
 -1      2876 1.40905E-04-2.97596E-05-4.82555E-05-5.08221E-06 4.96552E-18-6.84752E-18
 -1      2877 1.42226E-04-3.97908E-05-4.42424E-05-3.28648E-07 3.17627E-18-6.79723E-18
 -1      2878 1.07126E-04-3.20347E-05-3.21151E-05-3.66237E-05-1.96035E-18-5.72975E-18
 -1      2879 1.17890E-04-3.55218E-05-3.51667E-05-2.75700E-05-2.67980E-18-4.01959E-18
 -1      2880 1.15376E-04-2.07087E-05-4.07463E-05 1.35335E-05 1.92987E-18-2.13116E-18
 -1      2881 1.19454E-04-2.34577E-05-4.12172E-05 1.20386E-05 1.02466E-18-1.93480E-18
 -1      2882 1.13691E-04-1.88737E-05-4.05995E-05 1.43823E-05 2.35967E-18-1.82611E-18
 -1      2883 1.23623E-04-2.64046E-05-4.19980E-05 1.01003E-05 5.82123E-19-1.44234E-18
 -1      2884 1.27137E-04-3.00371E-05-4.16937E-05 5.44727E-06-5.52222E-19-1.35734E-18
 -1      2885 1.22322E-04-2.26694E-05-4.27292E-05 1.34593E-05 1.68168E-18-9.29870E-19
 -1      2886 2.99296E-05-6.14824E-06-9.47579E-06 1.54028E-05-2.85598E-18 6.24242E-18
 -1      2887 2.94794E-05-4.72528E-06-1.00257E-05 2.55863E-06-1.59184E-18 6.17000E-18
 -1      2888 1.32507E-04-4.46268E-06-5.55802E-05 3.15622E-06 7.94898E-18-3.37364E-18
 -1      2889 1.33994E-04-6.35748E-06-5.52925E-05-1.31127E-06 7.85432E-18-4.70982E-18
 -1      2890 3.57592E-05-7.72929E-06-1.13815E-05-1.30892E-05 8.36498E-19 5.68444E-18
 -1      2891 4.75192E-05-1.50728E-05-1.32844E-05-2.61801E-05 2.66170E-18 4.90390E-18
 -1      2892 9.52378E-05-2.85722E-05-2.85709E-05-6.65902E-11-1.60779E-18-2.15897E-18
 -1      2893 9.52378E-05-2.85722E-05-2.85709E-05-1.83101E-10-8.69024E-19-4.17094E-18
 -1      2894 9.52379E-05-2.85723E-05-2.85710E-05 3.19705E-12-2.58855E-19-1.13240E-18
 -1      2895 1.02465E-04-1.70217E-05-3.66693E-05 1.39866E-05 3.65280E-18-2.67845E-18
 -1      2896 1.05378E-04-1.75882E-05-3.77000E-05 1.37978E-05 3.04188E-18-2.86413E-18
 -1      2897 1.06898E-04-1.75738E-05-3.82439E-05 1.36133E-05 2.98989E-18-2.39447E-18
 -1      2898 1.35603E-04-1.19495E-05-5.36862E-05-4.57530E-06 7.14684E-18-5.48846E-18
 -1      2899 1.37460E-04-1.86951E-05-5.13121E-05-6.65636E-06 6.19266E-18-6.41839E-18
 -1      2900 9.52375E-05-2.85719E-05-2.85710E-05-6.49851E-10 2.99995E-20-3.82681E-18
 -1      2901 9.52374E-05-2.85718E-05-2.85710E-05-6.83442E-10-2.91671E-19-2.35753E-18
 -1      2902 9.52376E-05-2.85720E-05-2.85710E-05-7.02429E-10-6.08886E-19-3.75541E-18
 -1      2903 9.76273E-05-1.77657E-05-3.42792E-05 1.37760E-05 4.33111E-18-1.91690E-18
 -1      2904 1.00019E-04-1.74730E-05-3.54332E-05 1.36840E-05 3.81343E-18-2.36343E-18
 -1      2905 1.01455E-04-1.78901E-05-3.57742E-05 1.26846E-05 3.60011E-18-2.11627E-18
 -1      2906 9.47202E-05-1.90702E-05-3.24302E-05 1.32097E-05 4.25870E-18-9.24275E-19
 -1      2907 1.32000E-04-5.58597E-05-3.25997E-05 2.70621E-05-1.75643E-18-4.23538E-18
 -1      2908 1.25589E-04-5.50889E-05-2.99614E-05 2.96779E-05-2.82443E-18-4.07539E-18
 -1      2909 1.35242E-04-5.47033E-05-3.47859E-05 1.74325E-05-1.46273E-18-4.81734E-18
 -1      2910 6.82760E-05-2.87953E-05-1.63891E-05 4.40521E-05-5.31121E-18 2.08825E-18
 -1      2911 5.93627E-05-2.12692E-05-1.60532E-05 3.84644E-05-5.06404E-18 2.76757E-18
 -1      2912 8.02519E-05-3.33864E-05-1.97156E-05 4.20024E-05-5.35992E-18 8.85467E-19
 -1      2913 1.29284E-04-3.25493E-05-4.19491E-05 1.65208E-06-8.51400E-19-1.10940E-18
 -1      2914 1.33269E-04-3.51600E-05-4.21388E-05-8.48618E-06-6.65649E-20-1.79211E-18
 -1      2915 5.54114E-05-1.83257E-05-1.54145E-05-2.94789E-05 3.06033E-18 4.33617E-18
 -1      2916 7.52865E-05-2.31183E-05-2.18087E-05-3.10036E-05 3.74082E-18 1.54774E-18
 -1      2917 7.38458E-05-1.78807E-05-2.37306E-05-2.73092E-05 3.08196E-18 1.09828E-18
 -1      2918 6.49878E-05-1.23908E-05-2.22340E-05-2.21778E-05 1.52522E-18 1.52228E-18
 -1      2919 1.39032E-04-3.25971E-05-4.58054E-05-1.28131E-06 1.52704E-18-1.42079E-18
 -1      2920 9.50429E-05-2.13426E-05-3.16046E-05 3.69331E-06 3.45150E-18-1.25914E-18
 -1      2921 9.30126E-05-2.19211E-05-3.04415E-05 4.34495E-06 3.39868E-18-7.83525E-19
 -1      2922 9.52378E-05-2.85723E-05-2.85710E-05-2.80762E-10-5.22761E-19-3.87215E-18
 -1      2923 9.52373E-05-2.85717E-05-2.85710E-05-8.01222E-10-1.64229E-18-5.07440E-19
 -1      2924 1.41845E-04-4.52145E-05-4.16902E-05 2.79197E-06 2.04842E-18-6.59479E-18
 -1      2925 1.38383E-04-4.87594E-05-3.85644E-05 6.32827E-06 7.35357E-19-6.27927E-18
 -1      2926 1.36576E-04-3.98775E-05-4.16379E-05-4.17861E-06 2.29144E-18-7.18993E-18
 -1      2927 1.03203E-04-4.81356E-05-2.32595E-05 4.25552E-05-4.41887E-18-1.19866E-18
 -1      2928 9.90161E-05-4.45137E-05-2.31177E-05 4.10881E-05-4.53131E-18-1.20758E-18
 -1      2929 1.12883E-04-5.18121E-05-2.63114E-05 3.75960E-05-3.86697E-18-3.12240E-18
 -1      2930 1.34072E-04-2.53147E-05-4.69245E-05-7.75188E-06 4.76043E-18-6.60945E-18
 -1      2931 9.27192E-05-2.18464E-05-3.03439E-05 5.90405E-06 3.54054E-18-3.65425E-19
 -1      2932 1.38112E-04-1.67722E-05-5.23849E-05 1.02395E-05 5.47480E-18-1.27171E-18
 -1      2933 1.31446E-04-1.25358E-05-5.14412E-05 1.22527E-05 5.55272E-18-1.15297E-18
 -1      2934 1.34101E-04-2.02813E-05-4.91104E-05 1.06180E-05 4.00943E-18-7.32525E-19
 -1      2935 4.10685E-05-4.23806E-06-1.53250E-05-6.40499E-07-1.49605E-18 3.88386E-18
 -1      2936 3.73982E-05-5.57880E-06-1.29491E-05-6.43475E-06-4.04802E-19 4.79781E-18
 -1      2937 4.69473E-05-6.94355E-06-1.66643E-05-1.44023E-05 1.03714E-18 3.09103E-18
 -1      2938 1.36324E-04-2.82107E-05-4.68059E-05 6.23682E-06 1.94712E-18-7.21037E-19
 -1      2939 4.04889E-05-9.70561E-06-1.25907E-05 2.29854E-05-4.20790E-18 4.93566E-18
 -1      2940 1.28150E-04-9.48437E-06-5.12346E-05-4.02675E-06 6.56165E-18-4.90252E-18
 -1      2941 9.59269E-05-1.96871E-05-3.26396E-05 1.15599E-05 3.99859E-18-1.02528E-18
 -1      2942 1.30985E-04-2.84777E-05-4.40510E-05 8.11562E-06 7.53118E-19-5.35060E-19
 -1      2943 1.27036E-04-6.61989E-06-5.21542E-05 8.40186E-06 6.65853E-18-2.00638E-18
 -1      2944 1.30623E-04-5.25375E-06-5.42491E-05 5.99952E-06 7.36686E-18-2.78340E-18
 -1      2945 1.23890E-04-4.84811E-06-5.14000E-05 3.66909E-06 6.81057E-18-3.01357E-18
 -1      2946 6.75481E-05-9.82003E-06-2.46323E-05-1.08344E-05-3.40315E-19 1.70704E-19
 -1      2947 7.16372E-05-1.13484E-05-2.59203E-05-9.41645E-06-9.62739E-19-9.13188E-19
 -1      2948 5.02762E-05-1.22175E-05-1.57620E-05 2.86828E-05-4.58298E-18 3.43610E-18
 -1      2949 4.34968E-05-6.26555E-06-1.55716E-05 1.54869E-05-3.40833E-18 3.88216E-18
 -1      2950 9.98405E-05-1.84240E-05-3.49071E-05 1.05683E-05 3.80025E-18-1.93304E-18
 -1      2951 1.02297E-04-1.79209E-05-3.61959E-05 1.10854E-05 3.40178E-18-2.15978E-18
 -1      2952 9.69044E-05-2.05045E-05-3.27321E-05 2.93534E-06 3.32491E-18-1.60944E-18
 -1      2953 9.72222E-05-2.00938E-05-3.30444E-05 5.50543E-06 3.54545E-18-1.60401E-18
 -1      2954 7.66585E-05-1.35717E-05-2.70448E-05-8.50337E-06-5.62910E-19-1.05639E-18
 -1      2955 7.98704E-05-1.54493E-05-2.76834E-05-7.38279E-06-9.38916E-20-8.75265E-19
 -1      2956 8.33910E-05-1.75066E-05-2.82649E-05-6.93872E-06-4.38108E-20-1.20877E-18
 -1      2957 8.55777E-05-1.91352E-05-2.85303E-05-5.96466E-06-8.14706E-19-1.47052E-18
 -1      2958 7.94671E-05-1.52465E-05-2.73828E-05-4.26109E-06-2.37747E-19-7.83760E-19
 -1      2959 8.79331E-05-2.07799E-05-2.87983E-05-5.51889E-06-7.68077E-19-1.44095E-18
 -1      2960 8.93241E-05-2.20310E-05-2.88788E-05-4.69535E-06-1.13582E-18-1.03220E-18
 -1      2961 8.51469E-05-1.89761E-05-2.82712E-05-3.92451E-06-7.70001E-19-1.41026E-18
 -1      2962 9.08627E-05-2.32488E-05-2.89855E-05-4.26667E-06-1.61379E-18-3.47245E-19
 -1      2963 9.17091E-05-2.41477E-05-2.89818E-05-3.59895E-06-1.06879E-18-1.62829E-19
 -1      2964 8.89060E-05-2.18658E-05-2.86760E-05-3.37469E-06-7.20805E-19-7.93765E-19
 -1      2965 9.26921E-05-2.50078E-05-2.90094E-05-3.21858E-06-9.34591E-19 3.77404E-19
 -1      2966 9.31880E-05-2.56277E-05-2.89729E-05-2.69866E-06-5.72615E-19-6.52523E-20
 -1      2967 9.13426E-05-2.39858E-05-2.88323E-05-2.75587E-06-9.35021E-19-4.61550E-20
 -1      2968 9.38031E-05-2.62162E-05-2.89646E-05-2.38187E-06-7.34663E-19-3.16132E-20
 -1      2969 9.40827E-05-2.66324E-05-2.89198E-05-1.98965E-06-1.70439E-18-4.70500E-19
 -1      2970 9.28880E-05-2.54818E-05-2.88668E-05-2.16760E-06-9.29046E-19 3.39070E-20
 -1      2971 9.44602E-05-2.70266E-05-2.88977E-05-1.73742E-06-2.30597E-18-4.06762E-19
 -1      2972 9.46109E-05-2.73012E-05-2.88554E-05-1.44815E-06-1.48576E-18-4.45649E-19
 -1      2973 9.38488E-05-2.65096E-05-2.88466E-05-1.65910E-06-1.78045E-18 1.30756E-19
 -1      2974 9.48384E-05-2.75616E-05-2.88302E-05-1.25343E-06-1.22254E-18-7.08887E-19
 -1      2975 9.49147E-05-2.77409E-05-2.87943E-05-1.04331E-06-7.87944E-19-7.40616E-19
 -1      2976 9.44349E-05-2.72028E-05-2.88061E-05-1.24451E-06-1.44794E-18 1.39847E-19
 -1      2977 9.50492E-05-2.79115E-05-2.87709E-05-8.96149E-07-3.71052E-19-7.50927E-19
 -1      2978 9.50842E-05-2.80279E-05-2.87421E-05-7.45037E-07-6.86729E-19-6.64761E-19
 -1      2979 9.47859E-05-2.76648E-05-2.87618E-05-9.18970E-07-8.41655E-19 1.97395E-19
 -1      2980 9.51621E-05-2.81392E-05-2.87221E-05-6.35459E-07-4.37439E-19-2.82033E-19
 -1      2981 9.51750E-05-2.82147E-05-2.86997E-05-5.27457E-07 5.49679E-19 1.98957E-19
 -1      2982 9.49921E-05-2.79707E-05-2.87211E-05-6.69723E-07-2.37163E-19-1.48645E-19
 -1      2983 9.52191E-05-2.82872E-05-2.86835E-05-4.46705E-07 8.62309E-19 9.80607E-20
 -1      2984 9.52210E-05-2.83362E-05-2.86665E-05-3.69816E-07 2.92265E-19 4.39677E-19
 -1      2985 9.51107E-05-2.81725E-05-2.86865E-05-4.82168E-07 6.94295E-19 8.56099E-19
 -1      2986 9.52451E-05-2.83836E-05-2.86537E-05-3.10776E-07 1.48437E-19 9.61673E-20
 -1      2987 9.52422E-05-2.84156E-05-2.86410E-05-2.56204E-07 1.01395E-18 1.33849E-19
 -1      2988 9.51770E-05-2.83057E-05-2.86585E-05-3.42766E-07 4.14841E-19 3.09987E-20
 -1      2989 9.52548E-05-2.84467E-05-2.86311E-05-2.13344E-07 5.18832E-19-2.46610E-19
 -1      2990 9.52502E-05-2.84678E-05-2.86217E-05-1.74738E-07 4.42780E-19 4.64659E-20
 -1      2991 9.52129E-05-2.83940E-05-2.86364E-05-2.40165E-07 3.24392E-19 6.91878E-20
 -1      2992 9.52564E-05-2.84884E-05-2.86141E-05-1.43854E-07-1.01141E-19-2.57591E-19
 -1      2993 9.52516E-05-2.85025E-05-2.86072E-05-1.16669E-07-5.24409E-20-4.65279E-19
 -1      2994 9.52314E-05-2.84529E-05-2.86193E-05-1.65316E-07-1.04607E-19-8.34802E-19
 -1      2995 9.52543E-05-2.85161E-05-2.86016E-05-9.46086E-08 3.77016E-19-6.56723E-19
 -1      2996 9.52502E-05-2.85256E-05-2.85965E-05-7.55991E-08 4.80925E-20-7.92712E-19
 -1      2997 9.52401E-05-2.84923E-05-2.86062E-05-1.11210E-07-2.80282E-20-9.15240E-19
 -1      2998 9.52511E-05-2.85348E-05-2.85923E-05-6.00158E-08 1.97175E-19-1.01968E-18
 -1      2999 9.52477E-05-2.85412E-05-2.85887E-05-4.68593E-08 3.94646E-19-1.19670E-18
 -1      3000 9.52437E-05-2.85190E-05-2.85964E-05-7.25085E-08-9.12864E-20-2.41369E-18
 -1      3001 9.52477E-05-2.85474E-05-2.85856E-05-3.60117E-08 3.08679E-19-9.19356E-19
 -1      3002 9.52452E-05-2.85518E-05-2.85830E-05-2.70420E-08 3.13428E-19-1.69800E-18
 -1      3003 9.52446E-05-2.85371E-05-2.85890E-05-4.51830E-08 2.31278E-19-1.90835E-18
 -1      3004 9.52448E-05-2.85560E-05-2.85807E-05-1.96377E-08-6.98461E-19-1.57733E-18
 -1      3005 9.52430E-05-2.85591E-05-2.85789E-05-1.36535E-08-3.74299E-19-2.22443E-18
 -1      3006 9.52443E-05-2.85495E-05-2.85836E-05-2.62083E-08-3.60104E-19-2.90542E-18
 -1      3007 9.52425E-05-2.85619E-05-2.85773E-05-8.73400E-09 6.73121E-19-2.54233E-18
 -1      3008 9.52412E-05-2.85640E-05-2.85760E-05-4.86554E-09 5.85534E-19-2.45481E-18
 -1      3009 9.52434E-05-2.85579E-05-2.85796E-05-1.33189E-08-3.84907E-19-1.75750E-18
 -1      3010 9.52407E-05-2.85658E-05-2.85748E-05-1.72014E-09-2.31640E-19-2.00577E-18
 -1      3011 9.52399E-05-2.85673E-05-2.85740E-05 6.63872E-10-8.78893E-19-1.74042E-18
 -1      3012 9.52424E-05-2.85636E-05-2.85767E-05-4.82232E-09 1.28574E-19-1.46225E-18
 -1      3013 9.52394E-05-2.85685E-05-2.85732E-05 2.56058E-09-1.40520E-18-1.22669E-18
 -1      3014 9.52389E-05-2.85695E-05-2.85726E-05 3.91852E-09-8.50499E-19-4.29813E-19
 -1      3015 9.52414E-05-2.85674E-05-2.85746E-05 5.42487E-10-1.08684E-18-7.78469E-19
 -1      3016 9.52385E-05-2.85702E-05-2.85721E-05 4.95325E-09 7.89349E-19 9.87145E-21
 -1      3017 9.52382E-05-2.85709E-05-2.85717E-05 5.61699E-09 1.35421E-18-1.93574E-19
 -1      3018 9.52406E-05-2.85698E-05-2.85732E-05 3.71058E-09-6.95163E-20-9.73702E-19
 -1      3019 9.52379E-05-2.85713E-05-2.85713E-05 6.07219E-09-1.93780E-20 8.40227E-19
 -1      3020 9.52377E-05-2.85718E-05-2.85711E-05 6.28050E-09-3.83084E-19 9.98003E-19
 -1      3021 9.52398E-05-2.85714E-05-2.85722E-05 5.37080E-09 1.20172E-18-4.04729E-20
 -1      3022 9.52375E-05-2.85720E-05-2.85709E-05 6.36029E-09-1.05105E-18 1.63393E-18
 -1      3023 9.52374E-05-2.85722E-05-2.85708E-05 6.28316E-09-5.83098E-20 1.51075E-18
 -1      3024 9.52393E-05-2.85723E-05-2.85716E-05 6.02585E-09-4.23475E-19 2.36247E-18
 -1      3025 9.52372E-05-2.85723E-05-2.85707E-05 6.13285E-09 3.89601E-19 1.33068E-18
 -1      3026 9.52373E-05-2.85725E-05-2.85706E-05 5.88946E-09 6.30769E-19 1.29853E-18
 -1      3027 9.52388E-05-2.85728E-05-2.85711E-05 6.03801E-09-2.53411E-19 2.93784E-18
 -1      3028 9.52371E-05-2.85725E-05-2.85705E-05 5.61054E-09 2.34845E-19 7.08686E-19
 -1      3029 9.52371E-05-2.85725E-05-2.85705E-05 5.28263E-09-8.96262E-19-2.08328E-19
 -1      3030 9.52384E-05-2.85730E-05-2.85709E-05 5.66410E-09-4.29710E-19 1.01984E-18
 -1      3031 9.52370E-05-2.85725E-05-2.85705E-05 4.94411E-09-6.04785E-19-1.50790E-19
 -1      3032 9.52371E-05-2.85725E-05-2.85705E-05 4.58606E-09-7.84236E-19-4.44022E-19
 -1      3033 9.52381E-05-2.85730E-05-2.85708E-05 5.08227E-09-6.69024E-19 1.04365E-18
 -1      3034 9.52370E-05-2.85724E-05-2.85705E-05 4.23321E-09-1.44161E-18 1.60587E-19
 -1      3035 9.52371E-05-2.85724E-05-2.85706E-05 3.87958E-09-1.13972E-18 9.78324E-19
 -1      3036 9.52379E-05-2.85729E-05-2.85707E-05 4.41257E-09-4.36694E-19-2.27569E-19
 -1      3037 9.52370E-05-2.85723E-05-2.85706E-05 3.54044E-09-1.12942E-18 2.46558E-18
 -1      3038 9.52370E-05-2.85722E-05-2.85706E-05 3.21166E-09-8.53170E-19 2.41206E-18
 -1      3039 9.52377E-05-2.85727E-05-2.85707E-05 3.73265E-09-1.92622E-20 1.15890E-18
 -1      3040 9.52370E-05-2.85721E-05-2.85707E-05 2.90210E-09-7.16203E-19 1.88765E-18
 -1      3041 9.52370E-05-2.85721E-05-2.85707E-05 2.60870E-09-1.74151E-19 1.44785E-18
 -1      3042 9.52375E-05-2.85725E-05-2.85707E-05 3.08953E-09-8.99160E-19 1.60509E-18
 -1      3043 9.52370E-05-2.85720E-05-2.85707E-05 2.33637E-09 9.49512E-19 1.89268E-18
 -1      3044 9.52371E-05-2.85719E-05-2.85708E-05 2.08229E-09 7.29347E-19 2.43128E-18
 -1      3045 9.52374E-05-2.85723E-05-2.85708E-05 2.50896E-09 7.61654E-19 3.45727E-18
 -1      3046 9.52370E-05-2.85718E-05-2.85708E-05 1.84912E-09 6.98358E-19 2.63836E-18
 -1      3047 9.52371E-05-2.85718E-05-2.85708E-05 1.63350E-09 5.72897E-19 2.59966E-18
 -1      3048 9.52373E-05-2.85721E-05-2.85708E-05 2.00225E-09 4.58557E-19 4.83751E-18
 -1      3049 9.52371E-05-2.85717E-05-2.85709E-05 1.43611E-09-2.22583E-19 3.78414E-18
 -1      3050 9.52371E-05-2.85717E-05-2.85709E-05 1.25864E-09 6.32877E-19 2.40371E-18
 -1      3051 9.52373E-05-2.85719E-05-2.85709E-05 1.56964E-09 1.24432E-18 4.81561E-18
 -1      3052 9.52371E-05-2.85716E-05-2.85709E-05 1.11722E-09 6.44468E-19 1.22106E-18
 -1      3053 9.52371E-05-2.85716E-05-2.85709E-05 9.67376E-10 1.94126E-18 1.92582E-18
 -1      3054 9.52373E-05-2.85717E-05-2.85709E-05 9.67861E-10 8.21481E-19 3.51189E-18
 -1      3055 9.52373E-05-2.85718E-05-2.85709E-05 1.22981E-09-5.56951E-19 5.37759E-18
 -1      3056 9.52378E-05-2.85722E-05-2.85710E-05 6.55743E-10-1.04874E-19 3.69359E-19
 -1      3057 9.52379E-05-2.85723E-05-2.85710E-05 5.42158E-10-9.46744E-19-2.07294E-19
 -1      3058 9.52380E-05-2.85724E-05-2.85710E-05-2.46859E-10-3.56743E-19-3.46403E-18
 -1      3059 9.52379E-05-2.85724E-05-2.85710E-05-3.88441E-10-5.74587E-20-4.43230E-18
 -1      3060 9.77283E-05-2.44321E-05-3.14451E-05-6.26897E-06 2.23821E-18-2.31119E-18
 -1      3061 9.72725E-05-2.31056E-05-3.17432E-05-4.53718E-06 2.62452E-18-2.11294E-18
 -1      3062 9.68408E-05-2.19183E-05-3.21215E-05-2.22711E-06 2.88576E-18-1.83889E-18
 -1      3063 9.67664E-05-2.10702E-05-3.24173E-05 1.56021E-07 3.12329E-18-1.66132E-18
 -1      3064 9.87658E-05-1.98015E-05-3.38552E-05 1.92930E-06 3.31496E-18-1.59118E-18
 -1      3065 9.91339E-05-2.18959E-05-3.31289E-05-3.39640E-06 3.02758E-18-1.89148E-18
 -1      3066 1.00960E-04-3.30567E-05-2.90986E-05-6.32525E-06-1.41421E-20-2.56269E-18
 -1      3067 1.00899E-04-3.26988E-05-2.92347E-05-7.11355E-06 4.22525E-19-2.58338E-18
 -1      3068 1.01045E-04-3.22092E-05-2.95139E-05-7.99374E-06 5.78092E-19-2.69015E-18
 -1      3069 1.00705E-04-3.13554E-05-2.97120E-05-8.50575E-06 8.32171E-19-2.77043E-18
 -1      3070 1.03052E-04-3.34787E-05-2.98028E-05-7.38535E-06 4.30743E-19-2.79179E-18
 -1      3071 9.93887E-05-3.24598E-05-2.86673E-05-2.92427E-06-6.09858E-19-1.68872E-18
 -1      3072 9.96708E-05-3.27256E-05-2.87057E-05-3.65850E-06-2.37993E-19-1.74460E-18
 -1      3073 9.84067E-05-3.16538E-05-2.85920E-05-1.67901E-06-9.75810E-19-1.59142E-18
 -1      3074 9.87259E-05-3.20152E-05-2.86030E-05-2.25780E-06-7.47560E-19-1.43598E-18
 -1      3075 9.99201E-05-3.29064E-05-2.87309E-05-2.12978E-06-8.21165E-19-1.86642E-18
 -1      3076 9.75215E-05-3.08309E-05-2.85677E-05-7.95252E-07-6.59967E-19-1.49101E-18
 -1      3077 9.78204E-05-3.11936E-05-2.85637E-05-1.21296E-06-8.55091E-19-1.68050E-18
 -1      3078 9.86648E-05-3.18992E-05-2.86258E-05-1.04077E-06-8.79396E-19-1.74092E-18
 -1      3079 9.68018E-05-3.01131E-05-2.85701E-05-2.19704E-07-2.57721E-19-1.30863E-18
 -1      3080 9.70515E-05-3.04259E-05-2.85601E-05-4.97770E-07-2.69232E-19-1.40740E-18
 -1      3081 9.76091E-05-3.09408E-05-2.85831E-05-3.21918E-07-4.11911E-19-1.87918E-18
 -1      3082 9.62592E-05-2.95475E-05-2.85830E-05 1.20792E-07-6.81244E-20-1.93684E-18
 -1      3083 9.64521E-05-2.97918E-05-2.85725E-05-4.84898E-08-1.85718E-19-1.42921E-18
 -1      3084 9.67936E-05-3.01404E-05-2.85746E-05 1.08517E-07-6.14038E-20-1.65953E-18
 -1      3085 9.58742E-05-2.91356E-05-2.85970E-05 2.95941E-07-5.29689E-19-1.60885E-18
 -1      3086 9.60145E-05-2.93122E-05-2.85887E-05 2.04947E-07-2.90397E-19-1.87776E-18
 -1      3087 9.62044E-05-2.95299E-05-2.85815E-05 3.34510E-07-1.42694E-19-2.38750E-18
 -1      3088 9.56149E-05-2.88559E-05-2.86078E-05 3.62904E-07-6.82977E-19-9.46825E-19
 -1      3089 9.57122E-05-2.89750E-05-2.86026E-05 3.24362E-07-7.04271E-19-1.15654E-18
 -1      3090 9.58026E-05-2.90975E-05-2.85926E-05 4.26138E-07-8.38928E-19-1.86990E-18
 -1      3091 9.54486E-05-2.86788E-05-2.86138E-05 3.64470E-07-8.11403E-20-7.23584E-19
 -1      3092 9.55135E-05-2.87536E-05-2.86116E-05 3.58506E-07-2.65472E-19-8.87205E-19
 -1      3093 9.55432E-05-2.88117E-05-2.86024E-05 4.36087E-07-5.91507E-19-1.44392E-18
 -1      3094 9.53470E-05-2.85756E-05-2.86154E-05 3.30445E-07-8.35685E-19 5.67102E-19
 -1      3095 9.53888E-05-2.86188E-05-2.86156E-05 3.42843E-07-2.18958E-19 5.59025E-20
 -1      3096 9.53850E-05-2.86363E-05-2.86085E-05 4.01059E-07-8.95747E-19-6.50871E-19
 -1      3097 9.52881E-05-2.85223E-05-2.86135E-05 2.80411E-07-1.52913E-20 8.27635E-20
 -1      3098 9.53143E-05-2.85443E-05-2.86153E-05 3.01583E-07-9.49202E-20 6.25475E-19
 -1      3099 9.52944E-05-2.85385E-05-2.86109E-05 3.44996E-07-4.74048E-19-1.34253E-19
 -1      3100 9.52562E-05-2.85006E-05-2.86095E-05 2.26489E-07-2.87333E-19-4.71293E-19
 -1      3101 9.52721E-05-2.85093E-05-2.86122E-05 2.50363E-07 1.35420E-19-2.02090E-19
 -1      3102 9.52470E-05-2.84919E-05-2.86101E-05 2.82720E-07 2.57746E-19-1.05015E-18
 -1      3103 9.52405E-05-2.84975E-05-2.86042E-05 1.75568E-07-6.22375E-19-7.70865E-19
 -1      3104 9.52499E-05-2.84984E-05-2.86073E-05 1.98604E-07-6.84860E-19-6.88842E-19
 -1      3105 9.52255E-05-2.84768E-05-2.86070E-05 2.22784E-07-3.76620E-19-1.61057E-18
 -1      3106 9.52338E-05-2.85041E-05-2.85986E-05 1.31058E-07-2.70489E-19-9.06033E-19
 -1      3107 9.52393E-05-2.85010E-05-2.86017E-05 1.51431E-07-7.27487E-20-7.54291E-19
 -1      3108 9.52185E-05-2.84794E-05-2.86026E-05 1.69556E-07-4.22628E-19-1.72365E-18
 -1      3109 9.52319E-05-2.85149E-05-2.85932E-05 9.41811E-08 5.15996E-19-6.61006E-19
 -1      3110 9.52350E-05-2.85101E-05-2.85960E-05 1.11168E-07-1.85409E-19-9.12324E-19
 -1      3111 9.52188E-05-2.84909E-05-2.85977E-05 1.24775E-07-4.38283E-19-1.41326E-18
 -1      3112 9.52322E-05-2.85267E-05-2.85882E-05 6.48834E-08 1.02651E-18-9.41415E-19
 -1      3113 9.52340E-05-2.85215E-05-2.85907E-05 7.84190E-08 1.17535E-18-7.37106E-19
 -1      3114 9.52222E-05-2.85056E-05-2.85929E-05 8.86157E-08 7.49225E-19-1.63749E-18
 -1      3115 9.52334E-05-2.85377E-05-2.85840E-05 4.24333E-08 6.38198E-19-1.10769E-18
 -1      3116 9.52343E-05-2.85329E-05-2.85861E-05 5.28087E-08 4.23736E-19-7.64500E-19
 -1      3117 9.52265E-05-2.85204E-05-2.85883E-05 6.04072E-08 9.65832E-19-5.25738E-19
 -1      3118 9.52347E-05-2.85471E-05-2.85805E-05 2.58057E-08 6.77222E-19-2.35439E-19
 -1      3119 9.52352E-05-2.85430E-05-2.85822E-05 3.34754E-08 1.16574E-18-8.07181E-19
 -1      3120 9.52305E-05-2.85336E-05-2.85844E-05 3.90812E-08 6.47030E-19 8.02769E-21
 -1      3121 9.52358E-05-2.85546E-05-2.85777E-05 1.39127E-08 2.42227E-19 9.77310E-19
 -1      3122 9.52361E-05-2.85513E-05-2.85790E-05 1.93755E-08 7.13855E-19 3.54145E-19
 -1      3123 9.52337E-05-2.85446E-05-2.85810E-05 2.34502E-08 4.80019E-19-1.00726E-19
 -1      3124 9.52366E-05-2.85604E-05-2.85756E-05 5.73226E-09-2.17306E-19 1.67704E-18
 -1      3125 9.52367E-05-2.85579E-05-2.85766E-05 9.46374E-09 3.70297E-20 1.59972E-18
 -1      3126 9.52360E-05-2.85533E-05-2.85783E-05 1.23660E-08-2.32212E-19 7.35291E-19
 -1      3127 9.52372E-05-2.85647E-05-2.85740E-05 3.70685E-10 9.45478E-19 1.58933E-18
 -1      3128 9.52372E-05-2.85628E-05-2.85747E-05 2.78963E-09 4.07069E-19 1.66252E-18
 -1      3129 9.52376E-05-2.85599E-05-2.85762E-05 4.80139E-09 4.31769E-19 1.28868E-18
 -1      3130 9.52375E-05-2.85677E-05-2.85728E-05-2.91614E-09 2.63953E-18 8.73009E-19
 -1      3131 9.52375E-05-2.85664E-05-2.85733E-05-1.46003E-09 1.92813E-18 1.58438E-18
 -1      3132 9.52385E-05-2.85647E-05-2.85745E-05-1.16047E-10 1.61509E-18 1.93856E-18
 -1      3133 9.52377E-05-2.85698E-05-2.85720E-05-4.72453E-09 1.21877E-18 1.23860E-18
 -1      3134 9.52376E-05-2.85689E-05-2.85723E-05-3.95088E-09 2.47966E-18 8.32048E-19
 -1      3135 9.52390E-05-2.85681E-05-2.85733E-05-3.09919E-09 2.63875E-18 1.90235E-18
 -1      3136 9.52377E-05-2.85711E-05-2.85714E-05-5.51735E-09 1.66907E-19 6.57646E-19
 -1      3137 9.52377E-05-2.85705E-05-2.85716E-05-5.20888E-09 9.85371E-19 4.75732E-19
 -1      3138 9.52392E-05-2.85703E-05-2.85724E-05-4.71226E-09 1.62466E-18 1.38367E-18
 -1      3139 9.52377E-05-2.85719E-05-2.85710E-05-5.64356E-09-4.54039E-19-2.74988E-19
 -1      3140 9.52376E-05-2.85716E-05-2.85712E-05-5.63696E-09-9.73286E-20-2.98486E-19
 -1      3141 9.52391E-05-2.85717E-05-2.85718E-05-5.38940E-09 2.55269E-19 1.00786E-19
 -1      3142 9.52376E-05-2.85724E-05-2.85708E-05-5.35883E-09 9.38800E-19-1.86470E-18
 -1      3143 9.52376E-05-2.85722E-05-2.85709E-05-5.53500E-09-2.83167E-19-6.83248E-19
 -1      3144 9.52389E-05-2.85725E-05-2.85713E-05-5.45592E-09 2.22581E-19-2.40175E-19
 -1      3145 9.52376E-05-2.85725E-05-2.85707E-05-4.84487E-09 1.99288E-19-1.78226E-18
 -1      3146 9.52375E-05-2.85724E-05-2.85707E-05-5.11968E-09 8.04128E-19-2.24965E-18
 -1      3147 9.52387E-05-2.85729E-05-2.85711E-05-5.14905E-09 8.89740E-19-1.88367E-18
 -1      3148 9.52375E-05-2.85725E-05-2.85707E-05-4.22640E-09 5.43269E-19-3.24192E-18
 -1      3149 9.52374E-05-2.85725E-05-2.85707E-05-4.54262E-09 6.14803E-19-2.04090E-18
 -1      3150 9.52385E-05-2.85730E-05-2.85709E-05-4.63671E-09 6.84181E-19-4.11499E-18
 -1      3151 9.52374E-05-2.85725E-05-2.85707E-05-3.58528E-09-9.62550E-19-2.31711E-18
 -1      3152 9.52374E-05-2.85725E-05-2.85707E-05-3.90581E-09-8.18116E-19-2.27807E-18
 -1      3153 9.52382E-05-2.85729E-05-2.85708E-05-4.03372E-09-7.43152E-20-3.69782E-18
 -1      3154 9.52373E-05-2.85723E-05-2.85707E-05-2.97200E-09-1.55392E-18-3.80572E-19
 -1      3155 9.52373E-05-2.85724E-05-2.85707E-05-3.27440E-09-1.45100E-18-9.73727E-19
 -1      3156 9.52380E-05-2.85728E-05-2.85708E-05-3.41511E-09-2.12958E-18-1.11704E-18
 -1      3157 9.52373E-05-2.85722E-05-2.85708E-05-2.41478E-09-1.68473E-19-3.55690E-19
 -1      3158 9.52373E-05-2.85722E-05-2.85707E-05-2.68699E-09-4.04346E-19-4.55103E-19
 -1      3159 9.52378E-05-2.85726E-05-2.85708E-05-2.82687E-09-6.48499E-19-2.70446E-20
 -1      3160 9.52373E-05-2.85720E-05-2.85708E-05-1.92659E-09-6.45484E-19-3.26774E-19
 -1      3161 9.52372E-05-2.85721E-05-2.85708E-05-2.16333E-09-4.39116E-19-7.61027E-20
 -1      3162 9.52376E-05-2.85724E-05-2.85708E-05-2.29444E-09-5.50466E-20 6.73405E-19
 -1      3163 9.52372E-05-2.85719E-05-2.85709E-05-1.51018E-09-2.51694E-18 1.16210E-18
 -1      3164 9.52372E-05-2.85719E-05-2.85708E-05-1.70727E-09-7.91562E-19-3.32996E-20
 -1      3165 9.52375E-05-2.85722E-05-2.85709E-05-1.82767E-09-7.16299E-19 9.48604E-19
 -1      3166 9.13398E-05-2.65759E-05-2.77434E-05-3.87479E-05-4.66376E-18-5.57154E-18
 -1      3167 1.10565E-04-1.63904E-05-4.04290E-05 1.33630E-05 3.15070E-18-1.94746E-18
 -1      3168 1.14529E-04-1.74977E-05-4.16757E-05 1.37192E-05 2.72790E-18-1.68589E-18
 -1      3169 1.04683E-04-1.69315E-05-3.76211E-05 1.18499E-05 3.36204E-18-2.43422E-18
 -1      3170 1.07639E-04-1.70652E-05-3.88732E-05 1.24050E-05 3.03880E-18-2.34674E-18
 -1      3171 1.08357E-04-1.54291E-05-3.98311E-05 1.16121E-05 3.29625E-18-1.96609E-18
 -1      3172 9.52379E-05-2.85723E-05-2.85710E-05-5.41537E-10-3.37763E-19-2.23093E-18
 -1      3173 9.52378E-05-2.85722E-05-2.85710E-05-6.53025E-10-1.25243E-18-2.11680E-18
 -1      3174 9.52380E-05-2.85725E-05-2.85710E-05-5.19904E-10-2.71894E-19-4.14990E-18
 -1      3175 9.52376E-05-2.85720E-05-2.85709E-05 8.34691E-10 3.16845E-19 4.21238E-18
 -1      3176 9.52377E-05-2.85721E-05-2.85710E-05 7.67087E-10-1.75496E-19 2.54317E-18
 -1      3177 9.52378E-05-2.85723E-05-2.85710E-05 7.96065E-10 2.73962E-19 1.25813E-18
 -1      3178 9.52379E-05-2.85724E-05-2.85710E-05 3.92205E-10-1.73849E-18-7.70340E-19
 -1      3179 9.52380E-05-2.85724E-05-2.85710E-05 2.52939E-10-1.62176E-18 4.07074E-19
 -1      3180 9.52380E-05-2.85725E-05-2.85710E-05 5.22612E-10-2.13445E-18 2.89214E-19
 -1      3181 1.00318E-04-3.30306E-05-2.88249E-05-4.52029E-06-3.10242E-19-2.08068E-18
 -1      3182 1.00477E-04-3.30624E-05-2.89054E-05-5.35147E-06-2.53765E-19-2.37798E-18
 -1      3183 1.02400E-04-3.40689E-05-2.92811E-05-5.47269E-06-3.26485E-19-2.48146E-18
 -1      3184 1.01246E-04-3.37430E-05-2.89355E-05-3.62992E-06-5.08329E-19-1.93406E-18
 -1      3185 1.11547E-04-3.32441E-05-3.32793E-05-2.66763E-05-4.15920E-18-3.95271E-18
 -1      3186 1.26189E-04-2.04232E-05-4.58328E-05-8.98073E-06 4.72062E-18-5.72388E-18
 -1      3187 1.29844E-04-2.95820E-05-4.32257E-05-8.68322E-06 3.37511E-18-6.57507E-18
 -1      3188 5.34499E-05-1.21591E-05-1.72955E-05-2.38167E-05 2.70738E-18 3.64997E-18
 -1      3189 9.14169E-05-2.20432E-05-2.97053E-05 8.01447E-06 3.67338E-18 3.22753E-19
 -1      3190 9.52375E-05-2.85720E-05-2.85709E-05-8.92254E-10-2.33076E-18-2.86828E-18
 -1      3191 9.52373E-05-2.85718E-05-2.85709E-05-9.27615E-10-1.38444E-18-8.91285E-19
 -1      3192 9.52373E-05-2.85718E-05-2.85709E-05-1.06745E-09-2.02993E-18-6.43626E-19
 -1      3193 9.41018E-05-2.11210E-05-3.12910E-05 8.41525E-06 3.81337E-18-7.34619E-19
 -1      3194 9.72811E-05-1.97637E-05-3.32238E-05 9.34418E-06 3.70718E-18-1.63887E-18
 -1      3195 1.32558E-04-2.57802E-05-4.61476E-05 9.76271E-06 2.11165E-18-7.61271E-19
 -1      3196 9.52377E-05-2.85722E-05-2.85710E-05-7.49924E-10-1.60841E-18-3.80472E-18
 -1      3197 9.52376E-05-2.85721E-05-2.85710E-05-8.18627E-10-2.05025E-18-3.61961E-18
 -1      3198 9.52377E-05-2.85721E-05-2.85709E-05-9.46967E-10-1.32149E-18-3.53350E-18
 -1      3199 9.52379E-05-2.85723E-05-2.85710E-05-7.76550E-10-1.14009E-18-2.04517E-18
 -1      3200 9.52380E-05-2.85724E-05-2.85710E-05 7.88724E-11-5.84890E-19-1.21823E-18
 -1      3201 9.52380E-05-2.85724E-05-2.85710E-05-7.25828E-11-5.82295E-19-1.74631E-18
 -1      3202 9.52381E-05-2.85725E-05-2.85710E-05-1.78568E-10 5.88881E-19-2.54123E-18
 -1      3203 9.52381E-05-2.85725E-05-2.85710E-05 1.84565E-10-6.85342E-19-1.09241E-18
 -1      3204 1.21831E-04-7.78629E-06-4.94116E-05-2.02721E-06 6.31325E-18-3.94085E-18
 -1      3205 1.23619E-04-1.21463E-05-4.80879E-05-6.47565E-06 5.90943E-18-5.06004E-18
 -1      3206 1.28471E-04-2.13767E-05-4.62283E-05 1.28355E-05 2.70998E-18-4.69733E-19
 -1      3207 1.36725E-04-5.19683E-05-3.64241E-05 9.59115E-06-7.23346E-19-5.70376E-18
 -1      3208 1.32132E-04-5.27414E-05-3.40163E-05 1.34267E-05-1.96778E-18-5.41553E-18
 -1      3209 1.34420E-04-4.73665E-05-3.74122E-05 1.90607E-06 7.59947E-20-6.64503E-18
 -1      3210 1.20501E-04-5.31664E-05-2.87272E-05 2.99260E-05-3.84479E-18-3.61397E-18
 -1      3211 5.33804E-05-7.64594E-06-1.94885E-05 1.27905E-05-2.81001E-18 2.21944E-18
 -1      3212 4.58815E-05-4.94052E-06-1.69659E-05 7.46567E-06-2.18072E-18 3.01904E-18
 -1      3213 5.09408E-05-5.17670E-06-1.93032E-05-8.36421E-07-7.71078E-19 2.07984E-18
 -1      3214 9.06609E-05-3.84344E-05-2.19501E-05 4.04729E-05-5.02063E-18-3.95088E-19
 -1      3215 8.07519E-05-3.16454E-05-2.09617E-05 3.86486E-05-5.25965E-18 6.76673E-19
 -1      3216 1.17653E-04-6.51274E-06-4.80241E-05 3.57781E-06 5.97878E-18-2.90011E-18
 -1      3217 1.20002E-04-6.72459E-06-4.89506E-05 5.42104E-07 6.16947E-18-3.53665E-18
 -1      3218 1.16487E-04-9.36981E-06-4.61191E-05-1.48635E-06 5.46548E-18-3.54383E-18
 -1      3219 1.03068E-04-1.72243E-05-3.67807E-05 9.76093E-06 3.43608E-18-1.99546E-18
 -1      3220 9.98058E-05-1.87352E-05-3.47513E-05 6.85374E-06 3.42366E-18-1.64302E-18
 -1      3221 9.81102E-05-1.95517E-05-3.36427E-05 7.63360E-06 3.61555E-18-1.53992E-18
 -1      3222 9.84883E-05-2.59876E-05-3.10269E-05-7.67177E-06 1.91714E-18-2.60898E-18
 -1      3223 1.00378E-04-2.50853E-05-3.22720E-05-7.25405E-06 2.28631E-18-2.46096E-18
 -1      3224 9.91381E-05-2.75035E-05-3.07385E-05-8.54003E-06 1.56933E-18-2.70612E-18
 -1      3225 1.02900E-04-3.16649E-05-3.05090E-05-8.81949E-06 8.47174E-19-2.92289E-18
 -1      3226 1.00403E-04-3.03018E-05-3.00723E-05-8.95634E-06 9.58346E-19-2.82988E-18
 -1      3227 9.98204E-05-2.89923E-05-3.03255E-05-8.89986E-06 1.25611E-18-2.82652E-18
 -1      3228 9.52373E-05-2.85718E-05-2.85709E-05-1.19693E-09-3.01314E-18 6.83084E-19
 -1      3229 9.52373E-05-2.85719E-05-2.85709E-05-1.36140E-09-3.12037E-18 3.05911E-19
 -1      3230 9.52375E-05-2.85721E-05-2.85709E-05-1.45028E-09-2.73142E-18 1.10413E-18
 -1      3231 9.52376E-05-2.85720E-05-2.85709E-05-1.15357E-09-2.56436E-18-1.40691E-18
 -1      3232 1.31105E-04-3.45047E-05-4.17101E-05-7.57088E-06 2.72146E-18-6.84360E-18
 -1      3233 1.30763E-04-3.87180E-05-3.96462E-05-5.27865E-06 1.76408E-18-6.76321E-18
 -1      3234 1.24679E-04-2.91486E-05-4.10050E-05-9.77941E-06 2.83655E-18-5.74463E-18
 -1      3235 9.52374E-05-2.85718E-05-2.85709E-05 9.37681E-10-8.26938E-19 3.20620E-18
 -1      3236 9.52375E-05-2.85719E-05-2.85709E-05 8.95206E-10-9.00152E-19 4.33409E-18
 -1      3237 9.52376E-05-2.85721E-05-2.85709E-05 9.71589E-10-2.02156E-18 3.03648E-18
 -1      3238 9.52374E-05-2.85719E-05-2.85709E-05 1.06152E-09-1.88174E-18 3.97811E-18
 -1      3239 1.21085E-04-1.77668E-05-4.44979E-05-7.95263E-06 4.51564E-18-4.80273E-18
 -1      3240 9.91408E-05-4.26302E-05-2.40790E-05 3.69901E-05-4.81181E-18-1.40226E-18
 -1      3241 6.10914E-05-1.76127E-05-1.82698E-05 3.07996E-05-4.88029E-18 2.72003E-18
 -1      3242 1.25125E-04-1.28332E-05-4.84845E-05 1.25336E-05 4.89183E-18-9.98731E-19
 -1      3243 1.26713E-04-9.47272E-06-5.06829E-05 1.11917E-05 5.86073E-18-1.61172E-18
 -1      3244 1.21141E-04-7.36853E-06-4.90632E-05 9.51743E-06 5.82208E-18-1.74629E-18
 -1      3245 1.18853E-04-1.82483E-05-4.33333E-05 1.44404E-05 2.83649E-18-1.09586E-18
 -1      3246 1.24295E-04-2.09557E-05-4.44687E-05 1.32743E-05 2.34729E-18-7.06187E-19
 -1      3247 1.25465E-04-1.63977E-05-4.70131E-05 1.40233E-05 3.76591E-18-6.37181E-19
 -1      3248 1.15807E-04-1.50299E-05-4.32673E-05 1.37236E-05 3.31374E-18-1.24244E-18
 -1      3249 5.84031E-05-7.70920E-06-2.15653E-05-1.34079E-05 3.94731E-20 1.26335E-18
 -1      3250 5.75794E-05-6.68779E-06-2.14869E-05-6.79214E-06-7.01244E-19 1.05765E-18
 -1      3251 7.12011E-05-1.08923E-05-2.56263E-05-4.62039E-06-8.85308E-19-4.52895E-19
 -1      3252 7.20600E-05-2.34533E-05-2.04050E-05 3.40981E-05-5.34451E-18 1.81509E-18
 -1      3253 6.24947E-05-1.51965E-05-2.01704E-05 2.52895E-05-4.24761E-18 2.21007E-18
 -1      3254 1.01056E-04-1.77742E-05-3.56841E-05 5.36858E-06 3.40508E-18-1.82638E-18
 -1      3255 1.01930E-04-1.72705E-05-3.62675E-05 7.55087E-06 3.55178E-18-1.96231E-18
 -1      3256 1.04304E-04-1.62784E-05-3.77404E-05 8.32060E-06 3.38194E-18-2.26761E-18
 -1      3257 5.32663E-05-9.41299E-06-1.82857E-05-1.77405E-05 1.39141E-18 3.05546E-18
 -1      3258 1.16054E-04-1.45013E-05-4.38218E-05-6.16979E-06 4.62866E-18-4.15722E-18
 -1      3259 1.18571E-04-2.10534E-05-4.19262E-05-8.94374E-06 3.67279E-18-4.99831E-18
 -1      3260 8.29712E-05-1.81673E-05-2.78403E-05-1.56036E-06-8.11171E-19-4.58369E-19
 -1      3261 8.53463E-05-1.97395E-05-2.81501E-05-1.55992E-06-8.15106E-19-3.30866E-19
 -1      3262 8.73070E-05-2.11263E-05-2.84059E-05-1.92645E-06-8.89969E-19-7.01628E-19
 -1      3263 8.88597E-05-2.23162E-05-2.85428E-05-1.76987E-06-9.58357E-19-5.48986E-19
 -1      3264 8.59165E-05-2.03056E-05-2.80497E-05 1.63297E-07-9.72292E-19 1.56086E-19
 -1      3265 9.01952E-05-2.33641E-05-2.86670E-05-1.89484E-06-5.54396E-19-6.03848E-19
 -1      3266 9.11891E-05-2.42272E-05-2.87156E-05-1.67802E-06-8.40914E-19-3.61202E-19
 -1      3267 8.90913E-05-2.26211E-05-2.84410E-05-6.10168E-07-7.13484E-19-9.90990E-19
 -1      3268 9.20822E-05-2.49880E-05-2.87686E-05-1.67338E-06-7.94318E-19-1.55235E-19
 -1      3269 9.27056E-05-2.55951E-05-2.87744E-05-1.45253E-06-6.95486E-19-1.72747E-19
 -1      3270 9.12442E-05-2.43719E-05-2.86290E-05-9.05996E-07-6.24114E-19-7.21702E-19
 -1      3271 9.32929E-05-2.61322E-05-2.87905E-05-1.38766E-06-1.68658E-18-4.15304E-19
 -1      3272 9.36766E-05-2.65500E-05-2.87777E-05-1.19023E-06-1.98319E-18-1.53912E-19
 -1      3273 9.26774E-05-2.56485E-05-2.87069E-05-9.44214E-07-1.54369E-18-6.65801E-19
 -1      3274 9.40570E-05-2.69217E-05-2.87758E-05-1.10453E-06-1.56462E-18 1.99500E-19
 -1      3275 9.42889E-05-2.72051E-05-2.87566E-05-9.40083E-07-1.25929E-18 3.09015E-19
 -1      3276 9.36160E-05-2.65555E-05-2.87276E-05-8.58753E-07-1.85147E-18-3.51576E-19
 -1      3277 9.45322E-05-2.74591E-05-2.87470E-05-8.53994E-07-1.49898E-18 4.47269E-19
 -1      3278 9.46698E-05-2.76497E-05-2.87273E-05-7.22832E-07-9.24869E-19-2.69052E-19
 -1      3279 9.42222E-05-2.71884E-05-2.87209E-05-7.25499E-07-1.38817E-18-3.39509E-19
 -1      3280 9.48238E-05-2.78220E-05-2.87153E-05-6.45840E-07-7.00462E-20 1.76003E-19
 -1      3281 9.49037E-05-2.79496E-05-2.86977E-05-5.44153E-07 4.22645E-19 4.73074E-19
 -1      3282 9.46091E-05-2.76252E-05-2.87026E-05-5.84741E-07-3.42370E-19 2.66508E-19
 -1      3283 9.50003E-05-2.80660E-05-2.86859E-05-4.79511E-07 3.92631E-19 8.25425E-19
 -1      3284 9.50456E-05-2.81514E-05-2.86710E-05-4.02166E-07 4.18063E-19 3.38660E-19
 -1      3285 9.48536E-05-2.79246E-05-2.86810E-05-4.55704E-07 8.73010E-19 2.68059E-19
 -1      3286 9.51056E-05-2.82300E-05-2.86605E-05-3.49999E-07 1.16119E-19 2.15018E-19
 -1      3287 9.51306E-05-2.82873E-05-2.86485E-05-2.92000E-07 3.71890E-19-3.95425E-20
 -1      3288 9.50067E-05-2.81292E-05-2.86601E-05-3.45692E-07-6.83679E-20-2.45951E-19
 -1      3289 9.51675E-05-2.83404E-05-2.86397E-05-2.51080E-07 2.45561E-19 1.78176E-19
 -1      3290 9.51807E-05-2.83791E-05-2.86302E-05-2.08091E-07 2.80607E-19-5.24392E-19
 -1      3291 9.51017E-05-2.82691E-05-2.86416E-05-2.56060E-07 1.88921E-20 9.03342E-20
 -1      3292 9.52032E-05-2.84152E-05-2.86230E-05-1.76700E-07-5.49375E-20-7.64955E-19
 -1      3293 9.52098E-05-2.84414E-05-2.86157E-05-1.45174E-07-6.42452E-19-1.06597E-18
 -1      3294 9.51603E-05-2.83650E-05-2.86260E-05-1.85324E-07-2.39519E-19-5.04567E-19
 -1      3295 9.52234E-05-2.84661E-05-2.86099E-05-1.21550E-07-1.03015E-18-1.35956E-18
 -1      3296 9.52263E-05-2.84840E-05-2.86043E-05-9.86857E-08-5.26437E-19-1.61688E-18
 -1      3297 9.51960E-05-2.84310E-05-2.86133E-05-1.30863E-07-1.15332E-18-6.80726E-19
 -1      3298 9.52344E-05-2.85009E-05-2.85997E-05-8.12268E-08-7.05391E-21-2.22042E-18
 -1      3299 9.52354E-05-2.85133E-05-2.85955E-05-6.48505E-08 2.47765E-19-2.09185E-18
 -1      3300 9.52174E-05-2.84766E-05-2.86031E-05-8.98084E-08-9.41454E-19-1.71302E-18
 -1      3301 9.52400E-05-2.85249E-05-2.85919E-05-5.21884E-08 1.13498E-19-1.81860E-18
 -1      3302 9.52401E-05-2.85334E-05-2.85888E-05-4.06355E-08-2.23350E-19-1.77164E-18
 -1      3303 9.52301E-05-2.85082E-05-2.85950E-05-5.94722E-08-3.11058E-19-1.96261E-18
 -1      3304 9.52426E-05-2.85414E-05-2.85861E-05-3.16424E-08-1.60381E-19-2.49721E-18
 -1      3305 9.52423E-05-2.85472E-05-2.85837E-05-2.36464E-08-4.51529E-19-1.90992E-18
 -1      3306 9.52373E-05-2.85302E-05-2.85888E-05-3.75106E-08-6.15748E-19-2.18178E-18
 -1      3307 9.52436E-05-2.85527E-05-2.85817E-05-1.74154E-08-5.02512E-19-1.53383E-18
 -1      3308 9.52430E-05-2.85567E-05-2.85799E-05-1.20175E-08 1.06093E-19-1.44521E-18
 -1      3309 9.52412E-05-2.85453E-05-2.85840E-05-2.19678E-08-3.67912E-19-1.33889E-18
 -1      3310 9.52436E-05-2.85604E-05-2.85784E-05-7.83263E-09 1.43606E-19-1.77772E-18
 -1      3311 9.52430E-05-2.85631E-05-2.85771E-05-4.31071E-09 1.16304E-19-1.74421E-18
 -1      3312 9.52431E-05-2.85558E-05-2.85803E-05-1.12584E-08-3.22114E-19-2.30659E-18
 -1      3313 9.52431E-05-2.85656E-05-2.85760E-05-1.61546E-09-8.39188E-19-1.80256E-18
 -1      3314 9.52426E-05-2.85674E-05-2.85751E-05 5.71541E-10-1.38425E-18-1.89682E-18
 -1      3315 9.52438E-05-2.85628E-05-2.85776E-05-4.12465E-09-5.24914E-19-2.27625E-18
 -1      3316 9.52424E-05-2.85690E-05-2.85743E-05 2.20378E-09-4.44852E-19-6.02617E-19
 -1      3317 9.52420E-05-2.85702E-05-2.85737E-05 3.45845E-09 7.17406E-19-9.43656E-19
 -1      3318 9.52437E-05-2.85675E-05-2.85755E-05 4.13666E-10 6.03838E-20-1.12314E-18
 -1      3319 9.52417E-05-2.85712E-05-2.85730E-05 4.34999E-09 1.88872E-18-1.12225E-18
 -1      3320 9.52414E-05-2.85719E-05-2.85726E-05 4.96921E-09 1.90443E-18 4.39049E-20
 -1      3321 9.52432E-05-2.85705E-05-2.85740E-05 3.10808E-09 1.15954E-18-7.70859E-19
 -1      3322 9.52410E-05-2.85725E-05-2.85722E-05 5.35990E-09 3.98374E-19 6.11729E-19
 -1      3323 9.52407E-05-2.85729E-05-2.85719E-05 5.56009E-09 2.38120E-19 1.71323E-18
 -1      3324 9.52426E-05-2.85724E-05-2.85730E-05 4.52574E-09 1.66071E-18-9.57593E-19
 -1      3325 9.52403E-05-2.85732E-05-2.85716E-05 5.62545E-09-5.76733E-19 1.93617E-18
 -1      3326 9.52401E-05-2.85734E-05-2.85714E-05 5.56207E-09-3.01759E-19 1.31065E-18
 -1      3327 9.52418E-05-2.85734E-05-2.85722E-05 5.08764E-09 3.32448E-21 2.92871E-19
 -1      3328 9.52397E-05-2.85735E-05-2.85713E-05 5.42809E-09-1.08929E-18 1.03465E-18
 -1      3329 9.52396E-05-2.85735E-05-2.85711E-05 5.21076E-09-7.40900E-19 4.89664E-19
 -1      3330 9.52411E-05-2.85739E-05-2.85717E-05 5.10061E-09-9.20886E-19 3.90897E-19
 -1      3331 9.52392E-05-2.85735E-05-2.85710E-05 4.96573E-09 2.45578E-19 7.94839E-19
 -1      3332 9.52391E-05-2.85735E-05-2.85710E-05 4.66988E-09 1.23574E-19 1.55443E-18
 -1      3333 9.52404E-05-2.85740E-05-2.85713E-05 4.78369E-09-6.44989E-20 1.30447E-18
 -1      3334 9.52388E-05-2.85734E-05-2.85709E-05 4.37398E-09-7.81193E-19 1.43442E-18
 -1      3335 9.52387E-05-2.85733E-05-2.85709E-05 4.04985E-09-4.00511E-19 7.37690E-19
 -1      3336 9.52398E-05-2.85739E-05-2.85711E-05 4.28938E-09 1.89873E-19 1.61439E-18
 -1      3337 9.52384E-05-2.85732E-05-2.85708E-05 3.74248E-09-5.41440E-19 1.05375E-18
 -1      3338 9.52383E-05-2.85731E-05-2.85708E-05 3.42199E-09-3.51425E-19 1.11676E-18
 -1      3339 9.52393E-05-2.85736E-05-2.85710E-05 3.72062E-09-8.16022E-19 1.34740E-18
 -1      3340 9.52381E-05-2.85729E-05-2.85708E-05 3.12736E-09-2.32542E-20 9.44702E-19
 -1      3341 9.52381E-05-2.85728E-05-2.85708E-05 2.82923E-09-6.64409E-19 1.44655E-18
 -1      3342 9.52388E-05-2.85733E-05-2.85709E-05 3.14386E-09 9.96720E-20 3.87949E-19
 -1      3343 9.52379E-05-2.85726E-05-2.85708E-05 2.56079E-09 6.75020E-19 2.60724E-18
 -1      3344 9.52378E-05-2.85725E-05-2.85708E-05 2.29476E-09 1.78184E-18 3.45406E-18
 -1      3345 9.52384E-05-2.85730E-05-2.85709E-05 2.59880E-09 9.15584E-19 1.86614E-18
 -1      3346 9.52377E-05-2.85724E-05-2.85708E-05 2.06021E-09 1.09875E-18 3.75323E-18
 -1      3347 9.52377E-05-2.85723E-05-2.85709E-05 1.83035E-09 7.04545E-19 4.53525E-18
 -1      3348 9.52381E-05-2.85727E-05-2.85709E-05 2.10793E-09 1.40187E-18 2.76790E-18
 -1      3349 9.52375E-05-2.85722E-05-2.85709E-05 1.62747E-09 1.31760E-18 4.47709E-18
 -1      3350 9.52375E-05-2.85721E-05-2.85709E-05 1.43281E-09 1.55515E-18 4.34136E-18
 -1      3351 9.52379E-05-2.85724E-05-2.85709E-05 1.67982E-09 1.35736E-18 3.76588E-18
 -1      3352 9.52379E-05-2.85723E-05-2.85710E-05 9.50454E-10-5.08183E-20 2.53891E-18
 -1      3353 9.52380E-05-2.85724E-05-2.85710E-05 8.35701E-10-9.08728E-19 1.70891E-18
 -1      3354 1.05120E-04-3.51400E-05-2.99881E-05-6.28101E-06 1.96261E-20-2.88313E-18
 -1      3355 1.05253E-04-3.45133E-05-3.03243E-05-7.19887E-06 3.80388E-19-2.98577E-18
 -1      3356 9.88144E-05-3.19568E-05-2.86337E-05-1.76699E-07-6.28523E-19-2.04671E-18
 -1      3357 9.94068E-05-3.25235E-05-2.86709E-05-5.79695E-07-9.17575E-19-1.93340E-18
 -1      3358 1.00341E-04-3.32007E-05-2.87508E-05-1.01294E-06-1.23146E-18-1.94161E-18
 -1      3359 1.01009E-04-3.37651E-05-2.88306E-05-1.61451E-06-1.06328E-18-2.25863E-18
 -1      3360 1.00353E-04-3.33196E-05-2.87503E-05-5.25025E-08-7.95496E-19-2.28060E-18
 -1      3361 9.67148E-05-3.00194E-05-2.85737E-05 5.25343E-07 1.17003E-19-2.13369E-18
 -1      3362 9.70689E-05-3.03984E-05-2.85735E-05 3.94205E-07 7.16324E-20-2.01536E-18
 -1      3363 9.60992E-05-2.93996E-05-2.85790E-05 5.96904E-07-5.40772E-19-1.79539E-18
 -1      3364 9.63471E-05-2.96727E-05-2.85740E-05 5.41068E-07-2.62827E-19-2.17303E-18
 -1      3365 9.65411E-05-2.99049E-05-2.85696E-05 8.21685E-07 7.33021E-20-2.20046E-18
 -1      3366 9.56972E-05-2.89795E-05-2.85894E-05 5.79217E-07-1.12427E-18-1.57951E-18
 -1      3367 9.58614E-05-2.91629E-05-2.85838E-05 5.69654E-07-9.65800E-19-1.79407E-18
 -1      3368 9.59469E-05-2.92897E-05-2.85751E-05 7.70705E-07-6.64845E-19-1.31966E-18
 -1      3369 9.54501E-05-2.87142E-05-2.85989E-05 5.16571E-07-7.23199E-19-1.08259E-18
 -1      3370 9.55529E-05-2.88289E-05-2.85947E-05 5.32836E-07-9.10116E-19-1.38470E-18
 -1      3371 9.55737E-05-2.88853E-05-2.85858E-05 6.71286E-07-1.19257E-18-1.35543E-18
 -1      3372 9.53082E-05-2.85603E-05-2.86052E-05 4.36263E-07-1.34918E-18-7.78830E-19
 -1      3373 9.53690E-05-2.86260E-05-2.86029E-05 4.65018E-07-8.76834E-19-1.25448E-18
 -1      3374 9.53547E-05-2.86388E-05-2.85956E-05 5.57565E-07-9.39681E-19-1.33887E-18
 -1      3375 9.52343E-05-2.84816E-05-2.86080E-05 3.53868E-07-8.01632E-20-9.17191E-19
 -1      3376 9.52675E-05-2.85144E-05-2.86075E-05 3.86831E-07-9.43227E-19-1.09924E-18
 -1      3377 9.52373E-05-2.85025E-05-2.86024E-05 4.47421E-07-8.27515E-19-1.49798E-18
 -1      3378 9.52017E-05-2.84506E-05-2.86077E-05 2.77760E-07 4.51099E-19-1.56645E-18
 -1      3379 9.52180E-05-2.84628E-05-2.86086E-05 3.10058E-07 4.79912E-19-1.19850E-18
 -1      3380 9.51831E-05-2.84388E-05-2.86057E-05 3.49185E-07 5.37983E-19-1.50156E-18
 -1      3381 9.51925E-05-2.84476E-05-2.86052E-05 2.11773E-07-8.99976E-19-1.19832E-18
 -1      3382 9.51990E-05-2.84479E-05-2.86070E-05 2.40853E-07-4.69763E-20-1.19932E-18
 -1      3383 9.51657E-05-2.84198E-05-2.86059E-05 2.66018E-07 9.18435E-20-1.14192E-18
 -1      3384 9.51952E-05-2.84594E-05-2.86014E-05 1.57002E-07-1.53202E-19-1.55603E-18
 -1      3385 9.51965E-05-2.84535E-05-2.86036E-05 1.81771E-07-6.50098E-19-1.71806E-18
 -1      3386 9.51679E-05-2.84259E-05-2.86039E-05 1.98077E-07-2.28568E-19-1.41283E-18
 -1      3387 9.52031E-05-2.84775E-05-2.85969E-05 1.13043E-07-3.93746E-20-1.61727E-18
 -1      3388 9.52018E-05-2.84691E-05-2.85994E-05 1.33288E-07-1.71019E-19-1.52856E-18
 -1      3389 9.51790E-05-2.84445E-05-2.86005E-05 1.44053E-07-4.39437E-19-1.39795E-18
 -1      3390 9.52121E-05-2.84970E-05-2.85925E-05 7.87532E-08 4.56504E-19-1.69111E-18
 -1      3391 9.52100E-05-2.84881E-05-2.85948E-05 9.47485E-08 2.88285E-19-2.48747E-18
 -1      3392 9.51928E-05-2.84676E-05-2.85965E-05 1.02061E-07 6.53961E-19-1.99269E-18
 -1      3393 9.52204E-05-2.85151E-05-2.85882E-05 5.26982E-08 9.44785E-19-1.42243E-18
 -1      3394 9.52183E-05-2.85069E-05-2.85904E-05 6.49590E-08 6.27919E-19-1.10045E-18
 -1      3395 9.52060E-05-2.84905E-05-2.85923E-05 7.00972E-08 3.55190E-19-2.14601E-18
 -1      3396 9.52272E-05-2.85305E-05-2.85845E-05 3.34063E-08-2.64508E-20-5.21736E-19
 -1      3397 9.52254E-05-2.85236E-05-2.85863E-05 4.25346E-08 1.93953E-19-6.21378E-19
 -1      3398 9.52172E-05-2.85111E-05-2.85883E-05 4.62660E-08 3.60685E-19-1.77823E-18
 -1      3399 9.52324E-05-2.85430E-05-2.85813E-05 1.95084E-08 1.83222E-19 7.12288E-19
 -1      3400 9.52310E-05-2.85375E-05-2.85828E-05 2.61024E-08 8.16632E-20 1.69255E-19
 -1      3401 9.52259E-05-2.85282E-05-2.85847E-05 2.88851E-08-4.22206E-19 3.82141E-20
 -1      3402 9.52360E-05-2.85527E-05-2.85786E-05 9.80281E-09-2.29994E-19 1.10706E-18
 -1      3403 9.52350E-05-2.85484E-05-2.85799E-05 1.44082E-08 1.69129E-19 9.84988E-19
 -1      3404 9.52322E-05-2.85419E-05-2.85815E-05 1.65190E-08-2.24568E-19 2.13913E-18
 -1      3405 9.52383E-05-2.85599E-05-2.85765E-05 3.27739E-09 3.29563E-19 1.18200E-18
 -1      3406 9.52377E-05-2.85567E-05-2.85775E-05 6.36530E-09 1.64476E-19 7.50814E-19
 -1      3407 9.52366E-05-2.85523E-05-2.85790E-05 7.97705E-09 1.72606E-19 6.10028E-19
 -1      3408 9.52397E-05-2.85651E-05-2.85749E-05-8.94014E-10 1.73260E-18 1.06970E-18
 -1      3409 9.52393E-05-2.85628E-05-2.85756E-05 1.06716E-09 8.03316E-19 9.28483E-19
 -1      3410 9.52393E-05-2.85600E-05-2.85768E-05 2.29460E-09 8.33545E-19 9.29289E-20
 -1      3411 9.52403E-05-2.85686E-05-2.85736E-05-3.36784E-09 2.23043E-18 1.48163E-18
 -1      3412 9.52402E-05-2.85670E-05-2.85742E-05-2.21977E-09 2.68273E-18 1.12177E-18
 -1      3413 9.52408E-05-2.85654E-05-2.85752E-05-1.29466E-09 1.77018E-18 2.98856E-19
 -1      3414 9.52405E-05-2.85709E-05-2.85727E-05-4.65336E-09 1.59561E-18 1.24114E-18
 -1      3415 9.52405E-05-2.85699E-05-2.85731E-05-4.07356E-09 2.31366E-18 1.60074E-18
 -1      3416 9.52415E-05-2.85690E-05-2.85739E-05-3.38805E-09 2.26341E-18 1.87789E-18
 -1      3417 9.52404E-05-2.85723E-05-2.85720E-05-5.13663E-09 6.30547E-19 2.29726E-19
 -1      3418 9.52404E-05-2.85717E-05-2.85723E-05-4.93892E-09 1.24488E-18 6.80952E-19
 -1      3419 9.52416E-05-2.85714E-05-2.85730E-05-4.44259E-09 1.89081E-18 1.04777E-18
 -1      3420 9.52401E-05-2.85731E-05-2.85716E-05-5.10357E-09 1.04907E-18-6.52155E-19
 -1      3421 9.52402E-05-2.85727E-05-2.85718E-05-5.14995E-09 3.94413E-19-1.34799E-19
 -1      3422 9.52414E-05-2.85728E-05-2.85723E-05-4.80123E-09 8.07074E-19-5.12373E-19
 -1      3423 9.52397E-05-2.85734E-05-2.85713E-05-4.76065E-09 2.21548E-18-2.10458E-18
 -1      3424 9.52398E-05-2.85733E-05-2.85714E-05-4.95159E-09 1.65765E-18-8.70199E-19
 -1      3425 9.52410E-05-2.85735E-05-2.85718E-05-4.71603E-09 2.25562E-18-1.04057E-18
 -1      3426 9.52393E-05-2.85734E-05-2.85711E-05-4.25276E-09 1.17424E-18-3.69030E-18
 -1      3427 9.52394E-05-2.85734E-05-2.85711E-05-4.51864E-09 1.52226E-18-3.25030E-18
 -1      3428 9.52405E-05-2.85738E-05-2.85714E-05-4.36794E-09 2.45223E-18-1.47220E-18
 -1      3429 9.52389E-05-2.85733E-05-2.85710E-05-3.67810E-09-1.96185E-18-2.02951E-18
 -1      3430 9.52390E-05-2.85734E-05-2.85710E-05-3.97201E-09-3.72137E-19-3.32311E-18
 -1      3431 9.52399E-05-2.85738E-05-2.85712E-05-3.88325E-09-2.58375E-19-1.44599E-18
 -1      3432 9.52386E-05-2.85731E-05-2.85709E-05-3.10006E-09-2.34912E-18-1.57798E-18
 -1      3433 9.52387E-05-2.85732E-05-2.85709E-05-3.39199E-09-2.56675E-18-2.57949E-18
 -1      3434 9.52394E-05-2.85736E-05-2.85711E-05-3.34709E-09-2.35848E-18-1.39118E-18
 -1      3435 9.52382E-05-2.85728E-05-2.85709E-05-2.55681E-09-7.77520E-19-7.83694E-19
 -1      3436 9.52383E-05-2.85730E-05-2.85709E-05-2.82895E-09-1.40776E-18-1.39897E-18
 -1      3437 9.52390E-05-2.85734E-05-2.85710E-05-2.81396E-09-1.76072E-18-1.19838E-18
 -1      3438 9.52380E-05-2.85726E-05-2.85709E-05-2.06927E-09-4.10065E-19 6.76718E-19
 -1      3439 9.52381E-05-2.85727E-05-2.85709E-05-2.31227E-09-5.11382E-19-2.42367E-19
 -1      3440 9.52386E-05-2.85730E-05-2.85709E-05-2.31651E-09-1.73256E-18-1.14226E-18
 -1      3441 9.52378E-05-2.85723E-05-2.85709E-05-1.64784E-09-3.45578E-19 3.57274E-19
 -1      3442 9.52378E-05-2.85724E-05-2.85709E-05-1.85731E-09 1.84153E-19 6.31140E-19
 -1      3443 9.52382E-05-2.85727E-05-2.85709E-05-1.87402E-09 1.00231E-19-4.01265E-19
 -1      3444 1.06644E-04-1.45964E-05-3.94631E-05 9.15996E-06 3.46054E-18-2.32803E-18
 -1      3445 1.09711E-04-1.37788E-05-4.11544E-05 1.00431E-05 3.52449E-18-2.02917E-18
 -1      3446 1.05546E-04-1.47775E-05-3.89704E-05 6.92775E-06 3.48739E-18-2.20229E-18
 -1      3447 9.52382E-05-2.85726E-05-2.85710E-05-5.01505E-10 1.03476E-19-4.00859E-18
 -1      3448 9.52381E-05-2.85725E-05-2.85710E-05-6.64425E-10-4.58120E-19-2.63396E-18
 -1      3449 9.52381E-05-2.85725E-05-2.85710E-05 6.67504E-10-1.33506E-18 3.81698E-19
 -1      3450 9.52382E-05-2.85726E-05-2.85710E-05 5.08390E-10-1.62763E-18 3.42513E-20
 -1      3451 9.52382E-05-2.85726E-05-2.85710E-05 8.38022E-10-1.14879E-18 1.67597E-18
 -1      3452 1.08455E-04-4.70826E-05-2.61445E-05 3.31447E-05-4.59076E-18-2.69741E-18
 -1      3453 9.97238E-05-4.14084E-05-2.49896E-05 3.34417E-05-4.75365E-18-1.73839E-18
 -1      3454 8.11554E-05-2.86134E-05-2.24012E-05 3.27944E-05-5.42477E-18 5.95835E-19
 -1      3455 5.99689E-05-7.19356E-06-2.26286E-05 3.93692E-08-1.69567E-18 6.83450E-19
 -1      3456 9.76048E-05-3.08721E-05-2.85852E-05 2.98246E-07-3.51860E-19-2.05822E-18
 -1      3457 9.80802E-05-3.13592E-05-2.85975E-05 5.35724E-08-4.56151E-19-2.17824E-18
 -1      3458 9.86902E-05-3.19311E-05-2.86302E-05 5.17433E-07-5.09962E-19-1.98947E-18
 -1      3459 9.74319E-05-3.07783E-05-2.85810E-05 7.66939E-07-1.87761E-19-2.45649E-18
 -1      3460 1.20486E-04-1.26986E-05-4.64184E-05 1.34403E-05 4.19821E-18-9.67497E-19
 -1      3461 7.66412E-05-1.44913E-05-2.67124E-05-4.79174E-07-5.89803E-19 3.69793E-19
 -1      3462 8.01516E-05-1.64463E-05-2.73456E-05-7.92275E-07-4.71971E-19-2.20849E-19
 -1      3463 8.13271E-05-1.73967E-05-2.72921E-05 1.74489E-06-9.70780E-19 9.44842E-19
 -1      3464 1.11965E-04-1.26366E-05-4.26902E-05 1.12790E-05 3.87302E-18-1.76379E-18
 -1      3465 1.16685E-04-1.30559E-05-4.46072E-05 1.23457E-05 3.79971E-18-1.21220E-18
 -1      3466 1.16700E-04-1.04070E-05-4.58203E-05 1.09270E-05 4.45269E-18-1.51308E-18
 -1      3467 1.10248E-04-1.17161E-05-4.23003E-05 8.88165E-06 4.02492E-18-1.93941E-18
 -1      3468 6.78815E-05-1.03273E-05-2.46508E-05 8.89764E-07-1.47731E-18 6.53254E-19
 -1      3469 7.25149E-05-1.24708E-05-2.58028E-05 5.12053E-07-7.85471E-19 3.96160E-19
 -1      3470 7.46548E-05-1.38161E-05-2.58935E-05 4.31993E-06-1.06818E-18 1.22443E-18
 -1      3471 1.27362E-04-5.42940E-05-3.14569E-05 2.10013E-05-3.09538E-18-4.63220E-18
 -1      3472 1.16842E-04-5.10056E-05-2.81749E-05 2.86808E-05-3.99519E-18-3.60102E-18
 -1      3473 1.16599E-04-4.92380E-05-2.87320E-05 2.46156E-05-3.79929E-18-3.57490E-18
 -1      3474 1.29296E-04-5.18340E-05-3.30978E-05 1.24654E-05-2.45806E-18-5.33115E-18
 -1      3475 6.03444E-05-1.14057E-05-2.04646E-05 1.95470E-05-3.29583E-18 2.25872E-18
 -1      3476 6.00230E-05-9.58224E-06-2.14579E-05 1.22607E-05-2.35660E-18 1.65426E-18
 -1      3477 6.84472E-05-1.69914E-05-2.21727E-05 2.32380E-05-3.66090E-18 1.42699E-18
 -1      3478 9.52382E-05-2.85727E-05-2.85710E-05-8.00513E-10-1.50505E-20-2.68122E-18
 -1      3479 9.52381E-05-2.85725E-05-2.85710E-05-8.04915E-10-7.49476E-19-2.02373E-18
 -1      3480 9.52380E-05-2.85724E-05-2.85710E-05-9.05913E-10-5.72606E-19-2.63765E-18
 -1      3481 1.12122E-04-1.09227E-05-4.35369E-05-1.31947E-06 4.77790E-18-3.25510E-18
 -1      3482 1.14207E-04-1.25282E-05-4.37780E-05-4.24965E-06 4.81718E-18-3.78870E-18
 -1      3483 1.12367E-04-1.62158E-05-4.13197E-05-5.46981E-06 3.91169E-18-3.82839E-18
 -1      3484 1.01884E-04-2.86715E-05-3.13614E-05-9.00751E-06 1.55366E-18-3.13138E-18
 -1      3485 1.03029E-04-2.59722E-05-3.30853E-05-8.26419E-06 2.32892E-18-2.43771E-18
 -1      3486 1.02243E-04-2.37635E-05-3.35832E-05-6.85138E-06 2.82355E-18-2.18831E-18
 -1      3487 1.03815E-04-3.52275E-05-2.93753E-05-4.12461E-06-5.93197E-19-2.51645E-18
 -1      3488 1.04294E-04-3.52470E-05-2.96076E-05-5.08359E-06-2.83155E-19-2.59032E-18
 -1      3489 1.06510E-04-3.63253E-05-3.00747E-05-4.89655E-06-2.02685E-19-2.83516E-18
 -1      3490 1.01384E-04-4.04833E-05-2.60866E-05 2.89076E-05-4.60237E-18-2.07635E-18
 -1      3491 9.36335E-05-3.60729E-05-2.43131E-05 3.27033E-05-5.09334E-18-8.97617E-19
 -1      3492 9.52377E-05-2.85722E-05-2.85709E-05 1.17850E-09-4.25583E-20 2.61903E-18
 -1      3493 9.52379E-05-2.85724E-05-2.85709E-05 1.24456E-09 4.29379E-19 2.46022E-18
 -1      3494 8.43461E-05-2.89159E-05-2.36910E-05 2.92630E-05-4.71165E-18 4.78693E-19
 -1      3495 1.07665E-04-3.51934E-05-3.10365E-05-7.28307E-06 6.27871E-19-3.17064E-18
 -1      3496 1.05529E-04-3.36102E-05-3.08462E-05-8.29544E-06 7.23455E-19-2.88504E-18
 -1      3497 1.05205E-04-3.21825E-05-3.12817E-05-8.82841E-06 9.70026E-19-2.97194E-18
 -1      3498 1.00820E-04-1.82394E-05-3.54003E-05 2.44929E-06 3.35278E-18-1.90004E-18
 -1      3499 6.32024E-05-8.99308E-06-2.29720E-05 5.72310E-06-1.89805E-18 1.56267E-18
 -1      3500 9.52378E-05-2.85723E-05-2.85709E-05-1.47195E-09-1.61679E-18-1.98344E-19
 -1      3501 1.19941E-04-2.48211E-05-4.10388E-05-9.69883E-06 3.19199E-18-5.18339E-18
 -1      3502 1.21186E-04-2.86516E-05-3.97887E-05-9.38072E-06 2.72827E-18-5.35054E-18
 -1      3503 1.15392E-04-2.08078E-05-4.05727E-05-8.80551E-06 3.41132E-18-4.97495E-18
 -1      3504 9.52383E-05-2.85727E-05-2.85710E-05-1.08284E-10 5.01193E-19-2.03146E-18
 -1      3505 9.52383E-05-2.85727E-05-2.85710E-05-2.93383E-10 5.21765E-19-2.79174E-18
 -1      3506 9.52384E-05-2.85728E-05-2.85710E-05-4.41917E-10 2.35241E-19-2.56168E-18
 -1      3507 9.52384E-05-2.85728E-05-2.85710E-05 4.47232E-10 1.05291E-18-1.34668E-18
 -1      3508 9.52383E-05-2.85727E-05-2.85710E-05 2.98191E-10-5.82015E-20-6.40058E-19
 -1      3509 9.52383E-05-2.85727E-05-2.85710E-05 1.14050E-10 4.85352E-19-2.91516E-18
 -1      3510 1.02087E-04-3.44093E-05-2.89804E-05-2.31710E-06-6.66982E-19-2.29523E-18
 -1      3511 1.02737E-04-3.48169E-05-2.91248E-05-3.12787E-06-3.77763E-19-2.42404E-18
 -1      3512 1.04558E-04-3.59664E-05-2.94086E-05-2.71372E-06-4.69360E-19-2.78861E-18
 -1      3513 1.02374E-04-3.47787E-05-2.89893E-05-1.09059E-06-8.98926E-19-2.66728E-18
 -1      3514 1.03926E-04-2.21689E-05-3.50522E-05-6.04386E-06 3.01369E-18-2.15833E-18
 -1      3515 1.01262E-04-2.16065E-05-3.41781E-05-4.69123E-06 3.06134E-18-2.08188E-18
 -1      3516 1.00772E-04-1.99465E-05-3.46170E-05-2.29745E-06 3.20521E-18-2.08910E-18
 -1      3517 9.52377E-05-2.85722E-05-2.85709E-05-1.08352E-09-1.32654E-18-2.94340E-18
 -1      3518 9.52377E-05-2.85722E-05-2.85709E-05-1.22981E-09-2.47076E-18-1.60747E-18
 -1      3519 9.52378E-05-2.85723E-05-2.85709E-05-1.01095E-09-9.62098E-19-3.71109E-18
 -1      3520 1.16741E-04-9.04071E-06-4.64433E-05 8.77077E-06 4.92105E-18-1.90002E-18
 -1      3521 1.17487E-04-7.21427E-06-4.75903E-05 5.95464E-06 5.59418E-18-2.52200E-18
 -1      3522 1.13939E-04-8.34112E-06-4.53908E-05 3.43855E-06 5.04758E-18-2.88907E-18
 -1      3523 1.13177E-04-9.80486E-06-4.44819E-05 8.05222E-06 4.53366E-18-1.95033E-18
 -1      3524 1.31254E-04-4.25934E-05-3.81642E-05-3.39789E-06 1.22576E-18-6.67552E-18
 -1      3525 1.29598E-04-4.51951E-05-3.62946E-05-1.05495E-07 2.93722E-19-6.23590E-18
 -1      3526 1.26237E-04-3.68823E-05-3.83056E-05-7.35124E-06 1.79387E-18-5.83322E-18
 -1      3527 1.04754E-04-3.04005E-05-3.19159E-05-9.29016E-06 1.27721E-18-2.74736E-18
 -1      3528 1.04047E-04-2.83173E-05-3.24144E-05-9.00791E-06 1.90066E-18-2.60813E-18
 -1      3529 1.06002E-04-2.73500E-05-3.36873E-05-8.93367E-06 2.27325E-18-2.42250E-18
 -1      3530 1.07510E-04-3.21216E-05-3.22787E-05-9.02976E-06 1.40419E-18-2.96400E-18
 -1      3531 1.08490E-04-4.41240E-05-2.74666E-05 2.49860E-05-3.81285E-18-2.40960E-18
 -1      3532 1.01729E-04-3.95449E-05-2.67330E-05 2.50765E-05-3.76153E-18-1.59121E-18
 -1      3533 9.52376E-05-2.85721E-05-2.85709E-05 1.24435E-09-1.74608E-19 2.99031E-18
 -1      3534 9.52374E-05-2.85719E-05-2.85709E-05 1.19588E-09-8.01750E-19 4.35583E-18
 -1      3535 9.52381E-05-2.85726E-05-2.85709E-05 1.41609E-09 1.22657E-18 2.39343E-18
 -1      3536 9.52382E-05-2.85727E-05-2.85710E-05 1.17044E-09 4.16916E-19 2.35324E-18
 -1      3537 8.83812E-05-2.25108E-05-2.82745E-05 7.57102E-07-7.92431E-19-3.51058E-19
 -1      3538 8.97070E-05-2.34246E-05-2.84124E-05 4.08958E-07-5.16964E-19-5.31463E-19
 -1      3539 9.06560E-05-2.41766E-05-2.85191E-05-3.67458E-08-7.93369E-19-7.36221E-19
 -1      3540 9.15461E-05-2.48651E-05-2.85833E-05-1.74247E-07-1.11948E-18-7.38008E-19
 -1      3541 9.02920E-05-2.40000E-05-2.83811E-05 1.16640E-06-8.66317E-19-7.44932E-19
 -1      3542 9.22177E-05-2.54385E-05-2.86368E-05-4.04224E-07-1.08016E-18-1.28389E-18
 -1      3543 9.28050E-05-2.59410E-05-2.86613E-05-4.28419E-07-1.66792E-18-8.81408E-19
 -1      3544 9.18594E-05-2.52060E-05-2.85447E-05 3.62728E-07-1.49731E-18-1.22457E-18
 -1      3545 9.32705E-05-2.63636E-05-2.86846E-05-5.31639E-07-1.66264E-18-8.09712E-21
 -1      3546 9.36521E-05-2.67218E-05-2.86888E-05-5.00704E-07-1.45953E-18 1.19308E-19
 -1      3547 9.29609E-05-2.61347E-05-2.86254E-05-5.36248E-08-1.16155E-18-5.09915E-19
 -1      3548 9.39695E-05-2.70264E-05-2.86957E-05-5.32807E-07-1.25951E-18 2.91905E-19
 -1      3549 9.42143E-05-2.72783E-05-2.86903E-05-4.79720E-07-1.01431E-18 4.98762E-19
 -1      3550 9.37201E-05-2.68260E-05-2.86592E-05-2.42019E-07-1.34543E-18 8.84086E-19
 -1      3551 9.44282E-05-2.74949E-05-2.86889E-05-4.75018E-07-8.29583E-19 1.21987E-19
 -1      3552 9.45836E-05-2.76705E-05-2.86797E-05-4.17567E-07 1.81087E-19 3.73491E-19
 -1      3553 9.42360E-05-2.73303E-05-2.86675E-05-3.02711E-07-8.40041E-19 3.03599E-19
 -1      3554 9.47263E-05-2.78230E-05-2.86744E-05-3.96198E-07 3.57784E-19 2.93372E-19
 -1      3555 9.48239E-05-2.79447E-05-2.86645E-05-3.42768E-07 1.83998E-19 1.09894E-19
 -1      3556 9.45828E-05-2.76932E-05-2.86629E-05-2.97409E-07-1.32071E-19-2.64521E-19
 -1      3557 9.49184E-05-2.80517E-05-2.86579E-05-3.15692E-07 6.35534E-20-8.83646E-19
 -1      3558 9.49792E-05-2.81360E-05-2.86486E-05-2.69755E-07-4.81129E-19-6.53946E-19
 -1      3559 9.48138E-05-2.79518E-05-2.86525E-05-2.61509E-07-2.15020E-19-1.02387E-18
 -1      3560 9.50415E-05-2.82109E-05-2.86419E-05-2.42876E-07-3.83918E-19-1.89891E-19
 -1      3561 9.50791E-05-2.82694E-05-2.86338E-05-2.05246E-07 2.45712E-19-1.48478E-19
 -1      3562 9.49667E-05-2.81355E-05-2.86403E-05-2.15049E-07-3.93057E-19-9.15565E-19
 -1      3563 9.51199E-05-2.83220E-05-2.86277E-05-1.81313E-07-1.56218E-19-3.45769E-19
 -1      3564 9.51429E-05-2.83627E-05-2.86209E-05-1.51516E-07-6.37091E-19-7.24793E-19
 -1      3565 9.50675E-05-2.82659E-05-2.86282E-05-1.68609E-07-2.31985E-19-4.54984E-19
 -1      3566 9.51695E-05-2.83996E-05-2.86156E-05-1.31527E-07-1.33007E-18-1.18074E-18
 -1      3567 9.51834E-05-2.84281E-05-2.86100E-05-1.08547E-07-1.79081E-18-1.06305E-18
 -1      3568 9.51335E-05-2.83585E-05-2.86172E-05-1.27153E-07-9.88383E-19-1.51267E-18
 -1      3569 9.52006E-05-2.84540E-05-2.86055E-05-9.25830E-08-1.51769E-18-1.23700E-18
 -1      3570 9.52089E-05-2.84740E-05-2.86011E-05-7.52592E-08-7.07969E-19-1.60188E-18
 -1      3571 9.51765E-05-2.84242E-05-2.86077E-05-9.25233E-08-1.79708E-18-2.11854E-18
 -1      3572 9.52199E-05-2.84922E-05-2.85974E-05-6.29500E-08-3.89306E-19-2.01557E-18
 -1      3573 9.52247E-05-2.85062E-05-2.85939E-05-5.01689E-08-9.42846E-19-2.19664E-18
 -1      3574 9.52042E-05-2.84709E-05-2.85997E-05-6.49013E-08-6.84203E-19-2.24534E-18
 -1      3575 9.52316E-05-2.85190E-05-2.85910E-05-4.09667E-08-5.79941E-19-1.84883E-18
 -1      3576 9.52343E-05-2.85288E-05-2.85882E-05-3.17439E-08-7.00452E-19-1.27245E-18
 -1      3577 9.52218E-05-2.85040E-05-2.85932E-05-4.36558E-08-3.69950E-19-1.64367E-18
 -1      3578 9.52384E-05-2.85378E-05-2.85859E-05-2.50669E-08-9.62620E-19-1.29251E-18
 -1      3579 9.52398E-05-2.85446E-05-2.85838E-05-1.85733E-08-8.00990E-19-1.60661E-18
 -1      3580 9.52327E-05-2.85274E-05-2.85879E-05-2.78290E-08-9.88605E-19-1.24039E-18
 -1      3581 9.52422E-05-2.85508E-05-2.85819E-05-1.38795E-08-6.72309E-19-1.60233E-18
 -1      3582 9.52428E-05-2.85555E-05-2.85803E-05-9.43900E-09-1.72839E-19-2.24387E-18
 -1      3583 9.52392E-05-2.85438E-05-2.85837E-05-1.63986E-08-1.13937E-18-1.83487E-18
 -1      3584 9.52440E-05-2.85597E-05-2.85789E-05-6.25845E-09 1.71479E-19-1.93733E-18
 -1      3585 9.52441E-05-2.85629E-05-2.85777E-05-3.33284E-09 5.94635E-20-1.38920E-18
 -1      3586 9.52428E-05-2.85552E-05-2.85804E-05-8.41190E-09 1.08895E-19-2.39893E-18
 -1      3587 9.52446E-05-2.85657E-05-2.85766E-05-1.27626E-09 2.69430E-19-7.98395E-19
 -1      3588 9.52444E-05-2.85678E-05-2.85757E-05 5.54246E-10 3.85855E-19-2.32019E-19
 -1      3589 9.52446E-05-2.85629E-05-2.85779E-05-3.04317E-09 8.09991E-19 1.21523E-21
 -1      3590 9.52445E-05-2.85696E-05-2.85749E-05 1.79816E-09-2.00247E-19-6.67724E-19
 -1      3591 9.52442E-05-2.85709E-05-2.85743E-05 2.85529E-09 1.20454E-18-1.14110E-18
 -1      3592 9.52451E-05-2.85680E-05-2.85759E-05 3.89526E-10 3.37260E-19-4.12853E-19
 -1      3593 9.52439E-05-2.85720E-05-2.85736E-05 3.52862E-09 2.02289E-18-1.53998E-18
 -1      3594 9.52436E-05-2.85728E-05-2.85732E-05 4.05461E-09 1.54205E-18-1.07874E-18
 -1      3595 9.52449E-05-2.85713E-05-2.85744E-05 2.42995E-09 1.41025E-18-1.82474E-18
 -1      3596 9.52432E-05-2.85734E-05-2.85727E-05 4.34096E-09 6.46123E-19-6.50042E-19
 -1      3597 9.52428E-05-2.85739E-05-2.85724E-05 4.51498E-09 1.04467E-19 2.89976E-19
 -1      3598 9.52443E-05-2.85732E-05-2.85734E-05 3.49930E-09 1.49176E-18-1.91167E-18
 -1      3599 9.52424E-05-2.85741E-05-2.85721E-05 4.55026E-09-1.19850E-18 1.02997E-18
 -1      3600 9.52420E-05-2.85743E-05-2.85719E-05 4.50222E-09-1.15613E-18 1.14963E-18
 -1      3601 9.52435E-05-2.85742E-05-2.85726E-05 3.91561E-09-3.67344E-19 8.29698E-19
 -1      3602 9.52415E-05-2.85744E-05-2.85716E-05 4.38456E-09-5.37969E-19 1.78283E-18
 -1      3603 9.52412E-05-2.85744E-05-2.85715E-05 4.20658E-09 6.79852E-19 1.84166E-18
 -1      3604 9.52426E-05-2.85747E-05-2.85720E-05 3.91307E-09-3.65486E-19 2.43517E-18
 -1      3605 9.52408E-05-2.85743E-05-2.85713E-05 4.00488E-09 5.32204E-19 1.47891E-18
 -1      3606 9.52405E-05-2.85742E-05-2.85712E-05 3.76053E-09-1.94990E-19 1.10562E-18
 -1      3607 9.52417E-05-2.85747E-05-2.85716E-05 3.65974E-09 4.36701E-19 2.08642E-18
 -1      3608 9.52401E-05-2.85741E-05-2.85711E-05 3.52170E-09-8.96040E-19 1.95205E-18
 -1      3609 9.52398E-05-2.85739E-05-2.85711E-05 3.25341E-09-1.10965E-18 1.56690E-18
 -1      3610 9.52409E-05-2.85745E-05-2.85713E-05 3.27282E-09-1.46273E-19 2.25327E-18
 -1      3611 9.52395E-05-2.85737E-05-2.85710E-05 3.00821E-09-6.76165E-19 1.37818E-18
 -1      3612 9.52393E-05-2.85736E-05-2.85710E-05 2.74287E-09 8.97802E-19 1.59019E-18
 -1      3613 9.52402E-05-2.85742E-05-2.85712E-05 2.83169E-09-5.63522E-20 1.88854E-18
 -1      3614 9.52390E-05-2.85734E-05-2.85710E-05 2.50946E-09 1.30512E-18 1.08217E-18
 -1      3615 9.52388E-05-2.85732E-05-2.85710E-05 2.26275E-09 9.17691E-19 1.88604E-18
 -1      3616 9.52395E-05-2.85738E-05-2.85711E-05 2.38702E-09 9.45353E-19 1.98068E-18
 -1      3617 9.52385E-05-2.85730E-05-2.85709E-05 2.04956E-09 1.17074E-18 2.46987E-18
 -1      3618 9.52384E-05-2.85729E-05-2.85709E-05 1.83283E-09 1.57562E-18 2.54853E-18
 -1      3619 9.52390E-05-2.85734E-05-2.85710E-05 1.96673E-09 1.54376E-18 2.99952E-18
 -1      3620 9.52382E-05-2.85727E-05-2.85709E-05 1.60476E-09 1.92841E-18 2.65919E-18
 -1      3621 8.93056E-05-3.07726E-05-2.51816E-05 2.60559E-05-3.87283E-18-5.95835E-20
 -1      3622 7.96559E-05-2.34960E-05-2.36421E-05 2.58220E-05-3.91025E-18 8.76262E-19
 -1      3623 9.57374E-05-2.90642E-05-2.85705E-05 9.43093E-07-7.77777E-19-5.58997E-19
 -1      3624 9.59772E-05-2.93140E-05-2.85654E-05 1.00268E-06-3.07842E-19-6.18375E-19
 -1      3625 9.62811E-05-2.96236E-05-2.85607E-05 1.13504E-06-1.40139E-19-1.37806E-18
 -1      3626 9.66520E-05-2.99994E-05-2.85604E-05 1.16842E-06-5.51490E-20-1.72368E-18
 -1      3627 9.59990E-05-2.93980E-05-2.85541E-05 1.32877E-06-6.52626E-19-7.36235E-19
 -1      3628 9.52384E-05-2.85174E-05-2.85941E-05 5.85837E-07-9.70488E-19-1.36254E-18
 -1      3629 9.53201E-05-2.86042E-05-2.85897E-05 6.49058E-07-8.95875E-19-1.20308E-18
 -1      3630 9.51546E-05-2.84183E-05-2.86013E-05 4.45797E-07-5.91447E-19-1.78674E-18
 -1      3631 9.51957E-05-2.84606E-05-2.85987E-05 5.01646E-07-8.30042E-19-1.27153E-18
 -1      3632 9.51403E-05-2.84284E-05-2.85932E-05 5.84577E-07-8.07037E-19-1.26358E-18
 -1      3633 9.51260E-05-2.83824E-05-2.86048E-05 3.33003E-07 8.68958E-19-1.49126E-18
 -1      3634 9.51425E-05-2.83968E-05-2.86038E-05 3.79943E-07 1.55140E-19-1.26646E-18
 -1      3635 9.50897E-05-2.83576E-05-2.86006E-05 4.28163E-07-4.71098E-19-1.68595E-18
 -1      3636 9.51273E-05-2.83832E-05-2.86051E-05 2.44591E-07-5.69301E-19-7.31624E-19
 -1      3637 9.51301E-05-2.83815E-05-2.86055E-05 2.82780E-07 4.65280E-19-8.02483E-19
 -1      3638 9.50842E-05-2.83423E-05-2.86042E-05 3.09471E-07-1.24074E-19-1.09964E-18
 -1      3639 9.51426E-05-2.84029E-05-2.86032E-05 1.76559E-07-4.58910E-19-3.55967E-19
 -1      3640 9.51387E-05-2.83931E-05-2.86046E-05 2.06885E-07-7.16267E-20-1.60948E-19
 -1      3641 9.51010E-05-2.83573E-05-2.86046E-05 2.20890E-07-7.71559E-19 3.22914E-19
 -1      3642 9.51629E-05-2.84306E-05-2.86000E-05 1.24988E-07 2.88312E-19-9.92503E-19
 -1      3643 9.51562E-05-2.84175E-05-2.86019E-05 1.48593E-07-3.38356E-19-6.46524E-19
 -1      3644 9.51267E-05-2.83868E-05-2.86028E-05 1.55509E-07 7.08249E-20 1.87715E-19
 -1      3645 9.51829E-05-2.84595E-05-2.85961E-05 8.64286E-08 1.41678E-18-2.74196E-18
 -1      3646 9.51759E-05-2.84461E-05-2.85982E-05 1.04471E-07 1.26843E-18-1.95618E-18
 -1      3647 9.51536E-05-2.84208E-05-2.85996E-05 1.07681E-07 1.08313E-18-2.32993E-18
 -1      3648 9.52003E-05-2.84862E-05-2.85920E-05 5.79987E-08 4.05484E-19-2.09907E-18
 -1      3649 9.51941E-05-2.84740E-05-2.85941E-05 7.15427E-08 5.20797E-19-1.94568E-18
 -1      3650 9.51779E-05-2.84539E-05-2.85958E-05 7.29885E-08 8.04206E-19-1.69436E-18
 -1      3651 9.52142E-05-2.85091E-05-2.85882E-05 3.73584E-08-5.34984E-19-1.02447E-18
 -1      3652 9.52092E-05-2.84987E-05-2.85901E-05 4.73335E-08-2.86589E-19-1.76729E-18
 -1      3653 9.51980E-05-2.84832E-05-2.85919E-05 4.80566E-08-3.87688E-19-9.86173E-19
 -1      3654 9.52247E-05-2.85276E-05-2.85846E-05 2.26424E-08-1.44559E-18 8.99626E-19
 -1      3655 9.52210E-05-2.85192E-05-2.85863E-05 2.98339E-08-1.04274E-18 2.44698E-20
 -1      3656 9.52135E-05-2.85077E-05-2.85881E-05 3.03442E-08-1.67446E-18-5.92478E-19
 -1      3657 9.52322E-05-2.85420E-05-2.85816E-05 1.23815E-08 1.18155E-19 8.14803E-19
 -1      3658 9.52295E-05-2.85355E-05-2.85831E-05 1.74375E-08-6.87489E-19 1.22404E-18
 -1      3659 9.52250E-05-2.85272E-05-2.85847E-05 1.79475E-08-1.22473E-18 2.65628E-19
 -1      3660 9.52371E-05-2.85529E-05-2.85791E-05 5.42859E-09 4.61454E-19 4.57361E-19
 -1      3661 9.52354E-05-2.85480E-05-2.85803E-05 8.87425E-09 8.42082E-19 1.16431E-18
 -1      3662 9.52329E-05-2.85422E-05-2.85817E-05 9.44344E-09 5.32682E-19 1.16620E-18
 -1      3663 9.52402E-05-2.85607E-05-2.85770E-05 8.96254E-10 1.04765E-18 4.23765E-21
 -1      3664 9.52392E-05-2.85572E-05-2.85779E-05 3.14980E-09 6.24549E-19-4.61471E-19
 -1      3665 9.52381E-05-2.85533E-05-2.85792E-05 3.76820E-09 9.40308E-19 3.49710E-19
 -1      3666 9.52419E-05-2.85661E-05-2.85754E-05-1.89600E-09 1.87130E-18 6.92579E-19
 -1      3667 9.52414E-05-2.85637E-05-2.85761E-05-5.06654E-10 1.40313E-18 7.28819E-19
 -1      3668 9.52412E-05-2.85612E-05-2.85771E-05 1.27084E-10 8.76924E-19 5.94001E-19
 -1      3669 9.52426E-05-2.85698E-05-2.85741E-05-3.46441E-09 2.48522E-18 1.48227E-18
 -1      3670 9.52424E-05-2.85682E-05-2.85746E-05-2.68634E-09 2.35829E-18 1.07307E-18
 -1      3671 9.52429E-05-2.85667E-05-2.85755E-05-2.07251E-09 1.50746E-18 2.02412E-19
 -1      3672 9.52426E-05-2.85721E-05-2.85731E-05-4.19572E-09 2.10548E-18 1.58460E-19
 -1      3673 9.52427E-05-2.85711E-05-2.85735E-05-3.83715E-09 2.85035E-18 8.80103E-19
 -1      3674 9.52435E-05-2.85703E-05-2.85742E-05-3.27056E-09 2.87749E-18 7.89918E-19
 -1      3675 9.52423E-05-2.85734E-05-2.85724E-05-4.37541E-09 1.96472E-18-1.83858E-18
 -1      3676 9.52425E-05-2.85728E-05-2.85727E-05-4.29361E-09 1.79365E-18-1.62730E-19
 -1      3677 9.52434E-05-2.85726E-05-2.85732E-05-3.79123E-09 2.05765E-18 8.63508E-20
 -1      3678 9.52418E-05-2.85740E-05-2.85719E-05-4.21042E-09 2.53475E-18-1.92451E-18
 -1      3679 9.52420E-05-2.85738E-05-2.85721E-05-4.30136E-09 1.88797E-18-1.82393E-18
 -1      3680 9.52430E-05-2.85738E-05-2.85725E-05-3.87080E-09 2.16591E-18-1.54063E-18
 -1      3681 9.52411E-05-2.85742E-05-2.85715E-05-3.84750E-09 1.97859E-18-1.07133E-18
 -1      3682 9.52414E-05-2.85742E-05-2.85717E-05-4.03720E-09 2.63492E-18-8.41960E-19
 -1      3683 9.52424E-05-2.85744E-05-2.85720E-05-3.67881E-09 1.68233E-18-1.21937E-18
 -1      3684 9.52405E-05-2.85741E-05-2.85713E-05-3.38794E-09-7.45519E-19-4.80515E-19
 -1      3685 9.52407E-05-2.85742E-05-2.85714E-05-3.62529E-09 6.94529E-19 1.57210E-19
 -1      3686 9.52416E-05-2.85745E-05-2.85716E-05-3.33453E-09 6.03164E-19 2.77551E-19
 -1      3687 9.52399E-05-2.85739E-05-2.85711E-05-2.89925E-09-1.88861E-18-1.76548E-18
 -1      3688 9.52401E-05-2.85740E-05-2.85712E-05-3.15026E-09-1.64251E-18-6.16876E-19
 -1      3689 9.52409E-05-2.85744E-05-2.85714E-05-2.91969E-09-9.77515E-19-1.93857E-19
 -1      3690 9.52393E-05-2.85736E-05-2.85710E-05-2.42363E-09-1.61071E-18-1.60500E-18
 -1      3691 9.52395E-05-2.85737E-05-2.85711E-05-2.66714E-09-1.99038E-18-1.31854E-18
 -1      3692 9.52402E-05-2.85741E-05-2.85712E-05-2.48840E-09-2.32461E-18-1.39083E-18
 -1      3693 9.52388E-05-2.85732E-05-2.85710E-05-1.98585E-09-8.55137E-19-1.65017E-18
 -1      3694 9.52390E-05-2.85734E-05-2.85710E-05-2.20936E-09-1.15605E-18-2.09567E-18
 -1      3695 9.52395E-05-2.85737E-05-2.85711E-05-2.07378E-09-9.80245E-19-2.26699E-18
 -1      3696 9.52384E-05-2.85729E-05-2.85710E-05-1.59770E-09 7.99615E-19-3.26761E-18
 -1      3697 9.52386E-05-2.85730E-05-2.85710E-05-1.79383E-09-1.16865E-19-2.37764E-18
 -1      3698 9.52390E-05-2.85733E-05-2.85710E-05-1.69656E-09-1.89464E-19-3.76597E-18
 -1      3699 7.44085E-05-1.51733E-05-2.54536E-05 9.14537E-06-1.29981E-18 4.13276E-19
 -1      3700 7.82051E-05-1.68458E-05-2.63111E-05 7.11712E-06-7.75849E-19 4.95481E-19
 -1      3701 1.03939E-04-1.54411E-05-3.78817E-05 3.36668E-06 3.58963E-18-2.39816E-18
 -1      3702 1.06210E-04-1.36115E-05-3.97001E-05 4.08185E-06 3.73526E-18-2.39126E-18
 -1      3703 9.52384E-05-2.85728E-05-2.85710E-05 9.57396E-10 8.19132E-20 2.08579E-18
 -1      3704 9.52385E-05-2.85729E-05-2.85710E-05 7.78525E-10 1.97617E-19-2.88780E-19
 -1      3705 9.52386E-05-2.85730E-05-2.85710E-05 1.11847E-09 1.03111E-18 2.27674E-18
 -1      3706 9.54144E-05-2.87160E-05-2.85833E-05 7.53412E-07-1.17755E-18-1.27874E-18
 -1      3707 9.55598E-05-2.88700E-05-2.85776E-05 8.19845E-07-1.29372E-18-9.71074E-19
 -1      3708 9.55320E-05-2.88908E-05-2.85673E-05 1.03537E-06-9.53747E-19-3.95772E-19
 -1      3709 1.00166E-04-3.31273E-05-2.87052E-05 1.11239E-06-9.80422E-19-1.80682E-18
 -1      3710 1.01110E-04-3.39392E-05-2.87909E-05 7.94829E-07-1.18228E-18-1.75515E-18
 -1      3711 8.51372E-05-2.04151E-05-2.78067E-05 2.26137E-06-1.34764E-18 1.94500E-19
 -1      3712 8.70742E-05-2.15713E-05-2.80767E-05 1.55195E-06-1.03986E-18-1.03325E-19
 -1      3713 8.81129E-05-2.25076E-05-2.80758E-05 2.60153E-06-1.05520E-18-2.47373E-19
 -1      3714 8.06173E-05-1.79446E-05-2.69546E-05 4.89160E-06-7.92601E-19 2.85616E-19
 -1      3715 8.33936E-05-1.93242E-05-2.74568E-05 3.60859E-06-1.01611E-18 1.11986E-19
 -1      3716 8.51802E-05-2.08065E-05-2.75351E-05 5.02967E-06-1.26804E-18-4.05055E-19
 -1      3717 6.75673E-05-1.23087E-05-2.37283E-05 1.15332E-05-2.31270E-18 1.45424E-18
 -1      3718 9.52380E-05-2.85725E-05-2.85709E-05-1.40385E-09-1.01848E-18-1.97692E-18
 -1      3719 1.22437E-04-3.23095E-05-3.87724E-05-9.32080E-06 2.10734E-18-5.40342E-18
 -1      3720 1.22948E-04-3.57025E-05-3.74498E-05-7.64596E-06 1.74576E-18-5.27840E-18
 -1      3721 1.18155E-04-2.77546E-05-3.88016E-05-9.76262E-06 2.55804E-18-4.88309E-18
 -1      3722 9.52385E-05-2.85728E-05-2.85710E-05-8.02302E-10-8.10997E-19-2.41528E-18
 -1      3723 9.52384E-05-2.85728E-05-2.85710E-05-9.58573E-10-1.27738E-18-2.33946E-18
 -1      3724 1.06640E-04-2.28361E-05-3.60072E-05-7.51473E-06 2.87091E-18-2.73085E-18
 -1      3725 1.05561E-04-1.98394E-05-3.67083E-05-5.38784E-06 3.10160E-18-2.86800E-18
 -1      3726 1.14012E-04-4.72300E-05-2.86845E-05 2.18490E-05-3.27545E-18-3.25491E-18
 -1      3727 1.13746E-04-4.55705E-05-2.91215E-05 1.79865E-05-2.87313E-18-2.99346E-18
 -1      3728 1.21534E-04-5.05319E-05-3.05121E-05 1.72055E-05-2.70939E-18-3.99860E-18
 -1      3729 1.26314E-04-4.41398E-05-3.51725E-05-1.47082E-06 1.46340E-19-5.48785E-18
 -1      3730 1.28724E-04-4.87950E-05-3.44478E-05 4.23413E-06-1.06851E-18-5.43354E-18
 -1      3731 1.07842E-04-3.77153E-05-3.00235E-05-2.91133E-06-6.32873E-19-2.60239E-18
 -1      3732 1.08668E-04-3.76785E-05-3.04467E-05-4.07589E-06 1.71723E-21-2.67265E-18
 -1      3733 1.02030E-04-3.47659E-05-2.88616E-05 1.77347E-06-1.40177E-18-1.35312E-18
 -1      3734 1.02450E-04-3.48774E-05-2.89262E-05 4.68029E-07-1.20106E-18-2.14458E-18
 -1      3735 1.03539E-04-3.56929E-05-2.90882E-05-1.11864E-07-8.67645E-19-2.11624E-18
 -1      3736 9.52386E-05-2.85730E-05-2.85710E-05 1.54516E-09 1.88789E-18 2.71538E-18
 -1      3737 9.65715E-05-3.49782E-05-2.61521E-05 2.45714E-05-3.81596E-18-9.49837E-19
 -1      3738 9.03872E-05-3.03294E-05-2.59084E-05 2.24997E-05-3.18861E-18-1.79088E-19
 -1      3739 1.09910E-04-3.74005E-05-3.10732E-05-5.65107E-06 4.85264E-19-2.79096E-18
 -1      3740 1.10189E-04-3.63269E-05-3.16658E-05-6.81977E-06 7.03279E-19-2.78301E-18
 -1      3741 1.11195E-04-3.88381E-05-3.10007E-05-3.59212E-06 1.23643E-19-2.34918E-18
 -1      3742 7.29318E-05-1.56161E-05-2.43364E-05 1.45153E-05-2.17735E-18 3.24531E-19
 -1      3743 9.67676E-05-3.01850E-05-2.85514E-05 1.63932E-06-3.81042E-19-1.14018E-18
 -1      3744 9.71358E-05-3.04585E-05-2.85645E-05 1.28724E-06-2.92904E-19-1.90873E-18
 -1      3745 9.76766E-05-3.09864E-05-2.85770E-05 1.26186E-06-4.05026E-19-1.70035E-18
 -1      3746 8.12350E-05-1.90545E-05-2.65784E-05 8.97071E-06-9.38415E-19-2.99276E-19
 -1      3747 9.52384E-05-2.85728E-05-2.85710E-05-1.32915E-09-1.12147E-18-2.14921E-18
 -1      3748 9.52387E-05-2.85731E-05-2.85710E-05-1.23783E-09-1.22715E-18-2.37172E-18
 -1      3749 1.07538E-04-1.45127E-05-3.99408E-05-1.50825E-06 3.81027E-18-3.18990E-18
 -1      3750 1.08784E-04-1.27847E-05-4.12117E-05 2.17576E-06 4.05014E-18-2.73226E-18
 -1      3751 1.11202E-04-1.94771E-05-3.94573E-05-7.24570E-06 3.32017E-18-4.01131E-18
 -1      3752 1.12424E-04-2.20782E-05-3.87248E-05-8.40834E-06 2.95448E-18-4.23965E-18
 -1      3753 9.52389E-05-2.85732E-05-2.85710E-05 6.26429E-10 5.19524E-19-2.17283E-18
 -1      3754 9.52387E-05-2.85730E-05-2.85710E-05 5.16425E-10-3.57261E-19-1.89054E-18
 -1      3755 9.52387E-05-2.85730E-05-2.85710E-05 2.93221E-10 8.53551E-19-2.91692E-18
 -1      3756 1.02785E-04-1.76051E-05-3.65338E-05 1.10976E-06 3.34467E-18-2.25328E-18
 -1      3757 9.52385E-05-2.85729E-05-2.85710E-05 2.84032E-12 1.42947E-18-2.92384E-18
 -1      3758 9.52705E-05-2.85895E-05-2.85817E-05 7.85396E-07-1.19107E-18-1.24704E-18
 -1      3759 9.91435E-05-3.23112E-05-2.86404E-05 1.18696E-06-5.81735E-19-1.47490E-18
 -1      3760 9.96796E-05-3.28654E-05-2.86638E-05 2.01806E-06-9.28849E-19-1.16023E-18
 -1      3761 9.84022E-05-3.16231E-05-2.86018E-05 1.32270E-06-4.52691E-19-1.52071E-18
 -1      3762 7.52262E-05-1.98519E-05-2.37233E-05 2.13681E-05-3.08423E-18 8.41196E-19
 -1      3763 1.02314E-04-3.84971E-05-2.73312E-05 2.13450E-05-3.17246E-18-1.47787E-18
 -1      3764 9.52380E-05-2.85725E-05-2.85710E-05-1.05590E-09-8.96388E-19-2.28839E-18
 -1      3765 1.25228E-04-4.99632E-05-3.22879E-05 1.08595E-05-2.04867E-18-4.73383E-18
 -1      3766 1.08156E-04-2.62860E-05-3.50337E-05-8.87734E-06 2.60485E-18-2.72018E-18
 -1      3767 1.10079E-04-2.45496E-05-3.66514E-05-8.62323E-06 2.75376E-18-3.33724E-18
 -1      3768 1.09230E-04-2.95255E-05-3.42462E-05-9.50722E-06 2.10058E-18-2.91882E-18
 -1      3769 9.52387E-05-2.85730E-05-2.85710E-05-3.40258E-10 7.98255E-19-1.25051E-18
 -1      3770 9.52386E-05-2.85729E-05-2.85710E-05-5.60800E-10 1.27614E-19-1.62426E-18
 -1      3771 9.52387E-05-2.85731E-05-2.85710E-05-7.12574E-10-1.39854E-18-6.46345E-19
 -1      3772 1.09299E-04-1.73098E-05-3.94843E-05-5.43515E-06 3.47654E-18-3.54382E-18
 -1      3773 1.10786E-04-1.03075E-05-4.32035E-05 4.60783E-06 4.53787E-18-2.45548E-18
 -1      3774 1.06657E-04-1.77894E-05-3.81482E-05-3.39627E-06 3.21311E-18-3.05557E-18
 -1      3775 1.23371E-04-4.10433E-05-3.54434E-05-4.99864E-06 7.55596E-19-4.90539E-18
 -1      3776 1.22552E-04-4.36401E-05-3.38274E-05-1.07467E-06-9.64823E-20-4.56093E-18
 -1      3777 8.08409E-05-2.15138E-05-2.54386E-05 1.72301E-05-2.40189E-18 6.33422E-20
 -1      3778 9.52786E-05-2.86261E-05-2.85650E-05 1.08533E-06-1.02416E-18-7.63605E-19
 -1      3779 9.54569E-05-2.88072E-05-2.85571E-05 1.23591E-06-9.66617E-19-5.52961E-19
 -1      3780 9.08588E-05-2.89365E-05-2.65377E-05 1.84652E-05-2.51867E-18-4.81810E-19
 -1      3781 8.54249E-05-2.47984E-05-2.57695E-05 1.90606E-05-2.46490E-18 3.05034E-19
 -1      3782 8.20639E-05-2.11943E-05-2.61448E-05 1.36899E-05-1.70236E-18-1.67354E-19
 -1      3783 9.16786E-05-2.52863E-05-2.84779E-05 1.08172E-06-1.55458E-18-7.83634E-19
 -1      3784 9.23425E-05-2.57514E-05-2.85360E-05 7.51672E-07-1.54069E-18-7.10919E-19
 -1      3785 9.27686E-05-2.61205E-05-2.85793E-05 4.18930E-07-6.76712E-19-3.74443E-19
 -1      3786 9.32302E-05-2.64791E-05-2.86071E-05 2.49633E-07-6.82494E-19 3.52874E-19
 -1      3787 9.27303E-05-2.61474E-05-2.85235E-05 1.04927E-06-1.00200E-18 9.45943E-20
 -1      3788 9.35478E-05-2.67702E-05-2.86291E-05 6.22320E-08-1.08305E-18 4.19875E-19
 -1      3789 9.38631E-05-2.70388E-05-2.86396E-05-1.34235E-08-1.10156E-18 7.29424E-19
 -1      3790 9.34556E-05-2.67248E-05-2.85904E-05 4.78273E-07-5.59811E-19 3.13239E-19
 -1      3791 9.40932E-05-2.72606E-05-2.86488E-05-1.10587E-07-1.51734E-18 1.68504E-19
 -1      3792 9.43066E-05-2.74590E-05-2.86500E-05-1.33815E-07-8.61769E-19-2.21854E-19
 -1      3793 9.39888E-05-2.71856E-05-2.86235E-05 1.58353E-07-1.45404E-18 1.20244E-19
 -1      3794 9.44703E-05-2.76247E-05-2.86519E-05-1.78891E-07-2.47430E-19-5.74213E-19
 -1      3795 9.46128E-05-2.77686E-05-2.86486E-05-1.74946E-07-2.69347E-19-6.35544E-19
 -1      3796 9.43732E-05-2.75453E-05-2.86361E-05-8.89572E-09-1.40010E-18-4.31270E-19
 -1      3797 9.47283E-05-2.78910E-05-2.86468E-05-1.89883E-07-1.23373E-19-1.11943E-18
 -1      3798 9.48230E-05-2.79951E-05-2.86415E-05-1.73650E-07-2.23665E-19-1.22440E-18
 -1      3799 9.46458E-05-2.78175E-05-2.86377E-05-8.42301E-08-3.09160E-19-1.64631E-18
 -1      3800 9.49036E-05-2.80847E-05-2.86379E-05-1.73001E-07 8.93007E-20-1.14132E-18
 -1      3801 9.49661E-05-2.81597E-05-2.86322E-05-1.52730E-07-1.43111E-19-9.58473E-19
 -1      3802 9.48377E-05-2.80219E-05-2.86333E-05-1.08708E-07 5.62691E-20-1.68308E-18
 -1      3803 9.50220E-05-2.82251E-05-2.86279E-05-1.44851E-07-7.13751E-19 6.93426E-20
 -1      3804 9.50630E-05-2.82791E-05-2.86224E-05-1.24854E-07 1.29492E-19-2.34592E-19
 -1      3805 9.49713E-05-2.81738E-05-2.86261E-05-1.06735E-07 3.44947E-22-1.00092E-18
 -1      3806 9.51015E-05-2.83266E-05-2.86181E-05-1.14481E-07-1.08881E-18-6.06681E-19
 -1      3807 9.51282E-05-2.83655E-05-2.86132E-05-9.67700E-08-2.73385E-18-1.34537E-18
 -1      3808 9.50638E-05-2.82861E-05-2.86181E-05-9.26370E-08-1.13087E-18-1.78988E-19
 -1      3809 9.51545E-05-2.84000E-05-2.86092E-05-8.64162E-08-2.44725E-18-1.39931E-18
 -1      3810 9.51718E-05-2.84279E-05-2.86050E-05-7.17124E-08-1.23605E-18-1.30292E-18
 -1      3811 9.51272E-05-2.83688E-05-2.86102E-05-7.45046E-08-2.30021E-18-6.72454E-19
 -1      3812 9.51896E-05-2.84529E-05-2.86015E-05-6.25667E-08-6.43652E-19-1.76833E-18
 -1      3813 9.52006E-05-2.84729E-05-2.85979E-05-5.09044E-08-2.89160E-19-1.83111E-18
 -1      3814 9.51704E-05-2.84294E-05-2.86029E-05-5.65937E-08-1.21688E-18-1.60506E-18
 -1      3815 9.52124E-05-2.84909E-05-2.85949E-05-4.33975E-08 3.94924E-19-1.64920E-18
 -1      3816 9.52194E-05-2.85053E-05-2.85920E-05-3.44793E-08 1.35650E-19-1.03099E-18
 -1      3817 9.51995E-05-2.84736E-05-2.85966E-05-4.08846E-08-2.02795E-19-1.06279E-18
 -1      3818 9.52271E-05-2.85181E-05-2.85895E-05-2.86353E-08-7.96074E-19-1.11415E-18
 -1      3819 9.52313E-05-2.85283E-05-2.85872E-05-2.20337E-08-1.26357E-18-1.07868E-18
 -1      3820 9.52186E-05-2.85056E-05-2.85911E-05-2.80664E-08-1.83108E-19-9.88842E-19
 -1      3821 9.52362E-05-2.85374E-05-2.85851E-05-1.76800E-08-1.26488E-18-3.16584E-19
 -1      3822 9.52386E-05-2.85445E-05-2.85833E-05-1.29470E-08-1.17656E-18-5.88901E-19
 -1      3823 9.52309E-05-2.85286E-05-2.85866E-05-1.81424E-08-1.15789E-18 5.84074E-20
 -1      3824 9.52415E-05-2.85509E-05-2.85816E-05-9.83517E-09-6.39291E-19 2.18336E-20
 -1      3825 9.52427E-05-2.85558E-05-2.85802E-05-6.55740E-09 8.25543E-19-2.30719E-20
 -1      3826 9.52385E-05-2.85448E-05-2.85830E-05-1.07900E-08-3.49489E-19 1.24983E-18
 -1      3827 9.52443E-05-2.85602E-05-2.85789E-05-4.42913E-09 1.18745E-18 7.70547E-19
 -1      3828 9.52448E-05-2.85635E-05-2.85778E-05-2.25097E-09 1.21876E-18 6.57798E-19
 -1      3829 9.52429E-05-2.85562E-05-2.85800E-05-5.56591E-09 1.26119E-18 1.31722E-18
 -1      3830 9.52455E-05-2.85664E-05-2.85767E-05-8.70605E-10 6.58756E-19 1.10028E-18
 -1      3831 9.52456E-05-2.85686E-05-2.85759E-05 4.99776E-10-2.70689E-20 1.14454E-18
 -1      3832 9.52451E-05-2.85639E-05-2.85777E-05-2.01723E-09 8.12373E-19 1.57950E-18
 -1      3833 9.52457E-05-2.85704E-05-2.85751E-05 1.33178E-09-3.46208E-19 3.51501E-19
 -1      3834 9.52455E-05-2.85718E-05-2.85745E-05 2.12567E-09 7.65769E-19-3.68101E-19
 -1      3835 9.52460E-05-2.85689E-05-2.85759E-05 2.64832E-10-7.41721E-19 2.42255E-18
 -1      3836 9.52453E-05-2.85728E-05-2.85739E-05 2.56993E-09 2.27401E-18-8.38213E-19
 -1      3837 9.52449E-05-2.85736E-05-2.85734E-05 2.96541E-09 1.77010E-18-6.01152E-19
 -1      3838 9.52459E-05-2.85721E-05-2.85745E-05 1.62364E-09 1.65639E-18 9.12313E-19
 -1      3839 9.52445E-05-2.85742E-05-2.85730E-05 3.14630E-09 1.65721E-18 1.11425E-18
 -1      3840 9.52441E-05-2.85746E-05-2.85726E-05 3.27695E-09 1.02533E-18 2.30024E-18
 -1      3841 9.52453E-05-2.85739E-05-2.85734E-05 2.33374E-09 2.97351E-18 1.00700E-18
 -1      3842 9.52436E-05-2.85748E-05-2.85723E-05 3.28760E-09-3.33181E-19 2.48717E-18
 -1      3843 9.52431E-05-2.85750E-05-2.85721E-05 3.25110E-09-1.15656E-20 3.09870E-18
 -1      3844 9.52444E-05-2.85749E-05-2.85727E-05 2.60637E-09 1.42119E-18 3.19968E-18
 -1      3845 9.52426E-05-2.85750E-05-2.85718E-05 3.15905E-09-4.45272E-19 3.36126E-18
 -1      3846 9.52422E-05-2.85749E-05-2.85717E-05 3.02494E-09 1.43398E-19 2.46313E-18
 -1      3847 9.52434E-05-2.85752E-05-2.85721E-05 2.59875E-09-3.67601E-19 3.16590E-18
 -1      3848 9.52417E-05-2.85748E-05-2.85715E-05 2.87742E-09 3.43875E-19 2.57611E-18
 -1      3849 9.52413E-05-2.85747E-05-2.85714E-05 2.69371E-09-1.13668E-20 2.81496E-18
 -1      3850 9.52424E-05-2.85751E-05-2.85717E-05 2.42408E-09 4.40666E-19 3.58633E-18
 -1      3851 9.52408E-05-2.85745E-05-2.85713E-05 2.52281E-09 3.14134E-19 2.20251E-18
 -1      3852 9.52405E-05-2.85743E-05-2.85712E-05 2.32164E-09 5.19563E-19 2.63493E-18
 -1      3853 9.52415E-05-2.85748E-05-2.85714E-05 2.16070E-09 2.10103E-19 4.11122E-18
 -1      3854 9.52401E-05-2.85741E-05-2.85711E-05 2.15024E-09 7.29927E-19 3.06861E-18
 -1      3855 9.52398E-05-2.85739E-05-2.85711E-05 1.95046E-09 1.75711E-18 3.34540E-18
 -1      3856 9.52406E-05-2.85744E-05-2.85712E-05 1.86434E-09 1.05517E-18 3.43900E-18
 -1      3857 9.52394E-05-2.85737E-05-2.85710E-05 1.79041E-09 1.49680E-18 4.27977E-18
 -1      3858 9.52392E-05-2.85735E-05-2.85710E-05 1.59889E-09 1.87118E-18 4.46602E-18
 -1      3859 9.52399E-05-2.85740E-05-2.85711E-05 1.57220E-09 2.03969E-18 3.53839E-18
 -1      3860 1.03893E-04-1.74653E-05-3.70952E-05-1.68076E-06 3.31754E-18-2.52279E-18
 -1      3861 9.50402E-05-2.82977E-05-2.86049E-05 2.71797E-07-2.86950E-19-4.46710E-19
 -1      3862 9.50361E-05-2.82901E-05-2.86040E-05 3.23112E-07-3.41970E-19-9.58996E-19
 -1      3863 9.56369E-05-2.90255E-05-2.85458E-05 1.47480E-06-9.86438E-19-5.87544E-19
 -1      3864 9.59425E-05-2.93292E-05-2.85397E-05 1.65287E-06-7.39293E-19-7.09548E-19
 -1      3865 9.53253E-05-2.87426E-05-2.85423E-05 1.52799E-06-9.71720E-19-8.47645E-19
 -1      3866 9.52388E-05-2.85731E-05-2.85710E-05 1.31276E-09 1.54465E-18 2.44798E-18
 -1      3867 9.01912E-05-2.42676E-05-2.82888E-05 2.23489E-06-7.68378E-19-4.73912E-19
 -1      3868 9.11237E-05-2.48417E-05-2.83995E-05 1.64119E-06-1.05240E-18-5.87350E-19
 -1      3869 9.17736E-05-2.54650E-05-2.84021E-05 2.01827E-06-1.15473E-18-5.42271E-19
 -1      3870 9.52387E-05-2.85730E-05-2.85710E-05 8.91265E-11 9.95868E-19-3.79780E-18
 -1      3871 9.52387E-05-2.85730E-05-2.85710E-05-1.45755E-10 8.35166E-19-2.62577E-18
 -1      3872 9.52389E-05-2.85732E-05-2.85710E-05-2.62937E-10-3.31320E-19-1.60400E-18
 -1      3873 9.52390E-05-2.85733E-05-2.85710E-05 1.40077E-10-6.52028E-19-2.80711E-18
 -1      3874 9.50182E-05-2.82834E-05-2.86017E-05 3.90969E-07-1.09908E-18-8.21490E-19
 -1      3875 9.50304E-05-2.82941E-05-2.85989E-05 4.60395E-07-1.13655E-18-1.33377E-18
 -1      3876 9.49716E-05-2.82323E-05-2.86028E-05 3.48668E-07-7.75287E-19-9.25402E-19
 -1      3877 9.50274E-05-2.83099E-05-2.85942E-05 5.57056E-07-4.69294E-19-1.57245E-18
 -1      3878 9.50702E-05-2.83539E-05-2.85893E-05 6.49619E-07-9.07421E-19-1.38658E-18
 -1      3879 9.49478E-05-2.82265E-05-2.85957E-05 5.14678E-07-9.81172E-19-1.26758E-18
 -1      3880 9.50749E-05-2.83320E-05-2.86049E-05 1.87095E-07-1.11131E-18-2.38526E-20
 -1      3881 9.50634E-05-2.83155E-05-2.86053E-05 2.24641E-07-9.01917E-19-3.53658E-19
 -1      3882 9.50142E-05-2.82677E-05-2.86055E-05 2.34101E-07-4.38735E-19-1.19010E-18
 -1      3883 9.51119E-05-2.83735E-05-2.86028E-05 1.27323E-07 8.74596E-19-1.23447E-18
 -1      3884 9.50982E-05-2.83539E-05-2.86041E-05 1.54600E-07 1.54043E-19-4.20081E-19
 -1      3885 9.50614E-05-2.83154E-05-2.86052E-05 1.55781E-07 6.10923E-21-1.43891E-18
 -1      3886 9.51458E-05-2.84147E-05-2.85995E-05 8.53706E-08 1.31828E-18-1.51748E-18
 -1      3887 9.51327E-05-2.83955E-05-2.86013E-05 1.05070E-07 1.07356E-18-1.44051E-18
 -1      3888 9.51058E-05-2.83651E-05-2.86028E-05 1.02595E-07 1.35457E-18-1.12463E-18
 -1      3889 9.51742E-05-2.84520E-05-2.85956E-05 5.60683E-08-3.38290E-19-2.80904E-19
 -1      3890 9.51630E-05-2.84347E-05-2.85976E-05 7.02063E-08 2.21278E-19-9.24217E-19
 -1      3891 9.51437E-05-2.84112E-05-2.85994E-05 6.66338E-08 3.94800E-19-3.09279E-19
 -1      3892 9.51967E-05-2.84835E-05-2.85917E-05 3.57212E-08-6.38438E-19 3.47575E-20
 -1      3893 9.51877E-05-2.84690E-05-2.85936E-05 4.57886E-08-1.72045E-19-2.23097E-19
 -1      3894 9.51743E-05-2.84511E-05-2.85954E-05 4.24004E-08-4.24452E-19 1.77653E-19
 -1      3895 9.52136E-05-2.85090E-05-2.85879E-05 2.17099E-08-1.85660E-18 3.19327E-19
 -1      3896 9.52068E-05-2.84973E-05-2.85897E-05 2.88021E-08-1.37232E-18 1.46663E-19
 -1      3897 9.51978E-05-2.84840E-05-2.85914E-05 2.61319E-08-9.72509E-19 3.87392E-19
 -1      3898 9.52257E-05-2.85289E-05-2.85845E-05 1.21815E-08-9.97140E-19 5.94827E-19
 -1      3899 9.52209E-05-2.85198E-05-2.85861E-05 1.71034E-08-1.59237E-18 1.54752E-19
 -1      3900 9.52150E-05-2.85101E-05-2.85877E-05 1.52757E-08-1.54347E-18 4.45477E-19
 -1      3901 9.52339E-05-2.85439E-05-2.85815E-05 5.82235E-09-6.18406E-20 8.43293E-19
 -1      3902 9.52307E-05-2.85371E-05-2.85829E-05 9.16705E-09-5.60372E-19 1.82649E-19
 -1      3903 9.52272E-05-2.85302E-05-2.85843E-05 8.10570E-09-6.96253E-19-3.31771E-19
 -1      3904 9.52392E-05-2.85548E-05-2.85791E-05 1.69673E-09 1.14208E-18 2.65132E-19
 -1      3905 9.52371E-05-2.85499E-05-2.85802E-05 3.90279E-09 1.14850E-18 8.01440E-19
 -1      3906 9.52353E-05-2.85451E-05-2.85814E-05 3.45196E-09 7.82644E-19-9.73804E-19
 -1      3907 9.52423E-05-2.85625E-05-2.85771E-05-8.65246E-10 8.01853E-19 5.47852E-19
 -1      3908 9.52411E-05-2.85591E-05-2.85780E-05 5.27156E-10 6.65598E-19 1.71821E-19
 -1      3909 9.52404E-05-2.85559E-05-2.85790E-05 5.17036E-10 1.36544E-18-1.87875E-19
 -1      3910 9.52438E-05-2.85678E-05-2.85755E-05-2.34519E-09 1.73805E-18 3.94721E-19
 -1      3911 9.52433E-05-2.85655E-05-2.85762E-05-1.52563E-09 1.26034E-18 5.06009E-19
 -1      3912 9.52432E-05-2.85635E-05-2.85770E-05-1.24713E-09 8.40056E-19-3.36047E-20
 -1      3913 9.52443E-05-2.85712E-05-2.85742E-05-3.08987E-09 2.26270E-18 6.78096E-19
 -1      3914 9.52442E-05-2.85697E-05-2.85748E-05-2.66528E-09 2.42297E-18 2.06681E-19
 -1      3915 9.52446E-05-2.85686E-05-2.85754E-05-2.22034E-09 2.16944E-18 4.14489E-19
 -1      3916 9.52441E-05-2.85732E-05-2.85733E-05-3.34841E-09 2.21667E-18 4.06156E-19
 -1      3917 9.52443E-05-2.85723E-05-2.85737E-05-3.18831E-09 2.43353E-18 3.67433E-19
 -1      3918 9.52449E-05-2.85718E-05-2.85742E-05-2.66763E-09 2.50626E-18 1.04725E-18
 -1      3919 9.52436E-05-2.85743E-05-2.85725E-05-3.29858E-09 2.19840E-18 3.78185E-19
 -1      3920 9.52439E-05-2.85739E-05-2.85729E-05-3.30832E-09 2.16525E-18 1.34974E-19
 -1      3921 9.52446E-05-2.85737E-05-2.85733E-05-2.77451E-09 2.58346E-18 4.40738E-19
 -1      3922 9.52428E-05-2.85748E-05-2.85720E-05-3.06567E-09 1.75744E-18-2.83714E-19
 -1      3923 9.52432E-05-2.85746E-05-2.85722E-05-3.17768E-09 1.63776E-18-4.11787E-19
 -1      3924 9.52440E-05-2.85747E-05-2.85726E-05-2.67065E-09 2.62913E-18 1.29940E-18
 -1      3925 9.52420E-05-2.85748E-05-2.85716E-05-2.73632E-09-4.68039E-19 5.01953E-19
 -1      3926 9.52424E-05-2.85748E-05-2.85718E-05-2.90338E-09 4.84925E-19-4.86311E-19
 -1      3927 9.52431E-05-2.85750E-05-2.85720E-05-2.44586E-09 6.07576E-19 5.14744E-19
 -1      3928 9.52412E-05-2.85746E-05-2.85714E-05-2.36872E-09-1.33708E-18 2.17965E-19
 -1      3929 9.52415E-05-2.85747E-05-2.85715E-05-2.55878E-09-5.30270E-19 4.37083E-19
 -1      3930 9.52422E-05-2.85750E-05-2.85717E-05-2.16122E-09 2.48877E-19 9.52681E-19
 -1      3931 9.52404E-05-2.85742E-05-2.85712E-05-2.00136E-09-2.49013E-18-1.34943E-18
 -1      3932 9.52407E-05-2.85744E-05-2.85713E-05-2.19330E-09-1.85505E-18-5.35109E-19
 -1      3933 9.52413E-05-2.85747E-05-2.85714E-05-1.85717E-09-1.16333E-18 1.11713E-18
 -1      3934 9.52397E-05-2.85738E-05-2.85711E-05-1.65663E-09-3.19209E-19-2.66676E-18
 -1      3935 9.52400E-05-2.85740E-05-2.85711E-05-1.83754E-09-1.38492E-18-2.06548E-18
 -1      3936 9.52405E-05-2.85743E-05-2.85712E-05-1.56197E-09-1.22237E-18-1.83384E-18
 -1      3937 9.52391E-05-2.85734E-05-2.85710E-05-1.34858E-09 1.22720E-19-2.72072E-18
 -1      3938 9.52394E-05-2.85736E-05-2.85711E-05-1.50838E-09-5.53871E-19-2.22825E-18
 -1      3939 9.52398E-05-2.85739E-05-2.85711E-05-1.28810E-09-8.25497E-19-1.71519E-18
 -1      3940 9.52382E-05-2.85726E-05-2.85710E-05-1.08167E-09-2.35037E-18-2.34052E-18
 -1      3941 1.14005E-04-2.66227E-05-3.75664E-05-9.49231E-06 2.66596E-18-4.14932E-18
 -1      3942 9.50995E-05-2.84099E-05-2.85818E-05 7.83245E-07-1.02855E-18-9.36897E-19
 -1      3943 9.51936E-05-2.85071E-05-2.85750E-05 9.02837E-07-9.82838E-19-9.42171E-19
 -1      3944 9.49691E-05-2.82810E-05-2.85831E-05 7.51989E-07-5.92071E-19-1.23187E-18
 -1      3945 9.52391E-05-2.85734E-05-2.85710E-05 1.15068E-09 7.73919E-19 2.39826E-18
 -1      3946 8.57888E-05-2.19955E-05-2.74013E-05 7.20460E-06-1.03310E-18-7.93805E-19
 -1      3947 8.74339E-05-2.26505E-05-2.77400E-05 5.55614E-06-1.31887E-18-8.98049E-19
 -1      3948 8.82266E-05-2.31116E-05-2.79576E-05 4.15162E-06-1.23105E-18-6.12700E-19
 -1      3949 8.95027E-05-2.37744E-05-2.81552E-05 3.14375E-06-7.77789E-19-6.35590E-19
 -1      3950 8.91197E-05-2.40945E-05-2.78544E-05 6.06848E-06-1.09596E-18-1.21187E-18
 -1      3951 9.52389E-05-2.85732E-05-2.85710E-05-8.68333E-10-1.61882E-18-8.64946E-19
 -1      3952 9.52390E-05-2.85733E-05-2.85710E-05-1.15297E-09 4.04880E-19-1.50045E-18
 -1      3953 9.52393E-05-2.85735E-05-2.85711E-05-9.64368E-10-5.75852E-19-9.05194E-19
 -1      3954 9.52390E-05-2.85733E-05-2.85710E-05-6.12639E-10-8.67169E-19-3.23881E-19
 -1      3955 8.29182E-05-2.09818E-05-2.65604E-05 1.12865E-05-1.32808E-18-4.43955E-19
 -1      3956 8.52168E-05-2.17739E-05-2.71491E-05 8.78123E-06-1.01709E-18-6.94048E-19
 -1      3957 8.77199E-05-2.38404E-05-2.73953E-05 9.28668E-06-1.28172E-18-6.08855E-19
 -1      3958 8.66717E-05-2.42650E-05-2.68185E-05 1.32381E-05-1.60767E-18-2.51981E-19
 -1      3959 1.10426E-04-1.10749E-05-4.27918E-05 7.02402E-06 4.19487E-18-2.11447E-18
 -1      3960 1.05126E-04-3.65875E-05-2.93368E-05-8.22442E-07-7.68364E-19-2.45356E-18
 -1      3961 1.06213E-04-3.71693E-05-2.96108E-05-1.71559E-06-6.90570E-19-2.43962E-18
 -1      3962 1.04967E-04-3.67945E-05-2.92479E-05 9.10091E-07-9.65422E-19-1.88989E-18
 -1      3963 1.07146E-04-4.11339E-05-2.82416E-05 1.78406E-05-2.87112E-18-2.19528E-18
 -1      3964 1.01502E-04-3.72505E-05-2.76466E-05 1.81629E-05-2.93094E-18-1.61085E-18
 -1      3965 1.10503E-04-3.47349E-05-3.25159E-05-8.32210E-06 1.10169E-18-3.16747E-18
 -1      3966 1.10060E-04-3.24182E-05-3.32479E-05-8.90188E-06 1.78148E-18-2.92228E-18
 -1      3967 1.12550E-04-3.20676E-05-3.44821E-05-9.13345E-06 1.95280E-18-3.15080E-18
 -1      3968 1.12889E-04-3.69458E-05-3.25444E-05-6.81224E-06 8.38903E-19-2.69539E-18
 -1      3969 1.08236E-04-3.84659E-05-2.99226E-05-8.44808E-07-7.09438E-19-2.35695E-18
 -1      3970 1.22751E-04-4.79116E-05-3.19319E-05 8.53483E-06-1.70745E-18-4.34414E-18
 -1      3971 1.20188E-04-3.64294E-05-3.59138E-05-7.49975E-06 1.31599E-18-4.45057E-18
 -1      3972 1.15990E-04-4.60735E-05-3.00284E-05 1.25431E-05-2.13033E-18-3.17111E-18
 -1      3973 1.10775E-04-4.33975E-05-2.89438E-05 1.57175E-05-2.48046E-18-2.64068E-18
 -1      3974 1.09742E-04-4.16700E-05-2.91061E-05 1.26374E-05-2.18733E-18-2.97439E-18
 -1      3975 9.50739E-05-2.84318E-05-2.85650E-05 1.08142E-06-7.73140E-19-7.68200E-19
 -1      3976 1.01719E-04-3.62979E-05-2.80351E-05 1.48560E-05-2.86407E-18-2.16895E-18
 -1      3977 9.75114E-05-3.36147E-05-2.72572E-05 1.80182E-05-3.05355E-18-1.07038E-18
 -1      3978 1.12385E-04-4.06265E-05-3.07115E-05-6.79308E-07-5.50908E-19-2.43697E-18
 -1      3979 1.13740E-04-4.04705E-05-3.14098E-05-2.28984E-06-2.06325E-19-2.74736E-18
 -1      3980 1.08291E-04-3.89631E-05-2.96625E-05 1.82330E-06-9.82904E-19-1.99521E-18
 -1      3981 1.09968E-04-3.98167E-05-3.00938E-05 7.91549E-07-5.55824E-19-1.91142E-18
 -1      3982 1.12142E-04-4.12526E-05-3.04060E-05 2.21217E-06-8.40615E-19-2.36296E-18
 -1      3983 9.58186E-05-2.93060E-05-2.85190E-05 2.11006E-06-6.59391E-19-5.73851E-19
 -1      3984 9.62760E-05-2.96913E-05-2.85308E-05 1.94718E-06-5.43552E-19-7.61438E-19
 -1      3985 9.67623E-05-3.01601E-05-2.85330E-05 2.13659E-06-2.72165E-19-8.51283E-19
 -1      3986 9.05656E-05-2.47409E-05-2.81934E-05 3.59261E-06-7.28103E-19-7.38580E-19
 -1      3987 1.19574E-04-4.26155E-05-3.29085E-05-1.55656E-06-2.59156E-20-3.63821E-18
 -1      3988 1.21459E-04-4.57980E-05-3.25821E-05 2.45993E-06-7.71728E-19-4.17418E-18
 -1      3989 9.20398E-05-2.89687E-05-2.70342E-05 1.55668E-05-2.24674E-18-5.50823E-19
 -1      3990 9.79542E-05-3.13256E-05-2.85775E-05 1.90768E-06-4.33754E-19-1.05319E-18
 -1      3991 9.52398E-05-2.85739E-05-2.85711E-05 1.05207E-09 5.51390E-19 1.21488E-18
 -1      3992 9.52393E-05-2.85735E-05-2.85711E-05 7.96755E-10 8.54445E-19 2.81725E-19
 -1      3993 9.52394E-05-2.85736E-05-2.85711E-05 5.06135E-10-4.48337E-19-1.88886E-18
 -1      3994 9.89424E-05-3.21926E-05-2.85866E-05 2.95732E-06-5.10251E-19-1.07620E-18
 -1      3995 9.99774E-05-3.31059E-05-2.86487E-05 3.02682E-06-1.21378E-18-1.16786E-18
 -1      3996 1.01282E-04-3.41688E-05-2.87323E-05 3.23655E-06-1.60940E-18-8.07160E-19
 -1      3997 1.02648E-04-3.52836E-05-2.88665E-05 3.09344E-06-1.24101E-18-9.14235E-19
 -1      3998 1.00240E-04-3.35258E-05-2.86331E-05 4.29389E-06-1.04561E-18-9.75685E-19
 -1      3999 1.18913E-04-4.62159E-05-3.11519E-05 7.79585E-06-1.29727E-18-3.63906E-18
 -1      4000 1.15217E-04-2.96298E-05-3.66628E-05-9.61442E-06 2.32806E-18-4.13900E-18
 -1      4001 1.16193E-04-3.36260E-05-3.54785E-05-8.82187E-06 1.65992E-18-3.87890E-18
 -1      4002 1.16631E-04-3.77075E-05-3.37933E-05-6.69222E-06 1.01553E-18-3.65642E-18
 -1      4003 1.04833E-04-3.81853E-05-2.85222E-05 1.24353E-05-2.59117E-18-2.24017E-18
 -1      4004 1.00822E-04-3.51996E-05-2.81458E-05 1.25256E-05-2.54154E-18-1.76715E-18
 -1      4005 9.34292E-05-2.68189E-05-2.85625E-05 8.42390E-07-5.84223E-19-3.58089E-19
 -1      4006 9.37510E-05-2.70414E-05-2.85866E-05 6.13035E-07-8.47634E-19-8.52481E-19
 -1      4007 9.39394E-05-2.72163E-05-2.86038E-05 4.02157E-07-1.32380E-18-5.49689E-19
 -1      4008 9.41673E-05-2.73940E-05-2.86149E-05 2.73731E-07-1.60143E-18-4.89280E-19
 -1      4009 9.39817E-05-2.72835E-05-2.85805E-05 7.28038E-07-1.09007E-18-1.60344E-18
 -1      4010 9.43088E-05-2.75370E-05-2.86232E-05 1.56048E-07-1.71488E-18-8.73899E-20
 -1      4011 9.44753E-05-2.76772E-05-2.86269E-05 8.95561E-08-1.41530E-18-5.87789E-19
 -1      4012 9.42971E-05-2.75369E-05-2.86061E-05 3.76114E-07-1.52162E-18-7.12031E-19
 -1      4013 9.45857E-05-2.77930E-05-2.86298E-05 2.40991E-08-9.56745E-19-4.07756E-19
 -1      4014 9.47032E-05-2.79013E-05-2.86293E-05-5.48038E-09-7.91045E-19-1.29480E-18
 -1      4015 9.45555E-05-2.77665E-05-2.86186E-05 1.69419E-07-1.17882E-18 5.29530E-20
 -1      4016 9.47866E-05-2.79920E-05-2.86290E-05-3.88317E-08-5.67030E-20-9.46060E-19
 -1      4017 9.48684E-05-2.80744E-05-2.86263E-05-4.78414E-08 8.09634E-19-1.12081E-18
 -1      4018 9.47503E-05-2.79557E-05-2.86222E-05 5.58769E-08 8.63705E-20 2.70362E-19
 -1      4019 9.49305E-05-2.81445E-05-2.86242E-05-6.24248E-08 6.59770E-19-1.11843E-18
 -1      4020 9.49870E-05-2.82066E-05-2.86206E-05-6.07998E-08 2.92751E-20-4.64520E-19
 -1      4021 9.48955E-05-2.81072E-05-2.86205E-05-1.52266E-09 3.96063E-19-6.63054E-19
 -1      4022 9.50325E-05-2.82601E-05-2.86177E-05-6.50971E-08-5.89451E-19-6.67427E-19
 -1      4023 9.50712E-05-2.83066E-05-2.86138E-05-5.87002E-08-1.13812E-18-6.04967E-19
 -1      4024 9.50023E-05-2.82262E-05-2.86161E-05-2.65143E-08-8.20851E-20-1.50025E-18
 -1      4025 9.51041E-05-2.83470E-05-2.86107E-05-5.78370E-08-1.41647E-18-6.61827E-19
 -1      4026 9.51305E-05-2.83817E-05-2.86070E-05-4.99553E-08-1.36037E-18-2.71557E-19
 -1      4027 9.50797E-05-2.83183E-05-2.86105E-05-3.38364E-08-8.67129E-19-7.61936E-19
 -1      4028 9.51539E-05-2.84120E-05-2.86039E-05-4.68931E-08-1.87677E-18 1.62003E-19
 -1      4029 9.51716E-05-2.84377E-05-2.86006E-05-3.92361E-08-1.54115E-18-4.39024E-19
 -1      4030 9.51352E-05-2.83888E-05-2.86045E-05-3.23265E-08-1.29457E-18 4.09589E-19
 -1      4031 9.51881E-05-2.84602E-05-2.85978E-05-3.55900E-08-2.85785E-19-5.17966E-19
 -1      4032 9.51998E-05-2.84790E-05-2.85949E-05-2.89362E-08 3.54554E-19-2.65771E-19
 -1      4033 9.51743E-05-2.84421E-05-2.85988E-05-2.70662E-08-6.13555E-19 1.37616E-18
 -1      4034 9.52111E-05-2.84956E-05-2.85924E-05-2.55115E-08-1.59334E-19-5.80932E-19
 -1      4035 9.52187E-05-2.85093E-05-2.85899E-05-2.01154E-08-5.71148E-19-7.39642E-19
 -1      4036 9.52013E-05-2.84819E-05-2.85936E-05-2.08147E-08-1.18764E-19 7.29937E-19
 -1      4037 9.52262E-05-2.85213E-05-2.85878E-05-1.72506E-08-9.55797E-20-7.10817E-19
 -1      4038 9.52310E-05-2.85311E-05-2.85858E-05-1.30913E-08-2.57431E-19 9.19045E-19
 -1      4039 9.52196E-05-2.85112E-05-2.85890E-05-1.49417E-08-1.62870E-19 1.36735E-19
 -1      4040 9.52358E-05-2.85397E-05-2.85840E-05-1.08704E-08-3.16182E-19 7.55598E-19
 -1      4041 9.52387E-05-2.85467E-05-2.85824E-05-7.79902E-09 2.03254E-19 1.16547E-18
 -1      4042 9.52316E-05-2.85325E-05-2.85851E-05-1.00196E-08 3.26837E-19 1.16373E-18
 -1      4043 9.52416E-05-2.85527E-05-2.85809E-05-6.17927E-09 6.65702E-19 5.62166E-19
 -1      4044 9.52431E-05-2.85575E-05-2.85796E-05-4.00222E-09 2.00694E-18 7.86755E-19
 -1      4045 9.52391E-05-2.85476E-05-2.85819E-05-6.18878E-09 5.29098E-19 8.23574E-19
 -1      4046 9.52447E-05-2.85616E-05-2.85784E-05-2.88783E-09 1.47907E-18 4.96493E-19
 -1      4047 9.52454E-05-2.85648E-05-2.85774E-05-1.41122E-09 7.25269E-19 3.07523E-19
 -1      4048 9.52434E-05-2.85582E-05-2.85793E-05-3.37609E-09 1.17421E-18-6.96751E-19
 -1      4049 9.52461E-05-2.85675E-05-2.85765E-05-6.93508E-10 2.92037E-19 1.47247E-18
 -1      4050 9.52462E-05-2.85696E-05-2.85757E-05 2.55672E-10-7.65168E-19 8.59017E-19
 -1      4051 9.52456E-05-2.85654E-05-2.85772E-05-1.41947E-09 1.30677E-18-9.63734E-19
 -1      4052 9.52463E-05-2.85713E-05-2.85750E-05 6.78208E-10-1.34627E-19 1.73091E-18
 -1      4053 9.52461E-05-2.85726E-05-2.85744E-05 1.24414E-09 2.54285E-18 1.15908E-18
 -1      4054 9.52464E-05-2.85701E-05-2.85756E-05-1.35901E-10 1.61237E-19-5.95792E-19
 -1      4055 9.52459E-05-2.85736E-05-2.85738E-05 1.45741E-09 3.47462E-18 5.62585E-19
 -1      4056 9.52455E-05-2.85743E-05-2.85734E-05 1.75472E-09 2.84228E-18 1.58557E-18
 -1      4057 9.52462E-05-2.85729E-05-2.85743E-05 6.45118E-10 2.50725E-18 6.95657E-19
 -1      4058 9.52451E-05-2.85748E-05-2.85730E-05 1.82692E-09 2.11423E-18 1.82416E-18
 -1      4059 9.52446E-05-2.85751E-05-2.85726E-05 1.94340E-09 1.36015E-18 1.65569E-18
 -1      4060 9.52456E-05-2.85746E-05-2.85733E-05 1.06769E-09 2.27165E-18 3.08283E-19
 -1      4061 9.52441E-05-2.85753E-05-2.85723E-05 1.92614E-09 6.23824E-19 1.14727E-18
 -1      4062 9.52436E-05-2.85754E-05-2.85721E-05 1.92686E-09-4.03203E-19 1.67465E-18
 -1      4063 9.52446E-05-2.85753E-05-2.85726E-05 1.24623E-09 5.82862E-19 4.38841E-19
 -1      4064 9.52430E-05-2.85753E-05-2.85719E-05 1.85765E-09-1.26667E-19 2.78656E-18
 -1      4065 9.52425E-05-2.85752E-05-2.85717E-05 1.78918E-09 1.01748E-18 3.90134E-18
 -1      4066 9.52436E-05-2.85755E-05-2.85721E-05 1.26752E-09 7.83757E-19 2.14032E-18
 -1      4067 9.52420E-05-2.85751E-05-2.85715E-05 1.69396E-09-3.97125E-20 3.33940E-18
 -1      4068 9.52416E-05-2.85749E-05-2.85714E-05 1.58828E-09 6.95029E-19 3.94330E-18
 -1      4069 9.52425E-05-2.85753E-05-2.85717E-05 1.19514E-09 7.11030E-20 2.06725E-18
 -1      4070 9.52411E-05-2.85747E-05-2.85713E-05 1.48010E-09 4.49548E-19 2.92944E-18
 -1      4071 9.52407E-05-2.85745E-05-2.85712E-05 1.35988E-09 7.25600E-20 2.16155E-18
 -1      4072 9.52416E-05-2.85750E-05-2.85714E-05 1.07244E-09 2.99198E-19 9.91893E-19
 -1      4073 9.52404E-05-2.85743E-05-2.85712E-05 1.26082E-09 2.03471E-18 1.06635E-18
 -1      4074 9.52400E-05-2.85740E-05-2.85711E-05 1.13888E-09 1.44420E-18 7.80669E-19
 -1      4075 9.52402E-05-2.85742E-05-2.85712E-05 7.52062E-10 1.97309E-18-9.03559E-19
 -1      4076 9.52408E-05-2.85745E-05-2.85713E-05 8.95239E-10-8.03887E-20-2.84214E-19
 -1      4077 9.49634E-05-2.83777E-05-2.85402E-05 1.49737E-06-1.22018E-18-5.52124E-19
 -1      4078 9.51487E-05-2.85568E-05-2.85274E-05 1.75544E-06-9.54967E-19-6.13714E-19
 -1      4079 9.50505E-05-2.83054E-05-2.86061E-05 1.16367E-07 5.23142E-19-1.22481E-18
 -1      4080 9.50276E-05-2.82763E-05-2.86070E-05 1.46738E-07 3.98488E-19-9.64114E-19
 -1      4081 9.11235E-05-2.55140E-05-2.81470E-05 4.56817E-06-6.40672E-19-1.21407E-18
 -1      4082 9.17765E-05-2.57530E-05-2.82750E-05 3.56078E-06-5.82915E-19-7.39318E-19
 -1      4083 9.66864E-05-3.21338E-05-2.77444E-05 1.33286E-05-2.22162E-18-1.48735E-18
 -1      4084 9.11732E-05-2.77177E-05-2.71729E-05 1.37556E-05-1.83047E-18-7.48362E-19
 -1      4085 9.14723E-05-2.72588E-05-2.74642E-05 1.16565E-05-1.60367E-18-9.28843E-19
 -1      4086 9.48627E-05-2.81379E-05-2.85994E-05 4.42809E-07-1.08825E-18-4.67318E-19
 -1      4087 9.48626E-05-2.81330E-05-2.85946E-05 5.39578E-07-9.76731E-19-5.77529E-19
 -1      4088 9.51022E-05-2.83632E-05-2.86032E-05 7.27209E-08 7.91051E-19 2.01404E-21
 -1      4089 9.50816E-05-2.83362E-05-2.86048E-05 9.31303E-08 7.41194E-19-1.22831E-19
 -1      4090 9.50505E-05-2.82981E-05-2.86067E-05 8.30873E-08 1.27926E-19-2.89061E-19
 -1      4091 9.51440E-05-2.84134E-05-2.85994E-05 4.46476E-08 7.26699E-20 3.07566E-19
 -1      4092 9.51268E-05-2.83900E-05-2.86013E-05 5.83445E-08 1.11162E-18 2.46580E-19
 -1      4093 9.51054E-05-2.83618E-05-2.86033E-05 4.83226E-08 7.16779E-19 2.59956E-19
 -1      4094 9.51763E-05-2.84550E-05-2.85952E-05 2.66882E-08-7.15884E-19 3.25856E-19
 -1      4095 9.51627E-05-2.84357E-05-2.85972E-05 3.58768E-08-2.67072E-19-1.00134E-20
 -1      4096 9.51482E-05-2.84150E-05-2.85992E-05 2.72753E-08 2.57548E-19 1.57168E-19
 -1      4097 9.52003E-05-2.84883E-05-2.85911E-05 1.52607E-08-1.30391E-18 1.87942E-19
 -1      4098 9.51901E-05-2.84729E-05-2.85931E-05 2.14186E-08-1.16885E-18 2.81809E-19
 -1      4099 9.51804E-05-2.84578E-05-2.85948E-05 1.47093E-08-1.17811E-18 5.94580E-19
 -1      4100 9.52175E-05-2.85141E-05-2.85873E-05 8.04245E-09-1.10162E-18-1.06871E-18
 -1      4101 9.52101E-05-2.85022E-05-2.85891E-05 1.21550E-08-1.12277E-18-6.72010E-20
 -1      4102 9.52038E-05-2.84913E-05-2.85907E-05 7.31527E-09-1.22939E-18-8.98737E-19
 -1      4103 9.52293E-05-2.85336E-05-2.85840E-05 3.53811E-09-1.83420E-19-1.46737E-18
 -1      4104 9.52242E-05-2.85247E-05-2.85855E-05 6.26254E-09-6.60778E-19-1.16885E-18
 -1      4105 9.52203E-05-2.85169E-05-2.85869E-05 3.03958E-09-5.72133E-19-1.33601E-18
 -1      4106 9.52370E-05-2.85479E-05-2.85811E-05 7.86864E-10 6.53389E-19-1.43935E-18
 -1      4107 9.52337E-05-2.85414E-05-2.85824E-05 2.56401E-09 4.11262E-19-1.32078E-18
 -1      4108 9.52314E-05-2.85360E-05-2.85836E-05 6.26892E-10-5.29926E-19-1.25061E-18
 -1      4109 9.52417E-05-2.85581E-05-2.85787E-05-8.30121E-10 9.42390E-19-3.15086E-19
 -1      4110 9.52397E-05-2.85535E-05-2.85798E-05 2.98365E-10 7.38710E-19-9.02649E-19
 -1      4111 9.52386E-05-2.85498E-05-2.85808E-05-6.80688E-10-1.38755E-19-1.03397E-18
 -1      4112 9.52443E-05-2.85651E-05-2.85768E-05-1.71403E-09 7.06490E-19-3.63781E-19
 -1      4113 9.52432E-05-2.85619E-05-2.85777E-05-1.02948E-09 1.21556E-18 2.03255E-19
 -1      4114 9.52428E-05-2.85596E-05-2.85785E-05-1.33674E-09 6.04618E-19 1.91971E-19
 -1      4115 9.52453E-05-2.85697E-05-2.85753E-05-2.12738E-09 1.96139E-18 4.18993E-19
 -1      4116 9.52449E-05-2.85677E-05-2.85760E-05-1.74470E-09 1.26488E-18-2.19166E-19
 -1      4117 9.52450E-05-2.85662E-05-2.85766E-05-1.61147E-09 9.93688E-19-6.99950E-20
 -1      4118 9.52455E-05-2.85726E-05-2.85741E-05-2.24364E-09 2.69001E-18-4.91765E-20
 -1      4119 9.52455E-05-2.85713E-05-2.85746E-05-2.06330E-09 2.98151E-18 7.77114E-19
 -1      4120 9.52458E-05-2.85705E-05-2.85751E-05-1.66590E-09 2.16272E-18 5.75081E-19
 -1      4121 9.52450E-05-2.85742E-05-2.85732E-05-2.17844E-09 2.08227E-18 8.39526E-19
 -1      4122 9.52453E-05-2.85735E-05-2.85736E-05-2.13031E-09 1.98522E-18 4.02946E-19
 -1      4123 9.52457E-05-2.85732E-05-2.85740E-05-1.59644E-09 1.83909E-18 4.73720E-19
 -1      4124 9.52442E-05-2.85750E-05-2.85725E-05-2.00910E-09 2.62946E-18 1.34135E-18
 -1      4125 9.52446E-05-2.85747E-05-2.85728E-05-2.04378E-09 3.21618E-18 2.02096E-18
 -1      4126 9.52451E-05-2.85746E-05-2.85731E-05-1.46133E-09 1.91671E-18 7.57504E-19
 -1      4127 9.52433E-05-2.85753E-05-2.85720E-05-1.78714E-09 8.16723E-19 7.79646E-19
 -1      4128 9.52437E-05-2.85752E-05-2.85722E-05-1.87015E-09 2.24410E-18 1.99967E-18
 -1      4129 9.52443E-05-2.85753E-05-2.85724E-05-1.29610E-09 2.22349E-18 1.84299E-18
 -1      4130 9.52423E-05-2.85751E-05-2.85716E-05-1.54623E-09-4.59629E-19 1.17278E-18
 -1      4131 9.52428E-05-2.85752E-05-2.85718E-05-1.65401E-09-4.19824E-19 1.10519E-18
 -1      4132 9.52433E-05-2.85754E-05-2.85720E-05-1.12272E-09 1.50714E-19 3.66818E-19
 -1      4133 9.52414E-05-2.85748E-05-2.85714E-05-1.30697E-09-2.18163E-18 1.78918E-18
 -1      4134 9.52418E-05-2.85750E-05-2.85715E-05-1.42414E-09-8.42004E-19 1.65101E-18
 -1      4135 9.52423E-05-2.85752E-05-2.85716E-05-9.55179E-10-1.01828E-18 5.16277E-19
 -1      4136 9.52405E-05-2.85743E-05-2.85712E-05-1.07877E-09 1.87632E-19-8.79142E-19
 -1      4137 9.52409E-05-2.85746E-05-2.85713E-05-1.19659E-09-5.73459E-19 9.84403E-19
 -1      4138 9.52413E-05-2.85748E-05-2.85714E-05-8.03294E-10-3.96066E-19 1.10609E-18
 -1      4139 9.52398E-05-2.85739E-05-2.85711E-05-8.88018E-10-1.11706E-18-1.38510E-18
 -1      4140 9.52401E-05-2.85741E-05-2.85712E-05-9.96117E-10-6.33648E-19-1.84592E-18
 -1      4141 9.52405E-05-2.85743E-05-2.85712E-05-6.52266E-10 1.98923E-19-9.29045E-19
 -1      4142 9.48214E-05-2.81261E-05-2.85872E-05 6.75856E-07-8.16740E-19-8.67759E-19
 -1      4143 9.48512E-05-2.81570E-05-2.85792E-05 8.17581E-07-6.96623E-19-5.49627E-19
 -1      4144 9.47353E-05-2.80156E-05-2.85911E-05 5.93187E-07-9.29475E-19-4.59830E-20
 -1      4145 9.49899E-05-2.82432E-05-2.86073E-05 1.83767E-07-3.87437E-19-1.24766E-18
 -1      4146 9.49675E-05-2.82150E-05-2.86069E-05 2.28799E-07-3.26234E-19-7.64456E-19
 -1      4147 9.49829E-05-2.82251E-05-2.86085E-05 1.39683E-07-3.69876E-19-9.76352E-19
 -1      4148 9.80559E-05-3.13952E-05-2.85575E-05 2.63665E-06-2.48101E-19-1.02909E-18
 -1      4149 9.80977E-05-3.15940E-05-2.85313E-05 3.59593E-06-3.32318E-19-1.03861E-18
 -1      4150 9.73249E-05-3.07156E-05-2.85354E-05 2.47162E-06-4.24769E-19-8.74506E-19
 -1      4151 9.03069E-05-2.53995E-05-2.78274E-05 7.32035E-06-1.21162E-18-9.71473E-19
 -1      4152 9.09971E-05-2.55214E-05-2.80269E-05 5.75869E-06-8.56636E-19-8.75383E-19
 -1      4153 9.22574E-05-2.66432E-05-2.81272E-05 5.63602E-06-7.95930E-19-1.12901E-18
 -1      4154 9.20151E-05-2.59060E-05-2.83565E-05 2.74358E-06-1.10313E-18-9.06350E-19
 -1      4155 9.25614E-05-2.61777E-05-2.84341E-05 2.09774E-06-1.05227E-18-9.71753E-19
 -1      4156 9.26426E-05-2.65517E-05-2.83190E-05 3.61000E-06-9.16707E-19-1.20099E-18
 -1      4157 1.16290E-04-4.42305E-05-3.07894E-05 6.06545E-06-1.18840E-18-3.10738E-18
 -1      4158 1.04459E-04-3.65666E-05-2.90510E-05 2.97985E-06-1.34871E-18-1.37945E-18
 -1      4159 1.06074E-04-3.77115E-05-2.93051E-05 2.45407E-06-1.25461E-18-1.73413E-18
 -1      4160 1.03362E-04-3.60783E-05-2.88879E-05 4.66807E-06-1.38483E-18-7.72693E-19
 -1      4161 9.48435E-05-2.81910E-05-2.85675E-05 1.01087E-06-9.00936E-19-7.43339E-19
 -1      4162 9.49237E-05-2.82728E-05-2.85569E-05 1.20726E-06-1.02553E-18-7.46081E-19
 -1      4163 9.46942E-05-2.80895E-05-2.85429E-05 1.40935E-06-1.12180E-18-4.71865E-19
 -1      4164 9.46847E-05-2.80248E-05-2.85721E-05 9.25561E-07-8.36640E-19-5.26365E-19
 -1      4165 9.49243E-05-2.81832E-05-2.86055E-05 2.86899E-07-2.74597E-19-1.20347E-18
 -1      4166 9.49081E-05-2.81617E-05-2.86033E-05 3.53225E-07-9.62537E-19-8.03591E-19
 -1      4167 9.48175E-05-2.80718E-05-2.86024E-05 3.73145E-07-9.36350E-19-5.48446E-19
 -1      4168 9.27848E-05-2.63684E-05-2.84862E-05 1.57263E-06-1.18324E-18-4.99376E-19
 -1      4169 9.32212E-05-2.66271E-05-2.85311E-05 1.17662E-06-9.56713E-19-4.33647E-19
 -1      4170 9.31053E-05-2.67092E-05-2.84472E-05 2.22548E-06-8.05450E-19-1.36482E-18
 -1      4171 1.07383E-04-3.88101E-05-2.94121E-05 4.05877E-06-1.35030E-18-1.49705E-18
 -1      4172 1.01927E-04-3.55992E-05-2.84974E-05 9.49103E-06-2.07626E-18-1.28800E-18
 -1      4173 9.93632E-05-3.37464E-05-2.80899E-05 1.15107E-05-2.10406E-18-1.20847E-18
 -1      4174 9.81572E-05-3.25139E-05-2.81197E-05 1.03094E-05-1.88262E-18-1.52209E-18
 -1      4175 9.66840E-05-3.02141E-05-2.85076E-05 2.81772E-06-2.70917E-19-6.10879E-19
 -1      4176 1.16352E-04-4.32248E-05-3.14181E-05 1.34535E-06-8.05347E-19-3.21664E-18
 -1      4177 1.14307E-04-4.32223E-05-3.04733E-05 5.53068E-06-1.25022E-18-2.98655E-18
 -1      4178 9.52392E-05-2.85734E-05-2.85710E-05-1.96430E-10-8.64756E-19-7.92067E-19
 -1      4179 9.52391E-05-2.85734E-05-2.85710E-05-3.93358E-10-1.05621E-18-1.13253E-18
 -1      4180 9.52393E-05-2.85735E-05-2.85711E-05-5.53267E-10-1.29109E-18-4.36574E-19
 -1      4181 9.52396E-05-2.85737E-05-2.85711E-05-6.86329E-10-1.02763E-18-1.40141E-18
 -1      4182 9.70109E-05-3.05931E-05-2.84559E-05 4.09059E-06-5.47979E-19-6.61759E-19
 -1      4183 9.79019E-05-3.14050E-05-2.84767E-05 4.54614E-06-7.43602E-19-8.38186E-19
 -1      4184 9.52576E-05-2.87497E-05-2.85069E-05 2.15330E-06-5.39847E-19-5.95032E-19
 -1      4185 9.55931E-05-2.90778E-05-2.84945E-05 2.50295E-06-9.53607E-20-1.93295E-19
 -1      4186 9.48435E-05-2.83407E-05-2.85016E-05 2.12635E-06-6.99150E-19-3.77335E-19
 -1      4187 1.17282E-04-4.03071E-05-3.30735E-05-4.54398E-06 3.93262E-19-3.52377E-18
 -1      4188 1.16373E-04-4.17234E-05-3.19812E-05-1.52358E-06-2.03364E-19-3.32106E-18
 -1      4189 9.35720E-05-2.69844E-05-2.85305E-05 1.30502E-06-8.79394E-19-1.44230E-18
 -1      4190 9.49036E-05-2.81468E-05-2.86076E-05 2.30374E-07-5.25730E-19-1.10502E-18
 -1      4191 1.11584E-04-4.19390E-05-2.98309E-05 6.68651E-06-1.37754E-18-2.31777E-18
 -1      4192 9.03844E-05-2.61295E-05-2.75223E-05 1.02547E-05-1.38004E-18-7.49264E-19
 -1      4193 9.08765E-05-2.60402E-05-2.77428E-05 8.56160E-06-1.36810E-18-1.06944E-18
 -1      4194 9.26137E-05-2.75176E-05-2.79340E-05 8.05893E-06-1.31612E-18-9.76877E-19
 -1      4195 9.42556E-05-2.94432E-05-2.78267E-05 1.05096E-05-1.51579E-18-1.30730E-18
 -1      4196 1.14782E-04-4.08828E-05-3.16222E-05-2.02613E-06-3.87806E-19-3.24465E-18
 -1      4197 9.40428E-05-2.74064E-05-2.85625E-05 9.69684E-07-9.06267E-19-9.15718E-19
 -1      4198 9.42253E-05-2.75361E-05-2.85807E-05 7.41729E-07-1.05311E-18-9.85179E-19
 -1      4199 9.44178E-05-2.77230E-05-2.85876E-05 6.49289E-07-1.01728E-18-2.56275E-19
 -1      4200 9.45394E-05-2.78121E-05-2.85970E-05 5.09955E-07-1.11803E-18 2.75800E-19
 -1      4201 9.45874E-05-2.78573E-05-2.86043E-05 3.76294E-07-1.35035E-18 3.71586E-19
 -1      4202 9.46935E-05-2.79420E-05-2.86086E-05 2.92343E-07-7.36644E-19 6.71183E-19
 -1      4203 9.47450E-05-2.79927E-05-2.86123E-05 2.05586E-07-2.49376E-19 6.84159E-20
 -1      4204 9.48269E-05-2.80655E-05-2.86132E-05 1.59510E-07 9.37315E-20-6.95376E-20
 -1      4205 9.48744E-05-2.81146E-05-2.86143E-05 1.04881E-07-3.74696E-19-1.90147E-19
 -1      4206 9.49363E-05-2.81749E-05-2.86132E-05 8.14444E-08-3.93545E-19-9.38770E-19
 -1      4207 9.49768E-05-2.82188E-05-2.86126E-05 4.78190E-08-1.51971E-19-6.38485E-19
 -1      4208 9.50227E-05-2.82674E-05-2.86104E-05 3.74356E-08-7.32290E-19-8.97712E-19
 -1      4209 9.50556E-05-2.83048E-05-2.86089E-05 1.71720E-08-4.75865E-19-2.56828E-19
 -1      4210 9.50891E-05-2.83432E-05-2.86062E-05 1.39176E-08-7.89242E-20 4.83359E-19
 -1      4211 9.51148E-05-2.83739E-05-2.86041E-05 1.95759E-09 4.83186E-19 7.71663E-19
 -1      4212 9.51388E-05-2.84037E-05-2.86014E-05 2.28622E-09 2.58674E-19 1.20729E-18
 -1      4213 9.51582E-05-2.84282E-05-2.85992E-05-4.62467E-09-6.11781E-19 1.45114E-18
 -1      4214 9.51752E-05-2.84510E-05-2.85965E-05-2.74965E-09-3.60889E-19 1.65482E-18
 -1      4215 9.51894E-05-2.84701E-05-2.85943E-05-6.65375E-09-9.58846E-19 1.36097E-18
 -1      4216 9.52011E-05-2.84872E-05-2.85920E-05-4.33827E-09-1.05992E-18 9.13067E-19
 -1      4217 9.52111E-05-2.85018E-05-2.85900E-05-6.48784E-09-4.05270E-19 5.82017E-19
 -1      4218 9.52190E-05-2.85144E-05-2.85879E-05-4.28256E-09-1.68074E-19 5.94921E-19
 -1      4219 9.52259E-05-2.85253E-05-2.85861E-05-5.42861E-09-2.39592E-19 9.43031E-19
 -1      4220 9.52310E-05-2.85345E-05-2.85844E-05-3.56649E-09-2.82879E-19 9.37961E-19
 -1      4221 9.52355E-05-2.85424E-05-2.85828E-05-4.14982E-09-2.98527E-19 8.06082E-19
 -1      4222 9.52386E-05-2.85489E-05-2.85814E-05-2.69207E-09 1.34862E-19 3.39492E-19
 -1      4223 9.52413E-05-2.85545E-05-2.85801E-05-2.96607E-09 5.12348E-19 6.79146E-19
 -1      4224 9.52431E-05-2.85590E-05-2.85789E-05-1.88890E-09 1.11829E-19 2.26861E-20
 -1      4225 9.52446E-05-2.85629E-05-2.85779E-05-1.99637E-09 9.98973E-19 1.41771E-19
 -1      4226 9.52454E-05-2.85659E-05-2.85769E-05-1.24057E-09 1.22373E-18-2.82802E-19
 -1      4227 9.52461E-05-2.85684E-05-2.85761E-05-1.26050E-09 1.09020E-18-3.29690E-19
 -1      4228 9.52463E-05-2.85704E-05-2.85754E-05-7.58070E-10 1.38479E-18 6.18577E-19
 -1      4229 9.52464E-05-2.85720E-05-2.85747E-05-7.33545E-10 1.85309E-18 7.42837E-19
 -1      4230 9.52462E-05-2.85731E-05-2.85742E-05-4.20819E-10 2.49305E-18 5.98877E-19
 -1      4231 9.52460E-05-2.85740E-05-2.85737E-05-3.75084E-10 1.66464E-18 6.35444E-19
 -1      4232 9.52456E-05-2.85747E-05-2.85732E-05-1.98209E-10 1.18216E-18-1.38832E-19
 -1      4233 9.52452E-05-2.85751E-05-2.85729E-05-1.43798E-10 1.70600E-18 5.78797E-19
 -1      4234 9.52447E-05-2.85753E-05-2.85725E-05-5.99798E-11 1.56196E-18 1.12978E-18
 -1      4235 9.52442E-05-2.85755E-05-2.85723E-05-3.74852E-12 1.46657E-18 1.24348E-18
 -1      4236 9.52436E-05-2.85755E-05-2.85720E-05 1.95896E-11 9.76417E-19 1.16539E-18
 -1      4237 9.52431E-05-2.85754E-05-2.85718E-05 7.36314E-11-2.33032E-19 1.30400E-18
 -1      4238 9.52426E-05-2.85753E-05-2.85717E-05 6.09305E-11-4.39336E-19 1.35986E-18
 -1      4239 9.52421E-05-2.85751E-05-2.85715E-05 1.10081E-10-2.54717E-19 9.33704E-19
 -1      4240 9.52416E-05-2.85749E-05-2.85714E-05 8.16393E-11-2.19242E-19-3.64349E-20
 -1      4241 9.58927E-05-2.94478E-05-2.84729E-05 3.02051E-06-4.27781E-19-3.90864E-19
 -1      4242 9.64503E-05-2.99790E-05-2.84699E-05 3.44584E-06-5.29636E-19-6.32008E-19
 -1      4243 9.60292E-05-2.97912E-05-2.84125E-05 4.31123E-06-5.59775E-19-4.28890E-19
 -1      4244 9.40285E-05-2.75406E-05-2.85063E-05 1.77715E-06-9.25804E-19-1.00029E-18
 -1      4245 9.42039E-05-2.76063E-05-2.85377E-05 1.39144E-06-7.30276E-19-8.17374E-19
 -1      4246 9.52393E-05-2.85735E-05-2.85710E-05 2.15188E-10-1.43453E-18-2.91960E-18
 -1      4247 9.52392E-05-2.85735E-05-2.85711E-05 7.21617E-12-7.86613E-19-2.58270E-18
 -1      4248 9.52411E-05-2.85747E-05-2.85713E-05 1.17820E-10 4.95389E-19-6.40410E-19
 -1      4249 9.74948E-05-3.13147E-05-2.83945E-05 5.85039E-06-8.19759E-19-1.34062E-19
 -1      4250 9.88802E-05-3.23631E-05-2.84896E-05 5.27171E-06-1.02188E-18-8.06758E-19
 -1      4251 9.58302E-05-2.98326E-05-2.82852E-05 6.03429E-06-8.64869E-19-1.10303E-18
 -1      4252 9.67247E-05-3.07241E-05-2.82754E-05 6.97809E-06-9.87923E-19-1.21977E-18
 -1      4253 1.00224E-04-3.34960E-05-2.85662E-05 5.63438E-06-1.05710E-18-5.71552E-19
 -1      4254 9.52397E-05-2.85738E-05-2.85711E-05 3.66950E-10-9.13622E-19-1.73958E-18
 -1      4255 9.33073E-05-2.72886E-05-2.83100E-05 4.09793E-06-7.70336E-19-1.40683E-18
 -1      4256 9.35082E-05-2.72664E-05-2.83843E-05 3.29542E-06-6.17972E-19-1.56872E-18
 -1      4257 1.07936E-04-4.04012E-05-2.90037E-05 1.10562E-05-1.97070E-18-2.31465E-18
 -1      4258 1.06658E-04-3.88571E-05-2.90204E-05 8.83967E-06-1.91170E-18-1.43875E-18
 -1      4259 9.52397E-05-2.85738E-05-2.85711E-05-4.58631E-10-1.94719E-18-1.13916E-18
 -1      4260 1.01207E-04-3.44534E-05-2.85809E-05 6.64364E-06-1.59272E-18-7.70296E-19
 -1      4261 1.03060E-04-3.59297E-05-2.87453E-05 6.85808E-06-1.95041E-18-9.46702E-19
 -1      4262 9.39609E-05-2.76401E-05-2.84354E-05 2.75855E-06-4.45963E-19-9.79379E-19
 -1      4263 9.41210E-05-2.76450E-05-2.84815E-05 2.21190E-06-6.81503E-19-1.04269E-18
 -1      4264 9.52394E-05-2.85736E-05-2.85711E-05-1.27237E-10-1.50733E-18-1.77898E-18
 -1      4265 9.93922E-05-3.31821E-05-2.83998E-05 7.72501E-06-1.47650E-18-9.20627E-19
 -1      4266 1.04600E-04-3.72574E-05-2.88517E-05 7.32564E-06-1.91800E-18-1.23204E-18
 -1      4267 1.13493E-04-3.90824E-05-3.19021E-05-4.85373E-06 2.39006E-19-2.90396E-18
 -1      4268 9.41620E-05-2.87355E-05-2.80244E-05 8.13984E-06-9.83705E-19-1.85681E-18
 -1      4269 9.35997E-05-2.80050E-05-2.80856E-05 7.03958E-06-1.04486E-18-1.42079E-18
 -1      4270 9.44816E-05-2.78812E-05-2.85436E-05 1.34003E-06-9.26746E-19-4.26511E-19
 -1      4271 9.52401E-05-2.85741E-05-2.85711E-05 2.58569E-10 5.49802E-19-3.38919E-19
 -1      4272 9.52398E-05-2.85739E-05-2.85711E-05-3.93535E-11-1.76275E-18-1.42083E-18
 -1      4273 9.52251E-05-2.88651E-05-2.84572E-05 3.05661E-06-3.87842E-19-3.57571E-19
 -1      4274 9.52407E-05-2.85744E-05-2.85712E-05-2.26387E-10 1.09797E-18 6.68403E-19
 -1      4275 9.52408E-05-2.85745E-05-2.85713E-05 6.22871E-10 7.58336E-19 3.14221E-19
 -1      4276 1.13989E-04-3.74356E-05-3.27932E-05-6.56588E-06 6.89977E-19-3.10667E-18
 -1      4277 9.46372E-05-2.88512E-05-2.82256E-05 6.12185E-06-8.67483E-19-2.09590E-18
 -1      4278 9.33233E-05-2.76456E-05-2.81548E-05 6.02270E-06-9.01382E-19-1.25221E-18
 -1      4279 9.34362E-05-2.74414E-05-2.82583E-05 4.84936E-06-7.97695E-19-1.70324E-18
 -1      4280 9.55708E-05-2.93912E-05-2.83383E-05 5.14004E-06-6.11986E-19-7.43110E-19
 -1      4281 9.50187E-05-2.88327E-05-2.83627E-05 4.38029E-06-6.35727E-19-8.60335E-19
 -1      4282 9.52401E-05-2.85741E-05-2.85712E-05-3.88072E-10-5.58556E-19-1.55731E-18
 -1      4283 9.52405E-05-2.85744E-05-2.85712E-05-4.42773E-10 6.27442E-19-6.08906E-19
 -1      4284 9.42964E-05-2.82254E-05-2.83320E-05 4.42961E-06-6.41336E-19-1.63257E-18
 -1      4285 9.45212E-05-2.78377E-05-2.85748E-05 8.43451E-07-8.53967E-19-1.59828E-19
 -1      4286 1.07485E-04-3.91437E-05-2.92709E-05 6.06993E-06-1.60999E-18-1.32611E-18
 -1      4287 1.11307E-04-4.22033E-05-2.96341E-05 8.88345E-06-1.68460E-18-2.46504E-18
 -1      4288 9.52398E-05-2.85738E-05-2.85711E-05-2.49159E-10-1.82461E-18-1.45588E-18
 -1      4289 9.82260E-05-3.22770E-05-2.82716E-05 8.43158E-06-1.66926E-18-1.72175E-18
 -1      4290 9.59777E-05-3.05768E-05-2.79991E-05 9.81790E-06-1.68707E-18-1.87750E-18
 -1      4291 9.44909E-05-2.78469E-05-2.85625E-05 1.05000E-06-1.02778E-18-6.11623E-19
 -1      4292 9.48326E-05-2.94451E-05-2.80250E-05 8.69684E-06-1.21458E-18-1.65883E-18
 -1      4293 9.52402E-05-2.85741E-05-2.85712E-05 4.81309E-10 1.95040E-18 6.80702E-20
 -1      4294 9.52403E-05-2.85742E-05-2.85712E-05 5.44537E-11 7.99846E-19 4.82995E-19
 -1      4295 9.52404E-05-2.85743E-05-2.85712E-05 5.45113E-10 1.80296E-18 6.00839E-19
 -1      4296 9.46556E-05-2.82821E-05-2.84331E-05 3.11543E-06-3.57751E-19-8.51261E-19
 -1      4297 9.49328E-05-2.86064E-05-2.84071E-05 3.68480E-06-5.10537E-19-7.91159E-19
 -1      4298 1.09812E-04-4.05777E-05-2.96614E-05 5.44666E-06-1.33568E-18-1.85152E-18
 -1      4299 9.73611E-05-3.13923E-05-2.82810E-05 7.37508E-06-1.10402E-18-1.10306E-18
 -1      4300 9.55514E-05-2.98900E-05-2.81650E-05 7.57632E-06-1.23671E-18-2.38433E-18
 -3
    1PSTEP                         4           1           1          
  100CL  101 1.000000000        4300                     0    1           1
 -4  ERROR       1    1
 -5  STR(%)      1    1    0    0
 -1         1 4.88487E+01
 -1         2 2.55108E+01
 -1         3 9.06279E-06
 -1         4 1.03898E-05
 -1         5 1.57017E+01
 -1         6 1.22323E+01
 -1         7 1.22323E+01
 -1         8 1.24625E+01
 -1         9 1.24625E+01
 -1        10 1.13459E+01
 -1        11 7.71380E+00
 -1        12 7.18044E+00
 -1        13 6.57831E+00
 -1        14 3.97677E+00
 -1        15 2.38890E+00
 -1        16 1.65753E+00
 -1        17 1.58290E+00
 -1        18 1.38938E+00
 -1        19 1.19921E+00
 -1        20 1.06469E+00
 -1        21 2.54956E+00
 -1        22 9.40263E+00
 -1        23 1.22323E+01
 -1        24 5.07730E+00
 -1        25 5.04195E+00
 -1        26 8.23528E+00
 -1        27 1.58780E+01
 -1        28 1.64667E+01
 -1        29 1.64667E+01
 -1        30 1.15708E+01
 -1        31 4.96392E+00
 -1        32 5.41156E+00
 -1        33 5.41156E+00
 -1        34 4.67680E+00
 -1        35 3.50570E+00
 -1        36 2.49339E+00
 -1        37 1.79038E+00
 -1        38 1.27053E+00
 -1        39 8.61108E-01
 -1        40 5.67346E-01
 -1        41 3.67808E-01
 -1        42 2.36453E-01
 -1        43 1.51405E-01
 -1        44 9.67437E-02
 -1        45 6.29006E-02
 -1        46 4.55380E-02
 -1        47 3.30962E-02
 -1        48 2.41394E-02
 -1        49 1.76463E-02
 -1        50 1.29029E-02
 -1        51 9.41272E-03
 -1        52 6.83048E-03
 -1        53 5.39877E-03
 -1        54 4.37656E-03
 -1        55 3.50706E-03
 -1        56 2.77685E-03
 -1        57 2.17119E-03
 -1        58 1.70526E-03
 -1        59 1.33769E-03
 -1        60 1.03371E-03
 -1        61 7.86341E-04
 -1        62 5.88088E-04
 -1        63 4.56885E-04
 -1        64 3.67374E-04
 -1        65 2.90857E-04
 -1        66 2.26900E-04
 -1        67 1.74339E-04
 -1        68 1.31499E-04
 -1        69 9.62666E-05
 -1        70 7.59230E-05
 -1        71 5.93844E-05
 -1        72 3.30377E-05
 -1        73 1.57017E+01
 -1        74 5.14765E+00
 -1        75 4.71904E+00
 -1        76 4.19626E+00
 -1        77 3.71232E+00
 -1        78 3.54547E+00
 -1        79 3.41787E+00
 -1        80 3.08579E+00
 -1        81 2.59076E+00
 -1        82 2.01985E+00
 -1        83 1.52944E+00
 -1        84 1.08449E+00
 -1        85 7.16333E-01
 -1        86 4.53035E-01
 -1        87 2.99396E-01
 -1        88 1.80651E-01
 -1        89 9.99208E-02
 -1        90 7.64379E-02
 -1        91 6.01495E-02
 -1        92 5.33553E-02
 -1        93 4.23794E-02
 -1        94 3.08354E-02
 -1        95 2.22724E-02
 -1        96 1.81488E-02
 -1        97 1.41510E-02
 -1        98 1.04026E-02
 -1        99 7.21004E-03
 -1       100 6.17608E-03
 -1       101 5.27549E-03
 -1       102 4.33475E-03
 -1       103 3.44977E-03
 -1       104 3.08634E-03
 -1       105 2.68774E-03
 -1       106 2.26299E-03
 -1       107 1.85349E-03
 -1       108 1.48531E-03
 -1       109 1.19873E-03
 -1       110 9.46698E-04
 -1       111 7.32477E-04
 -1       112 5.55298E-04
 -1       113 4.12067E-04
 -1       114 2.98526E-04
 -1       115 2.24382E-04
 -1       116 1.73338E-04
 -1       117 1.31311E-04
 -1       118 9.65188E-05
 -1       119 6.64960E-05
 -1       120 5.04338E-05
 -1       121 2.98080E-05
 -1       122 1.20688E-05
 -1       123 1.26175E-05
 -1       124 1.26175E-05
 -1       125 7.80068E-06
 -1       126 4.93497E-06
 -1       127 9.33179E-06
 -1       128 1.21483E-05
 -1       129 1.29845E-05
 -1       130 1.29845E-05
 -1       131 1.20808E-05
 -1       132 9.12834E-06
 -1       133 4.92208E-06
 -1       134 7.84605E-06
 -1       135 1.22030E-05
 -1       136 1.22030E-05
 -1       137 9.63636E-06
 -1       138 2.55108E+01
 -1       139 4.08692E+01
 -1       140 4.08692E+01
 -1       141 1.59577E+01
 -1       142 1.16061E+01
 -1       143 1.16061E+01
 -1       144 1.15961E+01
 -1       145 1.24406E+01
 -1       146 1.24406E+01
 -1       147 1.16608E+01
 -1       148 2.25698E+01
 -1       149 4.85368E+01
 -1       150 4.85368E+01
 -1       151 2.82567E+01
 -1       152 2.82567E+01
 -1       153 2.95605E+01
 -1       154 4.88487E+01
 -1       155 2.21935E+01
 -1       156 1.32076E+01
 -1       157 1.39108E+01
 -1       158 1.44079E+01
 -1       159 1.44079E+01
 -1       160 1.43146E+01
 -1       161 2.77236E+01
 -1       162 2.81246E+01
 -1       163 2.72374E+01
 -1       164 2.70602E+01
 -1       165 1.16303E+01
 -1       166 1.57185E+01
 -1       167 1.57185E+01
 -1       168 1.09917E+01
 -1       169 8.62683E+00
 -1       170 8.62683E+00
 -1       171 6.03232E+00
 -1       172 3.69283E+00
 -1       173 2.23160E+00
 -1       174 1.65753E+00
 -1       175 1.58290E+00
 -1       176 1.38938E+00
 -1       177 1.19921E+00
 -1       178 1.20049E+00
 -1       179 3.35305E+00
 -1       180 1.57017E+01
 -1       181 1.03116E+01
 -1       182 1.19567E+01
 -1       183 7.21159E+00
 -1       184 8.75485E+00
 -1       185 1.66586E+01
 -1       186 1.15708E+01
 -1       187 5.81905E+00
 -1       188 6.18850E+00
 -1       189 5.46019E+00
 -1       190 4.74216E+00
 -1       191 4.19297E+00
 -1       192 3.37524E+00
 -1       193 2.44758E+00
 -1       194 1.65125E+00
 -1       195 1.06020E+00
 -1       196 6.57962E-01
 -1       197 4.05571E-01
 -1       198 2.67791E-01
 -1       199 1.75902E-01
 -1       200 1.15285E-01
 -1       201 7.54650E-02
 -1       202 4.93082E-02
 -1       203 3.30962E-02
 -1       204 2.41394E-02
 -1       205 1.76463E-02
 -1       206 1.32031E-02
 -1       207 9.95618E-03
 -1       208 7.47127E-03
 -1       209 5.56945E-03
 -1       210 4.37656E-03
 -1       211 3.50706E-03
 -1       212 2.77685E-03
 -1       213 2.22375E-03
 -1       214 1.80362E-03
 -1       215 1.45770E-03
 -1       216 1.15951E-03
 -1       217 9.07988E-04
 -1       218 6.99770E-04
 -1       219 5.30277E-04
 -1       220 3.94435E-04
 -1       221 2.90857E-04
 -1       222 2.26900E-04
 -1       223 1.74944E-04
 -1       224 1.35097E-04
 -1       225 1.02093E-04
 -1       226 7.59230E-05
 -1       227 5.93844E-05
 -1       228 3.49532E-05
 -1       229 1.58438E-05
 -1       230 5.14765E+00
 -1       231 4.71904E+00
 -1       232 4.19626E+00
 -1       233 3.71232E+00
 -1       234 3.54547E+00
 -1       235 3.41787E+00
 -1       236 3.08579E+00
 -1       237 2.59076E+00
 -1       238 2.01985E+00
 -1       239 1.52944E+00
 -1       240 1.12750E+00
 -1       241 7.84202E-01
 -1       242 5.08123E-01
 -1       243 3.01606E-01
 -1       244 1.80651E-01
 -1       245 9.99208E-02
 -1       246 7.64379E-02
 -1       247 6.01495E-02
 -1       248 5.33553E-02
 -1       249 4.23794E-02
 -1       250 3.08354E-02
 -1       251 2.31234E-02
 -1       252 1.81488E-02
 -1       253 1.41510E-02
 -1       254 1.04026E-02
 -1       255 7.26631E-03
 -1       256 6.17608E-03
 -1       257 5.27549E-03
 -1       258 4.34946E-03
 -1       259 3.47748E-03
 -1       260 3.08634E-03
 -1       261 2.68774E-03
 -1       262 2.26299E-03
 -1       263 1.85349E-03
 -1       264 1.48531E-03
 -1       265 1.19873E-03
 -1       266 9.48617E-04
 -1       267 7.49564E-04
 -1       268 5.80261E-04
 -1       269 4.40034E-04
 -1       270 3.26433E-04
 -1       271 2.36127E-04
 -1       272 1.73338E-04
 -1       273 1.31311E-04
 -1       274 9.65188E-05
 -1       275 6.67781E-05
 -1       276 5.04338E-05
 -1       277 2.98080E-05
 -1       278 2.16108E-05
 -1       279 2.16108E-05
 -1       280 2.05312E-05
 -1       281 1.04149E-05
 -1       282 1.75186E-05
 -1       283 2.32492E-05
 -1       284 2.56019E-05
 -1       285 2.56019E-05
 -1       286 2.55951E-05
 -1       287 2.30585E-05
 -1       288 1.74633E-05
 -1       289 1.10452E-05
 -1       290 2.02291E-05
 -1       291 2.32832E-05
 -1       292 2.45056E-05
 -1       293 3.02945E+01
 -1       294 3.57198E+01
 -1       295 4.08692E+01
 -1       296 1.69334E+01
 -1       297 1.10047E+01
 -1       298 1.16061E+01
 -1       299 1.15961E+01
 -1       300 1.12466E+01
 -1       301 1.24406E+01
 -1       302 1.09643E+01
 -1       303 1.16608E+01
 -1       304 2.40860E+01
 -1       305 4.85368E+01
 -1       306 4.05470E+01
 -1       307 4.27923E+01
 -1       308 4.45032E+01
 -1       309 4.01100E+01
 -1       310 4.88487E+01
 -1       311 2.33971E+01
 -1       312 1.30304E+01
 -1       313 1.48135E+01
 -1       314 1.66586E+01
 -1       315 1.66586E+01
 -1       316 1.31664E+01
 -1       317 1.43146E+01
 -1       318 2.81246E+01
 -1       319 3.40287E+01
 -1       320 3.40287E+01
 -1       321 3.02945E+01
 -1       322 1.58780E+01
 -1       323 1.65628E+01
 -1       324 1.64452E+01
 -1       325 1.48788E+01
 -1       326 1.13748E+01
 -1       327 9.41144E+00
 -1       328 5.75940E+00
 -1       329 2.71410E+00
 -1       330 1.45222E+00
 -1       331 1.22719E+00
 -1       332 1.21260E+00
 -1       333 1.10999E+00
 -1       334 1.05632E+00
 -1       335 1.24801E+00
 -1       336 3.04400E+00
 -1       337 2.85558E+00
 -1       338 1.75955E+01
 -1       339 1.02941E+01
 -1       340 1.03816E+01
 -1       341 1.11247E+01
 -1       342 8.61602E+00
 -1       343 6.39758E+00
 -1       344 5.27579E+00
 -1       345 4.10392E+00
 -1       346 2.98804E+00
 -1       347 2.06103E+00
 -1       348 1.36969E+00
 -1       349 8.87615E-01
 -1       350 5.65306E-01
 -1       351 3.55460E-01
 -1       352 2.21136E-01
 -1       353 1.36094E-01
 -1       354 8.26515E-02
 -1       355 5.18505E-02
 -1       356 3.54539E-02
 -1       357 2.41046E-02
 -1       358 1.67776E-02
 -1       359 1.28061E-02
 -1       360 9.73048E-03
 -1       361 7.35181E-03
 -1       362 5.70534E-03
 -1       363 4.47224E-03
 -1       364 3.46585E-03
 -1       365 2.74732E-03
 -1       366 2.22375E-03
 -1       367 1.81353E-03
 -1       368 1.46799E-03
 -1       369 1.16945E-03
 -1       370 9.46248E-04
 -1       371 7.56946E-04
 -1       372 5.95246E-04
 -1       373 4.60054E-04
 -1       374 3.49107E-04
 -1       375 2.59581E-04
 -1       376 1.88502E-04
 -1       377 1.35097E-04
 -1       378 1.02093E-04
 -1       379 7.45265E-05
 -1       380 5.38831E-05
 -1       381 3.80560E-05
 -1       382 3.28776E+00
 -1       383 2.83651E+00
 -1       384 2.70853E+00
 -1       385 2.45819E+00
 -1       386 2.10241E+00
 -1       387 1.70666E+00
 -1       388 1.37604E+00
 -1       389 1.03995E+00
 -1       390 7.79278E-01
 -1       391 5.59109E-01
 -1       392 3.76338E-01
 -1       393 2.34779E-01
 -1       394 1.32307E-01
 -1       395 6.31793E-02
 -1       396 3.77062E-02
 -1       397 3.50610E-02
 -1       398 2.97705E-02
 -1       399 2.36278E-02
 -1       400 1.87048E-02
 -1       401 1.60803E-02
 -1       402 1.30756E-02
 -1       403 1.00162E-02
 -1       404 7.26631E-03
 -1       405 6.16127E-03
 -1       406 5.27360E-03
 -1       407 4.34946E-03
 -1       408 3.47748E-03
 -1       409 2.70433E-03
 -1       410 2.33489E-03
 -1       411 1.97563E-03
 -1       412 1.62536E-03
 -1       413 1.32563E-03
 -1       414 1.08086E-03
 -1       415 8.68686E-04
 -1       416 7.05351E-04
 -1       417 5.60104E-04
 -1       418 4.35320E-04
 -1       419 3.31019E-04
 -1       420 2.45842E-04
 -1       421 1.77745E-04
 -1       422 1.24476E-04
 -1       423 9.29083E-05
 -1       424 6.67781E-05
 -1       425 4.87204E-05
 -1       426 3.27886E-05
 -1       427 2.31133E-05
 -1       428 4.36036E-05
 -1       429 2.41874E-05
 -1       430 3.27883E-05
 -1       431 3.69602E-05
 -1       432 3.69602E-05
 -1       433 3.68825E-05
 -1       434 3.68825E-05
 -1       435 3.28210E-05
 -1       436 2.40279E-05
 -1       437 2.33825E-05
 -1       438 3.39372E-05
 -1       439 3.27300E+00
 -1       440 2.43547E+01
 -1       441 7.87704E+00
 -1       442 4.93973E+01
 -1       443 2.31135E+01
 -1       444 8.18180E+00
 -1       445 9.34545E+00
 -1       446 1.03934E+01
 -1       447 1.01227E+01
 -1       448 7.30707E+00
 -1       449 6.60779E+00
 -1       450 1.14763E+01
 -1       451 1.87635E+01
 -1       452 3.02825E+01
 -1       453 3.16275E+01
 -1       454 4.45032E+01
 -1       455 4.45032E+01
 -1       456 3.13271E+01
 -1       457 1.85049E+01
 -1       458 8.26006E+00
 -1       459 1.21271E+01
 -1       460 1.98666E+01
 -1       461 3.40287E+01
 -1       462 4.93973E+01
 -1       463 2.76923E+01
 -1       464 1.41116E+01
 -1       465 3.39372E-05
 -1       466 7.42554E+00
 -1       467 7.69707E+00
 -1       468 1.40968E+01
 -1       469 7.87659E+00
 -1       470 1.54290E+00
 -1       471 1.43406E+00
 -1       472 1.32395E+00
 -1       473 1.75856E+00
 -1       474 1.71209E+00
 -1       475 1.87351E+00
 -1       476 3.82693E+00
 -1       477 1.77453E+01
 -1       478 1.32314E+01
 -1       479 7.84278E+00
 -1       480 5.25332E+00
 -1       481 3.39666E+00
 -1       482 2.19734E+00
 -1       483 1.40568E+00
 -1       484 9.20447E-01
 -1       485 6.10625E-01
 -1       486 4.02720E-01
 -1       487 2.63831E-01
 -1       488 1.71612E-01
 -1       489 1.10733E-01
 -1       490 7.07424E-02
 -1       491 4.45881E-02
 -1       492 2.75571E-02
 -1       493 1.65245E-02
 -1       494 1.12158E-02
 -1       495 7.95182E-03
 -1       496 6.48098E-03
 -1       497 5.20171E-03
 -1       498 4.12006E-03
 -1       499 3.22342E-03
 -1       500 2.63194E-03
 -1       501 2.13008E-03
 -1       502 1.71811E-03
 -1       503 1.41422E-03
 -1       504 1.16846E-03
 -1       505 9.52020E-04
 -1       506 7.62042E-04
 -1       507 6.03220E-04
 -1       508 4.81886E-04
 -1       509 3.77889E-04
 -1       510 2.90768E-04
 -1       511 2.19236E-04
 -1       512 1.61615E-04
 -1       513 1.16077E-04
 -1       514 8.10013E-05
 -1       515 5.41699E-05
 -1       516 5.10469E-05
 -1       517 1.94701E+00
 -1       518 1.99094E+00
 -1       519 2.24494E+00
 -1       520 1.80467E+00
 -1       521 1.57719E+00
 -1       522 1.36098E+00
 -1       523 1.10830E+00
 -1       524 8.42880E-01
 -1       525 5.98854E-01
 -1       526 4.07286E-01
 -1       527 2.69177E-01
 -1       528 1.66624E-01
 -1       529 9.89887E-02
 -1       530 5.40102E-02
 -1       531 3.83596E-02
 -1       532 2.63679E-02
 -1       533 2.23874E-02
 -1       534 2.02906E-02
 -1       535 1.65650E-02
 -1       536 1.29800E-02
 -1       537 9.87662E-03
 -1       538 6.96202E-03
 -1       539 5.09863E-03
 -1       540 3.59428E-03
 -1       541 3.18908E-03
 -1       542 2.83842E-03
 -1       543 2.43176E-03
 -1       544 2.01923E-03
 -1       545 1.67515E-03
 -1       546 1.48062E-03
 -1       547 1.26442E-03
 -1       548 1.05072E-03
 -1       549 8.76958E-04
 -1       550 7.14090E-04
 -1       551 5.68593E-04
 -1       552 4.52866E-04
 -1       553 3.57154E-04
 -1       554 2.75574E-04
 -1       555 2.07813E-04
 -1       556 1.52854E-04
 -1       557 1.09203E-04
 -1       558 7.71604E-05
 -1       559 5.18942E-05
 -1       560 4.15396E-05
 -1       561 5.01692E-05
 -1       562 4.81440E-05
 -1       563 2.76923E+01
 -1       564 4.88137E-05
 -1       565 4.94701E-05
 -1       566 4.94701E-05
 -1       567 4.94599E-05
 -1       568 4.89307E-05
 -1       569 4.18619E-05
 -1       570 3.48997E-05
 -1       571 5.41699E-05
 -1       572 3.57741E+00
 -1       573 2.45711E+01
 -1       574 7.30602E+00
 -1       575 2.26019E+01
 -1       576 1.82019E+00
 -1       577 3.60331E+00
 -1       578 4.93973E+01
 -1       579 2.54699E+01
 -1       580 6.27918E+00
 -1       581 7.04424E+00
 -1       582 5.76023E+00
 -1       583 3.25207E+01
 -1       584 1.59044E+01
 -1       585 1.07333E+01
 -1       586 1.79377E+00
 -1       587 1.72539E+01
 -1       588 3.16275E+01
 -1       589 3.71095E+00
 -1       590 1.90587E+00
 -1       591 7.09663E+00
 -1       592 5.78744E+00
 -1       593 4.67031E+00
 -1       594 1.66020E+00
 -1       595 1.95543E+00
 -1       596 9.04112E-05
 -1       597 8.24752E+00
 -1       598 4.81960E+00
 -1       599 3.12943E+00
 -1       600 1.98664E+00
 -1       601 1.25664E+00
 -1       602 7.89341E-01
 -1       603 4.91434E-01
 -1       604 3.02715E-01
 -1       605 1.88836E-01
 -1       606 1.18602E-01
 -1       607 7.75777E-02
 -1       608 5.22362E-02
 -1       609 3.46580E-02
 -1       610 2.25717E-02
 -1       611 1.43332E-02
 -1       612 8.77202E-03
 -1       613 5.43182E-03
 -1       614 3.97381E-03
 -1       615 3.47992E-03
 -1       616 2.95637E-03
 -1       617 2.45492E-03
 -1       618 2.00091E-03
 -1       619 1.66510E-03
 -1       620 1.39538E-03
 -1       621 1.14617E-03
 -1       622 9.24931E-04
 -1       623 7.49818E-04
 -1       624 6.08521E-04
 -1       625 4.84623E-04
 -1       626 3.78848E-04
 -1       627 2.94051E-04
 -1       628 2.28331E-04
 -1       629 1.73617E-04
 -1       630 1.29113E-04
 -1       631 9.33717E-05
 -1       632 6.50425E-05
 -1       633 1.51567E+00
 -1       634 1.51334E+00
 -1       635 1.64863E+00
 -1       636 1.29789E+00
 -1       637 1.10556E+00
 -1       638 9.11407E-01
 -1       639 7.43374E-01
 -1       640 5.66401E-01
 -1       641 4.03809E-01
 -1       642 2.69177E-01
 -1       643 1.66624E-01
 -1       644 9.46723E-02
 -1       645 6.01965E-02
 -1       646 3.83596E-02
 -1       647 2.80275E-02
 -1       648 2.29308E-02
 -1       649 1.90894E-02
 -1       650 1.50013E-02
 -1       651 1.12549E-02
 -1       652 8.32483E-03
 -1       653 5.79599E-03
 -1       654 3.75285E-03
 -1       655 2.33539E-03
 -1       656 1.79213E-03
 -1       657 1.80103E-03
 -1       658 1.69061E-03
 -1       659 1.51225E-03
 -1       660 1.30356E-03
 -1       661 1.12106E-03
 -1       662 9.82795E-04
 -1       663 8.34536E-04
 -1       664 6.92931E-04
 -1       665 5.69631E-04
 -1       666 4.57676E-04
 -1       667 3.59825E-04
 -1       668 2.76794E-04
 -1       669 2.13954E-04
 -1       670 1.62629E-04
 -1       671 1.25756E-04
 -1       672 1.15247E-04
 -1       673 6.65315E-05
 -1       674 6.47894E-05
 -1       675 1.41900E+00
 -1       676 6.61788E-05
 -1       677 6.61788E-05
 -1       678 6.34008E-05
 -1       679 5.00752E-05
 -1       680 5.07877E-05
 -1       681 9.17125E+00
 -1       682 3.02602E+00
 -1       683 8.08579E+00
 -1       684 1.93432E+00
 -1       685 2.52624E+00
 -1       686 1.46194E+01
 -1       687 5.48577E+00
 -1       688 1.70564E+01
 -1       689 6.65315E-05
 -1       690 1.43406E+00
 -1       691 4.73022E+00
 -1       692 8.85257E-05
 -1       693 1.95543E+00
 -1       694 5.00776E+00
 -1       695 9.77475E+00
 -1       696 3.01481E+00
 -1       697 1.11175E+01
 -1       698 1.95543E+00
 -1       699 2.71614E+00
 -1       700 5.34182E+00
 -1       701 3.81625E+00
 -1       702 1.46194E+01
 -1       703 4.80743E+00
 -1       704 7.87432E+00
 -1       705 1.08040E+01
 -1       706 1.59914E+00
 -1       707 1.56375E+00
 -1       708 3.71308E+00
 -1       709 2.25851E+00
 -1       710 1.43059E+00
 -1       711 9.25618E-01
 -1       712 6.00872E-01
 -1       713 3.89243E-01
 -1       714 2.50667E-01
 -1       715 1.60226E-01
 -1       716 1.06160E-01
 -1       717 6.94412E-02
 -1       718 4.47689E-02
 -1       719 2.83425E-02
 -1       720 1.75012E-02
 -1       721 1.16232E-02
 -1       722 7.45262E-03
 -1       723 4.54217E-03
 -1       724 2.65393E-03
 -1       725 2.17744E-03
 -1       726 2.03480E-03
 -1       727 1.81431E-03
 -1       728 1.56548E-03
 -1       729 1.31721E-03
 -1       730 1.12769E-03
 -1       731 9.69166E-04
 -1       732 8.12551E-04
 -1       733 6.66944E-04
 -1       734 5.37006E-04
 -1       735 4.24519E-04
 -1       736 3.29465E-04
 -1       737 2.50775E-04
 -1       738 1.87412E-04
 -1       739 1.39140E-04
 -1       740 1.02197E-04
 -1       741 6.78488E-05
 -1       742 8.43111E-05
 -1       743 8.45878E-05
 -1       744 1.36546E+00
 -1       745 1.48229E+00
 -1       746 1.04250E+00
 -1       747 1.16749E+00
 -1       748 7.04217E-01
 -1       749 5.16441E-01
 -1       750 3.53476E-01
 -1       751 2.24916E-01
 -1       752 1.42084E-01
 -1       753 9.46723E-02
 -1       754 6.01965E-02
 -1       755 3.94110E-02
 -1       756 2.95166E-02
 -1       757 2.29308E-02
 -1       758 1.76951E-02
 -1       759 1.30745E-02
 -1       760 9.26188E-03
 -1       761 6.40625E-03
 -1       762 4.29593E-03
 -1       763 2.70320E-03
 -1       764 1.53930E-03
 -1       765 9.43505E-04
 -1       766 1.12980E-03
 -1       767 1.18789E-03
 -1       768 1.14736E-03
 -1       769 1.04796E-03
 -1       770 9.18769E-04
 -1       771 8.17960E-04
 -1       772 7.14019E-04
 -1       773 6.04161E-04
 -1       774 4.97902E-04
 -1       775 4.00751E-04
 -1       776 3.15415E-04
 -1       777 2.42723E-04
 -1       778 1.82298E-04
 -1       779 1.34136E-04
 -1       780 2.33346E+00
 -1       781 1.67763E+00
 -1       782 8.45878E-05
 -1       783 7.96224E-05
 -1       784 8.43111E-05
 -1       785 8.92155E-01
 -1       786 2.93073E+00
 -1       787 1.15247E-04
 -1       788 7.93828E-05
 -1       789 8.26529E-05
 -1       790 3.62967E+00
 -1       791 2.90092E+00
 -1       792 9.65815E+00
 -1       793 6.05195E+00
 -1       794 3.86254E+00
 -1       795 1.28989E+00
 -1       796 1.25313E+00
 -1       797 1.25756E-04
 -1       798 2.41220E+00
 -1       799 8.95629E-05
 -1       800 3.24266E+00
 -1       801 2.33346E+00
 -1       802 7.65802E+00
 -1       803 1.52812E+00
 -1       804 2.30686E+00
 -1       805 1.56985E+00
 -1       806 1.00413E+00
 -1       807 6.32420E-01
 -1       808 3.93434E-01
 -1       809 2.63522E-01
 -1       810 1.81718E-01
 -1       811 1.23713E-01
 -1       812 8.31570E-02
 -1       813 5.51283E-02
 -1       814 3.63789E-02
 -1       815 2.40963E-02
 -1       816 1.57548E-02
 -1       817 1.00059E-02
 -1       818 6.09532E-03
 -1       819 3.47573E-03
 -1       820 2.05075E-03
 -1       821 1.30304E-03
 -1       822 1.40068E-03
 -1       823 1.37701E-03
 -1       824 1.27229E-03
 -1       825 1.12769E-03
 -1       826 9.69166E-04
 -1       827 8.36637E-04
 -1       828 7.19872E-04
 -1       829 6.03773E-04
 -1       830 4.95337E-04
 -1       831 3.98225E-04
 -1       832 3.13919E-04
 -1       833 2.42620E-04
 -1       834 1.83216E-04
 -1       835 1.37516E-04
 -1       836 1.49887E-04
 -1       837 1.18415E+00
 -1       838 4.28689E-01
 -1       839 5.92295E-01
 -1       840 2.16670E-01
 -1       841 1.42084E-01
 -1       842 8.76511E-02
 -1       843 5.72060E-02
 -1       844 4.10182E-02
 -1       845 3.03691E-02
 -1       846 2.17764E-02
 -1       847 1.56054E-02
 -1       848 1.16313E-02
 -1       849 8.73175E-03
 -1       850 6.14369E-03
 -1       851 4.06673E-03
 -1       852 2.56720E-03
 -1       853 1.45132E-03
 -1       854 9.31669E-04
 -1       855 7.29804E-04
 -1       856 8.64267E-04
 -1       857 8.91830E-04
 -1       858 8.51207E-04
 -1       859 7.71235E-04
 -1       860 6.89138E-04
 -1       861 6.09734E-04
 -1       862 5.21987E-04
 -1       863 4.34828E-04
 -1       864 3.53614E-04
 -1       865 2.81187E-04
 -1       866 2.18605E-04
 -1       867 1.65322E-04
 -1       868 2.49842E+00
 -1       869 1.14957E-04
 -1       870 1.49887E-04
 -1       871 4.32396E+00
 -1       872 3.11391E-01
 -1       873 2.47453E+00
 -1       874 2.33346E+00
 -1       875 6.08420E+00
 -1       876 4.40845E+00
 -1       877 6.06597E+00
 -1       878 1.48685E-04
 -1       879 2.86539E+00
 -1       880 1.44669E+00
 -1       881 1.02507E+00
 -1       882 6.04303E+00
 -1       883 1.29952E+00
 -1       884 1.91845E+00
 -1       885 1.14957E-04
 -1       886 1.36053E-04
 -1       887 8.13544E-01
 -1       888 1.52495E+00
 -1       889 1.59828E-04
 -1       890 2.77733E+00
 -1       891 2.35218E+00
 -1       892 1.25818E+00
 -1       893 3.22916E+00
 -1       894 1.59487E-04
 -1       895 6.72346E-01
 -1       896 4.61346E-01
 -1       897 3.08298E-01
 -1       898 2.02139E-01
 -1       899 1.30593E-01
 -1       900 8.31786E-02
 -1       901 5.52992E-02
 -1       902 3.92105E-02
 -1       903 2.71896E-02
 -1       904 1.85833E-02
 -1       905 1.26743E-02
 -1       906 8.43753E-03
 -1       907 5.43007E-03
 -1       908 3.31748E-03
 -1       909 1.86609E-03
 -1       910 8.95295E-04
 -1       911 8.54757E-04
 -1       912 9.45344E-04
 -1       913 9.36774E-04
 -1       914 8.70781E-04
 -1       915 7.75203E-04
 -1       916 6.68183E-04
 -1       917 5.77643E-04
 -1       918 4.92446E-04
 -1       919 4.09443E-04
 -1       920 3.32886E-04
 -1       921 2.64863E-04
 -1       922 2.06184E-04
 -1       923 6.06597E+00
 -1       924 1.27173E-01
 -1       925 1.84477E-01
 -1       926 6.09828E-02
 -1       927 4.14057E-02
 -1       928 2.79291E-02
 -1       929 2.03833E-02
 -1       930 1.56054E-02
 -1       931 1.15850E-02
 -1       932 8.22854E-03
 -1       933 5.56295E-03
 -1       934 3.60268E-03
 -1       935 2.27295E-03
 -1       936 1.48638E-03
 -1       937 9.31669E-04
 -1       938 5.86528E-04
 -1       939 6.63725E-04
 -1       940 7.11708E-04
 -1       941 6.95469E-04
 -1       942 6.40877E-04
 -1       943 5.70235E-04
 -1       944 5.04865E-04
 -1       945 4.32827E-04
 -1       946 3.61301E-04
 -1       947 2.94560E-04
 -1       948 2.34942E-04
 -1       949 1.84953E-04
 -1       950 3.84788E+00
 -1       951 1.66039E+00
 -1       952 2.54750E-04
 -1       953 8.87350E-02
 -1       954 5.92295E-01
 -1       955 1.14329E+00
 -1       956 2.06787E+00
 -1       957 1.81171E+00
 -1       958 1.59828E-04
 -1       959 1.91845E+00
 -1       960 3.48315E+00
 -1       961 2.20755E+00
 -1       962 1.24297E+00
 -1       963 7.80486E-01
 -1       964 3.21366E+00
 -1       965 1.29952E+00
 -1       966 2.90436E-01
 -1       967 2.54750E-04
 -1       968 4.28689E-01
 -1       969 1.62074E+00
 -1       970 1.28951E-04
 -1       971 1.81171E+00
 -1       972 1.33244E-01
 -1       973 2.90154E+00
 -1       974 3.46656E-01
 -1       975 2.06339E-01
 -1       976 1.45203E-01
 -1       977 9.95524E-02
 -1       978 6.75806E-02
 -1       979 4.52262E-02
 -1       980 2.98462E-02
 -1       981 1.94389E-02
 -1       982 1.31413E-02
 -1       983 9.26374E-03
 -1       984 6.43163E-03
 -1       985 4.31281E-03
 -1       986 2.76559E-03
 -1       987 1.65802E-03
 -1       988 8.89018E-04
 -1       989 4.99173E-04
 -1       990 6.35844E-04
 -1       991 6.75376E-04
 -1       992 6.54896E-04
 -1       993 6.00107E-04
 -1       994 5.28403E-04
 -1       995 4.51194E-04
 -1       996 3.80819E-04
 -1       997 3.19148E-04
 -1       998 2.61133E-04
 -1       999 2.43845E-04
 -1      1000 2.79291E-02
 -1      1001 2.03856E-01
 -1      1002 5.60281E-01
 -1      1003 1.22122E-04
 -1      1004 3.91102E-02
 -1      1005 5.70330E-02
 -1      1006 2.03833E-02
 -1      1007 1.45012E-02
 -1      1008 1.00379E-02
 -1      1009 6.72572E-03
 -1      1010 4.56244E-03
 -1      1011 3.28734E-03
 -1      1012 2.27295E-03
 -1      1013 1.48638E-03
 -1      1014 9.00721E-04
 -1      1015 5.84023E-04
 -1      1016 5.35011E-04
 -1      1017 5.74834E-04
 -1      1018 5.62653E-04
 -1      1019 5.19475E-04
 -1      1020 4.60135E-04
 -1      1021 3.97477E-04
 -1      1022 3.38543E-04
 -1      1023 2.81511E-04
 -1      1024 2.28530E-04
 -1      1025 1.92070E-04
 -1      1026 8.59568E-02
 -1      1027 1.48848E+00
 -1      1028 8.93361E-01
 -1      1029 2.08464E-04
 -1      1030 2.13466E+00
 -1      1031 1.00631E+00
 -1      1032 2.57002E+00
 -1      1033 1.81171E+00
 -1      1034 2.38212E+00
 -1      1035 2.90154E+00
 -1      1036 1.24297E+00
 -1      1037 1.24297E+00
 -1      1038 2.94448E-01
 -1      1039 1.83200E+00
 -1      1040 2.54750E-04
 -1      1041 5.51466E-01
 -1      1042 7.85925E-01
 -1      1043 1.86947E+00
 -1      1044 2.59848E-01
 -1      1045 1.25792E-01
 -1      1046 8.98992E-02
 -1      1047 5.04066E-02
 -1      1048 3.28490E-02
 -1      1049 2.31651E-02
 -1      1050 1.60680E-02
 -1      1051 1.14916E-02
 -1      1052 9.20951E-03
 -1      1053 6.95585E-03
 -1      1054 4.99562E-03
 -1      1055 3.41326E-03
 -1      1056 2.20199E-03
 -1      1057 1.31443E-03
 -1      1058 6.90214E-04
 -1      1059 4.20609E-04
 -1      1060 4.74632E-04
 -1      1061 4.75724E-04
 -1      1062 4.45163E-04
 -1      1063 3.97682E-04
 -1      1064 3.62095E-04
 -1      1065 3.20564E-04
 -1      1066 2.67621E-04
 -1      1067 2.31485E-04
 -1      1068 3.22322E-01
 -1      1069 1.92287E-02
 -1      1070 5.60281E-01
 -1      1071 2.17597E+00
 -1      1072 7.90380E-02
 -1      1073 1.27559E-02
 -1      1074 9.29021E-03
 -1      1075 6.95585E-03
 -1      1076 4.99562E-03
 -1      1077 3.41326E-03
 -1      1078 2.20199E-03
 -1      1079 1.31443E-03
 -1      1080 7.61509E-04
 -1      1081 5.05148E-04
 -1      1082 4.38929E-04
 -1      1083 4.57622E-04
 -1      1084 4.40367E-04
 -1      1085 4.02296E-04
 -1      1086 3.62095E-04
 -1      1087 3.20564E-04
 -1      1088 2.71978E-04
 -1      1089 2.28437E-04
 -1      1090 2.08464E-04
 -1      1091 1.25792E-01
 -1      1092 3.14221E-02
 -1      1093 4.02282E-01
 -1      1094 8.99792E-01
 -1      1095 4.80423E-01
 -1      1096 1.31383E+00
 -1      1097 1.03085E-01
 -1      1098 5.04066E-02
 -1      1099 4.16305E-01
 -1      1100 1.13614E+00
 -1      1101 2.08464E-04
 -1      1102 6.54862E-01
 -1      1103 4.80423E-01
 -1      1104 1.52468E+00
 -1      1105 1.48848E+00
 -1      1106 1.57220E-01
 -1      1107 3.88075E-01
 -1      1108 1.96525E-04
 -1      1109 9.05096E-01
 -1      1110 7.51335E-01
 -1      1111 4.80423E-01
 -1      1112 1.60439E+00
 -1      1113 1.89684E-04
 -1      1114 1.70162E-04
 -1      1115 5.31802E-01
 -1      1116 9.05096E-01
 -1      1117 1.22323E+01
 -1      1118 1.23474E+01
 -1      1119 1.24625E+01
 -1      1120 1.19042E+01
 -1      1121 9.52986E+00
 -1      1122 7.44712E+00
 -1      1123 6.87938E+00
 -1      1124 5.27754E+00
 -1      1125 3.18284E+00
 -1      1126 2.02322E+00
 -1      1127 1.62022E+00
 -1      1128 1.48614E+00
 -1      1129 1.29430E+00
 -1      1130 1.13195E+00
 -1      1131 1.80712E+00
 -1      1132 5.97609E+00
 -1      1133 1.25522E+01
 -1      1134 1.22323E+01
 -1      1135 8.65479E+00
 -1      1136 5.05962E+00
 -1      1137 6.63861E+00
 -1      1138 1.20567E+01
 -1      1139 1.61724E+01
 -1      1140 1.64667E+01
 -1      1141 1.40188E+01
 -1      1142 8.26738E+00
 -1      1143 5.18774E+00
 -1      1144 5.41156E+00
 -1      1145 5.04418E+00
 -1      1146 4.09125E+00
 -1      1147 2.99954E+00
 -1      1148 2.14188E+00
 -1      1149 1.53046E+00
 -1      1150 1.06582E+00
 -1      1151 7.14227E-01
 -1      1152 4.67577E-01
 -1      1153 3.02130E-01
 -1      1154 1.93929E-01
 -1      1155 1.24075E-01
 -1      1156 7.98222E-02
 -1      1157 5.42193E-02
 -1      1158 3.93171E-02
 -1      1159 2.86178E-02
 -1      1160 2.08928E-02
 -1      1161 1.52746E-02
 -1      1162 1.11578E-02
 -1      1163 8.12160E-03
 -1      1164 6.11462E-03
 -1      1165 4.88767E-03
 -1      1166 3.94181E-03
 -1      1167 3.14196E-03
 -1      1168 2.47402E-03
 -1      1169 1.93823E-03
 -1      1170 1.52147E-03
 -1      1171 1.18570E-03
 -1      1172 9.10027E-04
 -1      1173 6.87215E-04
 -1      1174 5.22487E-04
 -1      1175 4.12129E-04
 -1      1176 3.29115E-04
 -1      1177 2.58879E-04
 -1      1178 2.00620E-04
 -1      1179 1.52919E-04
 -1      1180 1.13883E-04
 -1      1181 8.60948E-05
 -1      1182 6.76537E-05
 -1      1183 4.62111E-05
 -1      1184 2.17138E-05
 -1      1185 1.57017E+01
 -1      1186 1.04247E+01
 -1      1187 4.93335E+00
 -1      1188 4.45765E+00
 -1      1189 3.95429E+00
 -1      1190 3.62889E+00
 -1      1191 3.48167E+00
 -1      1192 3.25183E+00
 -1      1193 2.83827E+00
 -1      1194 2.30531E+00
 -1      1195 1.77464E+00
 -1      1196 1.30696E+00
 -1      1197 9.00412E-01
 -1      1198 5.84684E-01
 -1      1199 3.76216E-01
 -1      1200 2.40024E-01
 -1      1201 1.40286E-01
 -1      1202 8.81794E-02
 -1      1203 6.82937E-02
 -1      1204 5.67524E-02
 -1      1205 4.78673E-02
 -1      1206 3.66074E-02
 -1      1207 2.65539E-02
 -1      1208 2.02106E-02
 -1      1209 1.61499E-02
 -1      1210 1.22768E-02
 -1      1211 8.80632E-03
 -1      1212 6.69306E-03
 -1      1213 5.72578E-03
 -1      1214 4.80512E-03
 -1      1215 3.89226E-03
 -1      1216 3.26805E-03
 -1      1217 2.88704E-03
 -1      1218 2.47537E-03
 -1      1219 2.05824E-03
 -1      1220 1.66940E-03
 -1      1221 1.34202E-03
 -1      1222 1.07271E-03
 -1      1223 8.39588E-04
 -1      1224 6.43888E-04
 -1      1225 4.83682E-04
 -1      1226 3.55296E-04
 -1      1227 2.61454E-04
 -1      1228 1.98860E-04
 -1      1229 1.52324E-04
 -1      1230 1.13915E-04
 -1      1231 8.15074E-05
 -1      1232 5.84649E-05
 -1      1233 4.01209E-05
 -1      1234 1.94354E-05
 -1      1235 1.05658E-05
 -1      1236 1.23432E-05
 -1      1237 1.26175E-05
 -1      1238 1.02091E-05
 -1      1239 6.36782E-06
 -1      1240 7.13338E-06
 -1      1241 1.07401E-05
 -1      1242 1.25664E-05
 -1      1243 1.29845E-05
 -1      1244 1.25326E-05
 -1      1245 1.06046E-05
 -1      1246 7.02521E-06
 -1      1247 6.38407E-06
 -1      1248 1.00245E-05
 -1      1249 1.22030E-05
 -1      1250 1.09197E-05
 -1      1251 1.00131E-05
 -1      1252 2.55108E+01
 -1      1253 3.31900E+01
 -1      1254 4.08692E+01
 -1      1255 2.84135E+01
 -1      1256 1.37819E+01
 -1      1257 1.16061E+01
 -1      1258 1.16011E+01
 -1      1259 1.20183E+01
 -1      1260 1.24406E+01
 -1      1261 1.20507E+01
 -1      1262 1.71153E+01
 -1      1263 3.55533E+01
 -1      1264 4.85368E+01
 -1      1265 3.83967E+01
 -1      1266 2.82567E+01
 -1      1267 2.89086E+01
 -1      1268 3.92046E+01
 -1      1269 4.88487E+01
 -1      1270 3.55211E+01
 -1      1271 1.77005E+01
 -1      1272 1.35592E+01
 -1      1273 1.41594E+01
 -1      1274 1.44079E+01
 -1      1275 1.43613E+01
 -1      1276 2.10191E+01
 -1      1277 2.79241E+01
 -1      1278 2.76810E+01
 -1      1279 2.71488E+01
 -1      1280 2.62855E+01
 -1      1281 1.22323E+01
 -1      1282 1.20464E+01
 -1      1283 1.19313E+01
 -1      1284 1.40905E+01
 -1      1285 1.40905E+01
 -1      1286 1.36744E+01
 -1      1287 1.35322E+01
 -1      1288 1.40905E+01
 -1      1289 1.57185E+01
 -1      1290 9.35274E+00
 -1      1291 1.11688E+01
 -1      1292 1.33551E+01
 -1      1293 7.90363E+00
 -1      1294 8.17031E+00
 -1      1295 9.80926E+00
 -1      1296 7.60257E+00
 -1      1297 7.90363E+00
 -1      1298 8.62683E+00
 -1      1299 5.00454E+00
 -1      1300 6.30532E+00
 -1      1301 7.32957E+00
 -1      1302 3.04087E+00
 -1      1303 3.83480E+00
 -1      1304 4.86258E+00
 -1      1305 1.94457E+00
 -1      1306 2.31025E+00
 -1      1307 2.96222E+00
 -1      1308 1.62022E+00
 -1      1309 1.65753E+00
 -1      1310 1.94457E+00
 -1      1311 1.48614E+00
 -1      1312 1.58290E+00
 -1      1313 1.62022E+00
 -1      1314 1.29430E+00
 -1      1315 1.38938E+00
 -1      1316 1.48614E+00
 -1      1317 1.13195E+00
 -1      1318 1.19921E+00
 -1      1319 1.29430E+00
 -1      1320 1.87502E+00
 -1      1321 1.13259E+00
 -1      1322 1.19985E+00
 -1      1323 6.37784E+00
 -1      1324 2.95130E+00
 -1      1325 2.27677E+00
 -1      1326 1.57017E+01
 -1      1327 1.25522E+01
 -1      1328 9.52737E+00
 -1      1329 1.57017E+01
 -1      1330 1.12719E+01
 -1      1331 7.69445E+00
 -1      1332 8.51702E+00
 -1      1333 8.49935E+00
 -1      1334 1.11342E+01
 -1      1335 6.12677E+00
 -1      1336 7.72343E+00
 -1      1337 9.58416E+00
 -1      1338 8.49507E+00
 -1      1339 1.23164E+01
 -1      1340 7.98322E+00
 -1      1341 1.65627E+01
 -1      1342 1.65627E+01
 -1      1343 1.40188E+01
 -1      1344 1.15708E+01
 -1      1345 1.41147E+01
 -1      1346 8.69495E+00
 -1      1347 5.39149E+00
 -1      1348 8.69495E+00
 -1      1349 5.57621E+00
 -1      1350 5.80003E+00
 -1      1351 6.00378E+00
 -1      1352 5.43587E+00
 -1      1353 5.43587E+00
 -1      1354 5.82435E+00
 -1      1355 5.07686E+00
 -1      1356 4.70948E+00
 -1      1357 5.10118E+00
 -1      1358 4.43488E+00
 -1      1359 3.84933E+00
 -1      1360 4.46756E+00
 -1      1361 3.44047E+00
 -1      1362 2.93431E+00
 -1      1363 3.78410E+00
 -1      1364 2.47048E+00
 -1      1365 2.11898E+00
 -1      1366 2.91141E+00
 -1      1367 1.72081E+00
 -1      1368 1.46089E+00
 -1      1369 2.04941E+00
 -1      1370 1.16537E+00
 -1      1371 9.60655E-01
 -1      1372 1.35573E+00
 -1      1373 7.59535E-01
 -1      1374 6.12654E-01
 -1      1375 8.59082E-01
 -1      1376 4.86459E-01
 -1      1377 3.86690E-01
 -1      1378 5.31767E-01
 -1      1379 3.17800E-01
 -1      1380 2.52122E-01
 -1      1381 3.36681E-01
 -1      1382 2.06177E-01
 -1      1383 1.63653E-01
 -1      1384 2.21846E-01
 -1      1385 1.33345E-01
 -1      1386 1.06014E-01
 -1      1387 1.45593E-01
 -1      1388 8.61044E-02
 -1      1389 6.91828E-02
 -1      1390 9.53750E-02
 -1      1391 5.61044E-02
 -1      1392 4.74231E-02
 -1      1393 6.23866E-02
 -1      1394 3.93171E-02
 -1      1395 3.30962E-02
 -1      1396 4.12022E-02
 -1      1397 2.86178E-02
 -1      1398 2.41394E-02
 -1      1399 2.86178E-02
 -1      1400 2.08928E-02
 -1      1401 1.76463E-02
 -1      1402 2.08928E-02
 -1      1403 1.54247E-02
 -1      1404 1.30530E-02
 -1      1405 1.54247E-02
 -1      1406 1.14295E-02
 -1      1407 9.68445E-03
 -1      1408 1.15797E-02
 -1      1409 8.44199E-03
 -1      1410 7.15087E-03
 -1      1411 8.71372E-03
 -1      1412 6.19996E-03
 -1      1413 5.48411E-03
 -1      1414 6.52036E-03
 -1      1415 4.88767E-03
 -1      1416 4.37656E-03
 -1      1417 4.97300E-03
 -1      1418 3.94181E-03
 -1      1419 3.50706E-03
 -1      1420 3.94181E-03
 -1      1421 3.14196E-03
 -1      1422 2.77685E-03
 -1      1423 3.14196E-03
 -1      1424 2.50030E-03
 -1      1425 2.19747E-03
 -1      1426 2.50030E-03
 -1      1427 1.98741E-03
 -1      1428 1.75444E-03
 -1      1429 2.01368E-03
 -1      1430 1.58148E-03
 -1      1431 1.39769E-03
 -1      1432 1.63066E-03
 -1      1433 1.24860E-03
 -1      1434 1.09661E-03
 -1      1435 1.30860E-03
 -1      1436 9.70850E-04
 -1      1437 8.47165E-04
 -1      1438 1.03375E-03
 -1      1439 7.43056E-04
 -1      1440 6.43929E-04
 -1      1441 8.03879E-04
 -1      1442 5.59183E-04
 -1      1443 4.93581E-04
 -1      1444 6.15023E-04
 -1      1445 4.25660E-04
 -1      1446 3.80904E-04
 -1      1447 4.62356E-04
 -1      1448 3.29115E-04
 -1      1449 2.90857E-04
 -1      1450 3.42646E-04
 -1      1451 2.58879E-04
 -1      1452 2.26900E-04
 -1      1453 2.58879E-04
 -1      1454 2.00922E-04
 -1      1455 1.74642E-04
 -1      1456 2.00922E-04
 -1      1457 1.54718E-04
 -1      1458 1.33298E-04
 -1      1459 1.55020E-04
 -1      1460 1.16796E-04
 -1      1461 9.91799E-05
 -1      1462 1.18595E-04
 -1      1463 8.60948E-05
 -1      1464 7.59230E-05
 -1      1465 8.90081E-05
 -1      1466 6.76537E-05
 -1      1467 5.93844E-05
 -1      1468 6.76537E-05
 -1      1469 4.71688E-05
 -1      1470 3.39955E-05
 -1      1471 4.71688E-05
 -1      1472 2.44408E-05
 -1      1473 1.31168E-05
 -1      1474 1.27401E-05
 -1      1475 2.53985E-05
 -1      1476 5.14765E+00
 -1      1477 1.04247E+01
 -1      1478 1.04247E+01
 -1      1479 4.71904E+00
 -1      1480 4.93335E+00
 -1      1481 4.93335E+00
 -1      1482 4.19626E+00
 -1      1483 4.45765E+00
 -1      1484 4.45765E+00
 -1      1485 3.71232E+00
 -1      1486 3.95429E+00
 -1      1487 3.95429E+00
 -1      1488 3.54547E+00
 -1      1489 3.62889E+00
 -1      1490 3.62889E+00
 -1      1491 3.41787E+00
 -1      1492 3.48167E+00
 -1      1493 3.48167E+00
 -1      1494 3.08579E+00
 -1      1495 3.25183E+00
 -1      1496 3.25183E+00
 -1      1497 2.59076E+00
 -1      1498 2.83827E+00
 -1      1499 2.83827E+00
 -1      1500 2.01985E+00
 -1      1501 2.30531E+00
 -1      1502 2.30531E+00
 -1      1503 1.52944E+00
 -1      1504 1.77464E+00
 -1      1505 1.77464E+00
 -1      1506 1.10599E+00
 -1      1507 1.32847E+00
 -1      1508 1.32847E+00
 -1      1509 7.50268E-01
 -1      1510 9.34346E-01
 -1      1511 9.55850E-01
 -1      1512 4.80579E-01
 -1      1513 6.12228E-01
 -1      1514 6.46163E-01
 -1      1515 3.00501E-01
 -1      1516 3.77321E-01
 -1      1517 4.04865E-01
 -1      1518 1.80651E-01
 -1      1519 2.40024E-01
 -1      1520 2.41129E-01
 -1      1521 9.99208E-02
 -1      1522 1.40286E-01
 -1      1523 1.40286E-01
 -1      1524 7.64379E-02
 -1      1525 8.81794E-02
 -1      1526 8.81794E-02
 -1      1527 6.01495E-02
 -1      1528 6.82937E-02
 -1      1529 6.82937E-02
 -1      1530 5.33553E-02
 -1      1531 5.67524E-02
 -1      1532 5.67524E-02
 -1      1533 4.23794E-02
 -1      1534 4.78673E-02
 -1      1535 4.78673E-02
 -1      1536 3.08354E-02
 -1      1537 3.66074E-02
 -1      1538 3.66074E-02
 -1      1539 2.26979E-02
 -1      1540 2.69794E-02
 -1      1541 2.69794E-02
 -1      1542 1.81488E-02
 -1      1543 2.02106E-02
 -1      1544 2.06361E-02
 -1      1545 1.41510E-02
 -1      1546 1.61499E-02
 -1      1547 1.61499E-02
 -1      1548 1.04026E-02
 -1      1549 1.22768E-02
 -1      1550 1.22768E-02
 -1      1551 7.23818E-03
 -1      1552 8.83445E-03
 -1      1553 8.83445E-03
 -1      1554 6.17608E-03
 -1      1555 6.69306E-03
 -1      1556 6.72119E-03
 -1      1557 5.27549E-03
 -1      1558 5.72578E-03
 -1      1559 5.72578E-03
 -1      1560 4.34210E-03
 -1      1561 4.81247E-03
 -1      1562 4.81247E-03
 -1      1563 3.46362E-03
 -1      1564 3.90611E-03
 -1      1565 3.91347E-03
 -1      1566 3.08634E-03
 -1      1567 3.26805E-03
 -1      1568 3.28191E-03
 -1      1569 2.68774E-03
 -1      1570 2.88704E-03
 -1      1571 2.88704E-03
 -1      1572 2.26299E-03
 -1      1573 2.47537E-03
 -1      1574 2.47537E-03
 -1      1575 1.85349E-03
 -1      1576 2.05824E-03
 -1      1577 2.05824E-03
 -1      1578 1.48531E-03
 -1      1579 1.66940E-03
 -1      1580 1.66940E-03
 -1      1581 1.19873E-03
 -1      1582 1.34202E-03
 -1      1583 1.34202E-03
 -1      1584 9.47657E-04
 -1      1585 1.07367E-03
 -1      1586 1.07367E-03
 -1      1587 7.41021E-04
 -1      1588 8.48131E-04
 -1      1589 8.49090E-04
 -1      1590 5.67780E-04
 -1      1591 6.56369E-04
 -1      1592 6.64913E-04
 -1      1593 4.26050E-04
 -1      1594 4.97666E-04
 -1      1595 5.10148E-04
 -1      1596 3.12479E-04
 -1      1597 3.69250E-04
 -1      1598 3.83234E-04
 -1      1599 2.30255E-04
 -1      1600 2.67327E-04
 -1      1601 2.81280E-04
 -1      1602 1.73338E-04
 -1      1603 1.98860E-04
 -1      1604 2.04733E-04
 -1      1605 1.31311E-04
 -1      1606 1.52324E-04
 -1      1607 1.52324E-04
 -1      1608 9.65188E-05
 -1      1609 1.13915E-04
 -1      1610 1.13915E-04
 -1      1611 6.66370E-05
 -1      1612 8.16484E-05
 -1      1613 8.16484E-05
 -1      1614 5.04338E-05
 -1      1615 5.84649E-05
 -1      1616 5.86059E-05
 -1      1617 2.98080E-05
 -1      1618 4.01209E-05
 -1      1619 4.01209E-05
 -1      1620 2.09384E-05
 -1      1621 1.71142E-05
 -1      1622 1.68398E-05
 -1      1623 1.71142E-05
 -1      1624 1.71142E-05
 -1      1625 2.16108E-05
 -1      1626 1.41659E-05
 -1      1627 1.65743E-05
 -1      1628 2.10710E-05
 -1      1629 7.67492E-06
 -1      1630 9.10777E-06
 -1      1631 1.54730E-05
 -1      1632 1.34252E-05
 -1      1633 1.12268E-05
 -1      1634 1.39667E-05
 -1      1635 1.76987E-05
 -1      1636 1.62905E-05
 -1      1637 2.03839E-05
 -1      1638 1.92932E-05
 -1      1639 1.88751E-05
 -1      1640 2.44255E-05
 -1      1641 1.92932E-05
 -1      1642 1.92932E-05
 -1      1643 2.56019E-05
 -1      1644 1.88380E-05
 -1      1645 1.92898E-05
 -1      1646 2.55985E-05
 -1      1647 1.60934E-05
 -1      1648 1.75697E-05
 -1      1649 2.43268E-05
 -1      1650 1.11927E-05
 -1      1651 1.32958E-05
 -1      1652 2.02609E-05
 -1      1653 9.44564E-06
 -1      1654 7.98366E-06
 -1      1655 1.42543E-05
 -1      1656 1.62160E-05
 -1      1657 1.40375E-05
 -1      1658 1.56371E-05
 -1      1659 1.77431E-05
 -1      1660 1.77431E-05
 -1      1661 2.17561E-05
 -1      1662 1.70710E-05
 -1      1663 1.83543E-05
 -1      1664 2.38944E-05
 -1      1665 2.01747E-05
 -1      1666 2.79027E+01
 -1      1667 2.79027E+01
 -1      1668 3.82945E+01
 -1      1669 3.06153E+01
 -1      1670 4.08692E+01
 -1      1671 4.08692E+01
 -1      1672 1.64455E+01
 -1      1673 2.89013E+01
 -1      1674 1.13054E+01
 -1      1675 1.34812E+01
 -1      1676 1.16061E+01
 -1      1677 1.16061E+01
 -1      1678 1.15961E+01
 -1      1679 1.16011E+01
 -1      1680 1.18436E+01
 -1      1681 1.14213E+01
 -1      1682 1.24406E+01
 -1      1683 1.24406E+01
 -1      1684 1.13125E+01
 -1      1685 1.17024E+01
 -1      1686 1.71153E+01
 -1      1687 1.16608E+01
 -1      1688 3.63114E+01
 -1      1689 2.33279E+01
 -1      1690 4.85368E+01
 -1      1691 4.85368E+01
 -1      1692 3.44019E+01
 -1      1693 4.45419E+01
 -1      1694 3.55245E+01
 -1      1695 3.55245E+01
 -1      1696 3.70319E+01
 -1      1697 3.63799E+01
 -1      1698 4.44794E+01
 -1      1699 3.48353E+01
 -1      1700 4.88487E+01
 -1      1701 4.88487E+01
 -1      1702 2.27953E+01
 -1      1703 3.61229E+01
 -1      1704 1.31190E+01
 -1      1705 1.76119E+01
 -1      1706 1.43622E+01
 -1      1707 1.40105E+01
 -1      1708 1.55333E+01
 -1      1709 1.52847E+01
 -1      1710 1.55333E+01
 -1      1711 1.55333E+01
 -1      1712 1.37405E+01
 -1      1713 1.37872E+01
 -1      1714 2.10191E+01
 -1      1715 1.43146E+01
 -1      1716 2.81246E+01
 -1      1717 2.79241E+01
 -1      1718 3.06331E+01
 -1      1719 3.10767E+01
 -1      1720 3.05445E+01
 -1      1721 3.06331E+01
 -1      1722 2.79027E+01
 -1      1723 2.86774E+01
 -1      1724 1.23164E+01
 -1      1725 1.58780E+01
 -1      1726 1.61724E+01
 -1      1727 1.62683E+01
 -1      1728 2.89013E+01
 -1      1729 3.02945E+01
 -1      1730 2.09384E-05
 -1      1731 2.57094E-05
 -1      1732 3.30072E+01
 -1      1733 3.82945E+01
 -1      1734 1.39691E+01
 -1      1735 1.13054E+01
 -1      1736 1.16011E+01
 -1      1737 1.14213E+01
 -1      1738 1.18436E+01
 -1      1739 1.17024E+01
 -1      1740 1.13125E+01
 -1      1741 1.78734E+01
 -1      1742 3.63114E+01
 -1      1743 4.45419E+01
 -1      1744 4.16697E+01
 -1      1745 4.36478E+01
 -1      1746 4.23066E+01
 -1      1747 4.44794E+01
 -1      1748 3.61229E+01
 -1      1749 1.82137E+01
 -1      1750 1.39219E+01
 -1      1751 1.57360E+01
 -1      1752 1.66586E+01
 -1      1753 1.49125E+01
 -1      1754 1.37405E+01
 -1      1755 2.12196E+01
 -1      1756 3.10767E+01
 -1      1757 3.40287E+01
 -1      1758 3.21616E+01
 -1      1759 1.19313E+01
 -1      1760 1.61407E+01
 -1      1761 1.61407E+01
 -1      1762 1.60819E+01
 -1      1763 1.40377E+01
 -1      1764 1.65040E+01
 -1      1765 1.17528E+01
 -1      1766 1.29353E+01
 -1      1767 1.00008E+01
 -1      1768 1.00008E+01
 -1      1769 7.72188E+00
 -1      1770 9.01913E+00
 -1      1771 4.72612E+00
 -1      1772 5.89586E+00
 -1      1773 7.58542E+00
 -1      1774 2.47285E+00
 -1      1775 3.20347E+00
 -1      1776 4.23675E+00
 -1      1777 1.55488E+00
 -1      1778 1.84191E+00
 -1      1779 2.08316E+00
 -1      1780 1.40505E+00
 -1      1781 1.44236E+00
 -1      1782 1.33971E+00
 -1      1783 1.30099E+00
 -1      1784 1.39775E+00
 -1      1785 1.21990E+00
 -1      1786 1.15460E+00
 -1      1787 1.24969E+00
 -1      1788 1.16130E+00
 -1      1789 1.12840E+00
 -1      1790 1.12777E+00
 -1      1791 1.08316E+00
 -1      1792 2.30053E+00
 -1      1793 1.22425E+00
 -1      1794 1.15217E+00
 -1      1795 9.37285E+00
 -1      1796 3.19852E+00
 -1      1797 2.14600E+00
 -1      1798 4.09582E+00
 -1      1799 1.09709E+01
 -1      1800 3.78731E+00
 -1      1801 4.00161E+00
 -1      1802 2.94979E+00
 -1      1803 1.62683E+01
 -1      1804 1.66586E+01
 -1      1805 1.47761E+01
 -1      1806 1.24036E+01
 -1      1807 8.75285E+00
 -1      1808 9.52448E+00
 -1      1809 1.33784E+01
 -1      1810 1.09762E+01
 -1      1811 8.10034E+00
 -1      1812 8.47187E+00
 -1      1813 8.65660E+00
 -1      1814 7.40226E+00
 -1      1815 7.03811E+00
 -1      1816 9.87036E+00
 -1      1817 5.92888E+00
 -1      1818 5.56987E+00
 -1      1819 7.50680E+00
 -1      1820 5.00897E+00
 -1      1821 4.73438E+00
 -1      1822 5.83668E+00
 -1      1823 4.14844E+00
 -1      1824 3.73958E+00
 -1      1825 4.68985E+00
 -1      1826 3.18164E+00
 -1      1827 2.71781E+00
 -1      1828 3.54598E+00
 -1      1829 2.25430E+00
 -1      1830 1.85614E+00
 -1      1831 2.52453E+00
 -1      1832 1.51047E+00
 -1      1833 1.21495E+00
 -1      1834 1.71536E+00
 -1      1835 9.73909E-01
 -1      1836 7.72789E-01
 -1      1837 1.12865E+00
 -1      1838 6.11634E-01
 -1      1839 4.85439E-01
 -1      1840 7.26461E-01
 -1      1841 3.80516E-01
 -1      1842 3.11626E-01
 -1      1843 4.60383E-01
 -1      1844 2.44463E-01
 -1      1845 1.98519E-01
 -1      1846 2.88298E-01
 -1      1847 1.55998E-01
 -1      1848 1.25689E-01
 -1      1849 1.78615E-01
 -1      1850 9.89682E-02
 -1      1851 7.90583E-02
 -1      1852 1.09373E-01
 -1      1853 6.36577E-02
 -1      1854 5.05793E-02
 -1      1855 6.72510E-02
 -1      1856 4.23811E-02
 -1      1857 3.42750E-02
 -1      1858 4.36522E-02
 -1      1859 2.86004E-02
 -1      1860 2.41220E-02
 -1      1861 2.97792E-02
 -1      1862 2.04585E-02
 -1      1863 1.72120E-02
 -1      1864 2.04411E-02
 -1      1865 1.52262E-02
 -1      1866 1.30046E-02
 -1      1867 1.47919E-02
 -1      1868 1.14668E-02
 -1      1869 9.84333E-03
 -1      1870 1.12683E-02
 -1      1871 8.65400E-03
 -1      1872 7.41154E-03
 -1      1873 8.54115E-03
 -1      1874 6.58831E-03
 -1      1875 5.63739E-03
 -1      1876 6.52858E-03
 -1      1877 5.02084E-03
 -1      1878 4.42440E-03
 -1      1879 5.08879E-03
 -1      1880 3.92120E-03
 -1      1881 3.48645E-03
 -1      1882 3.96904E-03
 -1      1883 3.12719E-03
 -1      1884 2.76208E-03
 -1      1885 3.10658E-03
 -1      1886 2.50030E-03
 -1      1887 2.22375E-03
 -1      1888 2.48553E-03
 -1      1889 2.01864E-03
 -1      1890 1.80858E-03
 -1      1891 2.01864E-03
 -1      1892 1.63581E-03
 -1      1893 1.46284E-03
 -1      1894 1.64076E-03
 -1      1895 1.31357E-03
 -1      1896 1.16448E-03
 -1      1897 1.31872E-03
 -1      1898 1.05288E-03
 -1      1899 9.27118E-04
 -1      1900 1.05785E-03
 -1      1901 8.32467E-04
 -1      1902 7.28358E-04
 -1      1903 8.51597E-04
 -1      1904 6.47508E-04
 -1      1905 5.62762E-04
 -1      1906 6.76096E-04
 -1      1907 4.95165E-04
 -1      1908 4.27245E-04
 -1      1909 5.27650E-04
 -1      1910 3.71771E-04
 -1      1911 3.19982E-04
 -1      1912 4.04581E-04
 -1      1913 2.75219E-04
 -1      1914 2.43241E-04
 -1      1915 3.04344E-04
 -1      1916 2.07701E-04
 -1      1917 1.81723E-04
 -1      1918 2.24042E-04
 -1      1919 1.55020E-04
 -1      1920 1.35097E-04
 -1      1921 1.61799E-04
 -1      1922 1.18595E-04
 -1      1923 1.02093E-04
 -1      1924 1.18595E-04
 -1      1925 8.83099E-05
 -1      1926 7.52247E-05
 -1      1927 8.83099E-05
 -1      1928 6.49030E-05
 -1      1929 5.66337E-05
 -1      1930 6.42048E-05
 -1      1931 4.87202E-05
 -1      1932 3.65046E-05
 -1      1933 4.59695E-05
 -1      1934 2.97294E-05
 -1      1935 3.50004E+00
 -1      1936 3.74201E+00
 -1      1937 3.19099E+00
 -1      1938 3.27441E+00
 -1      1939 3.06213E+00
 -1      1940 3.06320E+00
 -1      1941 3.12700E+00
 -1      1942 2.77252E+00
 -1      1943 2.77199E+00
 -1      1944 2.93803E+00
 -1      1945 2.58336E+00
 -1      1946 2.34659E+00
 -1      1947 2.59410E+00
 -1      1948 2.28030E+00
 -1      1949 1.86326E+00
 -1      1950 2.14871E+00
 -1      1951 1.90454E+00
 -1      1952 1.45274E+00
 -1      1953 1.69794E+00
 -1      1954 1.54135E+00
 -1      1955 1.08372E+00
 -1      1956 1.28469E+00
 -1      1957 1.20799E+00
 -1      1958 7.81740E-01
 -1      1959 9.53388E-01
 -1      1960 9.09615E-01
 -1      1961 5.33616E-01
 -1      1962 6.71656E-01
 -1      1963 6.69194E-01
 -1      1964 3.38972E-01
 -1      1965 4.42230E-01
 -1      1966 4.67723E-01
 -1      1967 2.07715E-01
 -1      1968 2.68193E-01
 -1      1969 3.05558E-01
 -1      1970 1.16114E-01
 -1      1971 1.56479E-01
 -1      1972 1.83543E-01
 -1      1973 6.98086E-02
 -1      1974 8.15501E-02
 -1      1975 9.77433E-02
 -1      1976 4.89278E-02
 -1      1977 5.70721E-02
 -1      1978 5.04427E-02
 -1      1979 4.42082E-02
 -1      1980 4.76052E-02
 -1      1981 3.63836E-02
 -1      1982 3.60749E-02
 -1      1983 4.15629E-02
 -1      1984 3.24157E-02
 -1      1985 2.72316E-02
 -1      1986 3.30036E-02
 -1      1987 2.66991E-02
 -1      1988 2.09141E-02
 -1      1989 2.47701E-02
 -1      1990 2.11663E-02
 -1      1991 1.71146E-02
 -1      1992 1.96019E-02
 -1      1993 1.73926E-02
 -1      1994 1.36133E-02
 -1      1995 1.56122E-02
 -1      1996 1.45780E-02
 -1      1997 1.02094E-02
 -1      1998 1.20836E-02
 -1      1999 1.15459E-02
 -1      2000 7.26631E-03
 -1      2001 8.83445E-03
 -1      2002 8.64125E-03
 -1      2003 6.16867E-03
 -1      2004 6.71379E-03
 -1      2005 6.71379E-03
 -1      2006 5.27455E-03
 -1      2007 5.72484E-03
 -1      2008 5.71744E-03
 -1      2009 4.34946E-03
 -1      2010 4.81247E-03
 -1      2011 4.81153E-03
 -1      2012 3.47748E-03
 -1      2013 3.91347E-03
 -1      2014 3.91347E-03
 -1      2015 2.89533E-03
 -1      2016 3.09090E-03
 -1      2017 3.09090E-03
 -1      2018 2.51132E-03
 -1      2019 2.71061E-03
 -1      2020 2.51961E-03
 -1      2021 2.11931E-03
 -1      2022 2.33168E-03
 -1      2023 2.15526E-03
 -1      2024 1.73942E-03
 -1      2025 1.94417E-03
 -1      2026 1.80049E-03
 -1      2027 1.40547E-03
 -1      2028 1.58956E-03
 -1      2029 1.47549E-03
 -1      2030 1.13980E-03
 -1      2031 1.28309E-03
 -1      2032 1.20325E-03
 -1      2033 9.08651E-04
 -1      2034 1.03371E-03
 -1      2035 9.74775E-04
 -1      2036 7.27457E-04
 -1      2037 8.26984E-04
 -1      2038 7.87018E-04
 -1      2039 5.70183E-04
 -1      2040 6.54834E-04
 -1      2041 6.32728E-04
 -1      2042 4.37677E-04
 -1      2043 5.07791E-04
 -1      2044 4.97712E-04
 -1      2045 3.28726E-04
 -1      2046 3.85526E-04
 -1      2047 3.83169E-04
 -1      2048 2.40985E-04
 -1      2049 2.86138E-04
 -1      2050 2.88431E-04
 -1      2051 1.75541E-04
 -1      2052 2.06936E-04
 -1      2053 2.11794E-04
 -1      2054 1.27894E-04
 -1      2055 1.48907E-04
 -1      2056 1.51111E-04
 -1      2057 9.47135E-05
 -1      2058 1.12110E-04
 -1      2059 1.08692E-04
 -1      2060 6.67781E-05
 -1      2061 8.16484E-05
 -1      2062 7.98432E-05
 -1      2063 4.95771E-05
 -1      2064 5.77492E-05
 -1      2065 5.77492E-05
 -1      2066 3.12983E-05
 -1      2067 4.16112E-05
 -1      2068 4.07545E-05
 -1      2069 2.71997E-05
 -1      2070 1.67641E-05
 -1      2071 2.18222E-05
 -1      2072 3.20674E-05
 -1      2073 3.26072E-05
 -1      2074 3.33584E-05
 -1      2075 2.71997E-05
 -1      2076 2.08530E-05
 -1      2077 1.73011E-05
 -1      2078 2.36503E-05
 -1      2079 2.80187E-05
 -1      2080 2.51534E-05
 -1      2081 2.84878E-05
 -1      2082 3.12810E-05
 -1      2083 3.01047E-05
 -1      2084 3.48742E-05
 -1      2085 3.12810E-05
 -1      2086 3.12810E-05
 -1      2087 3.69602E-05
 -1      2088 3.12388E-05
 -1      2089 3.12422E-05
 -1      2090 3.69214E-05
 -1      2091 2.99705E-05
 -1      2092 3.12388E-05
 -1      2093 3.68825E-05
 -1      2094 2.51422E-05
 -1      2095 2.79398E-05
 -1      2096 3.48517E-05
 -1      2097 1.75366E-05
 -1      2098 2.07456E-05
 -1      2099 2.84245E-05
 -1      2100 2.18058E-05
 -1      2101 1.72139E-05
 -1      2102 2.37052E-05
 -1      2103 2.86102E-05
 -1      2104 2.70831E-05
 -1      2105 2.86599E-05
 -1      2106 3.73463E+00
 -1      2107 3.99602E+00
 -1      2108 3.06429E+00
 -1      2109 3.28038E+00
 -1      2110 3.26120E+01
 -1      2111 3.00372E+01
 -1      2112 9.44088E+00
 -1      2113 1.24052E+01
 -1      2114 3.98459E+01
 -1      2115 3.98459E+01
 -1      2116 1.70526E+01
 -1      2117 1.94160E+01
 -1      2118 1.98382E+01
 -1      2119 9.89395E+00
 -1      2120 9.59326E+00
 -1      2121 1.04708E+01
 -1      2122 1.04758E+01
 -1      2123 1.08200E+01
 -1      2124 1.09947E+01
 -1      2125 1.12817E+01
 -1      2126 1.06847E+01
 -1      2127 1.02581E+01
 -1      2128 9.13567E+00
 -1      2129 9.87384E+00
 -1      2130 9.13430E+00
 -1      2131 8.78603E+00
 -1      2132 1.77812E+01
 -1      2133 1.15686E+01
 -1      2134 3.36501E+01
 -1      2135 2.14247E+01
 -1      2136 3.54147E+01
 -1      2137 3.94096E+01
 -1      2138 3.72099E+01
 -1      2139 3.60873E+01
 -1      2140 4.45032E+01
 -1      2141 4.36478E+01
 -1      2142 4.23066E+01
 -1      2143 4.45032E+01
 -1      2144 4.00879E+01
 -1      2145 3.57186E+01
 -1      2146 2.09510E+01
 -1      2147 3.36768E+01
 -1      2148 1.16622E+01
 -1      2149 1.68456E+01
 -1      2150 1.15368E+01
 -1      2151 1.06452E+01
 -1      2152 1.53458E+01
 -1      2153 1.66586E+01
 -1      2154 1.23481E+01
 -1      2155 1.17740E+01
 -1      2156 2.01259E+01
 -1      2157 1.32209E+01
 -1      2158 2.69477E+01
 -1      2159 2.39956E+01
 -1      2160 3.40287E+01
 -1      2161 3.40287E+01
 -1      2162 3.98459E+01
 -1      2163 4.17130E+01
 -1      2164 3.17060E+01
 -1      2165 2.89934E+01
 -1      2166 1.55225E+01
 -1      2167 2.74904E+01
 -1      2168 1.92332E+01
 -1      2169 1.07532E+01
 -1      2170 1.31268E+01
 -1      2171 1.03931E+01
 -1      2172 1.39448E+01
 -1      2173 1.41147E+01
 -1      2174 1.42010E+01
 -1      2175 1.89962E+01
 -1      2176 1.35201E+01
 -1      2177 3.12808E-05
 -1      2178 3.81961E-05
 -1      2179 3.85448E+01
 -1      2180 2.92214E-05
 -1      2181 2.86102E-05
 -1      2182 3.39372E-05
 -1      2183 3.59966E-05
 -1      2184 2.60235E+01
 -1      2185 1.21795E+01
 -1      2186 1.07686E+01
 -1      2187 7.65129E+00
 -1      2188 8.02942E+00
 -1      2189 4.93973E+01
 -1      2190 4.17130E+01
 -1      2191 2.69477E+01
 -1      2192 9.27709E+00
 -1      2193 1.43995E+01
 -1      2194 2.49160E+01
 -1      2195 3.79152E+01
 -1      2196 4.45032E+01
 -1      2197 3.80654E+01
 -1      2198 3.09550E+01
 -1      2199 2.45230E+01
 -1      2200 1.51199E+01
 -1      2201 9.04207E+00
 -1      2202 1.00688E+01
 -1      2203 8.90990E+00
 -1      2204 7.50207E+00
 -1      2205 9.86941E+00
 -1      2206 8.76362E+00
 -1      2207 1.70204E+01
 -1      2208 6.95743E+00
 -1      2209 1.20690E+01
 -1      2210 1.59969E+01
 -1      2211 8.50745E+00
 -1      2212 1.17541E+01
 -1      2213 1.27358E+01
 -1      2214 6.81799E+00
 -1      2215 8.64401E+00
 -1      2216 1.38505E+00
 -1      2217 1.49756E+00
 -1      2218 1.32333E+00
 -1      2219 1.33063E+00
 -1      2220 1.48848E+00
 -1      2221 1.21697E+00
 -1      2222 1.26828E+00
 -1      2223 1.37901E+00
 -1      2224 1.40744E+00
 -1      2225 1.43428E+00
 -1      2226 1.54125E+00
 -1      2227 1.48005E+00
 -1      2228 1.38420E+00
 -1      2229 1.73532E+00
 -1      2230 2.45875E+00
 -1      2231 1.56076E+00
 -1      2232 1.79280E+00
 -1      2233 2.36454E+00
 -1      2234 5.21736E+00
 -1      2235 5.56700E+00
 -1      2236 2.10500E+01
 -1      2237 2.27188E+01
 -1      2238 4.61620E-05
 -1      2239 1.09237E+01
 -1      2240 9.81449E+00
 -1      2241 7.12018E+00
 -1      2242 6.55928E+00
 -1      2243 1.05371E+01
 -1      2244 5.26455E+00
 -1      2245 4.67862E+00
 -1      2246 6.54805E+00
 -1      2247 3.75029E+00
 -1      2248 3.19235E+00
 -1      2249 4.32499E+00
 -1      2250 2.59269E+00
 -1      2251 2.12918E+00
 -1      2252 2.79700E+00
 -1      2253 1.73335E+00
 -1      2254 1.38768E+00
 -1      2255 1.80151E+00
 -1      2256 1.14507E+00
 -1      2257 9.04031E-01
 -1      2258 1.16306E+00
 -1      2259 7.49120E-01
 -1      2260 5.87966E-01
 -1      2261 7.65536E-01
 -1      2262 4.84013E-01
 -1      2263 3.79090E-01
 -1      2264 5.06673E-01
 -1      2265 3.09646E-01
 -1      2266 2.42483E-01
 -1      2267 3.33275E-01
 -1      2268 1.96374E-01
 -1      2269 1.53853E-01
 -1      2270 2.17722E-01
 -1      2271 1.23414E-01
 -1      2272 9.66924E-02
 -1      2273 1.41173E-01
 -1      2274 7.66969E-02
 -1      2275 6.12964E-02
 -1      2276 9.07378E-02
 -1      2277 4.82193E-02
 -1      2278 4.00210E-02
 -1      2279 5.76652E-02
 -1      2280 3.15055E-02
 -1      2281 2.58308E-02
 -1      2282 3.60726E-02
 -1      2283 2.03145E-02
 -1      2284 1.66511E-02
 -1      2285 2.20408E-02
 -1      2286 1.39967E-02
 -1      2287 1.20110E-02
 -1      2288 1.38702E-02
 -1      2289 1.03790E-02
 -1      2290 8.84115E-03
 -1      2291 9.58382E-03
 -1      2292 8.10573E-03
 -1      2293 6.91640E-03
 -1      2294 7.21640E-03
 -1      2295 6.27676E-03
 -1      2296 5.45352E-03
 -1      2297 5.84135E-03
 -1      2298 4.91270E-03
 -1      2299 4.29615E-03
 -1      2300 4.66088E-03
 -1      2301 3.84783E-03
 -1      2302 3.34463E-03
 -1      2303 3.67174E-03
 -1      2304 3.04889E-03
 -1      2305 2.68963E-03
 -1      2306 2.92768E-03
 -1      2307 2.43870E-03
 -1      2308 2.17692E-03
 -1      2309 2.38101E-03
 -1      2310 1.97093E-03
 -1      2311 1.76582E-03
 -1      2312 1.92410E-03
 -1      2313 1.61388E-03
 -1      2314 1.44111E-03
 -1      2315 1.56617E-03
 -1      2316 1.31823E-03
 -1      2317 1.16896E-03
 -1      2318 1.29134E-03
 -1      2319 1.06073E-03
 -1      2320 9.49134E-04
 -1      2321 1.06024E-03
 -1      2322 8.54145E-04
 -1      2323 7.59494E-04
 -1      2324 8.57031E-04
 -1      2325 6.80083E-04
 -1      2326 5.99233E-04
 -1      2327 6.82631E-04
 -1      2328 5.38566E-04
 -1      2329 4.70970E-04
 -1      2330 5.42553E-04
 -1      2331 4.18972E-04
 -1      2332 3.63498E-04
 -1      2333 4.29888E-04
 -1      2334 3.19938E-04
 -1      2335 2.75175E-04
 -1      2336 3.34329E-04
 -1      2337 2.39409E-04
 -1      2338 2.03869E-04
 -1      2339 2.55002E-04
 -1      2340 1.75059E-04
 -1      2341 1.48356E-04
 -1      2342 1.90426E-04
 -1      2343 1.25587E-04
 -1      2344 1.09085E-04
 -1      2345 1.38846E-04
 -1      2346 9.15473E-05
 -1      2347 7.77639E-05
 -1      2348 9.85392E-05
 -1      2349 6.43482E-05
 -1      2350 5.40265E-05
 -1      2351 6.75856E-05
 -1      2352 5.24650E-05
 -1      2353 4.45515E-05
 -1      2354 4.24921E-05
 -1      2355 5.26084E-05
 -1      2356 2.20260E+00
 -1      2357 2.32777E+00
 -1      2358 2.34974E+00
 -1      2359 2.41373E+00
 -1      2360 1.96897E+00
 -1      2361 2.54073E+00
 -1      2362 2.76635E+00
 -1      2363 2.11794E+00
 -1      2364 1.95354E+00
 -1      2365 2.13143E+00
 -1      2366 1.87584E+00
 -1      2367 1.64193E+00
 -1      2368 1.83980E+00
 -1      2369 1.69093E+00
 -1      2370 1.36851E+00
 -1      2371 1.53382E+00
 -1      2372 1.46909E+00
 -1      2373 1.07413E+00
 -1      2374 1.24217E+00
 -1      2375 1.23464E+00
 -1      2376 8.11079E-01
 -1      2377 9.41416E-01
 -1      2378 9.75592E-01
 -1      2379 5.78982E-01
 -1      2380 6.89066E-01
 -1      2381 7.20867E-01
 -1      2382 3.91812E-01
 -1      2383 4.83197E-01
 -1      2384 5.03070E-01
 -1      2385 2.51978E-01
 -1      2386 3.22757E-01
 -1      2387 3.38231E-01
 -1      2388 1.49465E-01
 -1      2389 2.00701E-01
 -1      2390 2.17900E-01
 -1      2391 8.10840E-02
 -1      2392 1.15648E-01
 -1      2393 1.32806E-01
 -1      2394 4.58582E-02
 -1      2395 5.85947E-02
 -1      2396 7.64995E-02
 -1      2397 3.67103E-02
 -1      2398 3.80329E-02
 -1      2399 4.61849E-02
 -1      2400 2.80692E-02
 -1      2401 3.07145E-02
 -1      2402 3.23637E-02
 -1      2403 2.30076E-02
 -1      2404 2.60789E-02
 -1      2405 2.43776E-02
 -1      2406 1.94977E-02
 -1      2407 2.19592E-02
 -1      2408 2.13390E-02
 -1      2409 1.63227E-02
 -1      2410 1.76349E-02
 -1      2411 1.84278E-02
 -1      2412 1.30278E-02
 -1      2413 1.45302E-02
 -1      2414 1.47725E-02
 -1      2415 9.94641E-03
 -1      2416 1.14761E-02
 -1      2417 1.14283E-02
 -1      2418 7.11416E-03
 -1      2419 8.48911E-03
 -1      2420 8.41932E-03
 -1      2421 5.62995E-03
 -1      2422 6.18247E-03
 -1      2423 6.03032E-03
 -1      2424 4.43394E-03
 -1      2425 4.87777E-03
 -1      2426 4.34645E-03
 -1      2427 3.76927E-03
 -1      2428 4.23134E-03
 -1      2429 3.39168E-03
 -1      2430 3.15795E-03
 -1      2431 3.59394E-03
 -1      2432 3.01375E-03
 -1      2433 2.56805E-03
 -1      2434 2.95462E-03
 -1      2435 2.63509E-03
 -1      2436 2.17706E-03
 -1      2437 2.36178E-03
 -1      2438 2.22550E-03
 -1      2439 1.82539E-03
 -1      2440 2.00502E-03
 -1      2441 1.84719E-03
 -1      2442 1.55299E-03
 -1      2443 1.72812E-03
 -1      2444 1.57788E-03
 -1      2445 1.29503E-03
 -1      2446 1.44489E-03
 -1      2447 1.37252E-03
 -1      2448 1.06579E-03
 -1      2449 1.18817E-03
 -1      2450 1.15757E-03
 -1      2451 8.72822E-04
 -1      2452 9.78911E-04
 -1      2453 9.63837E-04
 -1      2454 7.09721E-04
 -1      2455 7.91388E-04
 -1      2456 7.95524E-04
 -1      2457 5.64348E-04
 -1      2458 6.36972E-04
 -1      2459 6.41342E-04
 -1      2460 4.44093E-04
 -1      2461 5.06485E-04
 -1      2462 5.10729E-04
 -1      2463 3.44086E-04
 -1      2464 3.96237E-04
 -1      2465 4.05010E-04
 -1      2466 2.60708E-04
 -1      2467 3.03296E-04
 -1      2468 3.16364E-04
 -1      2469 1.92779E-04
 -1      2470 2.26828E-04
 -1      2471 2.41694E-04
 -1      2472 1.38665E-04
 -1      2473 1.65300E-04
 -1      2474 1.80334E-04
 -1      2475 1.01056E-04
 -1      2476 1.16840E-04
 -1      2477 1.31028E-04
 -1      2478 7.19692E-05
 -1      2479 8.50343E-05
 -1      2480 9.31817E-05
 -1      2481 5.03073E-05
 -1      2482 5.93362E-05
 -1      2483 6.45273E-05
 -1      2484 3.71640E-05
 -1      2485 3.28635E-05
 -1      2486 3.71783E-05
 -1      2487 3.66412E-05
 -1      2488 4.58544E-05
 -1      2489 3.56286E-05
 -1      2490 4.58738E-05
 -1      2491 4.91566E-05
 -1      2492 2.76923E+01
 -1      2493 3.85448E+01
 -1      2494 4.28869E-05
 -1      2495 4.08010E-05
 -1      2496 4.51767E-05
 -1      2497 4.32152E-05
 -1      2498 4.32152E-05
 -1      2499 4.91419E-05
 -1      2500 4.31763E-05
 -1      2501 4.32152E-05
 -1      2502 4.94701E-05
 -1      2503 4.31712E-05
 -1      2504 4.31712E-05
 -1      2505 4.94650E-05
 -1      2506 4.08758E-05
 -1      2507 4.29066E-05
 -1      2508 4.91953E-05
 -1      2509 3.29449E-05
 -1      2510 3.73415E-05
 -1      2511 4.53963E-05
 -1      2512 2.91411E-05
 -1      2513 2.94638E-05
 -1      2514 3.83808E-05
 -1      2515 4.40536E-05
 -1      2516 3.87762E-05
 -1      2517 4.45348E-05
 -1      2518 5.87961E+00
 -1      2519 5.72723E+00
 -1      2520 3.69842E+01
 -1      2521 2.92999E+01
 -1      2522 8.84970E+00
 -1      2523 8.32573E+00
 -1      2524 1.69884E+01
 -1      2525 1.87404E+01
 -1      2526 1.63621E+00
 -1      2527 2.26715E+00
 -1      2528 1.68155E+00
 -1      2529 3.15871E+00
 -1      2530 4.68135E+00
 -1      2531 2.71175E+00
 -1      2532 1.80502E+01
 -1      2533 4.93973E+01
 -1      2534 4.93973E+01
 -1      2535 3.85448E+01
 -1      2536 2.09575E+01
 -1      2537 2.15327E+01
 -1      2538 7.81231E+00
 -1      2539 7.23049E+00
 -1      2540 8.58349E+00
 -1      2541 8.71881E+00
 -1      2542 8.61829E+00
 -1      2543 6.18401E+00
 -1      2544 1.64302E+01
 -1      2545 1.27866E+01
 -1      2546 2.71147E+01
 -1      2547 2.64422E+01
 -1      2548 3.85120E+01
 -1      2549 3.85120E+01
 -1      2550 2.83985E+01
 -1      2551 3.49866E+01
 -1      2552 2.44613E+01
 -1      2553 1.12544E+01
 -1      2554 2.49666E+01
 -1      2555 1.78855E+01
 -1      2556 1.24225E+01
 -1      2557 1.75440E+01
 -1      2558 4.77489E-05
 -1      2559 1.09867E+01
 -1      2560 5.73995E+00
 -1      2561 4.79358E+00
 -1      2562 2.32468E+00
 -1      2563 1.83364E+00
 -1      2564 2.53339E+00
 -1      2565 1.42393E+01
 -1      2566 1.74996E+01
 -1      2567 2.24731E+01
 -1      2568 2.24731E+01
 -1      2569 1.16259E+01
 -1      2570 2.32532E+01
 -1      2571 2.73705E+01
 -1      2572 1.22602E+01
 -1      2573 1.45679E+01
 -1      2574 5.00191E-05
 -1      2575 1.54956E+01
 -1      2576 3.64418E+00
 -1      2577 5.79400E+00
 -1      2578 5.56824E+00
 -1      2579 4.92830E+00
 -1      2580 2.59681E+00
 -1      2581 2.58943E+00
 -1      2582 1.84982E+00
 -1      2583 2.07541E+00
 -1      2584 2.02377E+01
 -1      2585 2.78171E+01
 -1      2586 2.45418E+01
 -1      2587 7.26109E+00
 -1      2588 1.06041E+01
 -1      2589 8.91496E+00
 -1      2590 6.79260E+00
 -1      2591 2.89953E+01
 -1      2592 7.95509E+00
 -1      2593 6.41584E+00
 -1      2594 6.74226E+00
 -1      2595 5.98869E+00
 -1      2596 6.18369E+00
 -1      2597 4.24862E+00
 -1      2598 1.83494E+01
 -1      2599 1.35146E+01
 -1      2600 2.10164E+01
 -1      2601 7.17513E+00
 -1      2602 3.69842E+01
 -1      2603 2.06827E+01
 -1      2604 3.38084E+01
 -1      2605 3.80654E+01
 -1      2606 3.16275E+01
 -1      2607 4.24921E-05
 -1      2608 5.26084E-05
 -1      2609 1.54713E+00
 -1      2610 1.60155E+00
 -1      2611 1.91447E+00
 -1      2612 1.83376E+00
 -1      2613 1.87460E+00
 -1      2614 2.71147E+01
 -1      2615 4.68177E+00
 -1      2616 6.81841E+00
 -1      2617 1.89012E+01
 -1      2618 6.92776E-05
 -1      2619 7.11527E-05
 -1      2620 8.37858E-05
 -1      2621 8.04515E+00
 -1      2622 6.75042E+00
 -1      2623 5.03646E+00
 -1      2624 4.10813E+00
 -1      2625 6.53356E+00
 -1      2626 3.26304E+00
 -1      2627 2.66338E+00
 -1      2628 3.97451E+00
 -1      2629 2.09199E+00
 -1      2630 1.69616E+00
 -1      2631 2.55803E+00
 -1      2632 1.33116E+00
 -1      2633 1.08855E+00
 -1      2634 1.62164E+00
 -1      2635 8.54894E-01
 -1      2636 6.99983E-01
 -1      2637 1.02299E+00
 -1      2638 5.51030E-01
 -1      2639 4.47077E-01
 -1      2640 6.40388E-01
 -1      2641 3.52717E-01
 -1      2642 2.83273E-01
 -1      2643 3.97074E-01
 -1      2644 2.26333E-01
 -1      2645 1.80224E-01
 -1      2646 2.45775E-01
 -1      2647 1.45107E-01
 -1      2648 1.14668E-01
 -1      2649 1.53719E-01
 -1      2650 9.41555E-02
 -1      2651 7.41600E-02
 -1      2652 9.80899E-02
 -1      2653 6.14893E-02
 -1      2654 4.84121E-02
 -1      2655 6.49070E-02
 -1      2656 3.96230E-02
 -1      2657 3.11076E-02
 -1      2658 4.34471E-02
 -1      2659 2.50644E-02
 -1      2660 1.95481E-02
 -1      2661 2.86148E-02
 -1      2662 1.54289E-02
 -1      2663 1.27745E-02
 -1      2664 1.84524E-02
 -1      2665 9.99392E-03
 -1      2666 8.36192E-03
 -1      2667 1.15526E-02
 -1      2668 6.69182E-03
 -1      2669 5.95640E-03
 -1      2670 7.10192E-03
 -1      2671 5.22740E-03
 -1      2672 4.58776E-03
 -1      2673 4.70281E-03
 -1      2674 4.34081E-03
 -1      2675 3.79999E-03
 -1      2676 3.72686E-03
 -1      2677 3.53821E-03
 -1      2678 3.08989E-03
 -1      2679 3.21815E-03
 -1      2680 2.83917E-03
 -1      2681 2.54343E-03
 -1      2682 2.70565E-03
 -1      2683 2.31643E-03
 -1      2684 2.06550E-03
 -1      2685 2.22792E-03
 -1      2686 1.89759E-03
 -1      2687 1.69161E-03
 -1      2688 1.83301E-03
 -1      2689 1.55675E-03
 -1      2690 1.40480E-03
 -1      2691 1.53024E-03
 -1      2692 1.28020E-03
 -1      2693 1.15732E-03
 -1      2694 1.27078E-03
 -1      2695 1.04670E-03
 -1      2696 9.38475E-04
 -1      2697 1.03555E-03
 -1      2698 8.50919E-04
 -1      2699 7.55930E-04
 -1      2700 8.37375E-04
 -1      2701 6.85282E-04
 -1      2702 6.05871E-04
 -1      2703 6.79170E-04
 -1      2704 5.43922E-04
 -1      2705 4.83255E-04
 -1      2706 5.46572E-04
 -1      2707 4.30367E-04
 -1      2708 3.78369E-04
 -1      2709 4.31735E-04
 -1      2710 3.35970E-04
 -1      2711 2.92410E-04
 -1      2712 3.36449E-04
 -1      2713 2.59549E-04
 -1      2714 2.23783E-04
 -1      2715 2.61191E-04
 -1      2716 1.96427E-04
 -1      2717 1.67616E-04
 -1      2718 2.00974E-04
 -1      2719 1.45364E-04
 -1      2720 1.22595E-04
 -1      2721 1.51365E-04
 -1      2722 1.04724E-04
 -1      2723 8.71865E-05
 -1      2724 1.11242E-04
 -1      2725 7.30219E-05
 -1      2726 5.96062E-05
 -1      2727 7.92071E-05
 -1      2728 5.41699E-05
 -1      2729 1.73134E+00
 -1      2730 1.75330E+00
 -1      2731 1.65900E+00
 -1      2732 1.73017E+00
 -1      2733 1.51450E+00
 -1      2734 1.81979E+00
 -1      2735 1.94678E+00
 -1      2736 1.58215E+00
 -1      2737 1.32944E+00
 -1      2738 1.43754E+00
 -1      2739 1.10693E+00
 -1      2740 1.23327E+00
 -1      2741 1.20173E+00
 -1      2742 8.77144E-01
 -1      2743 1.00986E+00
 -1      2744 1.00848E+00
 -1      2745 6.71114E-01
 -1      2746 7.93127E-01
 -1      2747 8.27391E-01
 -1      2748 4.86843E-01
 -1      2749 5.82628E-01
 -1      2750 6.54887E-01
 -1      2751 3.36493E-01
 -1      2752 4.05547E-01
 -1      2753 4.85105E-01
 -1      2754 2.17900E-01
 -1      2755 2.69177E-01
 -1      2756 3.36493E-01
 -1      2757 1.32806E-01
 -1      2758 1.66624E-01
 -1      2759 2.17900E-01
 -1      2760 7.43413E-02
 -1      2761 9.68305E-02
 -1      2762 1.30648E-01
 -1      2763 4.92781E-02
 -1      2764 5.71034E-02
 -1      2765 7.74344E-02
 -1      2766 3.23637E-02
 -1      2767 3.83596E-02
 -1      2768 4.92781E-02
 -1      2769 2.52074E-02
 -1      2770 2.71977E-02
 -1      2771 3.31935E-02
 -1      2772 2.16107E-02
 -1      2773 2.26591E-02
 -1      2774 2.54791E-02
 -1      2775 1.78272E-02
 -1      2776 1.96900E-02
 -1      2777 2.10101E-02
 -1      2778 1.39907E-02
 -1      2779 1.57832E-02
 -1      2780 1.70454E-02
 -1      2781 1.05658E-02
 -1      2782 1.21174E-02
 -1      2783 1.31281E-02
 -1      2784 7.64342E-03
 -1      2785 9.10072E-03
 -1      2786 9.78986E-03
 -1      2787 5.44731E-03
 -1      2788 6.37900E-03
 -1      2789 7.06041E-03
 -1      2790 3.67356E-03
 -1      2791 4.42574E-03
 -1      2792 4.77442E-03
 -1      2793 2.76224E-03
 -1      2794 2.96483E-03
 -1      2795 3.04412E-03
 -1      2796 2.31528E-03
 -1      2797 2.49061E-03
 -1      2798 2.06376E-03
 -1      2799 2.11639E-03
 -1      2800 2.31972E-03
 -1      2801 1.79658E-03
 -1      2802 1.85492E-03
 -1      2803 2.06119E-03
 -1      2804 1.74582E-03
 -1      2805 1.59370E-03
 -1      2806 1.76574E-03
 -1      2807 1.60143E-03
 -1      2808 1.39209E-03
 -1      2809 1.48935E-03
 -1      2810 1.40791E-03
 -1      2811 1.19274E-03
 -1      2812 1.30084E-03
 -1      2813 1.21231E-03
 -1      2814 1.01676E-03
 -1      2815 1.12361E-03
 -1      2816 1.05193E-03
 -1      2817 8.55747E-04
 -1      2818 9.42626E-04
 -1      2819 9.08666E-04
 -1      2820 7.03511E-04
 -1      2821 7.84944E-04
 -1      2822 7.63733E-04
 -1      2823 5.69112E-04
 -1      2824 6.41861E-04
 -1      2825 6.31281E-04
 -1      2826 4.55271E-04
 -1      2827 5.13135E-04
 -1      2828 5.13654E-04
 -1      2829 3.58489E-04
 -1      2830 4.06345E-04
 -1      2831 4.08751E-04
 -1      2832 2.76184E-04
 -1      2833 3.16974E-04
 -1      2834 3.18309E-04
 -1      2835 2.10884E-04
 -1      2836 2.44764E-04
 -1      2837 2.45374E-04
 -1      2838 1.57742E-04
 -1      2839 1.85221E-04
 -1      2840 1.88292E-04
 -1      2841 1.17480E-04
 -1      2842 1.39305E-04
 -1      2843 1.44193E-04
 -1      2844 9.62038E-05
 -1      2845 1.12225E-04
 -1      2846 1.20502E-04
 -1      2847 1.02829E-04
 -1      2848 5.96062E-05
 -1      2849 5.80008E-05
 -1      2850 5.76726E-05
 -1      2851 7.02902E-05
 -1      2852 5.68015E-05
 -1      2853 5.31645E-05
 -1      2854 6.56604E-05
 -1      2855 1.49810E+00
 -1      2856 1.61183E+00
 -1      2857 1.46617E+00
 -1      2858 1.35844E+00
 -1      2859 5.78194E-05
 -1      2860 5.78245E-05
 -1      2861 5.75548E-05
 -1      2862 5.78194E-05
 -1      2863 6.61788E-05
 -1      2864 5.26314E-05
 -1      2865 5.61658E-05
 -1      2866 6.47898E-05
 -1      2867 4.24874E-05
 -1      2868 4.59686E-05
 -1      2869 5.67380E-05
 -1      2870 5.24788E-05
 -1      2871 4.28437E-05
 -1      2872 5.04315E-05
 -1      2873 5.79151E-05
 -1      2874 9.95227E+00
 -1      2875 1.34583E+01
 -1      2876 4.65260E+00
 -1      2877 3.30171E+00
 -1      2878 9.78107E+00
 -1      2879 6.92301E+00
 -1      2880 1.73861E+00
 -1      2881 1.87726E+00
 -1      2882 1.79726E+00
 -1      2883 2.17322E+00
 -1      2884 3.06478E+00
 -1      2885 2.23028E+00
 -1      2886 2.11558E+01
 -1      2887 3.20083E+01
 -1      2888 6.26501E+00
 -1      2889 6.39589E+00
 -1      2890 3.32268E+01
 -1      2891 2.08137E+01
 -1      2892 5.80008E-05
 -1      2893 5.80008E-05
 -1      2894 6.63551E-05
 -1      2895 1.37901E+00
 -1      2896 1.43406E+00
 -1      2897 1.54713E+00
 -1      2898 6.01812E+00
 -1      2899 5.50470E+00
 -1      2900 6.50327E-05
 -1      2901 6.93474E-05
 -1      2902 7.66575E-05
 -1      2903 1.85699E+00
 -1      2904 1.63969E+00
 -1      2905 1.69475E+00
 -1      2906 1.85699E+00
 -1      2907 6.21665E+00
 -1      2908 6.05220E+00
 -1      2909 4.35935E+00
 -1      2910 1.37600E+01
 -1      2911 1.35143E+01
 -1      2912 9.47300E+00
 -1      2913 3.30906E+00
 -1      2914 4.38752E+00
 -1      2915 1.78443E+01
 -1      2916 1.21745E+01
 -1      2917 9.48015E+00
 -1      2918 9.68252E+00
 -1      2919 3.42087E+00
 -1      2920 1.80203E+00
 -1      2921 2.10018E+00
 -1      2922 6.65315E-05
 -1      2923 8.94685E-05
 -1      2924 3.14678E+00
 -1      2925 3.21355E+00
 -1      2926 2.87108E+00
 -1      2927 8.03755E+00
 -1      2928 7.25653E+00
 -1      2929 6.21923E+00
 -1      2930 3.87812E+00
 -1      2931 1.93065E+00
 -1      2932 5.75666E+00
 -1      2933 4.80184E+00
 -1      2934 4.24328E+00
 -1      2935 1.46194E+01
 -1      2936 3.20083E+01
 -1      2937 1.58379E+01
 -1      2938 3.84256E+00
 -1      2939 1.59367E+01
 -1      2940 5.10800E+00
 -1      2941 1.95543E+00
 -1      2942 2.77053E+00
 -1      2943 5.29743E+00
 -1      2944 5.92584E+00
 -1      2945 5.14660E+00
 -1      2946 8.06092E+00
 -1      2947 6.34696E+00
 -1      2948 1.40290E+01
 -1      2949 1.27117E+01
 -1      2950 1.77728E+00
 -1      2951 1.51660E+00
 -1      2952 1.60619E+00
 -1      2953 1.75959E+00
 -1      2954 4.26634E+00
 -1      2955 3.42125E+00
 -1      2956 2.69397E+00
 -1      2957 2.12258E+00
 -1      2958 2.98580E+00
 -1      2959 1.70861E+00
 -1      2960 1.34362E+00
 -1      2961 1.84455E+00
 -1      2962 1.09113E+00
 -1      2963 8.57480E-01
 -1      2964 1.17810E+00
 -1      2965 6.95107E-01
 -1      2966 5.46153E-01
 -1      2967 7.63245E-01
 -1      2968 4.40339E-01
 -1      2969 3.45979E-01
 -1      2970 4.95058E-01
 -1      2971 2.76691E-01
 -1      2972 2.19752E-01
 -1      2973 3.19955E-01
 -1      2974 1.74531E-01
 -1      2975 1.39414E-01
 -1      2976 2.05447E-01
 -1      2977 1.12381E-01
 -1      2978 9.18688E-02
 -1      2979 1.33193E-01
 -1      2980 7.35095E-02
 -1      2981 6.08387E-02
 -1      2982 8.78006E-02
 -1      2983 4.85025E-02
 -1      2984 3.97134E-02
 -1      2985 5.71051E-02
 -1      2986 3.15002E-02
 -1      2987 2.54571E-02
 -1      2988 3.65557E-02
 -1      2989 2.00365E-02
 -1      2990 1.59172E-02
 -1      2991 2.29219E-02
 -1      2992 1.29782E-02
 -1      2993 1.01976E-02
 -1      2994 1.45622E-02
 -1      2995 8.11232E-03
 -1      2996 6.44222E-03
 -1      2997 9.53791E-03
 -1      2998 4.98699E-03
 -1      2999 4.25799E-03
 -1      3000 5.99740E-03
 -1      3001 3.31387E-03
 -1      3002 3.06692E-03
 -1      3003 3.59805E-03
 -1      3004 2.82868E-03
 -1      3005 2.56691E-03
 -1      3006 2.41569E-03
 -1      3007 2.49559E-03
 -1      3008 2.24486E-03
 -1      3009 2.10612E-03
 -1      3010 2.13462E-03
 -1      3011 1.90761E-03
 -1      3012 1.92455E-03
 -1      3013 1.78320E-03
 -1      3014 1.61529E-03
 -1      3015 1.68989E-03
 -1      3016 1.49115E-03
 -1      3017 1.35629E-03
 -1      3018 1.44134E-03
 -1      3019 1.26153E-03
 -1      3020 1.13693E-03
 -1      3021 1.22245E-03
 -1      3022 1.05767E-03
 -1      3023 9.47048E-04
 -1      3024 1.04843E-03
 -1      3025 8.68741E-04
 -1      3026 7.81185E-04
 -1      3027 8.90859E-04
 -1      3028 7.08381E-04
 -1      3029 6.37733E-04
 -1      3030 7.39748E-04
 -1      3031 5.72764E-04
 -1      3032 5.10815E-04
 -1      3033 6.01975E-04
 -1      3034 4.54571E-04
 -1      3035 4.01683E-04
 -1      3036 4.80762E-04
 -1      3037 3.54156E-04
 -1      3038 3.11758E-04
 -1      3039 3.76992E-04
 -1      3040 2.72413E-04
 -1      3041 2.39553E-04
 -1      3042 2.90120E-04
 -1      3043 2.07871E-04
 -1      3044 1.80515E-04
 -1      3045 2.19094E-04
 -1      3046 1.56379E-04
 -1      3047 1.34127E-04
 -1      3048 1.63276E-04
 -1      3049 1.15655E-04
 -1      3050 9.77842E-05
 -1      3051 1.20669E-04
 -1      3052 8.06102E-05
 -1      3053 6.64457E-05
 -1      3054 5.93183E-05
 -1      3055 8.50228E-05
 -1      3056 7.38560E-05
 -1      3057 7.52450E-05
 -1      3058 7.55596E-05
 -1      3059 7.55596E-05
 -1      3060 1.43940E+00
 -1      3061 1.44056E+00
 -1      3062 1.49898E+00
 -1      3063 1.56546E+00
 -1      3064 1.52302E+00
 -1      3065 1.42388E+00
 -1      3066 9.76955E-01
 -1      3067 1.07403E+00
 -1      3068 1.13653E+00
 -1      3069 1.23269E+00
 -1      3070 1.10500E+00
 -1      3071 6.35309E-01
 -1      3072 7.23796E-01
 -1      3073 4.60125E-01
 -1      3074 5.41421E-01
 -1      3075 6.10329E-01
 -1      3076 3.11327E-01
 -1      3077 3.78643E-01
 -1      3078 4.34959E-01
 -1      3079 1.95770E-01
 -1      3080 2.47047E-01
 -1      3081 2.89196E-01
 -1      3082 1.18378E-01
 -1      3083 1.54354E-01
 -1      3084 1.83500E-01
 -1      3085 7.74344E-02
 -1      3086 9.46723E-02
 -1      3087 1.18378E-01
 -1      3088 4.92781E-02
 -1      3089 6.01965E-02
 -1      3090 7.74344E-02
 -1      3091 3.37192E-02
 -1      3092 3.88853E-02
 -1      3093 4.98038E-02
 -1      3094 2.62237E-02
 -1      3095 2.87720E-02
 -1      3096 3.44638E-02
 -1      3097 2.10101E-02
 -1      3098 2.29308E-02
 -1      3099 2.62237E-02
 -1      3100 1.63482E-02
 -1      3101 1.83923E-02
 -1      3102 2.03129E-02
 -1      3103 1.21647E-02
 -1      3104 1.40379E-02
 -1      3105 1.53848E-02
 -1      3106 8.79335E-03
 -1      3107 1.02584E-02
 -1      3108 1.11682E-02
 -1      3109 6.10112E-03
 -1      3110 7.36554E-03
 -1      3111 7.83406E-03
 -1      3112 4.02439E-03
 -1      3113 5.04596E-03
 -1      3114 5.35109E-03
 -1      3115 2.51930E-03
 -1      3116 3.22803E-03
 -1      3117 3.49957E-03
 -1      3118 1.66571E-03
 -1      3119 1.93735E-03
 -1      3120 2.12125E-03
 -1      3121 1.37226E-03
 -1      3122 1.36782E-03
 -1      3123 1.24140E-03
 -1      3124 1.41020E-03
 -1      3125 1.46541E-03
 -1      3126 1.03665E-03
 -1      3127 1.35007E-03
 -1      3128 1.43925E-03
 -1      3129 1.15885E-03
 -1      3130 1.22546E-03
 -1      3131 1.32981E-03
 -1      3132 1.16763E-03
 -1      3133 1.08451E-03
 -1      3134 1.17576E-03
 -1      3135 1.09766E-03
 -1      3136 9.50782E-04
 -1      3137 1.01991E-03
 -1      3138 9.83364E-04
 -1      3139 8.26248E-04
 -1      3140 9.00378E-04
 -1      3141 8.68364E-04
 -1      3142 7.03475E-04
 -1      3143 7.74277E-04
 -1      3144 7.65989E-04
 -1      3145 5.86896E-04
 -1      3146 6.48546E-04
 -1      3147 6.59090E-04
 -1      3148 4.77789E-04
 -1      3149 5.33767E-04
 -1      3150 5.51032E-04
 -1      3151 3.80288E-04
 -1      3152 4.29214E-04
 -1      3153 4.49327E-04
 -1      3154 2.96104E-04
 -1      3155 3.37620E-04
 -1      3156 3.58083E-04
 -1      3157 2.28338E-04
 -1      3158 2.59758E-04
 -1      3159 2.79069E-04
 -1      3160 1.72464E-04
 -1      3161 1.98126E-04
 -1      3162 2.12510E-04
 -1      3163 1.29946E-04
 -1      3164 1.48383E-04
 -1      3165 1.58217E-04
 -1      3166 1.10913E+01
 -1      3167 1.99683E+00
 -1      3168 2.13389E+00
 -1      3169 1.55584E+00
 -1      3170 1.66891E+00
 -1      3171 2.00554E+00
 -1      3172 7.55596E-05
 -1      3173 7.46886E-05
 -1      3174 8.45878E-05
 -1      3175 6.48488E-05
 -1      3176 7.15116E-05
 -1      3177 8.19668E-05
 -1      3178 7.52450E-05
 -1      3179 7.52450E-05
 -1      3180 8.43111E-05
 -1      3181 8.17764E-01
 -1      3182 9.01781E-01
 -1      3183 9.67329E-01
 -1      3184 7.98186E-01
 -1      3185 7.98119E+00
 -1      3186 3.83048E+00
 -1      3187 2.97838E+00
 -1      3188 1.40869E+01
 -1      3189 1.93065E+00
 -1      3190 1.01886E-04
 -1      3191 1.02829E-04
 -1      3192 1.15247E-04
 -1      3193 1.95543E+00
 -1      3194 1.95543E+00
 -1      3195 3.59828E+00
 -1      3196 7.20861E-05
 -1      3197 8.39542E-05
 -1      3198 9.73151E-05
 -1      3199 8.19853E-05
 -1      3200 7.44158E-05
 -1      3201 7.45922E-05
 -1      3202 8.36203E-05
 -1      3203 8.34820E-05
 -1      3204 4.55772E+00
 -1      3205 4.17994E+00
 -1      3206 3.17124E+00
 -1      3207 3.30593E+00
 -1      3208 3.95434E+00
 -1      3209 2.80853E+00
 -1      3210 5.17479E+00
 -1      3211 1.02311E+01
 -1      3212 1.21388E+01
 -1      3213 1.21388E+01
 -1      3214 7.61160E+00
 -1      3215 7.91335E+00
 -1      3216 4.33498E+00
 -1      3217 4.67416E+00
 -1      3218 3.74610E+00
 -1      3219 1.63838E+00
 -1      3220 1.58145E+00
 -1      3221 1.77728E+00
 -1      3222 1.40161E+00
 -1      3223 1.32767E+00
 -1      3224 1.35444E+00
 -1      3225 1.21031E+00
 -1      3226 1.27551E+00
 -1      3227 1.33606E+00
 -1      3228 1.20502E-04
 -1      3229 1.25756E-04
 -1      3230 1.29946E-04
 -1      3231 1.20502E-04
 -1      3232 2.71911E+00
 -1      3233 2.56417E+00
 -1      3234 2.67147E+00
 -1      3235 7.01753E-05
 -1      3236 6.98190E-05
 -1      3237 8.45927E-05
 -1      3238 7.87058E-05
 -1      3239 3.28020E+00
 -1      3240 5.69689E+00
 -1      3241 1.02894E+01
 -1      3242 3.52945E+00
 -1      3243 4.51505E+00
 -1      3244 4.02504E+00
 -1      3245 2.13389E+00
 -1      3246 2.42985E+00
 -1      3247 3.07485E+00
 -1      3248 2.33346E+00
 -1      3249 1.14335E+01
 -1      3250 1.12469E+01
 -1      3251 5.79370E+00
 -1      3252 8.71638E+00
 -1      3253 9.23101E+00
 -1      3254 1.54594E+00
 -1      3255 1.56363E+00
 -1      3256 1.60287E+00
 -1      3257 1.28685E+01
 -1      3258 2.96826E+00
 -1      3259 2.61880E+00
 -1      3260 1.91418E+00
 -1      3261 1.50022E+00
 -1      3262 1.21736E+00
 -1      3263 9.64873E-01
 -1      3264 1.28699E+00
 -1      3265 7.79019E-01
 -1      3266 6.16646E-01
 -1      3267 8.18274E-01
 -1      3268 4.97153E-01
 -1      3269 3.91339E-01
 -1      3270 5.12927E-01
 -1      3271 3.26383E-01
 -1      3272 2.57095E-01
 -1      3273 3.28478E-01
 -1      3274 2.16192E-01
 -1      3275 1.70972E-01
 -1      3276 2.22620E-01
 -1      3277 1.41970E-01
 -1      3278 1.14936E-01
 -1      3279 1.52715E-01
 -1      3280 9.46584E-02
 -1      3281 7.62991E-02
 -1      3282 1.03435E-01
 -1      3283 6.22848E-02
 -1      3284 4.99486E-02
 -1      3285 6.91427E-02
 -1      3286 4.05739E-02
 -1      3287 3.23607E-02
 -1      3288 4.57536E-02
 -1      3289 2.62194E-02
 -1      3290 2.07988E-02
 -1      3291 3.02376E-02
 -1      3292 1.66280E-02
 -1      3293 1.36890E-02
 -1      3294 1.99256E-02
 -1      3295 1.08145E-02
 -1      3296 8.72924E-03
 -1      3297 1.28803E-02
 -1      3298 6.77397E-03
 -1      3299 5.31875E-03
 -1      3300 8.05059E-03
 -1      3301 4.00895E-03
 -1      3302 3.06483E-03
 -1      3303 4.78553E-03
 -1      3304 2.35234E-03
 -1      3305 2.11410E-03
 -1      3306 2.76324E-03
 -1      3307 1.74024E-03
 -1      3308 1.66892E-03
 -1      3309 1.67689E-03
 -1      3310 1.71774E-03
 -1      3311 1.60749E-03
 -1      3312 1.35186E-03
 -1      3313 1.59566E-03
 -1      3314 1.47125E-03
 -1      3315 1.38885E-03
 -1      3316 1.41889E-03
 -1      3317 1.29475E-03
 -1      3318 1.32465E-03
 -1      3319 1.22245E-03
 -1      3320 1.12769E-03
 -1      3321 1.19999E-03
 -1      3322 1.04843E-03
 -1      3323 9.69166E-04
 -1      3324 1.04843E-03
 -1      3325 9.02902E-04
 -1      3326 8.24594E-04
 -1      3327 9.02902E-04
 -1      3328 7.66212E-04
 -1      3329 6.93408E-04
 -1      3330 7.78255E-04
 -1      3331 6.35359E-04
 -1      3332 5.70390E-04
 -1      3333 6.61823E-04
 -1      3334 5.16171E-04
 -1      3335 4.59928E-04
 -1      3336 5.49555E-04
 -1      3337 4.11372E-04
 -1      3338 3.63845E-04
 -1      3339 4.46781E-04
 -1      3340 3.21692E-04
 -1      3341 2.82347E-04
 -1      3342 3.56072E-04
 -1      3343 2.46698E-04
 -1      3344 2.15016E-04
 -1      3345 2.78270E-04
 -1      3346 1.85314E-04
 -1      3347 1.61178E-04
 -1      3348 2.12918E-04
 -1      3349 1.38328E-04
 -1      3350 1.19856E-04
 -1      3351 1.60366E-04
 -1      3352 1.14755E-04
 -1      3353 1.17099E-04
 -1      3354 1.11333E+00
 -1      3355 1.17582E+00
 -1      3356 3.91083E-01
 -1      3357 4.72565E-01
 -1      3358 5.54368E-01
 -1      3359 6.48256E-01
 -1      3360 5.10492E-01
 -1      3361 1.79377E-01
 -1      3362 2.20793E-01
 -1      3363 1.18378E-01
 -1      3364 1.42084E-01
 -1      3365 1.79377E-01
 -1      3366 7.39238E-02
 -1      3367 9.11617E-02
 -1      3368 1.14868E-01
 -1      3369 4.83085E-02
 -1      3370 5.87013E-02
 -1      3371 7.24285E-02
 -1      3372 3.52674E-02
 -1      3373 4.02146E-02
 -1      3374 4.91121E-02
 -1      3375 2.66499E-02
 -1      3376 2.99428E-02
 -1      3377 3.56936E-02
 -1      3378 1.97357E-02
 -1      3379 2.23536E-02
 -1      3380 2.60727E-02
 -1      3381 1.43399E-02
 -1      3382 1.66503E-02
 -1      3383 1.86909E-02
 -1      3384 1.04466E-02
 -1      3385 1.23529E-02
 -1      3386 1.36183E-02
 -1      3387 7.56900E-03
 -1      3388 8.99681E-03
 -1      3389 1.01815E-02
 -1      3390 5.21981E-03
 -1      3391 6.27497E-03
 -1      3392 7.43772E-03
 -1      3393 3.38496E-03
 -1      3394 4.18133E-03
 -1      3395 5.10521E-03
 -1      3396 2.05325E-03
 -1      3397 2.63520E-03
 -1      3398 3.31696E-03
 -1      3399 1.19741E-03
 -1      3400 1.49531E-03
 -1      3401 2.00926E-03
 -1      3402 1.03074E-03
 -1      3403 9.37587E-04
 -1      3404 1.19149E-03
 -1      3405 9.58848E-04
 -1      3406 9.29803E-04
 -1      3407 8.30736E-04
 -1      3408 1.00581E-03
 -1      3409 1.02608E-03
 -1      3410 7.97035E-04
 -1      3411 9.69894E-04
 -1      3412 1.01959E-03
 -1      3413 8.78048E-04
 -1      3414 8.84988E-04
 -1      3415 9.49583E-04
 -1      3416 8.71518E-04
 -1      3417 7.94598E-04
 -1      3418 8.45002E-04
 -1      3419 8.11221E-04
 -1      3420 7.01578E-04
 -1      3421 7.53549E-04
 -1      3422 7.30187E-04
 -1      3423 6.06948E-04
 -1      3424 6.61877E-04
 -1      3425 6.49436E-04
 -1      3426 5.09945E-04
 -1      3427 5.63074E-04
 -1      3428 5.65861E-04
 -1      3429 4.17789E-04
 -1      3430 4.66365E-04
 -1      3431 4.78407E-04
 -1      3432 3.34514E-04
 -1      3433 3.77183E-04
 -1      3434 3.94221E-04
 -1      3435 2.61955E-04
 -1      3436 2.98301E-04
 -1      3437 3.17400E-04
 -1      3438 2.00452E-04
 -1      3439 2.30664E-04
 -1      3440 2.49896E-04
 -1      3441 1.49729E-04
 -1      3442 1.73810E-04
 -1      3443 1.91964E-04
 -1      3444 2.08802E+00
 -1      3445 2.41594E+00
 -1      3446 2.01327E+00
 -1      3447 9.97723E-05
 -1      3448 9.97723E-05
 -1      3449 1.17099E-04
 -1      3450 1.17099E-04
 -1      3451 1.49887E-04
 -1      3452 4.83289E+00
 -1      3453 5.18796E+00
 -1      3454 6.85499E+00
 -1      3455 8.76623E+00
 -1      3456 2.68153E-01
 -1      3457 3.32433E-01
 -1      3458 3.70040E-01
 -1      3459 2.64030E-01
 -1      3460 2.78806E+00
 -1      3461 3.09381E+00
 -1      3462 2.36652E+00
 -1      3463 2.02219E+00
 -1      3464 2.33346E+00
 -1      3465 2.33346E+00
 -1      3466 2.78806E+00
 -1      3467 2.41594E+00
 -1      3468 6.97926E+00
 -1      3469 4.89864E+00
 -1      3470 4.27936E+00
 -1      3471 4.70811E+00
 -1      3472 4.87513E+00
 -1      3473 4.36621E+00
 -1      3474 3.65469E+00
 -1      3475 8.43499E+00
 -1      3476 7.86206E+00
 -1      3477 6.86199E+00
 -1      3478 1.31821E-04
 -1      3479 1.16636E-04
 -1      3480 1.14034E-04
 -1      3481 3.36397E+00
 -1      3482 3.24753E+00
 -1      3483 2.58613E+00
 -1      3484 1.27151E+00
 -1      3485 1.36829E+00
 -1      3486 1.40608E+00
 -1      3487 9.58611E-01
 -1      3488 1.03378E+00
 -1      3489 1.10461E+00
 -1      3490 5.18350E+00
 -1      3491 6.04749E+00
 -1      3492 1.08569E-04
 -1      3493 1.43701E-04
 -1      3494 6.85052E+00
 -1      3495 1.24184E+00
 -1      3496 1.23351E+00
 -1      3497 1.27633E+00
 -1      3498 1.50520E+00
 -1      3499 7.87118E+00
 -1      3500 1.45539E-04
 -1      3501 2.42459E+00
 -1      3502 2.16532E+00
 -1      3503 2.11266E+00
 -1      3504 9.88048E-05
 -1      3505 9.97723E-05
 -1      3506 1.14957E-04
 -1      3507 1.42970E-04
 -1      3508 1.10182E-04
 -1      3509 1.09353E-04
 -1      3510 7.58881E-01
 -1      3511 8.52850E-01
 -1      3512 9.19306E-01
 -1      3513 7.02920E-01
 -1      3514 1.48582E+00
 -1      3515 1.44521E+00
 -1      3516 1.50362E+00
 -1      3517 1.37537E-04
 -1      3518 1.42792E-04
 -1      3519 1.19605E-04
 -1      3520 3.00999E+00
 -1      3521 3.79238E+00
 -1      3522 3.31993E+00
 -1      3523 2.55539E+00
 -1      3524 2.53416E+00
 -1      3525 2.62655E+00
 -1      3526 2.38219E+00
 -1      3527 1.25566E+00
 -1      3528 1.27403E+00
 -1      3529 1.35244E+00
 -1      3530 1.27885E+00
 -1      3531 3.77656E+00
 -1      3532 4.63609E+00
 -1      3533 1.13539E-04
 -1      3534 9.58798E-05
 -1      3535 1.48501E-04
 -1      3536 1.54687E-04
 -1      3537 8.38237E-01
 -1      3538 6.52383E-01
 -1      3539 5.46883E-01
 -1      3540 4.27390E-01
 -1      3541 5.66846E-01
 -1      3542 3.50866E-01
 -1      3543 2.85910E-01
 -1      3544 3.84822E-01
 -1      3545 2.32831E-01
 -1      3546 1.91928E-01
 -1      3547 2.55218E-01
 -1      3548 1.56155E-01
 -1      3549 1.27153E-01
 -1      3550 1.66366E-01
 -1      3551 1.03446E-01
 -1      3552 8.31678E-02
 -1      3553 1.06886E-01
 -1      3554 6.92281E-02
 -1      3555 5.52138E-02
 -1      3556 6.92389E-02
 -1      3557 4.71694E-02
 -1      3558 3.77947E-02
 -1      3559 4.72548E-02
 -1      3560 3.17843E-02
 -1      3561 2.56430E-02
 -1      3562 3.32001E-02
 -1      3563 2.13398E-02
 -1      3564 1.71690E-02
 -1      3565 2.28864E-02
 -1      3566 1.42145E-02
 -1      3567 1.13401E-02
 -1      3568 1.56288E-02
 -1      3569 9.22169E-03
 -1      3570 7.26643E-03
 -1      3571 1.05559E-02
 -1      3572 5.76270E-03
 -1      3573 4.45290E-03
 -1      3574 6.93380E-03
 -1      3575 3.39660E-03
 -1      3576 2.68411E-03
 -1      3577 4.37377E-03
 -1      3578 1.95842E-03
 -1      3579 1.58457E-03
 -1      3580 2.59179E-03
 -1      3581 1.09916E-03
 -1      3582 1.14799E-03
 -1      3583 1.38069E-03
 -1      3584 1.12772E-03
 -1      3585 1.11588E-03
 -1      3586 8.75026E-04
 -1      3587 1.16118E-03
 -1      3588 1.10882E-03
 -1      3589 9.00050E-04
 -1      3590 1.10453E-03
 -1      3591 1.03223E-03
 -1      3592 9.41059E-04
 -1      3593 9.99235E-04
 -1      3594 9.19974E-04
 -1      3595 9.03777E-04
 -1      3596 8.72185E-04
 -1      3597 8.05920E-04
 -1      3598 8.22992E-04
 -1      3599 7.52410E-04
 -1      3600 6.94028E-04
 -1      3601 7.21693E-04
 -1      3602 6.48757E-04
 -1      3603 5.90708E-04
 -1      3604 6.22913E-04
 -1      3605 5.48110E-04
 -1      3606 4.93892E-04
 -1      3607 5.35044E-04
 -1      3608 4.52390E-04
 -1      3609 4.03834E-04
 -1      3610 4.50945E-04
 -1      3611 3.65555E-04
 -1      3612 3.23402E-04
 -1      3613 3.71164E-04
 -1      3614 2.89391E-04
 -1      3615 2.53742E-04
 -1      3616 2.98874E-04
 -1      3617 2.24402E-04
 -1      3618 1.94700E-04
 -1      3619 2.35523E-04
 -1      3620 1.71351E-04
 -1      3621 6.05450E+00
 -1      3622 6.86199E+00
 -1      3623 1.07412E-01
 -1      3624 1.34629E-01
 -1      3625 1.63280E-01
 -1      3626 2.00573E-01
 -1      3627 1.55825E-01
 -1      3628 5.10005E-02
 -1      3629 5.90944E-02
 -1      3630 3.58874E-02
 -1      3631 4.12119E-02
 -1      3632 5.11943E-02
 -1      3633 2.48527E-02
 -1      3634 2.91491E-02
 -1      3635 3.46674E-02
 -1      3636 1.79944E-02
 -1      3637 2.10798E-02
 -1      3638 2.41562E-02
 -1      3639 1.36183E-02
 -1      3640 1.56054E-02
 -1      3641 1.79944E-02
 -1      3642 1.01584E-02
 -1      3643 1.16081E-02
 -1      3644 1.35952E-02
 -1      3645 7.18612E-03
 -1      3646 8.48015E-03
 -1      3647 9.90676E-03
 -1      3648 4.81484E-03
 -1      3649 5.85332E-03
 -1      3650 6.89575E-03
 -1      3651 3.08494E-03
 -1      3652 3.83470E-03
 -1      3653 4.58282E-03
 -1      3654 1.86213E-03
 -1      3655 2.42007E-03
 -1      3656 2.93781E-03
 -1      3657 1.20903E-03
 -1      3658 1.46885E-03
 -1      3659 1.87966E-03
 -1      3660 8.30736E-04
 -1      3661 9.31669E-04
 -1      3662 1.20903E-03
 -1      3663 7.25397E-04
 -1      3664 6.58166E-04
 -1      3665 7.59098E-04
 -1      3666 7.77777E-04
 -1      3667 7.63996E-04
 -1      3668 6.25126E-04
 -1      3669 7.81458E-04
 -1      3670 8.01769E-04
 -1      3671 6.87716E-04
 -1      3672 7.33352E-04
 -1      3673 7.73338E-04
 -1      3674 7.03588E-04
 -1      3675 6.65008E-04
 -1      3676 7.06056E-04
 -1      3677 6.68173E-04
 -1      3678 5.89985E-04
 -1      3679 6.29686E-04
 -1      3680 6.05556E-04
 -1      3681 5.13426E-04
 -1      3682 5.57300E-04
 -1      3683 5.37550E-04
 -1      3684 4.33827E-04
 -1      3685 4.77407E-04
 -1      3686 4.68846E-04
 -1      3687 3.57457E-04
 -1      3688 3.98064E-04
 -1      3689 3.97064E-04
 -1      3690 2.87873E-04
 -1      3691 3.24087E-04
 -1      3692 3.27930E-04
 -1      3693 2.26774E-04
 -1      3694 2.58064E-04
 -1      3695 2.64751E-04
 -1      3696 1.75138E-04
 -1      3697 2.01779E-04
 -1      3698 2.09947E-04
 -1      3699 4.96604E+00
 -1      3700 3.16121E+00
 -1      3701 1.59425E+00
 -1      3702 2.07940E+00
 -1      3703 2.02319E-04
 -1      3704 2.02319E-04
 -1      3705 2.07119E-04
 -1      3706 7.29705E-02
 -1      3707 8.81931E-02
 -1      3708 1.07954E-01
 -1      3709 5.10492E-01
 -1      3710 5.92295E-01
 -1      3711 1.35657E+00
 -1      3712 1.07371E+00
 -1      3713 9.07818E-01
 -1      3714 2.27120E+00
 -1      3715 1.81886E+00
 -1      3716 1.60558E+00
 -1      3717 6.07508E+00
 -1      3718 1.62575E-04
 -1      3719 2.11195E+00
 -1      3720 2.08194E+00
 -1      3721 1.86508E+00
 -1      3722 1.37392E-04
 -1      3723 1.54256E-04
 -1      3724 1.68257E+00
 -1      3725 1.72170E+00
 -1      3726 3.90356E+00
 -1      3727 3.35615E+00
 -1      3728 3.94580E+00
 -1      3729 2.27986E+00
 -1      3730 2.55423E+00
 -1      3731 1.13402E+00
 -1      3732 1.21356E+00
 -1      3733 6.86390E-01
 -1      3734 6.86390E-01
 -1      3735 7.97015E-01
 -1      3736 1.82835E-04
 -1      3737 4.62834E+00
 -1      3738 4.63981E+00
 -1      3739 1.24184E+00
 -1      3740 1.29952E+00
 -1      3741 1.27125E+00
 -1      3742 4.95692E+00
 -1      3743 2.37456E-01
 -1      3744 2.53553E-01
 -1      3745 3.00913E-01
 -1      3746 2.95787E+00
 -1      3747 1.62575E-04
 -1      3748 1.72390E-04
 -1      3749 2.26289E+00
 -1      3750 2.68190E+00
 -1      3751 2.11266E+00
 -1      3752 1.91845E+00
 -1      3753 2.54750E-04
 -1      3754 2.02319E-04
 -1      3755 1.95402E-04
 -1      3756 1.52653E+00
 -1      3757 1.25505E-04
 -1      3758 7.48589E-02
 -1      3759 4.28689E-01
 -1      3760 5.10492E-01
 -1      3761 3.70040E-01
 -1      3762 6.06597E+00
 -1      3763 3.22141E+00
 -1      3764 1.54256E-04
 -1      3765 3.30800E+00
 -1      3766 1.53372E+00
 -1      3767 1.76960E+00
 -1      3768 1.43946E+00
 -1      3769 1.21954E-04
 -1      3770 1.21954E-04
 -1      3771 1.44389E-04
 -1      3772 2.39192E+00
 -1      3773 3.18048E+00
 -1      3774 1.78942E+00
 -1      3775 2.08194E+00
 -1      3776 2.00963E+00
 -1      3777 4.95692E+00
 -1      3778 1.10990E-01
 -1      3779 1.30209E-01
 -1      3780 3.05760E+00
 -1      3781 4.48375E+00
 -1      3782 3.37471E+00
 -1      3783 4.04001E-01
 -1      3784 3.27477E-01
 -1      3785 2.57319E-01
 -1      3786 2.04239E-01
 -1      3787 2.76498E-01
 -1      3788 1.73671E-01
 -1      3789 1.37898E-01
 -1      3790 1.75771E-01
 -1      3791 1.15073E-01
 -1      3792 9.13655E-02
 -1      3793 1.22378E-01
 -1      3794 7.53796E-02
 -1      3795 6.14399E-02
 -1      3796 8.35665E-02
 -1      3797 5.02627E-02
 -1      3798 4.22183E-02
 -1      3799 5.64034E-02
 -1      3800 3.45283E-02
 -1      3801 2.85179E-02
 -1      3802 3.75362E-02
 -1      3803 2.33143E-02
 -1      3804 1.90111E-02
 -1      3805 2.46426E-02
 -1      3806 1.58623E-02
 -1      3807 1.29078E-02
 -1      3808 1.62901E-02
 -1      3809 1.09690E-02
 -1      3810 8.85064E-03
 -1      3811 1.12025E-02
 -1      3812 7.43458E-03
 -1      3813 5.93085E-03
 -1      3814 7.84768E-03
 -1      3815 4.87144E-03
 -1      3816 3.81514E-03
 -1      3817 5.37222E-03
 -1      3818 3.04153E-03
 -1      3819 2.31584E-03
 -1      3820 3.53920E-03
 -1      3821 1.76206E-03
 -1      3822 1.27666E-03
 -1      3823 2.21181E-03
 -1      3824 8.92156E-04
 -1      3825 8.71887E-04
 -1      3826 1.27352E-03
 -1      3827 6.76965E-04
 -1      3828 7.22258E-04
 -1      3829 6.94095E-04
 -1      3830 7.90594E-04
 -1      3831 7.86309E-04
 -1      3832 5.67508E-04
 -1      3833 8.06075E-04
 -1      3834 7.73078E-04
 -1      3835 6.55610E-04
 -1      3836 7.62838E-04
 -1      3837 7.15049E-04
 -1      3838 6.65136E-04
 -1      3839 6.87655E-04
 -1      3840 6.34145E-04
 -1      3841 6.27502E-04
 -1      3842 5.98293E-04
 -1      3843 5.53023E-04
 -1      3844 5.64255E-04
 -1      3845 5.14418E-04
 -1      3846 4.71820E-04
 -1      3847 4.89798E-04
 -1      3848 4.36633E-04
 -1      3849 3.95131E-04
 -1      3850 4.16006E-04
 -1      3851 3.64296E-04
 -1      3852 3.26017E-04
 -1      3853 3.49984E-04
 -1      3854 2.97009E-04
 -1      3855 2.62998E-04
 -1      3856 2.90141E-04
 -1      3857 2.54354E-04
 -1      3858 2.25014E-04
 -1      3859 2.52489E-04
 -1      3860 1.59267E+00
 -1      3861 2.41562E-02
 -1      3862 2.79291E-02
 -1      3863 1.65514E-01
 -1      3864 1.94166E-01
 -1      3865 1.68550E-01
 -1      3866 2.30467E-04
 -1      3867 6.16314E-01
 -1      3868 5.10814E-01
 -1      3869 4.53469E-01
 -1      3870 1.29087E-04
 -1      3871 1.18539E-04
 -1      3872 1.25536E-04
 -1      3873 1.88436E-04
 -1      3874 3.35197E-02
 -1      3875 4.02579E-02
 -1      3876 3.35197E-02
 -1      3877 4.92193E-02
 -1      3878 5.90079E-02
 -1      3879 4.80716E-02
 -1      3880 1.79944E-02
 -1      3881 2.03833E-02
 -1      3882 2.41562E-02
 -1      3883 1.30431E-02
 -1      3884 1.50533E-02
 -1      3885 1.74422E-02
 -1      3886 9.13323E-03
 -1      3887 1.08115E-02
 -1      3888 1.22695E-02
 -1      3889 6.14434E-03
 -1      3890 7.47713E-03
 -1      3891 8.38182E-03
 -1      3892 4.08256E-03
 -1      3893 5.06270E-03
 -1      3894 5.64408E-03
 -1      3895 2.78014E-03
 -1      3896 3.44501E-03
 -1      3897 3.92489E-03
 -1      3898 1.87966E-03
 -1      3899 2.27295E-03
 -1      3900 2.78014E-03
 -1      3901 1.20903E-03
 -1      3902 1.48638E-03
 -1      3903 1.87966E-03
 -1      3904 7.43624E-04
 -1      3905 9.16195E-04
 -1      3906 1.19355E-03
 -1      3907 6.23874E-04
 -1      3908 5.85275E-04
 -1      3909 7.42372E-04
 -1      3910 6.23360E-04
 -1      3911 5.99368E-04
 -1      3912 5.59517E-04
 -1      3913 6.35151E-04
 -1      3914 6.43271E-04
 -1      3915 5.54923E-04
 -1      3916 6.01765E-04
 -1      3917 6.29061E-04
 -1      3918 5.68744E-04
 -1      3919 5.44855E-04
 -1      3920 5.80176E-04
 -1      3921 5.41064E-04
 -1      3922 4.82500E-04
 -1      3923 5.15185E-04
 -1      3924 4.89805E-04
 -1      3925 4.15152E-04
 -1      3926 4.51171E-04
 -1      3927 4.28806E-04
 -1      3928 3.49922E-04
 -1      3929 3.85685E-04
 -1      3930 3.68010E-04
 -1      3931 2.88035E-04
 -1      3932 3.21406E-04
 -1      3933 3.10027E-04
 -1      3934 2.31736E-04
 -1      3935 2.61545E-04
 -1      3936 2.55020E-04
 -1      3937 1.88512E-04
 -1      3938 2.13506E-04
 -1      3939 2.10300E-04
 -1      3940 1.59828E-04
 -1      3941 1.76960E+00
 -1      3942 7.34698E-02
 -1      3943 8.73459E-02
 -1      3944 7.14949E-02
 -1      3945 2.49298E-04
 -1      3946 1.77817E+00
 -1      3947 1.31589E+00
 -1      3948 1.01833E+00
 -1      3949 7.82854E-01
 -1      3950 1.19092E+00
 -1      3951 1.84146E-04
 -1      3952 1.96708E-04
 -1      3953 2.00267E-04
 -1      3954 1.68707E-04
 -1      3955 2.99127E+00
 -1      3956 2.10127E+00
 -1      3957 1.81157E+00
 -1      3958 2.51810E+00
 -1      3959 2.63787E+00
 -1      3960 9.09929E-01
 -1      3961 1.01569E+00
 -1      3962 8.93399E-01
 -1      3963 2.89959E+00
 -1      3964 2.89184E+00
 -1      3965 1.55562E+00
 -1      3966 1.53495E+00
 -1      3967 1.71623E+00
 -1      3968 1.55562E+00
 -1      3969 1.12464E+00
 -1      3970 2.84535E+00
 -1      3971 1.81171E+00
 -1      3972 2.93264E+00
 -1      3973 2.80564E+00
 -1      3974 2.47607E+00
 -1      3975 1.09600E-01
 -1      3976 2.73578E+00
 -1      3977 3.05760E+00
 -1      3978 1.24297E+00
 -1      3979 1.27125E+00
 -1      3980 1.12464E+00
 -1      3981 1.24297E+00
 -1      3982 1.24297E+00
 -1      3983 2.49152E-01
 -1      3984 2.39462E-01
 -1      3985 2.92442E-01
 -1      3986 7.26821E-01
 -1      3987 1.82186E+00
 -1      3988 2.01978E+00
 -1      3989 2.90154E+00
 -1      3990 3.59562E-01
 -1      3991 2.49298E-04
 -1      3992 2.54750E-04
 -1      3993 2.54750E-04
 -1      3994 4.90077E-01
 -1      3995 5.71880E-01
 -1      3996 6.89110E-01
 -1      3997 7.83205E-01
 -1      3998 6.68695E-01
 -1      3999 2.65758E+00
 -1      4000 1.71623E+00
 -1      4001 1.81171E+00
 -1      4002 1.81171E+00
 -1      4003 2.21974E+00
 -1      4004 2.38550E+00
 -1      4005 2.33094E-01
 -1      4006 2.02525E-01
 -1      4007 1.35497E-01
 -1      4008 1.12672E-01
 -1      4009 1.92820E-01
 -1      4010 9.47258E-02
 -1      4011 7.87399E-02
 -1      4012 1.07845E-01
 -1      4013 5.89936E-02
 -1      4014 4.78164E-02
 -1      4015 7.01529E-02
 -1      4016 3.90376E-02
 -1      4017 3.13476E-02
 -1      4018 4.16278E-02
 -1      4019 2.65056E-02
 -1      4020 2.13020E-02
 -1      4021 2.80070E-02
 -1      4022 1.77535E-02
 -1      4023 1.46047E-02
 -1      4024 1.96166E-02
 -1      4025 1.23165E-02
 -1      4026 1.03777E-02
 -1      4027 1.37798E-02
 -1      4028 9.23662E-03
 -1      4029 7.82057E-03
 -1      4030 1.03506E-02
 -1      4031 6.69374E-03
 -1      4032 5.63433E-03
 -1      4033 8.08268E-03
 -1      4034 4.65421E-03
 -1      4035 3.88060E-03
 -1      4036 5.97574E-03
 -1      4037 3.08943E-03
 -1      4038 2.53564E-03
 -1      4039 4.20444E-03
 -1      4040 1.93001E-03
 -1      4041 1.54550E-03
 -1      4042 2.80763E-03
 -1      4043 1.10172E-03
 -1      4044 9.06802E-04
 -1      4045 1.75821E-03
 -1      4046 5.94693E-04
 -1      4047 6.63029E-04
 -1      4048 1.00232E-03
 -1      4049 5.28227E-04
 -1      4050 5.47992E-04
 -1      4051 5.55412E-04
 -1      4052 5.75004E-04
 -1      4053 5.64764E-04
 -1      4054 4.47621E-04
 -1      4055 5.65310E-04
 -1      4056 5.37916E-04
 -1      4057 4.75178E-04
 -1      4058 5.22635E-04
 -1      4059 4.86783E-04
 -1      4060 4.60444E-04
 -1      4061 4.63042E-04
 -1      4062 4.24438E-04
 -1      4063 4.21423E-04
 -1      4064 4.06644E-04
 -1      4065 3.71457E-04
 -1      4066 3.79888E-04
 -1      4067 3.50691E-04
 -1      4068 3.19856E-04
 -1      4069 3.41329E-04
 -1      4070 2.93385E-04
 -1      4071 2.64377E-04
 -1      4072 2.94092E-04
 -1      4073 2.46309E-04
 -1      4074 2.37665E-04
 -1      4075 2.43118E-04
 -1      4076 2.49553E-04
 -1      4077 2.27783E-01
 -1      4078 2.63089E-01
 -1      4079 1.68649E-02
 -1      4080 1.98060E-02
 -1      4081 7.26821E-01
 -1      4082 5.60281E-01
 -1      4083 2.53876E+00
 -1      4084 2.53876E+00
 -1      4085 2.15532E+00
 -1      4086 5.90741E-02
 -1      4087 6.80355E-02
 -1      4088 1.13969E-02
 -1      4089 1.36285E-02
 -1      4090 1.59923E-02
 -1      4091 8.00797E-03
 -1      4092 9.66407E-03
 -1      4093 1.10231E-02
 -1      4094 5.75915E-03
 -1      4095 6.84078E-03
 -1      4096 8.12303E-03
 -1      4097 4.14148E-03
 -1      4098 4.77903E-03
 -1      4099 5.97574E-03
 -1      4100 2.84310E-03
 -1      4101 3.35030E-03
 -1      4102 4.20444E-03
 -1      4103 1.84419E-03
 -1      4104 2.23747E-03
 -1      4105 2.80763E-03
 -1      4106 1.10758E-03
 -1      4107 1.40041E-03
 -1      4108 1.75821E-03
 -1      4109 6.72766E-04
 -1      4110 8.31115E-04
 -1      4111 1.03797E-03
 -1      4112 5.20080E-04
 -1      4113 5.44585E-04
 -1      4114 6.33328E-04
 -1      4115 5.06882E-04
 -1      4116 4.86970E-04
 -1      4117 4.72038E-04
 -1      4118 5.10138E-04
 -1      4119 5.16228E-04
 -1      4120 4.48276E-04
 -1      4121 4.79921E-04
 -1      4122 5.01510E-04
 -1      4123 4.48994E-04
 -1      4124 4.31215E-04
 -1      4125 4.60886E-04
 -1      4126 4.21331E-04
 -1      4127 3.79786E-04
 -1      4128 4.11115E-04
 -1      4129 3.82195E-04
 -1      4130 3.29553E-04
 -1      4131 3.59020E-04
 -1      4132 3.41329E-04
 -1      4133 2.76745E-04
 -1      4134 3.05261E-04
 -1      4135 2.96271E-04
 -1      4136 2.28484E-04
 -1      4137 2.54974E-04
 -1      4138 2.50208E-04
 -1      4139 2.00267E-04
 -1      4140 2.18497E-04
 -1      4141 2.18451E-04
 -1      4142 9.14124E-02
 -1      4143 1.05874E-01
 -1      4144 1.02415E-01
 -1      4145 2.59027E-02
 -1      4146 2.96756E-02
 -1      4147 2.53254E-02
 -1      4148 4.15486E-01
 -1      4149 4.76874E-01
 -1      4150 3.46359E-01
 -1      4151 1.19414E+00
 -1      4152 8.96577E-01
 -1      4153 7.30036E-01
 -1      4154 5.20352E-01
 -1      4155 4.13540E-01
 -1      4156 5.20352E-01
 -1      4157 2.10706E+00
 -1      4158 1.04716E+00
 -1      4159 1.16007E+00
 -1      4160 1.04988E+00
 -1      4161 9.45210E-02
 -1      4162 1.18165E-01
 -1      4163 2.12704E-01
 -1      4164 1.14438E-01
 -1      4165 3.91679E-02
 -1      4166 4.47584E-02
 -1      4167 6.47223E-02
 -1      4168 3.81480E-01
 -1      4169 3.11322E-01
 -1      4170 4.48364E-01
 -1      4171 1.27840E+00
 -1      4172 1.50280E+00
 -1      4173 2.01884E+00
 -1      4174 1.65606E+00
 -1      4175 3.48365E-01
 -1      4176 1.53749E+00
 -1      4177 1.81255E+00
 -1      4178 1.65293E-04
 -1      4179 1.68707E-04
 -1      4180 2.08464E-04
 -1      4181 2.08464E-04
 -1      4182 5.28572E-01
 -1      4183 6.03164E-01
 -1      4184 3.42140E-01
 -1      4185 3.87436E-01
 -1      4186 4.01373E-01
 -1      4187 1.66819E+00
 -1      4188 1.67834E+00
 -1      4189 3.38076E-01
 -1      4190 4.09143E-02
 -1      4191 1.81255E+00
 -1      4192 1.81157E+00
 -1      4193 1.48848E+00
 -1      4194 1.19414E+00
 -1      4195 1.83223E+00
 -1      4196 1.38382E+00
 -1      4197 2.08534E-01
 -1      4198 1.41506E-01
 -1      4199 1.25792E-01
 -1      4200 1.07845E-01
 -1      4201 8.44686E-02
 -1      4202 6.47223E-02
 -1      4203 5.04066E-02
 -1      4204 4.16278E-02
 -1      4205 3.21355E-02
 -1      4206 2.72936E-02
 -1      4207 2.11969E-02
 -1      4208 1.76483E-02
 -1      4209 1.44120E-02
 -1      4210 1.21238E-02
 -1      4211 1.03909E-02
 -1      4212 9.24986E-03
 -1      4213 8.08268E-03
 -1      4214 6.95585E-03
 -1      4215 5.97574E-03
 -1      4216 4.99562E-03
 -1      4217 4.20444E-03
 -1      4218 3.41326E-03
 -1      4219 2.80763E-03
 -1      4220 2.20199E-03
 -1      4221 1.75821E-03
 -1      4222 1.31443E-03
 -1      4223 1.03797E-03
 -1      4224 7.25862E-04
 -1      4225 5.97681E-04
 -1      4226 4.62878E-04
 -1      4227 4.29769E-04
 -1      4228 4.56781E-04
 -1      4229 4.66127E-04
 -1      4230 4.66673E-04
 -1      4231 4.58046E-04
 -1      4232 4.42765E-04
 -1      4233 4.23729E-04
 -1      4234 3.99989E-04
 -1      4235 3.79888E-04
 -1      4236 3.62095E-04
 -1      4237 3.41329E-04
 -1      4238 3.20564E-04
 -1      4239 2.96271E-04
 -1      4240 2.69800E-04
 -1      4241 3.41261E-01
 -1      4242 3.95178E-01
 -1      4243 5.21468E-01
 -1      4244 3.69313E-01
 -1      4245 2.91085E-01
 -1      4246 2.25638E-04
 -1      4247 1.59323E-04
 -1      4248 2.48029E-04
 -1      4249 7.79979E-01
 -1      4250 7.28281E-01
 -1      4251 7.03099E-01
 -1      4252 8.28216E-01
 -1      4253 8.45511E-01
 -1      4254 2.25638E-04
 -1      4255 5.20352E-01
 -1      4256 4.80423E-01
 -1      4257 2.08720E+00
 -1      4258 1.73693E+00
 -1      4259 2.08464E-04
 -1      4260 9.61032E-01
 -1      4261 1.22498E+00
 -1      4262 4.80423E-01
 -1      4263 4.48364E-01
 -1      4264 2.02494E-04
 -1      4265 1.02062E+00
 -1      4266 1.59165E+00
 -1      4267 1.41210E+00
 -1      4268 1.11991E+00
 -1      4269 8.25563E-01
 -1      4270 2.39771E-01
 -1      4271 2.22217E-04
 -1      4272 1.93104E-04
 -1      4273 4.34249E-01
 -1      4274 1.99299E-04
 -1      4275 2.18892E-04
 -1      4276 1.66819E+00
 -1      4277 6.41569E-01
 -1      4278 7.15797E-01
 -1      4279 5.46042E-01
 -1      4280 5.93332E-01
 -1      4281 4.59938E-01
 -1      4282 1.99074E-04
 -1      4283 2.09061E-04
 -1      4284 5.06113E-01
 -1      4285 1.41506E-01
 -1      4286 1.45911E+00
 -1      4287 1.99326E+00
 -1      4288 1.99074E-04
 -1      4289 1.02062E+00
 -1      4290 1.54054E+00
 -1      4291 1.30153E-01
 -1      4292 1.19679E+00
 -1      4293 2.12456E-04
 -1      4294 1.79923E-04
 -1      4295 2.00823E-04
 -1      4296 4.80423E-01
 -1      4297 4.34249E-01
 -1      4298 1.42368E+00
 -1      4299 9.05096E-01
 -1      4300 8.28216E-01
 -3
 9999
