    1C
    1UUSER                                                              
    1UDATE              26.october.2022                                 
    1UTIME              23:46:56                                        
    1UHOST                                                              
    1UPGM               CalculiX                                        
    1UVERSION           Version 2.17                             
    1UCOMPILETIME       Thu Jul 23 21:43:50 CEST 2020                    
    1UDIR                                                               
    1UDBN                                                               
    1UMAT    1SOLIDMATERIAL                                             
    2C                          4389                                     1
 -1         1 5.72511E+01 3.46580E+01 0.00000E+00
 -1         2 6.43740E+01 2.76591E+01 0.00000E+00
 -1         3 1.50000E+02 0.00000E+00 0.00000E+00
 -1         4 1.50000E+02 5.00000E+01 0.00000E+00
 -1         5 0.00000E+00 0.00000E+00 0.00000E+00
 -1         6 0.00000E+00 5.00000E+01 0.00000E+00
 -1         7 0.00000E+00 4.70500E+01 0.00000E+00
 -1         8 0.00000E+00 4.41000E+01 0.00000E+00
 -1         9 0.00000E+00 4.11500E+01 0.00000E+00
 -1        10 0.00000E+00 3.82000E+01 0.00000E+00
 -1        11 0.00000E+00 3.52500E+01 0.00000E+00
 -1        12 0.00000E+00 3.23500E+01 0.00000E+00
 -1        13 0.00000E+00 2.94000E+01 0.00000E+00
 -1        14 0.00000E+00 2.64500E+01 0.00000E+00
 -1        15 0.00000E+00 2.35000E+01 0.00000E+00
 -1        16 0.00000E+00 2.05500E+01 0.00000E+00
 -1        17 0.00000E+00 1.76000E+01 0.00000E+00
 -1        18 0.00000E+00 1.47000E+01 0.00000E+00
 -1        19 0.00000E+00 1.17500E+01 0.00000E+00
 -1        20 0.00000E+00 8.80000E+00 0.00000E+00
 -1        21 0.00000E+00 5.85000E+00 0.00000E+00
 -1        22 0.00000E+00 2.90000E+00 0.00000E+00
 -1        23 3.15000E+00 5.00000E+01 0.00000E+00
 -1        24 6.15000E+00 5.00000E+01 0.00000E+00
 -1        25 9.15000E+00 5.00000E+01 0.00000E+00
 -1        26 1.21500E+01 5.00000E+01 0.00000E+00
 -1        27 1.51500E+01 5.00000E+01 0.00000E+00
 -1        28 1.81500E+01 5.00000E+01 0.00000E+00
 -1        29 2.11500E+01 5.00000E+01 0.00000E+00
 -1        30 2.41500E+01 5.00000E+01 0.00000E+00
 -1        31 2.71500E+01 5.00000E+01 0.00000E+00
 -1        32 3.01500E+01 5.00000E+01 0.00000E+00
 -1        33 3.31500E+01 5.00000E+01 0.00000E+00
 -1        34 3.61500E+01 5.00000E+01 0.00000E+00
 -1        35 3.91500E+01 5.00000E+01 0.00000E+00
 -1        36 4.21500E+01 5.00000E+01 0.00000E+00
 -1        37 4.51500E+01 5.00000E+01 0.00000E+00
 -1        38 4.81500E+01 5.00000E+01 0.00000E+00
 -1        39 5.11500E+01 5.00000E+01 0.00000E+00
 -1        40 5.41500E+01 5.00000E+01 0.00000E+00
 -1        41 5.71500E+01 5.00000E+01 0.00000E+00
 -1        42 6.01500E+01 5.00000E+01 0.00000E+00
 -1        43 6.31500E+01 5.00000E+01 0.00000E+00
 -1        44 6.61500E+01 5.00000E+01 0.00000E+00
 -1        45 6.91500E+01 5.00000E+01 0.00000E+00
 -1        46 7.21500E+01 5.00000E+01 0.00000E+00
 -1        47 7.51500E+01 5.00000E+01 0.00000E+00
 -1        48 7.81500E+01 5.00000E+01 0.00000E+00
 -1        49 8.11500E+01 5.00000E+01 0.00000E+00
 -1        50 8.41500E+01 5.00000E+01 0.00000E+00
 -1        51 8.71500E+01 5.00000E+01 0.00000E+00
 -1        52 9.01500E+01 5.00000E+01 0.00000E+00
 -1        53 9.31500E+01 5.00000E+01 0.00000E+00
 -1        54 9.61500E+01 5.00000E+01 0.00000E+00
 -1        55 9.91500E+01 5.00000E+01 0.00000E+00
 -1        56 1.02150E+02 5.00000E+01 0.00000E+00
 -1        57 1.05150E+02 5.00000E+01 0.00000E+00
 -1        58 1.08150E+02 5.00000E+01 0.00000E+00
 -1        59 1.11150E+02 5.00000E+01 0.00000E+00
 -1        60 1.14150E+02 5.00000E+01 0.00000E+00
 -1        61 1.17150E+02 5.00000E+01 0.00000E+00
 -1        62 1.20150E+02 5.00000E+01 0.00000E+00
 -1        63 1.23150E+02 5.00000E+01 0.00000E+00
 -1        64 1.26150E+02 5.00000E+01 0.00000E+00
 -1        65 1.29150E+02 5.00000E+01 0.00000E+00
 -1        66 1.32150E+02 5.00000E+01 0.00000E+00
 -1        67 1.35150E+02 5.00000E+01 0.00000E+00
 -1        68 1.38150E+02 5.00000E+01 0.00000E+00
 -1        69 1.41150E+02 5.00000E+01 0.00000E+00
 -1        70 1.44150E+02 5.00000E+01 0.00000E+00
 -1        71 1.47150E+02 5.00000E+01 0.00000E+00
 -1        72 3.15000E+00 0.00000E+00 0.00000E+00
 -1        73 6.15000E+00 0.00000E+00 0.00000E+00
 -1        74 9.15000E+00 0.00000E+00 0.00000E+00
 -1        75 1.21500E+01 0.00000E+00 0.00000E+00
 -1        76 1.51500E+01 0.00000E+00 0.00000E+00
 -1        77 1.81500E+01 0.00000E+00 0.00000E+00
 -1        78 2.11500E+01 0.00000E+00 0.00000E+00
 -1        79 2.41500E+01 0.00000E+00 0.00000E+00
 -1        80 2.71500E+01 0.00000E+00 0.00000E+00
 -1        81 3.01500E+01 0.00000E+00 0.00000E+00
 -1        82 3.31500E+01 0.00000E+00 0.00000E+00
 -1        83 3.61500E+01 0.00000E+00 0.00000E+00
 -1        84 3.91500E+01 0.00000E+00 0.00000E+00
 -1        85 4.21500E+01 0.00000E+00 0.00000E+00
 -1        86 4.51500E+01 0.00000E+00 0.00000E+00
 -1        87 4.81500E+01 0.00000E+00 0.00000E+00
 -1        88 5.11500E+01 0.00000E+00 0.00000E+00
 -1        89 5.41500E+01 0.00000E+00 0.00000E+00
 -1        90 5.71500E+01 0.00000E+00 0.00000E+00
 -1        91 6.01500E+01 0.00000E+00 0.00000E+00
 -1        92 6.31500E+01 0.00000E+00 0.00000E+00
 -1        93 6.61500E+01 0.00000E+00 0.00000E+00
 -1        94 6.91500E+01 0.00000E+00 0.00000E+00
 -1        95 7.21500E+01 0.00000E+00 0.00000E+00
 -1        96 7.51500E+01 0.00000E+00 0.00000E+00
 -1        97 7.81500E+01 0.00000E+00 0.00000E+00
 -1        98 8.11500E+01 0.00000E+00 0.00000E+00
 -1        99 8.41500E+01 0.00000E+00 0.00000E+00
 -1       100 8.71500E+01 0.00000E+00 0.00000E+00
 -1       101 9.01500E+01 0.00000E+00 0.00000E+00
 -1       102 9.31500E+01 0.00000E+00 0.00000E+00
 -1       103 9.61500E+01 0.00000E+00 0.00000E+00
 -1       104 9.91500E+01 0.00000E+00 0.00000E+00
 -1       105 1.02150E+02 0.00000E+00 0.00000E+00
 -1       106 1.05150E+02 0.00000E+00 0.00000E+00
 -1       107 1.08150E+02 0.00000E+00 0.00000E+00
 -1       108 1.11150E+02 0.00000E+00 0.00000E+00
 -1       109 1.14150E+02 0.00000E+00 0.00000E+00
 -1       110 1.17150E+02 0.00000E+00 0.00000E+00
 -1       111 1.20150E+02 0.00000E+00 0.00000E+00
 -1       112 1.23150E+02 0.00000E+00 0.00000E+00
 -1       113 1.26150E+02 0.00000E+00 0.00000E+00
 -1       114 1.29150E+02 0.00000E+00 0.00000E+00
 -1       115 1.32150E+02 0.00000E+00 0.00000E+00
 -1       116 1.35150E+02 0.00000E+00 0.00000E+00
 -1       117 1.38150E+02 0.00000E+00 0.00000E+00
 -1       118 1.41150E+02 0.00000E+00 0.00000E+00
 -1       119 1.44150E+02 0.00000E+00 0.00000E+00
 -1       120 1.47150E+02 0.00000E+00 0.00000E+00
 -1       121 1.50000E+02 2.95000E+00 0.00000E+00
 -1       122 1.50000E+02 5.90000E+00 0.00000E+00
 -1       123 1.50000E+02 8.85000E+00 0.00000E+00
 -1       124 1.50000E+02 1.18000E+01 0.00000E+00
 -1       125 1.50000E+02 1.47500E+01 0.00000E+00
 -1       126 1.50000E+02 1.76500E+01 0.00000E+00
 -1       127 1.50000E+02 2.06000E+01 0.00000E+00
 -1       128 1.50000E+02 2.35500E+01 0.00000E+00
 -1       129 1.50000E+02 2.65000E+01 0.00000E+00
 -1       130 1.50000E+02 2.94500E+01 0.00000E+00
 -1       131 1.50000E+02 3.24000E+01 0.00000E+00
 -1       132 1.50000E+02 3.53000E+01 0.00000E+00
 -1       133 1.50000E+02 3.82500E+01 0.00000E+00
 -1       134 1.50000E+02 4.12000E+01 0.00000E+00
 -1       135 1.50000E+02 4.41500E+01 0.00000E+00
 -1       136 1.50000E+02 4.71000E+01 0.00000E+00
 -1       137 6.42125E+01 2.61641E+01 0.00000E+00
 -1       138 6.37207E+01 2.47062E+01 0.00000E+00
 -1       139 6.29725E+01 2.34571E+01 0.00000E+00
 -1       140 6.18859E+01 2.23072E+01 0.00000E+00
 -1       141 6.06776E+01 2.14877E+01 0.00000E+00
 -1       142 5.91102E+01 2.08778E+01 0.00000E+00
 -1       143 5.76704E+01 2.06654E+01 0.00000E+00
 -1       144 5.60510E+01 2.07853E+01 0.00000E+00
 -1       145 5.45593E+01 2.12500E+01 0.00000E+00
 -1       146 5.32046E+01 2.20363E+01 0.00000E+00
 -1       147 5.19871E+01 2.31891E+01 0.00000E+00
 -1       148 5.10894E+01 2.45764E+01 0.00000E+00
 -1       149 5.05942E+01 2.59175E+01 0.00000E+00
 -1       150 5.03754E+01 2.75226E+01 0.00000E+00
 -1       151 5.05131E+01 2.90474E+01 0.00000E+00
 -1       152 5.09807E+01 3.05096E+01 0.00000E+00
 -1       153 5.17795E+01 3.18664E+01 0.00000E+00
 -1       154 5.28936E+01 3.30373E+01 0.00000E+00
 -1       155 5.41103E+01 3.38517E+01 0.00000E+00
 -1       156 5.57251E+01 3.44621E+01 0.00000E+00
 -1       157 5.86245E+01 3.45465E+01 0.00000E+00
 -1       158 6.00621E+01 3.41224E+01 0.00000E+00
 -1       159 6.12918E+01 3.34600E+01 0.00000E+00
 -1       160 6.23337E+01 3.25990E+01 0.00000E+00
 -1       161 6.31921E+01 3.15514E+01 0.00000E+00
 -1       162 6.38451E+01 3.03285E+01 0.00000E+00
 -1       163 6.42458E+01 2.89930E+01 0.00000E+00
 -1       164 2.59800E+00 4.55750E+01 0.00000E+00
 -1       165 2.59800E+00 4.26250E+01 0.00000E+00
 -1       166 2.59800E+00 3.96750E+01 0.00000E+00
 -1       167 2.59800E+00 3.67250E+01 0.00000E+00
 -1       168 2.59800E+00 3.38250E+01 0.00000E+00
 -1       169 2.59800E+00 3.08750E+01 0.00000E+00
 -1       170 2.59800E+00 2.79250E+01 0.00000E+00
 -1       171 2.59800E+00 2.49750E+01 0.00000E+00
 -1       172 2.59800E+00 2.20250E+01 0.00000E+00
 -1       173 2.59800E+00 1.90750E+01 0.00000E+00
 -1       174 2.59800E+00 1.61750E+01 0.00000E+00
 -1       175 2.59800E+00 1.32250E+01 0.00000E+00
 -1       176 2.59800E+00 1.02750E+01 0.00000E+00
 -1       177 2.59800E+00 7.32500E+00 0.00000E+00
 -1       178 2.59800E+00 4.37500E+00 0.00000E+00
 -1       179 2.87400E+00 2.18750E+00 0.00000E+00
 -1       180 4.65000E+00 4.74020E+01 0.00000E+00
 -1       181 7.65000E+00 4.74020E+01 0.00000E+00
 -1       182 1.06500E+01 4.74020E+01 0.00000E+00
 -1       183 1.36500E+01 4.74020E+01 0.00000E+00
 -1       184 1.66500E+01 4.74020E+01 0.00000E+00
 -1       185 1.96500E+01 4.74020E+01 0.00000E+00
 -1       186 2.26500E+01 4.74020E+01 0.00000E+00
 -1       187 2.56500E+01 4.74020E+01 0.00000E+00
 -1       188 2.86500E+01 4.74020E+01 0.00000E+00
 -1       189 3.16500E+01 4.74020E+01 0.00000E+00
 -1       190 3.46500E+01 4.74020E+01 0.00000E+00
 -1       191 3.76500E+01 4.74020E+01 0.00000E+00
 -1       192 4.06500E+01 4.74020E+01 0.00000E+00
 -1       193 4.36500E+01 4.74020E+01 0.00000E+00
 -1       194 4.66500E+01 4.74020E+01 0.00000E+00
 -1       195 4.96500E+01 4.74020E+01 0.00000E+00
 -1       196 5.26500E+01 4.74020E+01 0.00000E+00
 -1       197 5.56500E+01 4.74020E+01 0.00000E+00
 -1       198 5.86500E+01 4.74020E+01 0.00000E+00
 -1       199 6.16500E+01 4.74020E+01 0.00000E+00
 -1       200 6.46500E+01 4.74020E+01 0.00000E+00
 -1       201 6.76500E+01 4.74020E+01 0.00000E+00
 -1       202 7.06500E+01 4.74020E+01 0.00000E+00
 -1       203 7.36500E+01 4.74020E+01 0.00000E+00
 -1       204 7.66500E+01 4.74020E+01 0.00000E+00
 -1       205 7.96500E+01 4.74020E+01 0.00000E+00
 -1       206 8.26500E+01 4.74020E+01 0.00000E+00
 -1       207 8.56500E+01 4.74020E+01 0.00000E+00
 -1       208 8.86500E+01 4.74020E+01 0.00000E+00
 -1       209 9.16500E+01 4.74020E+01 0.00000E+00
 -1       210 9.46500E+01 4.74020E+01 0.00000E+00
 -1       211 9.76500E+01 4.74020E+01 0.00000E+00
 -1       212 1.00650E+02 4.74020E+01 0.00000E+00
 -1       213 1.03650E+02 4.74020E+01 0.00000E+00
 -1       214 1.06650E+02 4.74020E+01 0.00000E+00
 -1       215 1.09650E+02 4.74020E+01 0.00000E+00
 -1       216 1.12650E+02 4.74020E+01 0.00000E+00
 -1       217 1.15650E+02 4.74020E+01 0.00000E+00
 -1       218 1.18650E+02 4.74020E+01 0.00000E+00
 -1       219 1.21650E+02 4.74020E+01 0.00000E+00
 -1       220 1.24650E+02 4.74020E+01 0.00000E+00
 -1       221 1.27650E+02 4.74020E+01 0.00000E+00
 -1       222 1.30650E+02 4.74020E+01 0.00000E+00
 -1       223 1.33650E+02 4.74020E+01 0.00000E+00
 -1       224 1.36650E+02 4.74020E+01 0.00000E+00
 -1       225 1.39650E+02 4.74020E+01 0.00000E+00
 -1       226 1.42650E+02 4.74020E+01 0.00000E+00
 -1       227 1.45650E+02 4.74020E+01 0.00000E+00
 -1       228 5.87400E+00 2.18750E+00 0.00000E+00
 -1       229 8.87400E+00 2.18750E+00 0.00000E+00
 -1       230 1.18740E+01 2.18750E+00 0.00000E+00
 -1       231 1.48740E+01 2.18750E+00 0.00000E+00
 -1       232 1.78740E+01 2.18750E+00 0.00000E+00
 -1       233 2.08740E+01 2.18750E+00 0.00000E+00
 -1       234 2.38740E+01 2.18750E+00 0.00000E+00
 -1       235 2.68740E+01 2.18750E+00 0.00000E+00
 -1       236 2.98740E+01 2.18750E+00 0.00000E+00
 -1       237 3.28740E+01 2.18750E+00 0.00000E+00
 -1       238 3.58740E+01 2.18750E+00 0.00000E+00
 -1       239 3.88740E+01 2.18750E+00 0.00000E+00
 -1       240 4.18740E+01 2.18750E+00 0.00000E+00
 -1       241 4.48740E+01 2.18750E+00 0.00000E+00
 -1       242 4.78740E+01 2.18750E+00 0.00000E+00
 -1       243 5.08740E+01 2.18750E+00 0.00000E+00
 -1       244 5.38740E+01 2.18750E+00 0.00000E+00
 -1       245 5.68740E+01 2.18750E+00 0.00000E+00
 -1       246 5.98740E+01 2.18750E+00 0.00000E+00
 -1       247 6.28740E+01 2.18750E+00 0.00000E+00
 -1       248 6.58740E+01 2.18750E+00 0.00000E+00
 -1       249 6.88740E+01 2.18750E+00 0.00000E+00
 -1       250 7.18740E+01 2.18750E+00 0.00000E+00
 -1       251 7.48740E+01 2.18750E+00 0.00000E+00
 -1       252 7.78740E+01 2.18750E+00 0.00000E+00
 -1       253 8.08740E+01 2.18750E+00 0.00000E+00
 -1       254 8.38740E+01 2.18750E+00 0.00000E+00
 -1       255 8.68740E+01 2.18750E+00 0.00000E+00
 -1       256 8.98740E+01 2.18750E+00 0.00000E+00
 -1       257 9.28740E+01 2.18750E+00 0.00000E+00
 -1       258 9.58740E+01 2.18750E+00 0.00000E+00
 -1       259 9.88740E+01 2.18750E+00 0.00000E+00
 -1       260 1.01874E+02 2.18750E+00 0.00000E+00
 -1       261 1.04874E+02 2.18750E+00 0.00000E+00
 -1       262 1.07874E+02 2.18750E+00 0.00000E+00
 -1       263 1.10874E+02 2.18750E+00 0.00000E+00
 -1       264 1.13874E+02 2.18750E+00 0.00000E+00
 -1       265 1.16874E+02 2.18750E+00 0.00000E+00
 -1       266 1.19874E+02 2.18750E+00 0.00000E+00
 -1       267 1.22874E+02 2.18750E+00 0.00000E+00
 -1       268 1.25874E+02 2.18750E+00 0.00000E+00
 -1       269 1.28874E+02 2.18750E+00 0.00000E+00
 -1       270 1.31874E+02 2.18750E+00 0.00000E+00
 -1       271 1.34874E+02 2.18750E+00 0.00000E+00
 -1       272 1.37874E+02 2.18750E+00 0.00000E+00
 -1       273 1.40874E+02 2.18750E+00 0.00000E+00
 -1       274 1.43874E+02 2.18750E+00 0.00000E+00
 -1       275 1.46874E+02 2.18750E+00 0.00000E+00
 -1       276 1.47402E+02 4.42500E+00 0.00000E+00
 -1       277 1.47402E+02 7.37500E+00 0.00000E+00
 -1       278 1.47402E+02 1.03250E+01 0.00000E+00
 -1       279 1.47402E+02 1.32750E+01 0.00000E+00
 -1       280 1.47402E+02 1.61750E+01 0.00000E+00
 -1       281 1.47402E+02 1.91250E+01 0.00000E+00
 -1       282 1.47402E+02 2.20750E+01 0.00000E+00
 -1       283 1.47402E+02 2.50250E+01 0.00000E+00
 -1       284 1.47402E+02 2.79750E+01 0.00000E+00
 -1       285 1.47402E+02 3.09250E+01 0.00000E+00
 -1       286 1.47402E+02 3.38250E+01 0.00000E+00
 -1       287 1.47402E+02 3.67750E+01 0.00000E+00
 -1       288 1.47402E+02 3.97250E+01 0.00000E+00
 -1       289 1.47402E+02 4.26750E+01 0.00000E+00
 -1       290 1.46526E+02 4.50385E+01 0.00000E+00
 -1       291 6.55820E+01 2.67724E+01 0.00000E+00
 -1       292 6.51948E+01 2.50208E+01 0.00000E+00
 -1       293 6.43867E+01 2.34586E+01 0.00000E+00
 -1       294 6.33713E+01 2.19919E+01 0.00000E+00
 -1       295 6.20093E+01 2.08247E+01 0.00000E+00
 -1       296 6.04550E+01 1.97405E+01 0.00000E+00
 -1       297 5.85672E+01 1.95722E+01 0.00000E+00
 -1       298 5.67588E+01 1.93491E+01 0.00000E+00
 -1       299 5.48698E+01 1.96201E+01 0.00000E+00
 -1       300 5.31891E+01 2.04497E+01 0.00000E+00
 -1       301 5.15319E+01 2.14890E+01 0.00000E+00
 -1       302 5.03093E+01 2.30875E+01 0.00000E+00
 -1       303 4.97044E+01 2.48270E+01 0.00000E+00
 -1       304 4.89514E+01 2.65111E+01 0.00000E+00
 -1       305 4.91533E+01 2.84016E+01 0.00000E+00
 -1       306 4.95921E+01 3.01478E+01 0.00000E+00
 -1       307 5.03353E+01 3.18031E+01 0.00000E+00
 -1       308 5.13368E+01 3.34031E+01 0.00000E+00
 -1       309 5.28276E+01 3.44521E+01 0.00000E+00
 -1       310 5.44001E+01 3.55261E+01 0.00000E+00
 -1       311 5.63231E+01 3.58457E+01 0.00000E+00
 -1       312 5.80360E+01 3.58107E+01 0.00000E+00
 -1       313 5.97338E+01 3.56580E+01 0.00000E+00
 -1       314 6.12916E+01 3.49324E+01 0.00000E+00
 -1       315 6.25852E+01 3.39640E+01 0.00000E+00
 -1       316 6.37007E+01 3.28436E+01 0.00000E+00
 -1       317 6.45881E+01 3.15110E+01 0.00000E+00
 -1       318 6.52067E+01 3.00092E+01 0.00000E+00
 -1       319 6.55167E+01 2.84421E+01 0.00000E+00
 -1       320 5.19600E+00 4.11500E+01 0.00000E+00
 -1       321 5.19600E+00 4.41000E+01 0.00000E+00
 -1       322 5.19600E+00 3.52750E+01 0.00000E+00
 -1       323 5.19600E+00 3.23250E+01 0.00000E+00
 -1       324 5.19600E+00 2.93750E+01 0.00000E+00
 -1       325 5.19600E+00 2.64250E+01 0.00000E+00
 -1       326 5.19600E+00 2.34750E+01 0.00000E+00
 -1       327 5.19600E+00 2.05250E+01 0.00000E+00
 -1       328 5.19600E+00 1.76250E+01 0.00000E+00
 -1       329 5.19600E+00 1.46750E+01 0.00000E+00
 -1       330 5.19600E+00 1.17250E+01 0.00000E+00
 -1       331 5.19600E+00 8.77500E+00 0.00000E+00
 -1       332 5.19600E+00 5.82500E+00 0.00000E+00
 -1       333 5.53500E+00 4.00625E+00 0.00000E+00
 -1       334 8.53500E+00 4.00625E+00 0.00000E+00
 -1       335 9.15000E+00 4.48040E+01 0.00000E+00
 -1       336 1.21500E+01 4.48040E+01 0.00000E+00
 -1       337 1.51500E+01 4.48040E+01 0.00000E+00
 -1       338 1.81500E+01 4.48040E+01 0.00000E+00
 -1       339 2.11500E+01 4.48040E+01 0.00000E+00
 -1       340 2.41500E+01 4.48040E+01 0.00000E+00
 -1       341 2.71500E+01 4.48040E+01 0.00000E+00
 -1       342 3.01500E+01 4.48040E+01 0.00000E+00
 -1       343 3.31500E+01 4.48040E+01 0.00000E+00
 -1       344 3.61500E+01 4.48040E+01 0.00000E+00
 -1       345 3.91500E+01 4.48040E+01 0.00000E+00
 -1       346 4.21500E+01 4.48040E+01 0.00000E+00
 -1       347 4.51500E+01 4.48040E+01 0.00000E+00
 -1       348 4.81500E+01 4.48040E+01 0.00000E+00
 -1       349 5.11500E+01 4.48040E+01 0.00000E+00
 -1       350 5.41500E+01 4.48040E+01 0.00000E+00
 -1       351 5.71500E+01 4.48040E+01 0.00000E+00
 -1       352 6.01500E+01 4.48040E+01 0.00000E+00
 -1       353 6.31500E+01 4.48040E+01 0.00000E+00
 -1       354 6.61500E+01 4.48040E+01 0.00000E+00
 -1       355 6.91500E+01 4.48040E+01 0.00000E+00
 -1       356 7.21500E+01 4.48040E+01 0.00000E+00
 -1       357 7.51500E+01 4.48040E+01 0.00000E+00
 -1       358 7.81500E+01 4.48040E+01 0.00000E+00
 -1       359 8.11500E+01 4.48040E+01 0.00000E+00
 -1       360 8.41500E+01 4.48040E+01 0.00000E+00
 -1       361 8.71500E+01 4.48040E+01 0.00000E+00
 -1       362 9.01500E+01 4.48040E+01 0.00000E+00
 -1       363 9.31500E+01 4.48040E+01 0.00000E+00
 -1       364 9.61500E+01 4.48040E+01 0.00000E+00
 -1       365 9.91500E+01 4.48040E+01 0.00000E+00
 -1       366 1.02150E+02 4.48040E+01 0.00000E+00
 -1       367 1.05150E+02 4.48040E+01 0.00000E+00
 -1       368 1.08150E+02 4.48040E+01 0.00000E+00
 -1       369 1.11150E+02 4.48040E+01 0.00000E+00
 -1       370 1.14150E+02 4.48040E+01 0.00000E+00
 -1       371 1.17150E+02 4.48040E+01 0.00000E+00
 -1       372 1.20150E+02 4.48040E+01 0.00000E+00
 -1       373 1.23150E+02 4.48040E+01 0.00000E+00
 -1       374 1.26150E+02 4.48040E+01 0.00000E+00
 -1       375 1.29150E+02 4.48040E+01 0.00000E+00
 -1       376 1.32150E+02 4.48040E+01 0.00000E+00
 -1       377 1.35150E+02 4.48040E+01 0.00000E+00
 -1       378 1.38150E+02 4.48040E+01 0.00000E+00
 -1       379 1.41150E+02 4.48040E+01 0.00000E+00
 -1       380 1.43838E+02 4.49212E+01 0.00000E+00
 -1       381 1.15350E+01 4.00625E+00 0.00000E+00
 -1       382 1.45350E+01 4.00625E+00 0.00000E+00
 -1       383 1.75350E+01 4.00625E+00 0.00000E+00
 -1       384 2.05350E+01 4.00625E+00 0.00000E+00
 -1       385 2.35350E+01 4.00625E+00 0.00000E+00
 -1       386 2.65350E+01 4.00625E+00 0.00000E+00
 -1       387 2.95350E+01 4.00625E+00 0.00000E+00
 -1       388 3.25350E+01 4.00625E+00 0.00000E+00
 -1       389 3.55350E+01 4.00625E+00 0.00000E+00
 -1       390 3.85350E+01 4.00625E+00 0.00000E+00
 -1       391 4.15350E+01 4.00625E+00 0.00000E+00
 -1       392 4.45350E+01 4.00625E+00 0.00000E+00
 -1       393 4.75350E+01 4.00625E+00 0.00000E+00
 -1       394 5.05350E+01 4.00625E+00 0.00000E+00
 -1       395 5.35350E+01 4.00625E+00 0.00000E+00
 -1       396 5.65350E+01 4.00625E+00 0.00000E+00
 -1       397 5.95350E+01 4.00625E+00 0.00000E+00
 -1       398 6.25350E+01 4.00625E+00 0.00000E+00
 -1       399 6.55350E+01 4.00625E+00 0.00000E+00
 -1       400 6.85350E+01 4.00625E+00 0.00000E+00
 -1       401 7.15350E+01 4.00625E+00 0.00000E+00
 -1       402 7.45350E+01 4.00625E+00 0.00000E+00
 -1       403 7.75350E+01 4.00625E+00 0.00000E+00
 -1       404 8.05350E+01 4.00625E+00 0.00000E+00
 -1       405 8.35350E+01 4.00625E+00 0.00000E+00
 -1       406 8.65350E+01 4.00625E+00 0.00000E+00
 -1       407 8.95350E+01 4.00625E+00 0.00000E+00
 -1       408 9.25350E+01 4.00625E+00 0.00000E+00
 -1       409 9.55350E+01 4.00625E+00 0.00000E+00
 -1       410 9.85350E+01 4.00625E+00 0.00000E+00
 -1       411 1.01535E+02 4.00625E+00 0.00000E+00
 -1       412 1.04535E+02 4.00625E+00 0.00000E+00
 -1       413 1.07535E+02 4.00625E+00 0.00000E+00
 -1       414 1.10535E+02 4.00625E+00 0.00000E+00
 -1       415 1.13535E+02 4.00625E+00 0.00000E+00
 -1       416 1.16535E+02 4.00625E+00 0.00000E+00
 -1       417 1.19535E+02 4.00625E+00 0.00000E+00
 -1       418 1.22535E+02 4.00625E+00 0.00000E+00
 -1       419 1.25535E+02 4.00625E+00 0.00000E+00
 -1       420 1.28535E+02 4.00625E+00 0.00000E+00
 -1       421 1.31535E+02 4.00625E+00 0.00000E+00
 -1       422 1.34535E+02 4.00625E+00 0.00000E+00
 -1       423 1.37535E+02 4.00625E+00 0.00000E+00
 -1       424 1.40535E+02 4.00625E+00 0.00000E+00
 -1       425 1.43535E+02 4.00625E+00 0.00000E+00
 -1       426 1.45469E+02 4.21562E+00 0.00000E+00
 -1       427 1.44804E+02 1.18000E+01 0.00000E+00
 -1       428 1.44804E+02 8.85000E+00 0.00000E+00
 -1       429 1.45136E+02 6.53281E+00 0.00000E+00
 -1       430 1.44804E+02 1.47000E+01 0.00000E+00
 -1       431 1.44804E+02 1.76500E+01 0.00000E+00
 -1       432 1.44804E+02 2.06000E+01 0.00000E+00
 -1       433 1.44804E+02 2.35500E+01 0.00000E+00
 -1       434 1.44804E+02 2.65000E+01 0.00000E+00
 -1       435 1.44804E+02 2.94500E+01 0.00000E+00
 -1       436 1.44804E+02 3.23500E+01 0.00000E+00
 -1       437 1.44804E+02 3.53000E+01 0.00000E+00
 -1       438 1.44804E+02 3.82500E+01 0.00000E+00
 -1       439 1.44804E+02 4.12000E+01 0.00000E+00
 -1       440 6.59420E+01 2.36442E+01 0.00000E+00
 -1       441 6.70120E+01 2.76644E+01 0.00000E+00
 -1       442 6.69813E+01 2.55445E+01 0.00000E+00
 -1       443 6.51514E+01 2.18444E+01 0.00000E+00
 -1       444 6.35883E+01 2.03604E+01 0.00000E+00
 -1       445 5.19600E+00 3.82125E+01 0.00000E+00
 -1       446 5.96560E+01 1.80315E+01 0.00000E+00
 -1       447 5.78476E+01 1.78084E+01 0.00000E+00
 -1       448 5.55945E+01 1.79527E+01 0.00000E+00
 -1       449 5.33445E+01 1.86472E+01 0.00000E+00
 -1       450 5.16872E+01 1.96865E+01 0.00000E+00
 -1       451 4.96248E+01 2.12973E+01 0.00000E+00
 -1       452 4.84661E+01 2.34214E+01 0.00000E+00
 -1       453 4.77131E+01 2.51055E+01 0.00000E+00
 -1       454 4.77635E+01 2.75939E+01 0.00000E+00
 -1       455 4.77093E+01 2.96927E+01 0.00000E+00
 -1       456 4.85520E+01 3.16093E+01 0.00000E+00
 -1       457 4.95953E+01 3.33797E+01 0.00000E+00
 -1       458 5.12399E+01 3.51247E+01 0.00000E+00
 -1       459 5.28124E+01 3.61987E+01 0.00000E+00
 -1       460 5.50804E+01 3.73778E+01 0.00000E+00
 -1       461 5.72146E+01 3.75429E+01 0.00000E+00
 -1       462 5.89124E+01 3.73903E+01 0.00000E+00
 -1       463 6.11661E+01 3.66980E+01 0.00000E+00
 -1       464 6.28658E+01 3.56870E+01 0.00000E+00
 -1       465 6.41208E+01 3.43775E+01 0.00000E+00
 -1       466 6.54324E+01 3.30351E+01 0.00000E+00
 -1       467 6.61734E+01 3.12857E+01 0.00000E+00
 -1       468 6.66332E+01 2.94772E+01 0.00000E+00
 -1       469 6.20696E+01 1.90821E+01 0.00000E+00
 -1       470 6.12706E+01 1.73730E+01 0.00000E+00
 -1       471 4.65252E+01 2.61884E+01 0.00000E+00
 -1       472 1.00350E+01 6.60425E+00 0.00000E+00
 -1       473 7.79400E+00 3.08500E+01 0.00000E+00
 -1       474 7.79400E+00 3.38000E+01 0.00000E+00
 -1       475 7.79400E+00 2.49500E+01 0.00000E+00
 -1       476 7.79400E+00 2.20000E+01 0.00000E+00
 -1       477 7.79400E+00 1.91000E+01 0.00000E+00
 -1       478 7.79400E+00 1.61500E+01 0.00000E+00
 -1       479 7.79400E+00 1.32000E+01 0.00000E+00
 -1       480 7.79400E+00 1.02500E+01 0.00000E+00
 -1       481 1.30350E+01 6.60425E+00 0.00000E+00
 -1       482 1.06500E+01 4.22060E+01 0.00000E+00
 -1       483 6.38255E+01 1.85373E+01 0.00000E+00
 -1       484 1.36500E+01 4.22060E+01 0.00000E+00
 -1       485 1.66500E+01 4.22060E+01 0.00000E+00
 -1       486 1.96500E+01 4.22060E+01 0.00000E+00
 -1       487 2.26500E+01 4.22060E+01 0.00000E+00
 -1       488 2.56500E+01 4.22060E+01 0.00000E+00
 -1       489 2.86500E+01 4.22060E+01 0.00000E+00
 -1       490 3.16500E+01 4.22060E+01 0.00000E+00
 -1       491 3.46500E+01 4.22060E+01 0.00000E+00
 -1       492 3.76500E+01 4.22060E+01 0.00000E+00
 -1       493 4.06500E+01 4.22060E+01 0.00000E+00
 -1       494 4.36500E+01 4.22060E+01 0.00000E+00
 -1       495 4.66500E+01 4.22060E+01 0.00000E+00
 -1       496 4.96500E+01 4.22060E+01 0.00000E+00
 -1       497 5.26500E+01 4.22060E+01 0.00000E+00
 -1       498 5.56500E+01 4.22060E+01 0.00000E+00
 -1       499 5.86500E+01 4.22060E+01 0.00000E+00
 -1       500 6.16500E+01 4.22060E+01 0.00000E+00
 -1       501 6.46500E+01 4.22060E+01 0.00000E+00
 -1       502 6.76500E+01 4.22060E+01 0.00000E+00
 -1       503 7.06500E+01 4.22060E+01 0.00000E+00
 -1       504 7.36500E+01 4.22060E+01 0.00000E+00
 -1       505 7.66500E+01 4.22060E+01 0.00000E+00
 -1       506 7.96500E+01 4.22060E+01 0.00000E+00
 -1       507 8.26500E+01 4.22060E+01 0.00000E+00
 -1       508 8.56500E+01 4.22060E+01 0.00000E+00
 -1       509 8.86500E+01 4.22060E+01 0.00000E+00
 -1       510 9.16500E+01 4.22060E+01 0.00000E+00
 -1       511 9.46500E+01 4.22060E+01 0.00000E+00
 -1       512 9.76500E+01 4.22060E+01 0.00000E+00
 -1       513 1.00650E+02 4.22060E+01 0.00000E+00
 -1       514 1.03650E+02 4.22060E+01 0.00000E+00
 -1       515 1.06650E+02 4.22060E+01 0.00000E+00
 -1       516 1.09650E+02 4.22060E+01 0.00000E+00
 -1       517 1.12650E+02 4.22060E+01 0.00000E+00
 -1       518 1.15650E+02 4.22060E+01 0.00000E+00
 -1       519 1.18650E+02 4.22060E+01 0.00000E+00
 -1       520 1.21650E+02 4.22060E+01 0.00000E+00
 -1       521 1.24650E+02 4.22060E+01 0.00000E+00
 -1       522 1.27650E+02 4.22060E+01 0.00000E+00
 -1       523 1.30650E+02 4.22060E+01 0.00000E+00
 -1       524 1.33650E+02 4.22060E+01 0.00000E+00
 -1       525 1.36650E+02 4.22060E+01 0.00000E+00
 -1       526 1.39650E+02 4.22060E+01 0.00000E+00
 -1       527 1.90350E+01 6.60425E+00 0.00000E+00
 -1       528 2.20350E+01 6.60425E+00 0.00000E+00
 -1       529 2.50350E+01 6.60425E+00 0.00000E+00
 -1       530 2.80350E+01 6.60425E+00 0.00000E+00
 -1       531 3.10350E+01 6.60425E+00 0.00000E+00
 -1       532 3.40350E+01 6.60425E+00 0.00000E+00
 -1       533 3.70350E+01 6.60425E+00 0.00000E+00
 -1       534 4.00350E+01 6.60425E+00 0.00000E+00
 -1       535 4.30350E+01 6.60425E+00 0.00000E+00
 -1       536 4.60350E+01 6.60425E+00 0.00000E+00
 -1       537 4.90350E+01 6.60425E+00 0.00000E+00
 -1       538 5.20350E+01 6.60425E+00 0.00000E+00
 -1       539 5.50350E+01 6.60425E+00 0.00000E+00
 -1       540 5.80350E+01 6.60425E+00 0.00000E+00
 -1       541 6.10350E+01 6.60425E+00 0.00000E+00
 -1       542 6.40350E+01 6.60425E+00 0.00000E+00
 -1       543 6.70350E+01 6.60425E+00 0.00000E+00
 -1       544 7.00350E+01 6.60425E+00 0.00000E+00
 -1       545 7.30350E+01 6.60425E+00 0.00000E+00
 -1       546 7.60350E+01 6.60425E+00 0.00000E+00
 -1       547 7.90350E+01 6.60425E+00 0.00000E+00
 -1       548 8.20350E+01 6.60425E+00 0.00000E+00
 -1       549 8.50350E+01 6.60425E+00 0.00000E+00
 -1       550 8.80350E+01 6.60425E+00 0.00000E+00
 -1       551 9.10350E+01 6.60425E+00 0.00000E+00
 -1       552 9.40350E+01 6.60425E+00 0.00000E+00
 -1       553 9.70350E+01 6.60425E+00 0.00000E+00
 -1       554 1.00035E+02 6.60425E+00 0.00000E+00
 -1       555 1.03035E+02 6.60425E+00 0.00000E+00
 -1       556 1.06035E+02 6.60425E+00 0.00000E+00
 -1       557 1.09035E+02 6.60425E+00 0.00000E+00
 -1       558 1.12035E+02 6.60425E+00 0.00000E+00
 -1       559 1.15035E+02 6.60425E+00 0.00000E+00
 -1       560 1.18035E+02 6.60425E+00 0.00000E+00
 -1       561 1.21035E+02 6.60425E+00 0.00000E+00
 -1       562 1.24035E+02 6.60425E+00 0.00000E+00
 -1       563 1.27035E+02 6.60425E+00 0.00000E+00
 -1       564 1.30035E+02 6.60425E+00 0.00000E+00
 -1       565 1.33035E+02 6.60425E+00 0.00000E+00
 -1       566 1.36035E+02 6.60425E+00 0.00000E+00
 -1       567 1.39035E+02 6.60425E+00 0.00000E+00
 -1       568 1.42035E+02 6.60425E+00 0.00000E+00
 -1       569 1.42206E+02 1.61750E+01 0.00000E+00
 -1       570 1.42206E+02 1.91250E+01 0.00000E+00
 -1       571 1.42206E+02 1.03250E+01 0.00000E+00
 -1       572 1.42206E+02 1.32500E+01 0.00000E+00
 -1       573 1.42206E+02 2.20750E+01 0.00000E+00
 -1       574 1.42206E+02 2.50250E+01 0.00000E+00
 -1       575 1.42206E+02 2.79750E+01 0.00000E+00
 -1       576 1.42206E+02 3.08750E+01 0.00000E+00
 -1       577 1.42206E+02 3.38250E+01 0.00000E+00
 -1       578 1.42206E+02 3.67750E+01 0.00000E+00
 -1       579 1.42206E+02 3.97250E+01 0.00000E+00
 -1       580 6.87116E+01 2.65796E+01 0.00000E+00
 -1       581 6.71170E+01 2.20545E+01 0.00000E+00
 -1       582 1.60350E+01 6.60425E+00 0.00000E+00
 -1       583 6.85015E+01 2.89216E+01 0.00000E+00
 -1       584 6.81562E+01 2.39548E+01 0.00000E+00
 -1       585 7.92300E+00 4.16780E+01 0.00000E+00
 -1       586 6.80416E+01 3.07300E+01 0.00000E+00
 -1       587 5.30007E+01 3.86073E+01 0.00000E+00
 -1       588 4.91694E+01 3.54285E+01 0.00000E+00
 -1       589 4.97550E+01 1.93383E+01 0.00000E+00
 -1       590 5.66114E+01 1.61690E+01 0.00000E+00
 -1       591 7.79400E+00 2.79000E+01 0.00000E+00
 -1       592 5.39884E+01 1.67412E+01 0.00000E+00
 -1       593 5.89618E+01 1.62177E+01 0.00000E+00
 -1       594 4.76133E+01 2.15782E+01 0.00000E+00
 -1       595 5.16937E+01 1.78558E+01 0.00000E+00
 -1       596 4.60219E+01 2.85991E+01 0.00000E+00
 -1       597 4.67533E+01 2.36660E+01 0.00000E+00
 -1       598 5.60152E+01 3.91704E+01 0.00000E+00
 -1       599 4.65606E+01 3.13412E+01 0.00000E+00
 -1       600 4.76682E+01 3.33227E+01 0.00000E+00
 -1       601 5.11533E+01 3.69396E+01 0.00000E+00
 -1       602 6.30641E+01 3.79547E+01 0.00000E+00
 -1       603 5.82171E+01 3.91748E+01 0.00000E+00
 -1       604 6.05428E+01 3.86837E+01 0.00000E+00
 -1       605 6.47316E+01 3.62190E+01 0.00000E+00
 -1       606 6.60433E+01 3.48766E+01 0.00000E+00
 -1       607 6.73822E+01 3.28292E+01 0.00000E+00
 -1       608 7.61550E+00 6.21462E+00 0.00000E+00
 -1       609 6.56661E+01 1.97370E+01 0.00000E+00
 -1       610 7.79400E+00 3.67375E+01 0.00000E+00
 -1       611 4.55654E+01 2.47489E+01 0.00000E+00
 -1       612 4.77435E+01 1.96192E+01 0.00000E+00
 -1       613 6.30265E+01 1.68283E+01 0.00000E+00
 -1       614 1.41678E+02 4.22645E+01 0.00000E+00
 -1       615 1.03920E+01 2.05500E+01 0.00000E+00
 -1       616 1.03920E+01 2.35000E+01 0.00000E+00
 -1       617 1.03920E+01 1.46750E+01 0.00000E+00
 -1       618 1.03920E+01 1.17250E+01 0.00000E+00
 -1       619 1.15350E+01 9.20225E+00 0.00000E+00
 -1       620 6.08837E+01 1.52616E+01 0.00000E+00
 -1       621 6.97713E+01 3.02072E+01 0.00000E+00
 -1       622 6.82884E+01 3.48834E+01 0.00000E+00
 -1       623 1.51500E+01 3.96080E+01 0.00000E+00
 -1       624 1.81500E+01 3.96080E+01 0.00000E+00
 -1       625 2.11500E+01 3.96080E+01 0.00000E+00
 -1       626 2.41500E+01 3.96080E+01 0.00000E+00
 -1       627 2.71500E+01 3.96080E+01 0.00000E+00
 -1       628 3.01500E+01 3.96080E+01 0.00000E+00
 -1       629 3.31500E+01 3.96080E+01 0.00000E+00
 -1       630 3.61500E+01 3.96080E+01 0.00000E+00
 -1       631 3.91500E+01 3.96080E+01 0.00000E+00
 -1       632 4.21500E+01 3.96080E+01 0.00000E+00
 -1       633 4.51500E+01 3.96080E+01 0.00000E+00
 -1       634 4.81500E+01 3.96080E+01 0.00000E+00
 -1       635 6.91500E+01 3.96080E+01 0.00000E+00
 -1       636 7.21500E+01 3.96080E+01 0.00000E+00
 -1       637 7.51500E+01 3.96080E+01 0.00000E+00
 -1       638 7.81500E+01 3.96080E+01 0.00000E+00
 -1       639 8.11500E+01 3.96080E+01 0.00000E+00
 -1       640 8.41500E+01 3.96080E+01 0.00000E+00
 -1       641 8.71500E+01 3.96080E+01 0.00000E+00
 -1       642 9.01500E+01 3.96080E+01 0.00000E+00
 -1       643 9.31500E+01 3.96080E+01 0.00000E+00
 -1       644 9.61500E+01 3.96080E+01 0.00000E+00
 -1       645 9.91500E+01 3.96080E+01 0.00000E+00
 -1       646 1.02150E+02 3.96080E+01 0.00000E+00
 -1       647 1.05150E+02 3.96080E+01 0.00000E+00
 -1       648 1.08150E+02 3.96080E+01 0.00000E+00
 -1       649 1.11150E+02 3.96080E+01 0.00000E+00
 -1       650 1.14150E+02 3.96080E+01 0.00000E+00
 -1       651 1.17150E+02 3.96080E+01 0.00000E+00
 -1       652 1.20150E+02 3.96080E+01 0.00000E+00
 -1       653 1.23150E+02 3.96080E+01 0.00000E+00
 -1       654 1.26150E+02 3.96080E+01 0.00000E+00
 -1       655 1.29150E+02 3.96080E+01 0.00000E+00
 -1       656 1.32150E+02 3.96080E+01 0.00000E+00
 -1       657 1.35150E+02 3.96080E+01 0.00000E+00
 -1       658 1.38150E+02 3.96080E+01 0.00000E+00
 -1       659 2.35350E+01 9.20225E+00 0.00000E+00
 -1       660 1.39206E+02 1.03250E+01 0.00000E+00
 -1       661 2.05350E+01 9.20225E+00 0.00000E+00
 -1       662 2.95350E+01 9.20225E+00 0.00000E+00
 -1       663 3.25350E+01 9.20225E+00 0.00000E+00
 -1       664 3.55350E+01 9.20225E+00 0.00000E+00
 -1       665 3.85350E+01 9.20225E+00 0.00000E+00
 -1       666 4.15350E+01 9.20225E+00 0.00000E+00
 -1       667 4.45350E+01 9.20225E+00 0.00000E+00
 -1       668 4.75350E+01 9.20225E+00 0.00000E+00
 -1       669 5.05350E+01 9.20225E+00 0.00000E+00
 -1       670 5.35350E+01 9.20225E+00 0.00000E+00
 -1       671 5.65350E+01 9.20225E+00 0.00000E+00
 -1       672 5.95350E+01 9.20225E+00 0.00000E+00
 -1       673 6.25350E+01 9.20225E+00 0.00000E+00
 -1       674 6.55350E+01 9.20225E+00 0.00000E+00
 -1       675 6.85350E+01 9.20225E+00 0.00000E+00
 -1       676 7.15350E+01 9.20225E+00 0.00000E+00
 -1       677 7.45350E+01 9.20225E+00 0.00000E+00
 -1       678 7.75350E+01 9.20225E+00 0.00000E+00
 -1       679 8.05350E+01 9.20225E+00 0.00000E+00
 -1       680 8.35350E+01 9.20225E+00 0.00000E+00
 -1       681 8.65350E+01 9.20225E+00 0.00000E+00
 -1       682 8.95350E+01 9.20225E+00 0.00000E+00
 -1       683 9.25350E+01 9.20225E+00 0.00000E+00
 -1       684 9.55350E+01 9.20225E+00 0.00000E+00
 -1       685 9.85350E+01 9.20225E+00 0.00000E+00
 -1       686 1.01535E+02 9.20225E+00 0.00000E+00
 -1       687 1.04535E+02 9.20225E+00 0.00000E+00
 -1       688 1.07535E+02 9.20225E+00 0.00000E+00
 -1       689 1.10535E+02 9.20225E+00 0.00000E+00
 -1       690 1.13535E+02 9.20225E+00 0.00000E+00
 -1       691 1.16535E+02 9.20225E+00 0.00000E+00
 -1       692 1.19535E+02 9.20225E+00 0.00000E+00
 -1       693 1.22535E+02 9.20225E+00 0.00000E+00
 -1       694 1.25535E+02 9.20225E+00 0.00000E+00
 -1       695 1.28535E+02 9.20225E+00 0.00000E+00
 -1       696 1.31535E+02 9.20225E+00 0.00000E+00
 -1       697 1.34535E+02 9.20225E+00 0.00000E+00
 -1       698 1.36870E+02 9.76363E+00 0.00000E+00
 -1       699 6.81293E+01 1.98078E+01 0.00000E+00
 -1       700 1.39608E+02 2.35500E+01 0.00000E+00
 -1       701 1.40178E+02 3.96665E+01 0.00000E+00
 -1       702 1.39608E+02 1.76500E+01 0.00000E+00
 -1       703 1.39608E+02 2.65000E+01 0.00000E+00
 -1       704 1.39608E+02 2.06000E+01 0.00000E+00
 -1       705 1.39608E+02 2.94000E+01 0.00000E+00
 -1       706 1.39608E+02 3.23500E+01 0.00000E+00
 -1       707 1.39608E+02 3.53000E+01 0.00000E+00
 -1       708 9.78035E+00 3.93914E+01 0.00000E+00
 -1       709 6.91414E+01 2.21817E+01 0.00000E+00
 -1       710 7.02758E+01 2.48775E+01 0.00000E+00
 -1       711 4.66129E+01 3.56631E+01 0.00000E+00
 -1       712 4.55053E+01 3.36816E+01 0.00000E+00
 -1       713 4.54425E+01 2.19050E+01 0.00000E+00
 -1       714 1.75350E+01 9.20225E+00 0.00000E+00
 -1       715 2.65350E+01 9.20225E+00 0.00000E+00
 -1       716 1.45350E+01 9.20225E+00 0.00000E+00
 -1       717 6.91120E+01 3.23064E+01 0.00000E+00
 -1       718 4.90206E+01 3.76817E+01 0.00000E+00
 -1       719 1.24652E+01 3.94997E+01 0.00000E+00
 -1       720 4.47586E+01 2.70775E+01 0.00000E+00
 -1       721 5.78256E+01 1.43111E+01 0.00000E+00
 -1       722 1.03920E+01 1.76125E+01 0.00000E+00
 -1       723 1.03920E+01 3.23250E+01 0.00000E+00
 -1       724 4.94789E+01 1.69684E+01 0.00000E+00
 -1       725 4.42794E+01 3.03653E+01 0.00000E+00
 -1       726 7.03148E+01 2.79038E+01 0.00000E+00
 -1       727 6.67340E+01 3.68635E+01 0.00000E+00
 -1       728 6.58654E+01 1.74196E+01 0.00000E+00
 -1       729 5.20917E+01 1.57557E+01 0.00000E+00
 -1       730 5.49343E+01 1.47794E+01 0.00000E+00
 -1       731 6.61908E+01 3.92125E+01 0.00000E+00
 -1       732 1.03920E+01 3.52625E+01 0.00000E+00
 -1       733 1.03920E+01 2.64500E+01 0.00000E+00
 -1       734 1.39608E+02 1.47250E+01 0.00000E+00
 -1       735 4.55728E+01 1.99460E+01 0.00000E+00
 -1       736 4.42546E+01 2.29879E+01 0.00000E+00
 -1       737 4.30162E+01 2.88438E+01 0.00000E+00
 -1       738 1.03920E+01 2.93875E+01 0.00000E+00
 -1       739 5.97475E+01 1.33549E+01 0.00000E+00
 -1       740 1.38879E+02 3.74540E+01 0.00000E+00
 -1       741 4.74674E+01 1.72493E+01 0.00000E+00
 -1       742 1.29900E+01 1.32000E+01 0.00000E+00
 -1       743 7.13977E+01 3.18712E+01 0.00000E+00
 -1       744 4.39770E+01 3.58362E+01 0.00000E+00
 -1       745 5.60790E+01 1.26868E+01 0.00000E+00
 -1       746 1.96500E+01 3.70100E+01 0.00000E+00
 -1       747 2.26500E+01 3.70100E+01 0.00000E+00
 -1       748 2.56500E+01 3.70100E+01 0.00000E+00
 -1       749 2.86500E+01 3.70100E+01 0.00000E+00
 -1       750 3.16500E+01 3.70100E+01 0.00000E+00
 -1       751 3.46500E+01 3.70100E+01 0.00000E+00
 -1       752 3.76500E+01 3.70100E+01 0.00000E+00
 -1       753 4.06500E+01 3.70100E+01 0.00000E+00
 -1       754 7.36500E+01 3.70100E+01 0.00000E+00
 -1       755 7.66500E+01 3.70100E+01 0.00000E+00
 -1       756 7.96500E+01 3.70100E+01 0.00000E+00
 -1       757 8.26500E+01 3.70100E+01 0.00000E+00
 -1       758 8.56500E+01 3.70100E+01 0.00000E+00
 -1       759 8.86500E+01 3.70100E+01 0.00000E+00
 -1       760 9.16500E+01 3.70100E+01 0.00000E+00
 -1       761 9.46500E+01 3.70100E+01 0.00000E+00
 -1       762 9.76500E+01 3.70100E+01 0.00000E+00
 -1       763 1.00650E+02 3.70100E+01 0.00000E+00
 -1       764 1.03650E+02 3.70100E+01 0.00000E+00
 -1       765 1.06650E+02 3.70100E+01 0.00000E+00
 -1       766 1.09650E+02 3.70100E+01 0.00000E+00
 -1       767 1.12650E+02 3.70100E+01 0.00000E+00
 -1       768 1.15650E+02 3.70100E+01 0.00000E+00
 -1       769 1.18650E+02 3.70100E+01 0.00000E+00
 -1       770 1.21650E+02 3.70100E+01 0.00000E+00
 -1       771 1.24650E+02 3.70100E+01 0.00000E+00
 -1       772 1.27650E+02 3.70100E+01 0.00000E+00
 -1       773 1.30650E+02 3.70100E+01 0.00000E+00
 -1       774 1.33650E+02 3.70100E+01 0.00000E+00
 -1       775 1.36264E+02 3.72320E+01 0.00000E+00
 -1       776 2.20350E+01 1.18003E+01 0.00000E+00
 -1       777 3.40350E+01 1.18003E+01 0.00000E+00
 -1       778 3.10350E+01 1.18003E+01 0.00000E+00
 -1       779 4.00350E+01 1.18003E+01 0.00000E+00
 -1       780 4.30350E+01 1.18003E+01 0.00000E+00
 -1       781 4.60350E+01 1.18003E+01 0.00000E+00
 -1       782 4.90350E+01 1.18003E+01 0.00000E+00
 -1       783 5.20350E+01 1.18003E+01 0.00000E+00
 -1       784 6.10350E+01 1.15876E+01 0.00000E+00
 -1       785 6.40350E+01 1.15876E+01 0.00000E+00
 -1       786 6.70350E+01 1.15876E+01 0.00000E+00
 -1       787 7.00350E+01 1.15876E+01 0.00000E+00
 -1       788 7.30350E+01 1.15876E+01 0.00000E+00
 -1       789 7.60350E+01 1.15876E+01 0.00000E+00
 -1       790 7.90350E+01 1.15876E+01 0.00000E+00
 -1       791 8.20350E+01 1.15876E+01 0.00000E+00
 -1       792 8.50350E+01 1.15876E+01 0.00000E+00
 -1       793 8.80350E+01 1.15876E+01 0.00000E+00
 -1       794 9.10350E+01 1.15876E+01 0.00000E+00
 -1       795 9.40350E+01 1.15876E+01 0.00000E+00
 -1       796 9.70350E+01 1.15876E+01 0.00000E+00
 -1       797 1.00035E+02 1.15876E+01 0.00000E+00
 -1       798 1.03035E+02 1.15876E+01 0.00000E+00
 -1       799 1.06035E+02 1.15876E+01 0.00000E+00
 -1       800 1.09035E+02 1.15876E+01 0.00000E+00
 -1       801 1.12035E+02 1.15876E+01 0.00000E+00
 -1       802 1.15035E+02 1.15876E+01 0.00000E+00
 -1       803 1.18035E+02 1.15876E+01 0.00000E+00
 -1       804 1.21035E+02 1.15876E+01 0.00000E+00
 -1       805 1.24035E+02 1.15876E+01 0.00000E+00
 -1       806 1.27035E+02 1.15876E+01 0.00000E+00
 -1       807 1.30035E+02 1.15876E+01 0.00000E+00
 -1       808 1.33035E+02 1.15876E+01 0.00000E+00
 -1       809 1.37010E+02 2.79500E+01 0.00000E+00
 -1       810 1.37010E+02 3.38250E+01 0.00000E+00
 -1       811 1.37010E+02 2.50000E+01 0.00000E+00
 -1       812 6.84853E+01 1.72032E+01 0.00000E+00
 -1       813 4.97811E+01 1.41983E+01 0.00000E+00
 -1       814 7.17528E+01 2.26694E+01 0.00000E+00
 -1       815 6.92558E+01 3.72428E+01 0.00000E+00
 -1       816 7.21778E+01 2.63664E+01 0.00000E+00
 -1       817 1.37010E+02 3.08875E+01 0.00000E+00
 -1       818 3.70350E+01 1.18003E+01 0.00000E+00
 -1       819 4.34478E+01 2.53165E+01 0.00000E+00
 -1       820 7.19411E+01 2.95678E+01 0.00000E+00
 -1       821 1.90350E+01 1.18003E+01 0.00000E+00
 -1       822 6.33630E+01 1.41193E+01 0.00000E+00
 -1       823 1.66500E+01 3.70100E+01 0.00000E+00
 -1       824 7.07407E+01 2.02955E+01 0.00000E+00
 -1       825 6.62018E+01 1.47106E+01 0.00000E+00
 -1       826 7.05741E+01 3.44481E+01 0.00000E+00
 -1       827 1.37625E+01 1.12011E+01 0.00000E+00
 -1       828 5.29165E+01 1.50154E+01 0.00000E+00
 -1       829 5.37262E+01 1.31939E+01 0.00000E+00
 -1       830 1.29900E+01 2.20250E+01 0.00000E+00
 -1       831 4.26549E+01 3.28505E+01 0.00000E+00
 -1       832 1.29900E+01 2.49750E+01 0.00000E+00
 -1       833 1.37010E+02 1.61875E+01 0.00000E+00
 -1       834 1.29900E+01 3.37938E+01 0.00000E+00
 -1       835 4.17054E+01 2.70828E+01 0.00000E+00
 -1       836 1.63988E+01 1.15007E+01 0.00000E+00
 -1       837 2.80350E+01 1.18003E+01 0.00000E+00
 -1       838 7.10967E+01 1.76909E+01 0.00000E+00
 -1       839 1.35370E+02 1.21490E+01 0.00000E+00
 -1       840 7.36548E+01 2.41583E+01 0.00000E+00
 -1       841 1.37010E+02 1.91375E+01 0.00000E+00
 -1       842 2.50350E+01 1.18003E+01 0.00000E+00
 -1       843 1.37010E+02 2.20688E+01 0.00000E+00
 -1       844 4.13917E+01 3.13289E+01 0.00000E+00
 -1       845 4.52967E+01 1.75761E+01 0.00000E+00
 -1       846 4.36291E+01 2.08006E+01 0.00000E+00
 -1       847 1.36940E+02 1.29756E+01 0.00000E+00
 -1       848 1.39652E+01 3.69017E+01 0.00000E+00
 -1       849 1.29900E+01 1.61375E+01 0.00000E+00
 -1       850 1.29900E+01 1.90812E+01 0.00000E+00
 -1       851 1.29900E+01 3.08563E+01 0.00000E+00
 -1       852 5.17536E+01 1.36961E+01 0.00000E+00
 -1       853 1.36637E+02 3.55285E+01 0.00000E+00
 -1       854 7.51500E+01 3.44120E+01 0.00000E+00
 -1       855 2.41500E+01 3.44120E+01 0.00000E+00
 -1       856 2.71500E+01 3.44120E+01 0.00000E+00
 -1       857 3.01500E+01 3.44120E+01 0.00000E+00
 -1       858 3.31500E+01 3.44120E+01 0.00000E+00
 -1       859 3.61500E+01 3.44120E+01 0.00000E+00
 -1       860 3.91500E+01 3.44120E+01 0.00000E+00
 -1       861 7.81500E+01 3.44120E+01 0.00000E+00
 -1       862 8.11500E+01 3.44120E+01 0.00000E+00
 -1       863 8.41500E+01 3.44120E+01 0.00000E+00
 -1       864 8.71500E+01 3.44120E+01 0.00000E+00
 -1       865 9.01500E+01 3.44120E+01 0.00000E+00
 -1       866 9.31500E+01 3.44120E+01 0.00000E+00
 -1       867 9.61500E+01 3.44120E+01 0.00000E+00
 -1       868 9.91500E+01 3.44120E+01 0.00000E+00
 -1       869 1.02150E+02 3.44120E+01 0.00000E+00
 -1       870 1.05150E+02 3.44120E+01 0.00000E+00
 -1       871 1.08150E+02 3.44120E+01 0.00000E+00
 -1       872 1.11150E+02 3.44120E+01 0.00000E+00
 -1       873 1.14150E+02 3.44120E+01 0.00000E+00
 -1       874 1.17150E+02 3.44120E+01 0.00000E+00
 -1       875 1.20150E+02 3.44120E+01 0.00000E+00
 -1       876 1.23150E+02 3.44120E+01 0.00000E+00
 -1       877 1.26150E+02 3.44120E+01 0.00000E+00
 -1       878 1.29150E+02 3.44120E+01 0.00000E+00
 -1       879 1.32150E+02 3.44120E+01 0.00000E+00
 -1       880 4.20723E+01 2.35359E+01 0.00000E+00
 -1       881 4.45350E+01 1.43982E+01 0.00000E+00
 -1       882 4.15350E+01 1.43982E+01 0.00000E+00
 -1       883 7.15350E+01 1.41856E+01 0.00000E+00
 -1       884 7.45350E+01 1.41856E+01 0.00000E+00
 -1       885 7.75350E+01 1.41856E+01 0.00000E+00
 -1       886 8.05350E+01 1.41856E+01 0.00000E+00
 -1       887 8.35350E+01 1.41856E+01 0.00000E+00
 -1       888 8.65350E+01 1.41856E+01 0.00000E+00
 -1       889 8.95350E+01 1.41856E+01 0.00000E+00
 -1       890 9.25350E+01 1.41856E+01 0.00000E+00
 -1       891 9.55350E+01 1.41856E+01 0.00000E+00
 -1       892 9.85350E+01 1.41856E+01 0.00000E+00
 -1       893 1.01535E+02 1.41856E+01 0.00000E+00
 -1       894 1.04535E+02 1.41856E+01 0.00000E+00
 -1       895 1.07535E+02 1.41856E+01 0.00000E+00
 -1       896 1.10535E+02 1.41856E+01 0.00000E+00
 -1       897 1.13535E+02 1.41856E+01 0.00000E+00
 -1       898 1.16535E+02 1.41856E+01 0.00000E+00
 -1       899 1.19535E+02 1.41856E+01 0.00000E+00
 -1       900 1.22535E+02 1.41856E+01 0.00000E+00
 -1       901 1.25535E+02 1.41856E+01 0.00000E+00
 -1       902 1.28535E+02 1.41856E+01 0.00000E+00
 -1       903 1.31535E+02 1.41856E+01 0.00000E+00
 -1       904 4.72587E+01 1.53247E+01 0.00000E+00
 -1       905 1.34412E+02 2.64750E+01 0.00000E+00
 -1       906 7.29388E+01 3.37838E+01 0.00000E+00
 -1       907 4.33530E+01 1.84308E+01 0.00000E+00
 -1       908 6.88684E+01 1.44481E+01 0.00000E+00
 -1       909 3.25350E+01 1.43982E+01 0.00000E+00
 -1       910 7.38280E+01 3.12288E+01 0.00000E+00
 -1       911 2.05350E+01 1.43982E+01 0.00000E+00
 -1       912 1.29900E+01 2.79188E+01 0.00000E+00
 -1       913 2.11500E+01 3.44120E+01 0.00000E+00
 -1       914 7.32869E+01 2.06126E+01 0.00000E+00
 -1       915 7.44384E+01 2.81430E+01 0.00000E+00
 -1       916 1.81500E+01 3.44120E+01 0.00000E+00
 -1       917 2.35350E+01 1.43982E+01 0.00000E+00
 -1       918 1.56263E+01 1.34996E+01 0.00000E+00
 -1       919 4.10689E+01 2.11541E+01 0.00000E+00
 -1       920 4.00809E+01 2.95680E+01 0.00000E+00
 -1       921 1.56748E+01 3.39021E+01 0.00000E+00
 -1       922 1.56748E+01 3.09646E+01 0.00000E+00
 -1       923 1.55880E+01 2.05531E+01 0.00000E+00
 -1       924 4.03298E+01 2.53022E+01 0.00000E+00
 -1       925 7.51889E+01 2.21015E+01 0.00000E+00
 -1       926 1.34394E+02 3.49702E+01 0.00000E+00
 -1       927 1.80806E+01 1.39489E+01 0.00000E+00
 -1       928 3.85350E+01 1.43982E+01 0.00000E+00
 -1       929 3.55350E+01 1.43982E+01 0.00000E+00
 -1       930 2.95350E+01 1.43982E+01 0.00000E+00
 -1       931 1.33870E+02 1.47470E+01 0.00000E+00
 -1       932 7.59154E+01 2.59349E+01 0.00000E+00
 -1       933 2.65350E+01 1.43982E+01 0.00000E+00
 -1       934 1.34412E+02 2.35438E+01 0.00000E+00
 -1       935 1.34394E+02 3.20327E+01 0.00000E+00
 -1       936 1.34412E+02 1.76625E+01 0.00000E+00
 -1       937 1.55880E+01 2.35031E+01 0.00000E+00
 -1       938 1.34403E+02 2.92539E+01 0.00000E+00
 -1       939 4.07928E+01 1.87842E+01 0.00000E+00
 -1       940 3.93264E+01 2.29204E+01 0.00000E+00
 -1       941 4.24440E+01 1.64145E+01 0.00000E+00
 -1       942 2.86500E+01 3.18140E+01 0.00000E+00
 -1       943 3.16500E+01 3.18140E+01 0.00000E+00
 -1       944 3.46500E+01 3.18140E+01 0.00000E+00
 -1       945 3.76500E+01 3.18140E+01 0.00000E+00
 -1       946 1.55880E+01 1.76094E+01 0.00000E+00
 -1       947 7.66500E+01 3.18140E+01 0.00000E+00
 -1       948 7.96500E+01 3.18140E+01 0.00000E+00
 -1       949 8.26500E+01 3.18140E+01 0.00000E+00
 -1       950 8.56500E+01 3.18140E+01 0.00000E+00
 -1       951 8.86500E+01 3.18140E+01 0.00000E+00
 -1       952 9.16500E+01 3.18140E+01 0.00000E+00
 -1       953 9.46500E+01 3.18140E+01 0.00000E+00
 -1       954 9.76500E+01 3.18140E+01 0.00000E+00
 -1       955 1.00650E+02 3.18140E+01 0.00000E+00
 -1       956 1.03650E+02 3.18140E+01 0.00000E+00
 -1       957 1.06650E+02 3.18140E+01 0.00000E+00
 -1       958 1.09650E+02 3.18140E+01 0.00000E+00
 -1       959 1.12650E+02 3.18140E+01 0.00000E+00
 -1       960 1.15650E+02 3.18140E+01 0.00000E+00
 -1       961 1.18650E+02 3.18140E+01 0.00000E+00
 -1       962 1.21650E+02 3.18140E+01 0.00000E+00
 -1       963 1.24650E+02 3.18140E+01 0.00000E+00
 -1       964 1.27650E+02 3.18140E+01 0.00000E+00
 -1       965 1.30650E+02 3.18140E+01 0.00000E+00
 -1       966 2.20350E+01 1.69963E+01 0.00000E+00
 -1       967 2.26500E+01 3.18140E+01 0.00000E+00
 -1       968 7.42706E+01 1.75935E+01 0.00000E+00
 -1       969 8.20350E+01 1.67836E+01 0.00000E+00
 -1       970 8.50350E+01 1.67836E+01 0.00000E+00
 -1       971 8.80350E+01 1.67836E+01 0.00000E+00
 -1       972 9.10350E+01 1.67836E+01 0.00000E+00
 -1       973 9.40350E+01 1.67836E+01 0.00000E+00
 -1       974 9.70350E+01 1.67836E+01 0.00000E+00
 -1       975 1.00035E+02 1.67836E+01 0.00000E+00
 -1       976 1.03035E+02 1.67836E+01 0.00000E+00
 -1       977 1.06035E+02 1.67836E+01 0.00000E+00
 -1       978 1.09035E+02 1.67836E+01 0.00000E+00
 -1       979 1.12035E+02 1.67836E+01 0.00000E+00
 -1       980 1.15035E+02 1.67836E+01 0.00000E+00
 -1       981 1.18035E+02 1.67836E+01 0.00000E+00
 -1       982 1.21035E+02 1.67836E+01 0.00000E+00
 -1       983 1.24035E+02 1.67836E+01 0.00000E+00
 -1       984 1.27035E+02 1.67836E+01 0.00000E+00
 -1       985 1.30035E+02 1.67836E+01 0.00000E+00
 -1       986 1.32223E+02 1.72231E+01 0.00000E+00
 -1       987 1.34412E+02 2.06031E+01 0.00000E+00
 -1       988 1.56748E+01 2.80271E+01 0.00000E+00
 -1       989 2.50350E+01 1.69963E+01 0.00000E+00
 -1       990 7.61444E+01 3.00837E+01 0.00000E+00
 -1       991 1.56314E+01 2.57651E+01 0.00000E+00
 -1       992 7.90350E+01 1.67836E+01 0.00000E+00
 -1       993 7.66528E+01 1.71885E+01 0.00000E+00
 -1       994 1.81500E+01 3.14745E+01 0.00000E+00
 -1       995 2.04000E+01 3.16443E+01 0.00000E+00
 -1       996 2.56500E+01 3.18140E+01 0.00000E+00
 -1       997 3.87054E+01 2.77874E+01 0.00000E+00
 -1       998 1.81860E+01 1.90812E+01 0.00000E+00
 -1       999 3.61500E+01 2.92160E+01 0.00000E+00
 -1      1000 1.81860E+01 2.20313E+01 0.00000E+00
 -1      1001 3.96639E+01 1.65912E+01 0.00000E+00
 -1      1002 7.74495E+01 2.38781E+01 0.00000E+00
 -1      1003 3.86188E+01 2.04797E+01 0.00000E+00
 -1      1004 3.40350E+01 1.69963E+01 0.00000E+00
 -1      1005 1.32223E+02 2.01637E+01 0.00000E+00
 -1      1006 7.59208E+01 1.96450E+01 0.00000E+00
 -1      1007 3.10350E+01 1.69963E+01 0.00000E+00
 -1      1008 2.80350E+01 1.69963E+01 0.00000E+00
 -1      1009 1.31814E+02 2.50094E+01 0.00000E+00
 -1      1010 7.76215E+01 2.78756E+01 0.00000E+00
 -1      1011 1.31805E+02 2.77882E+01 0.00000E+00
 -1      1012 1.90351E+01 1.69963E+01 0.00000E+00
 -1      1013 3.31500E+01 2.92160E+01 0.00000E+00
 -1      1014 2.11859E+01 1.90812E+01 0.00000E+00
 -1      1015 7.91444E+01 3.00837E+01 0.00000E+00
 -1      1016 8.21444E+01 3.00837E+01 0.00000E+00
 -1      1017 8.51444E+01 3.00837E+01 0.00000E+00
 -1      1018 8.81444E+01 3.00837E+01 0.00000E+00
 -1      1019 9.11444E+01 3.00837E+01 0.00000E+00
 -1      1020 9.41444E+01 3.00837E+01 0.00000E+00
 -1      1021 9.71444E+01 3.00837E+01 0.00000E+00
 -1      1022 1.00144E+02 3.00837E+01 0.00000E+00
 -1      1023 1.03144E+02 3.00837E+01 0.00000E+00
 -1      1024 1.06144E+02 3.00837E+01 0.00000E+00
 -1      1025 1.09144E+02 3.00837E+01 0.00000E+00
 -1      1026 1.12144E+02 3.00837E+01 0.00000E+00
 -1      1027 1.15144E+02 3.00837E+01 0.00000E+00
 -1      1028 1.18144E+02 3.00837E+01 0.00000E+00
 -1      1029 1.21144E+02 3.00837E+01 0.00000E+00
 -1      1030 1.24144E+02 3.00837E+01 0.00000E+00
 -1      1031 1.27144E+02 3.00837E+01 0.00000E+00
 -1      1032 1.30144E+02 3.00837E+01 0.00000E+00
 -1      1033 3.66815E+01 2.23643E+01 0.00000E+00
 -1      1034 8.65350E+01 1.93816E+01 0.00000E+00
 -1      1035 1.81500E+01 2.85370E+01 0.00000E+00
 -1      1036 1.32019E+02 2.25865E+01 0.00000E+00
 -1      1037 8.35350E+01 1.93816E+01 0.00000E+00
 -1      1038 9.25350E+01 1.93816E+01 0.00000E+00
 -1      1039 9.55350E+01 1.93816E+01 0.00000E+00
 -1      1040 9.85350E+01 1.93816E+01 0.00000E+00
 -1      1041 1.01535E+02 1.93816E+01 0.00000E+00
 -1      1042 1.04535E+02 1.93816E+01 0.00000E+00
 -1      1043 1.07535E+02 1.93816E+01 0.00000E+00
 -1      1044 1.10535E+02 1.93816E+01 0.00000E+00
 -1      1045 1.13535E+02 1.93816E+01 0.00000E+00
 -1      1046 1.16535E+02 1.93816E+01 0.00000E+00
 -1      1047 1.19535E+02 1.93816E+01 0.00000E+00
 -1      1048 1.22535E+02 1.93816E+01 0.00000E+00
 -1      1049 1.25535E+02 1.93816E+01 0.00000E+00
 -1      1050 1.28535E+02 1.93816E+01 0.00000E+00
 -1      1051 1.30379E+02 1.97727E+01 0.00000E+00
 -1      1052 8.95350E+01 1.93816E+01 0.00000E+00
 -1      1053 2.41500E+01 2.92160E+01 0.00000E+00
 -1      1054 3.01500E+01 2.92160E+01 0.00000E+00
 -1      1055 2.65350E+01 1.95942E+01 0.00000E+00
 -1      1056 3.76850E+01 2.47461E+01 0.00000E+00
 -1      1057 8.05350E+01 1.93816E+01 0.00000E+00
 -1      1058 3.74899E+01 1.82867E+01 0.00000E+00
 -1      1059 2.71500E+01 2.92160E+01 0.00000E+00
 -1      1060 2.38605E+01 1.93377E+01 0.00000E+00
 -1      1061 1.82294E+01 2.42932E+01 0.00000E+00
 -1      1062 7.81814E+01 2.14216E+01 0.00000E+00
 -1      1063 3.48534E+01 2.00753E+01 0.00000E+00
 -1      1064 7.91555E+01 2.58189E+01 0.00000E+00
 -1      1065 3.18534E+01 2.00753E+01 0.00000E+00
 -1      1066 3.61599E+01 2.62340E+01 0.00000E+00
 -1      1067 2.04000E+01 2.87068E+01 0.00000E+00
 -1      1068 1.29328E+02 2.35792E+01 0.00000E+00
 -1      1069 2.91942E+01 1.98347E+01 0.00000E+00
 -1      1070 3.31599E+01 2.62340E+01 0.00000E+00
 -1      1071 1.29318E+02 2.63581E+01 0.00000E+00
 -1      1072 1.81897E+01 2.64151E+01 0.00000E+00
 -1      1073 2.22750E+01 2.89614E+01 0.00000E+00
 -1      1074 8.06500E+01 2.79513E+01 0.00000E+00
 -1      1075 8.36500E+01 2.79513E+01 0.00000E+00
 -1      1076 8.66500E+01 2.79513E+01 0.00000E+00
 -1      1077 8.96500E+01 2.79513E+01 0.00000E+00
 -1      1078 9.26500E+01 2.79513E+01 0.00000E+00
 -1      1079 9.56500E+01 2.79513E+01 0.00000E+00
 -1      1080 9.86500E+01 2.79513E+01 0.00000E+00
 -1      1081 1.01650E+02 2.79513E+01 0.00000E+00
 -1      1082 1.04650E+02 2.79513E+01 0.00000E+00
 -1      1083 1.07650E+02 2.79513E+01 0.00000E+00
 -1      1084 1.10650E+02 2.79513E+01 0.00000E+00
 -1      1085 1.13650E+02 2.79513E+01 0.00000E+00
 -1      1086 1.16650E+02 2.79513E+01 0.00000E+00
 -1      1087 1.19650E+02 2.79513E+01 0.00000E+00
 -1      1088 1.22650E+02 2.79513E+01 0.00000E+00
 -1      1089 1.25650E+02 2.79513E+01 0.00000E+00
 -1      1090 7.75351E+01 1.93817E+01 0.00000E+00
 -1      1091 2.86500E+01 2.66180E+01 0.00000E+00
 -1      1092 8.50350E+01 2.19796E+01 0.00000E+00
 -1      1093 1.00035E+02 2.19796E+01 0.00000E+00
 -1      1094 9.70350E+01 2.19796E+01 0.00000E+00
 -1      1095 9.40350E+01 2.19796E+01 0.00000E+00
 -1      1096 1.03035E+02 2.19796E+01 0.00000E+00
 -1      1097 1.06035E+02 2.19796E+01 0.00000E+00
 -1      1098 1.09035E+02 2.19796E+01 0.00000E+00
 -1      1099 1.12035E+02 2.19796E+01 0.00000E+00
 -1      1100 1.15035E+02 2.19796E+01 0.00000E+00
 -1      1101 1.18035E+02 2.19796E+01 0.00000E+00
 -1      1102 1.21035E+02 2.19796E+01 0.00000E+00
 -1      1103 1.24035E+02 2.19796E+01 0.00000E+00
 -1      1104 1.27035E+02 2.19796E+01 0.00000E+00
 -1      1105 3.37374E+01 2.28411E+01 0.00000E+00
 -1      1106 3.09049E+01 2.64260E+01 0.00000E+00
 -1      1107 3.49487E+01 2.45375E+01 0.00000E+00
 -1      1108 8.20350E+01 2.19796E+01 0.00000E+00
 -1      1109 1.29853E+02 2.16759E+01 0.00000E+00
 -1      1110 2.56500E+01 2.66180E+01 0.00000E+00
 -1      1111 2.15076E+01 2.24086E+01 0.00000E+00
 -1      1112 2.04397E+01 2.65849E+01 0.00000E+00
 -1      1113 7.98875E+01 2.33624E+01 0.00000E+00
 -1      1114 1.28644E+02 2.74857E+01 0.00000E+00
 -1      1115 8.80350E+01 2.19796E+01 0.00000E+00
 -1      1116 9.10350E+01 2.19796E+01 0.00000E+00
 -1      1117 2.76306E+01 2.23019E+01 0.00000E+00
 -1      1118 2.37750E+01 2.63634E+01 0.00000E+00
 -1      1119 2.49560E+01 2.20454E+01 0.00000E+00
 -1      1120 1.26725E+02 2.49600E+01 0.00000E+00
 -1      1121 8.21555E+01 2.58189E+01 0.00000E+00
 -1      1122 8.51555E+01 2.58189E+01 0.00000E+00
 -1      1123 8.81555E+01 2.58189E+01 0.00000E+00
 -1      1124 9.11555E+01 2.58189E+01 0.00000E+00
 -1      1125 9.41555E+01 2.58189E+01 0.00000E+00
 -1      1126 9.71555E+01 2.58189E+01 0.00000E+00
 -1      1127 1.00156E+02 2.58189E+01 0.00000E+00
 -1      1128 1.03156E+02 2.58189E+01 0.00000E+00
 -1      1129 1.06156E+02 2.58189E+01 0.00000E+00
 -1      1130 1.09156E+02 2.58189E+01 0.00000E+00
 -1      1131 1.12156E+02 2.58189E+01 0.00000E+00
 -1      1132 1.15156E+02 2.58189E+01 0.00000E+00
 -1      1133 1.18156E+02 2.58189E+01 0.00000E+00
 -1      1134 1.21156E+02 2.58189E+01 0.00000E+00
 -1      1135 1.24156E+02 2.58189E+01 0.00000E+00
 -1      1136 3.19487E+01 2.45375E+01 0.00000E+00
 -1      1137 3.02898E+01 2.25424E+01 0.00000E+00
 -1      1138 2.14678E+01 2.45305E+01 0.00000E+00
 -1      1139 0.00000E+00 4.85250E+01 0.00000E+00
 -1      1140 0.00000E+00 4.55750E+01 0.00000E+00
 -1      1141 0.00000E+00 4.26250E+01 0.00000E+00
 -1      1142 0.00000E+00 3.96750E+01 0.00000E+00
 -1      1143 0.00000E+00 3.67250E+01 0.00000E+00
 -1      1144 0.00000E+00 3.38000E+01 0.00000E+00
 -1      1145 0.00000E+00 3.08750E+01 0.00000E+00
 -1      1146 0.00000E+00 2.79250E+01 0.00000E+00
 -1      1147 0.00000E+00 2.49750E+01 0.00000E+00
 -1      1148 0.00000E+00 2.20250E+01 0.00000E+00
 -1      1149 0.00000E+00 1.90750E+01 0.00000E+00
 -1      1150 0.00000E+00 1.61500E+01 0.00000E+00
 -1      1151 0.00000E+00 1.32250E+01 0.00000E+00
 -1      1152 0.00000E+00 1.02750E+01 0.00000E+00
 -1      1153 0.00000E+00 7.32500E+00 0.00000E+00
 -1      1154 0.00000E+00 4.37500E+00 0.00000E+00
 -1      1155 0.00000E+00 1.45000E+00 0.00000E+00
 -1      1156 1.57500E+00 5.00000E+01 0.00000E+00
 -1      1157 4.65000E+00 5.00000E+01 0.00000E+00
 -1      1158 7.65000E+00 5.00000E+01 0.00000E+00
 -1      1159 1.06500E+01 5.00000E+01 0.00000E+00
 -1      1160 1.36500E+01 5.00000E+01 0.00000E+00
 -1      1161 1.66500E+01 5.00000E+01 0.00000E+00
 -1      1162 1.96500E+01 5.00000E+01 0.00000E+00
 -1      1163 2.26500E+01 5.00000E+01 0.00000E+00
 -1      1164 2.56500E+01 5.00000E+01 0.00000E+00
 -1      1165 2.86500E+01 5.00000E+01 0.00000E+00
 -1      1166 3.16500E+01 5.00000E+01 0.00000E+00
 -1      1167 3.46500E+01 5.00000E+01 0.00000E+00
 -1      1168 3.76500E+01 5.00000E+01 0.00000E+00
 -1      1169 4.06500E+01 5.00000E+01 0.00000E+00
 -1      1170 4.36500E+01 5.00000E+01 0.00000E+00
 -1      1171 4.66500E+01 5.00000E+01 0.00000E+00
 -1      1172 4.96500E+01 5.00000E+01 0.00000E+00
 -1      1173 5.26500E+01 5.00000E+01 0.00000E+00
 -1      1174 5.56500E+01 5.00000E+01 0.00000E+00
 -1      1175 5.86500E+01 5.00000E+01 0.00000E+00
 -1      1176 6.16500E+01 5.00000E+01 0.00000E+00
 -1      1177 6.46500E+01 5.00000E+01 0.00000E+00
 -1      1178 6.76500E+01 5.00000E+01 0.00000E+00
 -1      1179 7.06500E+01 5.00000E+01 0.00000E+00
 -1      1180 7.36500E+01 5.00000E+01 0.00000E+00
 -1      1181 7.66500E+01 5.00000E+01 0.00000E+00
 -1      1182 7.96500E+01 5.00000E+01 0.00000E+00
 -1      1183 8.26500E+01 5.00000E+01 0.00000E+00
 -1      1184 8.56500E+01 5.00000E+01 0.00000E+00
 -1      1185 8.86500E+01 5.00000E+01 0.00000E+00
 -1      1186 9.16500E+01 5.00000E+01 0.00000E+00
 -1      1187 9.46500E+01 5.00000E+01 0.00000E+00
 -1      1188 9.76500E+01 5.00000E+01 0.00000E+00
 -1      1189 1.00650E+02 5.00000E+01 0.00000E+00
 -1      1190 1.03650E+02 5.00000E+01 0.00000E+00
 -1      1191 1.06650E+02 5.00000E+01 0.00000E+00
 -1      1192 1.09650E+02 5.00000E+01 0.00000E+00
 -1      1193 1.12650E+02 5.00000E+01 0.00000E+00
 -1      1194 1.15650E+02 5.00000E+01 0.00000E+00
 -1      1195 1.18650E+02 5.00000E+01 0.00000E+00
 -1      1196 1.21650E+02 5.00000E+01 0.00000E+00
 -1      1197 1.24650E+02 5.00000E+01 0.00000E+00
 -1      1198 1.27650E+02 5.00000E+01 0.00000E+00
 -1      1199 1.30650E+02 5.00000E+01 0.00000E+00
 -1      1200 1.33650E+02 5.00000E+01 0.00000E+00
 -1      1201 1.36650E+02 5.00000E+01 0.00000E+00
 -1      1202 1.39650E+02 5.00000E+01 0.00000E+00
 -1      1203 1.42650E+02 5.00000E+01 0.00000E+00
 -1      1204 1.45650E+02 5.00000E+01 0.00000E+00
 -1      1205 1.48575E+02 5.00000E+01 0.00000E+00
 -1      1206 1.57500E+00 0.00000E+00 0.00000E+00
 -1      1207 4.65000E+00 0.00000E+00 0.00000E+00
 -1      1208 7.65000E+00 0.00000E+00 0.00000E+00
 -1      1209 1.06500E+01 0.00000E+00 0.00000E+00
 -1      1210 1.36500E+01 0.00000E+00 0.00000E+00
 -1      1211 1.66500E+01 0.00000E+00 0.00000E+00
 -1      1212 1.96500E+01 0.00000E+00 0.00000E+00
 -1      1213 2.26500E+01 0.00000E+00 0.00000E+00
 -1      1214 2.56500E+01 0.00000E+00 0.00000E+00
 -1      1215 2.86500E+01 0.00000E+00 0.00000E+00
 -1      1216 3.16500E+01 0.00000E+00 0.00000E+00
 -1      1217 3.46500E+01 0.00000E+00 0.00000E+00
 -1      1218 3.76500E+01 0.00000E+00 0.00000E+00
 -1      1219 4.06500E+01 0.00000E+00 0.00000E+00
 -1      1220 4.36500E+01 0.00000E+00 0.00000E+00
 -1      1221 4.66500E+01 0.00000E+00 0.00000E+00
 -1      1222 4.96500E+01 0.00000E+00 0.00000E+00
 -1      1223 5.26500E+01 0.00000E+00 0.00000E+00
 -1      1224 5.56500E+01 0.00000E+00 0.00000E+00
 -1      1225 5.86500E+01 0.00000E+00 0.00000E+00
 -1      1226 6.16500E+01 0.00000E+00 0.00000E+00
 -1      1227 6.46500E+01 0.00000E+00 0.00000E+00
 -1      1228 6.76500E+01 0.00000E+00 0.00000E+00
 -1      1229 7.06500E+01 0.00000E+00 0.00000E+00
 -1      1230 7.36500E+01 0.00000E+00 0.00000E+00
 -1      1231 7.66500E+01 0.00000E+00 0.00000E+00
 -1      1232 7.96500E+01 0.00000E+00 0.00000E+00
 -1      1233 8.26500E+01 0.00000E+00 0.00000E+00
 -1      1234 8.56500E+01 0.00000E+00 0.00000E+00
 -1      1235 8.86500E+01 0.00000E+00 0.00000E+00
 -1      1236 9.16500E+01 0.00000E+00 0.00000E+00
 -1      1237 9.46500E+01 0.00000E+00 0.00000E+00
 -1      1238 9.76500E+01 0.00000E+00 0.00000E+00
 -1      1239 1.00650E+02 0.00000E+00 0.00000E+00
 -1      1240 1.03650E+02 0.00000E+00 0.00000E+00
 -1      1241 1.06650E+02 0.00000E+00 0.00000E+00
 -1      1242 1.09650E+02 0.00000E+00 0.00000E+00
 -1      1243 1.12650E+02 0.00000E+00 0.00000E+00
 -1      1244 1.15650E+02 0.00000E+00 0.00000E+00
 -1      1245 1.18650E+02 0.00000E+00 0.00000E+00
 -1      1246 1.21650E+02 0.00000E+00 0.00000E+00
 -1      1247 1.24650E+02 0.00000E+00 0.00000E+00
 -1      1248 1.27650E+02 0.00000E+00 0.00000E+00
 -1      1249 1.30650E+02 0.00000E+00 0.00000E+00
 -1      1250 1.33650E+02 0.00000E+00 0.00000E+00
 -1      1251 1.36650E+02 0.00000E+00 0.00000E+00
 -1      1252 1.39650E+02 0.00000E+00 0.00000E+00
 -1      1253 1.42650E+02 0.00000E+00 0.00000E+00
 -1      1254 1.45650E+02 0.00000E+00 0.00000E+00
 -1      1255 1.48575E+02 0.00000E+00 0.00000E+00
 -1      1256 1.50000E+02 1.47500E+00 0.00000E+00
 -1      1257 1.50000E+02 4.42500E+00 0.00000E+00
 -1      1258 1.50000E+02 7.37500E+00 0.00000E+00
 -1      1259 1.50000E+02 1.03250E+01 0.00000E+00
 -1      1260 1.50000E+02 1.32750E+01 0.00000E+00
 -1      1261 1.50000E+02 1.62000E+01 0.00000E+00
 -1      1262 1.50000E+02 1.91250E+01 0.00000E+00
 -1      1263 1.50000E+02 2.20750E+01 0.00000E+00
 -1      1264 1.50000E+02 2.50250E+01 0.00000E+00
 -1      1265 1.50000E+02 2.79750E+01 0.00000E+00
 -1      1266 1.50000E+02 3.09250E+01 0.00000E+00
 -1      1267 1.50000E+02 3.38500E+01 0.00000E+00
 -1      1268 1.50000E+02 3.67750E+01 0.00000E+00
 -1      1269 1.50000E+02 3.97250E+01 0.00000E+00
 -1      1270 1.50000E+02 4.26750E+01 0.00000E+00
 -1      1271 1.50000E+02 4.56250E+01 0.00000E+00
 -1      1272 1.50000E+02 4.85500E+01 0.00000E+00
 -1      1273 6.43335E+01 2.69072E+01 0.00000E+00
 -1      1274 6.40068E+01 2.54216E+01 0.00000E+00
 -1      1275 6.33792E+01 2.40621E+01 0.00000E+00
 -1      1276 6.24618E+01 2.28513E+01 0.00000E+00
 -1      1277 6.13032E+01 2.18659E+01 0.00000E+00
 -1      1278 5.99123E+01 2.11355E+01 0.00000E+00
 -1      1279 5.83958E+01 2.07341E+01 0.00000E+00
 -1      1280 5.68572E+01 2.06782E+01 0.00000E+00
 -1      1281 5.52921E+01 2.09759E+01 0.00000E+00
 -1      1282 5.38599E+01 2.16051E+01 0.00000E+00
 -1      1283 5.25612E+01 2.25761E+01 0.00000E+00
 -1      1284 5.14972E+01 2.38562E+01 0.00000E+00
 -1      1285 5.08074E+01 2.52343E+01 0.00000E+00
 -1      1286 5.04382E+01 2.67137E+01 0.00000E+00
 -1      1287 5.04024E+01 2.82888E+01 0.00000E+00
 -1      1288 5.07067E+01 2.97913E+01 0.00000E+00
 -1      1289 5.13418E+01 3.12105E+01 0.00000E+00
 -1      1290 5.23026E+01 3.24841E+01 0.00000E+00
 -1      1291 5.34806E+01 3.34764E+01 0.00000E+00
 -1      1292 5.48988E+01 3.42069E+01 0.00000E+00
 -1      1293 5.64827E+01 3.46021E+01 0.00000E+00
 -1      1294 5.79406E+01 3.46361E+01 0.00000E+00
 -1      1295 5.93547E+01 3.43730E+01 0.00000E+00
 -1      1296 6.06935E+01 3.38220E+01 0.00000E+00
 -1      1297 6.18336E+01 3.30547E+01 0.00000E+00
 -1      1298 6.27883E+01 3.20960E+01 0.00000E+00
 -1      1299 6.35490E+01 3.09562E+01 0.00000E+00
 -1      1300 6.40788E+01 2.96708E+01 0.00000E+00
 -1      1301 6.43419E+01 2.83291E+01 0.00000E+00
 -1      1302 1.57500E+00 4.85250E+01 0.00000E+00
 -1      1303 1.29900E+00 4.48375E+01 0.00000E+00
 -1      1304 1.29900E+00 4.63125E+01 0.00000E+00
 -1      1305 1.29900E+00 4.18875E+01 0.00000E+00
 -1      1306 1.29900E+00 4.33625E+01 0.00000E+00
 -1      1307 2.59800E+00 4.41000E+01 0.00000E+00
 -1      1308 1.29900E+00 3.89375E+01 0.00000E+00
 -1      1309 1.29900E+00 4.04125E+01 0.00000E+00
 -1      1310 2.59800E+00 4.11500E+01 0.00000E+00
 -1      1311 1.29900E+00 3.59875E+01 0.00000E+00
 -1      1312 1.29900E+00 3.74625E+01 0.00000E+00
 -1      1313 2.59800E+00 3.82000E+01 0.00000E+00
 -1      1314 1.29900E+00 3.30875E+01 0.00000E+00
 -1      1315 1.29900E+00 3.45375E+01 0.00000E+00
 -1      1316 2.59800E+00 3.52750E+01 0.00000E+00
 -1      1317 1.29900E+00 3.01375E+01 0.00000E+00
 -1      1318 1.29900E+00 3.16125E+01 0.00000E+00
 -1      1319 2.59800E+00 3.23500E+01 0.00000E+00
 -1      1320 1.29900E+00 2.71875E+01 0.00000E+00
 -1      1321 1.29900E+00 2.86625E+01 0.00000E+00
 -1      1322 2.59800E+00 2.94000E+01 0.00000E+00
 -1      1323 1.29900E+00 2.42375E+01 0.00000E+00
 -1      1324 1.29900E+00 2.57125E+01 0.00000E+00
 -1      1325 2.59800E+00 2.64500E+01 0.00000E+00
 -1      1326 1.29900E+00 2.12875E+01 0.00000E+00
 -1      1327 1.29900E+00 2.27625E+01 0.00000E+00
 -1      1328 2.59800E+00 2.35000E+01 0.00000E+00
 -1      1329 1.29900E+00 1.83375E+01 0.00000E+00
 -1      1330 1.29900E+00 1.98125E+01 0.00000E+00
 -1      1331 2.59800E+00 2.05500E+01 0.00000E+00
 -1      1332 1.29900E+00 1.54375E+01 0.00000E+00
 -1      1333 1.29900E+00 1.68875E+01 0.00000E+00
 -1      1334 2.59800E+00 1.76250E+01 0.00000E+00
 -1      1335 1.29900E+00 1.24875E+01 0.00000E+00
 -1      1336 1.29900E+00 1.39625E+01 0.00000E+00
 -1      1337 2.59800E+00 1.47000E+01 0.00000E+00
 -1      1338 1.29900E+00 9.53750E+00 0.00000E+00
 -1      1339 1.29900E+00 1.10125E+01 0.00000E+00
 -1      1340 2.59800E+00 1.17500E+01 0.00000E+00
 -1      1341 1.29900E+00 6.58750E+00 0.00000E+00
 -1      1342 1.29900E+00 8.06250E+00 0.00000E+00
 -1      1343 2.59800E+00 8.80000E+00 0.00000E+00
 -1      1344 1.29900E+00 3.63750E+00 0.00000E+00
 -1      1345 1.29900E+00 5.11250E+00 0.00000E+00
 -1      1346 2.59800E+00 5.85000E+00 0.00000E+00
 -1      1347 1.43700E+00 1.09375E+00 0.00000E+00
 -1      1348 1.43700E+00 2.54375E+00 0.00000E+00
 -1      1349 2.73600E+00 3.28125E+00 0.00000E+00
 -1      1350 3.01200E+00 1.09375E+00 0.00000E+00
 -1      1351 3.90000E+00 4.87010E+01 0.00000E+00
 -1      1352 5.40000E+00 4.87010E+01 0.00000E+00
 -1      1353 6.90000E+00 4.87010E+01 0.00000E+00
 -1      1354 8.40000E+00 4.87010E+01 0.00000E+00
 -1      1355 6.15000E+00 4.74020E+01 0.00000E+00
 -1      1356 9.90000E+00 4.87010E+01 0.00000E+00
 -1      1357 1.14000E+01 4.87010E+01 0.00000E+00
 -1      1358 9.15000E+00 4.74020E+01 0.00000E+00
 -1      1359 1.29000E+01 4.87010E+01 0.00000E+00
 -1      1360 1.44000E+01 4.87010E+01 0.00000E+00
 -1      1361 1.21500E+01 4.74020E+01 0.00000E+00
 -1      1362 1.59000E+01 4.87010E+01 0.00000E+00
 -1      1363 1.74000E+01 4.87010E+01 0.00000E+00
 -1      1364 1.51500E+01 4.74020E+01 0.00000E+00
 -1      1365 1.89000E+01 4.87010E+01 0.00000E+00
 -1      1366 2.04000E+01 4.87010E+01 0.00000E+00
 -1      1367 1.81500E+01 4.74020E+01 0.00000E+00
 -1      1368 2.19000E+01 4.87010E+01 0.00000E+00
 -1      1369 2.34000E+01 4.87010E+01 0.00000E+00
 -1      1370 2.11500E+01 4.74020E+01 0.00000E+00
 -1      1371 2.49000E+01 4.87010E+01 0.00000E+00
 -1      1372 2.64000E+01 4.87010E+01 0.00000E+00
 -1      1373 2.41500E+01 4.74020E+01 0.00000E+00
 -1      1374 2.79000E+01 4.87010E+01 0.00000E+00
 -1      1375 2.94000E+01 4.87010E+01 0.00000E+00
 -1      1376 2.71500E+01 4.74020E+01 0.00000E+00
 -1      1377 3.09000E+01 4.87010E+01 0.00000E+00
 -1      1378 3.24000E+01 4.87010E+01 0.00000E+00
 -1      1379 3.01500E+01 4.74020E+01 0.00000E+00
 -1      1380 3.39000E+01 4.87010E+01 0.00000E+00
 -1      1381 3.54000E+01 4.87010E+01 0.00000E+00
 -1      1382 3.31500E+01 4.74020E+01 0.00000E+00
 -1      1383 3.69000E+01 4.87010E+01 0.00000E+00
 -1      1384 3.84000E+01 4.87010E+01 0.00000E+00
 -1      1385 3.61500E+01 4.74020E+01 0.00000E+00
 -1      1386 3.99000E+01 4.87010E+01 0.00000E+00
 -1      1387 4.14000E+01 4.87010E+01 0.00000E+00
 -1      1388 3.91500E+01 4.74020E+01 0.00000E+00
 -1      1389 4.29000E+01 4.87010E+01 0.00000E+00
 -1      1390 4.44000E+01 4.87010E+01 0.00000E+00
 -1      1391 4.21500E+01 4.74020E+01 0.00000E+00
 -1      1392 4.59000E+01 4.87010E+01 0.00000E+00
 -1      1393 4.74000E+01 4.87010E+01 0.00000E+00
 -1      1394 4.51500E+01 4.74020E+01 0.00000E+00
 -1      1395 4.89000E+01 4.87010E+01 0.00000E+00
 -1      1396 5.04000E+01 4.87010E+01 0.00000E+00
 -1      1397 4.81500E+01 4.74020E+01 0.00000E+00
 -1      1398 5.19000E+01 4.87010E+01 0.00000E+00
 -1      1399 5.34000E+01 4.87010E+01 0.00000E+00
 -1      1400 5.11500E+01 4.74020E+01 0.00000E+00
 -1      1401 5.49000E+01 4.87010E+01 0.00000E+00
 -1      1402 5.64000E+01 4.87010E+01 0.00000E+00
 -1      1403 5.41500E+01 4.74020E+01 0.00000E+00
 -1      1404 5.79000E+01 4.87010E+01 0.00000E+00
 -1      1405 5.94000E+01 4.87010E+01 0.00000E+00
 -1      1406 5.71500E+01 4.74020E+01 0.00000E+00
 -1      1407 6.09000E+01 4.87010E+01 0.00000E+00
 -1      1408 6.24000E+01 4.87010E+01 0.00000E+00
 -1      1409 6.01500E+01 4.74020E+01 0.00000E+00
 -1      1410 6.39000E+01 4.87010E+01 0.00000E+00
 -1      1411 6.54000E+01 4.87010E+01 0.00000E+00
 -1      1412 6.31500E+01 4.74020E+01 0.00000E+00
 -1      1413 6.69000E+01 4.87010E+01 0.00000E+00
 -1      1414 6.84000E+01 4.87010E+01 0.00000E+00
 -1      1415 6.61500E+01 4.74020E+01 0.00000E+00
 -1      1416 6.99000E+01 4.87010E+01 0.00000E+00
 -1      1417 7.14000E+01 4.87010E+01 0.00000E+00
 -1      1418 6.91500E+01 4.74020E+01 0.00000E+00
 -1      1419 7.29000E+01 4.87010E+01 0.00000E+00
 -1      1420 7.44000E+01 4.87010E+01 0.00000E+00
 -1      1421 7.21500E+01 4.74020E+01 0.00000E+00
 -1      1422 7.59000E+01 4.87010E+01 0.00000E+00
 -1      1423 7.74000E+01 4.87010E+01 0.00000E+00
 -1      1424 7.51500E+01 4.74020E+01 0.00000E+00
 -1      1425 7.89000E+01 4.87010E+01 0.00000E+00
 -1      1426 8.04000E+01 4.87010E+01 0.00000E+00
 -1      1427 7.81500E+01 4.74020E+01 0.00000E+00
 -1      1428 8.19000E+01 4.87010E+01 0.00000E+00
 -1      1429 8.34000E+01 4.87010E+01 0.00000E+00
 -1      1430 8.11500E+01 4.74020E+01 0.00000E+00
 -1      1431 8.49000E+01 4.87010E+01 0.00000E+00
 -1      1432 8.64000E+01 4.87010E+01 0.00000E+00
 -1      1433 8.41500E+01 4.74020E+01 0.00000E+00
 -1      1434 8.79000E+01 4.87010E+01 0.00000E+00
 -1      1435 8.94000E+01 4.87010E+01 0.00000E+00
 -1      1436 8.71500E+01 4.74020E+01 0.00000E+00
 -1      1437 9.09000E+01 4.87010E+01 0.00000E+00
 -1      1438 9.24000E+01 4.87010E+01 0.00000E+00
 -1      1439 9.01500E+01 4.74020E+01 0.00000E+00
 -1      1440 9.39000E+01 4.87010E+01 0.00000E+00
 -1      1441 9.54000E+01 4.87010E+01 0.00000E+00
 -1      1442 9.31500E+01 4.74020E+01 0.00000E+00
 -1      1443 9.69000E+01 4.87010E+01 0.00000E+00
 -1      1444 9.84000E+01 4.87010E+01 0.00000E+00
 -1      1445 9.61500E+01 4.74020E+01 0.00000E+00
 -1      1446 9.99000E+01 4.87010E+01 0.00000E+00
 -1      1447 1.01400E+02 4.87010E+01 0.00000E+00
 -1      1448 9.91500E+01 4.74020E+01 0.00000E+00
 -1      1449 1.02900E+02 4.87010E+01 0.00000E+00
 -1      1450 1.04400E+02 4.87010E+01 0.00000E+00
 -1      1451 1.02150E+02 4.74020E+01 0.00000E+00
 -1      1452 1.05900E+02 4.87010E+01 0.00000E+00
 -1      1453 1.07400E+02 4.87010E+01 0.00000E+00
 -1      1454 1.05150E+02 4.74020E+01 0.00000E+00
 -1      1455 1.08900E+02 4.87010E+01 0.00000E+00
 -1      1456 1.10400E+02 4.87010E+01 0.00000E+00
 -1      1457 1.08150E+02 4.74020E+01 0.00000E+00
 -1      1458 1.11900E+02 4.87010E+01 0.00000E+00
 -1      1459 1.13400E+02 4.87010E+01 0.00000E+00
 -1      1460 1.11150E+02 4.74020E+01 0.00000E+00
 -1      1461 1.14900E+02 4.87010E+01 0.00000E+00
 -1      1462 1.16400E+02 4.87010E+01 0.00000E+00
 -1      1463 1.14150E+02 4.74020E+01 0.00000E+00
 -1      1464 1.17900E+02 4.87010E+01 0.00000E+00
 -1      1465 1.19400E+02 4.87010E+01 0.00000E+00
 -1      1466 1.17150E+02 4.74020E+01 0.00000E+00
 -1      1467 1.20900E+02 4.87010E+01 0.00000E+00
 -1      1468 1.22400E+02 4.87010E+01 0.00000E+00
 -1      1469 1.20150E+02 4.74020E+01 0.00000E+00
 -1      1470 1.23900E+02 4.87010E+01 0.00000E+00
 -1      1471 1.25400E+02 4.87010E+01 0.00000E+00
 -1      1472 1.23150E+02 4.74020E+01 0.00000E+00
 -1      1473 1.26900E+02 4.87010E+01 0.00000E+00
 -1      1474 1.28400E+02 4.87010E+01 0.00000E+00
 -1      1475 1.26150E+02 4.74020E+01 0.00000E+00
 -1      1476 1.29900E+02 4.87010E+01 0.00000E+00
 -1      1477 1.31400E+02 4.87010E+01 0.00000E+00
 -1      1478 1.29150E+02 4.74020E+01 0.00000E+00
 -1      1479 1.32900E+02 4.87010E+01 0.00000E+00
 -1      1480 1.34400E+02 4.87010E+01 0.00000E+00
 -1      1481 1.32150E+02 4.74020E+01 0.00000E+00
 -1      1482 1.35900E+02 4.87010E+01 0.00000E+00
 -1      1483 1.37400E+02 4.87010E+01 0.00000E+00
 -1      1484 1.35150E+02 4.74020E+01 0.00000E+00
 -1      1485 1.38900E+02 4.87010E+01 0.00000E+00
 -1      1486 1.40400E+02 4.87010E+01 0.00000E+00
 -1      1487 1.38150E+02 4.74020E+01 0.00000E+00
 -1      1488 1.41900E+02 4.87010E+01 0.00000E+00
 -1      1489 1.43400E+02 4.87010E+01 0.00000E+00
 -1      1490 1.41150E+02 4.74020E+01 0.00000E+00
 -1      1491 1.44900E+02 4.87010E+01 0.00000E+00
 -1      1492 1.46400E+02 4.87010E+01 0.00000E+00
 -1      1493 1.44150E+02 4.74020E+01 0.00000E+00
 -1      1494 1.48575E+02 4.85500E+01 0.00000E+00
 -1      1495 1.47825E+02 4.72510E+01 0.00000E+00
 -1      1496 6.01200E+00 1.09375E+00 0.00000E+00
 -1      1497 4.51200E+00 1.09375E+00 0.00000E+00
 -1      1498 4.37400E+00 2.18750E+00 0.00000E+00
 -1      1499 9.01200E+00 1.09375E+00 0.00000E+00
 -1      1500 7.51200E+00 1.09375E+00 0.00000E+00
 -1      1501 7.37400E+00 2.18750E+00 0.00000E+00
 -1      1502 1.20120E+01 1.09375E+00 0.00000E+00
 -1      1503 1.05120E+01 1.09375E+00 0.00000E+00
 -1      1504 1.03740E+01 2.18750E+00 0.00000E+00
 -1      1505 1.50120E+01 1.09375E+00 0.00000E+00
 -1      1506 1.35120E+01 1.09375E+00 0.00000E+00
 -1      1507 1.33740E+01 2.18750E+00 0.00000E+00
 -1      1508 1.80120E+01 1.09375E+00 0.00000E+00
 -1      1509 1.65120E+01 1.09375E+00 0.00000E+00
 -1      1510 1.63740E+01 2.18750E+00 0.00000E+00
 -1      1511 2.10120E+01 1.09375E+00 0.00000E+00
 -1      1512 1.95120E+01 1.09375E+00 0.00000E+00
 -1      1513 1.93740E+01 2.18750E+00 0.00000E+00
 -1      1514 2.40120E+01 1.09375E+00 0.00000E+00
 -1      1515 2.25120E+01 1.09375E+00 0.00000E+00
 -1      1516 2.23740E+01 2.18750E+00 0.00000E+00
 -1      1517 2.70120E+01 1.09375E+00 0.00000E+00
 -1      1518 2.55120E+01 1.09375E+00 0.00000E+00
 -1      1519 2.53740E+01 2.18750E+00 0.00000E+00
 -1      1520 3.00120E+01 1.09375E+00 0.00000E+00
 -1      1521 2.85120E+01 1.09375E+00 0.00000E+00
 -1      1522 2.83740E+01 2.18750E+00 0.00000E+00
 -1      1523 3.30120E+01 1.09375E+00 0.00000E+00
 -1      1524 3.15120E+01 1.09375E+00 0.00000E+00
 -1      1525 3.13740E+01 2.18750E+00 0.00000E+00
 -1      1526 3.60120E+01 1.09375E+00 0.00000E+00
 -1      1527 3.45120E+01 1.09375E+00 0.00000E+00
 -1      1528 3.43740E+01 2.18750E+00 0.00000E+00
 -1      1529 3.90120E+01 1.09375E+00 0.00000E+00
 -1      1530 3.75120E+01 1.09375E+00 0.00000E+00
 -1      1531 3.73740E+01 2.18750E+00 0.00000E+00
 -1      1532 4.20120E+01 1.09375E+00 0.00000E+00
 -1      1533 4.05120E+01 1.09375E+00 0.00000E+00
 -1      1534 4.03740E+01 2.18750E+00 0.00000E+00
 -1      1535 4.50120E+01 1.09375E+00 0.00000E+00
 -1      1536 4.35120E+01 1.09375E+00 0.00000E+00
 -1      1537 4.33740E+01 2.18750E+00 0.00000E+00
 -1      1538 4.80120E+01 1.09375E+00 0.00000E+00
 -1      1539 4.65120E+01 1.09375E+00 0.00000E+00
 -1      1540 4.63740E+01 2.18750E+00 0.00000E+00
 -1      1541 5.10120E+01 1.09375E+00 0.00000E+00
 -1      1542 4.95120E+01 1.09375E+00 0.00000E+00
 -1      1543 4.93740E+01 2.18750E+00 0.00000E+00
 -1      1544 5.40120E+01 1.09375E+00 0.00000E+00
 -1      1545 5.25120E+01 1.09375E+00 0.00000E+00
 -1      1546 5.23740E+01 2.18750E+00 0.00000E+00
 -1      1547 5.70120E+01 1.09375E+00 0.00000E+00
 -1      1548 5.55120E+01 1.09375E+00 0.00000E+00
 -1      1549 5.53740E+01 2.18750E+00 0.00000E+00
 -1      1550 6.00120E+01 1.09375E+00 0.00000E+00
 -1      1551 5.85120E+01 1.09375E+00 0.00000E+00
 -1      1552 5.83740E+01 2.18750E+00 0.00000E+00
 -1      1553 6.30120E+01 1.09375E+00 0.00000E+00
 -1      1554 6.15120E+01 1.09375E+00 0.00000E+00
 -1      1555 6.13740E+01 2.18750E+00 0.00000E+00
 -1      1556 6.60120E+01 1.09375E+00 0.00000E+00
 -1      1557 6.45120E+01 1.09375E+00 0.00000E+00
 -1      1558 6.43740E+01 2.18750E+00 0.00000E+00
 -1      1559 6.90120E+01 1.09375E+00 0.00000E+00
 -1      1560 6.75120E+01 1.09375E+00 0.00000E+00
 -1      1561 6.73740E+01 2.18750E+00 0.00000E+00
 -1      1562 7.20120E+01 1.09375E+00 0.00000E+00
 -1      1563 7.05120E+01 1.09375E+00 0.00000E+00
 -1      1564 7.03740E+01 2.18750E+00 0.00000E+00
 -1      1565 7.50120E+01 1.09375E+00 0.00000E+00
 -1      1566 7.35120E+01 1.09375E+00 0.00000E+00
 -1      1567 7.33740E+01 2.18750E+00 0.00000E+00
 -1      1568 7.80120E+01 1.09375E+00 0.00000E+00
 -1      1569 7.65120E+01 1.09375E+00 0.00000E+00
 -1      1570 7.63740E+01 2.18750E+00 0.00000E+00
 -1      1571 8.10120E+01 1.09375E+00 0.00000E+00
 -1      1572 7.95120E+01 1.09375E+00 0.00000E+00
 -1      1573 7.93740E+01 2.18750E+00 0.00000E+00
 -1      1574 8.40120E+01 1.09375E+00 0.00000E+00
 -1      1575 8.25120E+01 1.09375E+00 0.00000E+00
 -1      1576 8.23740E+01 2.18750E+00 0.00000E+00
 -1      1577 8.70120E+01 1.09375E+00 0.00000E+00
 -1      1578 8.55120E+01 1.09375E+00 0.00000E+00
 -1      1579 8.53740E+01 2.18750E+00 0.00000E+00
 -1      1580 9.00120E+01 1.09375E+00 0.00000E+00
 -1      1581 8.85120E+01 1.09375E+00 0.00000E+00
 -1      1582 8.83740E+01 2.18750E+00 0.00000E+00
 -1      1583 9.30120E+01 1.09375E+00 0.00000E+00
 -1      1584 9.15120E+01 1.09375E+00 0.00000E+00
 -1      1585 9.13740E+01 2.18750E+00 0.00000E+00
 -1      1586 9.60120E+01 1.09375E+00 0.00000E+00
 -1      1587 9.45120E+01 1.09375E+00 0.00000E+00
 -1      1588 9.43740E+01 2.18750E+00 0.00000E+00
 -1      1589 9.90120E+01 1.09375E+00 0.00000E+00
 -1      1590 9.75120E+01 1.09375E+00 0.00000E+00
 -1      1591 9.73740E+01 2.18750E+00 0.00000E+00
 -1      1592 1.02012E+02 1.09375E+00 0.00000E+00
 -1      1593 1.00512E+02 1.09375E+00 0.00000E+00
 -1      1594 1.00374E+02 2.18750E+00 0.00000E+00
 -1      1595 1.05012E+02 1.09375E+00 0.00000E+00
 -1      1596 1.03512E+02 1.09375E+00 0.00000E+00
 -1      1597 1.03374E+02 2.18750E+00 0.00000E+00
 -1      1598 1.08012E+02 1.09375E+00 0.00000E+00
 -1      1599 1.06512E+02 1.09375E+00 0.00000E+00
 -1      1600 1.06374E+02 2.18750E+00 0.00000E+00
 -1      1601 1.11012E+02 1.09375E+00 0.00000E+00
 -1      1602 1.09512E+02 1.09375E+00 0.00000E+00
 -1      1603 1.09374E+02 2.18750E+00 0.00000E+00
 -1      1604 1.14012E+02 1.09375E+00 0.00000E+00
 -1      1605 1.12512E+02 1.09375E+00 0.00000E+00
 -1      1606 1.12374E+02 2.18750E+00 0.00000E+00
 -1      1607 1.17012E+02 1.09375E+00 0.00000E+00
 -1      1608 1.15512E+02 1.09375E+00 0.00000E+00
 -1      1609 1.15374E+02 2.18750E+00 0.00000E+00
 -1      1610 1.20012E+02 1.09375E+00 0.00000E+00
 -1      1611 1.18512E+02 1.09375E+00 0.00000E+00
 -1      1612 1.18374E+02 2.18750E+00 0.00000E+00
 -1      1613 1.23012E+02 1.09375E+00 0.00000E+00
 -1      1614 1.21512E+02 1.09375E+00 0.00000E+00
 -1      1615 1.21374E+02 2.18750E+00 0.00000E+00
 -1      1616 1.26012E+02 1.09375E+00 0.00000E+00
 -1      1617 1.24512E+02 1.09375E+00 0.00000E+00
 -1      1618 1.24374E+02 2.18750E+00 0.00000E+00
 -1      1619 1.29012E+02 1.09375E+00 0.00000E+00
 -1      1620 1.27512E+02 1.09375E+00 0.00000E+00
 -1      1621 1.27374E+02 2.18750E+00 0.00000E+00
 -1      1622 1.32012E+02 1.09375E+00 0.00000E+00
 -1      1623 1.30512E+02 1.09375E+00 0.00000E+00
 -1      1624 1.30374E+02 2.18750E+00 0.00000E+00
 -1      1625 1.35012E+02 1.09375E+00 0.00000E+00
 -1      1626 1.33512E+02 1.09375E+00 0.00000E+00
 -1      1627 1.33374E+02 2.18750E+00 0.00000E+00
 -1      1628 1.38012E+02 1.09375E+00 0.00000E+00
 -1      1629 1.36512E+02 1.09375E+00 0.00000E+00
 -1      1630 1.36374E+02 2.18750E+00 0.00000E+00
 -1      1631 1.41012E+02 1.09375E+00 0.00000E+00
 -1      1632 1.39512E+02 1.09375E+00 0.00000E+00
 -1      1633 1.39374E+02 2.18750E+00 0.00000E+00
 -1      1634 1.44012E+02 1.09375E+00 0.00000E+00
 -1      1635 1.42512E+02 1.09375E+00 0.00000E+00
 -1      1636 1.42374E+02 2.18750E+00 0.00000E+00
 -1      1637 1.47012E+02 1.09375E+00 0.00000E+00
 -1      1638 1.45512E+02 1.09375E+00 0.00000E+00
 -1      1639 1.45374E+02 2.18750E+00 0.00000E+00
 -1      1640 1.48575E+02 1.47500E+00 0.00000E+00
 -1      1641 1.48701E+02 5.16250E+00 0.00000E+00
 -1      1642 1.48701E+02 3.68750E+00 0.00000E+00
 -1      1643 1.48701E+02 8.11250E+00 0.00000E+00
 -1      1644 1.48701E+02 6.63750E+00 0.00000E+00
 -1      1645 1.47402E+02 5.90000E+00 0.00000E+00
 -1      1646 1.48701E+02 1.10625E+01 0.00000E+00
 -1      1647 1.48701E+02 9.58750E+00 0.00000E+00
 -1      1648 1.47402E+02 8.85000E+00 0.00000E+00
 -1      1649 1.48701E+02 1.40125E+01 0.00000E+00
 -1      1650 1.48701E+02 1.25375E+01 0.00000E+00
 -1      1651 1.47402E+02 1.18000E+01 0.00000E+00
 -1      1652 1.48701E+02 1.69125E+01 0.00000E+00
 -1      1653 1.48701E+02 1.54625E+01 0.00000E+00
 -1      1654 1.47402E+02 1.47250E+01 0.00000E+00
 -1      1655 1.48701E+02 1.98625E+01 0.00000E+00
 -1      1656 1.48701E+02 1.83875E+01 0.00000E+00
 -1      1657 1.47402E+02 1.76500E+01 0.00000E+00
 -1      1658 1.48701E+02 2.28125E+01 0.00000E+00
 -1      1659 1.48701E+02 2.13375E+01 0.00000E+00
 -1      1660 1.47402E+02 2.06000E+01 0.00000E+00
 -1      1661 1.48701E+02 2.57625E+01 0.00000E+00
 -1      1662 1.48701E+02 2.42875E+01 0.00000E+00
 -1      1663 1.47402E+02 2.35500E+01 0.00000E+00
 -1      1664 1.48701E+02 2.87125E+01 0.00000E+00
 -1      1665 1.48701E+02 2.72375E+01 0.00000E+00
 -1      1666 1.47402E+02 2.65000E+01 0.00000E+00
 -1      1667 1.48701E+02 3.16625E+01 0.00000E+00
 -1      1668 1.48701E+02 3.01875E+01 0.00000E+00
 -1      1669 1.47402E+02 2.94500E+01 0.00000E+00
 -1      1670 1.48701E+02 3.45625E+01 0.00000E+00
 -1      1671 1.48701E+02 3.31125E+01 0.00000E+00
 -1      1672 1.47402E+02 3.23750E+01 0.00000E+00
 -1      1673 1.48701E+02 3.75125E+01 0.00000E+00
 -1      1674 1.48701E+02 3.60375E+01 0.00000E+00
 -1      1675 1.47402E+02 3.53000E+01 0.00000E+00
 -1      1676 1.48701E+02 4.04625E+01 0.00000E+00
 -1      1677 1.48701E+02 3.89875E+01 0.00000E+00
 -1      1678 1.47402E+02 3.82500E+01 0.00000E+00
 -1      1679 1.48701E+02 4.34125E+01 0.00000E+00
 -1      1680 1.48701E+02 4.19375E+01 0.00000E+00
 -1      1681 1.47402E+02 4.12000E+01 0.00000E+00
 -1      1682 1.48263E+02 4.60692E+01 0.00000E+00
 -1      1683 1.48263E+02 4.45942E+01 0.00000E+00
 -1      1684 1.46964E+02 4.38568E+01 0.00000E+00
 -1      1685 1.46088E+02 4.62202E+01 0.00000E+00
 -1      1686 6.48973E+01 2.64682E+01 0.00000E+00
 -1      1687 6.49780E+01 2.72157E+01 0.00000E+00
 -1      1688 6.44578E+01 2.48635E+01 0.00000E+00
 -1      1689 6.47037E+01 2.55924E+01 0.00000E+00
 -1      1690 6.36796E+01 2.34578E+01 0.00000E+00
 -1      1691 6.40537E+01 2.40824E+01 0.00000E+00
 -1      1692 6.26286E+01 2.21495E+01 0.00000E+00
 -1      1693 6.31719E+01 2.27245E+01 0.00000E+00
 -1      1694 6.13435E+01 2.11562E+01 0.00000E+00
 -1      1695 6.19476E+01 2.15660E+01 0.00000E+00
 -1      1696 5.97826E+01 2.03092E+01 0.00000E+00
 -1      1697 6.05663E+01 2.06141E+01 0.00000E+00
 -1      1698 5.81188E+01 2.01188E+01 0.00000E+00
 -1      1699 5.88387E+01 2.02250E+01 0.00000E+00
 -1      1700 5.64049E+01 2.00672E+01 0.00000E+00
 -1      1701 5.72146E+01 2.00072E+01 0.00000E+00
 -1      1702 5.47145E+01 2.04350E+01 0.00000E+00
 -1      1703 5.54604E+01 2.02027E+01 0.00000E+00
 -1      1704 5.31969E+01 2.12430E+01 0.00000E+00
 -1      1705 5.38742E+01 2.08498E+01 0.00000E+00
 -1      1706 5.17595E+01 2.23390E+01 0.00000E+00
 -1      1707 5.23682E+01 2.17626E+01 0.00000E+00
 -1      1708 5.06994E+01 2.38320E+01 0.00000E+00
 -1      1709 5.11482E+01 2.31383E+01 0.00000E+00
 -1      1710 5.01493E+01 2.53723E+01 0.00000E+00
 -1      1711 5.03969E+01 2.47017E+01 0.00000E+00
 -1      1712 4.96634E+01 2.70168E+01 0.00000E+00
 -1      1713 4.97728E+01 2.62143E+01 0.00000E+00
 -1      1714 4.98332E+01 2.87245E+01 0.00000E+00
 -1      1715 4.97643E+01 2.79621E+01 0.00000E+00
 -1      1716 5.02864E+01 3.03287E+01 0.00000E+00
 -1      1717 5.00526E+01 2.95976E+01 0.00000E+00
 -1      1718 5.10574E+01 3.18347E+01 0.00000E+00
 -1      1719 5.06580E+01 3.11563E+01 0.00000E+00
 -1      1720 5.21152E+01 3.32202E+01 0.00000E+00
 -1      1721 5.15582E+01 3.26347E+01 0.00000E+00
 -1      1722 5.34690E+01 3.41519E+01 0.00000E+00
 -1      1723 5.28606E+01 3.37447E+01 0.00000E+00
 -1      1724 5.50626E+01 3.49941E+01 0.00000E+00
 -1      1725 5.42552E+01 3.46889E+01 0.00000E+00
 -1      1726 5.67871E+01 3.52519E+01 0.00000E+00
 -1      1727 5.60241E+01 3.51539E+01 0.00000E+00
 -1      1728 5.83302E+01 3.51786E+01 0.00000E+00
 -1      1729 5.76436E+01 3.52344E+01 0.00000E+00
 -1      1730 5.98979E+01 3.48902E+01 0.00000E+00
 -1      1731 5.91791E+01 3.51023E+01 0.00000E+00
 -1      1732 6.12917E+01 3.41962E+01 0.00000E+00
 -1      1733 6.06769E+01 3.45274E+01 0.00000E+00
 -1      1734 6.24594E+01 3.32815E+01 0.00000E+00
 -1      1735 6.19385E+01 3.37120E+01 0.00000E+00
 -1      1736 6.34464E+01 3.21975E+01 0.00000E+00
 -1      1737 6.30172E+01 3.27213E+01 0.00000E+00
 -1      1738 6.42166E+01 3.09198E+01 0.00000E+00
 -1      1739 6.38901E+01 3.15312E+01 0.00000E+00
 -1      1740 6.47262E+01 2.95011E+01 0.00000E+00
 -1      1741 6.45259E+01 3.01689E+01 0.00000E+00
 -1      1742 6.49454E+01 2.80506E+01 0.00000E+00
 -1      1743 6.48813E+01 2.87176E+01 0.00000E+00
 -1      1744 6.26903E+01 2.14083E+01 0.00000E+00
 -1      1745 6.38790E+01 2.27253E+01 0.00000E+00
 -1      1746 1.48437E+02 2.56875E+00 0.00000E+00
 -1      1747 1.47138E+02 3.30625E+00 0.00000E+00
 -1      1748 6.53884E+01 2.58966E+01 0.00000E+00
 -1      1749 6.47908E+01 2.42397E+01 0.00000E+00
 -1      1750 6.55494E+01 2.76072E+01 0.00000E+00
 -1      1751 6.12322E+01 2.02826E+01 0.00000E+00
 -1      1752 5.95111E+01 1.96563E+01 0.00000E+00
 -1      1753 5.76630E+01 1.94606E+01 0.00000E+00
 -1      1754 5.58143E+01 1.94846E+01 0.00000E+00
 -1      1755 5.40295E+01 2.00349E+01 0.00000E+00
 -1      1756 5.23605E+01 2.09693E+01 0.00000E+00
 -1      1757 5.09206E+01 2.22883E+01 0.00000E+00
 -1      1758 5.00069E+01 2.39573E+01 0.00000E+00
 -1      1759 4.93279E+01 2.56690E+01 0.00000E+00
 -1      1760 4.90524E+01 2.74563E+01 0.00000E+00
 -1      1761 4.93727E+01 2.92747E+01 0.00000E+00
 -1      1762 4.99637E+01 3.09754E+01 0.00000E+00
 -1      1763 5.08361E+01 3.26031E+01 0.00000E+00
 -1      1764 5.20822E+01 3.39276E+01 0.00000E+00
 -1      1765 5.36139E+01 3.49891E+01 0.00000E+00
 -1      1766 5.53616E+01 3.56859E+01 0.00000E+00
 -1      1767 5.71795E+01 3.58282E+01 0.00000E+00
 -1      1768 5.88849E+01 3.57344E+01 0.00000E+00
 -1      1769 6.05127E+01 3.52952E+01 0.00000E+00
 -1      1770 6.19384E+01 3.44482E+01 0.00000E+00
 -1      1771 6.31429E+01 3.34038E+01 0.00000E+00
 -1      1772 6.41444E+01 3.21773E+01 0.00000E+00
 -1      1773 6.48974E+01 3.07601E+01 0.00000E+00
 -1      1774 6.53617E+01 2.92257E+01 0.00000E+00
 -1      1775 2.87400E+00 4.77875E+01 0.00000E+00
 -1      1776 3.89700E+00 4.04125E+01 0.00000E+00
 -1      1777 3.89700E+00 4.18875E+01 0.00000E+00
 -1      1778 3.89700E+00 4.33625E+01 0.00000E+00
 -1      1779 3.89700E+00 4.48375E+01 0.00000E+00
 -1      1780 5.19600E+00 4.26250E+01 0.00000E+00
 -1      1781 3.89700E+00 3.45500E+01 0.00000E+00
 -1      1782 3.89700E+00 3.60000E+01 0.00000E+00
 -1      1783 3.89700E+00 3.16000E+01 0.00000E+00
 -1      1784 3.89700E+00 3.30750E+01 0.00000E+00
 -1      1785 5.19600E+00 3.38000E+01 0.00000E+00
 -1      1786 3.89700E+00 2.86500E+01 0.00000E+00
 -1      1787 3.89700E+00 3.01250E+01 0.00000E+00
 -1      1788 5.19600E+00 3.08500E+01 0.00000E+00
 -1      1789 3.89700E+00 2.57000E+01 0.00000E+00
 -1      1790 3.89700E+00 2.71750E+01 0.00000E+00
 -1      1791 5.19600E+00 2.79000E+01 0.00000E+00
 -1      1792 3.89700E+00 2.27500E+01 0.00000E+00
 -1      1793 3.89700E+00 2.42250E+01 0.00000E+00
 -1      1794 5.19600E+00 2.49500E+01 0.00000E+00
 -1      1795 3.89700E+00 1.98000E+01 0.00000E+00
 -1      1796 3.89700E+00 2.12750E+01 0.00000E+00
 -1      1797 5.19600E+00 2.20000E+01 0.00000E+00
 -1      1798 3.89700E+00 1.69000E+01 0.00000E+00
 -1      1799 3.89700E+00 1.83500E+01 0.00000E+00
 -1      1800 5.19600E+00 1.90750E+01 0.00000E+00
 -1      1801 3.89700E+00 1.39500E+01 0.00000E+00
 -1      1802 3.89700E+00 1.54250E+01 0.00000E+00
 -1      1803 5.19600E+00 1.61500E+01 0.00000E+00
 -1      1804 3.89700E+00 1.10000E+01 0.00000E+00
 -1      1805 3.89700E+00 1.24750E+01 0.00000E+00
 -1      1806 5.19600E+00 1.32000E+01 0.00000E+00
 -1      1807 3.89700E+00 8.05000E+00 0.00000E+00
 -1      1808 3.89700E+00 9.52500E+00 0.00000E+00
 -1      1809 5.19600E+00 1.02500E+01 0.00000E+00
 -1      1810 3.89700E+00 5.10000E+00 0.00000E+00
 -1      1811 3.89700E+00 6.57500E+00 0.00000E+00
 -1      1812 5.19600E+00 7.30000E+00 0.00000E+00
 -1      1813 4.20450E+00 3.09687E+00 0.00000E+00
 -1      1814 4.06650E+00 4.19063E+00 0.00000E+00
 -1      1815 5.36550E+00 4.91563E+00 0.00000E+00
 -1      1816 5.70450E+00 3.09687E+00 0.00000E+00
 -1      1817 3.62400E+00 4.64885E+01 0.00000E+00
 -1      1818 8.70450E+00 3.09687E+00 0.00000E+00
 -1      1819 7.20450E+00 3.09687E+00 0.00000E+00
 -1      1820 7.03500E+00 4.00625E+00 0.00000E+00
 -1      1821 4.92300E+00 4.57510E+01 0.00000E+00
 -1      1822 8.40000E+00 4.61030E+01 0.00000E+00
 -1      1823 9.90000E+00 4.61030E+01 0.00000E+00
 -1      1824 1.14000E+01 4.61030E+01 0.00000E+00
 -1      1825 1.29000E+01 4.61030E+01 0.00000E+00
 -1      1826 1.06500E+01 4.48040E+01 0.00000E+00
 -1      1827 1.44000E+01 4.61030E+01 0.00000E+00
 -1      1828 1.59000E+01 4.61030E+01 0.00000E+00
 -1      1829 1.36500E+01 4.48040E+01 0.00000E+00
 -1      1830 1.74000E+01 4.61030E+01 0.00000E+00
 -1      1831 1.89000E+01 4.61030E+01 0.00000E+00
 -1      1832 1.66500E+01 4.48040E+01 0.00000E+00
 -1      1833 2.04000E+01 4.61030E+01 0.00000E+00
 -1      1834 2.19000E+01 4.61030E+01 0.00000E+00
 -1      1835 1.96500E+01 4.48040E+01 0.00000E+00
 -1      1836 2.34000E+01 4.61030E+01 0.00000E+00
 -1      1837 2.49000E+01 4.61030E+01 0.00000E+00
 -1      1838 2.26500E+01 4.48040E+01 0.00000E+00
 -1      1839 2.64000E+01 4.61030E+01 0.00000E+00
 -1      1840 2.79000E+01 4.61030E+01 0.00000E+00
 -1      1841 2.56500E+01 4.48040E+01 0.00000E+00
 -1      1842 2.94000E+01 4.61030E+01 0.00000E+00
 -1      1843 3.09000E+01 4.61030E+01 0.00000E+00
 -1      1844 2.86500E+01 4.48040E+01 0.00000E+00
 -1      1845 3.24000E+01 4.61030E+01 0.00000E+00
 -1      1846 3.39000E+01 4.61030E+01 0.00000E+00
 -1      1847 3.16500E+01 4.48040E+01 0.00000E+00
 -1      1848 3.54000E+01 4.61030E+01 0.00000E+00
 -1      1849 3.69000E+01 4.61030E+01 0.00000E+00
 -1      1850 3.46500E+01 4.48040E+01 0.00000E+00
 -1      1851 3.84000E+01 4.61030E+01 0.00000E+00
 -1      1852 3.99000E+01 4.61030E+01 0.00000E+00
 -1      1853 3.76500E+01 4.48040E+01 0.00000E+00
 -1      1854 4.14000E+01 4.61030E+01 0.00000E+00
 -1      1855 4.29000E+01 4.61030E+01 0.00000E+00
 -1      1856 4.06500E+01 4.48040E+01 0.00000E+00
 -1      1857 4.44000E+01 4.61030E+01 0.00000E+00
 -1      1858 4.59000E+01 4.61030E+01 0.00000E+00
 -1      1859 4.36500E+01 4.48040E+01 0.00000E+00
 -1      1860 4.74000E+01 4.61030E+01 0.00000E+00
 -1      1861 4.89000E+01 4.61030E+01 0.00000E+00
 -1      1862 4.66500E+01 4.48040E+01 0.00000E+00
 -1      1863 5.04000E+01 4.61030E+01 0.00000E+00
 -1      1864 5.19000E+01 4.61030E+01 0.00000E+00
 -1      1865 4.96500E+01 4.48040E+01 0.00000E+00
 -1      1866 5.34000E+01 4.61030E+01 0.00000E+00
 -1      1867 5.49000E+01 4.61030E+01 0.00000E+00
 -1      1868 5.26500E+01 4.48040E+01 0.00000E+00
 -1      1869 5.64000E+01 4.61030E+01 0.00000E+00
 -1      1870 5.79000E+01 4.61030E+01 0.00000E+00
 -1      1871 5.56500E+01 4.48040E+01 0.00000E+00
 -1      1872 5.94000E+01 4.61030E+01 0.00000E+00
 -1      1873 6.09000E+01 4.61030E+01 0.00000E+00
 -1      1874 5.86500E+01 4.48040E+01 0.00000E+00
 -1      1875 6.24000E+01 4.61030E+01 0.00000E+00
 -1      1876 6.39000E+01 4.61030E+01 0.00000E+00
 -1      1877 6.16500E+01 4.48040E+01 0.00000E+00
 -1      1878 6.54000E+01 4.61030E+01 0.00000E+00
 -1      1879 6.69000E+01 4.61030E+01 0.00000E+00
 -1      1880 6.46500E+01 4.48040E+01 0.00000E+00
 -1      1881 6.84000E+01 4.61030E+01 0.00000E+00
 -1      1882 6.99000E+01 4.61030E+01 0.00000E+00
 -1      1883 6.76500E+01 4.48040E+01 0.00000E+00
 -1      1884 7.14000E+01 4.61030E+01 0.00000E+00
 -1      1885 7.29000E+01 4.61030E+01 0.00000E+00
 -1      1886 7.06500E+01 4.48040E+01 0.00000E+00
 -1      1887 7.44000E+01 4.61030E+01 0.00000E+00
 -1      1888 7.59000E+01 4.61030E+01 0.00000E+00
 -1      1889 7.36500E+01 4.48040E+01 0.00000E+00
 -1      1890 7.74000E+01 4.61030E+01 0.00000E+00
 -1      1891 7.89000E+01 4.61030E+01 0.00000E+00
 -1      1892 7.66500E+01 4.48040E+01 0.00000E+00
 -1      1893 8.04000E+01 4.61030E+01 0.00000E+00
 -1      1894 8.19000E+01 4.61030E+01 0.00000E+00
 -1      1895 7.96500E+01 4.48040E+01 0.00000E+00
 -1      1896 8.34000E+01 4.61030E+01 0.00000E+00
 -1      1897 8.49000E+01 4.61030E+01 0.00000E+00
 -1      1898 8.26500E+01 4.48040E+01 0.00000E+00
 -1      1899 8.64000E+01 4.61030E+01 0.00000E+00
 -1      1900 8.79000E+01 4.61030E+01 0.00000E+00
 -1      1901 8.56500E+01 4.48040E+01 0.00000E+00
 -1      1902 8.94000E+01 4.61030E+01 0.00000E+00
 -1      1903 9.09000E+01 4.61030E+01 0.00000E+00
 -1      1904 8.86500E+01 4.48040E+01 0.00000E+00
 -1      1905 9.24000E+01 4.61030E+01 0.00000E+00
 -1      1906 9.39000E+01 4.61030E+01 0.00000E+00
 -1      1907 9.16500E+01 4.48040E+01 0.00000E+00
 -1      1908 9.54000E+01 4.61030E+01 0.00000E+00
 -1      1909 9.69000E+01 4.61030E+01 0.00000E+00
 -1      1910 9.46500E+01 4.48040E+01 0.00000E+00
 -1      1911 9.84000E+01 4.61030E+01 0.00000E+00
 -1      1912 9.99000E+01 4.61030E+01 0.00000E+00
 -1      1913 9.76500E+01 4.48040E+01 0.00000E+00
 -1      1914 1.01400E+02 4.61030E+01 0.00000E+00
 -1      1915 1.02900E+02 4.61030E+01 0.00000E+00
 -1      1916 1.00650E+02 4.48040E+01 0.00000E+00
 -1      1917 1.04400E+02 4.61030E+01 0.00000E+00
 -1      1918 1.05900E+02 4.61030E+01 0.00000E+00
 -1      1919 1.03650E+02 4.48040E+01 0.00000E+00
 -1      1920 1.07400E+02 4.61030E+01 0.00000E+00
 -1      1921 1.08900E+02 4.61030E+01 0.00000E+00
 -1      1922 1.06650E+02 4.48040E+01 0.00000E+00
 -1      1923 1.10400E+02 4.61030E+01 0.00000E+00
 -1      1924 1.11900E+02 4.61030E+01 0.00000E+00
 -1      1925 1.09650E+02 4.48040E+01 0.00000E+00
 -1      1926 1.13400E+02 4.61030E+01 0.00000E+00
 -1      1927 1.14900E+02 4.61030E+01 0.00000E+00
 -1      1928 1.12650E+02 4.48040E+01 0.00000E+00
 -1      1929 1.16400E+02 4.61030E+01 0.00000E+00
 -1      1930 1.17900E+02 4.61030E+01 0.00000E+00
 -1      1931 1.15650E+02 4.48040E+01 0.00000E+00
 -1      1932 1.19400E+02 4.61030E+01 0.00000E+00
 -1      1933 1.20900E+02 4.61030E+01 0.00000E+00
 -1      1934 1.18650E+02 4.48040E+01 0.00000E+00
 -1      1935 1.22400E+02 4.61030E+01 0.00000E+00
 -1      1936 1.23900E+02 4.61030E+01 0.00000E+00
 -1      1937 1.21650E+02 4.48040E+01 0.00000E+00
 -1      1938 1.25400E+02 4.61030E+01 0.00000E+00
 -1      1939 1.26900E+02 4.61030E+01 0.00000E+00
 -1      1940 1.24650E+02 4.48040E+01 0.00000E+00
 -1      1941 1.28400E+02 4.61030E+01 0.00000E+00
 -1      1942 1.29900E+02 4.61030E+01 0.00000E+00
 -1      1943 1.27650E+02 4.48040E+01 0.00000E+00
 -1      1944 1.31400E+02 4.61030E+01 0.00000E+00
 -1      1945 1.32900E+02 4.61030E+01 0.00000E+00
 -1      1946 1.30650E+02 4.48040E+01 0.00000E+00
 -1      1947 1.34400E+02 4.61030E+01 0.00000E+00
 -1      1948 1.35900E+02 4.61030E+01 0.00000E+00
 -1      1949 1.33650E+02 4.48040E+01 0.00000E+00
 -1      1950 1.37400E+02 4.61030E+01 0.00000E+00
 -1      1951 1.38900E+02 4.61030E+01 0.00000E+00
 -1      1952 1.36650E+02 4.48040E+01 0.00000E+00
 -1      1953 1.40400E+02 4.61030E+01 0.00000E+00
 -1      1954 1.41900E+02 4.61030E+01 0.00000E+00
 -1      1955 1.39650E+02 4.48040E+01 0.00000E+00
 -1      1956 1.43244E+02 4.61616E+01 0.00000E+00
 -1      1957 1.44744E+02 4.61616E+01 0.00000E+00
 -1      1958 1.45182E+02 4.49799E+01 0.00000E+00
 -1      1959 1.42494E+02 4.48626E+01 0.00000E+00
 -1      1960 1.17045E+01 3.09687E+00 0.00000E+00
 -1      1961 1.02045E+01 3.09687E+00 0.00000E+00
 -1      1962 1.00350E+01 4.00625E+00 0.00000E+00
 -1      1963 1.47045E+01 3.09687E+00 0.00000E+00
 -1      1964 1.32045E+01 3.09687E+00 0.00000E+00
 -1      1965 1.30350E+01 4.00625E+00 0.00000E+00
 -1      1966 1.77045E+01 3.09687E+00 0.00000E+00
 -1      1967 1.62045E+01 3.09687E+00 0.00000E+00
 -1      1968 1.60350E+01 4.00625E+00 0.00000E+00
 -1      1969 2.07045E+01 3.09687E+00 0.00000E+00
 -1      1970 1.92045E+01 3.09687E+00 0.00000E+00
 -1      1971 1.90350E+01 4.00625E+00 0.00000E+00
 -1      1972 2.37045E+01 3.09687E+00 0.00000E+00
 -1      1973 2.22045E+01 3.09687E+00 0.00000E+00
 -1      1974 2.20350E+01 4.00625E+00 0.00000E+00
 -1      1975 2.67045E+01 3.09687E+00 0.00000E+00
 -1      1976 2.52045E+01 3.09687E+00 0.00000E+00
 -1      1977 2.50350E+01 4.00625E+00 0.00000E+00
 -1      1978 2.97045E+01 3.09687E+00 0.00000E+00
 -1      1979 2.82045E+01 3.09687E+00 0.00000E+00
 -1      1980 2.80350E+01 4.00625E+00 0.00000E+00
 -1      1981 3.27045E+01 3.09687E+00 0.00000E+00
 -1      1982 3.12045E+01 3.09687E+00 0.00000E+00
 -1      1983 3.10350E+01 4.00625E+00 0.00000E+00
 -1      1984 3.57045E+01 3.09687E+00 0.00000E+00
 -1      1985 3.42045E+01 3.09687E+00 0.00000E+00
 -1      1986 3.40350E+01 4.00625E+00 0.00000E+00
 -1      1987 3.87045E+01 3.09687E+00 0.00000E+00
 -1      1988 3.72045E+01 3.09687E+00 0.00000E+00
 -1      1989 3.70350E+01 4.00625E+00 0.00000E+00
 -1      1990 4.17045E+01 3.09687E+00 0.00000E+00
 -1      1991 4.02045E+01 3.09687E+00 0.00000E+00
 -1      1992 4.00350E+01 4.00625E+00 0.00000E+00
 -1      1993 4.47045E+01 3.09687E+00 0.00000E+00
 -1      1994 4.32045E+01 3.09687E+00 0.00000E+00
 -1      1995 4.30350E+01 4.00625E+00 0.00000E+00
 -1      1996 4.77045E+01 3.09687E+00 0.00000E+00
 -1      1997 4.62045E+01 3.09687E+00 0.00000E+00
 -1      1998 4.60350E+01 4.00625E+00 0.00000E+00
 -1      1999 5.07045E+01 3.09687E+00 0.00000E+00
 -1      2000 4.92045E+01 3.09687E+00 0.00000E+00
 -1      2001 4.90350E+01 4.00625E+00 0.00000E+00
 -1      2002 5.37045E+01 3.09687E+00 0.00000E+00
 -1      2003 5.22045E+01 3.09687E+00 0.00000E+00
 -1      2004 5.20350E+01 4.00625E+00 0.00000E+00
 -1      2005 5.67045E+01 3.09687E+00 0.00000E+00
 -1      2006 5.52045E+01 3.09687E+00 0.00000E+00
 -1      2007 5.50350E+01 4.00625E+00 0.00000E+00
 -1      2008 5.97045E+01 3.09687E+00 0.00000E+00
 -1      2009 5.82045E+01 3.09687E+00 0.00000E+00
 -1      2010 5.80350E+01 4.00625E+00 0.00000E+00
 -1      2011 6.27045E+01 3.09687E+00 0.00000E+00
 -1      2012 6.12045E+01 3.09687E+00 0.00000E+00
 -1      2013 6.10350E+01 4.00625E+00 0.00000E+00
 -1      2014 6.57045E+01 3.09687E+00 0.00000E+00
 -1      2015 6.42045E+01 3.09687E+00 0.00000E+00
 -1      2016 6.40350E+01 4.00625E+00 0.00000E+00
 -1      2017 6.87045E+01 3.09687E+00 0.00000E+00
 -1      2018 6.72045E+01 3.09687E+00 0.00000E+00
 -1      2019 6.70350E+01 4.00625E+00 0.00000E+00
 -1      2020 7.17045E+01 3.09687E+00 0.00000E+00
 -1      2021 7.02045E+01 3.09687E+00 0.00000E+00
 -1      2022 7.00350E+01 4.00625E+00 0.00000E+00
 -1      2023 7.47045E+01 3.09687E+00 0.00000E+00
 -1      2024 7.32045E+01 3.09687E+00 0.00000E+00
 -1      2025 7.30350E+01 4.00625E+00 0.00000E+00
 -1      2026 7.77045E+01 3.09687E+00 0.00000E+00
 -1      2027 7.62045E+01 3.09687E+00 0.00000E+00
 -1      2028 7.60350E+01 4.00625E+00 0.00000E+00
 -1      2029 8.07045E+01 3.09687E+00 0.00000E+00
 -1      2030 7.92045E+01 3.09687E+00 0.00000E+00
 -1      2031 7.90350E+01 4.00625E+00 0.00000E+00
 -1      2032 8.37045E+01 3.09687E+00 0.00000E+00
 -1      2033 8.22045E+01 3.09687E+00 0.00000E+00
 -1      2034 8.20350E+01 4.00625E+00 0.00000E+00
 -1      2035 8.67045E+01 3.09687E+00 0.00000E+00
 -1      2036 8.52045E+01 3.09687E+00 0.00000E+00
 -1      2037 8.50350E+01 4.00625E+00 0.00000E+00
 -1      2038 8.97045E+01 3.09687E+00 0.00000E+00
 -1      2039 8.82045E+01 3.09687E+00 0.00000E+00
 -1      2040 8.80350E+01 4.00625E+00 0.00000E+00
 -1      2041 9.27045E+01 3.09687E+00 0.00000E+00
 -1      2042 9.12045E+01 3.09687E+00 0.00000E+00
 -1      2043 9.10350E+01 4.00625E+00 0.00000E+00
 -1      2044 9.57045E+01 3.09687E+00 0.00000E+00
 -1      2045 9.42045E+01 3.09687E+00 0.00000E+00
 -1      2046 9.40350E+01 4.00625E+00 0.00000E+00
 -1      2047 9.87045E+01 3.09687E+00 0.00000E+00
 -1      2048 9.72045E+01 3.09687E+00 0.00000E+00
 -1      2049 9.70350E+01 4.00625E+00 0.00000E+00
 -1      2050 1.01704E+02 3.09687E+00 0.00000E+00
 -1      2051 1.00204E+02 3.09687E+00 0.00000E+00
 -1      2052 1.00035E+02 4.00625E+00 0.00000E+00
 -1      2053 1.04704E+02 3.09687E+00 0.00000E+00
 -1      2054 1.03204E+02 3.09687E+00 0.00000E+00
 -1      2055 1.03035E+02 4.00625E+00 0.00000E+00
 -1      2056 1.07704E+02 3.09687E+00 0.00000E+00
 -1      2057 1.06204E+02 3.09687E+00 0.00000E+00
 -1      2058 1.06035E+02 4.00625E+00 0.00000E+00
 -1      2059 1.10704E+02 3.09687E+00 0.00000E+00
 -1      2060 1.09204E+02 3.09687E+00 0.00000E+00
 -1      2061 1.09035E+02 4.00625E+00 0.00000E+00
 -1      2062 1.13704E+02 3.09687E+00 0.00000E+00
 -1      2063 1.12204E+02 3.09687E+00 0.00000E+00
 -1      2064 1.12035E+02 4.00625E+00 0.00000E+00
 -1      2065 1.16704E+02 3.09687E+00 0.00000E+00
 -1      2066 1.15204E+02 3.09687E+00 0.00000E+00
 -1      2067 1.15035E+02 4.00625E+00 0.00000E+00
 -1      2068 1.19704E+02 3.09687E+00 0.00000E+00
 -1      2069 1.18204E+02 3.09687E+00 0.00000E+00
 -1      2070 1.18035E+02 4.00625E+00 0.00000E+00
 -1      2071 1.22704E+02 3.09687E+00 0.00000E+00
 -1      2072 1.21204E+02 3.09687E+00 0.00000E+00
 -1      2073 1.21035E+02 4.00625E+00 0.00000E+00
 -1      2074 1.25704E+02 3.09687E+00 0.00000E+00
 -1      2075 1.24204E+02 3.09687E+00 0.00000E+00
 -1      2076 1.24035E+02 4.00625E+00 0.00000E+00
 -1      2077 1.28704E+02 3.09687E+00 0.00000E+00
 -1      2078 1.27204E+02 3.09687E+00 0.00000E+00
 -1      2079 1.27035E+02 4.00625E+00 0.00000E+00
 -1      2080 1.31704E+02 3.09687E+00 0.00000E+00
 -1      2081 1.30204E+02 3.09687E+00 0.00000E+00
 -1      2082 1.30035E+02 4.00625E+00 0.00000E+00
 -1      2083 1.34704E+02 3.09687E+00 0.00000E+00
 -1      2084 1.33204E+02 3.09687E+00 0.00000E+00
 -1      2085 1.33035E+02 4.00625E+00 0.00000E+00
 -1      2086 1.37704E+02 3.09687E+00 0.00000E+00
 -1      2087 1.36204E+02 3.09687E+00 0.00000E+00
 -1      2088 1.36035E+02 4.00625E+00 0.00000E+00
 -1      2089 1.40704E+02 3.09687E+00 0.00000E+00
 -1      2090 1.39204E+02 3.09687E+00 0.00000E+00
 -1      2091 1.39035E+02 4.00625E+00 0.00000E+00
 -1      2092 1.43704E+02 3.09687E+00 0.00000E+00
 -1      2093 1.42204E+02 3.09687E+00 0.00000E+00
 -1      2094 1.42035E+02 4.00625E+00 0.00000E+00
 -1      2095 1.46171E+02 3.20156E+00 0.00000E+00
 -1      2096 1.44671E+02 3.20156E+00 0.00000E+00
 -1      2097 1.44502E+02 4.11094E+00 0.00000E+00
 -1      2098 1.46435E+02 4.32031E+00 0.00000E+00
 -1      2099 1.46103E+02 1.25375E+01 0.00000E+00
 -1      2100 1.46103E+02 1.10625E+01 0.00000E+00
 -1      2101 1.46103E+02 9.58750E+00 0.00000E+00
 -1      2102 1.46103E+02 8.11250E+00 0.00000E+00
 -1      2103 1.44804E+02 1.03250E+01 0.00000E+00
 -1      2104 1.46269E+02 6.95391E+00 0.00000E+00
 -1      2105 1.46269E+02 5.47891E+00 0.00000E+00
 -1      2106 1.45302E+02 5.37422E+00 0.00000E+00
 -1      2107 1.44970E+02 7.69141E+00 0.00000E+00
 -1      2108 1.46103E+02 1.54375E+01 0.00000E+00
 -1      2109 1.46103E+02 1.39875E+01 0.00000E+00
 -1      2110 1.44804E+02 1.32500E+01 0.00000E+00
 -1      2111 1.46103E+02 1.83875E+01 0.00000E+00
 -1      2112 1.46103E+02 1.69125E+01 0.00000E+00
 -1      2113 1.44804E+02 1.61750E+01 0.00000E+00
 -1      2114 1.46103E+02 2.13375E+01 0.00000E+00
 -1      2115 1.46103E+02 1.98625E+01 0.00000E+00
 -1      2116 1.44804E+02 1.91250E+01 0.00000E+00
 -1      2117 1.46103E+02 2.42875E+01 0.00000E+00
 -1      2118 1.46103E+02 2.28125E+01 0.00000E+00
 -1      2119 1.44804E+02 2.20750E+01 0.00000E+00
 -1      2120 1.46103E+02 2.72375E+01 0.00000E+00
 -1      2121 1.46103E+02 2.57625E+01 0.00000E+00
 -1      2122 1.44804E+02 2.50250E+01 0.00000E+00
 -1      2123 1.46103E+02 3.01875E+01 0.00000E+00
 -1      2124 1.46103E+02 2.87125E+01 0.00000E+00
 -1      2125 1.44804E+02 2.79750E+01 0.00000E+00
 -1      2126 1.46103E+02 3.30875E+01 0.00000E+00
 -1      2127 1.46103E+02 3.16375E+01 0.00000E+00
 -1      2128 1.44804E+02 3.09000E+01 0.00000E+00
 -1      2129 1.46103E+02 3.60375E+01 0.00000E+00
 -1      2130 1.46103E+02 3.45625E+01 0.00000E+00
 -1      2131 1.44804E+02 3.38250E+01 0.00000E+00
 -1      2132 1.46103E+02 3.89875E+01 0.00000E+00
 -1      2133 1.46103E+02 3.75125E+01 0.00000E+00
 -1      2134 1.44804E+02 3.67750E+01 0.00000E+00
 -1      2135 1.46103E+02 4.19375E+01 0.00000E+00
 -1      2136 1.46103E+02 4.04625E+01 0.00000E+00
 -1      2137 1.44804E+02 3.97250E+01 0.00000E+00
 -1      2138 6.51644E+01 2.35514E+01 0.00000E+00
 -1      2139 6.55684E+01 2.43325E+01 0.00000E+00
 -1      2140 6.62970E+01 2.72184E+01 0.00000E+00
 -1      2141 6.62644E+01 2.80532E+01 0.00000E+00
 -1      2142 6.60880E+01 2.52826E+01 0.00000E+00
 -1      2143 6.62816E+01 2.61584E+01 0.00000E+00
 -1      2144 6.42614E+01 2.19181E+01 0.00000E+00
 -1      2145 6.47691E+01 2.26515E+01 0.00000E+00
 -1      2146 6.27988E+01 2.05926E+01 0.00000E+00
 -1      2147 6.34798E+01 2.11762E+01 0.00000E+00
 -1      2148 3.89700E+00 3.74688E+01 0.00000E+00
 -1      2149 3.89700E+00 3.89437E+01 0.00000E+00
 -1      2150 5.19600E+00 3.96813E+01 0.00000E+00
 -1      2151 5.19600E+00 3.67438E+01 0.00000E+00
 -1      2152 5.91116E+01 1.88018E+01 0.00000E+00
 -1      2153 6.00555E+01 1.88860E+01 0.00000E+00
 -1      2154 5.73032E+01 1.85788E+01 0.00000E+00
 -1      2155 5.82074E+01 1.86903E+01 0.00000E+00
 -1      2156 5.87518E+01 1.79199E+01 0.00000E+00
 -1      2157 5.52322E+01 1.87864E+01 0.00000E+00
 -1      2158 5.61767E+01 1.86509E+01 0.00000E+00
 -1      2159 5.32668E+01 1.95484E+01 0.00000E+00
 -1      2160 5.41071E+01 1.91336E+01 0.00000E+00
 -1      2161 5.16095E+01 2.05877E+01 0.00000E+00
 -1      2162 5.24382E+01 2.00681E+01 0.00000E+00
 -1      2163 5.25158E+01 1.91668E+01 0.00000E+00
 -1      2164 4.99671E+01 2.21924E+01 0.00000E+00
 -1      2165 5.05783E+01 2.13931E+01 0.00000E+00
 -1      2166 4.90852E+01 2.41242E+01 0.00000E+00
 -1      2167 4.93877E+01 2.32545E+01 0.00000E+00
 -1      2168 4.83322E+01 2.58083E+01 0.00000E+00
 -1      2169 4.87087E+01 2.49662E+01 0.00000E+00
 -1      2170 4.80896E+01 2.42635E+01 0.00000E+00
 -1      2171 4.84584E+01 2.79978E+01 0.00000E+00
 -1      2172 4.83575E+01 2.70525E+01 0.00000E+00
 -1      2173 4.86507E+01 2.99202E+01 0.00000E+00
 -1      2174 4.84313E+01 2.90471E+01 0.00000E+00
 -1      2175 4.94436E+01 3.17062E+01 0.00000E+00
 -1      2176 4.90720E+01 3.08785E+01 0.00000E+00
 -1      2177 5.04660E+01 3.33914E+01 0.00000E+00
 -1      2178 4.99653E+01 3.25914E+01 0.00000E+00
 -1      2179 5.20337E+01 3.47884E+01 0.00000E+00
 -1      2180 5.12883E+01 3.42639E+01 0.00000E+00
 -1      2181 5.36063E+01 3.58624E+01 0.00000E+00
 -1      2182 5.28200E+01 3.53254E+01 0.00000E+00
 -1      2183 5.20261E+01 3.56617E+01 0.00000E+00
 -1      2184 5.57018E+01 3.66118E+01 0.00000E+00
 -1      2185 5.47403E+01 3.64519E+01 0.00000E+00
 -1      2186 5.76253E+01 3.66768E+01 0.00000E+00
 -1      2187 5.67688E+01 3.66943E+01 0.00000E+00
 -1      2188 5.93231E+01 3.65242E+01 0.00000E+00
 -1      2189 5.84742E+01 3.66005E+01 0.00000E+00
 -1      2190 5.80635E+01 3.74666E+01 0.00000E+00
 -1      2191 6.12289E+01 3.58152E+01 0.00000E+00
 -1      2192 6.04499E+01 3.61780E+01 0.00000E+00
 -1      2193 6.27255E+01 3.48255E+01 0.00000E+00
 -1      2194 6.20787E+01 3.53097E+01 0.00000E+00
 -1      2195 6.39107E+01 3.36106E+01 0.00000E+00
 -1      2196 6.33530E+01 3.41708E+01 0.00000E+00
 -1      2197 6.50103E+01 3.22730E+01 0.00000E+00
 -1      2198 6.45666E+01 3.29394E+01 0.00000E+00
 -1      2199 6.56900E+01 3.06474E+01 0.00000E+00
 -1      2200 6.53807E+01 3.13983E+01 0.00000E+00
 -1      2201 6.60750E+01 2.89597E+01 0.00000E+00
 -1      2202 6.59200E+01 2.97432E+01 0.00000E+00
 -1      2203 6.12623E+01 1.94113E+01 0.00000E+00
 -1      2204 6.20395E+01 1.99534E+01 0.00000E+00
 -1      2205 6.43699E+01 2.11024E+01 0.00000E+00
 -1      2206 6.42300E+00 4.57510E+01 0.00000E+00
 -1      2207 6.28289E+01 1.97213E+01 0.00000E+00
 -1      2208 6.04633E+01 1.77022E+01 0.00000E+00
 -1      2209 6.08628E+01 1.85568E+01 0.00000E+00
 -1      2210 6.16701E+01 1.82275E+01 0.00000E+00
 -1      2211 7.17300E+00 4.44520E+01 0.00000E+00
 -1      2212 6.64616E+01 2.45943E+01 0.00000E+00
 -1      2213 6.69966E+01 2.66044E+01 0.00000E+00
 -1      2214 1.45665E+02 4.31193E+01 0.00000E+00
 -1      2215 6.55467E+01 2.27443E+01 0.00000E+00
 -1      2216 6.68226E+01 2.85708E+01 0.00000E+00
 -1      2217 6.64033E+01 3.03815E+01 0.00000E+00
 -1      2218 6.58029E+01 3.21604E+01 0.00000E+00
 -1      2219 6.47766E+01 3.37063E+01 0.00000E+00
 -1      2220 6.34933E+01 3.50323E+01 0.00000E+00
 -1      2221 6.00393E+01 3.70442E+01 0.00000E+00
 -1      2222 5.39464E+01 3.67882E+01 0.00000E+00
 -1      2223 5.04176E+01 3.42522E+01 0.00000E+00
 -1      2224 4.90736E+01 3.24945E+01 0.00000E+00
 -1      2225 4.81306E+01 3.06510E+01 0.00000E+00
 -1      2226 4.77383E+01 2.63497E+01 0.00000E+00
 -1      2227 4.71191E+01 2.56469E+01 0.00000E+00
 -1      2228 4.71443E+01 2.68912E+01 0.00000E+00
 -1      2229 5.06560E+01 2.04919E+01 0.00000E+00
 -1      2230 5.67211E+01 1.78806E+01 0.00000E+00
 -1      2231 5.44695E+01 1.83000E+01 0.00000E+00
 -1      2232 4.90454E+01 2.23594E+01 0.00000E+00
 -1      2233 4.77364E+01 2.86433E+01 0.00000E+00
 -1      2234 5.61475E+01 3.74604E+01 0.00000E+00
 -1      2235 6.20160E+01 3.61925E+01 0.00000E+00
 -1      2236 1.07850E+01 5.30525E+00 0.00000E+00
 -1      2237 9.28500E+00 5.30525E+00 0.00000E+00
 -1      2238 6.49500E+00 3.01125E+01 0.00000E+00
 -1      2239 6.49500E+00 3.15875E+01 0.00000E+00
 -1      2240 6.49500E+00 3.30625E+01 0.00000E+00
 -1      2241 6.49500E+00 3.45375E+01 0.00000E+00
 -1      2242 7.79400E+00 3.23250E+01 0.00000E+00
 -1      2243 6.49500E+00 2.42125E+01 0.00000E+00
 -1      2244 6.49500E+00 2.56875E+01 0.00000E+00
 -1      2245 6.49500E+00 2.12625E+01 0.00000E+00
 -1      2246 6.49500E+00 2.27375E+01 0.00000E+00
 -1      2247 7.79400E+00 2.34750E+01 0.00000E+00
 -1      2248 6.49500E+00 1.83625E+01 0.00000E+00
 -1      2249 6.49500E+00 1.98125E+01 0.00000E+00
 -1      2250 7.79400E+00 2.05500E+01 0.00000E+00
 -1      2251 6.49500E+00 1.54125E+01 0.00000E+00
 -1      2252 6.49500E+00 1.68875E+01 0.00000E+00
 -1      2253 7.79400E+00 1.76250E+01 0.00000E+00
 -1      2254 6.49500E+00 1.24625E+01 0.00000E+00
 -1      2255 6.49500E+00 1.39375E+01 0.00000E+00
 -1      2256 7.79400E+00 1.46750E+01 0.00000E+00
 -1      2257 6.49500E+00 9.51250E+00 0.00000E+00
 -1      2258 6.49500E+00 1.09875E+01 0.00000E+00
 -1      2259 7.79400E+00 1.17250E+01 0.00000E+00
 -1      2260 1.37850E+01 5.30525E+00 0.00000E+00
 -1      2261 1.22850E+01 5.30525E+00 0.00000E+00
 -1      2262 1.15350E+01 6.60425E+00 0.00000E+00
 -1      2263 9.90000E+00 4.35050E+01 0.00000E+00
 -1      2264 1.14000E+01 4.35050E+01 0.00000E+00
 -1      2265 6.29476E+01 1.88097E+01 0.00000E+00
 -1      2266 6.37069E+01 1.94489E+01 0.00000E+00
 -1      2267 1.29000E+01 4.35050E+01 0.00000E+00
 -1      2268 1.44000E+01 4.35050E+01 0.00000E+00
 -1      2269 1.21500E+01 4.22060E+01 0.00000E+00
 -1      2270 1.59000E+01 4.35050E+01 0.00000E+00
 -1      2271 1.74000E+01 4.35050E+01 0.00000E+00
 -1      2272 1.51500E+01 4.22060E+01 0.00000E+00
 -1      2273 1.89000E+01 4.35050E+01 0.00000E+00
 -1      2274 2.04000E+01 4.35050E+01 0.00000E+00
 -1      2275 1.81500E+01 4.22060E+01 0.00000E+00
 -1      2276 2.19000E+01 4.35050E+01 0.00000E+00
 -1      2277 2.34000E+01 4.35050E+01 0.00000E+00
 -1      2278 2.11500E+01 4.22060E+01 0.00000E+00
 -1      2279 2.49000E+01 4.35050E+01 0.00000E+00
 -1      2280 2.64000E+01 4.35050E+01 0.00000E+00
 -1      2281 2.41500E+01 4.22060E+01 0.00000E+00
 -1      2282 2.79000E+01 4.35050E+01 0.00000E+00
 -1      2283 2.94000E+01 4.35050E+01 0.00000E+00
 -1      2284 2.71500E+01 4.22060E+01 0.00000E+00
 -1      2285 3.09000E+01 4.35050E+01 0.00000E+00
 -1      2286 3.24000E+01 4.35050E+01 0.00000E+00
 -1      2287 3.01500E+01 4.22060E+01 0.00000E+00
 -1      2288 3.39000E+01 4.35050E+01 0.00000E+00
 -1      2289 3.54000E+01 4.35050E+01 0.00000E+00
 -1      2290 3.31500E+01 4.22060E+01 0.00000E+00
 -1      2291 3.69000E+01 4.35050E+01 0.00000E+00
 -1      2292 3.84000E+01 4.35050E+01 0.00000E+00
 -1      2293 3.61500E+01 4.22060E+01 0.00000E+00
 -1      2294 3.99000E+01 4.35050E+01 0.00000E+00
 -1      2295 4.14000E+01 4.35050E+01 0.00000E+00
 -1      2296 3.91500E+01 4.22060E+01 0.00000E+00
 -1      2297 4.29000E+01 4.35050E+01 0.00000E+00
 -1      2298 4.44000E+01 4.35050E+01 0.00000E+00
 -1      2299 4.21500E+01 4.22060E+01 0.00000E+00
 -1      2300 4.59000E+01 4.35050E+01 0.00000E+00
 -1      2301 4.74000E+01 4.35050E+01 0.00000E+00
 -1      2302 4.51500E+01 4.22060E+01 0.00000E+00
 -1      2303 4.89000E+01 4.35050E+01 0.00000E+00
 -1      2304 5.04000E+01 4.35050E+01 0.00000E+00
 -1      2305 4.81500E+01 4.22060E+01 0.00000E+00
 -1      2306 5.19000E+01 4.35050E+01 0.00000E+00
 -1      2307 5.34000E+01 4.35050E+01 0.00000E+00
 -1      2308 5.11500E+01 4.22060E+01 0.00000E+00
 -1      2309 5.49000E+01 4.35050E+01 0.00000E+00
 -1      2310 5.64000E+01 4.35050E+01 0.00000E+00
 -1      2311 5.41500E+01 4.22060E+01 0.00000E+00
 -1      2312 5.79000E+01 4.35050E+01 0.00000E+00
 -1      2313 5.94000E+01 4.35050E+01 0.00000E+00
 -1      2314 5.71500E+01 4.22060E+01 0.00000E+00
 -1      2315 6.09000E+01 4.35050E+01 0.00000E+00
 -1      2316 6.24000E+01 4.35050E+01 0.00000E+00
 -1      2317 6.01500E+01 4.22060E+01 0.00000E+00
 -1      2318 6.39000E+01 4.35050E+01 0.00000E+00
 -1      2319 6.54000E+01 4.35050E+01 0.00000E+00
 -1      2320 6.31500E+01 4.22060E+01 0.00000E+00
 -1      2321 6.69000E+01 4.35050E+01 0.00000E+00
 -1      2322 6.84000E+01 4.35050E+01 0.00000E+00
 -1      2323 6.61500E+01 4.22060E+01 0.00000E+00
 -1      2324 6.99000E+01 4.35050E+01 0.00000E+00
 -1      2325 7.14000E+01 4.35050E+01 0.00000E+00
 -1      2326 6.91500E+01 4.22060E+01 0.00000E+00
 -1      2327 7.29000E+01 4.35050E+01 0.00000E+00
 -1      2328 7.44000E+01 4.35050E+01 0.00000E+00
 -1      2329 7.21500E+01 4.22060E+01 0.00000E+00
 -1      2330 7.59000E+01 4.35050E+01 0.00000E+00
 -1      2331 7.74000E+01 4.35050E+01 0.00000E+00
 -1      2332 7.51500E+01 4.22060E+01 0.00000E+00
 -1      2333 7.89000E+01 4.35050E+01 0.00000E+00
 -1      2334 8.04000E+01 4.35050E+01 0.00000E+00
 -1      2335 7.81500E+01 4.22060E+01 0.00000E+00
 -1      2336 8.19000E+01 4.35050E+01 0.00000E+00
 -1      2337 8.34000E+01 4.35050E+01 0.00000E+00
 -1      2338 8.11500E+01 4.22060E+01 0.00000E+00
 -1      2339 8.49000E+01 4.35050E+01 0.00000E+00
 -1      2340 8.64000E+01 4.35050E+01 0.00000E+00
 -1      2341 8.41500E+01 4.22060E+01 0.00000E+00
 -1      2342 8.79000E+01 4.35050E+01 0.00000E+00
 -1      2343 8.94000E+01 4.35050E+01 0.00000E+00
 -1      2344 8.71500E+01 4.22060E+01 0.00000E+00
 -1      2345 9.09000E+01 4.35050E+01 0.00000E+00
 -1      2346 9.24000E+01 4.35050E+01 0.00000E+00
 -1      2347 9.01500E+01 4.22060E+01 0.00000E+00
 -1      2348 9.39000E+01 4.35050E+01 0.00000E+00
 -1      2349 9.54000E+01 4.35050E+01 0.00000E+00
 -1      2350 9.31500E+01 4.22060E+01 0.00000E+00
 -1      2351 9.69000E+01 4.35050E+01 0.00000E+00
 -1      2352 9.84000E+01 4.35050E+01 0.00000E+00
 -1      2353 9.61500E+01 4.22060E+01 0.00000E+00
 -1      2354 9.99000E+01 4.35050E+01 0.00000E+00
 -1      2355 1.01400E+02 4.35050E+01 0.00000E+00
 -1      2356 9.91500E+01 4.22060E+01 0.00000E+00
 -1      2357 1.02900E+02 4.35050E+01 0.00000E+00
 -1      2358 1.04400E+02 4.35050E+01 0.00000E+00
 -1      2359 1.02150E+02 4.22060E+01 0.00000E+00
 -1      2360 1.05900E+02 4.35050E+01 0.00000E+00
 -1      2361 1.07400E+02 4.35050E+01 0.00000E+00
 -1      2362 1.05150E+02 4.22060E+01 0.00000E+00
 -1      2363 1.08900E+02 4.35050E+01 0.00000E+00
 -1      2364 1.10400E+02 4.35050E+01 0.00000E+00
 -1      2365 1.08150E+02 4.22060E+01 0.00000E+00
 -1      2366 1.11900E+02 4.35050E+01 0.00000E+00
 -1      2367 1.13400E+02 4.35050E+01 0.00000E+00
 -1      2368 1.11150E+02 4.22060E+01 0.00000E+00
 -1      2369 1.14900E+02 4.35050E+01 0.00000E+00
 -1      2370 1.16400E+02 4.35050E+01 0.00000E+00
 -1      2371 1.14150E+02 4.22060E+01 0.00000E+00
 -1      2372 1.17900E+02 4.35050E+01 0.00000E+00
 -1      2373 1.19400E+02 4.35050E+01 0.00000E+00
 -1      2374 1.17150E+02 4.22060E+01 0.00000E+00
 -1      2375 1.20900E+02 4.35050E+01 0.00000E+00
 -1      2376 1.22400E+02 4.35050E+01 0.00000E+00
 -1      2377 1.20150E+02 4.22060E+01 0.00000E+00
 -1      2378 1.23900E+02 4.35050E+01 0.00000E+00
 -1      2379 1.25400E+02 4.35050E+01 0.00000E+00
 -1      2380 1.23150E+02 4.22060E+01 0.00000E+00
 -1      2381 1.26900E+02 4.35050E+01 0.00000E+00
 -1      2382 1.28400E+02 4.35050E+01 0.00000E+00
 -1      2383 1.26150E+02 4.22060E+01 0.00000E+00
 -1      2384 1.29900E+02 4.35050E+01 0.00000E+00
 -1      2385 1.31400E+02 4.35050E+01 0.00000E+00
 -1      2386 1.29150E+02 4.22060E+01 0.00000E+00
 -1      2387 1.32900E+02 4.35050E+01 0.00000E+00
 -1      2388 1.34400E+02 4.35050E+01 0.00000E+00
 -1      2389 1.32150E+02 4.22060E+01 0.00000E+00
 -1      2390 1.35900E+02 4.35050E+01 0.00000E+00
 -1      2391 1.37400E+02 4.35050E+01 0.00000E+00
 -1      2392 1.35150E+02 4.22060E+01 0.00000E+00
 -1      2393 1.38900E+02 4.35050E+01 0.00000E+00
 -1      2394 1.40400E+02 4.35050E+01 0.00000E+00
 -1      2395 1.38150E+02 4.22060E+01 0.00000E+00
 -1      2396 1.97850E+01 5.30525E+00 0.00000E+00
 -1      2397 1.82850E+01 5.30525E+00 0.00000E+00
 -1      2398 2.27850E+01 5.30525E+00 0.00000E+00
 -1      2399 2.12850E+01 5.30525E+00 0.00000E+00
 -1      2400 2.05350E+01 6.60425E+00 0.00000E+00
 -1      2401 2.57850E+01 5.30525E+00 0.00000E+00
 -1      2402 2.42850E+01 5.30525E+00 0.00000E+00
 -1      2403 2.35350E+01 6.60425E+00 0.00000E+00
 -1      2404 2.87850E+01 5.30525E+00 0.00000E+00
 -1      2405 2.72850E+01 5.30525E+00 0.00000E+00
 -1      2406 2.65350E+01 6.60425E+00 0.00000E+00
 -1      2407 3.17850E+01 5.30525E+00 0.00000E+00
 -1      2408 3.02850E+01 5.30525E+00 0.00000E+00
 -1      2409 2.95350E+01 6.60425E+00 0.00000E+00
 -1      2410 3.47850E+01 5.30525E+00 0.00000E+00
 -1      2411 3.32850E+01 5.30525E+00 0.00000E+00
 -1      2412 3.25350E+01 6.60425E+00 0.00000E+00
 -1      2413 3.77850E+01 5.30525E+00 0.00000E+00
 -1      2414 3.62850E+01 5.30525E+00 0.00000E+00
 -1      2415 3.55350E+01 6.60425E+00 0.00000E+00
 -1      2416 4.07850E+01 5.30525E+00 0.00000E+00
 -1      2417 3.92850E+01 5.30525E+00 0.00000E+00
 -1      2418 3.85350E+01 6.60425E+00 0.00000E+00
 -1      2419 4.37850E+01 5.30525E+00 0.00000E+00
 -1      2420 4.22850E+01 5.30525E+00 0.00000E+00
 -1      2421 4.15350E+01 6.60425E+00 0.00000E+00
 -1      2422 4.67850E+01 5.30525E+00 0.00000E+00
 -1      2423 4.52850E+01 5.30525E+00 0.00000E+00
 -1      2424 4.45350E+01 6.60425E+00 0.00000E+00
 -1      2425 4.97850E+01 5.30525E+00 0.00000E+00
 -1      2426 4.82850E+01 5.30525E+00 0.00000E+00
 -1      2427 4.75350E+01 6.60425E+00 0.00000E+00
 -1      2428 5.27850E+01 5.30525E+00 0.00000E+00
 -1      2429 5.12850E+01 5.30525E+00 0.00000E+00
 -1      2430 5.05350E+01 6.60425E+00 0.00000E+00
 -1      2431 5.57850E+01 5.30525E+00 0.00000E+00
 -1      2432 5.42850E+01 5.30525E+00 0.00000E+00
 -1      2433 5.35350E+01 6.60425E+00 0.00000E+00
 -1      2434 5.87850E+01 5.30525E+00 0.00000E+00
 -1      2435 5.72850E+01 5.30525E+00 0.00000E+00
 -1      2436 5.65350E+01 6.60425E+00 0.00000E+00
 -1      2437 6.17850E+01 5.30525E+00 0.00000E+00
 -1      2438 6.02850E+01 5.30525E+00 0.00000E+00
 -1      2439 5.95350E+01 6.60425E+00 0.00000E+00
 -1      2440 6.47850E+01 5.30525E+00 0.00000E+00
 -1      2441 6.32850E+01 5.30525E+00 0.00000E+00
 -1      2442 6.25350E+01 6.60425E+00 0.00000E+00
 -1      2443 6.77850E+01 5.30525E+00 0.00000E+00
 -1      2444 6.62850E+01 5.30525E+00 0.00000E+00
 -1      2445 6.55350E+01 6.60425E+00 0.00000E+00
 -1      2446 7.07850E+01 5.30525E+00 0.00000E+00
 -1      2447 6.92850E+01 5.30525E+00 0.00000E+00
 -1      2448 6.85350E+01 6.60425E+00 0.00000E+00
 -1      2449 7.37850E+01 5.30525E+00 0.00000E+00
 -1      2450 7.22850E+01 5.30525E+00 0.00000E+00
 -1      2451 7.15350E+01 6.60425E+00 0.00000E+00
 -1      2452 7.67850E+01 5.30525E+00 0.00000E+00
 -1      2453 7.52850E+01 5.30525E+00 0.00000E+00
 -1      2454 7.45350E+01 6.60425E+00 0.00000E+00
 -1      2455 7.97850E+01 5.30525E+00 0.00000E+00
 -1      2456 7.82850E+01 5.30525E+00 0.00000E+00
 -1      2457 7.75350E+01 6.60425E+00 0.00000E+00
 -1      2458 8.27850E+01 5.30525E+00 0.00000E+00
 -1      2459 8.12850E+01 5.30525E+00 0.00000E+00
 -1      2460 8.05350E+01 6.60425E+00 0.00000E+00
 -1      2461 8.57850E+01 5.30525E+00 0.00000E+00
 -1      2462 8.42850E+01 5.30525E+00 0.00000E+00
 -1      2463 8.35350E+01 6.60425E+00 0.00000E+00
 -1      2464 8.87850E+01 5.30525E+00 0.00000E+00
 -1      2465 8.72850E+01 5.30525E+00 0.00000E+00
 -1      2466 8.65350E+01 6.60425E+00 0.00000E+00
 -1      2467 9.17850E+01 5.30525E+00 0.00000E+00
 -1      2468 9.02850E+01 5.30525E+00 0.00000E+00
 -1      2469 8.95350E+01 6.60425E+00 0.00000E+00
 -1      2470 9.47850E+01 5.30525E+00 0.00000E+00
 -1      2471 9.32850E+01 5.30525E+00 0.00000E+00
 -1      2472 9.25350E+01 6.60425E+00 0.00000E+00
 -1      2473 9.77850E+01 5.30525E+00 0.00000E+00
 -1      2474 9.62850E+01 5.30525E+00 0.00000E+00
 -1      2475 9.55350E+01 6.60425E+00 0.00000E+00
 -1      2476 1.00785E+02 5.30525E+00 0.00000E+00
 -1      2477 9.92850E+01 5.30525E+00 0.00000E+00
 -1      2478 9.85350E+01 6.60425E+00 0.00000E+00
 -1      2479 1.03785E+02 5.30525E+00 0.00000E+00
 -1      2480 1.02285E+02 5.30525E+00 0.00000E+00
 -1      2481 1.01535E+02 6.60425E+00 0.00000E+00
 -1      2482 1.06785E+02 5.30525E+00 0.00000E+00
 -1      2483 1.05285E+02 5.30525E+00 0.00000E+00
 -1      2484 1.04535E+02 6.60425E+00 0.00000E+00
 -1      2485 1.09785E+02 5.30525E+00 0.00000E+00
 -1      2486 1.08285E+02 5.30525E+00 0.00000E+00
 -1      2487 1.07535E+02 6.60425E+00 0.00000E+00
 -1      2488 1.12785E+02 5.30525E+00 0.00000E+00
 -1      2489 1.11285E+02 5.30525E+00 0.00000E+00
 -1      2490 1.10535E+02 6.60425E+00 0.00000E+00
 -1      2491 1.15785E+02 5.30525E+00 0.00000E+00
 -1      2492 1.14285E+02 5.30525E+00 0.00000E+00
 -1      2493 1.13535E+02 6.60425E+00 0.00000E+00
 -1      2494 1.18785E+02 5.30525E+00 0.00000E+00
 -1      2495 1.17285E+02 5.30525E+00 0.00000E+00
 -1      2496 1.16535E+02 6.60425E+00 0.00000E+00
 -1      2497 1.21785E+02 5.30525E+00 0.00000E+00
 -1      2498 1.20285E+02 5.30525E+00 0.00000E+00
 -1      2499 1.19535E+02 6.60425E+00 0.00000E+00
 -1      2500 1.24785E+02 5.30525E+00 0.00000E+00
 -1      2501 1.23285E+02 5.30525E+00 0.00000E+00
 -1      2502 1.22535E+02 6.60425E+00 0.00000E+00
 -1      2503 1.27785E+02 5.30525E+00 0.00000E+00
 -1      2504 1.26285E+02 5.30525E+00 0.00000E+00
 -1      2505 1.25535E+02 6.60425E+00 0.00000E+00
 -1      2506 1.30785E+02 5.30525E+00 0.00000E+00
 -1      2507 1.29285E+02 5.30525E+00 0.00000E+00
 -1      2508 1.28535E+02 6.60425E+00 0.00000E+00
 -1      2509 1.33785E+02 5.30525E+00 0.00000E+00
 -1      2510 1.32285E+02 5.30525E+00 0.00000E+00
 -1      2511 1.31535E+02 6.60425E+00 0.00000E+00
 -1      2512 1.36785E+02 5.30525E+00 0.00000E+00
 -1      2513 1.35285E+02 5.30525E+00 0.00000E+00
 -1      2514 1.34535E+02 6.60425E+00 0.00000E+00
 -1      2515 1.39785E+02 5.30525E+00 0.00000E+00
 -1      2516 1.38285E+02 5.30525E+00 0.00000E+00
 -1      2517 1.37535E+02 6.60425E+00 0.00000E+00
 -1      2518 1.42785E+02 5.30525E+00 0.00000E+00
 -1      2519 1.41285E+02 5.30525E+00 0.00000E+00
 -1      2520 1.40535E+02 6.60425E+00 0.00000E+00
 -1      2521 1.44336E+02 5.26953E+00 0.00000E+00
 -1      2522 1.43505E+02 1.69125E+01 0.00000E+00
 -1      2523 1.43505E+02 1.54375E+01 0.00000E+00
 -1      2524 1.43505E+02 1.98625E+01 0.00000E+00
 -1      2525 1.43505E+02 1.83875E+01 0.00000E+00
 -1      2526 1.42206E+02 1.76500E+01 0.00000E+00
 -1      2527 1.43505E+02 1.10625E+01 0.00000E+00
 -1      2528 1.43505E+02 9.58750E+00 0.00000E+00
 -1      2529 1.43505E+02 1.39750E+01 0.00000E+00
 -1      2530 1.43505E+02 1.25250E+01 0.00000E+00
 -1      2531 1.42206E+02 1.17875E+01 0.00000E+00
 -1      2532 1.42206E+02 1.47125E+01 0.00000E+00
 -1      2533 1.43505E+02 2.28125E+01 0.00000E+00
 -1      2534 1.43505E+02 2.13375E+01 0.00000E+00
 -1      2535 1.42206E+02 2.06000E+01 0.00000E+00
 -1      2536 1.43505E+02 2.57625E+01 0.00000E+00
 -1      2537 1.43505E+02 2.42875E+01 0.00000E+00
 -1      2538 1.42206E+02 2.35500E+01 0.00000E+00
 -1      2539 1.43505E+02 2.87125E+01 0.00000E+00
 -1      2540 1.43505E+02 2.72375E+01 0.00000E+00
 -1      2541 1.42206E+02 2.65000E+01 0.00000E+00
 -1      2542 1.43505E+02 3.16125E+01 0.00000E+00
 -1      2543 1.43505E+02 3.01625E+01 0.00000E+00
 -1      2544 1.42206E+02 2.94250E+01 0.00000E+00
 -1      2545 1.43505E+02 3.45625E+01 0.00000E+00
 -1      2546 1.43505E+02 3.30875E+01 0.00000E+00
 -1      2547 1.42206E+02 3.23500E+01 0.00000E+00
 -1      2548 1.43505E+02 3.75125E+01 0.00000E+00
 -1      2549 1.43505E+02 3.60375E+01 0.00000E+00
 -1      2550 1.42206E+02 3.53000E+01 0.00000E+00
 -1      2551 1.43505E+02 4.04625E+01 0.00000E+00
 -1      2552 1.43505E+02 3.89875E+01 0.00000E+00
 -1      2553 1.42206E+02 3.82500E+01 0.00000E+00
 -1      2554 6.78464E+01 2.60620E+01 0.00000E+00
 -1      2555 6.78618E+01 2.71220E+01 0.00000E+00
 -1      2556 6.61342E+01 2.19494E+01 0.00000E+00
 -1      2557 6.65295E+01 2.28493E+01 0.00000E+00
 -1      2558 1.67850E+01 5.30525E+00 0.00000E+00
 -1      2559 1.52850E+01 5.30525E+00 0.00000E+00
 -1      2560 1.75350E+01 6.60425E+00 0.00000E+00
 -1      2561 1.44321E+02 4.30606E+01 0.00000E+00
 -1      2562 6.77567E+01 2.82930E+01 0.00000E+00
 -1      2563 6.75674E+01 2.91994E+01 0.00000E+00
 -1      2564 6.70491E+01 2.37995E+01 0.00000E+00
 -1      2565 6.75688E+01 2.47497E+01 0.00000E+00
 -1      2566 6.76366E+01 2.30046E+01 0.00000E+00
 -1      2567 6.55950E+00 4.28890E+01 0.00000E+00
 -1      2568 8.53650E+00 4.32410E+01 0.00000E+00
 -1      2569 9.28650E+00 4.19420E+01 0.00000E+00
 -1      2570 6.55950E+00 4.14140E+01 0.00000E+00
 -1      2571 6.73374E+01 3.01036E+01 0.00000E+00
 -1      2572 6.71075E+01 3.10078E+01 0.00000E+00
 -1      2573 6.82715E+01 2.98258E+01 0.00000E+00
 -1      2574 5.40405E+01 3.79926E+01 0.00000E+00
 -1      2575 5.29065E+01 3.74030E+01 0.00000E+00
 -1      2576 5.02046E+01 3.52766E+01 0.00000E+00
 -1      2577 4.93824E+01 3.44041E+01 0.00000E+00
 -1      2578 4.96899E+01 2.03178E+01 0.00000E+00
 -1      2579 5.07211E+01 1.95124E+01 0.00000E+00
 -1      2580 5.61030E+01 1.70609E+01 0.00000E+00
 -1      2581 5.72295E+01 1.69887E+01 0.00000E+00
 -1      2582 6.49500E+00 2.71625E+01 0.00000E+00
 -1      2583 6.49500E+00 2.86375E+01 0.00000E+00
 -1      2584 7.79400E+00 2.93750E+01 0.00000E+00
 -1      2585 7.79400E+00 2.64250E+01 0.00000E+00
 -1      2586 5.36664E+01 1.76942E+01 0.00000E+00
 -1      2587 5.47915E+01 1.73470E+01 0.00000E+00
 -1      2588 5.84047E+01 1.70131E+01 0.00000E+00
 -1      2589 5.93089E+01 1.71246E+01 0.00000E+00
 -1      2590 4.80397E+01 2.24998E+01 0.00000E+00
 -1      2591 4.86190E+01 2.14377E+01 0.00000E+00
 -1      2592 5.16904E+01 1.87711E+01 0.00000E+00
 -1      2593 5.25191E+01 1.82515E+01 0.00000E+00
 -1      2594 4.68656E+01 2.91459E+01 0.00000E+00
 -1      2595 4.68927E+01 2.80965E+01 0.00000E+00
 -1      2596 4.72332E+01 2.43857E+01 0.00000E+00
 -1      2597 4.76097E+01 2.35437E+01 0.00000E+00
 -1      2598 5.66149E+01 3.83567E+01 0.00000E+00
 -1      2599 5.55478E+01 3.82741E+01 0.00000E+00
 -1      2600 4.75563E+01 3.14753E+01 0.00000E+00
 -1      2601 4.71349E+01 3.05170E+01 0.00000E+00
 -1      2602 4.86318E+01 3.33512E+01 0.00000E+00
 -1      2603 4.81101E+01 3.24660E+01 0.00000E+00
 -1      2604 5.19829E+01 3.65691E+01 0.00000E+00
 -1      2605 5.11966E+01 3.60321E+01 0.00000E+00
 -1      2606 6.29650E+01 3.68209E+01 0.00000E+00
 -1      2607 6.21151E+01 3.73264E+01 0.00000E+00
 -1      2608 5.85647E+01 3.82826E+01 0.00000E+00
 -1      2609 5.77158E+01 3.83589E+01 0.00000E+00
 -1      2610 6.08545E+01 3.76909E+01 0.00000E+00
 -1      2611 5.97276E+01 3.80370E+01 0.00000E+00
 -1      2612 6.44262E+01 3.52982E+01 0.00000E+00
 -1      2613 6.37987E+01 3.59530E+01 0.00000E+00
 -1      2614 6.57379E+01 3.39558E+01 0.00000E+00
 -1      2615 6.50820E+01 3.46270E+01 0.00000E+00
 -1      2616 6.53874E+01 3.55478E+01 0.00000E+00
 -1      2617 6.67778E+01 3.20574E+01 0.00000E+00
 -1      2618 6.64073E+01 3.29322E+01 0.00000E+00
 -1      2619 8.07525E+00 5.11044E+00 0.00000E+00
 -1      2620 6.57525E+00 5.11044E+00 0.00000E+00
 -1      2621 6.40575E+00 6.01981E+00 0.00000E+00
 -1      2622 8.82525E+00 6.40944E+00 0.00000E+00
 -1      2623 6.46272E+01 2.00487E+01 0.00000E+00
 -1      2624 6.54088E+01 2.07907E+01 0.00000E+00
 -1      2625 5.52999E+01 1.64551E+01 0.00000E+00
 -1      2626 7.79400E+00 3.52687E+01 0.00000E+00
 -1      2627 6.49500E+00 3.60062E+01 0.00000E+00
 -1      2628 6.49500E+00 3.74750E+01 0.00000E+00
 -1      2629 1.45350E+01 6.60425E+00 0.00000E+00
 -1      2630 6.40575E+00 7.49481E+00 0.00000E+00
 -1      2631 6.47458E+01 1.91372E+01 0.00000E+00
 -1      2632 6.67127E+01 3.38529E+01 0.00000E+00
 -1      2633 6.01162E+01 1.67954E+01 0.00000E+00
 -1      2634 6.18035E+01 3.83192E+01 0.00000E+00
 -1      2635 5.93800E+01 3.89293E+01 0.00000E+00
 -1      2636 5.20770E+01 3.77735E+01 0.00000E+00
 -1      2637 6.38979E+01 3.70868E+01 0.00000E+00
 -1      2638 1.43586E+02 6.56853E+00 0.00000E+00
 -1      2639 6.63915E+01 2.08958E+01 0.00000E+00
 -1      2640 1.43419E+02 7.72713E+00 0.00000E+00
 -1      2641 6.86065E+01 2.77506E+01 0.00000E+00
 -1      2642 6.84339E+01 2.52672E+01 0.00000E+00
 -1      2643 4.84188E+01 3.43756E+01 0.00000E+00
 -1      2644 4.71144E+01 3.23320E+01 0.00000E+00
 -1      2645 7.70475E+00 8.23231E+00 0.00000E+00
 -1      2646 5.71161E+01 3.91726E+01 0.00000E+00
 -1      2647 6.55950E+00 3.99453E+01 0.00000E+00
 -1      2648 5.01614E+01 3.61840E+01 0.00000E+00
 -1      2649 5.45079E+01 3.88889E+01 0.00000E+00
 -1      2650 4.66392E+01 2.49272E+01 0.00000E+00
 -1      2651 4.61594E+01 2.42074E+01 0.00000E+00
 -1      2652 4.60453E+01 2.54686E+01 0.00000E+00
 -1      2653 4.62912E+01 2.99701E+01 0.00000E+00
 -1      2654 5.07243E+01 1.85970E+01 0.00000E+00
 -1      2655 4.71833E+01 2.26221E+01 0.00000E+00
 -1      2656 4.86842E+01 2.04582E+01 0.00000E+00
 -1      2657 4.87493E+01 1.94787E+01 0.00000E+00
 -1      2658 4.76784E+01 2.05987E+01 0.00000E+00
 -1      2659 4.62735E+01 2.73937E+01 0.00000E+00
 -1      2660 5.77866E+01 1.61933E+01 0.00000E+00
 -1      2661 6.77119E+01 3.17796E+01 0.00000E+00
 -1      2662 6.25481E+01 1.79552E+01 0.00000E+00
 -1      2663 6.34260E+01 1.76828E+01 0.00000E+00
 -1      2664 6.21486E+01 1.71006E+01 0.00000E+00
 -1      2665 5.28410E+01 1.72985E+01 0.00000E+00
 -1      2666 1.42758E+02 4.35929E+01 0.00000E+00
 -1      2667 1.43241E+02 4.17323E+01 0.00000E+00
 -1      2668 1.41942E+02 4.09948E+01 0.00000E+00
 -1      2669 1.41414E+02 4.35342E+01 0.00000E+00
 -1      2670 1.42120E+02 8.46463E+00 0.00000E+00
 -1      2671 1.40664E+02 4.22352E+01 0.00000E+00
 -1      2672 9.09300E+00 1.98250E+01 0.00000E+00
 -1      2673 9.09300E+00 2.12750E+01 0.00000E+00
 -1      2674 9.09300E+00 2.27500E+01 0.00000E+00
 -1      2675 9.09300E+00 2.42250E+01 0.00000E+00
 -1      2676 1.03920E+01 2.20250E+01 0.00000E+00
 -1      2677 9.09300E+00 1.39375E+01 0.00000E+00
 -1      2678 9.09300E+00 1.54125E+01 0.00000E+00
 -1      2679 9.09300E+00 1.09875E+01 0.00000E+00
 -1      2680 9.09300E+00 1.24625E+01 0.00000E+00
 -1      2681 1.03920E+01 1.32000E+01 0.00000E+00
 -1      2682 1.22850E+01 7.90325E+00 0.00000E+00
 -1      2683 1.07850E+01 7.90325E+00 0.00000E+00
 -1      2684 5.99227E+01 1.57396E+01 0.00000E+00
 -1      2685 6.10771E+01 1.63173E+01 0.00000E+00
 -1      2686 6.91364E+01 2.95644E+01 0.00000E+00
 -1      2687 6.89065E+01 3.04686E+01 0.00000E+00
 -1      2688 6.78353E+01 3.38563E+01 0.00000E+00
 -1      2689 6.71658E+01 3.48800E+01 0.00000E+00
 -1      2690 1.44000E+01 4.09070E+01 0.00000E+00
 -1      2691 1.59000E+01 4.09070E+01 0.00000E+00
 -1      2692 1.74000E+01 4.09070E+01 0.00000E+00
 -1      2693 1.89000E+01 4.09070E+01 0.00000E+00
 -1      2694 1.66500E+01 3.96080E+01 0.00000E+00
 -1      2695 2.04000E+01 4.09070E+01 0.00000E+00
 -1      2696 2.19000E+01 4.09070E+01 0.00000E+00
 -1      2697 1.96500E+01 3.96080E+01 0.00000E+00
 -1      2698 2.34000E+01 4.09070E+01 0.00000E+00
 -1      2699 2.49000E+01 4.09070E+01 0.00000E+00
 -1      2700 2.26500E+01 3.96080E+01 0.00000E+00
 -1      2701 2.64000E+01 4.09070E+01 0.00000E+00
 -1      2702 2.79000E+01 4.09070E+01 0.00000E+00
 -1      2703 2.56500E+01 3.96080E+01 0.00000E+00
 -1      2704 2.94000E+01 4.09070E+01 0.00000E+00
 -1      2705 3.09000E+01 4.09070E+01 0.00000E+00
 -1      2706 2.86500E+01 3.96080E+01 0.00000E+00
 -1      2707 3.24000E+01 4.09070E+01 0.00000E+00
 -1      2708 3.39000E+01 4.09070E+01 0.00000E+00
 -1      2709 3.16500E+01 3.96080E+01 0.00000E+00
 -1      2710 3.54000E+01 4.09070E+01 0.00000E+00
 -1      2711 3.69000E+01 4.09070E+01 0.00000E+00
 -1      2712 3.46500E+01 3.96080E+01 0.00000E+00
 -1      2713 3.84000E+01 4.09070E+01 0.00000E+00
 -1      2714 3.99000E+01 4.09070E+01 0.00000E+00
 -1      2715 3.76500E+01 3.96080E+01 0.00000E+00
 -1      2716 4.14000E+01 4.09070E+01 0.00000E+00
 -1      2717 4.29000E+01 4.09070E+01 0.00000E+00
 -1      2718 4.06500E+01 3.96080E+01 0.00000E+00
 -1      2719 4.44000E+01 4.09070E+01 0.00000E+00
 -1      2720 4.59000E+01 4.09070E+01 0.00000E+00
 -1      2721 4.36500E+01 3.96080E+01 0.00000E+00
 -1      2722 4.74000E+01 4.09070E+01 0.00000E+00
 -1      2723 4.89000E+01 4.09070E+01 0.00000E+00
 -1      2724 4.66500E+01 3.96080E+01 0.00000E+00
 -1      2725 5.13253E+01 4.04067E+01 0.00000E+00
 -1      2726 5.28253E+01 4.04067E+01 0.00000E+00
 -1      2727 5.43253E+01 4.04067E+01 0.00000E+00
 -1      2728 5.69335E+01 4.06904E+01 0.00000E+00
 -1      2729 5.84335E+01 4.06904E+01 0.00000E+00
 -1      2730 5.95964E+01 4.04448E+01 0.00000E+00
 -1      2731 6.10964E+01 4.04448E+01 0.00000E+00
 -1      2732 6.23570E+01 4.00803E+01 0.00000E+00
 -1      2733 6.38570E+01 4.00803E+01 0.00000E+00
 -1      2734 6.84000E+01 4.09070E+01 0.00000E+00
 -1      2735 6.99000E+01 4.09070E+01 0.00000E+00
 -1      2736 7.14000E+01 4.09070E+01 0.00000E+00
 -1      2737 7.29000E+01 4.09070E+01 0.00000E+00
 -1      2738 7.06500E+01 3.96080E+01 0.00000E+00
 -1      2739 7.44000E+01 4.09070E+01 0.00000E+00
 -1      2740 7.59000E+01 4.09070E+01 0.00000E+00
 -1      2741 7.36500E+01 3.96080E+01 0.00000E+00
 -1      2742 7.74000E+01 4.09070E+01 0.00000E+00
 -1      2743 7.89000E+01 4.09070E+01 0.00000E+00
 -1      2744 7.66500E+01 3.96080E+01 0.00000E+00
 -1      2745 8.04000E+01 4.09070E+01 0.00000E+00
 -1      2746 8.19000E+01 4.09070E+01 0.00000E+00
 -1      2747 7.96500E+01 3.96080E+01 0.00000E+00
 -1      2748 8.34000E+01 4.09070E+01 0.00000E+00
 -1      2749 8.49000E+01 4.09070E+01 0.00000E+00
 -1      2750 8.26500E+01 3.96080E+01 0.00000E+00
 -1      2751 8.64000E+01 4.09070E+01 0.00000E+00
 -1      2752 8.79000E+01 4.09070E+01 0.00000E+00
 -1      2753 8.56500E+01 3.96080E+01 0.00000E+00
 -1      2754 8.94000E+01 4.09070E+01 0.00000E+00
 -1      2755 9.09000E+01 4.09070E+01 0.00000E+00
 -1      2756 8.86500E+01 3.96080E+01 0.00000E+00
 -1      2757 9.24000E+01 4.09070E+01 0.00000E+00
 -1      2758 9.39000E+01 4.09070E+01 0.00000E+00
 -1      2759 9.16500E+01 3.96080E+01 0.00000E+00
 -1      2760 9.54000E+01 4.09070E+01 0.00000E+00
 -1      2761 9.69000E+01 4.09070E+01 0.00000E+00
 -1      2762 9.46500E+01 3.96080E+01 0.00000E+00
 -1      2763 9.84000E+01 4.09070E+01 0.00000E+00
 -1      2764 9.99000E+01 4.09070E+01 0.00000E+00
 -1      2765 9.76500E+01 3.96080E+01 0.00000E+00
 -1      2766 1.01400E+02 4.09070E+01 0.00000E+00
 -1      2767 1.02900E+02 4.09070E+01 0.00000E+00
 -1      2768 1.00650E+02 3.96080E+01 0.00000E+00
 -1      2769 1.04400E+02 4.09070E+01 0.00000E+00
 -1      2770 1.05900E+02 4.09070E+01 0.00000E+00
 -1      2771 1.03650E+02 3.96080E+01 0.00000E+00
 -1      2772 1.07400E+02 4.09070E+01 0.00000E+00
 -1      2773 1.08900E+02 4.09070E+01 0.00000E+00
 -1      2774 1.06650E+02 3.96080E+01 0.00000E+00
 -1      2775 1.10400E+02 4.09070E+01 0.00000E+00
 -1      2776 1.11900E+02 4.09070E+01 0.00000E+00
 -1      2777 1.09650E+02 3.96080E+01 0.00000E+00
 -1      2778 1.13400E+02 4.09070E+01 0.00000E+00
 -1      2779 1.14900E+02 4.09070E+01 0.00000E+00
 -1      2780 1.12650E+02 3.96080E+01 0.00000E+00
 -1      2781 1.16400E+02 4.09070E+01 0.00000E+00
 -1      2782 1.17900E+02 4.09070E+01 0.00000E+00
 -1      2783 1.15650E+02 3.96080E+01 0.00000E+00
 -1      2784 1.19400E+02 4.09070E+01 0.00000E+00
 -1      2785 1.20900E+02 4.09070E+01 0.00000E+00
 -1      2786 1.18650E+02 3.96080E+01 0.00000E+00
 -1      2787 1.22400E+02 4.09070E+01 0.00000E+00
 -1      2788 1.23900E+02 4.09070E+01 0.00000E+00
 -1      2789 1.21650E+02 3.96080E+01 0.00000E+00
 -1      2790 1.25400E+02 4.09070E+01 0.00000E+00
 -1      2791 1.26900E+02 4.09070E+01 0.00000E+00
 -1      2792 1.24650E+02 3.96080E+01 0.00000E+00
 -1      2793 1.28400E+02 4.09070E+01 0.00000E+00
 -1      2794 1.29900E+02 4.09070E+01 0.00000E+00
 -1      2795 1.27650E+02 3.96080E+01 0.00000E+00
 -1      2796 1.31400E+02 4.09070E+01 0.00000E+00
 -1      2797 1.32900E+02 4.09070E+01 0.00000E+00
 -1      2798 1.30650E+02 3.96080E+01 0.00000E+00
 -1      2799 1.34400E+02 4.09070E+01 0.00000E+00
 -1      2800 1.35900E+02 4.09070E+01 0.00000E+00
 -1      2801 1.33650E+02 3.96080E+01 0.00000E+00
 -1      2802 1.37400E+02 4.09070E+01 0.00000E+00
 -1      2803 1.38900E+02 4.09070E+01 0.00000E+00
 -1      2804 1.36650E+02 3.96080E+01 0.00000E+00
 -1      2805 2.42850E+01 7.90325E+00 0.00000E+00
 -1      2806 2.27850E+01 7.90325E+00 0.00000E+00
 -1      2807 1.40706E+02 1.03250E+01 0.00000E+00
 -1      2808 1.40620E+02 8.46463E+00 0.00000E+00
 -1      2809 1.39120E+02 8.46463E+00 0.00000E+00
 -1      2810 2.12850E+01 7.90325E+00 0.00000E+00
 -1      2811 1.97850E+01 7.90325E+00 0.00000E+00
 -1      2812 2.20350E+01 9.20225E+00 0.00000E+00
 -1      2813 3.02850E+01 7.90325E+00 0.00000E+00
 -1      2814 2.87850E+01 7.90325E+00 0.00000E+00
 -1      2815 3.32850E+01 7.90325E+00 0.00000E+00
 -1      2816 3.17850E+01 7.90325E+00 0.00000E+00
 -1      2817 3.10350E+01 9.20225E+00 0.00000E+00
 -1      2818 3.62850E+01 7.90325E+00 0.00000E+00
 -1      2819 3.47850E+01 7.90325E+00 0.00000E+00
 -1      2820 3.40350E+01 9.20225E+00 0.00000E+00
 -1      2821 3.92850E+01 7.90325E+00 0.00000E+00
 -1      2822 3.77850E+01 7.90325E+00 0.00000E+00
 -1      2823 3.70350E+01 9.20225E+00 0.00000E+00
 -1      2824 4.22850E+01 7.90325E+00 0.00000E+00
 -1      2825 4.07850E+01 7.90325E+00 0.00000E+00
 -1      2826 4.00350E+01 9.20225E+00 0.00000E+00
 -1      2827 4.52850E+01 7.90325E+00 0.00000E+00
 -1      2828 4.37850E+01 7.90325E+00 0.00000E+00
 -1      2829 4.30350E+01 9.20225E+00 0.00000E+00
 -1      2830 4.82850E+01 7.90325E+00 0.00000E+00
 -1      2831 4.67850E+01 7.90325E+00 0.00000E+00
 -1      2832 4.60350E+01 9.20225E+00 0.00000E+00
 -1      2833 5.12850E+01 7.90325E+00 0.00000E+00
 -1      2834 4.97850E+01 7.90325E+00 0.00000E+00
 -1      2835 4.90350E+01 9.20225E+00 0.00000E+00
 -1      2836 5.42850E+01 7.90325E+00 0.00000E+00
 -1      2837 5.27850E+01 7.90325E+00 0.00000E+00
 -1      2838 5.20350E+01 9.20225E+00 0.00000E+00
 -1      2839 5.72850E+01 7.90325E+00 0.00000E+00
 -1      2840 5.57850E+01 7.90325E+00 0.00000E+00
 -1      2841 5.50350E+01 9.20225E+00 0.00000E+00
 -1      2842 6.02850E+01 7.90325E+00 0.00000E+00
 -1      2843 5.87850E+01 7.90325E+00 0.00000E+00
 -1      2844 5.80350E+01 9.20225E+00 0.00000E+00
 -1      2845 6.32850E+01 7.90325E+00 0.00000E+00
 -1      2846 6.17850E+01 7.90325E+00 0.00000E+00
 -1      2847 6.10350E+01 9.20225E+00 0.00000E+00
 -1      2848 6.62850E+01 7.90325E+00 0.00000E+00
 -1      2849 6.47850E+01 7.90325E+00 0.00000E+00
 -1      2850 6.40350E+01 9.20225E+00 0.00000E+00
 -1      2851 6.92850E+01 7.90325E+00 0.00000E+00
 -1      2852 6.77850E+01 7.90325E+00 0.00000E+00
 -1      2853 6.70350E+01 9.20225E+00 0.00000E+00
 -1      2854 7.22850E+01 7.90325E+00 0.00000E+00
 -1      2855 7.07850E+01 7.90325E+00 0.00000E+00
 -1      2856 7.00350E+01 9.20225E+00 0.00000E+00
 -1      2857 7.52850E+01 7.90325E+00 0.00000E+00
 -1      2858 7.37850E+01 7.90325E+00 0.00000E+00
 -1      2859 7.30350E+01 9.20225E+00 0.00000E+00
 -1      2860 7.82850E+01 7.90325E+00 0.00000E+00
 -1      2861 7.67850E+01 7.90325E+00 0.00000E+00
 -1      2862 7.60350E+01 9.20225E+00 0.00000E+00
 -1      2863 8.12850E+01 7.90325E+00 0.00000E+00
 -1      2864 7.97850E+01 7.90325E+00 0.00000E+00
 -1      2865 7.90350E+01 9.20225E+00 0.00000E+00
 -1      2866 8.42850E+01 7.90325E+00 0.00000E+00
 -1      2867 8.27850E+01 7.90325E+00 0.00000E+00
 -1      2868 8.20350E+01 9.20225E+00 0.00000E+00
 -1      2869 8.72850E+01 7.90325E+00 0.00000E+00
 -1      2870 8.57850E+01 7.90325E+00 0.00000E+00
 -1      2871 8.50350E+01 9.20225E+00 0.00000E+00
 -1      2872 9.02850E+01 7.90325E+00 0.00000E+00
 -1      2873 8.87850E+01 7.90325E+00 0.00000E+00
 -1      2874 8.80350E+01 9.20225E+00 0.00000E+00
 -1      2875 9.32850E+01 7.90325E+00 0.00000E+00
 -1      2876 9.17850E+01 7.90325E+00 0.00000E+00
 -1      2877 9.10350E+01 9.20225E+00 0.00000E+00
 -1      2878 9.62850E+01 7.90325E+00 0.00000E+00
 -1      2879 9.47850E+01 7.90325E+00 0.00000E+00
 -1      2880 9.40350E+01 9.20225E+00 0.00000E+00
 -1      2881 9.92850E+01 7.90325E+00 0.00000E+00
 -1      2882 9.77850E+01 7.90325E+00 0.00000E+00
 -1      2883 9.70350E+01 9.20225E+00 0.00000E+00
 -1      2884 1.02285E+02 7.90325E+00 0.00000E+00
 -1      2885 1.00785E+02 7.90325E+00 0.00000E+00
 -1      2886 1.00035E+02 9.20225E+00 0.00000E+00
 -1      2887 1.05285E+02 7.90325E+00 0.00000E+00
 -1      2888 1.03785E+02 7.90325E+00 0.00000E+00
 -1      2889 1.03035E+02 9.20225E+00 0.00000E+00
 -1      2890 1.08285E+02 7.90325E+00 0.00000E+00
 -1      2891 1.06785E+02 7.90325E+00 0.00000E+00
 -1      2892 1.06035E+02 9.20225E+00 0.00000E+00
 -1      2893 1.11285E+02 7.90325E+00 0.00000E+00
 -1      2894 1.09785E+02 7.90325E+00 0.00000E+00
 -1      2895 1.09035E+02 9.20225E+00 0.00000E+00
 -1      2896 1.14285E+02 7.90325E+00 0.00000E+00
 -1      2897 1.12785E+02 7.90325E+00 0.00000E+00
 -1      2898 1.12035E+02 9.20225E+00 0.00000E+00
 -1      2899 1.17285E+02 7.90325E+00 0.00000E+00
 -1      2900 1.15785E+02 7.90325E+00 0.00000E+00
 -1      2901 1.15035E+02 9.20225E+00 0.00000E+00
 -1      2902 1.20285E+02 7.90325E+00 0.00000E+00
 -1      2903 1.18785E+02 7.90325E+00 0.00000E+00
 -1      2904 1.18035E+02 9.20225E+00 0.00000E+00
 -1      2905 1.23285E+02 7.90325E+00 0.00000E+00
 -1      2906 1.21785E+02 7.90325E+00 0.00000E+00
 -1      2907 1.21035E+02 9.20225E+00 0.00000E+00
 -1      2908 1.26285E+02 7.90325E+00 0.00000E+00
 -1      2909 1.24785E+02 7.90325E+00 0.00000E+00
 -1      2910 1.24035E+02 9.20225E+00 0.00000E+00
 -1      2911 1.29285E+02 7.90325E+00 0.00000E+00
 -1      2912 1.27785E+02 7.90325E+00 0.00000E+00
 -1      2913 1.27035E+02 9.20225E+00 0.00000E+00
 -1      2914 1.32285E+02 7.90325E+00 0.00000E+00
 -1      2915 1.30785E+02 7.90325E+00 0.00000E+00
 -1      2916 1.30035E+02 9.20225E+00 0.00000E+00
 -1      2917 1.35285E+02 7.90325E+00 0.00000E+00
 -1      2918 1.33785E+02 7.90325E+00 0.00000E+00
 -1      2919 1.33035E+02 9.20225E+00 0.00000E+00
 -1      2920 1.37953E+02 8.18394E+00 0.00000E+00
 -1      2921 1.36453E+02 8.18394E+00 0.00000E+00
 -1      2922 1.35703E+02 9.48294E+00 0.00000E+00
 -1      2923 1.38038E+02 1.00443E+01 0.00000E+00
 -1      2924 6.68977E+01 1.97724E+01 0.00000E+00
 -1      2925 6.76232E+01 2.09311E+01 0.00000E+00
 -1      2926 1.40907E+02 2.42875E+01 0.00000E+00
 -1      2927 1.40907E+02 2.28125E+01 0.00000E+00
 -1      2928 1.39914E+02 4.09362E+01 0.00000E+00
 -1      2929 1.40928E+02 4.09655E+01 0.00000E+00
 -1      2930 1.39164E+02 3.96372E+01 0.00000E+00
 -1      2931 1.40907E+02 1.83875E+01 0.00000E+00
 -1      2932 1.40907E+02 1.69125E+01 0.00000E+00
 -1      2933 1.40907E+02 2.72375E+01 0.00000E+00
 -1      2934 1.40907E+02 2.57625E+01 0.00000E+00
 -1      2935 1.39608E+02 2.50250E+01 0.00000E+00
 -1      2936 1.40907E+02 2.13375E+01 0.00000E+00
 -1      2937 1.40907E+02 1.98625E+01 0.00000E+00
 -1      2938 1.39608E+02 1.91250E+01 0.00000E+00
 -1      2939 1.39608E+02 2.20750E+01 0.00000E+00
 -1      2940 1.40907E+02 3.01375E+01 0.00000E+00
 -1      2941 1.40907E+02 2.86875E+01 0.00000E+00
 -1      2942 1.39608E+02 2.79500E+01 0.00000E+00
 -1      2943 1.40907E+02 3.30875E+01 0.00000E+00
 -1      2944 1.40907E+02 3.16125E+01 0.00000E+00
 -1      2945 1.39608E+02 3.08750E+01 0.00000E+00
 -1      2946 1.40907E+02 3.60375E+01 0.00000E+00
 -1      2947 1.40907E+02 3.45625E+01 0.00000E+00
 -1      2948 1.39608E+02 3.38250E+01 0.00000E+00
 -1      2949 8.85168E+00 4.05347E+01 0.00000E+00
 -1      2950 1.02152E+01 4.07987E+01 0.00000E+00
 -1      2951 6.81292E+01 2.21181E+01 0.00000E+00
 -1      2952 6.86488E+01 2.30683E+01 0.00000E+00
 -1      2953 6.92160E+01 2.44162E+01 0.00000E+00
 -1      2954 6.94937E+01 2.57285E+01 0.00000E+00
 -1      2955 4.78912E+01 3.55458E+01 0.00000E+00
 -1      2956 4.71406E+01 3.44929E+01 0.00000E+00
 -1      2957 8.91450E+00 8.42712E+00 0.00000E+00
 -1      2958 4.65868E+01 3.35022E+01 0.00000E+00
 -1      2959 4.60329E+01 3.25114E+01 0.00000E+00
 -1      2960 4.60591E+01 3.46723E+01 0.00000E+00
 -1      2961 4.60979E+01 2.27855E+01 0.00000E+00
 -1      2962 4.65279E+01 2.17416E+01 0.00000E+00
 -1      2963 1.82850E+01 7.90325E+00 0.00000E+00
 -1      2964 1.67850E+01 7.90325E+00 0.00000E+00
 -1      2965 1.90350E+01 9.20225E+00 0.00000E+00
 -1      2966 2.72850E+01 7.90325E+00 0.00000E+00
 -1      2967 2.57850E+01 7.90325E+00 0.00000E+00
 -1      2968 2.50350E+01 9.20225E+00 0.00000E+00
 -1      2969 2.80350E+01 9.20225E+00 0.00000E+00
 -1      2970 1.52850E+01 7.90325E+00 0.00000E+00
 -1      2971 1.37850E+01 7.90325E+00 0.00000E+00
 -1      2972 1.30350E+01 9.20225E+00 0.00000E+00
 -1      2973 1.60350E+01 9.20225E+00 0.00000E+00
 -1      2974 6.85768E+01 3.15182E+01 0.00000E+00
 -1      2975 6.82471E+01 3.25678E+01 0.00000E+00
 -1      2976 6.94417E+01 3.12568E+01 0.00000E+00
 -1      2977 5.00870E+01 3.73107E+01 0.00000E+00
 -1      2978 4.90950E+01 3.65551E+01 0.00000E+00
 -1      2979 1.15576E+01 4.08528E+01 0.00000E+00
 -1      2980 1.30576E+01 4.08528E+01 0.00000E+00
 -1      2981 1.38076E+01 3.95538E+01 0.00000E+00
 -1      2982 1.11228E+01 3.94455E+01 0.00000E+00
 -1      2983 4.53903E+01 2.78383E+01 0.00000E+00
 -1      2984 4.56419E+01 2.66329E+01 0.00000E+00
 -1      2985 5.72185E+01 1.52400E+01 0.00000E+00
 -1      2986 5.83937E+01 1.52644E+01 0.00000E+00
 -1      2987 9.09300E+00 1.68813E+01 0.00000E+00
 -1      2988 9.09300E+00 1.83563E+01 0.00000E+00
 -1      2989 1.03920E+01 1.90812E+01 0.00000E+00
 -1      2990 1.03920E+01 1.61437E+01 0.00000E+00
 -1      2991 9.09300E+00 3.15875E+01 0.00000E+00
 -1      2992 9.09300E+00 3.30625E+01 0.00000E+00
 -1      2993 4.96170E+01 1.81533E+01 0.00000E+00
 -1      2994 5.05863E+01 1.74121E+01 0.00000E+00
 -1      2995 4.54200E+01 3.08533E+01 0.00000E+00
 -1      2996 4.51507E+01 2.94822E+01 0.00000E+00
 -1      2997 1.41192E+02 3.96958E+01 0.00000E+00
 -1      2998 7.48818E+00 3.88019E+01 0.00000E+00
 -1      2999 6.95132E+01 2.72417E+01 0.00000E+00
 -1      3000 6.94081E+01 2.84127E+01 0.00000E+00
 -1      3001 6.63886E+01 3.58700E+01 0.00000E+00
 -1      3002 6.57328E+01 3.65412E+01 0.00000E+00
 -1      3003 6.48455E+01 1.79785E+01 0.00000E+00
 -1      3004 6.57657E+01 1.85783E+01 0.00000E+00
 -1      3005 5.18927E+01 1.68057E+01 0.00000E+00
 -1      3006 5.30401E+01 1.62485E+01 0.00000E+00
 -1      3007 5.44614E+01 1.57603E+01 0.00000E+00
 -1      3008 5.57729E+01 1.54742E+01 0.00000E+00
 -1      3009 5.05753E+01 3.91077E+01 0.00000E+00
 -1      3010 6.46274E+01 3.85836E+01 0.00000E+00
 -1      3011 6.54204E+01 4.07092E+01 0.00000E+00
 -1      3012 6.69204E+01 4.07092E+01 0.00000E+00
 -1      3013 6.54612E+01 3.77157E+01 0.00000E+00
 -1      3014 9.09300E+00 3.45313E+01 0.00000E+00
 -1      3015 9.09300E+00 3.60000E+01 0.00000E+00
 -1      3016 1.03920E+01 3.37938E+01 0.00000E+00
 -1      3017 1.03920E+01 2.49750E+01 0.00000E+00
 -1      3018 9.09300E+00 2.57000E+01 0.00000E+00
 -1      3019 9.09300E+00 2.71750E+01 0.00000E+00
 -1      3020 6.19551E+01 1.60449E+01 0.00000E+00
 -1      3021 5.58326E+01 4.06882E+01 0.00000E+00
 -1      3022 4.78168E+01 3.66724E+01 0.00000E+00
 -1      3023 6.75112E+01 3.58734E+01 0.00000E+00
 -1      3024 6.76704E+01 3.94102E+01 0.00000E+00
 -1      3025 6.64624E+01 3.80380E+01 0.00000E+00
 -1      3026 6.44460E+01 1.71239E+01 0.00000E+00
 -1      3027 1.39608E+02 1.61875E+01 0.00000E+00
 -1      3028 1.40907E+02 1.54500E+01 0.00000E+00
 -1      3029 1.40907E+02 1.39875E+01 0.00000E+00
 -1      3030 6.86354E+01 2.09948E+01 0.00000E+00
 -1      3031 6.69973E+01 1.86137E+01 0.00000E+00
 -1      3032 8.78718E+00 3.80644E+01 0.00000E+00
 -1      3033 1.40706E+02 1.17875E+01 0.00000E+00
 -1      3034 4.51620E+01 2.59132E+01 0.00000E+00
 -1      3035 7.00431E+01 2.90555E+01 0.00000E+00
 -1      3036 1.41192E+02 3.82207E+01 0.00000E+00
 -1      3037 9.66450E+00 9.72612E+00 0.00000E+00
 -1      3038 1.09635E+01 1.04636E+01 0.00000E+00
 -1      3039 6.97086E+01 2.35296E+01 0.00000E+00
 -1      3040 7.02953E+01 2.63906E+01 0.00000E+00
 -1      3041 4.55076E+01 2.09255E+01 0.00000E+00
 -1      3042 4.65930E+01 2.07621E+01 0.00000E+00
 -1      3043 4.66581E+01 1.97826E+01 0.00000E+00
 -1      3044 5.07853E+01 1.63621E+01 0.00000E+00
 -1      3045 4.55040E+01 2.33269E+01 0.00000E+00
 -1      3046 4.48486E+01 2.24465E+01 0.00000E+00
 -1      3047 4.49100E+01 2.38684E+01 0.00000E+00
 -1      3048 6.87002E+01 3.35949E+01 0.00000E+00
 -1      3049 4.45190E+01 2.87214E+01 0.00000E+00
 -1      3050 4.38874E+01 2.79606E+01 0.00000E+00
 -1      3051 4.36478E+01 2.96045E+01 0.00000E+00
 -1      3052 9.09300E+00 2.86437E+01 0.00000E+00
 -1      3053 9.09300E+00 3.01187E+01 0.00000E+00
 -1      3054 1.03920E+01 3.08563E+01 0.00000E+00
 -1      3055 1.03920E+01 2.79188E+01 0.00000E+00
 -1      3056 5.63800E+01 1.45452E+01 0.00000E+00
 -1      3057 4.48924E+01 3.20235E+01 0.00000E+00
 -1      3058 5.87866E+01 1.38330E+01 0.00000E+00
 -1      3059 5.93546E+01 1.47863E+01 0.00000E+00
 -1      3060 6.03156E+01 1.43082E+01 0.00000E+00
 -1      3061 1.39529E+02 3.85602E+01 0.00000E+00
 -1      3062 1.40542E+02 3.71145E+01 0.00000E+00
 -1      3063 1.39243E+02 3.63770E+01 0.00000E+00
 -1      3064 1.38514E+02 3.85310E+01 0.00000E+00
 -1      3065 4.86112E+01 1.82938E+01 0.00000E+00
 -1      3066 4.84732E+01 1.71088E+01 0.00000E+00
 -1      3067 4.76055E+01 1.84342E+01 0.00000E+00
 -1      3068 4.96517E+01 3.82738E+01 0.00000E+00
 -1      3069 1.16910E+01 1.24625E+01 0.00000E+00
 -1      3070 1.16910E+01 1.39375E+01 0.00000E+00
 -1      3071 7.05845E+01 3.10392E+01 0.00000E+00
 -1      3072 7.02548E+01 3.20888E+01 0.00000E+00
 -1      3073 4.52949E+01 3.57496E+01 0.00000E+00
 -1      3074 4.47411E+01 3.47589E+01 0.00000E+00
 -1      3075 5.55067E+01 1.37331E+01 0.00000E+00
 -1      3076 5.69523E+01 1.34989E+01 0.00000E+00
 -1      3077 1.89000E+01 3.83090E+01 0.00000E+00
 -1      3078 2.04000E+01 3.83090E+01 0.00000E+00
 -1      3079 2.19000E+01 3.83090E+01 0.00000E+00
 -1      3080 2.34000E+01 3.83090E+01 0.00000E+00
 -1      3081 2.11500E+01 3.70100E+01 0.00000E+00
 -1      3082 2.49000E+01 3.83090E+01 0.00000E+00
 -1      3083 2.64000E+01 3.83090E+01 0.00000E+00
 -1      3084 2.41500E+01 3.70100E+01 0.00000E+00
 -1      3085 2.79000E+01 3.83090E+01 0.00000E+00
 -1      3086 2.94000E+01 3.83090E+01 0.00000E+00
 -1      3087 2.71500E+01 3.70100E+01 0.00000E+00
 -1      3088 3.09000E+01 3.83090E+01 0.00000E+00
 -1      3089 3.24000E+01 3.83090E+01 0.00000E+00
 -1      3090 3.01500E+01 3.70100E+01 0.00000E+00
 -1      3091 3.39000E+01 3.83090E+01 0.00000E+00
 -1      3092 3.54000E+01 3.83090E+01 0.00000E+00
 -1      3093 3.31500E+01 3.70100E+01 0.00000E+00
 -1      3094 3.69000E+01 3.83090E+01 0.00000E+00
 -1      3095 3.84000E+01 3.83090E+01 0.00000E+00
 -1      3096 3.61500E+01 3.70100E+01 0.00000E+00
 -1      3097 3.99000E+01 3.83090E+01 0.00000E+00
 -1      3098 4.14000E+01 3.83090E+01 0.00000E+00
 -1      3099 3.91500E+01 3.70100E+01 0.00000E+00
 -1      3100 4.30635E+01 3.77221E+01 0.00000E+00
 -1      3101 4.45635E+01 3.77221E+01 0.00000E+00
 -1      3102 7.29000E+01 3.83090E+01 0.00000E+00
 -1      3103 7.44000E+01 3.83090E+01 0.00000E+00
 -1      3104 7.59000E+01 3.83090E+01 0.00000E+00
 -1      3105 7.74000E+01 3.83090E+01 0.00000E+00
 -1      3106 7.51500E+01 3.70100E+01 0.00000E+00
 -1      3107 7.89000E+01 3.83090E+01 0.00000E+00
 -1      3108 8.04000E+01 3.83090E+01 0.00000E+00
 -1      3109 7.81500E+01 3.70100E+01 0.00000E+00
 -1      3110 8.19000E+01 3.83090E+01 0.00000E+00
 -1      3111 8.34000E+01 3.83090E+01 0.00000E+00
 -1      3112 8.11500E+01 3.70100E+01 0.00000E+00
 -1      3113 8.49000E+01 3.83090E+01 0.00000E+00
 -1      3114 8.64000E+01 3.83090E+01 0.00000E+00
 -1      3115 8.41500E+01 3.70100E+01 0.00000E+00
 -1      3116 8.79000E+01 3.83090E+01 0.00000E+00
 -1      3117 8.94000E+01 3.83090E+01 0.00000E+00
 -1      3118 8.71500E+01 3.70100E+01 0.00000E+00
 -1      3119 9.09000E+01 3.83090E+01 0.00000E+00
 -1      3120 9.24000E+01 3.83090E+01 0.00000E+00
 -1      3121 9.01500E+01 3.70100E+01 0.00000E+00
 -1      3122 9.39000E+01 3.83090E+01 0.00000E+00
 -1      3123 9.54000E+01 3.83090E+01 0.00000E+00
 -1      3124 9.31500E+01 3.70100E+01 0.00000E+00
 -1      3125 9.69000E+01 3.83090E+01 0.00000E+00
 -1      3126 9.84000E+01 3.83090E+01 0.00000E+00
 -1      3127 9.61500E+01 3.70100E+01 0.00000E+00
 -1      3128 9.99000E+01 3.83090E+01 0.00000E+00
 -1      3129 1.01400E+02 3.83090E+01 0.00000E+00
 -1      3130 9.91500E+01 3.70100E+01 0.00000E+00
 -1      3131 1.02900E+02 3.83090E+01 0.00000E+00
 -1      3132 1.04400E+02 3.83090E+01 0.00000E+00
 -1      3133 1.02150E+02 3.70100E+01 0.00000E+00
 -1      3134 1.05900E+02 3.83090E+01 0.00000E+00
 -1      3135 1.07400E+02 3.83090E+01 0.00000E+00
 -1      3136 1.05150E+02 3.70100E+01 0.00000E+00
 -1      3137 1.08900E+02 3.83090E+01 0.00000E+00
 -1      3138 1.10400E+02 3.83090E+01 0.00000E+00
 -1      3139 1.08150E+02 3.70100E+01 0.00000E+00
 -1      3140 1.11900E+02 3.83090E+01 0.00000E+00
 -1      3141 1.13400E+02 3.83090E+01 0.00000E+00
 -1      3142 1.11150E+02 3.70100E+01 0.00000E+00
 -1      3143 1.14900E+02 3.83090E+01 0.00000E+00
 -1      3144 1.16400E+02 3.83090E+01 0.00000E+00
 -1      3145 1.14150E+02 3.70100E+01 0.00000E+00
 -1      3146 1.17900E+02 3.83090E+01 0.00000E+00
 -1      3147 1.19400E+02 3.83090E+01 0.00000E+00
 -1      3148 1.17150E+02 3.70100E+01 0.00000E+00
 -1      3149 1.20900E+02 3.83090E+01 0.00000E+00
 -1      3150 1.22400E+02 3.83090E+01 0.00000E+00
 -1      3151 1.20150E+02 3.70100E+01 0.00000E+00
 -1      3152 1.23900E+02 3.83090E+01 0.00000E+00
 -1      3153 1.25400E+02 3.83090E+01 0.00000E+00
 -1      3154 1.23150E+02 3.70100E+01 0.00000E+00
 -1      3155 1.26900E+02 3.83090E+01 0.00000E+00
 -1      3156 1.28400E+02 3.83090E+01 0.00000E+00
 -1      3157 1.26150E+02 3.70100E+01 0.00000E+00
 -1      3158 1.29900E+02 3.83090E+01 0.00000E+00
 -1      3159 1.31400E+02 3.83090E+01 0.00000E+00
 -1      3160 1.29150E+02 3.70100E+01 0.00000E+00
 -1      3161 1.32900E+02 3.83090E+01 0.00000E+00
 -1      3162 1.34400E+02 3.83090E+01 0.00000E+00
 -1      3163 1.32150E+02 3.70100E+01 0.00000E+00
 -1      3164 1.35707E+02 3.84200E+01 0.00000E+00
 -1      3165 1.37207E+02 3.84200E+01 0.00000E+00
 -1      3166 1.37572E+02 3.73430E+01 0.00000E+00
 -1      3167 1.34957E+02 3.71210E+01 0.00000E+00
 -1      3168 2.27850E+01 1.05013E+01 0.00000E+00
 -1      3169 2.12850E+01 1.05013E+01 0.00000E+00
 -1      3170 3.47850E+01 1.05013E+01 0.00000E+00
 -1      3171 3.32850E+01 1.05013E+01 0.00000E+00
 -1      3172 3.17850E+01 1.05013E+01 0.00000E+00
 -1      3173 3.02850E+01 1.05013E+01 0.00000E+00
 -1      3174 3.25350E+01 1.18003E+01 0.00000E+00
 -1      3175 4.07850E+01 1.05013E+01 0.00000E+00
 -1      3176 3.92850E+01 1.05013E+01 0.00000E+00
 -1      3177 4.37850E+01 1.05013E+01 0.00000E+00
 -1      3178 4.22850E+01 1.05013E+01 0.00000E+00
 -1      3179 4.15350E+01 1.18003E+01 0.00000E+00
 -1      3180 4.67850E+01 1.05013E+01 0.00000E+00
 -1      3181 4.52850E+01 1.05013E+01 0.00000E+00
 -1      3182 4.45350E+01 1.18003E+01 0.00000E+00
 -1      3183 4.97850E+01 1.05013E+01 0.00000E+00
 -1      3184 4.82850E+01 1.05013E+01 0.00000E+00
 -1      3185 4.75350E+01 1.18003E+01 0.00000E+00
 -1      3186 5.27850E+01 1.05013E+01 0.00000E+00
 -1      3187 5.12850E+01 1.05013E+01 0.00000E+00
 -1      3188 5.05350E+01 1.18003E+01 0.00000E+00
 -1      3189 5.63070E+01 1.09445E+01 0.00000E+00
 -1      3190 5.48070E+01 1.09445E+01 0.00000E+00
 -1      3191 5.78070E+01 1.09445E+01 0.00000E+00
 -1      3192 6.17850E+01 1.03949E+01 0.00000E+00
 -1      3193 6.02850E+01 1.03949E+01 0.00000E+00
 -1      3194 6.47850E+01 1.03949E+01 0.00000E+00
 -1      3195 6.32850E+01 1.03949E+01 0.00000E+00
 -1      3196 6.25350E+01 1.15876E+01 0.00000E+00
 -1      3197 6.77850E+01 1.03949E+01 0.00000E+00
 -1      3198 6.62850E+01 1.03949E+01 0.00000E+00
 -1      3199 6.55350E+01 1.15876E+01 0.00000E+00
 -1      3200 7.07850E+01 1.03949E+01 0.00000E+00
 -1      3201 6.92850E+01 1.03949E+01 0.00000E+00
 -1      3202 6.85350E+01 1.15876E+01 0.00000E+00
 -1      3203 7.37850E+01 1.03949E+01 0.00000E+00
 -1      3204 7.22850E+01 1.03949E+01 0.00000E+00
 -1      3205 7.15350E+01 1.15876E+01 0.00000E+00
 -1      3206 7.67850E+01 1.03949E+01 0.00000E+00
 -1      3207 7.52850E+01 1.03949E+01 0.00000E+00
 -1      3208 7.45350E+01 1.15876E+01 0.00000E+00
 -1      3209 7.97850E+01 1.03949E+01 0.00000E+00
 -1      3210 7.82850E+01 1.03949E+01 0.00000E+00
 -1      3211 7.75350E+01 1.15876E+01 0.00000E+00
 -1      3212 8.27850E+01 1.03949E+01 0.00000E+00
 -1      3213 8.12850E+01 1.03949E+01 0.00000E+00
 -1      3214 8.05350E+01 1.15876E+01 0.00000E+00
 -1      3215 8.57850E+01 1.03949E+01 0.00000E+00
 -1      3216 8.42850E+01 1.03949E+01 0.00000E+00
 -1      3217 8.35350E+01 1.15876E+01 0.00000E+00
 -1      3218 8.87850E+01 1.03949E+01 0.00000E+00
 -1      3219 8.72850E+01 1.03949E+01 0.00000E+00
 -1      3220 8.65350E+01 1.15876E+01 0.00000E+00
 -1      3221 9.17850E+01 1.03949E+01 0.00000E+00
 -1      3222 9.02850E+01 1.03949E+01 0.00000E+00
 -1      3223 8.95350E+01 1.15876E+01 0.00000E+00
 -1      3224 9.47850E+01 1.03949E+01 0.00000E+00
 -1      3225 9.32850E+01 1.03949E+01 0.00000E+00
 -1      3226 9.25350E+01 1.15876E+01 0.00000E+00
 -1      3227 9.77850E+01 1.03949E+01 0.00000E+00
 -1      3228 9.62850E+01 1.03949E+01 0.00000E+00
 -1      3229 9.55350E+01 1.15876E+01 0.00000E+00
 -1      3230 1.00785E+02 1.03949E+01 0.00000E+00
 -1      3231 9.92850E+01 1.03949E+01 0.00000E+00
 -1      3232 9.85350E+01 1.15876E+01 0.00000E+00
 -1      3233 1.03785E+02 1.03949E+01 0.00000E+00
 -1      3234 1.02285E+02 1.03949E+01 0.00000E+00
 -1      3235 1.01535E+02 1.15876E+01 0.00000E+00
 -1      3236 1.06785E+02 1.03949E+01 0.00000E+00
 -1      3237 1.05285E+02 1.03949E+01 0.00000E+00
 -1      3238 1.04535E+02 1.15876E+01 0.00000E+00
 -1      3239 1.09785E+02 1.03949E+01 0.00000E+00
 -1      3240 1.08285E+02 1.03949E+01 0.00000E+00
 -1      3241 1.07535E+02 1.15876E+01 0.00000E+00
 -1      3242 1.12785E+02 1.03949E+01 0.00000E+00
 -1      3243 1.11285E+02 1.03949E+01 0.00000E+00
 -1      3244 1.10535E+02 1.15876E+01 0.00000E+00
 -1      3245 1.15785E+02 1.03949E+01 0.00000E+00
 -1      3246 1.14285E+02 1.03949E+01 0.00000E+00
 -1      3247 1.13535E+02 1.15876E+01 0.00000E+00
 -1      3248 1.18785E+02 1.03949E+01 0.00000E+00
 -1      3249 1.17285E+02 1.03949E+01 0.00000E+00
 -1      3250 1.16535E+02 1.15876E+01 0.00000E+00
 -1      3251 1.21785E+02 1.03949E+01 0.00000E+00
 -1      3252 1.20285E+02 1.03949E+01 0.00000E+00
 -1      3253 1.19535E+02 1.15876E+01 0.00000E+00
 -1      3254 1.24785E+02 1.03949E+01 0.00000E+00
 -1      3255 1.23285E+02 1.03949E+01 0.00000E+00
 -1      3256 1.22535E+02 1.15876E+01 0.00000E+00
 -1      3257 1.27785E+02 1.03949E+01 0.00000E+00
 -1      3258 1.26285E+02 1.03949E+01 0.00000E+00
 -1      3259 1.25535E+02 1.15876E+01 0.00000E+00
 -1      3260 1.30785E+02 1.03949E+01 0.00000E+00
 -1      3261 1.29285E+02 1.03949E+01 0.00000E+00
 -1      3262 1.28535E+02 1.15876E+01 0.00000E+00
 -1      3263 1.33785E+02 1.03949E+01 0.00000E+00
 -1      3264 1.32285E+02 1.03949E+01 0.00000E+00
 -1      3265 1.31535E+02 1.15876E+01 0.00000E+00
 -1      3266 1.38309E+02 2.86750E+01 0.00000E+00
 -1      3267 1.38309E+02 2.72250E+01 0.00000E+00
 -1      3268 1.38309E+02 3.45625E+01 0.00000E+00
 -1      3269 1.38309E+02 3.30875E+01 0.00000E+00
 -1      3270 1.38309E+02 2.57500E+01 0.00000E+00
 -1      3271 1.38309E+02 2.42750E+01 0.00000E+00
 -1      3272 1.37010E+02 2.64750E+01 0.00000E+00
 -1      3273 6.71753E+01 1.73114E+01 0.00000E+00
 -1      3274 6.83073E+01 1.85055E+01 0.00000E+00
 -1      3275 4.96300E+01 1.55834E+01 0.00000E+00
 -1      3276 5.09364E+01 1.49770E+01 0.00000E+00
 -1      3277 7.04471E+01 2.24256E+01 0.00000E+00
 -1      3278 7.10143E+01 2.37735E+01 0.00000E+00
 -1      3279 6.87721E+01 3.60631E+01 0.00000E+00
 -1      3280 6.79949E+01 3.70532E+01 0.00000E+00
 -1      3281 7.12268E+01 2.56220E+01 0.00000E+00
 -1      3282 7.12463E+01 2.71351E+01 0.00000E+00
 -1      3283 1.38309E+02 3.16187E+01 0.00000E+00
 -1      3284 1.38309E+02 3.01437E+01 0.00000E+00
 -1      3285 1.37010E+02 2.94188E+01 0.00000E+00
 -1      3286 1.37010E+02 3.23563E+01 0.00000E+00
 -1      3287 3.77850E+01 1.05013E+01 0.00000E+00
 -1      3288 3.62850E+01 1.05013E+01 0.00000E+00
 -1      3289 3.55350E+01 1.18003E+01 0.00000E+00
 -1      3290 3.85350E+01 1.18003E+01 0.00000E+00
 -1      3291 4.41032E+01 2.61970E+01 0.00000E+00
 -1      3292 4.45066E+01 2.50327E+01 0.00000E+00
 -1      3293 4.38512E+01 2.41522E+01 0.00000E+00
 -1      3294 6.92029E+01 3.84254E+01 0.00000E+00
 -1      3295 7.07029E+01 3.84254E+01 0.00000E+00
 -1      3296 7.11279E+01 2.87358E+01 0.00000E+00
 -1      3297 7.08562E+01 2.98875E+01 0.00000E+00
 -1      3298 7.16694E+01 3.07195E+01 0.00000E+00
 -1      3299 6.79420E+01 3.82357E+01 0.00000E+00
 -1      3300 1.97850E+01 1.05013E+01 0.00000E+00
 -1      3301 1.82850E+01 1.05013E+01 0.00000E+00
 -1      3302 2.05350E+01 1.18003E+01 0.00000E+00
 -1      3303 6.21233E+01 1.46904E+01 0.00000E+00
 -1      3304 6.31948E+01 1.54738E+01 0.00000E+00
 -1      3305 1.39407E+02 1.25250E+01 0.00000E+00
 -1      3306 1.59000E+01 3.83090E+01 0.00000E+00
 -1      3307 1.74000E+01 3.83090E+01 0.00000E+00
 -1      3308 1.81500E+01 3.70100E+01 0.00000E+00
 -1      3309 6.94350E+01 2.00516E+01 0.00000E+00
 -1      3310 6.99411E+01 2.12386E+01 0.00000E+00
 -1      3311 7.12468E+01 2.14824E+01 0.00000E+00
 -1      3312 6.46142E+01 1.57695E+01 0.00000E+00
 -1      3313 6.60336E+01 1.60651E+01 0.00000E+00
 -1      3314 6.47824E+01 1.44150E+01 0.00000E+00
 -1      3315 6.98430E+01 3.33773E+01 0.00000E+00
 -1      3316 6.94312E+01 3.46658E+01 0.00000E+00
 -1      3317 7.09859E+01 3.31597E+01 0.00000E+00
 -1      3318 1.26488E+01 1.02017E+01 0.00000E+00
 -1      3319 1.20772E+01 1.14631E+01 0.00000E+00
 -1      3320 1.33763E+01 1.22006E+01 0.00000E+00
 -1      3321 1.41488E+01 1.02017E+01 0.00000E+00
 -1      3322 5.34524E+01 1.58783E+01 0.00000E+00
 -1      3323 5.39254E+01 1.48974E+01 0.00000E+00
 -1      3324 5.25041E+01 1.53856E+01 0.00000E+00
 -1      3325 5.33213E+01 1.41046E+01 0.00000E+00
 -1      3326 5.43303E+01 1.39866E+01 0.00000E+00
 -1      3327 1.16910E+01 2.12875E+01 0.00000E+00
 -1      3328 1.16910E+01 2.27625E+01 0.00000E+00
 -1      3329 1.00862E+01 3.73269E+01 0.00000E+00
 -1      3330 4.40801E+01 3.32660E+01 0.00000E+00
 -1      3331 4.34672E+01 3.16079E+01 0.00000E+00
 -1      3332 1.16910E+01 2.42375E+01 0.00000E+00
 -1      3333 1.16910E+01 2.57125E+01 0.00000E+00
 -1      3334 1.29900E+01 2.35000E+01 0.00000E+00
 -1      3335 4.33159E+01 3.43434E+01 0.00000E+00
 -1      3336 4.58815E+01 3.76355E+01 0.00000E+00
 -1      3337 4.23135E+01 3.64231E+01 0.00000E+00
 -1      3338 4.73815E+01 3.76355E+01 0.00000E+00
 -1      3339 1.38309E+02 1.69188E+01 0.00000E+00
 -1      3340 1.38309E+02 1.54563E+01 0.00000E+00
 -1      3341 1.16910E+01 3.30594E+01 0.00000E+00
 -1      3342 1.16910E+01 3.45281E+01 0.00000E+00
 -1      3343 4.32320E+01 2.70801E+01 0.00000E+00
 -1      3344 4.25766E+01 2.61997E+01 0.00000E+00
 -1      3345 4.23608E+01 2.79633E+01 0.00000E+00
 -1      3346 1.69669E+01 1.03515E+01 0.00000E+00
 -1      3347 1.54669E+01 1.03515E+01 0.00000E+00
 -1      3348 1.50806E+01 1.13509E+01 0.00000E+00
 -1      3349 1.77169E+01 1.16505E+01 0.00000E+00
 -1      3350 2.95350E+01 1.18003E+01 0.00000E+00
 -1      3351 2.87850E+01 1.05013E+01 0.00000E+00
 -1      3352 2.72850E+01 1.05013E+01 0.00000E+00
 -1      3353 5.85570E+01 1.21372E+01 0.00000E+00
 -1      3354 6.97910E+01 1.74470E+01 0.00000E+00
 -1      3355 6.96130E+01 1.87493E+01 0.00000E+00
 -1      3356 7.09187E+01 1.89932E+01 0.00000E+00
 -1      3357 1.34953E+02 1.06756E+01 0.00000E+00
 -1      3358 1.34203E+02 1.18683E+01 0.00000E+00
 -1      3359 1.36120E+02 1.09563E+01 0.00000E+00
 -1      3360 7.19653E+01 2.45179E+01 0.00000E+00
 -1      3361 7.29163E+01 2.52624E+01 0.00000E+00
 -1      3362 7.27038E+01 2.34139E+01 0.00000E+00
 -1      3363 1.38309E+02 1.98687E+01 0.00000E+00
 -1      3364 1.38309E+02 1.83937E+01 0.00000E+00
 -1      3365 1.37010E+02 1.76625E+01 0.00000E+00
 -1      3366 2.57850E+01 1.05013E+01 0.00000E+00
 -1      3367 2.42850E+01 1.05013E+01 0.00000E+00
 -1      3368 2.65350E+01 1.18003E+01 0.00000E+00
 -1      3369 6.99149E+01 3.58455E+01 0.00000E+00
 -1      3370 6.73435E+01 1.59569E+01 0.00000E+00
 -1      3371 1.38309E+02 2.28094E+01 0.00000E+00
 -1      3372 1.38309E+02 2.13344E+01 0.00000E+00
 -1      3373 1.37010E+02 2.06031E+01 0.00000E+00
 -1      3374 1.37010E+02 2.35344E+01 0.00000E+00
 -1      3375 4.20233E+01 3.20897E+01 0.00000E+00
 -1      3376 4.28356E+01 3.08471E+01 0.00000E+00
 -1      3377 4.22039E+01 3.00863E+01 0.00000E+00
 -1      3378 4.65201E+01 1.85977E+01 0.00000E+00
 -1      3379 4.63820E+01 1.74127E+01 0.00000E+00
 -1      3380 4.54347E+01 1.87611E+01 0.00000E+00
 -1      3381 7.20595E+01 2.79671E+01 0.00000E+00
 -1      3382 4.45358E+01 2.13528E+01 0.00000E+00
 -1      3383 4.46009E+01 2.03733E+01 0.00000E+00
 -1      3384 7.14529E+01 3.71264E+01 0.00000E+00
 -1      3385 6.15553E+01 1.37371E+01 0.00000E+00
 -1      3386 1.38274E+02 1.38503E+01 0.00000E+00
 -1      3387 1.38073E+02 1.16503E+01 0.00000E+00
 -1      3388 1.36905E+02 1.13696E+01 0.00000E+00
 -1      3389 1.36975E+02 1.45815E+01 0.00000E+00
 -1      3390 1.45576E+01 3.82548E+01 0.00000E+00
 -1      3391 1.53076E+01 3.69558E+01 0.00000E+00
 -1      3392 1.32152E+01 3.82007E+01 0.00000E+00
 -1      3393 1.16910E+01 1.54063E+01 0.00000E+00
 -1      3394 1.16910E+01 1.68750E+01 0.00000E+00
 -1      3395 1.29900E+01 1.46687E+01 0.00000E+00
 -1      3396 1.14286E+01 3.73811E+01 0.00000E+00
 -1      3397 5.49026E+01 1.29403E+01 0.00000E+00
 -1      3398 2.35350E+01 1.18003E+01 0.00000E+00
 -1      3399 1.16910E+01 1.83469E+01 0.00000E+00
 -1      3400 1.16910E+01 1.98156E+01 0.00000E+00
 -1      3401 1.29900E+01 2.05531E+01 0.00000E+00
 -1      3402 1.29900E+01 1.76094E+01 0.00000E+00
 -1      3403 4.39419E+01 2.18943E+01 0.00000E+00
 -1      3404 1.16910E+01 3.01219E+01 0.00000E+00
 -1      3405 1.16910E+01 3.15906E+01 0.00000E+00
 -1      3406 1.29900E+01 3.23250E+01 0.00000E+00
 -1      3407 5.19227E+01 1.47259E+01 0.00000E+00
 -1      3408 5.23351E+01 1.43557E+01 0.00000E+00
 -1      3409 5.27399E+01 1.34450E+01 0.00000E+00
 -1      3410 5.07674E+01 1.39472E+01 0.00000E+00
 -1      3411 1.37758E+02 3.64912E+01 0.00000E+00
 -1      3412 1.38123E+02 3.54142E+01 0.00000E+00
 -1      3413 1.36824E+02 3.46768E+01 0.00000E+00
 -1      3414 1.36451E+02 3.63802E+01 0.00000E+00
 -1      3415 7.44000E+01 3.57110E+01 0.00000E+00
 -1      3416 7.59000E+01 3.57110E+01 0.00000E+00
 -1      3417 5.94303E+01 1.29494E+01 0.00000E+00
 -1      3418 2.34000E+01 3.57110E+01 0.00000E+00
 -1      3419 2.49000E+01 3.57110E+01 0.00000E+00
 -1      3420 2.64000E+01 3.57110E+01 0.00000E+00
 -1      3421 2.79000E+01 3.57110E+01 0.00000E+00
 -1      3422 2.56500E+01 3.44120E+01 0.00000E+00
 -1      3423 2.94000E+01 3.57110E+01 0.00000E+00
 -1      3424 3.09000E+01 3.57110E+01 0.00000E+00
 -1      3425 2.86500E+01 3.44120E+01 0.00000E+00
 -1      3426 3.24000E+01 3.57110E+01 0.00000E+00
 -1      3427 3.39000E+01 3.57110E+01 0.00000E+00
 -1      3428 3.16500E+01 3.44120E+01 0.00000E+00
 -1      3429 3.54000E+01 3.57110E+01 0.00000E+00
 -1      3430 3.69000E+01 3.57110E+01 0.00000E+00
 -1      3431 3.46500E+01 3.44120E+01 0.00000E+00
 -1      3432 3.84000E+01 3.57110E+01 0.00000E+00
 -1      3433 3.99000E+01 3.57110E+01 0.00000E+00
 -1      3434 3.76500E+01 3.44120E+01 0.00000E+00
 -1      3435 1.34776E+01 3.53477E+01 0.00000E+00
 -1      3436 1.21786E+01 3.60821E+01 0.00000E+00
 -1      3437 4.16525E+01 3.49303E+01 0.00000E+00
 -1      3438 7.74000E+01 3.57110E+01 0.00000E+00
 -1      3439 7.89000E+01 3.57110E+01 0.00000E+00
 -1      3440 7.66500E+01 3.44120E+01 0.00000E+00
 -1      3441 8.04000E+01 3.57110E+01 0.00000E+00
 -1      3442 8.19000E+01 3.57110E+01 0.00000E+00
 -1      3443 7.96500E+01 3.44120E+01 0.00000E+00
 -1      3444 8.34000E+01 3.57110E+01 0.00000E+00
 -1      3445 8.49000E+01 3.57110E+01 0.00000E+00
 -1      3446 8.26500E+01 3.44120E+01 0.00000E+00
 -1      3447 8.64000E+01 3.57110E+01 0.00000E+00
 -1      3448 8.79000E+01 3.57110E+01 0.00000E+00
 -1      3449 8.56500E+01 3.44120E+01 0.00000E+00
 -1      3450 8.94000E+01 3.57110E+01 0.00000E+00
 -1      3451 9.09000E+01 3.57110E+01 0.00000E+00
 -1      3452 8.86500E+01 3.44120E+01 0.00000E+00
 -1      3453 9.24000E+01 3.57110E+01 0.00000E+00
 -1      3454 9.39000E+01 3.57110E+01 0.00000E+00
 -1      3455 9.16500E+01 3.44120E+01 0.00000E+00
 -1      3456 9.54000E+01 3.57110E+01 0.00000E+00
 -1      3457 9.69000E+01 3.57110E+01 0.00000E+00
 -1      3458 9.46500E+01 3.44120E+01 0.00000E+00
 -1      3459 9.84000E+01 3.57110E+01 0.00000E+00
 -1      3460 9.99000E+01 3.57110E+01 0.00000E+00
 -1      3461 9.76500E+01 3.44120E+01 0.00000E+00
 -1      3462 1.01400E+02 3.57110E+01 0.00000E+00
 -1      3463 1.02900E+02 3.57110E+01 0.00000E+00
 -1      3464 1.00650E+02 3.44120E+01 0.00000E+00
 -1      3465 1.04400E+02 3.57110E+01 0.00000E+00
 -1      3466 1.05900E+02 3.57110E+01 0.00000E+00
 -1      3467 1.03650E+02 3.44120E+01 0.00000E+00
 -1      3468 1.07400E+02 3.57110E+01 0.00000E+00
 -1      3469 1.08900E+02 3.57110E+01 0.00000E+00
 -1      3470 1.06650E+02 3.44120E+01 0.00000E+00
 -1      3471 1.10400E+02 3.57110E+01 0.00000E+00
 -1      3472 1.11900E+02 3.57110E+01 0.00000E+00
 -1      3473 1.09650E+02 3.44120E+01 0.00000E+00
 -1      3474 1.13400E+02 3.57110E+01 0.00000E+00
 -1      3475 1.14900E+02 3.57110E+01 0.00000E+00
 -1      3476 1.12650E+02 3.44120E+01 0.00000E+00
 -1      3477 1.16400E+02 3.57110E+01 0.00000E+00
 -1      3478 1.17900E+02 3.57110E+01 0.00000E+00
 -1      3479 1.15650E+02 3.44120E+01 0.00000E+00
 -1      3480 1.19400E+02 3.57110E+01 0.00000E+00
 -1      3481 1.20900E+02 3.57110E+01 0.00000E+00
 -1      3482 1.18650E+02 3.44120E+01 0.00000E+00
 -1      3483 1.22400E+02 3.57110E+01 0.00000E+00
 -1      3484 1.23900E+02 3.57110E+01 0.00000E+00
 -1      3485 1.21650E+02 3.44120E+01 0.00000E+00
 -1      3486 1.25400E+02 3.57110E+01 0.00000E+00
 -1      3487 1.26900E+02 3.57110E+01 0.00000E+00
 -1      3488 1.24650E+02 3.44120E+01 0.00000E+00
 -1      3489 1.28400E+02 3.57110E+01 0.00000E+00
 -1      3490 1.29900E+02 3.57110E+01 0.00000E+00
 -1      3491 1.27650E+02 3.44120E+01 0.00000E+00
 -1      3492 1.31400E+02 3.57110E+01 0.00000E+00
 -1      3493 1.32900E+02 3.57110E+01 0.00000E+00
 -1      3494 1.30650E+02 3.44120E+01 0.00000E+00
 -1      3495 4.27601E+01 2.44262E+01 0.00000E+00
 -1      3496 4.31635E+01 2.32619E+01 0.00000E+00
 -1      3497 4.52850E+01 1.30992E+01 0.00000E+00
 -1      3498 4.37850E+01 1.30992E+01 0.00000E+00
 -1      3499 4.22850E+01 1.30992E+01 0.00000E+00
 -1      3500 4.07850E+01 1.30992E+01 0.00000E+00
 -1      3501 4.30350E+01 1.43982E+01 0.00000E+00
 -1      3502 5.40570E+01 1.22435E+01 0.00000E+00
 -1      3503 6.66184E+01 1.31491E+01 0.00000E+00
 -1      3504 6.51184E+01 1.31491E+01 0.00000E+00
 -1      3505 6.36990E+01 1.28535E+01 0.00000E+00
 -1      3506 6.21990E+01 1.28535E+01 0.00000E+00
 -1      3507 7.22850E+01 1.28866E+01 0.00000E+00
 -1      3508 7.07850E+01 1.28866E+01 0.00000E+00
 -1      3509 7.52850E+01 1.28866E+01 0.00000E+00
 -1      3510 7.37850E+01 1.28866E+01 0.00000E+00
 -1      3511 7.30350E+01 1.41856E+01 0.00000E+00
 -1      3512 7.82850E+01 1.28866E+01 0.00000E+00
 -1      3513 7.67850E+01 1.28866E+01 0.00000E+00
 -1      3514 7.60350E+01 1.41856E+01 0.00000E+00
 -1      3515 8.12850E+01 1.28866E+01 0.00000E+00
 -1      3516 7.97850E+01 1.28866E+01 0.00000E+00
 -1      3517 7.90350E+01 1.41856E+01 0.00000E+00
 -1      3518 8.42850E+01 1.28866E+01 0.00000E+00
 -1      3519 8.27850E+01 1.28866E+01 0.00000E+00
 -1      3520 8.20350E+01 1.41856E+01 0.00000E+00
 -1      3521 8.72850E+01 1.28866E+01 0.00000E+00
 -1      3522 8.57850E+01 1.28866E+01 0.00000E+00
 -1      3523 8.50350E+01 1.41856E+01 0.00000E+00
 -1      3524 9.02850E+01 1.28866E+01 0.00000E+00
 -1      3525 8.87850E+01 1.28866E+01 0.00000E+00
 -1      3526 8.80350E+01 1.41856E+01 0.00000E+00
 -1      3527 9.32850E+01 1.28866E+01 0.00000E+00
 -1      3528 9.17850E+01 1.28866E+01 0.00000E+00
 -1      3529 9.10350E+01 1.41856E+01 0.00000E+00
 -1      3530 9.62850E+01 1.28866E+01 0.00000E+00
 -1      3531 9.47850E+01 1.28866E+01 0.00000E+00
 -1      3532 9.40350E+01 1.41856E+01 0.00000E+00
 -1      3533 9.92850E+01 1.28866E+01 0.00000E+00
 -1      3534 9.77850E+01 1.28866E+01 0.00000E+00
 -1      3535 9.70350E+01 1.41856E+01 0.00000E+00
 -1      3536 1.02285E+02 1.28866E+01 0.00000E+00
 -1      3537 1.00785E+02 1.28866E+01 0.00000E+00
 -1      3538 1.00035E+02 1.41856E+01 0.00000E+00
 -1      3539 1.05285E+02 1.28866E+01 0.00000E+00
 -1      3540 1.03785E+02 1.28866E+01 0.00000E+00
 -1      3541 1.03035E+02 1.41856E+01 0.00000E+00
 -1      3542 1.08285E+02 1.28866E+01 0.00000E+00
 -1      3543 1.06785E+02 1.28866E+01 0.00000E+00
 -1      3544 1.06035E+02 1.41856E+01 0.00000E+00
 -1      3545 1.11285E+02 1.28866E+01 0.00000E+00
 -1      3546 1.09785E+02 1.28866E+01 0.00000E+00
 -1      3547 1.09035E+02 1.41856E+01 0.00000E+00
 -1      3548 1.14285E+02 1.28866E+01 0.00000E+00
 -1      3549 1.12785E+02 1.28866E+01 0.00000E+00
 -1      3550 1.12035E+02 1.41856E+01 0.00000E+00
 -1      3551 1.17285E+02 1.28866E+01 0.00000E+00
 -1      3552 1.15785E+02 1.28866E+01 0.00000E+00
 -1      3553 1.15035E+02 1.41856E+01 0.00000E+00
 -1      3554 1.20285E+02 1.28866E+01 0.00000E+00
 -1      3555 1.18785E+02 1.28866E+01 0.00000E+00
 -1      3556 1.18035E+02 1.41856E+01 0.00000E+00
 -1      3557 1.23285E+02 1.28866E+01 0.00000E+00
 -1      3558 1.21785E+02 1.28866E+01 0.00000E+00
 -1      3559 1.21035E+02 1.41856E+01 0.00000E+00
 -1      3560 1.26285E+02 1.28866E+01 0.00000E+00
 -1      3561 1.24785E+02 1.28866E+01 0.00000E+00
 -1      3562 1.24035E+02 1.41856E+01 0.00000E+00
 -1      3563 1.29285E+02 1.28866E+01 0.00000E+00
 -1      3564 1.27785E+02 1.28866E+01 0.00000E+00
 -1      3565 1.27035E+02 1.41856E+01 0.00000E+00
 -1      3566 1.32285E+02 1.28866E+01 0.00000E+00
 -1      3567 1.30785E+02 1.28866E+01 0.00000E+00
 -1      3568 1.30035E+02 1.41856E+01 0.00000E+00
 -1      3569 4.83688E+01 1.61465E+01 0.00000E+00
 -1      3570 4.85199E+01 1.47615E+01 0.00000E+00
 -1      3571 1.35711E+02 2.72125E+01 0.00000E+00
 -1      3572 1.35711E+02 2.57375E+01 0.00000E+00
 -1      3573 7.21683E+01 3.28275E+01 0.00000E+00
 -1      3574 7.17565E+01 3.41160E+01 0.00000E+00
 -1      3575 4.73631E+01 1.62870E+01 0.00000E+00
 -1      3576 7.21120E+01 3.57291E+01 0.00000E+00
 -1      3577 4.34911E+01 1.96157E+01 0.00000E+00
 -1      3578 4.44629E+01 1.91884E+01 0.00000E+00
 -1      3579 4.43248E+01 1.80035E+01 0.00000E+00
 -1      3580 6.94517E+01 1.30179E+01 0.00000E+00
 -1      3581 6.79517E+01 1.30179E+01 0.00000E+00
 -1      3582 6.75351E+01 1.45794E+01 0.00000E+00
 -1      3583 7.02017E+01 1.43169E+01 0.00000E+00
 -1      3584 3.32850E+01 1.30992E+01 0.00000E+00
 -1      3585 3.17850E+01 1.30992E+01 0.00000E+00
 -1      3586 6.86768E+01 1.58257E+01 0.00000E+00
 -1      3587 7.28845E+01 3.03983E+01 0.00000E+00
 -1      3588 7.26128E+01 3.15500E+01 0.00000E+00
 -1      3589 2.12850E+01 1.30992E+01 0.00000E+00
 -1      3590 1.97850E+01 1.30992E+01 0.00000E+00
 -1      3591 1.16910E+01 2.71844E+01 0.00000E+00
 -1      3592 1.16910E+01 2.86531E+01 0.00000E+00
 -1      3593 1.29900E+01 2.93875E+01 0.00000E+00
 -1      3594 2.04000E+01 3.57110E+01 0.00000E+00
 -1      3595 2.19000E+01 3.57110E+01 0.00000E+00
 -1      3596 2.26500E+01 3.44120E+01 0.00000E+00
 -1      3597 4.28507E+01 2.21683E+01 0.00000E+00
 -1      3598 7.20138E+01 2.04541E+01 0.00000E+00
 -1      3599 7.25199E+01 2.16410E+01 0.00000E+00
 -1      3600 4.85853E+01 3.86449E+01 0.00000E+00
 -1      3601 7.33081E+01 2.72547E+01 0.00000E+00
 -1      3602 7.31897E+01 2.88554E+01 0.00000E+00
 -1      3603 1.74000E+01 3.57110E+01 0.00000E+00
 -1      3604 1.89000E+01 3.57110E+01 0.00000E+00
 -1      3605 1.96500E+01 3.44120E+01 0.00000E+00
 -1      3606 2.42850E+01 1.30992E+01 0.00000E+00
 -1      3607 2.27850E+01 1.30992E+01 0.00000E+00
 -1      3608 2.20350E+01 1.43982E+01 0.00000E+00
 -1      3609 4.09025E+01 3.36313E+01 0.00000E+00
 -1      3610 4.62777E+01 1.64504E+01 0.00000E+00
 -1      3611 1.46944E+01 1.23503E+01 0.00000E+00
 -1      3612 1.43081E+01 1.33498E+01 0.00000E+00
 -1      3613 1.60125E+01 1.25001E+01 0.00000E+00
 -1      3614 4.15706E+01 2.23450E+01 0.00000E+00
 -1      3615 4.23490E+01 2.09774E+01 0.00000E+00
 -1      3616 4.15485E+01 2.92059E+01 0.00000E+00
 -1      3617 4.08931E+01 2.83254E+01 0.00000E+00
 -1      3618 4.07363E+01 3.04485E+01 0.00000E+00
 -1      3619 4.49158E+01 1.59872E+01 0.00000E+00
 -1      3620 4.58968E+01 1.48615E+01 0.00000E+00
 -1      3621 1.43324E+01 3.38479E+01 0.00000E+00
 -1      3622 1.48200E+01 3.54019E+01 0.00000E+00
 -1      3623 1.61624E+01 3.54560E+01 0.00000E+00
 -1      3624 1.43324E+01 3.23792E+01 0.00000E+00
 -1      3625 1.56748E+01 3.24333E+01 0.00000E+00
 -1      3626 1.43324E+01 3.09104E+01 0.00000E+00
 -1      3627 1.42890E+01 1.98172E+01 0.00000E+00
 -1      3628 1.42890E+01 2.12891E+01 0.00000E+00
 -1      3629 4.10176E+01 2.61925E+01 0.00000E+00
 -1      3630 4.18888E+01 2.53093E+01 0.00000E+00
 -1      3631 4.12011E+01 2.44190E+01 0.00000E+00
 -1      3632 7.42379E+01 2.13571E+01 0.00000E+00
 -1      3633 7.34709E+01 2.23855E+01 0.00000E+00
 -1      3634 7.44219E+01 2.31299E+01 0.00000E+00
 -1      3635 1.34022E+02 3.59901E+01 0.00000E+00
 -1      3636 1.35329E+02 3.61011E+01 0.00000E+00
 -1      3637 1.35515E+02 3.52494E+01 0.00000E+00
 -1      3638 1.33272E+02 3.46911E+01 0.00000E+00
 -1      3639 1.85578E+01 1.28746E+01 0.00000E+00
 -1      3640 1.72397E+01 1.27248E+01 0.00000E+00
 -1      3641 1.68534E+01 1.37242E+01 0.00000E+00
 -1      3642 1.93078E+01 1.41736E+01 0.00000E+00
 -1      3643 4.00350E+01 1.43982E+01 0.00000E+00
 -1      3644 3.92850E+01 1.30992E+01 0.00000E+00
 -1      3645 3.77850E+01 1.30992E+01 0.00000E+00
 -1      3646 5.09080E+01 1.29993E+01 0.00000E+00
 -1      3647 4.94080E+01 1.29993E+01 0.00000E+00
 -1      3648 3.47850E+01 1.30992E+01 0.00000E+00
 -1      3649 3.40350E+01 1.43982E+01 0.00000E+00
 -1      3650 3.62850E+01 1.30992E+01 0.00000E+00
 -1      3651 7.00101E+01 1.56944E+01 0.00000E+00
 -1      3652 7.13158E+01 1.59382E+01 0.00000E+00
 -1      3653 7.21918E+01 1.91517E+01 0.00000E+00
 -1      3654 3.10350E+01 1.43982E+01 0.00000E+00
 -1      3655 3.02850E+01 1.30992E+01 0.00000E+00
 -1      3656 2.87850E+01 1.30992E+01 0.00000E+00
 -1      3657 4.66468E+01 1.35625E+01 0.00000E+00
 -1      3658 4.79080E+01 1.29993E+01 0.00000E+00
 -1      3659 1.33453E+02 1.31673E+01 0.00000E+00
 -1      3660 1.32703E+02 1.44663E+01 0.00000E+00
 -1      3661 1.34620E+02 1.34480E+01 0.00000E+00
 -1      3662 7.32944E+01 3.53969E+01 0.00000E+00
 -1      3663 1.36155E+02 1.25623E+01 0.00000E+00
 -1      3664 1.69124E+01 3.41570E+01 0.00000E+00
 -1      3665 7.47851E+01 2.50466E+01 0.00000E+00
 -1      3666 7.40466E+01 2.61507E+01 0.00000E+00
 -1      3667 7.51769E+01 2.70390E+01 0.00000E+00
 -1      3668 2.72850E+01 1.30992E+01 0.00000E+00
 -1      3669 2.57850E+01 1.30992E+01 0.00000E+00
 -1      3670 2.80350E+01 1.43982E+01 0.00000E+00
 -1      3671 1.35711E+02 2.42719E+01 0.00000E+00
 -1      3672 1.35711E+02 2.28062E+01 0.00000E+00
 -1      3673 1.34412E+02 2.50094E+01 0.00000E+00
 -1      3674 1.35702E+02 3.43976E+01 0.00000E+00
 -1      3675 7.33834E+01 3.25063E+01 0.00000E+00
 -1      3676 1.34394E+02 3.35015E+01 0.00000E+00
 -1      3677 1.35702E+02 3.29289E+01 0.00000E+00
 -1      3678 1.35702E+02 3.14601E+01 0.00000E+00
 -1      3679 1.35711E+02 1.84000E+01 0.00000E+00
 -1      3680 1.35711E+02 1.69250E+01 0.00000E+00
 -1      3681 1.55880E+01 2.20281E+01 0.00000E+00
 -1      3682 1.42890E+01 2.27641E+01 0.00000E+00
 -1      3683 1.42890E+01 2.42391E+01 0.00000E+00
 -1      3684 7.40444E+01 3.40979E+01 0.00000E+00
 -1      3685 1.35706E+02 3.00707E+01 0.00000E+00
 -1      3686 1.35706E+02 2.86019E+01 0.00000E+00
 -1      3687 1.34407E+02 2.78644E+01 0.00000E+00
 -1      3688 1.34398E+02 3.06433E+01 0.00000E+00
 -1      3689 1.29900E+01 2.64469E+01 0.00000E+00
 -1      3690 4.22109E+01 1.97924E+01 0.00000E+00
 -1      3691 4.20729E+01 1.86075E+01 0.00000E+00
 -1      3692 4.09308E+01 1.99691E+01 0.00000E+00
 -1      3693 7.41332E+01 2.96859E+01 0.00000E+00
 -1      3694 1.43081E+01 1.48185E+01 0.00000E+00
 -1      3695 2.50350E+01 1.43982E+01 0.00000E+00
 -1      3696 1.34141E+02 1.62048E+01 0.00000E+00
 -1      3697 1.35440E+02 1.54673E+01 0.00000E+00
 -1      3698 4.06994E+01 2.32281E+01 0.00000E+00
 -1      3699 4.01976E+01 2.20372E+01 0.00000E+00
 -1      3700 3.98281E+01 2.41113E+01 0.00000E+00
 -1      3701 4.38703E+01 1.69953E+01 0.00000E+00
 -1      3702 4.34895E+01 1.54064E+01 0.00000E+00
 -1      3703 4.19895E+01 1.54064E+01 0.00000E+00
 -1      3704 4.28985E+01 1.74226E+01 0.00000E+00
 -1      3705 5.18943E+01 1.27482E+01 0.00000E+00
 -1      3706 5.28806E+01 1.24971E+01 0.00000E+00
 -1      3707 2.79000E+01 3.31130E+01 0.00000E+00
 -1      3708 2.94000E+01 3.31130E+01 0.00000E+00
 -1      3709 3.09000E+01 3.31130E+01 0.00000E+00
 -1      3710 3.24000E+01 3.31130E+01 0.00000E+00
 -1      3711 3.01500E+01 3.18140E+01 0.00000E+00
 -1      3712 3.39000E+01 3.31130E+01 0.00000E+00
 -1      3713 3.54000E+01 3.31130E+01 0.00000E+00
 -1      3714 3.31500E+01 3.18140E+01 0.00000E+00
 -1      3715 3.69000E+01 3.31130E+01 0.00000E+00
 -1      3716 3.84000E+01 3.31130E+01 0.00000E+00
 -1      3717 3.61500E+01 3.18140E+01 0.00000E+00
 -1      3718 1.42890E+01 1.83453E+01 0.00000E+00
 -1      3719 1.55880E+01 1.90812E+01 0.00000E+00
 -1      3720 1.42890E+01 1.68734E+01 0.00000E+00
 -1      3721 4.01525E+01 3.23323E+01 0.00000E+00
 -1      3722 7.59000E+01 3.31130E+01 0.00000E+00
 -1      3723 7.74000E+01 3.31130E+01 0.00000E+00
 -1      3724 1.33272E+02 3.32224E+01 0.00000E+00
 -1      3725 7.89000E+01 3.31130E+01 0.00000E+00
 -1      3726 8.04000E+01 3.31130E+01 0.00000E+00
 -1      3727 7.81500E+01 3.18140E+01 0.00000E+00
 -1      3728 8.19000E+01 3.31130E+01 0.00000E+00
 -1      3729 8.34000E+01 3.31130E+01 0.00000E+00
 -1      3730 8.11500E+01 3.18140E+01 0.00000E+00
 -1      3731 8.49000E+01 3.31130E+01 0.00000E+00
 -1      3732 8.64000E+01 3.31130E+01 0.00000E+00
 -1      3733 8.41500E+01 3.18140E+01 0.00000E+00
 -1      3734 8.79000E+01 3.31130E+01 0.00000E+00
 -1      3735 8.94000E+01 3.31130E+01 0.00000E+00
 -1      3736 8.71500E+01 3.18140E+01 0.00000E+00
 -1      3737 9.09000E+01 3.31130E+01 0.00000E+00
 -1      3738 9.24000E+01 3.31130E+01 0.00000E+00
 -1      3739 9.01500E+01 3.18140E+01 0.00000E+00
 -1      3740 9.39000E+01 3.31130E+01 0.00000E+00
 -1      3741 9.54000E+01 3.31130E+01 0.00000E+00
 -1      3742 9.31500E+01 3.18140E+01 0.00000E+00
 -1      3743 9.69000E+01 3.31130E+01 0.00000E+00
 -1      3744 9.84000E+01 3.31130E+01 0.00000E+00
 -1      3745 9.61500E+01 3.18140E+01 0.00000E+00
 -1      3746 9.99000E+01 3.31130E+01 0.00000E+00
 -1      3747 1.01400E+02 3.31130E+01 0.00000E+00
 -1      3748 9.91500E+01 3.18140E+01 0.00000E+00
 -1      3749 1.02900E+02 3.31130E+01 0.00000E+00
 -1      3750 1.04400E+02 3.31130E+01 0.00000E+00
 -1      3751 1.02150E+02 3.18140E+01 0.00000E+00
 -1      3752 1.05900E+02 3.31130E+01 0.00000E+00
 -1      3753 1.07400E+02 3.31130E+01 0.00000E+00
 -1      3754 1.05150E+02 3.18140E+01 0.00000E+00
 -1      3755 1.08900E+02 3.31130E+01 0.00000E+00
 -1      3756 1.10400E+02 3.31130E+01 0.00000E+00
 -1      3757 1.08150E+02 3.18140E+01 0.00000E+00
 -1      3758 1.11900E+02 3.31130E+01 0.00000E+00
 -1      3759 1.13400E+02 3.31130E+01 0.00000E+00
 -1      3760 1.11150E+02 3.18140E+01 0.00000E+00
 -1      3761 1.14900E+02 3.31130E+01 0.00000E+00
 -1      3762 1.16400E+02 3.31130E+01 0.00000E+00
 -1      3763 1.14150E+02 3.18140E+01 0.00000E+00
 -1      3764 1.17900E+02 3.31130E+01 0.00000E+00
 -1      3765 1.19400E+02 3.31130E+01 0.00000E+00
 -1      3766 1.17150E+02 3.18140E+01 0.00000E+00
 -1      3767 1.20900E+02 3.31130E+01 0.00000E+00
 -1      3768 1.22400E+02 3.31130E+01 0.00000E+00
 -1      3769 1.20150E+02 3.18140E+01 0.00000E+00
 -1      3770 1.23900E+02 3.31130E+01 0.00000E+00
 -1      3771 1.25400E+02 3.31130E+01 0.00000E+00
 -1      3772 1.23150E+02 3.18140E+01 0.00000E+00
 -1      3773 1.26900E+02 3.31130E+01 0.00000E+00
 -1      3774 1.28400E+02 3.31130E+01 0.00000E+00
 -1      3775 1.26150E+02 3.18140E+01 0.00000E+00
 -1      3776 1.29900E+02 3.31130E+01 0.00000E+00
 -1      3777 1.31400E+02 3.31130E+01 0.00000E+00
 -1      3778 1.29150E+02 3.18140E+01 0.00000E+00
 -1      3779 2.27850E+01 1.56973E+01 0.00000E+00
 -1      3780 2.12850E+01 1.56973E+01 0.00000E+00
 -1      3781 2.19000E+01 3.31130E+01 0.00000E+00
 -1      3782 2.34000E+01 3.31130E+01 0.00000E+00
 -1      3783 7.26836E+01 1.76422E+01 0.00000E+00
 -1      3784 7.37787E+01 1.91030E+01 0.00000E+00
 -1      3785 7.44028E+01 1.58895E+01 0.00000E+00
 -1      3786 7.29028E+01 1.58895E+01 0.00000E+00
 -1      3787 8.27850E+01 1.54846E+01 0.00000E+00
 -1      3788 8.12850E+01 1.54846E+01 0.00000E+00
 -1      3789 8.57850E+01 1.54846E+01 0.00000E+00
 -1      3790 8.42850E+01 1.54846E+01 0.00000E+00
 -1      3791 8.35350E+01 1.67836E+01 0.00000E+00
 -1      3792 8.87850E+01 1.54846E+01 0.00000E+00
 -1      3793 8.72850E+01 1.54846E+01 0.00000E+00
 -1      3794 8.65350E+01 1.67836E+01 0.00000E+00
 -1      3795 9.17850E+01 1.54846E+01 0.00000E+00
 -1      3796 9.02850E+01 1.54846E+01 0.00000E+00
 -1      3797 8.95350E+01 1.67836E+01 0.00000E+00
 -1      3798 9.47850E+01 1.54846E+01 0.00000E+00
 -1      3799 9.32850E+01 1.54846E+01 0.00000E+00
 -1      3800 9.25350E+01 1.67836E+01 0.00000E+00
 -1      3801 9.77850E+01 1.54846E+01 0.00000E+00
 -1      3802 9.62850E+01 1.54846E+01 0.00000E+00
 -1      3803 9.55350E+01 1.67836E+01 0.00000E+00
 -1      3804 1.00785E+02 1.54846E+01 0.00000E+00
 -1      3805 9.92850E+01 1.54846E+01 0.00000E+00
 -1      3806 9.85350E+01 1.67836E+01 0.00000E+00
 -1      3807 1.03785E+02 1.54846E+01 0.00000E+00
 -1      3808 1.02285E+02 1.54846E+01 0.00000E+00
 -1      3809 1.01535E+02 1.67836E+01 0.00000E+00
 -1      3810 1.06785E+02 1.54846E+01 0.00000E+00
 -1      3811 1.05285E+02 1.54846E+01 0.00000E+00
 -1      3812 1.04535E+02 1.67836E+01 0.00000E+00
 -1      3813 1.09785E+02 1.54846E+01 0.00000E+00
 -1      3814 1.08285E+02 1.54846E+01 0.00000E+00
 -1      3815 1.07535E+02 1.67836E+01 0.00000E+00
 -1      3816 1.12785E+02 1.54846E+01 0.00000E+00
 -1      3817 1.11285E+02 1.54846E+01 0.00000E+00
 -1      3818 1.10535E+02 1.67836E+01 0.00000E+00
 -1      3819 1.15785E+02 1.54846E+01 0.00000E+00
 -1      3820 1.14285E+02 1.54846E+01 0.00000E+00
 -1      3821 1.13535E+02 1.67836E+01 0.00000E+00
 -1      3822 1.18785E+02 1.54846E+01 0.00000E+00
 -1      3823 1.17285E+02 1.54846E+01 0.00000E+00
 -1      3824 1.16535E+02 1.67836E+01 0.00000E+00
 -1      3825 1.21785E+02 1.54846E+01 0.00000E+00
 -1      3826 1.20285E+02 1.54846E+01 0.00000E+00
 -1      3827 1.19535E+02 1.67836E+01 0.00000E+00
 -1      3828 1.24785E+02 1.54846E+01 0.00000E+00
 -1      3829 1.23285E+02 1.54846E+01 0.00000E+00
 -1      3830 1.22535E+02 1.67836E+01 0.00000E+00
 -1      3831 1.27785E+02 1.54846E+01 0.00000E+00
 -1      3832 1.26285E+02 1.54846E+01 0.00000E+00
 -1      3833 1.25535E+02 1.67836E+01 0.00000E+00
 -1      3834 1.30785E+02 1.54846E+01 0.00000E+00
 -1      3835 1.29285E+02 1.54846E+01 0.00000E+00
 -1      3836 1.28535E+02 1.67836E+01 0.00000E+00
 -1      3837 1.33047E+02 1.59850E+01 0.00000E+00
 -1      3838 1.31879E+02 1.57044E+01 0.00000E+00
 -1      3839 1.31129E+02 1.70034E+01 0.00000E+00
 -1      3840 1.33318E+02 1.74428E+01 0.00000E+00
 -1      3841 7.44890E+01 3.28204E+01 0.00000E+00
 -1      3842 1.35711E+02 2.13359E+01 0.00000E+00
 -1      3843 1.35711E+02 1.98703E+01 0.00000E+00
 -1      3844 1.34412E+02 1.91328E+01 0.00000E+00
 -1      3845 1.34412E+02 2.20734E+01 0.00000E+00
 -1      3846 1.43324E+01 2.79729E+01 0.00000E+00
 -1      3847 1.43324E+01 2.94417E+01 0.00000E+00
 -1      3848 1.56748E+01 2.94958E+01 0.00000E+00
 -1      3849 1.35405E+02 1.38613E+01 0.00000E+00
 -1      3850 2.57850E+01 1.56973E+01 0.00000E+00
 -1      3851 2.42850E+01 1.56973E+01 0.00000E+00
 -1      3852 2.35350E+01 1.69963E+01 0.00000E+00
 -1      3853 7.52914E+01 2.91134E+01 0.00000E+00
 -1      3854 7.49862E+01 3.06563E+01 0.00000E+00
 -1      3855 1.43107E+01 2.53700E+01 0.00000E+00
 -1      3856 1.43107E+01 2.68419E+01 0.00000E+00
 -1      3857 1.56531E+01 2.68961E+01 0.00000E+00
 -1      3858 1.56097E+01 2.46341E+01 0.00000E+00
 -1      3859 1.56071E+01 1.55545E+01 0.00000E+00
 -1      3860 7.97850E+01 1.54846E+01 0.00000E+00
 -1      3861 7.82850E+01 1.54846E+01 0.00000E+00
 -1      3862 8.05350E+01 1.67836E+01 0.00000E+00
 -1      3863 7.70939E+01 1.56871E+01 0.00000E+00
 -1      3864 7.55939E+01 1.56871E+01 0.00000E+00
 -1      3865 7.54617E+01 1.73910E+01 0.00000E+00
 -1      3866 7.78439E+01 1.69861E+01 0.00000E+00
 -1      3867 1.69124E+01 3.26883E+01 0.00000E+00
 -1      3868 1.81500E+01 3.29432E+01 0.00000E+00
 -1      3869 1.69124E+01 3.12195E+01 0.00000E+00
 -1      3870 1.92750E+01 3.30281E+01 0.00000E+00
 -1      3871 2.07750E+01 3.30281E+01 0.00000E+00
 -1      3872 2.15250E+01 3.17291E+01 0.00000E+00
 -1      3873 1.92750E+01 3.15594E+01 0.00000E+00
 -1      3874 2.49000E+01 3.31130E+01 0.00000E+00
 -1      3875 2.64000E+01 3.31130E+01 0.00000E+00
 -1      3876 2.41500E+01 3.18140E+01 0.00000E+00
 -1      3877 4.16184E+01 1.75994E+01 0.00000E+00
 -1      3878 3.93931E+01 2.86777E+01 0.00000E+00
 -1      3879 4.02054E+01 2.74351E+01 0.00000E+00
 -1      3880 3.95176E+01 2.65448E+01 0.00000E+00
 -1      3881 2.71500E+01 3.18140E+01 0.00000E+00
 -1      3882 1.68870E+01 1.83453E+01 0.00000E+00
 -1      3883 1.68870E+01 1.98172E+01 0.00000E+00
 -1      3884 1.32522E+02 3.19234E+01 0.00000E+00
 -1      3885 3.54000E+01 3.05150E+01 0.00000E+00
 -1      3886 3.69000E+01 3.05150E+01 0.00000E+00
 -1      3887 1.81860E+01 2.05562E+01 0.00000E+00
 -1      3888 1.68870E+01 2.12922E+01 0.00000E+00
 -1      3889 1.68870E+01 2.27672E+01 0.00000E+00
 -1      3890 4.10539E+01 1.65029E+01 0.00000E+00
 -1      3891 4.05994E+01 1.54947E+01 0.00000E+00
 -1      3892 3.90994E+01 1.54947E+01 0.00000E+00
 -1      3893 4.02283E+01 1.76877E+01 0.00000E+00
 -1      3894 3.81154E+01 2.93920E+01 0.00000E+00
 -1      3895 3.88654E+01 3.06910E+01 0.00000E+00
 -1      3896 7.63192E+01 2.29898E+01 0.00000E+00
 -1      3897 7.55521E+01 2.40182E+01 0.00000E+00
 -1      3898 7.66824E+01 2.49065E+01 0.00000E+00
 -1      3899 3.70350E+01 1.43982E+01 0.00000E+00
 -1      3900 3.89726E+01 2.17000E+01 0.00000E+00
 -1      3901 3.98438E+01 2.08169E+01 0.00000E+00
 -1      3902 3.47850E+01 1.56973E+01 0.00000E+00
 -1      3903 3.32850E+01 1.56973E+01 0.00000E+00
 -1      3904 1.33318E+02 2.03834E+01 0.00000E+00
 -1      3905 1.33318E+02 1.89131E+01 0.00000E+00
 -1      3906 1.32223E+02 1.86934E+01 0.00000E+00
 -1      3907 7.50957E+01 1.86192E+01 0.00000E+00
 -1      3908 7.46039E+01 2.01288E+01 0.00000E+00
 -1      3909 7.55549E+01 2.08733E+01 0.00000E+00
 -1      3910 7.62868E+01 1.84168E+01 0.00000E+00
 -1      3911 3.17850E+01 1.56973E+01 0.00000E+00
 -1      3912 3.02850E+01 1.56973E+01 0.00000E+00
 -1      3913 3.25350E+01 1.69963E+01 0.00000E+00
 -1      3914 2.87850E+01 1.56973E+01 0.00000E+00
 -1      3915 2.72850E+01 1.56973E+01 0.00000E+00
 -1      3916 2.95350E+01 1.69963E+01 0.00000E+00
 -1      3917 1.33113E+02 2.57422E+01 0.00000E+00
 -1      3918 1.33113E+02 2.42766E+01 0.00000E+00
 -1      3919 1.68343E+01 1.57791E+01 0.00000E+00
 -1      3920 3.97058E+01 1.96320E+01 0.00000E+00
 -1      3921 2.65350E+01 1.69963E+01 0.00000E+00
 -1      3922 7.67684E+01 2.69053E+01 0.00000E+00
 -1      3923 7.60299E+01 2.80093E+01 0.00000E+00
 -1      3924 7.68829E+01 2.89797E+01 0.00000E+00
 -1      3925 1.33104E+02 2.85211E+01 0.00000E+00
 -1      3926 1.33108E+02 2.71316E+01 0.00000E+00
 -1      3927 1.31809E+02 2.63988E+01 0.00000E+00
 -1      3928 7.52390E+01 3.15214E+01 0.00000E+00
 -1      3929 2.05350E+01 1.69963E+01 0.00000E+00
 -1      3930 1.97850E+01 1.56973E+01 0.00000E+00
 -1      3931 7.63972E+01 3.09489E+01 0.00000E+00
 -1      3932 1.85579E+01 1.54726E+01 0.00000E+00
 -1      3933 1.73115E+01 1.73028E+01 0.00000E+00
 -1      3934 1.86105E+01 1.80388E+01 0.00000E+00
 -1      3935 1.32526E+02 3.05339E+01 0.00000E+00
 -1      3936 3.39000E+01 3.05150E+01 0.00000E+00
 -1      3937 3.46500E+01 2.92160E+01 0.00000E+00
 -1      3938 3.24000E+01 3.05150E+01 0.00000E+00
 -1      3939 2.01105E+01 1.80387E+01 0.00000E+00
 -1      3940 1.96860E+01 1.90812E+01 0.00000E+00
 -1      3941 2.16105E+01 1.80387E+01 0.00000E+00
 -1      3942 3.95208E+01 3.15715E+01 0.00000E+00
 -1      3943 7.78972E+01 3.09489E+01 0.00000E+00
 -1      3944 7.93972E+01 3.09489E+01 0.00000E+00
 -1      3945 7.76444E+01 3.00837E+01 0.00000E+00
 -1      3946 8.08972E+01 3.09489E+01 0.00000E+00
 -1      3947 8.23972E+01 3.09489E+01 0.00000E+00
 -1      3948 8.06444E+01 3.00837E+01 0.00000E+00
 -1      3949 8.38972E+01 3.09489E+01 0.00000E+00
 -1      3950 8.53972E+01 3.09489E+01 0.00000E+00
 -1      3951 8.36444E+01 3.00837E+01 0.00000E+00
 -1      3952 8.68972E+01 3.09489E+01 0.00000E+00
 -1      3953 8.83972E+01 3.09489E+01 0.00000E+00
 -1      3954 8.66444E+01 3.00837E+01 0.00000E+00
 -1      3955 8.98972E+01 3.09489E+01 0.00000E+00
 -1      3956 9.13972E+01 3.09489E+01 0.00000E+00
 -1      3957 8.96444E+01 3.00837E+01 0.00000E+00
 -1      3958 9.28972E+01 3.09489E+01 0.00000E+00
 -1      3959 9.43972E+01 3.09489E+01 0.00000E+00
 -1      3960 9.26444E+01 3.00837E+01 0.00000E+00
 -1      3961 9.58972E+01 3.09489E+01 0.00000E+00
 -1      3962 9.73972E+01 3.09489E+01 0.00000E+00
 -1      3963 9.56444E+01 3.00837E+01 0.00000E+00
 -1      3964 9.88972E+01 3.09489E+01 0.00000E+00
 -1      3965 1.00397E+02 3.09489E+01 0.00000E+00
 -1      3966 9.86444E+01 3.00837E+01 0.00000E+00
 -1      3967 1.01897E+02 3.09489E+01 0.00000E+00
 -1      3968 1.03397E+02 3.09489E+01 0.00000E+00
 -1      3969 1.01644E+02 3.00837E+01 0.00000E+00
 -1      3970 1.04897E+02 3.09489E+01 0.00000E+00
 -1      3971 1.06397E+02 3.09489E+01 0.00000E+00
 -1      3972 1.04644E+02 3.00837E+01 0.00000E+00
 -1      3973 1.07897E+02 3.09489E+01 0.00000E+00
 -1      3974 1.09397E+02 3.09489E+01 0.00000E+00
 -1      3975 1.07644E+02 3.00837E+01 0.00000E+00
 -1      3976 1.10897E+02 3.09489E+01 0.00000E+00
 -1      3977 1.12397E+02 3.09489E+01 0.00000E+00
 -1      3978 1.10644E+02 3.00837E+01 0.00000E+00
 -1      3979 1.13897E+02 3.09489E+01 0.00000E+00
 -1      3980 1.15397E+02 3.09489E+01 0.00000E+00
 -1      3981 1.13644E+02 3.00837E+01 0.00000E+00
 -1      3982 1.16897E+02 3.09489E+01 0.00000E+00
 -1      3983 1.18397E+02 3.09489E+01 0.00000E+00
 -1      3984 1.16644E+02 3.00837E+01 0.00000E+00
 -1      3985 1.19897E+02 3.09489E+01 0.00000E+00
 -1      3986 1.21397E+02 3.09489E+01 0.00000E+00
 -1      3987 1.19644E+02 3.00837E+01 0.00000E+00
 -1      3988 1.22897E+02 3.09489E+01 0.00000E+00
 -1      3989 1.24397E+02 3.09489E+01 0.00000E+00
 -1      3990 1.22644E+02 3.00837E+01 0.00000E+00
 -1      3991 1.25897E+02 3.09489E+01 0.00000E+00
 -1      3992 1.27397E+02 3.09489E+01 0.00000E+00
 -1      3993 1.25644E+02 3.00837E+01 0.00000E+00
 -1      3994 1.28897E+02 3.09489E+01 0.00000E+00
 -1      3995 1.30397E+02 3.09489E+01 0.00000E+00
 -1      3996 1.28644E+02 3.00837E+01 0.00000E+00
 -1      3997 3.80040E+01 2.26423E+01 0.00000E+00
 -1      3998 3.76502E+01 2.14220E+01 0.00000E+00
 -1      3999 8.72850E+01 1.80826E+01 0.00000E+00
 -1      4000 8.57850E+01 1.80826E+01 0.00000E+00
 -1      4001 1.69124E+01 2.97508E+01 0.00000E+00
 -1      4002 1.81500E+01 3.00058E+01 0.00000E+00
 -1      4003 1.69124E+01 2.82820E+01 0.00000E+00
 -1      4004 1.33215E+02 2.30651E+01 0.00000E+00
 -1      4005 1.33215E+02 2.15948E+01 0.00000E+00
 -1      4006 1.32121E+02 2.13751E+01 0.00000E+00
 -1      4007 1.31916E+02 2.37980E+01 0.00000E+00
 -1      4008 8.42850E+01 1.80826E+01 0.00000E+00
 -1      4009 8.27850E+01 1.80826E+01 0.00000E+00
 -1      4010 8.50350E+01 1.93816E+01 0.00000E+00
 -1      4011 9.32850E+01 1.80826E+01 0.00000E+00
 -1      4012 9.17850E+01 1.80826E+01 0.00000E+00
 -1      4013 9.62850E+01 1.80826E+01 0.00000E+00
 -1      4014 9.47850E+01 1.80826E+01 0.00000E+00
 -1      4015 9.40350E+01 1.93816E+01 0.00000E+00
 -1      4016 9.92850E+01 1.80826E+01 0.00000E+00
 -1      4017 9.77850E+01 1.80826E+01 0.00000E+00
 -1      4018 9.70350E+01 1.93816E+01 0.00000E+00
 -1      4019 1.02285E+02 1.80826E+01 0.00000E+00
 -1      4020 1.00785E+02 1.80826E+01 0.00000E+00
 -1      4021 1.00035E+02 1.93816E+01 0.00000E+00
 -1      4022 1.05285E+02 1.80826E+01 0.00000E+00
 -1      4023 1.03785E+02 1.80826E+01 0.00000E+00
 -1      4024 1.03035E+02 1.93816E+01 0.00000E+00
 -1      4025 1.08285E+02 1.80826E+01 0.00000E+00
 -1      4026 1.06785E+02 1.80826E+01 0.00000E+00
 -1      4027 1.06035E+02 1.93816E+01 0.00000E+00
 -1      4028 1.11285E+02 1.80826E+01 0.00000E+00
 -1      4029 1.09785E+02 1.80826E+01 0.00000E+00
 -1      4030 1.09035E+02 1.93816E+01 0.00000E+00
 -1      4031 1.14285E+02 1.80826E+01 0.00000E+00
 -1      4032 1.12785E+02 1.80826E+01 0.00000E+00
 -1      4033 1.12035E+02 1.93816E+01 0.00000E+00
 -1      4034 1.17285E+02 1.80826E+01 0.00000E+00
 -1      4035 1.15785E+02 1.80826E+01 0.00000E+00
 -1      4036 1.15035E+02 1.93816E+01 0.00000E+00
 -1      4037 1.20285E+02 1.80826E+01 0.00000E+00
 -1      4038 1.18785E+02 1.80826E+01 0.00000E+00
 -1      4039 1.18035E+02 1.93816E+01 0.00000E+00
 -1      4040 1.23285E+02 1.80826E+01 0.00000E+00
 -1      4041 1.21785E+02 1.80826E+01 0.00000E+00
 -1      4042 1.21035E+02 1.93816E+01 0.00000E+00
 -1      4043 1.26285E+02 1.80826E+01 0.00000E+00
 -1      4044 1.24785E+02 1.80826E+01 0.00000E+00
 -1      4045 1.24035E+02 1.93816E+01 0.00000E+00
 -1      4046 1.29285E+02 1.80826E+01 0.00000E+00
 -1      4047 1.27785E+02 1.80826E+01 0.00000E+00
 -1      4048 1.27035E+02 1.93816E+01 0.00000E+00
 -1      4049 1.31301E+02 1.84979E+01 0.00000E+00
 -1      4050 1.30207E+02 1.82782E+01 0.00000E+00
 -1      4051 1.29457E+02 1.95772E+01 0.00000E+00
 -1      4052 1.31301E+02 1.99682E+01 0.00000E+00
 -1      4053 9.02850E+01 1.80826E+01 0.00000E+00
 -1      4054 8.87850E+01 1.80826E+01 0.00000E+00
 -1      4055 8.80350E+01 1.93816E+01 0.00000E+00
 -1      4056 9.10350E+01 1.93816E+01 0.00000E+00
 -1      4057 3.74277E+01 2.85017E+01 0.00000E+00
 -1      4058 2.34000E+01 3.05150E+01 0.00000E+00
 -1      4059 2.49000E+01 3.05150E+01 0.00000E+00
 -1      4060 2.94000E+01 3.05150E+01 0.00000E+00
 -1      4061 3.09000E+01 3.05150E+01 0.00000E+00
 -1      4062 3.16500E+01 2.92160E+01 0.00000E+00
 -1      4063 2.72850E+01 1.82952E+01 0.00000E+00
 -1      4064 2.57850E+01 1.82952E+01 0.00000E+00
 -1      4065 3.90074E+01 2.50241E+01 0.00000E+00
 -1      4066 3.85057E+01 2.38332E+01 0.00000E+00
 -1      4067 3.71833E+01 2.35552E+01 0.00000E+00
 -1      4068 8.12850E+01 1.80826E+01 0.00000E+00
 -1      4069 7.97850E+01 1.80826E+01 0.00000E+00
 -1      4070 8.20350E+01 1.93816E+01 0.00000E+00
 -1      4071 3.80543E+01 1.93832E+01 0.00000E+00
 -1      4072 3.91413E+01 1.85355E+01 0.00000E+00
 -1      4073 3.85769E+01 1.74390E+01 0.00000E+00
 -1      4074 2.64000E+01 3.05150E+01 0.00000E+00
 -1      4075 2.79000E+01 3.05150E+01 0.00000E+00
 -1      4076 2.86500E+01 2.92160E+01 0.00000E+00
 -1      4077 3.65124E+01 1.63425E+01 0.00000E+00
 -1      4078 3.57624E+01 1.76415E+01 0.00000E+00
 -1      4079 2.44477E+01 1.81670E+01 0.00000E+00
 -1      4080 2.29477E+01 1.81670E+01 0.00000E+00
 -1      4081 2.25232E+01 1.92095E+01 0.00000E+00
 -1      4082 2.51977E+01 1.94660E+01 0.00000E+00
 -1      4083 6.03913E+01 1.24713E+01 0.00000E+00
 -1      4084 2.56500E+01 2.92160E+01 0.00000E+00
 -1      4085 1.96860E+01 2.05562E+01 0.00000E+00
 -1      4086 1.31227E+02 2.98011E+01 0.00000E+00
 -1      4087 1.82077E+01 2.31622E+01 0.00000E+00
 -1      4088 1.69087E+01 2.38982E+01 0.00000E+00
 -1      4089 1.69304E+01 2.50292E+01 0.00000E+00
 -1      4090 7.66852E+01 2.17616E+01 0.00000E+00
 -1      4091 7.78154E+01 2.26499E+01 0.00000E+00
 -1      4092 7.70511E+01 2.05333E+01 0.00000E+00
 -1      4093 3.61716E+01 1.91810E+01 0.00000E+00
 -1      4094 3.44442E+01 1.85357E+01 0.00000E+00
 -1      4095 7.83829E+01 2.89797E+01 0.00000E+00
 -1      4096 7.83025E+01 2.48485E+01 0.00000E+00
 -1      4097 7.75355E+01 2.58769E+01 0.00000E+00
 -1      4098 7.83885E+01 2.68473E+01 0.00000E+00
 -1      4099 3.29442E+01 1.85357E+01 0.00000E+00
 -1      4100 3.14442E+01 1.85357E+01 0.00000E+00
 -1      4101 3.33534E+01 2.00753E+01 0.00000E+00
 -1      4102 3.61549E+01 2.77250E+01 0.00000E+00
 -1      4103 3.74326E+01 2.70107E+01 0.00000E+00
 -1      4104 1.92750E+01 2.86219E+01 0.00000E+00
 -1      4105 1.92750E+01 3.00906E+01 0.00000E+00
 -1      4106 2.04000E+01 3.01755E+01 0.00000E+00
 -1      4107 1.30571E+02 2.42943E+01 0.00000E+00
 -1      4108 1.30673E+02 2.30829E+01 0.00000E+00
 -1      4109 3.01146E+01 1.84155E+01 0.00000E+00
 -1      4110 2.86146E+01 1.84155E+01 0.00000E+00
 -1      4111 2.78646E+01 1.97145E+01 0.00000E+00
 -1      4112 3.05238E+01 1.99550E+01 0.00000E+00
 -1      4113 3.81952E+01 2.62667E+01 0.00000E+00
 -1      4114 3.80124E+01 1.63425E+01 0.00000E+00
 -1      4115 3.31549E+01 2.77250E+01 0.00000E+00
 -1      4116 3.46549E+01 2.77250E+01 0.00000E+00
 -1      4117 3.46599E+01 2.62340E+01 0.00000E+00
 -1      4118 3.57675E+01 2.12198E+01 0.00000E+00
 -1      4119 3.67361E+01 2.02775E+01 0.00000E+00
 -1      4120 1.30562E+02 2.70732E+01 0.00000E+00
 -1      4121 1.30566E+02 2.56837E+01 0.00000E+00
 -1      4122 1.29323E+02 2.49686E+01 0.00000E+00
 -1      4123 1.69106E+01 2.60901E+01 0.00000E+00
 -1      4124 1.69323E+01 2.72211E+01 0.00000E+00
 -1      4125 1.81699E+01 2.74761E+01 0.00000E+00
 -1      4126 1.82096E+01 2.53542E+01 0.00000E+00
 -1      4127 2.13375E+01 3.03028E+01 0.00000E+00
 -1      4128 2.24625E+01 3.03877E+01 0.00000E+00
 -1      4129 2.32125E+01 2.90887E+01 0.00000E+00
 -1      4130 2.13375E+01 2.88341E+01 0.00000E+00
 -1      4131 7.91357E+01 2.79135E+01 0.00000E+00
 -1      4132 7.98972E+01 2.90175E+01 0.00000E+00
 -1      4133 8.13972E+01 2.90175E+01 0.00000E+00
 -1      4134 7.99028E+01 2.68851E+01 0.00000E+00
 -1      4135 8.28972E+01 2.90175E+01 0.00000E+00
 -1      4136 8.43972E+01 2.90175E+01 0.00000E+00
 -1      4137 8.21500E+01 2.79513E+01 0.00000E+00
 -1      4138 8.58972E+01 2.90175E+01 0.00000E+00
 -1      4139 8.73972E+01 2.90175E+01 0.00000E+00
 -1      4140 8.51500E+01 2.79513E+01 0.00000E+00
 -1      4141 8.88972E+01 2.90175E+01 0.00000E+00
 -1      4142 9.03972E+01 2.90175E+01 0.00000E+00
 -1      4143 8.81500E+01 2.79513E+01 0.00000E+00
 -1      4144 9.18972E+01 2.90175E+01 0.00000E+00
 -1      4145 9.33972E+01 2.90175E+01 0.00000E+00
 -1      4146 9.11500E+01 2.79513E+01 0.00000E+00
 -1      4147 9.48972E+01 2.90175E+01 0.00000E+00
 -1      4148 9.63972E+01 2.90175E+01 0.00000E+00
 -1      4149 9.41500E+01 2.79513E+01 0.00000E+00
 -1      4150 9.78972E+01 2.90175E+01 0.00000E+00
 -1      4151 9.93972E+01 2.90175E+01 0.00000E+00
 -1      4152 9.71500E+01 2.79513E+01 0.00000E+00
 -1      4153 1.00897E+02 2.90175E+01 0.00000E+00
 -1      4154 1.02397E+02 2.90175E+01 0.00000E+00
 -1      4155 1.00150E+02 2.79513E+01 0.00000E+00
 -1      4156 1.03897E+02 2.90175E+01 0.00000E+00
 -1      4157 1.05397E+02 2.90175E+01 0.00000E+00
 -1      4158 1.03150E+02 2.79513E+01 0.00000E+00
 -1      4159 1.06897E+02 2.90175E+01 0.00000E+00
 -1      4160 1.08397E+02 2.90175E+01 0.00000E+00
 -1      4161 1.06150E+02 2.79513E+01 0.00000E+00
 -1      4162 1.09897E+02 2.90175E+01 0.00000E+00
 -1      4163 1.11397E+02 2.90175E+01 0.00000E+00
 -1      4164 1.09150E+02 2.79513E+01 0.00000E+00
 -1      4165 1.12897E+02 2.90175E+01 0.00000E+00
 -1      4166 1.14397E+02 2.90175E+01 0.00000E+00
 -1      4167 1.12150E+02 2.79513E+01 0.00000E+00
 -1      4168 1.15897E+02 2.90175E+01 0.00000E+00
 -1      4169 1.17397E+02 2.90175E+01 0.00000E+00
 -1      4170 1.15150E+02 2.79513E+01 0.00000E+00
 -1      4171 1.18897E+02 2.90175E+01 0.00000E+00
 -1      4172 1.20397E+02 2.90175E+01 0.00000E+00
 -1      4173 1.18150E+02 2.79513E+01 0.00000E+00
 -1      4174 1.21897E+02 2.90175E+01 0.00000E+00
 -1      4175 1.23397E+02 2.90175E+01 0.00000E+00
 -1      4176 1.21150E+02 2.79513E+01 0.00000E+00
 -1      4177 1.24897E+02 2.90175E+01 0.00000E+00
 -1      4178 1.26397E+02 2.90175E+01 0.00000E+00
 -1      4179 1.24150E+02 2.79513E+01 0.00000E+00
 -1      4180 7.90350E+01 1.93817E+01 0.00000E+00
 -1      4181 7.82850E+01 1.80827E+01 0.00000E+00
 -1      4182 2.79000E+01 2.79170E+01 0.00000E+00
 -1      4183 2.94000E+01 2.79170E+01 0.00000E+00
 -1      4184 7.70939E+01 1.82851E+01 0.00000E+00
 -1      4185 8.57850E+01 2.06806E+01 0.00000E+00
 -1      4186 8.42850E+01 2.06806E+01 0.00000E+00
 -1      4187 1.00785E+02 2.06806E+01 0.00000E+00
 -1      4188 9.92850E+01 2.06806E+01 0.00000E+00
 -1      4189 9.77850E+01 2.06806E+01 0.00000E+00
 -1      4190 9.62850E+01 2.06806E+01 0.00000E+00
 -1      4191 9.85350E+01 2.19796E+01 0.00000E+00
 -1      4192 9.47850E+01 2.06806E+01 0.00000E+00
 -1      4193 9.32850E+01 2.06806E+01 0.00000E+00
 -1      4194 9.55350E+01 2.19796E+01 0.00000E+00
 -1      4195 1.03785E+02 2.06806E+01 0.00000E+00
 -1      4196 1.02285E+02 2.06806E+01 0.00000E+00
 -1      4197 1.01535E+02 2.19796E+01 0.00000E+00
 -1      4198 1.06785E+02 2.06806E+01 0.00000E+00
 -1      4199 1.05285E+02 2.06806E+01 0.00000E+00
 -1      4200 1.04535E+02 2.19796E+01 0.00000E+00
 -1      4201 1.09785E+02 2.06806E+01 0.00000E+00
 -1      4202 1.08285E+02 2.06806E+01 0.00000E+00
 -1      4203 1.07535E+02 2.19796E+01 0.00000E+00
 -1      4204 1.12785E+02 2.06806E+01 0.00000E+00
 -1      4205 1.11285E+02 2.06806E+01 0.00000E+00
 -1      4206 1.10535E+02 2.19796E+01 0.00000E+00
 -1      4207 1.15785E+02 2.06806E+01 0.00000E+00
 -1      4208 1.14285E+02 2.06806E+01 0.00000E+00
 -1      4209 1.13535E+02 2.19796E+01 0.00000E+00
 -1      4210 1.18785E+02 2.06806E+01 0.00000E+00
 -1      4211 1.17285E+02 2.06806E+01 0.00000E+00
 -1      4212 1.16535E+02 2.19796E+01 0.00000E+00
 -1      4213 1.21785E+02 2.06806E+01 0.00000E+00
 -1      4214 1.20285E+02 2.06806E+01 0.00000E+00
 -1      4215 1.19535E+02 2.19796E+01 0.00000E+00
 -1      4216 1.24785E+02 2.06806E+01 0.00000E+00
 -1      4217 1.23285E+02 2.06806E+01 0.00000E+00
 -1      4218 1.22535E+02 2.19796E+01 0.00000E+00
 -1      4219 1.27785E+02 2.06806E+01 0.00000E+00
 -1      4220 1.26285E+02 2.06806E+01 0.00000E+00
 -1      4221 1.25535E+02 2.19796E+01 0.00000E+00
 -1      4222 3.69224E+01 2.54900E+01 0.00000E+00
 -1      4223 3.52095E+01 2.26027E+01 0.00000E+00
 -1      4224 3.42954E+01 2.14582E+01 0.00000E+00
 -1      4225 3.05275E+01 2.78210E+01 0.00000E+00
 -1      4226 3.20275E+01 2.78210E+01 0.00000E+00
 -1      4227 3.20324E+01 2.63300E+01 0.00000E+00
 -1      4228 2.97775E+01 2.65220E+01 0.00000E+00
 -1      4229 3.63168E+01 2.46418E+01 0.00000E+00
 -1      4230 3.58151E+01 2.34509E+01 0.00000E+00
 -1      4231 3.43431E+01 2.36893E+01 0.00000E+00
 -1      4232 3.55543E+01 2.53858E+01 0.00000E+00
 -1      4233 8.27850E+01 2.06806E+01 0.00000E+00
 -1      4234 8.12850E+01 2.06806E+01 0.00000E+00
 -1      4235 8.35350E+01 2.19796E+01 0.00000E+00
 -1      4236 1.30936E+02 2.21312E+01 0.00000E+00
 -1      4237 1.31038E+02 2.09198E+01 0.00000E+00
 -1      4238 1.30116E+02 2.07243E+01 0.00000E+00
 -1      4239 1.29591E+02 2.26276E+01 0.00000E+00
 -1      4240 2.49000E+01 2.79170E+01 0.00000E+00
 -1      4241 2.64000E+01 2.79170E+01 0.00000E+00
 -1      4242 2.71500E+01 2.66180E+01 0.00000E+00
 -1      4243 2.13467E+01 2.07449E+01 0.00000E+00
 -1      4244 1.98468E+01 2.22199E+01 0.00000E+00
 -1      4245 1.92949E+01 2.75609E+01 0.00000E+00
 -1      4246 2.04199E+01 2.76458E+01 0.00000E+00
 -1      4247 1.93147E+01 2.65000E+01 0.00000E+00
 -1      4248 1.98685E+01 2.33509E+01 0.00000E+00
 -1      4249 7.86685E+01 2.36203E+01 0.00000E+00
 -1      4250 7.95215E+01 2.45906E+01 0.00000E+00
 -1      4251 7.90344E+01 2.23920E+01 0.00000E+00
 -1      4252 3.27954E+01 2.14582E+01 0.00000E+00
 -1      4253 1.27894E+02 2.87847E+01 0.00000E+00
 -1      4254 1.29394E+02 2.87847E+01 0.00000E+00
 -1      4255 7.67280E+01 1.95134E+01 0.00000E+00
 -1      4256 8.72850E+01 2.06806E+01 0.00000E+00
 -1      4257 8.65350E+01 2.19796E+01 0.00000E+00
 -1      4258 8.87850E+01 2.06806E+01 0.00000E+00
 -1      4259 9.25350E+01 2.19796E+01 0.00000E+00
 -1      4260 9.17850E+01 2.06806E+01 0.00000E+00
 -1      4261 9.02850E+01 2.06806E+01 0.00000E+00
 -1      4262 2.84124E+01 2.10683E+01 0.00000E+00
 -1      4263 2.70828E+01 2.09481E+01 0.00000E+00
 -1      4264 3.40543E+01 2.53858E+01 0.00000E+00
 -1      4265 8.01082E+01 2.17006E+01 0.00000E+00
 -1      4266 7.93582E+01 2.04016E+01 0.00000E+00
 -1      4267 1.29194E+02 2.05288E+01 0.00000E+00
 -1      4268 2.39625E+01 2.77897E+01 0.00000E+00
 -1      4269 2.47125E+01 2.64907E+01 0.00000E+00
 -1      4270 2.30250E+01 2.76624E+01 0.00000E+00
 -1      4271 2.57455E+01 2.08198E+01 0.00000E+00
 -1      4272 2.44083E+01 2.06916E+01 0.00000E+00
 -1      4273 2.62933E+01 2.21737E+01 0.00000E+00
 -1      4274 1.28022E+02 2.56590E+01 0.00000E+00
 -1      4275 1.28026E+02 2.42696E+01 0.00000E+00
 -1      4276 1.28181E+02 2.27794E+01 0.00000E+00
 -1      4277 1.28444E+02 2.18278E+01 0.00000E+00
 -1      4278 2.26840E+01 2.08732E+01 0.00000E+00
 -1      4279 1.26880E+02 2.34698E+01 0.00000E+00
 -1      4280 1.27147E+02 2.77185E+01 0.00000E+00
 -1      4281 7.78582E+01 2.04017E+01 0.00000E+00
 -1      4282 1.30975E+02 2.89360E+01 0.00000E+00
 -1      4283 8.14028E+01 2.68851E+01 0.00000E+00
 -1      4284 8.29028E+01 2.68851E+01 0.00000E+00
 -1      4285 8.06555E+01 2.58189E+01 0.00000E+00
 -1      4286 8.44028E+01 2.68851E+01 0.00000E+00
 -1      4287 8.59028E+01 2.68851E+01 0.00000E+00
 -1      4288 8.36555E+01 2.58189E+01 0.00000E+00
 -1      4289 8.74028E+01 2.68851E+01 0.00000E+00
 -1      4290 8.89028E+01 2.68851E+01 0.00000E+00
 -1      4291 8.66555E+01 2.58189E+01 0.00000E+00
 -1      4292 9.04028E+01 2.68851E+01 0.00000E+00
 -1      4293 9.19028E+01 2.68851E+01 0.00000E+00
 -1      4294 8.96555E+01 2.58189E+01 0.00000E+00
 -1      4295 9.34028E+01 2.68851E+01 0.00000E+00
 -1      4296 9.49028E+01 2.68851E+01 0.00000E+00
 -1      4297 9.26555E+01 2.58189E+01 0.00000E+00
 -1      4298 9.64028E+01 2.68851E+01 0.00000E+00
 -1      4299 9.79028E+01 2.68851E+01 0.00000E+00
 -1      4300 9.56555E+01 2.58189E+01 0.00000E+00
 -1      4301 9.94028E+01 2.68851E+01 0.00000E+00
 -1      4302 1.00903E+02 2.68851E+01 0.00000E+00
 -1      4303 9.86555E+01 2.58189E+01 0.00000E+00
 -1      4304 1.02403E+02 2.68851E+01 0.00000E+00
 -1      4305 1.03903E+02 2.68851E+01 0.00000E+00
 -1      4306 1.01656E+02 2.58189E+01 0.00000E+00
 -1      4307 1.05403E+02 2.68851E+01 0.00000E+00
 -1      4308 1.06903E+02 2.68851E+01 0.00000E+00
 -1      4309 1.04656E+02 2.58189E+01 0.00000E+00
 -1      4310 1.08403E+02 2.68851E+01 0.00000E+00
 -1      4311 1.09903E+02 2.68851E+01 0.00000E+00
 -1      4312 1.07656E+02 2.58189E+01 0.00000E+00
 -1      4313 1.11403E+02 2.68851E+01 0.00000E+00
 -1      4314 1.12903E+02 2.68851E+01 0.00000E+00
 -1      4315 1.10656E+02 2.58189E+01 0.00000E+00
 -1      4316 1.14403E+02 2.68851E+01 0.00000E+00
 -1      4317 1.15903E+02 2.68851E+01 0.00000E+00
 -1      4318 1.13656E+02 2.58189E+01 0.00000E+00
 -1      4319 1.17403E+02 2.68851E+01 0.00000E+00
 -1      4320 1.18903E+02 2.68851E+01 0.00000E+00
 -1      4321 1.16656E+02 2.58189E+01 0.00000E+00
 -1      4322 1.20403E+02 2.68851E+01 0.00000E+00
 -1      4323 1.21903E+02 2.68851E+01 0.00000E+00
 -1      4324 1.19656E+02 2.58189E+01 0.00000E+00
 -1      4325 1.23403E+02 2.68851E+01 0.00000E+00
 -1      4326 1.24903E+02 2.68851E+01 0.00000E+00
 -1      4327 1.22656E+02 2.58189E+01 0.00000E+00
 -1      4328 3.34487E+01 2.45375E+01 0.00000E+00
 -1      4329 3.28431E+01 2.36893E+01 0.00000E+00
 -1      4330 3.25543E+01 2.53858E+01 0.00000E+00
 -1      4331 2.97420E+01 2.11886E+01 0.00000E+00
 -1      4332 2.89602E+01 2.24222E+01 0.00000E+00
 -1      4333 3.10716E+01 2.13088E+01 0.00000E+00
 -1      4334 2.14877E+01 2.34696E+01 0.00000E+00
 -1      4335 1.98486E+01 2.44119E+01 0.00000E+00
 -1      4336 1.98288E+01 2.54728E+01 0.00000E+00
 -1      4337 1.01595E+02 2.38993E+01 0.00000E+00
 -1      4338 1.00095E+02 2.38993E+01 0.00000E+00
 -1      4339 8.09612E+01 2.26710E+01 0.00000E+00
 -1      4340 9.55953E+01 2.38993E+01 0.00000E+00
 -1      4341 9.40953E+01 2.38993E+01 0.00000E+00
 -1      4342 1.07595E+02 2.38993E+01 0.00000E+00
 -1      4343 1.06095E+02 2.38993E+01 0.00000E+00
 -1      4344 1.10595E+02 2.38993E+01 0.00000E+00
 -1      4345 1.09095E+02 2.38993E+01 0.00000E+00
 -1      4346 1.13595E+02 2.38993E+01 0.00000E+00
 -1      4347 1.12095E+02 2.38993E+01 0.00000E+00
 -1      4348 1.16595E+02 2.38993E+01 0.00000E+00
 -1      4349 1.15095E+02 2.38993E+01 0.00000E+00
 -1      4350 1.19595E+02 2.38993E+01 0.00000E+00
 -1      4351 1.18095E+02 2.38993E+01 0.00000E+00
 -1      4352 1.22595E+02 2.38993E+01 0.00000E+00
 -1      4353 1.21095E+02 2.38993E+01 0.00000E+00
 -1      4354 1.25380E+02 2.34698E+01 0.00000E+00
 -1      4355 8.35953E+01 2.38993E+01 0.00000E+00
 -1      4356 8.20953E+01 2.38993E+01 0.00000E+00
 -1      4357 1.29731E+02 2.82209E+01 0.00000E+00
 -1      4358 3.20136E+01 2.26918E+01 0.00000E+00
 -1      4359 2.32318E+01 2.22270E+01 0.00000E+00
 -1      4360 9.85953E+01 2.38993E+01 0.00000E+00
 -1      4361 9.70953E+01 2.38993E+01 0.00000E+00
 -1      4362 2.13574E+01 2.77731E+01 0.00000E+00
 -1      4363 2.66403E+01 2.44600E+01 0.00000E+00
 -1      4364 2.81403E+01 2.44600E+01 0.00000E+00
 -1      4365 1.04595E+02 2.38993E+01 0.00000E+00
 -1      4366 1.03095E+02 2.38993E+01 0.00000E+00
 -1      4367 2.94699E+01 2.45802E+01 0.00000E+00
 -1      4368 2.53030E+01 2.43317E+01 0.00000E+00
 -1      4369 8.10215E+01 2.45906E+01 0.00000E+00
 -1      4370 9.25953E+01 2.38993E+01 0.00000E+00
 -1      4371 3.14268E+01 2.54818E+01 0.00000E+00
 -1      4372 2.35788E+01 2.45133E+01 0.00000E+00
 -1      4373 8.95350E+01 2.19796E+01 0.00000E+00
 -1      4374 9.10953E+01 2.38993E+01 0.00000E+00
 -1      4375 8.65953E+01 2.38993E+01 0.00000E+00
 -1      4376 8.50953E+01 2.38993E+01 0.00000E+00
 -1      4377 1.25440E+02 2.53895E+01 0.00000E+00
 -1      4378 1.24095E+02 2.38993E+01 0.00000E+00
 -1      4379 3.05974E+01 2.44842E+01 0.00000E+00
 -1      4380 2.21074E+01 2.64741E+01 0.00000E+00
 -1      4381 1.26188E+02 2.64557E+01 0.00000E+00
 -1      4382 1.27685E+02 2.62229E+01 0.00000E+00
 -1      4383 8.80953E+01 2.38993E+01 0.00000E+00
 -1      4384 8.95953E+01 2.38993E+01 0.00000E+00
 -1      4385 1.28981E+02 2.69219E+01 0.00000E+00
 -1      4386 2.35589E+01 2.55743E+01 0.00000E+00
 -1      4387 3.11192E+01 2.35400E+01 0.00000E+00
 -1      4388 2.09538E+01 2.55577E+01 0.00000E+00
 -1      4389 2.26214E+01 2.54470E+01 0.00000E+00
 -3
    3C                          2113                                     1
 -1       164    8    0    1
 -2         6         7        23      1139      1302      1156
 -1       165    8    0    1
 -2         7         8       164      1140      1303      1304
 -1       166    8    0    1
 -2         8         9       165      1141      1305      1306
 -1       167    8    0    1
 -2         8       165       164      1306      1307      1303
 -1       168    8    0    1
 -2         9        10       166      1142      1308      1309
 -1       169    8    0    1
 -2         9       166       165      1309      1310      1305
 -1       170    8    0    1
 -2        10        11       167      1143      1311      1312
 -1       171    8    0    1
 -2        10       167       166      1312      1313      1308
 -1       172    8    0    1
 -2        11        12       168      1144      1314      1315
 -1       173    8    0    1
 -2        11       168       167      1315      1316      1311
 -1       174    8    0    1
 -2        12        13       169      1145      1317      1318
 -1       175    8    0    1
 -2        12       169       168      1318      1319      1314
 -1       176    8    0    1
 -2        13        14       170      1146      1320      1321
 -1       177    8    0    1
 -2        13       170       169      1321      1322      1317
 -1       178    8    0    1
 -2        14        15       171      1147      1323      1324
 -1       179    8    0    1
 -2        14       171       170      1324      1325      1320
 -1       180    8    0    1
 -2        15        16       172      1148      1326      1327
 -1       181    8    0    1
 -2        15       172       171      1327      1328      1323
 -1       182    8    0    1
 -2        16        17       173      1149      1329      1330
 -1       183    8    0    1
 -2        16       173       172      1330      1331      1326
 -1       184    8    0    1
 -2        17        18       174      1150      1332      1333
 -1       185    8    0    1
 -2        17       174       173      1333      1334      1329
 -1       186    8    0    1
 -2        18        19       175      1151      1335      1336
 -1       187    8    0    1
 -2        18       175       174      1336      1337      1332
 -1       188    8    0    1
 -2        19        20       176      1152      1338      1339
 -1       189    8    0    1
 -2        19       176       175      1339      1340      1335
 -1       190    8    0    1
 -2        20        21       177      1153      1341      1342
 -1       191    8    0    1
 -2        20       177       176      1342      1343      1338
 -1       192    8    0    1
 -2        21        22       178      1154      1344      1345
 -1       193    8    0    1
 -2        21       178       177      1345      1346      1341
 -1       194    8    0    1
 -2        22         5       179      1155      1347      1348
 -1       195    8    0    1
 -2       178        22       179      1344      1348      1349
 -1       196    8    0    1
 -2         5        72       179      1206      1350      1347
 -1       197    8    0    1
 -2        24        23       180      1157      1351      1352
 -1       198    8    0    1
 -2        25        24       181      1158      1353      1354
 -1       199    8    0    1
 -2        24       180       181      1352      1355      1353
 -1       200    8    0    1
 -2        26        25       182      1159      1356      1357
 -1       201    8    0    1
 -2        25       181       182      1354      1358      1356
 -1       202    8    0    1
 -2        27        26       183      1160      1359      1360
 -1       203    8    0    1
 -2        26       182       183      1357      1361      1359
 -1       204    8    0    1
 -2        28        27       184      1161      1362      1363
 -1       205    8    0    1
 -2        27       183       184      1360      1364      1362
 -1       206    8    0    1
 -2        29        28       185      1162      1365      1366
 -1       207    8    0    1
 -2        28       184       185      1363      1367      1365
 -1       208    8    0    1
 -2        30        29       186      1163      1368      1369
 -1       209    8    0    1
 -2        29       185       186      1366      1370      1368
 -1       210    8    0    1
 -2        31        30       187      1164      1371      1372
 -1       211    8    0    1
 -2        30       186       187      1369      1373      1371
 -1       212    8    0    1
 -2        32        31       188      1165      1374      1375
 -1       213    8    0    1
 -2        31       187       188      1372      1376      1374
 -1       214    8    0    1
 -2        33        32       189      1166      1377      1378
 -1       215    8    0    1
 -2        32       188       189      1375      1379      1377
 -1       216    8    0    1
 -2        34        33       190      1167      1380      1381
 -1       217    8    0    1
 -2        33       189       190      1378      1382      1380
 -1       218    8    0    1
 -2        35        34       191      1168      1383      1384
 -1       219    8    0    1
 -2        34       190       191      1381      1385      1383
 -1       220    8    0    1
 -2        36        35       192      1169      1386      1387
 -1       221    8    0    1
 -2        35       191       192      1384      1388      1386
 -1       222    8    0    1
 -2        37        36       193      1170      1389      1390
 -1       223    8    0    1
 -2        36       192       193      1387      1391      1389
 -1       224    8    0    1
 -2        38        37       194      1171      1392      1393
 -1       225    8    0    1
 -2        37       193       194      1390      1394      1392
 -1       226    8    0    1
 -2        39        38       195      1172      1395      1396
 -1       227    8    0    1
 -2        38       194       195      1393      1397      1395
 -1       228    8    0    1
 -2        40        39       196      1173      1398      1399
 -1       229    8    0    1
 -2        39       195       196      1396      1400      1398
 -1       230    8    0    1
 -2        41        40       197      1174      1401      1402
 -1       231    8    0    1
 -2        40       196       197      1399      1403      1401
 -1       232    8    0    1
 -2        42        41       198      1175      1404      1405
 -1       233    8    0    1
 -2        41       197       198      1402      1406      1404
 -1       234    8    0    1
 -2        43        42       199      1176      1407      1408
 -1       235    8    0    1
 -2        42       198       199      1405      1409      1407
 -1       236    8    0    1
 -2        44        43       200      1177      1410      1411
 -1       237    8    0    1
 -2        43       199       200      1408      1412      1410
 -1       238    8    0    1
 -2        45        44       201      1178      1413      1414
 -1       239    8    0    1
 -2        44       200       201      1411      1415      1413
 -1       240    8    0    1
 -2        46        45       202      1179      1416      1417
 -1       241    8    0    1
 -2        45       201       202      1414      1418      1416
 -1       242    8    0    1
 -2        47        46       203      1180      1419      1420
 -1       243    8    0    1
 -2        46       202       203      1417      1421      1419
 -1       244    8    0    1
 -2        48        47       204      1181      1422      1423
 -1       245    8    0    1
 -2        47       203       204      1420      1424      1422
 -1       246    8    0    1
 -2        49        48       205      1182      1425      1426
 -1       247    8    0    1
 -2        48       204       205      1423      1427      1425
 -1       248    8    0    1
 -2        50        49       206      1183      1428      1429
 -1       249    8    0    1
 -2        49       205       206      1426      1430      1428
 -1       250    8    0    1
 -2        51        50       207      1184      1431      1432
 -1       251    8    0    1
 -2        50       206       207      1429      1433      1431
 -1       252    8    0    1
 -2        52        51       208      1185      1434      1435
 -1       253    8    0    1
 -2        51       207       208      1432      1436      1434
 -1       254    8    0    1
 -2        53        52       209      1186      1437      1438
 -1       255    8    0    1
 -2        52       208       209      1435      1439      1437
 -1       256    8    0    1
 -2        54        53       210      1187      1440      1441
 -1       257    8    0    1
 -2        53       209       210      1438      1442      1440
 -1       258    8    0    1
 -2        55        54       211      1188      1443      1444
 -1       259    8    0    1
 -2        54       210       211      1441      1445      1443
 -1       260    8    0    1
 -2        56        55       212      1189      1446      1447
 -1       261    8    0    1
 -2        55       211       212      1444      1448      1446
 -1       262    8    0    1
 -2        57        56       213      1190      1449      1450
 -1       263    8    0    1
 -2        56       212       213      1447      1451      1449
 -1       264    8    0    1
 -2        58        57       214      1191      1452      1453
 -1       265    8    0    1
 -2        57       213       214      1450      1454      1452
 -1       266    8    0    1
 -2        59        58       215      1192      1455      1456
 -1       267    8    0    1
 -2        58       214       215      1453      1457      1455
 -1       268    8    0    1
 -2        60        59       216      1193      1458      1459
 -1       269    8    0    1
 -2        59       215       216      1456      1460      1458
 -1       270    8    0    1
 -2        61        60       217      1194      1461      1462
 -1       271    8    0    1
 -2        60       216       217      1459      1463      1461
 -1       272    8    0    1
 -2        62        61       218      1195      1464      1465
 -1       273    8    0    1
 -2        61       217       218      1462      1466      1464
 -1       274    8    0    1
 -2        63        62       219      1196      1467      1468
 -1       275    8    0    1
 -2        62       218       219      1465      1469      1467
 -1       276    8    0    1
 -2        64        63       220      1197      1470      1471
 -1       277    8    0    1
 -2        63       219       220      1468      1472      1470
 -1       278    8    0    1
 -2        65        64       221      1198      1473      1474
 -1       279    8    0    1
 -2        64       220       221      1471      1475      1473
 -1       280    8    0    1
 -2        66        65       222      1199      1476      1477
 -1       281    8    0    1
 -2        65       221       222      1474      1478      1476
 -1       282    8    0    1
 -2        67        66       223      1200      1479      1480
 -1       283    8    0    1
 -2        66       222       223      1477      1481      1479
 -1       284    8    0    1
 -2        68        67       224      1201      1482      1483
 -1       285    8    0    1
 -2        67       223       224      1480      1484      1482
 -1       286    8    0    1
 -2        69        68       225      1202      1485      1486
 -1       287    8    0    1
 -2        68       224       225      1483      1487      1485
 -1       288    8    0    1
 -2        70        69       226      1203      1488      1489
 -1       289    8    0    1
 -2        69       225       226      1486      1490      1488
 -1       290    8    0    1
 -2        71        70       227      1204      1491      1492
 -1       291    8    0    1
 -2        70       226       227      1489      1493      1491
 -1       292    8    0    1
 -2         4        71       136      1205      1494      1272
 -1       293    8    0    1
 -2       136        71       227      1494      1492      1495
 -1       294    8    0    1
 -2        72        73       228      1207      1496      1497
 -1       295    8    0    1
 -2        72       228       179      1497      1498      1350
 -1       296    8    0    1
 -2        73        74       229      1208      1499      1500
 -1       297    8    0    1
 -2        73       229       228      1500      1501      1496
 -1       298    8    0    1
 -2        74        75       230      1209      1502      1503
 -1       299    8    0    1
 -2        74       230       229      1503      1504      1499
 -1       300    8    0    1
 -2        75        76       231      1210      1505      1506
 -1       301    8    0    1
 -2        75       231       230      1506      1507      1502
 -1       302    8    0    1
 -2        76        77       232      1211      1508      1509
 -1       303    8    0    1
 -2        76       232       231      1509      1510      1505
 -1       304    8    0    1
 -2        77        78       233      1212      1511      1512
 -1       305    8    0    1
 -2        77       233       232      1512      1513      1508
 -1       306    8    0    1
 -2        78        79       234      1213      1514      1515
 -1       307    8    0    1
 -2        78       234       233      1515      1516      1511
 -1       308    8    0    1
 -2        79        80       235      1214      1517      1518
 -1       309    8    0    1
 -2        79       235       234      1518      1519      1514
 -1       310    8    0    1
 -2        80        81       236      1215      1520      1521
 -1       311    8    0    1
 -2        80       236       235      1521      1522      1517
 -1       312    8    0    1
 -2        81        82       237      1216      1523      1524
 -1       313    8    0    1
 -2        81       237       236      1524      1525      1520
 -1       314    8    0    1
 -2        82        83       238      1217      1526      1527
 -1       315    8    0    1
 -2        82       238       237      1527      1528      1523
 -1       316    8    0    1
 -2        83        84       239      1218      1529      1530
 -1       317    8    0    1
 -2        83       239       238      1530      1531      1526
 -1       318    8    0    1
 -2        84        85       240      1219      1532      1533
 -1       319    8    0    1
 -2        84       240       239      1533      1534      1529
 -1       320    8    0    1
 -2        85        86       241      1220      1535      1536
 -1       321    8    0    1
 -2        85       241       240      1536      1537      1532
 -1       322    8    0    1
 -2        86        87       242      1221      1538      1539
 -1       323    8    0    1
 -2        86       242       241      1539      1540      1535
 -1       324    8    0    1
 -2        87        88       243      1222      1541      1542
 -1       325    8    0    1
 -2        87       243       242      1542      1543      1538
 -1       326    8    0    1
 -2        88        89       244      1223      1544      1545
 -1       327    8    0    1
 -2        88       244       243      1545      1546      1541
 -1       328    8    0    1
 -2        89        90       245      1224      1547      1548
 -1       329    8    0    1
 -2        89       245       244      1548      1549      1544
 -1       330    8    0    1
 -2        90        91       246      1225      1550      1551
 -1       331    8    0    1
 -2        90       246       245      1551      1552      1547
 -1       332    8    0    1
 -2        91        92       247      1226      1553      1554
 -1       333    8    0    1
 -2        91       247       246      1554      1555      1550
 -1       334    8    0    1
 -2        92        93       248      1227      1556      1557
 -1       335    8    0    1
 -2        92       248       247      1557      1558      1553
 -1       336    8    0    1
 -2        93        94       249      1228      1559      1560
 -1       337    8    0    1
 -2        93       249       248      1560      1561      1556
 -1       338    8    0    1
 -2        94        95       250      1229      1562      1563
 -1       339    8    0    1
 -2        94       250       249      1563      1564      1559
 -1       340    8    0    1
 -2        95        96       251      1230      1565      1566
 -1       341    8    0    1
 -2        95       251       250      1566      1567      1562
 -1       342    8    0    1
 -2        96        97       252      1231      1568      1569
 -1       343    8    0    1
 -2        96       252       251      1569      1570      1565
 -1       344    8    0    1
 -2        97        98       253      1232      1571      1572
 -1       345    8    0    1
 -2        97       253       252      1572      1573      1568
 -1       346    8    0    1
 -2        98        99       254      1233      1574      1575
 -1       347    8    0    1
 -2        98       254       253      1575      1576      1571
 -1       348    8    0    1
 -2        99       100       255      1234      1577      1578
 -1       349    8    0    1
 -2        99       255       254      1578      1579      1574
 -1       350    8    0    1
 -2       100       101       256      1235      1580      1581
 -1       351    8    0    1
 -2       100       256       255      1581      1582      1577
 -1       352    8    0    1
 -2       101       102       257      1236      1583      1584
 -1       353    8    0    1
 -2       101       257       256      1584      1585      1580
 -1       354    8    0    1
 -2       102       103       258      1237      1586      1587
 -1       355    8    0    1
 -2       102       258       257      1587      1588      1583
 -1       356    8    0    1
 -2       103       104       259      1238      1589      1590
 -1       357    8    0    1
 -2       103       259       258      1590      1591      1586
 -1       358    8    0    1
 -2       104       105       260      1239      1592      1593
 -1       359    8    0    1
 -2       104       260       259      1593      1594      1589
 -1       360    8    0    1
 -2       105       106       261      1240      1595      1596
 -1       361    8    0    1
 -2       105       261       260      1596      1597      1592
 -1       362    8    0    1
 -2       106       107       262      1241      1598      1599
 -1       363    8    0    1
 -2       106       262       261      1599      1600      1595
 -1       364    8    0    1
 -2       107       108       263      1242      1601      1602
 -1       365    8    0    1
 -2       107       263       262      1602      1603      1598
 -1       366    8    0    1
 -2       108       109       264      1243      1604      1605
 -1       367    8    0    1
 -2       108       264       263      1605      1606      1601
 -1       368    8    0    1
 -2       109       110       265      1244      1607      1608
 -1       369    8    0    1
 -2       109       265       264      1608      1609      1604
 -1       370    8    0    1
 -2       110       111       266      1245      1610      1611
 -1       371    8    0    1
 -2       110       266       265      1611      1612      1607
 -1       372    8    0    1
 -2       111       112       267      1246      1613      1614
 -1       373    8    0    1
 -2       111       267       266      1614      1615      1610
 -1       374    8    0    1
 -2       112       113       268      1247      1616      1617
 -1       375    8    0    1
 -2       112       268       267      1617      1618      1613
 -1       376    8    0    1
 -2       113       114       269      1248      1619      1620
 -1       377    8    0    1
 -2       113       269       268      1620      1621      1616
 -1       378    8    0    1
 -2       114       115       270      1249      1622      1623
 -1       379    8    0    1
 -2       114       270       269      1623      1624      1619
 -1       380    8    0    1
 -2       115       116       271      1250      1625      1626
 -1       381    8    0    1
 -2       115       271       270      1626      1627      1622
 -1       382    8    0    1
 -2       116       117       272      1251      1628      1629
 -1       383    8    0    1
 -2       116       272       271      1629      1630      1625
 -1       384    8    0    1
 -2       117       118       273      1252      1631      1632
 -1       385    8    0    1
 -2       117       273       272      1632      1633      1628
 -1       386    8    0    1
 -2       118       119       274      1253      1634      1635
 -1       387    8    0    1
 -2       118       274       273      1635      1636      1631
 -1       388    8    0    1
 -2       119       120       275      1254      1637      1638
 -1       389    8    0    1
 -2       119       275       274      1638      1639      1634
 -1       390    8    0    1
 -2       120         3       121      1255      1256      1640
 -1       391    8    0    1
 -2       121       122       276      1257      1641      1642
 -1       392    8    0    1
 -2       122       123       277      1258      1643      1644
 -1       393    8    0    1
 -2       122       277       276      1644      1645      1641
 -1       394    8    0    1
 -2       123       124       278      1259      1646      1647
 -1       395    8    0    1
 -2       123       278       277      1647      1648      1643
 -1       396    8    0    1
 -2       124       125       279      1260      1649      1650
 -1       397    8    0    1
 -2       124       279       278      1650      1651      1646
 -1       398    8    0    1
 -2       125       126       280      1261      1652      1653
 -1       399    8    0    1
 -2       125       280       279      1653      1654      1649
 -1       400    8    0    1
 -2       126       127       281      1262      1655      1656
 -1       401    8    0    1
 -2       126       281       280      1656      1657      1652
 -1       402    8    0    1
 -2       127       128       282      1263      1658      1659
 -1       403    8    0    1
 -2       127       282       281      1659      1660      1655
 -1       404    8    0    1
 -2       128       129       283      1264      1661      1662
 -1       405    8    0    1
 -2       128       283       282      1662      1663      1658
 -1       406    8    0    1
 -2       129       130       284      1265      1664      1665
 -1       407    8    0    1
 -2       129       284       283      1665      1666      1661
 -1       408    8    0    1
 -2       130       131       285      1266      1667      1668
 -1       409    8    0    1
 -2       130       285       284      1668      1669      1664
 -1       410    8    0    1
 -2       131       132       286      1267      1670      1671
 -1       411    8    0    1
 -2       131       286       285      1671      1672      1667
 -1       412    8    0    1
 -2       132       133       287      1268      1673      1674
 -1       413    8    0    1
 -2       132       287       286      1674      1675      1670
 -1       414    8    0    1
 -2       133       134       288      1269      1676      1677
 -1       415    8    0    1
 -2       133       288       287      1677      1678      1673
 -1       416    8    0    1
 -2       134       135       289      1270      1679      1680
 -1       417    8    0    1
 -2       134       289       288      1680      1681      1676
 -1       418    8    0    1
 -2       135       136       290      1271      1682      1683
 -1       419    8    0    1
 -2       289       135       290      1679      1683      1684
 -1       420    8    0    1
 -2       136       227       290      1495      1685      1682
 -1       421    8    0    1
 -2         2       137       291      1273      1686      1687
 -1       422    8    0    1
 -2       137       138       292      1274      1688      1689
 -1       423    8    0    1
 -2       138       139       293      1275      1690      1691
 -1       424    8    0    1
 -2       139       140       294      1276      1692      1693
 -1       425    8    0    1
 -2       140       141       295      1277      1694      1695
 -1       426    8    0    1
 -2       141       142       296      1278      1696      1697
 -1       427    8    0    1
 -2       142       143       297      1279      1698      1699
 -1       428    8    0    1
 -2       143       144       298      1280      1700      1701
 -1       429    8    0    1
 -2       144       145       299      1281      1702      1703
 -1       430    8    0    1
 -2       145       146       300      1282      1704      1705
 -1       431    8    0    1
 -2       146       147       301      1283      1706      1707
 -1       432    8    0    1
 -2       147       148       302      1284      1708      1709
 -1       433    8    0    1
 -2       148       149       303      1285      1710      1711
 -1       434    8    0    1
 -2       149       150       304      1286      1712      1713
 -1       435    8    0    1
 -2       150       151       305      1287      1714      1715
 -1       436    8    0    1
 -2       151       152       306      1288      1716      1717
 -1       437    8    0    1
 -2       152       153       307      1289      1718      1719
 -1       438    8    0    1
 -2       153       154       308      1290      1720      1721
 -1       439    8    0    1
 -2       154       155       309      1291      1722      1723
 -1       440    8    0    1
 -2       155       156       310      1292      1724      1725
 -1       441    8    0    1
 -2       156         1       311      1293      1726      1727
 -1       442    8    0    1
 -2         1       157       312      1294      1728      1729
 -1       443    8    0    1
 -2       157       158       313      1295      1730      1731
 -1       444    8    0    1
 -2       158       159       314      1296      1732      1733
 -1       445    8    0    1
 -2       159       160       315      1297      1734      1735
 -1       446    8    0    1
 -2       160       161       316      1298      1736      1737
 -1       447    8    0    1
 -2       161       162       317      1299      1738      1739
 -1       448    8    0    1
 -2       162       163       318      1300      1740      1741
 -1       449    8    0    1
 -2       163         2       319      1301      1742      1743
 -1       450    8    0    1
 -2       294       140       295      1692      1695      1744
 -1       451    8    0    1
 -2       293       139       294      1690      1693      1745
 -1       452    8    0    1
 -2       120       121       275      1640      1746      1637
 -1       453    8    0    1
 -2       121       276       275      1642      1747      1746
 -1       454    8    0    1
 -2       291       137       292      1686      1689      1748
 -1       455    8    0    1
 -2       292       138       293      1688      1691      1749
 -1       456    8    0    1
 -2         2       291       319      1687      1750      1742
 -1       457    8    0    1
 -2       141       296       295      1697      1751      1694
 -1       458    8    0    1
 -2       142       297       296      1699      1752      1696
 -1       459    8    0    1
 -2       143       298       297      1701      1753      1698
 -1       460    8    0    1
 -2       144       299       298      1703      1754      1700
 -1       461    8    0    1
 -2       145       300       299      1705      1755      1702
 -1       462    8    0    1
 -2       146       301       300      1707      1756      1704
 -1       463    8    0    1
 -2       147       302       301      1709      1757      1706
 -1       464    8    0    1
 -2       148       303       302      1711      1758      1708
 -1       465    8    0    1
 -2       149       304       303      1713      1759      1710
 -1       466    8    0    1
 -2       150       305       304      1715      1760      1712
 -1       467    8    0    1
 -2       151       306       305      1717      1761      1714
 -1       468    8    0    1
 -2       152       307       306      1719      1762      1716
 -1       469    8    0    1
 -2       153       308       307      1721      1763      1718
 -1       470    8    0    1
 -2       154       309       308      1723      1764      1720
 -1       471    8    0    1
 -2       155       310       309      1725      1765      1722
 -1       472    8    0    1
 -2       156       311       310      1727      1766      1724
 -1       473    8    0    1
 -2         1       312       311      1729      1767      1726
 -1       474    8    0    1
 -2       157       313       312      1731      1768      1728
 -1       475    8    0    1
 -2       158       314       313      1733      1769      1730
 -1       476    8    0    1
 -2       159       315       314      1735      1770      1732
 -1       477    8    0    1
 -2       160       316       315      1737      1771      1734
 -1       478    8    0    1
 -2       161       317       316      1739      1772      1736
 -1       479    8    0    1
 -2       162       318       317      1741      1773      1738
 -1       480    8    0    1
 -2       163       319       318      1743      1774      1740
 -1       481    8    0    1
 -2        23         7       164      1302      1304      1775
 -1       482    8    0    1
 -2       165       166       320      1310      1776      1777
 -1       483    8    0    1
 -2       164       165       321      1307      1778      1779
 -1       484    8    0    1
 -2       165       320       321      1777      1780      1778
 -1       485    8    0    1
 -2       167       168       322      1316      1781      1782
 -1       486    8    0    1
 -2       168       169       323      1319      1783      1784
 -1       487    8    0    1
 -2       168       323       322      1784      1785      1781
 -1       488    8    0    1
 -2       169       170       324      1322      1786      1787
 -1       489    8    0    1
 -2       169       324       323      1787      1788      1783
 -1       490    8    0    1
 -2       170       171       325      1325      1789      1790
 -1       491    8    0    1
 -2       170       325       324      1790      1791      1786
 -1       492    8    0    1
 -2       171       172       326      1328      1792      1793
 -1       493    8    0    1
 -2       171       326       325      1793      1794      1789
 -1       494    8    0    1
 -2       172       173       327      1331      1795      1796
 -1       495    8    0    1
 -2       172       327       326      1796      1797      1792
 -1       496    8    0    1
 -2       173       174       328      1334      1798      1799
 -1       497    8    0    1
 -2       173       328       327      1799      1800      1795
 -1       498    8    0    1
 -2       174       175       329      1337      1801      1802
 -1       499    8    0    1
 -2       174       329       328      1802      1803      1798
 -1       500    8    0    1
 -2       175       176       330      1340      1804      1805
 -1       501    8    0    1
 -2       175       330       329      1805      1806      1801
 -1       502    8    0    1
 -2       176       177       331      1343      1807      1808
 -1       503    8    0    1
 -2       176       331       330      1808      1809      1804
 -1       504    8    0    1
 -2       177       178       332      1346      1810      1811
 -1       505    8    0    1
 -2       177       332       331      1811      1812      1807
 -1       506    8    0    1
 -2       178       179       333      1349      1813      1814
 -1       507    8    0    1
 -2       332       178       333      1810      1814      1815
 -1       508    8    0    1
 -2       179       228       333      1498      1816      1813
 -1       509    8    0    1
 -2       180        23       164      1351      1775      1817
 -1       510    8    0    1
 -2       228       229       334      1501      1818      1819
 -1       511    8    0    1
 -2       228       334       333      1819      1820      1816
 -1       512    8    0    1
 -2       180       164       321      1817      1779      1821
 -1       513    8    0    1
 -2       182       181       335      1358      1822      1823
 -1       514    8    0    1
 -2       183       182       336      1361      1824      1825
 -1       515    8    0    1
 -2       182       335       336      1823      1826      1824
 -1       516    8    0    1
 -2       184       183       337      1364      1827      1828
 -1       517    8    0    1
 -2       183       336       337      1825      1829      1827
 -1       518    8    0    1
 -2       185       184       338      1367      1830      1831
 -1       519    8    0    1
 -2       184       337       338      1828      1832      1830
 -1       520    8    0    1
 -2       186       185       339      1370      1833      1834
 -1       521    8    0    1
 -2       185       338       339      1831      1835      1833
 -1       522    8    0    1
 -2       187       186       340      1373      1836      1837
 -1       523    8    0    1
 -2       186       339       340      1834      1838      1836
 -1       524    8    0    1
 -2       188       187       341      1376      1839      1840
 -1       525    8    0    1
 -2       187       340       341      1837      1841      1839
 -1       526    8    0    1
 -2       189       188       342      1379      1842      1843
 -1       527    8    0    1
 -2       188       341       342      1840      1844      1842
 -1       528    8    0    1
 -2       190       189       343      1382      1845      1846
 -1       529    8    0    1
 -2       189       342       343      1843      1847      1845
 -1       530    8    0    1
 -2       191       190       344      1385      1848      1849
 -1       531    8    0    1
 -2       190       343       344      1846      1850      1848
 -1       532    8    0    1
 -2       192       191       345      1388      1851      1852
 -1       533    8    0    1
 -2       191       344       345      1849      1853      1851
 -1       534    8    0    1
 -2       193       192       346      1391      1854      1855
 -1       535    8    0    1
 -2       192       345       346      1852      1856      1854
 -1       536    8    0    1
 -2       194       193       347      1394      1857      1858
 -1       537    8    0    1
 -2       193       346       347      1855      1859      1857
 -1       538    8    0    1
 -2       195       194       348      1397      1860      1861
 -1       539    8    0    1
 -2       194       347       348      1858      1862      1860
 -1       540    8    0    1
 -2       196       195       349      1400      1863      1864
 -1       541    8    0    1
 -2       195       348       349      1861      1865      1863
 -1       542    8    0    1
 -2       197       196       350      1403      1866      1867
 -1       543    8    0    1
 -2       196       349       350      1864      1868      1866
 -1       544    8    0    1
 -2       198       197       351      1406      1869      1870
 -1       545    8    0    1
 -2       197       350       351      1867      1871      1869
 -1       546    8    0    1
 -2       199       198       352      1409      1872      1873
 -1       547    8    0    1
 -2       198       351       352      1870      1874      1872
 -1       548    8    0    1
 -2       200       199       353      1412      1875      1876
 -1       549    8    0    1
 -2       199       352       353      1873      1877      1875
 -1       550    8    0    1
 -2       201       200       354      1415      1878      1879
 -1       551    8    0    1
 -2       200       353       354      1876      1880      1878
 -1       552    8    0    1
 -2       202       201       355      1418      1881      1882
 -1       553    8    0    1
 -2       201       354       355      1879      1883      1881
 -1       554    8    0    1
 -2       203       202       356      1421      1884      1885
 -1       555    8    0    1
 -2       202       355       356      1882      1886      1884
 -1       556    8    0    1
 -2       204       203       357      1424      1887      1888
 -1       557    8    0    1
 -2       203       356       357      1885      1889      1887
 -1       558    8    0    1
 -2       205       204       358      1427      1890      1891
 -1       559    8    0    1
 -2       204       357       358      1888      1892      1890
 -1       560    8    0    1
 -2       206       205       359      1430      1893      1894
 -1       561    8    0    1
 -2       205       358       359      1891      1895      1893
 -1       562    8    0    1
 -2       207       206       360      1433      1896      1897
 -1       563    8    0    1
 -2       206       359       360      1894      1898      1896
 -1       564    8    0    1
 -2       208       207       361      1436      1899      1900
 -1       565    8    0    1
 -2       207       360       361      1897      1901      1899
 -1       566    8    0    1
 -2       209       208       362      1439      1902      1903
 -1       567    8    0    1
 -2       208       361       362      1900      1904      1902
 -1       568    8    0    1
 -2       210       209       363      1442      1905      1906
 -1       569    8    0    1
 -2       209       362       363      1903      1907      1905
 -1       570    8    0    1
 -2       211       210       364      1445      1908      1909
 -1       571    8    0    1
 -2       210       363       364      1906      1910      1908
 -1       572    8    0    1
 -2       212       211       365      1448      1911      1912
 -1       573    8    0    1
 -2       211       364       365      1909      1913      1911
 -1       574    8    0    1
 -2       213       212       366      1451      1914      1915
 -1       575    8    0    1
 -2       212       365       366      1912      1916      1914
 -1       576    8    0    1
 -2       214       213       367      1454      1917      1918
 -1       577    8    0    1
 -2       213       366       367      1915      1919      1917
 -1       578    8    0    1
 -2       215       214       368      1457      1920      1921
 -1       579    8    0    1
 -2       214       367       368      1918      1922      1920
 -1       580    8    0    1
 -2       216       215       369      1460      1923      1924
 -1       581    8    0    1
 -2       215       368       369      1921      1925      1923
 -1       582    8    0    1
 -2       217       216       370      1463      1926      1927
 -1       583    8    0    1
 -2       216       369       370      1924      1928      1926
 -1       584    8    0    1
 -2       218       217       371      1466      1929      1930
 -1       585    8    0    1
 -2       217       370       371      1927      1931      1929
 -1       586    8    0    1
 -2       219       218       372      1469      1932      1933
 -1       587    8    0    1
 -2       218       371       372      1930      1934      1932
 -1       588    8    0    1
 -2       220       219       373      1472      1935      1936
 -1       589    8    0    1
 -2       219       372       373      1933      1937      1935
 -1       590    8    0    1
 -2       221       220       374      1475      1938      1939
 -1       591    8    0    1
 -2       220       373       374      1936      1940      1938
 -1       592    8    0    1
 -2       222       221       375      1478      1941      1942
 -1       593    8    0    1
 -2       221       374       375      1939      1943      1941
 -1       594    8    0    1
 -2       223       222       376      1481      1944      1945
 -1       595    8    0    1
 -2       222       375       376      1942      1946      1944
 -1       596    8    0    1
 -2       224       223       377      1484      1947      1948
 -1       597    8    0    1
 -2       223       376       377      1945      1949      1947
 -1       598    8    0    1
 -2       225       224       378      1487      1950      1951
 -1       599    8    0    1
 -2       224       377       378      1948      1952      1950
 -1       600    8    0    1
 -2       226       225       379      1490      1953      1954
 -1       601    8    0    1
 -2       225       378       379      1951      1955      1953
 -1       602    8    0    1
 -2       227       226       380      1493      1956      1957
 -1       603    8    0    1
 -2       290       227       380      1685      1957      1958
 -1       604    8    0    1
 -2       226       379       380      1954      1959      1956
 -1       605    8    0    1
 -2       229       230       381      1504      1960      1961
 -1       606    8    0    1
 -2       229       381       334      1961      1962      1818
 -1       607    8    0    1
 -2       230       231       382      1507      1963      1964
 -1       608    8    0    1
 -2       230       382       381      1964      1965      1960
 -1       609    8    0    1
 -2       231       232       383      1510      1966      1967
 -1       610    8    0    1
 -2       231       383       382      1967      1968      1963
 -1       611    8    0    1
 -2       232       233       384      1513      1969      1970
 -1       612    8    0    1
 -2       232       384       383      1970      1971      1966
 -1       613    8    0    1
 -2       233       234       385      1516      1972      1973
 -1       614    8    0    1
 -2       233       385       384      1973      1974      1969
 -1       615    8    0    1
 -2       234       235       386      1519      1975      1976
 -1       616    8    0    1
 -2       234       386       385      1976      1977      1972
 -1       617    8    0    1
 -2       235       236       387      1522      1978      1979
 -1       618    8    0    1
 -2       235       387       386      1979      1980      1975
 -1       619    8    0    1
 -2       236       237       388      1525      1981      1982
 -1       620    8    0    1
 -2       236       388       387      1982      1983      1978
 -1       621    8    0    1
 -2       237       238       389      1528      1984      1985
 -1       622    8    0    1
 -2       237       389       388      1985      1986      1981
 -1       623    8    0    1
 -2       238       239       390      1531      1987      1988
 -1       624    8    0    1
 -2       238       390       389      1988      1989      1984
 -1       625    8    0    1
 -2       239       240       391      1534      1990      1991
 -1       626    8    0    1
 -2       239       391       390      1991      1992      1987
 -1       627    8    0    1
 -2       240       241       392      1537      1993      1994
 -1       628    8    0    1
 -2       240       392       391      1994      1995      1990
 -1       629    8    0    1
 -2       241       242       393      1540      1996      1997
 -1       630    8    0    1
 -2       241       393       392      1997      1998      1993
 -1       631    8    0    1
 -2       242       243       394      1543      1999      2000
 -1       632    8    0    1
 -2       242       394       393      2000      2001      1996
 -1       633    8    0    1
 -2       243       244       395      1546      2002      2003
 -1       634    8    0    1
 -2       243       395       394      2003      2004      1999
 -1       635    8    0    1
 -2       244       245       396      1549      2005      2006
 -1       636    8    0    1
 -2       244       396       395      2006      2007      2002
 -1       637    8    0    1
 -2       245       246       397      1552      2008      2009
 -1       638    8    0    1
 -2       245       397       396      2009      2010      2005
 -1       639    8    0    1
 -2       246       247       398      1555      2011      2012
 -1       640    8    0    1
 -2       246       398       397      2012      2013      2008
 -1       641    8    0    1
 -2       247       248       399      1558      2014      2015
 -1       642    8    0    1
 -2       247       399       398      2015      2016      2011
 -1       643    8    0    1
 -2       248       249       400      1561      2017      2018
 -1       644    8    0    1
 -2       248       400       399      2018      2019      2014
 -1       645    8    0    1
 -2       249       250       401      1564      2020      2021
 -1       646    8    0    1
 -2       249       401       400      2021      2022      2017
 -1       647    8    0    1
 -2       250       251       402      1567      2023      2024
 -1       648    8    0    1
 -2       250       402       401      2024      2025      2020
 -1       649    8    0    1
 -2       251       252       403      1570      2026      2027
 -1       650    8    0    1
 -2       251       403       402      2027      2028      2023
 -1       651    8    0    1
 -2       252       253       404      1573      2029      2030
 -1       652    8    0    1
 -2       252       404       403      2030      2031      2026
 -1       653    8    0    1
 -2       253       254       405      1576      2032      2033
 -1       654    8    0    1
 -2       253       405       404      2033      2034      2029
 -1       655    8    0    1
 -2       254       255       406      1579      2035      2036
 -1       656    8    0    1
 -2       254       406       405      2036      2037      2032
 -1       657    8    0    1
 -2       255       256       407      1582      2038      2039
 -1       658    8    0    1
 -2       255       407       406      2039      2040      2035
 -1       659    8    0    1
 -2       256       257       408      1585      2041      2042
 -1       660    8    0    1
 -2       256       408       407      2042      2043      2038
 -1       661    8    0    1
 -2       257       258       409      1588      2044      2045
 -1       662    8    0    1
 -2       257       409       408      2045      2046      2041
 -1       663    8    0    1
 -2       258       259       410      1591      2047      2048
 -1       664    8    0    1
 -2       258       410       409      2048      2049      2044
 -1       665    8    0    1
 -2       259       260       411      1594      2050      2051
 -1       666    8    0    1
 -2       259       411       410      2051      2052      2047
 -1       667    8    0    1
 -2       260       261       412      1597      2053      2054
 -1       668    8    0    1
 -2       260       412       411      2054      2055      2050
 -1       669    8    0    1
 -2       261       262       413      1600      2056      2057
 -1       670    8    0    1
 -2       261       413       412      2057      2058      2053
 -1       671    8    0    1
 -2       262       263       414      1603      2059      2060
 -1       672    8    0    1
 -2       262       414       413      2060      2061      2056
 -1       673    8    0    1
 -2       263       264       415      1606      2062      2063
 -1       674    8    0    1
 -2       263       415       414      2063      2064      2059
 -1       675    8    0    1
 -2       264       265       416      1609      2065      2066
 -1       676    8    0    1
 -2       264       416       415      2066      2067      2062
 -1       677    8    0    1
 -2       265       266       417      1612      2068      2069
 -1       678    8    0    1
 -2       265       417       416      2069      2070      2065
 -1       679    8    0    1
 -2       266       267       418      1615      2071      2072
 -1       680    8    0    1
 -2       266       418       417      2072      2073      2068
 -1       681    8    0    1
 -2       267       268       419      1618      2074      2075
 -1       682    8    0    1
 -2       267       419       418      2075      2076      2071
 -1       683    8    0    1
 -2       268       269       420      1621      2077      2078
 -1       684    8    0    1
 -2       268       420       419      2078      2079      2074
 -1       685    8    0    1
 -2       269       270       421      1624      2080      2081
 -1       686    8    0    1
 -2       269       421       420      2081      2082      2077
 -1       687    8    0    1
 -2       270       271       422      1627      2083      2084
 -1       688    8    0    1
 -2       270       422       421      2084      2085      2080
 -1       689    8    0    1
 -2       271       272       423      1630      2086      2087
 -1       690    8    0    1
 -2       271       423       422      2087      2088      2083
 -1       691    8    0    1
 -2       272       273       424      1633      2089      2090
 -1       692    8    0    1
 -2       272       424       423      2090      2091      2086
 -1       693    8    0    1
 -2       273       274       425      1636      2092      2093
 -1       694    8    0    1
 -2       273       425       424      2093      2094      2089
 -1       695    8    0    1
 -2       274       275       426      1639      2095      2096
 -1       696    8    0    1
 -2       425       274       426      2092      2096      2097
 -1       697    8    0    1
 -2       275       276       426      1747      2098      2095
 -1       698    8    0    1
 -2       278       279       427      1651      2099      2100
 -1       699    8    0    1
 -2       277       278       428      1648      2101      2102
 -1       700    8    0    1
 -2       278       427       428      2100      2103      2101
 -1       701    8    0    1
 -2       276       277       429      1645      2104      2105
 -1       702    8    0    1
 -2       426       276       429      2098      2105      2106
 -1       703    8    0    1
 -2       277       428       429      2102      2107      2104
 -1       704    8    0    1
 -2       279       280       430      1654      2108      2109
 -1       705    8    0    1
 -2       279       430       427      2109      2110      2099
 -1       706    8    0    1
 -2       280       281       431      1657      2111      2112
 -1       707    8    0    1
 -2       280       431       430      2112      2113      2108
 -1       708    8    0    1
 -2       281       282       432      1660      2114      2115
 -1       709    8    0    1
 -2       281       432       431      2115      2116      2111
 -1       710    8    0    1
 -2       282       283       433      1663      2117      2118
 -1       711    8    0    1
 -2       282       433       432      2118      2119      2114
 -1       712    8    0    1
 -2       283       284       434      1666      2120      2121
 -1       713    8    0    1
 -2       283       434       433      2121      2122      2117
 -1       714    8    0    1
 -2       284       285       435      1669      2123      2124
 -1       715    8    0    1
 -2       284       435       434      2124      2125      2120
 -1       716    8    0    1
 -2       285       286       436      1672      2126      2127
 -1       717    8    0    1
 -2       285       436       435      2127      2128      2123
 -1       718    8    0    1
 -2       286       287       437      1675      2129      2130
 -1       719    8    0    1
 -2       286       437       436      2130      2131      2126
 -1       720    8    0    1
 -2       287       288       438      1678      2132      2133
 -1       721    8    0    1
 -2       287       438       437      2133      2134      2129
 -1       722    8    0    1
 -2       288       289       439      1681      2135      2136
 -1       723    8    0    1
 -2       288       439       438      2136      2137      2132
 -1       724    8    0    1
 -2       292       293       440      1749      2138      2139
 -1       725    8    0    1
 -2       319       291       441      1750      2140      2141
 -1       726    8    0    1
 -2       291       292       442      1748      2142      2143
 -1       727    8    0    1
 -2       293       294       443      1745      2144      2145
 -1       728    8    0    1
 -2       294       295       444      1744      2146      2147
 -1       729    8    0    1
 -2       166       167       445      1313      2148      2149
 -1       730    8    0    1
 -2       320       166       445      1776      2149      2150
 -1       731    8    0    1
 -2       167       322       445      1782      2151      2148
 -1       732    8    0    1
 -2       296       297       446      1752      2152      2153
 -1       733    8    0    1
 -2       297       298       447      1753      2154      2155
 -1       734    8    0    1
 -2       297       447       446      2155      2156      2152
 -1       735    8    0    1
 -2       298       299       448      1754      2157      2158
 -1       736    8    0    1
 -2       299       300       449      1755      2159      2160
 -1       737    8    0    1
 -2       300       301       450      1756      2161      2162
 -1       738    8    0    1
 -2       300       450       449      2162      2163      2159
 -1       739    8    0    1
 -2       301       302       451      1757      2164      2165
 -1       740    8    0    1
 -2       302       303       452      1758      2166      2167
 -1       741    8    0    1
 -2       303       304       453      1759      2168      2169
 -1       742    8    0    1
 -2       303       453       452      2169      2170      2166
 -1       743    8    0    1
 -2       304       305       454      1760      2171      2172
 -1       744    8    0    1
 -2       305       306       455      1761      2173      2174
 -1       745    8    0    1
 -2       306       307       456      1762      2175      2176
 -1       746    8    0    1
 -2       307       308       457      1763      2177      2178
 -1       747    8    0    1
 -2       308       309       458      1764      2179      2180
 -1       748    8    0    1
 -2       309       310       459      1765      2181      2182
 -1       749    8    0    1
 -2       309       459       458      2182      2183      2179
 -1       750    8    0    1
 -2       310       311       460      1766      2184      2185
 -1       751    8    0    1
 -2       311       312       461      1767      2186      2187
 -1       752    8    0    1
 -2       312       313       462      1768      2188      2189
 -1       753    8    0    1
 -2       312       462       461      2189      2190      2186
 -1       754    8    0    1
 -2       313       314       463      1769      2191      2192
 -1       755    8    0    1
 -2       314       315       464      1770      2193      2194
 -1       756    8    0    1
 -2       315       316       465      1771      2195      2196
 -1       757    8    0    1
 -2       316       317       466      1772      2197      2198
 -1       758    8    0    1
 -2       317       318       467      1773      2199      2200
 -1       759    8    0    1
 -2       318       319       468      1774      2201      2202
 -1       760    8    0    1
 -2       295       296       469      1751      2203      2204
 -1       761    8    0    1
 -2       443       294       444      2144      2147      2205
 -1       762    8    0    1
 -2       180       321       181      1821      2206      1355
 -1       763    8    0    1
 -2       444       295       469      2146      2204      2207
 -1       764    8    0    1
 -2       296       446       470      2153      2208      2209
 -1       765    8    0    1
 -2       296       470       469      2209      2210      2203
 -1       766    8    0    1
 -2       335       181       321      1822      2206      2211
 -1       767    8    0    1
 -2       442       292       440      2142      2139      2212
 -1       768    8    0    1
 -2       441       291       442      2140      2143      2213
 -1       769    8    0    1
 -2       439       289       290      2135      1684      2214
 -1       770    8    0    1
 -2       440       293       443      2138      2145      2215
 -1       771    8    0    1
 -2       319       441       468      2141      2216      2201
 -1       772    8    0    1
 -2       467       318       468      2199      2202      2217
 -1       773    8    0    1
 -2       466       317       467      2197      2200      2218
 -1       774    8    0    1
 -2       465       316       466      2195      2198      2219
 -1       775    8    0    1
 -2       464       315       465      2193      2196      2220
 -1       776    8    0    1
 -2       462       313       463      2188      2192      2221
 -1       777    8    0    1
 -2       459       310       460      2181      2185      2222
 -1       778    8    0    1
 -2       457       308       458      2177      2180      2223
 -1       779    8    0    1
 -2       456       307       457      2175      2178      2224
 -1       780    8    0    1
 -2       455       306       456      2173      2176      2225
 -1       781    8    0    1
 -2       453       304       471      2168      2226      2227
 -1       782    8    0    1
 -2       304       454       471      2172      2228      2226
 -1       783    8    0    1
 -2       450       301       451      2161      2165      2229
 -1       784    8    0    1
 -2       298       448       447      2158      2230      2154
 -1       785    8    0    1
 -2       448       299       449      2157      2160      2231
 -1       786    8    0    1
 -2       451       302       452      2164      2167      2232
 -1       787    8    0    1
 -2       454       305       455      2171      2174      2233
 -1       788    8    0    1
 -2       460       311       461      2184      2187      2234
 -1       789    8    0    1
 -2       463       314       464      2191      2194      2235
 -1       790    8    0    1
 -2       334       381       472      1962      2236      2237
 -1       791    8    0    1
 -2       323       324       473      1788      2238      2239
 -1       792    8    0    1
 -2       322       323       474      1785      2240      2241
 -1       793    8    0    1
 -2       323       473       474      2239      2242      2240
 -1       794    8    0    1
 -2       325       326       475      1794      2243      2244
 -1       795    8    0    1
 -2       326       327       476      1797      2245      2246
 -1       796    8    0    1
 -2       326       476       475      2246      2247      2243
 -1       797    8    0    1
 -2       327       328       477      1800      2248      2249
 -1       798    8    0    1
 -2       327       477       476      2249      2250      2245
 -1       799    8    0    1
 -2       328       329       478      1803      2251      2252
 -1       800    8    0    1
 -2       328       478       477      2252      2253      2248
 -1       801    8    0    1
 -2       329       330       479      1806      2254      2255
 -1       802    8    0    1
 -2       329       479       478      2255      2256      2251
 -1       803    8    0    1
 -2       330       331       480      1809      2257      2258
 -1       804    8    0    1
 -2       330       480       479      2258      2259      2254
 -1       805    8    0    1
 -2       381       382       481      1965      2260      2261
 -1       806    8    0    1
 -2       381       481       472      2261      2262      2236
 -1       807    8    0    1
 -2       336       335       482      1826      2263      2264
 -1       808    8    0    1
 -2       444       469       483      2207      2265      2266
 -1       809    8    0    1
 -2       337       336       484      1829      2267      2268
 -1       810    8    0    1
 -2       336       482       484      2264      2269      2267
 -1       811    8    0    1
 -2       338       337       485      1832      2270      2271
 -1       812    8    0    1
 -2       337       484       485      2268      2272      2270
 -1       813    8    0    1
 -2       339       338       486      1835      2273      2274
 -1       814    8    0    1
 -2       338       485       486      2271      2275      2273
 -1       815    8    0    1
 -2       340       339       487      1838      2276      2277
 -1       816    8    0    1
 -2       339       486       487      2274      2278      2276
 -1       817    8    0    1
 -2       341       340       488      1841      2279      2280
 -1       818    8    0    1
 -2       340       487       488      2277      2281      2279
 -1       819    8    0    1
 -2       342       341       489      1844      2282      2283
 -1       820    8    0    1
 -2       341       488       489      2280      2284      2282
 -1       821    8    0    1
 -2       343       342       490      1847      2285      2286
 -1       822    8    0    1
 -2       342       489       490      2283      2287      2285
 -1       823    8    0    1
 -2       344       343       491      1850      2288      2289
 -1       824    8    0    1
 -2       343       490       491      2286      2290      2288
 -1       825    8    0    1
 -2       345       344       492      1853      2291      2292
 -1       826    8    0    1
 -2       344       491       492      2289      2293      2291
 -1       827    8    0    1
 -2       346       345       493      1856      2294      2295
 -1       828    8    0    1
 -2       345       492       493      2292      2296      2294
 -1       829    8    0    1
 -2       347       346       494      1859      2297      2298
 -1       830    8    0    1
 -2       346       493       494      2295      2299      2297
 -1       831    8    0    1
 -2       348       347       495      1862      2300      2301
 -1       832    8    0    1
 -2       347       494       495      2298      2302      2300
 -1       833    8    0    1
 -2       349       348       496      1865      2303      2304
 -1       834    8    0    1
 -2       348       495       496      2301      2305      2303
 -1       835    8    0    1
 -2       350       349       497      1868      2306      2307
 -1       836    8    0    1
 -2       349       496       497      2304      2308      2306
 -1       837    8    0    1
 -2       351       350       498      1871      2309      2310
 -1       838    8    0    1
 -2       350       497       498      2307      2311      2309
 -1       839    8    0    1
 -2       352       351       499      1874      2312      2313
 -1       840    8    0    1
 -2       351       498       499      2310      2314      2312
 -1       841    8    0    1
 -2       353       352       500      1877      2315      2316
 -1       842    8    0    1
 -2       352       499       500      2313      2317      2315
 -1       843    8    0    1
 -2       354       353       501      1880      2318      2319
 -1       844    8    0    1
 -2       353       500       501      2316      2320      2318
 -1       845    8    0    1
 -2       355       354       502      1883      2321      2322
 -1       846    8    0    1
 -2       354       501       502      2319      2323      2321
 -1       847    8    0    1
 -2       356       355       503      1886      2324      2325
 -1       848    8    0    1
 -2       355       502       503      2322      2326      2324
 -1       849    8    0    1
 -2       357       356       504      1889      2327      2328
 -1       850    8    0    1
 -2       356       503       504      2325      2329      2327
 -1       851    8    0    1
 -2       358       357       505      1892      2330      2331
 -1       852    8    0    1
 -2       357       504       505      2328      2332      2330
 -1       853    8    0    1
 -2       359       358       506      1895      2333      2334
 -1       854    8    0    1
 -2       358       505       506      2331      2335      2333
 -1       855    8    0    1
 -2       360       359       507      1898      2336      2337
 -1       856    8    0    1
 -2       359       506       507      2334      2338      2336
 -1       857    8    0    1
 -2       361       360       508      1901      2339      2340
 -1       858    8    0    1
 -2       360       507       508      2337      2341      2339
 -1       859    8    0    1
 -2       362       361       509      1904      2342      2343
 -1       860    8    0    1
 -2       361       508       509      2340      2344      2342
 -1       861    8    0    1
 -2       363       362       510      1907      2345      2346
 -1       862    8    0    1
 -2       362       509       510      2343      2347      2345
 -1       863    8    0    1
 -2       364       363       511      1910      2348      2349
 -1       864    8    0    1
 -2       363       510       511      2346      2350      2348
 -1       865    8    0    1
 -2       365       364       512      1913      2351      2352
 -1       866    8    0    1
 -2       364       511       512      2349      2353      2351
 -1       867    8    0    1
 -2       366       365       513      1916      2354      2355
 -1       868    8    0    1
 -2       365       512       513      2352      2356      2354
 -1       869    8    0    1
 -2       367       366       514      1919      2357      2358
 -1       870    8    0    1
 -2       366       513       514      2355      2359      2357
 -1       871    8    0    1
 -2       368       367       515      1922      2360      2361
 -1       872    8    0    1
 -2       367       514       515      2358      2362      2360
 -1       873    8    0    1
 -2       369       368       516      1925      2363      2364
 -1       874    8    0    1
 -2       368       515       516      2361      2365      2363
 -1       875    8    0    1
 -2       370       369       517      1928      2366      2367
 -1       876    8    0    1
 -2       369       516       517      2364      2368      2366
 -1       877    8    0    1
 -2       371       370       518      1931      2369      2370
 -1       878    8    0    1
 -2       370       517       518      2367      2371      2369
 -1       879    8    0    1
 -2       372       371       519      1934      2372      2373
 -1       880    8    0    1
 -2       371       518       519      2370      2374      2372
 -1       881    8    0    1
 -2       373       372       520      1937      2375      2376
 -1       882    8    0    1
 -2       372       519       520      2373      2377      2375
 -1       883    8    0    1
 -2       374       373       521      1940      2378      2379
 -1       884    8    0    1
 -2       373       520       521      2376      2380      2378
 -1       885    8    0    1
 -2       375       374       522      1943      2381      2382
 -1       886    8    0    1
 -2       374       521       522      2379      2383      2381
 -1       887    8    0    1
 -2       376       375       523      1946      2384      2385
 -1       888    8    0    1
 -2       375       522       523      2382      2386      2384
 -1       889    8    0    1
 -2       377       376       524      1949      2387      2388
 -1       890    8    0    1
 -2       376       523       524      2385      2389      2387
 -1       891    8    0    1
 -2       378       377       525      1952      2390      2391
 -1       892    8    0    1
 -2       377       524       525      2388      2392      2390
 -1       893    8    0    1
 -2       379       378       526      1955      2393      2394
 -1       894    8    0    1
 -2       378       525       526      2391      2395      2393
 -1       895    8    0    1
 -2       383       384       527      1971      2396      2397
 -1       896    8    0    1
 -2       384       385       528      1974      2398      2399
 -1       897    8    0    1
 -2       384       528       527      2399      2400      2396
 -1       898    8    0    1
 -2       385       386       529      1977      2401      2402
 -1       899    8    0    1
 -2       385       529       528      2402      2403      2398
 -1       900    8    0    1
 -2       386       387       530      1980      2404      2405
 -1       901    8    0    1
 -2       386       530       529      2405      2406      2401
 -1       902    8    0    1
 -2       387       388       531      1983      2407      2408
 -1       903    8    0    1
 -2       387       531       530      2408      2409      2404
 -1       904    8    0    1
 -2       388       389       532      1986      2410      2411
 -1       905    8    0    1
 -2       388       532       531      2411      2412      2407
 -1       906    8    0    1
 -2       389       390       533      1989      2413      2414
 -1       907    8    0    1
 -2       389       533       532      2414      2415      2410
 -1       908    8    0    1
 -2       390       391       534      1992      2416      2417
 -1       909    8    0    1
 -2       390       534       533      2417      2418      2413
 -1       910    8    0    1
 -2       391       392       535      1995      2419      2420
 -1       911    8    0    1
 -2       391       535       534      2420      2421      2416
 -1       912    8    0    1
 -2       392       393       536      1998      2422      2423
 -1       913    8    0    1
 -2       392       536       535      2423      2424      2419
 -1       914    8    0    1
 -2       393       394       537      2001      2425      2426
 -1       915    8    0    1
 -2       393       537       536      2426      2427      2422
 -1       916    8    0    1
 -2       394       395       538      2004      2428      2429
 -1       917    8    0    1
 -2       394       538       537      2429      2430      2425
 -1       918    8    0    1
 -2       395       396       539      2007      2431      2432
 -1       919    8    0    1
 -2       395       539       538      2432      2433      2428
 -1       920    8    0    1
 -2       396       397       540      2010      2434      2435
 -1       921    8    0    1
 -2       396       540       539      2435      2436      2431
 -1       922    8    0    1
 -2       397       398       541      2013      2437      2438
 -1       923    8    0    1
 -2       397       541       540      2438      2439      2434
 -1       924    8    0    1
 -2       398       399       542      2016      2440      2441
 -1       925    8    0    1
 -2       398       542       541      2441      2442      2437
 -1       926    8    0    1
 -2       399       400       543      2019      2443      2444
 -1       927    8    0    1
 -2       399       543       542      2444      2445      2440
 -1       928    8    0    1
 -2       400       401       544      2022      2446      2447
 -1       929    8    0    1
 -2       400       544       543      2447      2448      2443
 -1       930    8    0    1
 -2       401       402       545      2025      2449      2450
 -1       931    8    0    1
 -2       401       545       544      2450      2451      2446
 -1       932    8    0    1
 -2       402       403       546      2028      2452      2453
 -1       933    8    0    1
 -2       402       546       545      2453      2454      2449
 -1       934    8    0    1
 -2       403       404       547      2031      2455      2456
 -1       935    8    0    1
 -2       403       547       546      2456      2457      2452
 -1       936    8    0    1
 -2       404       405       548      2034      2458      2459
 -1       937    8    0    1
 -2       404       548       547      2459      2460      2455
 -1       938    8    0    1
 -2       405       406       549      2037      2461      2462
 -1       939    8    0    1
 -2       405       549       548      2462      2463      2458
 -1       940    8    0    1
 -2       406       407       550      2040      2464      2465
 -1       941    8    0    1
 -2       406       550       549      2465      2466      2461
 -1       942    8    0    1
 -2       407       408       551      2043      2467      2468
 -1       943    8    0    1
 -2       407       551       550      2468      2469      2464
 -1       944    8    0    1
 -2       408       409       552      2046      2470      2471
 -1       945    8    0    1
 -2       408       552       551      2471      2472      2467
 -1       946    8    0    1
 -2       409       410       553      2049      2473      2474
 -1       947    8    0    1
 -2       409       553       552      2474      2475      2470
 -1       948    8    0    1
 -2       410       411       554      2052      2476      2477
 -1       949    8    0    1
 -2       410       554       553      2477      2478      2473
 -1       950    8    0    1
 -2       411       412       555      2055      2479      2480
 -1       951    8    0    1
 -2       411       555       554      2480      2481      2476
 -1       952    8    0    1
 -2       412       413       556      2058      2482      2483
 -1       953    8    0    1
 -2       412       556       555      2483      2484      2479
 -1       954    8    0    1
 -2       413       414       557      2061      2485      2486
 -1       955    8    0    1
 -2       413       557       556      2486      2487      2482
 -1       956    8    0    1
 -2       414       415       558      2064      2488      2489
 -1       957    8    0    1
 -2       414       558       557      2489      2490      2485
 -1       958    8    0    1
 -2       415       416       559      2067      2491      2492
 -1       959    8    0    1
 -2       415       559       558      2492      2493      2488
 -1       960    8    0    1
 -2       416       417       560      2070      2494      2495
 -1       961    8    0    1
 -2       416       560       559      2495      2496      2491
 -1       962    8    0    1
 -2       417       418       561      2073      2497      2498
 -1       963    8    0    1
 -2       417       561       560      2498      2499      2494
 -1       964    8    0    1
 -2       418       419       562      2076      2500      2501
 -1       965    8    0    1
 -2       418       562       561      2501      2502      2497
 -1       966    8    0    1
 -2       419       420       563      2079      2503      2504
 -1       967    8    0    1
 -2       419       563       562      2504      2505      2500
 -1       968    8    0    1
 -2       420       421       564      2082      2506      2507
 -1       969    8    0    1
 -2       420       564       563      2507      2508      2503
 -1       970    8    0    1
 -2       421       422       565      2085      2509      2510
 -1       971    8    0    1
 -2       421       565       564      2510      2511      2506
 -1       972    8    0    1
 -2       422       423       566      2088      2512      2513
 -1       973    8    0    1
 -2       422       566       565      2513      2514      2509
 -1       974    8    0    1
 -2       423       424       567      2091      2515      2516
 -1       975    8    0    1
 -2       423       567       566      2516      2517      2512
 -1       976    8    0    1
 -2       424       425       568      2094      2518      2519
 -1       977    8    0    1
 -2       424       568       567      2519      2520      2515
 -1       978    8    0    1
 -2       425       426       429      2097      2106      2521
 -1       979    8    0    1
 -2       430       431       569      2113      2522      2523
 -1       980    8    0    1
 -2       431       432       570      2116      2524      2525
 -1       981    8    0    1
 -2       431       570       569      2525      2526      2522
 -1       982    8    0    1
 -2       428       427       571      2103      2527      2528
 -1       983    8    0    1
 -2       427       430       572      2110      2529      2530
 -1       984    8    0    1
 -2       571       427       572      2527      2530      2531
 -1       985    8    0    1
 -2       430       569       572      2523      2532      2529
 -1       986    8    0    1
 -2       432       433       573      2119      2533      2534
 -1       987    8    0    1
 -2       432       573       570      2534      2535      2524
 -1       988    8    0    1
 -2       433       434       574      2122      2536      2537
 -1       989    8    0    1
 -2       433       574       573      2537      2538      2533
 -1       990    8    0    1
 -2       434       435       575      2125      2539      2540
 -1       991    8    0    1
 -2       434       575       574      2540      2541      2536
 -1       992    8    0    1
 -2       435       436       576      2128      2542      2543
 -1       993    8    0    1
 -2       435       576       575      2543      2544      2539
 -1       994    8    0    1
 -2       436       437       577      2131      2545      2546
 -1       995    8    0    1
 -2       436       577       576      2546      2547      2542
 -1       996    8    0    1
 -2       437       438       578      2134      2548      2549
 -1       997    8    0    1
 -2       437       578       577      2549      2550      2545
 -1       998    8    0    1
 -2       438       439       579      2137      2551      2552
 -1       999    8    0    1
 -2       438       579       578      2552      2553      2548
 -1      1000    8    0    1
 -2       441       442       580      2213      2554      2555
 -1      1001    8    0    1
 -2       440       443       581      2215      2556      2557
 -1      1002    8    0    1
 -2       382       383       582      1968      2558      2559
 -1      1003    8    0    1
 -2       383       527       582      2397      2560      2558
 -1      1004    8    0    1
 -2       439       290       380      2214      1958      2561
 -1      1005    8    0    1
 -2       468       441       583      2216      2562      2563
 -1      1006    8    0    1
 -2       442       440       584      2212      2564      2565
 -1      1007    8    0    1
 -2       440       581       584      2557      2566      2564
 -1      1008    8    0    1
 -2       335       321       585      2211      2567      2568
 -1      1009    8    0    1
 -2       482       335       585      2263      2568      2569
 -1      1010    8    0    1
 -2       321       320       585      1780      2570      2567
 -1      1011    8    0    1
 -2       467       468       586      2217      2571      2572
 -1      1012    8    0    1
 -2       468       583       586      2563      2573      2571
 -1      1013    8    0    1
 -2       459       460       587      2222      2574      2575
 -1      1014    8    0    1
 -2       457       458       588      2223      2576      2577
 -1      1015    8    0    1
 -2       450       451       589      2229      2578      2579
 -1      1016    8    0    1
 -2       447       448       590      2230      2580      2581
 -1      1017    8    0    1
 -2       324       325       591      1791      2582      2583
 -1      1018    8    0    1
 -2       473       324       591      2238      2583      2584
 -1      1019    8    0    1
 -2       325       475       591      2244      2585      2582
 -1      1020    8    0    1
 -2       448       449       592      2231      2586      2587
 -1      1021    8    0    1
 -2       446       447       593      2156      2588      2589
 -1      1022    8    0    1
 -2       451       452       594      2232      2590      2591
 -1      1023    8    0    1
 -2       449       450       595      2163      2592      2593
 -1      1024    8    0    1
 -2       454       455       596      2233      2594      2595
 -1      1025    8    0    1
 -2       452       453       597      2170      2596      2597
 -1      1026    8    0    1
 -2       460       461       598      2234      2598      2599
 -1      1027    8    0    1
 -2       455       456       599      2225      2600      2601
 -1      1028    8    0    1
 -2       456       457       600      2224      2602      2603
 -1      1029    8    0    1
 -2       458       459       601      2183      2604      2605
 -1      1030    8    0    1
 -2       463       464       602      2235      2606      2607
 -1      1031    8    0    1
 -2       461       462       603      2190      2608      2609
 -1      1032    8    0    1
 -2       462       463       604      2221      2610      2611
 -1      1033    8    0    1
 -2       464       465       605      2220      2612      2613
 -1      1034    8    0    1
 -2       465       466       606      2219      2614      2615
 -1      1035    8    0    1
 -2       465       606       605      2615      2616      2612
 -1      1036    8    0    1
 -2       466       467       607      2218      2617      2618
 -1      1037    8    0    1
 -2       333       334       608      1820      2619      2620
 -1      1038    8    0    1
 -2       332       333       608      1815      2620      2621
 -1      1039    8    0    1
 -2       334       472       608      2237      2622      2619
 -1      1040    8    0    1
 -2       443       444       609      2205      2623      2624
 -1      1041    8    0    1
 -2       448       592       590      2587      2625      2580
 -1      1042    8    0    1
 -2       322       474       610      2241      2626      2627
 -1      1043    8    0    1
 -2       322       610       445      2627      2628      2151
 -1      1044    8    0    1
 -2       481       382       582      2260      2559      2629
 -1      1045    8    0    1
 -2       331       332       608      1812      2621      2630
 -1      1046    8    0    1
 -2       609       444       483      2623      2266      2631
 -1      1047    8    0    1
 -2       606       466       607      2614      2618      2632
 -1      1048    8    0    1
 -2       470       446       593      2208      2589      2633
 -1      1049    8    0    1
 -2       604       463       602      2610      2607      2634
 -1      1050    8    0    1
 -2       603       462       604      2608      2611      2635
 -1      1051    8    0    1
 -2       459       587       601      2575      2636      2604
 -1      1052    8    0    1
 -2       602       464       605      2606      2613      2637
 -1      1053    8    0    1
 -2       425       429       568      2521      2638      2518
 -1      1054    8    0    1
 -2       581       443       609      2556      2624      2639
 -1      1055    8    0    1
 -2       429       428       568      2107      2640      2638
 -1      1056    8    0    1
 -2       441       580       583      2555      2641      2562
 -1      1057    8    0    1
 -2       580       442       584      2554      2565      2642
 -1      1058    8    0    1
 -2       600       457       588      2602      2577      2643
 -1      1059    8    0    1
 -2       599       456       600      2600      2603      2644
 -1      1060    8    0    1
 -2       331       608       480      2630      2645      2257
 -1      1061    8    0    1
 -2       598       461       603      2598      2609      2646
 -1      1062    8    0    1
 -2       585       320       445      2570      2150      2647
 -1      1063    8    0    1
 -2       588       458       601      2576      2605      2648
 -1      1064    8    0    1
 -2       587       460       598      2574      2599      2649
 -1      1065    8    0    1
 -2       597       453       611      2596      2650      2651
 -1      1066    8    0    1
 -2       453       471       611      2227      2652      2650
 -1      1067    8    0    1
 -2       596       455       599      2594      2601      2653
 -1      1068    8    0    1
 -2       595       450       589      2592      2579      2654
 -1      1069    8    0    1
 -2       594       452       597      2590      2597      2655
 -1      1070    8    0    1
 -2       589       451       612      2578      2656      2657
 -1      1071    8    0    1
 -2       451       594       612      2591      2658      2656
 -1      1072    8    0    1
 -2       471       454       596      2228      2595      2659
 -1      1073    8    0    1
 -2       447       590       593      2581      2660      2588
 -1      1074    8    0    1
 -2       467       586       607      2572      2661      2617
 -1      1075    8    0    1
 -2       483       469       613      2265      2662      2663
 -1      1076    8    0    1
 -2       469       470       613      2210      2664      2662
 -1      1077    8    0    1
 -2       449       595       592      2593      2665      2586
 -1      1078    8    0    1
 -2       439       380       614      2561      2666      2667
 -1      1079    8    0    1
 -2       579       439       614      2551      2667      2668
 -1      1080    8    0    1
 -2       380       379       614      1959      2669      2666
 -1      1081    8    0    1
 -2       568       428       571      2640      2528      2670
 -1      1082    8    0    1
 -2       614       379       526      2669      2394      2671
 -1      1083    8    0    1
 -2       476       477       615      2250      2672      2673
 -1      1084    8    0    1
 -2       475       476       616      2247      2674      2675
 -1      1085    8    0    1
 -2       476       615       616      2673      2676      2674
 -1      1086    8    0    1
 -2       478       479       617      2256      2677      2678
 -1      1087    8    0    1
 -2       479       480       618      2259      2679      2680
 -1      1088    8    0    1
 -2       479       618       617      2680      2681      2677
 -1      1089    8    0    1
 -2       472       481       619      2262      2682      2683
 -1      1090    8    0    1
 -2       470       593       620      2633      2684      2685
 -1      1091    8    0    1
 -2       586       583       621      2573      2686      2687
 -1      1092    8    0    1
 -2       606       607       622      2632      2688      2689
 -1      1093    8    0    1
 -2       485       484       623      2272      2690      2691
 -1      1094    8    0    1
 -2       486       485       624      2275      2692      2693
 -1      1095    8    0    1
 -2       485       623       624      2691      2694      2692
 -1      1096    8    0    1
 -2       487       486       625      2278      2695      2696
 -1      1097    8    0    1
 -2       486       624       625      2693      2697      2695
 -1      1098    8    0    1
 -2       488       487       626      2281      2698      2699
 -1      1099    8    0    1
 -2       487       625       626      2696      2700      2698
 -1      1100    8    0    1
 -2       489       488       627      2284      2701      2702
 -1      1101    8    0    1
 -2       488       626       627      2699      2703      2701
 -1      1102    8    0    1
 -2       490       489       628      2287      2704      2705
 -1      1103    8    0    1
 -2       489       627       628      2702      2706      2704
 -1      1104    8    0    1
 -2       491       490       629      2290      2707      2708
 -1      1105    8    0    1
 -2       490       628       629      2705      2709      2707
 -1      1106    8    0    1
 -2       492       491       630      2293      2710      2711
 -1      1107    8    0    1
 -2       491       629       630      2708      2712      2710
 -1      1108    8    0    1
 -2       493       492       631      2296      2713      2714
 -1      1109    8    0    1
 -2       492       630       631      2711      2715      2713
 -1      1110    8    0    1
 -2       494       493       632      2299      2716      2717
 -1      1111    8    0    1
 -2       493       631       632      2714      2718      2716
 -1      1112    8    0    1
 -2       495       494       633      2302      2719      2720
 -1      1113    8    0    1
 -2       494       632       633      2717      2721      2719
 -1      1114    8    0    1
 -2       496       495       634      2305      2722      2723
 -1      1115    8    0    1
 -2       495       633       634      2720      2724      2722
 -1      1116    8    0    1
 -2       497       496       587      2308      2725      2726
 -1      1117    8    0    1
 -2       498       497       587      2311      2726      2727
 -1      1118    8    0    1
 -2       499       498       603      2314      2728      2729
 -1      1119    8    0    1
 -2       500       499       604      2317      2730      2731
 -1      1120    8    0    1
 -2       501       500       602      2320      2732      2733
 -1      1121    8    0    1
 -2       503       502       635      2326      2734      2735
 -1      1122    8    0    1
 -2       504       503       636      2329      2736      2737
 -1      1123    8    0    1
 -2       503       635       636      2735      2738      2736
 -1      1124    8    0    1
 -2       505       504       637      2332      2739      2740
 -1      1125    8    0    1
 -2       504       636       637      2737      2741      2739
 -1      1126    8    0    1
 -2       506       505       638      2335      2742      2743
 -1      1127    8    0    1
 -2       505       637       638      2740      2744      2742
 -1      1128    8    0    1
 -2       507       506       639      2338      2745      2746
 -1      1129    8    0    1
 -2       506       638       639      2743      2747      2745
 -1      1130    8    0    1
 -2       508       507       640      2341      2748      2749
 -1      1131    8    0    1
 -2       507       639       640      2746      2750      2748
 -1      1132    8    0    1
 -2       509       508       641      2344      2751      2752
 -1      1133    8    0    1
 -2       508       640       641      2749      2753      2751
 -1      1134    8    0    1
 -2       510       509       642      2347      2754      2755
 -1      1135    8    0    1
 -2       509       641       642      2752      2756      2754
 -1      1136    8    0    1
 -2       511       510       643      2350      2757      2758
 -1      1137    8    0    1
 -2       510       642       643      2755      2759      2757
 -1      1138    8    0    1
 -2       512       511       644      2353      2760      2761
 -1      1139    8    0    1
 -2       511       643       644      2758      2762      2760
 -1      1140    8    0    1
 -2       513       512       645      2356      2763      2764
 -1      1141    8    0    1
 -2       512       644       645      2761      2765      2763
 -1      1142    8    0    1
 -2       514       513       646      2359      2766      2767
 -1      1143    8    0    1
 -2       513       645       646      2764      2768      2766
 -1      1144    8    0    1
 -2       515       514       647      2362      2769      2770
 -1      1145    8    0    1
 -2       514       646       647      2767      2771      2769
 -1      1146    8    0    1
 -2       516       515       648      2365      2772      2773
 -1      1147    8    0    1
 -2       515       647       648      2770      2774      2772
 -1      1148    8    0    1
 -2       517       516       649      2368      2775      2776
 -1      1149    8    0    1
 -2       516       648       649      2773      2777      2775
 -1      1150    8    0    1
 -2       518       517       650      2371      2778      2779
 -1      1151    8    0    1
 -2       517       649       650      2776      2780      2778
 -1      1152    8    0    1
 -2       519       518       651      2374      2781      2782
 -1      1153    8    0    1
 -2       518       650       651      2779      2783      2781
 -1      1154    8    0    1
 -2       520       519       652      2377      2784      2785
 -1      1155    8    0    1
 -2       519       651       652      2782      2786      2784
 -1      1156    8    0    1
 -2       521       520       653      2380      2787      2788
 -1      1157    8    0    1
 -2       520       652       653      2785      2789      2787
 -1      1158    8    0    1
 -2       522       521       654      2383      2790      2791
 -1      1159    8    0    1
 -2       521       653       654      2788      2792      2790
 -1      1160    8    0    1
 -2       523       522       655      2386      2793      2794
 -1      1161    8    0    1
 -2       522       654       655      2791      2795      2793
 -1      1162    8    0    1
 -2       524       523       656      2389      2796      2797
 -1      1163    8    0    1
 -2       523       655       656      2794      2798      2796
 -1      1164    8    0    1
 -2       525       524       657      2392      2799      2800
 -1      1165    8    0    1
 -2       524       656       657      2797      2801      2799
 -1      1166    8    0    1
 -2       526       525       658      2395      2802      2803
 -1      1167    8    0    1
 -2       525       657       658      2800      2804      2802
 -1      1168    8    0    1
 -2       528       529       659      2403      2805      2806
 -1      1169    8    0    1
 -2       568       571       660      2670      2807      2808
 -1      1170    8    0    1
 -2       568       660       567      2808      2809      2520
 -1      1171    8    0    1
 -2       527       528       661      2400      2810      2811
 -1      1172    8    0    1
 -2       528       659       661      2806      2812      2810
 -1      1173    8    0    1
 -2       530       531       662      2409      2813      2814
 -1      1174    8    0    1
 -2       531       532       663      2412      2815      2816
 -1      1175    8    0    1
 -2       531       663       662      2816      2817      2813
 -1      1176    8    0    1
 -2       532       533       664      2415      2818      2819
 -1      1177    8    0    1
 -2       532       664       663      2819      2820      2815
 -1      1178    8    0    1
 -2       533       534       665      2418      2821      2822
 -1      1179    8    0    1
 -2       533       665       664      2822      2823      2818
 -1      1180    8    0    1
 -2       534       535       666      2421      2824      2825
 -1      1181    8    0    1
 -2       534       666       665      2825      2826      2821
 -1      1182    8    0    1
 -2       535       536       667      2424      2827      2828
 -1      1183    8    0    1
 -2       535       667       666      2828      2829      2824
 -1      1184    8    0    1
 -2       536       537       668      2427      2830      2831
 -1      1185    8    0    1
 -2       536       668       667      2831      2832      2827
 -1      1186    8    0    1
 -2       537       538       669      2430      2833      2834
 -1      1187    8    0    1
 -2       537       669       668      2834      2835      2830
 -1      1188    8    0    1
 -2       538       539       670      2433      2836      2837
 -1      1189    8    0    1
 -2       538       670       669      2837      2838      2833
 -1      1190    8    0    1
 -2       539       540       671      2436      2839      2840
 -1      1191    8    0    1
 -2       539       671       670      2840      2841      2836
 -1      1192    8    0    1
 -2       540       541       672      2439      2842      2843
 -1      1193    8    0    1
 -2       540       672       671      2843      2844      2839
 -1      1194    8    0    1
 -2       541       542       673      2442      2845      2846
 -1      1195    8    0    1
 -2       541       673       672      2846      2847      2842
 -1      1196    8    0    1
 -2       542       543       674      2445      2848      2849
 -1      1197    8    0    1
 -2       542       674       673      2849      2850      2845
 -1      1198    8    0    1
 -2       543       544       675      2448      2851      2852
 -1      1199    8    0    1
 -2       543       675       674      2852      2853      2848
 -1      1200    8    0    1
 -2       544       545       676      2451      2854      2855
 -1      1201    8    0    1
 -2       544       676       675      2855      2856      2851
 -1      1202    8    0    1
 -2       545       546       677      2454      2857      2858
 -1      1203    8    0    1
 -2       545       677       676      2858      2859      2854
 -1      1204    8    0    1
 -2       546       547       678      2457      2860      2861
 -1      1205    8    0    1
 -2       546       678       677      2861      2862      2857
 -1      1206    8    0    1
 -2       547       548       679      2460      2863      2864
 -1      1207    8    0    1
 -2       547       679       678      2864      2865      2860
 -1      1208    8    0    1
 -2       548       549       680      2463      2866      2867
 -1      1209    8    0    1
 -2       548       680       679      2867      2868      2863
 -1      1210    8    0    1
 -2       549       550       681      2466      2869      2870
 -1      1211    8    0    1
 -2       549       681       680      2870      2871      2866
 -1      1212    8    0    1
 -2       550       551       682      2469      2872      2873
 -1      1213    8    0    1
 -2       550       682       681      2873      2874      2869
 -1      1214    8    0    1
 -2       551       552       683      2472      2875      2876
 -1      1215    8    0    1
 -2       551       683       682      2876      2877      2872
 -1      1216    8    0    1
 -2       552       553       684      2475      2878      2879
 -1      1217    8    0    1
 -2       552       684       683      2879      2880      2875
 -1      1218    8    0    1
 -2       553       554       685      2478      2881      2882
 -1      1219    8    0    1
 -2       553       685       684      2882      2883      2878
 -1      1220    8    0    1
 -2       554       555       686      2481      2884      2885
 -1      1221    8    0    1
 -2       554       686       685      2885      2886      2881
 -1      1222    8    0    1
 -2       555       556       687      2484      2887      2888
 -1      1223    8    0    1
 -2       555       687       686      2888      2889      2884
 -1      1224    8    0    1
 -2       556       557       688      2487      2890      2891
 -1      1225    8    0    1
 -2       556       688       687      2891      2892      2887
 -1      1226    8    0    1
 -2       557       558       689      2490      2893      2894
 -1      1227    8    0    1
 -2       557       689       688      2894      2895      2890
 -1      1228    8    0    1
 -2       558       559       690      2493      2896      2897
 -1      1229    8    0    1
 -2       558       690       689      2897      2898      2893
 -1      1230    8    0    1
 -2       559       560       691      2496      2899      2900
 -1      1231    8    0    1
 -2       559       691       690      2900      2901      2896
 -1      1232    8    0    1
 -2       560       561       692      2499      2902      2903
 -1      1233    8    0    1
 -2       560       692       691      2903      2904      2899
 -1      1234    8    0    1
 -2       561       562       693      2502      2905      2906
 -1      1235    8    0    1
 -2       561       693       692      2906      2907      2902
 -1      1236    8    0    1
 -2       562       563       694      2505      2908      2909
 -1      1237    8    0    1
 -2       562       694       693      2909      2910      2905
 -1      1238    8    0    1
 -2       563       564       695      2508      2911      2912
 -1      1239    8    0    1
 -2       563       695       694      2912      2913      2908
 -1      1240    8    0    1
 -2       564       565       696      2511      2914      2915
 -1      1241    8    0    1
 -2       564       696       695      2915      2916      2911
 -1      1242    8    0    1
 -2       565       566       697      2514      2917      2918
 -1      1243    8    0    1
 -2       565       697       696      2918      2919      2914
 -1      1244    8    0    1
 -2       566       567       698      2517      2920      2921
 -1      1245    8    0    1
 -2       697       566       698      2917      2921      2922
 -1      1246    8    0    1
 -2       567       660       698      2809      2923      2920
 -1      1247    8    0    1
 -2       581       609       699      2639      2924      2925
 -1      1248    8    0    1
 -2       573       574       700      2538      2926      2927
 -1      1249    8    0    1
 -2       614       526       701      2671      2928      2929
 -1      1250    8    0    1
 -2       526       658       701      2803      2930      2928
 -1      1251    8    0    1
 -2       569       570       702      2526      2931      2932
 -1      1252    8    0    1
 -2       574       575       703      2541      2933      2934
 -1      1253    8    0    1
 -2       574       703       700      2934      2935      2926
 -1      1254    8    0    1
 -2       570       573       704      2535      2936      2937
 -1      1255    8    0    1
 -2       702       570       704      2931      2937      2938
 -1      1256    8    0    1
 -2       573       700       704      2927      2939      2936
 -1      1257    8    0    1
 -2       575       576       705      2544      2940      2941
 -1      1258    8    0    1
 -2       575       705       703      2941      2942      2933
 -1      1259    8    0    1
 -2       576       577       706      2547      2943      2944
 -1      1260    8    0    1
 -2       576       706       705      2944      2945      2940
 -1      1261    8    0    1
 -2       577       578       707      2550      2946      2947
 -1      1262    8    0    1
 -2       577       707       706      2947      2948      2943
 -1      1263    8    0    1
 -2       482       585       708      2569      2949      2950
 -1      1264    8    0    1
 -2       584       581       709      2566      2951      2952
 -1      1265    8    0    1
 -2       580       584       710      2642      2953      2954
 -1      1266    8    0    1
 -2       600       588       711      2643      2955      2956
 -1      1267    8    0    1
 -2       608       472       480      2622      2957      2645
 -1      1268    8    0    1
 -2       602       500       604      2732      2731      2634
 -1      1269    8    0    1
 -2       604       499       603      2730      2729      2635
 -1      1270    8    0    1
 -2       599       600       712      2644      2958      2959
 -1      1271    8    0    1
 -2       600       711       712      2956      2960      2958
 -1      1272    8    0    1
 -2       594       597       713      2655      2961      2962
 -1      1273    8    0    1
 -2       582       527       714      2560      2963      2964
 -1      1274    8    0    1
 -2       527       661       714      2811      2965      2963
 -1      1275    8    0    1
 -2       529       530       715      2406      2966      2967
 -1      1276    8    0    1
 -2       659       529       715      2805      2967      2968
 -1      1277    8    0    1
 -2       530       662       715      2814      2969      2966
 -1      1278    8    0    1
 -2       481       582       716      2629      2970      2971
 -1      1279    8    0    1
 -2       619       481       716      2682      2971      2972
 -1      1280    8    0    1
 -2       582       714       716      2964      2973      2970
 -1      1281    8    0    1
 -2       607       586       717      2661      2974      2975
 -1      1282    8    0    1
 -2       586       621       717      2687      2976      2974
 -1      1283    8    0    1
 -2       588       601       718      2648      2977      2978
 -1      1284    8    0    1
 -2       484       482       719      2269      2979      2980
 -1      1285    8    0    1
 -2       623       484       719      2690      2980      2981
 -1      1286    8    0    1
 -2       482       708       719      2950      2982      2979
 -1      1287    8    0    1
 -2       471       596       720      2659      2983      2984
 -1      1288    8    0    1
 -2       593       590       721      2660      2985      2986
 -1      1289    8    0    1
 -2       477       478       722      2253      2987      2988
 -1      1290    8    0    1
 -2       615       477       722      2672      2988      2989
 -1      1291    8    0    1
 -2       478       617       722      2678      2990      2987
 -1      1292    8    0    1
 -2       474       473       723      2242      2991      2992
 -1      1293    8    0    1
 -2       595       589       724      2654      2993      2994
 -1      1294    8    0    1
 -2       596       599       725      2653      2995      2996
 -1      1295    8    0    1
 -2       579       614       701      2668      2929      2997
 -1      1296    8    0    1
 -2       585       445       708      2647      2998      2949
 -1      1297    8    0    1
 -2       583       580       726      2641      2999      3000
 -1      1298    8    0    1
 -2       605       606       727      2616      3001      3002
 -1      1299    8    0    1
 -2       609       483       728      2631      3003      3004
 -1      1300    8    0    1
 -2       592       595       729      2665      3005      3006
 -1      1301    8    0    1
 -2       590       592       730      2625      3007      3008
 -1      1302    8    0    1
 -2       587       496       634      2725      2723      3009
 -1      1303    8    0    1
 -2       501       602       731      2733      3010      3011
 -1      1304    8    0    1
 -2       502       501       731      2323      3011      3012
 -1      1305    8    0    1
 -2       602       605       731      2637      3013      3010
 -1      1306    8    0    1
 -2       610       474       732      2626      3014      3015
 -1      1307    8    0    1
 -2       474       723       732      2992      3016      3014
 -1      1308    8    0    1
 -2       475       616       733      2675      3017      3018
 -1      1309    8    0    1
 -2       475       733       591      3018      3019      2585
 -1      1310    8    0    1
 -2       470       620       613      2685      3020      2664
 -1      1311    8    0    1
 -2       598       603       498      2646      2728      3021
 -1      1312    8    0    1
 -2       588       718       711      2978      3022      2955
 -1      1313    8    0    1
 -2       606       622       727      2689      3023      3001
 -1      1314    8    0    1
 -2       502       731       635      3012      3024      2734
 -1      1315    8    0    1
 -2       731       605       727      3013      3002      3025
 -1      1316    8    0    1
 -2       498       587       598      2727      2649      3021
 -1      1317    8    0    1
 -2       728       483       613      3003      2663      3026
 -1      1318    8    0    1
 -2       569       702       734      2932      3027      3028
 -1      1319    8    0    1
 -2       569       734       572      3028      3029      2532
 -1      1320    8    0    1
 -2       581       699       709      2925      3030      2951
 -1      1321    8    0    1
 -2       699       609       728      2924      3004      3031
 -1      1322    8    0    1
 -2       708       445       610      2998      2628      3032
 -1      1323    8    0    1
 -2       571       572       660      2531      3033      2807
 -1      1324    8    0    1
 -2       471       720       611      2984      3034      2652
 -1      1325    8    0    1
 -2       583       726       621      3000      3035      2686
 -1      1326    8    0    1
 -2       578       579       701      2553      2997      3036
 -1      1327    8    0    1
 -2       618       480       619      2679      3037      3038
 -1      1328    8    0    1
 -2       584       709       710      2952      3039      2953
 -1      1329    8    0    1
 -2       580       710       726      2954      3040      2999
 -1      1330    8    0    1
 -2       594       713       735      2962      3041      3042
 -1      1331    8    0    1
 -2       594       735       612      3042      3043      2658
 -1      1332    8    0    1
 -2       480       472       619      2957      2683      3037
 -1      1333    8    0    1
 -2       729       595       724      3005      2994      3044
 -1      1334    8    0    1
 -2       713       597       736      2961      3045      3046
 -1      1335    8    0    1
 -2       597       611       736      2651      3047      3045
 -1      1336    8    0    1
 -2       607       717       622      2975      3048      2688
 -1      1337    8    0    1
 -2       720       596       737      2983      3049      3050
 -1      1338    8    0    1
 -2       596       725       737      2996      3051      3049
 -1      1339    8    0    1
 -2       473       591       738      2584      3052      3053
 -1      1340    8    0    1
 -2       723       473       738      2991      3053      3054
 -1      1341    8    0    1
 -2       591       733       738      3019      3055      3052
 -1      1342    8    0    1
 -2       721       590       730      2985      3008      3056
 -1      1343    8    0    1
 -2       725       599       712      2995      2959      3057
 -1      1344    8    0    1
 -2       593       721       739      2986      3058      3059
 -1      1345    8    0    1
 -2       593       739       620      3059      3060      2684
 -1      1346    8    0    1
 -2       578       701       740      3036      3061      3062
 -1      1347    8    0    1
 -2       707       578       740      2946      3062      3063
 -1      1348    8    0    1
 -2       701       658       740      2930      3064      3061
 -1      1349    8    0    1
 -2       724       589       741      2993      3065      3066
 -1      1350    8    0    1
 -2       589       612       741      2657      3067      3065
 -1      1351    8    0    1
 -2       601       587       634      2636      3009      3068
 -1      1352    8    0    1
 -2       617       618       742      2681      3069      3070
 -1      1353    8    0    1
 -2       717       621       743      2976      3071      3072
 -1      1354    8    0    1
 -2       712       711       744      2960      3073      3074
 -1      1355    8    0    1
 -2       721       730       745      3056      3075      3076
 -1      1356    8    0    1
 -2       625       624       746      2697      3077      3078
 -1      1357    8    0    1
 -2       626       625       747      2700      3079      3080
 -1      1358    8    0    1
 -2       625       746       747      3078      3081      3079
 -1      1359    8    0    1
 -2       627       626       748      2703      3082      3083
 -1      1360    8    0    1
 -2       626       747       748      3080      3084      3082
 -1      1361    8    0    1
 -2       628       627       749      2706      3085      3086
 -1      1362    8    0    1
 -2       627       748       749      3083      3087      3085
 -1      1363    8    0    1
 -2       629       628       750      2709      3088      3089
 -1      1364    8    0    1
 -2       628       749       750      3086      3090      3088
 -1      1365    8    0    1
 -2       630       629       751      2712      3091      3092
 -1      1366    8    0    1
 -2       629       750       751      3089      3093      3091
 -1      1367    8    0    1
 -2       631       630       752      2715      3094      3095
 -1      1368    8    0    1
 -2       630       751       752      3092      3096      3094
 -1      1369    8    0    1
 -2       632       631       753      2718      3097      3098
 -1      1370    8    0    1
 -2       631       752       753      3095      3099      3097
 -1      1371    8    0    1
 -2       633       632       744      2721      3100      3101
 -1      1372    8    0    1
 -2       637       636       754      2741      3102      3103
 -1      1373    8    0    1
 -2       638       637       755      2744      3104      3105
 -1      1374    8    0    1
 -2       637       754       755      3103      3106      3104
 -1      1375    8    0    1
 -2       639       638       756      2747      3107      3108
 -1      1376    8    0    1
 -2       638       755       756      3105      3109      3107
 -1      1377    8    0    1
 -2       640       639       757      2750      3110      3111
 -1      1378    8    0    1
 -2       639       756       757      3108      3112      3110
 -1      1379    8    0    1
 -2       641       640       758      2753      3113      3114
 -1      1380    8    0    1
 -2       640       757       758      3111      3115      3113
 -1      1381    8    0    1
 -2       642       641       759      2756      3116      3117
 -1      1382    8    0    1
 -2       641       758       759      3114      3118      3116
 -1      1383    8    0    1
 -2       643       642       760      2759      3119      3120
 -1      1384    8    0    1
 -2       642       759       760      3117      3121      3119
 -1      1385    8    0    1
 -2       644       643       761      2762      3122      3123
 -1      1386    8    0    1
 -2       643       760       761      3120      3124      3122
 -1      1387    8    0    1
 -2       645       644       762      2765      3125      3126
 -1      1388    8    0    1
 -2       644       761       762      3123      3127      3125
 -1      1389    8    0    1
 -2       646       645       763      2768      3128      3129
 -1      1390    8    0    1
 -2       645       762       763      3126      3130      3128
 -1      1391    8    0    1
 -2       647       646       764      2771      3131      3132
 -1      1392    8    0    1
 -2       646       763       764      3129      3133      3131
 -1      1393    8    0    1
 -2       648       647       765      2774      3134      3135
 -1      1394    8    0    1
 -2       647       764       765      3132      3136      3134
 -1      1395    8    0    1
 -2       649       648       766      2777      3137      3138
 -1      1396    8    0    1
 -2       648       765       766      3135      3139      3137
 -1      1397    8    0    1
 -2       650       649       767      2780      3140      3141
 -1      1398    8    0    1
 -2       649       766       767      3138      3142      3140
 -1      1399    8    0    1
 -2       651       650       768      2783      3143      3144
 -1      1400    8    0    1
 -2       650       767       768      3141      3145      3143
 -1      1401    8    0    1
 -2       652       651       769      2786      3146      3147
 -1      1402    8    0    1
 -2       651       768       769      3144      3148      3146
 -1      1403    8    0    1
 -2       653       652       770      2789      3149      3150
 -1      1404    8    0    1
 -2       652       769       770      3147      3151      3149
 -1      1405    8    0    1
 -2       654       653       771      2792      3152      3153
 -1      1406    8    0    1
 -2       653       770       771      3150      3154      3152
 -1      1407    8    0    1
 -2       655       654       772      2795      3155      3156
 -1      1408    8    0    1
 -2       654       771       772      3153      3157      3155
 -1      1409    8    0    1
 -2       656       655       773      2798      3158      3159
 -1      1410    8    0    1
 -2       655       772       773      3156      3160      3158
 -1      1411    8    0    1
 -2       657       656       774      2801      3161      3162
 -1      1412    8    0    1
 -2       656       773       774      3159      3163      3161
 -1      1413    8    0    1
 -2       658       657       775      2804      3164      3165
 -1      1414    8    0    1
 -2       740       658       775      3064      3165      3166
 -1      1415    8    0    1
 -2       657       774       775      3162      3167      3164
 -1      1416    8    0    1
 -2       661       659       776      2812      3168      3169
 -1      1417    8    0    1
 -2       663       664       777      2820      3170      3171
 -1      1418    8    0    1
 -2       662       663       778      2817      3172      3173
 -1      1419    8    0    1
 -2       663       777       778      3171      3174      3172
 -1      1420    8    0    1
 -2       665       666       779      2826      3175      3176
 -1      1421    8    0    1
 -2       666       667       780      2829      3177      3178
 -1      1422    8    0    1
 -2       666       780       779      3178      3179      3175
 -1      1423    8    0    1
 -2       667       668       781      2832      3180      3181
 -1      1424    8    0    1
 -2       667       781       780      3181      3182      3177
 -1      1425    8    0    1
 -2       668       669       782      2835      3183      3184
 -1      1426    8    0    1
 -2       668       782       781      3184      3185      3180
 -1      1427    8    0    1
 -2       669       670       783      2838      3186      3187
 -1      1428    8    0    1
 -2       669       783       782      3187      3188      3183
 -1      1429    8    0    1
 -2       670       671       745      2841      3189      3190
 -1      1430    8    0    1
 -2       671       672       745      2844      3191      3189
 -1      1431    8    0    1
 -2       672       673       784      2847      3192      3193
 -1      1432    8    0    1
 -2       673       674       785      2850      3194      3195
 -1      1433    8    0    1
 -2       673       785       784      3195      3196      3192
 -1      1434    8    0    1
 -2       674       675       786      2853      3197      3198
 -1      1435    8    0    1
 -2       674       786       785      3198      3199      3194
 -1      1436    8    0    1
 -2       675       676       787      2856      3200      3201
 -1      1437    8    0    1
 -2       675       787       786      3201      3202      3197
 -1      1438    8    0    1
 -2       676       677       788      2859      3203      3204
 -1      1439    8    0    1
 -2       676       788       787      3204      3205      3200
 -1      1440    8    0    1
 -2       677       678       789      2862      3206      3207
 -1      1441    8    0    1
 -2       677       789       788      3207      3208      3203
 -1      1442    8    0    1
 -2       678       679       790      2865      3209      3210
 -1      1443    8    0    1
 -2       678       790       789      3210      3211      3206
 -1      1444    8    0    1
 -2       679       680       791      2868      3212      3213
 -1      1445    8    0    1
 -2       679       791       790      3213      3214      3209
 -1      1446    8    0    1
 -2       680       681       792      2871      3215      3216
 -1      1447    8    0    1
 -2       680       792       791      3216      3217      3212
 -1      1448    8    0    1
 -2       681       682       793      2874      3218      3219
 -1      1449    8    0    1
 -2       681       793       792      3219      3220      3215
 -1      1450    8    0    1
 -2       682       683       794      2877      3221      3222
 -1      1451    8    0    1
 -2       682       794       793      3222      3223      3218
 -1      1452    8    0    1
 -2       683       684       795      2880      3224      3225
 -1      1453    8    0    1
 -2       683       795       794      3225      3226      3221
 -1      1454    8    0    1
 -2       684       685       796      2883      3227      3228
 -1      1455    8    0    1
 -2       684       796       795      3228      3229      3224
 -1      1456    8    0    1
 -2       685       686       797      2886      3230      3231
 -1      1457    8    0    1
 -2       685       797       796      3231      3232      3227
 -1      1458    8    0    1
 -2       686       687       798      2889      3233      3234
 -1      1459    8    0    1
 -2       686       798       797      3234      3235      3230
 -1      1460    8    0    1
 -2       687       688       799      2892      3236      3237
 -1      1461    8    0    1
 -2       687       799       798      3237      3238      3233
 -1      1462    8    0    1
 -2       688       689       800      2895      3239      3240
 -1      1463    8    0    1
 -2       688       800       799      3240      3241      3236
 -1      1464    8    0    1
 -2       689       690       801      2898      3242      3243
 -1      1465    8    0    1
 -2       689       801       800      3243      3244      3239
 -1      1466    8    0    1
 -2       690       691       802      2901      3245      3246
 -1      1467    8    0    1
 -2       690       802       801      3246      3247      3242
 -1      1468    8    0    1
 -2       691       692       803      2904      3248      3249
 -1      1469    8    0    1
 -2       691       803       802      3249      3250      3245
 -1      1470    8    0    1
 -2       692       693       804      2907      3251      3252
 -1      1471    8    0    1
 -2       692       804       803      3252      3253      3248
 -1      1472    8    0    1
 -2       693       694       805      2910      3254      3255
 -1      1473    8    0    1
 -2       693       805       804      3255      3256      3251
 -1      1474    8    0    1
 -2       694       695       806      2913      3257      3258
 -1      1475    8    0    1
 -2       694       806       805      3258      3259      3254
 -1      1476    8    0    1
 -2       695       696       807      2916      3260      3261
 -1      1477    8    0    1
 -2       695       807       806      3261      3262      3257
 -1      1478    8    0    1
 -2       696       697       808      2919      3263      3264
 -1      1479    8    0    1
 -2       696       808       807      3264      3265      3260
 -1      1480    8    0    1
 -2       703       705       809      2942      3266      3267
 -1      1481    8    0    1
 -2       706       707       810      2948      3268      3269
 -1      1482    8    0    1
 -2       700       703       811      2935      3270      3271
 -1      1483    8    0    1
 -2       703       809       811      3267      3272      3270
 -1      1484    8    0    1
 -2       699       728       812      3031      3273      3274
 -1      1485    8    0    1
 -2       729       724       813      3044      3275      3276
 -1      1486    8    0    1
 -2       710       709       814      3039      3277      3278
 -1      1487    8    0    1
 -2       727       622       815      3023      3279      3280
 -1      1488    8    0    1
 -2       726       710       816      3040      3281      3282
 -1      1489    8    0    1
 -2       705       706       817      2945      3283      3284
 -1      1490    8    0    1
 -2       809       705       817      3266      3284      3285
 -1      1491    8    0    1
 -2       706       810       817      3269      3286      3283
 -1      1492    8    0    1
 -2       664       665       818      2823      3287      3288
 -1      1493    8    0    1
 -2       777       664       818      3170      3288      3289
 -1      1494    8    0    1
 -2       665       779       818      3176      3290      3287
 -1      1495    8    0    1
 -2       611       720       819      3034      3291      3292
 -1      1496    8    0    1
 -2       611       819       736      3292      3293      3047
 -1      1497    8    0    1
 -2       636       635       815      2738      3294      3295
 -1      1498    8    0    1
 -2       621       726       820      3035      3296      3297
 -1      1499    8    0    1
 -2       621       820       743      3297      3298      3071
 -1      1500    8    0    1
 -2       731       727       635      3025      3299      3024
 -1      1501    8    0    1
 -2       714       661       821      2965      3300      3301
 -1      1502    8    0    1
 -2       661       776       821      3169      3302      3300
 -1      1503    8    0    1
 -2       613       620       822      3020      3303      3304
 -1      1504    8    0    1
 -2       660       572       734      3033      3029      3305
 -1      1505    8    0    1
 -2       624       623       823      2694      3306      3307
 -1      1506    8    0    1
 -2       624       823       746      3307      3308      3077
 -1      1507    8    0    1
 -2       709       699       824      3030      3309      3310
 -1      1508    8    0    1
 -2       709       824       814      3310      3311      3277
 -1      1509    8    0    1
 -2       728       613       825      3026      3312      3313
 -1      1510    8    0    1
 -2       613       822       825      3304      3314      3312
 -1      1511    8    0    1
 -2       635       727       815      3299      3280      3294
 -1      1512    8    0    1
 -2       622       717       826      3048      3315      3316
 -1      1513    8    0    1
 -2       717       743       826      3072      3317      3315
 -1      1514    8    0    1
 -2       618       619       827      3038      3318      3319
 -1      1515    8    0    1
 -2       742       618       827      3069      3319      3320
 -1      1516    8    0    1
 -2       619       716       827      2972      3321      3318
 -1      1517    8    0    1
 -2       730       592       828      3007      3322      3323
 -1      1518    8    0    1
 -2       828       592       729      3322      3006      3324
 -1      1519    8    0    1
 -2       730       828       829      3323      3325      3326
 -1      1520    8    0    1
 -2       616       615       830      2676      3327      3328
 -1      1521    8    0    1
 -2       708       610       732      3032      3015      3329
 -1      1522    8    0    1
 -2       725       712       831      3057      3330      3331
 -1      1523    8    0    1
 -2       733       616       832      3017      3332      3333
 -1      1524    8    0    1
 -2       616       830       832      3328      3334      3332
 -1      1525    8    0    1
 -2       712       744       831      3074      3335      3330
 -1      1526    8    0    1
 -2       633       744       711      3101      3073      3336
 -1      1527    8    0    1
 -2       632       753       744      3098      3337      3100
 -1      1528    8    0    1
 -2       634       633       711      2724      3336      3338
 -1      1529    8    0    1
 -2       734       702       833      3027      3339      3340
 -1      1530    8    0    1
 -2       732       723       834      3016      3341      3342
 -1      1531    8    0    1
 -2       819       720       835      3291      3343      3344
 -1      1532    8    0    1
 -2       720       737       835      3050      3345      3343
 -1      1533    8    0    1
 -2       716       714       836      2973      3346      3347
 -1      1534    8    0    1
 -2       827       716       836      3321      3347      3348
 -1      1535    8    0    1
 -2       714       821       836      3301      3349      3346
 -1      1536    8    0    1
 -2       662       778       837      3173      3350      3351
 -1      1537    8    0    1
 -2       662       837       715      3351      3352      2969
 -1      1538    8    0    1
 -2       672       784       745      3193      3353      3191
 -1      1539    8    0    1
 -2       699       812       838      3274      3354      3355
 -1      1540    8    0    1
 -2       699       838       824      3355      3356      3309
 -1      1541    8    0    1
 -2       808       697       839      3263      3357      3358
 -1      1542    8    0    1
 -2       697       698       839      2922      3359      3357
 -1      1543    8    0    1
 -2       816       710       840      3281      3360      3361
 -1      1544    8    0    1
 -2       710       814       840      3278      3362      3360
 -1      1545    8    0    1
 -2       702       704       841      2938      3363      3364
 -1      1546    8    0    1
 -2       702       841       833      3364      3365      3339
 -1      1547    8    0    1
 -2       659       715       842      2968      3366      3367
 -1      1548    8    0    1
 -2       715       837       842      3352      3368      3366
 -1      1549    8    0    1
 -2       815       622       826      3279      3316      3369
 -1      1550    8    0    1
 -2       812       728       825      3273      3313      3370
 -1      1551    8    0    1
 -2       704       700       843      2939      3371      3372
 -1      1552    8    0    1
 -2       841       704       843      3363      3372      3373
 -1      1553    8    0    1
 -2       700       811       843      3271      3374      3371
 -1      1554    8    0    1
 -2       725       831       844      3331      3375      3376
 -1      1555    8    0    1
 -2       725       844       737      3376      3377      3051
 -1      1556    8    0    1
 -2       741       612       845      3067      3378      3379
 -1      1557    8    0    1
 -2       612       735       845      3043      3380      3378
 -1      1558    8    0    1
 -2       726       816       820      3282      3381      3296
 -1      1559    8    0    1
 -2       735       713       846      3041      3382      3383
 -1      1560    8    0    1
 -2       636       815       754      3295      3384      3102
 -1      1561    8    0    1
 -2       822       620       739      3303      3060      3385
 -1      1562    8    0    1
 -2       660       734       847      3305      3386      3387
 -1      1563    8    0    1
 -2       698       660       847      2923      3387      3388
 -1      1564    8    0    1
 -2       734       833       847      3340      3389      3386
 -1      1565    8    0    1
 -2       823       623       848      3306      3390      3391
 -1      1566    8    0    1
 -2       623       719       848      2981      3392      3390
 -1      1567    8    0    1
 -2       722       617       849      2990      3393      3394
 -1      1568    8    0    1
 -2       617       742       849      3070      3395      3393
 -1      1569    8    0    1
 -2       719       708       732      2982      3329      3396
 -1      1570    8    0    1
 -2       745       730       829      3075      3326      3397
 -1      1571    8    0    1
 -2       776       659       842      3168      3367      3398
 -1      1572    8    0    1
 -2       615       722       850      2989      3399      3400
 -1      1573    8    0    1
 -2       830       615       850      3327      3400      3401
 -1      1574    8    0    1
 -2       722       849       850      3394      3402      3399
 -1      1575    8    0    1
 -2       713       736       846      3046      3403      3382
 -1      1576    8    0    1
 -2       723       738       851      3054      3404      3405
 -1      1577    8    0    1
 -2       723       851       834      3405      3406      3341
 -1      1578    8    0    1
 -2       828       729       852      3324      3407      3408
 -1      1579    8    0    1
 -2       829       828       852      3325      3408      3409
 -1      1580    8    0    1
 -2       729       813       852      3276      3410      3407
 -1      1581    8    0    1
 -2       707       740       853      3063      3411      3412
 -1      1582    8    0    1
 -2       810       707       853      3268      3412      3413
 -1      1583    8    0    1
 -2       740       775       853      3166      3414      3411
 -1      1584    8    0    1
 -2       755       754       854      3106      3415      3416
 -1      1585    8    0    1
 -2       721       745       784      3076      3353      3417
 -1      1586    8    0    1
 -2       748       747       855      3084      3418      3419
 -1      1587    8    0    1
 -2       749       748       856      3087      3420      3421
 -1      1588    8    0    1
 -2       748       855       856      3419      3422      3420
 -1      1589    8    0    1
 -2       750       749       857      3090      3423      3424
 -1      1590    8    0    1
 -2       749       856       857      3421      3425      3423
 -1      1591    8    0    1
 -2       751       750       858      3093      3426      3427
 -1      1592    8    0    1
 -2       750       857       858      3424      3428      3426
 -1      1593    8    0    1
 -2       752       751       859      3096      3429      3430
 -1      1594    8    0    1
 -2       751       858       859      3427      3431      3429
 -1      1595    8    0    1
 -2       753       752       860      3099      3432      3433
 -1      1596    8    0    1
 -2       752       859       860      3430      3434      3432
 -1      1597    8    0    1
 -2       732       834       848      3342      3435      3436
 -1      1598    8    0    1
 -2       831       744       753      3335      3337      3437
 -1      1599    8    0    1
 -2       756       755       861      3109      3438      3439
 -1      1600    8    0    1
 -2       755       854       861      3416      3440      3438
 -1      1601    8    0    1
 -2       757       756       862      3112      3441      3442
 -1      1602    8    0    1
 -2       756       861       862      3439      3443      3441
 -1      1603    8    0    1
 -2       758       757       863      3115      3444      3445
 -1      1604    8    0    1
 -2       757       862       863      3442      3446      3444
 -1      1605    8    0    1
 -2       759       758       864      3118      3447      3448
 -1      1606    8    0    1
 -2       758       863       864      3445      3449      3447
 -1      1607    8    0    1
 -2       760       759       865      3121      3450      3451
 -1      1608    8    0    1
 -2       759       864       865      3448      3452      3450
 -1      1609    8    0    1
 -2       761       760       866      3124      3453      3454
 -1      1610    8    0    1
 -2       760       865       866      3451      3455      3453
 -1      1611    8    0    1
 -2       762       761       867      3127      3456      3457
 -1      1612    8    0    1
 -2       761       866       867      3454      3458      3456
 -1      1613    8    0    1
 -2       763       762       868      3130      3459      3460
 -1      1614    8    0    1
 -2       762       867       868      3457      3461      3459
 -1      1615    8    0    1
 -2       764       763       869      3133      3462      3463
 -1      1616    8    0    1
 -2       763       868       869      3460      3464      3462
 -1      1617    8    0    1
 -2       765       764       870      3136      3465      3466
 -1      1618    8    0    1
 -2       764       869       870      3463      3467      3465
 -1      1619    8    0    1
 -2       766       765       871      3139      3468      3469
 -1      1620    8    0    1
 -2       765       870       871      3466      3470      3468
 -1      1621    8    0    1
 -2       767       766       872      3142      3471      3472
 -1      1622    8    0    1
 -2       766       871       872      3469      3473      3471
 -1      1623    8    0    1
 -2       768       767       873      3145      3474      3475
 -1      1624    8    0    1
 -2       767       872       873      3472      3476      3474
 -1      1625    8    0    1
 -2       769       768       874      3148      3477      3478
 -1      1626    8    0    1
 -2       768       873       874      3475      3479      3477
 -1      1627    8    0    1
 -2       770       769       875      3151      3480      3481
 -1      1628    8    0    1
 -2       769       874       875      3478      3482      3480
 -1      1629    8    0    1
 -2       771       770       876      3154      3483      3484
 -1      1630    8    0    1
 -2       770       875       876      3481      3485      3483
 -1      1631    8    0    1
 -2       772       771       877      3157      3486      3487
 -1      1632    8    0    1
 -2       771       876       877      3484      3488      3486
 -1      1633    8    0    1
 -2       773       772       878      3160      3489      3490
 -1      1634    8    0    1
 -2       772       877       878      3487      3491      3489
 -1      1635    8    0    1
 -2       774       773       879      3163      3492      3493
 -1      1636    8    0    1
 -2       773       878       879      3490      3494      3492
 -1      1637    8    0    1
 -2       736       819       880      3293      3495      3496
 -1      1638    8    0    1
 -2       780       781       881      3182      3497      3498
 -1      1639    8    0    1
 -2       779       780       882      3179      3499      3500
 -1      1640    8    0    1
 -2       780       881       882      3498      3501      3499
 -1      1641    8    0    1
 -2       670       745       783      3190      3502      3186
 -1      1642    8    0    1
 -2       785       786       825      3199      3503      3504
 -1      1643    8    0    1
 -2       784       785       822      3196      3505      3506
 -1      1644    8    0    1
 -2       787       788       883      3205      3507      3508
 -1      1645    8    0    1
 -2       788       789       884      3208      3509      3510
 -1      1646    8    0    1
 -2       788       884       883      3510      3511      3507
 -1      1647    8    0    1
 -2       789       790       885      3211      3512      3513
 -1      1648    8    0    1
 -2       789       885       884      3513      3514      3509
 -1      1649    8    0    1
 -2       790       791       886      3214      3515      3516
 -1      1650    8    0    1
 -2       790       886       885      3516      3517      3512
 -1      1651    8    0    1
 -2       791       792       887      3217      3518      3519
 -1      1652    8    0    1
 -2       791       887       886      3519      3520      3515
 -1      1653    8    0    1
 -2       792       793       888      3220      3521      3522
 -1      1654    8    0    1
 -2       792       888       887      3522      3523      3518
 -1      1655    8    0    1
 -2       793       794       889      3223      3524      3525
 -1      1656    8    0    1
 -2       793       889       888      3525      3526      3521
 -1      1657    8    0    1
 -2       794       795       890      3226      3527      3528
 -1      1658    8    0    1
 -2       794       890       889      3528      3529      3524
 -1      1659    8    0    1
 -2       795       796       891      3229      3530      3531
 -1      1660    8    0    1
 -2       795       891       890      3531      3532      3527
 -1      1661    8    0    1
 -2       796       797       892      3232      3533      3534
 -1      1662    8    0    1
 -2       796       892       891      3534      3535      3530
 -1      1663    8    0    1
 -2       797       798       893      3235      3536      3537
 -1      1664    8    0    1
 -2       797       893       892      3537      3538      3533
 -1      1665    8    0    1
 -2       798       799       894      3238      3539      3540
 -1      1666    8    0    1
 -2       798       894       893      3540      3541      3536
 -1      1667    8    0    1
 -2       799       800       895      3241      3542      3543
 -1      1668    8    0    1
 -2       799       895       894      3543      3544      3539
 -1      1669    8    0    1
 -2       800       801       896      3244      3545      3546
 -1      1670    8    0    1
 -2       800       896       895      3546      3547      3542
 -1      1671    8    0    1
 -2       801       802       897      3247      3548      3549
 -1      1672    8    0    1
 -2       801       897       896      3549      3550      3545
 -1      1673    8    0    1
 -2       802       803       898      3250      3551      3552
 -1      1674    8    0    1
 -2       802       898       897      3552      3553      3548
 -1      1675    8    0    1
 -2       803       804       899      3253      3554      3555
 -1      1676    8    0    1
 -2       803       899       898      3555      3556      3551
 -1      1677    8    0    1
 -2       804       805       900      3256      3557      3558
 -1      1678    8    0    1
 -2       804       900       899      3558      3559      3554
 -1      1679    8    0    1
 -2       805       806       901      3259      3560      3561
 -1      1680    8    0    1
 -2       805       901       900      3561      3562      3557
 -1      1681    8    0    1
 -2       806       807       902      3262      3563      3564
 -1      1682    8    0    1
 -2       806       902       901      3564      3565      3560
 -1      1683    8    0    1
 -2       807       808       903      3265      3566      3567
 -1      1684    8    0    1
 -2       807       903       902      3567      3568      3563
 -1      1685    8    0    1
 -2       813       724       904      3275      3569      3570
 -1      1686    8    0    1
 -2       811       809       905      3272      3571      3572
 -1      1687    8    0    1
 -2       826       743       906      3317      3573      3574
 -1      1688    8    0    1
 -2       724       741       904      3066      3575      3569
 -1      1689    8    0    1
 -2       754       815       826      3384      3369      3576
 -1      1690    8    0    1
 -2       735       846       907      3383      3577      3578
 -1      1691    8    0    1
 -2       735       907       845      3578      3579      3380
 -1      1692    8    0    1
 -2       786       787       908      3202      3580      3581
 -1      1693    8    0    1
 -2       825       786       908      3503      3581      3582
 -1      1694    8    0    1
 -2       787       883       908      3508      3583      3580
 -1      1695    8    0    1
 -2       778       777       909      3174      3584      3585
 -1      1696    8    0    1
 -2       812       825       908      3370      3582      3586
 -1      1697    8    0    1
 -2       743       820       910      3298      3587      3588
 -1      1698    8    0    1
 -2       821       776       911      3302      3589      3590
 -1      1699    8    0    1
 -2       738       733       912      3055      3591      3592
 -1      1700    8    0    1
 -2       738       912       851      3592      3593      3404
 -1      1701    8    0    1
 -2       825       822       785      3314      3505      3504
 -1      1702    8    0    1
 -2       747       746       913      3081      3594      3595
 -1      1703    8    0    1
 -2       747       913       855      3595      3596      3418
 -1      1704    8    0    1
 -2       846       736       880      3403      3496      3597
 -1      1705    8    0    1
 -2       814       824       914      3311      3598      3599
 -1      1706    8    0    1
 -2       601       634       718      3068      3600      2977
 -1      1707    8    0    1
 -2       820       816       915      3381      3601      3602
 -1      1708    8    0    1
 -2       746       823       916      3308      3603      3604
 -1      1709    8    0    1
 -2       746       916       913      3604      3605      3594
 -1      1710    8    0    1
 -2       776       842       917      3398      3606      3607
 -1      1711    8    0    1
 -2       776       917       911      3607      3608      3589
 -1      1712    8    0    1
 -2       719       732       848      3396      3436      3392
 -1      1713    8    0    1
 -2       718       634       711      3600      3338      3022
 -1      1714    8    0    1
 -2       831       753       860      3437      3433      3609
 -1      1715    8    0    1
 -2       904       741       845      3575      3379      3610
 -1      1716    8    0    1
 -2       742       827       918      3320      3611      3612
 -1      1717    8    0    1
 -2       827       836       918      3348      3613      3611
 -1      1718    8    0    1
 -2       846       880       919      3597      3614      3615
 -1      1719    8    0    1
 -2       835       737       920      3345      3616      3617
 -1      1720    8    0    1
 -2       737       844       920      3377      3618      3616
 -1      1721    8    0    1
 -2       904       845       881      3610      3619      3620
 -1      1722    8    0    1
 -2       848       834       921      3435      3621      3622
 -1      1723    8    0    1
 -2       848       921       823      3622      3623      3391
 -1      1724    8    0    1
 -2       921       834       922      3621      3624      3625
 -1      1725    8    0    1
 -2       834       851       922      3406      3626      3624
 -1      1726    8    0    1
 -2       830       850       923      3401      3627      3628
 -1      1727    8    0    1
 -2       819       835       924      3344      3629      3630
 -1      1728    8    0    1
 -2       819       924       880      3630      3631      3495
 -1      1729    8    0    1
 -2       814       914       925      3599      3632      3633
 -1      1730    8    0    1
 -2       814       925       840      3633      3634      3362
 -1      1731    8    0    1
 -2       775       774       926      3167      3635      3636
 -1      1732    8    0    1
 -2       853       775       926      3414      3636      3637
 -1      1733    8    0    1
 -2       774       879       926      3493      3638      3635
 -1      1734    8    0    1
 -2       836       821       927      3349      3639      3640
 -1      1735    8    0    1
 -2       918       836       927      3613      3640      3641
 -1      1736    8    0    1
 -2       821       911       927      3590      3642      3639
 -1      1737    8    0    1
 -2       779       882       928      3500      3643      3644
 -1      1738    8    0    1
 -2       779       928       818      3644      3645      3290
 -1      1739    8    0    1
 -2       782       783       813      3188      3646      3647
 -1      1740    8    0    1
 -2       909       777       929      3584      3648      3649
 -1      1741    8    0    1
 -2       777       818       929      3289      3650      3648
 -1      1742    8    0    1
 -2       838       812       883      3354      3651      3652
 -1      1743    8    0    1
 -2       824       838       914      3356      3653      3598
 -1      1744    8    0    1
 -2       778       909       930      3585      3654      3655
 -1      1745    8    0    1
 -2       778       930       837      3655      3656      3350
 -1      1746    8    0    1
 -2       813       904       781      3570      3657      3658
 -1      1747    8    0    1
 -2       903       808       931      3566      3659      3660
 -1      1748    8    0    1
 -2       808       839       931      3358      3661      3659
 -1      1749    8    0    1
 -2       754       826       906      3576      3574      3662
 -1      1750    8    0    1
 -2       839       698       847      3359      3388      3663
 -1      1751    8    0    1
 -2       781       904       881      3657      3620      3497
 -1      1752    8    0    1
 -2       823       921       916      3623      3664      3603
 -1      1753    8    0    1
 -2       782       813       781      3647      3658      3185
 -1      1754    8    0    1
 -2       816       840       932      3361      3665      3666
 -1      1755    8    0    1
 -2       816       932       915      3666      3667      3601
 -1      1756    8    0    1
 -2       842       837       933      3368      3668      3669
 -1      1757    8    0    1
 -2       837       930       933      3656      3670      3668
 -1      1758    8    0    1
 -2       843       811       934      3374      3671      3672
 -1      1759    8    0    1
 -2       811       905       934      3572      3673      3671
 -1      1760    8    0    1
 -2       810       853       926      3413      3637      3674
 -1      1761    8    0    1
 -2       743       910       906      3588      3675      3573
 -1      1762    8    0    1
 -2       810       926       935      3674      3676      3677
 -1      1763    8    0    1
 -2       810       935       817      3677      3678      3286
 -1      1764    8    0    1
 -2       833       841       936      3365      3679      3680
 -1      1765    8    0    1
 -2       830       923       937      3628      3681      3682
 -1      1766    8    0    1
 -2       830       937       832      3682      3683      3334
 -1      1767    8    0    1
 -2       854       754       906      3415      3662      3684
 -1      1768    8    0    1
 -2       809       817       938      3285      3685      3686
 -1      1769    8    0    1
 -2       905       809       938      3571      3686      3687
 -1      1770    8    0    1
 -2       817       935       938      3678      3688      3685
 -1      1771    8    0    1
 -2       912       733       832      3591      3333      3689
 -1      1772    8    0    1
 -2       907       846       939      3577      3690      3691
 -1      1773    8    0    1
 -2       846       919       939      3615      3692      3690
 -1      1774    8    0    1
 -2       910       820       915      3587      3602      3693
 -1      1775    8    0    1
 -2       849       742       918      3395      3612      3694
 -1      1776    8    0    1
 -2       842       933       917      3669      3695      3606
 -1      1777    8    0    1
 -2       833       936       931      3680      3696      3697
 -1      1778    8    0    1
 -2       919       880       940      3614      3698      3699
 -1      1779    8    0    1
 -2       880       924       940      3631      3700      3698
 -1      1780    8    0    1
 -2       881       845       941      3619      3701      3702
 -1      1781    8    0    1
 -2       882       881       941      3501      3702      3703
 -1      1782    8    0    1
 -2       845       907       941      3579      3704      3701
 -1      1783    8    0    1
 -2       829       852       783      3409      3705      3706
 -1      1784    8    0    1
 -2       857       856       942      3425      3707      3708
 -1      1785    8    0    1
 -2       858       857       943      3428      3709      3710
 -1      1786    8    0    1
 -2       857       942       943      3708      3711      3709
 -1      1787    8    0    1
 -2       859       858       944      3431      3712      3713
 -1      1788    8    0    1
 -2       858       943       944      3710      3714      3712
 -1      1789    8    0    1
 -2       860       859       945      3434      3715      3716
 -1      1790    8    0    1
 -2       859       944       945      3713      3717      3715
 -1      1791    8    0    1
 -2       923       850       946      3627      3718      3719
 -1      1792    8    0    1
 -2       850       849       946      3402      3720      3718
 -1      1793    8    0    1
 -2       831       860       945      3609      3716      3721
 -1      1794    8    0    1
 -2       861       854       947      3440      3722      3723
 -1      1795    8    0    1
 -2       926       879       935      3638      3724      3676
 -1      1796    8    0    1
 -2       862       861       948      3443      3725      3726
 -1      1797    8    0    1
 -2       861       947       948      3723      3727      3725
 -1      1798    8    0    1
 -2       863       862       949      3446      3728      3729
 -1      1799    8    0    1
 -2       862       948       949      3726      3730      3728
 -1      1800    8    0    1
 -2       864       863       950      3449      3731      3732
 -1      1801    8    0    1
 -2       863       949       950      3729      3733      3731
 -1      1802    8    0    1
 -2       865       864       951      3452      3734      3735
 -1      1803    8    0    1
 -2       864       950       951      3732      3736      3734
 -1      1804    8    0    1
 -2       866       865       952      3455      3737      3738
 -1      1805    8    0    1
 -2       865       951       952      3735      3739      3737
 -1      1806    8    0    1
 -2       867       866       953      3458      3740      3741
 -1      1807    8    0    1
 -2       866       952       953      3738      3742      3740
 -1      1808    8    0    1
 -2       868       867       954      3461      3743      3744
 -1      1809    8    0    1
 -2       867       953       954      3741      3745      3743
 -1      1810    8    0    1
 -2       869       868       955      3464      3746      3747
 -1      1811    8    0    1
 -2       868       954       955      3744      3748      3746
 -1      1812    8    0    1
 -2       870       869       956      3467      3749      3750
 -1      1813    8    0    1
 -2       869       955       956      3747      3751      3749
 -1      1814    8    0    1
 -2       871       870       957      3470      3752      3753
 -1      1815    8    0    1
 -2       870       956       957      3750      3754      3752
 -1      1816    8    0    1
 -2       872       871       958      3473      3755      3756
 -1      1817    8    0    1
 -2       871       957       958      3753      3757      3755
 -1      1818    8    0    1
 -2       873       872       959      3476      3758      3759
 -1      1819    8    0    1
 -2       872       958       959      3756      3760      3758
 -1      1820    8    0    1
 -2       874       873       960      3479      3761      3762
 -1      1821    8    0    1
 -2       873       959       960      3759      3763      3761
 -1      1822    8    0    1
 -2       875       874       961      3482      3764      3765
 -1      1823    8    0    1
 -2       874       960       961      3762      3766      3764
 -1      1824    8    0    1
 -2       876       875       962      3485      3767      3768
 -1      1825    8    0    1
 -2       875       961       962      3765      3769      3767
 -1      1826    8    0    1
 -2       877       876       963      3488      3770      3771
 -1      1827    8    0    1
 -2       876       962       963      3768      3772      3770
 -1      1828    8    0    1
 -2       878       877       964      3491      3773      3774
 -1      1829    8    0    1
 -2       877       963       964      3771      3775      3773
 -1      1830    8    0    1
 -2       879       878       965      3494      3776      3777
 -1      1831    8    0    1
 -2       878       964       965      3774      3778      3776
 -1      1832    8    0    1
 -2       813       783       852      3646      3705      3410
 -1      1833    8    0    1
 -2       911       917       966      3608      3779      3780
 -1      1834    8    0    1
 -2       883       812       908      3651      3586      3583
 -1      1835    8    0    1
 -2       855       913       967      3596      3781      3782
 -1      1836    8    0    1
 -2       914       838       968      3653      3783      3784
 -1      1837    8    0    1
 -2       883       884       968      3511      3785      3786
 -1      1838    8    0    1
 -2       886       887       969      3520      3787      3788
 -1      1839    8    0    1
 -2       887       888       970      3523      3789      3790
 -1      1840    8    0    1
 -2       887       970       969      3790      3791      3787
 -1      1841    8    0    1
 -2       888       889       971      3526      3792      3793
 -1      1842    8    0    1
 -2       888       971       970      3793      3794      3789
 -1      1843    8    0    1
 -2       889       890       972      3529      3795      3796
 -1      1844    8    0    1
 -2       889       972       971      3796      3797      3792
 -1      1845    8    0    1
 -2       890       891       973      3532      3798      3799
 -1      1846    8    0    1
 -2       890       973       972      3799      3800      3795
 -1      1847    8    0    1
 -2       891       892       974      3535      3801      3802
 -1      1848    8    0    1
 -2       891       974       973      3802      3803      3798
 -1      1849    8    0    1
 -2       892       893       975      3538      3804      3805
 -1      1850    8    0    1
 -2       892       975       974      3805      3806      3801
 -1      1851    8    0    1
 -2       893       894       976      3541      3807      3808
 -1      1852    8    0    1
 -2       893       976       975      3808      3809      3804
 -1      1853    8    0    1
 -2       894       895       977      3544      3810      3811
 -1      1854    8    0    1
 -2       894       977       976      3811      3812      3807
 -1      1855    8    0    1
 -2       895       896       978      3547      3813      3814
 -1      1856    8    0    1
 -2       895       978       977      3814      3815      3810
 -1      1857    8    0    1
 -2       896       897       979      3550      3816      3817
 -1      1858    8    0    1
 -2       896       979       978      3817      3818      3813
 -1      1859    8    0    1
 -2       897       898       980      3553      3819      3820
 -1      1860    8    0    1
 -2       897       980       979      3820      3821      3816
 -1      1861    8    0    1
 -2       898       899       981      3556      3822      3823
 -1      1862    8    0    1
 -2       898       981       980      3823      3824      3819
 -1      1863    8    0    1
 -2       899       900       982      3559      3825      3826
 -1      1864    8    0    1
 -2       899       982       981      3826      3827      3822
 -1      1865    8    0    1
 -2       900       901       983      3562      3828      3829
 -1      1866    8    0    1
 -2       900       983       982      3829      3830      3825
 -1      1867    8    0    1
 -2       901       902       984      3565      3831      3832
 -1      1868    8    0    1
 -2       901       984       983      3832      3833      3828
 -1      1869    8    0    1
 -2       902       903       985      3568      3834      3835
 -1      1870    8    0    1
 -2       902       985       984      3835      3836      3831
 -1      1871    8    0    1
 -2       903       931       986      3660      3837      3838
 -1      1872    8    0    1
 -2       985       903       986      3834      3838      3839
 -1      1873    8    0    1
 -2       931       936       986      3696      3840      3837
 -1      1874    8    0    1
 -2       906       910       854      3675      3841      3684
 -1      1875    8    0    1
 -2       838       883       968      3652      3786      3783
 -1      1876    8    0    1
 -2       841       843       987      3373      3842      3843
 -1      1877    8    0    1
 -2       936       841       987      3679      3843      3844
 -1      1878    8    0    1
 -2       843       934       987      3672      3845      3842
 -1      1879    8    0    1
 -2       851       912       988      3593      3846      3847
 -1      1880    8    0    1
 -2       851       988       922      3847      3848      3626
 -1      1881    8    0    1
 -2       847       833       931      3389      3697      3849
 -1      1882    8    0    1
 -2       917       933       989      3695      3850      3851
 -1      1883    8    0    1
 -2       917       989       966      3851      3852      3779
 -1      1884    8    0    1
 -2       910       915       990      3693      3853      3854
 -1      1885    8    0    1
 -2       912       832       991      3689      3855      3856
 -1      1886    8    0    1
 -2       988       912       991      3846      3856      3857
 -1      1887    8    0    1
 -2       832       937       991      3683      3858      3855
 -1      1888    8    0    1
 -2       849       918       946      3694      3859      3720
 -1      1889    8    0    1
 -2       885       886       992      3517      3860      3861
 -1      1890    8    0    1
 -2       886       969       992      3788      3862      3860
 -1      1891    8    0    1
 -2       884       885       993      3514      3863      3864
 -1      1892    8    0    1
 -2       968       884       993      3785      3864      3865
 -1      1893    8    0    1
 -2       885       992       993      3861      3866      3863
 -1      1894    8    0    1
 -2       916       921       994      3664      3867      3868
 -1      1895    8    0    1
 -2       921       922       994      3625      3869      3867
 -1      1896    8    0    1
 -2       913       916       995      3605      3870      3871
 -1      1897    8    0    1
 -2       967       913       995      3781      3871      3872
 -1      1898    8    0    1
 -2       916       994       995      3868      3873      3870
 -1      1899    8    0    1
 -2       856       855       996      3422      3874      3875
 -1      1900    8    0    1
 -2       855       967       996      3782      3876      3874
 -1      1901    8    0    1
 -2       941       907       939      3704      3691      3877
 -1      1902    8    0    1
 -2       835       920       997      3617      3878      3879
 -1      1903    8    0    1
 -2       835       997       924      3879      3880      3629
 -1      1904    8    0    1
 -2       942       856       996      3707      3875      3881
 -1      1905    8    0    1
 -2       923       946       998      3719      3882      3883
 -1      1906    8    0    1
 -2       879       965       935      3777      3884      3724
 -1      1907    8    0    1
 -2       945       944       999      3717      3885      3886
 -1      1908    8    0    1
 -2       923       998      1000      3883      3887      3888
 -1      1909    8    0    1
 -2       923      1000       937      3888      3889      3681
 -1      1910    8    0    1
 -2       847       931       839      3849      3661      3663
 -1      1911    8    0    1
 -2       882       941      1001      3703      3890      3891
 -1      1912    8    0    1
 -2       928       882      1001      3643      3891      3892
 -1      1913    8    0    1
 -2       941       939      1001      3877      3893      3890
 -1      1914    8    0    1
 -2       945       999       920      3886      3894      3895
 -1      1915    8    0    1
 -2       840       925      1002      3634      3896      3897
 -1      1916    8    0    1
 -2       840      1002       932      3897      3898      3665
 -1      1917    8    0    1
 -2       929       818       928      3650      3645      3899
 -1      1918    8    0    1
 -2       919       940      1003      3699      3900      3901
 -1      1919    8    0    1
 -2       783       745       829      3502      3397      3706
 -1      1920    8    0    1
 -2       909       929      1004      3649      3902      3903
 -1      1921    8    0    1
 -2       936       987      1005      3844      3904      3905
 -1      1922    8    0    1
 -2       936      1005       986      3905      3906      3840
 -1      1923    8    0    1
 -2       914       968      1006      3784      3907      3908
 -1      1924    8    0    1
 -2       925       914      1006      3632      3908      3909
 -1      1925    8    0    1
 -2       968       993      1006      3865      3910      3907
 -1      1926    8    0    1
 -2       930       909      1007      3654      3911      3912
 -1      1927    8    0    1
 -2       909      1004      1007      3903      3913      3911
 -1      1928    8    0    1
 -2       933       930      1008      3670      3914      3915
 -1      1929    8    0    1
 -2       930      1007      1008      3912      3916      3914
 -1      1930    8    0    1
 -2       934       905      1009      3673      3917      3918
 -1      1931    8    0    1
 -2       946       918       927      3859      3641      3919
 -1      1932    8    0    1
 -2       939       919      1003      3692      3901      3920
 -1      1933    8    0    1
 -2       989       933      1008      3850      3915      3921
 -1      1934    8    0    1
 -2       915       932      1010      3667      3922      3923
 -1      1935    8    0    1
 -2       915      1010       990      3923      3924      3853
 -1      1936    8    0    1
 -2       905       938      1011      3687      3925      3926
 -1      1937    8    0    1
 -2       905      1011      1009      3926      3927      3917
 -1      1938    8    0    1
 -2       854       910       947      3841      3928      3722
 -1      1939    8    0    1
 -2       911       966      1012      3780      3929      3930
 -1      1940    8    0    1
 -2       910       990       947      3854      3931      3928
 -1      1941    8    0    1
 -2       927       911      1012      3642      3930      3932
 -1      1942    8    0    1
 -2       998       946      1012      3882      3933      3934
 -1      1943    8    0    1
 -2       935       965       938      3884      3935      3688
 -1      1944    8    0    1
 -2       999       944      1013      3885      3936      3937
 -1      1945    8    0    1
 -2       944       943      1013      3714      3938      3936
 -1      1946    8    0    1
 -2       998      1012      1014      3934      3939      3940
 -1      1947    8    0    1
 -2      1012       966      1014      3929      3941      3939
 -1      1948    8    0    1
 -2       920       844       945      3618      3942      3895
 -1      1949    8    0    1
 -2       948       947      1015      3727      3943      3944
 -1      1950    8    0    1
 -2       947       990      1015      3931      3945      3943
 -1      1951    8    0    1
 -2       949       948      1016      3730      3946      3947
 -1      1952    8    0    1
 -2       948      1015      1016      3944      3948      3946
 -1      1953    8    0    1
 -2       950       949      1017      3733      3949      3950
 -1      1954    8    0    1
 -2       949      1016      1017      3947      3951      3949
 -1      1955    8    0    1
 -2       951       950      1018      3736      3952      3953
 -1      1956    8    0    1
 -2       950      1017      1018      3950      3954      3952
 -1      1957    8    0    1
 -2       952       951      1019      3739      3955      3956
 -1      1958    8    0    1
 -2       951      1018      1019      3953      3957      3955
 -1      1959    8    0    1
 -2       953       952      1020      3742      3958      3959
 -1      1960    8    0    1
 -2       952      1019      1020      3956      3960      3958
 -1      1961    8    0    1
 -2       954       953      1021      3745      3961      3962
 -1      1962    8    0    1
 -2       953      1020      1021      3959      3963      3961
 -1      1963    8    0    1
 -2       955       954      1022      3748      3964      3965
 -1      1964    8    0    1
 -2       954      1021      1022      3962      3966      3964
 -1      1965    8    0    1
 -2       956       955      1023      3751      3967      3968
 -1      1966    8    0    1
 -2       955      1022      1023      3965      3969      3967
 -1      1967    8    0    1
 -2       957       956      1024      3754      3970      3971
 -1      1968    8    0    1
 -2       956      1023      1024      3968      3972      3970
 -1      1969    8    0    1
 -2       958       957      1025      3757      3973      3974
 -1      1970    8    0    1
 -2       957      1024      1025      3971      3975      3973
 -1      1971    8    0    1
 -2       959       958      1026      3760      3976      3977
 -1      1972    8    0    1
 -2       958      1025      1026      3974      3978      3976
 -1      1973    8    0    1
 -2       960       959      1027      3763      3979      3980
 -1      1974    8    0    1
 -2       959      1026      1027      3977      3981      3979
 -1      1975    8    0    1
 -2       961       960      1028      3766      3982      3983
 -1      1976    8    0    1
 -2       960      1027      1028      3980      3984      3982
 -1      1977    8    0    1
 -2       962       961      1029      3769      3985      3986
 -1      1978    8    0    1
 -2       961      1028      1029      3983      3987      3985
 -1      1979    8    0    1
 -2       963       962      1030      3772      3988      3989
 -1      1980    8    0    1
 -2       962      1029      1030      3986      3990      3988
 -1      1981    8    0    1
 -2       964       963      1031      3775      3991      3992
 -1      1982    8    0    1
 -2       963      1030      1031      3989      3993      3991
 -1      1983    8    0    1
 -2       965       964      1032      3778      3994      3995
 -1      1984    8    0    1
 -2       964      1031      1032      3992      3996      3994
 -1      1985    8    0    1
 -2      1003       940      1033      3900      3997      3998
 -1      1986    8    0    1
 -2       970       971      1034      3794      3999      4000
 -1      1987    8    0    1
 -2       994       922      1035      3869      4001      4002
 -1      1988    8    0    1
 -2       922       988      1035      3848      4003      4001
 -1      1989    8    0    1
 -2       987       934      1036      3845      4004      4005
 -1      1990    8    0    1
 -2      1005       987      1036      3904      4005      4006
 -1      1991    8    0    1
 -2       934      1009      1036      3918      4007      4004
 -1      1992    8    0    1
 -2       969       970      1037      3791      4008      4009
 -1      1993    8    0    1
 -2       970      1034      1037      4000      4010      4008
 -1      1994    8    0    1
 -2       972       973      1038      3800      4011      4012
 -1      1995    8    0    1
 -2       973       974      1039      3803      4013      4014
 -1      1996    8    0    1
 -2       973      1039      1038      4014      4015      4011
 -1      1997    8    0    1
 -2       974       975      1040      3806      4016      4017
 -1      1998    8    0    1
 -2       974      1040      1039      4017      4018      4013
 -1      1999    8    0    1
 -2       975       976      1041      3809      4019      4020
 -1      2000    8    0    1
 -2       975      1041      1040      4020      4021      4016
 -1      2001    8    0    1
 -2       976       977      1042      3812      4022      4023
 -1      2002    8    0    1
 -2       976      1042      1041      4023      4024      4019
 -1      2003    8    0    1
 -2       977       978      1043      3815      4025      4026
 -1      2004    8    0    1
 -2       977      1043      1042      4026      4027      4022
 -1      2005    8    0    1
 -2       978       979      1044      3818      4028      4029
 -1      2006    8    0    1
 -2       978      1044      1043      4029      4030      4025
 -1      2007    8    0    1
 -2       979       980      1045      3821      4031      4032
 -1      2008    8    0    1
 -2       979      1045      1044      4032      4033      4028
 -1      2009    8    0    1
 -2       980       981      1046      3824      4034      4035
 -1      2010    8    0    1
 -2       980      1046      1045      4035      4036      4031
 -1      2011    8    0    1
 -2       981       982      1047      3827      4037      4038
 -1      2012    8    0    1
 -2       981      1047      1046      4038      4039      4034
 -1      2013    8    0    1
 -2       982       983      1048      3830      4040      4041
 -1      2014    8    0    1
 -2       982      1048      1047      4041      4042      4037
 -1      2015    8    0    1
 -2       983       984      1049      3833      4043      4044
 -1      2016    8    0    1
 -2       983      1049      1048      4044      4045      4040
 -1      2017    8    0    1
 -2       984       985      1050      3836      4046      4047
 -1      2018    8    0    1
 -2       984      1050      1049      4047      4048      4043
 -1      2019    8    0    1
 -2       985       986      1051      3839      4049      4050
 -1      2020    8    0    1
 -2      1050       985      1051      4046      4050      4051
 -1      2021    8    0    1
 -2       986      1005      1051      3906      4052      4049
 -1      2022    8    0    1
 -2       927      1012       946      3932      3933      3919
 -1      2023    8    0    1
 -2       844       831       945      3375      3721      3942
 -1      2024    8    0    1
 -2       971       972      1052      3797      4053      4054
 -1      2025    8    0    1
 -2      1034       971      1052      3999      4054      4055
 -1      2026    8    0    1
 -2       972      1038      1052      4012      4056      4053
 -1      2027    8    0    1
 -2       920       999       997      3894      4057      3878
 -1      2028    8    0    1
 -2       996       967      1053      3876      4058      4059
 -1      2029    8    0    1
 -2       943       942      1054      3711      4060      4061
 -1      2030    8    0    1
 -2       943      1054      1013      4061      4062      3938
 -1      2031    8    0    1
 -2       989      1008      1055      3921      4063      4064
 -1      2032    8    0    1
 -2       940       924      1056      3700      4065      4066
 -1      2033    8    0    1
 -2       940      1056      1033      4066      4067      3997
 -1      2034    8    0    1
 -2       992       969      1057      3862      4068      4069
 -1      2035    8    0    1
 -2       969      1037      1057      4009      4070      4068
 -1      2036    8    0    1
 -2       939      1003      1058      3920      4071      4072
 -1      2037    8    0    1
 -2       939      1058      1001      4072      4073      3893
 -1      2038    8    0    1
 -2       942       996      1059      3881      4074      4075
 -1      2039    8    0    1
 -2       942      1059      1054      4075      4076      4060
 -1      2040    8    0    1
 -2      1004       929      1058      3902      4077      4078
 -1      2041    8    0    1
 -2       966       989      1060      3852      4079      4080
 -1      2042    8    0    1
 -2      1014       966      1060      3941      4080      4081
 -1      2043    8    0    1
 -2       989      1055      1060      4064      4082      4079
 -1      2044    8    0    1
 -2       721       784       739      3417      4083      3058
 -1      2045    8    0    1
 -2       996      1053      1059      4059      4084      4074
 -1      2046    8    0    1
 -2      1000       998      1014      3887      3940      4085
 -1      2047    8    0    1
 -2       938       965      1011      3935      4086      3925
 -1      2048    8    0    1
 -2       739       784       822      4083      3506      3385
 -1      2049    8    0    1
 -2       937      1000      1061      3889      4087      4088
 -1      2050    8    0    1
 -2       937      1061       991      4088      4089      3858
 -1      2051    8    0    1
 -2      1002       925      1062      3896      4090      4091
 -1      2052    8    0    1
 -2       925      1006      1062      3909      4092      4090
 -1      2053    8    0    1
 -2      1004      1058      1063      4078      4093      4094
 -1      2054    8    0    1
 -2      1015       990      1010      3945      3924      4095
 -1      2055    8    0    1
 -2       932      1002      1064      3898      4096      4097
 -1      2056    8    0    1
 -2       932      1064      1010      4097      4098      3922
 -1      2057    8    0    1
 -2      1007      1004      1065      3913      4099      4100
 -1      2058    8    0    1
 -2      1004      1063      1065      4094      4101      4099
 -1      2059    8    0    1
 -2       997       999      1066      4057      4102      4103
 -1      2060    8    0    1
 -2       994      1035      1067      4002      4104      4105
 -1      2061    8    0    1
 -2       994      1067       995      4105      4106      3873
 -1      2062    8    0    1
 -2      1036      1009      1068      4007      4107      4108
 -1      2063    8    0    1
 -2      1008      1007      1069      3916      4109      4110
 -1      2064    8    0    1
 -2      1055      1008      1069      4063      4110      4111
 -1      2065    8    0    1
 -2      1007      1065      1069      4100      4112      4109
 -1      2066    8    0    1
 -2      1056       924       997      4065      3880      4113
 -1      2067    8    0    1
 -2       928      1001      1058      3892      4073      4114
 -1      2068    8    0    1
 -2       999      1013      1070      3937      4115      4116
 -1      2069    8    0    1
 -2       999      1070      1066      4116      4117      4102
 -1      2070    8    0    1
 -2      1003      1033      1063      3998      4118      4119
 -1      2071    8    0    1
 -2      1009      1011      1071      3927      4120      4121
 -1      2072    8    0    1
 -2      1009      1071      1068      4121      4122      4107
 -1      2073    8    0    1
 -2       988       991      1072      3857      4123      4124
 -1      2074    8    0    1
 -2      1035       988      1072      4003      4124      4125
 -1      2075    8    0    1
 -2       991      1061      1072      4089      4126      4123
 -1      2076    8    0    1
 -2      1058      1003      1063      4071      4119      4093
 -1      2077    8    0    1
 -2      1058       929       928      4077      3899      4114
 -1      2078    8    0    1
 -2       967       995      1073      3872      4127      4128
 -1      2079    8    0    1
 -2      1053       967      1073      4058      4128      4129
 -1      2080    8    0    1
 -2       995      1067      1073      4106      4130      4127
 -1      2081    8    0    1
 -2      1015      1010      1074      4095      4131      4132
 -1      2082    8    0    1
 -2      1016      1015      1074      3948      4132      4133
 -1      2083    8    0    1
 -2      1010      1064      1074      4098      4134      4131
 -1      2084    8    0    1
 -2      1017      1016      1075      3951      4135      4136
 -1      2085    8    0    1
 -2      1016      1074      1075      4133      4137      4135
 -1      2086    8    0    1
 -2      1018      1017      1076      3954      4138      4139
 -1      2087    8    0    1
 -2      1017      1075      1076      4136      4140      4138
 -1      2088    8    0    1
 -2      1019      1018      1077      3957      4141      4142
 -1      2089    8    0    1
 -2      1018      1076      1077      4139      4143      4141
 -1      2090    8    0    1
 -2      1020      1019      1078      3960      4144      4145
 -1      2091    8    0    1
 -2      1019      1077      1078      4142      4146      4144
 -1      2092    8    0    1
 -2      1021      1020      1079      3963      4147      4148
 -1      2093    8    0    1
 -2      1020      1078      1079      4145      4149      4147
 -1      2094    8    0    1
 -2      1022      1021      1080      3966      4150      4151
 -1      2095    8    0    1
 -2      1021      1079      1080      4148      4152      4150
 -1      2096    8    0    1
 -2      1023      1022      1081      3969      4153      4154
 -1      2097    8    0    1
 -2      1022      1080      1081      4151      4155      4153
 -1      2098    8    0    1
 -2      1024      1023      1082      3972      4156      4157
 -1      2099    8    0    1
 -2      1023      1081      1082      4154      4158      4156
 -1      2100    8    0    1
 -2      1025      1024      1083      3975      4159      4160
 -1      2101    8    0    1
 -2      1024      1082      1083      4157      4161      4159
 -1      2102    8    0    1
 -2      1026      1025      1084      3978      4162      4163
 -1      2103    8    0    1
 -2      1025      1083      1084      4160      4164      4162
 -1      2104    8    0    1
 -2      1027      1026      1085      3981      4165      4166
 -1      2105    8    0    1
 -2      1026      1084      1085      4163      4167      4165
 -1      2106    8    0    1
 -2      1028      1027      1086      3984      4168      4169
 -1      2107    8    0    1
 -2      1027      1085      1086      4166      4170      4168
 -1      2108    8    0    1
 -2      1029      1028      1087      3987      4171      4172
 -1      2109    8    0    1
 -2      1028      1086      1087      4169      4173      4171
 -1      2110    8    0    1
 -2      1030      1029      1088      3990      4174      4175
 -1      2111    8    0    1
 -2      1029      1087      1088      4172      4176      4174
 -1      2112    8    0    1
 -2      1031      1030      1089      3993      4177      4178
 -1      2113    8    0    1
 -2      1030      1088      1089      4175      4179      4177
 -1      2114    8    0    1
 -2       992      1057      1090      4069      4180      4181
 -1      2115    8    0    1
 -2      1054      1059      1091      4076      4182      4183
 -1      2116    8    0    1
 -2       992      1090       993      4181      4184      3866
 -1      2117    8    0    1
 -2      1037      1034      1092      4010      4185      4186
 -1      2118    8    0    1
 -2      1040      1041      1093      4021      4187      4188
 -1      2119    8    0    1
 -2      1039      1040      1094      4018      4189      4190
 -1      2120    8    0    1
 -2      1040      1093      1094      4188      4191      4189
 -1      2121    8    0    1
 -2      1038      1039      1095      4015      4192      4193
 -1      2122    8    0    1
 -2      1039      1094      1095      4190      4194      4192
 -1      2123    8    0    1
 -2      1041      1042      1096      4024      4195      4196
 -1      2124    8    0    1
 -2      1041      1096      1093      4196      4197      4187
 -1      2125    8    0    1
 -2      1042      1043      1097      4027      4198      4199
 -1      2126    8    0    1
 -2      1042      1097      1096      4199      4200      4195
 -1      2127    8    0    1
 -2      1043      1044      1098      4030      4201      4202
 -1      2128    8    0    1
 -2      1043      1098      1097      4202      4203      4198
 -1      2129    8    0    1
 -2      1044      1045      1099      4033      4204      4205
 -1      2130    8    0    1
 -2      1044      1099      1098      4205      4206      4201
 -1      2131    8    0    1
 -2      1045      1046      1100      4036      4207      4208
 -1      2132    8    0    1
 -2      1045      1100      1099      4208      4209      4204
 -1      2133    8    0    1
 -2      1046      1047      1101      4039      4210      4211
 -1      2134    8    0    1
 -2      1046      1101      1100      4211      4212      4207
 -1      2135    8    0    1
 -2      1047      1048      1102      4042      4213      4214
 -1      2136    8    0    1
 -2      1047      1102      1101      4214      4215      4210
 -1      2137    8    0    1
 -2      1048      1049      1103      4045      4216      4217
 -1      2138    8    0    1
 -2      1048      1103      1102      4217      4218      4213
 -1      2139    8    0    1
 -2      1049      1050      1104      4048      4219      4220
 -1      2140    8    0    1
 -2      1049      1104      1103      4220      4221      4216
 -1      2141    8    0    1
 -2       997      1066      1056      4103      4222      4113
 -1      2142    8    0    1
 -2      1063      1033      1105      4118      4223      4224
 -1      2143    8    0    1
 -2      1013      1054      1106      4062      4225      4226
 -1      2144    8    0    1
 -2      1070      1013      1106      4115      4226      4227
 -1      2145    8    0    1
 -2      1054      1091      1106      4183      4228      4225
 -1      2146    8    0    1
 -2      1033      1056      1107      4067      4229      4230
 -1      2147    8    0    1
 -2      1105      1033      1107      4223      4230      4231
 -1      2148    8    0    1
 -2      1056      1066      1107      4222      4232      4229
 -1      2149    8    0    1
 -2      1057      1037      1108      4070      4233      4234
 -1      2150    8    0    1
 -2      1037      1092      1108      4186      4235      4233
 -1      2151    8    0    1
 -2      1005      1036      1109      4006      4236      4237
 -1      2152    8    0    1
 -2      1051      1005      1109      4052      4237      4238
 -1      2153    8    0    1
 -2      1036      1068      1109      4108      4239      4236
 -1      2154    8    0    1
 -2      1059      1053      1110      4084      4240      4241
 -1      2155    8    0    1
 -2      1059      1110      1091      4241      4242      4182
 -1      2156    8    0    1
 -2      1000      1014      1111      4085      4243      4244
 -1      2157    8    0    1
 -2      1067      1035      1112      4104      4245      4246
 -1      2158    8    0    1
 -2      1035      1072      1112      4125      4247      4245
 -1      2159    8    0    1
 -2      1000      1111      1061      4244      4248      4087
 -1      2160    8    0    1
 -2      1064      1002      1113      4096      4249      4250
 -1      2161    8    0    1
 -2      1002      1062      1113      4091      4251      4249
 -1      2162    8    0    1
 -2      1065      1063      1105      4101      4224      4252
 -1      2163    8    0    1
 -2      1032      1031      1114      3996      4253      4254
 -1      2164    8    0    1
 -2       993      1090      1006      4184      4255      3910
 -1      2165    8    0    1
 -2      1092      1034      1115      4185      4256      4257
 -1      2166    8    0    1
 -2      1034      1052      1115      4055      4258      4256
 -1      2167    8    0    1
 -2      1038      1095      1116      4193      4259      4260
 -1      2168    8    0    1
 -2      1038      1116      1052      4260      4261      4056
 -1      2169    8    0    1
 -2      1055      1069      1117      4111      4262      4263
 -1      2170    8    0    1
 -2      1066      1070      1107      4117      4264      4232
 -1      2171    8    0    1
 -2      1057      1108      1062      4234      4265      4266
 -1      2172    8    0    1
 -2      1050      1051      1109      4051      4238      4267
 -1      2173    8    0    1
 -2      1110      1053      1118      4240      4268      4269
 -1      2174    8    0    1
 -2      1053      1073      1118      4129      4270      4268
 -1      2175    8    0    1
 -2      1060      1055      1119      4082      4271      4272
 -1      2176    8    0    1
 -2      1055      1117      1119      4263      4273      4271
 -1      2177    8    0    1
 -2      1068      1071      1120      4122      4274      4275
 -1      2178    8    0    1
 -2      1109      1068      1104      4239      4276      4277
 -1      2179    8    0    1
 -2      1111      1014      1060      4243      4081      4278
 -1      2180    8    0    1
 -2      1068      1120      1104      4275      4279      4276
 -1      2181    8    0    1
 -2      1031      1089      1114      4178      4280      4253
 -1      2182    8    0    1
 -2      1006      1090      1062      4255      4281      4092
 -1      2183    8    0    1
 -2      1050      1109      1104      4267      4277      4219
 -1      2184    8    0    1
 -2      1062      1090      1057      4281      4180      4266
 -1      2185    8    0    1
 -2      1011       965      1032      4086      3995      4282
 -1      2186    8    0    1
 -2      1075      1074      1121      4137      4283      4284
 -1      2187    8    0    1
 -2      1074      1064      1121      4134      4285      4283
 -1      2188    8    0    1
 -2      1076      1075      1122      4140      4286      4287
 -1      2189    8    0    1
 -2      1075      1121      1122      4284      4288      4286
 -1      2190    8    0    1
 -2      1077      1076      1123      4143      4289      4290
 -1      2191    8    0    1
 -2      1076      1122      1123      4287      4291      4289
 -1      2192    8    0    1
 -2      1078      1077      1124      4146      4292      4293
 -1      2193    8    0    1
 -2      1077      1123      1124      4290      4294      4292
 -1      2194    8    0    1
 -2      1079      1078      1125      4149      4295      4296
 -1      2195    8    0    1
 -2      1078      1124      1125      4293      4297      4295
 -1      2196    8    0    1
 -2      1080      1079      1126      4152      4298      4299
 -1      2197    8    0    1
 -2      1079      1125      1126      4296      4300      4298
 -1      2198    8    0    1
 -2      1081      1080      1127      4155      4301      4302
 -1      2199    8    0    1
 -2      1080      1126      1127      4299      4303      4301
 -1      2200    8    0    1
 -2      1082      1081      1128      4158      4304      4305
 -1      2201    8    0    1
 -2      1081      1127      1128      4302      4306      4304
 -1      2202    8    0    1
 -2      1083      1082      1129      4161      4307      4308
 -1      2203    8    0    1
 -2      1082      1128      1129      4305      4309      4307
 -1      2204    8    0    1
 -2      1084      1083      1130      4164      4310      4311
 -1      2205    8    0    1
 -2      1083      1129      1130      4308      4312      4310
 -1      2206    8    0    1
 -2      1085      1084      1131      4167      4313      4314
 -1      2207    8    0    1
 -2      1084      1130      1131      4311      4315      4313
 -1      2208    8    0    1
 -2      1086      1085      1132      4170      4316      4317
 -1      2209    8    0    1
 -2      1085      1131      1132      4314      4318      4316
 -1      2210    8    0    1
 -2      1087      1086      1133      4173      4319      4320
 -1      2211    8    0    1
 -2      1086      1132      1133      4317      4321      4319
 -1      2212    8    0    1
 -2      1088      1087      1134      4176      4322      4323
 -1      2213    8    0    1
 -2      1087      1133      1134      4320      4324      4322
 -1      2214    8    0    1
 -2      1089      1088      1135      4179      4325      4326
 -1      2215    8    0    1
 -2      1088      1134      1135      4323      4327      4325
 -1      2216    8    0    1
 -2      1105      1107      1136      4231      4328      4329
 -1      2217    8    0    1
 -2      1107      1070      1136      4264      4330      4328
 -1      2218    8    0    1
 -2      1117      1069      1137      4262      4331      4332
 -1      2219    8    0    1
 -2      1069      1065      1137      4112      4333      4331
 -1      2220    8    0    1
 -2      1061      1111      1138      4248      4334      4335
 -1      2221    8    0    1
 -2      1061      1138      1072      4335      4336      4126
 -1      2222    8    0    1
 -2      1093      1096      1127      4197      4337      4338
 -1      2223    8    0    1
 -2      1062      1108      1113      4265      4339      4251
 -1      2224    8    0    1
 -2      1095      1094      1125      4194      4340      4341
 -1      2225    8    0    1
 -2      1097      1098      1129      4203      4342      4343
 -1      2226    8    0    1
 -2      1098      1099      1130      4206      4344      4345
 -1      2227    8    0    1
 -2      1099      1100      1131      4209      4346      4347
 -1      2228    8    0    1
 -2      1100      1101      1132      4212      4348      4349
 -1      2229    8    0    1
 -2      1101      1102      1133      4215      4350      4351
 -1      2230    8    0    1
 -2      1102      1103      1134      4218      4352      4353
 -1      2231    8    0    1
 -2      1103      1104      1120      4221      4279      4354
 -1      2232    8    0    1
 -2      1108      1092      1121      4235      4355      4356
 -1      2233    8    0    1
 -2      1071      1011      1032      4120      4282      4357
 -1      2234    8    0    1
 -2      1065      1105      1137      4252      4358      4333
 -1      2235    8    0    1
 -2      1111      1060      1119      4278      4272      4359
 -1      2236    8    0    1
 -2      1094      1093      1126      4191      4360      4361
 -1      2237    8    0    1
 -2      1073      1067      1112      4130      4246      4362
 -1      2238    8    0    1
 -2      1091      1110      1117      4242      4363      4364
 -1      2239    8    0    1
 -2      1096      1097      1128      4200      4365      4366
 -1      2240    8    0    1
 -2      1091      1117      1137      4364      4332      4367
 -1      2241    8    0    1
 -2      1117      1110      1119      4363      4368      4273
 -1      2242    8    0    1
 -2      1121      1064      1113      4285      4250      4369
 -1      2243    8    0    1
 -2      1095      1125      1124      4341      4297      4370
 -1      2244    8    0    1
 -2      1130      1099      1131      4344      4347      4315
 -1      2245    8    0    1
 -2      1136      1070      1106      4330      4227      4371
 -1      2246    8    0    1
 -2      1129      1098      1130      4342      4345      4312
 -1      2247    8    0    1
 -2      1111      1119      1110      4359      4368      4372
 -1      2248    8    0    1
 -2      1115      1052      1116      4258      4261      4373
 -1      2249    8    0    1
 -2      1116      1095      1124      4259      4370      4374
 -1      2250    8    0    1
 -2      1127      1096      1128      4337      4366      4306
 -1      2251    8    0    1
 -2      1092      1115      1122      4257      4375      4376
 -1      2252    8    0    1
 -2      1113      1108      1121      4339      4356      4369
 -1      2253    8    0    1
 -2      1125      1094      1126      4340      4361      4300
 -1      2254    8    0    1
 -2      1097      1129      1128      4343      4309      4365
 -1      2255    8    0    1
 -2      1100      1132      1131      4349      4318      4346
 -1      2256    8    0    1
 -2      1101      1133      1132      4351      4321      4348
 -1      2257    8    0    1
 -2      1102      1134      1133      4353      4324      4350
 -1      2258    8    0    1
 -2      1103      1120      1135      4354      4377      4378
 -1      2259    8    0    1
 -2      1121      1092      1122      4355      4376      4288
 -1      2260    8    0    1
 -2      1103      1135      1134      4378      4327      4352
 -1      2261    8    0    1
 -2      1106      1091      1137      4228      4367      4379
 -1      2262    8    0    1
 -2      1118      1073      1112      4270      4362      4380
 -1      2263    8    0    1
 -2      1126      1093      1127      4360      4338      4303
 -1      2264    8    0    1
 -2      1089      1135      1120      4326      4377      4381
 -1      2265    8    0    1
 -2      1089      1120      1114      4381      4382      4280
 -1      2266    8    0    1
 -2      1123      1122      1115      4291      4375      4383
 -1      2267    8    0    1
 -2      1124      1123      1116      4294      4384      4374
 -1      2268    8    0    1
 -2      1114      1120      1071      4382      4274      4385
 -1      2269    8    0    1
 -2      1115      1116      1123      4373      4384      4383
 -1      2270    8    0    1
 -2      1071      1032      1114      4357      4254      4385
 -1      2271    8    0    1
 -2      1111      1110      1138      4372      4386      4334
 -1      2272    8    0    1
 -2      1137      1105      1136      4358      4329      4387
 -1      2273    8    0    1
 -2      1072      1138      1112      4336      4388      4247
 -1      2274    8    0    1
 -2      1106      1137      1136      4379      4387      4371
 -1      2275    8    0    1
 -2      1112      1138      1118      4388      4389      4380
 -1      2276    8    0    1
 -2      1110      1118      1138      4269      4389      4386
 -3
    1PSTEP                         1           1           1          
  100CL  101 1.000000000        4389                     0    1           1
 -4  DISP        4    1
 -5  D1          1    2    1    0
 -5  D2          1    2    2    0
 -5  D3          1    2    3    0
 -5  ALL         1    2    0    0    1ALL
 -1         1 5.91494E-03-1.08645E-03-2.82554E-14
 -1         2 8.10789E-03-2.45420E-04-3.60505E-14
 -1         3 1.48908E-02-4.34000E-04-1.76264E-13
 -1         4 1.55137E-02-1.86547E-03-1.72857E-13
 -1         5 0.00000E+00 0.00000E+00 0.00000E+00
 -1         6 0.00000E+00 0.00000E+00 0.00000E+00
 -1         7 0.00000E+00 0.00000E+00 0.00000E+00
 -1         8 0.00000E+00 0.00000E+00 0.00000E+00
 -1         9 0.00000E+00 0.00000E+00 0.00000E+00
 -1        10 0.00000E+00 0.00000E+00 0.00000E+00
 -1        11 0.00000E+00 0.00000E+00 0.00000E+00
 -1        12 0.00000E+00 0.00000E+00 0.00000E+00
 -1        13 0.00000E+00 0.00000E+00 0.00000E+00
 -1        14 0.00000E+00 0.00000E+00 0.00000E+00
 -1        15 0.00000E+00 0.00000E+00 0.00000E+00
 -1        16 0.00000E+00 0.00000E+00 0.00000E+00
 -1        17 0.00000E+00 0.00000E+00 0.00000E+00
 -1        18 0.00000E+00 0.00000E+00 0.00000E+00
 -1        19 0.00000E+00 0.00000E+00 0.00000E+00
 -1        20 0.00000E+00 0.00000E+00 0.00000E+00
 -1        21 0.00000E+00 0.00000E+00 0.00000E+00
 -1        22 0.00000E+00 0.00000E+00 0.00000E+00
 -1        23 4.08317E-04-2.53614E-04 6.44728E-17
 -1        24 7.01474E-04-3.85317E-04-4.93448E-17
 -1        25 9.75813E-04-4.73614E-04-3.38732E-16
 -1        26 1.24747E-03-5.33150E-04-8.03187E-16
 -1        27 1.52160E-03-5.73298E-04-1.44049E-15
 -1        28 1.80121E-03-5.99865E-04-2.24624E-15
 -1        29 2.08855E-03-6.17347E-04-3.21707E-15
 -1        30 2.38558E-03-6.29771E-04-4.35258E-15
 -1        31 2.69421E-03-6.41250E-04-5.65106E-15
 -1        32 3.01621E-03-6.56411E-04-7.10855E-15
 -1        33 3.35293E-03-6.80734E-04-8.71882E-15
 -1        34 3.70463E-03-7.20654E-04-1.04787E-14
 -1        35 4.06939E-03-7.83122E-04-1.23901E-14
 -1        36 4.44161E-03-8.74069E-04-1.44511E-14
 -1        37 4.81097E-03-9.95201E-04-1.66590E-14
 -1        38 5.16316E-03-1.13930E-03-1.90205E-14
 -1        39 5.48446E-03-1.28632E-03-2.15446E-14
 -1        40 5.76983E-03-1.40510E-03-2.42403E-14
 -1        41 6.02974E-03-1.46462E-03-2.71113E-14
 -1        42 6.28804E-03-1.45040E-03-3.01623E-14
 -1        43 6.56970E-03-1.37355E-03-3.33961E-14
 -1        44 6.88755E-03-1.26392E-03-3.67972E-14
 -1        45 7.23850E-03-1.15369E-03-4.03539E-14
 -1        46 7.60962E-03-1.06491E-03-4.40624E-14
 -1        47 7.98645E-03-1.00662E-03-4.79058E-14
 -1        48 8.35821E-03-9.78374E-04-5.18758E-14
 -1        49 8.71894E-03-9.74993E-04-5.59619E-14
 -1        50 9.06654E-03-9.90127E-04-6.01537E-14
 -1        51 9.40132E-03-1.01801E-03-6.44605E-14
 -1        52 9.72475E-03-1.05411E-03-6.88857E-14
 -1        53 1.00387E-02-1.09509E-03-7.34281E-14
 -1        54 1.03451E-02-1.13867E-03-7.80735E-14
 -1        55 1.06457E-02-1.18335E-03-8.28131E-14
 -1        56 1.09417E-02-1.22817E-03-8.76336E-14
 -1        57 1.12344E-02-1.27258E-03-9.25353E-14
 -1        58 1.15246E-02-1.31627E-03-9.75069E-14
 -1        59 1.18131E-02-1.35913E-03-1.02555E-13
 -1        60 1.21004E-02-1.40113E-03-1.07651E-13
 -1        61 1.23869E-02-1.44232E-03-1.12792E-13
 -1        62 1.26728E-02-1.48278E-03-1.18004E-13
 -1        63 1.29584E-02-1.52260E-03-1.23285E-13
 -1        64 1.32438E-02-1.56189E-03-1.28633E-13
 -1        65 1.35292E-02-1.60074E-03-1.34049E-13
 -1        66 1.38145E-02-1.63926E-03-1.39513E-13
 -1        67 1.40999E-02-1.67751E-03-1.45029E-13
 -1        68 1.43854E-02-1.71559E-03-1.50587E-13
 -1        69 1.46709E-02-1.75356E-03-1.56180E-13
 -1        70 1.49566E-02-1.79148E-03-1.61794E-13
 -1        71 1.52423E-02-1.82940E-03-1.67453E-13
 -1        72 4.10817E-04 2.54592E-04 6.44355E-17
 -1        73 7.01584E-04 3.88699E-04-5.20654E-17
 -1        74 9.76569E-04 4.76703E-04-3.43675E-16
 -1        75 1.24827E-03 5.37048E-04-8.11339E-16
 -1        76 1.52192E-03 5.78461E-04-1.45504E-15
 -1        77 1.80036E-03 6.06775E-04-2.27313E-15
 -1        78 2.08539E-03 6.26508E-04-3.26354E-15
 -1        79 2.37827E-03 6.41598E-04-4.42101E-15
 -1        80 2.67981E-03 6.55804E-04-5.74604E-15
 -1        81 2.99029E-03 6.72906E-04-7.23315E-15
 -1        82 3.30919E-03 6.96696E-04-8.88348E-15
 -1        83 3.63480E-03 7.30712E-04-1.06935E-14
 -1        84 3.96383E-03 7.77567E-04-1.26655E-14
 -1        85 4.29113E-03 8.37841E-04-1.47982E-14
 -1        86 4.61020E-03 9.08645E-04-1.70938E-14
 -1        87 4.91440E-03 9.82415E-04-1.95565E-14
 -1        88 5.19945E-03 1.04696E-03-2.21820E-14
 -1        89 5.46593E-03 1.08773E-03-2.49798E-14
 -1        90 5.72054E-03 1.09234E-03-2.79547E-14
 -1        91 5.97446E-03 1.05547E-03-3.11004E-14
 -1        92 6.23929E-03 9.81127E-04-3.44135E-14
 -1        93 6.52267E-03 8.80979E-04-3.78854E-14
 -1        94 6.82622E-03 7.69638E-04-4.15230E-14
 -1        95 7.14635E-03 6.59995E-04-4.53201E-14
 -1        96 7.47683E-03 5.60574E-04-4.92599E-14
 -1        97 7.81119E-03 4.75227E-04-5.33394E-14
 -1        98 8.14433E-03 4.04245E-04-5.75560E-14
 -1        99 8.47292E-03 3.45842E-04-6.18923E-14
 -1       100 8.79531E-03 2.97377E-04-6.63498E-14
 -1       101 9.11106E-03 2.56145E-04-7.09251E-14
 -1       102 9.42049E-03 2.19779E-04-7.55993E-14
 -1       103 9.72434E-03 1.86395E-04-8.03824E-14
 -1       104 1.00235E-02 1.54594E-04-8.52528E-14
 -1       105 1.03189E-02 1.23400E-04-9.02070E-14
 -1       106 1.06113E-02 9.21708E-05-9.52412E-14
 -1       107 1.09015E-02 6.05178E-05-1.00345E-13
 -1       108 1.11900E-02 2.82341E-05-1.05520E-13
 -1       109 1.14773E-02-4.76340E-06-1.10768E-13
 -1       110 1.17638E-02-3.84768E-05-1.16082E-13
 -1       111 1.20498E-02-7.28590E-05-1.21464E-13
 -1       112 1.23354E-02-1.07836E-04-1.26906E-13
 -1       113 1.26209E-02-1.43322E-04-1.32386E-13
 -1       114 1.29063E-02-1.79227E-04-1.37901E-13
 -1       115 1.31916E-02-2.15465E-04-1.43444E-13
 -1       116 1.34770E-02-2.51957E-04-1.48984E-13
 -1       117 1.37625E-02-2.88626E-04-1.54507E-13
 -1       118 1.40481E-02-3.25405E-04-1.60027E-13
 -1       119 1.43337E-02-3.62231E-04-1.65536E-13
 -1       120 1.46194E-02-3.99051E-04-1.71042E-13
 -1       121 1.49270E-02-5.18285E-04-1.76098E-13
 -1       122 1.49631E-02-6.02596E-04-1.75941E-13
 -1       123 1.49992E-02-6.86963E-04-1.75777E-13
 -1       124 1.50354E-02-7.71395E-04-1.75625E-13
 -1       125 1.50716E-02-8.55885E-04-1.75474E-13
 -1       126 1.51073E-02-9.38988E-04-1.75325E-13
 -1       127 1.51438E-02-1.02356E-03-1.75152E-13
 -1       128 1.51804E-02-1.10814E-03-1.74968E-13
 -1       129 1.52172E-02-1.19274E-03-1.74794E-13
 -1       130 1.52541E-02-1.27733E-03-1.74600E-13
 -1       131 1.52911E-02-1.36190E-03-1.74394E-13
 -1       132 1.53276E-02-1.44501E-03-1.74200E-13
 -1       133 1.53649E-02-1.52950E-03-1.73967E-13
 -1       134 1.54022E-02-1.61393E-03-1.73716E-13
 -1       135 1.54396E-02-1.69830E-03-1.73444E-13
 -1       136 1.54770E-02-1.78261E-03-1.73160E-13
 -1       137 8.04311E-03-7.08493E-05-3.59107E-14
 -1       138 7.87702E-03 1.01814E-04-3.54033E-14
 -1       139 7.63378E-03 2.53726E-04-3.46041E-14
 -1       140 7.28637E-03 3.98035E-04-3.34404E-14
 -1       141 6.90249E-03 5.05306E-04-3.21608E-14
 -1       142 6.41074E-03 5.91630E-04-3.05318E-14
 -1       143 5.95650E-03 6.27295E-04-2.90651E-14
 -1       144 5.45021E-03 6.22739E-04-2.74507E-14
 -1       145 4.98629E-03 5.74143E-04-2.59943E-14
 -1       146 4.56559E-03 4.86066E-04-2.46972E-14
 -1       147 4.19073E-03 3.54222E-04-2.35465E-14
 -1       148 3.91559E-03 1.95308E-04-2.27006E-14
 -1       149 3.76599E-03 3.87482E-05-2.22241E-14
 -1       150 3.70273E-03-1.46407E-04-2.19888E-14
 -1       151 3.75049E-03-3.28458E-04-2.20706E-14
 -1       152 3.90139E-03-5.08026E-04-2.24457E-14
 -1       153 4.15718E-03-6.81525E-04-2.31275E-14
 -1       154 4.51346E-03-8.39228E-04-2.41118E-14
 -1       155 4.90528E-03-9.55841E-04-2.52211E-14
 -1       156 5.42355E-03-1.05038E-03-2.67513E-14
 -1       157 6.35616E-03-1.07797E-03-2.96539E-14
 -1       158 6.81186E-03-1.02570E-03-3.11622E-14
 -1       159 7.19778E-03-9.41662E-04-3.24949E-14
 -1       160 7.51952E-03-8.33654E-04-3.36555E-14
 -1       161 7.77902E-03-7.05236E-04-3.46317E-14
 -1       162 7.97067E-03-5.58769E-04-3.53904E-14
 -1       163 8.08165E-03-4.01463E-04-3.58731E-14
 -1       164 2.42063E-04-1.19075E-04-2.45877E-17
 -1       165 2.27158E-04-8.73375E-05-5.26312E-17
 -1       166 2.20811E-04-6.52069E-05-6.87689E-17
 -1       167 2.17070E-04-4.79576E-05-7.79101E-17
 -1       168 2.14583E-04-3.39345E-05-8.31448E-17
 -1       169 2.12885E-04-2.16211E-05-8.61433E-17
 -1       170 2.11905E-04-1.05118E-05-8.75934E-17
 -1       171 2.11608E-04 4.61522E-08-8.82270E-17
 -1       172 2.11981E-04 1.06627E-05-8.78509E-17
 -1       173 2.13017E-04 2.19372E-05-8.64041E-17
 -1       174 2.14701E-04 3.42725E-05-8.33853E-17
 -1       175 2.17216E-04 4.88218E-05-7.79812E-17
 -1       176 2.20954E-04 6.64243E-05-6.85521E-17
 -1       177 2.27263E-04 8.89725E-05-5.25703E-17
 -1       178 2.40961E-04 1.21371E-04-2.45673E-17
 -1       179 2.98296E-04 1.79124E-04 4.59092E-18
 -1       180 4.70750E-04-2.51667E-04-6.99277E-17
 -1       181 7.72264E-04-3.60835E-04-3.11217E-16
 -1       182 1.06163E-03-4.33897E-04-7.17959E-16
 -1       183 1.34712E-03-4.82679E-04-1.29291E-15
 -1       184 1.63304E-03-5.14433E-04-2.03353E-15
 -1       185 1.92227E-03-5.34360E-04-2.93831E-15
 -1       186 2.21697E-03-5.46732E-04-4.00590E-15
 -1       187 2.51892E-03-5.55600E-04-5.23395E-15
 -1       188 2.82962E-03-5.65324E-04-6.62000E-15
 -1       189 3.15028E-03-5.81010E-04-8.16023E-15
 -1       190 3.48159E-03-6.08830E-04-9.85064E-15
 -1       191 3.82330E-03-6.56001E-04-1.16903E-14
 -1       192 4.17359E-03-7.29969E-04-1.36786E-14
 -1       193 4.52844E-03-8.36095E-04-1.58137E-14
 -1       194 4.88127E-03-9.73307E-04-1.80990E-14
 -1       195 5.22396E-03-1.12851E-03-2.05420E-14
 -1       196 5.55011E-03-1.27371E-03-2.31500E-14
 -1       197 5.85977E-03-1.37208E-03-2.59348E-14
 -1       198 6.16189E-03-1.39538E-03-2.88982E-14
 -1       199 6.47024E-03-1.34137E-03-3.20427E-14
 -1       200 6.79490E-03-1.23570E-03-3.53630E-14
 -1       201 7.13718E-03-1.11532E-03-3.88467E-14
 -1       202 7.49136E-03-1.01027E-03-4.24861E-14
 -1       203 7.84940E-03-9.35848E-04-4.62660E-14
 -1       204 8.20452E-03-8.94707E-04-5.01773E-14
 -1       205 8.55245E-03-8.82420E-04-5.42109E-14
 -1       206 8.89125E-03-8.92136E-04-5.83540E-14
 -1       207 9.22059E-03-9.17212E-04-6.26084E-14
 -1       208 9.54112E-03-9.52253E-04-6.69764E-14
 -1       209 9.85394E-03-9.93275E-04-7.14623E-14
 -1       210 1.01603E-02-1.03751E-03-7.60565E-14
 -1       211 1.04615E-02-1.08315E-03-8.07484E-14
 -1       212 1.07585E-02-1.12903E-03-8.55282E-14
 -1       213 1.10523E-02-1.17448E-03-9.03878E-14
 -1       214 1.13437E-02-1.21914E-03-9.53257E-14
 -1       215 1.16332E-02-1.26284E-03-1.00339E-13
 -1       216 1.19214E-02-1.30557E-03-1.05408E-13
 -1       217 1.22087E-02-1.34736E-03-1.10528E-13
 -1       218 1.24952E-02-1.38831E-03-1.15712E-13
 -1       219 1.27814E-02-1.42852E-03-1.20959E-13
 -1       220 1.30672E-02-1.46811E-03-1.26271E-13
 -1       221 1.33529E-02-1.50720E-03-1.31649E-13
 -1       222 1.36385E-02-1.54588E-03-1.37084E-13
 -1       223 1.39241E-02-1.58425E-03-1.42568E-13
 -1       224 1.42096E-02-1.62239E-03-1.48096E-13
 -1       225 1.44952E-02-1.66039E-03-1.53669E-13
 -1       226 1.47809E-02-1.69831E-03-1.59267E-13
 -1       227 1.50665E-02-1.73621E-03-1.64898E-13
 -1       228 6.07226E-04 3.16167E-04-1.35518E-16
 -1       229 9.00357E-04 4.08858E-04-4.40284E-16
 -1       230 1.18552E-03 4.71687E-04-9.14914E-16
 -1       231 1.46875E-03 5.14156E-04-1.56048E-15
 -1       232 1.75354E-03 5.42544E-04-2.37710E-15
 -1       233 2.04212E-03 5.61603E-04-3.36272E-15
 -1       234 2.33595E-03 5.75415E-04-4.51501E-15
 -1       235 2.63597E-03 5.87844E-04-5.83081E-15
 -1       236 2.94262E-03 6.02790E-04-7.30735E-15
 -1       237 3.25567E-03 6.24232E-04-8.94379E-15
 -1       238 3.57409E-03 6.56007E-04-1.07399E-14
 -1       239 3.89578E-03 7.01185E-04-1.26954E-14
 -1       240 4.21752E-03 7.60937E-04-1.48111E-14
 -1       241 4.53515E-03 8.32980E-04-1.70882E-14
 -1       242 4.84436E-03 9.10102E-04-1.95290E-14
 -1       243 5.14217E-03 9.79842E-04-2.21329E-14
 -1       244 5.42848E-03 1.02658E-03-2.49079E-14
 -1       245 5.70702E-03 1.03632E-03-2.78577E-14
 -1       246 5.98454E-03 1.00230E-03-3.09777E-14
 -1       247 6.26830E-03 9.28058E-04-3.42689E-14
 -1       248 6.56326E-03 8.25824E-04-3.77230E-14
 -1       249 6.87065E-03 7.11352E-04-4.13395E-14
 -1       250 7.18836E-03 5.98615E-04-4.51098E-14
 -1       251 7.51248E-03 4.96808E-04-4.90280E-14
 -1       252 7.83884E-03 4.10013E-04-5.30892E-14
 -1       253 8.16400E-03 3.38452E-04-5.72841E-14
 -1       254 8.48565E-03 2.80131E-04-6.15997E-14
 -1       255 8.80253E-03 2.32181E-04-6.60351E-14
 -1       256 9.11424E-03 1.91697E-04-7.05860E-14
 -1       257 9.42091E-03 1.56165E-04-7.52413E-14
 -1       258 9.72305E-03 1.23605E-04-7.99986E-14
 -1       259 1.00213E-02 9.25604E-05-8.48486E-14
 -1       260 1.03163E-02 6.20262E-05-8.97849E-14
 -1       261 1.06087E-02 3.13518E-05-9.48034E-14
 -1       262 1.08991E-02 1.51459E-07-9.98917E-14
 -1       263 1.11880E-02-3.17728E-05-1.05049E-13
 -1       264 1.14757E-02-6.44916E-05-1.10276E-13
 -1       265 1.17626E-02-9.79943E-05-1.15569E-13
 -1       266 1.20490E-02-1.32221E-04-1.20931E-13
 -1       267 1.23350E-02-1.67087E-04-1.26353E-13
 -1       268 1.26207E-02-2.02497E-04-1.31814E-13
 -1       269 1.29063E-02-2.38353E-04-1.37311E-13
 -1       270 1.31919E-02-2.74563E-04-1.42829E-13
 -1       271 1.34774E-02-3.11041E-04-1.48356E-13
 -1       272 1.37630E-02-3.47709E-04-1.53876E-13
 -1       273 1.40486E-02-3.84495E-04-1.59392E-13
 -1       274 1.43342E-02-4.21332E-04-1.64904E-13
 -1       275 1.46199E-02-4.58164E-04-1.70409E-13
 -1       276 1.46976E-02-5.28583E-04-1.71253E-13
 -1       277 1.47337E-02-6.12913E-04-1.71092E-13
 -1       278 1.47698E-02-6.97279E-04-1.70932E-13
 -1       279 1.48060E-02-7.81680E-04-1.70778E-13
 -1       280 1.48417E-02-8.64680E-04-1.70616E-13
 -1       281 1.48781E-02-9.49133E-04-1.70441E-13
 -1       282 1.49146E-02-1.03360E-03-1.70259E-13
 -1       283 1.49513E-02-1.11808E-03-1.70065E-13
 -1       284 1.49881E-02-1.20255E-03-1.69864E-13
 -1       285 1.50251E-02-1.28702E-03-1.69658E-13
 -1       286 1.50615E-02-1.37005E-03-1.69441E-13
 -1       287 1.50988E-02-1.45448E-03-1.69206E-13
 -1       288 1.51361E-02-1.53888E-03-1.68951E-13
 -1       289 1.51735E-02-1.62325E-03-1.68675E-13
 -1       290 1.51200E-02-1.67974E-03-1.66791E-13
 -1       291 8.10897E-03-2.10440E-04-3.75753E-14
 -1       292 7.94968E-03-1.03981E-04-3.71689E-14
 -1       293 7.68098E-03 3.83380E-05-3.62676E-14
 -1       294 7.32218E-03 2.03131E-04-3.51462E-14
 -1       295 6.92704E-03 3.89390E-04-3.36500E-14
 -1       296 6.49722E-03 5.64374E-04-3.19868E-14
 -1       297 6.11567E-03 6.75941E-04-3.00031E-14
 -1       298 5.72871E-03 7.08584E-04-2.81783E-14
 -1       299 5.33649E-03 6.41677E-04-2.63360E-14
 -1       300 4.93380E-03 4.98858E-04-2.47487E-14
 -1       301 4.53152E-03 3.09710E-04-2.32434E-14
 -1       302 4.13790E-03 1.32505E-04-2.21498E-14
 -1       303 3.85447E-03 1.04124E-05-2.15878E-14
 -1       304 3.69774E-03-1.04676E-04-2.09425E-14
 -1       305 3.68971E-03-1.97313E-04-2.10489E-14
 -1       306 3.82864E-03-3.09695E-04-2.13643E-14
 -1       307 4.09760E-03-4.54638E-04-2.19477E-14
 -1       308 4.48072E-03-6.29624E-04-2.27720E-14
 -1       309 4.87295E-03-8.37214E-04-2.40562E-14
 -1       310 5.31964E-03-1.02284E-03-2.54700E-14
 -1       311 5.73419E-03-1.14397E-03-2.72978E-14
 -1       312 6.10693E-03-1.16050E-03-2.90082E-14
 -1       313 6.46970E-03-1.09825E-03-3.07702E-14
 -1       314 6.85020E-03-9.61625E-04-3.24632E-14
 -1       315 7.21267E-03-8.05034E-04-3.39194E-14
 -1       316 7.54141E-03-6.47944E-04-3.52119E-14
 -1       317 7.82437E-03-5.07325E-04-3.62720E-14
 -1       318 8.03027E-03-3.91165E-04-3.70366E-14
 -1       319 8.12878E-03-2.97900E-04-3.74469E-14
 -1       320 4.58837E-04-1.49690E-04-2.34909E-16
 -1       321 4.78607E-04-1.98357E-04-1.87794E-16
 -1       322 4.39448E-04-8.12166E-05-2.83529E-16
 -1       323 4.34219E-04-5.50234E-05-2.94981E-16
 -1       324 4.30903E-04-3.18302E-05-3.01862E-16
 -1       325 4.29339E-04-1.02930E-05-3.05074E-16
 -1       326 4.29468E-04 1.07927E-05-3.05366E-16
 -1       327 4.31262E-04 3.25755E-05-3.02577E-16
 -1       328 4.34659E-04 5.57981E-05-2.95926E-16
 -1       329 4.39935E-04 8.25270E-05-2.84136E-16
 -1       330 4.47615E-04 1.14005E-04-2.65321E-16
 -1       331 4.59324E-04 1.52659E-04-2.35279E-16
 -1       332 4.80079E-04 2.02963E-04-1.87926E-16
 -1       333 5.36063E-04 2.55486E-04-1.70684E-16
 -1       334 8.32337E-04 3.49906E-04-4.81477E-16
 -1       335 8.72631E-04-3.30112E-04-6.08993E-16
 -1       336 1.16445E-03-3.88604E-04-1.12617E-15
 -1       337 1.45465E-03-4.27257E-04-1.80602E-15
 -1       338 1.74525E-03-4.51545E-04-2.64741E-15
 -1       339 2.03801E-03-4.65931E-04-3.64991E-15
 -1       340 2.33441E-03-4.74431E-04-4.81131E-15
 -1       341 2.63577E-03-4.81113E-04-6.12847E-15
 -1       342 2.94331E-03-4.90547E-04-7.59970E-15
 -1       343 3.25824E-03-5.08209E-04-9.22302E-15
 -1       344 3.58177E-03-5.40746E-04-1.09933E-14
 -1       345 3.91497E-03-5.95846E-04-1.29099E-14
 -1       346 4.25836E-03-6.81175E-04-1.49732E-14
 -1       347 4.61075E-03-8.01533E-04-1.71831E-14
 -1       348 4.96764E-03-9.53401E-04-1.95436E-14
 -1       349 5.32098E-03-1.11756E-03-2.20641E-14
 -1       350 5.66274E-03-1.25650E-03-2.47569E-14
 -1       351 5.99315E-03-1.32611E-03-2.76313E-14
 -1       352 6.32275E-03-1.30391E-03-3.06888E-14
 -1       353 6.66323E-03-1.20720E-03-3.39305E-14
 -1       354 7.01623E-03-1.07912E-03-3.73418E-14
 -1       355 7.37458E-03-9.59441E-04-4.09127E-14
 -1       356 7.72981E-03-8.70091E-04-4.46306E-14
 -1       357 8.07697E-03-8.16538E-04-4.84797E-14
 -1       358 8.41456E-03-7.95049E-04-5.24560E-14
 -1       359 8.74299E-03-7.98526E-04-5.65499E-14
 -1       360 9.06331E-03-8.19770E-04-6.07553E-14
 -1       361 9.37673E-03-8.52774E-04-6.50713E-14
 -1       362 9.68433E-03-8.93006E-04-6.95000E-14
 -1       363 9.98711E-03-9.37264E-04-7.40392E-14
 -1       364 1.02859E-02-9.83396E-04-7.86832E-14
 -1       365 1.05816E-02-1.03003E-03-8.34224E-14
 -1       366 1.08747E-02-1.07633E-03-8.82435E-14
 -1       367 1.11658E-02-1.12183E-03-9.31450E-14
 -1       368 1.14553E-02-1.16633E-03-9.81240E-14
 -1       369 1.17437E-02-1.20976E-03-1.03165E-13
 -1       370 1.20312E-02-1.25216E-03-1.08265E-13
 -1       371 1.23181E-02-1.29362E-03-1.13421E-13
 -1       372 1.26045E-02-1.33425E-03-1.18640E-13
 -1       373 1.28907E-02-1.37418E-03-1.23920E-13
 -1       374 1.31766E-02-1.41353E-03-1.29262E-13
 -1       375 1.34624E-02-1.45240E-03-1.34666E-13
 -1       376 1.37481E-02-1.49092E-03-1.40117E-13
 -1       377 1.40337E-02-1.52916E-03-1.45616E-13
 -1       378 1.43194E-02-1.56721E-03-1.51158E-13
 -1       379 1.46051E-02-1.60514E-03-1.56737E-13
 -1       380 1.48625E-02-1.64244E-03-1.61750E-13
 -1       381 1.12326E-03 4.14994E-04-9.56500E-16
 -1       382 1.41150E-03 4.58985E-04-1.59870E-15
 -1       383 1.69979E-03 4.88099E-04-2.40840E-15
 -1       384 1.99016E-03 5.07173E-04-3.38533E-15
 -1       385 2.28408E-03 5.20353E-04-4.52635E-15
 -1       386 2.58259E-03 5.31545E-04-5.82993E-15
 -1       387 2.88634E-03 5.44682E-04-7.29253E-15
 -1       388 3.19556E-03 5.63818E-04-8.91290E-15
 -1       389 3.50991E-03 5.92972E-04-1.06914E-14
 -1       390 3.82838E-03 6.35588E-04-1.26273E-14
 -1       391 4.14899E-03 6.93478E-04-1.47231E-14
 -1       392 4.46881E-03 7.65235E-04-1.69786E-14
 -1       393 4.78427E-03 8.44489E-04-1.93954E-14
 -1       394 5.09213E-03 9.19054E-04-2.19752E-14
 -1       395 5.39110E-03 9.72454E-04-2.47243E-14
 -1       396 5.68327E-03 9.88753E-04-2.76475E-14
 -1       397 5.97389E-03 9.59157E-04-3.07417E-14
 -1       398 6.26906E-03 8.86282E-04-3.40085E-14
 -1       399 6.57283E-03 7.82902E-04-3.74413E-14
 -1       400 6.88574E-03 6.66031E-04-4.10342E-14
 -1       401 7.20550E-03 5.50783E-04-4.47802E-14
 -1       402 7.52865E-03 4.46972E-04-4.86783E-14
 -1       403 7.85190E-03 3.58859E-04-5.27171E-14
 -1       404 8.17284E-03 2.86607E-04-5.68904E-14
 -1       405 8.49002E-03 2.28081E-04-6.11851E-14
 -1       406 8.80277E-03 1.80260E-04-6.55985E-14
 -1       407 9.11099E-03 1.40115E-04-7.01286E-14
 -1       408 9.41493E-03 1.05035E-04-7.47625E-14
 -1       409 9.71505E-03 7.29671E-05-7.94974E-14
 -1       410 1.00119E-02 4.24098E-05-8.43272E-14
 -1       411 1.03060E-02 1.23276E-05-8.92463E-14
 -1       412 1.05979E-02-1.79455E-05-9.42473E-14
 -1       413 1.08880E-02-4.88018E-05-9.93202E-14
 -1       414 1.11768E-02-8.04395E-05-1.04463E-13
 -1       415 1.14646E-02-1.12925E-04-1.09671E-13
 -1       416 1.17517E-02-1.46243E-04-1.14943E-13
 -1       417 1.20382E-02-1.80327E-04-1.20289E-13
 -1       418 1.23243E-02-2.15084E-04-1.25695E-13
 -1       419 1.26102E-02-2.50414E-04-1.31140E-13
 -1       420 1.28960E-02-2.86214E-04-1.36620E-13
 -1       421 1.31816E-02-3.22386E-04-1.42121E-13
 -1       422 1.34673E-02-3.58842E-04-1.47635E-13
 -1       423 1.37529E-02-3.95499E-04-1.53151E-13
 -1       424 1.40385E-02-4.32284E-04-1.58665E-13
 -1       425 1.43242E-02-4.69129E-04-1.64176E-13
 -1       426 1.45109E-02-4.98862E-04-1.67716E-13
 -1       427 1.45405E-02-7.07498E-04-1.66080E-13
 -1       428 1.45043E-02-6.23157E-04-1.66240E-13
 -1       429 1.45076E-02-5.61005E-04-1.66975E-13
 -1       430 1.45761E-02-7.90423E-04-1.65915E-13
 -1       431 1.46124E-02-8.74786E-04-1.65736E-13
 -1       432 1.46488E-02-9.59155E-04-1.65547E-13
 -1       433 1.46855E-02-1.04353E-03-1.65351E-13
 -1       434 1.47222E-02-1.12790E-03-1.65145E-13
 -1       435 1.47591E-02-1.21227E-03-1.64929E-13
 -1       436 1.47955E-02-1.29521E-03-1.64706E-13
 -1       437 1.48327E-02-1.37958E-03-1.64463E-13
 -1       438 1.48700E-02-1.46393E-03-1.64204E-13
 -1       439 1.49073E-02-1.54828E-03-1.63931E-13
 -1       440 7.79722E-03-9.98188E-05-3.81280E-14
 -1       441 8.15374E-03-2.66549E-04-3.93105E-14
 -1       442 8.05332E-03-2.10696E-04-3.93374E-14
 -1       443 7.46488E-03 3.68300E-05-3.72377E-14
 -1       444 7.05619E-03 2.47468E-04-3.54542E-14
 -1       445 4.47110E-04-1.11852E-04-2.64562E-16
 -1       446 6.21002E-03 6.64613E-04-3.11736E-14
 -1       447 5.92099E-03 7.37094E-04-2.93017E-14
 -1       448 5.56665E-03 7.15264E-04-2.70647E-14
 -1       449 5.17646E-03 5.73740E-04-2.49344E-14
 -1       450 4.82591E-03 4.01528E-04-2.34300E-14
 -1       451 4.35450E-03 1.63250E-04-2.16436E-14
 -1       452 3.97062E-03-4.92011E-08-2.06578E-14
 -1       453 3.76118E-03-8.16738E-05-2.00296E-14
 -1       454 3.65678E-03-1.48942E-04-2.00093E-14
 -1       455 3.73694E-03-2.03159E-04-1.99241E-14
 -1       456 3.96998E-03-3.02527E-04-2.05390E-14
 -1       457 4.30883E-03-4.55093E-04-2.13379E-14
 -1       458 4.77275E-03-6.96693E-04-2.26684E-14
 -1       459 5.14391E-03-9.03173E-04-2.40116E-14
 -1       460 5.60270E-03-1.12477E-03-2.60560E-14
 -1       461 5.94690E-03-1.20433E-03-2.81219E-14
 -1       462 6.21920E-03-1.18161E-03-2.98504E-14
 -1       463 6.61781E-03-1.03560E-03-3.22662E-14
 -1       464 6.97882E-03-8.50714E-04-3.41837E-14
 -1       465 7.32338E-03-6.74758E-04-3.56591E-14
 -1       466 7.65415E-03-5.10060E-04-3.72400E-14
 -1       467 7.93002E-03-3.94214E-04-3.81795E-14
 -1       468 8.10353E-03-3.18019E-04-3.87914E-14
 -1       469 6.67270E-03 4.47852E-04-3.37706E-14
 -1       470 6.41194E-03 5.74197E-04-3.29207E-14
 -1       471 3.66026E-03-1.16548E-04-1.90997E-14
 -1       472 9.40875E-04 3.16981E-04-8.04109E-16
 -1       473 6.57687E-04-6.34246E-05-6.35620E-16
 -1       474 6.65127E-04-9.90696E-05-6.18548E-16
 -1       475 6.52197E-04 2.25028E-07-6.48661E-16
 -1       476 6.53931E-04 3.15417E-05-6.46242E-16
 -1       477 6.58482E-04 6.40409E-05-6.37568E-16
 -1       478 6.66083E-04 1.00429E-04-6.20631E-16
 -1       479 6.77103E-04 1.41944E-04-5.93729E-16
 -1       480 6.92806E-04 1.90712E-04-5.53068E-16
 -1       481 1.23146E-03 3.68073E-04-1.38676E-15
 -1       482 9.85583E-04-2.96024E-04-9.44686E-16
 -1       483 6.86791E-03 3.21067E-04-3.57678E-14
 -1       484 1.27534E-03-3.40578E-04-1.56606E-15
 -1       485 1.56526E-03-3.69743E-04-2.34611E-15
 -1       486 1.85564E-03-3.87396E-04-3.28563E-15
 -1       487 2.14718E-03-3.97254E-04-4.38209E-15
 -1       488 2.44068E-03-4.02985E-04-5.63347E-15
 -1       489 2.73706E-03-4.08509E-04-7.03762E-15
 -1       490 3.03757E-03-4.18346E-04-8.59184E-15
 -1       491 3.34401E-03-4.37971E-04-1.02958E-14
 -1       492 3.65901E-03-4.74115E-04-1.21446E-14
 -1       493 3.98621E-03-5.34829E-04-1.41369E-14
 -1       494 4.32952E-03-6.28791E-04-1.62728E-14
 -1       495 4.69069E-03-7.62510E-04-1.85519E-14
 -1       496 5.06402E-03-9.32471E-04-2.09847E-14
 -1       497 5.43869E-03-1.11132E-03-2.35836E-14
 -1       498 5.79879E-03-1.24149E-03-2.63626E-14
 -1       499 6.15117E-03-1.26768E-03-2.93316E-14
 -1       500 6.51034E-03-1.18385E-03-3.24914E-14
 -1       501 6.88294E-03-1.04329E-03-3.58320E-14
 -1       502 7.25840E-03-9.04877E-04-3.93390E-14
 -1       503 7.62262E-03-8.01118E-04-4.29935E-14
 -1       504 7.96952E-03-7.37930E-04-4.67852E-14
 -1       505 8.30016E-03-7.09934E-04-5.07025E-14
 -1       506 8.61828E-03-7.08741E-04-5.47425E-14
 -1       507 8.92763E-03-7.26612E-04-5.88988E-14
 -1       508 9.23098E-03-7.57312E-04-6.31633E-14
 -1       509 9.53015E-03-7.96136E-04-6.75406E-14
 -1       510 9.82626E-03-8.39698E-04-7.20274E-14
 -1       511 1.01201E-02-8.85660E-04-7.66206E-14
 -1       512 1.04120E-02-9.32476E-04-8.13143E-14
 -1       513 1.07026E-02-9.79174E-04-8.60964E-14
 -1       514 1.09919E-02-1.02519E-03-9.09604E-14
 -1       515 1.12804E-02-1.07024E-03-9.59034E-14
 -1       516 1.15681E-02-1.11420E-03-1.00918E-13
 -1       517 1.18552E-02-1.15709E-03-1.05993E-13
 -1       518 1.21419E-02-1.19899E-03-1.11126E-13
 -1       519 1.24283E-02-1.23999E-03-1.16320E-13
 -1       520 1.27144E-02-1.28022E-03-1.21571E-13
 -1       521 1.30004E-02-1.31982E-03-1.26882E-13
 -1       522 1.32863E-02-1.35889E-03-1.32250E-13
 -1       523 1.35720E-02-1.39755E-03-1.37674E-13
 -1       524 1.38578E-02-1.43589E-03-1.43145E-13
 -1       525 1.41435E-02-1.47401E-03-1.48656E-13
 -1       526 1.44292E-02-1.51197E-03-1.54206E-13
 -1       527 1.81246E-03 4.24836E-04-3.04201E-15
 -1       528 2.10477E-03 4.39146E-04-4.11384E-15
 -1       529 2.39967E-03 4.49263E-04-5.34587E-15
 -1       530 2.69811E-03 4.58974E-04-6.73599E-15
 -1       531 3.00095E-03 4.72214E-04-8.28222E-15
 -1       532 3.30896E-03 4.93097E-04-9.98435E-15
 -1       533 3.62266E-03 5.25703E-04-1.18418E-14
 -1       534 3.94208E-03 5.73452E-04-1.38547E-14
 -1       535 4.26617E-03 6.37849E-04-1.60245E-14
 -1       536 4.59229E-03 7.16479E-04-1.83540E-14
 -1       537 4.91626E-03 8.00705E-04-2.08430E-14
 -1       538 5.23371E-03 8.74632E-04-2.34978E-14
 -1       539 5.54297E-03 9.17808E-04-2.63232E-14
 -1       540 5.84722E-03 9.13356E-04-2.93226E-14
 -1       541 6.15313E-03 8.56697E-04-3.24959E-14
 -1       542 6.46636E-03 7.58869E-04-3.58421E-14
 -1       543 6.78785E-03 6.39545E-04-3.93520E-14
 -1       544 7.11438E-03 5.17917E-04-4.30169E-14
 -1       545 7.44143E-03 4.06872E-04-4.68333E-14
 -1       546 7.76545E-03 3.12250E-04-5.07967E-14
 -1       547 8.08461E-03 2.34798E-04-5.48940E-14
 -1       548 8.39841E-03 1.72444E-04-5.91201E-14
 -1       549 8.70715E-03 1.22027E-04-6.34628E-14
 -1       550 9.01140E-03 8.03039E-05-6.79246E-14
 -1       551 9.31184E-03 4.44344E-05-7.24955E-14
 -1       552 9.60910E-03 1.21534E-05-7.71652E-14
 -1       553 9.90375E-03-1.82268E-05-8.19360E-14
 -1       554 1.01963E-02-4.78903E-05-8.68015E-14
 -1       555 1.04871E-02-7.76168E-05-9.17503E-14
 -1       556 1.07766E-02-1.07880E-04-9.67759E-14
 -1       557 1.10651E-02-1.38932E-04-1.01874E-13
 -1       558 1.13527E-02-1.70875E-04-1.07038E-13
 -1       559 1.16397E-02-2.03709E-04-1.12264E-13
 -1       560 1.19263E-02-2.37378E-04-1.17559E-13
 -1       561 1.22126E-02-2.71790E-04-1.22921E-13
 -1       562 1.24986E-02-3.06840E-04-1.28334E-13
 -1       563 1.27845E-02-3.42419E-04-1.33780E-13
 -1       564 1.30703E-02-3.78425E-04-1.39255E-13
 -1       565 1.33560E-02-4.14762E-04-1.44746E-13
 -1       566 1.36417E-02-4.51343E-04-1.50250E-13
 -1       567 1.39274E-02-4.88089E-04-1.55764E-13
 -1       568 1.42131E-02-5.24930E-04-1.61276E-13
 -1       569 1.43467E-02-8.00517E-04-1.61036E-13
 -1       570 1.43831E-02-8.84800E-04-1.60846E-13
 -1       571 1.42749E-02-6.33353E-04-1.61385E-13
 -1       572 1.43108E-02-7.16938E-04-1.61214E-13
 -1       573 1.44197E-02-9.69075E-04-1.60649E-13
 -1       574 1.44564E-02-1.05335E-03-1.60441E-13
 -1       575 1.44932E-02-1.13762E-03-1.60222E-13
 -1       576 1.45295E-02-1.22046E-03-1.59994E-13
 -1       577 1.45666E-02-1.30475E-03-1.59741E-13
 -1       578 1.46038E-02-1.38905E-03-1.59480E-13
 -1       579 1.46412E-02-1.47335E-03-1.59207E-13
 -1       580 8.16202E-03-2.60807E-04-4.14497E-14
 -1       581 7.67462E-03-8.53232E-05-3.95968E-14
 -1       582 1.52172E-03 4.02511E-04-2.13284E-15
 -1       583 8.17250E-03-2.95972E-04-4.11156E-14
 -1       584 7.95820E-03-1.92334E-04-4.08278E-14
 -1       585 7.18593E-04-2.28160E-04-5.29914E-16
 -1       586 8.06827E-03-3.36560E-04-4.04814E-14
 -1       587 5.36081E-03-1.01517E-03-2.40943E-14
 -1       588 4.54257E-03-5.41345E-04-2.09400E-14
 -1       589 4.60177E-03 2.82273E-04-2.17828E-14
 -1       590 5.73682E-03 7.59158E-04-2.80828E-14
 -1       591 6.53425E-04-3.08955E-05-6.45300E-16
 -1       592 5.37318E-03 6.69480E-04-2.55542E-14
 -1       593 6.04714E-03 7.25617E-04-3.04696E-14
 -1       594 4.11679E-03 5.81471E-05-2.00159E-14
 -1       595 4.99411E-03 4.88589E-04-2.34630E-14
 -1       596 3.63645E-03-1.54411E-04-1.86708E-14
 -1       597 3.83916E-03-4.91737E-05-1.93181E-14
 -1       598 5.79859E-03-1.20090E-03-2.68794E-14
 -1       599 3.82962E-03-2.24479E-04-1.90108E-14
 -1       600 4.12249E-03-3.39092E-04-1.98097E-14
 -1       601 4.97482E-03-7.86517E-04-2.25416E-14
 -1       602 6.81519E-03-9.47090E-04-3.43071E-14
 -1       603 6.09624E-03-1.22501E-03-2.90615E-14
 -1       604 6.42472E-03-1.13721E-03-3.15084E-14
 -1       605 7.18396E-03-7.35330E-04-3.62946E-14
 -1       606 7.48779E-03-5.78491E-04-3.78948E-14
 -1       607 7.84075E-03-4.22033E-04-3.95924E-14
 -1       608 7.10574E-04 2.69402E-04-4.40938E-16
 -1       609 7.23850E-03 1.17681E-04-3.78983E-14
 -1       610 6.76103E-04-1.39591E-04-5.91812E-16
 -1       611 3.69535E-03-8.59828E-05-1.83991E-14
 -1       612 4.32614E-03 1.69272E-04-2.01327E-14
 -1       613 6.62469E-03 4.63675E-04-3.48798E-14
 -1       614 1.46231E-02-1.53925E-03-1.57976E-13
 -1       615 8.85301E-04 6.05719E-05-1.10363E-15
 -1       616 8.80497E-04 1.96173E-05-1.11232E-15
 -1       617 9.07812E-04 1.52821E-04-1.05225E-15
 -1       618 9.26325E-04 2.08095E-04-1.00380E-15
 -1       619 1.05658E-03 2.80383E-04-1.16457E-15
 -1       620 6.27105E-03 6.53727E-04-3.25178E-14
 -1       621 8.17578E-03-3.22247E-04-4.26505E-14
 -1       622 7.73229E-03-4.99923E-04-4.06003E-14
 -1       623 1.38892E-03-2.90970E-04-2.03916E-15
 -1       624 1.67580E-03-3.11835E-04-2.91558E-15
 -1       625 1.96270E-03-3.23933E-04-3.94823E-15
 -1       626 2.24952E-03-3.30318E-04-5.13518E-15
 -1       627 2.53655E-03-3.34200E-04-6.47381E-15
 -1       628 2.82445E-03-3.39093E-04-7.96178E-15
 -1       629 3.11461E-03-3.49070E-04-9.59803E-15
 -1       630 3.40966E-03-3.69116E-04-1.13800E-14
 -1       631 3.71407E-03-4.05726E-04-1.33049E-14
 -1       632 4.03430E-03-4.67778E-04-1.53695E-14
 -1       633 4.37965E-03-5.67095E-04-1.75731E-14
 -1       634 4.75530E-03-7.16569E-04-1.99193E-14
 -1       635 7.53662E-03-7.22881E-04-4.13536E-14
 -1       636 7.88556E-03-6.53140E-04-4.50893E-14
 -1       637 8.20922E-03-6.23329E-04-4.89494E-14
 -1       638 8.51547E-03-6.21097E-04-5.29330E-14
 -1       639 8.81158E-03-6.37614E-04-5.70378E-14
 -1       640 9.10227E-03-6.66713E-04-6.12531E-14
 -1       641 9.39035E-03-7.03998E-04-6.55775E-14
 -1       642 9.67727E-03-7.46308E-04-7.00122E-14
 -1       643 9.96375E-03-7.91388E-04-7.45576E-14
 -1       644 1.02501E-02-8.37678E-04-7.92049E-14
 -1       645 1.05363E-02-8.84143E-04-8.39454E-14
 -1       646 1.08226E-02-9.30139E-04-8.87713E-14
 -1       647 1.11087E-02-9.75304E-04-9.36794E-14
 -1       648 1.13949E-02-1.01947E-03-9.86646E-14
 -1       649 1.16809E-02-1.06261E-03-1.03715E-13
 -1       650 1.19669E-02-1.10475E-03-1.08824E-13
 -1       651 1.22528E-02-1.14599E-03-1.13993E-13
 -1       652 1.25387E-02-1.18643E-03-1.19222E-13
 -1       653 1.28246E-02-1.22621E-03-1.24506E-13
 -1       654 1.31104E-02-1.26543E-03-1.29842E-13
 -1       655 1.33961E-02-1.30421E-03-1.35235E-13
 -1       656 1.36819E-02-1.34264E-03-1.40679E-13
 -1       657 1.39677E-02-1.38082E-03-1.46162E-13
 -1       658 1.42534E-02-1.41881E-03-1.51682E-13
 -1       659 2.21565E-03 3.70324E-04-4.86083E-15
 -1       660 1.39892E-02-5.96463E-04-1.55869E-13
 -1       661 1.92432E-03 3.60324E-04-3.69758E-15
 -1       662 2.80562E-03 3.85838E-04-7.65403E-15
 -1       663 3.10670E-03 3.98685E-04-9.28237E-15
 -1       664 3.41395E-03 4.20330E-04-1.10635E-14
 -1       665 3.72909E-03 4.55099E-04-1.29972E-14
 -1       666 4.05333E-03 5.06965E-04-1.50837E-14
 -1       667 4.38620E-03 5.78054E-04-1.73251E-14
 -1       668 4.72425E-03 6.65651E-04-1.97238E-14
 -1       669 5.06085E-03 7.58315E-04-2.22830E-14
 -1       670 5.38899E-03 8.33470E-04-2.50125E-14
 -1       671 5.70785E-03 8.62547E-04-2.79126E-14
 -1       672 6.02333E-03 8.29439E-04-3.09916E-14
 -1       673 6.34611E-03 7.37859E-04-3.42487E-14
 -1       674 6.67886E-03 6.13162E-04-3.76766E-14
 -1       675 7.01737E-03 4.82191E-04-4.12636E-14
 -1       676 7.35422E-03 3.62881E-04-4.50027E-14
 -1       677 7.68405E-03 2.62439E-04-4.88892E-14
 -1       678 8.00487E-03 1.81277E-04-5.29150E-14
 -1       679 8.31713E-03 1.16585E-04-5.70705E-14
 -1       680 8.62233E-03 6.46629E-05-6.13447E-14
 -1       681 8.92218E-03 2.19797E-05-6.57371E-14
 -1       682 9.21811E-03-1.44504E-05-7.02424E-14
 -1       683 9.51124E-03-4.69803E-05-7.48512E-14
 -1       684 9.80235E-03-7.73677E-05-7.95605E-14
 -1       685 1.00920E-02-1.06861E-04-8.43698E-14
 -1       686 1.03806E-02-1.36299E-04-8.92670E-14
 -1       687 1.06685E-02-1.66207E-04-9.42434E-14
 -1       688 1.09557E-02-1.96876E-04-9.92953E-14
 -1       689 1.12426E-02-2.28440E-04-1.04414E-13
 -1       690 1.15291E-02-2.60919E-04-1.09600E-13
 -1       691 1.18153E-02-2.94267E-04-1.14850E-13
 -1       692 1.21014E-02-3.28401E-04-1.20165E-13
 -1       693 1.23874E-02-3.63217E-04-1.25541E-13
 -1       694 1.26733E-02-3.98605E-04-1.30958E-13
 -1       695 1.29591E-02-4.34461E-04-1.36402E-13
 -1       696 1.32448E-02-4.70685E-04-1.41869E-13
 -1       697 1.35306E-02-5.07190E-04-1.47357E-13
 -1       698 1.37599E-02-5.51777E-04-1.51611E-13
 -1       699 7.53168E-03-1.02947E-05-4.08690E-14
 -1       700 1.41906E-02-9.78899E-04-1.55760E-13
 -1       701 1.44473E-02-1.44609E-03-1.55434E-13
 -1       702 1.41175E-02-8.10548E-04-1.56162E-13
 -1       703 1.42273E-02-1.06306E-03-1.55540E-13
 -1       704 1.41540E-02-8.94732E-04-1.55969E-13
 -1       705 1.42636E-02-1.14580E-03-1.55308E-13
 -1       706 1.43006E-02-1.22999E-03-1.55056E-13
 -1       707 1.43378E-02-1.31420E-03-1.54788E-13
 -1       708 8.76136E-04-2.18626E-04-8.65295E-16
 -1       709 7.85612E-03-1.50335E-04-4.20853E-14
 -1       710 8.13961E-03-2.44716E-04-4.34533E-14
 -1       711 4.26508E-03-4.18336E-04-1.89054E-14
 -1       712 3.97100E-03-2.87963E-04-1.81381E-14
 -1       713 3.89430E-03 5.05458E-06-1.83318E-14
 -1       714 1.63429E-03 3.44255E-04-2.69335E-15
 -1       715 2.50906E-03 3.77652E-04-6.17990E-15
 -1       716 1.34505E-03 3.18734E-04-1.84904E-15
 -1       717 8.01417E-03-3.77835E-04-4.17409E-14
 -1       718 4.74026E-03-6.65087E-04-2.07279E-14
 -1       719 1.13157E-03-2.60000E-04-1.39042E-15
 -1       720 3.58300E-03-1.24544E-04-1.77616E-14
 -1       721 5.87952E-03 7.73179E-04-2.93064E-14
 -1       722 8.94367E-04 1.04329E-04-1.08440E-15
 -1       723 8.92730E-04-1.03208E-04-1.08105E-15
 -1       724 4.74587E-03 3.99062E-04-2.15570E-14
 -1       725 3.64100E-03-1.70521E-04-1.73335E-14
 -1       726 8.24091E-03-2.90384E-04-4.34174E-14
 -1       727 7.39263E-03-6.63285E-04-3.86180E-14
 -1       728 7.04735E-03 2.37401E-04-3.81624E-14
 -1       729 5.14968E-03 5.98670E-04-2.38214E-14
 -1       730 5.53224E-03 7.45267E-04-2.64538E-14
 -1       731 7.18062E-03-8.21988E-04-3.78316E-14
 -1       732 9.06036E-04-1.50491E-04-1.04811E-15
 -1       733 8.80079E-04-2.01477E-05-1.11138E-15
 -1       734 1.40815E-02-7.27052E-04-1.56345E-13
 -1       735 4.06085E-03 9.55087E-05-1.84297E-14
 -1       736 3.72642E-03-3.73518E-05-1.74362E-14
 -1       737 3.52411E-03-1.37916E-04-1.64543E-14
 -1       738 8.84129E-04-6.04024E-05-1.10106E-15
 -1       739 6.09304E-03 7.41866E-04-3.12973E-14
 -1       740 1.42955E-02-1.36651E-03-1.53238E-13
 -1       741 4.46945E-03 2.93117E-04-1.99016E-14
 -1       742 1.15926E-03 2.09180E-04-1.58443E-15
 -1       743 8.19307E-03-3.65266E-04-4.46268E-14
 -1       744 3.99999E-03-3.47247E-04-1.69072E-14
 -1       745 5.67115E-03 7.98474E-04-2.75465E-14
 -1       746 1.78509E-03-2.54662E-04-3.51354E-15
 -1       747 2.06632E-03-2.62503E-04-4.63545E-15
 -1       748 2.34594E-03-2.66515E-04-5.90944E-15
 -1       749 2.62372E-03-2.69323E-04-7.33274E-15
 -1       750 2.89999E-03-2.73756E-04-8.90294E-15
 -1       751 3.17603E-03-2.83009E-04-1.06188E-14
 -1       752 3.45479E-03-3.01068E-04-1.24769E-14
 -1       753 3.74215E-03-3.33753E-04-1.44746E-14
 -1       754 8.14749E-03-5.33526E-04-4.71992E-14
 -1       755 8.43555E-03-5.34677E-04-5.11281E-14
 -1       756 8.71377E-03-5.52709E-04-5.51789E-14
 -1       757 8.98846E-03-5.81516E-04-5.93433E-14
 -1       758 9.26288E-03-6.17516E-04-6.36134E-14
 -1       759 9.53849E-03-6.58211E-04-6.79963E-14
 -1       760 9.81583E-03-7.01749E-04-7.24917E-14
 -1       761 1.00949E-02-7.46757E-04-7.70936E-14
 -1       762 1.03756E-02-7.92251E-04-8.17926E-14
 -1       763 1.06575E-02-8.37566E-04-8.65785E-14
 -1       764 1.09405E-02-8.82290E-04-9.14501E-14
 -1       765 1.12242E-02-9.26198E-04-9.64027E-14
 -1       766 1.15086E-02-9.69202E-04-1.01426E-13
 -1       767 1.17934E-02-1.01130E-03-1.06514E-13
 -1       768 1.20785E-02-1.05255E-03-1.11658E-13
 -1       769 1.23638E-02-1.09305E-03-1.16866E-13
 -1       770 1.26492E-02-1.13288E-03-1.22126E-13
 -1       771 1.29348E-02-1.17217E-03-1.27438E-13
 -1       772 1.32205E-02-1.21100E-03-1.32803E-13
 -1       773 1.35062E-02-1.24948E-03-1.38217E-13
 -1       774 1.37919E-02-1.28768E-03-1.43674E-13
 -1       775 1.40437E-02-1.32714E-03-1.48442E-13
 -1       776 2.03436E-03 2.95387E-04-4.37593E-15
 -1       777 3.20383E-03 3.22807E-04-1.02939E-14
 -1       778 2.90562E-03 3.11695E-04-8.58702E-15
 -1       779 3.82739E-03 3.78285E-04-1.41578E-14
 -1       780 4.15881E-03 4.33445E-04-1.63142E-14
 -1       781 4.50430E-03 5.13326E-04-1.86222E-14
 -1       782 4.85928E-03 6.15789E-04-2.10849E-14
 -1       783 5.21223E-03 7.23638E-04-2.37142E-14
 -1       784 6.21475E-03 7.30982E-04-3.26558E-14
 -1       785 6.55966E-03 5.99294E-04-3.60011E-14
 -1       786 6.91306E-03 4.53616E-04-3.95134E-14
 -1       787 7.26363E-03 3.22243E-04-4.31781E-14
 -1       788 7.60253E-03 2.15135E-04-4.69912E-14
 -1       789 7.92730E-03 1.31210E-04-5.09454E-14
 -1       790 8.23928E-03 6.57015E-05-5.50307E-14
 -1       791 8.54148E-03 1.36362E-05-5.92389E-14
 -1       792 8.83692E-03-2.90714E-05-6.35635E-14
 -1       793 9.12798E-03-6.55598E-05-6.80052E-14
 -1       794 9.41639E-03-9.81756E-05-7.25516E-14
 -1       795 9.70327E-03-1.28633E-04-7.71992E-14
 -1       796 9.98934E-03-1.58146E-04-8.19531E-14
 -1       797 1.02750E-02-1.87542E-04-8.67962E-14
 -1       798 1.05605E-02-2.17350E-04-9.17270E-14
 -1       799 1.08460E-02-2.47877E-04-9.67293E-14
 -1       800 1.11315E-02-2.79269E-04-1.01805E-13
 -1       801 1.14171E-02-3.11566E-04-1.06951E-13
 -1       802 1.17027E-02-3.44733E-04-1.12160E-13
 -1       803 1.19883E-02-3.78696E-04-1.17432E-13
 -1       804 1.22740E-02-4.13357E-04-1.22767E-13
 -1       805 1.25597E-02-4.48612E-04-1.28153E-13
 -1       806 1.28454E-02-4.84356E-04-1.33573E-13
 -1       807 1.31312E-02-5.20494E-04-1.39016E-13
 -1       808 1.34169E-02-5.56935E-04-1.44484E-13
 -1       809 1.39980E-02-1.07194E-03-1.50647E-13
 -1       810 1.40717E-02-1.23938E-03-1.50136E-13
 -1       811 1.39612E-02-9.87900E-04-1.50881E-13
 -1       812 7.35943E-03 1.14933E-04-4.13226E-14
 -1       813 4.89817E-03 5.46937E-04-2.17817E-14
 -1       814 8.09198E-03-2.04022E-04-4.53714E-14
 -1       815 7.67085E-03-5.98519E-04-4.16460E-14
 -1       816 8.29689E-03-2.82333E-04-4.58324E-14
 -1       817 1.40348E-02-1.15564E-03-1.50400E-13
 -1       818 3.50999E-03 3.43312E-04-1.21513E-14
 -1       819 3.56388E-03-9.01325E-05-1.68263E-14
 -1       820 8.30009E-03-3.23491E-04-4.54196E-14
 -1       821 1.74709E-03 2.85006E-04-3.28074E-15
 -1       822 6.54814E-03 5.46147E-04-3.52654E-14
 -1       823 1.50286E-03-2.40538E-04-2.54495E-15
 -1       824 7.83598E-03-1.05163E-04-4.41159E-14
 -1       825 6.92940E-03 3.57344E-04-3.85607E-14
 -1       826 7.98420E-03-4.48744E-04-4.34519E-14
 -1       827 1.24995E-03 2.61759E-04-1.72078E-15
 -1       828 5.27617E-03 6.63741E-04-2.45653E-14
 -1       829 5.39923E-03 7.41655E-04-2.52973E-14
 -1       830 1.11431E-03 4.65969E-05-1.68989E-15
 -1       831 3.68007E-03-2.17729E-04-1.60747E-14
 -1       832 1.11063E-03-8.06308E-07-1.69513E-15
 -1       833 1.38520E-02-7.36779E-04-1.51489E-13
 -1       834 1.13600E-03-1.48213E-04-1.63137E-15
 -1       835 3.44245E-03-1.06681E-04-1.55566E-14
 -1       836 1.49848E-03 2.77421E-04-2.43873E-15
 -1       837 2.61256E-03 3.05729E-04-7.03045E-15
 -1       838 7.68745E-03 2.55644E-06-4.45790E-14
 -1       839 1.36462E-02-6.01478E-04-1.48724E-13
 -1       840 8.30245E-03-2.54389E-04-4.77956E-14
 -1       841 1.38884E-02-8.20875E-04-1.51300E-13
 -1       842 2.32259E-03 3.01336E-04-5.62645E-15
 -1       843 1.39248E-02-9.04398E-04-1.51100E-13
 -1       844 3.51382E-03-1.72767E-04-1.52340E-14
 -1       845 4.18967E-03 2.10646E-04-1.81950E-14
 -1       846 3.81521E-03 3.85107E-05-1.69712E-14
 -1       847 1.38059E-02-6.44304E-04-1.51555E-13
 -1       848 1.24937E-03-2.18388E-04-1.81106E-15
 -1       849 1.13880E-03 1.49937E-04-1.63668E-15
 -1       850 1.12379E-03 9.62209E-05-1.67086E-15
 -1       851 1.12145E-03-9.61447E-05-1.66680E-15
 -1       852 5.15522E-03 6.53449E-04-2.35001E-14
 -1       853 1.40577E-02-1.28326E-03-1.49291E-13
 -1       854 8.38027E-03-4.51322E-04-4.93243E-14
 -1       855 2.16785E-03-2.04032E-04-5.34713E-15
 -1       856 2.43860E-03-2.06844E-04-6.70513E-15
 -1       857 2.70499E-03-2.09401E-04-8.21044E-15
 -1       858 2.96659E-03-2.13646E-04-9.86144E-15
 -1       859 3.22368E-03-2.21591E-04-1.16546E-14
 -1       860 3.47851E-03-2.36074E-04-1.35856E-14
 -1       861 8.63251E-03-4.73144E-04-5.33201E-14
 -1       862 8.88652E-03-5.02649E-04-5.74330E-14
 -1       863 9.14456E-03-5.37510E-04-6.16517E-14
 -1       864 9.40715E-03-5.76228E-04-6.59801E-14
 -1       865 9.67412E-03-6.17584E-04-7.04246E-14
 -1       866 9.94498E-03-6.60552E-04-7.49799E-14
 -1       867 1.02191E-02-7.04303E-04-7.96369E-14
 -1       868 1.04960E-02-7.48214E-04-8.43842E-14
 -1       869 1.07751E-02-7.91852E-04-8.92182E-14
 -1       870 1.10559E-02-8.34950E-04-9.41366E-14
 -1       871 1.13380E-02-8.77364E-04-9.91291E-14
 -1       872 1.16212E-02-9.19047E-04-1.04192E-13
 -1       873 1.19051E-02-9.60012E-04-1.09314E-13
 -1       874 1.21896E-02-1.00031E-03-1.14500E-13
 -1       875 1.24745E-02-1.04003E-03-1.19742E-13
 -1       876 1.27597E-02-1.07924E-03-1.25032E-13
 -1       877 1.30451E-02-1.11803E-03-1.30374E-13
 -1       878 1.33307E-02-1.15648E-03-1.35763E-13
 -1       879 1.36163E-02-1.19466E-03-1.41196E-13
 -1       880 3.54756E-03-4.53209E-05-1.58487E-14
 -1       881 4.24950E-03 3.51146E-04-1.75410E-14
 -1       882 3.91118E-03 2.93173E-04-1.53208E-14
 -1       883 7.54276E-03 1.51600E-04-4.51138E-14
 -1       884 7.87127E-03 6.69103E-05-4.89954E-14
 -1       885 8.18108E-03 3.90253E-06-5.30111E-14
 -1       886 8.47802E-03-4.53247E-05-5.71534E-14
 -1       887 8.76686E-03-8.59016E-05-6.14108E-14
 -1       888 9.05105E-03-1.21095E-04-6.57834E-14
 -1       889 9.33296E-03-1.53096E-04-7.02684E-14
 -1       890 9.61404E-03-1.83384E-04-7.48555E-14
 -1       891 9.89514E-03-2.12978E-04-7.95473E-14
 -1       892 1.01767E-02-2.42562E-04-8.43366E-14
 -1       893 1.04589E-02-2.72582E-04-8.92121E-14
 -1       894 1.07418E-02-3.03298E-04-9.41698E-14
 -1       895 1.10253E-02-3.34839E-04-9.92000E-14
 -1       896 1.13094E-02-3.67239E-04-1.04304E-13
 -1       897 1.15939E-02-4.00470E-04-1.09475E-13
 -1       898 1.18787E-02-4.34463E-04-1.14707E-13
 -1       899 1.21639E-02-4.69131E-04-1.19999E-13
 -1       900 1.24492E-02-5.04377E-04-1.25346E-13
 -1       901 1.27347E-02-5.40106E-04-1.30742E-13
 -1       902 1.30203E-02-5.76225E-04-1.36166E-13
 -1       903 1.33060E-02-6.12652E-04-1.41612E-13
 -1       904 4.54136E-03 3.87875E-04-1.97045E-14
 -1       905 1.37322E-02-9.97473E-04-1.46016E-13
 -1       906 8.22111E-03-4.23899E-04-4.64907E-14
 -1       907 3.92885E-03 1.37296E-04-1.67431E-14
 -1       908 7.24501E-03 2.39473E-04-4.17812E-14
 -1       909 2.99750E-03 2.36166E-04-9.53281E-15
 -1       910 8.37563E-03-3.66660E-04-4.77762E-14
 -1       911 1.85923E-03 2.25237E-04-3.89482E-15
 -1       912 1.11299E-03-4.77155E-05-1.68765E-15
 -1       913 1.89355E-03-1.99029E-04-4.13887E-15
 -1       914 8.08633E-03-1.56729E-04-4.73713E-14
 -1       915 8.44595E-03-3.22143E-04-4.87019E-14
 -1       916 1.61687E-03-1.89923E-04-3.08196E-15
 -1       917 2.14223E-03 2.30530E-04-5.07687E-15
 -1       918 1.40507E-03 2.24472E-04-2.27421E-15
 -1       919 3.57504E-03 2.46035E-05-1.51333E-14
 -1       920 3.37398E-03-1.35271E-04-1.43806E-14
 -1       921 1.38384E-03-1.67590E-04-2.33484E-15
 -1       922 1.36530E-03-1.10064E-04-2.38069E-15
 -1       923 1.35365E-03 7.86151E-05-2.37582E-15
 -1       924 3.38178E-03-7.08241E-05-1.46217E-14
 -1       925 8.32035E-03-2.18561E-04-4.98455E-14
 -1       926 1.38370E-02-1.23899E-03-1.45232E-13
 -1       927 1.63248E-03 2.27665E-04-3.03112E-15
 -1       928 3.59343E-03 2.60352E-04-1.32460E-14
 -1       929 3.29039E-03 2.43612E-04-1.13164E-14
 -1       930 2.71014E-03 2.33567E-04-7.89754E-15
 -1       931 1.35353E-02-6.57166E-04-1.45836E-13
 -1       932 8.50626E-03-3.00403E-04-5.07232E-14
 -1       933 2.42560E-03 2.32553E-04-6.41132E-15
 -1       934 1.36957E-02-9.14128E-04-1.46246E-13
 -1       935 1.38000E-02-1.15534E-03-1.45508E-13
 -1       936 1.36228E-02-7.46827E-04-1.46649E-13
 -1       937 1.34501E-03 2.45920E-05-2.39114E-15
 -1       938 1.37661E-02-1.07639E-03-1.45768E-13
 -1       939 3.65683E-03 1.06424E-04-1.49100E-14
 -1       940 3.37133E-03-1.64113E-05-1.39457E-14
 -1       941 3.93128E-03 2.17126E-04-1.60365E-14
 -1       942 2.53113E-03-1.52003E-04-7.52021E-15
 -1       943 2.78492E-03-1.55441E-04-9.10476E-15
 -1       944 3.02951E-03-1.60493E-04-1.08340E-14
 -1       945 3.26292E-03-1.68276E-04-1.27019E-14
 -1       946 1.36926E-03 1.35893E-04-2.34304E-15
 -1       947 8.56238E-03-4.02212E-04-5.14592E-14
 -1       948 8.79087E-03-4.31739E-04-5.55191E-14
 -1       949 9.03039E-03-4.64833E-04-5.96906E-14
 -1       950 9.27906E-03-5.00899E-04-6.39686E-14
 -1       951 9.53526E-03-5.39351E-04-6.83605E-14
 -1       952 9.79766E-03-5.79526E-04-7.28657E-14
 -1       953 1.00651E-02-6.20783E-04-7.74756E-14
 -1       954 1.03367E-02-6.62573E-04-8.21829E-14
 -1       955 1.06116E-02-7.04468E-04-8.69833E-14
 -1       956 1.08892E-02-7.46170E-04-9.18675E-14
 -1       957 1.11689E-02-7.87491E-04-9.68286E-14
 -1       958 1.14501E-02-8.28330E-04-1.01862E-13
 -1       959 1.17327E-02-8.68657E-04-1.06966E-13
 -1       960 1.20161E-02-9.08483E-04-1.12126E-13
 -1       961 1.23003E-02-9.47846E-04-1.17344E-13
 -1       962 1.25850E-02-9.86801E-04-1.22618E-13
 -1       963 1.28701E-02-1.02541E-03-1.27940E-13
 -1       964 1.31554E-02-1.06373E-03-1.33312E-13
 -1       965 1.34409E-02-1.10182E-03-1.38721E-13
 -1       966 1.97078E-03 1.65404E-04-4.53362E-15
 -1       967 2.00300E-03-1.45395E-04-4.78965E-15
 -1       968 8.00797E-03-6.22911E-05-4.86714E-14
 -1       969 8.70737E-03-1.42099E-04-5.92728E-14
 -1       970 8.98224E-03-1.74676E-04-6.35784E-14
 -1       971 9.25592E-03-2.05355E-04-6.79965E-14
 -1       972 9.52994E-03-2.35211E-04-7.25236E-14
 -1       973 9.80512E-03-2.64916E-04-7.71550E-14
 -1       974 1.00818E-02-2.94902E-04-8.18871E-14
 -1       975 1.03601E-02-3.25444E-04-8.67088E-14
 -1       976 1.06398E-02-3.56699E-04-9.16163E-14
 -1       977 1.09209E-02-3.88735E-04-9.66036E-14
 -1       978 1.12031E-02-4.21562E-04-1.01664E-13
 -1       979 1.14862E-02-4.55140E-04-1.06797E-13
 -1       980 1.17700E-02-4.89407E-04-1.11989E-13
 -1       981 1.20544E-02-5.24282E-04-1.17241E-13
 -1       982 1.23392E-02-5.59681E-04-1.22550E-13
 -1       983 1.26244E-02-5.95519E-04-1.27910E-13
 -1       984 1.29097E-02-6.31716E-04-1.33311E-13
 -1       985 1.31952E-02-6.68198E-04-1.38743E-13
 -1       986 1.34090E-02-7.07448E-04-1.42689E-13
 -1       987 1.36592E-02-8.30501E-04-1.46455E-13
 -1       988 1.35436E-03-5.61196E-05-2.40750E-15
 -1       989 2.24821E-03 1.66250E-04-5.79842E-15
 -1       990 8.54887E-03-3.66114E-04-5.08731E-14
 -1       991 1.34738E-03-1.57151E-05-2.40408E-15
 -1       992 8.42857E-03-1.05791E-04-5.50802E-14
 -1       993 8.21954E-03-8.60058E-05-5.18360E-14
 -1       994 1.59335E-03-1.28497E-04-3.13996E-15
 -1       995 1.79874E-03-1.37737E-04-3.92300E-15
 -1       996 2.26993E-03-1.49079E-04-6.08133E-15
 -1       997 3.26300E-03-1.01815E-04-1.34941E-14
 -1       998 1.59855E-03 1.13580E-04-3.16741E-15
 -1       999 3.09869E-03-1.15861E-04-1.18209E-14
 -1      1000 1.58334E-03 5.38903E-05-3.19551E-15
 -1      1001 3.63440E-03 1.84572E-04-1.40797E-14
 -1      1002 8.55814E-03-2.74645E-04-5.28347E-14
 -1      1003 3.39353E-03 5.08240E-05-1.34533E-14
 -1      1004 3.07989E-03 1.59483E-04-1.04918E-14
 -1      1005 1.34454E-02-7.90995E-04-1.42501E-13
 -1      1006 8.26522E-03-1.56434E-04-5.08461E-14
 -1      1007 2.80150E-03 1.61571E-04-8.77934E-15
 -1      1008 2.52488E-03 1.64460E-04-7.21364E-15
 -1      1009 1.34667E-02-9.23435E-04-1.41408E-13
 -1      1010 8.64853E-03-3.44038E-04-5.29452E-14
 -1      1011 1.35005E-02-1.00215E-03-1.41169E-13
 -1      1012 1.69270E-03 1.60538E-04-3.42156E-15
 -1      1013 2.87091E-03-1.08031E-04-1.00153E-14
 -1      1014 1.87319E-03 1.17336E-04-4.24043E-15
 -1      1015 8.76207E-03-3.94716E-04-5.49177E-14
 -1      1016 8.99158E-03-4.26133E-04-5.90735E-14
 -1      1017 9.23312E-03-4.60231E-04-6.33386E-14
 -1      1018 9.48399E-03-4.96630E-04-6.77159E-14
 -1      1019 9.74224E-03-5.34799E-04-7.22055E-14
 -1      1020 1.00064E-02-5.74188E-04-7.67997E-14
 -1      1021 1.02754E-02-6.14299E-04-8.14941E-14
 -1      1022 1.05482E-02-6.54730E-04-8.62846E-14
 -1      1023 1.08242E-02-6.95182E-04-9.11602E-14
 -1      1024 1.11025E-02-7.35459E-04-9.61125E-14
 -1      1025 1.13828E-02-7.75444E-04-1.01137E-13
 -1      1026 1.16646E-02-8.15081E-04-1.06235E-13
 -1      1027 1.19475E-02-8.54358E-04-1.11391E-13
 -1      1028 1.22313E-02-8.93293E-04-1.16601E-13
 -1      1029 1.25157E-02-9.31918E-04-1.21871E-13
 -1      1030 1.28005E-02-9.70275E-04-1.27191E-13
 -1      1031 1.30857E-02-1.00841E-03-1.32559E-13
 -1      1032 1.33711E-02-1.04636E-03-1.37965E-13
 -1      1033 3.17988E-03 9.35998E-06-1.22111E-14
 -1      1034 9.18403E-03-2.54344E-04-6.57392E-14
 -1      1035 1.57868E-03-7.07976E-05-3.17566E-15
 -1      1036 1.34560E-02-8.57241E-04-1.41959E-13
 -1      1037 8.92083E-03-2.25476E-04-6.13877E-14
 -1      1038 9.71799E-03-3.13521E-04-7.47741E-14
 -1      1039 9.98920E-03-3.44148E-04-7.94482E-14
 -1      1040 1.02631E-02-3.75541E-04-8.42145E-14
 -1      1041 1.05394E-02-4.07704E-04-8.90703E-14
 -1      1042 1.08177E-02-4.40612E-04-9.40099E-14
 -1      1043 1.10978E-02-4.74221E-04-9.90299E-14
 -1      1044 1.13793E-02-5.08471E-04-1.04118E-13
 -1      1045 1.16619E-02-5.43293E-04-1.09274E-13
 -1      1046 1.19455E-02-5.78615E-04-1.14486E-13
 -1      1047 1.22296E-02-6.14363E-04-1.19760E-13
 -1      1048 1.25143E-02-6.50468E-04-1.25085E-13
 -1      1049 1.27994E-02-6.86865E-04-1.30456E-13
 -1      1050 1.30847E-02-7.23498E-04-1.35867E-13
 -1      1051 1.32650E-02-7.57199E-04-1.39180E-13
 -1      1052 9.44961E-03-2.83619E-04-7.02026E-14
 -1      1053 2.11639E-03-9.38522E-05-5.46403E-15
 -1      1054 2.62896E-03-1.02174E-04-8.35291E-15
 -1      1055 2.35325E-03 1.03237E-04-6.53919E-15
 -1      1056 3.21077E-03-4.55609E-05-1.28577E-14
 -1      1057 8.65891E-03-1.96434E-04-5.71455E-14
 -1      1058 3.36527E-03 1.19419E-04-1.26735E-14
 -1      1059 2.37659E-03-9.77186E-05-6.83577E-15
 -1      1060 2.11450E-03 1.11634E-04-5.32969E-15
 -1      1061 1.58148E-03 1.00427E-05-3.21808E-15
 -1      1062 8.53147E-03-2.26385E-04-5.38754E-14
 -1      1063 3.07969E-03 7.27298E-05-1.10502E-14
 -1      1064 8.72954E-03-3.23146E-04-5.51038E-14
 -1      1065 2.81816E-03 8.10140E-05-9.29682E-15
 -1      1066 3.08666E-03-6.49184E-05-1.18737E-14
 -1      1067 1.78126E-03-7.81549E-05-3.96497E-15
 -1      1068 1.32123E-02-8.52007E-04-1.37012E-13
 -1      1069 2.58757E-03 9.30137E-05-7.85979E-15
 -1      1070 2.85964E-03-5.36031E-05-1.00629E-14
 -1      1071 1.32460E-02-9.30493E-04-1.36785E-13
 -1      1072 1.57757E-03-3.03694E-05-3.20205E-15
 -1      1073 1.94951E-03-8.61032E-05-4.68588E-15
 -1      1074 8.86734E-03-3.72913E-04-5.70861E-14
 -1      1075 9.09934E-03-4.03187E-04-6.13035E-14
 -1      1076 9.34292E-03-4.36062E-04-6.56321E-14
 -1      1077 9.59539E-03-4.71017E-04-7.00714E-14
 -1      1078 9.85489E-03-5.07545E-04-7.46177E-14
 -1      1079 1.01200E-02-5.45164E-04-7.92665E-14
 -1      1080 1.03898E-02-5.83468E-04-8.40156E-14
 -1      1081 1.06631E-02-6.22140E-04-8.88561E-14
 -1      1082 1.09395E-02-6.60951E-04-9.37785E-14
 -1      1083 1.12182E-02-6.99747E-04-9.87710E-14
 -1      1084 1.14987E-02-7.38434E-04-1.03836E-13
 -1      1085 1.17807E-02-7.76963E-04-1.08973E-13
 -1      1086 1.20638E-02-8.15317E-04-1.14159E-13
 -1      1087 1.23477E-02-8.53498E-04-1.19404E-13
 -1      1088 1.26322E-02-8.91519E-04-1.24708E-13
 -1      1089 1.29171E-02-9.29401E-04-1.30058E-13
 -1      1090 8.39599E-03-1.66075E-04-5.30196E-14
 -1      1091 2.49310E-03-4.91629E-05-7.60749E-15
 -1      1092 9.11502E-03-2.99094E-04-6.34986E-14
 -1      1093 1.04394E-02-4.56054E-04-8.65347E-14
 -1      1094 1.01667E-02-4.22593E-04-8.17311E-14
 -1      1095 9.89732E-03-3.89978E-04-7.70196E-14
 -1      1096 1.07150E-02-4.90224E-04-9.14284E-14
 -1      1097 1.09930E-02-5.24989E-04-9.64020E-14
 -1      1098 1.12729E-02-5.60253E-04-1.01447E-13
 -1      1099 1.15543E-02-5.95935E-04-1.06562E-13
 -1      1100 1.18369E-02-6.31965E-04-1.11740E-13
 -1      1101 1.21204E-02-6.68283E-04-1.16973E-13
 -1      1102 1.24046E-02-7.04836E-04-1.22263E-13
 -1      1103 1.26893E-02-7.41582E-04-1.27603E-13
 -1      1104 1.29744E-02-7.78477E-04-1.32988E-13
 -1      1105 2.93341E-03 1.12366E-05-1.04083E-14
 -1      1106 2.67924E-03-5.06527E-05-8.79371E-15
 -1      1107 3.00852E-03-2.84451E-05-1.11363E-14
 -1      1108 8.86460E-03-2.71832E-04-5.92110E-14
 -1      1109 1.32386E-02-8.04649E-04-1.38098E-13
 -1      1110 2.23760E-03-4.38845E-05-6.15894E-15
 -1      1111 1.88104E-03 4.64619E-05-4.39933E-15
 -1      1112 1.77913E-03-3.63345E-05-3.99569E-15
 -1      1113 8.72877E-03-2.83114E-04-5.61789E-14
 -1      1114 1.31960E-02-9.53934E-04-1.35478E-13
 -1      1115 9.37092E-03-3.28005E-04-6.78968E-14
 -1      1116 9.63188E-03-3.58380E-04-7.24069E-14
 -1      1117 2.42327E-03 4.09366E-05-7.09849E-15
 -1      1118 2.07409E-03-3.60433E-05-5.33004E-15
 -1      1119 2.19050E-03 5.11129E-05-5.84105E-15
 -1      1120 1.29820E-02-8.58650E-04-1.32218E-13
 -1      1121 8.95642E-03-3.49337E-04-5.92718E-14
 -1      1122 9.19557E-03-3.78575E-04-6.35529E-14
 -1      1123 9.44431E-03-4.10160E-04-6.79441E-14
 -1      1124 9.70055E-03-4.43652E-04-7.24423E-14
 -1      1125 9.96287E-03-4.78562E-04-7.70465E-14
 -1      1126 1.02302E-02-5.14484E-04-8.17504E-14
 -1      1127 1.05015E-02-5.51096E-04-8.65506E-14
 -1      1128 1.07761E-02-5.88156E-04-9.14406E-14
 -1      1129 1.10535E-02-6.25488E-04-9.64065E-14
 -1      1130 1.13329E-02-6.62971E-04-1.01442E-13
 -1      1131 1.16140E-02-7.00525E-04-1.06547E-13
 -1      1132 1.18964E-02-7.38101E-04-1.11713E-13
 -1      1133 1.21798E-02-7.75670E-04-1.16939E-13
 -1      1134 1.24639E-02-8.13217E-04-1.22218E-13
 -1      1135 1.27486E-02-8.50738E-04-1.27550E-13
 -1      1136 2.77054E-03-1.71258E-05-9.37969E-15
 -1      1137 2.64961E-03 2.92171E-05-8.46510E-15
 -1      1138 1.87097E-03 3.37024E-06-4.39143E-15
 -1      1139 0.00000E+00 0.00000E+00 0.00000E+00
 -1      1140 0.00000E+00 0.00000E+00 0.00000E+00
 -1      1141 0.00000E+00 0.00000E+00 0.00000E+00
 -1      1142 0.00000E+00 0.00000E+00 0.00000E+00
 -1      1143 0.00000E+00 0.00000E+00 0.00000E+00
 -1      1144 0.00000E+00 0.00000E+00 0.00000E+00
 -1      1145 0.00000E+00 0.00000E+00 0.00000E+00
 -1      1146 0.00000E+00 0.00000E+00 0.00000E+00
 -1      1147 0.00000E+00 0.00000E+00 0.00000E+00
 -1      1148 0.00000E+00 0.00000E+00 0.00000E+00
 -1      1149 0.00000E+00 0.00000E+00 0.00000E+00
 -1      1150 0.00000E+00 0.00000E+00 0.00000E+00
 -1      1151 0.00000E+00 0.00000E+00 0.00000E+00
 -1      1152 0.00000E+00 0.00000E+00 0.00000E+00
 -1      1153 0.00000E+00 0.00000E+00 0.00000E+00
 -1      1154 0.00000E+00 0.00000E+00 0.00000E+00
 -1      1155 0.00000E+00 0.00000E+00 0.00000E+00
 -1      1156 2.09841E-04-1.45426E-04 2.89482E-17
 -1      1157 5.49306E-04-3.26576E-04-1.60191E-17
 -1      1158 8.34039E-04-4.38902E-04-2.14564E-16
 -1      1159 1.10942E-03-5.11214E-04-5.92950E-16
 -1      1160 1.38379E-03-5.59072E-04-1.14503E-15
 -1      1161 1.66147E-03-5.90608E-04-1.86735E-15
 -1      1162 1.94541E-03-6.10997E-04-2.75585E-15
 -1      1163 2.23789E-03-6.24348E-04-3.80841E-15
 -1      1164 2.54090E-03-6.34586E-04-5.02467E-15
 -1      1165 2.85627E-03-6.45984E-04-6.40250E-15
 -1      1166 3.18556E-03-6.63580E-04-7.93582E-15
 -1      1167 3.52953E-03-6.93477E-04-9.62120E-15
 -1      1168 3.88740E-03-7.42806E-04-1.14572E-14
 -1      1169 4.25553E-03-8.18855E-04-1.34438E-14
 -1      1170 4.62623E-03-9.26652E-04-1.55781E-14
 -1      1171 4.98736E-03-1.06450E-03-1.78631E-14
 -1      1172 5.32473E-03-1.21870E-03-2.03073E-14
 -1      1173 5.62835E-03-1.36139E-03-2.29185E-14
 -1      1174 5.90043E-03-1.45742E-03-2.57008E-14
 -1      1175 6.15846E-03-1.48056E-03-2.86602E-14
 -1      1176 6.42778E-03-1.42884E-03-3.18036E-14
 -1      1177 6.72772E-03-1.32591E-03-3.51238E-14
 -1      1178 7.06274E-03-1.20692E-03-3.86012E-14
 -1      1179 7.42420E-03-1.10156E-03-4.22301E-14
 -1      1180 7.79815E-03-1.02572E-03-4.60045E-14
 -1      1181 8.17213E-03-9.82708E-04-4.99103E-14
 -1      1182 8.53801E-03-9.68446E-04-5.39365E-14
 -1      1183 8.89191E-03-9.76258E-04-5.80733E-14
 -1      1184 9.23299E-03-9.99577E-04-6.23248E-14
 -1      1185 9.56210E-03-1.03305E-03-6.66911E-14
 -1      1186 9.88088E-03-1.07270E-03-7.11716E-14
 -1      1187 1.01912E-02-1.11578E-03-7.57646E-14
 -1      1188 1.04948E-02-1.16046E-03-8.04548E-14
 -1      1189 1.07932E-02-1.20557E-03-8.52337E-14
 -1      1190 1.10877E-02-1.25040E-03-9.00951E-14
 -1      1191 1.13792E-02-1.29458E-03-9.50299E-14
 -1      1192 1.16687E-02-1.33793E-03-1.00038E-13
 -1      1193 1.19566E-02-1.38038E-03-1.05113E-13
 -1      1194 1.22435E-02-1.42197E-03-1.10234E-13
 -1      1195 1.25298E-02-1.46277E-03-1.15408E-13
 -1      1196 1.28156E-02-1.50289E-03-1.20652E-13
 -1      1197 1.31011E-02-1.54241E-03-1.25965E-13
 -1      1198 1.33865E-02-1.58146E-03-1.31353E-13
 -1      1199 1.36719E-02-1.62011E-03-1.36793E-13
 -1      1200 1.39572E-02-1.65847E-03-1.42284E-13
 -1      1201 1.42427E-02-1.69661E-03-1.47816E-13
 -1      1202 1.45282E-02-1.73461E-03-1.53386E-13
 -1      1203 1.48138E-02-1.77253E-03-1.58987E-13
 -1      1204 1.50994E-02-1.81044E-03-1.64624E-13
 -1      1205 1.53780E-02-1.84743E-03-1.70160E-13
 -1      1206 2.26472E-04 1.57728E-04 3.33528E-17
 -1      1207 5.51644E-04 3.31541E-04-1.46638E-17
 -1      1208 8.35163E-04 4.41988E-04-2.19185E-16
 -1      1209 1.11033E-03 5.14568E-04-6.00133E-16
 -1      1210 1.38425E-03 5.63457E-04-1.15717E-15
 -1      1211 1.66101E-03 5.96530E-04-1.88868E-15
 -1      1212 1.94315E-03 6.18983E-04-2.79304E-15
 -1      1213 2.23232E-03 6.34946E-04-3.86534E-15
 -1      1214 2.52961E-03 6.48196E-04-5.10628E-15
 -1      1215 2.83561E-03 6.62495E-04-6.51268E-15
 -1      1216 3.15019E-03 6.81707E-04-8.08156E-15
 -1      1217 3.47225E-03 7.09687E-04-9.81184E-15
 -1      1218 3.79934E-03 7.49821E-04-1.17041E-14
 -1      1219 4.12732E-03 8.04105E-04-1.37575E-14
 -1      1220 4.45043E-03 8.71743E-04-1.59704E-14
 -1      1221 4.76212E-03 9.47583E-04-1.83502E-14
 -1      1222 5.05690E-03 1.02127E-03-2.08940E-14
 -1      1223 5.33278E-03 1.07834E-03-2.36054E-14
 -1      1224 5.59332E-03 1.10385E-03-2.64928E-14
 -1      1225 5.84752E-03 1.08788E-03-2.95549E-14
 -1      1226 6.10688E-03 1.02968E-03-3.27831E-14
 -1      1227 6.38109E-03 9.38068E-04-3.61729E-14
 -1      1228 6.67470E-03 8.27637E-04-3.97238E-14
 -1      1229 6.98662E-03 7.13339E-04-4.34423E-14
 -1      1230 7.31188E-03 6.06437E-04-4.73127E-14
 -1      1231 7.64413E-03 5.13068E-04-5.13217E-14
 -1      1232 7.97767E-03 4.34936E-04-5.54668E-14
 -1      1233 8.30833E-03 3.70862E-04-5.97389E-14
 -1      1234 8.63369E-03 3.18286E-04-6.41360E-14
 -1      1235 8.95268E-03 2.74310E-04-6.86548E-14
 -1      1236 9.26525E-03 2.36280E-04-7.32775E-14
 -1      1237 9.57192E-03 2.02025E-04-7.80051E-14
 -1      1238 9.87347E-03 1.69900E-04-8.28324E-14
 -1      1239 1.01708E-02 1.38736E-04-8.77439E-14
 -1      1240 1.04648E-02 1.07748E-04-9.27385E-14
 -1      1241 1.07561E-02 7.64463E-05-9.78045E-14
 -1      1242 1.10455E-02 4.45565E-05-1.02942E-13
 -1      1243 1.13335E-02 1.19515E-05-1.08155E-13
 -1      1244 1.16205E-02-2.13969E-05-1.13433E-13
 -1      1245 1.19067E-02-5.54556E-05-1.18781E-13
 -1      1246 1.21926E-02-9.01567E-05-1.24192E-13
 -1      1247 1.24781E-02-1.25415E-04-1.29651E-13
 -1      1248 1.27636E-02-1.61139E-04-1.35149E-13
 -1      1249 1.30489E-02-1.97239E-04-1.40678E-13
 -1      1250 1.33343E-02-2.33631E-04-1.46216E-13
 -1      1251 1.36198E-02-2.70237E-04-1.51744E-13
 -1      1252 1.39053E-02-3.06985E-04-1.57266E-13
 -1      1253 1.41909E-02-3.43807E-04-1.62782E-13
 -1      1254 1.44765E-02-3.80645E-04-1.68288E-13
 -1      1255 1.47551E-02-4.16534E-04-1.73655E-13
 -1      1256 1.49089E-02-4.76148E-04-1.76179E-13
 -1      1257 1.49450E-02-5.60443E-04-1.76021E-13
 -1      1258 1.49811E-02-6.44781E-04-1.75860E-13
 -1      1259 1.50173E-02-7.29181E-04-1.75700E-13
 -1      1260 1.50535E-02-8.13642E-04-1.75549E-13
 -1      1261 1.50894E-02-8.97439E-04-1.75404E-13
 -1      1262 1.51255E-02-9.81274E-04-1.75243E-13
 -1      1263 1.51621E-02-1.06585E-03-1.75058E-13
 -1      1264 1.51987E-02-1.15044E-03-1.74882E-13
 -1      1265 1.52356E-02-1.23503E-03-1.74700E-13
 -1      1266 1.52725E-02-1.31961E-03-1.74491E-13
 -1      1267 1.53093E-02-1.40345E-03-1.74297E-13
 -1      1268 1.53462E-02-1.48725E-03-1.74087E-13
 -1      1269 1.53835E-02-1.57171E-03-1.73840E-13
 -1      1270 1.54209E-02-1.65611E-03-1.73575E-13
 -1      1271 1.54583E-02-1.74045E-03-1.73303E-13
 -1      1272 1.54953E-02-1.82403E-03-1.73018E-13
 -1      1273 8.12629E-03-1.71541E-04-3.60333E-14
 -1      1274 7.99431E-03-1.82280E-05-3.57206E-14
 -1      1275 7.76270E-03 1.37521E-04-3.50696E-14
 -1      1276 7.44261E-03 2.96570E-04-3.40966E-14
 -1      1277 7.05995E-03 4.45588E-04-3.28725E-14
 -1      1278 6.62422E-03 5.70493E-04-3.14277E-14
 -1      1279 6.16693E-03 6.50988E-04-2.98779E-14
 -1      1280 5.71163E-03 6.69521E-04-2.83295E-14
 -1      1281 5.24714E-03 6.27231E-04-2.67794E-14
 -1      1282 4.81100E-03 5.32882E-04-2.53833E-14
 -1      1283 4.40001E-03 3.96046E-04-2.41345E-14
 -1      1284 4.04793E-03 2.35811E-04-2.31142E-14
 -1      1285 3.80980E-03 8.17985E-05-2.24474E-14
 -1      1286 3.68262E-03-6.97154E-05-2.20741E-14
 -1      1287 3.67379E-03-2.26942E-04-2.20003E-14
 -1      1288 3.78829E-03-3.85301E-04-2.22353E-14
 -1      1289 4.01794E-03-5.53764E-04-2.27758E-14
 -1      1290 4.35198E-03-7.30041E-04-2.36272E-14
 -1      1291 4.74406E-03-8.91480E-04-2.46986E-14
 -1      1292 5.19599E-03-1.02675E-03-2.60313E-14
 -1      1293 5.68396E-03-1.11275E-03-2.75695E-14
 -1      1294 6.12625E-03-1.12865E-03-2.90306E-14
 -1      1295 6.55553E-03-1.08358E-03-3.04872E-14
 -1      1296 6.96817E-03-9.89818E-04-3.19039E-14
 -1      1297 7.32886E-03-8.68674E-04-3.31457E-14
 -1      1298 7.63858E-03-7.32966E-04-3.42110E-14
 -1      1299 7.88981E-03-5.90921E-04-3.50715E-14
 -1      1300 8.06451E-03-4.48760E-04-3.56848E-14
 -1      1301 8.14528E-03-3.12266E-04-3.60060E-14
 -1      1302 1.66551E-04-1.07537E-04 2.71051E-18
 -1      1303 1.13460E-04-5.38888E-05-3.05609E-17
 -1      1304 1.18323E-04-6.48242E-05-2.14943E-17
 -1      1305 1.09330E-04-3.97984E-05-4.58211E-17
 -1      1306 1.11234E-04-4.61279E-05-4.09693E-17
 -1      1307 2.28402E-04-1.00835E-04-9.62636E-17
 -1      1308 1.07444E-04-2.97039E-05-5.46573E-17
 -1      1309 1.08462E-04-3.44443E-05-5.20959E-17
 -1      1310 2.20867E-04-7.48884E-05-1.24033E-16
 -1      1311 1.06238E-04-2.16735E-05-6.01055E-17
 -1      1312 1.06891E-04-2.55200E-05-5.86553E-17
 -1      1313 2.16820E-04-5.56490E-05-1.41122E-16
 -1      1314 1.05408E-04-1.50477E-05-6.33716E-17
 -1      1315 1.05850E-04-1.82522E-05-6.26398E-17
 -1      1316 2.14177E-04-4.02917E-05-1.51775E-16
 -1      1317 1.04834E-04-9.17558E-06-6.54858E-17
 -1      1318 1.05122E-04-1.20487E-05-6.50657E-17
 -1      1319 2.12327E-04-2.73165E-05-1.58551E-16
 -1      1320 1.04525E-04-3.82611E-06-6.64751E-17
 -1      1321 1.04663E-04-6.48172E-06-6.63125E-17
 -1      1322 2.11118E-04-1.57934E-05-1.62441E-16
 -1      1323 1.04479E-04 1.32165E-06-6.68411E-17
 -1      1324 1.04472E-04-1.27322E-06-6.68004E-17
 -1      1325 2.10535E-04-5.14690E-06-1.64297E-16
 -1      1326 1.04695E-04 6.57591E-06-6.63532E-17
 -1      1327 1.04543E-04 3.89053E-06-6.65023E-17
 -1      1328 2.10570E-04 5.25481E-06-1.64324E-16
 -1      1329 1.05167E-04 1.22426E-05-6.51470E-17
 -1      1330 1.04872E-04 9.31467E-06-6.55671E-17
 -1      1331 2.11212E-04 1.60192E-05-1.62698E-16
 -1      1332 1.05887E-04 1.85250E-05-6.28160E-17
 -1      1333 1.05446E-04 1.52540E-05-6.35885E-17
 -1      1334 2.12441E-04 2.76523E-05-1.58971E-16
 -1      1335 1.06931E-04 2.60088E-05-5.87909E-17
 -1      1336 1.06280E-04 2.20805E-05-6.02274E-17
 -1      1337 2.14288E-04 4.08926E-05-1.52358E-16
 -1      1338 1.08474E-04 3.51318E-05-5.20688E-17
 -1      1339 1.07462E-04 3.02979E-05-5.46302E-17
 -1      1340 2.16931E-04 5.67115E-05-1.41461E-16
 -1      1341 1.11174E-04 4.69804E-05-4.09964E-17
 -1      1342 1.09298E-04 4.05795E-05-4.58211E-17
 -1      1343 2.20911E-04 7.63555E-05-1.24236E-16
 -1      1344 1.17616E-04 6.49764E-05-2.26869E-17
 -1      1345 1.13074E-04 5.47909E-05-3.15909E-17
 -1      1346 2.28304E-04 1.02877E-04-9.73343E-17
 -1      1347 1.57210E-04 1.07423E-04 6.65429E-18
 -1      1348 1.36155E-04 8.34504E-05-1.20346E-17
 -1      1349 2.57598E-04 1.46085E-04-6.49302E-17
 -1      1350 3.34737E-04 2.14569E-04-1.68322E-17
 -1      1351 4.21742E-04-2.52799E-04-4.35036E-17
 -1      1352 5.75886E-04-3.23236E-04-1.08136E-16
 -1      1353 7.24709E-04-3.79097E-04-2.19185E-16
 -1      1354 8.70107E-04-4.23582E-04-3.73657E-16
 -1      1355 6.16216E-04-3.14500E-04-2.15106E-16
 -1      1356 1.01302E-03-4.59789E-04-5.69775E-16
 -1      1357 1.15446E-03-4.88901E-04-8.08734E-16
 -1      1358 9.13977E-04-4.05323E-04-5.39079E-16
 -1      1359 1.29532E-03-5.12754E-04-1.08988E-15
 -1      1360 1.43619E-03-5.31898E-04-1.41400E-15
 -1      1361 1.20329E-03-4.64634E-04-1.02998E-15
 -1      1362 1.57763E-03-5.47385E-04-1.77965E-15
 -1      1363 1.71999E-03-5.59664E-04-2.18703E-15
 -1      1364 1.49003E-03-5.03177E-04-1.68798E-15
 -1      1365 1.86366E-03-5.69391E-04-2.63517E-15
 -1      1366 2.00889E-03-5.77032E-04-3.12422E-15
 -1      1367 1.77818E-03-5.27432E-04-2.51090E-15
 -1      1368 2.15599E-03-5.83088E-04-3.65380E-15
 -1      1369 2.30517E-03-5.88062E-04-4.22430E-15
 -1      1370 2.07050E-03-5.42052E-04-3.49665E-15
 -1      1371 2.45666E-03-5.92429E-04-4.83546E-15
 -1      1372 2.61066E-03-5.96752E-04-5.48659E-15
 -1      1373 2.36907E-03-5.51077E-04-4.64396E-15
 -1      1374 2.76737E-03-6.01579E-04-6.17736E-15
 -1      1375 2.92693E-03-6.07557E-04-6.90702E-15
 -1      1376 2.67554E-03-5.58608E-04-5.95089E-15
 -1      1377 3.08949E-03-6.15389E-04-7.67480E-15
 -1      1378 3.25511E-03-6.25820E-04-8.48094E-15
 -1      1379 2.99124E-03-5.69314E-04-7.41325E-15
 -1      1380 3.42381E-03-6.39770E-04-9.32452E-15
 -1      1381 3.59548E-03-6.58063E-04-1.02064E-14
 -1      1382 3.31707E-03-5.88873E-04-9.02841E-15
 -1      1383 3.76995E-03-6.81823E-04-1.11254E-14
 -1      1384 3.94682E-03-7.11851E-04-1.20818E-14
 -1      1385 3.65321E-03-6.24220E-04-1.07934E-14
 -1      1386 4.12562E-03-7.49293E-04-1.30753E-14
 -1      1387 4.30556E-03-7.94659E-04-1.41064E-14
 -1      1388 3.99867E-03-6.83274E-04-1.27080E-14
 -1      1389 4.48579E-03-8.48634E-04-1.51740E-14
 -1      1390 4.66514E-03-9.10945E-04-1.62786E-14
 -1      1391 4.35068E-03-7.73473E-04-1.47702E-14
 -1      1392 4.84243E-03-9.80999E-04-1.74209E-14
 -1      1393 5.01627E-03-1.05704E-03-1.86032E-14
 -1      1394 4.70427E-03-8.98306E-04-1.69800E-14
 -1      1395 5.18556E-03-1.13640E-03-1.98255E-14
 -1      1396 5.34930E-03-1.21554E-03-2.10888E-14
 -1      1397 5.05230E-03-1.05159E-03-1.93444E-14
 -1      1398 5.50703E-03-1.28978E-03-2.23945E-14
 -1      1399 5.65890E-03-1.35443E-03-2.37433E-14
 -1      1400 5.38732E-03-1.21194E-03-2.18712E-14
 -1      1401 5.80566E-03-1.40459E-03-2.51350E-14
 -1      1402 5.94909E-03-1.43671E-03-2.65706E-14
 -1      1403 5.70545E-03-1.34344E-03-2.45678E-14
 -1      1404 6.09097E-03-1.44841E-03-2.80518E-14
 -1      1405 6.23392E-03-1.43945E-03-2.95776E-14
 -1      1406 6.01092E-03-1.40870E-03-2.74414E-14
 -1      1407 6.37979E-03-1.41164E-03-3.11496E-14
 -1      1408 6.53056E-03-1.36817E-03-3.27673E-14
 -1      1409 6.31567E-03-1.38993E-03-3.04962E-14
 -1      1410 6.68714E-03-1.31378E-03-3.44264E-14
 -1      1411 6.84996E-03-1.25318E-03-3.61264E-14
 -1      1412 6.63231E-03-1.30080E-03-3.37292E-14
 -1      1413 7.01870E-03-1.19120E-03-3.78663E-14
 -1      1414 7.19247E-03-1.13171E-03-3.96446E-14
 -1      1415 6.96637E-03-1.17735E-03-3.71315E-14
 -1      1416 7.37023E-03-1.07768E-03-4.14605E-14
 -1      1417 7.55061E-03-1.03115E-03-4.33124E-14
 -1      1418 7.31497E-03-1.05693E-03-4.06914E-14
 -1      1419 7.73244E-03-9.92960E-04-4.52003E-14
 -1      1420 7.91452E-03-9.63596E-04-4.71228E-14
 -1      1421 7.67090E-03-9.63419E-04-4.43986E-14
 -1      1422 8.09595E-03-9.42519E-04-4.90763E-14
 -1      1423 8.27592E-03-9.29343E-04-5.10593E-14
 -1      1424 8.02696E-03-9.05022E-04-4.82416E-14
 -1      1425 8.45392E-03-9.22990E-04-5.30738E-14
 -1      1426 8.62953E-03-9.22747E-04-5.51169E-14
 -1      1427 8.37794E-03-8.79491E-04-5.22117E-14
 -1      1428 8.80257E-03-9.27534E-04-5.71867E-14
 -1      1429 8.97292E-03-9.36609E-04-5.92846E-14
 -1      1430 8.72092E-03-8.80077E-04-5.62990E-14
 -1      1431 9.14059E-03-9.49113E-04-6.14108E-14
 -1      1432 9.30565E-03-9.64405E-04-6.35666E-14
 -1      1433 9.05481E-03-8.99374E-04-6.04979E-14
 -1      1434 9.46823E-03-9.81882E-04-6.57517E-14
 -1      1435 9.62849E-03-1.00104E-03-6.79636E-14
 -1      1436 9.37973E-03-9.31059E-04-6.48096E-14
 -1      1437 9.78661E-03-1.02149E-03-7.02045E-14
 -1      1438 9.94277E-03-1.04284E-03-7.24741E-14
 -1      1439 9.69650E-03-9.70360E-04-6.92370E-14
 -1      1440 1.00972E-02-1.06488E-03-7.47704E-14
 -1      1441 1.02499E-02-1.08733E-03-7.70902E-14
 -1      1442 1.00062E-02-1.01392E-03-7.37751E-14
 -1      1443 1.04013E-02-1.11006E-03-7.94344E-14
 -1      1444 1.05514E-02-1.13288E-03-8.18025E-14
 -1      1445 1.03102E-02-1.05951E-03-7.84153E-14
 -1      1446 1.07005E-02-1.15573E-03-8.41921E-14
 -1      1447 1.08485E-02-1.17848E-03-8.66026E-14
 -1      1448 1.06094E-02-1.10571E-03-8.31497E-14
 -1      1449 1.09957E-02-1.20113E-03-8.90317E-14
 -1      1450 1.11422E-02-1.22357E-03-9.14813E-14
 -1      1451 1.09049E-02-1.15166E-03-8.79695E-14
 -1      1452 1.12880E-02-1.24583E-03-9.39505E-14
 -1      1453 1.14333E-02-1.26784E-03-9.64353E-14
 -1      1454 1.11976E-02-1.19689E-03-9.28689E-14
 -1      1455 1.15782E-02-1.28963E-03-9.89400E-14
 -1      1456 1.17226E-02-1.31117E-03-1.01460E-13
 -1      1457 1.14882E-02-1.24117E-03-9.78424E-14
 -1      1458 1.18667E-02-1.33247E-03-1.03993E-13
 -1      1459 1.20105E-02-1.35354E-03-1.06546E-13
 -1      1460 1.17771E-02-1.28443E-03-1.02881E-13
 -1      1461 1.21541E-02-1.37439E-03-1.09108E-13
 -1      1462 1.22975E-02-1.39503E-03-1.11679E-13
 -1      1463 1.20649E-02-1.32670E-03-1.07977E-13
 -1      1464 1.24408E-02-1.41547E-03-1.14270E-13
 -1      1465 1.25839E-02-1.43571E-03-1.16877E-13
 -1      1466 1.23519E-02-1.36806E-03-1.13131E-13
 -1      1467 1.27269E-02-1.45579E-03-1.19499E-13
 -1      1468 1.28698E-02-1.47571E-03-1.22137E-13
 -1      1469 1.26383E-02-1.40862E-03-1.18345E-13
 -1      1470 1.30127E-02-1.49549E-03-1.24796E-13
 -1      1471 1.31555E-02-1.51513E-03-1.27471E-13
 -1      1472 1.29243E-02-1.44850E-03-1.23626E-13
 -1      1473 1.32983E-02-1.53465E-03-1.30160E-13
 -1      1474 1.34411E-02-1.55407E-03-1.32867E-13
 -1      1475 1.32101E-02-1.48780E-03-1.28972E-13
 -1      1476 1.35838E-02-1.57340E-03-1.35586E-13
 -1      1477 1.37265E-02-1.59265E-03-1.38313E-13
 -1      1478 1.34957E-02-1.52666E-03-1.34378E-13
 -1      1479 1.38693E-02-1.61182E-03-1.41055E-13
 -1      1480 1.40120E-02-1.63094E-03-1.43812E-13
 -1      1481 1.37813E-02-1.56516E-03-1.39835E-13
 -1      1482 1.41548E-02-1.65000E-03-1.46579E-13
 -1      1483 1.42975E-02-1.66903E-03-1.49349E-13
 -1      1484 1.40668E-02-1.60339E-03-1.45339E-13
 -1      1485 1.44403E-02-1.68802E-03-1.52135E-13
 -1      1486 1.45831E-02-1.70699E-03-1.54928E-13
 -1      1487 1.43524E-02-1.64143E-03-1.50886E-13
 -1      1488 1.47259E-02-1.72595E-03-1.57730E-13
 -1      1489 1.48687E-02-1.74490E-03-1.60537E-13
 -1      1490 1.46380E-02-1.67937E-03-1.56471E-13
 -1      1491 1.50116E-02-1.76385E-03-1.63354E-13
 -1      1492 1.51544E-02-1.78280E-03-1.66183E-13
 -1      1493 1.49237E-02-1.71726E-03-1.62086E-13
 -1      1494 1.53596E-02-1.80600E-03-1.70312E-13
 -1      1495 1.52717E-02-1.75939E-03-1.69027E-13
 -1      1496 6.44548E-04 3.57211E-04-1.41515E-16
 -1      1497 4.93227E-04 2.93284E-04-5.67038E-17
 -1      1498 4.46724E-04 2.55605E-04-9.24553E-17
 -1      1499 9.34333E-04 4.48258E-04-4.41189E-16
 -1      1500 7.91069E-04 4.07227E-04-2.69804E-16
 -1      1501 7.49751E-04 3.71408E-04-3.11545E-16
 -1      1502 1.21596E-03 5.08856E-04-9.13129E-16
 -1      1503 1.07559E-03 4.81553E-04-6.55414E-16
 -1      1504 1.04101E-03 4.47702E-04-7.02238E-16
 -1      1505 1.49613E-03 5.49581E-04-1.55831E-15
 -1      1506 1.35588E-03 5.31278E-04-1.21408E-15
 -1      1507 1.32656E-03 4.98531E-04-1.26310E-15
 -1      1508 1.77874E-03 5.76799E-04-2.37513E-15
 -1      1509 1.63693E-03 5.64580E-04-1.94511E-15
 -1      1510 1.61127E-03 5.32282E-04-1.99424E-15
 -1      1511 2.06614E-03 5.95153E-04-3.36191E-15
 -1      1512 1.92171E-03 5.86827E-04-2.84758E-15
 -1      1513 1.89833E-03 5.54500E-04-2.89482E-15
 -1      1514 2.35982E-03 6.08613E-04-4.51542E-15
 -1      1515 2.21211E-03 6.02251E-04-3.91821E-15
 -1      1516 2.18973E-03 5.69532E-04-3.96322E-15
 -1      1517 2.66067E-03 6.20978E-04-5.83493E-15
 -1      1518 2.50930E-03 6.14691E-04-5.15434E-15
 -1      1519 2.48674E-03 5.81292E-04-5.19643E-15
 -1      1520 2.96901E-03 6.36122E-04-7.31725E-15
 -1      1521 2.81390E-03 6.27967E-04-6.55618E-15
 -1      1522 2.79005E-03 5.93654E-04-6.59240E-15
 -1      1523 3.28439E-03 6.58030E-04-8.96065E-15
 -1      1524 3.12587E-03 6.46017E-04-8.11928E-15
 -1      1525 3.09975E-03 6.10623E-04-8.14965E-15
 -1      1526 3.60538E-03 6.90559E-04-1.07637E-14
 -1      1527 3.44430E-03 6.72814E-04-9.84182E-15
 -1      1528 3.41524E-03 6.36272E-04-9.86610E-15
 -1      1529 3.92930E-03 7.36786E-04-1.27290E-14
 -1      1530 3.76718E-03 7.11932E-04-1.17256E-14
 -1      1531 3.73496E-03 6.74339E-04-1.17415E-14
 -1      1532 4.25217E-03 7.97826E-04-1.48525E-14
 -1      1533 4.09117E-03 7.65636E-04-1.37711E-14
 -1      1534 4.05632E-03 7.27332E-04-1.37780E-14
 -1      1535 4.56902E-03 8.71213E-04-1.71389E-14
 -1      1536 4.41170E-03 8.33444E-04-1.59745E-14
 -1      1537 4.37572E-03 7.95079E-04-1.59733E-14
 -1      1538 4.87495E-03 9.49406E-04-1.95903E-14
 -1      1539 4.72365E-03 9.10478E-04-1.83442E-14
 -1      1540 4.68903E-03 8.72990E-04-1.83320E-14
 -1      1541 5.16679E-03 1.01954E-03-2.22070E-14
 -1      1542 5.02275E-03 9.86436E-04-2.08785E-14
 -1      1543 4.99263E-03 9.50878E-04-2.08550E-14
 -1      1544 5.44492E-03 1.06573E-03-2.49947E-14
 -1      1545 5.30740E-03 1.04650E-03-2.35788E-14
 -1      1546 5.28491E-03 1.01368E-03-2.35456E-14
 -1      1547 5.71413E-03 1.07395E-03-2.79569E-14
 -1      1548 5.58018E-03 1.07504E-03-2.64538E-14
 -1      1549 5.56761E-03 1.04509E-03-2.64087E-14
 -1      1550 5.98250E-03 1.03782E-03-3.10907E-14
 -1      1551 5.84782E-03 1.06126E-03-2.95027E-14
 -1      1552 5.84591E-03 1.03351E-03-2.94449E-14
 -1      1553 6.25856E-03 9.61290E-04-3.43895E-14
 -1      1554 6.11906E-03 1.00384E-03-3.27190E-14
 -1      1555 6.12683E-03 9.77065E-04-3.26495E-14
 -1      1556 6.54812E-03 8.57100E-04-3.78507E-14
 -1      1557 6.40141E-03 9.11631E-04-3.61003E-14
 -1      1558 6.41646E-03 8.84547E-04-3.60208E-14
 -1      1559 6.85274E-03 7.41265E-04-4.14742E-14
 -1      1560 6.69860E-03 7.99694E-04-3.96417E-14
 -1      1561 6.71778E-03 7.71448E-04-3.95534E-14
 -1      1562 7.17008E-03 6.27846E-04-4.52584E-14
 -1      1563 7.01007E-03 6.83615E-04-4.33476E-14
 -1      1564 7.03030E-03 6.53902E-04-4.32472E-14
 -1      1565 7.49564E-03 5.25924E-04-4.91876E-14
 -1      1566 7.33216E-03 5.75152E-04-4.72045E-14
 -1      1567 7.35099E-03 5.44112E-04-4.70926E-14
 -1      1568 7.82452E-03 4.39374E-04-5.32547E-14
 -1      1569 7.65997E-03 4.80697E-04-5.12035E-14
 -1      1570 7.67589E-03 4.48697E-04-5.10807E-14
 -1      1571 8.15264E-03 3.68210E-04-5.74545E-14
 -1      1572 7.98891E-03 4.01993E-04-5.53393E-14
 -1      1573 8.00132E-03 3.69454E-04-5.52064E-14
 -1      1574 8.47719E-03 3.10283E-04-6.17790E-14
 -1      1575 8.31551E-03 3.37778E-04-5.96024E-14
 -1      1576 8.32445E-03 3.05067E-04-5.94602E-14
 -1      1577 8.79663E-03 2.62637E-04-6.62271E-14
 -1      1578 8.63762E-03 2.85366E-04-6.39871E-14
 -1      1579 8.64354E-03 2.52753E-04-6.38352E-14
 -1      1580 9.11041E-03 2.22339E-04-7.07848E-14
 -1      1581 8.95424E-03 2.41736E-04-6.84920E-14
 -1      1582 8.95776E-03 2.09393E-04-6.83275E-14
 -1      1583 9.41868E-03 1.86880E-04-7.54499E-14
 -1      1584 9.26521E-03 2.04136E-04-7.31048E-14
 -1      1585 9.26694E-03 1.72154E-04-7.29282E-14
 -1      1586 9.72196E-03 1.54303E-04-8.02177E-14
 -1      1587 9.57090E-03 1.70329E-04-7.78216E-14
 -1      1588 9.57140E-03 1.38736E-04-7.76338E-14
 -1      1589 1.00210E-02 1.23180E-04-8.50769E-14
 -1      1590 9.87194E-03 1.38628E-04-8.26358E-14
 -1      1591 9.87165E-03 1.07414E-04-8.24382E-14
 -1      1592 1.03164E-02 9.25297E-05-9.00208E-14
 -1      1593 1.01691E-02 1.07840E-04-8.75382E-14
 -1      1594 1.01684E-02 7.69711E-05-8.73302E-14
 -1      1595 1.06091E-02 6.17230E-05-9.50436E-14
 -1      1596 1.04631E-02 7.71734E-05-9.25231E-14
 -1      1597 1.04621E-02 4.66034E-05-9.23063E-14
 -1      1598 1.08996E-02 3.03882E-05-1.00137E-13
 -1      1599 1.07546E-02 4.61366E-05-9.75827E-14
 -1      1600 1.07536E-02 1.58173E-05-9.73574E-14
 -1      1601 1.11885E-02-1.66314E-06-1.05305E-13
 -1      1602 1.10442E-02 1.44585E-05-1.02712E-13
 -1      1603 1.10433E-02-1.56569E-05-1.02479E-13
 -1      1604 1.14762E-02-3.44964E-05-1.10539E-13
 -1      1605 1.13324E-02-1.79813E-05-1.07915E-13
 -1      1606 1.13317E-02-4.79350E-05-1.07672E-13
 -1      1607 1.17630E-02-6.80982E-05-1.15845E-13
 -1      1608 1.16197E-02-5.12039E-05-1.13184E-13
 -1      1609 1.16191E-02-8.10327E-05-1.12932E-13
 -1      1610 1.20492E-02-1.02409E-04-1.21215E-13
 -1      1611 1.19062E-02-8.51694E-05-1.18523E-13
 -1      1612 1.19057E-02-1.14904E-04-1.18261E-13
 -1      1613 1.23351E-02-1.37343E-04-1.26641E-13
 -1      1614 1.21922E-02-1.19803E-04-1.23921E-13
 -1      1615 1.21919E-02-1.49468E-04-1.23651E-13
 -1      1616 1.26208E-02-1.72807E-04-1.32109E-13
 -1      1617 1.24780E-02-1.55015E-04-1.29371E-13
 -1      1618 1.24778E-02-1.84630E-04-1.29090E-13
 -1      1619 1.29063E-02-2.08706E-04-1.37613E-13
 -1      1620 1.27635E-02-1.90708E-04-1.34856E-13
 -1      1621 1.27635E-02-2.20290E-04-1.34567E-13
 -1      1622 1.31918E-02-2.44949E-04-1.43140E-13
 -1      1623 1.30490E-02-2.26790E-04-1.40375E-13
 -1      1624 1.30491E-02-2.56351E-04-1.40073E-13
 -1      1625 1.34772E-02-2.81451E-04-1.48667E-13
 -1      1626 1.33345E-02-2.63173E-04-1.45905E-13
 -1      1627 1.33346E-02-2.92721E-04-1.45595E-13
 -1      1628 1.37628E-02-3.18137E-04-1.54190E-13
 -1      1629 1.36200E-02-2.99776E-04-1.51429E-13
 -1      1630 1.36202E-02-3.29319E-04-1.51116E-13
 -1      1631 1.40483E-02-3.54934E-04-1.59709E-13
 -1      1632 1.39055E-02-3.36525E-04-1.56949E-13
 -1      1633 1.39058E-02-3.66069E-04-1.56634E-13
 -1      1634 1.43340E-02-3.91778E-04-1.65218E-13
 -1      1635 1.41911E-02-3.73354E-04-1.62465E-13
 -1      1636 1.41914E-02-4.02901E-04-1.62148E-13
 -1      1637 1.46197E-02-4.28611E-04-1.70725E-13
 -1      1638 1.44768E-02-4.10198E-04-1.67973E-13
 -1      1639 1.44771E-02-4.39752E-04-1.67657E-13
 -1      1640 1.47732E-02-4.58678E-04-1.73569E-13
 -1      1641 1.48303E-02-5.65604E-04-1.73598E-13
 -1      1642 1.48123E-02-5.23445E-04-1.73677E-13
 -1      1643 1.48664E-02-6.49952E-04-1.73435E-13
 -1      1644 1.48484E-02-6.07773E-04-1.73518E-13
 -1      1645 1.47156E-02-5.70750E-04-1.71173E-13
 -1      1646 1.49026E-02-7.34348E-04-1.73278E-13
 -1      1647 1.48845E-02-6.92144E-04-1.73353E-13
 -1      1648 1.47517E-02-6.55099E-04-1.71011E-13
 -1      1649 1.49388E-02-8.18788E-04-1.73120E-13
 -1      1650 1.49207E-02-7.76562E-04-1.73200E-13
 -1      1651 1.47879E-02-7.39483E-04-1.70850E-13
 -1      1652 1.49745E-02-9.01833E-04-1.72968E-13
 -1      1653 1.49566E-02-8.60307E-04-1.73045E-13
 -1      1654 1.48238E-02-8.23184E-04-1.70692E-13
 -1      1655 1.50109E-02-9.86339E-04-1.72794E-13
 -1      1656 1.49927E-02-9.44083E-04-1.72883E-13
 -1      1657 1.48598E-02-9.06909E-04-1.70525E-13
 -1      1658 1.50475E-02-1.07086E-03-1.72608E-13
 -1      1659 1.50292E-02-1.02860E-03-1.72701E-13
 -1      1660 1.48963E-02-9.91369E-04-1.70344E-13
 -1      1661 1.50842E-02-1.15539E-03-1.72425E-13
 -1      1662 1.50658E-02-1.11313E-03-1.72519E-13
 -1      1663 1.49329E-02-1.07584E-03-1.70157E-13
 -1      1664 1.51210E-02-1.23992E-03-1.72229E-13
 -1      1665 1.51026E-02-1.19766E-03-1.72331E-13
 -1      1666 1.49696E-02-1.16032E-03-1.69964E-13
 -1      1667 1.51580E-02-1.32444E-03-1.72018E-13
 -1      1668 1.51395E-02-1.28218E-03-1.72123E-13
 -1      1669 1.50065E-02-1.24479E-03-1.69758E-13
 -1      1670 1.51945E-02-1.40750E-03-1.71813E-13
 -1      1671 1.51763E-02-1.36597E-03-1.71917E-13
 -1      1672 1.50433E-02-1.32853E-03-1.69544E-13
 -1      1673 1.52318E-02-1.49196E-03-1.71583E-13
 -1      1674 1.52132E-02-1.44974E-03-1.71702E-13
 -1      1675 1.50801E-02-1.41226E-03-1.69322E-13
 -1      1676 1.52691E-02-1.57638E-03-1.71327E-13
 -1      1677 1.52505E-02-1.53418E-03-1.71459E-13
 -1      1678 1.51174E-02-1.49668E-03-1.69078E-13
 -1      1679 1.53065E-02-1.66076E-03-1.71055E-13
 -1      1680 1.52878E-02-1.61858E-03-1.71195E-13
 -1      1681 1.51548E-02-1.58106E-03-1.68816E-13
 -1      1682 1.52985E-02-1.73116E-03-1.69976E-13
 -1      1683 1.52798E-02-1.68900E-03-1.70116E-13
 -1      1684 1.51467E-02-1.65149E-03-1.67739E-13
 -1      1685 1.50933E-02-1.70798E-03-1.65853E-13
 -1      1686 8.11518E-03-1.79487E-04-3.67526E-14
 -1      1687 8.15639E-03-2.25545E-04-3.68221E-14
 -1      1688 7.92609E-03-6.06555E-05-3.63050E-14
 -1      1689 8.02978E-03-1.18689E-04-3.65596E-14
 -1      1690 7.63940E-03 8.87100E-05-3.54655E-14
 -1      1691 7.78177E-03 1.86686E-05-3.58684E-14
 -1      1692 7.26021E-03 2.65226E-04-3.43316E-14
 -1      1693 7.44407E-03 1.77180E-04-3.49189E-14
 -1      1694 6.86483E-03 4.46693E-04-3.29559E-14
 -1      1695 7.04419E-03 3.65242E-04-3.35984E-14
 -1      1696 6.42210E-03 6.14501E-04-3.13211E-14
 -1      1697 6.62245E-03 5.39129E-04-3.21382E-14
 -1      1698 6.03915E-03 7.02573E-04-2.96085E-14
 -1      1699 6.21333E-03 6.72229E-04-3.03429E-14
 -1      1700 5.63461E-03 7.10542E-04-2.78897E-14
 -1      1701 5.82335E-03 7.20526E-04-2.86960E-14
 -1      1702 5.23292E-03 6.24269E-04-2.62357E-14
 -1      1703 5.41541E-03 6.74757E-04-2.69621E-14
 -1      1704 4.81951E-03 4.72711E-04-2.47843E-14
 -1      1705 5.00681E-03 5.48344E-04-2.54280E-14
 -1      1706 4.40870E-03 2.80044E-04-2.34437E-14
 -1      1707 4.60033E-03 3.68701E-04-2.40123E-14
 -1      1708 4.03068E-03 1.07942E-04-2.24571E-14
 -1      1709 4.19126E-03 1.84160E-04-2.28748E-14
 -1      1710 3.77924E-03-1.03570E-05-2.19249E-14
 -1      1711 3.87484E-03 4.34995E-05-2.21597E-14
 -1      1712 3.65096E-03-1.25978E-04-2.14784E-14
 -1      1713 3.69415E-03-7.99271E-05-2.15932E-14
 -1      1714 3.67820E-03-2.26651E-04-2.15690E-14
 -1      1715 3.64715E-03-1.79783E-04-2.15281E-14
 -1      1716 3.84795E-03-3.50792E-04-2.19185E-14
 -1      1717 3.75254E-03-2.91307E-04-2.17323E-14
 -1      1718 4.14366E-03-5.09095E-04-2.25623E-14
 -1      1719 3.99246E-03-4.30815E-04-2.22237E-14
 -1      1720 4.54353E-03-6.96517E-04-2.34800E-14
 -1      1721 4.35386E-03-6.01611E-04-2.29937E-14
 -1      1722 4.93890E-03-8.96222E-04-2.46916E-14
 -1      1723 4.75478E-03-8.10450E-04-2.41395E-14
 -1      1724 5.40054E-03-1.07415E-03-2.61758E-14
 -1      1725 5.18908E-03-9.93868E-04-2.54146E-14
 -1      1726 5.81690E-03-1.16923E-03-2.78498E-14
 -1      1727 5.63046E-03-1.13794E-03-2.71021E-14
 -1      1728 6.19091E-03-1.16570E-03-2.94070E-14
 -1      1729 6.02373E-03-1.17717E-03-2.87073E-14
 -1      1730 6.57113E-03-1.08095E-03-3.10370E-14
 -1      1731 6.39095E-03-1.13225E-03-3.02820E-14
 -1      1732 6.95423E-03-9.37456E-04-3.25397E-14
 -1      1733 6.78356E-03-1.00772E-03-3.18720E-14
 -1      1734 7.31521E-03-7.78660E-04-3.38383E-14
 -1      1735 7.15454E-03-8.53592E-04-3.32557E-14
 -1      1736 7.63848E-03-6.22480E-04-3.49658E-14
 -1      1737 7.49404E-03-6.93307E-04-3.44731E-14
 -1      1738 7.90934E-03-4.83809E-04-3.58603E-14
 -1      1739 7.79225E-03-5.45233E-04-3.54800E-14
 -1      1740 8.09405E-03-3.69359E-04-3.64732E-14
 -1      1741 8.02099E-03-4.19210E-04-3.62291E-14
 -1      1742 8.16628E-03-2.75689E-04-3.67596E-14
 -1      1743 8.14729E-03-3.16787E-04-3.66705E-14
 -1      1744 7.09182E-03 2.73139E-04-3.44402E-14
 -1      1745 7.49198E-03 7.89376E-05-3.57414E-14
 -1      1746 1.47734E-02-4.88238E-04-1.73255E-13
 -1      1747 1.46588E-02-4.93377E-04-1.70831E-13
 -1      1748 8.07275E-03-1.84641E-04-3.73854E-14
 -1      1749 7.83479E-03-7.66064E-05-3.67419E-14
 -1      1750 8.17059E-03-2.54576E-04-3.75199E-14
 -1      1751 6.66767E-03 4.82072E-04-3.28698E-14
 -1      1752 6.28357E-03 6.55129E-04-3.10533E-14
 -1      1753 5.91404E-03 7.38165E-04-2.91563E-14
 -1      1754 5.55305E-03 7.14302E-04-2.73184E-14
 -1      1755 5.17572E-03 5.85070E-04-2.55981E-14
 -1      1756 4.76737E-03 3.89481E-04-2.40392E-14
 -1      1757 4.34898E-03 1.81697E-04-2.27290E-14
 -1      1758 3.98008E-03 2.82941E-05-2.18911E-14
 -1      1759 3.73395E-03-8.16321E-05-2.12762E-14
 -1      1760 3.63840E-03-1.50344E-04-2.10046E-14
 -1      1761 3.71266E-03-2.26441E-04-2.12157E-14
 -1      1762 3.93929E-03-3.38668E-04-2.16729E-14
 -1      1763 4.29641E-03-4.99250E-04-2.23903E-14
 -1      1764 4.70827E-03-7.09917E-04-2.34546E-14
 -1      1765 5.14084E-03-9.35876E-04-2.48164E-14
 -1      1766 5.55173E-03-1.11985E-03-2.64433E-14
 -1      1767 5.92192E-03-1.19999E-03-2.82203E-14
 -1      1768 6.26887E-03-1.16969E-03-2.99537E-14
 -1      1769 6.61932E-03-1.04634E-03-3.16747E-14
 -1      1770 6.99030E-03-8.71678E-04-3.32415E-14
 -1      1771 7.35093E-03-6.92248E-04-3.46091E-14
 -1      1772 7.68091E-03-5.31795E-04-3.57761E-14
 -1      1773 7.95229E-03-4.07111E-04-3.66760E-14
 -1      1774 8.12400E-03-3.20080E-04-3.72546E-14
 -1      1775 2.86193E-04-1.70049E-04-4.55094E-17
 -1      1776 3.34596E-04-1.05341E-04-1.99439E-16
 -1      1777 3.39284E-04-1.21765E-04-1.83650E-16
 -1      1778 3.45503E-04-1.41133E-04-1.64853E-16
 -1      1779 3.55019E-04-1.63689E-04-1.39388E-16
 -1      1780 4.62730E-04-1.73054E-04-2.65765E-16
 -1      1781 3.23815E-04-5.58220E-05-2.35421E-16
 -1      1782 3.25776E-04-6.62626E-05-2.29105E-16
 -1      1783 3.20836E-04-3.67444E-05-2.44081E-16
 -1      1784 3.22187E-04-4.59205E-05-2.40056E-16
 -1      1785 4.34489E-04-6.75662E-05-3.51309E-16
 -1      1786 3.19007E-04-1.97456E-05-2.48906E-16
 -1      1787 3.19789E-04-2.80302E-05-2.46859E-16
 -1      1788 4.30472E-04-4.30439E-05-3.61893E-16
 -1      1789 3.18273E-04-3.80798E-06-2.50952E-16
 -1      1790 3.18507E-04-1.16865E-05-2.50247E-16
 -1      1791 4.28154E-04-2.08722E-05-3.67870E-16
 -1      1792 3.18615E-04 1.19953E-05-2.50451E-16
 -1      1793 3.18309E-04 4.07023E-06-2.51142E-16
 -1      1794 4.27473E-04 2.37512E-07-3.69943E-16
 -1      1795 3.20013E-04 2.85615E-05-2.47442E-16
 -1      1796 3.19178E-04 2.01452E-05-2.49366E-16
 -1      1797 4.28395E-04 2.14749E-05-3.68520E-16
 -1      1798 3.22424E-04 4.64862E-05-2.40842E-16
 -1      1799 3.21078E-04 3.72874E-05-2.44813E-16
 -1      1800 4.30870E-04 4.38079E-05-3.62937E-16
 -1      1801 3.26044E-04 6.74288E-05-2.29878E-16
 -1      1802 3.24054E-04 5.65837E-05-2.36193E-16
 -1      1803 4.34935E-04 6.86160E-05-3.52366E-16
 -1      1804 3.31269E-04 9.25308E-05-2.11989E-16
 -1      1805 3.28384E-04 7.94208E-05-2.22194E-16
 -1      1806 4.40899E-04 9.75840E-05-3.35113E-16
 -1      1807 3.39451E-04 1.24208E-04-1.83948E-16
 -1      1808 3.34784E-04 1.07480E-04-1.99818E-16
 -1      1809 4.49546E-04 1.32542E-04-3.07954E-16
 -1      1810 3.55417E-04 1.67641E-04-1.40201E-16
 -1      1811 3.45970E-04 1.44248E-04-1.64894E-16
 -1      1812 4.63561E-04 1.76942E-04-2.66172E-16
 -1      1813 4.10266E-04 2.23598E-04-1.11239E-16
 -1      1814 3.81136E-04 1.92554E-04-1.30809E-16
 -1      1815 5.00463E-04 2.29738E-04-2.29295E-16
 -1      1816 5.62576E-04 2.87921E-04-2.00821E-16
 -1      1817 3.42528E-04-1.82091E-04-9.33905E-17
 -1      1818 8.61635E-04 3.83284E-04-5.09968E-16
 -1      1819 7.12995E-04 3.40198E-04-3.34693E-16
 -1      1820 6.79649E-04 3.09780E-04-3.52772E-16
 -1      1821 4.63089E-04-2.23616E-04-1.78785E-16
 -1      1822 8.15710E-04-3.49713E-04-5.01972E-16
 -1      1823 9.63633E-04-3.85799E-04-7.13161E-16
 -1      1824 1.10963E-03-4.15312E-04-9.64845E-16
 -1      1825 1.25506E-03-4.38974E-04-1.25792E-15
 -1      1826 1.01643E-03-3.65271E-04-8.95050E-16
 -1      1827 1.39984E-03-4.58170E-04-1.59214E-15
 -1      1828 1.54468E-03-4.73254E-04-1.96753E-15
 -1      1829 1.30862E-03-4.12601E-04-1.49293E-15
 -1      1830 1.68977E-03-4.85176E-04-2.38367E-15
 -1      1831 1.83549E-03-4.94274E-04-2.84039E-15
 -1      1832 1.59976E-03-4.42722E-04-2.25308E-15
 -1      1833 1.98205E-03-5.01251E-04-3.33679E-15
 -1      1834 2.12974E-03-5.06466E-04-3.87357E-15
 -1      1835 1.89189E-03-4.60684E-04-3.17450E-15
 -1      1836 2.27869E-03-5.10529E-04-4.45088E-15
 -1      1837 2.42917E-03-5.13843E-04-5.06753E-15
 -1      1838 2.18674E-03-4.70693E-04-4.25572E-15
 -1      1839 2.58127E-03-5.17040E-04-5.72323E-15
 -1      1840 2.73523E-03-5.20597E-04-6.41812E-15
 -1      1841 2.48577E-03-4.76717E-04-5.49466E-15
 -1      1842 2.89112E-03-5.25251E-04-7.15155E-15
 -1      1843 3.04912E-03-5.31591E-04-7.92259E-15
 -1      1844 2.79023E-03-4.83006E-04-6.88868E-15
 -1      1845 3.20932E-03-5.40521E-04-8.73212E-15
 -1      1846 3.37175E-03-5.52781E-04-9.57856E-15
 -1      1847 3.10133E-03-4.94567E-04-8.43526E-15
 -1      1848 3.53662E-03-5.69451E-04-1.04620E-14
 -1      1849 3.70364E-03-5.91424E-04-1.13833E-14
 -1      1850 3.42027E-03-5.17558E-04-1.01311E-14
 -1      1851 3.87324E-03-6.19842E-04-1.23414E-14
 -1      1852 4.04459E-03-6.55674E-04-1.33358E-14
 -1      1853 3.74827E-03-5.59454E-04-1.19750E-14
 -1      1854 4.21845E-03-6.99785E-04-1.43667E-14
 -1      1855 4.39321E-03-7.52881E-04-1.54349E-14
 -1      1856 4.08636E-03-6.28609E-04-1.39648E-14
 -1      1857 4.56987E-03-8.14939E-04-1.65409E-14
 -1      1858 4.74605E-03-8.85687E-04-1.76831E-14
 -1      1859 4.43465E-03-7.32410E-04-1.61019E-14
 -1      1860 4.92264E-03-9.63445E-04-1.88647E-14
 -1      1861 5.09695E-03-1.04573E-03-2.00864E-14
 -1      1862 4.79072E-03-8.73067E-04-1.83872E-14
 -1      1863 5.26924E-03-1.12872E-03-2.13492E-14
 -1      1864 5.43815E-03-1.20757E-03-2.26544E-14
 -1      1865 5.14784E-03-1.04000E-03-2.08287E-14
 -1      1866 5.60283E-03-1.27707E-03-2.40022E-14
 -1      1867 5.76489E-03-1.33105E-03-2.53937E-14
 -1      1868 5.49633E-03-1.20337E-03-2.34364E-14
 -1      1869 5.92280E-03-1.36551E-03-2.68313E-14
 -1      1870 6.08144E-03-1.37750E-03-2.83135E-14
 -1      1871 5.83034E-03-1.31674E-03-2.62201E-14
 -1      1872 6.23884E-03-1.36666E-03-2.98421E-14
 -1      1873 6.40034E-03-1.33529E-03-3.14159E-14
 -1      1874 6.15619E-03-1.34119E-03-2.91869E-14
 -1      1875 6.56419E-03-1.28717E-03-3.30334E-14
 -1      1876 6.73256E-03-1.22804E-03-3.46949E-14
 -1      1877 6.48868E-03-1.27347E-03-3.23367E-14
 -1      1878 6.90452E-03-1.16311E-03-3.63974E-14
 -1      1879 7.07900E-03-1.09783E-03-3.81407E-14
 -1      1880 6.83601E-03-1.14926E-03-3.56629E-14
 -1      1881 7.25610E-03-1.03624E-03-3.99222E-14
 -1      1882 7.43323E-03-9.81159E-04-4.17408E-14
 -1      1883 7.19372E-03-1.01566E-03-3.91523E-14
 -1      1884 7.61121E-03-9.34567E-04-4.35963E-14
 -1      1885 7.78762E-03-8.96997E-04-4.54855E-14
 -1      1886 7.55207E-03-9.05944E-04-4.27948E-14
 -1      1887 7.96346E-03-8.68686E-04-4.74080E-14
 -1      1888 8.13702E-03-8.49044E-04-4.93628E-14
 -1      1889 7.90378E-03-8.33021E-04-4.65752E-14
 -1      1890 8.30911E-03-8.37327E-04-5.13495E-14
 -1      1891 8.47882E-03-8.32626E-04-5.33650E-14
 -1      1892 8.24602E-03-7.96212E-04-5.04868E-14
 -1      1893 8.64662E-03-8.33878E-04-5.54110E-14
 -1      1894 8.81218E-03-8.40225E-04-5.74837E-14
 -1      1895 8.57865E-03-7.88865E-04-5.45211E-14
 -1      1896 8.97572E-03-8.50667E-04-5.95836E-14
 -1      1897 9.13727E-03-8.64523E-04-6.17127E-14
 -1      1898 8.90270E-03-8.03079E-04-5.86697E-14
 -1      1899 9.29688E-03-8.81003E-04-6.38698E-14
 -1      1900 9.45478E-03-8.99601E-04-6.60558E-14
 -1      1901 9.21937E-03-8.31882E-04-6.29300E-14
 -1      1902 9.61094E-03-9.19756E-04-6.82702E-14
 -1      1903 9.76564E-03-9.41107E-04-7.05112E-14
 -1      1904 9.52981E-03-8.69870E-04-6.73025E-14
 -1      1905 9.91886E-03-9.63286E-04-7.27805E-14
 -1      1906 1.00709E-02-9.86040E-04-7.50759E-14
 -1      1907 9.83502E-03-9.13162E-04-7.17864E-14
 -1      1908 1.02217E-02-1.00914E-03-7.73975E-14
 -1      1909 1.03715E-02-1.03243E-03-7.97410E-14
 -1      1910 1.01359E-02-9.59121E-04-7.63783E-14
 -1      1911 1.05203E-02-1.05577E-03-8.21071E-14
 -1      1912 1.06683E-02-1.07905E-03-8.44972E-14
 -1      1913 1.04332E-02-1.00604E-03-8.10665E-14
 -1      1914 1.08155E-02-1.10220E-03-8.69071E-14
 -1      1915 1.09622E-02-1.12517E-03-8.93357E-14
 -1      1916 1.07277E-02-1.05287E-03-8.58441E-14
 -1      1917 1.11082E-02-1.14792E-03-9.17873E-14
 -1      1918 1.12537E-02-1.17041E-03-9.42576E-14
 -1      1919 1.10199E-02-1.09900E-03-9.07044E-14
 -1      1920 1.13988E-02-1.19265E-03-9.67441E-14
 -1      1921 1.15435E-02-1.21461E-03-9.92484E-14
 -1      1922 1.13103E-02-1.14415E-03-9.56455E-14
 -1      1923 1.16879E-02-1.23632E-03-1.01768E-13
 -1      1924 1.18321E-02-1.25775E-03-1.04301E-13
 -1      1925 1.15993E-02-1.18819E-03-1.00654E-13
 -1      1926 1.19759E-02-1.27894E-03-1.06850E-13
 -1      1927 1.21196E-02-1.29987E-03-1.09414E-13
 -1      1928 1.18873E-02-1.23115E-03-1.05724E-13
 -1      1929 1.22631E-02-1.32059E-03-1.11993E-13
 -1      1930 1.24064E-02-1.34109E-03-1.14586E-13
 -1      1931 1.21745E-02-1.27309E-03-1.10853E-13
 -1      1932 1.25497E-02-1.36139E-03-1.17193E-13
 -1      1933 1.26928E-02-1.38151E-03-1.19816E-13
 -1      1934 1.24612E-02-1.31413E-03-1.16041E-13
 -1      1935 1.28359E-02-1.40146E-03-1.22456E-13
 -1      1936 1.29789E-02-1.42125E-03-1.25114E-13
 -1      1937 1.27475E-02-1.35439E-03-1.21290E-13
 -1      1938 1.31218E-02-1.44092E-03-1.27786E-13
 -1      1939 1.32647E-02-1.46045E-03-1.30474E-13
 -1      1940 1.30336E-02-1.39400E-03-1.26601E-13
 -1      1941 1.34076E-02-1.47989E-03-1.33174E-13
 -1      1942 1.35504E-02-1.49922E-03-1.35889E-13
 -1      1943 1.33194E-02-1.43309E-03-1.31973E-13
 -1      1944 1.36932E-02-1.51847E-03-1.38618E-13
 -1      1945 1.38361E-02-1.53764E-03-1.41356E-13
 -1      1946 1.36052E-02-1.47176E-03-1.37400E-13
 -1      1947 1.39789E-02-1.55675E-03-1.44104E-13
 -1      1948 1.41217E-02-1.57582E-03-1.46866E-13
 -1      1949 1.38909E-02-1.51011E-03-1.42874E-13
 -1      1950 1.42645E-02-1.59484E-03-1.49639E-13
 -1      1951 1.44073E-02-1.61382E-03-1.52420E-13
 -1      1952 1.41766E-02-1.54823E-03-1.48391E-13
 -1      1953 1.45501E-02-1.63279E-03-1.55211E-13
 -1      1954 1.46930E-02-1.65174E-03-1.58010E-13
 -1      1955 1.44622E-02-1.58620E-03-1.53952E-13
 -1      1956 1.48217E-02-1.67038E-03-1.60518E-13
 -1      1957 1.49645E-02-1.68933E-03-1.63331E-13
 -1      1958 1.49913E-02-1.66109E-03-1.64274E-13
 -1      1959 1.47338E-02-1.62380E-03-1.59248E-13
 -1      1960 1.15266E-03 4.46967E-04-9.85215E-16
 -1      1961 1.00764E-03 4.18347E-04-7.26253E-16
 -1      1962 9.75393E-04 3.88952E-04-7.45674E-16
 -1      1963 1.44010E-03 4.89380E-04-1.62931E-15
 -1      1964 1.29646E-03 4.70415E-04-1.28603E-15
 -1      1965 1.26637E-03 4.42172E-04-1.30415E-15
 -1      1966 1.72762E-03 5.17214E-04-2.44165E-15
 -1      1967 1.58362E-03 5.04831E-04-2.01439E-15
 -1      1968 1.55542E-03 4.77306E-04-2.02980E-15
 -1      1969 2.01767E-03 5.35373E-04-3.42208E-15
 -1      1970 1.87219E-03 5.27267E-04-2.91106E-15
 -1      1971 1.84518E-03 5.00030E-04-2.92244E-15
 -1      1972 2.31187E-03 5.47982E-04-4.56774E-15
 -1      1973 2.16416E-03 5.42153E-04-3.97447E-15
 -1      1974 2.13755E-03 5.14836E-04-3.98116E-15
 -1      1975 2.61125E-03 5.58937E-04-5.87590E-15
 -1      1976 2.46085E-03 5.53450E-04-5.20196E-15
 -1      1977 2.43386E-03 5.25722E-04-5.20269E-15
 -1      1978 2.91633E-03 5.72196E-04-7.34552E-15
 -1      1979 2.76306E-03 5.65059E-04-6.59042E-15
 -1      1980 2.73498E-03 5.36605E-04-6.58486E-15
 -1      1981 3.22710E-03 5.91869E-04-8.97471E-15
 -1      1982 3.07104E-03 5.81017E-04-8.14020E-15
 -1      1983 3.04134E-03 5.51539E-04-8.12645E-15
 -1      1984 3.54287E-03 6.22035E-04-1.07614E-14
 -1      1985 3.38446E-03 6.05460E-04-9.84838E-15
 -1      1986 3.35293E-03 5.74709E-04-9.82642E-15
 -1      1987 3.86210E-03 6.66153E-04-1.27083E-14
 -1      1988 3.70224E-03 6.42258E-04-1.17149E-14
 -1      1989 3.66911E-03 6.10107E-04-1.16843E-14
 -1      1990 4.18233E-03 7.25919E-04-1.48132E-14
 -1      1991 4.02238E-03 6.94162E-04-1.37403E-14
 -1      1992 3.98848E-03 6.60739E-04-1.36999E-14
 -1      1993 4.50024E-03 7.99589E-04-1.70793E-14
 -1      1994 4.34193E-03 7.61370E-04-1.59263E-14
 -1      1995 4.30869E-03 7.27209E-04-1.58741E-14
 -1      1996 4.81217E-03 8.80240E-04-1.95079E-14
 -1      1997 4.65729E-03 8.39727E-04-1.82737E-14
 -1      1998 4.62656E-03 8.05865E-04-1.82114E-14
 -1      1999 5.11519E-03 9.55074E-04-2.21030E-14
 -1      2000 4.96496E-03 9.19323E-04-2.07842E-14
 -1      2001 4.93856E-03 8.87169E-04-2.07097E-14
 -1      2002 5.40867E-03 1.00734E-03-2.48654E-14
 -1      2003 5.26299E-03 9.84971E-04-2.34623E-14
 -1      2004 5.24216E-03 9.55820E-04-2.33754E-14
 -1      2005 5.69531E-03 1.02136E-03-2.78014E-14
 -1      2006 5.55238E-03 1.01968E-03-2.63114E-14
 -1      2007 5.53757E-03 9.94076E-04-2.62109E-14
 -1      2008 5.98073E-03 9.89071E-04-3.09101E-14
 -1      2009 5.83755E-03 1.01091E-03-2.93347E-14
 -1      2010 5.82853E-03 9.88243E-04-2.92203E-14
 -1      2011 6.27120E-03 9.13651E-04-3.41865E-14
 -1      2012 6.12481E-03 9.56020E-04-3.25274E-14
 -1      2013 6.12106E-03 9.34876E-04-3.24008E-14
 -1      2014 6.57091E-03 8.08255E-04-3.76287E-14
 -1      2015 6.41966E-03 8.63684E-04-3.58875E-14
 -1      2016 6.42053E-03 8.42561E-04-3.57505E-14
 -1      2017 6.88071E-03 6.89945E-04-4.12299E-14
 -1      2018 6.72461E-03 7.49778E-04-3.94096E-14
 -1      2019 6.72916E-03 7.27727E-04-3.92615E-14
 -1      2020 7.19860E-03 5.73842E-04-4.49896E-14
 -1      2021 7.03890E-03 6.31005E-04-4.30911E-14
 -1      2022 7.04582E-03 6.07718E-04-4.29319E-14
 -1      2023 7.52118E-03 4.69690E-04-4.88955E-14
 -1      2024 7.35962E-03 5.20009E-04-4.69234E-14
 -1      2025 7.36741E-03 4.95623E-04-4.67534E-14
 -1      2026 7.84500E-03 3.81628E-04-5.29429E-14
 -1      2027 7.68322E-03 4.23643E-04-5.09022E-14
 -1      2028 7.69053E-03 3.98464E-04-5.07203E-14
 -1      2029 8.16732E-03 3.09671E-04-5.71221E-14
 -1      2030 8.00656E-03 3.43774E-04-5.50162E-14
 -1      2031 8.01242E-03 3.18116E-04-5.48242E-14
 -1      2032 8.48629E-03 2.51538E-04-6.14274E-14
 -1      2033 8.32735E-03 2.79065E-04-5.92609E-14
 -1      2034 8.33126E-03 2.53184E-04-5.90579E-14
 -1      2035 8.80091E-03 2.04104E-04-6.58515E-14
 -1      2036 8.64420E-03 2.26670E-04-6.36236E-14
 -1      2037 8.64604E-03 2.00755E-04-6.34110E-14
 -1      2038 9.11088E-03 1.64277E-04-7.03859E-14
 -1      2039 8.95649E-03 1.83397E-04-6.81050E-14
 -1      2040 8.95642E-03 1.57578E-04-6.78805E-14
 -1      2041 9.41632E-03 1.29421E-04-7.50300E-14
 -1      2042 9.26415E-03 1.46348E-04-7.26949E-14
 -1      2043 9.26245E-03 1.20706E-04-7.24600E-14
 -1      2044 9.71765E-03 9.74848E-05-7.97756E-14
 -1      2045 9.56746E-03 1.13174E-04-7.73906E-14
 -1      2046 9.56449E-03 8.77511E-05-7.71445E-14
 -1      2047 1.00154E-02 6.69815E-05-8.46143E-14
 -1      2048 9.86692E-03 8.21128E-05-8.21840E-14
 -1      2049 9.86301E-03 5.69213E-05-8.19278E-14
 -1      2050 1.03102E-02 3.68953E-05-8.95388E-14
 -1      2051 1.01631E-02 5.19232E-05-8.70649E-14
 -1      2052 1.01585E-02 2.69579E-05-8.68002E-14
 -1      2053 1.06025E-02 6.57896E-06-9.45457E-14
 -1      2054 1.04566E-02 2.17870E-05-9.20336E-14
 -1      2055 1.04516E-02-2.97022E-06-9.17587E-14
 -1      2056 1.08930E-02-2.43438E-05-9.96250E-14
 -1      2057 1.07480E-02-8.79654E-06-9.70771E-14
 -1      2058 1.07427E-02-3.33701E-05-9.67949E-14
 -1      2059 1.11820E-02-5.60586E-05-1.04775E-13
 -1      2060 1.10376E-02-4.00994E-05-1.02191E-13
 -1      2061 1.10322E-02-6.45161E-05-1.01901E-13
 -1      2062 1.14698E-02-8.86238E-05-1.09992E-13
 -1      2063 1.13260E-02-7.22367E-05-1.07376E-13
 -1      2064 1.13206E-02-9.65233E-05-1.07078E-13
 -1      2065 1.17569E-02-1.22017E-04-1.15277E-13
 -1      2066 1.16135E-02-1.05221E-04-1.12625E-13
 -1      2067 1.16080E-02-1.29403E-04-1.12318E-13
 -1      2068 1.20434E-02-1.56169E-04-1.20629E-13
 -1      2069 1.19002E-02-1.39004E-04-1.17944E-13
 -1      2070 1.18948E-02-1.63102E-04-1.17628E-13
 -1      2071 1.23295E-02-1.90987E-04-1.26035E-13
 -1      2072 1.21865E-02-1.73501E-04-1.23325E-13
 -1      2073 1.21812E-02-1.97534E-04-1.23000E-13
 -1      2074 1.26154E-02-2.26367E-04-1.31486E-13
 -1      2075 1.24725E-02-2.08613E-04-1.28756E-13
 -1      2076 1.24672E-02-2.32597E-04-1.28422E-13
 -1      2077 1.29011E-02-2.62209E-04-1.36970E-13
 -1      2078 1.27583E-02-2.44236E-04-1.34225E-13
 -1      2079 1.27531E-02-2.68185E-04-1.33883E-13
 -1      2080 1.31867E-02-2.98415E-04-1.42478E-13
 -1      2081 1.30439E-02-2.80272E-04-1.39723E-13
 -1      2082 1.30388E-02-3.04196E-04-1.39373E-13
 -1      2083 1.34723E-02-3.34897E-04-1.47995E-13
 -1      2084 1.33295E-02-3.16626E-04-1.45237E-13
 -1      2085 1.33244E-02-3.40534E-04-1.44879E-13
 -1      2086 1.37579E-02-3.71574E-04-1.53512E-13
 -1      2087 1.36151E-02-3.53216E-04-1.50753E-13
 -1      2088 1.36101E-02-3.77115E-04-1.50392E-13
 -1      2089 1.40436E-02-4.08373E-04-1.59029E-13
 -1      2090 1.39008E-02-3.89962E-04-1.56271E-13
 -1      2091 1.38957E-02-4.13858E-04-1.55907E-13
 -1      2092 1.43292E-02-4.45226E-04-1.64539E-13
 -1      2093 1.41864E-02-4.26796E-04-1.61786E-13
 -1      2094 1.41814E-02-4.50693E-04-1.61422E-13
 -1      2095 1.45654E-02-4.78517E-04-1.69063E-13
 -1      2096 1.44226E-02-4.60094E-04-1.66308E-13
 -1      2097 1.44176E-02-4.83994E-04-1.65946E-13
 -1      2098 1.46042E-02-5.13728E-04-1.69485E-13
 -1      2099 1.46732E-02-7.44590E-04-1.68424E-13
 -1      2100 1.46551E-02-7.02403E-04-1.68505E-13
 -1      2101 1.46371E-02-6.60221E-04-1.68585E-13
 -1      2102 1.46190E-02-6.18046E-04-1.68667E-13
 -1      2103 1.45224E-02-6.65326E-04-1.66159E-13
 -1      2104 1.46206E-02-5.86965E-04-1.69036E-13
 -1      2105 1.46026E-02-5.44802E-04-1.69116E-13
 -1      2106 1.45093E-02-5.29933E-04-1.67345E-13
 -1      2107 1.45059E-02-5.92080E-04-1.66608E-13
 -1      2108 1.47088E-02-8.27549E-04-1.68261E-13
 -1      2109 1.46910E-02-7.86067E-04-1.68342E-13
 -1      2110 1.45582E-02-7.48960E-04-1.65995E-13
 -1      2111 1.47452E-02-9.11953E-04-1.68085E-13
 -1      2112 1.47270E-02-8.69750E-04-1.68174E-13
 -1      2113 1.45942E-02-8.32605E-04-1.65822E-13
 -1      2114 1.47817E-02-9.96368E-04-1.67896E-13
 -1      2115 1.47634E-02-9.54160E-04-1.67993E-13
 -1      2116 1.46306E-02-9.16972E-04-1.65639E-13
 -1      2117 1.48183E-02-1.08079E-03-1.67707E-13
 -1      2118 1.48000E-02-1.03858E-03-1.67802E-13
 -1      2119 1.46671E-02-1.00134E-03-1.65448E-13
 -1      2120 1.48551E-02-1.16521E-03-1.67504E-13
 -1      2121 1.48367E-02-1.12300E-03-1.67606E-13
 -1      2122 1.47038E-02-1.08571E-03-1.65251E-13
 -1      2123 1.48920E-02-1.24963E-03-1.67287E-13
 -1      2124 1.48736E-02-1.20742E-03-1.67398E-13
 -1      2125 1.47406E-02-1.17008E-03-1.65040E-13
 -1      2126 1.49285E-02-1.33261E-03-1.67071E-13
 -1      2127 1.49102E-02-1.29112E-03-1.67180E-13
 -1      2128 1.47772E-02-1.25374E-03-1.64821E-13
 -1      2129 1.49657E-02-1.41701E-03-1.66833E-13
 -1      2130 1.49471E-02-1.37481E-03-1.66953E-13
 -1      2131 1.48140E-02-1.33739E-03-1.64589E-13
 -1      2132 1.50030E-02-1.50139E-03-1.66576E-13
 -1      2133 1.49843E-02-1.45921E-03-1.66706E-13
 -1      2134 1.48513E-02-1.42175E-03-1.64340E-13
 -1      2135 1.50404E-02-1.58575E-03-1.66303E-13
 -1      2136 1.50217E-02-1.54358E-03-1.66442E-13
 -1      2137 1.48886E-02-1.50610E-03-1.64073E-13
 -1      2138 7.73769E-03-8.41966E-05-3.72240E-14
 -1      2139 7.88514E-03-1.42093E-04-3.76754E-14
 -1      2140 8.16921E-03-2.53841E-04-3.84553E-14
 -1      2141 8.17912E-03-2.69326E-04-3.83910E-14
 -1      2142 8.02470E-03-2.00687E-04-3.82695E-14
 -1      2143 8.11278E-03-2.28154E-04-3.84721E-14
 -1      2144 7.36616E-03 7.26134E-05-3.62260E-14
 -1      2145 7.55175E-03-1.18337E-05-3.67924E-14
 -1      2146 6.94901E-03 2.96706E-04-3.45964E-14
 -1      2147 7.14240E-03 1.90167E-04-3.53492E-14
 -1      2148 3.28092E-04-7.79481E-05-2.21313E-16
 -1      2149 3.30964E-04-9.07804E-05-2.11284E-16
 -1      2150 4.49035E-04-1.29943E-04-3.06992E-16
 -1      2151 4.40405E-04-9.58561E-05-3.33867E-16
 -1      2152 6.14630E-03 7.05380E-04-3.06541E-14
 -1      2153 6.30346E-03 6.37038E-04-3.16425E-14
 -1      2154 5.84124E-03 7.64176E-04-2.88074E-14
 -1      2155 5.98958E-03 7.46873E-04-2.97234E-14
 -1      2156 6.05026E-03 7.36733E-04-3.02924E-14
 -1      2157 5.49710E-03 7.06407E-04-2.67663E-14
 -1      2158 5.65404E-03 7.49918E-04-2.76865E-14
 -1      2159 5.11628E-03 5.36722E-04-2.49034E-14
 -1      2160 5.28996E-03 6.24765E-04-2.56933E-14
 -1      2161 4.72989E-03 3.29188E-04-2.33887E-14
 -1      2162 4.92485E-03 4.38193E-04-2.41386E-14
 -1      2163 5.04044E-03 4.87551E-04-2.42295E-14
 -1      2164 4.27318E-03 1.01358E-04-2.19363E-14
 -1      2165 4.47308E-03 1.94479E-04-2.24772E-14
 -1      2166 3.90715E-03-3.93347E-05-2.11504E-14
 -1      2167 4.05675E-03 1.19830E-05-2.14264E-14
 -1      2168 3.69932E-03-1.14215E-04-2.05053E-14
 -1      2169 3.78897E-03-8.42316E-05-2.08243E-14
 -1      2170 3.84216E-03-7.70969E-05-2.03667E-14
 -1      2171 3.63576E-03-1.60318E-04-2.05424E-14
 -1      2172 3.63797E-03-1.42563E-04-2.04889E-14
 -1      2173 3.75782E-03-2.13008E-04-2.06582E-14
 -1      2174 3.67912E-03-1.85509E-04-2.05022E-14
 -1      2175 4.03306E-03-3.21933E-04-2.12635E-14
 -1      2176 3.88579E-03-2.65676E-04-2.09742E-14
 -1      2177 4.41938E-03-4.94567E-04-2.20850E-14
 -1      2178 4.22178E-03-4.04957E-04-2.16771E-14
 -1      2179 4.86875E-03-7.44810E-04-2.34063E-14
 -1      2180 4.67383E-03-6.28400E-04-2.27682E-14
 -1      2181 5.26916E-03-9.72286E-04-2.47941E-14
 -1      2182 5.07180E-03-8.60561E-04-2.40924E-14
 -1      2183 4.99641E-03-7.90611E-04-2.33839E-14
 -1      2184 5.68299E-03-1.17123E-03-2.67423E-14
 -1      2185 5.51522E-03-1.09653E-03-2.58300E-14
 -1      2186 6.00788E-03-1.22645E-03-2.86349E-14
 -1      2187 5.86666E-03-1.21612E-03-2.77808E-14
 -1      2188 6.29759E-03-1.17090E-03-3.03775E-14
 -1      2189 6.15429E-03-1.21156E-03-2.94993E-14
 -1      2190 6.07435E-03-1.23296E-03-2.90449E-14
 -1      2191 6.67208E-03-1.00174E-03-3.24274E-14
 -1      2192 6.50985E-03-1.08615E-03-3.15790E-14
 -1      2193 7.03715E-03-8.02846E-04-3.41058E-14
 -1      2194 6.86937E-03-8.96770E-04-3.33732E-14
 -1      2195 7.39464E-03-6.18198E-04-3.54837E-14
 -1      2196 7.22863E-03-7.04847E-04-3.48321E-14
 -1      2197 7.72722E-03-4.58745E-04-3.67935E-14
 -1      2198 7.57654E-03-5.25557E-04-3.62603E-14
 -1      2199 7.99733E-03-3.54622E-04-3.76341E-14
 -1      2200 7.88278E-03-3.97280E-04-3.72503E-14
 -1      2201 8.15155E-03-2.93676E-04-3.81360E-14
 -1      2202 8.09500E-03-3.16608E-04-3.79299E-14
 -1      2203 6.54782E-03 5.14354E-04-3.29304E-14
 -1      2204 6.73863E-03 4.08297E-04-3.37678E-14
 -1      2205 7.23967E-03 1.08389E-04-3.63828E-14
 -1      2206 6.13728E-04-2.80146E-04-2.98467E-16
 -1      2207 6.82488E-03 3.37489E-04-3.46582E-14
 -1      2208 6.28821E-03 6.38108E-04-3.20994E-14
 -1      2209 6.40173E-03 5.81311E-04-3.25157E-14
 -1      2210 6.49688E-03 5.19572E-04-3.34017E-14
 -1      2211 6.70627E-04-2.71501E-04-4.15927E-16
 -1      2212 7.95668E-03-1.93461E-04-3.87530E-14
 -1      2213 8.15010E-03-2.51265E-04-3.93414E-14
 -1      2214 1.50137E-02-1.61401E-03-1.65366E-13
 -1      2215 7.63237E-03-7.33349E-05-3.77149E-14
 -1      2216 8.17376E-03-2.79106E-04-3.90679E-14
 -1      2217 8.04954E-03-3.23617E-04-3.85087E-14
 -1      2218 7.80159E-03-4.09702E-04-3.77416E-14
 -1      2219 7.47525E-03-5.52611E-04-3.64866E-14
 -1      2220 7.11676E-03-7.40331E-04-3.49666E-14
 -1      2221 6.38778E-03-1.14074E-03-3.11075E-14
 -1      2222 5.41318E-03-1.03850E-03-2.50790E-14
 -1      2223 4.56048E-03-5.41208E-04-2.20347E-14
 -1      2224 4.13275E-03-3.34679E-04-2.09636E-14
 -1      2225 3.82060E-03-2.16815E-04-2.02502E-14
 -1      2226 3.65463E-03-1.31947E-04-2.00370E-14
 -1      2227 3.68183E-03-1.22359E-04-1.95843E-14
 -1      2228 3.62634E-03-1.37799E-04-1.95744E-14
 -1      2229 4.61373E-03 2.54808E-04-2.25686E-14
 -1      2230 5.75179E-03 7.69484E-04-2.82340E-14
 -1      2231 5.40271E-03 6.72956E-04-2.60464E-14
 -1      2232 4.16060E-03 3.98102E-05-2.11803E-14
 -1      2233 3.64976E-03-1.65228E-04-1.99839E-14
 -1      2234 5.78828E-03-1.20635E-03-2.71413E-14
 -1      2235 6.75868E-03-9.45331E-04-3.32735E-14
 -1      2236 1.02873E-03 3.68462E-04-9.30720E-16
 -1      2237 8.81800E-04 3.36843E-04-6.86503E-16
 -1      2238 5.41375E-04-4.64266E-05-5.16392E-16
 -1      2239 5.43551E-04-6.07346E-05-5.10822E-16
 -1      2240 5.46352E-04-7.58970E-05-5.03775E-16
 -1      2241 5.49752E-04-9.20293E-05-4.94694E-16
 -1      2242 6.58881E-04-8.08212E-05-6.87886E-16
 -1      2243 5.38365E-04 6.77354E-06-5.24700E-16
 -1      2244 5.38272E-04-6.25849E-06-5.24551E-16
 -1      2245 5.40201E-04 3.34310E-05-5.21312E-16
 -1      2246 5.39012E-04 1.99692E-05-5.23629E-16
 -1      2247 6.50770E-04 1.57697E-05-7.09651E-16
 -1      2248 5.44145E-04 6.15017E-05-5.12502E-16
 -1      2249 5.41915E-04 4.71702E-05-5.17815E-16
 -1      2250 6.53860E-04 4.75142E-05-7.03756E-16
 -1      2251 5.50426E-04 9.34373E-05-4.96104E-16
 -1      2252 5.46998E-04 7.69731E-05-5.05252E-16
 -1      2253 6.59759E-04 8.18177E-05-6.90054E-16
 -1      2254 5.59464E-04 1.30563E-04-4.70571E-16
 -1      2255 5.54577E-04 1.11265E-04-4.84882E-16
 -1      2256 6.68731E-04 1.20712E-04-6.66703E-16
 -1      2257 5.72618E-04 1.75321E-04-4.31567E-16
 -1      2258 5.65459E-04 1.51852E-04-4.53224E-16
 -1      2259 6.81443E-04 1.65918E-04-6.31128E-16
 -1      2260 1.32032E-03 4.15901E-04-1.54244E-15
 -1      2261 1.17470E-03 3.94697E-04-1.21568E-15
 -1      2262 1.08407E-03 3.47228E-04-1.12417E-15
 -1      2263 9.25526E-04-3.16028E-04-8.21039E-16
 -1      2264 1.07195E-03-3.44119E-04-1.08567E-15
 -1      2265 6.73743E-03 3.75507E-04-3.48155E-14
 -1      2266 6.91723E-03 2.66779E-04-3.56640E-14
 -1      2267 1.21784E-03-3.67182E-04-1.39019E-15
 -1      2268 1.36369E-03-3.85642E-04-1.73498E-15
 -1      2269 1.12856E-03-3.22356E-04-1.28478E-15
 -1      2270 1.50931E-03-4.00389E-04-2.11986E-15
 -1      2271 1.65506E-03-4.11758E-04-2.54529E-15
 -1      2272 1.41930E-03-3.58381E-04-1.98473E-15
 -1      2273 1.80095E-03-4.20493E-04-3.01022E-15
 -1      2274 1.94727E-03-4.26905E-04-3.51479E-15
 -1      2275 1.71004E-03-3.80713E-04-2.84354E-15
 -1      2276 2.09405E-03-4.31636E-04-4.05870E-15
 -1      2277 2.24155E-03-4.35019E-04-4.64243E-15
 -1      2278 2.00135E-03-3.93268E-04-3.86067E-15
 -1      2279 2.38980E-03-4.37671E-04-5.26453E-15
 -1      2280 2.53903E-03-4.39980E-04-5.92563E-15
 -1      2281 2.29404E-03-3.99732E-04-5.03341E-15
 -1      2282 2.68931E-03-4.42606E-04-6.62483E-15
 -1      2283 2.84086E-03-4.46040E-04-7.36204E-15
 -1      2284 2.58899E-03-4.03854E-04-6.36055E-15
 -1      2285 2.99379E-03-4.51035E-04-8.13756E-15
 -1      2286 3.14833E-03-4.58250E-04-8.95044E-15
 -1      2287 2.88727E-03-4.09814E-04-7.83955E-15
 -1      2288 3.30471E-03-4.68550E-04-9.79987E-15
 -1      2289 3.46310E-03-4.82842E-04-1.06863E-14
 -1      2290 3.19042E-03-4.22598E-04-9.46807E-15
 -1      2291 3.62400E-03-5.02053E-04-1.16091E-14
 -1      2292 3.78735E-03-5.27402E-04-1.25684E-14
 -1      2293 3.50072E-03-4.48389E-04-1.12437E-14
 -1      2294 3.95407E-03-5.59707E-04-1.35637E-14
 -1      2295 4.12365E-03-6.00490E-04-1.45954E-14
 -1      2296 3.82157E-03-4.94813E-04-1.31635E-14
 -1      2297 4.29740E-03-6.50123E-04-1.56631E-14
 -1      2298 4.47386E-03-7.09932E-04-1.67683E-14
 -1      2299 4.15730E-03-5.70900E-04-1.52271E-14
 -1      2300 4.65448E-03-7.79379E-04-1.79112E-14
 -1      2301 4.83647E-03-8.58328E-04-1.90904E-14
 -1      2302 4.51157E-03-6.85667E-04-1.74357E-14
 -1      2303 5.02066E-03-9.44533E-04-2.03092E-14
 -1      2304 5.20332E-03-1.03382E-03-2.15698E-14
 -1      2305 4.88316E-03-8.43506E-04-1.97930E-14
 -1      2306 5.38397E-03-1.12196E-03-2.28727E-14
 -1      2307 5.56098E-03-1.20063E-03-2.42181E-14
 -1      2308 5.26081E-03-1.02982E-03-2.23094E-14
 -1      2309 5.73259E-03-1.26408E-03-2.56098E-14
 -1      2310 5.90230E-03-1.30361E-03-2.70474E-14
 -1      2311 5.62758E-03-1.20162E-03-2.50000E-14
 -1      2312 6.06727E-03-1.31671E-03-2.85313E-14
 -1      2313 6.23636E-03-1.30180E-03-3.00624E-14
 -1      2314 5.97574E-03-1.28917E-03-2.78750E-14
 -1      2315 6.40629E-03-1.26161E-03-3.16389E-14
 -1      2316 6.58241E-03-1.20428E-03-3.32614E-14
 -1      2317 6.32257E-03-1.25313E-03-3.09396E-14
 -1      2318 6.76265E-03-1.13525E-03-3.49270E-14
 -1      2319 6.94520E-03-1.06337E-03-3.66345E-14
 -1      2320 6.68676E-03-1.12414E-03-3.41890E-14
 -1      2321 7.12983E-03-9.93185E-04-3.83820E-14
 -1      2322 7.31281E-03-9.29752E-04-4.01684E-14
 -1      2323 7.06483E-03-9.70933E-04-3.76106E-14
 -1      2324 7.49478E-03-8.75411E-04-4.19921E-14
 -1      2325 7.67287E-03-8.30694E-04-4.38503E-14
 -1      2326 7.43878E-03-8.43261E-04-4.11890E-14
 -1      2327 7.84839E-03-7.96354E-04-4.57432E-14
 -1      2328 8.01984E-03-7.71265E-04-4.76676E-14
 -1      2329 7.79654E-03-7.58300E-04-4.49098E-14
 -1      2330 8.18851E-03-7.55133E-04-4.96254E-14
 -1      2331 8.35379E-03-7.46495E-04-5.16137E-14
 -1      2332 8.13594E-03-7.13597E-04-4.87635E-14
 -1      2333 8.51664E-03-7.44618E-04-5.36317E-14
 -1      2334 8.67698E-03-7.48257E-04-5.56799E-14
 -1      2335 8.46010E-03-7.00791E-04-5.27420E-14
 -1      2336 8.83535E-03-7.56584E-04-5.77543E-14
 -1      2337 8.99191E-03-7.68712E-04-5.98565E-14
 -1      2338 8.77338E-03-7.11036E-04-5.68384E-14
 -1      2339 9.14690E-03-7.83890E-04-6.19889E-14
 -1      2340 9.30056E-03-8.01514E-04-6.41488E-14
 -1      2341 9.07933E-03-7.37028E-04-6.10464E-14
 -1      2342 9.45295E-03-8.20990E-04-6.63363E-14
 -1      2343 9.60432E-03-8.41914E-04-6.85517E-14
 -1      2344 9.38032E-03-7.73203E-04-6.53689E-14
 -1      2345 9.75466E-03-8.63860E-04-7.07950E-14
 -1      2346 9.90420E-03-8.86559E-04-7.30638E-14
 -1      2347 9.67781E-03-8.15504E-04-6.98017E-14
 -1      2348 1.00529E-02-9.09728E-04-7.53570E-14
 -1      2349 1.02009E-02-9.33191E-04-7.76788E-14
 -1      2350 9.97271E-03-8.61100E-04-7.43387E-14
 -1      2351 1.03483E-02-9.56772E-04-8.00252E-14
 -1      2352 1.04951E-02-9.80359E-04-8.23915E-14
 -1      2353 1.02656E-02-9.08095E-04-7.89812E-14
 -1      2354 1.06414E-02-1.00385E-03-8.47815E-14
 -1      2355 1.07873E-02-1.02718E-03-8.71919E-14
 -1      2356 1.05569E-02-9.55279E-04-8.37183E-14
 -1      2357 1.09327E-02-1.05031E-03-8.96228E-14
 -1      2358 1.10778E-02-1.07318E-03-9.20753E-14
 -1      2359 1.08469E-02-1.00193E-03-8.85407E-14
 -1      2360 1.12226E-02-1.09579E-03-9.45441E-14
 -1      2361 1.13671E-02-1.11811E-03-9.70322E-14
 -1      2362 1.11358E-02-1.04765E-03-9.34422E-14
 -1      2363 1.15113E-02-1.14016E-03-9.95367E-14
 -1      2364 1.16553E-02-1.16192E-03-1.02057E-13
 -1      2365 1.14240E-02-1.09227E-03-9.84186E-14
 -1      2366 1.17991E-02-1.18341E-03-1.04593E-13
 -1      2367 1.19428E-02-1.20463E-03-1.07146E-13
 -1      2368 1.17114E-02-1.13576E-03-1.03462E-13
 -1      2369 1.20863E-02-1.22561E-03-1.09711E-13
 -1      2370 1.22297E-02-1.24635E-03-1.12292E-13
 -1      2371 1.19984E-02-1.17819E-03-1.08568E-13
 -1      2372 1.23730E-02-1.26687E-03-1.14888E-13
 -1      2373 1.25162E-02-1.28718E-03-1.17498E-13
 -1      2374 1.22850E-02-1.21964E-03-1.13732E-13
 -1      2375 1.26593E-02-1.30732E-03-1.20122E-13
 -1      2376 1.28024E-02-1.32727E-03-1.22762E-13
 -1      2377 1.25712E-02-1.26026E-03-1.18955E-13
 -1      2378 1.29454E-02-1.34708E-03-1.25418E-13
 -1      2379 1.30884E-02-1.36674E-03-1.28089E-13
 -1      2380 1.28573E-02-1.30016E-03-1.24235E-13
 -1      2381 1.32313E-02-1.38628E-03-1.30773E-13
 -1      2382 1.33742E-02-1.40571E-03-1.33472E-13
 -1      2383 1.31433E-02-1.33947E-03-1.29574E-13
 -1      2384 1.35171E-02-1.42504E-03-1.36183E-13
 -1      2385 1.36600E-02-1.44428E-03-1.38909E-13
 -1      2386 1.34291E-02-1.37832E-03-1.34969E-13
 -1      2387 1.38029E-02-1.46345E-03-1.41647E-13
 -1      2388 1.39457E-02-1.48256E-03-1.44391E-13
 -1      2389 1.37149E-02-1.41680E-03-1.40415E-13
 -1      2390 1.40886E-02-1.50162E-03-1.47147E-13
 -1      2391 1.42314E-02-1.52063E-03-1.49915E-13
 -1      2392 1.40006E-02-1.45500E-03-1.45907E-13
 -1      2393 1.43743E-02-1.53961E-03-1.52693E-13
 -1      2394 1.45171E-02-1.55857E-03-1.55480E-13
 -1      2395 1.42864E-02-1.49302E-03-1.51435E-13
 -1      2396 1.90209E-03 4.66906E-04-3.26127E-15
 -1      2397 1.75627E-03 4.58148E-04-2.76964E-15
 -1      2398 2.19556E-03 4.79761E-04-4.36642E-15
 -1      2399 2.04847E-03 4.73999E-04-3.79356E-15
 -1      2400 1.95849E-03 4.33465E-04-3.60452E-15
 -1      2401 2.49237E-03 4.89512E-04-5.63286E-15
 -1      2402 2.34349E-03 4.84811E-04-4.97967E-15
 -1      2403 2.25226E-03 4.44498E-04-4.75591E-15
 -1      2404 2.79341E-03 5.00081E-04-7.05816E-15
 -1      2405 2.64233E-03 4.94469E-04-6.32576E-15
 -1      2406 2.54897E-03 4.53221E-04-6.06625E-15
 -1      2407 3.09926E-03 5.15563E-04-8.64185E-15
 -1      2408 2.94574E-03 5.06967E-04-7.83001E-15
 -1      2409 2.84955E-03 4.63523E-04-7.53422E-15
 -1      2410 3.41022E-03 5.40190E-04-1.03816E-14
 -1      2411 3.25416E-03 5.26488E-04-9.49220E-15
 -1      2412 3.15485E-03 4.79510E-04-9.15866E-15
 -1      2413 3.72613E-03 5.77959E-04-1.22784E-14
 -1      2414 3.56770E-03 5.57218E-04-1.13101E-14
 -1      2415 3.46561E-03 5.05451E-04-1.09382E-14
 -1      2416 4.04615E-03 6.31754E-04-1.43318E-14
 -1      2417 3.88587E-03 6.02748E-04-1.32857E-14
 -1      2418 3.78221E-03 5.45382E-04-1.28730E-14
 -1      2419 4.36834E-03 7.01806E-04-1.65444E-14
 -1      2420 4.20731E-03 6.64877E-04-1.54178E-14
 -1      2421 4.10430E-03 6.02181E-04-1.49646E-14
 -1      2422 4.68957E-03 7.83625E-04-1.89174E-14
 -1      2423 4.52946E-03 7.41750E-04-1.77111E-14
 -1      2424 4.43014E-03 6.75858E-04-1.72133E-14
 -1      2425 5.00595E-03 8.66249E-04-2.14540E-14
 -1      2426 4.84867E-03 8.25806E-04-2.01646E-14
 -1      2427 4.75616E-03 7.61156E-04-1.96232E-14
 -1      2428 5.31440E-03 9.32481E-04-2.41561E-14
 -1      2429 5.16114E-03 9.02655E-04-2.27836E-14
 -1      2430 5.07752E-03 8.45388E-04-2.21947E-14
 -1      2431 5.61516E-03 9.63247E-04-2.70307E-14
 -1      2432 5.46531E-03 9.53382E-04-2.55726E-14
 -1      2433 5.39051E-03 9.08938E-04-2.49357E-14
 -1      2434 5.91243E-03 9.45484E-04-3.00779E-14
 -1      2435 5.76343E-03 9.60795E-04-2.85320E-14
 -1      2436 5.69569E-03 9.31060E-04-2.78479E-14
 -1      2437 6.21305E-03 8.78645E-04-3.32978E-14
 -1      2438 6.06170E-03 9.17625E-04-3.16668E-14
 -1      2439 5.99882E-03 8.99666E-04-3.09342E-14
 -1      2440 6.52148E-03 7.75449E-04-3.66862E-14
 -1      2441 6.36601E-03 8.30456E-04-3.49714E-14
 -1      2442 6.30735E-03 8.18395E-04-3.41942E-14
 -1      2443 6.83838E-03 6.54751E-04-4.02349E-14
 -1      2444 6.67904E-03 7.16065E-04-3.84411E-14
 -1      2445 6.62483E-03 7.04479E-04-3.76226E-14
 -1      2446 7.16085E-03 5.34192E-04-4.39412E-14
 -1      2447 6.99929E-03 5.93590E-04-4.20683E-14
 -1      2448 6.94974E-03 5.79214E-04-4.12093E-14
 -1      2449 7.48505E-03 4.25292E-04-4.77970E-14
 -1      2450 7.32311E-03 4.77854E-04-4.58506E-14
 -1      2451 7.27744E-03 4.59679E-04-4.49504E-14
 -1      2452 7.80779E-03 3.33104E-04-5.17937E-14
 -1      2453 7.64688E-03 3.77012E-04-4.97768E-14
 -1      2454 7.60353E-03 3.55256E-04-4.88390E-14
 -1      2455 8.12713E-03 2.57969E-04-5.59266E-14
 -1      2456 7.96805E-03 2.93500E-04-5.38444E-14
 -1      2457 7.92530E-03 2.68825E-04-5.28671E-14
 -1      2458 8.44218E-03 1.97628E-04-6.01849E-14
 -1      2459 8.28527E-03 2.26127E-04-5.80400E-14
 -1      2460 8.24172E-03 1.99250E-04-5.70284E-14
 -1      2461 8.75273E-03 1.48832E-04-6.45637E-14
 -1      2462 8.59804E-03 1.71980E-04-6.23602E-14
 -1      2463 8.55283E-03 1.43543E-04-6.13121E-14
 -1      2464 9.05899E-03 1.08320E-04-6.90545E-14
 -1      2465 8.90638E-03 1.27714E-04-6.67949E-14
 -1      2466 8.85916E-03 9.82583E-05-6.57137E-14
 -1      2467 9.36134E-03 7.32780E-05-7.36534E-14
 -1      2468 9.21062E-03 9.02565E-05-7.13401E-14
 -1      2469 9.16139E-03 6.02120E-05-7.02260E-14
 -1      2470 9.66028E-03 4.14972E-05-7.83563E-14
 -1      2471 9.51120E-03 5.70874E-05-7.59928E-14
 -1      2472 9.46017E-03 2.67835E-05-7.48454E-14
 -1      2473 9.95629E-03 1.13586E-05-8.31557E-14
 -1      2474 9.80861E-03 2.63000E-05-8.07442E-14
 -1      2475 9.75610E-03-4.02671E-06-7.95652E-14
 -1      2476 1.02499E-02-1.82530E-05-8.80448E-14
 -1      2477 1.01034E-02-3.46017E-06-8.55900E-14
 -1      2478 1.00497E-02-3.36520E-05-8.43821E-14
 -1      2479 1.05415E-02-4.80561E-05-9.30165E-14
 -1      2480 1.03959E-02-3.30965E-05-9.05211E-14
 -1      2481 1.03414E-02-6.30590E-05-8.92883E-14
 -1      2482 1.08315E-02-7.84745E-05-9.80662E-14
 -1      2483 1.06867E-02-6.31682E-05-9.55323E-14
 -1      2484 1.06316E-02-9.28548E-05-9.42742E-14
 -1      2485 1.11204E-02-1.09723E-04-1.03183E-13
 -1      2486 1.09761E-02-9.39846E-05-1.00615E-13
 -1      2487 1.09206E-02-1.23383E-04-9.93342E-14
 -1      2488 1.14082E-02-1.41876E-04-1.08371E-13
 -1      2489 1.12644E-02-1.25683E-04-1.05770E-13
 -1      2490 1.12087E-02-1.54802E-04-1.04464E-13
 -1      2491 1.16954E-02-1.74916E-04-1.13622E-13
 -1      2492 1.15519E-02-1.58285E-04-1.10989E-13
 -1      2493 1.14961E-02-1.87150E-04-1.09662E-13
 -1      2494 1.19820E-02-2.08774E-04-1.18941E-13
 -1      2495 1.18388E-02-1.91746E-04-1.16273E-13
 -1      2496 1.17829E-02-2.20386E-04-1.14923E-13
 -1      2497 1.22683E-02-2.43354E-04-1.24319E-13
 -1      2498 1.21252E-02-2.25979E-04-1.21624E-13
 -1      2499 1.20694E-02-2.54428E-04-1.20250E-13
 -1      2500 1.25543E-02-2.78547E-04-1.29743E-13
 -1      2501 1.24113E-02-2.60879E-04-1.27025E-13
 -1      2502 1.23556E-02-2.89171E-04-1.25634E-13
 -1      2503 1.28402E-02-3.14246E-04-1.35203E-13
 -1      2504 1.26973E-02-2.96339E-04-1.32469E-13
 -1      2505 1.26415E-02-3.24504E-04-1.31060E-13
 -1      2506 1.31259E-02-3.50347E-04-1.40689E-13
 -1      2507 1.29831E-02-3.32251E-04-1.37944E-13
 -1      2508 1.29274E-02-3.60317E-04-1.36519E-13
 -1      2509 1.34116E-02-3.86756E-04-1.46191E-13
 -1      2510 1.32688E-02-3.68518E-04-1.43439E-13
 -1      2511 1.32132E-02-3.96510E-04-1.42001E-13
 -1      2512 1.36973E-02-4.23389E-04-1.51701E-13
 -1      2513 1.35545E-02-4.05049E-04-1.48945E-13
 -1      2514 1.34989E-02-4.32990E-04-1.47500E-13
 -1      2515 1.39830E-02-4.60168E-04-1.57215E-13
 -1      2516 1.38402E-02-4.41764E-04-1.54457E-13
 -1      2517 1.37846E-02-4.69675E-04-1.53009E-13
 -1      2518 1.42687E-02-4.97023E-04-1.62725E-13
 -1      2519 1.41258E-02-4.78589E-04-1.59969E-13
 -1      2520 1.40703E-02-5.06488E-04-1.58520E-13
 -1      2521 1.44159E-02-5.15060E-04-1.65576E-13
 -1      2522 1.44795E-02-8.37641E-04-1.63385E-13
 -1      2523 1.44614E-02-7.95478E-04-1.63474E-13
 -1      2524 1.45160E-02-9.21966E-04-1.63194E-13
 -1      2525 1.44977E-02-8.79804E-04-1.63291E-13
 -1      2526 1.43649E-02-8.42657E-04-1.60945E-13
 -1      2527 1.44077E-02-6.70417E-04-1.63730E-13
 -1      2528 1.43896E-02-6.28256E-04-1.63811E-13
 -1      2529 1.44434E-02-7.53671E-04-1.63561E-13
 -1      2530 1.44256E-02-7.12223E-04-1.63648E-13
 -1      2531 1.42928E-02-6.75141E-04-1.61300E-13
 -1      2532 1.43287E-02-7.58725E-04-1.61127E-13
 -1      2533 1.45525E-02-1.00629E-03-1.63000E-13
 -1      2534 1.45342E-02-9.64127E-04-1.63098E-13
 -1      2535 1.44014E-02-9.26938E-04-1.60753E-13
 -1      2536 1.45892E-02-1.09061E-03-1.62795E-13
 -1      2537 1.45709E-02-1.04845E-03-1.62898E-13
 -1      2538 1.44380E-02-1.01121E-03-1.60551E-13
 -1      2539 1.46261E-02-1.17493E-03-1.62575E-13
 -1      2540 1.46076E-02-1.13277E-03-1.62685E-13
 -1      2541 1.44747E-02-1.09548E-03-1.60337E-13
 -1      2542 1.46625E-02-1.25783E-03-1.62349E-13
 -1      2543 1.46443E-02-1.21638E-03-1.62464E-13
 -1      2544 1.45113E-02-1.17904E-03-1.60113E-13
 -1      2545 1.46996E-02-1.34216E-03-1.62104E-13
 -1      2546 1.46810E-02-1.29999E-03-1.62229E-13
 -1      2547 1.45480E-02-1.26261E-03-1.59875E-13
 -1      2548 1.47369E-02-1.42648E-03-1.61847E-13
 -1      2549 1.47182E-02-1.38432E-03-1.61978E-13
 -1      2550 1.45852E-02-1.34690E-03-1.59622E-13
 -1      2551 1.47742E-02-1.51081E-03-1.61571E-13
 -1      2552 1.47555E-02-1.46865E-03-1.61708E-13
 -1      2553 1.46225E-02-1.43120E-03-1.59354E-13
 -1      2554 8.13654E-03-2.56823E-04-4.04105E-14
 -1      2555 8.18630E-03-2.66424E-04-4.03972E-14
 -1      2556 7.56308E-03-6.65049E-05-3.84468E-14
 -1      2557 7.72912E-03-1.30786E-04-3.88952E-14
 -1      2558 1.61084E-03 4.47031E-04-2.31939E-15
 -1      2559 1.46557E-03 4.33237E-04-1.91030E-15
 -1      2560 1.66663E-03 4.16316E-04-2.61487E-15
 -1      2561 1.48849E-02-1.59537E-03-1.62848E-13
 -1      2562 8.19399E-03-2.78448E-04-4.02312E-14
 -1      2563 8.16474E-03-2.86244E-04-3.99701E-14
 -1      2564 7.88865E-03-1.87910E-04-3.95002E-14
 -1      2565 8.02259E-03-2.26564E-04-4.01077E-14
 -1      2566 7.83193E-03-1.72249E-04-4.02427E-14
 -1      2567 5.94330E-04-2.18696E-04-3.89988E-16
 -1      2568 7.89621E-04-2.79053E-04-6.23972E-16
 -1      2569 8.48617E-04-2.65311E-04-7.73212E-16
 -1      2570 5.83883E-04-1.90777E-04-4.20359E-16
 -1      2571 8.10591E-03-3.03908E-04-3.96602E-14
 -1      2572 8.01682E-03-3.27461E-04-3.93523E-14
 -1      2573 8.15271E-03-2.97087E-04-4.08228E-14
 -1      2574 5.50253E-03-1.08779E-03-2.51231E-14
 -1      2575 5.30267E-03-9.65790E-04-2.41117E-14
 -1      2576 4.68398E-03-5.87881E-04-2.18370E-14
 -1      2577 4.45505E-03-4.63723E-04-2.11794E-14
 -1      2578 4.50939E-03 1.96140E-04-2.17570E-14
 -1      2579 4.74336E-03 3.19653E-04-2.26451E-14
 -1      2580 5.67392E-03 7.67497E-04-2.76319E-14
 -1      2581 5.82175E-03 7.80508E-04-2.87508E-14
 -1      2582 5.38740E-04-1.93726E-05-5.23128E-16
 -1      2583 5.39766E-04-3.26756E-05-5.20444E-16
 -1      2584 6.53189E-04-4.68902E-05-7.02129E-16
 -1      2585 6.50513E-04-1.52544E-05-7.09163E-16
 -1      2586 5.31703E-03 6.36775E-04-2.53033E-14
 -1      2587 5.48767E-03 7.15431E-04-2.63641E-14
 -1      2588 5.97981E-03 7.61041E-04-2.99469E-14
 -1      2589 6.10202E-03 7.21296E-04-3.08830E-14
 -1      2590 4.05159E-03-6.69122E-06-2.03721E-14
 -1      2591 4.24380E-03 7.13046E-05-2.08579E-14
 -1      2592 4.95519E-03 4.37113E-04-2.35003E-14
 -1      2593 5.11738E-03 5.31754E-04-2.42478E-14
 -1      2594 3.65612E-03-1.59354E-04-1.93158E-14
 -1      2595 3.61800E-03-1.50349E-04-1.93581E-14
 -1      2596 3.78626E-03-9.23002E-05-1.96998E-14
 -1      2597 3.89627E-03-6.16994E-05-2.00117E-14
 -1      2598 5.87301E-03-1.23497E-03-2.75609E-14
 -1      2599 5.72712E-03-1.19179E-03-2.65293E-14
 -1      2600 3.88790E-03-2.24389E-04-1.97950E-14
 -1      2601 3.76448E-03-1.89528E-04-1.94915E-14
 -1      2602 4.22258E-03-3.53673E-04-2.05987E-14
 -1      2603 4.04942E-03-2.83598E-04-2.02034E-14
 -1      2604 5.09295E-03-8.38187E-04-2.33212E-14
 -1      2605 4.91775E-03-7.26960E-04-2.26545E-14
 -1      2606 6.84811E-03-8.92586E-04-3.43010E-14
 -1      2607 6.68510E-03-9.92919E-04-3.33360E-14
 -1      2608 6.13873E-03-1.23335E-03-2.95197E-14
 -1      2609 6.02486E-03-1.24690E-03-2.86549E-14
 -1      2610 6.47918E-03-1.10344E-03-3.19483E-14
 -1      2611 6.30691E-03-1.18467E-03-3.07370E-14
 -1      2612 7.21360E-03-6.78452E-04-3.60248E-14
 -1      2613 7.05062E-03-7.72609E-04-3.52796E-14
 -1      2614 7.54910E-03-5.07927E-04-3.76093E-14
 -1      2615 7.38202E-03-5.89130E-04-3.68130E-14
 -1      2616 7.31728E-03-6.31796E-04-3.71322E-14
 -1      2617 7.88550E-03-3.71312E-04-3.89186E-14
 -1      2618 7.74623E-03-4.22248E-04-3.84451E-14
 -1      2619 7.65826E-04 3.11516E-04-5.12746E-16
 -1      2620 6.17481E-04 2.66845E-04-3.42188E-16
 -1      2621 5.90532E-04 2.40286E-04-3.50604E-16
 -1      2622 8.22292E-04 2.97447E-04-6.58531E-16
 -1      2623 7.11854E-03 1.51391E-04-3.67142E-14
 -1      2624 7.32078E-03 4.43268E-05-3.76134E-14
 -1      2625 5.57338E-03 7.49550E-04-2.68558E-14
 -1      2626 6.67751E-04-1.18810E-04-6.64589E-16
 -1      2627 5.53860E-04-1.09423E-04-4.83378E-16
 -1      2628 5.58708E-04-1.28287E-04-4.68917E-16
 -1      2629 1.37553E-03 3.89069E-04-1.78788E-15
 -1      2630 5.77562E-04 2.09704E-04-3.85014E-16
 -1      2631 7.02966E-03 2.00078E-04-3.68727E-14
 -1      2632 7.66604E-03-4.63573E-04-3.87763E-14
 -1      2633 6.20144E-03 6.80240E-04-3.17393E-14
 -1      2634 6.59379E-03-1.05751E-03-3.29451E-14
 -1      2635 6.24470E-03-1.21462E-03-3.03297E-14
 -1      2636 5.20332E-03-9.06984E-04-2.33591E-14
 -1      2637 6.96815E-03-8.34372E-04-3.53421E-14
 -1      2638 1.43604E-02-5.42963E-04-1.64125E-13
 -1      2639 7.44974E-03-1.74702E-05-3.87831E-14
 -1      2640 1.43587E-02-5.74032E-04-1.63755E-13
 -1      2641 8.21008E-03-2.77360E-04-4.13056E-14
 -1      2642 8.09961E-03-2.48621E-04-4.11657E-14
 -1      2643 4.33745E-03-4.04688E-04-2.04044E-14
 -1      2644 3.95833E-03-2.46756E-04-1.94362E-14
 -1      2645 6.95583E-04 2.29047E-04-5.54515E-16
 -1      2646 5.94961E-03-1.25027E-03-2.80163E-14
 -1      2647 5.75379E-04-1.66070E-04-4.44997E-16
 -1      2648 4.78252E-03-6.45171E-04-2.17730E-14
 -1      2649 5.60017E-03-1.14191E-03-2.55172E-14
 -1      2650 3.71438E-03-1.09270E-04-1.92348E-14
 -1      2651 3.74796E-03-9.18240E-05-1.88840E-14
 -1      2652 3.65606E-03-1.16711E-04-1.87756E-14
 -1      2653 3.69022E-03-1.67600E-04-1.88671E-14
 -1      2654 4.82815E-03 3.75295E-04-2.26596E-14
 -1      2655 3.96713E-03-2.85836E-05-1.96973E-14
 -1      2656 4.36806E-03 1.32704E-04-2.09262E-14
 -1      2657 4.47853E-03 2.00109E-04-2.09900E-14
 -1      2658 4.23424E-03 8.74039E-05-2.01133E-14
 -1      2659 3.60326E-03-1.39733E-04-1.89089E-14
 -1      2660 5.88842E-03 7.79052E-04-2.93186E-14
 -1      2661 7.97549E-03-3.46957E-04-4.00671E-14
 -1      2662 6.60393E-03 4.53409E-04-3.43814E-14
 -1      2663 6.71107E-03 3.90842E-04-3.53759E-14
 -1      2664 6.49349E-03 5.24811E-04-3.39473E-14
 -1      2665 5.21577E-03 5.93611E-04-2.45471E-14
 -1      2666 1.47428E-02-1.59085E-03-1.59868E-13
 -1      2667 1.47652E-02-1.54377E-03-1.60955E-13
 -1      2668 1.46321E-02-1.50631E-03-1.58598E-13
 -1      2669 1.46141E-02-1.57221E-03-1.57365E-13
 -1      2670 1.42440E-02-5.79133E-04-1.61328E-13
 -1      2671 1.45262E-02-1.52563E-03-1.56096E-13
 -1      2672 7.69560E-04 6.37651E-05-9.14538E-16
 -1      2673 7.66776E-04 4.51739E-05-9.20366E-16
 -1      2674 7.64803E-04 2.68366E-05-9.24296E-16
 -1      2675 7.63737E-04 8.91198E-06-9.26004E-16
 -1      2676 8.80398E-04 3.98899E-05-1.16746E-15
 -1      2677 7.90015E-04 1.49768E-04-8.63174E-16
 -1      2678 7.83465E-04 1.26196E-04-8.80738E-16
 -1      2679 8.06884E-04 2.02585E-04-8.16052E-16
 -1      2680 7.97826E-04 1.75159E-04-8.42073E-16
 -1      2681 9.14093E-04 1.80189E-04-1.08485E-15
 -1      2682 1.14118E-03 3.25398E-04-1.32658E-15
 -1      2683 9.95727E-04 3.01101E-04-1.02991E-15
 -1      2684 6.14725E-03 7.10964E-04-3.15419E-14
 -1      2685 6.31133E-03 6.28868E-04-3.27780E-14
 -1      2686 8.19519E-03-2.97058E-04-4.19057E-14
 -1      2687 8.14112E-03-3.08519E-04-4.15880E-14
 -1      2688 7.77869E-03-4.33257E-04-4.01332E-14
 -1      2689 7.60455E-03-5.07362E-04-3.92755E-14
 -1      2690 1.33067E-03-3.17302E-04-1.84793E-15
 -1      2691 1.47536E-03-3.30949E-04-2.24239E-15
 -1      2692 1.61996E-03-3.41674E-04-2.67572E-15
 -1      2693 1.76467E-03-3.49749E-04-3.14889E-15
 -1      2694 1.53129E-03-3.03459E-04-2.50724E-15
 -1      2695 1.90936E-03-3.55760E-04-3.66108E-15
 -1      2696 2.05421E-03-3.59981E-04-4.21183E-15
 -1      2697 1.81862E-03-3.19053E-04-3.46056E-15
 -1      2698 2.19917E-03-3.62978E-04-4.80152E-15
 -1      2699 2.34442E-03-3.65055E-04-5.42958E-15
 -1      2700 2.10571E-03-3.27240E-04-4.56906E-15
 -1      2701 2.48994E-03-3.66786E-04-6.09551E-15
 -1      2702 2.63595E-03-3.68539E-04-6.79948E-15
 -1      2703 2.39268E-03-3.31159E-04-5.83038E-15
 -1      2704 2.78248E-03-3.70926E-04-7.54153E-15
 -1      2705 2.92983E-03-3.74443E-04-8.32075E-15
 -1      2706 2.67998E-03-3.34138E-04-7.24335E-15
 -1      2707 3.07815E-03-3.79748E-04-9.13646E-15
 -1      2708 3.22784E-03-3.87563E-04-9.98886E-15
 -1      2709 2.96866E-03-3.39920E-04-8.80517E-15
 -1      2710 3.37927E-03-3.98563E-04-1.08780E-14
 -1      2711 3.53296E-03-4.13880E-04-1.18036E-14
 -1      2712 3.26073E-03-3.52958E-04-1.05133E-14
 -1      2713 3.68967E-03-4.34131E-04-1.27643E-14
 -1      2714 3.84987E-03-4.61024E-04-1.37607E-14
 -1      2715 3.55994E-03-3.78917E-04-1.23659E-14
 -1      2716 4.01492E-03-4.94958E-04-1.47928E-14
 -1      2717 4.18489E-03-5.38622E-04-1.58597E-14
 -1      2718 3.87231E-03-4.25398E-04-1.43597E-14
 -1      2719 4.36192E-03-5.91966E-04-1.69627E-14
 -1      2720 4.54419E-03-6.57766E-04-1.81028E-14
 -1      2721 4.20661E-03-5.03157E-04-1.64940E-14
 -1      2722 4.73484E-03-7.35046E-04-1.92798E-14
 -1      2723 4.92834E-03-8.25831E-04-2.04941E-14
 -1      2724 4.57210E-03-6.26684E-04-1.87695E-14
 -1      2725 5.22907E-03-9.69065E-04-2.25764E-14
 -1      2726 5.42575E-03-1.07287E-03-2.39002E-14
 -1      2727 5.61880E-03-1.16459E-03-2.52708E-14
 -1      2728 5.93695E-03-1.26528E-03-2.77560E-14
 -1      2729 6.11806E-03-1.26648E-03-2.92599E-14
 -1      2730 6.25788E-03-1.23301E-03-3.04732E-14
 -1      2731 6.44724E-03-1.17162E-03-3.20627E-14
 -1      2732 6.61772E-03-1.08609E-03-3.34543E-14
 -1      2733 6.81819E-03-9.95166E-04-3.51296E-14
 -1      2734 7.38748E-03-8.07526E-04-4.03853E-14
 -1      2735 7.57178E-03-7.56024E-04-4.22140E-14
 -1      2736 7.75085E-03-7.17643E-04-4.40773E-14
 -1      2737 7.92276E-03-6.89131E-04-4.59734E-14
 -1      2738 7.71110E-03-6.73906E-04-4.32434E-14
 -1      2739 8.08960E-03-6.70816E-04-4.79022E-14
 -1      2740 8.25136E-03-6.60275E-04-4.98619E-14
 -1      2741 8.04948E-03-6.26274E-04-4.70409E-14
 -1      2742 8.40937E-03-6.57042E-04-5.18521E-14
 -1      2743 8.56420E-03-6.59239E-04-5.38724E-14
 -1      2744 8.36437E-03-6.12856E-04-5.09625E-14
 -1      2745 8.71663E-03-6.66363E-04-5.59215E-14
 -1      2746 8.86721E-03-6.77273E-04-5.79989E-14
 -1      2747 8.66496E-03-6.22286E-04-5.50048E-14
 -1      2748 9.01632E-03-6.91403E-04-6.01040E-14
 -1      2749 9.16441E-03-7.08056E-04-6.22376E-14
 -1      2750 8.95774E-03-6.46909E-04-5.91627E-14
 -1      2751 9.31159E-03-7.26715E-04-6.44000E-14
 -1      2752 9.45819E-03-7.46950E-04-6.65901E-14
 -1      2753 9.24664E-03-6.81530E-04-6.34315E-14
 -1      2754 9.60422E-03-7.68344E-04-6.88074E-14
 -1      2755 9.74991E-03-7.90627E-04-7.10520E-14
 -1      2756 9.53381E-03-7.22443E-04-6.78117E-14
 -1      2757 9.89520E-03-8.13491E-04-7.33217E-14
 -1      2758 1.00403E-02-8.36767E-04-7.56157E-14
 -1      2759 9.82031E-03-7.66991E-04-7.23012E-14
 -1      2760 1.01850E-02-8.60243E-04-7.79382E-14
 -1      2761 1.03297E-02-8.83815E-04-8.02849E-14
 -1      2762 1.01066E-02-8.13314E-04-7.68955E-14
 -1      2763 1.04740E-02-9.07348E-04-8.26537E-14
 -1      2764 1.06183E-02-9.30780E-04-8.50441E-14
 -1      2765 1.03929E-02-8.60156E-04-8.15883E-14
 -1      2766 1.07623E-02-9.54033E-04-8.74558E-14
 -1      2767 1.09063E-02-9.77074E-04-8.98885E-14
 -1      2768 1.06791E-02-9.06715E-04-8.63704E-14
 -1      2769 1.10501E-02-9.99865E-04-9.23409E-14
 -1      2770 1.11938E-02-1.02239E-03-9.48119E-14
 -1      2771 1.09653E-02-9.52521E-04-9.12366E-14
 -1      2772 1.13374E-02-1.04464E-03-9.72998E-14
 -1      2773 1.14809E-02-1.06661E-03-9.98067E-14
 -1      2774 1.12515E-02-9.97335E-04-9.61816E-14
 -1      2775 1.16243E-02-1.08830E-03-1.02331E-13
 -1      2776 1.17676E-02-1.10973E-03-1.04870E-13
 -1      2777 1.15377E-02-1.04108E-03-1.01196E-13
 -1      2778 1.19108E-02-1.13089E-03-1.07422E-13
 -1      2779 1.20541E-02-1.15181E-03-1.09990E-13
 -1      2780 1.18237E-02-1.08377E-03-1.06275E-13
 -1      2781 1.21972E-02-1.17250E-03-1.12575E-13
 -1      2782 1.23403E-02-1.19298E-03-1.15175E-13
 -1      2783 1.21097E-02-1.12548E-03-1.11415E-13
 -1      2784 1.24834E-02-1.21326E-03-1.17787E-13
 -1      2785 1.26264E-02-1.23335E-03-1.20412E-13
 -1      2786 1.23957E-02-1.16633E-03-1.16616E-13
 -1      2787 1.27694E-02-1.25327E-03-1.23054E-13
 -1      2788 1.29123E-02-1.27305E-03-1.25709E-13
 -1      2789 1.26816E-02-1.20644E-03-1.21871E-13
 -1      2790 1.30553E-02-1.29268E-03-1.28378E-13
 -1      2791 1.31982E-02-1.31220E-03-1.31059E-13
 -1      2792 1.29674E-02-1.24593E-03-1.27182E-13
 -1      2793 1.33411E-02-1.33161E-03-1.33755E-13
 -1      2794 1.34840E-02-1.35092E-03-1.36465E-13
 -1      2795 1.32532E-02-1.28492E-03-1.32545E-13
 -1      2796 1.36269E-02-1.37014E-03-1.39190E-13
 -1      2797 1.37698E-02-1.38930E-03-1.41925E-13
 -1      2798 1.35390E-02-1.32350E-03-1.37964E-13
 -1      2799 1.39127E-02-1.40839E-03-1.44668E-13
 -1      2800 1.40556E-02-1.42743E-03-1.47420E-13
 -1      2801 1.38247E-02-1.36179E-03-1.43429E-13
 -1      2802 1.41984E-02-1.44643E-03-1.50181E-13
 -1      2803 1.43413E-02-1.46540E-03-1.52953E-13
 -1      2804 1.41105E-02-1.39985E-03-1.48931E-13
 -1      2805 2.30776E-03 4.09080E-04-5.14897E-15
 -1      2806 2.16079E-03 4.04884E-04-4.53115E-15
 -1      2807 1.41320E-02-6.14891E-04-1.58626E-13
 -1      2808 1.41011E-02-5.60690E-04-1.58573E-13
 -1      2809 1.39583E-02-5.42261E-04-1.55819E-13
 -1      2810 2.01437E-03 3.99776E-04-3.95303E-15
 -1      2811 1.86836E-03 3.93422E-04-3.41464E-15
 -1      2812 2.06953E-03 3.66007E-04-4.30659E-15
 -1      2813 2.90359E-03 4.26751E-04-8.01270E-15
 -1      2814 2.75318E-03 4.21259E-04-7.23811E-15
 -1      2815 3.20827E-03 4.43013E-04-9.67776E-15
 -1      2816 3.05528E-03 4.33822E-04-8.82603E-15
 -1      2817 2.95565E-03 3.89716E-04-8.49445E-15
 -1      2818 3.51910E-03 4.69895E-04-1.14960E-14
 -1      2819 3.36292E-03 4.54832E-04-1.05677E-14
 -1      2820 3.25971E-03 4.05931E-04-1.01988E-14
 -1      2821 3.83711E-03 5.11565E-04-1.34692E-14
 -1      2822 3.67729E-03 4.88602E-04-1.24634E-14
 -1      2823 3.57097E-03 4.33333E-04-1.20560E-14
 -1      2824 4.16244E-03 5.71110E-04-1.55969E-14
 -1      2825 3.99908E-03 5.38946E-04-1.45139E-14
 -1      2826 3.89111E-03 4.76391E-04-1.40660E-14
 -1      2827 4.49339E-03 6.48616E-04-1.78823E-14
 -1      2828 4.32763E-03 6.07786E-04-1.67195E-14
 -1      2829 4.22077E-03 5.38715E-04-1.62300E-14
 -1      2830 4.82565E-03 7.38191E-04-2.03270E-14
 -1      2831 4.65990E-03 6.92624E-04-1.90844E-14
 -1      2832 4.55804E-03 6.20776E-04-1.85503E-14
 -1      2833 5.15290E-03 8.25238E-04-2.29350E-14
 -1      2834 4.99036E-03 7.83549E-04-2.16105E-14
 -1      2835 4.89734E-03 7.16073E-04-2.10289E-14
 -1      2836 5.47034E-03 8.86430E-04-2.57126E-14
 -1      2837 5.31273E-03 8.60813E-04-2.43020E-14
 -1      2838 5.23040E-03 8.06811E-04-2.36725E-14
 -1      2839 5.77929E-03 8.99063E-04-2.86632E-14
 -1      2840 5.62491E-03 9.00179E-04-2.71671E-14
 -1      2841 5.55155E-03 8.65178E-04-2.64873E-14
 -1      2842 6.08778E-03 8.51319E-04-3.17916E-14
 -1      2843 5.93239E-03 8.82252E-04-3.02058E-14
 -1      2844 5.86468E-03 8.64966E-04-2.94788E-14
 -1      2845 6.40464E-03 7.54005E-04-3.50908E-14
 -1      2846 6.24469E-03 8.07534E-04-3.34191E-14
 -1      2847 6.18011E-03 7.98045E-04-3.26461E-14
 -1      2848 6.73168E-03 6.29094E-04-3.85576E-14
 -1      2849 6.56710E-03 6.93130E-04-3.68033E-14
 -1      2850 6.50710E-03 6.83430E-04-3.59866E-14
 -1      2851 7.06440E-03 5.00580E-04-4.21827E-14
 -1      2852 6.89791E-03 5.64026E-04-4.03513E-14
 -1      2853 6.84420E-03 5.49087E-04-3.94947E-14
 -1      2854 7.39646E-03 3.83855E-04-4.59609E-14
 -1      2855 7.23106E-03 4.40180E-04-4.40535E-14
 -1      2856 7.18390E-03 4.19789E-04-4.31587E-14
 -1      2857 7.72334E-03 2.85393E-04-4.98804E-14
 -1      2858 7.56088E-03 3.32274E-04-4.79026E-14
 -1      2859 7.51873E-03 3.08029E-04-4.69697E-14
 -1      2860 8.04321E-03 2.05626E-04-5.39406E-14
 -1      2861 7.88430E-03 2.43341E-04-5.18937E-14
 -1      2862 7.84483E-03 2.16829E-04-5.09244E-14
 -1      2863 8.35612E-03 1.42014E-04-5.81276E-14
 -1      2864 8.20056E-03 1.72048E-04-5.60188E-14
 -1      2865 8.16159E-03 1.44283E-04-5.50126E-14
 -1      2866 8.66301E-03 9.10018E-05-6.24380E-14
 -1      2867 8.51028E-03 1.15173E-04-6.02677E-14
 -1      2868 8.47023E-03 8.66894E-05-5.92281E-14
 -1      2869 8.96507E-03 4.90998E-05-6.68606E-14
 -1      2870 8.81459E-03 6.91155E-05-6.46356E-14
 -1      2871 8.77257E-03 4.01834E-05-6.35602E-14
 -1      2872 9.26334E-03 1.33104E-05-7.13945E-14
 -1      2873 9.11462E-03 3.06000E-05-6.91149E-14
 -1      2874 9.07026E-03 1.38312E-06-6.80072E-14
 -1      2875 9.55868E-03-1.87334E-05-7.60353E-14
 -1      2876 9.41132E-03-3.06205E-06-7.37027E-14
 -1      2877 9.36463E-03-3.24397E-05-7.25640E-14
 -1      2878 9.85174E-03-4.87885E-05-8.07752E-14
 -1      2879 9.70544E-03-3.39264E-05-7.83928E-14
 -1      2880 9.65665E-03-6.33603E-05-7.72235E-14
 -1      2881 1.01430E-02-7.80878E-05-8.56078E-14
 -1      2882 9.99757E-03-6.34768E-05-8.31789E-14
 -1      2883 9.94698E-03-9.28806E-05-8.19817E-14
 -1      2884 1.04329E-02-1.07445E-04-9.05270E-14
 -1      2885 1.02881E-02-9.27239E-05-8.80574E-14
 -1      2886 1.02361E-02-1.22032E-04-8.68306E-14
 -1      2887 1.07218E-02-1.37356E-04-9.55278E-14
 -1      2888 1.05775E-02-1.22311E-04-9.30183E-14
 -1      2889 1.05243E-02-1.51479E-04-9.17655E-14
 -1      2890 1.10098E-02-1.68088E-04-1.00599E-13
 -1      2891 1.08659E-02-1.52610E-04-9.80544E-14
 -1      2892 1.08119E-02-1.81613E-04-9.67780E-14
 -1      2893 1.12972E-02-1.99750E-04-1.05742E-13
 -1      2894 1.11535E-02-1.83800E-04-1.03162E-13
 -1      2895 1.10990E-02-2.12630E-04-1.01863E-13
 -1      2896 1.15841E-02-2.32344E-04-1.10950E-13
 -1      2897 1.14407E-02-2.15931E-04-1.08338E-13
 -1      2898 1.13857E-02-2.44591E-04-1.07017E-13
 -1      2899 1.18706E-02-2.65813E-04-1.16221E-13
 -1      2900 1.17273E-02-2.48973E-04-1.13578E-13
 -1      2901 1.16721E-02-2.77475E-04-1.12235E-13
 -1      2902 1.21568E-02-3.00063E-04-1.21557E-13
 -1      2903 1.20137E-02-2.82846E-04-1.18882E-13
 -1      2904 1.19583E-02-3.11206E-04-1.17519E-13
 -1      2905 1.24429E-02-3.34984E-04-1.26944E-13
 -1      2906 1.22999E-02-3.17445E-04-1.24245E-13
 -1      2907 1.22443E-02-3.45683E-04-1.22860E-13
 -1      2908 1.27288E-02-3.70466E-04-1.32372E-13
 -1      2909 1.25859E-02-3.52661E-04-1.29653E-13
 -1      2910 1.25303E-02-3.80795E-04-1.28251E-13
 -1      2911 1.30146E-02-4.06399E-04-1.37830E-13
 -1      2912 1.28717E-02-3.88381E-04-1.35099E-13
 -1      2913 1.28161E-02-4.16433E-04-1.33681E-13
 -1      2914 1.33004E-02-4.42687E-04-1.43309E-13
 -1      2915 1.31575E-02-4.24504E-04-1.40567E-13
 -1      2916 1.31019E-02-4.52491E-04-1.39137E-13
 -1      2917 1.35861E-02-4.79237E-04-1.48808E-13
 -1      2918 1.34433E-02-4.60934E-04-1.46057E-13
 -1      2919 1.33877E-02-4.88873E-04-1.44616E-13
 -1      2920 1.38436E-02-5.19914E-04-1.53687E-13
 -1      2921 1.37008E-02-5.01533E-04-1.50932E-13
 -1      2922 1.36452E-02-5.29443E-04-1.49486E-13
 -1      2923 1.38745E-02-5.74092E-04-1.53739E-13
 -1      2924 7.37635E-03 2.48109E-05-3.94141E-14
 -1      2925 7.58801E-03-7.40241E-05-4.02720E-14
 -1      2926 1.43234E-02-1.01611E-03-1.58101E-13
 -1      2927 1.43051E-02-9.73999E-04-1.58207E-13
 -1      2928 1.44382E-02-1.47905E-03-1.54834E-13
 -1      2929 1.45352E-02-1.49268E-03-1.56715E-13
 -1      2930 1.43503E-02-1.43247E-03-1.53570E-13
 -1      2931 1.42503E-02-8.47657E-04-1.58507E-13
 -1      2932 1.42321E-02-8.05535E-04-1.58602E-13
 -1      2933 1.43602E-02-1.10033E-03-1.57880E-13
 -1      2934 1.43418E-02-1.05822E-03-1.57993E-13
 -1      2935 1.42089E-02-1.02098E-03-1.55654E-13
 -1      2936 1.42868E-02-9.31887E-04-1.58310E-13
 -1      2937 1.42685E-02-8.89774E-04-1.58407E-13
 -1      2938 1.41357E-02-8.52639E-04-1.56069E-13
 -1      2939 1.41722E-02-9.36815E-04-1.55868E-13
 -1      2940 1.43965E-02-1.18313E-03-1.57652E-13
 -1      2941 1.43783E-02-1.14172E-03-1.57768E-13
 -1      2942 1.42454E-02-1.10443E-03-1.55429E-13
 -1      2943 1.44336E-02-1.26737E-03-1.57403E-13
 -1      2944 1.44150E-02-1.22524E-03-1.57529E-13
 -1      2945 1.42820E-02-1.18790E-03-1.55191E-13
 -1      2946 1.44708E-02-1.35163E-03-1.57141E-13
 -1      2947 1.44522E-02-1.30949E-03-1.57273E-13
 -1      2948 1.43191E-02-1.27210E-03-1.54934E-13
 -1      2949 7.94448E-04-2.25981E-04-7.41459E-16
 -1      2950 9.26983E-04-2.57239E-04-9.59600E-16
 -1      2951 7.76876E-03-1.47997E-04-4.08692E-14
 -1      2952 7.91254E-03-1.95266E-04-4.14901E-14
 -1      2953 8.06855E-03-2.41028E-04-4.21647E-14
 -1      2954 8.17095E-03-2.64056E-04-4.24759E-14
 -1      2955 4.41351E-03-4.48964E-04-1.99482E-14
 -1      2956 4.20967E-03-3.51901E-04-1.93933E-14
 -1      2957 8.10038E-04 2.52313E-04-7.30617E-16
 -1      2958 4.04664E-03-2.82963E-04-1.89980E-14
 -1      2959 3.89576E-03-2.30764E-04-1.86067E-14
 -1      2960 4.11558E-03-3.27652E-04-1.85546E-14
 -1      2961 3.86609E-03-4.65178E-05-1.88560E-14
 -1      2962 4.00225E-03 1.23119E-06-1.91988E-14
 -1      2963 1.72269E-03 3.85231E-04-2.91653E-15
 -1      2964 1.57718E-03 3.74890E-04-2.45843E-15
 -1      2965 1.77861E-03 3.53962E-04-3.22409E-15
 -1      2966 2.60381E-03 4.16801E-04-6.50334E-15
 -1      2967 2.45539E-03 4.12926E-04-5.80691E-15
 -1      2968 2.36198E-03 3.73626E-04-5.54708E-15
 -1      2969 2.65694E-03 3.80297E-04-6.94346E-15
 -1      2970 1.43184E-03 3.61749E-04-2.04098E-15
 -1      2971 1.28644E-03 3.45485E-04-1.66342E-15
 -1      2972 1.19899E-03 3.02848E-04-1.53763E-15
 -1      2973 1.48854E-03 3.34076E-04-2.30087E-15
 -1      2974 8.05161E-03-3.33622E-04-4.11400E-14
 -1      2975 7.93705E-03-3.69719E-04-4.06929E-14
 -1      2976 8.11862E-03-3.28258E-04-4.22231E-14
 -1      2977 4.87894E-03-7.11122E-04-2.16705E-14
 -1      2978 4.67120E-03-5.85195E-04-2.08793E-14
 -1      2979 1.05627E-03-2.80280E-04-1.21048E-15
 -1      2980 1.20074E-03-3.00773E-04-1.53026E-15
 -1      2981 1.25850E-03-2.77786E-04-1.74978E-15
 -1      2982 1.00128E-03-2.41696E-04-1.16431E-15
 -1      2983 3.58103E-03-1.36302E-04-1.82402E-14
 -1      2984 3.59750E-03-1.29938E-04-1.84510E-14
 -1      2985 5.81394E-03 7.90801E-04-2.87478E-14
 -1      2986 5.95109E-03 7.74137E-04-2.99443E-14
 -1      2987 7.77886E-04 1.04208E-04-8.94819E-16
 -1      2988 7.73285E-04 8.34375E-05-9.06176E-16
 -1      2989 8.87288E-04 8.21204E-05-1.15272E-15
 -1      2990 8.98405E-04 1.28208E-04-1.12616E-15
 -1      2991 7.72133E-04-8.25594E-05-9.03669E-16
 -1      2992 7.76630E-04-1.02863E-04-8.92298E-16
 -1      2993 4.70801E-03 3.29238E-04-2.17190E-14
 -1      2994 4.89328E-03 4.34037E-04-2.25486E-14
 -1      2995 3.71486E-03-1.74339E-04-1.81933E-14
 -1      2996 3.61865E-03-1.51818E-04-1.80266E-14
 -1      2997 1.45442E-02-1.45973E-03-1.57328E-13
 -1      2998 6.55504E-04-1.66833E-04-5.78002E-16
 -1      2999 8.22732E-03-2.80302E-04-4.24553E-14
 -1      3000 8.23066E-03-2.86204E-04-4.22862E-14
 -1      3001 7.41704E-03-5.98740E-04-3.82983E-14
 -1      3002 7.27031E-03-6.77522E-04-3.74910E-14
 -1      3003 6.93348E-03 2.63733E-04-3.70070E-14
 -1      3004 7.11364E-03 1.61592E-04-3.80795E-14
 -1      3005 5.10632E-03 5.48419E-04-2.36955E-14
 -1      3006 5.28133E-03 6.43618E-04-2.47343E-14
 -1      3007 5.47710E-03 7.28426E-04-2.60576E-14
 -1      3008 5.63978E-03 7.75986E-04-2.73164E-14
 -1      3009 5.06835E-03-8.53509E-04-2.20017E-14
 -1      3010 6.98114E-03-8.72068E-04-3.60970E-14
 -1      3011 7.00947E-03-9.35383E-04-3.68733E-14
 -1      3012 7.20451E-03-8.59454E-04-3.86298E-14
 -1      3013 7.14673E-03-7.66056E-04-3.71097E-14
 -1      3014 7.82163E-04-1.24336E-04-8.77797E-16
 -1      3015 7.88679E-04-1.47254E-04-8.60138E-16
 -1      3016 8.96683E-04-1.26449E-04-1.12279E-15
 -1      3017 8.77790E-04-2.91535E-07-1.17166E-15
 -1      3018 7.63570E-04-8.86703E-06-9.25665E-16
 -1      3019 7.64314E-04-2.66739E-05-9.23307E-16
 -1      3020 6.41900E-03 5.75638E-04-3.37419E-14
 -1      3021 5.80802E-03-1.24192E-03-2.66837E-14
 -1      3022 4.51248E-03-5.16508E-04-1.98445E-14
 -1      3023 7.55650E-03-5.56326E-04-3.96411E-14
 -1      3024 7.35228E-03-7.57800E-04-3.96167E-14
 -1      3025 7.26470E-03-7.32058E-04-3.82666E-14
 -1      3026 6.81642E-03 3.42897E-04-3.65515E-14
 -1      3027 1.40994E-02-7.68796E-04-1.56257E-13
 -1      3028 1.42141E-02-7.63766E-04-1.58691E-13
 -1      3029 1.41961E-02-7.21993E-04-1.58780E-13
 -1      3030 7.69670E-03-1.06076E-04-4.15146E-14
 -1      3031 7.27786E-03 9.15555E-05-3.95491E-14
 -1      3032 7.71567E-04-1.77579E-04-7.79663E-16
 -1      3033 1.41500E-02-6.56671E-04-1.58543E-13
 -1      3034 3.60467E-03-1.18480E-04-1.81075E-14
 -1      3035 8.24116E-03-2.96728E-04-4.30612E-14
 -1      3036 1.45255E-02-1.41759E-03-1.57471E-13
 -1      3037 8.70602E-04 2.38572E-04-8.83855E-16
 -1      3038 9.88035E-04 2.44192E-04-1.13779E-15
 -1      3039 8.02396E-03-2.21876E-04-4.28028E-14
 -1      3040 8.22894E-03-2.75824E-04-4.34673E-14
 -1      3041 3.97829E-03 2.92752E-05-1.84174E-14
 -1      3042 4.10153E-03 5.11075E-05-1.92563E-14
 -1      3043 4.19668E-03 1.07766E-04-1.93099E-14
 -1      3044 4.97146E-03 5.00087E-04-2.27201E-14
 -1      3045 3.77857E-03-6.68612E-05-1.83996E-14
 -1      3046 3.80004E-03-3.65690E-05-1.79139E-14
 -1      3047 3.70081E-03-7.93474E-05-1.79485E-14
 -1      3048 7.88250E-03-4.10130E-04-4.12030E-14
 -1      3049 3.56750E-03-1.39194E-04-1.75779E-14
 -1      3050 3.53120E-03-1.30155E-04-1.71327E-14
 -1      3051 3.56085E-03-1.44583E-04-1.69223E-14
 -1      3052 7.65986E-04-4.47038E-05-9.18739E-16
 -1      3053 7.68578E-04-6.32891E-05-9.12180E-16
 -1      3054 8.85852E-04-8.14849E-05-1.15007E-15
 -1      3055 8.79586E-04-4.01134E-05-1.16579E-15
 -1      3056 5.71271E-03 7.92769E-04-2.79112E-14
 -1      3057 3.77456E-03-2.01232E-04-1.77677E-14
 -1      3058 5.98251E-03 7.78667E-04-3.03474E-14
 -1      3059 6.05964E-03 7.50667E-04-3.09451E-14
 -1      3060 6.16588E-03 7.16315E-04-3.19622E-14
 -1      3061 1.43714E-02-1.40631E-03-1.54350E-13
 -1      3062 1.44497E-02-1.37780E-03-1.56367E-13
 -1      3063 1.43166E-02-1.34037E-03-1.54028E-13
 -1      3064 1.42744E-02-1.39267E-03-1.52475E-13
 -1      3065 4.56203E-03 2.67299E-04-2.08819E-14
 -1      3066 4.62163E-03 3.33547E-04-2.07646E-14
 -1      3067 4.41915E-03 2.16041E-04-2.00623E-14
 -1      3068 4.89109E-03-7.35610E-04-2.12644E-14
 -1      3069 1.04076E-03 2.11163E-04-1.33143E-15
 -1      3070 1.03037E-03 1.81308E-04-1.36009E-15
 -1      3071 8.19545E-03-3.29435E-04-4.36644E-14
 -1      3072 8.11577E-03-3.51399E-04-4.32047E-14
 -1      3073 4.13278E-03-3.60956E-04-1.79299E-14
 -1      3074 3.99100E-03-2.99690E-04-1.75566E-14
 -1      3075 5.61264E-03 7.91092E-04-2.70501E-14
 -1      3076 5.77354E-03 8.06627E-04-2.84735E-14
 -1      3077 1.72967E-03-2.83401E-04-3.25971E-15
 -1      3078 1.87206E-03-2.88771E-04-3.77862E-15
 -1      3079 2.01417E-03-2.92635E-04-4.33619E-15
 -1      3080 2.15610E-03-2.95214E-04-4.93182E-15
 -1      3081 1.92486E-03-2.59007E-04-4.10343E-15
 -1      3082 2.29772E-03-2.96994E-04-5.56521E-15
 -1      3083 2.43917E-03-2.98223E-04-6.23634E-15
 -1      3084 2.20539E-03-2.64017E-04-5.30015E-15
 -1      3085 2.58035E-03-2.99404E-04-6.94533E-15
 -1      3086 2.72151E-03-3.00837E-04-7.69180E-15
 -1      3087 2.48399E-03-2.66349E-04-6.64792E-15
 -1      3088 2.86263E-03-3.03037E-04-8.47385E-15
 -1      3089 3.00409E-03-3.06434E-04-9.29336E-15
 -1      3090 2.76068E-03-2.68687E-04-8.14355E-15
 -1      3091 3.14602E-03-3.11521E-04-1.01495E-14
 -1      3092 3.28908E-03-3.19002E-04-1.10412E-14
 -1      3093 3.03626E-03-2.73938E-04-9.78597E-15
 -1      3094 3.43363E-03-3.29278E-04-1.19688E-14
 -1      3095 3.58077E-03-3.43723E-04-1.29315E-14
 -1      3096 3.31289E-03-2.85452E-04-1.15726E-14
 -1      3097 3.73130E-03-3.62543E-04-1.39287E-14
 -1      3098 3.88672E-03-3.88220E-04-1.49611E-14
 -1      3099 3.59524E-03-3.07812E-04-1.34993E-14
 -1      3100 4.03095E-03-3.97765E-04-1.61784E-14
 -1      3101 4.19782E-03-4.40524E-04-1.72823E-14
 -1      3102 8.01841E-03-5.79842E-04-4.61775E-14
 -1      3103 8.17484E-03-5.70464E-04-4.81099E-14
 -1      3104 8.32612E-03-5.68523E-04-5.00733E-14
 -1      3105 8.47374E-03-5.71439E-04-5.20659E-14
 -1      3106 8.29496E-03-5.23417E-04-4.91832E-14
 -1      3107 8.61849E-03-5.79031E-04-5.40884E-14
 -1      3108 8.76155E-03-5.89900E-04-5.61398E-14
 -1      3109 8.57725E-03-5.36276E-04-5.31725E-14
 -1      3110 8.90328E-03-6.03742E-04-5.82201E-14
 -1      3111 9.04441E-03-6.19847E-04-6.03279E-14
 -1      3112 8.85281E-03-5.61774E-04-5.72778E-14
 -1      3113 9.18505E-03-6.37844E-04-6.24634E-14
 -1      3114 9.32565E-03-6.57348E-04-6.46263E-14
 -1      3115 9.12664E-03-5.95630E-04-6.14950E-14
 -1      3116 9.46618E-03-6.78004E-04-6.68174E-14
 -1      3117 9.60690E-03-6.99590E-04-6.90369E-14
 -1      3118 9.40114E-03-6.35055E-04-6.58226E-14
 -1      3119 9.74772E-03-7.21806E-04-7.12826E-14
 -1      3120 9.88882E-03-7.44521E-04-7.35550E-14
 -1      3121 9.67728E-03-6.77991E-04-7.02621E-14
 -1      3122 1.00301E-02-7.67506E-04-7.58521E-14
 -1      3123 1.01716E-02-7.90681E-04-7.81750E-14
 -1      3124 9.95529E-03-7.22888E-04-7.48090E-14
 -1      3125 1.03132E-02-8.13883E-04-8.05229E-14
 -1      3126 1.04551E-02-8.37069E-04-8.28930E-14
 -1      3127 1.02350E-02-7.68605E-04-7.94564E-14
 -1      3128 1.05971E-02-8.60130E-04-8.52851E-14
 -1      3129 1.07393E-02-8.83044E-04-8.76986E-14
 -1      3130 1.05163E-02-8.14351E-04-8.41994E-14
 -1      3131 1.08816E-02-9.05748E-04-9.01320E-14
 -1      3132 1.10240E-02-9.28233E-04-9.25870E-14
 -1      3133 1.07987E-02-8.59614E-04-8.90263E-14
 -1      3134 1.11664E-02-9.50468E-04-9.50600E-14
 -1      3135 1.13090E-02-9.72454E-04-9.75495E-14
 -1      3136 1.10821E-02-9.04097E-04-9.39370E-14
 -1      3137 1.14516E-02-9.94181E-04-1.00062E-13
 -1      3138 1.15943E-02-1.01566E-03-1.02588E-13
 -1      3139 1.13662E-02-9.47664E-04-9.89233E-14
 -1      3140 1.17370E-02-1.03688E-03-1.05128E-13
 -1      3141 1.18798E-02-1.05787E-03-1.07684E-13
 -1      3142 1.16508E-02-9.90284E-04-1.03978E-13
 -1      3143 1.20226E-02-1.07863E-03-1.10254E-13
 -1      3144 1.21654E-02-1.09918E-03-1.12843E-13
 -1      3145 1.19357E-02-1.03200E-03-1.09093E-13
 -1      3146 1.23082E-02-1.11953E-03-1.15444E-13
 -1      3147 1.24510E-02-1.13970E-03-1.18058E-13
 -1      3148 1.22210E-02-1.07289E-03-1.14268E-13
 -1      3149 1.25939E-02-1.15970E-03-1.20687E-13
 -1      3150 1.27367E-02-1.17953E-03-1.23330E-13
 -1      3151 1.25064E-02-1.11306E-03-1.19503E-13
 -1      3152 1.28796E-02-1.19923E-03-1.25985E-13
 -1      3153 1.30225E-02-1.21881E-03-1.28654E-13
 -1      3154 1.27919E-02-1.15261E-03-1.24788E-13
 -1      3155 1.31654E-02-1.23826E-03-1.31336E-13
 -1      3156 1.33082E-02-1.25762E-03-1.34030E-13
 -1      3157 1.30776E-02-1.19166E-03-1.30126E-13
 -1      3158 1.34511E-02-1.27689E-03-1.36738E-13
 -1      3159 1.35940E-02-1.29608E-03-1.39459E-13
 -1      3160 1.33633E-02-1.23031E-03-1.35516E-13
 -1      3161 1.37369E-02-1.31520E-03-1.42190E-13
 -1      3162 1.38797E-02-1.33426E-03-1.44929E-13
 -1      3163 1.36490E-02-1.26863E-03-1.40951E-13
 -1      3164 1.40056E-02-1.35401E-03-1.47314E-13
 -1      3165 1.41485E-02-1.37299E-03-1.50072E-13
 -1      3166 1.41696E-02-1.34685E-03-1.50849E-13
 -1      3167 1.39178E-02-1.30745E-03-1.46065E-13
 -1      3168 2.12401E-03 3.32197E-04-4.66524E-15
 -1      3169 1.97906E-03 3.28061E-04-4.08187E-15
 -1      3170 3.30889E-03 3.67954E-04-1.07226E-14
 -1      3171 3.15643E-03 3.58904E-04-9.83199E-15
 -1      3172 3.00568E-03 3.52251E-04-8.97897E-15
 -1      3173 2.85645E-03 3.47309E-04-8.16399E-15
 -1      3174 3.05366E-03 3.14236E-04-9.46690E-15
 -1      3175 3.94317E-03 4.39171E-04-1.46634E-14
 -1      3176 3.78050E-03 4.14728E-04-1.36211E-14
 -1      3177 4.27799E-03 5.04164E-04-1.68620E-14
 -1      3178 4.10931E-03 4.68720E-04-1.57435E-14
 -1      3179 3.99327E-03 3.99856E-04-1.52611E-14
 -1      3180 4.62292E-03 5.91610E-04-1.92150E-14
 -1      3181 4.44984E-03 5.45250E-04-1.80193E-14
 -1      3182 4.33402E-03 4.67995E-04-1.74929E-14
 -1      3183 4.97074E-03 6.94433E-04-2.17286E-14
 -1      3184 4.79743E-03 6.42176E-04-2.04516E-14
 -1      3185 4.68771E-03 5.62436E-04-1.98792E-14
 -1      3186 5.31079E-03 7.91018E-04-2.44077E-14
 -1      3187 5.14244E-03 7.46145E-04-2.30470E-14
 -1      3188 5.04453E-03 6.75922E-04-2.24249E-14
 -1      3189 5.69266E-03 8.41520E-04-2.77872E-14
 -1      3190 5.53108E-03 8.26464E-04-2.63244E-14
 -1      3191 5.85348E-03 8.35235E-04-2.92955E-14
 -1      3192 6.27558E-03 7.42569E-04-3.34998E-14
 -1      3193 6.11150E-03 7.93995E-04-3.18736E-14
 -1      3194 6.61353E-03 6.09602E-04-3.68835E-14
 -1      3195 6.44283E-03 6.78749E-04-3.51704E-14
 -1      3196 6.37808E-03 6.78003E-04-3.43566E-14
 -1      3197 6.96038E-03 4.68196E-04-4.04314E-14
 -1      3198 6.78684E-03 5.37877E-04-3.86373E-14
 -1      3199 6.72894E-03 5.28638E-04-3.77831E-14
 -1      3200 7.30538E-03 3.41203E-04-4.41332E-14
 -1      3201 7.13405E-03 4.02087E-04-4.22627E-14
 -1      3202 7.08440E-03 3.84023E-04-4.13712E-14
 -1      3203 7.64075E-03 2.36597E-04-4.79788E-14
 -1      3204 7.47469E-03 2.86113E-04-4.60390E-14
 -1      3205 7.43191E-03 2.62790E-04-4.51101E-14
 -1      3206 7.96424E-03 1.53695E-04-5.19667E-14
 -1      3207 7.80411E-03 1.92741E-04-4.99558E-14
 -1      3208 7.76529E-03 1.67158E-04-4.89928E-14
 -1      3209 8.27674E-03 8.85637E-05-5.60826E-14
 -1      3210 8.12179E-03 1.19271E-04-5.40088E-14
 -1      3211 8.08425E-03 9.32073E-05-5.30096E-14
 -1      3212 8.58064E-03 3.67283E-05-6.03239E-14
 -1      3213 8.42963E-03 6.12865E-05-5.81882E-14
 -1      3214 8.39135E-03 3.53884E-05-5.71544E-14
 -1      3215 8.87838E-03-5.68865E-06-6.46817E-14
 -1      3216 8.73015E-03 1.45778E-05-6.24888E-14
 -1      3217 8.68996E-03-1.10759E-05-6.14202E-14
 -1      3218 9.17194E-03-4.18158E-05-6.91504E-14
 -1      3219 9.02558E-03-2.43653E-05-6.69017E-14
 -1      3220 8.98294E-03-4.98618E-05-6.58017E-14
 -1      3221 9.46278E-03-7.40481E-05-7.37278E-14
 -1      3222 9.31762E-03-5.82949E-05-7.14259E-14
 -1      3223 9.27243E-03-8.37351E-05-7.02935E-14
 -1      3224 9.75186E-03-1.04151E-04-7.84088E-14
 -1      3225 9.60748E-03-8.92797E-05-7.60559E-14
 -1      3226 9.55988E-03-1.14723E-04-7.48921E-14
 -1      3227 1.00398E-02-1.33373E-04-8.31839E-14
 -1      3228 9.89595E-03-1.18815E-04-8.07847E-14
 -1      3229 9.84623E-03-1.44278E-04-7.95912E-14
 -1      3230 1.03271E-02-1.62555E-04-8.80521E-14
 -1      3231 1.01835E-02-1.47933E-04-8.56085E-14
 -1      3232 1.01320E-02-1.73406E-04-8.43879E-14
 -1      3233 1.06139E-02-1.92223E-04-9.30028E-14
 -1      3234 1.04705E-02-1.77307E-04-9.05167E-14
 -1      3235 1.04176E-02-2.02768E-04-8.92726E-14
 -1      3236 1.09004E-02-2.22674E-04-9.80272E-14
 -1      3237 1.07571E-02-2.07341E-04-9.55064E-14
 -1      3238 1.07031E-02-2.32765E-04-9.42370E-14
 -1      3239 1.11866E-02-2.54042E-04-1.03126E-13
 -1      3240 1.10435E-02-2.38240E-04-1.00568E-13
 -1      3241 1.09886E-02-2.63610E-04-9.92761E-14
 -1      3242 1.14727E-02-2.86349E-04-1.08291E-13
 -1      3243 1.13297E-02-2.70080E-04-1.05699E-13
 -1      3244 1.12741E-02-2.95382E-04-1.04388E-13
 -1      3245 1.17587E-02-3.19551E-04-1.13521E-13
 -1      3246 1.16158E-02-3.02843E-04-1.10898E-13
 -1      3247 1.15597E-02-3.28071E-04-1.09563E-13
 -1      3248 1.20447E-02-3.53563E-04-1.18815E-13
 -1      3249 1.19017E-02-3.36461E-04-1.16162E-13
 -1      3250 1.18454E-02-3.61615E-04-1.14806E-13
 -1      3251 1.23306E-02-3.88278E-04-1.24163E-13
 -1      3252 1.21876E-02-3.70838E-04-1.21482E-13
 -1      3253 1.21311E-02-3.95921E-04-1.20108E-13
 -1      3254 1.26164E-02-4.23587E-04-1.29559E-13
 -1      3255 1.24735E-02-4.05864E-04-1.26857E-13
 -1      3256 1.24168E-02-4.30883E-04-1.25464E-13
 -1      3257 1.29022E-02-4.59382E-04-1.34990E-13
 -1      3258 1.27593E-02-4.41430E-04-1.32271E-13
 -1      3259 1.27025E-02-4.66393E-04-1.30865E-13
 -1      3260 1.31879E-02-4.95564E-04-1.40445E-13
 -1      3261 1.30451E-02-4.77430E-04-1.37715E-13
 -1      3262 1.29883E-02-5.02347E-04-1.36296E-13
 -1      3263 1.34737E-02-5.32040E-04-1.45927E-13
 -1      3264 1.33308E-02-5.13770E-04-1.43183E-13
 -1      3265 1.32740E-02-5.38652E-04-1.41753E-13
 -1      3266 1.41307E-02-1.10886E-03-1.52983E-13
 -1      3267 1.41126E-02-1.06752E-03-1.53099E-13
 -1      3268 1.42047E-02-1.27680E-03-1.52468E-13
 -1      3269 1.41861E-02-1.23471E-03-1.52601E-13
 -1      3270 1.40942E-02-1.02546E-03-1.53210E-13
 -1      3271 1.40758E-02-9.83414E-04-1.53323E-13
 -1      3272 1.39796E-02-1.02992E-03-1.50774E-13
 -1      3273 7.19389E-03 1.59429E-04-3.97731E-14
 -1      3274 7.42863E-03 3.80877E-05-4.11404E-14
 -1      3275 4.84869E-03 4.73756E-04-2.17202E-14
 -1      3276 5.03953E-03 5.71793E-04-2.28431E-14
 -1      3277 7.98394E-03-1.97265E-04-4.37519E-14
 -1      3278 8.12485E-03-2.38213E-04-4.44430E-14
 -1      3279 7.68925E-03-5.31420E-04-4.11621E-14
 -1      3280 7.52542E-03-6.09819E-04-4.01592E-14
 -1      3281 8.23914E-03-2.73180E-04-4.46704E-14
 -1      3282 8.28738E-03-2.88008E-04-4.46492E-14
 -1      3283 1.41677E-02-1.19281E-03-1.52733E-13
 -1      3284 1.41491E-02-1.15074E-03-1.52859E-13
 -1      3285 1.40164E-02-1.11379E-03-1.50535E-13
 -1      3286 1.40532E-02-1.19751E-03-1.50278E-13
 -1      3287 3.62055E-03 3.95271E-04-1.26168E-14
 -1      3288 3.46357E-03 3.79779E-04-1.16505E-14
 -1      3289 3.35578E-03 3.28873E-04-1.12485E-14
 -1      3290 3.66783E-03 3.55481E-04-1.31798E-14
 -1      3291 3.55300E-03-1.13532E-04-1.73215E-14
 -1      3292 3.61312E-03-1.02008E-04-1.76350E-14
 -1      3293 3.62250E-03-7.95394E-05-1.71631E-14
 -1      3294 7.59328E-03-6.49615E-04-4.15417E-14
 -1      3295 7.76968E-03-6.14254E-04-4.33951E-14
 -1      3296 8.28984E-03-3.02392E-04-4.44438E-14
 -1      3297 8.25448E-03-3.11831E-04-4.40553E-14
 -1      3298 8.26852E-03-3.31991E-04-4.50536E-14
 -1      3299 7.44584E-03-6.79420E-04-4.00224E-14
 -1      3300 1.83439E-03 3.22559E-04-3.53782E-15
 -1      3301 1.68988E-03 3.15403E-04-3.03327E-15
 -1      3302 1.88980E-03 2.91099E-04-3.85762E-15
 -1      3303 6.39619E-03 6.09271E-04-3.39305E-14
 -1      3304 6.55893E-03 5.10161E-04-3.51290E-14
 -1      3305 1.40353E-02-6.61750E-04-1.56111E-13
 -1      3306 1.44459E-03-2.66512E-04-2.33811E-15
 -1      3307 1.58720E-03-2.76056E-04-2.77950E-15
 -1      3308 1.64284E-03-2.48775E-04-3.05928E-15
 -1      3309 7.68687E-03-8.09062E-05-4.25182E-14
 -1      3310 7.84189E-03-1.46034E-04-4.31344E-14
 -1      3311 7.97414E-03-1.73022E-04-4.47770E-14
 -1      3312 6.75963E-03 4.01099E-04-3.67524E-14
 -1      3313 6.96436E-03 2.93116E-04-3.84129E-14
 -1      3314 6.72440E-03 4.52846E-04-3.69430E-14
 -1      3315 7.99815E-03-3.93184E-04-4.26284E-14
 -1      3316 7.86277E-03-4.50284E-04-4.20505E-14
 -1      3317 8.10327E-03-3.86848E-04-4.40710E-14
 -1      3318 1.15148E-03 2.73647E-04-1.48191E-15
 -1      3319 1.08538E-03 2.37394E-04-1.39094E-15
 -1      3320 1.20224E-03 2.35692E-04-1.70557E-15
 -1      3321 1.29550E-03 2.90939E-04-1.83692E-15
 -1      3322 5.34532E-03 6.77795E-04-2.51141E-14
 -1      3323 5.41948E-03 7.23465E-04-2.55500E-14
 -1      3324 5.23265E-03 6.40725E-04-2.42428E-14
 -1      3325 5.35480E-03 7.17000E-04-2.49822E-14
 -1      3326 5.47536E-03 7.57324E-04-2.59248E-14
 -1      3327 9.97621E-04 5.48021E-05-1.43864E-15
 -1      3328 9.94787E-04 3.23734E-05-1.44421E-15
 -1      3329 8.87685E-04-1.84067E-04-1.01354E-15
 -1      3330 3.81318E-03-2.30542E-04-1.71261E-14
 -1      3331 3.65215E-03-1.79921E-04-1.67351E-14
 -1      3332 9.93217E-04 1.03881E-05-1.44658E-15
 -1      3333 9.92941E-04-1.13876E-05-1.44615E-15
 -1      3334 1.10981E-03 2.27548E-05-1.74971E-15
 -1      3335 3.82799E-03-2.61314E-04-1.65262E-14
 -1      3336 4.34753E-03-4.81194E-04-1.82839E-14
 -1      3337 3.87231E-03-3.26893E-04-1.57098E-14
 -1      3338 4.53380E-03-5.51677E-04-1.94532E-14
 -1      3339 1.39847E-02-7.73638E-04-1.53829E-13
 -1      3340 1.39667E-02-7.31910E-04-1.53917E-13
 -1      3341 1.01139E-03-1.25474E-04-1.39910E-15
 -1      3342 1.01904E-03-1.51179E-04-1.37889E-15
 -1      3343 3.50217E-03-1.17569E-04-1.66743E-14
 -1      3344 3.48288E-03-1.03706E-04-1.62184E-14
 -1      3345 3.46388E-03-1.20718E-04-1.60354E-14
 -1      3346 1.56482E-03 3.11212E-04-2.61645E-15
 -1      3347 1.42050E-03 2.99706E-04-2.18665E-15
 -1      3348 1.37273E-03 2.71602E-04-2.11491E-15
 -1      3349 1.62170E-03 2.82670E-04-2.89422E-15
 -1      3350 2.75819E-03 3.06810E-04-7.83529E-15
 -1      3351 2.70841E-03 3.43643E-04-7.38721E-15
 -1      3352 2.56133E-03 3.40738E-04-6.64914E-15
 -1      3353 5.94249E-03 8.05213E-04-3.00894E-14
 -1      3354 7.52205E-03 4.30867E-05-4.29775E-14
 -1      3355 7.59750E-03-2.04804E-05-4.27511E-14
 -1      3356 7.75648E-03-6.50123E-05-4.43862E-14
 -1      3357 1.35884E-02-5.54310E-04-1.48050E-13
 -1      3358 1.35315E-02-5.79165E-04-1.46611E-13
 -1      3359 1.37030E-02-5.76612E-04-1.50170E-13
 -1      3360 8.22607E-03-2.59507E-04-4.56401E-14
 -1      3361 8.31325E-03-2.75082E-04-4.68458E-14
 -1      3362 8.21154E-03-2.40688E-04-4.66123E-14
 -1      3363 1.40212E-02-8.57781E-04-1.53636E-13
 -1      3364 1.40029E-02-8.15714E-04-1.53735E-13
 -1      3365 1.38702E-02-7.78824E-04-1.51402E-13
 -1      3366 2.41501E-03 3.38139E-04-5.94927E-15
 -1      3367 2.26928E-03 3.35448E-04-5.28752E-15
 -1      3368 2.46679E-03 3.02654E-04-6.35521E-15
 -1      3369 7.82938E-03-5.01880E-04-4.25831E-14
 -1      3370 7.12853E-03 2.27561E-04-3.99764E-14
 -1      3371 1.40576E-02-9.41629E-04-1.53431E-13
 -1      3372 1.40393E-02-8.99574E-04-1.53535E-13
 -1      3373 1.39065E-02-8.62635E-04-1.51207E-13
 -1      3374 1.39429E-02-9.46148E-04-1.50997E-13
 -1      3375 3.58382E-03-1.83687E-04-1.56867E-14
 -1      3376 3.57134E-03-1.60578E-04-1.63036E-14
 -1      3377 3.50345E-03-1.46896E-04-1.58750E-14
 -1      3378 4.27421E-03 1.71536E-04-1.91993E-14
 -1      3379 4.33582E-03 2.37007E-04-1.90812E-14
 -1      3380 4.13535E-03 1.38578E-04-1.83554E-14
 -1      3381 8.33117E-03-3.01361E-04-4.56605E-14
 -1      3382 3.85541E-03 4.07932E-06-1.76826E-14
 -1      3383 3.93332E-03 4.74180E-05-1.77305E-14
 -1      3384 7.91679E-03-5.42288E-04-4.44248E-14
 -1      3385 6.30493E-03 6.67319E-04-3.33011E-14
 -1      3386 1.39436E-02-6.85648E-04-1.53951E-13
 -1      3387 1.38975E-02-6.20375E-04-1.53713E-13
 -1      3388 1.37828E-02-5.98028E-04-1.51584E-13
 -1      3389 1.38289E-02-6.90536E-04-1.51527E-13
 -1      3390 1.31655E-03-2.54520E-04-1.97776E-15
 -1      3391 1.37450E-03-2.30881E-04-2.21382E-15
 -1      3392 1.18865E-03-2.40369E-04-1.64769E-15
 -1      3393 1.02129E-03 1.53334E-04-1.38360E-15
 -1      3394 1.01357E-03 1.26922E-04-1.40305E-15
 -1      3395 1.14645E-03 1.79287E-04-1.66653E-15
 -1      3396 1.01351E-03-2.02656E-04-1.27321E-15
 -1      3397 5.54385E-03 7.90280E-04-2.64581E-14
 -1      3398 2.17769E-03 2.98419E-04-5.02926E-15
 -1      3399 1.00701E-03 1.01802E-04-1.41827E-15
 -1      3400 1.00172E-03 7.78749E-05-1.43014E-15
 -1      3401 1.11644E-03 7.11176E-05-1.73727E-15
 -1      3402 1.12872E-03 1.22719E-04-1.71010E-15
 -1      3403 3.76631E-03-1.60597E-05-1.72410E-14
 -1      3404 1.00003E-03-7.77262E-05-1.42701E-15
 -1      3405 1.00502E-03-1.01081E-04-1.41482E-15
 -1      3406 1.12603E-03-1.21821E-04-1.70567E-15
 -1      3407 5.17210E-03 6.32588E-04-2.37143E-14
 -1      3408 5.23013E-03 6.66219E-04-2.40816E-14
 -1      3409 5.29007E-03 7.11002E-04-2.44384E-14
 -1      3410 5.04081E-03 6.05200E-04-2.26794E-14
 -1      3411 1.41766E-02-1.32490E-03-1.51275E-13
 -1      3412 1.41977E-02-1.29876E-03-1.52047E-13
 -1      3413 1.40647E-02-1.26134E-03-1.49722E-13
 -1      3414 1.40507E-02-1.30522E-03-1.48877E-13
 -1      3415 8.27231E-03-4.79108E-04-4.82943E-14
 -1      3416 8.40805E-03-4.85091E-04-5.02615E-14
 -1      3417 6.04656E-03 7.73667E-04-3.10122E-14
 -1      3418 2.11600E-03-2.32252E-04-5.03552E-15
 -1      3419 2.25402E-03-2.33781E-04-5.67396E-15
 -1      3420 2.39121E-03-2.34885E-04-6.35024E-15
 -1      3421 2.52768E-03-2.35702E-04-7.06401E-15
 -1      3422 2.30214E-03-2.04583E-04-6.05371E-15
 -1      3423 2.66321E-03-2.36667E-04-7.81375E-15
 -1      3424 2.79806E-03-2.37934E-04-8.59995E-15
 -1      3425 2.57046E-03-2.06358E-04-7.48410E-15
 -1      3426 2.93203E-03-2.39927E-04-9.42234E-15
 -1      3427 3.06563E-03-2.42869E-04-1.02819E-14
 -1      3428 2.83393E-03-2.08639E-04-9.06022E-15
 -1      3429 3.19866E-03-2.47135E-04-1.11768E-14
 -1      3430 3.33216E-03-2.53169E-04-1.21064E-14
 -1      3431 3.09241E-03-2.13239E-04-1.07815E-14
 -1      3432 3.46585E-03-2.61323E-04-1.30704E-14
 -1      3433 3.60175E-03-2.72660E-04-1.40690E-14
 -1      3434 3.34689E-03-2.21880E-04-1.26429E-14
 -1      3435 1.18951E-03-1.82400E-04-1.77630E-15
 -1      3436 1.07409E-03-1.85101E-04-1.45943E-15
 -1      3437 3.71697E-03-2.63292E-04-1.53132E-14
 -1      3438 8.54125E-03-4.94925E-04-5.22574E-14
 -1      3439 8.67390E-03-5.07089E-04-5.42823E-14
 -1      3440 8.51042E-03-4.54635E-04-5.13407E-14
 -1      3441 8.80585E-03-5.21477E-04-5.63353E-14
 -1      3442 8.93821E-03-5.37588E-04-5.84169E-14
 -1      3443 8.76218E-03-4.82780E-04-5.53936E-14
 -1      3444 9.07080E-03-5.55156E-04-6.05263E-14
 -1      3445 9.20416E-03-5.73986E-04-6.26628E-14
 -1      3446 9.01720E-03-5.16419E-04-5.95580E-14
 -1      3447 9.33812E-03-5.93780E-04-6.48292E-14
 -1      3448 9.47296E-03-6.14445E-04-6.70220E-14
 -1      3449 9.27681E-03-5.54199E-04-6.38342E-14
 -1      3450 9.60850E-03-6.35701E-04-6.92424E-14
 -1      3451 9.74487E-03-6.57499E-04-7.14909E-14
 -1      3452 9.54110E-03-5.94968E-04-6.82227E-14
 -1      3453 9.88191E-03-6.79602E-04-7.37651E-14
 -1      3454 1.00197E-02-7.01981E-04-7.60648E-14
 -1      3455 9.80970E-03-6.37689E-04-7.27204E-14
 -1      3456 1.01580E-02-7.24454E-04-7.83894E-14
 -1      3457 1.02970E-02-7.47005E-04-8.07384E-14
 -1      3458 1.00820E-02-6.81477E-04-7.73227E-14
 -1      3459 1.04364E-02-7.69501E-04-8.31116E-14
 -1      3460 1.05764E-02-7.91940E-04-8.55063E-14
 -1      3461 1.03574E-02-7.25632E-04-8.20227E-14
 -1      3462 1.07167E-02-8.14229E-04-8.79219E-14
 -1      3463 1.08574E-02-8.36375E-04-9.03583E-14
 -1      3464 1.06354E-02-7.69645E-04-8.68154E-14
 -1      3465 1.09984E-02-8.58320E-04-9.28145E-14
 -1      3466 1.11397E-02-8.80074E-04-9.52882E-14
 -1      3467 1.09153E-02-8.13184E-04-9.16900E-14
 -1      3468 1.12812E-02-9.01608E-04-9.77824E-14
 -1      3469 1.14230E-02-9.22933E-04-1.00296E-13
 -1      3470 1.11967E-02-8.56058E-04-9.66427E-14
 -1      3471 1.15649E-02-9.44037E-04-1.02826E-13
 -1      3472 1.17070E-02-9.64936E-04-1.05369E-13
 -1      3473 1.14794E-02-8.98184E-04-1.01670E-13
 -1      3474 1.18492E-02-9.85627E-04-1.07928E-13
 -1      3475 1.19915E-02-1.00613E-03-1.10503E-13
 -1      3476 1.17630E-02-9.39556E-04-1.06763E-13
 -1      3477 1.21340E-02-1.02644E-03-1.13091E-13
 -1      3478 1.22765E-02-1.04658E-03-1.15696E-13
 -1      3479 1.20472E-02-9.80217E-04-1.11914E-13
 -1      3480 1.24191E-02-1.06656E-03-1.18315E-13
 -1      3481 1.25617E-02-1.08640E-03-1.20947E-13
 -1      3482 1.23319E-02-1.02024E-03-1.17125E-13
 -1      3483 1.27044E-02-1.10610E-03-1.23591E-13
 -1      3484 1.28471E-02-1.12567E-03-1.26247E-13
 -1      3485 1.26170E-02-1.05970E-03-1.22392E-13
 -1      3486 1.29899E-02-1.14514E-03-1.28919E-13
 -1      3487 1.31327E-02-1.16450E-03-1.31601E-13
 -1      3488 1.29023E-02-1.09870E-03-1.27709E-13
 -1      3489 1.32755E-02-1.18378E-03-1.34294E-13
 -1      3490 1.34183E-02-1.20297E-03-1.37000E-13
 -1      3491 1.31878E-02-1.13731E-03-1.33076E-13
 -1      3492 1.35612E-02-1.22210E-03-1.39718E-13
 -1      3493 1.37040E-02-1.24117E-03-1.42447E-13
 -1      3494 1.34734E-02-1.17562E-03-1.38486E-13
 -1      3495 3.54455E-03-7.73267E-05-1.63688E-14
 -1      3496 3.62579E-03-5.51687E-05-1.66674E-14
 -1      3497 4.38669E-03 4.29203E-04-1.81217E-14
 -1      3498 4.21089E-03 3.89387E-04-1.69717E-14
 -1      3499 4.03935E-03 3.57895E-04-1.58587E-14
 -1      3500 3.87328E-03 3.32702E-04-1.47826E-14
 -1      3501 4.08113E-03 3.13227E-04-1.64555E-14
 -1      3502 5.44808E-03 7.83757E-04-2.56411E-14
 -1      3503 6.90695E-03 4.06017E-04-3.90873E-14
 -1      3504 6.72292E-03 4.86832E-04-3.73219E-14
 -1      3505 6.54072E-03 5.77862E-04-3.56855E-14
 -1      3506 6.36174E-03 6.57470E-04-3.40021E-14
 -1      3507 7.56742E-03 1.80373E-04-4.60929E-14
 -1      3508 7.39647E-03 2.32638E-04-4.41870E-14
 -1      3509 7.89596E-03 9.59365E-05-5.00093E-14
 -1      3510 7.73413E-03 1.35308E-04-4.80350E-14
 -1      3511 7.70737E-03 1.01010E-04-4.70792E-14
 -1      3512 8.20814E-03 3.18725E-05-5.40564E-14
 -1      3513 8.05387E-03 6.20060E-05-5.20171E-14
 -1      3514 8.02748E-03 2.90266E-05-5.10269E-14
 -1      3515 8.50844E-03-1.85090E-05-5.82274E-14
 -1      3516 8.35952E-03 5.39249E-06-5.61263E-14
 -1      3517 8.33105E-03-2.55214E-05-5.51031E-14
 -1      3518 8.80093E-03-5.98224E-05-6.25195E-14
 -1      3519 8.65544E-03-4.00200E-05-6.03590E-14
 -1      3520 8.62372E-03-6.92014E-05-5.93014E-14
 -1      3521 9.08873E-03-9.53210E-05-6.69229E-14
 -1      3522 8.94525E-03-7.81152E-05-6.47077E-14
 -1      3523 8.90988E-03-1.06130E-04-6.36159E-14
 -1      3524 9.37396E-03-1.27293E-04-7.14358E-14
 -1      3525 9.23155E-03-1.11628E-04-6.91660E-14
 -1      3526 9.19259E-03-1.39004E-04-6.80424E-14
 -1      3527 9.65799E-03-1.57351E-04-7.60554E-14
 -1      3528 9.51605E-03-1.42482E-04-7.37319E-14
 -1      3529 9.47380E-03-1.69595E-04-7.25765E-14
 -1      3530 9.94162E-03-1.86621E-04-8.07745E-14
 -1      3531 9.79980E-03-1.72033E-04-7.84031E-14
 -1      3532 9.75469E-03-1.99114E-04-7.72160E-14
 -1      3533 1.02253E-02-2.15867E-04-8.55891E-14
 -1      3534 1.00834E-02-2.01215E-04-8.31709E-14
 -1      3535 1.00359E-02-2.28383E-04-8.19576E-14
 -1      3536 1.05092E-02-2.45576E-04-9.04887E-14
 -1      3537 1.03672E-02-2.30645E-04-8.80285E-14
 -1      3538 1.03177E-02-2.57949E-04-8.67863E-14
 -1      3539 1.07935E-02-2.76031E-04-9.54666E-14
 -1      3540 1.06513E-02-2.60702E-04-9.29688E-14
 -1      3541 1.06002E-02-2.88146E-04-9.17021E-14
 -1      3542 1.10780E-02-3.07367E-04-1.00521E-13
 -1      3543 1.09357E-02-2.91587E-04-9.79844E-14
 -1      3544 1.08834E-02-3.19156E-04-9.66951E-14
 -1      3545 1.13629E-02-3.39614E-04-1.05643E-13
 -1      3546 1.12204E-02-3.23379E-04-1.03073E-13
 -1      3547 1.11672E-02-3.51048E-04-1.01761E-13
 -1      3548 1.16480E-02-3.72738E-04-1.10832E-13
 -1      3549 1.15054E-02-3.56071E-04-1.08230E-13
 -1      3550 1.14515E-02-3.83814E-04-1.06897E-13
 -1      3551 1.19333E-02-4.06661E-04-1.16086E-13
 -1      3552 1.17906E-02-3.89605E-04-1.13450E-13
 -1      3553 1.17362E-02-4.17398E-04-1.12099E-13
 -1      3554 1.22188E-02-4.41288E-04-1.21395E-13
 -1      3555 1.20760E-02-4.23893E-04-1.18734E-13
 -1      3556 1.20212E-02-4.51716E-04-1.17360E-13
 -1      3557 1.25043E-02-4.76513E-04-1.26757E-13
 -1      3558 1.23616E-02-4.58832E-04-1.24070E-13
 -1      3559 1.23065E-02-4.86672E-04-1.22679E-13
 -1      3560 1.27900E-02-5.12234E-04-1.32161E-13
 -1      3561 1.26472E-02-4.94317E-04-1.29455E-13
 -1      3562 1.25919E-02-5.22164E-04-1.28046E-13
 -1      3563 1.30757E-02-5.48354E-04-1.37594E-13
 -1      3564 1.29328E-02-5.30249E-04-1.34875E-13
 -1      3565 1.28775E-02-5.58097E-04-1.33454E-13
 -1      3566 1.33614E-02-5.84785E-04-1.43054E-13
 -1      3567 1.32185E-02-5.66535E-04-1.40320E-13
 -1      3568 1.31631E-02-5.94381E-04-1.38889E-13
 -1      3569 4.65877E-03 3.83661E-04-2.06697E-14
 -1      3570 4.73285E-03 4.64084E-04-2.07745E-14
 -1      3571 1.38651E-02-1.03469E-03-1.48337E-13
 -1      3572 1.38467E-02-9.92708E-04-1.48452E-13
 -1      3573 8.21131E-03-3.81568E-04-4.55879E-14
 -1      3574 8.11114E-03-4.19182E-04-4.49943E-14
 -1      3575 4.52062E-03 3.33445E-04-1.98496E-14
 -1      3576 8.05763E-03-4.78056E-04-4.53490E-14
 -1      3577 3.87364E-03 7.43964E-05-1.68991E-14
 -1      3578 4.00091E-03 1.01737E-04-1.76191E-14
 -1      3579 4.05945E-03 1.59891E-04-1.75029E-14
 -1      3580 7.24494E-03 2.78561E-04-4.25258E-14
 -1      3581 7.06552E-03 3.45599E-04-4.06871E-14
 -1      3582 7.07950E-03 2.90397E-04-4.02016E-14
 -1      3583 7.39063E-03 1.87107E-04-4.34764E-14
 -1      3584 3.09927E-03 2.75646E-04-9.95738E-15
 -1      3585 2.95205E-03 2.72067E-04-9.10293E-15
 -1      3586 7.28677E-03 1.71176E-04-4.15984E-14
 -1      3587 8.34816E-03-3.37194E-04-4.66243E-14
 -1      3588 8.29596E-03-3.54420E-04-4.62220E-14
 -1      3589 1.94491E-03 2.59639E-04-4.18319E-15
 -1      3590 1.80220E-03 2.55355E-04-3.63407E-15
 -1      3591 9.93989E-04-3.31582E-05-1.44276E-15
 -1      3592 9.96329E-04-5.51747E-05-1.43627E-15
 -1      3593 1.11451E-03-7.17026E-05-1.73409E-15
 -1      3594 1.83810E-03-2.26504E-04-3.87143E-15
 -1      3595 1.97737E-03-2.29880E-04-4.43470E-15
 -1      3596 2.02965E-03-2.01433E-04-4.77172E-15
 -1      3597 3.66357E-03-2.17924E-05-1.64433E-14
 -1      3598 7.96634E-03-1.45691E-04-4.57689E-14
 -1      3599 8.09046E-03-1.91807E-04-4.64040E-14
 -1      3600 4.76775E-03-6.81053E-04-2.03689E-14
 -1      3601 8.38649E-03-3.03262E-04-4.72933E-14
 -1      3602 8.38737E-03-3.18892E-04-4.70813E-14
 -1      3603 1.55842E-03-2.15456E-04-2.85971E-15
 -1      3604 1.69844E-03-2.21752E-04-3.34647E-15
 -1      3605 1.75400E-03-1.94991E-04-3.64085E-15
 -1      3606 2.23065E-03 2.64724E-04-5.39822E-15
 -1      3607 2.08768E-03 2.62683E-04-4.77141E-15
 -1      3608 1.99959E-03 2.28219E-04-4.51504E-15
 -1      3609 3.58007E-03-2.16811E-04-1.48463E-14
 -1      3610 4.37529E-03 2.88021E-04-1.89855E-14
 -1      3611 1.32599E-03 2.44548E-04-2.04125E-15
 -1      3612 1.28035E-03 2.18471E-04-1.96613E-15
 -1      3613 1.44988E-03 2.51113E-04-2.40812E-15
 -1      3614 3.55550E-03-2.07680E-05-1.55285E-14
 -1      3615 3.68885E-03 1.83059E-05-1.60777E-14
 -1      3616 3.44115E-03-1.31815E-04-1.54362E-14
 -1      3617 3.39043E-03-1.18591E-04-1.50003E-14
 -1      3618 3.42863E-03-1.46909E-04-1.48407E-14
 -1      3619 4.23371E-03 2.74789E-04-1.79159E-14
 -1      3620 4.40107E-03 3.60655E-04-1.86528E-14
 -1      3621 1.25796E-03-1.58771E-04-2.02067E-15
 -1      3622 1.31482E-03-1.93671E-04-2.11943E-15
 -1      3623 1.44047E-03-2.03314E-04-2.49319E-15
 -1      3624 1.24878E-03-1.30622E-04-2.04387E-15
 -1      3625 1.37194E-03-1.38413E-04-2.41255E-15
 -1      3626 1.24135E-03-1.03592E-04-2.06236E-15
 -1      3627 1.23684E-03 8.85598E-05-2.06272E-15
 -1      3628 1.23143E-03 6.21778E-05-2.07388E-15
 -1      3629 3.39867E-03-9.20554E-05-1.51211E-14
 -1      3630 3.46487E-03-8.63038E-05-1.57406E-14
 -1      3631 3.44912E-03-6.59618E-05-1.52651E-14
 -1      3632 8.21236E-03-1.97873E-04-4.86407E-14
 -1      3633 8.20920E-03-2.20764E-04-4.76233E-14
 -1      3634 8.31733E-03-2.43719E-04-4.88533E-14
 -1      3635 1.38144E-02-1.26336E-03-1.44462E-13
 -1      3636 1.39403E-02-1.28307E-03-1.46843E-13
 -1      3637 1.39473E-02-1.26115E-03-1.47267E-13
 -1      3638 1.37266E-02-1.21685E-03-1.43220E-13
 -1      3639 1.68807E-03 2.56212E-04-3.20708E-15
 -1      3640 1.56427E-03 2.53360E-04-2.78030E-15
 -1      3641 1.51739E-03 2.27267E-04-2.69047E-15
 -1      3642 1.74471E-03 2.27211E-04-3.49980E-15
 -1      3643 3.75108E-03 2.69689E-04-1.43081E-14
 -1      3644 3.71147E-03 3.13704E-04-1.37437E-14
 -1      3645 3.55388E-03 2.99102E-04-1.27415E-14
 -1      3646 5.07447E-03 6.46888E-04-2.27837E-14
 -1      3647 4.89125E-03 5.83271E-04-2.14844E-14
 -1      3648 3.24831E-03 2.80853E-04-1.08488E-14
 -1      3649 3.14233E-03 2.36330E-04-1.04505E-14
 -1      3650 3.39963E-03 2.88602E-04-1.17765E-14
 -1      3651 7.43901E-03 1.25076E-04-4.32478E-14
 -1      3652 7.60438E-03 7.00784E-05-4.48912E-14
 -1      3653 7.89499E-03-9.56473E-05-4.60076E-14
 -1      3654 2.85241E-03 2.32586E-04-8.74116E-15
 -1      3655 2.80622E-03 2.69811E-04-8.28618E-15
 -1      3656 2.66141E-03 2.68301E-04-7.50735E-15
 -1      3657 4.53745E-03 4.49645E-04-1.92142E-14
 -1      3658 4.70762E-03 5.23266E-04-2.02255E-14
 -1      3659 1.34760E-02-6.07031E-04-1.45168E-13
 -1      3660 1.34206E-02-6.34869E-04-1.43727E-13
 -1      3661 1.35907E-02-6.29316E-04-1.47285E-13
 -1      3662 8.18457E-03-4.65807E-04-4.68830E-14
 -1      3663 1.37260E-02-6.22865E-04-1.50145E-13
 -1      3664 1.49861E-03-1.79266E-04-2.74689E-15
 -1      3665 8.41799E-03-2.82296E-04-4.92867E-14
 -1      3666 8.40592E-03-2.94115E-04-4.82879E-14
 -1      3667 8.48928E-03-3.12423E-04-4.97439E-14
 -1      3668 2.51737E-03 2.67208E-04-6.76644E-15
 -1      3669 2.37382E-03 2.66134E-04-6.06306E-15
 -1      3670 2.56667E-03 2.31803E-04-7.18134E-15
 -1      3671 1.38284E-02-9.50993E-04-1.48564E-13
 -1      3672 1.38102E-02-9.09277E-04-1.48674E-13
 -1      3673 1.37139E-02-9.55800E-04-1.46137E-13
 -1      3674 1.39543E-02-1.23922E-03-1.47687E-13
 -1      3675 8.31323E-03-3.82074E-04-4.71667E-14
 -1      3676 1.38184E-02-1.19717E-03-1.45378E-13
 -1      3677 1.39358E-02-1.19736E-03-1.47825E-13
 -1      3678 1.39174E-02-1.15552E-03-1.47959E-13
 -1      3679 1.37556E-02-7.83818E-04-1.48977E-13
 -1      3680 1.37374E-02-7.41797E-04-1.49070E-13
 -1      3681 1.34657E-03 5.13290E-05-2.43885E-15
 -1      3682 1.22759E-03 3.64865E-05-2.08087E-15
 -1      3683 1.22544E-03 1.12801E-05-2.08401E-15
 -1      3684 8.30409E-03-4.27582E-04-4.79341E-14
 -1      3685 1.39004E-02-1.11601E-03-1.48089E-13
 -1      3686 1.38820E-02-1.07419E-03-1.48215E-13
 -1      3687 1.37491E-02-1.03693E-03-1.45901E-13
 -1      3688 1.37830E-02-1.11586E-03-1.45646E-13
 -1      3689 1.10911E-03-2.42119E-05-1.74852E-15
 -1      3690 3.74026E-03 6.20111E-05-1.59686E-14
 -1      3691 3.78931E-03 1.10111E-04-1.58543E-14
 -1      3692 3.61361E-03 5.58819E-05-1.50632E-14
 -1      3693 8.43273E-03-3.38032E-04-4.82748E-14
 -1      3694 1.26846E-03 1.86575E-04-1.99776E-15
 -1      3695 2.28282E-03 2.31145E-04-5.77222E-15
 -1      3696 1.35790E-02-7.01985E-04-1.46247E-13
 -1      3697 1.36936E-02-6.96926E-04-1.48666E-13
 -1      3698 3.45472E-03-3.79004E-05-1.49201E-14
 -1      3699 3.46255E-03-5.12372E-06-1.45724E-14
 -1      3700 3.36628E-03-4.97538E-05-1.43210E-14
 -1      3701 4.06367E-03 2.02781E-04-1.71442E-14
 -1      3702 4.09343E-03 2.74285E-04-1.68224E-14
 -1      3703 3.92542E-03 2.49734E-04-1.57219E-14
 -1      3704 3.93448E-03 1.68805E-04-1.64321E-14
 -1      3705 5.19646E-03 6.97227E-04-2.36572E-14
 -1      3706 5.31388E-03 7.42687E-04-2.45502E-14
 -1      3707 2.48250E-03-1.77535E-04-7.15540E-15
 -1      3708 2.61316E-03-1.78459E-04-7.90879E-15
 -1      3709 2.74205E-03-1.79677E-04-8.69911E-15
 -1      3710 2.86929E-03-1.81108E-04-9.52523E-15
 -1      3711 2.65620E-03-1.52072E-04-8.33823E-15
 -1      3712 2.99442E-03-1.83194E-04-1.03873E-14
 -1      3713 3.11784E-03-1.85749E-04-1.12853E-14
 -1      3714 2.90466E-03-1.55449E-04-9.99418E-15
 -1      3715 3.23882E-03-1.89333E-04-1.22168E-14
 -1      3716 3.35816E-03-1.93200E-04-1.31827E-14
 -1      3717 3.14244E-03-1.60571E-04-1.17912E-14
 -1      3718 1.24385E-03 1.15885E-04-2.04784E-15
 -1      3719 1.35884E-03 1.06862E-04-2.41471E-15
 -1      3720 1.25233E-03 1.44382E-04-2.02835E-15
 -1      3721 3.46117E-03-1.80831E-04-1.43813E-14
 -1      3722 8.48398E-03-4.17229E-04-5.04235E-14
 -1      3723 8.60170E-03-4.31407E-04-5.24225E-14
 -1      3724 1.37081E-02-1.17504E-03-1.43361E-13
 -1      3725 8.72062E-03-4.46475E-04-5.44512E-14
 -1      3726 8.84194E-03-4.62740E-04-5.65065E-14
 -1      3727 8.68056E-03-4.12585E-04-5.35071E-14
 -1      3728 8.96483E-03-4.79761E-04-5.85895E-14
 -1      3729 9.08980E-03-4.97797E-04-6.07006E-14
 -1      3730 8.91310E-03-4.45238E-04-5.76214E-14
 -1      3731 9.21634E-03-5.16467E-04-6.28406E-14
 -1      3732 9.34466E-03-5.35935E-04-6.50087E-14
 -1      3733 9.15623E-03-4.80607E-04-6.18472E-14
 -1      3734 9.47442E-03-5.55877E-04-6.72038E-14
 -1      3735 9.60565E-03-5.76394E-04-6.94265E-14
 -1      3736 9.40802E-03-5.18439E-04-6.61846E-14
 -1      3737 9.73814E-03-5.97217E-04-7.16771E-14
 -1      3738 9.87185E-03-6.18405E-04-7.39530E-14
 -1      3739 9.66688E-03-5.58194E-04-7.06340E-14
 -1      3740 1.00066E-02-6.39741E-04-7.62548E-14
 -1      3741 1.01424E-02-6.61265E-04-7.85810E-14
 -1      3742 9.93153E-03-5.99260E-04-7.51872E-14
 -1      3743 1.02790E-02-6.82810E-04-8.09325E-14
 -1      3744 1.04164E-02-7.04406E-04-8.33083E-14
 -1      3745 1.02009E-02-6.41058E-04-7.98425E-14
 -1      3746 1.05545E-02-7.25930E-04-8.57060E-14
 -1      3747 1.06933E-02-7.47409E-04-8.81261E-14
 -1      3748 1.04740E-02-6.83111E-04-8.45956E-14
 -1      3749 1.08326E-02-7.68756E-04-9.05657E-14
 -1      3750 1.09724E-02-7.89997E-04-9.30232E-14
 -1      3751 1.07502E-02-7.25067E-04-8.94370E-14
 -1      3752 1.11126E-02-8.11075E-04-9.55009E-14
 -1      3753 1.12533E-02-8.32013E-04-9.79976E-14
 -1      3754 1.10288E-02-7.66690E-04-9.43587E-14
 -1      3755 1.13942E-02-8.52777E-04-1.00513E-13
 -1      3756 1.15355E-02-8.73390E-04-1.03046E-13
 -1      3757 1.13093E-02-8.07848E-04-9.93542E-14
 -1      3758 1.16770E-02-8.93832E-04-1.05592E-13
 -1      3759 1.18187E-02-9.14125E-04-1.08155E-13
 -1      3760 1.15912E-02-8.48483E-04-1.04421E-13
 -1      3761 1.19606E-02-9.34259E-04-1.10734E-13
 -1      3762 1.21027E-02-9.54254E-04-1.13326E-13
 -1      3763 1.18742E-02-8.88591E-04-1.09550E-13
 -1      3764 1.22449E-02-9.74109E-04-1.15934E-13
 -1      3765 1.23873E-02-9.93841E-04-1.18557E-13
 -1      3766 1.21581E-02-9.28202E-04-1.14740E-13
 -1      3767 1.25297E-02-1.01345E-03-1.21190E-13
 -1      3768 1.26722E-02-1.03296E-03-1.23836E-13
 -1      3769 1.24425E-02-9.67369E-04-1.19985E-13
 -1      3770 1.28148E-02-1.05236E-03-1.26497E-13
 -1      3771 1.29575E-02-1.07168E-03-1.29170E-13
 -1      3772 1.27274E-02-1.00615E-03-1.25283E-13
 -1      3773 1.31002E-02-1.09092E-03-1.31853E-13
 -1      3774 1.32429E-02-1.11008E-03-1.34547E-13
 -1      3775 1.30126E-02-1.04461E-03-1.30629E-13
 -1      3776 1.33857E-02-1.12918E-03-1.37252E-13
 -1      3777 1.35285E-02-1.14823E-03-1.39968E-13
 -1      3778 1.32981E-02-1.08281E-03-1.36019E-13
 -1      3779 2.05403E-03 1.96921E-04-4.85278E-15
 -1      3780 1.91374E-03 1.95160E-04-4.26068E-15
 -1      3781 1.94642E-03-1.71600E-04-4.50989E-15
 -1      3782 2.08218E-03-1.73751E-04-5.11527E-15
 -1      3783 7.84984E-03-4.16966E-05-4.66444E-14
 -1      3784 8.04457E-03-1.18667E-04-4.80609E-14
 -1      3785 7.93481E-03-3.91800E-06-4.88783E-14
 -1      3786 7.77629E-03 3.03564E-05-4.69232E-14
 -1      3787 8.73662E-03-1.16674E-04-6.03731E-14
 -1      3788 8.59516E-03-9.84024E-05-5.82457E-14
 -1      3789 9.01641E-03-1.50065E-04-6.47107E-14
 -1      3790 8.87686E-03-1.33745E-04-6.25280E-14
 -1      3791 8.84622E-03-1.61037E-04-6.14431E-14
 -1      3792 9.29426E-03-1.81003E-04-6.91603E-14
 -1      3793 9.15542E-03-1.65741E-04-6.69234E-14
 -1      3794 9.12003E-03-1.91862E-04-6.58051E-14
 -1      3795 9.57180E-03-2.10735E-04-7.37159E-14
 -1      3796 9.43298E-03-1.95961E-04-7.14236E-14
 -1      3797 9.39350E-03-2.21573E-04-7.02762E-14
 -1      3798 9.84990E-03-2.40094E-04-7.83778E-14
 -1      3799 9.71073E-03-2.25427E-04-7.60347E-14
 -1      3800 9.66782E-03-2.50951E-04-7.48551E-14
 -1      3801 1.01290E-02-2.69635E-04-8.31356E-14
 -1      3802 9.98930E-03-2.54823E-04-8.07447E-14
 -1      3803 9.94356E-03-2.80503E-04-7.95365E-14
 -1      3804 1.04092E-02-2.99710E-04-8.79808E-14
 -1      3805 1.02689E-02-2.84596E-04-8.55476E-14
 -1      3806 1.02209E-02-3.10551E-04-8.43113E-14
 -1      3807 1.06905E-02-3.30526E-04-9.29128E-14
 -1      3808 1.05497E-02-3.15023E-04-9.04380E-14
 -1      3809 1.04998E-02-3.41293E-04-8.91749E-14
 -1      3810 1.09728E-02-3.62178E-04-9.79217E-14
 -1      3811 1.08316E-02-3.46249E-04-9.54068E-14
 -1      3812 1.07802E-02-3.72829E-04-9.41214E-14
 -1      3813 1.12560E-02-3.94683E-04-1.03001E-13
 -1      3814 1.11143E-02-3.78328E-04-1.00452E-13
 -1      3815 1.10618E-02-4.05185E-04-9.91442E-14
 -1      3816 1.15398E-02-4.28003E-04-1.08150E-13
 -1      3817 1.13978E-02-4.11247E-04-1.05567E-13
 -1      3818 1.13444E-02-4.38339E-04-1.04238E-13
 -1      3819 1.18242E-02-4.62069E-04-1.13362E-13
 -1      3820 1.16819E-02-4.44950E-04-1.10748E-13
 -1      3821 1.16279E-02-4.72232E-04-1.09399E-13
 -1      3822 1.21090E-02-4.96794E-04-1.18633E-13
 -1      3823 1.19665E-02-4.79356E-04-1.15990E-13
 -1      3824 1.19121E-02-5.06788E-04-1.14621E-13
 -1      3825 1.23941E-02-5.32083E-04-1.23958E-13
 -1      3826 1.22515E-02-5.14374E-04-1.21289E-13
 -1      3827 1.21967E-02-5.41920E-04-1.19901E-13
 -1      3828 1.26794E-02-5.67843E-04-1.29330E-13
 -1      3829 1.25367E-02-5.49910E-04-1.26639E-13
 -1      3830 1.24817E-02-5.77539E-04-1.25234E-13
 -1      3831 1.29649E-02-6.03986E-04-1.34743E-13
 -1      3832 1.28222E-02-5.85871E-04-1.32033E-13
 -1      3833 1.27670E-02-6.13561E-04-1.30612E-13
 -1      3834 1.32505E-02-6.40432E-04-1.40178E-13
 -1      3835 1.31077E-02-6.22175E-04-1.37456E-13
 -1      3836 1.30524E-02-6.49909E-04-1.36026E-13
 -1      3837 1.34721E-02-6.82311E-04-1.44265E-13
 -1      3838 1.33574E-02-6.60035E-04-1.42156E-13
 -1      3839 1.33021E-02-6.87790E-04-1.40714E-13
 -1      3840 1.35159E-02-7.27111E-04-1.44669E-13
 -1      3841 8.38482E-03-3.98598E-04-4.85860E-14
 -1      3842 1.37919E-02-8.67422E-04-1.48780E-13
 -1      3843 1.37738E-02-8.25693E-04-1.48881E-13
 -1      3844 1.36410E-02-7.88662E-04-1.46557E-13
 -1      3845 1.36774E-02-8.72314E-04-1.46356E-13
 -1      3846 1.23161E-03-5.20857E-05-2.08679E-15
 -1      3847 1.23559E-03-7.75205E-05-2.07657E-15
 -1      3848 1.35704E-03-8.28130E-05-2.44942E-15
 -1      3849 1.36705E-02-6.50718E-04-1.48695E-13
 -1      3850 2.33433E-03 1.97784E-04-6.15092E-15
 -1      3851 2.19418E-03 1.97739E-04-5.48266E-15
 -1      3852 2.10817E-03 1.65776E-04-5.19548E-15
 -1      3853 8.50761E-03-3.40855E-04-4.98175E-14
 -1      3854 8.47257E-03-3.60226E-04-4.93473E-14
 -1      3855 1.22689E-03-7.86492E-06-2.08945E-15
 -1      3856 1.22778E-03-3.27774E-05-2.08595E-15
 -1      3857 1.34842E-03-3.58514E-05-2.46045E-15
 -1      3858 1.34375E-03 4.40229E-06-2.45209E-15
 -1      3859 1.38407E-03 1.79158E-04-2.36626E-15
 -1      3860 8.45218E-03-7.88396E-05-5.61488E-14
 -1      3861 8.30684E-03-5.70949E-05-5.40826E-14
 -1      3862 8.56992E-03-1.27790E-04-5.71954E-14
 -1      3863 8.19805E-03-4.54523E-05-5.24635E-14
 -1      3864 8.04753E-03-1.90294E-05-5.04521E-14
 -1      3865 8.11505E-03-8.06113E-05-5.02810E-14
 -1      3866 8.32544E-03-1.00559E-04-5.34845E-14
 -1      3867 1.48702E-03-1.48829E-04-2.77592E-15
 -1      3868 1.60246E-03-1.58661E-04-3.16453E-15
 -1      3869 1.47745E-03-1.19498E-04-2.79953E-15
 -1      3870 1.70621E-03-1.63932E-04-3.54266E-15
 -1      3871 1.84325E-03-1.67604E-04-4.08232E-15
 -1      3872 1.89933E-03-1.41439E-04-4.39498E-15
 -1      3873 1.69443E-03-1.33230E-04-3.57119E-15
 -1      3874 2.21686E-03-1.75363E-04-5.75802E-15
 -1      3875 2.35040E-03-1.76499E-04-6.43843E-15
 -1      3876 2.13521E-03-1.46844E-04-5.46439E-15
 -1      3877 3.79151E-03 1.50236E-04-1.55103E-14
 -1      3878 3.30547E-03-1.16198E-04-1.39712E-14
 -1      3879 3.34499E-03-1.03716E-04-1.45438E-14
 -1      3880 3.30623E-03-8.79180E-05-1.40910E-14
 -1      3881 2.39911E-03-1.49580E-04-6.82795E-15
 -1      3882 1.48236E-03 1.25715E-04-2.79327E-15
 -1      3883 1.47363E-03 9.58758E-05-2.81117E-15
 -1      3884 1.36204E-02-1.12862E-03-1.42113E-13
 -1      3885 3.05706E-03-1.35003E-04-1.13660E-14
 -1      3886 3.16867E-03-1.38258E-04-1.23007E-14
 -1      3887 1.58811E-03 8.32643E-05-3.23626E-15
 -1      3888 1.46673E-03 6.69996E-05-2.82416E-15
 -1      3889 1.46181E-03 3.88682E-05-2.83272E-15
 -1      3890 3.78087E-03 1.91879E-04-1.50845E-14
 -1      3891 3.77218E-03 2.30223E-04-1.47368E-14
 -1      3892 3.61568E-03 2.18097E-04-1.37054E-14
 -1      3893 3.64735E-03 1.39095E-04-1.45361E-14
 -1      3894 3.23239E-03-1.22570E-04-1.31105E-14
 -1      3895 3.31190E-03-1.46351E-04-1.35697E-14
 -1      3896 8.44947E-03-2.52466E-04-5.13695E-14
 -1      3897 8.43369E-03-2.68702E-04-5.03249E-14
 -1      3898 8.53983E-03-2.90817E-04-5.18106E-14
 -1      3899 3.44020E-03 2.46804E-04-1.23069E-14
 -1      3900 3.37677E-03 1.03553E-05-1.37400E-14
 -1      3901 3.48172E-03 3.07792E-05-1.43215E-14
 -1      3902 3.18237E-03 1.96586E-04-1.09466E-14
 -1      3903 3.03871E-03 1.95393E-04-1.00548E-14
 -1      3904 1.35523E-02-8.10729E-04-1.44481E-13
 -1      3905 1.35340E-02-7.68929E-04-1.44578E-13
 -1      3906 1.34272E-02-7.49221E-04-1.42600E-13
 -1      3907 8.14160E-03-1.18871E-04-4.97939E-14
 -1      3908 8.17701E-03-1.64173E-04-4.91346E-14
 -1      3909 8.29652E-03-1.94812E-04-5.03845E-14
 -1      3910 8.24287E-03-1.27165E-04-5.13801E-14
 -1      3911 2.89662E-03 1.95341E-04-9.19996E-15
 -1      3912 2.75534E-03 1.95790E-04-8.38124E-15
 -1      3913 2.93870E-03 1.58041E-04-9.66124E-15
 -1      3914 2.61476E-03 1.96581E-04-7.60049E-15
 -1      3915 2.47444E-03 1.97320E-04-6.85705E-15
 -1      3916 2.66158E-03 1.61558E-04-8.02354E-15
 -1      3917 1.35994E-02-9.60431E-04-1.43716E-13
 -1      3918 1.35811E-02-9.18804E-04-1.43827E-13
 -1      3919 1.49683E-03 1.80321E-04-2.73298E-15
 -1      3920 3.51760E-03 6.89842E-05-1.42130E-14
 -1      3921 2.38515E-03 1.64681E-04-6.53431E-15
 -1      3922 8.58788E-03-3.22614E-04-5.18639E-14
 -1      3923 8.55235E-03-3.31951E-04-5.08382E-14
 -1      3924 8.61017E-03-3.52853E-04-5.19379E-14
 -1      3925 1.36332E-02-1.03926E-03-1.43472E-13
 -1      3926 1.36163E-02-9.99841E-04-1.43595E-13
 -1      3927 1.34835E-02-9.62793E-04-1.41295E-13
 -1      3928 8.47376E-03-3.77841E-04-4.96373E-14
 -1      3929 1.83033E-03 1.63433E-04-4.00889E-15
 -1      3930 1.77345E-03 1.92189E-04-3.70729E-15
 -1      3931 8.56398E-03-3.79316E-04-5.11993E-14
 -1      3932 1.66078E-03 1.93954E-04-3.27817E-15
 -1      3933 1.52893E-03 1.48964E-04-2.90967E-15
 -1      3934 1.64332E-03 1.36633E-04-3.34658E-15
 -1      3935 1.36034E-02-1.08919E-03-1.42248E-13
 -1      3936 2.94172E-03-1.31809E-04-1.04664E-14
 -1      3937 2.98149E-03-1.10357E-04-1.09421E-14
 -1      3938 2.82270E-03-1.29451E-04-9.60145E-15
 -1      3939 1.78156E-03 1.39260E-04-3.87301E-15
 -1      3940 1.73426E-03 1.15875E-04-3.73649E-15
 -1      3941 1.91967E-03 1.40727E-04-4.43763E-15
 -1      3942 3.38491E-03-1.63396E-04-1.39801E-14
 -1      3943 8.67110E-03-3.94167E-04-5.32115E-14
 -1      3944 8.78233E-03-4.10065E-04-5.52506E-14
 -1      3945 8.65951E-03-3.77143E-04-5.29127E-14
 -1      3946 8.89710E-03-4.26199E-04-5.73180E-14
 -1      3947 9.01503E-03-4.43220E-04-5.94116E-14
 -1      3948 8.87948E-03-4.08102E-04-5.70114E-14
 -1      3949 9.13572E-03-4.60672E-04-6.15354E-14
 -1      3950 9.25887E-03-4.78875E-04-6.36874E-14
 -1      3951 9.11401E-03-4.41431E-04-6.12230E-14
 -1      3952 9.38422E-03-4.97492E-04-6.58663E-14
 -1      3953 9.51152E-03-5.16694E-04-6.80737E-14
 -1      3954 9.35954E-03-4.77098E-04-6.55456E-14
 -1      3955 9.64058E-03-5.36223E-04-7.03075E-14
 -1      3956 9.77121E-03-5.56163E-04-7.25683E-14
 -1      3957 9.61364E-03-5.14710E-04-6.99797E-14
 -1      3958 9.90327E-03-5.76313E-04-7.48551E-14
 -1      3959 1.00366E-02-5.96718E-04-7.71655E-14
 -1      3960 9.87456E-03-5.53756E-04-7.45193E-14
 -1      3961 1.01711E-02-6.17222E-04-7.95038E-14
 -1      3962 1.03066E-02-6.37853E-04-8.18648E-14
 -1      3963 1.01409E-02-5.93720E-04-7.91634E-14
 -1      3964 1.04430E-02-6.58493E-04-8.42499E-14
 -1      3965 1.05802E-02-6.79163E-04-8.66586E-14
 -1      3966 1.04117E-02-6.34159E-04-8.39038E-14
 -1      3967 1.07182E-02-6.99778E-04-8.90861E-14
 -1      3968 1.08568E-02-7.20356E-04-9.15364E-14
 -1      3969 1.06860E-02-6.74729E-04-8.87342E-14
 -1      3970 1.09960E-02-7.40840E-04-9.40050E-14
 -1      3971 1.11357E-02-7.61246E-04-9.64899E-14
 -1      3972 1.09631E-02-7.15188E-04-9.36482E-14
 -1      3973 1.12759E-02-7.81536E-04-9.89956E-14
 -1      3974 1.14165E-02-8.01727E-04-1.01520E-13
 -1      3975 1.12425E-02-7.55385E-04-9.86347E-14
 -1      3976 1.15574E-02-8.21797E-04-1.04058E-13
 -1      3977 1.16986E-02-8.41761E-04-1.06614E-13
 -1      3978 1.15235E-02-7.95240E-04-1.03694E-13
 -1      3979 1.18401E-02-8.61607E-04-1.09186E-13
 -1      3980 1.19818E-02-8.81350E-04-1.11771E-13
 -1      3981 1.18059E-02-8.34725E-04-1.08820E-13
 -1      3982 1.21237E-02-9.00985E-04-1.14373E-13
 -1      3983 1.22657E-02-9.20526E-04-1.16989E-13
 -1      3984 1.20892E-02-8.73848E-04-1.14003E-13
 -1      3985 1.24079E-02-9.39972E-04-1.19615E-13
 -1      3986 1.25503E-02-9.59335E-04-1.22256E-13
 -1      3987 1.23733E-02-9.12636E-04-1.19243E-13
 -1      3988 1.26927E-02-9.78618E-04-1.24909E-13
 -1      3989 1.28352E-02-9.97831E-04-1.27576E-13
 -1      3990 1.26580E-02-9.51130E-04-1.24535E-13
 -1      3991 1.29778E-02-1.01698E-03-1.30255E-13
 -1      3992 1.31205E-02-1.03606E-03-1.32945E-13
 -1      3993 1.29430E-02-9.89373E-04-1.29878E-13
 -1      3994 1.32632E-02-1.05510E-03-1.35642E-13
 -1      3995 1.34059E-02-1.07409E-03-1.38349E-13
 -1      3996 1.32283E-02-1.02741E-03-1.35264E-13
 -1      3997 3.27187E-03-7.61907E-06-1.31039E-14
 -1      3998 3.27814E-03 2.37764E-05-1.28658E-14
 -1      3999 9.22052E-03-2.31722E-04-6.68978E-14
 -1      4000 9.08617E-03-2.17144E-04-6.46914E-14
 -1      4001 1.46994E-03-9.11501E-05-2.81802E-15
 -1      4002 1.58305E-03-9.92753E-05-3.21192E-15
 -1      4003 1.46460E-03-6.34442E-05-2.83162E-15
 -1      4004 1.35758E-02-8.85664E-04-1.44105E-13
 -1      4005 1.35575E-02-8.43891E-04-1.44211E-13
 -1      4006 1.34507E-02-8.24120E-04-1.42236E-13
 -1      4007 1.34613E-02-8.90341E-04-1.41690E-13
 -1      4008 8.95211E-03-2.02487E-04-6.25124E-14
 -1      4009 8.81789E-03-1.87625E-04-6.03619E-14
 -1      4010 9.05377E-03-2.41565E-04-6.35818E-14
 -1      4011 9.76183E-03-2.90386E-04-7.59921E-14
 -1      4012 9.62572E-03-2.75589E-04-7.36766E-14
 -1      4013 1.00356E-02-3.20449E-04-8.06907E-14
 -1      4014 9.89844E-03-3.05347E-04-7.83296E-14
 -1      4015 9.85382E-03-3.29325E-04-7.71250E-14
 -1      4016 1.03116E-02-3.51218E-04-8.54837E-14
 -1      4017 1.01733E-02-3.35749E-04-8.30773E-14
 -1      4018 1.01262E-02-3.60159E-04-8.18445E-14
 -1      4019 1.05895E-02-3.82765E-04-9.03646E-14
 -1      4020 1.04503E-02-3.66900E-04-8.79135E-14
 -1      4021 1.04012E-02-3.91812E-04-8.66552E-14
 -1      4022 1.08692E-02-4.15105E-04-9.53272E-14
 -1      4023 1.07292E-02-3.98843E-04-9.28361E-14
 -1      4024 1.06784E-02-4.24260E-04-9.15519E-14
 -1      4025 1.11503E-02-4.48216E-04-1.00365E-13
 -1      4026 1.10096E-02-4.31572E-04-9.78374E-14
 -1      4027 1.09576E-02-4.57458E-04-9.65322E-14
 -1      4028 1.14326E-02-4.82045E-04-1.05471E-13
 -1      4029 1.12913E-02-4.65048E-04-1.02910E-13
 -1      4030 1.12384E-02-4.91348E-04-1.01583E-13
 -1      4031 1.17158E-02-5.16523E-04-1.10644E-13
 -1      4032 1.15741E-02-4.99210E-04-1.08050E-13
 -1      4033 1.15204E-02-5.25860E-04-1.06703E-13
 -1      4034 1.19998E-02-5.51570E-04-1.15878E-13
 -1      4035 1.18577E-02-5.33982E-04-1.13253E-13
 -1      4036 1.18035E-02-5.60917E-04-1.11887E-13
 -1      4037 1.22843E-02-5.87105E-04-1.21165E-13
 -1      4038 1.21420E-02-5.69283E-04-1.18515E-13
 -1      4039 1.20874E-02-5.96446E-04-1.17129E-13
 -1      4040 1.25692E-02-6.23049E-04-1.26505E-13
 -1      4041 1.24267E-02-6.05031E-04-1.23829E-13
 -1      4042 1.23719E-02-6.32372E-04-1.22426E-13
 -1      4043 1.28545E-02-6.59326E-04-1.31889E-13
 -1      4044 1.27118E-02-6.41150E-04-1.29191E-13
 -1      4045 1.26568E-02-6.68626E-04-1.27772E-13
 -1      4046 1.31399E-02-6.95870E-04-1.37305E-13
 -1      4047 1.29972E-02-6.77569E-04-1.34595E-13
 -1      4048 1.29420E-02-7.05145E-04-1.33162E-13
 -1      4049 1.33370E-02-7.32343E-04-1.40934E-13
 -1      4050 1.32301E-02-7.12693E-04-1.38961E-13
 -1      4051 1.31748E-02-7.40325E-04-1.37522E-13
 -1      4052 1.33552E-02-7.74078E-04-1.40839E-13
 -1      4053 9.49020E-03-2.60889E-04-7.13910E-14
 -1      4054 9.35511E-03-2.46290E-04-6.91322E-14
 -1      4055 9.31767E-03-2.70088E-04-6.79892E-14
 -1      4056 9.58429E-03-2.99311E-04-7.25053E-14
 -1      4057 3.17433E-03-1.06967E-04-1.26837E-14
 -1      4058 2.05706E-03-1.18988E-04-5.17255E-15
 -1      4059 2.18936E-03-1.20716E-04-5.81867E-15
 -1      4060 2.57609E-03-1.25492E-04-7.97904E-15
 -1      4061 2.70077E-03-1.27214E-04-8.77201E-15
 -1      4062 2.74758E-03-1.03888E-04-9.20984E-15
 -1      4063 2.43554E-03 1.32011E-04-6.92239E-15
 -1      4064 2.29909E-03 1.33812E-04-6.21408E-15
 -1      4065 3.29067E-03-6.10441E-05-1.37636E-14
 -1      4066 3.28004E-03-3.59202E-05-1.34354E-14
 -1      4067 3.18802E-03-2.22154E-05-1.25740E-14
 -1      4068 8.68353E-03-1.72482E-04-5.82402E-14
 -1      4069 8.54827E-03-1.56753E-04-5.61474E-14
 -1      4070 8.79187E-03-2.13542E-04-5.92852E-14
 -1      4071 3.37800E-03 7.97424E-05-1.31036E-14
 -1      4072 3.50879E-03 1.06142E-04-1.38116E-14
 -1      4073 3.49567E-03 1.44111E-04-1.34095E-14
 -1      4074 2.32012E-03-1.22337E-04-6.50188E-15
 -1      4075 2.44915E-03-1.23798E-04-7.22199E-15
 -1      4076 2.50101E-03-9.91502E-05-7.62101E-15
 -1      4077 3.33109E-03 1.77975E-04-1.20380E-14
 -1      4078 3.22213E-03 1.36234E-04-1.16023E-14
 -1      4079 2.17860E-03 1.37827E-04-5.61179E-15
 -1      4080 2.04120E-03 1.38229E-04-4.97528E-15
 -1      4081 1.99243E-03 1.14560E-04-4.81963E-15
 -1      4082 2.23244E-03 1.07142E-04-5.96786E-15
 -1      4083 6.14797E-03 7.49841E-04-3.20283E-14
 -1      4084 2.24502E-03-9.53333E-05-6.17806E-15
 -1      4085 1.72450E-03 8.46287E-05-3.75406E-15
 -1      4086 1.34706E-02-1.05201E-03-1.39955E-13
 -1      4087 1.57988E-03 3.17937E-05-3.26056E-15
 -1      4088 1.46140E-03 1.77121E-05-2.84289E-15
 -1      4089 1.46223E-03-3.27908E-06-2.85019E-15
 -1      4090 8.42839E-03-2.27027E-04-5.18811E-14
 -1      4091 8.55084E-03-2.55089E-04-5.33913E-14
 -1      4092 8.40612E-03-1.98274E-04-5.23898E-14
 -1      4093 3.21606E-03 9.00681E-05-1.18905E-14
 -1      4094 3.07761E-03 1.12178E-04-1.08162E-14
 -1      4095 8.71318E-03-3.67153E-04-5.39615E-14
 -1      4096 8.65249E-03-3.01062E-04-5.39993E-14
 -1      4097 8.62172E-03-3.12692E-04-5.29290E-14
 -1      4098 8.69698E-03-3.34186E-04-5.40513E-14
 -1      4099 2.94253E-03 1.15335E-04-9.93347E-15
 -1      4100 2.80744E-03 1.18558E-04-9.08556E-15
 -1      4101 2.94635E-03 7.44669E-05-1.01981E-14
 -1      4102 3.08055E-03-9.02746E-05-1.18912E-14
 -1      4103 3.16808E-03-8.39178E-05-1.27112E-14
 -1      4104 1.67823E-03-7.44769E-05-3.61075E-15
 -1      4105 1.68505E-03-1.03537E-04-3.59352E-15
 -1      4106 1.78684E-03-1.07454E-04-3.99672E-15
 -1      4107 1.33394E-02-8.87689E-04-1.39211E-13
 -1      4108 1.33341E-02-8.54637E-04-1.39487E-13
 -1      4109 2.68983E-03 1.24299E-04-8.36210E-15
 -1      4110 2.55426E-03 1.27047E-04-7.58364E-15
 -1      4111 2.46880E-03 9.73690E-05-7.23159E-15
 -1      4112 2.70098E-03 8.56572E-05-8.60928E-15
 -1      4113 3.22219E-03-7.60119E-05-1.32158E-14
 -1      4114 3.47765E-03 1.81818E-04-1.30066E-14
 -1      4115 2.85645E-03-8.04123E-05-1.00861E-14
 -1      4116 2.97061E-03-8.47602E-05-1.09714E-14
 -1      4117 2.96990E-03-5.94650E-05-1.09920E-14
 -1      4118 3.12725E-03 3.73847E-05-1.16670E-14
 -1      4119 3.23419E-03 5.75541E-05-1.22648E-14
 -1      4120 1.33732E-02-9.66299E-04-1.38981E-13
 -1      4121 1.33563E-02-9.26993E-04-1.39098E-13
 -1      4122 1.32291E-02-8.91249E-04-1.36905E-13
 -1      4123 1.46056E-03-2.28324E-05-2.84214E-15
 -1      4124 1.46390E-03-4.37681E-05-2.84465E-15
 -1      4125 1.57563E-03-5.05015E-05-3.24240E-15
 -1      4126 1.57702E-03-1.02088E-05-3.26375E-15
 -1      4127 1.87173E-03-1.11680E-04-4.34798E-15
 -1      4128 1.97283E-03-1.15102E-04-4.78971E-15
 -1      4129 2.03112E-03-8.97424E-05-5.11634E-15
 -1      4130 1.86360E-03-8.20208E-05-4.36779E-15
 -1      4131 8.76133E-03-3.57413E-04-5.50308E-14
 -1      4132 8.82227E-03-3.82328E-04-5.60303E-14
 -1      4133 8.93465E-03-3.97777E-04-5.81085E-14
 -1      4134 8.80576E-03-3.47881E-04-5.61238E-14
 -1      4135 9.05062E-03-4.13634E-04-6.02168E-14
 -1      4136 9.16976E-03-4.30310E-04-6.23526E-14
 -1      4137 8.98554E-03-3.87078E-04-5.92120E-14
 -1      4138 9.29160E-03-4.47413E-04-6.45147E-14
 -1      4139 9.41585E-03-4.65175E-04-6.67064E-14
 -1      4140 9.22250E-03-4.18800E-04-6.34862E-14
 -1      4141 9.54219E-03-4.83308E-04-6.89240E-14
 -1      4142 9.67041E-03-5.01929E-04-7.11682E-14
 -1      4143 9.46996E-03-4.52855E-04-6.78693E-14
 -1      4144 9.80030E-03-5.20824E-04-7.34413E-14
 -1      4145 9.93170E-03-5.40054E-04-7.57380E-14
 -1      4146 9.72556E-03-4.88741E-04-7.23628E-14
 -1      4147 1.00644E-02-5.59456E-04-7.80599E-14
 -1      4148 1.01984E-02-5.79066E-04-8.04081E-14
 -1      4149 9.98763E-03-5.25948E-04-7.69595E-14
 -1      4150 1.03334E-02-5.98760E-04-8.27795E-14
 -1      4151 1.04694E-02-6.18562E-04-8.51744E-14
 -1      4152 1.02549E-02-5.64024E-04-8.16558E-14
 -1      4153 1.06062E-02-6.38381E-04-8.75912E-14
 -1      4154 1.07438E-02-6.58235E-04-9.00293E-14
 -1      4155 1.05263E-02-6.02604E-04-8.64480E-14
 -1      4156 1.08821E-02-6.78061E-04-9.24870E-14
 -1      4157 1.10211E-02-6.97873E-04-9.49633E-14
 -1      4158 1.08012E-02-6.41417E-04-9.13265E-14
 -1      4159 1.11605E-02-7.17629E-04-9.74595E-14
 -1      4160 1.13005E-02-7.37341E-04-9.99727E-14
 -1      4161 1.10787E-02-6.80273E-04-9.62836E-14
 -1      4162 1.14409E-02-7.56983E-04-1.02506E-13
 -1      4163 1.15816E-02-7.76566E-04-1.05052E-13
 -1      4164 1.13583E-02-7.19052E-04-1.01314E-13
 -1      4165 1.17227E-02-7.96075E-04-1.07614E-13
 -1      4166 1.18640E-02-8.15520E-04-1.10193E-13
 -1      4167 1.16395E-02-7.57686E-04-1.06411E-13
 -1      4168 1.20056E-02-8.34893E-04-1.12788E-13
 -1      4169 1.21474E-02-8.54203E-04-1.15397E-13
 -1      4170 1.19221E-02-7.96143E-04-1.11571E-13
 -1      4171 1.22894E-02-8.73448E-04-1.18017E-13
 -1      4172 1.24316E-02-8.92636E-04-1.20650E-13
 -1      4173 1.22056E-02-8.34420E-04-1.16790E-13
 -1      4174 1.25739E-02-9.11766E-04-1.23300E-13
 -1      4175 1.27163E-02-9.30847E-04-1.25961E-13
 -1      4176 1.24898E-02-8.72525E-04-1.22063E-13
 -1      4177 1.28588E-02-9.49880E-04-1.28632E-13
 -1      4178 1.30013E-02-9.68869E-04-1.31317E-13
 -1      4179 1.27745E-02-9.10477E-04-1.27387E-13
 -1      4180 8.53031E-03-1.85377E-04-5.51026E-14
 -1      4181 8.41203E-03-1.40268E-04-5.40835E-14
 -1      4182 2.43050E-03-7.29075E-05-7.26468E-15
 -1      4183 2.55580E-03-7.53754E-05-8.02429E-15
 -1      4184 8.31122E-03-1.32541E-04-5.24656E-14
 -1      4185 9.15111E-03-2.78616E-04-6.46488E-14
 -1      4186 9.02233E-03-2.64798E-04-6.24743E-14
 -1      4187 1.04896E-02-4.32421E-04-8.78255E-14
 -1      4188 1.03521E-02-4.15995E-04-8.53998E-14
 -1      4189 1.02153E-02-3.99752E-04-8.29960E-14
 -1      4190 1.00792E-02-3.83739E-04-8.06149E-14
 -1      4191 1.03030E-02-4.39434E-04-8.41465E-14
 -1      4192 9.94388E-03-3.67928E-04-7.82576E-14
 -1      4193 9.80939E-03-3.52378E-04-7.59245E-14
 -1      4194 1.00321E-02-4.06474E-04-7.93883E-14
 -1      4195 1.07665E-02-4.65844E-04-9.27393E-14
 -1      4196 1.06278E-02-4.49051E-04-9.02711E-14
 -1      4197 1.05771E-02-4.73199E-04-8.89932E-14
 -1      4198 1.10454E-02-4.99937E-04-9.77335E-14
 -1      4199 1.09057E-02-4.82817E-04-9.52274E-14
 -1      4200 1.08539E-02-5.07632E-04-9.39250E-14
 -1      4201 1.13260E-02-5.34617E-04-1.02798E-13
 -1      4202 1.11855E-02-5.17212E-04-1.00257E-13
 -1      4203 1.11327E-02-5.42625E-04-9.89331E-14
 -1      4204 1.16080E-02-5.69807E-04-1.07931E-13
 -1      4205 1.14669E-02-5.52155E-04-1.05357E-13
 -1      4206 1.14134E-02-5.78084E-04-1.04011E-13
 -1      4207 1.18911E-02-6.05434E-04-1.13127E-13
 -1      4208 1.17494E-02-5.87572E-04-1.10522E-13
 -1      4209 1.16954E-02-6.13932E-04-1.09157E-13
 -1      4210 1.21749E-02-6.41428E-04-1.18377E-13
 -1      4211 1.20329E-02-6.23390E-04-1.15745E-13
 -1      4212 1.19785E-02-6.50103E-04-1.14361E-13
 -1      4213 1.24594E-02-6.77727E-04-1.23683E-13
 -1      4214 1.23171E-02-6.59543E-04-1.21024E-13
 -1      4215 1.22623E-02-6.86537E-04-1.19622E-13
 -1      4216 1.27443E-02-7.14276E-04-1.29037E-13
 -1      4217 1.26018E-02-6.95975E-04-1.26356E-13
 -1      4218 1.25468E-02-7.23187E-04-1.24937E-13
 -1      4219 1.30295E-02-7.51023E-04-1.34431E-13
 -1      4220 1.28868E-02-7.32628E-04-1.31729E-13
 -1      4221 1.28317E-02-7.60008E-04-1.30298E-13
 -1      4222 3.14019E-03-5.70402E-05-1.24008E-14
 -1      4223 3.05239E-03 7.88564E-06-1.13340E-14
 -1      4224 2.99929E-03 3.78640E-05-1.07719E-14
 -1      4225 2.64792E-03-7.58689E-05-8.61994E-15
 -1      4226 2.76839E-03-7.90919E-05-9.44275E-15
 -1      4227 2.76636E-03-5.20753E-05-9.46147E-15
 -1      4228 2.58362E-03-4.97700E-05-8.23526E-15
 -1      4229 3.10546E-03-3.87303E-05-1.20220E-14
 -1      4230 3.08532E-03-1.29663E-05-1.17099E-14
 -1      4231 2.96634E-03-1.06364E-05-1.08120E-14
 -1      4232 3.04132E-03-4.82981E-05-1.15435E-14
 -1      4233 8.89467E-03-2.51244E-04-6.03284E-14
 -1      4234 8.76771E-03-2.38149E-04-5.82102E-14
 -1      4235 8.99159E-03-2.86792E-04-6.13713E-14
 -1      4236 1.33473E-02-8.30921E-04-1.40032E-13
 -1      4237 1.33420E-02-7.97835E-04-1.40300E-13
 -1      4238 1.32518E-02-7.80927E-04-1.38640E-13
 -1      4239 1.32254E-02-8.28334E-04-1.37559E-13
 -1      4240 2.17352E-03-6.85099E-05-5.85685E-15
 -1      4241 2.30297E-03-7.05682E-05-6.54236E-15
 -1      4242 2.36367E-03-4.63220E-05-6.91122E-15
 -1      4243 1.87391E-03 8.11811E-05-4.37389E-15
 -1      4244 1.73069E-03 5.05473E-05-3.82542E-15
 -1      4245 1.67672E-03-5.38435E-05-3.62686E-15
 -1      4246 1.77753E-03-5.71061E-05-4.03216E-15
 -1      4247 1.67658E-03-3.32729E-05-3.63978E-15
 -1      4248 1.72872E-03 2.78499E-05-3.83905E-15
 -1      4249 8.64688E-03-2.81131E-04-5.45318E-14
 -1      4250 8.73607E-03-3.05502E-04-5.56740E-14
 -1      4251 8.63736E-03-2.58621E-04-5.50590E-14
 -1      4252 2.87297E-03 4.36384E-05-9.89213E-15
 -1      4253 1.31408E-02-9.81210E-04-1.34025E-13
 -1      4254 1.32835E-02-1.00011E-03-1.36726E-13
 -1      4255 8.33326E-03-1.66350E-04-5.19649E-14
 -1      4256 9.28075E-03-2.92786E-04-6.68504E-14
 -1      4257 9.24408E-03-3.14357E-04-6.57145E-14
 -1      4258 9.41149E-03-3.07237E-04-6.90798E-14
 -1      4259 9.76494E-03-3.74487E-04-7.47272E-14
 -1      4260 9.67582E-03-3.37051E-04-7.36163E-14
 -1      4261 9.54315E-03-3.22018E-04-7.13353E-14
 -1      4262 2.50102E-03 6.53768E-05-7.52328E-15
 -1      4263 2.38540E-03 7.09117E-05-6.86675E-15
 -1      4264 2.92778E-03-4.19367E-05-1.06358E-14
 -1      4265 8.70180E-03-2.51848E-04-5.65513E-14
 -1      4266 8.59596E-03-2.14804E-04-5.55362E-14
 -1      4267 1.31616E-02-7.64043E-04-1.36986E-13
 -1      4268 2.09131E-03-6.46899E-05-5.44798E-15
 -1      4269 2.15386E-03-3.98427E-05-5.78495E-15
 -1      4270 2.00860E-03-6.09679E-05-5.05390E-15
 -1      4271 2.26817E-03 7.60554E-05-6.23538E-15
 -1      4272 2.14993E-03 8.06183E-05-5.63380E-15
 -1      4273 2.30523E-03 4.57630E-05-6.50272E-15
 -1      4274 1.31140E-02-8.94534E-04-1.34506E-13
 -1      4275 1.30971E-02-8.55362E-04-1.34618E-13
 -1      4276 1.30933E-02-8.15198E-04-1.35003E-13
 -1      4277 1.31064E-02-7.91554E-04-1.35544E-13
 -1      4278 1.99375E-03 7.80027E-05-4.90653E-15
 -1      4279 1.29781E-02-8.18577E-04-1.32611E-13
 -1      4280 1.30565E-02-9.41697E-04-1.32768E-13
 -1      4281 8.46897E-03-2.01709E-04-5.34838E-14
 -1      4282 1.34357E-02-1.02429E-03-1.39571E-13
 -1      4283 8.91744E-03-3.61390E-04-5.82065E-14
 -1      4284 9.03280E-03-3.75922E-04-6.03183E-14
 -1      4285 8.84571E-03-3.36479E-04-5.72033E-14
 -1      4286 9.15138E-03-3.90968E-04-6.24580E-14
 -1      4287 9.27265E-03-4.06849E-04-6.46239E-14
 -1      4288 9.07778E-03-3.63872E-04-6.14298E-14
 -1      4289 9.39636E-03-4.23153E-04-6.68168E-14
 -1      4290 9.52218E-03-4.40091E-04-6.90373E-14
 -1      4291 9.32108E-03-3.94148E-04-6.57653E-14
 -1      4292 9.64990E-03-4.57373E-04-7.12843E-14
 -1      4293 9.77931E-03-4.75114E-04-7.35591E-14
 -1      4294 9.57309E-03-4.26677E-04-7.02095E-14
 -1      4295 9.91023E-03-4.93106E-04-7.58611E-14
 -1      4296 1.00425E-02-5.11418E-04-7.81854E-14
 -1      4297 9.83205E-03-4.60903E-04-7.47609E-14
 -1      4298 1.01760E-02-5.29895E-04-8.05344E-14
 -1      4299 1.03106E-02-5.48583E-04-8.29087E-14
 -1      4300 1.00966E-02-4.96357E-04-7.94148E-14
 -1      4301 1.04462E-02-5.67368E-04-8.53041E-14
 -1      4302 1.05827E-02-5.86282E-04-8.77241E-14
 -1      4303 1.03658E-02-5.32663E-04-8.41631E-14
 -1      4304 1.07200E-02-6.05242E-04-9.01661E-14
 -1      4305 1.08580E-02-6.24273E-04-9.26263E-14
 -1      4306 1.06387E-02-5.69534E-04-8.90041E-14
 -1      4307 1.09967E-02-6.43315E-04-9.51075E-14
 -1      4308 1.11359E-02-6.62389E-04-9.76073E-14
 -1      4309 1.09146E-02-6.06758E-04-9.39312E-14
 -1      4310 1.12757E-02-6.81451E-04-1.00124E-13
 -1      4311 1.14158E-02-7.00520E-04-1.02657E-13
 -1      4312 1.11930E-02-6.44187E-04-9.89326E-14
 -1      4313 1.15564E-02-7.19565E-04-1.05208E-13
 -1      4314 1.16973E-02-7.38602E-04-1.07771E-13
 -1      4315 1.14733E-02-6.81721E-04-1.04001E-13
 -1      4316 1.18386E-02-7.57609E-04-1.10352E-13
 -1      4317 1.19800E-02-7.76600E-04-1.12951E-13
 -1      4318 1.17550E-02-7.19298E-04-1.09137E-13
 -1      4319 1.21218E-02-7.95560E-04-1.15563E-13
 -1      4320 1.22637E-02-8.14501E-04-1.18187E-13
 -1      4321 1.20380E-02-7.56877E-04-1.14332E-13
 -1      4322 1.24058E-02-8.33414E-04-1.20823E-13
 -1      4323 1.25480E-02-8.52307E-04-1.23475E-13
 -1      4324 1.23217E-02-7.94440E-04-1.19586E-13
 -1      4325 1.26903E-02-8.71174E-04-1.26140E-13
 -1      4326 1.28328E-02-8.90023E-04-1.28814E-13
 -1      4327 1.26061E-02-8.31976E-04-1.24889E-13
 -1      4328 2.88665E-03-2.35894E-05-1.02822E-14
 -1      4329 2.84649E-03-4.48569E-06-9.93140E-15
 -1      4330 2.81048E-03-3.62157E-05-9.76294E-15
 -1      4331 2.61533E-03 5.93799E-05-8.20935E-15
 -1      4332 2.53452E-03 3.45307E-05-7.81395E-15
 -1      4333 2.72848E-03 5.27744E-05-8.92410E-15
 -1      4334 1.87328E-03 2.46730E-05-4.44734E-15
 -1      4335 1.72465E-03 6.92041E-06-3.83420E-15
 -1      4336 1.72202E-03-1.38616E-05-3.82643E-15
 -1      4337 1.06087E-02-5.21465E-04-8.90045E-14
 -1      4338 1.04717E-02-5.03775E-04-8.65712E-14
 -1      4339 8.79908E-03-2.79471E-04-5.77188E-14
 -1      4340 1.00659E-02-4.51649E-04-7.94077E-14
 -1      4341 9.93257E-03-4.34743E-04-7.70667E-14
 -1      4342 1.11633E-02-5.93445E-04-9.89374E-14
 -1      4343 1.10238E-02-5.75320E-04-9.64272E-14
 -1      4344 1.14436E-02-6.29927E-04-1.04012E-13
 -1      4345 1.13032E-02-6.11662E-04-1.01466E-13
 -1      4346 1.17254E-02-6.66630E-04-1.09152E-13
 -1      4347 1.15843E-02-6.48260E-04-1.06574E-13
 -1      4348 1.20083E-02-7.03499E-04-1.14349E-13
 -1      4349 1.18667E-02-6.85050E-04-1.11744E-13
 -1      4350 1.22921E-02-7.40494E-04-1.19610E-13
 -1      4351 1.21501E-02-7.21985E-04-1.16974E-13
 -1      4352 1.25765E-02-7.77584E-04-1.24918E-13
 -1      4353 1.24342E-02-7.59030E-04-1.22256E-13
 -1      4354 1.28356E-02-8.00009E-04-1.29919E-13
 -1      4355 9.03926E-03-3.26609E-04-6.14068E-14
 -1      4356 8.91902E-03-3.13504E-04-5.92781E-14
 -1      4357 1.33085E-02-9.88392E-04-1.37384E-13
 -1      4358 2.78966E-03 1.92979E-05-9.45657E-15
 -1      4359 2.03422E-03 4.87744E-05-5.14504E-15
 -1      4360 1.03355E-02-4.86201E-04-8.41620E-14
 -1      4361 1.02002E-02-4.68846E-04-8.17718E-14
 -1      4362 1.86138E-03-6.09180E-05-4.38621E-15
 -1      4363 2.32283E-03-2.44175E-06-6.67509E-15
 -1      4364 2.45110E-03-5.46915E-06-7.40510E-15
 -1      4365 1.08848E-02-5.57258E-04-9.39338E-14
 -1      4366 1.07465E-02-5.39318E-04-9.14590E-14
 -1      4367 2.56268E-03-1.12607E-05-8.08313E-15
 -1      4368 2.20736E-03 2.56040E-06-6.05496E-15
 -1      4369 8.84989E-03-3.17659E-04-5.77539E-14
 -1      4370 9.80048E-03-4.18050E-04-7.47491E-14
 -1      4371 2.71992E-03-3.43778E-05-9.12994E-15
 -1      4372 2.05592E-03 1.43863E-06-5.29981E-15
 -1      4373 9.50206E-03-3.43690E-04-7.01681E-14
 -1      4374 9.66961E-03-4.01743E-04-7.24594E-14
 -1      4375 9.28605E-03-3.55063E-04-6.57480E-14
 -1      4376 9.16156E-03-3.40595E-04-6.35636E-14
 -1      4377 1.28652E-02-8.54720E-04-1.29889E-13
 -1      4378 1.27189E-02-7.96157E-04-1.27592E-13
 -1      4379 2.65684E-03-1.23939E-05-8.68080E-15
 -1      4380 1.92517E-03-3.61248E-05-4.68907E-15
 -1      4381 1.29495E-02-8.94060E-04-1.31147E-13
 -1      4382 1.30889E-02-9.06240E-04-1.33854E-13
 -1      4383 9.41223E-03-3.70206E-04-6.79586E-14
 -1      4384 9.54020E-03-3.85719E-04-7.01960E-14
 -1      4385 1.32210E-02-9.42223E-04-1.36136E-13
 -1      4386 2.05282E-03-1.99329E-05-5.29004E-15
 -1      4387 2.70660E-03 4.82258E-06-8.96359E-15
 -1      4388 1.82239E-03-1.66301E-05-4.24315E-15
 -1      4389 1.97032E-03-1.62526E-05-4.90031E-15
 -3
    1PSTEP                         2           1           1          
  100CL  101 1.000000000        4389                     0    1           1
 -4  STRESS      6    1
 -5  SXX         1    4    1    1
 -5  SYY         1    4    2    2
 -5  SZZ         1    4    3    3
 -5  SXY         1    4    1    2
 -5  SYZ         1    4    2    3
 -5  SZX         1    4    3    1
 -1         1 6.74962E+01 8.76083E-01 3.75034E+00 1.30327E+00-1.09437E-13-1.27612E-12
 -1         2-6.86576E-01-2.45305E+01-3.35619E+00-8.26375E-02-7.09936E-13 2.68102E-13
 -1         3 2.00000E+01 2.67802E-04-4.78555E-05 2.58595E-04-4.21984E-13-4.02619E-13
 -1         4 2.00000E+01 2.29932E-04-8.33393E-05-2.26231E-04 3.06027E-13-1.60789E-13
 -1         5 3.24403E+01 6.08632E+00 2.66569E+00 6.13839E+00-4.86763E-14 3.57357E-12
 -1         6 3.53177E+01 1.20930E+01 4.99202E+00-8.50645E+00-2.00895E-13 3.76960E-12
 -1         7 2.09134E+01 6.12071E+00-1.02608E-01-4.57782E+00-2.93932E-14 9.00204E-13
 -1         8 1.98214E+01 5.97568E+00 6.40367E-02-3.07322E+00-4.48495E-14-3.56212E-14
 -1         9 1.92772E+01 5.81115E+00 5.56730E-02-2.29034E+00-3.94441E-14-5.85385E-13
 -1        10 1.89822E+01 5.71618E+00 5.17059E-02-1.70838E+00-3.10151E-14-8.57961E-13
 -1        11 1.87897E+01 5.65451E+00 4.59560E-02-1.23466E+00-2.62238E-14-9.98104E-13
 -1        12 1.86578E+01 5.61261E+00 4.05737E-02-8.39312E-01-1.61381E-14-1.06303E-12
 -1        13 1.85706E+01 5.58527E+00 3.65871E-02-4.85079E-01-7.45541E-15-1.09542E-12
 -1        14 1.85283E+01 5.57207E+00 3.46403E-02-1.58046E-01-2.42547E-15-1.11271E-12
 -1        15 1.85303E+01 5.57270E+00 3.49338E-02 1.61378E-01 2.87140E-15-1.11390E-12
 -1        16 1.85758E+01 5.58695E+00 3.74059E-02 4.92192E-01 7.09849E-15-1.10043E-12
 -1        17 1.86644E+01 5.61464E+00 4.17807E-02 8.53480E-01 1.64972E-14-1.06285E-12
 -1        18 1.87953E+01 5.65632E+00 4.73041E-02 1.25740E+00 2.06137E-14-9.90182E-13
 -1        19 1.89858E+01 5.71747E+00 5.26427E-02 1.74161E+00 3.14922E-14-8.46770E-13
 -1        20 1.92771E+01 5.81235E+00 5.53111E-02 2.33440E+00 4.11025E-14-5.74156E-13
 -1        21 1.98109E+01 5.98815E+00 5.85171E-02 3.11432E+00 5.01196E-14-3.57882E-14
 -1        22 2.12643E+01 6.39128E+00 1.52067E-01 4.38347E+00 1.15324E-14 1.04878E-12
 -1        23 2.29885E+01-1.38255E+00-9.42695E-01-6.71514E-01-1.29566E-13 3.06444E-12
 -1        24 1.95675E+01-9.99430E-02-3.05694E-01 6.73538E-02-3.80061E-14 2.42150E-12
 -1        25 1.90770E+01-5.81753E-02-6.87944E-02 6.19424E-02-1.61466E-14 1.78326E-12
 -1        26 1.90914E+01-2.56185E-02-1.01292E-02 3.46768E-02-9.76172E-15 1.31817E-12
 -1        27 1.93716E+01-1.67724E-02-4.62686E-03 2.57539E-02-1.22821E-14 9.78686E-13
 -1        28 1.98325E+01-1.24735E-02-6.63005E-03 2.18082E-02-1.51290E-15 8.01241E-13
 -1        29 2.04403E+01-1.02773E-02-8.73024E-03 2.10509E-02 1.02253E-14 6.88600E-13
 -1        30 2.11839E+01-8.73775E-03-1.00981E-02 2.27013E-02-1.52356E-14 5.26979E-13
 -1        31 2.20575E+01-6.71103E-03-1.00750E-02 2.63338E-02 1.25827E-15 3.43526E-13
 -1        32 2.30445E+01-2.98227E-03-6.95174E-03 3.12329E-02-2.25486E-14 2.68081E-13
 -1        33 2.40960E+01 3.76828E-03 2.20833E-03 3.55683E-02 3.84884E-14 1.83867E-13
 -1        34 2.51020E+01 1.45075E-02 2.09330E-02 3.52722E-02-6.89183E-14 1.78987E-13
 -1        35 2.58612E+01 2.86368E-02 5.08058E-02 2.30760E-02 3.57223E-15 1.33546E-13
 -1        36 2.60731E+01 4.19957E-02 8.56770E-02-1.03075E-02 3.10164E-14 1.86407E-13
 -1        37 2.54050E+01 4.57766E-02 1.05226E-01-6.93160E-02-5.30739E-14 2.82264E-13
 -1        38 2.36895E+01 2.95258E-02 7.71603E-02-1.39075E-01 1.10192E-14 1.30305E-13
 -1        39 2.12210E+01-8.55286E-03-1.35240E-02-1.76901E-01 8.35053E-15-5.64618E-14
 -1        40 1.88966E+01-5.22111E-02-1.31264E-01-1.33191E-01 8.08121E-15 3.91770E-14
 -1        41 1.78556E+01-7.38562E-02-1.92731E-01-1.01956E-02-9.12118E-15-7.74472E-14
 -1        42 1.86885E+01-5.73941E-02-1.45612E-01 1.20427E-01-5.03915E-14-4.86274E-13
 -1        43 2.09460E+01-1.51082E-02-2.96205E-02 1.77130E-01-5.23349E-14-7.03777E-13
 -1        44 2.35126E+01 2.50180E-02 6.87730E-02 1.48486E-01 7.62587E-14-3.36127E-13
 -1        45 2.54226E+01 4.43050E-02 1.04347E-01 8.00154E-02-1.81166E-14-1.26264E-13
 -1        46 2.63011E+01 4.26380E-02 8.89113E-02 1.83604E-02-1.52400E-14-3.30670E-13
 -1        47 2.62729E+01 2.98825E-02 5.43145E-02-1.80377E-02 5.32907E-15 7.97994E-14
 -1        48 2.56656E+01 1.54595E-02 2.28107E-02-3.18975E-02 1.24027E-14 1.76366E-13
 -1        49 2.47926E+01 4.22604E-03 2.25732E-03-3.23576E-02-4.80239E-14 3.01851E-13
 -1        50 2.38709E+01-2.77306E-03-8.14371E-03-2.70881E-02 1.16029E-14 1.74569E-13
 -1        51 2.30204E+01-6.30197E-03-1.19010E-02-2.05091E-02 6.22625E-15 2.84010E-13
 -1        52 2.22925E+01-7.52578E-03-1.21083E-02-1.45695E-02 2.91640E-14 2.79557E-13
 -1        53 2.16987E+01-7.43008E-03-1.07552E-02-9.86416E-03-5.46120E-14 1.60616E-13
 -1        54 2.12301E+01-6.68617E-03-8.91801E-03-6.38695E-03-2.84848E-14-2.56874E-14
 -1        55 2.08695E+01-5.69765E-03-7.10299E-03-3.92600E-03-5.40532E-14-2.87043E-13
 -1        56 2.05979E+01-4.68415E-03-5.51005E-03-2.23841E-03 2.65088E-14-4.22928E-13
 -1        57 2.03972E+01-3.75249E-03-4.19169E-03-1.11345E-03 2.89579E-14-3.85065E-13
 -1        58 2.02519E+01-2.94552E-03-3.13675E-03-3.86789E-04 2.70686E-14-3.93677E-13
 -1        59 2.01492E+01-2.27218E-03-2.31099E-03 6.34206E-05 1.35724E-14-4.61591E-13
 -1        60 2.00785E+01-1.72483E-03-1.67530E-03 3.25231E-04-8.11833E-15-2.22652E-14
 -1        61 2.00315E+01-1.28879E-03-1.19299E-03 4.61427E-04 8.76003E-14 5.50982E-13
 -1        62 2.00019E+01-9.47198E-04-8.32299E-04 5.16423E-04-7.88754E-14 3.92061E-13
 -1        63 1.99848E+01-6.83489E-04-5.66616E-04 5.21419E-04-4.38528E-14 2.19867E-13
 -1        64 1.99764E+01-4.82410E-04-3.74022E-04 4.98144E-04-5.07632E-14-3.21333E-13
 -1        65 1.99740E+01-3.30337E-04-2.36414E-04 4.61498E-04-1.86860E-14 1.49431E-13
 -1        66 1.99756E+01-2.15179E-04-1.38347E-04 4.21338E-04-3.83091E-14 3.70639E-13
 -1        67 1.99797E+01-1.26039E-04-6.52585E-05 3.83433E-04 1.82109E-13 5.80457E-13
 -1        68 1.99851E+01-5.27088E-05-4.17926E-07 3.49315E-04 3.89632E-14 9.31657E-13
 -1        69 1.99908E+01 1.32952E-05 7.76127E-05 3.11955E-04 5.82399E-14 6.68777E-13
 -1        70 1.99960E+01 6.16085E-05 1.71563E-04 2.31001E-04-8.98562E-14 3.59391E-13
 -1        71 1.99994E+01-1.35851E-05 1.82478E-04 7.73085E-05-5.14609E-14 9.10498E-14
 -1        72 2.10352E+01-4.02777E-01-9.80805E-01-3.19404E-01 6.56246E-14 3.19299E-12
 -1        73 1.95357E+01-6.61146E-02-2.87279E-01-5.58008E-02 3.08881E-14 2.35599E-12
 -1        74 1.90767E+01-2.18221E-02-6.41173E-02-2.05839E-02 1.61022E-14 1.75863E-12
 -1        75 1.90725E+01-1.18391E-02-1.20182E-02-1.53100E-02 6.68953E-16 1.33951E-12
 -1        76 1.93195E+01-7.48161E-03-3.75587E-03-1.27864E-02 9.91216E-15 1.04880E-12
 -1        77 1.97211E+01-4.93817E-03-3.61972E-03-1.18589E-02 1.47293E-14 7.95340E-13
 -1        78 2.02287E+01-2.96838E-03-3.58634E-03-1.22804E-02-2.62737E-14 6.83360E-13
 -1        79 2.08101E+01-8.80914E-04-2.28289E-03-1.38707E-02 1.23375E-14 4.91112E-13
 -1        80 2.14323E+01 1.79656E-03 8.57398E-04-1.64156E-02-9.33899E-15 2.29888E-13
 -1        81 2.20495E+01 5.33082E-03 6.58531E-03-1.93734E-02 3.21405E-14 1.22184E-13
 -1        82 2.25921E+01 9.61953E-03 1.55268E-02-2.15069E-02-1.37529E-14-4.29014E-14
 -1        83 2.29612E+01 1.39015E-02 2.73397E-02-2.05610E-02 6.11372E-14-1.98525E-13
 -1        84 2.30326E+01 1.65172E-02 3.94752E-02-1.33452E-02-3.70514E-14-2.65116E-13
 -1        85 2.26845E+01 1.51467E-02 4.62258E-02 3.07403E-03 1.01481E-16-8.06352E-14
 -1        86 2.18537E+01 7.95487E-03 3.96712E-02 2.85816E-02 5.05791E-15-2.74798E-13
 -1        87 2.06126E+01-4.46976E-03 1.41930E-02 5.66688E-02-2.33842E-14-2.24737E-13
 -1        88 1.92235E+01-1.78717E-02-2.65881E-02 7.40468E-02-7.09198E-15-1.84908E-13
 -1        89 1.81016E+01-2.59711E-02-6.62211E-02 6.70397E-02 3.31621E-14-6.21997E-13
 -1        90 1.76527E+01-2.46639E-02-8.35563E-02 3.33167E-02-4.82296E-14-7.64741E-13
 -1        91 1.80593E+01-1.49948E-02-6.76302E-02-1.33663E-02-1.52638E-14-5.31564E-13
 -1        92 1.91720E+01-2.17911E-03-2.89307E-02-5.12133E-02-1.19129E-14-2.99941E-13
 -1        93 2.06010E+01 8.52269E-03 1.21096E-02-6.66101E-02 5.46247E-14-3.64566E-13
 -1        94 2.19263E+01 1.41536E-02 3.82801E-02-6.01854E-02 3.32536E-15-9.90961E-13
 -1        95 2.28701E+01 1.48041E-02 4.54319E-02-4.17495E-02-2.39008E-14-9.54070E-13
 -1        96 2.33460E+01 1.21688E-02 3.88686E-02-2.15898E-02 1.85857E-14-6.71476E-13
 -1        97 2.34096E+01 8.22690E-03 2.65116E-02-5.66005E-03-2.54187E-14-5.87711E-13
 -1        98 2.31815E+01 4.40068E-03 1.42494E-02 4.40056E-03-5.58472E-14-6.26207E-13
 -1        99 2.27869E+01 1.39103E-03 4.87356E-03 9.40430E-03 3.78892E-14-1.01874E-12
 -1       100 2.23263E+01-6.39739E-04-1.11842E-03 1.09425E-02-1.31755E-14-1.19123E-12
 -1       101 2.18673E+01-1.81301E-03-4.32149E-03 1.04787E-02 2.01432E-14-1.05903E-12
 -1       102 2.14493E+01-2.34788E-03-5.60495E-03 9.06108E-03 3.32608E-14-1.28270E-12
 -1       103 2.10906E+01-2.45949E-03-5.72865E-03 7.33684E-03-3.18556E-14-1.35210E-12
 -1       104 2.07958E+01-2.31983E-03-5.23815E-03 5.65801E-03 6.46380E-14-1.21256E-12
 -1       105 2.05620E+01-2.05132E-03-4.48233E-03 4.18813E-03 1.26101E-14-9.43341E-13
 -1       106 2.03821E+01-1.73401E-03-3.66505E-03 2.98162E-03-1.42074E-13-5.13358E-13
 -1       107 2.02475E+01-1.41629E-03-2.89466E-03 2.03546E-03 7.35093E-14-6.12194E-13
 -1       108 2.01497E+01-1.12464E-03-2.22100E-03 1.32003E-03 5.69401E-14-7.66784E-13
 -1       109 2.00810E+01-8.71329E-04-1.66012E-03 7.96362E-04-1.15716E-14-3.70688E-13
 -1       110 2.00345E+01-6.59821E-04-1.20980E-03 4.25047E-04-1.30450E-14-9.60006E-13
 -1       111 2.00046E+01-4.88505E-04-8.58827E-04 1.70457E-04 7.45823E-14-1.17396E-12
 -1       112 1.99870E+01-3.53059E-04-5.92365E-04 2.27759E-06-4.52084E-14-1.18732E-12
 -1       113 1.99781E+01-2.47909E-04-3.94890E-04-1.04311E-04 1.65934E-13-1.16774E-12
 -1       114 1.99753E+01-1.67055E-04-2.51558E-04-1.69152E-04-2.88634E-14-1.46910E-12
 -1       115 1.99765E+01-1.04247E-04-1.48171E-04-2.08001E-04-9.54910E-14-1.00073E-12
 -1       116 1.99803E+01-5.35627E-05-6.99560E-05-2.32908E-04 2.23589E-14-5.21001E-13
 -1       117 1.99855E+01-9.05677E-06-1.53011E-07-2.51609E-04 3.86351E-14-9.51644E-13
 -1       118 1.99912E+01 3.38045E-05 8.20215E-05-2.68068E-04-3.79598E-14-1.01793E-12
 -1       119 1.99963E+01 7.59151E-05 1.87275E-04-2.64827E-04-1.96745E-14-5.97317E-13
 -1       120 1.99994E+01-4.51610E-05 1.45689E-04-1.34324E-04 2.58993E-13-7.59151E-13
 -1       121 1.99998E+01-5.56462E-04 1.22167E-04-1.08273E-04-7.90303E-13 5.96209E-15
 -1       122 1.99999E+01-3.62950E-03 1.22741E-04-2.23189E-04-9.44096E-14 4.68742E-14
 -1       123 1.99998E+01-8.10028E-03-7.16716E-07-2.32417E-04 8.18329E-14 1.32383E-13
 -1       124 1.99998E+01-1.25569E-02-7.12623E-05-1.88968E-04-5.00895E-13 2.36456E-14
 -1       125 1.99998E+01-1.63161E-02-9.39240E-05-1.34551E-04-6.79742E-13-2.73519E-13
 -1       126 1.99997E+01-1.90927E-02-9.42958E-05-8.79789E-05-4.01936E-13 1.52627E-13
 -1       127 1.99997E+01-2.09403E-02-8.52597E-05-4.85793E-05-2.18664E-13-1.57366E-13
 -1       128 1.99998E+01-2.18642E-02-7.91659E-05-1.66892E-05-8.74178E-13-1.04674E-13
 -1       129 1.99997E+01-2.19116E-02-8.03578E-05 1.27444E-05-6.81567E-13 2.02014E-13
 -1       130 1.99997E+01-2.10702E-02-8.86045E-05 4.56330E-05-2.28923E-13 4.17762E-14
 -1       131 1.99997E+01-1.92719E-02-9.81206E-05 8.84922E-05-1.26823E-12-1.43457E-13
 -1       132 1.99998E+01-1.64989E-02-9.93983E-05 1.36684E-04-1.25344E-12 2.30820E-13
 -1       133 1.99998E+01-1.26899E-02-7.41733E-05 1.93339E-04-6.59608E-13-3.88422E-14
 -1       134 1.99998E+01-8.14891E-03 5.05677E-06 2.49008E-04-7.96901E-13-1.48654E-14
 -1       135 1.99999E+01-3.70265E-03 1.04019E-04 3.15294E-04-7.97422E-13 8.32889E-14
 -1       136 1.99999E+01-6.51305E-04 1.12987E-04 8.46494E-05-5.56559E-13 1.63466E-13
 -1       137-1.41342E+00-1.94349E+01-3.04478E+00-3.75058E+00 2.01722E-12 5.43163E-13
 -1       138-1.35722E+00-7.54471E+00-2.17928E+00-2.64621E+00 3.07143E-12 1.45128E-12
 -1       139 3.42895E+00 4.24912E+00-9.65555E-01 4.08155E+00 3.30752E-12 2.36516E-12
 -1       140 1.71477E+01 1.08058E+01 5.22593E-01 1.34306E+01 2.75063E-12 3.44641E-12
 -1       141 3.63051E+01 9.62003E+00 1.89140E+00 1.80190E+01 1.95685E-12 3.59801E-12
 -1       142 5.63855E+01 4.36349E+00 3.03062E+00 1.41002E+01 7.37535E-13 2.53930E-12
 -1       143 6.56157E+01 9.20790E-01 3.50732E+00 2.41353E+00 8.52027E-14 5.41699E-13
 -1       144 6.04005E+01 3.00276E+00 3.27248E+00-1.10864E+01 4.32945E-13-1.84144E-12
 -1       145 4.34632E+01 8.19071E+00 2.36282E+00-1.79093E+01 1.61773E-12-3.61466E-12
 -1       146 2.25613E+01 1.10674E+01 9.74614E-01-1.54880E+01 3.09214E-12-4.13186E-12
 -1       147 5.96905E+00 6.01219E+00-6.37322E-01-6.19875E+00 4.30017E-12-3.56498E-12
 -1       148-1.21785E+00-6.20970E+00-2.05641E+00 2.18433E+00 4.20280E-12-2.16036E-12
 -1       149-1.48778E+00-1.82047E+01-2.94860E+00 3.76205E+00 2.98161E-12-8.20594E-13
 -1       150-8.63508E-01-2.45703E+01-3.37360E+00 5.88767E-01 5.40467E-13-1.01457E-13
 -1       151-1.36641E+00-2.10073E+01-3.20724E+00-3.78826E+00-1.83464E-12-4.58220E-13
 -1       152-1.82375E+00-9.49401E+00-2.44050E+00-3.51232E+00-3.58025E-12-1.63214E-12
 -1       153 3.04420E+00 3.45314E+00-1.13803E+00 3.52895E+00-4.27258E-12-3.21215E-12
 -1       154 1.71874E+01 1.05752E+01 4.43070E-01 1.33718E+01-3.43203E-12-4.00457E-12
 -1       155 3.72562E+01 9.58084E+00 1.99314E+00 1.82891E+01-2.19297E-12-4.27941E-12
 -1       156 5.86490E+01 4.17083E+00 3.30445E+00 1.37216E+01-8.38711E-13-3.13477E-12
 -1       157 6.21826E+01 2.80755E+00 3.45765E+00-1.09681E+01-2.14679E-13 8.02886E-13
 -1       158 4.55857E+01 7.71199E+00 2.49338E+00-1.77997E+01-1.01025E-12 2.37471E-12
 -1       159 2.60808E+01 1.08049E+01 1.16671E+00-1.64664E+01-1.91613E-12 2.81264E-12
 -1       160 1.02291E+01 8.60476E+00-2.31781E-01-9.41798E+00-2.94459E-12 2.90840E-12
 -1       161 1.03474E+00 4.38753E-01-1.50778E+00-1.20193E+00-3.83615E-12 2.54502E-12
 -1       162-1.86514E+00-1.11980E+01-2.53065E+00 3.89239E+00-3.64758E-12 1.60635E-12
 -1       163-1.28085E+00-2.11083E+01-3.16788E+00 3.72421E+00-2.72748E-12 5.07296E-13
 -1       164 2.11841E+01 3.66209E+00-5.43973E-02-3.39904E+00-5.11730E-13 3.73531E-13
 -1       165 2.01681E+01 4.21126E+00-4.36935E-02-2.56904E+00-4.98865E-13-2.25927E-13
 -1       166 1.96262E+01 4.51469E+00-3.04625E-02-1.94325E+00-4.33649E-13-5.76794E-13
 -1       167 1.92994E+01 4.67945E+00-2.26642E-02-1.43619E+00-3.41490E-13-7.67017E-13
 -1       168 1.90766E+01 4.78397E+00-1.81781E-02-1.01748E+00-2.49341E-13-8.55445E-13
 -1       169 1.89237E+01 4.84994E+00-1.57991E-02-6.48700E-01-1.68729E-13-9.07227E-13
 -1       170 1.88351E+01 4.88574E+00-1.46063E-02-3.15910E-01-8.24465E-14-9.25638E-13
 -1       171 1.88083E+01 4.89514E+00-1.42705E-02 3.05810E-04-4.39836E-15-9.36906E-13
 -1       172 1.88423E+01 4.87957E+00-1.46969E-02 3.18567E-01 7.65390E-14-9.35130E-13
 -1       173 1.89361E+01 4.83832E+00-1.59608E-02 6.57055E-01 1.53788E-13-9.24050E-13
 -1       174 1.90879E+01 4.76930E+00-1.84087E-02 1.02742E+00 2.37343E-13-8.59347E-13
 -1       175 1.93126E+01 4.66076E+00-2.29511E-02 1.46238E+00 3.35037E-13-7.51801E-13
 -1       176 1.96417E+01 4.48934E+00-3.17250E-02 1.98172E+00 4.40900E-13-5.67220E-13
 -1       177 2.01837E+01 4.18461E+00-4.53352E-02 2.61551E+00 5.14115E-13-2.15813E-13
 -1       178 2.12935E+01 3.43692E+00-5.72240E-02 3.33899E+00 5.21357E-13 4.43846E-13
 -1       179 2.25136E+01 1.12029E+00-3.31811E-01 2.86915E+00 4.09279E-13 1.32100E-12
 -1       180 2.21379E+01 8.43311E-01 1.20108E-03-1.80184E+00-4.38038E-13 1.04041E-12
 -1       181 2.07556E+01 1.91569E-01-8.84500E-03-6.06245E-01-3.84127E-13 8.08388E-13
 -1       182 2.01492E+01 1.13324E-01 1.45226E-02-1.08335E-01-2.90402E-13 6.06575E-13
 -1       183 2.00137E+01 6.68788E-02 1.10472E-02 1.50968E-01-2.20770E-13 4.32311E-13
 -1       184 2.01386E+01 4.94567E-02 6.42968E-03 3.18638E-01-1.47513E-13 3.02403E-13
 -1       185 2.04441E+01 4.29643E-02 3.84162E-03 4.48609E-01-8.25763E-14 2.13879E-13
 -1       186 2.08882E+01 4.06369E-02 2.47890E-03 5.62429E-01-7.94900E-14 1.31698E-13
 -1       187 2.14469E+01 3.78513E-02 1.44433E-03 6.66172E-01-1.16042E-13 1.11546E-13
 -1       188 2.20992E+01 2.93184E-02 2.22513E-04 7.52947E-01-6.50435E-14 1.14147E-13
 -1       189 2.28153E+01 7.75648E-03-1.40954E-03 8.00345E-01-3.75849E-14 1.05685E-13
 -1       190 2.35428E+01-3.59956E-02-3.34216E-03 7.66419E-01-1.35420E-14 3.01044E-14
 -1       191 2.41948E+01-1.09543E-01-5.04334E-03 5.89904E-01 2.27500E-14 3.31900E-14
 -1       192 2.46430E+01-2.08378E-01-5.48816E-03 2.06334E-01 3.72267E-14 8.99938E-14
 -1       193 2.47299E+01-2.97841E-01-3.89736E-03-4.03074E-01-6.40026E-15 8.03321E-14
 -1       194 2.43219E+01-2.99601E-01-6.67246E-04-1.12591E+00-5.81011E-14 1.08346E-13
 -1       195 2.34195E+01-1.27594E-01 2.56882E-04-1.65178E+00-7.15972E-14 9.04016E-14
 -1       196 2.22870E+01 2.10393E-01-2.16469E-03-1.57029E+00 2.03735E-14 5.57696E-14
 -1       197 2.14535E+01 5.13609E-01-7.28612E-03-7.05091E-01-9.41938E-14-9.57290E-14
 -1       198 2.14060E+01 5.41857E-01-7.91101E-03 5.69730E-01-2.69893E-13-2.54964E-13
 -1       199 2.21923E+01 2.61762E-01-2.13119E-03 1.53228E+00-1.60696E-13-4.19801E-13
 -1       200 2.33579E+01-8.53818E-02 1.53121E-03 1.72703E+00 1.29345E-13-4.17151E-13
 -1       201 2.43595E+01-2.85485E-01-1.13545E-04 1.26675E+00 1.65663E-13-4.67729E-13
 -1       202 2.48905E+01-3.02184E-01-3.35734E-03 5.55261E-01 7.14680E-14-2.76590E-13
 -1       203 2.49229E+01-2.18555E-01-5.16579E-03-7.14327E-02 2.16294E-13-1.34299E-13
 -1       204 2.45805E+01-1.17324E-01-5.01077E-03-4.76301E-01 5.14974E-14-1.10013E-13
 -1       205 2.40220E+01-3.90449E-02-3.51913E-03-6.65893E-01-2.76003E-14-1.37115E-13
 -1       206 2.33810E+01 8.47220E-03-1.64282E-03-7.03342E-01 7.53039E-16-2.63939E-13
 -1       207 2.27475E+01 3.17039E-02-1.04907E-04-6.53839E-01 7.32418E-14-2.30230E-13
 -1       208 2.21722E+01 3.96027E-02 8.78629E-04-5.64984E-01-7.19169E-14-1.33738E-13
 -1       209 2.16777E+01 3.91906E-02 1.36630E-03-4.65779E-01-7.95369E-14-2.29292E-13
 -1       210 2.12687E+01 3.49526E-02 1.50711E-03-3.71521E-01-1.25546E-13-1.84503E-13
 -1       211 2.09401E+01 2.94170E-02 1.44366E-03-2.88953E-01-6.84198E-14-1.41030E-13
 -1       212 2.06821E+01 2.38667E-02 1.28000E-03-2.20039E-01-5.62058E-14-1.43677E-13
 -1       213 2.04837E+01 1.88724E-02 1.08120E-03-1.64339E-01 1.05553E-13-4.95556E-14
 -1       214 2.03339E+01 1.46295E-02 8.83378E-04-1.20367E-01 8.26900E-14-1.19863E-13
 -1       215 2.02229E+01 1.11496E-02 7.04092E-04-8.63007E-02 3.07463E-14 6.62348E-14
 -1       216 2.01423E+01 8.36406E-03 5.50098E-04-6.03435E-02 1.09639E-13-2.19171E-13
 -1       217 2.00852E+01 6.17562E-03 4.22351E-04-4.08743E-02 2.34299E-13-1.56835E-13
 -1       218 2.00460E+01 4.48369E-03 3.18963E-04-2.65028E-02 1.66724E-14-1.19627E-13
 -1       219 2.00200E+01 3.19488E-03 2.36834E-04-1.60742E-02-1.85419E-13 4.32423E-14
 -1       220 2.00037E+01 2.22686E-03 1.72504E-04-8.65148E-03-1.79568E-13-1.04357E-13
 -1       221 1.99944E+01 1.50864E-03 1.22560E-04-3.49087E-03 3.54501E-13 1.96142E-13
 -1       222 1.99901E+01 9.79232E-04 8.38188E-05-1.69827E-05 5.32696E-14 4.21905E-13
 -1       223 1.99891E+01 5.85004E-04 5.34787E-05 2.19857E-03 1.57555E-13 4.14448E-13
 -1       224 1.99903E+01 2.76143E-04 2.94476E-05 3.45187E-03 1.91758E-13 3.45543E-13
 -1       225 1.99926E+01-8.51479E-07 1.17203E-05 3.91300E-03-1.46676E-13 2.10570E-13
 -1       226 1.99953E+01-3.15209E-04 1.86344E-06 3.61942E-03-2.25707E-15 2.87075E-13
 -1       227 1.99978E+01-7.27050E-04 4.95200E-06 2.52459E-03-1.55857E-13 5.02338E-13
 -1       228 2.11752E+01 2.72652E-01-4.93939E-02 1.03739E+00 3.96270E-13 1.12010E-12
 -1       229 2.02293E+01 1.29373E-01 9.04142E-03 3.15828E-01 2.95809E-13 8.18031E-13
 -1       230 1.98922E+01 6.55216E-02 1.30001E-02 5.87983E-03 1.97604E-13 5.79279E-13
 -1       231 1.98822E+01 3.86658E-02 7.77687E-03-1.62203E-01 1.56713E-13 4.13680E-13
 -1       232 2.00710E+01 2.60999E-02 3.89787E-03-2.67947E-01 1.26055E-13 2.98464E-13
 -1       233 2.03887E+01 1.84435E-02 1.83540E-03-3.39943E-01 3.65610E-14 2.39345E-13
 -1       234 2.07906E+01 1.14770E-02 6.94320E-04-3.87302E-01 1.18182E-13 1.31397E-13
 -1       235 2.12400E+01 2.35817E-03-6.11059E-05-4.08373E-01 1.01337E-13 8.60768E-14
 -1       236 2.16967E+01-1.13159E-02-5.71665E-04-3.93626E-01 8.67367E-14-3.38538E-14
 -1       237 2.21091E+01-3.12685E-02-7.49791E-04-3.27584E-01 8.47404E-14-4.00808E-15
 -1       238 2.24108E+01-5.73101E-02-4.18279E-04-1.92882E-01 8.06514E-14-5.31730E-14
 -1       239 2.25245E+01-8.51073E-02 5.00566E-04 2.07940E-02-1.08338E-14 5.64977E-14
 -1       240 2.23771E+01-1.03878E-01 1.71435E-03 3.01406E-01 2.62923E-14-5.63972E-14
 -1       241 2.19315E+01-9.69703E-02 2.44661E-03 5.96946E-01 2.78224E-14-5.83236E-14
 -1       242 2.12278E+01-4.95940E-02 1.62698E-03 8.09703E-01 2.85193E-14-3.37551E-14
 -1       243 2.04149E+01 3.64358E-02-1.10348E-03 8.23235E-01 3.46194E-14-1.24640E-13
 -1       244 1.97345E+01 1.30506E-01-4.37760E-03 5.69391E-01 1.82734E-13-2.13083E-13
 -1       245 1.94332E+01 1.83820E-01-5.68676E-03 9.94034E-02 6.08888E-15-1.82323E-13
 -1       246 1.96362E+01 1.64679E-01-3.33378E-03-4.15511E-01-5.62488E-14-2.21429E-13
 -1       247 2.02722E+01 8.53599E-02 5.81924E-04-7.76691E-01-7.76924E-14-2.66329E-13
 -1       248 2.11171E+01-8.18657E-03 3.53727E-03-8.77800E-01 1.31496E-13-2.61216E-13
 -1       249 2.19175E+01-7.48251E-02 3.82654E-03-7.43030E-01 1.97491E-13-3.79563E-13
 -1       250 2.24962E+01-9.96251E-02 2.27462E-03-4.77580E-01-1.02605E-14-5.38488E-13
 -1       251 2.27874E+01-9.13759E-02 3.25296E-04-1.92180E-01-9.47727E-14-5.92287E-13
 -1       252 2.28128E+01-6.68768E-02-1.04294E-03 4.20241E-02-6.17392E-14-5.10013E-13
 -1       253 2.26398E+01-3.97805E-02-1.57967E-03 1.98731E-01-3.90822E-14-3.66589E-13
 -1       254 2.23449E+01-1.73590E-02-1.47384E-03 2.81826E-01 2.01451E-13-2.83387E-13
 -1       255 2.19943E+01-1.77811E-03-1.04832E-03 3.08595E-01-7.66344E-14-3.77597E-13
 -1       256 2.16364E+01 7.54486E-03-5.58889E-04 2.98440E-01-4.83750E-14-3.41376E-13
 -1       257 2.13018E+01 1.21568E-02-1.45708E-04 2.67589E-01 5.76254E-14-4.27608E-13
 -1       258 2.10070E+01 1.36382E-02 1.44129E-04 2.27683E-01 3.97767E-15-3.71869E-13
 -1       259 2.07583E+01 1.32521E-02 3.15820E-04 1.86180E-01 3.58304E-14-4.80884E-13
 -1       260 2.05557E+01 1.18877E-02 3.95271E-04 1.47358E-01-2.02910E-13-3.35482E-13
 -1       261 2.03954E+01 1.01191E-02 4.11494E-04 1.13317E-01-1.60357E-13-4.05051E-13
 -1       262 2.02720E+01 8.28946E-03 3.89054E-04 8.47765E-02 1.44875E-13-4.67808E-13
 -1       263 2.01794E+01 6.58635E-03 3.46099E-04 6.16532E-02-1.44913E-13-3.14668E-13
 -1       264 2.01117E+01 5.09802E-03 2.94855E-04 4.34392E-02-7.45549E-14-2.28486E-13
 -1       265 2.00638E+01 3.85289E-03 2.42923E-04 2.94438E-02 2.05584E-13-3.16724E-13
 -1       266 2.00312E+01 2.84532E-03 1.94588E-04 1.89366E-02-1.10121E-14-1.92411E-13
 -1       267 2.00099E+01 2.05188E-03 1.51895E-04 1.12280E-02 1.45574E-14-3.53176E-14
 -1       268 1.99972E+01 1.44124E-03 1.15437E-04 5.70960E-03 7.87519E-14-1.80417E-13
 -1       269 1.99905E+01 9.79789E-04 8.49085E-05 1.87104E-03-1.82381E-13-1.29674E-13
 -1       270 1.99881E+01 6.34218E-04 5.95948E-05-6.95971E-04-2.02160E-13 1.16863E-13
 -1       271 1.99884E+01 3.70390E-04 3.90357E-05-2.29867E-03 1.54352E-13-2.60026E-13
 -1       272 1.99905E+01 1.54872E-04 2.41840E-05-3.13934E-03 1.74520E-13-2.15096E-13
 -1       273 1.99934E+01-4.63454E-05 1.84547E-05-3.32206E-03-4.40160E-14-2.48645E-13
 -1       274 1.99963E+01-3.00685E-04 2.08412E-05-2.83310E-03-2.41869E-14-2.26919E-13
 -1       275 1.99986E+01-6.22376E-04 2.49346E-05-1.59682E-03 1.41674E-13-2.24789E-13
 -1       276 1.99992E+01-2.14770E-03-3.18914E-08-2.42800E-03 7.96387E-14 3.65552E-13
 -1       277 1.99996E+01-4.47063E-03-3.02798E-06-3.22220E-03 6.32783E-14-3.71961E-14
 -1       278 1.99999E+01-6.96132E-03-2.36929E-06-3.21132E-03-2.16652E-13-4.57626E-13
 -1       279 2.00001E+01-9.25180E-03 2.68447E-06-2.73201E-03-3.33041E-13 3.09472E-14
 -1       280 2.00001E+01-1.10795E-02 6.94611E-06-2.06536E-03-9.02550E-14-3.14361E-14
 -1       281 2.00001E+01-1.24143E-02 9.91183E-06-1.35556E-03-2.68595E-13-7.01036E-14
 -1       282 2.00001E+01-1.32117E-02 1.12590E-05-6.80246E-04-1.05959E-13-3.51332E-13
 -1       283 2.00001E+01-1.34957E-02 1.16781E-05-3.61856E-05 2.37731E-13 1.13212E-13
 -1       284 2.00001E+01-1.32732E-02 1.14012E-05 6.16938E-04-1.34637E-13-8.89443E-14
 -1       285 2.00001E+01-1.25229E-02 1.00820E-05 1.31775E-03-3.94947E-13-2.65831E-13
 -1       286 2.00001E+01-1.12384E-02 7.20775E-06 2.05107E-03-1.20369E-13-6.27273E-14
 -1       287 2.00001E+01-9.37547E-03 2.82376E-06 2.76364E-03-2.67162E-13 2.00503E-13
 -1       288 1.99999E+01-7.05765E-03-3.61813E-06 3.27208E-03-2.51268E-14-1.04380E-13
 -1       289 1.99996E+01-4.48557E-03-4.53856E-06 3.20897E-03-1.49843E-13 2.62846E-14
 -1       290 1.99990E+01-2.40639E-03-1.15219E-05 3.37543E-03-3.40062E-14-5.59737E-14
 -1       291-7.54088E-01-1.02539E+01-8.97857E-01 1.40793E+00-2.47580E-14 1.34578E-12
 -1       292 3.00629E+00-8.19506E+00-7.44004E-01 3.73345E+00 5.36599E-13 8.34569E-13
 -1       293 9.52978E+00-4.57678E+00-4.85041E-01 5.65115E+00 1.06548E-12 1.16039E-12
 -1       294 1.93383E+01-8.10317E-01-7.03825E-02 7.24651E+00 1.06615E-12 1.31478E-12
 -1       295 2.97477E+01 2.52584E+00 3.22617E-01 7.28617E+00 9.95357E-13 1.14850E-12
 -1       296 3.79142E+01 4.80591E+00 4.87104E-01 4.09550E+00 9.18515E-13 6.22724E-13
 -1       297 4.54151E+01 6.46383E+00 9.61198E-01 2.62875E+00 9.92401E-13 4.64975E-13
 -1       298 4.48763E+01 6.99538E+00 8.58219E-01-1.14846E+00 1.21575E-12-2.87881E-13
 -1       299 4.02545E+01 5.70934E+00 6.19841E-01-3.95440E+00 1.34415E-12-9.10799E-13
 -1       300 3.28680E+01 3.16966E+00 3.98007E-01-6.49704E+00 1.42516E-12-1.37354E-12
 -1       301 2.30323E+01-1.02789E+00 2.33821E-02-6.89537E+00 1.46061E-12-1.22491E-12
 -1       302 1.22619E+01-4.48939E+00-3.06388E-01-6.50587E+00 1.34948E-12-1.39470E-12
 -1       303 3.54986E+00-7.98376E+00-7.34008E-01-3.88718E+00 1.28170E-12-1.36594E-12
 -1       304-3.66216E-02-8.66337E+00-6.05311E-01-2.20767E+00 3.59532E-13-1.35233E-12
 -1       305-1.00188E+00-1.05795E+01-9.23007E-01 7.88829E-01-2.13760E-13-1.25225E-12
 -1       306 2.12091E+00-9.12526E+00-8.87849E-01 2.98480E+00-1.07131E-12-1.34492E-12
 -1       307 8.99344E+00-5.29374E+00-5.68484E-01 5.30789E+00-1.49197E-12-1.59588E-12
 -1       308 1.99470E+01-1.67239E+00-1.04701E-01 6.95334E+00-1.55534E-12-1.55062E-12
 -1       309 3.03278E+01 2.51911E+00 3.53809E-01 7.45278E+00-1.52195E-12-1.93862E-12
 -1       310 3.94818E+01 4.86434E+00 6.24709E-01 4.45342E+00-1.23695E-12-1.30160E-12
 -1       311 4.59308E+01 6.71167E+00 9.82479E-01 2.03880E+00-1.13781E-12-1.01026E-12
 -1       312 4.71547E+01 6.62046E+00 1.06392E+00-1.33747E+00-9.77080E-13-3.32290E-13
 -1       313 4.18749E+01 5.66341E+00 7.51395E-01-3.78526E+00-9.66352E-13 2.01950E-13
 -1       314 3.47084E+01 3.37601E+00 4.92474E-01-6.35778E+00-8.39266E-13 7.29250E-13
 -1       315 2.51316E+01 9.01428E-01 1.32614E-01-7.41076E+00-1.19513E-12 7.74741E-13
 -1       316 1.55628E+01-2.45569E+00-2.80082E-01-6.56082E+00-1.37443E-12 8.97588E-13
 -1       317 7.43222E+00-6.05737E+00-6.25696E-01-4.82588E+00-1.38534E-12 9.52648E-13
 -1       318 1.73105E+00-9.24328E+00-8.80852E-01-2.71635E+00-1.11441E-12 1.04024E-12
 -1       319-9.87746E-01-1.09595E+01-9.90076E-01-7.40158E-01-5.34357E-13 1.08108E-12
 -1       320 2.03093E+01 3.06016E+00-1.76646E-02-1.82323E+00-5.34015E-13-2.58147E-13
 -1       321 2.09763E+01 2.20912E+00-1.68652E-02-2.10764E+00-5.67620E-13 1.18711E-13
 -1       322 1.95306E+01 3.84515E+00-1.46940E-02-1.06387E+00-3.49894E-13-6.10405E-13
 -1       323 1.93009E+01 4.04564E+00-1.23224E-02-7.26370E-01-2.54155E-13-6.73502E-13
 -1       324 1.91523E+01 4.16619E+00-1.10248E-02-4.23153E-01-1.54476E-13-7.10612E-13
 -1       325 1.90821E+01 4.21979E+00-1.04644E-02-1.40283E-01-5.50765E-14-7.28444E-13
 -1       326 1.90885E+01 4.21265E+00-1.05142E-02 1.37708E-01 4.45879E-14-7.31218E-13
 -1       327 1.91701E+01 4.14576E+00-1.11602E-02 4.26012E-01 1.37415E-13-7.23766E-13
 -1       328 1.93226E+01 4.01754E+00-1.25091E-02 7.33006E-01 2.29535E-13-6.85629E-13
 -1       329 1.95544E+01 3.81008E+00-1.48102E-02 1.07934E+00 3.52103E-13-5.80820E-13
 -1       330 1.98794E+01 3.49122E+00-1.83735E-02 1.46152E+00 4.62273E-13-4.52469E-13
 -1       331 2.03431E+01 2.98765E+00-2.23395E-02 1.85327E+00 5.53263E-13-2.52911E-13
 -1       332 2.09604E+01 2.12618E+00-2.95663E-02 2.08242E+00 5.77124E-13 1.59638E-13
 -1       333 2.13147E+01 1.17787E+00-2.35210E-02 1.72536E+00 5.20224E-13 5.42685E-13
 -1       334 2.07161E+01 4.99826E-01 8.96630E-03 7.16651E-01 4.17982E-13 3.91023E-13
 -1       335 2.07978E+01 7.12274E-01 1.32403E-02-7.39152E-01-4.41776E-13 1.71065E-13
 -1       336 2.05051E+01 4.03488E-01 7.95024E-03-1.10211E-01-3.44365E-13 1.13920E-13
 -1       337 2.04134E+01 2.70466E-01 5.18775E-03 2.87708E-01-2.64613E-13 6.24516E-14
 -1       338 2.04797E+01 2.09893E-01 3.18391E-03 5.74181E-01-1.78525E-13 2.37800E-14
 -1       339 2.06716E+01 1.82148E-01 2.23034E-03 8.04324E-01-1.41465E-13-7.20531E-15
 -1       340 2.09650E+01 1.64826E-01 1.67510E-03 1.00327E+00-1.08558E-13-5.86926E-14
 -1       341 2.13440E+01 1.38820E-01 1.03875E-03 1.17511E+00-5.79389E-14-4.65433E-14
 -1       342 2.17973E+01 8.14047E-02-1.57577E-05 1.30341E+00-3.77296E-14-3.10919E-14
 -1       343 2.23166E+01-3.61796E-02-1.72971E-03 1.34740E+00-4.28539E-14-2.48340E-14
 -1       344 2.28921E+01-2.43806E-01-4.11772E-03 1.23834E+00-1.34262E-14-9.19967E-15
 -1       345 2.35051E+01-5.52044E-01-6.91140E-03 8.84538E-01 3.22932E-14-2.32207E-14
 -1       346 2.41061E+01-9.04426E-01-8.91196E-03 2.03074E-01 5.69609E-14 3.29986E-14
 -1       347 2.45795E+01-1.11617E+00-9.43764E-03-7.96130E-01 3.65328E-14 9.90164E-14
 -1       348 2.47354E+01-8.71610E-01-7.65353E-03-1.86181E+00-8.31652E-14 1.96192E-13
 -1       349 2.44172E+01 4.19497E-02-1.28515E-02-2.41894E+00-8.67266E-14 2.08605E-13
 -1       350 2.38037E+01 1.31625E+00-1.71364E-02-1.81763E+00-2.19750E-13 3.08889E-14
 -1       351 2.34392E+01 2.01745E+00-2.28429E-02-1.14430E-01-3.33586E-13-2.02612E-13
 -1       352 2.37482E+01 1.47911E+00-1.82917E-02 1.70313E+00-4.08007E-13-3.64801E-13
 -1       353 2.43992E+01 2.18416E-01-9.78768E-03 2.47949E+00-7.89132E-14-4.67670E-13
 -1       354 2.48029E+01-7.79213E-01-9.01894E-03 2.06459E+00 1.74560E-13-5.25179E-13
 -1       355 2.47413E+01-1.10653E+00-9.59953E-03 1.03599E+00 2.57789E-13-3.70740E-13
 -1       356 2.43359E+01-9.34199E-01-8.69621E-03 1.89870E-02 1.41934E-13-2.39681E-13
 -1       357 2.37841E+01-5.84767E-01-6.87086E-03-6.96291E-01 1.57865E-13-3.15700E-13
 -1       358 2.32112E+01-2.62986E-01-4.41417E-03-1.07508E+00-3.43213E-14-4.41306E-13
 -1       359 2.26740E+01-4.14473E-02-1.89963E-03-1.19582E+00-6.36536E-14-3.33656E-13
 -1       360 2.21910E+01 8.33873E-02-1.00753E-04-1.15552E+00 1.64183E-15-3.36572E-13
 -1       361 2.17672E+01 1.39197E-01 9.31899E-04-1.03147E+00 8.45758E-14-5.08064E-13
 -1       362 2.14028E+01 1.53215E-01 1.39079E-03-8.75082E-01-3.17996E-15-4.44196E-13
 -1       363 2.10956E+01 1.45156E-01 1.48950E-03-7.16425E-01-4.58487E-14-3.06752E-13
 -1       364 2.08415E+01 1.27302E-01 1.39360E-03-5.70954E-01 2.49394E-14-1.69361E-13
 -1       365 2.06353E+01 1.06555E-01 1.21154E-03-4.45135E-01-6.24612E-14-1.52652E-15
 -1       366 2.04710E+01 8.64319E-02 1.00609E-03-3.40379E-01-5.36859E-15-2.19150E-13
 -1       367 2.03423E+01 6.85011E-02 8.09641E-04-2.55503E-01 3.85193E-14-3.50986E-13
 -1       368 2.02432E+01 5.32807E-02 6.36429E-04-1.88177E-01 4.08917E-14-3.23557E-13
 -1       369 2.01683E+01 4.07625E-02 4.90791E-04-1.35720E-01-9.77249E-14-1.53957E-13
 -1       370 2.01127E+01 3.06997E-02 3.72108E-04-9.55037E-02 2.97240E-13-1.05108E-13
 -1       371 2.00723E+01 2.27575E-02 2.77569E-04-6.51515E-02 3.01089E-13-9.99615E-14
 -1       372 2.00438E+01 1.65878E-02 2.03604E-04-4.26068E-02 7.56229E-14 5.98564E-14
 -1       373 2.00242E+01 1.18639E-02 1.46595E-04-2.61466E-02-1.56667E-13 2.36948E-13
 -1       374 2.00113E+01 8.29304E-03 1.03163E-04-1.43635E-02 1.18097E-13 3.42909E-13
 -1       375 2.00034E+01 5.61872E-03 7.02888E-05-6.13576E-03 2.65311E-13 1.17026E-13
 -1       376 1.99989E+01 3.61633E-03 4.52930E-05-5.95375E-04 1.95593E-13 3.72305E-13
 -1       377 1.99970E+01 2.08444E-03 2.58122E-05 2.90108E-03 9.73798E-14 3.35237E-13
 -1       378 1.99965E+01 8.36481E-04 1.09083E-05 4.79346E-03-2.70247E-13 4.49056E-14
 -1       379 1.99971E+01-3.20043E-04-2.31050E-06 5.36250E-03-1.71320E-13-1.02103E-13
 -1       380 1.99978E+01-1.35518E-03-1.78634E-05 4.81536E-03-9.20595E-14-1.72701E-13
 -1       381 2.03472E+01 2.54127E-01 1.12276E-02 1.56336E-01 3.09052E-13 2.75351E-13
 -1       382 2.02202E+01 1.52081E-01 6.73826E-03-1.69732E-01 2.22254E-13 1.67012E-13
 -1       383 2.02792E+01 1.00892E-01 3.43333E-03-3.77327E-01 1.70008E-13 8.03749E-14
 -1       384 2.04675E+01 6.94980E-02 1.72499E-03-5.17382E-01 1.02151E-13-1.11407E-14
 -1       385 2.07451E+01 4.25372E-02 7.17329E-04-6.09726E-01 1.13099E-13-5.13948E-14
 -1       386 2.10806E+01 1.00118E-02-1.61282E-04-6.55744E-01 1.52156E-13-2.46853E-14
 -1       387 2.14434E+01-3.60069E-02-1.14243E-03-6.43830E-01 1.28392E-13-8.13777E-14
 -1       388 2.17989E+01-1.00875E-01-2.24649E-03-5.52882E-01 4.14810E-14-2.72770E-14
 -1       389 2.21040E+01-1.83833E-01-3.31191E-03-3.58276E-01 8.21984E-14 6.89877E-14
 -1       390 2.23061E+01-2.71589E-01-4.00345E-03-4.41627E-02-8.97134E-15 6.24579E-14
 -1       391 2.23472E+01-3.31504E-01-3.90917E-03 3.75218E-01 7.91444E-14-3.71084E-15
 -1       392 2.21790E+01-3.12905E-01-2.77862E-03 8.29154E-01 3.31857E-14 7.09795E-14
 -1       393 2.17936E+01-1.68850E-01-6.33073E-04 1.17748E+00 5.23214E-15-6.69590E-14
 -1       394 2.12627E+01 9.91624E-02 1.45005E-03 1.24200E+00 4.08886E-14 1.31973E-14
 -1       395 2.07562E+01 4.01216E-01 3.16521E-03 9.02077E-01 1.26794E-13 8.20084E-14
 -1       396 2.04875E+01 5.82661E-01 3.80120E-03 2.12982E-01 1.35470E-13 8.27444E-15
 -1       397 2.05920E+01 5.36091E-01 5.02999E-03-5.74115E-01-2.91694E-15-2.05289E-13
 -1       398 2.10281E+01 2.89147E-01 4.64158E-03-1.14348E+00 1.80112E-14-3.01921E-13
 -1       399 2.16080E+01-1.31991E-02 2.78679E-03-1.31733E+00 7.44578E-14-3.42979E-13
 -1       400 2.21259E+01-2.35387E-01-6.28353E-04-1.12355E+00 2.71373E-13-3.81797E-13
 -1       401 2.24560E+01-3.23519E-01-3.31155E-03-7.21930E-01 8.67665E-14-5.22323E-13
 -1       402 2.25694E+01-3.02312E-01-4.42590E-03-2.83456E-01-1.56912E-13-5.66508E-13
 -1       403 2.24989E+01-2.25029E-01-4.16144E-03 8.10336E-02-7.13273E-14-5.73613E-13
 -1       404 2.23001E+01-1.36523E-01-3.14661E-03 3.28822E-01-1.51522E-13-5.98998E-13
 -1       405 2.20277E+01-6.16424E-02-1.92000E-03 4.63484E-01 3.61231E-14-3.06672E-13
 -1       406 2.17258E+01-8.54072E-03-8.36176E-04 5.09831E-01-2.22208E-14 6.56474E-14
 -1       407 2.14256E+01 2.39684E-02-3.79855E-05 4.96853E-01-1.32061E-13 4.99543E-14
 -1       408 2.11468E+01 4.06016E-02 4.63217E-04 4.49492E-01 1.16270E-13 2.01977E-13
 -1       409 2.09004E+01 4.64524E-02 7.22171E-04 3.86134E-01 5.64010E-14-3.31280E-14
 -1       410 2.06905E+01 4.57170E-02 8.10482E-04 3.18920E-01 4.18715E-14-1.40453E-13
 -1       411 2.05172E+01 4.14208E-02 7.92039E-04 2.55072E-01-2.54883E-13-1.62188E-13
 -1       412 2.03780E+01 3.55602E-02 7.15141E-04 1.98338E-01 2.47942E-14-2.09721E-13
 -1       413 2.02689E+01 2.93566E-02 6.12592E-04 1.50193E-01 8.12219E-14-1.58063E-13
 -1       414 2.01853E+01 2.34962E-02 5.04802E-04 1.10737E-01-1.65297E-13 6.11832E-14
 -1       415 2.01228E+01 1.83175E-02 4.03330E-04 7.93074E-02-1.38161E-13 7.97862E-14
 -1       416 2.00772E+01 1.39443E-02 3.13863E-04 5.48844E-02 1.48007E-13 1.30924E-13
 -1       417 2.00450E+01 1.03755E-02 2.38417E-04 3.63344E-02-2.50799E-13 7.79929E-14
 -1       418 2.00231E+01 7.54209E-03 1.76846E-04 2.25566E-02 3.73926E-14 2.65356E-13
 -1       419 2.00089E+01 5.34321E-03 1.27805E-04 1.25603E-02 1.03068E-14 3.06379E-13
 -1       420 2.00003E+01 3.66658E-03 8.93303E-05 5.50112E-03-3.07944E-14 4.17072E-13
 -1       421 1.99958E+01 2.39943E-03 5.91242E-05 6.92890E-04-2.37968E-13 1.20631E-13
 -1       422 1.99942E+01 1.42867E-03 3.54887E-05-2.39402E-03 1.93762E-13 1.15624E-13
 -1       423 1.99943E+01 6.41106E-04 1.75632E-05-4.12383E-03 6.76210E-14-8.97624E-14
 -1       424 1.99955E+01-6.51135E-05 4.33164E-06-4.71580E-03 9.23211E-14 2.32823E-14
 -1       425 1.99971E+01-8.33655E-04-3.63146E-06-4.26598E-03-1.32970E-13 6.60025E-14
 -1       426 1.99982E+01-1.47664E-03-1.05660E-05-3.53259E-03 4.73894E-14 1.76312E-13
 -1       427 2.00006E+01-4.27486E-03 3.48535E-06-4.39440E-03-6.13978E-14-3.37746E-13
 -1       428 1.99999E+01-3.30082E-03-4.63467E-06-4.86883E-03-2.31480E-13-3.67082E-13
 -1       429 1.99991E+01-2.53528E-03-1.44843E-05-4.56390E-03-1.11409E-13-3.00981E-13
 -1       430 2.00008E+01-4.97418E-03 7.88965E-06-3.48951E-03-5.96092E-14-1.71259E-14
 -1       431 2.00009E+01-5.42463E-03 1.11114E-05-2.44991E-03-7.23226E-14-1.33625E-13
 -1       432 2.00008E+01-5.67919E-03 1.17972E-05-1.44609E-03 7.28269E-14 1.32169E-14
 -1       433 2.00008E+01-5.80115E-03 1.19202E-05-5.14433E-04-9.71454E-15 3.93549E-14
 -1       434 2.00008E+01-5.82930E-03 1.19933E-05 3.93619E-04-1.41272E-13-2.81297E-13
 -1       435 2.00009E+01-5.75827E-03 1.19357E-05 1.35420E-03-1.92656E-13-3.98778E-13
 -1       436 2.00009E+01-5.54414E-03 1.11233E-05 2.39056E-03-6.02985E-14-6.03977E-14
 -1       437 2.00009E+01-5.11169E-03 8.60979E-06 3.49106E-03-6.71510E-14 2.79394E-13
 -1       438 2.00006E+01-4.39295E-03 3.59938E-06 4.46479E-03-2.34194E-14 3.95902E-15
 -1       439 1.99999E+01-3.42237E-03-8.83075E-06 5.03833E-03-3.27019E-14-1.38818E-13
 -1       440 1.05060E+01-5.57024E+00-6.14859E-02 6.94938E+00-8.85958E-14 7.80133E-13
 -1       441 1.22580E+00-4.21225E+00-3.97678E-02 2.78405E-01-3.04635E-14 1.34626E-12
 -1       442 4.30844E+00-4.25996E+00 1.38307E-02 4.74702E+00-3.92603E-13 9.62730E-13
 -1       443 1.91725E+01-5.28665E+00-1.59623E-02 6.70666E+00 1.93595E-14 4.60153E-13
 -1       444 2.69578E+01-2.82674E+00 1.16960E-02 4.36649E+00 2.54768E-13 2.73059E-13
 -1       445 1.98658E+01 3.53120E+00-1.70884E-02-1.45198E+00-4.52842E-13-4.93104E-13
 -1       446 3.38266E+01 6.21051E+00-4.68748E-02-4.83114E-01 8.67820E-13-2.35492E-13
 -1       447 3.44983E+01 8.06442E+00-2.51546E-02-1.81480E-01 1.19380E-12-2.54505E-13
 -1       448 3.43818E+01 6.90641E+00-1.86467E-02 4.08978E-01 1.37695E-12-8.94215E-14
 -1       449 3.27881E+01 2.47976E+00-2.35081E-02-4.38288E-01 9.57942E-13-6.36019E-14
 -1       450 2.94586E+01-1.65524E+00 2.14444E-02-2.92301E+00 6.59087E-13-2.11983E-13
 -1       451 2.16157E+01-5.42992E+00 4.60361E-03-6.14475E+00 1.96565E-13-3.55757E-13
 -1       452 1.18080E+01-5.49212E+00-6.74618E-03-7.21912E+00 5.66214E-15-1.00524E-12
 -1       453 5.95532E+00-4.21707E+00 7.21777E-02-5.51749E+00-1.38570E-13-1.22831E-12
 -1       454 1.20979E+00-4.32116E+00-4.24881E-02-2.78942E-01-6.73806E-14-1.42406E-12
 -1       455 4.03607E+00-4.19735E+00 2.26602E-02 4.25939E+00 3.40561E-14-1.34846E-12
 -1       456 1.02699E+01-5.63991E+00-2.78668E-02 6.74660E+00-1.24137E-13-1.05076E-12
 -1       457 1.88442E+01-5.74027E+00-4.73021E-02 6.60204E+00-2.57017E-13-9.20514E-13
 -1       458 2.80327E+01-3.18147E+00 1.17316E-02 3.79936E+00-6.64843E-13-6.46996E-13
 -1       459 3.28168E+01 6.81477E-01 1.28716E-02 1.04382E+00-8.16160E-13-3.64181E-13
 -1       460 3.44742E+01 5.87992E+00-1.26654E-02-9.10137E-01-1.09980E-12-2.25819E-13
 -1       461 3.50225E+01 7.91680E+00-2.61961E-02-5.79665E-02-1.16485E-12-3.32042E-13
 -1       462 3.51301E+01 6.93076E+00 4.61122E-03 8.00423E-01-1.20631E-12-4.43062E-13
 -1       463 3.38074E+01 2.54423E+00-1.14286E-02 1.22498E-01-6.16840E-13-2.76071E-13
 -1       464 3.03568E+01-1.76905E+00-7.21757E-03-2.27853E+00-4.58935E-13-9.05109E-14
 -1       465 2.43453E+01-4.40499E+00-2.26382E-02-5.17285E+00-4.48391E-13 1.14075E-14
 -1       466 1.69257E+01-5.78223E+00-2.43934E-02-6.77212E+00-7.35523E-14 1.47505E-13
 -1       467 8.67676E+00-5.60746E+00-6.85317E-02-6.33668E+00-1.18475E-13 4.78895E-13
 -1       468 2.82734E+00-5.16279E+00-1.05966E-01-3.61464E+00-1.54363E-13 1.10967E-12
 -1       469 3.17179E+01 7.58178E-01-1.34548E-02 1.33899E+00 4.01859E-13-2.32731E-14
 -1       470 3.07301E+01 2.93866E+00-1.22399E-01-1.50553E+00 5.60607E-13-6.12337E-13
 -1       471 5.17259E+00-2.03343E+00 1.64688E-01-3.27780E+00-2.49776E-13-1.32334E-12
 -1       472 2.06792E+01 8.86903E-01 4.17600E-03 6.50962E-01 4.24149E-13-1.97536E-14
 -1       473 1.94537E+01 3.42743E+00-4.67048E-03-4.41000E-01-1.97153E-13-6.28916E-13
 -1       474 1.96648E+01 3.20090E+00-5.20782E-03-6.73270E-01-2.83060E-13-5.68352E-13
 -1       475 1.92958E+01 3.58369E+00-4.24432E-03-9.86642E-03-7.67621E-15-6.61459E-13
 -1       476 1.93489E+01 3.52908E+00-4.37586E-03 2.06604E-01 8.81779E-14-6.55698E-13
 -1       477 1.94828E+01 3.38964E+00-4.80657E-03 4.32637E-01 1.72820E-13-6.41937E-13
 -1       478 1.96975E+01 3.15254E+00-5.53163E-03 6.79639E-01 2.77813E-13-5.50633E-13
 -1       479 1.99870E+01 2.79931E+00-6.30461E-03 9.34962E-01 3.75908E-13-4.40072E-13
 -1       480 2.03595E+01 2.28559E+00-5.62456E-03 1.17092E+00 4.70186E-13-3.04023E-13
 -1       481 2.05133E+01 5.36496E-01 5.40164E-03 8.12209E-02 3.23728E-13-6.62345E-14
 -1       482 2.06215E+01 1.08904E+00 3.02662E-03-5.41972E-01-4.22858E-13-1.13019E-13
 -1       483 2.86252E+01-2.61191E+00-6.71198E-02 1.12527E+00 1.97310E-13-2.93356E-13
 -1       484 2.05272E+01 7.14383E-01 2.74250E-03 2.97955E-02-3.15729E-13-1.27313E-13
 -1       485 2.04786E+01 5.23644E-01 1.62369E-03 4.59481E-01-2.12261E-13-9.47566E-14
 -1       486 2.04991E+01 4.28009E-01 1.08850E-03 7.98309E-01-1.79371E-13-8.83737E-14
 -1       487 2.05867E+01 3.76142E-01 8.35547E-04 1.08359E+00-1.62414E-13-1.02613E-13
 -1       488 2.07368E+01 3.31340E-01 6.45860E-04 1.33412E+00-1.17777E-13-8.83669E-14
 -1       489 2.09516E+01 2.55959E-01 3.39944E-04 1.55078E+00-5.28893E-14-1.72151E-13
 -1       490 2.12465E+01 1.03465E-01-2.19532E-04 1.71422E+00-4.91627E-14-1.84782E-13
 -1       491 2.16564E+01-1.82190E-01-1.14996E-03 1.77930E+00-1.92633E-14-1.01129E-13
 -1       492 2.22378E+01-6.50923E-01-2.42099E-03 1.66809E+00 5.51597E-14-1.47475E-14
 -1       493 2.30579E+01-1.30100E+00-4.28806E-03 1.26520E+00 1.11941E-13 4.48803E-14
 -1       494 2.41232E+01-1.96256E+00-5.92028E-03 4.41568E-01 1.11506E-13 6.06373E-14
 -1       495 2.52811E+01-2.18537E+00-1.06303E-02-8.50458E-01 1.03639E-13 2.83620E-13
 -1       496 2.60069E+01-1.31111E+00-1.91592E-02-2.18998E+00-2.26819E-14 5.11721E-13
 -1       497 2.61192E+01 1.07847E+00-4.87744E-02-2.79862E+00-3.30376E-13 4.80962E-13
 -1       498 2.53807E+01 3.61809E+00-1.53070E-01-1.42300E+00-5.54768E-13 1.05656E-13
 -1       499 2.54765E+01 3.69687E+00-1.29119E-01 1.18451E+00-6.18509E-13-2.46326E-13
 -1       500 2.59594E+01 1.52429E+00-9.97031E-02 2.81921E+00-3.98421E-13-4.87476E-13
 -1       501 2.62091E+01-9.84978E-01-2.33645E-02 2.52291E+00 2.90544E-14-6.76148E-13
 -1       502 2.54851E+01-2.11619E+00-1.42210E-02 1.15689E+00 3.47704E-13-5.81445E-13
 -1       503 2.43620E+01-2.00292E+00-4.92925E-03-1.71791E-01 3.03277E-13-5.47299E-13
 -1       504 2.32903E+01-1.36960E+00-3.36484E-03-1.04703E+00 1.52353E-13-4.03888E-13
 -1       505 2.24521E+01-6.99533E-01-2.93398E-03-1.48460E+00 1.06050E-14-4.23962E-13
 -1       506 2.18588E+01-2.03039E-01-1.43529E-03-1.61070E+00-7.71119E-14-3.50689E-13
 -1       507 2.14441E+01 9.90007E-02-3.11384E-04-1.55170E+00-2.27550E-14-3.20367E-13
 -1       508 2.11442E+01 2.51315E-01 3.18885E-04-1.39594E+00-1.15569E-13-3.48748E-13
 -1       509 2.09155E+01 3.06602E-01 6.04709E-04-1.20039E+00 1.69626E-14-3.58089E-13
 -1       510 2.07327E+01 3.06438E-01 6.85290E-04-9.99043E-01 3.38877E-14-2.63068E-13
 -1       511 2.05825E+01 2.78533E-01 6.56281E-04-8.10561E-01 4.40376E-14-2.00005E-13
 -1       512 2.04578E+01 2.39543E-01 5.77541E-04-6.43839E-01-7.79723E-14-4.04348E-13
 -1       513 2.03548E+01 1.98661E-01 4.83119E-04-5.01882E-01-9.69595E-14-3.53482E-13
 -1       514 2.02705E+01 1.60497E-01 3.90680E-04-3.84351E-01-1.74993E-14-1.53110E-13
 -1       515 2.02026E+01 1.27026E-01 3.08207E-04-2.89174E-01 3.96648E-14-1.95883E-13
 -1       516 2.01488E+01 9.87919E-02 2.38387E-04-2.13524E-01 1.41814E-13-1.03273E-13
 -1       517 2.01069E+01 7.56139E-02 1.81235E-04-1.54394E-01 1.89821E-13-1.59332E-14
 -1       518 2.00750E+01 5.69796E-02 1.35563E-04-1.08899E-01 1.30696E-13-1.42912E-13
 -1       519 2.00511E+01 4.22569E-02 9.97458E-05-7.44382E-02 2.84732E-13-1.36857E-13
 -1       520 2.00335E+01 3.08022E-02 7.20969E-05-4.87548E-02 8.79545E-14-5.76167E-14
 -1       521 2.00211E+01 2.20119E-02 5.10354E-05-2.99491E-02 1.28091E-13 3.24339E-13
 -1       522 2.00124E+01 1.53419E-02 3.51058E-05-1.64636E-02-1.24663E-14 3.53581E-13
 -1       523 2.00067E+01 1.03108E-02 2.31221E-05-7.05459E-03 1.74965E-13 1.78957E-13
 -1       524 2.00031E+01 6.49404E-03 1.40744E-05-7.58884E-04 1.31953E-13 2.13284E-13
 -1       525 2.00010E+01 3.50404E-03 7.52674E-06 3.13438E-03-1.61247E-13 5.03194E-13
 -1       526 1.99999E+01 9.89956E-04 2.73503E-06 5.11983E-03-4.72621E-13 4.96432E-13
 -1       527 2.04788E+01 2.39740E-01 1.40109E-03-5.70110E-01 1.88091E-13-1.41616E-13
 -1       528 2.05969E+01 1.60985E-01 6.70286E-04-7.57789E-01 1.33698E-13-1.70360E-13
 -1       529 2.07853E+01 8.37780E-02 1.46634E-04-8.79909E-01 1.29721E-13-1.70313E-13
 -1       530 2.10317E+01-1.34802E-02-4.15688E-04-9.32752E-01 1.00600E-13-6.26378E-14
 -1       531 2.13256E+01-1.47469E-01-1.11187E-03-8.97865E-01 5.52824E-14-9.57513E-16
 -1       532 2.16553E+01-3.25644E-01-1.92653E-03-7.45992E-01 1.13598E-14 4.89214E-15
 -1       533 2.20014E+01-5.35503E-01-2.69186E-03-4.45522E-01 2.92322E-14 2.85966E-14
 -1       534 2.23263E+01-7.27796E-01-3.06857E-03 1.96518E-02 1.72414E-14 8.06563E-14
 -1       535 2.25648E+01-8.04222E-01-2.69400E-03 6.17061E-01 1.29223E-14 7.39181E-14
 -1       536 2.26300E+01-6.35503E-01-1.54633E-03 1.22360E+00 5.55389E-14 1.51749E-13
 -1       537 2.24596E+01-1.40092E-01 2.51411E-04 1.61047E+00 3.10035E-14 1.51044E-13
 -1       538 2.20977E+01 5.91588E-01 5.45853E-05 1.50774E+00 4.13053E-14 6.73661E-14
 -1       539 2.17493E+01 1.23518E+00-9.53174E-05 7.99862E-01 1.71691E-13 1.51047E-13
 -1       540 2.16572E+01 1.41355E+00-5.73546E-04-2.77118E-01 1.84130E-13 7.01175E-14
 -1       541 2.19065E+01 9.93674E-01-4.02152E-04-1.25098E+00 9.02622E-14-6.56572E-14
 -1       542 2.23159E+01 2.69130E-01 2.40643E-03-1.70176E+00 2.36203E-13-2.90716E-13
 -1       543 2.26313E+01-3.81561E-01 1.42293E-04-1.57133E+00 1.65592E-13-5.40393E-13
 -1       544 2.27193E+01-7.27056E-01-2.16675E-03-1.06819E+00 1.69952E-13-2.38592E-13
 -1       545 2.25935E+01-7.68125E-01-3.20433E-03-4.61425E-01 5.06785E-14-2.61297E-13
 -1       546 2.23366E+01-6.23689E-01-3.06828E-03 6.69834E-02-8.98273E-14-3.96504E-13
 -1       547 2.20265E+01-4.14696E-01-2.39549E-03 4.40948E-01-1.66328E-13-2.93216E-13
 -1       548 2.17139E+01-2.18800E-01-1.52805E-03 6.56820E-01-1.11571E-13-3.40850E-13
 -1       549 2.14233E+01-6.90214E-02-7.43552E-04 7.44889E-01-2.63195E-13-2.90420E-13
 -1       550 2.11641E+01 2.99771E-02-1.45784E-04 7.43569E-01-1.17073E-13-5.50875E-14
 -1       551 2.09384E+01 8.63793E-02 2.40747E-04 6.87312E-01-2.85979E-14-1.52259E-13
 -1       552 2.07454E+01 1.11854E-01 4.49692E-04 6.02574E-01 1.06759E-13-8.57938E-14
 -1       553 2.05830E+01 1.17128E-01 5.31536E-04 5.07676E-01 1.19791E-13-5.30037E-14
 -1       554 2.04486E+01 1.10506E-01 5.32299E-04 4.14203E-01-1.31809E-13 1.29220E-13
 -1       555 2.03391E+01 9.78021E-02 4.87402E-04 3.28730E-01-6.63207E-14 3.63919E-14
 -1       556 2.02514E+01 8.27875E-02 4.21239E-04 2.54387E-01 7.46205E-15-4.62337E-14
 -1       557 2.01825E+01 6.77361E-02 3.49207E-04 1.92082E-01-1.04264E-13-1.93646E-13
 -1       558 2.01292E+01 5.38962E-02 2.80190E-04 1.41392E-01-1.13758E-13-2.86451E-13
 -1       559 2.00889E+01 4.18502E-02 2.18705E-04 1.01181E-01-1.77475E-14-1.60743E-13
 -1       560 2.00591E+01 3.17699E-02 1.66524E-04 6.99980E-02-1.68563E-14 9.13238E-14
 -1       561 2.00375E+01 2.35880E-02 1.23780E-04 4.63319E-02-7.91544E-14-2.23018E-13
 -1       562 2.00223E+01 1.71093E-02 8.97007E-05 2.87556E-02-1.79692E-14-1.93633E-13
 -1       563 2.00120E+01 1.20802E-02 6.30288E-05 1.60060E-02-1.39071E-13-1.30102E-13
 -1       564 2.00055E+01 8.22768E-03 4.21999E-05 7.01955E-03-1.01617E-14 1.08835E-13
 -1       565 2.00015E+01 5.28117E-03 2.72347E-05 9.46298E-04 1.38422E-13-1.68514E-13
 -1       566 1.99995E+01 2.98327E-03 1.73369E-05-2.87734E-03 1.71747E-13 4.53352E-14
 -1       567 1.99986E+01 9.92698E-04-9.30652E-07-4.95876E-03 6.86374E-14 1.71767E-14
 -1       568 1.99987E+01-7.77142E-04-2.59685E-06-5.49375E-03 1.78520E-14-2.38661E-14
 -1       569 2.00019E+01 3.77346E-04 4.55482E-06-2.87185E-03 1.08752E-13-9.44039E-14
 -1       570 2.00018E+01 1.03552E-03 5.54714E-06-1.79535E-03 1.23335E-13 2.40540E-13
 -1       571 2.00008E+01-7.22161E-04-7.41939E-06-5.04817E-03 1.52043E-13-4.79759E-13
 -1       572 2.00017E+01-2.51441E-04 2.32612E-06-4.00886E-03 1.76541E-13-2.22820E-13
 -1       573 2.00016E+01 1.49757E-03 5.39419E-06-8.87746E-04-6.29358E-16-1.65656E-13
 -1       574 2.00015E+01 1.64442E-03 5.29605E-06-8.81783E-05-2.59917E-13-1.41363E-13
 -1       575 2.00016E+01 1.43610E-03 5.31079E-06 7.30655E-04-3.07515E-15-3.90471E-14
 -1       576 2.00018E+01 9.34303E-04 4.97056E-06 1.67574E-03 2.59067E-13-1.45518E-15
 -1       577 2.00020E+01 2.47279E-04 3.48572E-06 2.82546E-03 2.32418E-13-2.23771E-13
 -1       578 2.00018E+01-4.04695E-04 9.81019E-07 4.07720E-03-2.04706E-13-1.46900E-13
 -1       579 2.00009E+01-8.35299E-04-1.10986E-06 5.10483E-03-4.09661E-13 6.79997E-14
 -1       580 5.36651E+00-1.31465E+00 1.73247E-01 2.44359E+00-3.33766E-13 7.91547E-13
 -1       581 1.69898E+01-5.14873E+00 7.47430E-02 6.83478E+00-5.70870E-13 3.99802E-13
 -1       582 2.04466E+01 3.48967E-01 2.84053E-03-3.02868E-01 2.44607E-13-1.10096E-13
 -1       583 5.22650E+00-1.56427E+00 1.78216E-01-2.29384E+00 2.49925E-13 1.10285E-12
 -1       584 1.05711E+01-3.22153E+00 1.56690E-01 6.36178E+00-6.01554E-13 6.13246E-13
 -1       585 2.06028E+01 1.83474E+00-6.04586E-03-1.19889E+00-5.02749E-13-1.82511E-13
 -1       586 8.51867E+00-2.98254E+00 1.48076E-01-5.37043E+00 4.79165E-13 5.10383E-13
 -1       587 3.00066E+01 1.51103E+00-1.27234E-01-2.44644E+00-6.29649E-13 3.41484E-13
 -1       588 2.50230E+01-5.59211E+00-5.64174E-03 3.98899E+00 2.15779E-13-1.22617E-13
 -1       589 2.63890E+01-4.57144E+00-3.59430E-02-3.04081E+00-7.19563E-15 1.92270E-13
 -1       590 2.93398E+01 7.06377E+00-1.80532E-01 5.90094E-01 1.09407E-12-1.37654E-13
 -1       591 1.93304E+01 3.55129E+00-4.34021E-03-2.22220E-01-1.01638E-13-6.48046E-13
 -1       592 2.99905E+01 3.90541E+00-1.56524E-01 1.77659E+00 8.83613E-13 3.26274E-13
 -1       593 2.93387E+01 6.38441E+00-1.82850E-01-1.25578E+00 8.20247E-13-4.67857E-13
 -1       594 1.85206E+01-5.21537E+00 8.97302E-02-6.52384E+00-4.48676E-13-2.69257E-13
 -1       595 2.96456E+01-9.17171E-01-8.49662E-02 2.82182E-01 3.84116E-13 3.67442E-13
 -1       596 5.35503E+00-1.29042E+00 1.95414E-01 1.73811E+00 3.35149E-14-1.25586E-12
 -1       597 1.16247E+01-3.68518E+00 1.31228E-01-6.55802E+00-4.16597E-13-8.91294E-13
 -1       598 3.00544E+01 5.97902E+00-1.70610E-01-1.25821E+00-9.97410E-13 4.60743E-14
 -1       599 1.04585E+01-3.23128E+00 1.42730E-01 6.04587E+00 3.21389E-13-9.61543E-13
 -1       600 1.73524E+01-5.35321E+00 8.76170E-02 6.61350E+00 2.89817E-13-5.52057E-13
 -1       601 2.96530E+01-2.85279E+00-1.06751E-01 3.92291E-01-2.60320E-13 1.35836E-13
 -1       602 2.98420E+01-1.14538E+00-9.61102E-02 1.51175E+00-2.61759E-13-4.21226E-13
 -1       603 2.97823E+01 6.42447E+00-1.91564E-01 8.53233E-01-9.77454E-13-2.33523E-13
 -1       604 3.04654E+01 3.86883E+00-1.34998E-01 2.37054E+00-7.69787E-13-5.18155E-13
 -1       605 2.75115E+01-4.62388E+00-4.58154E-02-2.07241E+00-9.95870E-14-5.18190E-13
 -1       606 2.30209E+01-5.72443E+00 4.33789E-02-4.89975E+00 2.60202E-13-1.83877E-13
 -1       607 1.52996E+01-4.83237E+00 9.48250E-02-6.64815E+00 3.69656E-13-1.28196E-14
 -1       608 2.08414E+01 1.32843E+00-8.44490E-04 1.27388E+00 5.14993E-13 4.16297E-14
 -1       609 2.48034E+01-5.15290E+00 2.12619E-02 4.03553E+00-2.46282E-13 7.75838E-14
 -1       610 1.99498E+01 2.85069E+00-8.97986E-03-9.08944E-01-3.79669E-13-4.84552E-13
 -1       611 9.51777E+00-1.86352E+00 1.54716E-01-4.95217E+00-4.43503E-13-1.02110E-12
 -1       612 2.32814E+01-5.26230E+00 3.13676E-02-4.34393E+00-3.69416E-13 2.48510E-13
 -1       613 2.88164E+01-4.17067E-01-1.00823E-01-1.39876E+00 3.47413E-13-6.08007E-13
 -1       614 1.99995E+01-6.08721E-04-2.50813E-06 5.57912E-03-2.87919E-13 4.52723E-13
 -1       615 1.95719E+01 2.86761E+00-1.37906E-03 1.79032E-01 1.12754E-13-5.65248E-13
 -1       616 1.94662E+01 2.98664E+00-1.30187E-03 4.17718E-02 3.89575E-14-5.90407E-13
 -1       617 2.00108E+01 2.31551E+00-1.52994E-03 4.76803E-01 2.78299E-13-4.36811E-13
 -1       618 2.02976E+01 1.86021E+00-2.08894E-03 5.96489E-01 3.73418E-13-2.99193E-13
 -1       619 2.05303E+01 1.17013E+00 2.83351E-03 4.21654E-01 3.89026E-13-1.97067E-13
 -1       620 2.76651E+01 3.54890E+00-1.20370E-01-2.22231E+00 5.73375E-13-5.75741E-13
 -1       621 9.25821E+00-1.05556E+00 1.49144E-01-3.76275E+00 4.54685E-13 5.34857E-13
 -1       622 2.04532E+01-4.70571E+00 6.74281E-02-5.06914E+00 4.80092E-13-2.21838E-13
 -1       623 2.03833E+01 9.86341E-01 7.52898E-04 2.14057E-01-2.41295E-13-2.21271E-13
 -1       624 2.03293E+01 7.78117E-01 3.97320E-04 6.21813E-01-1.80307E-13-2.02464E-13
 -1       625 2.02846E+01 6.63817E-01 3.01123E-04 9.66310E-01-1.87348E-13-1.75322E-13
 -1       626 2.02595E+01 5.91117E-01 2.68441E-04 1.27075E+00-1.50974E-13-2.05095E-13
 -1       627 2.02637E+01 5.12315E-01 2.37418E-04 1.55035E+00-1.04004E-13-2.08163E-13
 -1       628 2.03181E+01 3.72010E-01 1.83043E-04 1.81022E+00-2.49893E-14-1.03709E-13
 -1       629 2.04684E+01 9.95465E-02 1.04125E-04 2.04209E+00 3.89879E-14-6.31551E-14
 -1       630 2.08004E+01-3.90262E-01 7.52500E-05 2.21542E+00 4.11774E-14-2.17380E-14
 -1       631 2.14492E+01-1.16734E+00 9.94089E-04 2.25467E+00 1.16099E-13-9.08312E-14
 -1       632 2.26061E+01-2.23497E+00-8.35245E-03 1.99578E+00 1.61518E-13 1.20534E-14
 -1       633 2.44387E+01-3.26399E+00 3.33137E-03 1.20561E+00 3.32609E-13 1.90596E-13
 -1       634 2.64989E+01-3.50569E+00-1.13199E-02-3.37516E-01 3.06314E-13 4.35951E-13
 -1       635 2.46254E+01-3.31075E+00-2.74177E-03-9.22901E-01 3.94764E-13-5.99145E-13
 -1       636 2.28178E+01-2.35876E+00 5.60830E-04-1.80407E+00 2.43037E-13-5.95053E-13
 -1       637 2.15892E+01-1.25410E+00-1.21905E-03-2.10196E+00 5.37077E-14-4.93630E-13
 -1       638 2.08862E+01-4.31386E-01-6.10806E-04-2.06764E+00 1.39524E-13-3.04721E-13
 -1       639 2.05155E+01 8.59058E-02-1.37100E-04-1.89445E+00 2.04799E-14-1.09724E-13
 -1       640 2.03354E+01 3.62428E-01 1.45217E-04-1.66623E+00 1.11295E-14-1.36293E-13
 -1       641 2.02511E+01 4.78175E-01 2.45630E-04-1.42483E+00-3.02525E-14-9.39082E-14
 -1       642 2.02092E+01 4.97751E-01 2.62365E-04-1.19135E+00-2.22524E-14-6.76912E-14
 -1       643 2.01834E+01 4.65657E-01 2.42032E-04-9.76861E-01 1.53181E-13-7.71177E-14
 -1       644 2.01620E+01 4.09861E-01 2.08352E-04-7.86823E-01-7.01698E-14-1.36763E-13
 -1       645 2.01412E+01 3.46715E-01 1.72099E-04-6.23152E-01-7.27858E-14 8.68958E-14
 -1       646 2.01204E+01 2.85089E-01 1.38228E-04-4.85469E-01-1.40670E-13-8.15449E-14
 -1       647 2.01003E+01 2.29308E-01 1.08705E-04-3.71983E-01 1.04527E-13 1.22458E-13
 -1       648 2.00816E+01 1.81075E-01 8.40062E-05-2.80129E-01-4.18891E-14-3.72419E-14
 -1       649 2.00649E+01 1.40652E-01 6.38998E-05-2.07021E-01 4.07721E-14-1.50959E-13
 -1       650 2.00505E+01 1.07560E-01 4.78633E-05-1.49755E-01 1.59336E-13-3.00074E-13
 -1       651 2.00385E+01 8.09814E-02 3.52866E-05-1.05594E-01 1.93937E-13-3.24821E-13
 -1       652 2.00288E+01 5.99856E-02 2.55694E-05-7.20746E-02 1.48191E-13-2.73748E-13
 -1       653 2.00210E+01 4.36428E-02 1.81537E-05-4.70544E-02 1.22578E-13-4.60223E-13
 -1       654 2.00150E+01 3.10839E-02 1.25336E-05-2.87234E-02 1.99954E-13-6.20407E-13
 -1       655 2.00104E+01 2.15227E-02 8.10774E-06-1.55932E-02 1.55372E-13-4.60164E-13
 -1       656 2.00070E+01 1.42598E-02 4.67030E-06-6.47540E-03 2.29767E-13-4.14622E-13
 -1       657 2.00044E+01 8.67332E-03 6.32831E-06-4.39713E-04-3.90740E-14-3.78584E-13
 -1       658 2.00026E+01 4.18916E-03-4.06043E-07 3.16413E-03-3.76241E-14-2.56940E-13
 -1       659 2.05363E+01 2.53495E-01 1.58889E-04-9.51006E-01 1.02063E-13-2.25314E-13
 -1       660 2.00020E+01 2.86207E-03 2.37075E-06-3.93123E-03-2.11879E-14-4.30681E-13
 -1       661 2.04643E+01 3.86987E-01 3.05394E-04-7.40231E-01 1.74026E-13-1.89619E-13
 -1       662 2.08767E+01-8.18837E-02-2.13665E-04-1.16241E+00 1.70071E-14-1.12140E-13
 -1       663 2.11710E+01-3.40551E-01-5.16796E-04-1.13097E+00 4.37061E-14-8.18096E-14
 -1       664 2.15679E+01-6.73142E-01-9.16080E-04-9.62546E-01 6.81843E-16 2.57985E-14
 -1       665 2.20699E+01-1.04535E+00-1.30467E-03-6.11049E-01-2.01925E-14 1.22932E-15
 -1       666 2.26383E+01-1.34716E+00-1.41887E-03-4.21499E-02-5.91003E-14 1.14891E-13
 -1       667 2.31659E+01-1.37658E+00-1.43507E-03 7.15879E-01-8.69262E-14 2.32724E-13
 -1       668 2.34705E+01-8.89059E-01-3.31396E-03 1.48568E+00 2.85682E-14 2.83347E-13
 -1       669 2.34016E+01 2.25280E-01-4.79866E-03 1.90447E+00 1.36428E-13 2.54502E-13
 -1       670 2.30171E+01 1.61775E+00-9.60621E-03 1.54525E+00 8.56745E-14 1.07002E-13
 -1       671 2.27741E+01 2.41436E+00-1.56289E-02 3.82264E-01 2.86039E-13 6.57820E-14
 -1       672 2.28150E+01 2.28873E+00-1.33755E-02-1.06480E+00 3.59377E-13-1.97642E-13
 -1       673 2.32340E+01 1.03045E+00-3.82850E-03-1.89276E+00 2.97598E-13-4.11930E-13
 -1       674 2.35085E+01-3.11106E-01-3.19732E-03-1.88413E+00 2.52259E-13-4.16307E-13
 -1       675 2.34098E+01-1.14920E+00-2.58357E-03-1.26904E+00 9.97618E-14-4.56069E-13
 -1       676 2.29906E+01-1.37141E+00-1.76509E-03-4.87734E-01 5.17493E-14-3.47240E-13
 -1       677 2.24385E+01-1.18910E+00-1.22278E-03 1.76062E-01-1.00921E-13-1.44959E-13
 -1       678 2.18996E+01-8.36951E-01-9.15144E-04 6.28056E-01-1.60767E-13-7.39264E-14
 -1       679 2.14484E+01-4.79632E-01-5.98100E-04 8.77292E-01-1.31781E-13-7.04523E-14
 -1       680 2.10989E+01-1.92762E-01-3.46933E-04 9.72144E-01-1.39998E-13-6.09437E-14
 -1       681 2.08373E+01 6.21095E-03-1.16352E-04 9.62933E-01-2.21862E-13-1.76681E-13
 -1       682 2.06426E+01 1.27003E-01 4.12006E-05 8.90636E-01-1.08576E-13-2.08812E-13
 -1       683 2.04964E+01 1.88391E-01 1.29453E-04 7.85400E-01 1.14922E-13-1.31167E-13
 -1       684 2.03848E+01 2.09163E-01 1.68915E-04 6.67892E-01-8.01450E-15-5.73981E-14
 -1       685 2.02979E+01 2.04649E-01 1.76716E-04 5.51367E-01-8.35519E-14 2.05682E-14
 -1       686 2.02296E+01 1.86063E-01 1.66111E-04 4.43636E-01-4.24604E-14-2.69244E-13
 -1       687 2.01756E+01 1.61007E-01 1.46269E-04 3.48689E-01-3.00238E-14-1.65640E-13
 -1       688 2.01328E+01 1.34302E-01 1.23078E-04 2.67965E-01 1.43968E-13-2.12527E-13
 -1       689 2.00991E+01 1.08779E-01 1.00038E-04 2.01293E-01 3.75595E-14-3.17309E-13
 -1       690 2.00727E+01 8.59215E-02 7.90313E-05 1.47569E-01-1.25729E-13-3.35197E-13
 -1       691 2.00524E+01 6.63466E-02 6.08952E-05 1.05223E-01-6.51936E-14-1.91190E-13
 -1       692 2.00370E+01 5.01369E-02 4.58405E-05 7.25286E-02 5.87332E-15-1.36940E-13
 -1       693 2.00254E+01 3.70699E-02 3.36956E-05 4.77932E-02 5.14756E-15-2.68880E-13
 -1       694 2.00169E+01 2.67636E-02 2.40983E-05 2.94721E-02-1.73240E-13-3.03872E-13
 -1       695 2.00109E+01 1.87687E-02 1.64840E-05 1.62255E-02-1.65585E-13-3.90428E-13
 -1       696 2.00066E+01 1.26187E-02 1.15887E-05 6.94457E-03 1.03765E-13-4.36312E-13
 -1       697 2.00038E+01 7.87495E-03 1.06254E-05 7.64572E-04 1.12506E-13-3.29219E-13
 -1       698 2.00027E+01 5.40989E-03 3.65597E-06-2.09361E-03 1.80785E-13-4.95711E-13
 -1       699 2.16745E+01-4.87953E+00 4.09315E-02 4.74128E+00-4.98834E-13 1.90564E-13
 -1       700 2.00020E+01 9.45421E-03 1.55009E-06-2.46758E-04 6.34717E-14-3.08548E-13
 -1       701 2.00016E+01 1.56583E-03-6.88299E-06 4.50171E-03-3.13596E-13-4.67814E-15
 -1       702 2.00027E+01 7.17450E-03 1.63974E-06-1.25892E-03 2.00154E-13-2.61693E-13
 -1       703 2.00021E+01 9.41641E-03 1.63118E-06 1.52059E-05 1.09874E-13 3.45342E-14
 -1       704 2.00023E+01 8.65907E-03 1.64619E-06-6.05169E-04 7.16648E-14 1.92551E-14
 -1       705 2.00024E+01 8.57465E-03 1.17836E-06 4.13967E-04 1.90642E-13-3.35791E-14
 -1       706 2.00029E+01 7.04123E-03-3.29764E-07 1.15095E-03 2.93146E-13-6.29546E-14
 -1       707 2.00030E+01 5.10250E-03-1.82186E-06 2.27284E-03 2.65579E-13-3.37757E-13
 -1       708 2.03858E+01 1.86096E+00 1.62813E-04-7.36142E-01-4.21828E-13-3.04246E-13
 -1       709 1.57488E+01-3.47491E+00 9.75573E-02 6.11560E+00-4.81289E-13 4.61395E-13
 -1       710 1.02329E+01-9.28431E-01 1.39280E-01 4.23584E+00-4.92009E-13 6.49154E-13
 -1       711 2.23854E+01-5.02600E+00 3.35346E-02 4.34826E+00 5.22467E-13-2.03153E-14
 -1       712 1.71794E+01-3.65043E+00 9.56575E-02 5.74441E+00 4.72684E-13-4.09346E-13
 -1       713 1.65118E+01-3.55783E+00 9.66575E-02-5.89672E+00-6.28286E-13-3.26766E-13
 -1       714 2.04468E+01 5.48371E-01 7.23613E-04-4.55694E-01 2.43466E-13-1.83429E-13
 -1       715 2.06702E+01 1.07972E-01 2.15615E-07-1.09451E+00 6.51838E-14-1.67206E-13
 -1       716 2.04737E+01 7.86096E-01 1.30330E-03-7.90194E-02 2.99167E-13-2.13366E-13
 -1       717 1.36559E+01-2.95744E+00 1.11830E-01-5.74780E+00 5.50809E-13 1.61142E-13
 -1       718 2.71762E+01-4.13053E+00 3.89957E-02 7.54893E-01 2.80744E-13 3.52079E-13
 -1       719 2.04110E+01 1.32363E+00-8.68330E-05-2.26179E-01-3.38737E-13-2.57241E-13
 -1       720 7.43147E+00-2.83728E-01 1.64903E-01-1.20220E+00-1.96919E-13-1.14762E-12
 -1       721 2.62241E+01 5.82919E+00-1.09399E-01-3.99401E-01 7.86655E-13-4.23046E-13
 -1       722 1.97589E+01 2.64571E+00-1.49351E-03 3.27126E-01 2.05908E-13-5.04308E-13
 -1       723 1.97091E+01 2.71077E+00-1.41417E-03-3.39445E-01-2.25010E-13-5.27156E-13
 -1       724 2.70566E+01-3.24378E+00-6.44748E-02-2.43703E-01-9.22344E-14 5.80001E-13
 -1       725 1.04076E+01-7.97217E-01 1.24662E-01 3.74841E+00 2.57652E-13-9.26655E-13
 -1       726 7.60916E+00 3.70163E-02 1.46826E-01-1.35349E-01-1.10599E-13 6.22752E-13
 -1       727 2.53380E+01-4.92162E+00 1.07899E-02-2.41711E+00 2.82007E-13-6.03388E-13
 -1       728 2.65229E+01-3.98717E+00-2.49295E-02 1.07086E+00-1.15942E-13-3.37383E-13
 -1       729 2.79584E+01 7.01524E-01-9.35801E-02 1.93504E+00 3.71998E-13 5.34656E-13
 -1       730 2.69722E+01 4.75935E+00-1.41604E-01 1.72137E+00 6.19546E-13 2.87961E-13
 -1       731 2.67404E+01-3.38628E+00-1.99049E-02 4.28233E-01 2.33313E-13-5.52883E-13
 -1       732 1.99663E+01 2.39239E+00-1.12436E-03-4.75480E-01-2.99569E-13-4.51550E-13
 -1       733 1.94527E+01 3.00219E+00-1.34388E-03-8.63221E-02-5.69699E-14-5.75923E-13
 -1       734 2.00029E+01 5.30372E-03-1.38287E-06-2.27196E-03 5.51387E-13 2.58218E-14
 -1       735 2.05142E+01-4.30239E+00 4.41334E-02-4.83561E+00-6.21520E-13 1.04898E-13
 -1       736 1.41461E+01-2.09164E+00 9.39470E-02-5.29009E+00-6.25520E-13-5.45994E-13
 -1       737 1.03188E+01 3.33814E-01 9.98176E-02 1.40704E+00 7.93749E-14-8.57783E-13
 -1       738 1.95350E+01 2.91197E+00-1.39956E-03-2.11326E-01-1.37805E-13-5.64518E-13
 -1       739 2.55149E+01 3.87995E+00-1.12938E-01-1.68661E+00 5.96601E-13-5.49947E-13
 -1       740 2.00031E+01 4.88628E-03-1.98453E-06 2.71273E-03 9.74666E-14-7.65534E-13
 -1       741 2.51600E+01-4.22932E+00 6.76214E-03-1.77681E+00-3.55866E-13 4.20356E-13
 -1       742 2.02207E+01 1.59144E+00 2.88299E-04 1.59054E-01 2.78659E-13-2.67202E-13
 -1       743 1.35017E+01-1.04993E+00 7.76404E-02-4.20740E+00 4.15761E-13 1.74683E-13
 -1       744 2.04374E+01-3.26528E+00 3.68923E-02 4.09070E+00 4.26599E-13-2.71927E-14
 -1       745 2.47370E+01 4.38704E+00-6.22353E-02 8.53467E-01 4.05769E-13-8.91804E-14
 -1       746 2.00387E+01 1.00938E+00-2.03612E-05 7.27096E-01-1.71049E-13-3.27059E-13
 -1       747 1.99034E+01 8.91559E-01 7.60760E-05 1.04614E+00-1.74326E-13-2.79063E-13
 -1       748 1.97477E+01 8.06193E-01 9.84339E-05 1.34364E+00-1.17414E-13-2.59244E-13
 -1       749 1.95863E+01 6.99576E-01 1.27400E-04 1.63914E+00-3.23784E-15-2.45798E-13
 -1       750 1.94496E+01 5.03850E-01 2.66509E-04 1.95279E+00 2.80605E-14-2.68440E-13
 -1       751 1.94005E+01 1.29320E-01 7.99837E-04 2.30510E+00 7.76275E-14-2.60313E-13
 -1       752 1.95565E+01-5.38420E-01 1.09272E-03 2.70746E+00 6.55796E-14-1.96993E-13
 -1       753 2.02131E+01-1.63427E+00 6.32036E-03 3.14309E+00 2.09879E-13-6.27983E-14
 -1       754 2.02536E+01-1.74562E+00 1.34402E-02-3.05325E+00 2.82983E-13-3.52689E-13
 -1       755 1.95413E+01-5.98171E-01 7.88741E-04-2.61927E+00 2.79404E-13-9.69428E-14
 -1       756 1.93226E+01 1.10551E-01 3.68618E-04-2.19757E+00 1.39508E-13-1.40791E-13
 -1       757 1.93290E+01 4.94758E-01 2.02863E-04-1.83656E+00 2.43814E-15-1.75596E-13
 -1       758 1.94291E+01 6.65054E-01 1.56014E-04-1.53119E+00 2.65926E-14-1.39346E-13
 -1       759 1.95541E+01 7.04996E-01 1.26844E-04-1.27010E+00 4.87936E-15-9.81719E-14
 -1       760 1.96719E+01 6.71623E-01 9.80903E-05-1.04449E+00-8.49243E-14-6.73660E-14
 -1       761 1.97703E+01 6.01667E-01 7.47335E-05-8.49272E-01-1.18057E-14-1.64568E-13
 -1       762 1.98467E+01 5.17603E-01 5.66050E-05-6.81511E-01-3.06313E-14-3.63045E-13
 -1       763 1.99030E+01 4.32426E-01 4.27963E-05-5.39091E-01-1.35850E-13-3.47637E-13
 -1       764 1.99429E+01 3.53093E-01 3.22834E-05-4.19965E-01 1.85216E-13-2.61876E-14
 -1       765 1.99701E+01 2.82856E-01 2.42384E-05-3.21891E-01-6.34752E-14-1.47342E-13
 -1       766 1.99880E+01 2.22782E-01 1.80567E-05-2.42439E-01-5.59112E-14-5.27492E-15
 -1       767 1.99990E+01 1.72710E-01 1.33050E-05-1.79093E-01-2.90161E-14-1.17858E-13
 -1       768 2.00054E+01 1.31835E-01 9.66526E-06-1.29383E-01 2.27351E-13-9.36819E-14
 -1       769 2.00087E+01 9.90576E-02 6.89381E-06-9.09920E-02 1.28176E-13-1.09942E-13
 -1       770 2.00098E+01 7.31868E-02 4.79673E-06-6.18263E-02 3.36166E-14-2.54558E-13
 -1       771 2.00097E+01 5.30536E-02 3.18362E-06-4.00560E-02 2.58320E-13-1.46110E-13
 -1       772 2.00088E+01 3.75679E-02 1.78979E-06-2.41282E-02 1.62357E-13-2.97818E-13
 -1       773 2.00074E+01 2.57389E-02 3.31951E-07-1.27588E-02 1.16260E-13-4.74155E-13
 -1       774 2.00059E+01 1.66725E-02 3.57594E-06-4.95578E-03 4.64437E-14-5.61614E-13
 -1       775 2.00045E+01 1.00950E-02-1.64899E-06-2.70373E-04-1.11558E-13-6.48537E-13
 -1       776 2.02985E+01 5.21329E-01 4.52691E-05-8.87296E-01 1.58531E-13-1.98835E-13
 -1       777 2.09474E+01-5.91812E-01-4.00927E-05-1.42459E+00-8.01810E-14-1.12895E-13
 -1       778 2.06132E+01-1.84733E-01-1.01133E-05-1.40124E+00-1.06180E-14-1.94406E-13
 -1       779 2.22144E+01-1.67935E+00-3.34216E-04-9.72177E-01-1.50058E-13 8.11310E-14
 -1       780 2.31461E+01-2.10592E+00-6.59855E-06-3.26133E-01-1.65789E-13 1.44004E-13
 -1       781 2.40637E+01-2.04471E+00-1.62901E-03 6.35619E-01-3.38642E-14 2.01219E-13
 -1       782 2.46674E+01-9.38841E-01-7.26423E-03 1.69393E+00 6.46904E-14 3.00993E-13
 -1       783 2.46531E+01 1.14463E+00-4.61615E-02 2.19170E+00 2.40353E-13 2.75872E-13
 -1       784 2.42373E+01 2.42364E+00-6.98523E-02-2.00687E+00 4.54243E-13-3.65777E-13
 -1       785 2.46499E+01 1.75185E-01-2.69396E-02-2.18249E+00 3.62753E-13-4.91098E-13
 -1       786 2.44166E+01-1.45104E+00-8.35963E-03-1.40605E+00 1.80072E-13-5.47935E-13
 -1       787 2.36513E+01-2.02491E+00-1.89740E-03-3.60034E-01-1.51129E-13-2.73448E-13
 -1       788 2.27166E+01-1.84840E+00-3.52515E-04 4.51234E-01-2.51890E-13-1.15607E-13
 -1       789 2.18725E+01-1.34517E+00-5.37080E-05 9.47650E-01-1.98345E-13 1.95622E-14
 -1       790 2.12257E+01-8.05617E-01-4.85954E-05 1.17470E+00-2.38053E-13 6.64021E-14
 -1       791 2.07782E+01-3.61515E-01-1.55253E-04 1.22615E+00-1.46324E-13 6.48082E-14
 -1       792 2.04882E+01-4.55209E-02-5.97498E-05 1.17417E+00-1.43652E-13 1.91808E-13
 -1       793 2.03085E+01 1.53550E-01 1.64325E-05 1.06592E+00-1.09768E-13-6.58059E-14
 -1       794 2.02005E+01 2.61569E-01 5.26926E-05 9.31875E-01-1.58488E-14-2.77585E-13
 -1       795 2.01366E+01 3.05571E-01 6.75133E-05 7.91058E-01 2.69250E-14-8.80631E-14
 -1       796 2.00985E+01 3.08230E-01 6.96004E-05 6.55056E-01-7.67082E-14-1.06831E-14
 -1       797 2.00751E+01 2.86609E-01 6.49337E-05 5.30547E-01 1.40193E-13-8.80874E-15
 -1       798 2.00597E+01 2.52651E-01 5.70665E-05 4.20900E-01-7.62484E-15-7.37529E-14
 -1       799 2.00488E+01 2.14213E-01 4.80975E-05 3.27262E-01 1.54644E-14-2.68053E-13
 -1       800 2.00404E+01 1.76135E-01 3.92449E-05 2.49328E-01 6.71336E-14-3.08830E-13
 -1       801 2.00335E+01 1.41143E-01 3.11681E-05 1.85914E-01-1.40024E-13-1.82978E-13
 -1       802 2.00276E+01 1.10551E-01 2.41682E-05 1.35367E-01-1.79771E-13-1.77127E-13
 -1       803 2.00225E+01 8.47652E-02 1.83218E-05 9.58489E-02-7.85027E-14 4.02519E-14
 -1       804 2.00180E+01 6.36489E-02 1.35899E-05 6.55353E-02 7.16578E-14 2.42652E-14
 -1       805 2.00142E+01 4.67585E-02 9.78752E-06 4.27295E-02 1.12319E-13-7.36095E-15
 -1       806 2.00110E+01 3.35007E-02 6.67984E-06 2.59317E-02-1.38956E-13-1.40456E-13
 -1       807 2.00083E+01 2.32293E-02 5.96436E-06 1.38754E-02-3.32141E-13 2.11993E-14
 -1       808 2.00060E+01 1.53299E-02 8.89913E-06 5.55620E-03 4.13882E-14 2.59356E-13
 -1       809 2.00022E+01 1.77623E-02-1.39996E-06-8.17969E-04 1.04724E-13 1.50503E-14
 -1       810 2.00039E+01 1.26994E-02 3.78239E-06-6.56829E-04-1.87972E-14-2.96944E-13
 -1       811 2.00018E+01 1.85097E-02-1.80473E-07-1.46841E-04 2.27543E-13-2.85953E-14
 -1       812 2.40268E+01-4.13242E+00-2.18736E-03 2.19177E+00-3.84037E-13-2.04946E-13
 -1       813 2.60765E+01-1.36898E+00-4.41126E-02 1.48214E+00 2.51630E-14 4.35886E-13
 -1       814 1.48586E+01-1.47143E+00 5.79963E-02 4.56776E+00-6.01033E-13 6.05760E-13
 -1       815 2.30319E+01-3.97122E+00 3.24780E-02-2.94087E+00 4.26712E-13-5.85742E-13
 -1       816 1.06583E+01 4.75782E-01 8.68341E-02 1.70099E+00-2.05514E-13 4.65007E-13
 -1       817 2.00030E+01 1.57251E-02-3.73025E-06-1.09373E-03-7.87130E-14-2.75240E-14
 -1       818 2.14682E+01-1.10770E+00-2.40824E-04-1.30887E+00-8.84308E-14-8.94388E-15
 -1       819 1.08098E+01-3.06451E-01 1.05191E-01-3.17102E+00-4.11934E-13-8.50393E-13
 -1       820 1.08054E+01 2.98484E-01 8.68139E-02-2.07346E+00 8.57760E-14 2.83149E-13
 -1       821 2.03073E+01 7.22316E-01 7.03313E-05-6.05119E-01 2.07286E-13-1.79138E-13
 -1       822 2.63200E+01 3.49333E-01-6.77587E-02-2.29327E+00 4.02000E-13-6.24899E-13
 -1       823 2.01398E+01 1.21234E+00-3.12947E-05 3.69280E-01-2.10805E-13-3.20571E-13
 -1       824 1.87857E+01-3.15738E+00 3.25862E-02 4.68718E+00-4.78381E-13 9.18536E-14
 -1       825 2.58821E+01-2.45684E+00-1.47082E-02-7.94197E-01 1.86539E-14-3.86374E-13
 -1       826 1.81849E+01-2.95269E+00 4.55169E-02-4.70271E+00 4.29788E-13-1.66799E-13
 -1       827 2.03814E+01 1.17218E+00 1.72549E-04 5.35730E-02 3.07693E-13-2.13087E-13
 -1       828 2.73317E+01 2.04439E+00-1.02276E-01 2.14507E+00 5.45657E-13 5.62744E-13
 -1       829 2.55083E+01 2.76867E+00-9.19146E-02 1.95457E+00 4.81738E-13 1.24975E-13
 -1       830 1.95882E+01 2.43871E+00-3.07677E-04-2.49826E-03 6.67736E-14-5.11965E-13
 -1       831 1.54024E+01-1.30432E+00 2.90057E-02 4.26697E+00 3.86781E-13-4.73500E-13
 -1       832 1.95180E+01 2.51640E+00-5.49751E-04-3.89782E-02-6.00655E-16-4.87718E-13
 -1       833 2.00036E+01 1.28754E-02-2.03480E-06 5.56232E-04 3.95163E-13-4.21621E-13
 -1       834 1.98947E+01 2.06543E+00-7.78118E-04-1.12918E-01-2.10378E-13-4.19163E-13
 -1       835 1.15076E+01 6.81650E-01 6.10697E-02-7.08515E-01-1.34936E-13-6.84687E-13
 -1       836 2.03466E+01 9.11596E-01 1.90784E-05-3.06080E-01 2.37771E-13-2.00435E-13
 -1       837 2.04222E+01 1.12576E-01 4.73181E-05-1.28839E+00-5.94381E-15-2.09317E-13
 -1       838 2.16678E+01-3.36295E+00 1.45953E-02 3.11747E+00-5.54111E-13 9.73353E-15
 -1       839 2.00046E+01 1.11873E-02-2.38303E-05 1.37888E-03 4.73898E-13 3.73792E-13
 -1       840 1.37939E+01 1.80965E-02 3.91106E-02 2.98937E+00-3.02609E-13 3.02145E-13
 -1       841 2.00028E+01 1.58604E-02-1.60174E-07 8.77622E-04 1.36966E-13-1.03290E-13
 -1       842 2.03284E+01 3.33855E-01 6.62973E-05-1.11402E+00 8.10358E-14-2.15691E-13
 -1       843 2.00021E+01 1.78361E-02 7.81062E-08 5.47371E-04 7.16786E-14-1.25515E-13
 -1       844 1.40842E+01-8.67951E-02 6.48867E-02 3.04043E+00 3.04763E-13-6.32572E-13
 -1       845 2.30651E+01-4.10944E+00-1.89356E-03-2.88501E+00-4.16213E-13 2.80109E-13
 -1       846 1.80606E+01-2.84989E+00 5.32507E-02-4.82730E+00-5.95406E-13-9.65261E-14
 -1       847 2.00039E+01 9.15076E-03 8.34287E-06-4.43419E-04 4.90350E-13 3.34659E-13
 -1       848 2.01793E+01 1.52107E+00-2.55287E-05 2.36993E-03-2.71793E-13-3.21788E-13
 -1       849 1.99720E+01 1.96753E+00 1.46736E-04 1.08744E-01 2.08847E-13-4.20544E-13
 -1       850 1.97465E+01 2.25402E+00-2.51887E-04 4.78739E-02 1.29782E-13-4.76282E-13
 -1       851 1.96793E+01 2.33329E+00-2.41117E-04-8.77876E-02-1.52063E-13-4.84919E-13
 -1       852 2.60248E+01 7.56782E-01-5.95680E-02 2.22893E+00 3.41057E-13 4.45959E-13
 -1       853 2.00043E+01 1.16588E-02 2.90476E-05-5.69158E-04-9.65842E-14-4.11762E-13
 -1       854 1.75099E+01-5.31281E-01 1.16274E-02-3.13092E+00 3.22286E-13-1.02307E-13
 -1       855 1.94119E+01 1.09334E+00-4.97626E-05 1.00548E+00-1.10336E-13-2.69832E-13
 -1       856 1.91014E+01 1.00907E+00-1.50412E-05 1.27163E+00-7.76717E-14-2.10092E-13
 -1       857 1.87354E+01 8.96172E-01-4.11026E-05 1.56386E+00-5.55484E-14-2.74728E-13
 -1       858 1.83305E+01 6.85401E-01 3.28221E-04 1.92439E+00 3.37399E-14-3.74672E-13
 -1       859 1.79239E+01 2.79193E-01 3.73502E-04 2.42350E+00 1.00579E-13-4.24459E-13
 -1       860 1.77069E+01-4.54868E-01 1.94599E-02 3.09211E+00 2.32473E-13-3.25233E-13
 -1       861 1.77269E+01 2.67636E-01 1.63396E-03-2.36703E+00 1.51171E-13-9.00542E-14
 -1       862 1.80916E+01 6.87173E-01 4.22882E-04-1.84578E+00 5.88567E-14-1.68533E-13
 -1       863 1.84641E+01 8.73194E-01 6.59826E-05-1.47918E+00 1.72333E-14-2.76925E-13
 -1       864 1.87999E+01 9.17558E-01 3.36896E-05-1.20587E+00 7.55190E-14-2.70453E-13
 -1       865 1.90838E+01 8.79238E-01 2.41595E-05-9.89491E-01 4.08919E-14-2.22004E-13
 -1       866 1.93146E+01 7.96768E-01 1.84388E-05-8.10325E-01-1.44374E-13-8.97047E-14
 -1       867 1.94969E+01 6.94877E-01 1.36020E-05-6.58414E-01-1.75470E-13-2.35070E-13
 -1       868 1.96378E+01 5.88867E-01 1.00298E-05-5.28831E-01-8.43481E-14-5.38077E-13
 -1       869 1.97447E+01 4.87683E-01 7.56737E-06-4.18890E-01 2.55812E-13-2.70268E-13
 -1       870 1.98243E+01 3.96087E-01 5.85497E-06-3.26709E-01 8.53998E-14-1.84475E-13
 -1       871 1.98826E+01 3.16156E-01 4.59542E-06-2.50559E-01 6.17228E-14-1.09925E-13
 -1       872 1.99245E+01 2.48313E-01 3.60916E-06-1.88659E-01-9.20146E-14-1.53604E-13
 -1       873 1.99540E+01 1.92010E-01 2.80525E-06-1.39168E-01 1.66961E-13 1.07584E-14
 -1       874 1.99743E+01 1.46172E-01 2.13538E-06-1.00254E-01 1.73290E-13-1.31625E-13
 -1       875 1.99878E+01 1.09486E-01 1.56346E-06-7.01680E-02 4.11386E-15-2.94413E-13
 -1       876 1.99964E+01 8.05712E-02 1.08902E-06-4.73117E-02 7.49418E-14-3.77476E-13
 -1       877 2.00014E+01 5.80843E-02 7.16429E-07-3.02749E-02 3.66025E-13-4.52606E-13
 -1       878 2.00039E+01 4.07780E-02 7.18853E-07-1.78617E-02 2.71405E-13-8.85861E-15
 -1       879 2.00048E+01 2.74390E-02-1.43998E-05-9.06287E-03 8.30162E-14 1.52987E-13
 -1       880 1.40666E+01-7.04258E-01 5.17989E-02-3.82618E+00-4.92234E-13-5.26558E-13
 -1       881 2.36937E+01-3.01405E+00-3.21917E-03-9.77946E-01-1.94624E-13 1.55501E-13
 -1       882 2.22556E+01-2.39256E+00 4.93707E-03-1.66225E+00-2.21576E-13 9.91327E-14
 -1       883 2.30703E+01-2.71111E+00 7.68308E-03 1.12251E+00-3.64318E-13-1.16409E-13
 -1       884 2.17374E+01-1.95188E+00 9.47543E-04 1.59523E+00-3.60298E-13 1.28703E-13
 -1       885 2.08503E+01-1.16518E+00 1.64119E-03 1.68006E+00-2.52795E-13 3.22184E-13
 -1       886 2.03008E+01-5.34649E-01 3.26953E-04 1.59499E+00-1.39959E-13 2.63143E-13
 -1       887 1.99948E+01-8.79302E-02-1.05448E-05 1.43314E+00-2.28404E-13 9.71411E-14
 -1       888 1.98470E+01 1.96139E-01 1.17135E-05 1.24550E+00 5.19654E-15 1.92918E-13
 -1       889 1.97940E+01 3.54442E-01 1.01773E-05 1.05852E+00 3.60699E-14 3.14162E-13
 -1       890 1.97930E+01 4.23895E-01 1.01069E-05 8.83503E-01 7.10931E-15 1.30617E-13
 -1       891 1.98176E+01 4.34849E-01 8.63032E-06 7.25364E-01-7.23375E-14-6.44326E-15
 -1       892 1.98518E+01 4.10280E-01 6.95705E-06 5.86056E-01 3.23635E-14-2.29988E-14
 -1       893 1.98868E+01 3.66573E-01 5.56671E-06 4.65931E-01 1.29943E-13 1.40229E-13
 -1       894 1.99182E+01 3.14816E-01 4.45749E-06 3.64354E-01 1.56991E-13 5.33057E-14
 -1       895 1.99443E+01 2.62101E-01 3.55828E-06 2.80041E-01 8.65547E-14-1.13320E-14
 -1       896 1.99647E+01 2.12633E-01 2.82259E-06 2.11291E-01-9.55418E-14-7.86323E-14
 -1       897 1.99799E+01 1.68619E-01 2.22498E-06 1.56194E-01-4.34949E-14-9.45073E-14
 -1       898 1.99907E+01 1.30944E-01 1.74689E-06 1.12782E-01-1.61400E-13-6.12367E-14
 -1       899 1.99978E+01 9.96525E-02 1.34714E-06 7.91532E-02-3.42440E-14-2.91012E-14
 -1       900 2.00023E+01 7.42977E-02 1.05797E-06 5.35555E-02-1.94791E-14 2.71513E-13
 -1       901 2.00047E+01 5.41686E-02 5.77380E-07 3.44320E-02 6.44935E-14 4.45636E-13
 -1       902 2.00056E+01 3.84370E-02 1.30789E-06 2.04545E-02-1.25043E-13 2.68181E-13
 -1       903 2.00055E+01 2.62887E-02 4.36027E-06 1.05564E-02-1.56483E-13 1.81971E-13
 -1       904 2.52981E+01-3.31760E+00 2.91675E-04-3.93775E-01-2.33268E-13 3.64878E-13
 -1       905 2.00007E+01 2.89276E-02 1.12479E-07-1.31014E-03 2.90347E-13-9.03100E-14
 -1       906 1.67448E+01-1.22784E+00 3.14548E-02-3.85242E+00 4.58700E-13-7.15131E-14
 -1       907 2.08968E+01-3.24954E+00 1.14516E-02-3.59958E+00-4.56274E-13 6.66959E-14
 -1       908 2.43133E+01-2.96738E+00-1.47943E-02 3.73663E-01-2.15999E-13-1.89016E-13
 -1       909 2.01893E+01-2.80239E-01 3.33369E-04-1.68389E+00-1.20849E-13-2.34346E-13
 -1       910 1.39305E+01 1.95551E-01 3.42491E-02-2.72605E+00 2.54542E-13-5.58859E-14
 -1       911 2.00675E+01 8.66928E-01 6.52655E-05-7.24713E-01 1.84387E-13-2.02183E-13
 -1       912 1.95491E+01 2.48227E+00-4.01147E-04-6.44214E-02-9.13421E-14-5.12985E-13
 -1       913 1.96602E+01 1.20361E+00-1.04853E-04 7.37919E-01-1.53035E-13-2.72694E-13
 -1       914 1.76838E+01-1.71437E+00 1.83284E-02 3.90731E+00-4.20189E-13 1.72094E-13
 -1       915 1.25746E+01 9.93155E-01 3.60024E-02-2.75869E-01-1.05331E-13 2.18601E-13
 -1       916 1.98390E+01 1.38777E+00-1.53409E-05 4.50142E-01-1.72882E-13-3.18062E-13
 -1       917 2.00127E+01 6.41360E-01 5.07532E-05-1.00049E+00 9.61480E-14-1.83145E-13
 -1       918 2.02078E+01 1.24938E+00 4.87500E-05-1.93925E-01 2.17290E-13-2.43081E-13
 -1       919 1.71556E+01-1.39683E+00 1.46541E-02-3.84894E+00-4.43886E-13-2.39438E-13
 -1       920 1.34885E+01 7.53346E-01 3.56199E-02 1.46420E+00 1.28740E-13-5.52602E-13
 -1       921 1.98824E+01 1.68099E+00 2.67260E-04 1.76203E-01-1.68591E-13-3.43902E-13
 -1       922 1.96606E+01 1.93654E+00 1.26147E-04 1.04505E-01-1.29087E-13-4.52464E-13
 -1       923 1.96620E+01 1.94989E+00-8.83623E-05-1.45597E-01 6.82456E-14-4.53135E-13
 -1       924 1.34985E+01 4.85905E-01 3.11467E-02-1.99881E+00-2.73046E-13-5.55454E-13
 -1       925 1.62227E+01-3.99494E-01 1.38186E-02 3.10693E+00-2.71005E-13 4.90888E-13
 -1       926 2.00049E+01 1.86134E-02 8.21018E-07-4.23074E-03-5.96337E-14-1.82908E-13
 -1       927 2.01495E+01 1.03383E+00-1.06544E-04-4.78007E-01 2.02838E-13-2.36092E-13
 -1       928 2.12215E+01-1.57956E+00 2.94195E-03-1.88645E+00-1.91079E-13 1.41294E-14
 -1       929 2.05582E+01-8.46230E-01-1.58642E-03-1.83717E+00-1.82876E-13-1.08644E-13
 -1       930 2.00284E+01 1.19868E-01 2.49898E-04-1.47914E+00 3.12144E-15-2.54227E-13
 -1       931 2.00048E+01 1.97969E-02 5.33012E-06 5.13128E-03 2.24303E-13-1.75542E-13
 -1       932 1.40226E+01 9.15688E-01 1.55508E-02 1.23414E+00-2.14262E-13 3.24846E-13
 -1       933 1.99867E+01 4.10075E-01 1.10483E-04-1.25005E+00 5.12916E-14-1.71413E-13
 -1       934 2.00006E+01 2.89596E-02-6.84050E-06 9.88689E-04 2.02714E-13 1.81775E-14
 -1       935 2.00033E+01 2.35947E-02 1.61572E-05-4.20168E-03-2.13593E-13-7.51915E-14
 -1       936 2.00031E+01 2.31572E-02-1.87656E-06 4.17190E-03 2.50429E-13-7.06982E-13
 -1       937 1.95320E+01 2.08995E+00 3.99790E-05-9.49235E-02 2.02875E-14-4.59865E-13
 -1       938 2.00017E+01 2.70352E-02 6.60339E-07-3.09092E-03 1.52018E-13-4.82133E-13
 -1       939 1.94933E+01-2.02159E+00 2.29900E-03-3.37506E+00-3.83276E-13-7.55886E-14
 -1       940 1.57750E+01-1.39893E-01 1.57646E-02-2.87231E+00-3.31554E-13-3.89306E-13
 -1       941 2.18840E+01-2.89005E+00 7.64825E-03-2.53093E+00-2.76169E-13 2.13496E-14
 -1       942 1.83828E+01 1.18249E+00-2.26803E-04 1.01281E+00-6.59797E-14-3.03236E-13
 -1       943 1.77666E+01 1.09137E+00-4.12814E-04 1.25361E+00-7.54359E-14-3.35803E-13
 -1       944 1.69931E+01 9.19556E-01 9.80282E-04 1.59575E+00-3.26594E-15-3.99540E-13
 -1       945 1.59948E+01 6.37995E-01 7.07737E-03 2.10506E+00 1.52541E-13-4.57215E-13
 -1       946 1.98695E+01 1.71097E+00-2.97906E-04-1.73042E-01 1.50292E-13-3.79631E-13
 -1       947 1.56943E+01 5.99571E-01 9.96656E-03-2.10568E+00 3.04545E-13-1.05294E-13
 -1       948 1.66503E+01 9.41376E-01 3.11539E-04-1.53523E+00-4.81176E-14-4.14453E-15
 -1       949 1.74098E+01 1.08844E+00-4.24126E-04-1.18280E+00-3.75896E-14-1.66148E-13
 -1       950 1.80049E+01 1.11369E+00-3.26953E-04-9.50845E-01 2.16276E-15-3.37713E-13
 -1       951 1.84728E+01 1.06454E+00-2.02400E-04-7.82807E-01 2.46883E-13-2.00502E-13
 -1       952 1.88408E+01 9.72028E-01-1.21846E-04-6.49885E-01-1.91414E-14-6.85883E-14
 -1       953 1.91293E+01 8.57872E-01-7.63484E-05-5.38141E-01-9.96681E-14 4.60780E-14
 -1       954 1.93540E+01 7.36911E-01-5.02722E-05-4.41380E-01-2.13418E-13 2.40074E-13
 -1       955 1.95275E+01 6.18837E-01-3.39207E-05-3.57127E-01 4.21860E-14 1.02109E-13
 -1       956 1.96602E+01 5.09531E-01-2.27772E-05-2.84392E-01 2.63926E-13 7.02806E-14
 -1       957 1.97604E+01 4.12127E-01-1.48124E-05-2.22563E-01-5.86943E-15 9.72577E-14
 -1       958 1.98351E+01 3.27860E-01-9.03955E-06-1.70955E-01-1.28846E-13-1.61710E-13
 -1       959 1.98900E+01 2.56705E-01-4.88741E-06-1.28690E-01 2.16859E-13-2.08857E-13
 -1       960 1.99295E+01 1.97857E-01-1.96897E-06-9.47270E-02 9.23097E-14-2.89799E-13
 -1       961 1.99573E+01 1.50079E-01-3.12854E-08-6.79418E-02-9.83187E-14-3.88619E-13
 -1       962 1.99763E+01 1.11929E-01 1.00638E-06-4.72095E-02 3.11511E-14-3.09802E-13
 -1       963 1.99888E+01 8.19190E-02 1.50779E-06-3.14665E-02 2.61087E-13-2.96935E-13
 -1       964 1.99966E+01 5.85980E-02 5.85097E-07-1.97583E-02 6.34076E-13-2.67817E-13
 -1       965 2.00009E+01 4.07411E-02 1.34141E-05-1.12290E-02 3.12691E-13-2.96802E-13
 -1       966 1.97470E+01 9.90620E-01-5.03194E-06-7.89289E-01 9.79696E-14-2.10254E-13
 -1       967 1.92433E+01 1.34504E+00-2.55094E-04 6.24254E-01-1.08760E-13-3.17349E-13
 -1       968 2.01899E+01-2.03761E+00 1.00579E-04 2.88179E+00-4.07451E-13-1.04936E-13
 -1       969 1.93119E+01-7.19437E-02-3.85683E-04 1.71843E+00-1.78702E-13 2.15675E-13
 -1       970 1.92529E+01 2.79373E-01-7.36103E-05 1.40781E+00-1.60872E-13 2.20167E-13
 -1       971 1.92921E+01 4.74636E-01-6.32315E-05 1.14576E+00 1.12691E-14 1.10860E-13
 -1       972 1.93782E+01 5.61314E-01-4.25038E-05 9.27599E-01 1.59888E-13-1.13624E-14
 -1       973 1.94810E+01 5.76113E-01-3.24116E-05 7.46247E-01 1.94051E-14 5.14422E-14
 -1       974 1.95834E+01 5.46401E-01-2.68364E-05 5.95509E-01-1.74898E-14 9.63046E-15
 -1       975 1.96766E+01 4.91856E-01-2.23250E-05 4.70504E-01 1.35201E-13-1.34131E-13
 -1       976 1.97566E+01 4.26085E-01-1.81572E-05 3.67410E-01 2.15398E-13-1.81595E-13
 -1       977 1.98224E+01 3.58064E-01-1.43805E-05 2.83095E-01 1.57926E-13-1.57719E-13
 -1       978 1.98747E+01 2.93337E-01-1.10949E-05 2.14863E-01 6.27102E-14 4.22176E-14
 -1       979 1.99149E+01 2.34994E-01-8.33346E-06 1.60310E-01-9.99143E-14 1.34443E-13
 -1       980 1.99450E+01 1.84437E-01-6.07652E-06 1.17264E-01-1.04242E-13 1.98910E-13
 -1       981 1.99668E+01 1.41953E-01-4.27046E-06 8.37694E-02-2.00160E-13 3.49423E-13
 -1       982 1.99820E+01 1.07142E-01-2.80632E-06 5.80970E-02-8.26548E-15 3.67618E-13
 -1       983 1.99921E+01 7.92221E-02-1.65478E-06 3.87410E-02 6.06115E-14 2.56121E-13
 -1       984 1.99984E+01 5.72170E-02-3.24526E-07 2.44104E-02 1.32052E-13 2.50449E-13
 -1       985 2.00019E+01 4.01425E-02 3.10722E-06 1.41128E-02-4.83226E-14 4.28874E-14
 -1       986 2.00027E+01 3.10847E-02-1.71040E-06 8.38159E-03 2.59568E-13-4.25468E-13
 -1       987 2.00015E+01 2.69317E-02-9.15789E-06 3.01594E-03 1.62615E-13-1.93164E-13
 -1       988 1.95274E+01 2.08037E+00-3.42628E-05 2.24095E-02-6.78441E-14-4.65583E-13
 -1       989 1.96172E+01 7.59259E-01-4.69331E-05-1.06116E+00 9.05477E-14-2.25301E-13
 -1       990 1.44424E+01 8.99900E-01 1.03956E-02-1.41427E+00 2.26655E-13-2.47639E-13
 -1       991 1.94988E+01 2.11806E+00 2.18820E-04-4.06482E-02-3.98518E-14-4.05460E-13
 -1       992 1.95628E+01-6.41205E-01-1.13475E-03 2.06925E+00-9.69166E-14-4.13050E-14
 -1       993 1.97690E+01-1.23127E+00 6.90943E-04 2.44822E+00-2.80796E-13-5.18525E-14
 -1       994 1.95887E+01 1.64336E+00-1.10409E-05 2.98370E-01-1.29904E-13-4.03281E-13
 -1       995 1.94426E+01 1.46907E+00 1.21760E-05 4.63150E-01-1.13497E-13-3.61097E-13
 -1       996 1.88689E+01 1.25153E+00-1.75640E-04 8.13945E-01-9.18200E-14-2.89462E-13
 -1       997 1.39716E+01 1.03554E+00 1.67656E-02 2.18428E-02-1.96345E-14-3.55366E-13
 -1       998 1.97027E+01 1.52129E+00 3.26072E-04-3.71078E-01 1.05892E-13-3.56091E-13
 -1       999 1.56226E+01 1.12726E+00-2.30085E-03 7.53173E-01-4.52503E-15-3.51290E-13
 -1      1000 1.95019E+01 1.71778E+00 3.79524E-04-2.49361E-01 2.87469E-14-4.24323E-13
 -1      1001 2.06312E+01-1.87205E+00 4.61620E-03-2.54228E+00-2.90799E-13-1.32652E-13
 -1      1002 1.56383E+01 6.09675E-01 3.11923E-03 1.88746E+00-2.72829E-13 3.41023E-13
 -1      1003 1.78156E+01-7.48531E-01 7.51778E-03-3.01032E+00-3.61623E-13-1.93033E-13
 -1      1004 1.95193E+01-3.12909E-01 1.56974E-03-2.01351E+00-1.78515E-13-2.48163E-13
 -1      1005 2.00001E+01 3.64068E-02-1.07108E-05 6.14052E-03 2.77599E-13-1.65025E-13
 -1      1006 1.82865E+01-9.74324E-01 6.82323E-03 2.97993E+00-3.29145E-13-4.20729E-14
 -1      1007 1.94398E+01 1.67425E-01-5.21329E-04-1.66120E+00-3.04781E-14-1.77519E-13
 -1      1008 1.94997E+01 5.04575E-01-7.81685E-05-1.34645E+00 6.33613E-14-1.80942E-13
 -1      1009 1.99976E+01 4.23752E-02 6.71582E-06-2.15654E-04 1.08748E-13 2.78423E-13
 -1      1010 1.47480E+01 1.18666E+00 8.53674E-03-6.01320E-02 7.23764E-14-5.23756E-14
 -1      1011 1.99983E+01 4.12925E-02 7.60925E-06-4.36118E-03 2.39539E-13-4.65769E-13
 -1      1012 1.98560E+01 1.25198E+00 1.83442E-04-5.12908E-01 1.51432E-13-2.80932E-13
 -1      1013 1.68195E+01 1.22023E+00-1.19570E-03 6.09359E-01-5.04600E-14-3.79647E-13
 -1      1014 1.95656E+01 1.23954E+00 2.31207E-05-6.10490E-01 9.31711E-14-2.87552E-13
 -1      1015 1.58598E+01 1.13677E+00 4.42379E-03-1.00282E+00 6.62067E-14-3.17942E-13
 -1      1016 1.68642E+01 1.21430E+00 1.16829E-04-7.75637E-01-3.86357E-14-2.48365E-13
 -1      1017 1.76071E+01 1.20940E+00-9.37447E-05-6.36225E-01-3.71027E-14-2.74546E-13
 -1      1018 1.81712E+01 1.14659E+00-8.84136E-05-5.38379E-01 2.80409E-13-1.30989E-13
 -1      1019 1.86069E+01 1.04704E+00-3.60529E-05-4.60169E-01 1.20008E-13-7.59238E-14
 -1      1020 1.89460E+01 9.27751E-01-9.34811E-06-3.91635E-01-8.67233E-14 4.82732E-14
 -1      1021 1.92102E+01 8.01457E-01-1.34792E-06-3.29105E-01 7.19097E-14-1.89669E-14
 -1      1022 1.94155E+01 6.77247E-01-2.07657E-06-2.71915E-01-1.13460E-14 9.25695E-14
 -1      1023 1.95738E+01 5.61127E-01-5.39043E-06-2.20453E-01 1.57116E-13 1.79490E-13
 -1      1024 1.96947E+01 4.56615E-01-8.54843E-06-1.75212E-01 9.48051E-14 9.49249E-15
 -1      1025 1.97860E+01 3.65350E-01-1.06369E-05-1.36419E-01-1.79686E-13 3.24500E-13
 -1      1026 1.98539E+01 2.87628E-01-1.15520E-05-1.03954E-01-2.21902E-14 2.41109E-13
 -1      1027 1.99036E+01 2.22861E-01-1.14897E-05-7.74025E-02 1.33818E-13-3.61880E-13
 -1      1028 1.99392E+01 1.69917E-01-1.07348E-05-5.61560E-02-5.39886E-14-1.34024E-13
 -1      1029 1.99640E+01 1.27385E-01-9.48409E-06-3.95079E-02-1.63706E-14 9.63980E-14
 -1      1030 1.99808E+01 9.37538E-02-9.22051E-06-2.67334E-02 2.31921E-13-6.97589E-14
 -1      1031 1.99916E+01 6.75021E-02-8.22879E-06-1.71465E-02 5.50359E-13 2.22438E-13
 -1      1032 1.99979E+01 4.73312E-02-2.66979E-05-1.02700E-02 2.89971E-13-4.27697E-13
 -1      1033 1.68412E+01 2.42382E-01 5.53689E-03-2.21158E+00-2.06651E-13-3.06774E-13
 -1      1034 1.86804E+01 6.38481E-01-3.08477E-04 1.16305E+00 6.16622E-15-1.71032E-13
 -1      1035 1.94320E+01 1.79208E+00-1.42664E-04 1.22508E-01-8.36354E-14-4.08442E-13
 -1      1036 1.99984E+01 4.02382E-02-7.22332E-07 3.35473E-03 3.47880E-13-3.74311E-13
 -1      1037 1.84785E+01 4.37110E-01-5.52151E-04 1.50842E+00-1.13619E-13-7.89009E-14
 -1      1038 1.90985E+01 7.31511E-01-1.18003E-04 7.03211E-01 3.13811E-14 1.40667E-13
 -1      1039 1.92827E+01 6.91058E-01-8.95926E-05 5.47967E-01 1.12316E-13 1.47350E-14
 -1      1040 1.94420E+01 6.23036E-01-7.42266E-05 4.25775E-01 3.61267E-13-3.62959E-13
 -1      1041 1.95755E+01 5.42160E-01-6.27481E-05 3.28916E-01 1.53294E-13-4.77378E-13
 -1      1042 1.96844E+01 4.58443E-01-5.27710E-05 2.51960E-01 1.02923E-15-1.21746E-13
 -1      1043 1.97712E+01 3.78308E-01-4.37979E-05 1.90930E-01-8.89917E-14 2.34968E-13
 -1      1044 1.98387E+01 3.05500E-01-3.57772E-05 1.42776E-01-1.11512E-13 3.99726E-13
 -1      1045 1.98900E+01 2.41852E-01-2.87372E-05 1.05074E-01-8.40186E-14 4.04195E-13
 -1      1046 1.99281E+01 1.87883E-01-2.26942E-05 7.58392E-02-1.50180E-13 3.93337E-13
 -1      1047 1.99555E+01 1.43263E-01-1.83175E-05 5.34206E-02 7.27461E-14 2.08637E-13
 -1      1048 1.99747E+01 1.07130E-01-1.17128E-05 3.64521E-02 1.64233E-13 4.73515E-15
 -1      1049 1.99874E+01 7.84864E-02-1.84195E-06 2.38356E-02 1.09881E-13-2.62461E-13
 -1      1050 1.99954E+01 5.60826E-02 3.66265E-06 1.46359E-02 1.76127E-13-1.66321E-13
 -1      1051 1.99981E+01 4.56834E-02 4.50417E-06 9.76088E-03 4.98991E-13-4.40717E-13
 -1      1052 1.88941E+01 7.23585E-01-1.86839E-04 9.02783E-01-7.55672E-14-5.65001E-14
 -1      1053 1.88477E+01 1.41519E+00-1.87012E-04 3.69687E-01-8.36383E-14-3.66329E-13
 -1      1054 1.76938E+01 1.28192E+00-1.30902E-03 5.24183E-01-9.36304E-14-3.80483E-13
 -1      1055 1.91153E+01 8.88937E-01-4.05028E-05-1.04075E+00 3.85641E-14-1.48458E-13
 -1      1056 1.53030E+01 6.85121E-01 1.22711E-02-1.64514E+00-1.77098E-13-3.99491E-13
 -1      1057 1.83391E+01 6.53567E-02-2.56961E-04 1.96124E+00-2.28010E-13 1.46931E-13
 -1      1058 1.92259E+01-9.65541E-01-2.95761E-03-2.63513E+00-2.94423E-13-2.18002E-13
 -1      1059 1.83513E+01 1.33868E+00-3.73829E-04 4.48176E-01-1.14679E-13-3.48760E-13
 -1      1060 1.93638E+01 1.05683E+00-3.95966E-04-8.16710E-01 5.31301E-14-2.19284E-13
 -1      1061 1.94117E+01 1.79767E+00 3.24547E-04-1.31458E-01-3.57781E-14-3.83150E-13
 -1      1062 1.71434E+01 8.58977E-02-6.10964E-04 2.29852E+00-3.59606E-13 4.31857E-13
 -1      1063 1.82465E+01 3.31437E-02 1.17344E-04-2.13147E+00-1.93501E-13-1.17012E-13
 -1      1064 1.56447E+01 1.09037E+00-3.64555E-04 8.15971E-01-4.13949E-14 4.71791E-15
 -1      1065 1.85054E+01 4.69270E-01-1.61380E-04-1.62742E+00 1.46399E-15-1.01826E-13
 -1      1066 1.55744E+01 1.04216E+00 2.07220E-03-6.79107E-01-9.90310E-16-3.04322E-13
 -1      1067 1.92682E+01 1.61128E+00 1.15938E-03 2.02977E-01-8.40182E-14-4.13496E-13
 -1      1068 1.99928E+01 5.74999E-02 1.51904E-06 3.38817E-03 1.83477E-13-3.10383E-13
 -1      1069 1.88277E+01 7.03321E-01-1.46550E-04-1.30072E+00 1.71881E-14-1.26354E-13
 -1      1070 1.67565E+01 1.17967E+00 7.11861E-04-4.28147E-01-3.48785E-14-2.97714E-13
 -1      1071 1.99928E+01 5.77951E-02 1.18938E-05-3.73396E-03 9.94263E-14 7.21330E-14
 -1      1072 1.93908E+01 1.82325E+00-1.25176E-04-6.56841E-03-5.60939E-14-4.22697E-13
 -1      1073 1.90779E+01 1.49919E+00 1.78905E-04 2.82832E-01-6.27642E-14-4.07410E-13
 -1      1074 1.60968E+01 1.26093E+00 1.22240E-03-1.20703E-01-1.26732E-14-1.44493E-13
 -1      1075 1.70419E+01 1.26110E+00-9.77244E-05-1.49635E-01-2.77502E-14-1.09309E-15
 -1      1076 1.77367E+01 1.21382E+00-2.94228E-04-1.69265E-01 1.48429E-13-2.78808E-14
 -1      1077 1.82657E+01 1.12693E+00-2.08107E-04-1.78566E-01 1.48460E-13-1.71930E-13
 -1      1078 1.86747E+01 1.01582E+00-1.41880E-04-1.76784E-01 3.21613E-14-2.06931E-13
 -1      1079 1.89943E+01 8.92215E-01-1.00139E-04-1.65840E-01 1.75291E-14-5.60458E-14
 -1      1080 1.92445E+01 7.65746E-01-7.61556E-05-1.48754E-01-2.83736E-14-8.71207E-14
 -1      1081 1.94399E+01 6.43636E-01-6.10829E-05-1.28447E-01 6.26352E-14-8.69432E-14
 -1      1082 1.95912E+01 5.30756E-01-5.02616E-05-1.07293E-01 4.86602E-14-1.97874E-13
 -1      1083 1.97072E+01 4.29942E-01-4.16566E-05-8.69898E-02 2.49004E-13-1.73808E-13
 -1      1084 1.97950E+01 3.42430E-01-3.44148E-05-6.85938E-02-1.19410E-13 2.61909E-14
 -1      1085 1.98604E+01 2.68288E-01-2.81582E-05-5.26428E-02-2.64348E-13-6.07326E-14
 -1      1086 1.99083E+01 2.06797E-01-2.27094E-05-3.92938E-02 2.55264E-15-4.62597E-13
 -1      1087 1.99425E+01 1.56760E-01-1.78981E-05-2.84530E-02 1.19558E-13-4.47869E-13
 -1      1088 1.99663E+01 1.16743E-01-1.52743E-05-1.98780E-02 7.62409E-14-2.76931E-13
 -1      1089 1.99822E+01 8.53157E-02-1.12384E-05-1.32527E-02 3.31973E-13-1.24448E-13
 -1      1090 1.83640E+01-5.64960E-01 5.71571E-03 2.54713E+00-2.68302E-13 7.75390E-14
 -1      1091 1.79536E+01 1.31610E+00 1.05253E-04-1.03523E-01-1.04169E-13-2.67944E-13
 -1      1092 1.79613E+01 8.52056E-01-3.04225E-04 1.06436E+00 6.89175E-14 9.03204E-14
 -1      1093 1.93887E+01 6.57470E-01 2.02213E-04 2.45182E-01 2.31968E-13-1.57782E-13
 -1      1094 1.91985E+01 7.54711E-01 2.72155E-04 3.26357E-01 3.81926E-13-3.24249E-13
 -1      1095 1.89662E+01 8.39712E-01 3.62483E-04 4.34724E-01 1.64857E-13-2.15841E-13
 -1      1096 1.95421E+01 5.57939E-01 1.50595E-04 1.83798E-01-2.12903E-13-1.86342E-13
 -1      1097 1.96638E+01 4.62768E-01 1.12234E-04 1.37097E-01-2.28293E-13-1.50316E-13
 -1      1098 1.97588E+01 3.76007E-01 8.32506E-05 1.01470E-01-1.15335E-13-1.32892E-13
 -1      1099 1.98315E+01 2.99736E-01 6.10968E-05 7.42983E-02-5.36886E-14-2.21489E-13
 -1      1100 1.98860E+01 2.34631E-01 4.40724E-05 5.36367E-02-1.28311E-13-2.25647E-15
 -1      1101 1.99260E+01 1.80417E-01 3.12151E-05 3.80145E-02 1.91984E-13-6.96592E-14
 -1      1102 1.99545E+01 1.36262E-01 2.74068E-05 2.63165E-02 1.84746E-13-1.44559E-13
 -1      1103 1.99741E+01 1.00877E-01-1.52191E-05 1.73369E-02 2.98172E-13-2.49881E-13
 -1      1104 1.99874E+01 7.29057E-02 2.33999E-05 1.07971E-02 1.16966E-13-4.68047E-13
 -1      1105 1.73336E+01 7.05741E-01-1.14386E-03-1.48194E+00-5.66886E-14-1.60138E-13
 -1      1106 1.74251E+01 1.24997E+00 2.71626E-03-2.40937E-01-9.67381E-14-2.66472E-13
 -1      1107 1.64679E+01 8.87049E-01 3.09651E-04-1.18968E+00 4.34028E-15-2.70987E-13
 -1      1108 1.75058E+01 6.94648E-01 1.76897E-03 1.44921E+00 3.24599E-15 2.66890E-13
 -1      1109 1.99953E+01 5.20076E-02 1.09996E-05 7.18128E-03 3.35934E-13-3.64237E-13
 -1      1110 1.85417E+01 1.38828E+00-1.16775E-03-4.19906E-02-6.01413E-14-3.28898E-13
 -1      1111 1.92556E+01 1.44171E+00-1.48513E-03-4.07607E-01-2.33693E-14-3.08086E-13
 -1      1112 1.92207E+01 1.63554E+00-3.05731E-04 4.13091E-03-8.55400E-14-3.65216E-13
 -1      1113 1.65858E+01 7.57161E-01 2.62071E-03 1.51109E+00-1.34845E-13 3.11524E-13
 -1      1114 1.99918E+01 6.13212E-02-5.59021E-05-7.20742E-03-9.84705E-15-5.65140E-13
 -1      1115 1.83530E+01 9.11826E-01 4.25227E-04 7.82479E-01-1.29573E-13-1.15650E-13
 -1      1116 1.86863E+01 8.98455E-01 4.52371E-04 5.81254E-01-1.58853E-13-1.86009E-13
 -1      1117 1.85488E+01 1.07947E+00-3.31860E-04-8.37717E-01-1.88249E-14-2.32061E-13
 -1      1118 1.88428E+01 1.44587E+00-9.10546E-04-3.83662E-02-3.90662E-14-3.40570E-13
 -1      1119 1.89472E+01 1.20703E+00 3.33969E-03-6.58287E-01-1.62412E-14-2.69279E-13
 -1      1120 1.99841E+01 7.84127E-02 4.50116E-06-1.42795E-04 2.14680E-13-1.90834E-15
 -1      1121 1.66601E+01 1.18165E+00-1.28882E-03 5.35714E-01 1.16097E-13-9.94082E-14
 -1      1122 1.74378E+01 1.18242E+00-3.38083E-04 3.39763E-01 7.30793E-14 1.18399E-13
 -1      1123 1.80165E+01 1.13402E+00-5.57449E-04 2.03640E-01 7.64409E-14 7.93364E-14
 -1      1124 1.84662E+01 1.05074E+00-3.76743E-04 1.15125E-01-2.15710E-14-2.02582E-13
 -1      1125 1.88209E+01 9.44433E-01-2.48071E-04 5.85586E-02 7.80118E-14-1.81057E-13
 -1      1126 1.91019E+01 8.26716E-01-1.66398E-04 2.37713E-02 1.17210E-13-3.65982E-14
 -1      1127 1.93243E+01 7.06904E-01-1.11573E-04 3.62531E-03 6.69750E-14 9.35730E-14
 -1      1128 1.94991E+01 5.91812E-01-7.28778E-05-6.95831E-03-7.33627E-14-2.22029E-13
 -1      1129 1.96352E+01 4.85940E-01-4.51089E-05-1.15512E-02-7.98903E-14-5.19345E-13
 -1      1130 1.97397E+01 3.91838E-01-2.53483E-05-1.26024E-02 7.55882E-14-7.72988E-13
 -1      1131 1.98189E+01 3.10543E-01-1.16292E-05-1.17350E-02-2.51577E-13-6.94312E-13
 -1      1132 1.98777E+01 2.42003E-01-2.51109E-06-9.98038E-03-1.85812E-13-7.04498E-13
 -1      1133 1.99206E+01 1.85437E-01 2.79891E-06-7.96198E-03 2.89027E-15-5.10159E-13
 -1      1134 1.99511E+01 1.39602E-01-3.39986E-06-6.01883E-03 2.86510E-13-4.01768E-13
 -1      1135 1.99723E+01 1.03272E-01 6.67307E-05-4.56607E-03 3.20259E-13-1.31810E-13
 -1      1136 1.73447E+01 1.06250E+00-6.27837E-03-8.02697E-01-6.74297E-14-2.38899E-13
 -1      1137 1.80855E+01 9.46793E-01 1.30666E-04-1.06794E+00-3.02270E-14-1.96451E-13
 -1      1138 1.91677E+01 1.53226E+00 1.98106E-03-1.99839E-01-3.97508E-14-3.34278E-13
 -1      1139 2.78149E+01 9.03018E+00 2.28554E+00-6.56344E+00-5.37903E-14 2.29494E-12
 -1      1140 2.06592E+01 6.26523E+00 2.24838E-01-3.72776E+00-3.26683E-14 5.25198E-13
 -1      1141 1.95811E+01 5.90045E+00 8.70230E-02-2.66743E+00-2.42861E-14-2.87824E-13
 -1      1142 1.91410E+01 5.76187E+00 6.51986E-02-1.99390E+00-1.79579E-14-7.02700E-13
 -1      1143 1.88918E+01 5.68438E+00 5.60574E-02-1.46784E+00-1.31839E-14-9.09380E-13
 -1      1144 1.87280E+01 5.63307E+00 4.88782E-02-1.03430E+00-9.79772E-15-1.01096E-12
 -1      1145 1.86177E+01 5.59831E+00 4.33517E-02-6.60450E-01-4.51375E-15-1.05940E-12
 -1      1146 1.85525E+01 5.57770E+00 3.98467E-02-3.20744E-01-2.33581E-15-1.08458E-12
 -1      1147 1.85321E+01 5.57130E+00 3.88533E-02 1.56591E-03-4.83554E-17-1.09524E-12
 -1      1148 1.85560E+01 5.57893E+00 4.04297E-02 3.25784E-01 2.82500E-15-1.08876E-12
 -1      1149 1.86234E+01 5.60035E+00 4.43992E-02 6.70909E-01 5.23713E-15-1.06003E-12
 -1      1150 1.87345E+01 5.63551E+00 5.04819E-02 1.05277E+00 8.98587E-15-1.00830E-12
 -1      1151 1.88969E+01 5.68633E+00 5.75380E-02 1.49579E+00 1.28959E-14-8.96230E-13
 -1      1152 1.91425E+01 5.76237E+00 6.53305E-02 2.03285E+00 1.77774E-14-6.87349E-13
 -1      1153 1.95722E+01 5.89590E+00 8.07618E-02 2.71490E+00 2.52298E-14-2.81627E-13
 -1      1154 2.05621E+01 6.21935E+00 1.69041E-01 3.71043E+00 3.05311E-14 5.13110E-13
 -1      1155 2.51293E+01 7.96161E+00 1.40926E+00 5.72284E+00 7.19980E-14 2.20055E-12
 -1      1156 2.85673E+01 3.53763E+00 1.20575E+00-4.12741E+00-2.27901E-13 3.43697E-12
 -1      1157 2.03085E+01-1.80632E-01-6.17815E-01-9.40622E-02-7.75283E-14 2.90480E-12
 -1      1158 1.91318E+01-9.87522E-02-2.35280E-01 6.52899E-02-2.87079E-14 2.10200E-12
 -1      1159 1.89987E+01-5.29306E-02-6.40993E-02 4.22830E-02-1.88859E-14 1.56123E-12
 -1      1160 1.91814E+01-3.20546E-02-2.42360E-02 2.95338E-02-2.14945E-14 1.15020E-12
 -1      1161 1.95664E+01-2.28862E-02-1.77536E-02 2.37407E-02-1.01022E-14 8.90354E-13
 -1      1162 2.01067E+01-1.85528E-02-1.75891E-02 2.17117E-02 1.39233E-15 7.55340E-13
 -1      1163 2.07851E+01-1.62425E-02-1.82152E-02 2.23056E-02-1.10211E-14 6.29139E-13
 -1      1164 2.15966E+01-1.40659E-02-1.78360E-02 2.49713E-02-1.49284E-14 4.22294E-13
 -1      1165 2.25336E+01-1.01148E-02-1.41798E-02 2.91285E-02 5.10475E-15 3.12309E-13
 -1      1166 2.35678E+01-2.08349E-03-3.57789E-03 3.34758E-02 6.16925E-16 2.16722E-13
 -1      1167 2.46250E+01 1.26116E-02 1.87600E-02 3.50676E-02-1.04968E-14 1.82850E-13
 -1      1168 2.55531E+01 3.56741E-02 5.65091E-02 2.83301E-02-2.80769E-14 1.68497E-13
 -1      1169 2.60962E+01 6.50153E-02 1.06299E-01 5.20712E-03 2.00014E-15 1.34932E-13
 -1      1170 2.59149E+01 8.99557E-02 1.48625E-01-4.10052E-02 5.02896E-15 2.54352E-13
 -1      1171 2.47147E+01 8.86710E-02 1.43841E-01-1.05263E-01-2.95406E-14 2.25084E-13
 -1      1172 2.25169E+01 3.72773E-02 5.37278E-02-1.59261E-01 7.71085E-15 6.07014E-14
 -1      1173 1.99329E+01-6.00416E-02-1.08865E-01-1.56607E-01 2.63669E-14-3.92325E-14
 -1      1174 1.80883E+01-1.47202E-01-2.50801E-01-7.25842E-02-6.55552E-15 1.87628E-14
 -1      1175 1.79706E+01-1.55440E-01-2.62779E-01 5.58235E-02-6.66828E-15-2.56642E-13
 -1      1176 1.96631E+01-7.46692E-02-1.32975E-01 1.50428E-01-2.16511E-14-6.44221E-13
 -1      1177 2.22671E+01 2.52955E-02 3.43590E-02 1.64168E-01-2.78987E-15-5.28272E-13
 -1      1178 2.46252E+01 8.40333E-02 1.36521E-01 1.15373E-01 3.48090E-14-1.99743E-13
 -1      1179 2.60390E+01 9.07831E-02 1.50364E-01 5.04112E-02-7.14030E-14-2.26159E-13
 -1      1180 2.64215E+01 6.77717E-02 1.11357E-01 1.43268E-03 3.68429E-14-1.38538E-13
 -1      1181 2.60453E+01 3.79805E-02 6.05740E-02-2.39846E-02-1.59070E-14 1.87742E-13
 -1      1182 2.52572E+01 1.37196E-02 2.03389E-02-3.16197E-02 4.41487E-16 2.37602E-13
 -1      1183 2.43292E+01-1.85407E-03-4.10377E-03-2.96555E-02-4.05206E-14 2.67657E-13
 -1      1184 2.34273E+01-1.00693E-02-1.58140E-02-2.40259E-02 2.77945E-14 1.81511E-13
 -1      1185 2.26321E+01-1.33069E-02-1.95587E-02-1.79112E-02 2.73624E-14 2.62419E-13
 -1      1186 2.19709E+01-1.36427E-02-1.91085E-02-1.26250E-02-3.97525E-14 1.72690E-13
 -1      1187 2.14420E+01-1.25095E-02-1.68252E-02-8.50788E-03 8.48800E-15 1.62098E-13
 -1      1188 2.10308E+01-1.07766E-02-1.39937E-02-5.48485E-03-2.25492E-14-2.15520E-13
 -1      1189 2.07181E+01-8.92246E-03-1.12329E-02-3.34920E-03 1.39370E-14-3.60032E-13
 -1      1190 2.04851E+01-7.18441E-03-8.79763E-03-1.88487E-03-8.78995E-15-4.74193E-13
 -1      1191 2.03149E+01-5.66265E-03-6.76043E-03-9.08898E-04 3.57191E-14-2.49710E-13
 -1      1192 2.01931E+01-4.38417E-03-5.11035E-03-2.79376E-04 2.02503E-14-5.62239E-13
 -1      1193 2.01082E+01-3.33986E-03-3.80322E-03 1.09125E-04 1.39179E-14-3.77791E-13
 -1      1194 2.00508E+01-2.50466E-03-2.78560E-03 3.33178E-04 8.15315E-14 3.48530E-13
 -1      1195 2.00137E+01-1.84825E-03-2.00537E-03 4.47694E-04-3.36026E-14 4.75869E-13
 -1      1196 1.99912E+01-1.34020E-03-1.41580E-03 4.91719E-04-3.70678E-14 3.48903E-13
 -1      1197 1.99791E+01-9.52315E-04-9.76639E-04 4.92783E-04-3.85927E-14-9.25068E-14
 -1      1198 1.99742E+01-6.59463E-04-6.53745E-04 4.70063E-04 2.85189E-14-1.29459E-13
 -1      1199 1.99741E+01-4.39530E-04-4.18013E-04 4.36604E-04-7.97702E-14 3.59569E-13
 -1      1200 1.99772E+01-2.72915E-04-2.43555E-04 4.00688E-04 1.58948E-14 4.44260E-13
 -1      1201 1.99822E+01-1.41790E-04-1.04866E-04 3.66231E-04 5.52929E-14 8.22099E-13
 -1      1202 1.99879E+01-2.95378E-05 2.68994E-05 3.31053E-04 7.17118E-14 6.83382E-13
 -1      1203 1.99936E+01 7.83913E-05 1.76098E-04 2.75989E-04-1.62463E-14 6.21411E-13
 -1      1204 1.99981E+01 1.88476E-04 3.17944E-04 1.59118E-04-3.05381E-14-3.19002E-14
 -1      1205 1.99999E+01-6.94530E-06 4.52307E-05-3.22611E-05 8.36184E-14 2.96181E-14
 -1      1206 2.75777E+01 5.17785E-01 3.31678E-01 1.93812E+00-3.73937E-14 3.60906E-12
 -1      1207 2.01830E+01-6.84418E-02-5.73114E-01 1.23690E-01 2.75439E-14 2.80834E-12
 -1      1208 1.92011E+01-4.35397E-02-1.92906E-01 1.83495E-02 1.95980E-14 2.07068E-12
 -1      1209 1.90099E+01-2.55839E-02-5.42451E-02 2.12529E-03 1.54789E-14 1.56408E-12
 -1      1210 1.91529E+01-1.76387E-02-2.01428E-02-2.90689E-03 1.20216E-15 1.21666E-12
 -1      1211 1.94879E+01-1.32989E-02-1.33598E-02-4.75193E-03 8.26075E-15 9.45667E-13
 -1      1212 1.99486E+01-1.01833E-02-1.14879E-02-6.20447E-03 7.28215E-15 7.28521E-13
 -1      1213 2.04979E+01-7.00633E-03-9.18747E-03-8.18541E-03-1.44703E-14 6.47222E-13
 -1      1214 2.11056E+01-2.75556E-03-4.87565E-03-1.10803E-02 1.48180E-14 3.30132E-13
 -1      1215 2.17344E+01 3.43844E-03 2.71982E-03-1.49588E-02 6.84226E-15 2.07355E-13
 -1      1216 2.23285E+01 1.20777E-02 1.48052E-02-1.93731E-02 6.09365E-15 2.91815E-14
 -1      1217 2.28049E+01 2.27331E-02 3.16718E-02-2.29806E-02 9.40372E-15-1.11482E-13
 -1      1218 2.30506E+01 3.32294E-02 5.11703E-02-2.32244E-02 3.49373E-14-2.62587E-13
 -1      1219 2.29367E+01 3.91165E-02 6.70840E-02-1.65932E-02-4.12279E-14-1.38695E-13
 -1      1220 2.23595E+01 3.46245E-02 6.91253E-02-2.04139E-04 1.72813E-14-2.05759E-13
 -1      1221 2.13105E+01 1.60265E-02 4.69794E-02 2.51102E-02 3.58828E-15-2.73274E-13
 -1      1222 1.99506E+01-1.34967E-02-1.19771E-03 5.18941E-02-5.05616E-14-1.88516E-13
 -1      1223 1.86289E+01-4.20376E-02-6.09121E-02 6.71419E-02 2.52563E-14-3.96114E-13
 -1      1224 1.77835E+01-5.52576E-02-1.04743E-01 5.96339E-02 8.77857E-15-7.37996E-13
 -1      1225 1.77370E+01-4.68701E-02-1.09187E-01 2.95786E-02-1.68103E-14-6.48629E-13
 -1      1226 1.85153E+01-2.40125E-02-7.36631E-02-1.00695E-02 7.53390E-15-4.47628E-13
 -1      1227 1.98327E+01 4.42467E-04-1.96827E-02-4.16618E-02-1.52673E-14-2.50702E-13
 -1      1228 2.12585E+01 1.68780E-02 2.67569E-02-5.51737E-02 4.08762E-14-6.42736E-13
 -1      1229 2.24261E+01 2.30550E-02 5.10542E-02-5.12469E-02-1.02470E-14-1.06379E-12
 -1      1230 2.31492E+01 2.16230E-02 5.37081E-02-3.73097E-02 1.85325E-14-8.43919E-13
 -1      1231 2.34176E+01 1.64400E-02 4.31450E-02-2.11745E-02-8.53354E-15-5.98399E-13
 -1      1232 2.33266E+01 1.04636E-02 2.82159E-02-7.68478E-03-2.82279E-14-6.01658E-13
 -1      1233 2.30048E+01 5.29480E-03 1.45776E-02 1.48114E-03-4.06770E-14-8.33254E-13
 -1      1234 2.25681E+01 1.48471E-03 4.51875E-03 6.60555E-03 4.04341E-14-1.14036E-12
 -1      1235 2.21014E+01-9.91867E-04-1.81825E-03 8.73978E-03 8.51492E-16-1.12383E-12
 -1      1236 2.16583E+01-2.39494E-03-5.20274E-03 8.98240E-03 1.91272E-14-1.16803E-12
 -1      1237 2.12673E+01-3.02906E-03-6.57179E-03 8.19445E-03 4.76200E-14-1.44248E-12
 -1      1238 2.09392E+01-3.16033E-03-6.71200E-03 6.95519E-03 1.69917E-14-1.27006E-12
 -1      1239 2.06744E+01-2.99199E-03-6.18556E-03 5.61282E-03 9.08258E-15-1.15542E-12
 -1      1240 2.04676E+01-2.66677E-03-5.35673E-03 4.35427E-03-4.46651E-14-6.89972E-13
 -1      1241 2.03108E+01-2.27859E-03-4.44407E-03 3.26443E-03 1.37021E-14-5.77594E-13
 -1      1242 2.01951E+01-1.88533E-03-3.56860E-03 2.36865E-03 3.82269E-14-7.81065E-13
 -1      1243 2.01124E+01-1.51986E-03-2.78983E-03 1.66031E-03-1.92281E-14-5.22532E-13
 -1      1244 2.00553E+01-1.19840E-03-2.13042E-03 1.11763E-03 5.29243E-14-6.34482E-13
 -1      1245 2.00176E+01-9.26578E-04-1.59200E-03 7.13350E-04 3.01113E-14-1.04481E-12
 -1      1246 1.99943E+01-7.03547E-04-1.16505E-03 4.19959E-04 4.41756E-14-1.29621E-12
 -1      1247 1.99814E+01-5.24735E-04-8.34800E-04 2.12243E-04 3.01564E-14-9.96588E-13
 -1      1248 1.99758E+01-3.83518E-04-5.84506E-04 6.82641E-05 5.88855E-14-1.31449E-12
 -1      1249 1.99753E+01-2.72003E-04-3.96824E-04-3.06126E-05-4.20643E-14-1.36106E-12
 -1      1250 1.99779E+01-1.80762E-04-2.53157E-04-9.99964E-05-4.10421E-14-6.42768E-13
 -1      1251 1.99826E+01-9.98419E-05-1.32538E-04-1.52378E-04 4.68483E-14-7.42465E-13
 -1      1252 1.99882E+01-1.67317E-05-9.39042E-06-1.97387E-04 4.68307E-14-1.10752E-12
 -1      1253 1.99937E+01 8.20783E-05 1.43233E-04-2.36069E-04-5.52174E-14-6.41900E-13
 -1      1254 1.99982E+01 1.78790E-04 2.90221E-04-2.27059E-04 1.15289E-13-7.33874E-13
 -1      1255 1.99999E+01-1.54664E-05 4.08076E-05 2.04081E-05 8.84545E-15-6.18270E-13
 -1      1256 1.99998E+01 3.77376E-05 2.87093E-05 8.50212E-07-7.04991E-13-1.00727E-13
 -1      1257 1.99999E+01-1.71303E-03 2.44899E-04-1.32853E-04-5.47198E-13 4.20373E-14
 -1      1258 1.99998E+01-5.76411E-03 8.65339E-05-2.28503E-04 9.35345E-14 3.89930E-14
 -1      1259 1.99998E+01-1.03985E-02-5.96361E-05-2.12034E-04-2.40084E-13-1.99424E-14
 -1      1260 1.99997E+01-1.45930E-02-1.30678E-04-1.64126E-04-4.92619E-13-1.40235E-13
 -1      1261 1.99997E+01-1.78867E-02-1.50729E-04-1.12164E-04-7.19670E-13-3.97995E-14
 -1      1262 1.99997E+01-2.01966E-02-1.44148E-04-7.01989E-05-2.77396E-13-6.31315E-14
 -1      1263 1.99997E+01-2.15729E-02-1.33701E-04-3.36678E-05-4.22865E-13-1.53824E-13
 -1      1264 1.99997E+01-2.20554E-02-1.30210E-04-1.94837E-06-9.02871E-13 5.11377E-15
 -1      1265 1.99997E+01-2.16660E-02-1.37333E-04 3.03518E-05-4.33279E-13 1.86102E-13
 -1      1266 1.99997E+01-2.03587E-02-1.50256E-04 6.85095E-05-5.54662E-13-1.45366E-13
 -1      1267 1.99997E+01-1.80738E-02-1.57169E-04 1.15103E-04-1.55001E-12 2.73817E-14
 -1      1268 1.99997E+01-1.47583E-02-1.37427E-04 1.67348E-04-7.53237E-13 9.60271E-14
 -1      1269 1.99998E+01-1.04889E-02-5.91958E-05 2.19840E-04-8.12272E-13-1.16238E-13
 -1      1270 1.99999E+01-5.70824E-03 1.20243E-04 2.75268E-04-7.53468E-13 4.88151E-14
 -1      1271 2.00000E+01-1.72988E-03 2.67545E-04 1.57042E-04-8.16492E-13 1.01733E-13
 -1      1272 1.99997E+01 2.41704E-05 7.54677E-06 1.48081E-05-5.48205E-14 5.07640E-14
 -1      1273-1.09491E+00-2.37023E+01-3.67079E+00-2.19403E+00 7.43239E-13 3.73149E-13
 -1      1274-1.71216E+00-1.45694E+01-2.98662E+00-3.87186E+00 2.76668E-12 1.08258E-12
 -1      1275 5.07037E-01-1.81251E+00-1.75492E+00 1.50047E-01 3.25318E-12 2.02061E-12
 -1      1276 9.85533E+00 8.16087E+00-1.54724E-01 8.79292E+00 3.10374E-12 2.98517E-12
 -1      1277 2.71748E+01 1.11437E+01 1.61100E+00 1.64420E+01 2.47535E-12 3.68483E-12
 -1      1278 4.77218E+01 7.66334E+00 3.00897E+00 1.69187E+01 1.35081E-12 3.29159E-12
 -1      1279 6.35849E+01 2.71799E+00 4.01772E+00 8.81920E+00 3.44565E-13 1.56697E-12
 -1      1280 6.56662E+01 2.04944E+00 4.13516E+00-4.62018E+00 1.86545E-13-6.09957E-13
 -1      1281 5.38270E+01 6.18870E+00 3.51054E+00-1.53672E+01 1.02729E-12-2.88014E-12
 -1      1282 3.38107E+01 1.05206E+01 2.13691E+00-1.76565E+01 2.36622E-12-4.02811E-12
 -1      1283 1.39011E+01 9.39302E+00 3.05930E-01-1.10641E+01 3.83160E-12-4.04055E-12
 -1      1284 1.74194E+00-1.27792E-02-1.46545E+00-1.45888E+00 4.47908E-12-3.02514E-12
 -1      1285-1.70011E+00-1.34274E+01-2.93780E+00 3.79621E+00 3.74567E-12-1.51174E-12
 -1      1286-1.36149E+00-2.30754E+01-3.65088E+00 2.54198E+00 1.83042E-12-5.24705E-13
 -1      1287-1.10430E+00-2.48123E+01-3.83695E+00-1.85196E+00-6.91114E-13-2.54411E-13
 -1      1288-1.83069E+00-1.64802E+01-3.21409E+00-4.34235E+00-2.77756E-12-1.05160E-12
 -1      1289 5.01330E-02-3.22210E+00-1.97689E+00-6.37722E-01-4.13913E-12-2.57361E-12
 -1      1290 9.63907E+00 7.62467E+00-3.03988E-01 8.44337E+00-3.95106E-12-3.75033E-12
 -1      1291 2.75300E+01 1.09460E+01 1.55916E+00 1.65513E+01-2.87370E-12-4.28035E-12
 -1      1292 4.94968E+01 7.51129E+00 3.23566E+00 1.69840E+01-1.56042E-12-3.89999E-12
 -1      1293 6.57250E+01 2.62972E+00 4.28392E+00 7.94695E+00-4.25382E-13-2.25986E-12
 -1      1294 6.74260E+01 1.99108E+00 4.37637E+00-5.14351E+00-9.99548E-14-2.68119E-13
 -1      1295 5.56756E+01 5.77795E+00 3.61095E+00-1.51600E+01-6.33826E-13 1.79412E-12
 -1      1296 3.66218E+01 1.00767E+01 2.29321E+00-1.79043E+01-1.51545E-12 2.71649E-12
 -1      1297 1.80716E+01 1.04320E+01 6.57483E-01-1.32588E+01-2.42428E-12 2.96163E-12
 -1      1298 5.11310E+00 4.80173E+00-9.30920E-01-5.09556E+00-3.46745E-12 2.77778E-12
 -1      1299-9.21159E-01-5.79223E+00-2.26664E+00 1.93034E+00-3.91998E-12 2.25031E-12
 -1      1300-1.82842E+00-1.73446E+01-3.23942E+00 4.38609E+00-3.32201E-12 1.02732E-12
 -1      1301-1.07338E+00-2.44923E+01-3.75211E+00 2.05485E+00-1.82920E-12 3.98532E-13
 -1      1302 2.22825E+01 1.84219E+00-7.15790E-01-2.69550E+00-8.13793E-14 1.94278E-12
 -1      1303 2.05131E+01 4.68980E+00-4.35664E-02-3.10855E+00-2.67716E-13 1.45745E-13
 -1      1304 2.09956E+01 4.79558E+00-1.03825E-01-3.97708E+00-3.34843E-13 5.69378E-13
 -1      1305 1.96859E+01 5.00987E+00-1.78093E-02-2.41890E+00-2.77486E-13-4.72511E-13
 -1      1306 1.99948E+01 5.10860E+00 7.34549E-03-2.82358E+00-3.10973E-13-1.99091E-13
 -1      1307 2.07006E+01 3.94517E+00-2.24781E-02-2.85289E+00-4.70204E-13 1.21056E-13
 -1      1308 1.92833E+01 5.11184E+00-4.42936E-03-1.82493E+00-2.43635E-13-7.93681E-13
 -1      1309 1.94650E+01 5.17623E+00 1.50858E-02-2.11912E+00-2.68140E-13-6.48169E-13
 -1      1310 1.99029E+01 4.38979E+00-2.19667E-02-2.24253E+00-4.42802E-13-3.87960E-13
 -1      1311 1.90297E+01 5.16352E+00 6.08705E-04-1.33548E+00-1.89635E-13-9.57203E-13
 -1      1312 1.91491E+01 5.20524E+00 1.48270E-02-1.57397E+00-2.10672E-13-8.80362E-13
 -1      1313 1.94675E+01 4.60783E+00-1.83650E-02-1.68583E+00-3.72627E-13-6.64455E-13
 -1      1314 1.88570E+01 5.19554E+00 2.80693E-03-9.28640E-01-1.36245E-13-1.03846E-12
 -1      1315 1.89389E+01 5.22358E+00 1.30332E-02-1.12737E+00-1.57714E-13-9.96741E-13
 -1      1316 1.91915E+01 4.73826E+00-1.46988E-02-1.22352E+00-2.81566E-13-8.00186E-13
 -1      1317 1.87404E+01 5.21597E+00 4.01204E-03-5.66843E-01-8.77293E-14-1.08041E-12
 -1      1318 1.87938E+01 5.23388E+00 1.06233E-02-7.44970E-01-1.05145E-13-1.06186E-12
 -1      1319 1.90026E+01 4.82116E+00-1.26385E-02-8.31078E-01-1.97536E-13-8.78693E-13
 -1      1320 1.86779E+01 5.22848E+00 5.25882E-03-2.36631E-01-3.80872E-14-1.09968E-12
 -1      1321 1.87036E+01 5.23699E+00 8.33252E-03-4.01259E-01-5.57627E-14-1.08606E-12
 -1      1322 1.88814E+01 4.87089E+00-1.15556E-02-4.81176E-01-1.22830E-13-9.05484E-13
 -1      1323 1.86681E+01 5.23456E+00 6.84536E-03 8.14605E-02 4.78827E-15-1.10373E-12
 -1      1324 1.86666E+01 5.23400E+00 6.45792E-03-7.94137E-02-1.08097E-14-1.10371E-12
 -1      1325 1.88234E+01 4.89290E+00-1.11309E-02-1.57508E-01-4.05116E-14-9.27199E-13
 -1      1326 1.87102E+01 5.23484E+00 8.84847E-03 4.06213E-01 5.05811E-14-1.09641E-12
 -1      1327 1.86820E+01 5.22538E+00 5.07561E-03 2.39686E-01 3.51342E-14-1.10254E-12
 -1      1328 1.88269E+01 4.88976E+00-1.12018E-02 1.58932E-01 3.19584E-14-9.28107E-13
 -1      1329 1.88035E+01 5.22896E+00 1.11223E-02 7.56230E-01 9.75730E-14-1.07117E-12
 -1      1330 1.87488E+01 5.21067E+00 4.06535E-03 5.74595E-01 7.93341E-14-1.09106E-12
 -1      1331 1.88910E+01 4.86190E+00-1.17574E-02 4.86505E-01 1.10936E-13-9.22189E-13
 -1      1332 1.89472E+01 5.21682E+00 1.34679E-02 1.14359E+00 1.47354E-13-1.00190E-12
 -1      1333 1.88658E+01 5.18863E+00 2.98755E-03 9.40696E-01 1.30075E-13-1.04179E-12
 -1      1334 1.90147E+01 4.80799E+00-1.28030E-02 8.40180E-01 1.84562E-13-8.85379E-13
 -1      1335 1.91579E+01 5.19650E+00 1.51490E-02 1.60358E+00 2.09045E-13-8.73277E-13
 -1      1336 1.90389E+01 5.15457E+00 7.98050E-04 1.35995E+00 1.84318E-13-9.49758E-13
 -1      1337 1.92036E+01 4.72157E+00-1.49413E-02 1.24169E+00 2.72974E-13-7.97376E-13
 -1      1338 1.94721E+01 5.16586E+00 1.44786E-02 2.16029E+00 2.75599E-13-6.36609E-13
 -1      1339 1.92913E+01 5.10028E+00-4.97434E-03 1.86027E+00 2.44596E-13-7.79599E-13
 -1      1340 1.94824E+01 4.58684E+00-1.85235E-02 1.71700E+00 3.66921E-13-6.52194E-13
 -1      1341 2.00132E+01 5.11498E+00 1.25355E-02 2.86977E+00 3.23928E-13-1.92887E-13
 -1      1342 1.96920E+01 4.99913E+00-1.85879E-02 2.46852E+00 2.86521E-13-4.62748E-13
 -1      1343 1.99196E+01 4.36489E+00-2.24184E-02 2.28933E+00 4.57460E-13-3.75491E-13
 -1      1344 2.12162E+01 4.89090E+00 1.40272E-02 3.88323E+00 2.96846E-13 6.61304E-13
 -1      1345 2.04826E+01 4.73173E+00-4.30256E-02 3.22346E+00 2.86410E-13 1.39562E-13
 -1      1346 2.07318E+01 3.90758E+00-1.90039E-02 2.96353E+00 4.95725E-13 1.26413E-13
 -1      1347 2.71002E+01 3.16836E+00 8.99405E-01 4.46725E+00 1.58068E-13 2.33286E-12
 -1      1348 2.20889E+01 3.50813E+00-1.76389E-01 3.74534E+00 1.60205E-13 1.16443E-12
 -1      1349 2.22362E+01 2.54112E+00-2.89416E-02 3.27968E+00 4.87740E-13 9.13492E-13
 -1      1350 2.14789E+01 3.51346E-01-7.57495E-01 1.10395E+00 2.77840E-13 2.21867E-12
 -1      1351 2.20859E+01 1.25991E-01-3.97575E-01-1.19153E+00-2.65121E-13 2.02346E-12
 -1      1352 2.08659E+01 3.00667E-01-1.60133E-01-7.25803E-01-2.53957E-13 1.71289E-12
 -1      1353 2.03359E+01 1.53987E-01-7.14140E-02-3.21809E-01-2.03372E-13 1.57152E-12
 -1      1354 1.99657E+01 9.34705E-02-1.28664E-02-2.50183E-01-1.95708E-13 1.28277E-12
 -1      1355 2.12066E+01 3.63236E-01-1.03615E-01-1.11680E+00-4.41959E-13 9.51284E-13
 -1      1356 1.96937E+01 6.94342E-02 3.88376E-03-4.72093E-02-1.58276E-13 1.17402E-12
 -1      1357 1.96494E+01 4.78476E-02 1.42716E-02-2.63930E-02-1.45960E-13 9.59281E-13
 -1      1358 2.03080E+01 1.37871E-01-3.65450E-02-3.37604E-01-3.41768E-13 7.27206E-13
 -1      1359 1.95924E+01 4.03554E-02 1.33591E-02 8.03596E-02-1.15378E-13 8.56055E-13
 -1      1360 1.97084E+01 2.94772E-02 1.17643E-02 9.47282E-02-1.11367E-13 6.96360E-13
 -1      1361 2.00146E+01 6.75449E-02-1.07977E-02 2.72392E-02-2.59981E-13 5.28501E-13
 -1      1362 1.97812E+01 2.84129E-02 8.52303E-03 1.63498E-01-7.55437E-14 6.22802E-13
 -1      1363 1.99969E+01 2.23314E-02 6.99869E-03 1.74930E-01-6.65835E-14 5.41686E-13
 -1      1364 2.00320E+01 4.28427E-02-6.76138E-03 2.37201E-01-1.89423E-13 3.78874E-13
 -1      1365 2.01589E+01 2.35870E-02 4.03384E-03 2.28349E-01-4.27505E-14 4.92455E-13
 -1      1366 2.04516E+01 1.94636E-02 3.97350E-03 2.38749E-01-3.20490E-14 4.32756E-13
 -1      1367 2.02591E+01 3.43020E-02-6.35834E-03 3.84859E-01-1.18256E-13 2.68983E-13
 -1      1368 2.06828E+01 2.17172E-02 1.23954E-03 2.85715E-01-3.41947E-14 4.00825E-13
 -1      1369 2.10439E+01 1.79900E-02 2.09753E-03 2.95909E-01-5.19376E-14 3.32146E-13
 -1      1370 2.06402E+01 3.16865E-02-6.26102E-03 5.06305E-01-8.03689E-14 1.74995E-13
 -1      1371 2.13329E+01 2.03849E-02-6.47726E-04 3.38853E-01-6.83546E-14 3.14223E-13
 -1      1372 2.17572E+01 1.56910E-02 6.30179E-04 3.48716E-01-5.84185E-14 2.30448E-13
 -1      1373 2.11460E+01 3.03125E-02-6.07234E-03 6.15174E-01-1.05542E-13 1.28102E-13
 -1      1374 2.20942E+01 1.71442E-02-2.08686E-03 3.84636E-01-3.70307E-14 2.23264E-13
 -1      1375 2.25709E+01 9.93424E-03-6.42921E-04 3.92803E-01-4.60699E-14 1.80720E-13
 -1      1376 2.17566E+01 2.60974E-02-5.55016E-03 7.11122E-01-9.06397E-14 1.11233E-13
 -1      1377 2.29410E+01 8.74239E-03-2.89560E-03 4.12141E-01-4.95600E-14 1.73146E-13
 -1      1378 2.34436E+01-2.74844E-03-1.37350E-03 4.15395E-01-1.04689E-14 1.20976E-13
 -1      1379 2.24492E+01 1.37546E-02-4.10214E-03 7.79706E-01-5.15523E-14 1.07535E-13
 -1      1380 2.38199E+01-9.05419E-03-2.20740E-03 4.00322E-01 1.00020E-14 9.95558E-14
 -1      1381 2.42926E+01-2.62337E-02-6.37678E-04 3.92916E-01-4.69748E-14 6.61589E-14
 -1      1382 2.31853E+01-1.37188E-02-7.31103E-04 7.88939E-01-1.74943E-14 9.33116E-14
 -1      1383 2.46294E+01-4.03776E-02 1.38764E-03 3.17454E-01-2.73071E-14 1.06762E-13
 -1      1384 2.49752E+01-6.25193E-02 2.82177E-03 2.91152E-01 8.74821E-15 7.52332E-14
 -1      1385 2.38974E+01-6.34269E-02 5.80795E-03 6.87031E-01-4.73666E-15-2.65066E-15
 -1      1386 2.52040E+01-8.52326E-02 9.04538E-03 1.28225E-01 1.20650E-14 1.14821E-13
 -1      1387 2.52849E+01-1.06163E-01 9.44531E-03 7.50780E-02 1.83204E-14 1.24007E-13
 -1      1388 2.44770E+01-1.36350E-01 1.63151E-02 4.09741E-01 3.44447E-14 6.85355E-14
 -1      1389 2.53204E+01-1.31735E-01 1.93983E-02-1.82488E-01 1.70662E-14 1.47757E-13
 -1      1390 2.49938E+01-1.36545E-01 1.66933E-02-2.62095E-01-4.23672E-14 1.60282E-13
 -1      1391 2.47742E+01-2.14676E-01 2.93948E-02-8.80491E-02 6.06286E-15 9.01698E-14
 -1      1392 2.47623E+01-1.47864E-01 2.60019E-02-5.65241E-01-5.82000E-14 1.95607E-13
 -1      1393 2.39706E+01-1.16339E-01 1.69357E-02-6.49059E-01-5.52752E-14 1.07830E-13
 -1      1394 2.46266E+01-2.48929E-01 3.86808E-02-7.64962E-01-2.81511E-14 1.13583E-13
 -1      1395 2.34715E+01-9.15846E-02 1.77407E-02-8.66422E-01-7.47319E-15 9.34114E-14
 -1      1396 2.23649E+01-1.59541E-02 2.19843E-03-9.05951E-01-4.35550E-14 2.72560E-14
 -1      1397 2.39436E+01-1.70689E-01 3.16705E-02-1.41130E+00-6.36002E-14 8.53172E-14
 -1      1398 2.17409E+01 4.91872E-02-8.54205E-03-8.66718E-01 2.88849E-14-1.38778E-14
 -1      1399 2.07185E+01 1.39783E-01-2.59062E-02-8.11667E-01 2.36269E-15 2.81997E-14
 -1      1400 2.28467E+01 4.58918E-02-1.65519E-03-1.65526E+00-2.27912E-14 8.14487E-14
 -1      1401 2.02597E+01 2.02743E-01-3.94484E-02-4.47385E-01-3.03819E-14-5.45189E-14
 -1      1402 1.98076E+01 2.48770E-01-4.80146E-02-3.05037E-01-7.01557E-14-7.94382E-14
 -1      1403 2.17604E+01 3.06706E-01-5.03492E-02-1.17764E+00-2.94521E-14-1.98626E-14
 -1      1404 1.97810E+01 2.54906E-01-4.94031E-02 2.27791E-01-1.34347E-13-1.73075E-13
 -1      1405 2.01451E+01 2.19750E-01-4.27150E-02 3.78295E-01-1.66363E-13-3.60566E-13
 -1      1406 2.12663E+01 4.37397E-01-7.80419E-02-7.15842E-02-1.93325E-13-1.51305E-13
 -1      1407 2.05761E+01 1.61232E-01-2.96328E-02 7.82868E-01-1.14932E-13-4.77687E-13
 -1      1408 2.15694E+01 7.27811E-02-1.24751E-02 8.52453E-01-9.39925E-14-5.95940E-13
 -1      1409 2.16772E+01 3.38791E-01-5.63127E-02 1.08844E+00-2.30933E-13-3.37686E-13
 -1      1410 2.22095E+01 5.14291E-03-4.49467E-04 9.38814E-01-3.30638E-15-5.38514E-13
 -1      1411 2.33592E+01-7.52879E-02 1.61522E-02 9.10787E-01 9.93324E-14-3.87093E-13
 -1      1412 2.27533E+01 8.51266E-02-7.09013E-03 1.67508E+00-2.19755E-14-4.42792E-13
 -1      1413 2.39108E+01-1.06459E-01 1.64574E-02 7.21483E-01 1.25174E-13-3.88092E-13
 -1      1414 2.47903E+01-1.44257E-01 2.62441E-02 6.40831E-01 7.56478E-14-3.42629E-13
 -1      1415 2.39226E+01-1.46349E-01 2.90185E-02 1.52292E+00 1.78647E-13-4.31346E-13
 -1      1416 2.50866E+01-1.36183E-01 1.73451E-02 3.42782E-01 1.18239E-14-2.22031E-13
 -1      1417 2.55115E+01-1.35170E-01 2.08341E-02 2.61470E-01 1.22714E-14-3.07584E-13
 -1      1418 2.47234E+01-2.44164E-01 3.86693E-02 9.13796E-01 9.76389E-14-3.95361E-13
 -1      1419 2.55387E+01-1.09920E-01 1.04090E-02-3.20369E-03 1.08320E-13-2.33216E-13
 -1      1420 2.55462E+01-9.02068E-02 1.04670E-02-5.93503E-02 1.15153E-13-8.16005E-14
 -1      1421 2.49962E+01-2.20495E-01 3.07317E-02 2.32381E-01 1.41184E-13-1.82682E-13
 -1      1422 2.53724E+01-6.61002E-02 3.33773E-03-2.31235E-01 1.66299E-14-3.16500E-14
 -1      1423 2.51015E+01-4.37775E-02 2.16578E-03-2.59640E-01 1.55761E-14 1.44329E-14
 -1      1424 2.48124E+01-1.43892E-01 1.76226E-02-2.85689E-01 1.34098E-13-1.43533E-13
 -1      1425 2.48132E+01-2.79232E-02-7.58974E-04-3.40642E-01 4.60092E-14-3.36224E-14
 -1      1426 2.44065E+01-1.03309E-02-2.11891E-03-3.48773E-01 1.37954E-14 3.87086E-14
 -1      1427 2.43317E+01-6.80654E-02 6.46506E-03-5.80421E-01-7.65013E-15-9.55156E-14
 -1      1428 2.40751E+01-2.62184E-03-2.01219E-03-3.65313E-01-2.56309E-14-1.50227E-15
 -1      1429 2.36363E+01 8.88480E-03-3.29672E-03-3.61756E-01 1.24884E-15-8.00748E-15
 -1      1430 2.37089E+01-1.45784E-02-5.75837E-04-6.90496E-01-5.29221E-15-2.06016E-13
 -1      1431 2.33095E+01 1.10445E-02-1.69028E-03-3.41421E-01 4.98577E-14-8.62158E-15
 -1      1432 2.28987E+01 1.76078E-02-2.92095E-03-3.32500E-01 3.44074E-14 1.23478E-14
 -1      1433 2.30571E+01 1.54461E-02-4.14275E-03-6.81713E-01 3.46972E-14-2.24883E-13
 -1      1434 2.26029E+01 1.67452E-02-8.77336E-04-2.95477E-01-6.78073E-14 7.13127E-14
 -1      1435 2.22477E+01 1.99726E-02-2.05840E-03-2.84982E-01-3.60170E-14 6.08211E-14
 -1      1436 2.24452E+01 2.85941E-02-5.47181E-03-6.10746E-01-6.14179E-15-1.89047E-13
 -1      1437 2.19944E+01 1.78077E-02-1.28720E-04-2.43560E-01-1.85609E-14 3.64665E-14
 -1      1438 2.17022E+01 1.90192E-02-1.22652E-03-2.33449E-01-8.57216E-14-1.07336E-14
 -1      1439 2.19076E+01 3.17305E-02-5.57128E-03-5.15699E-01-4.84352E-14-2.33327E-13
 -1      1440 2.14934E+01 1.65294E-02 3.76906E-04-1.94097E-01-8.85761E-14 2.26659E-14
 -1      1441 2.12613E+01 1.66255E-02-5.97125E-04-1.85217E-01-8.66538E-14-5.81176E-14
 -1      1442 2.14560E+01 2.97852E-02-5.08647E-03-4.18453E-01-1.20987E-13-1.72944E-13
 -1      1443 2.10940E+01 1.42870E-02 6.44744E-04-1.50773E-01-4.28243E-14-1.35629E-13
 -1      1444 2.09144E+01 1.38239E-02-1.80267E-04-1.43373E-01-4.76444E-14-2.00724E-13
 -1      1445 2.10888E+01 2.57376E-02-4.37986E-03-3.29819E-01-9.44323E-14-1.82908E-13
 -1      1446 2.07836E+01 1.18242E-02 7.39526E-04-1.14656E-01-1.02835E-13-2.51159E-13
 -1      1447 2.06476E+01 1.11238E-02 6.86800E-05-1.08692E-01-7.98103E-15-2.97057E-13
 -1      1448 2.07977E+01 2.11859E-02-3.63711E-03-2.54015E-01-9.94545E-14-1.74935E-13
 -1      1449 2.05472E+01 9.50246E-03 7.27932E-04-8.55095E-02 1.49938E-14-2.44540E-13
 -1      1450 2.04463E+01 8.74129E-03 2.01020E-04-8.08160E-02 4.43412E-14-2.45885E-13
 -1      1451 2.05718E+01 1.68922E-02-2.94504E-03-1.91723E-01 3.85395E-14-1.13232E-13
 -1      1452 2.03707E+01 7.47109E-03 6.60224E-04-6.25368E-02 3.90606E-14-2.19222E-13
 -1      1453 2.02973E+01 6.74023E-03 2.58540E-04-5.89118E-02 5.18265E-14-2.34022E-13
 -1      1454 2.03997E+01 1.31607E-02-2.33851E-03-1.41937E-01 9.69984E-14-8.35572E-14
 -1      1455 2.02415E+01 5.76944E-03 5.69024E-04-4.47681E-02 4.66491E-14-1.93316E-13
 -1      1456 2.01893E+01 5.11145E-03 2.70983E-04-4.20136E-02 5.27329E-14-1.39162E-13
 -1      1457 2.02712E+01 1.00646E-02-1.82629E-03-1.02979E-01 4.87366E-14-9.66520E-14
 -1      1458 2.01490E+01 4.38438E-03 4.73415E-04-3.12499E-02 6.08849E-14-2.81865E-13
 -1      1459 2.01128E+01 3.81503E-03 2.58054E-04-2.91891E-02 4.31325E-14-1.66751E-13
 -1      1460 2.01770E+01 7.57076E-03-1.40463E-03-7.30277E-02 6.41402E-14-6.10015E-14
 -1      1461 2.00843E+01 3.28067E-03 3.83468E-04-2.11259E-02 8.80077E-14 4.00702E-15
 -1      1462 2.00601E+01 2.80135E-03 2.32210E-04-1.96083E-02 1.47983E-13 1.27210E-13
 -1      1463 2.01095E+01 5.60445E-03-1.06430E-03-5.03701E-02 1.79104E-13-2.09508E-13
 -1      1464 2.00406E+01 2.41630E-03 3.03742E-04-1.36641E-02 4.39344E-14 1.92035E-13
 -1      1465 2.00252E+01 2.02098E-03 2.01021E-04-1.25652E-02-7.97803E-14 1.00879E-13
 -1      1466 2.00624E+01 4.08061E-03-7.94160E-04-3.34981E-02 1.69943E-13-1.98404E-13
 -1      1467 2.00123E+01 1.74974E-03 2.35620E-04-8.25781E-03-1.13665E-13 2.60988E-13
 -1      1468 2.00032E+01 1.42888E-03 1.68869E-04-7.47713E-03-1.38545E-13 7.09310E-14
 -1      1469 2.00306E+01 2.91770E-03-5.82966E-04-2.11389E-02-7.12059E-14 1.84130E-14
 -1      1470 1.99953E+01 1.24304E-03 1.78770E-04-4.41587E-03-1.66500E-13-1.27895E-14
 -1      1471 1.99906E+01 9.85657E-04 1.38099E-04-3.87354E-03-1.54580E-13-2.57301E-13
 -1      1472 2.00101E+01 2.04310E-03-4.20179E-04-1.22468E-02-2.29733E-13-9.10246E-14
 -1      1473 1.99862E+01 8.62719E-04 1.32008E-04-1.74883E-03 1.16689E-13-1.87180E-14
 -1      1474 1.99846E+01 6.57488E-04 1.09774E-04-1.38276E-03 1.79794E-13 1.27617E-13
 -1      1475 1.99978E+01 1.39424E-03-2.96325E-04-5.98201E-03 7.80983E-14 5.62576E-14
 -1      1476 1.99826E+01 5.79591E-04 9.38395E-05 4.46105E-05 6.87743E-16 3.05863E-13
 -1      1477 1.99831E+01 4.15320E-04 8.42629E-05 2.81329E-04 1.78580E-14 4.72233E-13
 -1      1478 1.99914E+01 9.17792E-04-2.03042E-04-1.68561E-03 2.47966E-13 2.87406E-13
 -1      1479 1.99827E+01 3.67889E-04 6.29491E-05 1.18913E-03 6.96392E-14 3.90083E-13
 -1      1480 1.99845E+01 2.33559E-04 6.19490E-05 1.33011E-03 1.67011E-13 5.49877E-13
 -1      1481 1.99891E+01 5.67623E-04-1.32947E-04 1.14377E-03 8.80920E-14 4.14542E-13
 -1      1482 1.99852E+01 2.03848E-04 3.89906E-05 1.84078E-03 1.95226E-13 5.00311E-13
 -1      1483 1.99877E+01 8.83338E-05 4.44219E-05 1.90728E-03 9.30098E-14 7.28787E-13
 -1      1484 1.99894E+01 3.02119E-04-7.91764E-05 2.86809E-03 1.69884E-13 3.81963E-13
 -1      1485 1.99889E+01 6.33778E-05 2.43143E-05 2.09022E-03-1.67865E-14 5.50436E-13
 -1      1486 1.99916E+01-4.52300E-05 3.64643E-05 2.08981E-03-3.85045E-14 4.72496E-13
 -1      1487 1.99913E+01 7.97279E-05-3.46712E-05 3.72092E-03 3.89337E-14 2.00526E-13
 -1      1488 1.99931E+01-8.29503E-05 2.53650E-05 1.95852E-03 7.64556E-15 4.86274E-13
 -1      1489 1.99955E+01-1.96014E-04 3.96547E-05 1.87977E-03-7.67289E-14 3.90038E-13
 -1      1490 1.99939E+01-1.49910E-04 7.15012E-06 3.80362E-03-1.00287E-13 2.55912E-13
 -1      1491 1.99968E+01-2.65679E-04 4.43214E-05 1.38942E-03-1.42292E-13 5.00173E-13
 -1      1492 1.99984E+01-3.51153E-04 5.22931E-05 1.23529E-03-1.08099E-13 4.03344E-13
 -1      1493 1.99966E+01-4.61744E-04 4.72416E-05 3.10189E-03-6.01911E-14 3.91409E-13
 -1      1494 1.99996E+01-3.00047E-04 1.03846E-04 1.82720E-04-2.35127E-13 2.19567E-13
 -1      1495 1.99990E+01-8.79017E-04 6.38873E-05 1.31310E-03-3.15876E-13 3.24626E-13
 -1      1496 2.04684E+01 7.44184E-02-1.48331E-01 4.18178E-01 2.28765E-13 1.71246E-12
 -1      1497 2.16362E+01 2.16067E-01-2.27898E-01 6.50740E-01 2.01228E-13 2.08172E-12
 -1      1498 2.18676E+01 8.63507E-01-8.78055E-02 1.92979E+00 4.02768E-13 1.33146E-12
 -1      1499 1.97071E+01 3.38006E-02-2.00449E-02 1.20559E-01 1.68438E-13 1.27076E-12
 -1      1500 2.00360E+01 1.15286E-01-6.03560E-02 1.73333E-01 1.67071E-13 1.54534E-12
 -1      1501 2.05840E+01 1.84390E-01-5.58296E-02 6.60494E-01 3.43982E-13 9.96745E-13
 -1      1502 1.95102E+01 1.81335E-02 5.46032E-03-2.08760E-02 1.04659E-13 9.47877E-13
 -1      1503 1.95499E+01 5.60703E-02 2.14620E-03 8.50703E-03 1.08251E-13 1.14633E-12
 -1      1504 1.99973E+01 7.47531E-02-1.35341E-02 1.64554E-01 2.50850E-13 7.14822E-13
 -1      1505 1.96183E+01 1.12435E-02 6.04458E-03-9.86562E-02 9.14160E-14 7.22963E-13
 -1      1506 1.95160E+01 3.25646E-02 1.15633E-02-7.94934E-02 7.42418E-14 8.59354E-13
 -1      1507 1.98449E+01 3.77302E-02-4.57858E-03-7.37429E-02 1.68443E-13 5.08673E-13
 -1      1508 1.99083E+01 7.88937E-03 3.51358E-03-1.48303E-01 6.30199E-14 5.49305E-13
 -1      1509 1.97225E+01 2.21314E-02 8.71784E-03-1.34145E-01 6.00793E-14 6.56801E-13
 -1      1510 1.99459E+01 2.23163E-02-4.28888E-03-2.11343E-01 1.41968E-13 3.65771E-13
 -1      1511 2.03176E+01 5.58027E-03 1.94619E-03-1.82632E-01 8.57452E-15 4.54331E-13
 -1      1512 2.00764E+01 1.63164E-02 5.43601E-03-1.71397E-01 3.70437E-14 5.04258E-13
 -1      1513 2.02062E+01 1.45506E-02-4.68669E-03-3.00900E-01 9.32401E-14 2.83409E-13
 -1      1514 2.08063E+01 3.10663E-03 1.41212E-03-2.05279E-01 5.86942E-14 3.18480E-13
 -1      1515 2.05277E+01 1.17646E-02 3.40375E-03-1.96493E-01 3.32375E-14 3.94840E-13
 -1      1516 2.05711E+01 9.01914E-03-4.51514E-03-3.61304E-01 6.17234E-14 1.89426E-13
 -1      1517 2.13386E+01-4.14045E-04 1.73281E-03-2.14694E-01 4.98304E-14 1.46829E-13
 -1      1518 2.10401E+01 6.46113E-03 2.24412E-03-2.09040E-01 6.55712E-14 2.58273E-13
 -1      1519 2.10019E+01 2.90166E-03-3.67015E-03-3.96460E-01 1.21948E-13 1.23510E-13
 -1      1520 2.18705E+01-5.73626E-03 3.02306E-03-2.05325E-01 5.08130E-14 4.70370E-14
 -1      1521 2.15755E+01-1.20933E-03 1.64640E-03-2.04600E-01 2.69281E-14 1.00820E-13
 -1      1522 2.14617E+01-5.89347E-03-1.93824E-03-4.00980E-01 9.01904E-14 3.01703E-14
 -1      1523 2.23411E+01-1.33026E-02 5.52422E-03-1.68515E-01 3.90920E-14-9.47506E-15
 -1      1524 2.20837E+01-1.25255E-02 1.58574E-03-1.75546E-01 5.68300E-14 3.89237E-14
 -1      1525 2.19057E+01-1.90499E-02 1.04641E-03-3.62495E-01 8.79084E-14-4.14000E-14
 -1      1526 2.26680E+01-2.27206E-02 9.24892E-03-9.46747E-02 7.50467E-14-1.18743E-13
 -1      1527 2.24956E+01-2.78561E-02 2.17719E-03-1.12807E-01 4.09950E-14-5.76813E-14
 -1      1528 2.22756E+01-3.72688E-02 5.54967E-03-2.64521E-01 8.87354E-14-1.14201E-14
 -1      1529 2.27521E+01-3.19436E-02 1.34403E-02 2.17621E-02-2.77721E-14-1.06326E-13
 -1      1530 2.27225E+01-4.54846E-02 3.42367E-03-9.92280E-03 2.30276E-14-1.10555E-13
 -1      1531 2.24989E+01-5.88812E-02 1.13037E-02-9.27552E-02 3.03429E-14-1.66627E-14
 -1      1532 2.24993E+01-3.66285E-02 1.60243E-02 1.73843E-01-2.78683E-15-4.95992E-14
 -1      1533 2.26675E+01-6.02240E-02 4.85371E-03 1.29673E-01-3.24653E-14-1.36535E-13
 -1      1534 2.24970E+01-7.79125E-02 1.69646E-02 1.52963E-01-1.51962E-15 3.02998E-14
 -1      1535 2.18639E+01-3.08576E-02 1.37252E-02 3.32457E-01 2.84850E-14-1.61940E-13
 -1      1536 2.22556E+01-6.32119E-02 5.24570E-03 2.83528E-01 3.95690E-14-9.57151E-14
 -1      1537 2.22088E+01-8.30916E-02 1.98812E-02 4.41981E-01 4.17747E-14-7.25739E-14
 -1      1538 2.09054E+01-1.05081E-02 3.70959E-03 4.43638E-01 3.22854E-15-1.22145E-13
 -1      1539 2.14830E+01-4.51062E-02 2.87203E-03 4.05476E-01 1.70870E-16-1.47694E-13
 -1      1540 2.16289E+01-6.06744E-02 1.69634E-02 7.00313E-01 9.16454E-15-3.92429E-14
 -1      1541 1.98274E+01 2.13835E-02-1.32610E-02 4.44271E-01 6.80445E-16-1.41200E-13
 -1      1542 2.04679E+01-3.41281E-03-3.26080E-03 4.35695E-01-9.51366E-15-1.56611E-13
 -1      1543 2.08481E+01-3.93110E-03 6.73208E-03 8.19870E-01 3.23055E-14-8.97372E-14
 -1      1544 1.89499E+01 5.19360E-02-3.02897E-02 2.99287E-01 1.08222E-13-3.80473E-13
 -1      1545 1.94633E+01 5.00737E-02-1.15248E-02 3.31517E-01 1.05907E-13-2.12760E-13
 -1      1546 2.00668E+01 7.52110E-02-7.80547E-03 7.05146E-01 1.14889E-13-2.09815E-13
 -1      1547 1.85880E+01 6.44717E-02-3.74110E-02 3.97882E-02-5.63456E-14-4.94408E-13
 -1      1548 1.87913E+01 9.10004E-02-1.73652E-02 1.05350E-01 1.65753E-14-4.35926E-13
 -1      1549 1.95427E+01 1.42068E-01-2.00381E-02 3.44040E-01 1.09683E-13-1.74843E-13
 -1      1550 1.88893E+01 5.15569E-02-2.86032E-02-2.38861E-01-4.41609E-14-3.93442E-13
 -1      1551 1.87005E+01 9.78630E-02-1.61767E-02-1.64904E-01-5.90934E-14-4.86687E-13
 -1      1552 1.94757E+01 1.58985E-01-2.35469E-02-1.52191E-01-3.69305E-14-2.08905E-13
 -1      1553 1.97467E+01 2.10802E-02-9.12724E-03-4.29145E-01-3.64131E-14-3.11196E-13
 -1      1554 1.92333E+01 6.84353E-02-7.70117E-03-3.75196E-01-4.58678E-14-3.76473E-13
 -1      1555 1.98983E+01 1.13386E-01-1.81748E-02-5.95569E-01-5.04180E-14-2.20371E-13
 -1      1556 2.08627E+01-1.00391E-02 1.06796E-02-4.76303E-01 1.18422E-13-3.24712E-13
 -1      1557 2.02011E+01 2.12574E-02 3.08346E-03-4.56770E-01 4.29633E-14-2.58821E-13
 -1      1558 2.06568E+01 3.15968E-02-8.61482E-03-8.29726E-01 1.60050E-15-2.82753E-13
 -1      1559 2.19094E+01-2.95364E-02 2.20527E-02-3.97081E-01 1.08295E-13-6.76514E-13
 -1      1560 2.12916E+01-2.04971E-02 1.09002E-02-4.08716E-01 1.33153E-13-4.10331E-13
 -1      1561 2.15020E+01-4.44648E-02-1.27368E-04-8.13195E-01 1.70147E-13-2.99014E-13
 -1      1562 2.26629E+01-3.46221E-02 2.35168E-02-2.50651E-01-4.05041E-14-7.51850E-13
 -1      1563 2.22185E+01-4.35500E-02 1.31026E-02-2.79739E-01-1.82059E-14-7.56843E-13
 -1      1564 2.22102E+01-8.68781E-02 4.75205E-03-6.11950E-01 1.02085E-13-4.34468E-13
 -1      1565 2.30460E+01-2.96420E-02 1.84661E-02-9.70556E-02-3.48441E-14-6.30138E-13
 -1      1566 2.28183E+01-4.76250E-02 1.08362E-02-1.29642E-01-6.28213E-14-7.43445E-13
 -1      1567 2.26562E+01-9.27456E-02 6.28534E-03-3.35474E-01-4.40880E-14-5.96378E-13
 -1      1568 2.30945E+01-2.04666E-02 1.12858E-02 2.65461E-02-4.81728E-14-5.44130E-13
 -1      1569 2.30607E+01-3.96409E-02 6.64066E-03-7.66167E-04-1.33322E-14-5.63958E-13
 -1      1570 2.28184E+01-7.51421E-02 5.72485E-03-7.51722E-02-5.63603E-14-5.25689E-13
 -1      1571 2.28994E+01-1.13174E-02 4.91802E-03 1.07544E-01-2.89187E-14-4.32411E-13
 -1      1572 2.30051E+01-2.71106E-02 2.64979E-03 8.87490E-02-4.30194E-14-4.43792E-13
 -1      1573 2.27435E+01-4.92425E-02 4.29532E-03 1.20372E-01-6.87566E-14-4.17966E-13
 -1      1574 2.25598E+01-4.17437E-03 5.17371E-04 1.49197E-01 1.18321E-13-6.38796E-13
 -1      1575 2.27468E+01-1.50348E-02-1.21049E-04 1.38591E-01 8.44435E-14-4.80432E-13
 -1      1576 2.25058E+01-2.51456E-02 2.78709E-03 2.40216E-01 9.35614E-14-3.12651E-13
 -1      1577 2.21582E+01 5.60144E-04-1.95289E-03 1.61393E-01-4.71670E-14-7.84680E-13
 -1      1578 2.23788E+01-5.65352E-03-1.56559E-03 1.57106E-01-6.40465E-15-7.36966E-13
 -1      1579 2.21786E+01-7.14783E-03 1.55291E-03 2.95106E-01 5.38829E-14-3.65639E-13
 -1      1580 2.17524E+01 3.24672E-03-3.00181E-03 1.54685E-01 3.83775E-15-6.78042E-13
 -1      1581 2.19739E+01 6.29824E-04-2.02366E-03 1.54611E-01-5.18380E-14-7.45804E-13
 -1      1582 2.18204E+01 4.28984E-03 6.69800E-04 3.03430E-01-9.27282E-14-3.38785E-13
 -1      1583 2.13777E+01 4.46003E-03-3.17772E-03 1.37666E-01 4.31834E-14-8.20892E-13
 -1      1584 2.15807E+01 4.27948E-03-1.90898E-03 1.40043E-01 8.73229E-14-7.46114E-13
 -1      1585 2.14710E+01 1.04128E-02 9.33896E-05 2.82987E-01 6.00490E-14-4.20452E-13
 -1      1586 2.10516E+01 4.73050E-03-2.89872E-03 1.16367E-01-3.42903E-14-8.36120E-13
 -1      1587 2.12268E+01 6.00714E-03-1.54255E-03 1.19924E-01 5.16194E-14-8.50742E-13
 -1      1588 2.11541E+01 1.28446E-02-2.52920E-04 2.47682E-01 4.43755E-14-4.66400E-13
 -1      1589 2.07801E+01 4.46093E-03-2.43272E-03 9.45761E-02 4.43141E-14-8.36446E-13
 -1      1590 2.09248E+01 6.47527E-03-1.12009E-03 9.84886E-02-2.51198E-14-8.35988E-13
 -1      1591 2.08810E+01 1.29963E-02-4.39187E-04 2.07042E-01-2.08902E-14-3.85788E-13
 -1      1592 2.05618E+01 3.92522E-03-1.93119E-03 7.44138E-02-1.16075E-13-6.69181E-13
 -1      1593 2.06770E+01 6.19716E-03-7.38908E-04 7.81939E-02-5.02807E-14-7.75310E-13
 -1      1594 2.06546E+01 1.19025E-02-5.19334E-04 1.66926E-01-3.25902E-14-4.34372E-13
 -1      1595 2.03914E+01 3.29506E-03-1.46939E-03 5.68812E-02-1.63628E-13-4.17136E-13
 -1      1596 2.04805E+01 5.53111E-03-4.34998E-04 6.02742E-02-8.05577E-14-6.09481E-13
 -1      1597 2.04729E+01 1.02470E-02-5.32125E-04 1.30520E-01-2.14184E-13-4.05377E-13
 -1      1598 2.02620E+01 2.66999E-03-1.07784E-03 4.22844E-02 1.06692E-13-5.12295E-13
 -1      1599 2.03290E+01 4.70894E-03-2.11970E-04 4.51848E-02 2.04399E-14-4.93848E-13
 -1      1600 2.03311E+01 8.44536E-03-5.04586E-04 9.92375E-02 5.19514E-14-4.72333E-13
 -1      1601 2.01664E+01 2.10206E-03-7.62985E-04 3.05316E-02-5.80433E-15-5.52667E-13
 -1      1602 2.02153E+01 3.87033E-03-5.92688E-05 3.29237E-02 1.92500E-15-4.80700E-13
 -1      1603 2.02233E+01 6.72901E-03-4.55198E-04 7.34005E-02-3.04780E-15-3.94605E-13
 -1      1604 2.00978E+01 1.61380E-03-5.19550E-04 2.13281E-02-7.46961E-14-2.82243E-13
 -1      1605 2.01325E+01 3.09239E-03 3.79526E-05 2.32459E-02-6.37046E-14-3.86352E-13
 -1      1606 2.01434E+01 5.21102E-03-3.96317E-04 5.27180E-02-1.46686E-13-2.00253E-13
 -1      1607 2.00503E+01 1.21027E-03-3.37436E-04 1.42969E-02 1.00275E-13-5.59818E-13
 -1      1608 2.00739E+01 2.41187E-03 9.41469E-05 1.57981E-02 1.44459E-13-3.15526E-13
 -1      1609 2.00860E+01 3.93282E-03-3.35917E-04 3.65947E-02 1.19114E-13-3.68996E-13
 -1      1610 2.00188E+01 8.86911E-04-2.05365E-04 9.04906E-03 5.43017E-14-6.76513E-13
 -1      1611 2.00341E+01 1.84068E-03 1.21533E-04 1.01997E-02-6.60442E-16-6.59015E-13
 -1      1612 2.00460E+01 2.89497E-03-2.78857E-04 2.43229E-02 8.16426E-14-2.86198E-13
 -1      1613 1.99992E+01 6.34359E-04-1.12662E-04 5.22288E-03-1.60920E-14-6.95333E-13
 -1      1614 2.00083E+01 1.37626E-03 1.29665E-04 6.08800E-03 4.16795E-14-6.47171E-13
 -1      1615 2.00193E+01 2.07666E-03-2.27801E-04 1.51947E-02 2.17519E-14-8.91184E-14
 -1      1616 1.99882E+01 4.41289E-04-4.99999E-05 2.50252E-03 1.26403E-13-7.29569E-13
 -1      1617 1.99930E+01 1.00822E-03 1.25608E-04 3.14118E-03-3.37227E-14-6.86208E-13
 -1      1618 2.00026E+01 1.44738E-03-1.83896E-04 8.56226E-03 7.78758E-15-1.22948E-13
 -1      1619 1.99833E+01 2.96014E-04-9.57816E-06 6.25191E-04-1.02527E-13-8.52210E-13
 -1      1620 1.99850E+01 7.22378E-04 1.14336E-04 1.08804E-03 2.85886E-14-7.60293E-13
 -1      1621 1.99931E+01 9.73751E-04-1.47242E-04 3.86672E-03 2.31015E-14-1.42500E-13
 -1      1622 1.99826E+01 1.87097E-04 1.51913E-05-6.17795E-04-1.84214E-13-5.16832E-13
 -1      1623 1.99822E+01 5.02924E-04 9.92362E-05-2.89627E-04-1.19206E-13-6.15599E-13
 -1      1624 1.99887E+01 6.22901E-04-1.17136E-04 6.48664E-04-2.20210E-13 1.01139E-13
 -1      1625 1.99846E+01 1.02747E-04 3.07645E-05-1.38152E-03 5.16085E-14-3.83051E-13
 -1      1626 1.99829E+01 3.32694E-04 8.28526E-05-1.15758E-03-2.57558E-15-5.70777E-13
 -1      1627 1.99878E+01 3.63424E-04-9.17860E-05-1.45032E-03-3.91980E-14-1.66581E-13
 -1      1628 1.99881E+01 3.16903E-05 4.44684E-05-1.76603E-03 9.24284E-14-5.37182E-13
 -1      1629 1.99858E+01 1.93182E-04 6.80325E-05-1.62790E-03 1.01505E-13-4.21995E-13
 -1      1630 1.99892E+01 1.63869E-04-6.77349E-05-2.68639E-03 1.66044E-13-2.89379E-13
 -1      1631 1.99923E+01-3.90792E-05 6.47298E-05-1.81855E-03-3.83593E-14-6.09867E-13
 -1      1632 1.99897E+01 6.43507E-05 5.87554E-05-1.76094E-03 4.04223E-14-5.72738E-13
 -1      1633 1.99918E+01-6.60223E-06-3.96550E-05-3.21459E-03 1.28081E-13-2.39456E-13
 -1      1634 1.99962E+01-1.27944E-04 9.34999E-05-1.51802E-03-4.53757E-14-4.29427E-13
 -1      1635 1.99939E+01-8.28179E-05 5.94289E-05-1.55964E-03-1.07611E-13-6.10779E-13
 -1      1636 1.99948E+01-1.86635E-04-7.26004E-07-3.08320E-03-1.34072E-13-1.90817E-13
 -1      1637 1.99989E+01-2.63358E-04 6.98329E-05-8.18781E-04 1.19633E-13-5.59619E-13
 -1      1638 1.99974E+01-2.67275E-04 6.56027E-05-9.72203E-04 8.12830E-14-5.46488E-13
 -1      1639 1.99975E+01-4.52115E-04 4.33197E-05-2.24167E-03 1.72527E-13-2.05169E-13
 -1      1640 1.99995E+01-3.34296E-04 8.42005E-05-2.12528E-04-2.92112E-13-3.31276E-13
 -1      1641 1.99996E+01-2.95297E-03 3.48803E-05-1.34943E-03-3.54752E-14 1.91242E-13
 -1      1642 1.99995E+01-1.49221E-03 2.66416E-05-1.15923E-03-3.31750E-13 2.04840E-13
 -1      1643 1.99998E+01-6.25435E-03-5.52324E-06-1.71790E-03 8.62095E-14 1.37376E-13
 -1      1644 1.99997E+01-4.18765E-03 1.94292E-05-1.68750E-03 9.34290E-15 2.13409E-14
 -1      1645 1.99995E+01-3.21770E-03 3.10813E-05-2.86845E-03 4.23130E-14 1.20563E-13
 -1      1646 1.99999E+01-9.66720E-03-2.19130E-05-1.67271E-03-3.59191E-13-2.93396E-13
 -1      1647 1.99998E+01-7.57760E-03-1.89723E-06-1.71401E-03-7.18689E-14-4.69338E-14
 -1      1648 1.99998E+01-5.71732E-03-6.51322E-06-3.25074E-03-2.43749E-16-1.47933E-13
 -1      1649 1.99999E+01-1.26724E-02-2.23962E-05-1.40079E-03-4.18159E-13-1.05573E-13
 -1      1650 1.99999E+01-1.08828E-02-9.26879E-06-1.47189E-03-4.24428E-13 8.61954E-14
 -1      1651 2.00000E+01-8.17376E-03-2.80268E-05-2.98988E-03-3.39205E-13-3.32405E-13
 -1      1652 1.99999E+01-1.49752E-02-1.74727E-05-1.04519E-03-2.14719E-13 1.51184E-13
 -1      1653 1.99999E+01-1.36363E-02-7.29132E-06-1.12018E-03-4.13953E-13-1.39837E-13
 -1      1654 2.00000E+01-1.02693E-02-3.69088E-05-2.40425E-03-2.20937E-13-1.34611E-13
 -1      1655 1.99999E+01-1.65784E-02-1.11750E-05-6.73816E-04-2.39234E-13-1.33451E-13
 -1      1656 1.99999E+01-1.56797E-02-4.81735E-06-7.45514E-04-3.01286E-13 7.26356E-14
 -1      1657 2.00000E+01-1.18605E-02-3.47774E-05-1.71124E-03-1.72499E-13 6.33273E-14
 -1      1658 1.99999E+01-1.74491E-02-6.11272E-06-3.23046E-04-4.19432E-13-2.26210E-13
 -1      1659 1.99999E+01-1.69976E-02-2.79774E-06-3.88196E-04-2.12883E-13-2.37015E-13
 -1      1660 2.00000E+01-1.29235E-02-3.07726E-05-1.01668E-03-2.39270E-13-2.26247E-13
 -1      1661 1.99999E+01-1.76200E-02-3.35178E-06 1.27121E-05-1.70315E-13 1.78003E-13
 -1      1662 1.99999E+01-1.75981E-02-3.28300E-06-5.03204E-05-3.19077E-13 2.76824E-14
 -1      1663 2.00000E+01-1.34606E-02-2.79867E-05-3.57833E-04 5.08717E-14-1.18577E-13
 -1      1664 1.99999E+01-1.70896E-02-3.08534E-06 3.56278E-04-2.70195E-13 4.05873E-14
 -1      1665 1.99999E+01-1.75031E-02-6.36254E-06 2.89242E-04-3.78987E-13 1.00282E-13
 -1      1666 2.00000E+01-1.34929E-02-2.85332E-05 2.89108E-04 6.49968E-14 3.16283E-14
 -1      1667 1.99999E+01-1.58192E-02-5.13301E-06 7.27413E-04-7.10053E-13-2.69221E-13
 -1      1668 1.99999E+01-1.66950E-02-1.19221E-05 6.52429E-04-3.58083E-13-1.44621E-13
 -1      1669 2.00000E+01-1.30129E-02-3.22323E-05 9.65439E-04-3.47087E-13-1.22938E-13
 -1      1670 1.99999E+01-1.38060E-02-8.45448E-06 1.11594E-03-7.14849E-13 1.10550E-13
 -1      1671 2.00000E+01-1.51420E-02-1.84280E-05 1.03772E-03-6.67219E-13-2.08851E-13
 -1      1672 2.00001E+01-1.19974E-02-3.67503E-05 1.68463E-03-1.91314E-13-3.55567E-13
 -1      1673 1.99999E+01-1.10082E-02-9.50033E-06 1.49069E-03-4.55085E-13 8.59691E-15
 -1      1674 1.99999E+01-1.28210E-02-2.36588E-05 1.41591E-03-6.99720E-13 2.87317E-13
 -1      1675 2.00000E+01-1.04161E-02-3.81681E-05 2.41398E-03-2.88822E-13 3.58486E-13
 -1      1676 1.99998E+01-7.66113E-03-5.53005E-06 1.75253E-03-4.09722E-13-8.63442E-14
 -1      1677 1.99999E+01-9.77738E-03-2.23396E-05 1.70329E-03-4.13074E-13-7.14004E-14
 -1      1678 2.00000E+01-8.28658E-03-2.97379E-05 3.03481E-03-2.22817E-13-4.07752E-14
 -1      1679 1.99997E+01-4.27673E-03 2.12874E-07 1.70084E-03-4.71834E-13 6.01620E-14
 -1      1680 1.99998E+01-6.31697E-03-9.68127E-06 1.72847E-03-4.62304E-13 3.77032E-14
 -1      1681 1.99998E+01-5.76794E-03-8.66534E-06 3.30771E-03-6.85458E-14-8.15160E-14
 -1      1682 1.99994E+01-1.74558E-03-9.73728E-06 1.58558E-03-3.82176E-13 1.70618E-14
 -1      1683 1.99995E+01-3.18974E-03-9.87498E-06 1.87707E-03-3.75976E-13 2.06707E-14
 -1      1684 1.99994E+01-3.27400E-03 7.92146E-05 3.28952E-03-6.92149E-14 3.46549E-14
 -1      1685 1.99984E+01-1.42868E-03 4.07371E-05 2.94601E-03-1.09274E-13 8.86248E-14
 -1      1686-5.55942E-01-1.43357E+01-1.63696E+00-8.14593E-01 9.22706E-13 8.53262E-13
 -1      1687-5.62321E-01-1.65964E+01-1.84213E+00 4.09851E-01-3.21521E-13 8.06383E-13
 -1      1688 1.49035E+00-7.70352E+00-1.17321E+00 6.43607E-01 1.79534E-12 1.06617E-12
 -1      1689 6.81699E-01-1.29260E+01-1.69011E+00-2.63186E-02 1.23457E-12 7.22190E-13
 -1      1690 6.88892E+00-8.10290E-02-5.30150E-01 4.64208E+00 2.19003E-12 1.67388E-12
 -1      1691 3.84266E+00-5.52982E+00-1.28379E+00 1.76593E+00 2.00073E-12 1.30029E-12
 -1      1692 1.81336E+01 5.02105E+00 2.55725E-01 9.88837E+00 1.89004E-12 2.28317E-12
 -1      1693 1.12528E+01 1.65160E+00-6.32417E-01 6.07862E+00 2.10276E-12 1.78157E-12
 -1      1694 3.21062E+01 6.15501E+00 9.07604E-01 1.22766E+01 1.52789E-12 2.28639E-12
 -1      1695 2.32720E+01 6.06582E+00 1.42160E-01 1.05535E+01 1.79845E-12 2.28373E-12
 -1      1696 4.58762E+01 4.73096E+00 1.44811E+00 9.03698E+00 9.57137E-13 1.53777E-12
 -1      1697 3.70545E+01 6.26642E+00 8.16214E-01 1.08947E+01 1.36974E-12 2.04792E-12
 -1      1698 5.43991E+01 3.50326E+00 1.84768E+00 2.93538E+00 5.54390E-13 5.00988E-13
 -1      1699 5.01683E+01 4.67918E+00 1.53532E+00 8.02037E+00 8.19428E-13 1.39311E-12
 -1      1700 5.17746E+01 4.28237E+00 1.56800E+00-5.58288E+00 7.98389E-13-9.77995E-13
 -1      1701 5.41939E+01 3.64700E+00 1.76770E+00 1.54171E-01 6.55642E-13 4.40377E-14
 -1      1702 4.14476E+01 5.96770E+00 1.02973E+00-1.05635E+01 1.39636E-12-2.18547E-12
 -1      1703 4.89098E+01 4.36595E+00 1.55471E+00-7.59252E+00 9.44744E-13-1.41342E-12
 -1      1704 2.75425E+01 6.41086E+00 3.67018E-01-1.11207E+01 2.13463E-12-2.71294E-12
 -1      1705 3.71177E+01 5.84809E+00 1.16075E+00-1.19094E+01 1.57180E-12-2.43772E-12
 -1      1706 1.45776E+01 2.23071E+00-4.36857E-01-7.02168E+00 2.71660E-12-2.35978E-12
 -1      1707 2.25518E+01 4.94284E+00 4.72179E-01-1.05914E+01 2.30949E-12-2.56972E-12
 -1      1708 5.33620E+00-4.91732E+00-1.15656E+00-2.58792E+00 2.70151E-12-1.82665E-12
 -1      1709 9.46797E+00 6.42709E-01-3.30258E-01-6.01726E+00 2.81397E-12-2.35312E-12
 -1      1710 8.63068E-01-1.21708E+01-1.63986E+00-1.06486E-03 2.13107E-12-1.07578E-12
 -1      1711 1.72635E+00-6.84401E+00-1.11564E+00-8.28404E-01 2.71605E-12-1.64388E-12
 -1      1712-3.37982E-01-1.55834E+01-1.63655E+00-5.46066E-01 5.01599E-13-7.66220E-13
 -1      1713-2.15326E-01-1.29614E+01-1.42234E+00 3.96553E-01 1.56586E-12-1.04439E-12
 -1      1714-7.07620E-01-1.52061E+01-1.72738E+00-1.09774E+00-9.85378E-13-8.15792E-13
 -1      1715-6.75012E-01-1.67070E+01-1.81153E+00 3.99087E-01 1.09801E-13-6.36324E-13
 -1      1716 8.28050E-01-9.10097E+00-1.36124E+00-1.63240E-01-2.29439E-12-1.40132E-12
 -1      1717 2.67654E-01-1.42150E+01-1.84615E+00-5.23094E-01-1.45217E-12-9.01751E-13
 -1      1718 6.41355E+00-8.50114E-01-6.63189E-01 4.16400E+00-2.89435E-12-2.30460E-12
 -1      1719 3.24750E+00-6.83578E+00-1.47515E+00 1.09869E+00-2.51010E-12-1.66933E-12
 -1      1720 1.85840E+01 4.40417E+00 2.24847E-01 9.66411E+00-2.50244E-12-2.68019E-12
 -1      1721 1.14950E+01 8.15944E-01-7.08511E-01 5.74889E+00-2.76257E-12-2.34524E-12
 -1      1722 3.28985E+01 6.27043E+00 1.02017E+00 1.25586E+01-1.87872E-12-3.05311E-12
 -1      1723 2.35216E+01 6.06114E+00 1.36981E-01 1.06536E+01-2.37377E-12-2.95364E-12
 -1      1724 4.76779E+01 4.61934E+00 1.61869E+00 9.09525E+00-1.11211E-12-2.23022E-12
 -1      1725 3.82585E+01 6.22094E+00 9.17114E-01 1.11590E+01-1.63317E-12-2.71316E-12
 -1      1726 5.56111E+01 3.54558E+00 1.96153E+00 2.08657E+00-6.39766E-13-1.15230E-12
 -1      1727 5.15684E+01 4.60706E+00 1.64769E+00 7.36428E+00-9.17100E-13-1.96543E-12
 -1      1728 5.38328E+01 4.06086E+00 1.79660E+00-5.73540E+00-5.65936E-13 1.31894E-13
 -1      1729 5.62535E+01 3.43726E+00 1.99139E+00-4.78645E-01-5.40096E-13-7.46181E-13
 -1      1730 4.33654E+01 5.74196E+00 1.18591E+00-1.04498E+01-9.19473E-13 1.24389E-12
 -1      1731 5.07541E+01 4.24161E+00 1.75012E+00-7.46815E+00-6.47454E-13 5.42899E-13
 -1      1732 3.02388E+01 6.31355E+00 5.02063E-01-1.14502E+01-1.34337E-12 1.74660E-12
 -1      1733 3.91151E+01 5.63440E+00 1.25400E+00-1.18298E+01-9.72444E-13 1.49747E-12
 -1      1734 1.75466E+01 4.42852E+00-2.32459E-01-8.73355E+00-1.99629E-12 1.84719E-12
 -1      1735 2.51765E+01 5.96738E+00 6.02838E-01-1.15502E+01-1.57918E-12 1.73150E-12
 -1      1736 8.14274E+00-8.48358E-01-9.37910E-01-4.25166E+00-2.50200E-12 1.69675E-12
 -1      1737 1.30829E+01 3.13031E+00-1.36315E-01-7.65329E+00-2.20091E-12 1.81588E-12
 -1      1738 2.59810E+00-8.03451E+00-1.48869E+00-6.89857E-01-2.46780E-12 1.36435E-12
 -1      1739 4.77303E+00-2.71374E+00-8.32353E-01-2.91692E+00-2.61724E-12 1.67599E-12
 -1      1740 1.64312E-01-1.43652E+01-1.81687E+00 5.32140E-01-1.87139E-12 7.98368E-13
 -1      1741 5.49163E-01-9.95739E+00-1.41033E+00 4.08637E-01-2.35323E-12 1.19657E-12
 -1      1742-6.41550E-01-1.69340E+01-1.87512E+00-1.33122E-01-6.88005E-13 6.78846E-13
 -1      1743-6.97107E-01-1.54665E+01-1.76624E+00 1.19360E+00-1.53871E-12 7.21090E-13
 -1      1744 2.48880E+01 1.16797E+00 3.19135E-01 7.39010E+00 1.02462E-12 1.36513E-12
 -1      1745 1.43924E+01-2.73680E+00-2.99309E-01 6.50968E+00 1.14009E-12 1.28436E-12
 -1      1746 1.99994E+01-7.12777E-04 8.95326E-05-8.49055E-04-3.21320E-13-1.52672E-13
 -1      1747 1.99989E+01-1.30579E-03 4.75958E-05-2.00435E-03 5.56353E-14 2.17246E-13
 -1      1748 6.43372E-01-1.00223E+01-1.16187E+00 2.51846E+00 2.90490E-13 1.12266E-12
 -1      1749 5.92938E+00-6.95701E+00-8.46874E-01 4.54953E+00 8.91953E-13 1.03729E-12
 -1      1750-1.36737E+00-1.15339E+01-1.32960E+00 3.10243E-01-3.21007E-13 1.31684E-12
 -1      1751 3.49772E+01 4.16112E+00 8.30329E-01 6.05003E+00 9.53113E-13 9.92095E-13
 -1      1752 4.25446E+01 6.30454E+00 1.15254E+00 3.53284E+00 1.03673E-12 5.82367E-13
 -1      1753 4.66989E+01 7.45796E+00 1.53403E+00 7.17207E-01 1.07503E-12 6.45456E-14
 -1      1754 4.38849E+01 7.09065E+00 1.30789E+00-2.65012E+00 1.31439E-12-6.26166E-13
 -1      1755 3.76608E+01 5.04653E+00 9.76619E-01-5.41988E+00 1.38217E-12-1.19960E-12
 -1      1756 2.83104E+01 1.37956E+00 4.14554E-01-6.69629E+00 1.49580E-12-1.39633E-12
 -1      1757 1.77979E+01-2.79465E+00-1.05302E-01-6.80092E+00 1.47937E-12-1.38939E-12
 -1      1758 7.56842E+00-6.50816E+00-6.93889E-01-5.24393E+00 1.43108E-12-1.46498E-12
 -1      1759 1.22047E+00-9.45816E+00-1.09088E+00-2.91251E+00 8.11573E-13-1.38212E-12
 -1      1760-1.08055E+00-1.05520E+01-1.14334E+00-6.73363E-01 1.52198E-13-1.34204E-12
 -1      1761 2.83953E-02-1.07698E+01-1.28924E+00 1.81204E+00-6.52756E-13-1.32738E-12
 -1      1762 5.14739E+00-7.80081E+00-9.86376E-01 4.02450E+00-1.35281E-12-1.56086E-12
 -1      1763 1.44682E+01-3.49538E+00-3.46637E-01 6.28177E+00-1.57907E-12-1.62487E-12
 -1      1764 2.53010E+01 6.09037E-01 2.49160E-01 7.15188E+00-1.61648E-12-1.83675E-12
 -1      1765 3.60486E+01 4.14874E+00 9.08745E-01 6.24543E+00-1.39010E-12-1.68354E-12
 -1      1766 4.39052E+01 6.58038E+00 1.35651E+00 3.34234E+00-1.22097E-12-1.24944E-12
 -1      1767 4.81532E+01 7.45606E+00 1.68954E+00 3.97205E-01-1.05332E-12-6.49925E-13
 -1      1768 4.58062E+01 6.90213E+00 1.48581E+00-2.67706E+00-1.00220E-12-3.24740E-14
 -1      1769 3.94097E+01 5.09451E+00 1.09190E+00-5.26820E+00-8.87537E-13 5.35683E-13
 -1      1770 3.05574E+01 2.57026E+00 6.14277E-01-7.08517E+00-1.02207E-12 8.53428E-13
 -1      1771 2.04331E+01-6.48275E-01-6.60673E-03-7.04982E+00-1.34304E-12 8.80074E-13
 -1      1772 1.12939E+01-4.48597E+00-5.66782E-01-5.63833E+00-1.44074E-12 9.84768E-13
 -1      1773 4.19782E+00-8.22249E+00-1.00725E+00-3.65546E+00-1.34326E-12 1.08217E-12
 -1      1774-8.39524E-02-1.09373E+01-1.28688E+00-1.63927E+00-8.05966E-13 1.08397E-12
 -1      1775 2.29263E+01 1.96222E+00-2.58054E-02-2.58620E+00-3.24678E-13 1.60405E-12
 -1      1776 1.99612E+01 3.75287E+00-3.63657E-02-1.88438E+00-4.71310E-13-3.58734E-13
 -1      1777 2.02326E+01 3.58745E+00-3.75608E-02-2.18088E+00-5.26693E-13-1.89994E-13
 -1      1778 2.05587E+01 3.18079E+00-4.57499E-02-2.34013E+00-5.15824E-13 2.47025E-14
 -1      1779 2.07885E+01 2.79667E+00-1.37568E-01-2.62244E+00-5.36337E-13 3.09676E-13
 -1      1780 2.06211E+01 2.71708E+00-2.82041E-03-1.95452E+00-5.48023E-13-5.93102E-14
 -1      1781 1.92949E+01 4.30743E+00-2.08195E-02-1.04365E+00-3.00245E-13-6.61752E-13
 -1      1782 1.94201E+01 4.25888E+00-1.53690E-02-1.24884E+00-3.50778E-13-6.20502E-13
 -1      1783 1.91063E+01 4.44294E+00-1.67407E-02-6.89898E-01-2.08557E-13-7.11283E-13
 -1      1784 1.91933E+01 4.41363E+00-1.21612E-02-8.71401E-01-2.55493E-13-6.89249E-13
 -1      1785 1.94214E+01 3.95934E+00-7.45190E-03-8.93141E-01-3.02608E-13-6.46254E-13
 -1      1786 1.89904E+01 4.52283E+00-1.40167E-02-3.71127E-01-1.20304E-13-7.41490E-13
 -1      1787 1.90407E+01 4.50719E+00-1.13243E-02-5.35385E-01-1.63787E-13-7.29776E-13
 -1      1788 1.92307E+01 4.11624E+00-7.06037E-03-5.73502E-01-1.96609E-13-6.91745E-13
 -1      1789 1.89444E+01 4.55568E+00-1.22308E-02-7.09801E-02-2.85175E-14-7.53335E-13
 -1      1790 1.89592E+01 4.55150E+00-1.15796E-02-2.27323E-01-7.11829E-14-7.50299E-13
 -1      1791 1.91206E+01 4.20138E+00-6.83266E-03-2.81166E-01-1.03990E-13-7.24346E-13
 -1      1792 1.89668E+01 4.54528E+00-1.12473E-02 2.27581E-01 6.28760E-14-7.55833E-13
 -1      1793 1.89468E+01 4.55185E+00-1.26070E-02 7.01717E-02 2.07742E-14-7.56584E-13
 -1      1794 1.90885E+01 4.22393E+00-6.83529E-03-1.43033E-03-4.48242E-15-7.34387E-13
 -1      1795 1.90564E+01 4.49156E+00-1.11547E-02 5.41233E-01 1.50149E-13-7.44804E-13
 -1      1796 1.90022E+01 4.50956E+00-1.43440E-02 3.74004E-01 1.09285E-13-7.56529E-13
 -1      1797 1.91325E+01 4.18735E+00-7.08172E-03 2.81071E-01 9.05023E-14-7.31091E-13
 -1      1798 1.92100E+01 4.39253E+00-1.21880E-02 8.79833E-01 2.34705E-13-6.94719E-13
 -1      1799 1.91231E+01 4.42307E+00-1.69954E-02 6.97435E-01 1.91132E-13-7.28653E-13
 -1      1800 1.92504E+01 4.09141E+00-7.41228E-03 5.78163E-01 1.81901E-13-7.07056E-13
 -1      1801 1.94391E+01 4.23196E+00-1.52688E-02 1.26998E+00 3.48907E-13-5.92065E-13
 -1      1802 1.93121E+01 4.28262E+00-2.10684E-02 1.05670E+00 2.93024E-13-6.46802E-13
 -1      1803 1.94434E+01 3.92761E+00-7.92263E-03 9.04328E-01 2.83136E-13-6.35891E-13
 -1      1804 1.97642E+01 3.97732E+00-2.31749E-02 1.71870E+00 4.56825E-13-4.47871E-13
 -1      1805 1.95841E+01 4.06404E+00-2.78015E-02 1.46677E+00 3.94006E-13-5.31040E-13
 -1      1806 1.97241E+01 3.67307E+00-7.85238E-03 1.26849E+00 4.00832E-13-5.16797E-13
 -1      1807 2.02456E+01 3.53970E+00-4.28981E-02 2.21963E+00 5.43041E-13-1.76709E-13
 -1      1808 1.99734E+01 3.71212E+00-4.02585E-02 1.92472E+00 4.88264E-13-3.39968E-13
 -1      1809 2.01214E+01 3.28068E+00-4.86513E-03 1.65773E+00 4.99207E-13-3.47146E-13
 -1      1810 2.11082E+01 2.66838E+00-5.51686E-02 2.63996E+00 5.49597E-13 3.46424E-13
 -1      1811 2.06016E+01 3.09392E+00-4.99467E-02 2.38098E+00 5.29733E-13 3.04756E-14
 -1      1812 2.07039E+01 2.62491E+00 3.28175E-03 1.98695E+00 5.57736E-13-4.35520E-14
 -1      1813 2.18889E+01 1.19902E+00-1.19802E-01 2.16235E+00 4.75384E-13 9.91832E-13
 -1      1814 2.14549E+01 2.24328E+00-1.91316E-04 2.54454E+00 5.09589E-13 5.73042E-13
 -1      1815 2.11562E+01 1.68028E+00-2.04811E-02 1.92036E+00 5.48289E-13 3.51549E-13
 -1      1816 2.11728E+01 7.72334E-01-5.92125E-02 1.35914E+00 4.70839E-13 8.39797E-13
 -1      1817 2.19550E+01 2.42972E+00 8.86341E-02-2.85858E+00-4.48450E-13 7.71036E-13
 -1      1818 2.04486E+01 3.05938E-01-6.56383E-03 4.86075E-01 3.49248E-13 6.04792E-13
 -1      1819 2.09249E+01 4.43253E-01-1.10333E-02 8.67313E-01 3.93907E-13 7.48263E-13
 -1      1820 2.10105E+01 8.43600E-01 9.67209E-04 1.21275E+00 4.72587E-13 4.72528E-13
 -1      1821 2.17002E+01 1.73305E+00 7.83716E-02-2.12625E+00-4.92339E-13 5.75505E-13
 -1      1822 2.08488E+01 5.17775E-01 3.32410E-02-7.01215E-01-3.94098E-13 4.80476E-13
 -1      1823 2.05041E+01 3.80638E-01 1.13683E-02-3.96413E-01-3.50230E-13 3.78407E-13
 -1      1824 2.03716E+01 2.94681E-01 2.79815E-02-1.30231E-01-3.17825E-13 3.55488E-13
 -1      1825 2.02852E+01 2.25786E-01 1.44513E-02 3.25752E-02-2.76567E-13 2.63754E-13
 -1      1826 2.05968E+01 5.32674E-01-7.70625E-03-4.07148E-01-4.00813E-13 1.53235E-13
 -1      1827 2.02426E+01 1.88217E-01 1.74751E-02 2.05799E-01-2.42460E-13 2.50269E-13
 -1      1828 2.02946E+01 1.58337E-01 1.17579E-02 3.12112E-01-2.02022E-13 1.83578E-13
 -1      1829 2.04158E+01 3.21059E-01-7.62746E-03 9.52264E-02-3.10561E-13 8.53501E-14
 -1      1830 2.03287E+01 1.40731E-01 9.81985E-03 4.37286E-01-1.63832E-13 1.64406E-13
 -1      1831 2.04763E+01 1.28015E-01 9.62395E-03 5.18546E-01-1.23353E-13 1.30293E-13
 -1      1832 2.04139E+01 2.28083E-01-6.76544E-03 4.34148E-01-2.20951E-13 4.13569E-14
 -1      1833 2.05719E+01 1.19419E-01 5.54545E-03 6.19688E-01-1.16221E-13 1.13307E-13
 -1      1834 2.07916E+01 1.13921E-01 8.36092E-03 6.89371E-01-1.02837E-13 5.37691E-14
 -1      1835 2.05507E+01 1.86559E-01-5.89054E-03 6.90887E-01-1.67182E-13 1.71923E-14
 -1      1836 2.09374E+01 1.08013E-01 3.16369E-03 7.77426E-01-8.42380E-14 2.67784E-14
 -1      1837 2.12152E+01 1.02938E-01 7.07776E-03 8.39644E-01-9.13612E-14 2.01846E-14
 -1      1838 2.07986E+01 1.65738E-01-5.06961E-03 9.04873E-01-1.30407E-13-3.12496E-14
 -1      1839 2.14038E+01 9.42022E-02 1.68072E-03 9.16162E-01-9.28981E-14 4.12827E-14
 -1      1840 2.17275E+01 8.23993E-02 4.86749E-03 9.67456E-01-5.19955E-14 5.31229E-14
 -1      1841 2.11388E+01 1.45388E-01-4.49686E-03 1.09056E+00-8.61420E-14-4.64433E-14
 -1      1842 2.19545E+01 6.41301E-02 6.62285E-04 1.02462E+00-4.61538E-14 7.01975E-14
 -1      1843 2.23069E+01 3.64318E-02 8.41179E-04 1.05285E+00-2.84908E-14 7.04176E-14
 -1      1844 2.15586E+01 1.04976E-01-4.26476E-03 1.24191E+00-4.45890E-14-4.43612E-14
 -1      1845 2.25695E+01 2.33461E-05 4.59202E-05 1.07151E+00-1.95933E-14 4.48977E-14
 -1      1846 2.29223E+01-5.45694E-02-5.72805E-03 1.05398E+00-1.89909E-15 6.07956E-14
 -1      1847 2.20490E+01 1.90545E-02-4.39511E-03 1.33057E+00-5.48405E-14-4.84458E-14
 -1      1848 2.32174E+01-1.18140E-01-1.45655E-05 1.00183E+00-1.17423E-14 1.27411E-14
 -1      1849 2.35252E+01-2.08422E-01-1.49092E-02 9.05718E-01 1.63949E-14 3.82042E-14
 -1      1850 2.26012E+01-1.41507E-01-4.74497E-03 1.30195E+00-2.11302E-14-1.68186E-14
 -1      1851 2.38447E+01-3.02387E-01 3.64974E-04 7.39585E-01 3.32902E-14 1.67618E-14
 -1      1852 2.40437E+01-4.22893E-01-2.49502E-02 5.30427E-01 4.99175E-14 3.25846E-14
 -1      1853 2.32016E+01-3.96812E-01-4.74015E-03 1.07543E+00 8.11504E-15-1.65063E-14
 -1      1854 2.43615E+01-5.29978E-01 2.23907E-04 2.11999E-01 4.59615E-14 3.99429E-14
 -1      1855 2.43794E+01-6.40346E-01-3.09648E-02-1.20872E-01 2.37761E-14 5.05221E-14
 -1      1856 2.38180E+01-7.23558E-01-2.76229E-03 5.61284E-01 4.89556E-14 4.09503E-15
 -1      1857 2.46308E+01-7.03693E-01-3.45916E-03-5.84048E-01 4.46067E-14 7.96525E-14
 -1      1858 2.44179E+01-7.11751E-01-2.49608E-02-9.83524E-01 1.74340E-14 1.23127E-13
 -1      1859 2.43706E+01-9.99552E-01 3.44438E-03-2.82447E-01 3.95916E-14 3.80296E-14
 -1      1860 2.44916E+01-6.31671E-01-1.30109E-02-1.46834E+00-5.29889E-14 1.32001E-13
 -1      1861 2.40696E+01-4.33828E-01-4.38232E-03-1.76753E+00-7.59436E-14 1.45835E-13
 -1      1862 2.47015E+01-9.70214E-01 1.32692E-02-1.33499E+00-3.74631E-14 1.57774E-13
 -1      1863 2.38851E+01-1.48440E-01-2.73256E-02-2.00855E+00-8.67978E-14 1.59532E-13
 -1      1864 2.33895E+01 2.51590E-01 1.90027E-02-1.98190E+00-5.56759E-14 1.01048E-13
 -1      1865 2.46245E+01-3.91166E-01 1.20167E-02-2.18604E+00-6.10519E-14 2.30347E-13
 -1      1866 2.30349E+01 6.53241E-01-2.84204E-02-1.69350E+00-9.61158E-14 4.41001E-14
 -1      1867 2.26870E+01 1.01526E+00 2.04503E-02-1.22192E+00-1.58273E-13-4.81221E-14
 -1      1868 2.41237E+01 6.88616E-01-1.15857E-02-2.19280E+00-1.63446E-13 1.28764E-13
 -1      1869 2.24858E+01 1.23168E+00-8.79590E-03-4.42528E-01-2.05329E-13-1.68071E-13
 -1      1870 2.24649E+01 1.26522E+00-5.10012E-03 2.65530E-01-2.68393E-13-2.48323E-13
 -1      1871 2.35923E+01 1.63967E+00-4.19845E-02-1.01324E+00-2.78739E-13-8.81430E-14
 -1      1872 2.26379E+01 1.09966E+00 1.88083E-02 1.09497E+00-3.53689E-13-2.93686E-13
 -1      1873 2.29670E+01 7.63218E-01-2.66989E-02 1.62051E+00-3.01863E-13-3.68294E-13
 -1      1874 2.35605E+01 1.72669E+00-4.30693E-02 8.33130E-01-3.55601E-13-2.92581E-13
 -1      1875 2.33358E+01 3.69934E-01 2.25633E-02 1.98890E+00-1.08174E-13-4.20122E-13
 -1      1876 2.38444E+01-4.08199E-02-2.61060E-02 2.07970E+00 6.48954E-14-4.35894E-13
 -1      1877 2.40803E+01 8.54125E-01-1.38485E-02 2.16880E+00-2.81603E-13-4.38965E-13
 -1      1878 2.40791E+01-3.55406E-01-2.74195E-04 1.90471E+00 1.57572E-13-4.22967E-13
 -1      1879 2.45455E+01-5.86703E-01-1.44834E-02 1.63899E+00 1.78007E-13-4.41868E-13
 -1      1880 2.46416E+01-2.54590E-01 1.04595E-02 2.32187E+00 7.73877E-14-4.73784E-13
 -1      1881 2.45196E+01-6.92248E-01-2.33392E-02 1.17272E+00 1.97634E-13-3.84345E-13
 -1      1882 2.47907E+01-7.05479E-01-3.88719E-03 7.79035E-01 1.93266E-13-2.91585E-13
 -1      1883 2.48178E+01-9.21986E-01 1.21632E-02 1.55982E+00 2.06077E-13-4.56286E-13
 -1      1884 2.45747E+01-6.54874E-01-3.09485E-02 3.08260E-01 1.40690E-13-2.39417E-13
 -1      1885 2.46158E+01-5.51158E-01 8.12122E-04-3.41601E-02 2.20317E-13-1.56422E-13
 -1      1886 2.45675E+01-1.00860E+00 4.35603E-03 5.14878E-01 1.99357E-13-2.82554E-13
 -1      1887 2.43221E+01-4.45180E-01-2.60697E-02-3.68137E-01 1.83296E-13-1.78024E-13
 -1      1888 2.41769E+01-3.21677E-01 1.28489E-03-5.88785E-01 1.14851E-13-1.73602E-13
 -1      1889 2.40736E+01-7.54147E-01-1.92384E-03-3.56332E-01 1.64657E-13-2.51640E-13
 -1      1890 2.38763E+01-2.23763E-01-1.64310E-02-7.66683E-01 3.58992E-14-2.56741E-13
 -1      1891 2.36165E+01-1.27890E-01 6.86482E-04-8.69913E-01-8.41432E-14-2.52879E-13
 -1      1892 2.35011E+01-4.22869E-01-4.72507E-03-9.00418E-01 7.52662E-14-3.90217E-13
 -1      1893 2.33395E+01-6.02743E-02-7.09144E-03-9.27487E-01-9.60044E-14-2.42921E-13
 -1      1894 2.30307E+01-1.45237E-03 5.36871E-04-9.47273E-01-2.62678E-14-2.82793E-13
 -1      1895 2.29400E+01-1.53577E-01-4.81861E-03-1.14510E+00-7.51669E-14-3.91078E-13
 -1      1896 2.27856E+01 3.69697E-02-3.14840E-04-9.30002E-01 5.93232E-15-2.79758E-13
 -1      1897 2.24744E+01 6.61108E-02 7.69257E-04-9.01450E-01 4.20492E-14-2.60113E-13
 -1      1898 2.24259E+01 1.77935E-02-4.15987E-03-1.18104E+00-1.91925E-14-3.16191E-13
 -1      1899 2.22619E+01 8.37420E-02 3.68612E-03-8.45548E-01 9.31356E-14-3.13551E-13
 -1      1900 2.19758E+01 9.37023E-02 1.11079E-03-7.94645E-01 4.19450E-14-2.77860E-13
 -1      1901 2.19698E+01 1.06996E-01-3.55941E-03-1.09592E+00 2.30481E-14-4.03620E-13
 -1      1902 2.17946E+01 9.87396E-02 5.54255E-03-7.24003E-01-2.20826E-14-2.43026E-13
 -1      1903 2.15465E+01 9.80124E-02 1.37539E-03-6.66877E-01-2.81125E-14-3.19297E-13
 -1      1904 2.15743E+01 1.41411E-01-3.13494E-03-9.53921E-01 2.29187E-14-4.85121E-13
 -1      1905 2.13946E+01 9.63538E-02 6.00738E-03-5.95331E-01-1.05216E-13-2.70918E-13
 -1      1906 2.11881E+01 9.05378E-02 1.49937E-03-5.40687E-01-9.89452E-14-2.38774E-13
 -1      1907 2.12381E+01 1.44372E-01-2.81620E-03-7.95440E-01 3.81813E-15-3.57301E-13
 -1      1908 2.10629E+01 8.58451E-02 5.69016E-03-4.75253E-01-7.58434E-14-2.23192E-13
 -1      1909 2.08961E+01 7.82056E-02 1.49338E-03-4.27054E-01-5.14094E-14-1.02617E-13
 -1      1910 2.09579E+01 1.31717E-01-2.53174E-03-6.42934E-01-4.12918E-14-2.82217E-13
 -1      1911 2.07947E+01 7.25366E-02 5.00480E-03-3.70613E-01-6.87102E-14-5.05537E-14
 -1      1912 2.06633E+01 6.47947E-02 1.39555E-03-3.30118E-01-1.90854E-14 4.15881E-14
 -1      1913 2.07288E+01 1.12897E-01-2.24709E-03-5.07144E-01-9.57849E-15-7.25374E-14
 -1      1914 2.05826E+01 5.92048E-02 4.20085E-03-2.83246E-01-1.60583E-14-3.13534E-14
 -1      1915 2.04812E+01 5.21645E-02 1.24521E-03-2.50313E-01 8.67355E-14-3.24988E-14
 -1      1916 2.05447E+01 9.30185E-02-1.95656E-03-3.91867E-01-5.36381E-14-5.72062E-14
 -1      1917 2.04180E+01 4.71334E-02 3.41351E-03-2.12428E-01 6.90000E-14-1.99040E-13
 -1      1918 2.03412E+01 4.10951E-02 1.07313E-03-1.86275E-01 8.93533E-14-2.11147E-13
 -1      1919 2.03995E+01 7.45535E-02-1.66824E-03-2.97134E-01 3.07588E-14-2.88688E-13
 -1      1920 2.02926E+01 3.67921E-02 2.70677E-03-1.56293E-01 1.29246E-13-2.37394E-13
 -1      1921 2.02355E+01 3.17986E-02 9.00084E-04-1.35919E-01 7.02625E-14-1.21050E-13
 -1      1922 2.02868E+01 5.85038E-02-1.39343E-03-2.21145E-01 8.60505E-14-3.96065E-13
 -1      1923 2.01988E+01 2.82368E-02 2.10385E-03-1.12609E-01-7.34557E-14-7.09988E-14
 -1      1924 2.01573E+01 2.42110E-02 7.38498E-04-9.69988E-02-2.80286E-14-1.56430E-13
 -1      1925 2.02009E+01 4.51032E-02-1.14151E-03-1.61370E-01-3.56088E-14-2.02577E-13
 -1      1926 2.01300E+01 2.13306E-02 1.60640E-03-7.91660E-02 2.15715E-13-1.30089E-13
 -1      1927 2.01005E+01 1.81481E-02 5.94770E-04-6.73939E-02 2.66293E-13-5.77573E-14
 -1      1928 2.01367E+01 3.42161E-02-9.18269E-04-1.15141E-01 9.98717E-14-1.28867E-13
 -1      1929 2.00807E+01 1.58616E-02 1.20575E-03-5.39631E-02 3.03973E-13-7.98701E-14
 -1      1930 2.00603E+01 1.33874E-02 4.71273E-04-4.52247E-02 1.96558E-13-2.18800E-14
 -1      1931 2.00895E+01 2.55517E-02-7.26023E-04-7.99513E-02 2.78737E-13-1.33390E-13
 -1      1932 2.00463E+01 1.16007E-02 8.89135E-04-3.52699E-02 1.04176E-13 4.56871E-14
 -1      1933 2.00327E+01 9.70634E-03 3.67838E-04-2.88915E-02 1.69469E-15 1.20131E-13
 -1      1934 2.00558E+01 1.87730E-02-5.64417E-04-5.35835E-02 2.11097E-13-5.74483E-15
 -1      1935 2.00232E+01 8.32993E-03 6.42898E-04-2.16396E-02-1.85635E-13 9.91002E-14
 -1      1936 2.00146E+01 6.89984E-03 2.82760E-04-1.70706E-02-1.08218E-13 1.17816E-13
 -1      1937 2.00322E+01 1.35496E-02-4.31312E-04-3.41477E-02-8.56116E-14 1.20359E-13
 -1      1938 2.00083E+01 5.85248E-03 4.54080E-04-1.18916E-02 2.08006E-14 1.69581E-13
 -1      1939 2.00033E+01 4.78600E-03 2.13437E-04-8.69241E-03 2.37110E-13 2.64365E-13
 -1      1940 2.00165E+01 9.57947E-03-3.23547E-04-2.00799E-02 1.70639E-14 2.73777E-13
 -1      1941 1.99995E+01 3.99578E-03 3.11099E-04-5.08560E-03 3.32587E-13 1.69043E-13
 -1      1942 1.99971E+01 3.20587E-03 1.56749E-04-2.91423E-03 1.94696E-13 2.39434E-13
 -1      1943 2.00064E+01 6.59592E-03-2.37506E-04-1.01168E-02 1.70553E-13 2.18081E-13
 -1      1944 1.99949E+01 2.60920E-03 2.04007E-04-4.92990E-04 8.22696E-14 3.74351E-13
 -1      1945 1.99943E+01 2.01961E-03 1.09262E-04 9.06955E-04 1.59886E-13 4.52490E-13
 -1      1946 2.00005E+01 4.36596E-03-1.69518E-04-3.26493E-03 2.67482E-13 2.43383E-13
 -1      1947 1.99933E+01 1.55874E-03 1.24641E-04 2.42814E-03 1.27385E-13 3.99061E-13
 -1      1948 1.99937E+01 1.10031E-03 6.75252E-05 3.23593E-03 1.23618E-13 3.42593E-13
 -1      1949 1.99975E+01 2.68321E-03-1.16260E-04 1.23046E-03 1.50752E-13 4.14370E-13
 -1      1950 1.99936E+01 7.20988E-04 6.68444E-05 4.05174E-03-5.54627E-15 1.30935E-13
 -1      1951 1.99946E+01 3.31405E-04 3.19052E-05 4.37352E-03-1.53796E-13 1.81918E-14
 -1      1952 1.99965E+01 1.36056E-03-7.42531E-05 3.91148E-03-1.19909E-13 1.90579E-13
 -1      1953 1.99949E+01-3.64308E-05 2.38120E-05 4.61108E-03-1.47555E-13-3.51008E-14
 -1      1954 1.99962E+01-4.17655E-04 1.38439E-06 4.47567E-03-3.26349E-14 9.98869E-14
 -1      1955 1.99967E+01 2.32659E-04-4.06225E-05 5.13184E-03-1.99426E-13-9.57604E-14
 -1      1956 1.99966E+01-7.44727E-04 6.82127E-06 4.20049E-03-3.41881E-14 2.28937E-14
 -1      1957 1.99978E+01-1.16890E-03-2.51665E-05 3.61782E-03-1.11114E-13-3.71337E-15
 -1      1958 1.99984E+01-1.85575E-03-1.52564E-05 4.13960E-03-7.87372E-14-5.43342E-14
 -1      1959 1.99974E+01-8.81205E-04-2.58827E-05 5.12445E-03-1.01407E-13-1.16700E-13
 -1      1960 2.01168E+01 1.60058E-01 9.70528E-03 6.41164E-02 2.62514E-13 4.22960E-13
 -1      1961 2.03028E+01 2.18627E-01 1.74860E-02 2.49694E-01 2.90441E-13 5.42559E-13
 -1      1962 2.04886E+01 3.66634E-01-2.82376E-03 4.29414E-01 3.60460E-13 3.44576E-13
 -1      1963 2.00552E+01 9.70682E-02 8.69566E-03-1.77387E-01 1.88751E-13 2.83719E-13
 -1      1964 2.00693E+01 1.24864E-01 1.52748E-02-6.96899E-02 1.98530E-13 3.64615E-13
 -1      1965 2.02429E+01 1.94072E-01-3.41641E-03-8.91362E-03 2.67716E-13 2.28902E-13
 -1      1966 2.01810E+01 6.53220E-02 6.13458E-03-3.30920E-01 1.58308E-13 1.86288E-13
 -1      1967 2.00913E+01 8.06441E-02 9.53858E-03-2.59919E-01 1.59025E-13 2.52133E-13
 -1      1968 2.02198E+01 1.18089E-01-4.40408E-03-2.74136E-01 1.99414E-13 1.29660E-13
 -1      1969 2.04341E+01 4.52551E-02 4.32172E-03-4.34964E-01 6.10313E-14 1.13423E-13
 -1      1970 2.02781E+01 5.57024E-02 5.54882E-03-3.84621E-01 1.12844E-13 1.53140E-13
 -1      1971 2.03513E+01 7.81931E-02-4.57269E-03-4.47297E-01 1.43034E-13 3.84304E-14
 -1      1972 2.07729E+01 2.72579E-02 2.82062E-03-5.03205E-01 1.26091E-13 3.65944E-14
 -1      1973 2.05744E+01 3.68200E-02 3.08438E-03-4.68251E-01 6.78969E-14 9.69108E-14
 -1      1974 2.05902E+01 5.03859E-02-4.15684E-03-5.63542E-01 1.10099E-13-1.69005E-14
 -1      1975 2.11631E+01 4.91138E-03 1.12041E-03-5.34969E-01 1.19790E-13 3.23196E-14
 -1      1976 2.09416E+01 1.62743E-02 1.28081E-03-5.16448E-01 1.37299E-13 6.85697E-14
 -1      1977 2.09020E+01 2.20711E-02-3.52199E-03-6.33329E-01 1.35585E-13-4.05531E-14
 -1      1978 2.15692E+01-2.69061E-02-1.01172E-03-5.19247E-01 1.10416E-13-6.03987E-14
 -1      1979 2.13456E+01-1.17811E-02-4.01420E-04-5.23017E-01 9.80449E-14-1.25950E-14
 -1      1980 2.12566E+01-1.54397E-02-2.72295E-03-6.51558E-01 1.42691E-13-7.01167E-14
 -1      1981 2.19481E+01-7.14440E-02-3.49559E-03-4.37425E-01 5.50931E-14-3.25525E-14
 -1      1982 2.17485E+01-5.17592E-02-2.18937E-03-4.73058E-01 6.90802E-14-4.78523E-14
 -1      1983 2.16223E+01-6.84780E-02-1.60074E-03-6.01842E-01 8.71874E-14-4.96604E-14
 -1      1984 2.22458E+01-1.27482E-01-5.84869E-03-2.68447E-01 8.56984E-14 5.88657E-15
 -1      1985 2.21024E+01-1.04894E-01-4.06294E-03-3.46823E-01 9.44019E-14 2.92609E-14
 -1      1986 2.19607E+01-1.39102E-01 9.81559E-05-4.61064E-01 7.69888E-14 4.09596E-14
 -1      1987 2.23989E+01-1.84918E-01-7.14350E-03 2.55555E-04 2.52055E-15 8.28309E-14
 -1      1988 2.23481E+01-1.65445E-01-5.77700E-03-1.27656E-01 7.70564E-15 3.06140E-14
 -1      1989 2.22235E+01-2.20245E-01 2.60550E-03-2.08276E-01 1.26045E-14 6.80775E-14
 -1      1990 2.23447E+01-2.20629E-01-6.30574E-03 3.54122E-01 8.19345E-14-4.46093E-14
 -1      1991 2.24189E+01-2.15820E-01-6.89143E-03 1.83325E-01 4.18641E-14 5.18045E-14
 -1      1992 2.23540E+01-2.89418E-01 5.85112E-03 1.58685E-01 5.57896E-14 2.65343E-14
 -1      1993 2.20428E+01-2.00684E-01-2.93267E-03 7.29456E-01 2.92648E-14 1.46281E-14
 -1      1994 2.22562E+01-2.24976E-01-6.85398E-03 5.46795E-01 4.04312E-14-6.76629E-15
 -1      1995 2.22958E+01-3.06394E-01 9.00663E-03 5.99008E-01 3.78343E-14 2.78796E-14
 -1      1996 2.15088E+01-9.66126E-02 1.67137E-03 1.00508E+00 2.59367E-14-4.87596E-14
 -1      1997 2.18405E+01-1.58038E-01-5.03301E-03 8.69641E-01-5.21545E-15-5.52978E-14
 -1      1998 2.20165E+01-2.25203E-01 1.01969E-02 1.00782E+00 4.67035E-14-2.38004E-15
 -1      1999 2.08477E+01 8.44605E-02 4.19371E-03 1.03361E+00 4.30875E-14-5.45970E-14
 -1      2000 2.12301E+01-2.32490E-03-1.33579E-03 1.01607E+00 2.32784E-14-3.02536E-14
 -1      2001 2.15446E+01-2.58054E-02 7.15950E-03 1.22348E+00-1.11202E-14-4.47611E-14
 -1      2002 2.02578E+01 2.77574E-01 2.34820E-03 7.24799E-01 1.56820E-13-8.66356E-14
 -1      2003 2.05838E+01 2.02159E-01 4.00029E-03 8.66005E-01 1.11383E-13-1.71564E-14
 -1      2004 2.10032E+01 2.45167E-01-7.15538E-04 1.09023E+00 1.14552E-13 7.63131E-14
 -1      2005 1.99673E+01 3.82443E-01-2.58238E-03 1.37828E-01 8.66026E-14-6.04521E-14
 -1      2006 2.01245E+01 3.61557E-01 9.18849E-03 4.06047E-01 1.37617E-13-7.12212E-14
 -1      2007 2.05942E+01 4.73770E-01-8.73880E-03 5.69706E-01 1.04210E-13 5.23817E-14
 -1      2008 2.01124E+01 3.37704E-01-5.00378E-03-5.12637E-01-4.99965E-14-2.14780E-13
 -1      2009 2.00362E+01 3.86449E-01 1.22391E-02-2.18298E-01 8.13412E-15-1.96416E-13
 -1      2010 2.05035E+01 5.36680E-01-1.11417E-02-1.81990E-01 9.48287E-14-1.13829E-13
 -1      2011 2.06454E+01 1.70590E-01-2.99931E-03-9.71959E-01-3.27932E-14-2.79533E-13
 -1      2012 2.03571E+01 2.61777E-01 1.08481E-02-7.65414E-01-1.32932E-14-2.21006E-13
 -1      2013 2.07827E+01 3.99307E-01-5.48141E-03-8.72185E-01-3.09561E-15-2.46414E-13
 -1      2014 2.13621E+01-2.28156E-02 1.99195E-03-1.10200E+00 1.17869E-13-3.20723E-13
 -1      2015 2.09583E+01 6.32473E-02 5.22506E-03-1.04012E+00 4.58097E-15-3.22966E-13
 -1      2016 2.13070E+01 1.37874E-01 1.59228E-03-1.24582E+00 3.63728E-14-3.74482E-13
 -1      2017 2.20282E+01-1.59348E-01 5.72532E-03-9.31818E-01 2.24736E-13-4.12939E-13
 -1      2018 2.16304E+01-1.10488E-01-1.77119E-03-9.99332E-01 1.85479E-13-3.11480E-13
 -1      2019 2.18701E+01-1.16339E-01 4.71585E-03-1.23012E+00 1.81257E-13-3.05964E-13
 -1      2020 2.24871E+01-2.09536E-01 6.67872E-03-5.94810E-01 5.92235E-14-5.68286E-13
 -1      2021 2.21875E+01-2.02360E-01-7.07629E-03-7.33715E-01 1.55966E-13-4.36770E-13
 -1      2022 2.23016E+01-2.70033E-01 3.67065E-03-9.24757E-01 1.88340E-13-4.82905E-13
 -1      2023 2.26897E+01-1.91923E-01 5.30305E-03-2.31613E-01-1.39464E-13-6.02759E-13
 -1      2024 2.25287E+01-2.12176E-01-9.19549E-03-3.82709E-01-8.60015E-14-5.75351E-13
 -1      2025 2.25255E+01-3.05646E-01 1.37737E-03-4.99638E-01-4.96669E-14-5.92084E-13
 -1      2026 2.26644E+01-1.40822E-01 3.01481E-03 6.73699E-02-7.82195E-14-5.51351E-13
 -1      2027 2.26371E+01-1.71282E-01-8.64692E-03-5.80724E-02-7.59132E-14-5.79410E-13
 -1      2028 2.25461E+01-2.59186E-01-2.61126E-04-9.63256E-02-9.76597E-14-5.59936E-13
 -1      2029 2.24748E+01-8.41184E-02 9.42631E-04 2.68364E-01-9.09073E-14-5.19723E-13
 -1      2030 2.25504E+01-1.12922E-01-6.61469E-03 1.82952E-01-1.13597E-13-5.58662E-13
 -1      2031 2.24091E+01-1.78549E-01-9.22606E-04 2.09500E-01-1.11154E-13-5.92996E-13
 -1      2032 2.21879E+01-3.68343E-02-4.09562E-04 3.75704E-01 1.04500E-13-2.49879E-13
 -1      2033 2.23287E+01-5.86602E-02-4.15236E-03 3.28926E-01-2.21784E-15-4.23934E-13
 -1      2034 2.21705E+01-9.83435E-02-9.34432E-04 3.99521E-01-5.83574E-14-4.80807E-13
 -1      2035 2.18595E+01-3.62730E-03-1.04906E-03 4.10832E-01-6.19315E-14-1.48776E-13
 -1      2036 2.20317E+01-1.76473E-02-1.92045E-03 3.94130E-01 6.84676E-14-1.40355E-13
 -1      2037 2.18804E+01-3.52887E-02-7.17639E-04 4.88743E-01 1.43462E-14-1.06968E-13
 -1      2038 2.15292E+01 1.65131E-02-1.18963E-03 3.98136E-01-1.09871E-13-1.09195E-13
 -1      2039 2.17076E+01 8.99936E-03-2.15181E-04 4.01597E-01-1.13546E-13-1.32645E-13
 -1      2040 2.15768E+01 6.93501E-03-5.17387E-04 5.04405E-01-9.48926E-14 3.36565E-14
 -1      2041 2.12220E+01 2.66730E-02-1.05925E-03 3.58243E-01 6.57950E-14-9.54304E-14
 -1      2042 2.13903E+01 2.37950E-02 9.14300E-04 3.73388E-01 5.05556E-14-7.35911E-14
 -1      2043 2.12853E+01 3.11589E-02-4.07769E-04 4.73541E-01 2.36139E-14 1.16147E-13
 -1      2044 2.09514E+01 3.00969E-02-8.21556E-04 3.06130E-01-2.67021E-14-2.59085E-13
 -1      2045 2.11006E+01 3.01521E-02 1.54706E-03 3.26739E-01-1.80759E-14-2.78909E-13
 -1      2046 2.10213E+01 4.22213E-02-3.76552E-04 4.17765E-01 9.34532E-14 3.97920E-14
 -1      2047 2.07223E+01 2.94302E-02-5.71424E-04 2.51530E-01 1.45974E-14-3.40703E-13
 -1      2048 2.08488E+01 3.11243E-02 1.80845E-03 2.73513E-01 2.09418E-14-2.48572E-13
 -1      2049 2.07923E+01 4.47236E-02-3.86398E-04 3.52262E-01 6.06139E-14-5.20522E-14
 -1      2050 2.05348E+01 2.65690E-02-3.53889E-04 2.00121E-01-2.30951E-13-1.78332E-13
 -1      2051 2.06381E+01 2.90192E-02 1.82178E-03 2.21055E-01-6.14294E-14-2.66292E-13
 -1      2052 2.06004E+01 4.22423E-02-4.05395E-04 2.86645E-01-1.07107E-13-1.34582E-13
 -1      2053 2.03854E+01 2.27601E-02-1.84058E-04 1.54766E-01-8.83232E-14-3.03569E-13
 -1      2054 2.04674E+01 2.54126E-02 1.68756E-03 1.73394E-01-1.22548E-13-2.21938E-13
 -1      2055 2.04442E+01 3.72590E-02-4.15116E-04 2.26344E-01-1.25035E-13-2.07545E-13
 -1      2056 2.02694E+01 1.87635E-02-6.15900E-05 1.16518E-01 1.05120E-13-3.34875E-13
 -1      2057 2.03328E+01 2.13000E-02 1.47888E-03 1.32343E-01-2.43996E-14-3.40528E-13
 -1      2058 2.03202E+01 3.13577E-02-4.08769E-04 1.73934E-01 6.77805E-14-2.18481E-13
 -1      2059 2.01816E+01 1.50043E-02 2.04772E-05 8.53525E-02-2.06162E-13-1.27157E-13
 -1      2060 2.02293E+01 1.72635E-02 1.24450E-03 9.83348E-02-5.29498E-14-2.22105E-13
 -1      2061 2.02242E+01 2.54728E-02-3.86825E-04 1.30181E-01-5.14137E-14-7.78845E-14
 -1      2062 2.01168E+01 1.16909E-02 7.09612E-05 6.06630E-02-1.24163E-13-9.34281E-14
 -1      2063 2.01517E+01 1.36092E-02 1.01427E-03 7.10167E-02-2.10087E-13-1.59700E-13
 -1      2064 2.01516E+01 2.01020E-02-3.53168E-04 9.47900E-02-1.22842E-13 1.09360E-13
 -1      2065 2.00703E+01 8.89724E-03 9.82502E-05 4.15808E-02 1.89407E-13-1.03440E-13
 -1      2066 2.00950E+01 1.04693E-02 8.04635E-04 4.96392E-02 1.03163E-13-2.21388E-14
 -1      2067 2.00980E+01 1.54669E-02-3.12560E-04 6.69137E-02-1.34750E-15 1.25258E-13
 -1      2068 2.00379E+01 6.61979E-03 1.09378E-04 2.71670E-02-1.71696E-13-2.59658E-15
 -1      2069 2.00549E+01 7.87163E-03 6.23073E-04 3.33008E-02-4.79430E-14-1.52472E-13
 -1      2070 2.00595E+01 1.16231E-02-2.69299E-04 4.54710E-02-3.74683E-14 2.80239E-14
 -1      2071 2.00164E+01 4.81283E-03 1.09783E-04 1.65231E-02-1.19382E-14 2.05596E-13
 -1      2072 2.00275E+01 5.78568E-03 4.71446E-04 2.10931E-02-3.14399E-14 6.13035E-14
 -1      2073 2.00327E+01 8.53274E-03-2.26678E-04 2.93438E-02-1.40524E-13 1.26344E-13
 -1      2074 2.00030E+01 3.41084E-03 1.03360E-04 8.84906E-03 4.74348E-14 1.63212E-13
 -1      2075 2.00097E+01 4.15106E-03 3.48276E-04 1.21800E-02 4.00223E-14 1.42382E-13
 -1      2076 2.00149E+01 6.11040E-03-1.86904E-04 1.74861E-02 4.14862E-14 2.81334E-13
 -1      2077 1.99954E+01 2.34132E-03 9.26277E-05 3.46865E-03-2.01778E-13 1.86111E-13
 -1      2078 1.99990E+01 2.89496E-03 2.50266E-04 5.83716E-03 9.86121E-15 1.54073E-13
 -1      2079 2.00038E+01 4.25043E-03-1.51236E-04 8.98092E-03 2.88512E-14 3.38682E-13
 -1      2080 1.99920E+01 1.53113E-03 7.89022E-05-1.63203E-04-1.92000E-13 6.22211E-14
 -1      2081 1.99934E+01 1.94165E-03 1.73255E-04 1.46687E-03-2.58529E-13 3.73925E-14
 -1      2082 1.99975E+01 2.84229E-03-1.20178E-04 3.06361E-03-1.81507E-13 2.60819E-13
 -1      2083 1.99914E+01 9.06554E-04 6.28028E-05-2.46232E-03 1.55700E-13-6.20984E-14
 -1      2084 1.99913E+01 1.21576E-03 1.12975E-04-1.40009E-03 2.53367E-14 7.67588E-14
 -1      2085 1.99946E+01 1.77720E-03-9.34324E-05-8.73304E-04 3.72054E-14 1.09019E-13
 -1      2086 1.99925E+01 3.93445E-04 4.56679E-05-3.70801E-03 9.57241E-14-1.50322E-13
 -1      2087 1.99915E+01 6.38445E-04 6.60211E-05-3.10228E-03 1.24577E-13-1.59939E-13
 -1      2088 1.99940E+01 9.41149E-04-7.02179E-05-3.27644E-03 9.06990E-14 2.81087E-14
 -1      2089 1.99945E+01-8.00233E-05 2.78115E-05-4.05941E-03 3.12449E-14-2.10263E-13
 -1      2090 1.99931E+01 1.39689E-04 3.11728E-05-3.85247E-03 1.79226E-13-7.76890E-14
 -1      2091 1.99948E+01 2.31931E-04-4.77098E-05-4.43728E-03 9.76790E-14-2.77620E-14
 -1      2092 1.99967E+01-6.07255E-04 1.12177E-05-3.53629E-03-2.25621E-14-7.87097E-14
 -1      2093 1.99953E+01-3.63806E-04 9.85125E-06-3.75884E-03-1.24491E-13-9.81493E-14
 -1      2094 1.99962E+01-4.68496E-04-2.76158E-05-4.53023E-03-7.85103E-14 3.76627E-15
 -1      2095 1.99984E+01-1.13591E-03-7.94626E-06-2.51960E-03 9.87343E-14 1.51294E-13
 -1      2096 1.99972E+01-8.40300E-04-1.40056E-06-3.16809E-03 3.45711E-14 1.36969E-15
 -1      2097 1.99977E+01-1.09867E-03-6.15703E-07-3.90327E-03-7.39736E-15 2.79408E-14
 -1      2098 1.99987E+01-1.80136E-03 1.42502E-05-2.98426E-03 6.12619E-14 3.13579E-13
 -1      2099 2.00004E+01-6.73364E-03 1.34814E-06-3.54367E-03-1.83682E-13-2.14186E-13
 -1      2100 2.00002E+01-5.60915E-03 1.41475E-05-3.80932E-03-1.48136E-13-4.57897E-13
 -1      2101 2.00000E+01-5.09973E-03 2.24579E-06-4.03473E-03-2.23365E-13-4.24044E-13
 -1      2102 1.99997E+01-3.91096E-03-4.07594E-06-4.04014E-03-8.05884E-14-2.08973E-13
 -1      2103 2.00002E+01-3.80967E-03-1.17167E-05-4.66758E-03-1.38414E-13-3.62390E-13
 -1      2104 1.99994E+01-3.51253E-03 3.38079E-06-3.88036E-03-7.98009E-14-2.61658E-13
 -1      2105 1.99990E+01-2.39820E-03-1.63786E-05-3.45924E-03 2.78797E-14-6.47721E-15
 -1      2106 1.99986E+01-2.03823E-03-1.77034E-05-4.03630E-03 4.46982E-14-6.38669E-14
 -1      2107 1.99995E+01-2.96484E-03-1.91327E-05-4.75360E-03-2.25421E-13-3.01151E-13
 -1      2108 2.00005E+01-7.99433E-03 2.87640E-06-2.75900E-03-1.01311E-13-1.28201E-13
 -1      2109 2.00005E+01-7.07776E-03 3.10488E-05-3.12986E-03-1.78084E-13-1.57635E-14
 -1      2110 2.00007E+01-4.66555E-03-1.37002E-05-3.95357E-03-6.57585E-14-1.65931E-13
 -1      2111 2.00005E+01-8.88819E-03 6.92887E-06-1.88530E-03-1.92565E-13-1.58960E-13
 -1      2112 2.00005E+01-8.21060E-03 3.68452E-05-2.28106E-03-8.84035E-14-2.05486E-14
 -1      2113 2.00008E+01-5.23966E-03-7.58854E-06-2.97039E-03-7.41783E-14-3.60920E-14
 -1      2114 2.00004E+01-9.41335E-03 1.26147E-05-1.04679E-03-4.12099E-14-2.16936E-13
 -1      2115 2.00005E+01-9.00353E-03 3.47724E-05-1.42277E-03-1.38165E-13-8.31440E-14
 -1      2116 2.00008E+01-5.58648E-03-2.00862E-06-1.94431E-03 1.94618E-14-1.40020E-13
 -1      2117 2.00004E+01-9.61304E-03 2.03134E-05-2.58103E-04 1.26008E-13 2.33924E-14
 -1      2118 2.00004E+01-9.46737E-03 2.78618E-05-6.16399E-04 2.15277E-14-1.56374E-13
 -1      2119 2.00008E+01-5.76798E-03 2.04065E-06-9.77411E-04 6.77103E-15 2.96231E-14
 -1      2120 2.00004E+01-9.51044E-03 2.89767E-05 5.25311E-04-8.30666E-14-1.90662E-13
 -1      2121 2.00004E+01-9.62772E-03 1.97205E-05 1.61775E-04 1.06579E-13-1.81916E-14
 -1      2122 2.00008E+01-5.84087E-03 3.31392E-06-6.11178E-05-6.30209E-14-9.29360E-14
 -1      2123 2.00005E+01-9.09551E-03 3.60359E-05 1.35919E-03-3.28122E-13-2.58635E-13
 -1      2124 2.00005E+01-9.48287E-03 1.25218E-05 9.68645E-04-1.45131E-13-3.08863E-13
 -1      2125 2.00008E+01-5.82349E-03 1.32165E-06 8.69822E-04-1.87829E-13-3.60512E-13
 -1      2126 2.00005E+01-8.34626E-03 3.80058E-05 2.24458E-03-8.65933E-14-1.05475E-13
 -1      2127 2.00005E+01-9.00175E-03 7.25480E-06 1.83667E-03-2.64009E-13-7.88924E-14
 -1      2128 2.00009E+01-5.68777E-03-2.84448E-06 1.86787E-03-1.69101E-13-1.54285E-13
 -1      2129 2.00005E+01-7.20925E-03 3.14435E-05 3.14793E-03-1.46829E-13 3.21504E-13
 -1      2130 2.00005E+01-8.14050E-03 3.91914E-06 2.75033E-03-1.15628E-13 2.57652E-13
 -1      2131 2.00009E+01-5.37128E-03-8.82186E-06 2.94040E-03-3.94360E-14 2.17189E-14
 -1      2132 2.00002E+01-5.71392E-03 1.31768E-05 3.87238E-03-4.81839E-14-8.93581E-15
 -1      2133 2.00004E+01-6.85109E-03 2.53581E-06 3.59212E-03-6.27672E-14 2.64498E-14
 -1      2134 2.00007E+01-4.79507E-03-1.39279E-05 3.99075E-03-2.40973E-14 1.71627E-13
 -1      2135 1.99996E+01-3.99792E-03-2.44250E-05 4.17049E-03-3.41597E-14-1.01000E-13
 -1      2136 2.00000E+01-5.18991E-03 1.23380E-05 4.11484E-03 7.59781E-15-1.62024E-13
 -1      2137 2.00003E+01-3.90532E-03-7.10549E-06 4.75429E-03-1.39020E-13-6.58271E-14
 -1      2138 1.02097E+01-5.02834E+00-1.78313E-01 6.38888E+00 4.88720E-13 9.64291E-13
 -1      2139 6.66849E+00-6.61425E+00-3.93192E-01 5.27572E+00 2.02283E-13 7.73701E-13
 -1      2140 3.49830E-01-6.88565E+00-3.46353E-01 1.03679E+00 4.51028E-15 1.33843E-12
 -1      2141 2.46804E-01-7.30214E+00-4.12371E-01-4.67208E-01-2.66870E-13 1.22263E-12
 -1      2142 3.90014E+00-6.05828E+00-2.34211E-01 4.51172E+00 5.85088E-14 8.70859E-13
 -1      2143 1.83292E+00-6.84924E+00-3.55005E-01 2.96899E+00-2.27901E-13 1.16129E-12
 -1      2144 1.92771E+01-3.11048E+00 8.70063E-03 6.97488E+00 5.88751E-13 8.37108E-13
 -1      2145 1.44322E+01-4.97259E+00-3.07571E-01 6.24464E+00 4.81948E-13 8.64475E-13
 -1      2146 2.80821E+01-1.57327E-01 1.42941E-01 5.80109E+00 6.51479E-13 7.07046E-13
 -1      2147 2.30813E+01-2.01341E+00-1.59521E-01 5.71675E+00 5.75040E-13 8.28781E-13
 -1      2148 1.95681E+01 4.09758E+00-2.59452E-02-1.43880E+00-3.92788E-13-5.57533E-13
 -1      2149 1.97429E+01 4.01202E+00-2.26403E-02-1.68733E+00-4.57667E-13-4.62255E-13
 -1      2150 2.00784E+01 3.31079E+00-1.80396E-02-1.63830E+00-4.83165E-13-3.85142E-13
 -1      2151 1.97016E+01 3.71777E+00-5.38780E-03-1.24896E+00-3.86987E-13-5.50632E-13
 -1      2152 3.92735E+01 6.41233E+00 4.27554E-01 1.26461E+00 9.69891E-13 1.30229E-13
 -1      2153 3.57551E+01 5.31763E+00 1.01349E-01 1.61487E+00 8.63865E-13 1.19516E-13
 -1      2154 3.90348E+01 7.33925E+00 1.83858E-01-3.39841E-01 1.18666E-12-2.24258E-13
 -1      2155 3.94815E+01 7.03556E+00 2.78460E-01 7.91980E-01 1.06060E-12 1.13187E-13
 -1      2156 3.47866E+01 7.51522E+00 2.43437E-01-3.73074E-01 1.03495E-12-1.67755E-13
 -1      2157 3.69888E+01 6.03862E+00 1.16164E-01-1.44292E+00 1.34298E-12-4.50640E-13
 -1      2158 3.90508E+01 6.89355E+00 2.79191E-01-6.42383E-01 1.31922E-12-1.84075E-13
 -1      2159 3.27798E+01 2.45033E+00 3.18721E-02-3.20500E+00 1.15694E-12-6.95444E-13
 -1      2160 3.60024E+01 4.07208E+00 1.99724E-01-2.31475E+00 1.17203E-12-5.06317E-13
 -1      2161 2.61554E+01-1.40619E+00-8.52896E-02-4.82135E+00 9.89375E-13-7.02327E-13
 -1      2162 3.09559E+01 7.46460E-01 2.01164E-01-4.73801E+00 1.05874E-12-7.81653E-13
 -1      2163 3.15347E+01 5.95610E-01 1.55055E-01-1.68036E+00 8.32851E-13-1.80800E-13
 -1      2164 1.70128E+01-4.94820E+00-1.93692E-01-6.25950E+00 7.07434E-13-8.61311E-13
 -1      2165 2.21618E+01-3.25006E+00 2.74795E-02-6.59276E+00 8.68583E-13-7.55285E-13
 -1      2166 7.75233E+00-6.52969E+00-3.52616E-01-5.59476E+00 5.93248E-13-1.18558E-12
 -1      2167 1.20262E+01-4.93174E+00-8.79864E-02-6.93572E+00 6.79901E-13-1.11936E-12
 -1      2168 2.99445E+00-5.95271E+00-1.59292E-01-3.84258E+00 1.32616E-13-1.24634E-12
 -1      2169 4.97837E+00-6.06158E+00-2.22224E-01-5.01744E+00 5.40901E-13-1.27542E-12
 -1      2170 8.64530E+00-5.14294E+00-8.11953E-02-6.37130E+00-3.72480E-14-1.16182E-12
 -1      2171 1.70367E-01-7.37372E+00-4.54338E-01 4.71316E-01-1.44745E-13-1.33960E-12
 -1      2172 5.87221E-01-6.41038E+00-3.08411E-01-1.31998E+00 1.10301E-13-1.32389E-12
 -1      2173 3.36664E+00-6.41933E+00-2.75306E-01 3.95051E+00-4.81226E-13-1.32089E-12
 -1      2174 1.57837E+00-6.93931E+00-3.48752E-01 2.41272E+00-9.58955E-14-1.27959E-12
 -1      2175 9.90381E+00-5.43668E+00-1.68825E-01 6.19404E+00-7.91922E-13-1.26491E-12
 -1      2176 6.16910E+00-7.02446E+00-4.17425E-01 4.89981E+00-5.63327E-13-1.21333E-12
 -1      2177 1.93019E+01-3.67051E+00-3.67058E-02 6.80948E+00-9.37694E-13-1.20109E-12
 -1      2178 1.39866E+01-5.50960E+00-3.49748E-01 5.99460E+00-8.13793E-13-1.22363E-12
 -1      2179 2.90121E+01-4.22177E-01 1.72264E-01 5.55509E+00-1.13887E-12-1.26166E-12
 -1      2180 2.39408E+01-2.55812E+00-1.61958E-01 5.29540E+00-1.08924E-12-1.13176E-12
 -1      2181 3.55021E+01 2.69839E+00 1.63612E-01 2.86164E+00-1.06704E-12-8.19955E-13
 -1      2182 3.16454E+01 1.23162E+00 5.97583E-02 4.02860E+00-1.13441E-12-1.12410E-12
 -1      2183 3.08305E+01-1.04607E+00 1.88547E-01 2.43481E+00-7.36841E-13-5.63161E-13
 -1      2184 3.94964E+01 6.23870E+00 3.20602E-01 7.72365E-01-1.15469E-12-6.69104E-13
 -1      2185 3.66825E+01 5.07224E+00 1.04515E-01 1.34369E+00-1.10739E-12-6.98663E-13
 -1      2186 4.03850E+01 7.08908E+00 2.82182E-01-3.40399E-01-1.09274E-12-3.80501E-13
 -1      2187 3.97460E+01 7.08463E+00 2.05018E-01 6.13929E-01-1.15724E-12-6.46344E-13
 -1      2188 3.80722E+01 6.03202E+00 1.43580E-01-1.14408E+00-1.07708E-12-2.04392E-13
 -1      2189 4.04383E+01 6.67651E+00 3.49788E-01-4.60543E-01-1.08225E-12-4.12864E-13
 -1      2190 3.57491E+01 7.87728E+00 3.17574E-01 3.79232E-01-1.17223E-12-3.57048E-13
 -1      2191 3.41000E+01 2.58684E+00 5.81530E-02-2.80527E+00-6.86264E-13 2.00506E-13
 -1      2192 3.72660E+01 4.04625E+00 2.35741E-01-1.93937E+00-7.92977E-13-2.81997E-14
 -1      2193 2.77485E+01-8.19898E-01-9.75365E-02-4.71188E+00-7.60725E-13 3.65818E-13
 -1      2194 3.21045E+01 7.33015E-01 1.63347E-01-4.28159E+00-6.38933E-13 3.30180E-13
 -1      2195 1.98699E+01-3.55253E+00-2.62944E-01-5.86354E+00-8.35332E-13 4.16223E-13
 -1      2196 2.46504E+01-1.75238E+00 7.78321E-02-6.23225E+00-8.35498E-13 3.37508E-13
 -1      2197 1.22258E+01-5.85859E+00-3.57413E-01-5.87488E+00-6.76903E-13 4.98754E-13
 -1      2198 1.64548E+01-4.15839E+00-5.40333E-02-6.70316E+00-7.09544E-13 4.62880E-13
 -1      2199 5.15458E+00-7.18309E+00-4.62196E-01-4.47489E+00-5.94913E-13 8.07771E-13
 -1      2200 8.28036E+00-5.74656E+00-2.30508E-01-5.70873E+00-7.36522E-13 6.30232E-13
 -1      2201 9.27758E-01-7.74835E+00-4.80025E-01-2.03381E+00-3.18745E-13 1.06726E-12
 -1      2202 2.48620E+00-7.00955E+00-3.68645E-01-3.35897E+00-6.29108E-13 9.94427E-13
 -1      2203 3.41215E+01 2.71316E+00 7.19225E-02 2.74450E+00 6.05307E-13 3.54161E-13
 -1      2204 3.08529E+01 1.35544E+00 5.65728E-02 4.06049E+00 6.94944E-13 4.96270E-13
 -1      2205 2.32702E+01-4.12296E+00 5.83952E-02 5.52511E+00 1.20848E-13 3.76421E-13
 -1      2206 2.09989E+01 1.11083E+00-1.85644E-02-1.40185E+00-4.75932E-13 4.53759E-13
 -1      2207 2.98401E+01-7.69688E-01 1.83958E-01 2.92884E+00 4.11546E-13 1.46883E-13
 -1      2208 3.20856E+01 4.37066E+00-1.79972E-01-1.04255E+00 6.92196E-13-4.51333E-13
 -1      2209 3.40149E+01 3.75955E+00 1.41160E-01 9.17940E-01 6.66966E-13-7.81042E-14
 -1      2210 3.15363E+01 2.03343E+00 6.09984E-02-6.49136E-02 4.56357E-13-3.03813E-13
 -1      2211 2.08951E+01 1.34924E+00-1.95902E-02-1.40643E+00-5.15496E-13 1.65128E-13
 -1      2212 7.20853E+00-5.31501E+00-1.37254E-01 5.83806E+00-2.28484E-13 8.71803E-13
 -1      2213 2.52929E+00-4.54100E+00-1.34316E-01 2.56178E+00-1.95885E-13 1.21175E-12
 -1      2214 1.99994E+01-3.03352E-03-1.72751E-05 4.23537E-03 4.92869E-15-5.66319E-14
 -1      2215 1.48956E+01-5.51094E+00-5.34245E-02 6.96279E+00 3.01426E-14 7.09991E-13
 -1      2216 1.75909E+00-5.06434E+00-2.26030E-01-1.65216E+00-1.15893E-13 1.29707E-12
 -1      2217 5.53102E+00-5.68574E+00-2.05992E-01-5.01113E+00-1.52545E-13 8.58313E-13
 -1      2218 1.27891E+01-5.85486E+00-8.80824E-02-6.64016E+00-1.64646E-13 3.49484E-13
 -1      2219 2.07004E+01-5.20359E+00-1.22516E-02-5.94696E+00-2.64178E-13 6.18117E-14
 -1      2220 2.77502E+01-2.93282E+00 1.28233E-01-3.85838E+00-5.09454E-13 2.73670E-14
 -1      2221 3.52127E+01 5.06214E+00 2.35940E-01 4.52994E-01-9.55847E-13-3.47944E-13
 -1      2222 3.44457E+01 3.52806E+00 2.28588E-01 7.47408E-02-9.79772E-13-2.70228E-13
 -1      2223 2.36825E+01-4.54936E+00 3.30494E-02 5.30055E+00-5.07372E-13-8.20677E-13
 -1      2224 1.45446E+01-5.86885E+00-6.74719E-02 6.72609E+00-2.18547E-13-1.00365E-12
 -1      2225 6.96311E+00-5.28515E+00-1.24326E-01 5.49105E+00-4.36873E-14-1.25130E-12
 -1      2226 2.89064E+00-4.89534E+00-9.98631E-02-2.88365E+00 1.84019E-14-1.35081E-12
 -1      2227 5.42500E+00-3.31099E+00 1.54751E-02-4.30725E+00-2.52964E-13-1.26676E-12
 -1      2228 3.16320E+00-3.04384E+00 7.16917E-02-1.89888E+00-1.26330E-13-1.36458E-12
 -1      2229 2.56644E+01-3.72535E+00 1.52645E-02-4.56665E+00 4.52582E-13-2.99816E-13
 -1      2230 3.51376E+01 7.89870E+00 2.50043E-01 1.19153E-01 1.29091E-12-2.36117E-13
 -1      2231 3.41956E+01 4.97818E+00 1.94147E-01 5.39602E-03 1.17137E-12-1.01474E-13
 -1      2232 1.67772E+01-5.51215E+00 2.70684E-02-6.85364E+00 1.47049E-13-7.31953E-13
 -1      2233 2.39369E+00-4.59697E+00-1.32334E-01 2.00208E+00-4.09395E-14-1.44407E-12
 -1      2234 3.54395E+01 7.34821E+00 2.77040E-01-4.84140E-01-1.14903E-12-3.18107E-13
 -1      2235 3.26388E+01 6.14039E-01 2.08504E-01-1.10119E+00-5.23130E-13-1.27065E-13
 -1      2236 2.05323E+01 5.49795E-01 6.06623E-03 3.93950E-01 3.56444E-13 1.30450E-13
 -1      2237 2.07327E+01 7.31920E-01 2.08381E-02 7.04292E-01 4.12639E-13 1.92493E-13
 -1      2238 1.92986E+01 3.78950E+00-1.12662E-02-4.35429E-01-1.73547E-13-6.72899E-13
 -1      2239 1.93782E+01 3.73057E+00-9.00458E-03-5.80844E-01-2.29398E-13-6.59443E-13
 -1      2240 1.94769E+01 3.61320E+00-1.35893E-02-7.04200E-01-2.67323E-13-6.29163E-13
 -1      2241 1.95980E+01 3.51328E+00-1.10558E-02-8.64744E-01-3.23182E-13-5.90426E-13
 -1      2242 1.95657E+01 3.33217E+00 1.90682E-03-5.56292E-01-2.37480E-13-6.00014E-13
 -1      2243 1.91915E+01 3.89354E+00-8.54976E-03 6.16456E-02 1.88580E-14-7.01043E-13
 -1      2244 1.91874E+01 3.89669E+00-8.95011E-03-7.25982E-02-3.55612E-14-6.98632E-13
 -1      2245 1.92601E+01 3.83292E+00-8.23495E-03 3.14125E-01 1.17568E-13-6.91849E-13
 -1      2246 1.92154E+01 3.86504E+00-9.95303E-03 1.74935E-01 6.28917E-14-6.97747E-13
 -1      2247 1.93273E+01 3.56914E+00 8.71915E-04 9.79412E-02 4.13785E-14-6.63425E-13
 -1      2248 1.94039E+01 3.69812E+00-8.87189E-03 5.80202E-01 2.05937E-13-6.69982E-13
 -1      2249 1.93218E+01 3.76027E+00-1.15050E-02 4.32480E-01 1.53924E-13-6.88785E-13
 -1      2250 1.94215E+01 3.47309E+00 9.71399E-04 3.18820E-01 1.32646E-13-6.50321E-13
 -1      2251 1.96259E+01 3.47255E+00-1.11056E-02 8.75593E-01 3.22248E-13-5.68154E-13
 -1      2252 1.95043E+01 3.57555E+00-1.36233E-02 7.10408E-01 2.46652E-13-6.21290E-13
 -1      2253 1.95963E+01 3.28814E+00 1.28672E-03 5.55257E-01 2.14810E-13-5.98755E-13
 -1      2254 1.99274E+01 3.12819E+00-1.63295E-02 1.19121E+00 4.27633E-13-4.50839E-13
 -1      2255 1.97657E+01 3.29118E+00-1.62640E-02 1.01265E+00 3.59259E-13-5.12305E-13
 -1      2256 1.98506E+01 2.99893E+00 2.48823E-03 8.07067E-01 3.25685E-13-4.93814E-13
 -1      2257 2.03184E+01 2.61011E+00-2.66709E-02 1.49306E+00 5.23938E-13-2.91361E-13
 -1      2258 2.01124E+01 2.87107E+00-1.82870E-02 1.31810E+00 4.62535E-13-3.77379E-13
 -1      2259 2.01777E+01 2.58015E+00 5.92584E-03 1.04960E+00 4.24646E-13-3.66042E-13
 -1      2260 2.03844E+01 3.30766E-01 7.34696E-03-5.35110E-02 2.76487E-13 5.00797E-14
 -1      2261 2.04631E+01 4.21316E-01 2.03524E-02 1.30319E-01 3.15184E-13 1.02867E-13
 -1      2262 2.05595E+01 7.01470E-01-3.87472E-03 3.53658E-01 3.77329E-13-3.40838E-14
 -1      2263 2.07141E+01 9.31073E-01 1.40469E-02-6.58109E-01-4.28000E-13 3.04980E-14
 -1      2264 2.05672E+01 7.22875E-01-1.05743E-03-3.17182E-01-3.78156E-13-1.07206E-15
 -1      2265 2.98296E+01-9.83793E-01-1.19345E-01 1.26450E+00 3.12080E-13-1.48159E-13
 -1      2266 2.78928E+01-2.69750E+00-3.15569E-02 2.57618E+00 2.25181E-13-4.36873E-14
 -1      2267 2.05376E+01 5.84879E-01 1.57406E-02-5.34159E-02-3.31863E-13 6.14862E-15
 -1      2268 2.04812E+01 4.81001E-01 4.09684E-03 1.65562E-01-2.91836E-13-2.19578E-14
 -1      2269 2.05559E+01 8.89381E-01-2.48937E-03-2.47614E-01-3.81698E-13-1.22625E-13
 -1      2270 2.04641E+01 4.13946E-01 1.04253E-02 3.63949E-01-2.39755E-13-6.63814E-15
 -1      2271 2.04896E+01 3.62706E-01 5.23125E-03 5.22115E-01-2.01330E-13-3.10821E-14
 -1      2272 2.04807E+01 6.08707E-01-4.82247E-03 2.49925E-01-2.62023E-13-1.14621E-13
 -1      2273 2.05027E+01 3.29346E-01 6.03635E-03 6.79254E-01-1.74940E-13-3.13570E-14
 -1      2274 2.05945E+01 3.04334E-01 5.64298E-03 8.05583E-01-1.48002E-13-4.34994E-14
 -1      2275 2.04698E+01 4.68373E-01-4.76341E-03 6.31849E-01-1.94852E-13-8.64060E-14
 -1      2276 2.06389E+01 2.85990E-01 3.37545E-03 9.38714E-01-1.49530E-13-5.20403E-14
 -1      2277 2.07836E+01 2.70670E-01 5.62413E-03 1.04679E+00-1.33142E-13-8.10832E-14
 -1      2278 2.05276E+01 3.96217E-01-4.16511E-03 9.42682E-01-1.86209E-13-8.81879E-14
 -1      2279 2.08586E+01 2.54002E-01 2.03018E-03 1.16446E+00-1.27858E-13-7.00381E-14
 -1      2280 2.10467E+01 2.33945E-01 4.94069E-03 1.25706E+00-7.94241E-14-8.56923E-14
 -1      2281 2.06493E+01 3.49043E-01-3.67917E-03 1.21017E+00-1.39298E-13-9.29521E-14
 -1      2282 2.11550E+01 2.05172E-01 1.83316E-03 1.35903E+00-4.54493E-14-1.03849E-13
 -1      2283 2.13791E+01 1.63552E-01 3.16638E-03 1.42861E+00-2.87421E-14-1.17913E-13
 -1      2284 2.08330E+01 2.89562E-01-3.80179E-03 1.44415E+00-8.14533E-14-1.25112E-13
 -1      2285 2.15306E+01 1.05478E-01 2.94675E-03 1.50432E+00-4.78705E-14-1.15283E-13
 -1      2286 2.17843E+01 2.11509E-02-2.63471E-04 1.53147E+00-7.22811E-14-1.08107E-13
 -1      2287 2.10865E+01 1.75372E-01-5.04250E-03 1.63557E+00-5.30812E-14-1.96069E-13
 -1      2288 2.19993E+01-8.68354E-02 5.69081E-03 1.55705E+00-2.42584E-14-6.75199E-14
 -1      2289 2.22749E+01-2.36596E-01-5.89508E-03 1.50894E+00 9.30245E-16-6.00287E-14
 -1      2290 2.14334E+01-4.54395E-02-7.97759E-03 1.75251E+00-3.66673E-14-1.50629E-13
 -1      2291 2.25844E+01-4.12019E-01 1.01733E-02 1.44363E+00 1.34441E-14-1.35410E-14
 -1      2292 2.28690E+01-6.39015E-01-1.41546E-02 1.27662E+00 5.42322E-14-1.09556E-14
 -1      2293 2.19186E+01-4.26685E-01-1.28927E-02 1.73374E+00 3.43128E-15-7.54577E-14
 -1      2294 2.33058E+01-8.77162E-01 1.48124E-02 1.06179E+00 7.93636E-14 2.09216E-14
 -1      2295 2.35734E+01-1.14933E+00-2.37772E-02 7.34755E-01 9.89417E-14 5.15638E-14
 -1      2296 2.26035E+01-9.92094E-01-1.92170E-02 1.48388E+00 8.41003E-14 2.71631E-14
 -1      2297 2.41372E+01-1.38359E+00 1.54995E-02 3.09205E-01 8.38314E-14 7.35007E-14
 -1      2298 2.43345E+01-1.57740E+00-3.07713E-02-1.78642E-01 5.79111E-14 9.55804E-14
 -1      2299 2.35365E+01-1.65798E+00-2.37938E-02 8.76139E-01 1.08061E-13 4.26734E-14
 -1      2300 2.49254E+01-1.63468E+00 7.14507E-04-8.21221E-01 3.94125E-14 1.89900E-13
 -1      2301 2.49962E+01-1.49405E+00-1.84656E-02-1.36621E+00-2.07273E-14 2.42907E-13
 -1      2302 2.46633E+01-2.10266E+00-1.89677E-02-1.76341E-01 1.01787E-13 1.37454E-13
 -1      2303 2.53332E+01-1.12474E+00-4.01145E-02-1.99676E+00-5.58989E-14 3.42867E-13
 -1      2304 2.52484E+01-4.69560E-01-9.40091E-04-2.29968E+00-7.69038E-14 3.68808E-13
 -1      2305 2.56498E+01-1.67997E+00-9.11782E-03-1.55940E+00 4.47975E-14 4.15206E-13
 -1      2306 2.51906E+01 3.88695E-01-7.85375E-02-2.54635E+00-1.98598E-13 3.24775E-13
 -1      2307 2.49560E+01 1.40947E+00 2.80112E-03-2.28558E+00-2.95902E-13 2.54699E-13
 -1      2308 2.61437E+01-2.64228E-01-2.23018E-02-2.53833E+00-1.61171E-13 5.16077E-13
 -1      2309 2.46441E+01 2.22188E+00-1.04031E-01-1.54914E+00-3.52787E-13 6.03250E-14
 -1      2310 2.45060E+01 2.78498E+00-5.69720E-02-7.47030E-01-4.44575E-13-2.25011E-14
 -1      2311 2.59166E+01 2.49962E+00-5.13044E-02-2.21659E+00-4.59216E-13 3.08024E-13
 -1      2312 2.45364E+01 2.89162E+00-3.79673E-02 5.17682E-01-4.92828E-13-2.08092E-13
 -1      2313 2.46050E+01 2.42953E+00-9.79527E-02 1.38647E+00-4.59952E-13-2.90290E-13
 -1      2314 2.57440E+01 3.80883E+00-1.48041E-02-5.53477E-02-5.97133E-13-1.06178E-13
 -1      2315 2.49296E+01 1.66896E+00 1.85575E-03 2.21797E+00-3.79467E-13-3.99753E-13
 -1      2316 2.51451E+01 6.54893E-01-9.05007E-02 2.56066E+00-2.50803E-13-4.50676E-13
 -1      2317 2.59279E+01 2.76838E+00-1.72712E-02 2.12497E+00-4.99420E-13-3.80810E-13
 -1      2318 2.52849E+01-2.15744E-01 4.06128E-03 2.46938E+00-5.90257E-14-5.56152E-13
 -1      2319 2.54314E+01-9.52612E-01-3.96169E-02 2.23767E+00 1.10244E-13-6.26572E-13
 -1      2320 2.61756E+01 3.15497E-01-2.48103E-02 2.77828E+00-2.03448E-13-5.86246E-13
 -1      2321 2.51197E+01-1.41159E+00-2.41819E-02 1.60663E+00 2.55271E-13-5.85068E-13
 -1      2322 2.51007E+01-1.60022E+00-2.64446E-03 1.08737E+00 3.18431E-13-5.17374E-13
 -1      2323 2.58237E+01-1.56932E+00-2.67305E-02 1.85669E+00 2.02238E-13-6.37115E-13
 -1      2324 2.45347E+01-1.58904E+00-3.07225E-02 4.33338E-01 2.62218E-13-5.03448E-13
 -1      2325 2.43689E+01-1.42157E+00 1.53267E-02-6.31662E-02 1.75402E-13-4.55804E-13
 -1      2326 2.48828E+01-2.08464E+00-1.89303E-02 4.70191E-01 3.20931E-13-5.08531E-13
 -1      2327 2.38040E+01-1.20013E+00-2.47316E-02-5.13574E-01 1.35709E-13-3.69071E-13
 -1      2328 2.35632E+01-9.27149E-01 1.64216E-02-8.57503E-01 1.79793E-13-3.46135E-13
 -1      2329 2.37748E+01-1.70816E+00-1.99855E-02-6.32524E-01 2.22731E-13-5.46006E-13
 -1      2330 2.31148E+01-6.81923E-01-1.58020E-02-1.09086E+00 9.06480E-14-4.21647E-13
 -1      2331 2.28520E+01-4.43720E-01 1.11703E-02-1.26964E+00 1.89735E-15-4.12731E-13
 -1      2332 2.28263E+01-1.05401E+00-1.99308E-02-1.28394E+00 8.21493E-14-3.76884E-13
 -1      2333 2.25351E+01-2.58314E-01-7.27690E-03-1.34302E+00-5.42899E-14-4.14072E-13
 -1      2334 2.22795E+01-9.87781E-02 6.37375E-03-1.39684E+00-4.56937E-14-3.14336E-13
 -1      2335 2.21254E+01-4.61846E-01-1.37930E-02-1.55838E+00-3.54664E-14-3.41429E-13
 -1      2336 2.20611E+01 1.54731E-02-1.22896E-03-1.37419E+00-2.55222E-14-3.37924E-13
 -1      2337 2.18254E+01 1.03954E-01 3.10087E-03-1.34959E+00-3.65079E-15-3.28014E-13
 -1      2338 2.16337E+01-5.80184E-02-8.18110E-03-1.58711E+00-3.51968E-14-3.34280E-13
 -1      2339 2.16710E+01 1.62410E-01 2.42566E-03-1.27678E+00-8.19705E-14-4.11800E-13
 -1      2340 2.14605E+01 2.01029E-01 1.22496E-03-1.21098E+00-2.82936E-14-4.74072E-13
 -1      2341 2.12837E+01 1.71566E-01-4.52547E-03-1.47660E+00-1.04418E-13-2.92491E-13
 -1      2342 2.13458E+01 2.23116E-01 4.29015E-03-1.11758E+00 8.62823E-14-4.90186E-13
 -1      2343 2.11624E+01 2.31590E-01 3.07142E-04-1.03565E+00 3.70361E-14-4.28952E-13
 -1      2344 2.10230E+01 2.76389E-01-2.56445E-03-1.29903E+00-3.41342E-14-3.43193E-13
 -1      2345 2.10728E+01 2.32856E-01 4.97047E-03-9.39124E-01 2.60061E-14-4.33211E-13
 -1      2346 2.09166E+01 2.25318E-01-5.93714E-05-8.55992E-01 5.35044E-14-2.79670E-13
 -1      2347 2.08187E+01 3.04315E-01-1.65598E-03-1.09949E+00 2.26587E-14-3.23752E-13
 -1      2348 2.08442E+01 2.16142E-01 4.93663E-03-7.65733E-01-1.98175E-14-3.55517E-13
 -1      2349 2.07141E+01 2.01448E-01-1.51670E-04-6.89241E-01 4.87629E-14-2.09082E-13
 -1      2350 2.06527E+01 2.90410E-01-1.28612E-03-9.04017E-01 5.40125E-14-1.93662E-13
 -1      2351 2.06546E+01 1.88049E-01 4.51784E-03-6.09620E-01 3.09771E-14-3.21736E-13
 -1      2352 2.05485E+01 1.71248E-01-1.28987E-04-5.43158E-01-7.71886E-14-2.87815E-13
 -1      2353 2.05155E+01 2.57056E-01-1.14339E-03-7.26183E-01-2.56054E-14-2.60797E-13
 -1      2354 2.04996E+01 1.57038E-01 3.92794E-03-4.75582E-01-9.87737E-14-2.88205E-13
 -1      2355 2.04145E+01 1.40756E-01-7.21087E-05-4.19980E-01-5.60637E-14-4.00883E-13
 -1      2356 2.04019E+01 2.17248E-01-1.06951E-03-5.71801E-01-8.54599E-14-3.97454E-13
 -1      2357 2.03748E+01 1.27438E-01 3.29583E-03-3.64213E-01 4.01013E-14-3.51449E-13
 -1      2358 2.03078E+01 1.12879E-01-1.66391E-05-3.18950E-01 4.58326E-14-2.75209E-13
 -1      2359 2.03085E+01 1.77895E-01-9.98124E-04-4.42118E-01-5.19028E-14-2.38275E-13
 -1      2360 2.02759E+01 1.01181E-01 2.69271E-03-2.73929E-01-1.98984E-15-3.49792E-13
 -1      2361 2.02241E+01 8.87615E-02 2.51142E-05-2.37862E-01-2.30639E-14-3.47039E-13
 -1      2362 2.02329E+01 1.42278E-01-9.09985E-04-3.35873E-01-5.69266E-15-1.62965E-13
 -1      2363 2.01988E+01 7.88893E-02 2.15325E-03-2.02184E-01 1.49018E-15-2.19632E-13
 -1      2364 2.01596E+01 6.86213E-02 5.15677E-05-1.73958E-01 3.05205E-14-1.56123E-13
 -1      2365 2.01725E+01 1.11638E-01-8.06326E-04-2.50586E-01 1.02029E-13-1.43642E-13
 -1      2366 2.01399E+01 6.05153E-02 1.69028E-03-1.46149E-01-1.22897E-15-7.16225E-14
 -1      2367 2.01107E+01 5.22195E-02 6.52646E-05-1.24417E-01 1.83174E-13-1.09759E-13
 -1      2368 2.01252E+01 8.61395E-02-6.94965E-04-1.83323E-01 1.63266E-13-3.21989E-14
 -1      2369 2.00957E+01 4.57015E-02 1.30441E-03-1.03079E-01 2.20406E-13-1.41723E-13
 -1      2370 2.00744E+01 3.91225E-02 6.97150E-05-8.66066E-02 1.91350E-13-1.36394E-13
 -1      2371 2.00888E+01 6.54262E-02-5.84024E-04-1.31127E-01 1.77648E-13-1.04794E-13
 -1      2372 2.00632E+01 3.39716E-02 9.89940E-04-7.04872E-02 3.27211E-13-1.56714E-13
 -1      2373 2.00480E+01 2.88377E-02 6.80558E-05-5.81991E-02 1.89943E-13-6.66896E-14
 -1      2374 2.00612E+01 4.89196E-02-4.79648E-04-9.12522E-02 2.07717E-13-1.40398E-13
 -1      2375 2.00398E+01 2.48288E-02 7.38404E-04-4.62179E-02 4.09311E-15-3.85573E-14
 -1      2376 2.00293E+01 2.08807E-02 6.26022E-05-3.72058E-02-5.23775E-14 1.37366E-13
 -1      2377 2.00409E+01 3.59793E-02-3.85603E-04-6.12679E-02 1.50692E-13-1.10243E-13
 -1      2378 2.00235E+01 1.78028E-02 5.40517E-04-2.84575E-02-1.74387E-14 3.17329E-13
 -1      2379 2.00165E+01 1.48055E-02 5.47827E-05-2.19751E-02 1.27277E-13 3.70535E-13
 -1      2380 2.00262E+01 2.59818E-02-3.03627E-04-3.90963E-02 1.40826E-13 1.01773E-13
 -1      2381 2.00125E+01 1.24683E-02 3.87262E-04-1.57202E-02 6.39355E-14 3.99691E-13
 -1      2382 2.00081E+01 1.02143E-02 4.52477E-05-1.11699E-02 1.14107E-13 2.47749E-13
 -1      2383 2.00159E+01 1.83550E-02-2.34003E-04-2.30096E-02 5.89996E-14 3.75496E-13
 -1      2384 2.00055E+01 8.44927E-03 2.70503E-04-6.82002E-03 1.75953E-13 1.56454E-13
 -1      2385 2.00030E+01 6.75676E-03 3.41461E-05-3.73682E-03 1.86911E-13 1.72393E-13
 -1      2386 2.00089E+01 1.25887E-02-1.76082E-04-1.16087E-02 5.90114E-14 2.90108E-13
 -1      2387 2.00013E+01 5.41437E-03 1.83292E-04-8.37780E-04 1.68320E-13 1.48503E-13
 -1      2388 2.00001E+01 4.12106E-03 2.08668E-05 1.12568E-03 1.72432E-13 2.33131E-13
 -1      2389 2.00044E+01 8.23309E-03-1.28631E-04-3.79170E-03 1.27313E-13 1.26643E-13
 -1      2390 1.99992E+01 3.06389E-03 1.19677E-04 2.90768E-03 2.84154E-15 3.86241E-13
 -1      2391 1.99988E+01 2.02854E-03 8.30906E-06 3.99069E-03-2.46771E-13 2.95374E-13
 -1      2392 2.00017E+01 4.88350E-03-9.10311E-05 1.28003E-03 4.08050E-14 3.97980E-13
 -1      2393 1.99984E+01 1.10541E-03 6.75040E-05 4.89432E-03-4.03261E-13 3.20072E-13
 -1      2394 1.99985E+01 2.40264E-04 4.59489E-06 5.23333E-03-3.62628E-13 2.24766E-13
 -1      2395 2.00002E+01 2.19816E-03-5.93478E-05 4.20985E-03-3.48593E-13 5.18626E-13
 -1      2396 2.04811E+01 1.50463E-01 4.41278E-03-5.49783E-01 1.42557E-13-9.20555E-14
 -1      2397 2.03945E+01 1.81807E-01 7.58715E-03-4.68881E-01 1.72214E-13-3.09568E-14
 -1      2398 2.06753E+01 9.76846E-02 2.90144E-03-6.88203E-01 1.11301E-13-1.24890E-13
 -1      2399 2.05426E+01 1.24147E-01 4.58027E-03-6.34290E-01 1.30841E-13-1.05466E-13
 -1      2400 2.05206E+01 1.93757E-01-4.87699E-03-6.66867E-01 1.68306E-13-1.54352E-13
 -1      2401 2.09336E+01 4.10260E-02 9.36324E-04-7.70455E-01 1.45452E-13-1.01199E-13
 -1      2402 2.07719E+01 7.15174E-02 2.92219E-03-7.42451E-01 1.16251E-13-1.23207E-13
 -1      2403 2.06783E+01 1.17397E-01-4.18039E-03-8.21611E-01 1.30124E-13-1.64919E-13
 -1      2404 2.12343E+01-3.39271E-02-1.78900E-03-7.88624E-01 1.17311E-13-6.60344E-14
 -1      2405 2.10599E+01 7.70854E-03 2.02977E-03-7.92369E-01 1.31161E-13-4.04455E-14
 -1      2406 2.08993E+01 3.14625E-02-3.63689E-03-9.09647E-01 1.21720E-13-1.30620E-13
 -1      2407 2.15546E+01-1.37634E-01-5.35818E-03-7.22751E-01 4.86460E-14-1.40185E-14
 -1      2408 2.13855E+01-8.00522E-02 1.56645E-03-7.69119E-01 1.01804E-13-2.29249E-14
 -1      2409 2.11726E+01-8.30184E-02-3.27177E-03-9.19764E-01 8.58071E-14-2.53051E-14
 -1      2410 2.18674E+01-2.72151E-01-9.47053E-03-5.45939E-01 4.04702E-14 5.37539E-14
 -1      2411 2.17253E+01-1.99048E-01 1.25261E-03-6.47655E-01 2.86444E-14 2.09780E-14
 -1      2412 2.14876E+01-2.37902E-01-2.88400E-03-8.27888E-01 3.03694E-14 6.64757E-15
 -1      2413 2.21376E+01-4.21963E-01-1.31333E-02-2.34829E-01 1.18547E-14 3.48098E-14
 -1      2414 2.20475E+01-3.44373E-01 7.03217E-04-4.00159E-01 4.67864E-14 6.84930E-14
 -1      2415 2.18293E+01-4.30446E-01-2.04178E-03-6.03114E-01 3.55137E-14 1.10670E-14
 -1      2416 2.23193E+01-5.42075E-01-1.44313E-02 2.10471E-01 5.50757E-14 4.17585E-14
 -1      2417 2.23068E+01-4.87702E-01-6.96053E-04-1.13314E-02 2.46994E-14 3.60898E-14
 -1      2418 2.21706E+01-6.29171E-01 5.35517E-05-2.20494E-01 1.30666E-14 4.37090E-14
 -1      2419 2.23585E+01-5.54197E-01-1.09369E-02 7.36496E-01 4.83077E-15 7.07579E-14
 -1      2420 2.24416E+01-5.67064E-01-3.63155E-03 4.94618E-01 1.50708E-14 6.32457E-14
 -1      2421 2.24605E+01-7.59721E-01 4.03994E-03 3.13713E-01 2.08277E-14 1.34706E-13
 -1      2422 2.22103E+01-3.71556E-01-1.36693E-03 1.20923E+00 6.03228E-14 5.42964E-14
 -1      2423 2.23861E+01-4.93811E-01-8.12760E-03 1.02066E+00 7.26550E-14 1.07981E-13
 -1      2424 2.26213E+01-7.08376E-01 9.25146E-03 9.23978E-01 4.30467E-14 7.32785E-14
 -1      2425 2.18777E+01 3.47601E-02 1.12849E-02 1.42381E+00 2.74339E-14 6.07457E-14
 -1      2426 2.21092E+01-1.97850E-01-1.19942E-02 1.38400E+00-9.32045E-15 2.46413E-14
 -1      2427 2.25720E+01-3.73230E-01 1.22387E-02 1.43397E+00 5.35795E-14 1.69275E-13
 -1      2428 2.14591E+01 5.53632E-01 1.87286E-02 1.18906E+00 7.18384E-14 6.57404E-14
 -1      2429 2.16731E+01 2.89926E-01-1.19782E-02 1.36531E+00 6.67973E-14 4.71320E-14
 -1      2430 2.22936E+01 2.36031E-01 7.22392E-03 1.58852E+00 3.48251E-14 1.02573E-13
 -1      2431 2.11525E+01 9.32560E-01 1.48918E-02 4.86685E-01 1.54613E-13 5.76648E-14
 -1      2432 2.12661E+01 7.76979E-01-3.53937E-03 8.50205E-01 1.37648E-13 1.22509E-13
 -1      2433 2.19139E+01 9.04914E-01-7.37781E-03 1.18248E+00 1.03560E-13 1.19519E-13
 -1      2434 2.11428E+01 9.49195E-01 2.74640E-03-4.40220E-01 1.07740E-13-2.65617E-14
 -1      2435 2.11018E+01 9.95894E-01 8.86361E-03-2.46770E-02 1.79289E-13 2.63544E-14
 -1      2436 2.16791E+01 1.31459E+00-1.28619E-02 2.70248E-01 1.72490E-13 8.59976E-14
 -1      2437 2.14619E+01 5.84009E-01-8.50636E-03-1.19468E+00 5.25699E-14-1.71896E-13
 -1      2438 2.12835E+01 8.04658E-01 1.87761E-02-9.02117E-01 4.98395E-14-1.17980E-13
 -1      2439 2.17590E+01 1.18483E+00-1.55048E-02-7.83594E-01 1.36377E-13 1.66805E-14
 -1      2440 2.19396E+01 7.13188E-02-1.08280E-02-1.49807E+00 1.15486E-13-3.33454E-13
 -1      2441 2.16904E+01 3.31802E-01 1.72130E-02-1.41632E+00 1.40848E-13-2.65554E-13
 -1      2442 2.21136E+01 6.33127E-01 1.11693E-03-1.50689E+00 1.46873E-13-1.79782E-13
 -1      2443 2.23520E+01-3.41367E-01-8.47807E-03-1.33602E+00 2.11187E-13-4.30706E-13
 -1      2444 2.21171E+01-1.57883E-01 5.84856E-03-1.44472E+00 1.17450E-13-4.47478E-13
 -1      2445 2.24957E+01-4.36378E-02 1.15842E-02-1.66096E+00 2.19508E-13-4.63803E-13
 -1      2446 2.25654E+01-5.31557E-01-4.01444E-03-8.88562E-01 1.09391E-13-3.18958E-13
 -1      2447 2.24039E+01-4.65475E-01-6.48176E-03-1.10008E+00 2.28808E-13-3.09884E-13
 -1      2448 2.27012E+01-5.41160E-01 1.13497E-02-1.32999E+00 1.60373E-13-4.14566E-13
 -1      2449 2.25666E+01-5.24372E-01-5.13267E-04-3.70432E-01-6.31097E-14-4.22771E-13
 -1      2450 2.25004E+01-5.49097E-01-1.31488E-02-5.96885E-01 3.22949E-14-3.83627E-13
 -1      2451 2.26750E+01-7.39292E-01 6.09947E-03-7.63835E-01 1.03899E-13-2.18531E-13
 -1      2452 2.24098E+01-4.06997E-01 1.25494E-03 7.35149E-02-9.87474E-14-5.01893E-13
 -1      2453 2.24309E+01-4.75887E-01-1.39619E-02-1.13037E-01-1.12111E-13-4.68624E-13
 -1      2454 2.24749E+01-6.91834E-01 1.40176E-03-1.90906E-01-2.56279E-14-3.47871E-13
 -1      2455 2.21606E+01-2.58802E-01 1.68811E-03 3.83540E-01-1.46275E-13-4.43258E-13
 -1      2456 2.22465E+01-3.34843E-01-1.13308E-02 2.57326E-01-9.00304E-14-4.32877E-13
 -1      2457 2.21849E+01-5.18113E-01-1.41104E-03 2.61441E-01-1.22257E-13-3.34581E-13
 -1      2458 2.18715E+01-1.27085E-01 1.54387E-03 5.58747E-01-5.24819E-14-3.73139E-13
 -1      2459 2.19973E+01-1.90553E-01-7.50891E-03 4.90466E-01-1.30273E-13-4.65549E-13
 -1      2460 2.18697E+01-3.17211E-01-2.44125E-03 5.55315E-01-1.18163E-13-3.01915E-13
 -1      2461 2.15774E+01-2.98601E-02 1.26878E-03 6.26099E-01-1.48466E-13-1.17274E-13
 -1      2462 2.17214E+01-7.46646E-02-3.89933E-03 6.03048E-01-1.13808E-13-2.96635E-13
 -1      2463 2.15660E+01-1.45203E-01-2.50769E-03 7.05570E-01-1.85196E-13-3.45209E-13
 -1      2464 2.12988E+01 3.23108E-02 1.04265E-03 6.19071E-01-1.43881E-13 1.39488E-15
 -1      2465 2.14449E+01 4.90731E-03-1.09391E-03 6.26554E-01-6.79534E-14 5.65158E-14
 -1      2466 2.12899E+01-2.13021E-02-2.23850E-03 7.47297E-01-1.87846E-13-1.56698E-13
 -1      2467 2.10471E+01 6.62050E-02 8.87651E-04 5.67327E-01 9.77159E-15 5.15900E-14
 -1      2468 2.11846E+01 5.22211E-02 8.02940E-04 5.92646E-01-9.09340E-14-3.69740E-14
 -1      2469 2.10467E+01 5.61106E-02-1.93225E-03 7.17189E-01-7.69108E-14-1.03736E-13
 -1      2470 2.08274E+01 8.01357E-02 7.82166E-04 4.93316E-01 1.23698E-13-2.67153E-15
 -1      2471 2.09502E+01 7.53253E-02 1.91112E-03 5.27036E-01 1.12525E-13 8.04809E-14
 -1      2472 2.08370E+01 9.69161E-02-1.68269E-03 6.45744E-01 4.70950E-14-1.48858E-13
 -1      2473 2.06409E+01 8.13643E-02 7.01482E-04 4.12299E-01 7.77813E-14-1.03332E-13
 -1      2474 2.07464E+01 8.22126E-02 2.42649E-03 4.48126E-01 1.45823E-13 3.87912E-14
 -1      2475 2.06592E+01 1.12287E-01-1.48960E-03 5.55304E-01 1.05720E-13-9.24651E-14
 -1      2476 2.04866E+01 7.53477E-02 6.29407E-04 3.33694E-01-2.03620E-13-4.99077E-14
 -1      2477 2.05743E+01 7.92935E-02 2.54061E-03 3.67837E-01-2.49033E-14-5.84544E-15
 -1      2478 2.05109E+01 1.11714E-01-1.32932E-03 4.60745E-01-1.34712E-14-1.78272E-14
 -1      2479 2.03618E+01 6.58211E-02 5.58743E-04 2.62667E-01-5.74236E-14-1.73519E-13
 -1      2480 2.04326E+01 7.11505E-02 2.40932E-03 2.93123E-01-1.66075E-13-1.37477E-13
 -1      2481 2.03892E+01 1.02225E-01-1.18247E-03 3.71074E-01-7.62101E-14 1.37462E-13
 -1      2482 2.02628E+01 5.51574E-02 4.88078E-04 2.01515E-01 4.64332E-14-7.24380E-14
 -1      2483 2.03187E+01 6.08050E-02 2.14673E-03 2.27468E-01 6.72737E-15-1.64409E-13
 -1      2484 2.02911E+01 8.85841E-02-1.03966E-03 2.91084E-01-8.33266E-14-4.89909E-14
 -1      2485 2.01861E+01 4.47525E-02 4.18767E-04 1.50733E-01-1.49421E-13-7.85112E-14
 -1      2486 2.02290E+01 5.01083E-02 1.82998E-03 1.72095E-01-4.13893E-14-6.36729E-14
 -1      2487 2.02133E+01 7.37883E-02-8.99215E-04 2.22750E-01 1.64398E-15-9.73378E-14
 -1      2488 2.01277E+01 3.53458E-02 3.52940E-04 1.09775E-01-1.03862E-13 2.70140E-14
 -1      2489 2.01601E+01 4.01015E-02 1.50746E-03 1.26868E-01-1.16080E-13-4.92625E-14
 -1      2490 2.01528E+01 5.95789E-02-7.63517E-04 1.66285E-01-1.33796E-13-3.29925E-13
 -1      2491 2.00844E+01 2.72573E-02 2.92459E-04 7.75541E-02 3.68266E-15 2.01349E-14
 -1      2492 2.01081E+01 3.12942E-02 1.20697E-03 9.08997E-02-6.81268E-14 6.70246E-14
 -1      2493 2.01065E+01 4.68577E-02-6.36095E-04 1.20887E-01-3.92037E-14-1.78040E-13
 -1      2494 2.00531E+01 2.05531E-02 2.38502E-04 5.27757E-02-1.11868E-13 1.16783E-13
 -1      2495 2.00699E+01 2.38655E-02 9.42339E-04 6.29633E-02 3.75927E-14 9.68338E-14
 -1      2496 2.00719E+01 3.59938E-02-5.20014E-04 8.52510E-02-3.14985E-14-3.41486E-15
 -1      2497 2.00310E+01 1.51546E-02 1.91465E-04 3.41313E-02-2.39075E-14-5.54222E-14
 -1      2498 2.00426E+01 1.77994E-02 7.18468E-04 4.17396E-02-1.88146E-13-4.03234E-14
 -1      2499 2.00466E+01 2.70358E-02-4.17214E-04 5.78865E-02-6.24547E-14-3.38337E-15
 -1      2500 2.00161E+01 1.09088E-02 1.51026E-04 2.04117E-02-4.11328E-14 8.41552E-14
 -1      2501 2.00237E+01 1.29738E-02 5.34866E-04 2.59655E-02 6.76370E-14 4.27664E-14
 -1      2502 2.00286E+01 1.98519E-02-3.28429E-04 3.73201E-02-4.55228E-14-2.44218E-13
 -1      2503 2.00066E+01 7.63080E-03 1.16225E-04 1.05640E-02 2.29111E-15 1.71853E-13
 -1      2504 2.00112E+01 9.21575E-03 3.88049E-04 1.45132E-02-5.01528E-14 1.03873E-13
 -1      2505 2.00162E+01 1.42191E-02-2.53393E-04 2.22046E-02-7.02226E-14-1.50576E-13
 -1      2506 2.00009E+01 5.12715E-03 8.53251E-05 3.71462E-03-1.48971E-13 1.84610E-13
 -1      2507 2.00034E+01 6.33353E-03 2.73067E-04 6.42683E-03 3.55019E-14 2.76465E-13
 -1      2508 2.00080E+01 9.87698E-03-1.91176E-04 1.13758E-02-8.12085E-14-6.07041E-14
 -1      2509 1.99980E+01 3.21292E-03 6.02689E-05-8.23430E-04 1.87138E-13 1.51383E-15
 -1      2510 1.99991E+01 4.13474E-03 1.84457E-04 9.34980E-04-6.98616E-14 8.83607E-14
 -1      2511 2.00030E+01 6.55694E-03-1.40073E-04 3.87459E-03 3.63351E-14 4.12967E-14
 -1      2512 1.99970E+01 1.68577E-03 3.76730E-05-3.57188E-03 1.64723E-13-4.37163E-15
 -1      2513 1.99970E+01 2.42197E-03 1.12614E-04-2.56887E-03 1.98281E-13 1.17226E-13
 -1      2514 2.00001E+01 4.01481E-03-9.84426E-05-1.04501E-03 1.74598E-13-3.52177E-14
 -1      2515 1.99971E+01 3.62634E-04 1.16291E-05-4.84899E-03 4.10353E-14 4.87266E-14
 -1      2516 1.99966E+01 1.00745E-03 6.25751E-05-4.47765E-03 7.31216E-14-1.89799E-14
 -1      2517 1.99988E+01 1.87739E-03-8.39874E-05-3.99355E-03 1.16778E-13 2.15250E-14
 -1      2518 1.99978E+01-8.90112E-04-1.56535E-05-4.86423E-03-1.26254E-13-3.57973E-14
 -1      2519 1.99971E+01-2.34425E-04 4.23768E-05-5.03396E-03 1.20078E-14 5.59718E-14
 -1      2520 1.99985E+01-7.77164E-06-6.23976E-05-5.29819E-03 3.15512E-14 8.11239E-14
 -1      2521 1.99982E+01-1.56717E-03 1.30268E-05-4.40516E-03-1.15513E-13-7.95783E-14
 -1      2522 2.00014E+01-2.53135E-03-1.05896E-05-2.66106E-03 2.80206E-15-7.04407E-14
 -1      2523 2.00014E+01-2.28721E-03 2.58805E-05-3.18342E-03 6.38247E-15-9.37990E-14
 -1      2524 2.00013E+01-2.33717E-03-9.66460E-06-1.62654E-03 1.63721E-13 1.59639E-13
 -1      2525 2.00013E+01-2.18497E-03 2.63147E-05-2.12371E-03 6.04143E-14 4.51977E-14
 -1      2526 2.00018E+01 7.43245E-04 1.67374E-05-2.32472E-03 1.33356E-13 1.02056E-13
 -1      2527 2.00008E+01-2.49710E-03-1.30108E-06-4.69036E-03 2.44616E-14-3.59586E-13
 -1      2528 2.00003E+01-1.99141E-03 5.19053E-06-4.92857E-03-3.91243E-14-4.34637E-13
 -1      2529 2.00013E+01-2.62044E-03-3.40007E-06-3.74315E-03 3.75227E-14-2.89555E-14
 -1      2530 2.00011E+01-2.27379E-03 1.89625E-05-4.20656E-03 3.49145E-14-2.50368E-13
 -1      2531 2.00013E+01-5.37815E-04-2.13019E-05-4.54791E-03 2.02169E-13-4.86664E-13
 -1      2532 2.00018E+01 7.25737E-05 5.63417E-06-3.44681E-03 1.03193E-13-1.06732E-13
 -1      2533 2.00012E+01-2.16568E-03-2.98817E-06-7.08080E-04-6.46147E-14-1.00640E-14
 -1      2534 2.00012E+01-2.08990E-03 1.74844E-05-1.16445E-03 1.67738E-14-2.05627E-14
 -1      2535 2.00017E+01 1.32112E-03 2.57630E-05-1.33420E-03 4.13810E-14-5.71936E-14
 -1      2536 2.00012E+01-2.09918E-03 7.58664E-06 1.47659E-04-2.09197E-13-2.72318E-13
 -1      2537 2.00011E+01-2.08675E-03 6.16046E-06-2.95417E-04-1.82457E-13 3.87049E-15
 -1      2538 2.00016E+01 1.63581E-03 3.06142E-05-4.85631E-04-1.04392E-13-5.76490E-14
 -1      2539 2.00013E+01-2.15865E-03 1.88461E-05 1.04129E-03-1.26884E-13-3.31198E-13
 -1      2540 2.00012E+01-2.21086E-03-3.97070E-06 5.69486E-04-1.34363E-13-2.63839E-13
 -1      2541 2.00016E+01 1.60479E-03 3.01699E-05 3.17149E-04-9.42094E-14-1.34856E-13
 -1      2542 2.00014E+01-2.29361E-03 2.68751E-05 2.03505E-03 1.14022E-13 2.61524E-14
 -1      2543 2.00013E+01-2.42844E-03-1.03895E-05 1.52113E-03 3.90385E-14-1.84225E-13
 -1      2544 2.00018E+01 1.23838E-03 2.53210E-05 1.19439E-03 9.06898E-14-9.71985E-14
 -1      2545 2.00014E+01-2.41765E-03 2.69825E-05 3.16002E-03 8.99471E-14-4.32923E-14
 -1      2546 2.00014E+01-2.65450E-03-1.08724E-05 2.60737E-03 1.18919E-13-1.70796E-13
 -1      2547 2.00019E+01 6.26000E-04 1.48048E-05 2.24110E-03 2.63282E-13-7.05028E-14
 -1      2548 2.00012E+01-2.41840E-03 1.24753E-05 4.26128E-03-1.43846E-13-2.85768E-14
 -1      2549 2.00014E+01-2.75827E-03-2.64816E-06 3.76567E-03-1.77420E-13 1.56704E-13
 -1      2550 2.00019E+01-6.03538E-05 9.26619E-06 3.45248E-03-9.47014E-15-1.38624E-13
 -1      2551 2.00003E+01-2.14065E-03-2.19382E-06 5.03166E-03-2.77108E-13 1.73762E-14
 -1      2552 2.00008E+01-2.61291E-03 2.77864E-06 4.77587E-03-2.55130E-13-1.43616E-14
 -1      2553 2.00014E+01-6.61055E-04-1.37441E-05 4.59294E-03-2.75041E-13-1.66745E-13
 -1      2554 4.71687E+00-2.74333E+00 6.52066E-02 3.63074E+00-3.55493E-13 8.33500E-13
 -1      2555 3.42050E+00-2.65003E+00 9.95540E-02 1.28750E+00-2.11504E-13 1.03845E-12
 -1      2556 1.77927E+01-5.30587E+00-4.41831E-02 6.85038E+00-2.81608E-13 4.16316E-13
 -1      2557 1.39427E+01-5.22713E+00 4.82585E-02 6.82209E+00-3.73146E-13 5.86621E-13
 -1      2558 2.03750E+01 2.18185E-01 5.89110E-03-3.47715E-01 1.97680E-13-2.26333E-14
 -1      2559 2.03561E+01 2.67429E-01 1.28196E-02-2.28990E-01 2.26699E-13 3.29470E-14
 -1      2560 2.04400E+01 2.85596E-01-5.40503E-03-4.40394E-01 2.24743E-13-1.28610E-13
 -1      2561 1.99990E+01-2.25833E-03 1.86595E-05 4.95169E-03-4.30898E-14 5.50595E-15
 -1      2562 3.19988E+00-2.76095E+00 7.55678E-02-9.91071E-01 8.01026E-14 1.19371E-12
 -1      2563 4.11046E+00-3.26235E+00 6.74451E-02-3.04984E+00 6.59195E-14 1.09018E-12
 -1      2564 1.04870E+01-4.47328E+00 2.73936E-02 6.75199E+00-3.80862E-13 7.11375E-13
 -1      2565 7.56374E+00-3.60159E+00 1.21260E-01 5.51527E+00-5.22249E-13 7.35967E-13
 -1      2566 1.38290E+01-4.24673E+00 1.35925E-01 6.61359E+00-5.72542E-13 5.82895E-13
 -1      2567 2.07667E+01 1.99531E+00-1.20140E-02-1.60275E+00-5.23808E-13-4.36300E-14
 -1      2568 2.06861E+01 1.26964E+00-6.46287E-03-9.73008E-01-4.80326E-13-6.04594E-15
 -1      2569 2.06158E+01 1.47842E+00 6.09313E-03-8.70969E-01-4.61669E-13-1.28157E-13
 -1      2570 2.04750E+01 2.45909E+00-5.24687E-04-1.52406E+00-5.18693E-13-2.08406E-13
 -1      2571 5.76178E+00-3.92199E+00 4.78641E-02-4.44942E+00 1.95510E-13 7.90312E-13
 -1      2572 8.48851E+00-4.27644E+00 3.15331E-02-5.91918E+00 1.80772E-13 4.54942E-13
 -1      2573 6.85511E+00-2.37829E+00 1.42999E-01-3.82918E+00 3.73132E-13 7.83151E-13
 -1      2574 3.18382E+01 3.44791E+00-2.36216E-01-1.48993E+00-8.64503E-13 8.54872E-15
 -1      2575 3.16108E+01 1.07619E+00-6.44490E-02-9.11621E-01-6.56475E-13-1.89848E-14
 -1      2576 2.61972E+01-4.60911E+00-1.01102E-01 3.96999E+00-2.23155E-13-3.49804E-13
 -1      2577 2.21841E+01-5.53434E+00 2.07028E-02 5.20450E+00 2.75058E-14-5.15643E-13
 -1      2578 2.41570E+01-4.79832E+00 3.18117E-02-4.56537E+00 9.77551E-14-4.92106E-14
 -1      2579 2.76809E+01-3.27237E+00-6.77085E-02-3.11216E+00 3.85150E-13 1.55431E-15
 -1      2580 3.17124E+01 6.99021E+00-1.30716E-01 6.60274E-01 1.21630E-12-8.16291E-14
 -1      2581 3.17580E+01 7.47496E+00-1.54256E-01 7.15295E-02 1.15341E-12-2.17569E-13
 -1      2582 1.92037E+01 3.87992E+00-9.59894E-03-1.83923E-01-7.47239E-14-6.94302E-13
 -1      2583 1.92413E+01 3.85382E+00-8.53264E-03-3.20241E-01-1.30665E-13-6.84448E-13
 -1      2584 1.93977E+01 3.50387E+00 1.29936E-03-3.31067E-01-1.45507E-13-6.36363E-13
 -1      2585 1.93182E+01 3.58043E+00 9.94100E-04-1.15976E-01-5.72243E-14-6.59505E-13
 -1      2586 3.14329E+01 3.28161E+00-7.88441E-02 8.28403E-01 9.11105E-13 1.57430E-13
 -1      2587 3.19224E+01 5.26399E+00-1.72023E-01 9.71052E-01 1.13082E-12 1.47105E-13
 -1      2588 3.17102E+01 7.09910E+00-1.65298E-01-5.74868E-01 1.01746E-12-3.77573E-13
 -1      2589 3.16227E+01 6.23827E+00-1.30248E-01-1.07630E+00 8.27782E-13-3.63931E-13
 -1      2590 1.53599E+01-5.27989E+00 7.06997E-02-6.81013E+00-2.39447E-13-6.49009E-13
 -1      2591 1.97277E+01-5.41258E+00-2.49689E-02-6.36513E+00-1.22735E-13-3.07056E-13
 -1      2592 2.96365E+01-1.18095E+00-2.09162E-03-1.13700E+00 5.33455E-13 7.73825E-14
 -1      2593 3.08942E+01 6.00550E-01-1.55182E-01-2.02427E-01 6.51340E-13 1.49492E-13
 -1      2594 4.54945E+00-2.72950E+00 7.89809E-02 3.01895E+00 2.20934E-14-1.26521E-12
 -1      2595 3.40251E+00-2.71196E+00 1.24804E-01 5.77424E-01 2.54918E-15-1.35897E-12
 -1      2596 8.80253E+00-3.85000E+00 1.14701E-01-5.94748E+00-2.58182E-13-1.06076E-12
 -1      2597 1.15759E+01-4.60333E+00 3.54164E-02-6.95870E+00-1.73722E-13-9.48019E-13
 -1      2598 3.23774E+01 6.85743E+00-1.42197E-01-4.64425E-01-1.06493E-12-1.81716E-13
 -1      2599 3.20646E+01 6.01232E+00-1.18519E-01-1.28549E+00-1.04761E-12-7.91034E-14
 -1      2600 1.03275E+01-4.45891E+00 3.99529E-02 6.46340E+00 7.80487E-14-9.98368E-13
 -1      2601 7.33813E+00-3.62315E+00 9.99492E-02 5.09577E+00 1.94761E-13-1.14461E-12
 -1      2602 1.78799E+01-5.63832E+00-3.31101E-02 6.71878E+00 2.07612E-14-7.59733E-13
 -1      2603 1.39027E+01-5.37225E+00 4.62221E-02 6.58489E+00 9.51461E-14-7.89174E-13
 -1      2604 3.08032E+01-1.09096E+00-1.39250E-01 8.26679E-01-5.23791E-13-1.27509E-13
 -1      2605 2.89085E+01-2.84698E+00-3.03688E-02 1.91045E+00-3.96322E-13-2.45581E-13
 -1      2606 3.02181E+01-1.49014E+00-6.21482E-02-2.73397E-01-3.37435E-13-2.89269E-13
 -1      2607 3.13955E+01 4.35148E-01-1.84905E-01 6.34561E-01-3.95087E-13-3.52995E-13
 -1      2608 3.23514E+01 6.56944E+00-1.38014E-01 1.01174E+00-1.07125E-12-3.22603E-13
 -1      2609 3.22022E+01 6.95923E+00-2.04049E-01 2.61007E-01-1.02579E-12-2.56545E-13
 -1      2610 3.21140E+01 3.20622E+00-1.04575E-01 1.40848E+00-6.95471E-13-4.15723E-13
 -1      2611 3.25242E+01 5.21842E+00-1.66671E-01 1.41025E+00-9.83102E-13-4.06675E-13
 -1      2612 2.60113E+01-4.50017E+00-4.38312E-02-3.53290E+00-2.68729E-13-1.82798E-13
 -1      2613 2.85516E+01-3.30597E+00-1.23171E-01-2.23913E+00-3.22117E-13-3.25101E-13
 -1      2614 2.00911E+01-5.65777E+00 2.31733E-02-5.75043E+00 1.64535E-13-3.38618E-15
 -1      2615 2.35210E+01-5.19357E+00-3.40627E-02-5.07506E+00-9.08162E-14-1.12521E-13
 -1      2616 2.54760E+01-5.13721E+00 7.24702E-02-3.51192E+00 5.25413E-14-3.12639E-13
 -1      2617 1.21657E+01-5.10060E+00 4.93047E-02-6.43213E+00 1.36224E-13 2.27318E-13
 -1      2618 1.58913E+01-5.35850E+00-1.42126E-02-6.76941E+00 1.44440E-13 6.18255E-14
 -1      2619 2.07849E+01 8.94313E-01-4.81987E-03 9.83575E-01 4.71793E-13 2.12849E-13
 -1      2620 2.10810E+01 1.26396E+00-5.18995E-03 1.49433E+00 5.05401E-13 2.75963E-13
 -1      2621 2.08784E+01 1.72578E+00-1.57800E-02 1.66566E+00 5.47949E-13 1.04448E-13
 -1      2622 2.07282E+01 1.09659E+00-9.93429E-03 9.44931E-01 4.80043E-13 1.58703E-14
 -1      2623 2.56294E+01-4.19255E+00-5.78657E-02 4.25700E+00 2.71172E-14 1.64535E-13
 -1      2624 2.22263E+01-5.11035E+00 4.37817E-02 5.26947E+00-1.51296E-13 2.12538E-13
 -1      2625 2.99111E+01 5.66356E+00-1.01684E-01 1.22127E+00 9.79883E-13 9.45077E-14
 -1      2626 1.98196E+01 3.04825E+00 2.41173E-03-7.92065E-01-3.31893E-13-5.22662E-13
 -1      2627 1.97384E+01 3.33048E+00-1.74421E-02-9.95193E-01-3.59163E-13-5.50560E-13
 -1      2628 1.99038E+01 3.16249E+00-1.78464E-02-1.17138E+00-4.13280E-13-4.97568E-13
 -1      2629 2.04518E+01 4.31006E-01-5.05272E-03-1.17089E-01 2.87267E-13-8.48748E-14
 -1      2630 2.06298E+01 2.14361E+00-1.26494E-02 1.59868E+00 5.27913E-13-1.07315E-13
 -1      2631 2.69126E+01-3.92416E+00 3.12483E-02 2.47375E+00-2.27734E-14-7.13318E-14
 -1      2632 1.92849E+01-5.38625E+00 9.47947E-02-5.87290E+00 3.19078E-13-9.89868E-14
 -1      2633 3.03366E+01 4.83247E+00-9.50743E-02-1.35511E+00 6.86062E-13-5.22471E-13
 -1      2634 3.05648E+01 1.52094E+00 2.31594E-02 2.13938E+00-5.17045E-13-4.66516E-13
 -1      2635 3.05869E+01 5.45621E+00 1.82202E-02 1.71313E+00-8.96228E-13-4.01693E-13
 -1      2636 3.02720E+01-4.77292E-01 2.53326E-02-1.02916E+00-4.61187E-13 2.17854E-13
 -1      2637 2.91480E+01-2.89023E+00 3.55751E-02-4.03185E-01-2.01929E-13-4.34597E-13
 -1      2638 1.99988E+01-1.58841E-03-2.56125E-05-5.05710E-03-7.23603E-14-2.25023E-13
 -1      2639 2.11027E+01-5.26953E+00 7.37878E-02 5.60215E+00-4.01373E-13 2.43999E-13
 -1      2640 1.99994E+01-1.93548E-03 4.95490E-06-5.15848E-03-7.32872E-14-2.68768E-13
 -1      2641 5.19770E+00-1.48911E+00 1.70680E-01 8.86334E-02-5.52249E-14 9.87654E-13
 -1      2642 7.88257E+00-2.32947E+00 1.70009E-01 4.50181E+00-4.89386E-13 7.15095E-13
 -1      2643 2.13796E+01-5.57026E+00 8.07032E-02 5.43036E+00 2.65010E-13-3.93366E-13
 -1      2644 1.39708E+01-4.33719E+00 1.45691E-01 6.31400E+00 3.00676E-13-7.52579E-13
 -1      2645 2.06296E+01 1.86668E+00 1.20861E-02 1.25647E+00 4.88747E-13-1.37052E-13
 -1      2646 3.01624E+01 6.45413E+00-5.17574E-02-9.00435E-02-1.00281E-12-9.58730E-14
 -1      2647 2.02514E+01 2.70579E+00-8.83129E-03-1.36131E+00-4.79407E-13-3.45057E-13
 -1      2648 2.76746E+01-4.21474E+00 2.82971E-02 2.16014E+00-4.05648E-14-2.96985E-14
 -1      2649 3.03436E+01 4.14300E+00-4.04873E-02-2.02945E+00-8.46351E-13 1.97176E-13
 -1      2650 7.96623E+00-3.09523E+00 1.18647E-01-5.20682E+00-3.05644E-13-1.13889E-12
 -1      2651 1.04986E+01-2.82340E+00 1.13617E-01-5.66465E+00-4.51028E-13-9.78190E-13
 -1      2652 7.31155E+00-1.91993E+00 1.47429E-01-4.16042E+00-3.35343E-13-1.11886E-12
 -1      2653 7.68984E+00-2.33027E+00 1.56319E-01 4.01318E+00 1.83797E-13-1.14214E-12
 -1      2654 2.82844E+01-2.85378E+00-2.40220E-02-1.41219E+00 2.33327E-13 2.45470E-13
 -1      2655 1.51055E+01-4.55292E+00 1.19054E-01-6.66208E+00-4.24549E-13-6.19671E-13
 -1      2656 2.26381E+01-5.38295E+00 4.14488E-02-5.18196E+00-1.33782E-13-2.56045E-14
 -1      2657 2.46509E+01-5.03042E+00-5.53111E-02-3.63363E+00-2.27408E-13 2.26930E-13
 -1      2658 2.10691E+01-5.20624E+00 9.64447E-02-5.52710E+00-3.76033E-13 1.05593E-14
 -1      2659 5.06341E+00-1.77883E+00 1.58422E-01-7.54608E-01-1.18750E-13-1.35497E-12
 -1      2660 2.95618E+01 6.87754E+00-1.04831E-01-3.57007E-01 9.86600E-13-3.07435E-13
 -1      2661 1.18953E+01-3.94967E+00 1.30837E-01-6.11067E+00 4.01373E-13 2.95375E-13
 -1      2662 3.03497E+01 1.45766E-01-2.30680E-02-1.18347E-01 3.27315E-13-3.09253E-13
 -1      2663 2.89330E+01-1.29395E+00 1.40575E-02-1.33437E-01 2.88575E-13-4.47517E-13
 -1      2664 2.94514E+01 1.11919E+00-2.38132E-01-1.44080E+00 4.56732E-13-5.82923E-13
 -1      2665 3.01281E+01 1.61786E+00-3.80323E-02 1.10903E+00 6.29594E-13 3.28959E-13
 -1      2666 1.99986E+01-1.05598E-03-8.46931E-06 5.18885E-03-1.23139E-13 9.32743E-14
 -1      2667 1.99998E+01-1.98200E-03-1.63642E-05 5.36334E-03-1.07268E-13 1.13687E-13
 -1      2668 2.00003E+01-6.47464E-04 2.26891E-05 5.33820E-03-3.47948E-13 3.52295E-13
 -1      2669 1.99983E+01-3.57445E-04 3.10148E-05 5.42087E-03-3.20035E-13 2.23221E-13
 -1      2670 1.99999E+01-7.31386E-04 2.60536E-05-5.30070E-03 8.66063E-14-2.47552E-13
 -1      2671 1.99996E+01 1.08389E-04-5.26608E-05 5.36640E-03-4.07480E-13 4.58306E-13
 -1      2672 1.95263E+01 3.12114E+00-5.14490E-03 3.02357E-01 1.47929E-13-6.01616E-13
 -1      2673 1.94559E+01 3.18973E+00-6.71781E-03 1.96727E-01 9.49024E-14-6.04163E-13
 -1      2674 1.94061E+01 3.25099E+00-5.03524E-03 1.20763E-01 6.37244E-14-6.26213E-13
 -1      2675 1.93776E+01 3.27731E+00-6.01426E-03 1.95416E-02 1.50769E-14-6.23155E-13
 -1      2676 1.95253E+01 2.94329E+00 5.04853E-03 1.09811E-01 7.33732E-14-5.80935E-13
 -1      2677 1.99913E+01 2.54323E+00-8.90848E-03 6.99235E-01 3.31082E-13-4.45479E-13
 -1      2678 1.98511E+01 2.72247E+00-7.85671E-03 5.83641E-01 2.79385E-13-4.96133E-13
 -1      2679 2.03132E+01 2.05141E+00-1.02320E-02 8.66994E-01 4.18008E-13-3.03234E-13
 -1      2680 2.01471E+01 2.31918E+00-6.36013E-03 7.75568E-01 3.70195E-13-3.62467E-13
 -1      2681 2.01639E+01 2.11337E+00 6.44848E-03 5.40047E-01 3.28936E-13-3.61058E-13
 -1      2682 2.05228E+01 8.37936E-01-1.10433E-03 2.45339E-01 3.53011E-13-1.26871E-13
 -1      2683 2.06155E+01 1.04511E+00 9.30374E-03 5.42213E-01 3.97539E-13-1.11196E-13
 -1      2684 2.84102E+01 4.92082E+00-1.74066E-01-1.75850E+00 6.99663E-13-5.09315E-13
 -1      2685 2.93204E+01 3.33698E+00-7.18819E-02-1.89418E+00 5.83950E-13-5.53613E-13
 -1      2686 7.24991E+00-1.32209E+00 1.42737E-01-2.99394E+00 3.97911E-13 8.60784E-13
 -1      2687 8.82126E+00-2.05990E+00 1.11582E-01-4.57743E+00 4.43395E-13 5.59053E-13
 -1      2688 1.81258E+01-4.64262E+00 1.50639E-01-5.78084E+00 4.24813E-13-1.20876E-13
 -1      2689 2.14181E+01-5.35810E+00-4.64797E-02-5.04083E+00 3.58200E-13-2.32751E-13
 -1      2690 2.04649E+01 8.64346E-01 6.50565E-03 1.15344E-01-2.67440E-13-1.87678E-13
 -1      2691 2.04342E+01 7.46258E-01 9.77994E-05 3.39769E-01-2.15636E-13-1.75426E-13
 -1      2692 2.04136E+01 6.62191E-01 4.83353E-03 5.35094E-01-1.90792E-13-1.46705E-13
 -1      2693 2.04187E+01 5.98521E-01 1.76204E-03 7.12456E-01-1.81441E-13-1.59716E-13
 -1      2694 2.03480E+01 8.77348E-01-1.60890E-03 4.21618E-01-2.11256E-13-1.94455E-13
 -1      2695 2.03993E+01 5.53356E-01 2.64421E-03 8.78192E-01-1.96144E-13-1.27085E-13
 -1      2696 2.04402E+01 5.18013E-01 2.95444E-03 1.02687E+00-1.76509E-13-1.35825E-13
 -1      2697 2.02993E+01 7.17841E-01-1.83660E-03 7.96330E-01-1.91408E-13-1.90579E-13
 -1      2698 2.04286E+01 4.88620E-01 1.13406E-03 1.17413E+00-1.46784E-13-1.43190E-13
 -1      2699 2.05027E+01 4.60290E-01 3.70008E-03 1.30390E+00-1.21401E-13-1.38185E-13
 -1      2700 2.02659E+01 6.25197E-01-1.70095E-03 1.11988E+00-1.67863E-13-1.85976E-13
 -1      2701 2.05054E+01 4.26372E-01 6.12795E-04 1.43962E+00-1.16387E-13-1.35637E-13
 -1      2702 2.06127E+01 3.82666E-01 4.08465E-03 1.55186E+00-9.05109E-14-1.79857E-13
 -1      2703 2.02560E+01 5.49972E-01-1.85086E-03 1.41145E+00-1.28409E-13-2.05829E-13
 -1      2704 2.06420E+01 3.20739E-01 1.45692E-03 1.67723E+00-5.18751E-14-1.53054E-13
 -1      2705 2.07892E+01 2.33880E-01 4.11306E-03 1.76403E+00-3.12027E-14-1.41131E-13
 -1      2706 2.02832E+01 4.40042E-01-3.01456E-03 1.68120E+00-6.95140E-14-1.70131E-13
 -1      2707 2.08704E+01 1.14328E-01 4.35437E-03 1.87237E+00 3.74433E-15-1.16654E-13
 -1      2708 2.10733E+01-5.03087E-02 3.49596E-03 1.91441E+00 6.62881E-15-8.17660E-14
 -1      2709 2.03780E+01 2.31491E-01-6.10219E-03 1.92770E+00 5.57974E-15-6.72817E-14
 -1      2710 2.12526E+01-2.61498E-01 1.02465E-02 1.98599E+00-8.66039E-15-5.98665E-14
 -1      2711 2.15360E+01-5.39123E-01 1.43791E-03 1.94925E+00 4.14538E-14-2.47165E-14
 -1      2712 2.06025E+01-1.55035E-01-1.22794E-02 2.13217E+00 3.72995E-14-5.11272E-14
 -1      2713 2.18846E+01-8.65012E-01 2.02089E-02 1.94071E+00 8.67374E-14-2.16650E-14
 -1      2714 2.22781E+01-1.26759E+00-2.74417E-03 1.77504E+00 1.13074E-13-1.14223E-14
 -1      2715 2.10643E+01-8.01035E-01-2.23234E-02 2.24285E+00 7.58277E-14-5.34590E-14
 -1      2716 2.28756E+01-1.68751E+00 3.07638E-02 1.61239E+00 1.07228E-13 3.54502E-14
 -1      2717 2.33861E+01-2.14446E+00-1.13898E-02 1.26257E+00 1.22647E-13 1.40518E-14
 -1      2718 2.18936E+01-1.73406E+00-4.31246E-02 2.14369E+00 1.37654E-13-5.09662E-14
 -1      2719 2.43041E+01-2.51162E+00 4.41748E-02 7.91633E-01 2.20943E-13 1.11152E-13
 -1      2720 2.48177E+01-2.77260E+00-2.75506E-02 2.23894E-01 2.20792E-13 1.93789E-13
 -1      2721 2.33191E+01-2.86020E+00-7.66083E-02 1.63410E+00 2.43900E-13 1.14258E-13
 -1      2722 2.59536E+01-2.77105E+00 7.19411E-03-6.26027E-01 2.31511E-13 3.69198E-13
 -1      2723 2.62318E+01-2.28752E+00-6.11981E-03-1.30413E+00 1.23612E-13 4.73899E-13
 -1      2724 2.52871E+01-3.44628E+00-8.66322E-02 5.16046E-01 3.11012E-13 2.60711E-13
 -1      2725 2.77268E+01-3.46278E-01-8.76070E-02-2.29790E+00-2.63043E-13 4.86389E-13
 -1      2726 2.78092E+01 1.33555E+00-1.28582E-01-2.58226E+00-4.92717E-13 4.63588E-13
 -1      2727 2.77730E+01 3.10594E+00-1.12293E-01-2.03731E+00-6.80678E-13 2.63872E-13
 -1      2728 2.73083E+01 5.12059E+00-1.77954E-01-3.61971E-01-7.72243E-13-6.05800E-14
 -1      2729 2.72992E+01 4.87897E+00-2.61956E-01 9.22529E-01-7.96002E-13-2.41815E-13
 -1      2730 2.76901E+01 3.96663E+00-1.83584E-01 1.76365E+00-7.17953E-13-4.20903E-13
 -1      2731 2.79034E+01 2.41805E+00-2.27274E-01 2.52813E+00-5.75609E-13-5.24809E-13
 -1      2732 2.78864E+01 5.13835E-01-1.06387E-01 2.34160E+00-3.93310E-13-5.25510E-13
 -1      2733 2.78362E+01-1.14423E+00-9.07876E-02 2.12042E+00-1.03355E-13-5.90993E-13
 -1      2734 2.51175E+01-2.76349E+00-1.86030E-02 8.80295E-02 3.43099E-13-5.90271E-13
 -1      2735 2.45606E+01-2.57793E+00 3.37973E-02-5.35126E-01 3.37076E-13-5.42971E-13
 -1      2736 2.36203E+01-2.22537E+00-1.18347E-02-1.00367E+00 3.03792E-13-5.50901E-13
 -1      2737 2.31227E+01-1.78773E+00 3.56423E-02-1.39465E+00 2.19478E-13-4.79605E-13
 -1      2738 2.35961E+01-2.83335E+00-2.99522E-02-1.37303E+00 3.13083E-13-6.33600E-13
 -1      2739 2.24621E+01-1.35203E+00-6.43291E-03-1.59134E+00 8.35200E-14-4.61419E-13
 -1      2740 2.20665E+01-9.29157E-01 2.15038E-02-1.77127E+00 1.33515E-14-5.02776E-13
 -1      2741 2.20968E+01-1.86071E+00-4.22272E-02-1.98464E+00 1.37983E-13-5.28839E-13
 -1      2742 2.16870E+01-5.85168E-01 3.60742E-04-1.78437E+00 4.72114E-14-4.37072E-13
 -1      2743 2.13982E+01-2.91098E-01 1.09555E-02-1.82730E+00 9.73760E-15-3.95317E-13
 -1      2744 2.11731E+01-8.64735E-01-2.47435E-02-2.09252E+00 8.18028E-14-3.74578E-13
 -1      2745 2.11982E+01-6.79711E-02 2.87400E-03-1.75642E+00-6.14589E-14-2.77165E-13
 -1      2746 2.09926E+01 1.04972E-01 4.48017E-03-1.71751E+00-1.44274E-14-2.58628E-13
 -1      2747 2.06676E+01-1.82976E-01-1.33203E-02-1.98457E+00 7.96103E-14-1.91372E-13
 -1      2748 2.08962E+01 2.27450E-01 3.83345E-03-1.61055E+00-1.44681E-14-2.70843E-13
 -1      2749 2.07450E+01 3.11531E-01 8.55190E-04-1.52883E+00-5.95350E-14-2.46397E-13
 -1      2750 2.04112E+01 2.20287E-01-6.10035E-03-1.78150E+00 3.00571E-14-1.37636E-13
 -1      2751 2.07016E+01 3.65050E-01 4.05517E-03-1.41114E+00-2.98765E-14-2.30191E-13
 -1      2752 2.05847E+01 3.92747E-01-9.38670E-04-1.31185E+00-5.60027E-14-2.28526E-13
 -1      2753 2.02885E+01 4.19328E-01-2.24245E-03-1.54557E+00 4.54545E-15-1.00401E-13
 -1      2754 2.05654E+01 4.04554E-01 3.98461E-03-1.19649E+00-4.39156E-14-1.91464E-13
 -1      2755 2.04708E+01 4.00263E-01-1.65818E-03-1.09501E+00-2.94041E-14-1.76661E-13
 -1      2756 2.02294E+01 4.88069E-01-4.78444E-04-1.30751E+00-3.40609E-14-9.85772E-14
 -1      2757 2.04608E+01 3.89538E-01 3.76133E-03-9.88701E-01 8.31444E-14-1.18256E-13
 -1      2758 2.03823E+01 3.69303E-01-1.80223E-03-8.93680E-01 1.34413E-13-7.19344E-14
 -1      2759 2.01968E+01 4.82019E-01 1.59787E-04-1.08319E+00 6.09093E-14-9.89458E-14
 -1      2760 2.03750E+01 3.48153E-01 3.43834E-03-7.99602E-01-4.02904E-14-1.60581E-13
 -1      2761 2.03093E+01 3.21646E-01-1.66932E-03-7.15289E-01-9.13711E-14-2.29349E-13
 -1      2762 2.01732E+01 4.37942E-01 2.67026E-04-8.80771E-01-3.44604E-15-1.38577E-13
 -1      2763 2.03022E+01 2.97120E-01 3.05392E-03-6.34507E-01-9.28839E-14-1.11885E-13
 -1      2764 2.02475E+01 2.69743E-01-1.42692E-03-5.62421E-01-1.01273E-13-8.53999E-14
 -1      2765 2.01517E+01 3.78256E-01 1.68586E-04-7.03883E-01-2.10445E-14-4.03318E-14
 -1      2766 2.02401E+01 2.45633E-01 2.64296E-03-4.94712E-01-6.97582E-14-1.33006E-13
 -1      2767 2.01952E+01 2.20140E-01-1.16225E-03-4.34766E-01-6.22219E-14-7.16370E-14
 -1      2768 2.01304E+01 3.15684E-01 2.38070E-05-5.53252E-01-1.15772E-13 1.13298E-14
 -1      2769 2.01877E+01 1.98280E-01 2.23474E-03-3.79163E-01 1.37917E-14 5.26398E-15
 -1      2770 2.01513E+01 1.75877E-01-9.16332E-04-3.30407E-01 1.30417E-13 1.87267E-14
 -1      2771 2.01096E+01 2.56856E-01-1.00368E-04-4.27761E-01-1.90876E-14-5.00124E-14
 -1      2772 2.01442E+01 1.56983E-01 1.85051E-03-2.85563E-01 4.02589E-14 4.47347E-15
 -1      2773 2.01152E+01 1.38015E-01-7.05113E-04-2.46647E-01 5.93485E-14-2.36306E-14
 -1      2774 2.00900E+01 2.04786E-01-1.83901E-04-3.25207E-01 3.57027E-14 1.34088E-13
 -1      2775 2.01086E+01 1.22201E-01 1.50345E-03-2.11077E-01 1.08459E-13-1.57670E-13
 -1      2776 2.00860E+01 1.06561E-01-5.31810E-04-1.80534E-01 1.71365E-13-4.78718E-14
 -1      2777 2.00722E+01 1.60443E-01-2.27815E-04-2.42849E-01-1.36522E-14-1.92320E-13
 -1      2778 2.00802E+01 9.36355E-02 1.19998E-03-1.52762E-01 1.93228E-13-1.89960E-13
 -1      2779 2.00629E+01 8.10052E-02-3.93816E-04-1.29170E-01 1.08816E-13-2.74428E-13
 -1      2780 2.00567E+01 1.23703E-01-2.40712E-04-1.77781E-01 1.11015E-13-1.16386E-13
 -1      2781 2.00580E+01 7.06412E-02 9.41564E-04-1.07819E-01 1.60243E-13-3.06259E-13
 -1      2782 2.00449E+01 6.06186E-02-2.86345E-04-8.98798E-02 2.32837E-13-2.59424E-13
 -1      2783 2.00436E+01 9.39059E-02-2.32393E-04-1.27177E-01 1.48325E-13-3.50789E-13
 -1      2784 2.00409E+01 5.24440E-02 7.26430E-04-7.37235E-02 1.68476E-13-1.60512E-13
 -1      2785 2.00313E+01 4.46133E-02-2.04249E-04-6.03007E-02 1.10276E-13-1.58625E-13
 -1      2786 2.00328E+01 7.01666E-02-2.11288E-04-8.84343E-02 2.05878E-13-2.58725E-13
 -1      2787 2.00281E+01 3.82595E-02 5.50890E-04-4.82777E-02 1.57845E-13-2.06358E-13
 -1      2788 2.00212E+01 3.22256E-02-1.42824E-04-3.84099E-02 2.00120E-13-1.52254E-13
 -1      2789 2.00242E+01 5.15477E-02-1.83743E-04-5.92475E-02 9.29056E-14-3.26666E-13
 -1      2790 2.00187E+01 2.73493E-02 4.10356E-04-2.96286E-02 1.51678E-13-1.80898E-13
 -1      2791 2.00138E+01 2.27529E-02-9.81634E-05-2.25223E-02 9.36375E-14-1.65372E-13
 -1      2792 2.00174E+01 3.71458E-02-1.54133E-04-3.76411E-02 2.02426E-13-5.78942E-13
 -1      2793 2.00119E+01 1.90443E-02 2.99929E-04-1.62532E-02-2.29805E-14-1.50749E-13
 -1      2794 2.00086E+01 1.55655E-02-6.71201E-05-1.12718E-02 1.37906E-13-1.82401E-13
 -1      2795 2.00123E+01 2.61307E-02-1.25347E-04-2.19666E-02 1.44485E-13-4.66280E-13
 -1      2796 2.00072E+01 1.27493E-02 2.15044E-04-6.93432E-03 3.02042E-13-6.40963E-14
 -1      2797 2.00051E+01 1.01068E-02-4.65519E-05-3.58277E-03 1.66191E-13 2.21219E-15
 -1      2798 2.00083E+01 1.77588E-02-9.89613E-05-1.08864E-02 2.40883E-13-4.79214E-13
 -1      2799 2.00040E+01 7.94180E-03 1.52736E-04-7.26081E-04 4.80317E-14-1.87719E-15
 -1      2800 2.00027E+01 5.87880E-03-3.26622E-05 1.37035E-03-4.97452E-14 1.23873E-14
 -1      2801 2.00054E+01 1.13746E-02-7.50581E-05-3.34643E-03 3.81890E-14-3.50980E-13
 -1      2802 2.00020E+01 4.11262E-03 1.00135E-04 3.06409E-03-1.99309E-13 2.35705E-13
 -1      2803 2.00013E+01 2.48054E-03-8.48914E-06 4.14697E-03-3.24313E-13 1.54236E-13
 -1      2804 2.00033E+01 6.33685E-03-6.98500E-05 1.47014E-03-9.74793E-15-2.91699E-13
 -1      2805 2.06646E+01 1.63019E-01 1.15544E-03-9.17144E-01 1.16057E-13-1.86222E-13
 -1      2806 2.05759E+01 2.17662E-01 4.04101E-03-8.49642E-01 1.21413E-13-1.80217E-13
 -1      2807 2.00013E+01 1.06045E-03-1.57134E-05-4.56110E-03 4.74179E-14-4.56848E-13
 -1      2808 2.00003E+01 8.07711E-04 7.34589E-06-4.82022E-03 2.91482E-14-1.98625E-13
 -1      2809 2.00004E+01 2.03041E-03 5.83377E-05-4.42914E-03 5.36669E-14-2.05631E-13
 -1      2810 2.05356E+01 2.68550E-01 1.62221E-03-7.51411E-01 1.43995E-13-1.85227E-13
 -1      2811 2.04828E+01 3.25426E-01 5.39061E-03-6.49321E-01 1.83774E-13-1.64258E-13
 -1      2812 2.04876E+01 3.15399E-01-4.12041E-03-8.48536E-01 1.38993E-13-2.12912E-13
 -1      2813 2.11021E+01-1.25999E-01-2.11618E-03-1.03062E+00 4.13347E-14-5.74588E-14
 -1      2814 2.09632E+01-3.43841E-02 4.40049E-03-1.04316E+00 7.18614E-14-7.19836E-14
 -1      2815 2.14121E+01-3.49255E-01-5.08892E-03-9.38452E-01 3.07366E-14-3.61612E-14
 -1      2816 2.12587E+01-2.26616E-01 5.84834E-03-1.00931E+00 4.36650E-14-2.80429E-14
 -1      2817 2.10090E+01-2.16968E-01-6.14366E-03-1.15176E+00 3.42817E-14-1.11263E-13
 -1      2818 2.17808E+01-6.25386E-01-8.83299E-03-7.03499E-01 7.72147E-15-3.81818E-15
 -1      2819 2.16236E+01-4.77395E-01 7.62401E-03-8.48240E-01 1.65752E-14-1.05496E-14
 -1      2820 2.13517E+01-5.13999E-01-7.48163E-03-1.05375E+00 2.81818E-14-3.07500E-14
 -1      2821 2.21907E+01-9.09193E-01-1.23752E-02-2.94180E-01-2.46790E-14 2.18761E-14
 -1      2822 2.20477E+01-7.65734E-01 8.70608E-03-5.22012E-01-1.39150E-14 1.99663E-14
 -1      2823 2.17993E+01-8.67945E-01-8.17739E-03-7.96208E-01-6.89910E-15 2.16951E-14
 -1      2824 2.25910E+01-1.09056E+00-1.33577E-02 2.90580E-01-9.00278E-15 8.92978E-14
 -1      2825 2.24898E+01-1.01743E+00 7.11911E-03-7.23368E-03-1.34521E-14 8.98901E-14
 -1      2826 2.23381E+01-1.20454E+00-6.20556E-03-3.37229E-01-4.11031E-14 3.26201E-14
 -1      2827 2.28878E+01-9.95362E-01-8.17151E-03 9.74240E-01-3.78413E-14 1.66818E-13
 -1      2828 2.28600E+01-1.08871E+00 3.03633E-04 6.63052E-01-2.14037E-14 1.31650E-13
 -1      2829 2.28992E+01-1.36476E+00 1.46132E-04 3.28788E-01-5.66014E-14 2.00656E-13
 -1      2830 2.29662E+01-4.63601E-01 4.56711E-03 1.55184E+00 6.05514E-14 2.31924E-13
 -1      2831 2.30270E+01-7.96493E-01-1.30929E-02 1.33947E+00 1.92136E-14 2.25525E-13
 -1      2832 2.33376E+01-1.12347E+00 9.16553E-03 1.10586E+00-4.58568E-14 2.68872E-13
 -1      2833 2.27673E+01 4.92717E-01 1.83189E-02 1.70187E+00 8.92524E-14 1.70441E-13
 -1      2834 2.28936E+01-3.43120E-02-2.67821E-02 1.73489E+00 8.11207E-14 2.33670E-13
 -1      2835 2.34756E+01-3.16951E-01 1.27607E-02 1.72420E+00 9.25531E-14 2.67816E-13
 -1      2836 2.24080E+01 1.49852E+00 1.45461E-02 1.15573E+00 1.16466E-13 1.24286E-13
 -1      2837 2.25305E+01 1.01880E+00-3.19322E-02 1.50908E+00 5.48216E-14 1.25458E-13
 -1      2838 2.32494E+01 9.46094E-01 4.61966E-03 1.77639E+00 1.09362E-13 1.82794E-13
 -1      2839 2.22231E+01 1.94680E+00 1.76889E-03 5.55605E-02 2.46336E-13 6.30867E-14
 -1      2840 2.22489E+01 1.80068E+00-1.58179E-02 5.85888E-01 2.38020E-13 1.33620E-13
 -1      2841 2.28904E+01 1.99169E+00-2.25407E-02 9.66897E-01 1.79766E-13 9.69446E-14
 -1      2842 2.23571E+01 1.54513E+00-2.50546E-02-1.15262E+00 2.15262E-13-1.29709E-13
 -1      2843 2.22376E+01 1.86345E+00-3.16715E-03-6.59061E-01 2.49474E-13-7.10135E-14
 -1      2844 2.27788E+01 2.40720E+00-1.32004E-02-3.19229E-01 3.15638E-13-8.81309E-14
 -1      2845 2.27382E+01 5.61196E-01-2.75836E-02-1.77813E+00 2.51500E-13-3.69466E-13
 -1      2846 2.25902E+01 1.08886E+00 1.92202E-02-1.56088E+00 1.94131E-13-2.74030E-13
 -1      2847 2.30711E+01 1.63477E+00-5.07534E-03-1.51944E+00 3.18834E-13-2.89998E-13
 -1      2848 2.30375E+01-4.03507E-01-1.98710E-02-1.70781E+00 2.18050E-13-4.33395E-13
 -1      2849 2.29216E+01 5.27115E-02 1.42725E-02-1.79461E+00 3.12136E-13-3.78837E-13
 -1      2850 2.34106E+01 3.81285E-01 1.27547E-02-1.93201E+00 3.05879E-13-4.64610E-13
 -1      2851 2.30500E+01-9.53737E-01-6.37845E-03-1.15974E+00 1.27854E-13-3.72870E-13
 -1      2852 2.30159E+01-7.33240E-01-1.85323E-03-1.42626E+00 1.37332E-13-4.64803E-13
 -1      2853 2.34912E+01-7.17674E-01 1.23798E-02-1.59219E+00 1.65967E-13-3.93395E-13
 -1      2854 2.27934E+01-1.05815E+00 3.68308E-03-4.75892E-01 6.64544E-14-2.78869E-13
 -1      2855 2.28456E+01-1.05272E+00-1.16084E-02-7.83218E-01 1.08528E-13-2.97503E-13
 -1      2856 2.32116E+01-1.25890E+00 4.98665E-03-8.75369E-01 6.46319E-14-4.56850E-13
 -1      2857 2.23974E+01-8.83439E-01 8.16554E-03 1.15769E-01-9.78726E-14-2.70603E-13
 -1      2858 2.25081E+01-9.97902E-01-1.32948E-02-1.46246E-01 9.96273E-15-1.96530E-13
 -1      2859 2.27076E+01-1.28476E+00-2.07730E-03-1.46824E-01-1.47571E-14-2.11842E-13
 -1      2860 2.19749E+01-6.02702E-01 8.33123E-03 5.28166E-01-1.97454E-13-1.96312E-13
 -1      2861 2.21132E+01-7.52578E-01-1.08916E-02 3.45722E-01-9.96729E-14-2.48215E-13
 -1      2862 2.21533E+01-1.02039E+00-6.19661E-03 4.11976E-01-1.20368E-13-1.32045E-13
 -1      2863 2.15915E+01-3.30738E-01 6.60647E-03 7.61858E-01-1.32136E-13-1.97328E-13
 -1      2864 2.17352E+01-4.65758E-01-7.21895E-03 6.58318E-01-1.54287E-13-2.44831E-13
 -1      2865 2.16577E+01-6.64882E-01-6.76841E-03 7.60532E-01-1.46015E-13-6.90754E-14
 -1      2866 2.12689E+01-1.17938E-01 4.52031E-03 8.54753E-01-1.86792E-13-1.63227E-13
 -1      2867 2.14059E+01-2.18963E-01-3.89453E-03 8.14280E-01-1.21183E-13-1.45718E-13
 -1      2868 2.12604E+01-3.41248E-01-5.69953E-03 9.30166E-01-1.41256E-13-1.42459E-15
 -1      2869 2.10062E+01 2.62509E-02 2.78031E-03 8.50661E-01-1.79074E-13-1.49625E-13
 -1      2870 2.11309E+01-3.95816E-02-1.37446E-03 8.54195E-01-2.30032E-13-1.78283E-13
 -1      2871 2.09584E+01-9.68995E-02-4.24908E-03 9.71003E-01-1.84527E-13-1.53022E-13
 -1      2872 2.07943E+01 1.11227E-01 1.52841E-03 7.87204E-01-4.56721E-14-1.58350E-13
 -1      2873 2.09048E+01 7.42645E-02 3.47540E-04 8.17790E-01-9.82419E-14-1.34665E-13
 -1      2874 2.07330E+01 6.40037E-02-2.99111E-03 9.28756E-01-1.67459E-13-2.08324E-13
 -1      2875 2.06236E+01 1.52164E-01 7.14234E-04 6.92746E-01 9.07937E-14-9.77842E-14
 -1      2876 2.07194E+01 1.35983E-01 1.40124E-03 7.37354E-01 7.33351E-14-1.59507E-13
 -1      2877 2.05645E+01 1.55742E-01-2.08994E-03 8.38942E-01 1.90219E-14-1.91461E-13
 -1      2878 2.04858E+01 1.63597E-01 2.29946E-04 5.86875E-01 2.84995E-14-4.42065E-14
 -1      2879 2.05674E+01 1.60958E-01 1.95304E-03 6.36433E-01 4.03897E-14-1.18690E-13
 -1      2880 2.04367E+01 1.97214E-01-1.50313E-03 7.26878E-01 4.02153E-14-9.78174E-14
 -1      2881 2.03747E+01 1.57097E-01-3.11758E-05 4.82087E-01-1.44019E-13 4.14522E-14
 -1      2882 2.04430E+01 1.62433E-01 2.15391E-03 5.30815E-01 5.81528E-15 4.60783E-14
 -1      2883 2.03382E+01 2.05586E-01-1.13571E-03 6.09435E-01-2.98464E-14 4.65293E-14
 -1      2884 2.02855E+01 1.40971E-01-1.52493E-04 3.85626E-01-2.87028E-14-5.97571E-14
 -1      2885 2.03416E+01 1.50378E-01 2.12561E-03 4.30213E-01-7.02003E-14-2.05168E-14
 -1      2886 2.02611E+01 1.94206E-01-9.03118E-04 4.97070E-01-6.34888E-14-1.29207E-13
 -1      2887 2.02144E+01 1.20745E-01-1.92231E-04 3.01083E-01-2.32239E-14-9.54586E-14
 -1      2888 2.02597E+01 1.31677E-01 1.96048E-03 3.39933E-01-1.33236E-14-4.12725E-14
 -1      2889 2.02002E+01 1.72522E-01-7.46416E-04 3.95622E-01-2.89280E-14-2.43165E-13
 -1      2890 2.01584E+01 9.98544E-02-1.88187E-04 2.29648E-01 3.59850E-14-2.40937E-13
 -1      2891 2.01943E+01 1.10762E-01 1.72489E-03 2.62285E-01 4.26350E-14-1.34858E-13
 -1      2892 2.01521E+01 1.46768E-01-6.30087E-04 3.07763E-01 1.63220E-15-1.72446E-13
 -1      2893 2.01148E+01 8.02587E-02-1.63521E-04 1.71033E-01-4.82115E-14-4.69525E-13
 -1      2894 2.01427E+01 9.02841E-02 1.46396E-03 1.97657E-01 1.55840E-14-3.51925E-13
 -1      2895 2.01141E+01 1.20773E-01-5.35108E-04 2.34091E-01 1.35157E-13-2.60914E-13
 -1      2896 2.00814E+01 6.29409E-02-1.31666E-04 1.24122E-01-5.87491E-14-3.40754E-13
 -1      2897 2.01026E+01 7.16797E-02 1.20650E-03 1.45304E-01-9.87063E-14-3.53314E-13
 -1      2898 2.00843E+01 9.66977E-02-4.52478E-04 1.73947E-01-4.20763E-14-3.58512E-13
 -1      2899 2.00562E+01 4.82626E-02-9.99197E-05 8.74057E-02-6.68292E-14-8.45144E-14
 -1      2900 2.00720E+01 5.55933E-02 9.69337E-04 1.03884E-01-6.21646E-14-1.70817E-13
 -1      2901 2.00612E+01 7.55892E-02-3.78574E-04 1.25978E-01-1.28769E-13-2.51194E-13
 -1      2902 2.00376E+01 3.62124E-02-7.19049E-05 5.92669E-02-4.18737E-14-2.43341E-13
 -1      2903 2.00491E+01 4.21807E-02 7.60953E-04 7.18150E-02-1.06186E-14-1.45109E-13
 -1      2904 2.00436E+01 5.77950E-02-3.12269E-04 8.85264E-02-3.75219E-16-1.76241E-13
 -1      2905 2.00241E+01 2.65709E-02-4.91801E-05 3.81466E-02-7.86102E-15-2.77172E-13
 -1      2906 2.00323E+01 3.13130E-02 5.84277E-04 4.74995E-02-3.58622E-14-2.83440E-13
 -1      2907 2.00303E+01 4.32440E-02-2.53375E-04 5.98760E-02-4.46598E-14-1.73415E-13
 -1      2908 2.00147E+01 1.90148E-02-3.22427E-05 2.26417E-02-1.66979E-13-2.94412E-13
 -1      2909 2.00203E+01 2.27099E-02 4.38813E-04 2.94528E-02-3.13288E-14-3.03535E-13
 -1      2910 2.00205E+01 3.16334E-02-2.01892E-04 3.84052E-02-1.55245E-14-2.80994E-13
 -1      2911 2.00083E+01 1.31810E-02-2.12770E-05 1.15513E-02-7.26553E-14-2.07631E-13
 -1      2912 2.00120E+01 1.60222E-02 3.22074E-04 1.63731E-02-1.76445E-13-2.39720E-13
 -1      2913 2.00134E+01 2.25476E-02-1.57683E-04 2.26701E-02-2.27839E-13-3.36572E-13
 -1      2914 2.00042E+01 8.70691E-03-1.18724E-05 3.89611E-03 1.29236E-13-3.96402E-13
 -1      2915 2.00064E+01 1.08805E-02 2.30557E-04 7.17171E-03 6.46199E-14-1.78241E-13
 -1      2916 2.00083E+01 1.55305E-02-1.20052E-04 1.14435E-02 8.51061E-15-3.81729E-13
 -1      2917 2.00018E+01 5.29480E-03 2.88808E-05-1.05461E-03 1.21395E-13-1.50293E-13
 -1      2918 2.00029E+01 6.89130E-03 1.53616E-04 9.69785E-04 1.39464E-13-3.42403E-13
 -1      2919 2.00049E+01 1.01376E-02-8.79175E-05 3.72973E-03 1.13632E-13-4.52238E-13
 -1      2920 2.00008E+01 3.08643E-03 3.64133E-05-3.54952E-03 1.56598E-13-3.06098E-13
 -1      2921 2.00013E+01 4.38236E-03 8.55865E-05-2.41550E-03 1.48094E-13-2.74755E-13
 -1      2922 2.00030E+01 6.54272E-03-9.07041E-05-7.27451E-04 1.18294E-13-3.18583E-13
 -1      2923 2.00022E+01 3.96416E-03-8.03827E-05-3.06347E-03 1.03695E-13-4.68690E-13
 -1      2924 2.28720E+01-5.23023E+00-9.62208E-02 4.50917E+00-3.93297E-13 1.63593E-13
 -1      2925 1.95983E+01-4.83163E+00 1.39622E-01 5.69037E+00-5.43732E-13 2.65762E-13
 -1      2926 2.00018E+01 5.49172E-03-2.04352E-05-1.98266E-04-1.06406E-13-1.64453E-13
 -1      2927 2.00018E+01 5.43028E-03-6.45810E-06-5.40213E-04 7.48373E-14-2.00008E-13
 -1      2928 2.00009E+01 1.40719E-03 5.82137E-05 4.75377E-03-4.14589E-13 2.50080E-13
 -1      2929 2.00006E+01 4.03011E-04 1.45577E-06 5.02744E-03-3.05269E-13 3.29519E-13
 -1      2930 2.00020E+01 2.77209E-03-6.53637E-05 3.88248E-03-2.18156E-13-1.96685E-13
 -1      2931 2.00022E+01 4.04657E-03-3.59017E-05-1.55397E-03 1.60212E-13 9.41307E-14
 -1      2932 2.00023E+01 3.76067E-03 1.92125E-05-2.05158E-03 2.20035E-13-9.17813E-14
 -1      2933 2.00019E+01 5.38179E-03-5.19618E-06 3.47674E-04 4.53370E-14 1.33950E-13
 -1      2934 2.00018E+01 5.47165E-03-2.21103E-05-4.23166E-06-1.29222E-13-1.00651E-13
 -1      2935 2.00021E+01 9.59851E-03 6.39938E-05-1.17157E-04 5.67580E-14-2.04525E-13
 -1      2936 2.00019E+01 5.01472E-03-3.19957E-05-7.78254E-04 4.60271E-14-1.95111E-13
 -1      2937 2.00020E+01 4.81886E-03 9.29698E-06-1.18077E-03 4.07392E-14 9.35811E-14
 -1      2938 2.00025E+01 8.04485E-03 4.80470E-05-9.15133E-04 8.92593E-14 2.81123E-15
 -1      2939 2.00022E+01 9.21023E-03 5.98076E-05-4.16251E-04 1.14817E-13-1.76139E-13
 -1      2940 2.00022E+01 4.72821E-03 1.02331E-05 1.02570E-03 2.14557E-13-1.53832E-13
 -1      2941 2.00020E+01 4.93906E-03-3.35119E-05 6.04067E-04 1.33773E-13 5.93382E-14
 -1      2942 2.00023E+01 9.14731E-03 5.97483E-05 2.03264E-04 1.63646E-13 1.06830E-13
 -1      2943 2.00024E+01 3.62885E-03 1.71469E-05 1.97629E-03 2.58435E-13-1.22814E-13
 -1      2944 2.00023E+01 3.93093E-03-3.73841E-05 1.43867E-03 2.91740E-13-1.54909E-14
 -1      2945 2.00027E+01 7.93634E-03 4.67052E-05 7.61970E-04 2.12051E-13-1.19838E-13
 -1      2946 2.00024E+01 2.27604E-03-2.27968E-06 3.16774E-03 5.78239E-14-2.80017E-13
 -1      2947 2.00025E+01 2.63622E-03-3.21593E-05 2.54606E-03 2.77915E-13-3.33778E-13
 -1      2948 2.00030E+01 6.19200E-03 3.41867E-05 1.69543E-03 2.72733E-13-2.57564E-13
 -1      2949 2.04788E+01 1.83933E+00-9.40965E-03-9.62872E-01-4.56265E-13-2.53395E-13
 -1      2950 2.04853E+01 1.48090E+00-3.98329E-03-6.32247E-01-4.29084E-13-2.14255E-13
 -1      2951 1.61337E+01-4.40568E+00-2.87980E-03 6.52113E+00-5.01488E-13 3.93907E-13
 -1      2952 1.32909E+01-3.27419E+00 1.55569E-01 6.13739E+00-5.32602E-13 5.32685E-13
 -1      2953 1.01515E+01-2.13973E+00 7.00253E-02 5.31202E+00-5.24678E-13 5.88807E-13
 -1      2954 7.90481E+00-1.05447E+00 1.87049E-01 3.34219E+00-4.31391E-13 6.65357E-13
 -1      2955 2.32936E+01-5.45682E+00-8.70058E-02 4.31195E+00 3.49429E-13-1.08804E-13
 -1      2956 1.99855E+01-4.99999E+00 1.08918E-01 5.40248E+00 3.86996E-13-2.67855E-13
 -1      2957 2.05533E+01 1.57807E+00-9.77132E-04 9.36775E-01 4.47643E-13-1.71140E-13
 -1      2958 1.71402E+01-4.57443E+00 2.23773E-02 6.19014E+00 3.47902E-13-4.60160E-13
 -1      2959 1.39779E+01-3.39705E+00 1.34228E-01 5.88109E+00 4.03302E-13-6.52423E-13
 -1      2960 1.98940E+01-4.27148E+00 1.24107E-01 5.04016E+00 4.70152E-13-2.16587E-13
 -1      2961 1.42025E+01-3.59004E+00 1.30307E-01-6.22179E+00-5.27675E-13-5.80355E-13
 -1      2962 1.73033E+01-4.44107E+00 4.54465E-02-6.23614E+00-5.44953E-13-2.99455E-13
 -1      2963 2.04691E+01 3.85988E-01 1.44565E-03-5.16280E-01 2.14761E-13-1.61682E-13
 -1      2964 2.04601E+01 4.63551E-01 7.70114E-03-3.72198E-01 2.46232E-13-1.40027E-13
 -1      2965 2.04423E+01 4.61353E-01-3.95355E-03-6.01409E-01 2.18431E-13-1.77992E-13
 -1      2966 2.08535E+01 3.96113E-02-5.14122E-05-1.01467E+00 7.41637E-14-1.12604E-13
 -1      2967 2.07363E+01 1.06727E-01 3.73879E-03-9.82939E-01 9.39588E-14-1.60378E-13
 -1      2968 2.05913E+01 1.76209E-01-4.31484E-03-1.02570E+00 8.57208E-14-2.03728E-13
 -1      2969 2.07608E+01 8.27345E-03-4.96608E-03-1.13210E+00 4.49805E-14-1.22213E-13
 -1      2970 2.04673E+01 5.55223E-01 7.29146E-04-1.94343E-01 2.75068E-13-1.58305E-13
 -1      2971 2.05073E+01 6.80076E-01 1.03211E-02 1.00018E-02 3.02973E-13-1.37725E-13
 -1      2972 2.04899E+01 9.72505E-01-6.87492E-04 1.63819E-01 3.56517E-13-2.05921E-13
 -1      2973 2.04474E+01 6.60180E-01-3.02728E-03-2.71324E-01 2.69083E-13-1.92937E-13
 -1      2974 1.12039E+01-2.90727E+00 1.60091E-01-5.50198E+00 5.11063E-13 3.64930E-13
 -1      2975 1.42057E+01-3.99745E+00 6.67268E-03-6.23325E+00 4.42479E-13 4.45199E-14
 -1      2976 1.14794E+01-1.97845E+00 1.70289E-01-4.78972E+00 4.55525E-13 3.67595E-13
 -1      2977 2.82174E+01-3.77485E+00-1.22013E-01 5.72411E-01-4.48946E-15 2.46789E-13
 -1      2978 2.61622E+01-4.74076E+00 2.99586E-02 2.21075E+00 2.34583E-13 1.58151E-13
 -1      2979 2.05197E+01 1.21518E+00 4.20528E-03-3.86644E-01-3.71710E-13-2.03159E-13
 -1      2980 2.04676E+01 1.01082E+00-2.17872E-03-9.49144E-02-3.17774E-13-2.00672E-13
 -1      2981 2.03914E+01 1.15601E+00 1.01910E-03-2.65910E-03-2.96200E-13-2.32709E-13
 -1      2982 2.03906E+01 1.60036E+00 1.40805E-03-4.70030E-01-3.89926E-13-2.84116E-13
 -1      2983 6.25134E+00-8.17801E-01 1.30247E-01 1.73923E-01-5.79857E-14-1.20598E-12
 -1      2984 6.31863E+00-1.15804E+00 1.87482E-01-2.21574E+00-2.02185E-13-1.23163E-12
 -1      2985 2.77434E+01 6.41851E+00-1.50546E-01 1.34060E-01 9.25482E-13-2.85008E-13
 -1      2986 2.76610E+01 6.10786E+00-1.63674E-01-8.39805E-01 8.02303E-13-4.63598E-13
 -1      2987 1.97254E+01 2.88949E+00-6.32696E-03 4.98787E-01 2.45087E-13-5.31912E-13
 -1      2988 1.96161E+01 3.00795E+00-7.45699E-03 3.84369E-01 1.86981E-13-5.70989E-13
 -1      2989 1.96722E+01 2.77422E+00 5.31275E-03 2.52510E-01 1.58649E-13-5.43519E-13
 -1      2990 1.98927E+01 2.50131E+00 6.06631E-03 4.02075E-01 2.40549E-13-4.72084E-13
 -1      2991 1.95772E+01 3.05904E+00-7.29926E-03-3.94993E-01-2.07801E-13-5.83349E-13
 -1      2992 1.96841E+01 2.94591E+00-6.32659E-03-5.01221E-01-2.56145E-13-5.53147E-13
 -1      2993 2.68966E+01-3.77089E+00 1.45172E-04-1.57083E+00-5.58217E-14 3.95933E-13
 -1      2994 2.81318E+01-2.28942E+00-1.53838E-01-9.17132E-02 1.63317E-13 5.18294E-13
 -1      2995 1.01974E+01-2.03339E+00 8.35273E-02 4.91516E+00 2.82468E-13-9.37306E-13
 -1      2996 7.95625E+00-9.78341E-01 1.69457E-01 2.75296E+00 1.39180E-13-1.03711E-12
 -1      2997 2.00012E+01 3.79306E-04-1.73282E-05 4.82771E-03-3.15016E-13 2.92354E-14
 -1      2998 2.01630E+01 2.66742E+00-2.83660E-03-1.11442E+00-4.39258E-13-3.88627E-13
 -1      2999 6.35707E+00-6.87661E-01 9.48438E-02 1.13983E+00-1.97019E-13 6.77014E-13
 -1      3000 6.46305E+00-7.60897E-01 1.61185E-01-1.22332E+00 5.03070E-14 8.95312E-13
 -1      3001 2.42893E+01-5.20995E+00 6.03044E-02-3.51450E+00 2.45415E-13-3.91423E-13
 -1      3002 2.61396E+01-4.86739E+00-9.95138E-02-2.25833E+00 9.21069E-14-6.00908E-13
 -1      3003 2.74435E+01-3.50365E+00-1.14763E-01 1.19122E+00 6.60166E-14-3.17663E-13
 -1      3004 2.58606E+01-4.32617E+00 8.57749E-02 2.40801E+00-1.66010E-13-1.27925E-13
 -1      3005 2.88969E+01 7.15880E-02-4.03294E-02 1.23949E+00 3.61586E-13 4.84349E-13
 -1      3006 2.88096E+01 2.13455E+00-1.86553E-01 1.79237E+00 5.96398E-13 4.04968E-13
 -1      3007 2.84700E+01 4.45060E+00-1.25431E-01 1.79375E+00 7.67775E-13 2.92016E-13
 -1      3008 2.80708E+01 5.83972E+00-1.92671E-01 1.12419E+00 8.56731E-13 2.70270E-14
 -1      3009 2.80847E+01-1.53345E+00-9.56274E-02-1.48096E+00-1.14055E-13 4.47253E-13
 -1      3010 2.80130E+01-2.48001E+00-1.03880E-01 9.50564E-01 8.34055E-15-4.32487E-13
 -1      3011 2.65822E+01-2.17831E+00-1.86116E-02 1.44866E+00 1.36463E-13-6.08441E-13
 -1      3012 2.61648E+01-2.72343E+00 1.32903E-03 7.95701E-01 3.09551E-13-6.29181E-13
 -1      3013 2.72737E+01-3.96221E+00 6.47074E-03-6.64913E-01 9.71046E-14-5.71973E-13
 -1      3014 1.98095E+01 2.78630E+00-7.36740E-03-5.76669E-01-2.83463E-13-5.06030E-13
 -1      3015 1.99514E+01 2.62634E+00-4.80755E-03-6.81831E-01-3.45968E-13-4.61660E-13
 -1      3016 1.98440E+01 2.57361E+00 7.01725E-03-4.04767E-01-2.52050E-13-4.85877E-13
 -1      3017 1.94657E+01 3.01025E+00 5.02058E-03-2.26514E-02-6.36012E-15-5.75711E-13
 -1      3018 1.93719E+01 3.28565E+00-5.54639E-03-5.17177E-02-2.77893E-14-6.17748E-13
 -1      3019 1.93892E+01 3.26905E+00-5.57838E-03-1.50721E-01-8.57380E-14-6.19547E-13
 -1      3020 2.84050E+01 1.63136E+00-1.04886E-01-1.79186E+00 4.82392E-13-5.88044E-13
 -1      3021 2.73322E+01 4.54670E+00-3.13513E-01-1.36324E+00-7.70536E-13 7.58560E-14
 -1      3022 2.48413E+01-4.78084E+00 1.49052E-02 2.64901E+00 4.23050E-13 1.44884E-13
 -1      3023 2.30599E+01-4.88841E+00 7.39077E-02-3.77691E+00 3.80973E-13-3.81644E-13
 -1      3024 2.55052E+01-3.43134E+00-6.23392E-02-2.70337E-01 3.28708E-13-5.83503E-13
 -1      3025 2.62445E+01-4.08195E+00 3.95635E-02-1.01672E+00 2.32432E-13-6.11330E-13
 -1      3026 2.76613E+01-2.34529E+00-7.83782E-02-2.14644E-01 1.22956E-13-5.08676E-13
 -1      3027 2.00028E+01 6.32444E-03 3.30322E-05-1.74382E-03 3.07443E-13-1.70400E-13
 -1      3028 2.00023E+01 2.78098E-03-2.97651E-05-2.58205E-03 3.13011E-13-9.05329E-14
 -1      3029 2.00023E+01 2.52928E-03 1.34181E-05-3.13357E-03 3.87993E-13-1.20849E-13
 -1      3030 1.88391E+01-4.18515E+00 1.01472E-01 5.50112E+00-4.57939E-13 2.84012E-13
 -1      3031 2.42590E+01-4.60269E+00 1.00399E-02 3.02280E+00-2.97408E-13 2.92960E-14
 -1      3032 2.01816E+01 2.36597E+00 6.15877E-04-8.38516E-01-3.93425E-13-3.90418E-13
 -1      3033 2.00019E+01 1.46493E-03 2.53199E-06-3.93941E-03 7.39375E-14-4.20591E-13
 -1      3034 8.33268E+00-1.09667E+00 1.71660E-01-3.09088E+00-3.44558E-13-1.10162E-12
 -1      3035 8.44451E+00-4.73327E-01 1.87258E-01-1.95411E+00 2.11074E-13 6.66606E-13
 -1      3036 2.00018E+01 7.69734E-04 3.63577E-05 4.24819E-03-1.96994E-13-1.63944E-13
 -1      3037 2.04518E+01 1.70276E+00-2.68438E-03 7.96192E-01 4.21770E-13-2.35738E-13
 -1      3038 2.04151E+01 1.52590E+00 2.77767E-03 5.14917E-01 3.82192E-13-2.54263E-13
 -1      3039 1.29036E+01-2.22277E+00 1.36428E-01 5.28401E+00-5.25788E-13 6.55392E-13
 -1      3040 8.80139E+00-3.61534E-01 1.82853E-01 2.10438E+00-3.01661E-13 5.68989E-13
 -1      3041 1.85624E+01-3.97727E+00 6.92086E-02-5.45725E+00-6.24965E-13-1.33317E-13
 -1      3042 1.97092E+01-4.71413E+00 1.06704E-01-5.60747E+00-5.54404E-13-9.53855E-14
 -1      3043 2.16947E+01-4.84206E+00-1.47855E-02-4.57040E+00-4.93286E-13 1.71963E-13
 -1      3044 2.77521E+01-1.31881E+00-4.22651E-02 9.27650E-01 1.46674E-13 5.67588E-13
 -1      3045 1.30151E+01-2.87961E+00 1.16370E-01-5.91502E+00-5.42705E-13-6.97525E-13
 -1      3046 1.53078E+01-2.83661E+00 8.83393E-02-5.51989E+00-6.42486E-13-4.38843E-13
 -1      3047 1.18673E+01-1.96016E+00 1.13118E-01-5.15302E+00-5.20459E-13-7.70023E-13
 -1      3048 1.71775E+01-3.85677E+00 1.24578E-01-5.54470E+00 5.36876E-13-4.74620E-14
 -1      3049 8.16432E+00-4.09789E-01 1.83586E-01 1.58214E+00 5.31519E-14-1.04777E-12
 -1      3050 8.82580E+00 4.91017E-02 1.14056E-01 2.18794E-01-6.84366E-14-1.00757E-12
 -1      3051 1.02569E+01-2.52348E-01 7.33949E-02 2.43059E+00 1.73387E-13-8.89733E-13
 -1      3052 1.94292E+01 3.22319E+00-6.39295E-03-2.20842E-01-1.16469E-13-5.99483E-13
 -1      3053 1.94925E+01 3.16142E+00-5.57131E-03-3.22202E-01-1.75920E-13-5.90716E-13
 -1      3054 1.96295E+01 2.82965E+00 5.76645E-03-2.75215E-01-1.86397E-13-5.52639E-13
 -1      3055 1.95004E+01 2.97356E+00 5.20248E-03-1.48887E-01-9.35954E-14-5.77577E-13
 -1      3056 2.67152E+01 5.35866E+00-1.25987E-01 6.60687E-01 6.89532E-13-2.15696E-14
 -1      3057 1.36154E+01-2.23293E+00 1.27074E-01 4.97402E+00 3.86885E-13-7.34537E-13
 -1      3058 2.58765E+01 4.91535E+00-6.67116E-02-9.86470E-01 7.15913E-13-5.34555E-13
 -1      3059 2.73070E+01 4.99928E+00-1.37175E-01-1.39960E+00 7.08142E-13-4.60715E-13
 -1      3060 2.65899E+01 3.84283E+00-7.39639E-02-1.96104E+00 5.77149E-13-5.53016E-13
 -1      3061 2.00024E+01 3.14957E-03-2.14113E-05 3.60389E-03-1.34981E-13-4.75085E-13
 -1      3062 2.00024E+01 2.24509E-03-2.49553E-05 3.48018E-03 2.84159E-14-5.17543E-13
 -1      3063 2.00032E+01 5.18096E-03 6.85251E-05 2.47617E-03 2.05901E-13-4.16141E-13
 -1      3064 2.00030E+01 4.78189E-03 9.68473E-05 2.84535E-03 3.21831E-14-6.44753E-13
 -1      3065 2.58064E+01-4.49214E+00-1.33028E-02-2.39103E+00-2.20275E-13 3.02119E-13
 -1      3066 2.61045E+01-3.78887E+00-2.38341E-02-9.93948E-01-2.48545E-13 4.83343E-13
 -1      3067 2.42806E+01-4.65519E+00 3.54135E-02-3.09946E+00-3.31395E-13 3.30674E-13
 -1      3068 2.78813E+01-3.46217E+00-9.78158E-02-7.57597E-02 6.79318E-14 3.68483E-13
 -1      3069 2.02516E+01 1.71644E+00-4.82917E-03 3.70789E-01 3.27173E-13-2.89868E-13
 -1      3070 2.01189E+01 1.94420E+00-2.16265E-03 3.23978E-01 2.69942E-13-3.44727E-13
 -1      3071 1.14472E+01-1.04336E+00 1.09790E-01-3.96812E+00 3.81667E-13 3.01897E-13
 -1      3072 1.33974E+01-2.04955E+00 2.84672E-02-4.97522E+00 4.60743E-13 1.59386E-13
 -1      3073 2.10284E+01-4.21988E+00-7.25823E-02 4.26220E+00 4.73691E-13-7.84095E-15
 -1      3074 1.89393E+01-3.38059E+00 1.08818E-01 4.77190E+00 4.60524E-13-1.76990E-13
 -1      3075 2.58502E+01 4.53799E+00-1.15898E-01 1.33012E+00 4.79727E-13 1.47764E-13
 -1      3076 2.54598E+01 5.11586E+00-1.08144E-01 1.60927E-01 5.50601E-13-2.41522E-13
 -1      3077 2.01870E+01 9.00011E-01 1.15349E-03 6.72310E-01-1.78175E-13-2.59539E-13
 -1      3078 2.01617E+01 8.32718E-01 1.98169E-04 8.46718E-01-1.80434E-13-2.57475E-13
 -1      3079 2.00960E+01 7.81383E-01-6.06628E-05 1.00486E+00-1.85859E-13-2.26356E-13
 -1      3080 2.00823E+01 7.39528E-01 1.62502E-03 1.15828E+00-1.77424E-13-2.45924E-13
 -1      3081 1.99725E+01 9.50995E-01 1.01465E-03 8.87946E-01-1.75385E-13-3.09445E-13
 -1      3082 2.00046E+01 7.00134E-01-1.14212E-03 1.30659E+00-1.47224E-13-2.38192E-13
 -1      3083 2.00076E+01 6.59355E-01 3.09517E-03 1.44686E+00-1.00417E-13-2.45110E-13
 -1      3084 1.98282E+01 8.50069E-01 1.11426E-03 1.19549E+00-1.50842E-13-2.55816E-13
 -1      3085 1.99264E+01 6.06144E-01-1.59984E-03 1.59427E+00-4.22673E-14-2.35295E-13
 -1      3086 1.99569E+01 5.37654E-01 5.02385E-03 1.72519E+00-1.09622E-14-1.76076E-13
 -1      3087 1.96694E+01 7.54441E-01 7.06215E-04 1.49113E+00-6.16179E-14-2.65614E-13
 -1      3088 1.98887E+01 4.38517E-01-8.03387E-04 1.87987E+00-5.86011E-17-1.74041E-13
 -1      3089 1.99697E+01 3.05141E-01 7.90508E-03 2.00001E+00 2.64529E-14-1.86210E-13
 -1      3090 1.95168E+01 6.02562E-01-8.79136E-04 1.79475E+00 1.30328E-14-2.28449E-13
 -1      3091 1.99484E+01 1.18932E-01 2.49578E-03 2.16820E+00 5.26491E-14-1.63631E-13
 -1      3092 2.01226E+01-1.26915E-01 1.20324E-02 2.26768E+00 6.40306E-14-1.52422E-13
 -1      3093 1.94130E+01 3.14599E-01-4.74304E-03 2.12670E+00 5.23106E-14-2.85005E-13
 -1      3094 2.02145E+01-4.49827E-01 1.05395E-02 2.44717E+00 4.76411E-14-1.10624E-13
 -1      3095 2.05477E+01-8.57030E-01 1.70121E-02 2.49563E+00 8.80153E-14-1.51666E-13
 -1      3096 1.94437E+01-2.14512E-01-1.28446E-02 2.50320E+00 6.12416E-14-2.39117E-13
 -1      3097 2.08868E+01-1.35948E+00 3.06492E-02 2.65712E+00 1.53463E-13-9.12272E-14
 -1      3098 2.15393E+01-1.92782E+00 4.11254E-02 2.56013E+00 2.10297E-13-2.73735E-14
 -1      3099 1.97838E+01-1.10053E+00-2.03028E-02 2.92975E+00 1.41422E-13-1.37374E-13
 -1      3100 2.17155E+01-2.69293E+00 4.76067E-02 2.96314E+00 3.08968E-13 4.79868E-15
 -1      3101 2.27203E+01-3.32138E+00 6.04746E-02 2.69095E+00 3.91590E-13 1.06618E-13
 -1      3102 2.15268E+01-2.10831E+00-1.03384E-05-2.49114E+00 2.13754E-13-4.79175E-13
 -1      3103 2.09837E+01-1.42671E+00 3.86165E-02-2.53213E+00 1.68852E-13-3.66498E-13
 -1      3104 2.06104E+01-9.33080E-01 1.46407E-02-2.37644E+00 1.60736E-13-2.63546E-13
 -1      3105 2.02513E+01-4.97981E-01 1.11723E-02-2.32646E+00 2.26762E-13-1.07028E-13
 -1      3106 1.98029E+01-1.19174E+00-2.35847E-02-2.82956E+00 2.58817E-13-2.04744E-13
 -1      3107 2.01281E+01-1.56681E-01 1.18401E-02-2.14059E+00 1.53380E-13-1.45804E-13
 -1      3108 1.99336E+01 1.02171E-01 2.40629E-03-2.04055E+00 8.79169E-14-1.06836E-13
 -1      3109 1.93932E+01-2.53406E-01-1.41561E-02-2.40396E+00 2.33006E-13-8.82068E-14
 -1      3110 1.99333E+01 2.94929E-01 8.08541E-03-1.86817E+00 2.67790E-14-1.66982E-13
 -1      3111 1.98358E+01 4.27038E-01-1.43132E-03-1.75054E+00 1.05732E-14-1.16306E-13
 -1      3112 1.93139E+01 3.00839E-01-5.14390E-03-2.01423E+00 5.22833E-14-2.08533E-13
 -1      3113 1.98866E+01 5.17686E-01 5.45913E-03-1.59894E+00 2.02489E-14-7.75608E-14
 -1      3114 1.98387E+01 5.67990E-01-2.93605E-03-1.47902E+00-1.86962E-14-5.81413E-14
 -1      3115 1.93799E+01 5.81614E-01-4.69083E-04-1.68176E+00 4.97573E-14-1.10645E-13
 -1      3116 1.99039E+01 5.95008E-01 3.85976E-03-1.34685E+00-2.30374E-14-7.27226E-14
 -1      3117 1.98784E+01 5.97060E-01-3.33557E-03-1.23229E+00 3.40021E-14-3.94826E-14
 -1      3118 1.94974E+01 6.87906E-01 1.54251E-03-1.39907E+00 2.53337E-16-1.66687E-13
 -1      3119 1.99409E+01 5.87922E-01 2.96122E-03-1.11722E+00-5.70771E-14-5.44242E-14
 -1      3120 1.99241E+01 5.64236E-01-3.22204E-03-1.01222E+00 4.43391E-14-9.49731E-14
 -1      3121 1.96198E+01 6.91227E-01 2.14158E-03-1.15600E+00-4.74721E-14-9.77655E-14
 -1      3122 1.99770E+01 5.36870E-01 2.44938E-03-9.12582E-01 3.01160E-14-1.21319E-13
 -1      3123 1.99629E+01 5.01564E-01-2.88212E-03-8.19357E-01-4.81434E-14-1.43512E-13
 -1      3124 1.97273E+01 6.39130E-01 2.07024E-03-9.45727E-01-4.34033E-14-9.73804E-14
 -1      3125 2.00047E+01 4.66912E-01 2.11940E-03-7.33967E-01-1.13931E-14-1.71964E-13
 -1      3126 1.99913E+01 4.28319E-01-2.46324E-03-6.53354E-01-8.89860E-15-1.40371E-13
 -1      3127 1.98134E+01 5.61557E-01 1.73308E-03-7.64317E-01-9.54308E-15-2.78803E-13
 -1      3128 2.00228E+01 3.92644E-01 1.86165E-03-5.81166E-01-1.06477E-13-1.32234E-13
 -1      3129 2.00097E+01 3.55356E-01-2.04098E-03-5.13040E-01-2.17910E-13-1.58199E-13
 -1      3130 1.98785E+01 4.76403E-01 1.33493E-03-6.09298E-01-6.61547E-14-3.99066E-13
 -1      3131 2.00325E+01 3.21965E-01 1.62825E-03-4.52935E-01-3.22945E-14-8.65993E-14
 -1      3132 2.00200E+01 2.88263E-01-1.65227E-03-3.96517E-01 1.76309E-13 5.67442E-14
 -1      3133 1.99255E+01 3.93706E-01 9.69016E-04-4.78606E-01-3.94802E-14-1.85060E-13
 -1      3134 2.00362E+01 2.58684E-01 1.40427E-03-3.47258E-01-2.41047E-15 1.82207E-14
 -1      3135 2.00247E+01 2.29484E-01-1.31259E-03-3.01386E-01-5.59905E-14-6.83429E-14
 -1      3136 1.99582E+01 3.18581E-01 6.69141E-04-3.70100E-01 1.08579E-13-8.09180E-14
 -1      3137 2.00357E+01 2.04217E-01 1.18954E-03-2.61650E-01-4.77914E-14-1.18714E-13
 -1      3138 2.00256E+01 1.79660E-01-1.02574E-03-2.24983E-01-1.25801E-15-1.31688E-13
 -1      3139 1.99800E+01 2.53180E-01 4.39841E-04-2.81440E-01-9.16621E-14-1.03623E-13
 -1      3140 2.00329E+01 1.58643E-01 9.88613E-04-1.93428E-01 4.91466E-14-1.52188E-13
 -1      3141 2.00242E+01 1.38460E-01-7.89426E-04-1.64588E-01 1.26479E-13-1.90648E-13
 -1      3142 1.99940E+01 1.97937E-01 2.73039E-04-2.10145E-01 7.00340E-15-5.28586E-14
 -1      3143 2.00288E+01 1.21341E-01 8.06173E-04-1.39918E-01 1.66310E-13-2.45716E-13
 -1      3144 2.00216E+01 1.05066E-01-5.98527E-04-1.17591E-01 1.60807E-13-2.37502E-13
 -1      3145 2.00024E+01 1.52351E-01 1.56653E-04-1.53717E-01 5.95436E-14-7.51746E-14
 -1      3146 2.00243E+01 9.13686E-02 6.45302E-04-9.86062E-02 1.50750E-13-2.02358E-13
 -1      3147 2.00184E+01 7.84612E-02-4.46938E-04-8.15939E-02 1.80207E-13-2.41951E-13
 -1      3148 2.00071E+01 1.15455E-01 7.86686E-05-1.09759E-01 1.89486E-13-6.14644E-14
 -1      3149 2.00199E+01 6.76735E-02 5.07228E-04-6.72209E-02 8.66515E-14-2.87253E-13
 -1      3150 2.00153E+01 5.75887E-02-3.28568E-04-5.44736E-02-5.09583E-15-3.12115E-13
 -1      3151 2.00092E+01 8.60902E-02 2.87555E-05-7.60632E-02 9.06750E-14-2.19084E-13
 -1      3152 2.00159E+01 4.92103E-02 3.91628E-04-4.37818E-02 1.19140E-13-2.91288E-13
 -1      3153 2.00122E+01 4.14328E-02-2.37776E-04-3.44061E-02 2.48089E-13-3.68760E-13
 -1      3154 2.00096E+01 6.30682E-02-1.33581E-06-5.06660E-02 1.02168E-13-1.30600E-13
 -1      3155 2.00123E+01 3.49998E-02 2.97104E-04-2.66109E-02 1.67703E-13-4.25049E-13
 -1      3156 2.00095E+01 2.90595E-02-1.69854E-04-1.98679E-02 2.11031E-13-3.93978E-13
 -1      3157 2.00091E+01 4.52520E-02-1.78952E-05-3.18763E-02 2.53381E-13-2.01792E-13
 -1      3158 2.00092E+01 2.41516E-02 2.21138E-04-1.43256E-02 2.01099E-13-4.31456E-13
 -1      3159 2.00072E+01 1.96282E-02-1.20213E-04-9.62233E-03 1.39140E-13-5.35311E-13
 -1      3160 2.00079E+01 3.15970E-02-2.55585E-05-1.82762E-02 1.17391E-13-4.63684E-13
 -1      3161 2.00067E+01 1.58728E-02 1.60535E-04-5.82474E-03 5.86248E-14-4.91886E-13
 -1      3162 2.00051E+01 1.24154E-02-7.27134E-05-2.70104E-03-5.50486E-14-4.31938E-13
 -1      3163 2.00065E+01 2.11791E-02-2.26057E-05-8.72238E-03 1.04327E-13-5.22696E-13
 -1      3164 2.00046E+01 9.69731E-03 1.22928E-04-4.52419E-04-1.28108E-13-5.25952E-13
 -1      3165 2.00035E+01 6.96339E-03-4.14805E-05 1.46881E-03-2.42574E-14-5.42241E-13
 -1      3166 2.00036E+01 7.32985E-03-7.75952E-05 1.28760E-03-5.89778E-14-7.35311E-13
 -1      3167 2.00050E+01 1.32763E-02-6.30404E-05-2.53106E-03-1.50711E-14-5.93893E-13
 -1      3168 2.04209E+01 3.82296E-01 8.16084E-04-9.20759E-01 1.28160E-13-2.12503E-13
 -1      3169 2.03894E+01 4.63808E-01 3.54243E-03-8.09607E-01 1.68917E-13-1.80198E-13
 -1      3170 2.12642E+01-6.47601E-01-2.24855E-03-1.19781E+00-5.14950E-14-4.89551E-14
 -1      3171 2.10770E+01-4.44552E-01 9.50207E-03-1.26891E+00-2.12248E-14-9.79823E-14
 -1      3172 2.08983E+01-2.72866E-01-9.28875E-05-1.26925E+00 5.62267E-16-1.43361E-13
 -1      3173 2.07581E+01-1.18569E-01 6.27052E-03-1.27551E+00-9.69663E-15-1.64038E-13
 -1      3174 2.07532E+01-3.98241E-01-1.02579E-02-1.41789E+00-4.65008E-14-1.45487E-13
 -1      3175 2.24264E+01-1.54126E+00-1.16413E-02-5.12053E-01-1.29261E-13 8.81008E-14
 -1      3176 2.21688E+01-1.32418E+00 1.68841E-02-7.76671E-01-8.34881E-14 4.38481E-14
 -1      3177 2.31489E+01-1.76072E+00-1.43324E-02 1.92585E-01-1.19182E-13 1.95513E-13
 -1      3178 2.29114E+01-1.68941E+00 1.57167E-02-1.71641E-01-1.19053E-13 1.58687E-13
 -1      3179 2.26313E+01-1.91487E+00-1.57954E-02-6.66257E-01-1.67474E-13 9.93699E-14
 -1      3180 2.37782E+01-1.43130E+00-5.12179E-03 1.05662E+00-1.66826E-14 2.37635E-13
 -1      3181 2.36181E+01-1.68182E+00 3.77097E-03 6.76272E-01-6.98313E-14 2.18102E-13
 -1      3182 2.35727E+01-2.08259E+00-1.26886E-02 1.52472E-01-8.92984E-14 1.75155E-13
 -1      3183 2.40263E+01-2.81193E-01-1.46748E-03 1.80031E+00 1.38983E-13 2.46342E-13
 -1      3184 2.40323E+01-9.79671E-01-2.73150E-02 1.57320E+00 5.15889E-14 2.64856E-13
 -1      3185 2.43900E+01-1.57781E+00-2.67505E-03 1.14602E+00-2.25742E-14 2.51570E-13
 -1      3186 2.38302E+01 1.50089E+00 2.46681E-03 1.86580E+00 1.77282E-13 1.77718E-13
 -1      3187 2.39897E+01 5.48410E-01-5.34046E-02 1.98880E+00 1.82447E-13 2.60980E-13
 -1      3188 2.47406E+01 1.01110E-01-5.12601E-03 1.95701E+00 1.73975E-13 3.04198E-13
 -1      3189 2.36931E+01 3.35061E+00-2.60740E-02 5.51042E-01 3.27502E-13-5.61101E-14
 -1      3190 2.38074E+01 2.83914E+00-5.26227E-02 1.25895E+00 2.45727E-13-3.58567E-15
 -1      3191 2.36849E+01 3.36268E+00-5.65364E-02-2.27552E-01 4.20983E-13-1.75526E-13
 -1      3192 2.37149E+01 1.56803E+00-6.39696E-02-1.86182E+00 3.49989E-13-3.05943E-13
 -1      3193 2.35364E+01 2.44524E+00-1.93160E-02-1.52408E+00 4.19789E-13-2.51289E-13
 -1      3194 2.40331E+01-1.69057E-01-3.88722E-02-1.99016E+00 2.54035E-13-4.30814E-13
 -1      3195 2.39410E+01 7.17919E-01 1.24841E-02-2.03710E+00 3.29306E-13-4.37628E-13
 -1      3196 2.45513E+01 1.38038E+00 6.40272E-03-2.10938E+00 4.11293E-13-4.83685E-13
 -1      3197 2.38934E+01-1.32051E+00-7.47477E-03-1.31976E+00 1.26006E-13-4.62414E-13
 -1      3198 2.39352E+01-8.31161E-01-6.52815E-03-1.63600E+00 1.98227E-13-4.82792E-13
 -1      3199 2.45579E+01-6.36211E-01-4.33687E-03-1.80309E+00 2.67940E-13-5.51796E-13
 -1      3200 2.33270E+01-1.67365E+00 1.00689E-02-4.26112E-01-2.56986E-14-3.20241E-13
 -1      3201 2.35105E+01-1.59526E+00-1.65489E-02-8.07269E-01 1.27180E-14-3.76670E-13
 -1      3202 2.40202E+01-1.77753E+00-1.18652E-02-8.71325E-01 2.33871E-14-4.10582E-13
 -1      3203 2.26000E+01-1.48237E+00 1.65571E-02 3.03005E-01-1.90380E-13-1.41321E-13
 -1      3204 2.28444E+01-1.63470E+00-1.47101E-02-1.24594E-02-9.88523E-14-1.96331E-13
 -1      3205 2.31457E+01-1.95686E+00-1.15657E-02 6.04951E-02-2.02379E-13-1.63707E-13
 -1      3206 2.19086E+01-1.05738E+00 1.52222E-02 7.76136E-01-1.96373E-13-2.84245E-14
 -1      3207 2.21528E+01-1.29329E+00-1.03173E-02 5.68721E-01-1.67380E-13-9.81122E-14
 -1      3208 2.22522E+01-1.61865E+00-1.51839E-02 7.13380E-01-2.04679E-13-9.10397E-14
 -1      3209 2.13550E+01-6.17739E-01 1.11801E-02 1.01681E+00-1.83516E-13 3.73296E-14
 -1      3210 2.15642E+01-8.40325E-01-5.45194E-03 9.06691E-01-1.91160E-13 4.68195E-14
 -1      3211 2.15109E+01-1.09087E+00-1.38815E-02 1.07005E+00-2.26915E-13 7.94627E-14
 -1      3212 2.09509E+01-2.60774E-01 7.07391E-03 1.09285E+00-1.30551E-13-2.13742E-14
 -1      3213 2.11163E+01-4.32682E-01-2.19745E-03 1.05518E+00-1.27111E-13 3.02640E-14
 -1      3214 2.09741E+01-5.94376E-01-1.07590E-02 1.20582E+00-1.91511E-13 5.06870E-14
 -1      3215 2.06703E+01-9.78760E-03 3.96973E-03 1.06446E+00-1.78755E-13-4.77371E-14
 -1      3216 2.07966E+01-1.26121E-01-2.47780E-04 1.07514E+00-1.29801E-13-4.13718E-16
 -1      3217 2.06152E+01-2.10424E-01-7.36212E-03 1.20322E+00-1.30885E-13 1.24854E-13
 -1      3218 2.04797E+01 1.45558E-01 1.84090E-03 9.75702E-01-1.58259E-13-1.59932E-13
 -1      3219 2.05756E+01 7.64704E-02 8.82459E-04 1.01545E+00-1.72077E-13-1.44799E-13
 -1      3220 2.03875E+01 4.99910E-02-4.58707E-03 1.12161E+00-1.30515E-13 5.33636E-14
 -1      3221 2.03504E+01 2.27230E-01 4.92454E-04 8.57028E-01 5.64023E-14-2.08763E-13
 -1      3222 2.04240E+01 1.93274E-01 1.48023E-03 9.11774E-01-3.28531E-14-2.73305E-13
 -1      3223 2.02484E+01 2.05337E-01-2.67472E-03 9.99521E-01-3.89805E-14-2.01531E-13
 -1      3224 2.02613E+01 2.57718E-01-2.89456E-04 7.28453E-01 4.67180E-14-8.48198E-14
 -1      3225 2.03187E+01 2.47525E-01 1.75589E-03 7.88541E-01 9.60646E-14-1.06398E-13
 -1      3226 2.01652E+01 2.82388E-01-1.47913E-03 8.61506E-01-3.63706E-14-1.56917E-13
 -1      3227 2.01982E+01 2.55679E-01-6.90460E-04 6.02538E-01-5.77763E-14-1.56919E-14
 -1      3228 2.02436E+01 2.60193E-01 1.83322E-03 6.61743E-01-2.11948E-14-5.25121E-14
 -1      3229 2.01158E+01 3.06276E-01-7.83498E-04 7.22742E-01-1.35337E-14-7.67167E-14
 -1      3230 2.01520E+01 2.34997E-01-8.49176E-04 4.86624E-01 5.47826E-14-1.82845E-13
 -1      3231 2.01884E+01 2.47642E-01 1.78330E-03 5.41252E-01 5.44300E-14-4.94051E-14
 -1      3232 2.00858E+01 2.97070E-01-4.06073E-04 5.92288E-01 4.13287E-14 4.46682E-14
 -1      3233 2.01171E+01 2.05257E-01-8.62910E-04 3.84452E-01-6.70528E-14-1.86131E-13
 -1      3234 2.01464E+01 2.21575E-01 1.65304E-03 4.32605E-01-8.10441E-14-2.40685E-13
 -1      3235 2.00668E+01 2.69402E-01-2.16769E-04 4.75118E-01 4.45639E-14-9.11201E-14
 -1      3236 2.00903E+01 1.72669E-01-7.96918E-04 2.97351E-01 8.53163E-14-2.66104E-13
 -1      3237 2.01138E+01 1.89822E-01 1.47643E-03 3.38342E-01-2.44920E-14-2.46426E-13
 -1      3238 2.00538E+01 2.33249E-01-1.31048E-04 3.73456E-01 3.14885E-14-1.48780E-13
 -1      3239 2.00693E+01 1.40976E-01-6.93235E-04 2.25103E-01 2.39467E-14-2.34172E-13
 -1      3240 2.00880E+01 1.57290E-01 1.27885E-03 2.59023E-01 1.87555E-13-2.44875E-13
 -1      3241 2.00442E+01 1.95004E-01-9.77259E-05 2.87698E-01 5.38937E-14-3.37653E-13
 -1      3242 2.00527E+01 1.12223E-01-5.77763E-04 1.66575E-01-1.13303E-13-2.34166E-13
 -1      3243 2.00675E+01 1.26815E-01 1.07876E-03 1.93971E-01-6.65230E-14-1.60191E-13
 -1      3244 2.00365E+01 1.58473E-01-8.77782E-05 2.17079E-01-5.40935E-14-2.52446E-13
 -1      3245 2.00397E+01 8.73336E-02-4.65554E-04 1.20161E-01-9.67620E-14-2.25456E-13
 -1      3246 2.00512E+01 9.98389E-02 8.88701E-04 1.41811E-01-1.45943E-13-1.91210E-13
 -1      3247 2.00301E+01 1.25685E-01-8.59215E-05 1.60167E-01-1.59985E-13-1.66307E-13
 -1      3248 2.00295E+01 6.65296E-02-3.64571E-04 8.40816E-02 1.49039E-15 5.43782E-14
 -1      3249 2.00383E+01 7.69029E-02 7.16366E-04 1.00845E-01-3.83802E-14-7.54860E-14
 -1      3250 2.00246E+01 9.75037E-02-8.48998E-05 1.15206E-01-1.36701E-13-1.26598E-13
 -1      3251 2.00216E+01 4.96158E-02-2.78328E-04 5.65800E-02 7.85187E-15-9.56989E-14
 -1      3252 2.00282E+01 5.79981E-02 5.65701E-04 6.93012E-02 2.99078E-14 5.06218E-14
 -1      3253 2.00199E+01 7.40650E-02-8.18340E-05 8.03603E-02 2.74897E-14 1.21891E-13
 -1      3254 2.00155E+01 3.61723E-02-2.07743E-04 3.60365E-02-6.92504E-14-5.81609E-14
 -1      3255 2.00204E+01 4.28025E-02 4.37936E-04 4.54900E-02 9.87025E-14-1.54523E-13
 -1      3256 2.00158E+01 5.50771E-02-7.61818E-05 5.38639E-02 1.05645E-13-9.23736E-14
 -1      3257 2.00108E+01 2.56742E-02-1.52523E-04 2.10316E-02-1.61870E-13-3.71765E-13
 -1      3258 2.00144E+01 3.08339E-02 3.32572E-04 2.78916E-02-1.53529E-13-2.25672E-13
 -1      3259 2.00123E+01 4.00204E-02-6.85305E-05 3.41171E-02-1.27982E-14-8.75970E-15
 -1      3260 2.00074E+01 1.75729E-02-1.06846E-04 1.03757E-02-6.14975E-14-1.21000E-13
 -1      3261 2.00099E+01 2.15467E-02 2.48010E-04 1.52026E-02-1.80499E-13-2.10474E-13
 -1      3262 2.00094E+01 2.82730E-02-5.95883E-05 1.97330E-02-2.62823E-13-1.48481E-13
 -1      3263 2.00049E+01 1.13989E-02-3.39801E-05 3.13799E-03 1.11797E-13-1.08067E-14
 -1      3264 2.00066E+01 1.43571E-02 1.73691E-04 6.33641E-03 5.41793E-14-7.12193E-14
 -1      3265 2.00069E+01 1.91977E-02-5.43132E-05 9.56241E-03-1.64681E-13 1.40173E-13
 -1      3266 2.00023E+01 1.30977E-02-9.34807E-06-2.44096E-04 1.58957E-13 1.38155E-13
 -1      3267 2.00021E+01 1.34759E-02-5.36466E-05-3.41925E-04 1.45509E-13 1.01692E-13
 -1      3268 2.00035E+01 8.79412E-03-1.26371E-05 8.15874E-04 1.21241E-13-3.42814E-13
 -1      3269 2.00033E+01 9.76643E-03-6.53106E-05 2.91288E-04 1.39387E-13-2.11952E-13
 -1      3270 2.00019E+01 1.38645E-02-3.25027E-05-1.21273E-04 2.32443E-13-2.66698E-14
 -1      3271 2.00019E+01 1.38805E-02-3.40051E-05-1.42415E-04 2.04504E-13-2.51607E-13
 -1      3272 2.00021E+01 1.84045E-02 1.00826E-04-4.94711E-04 1.16194E-13 3.63760E-14
 -1      3273 2.50632E+01-4.20508E+00-9.10225E-02 1.75267E+00-2.50789E-13-2.67028E-13
 -1      3274 2.29996E+01-4.38574E+00 6.69197E-02 3.40907E+00-4.30180E-13 3.61005E-14
 -1      3275 2.66927E+01-2.13840E+00-2.90345E-03 6.98285E-01-1.51545E-14 4.87665E-13
 -1      3276 2.68926E+01-4.99602E-01-1.20094E-01 1.66460E+00 1.84047E-13 4.77729E-13
 -1      3277 1.51026E+01-2.48730E+00 3.25026E-02 5.35928E+00-5.44668E-13 5.51115E-13
 -1      3278 1.26490E+01-1.21390E+00 9.58201E-02 4.44275E+00-5.21007E-13 6.41404E-13
 -1      3279 2.19787E+01-4.21949E+00 1.24455E-01-3.88778E+00 4.69239E-13-3.91934E-13
 -1      3280 2.39869E+01-4.54780E+00-4.02127E-02-2.68227E+00 3.61128E-13-5.66790E-13
 -1      3281 1.02769E+01-2.51124E-01 6.36103E-02 2.89559E+00-3.48103E-13 5.02376E-13
 -1      3282 9.16455E+00 2.87912E-01 1.33980E-01 8.33569E-01-1.62208E-13 4.23619E-13
 -1      3283 2.00030E+01 1.13386E-02 9.50647E-06-1.05119E-06 1.73743E-13-1.50562E-14
 -1      3284 2.00026E+01 1.20390E-02-6.63493E-05-2.75299E-04 6.85037E-14-3.97446E-14
 -1      3285 2.00027E+01 1.69933E-02 9.16036E-05-9.79787E-04-1.18807E-14-8.99553E-14
 -1      3286 2.00036E+01 1.44229E-02 7.30658E-05-9.21762E-04-7.04596E-15-9.68191E-14
 -1      3287 2.17750E+01-1.10037E+00-6.36759E-03-9.65189E-01-3.96862E-14-4.37188E-15
 -1      3288 2.15424E+01-8.61123E-01 1.35405E-02-1.12322E+00-4.12537E-14 3.30735E-14
 -1      3289 2.11708E+01-8.64900E-01-1.40151E-02-1.37332E+00-9.25790E-14-7.12853E-14
 -1      3290 2.17949E+01-1.41384E+00-1.68325E-02-1.15359E+00-1.01603E-13 4.10637E-14
 -1      3291 9.03686E+00-3.30890E-01 9.81195E-02-2.25984E+00-3.09343E-13-9.92664E-13
 -1      3292 1.01330E+01-1.05176E+00 1.37912E-01-4.05117E+00-4.22093E-13-9.41164E-13
 -1      3293 1.24486E+01-1.21157E+00 1.22339E-01-4.27659E+00-5.13437E-13-7.30235E-13
 -1      3294 2.38803E+01-3.66494E+00 4.34604E-03-1.93210E+00 3.75327E-13-5.87686E-13
 -1      3295 2.29881E+01-3.07037E+00 5.72115E-02-2.30271E+00 3.10560E-13-6.12127E-13
 -1      3296 9.13278E+00 1.19790E-01 6.69805E-02-1.14579E+00-1.80533E-14 5.03986E-13
 -1      3297 1.00329E+01-4.05317E-01 9.49681E-02-2.91419E+00 2.79790E-13 3.67081E-13
 -1      3298 1.22366E+01-3.47164E-01 1.26971E-01-3.15085E+00 2.50380E-13 2.66599E-13
 -1      3299 2.50863E+01-4.04624E+00 5.24007E-02-1.59322E+00 3.76994E-13-5.73699E-13
 -1      3300 2.03883E+01 5.47778E-01-6.00591E-05-6.74674E-01 1.88919E-13-1.84025E-13
 -1      3301 2.03843E+01 6.45492E-01 3.74481E-03-5.26032E-01 2.26026E-13-1.90843E-13
 -1      3302 2.02950E+01 6.17986E-01-2.37448E-03-7.49021E-01 1.86968E-13-1.81682E-13
 -1      3303 2.68664E+01 1.78495E+00-1.54406E-01-2.22358E+00 4.70901E-13-5.64972E-13
 -1      3304 2.75352E+01 7.38209E-02-4.93221E-02-1.86169E+00 3.59865E-13-6.25763E-13
 -1      3305 2.00025E+01 4.20256E-03 1.48853E-05-3.06422E-03 3.08821E-13-1.99367E-13
 -1      3306 2.02635E+01 1.10558E+00 1.38929E-03 2.88911E-01-2.21765E-13-2.65113E-13
 -1      3307 2.02340E+01 9.88952E-01-1.07554E-03 4.95757E-01-1.83752E-13-2.75597E-13
 -1      3308 2.00908E+01 1.10937E+00 9.97572E-04 5.50569E-01-1.86511E-13-3.22985E-13
 -1      3309 1.99712E+01-4.00191E+00-7.87438E-03 4.70815E+00-5.01023E-13 1.14780E-13
 -1      3310 1.74688E+01-3.26047E+00 1.06777E-01 5.32645E+00-4.64302E-13 2.96527E-13
 -1      3311 1.69175E+01-2.36083E+00 7.66163E-02 4.70610E+00-5.40387E-13 3.77157E-13
 -1      3312 2.70902E+01-1.66039E+00-1.01604E-01-9.58451E-01 1.75365E-13-4.89282E-13
 -1      3313 2.62780E+01-2.99463E+00 6.01943E-02 4.21312E-02-7.90305E-14-4.00381E-13
 -1      3314 2.61797E+01-1.11655E+00-1.00623E-02-1.54855E+00 2.20109E-13-5.47978E-13
 -1      3315 1.61343E+01-2.86379E+00 1.34761E-01-5.18723E+00 5.40137E-13-6.00908E-15
 -1      3316 1.90126E+01-3.98118E+00-6.05624E-02-4.93809E+00 4.59591E-13-1.79051E-13
 -1      3317 1.58920E+01-1.96239E+00 1.05031E-01-4.53063E+00 4.46289E-13-2.28845E-14
 -1      3318 2.04507E+01 1.17041E+00-2.21455E-04 2.36863E-01 3.56385E-13-2.21701E-13
 -1      3319 2.03440E+01 1.51232E+00 1.64810E-03 3.24657E-01 3.38551E-13-2.59351E-13
 -1      3320 2.03021E+01 1.38448E+00 9.92952E-04 1.07474E-01 2.91824E-13-2.39227E-13
 -1      3321 2.04213E+01 9.77660E-01-2.03736E-03-1.49675E-02 3.11983E-13-2.18695E-13
 -1      3322 2.85434E+01 2.83817E+00-1.48101E-01 1.92976E+00 6.75238E-13 4.14238E-13
 -1      3323 2.72522E+01 3.40476E+00-9.93530E-02 2.00208E+00 5.60565E-13 4.15418E-13
 -1      3324 2.76482E+01 1.41679E+00-7.90100E-02 1.96473E+00 4.68042E-13 5.28508E-13
 -1      3325 2.64195E+01 2.51466E+00-7.73906E-02 2.09438E+00 5.11979E-13 3.52371E-13
 -1      3326 2.61700E+01 3.69653E+00-1.28783E-01 1.77778E+00 5.33601E-13 2.01800E-13
 -1      3327 1.95783E+01 2.64523E+00-3.50050E-03 8.43957E-02 9.59785E-14-5.35491E-13
 -1      3328 1.95222E+01 2.70339E+00-4.92176E-03 2.39539E-02 4.87586E-14-5.48166E-13
 -1      3329 2.01727E+01 2.14506E+00 2.28221E-04-6.10314E-01-3.54269E-13-3.81743E-13
 -1      3330 1.60128E+01-2.51708E+00 9.20107E-03 5.05184E+00 4.27769E-13-4.60104E-13
 -1      3331 1.30404E+01-1.01111E+00 1.14919E-01 4.07587E+00 3.11133E-13-7.16024E-13
 -1      3332 1.94910E+01 2.74404E+00-3.37614E-03-2.61137E-03 2.10905E-14-5.42856E-13
 -1      3333 1.94814E+01 2.74995E+00-4.77178E-03-5.92707E-02-3.57276E-14-5.24639E-13
 -1      3334 1.95591E+01 2.49475E+00 6.19906E-03-2.13890E-02 3.27878E-14-5.11385E-13
 -1      3335 1.79858E+01-2.29868E+00 8.48022E-02 4.30354E+00 4.17208E-13-2.55684E-13
 -1      3336 2.37740E+01-3.99804E+00 9.88323E-02 2.59966E+00 4.45604E-13 1.35992E-13
 -1      3337 2.01823E+01-2.49992E+00-3.76231E-02 3.60780E+00 2.91862E-13-5.73135E-14
 -1      3338 2.49559E+01-4.28228E+00 5.12698E-02 2.01353E+00 4.05398E-13 1.94702E-13
 -1      3339 2.00030E+01 9.93092E-03-6.40135E-05-3.87073E-04 2.56433E-13-4.23320E-13
 -1      3340 2.00033E+01 9.08135E-03 2.74308E-05-8.17769E-04 4.14848E-13-1.02203E-13
 -1      3341 1.98003E+01 2.37738E+00-4.28765E-03-2.32943E-01-2.14433E-13-4.62790E-13
 -1      3342 1.99249E+01 2.21129E+00-5.95630E-03-2.89542E-01-2.59324E-13-4.51836E-13
 -1      3343 9.74016E+00 2.59596E-01 1.58180E-01-9.32838E-01-1.75919E-13-9.19001E-13
 -1      3344 1.11109E+01 2.14266E-01 8.06658E-02-1.85447E+00-2.91247E-13-7.68670E-13
 -1      3345 1.07572E+01 4.47387E-01 3.03815E-02 2.46235E-01-1.27051E-14-7.61606E-13
 -1      3346 2.03977E+01 7.23754E-01-9.47142E-04-3.82015E-01 2.39657E-13-2.08597E-13
 -1      3347 2.04148E+01 8.57560E-01 3.41397E-03-1.88712E-01 2.61375E-13-2.05311E-13
 -1      3348 2.03596E+01 1.04513E+00 4.00922E-04-1.28292E-01 2.71002E-13-1.95061E-13
 -1      3349 2.03215E+01 8.15715E-01-1.29397E-03-4.57629E-01 2.26973E-13-1.94095E-13
 -1      3350 2.04996E+01-4.26236E-02-6.94242E-03-1.34777E+00 7.13004E-15-2.06060E-13
 -1      3351 2.06546E+01 8.68191E-03 9.73645E-04-1.22760E+00-6.37050E-15-1.64050E-13
 -1      3352 2.05560E+01 1.21120E-01 4.27727E-03-1.18674E+00 3.93350E-14-1.93371E-13
 -1      3353 2.44729E+01 3.65667E+00-5.63257E-02-7.20433E-01 4.54539E-13-2.49724E-13
 -1      3354 2.27484E+01-3.67785E+00 9.60782E-03 2.58925E+00-5.12945E-13-1.17031E-14
 -1      3355 2.16964E+01-4.09798E+00 2.18117E-02 3.86013E+00-5.36383E-13 1.00181E-13
 -1      3356 2.03123E+01-3.25915E+00 3.60199E-02 3.92579E+00-5.07478E-13 5.99347E-15
 -1      3357 2.00043E+01 9.79897E-03 8.14331E-05 1.17556E-03 3.32206E-13 7.92716E-14
 -1      3358 2.00051E+01 1.32007E-02-7.40049E-05 3.37287E-03 2.99414E-13 3.25026E-13
 -1      3359 2.00037E+01 8.32266E-03 2.61886E-05-2.70613E-04 3.35140E-13-1.71408E-15
 -1      3360 1.22641E+01-4.35313E-01 1.08023E-01 3.56670E+00-3.82108E-13 5.08697E-13
 -1      3361 1.22298E+01 2.12924E-01 4.11689E-02 2.46169E+00-2.11900E-13 4.01859E-13
 -1      3362 1.42758E+01-6.98309E-01 5.01967E-02 3.70675E+00-4.97650E-13 4.70100E-13
 -1      3363 2.00024E+01 1.21448E-02-6.37060E-05 7.97716E-05 7.52219E-14 1.32798E-13
 -1      3364 2.00028E+01 1.14715E-02 1.07047E-05-1.58205E-04 1.78523E-13-2.10291E-13
 -1      3365 2.00033E+01 1.45750E-02 7.31949E-05 7.48826E-04 3.18034E-13-4.31234E-13
 -1      3366 2.05035E+01 2.15792E-01 1.18463E-03-1.10601E+00 6.88106E-14-2.06113E-13
 -1      3367 2.04406E+01 3.03004E-01 3.46090E-03-1.02842E+00 8.71089E-14-2.15239E-13
 -1      3368 2.03626E+01 2.18599E-01-4.75450E-03-1.20351E+00 3.38629E-14-2.22464E-13
 -1      3369 2.07097E+01-3.57810E+00 3.91158E-02-3.93435E+00 4.24896E-13-3.60822E-13
 -1      3370 2.51013E+01-3.43436E+00-2.50653E-02 7.32874E-01-1.71224E-13-3.50761E-13
 -1      3371 2.00020E+01 1.35308E-02-5.22829E-05 9.04985E-05 8.01339E-14-2.46599E-13
 -1      3372 2.00022E+01 1.31726E-02-1.03088E-05 1.56935E-05 1.20847E-13-1.11500E-13
 -1      3373 2.00025E+01 1.70869E-02 8.98116E-05 7.37392E-04 7.20268E-14-7.74947E-14
 -1      3374 2.00021E+01 1.84357E-02 1.00990E-04 2.08231E-04 1.65420E-13-1.31219E-13
 -1      3375 1.46549E+01-6.76662E-01 3.41719E-02 3.60321E+00 3.47899E-13-5.86475E-13
 -1      3376 1.24641E+01-4.52196E-01 1.07895E-01 3.40685E+00 2.69562E-13-7.82693E-13
 -1      3377 1.21371E+01 8.42859E-02 5.68023E-02 2.33796E+00 1.81247E-13-7.36328E-13
 -1      3378 2.32292E+01-4.62165E+00 4.38486E-02-3.58424E+00-4.01873E-13 2.49042E-13
 -1      3379 2.39724E+01-4.27215E+00-5.90126E-02-2.34117E+00-3.81259E-13 3.46161E-13
 -1      3380 2.18432E+01-4.16238E+00 3.26170E-02-3.90059E+00-4.83481E-13 2.08169E-13
 -1      3381 1.06185E+01 4.83356E-01 1.29185E-01-1.75996E-01-7.55164E-14 4.01942E-13
 -1      3382 1.74308E+01-3.18001E+00 1.11835E-01-5.34966E+00-6.21579E-13-2.31655E-13
 -1      3383 1.91394E+01-3.61947E+00 1.15541E-02-4.81235E+00-6.25128E-13 4.05925E-16
 -1      3384 2.13766E+01-2.89752E+00-2.99145E-02-3.03208E+00 3.73498E-13-4.93952E-13
 -1      3385 2.60159E+01 2.19113E+00-9.35663E-02-2.10430E+00 5.13097E-13-5.50851E-13
 -1      3386 2.00033E+01 7.15339E-03-5.59245E-05-1.41563E-03 5.59057E-13 2.62212E-13
 -1      3387 2.00030E+01 5.94869E-03 2.17554E-05-2.15334E-03 2.43833E-13 1.72568E-14
 -1      3388 2.00034E+01 7.44538E-03 4.82509E-05-1.20131E-03 3.15395E-13-5.93740E-14
 -1      3389 2.00038E+01 1.11518E-02 4.00523E-05 7.90696E-05 4.31951E-13-4.22310E-14
 -1      3390 2.02771E+01 1.25027E+00-2.12926E-03 1.09619E-01-2.63425E-13-2.81159E-13
 -1      3391 2.01594E+01 1.36885E+00 1.51008E-03 1.89043E-01-2.47733E-13-3.16868E-13
 -1      3392 2.02924E+01 1.42335E+00-1.34372E-03-1.14945E-01-3.04788E-13-2.84556E-13
 -1      3393 1.99843E+01 2.13061E+00-5.28765E-03 2.86208E-01 2.40337E-13-4.29290E-13
 -1      3394 1.98610E+01 2.29649E+00-4.71067E-03 2.22457E-01 2.00837E-13-4.55359E-13
 -1      3395 2.01039E+01 1.79537E+00 6.04986E-03 1.35883E-01 2.42638E-13-3.43273E-13
 -1      3396 2.01959E+01 1.86042E+00-1.08865E-03-3.65197E-01-3.28280E-13-3.55589E-13
 -1      3397 2.52366E+01 3.70968E+00-2.30268E-02 1.49122E+00 4.85584E-13 5.32352E-14
 -1      3398 2.03036E+01 4.24015E-01-3.38671E-03-1.00292E+00 1.25722E-13-2.12497E-13
 -1      3399 1.97502E+01 2.44099E+00-3.85721E-03 1.83007E-01 1.75704E-13-4.88149E-13
 -1      3400 1.96545E+01 2.55111E+00-4.91282E-03 1.18032E-01 1.20664E-13-5.20600E-13
 -1      3401 1.96742E+01 2.36346E+00 6.44034E-03 2.22014E-02 9.70515E-14-4.96627E-13
 -1      3402 1.98668E+01 2.12880E+00 6.83384E-03 7.78729E-02 1.75913E-13-4.47158E-13
 -1      3403 1.61062E+01-2.49835E+00 6.28251E-02-5.08272E+00-6.27977E-13-3.12146E-13
 -1      3404 1.96049E+01 2.61363E+00-3.90720E-03-1.55321E-01-1.35759E-13-5.25022E-13
 -1      3405 1.96914E+01 2.51038E+00-4.67663E-03-2.11712E-01-1.96067E-13-4.98960E-13
 -1      3406 1.97925E+01 2.21592E+00 5.41807E-03-1.00841E-01-1.88647E-13-4.39909E-13
 -1      3407 2.69250E+01 7.76303E-01-6.73440E-02 2.07248E+00 3.71730E-13 5.26398E-13
 -1      3408 2.65912E+01 1.34200E+00-1.12835E-01 2.16251E+00 4.76959E-13 5.02945E-13
 -1      3409 2.58364E+01 1.73278E+00-7.45492E-02 2.12564E+00 4.10075E-13 2.49731E-13
 -1      3410 2.61081E+01-2.96495E-01-3.83381E-02 1.85272E+00 1.44180E-13 4.83238E-13
 -1      3411 2.00037E+01 8.05143E-03-3.32592E-05 1.08371E-03 1.50930E-14-5.07671E-13
 -1      3412 2.00036E+01 8.21626E-03-4.67427E-05 9.43074E-04 8.78331E-14-2.81726E-13
 -1      3413 2.00041E+01 1.23454E-02 6.90465E-05-6.26774E-04-4.42109E-14-3.15537E-13
 -1      3414 2.00045E+01 1.10827E-02 1.02258E-04-4.87667E-04-1.09365E-13-5.80460E-13
 -1      3415 1.88935E+01-1.16533E+00 1.65202E-02-3.11080E+00 3.31457E-13-2.39784E-13
 -1      3416 1.85433E+01-5.75926E-01 1.25983E-03-2.85019E+00 3.22361E-13-1.38635E-13
 -1      3417 2.51996E+01 3.99770E+00-9.82861E-02-1.27120E+00 6.41188E-13-4.03302E-13
 -1      3418 1.96542E+01 9.91825E-01-2.60611E-03 1.02711E+00-1.38556E-13-2.81785E-13
 -1      3419 1.95768E+01 9.48845E-01 7.49302E-04 1.17243E+00-1.09736E-13-2.66324E-13
 -1      3420 1.94197E+01 9.04063E-01-3.96146E-03 1.30992E+00-9.40800E-14-2.37075E-13
 -1      3421 1.93421E+01 8.56741E-01 2.78708E-03 1.45331E+00-4.24022E-14-2.26010E-13
 -1      3422 1.92692E+01 1.05615E+00 4.40107E-03 1.13833E+00-9.48268E-14-2.40573E-13
 -1      3423 1.91554E+01 7.90485E-01-5.49169E-03 1.60444E+00-2.46447E-14-2.43019E-13
 -1      3424 1.90943E+01 7.07442E-01 6.15548E-03 1.75708E+00-3.80484E-15-2.53026E-13
 -1      3425 1.89330E+01 9.58676E-01 4.71176E-03 1.41598E+00-6.71780E-14-2.29137E-13
 -1      3426 1.88865E+01 5.82889E-01-6.48851E-03 1.94144E+00 3.43997E-14-3.19950E-13
 -1      3427 1.88757E+01 4.22561E-01 1.23796E-02 2.11607E+00 6.69744E-14-3.11717E-13
 -1      3428 1.85478E+01 7.97316E-01 4.43129E-03 1.74018E+00-1.22871E-14-3.30181E-13
 -1      3429 1.86692E+01 1.89765E-01-5.28345E-03 2.36302E+00 9.38631E-14-3.34254E-13
 -1      3430 1.87592E+01-1.14049E-01 1.65977E-02 2.57489E+00 1.01439E-13-2.94822E-13
 -1      3431 1.81372E+01 4.89801E-01 2.84666E-03 2.16357E+00 6.57254E-14-4.17376E-13
 -1      3432 1.86231E+01-5.05175E-01 2.36109E-03 2.88654E+00 1.43450E-13-2.48026E-13
 -1      3433 1.89556E+01-1.00437E+00 2.91199E-02 3.14377E+00 2.38460E-13-1.95410E-13
 -1      3434 1.77958E+01-1.14059E-01-1.86334E-03 2.76182E+00 1.56755E-13-3.65462E-13
 -1      3435 2.00423E+01 1.80369E+00 3.59509E-03-6.08006E-02-2.47366E-13-3.78131E-13
 -1      3436 2.00814E+01 1.94526E+00 4.33692E-04-2.43000E-01-2.88943E-13-3.72924E-13
 -1      3437 1.80217E+01-1.55342E+00 1.93051E-02 3.77243E+00 3.03783E-13-2.31558E-13
 -1      3438 1.86597E+01-1.42071E-01 2.16073E-02-2.49952E+00 2.27567E-13-1.25598E-13
 -1      3439 1.85305E+01 1.72362E-01-5.76960E-03-2.28166E+00 1.54521E-13-1.34383E-13
 -1      3440 1.76152E+01-1.22666E-01 6.06312E-03-2.73500E+00 2.46499E-13-7.56899E-14
 -1      3441 1.87178E+01 4.15538E-01 1.29437E-02-2.02306E+00 9.49036E-14-2.02985E-13
 -1      3442 1.87057E+01 5.76702E-01-7.23657E-03-1.84460E+00 2.75580E-14-1.77553E-13
 -1      3443 1.79201E+01 4.84775E-01 3.42704E-03-2.09749E+00 8.27366E-14-1.54258E-13
 -1      3444 1.88984E+01 6.93707E-01 6.93238E-03-1.65641E+00-2.30501E-16-2.17227E-13
 -1      3445 1.89389E+01 7.58226E-01-6.66437E-03-1.50938E+00 3.61457E-15-2.35834E-13
 -1      3446 1.82949E+01 7.87604E-01 4.98206E-03-1.65754E+00 4.65122E-14-1.81704E-13
 -1      3447 1.91126E+01 7.96795E-01 3.73427E-03-1.36614E+00 2.30899E-14-2.30074E-13
 -1      3448 1.91690E+01 8.03017E-01-5.65193E-03-1.24194E+00 4.62103E-14-2.11647E-13
 -1      3449 1.86494E+01 9.02415E-01 5.33400E-03-1.33966E+00 2.23161E-14-2.69892E-13
 -1      3450 1.93160E+01 7.95441E-01 2.12966E-03-1.12739E+00 2.00973E-14-1.99734E-13
 -1      3451 1.93708E+01 7.68944E-01-4.71013E-03-1.02038E+00 9.38521E-15-1.52154E-13
 -1      3452 1.89573E+01 9.04476E-01 4.94961E-03-1.09594E+00 7.84006E-14-3.03747E-13
 -1      3453 1.94904E+01 7.36595E-01 1.38496E-03-9.25382E-01-1.32618E-13-1.28698E-13
 -1      3454 1.95365E+01 6.93908E-01-3.90620E-03-8.32554E-01-4.70233E-14-1.61905E-13
 -1      3455 1.92120E+01 8.42990E-01 4.25028E-03-8.98720E-01-9.80441E-14-1.42267E-13
 -1      3456 1.96314E+01 6.50354E-01 1.06785E-03-7.52309E-01-4.65670E-14-2.56053E-13
 -1      3457 1.96670E+01 6.01763E-01-3.22603E-03-6.72138E-01-7.47738E-14-3.78854E-13
 -1      3458 1.94159E+01 7.49762E-01 3.47759E-03-7.33439E-01-1.43368E-13-1.36903E-13
 -1      3459 1.97407E+01 5.55232E-01 9.36461E-04-6.04103E-01-8.71167E-14-4.77261E-13
 -1      3460 1.97666E+01 5.06822E-01-2.64674E-03-5.35641E-01-7.82765E-14-4.81335E-13
 -1      3461 1.95752E+01 6.44895E-01 2.75109E-03-5.92815E-01-1.37730E-13-4.20299E-13
 -1      3462 1.98229E+01 4.62011E-01 8.67939E-04-4.78308E-01 8.62918E-14-2.41605E-13
 -1      3463 1.98408E+01 4.17121E-01-2.15192E-03-4.20704E-01 1.92410E-13-1.19780E-13
 -1      3464 1.96971E+01 5.40541E-01 2.12136E-03-4.73126E-01 1.13277E-13-3.97264E-13
 -1      3465 1.98831E+01 3.76470E-01 8.07820E-04-3.72947E-01 9.79092E-14-8.77695E-14
 -1      3466 1.98949E+01 3.36702E-01-1.73084E-03-3.25256E-01 1.06566E-14-1.46214E-13
 -1      3467 1.97888E+01 4.43547E-01 1.60184E-03-3.72128E-01 1.46223E-13-2.26725E-13
 -1      3468 1.99262E+01 3.01258E-01 7.37733E-04-2.86043E-01-2.47755E-14-1.14657E-13
 -1      3469 1.99335E+01 2.67151E-01-1.37563E-03-2.47205E-01 6.88837E-15-2.55944E-14
 -1      3470 1.98565E+01 3.57316E-01 1.18752E-03-2.88028E-01 4.23694E-14-1.43959E-13
 -1      3471 1.99563E+01 2.37128E-01 6.56152E-04-2.15504E-01-5.49805E-14-1.12221E-14
 -1      3472 1.99605E+01 2.08599E-01-1.07948E-03-1.84390E-01-4.72755E-14-9.75226E-14
 -1      3473 1.99057E+01 2.83076E-01 8.65282E-04-2.19074E-01-6.09741E-15-1.44041E-13
 -1      3474 1.99767E+01 1.83745E-01 5.67898E-04-1.59171E-01-7.26725E-15 1.87758E-14
 -1      3475 1.99788E+01 1.60369E-01-8.35814E-04-1.34645E-01 1.81381E-13-4.15756E-14
 -1      3476 1.99408E+01 2.20740E-01 6.19646E-04-1.63451E-01 5.90459E-14-1.16372E-14
 -1      3477 1.99901E+01 1.40186E-01 4.78985E-04-1.14906E-01 2.30723E-13-1.32900E-13
 -1      3478 1.99908E+01 1.21372E-01-6.38129E-04-9.58842E-02 1.47975E-13-1.66642E-13
 -1      3479 1.99652E+01 1.69479E-01 4.35597E-04-1.19321E-01 1.67778E-13-8.09527E-14
 -1      3480 1.99985E+01 1.05257E-01 3.94459E-04-8.06885E-02 8.43900E-14-2.49984E-13
 -1      3481 1.99984E+01 9.03560E-02-4.80097E-04-6.61788E-02 8.39350E-14-2.68459E-13
 -1      3482 1.99817E+01 1.28080E-01 2.99886E-04-8.48878E-02 1.09744E-13-2.39648E-13
 -1      3483 2.00034E+01 7.76840E-02 3.17807E-04-5.46821E-02 4.38034E-14-2.96226E-13
 -1      3484 2.00027E+01 6.60496E-02-3.55823E-04-4.38080E-02 1.76973E-13-2.48773E-13
 -1      3485 1.99925E+01 9.51845E-02 2.01394E-04-5.84777E-02 2.56899E-15-2.78963E-13
 -1      3486 2.00058E+01 5.62154E-02 2.50952E-04-3.52730E-02 3.17284E-13-3.78865E-13
 -1      3487 2.00048E+01 4.72395E-02-2.59945E-04-2.72849E-02 2.77370E-13-2.95453E-13
 -1      3488 1.99991E+01 6.94185E-02 1.31114E-04-3.85838E-02 2.40661E-13-5.02981E-13
 -1      3489 2.00066E+01 3.96842E-02 1.94401E-04-2.10882E-02 2.06356E-13-1.28714E-13
 -1      3490 2.00055E+01 3.28186E-02-1.85593E-04-1.53655E-02 1.44476E-13-2.05538E-13
 -1      3491 2.00028E+01 4.94773E-02 8.17925E-05-2.39001E-02 3.73243E-13-2.04931E-13
 -1      3492 2.00063E+01 2.69799E-02 1.33370E-04-1.09774E-02 1.25611E-13-1.27923E-13
 -1      3493 2.00053E+01 2.17894E-02-9.86738E-05-7.07952E-03 1.06178E-13-1.68854E-13
 -1      3494 2.00044E+01 3.41730E-02 5.20458E-05-1.33042E-02 1.27697E-13 7.00398E-14
 -1      3495 1.24248E+01-5.38044E-01 5.30720E-02-3.51283E+00-4.47472E-13-6.89546E-13
 -1      3496 1.40263E+01-1.39327E+00 6.64012E-02-4.54970E+00-5.43451E-13-5.73465E-13
 -1      3497 2.39536E+01-2.54309E+00-2.81484E-03-1.60374E-01-1.10229E-13 1.75856E-13
 -1      3498 2.34731E+01-2.50045E+00 2.92940E-02-6.31135E-01-1.91032E-13 1.60975E-13
 -1      3499 2.27270E+01-2.29017E+00-6.56041E-03-1.00356E+00-2.05366E-13 9.54406E-14
 -1      3500 2.22871E+01-1.97983E+00 2.85862E-02-1.28567E+00-1.86058E-13 7.72681E-14
 -1      3501 2.28730E+01-2.74563E+00-2.79770E-02-1.35313E+00-2.19633E-13 1.20425E-13
 -1      3502 2.47426E+01 2.74274E+00-5.24821E-02 1.67521E+00 3.37806E-13 1.44853E-13
 -1      3503 2.51597E+01-1.85491E+00 6.03082E-03-1.15348E+00 9.11528E-14-4.30180E-13
 -1      3504 2.53116E+01-1.04711E+00-2.98096E-02-1.55103E+00 2.38294E-13-4.27339E-13
 -1      3505 2.54256E+01 1.60004E-01-8.78685E-02-2.18964E+00 3.83672E-13-5.77705E-13
 -1      3506 2.53394E+01 1.65584E+00-1.61124E-02-2.11990E+00 4.46990E-13-5.30541E-13
 -1      3507 2.29166E+01-2.19610E+00 3.31655E-02 7.51236E-01-3.14609E-13-1.29426E-13
 -1      3508 2.33630E+01-2.37834E+00-5.50031E-03 3.82091E-01-2.83360E-13-2.04350E-13
 -1      3509 2.18405E+01-1.60101E+00 2.15170E-02 1.24571E+00-2.42439E-13 6.12110E-14
 -1      3510 2.22462E+01-1.93694E+00-6.77498E-03 1.03377E+00-2.90069E-13-3.46324E-14
 -1      3511 2.22837E+01-2.38823E+00-3.67568E-02 1.39585E+00-3.53543E-13-5.71635E-15
 -1      3512 2.10657E+01-9.58020E-01 1.44917E-02 1.41283E+00-2.55524E-13 1.65449E-13
 -1      3513 2.13829E+01-1.27351E+00 1.89466E-03 1.32361E+00-2.00316E-13 1.93710E-13
 -1      3514 2.12131E+01-1.58064E+00-2.45246E-02 1.64809E+00-3.04070E-13 2.17811E-13
 -1      3515 2.05592E+01-4.31799E-01 8.75741E-03 1.40113E+00-1.91381E-13 1.75832E-13
 -1      3516 2.07793E+01-6.78261E-01 3.50339E-03 1.39189E+00-2.19914E-13 1.51128E-13
 -1      3517 2.05245E+01-8.64470E-01-1.69488E-02 1.64223E+00-1.92048E-13 2.83078E-13
 -1      3518 2.02531E+01-5.85557E-02 4.35608E-03 1.29848E+00-2.28622E-13 1.79620E-13
 -1      3519 2.03976E+01-2.28164E-01 3.53605E-03 1.33437E+00-2.07520E-13 1.13317E-13
 -1      3520 2.01191E+01-3.21805E-01-1.11100E-02 1.51610E+00-1.59243E-13 1.77581E-13
 -1      3521 2.00837E+01 1.78115E-01 1.64686E-03 1.15331E+00-1.60734E-14 1.07790E-13
 -1      3522 2.01748E+01 7.47951E-02 3.34333E-03 1.21267E+00-5.14688E-14 2.25343E-13
 -1      3523 1.99053E+01 4.87711E-02-6.43073E-03 1.33958E+00-1.21092E-13 8.45763E-14
 -1      3524 1.99998E+01 3.08486E-01 5.93653E-05 9.94388E-01-1.07489E-14 3.63217E-14
 -1      3525 2.00556E+01 2.54896E-01 2.84075E-03 1.06384E+00-2.75892E-15 1.01610E-13
 -1      3526 1.98130E+01 2.72857E-01-3.33765E-03 1.15166E+00 2.32584E-14 1.87751E-13
 -1      3527 1.99654E+01 3.63662E-01-7.98060E-04 8.37313E-01-2.94420E-15 7.52518E-16
 -1      3528 1.99994E+01 3.44344E-01 2.35619E-03 9.08618E-01-6.41112E-15 4.02677E-15
 -1      3529 1.97907E+01 3.88378E-01-1.47400E-03 9.70396E-01-6.43896E-15 3.19372E-13
 -1      3530 1.99576E+01 3.69660E-01-1.20270E-03 6.90642E-01-1.15519E-13 1.29961E-14
 -1      3531 1.99787E+01 3.72198E-01 1.97182E-03 7.58787E-01-4.12740E-14 1.41589E-14
 -1      3532 1.98051E+01 4.29430E-01-4.22445E-04 8.03697E-01-1.68188E-14 2.68007E-14
 -1      3533 1.99625E+01 3.46216E-01-1.33207E-03 5.58878E-01 9.68476E-14 5.55578E-14
 -1      3534 1.99763E+01 3.61417E-01 1.67512E-03 6.20971E-01-2.28819E-14 6.03004E-14
 -1      3535 1.98356E+01 4.23000E-01 1.18859E-04 6.54930E-01-5.13117E-14-4.40286E-14
 -1      3536 1.99723E+01 3.07320E-01-1.30071E-03 4.44000E-01 1.03546E-13 6.52827E-14
 -1      3537 1.99818E+01 3.28786E-01 1.43745E-03 4.98590E-01 1.29097E-13 1.30849E-13
 -1      3538 1.98706E+01 3.88975E-01 3.56182E-04 5.25218E-01 9.81135E-14 1.26307E-13
 -1      3539 1.99826E+01 2.62334E-01-1.18249E-03 3.46334E-01 9.11150E-14-3.56002E-14
 -1      3540 1.99898E+01 2.85856E-01 1.23549E-03 3.92957E-01 1.21236E-13 5.38299E-14
 -1      3541 1.99038E+01 3.41220E-01 4.22705E-04 4.14404E-01 1.39135E-13 6.67114E-14
 -1      3542 1.99915E+01 2.17146E-01-1.02455E-03 2.65124E-01 7.49218E-14-1.14858E-13
 -1      3543 1.99973E+01 2.40129E-01 1.05570E-03 3.03971E-01 5.45776E-14-6.54961E-14
 -1      3544 1.99324E+01 2.88902E-01 4.00973E-04 3.21519E-01 1.21268E-13 4.87385E-14
 -1      3545 1.99984E+01 1.75170E-01-8.56176E-04 1.98954E-01-1.02573E-13-7.55662E-14
 -1      3546 2.00032E+01 1.96156E-01 8.92195E-04 2.30617E-01 6.06062E-15-1.10356E-13
 -1      3547 1.99554E+01 2.37710E-01 3.40116E-04 2.45061E-01 5.04302E-15-4.20416E-14
 -1      3548 2.00032E+01 1.38133E-01-6.94697E-04 1.46049E-01-1.14611E-13-1.45565E-13
 -1      3549 2.00073E+01 1.56429E-01 7.43461E-04 1.71343E-01-9.10121E-14-1.13806E-13
 -1      3550 1.99729E+01 1.90874E-01 2.67907E-04 1.83218E-01-9.35369E-14-4.21520E-14
 -1      3551 2.00062E+01 1.06658E-01-5.49508E-04 1.04514E-01-1.57585E-13-5.02038E-14
 -1      3552 2.00097E+01 1.22066E-01 6.09860E-04 1.24337E-01-2.07284E-13-1.35136E-13
 -1      3553 1.99857E+01 1.49948E-01 1.98871E-04 1.34043E-01-9.50890E-14-1.10793E-13
 -1      3554 2.00076E+01 8.06858E-02-4.24733E-04 7.24862E-02 9.93458E-16 3.95514E-15
 -1      3555 2.00107E+01 9.33072E-02 4.92061E-04 8.77342E-02-6.42313E-14-6.33420E-14
 -1      3556 1.99945E+01 1.15400E-01 1.39610E-04 9.55987E-02-9.54158E-14-9.05509E-14
 -1      3557 2.00080E+01 5.97643E-02-3.21271E-04 4.82409E-02 7.41209E-14 1.40021E-13
 -1      3558 2.00106E+01 6.98699E-02 3.90358E-04 5.97464E-02 8.34586E-14 7.31621E-14
 -1      3559 2.00002E+01 8.70299E-02 9.24345E-05 6.60542E-02 8.11705E-15 1.57137E-13
 -1      3560 2.00077E+01 4.32386E-02-2.38523E-04 3.02479E-02-1.21044E-13 3.07874E-13
 -1      3561 2.00098E+01 5.11827E-02 3.04448E-04 3.87500E-02 5.41344E-14 2.18307E-13
 -1      3562 2.00035E+01 6.42552E-02 5.66899E-05 4.37538E-02 3.83789E-14 2.96974E-13
 -1      3563 2.00068E+01 3.03782E-02-1.70197E-04 1.72043E-02-3.23587E-13 1.46338E-13
 -1      3564 2.00086E+01 3.65394E-02 2.34208E-04 2.33299E-02-1.64464E-13 1.55261E-13
 -1      3565 2.00051E+01 4.63020E-02 3.02563E-05 2.72515E-02-2.64522E-14 3.58723E-13
 -1      3566 2.00057E+01 2.05203E-02-8.15051E-05 8.06981E-03-7.85874E-14 1.72608E-13
 -1      3567 2.00071E+01 2.51759E-02 1.76931E-04 1.22864E-02-3.05437E-13 1.13081E-13
 -1      3568 2.00055E+01 3.23229E-02 2.69889E-07 1.53353E-02-2.27513E-13 2.21546E-13
 -1      3569 2.60492E+01-3.40228E+00-8.09097E-02-3.94187E-01-1.76835E-13 4.33431E-13
 -1      3570 2.57777E+01-2.40135E+00-1.21991E-02 5.92748E-01-8.49537E-14 4.13489E-13
 -1      3571 2.00014E+01 2.32078E-02-3.71543E-05-1.14036E-03 1.55438E-13-1.09460E-13
 -1      3572 2.00012E+01 2.35553E-02-6.89517E-05-6.42869E-04 2.11962E-13-8.34326E-14
 -1      3573 1.52127E+01-1.13127E+00 7.18559E-02-4.00297E+00 4.56850E-13 3.69496E-14
 -1      3574 1.72882E+01-2.07485E+00-4.23519E-04-4.26457E+00 4.18613E-13-1.36047E-13
 -1      3575 2.52957E+01-3.65029E+00 5.36678E-02-1.08359E+00-3.01953E-13 3.95123E-13
 -1      3576 1.94126E+01-2.25223E+00 8.30346E-02-3.77111E+00 3.55508E-13-3.52269E-13
 -1      3577 1.95240E+01-3.08707E+00 2.01707E-02-4.24500E+00-4.97604E-13-9.85323E-15
 -1      3578 2.07854E+01-3.72862E+00 5.57836E-02-4.21009E+00-5.26093E-13 1.18185E-13
 -1      3579 2.19329E+01-3.67552E+00 5.27153E-03-3.23214E+00-4.40887E-13 1.74822E-13
 -1      3580 2.40541E+01-2.45286E+00 2.10599E-02-2.16720E-02-2.33198E-13-2.12136E-13
 -1      3581 2.44225E+01-2.28246E+00-3.22550E-02-5.19474E-01-2.51309E-14-3.14787E-13
 -1      3582 2.50163E+01-2.79146E+00-5.08548E-02-1.57079E-01-1.01786E-13-2.83829E-13
 -1      3583 2.35914E+01-2.82881E+00-1.75632E-02 7.36558E-01-2.73438E-13-1.47764E-13
 -1      3584 2.05838E+01-4.41982E-01 4.50185E-03-1.56113E+00-8.49265E-14-1.63819E-13
 -1      3585 2.04184E+01-2.20054E-01 6.74401E-03-1.53446E+00-5.27514E-14-1.95981E-13
 -1      3586 2.43043E+01-3.48129E+00 3.29318E-02 1.25495E+00-2.66691E-13-2.67823E-13
 -1      3587 1.23945E+01 2.19858E-01 4.35914E-02-2.38803E+00 1.34752E-13 7.90756E-14
 -1      3588 1.36207E+01-4.50247E-01 1.89074E-02-3.45739E+00 3.22737E-13 4.93841E-14
 -1      3589 2.01839E+01 6.89902E-01 8.03354E-05-8.06877E-01 1.67278E-13-2.04314E-13
 -1      3590 2.01914E+01 8.00688E-01 1.70497E-03-6.62949E-01 1.98849E-13-1.85661E-13
 -1      3591 1.94993E+01 2.73436E+00-3.57462E-03-8.03010E-02-7.19927E-14-5.42427E-13
 -1      3592 1.95388E+01 2.68676E+00-4.71203E-03-1.35875E-01-1.13769E-13-5.47094E-13
 -1      3593 1.96169E+01 2.42382E+00 4.91737E-03-7.64034E-02-1.16771E-13-5.13317E-13
 -1      3594 1.98465E+01 1.10840E+00-1.57589E-03 7.32248E-01-1.59314E-13-3.13055E-13
 -1      3595 1.97786E+01 1.04496E+00-3.43020E-04 8.90046E-01-1.52722E-13-2.93426E-13
 -1      3596 1.95465E+01 1.15108E+00 3.66514E-03 8.72235E-01-1.32337E-13-2.59277E-13
 -1      3597 1.59746E+01-1.78648E+00 6.24349E-02-4.44556E+00-5.63632E-13-3.30923E-13
 -1      3598 1.81163E+01-2.48993E+00-1.42970E-02 4.32986E+00-4.46023E-13 9.76788E-14
 -1      3599 1.63369E+01-1.57084E+00 4.77954E-02 4.21326E+00-5.41706E-13 4.49155E-13
 -1      3600 2.70307E+01-3.62966E+00 1.14723E-01 3.02447E-01 2.75498E-13 3.77559E-13
 -1      3601 1.15471E+01 7.12000E-01 3.20908E-02 6.47908E-01-1.54475E-13 4.13183E-13
 -1      3602 1.16492E+01 6.69844E-01 5.45691E-02-1.13495E+00-3.50085E-14 2.08736E-13
 -1      3603 1.99855E+01 1.30033E+00-1.96847E-03 4.07492E-01-1.98196E-13-3.07317E-13
 -1      3604 1.99357E+01 1.19420E+00-1.18434E-03 5.85998E-01-1.72327E-13-3.18610E-13
 -1      3605 1.97573E+01 1.29563E+00 2.58435E-03 5.95596E-01-1.68144E-13-3.01096E-13
 -1      3606 2.01739E+01 4.84920E-01 1.47054E-03-1.05854E+00 9.22888E-14-1.96451E-13
 -1      3607 2.01607E+01 5.87467E-01 1.85737E-03-9.41272E-01 1.25012E-13-2.11872E-13
 -1      3608 2.00361E+01 7.52599E-01-1.03860E-03-8.64161E-01 1.45827E-13-1.93478E-13
 -1      3609 1.66426E+01-8.81921E-01 1.45251E-02 3.60576E+00 3.13620E-13-3.88876E-13
 -1      3610 2.42929E+01-3.75453E+00 1.36668E-02-1.67066E+00-3.23293E-13 3.45581E-13
 -1      3611 2.02963E+01 1.21429E+00 4.60020E-04-7.04435E-02 2.50903E-13-2.22239E-13
 -1      3612 2.02127E+01 1.41661E+00-6.92895E-04-2.01683E-02 2.51661E-13-2.51433E-13
 -1      3613 2.02744E+01 1.07866E+00-1.46687E-03-2.51188E-01 2.24036E-13-2.16790E-13
 -1      3614 1.56305E+01-1.09827E+00 1.98230E-02-3.87780E+00-4.68748E-13-3.46508E-13
 -1      3615 1.75219E+01-2.10646E+00 2.34348E-02-4.32759E+00-5.17935E-13-1.57711E-13
 -1      3616 1.20783E+01 6.09957E-01 1.24488E-01 1.44729E+00 1.14515E-13-6.87325E-13
 -1      3617 1.24265E+01 7.01374E-01 3.73624E-02 4.64664E-01-3.11556E-15-6.08368E-13
 -1      3618 1.36579E+01 3.33678E-01 2.72679E-02 2.20042E+00 2.30143E-13-5.90441E-13
 -1      3619 2.34649E+01-3.46574E+00 2.96255E-02-1.86301E+00-2.78414E-13 2.36108E-13
 -1      3620 2.43722E+01-3.21640E+00-4.28609E-02-7.12590E-01-1.97624E-13 2.46142E-13
 -1      3621 1.98927E+01 1.87554E+00 2.05073E-03 2.92007E-02-1.84281E-13-3.70837E-13
 -1      3622 2.00258E+01 1.59919E+00-3.12939E-03 9.14208E-02-2.20171E-13-3.35725E-13
 -1      3623 2.00091E+01 1.44764E+00-4.26489E-04 2.71592E-01-2.02638E-13-3.27104E-13
 -1      3624 1.97715E+01 1.99531E+00-4.28420E-03 5.37135E-03-1.60146E-13-4.25859E-13
 -1      3625 1.97733E+01 1.81963E+00 3.74523E-03 1.40545E-01-1.47225E-13-3.94458E-13
 -1      3626 1.96754E+01 2.13071E+00 6.38005E-04 6.28050E-03-1.36841E-13-4.64584E-13
 -1      3627 1.97029E+01 2.09430E+00-2.74141E-03-5.24410E-02 9.80419E-14-4.62883E-13
 -1      3628 1.96197E+01 2.18477E+00-4.39151E-03-6.93646E-02 6.20172E-14-4.79288E-13
 -1      3629 1.23883E+01 5.25755E-01-1.58965E-03-1.39980E+00-1.97430E-13-6.10269E-13
 -1      3630 1.23237E+01 1.26685E-01 9.84310E-02-2.54864E+00-3.31072E-13-6.87402E-13
 -1      3631 1.37527E+01-8.62098E-02 4.28503E-02-2.84982E+00-3.90771E-13-5.29077E-13
 -1      3632 1.69384E+01-1.01522E+00 3.01552E-02 3.46480E+00-3.77517E-13 3.97007E-13
 -1      3633 1.56151E+01-9.07602E-01 4.74422E-02 3.80533E+00-4.41806E-13 5.13940E-13
 -1      3634 1.49609E+01-2.38694E-01-1.94883E-03 3.07587E+00-3.05001E-13 3.64197E-13
 -1      3635 2.00055E+01 1.78946E-02 9.81385E-05-4.68655E-03-3.28818E-15-4.16138E-13
 -1      3636 2.00047E+01 1.41664E-02-3.08062E-05-2.27309E-03-4.24302E-14-4.69641E-13
 -1      3637 2.00045E+01 1.49538E-02-4.21812E-05-2.35248E-03-9.96716E-14-3.92538E-13
 -1      3638 2.00048E+01 2.31096E-02 2.38864E-05-6.66858E-03 3.19185E-14 5.03183E-14
 -1      3639 2.02278E+01 8.76198E-01-7.01055E-04-5.40913E-01 2.00813E-13-1.87128E-13
 -1      3640 2.02513E+01 9.78511E-01 1.40321E-03-3.90676E-01 2.17779E-13-2.05328E-13
 -1      3641 2.01774E+01 1.14152E+00-1.01446E-04-3.40053E-01 2.16142E-13-2.44720E-13
 -1      3642 2.01072E+01 9.52766E-01 3.72223E-04-6.03530E-01 1.95201E-13-2.13919E-13
 -1      3643 2.16420E+01-2.01338E+00-2.73488E-02-1.79088E+00-1.94466E-13 5.40930E-14
 -1      3644 2.17290E+01-1.65622E+00-3.92102E-03-1.43116E+00-1.48684E-13 4.75665E-14
 -1      3645 2.13843E+01-1.30460E+00 2.08590E-02-1.56669E+00-1.39278E-13 1.44882E-15
 -1      3646 2.54594E+01 1.13502E-03-3.01131E-02 1.87921E+00 1.54331E-13 3.42903E-13
 -1      3647 2.53258E+01-1.13356E+00-2.86931E-02 1.57403E+00 3.33119E-14 3.66979E-13
 -1      3648 2.07754E+01-6.94725E-01 1.16455E-02-1.62006E+00-1.22339E-13-8.39772E-14
 -1      3649 2.03275E+01-5.74782E-01-1.53637E-02-1.76335E+00-1.37930E-13-1.86666E-13
 -1      3650 2.10331E+01-9.87651E-01 4.00129E-03-1.58632E+00-1.44693E-13-5.43224E-14
 -1      3651 2.35385E+01-3.40647E+00 4.75663E-03 1.62763E+00-3.75461E-13-1.64421E-13
 -1      3652 2.24461E+01-2.99292E+00 2.84762E-02 2.07056E+00-4.54075E-13-5.78274E-14
 -1      3653 1.96896E+01-2.59585E+00 2.86962E-02 3.63928E+00-4.62833E-13-4.55538E-15
 -1      3654 2.00870E+01-8.80531E-02-8.25762E-03-1.58206E+00-7.17298E-14-2.41956E-13
 -1      3655 2.03304E+01-3.48765E-02 3.81888E-03-1.44398E+00-4.37738E-15-2.19308E-13
 -1      3656 2.02356E+01 1.24354E-01 3.78196E-03-1.37878E+00-2.52500E-15-2.18124E-13
 -1      3657 2.46921E+01-2.55379E+00 3.25543E-02 2.02461E-01-1.00937E-13 2.88665E-13
 -1      3658 2.49380E+01-1.82592E+00-3.98770E-02 9.90332E-01 2.53660E-15 3.12890E-13
 -1      3659 2.00055E+01 1.79147E-02 1.09955E-04 5.50689E-03 1.07828E-13-5.52419E-15
 -1      3660 2.00050E+01 2.29559E-02-7.23390E-05 7.75858E-03 5.16263E-14-1.81457E-14
 -1      3661 2.00048E+01 1.53814E-02-3.63181E-06 3.27902E-03 2.76345E-13 5.47120E-14
 -1      3662 1.85889E+01-1.54416E+00 1.20374E-02-3.50819E+00 3.90602E-13-2.74288E-13
 -1      3663 2.00042E+01 1.00928E-02-5.09595E-05 4.67540E-04 4.40961E-13 3.15633E-13
 -1      3664 1.98642E+01 1.53363E+00 1.69886E-03 3.11379E-01-1.69144E-13-3.31363E-13
 -1      3665 1.38179E+01 4.66570E-01 1.11719E-02 2.05364E+00-2.35811E-13 2.96589E-13
 -1      3666 1.25615E+01 7.27634E-01 8.02319E-02 1.44381E+00-2.07220E-13 4.68060E-13
 -1      3667 1.32955E+01 9.43776E-01 1.93344E-02 5.66816E-01-1.50976E-13 3.00052E-13
 -1      3668 2.02104E+01 2.59347E-01 2.72100E-03-1.27148E+00 6.23042E-15-1.97899E-13
 -1      3669 2.01645E+01 3.78229E-01 2.34478E-03-1.17868E+00 5.59680E-14-1.81416E-13
 -1      3670 1.99944E+01 2.60667E-01-4.87131E-03-1.36532E+00 4.28638E-14-2.16434E-13
 -1      3671 2.00011E+01 2.35729E-02-6.54431E-05 3.25319E-04 2.24742E-13 4.68414E-15
 -1      3672 2.00013E+01 2.32598E-02-3.86222E-05 8.25698E-04 1.53748E-13-9.48393E-14
 -1      3673 2.00008E+01 2.93260E-02 1.41005E-04-1.64538E-04 2.61123E-13-7.92648E-16
 -1      3674 2.00043E+01 1.55468E-02-5.76187E-05-2.37300E-03-4.05983E-14-2.54434E-13
 -1      3675 1.53505E+01-5.03712E-01 5.60941E-02-3.32394E+00 3.73234E-13-4.14044E-14
 -1      3676 2.00041E+01 2.12983E-02 2.38810E-05-4.26882E-03-9.13081E-14-9.57507E-14
 -1      3677 2.00037E+01 1.80152E-02 9.98362E-06-2.47331E-03-1.13292E-13-1.97812E-13
 -1      3678 2.00030E+01 1.94039E-02-1.02809E-04-2.60920E-03-1.47310E-13-8.50230E-14
 -1      3679 2.00028E+01 1.93369E-02-9.83227E-05 2.41727E-03 2.39813E-13-4.54560E-13
 -1      3680 2.00034E+01 1.78971E-02-2.74911E-06 2.36870E-03 3.65586E-13-6.08844E-13
 -1      3681 1.96020E+01 2.03638E+00 6.08619E-03-1.21467E-01 4.54361E-14-4.57469E-13
 -1      3682 1.95596E+01 2.25768E+00-2.23889E-03-5.30660E-02 4.84557E-14-4.88930E-13
 -1      3683 1.95193E+01 2.29306E+00-4.83885E-03-6.29456E-02 1.22313E-14-4.76718E-13
 -1      3684 1.71616E+01-8.79791E-01 2.62937E-02-3.48514E+00 3.97271E-13-1.37402E-13
 -1      3685 2.00024E+01 2.12785E-02-1.64239E-05-2.20005E-03-4.65286E-14-2.84584E-13
 -1      3686 2.00018E+01 2.22173E-02-9.27386E-05-1.90585E-03 1.32790E-13-3.54959E-13
 -1      3687 2.00014E+01 2.83941E-02 1.75173E-04-2.24154E-03 2.27986E-13-2.77498E-13
 -1      3688 2.00026E+01 2.55420E-02 7.69682E-05-3.69994E-03-5.74142E-14-2.05150E-13
 -1      3689 1.95377E+01 2.51627E+00 5.57691E-03-5.18631E-02-5.06480E-14-4.88395E-13
 -1      3690 1.88854E+01-2.39281E+00 4.18804E-02-4.00410E+00-4.52635E-13-6.25862E-14
 -1      3691 2.00887E+01-2.67439E+00-2.93589E-02-3.49510E+00-4.26860E-13-6.27883E-15
 -1      3692 1.83731E+01-1.74631E+00 3.73408E-03-3.64095E+00-3.85903E-13-1.51285E-13
 -1      3693 1.31932E+01 6.51782E-01 6.17398E-02-1.51106E+00 2.46751E-14 7.57935E-14
 -1      3694 2.00891E+01 1.60126E+00-1.71868E-03-3.54193E-02 2.13805E-13-3.33667E-13
 -1      3695 1.99923E+01 5.23282E-01-2.66252E-03-1.12620E+00 7.28328E-14-1.59232E-13
 -1      3696 2.00040E+01 2.18082E-02 1.07954E-04 4.70154E-03 2.14625E-13-3.76711E-13
 -1      3697 2.00040E+01 1.62270E-02-7.45432E-05 2.67877E-03 3.48260E-13-2.43012E-13
 -1      3698 1.50393E+01-3.85727E-01 6.03328E-02-3.32180E+00-4.10523E-13-4.22086E-13
 -1      3699 1.64378E+01-7.42738E-01 2.25987E-02-3.33457E+00-4.06547E-13-3.04583E-13
 -1      3700 1.45853E+01 1.17851E-01-5.16240E-03-2.49724E+00-2.91503E-13-4.61110E-13
 -1      3701 2.23615E+01-3.50376E+00-2.36439E-02-2.72249E+00-3.32149E-13 1.36929E-13
 -1      3702 2.28566E+01-2.97976E+00 1.39890E-02-1.75505E+00-2.33103E-13 1.15525E-13
 -1      3703 2.21427E+01-2.58461E+00 4.01024E-02-2.06112E+00-2.50386E-13 1.09425E-13
 -1      3704 2.13959E+01-3.02100E+00 2.35086E-02-3.03065E+00-3.64259E-13-7.88757E-15
 -1      3705 2.53466E+01 1.03878E+00-3.40643E-02 2.20585E+00 2.82250E-13 3.14391E-13
 -1      3706 2.50021E+01 1.82703E+00-1.19849E-01 2.08314E+00 3.49651E-13 2.04982E-13
 -1      3707 1.87296E+01 1.08690E+00-7.28580E-03 1.14810E+00-7.04079E-14-2.51339E-13
 -1      3708 1.85502E+01 1.04291E+00 1.03400E-03 1.28310E+00-7.22864E-14-2.78355E-13
 -1      3709 1.82340E+01 9.77504E-01-1.09650E-02 1.41699E+00-7.02652E-14-2.97337E-13
 -1      3710 1.80403E+01 8.99308E-01 4.67006E-03 1.58319E+00-2.00152E-14-3.52508E-13
 -1      3711 1.81078E+01 1.14904E+00 1.06332E-02 1.13064E+00-7.61085E-14-2.98962E-13
 -1      3712 1.76394E+01 7.75487E-01-1.52930E-02 1.77015E+00 1.90826E-14-3.88390E-13
 -1      3713 1.74521E+01 6.22174E-01 1.11724E-02 2.00083E+00 4.26527E-14-4.27964E-13
 -1      3714 1.74240E+01 1.02223E+00 1.45997E-02 1.41842E+00-3.61070E-14-3.69531E-13
 -1      3715 1.69364E+01 4.28608E-01-8.84694E-03 2.29155E+00 1.18712E-13-4.34896E-13
 -1      3716 1.67938E+01 9.18390E-02 1.21609E-02 2.64732E+00 2.14301E-13-4.15413E-13
 -1      3717 1.65687E+01 7.81810E-01 2.57415E-02 1.84584E+00 6.21499E-14-4.24851E-13
 -1      3718 1.98028E+01 1.97395E+00-3.96223E-03-5.88175E-02 1.27733E-13-4.29289E-13
 -1      3719 1.97707E+01 1.84592E+00 5.44117E-03-1.60670E-01 1.10996E-13-4.12622E-13
 -1      3720 1.99190E+01 1.83300E+00-2.56714E-03-3.74049E-02 1.82679E-13-4.08885E-13
 -1      3721 1.55868E+01-2.08982E-01 1.77763E-02 3.04711E+00 2.74528E-13-4.87894E-13
 -1      3722 1.65511E+01 6.36682E-02 1.72399E-02-2.63809E+00 3.07514E-13 6.95451E-15
 -1      3723 1.66686E+01 3.93623E-01-1.90936E-02-2.25756E+00 2.31613E-13-4.46401E-14
 -1      3724 2.00040E+01 2.56132E-02-9.45309E-06-6.60337E-03-5.25748E-14-4.68392E-17
 -1      3725 1.71716E+01 6.29785E-01 1.04358E-02-1.95083E+00 6.03643E-15 3.37436E-15
 -1      3726 1.73451E+01 7.86423E-01-1.56574E-02-1.70875E+00 3.65593E-16-8.81941E-14
 -1      3727 1.62230E+01 7.89083E-01 1.97149E-02-1.80122E+00 1.14468E-13-4.19330E-14
 -1      3728 1.77358E+01 9.01582E-01 4.43169E-03-1.51184E+00 6.20256E-15-1.16452E-13
 -1      3729 1.79157E+01 9.63196E-01-1.15305E-02-1.34420E+00-1.43642E-14-1.60747E-13
 -1      3730 1.70682E+01 1.02828E+00 1.10528E-02-1.34888E+00 7.86244E-15-1.08170E-13
 -1      3731 1.82214E+01 1.00020E+00 1.35793E-03-1.21206E+00 2.38922E-14-2.89042E-13
 -1      3732 1.83857E+01 1.00458E+00-8.23327E-03-1.08791E+00 5.67310E-14-2.81703E-13
 -1      3733 1.77357E+01 1.11076E+00 8.03748E-03-1.06129E+00-7.47057E-14-2.49050E-13
 -1      3734 1.86255E+01 9.94246E-01 8.66981E-05-9.91564E-01 1.54921E-13-2.05664E-13
 -1      3735 1.87654E+01 9.64657E-01-6.02495E-03-8.93256E-01 1.65751E-13-1.66989E-13
 -1      3736 1.82600E+01 1.09658E+00 6.19271E-03-8.63550E-01 1.19067E-13-2.77397E-13
 -1      3737 1.89536E+01 9.27235E-01-3.68009E-04-8.17374E-01 1.95771E-14-1.21341E-13
 -1      3738 1.90677E+01 8.79322E-01-4.55675E-03-7.35508E-01-5.88473E-14-2.64204E-14
 -1      3739 1.86727E+01 1.02407E+00 4.84305E-03-7.14281E-01 1.45689E-13-1.81854E-13
 -1      3740 1.92151E+01 8.28334E-01-4.35214E-04-6.72449E-01-1.35705E-13 1.40724E-14
 -1      3741 1.93055E+01 7.72517E-01-3.54835E-03-6.02446E-01-1.87733E-13 2.09195E-14
 -1      3742 1.89972E+01 9.19399E-01 3.80218E-03-5.92600E-01-9.09363E-14 6.42558E-15
 -1      3743 1.94203E+01 7.16785E-01-3.39675E-04-5.48608E-01-2.38273E-13-6.38663E-17
 -1      3744 1.94901E+01 6.59760E-01-2.81695E-03-4.88348E-01-1.50347E-13-1.42320E-13
 -1      3745 1.92509E+01 8.00790E-01 2.98300E-03-4.88704E-01-1.70436E-13 1.81230E-13
 -1      3746 1.95788E+01 6.04785E-01-1.99088E-04-4.42103E-01 1.49581E-14-2.04824E-13
 -1      3747 1.96317E+01 5.50620E-01-2.25651E-03-3.90536E-01 1.72831E-13-1.62998E-13
 -1      3748 1.94479E+01 6.80443E-01 2.33117E-03-3.98406E-01-6.56377E-14 1.83831E-13
 -1      3749 1.96996E+01 4.99603E-01-6.91201E-05-3.51086E-01 2.01328E-13-1.85861E-13
 -1      3750 1.97389E+01 4.50547E-01-1.80888E-03-3.07515E-01 1.84870E-13-5.18461E-14
 -1      3751 1.95993E+01 5.66100E-01 1.81031E-03-3.20054E-01 1.21017E-13-1.86885E-14
 -1      3752 1.97904E+01 4.05127E-01 2.93986E-05-2.74316E-01 8.67034E-14-1.06001E-13
 -1      3753 1.98190E+01 3.62208E-01-1.44269E-03-2.38077E-01 3.05723E-14-1.49871E-14
 -1      3754 1.97144E+01 4.62237E-01 1.39433E-03-2.52881E-01 1.59736E-13 1.28357E-13
 -1      3755 1.98575E+01 3.23003E-01 9.34724E-05-2.10601E-01 1.16502E-14-2.22603E-13
 -1      3756 1.98780E+01 2.86450E-01-1.14044E-03-1.80967E-01-9.11123E-14-2.15148E-13
 -1      3757 1.98008E+01 3.71010E-01 1.06347E-03-1.96257E-01-8.79151E-14 1.10594E-14
 -1      3758 1.99063E+01 2.53436E-01 1.28011E-04-1.58627E-01 9.14457E-18-2.14273E-13
 -1      3759 1.99206E+01 2.22993E-01-8.91328E-04-1.34806E-01 2.11095E-13-7.83601E-14
 -1      3760 1.98648E+01 2.93002E-01 8.02098E-04-1.49404E-01-1.38527E-14-2.19729E-13
 -1      3761 1.99412E+01 1.95765E-01 1.40416E-04-1.16966E-01 2.04165E-13-1.20321E-13
 -1      3762 1.99509E+01 1.70896E-01-6.87619E-04-9.81445E-02 1.47488E-13-1.61870E-13
 -1      3763 1.99114E+01 2.27778E-01 5.97402E-04-1.11366E-01 2.29566E-13-1.79927E-13
 -1      3764 1.99654E+01 1.48848E-01 1.37898E-04-8.41539E-02 6.35588E-14-2.47921E-13
 -1      3765 1.99719E+01 1.28880E-01-5.22991E-04-6.95357E-02-5.39666E-14-3.34553E-13
 -1      3766 1.99446E+01 1.74301E-01 4.38740E-04-8.10579E-02-2.07327E-14-3.73547E-13
 -1      3767 1.99819E+01 1.11317E-01 1.26419E-04-5.87623E-02-5.75934E-14-3.17559E-13
 -1      3768 1.99859E+01 9.55339E-02-3.91745E-04-4.76083E-02 8.17619E-14-3.42798E-13
 -1      3769 1.99676E+01 1.31219E-01 3.17123E-04-5.73564E-02-7.65908E-14-3.34140E-13
 -1      3770 1.99925E+01 8.17476E-02 1.10437E-04-3.94675E-02 2.15262E-13-3.49934E-13
 -1      3771 1.99948E+01 6.94402E-02-2.88844E-04-3.11188E-02 3.26857E-13-3.36071E-13
 -1      3772 1.99832E+01 9.70541E-02 2.24778E-04-3.91670E-02 1.60380E-13-2.87942E-13
 -1      3773 1.99990E+01 5.87504E-02 9.36623E-05-2.50918E-02 5.05729E-13-3.31398E-13
 -1      3774 2.00000E+01 4.92462E-02-2.13097E-04-1.89775E-02 4.93794E-13-1.70736E-13
 -1      3775 1.99931E+01 7.03316E-02 1.54665E-04-2.54791E-02 4.37889E-13-2.66517E-13
 -1      3776 2.00024E+01 4.10544E-02 8.51986E-05-1.46489E-02 3.04677E-13-1.95823E-13
 -1      3777 2.00028E+01 3.37556E-02-1.28289E-04-1.02236E-02 1.64619E-13-6.01068E-14
 -1      3778 1.99990E+01 4.96458E-02 1.03389E-04-1.54322E-02 4.98807E-13-3.03291E-13
 -1      3779 1.98798E+01 8.14985E-01 8.68912E-04-8.95129E-01 9.48685E-14-1.94133E-13
 -1      3780 1.99073E+01 9.30771E-01-1.93935E-04-7.56265E-01 1.37291E-13-2.06488E-13
 -1      3781 1.94440E+01 1.27164E+00-4.11886E-03 6.82495E-01-1.30339E-13-2.69148E-13
 -1      3782 1.93213E+01 1.21742E+00-1.16128E-03 8.10690E-01-1.11378E-13-2.82820E-13
 -1      3783 2.07721E+01-2.74873E+00-4.00309E-02 3.03682E+00-4.56106E-13-9.29083E-14
 -1      3784 1.89971E+01-1.87132E+00 1.66736E-02 3.38829E+00-3.48628E-13-9.50741E-14
 -1      3785 2.10683E+01-1.98316E+00 2.50117E-02 2.22489E+00-4.14286E-13 9.98426E-14
 -1      3786 2.17214E+01-2.43494E+00 1.87745E-02 2.07535E+00-4.12489E-13-4.20193E-14
 -1      3787 1.96662E+01-7.68019E-02 2.62389E-03 1.57056E+00-1.99841E-13 1.90636E-13
 -1      3788 1.98250E+01-2.98900E-01 8.73130E-03 1.66465E+00-1.38520E-13 2.08010E-13
 -1      3789 1.95548E+01 2.36620E-01-1.63102E-04 1.32470E+00-1.09179E-13 2.10411E-13
 -1      3790 1.96348E+01 1.01340E-01 6.62405E-03 1.42439E+00-1.95974E-13 1.81620E-13
 -1      3791 1.92670E+01 9.89057E-02-6.70962E-03 1.56085E+00-1.84462E-13 2.62365E-13
 -1      3792 1.95438E+01 4.11665E-01-1.48005E-03 1.10196E+00 2.71392E-15 2.09532E-13
 -1      3793 1.95755E+01 3.40345E-01 4.71977E-03 1.19740E+00-1.74974E-14 1.90014E-13
 -1      3794 1.92672E+01 3.75675E-01-2.78093E-03 1.27472E+00-3.45584E-14 1.26778E-13
 -1      3795 1.95844E+01 4.89151E-01-2.01011E-03 9.06233E-01 7.12878E-14 1.10007E-15
 -1      3796 1.95891E+01 4.61908E-01 3.29873E-03 9.93668E-01 1.06419E-13 1.74593E-13
 -1      3797 1.93351E+01 5.18384E-01-6.59806E-04 1.03498E+00 6.67434E-14 6.58593E-14
 -1      3798 1.96471E+01 5.01952E-01-2.14490E-03 7.36844E-01-7.66262E-15-7.55042E-14
 -1      3799 1.96383E+01 5.03282E-01 2.33737E-03 8.14892E-01 1.98703E-14 2.08300E-14
 -1      3800 1.94322E+01 5.69939E-01 4.55845E-04 8.35536E-01 7.29687E-14 3.22123E-14
 -1      3801 1.97152E+01 4.74971E-01-2.07211E-03 5.91902E-01-9.56777E-15-1.09961E-13
 -1      3802 1.97010E+01 4.93368E-01 1.70761E-03 6.60204E-01-3.11038E-14-5.90566E-14
 -1      3803 1.95358E+01 5.62774E-01 9.73804E-04 6.69727E-01-6.26157E-15 1.64585E-14
 -1      3804 1.97794E+01 4.26120E-01-1.89171E-03 4.69275E-01 1.01999E-13-5.71976E-14
 -1      3805 1.97643E+01 4.53433E-01 1.29726E-03 5.27986E-01 7.41951E-14-1.10225E-13
 -1      3806 1.96337E+01 5.20649E-01 1.14825E-03 5.32032E-01 7.54424E-14-2.93560E-14
 -1      3807 1.98353E+01 3.67690E-01-1.66109E-03 3.66812E-01 1.74604E-13-4.90887E-14
 -1      3808 1.98217E+01 3.98406E-01 1.02241E-03 4.16407E-01 1.47155E-13-1.28711E-13
 -1      3809 1.97200E+01 4.60348E-01 1.13305E-03 4.18120E-01 1.63937E-13-1.77241E-13
 -1      3810 1.98815E+01 3.07679E-01-1.41503E-03 2.82347E-01 1.01911E-13-1.18579E-13
 -1      3811 1.98703E+01 3.38273E-01 8.27953E-04 3.23528E-01 1.37105E-13-1.02481E-13
 -1      3812 1.97924E+01 3.93246E-01 1.02121E-03 3.24532E-01 1.80369E-13-1.54215E-13
 -1      3813 1.99182E+01 2.50937E-01-1.17499E-03 2.13707E-01-5.50726E-14-7.05617E-14
 -1      3814 1.99095E+01 2.79327E-01 6.80855E-04 2.47328E-01 6.41146E-14-6.26698E-14
 -1      3815 1.98509E+01 3.26653E-01 8.68698E-04 2.48362E-01 1.00228E-13-5.83995E-14
 -1      3816 1.99462E+01 2.00098E-01-9.53720E-04 1.58746E-01-1.21170E-13-3.18129E-14
 -1      3817 1.99399E+01 2.25208E-01 5.62655E-04 1.85741E-01-1.41604E-13-1.06875E-13
 -1      3818 1.98966E+01 2.64912E-01 7.08257E-04 1.87064E-01-8.98081E-15 1.23512E-13
 -1      3819 1.99669E+01 1.56292E-01-7.58006E-04 1.15400E-01-1.19946E-13 8.49768E-14
 -1      3820 1.99626E+01 1.77719E-01 4.63669E-04 1.36719E-01-1.12811E-13 2.18811E-14
 -1      3821 1.99314E+01 2.10281E-01 5.57920E-04 1.38349E-01-1.29032E-13 1.55712E-13
 -1      3822 1.99816E+01 1.19678E-01-5.90755E-04 8.17417E-02-1.20921E-13 1.67717E-13
 -1      3823 1.99789E+01 1.37449E-01 3.79118E-04 9.83006E-02-1.36835E-13 1.35616E-13
 -1      3824 1.99569E+01 1.63611E-01 4.26386E-04 1.00155E-01-1.09134E-13 2.60033E-13
 -1      3825 1.99916E+01 8.98299E-02-4.51454E-04 5.60307E-02-6.87018E-14 3.88363E-13
 -1      3826 1.99901E+01 1.04224E-01 3.06591E-04 6.86718E-02-2.37948E-14 2.60996E-13
 -1      3827 1.99751E+01 1.24843E-01 3.16451E-04 7.06387E-02-1.41810E-13 3.39519E-13
 -1      3828 1.99980E+01 6.60022E-02-3.38549E-04 3.67316E-02 1.17446E-13 3.07297E-13
 -1      3829 1.99973E+01 7.74318E-02 2.44641E-04 4.62055E-02-8.61302E-15 2.46231E-13
 -1      3830 1.99875E+01 9.33873E-02 2.29518E-04 4.81835E-02 6.68756E-14 3.42969E-13
 -1      3831 2.00017E+01 4.72954E-02-2.46436E-04 2.25304E-02 7.72495E-14 1.98876E-13
 -1      3832 2.00017E+01 5.62334E-02 1.93064E-04 2.94811E-02 1.64280E-13 2.81300E-13
 -1      3833 1.99956E+01 6.83527E-02 1.59569E-04 3.13890E-02 6.83685E-14 2.85680E-13
 -1      3834 2.00036E+01 3.28675E-02-1.38462E-04 1.23732E-02-1.80578E-13 1.37675E-13
 -1      3835 2.00039E+01 3.96998E-02 1.57180E-04 1.72892E-02-1.26948E-13 1.65489E-13
 -1      3836 2.00003E+01 4.87167E-02 9.00387E-05 1.90926E-02 4.38863E-14 1.44071E-13
 -1      3837 2.00037E+01 2.52760E-02-5.85652E-05 6.82355E-03 2.40269E-13-2.25181E-13
 -1      3838 2.00043E+01 2.90747E-02 1.34014E-04 9.58337E-03 1.19706E-13-1.09603E-13
 -1      3839 2.00022E+01 3.54947E-02-5.23967E-05 1.11130E-02 1.26575E-13-1.68330E-13
 -1      3840 2.00028E+01 2.69182E-02-9.15046E-05 6.15871E-03 1.92115E-13-5.28459E-13
 -1      3841 1.57336E+01-2.20693E-01 4.20799E-03-3.01074E+00 2.95965E-13-1.08906E-14
 -1      3842 2.00017E+01 2.22183E-02-8.69892E-05 1.67005E-03 7.74293E-14-1.65015E-13
 -1      3843 2.00022E+01 2.12877E-02-9.84603E-06 1.97999E-03 1.17517E-13-2.19928E-13
 -1      3844 2.00025E+01 2.53691E-02 1.17376E-04 3.65844E-03 2.41324E-13-4.78040E-13
 -1      3845 2.00012E+01 2.83106E-02 1.22322E-04 2.03298E-03 1.48209E-13-1.05587E-13
 -1      3846 1.95436E+01 2.27600E+00-5.57553E-05-2.18953E-02-7.32405E-14-4.91022E-13
 -1      3847 1.95946E+01 2.20036E+00-4.83499E-03-2.34651E-02-1.11090E-13-4.95776E-13
 -1      3848 1.95936E+01 2.02241E+00 3.96820E-03 6.31254E-02-1.07077E-13-4.66310E-13
 -1      3849 2.00044E+01 1.42618E-02 6.41627E-06 2.28081E-03 3.78019E-13 3.50594E-14
 -1      3850 1.98054E+01 5.86021E-01 2.88938E-03-1.15678E+00 7.07698E-14-2.05450E-13
 -1      3851 1.98170E+01 7.01472E-01-2.16971E-04-1.02982E+00 9.16282E-14-2.03816E-13
 -1      3852 1.96821E+01 8.74994E-01 6.73907E-05-9.25155E-01 1.03991E-13-2.19803E-13
 -1      3853 1.34803E+01 9.21912E-01 9.60780E-03-8.96904E-01 5.31901E-14 2.43520E-14
 -1      3854 1.41661E+01 5.68792E-01 2.53418E-02-2.01807E+00 2.51364E-13-1.56396E-13
 -1      3855 1.95101E+01 2.31059E+00-1.52302E-03-4.23395E-02-6.99714E-15-4.39349E-13
 -1      3856 1.95166E+01 2.29192E+00-4.72773E-03-4.59514E-02-6.53656E-14-4.50386E-13
 -1      3857 1.95178E+01 2.11161E+00 5.13942E-03-1.06871E-02-5.82595E-14-4.27039E-13
 -1      3858 1.95232E+01 2.11733E+00 6.33129E-03-6.91383E-02-8.86862E-15-4.37716E-13
 -1      3859 2.00405E+01 1.49626E+00 3.43541E-03-1.80863E-01 1.85317E-13-3.18894E-13
 -1      3860 1.99576E+01-5.76122E-01 7.92702E-03 1.82036E+00-1.27632E-13 1.66566E-13
 -1      3861 2.02453E+01-8.94197E-01 1.57442E-02 1.88226E+00-2.03600E-13 1.71473E-13
 -1      3862 1.94020E+01-3.66359E-01-1.34070E-02 1.89453E+00-1.39474E-13 7.20073E-14
 -1      3863 2.03627E+01-1.19541E+00 1.29556E-02 2.05234E+00-3.16528E-13 1.98843E-13
 -1      3864 2.08218E+01-1.58616E+00 2.50458E-02 2.04141E+00-3.64365E-13 8.73433E-14
 -1      3865 1.99009E+01-1.65706E+00-2.89345E-02 2.66318E+00-3.62980E-13-6.26469E-14
 -1      3866 1.96204E+01-9.61741E-01-2.22050E-02 2.25475E+00-1.76643E-13-8.27921E-14
 -1      3867 1.97312E+01 1.65380E+00-4.06574E-03 2.41163E-01-1.54180E-13-3.75972E-13
 -1      3868 1.97146E+01 1.52312E+00 2.17078E-03 3.74525E-01-1.51136E-13-3.63006E-13
 -1      3869 1.96306E+01 1.78692E+00 1.38088E-03 1.97977E-01-1.30439E-13-4.17182E-13
 -1      3870 1.96379E+01 1.42443E+00-3.34543E-03 4.61551E-01-1.35006E-13-3.45982E-13
 -1      3871 1.95483E+01 1.33677E+00-2.73216E-04 5.98680E-01-1.32328E-13-3.06579E-13
 -1      3872 1.93539E+01 1.41264E+00 4.82132E-03 5.43159E-01-1.07455E-13-3.27458E-13
 -1      3873 1.95231E+01 1.55686E+00 2.46009E-03 3.79088E-01-1.19792E-13-3.83017E-13
 -1      3874 1.91313E+01 1.16793E+00-4.99210E-03 9.13752E-01-9.44771E-14-2.80028E-13
 -1      3875 1.89770E+01 1.12950E+00-7.71362E-04 1.03831E+00-7.59860E-14-2.65926E-13
 -1      3876 1.90758E+01 1.30314E+00 6.27670E-03 7.19187E-01-1.06856E-13-2.94398E-13
 -1      3877 2.06933E+01-2.47445E+00 9.68727E-03-2.99960E+00-3.49701E-13-7.24984E-14
 -1      3878 1.36834E+01 8.61172E-01 7.84423E-03 7.08830E-01 5.16358E-14-4.60462E-13
 -1      3879 1.28795E+01 9.06484E-01 8.17171E-02-3.14939E-01-6.25470E-14-5.22447E-13
 -1      3880 1.36447E+01 7.70976E-01 1.33700E-02-9.24001E-01-1.52005E-13-4.74353E-13
 -1      3881 1.86506E+01 1.22598E+00 8.31049E-03 9.12783E-01-7.70635E-14-2.95085E-13
 -1      3882 1.97871E+01 1.60927E+00-1.75196E-03-2.74784E-01 1.25539E-13-3.62858E-13
 -1      3883 1.96765E+01 1.72714E+00-3.71707E-03-2.55262E-01 8.05670E-14-4.12532E-13
 -1      3884 2.00023E+01 3.18830E-02 3.43078E-05-7.56748E-03 3.23420E-14-1.47889E-13
 -1      3885 1.62543E+01 9.84477E-01-2.37920E-02 1.20911E+00 7.46105E-15-3.70215E-13
 -1      3886 1.58031E+01 8.66176E-01 5.08765E-03 1.42903E+00 8.93428E-14-4.22091E-13
 -1      3887 1.95985E+01 1.63106E+00 2.69467E-03-3.12070E-01 7.08942E-14-3.99646E-13
 -1      3888 1.95840E+01 1.82979E+00-7.60196E-04-2.01133E-01 4.89073E-14-4.49572E-13
 -1      3889 1.95108E+01 1.89387E+00-4.58289E-03-1.69036E-01 1.83238E-14-4.39618E-13
 -1      3890 2.11602E+01-2.42733E+00-2.97788E-02-2.56049E+00-2.93772E-13-5.11210E-14
 -1      3891 2.14729E+01-2.16383E+00 7.21662E-03-2.13284E+00-2.53457E-13 5.72957E-15
 -1      3892 2.10003E+01-1.68188E+00 3.52112E-02-2.21034E+00-2.49116E-13-4.01582E-14
 -1      3893 2.00687E+01-1.91415E+00 1.09431E-02-2.93896E+00-3.39513E-13-1.47066E-13
 -1      3894 1.46572E+01 9.43416E-01 2.82380E-02 1.10021E+00 4.85870E-14-4.56907E-13
 -1      3895 1.47145E+01 6.21592E-01-1.68343E-02 1.81951E+00 1.35645E-13-5.00894E-13
 -1      3896 1.58875E+01 1.25895E-01 8.61642E-03 2.46732E+00-2.71082E-13 4.53811E-13
 -1      3897 1.48113E+01 3.43184E-01 4.44842E-02 2.40485E+00-2.76953E-13 2.80493E-13
 -1      3898 1.47766E+01 7.26478E-01-1.48900E-02 1.59274E+00-2.48604E-13 2.77336E-13
 -1      3899 2.08376E+01-1.24460E+00-2.26208E-02-1.86950E+00-1.91385E-13-4.53179E-14
 -1      3900 1.67615E+01-5.00694E-01-1.48214E-02-2.97376E+00-3.35188E-13-3.05405E-13
 -1      3901 1.75525E+01-1.03596E+00 3.74681E-02-3.42034E+00-4.00732E-13-2.32196E-13
 -1      3902 2.00736E+01-5.70544E-01 1.29549E-02-1.91901E+00-2.07737E-13-2.05145E-13
 -1      3903 1.98690E+01-2.94573E-01 3.17433E-03-1.83700E+00-1.64821E-13-2.44996E-13
 -1      3904 2.00007E+01 3.14196E-02-1.07479E-04 4.48424E-03 2.48298E-13-1.34962E-13
 -1      3905 2.00016E+01 2.96470E-02-3.63348E-05 5.24700E-03 2.55375E-13-4.75430E-13
 -1      3906 2.00015E+01 3.41194E-02 1.32924E-04 7.36059E-03 2.70305E-13-4.02418E-13
 -1      3907 1.92599E+01-1.46120E+00 2.61903E-02 2.90784E+00-3.46708E-13-1.18140E-13
 -1      3908 1.80134E+01-1.33689E+00 1.22502E-02 3.41691E+00-3.63215E-13 8.04140E-14
 -1      3909 1.72158E+01-7.30962E-01-1.33809E-02 3.07275E+00-3.26694E-13 2.61688E-13
 -1      3910 1.90257E+01-1.11516E+00-2.84969E-03 2.70189E+00-2.58540E-13-1.36469E-13
 -1      3911 1.98324E+01-5.12804E-02 8.07069E-03-1.67348E+00-9.12472E-14-2.17748E-13
 -1      3912 1.97438E+01 1.43899E-01 4.19949E-04-1.56509E+00-1.53957E-14-2.21134E-13
 -1      3913 1.94647E+01-7.13669E-02-2.79690E-03-1.83534E+00-9.34052E-14-2.18825E-13
 -1      3914 1.97733E+01 3.16109E-01 5.50676E-03-1.41444E+00 5.00725E-14-2.15516E-13
 -1      3915 1.97479E+01 4.57617E-01-1.29417E-04-1.29605E+00 7.28033E-14-1.82123E-13
 -1      3916 1.94627E+01 3.37553E-01-2.39382E-03-1.50182E+00 2.41971E-14-1.67143E-13
 -1      3917 1.99991E+01 3.54340E-02-7.16218E-05-8.74750E-04 2.73673E-13 9.94543E-14
 -1      3918 1.99990E+01 3.54601E-02-7.34829E-05 4.93336E-04 1.54970E-13 1.76022E-13
 -1      3919 2.00078E+01 1.36846E+00-1.01862E-03-3.19298E-01 1.77467E-13-3.23497E-13
 -1      3920 1.86240E+01-1.36987E+00 1.23531E-02-3.19655E+00-3.94297E-13-1.01768E-13
 -1      3921 1.95556E+01 6.32134E-01-1.08535E-03-1.20313E+00 6.74208E-14-1.99586E-13
 -1      3922 1.43139E+01 1.02005E+00-9.28389E-03 5.55229E-01-6.38795E-14 1.67822E-13
 -1      3923 1.37970E+01 1.11606E+00 5.08689E-02-1.60835E-01-1.91726E-14 4.17236E-14
 -1      3924 1.45745E+01 1.05689E+00 1.18479E-02-6.92250E-01 1.30275E-13-1.79230E-13
 -1      3925 2.00001E+01 3.38737E-02-5.63133E-05-3.78909E-03 2.34009E-13-4.17271E-13
 -1      3926 1.99994E+01 3.46977E-02-1.36642E-04-2.73478E-03 3.19676E-13-1.57796E-13
 -1      3927 1.99982E+01 4.22067E-02 1.94324E-04-2.34237E-03 2.15418E-13-4.91495E-14
 -1      3928 1.49102E+01 4.02286E-01 3.48394E-02-2.37888E+00 3.16162E-13-5.49213E-14
 -1      3929 1.98034E+01 1.12044E+00 6.32315E-04-6.51786E-01 1.23303E-13-2.47966E-13
 -1      3930 1.99598E+01 1.05706E+00-6.35193E-04-6.17606E-01 1.58243E-13-2.54838E-13
 -1      3931 1.50486E+01 7.20136E-01-5.44570E-03-1.79509E+00 2.64413E-13-2.15241E-13
 -1      3932 2.00010E+01 1.14662E+00-1.71736E-04-4.94844E-01 1.71224E-13-2.70461E-13
 -1      3933 1.98644E+01 1.47532E+00-7.69080E-05-3.43135E-01 1.55792E-13-3.21166E-13
 -1      3934 1.97812E+01 1.38947E+00 1.71665E-03-4.40736E-01 1.33082E-13-3.06809E-13
 -1      3935 2.00012E+01 3.37637E-02-6.80890E-05-6.80253E-03 2.25154E-13-3.78643E-13
 -1      3936 1.68759E+01 1.07862E+00-2.41253E-03 1.09204E+00-3.49382E-14-3.99730E-13
 -1      3937 1.62954E+01 1.19246E+00 2.22040E-02 6.68768E-01-1.55982E-14-3.46649E-13
 -1      3938 1.72623E+01 1.13810E+00-1.51089E-02 9.49076E-01-6.85958E-14-3.85229E-13
 -1      3939 1.97126E+01 1.24242E+00-1.50800E-03-5.63946E-01 1.18519E-13-2.68299E-13
 -1      3940 1.96399E+01 1.38007E+00 1.77797E-03-4.90819E-01 1.07617E-13-3.17640E-13
 -1      3941 1.96567E+01 1.11584E+00 3.06235E-04-6.99114E-01 9.37261E-14-2.35993E-13
 -1      3942 1.51186E+01 3.34470E-01 6.42347E-02 2.48835E+00 2.17087E-13-5.21328E-13
 -1      3943 1.57546E+01 8.79598E-01 6.52103E-03-1.52035E+00 1.85182E-13-2.77971E-13
 -1      3944 1.62130E+01 1.01026E+00-1.70453E-02-1.28264E+00 2.79056E-14-1.50926E-13
 -1      3945 1.52372E+01 1.06262E+00 3.77175E-02-1.19145E+00 1.37750E-13-3.19484E-13
 -1      3946 1.67443E+01 1.08326E+00-1.20741E-03-1.13495E+00-3.07926E-14-1.37440E-13
 -1      3947 1.71132E+01 1.13435E+00-1.12440E-02-9.88505E-01 1.00302E-14-2.15298E-13
 -1      3948 1.64192E+01 1.19745E+00 2.16407E-02-8.81758E-01 7.91359E-15-1.99846E-13
 -1      3949 1.75003E+01 1.14984E+00-2.03640E-03-8.95983E-01-5.88947E-14-2.91379E-13
 -1      3950 1.77917E+01 1.15088E+00-6.99341E-03-8.00075E-01-1.67454E-14-3.08731E-13
 -1      3951 1.72719E+01 1.22714E+00 1.27599E-02-7.01551E-01-7.46549E-14-2.76702E-13
 -1      3952 1.80824E+01 1.12908E+00-1.96872E-03-7.34966E-01 1.59658E-13-2.69702E-13
 -1      3953 1.83129E+01 1.09874E+00-4.45876E-03-6.65383E-01 2.70715E-13-1.84954E-13
 -1      3954 1.79139E+01 1.18805E+00 8.44001E-03-5.84725E-01 1.48839E-13-2.09524E-13
 -1      3955 1.85356E+01 1.05390E+00-1.73173E-03-6.14233E-01 1.74294E-13-1.73971E-13
 -1      3956 1.87176E+01 1.00511E+00-2.95688E-03-5.58601E-01 4.63245E-14-9.03524E-14
 -1      3957 1.84067E+01 1.10379E+00 5.98696E-03-4.97654E-01 1.90956E-13-8.16988E-14
 -1      3958 1.88901E+01 9.47764E-01-1.46267E-03-5.15129E-01-8.23052E-14 5.64732E-15
 -1      3959 1.90331E+01 8.89904E-01-2.06731E-03-4.67591E-01-4.31720E-14-1.35162E-14
 -1      3960 1.87895E+01 9.92390E-01 4.43338E-03-4.24837E-01 3.09479E-14 3.66573E-14
 -1      3961 1.91672E+01 8.27641E-01-1.19945E-03-4.29169E-01-1.80966E-15-3.98307E-14
 -1      3962 1.92786E+01 7.67238E-01-1.52409E-03-3.87299E-01-7.46499E-14 1.21954E-13
 -1      3963 1.90879E+01 8.68300E-01 3.38392E-03-3.59616E-01-1.68551E-14-3.82773E-14
 -1      3964 1.93827E+01 7.05308E-01-9.60759E-04-3.53100E-01-7.00589E-14 1.53770E-13
 -1      3965 1.94687E+01 6.46720E-01-1.17031E-03-3.16086E-01 3.62150E-14 1.41580E-13
 -1      3966 1.93204E+01 7.42156E-01 2.63055E-03-2.99942E-01 7.72284E-15 4.71982E-14
 -1      3967 1.95491E+01 5.88509E-01-7.54046E-04-2.85968E-01 6.29277E-14 1.68040E-13
 -1      3968 1.96147E+01 5.34422E-01-9.20790E-04-2.53608E-01 2.32250E-13 1.00600E-13
 -1      3969 1.95004E+01 6.21346E-01 2.06214E-03-2.45738E-01 8.74627E-14 1.60074E-13
 -1      3970 1.96763E+01 4.81888E-01-5.81417E-04-2.27571E-01 2.06948E-13 1.58845E-13
 -1      3971 1.97257E+01 4.33749E-01-7.31435E-04-1.99778E-01 2.69180E-14 1.41216E-13
 -1      3972 1.96387E+01 5.10545E-01 1.61812E-03-1.97474E-01 1.24853E-13 6.33495E-14
 -1      3973 1.97723E+01 3.87808E-01-4.41476E-04-1.77744E-01-1.03088E-13 2.08087E-13
 -1      3974 1.98090E+01 3.46181E-01-5.80170E-04-1.54349E-01-1.57058E-13 1.42979E-13
 -1      3975 1.97438E+01 4.12279E-01 1.26422E-03-1.55526E-01-3.37895E-14 1.61439E-13
 -1      3976 1.98438E+01 3.07026E-01-3.30698E-04-1.36103E-01-1.32383E-13 3.13030E-14
 -1      3977 1.98707E+01 2.71884E-01-4.56141E-04-1.16807E-01 1.03540E-13-3.35035E-14
 -1      3978 1.98225E+01 3.27488E-01 9.79799E-04-1.19954E-01-1.15039E-13 3.03508E-13
 -1      3979 1.98963E+01 2.39237E-01-2.44608E-04-1.02014E-01 2.53516E-13-2.25811E-13
 -1      3980 1.99155E+01 2.10177E-01-3.53853E-04-8.64145E-02 8.85004E-14-3.28895E-13
 -1      3981 1.98807E+01 2.56007E-01 7.51298E-04-9.04939E-02 7.99400E-14-5.88685E-14
 -1      3982 1.99340E+01 1.83477E-01-1.78627E-04-7.46639E-02-2.12801E-14-3.45749E-13
 -1      3983 1.99475E+01 1.59886E-01-2.70163E-04-6.22963E-02-5.58273E-14-2.87275E-13
 -1      3984 1.99228E+01 1.96965E-01 5.68797E-04-6.66359E-02 1.08419E-14-3.12161E-13
 -1      3985 1.99604E+01 1.38428E-01-1.28517E-04-5.31485E-02-9.68606E-14-2.08666E-13
 -1      3986 1.99696E+01 1.19594E-01-2.02772E-04-4.35296E-02 1.19173E-14-1.59018E-13
 -1      3987 1.99526E+01 1.49079E-01 4.24361E-04-4.77223E-02-4.80524E-14 3.60929E-14
 -1      3988 1.99784E+01 1.02619E-01-9.00638E-05-3.65516E-02 1.15363E-13-2.27379E-13
 -1      3989 1.99844E+01 8.78008E-02-1.52913E-04-2.92123E-02 2.53871E-13-2.31332E-13
 -1      3990 1.99731E+01 1.10877E-01 3.09893E-04-3.30393E-02 7.76459E-14 2.28575E-15
 -1      3991 1.99901E+01 7.45571E-02-5.51507E-05-2.40126E-02 4.30608E-13-2.71308E-14
 -1      3992 1.99938E+01 6.30314E-02-1.15758E-04-1.85413E-02 5.89750E-13 2.09121E-14
 -1      3993 1.99867E+01 8.08121E-02 2.16864E-04-2.18600E-02 4.45652E-13 5.08453E-14
 -1      3994 1.99972E+01 5.28116E-02-4.18904E-05-1.47039E-02 4.98702E-13-1.96460E-13
 -1      3995 1.99993E+01 4.39735E-02-7.24072E-05-1.08371E-02 3.54557E-13-2.49722E-13
 -1      3996 1.99951E+01 5.75657E-02 1.50000E-04-1.36150E-02 3.96503E-13 1.13719E-14
 -1      3997 1.63841E+01 8.25321E-02 3.70395E-02-2.52624E+00-2.68457E-13-3.60724E-13
 -1      3998 1.73111E+01-2.37292E-01 1.12638E-02-2.60260E+00-2.85210E-13-2.67153E-13
 -1      3999 1.89828E+01 5.48285E-01-4.38193E-03 1.15626E+00 4.25892E-14-8.21076E-14
 -1      4000 1.89724E+01 4.69068E-01 6.46269E-03 1.28663E+00-4.55665E-14 3.64192E-15
 -1      4001 1.95373E+01 1.85578E+00-5.45586E-03 1.16105E-01-1.08440E-13-4.43641E-13
 -1      4002 1.95083E+01 1.72838E+00 2.68040E-03 2.09644E-01-1.05085E-13-4.18884E-13
 -1      4003 1.94851E+01 1.93254E+00 5.58254E-04 6.91552E-02-7.14926E-14-4.30466E-13
 -1      4004 1.99994E+01 3.43531E-02-1.01270E-04 2.08000E-03 2.26171E-13-1.53353E-13
 -1      4005 1.99999E+01 3.34443E-02-4.84104E-05 3.27223E-03 2.69008E-13-1.85693E-13
 -1      4006 1.99994E+01 3.87194E-02 1.46237E-04 4.79435E-03 3.39280E-13-2.54009E-13
 -1      4007 1.99982E+01 4.17140E-02 1.77922E-04 1.60576E-03 1.93289E-13-6.98926E-14
 -1      4008 1.88661E+01 3.49144E-01-4.21455E-03 1.45850E+00-1.39251E-13 5.31596E-14
 -1      4009 1.89069E+01 1.95202E-01 9.25903E-03 1.61753E+00-1.23801E-13 1.06646E-13
 -1      4010 1.85826E+01 5.39691E-01-3.27879E-04 1.33085E+00-3.50586E-14-1.46811E-13
 -1      4011 1.92851E+01 6.48000E-01-3.45547E-03 7.26938E-01 4.73679E-14 9.29557E-14
 -1      4012 1.92386E+01 6.51197E-01 2.53268E-03 8.14741E-01 1.06666E-13 1.27714E-13
 -1      4013 1.94287E+01 6.13918E-01-2.96579E-03 5.73766E-01 2.20823E-14 2.38306E-14
 -1      4014 1.93812E+01 6.36978E-01 1.59819E-03 6.46217E-01 6.45150E-14 1.05205E-13
 -1      4015 1.91980E+01 7.14302E-01 2.21742E-03 6.23971E-01 8.45000E-14 8.29862E-14
 -1      4016 1.95555E+01 5.53451E-01-2.51754E-03 4.49915E-01 2.61362E-13-2.44810E-13
 -1      4017 1.95117E+01 5.87233E-01 1.03160E-03 5.09735E-01 2.00054E-13-8.95586E-14
 -1      4018 1.93690E+01 6.59759E-01 2.13640E-03 4.85644E-01 2.27833E-13-1.76234E-13
 -1      4019 1.96628E+01 4.80803E-01-2.11303E-03 3.49665E-01 2.40410E-13-2.89750E-13
 -1      4020 1.96250E+01 5.18963E-01 6.92698E-04 3.98893E-01 1.77695E-13-2.83771E-13
 -1      4021 1.95145E+01 5.84937E-01 1.92905E-03 3.76386E-01 2.31989E-13-4.61508E-13
 -1      4022 1.97507E+01 4.05505E-01-1.75128E-03 2.68764E-01 1.27434E-13-1.66983E-13
 -1      4023 1.97196E+01 4.43848E-01 4.89785E-04 3.09002E-01 1.91157E-13-1.82818E-13
 -1      4024 1.96348E+01 5.02255E-01 1.66794E-03 2.89671E-01 1.07149E-13-3.19059E-13
 -1      4025 1.98207E+01 3.33562E-01-1.43144E-03 2.03892E-01-4.46562E-14 1.02558E-13
 -1      4026 1.97960E+01 3.69503E-01 3.65763E-04 2.36473E-01 4.46060E-14 4.95744E-14
 -1      4027 1.97317E+01 4.19962E-01 1.39484E-03 2.20824E-01-3.20975E-14 6.74715E-14
 -1      4028 1.98750E+01 2.68406E-01-1.15278E-03 1.52327E-01-7.07825E-14 2.89234E-13
 -1      4029 1.98561E+01 3.00529E-01 2.86422E-04 1.78414E-01 9.67568E-15 2.12993E-13
 -1      4030 1.98081E+01 3.43161E-01 1.13415E-03 1.66347E-01-1.24837E-13 3.02065E-13
 -1      4031 1.99161E+01 2.11663E-01-9.14066E-04 1.11773E-01-1.21988E-13 2.64125E-13
 -1      4032 1.99020E+01 2.39362E-01 2.31989E-04 1.32401E-01-6.56735E-14 3.08502E-13
 -1      4033 1.98668E+01 2.74649E-01 8.99378E-04 1.23514E-01-7.30160E-14 3.82984E-13
 -1      4034 1.99464E+01 1.63741E-01-7.12978E-04 8.02613E-02-1.65439E-13 3.75718E-13
 -1      4035 1.99362E+01 1.86949E-01 1.91466E-04 9.63523E-02-1.06726E-13 3.40856E-13
 -1      4036 1.99108E+01 2.15604E-01 6.96787E-04 9.01237E-02-1.52982E-13 3.87110E-13
 -1      4037 1.99679E+01 1.24277E-01-5.48026E-04 5.60964E-02-5.16677E-15 1.91985E-13
 -1      4038 1.99610E+01 1.43265E-01 1.59134E-04 6.84672E-02-9.78141E-14 3.30726E-13
 -1      4039 1.99431E+01 1.66118E-01 5.27694E-04 6.43637E-02-2.45056E-14 2.75643E-13
 -1      4040 1.99828E+01 9.24676E-02-4.10366E-04 3.78488E-02 1.15399E-13 1.10902E-13
 -1      4041 1.99782E+01 1.07682E-01 1.32013E-04 4.72026E-02 1.08752E-13 1.71666E-13
 -1      4042 1.99660E+01 1.25591E-01 3.89196E-04 4.47191E-02 8.60749E-14 1.30783E-13
 -1      4043 1.99925E+01 6.73066E-02-2.96182E-04 2.42942E-02 1.09046E-13 1.88059E-14
 -1      4044 1.99897E+01 7.92858E-02 1.07386E-04 3.12480E-02 1.08020E-13 2.31856E-14
 -1      4045 1.99817E+01 9.31190E-02 2.98943E-04 2.99932E-02 1.40660E-13-1.19460E-13
 -1      4046 1.99985E+01 4.77914E-02-1.55775E-04 1.45207E-02 1.34070E-13-2.35743E-14
 -1      4047 1.99969E+01 5.69671E-02 9.25099E-05 1.94617E-02 1.52015E-13 5.16095E-14
 -1      4048 1.99919E+01 6.74325E-02 1.94815E-04 1.90943E-02 1.45759E-13-2.17271E-13
 -1      4049 2.00004E+01 3.81634E-02-6.48830E-05 9.20090E-03 3.79007E-13-4.79211E-13
 -1      4050 2.00001E+01 4.32816E-02 1.13388E-04 1.20709E-02 3.13275E-13-2.44547E-13
 -1      4051 1.99968E+01 5.10087E-02 6.20185E-05 1.21108E-02 3.53888E-13-3.10367E-13
 -1      4052 1.99990E+01 4.07768E-02-1.07198E-04 7.89088E-03 3.58631E-13-2.91506E-13
 -1      4053 1.91317E+01 6.35440E-01-3.96432E-03 9.17403E-01 4.90647E-14-1.26197E-14
 -1      4054 1.90952E+01 6.06037E-01 4.03227E-03 1.02422E+00 2.67774E-15-4.46399E-15
 -1      4055 1.87936E+01 6.83982E-01 1.34413E-03 1.02989E+00-3.38004E-14-1.55824E-13
 -1      4056 1.90038E+01 7.30714E-01 2.03791E-03 8.00794E-01-2.89184E-14 9.22022E-14
 -1      4057 1.47916E+01 1.05897E+00-1.08518E-02 4.00784E-01-3.56583E-14-3.35402E-13
 -1      4058 1.90344E+01 1.37627E+00-5.07097E-03 5.00537E-01-9.94223E-14-3.52182E-13
 -1      4059 1.88485E+01 1.33053E+00-2.77708E-03 5.85153E-01-1.02809E-13-3.35853E-13
 -1      4060 1.80186E+01 1.22313E+00-9.47226E-03 7.77960E-01-7.21396E-14-3.58886E-13
 -1      4061 1.77091E+01 1.18740E+00-4.37937E-03 8.79650E-01-7.95513E-14-3.72489E-13
 -1      4062 1.73139E+01 1.26792E+00 1.64220E-02 5.64084E-01-7.44231E-14-3.74921E-13
 -1      4063 1.93074E+01 7.01649E-01 2.92688E-03-1.19363E+00 4.31516E-14-1.62479E-13
 -1      4064 1.93640E+01 8.19543E-01-3.19708E-03-1.05188E+00 6.19494E-14-1.77195E-13
 -1      4065 1.45003E+01 6.45678E-01 6.24899E-02-1.81829E+00-2.37862E-13-4.75672E-13
 -1      4066 1.54667E+01 2.77203E-01-2.74014E-04-2.23078E+00-2.60073E-13-4.06415E-13
 -1      4067 1.60351E+01 4.26422E-01-1.28411E-02-1.95184E+00-1.92312E-13-3.70315E-13
 -1      4068 1.88325E+01-8.08257E-03-1.44202E-03 1.83794E+00-1.87836E-13 1.67444E-13
 -1      4069 1.89596E+01-2.71835E-01 1.12824E-02 2.03216E+00-1.40837E-13 7.03653E-14
 -1      4070 1.84029E+01 2.44167E-01-4.85246E-03 1.73053E+00-1.77395E-13 6.09902E-14
 -1      4071 1.84839E+01-8.61776E-01-1.21835E-02-2.80652E+00-3.15826E-13-1.74739E-13
 -1      4072 1.93131E+01-1.46476E+00-1.21450E-03-3.00366E+00-3.28719E-13-1.48143E-13
 -1      4073 1.98909E+01-1.43395E+00-9.37733E-03-2.60855E+00-2.88115E-13-1.82745E-13
 -1      4074 1.85957E+01 1.28827E+00-6.69912E-03 6.37431E-01-1.00456E-13-3.29618E-13
 -1      4075 1.83516E+01 1.25646E+00-4.16196E-03 7.23219E-01-7.93718E-14-3.47705E-13
 -1      4076 1.80615E+01 1.32374E+00 1.22151E-02 4.86824E-01-1.00139E-13-3.64304E-13
 -1      4077 1.99663E+01-9.06030E-01 7.27878E-03-2.22066E+00-2.53768E-13-1.76921E-13
 -1      4078 1.93734E+01-6.30066E-01-3.60265E-03-2.30132E+00-2.52338E-13-2.29816E-13
 -1      4079 1.94923E+01 9.08625E-01 1.11621E-03-9.38125E-01 7.55336E-14-2.17929E-13
 -1      4080 1.95557E+01 1.02046E+00-2.32870E-03-8.05250E-01 8.54054E-14-2.13994E-13
 -1      4081 1.94727E+01 1.15550E+00 3.86038E-03-7.14287E-01 7.67142E-14-2.62745E-13
 -1      4082 1.92508E+01 9.77257E-01 3.68759E-03-9.26678E-01 4.23311E-14-1.76168E-13
 -1      4083 2.47527E+01 3.00597E+00-1.62211E-01-1.88605E+00 4.94122E-13-4.92925E-13
 -1      4084 1.86285E+01 1.38354E+00 8.77893E-03 4.08750E-01-1.04075E-13-3.56598E-13
 -1      4085 1.95214E+01 1.47367E+00-3.51557E-03-4.23074E-01 7.00918E-14-3.66079E-13
 -1      4086 1.99994E+01 4.15970E-02 7.32537E-05-7.79018E-03 2.49566E-13-4.02625E-13
 -1      4087 1.94615E+01 1.76867E+00 4.84688E-03-1.93756E-01-3.92703E-15-3.95060E-13
 -1      4088 1.94739E+01 1.93889E+00-6.87915E-04-1.15508E-01-4.71341E-15-4.20286E-13
 -1      4089 1.94488E+01 1.94834E+00-4.45400E-03-8.44421E-02-4.15964E-14-4.03085E-13
 -1      4090 1.67447E+01-1.25661E-01 2.93328E-02 2.67954E+00-3.47270E-13 4.23892E-13
 -1      4091 1.63559E+01 3.05709E-01-1.70353E-02 2.13199E+00-3.42512E-13 3.81350E-13
 -1      4092 1.76709E+01-4.25650E-01 3.68095E-03 2.63882E+00-3.78433E-13 2.10517E-13
 -1      4093 1.87128E+01-4.17066E-01 1.26184E-02-2.37151E+00-2.42489E-13-1.61654E-13
 -1      4094 1.88568E+01-1.67701E-01-1.50028E-02-2.08366E+00-1.64924E-13-1.73145E-13
 -1      4095 1.52558E+01 1.12820E+00-1.33557E-02-5.69768E-01 6.37420E-14-1.91299E-13
 -1      4096 1.55953E+01 8.45112E-01-7.53777E-03 1.33345E+00-1.45708E-13 1.88619E-13
 -1      4097 1.49202E+01 1.02334E+00 3.33541E-02 1.01864E+00-1.02927E-13 1.72624E-13
 -1      4098 1.51567E+01 1.11974E+00-1.12388E-02 4.03883E-01 4.85944E-14 2.71883E-14
 -1      4099 1.89975E+01 9.26320E-02 7.55610E-03-1.84194E+00-8.29586E-14-1.75330E-13
 -1      4100 1.89618E+01 3.00845E-01-8.68699E-03-1.65276E+00-2.09140E-14-1.45105E-13
 -1      4101 1.83796E+01 2.52799E-01 1.12703E-03-1.87278E+00-1.02754E-13-1.18523E-13
 -1      4102 1.55706E+01 1.09898E+00 6.09845E-03 4.25251E-02-2.31100E-14-3.44553E-13
 -1      4103 1.47978E+01 1.03895E+00 1.36773E-02-3.38877E-01-2.14772E-14-3.23565E-13
 -1      4104 1.93560E+01 1.69866E+00 1.27119E-03 1.62199E-01-7.44269E-14-3.92862E-13
 -1      4105 1.94183E+01 1.62206E+00-4.48944E-03 2.55937E-01-1.05191E-13-4.22073E-13
 -1      4106 1.93484E+01 1.54584E+00 6.25292E-04 3.32732E-01-1.14127E-13-4.10938E-13
 -1      4107 1.99950E+01 4.96618E-02-1.14831E-04 1.41664E-03 1.36086E-13-2.37848E-14
 -1      4108 1.99956E+01 4.86846E-02-3.27754E-05 3.42172E-03 2.83885E-13-4.10255E-13
 -1      4109 1.91303E+01 4.45490E-01 4.60664E-03-1.48588E+00-1.18432E-14-1.41293E-13
 -1      4110 1.91587E+01 5.94242E-01-5.33812E-03-1.32623E+00 3.27324E-14-1.53136E-13
 -1      4111 1.89847E+01 8.01270E-01 4.24909E-03-1.16683E+00 3.04049E-14-1.30435E-13
 -1      4112 1.86841E+01 5.93276E-01 5.67097E-03-1.45688E+00 1.59668E-14-1.07017E-13
 -1      4113 1.45664E+01 8.49395E-01 4.14447E-03-8.54468E-01-9.05838E-14-3.76523E-13
 -1      4114 2.02865E+01-1.30869E+00 7.84741E-03-2.29623E+00-2.62814E-13-1.15915E-13
 -1      4115 1.67389E+01 1.19408E+00-1.05905E-02 9.72305E-02-3.41868E-14-3.35319E-13
 -1      4116 1.61498E+01 1.15156E+00-8.58929E-03 1.12283E-01-2.15878E-14-3.39325E-13
 -1      4117 1.62218E+01 1.12785E+00 1.75789E-02-5.53084E-01-2.37602E-14-3.11609E-13
 -1      4118 1.75364E+01 1.08631E-01-1.29652E-02-2.17146E+00-2.03356E-13-1.96560E-13
 -1      4119 1.80470E+01-3.38479E-01 8.28447E-03-2.55489E+00-2.72854E-13-1.58690E-13
 -1      4120 1.99957E+01 4.93982E-02 1.78853E-05-4.16531E-03 1.79381E-13-2.21246E-13
 -1      4121 1.99950E+01 4.97745E-02-1.12768E-04-1.74224E-03 1.11920E-13 3.09840E-13
 -1      4122 1.99930E+01 5.81091E-02 1.99746E-04-1.17412E-04 1.89201E-13 4.27022E-14
 -1      4123 1.94465E+01 1.96590E+00-7.73358E-04-2.72041E-02-5.04868E-14-4.12175E-13
 -1      4124 1.94528E+01 1.94242E+00-4.74774E-03 7.49424E-03-5.96207E-14-4.33566E-13
 -1      4125 1.94155E+01 1.81919E+00 4.64057E-03 5.65203E-02-7.63179E-14-4.10459E-13
 -1      4126 1.94062E+01 1.82132E+00 4.78491E-03-7.09461E-02-5.23006E-14-4.04866E-13
 -1      4127 1.92523E+01 1.47936E+00-4.14660E-03 3.78441E-01-8.84603E-14-4.03578E-13
 -1      4128 1.91532E+01 1.42166E+00-1.67465E-03 4.52359E-01-8.07167E-14-3.94460E-13
 -1      4129 1.89764E+01 1.46775E+00 7.02281E-03 3.25394E-01-6.64102E-14-3.76365E-13
 -1      4130 1.91829E+01 1.55618E+00 3.71088E-03 2.40805E-01-7.88187E-14-4.00589E-13
 -1      4131 1.54971E+01 1.24804E+00 2.85690E-02-9.19336E-02 5.50215E-14-6.39282E-14
 -1      4132 1.59442E+01 1.18910E+00-6.24985E-03-5.47293E-01 2.49158E-14-2.22881E-13
 -1      4133 1.64507E+01 1.22087E+00-1.11227E-02-4.69241E-01-2.29987E-14-1.95022E-13
 -1      4134 1.58405E+01 1.16998E+00-6.86734E-03 3.23881E-01-1.83624E-14-6.56956E-14
 -1      4135 1.69314E+01 1.23140E+00-5.69646E-03-4.52337E-01-2.53557E-14-1.76214E-13
 -1      4136 1.73056E+01 1.22654E+00-7.13465E-03-4.06267E-01-4.08280E-14-9.76350E-14
 -1      4137 1.66181E+01 1.27834E+00 1.64505E-02-1.34938E-01-2.89852E-14-7.51983E-14
 -1      4138 1.76570E+01 1.20620E+00-4.42240E-03-3.95896E-01 1.08468E-13-1.62530E-13
 -1      4139 1.79414E+01 1.17497E+00-4.71832E-03-3.62950E-01 2.51572E-13-9.68399E-14
 -1      4140 1.74207E+01 1.24865E+00 9.89069E-03-1.60454E-01 2.93923E-14-1.31262E-14
 -1      4141 1.82077E+01 1.13241E+00-3.34079E-03-3.53493E-01 1.99823E-13-1.28659E-13
 -1      4142 1.84274E+01 1.08380E+00-3.24531E-03-3.25816E-01 1.15733E-13-1.12040E-13
 -1      4143 1.80236E+01 1.17816E+00 6.91223E-03-1.74553E-01 1.80864E-13-1.35525E-13
 -1      4144 1.86328E+01 1.02801E+00-2.52819E-03-3.14820E-01 9.46803E-14-1.30308E-13
 -1      4145 1.88038E+01 9.69629E-01-2.36757E-03-2.88957E-01 4.08091E-15-4.15581E-14
 -1      4146 1.84864E+01 1.07718E+00 5.09555E-03-1.78209E-01 5.61388E-14-1.15814E-13
 -1      4147 1.89641E+01 9.07435E-01-1.90296E-03-2.76013E-01-9.79401E-14-3.91332E-14
 -1      4148 1.90974E+01 8.45185E-01-1.83179E-03-2.51082E-01 3.42216E-14-1.12267E-14
 -1      4149 1.88466E+01 9.58457E-01 3.89173E-03-1.71692E-01 2.18201E-14-2.10850E-13
 -1      4150 1.92228E+01 7.81797E-01-1.42551E-03-2.36892E-01 7.39594E-14-6.18507E-14
 -1      4151 1.93263E+01 7.20106E-01-1.47644E-03-2.13133E-01-3.77786E-14-1.54521E-14
 -1      4152 1.91286E+01 8.32422E-01 3.03422E-03-1.57544E-01 2.33262E-14-4.29369E-14
 -1      4153 1.94242E+01 6.59236E-01-1.05878E-03-1.98664E-01 1.14662E-14-5.79909E-14
 -1      4154 1.95040E+01 6.01154E-01-1.21502E-03-1.76640E-01 1.46118E-13 3.06732E-14
 -1      4155 1.93493E+01 7.07373E-01 2.38803E-03-1.38740E-01-4.09249E-14-8.75022E-14
 -1      4156 1.95799E+01 5.45193E-01-7.77753E-04-1.62753E-01 9.05964E-14-6.37459E-14
 -1      4157 1.96408E+01 4.92590E-01-1.00491E-03-1.42969E-01 6.96678E-14-1.39481E-13
 -1      4158 1.95210E+01 5.89283E-01 1.88248E-03-1.17931E-01 7.14892E-14-1.59258E-13
 -1      4159 1.96990E+01 4.42862E-01-5.64364E-04-1.30284E-01 1.64396E-13-1.48296E-13
 -1      4160 1.97449E+01 3.96679E-01-8.26750E-04-1.13043E-01 4.82380E-14 3.08888E-14
 -1      4161 1.96534E+01 4.81964E-01 1.47821E-03-9.71491E-02 1.09966E-13-1.42322E-13
 -1      4162 1.97890E+01 3.53703E-01-4.04300E-04-1.01919E-01-1.81324E-13 2.13144E-13
 -1      4163 1.98232E+01 3.14193E-01-6.72509E-04-8.73094E-02-9.77193E-14 2.05157E-13
 -1      4164 1.97543E+01 3.87425E-01 1.15185E-03-7.77669E-02 1.07225E-13-8.46435E-14
 -1      4165 1.98561E+01 2.77920E-01-2.85751E-04-7.78842E-02-1.56012E-13 9.87216E-14
 -1      4166 1.98810E+01 2.44868E-01-5.39069E-04-6.58146E-02-5.88769E-14-1.86980E-13
 -1      4167 1.98301E+01 3.06298E-01 8.88328E-04-6.05763E-02-2.27481E-13-8.24054E-14
 -1      4168 1.99051E+01 2.14881E-01-1.98956E-04-5.80626E-02 1.00717E-13-3.91026E-13
 -1      4169 1.99230E+01 1.87774E-01-4.25073E-04-4.83222E-02 1.40065E-14-2.20829E-13
 -1      4170 1.98861E+01 2.38245E-01 6.76761E-04-4.59199E-02-9.85951E-14-2.32974E-13
 -1      4171 1.99403E+01 1.63440E-01-1.35867E-04-4.21129E-02 6.32680E-15-1.88910E-13
 -1      4172 1.99527E+01 1.41601E-01-3.29354E-04-3.44237E-02 4.75846E-14-9.93450E-14
 -1      4173 1.99267E+01 1.82296E-01 5.08323E-04-3.38248E-02 5.74677E-14-4.91989E-13
 -1      4174 1.99648E+01 1.22191E-01-8.80119E-05-2.95705E-02 9.32422E-14-6.44437E-14
 -1      4175 1.99732E+01 1.04858E-01-2.59212E-04-2.36243E-02 1.75758E-13-4.07287E-14
 -1      4176 1.99553E+01 1.37120E-01 3.73611E-04-2.41256E-02 8.90670E-14-4.02819E-13
 -1      4177 1.99813E+01 8.96821E-02-2.86366E-05-1.99520E-02 3.20443E-13-6.05799E-14
 -1      4178 1.99865E+01 7.60332E-02-2.38177E-04-1.53961E-02 4.59618E-13 5.01705E-15
 -1      4179 1.99750E+01 1.01169E-01 2.55874E-04-1.65422E-02 1.95908E-13-1.40474E-13
 -1      4180 1.83186E+01-2.65430E-01-1.32931E-02 2.25548E+00-2.51801E-13 1.60063E-13
 -1      4181 1.89759E+01-6.07668E-01-6.09830E-05 2.29835E+00-1.75461E-13-3.50727E-14
 -1      4182 1.81430E+01 1.31986E+00-6.21590E-03 1.87062E-01-1.15964E-13-2.97636E-13
 -1      4183 1.78015E+01 1.28264E+00-1.13655E-02 2.04828E-01-1.00405E-13-3.12220E-13
 -1      4184 1.90869E+01-8.66510E-01 2.05096E-02 2.49398E+00-2.39209E-13-5.55198E-14
 -1      4185 1.83086E+01 7.30027E-01-9.10010E-03 1.11215E+00 2.27595E-14-7.06008E-14
 -1      4186 1.82247E+01 6.59404E-01 7.69181E-03 1.28003E+00-2.13319E-14-3.35573E-14
 -1      4187 1.94779E+01 5.95182E-01-2.71831E-03 2.87474E-01 1.69877E-13-3.46883E-13
 -1      4188 1.94145E+01 6.41599E-01 5.40663E-04 3.32646E-01 3.12505E-13-2.84490E-13
 -1      4189 1.93151E+01 6.83034E-01-3.37985E-03 3.76555E-01 3.60831E-13-3.34243E-13
 -1      4190 1.92399E+01 7.24960E-01 9.40657E-04 4.33705E-01 2.81600E-13-2.05358E-13
 -1      4191 1.93051E+01 7.09751E-01 4.06638E-03 2.85192E-01 3.10888E-13-2.15151E-13
 -1      4192 1.91182E+01 7.57955E-01-4.23190E-03 4.91799E-01 1.59691E-13-1.05516E-13
 -1      4193 1.90320E+01 7.88938E-01 1.63819E-03 5.64804E-01 7.37532E-14-4.51078E-14
 -1      4194 1.90962E+01 8.01629E-01 4.85209E-03 3.79776E-01 2.85550E-13-3.09233E-13
 -1      4195 1.96099E+01 5.04502E-01-2.18754E-03 2.18205E-01-1.50325E-13-9.57520E-14
 -1      4196 1.95581E+01 5.50976E-01 3.19377E-04 2.54070E-01-3.81871E-14-3.39092E-13
 -1      4197 1.94747E+01 6.10659E-01 3.34787E-03 2.13996E-01-1.11212E-15-1.55925E-13
 -1      4198 1.97148E+01 4.17605E-01-1.75281E-03 1.64238E-01-1.31225E-13 8.57679E-14
 -1      4199 1.96735E+01 4.61292E-01 2.01472E-04 1.92714E-01-1.34694E-13-8.25036E-14
 -1      4200 1.96104E+01 5.12679E-01 2.70691E-03 1.59993E-01-2.21030E-13-2.27641E-13
 -1      4201 1.97966E+01 3.38434E-01-1.39344E-03 1.22259E-01-9.92813E-14 1.43289E-13
 -1      4202 1.97645E+01 3.77702E-01 1.40960E-04 1.44787E-01-8.40646E-14 8.22015E-14
 -1      4203 1.97172E+01 4.21172E-01 2.14719E-03 1.18854E-01-2.04979E-13-5.38940E-14
 -1      4204 1.98590E+01 2.68976E-01-1.09630E-03 8.97524E-02-4.56788E-14 1.38658E-13
 -1      4205 1.98348E+01 3.03075E-01 1.10628E-04 1.07459E-01-8.50425E-14 1.35185E-13
 -1      4206 1.97996E+01 3.39204E-01 1.66918E-03 8.74784E-02-7.74348E-14-2.31120E-13
 -1      4207 1.99057E+01 2.09846E-01-8.52259E-04 6.47538E-02-1.82849E-13 3.03149E-13
 -1      4208 1.98878E+01 2.38637E-01 9.48898E-05 7.85496E-02-1.38035E-13 2.55491E-13
 -1      4209 1.98621E+01 2.68149E-01 1.27028E-03 6.35904E-02-9.30382E-14-1.94517E-13
 -1      4210 1.99397E+01 1.60760E-01-6.54434E-04 4.57005E-02 1.58872E-13 9.17249E-14
 -1      4211 1.99269E+01 1.84497E-01 8.51525E-05 5.63385E-02 1.38688E-14 2.32968E-13
 -1      4212 1.99085E+01 2.08200E-01 9.44913E-04 4.54826E-02 4.92424E-14 8.80939E-14
 -1      4213 1.99638E+01 1.20899E-01-4.84742E-04 3.13319E-02 1.89302E-13-1.07505E-13
 -1      4214 1.99549E+01 1.40066E-01 7.80252E-05 3.94394E-02 1.60287E-13 2.78128E-14
 -1      4215 1.99420E+01 1.58781E-01 6.84382E-04 3.18552E-02 1.81375E-13-1.41907E-13
 -1      4216 1.99805E+01 8.90993E-02-2.83859E-04 2.06877E-02 1.46566E-13-2.61039E-13
 -1      4217 1.99744E+01 1.04161E-01 2.96649E-05 2.66689E-02 2.69019E-13-1.27588E-13
 -1      4218 1.99655E+01 1.18858E-01 4.52333E-04 2.16545E-02 3.10971E-13-1.73883E-13
 -1      4219 1.99912E+01 6.42413E-02-1.37251E-04 1.28862E-02 1.44428E-13-2.88105E-13
 -1      4220 1.99871E+01 7.58963E-02-1.89267E-05 1.72634E-02 1.21094E-13-3.48977E-13
 -1      4221 1.99815E+01 8.69551E-02 2.58450E-04 1.38293E-02 1.77185E-13-3.40986E-13
 -1      4222 1.53925E+01 8.45152E-01-8.69538E-03-1.16201E+00-7.19330E-14-3.44093E-13
 -1      4223 1.70904E+01 4.80138E-01 4.12206E-03-1.83762E+00-1.21238E-13-2.37142E-13
 -1      4224 1.77992E+01 3.84889E-01 1.19297E-02-1.81464E+00-1.35480E-13-1.42273E-13
 -1      4225 1.75288E+01 1.26482E+00-6.92568E-03 1.58775E-01-1.01498E-13-3.07943E-13
 -1      4226 1.70894E+01 1.22264E+00-1.08572E-02 1.74362E-01-7.10104E-14-3.24677E-13
 -1      4227 1.71456E+01 1.23201E+00 2.15731E-02-3.37074E-01-7.07073E-14-2.77255E-13
 -1      4228 1.77332E+01 1.31131E+00 2.14450E-02-1.69505E-01-9.60557E-14-2.51628E-13
 -1      4229 1.59550E+01 8.00298E-01 2.51464E-02-1.40628E+00-7.85145E-14-3.32963E-13
 -1      4230 1.66216E+01 5.73906E-01 2.81154E-03-1.70025E+00-9.78167E-14-3.20987E-13
 -1      4231 1.68700E+01 7.75893E-01-1.46161E-02-1.33738E+00-2.15809E-14-2.41751E-13
 -1      4232 1.59953E+01 9.52461E-01-1.12211E-02-9.57622E-01 1.19994E-14-2.67558E-13
 -1      4233 1.79798E+01 5.50005E-01-8.81233E-03 1.48179E+00-6.83248E-14 5.75733E-14
 -1      4234 1.79220E+01 3.97482E-01 9.44715E-03 1.70928E+00-1.07315E-13 1.62615E-13
 -1      4235 1.77532E+01 7.64555E-01 1.69551E-03 1.25557E+00 4.34663E-14 2.10163E-13
 -1      4236 1.99967E+01 4.57828E-02-1.37747E-04 5.19367E-03 3.53521E-13-3.50199E-13
 -1      4237 1.99977E+01 4.40117E-02-3.85390E-05 6.69454E-03 3.11968E-13-1.89947E-13
 -1      4238 1.99966E+01 4.89592E-02 1.92334E-05 8.47545E-03 4.08969E-13-3.60106E-13
 -1      4239 1.99942E+01 5.50558E-02 1.31122E-04 5.39833E-03 2.21072E-13-3.73451E-13
 -1      4240 1.86855E+01 1.39517E+00-5.26828E-03 1.74383E-01-6.93401E-14-3.48318E-13
 -1      4241 1.84323E+01 1.35639E+00-6.46987E-03 1.99763E-01-1.03508E-13-3.22617E-13
 -1      4242 1.82981E+01 1.37383E+00 1.82427E-02-6.06984E-02-9.12461E-14-2.96984E-13
 -1      4243 1.94031E+01 1.34626E+00-7.50340E-04-5.09643E-01 4.04230E-14-3.10001E-13
 -1      4244 1.93925E+01 1.57803E+00 2.80854E-03-3.23558E-01 1.22082E-14-3.57650E-13
 -1      4245 1.93199E+01 1.70807E+00-3.92921E-03 6.78263E-02-8.54585E-14-3.75555E-13
 -1      4246 1.92385E+01 1.62797E+00 5.17420E-04 1.00572E-01-7.97598E-14-3.84906E-13
 -1      4247 1.93083E+01 1.72142E+00-1.85547E-03 1.43413E-03-6.24414E-14-3.95805E-13
 -1      4248 1.93280E+01 1.61513E+00-3.25677E-03-2.59022E-01-3.42269E-14-3.37625E-13
 -1      4249 1.61749E+01 7.10641E-01 2.85855E-02 1.69293E+00-2.11219E-13 3.23179E-13
 -1      4250 1.60675E+01 9.02564E-01-1.50854E-02 1.19192E+00-1.05590E-13 1.59272E-13
 -1      4251 1.68584E+01 4.23722E-01 3.14584E-03 1.90512E+00-2.33352E-13 3.96615E-13
 -1      4252 1.79172E+01 5.68801E-01-9.89519E-03-1.56758E+00-2.24880E-14-1.21199E-13
 -1      4253 1.99917E+01 6.46678E-02 2.13656E-05-1.20561E-02 2.36389E-13-2.50453E-13
 -1      4254 1.99949E+01 5.44154E-02-2.13568E-05-9.01522E-03 1.29016E-13-6.05741E-13
 -1      4255 1.83226E+01-7.57179E-01 1.08593E-02 2.75595E+00-2.83476E-13-5.76850E-15
 -1      4256 1.85188E+01 7.84185E-01 4.78501E-03 9.67136E-01-6.27344E-14-8.49944E-14
 -1      4257 1.81771E+01 8.88014E-01 6.10041E-03 9.19561E-01-1.38944E-14-3.92458E-14
 -1      4258 1.86139E+01 8.05293E-01-6.96362E-03 8.42288E-01-1.18339E-13-4.83918E-14
 -1      4259 1.88427E+01 8.74249E-01 5.66659E-03 5.06833E-01 1.37620E-14-1.84532E-13
 -1      4260 1.88847E+01 8.05411E-01-5.37604E-03 6.42447E-01-7.55339E-14-3.33796E-15
 -1      4261 1.87906E+01 8.16467E-01 2.81443E-03 7.37073E-01-1.19093E-13-7.80461E-14
 -1      4262 1.86881E+01 8.92249E-01 3.00276E-04-1.06313E+00-5.72264E-15-1.99319E-13
 -1      4263 1.88241E+01 9.67563E-01-8.83449E-03-9.43805E-01 6.79784E-15-2.03719E-13
 -1      4264 1.66108E+01 1.02997E+00-8.24575E-04-7.85570E-01-2.11727E-14-2.82110E-13
 -1      4265 1.73144E+01 4.09049E-01-1.38300E-03 1.85842E+00-1.51765E-13 3.99858E-13
 -1      4266 1.77652E+01 7.77255E-02 6.48229E-04 2.11240E+00-2.80921E-13 2.92974E-13
 -1      4267 1.99952E+01 5.41447E-02-2.82368E-05 1.08937E-02 2.59166E-13-3.64081E-13
 -1      4268 1.88293E+01 1.42880E+00-4.25703E-03 1.65108E-01-5.88285E-14-3.58764E-13
 -1      4269 1.87076E+01 1.41440E+00 1.54038E-03-3.94176E-02-4.43487E-14-3.39941E-13
 -1      4270 1.89499E+01 1.47386E+00-2.62928E-03 1.27550E-01-5.66694E-14-3.73102E-13
 -1      4271 1.90199E+01 1.05116E+00 5.67279E-05-8.44355E-01 1.30264E-14-2.26828E-13
 -1      4272 1.91386E+01 1.12485E+00-5.97751E-03-7.34728E-01 1.43549E-14-2.44784E-13
 -1      4273 1.87760E+01 1.15741E+00 1.26234E-02-7.46763E-01-1.25950E-14-2.48036E-13
 -1      4274 1.99887E+01 6.78111E-02-5.60636E-07-2.06195E-03 1.43538E-13 4.38285E-14
 -1      4275 1.99885E+01 6.78552E-02 4.23752E-06 1.91034E-03 1.93482E-13-7.11100E-14
 -1      4276 1.99898E+01 6.47981E-02-1.76203E-04 6.98128E-03 9.19599E-14-4.42130E-13
 -1      4277 1.99917E+01 6.23510E-02 9.95587E-05 8.95391E-03 1.89699E-13-4.73716E-13
 -1      4278 1.93013E+01 1.24971E+00-1.50701E-03-6.06069E-01 1.27356E-14-2.74946E-13
 -1      4279 1.99855E+01 7.60687E-02 4.54865E-05 5.43941E-03 1.66756E-13-1.95571E-13
 -1      4280 1.99874E+01 7.35460E-02 1.71966E-04-1.00573E-02 1.78387E-13-3.55078E-13
 -1      4281 1.77354E+01-2.52271E-01-1.32281E-03 2.43656E+00-3.07982E-13 2.81910E-13
 -1      4282 1.99979E+01 4.43811E-02-8.13201E-05-7.17324E-03 2.34085E-13-5.75670E-13
 -1      4283 1.63617E+01 1.19974E+00-1.07813E-02 2.15978E-01 2.97234E-14-1.16532E-13
 -1      4284 1.68429E+01 1.21216E+00-5.11441E-03 1.70934E-01 2.97707E-14-2.47815E-14
 -1      4285 1.62251E+01 1.16196E+00 2.41725E-02 6.59655E-01 6.66427E-15-9.37388E-14
 -1      4286 1.72185E+01 1.20965E+00-9.34460E-03 9.83892E-02 4.87880E-15 2.73897E-14
 -1      4287 1.75787E+01 1.19766E+00-2.36186E-03 7.07459E-02 5.82684E-14 7.57837E-14
 -1      4288 1.70915E+01 1.18737E+00 8.94155E-03 4.36458E-01 8.67643E-14-5.39621E-14
 -1      4289 1.78629E+01 1.16412E+00-7.00616E-03 2.03523E-02 1.01612E-13 2.15751E-14
 -1      4290 1.81361E+01 1.13003E+00-1.79457E-03 2.71211E-03 1.40804E-13-5.40772E-14
 -1      4291 1.77577E+01 1.16497E+00 7.97320E-03 2.70075E-01 8.59904E-14 1.35414E-13
 -1      4292 1.83567E+01 1.08151E+00-4.97528E-03-2.92372E-02 4.86690E-14-8.60390E-14
 -1      4293 1.85672E+01 1.03266E+00-1.40168E-03-3.79831E-02-3.72900E-14-1.38409E-13
 -1      4294 1.82647E+01 1.09881E+00 6.44059E-03 1.58670E-01 3.76006E-14-9.99634E-16
 -1      4295 1.87412E+01 9.74631E-01-3.61617E-03-5.71638E-02 3.82078E-14-2.29121E-13
 -1      4296 1.89052E+01 9.17556E-01-1.15366E-03-5.90083E-02 9.49918E-14-1.06336E-13
 -1      4297 1.86618E+01 1.00293E+00 5.25726E-03 8.64184E-02-1.58126E-14-2.36406E-13
 -1      4298 1.90433E+01 8.55346E-01-2.67421E-03-6.95360E-02 8.87568E-14-1.40569E-14
 -1      4299 1.91715E+01 7.95365E-01-9.81168E-04-6.65900E-02 2.36761E-14-4.96356E-14
 -1      4300 1.89758E+01 8.89895E-01 4.29459E-03 4.08749E-02 1.06747E-13-1.44045E-13
 -1      4301 1.92808E+01 7.33257E-01-1.99610E-03-7.14402E-02-5.18306E-14-2.68575E-14
 -1      4302 1.93808E+01 6.74364E-01-8.41589E-04-6.55653E-02 2.09048E-14-4.16435E-14
 -1      4303 1.92245E+01 7.70220E-01 3.48974E-03 1.34723E-02 1.00319E-13 7.38127E-14
 -1      4304 1.94667E+01 6.15464E-01-1.49435E-03-6.68830E-02-4.32056E-15-6.32319E-14
 -1      4305 1.95441E+01 5.60395E-01-7.16096E-04-5.95550E-02-9.11035E-16-1.62557E-13
 -1      4306 1.94207E+01 6.51981E-01 2.80862E-03-1.86084E-03 7.69674E-15-5.61171E-14
 -1      4307 1.96111E+01 5.06704E-01-1.11724E-03-5.88444E-02 7.38385E-15-3.20492E-13
 -1      4308 1.96704E+01 4.57115E-01-5.99044E-04-5.11318E-02 1.16956E-13-2.95524E-13
 -1      4309 1.95742E+01 5.40839E-01 2.23141E-03-9.43207E-03-1.10985E-13-3.72904E-13
 -1      4310 1.97219E+01 4.09712E-01-8.31816E-04-4.94050E-02 2.10791E-13-4.05919E-13
 -1      4311 1.97667E+01 3.66402E-01-4.90595E-04-4.20116E-02 3.04141E-14-3.31241E-13
 -1      4312 1.96929E+01 4.40313E-01 1.74579E-03-1.22427E-02 2.63700E-14-6.71798E-13
 -1      4313 1.98057E+01 3.25656E-01-6.15473E-04-3.99134E-02-1.68944E-13-3.23474E-13
 -1      4314 1.98392E+01 2.88791E-01-3.92667E-04-3.32494E-02-2.32100E-13-3.54772E-13
 -1      4315 1.97834E+01 3.52187E-01 1.34259E-03-1.23244E-02-1.03287E-13-6.59716E-13
 -1      4316 1.98681E+01 2.54571E-01-4.51756E-04-3.11621E-02-2.27251E-13-3.38906E-13
 -1      4317 1.98926E+01 2.23886E-01-3.07045E-04-2.54210E-02-1.52432E-13-5.89782E-13
 -1      4318 1.98514E+01 2.76940E-01 1.01326E-03-1.10022E-02-1.92468E-13-6.94246E-13
 -1      4319 1.99137E+01 1.95730E-01-3.28072E-04-2.35471E-02-4.25675E-14-5.71040E-13
 -1      4320 1.99313E+01 1.70692E-01-2.33999E-04-1.87739E-02 9.87554E-14-5.09146E-13
 -1      4321 1.99015E+01 2.14139E-01 7.48083E-04-9.10274E-03-1.17557E-13-7.09657E-13
 -1      4322 1.99463E+01 1.47951E-01-2.33079E-04-1.71935E-02 2.22215E-13-5.21409E-13
 -1      4323 1.99585E+01 1.27859E-01-1.79932E-04-1.33370E-02 1.34381E-13-3.74747E-13
 -1      4324 1.99375E+01 1.62761E-01 5.28965E-04-7.11650E-03 1.43788E-13-4.36073E-13
 -1      4325 1.99688E+01 1.09912E-01-1.27167E-04-1.20951E-02 1.73063E-13-2.56209E-13
 -1      4326 1.99767E+01 9.38678E-02-2.56327E-04-8.99563E-03 2.95538E-13-1.27576E-13
 -1      4327 1.99627E+01 1.21284E-01 2.82104E-04-5.33464E-03 3.15404E-13-2.59637E-13
 -1      4328 1.69474E+01 9.86175E-01 8.32007E-03-9.88606E-01-3.00437E-14-2.51178E-13
 -1      4329 1.73487E+01 8.95944E-01 3.19078E-03-1.12272E+00-6.77186E-14-1.87422E-13
 -1      4330 1.70328E+01 1.10033E+00-1.43692E-02-6.20755E-01-4.48686E-14-2.61930E-13
 -1      4331 1.84424E+01 8.01681E-01-1.24128E-02-1.19284E+00 9.04040E-15-1.74246E-13
 -1      4332 1.83596E+01 1.03230E+00 1.62461E-02-9.45987E-01-2.59236E-14-2.06441E-13
 -1      4333 1.83038E+01 7.12934E-01 4.15282E-03-1.33921E+00 1.00206E-14-1.49346E-13
 -1      4334 1.92030E+01 1.49452E+00 3.07006E-05-3.07270E-01-3.74441E-14-3.21984E-13
 -1      4335 1.92896E+01 1.65729E+00-9.35243E-04-1.61190E-01-3.75692E-14-3.55237E-13
 -1      4336 1.92712E+01 1.67369E+00-2.43308E-03-9.37611E-02-4.56623E-14-3.83405E-13
 -1      4337 1.94251E+01 6.29224E-01-2.92430E-03 9.87891E-02-4.88841E-14-4.71235E-14
 -1      4338 1.93477E+01 6.84161E-01-8.57430E-04 1.24427E-01 1.39201E-13-2.90129E-14
 -1      4339 1.70599E+01 7.24016E-01 3.58235E-03 1.47055E+00-8.02625E-14 3.12982E-13
 -1      4340 1.89972E+01 8.44608E-01-4.49756E-03 2.00285E-01 2.31094E-13-2.19026E-13
 -1      4341 1.88801E+01 8.94727E-01-1.03480E-03 2.47072E-01 1.19087E-13-1.79759E-13
 -1      4342 1.96920E+01 4.28894E-01-1.85149E-03 4.83275E-02-1.24788E-13-3.29870E-13
 -1      4343 1.96440E+01 4.75995E-01-5.52722E-04 6.27940E-02-1.96301E-13-3.23505E-13
 -1      4344 1.97818E+01 3.44122E-01-1.44578E-03 3.35688E-02-2.09486E-14-5.21942E-13
 -1      4345 1.97451E+01 3.85403E-01-4.12318E-04 4.44860E-02-5.34457E-14-5.58302E-13
 -1      4346 1.98496E+01 2.71266E-01-1.11173E-03 2.31270E-02-1.85127E-13-4.91558E-13
 -1      4347 1.98220E+01 3.06454E-01-2.92033E-04 3.13629E-02-1.43416E-13-4.96985E-13
 -1      4348 1.98998E+01 2.10173E-01-8.39474E-04 1.57370E-02 1.50693E-14-4.07882E-13
 -1      4349 1.98796E+01 2.39461E-01-1.94132E-04 2.19304E-02-7.13209E-14-3.42788E-13
 -1      4350 1.99362E+01 1.60040E-01-6.13825E-04 1.05186E-02 8.34698E-14-2.25812E-13
 -1      4351 1.99217E+01 1.83904E-01-1.16334E-04 1.51392E-02 9.08168E-14-3.66827E-13
 -1      4352 1.99618E+01 1.19863E-01-3.58926E-04 6.88946E-03 3.32626E-13-2.43337E-13
 -1      4353 1.99517E+01 1.38758E-01-4.60293E-05 1.02687E-02 2.13991E-13-2.11911E-13
 -1      4354 1.99786E+01 8.96651E-02-1.38493E-04 7.84038E-03 2.20347E-13-1.85791E-13
 -1      4355 1.73001E+01 1.00998E+00-7.35364E-03 8.35063E-01 1.00903E-13 4.64514E-14
 -1      4356 1.70488E+01 9.41680E-01-2.28899E-04 1.01047E+00 6.48199E-14 1.31121E-13
 -1      4357 1.99952E+01 5.29309E-02 2.46011E-05-7.24870E-03 1.72844E-13-4.69013E-13
 -1      4358 1.77540E+01 8.26205E-01 6.25626E-03-1.26629E+00-3.52363E-14-1.65204E-13
 -1      4359 1.91118E+01 1.31735E+00 1.43460E-03-5.34807E-01-2.69776E-14-2.82615E-13
 -1      4360 1.92352E+01 7.38126E-01-3.62965E-03 1.40735E-01 1.88181E-13-7.63863E-14
 -1      4361 1.91393E+01 7.92934E-01-9.81386E-04 1.75201E-01 2.46572E-13-1.69222E-13
 -1      4362 1.91425E+01 1.56540E+00-2.29011E-03 1.34727E-01-8.23492E-14-3.78893E-13
 -1      4363 1.84979E+01 1.24023E+00-8.03546E-03-4.28518E-01-4.62924E-14-2.84031E-13
 -1      4364 1.82065E+01 1.18386E+00-1.39217E-02-4.89525E-01-6.08883E-14-2.55536E-13
 -1      4365 1.95750E+01 5.24708E-01-2.33949E-03 6.92095E-02-1.50509E-13-2.88808E-13
 -1      4366 1.95136E+01 5.76674E-01-7.05974E-04 8.84218E-02-1.38218E-13-3.06955E-13
 -1      4367 1.79677E+01 1.13657E+00-7.09935E-03-5.82643E-01-8.03747E-14-2.38828E-13
 -1      4368 1.87118E+01 1.30052E+00-4.42739E-03-3.62339E-01-3.80466E-14-3.01615E-13
 -1      4369 1.65660E+01 9.69319E-01-1.17259E-02 1.01547E+00-4.79087E-15 1.27268E-13
 -1      4370 1.87012E+01 9.38917E-01-5.60037E-03 2.84984E-01 6.45065E-14-2.73627E-13
 -1      4371 1.73614E+01 1.14138E+00-1.13271E-02-5.25029E-01-8.36397E-14-2.65488E-13
 -1      4372 1.89075E+01 1.41462E+00-8.53884E-04-2.52493E-01-3.29309E-14-3.14089E-13
 -1      4373 1.85387E+01 9.10878E-01 6.34345E-03 6.79934E-01-1.86338E-13-2.06508E-13
 -1      4374 1.85600E+01 9.78100E-01-9.39708E-04 3.49250E-01-3.73712E-14-2.56205E-13
 -1      4375 1.78762E+01 1.03578E+00-8.63708E-03 5.79949E-01-4.78594E-15 3.35626E-14
 -1      4376 1.76795E+01 1.02626E+00 1.25558E-03 7.07077E-01 8.26550E-14 8.26017E-14
 -1      4377 1.99785E+01 9.08176E-02 1.26960E-04-2.21146E-03 2.42171E-13-6.60247E-14
 -1      4378 1.99725E+01 1.02795E-01 2.31299E-05 6.42035E-03 2.90205E-13-2.08174E-13
 -1      4379 1.77052E+01 1.08734E+00-1.17192E-02-6.69796E-01-7.37331E-14-2.29009E-13
 -1      4380 1.90486E+01 1.54264E+00 3.83358E-03-1.65842E-02-6.62913E-14-3.43524E-13
 -1      4381 1.99831E+01 8.22131E-02 8.60707E-05-6.56280E-03 2.39736E-13-1.31776E-13
 -1      4382 1.99878E+01 6.96598E-02-1.23104E-04-3.89257E-03 1.24854E-13-2.54979E-13
 -1      4383 1.81656E+01 1.02812E+00-4.88542E-04 4.95347E-01-4.23773E-14-6.64943E-14
 -1      4384 1.83337E+01 1.00803E+00-7.02798E-03 4.05902E-01-6.76171E-14-8.71649E-14
 -1      4385 1.99921E+01 5.94657E-02-1.23881E-04-5.60434E-03-9.69315E-17-3.12545E-13
 -1      4386 1.88875E+01 1.44733E+00 3.08472E-03-1.36647E-01-3.99695E-14-3.20002E-13
 -1      4387 1.77312E+01 1.00572E+00 1.20831E-03-9.40879E-01-5.62471E-14-2.11680E-13
 -1      4388 1.91951E+01 1.59119E+00 3.54799E-03-9.30358E-02-6.53692E-14-3.53863E-13
 -1      4389 1.90119E+01 1.48532E+00 3.81661E-04-1.29010E-01-3.14560E-14-3.32008E-13
 -3
    1PSTEP                         3           1           1          
  100CL  101 1.000000000        4389                     0    1           1
 -4  TOSTRAIN    6    1
 -5  EXX         1    4    1    1
 -5  EYY         1    4    2    2
 -5  EZZ         1    4    3    3
 -5  EXY         1    4    1    2
 -5  EYZ         1    4    2    3
 -5  EZX         1    4    3    1
 -1         1 3.14801E-04-9.76089E-05-7.98159E-05 8.06788E-06-6.77388E-19-7.89967E-18
 -1         2 3.65688E-05-1.11037E-04 2.00426E-05-5.11565E-07-4.39486E-18 1.65958E-18
 -1         3 9.52380E-05-2.85702E-05-2.85721E-05 1.60083E-09-2.61228E-18-2.49240E-18
 -1         4 9.52380E-05-2.85702E-05-2.85722E-05-1.40047E-09 1.89445E-18-9.95360E-19
 -1         5 1.41975E-04-2.11689E-05-4.23442E-05 3.79996E-05-3.01014E-19 2.21215E-17
 -1         6 1.43773E-04 2.56872E-10-4.39581E-05-5.26590E-05-1.24408E-18 2.33358E-17
 -1         7 9.09902E-05-5.83440E-07-3.91087E-05-2.83389E-05-1.81794E-19 5.57260E-18
 -1         8 8.57593E-05 4.78960E-08-3.65480E-05-1.90247E-05-2.77562E-19-2.20497E-19
 -1         9 8.34150E-05 5.37554E-08-3.55754E-05-1.41783E-05-2.44144E-19-3.62381E-18
 -1        10 8.21517E-05 2.85704E-08-3.50372E-05-1.05757E-05-1.91972E-19-5.31119E-18
 -1        11 8.13314E-05 1.80850E-08-3.47015E-05-7.64315E-06-1.62379E-19-6.17873E-18
 -1        12 8.07708E-05 1.47100E-08-3.44788E-05-5.19574E-06-9.99069E-20-6.58065E-18
 -1        13 8.04004E-05 1.47775E-08-3.43342E-05-3.00287E-06-4.61583E-20-6.78118E-18
 -1        14 8.02206E-05 1.51138E-08-3.42642E-05-9.78378E-07-1.50117E-20-6.88821E-18
 -1        15 8.02286E-05 1.49052E-08-3.42665E-05 9.99006E-07 1.77778E-20-6.89559E-18
 -1        16 8.04215E-05 1.41928E-08-3.43401E-05 3.04691E-06 4.39398E-20-6.81217E-18
 -1        17 8.07976E-05 1.32338E-08-3.44854E-05 5.28345E-06 1.02127E-19-6.57955E-18
 -1        18 8.13536E-05 1.67645E-08-3.47057E-05 7.78390E-06 1.27611E-19-6.12969E-18
 -1        19 8.21657E-05 2.82057E-08-3.50397E-05 1.07814E-05 1.94970E-19-5.24190E-18
 -1        20 8.34136E-05 6.00337E-08-3.55787E-05 1.44510E-05 2.54428E-19-3.55429E-18
 -1        21 8.56995E-05 1.30106E-07-3.65771E-05 1.92792E-05 3.10517E-19-2.21532E-19
 -1        22 9.19111E-05-1.60186E-07-3.87839E-05 2.71357E-05 7.13625E-20 6.49241E-18
 -1        23 1.12791E-04-3.80775E-05-3.53547E-05-4.15699E-06-8.02008E-19 1.89705E-17
 -1        24 9.37583E-05-2.79929E-05-2.92665E-05 4.16952E-07-2.35300E-19 1.49903E-17
 -1        25 9.10242E-05-2.74316E-05-2.74973E-05 3.83453E-07-9.99466E-20 1.10392E-17
 -1        26 9.09623E-05-2.73809E-05-2.72850E-05 2.14666E-07-6.04355E-20 8.16010E-18
 -1        27 9.22765E-05-2.77470E-05-2.76718E-05 1.59429E-07-7.60344E-20 6.05854E-18
 -1        28 9.44677E-05-2.83820E-05-2.83459E-05 1.35003E-07-9.36741E-21 4.96006E-18
 -1        29 9.73617E-05-2.92368E-05-2.92273E-05 1.30315E-07 6.32983E-20 4.26277E-18
 -1        30 1.00902E-04-3.02898E-05-3.02983E-05 1.40532E-07-9.43160E-20 3.26222E-18
 -1        31 1.05060E-04-3.15283E-05-3.15491E-05 1.63019E-07 7.78666E-21 2.12660E-18
 -1        32 1.09750E-04-3.29250E-05-3.29496E-05 1.93346E-07-1.39587E-19 1.65952E-18
 -1        33 1.14734E-04-3.44080E-05-3.44177E-05 2.20185E-07 2.38262E-19 1.13820E-18
 -1        34 1.19483E-04-3.58208E-05-3.57810E-05 2.18352E-07-4.26636E-19 1.10801E-18
 -1        35 1.23035E-04-3.68807E-05-3.67435E-05 1.42851E-07 2.21122E-20 8.26707E-19
 -1        36 1.23975E-04-3.71697E-05-3.68993E-05-6.38081E-08 1.92020E-19 1.15397E-18
 -1        37 1.20760E-04-3.62251E-05-3.58571E-05-4.29099E-07-3.28553E-19 1.74730E-18
 -1        38 1.12655E-04-3.38118E-05-3.35169E-05-8.60938E-07 6.82060E-20 8.06693E-19
 -1        39 1.01084E-04-3.03371E-05-3.03679E-05-1.09510E-06 5.16974E-20-3.49454E-19
 -1        40 9.02458E-05-2.70562E-05-2.75456E-05-8.24516E-07 5.00279E-20 2.42543E-19
 -1        41 8.54077E-05-2.55844E-05-2.63203E-05-6.31159E-08-5.64369E-20-4.79432E-19
 -1        42 8.92829E-05-2.67632E-05-2.73093E-05 7.45499E-07-3.11933E-19-3.01030E-18
 -1        43 9.98067E-05-2.99525E-05-3.00423E-05 1.09652E-06-3.23973E-19-4.35671E-18
 -1        44 1.11831E-04-3.35685E-05-3.32976E-05 9.19200E-07 4.72080E-19-2.08058E-18
 -1        45 1.20847E-04-3.62560E-05-3.58844E-05 4.95334E-07-1.12161E-19-7.81600E-19
 -1        46 1.25056E-04-3.74970E-05-3.72106E-05 1.13660E-07-9.43466E-20-2.04698E-18
 -1        47 1.24989E-04-3.74681E-05-3.73168E-05-1.11662E-07 3.29979E-20 4.94002E-19
 -1        48 1.22162E-04-3.66241E-05-3.65785E-05-1.97461E-07 7.67806E-20 1.09176E-18
 -1        49 1.18051E-04-3.54011E-05-3.54133E-05-2.00309E-07-2.97291E-19 1.86861E-18
 -1        50 1.13686E-04-3.41028E-05-3.41361E-05-1.67688E-07 7.18285E-20 1.08066E-18
 -1        51 1.09647E-04-3.28992E-05-3.29339E-05-1.26961E-07 3.85410E-20 1.75816E-18
 -1        52 1.06183E-04-3.18650E-05-3.18934E-05-9.01923E-08 1.80539E-19 1.73058E-18
 -1        53 1.03353E-04-3.10182E-05-3.10388E-05-6.10638E-08-3.38073E-19 9.94304E-19
 -1        54 1.01118E-04-3.03479E-05-3.03617E-05-3.95383E-08-1.76333E-19-1.59016E-19
 -1        55 9.93970E-05-2.98306E-05-2.98393E-05-2.43038E-08-3.34615E-19-1.77692E-18
 -1        56 9.80996E-05-2.94399E-05-2.94451E-05-1.38568E-08 1.64102E-19-2.61812E-18
 -1        57 9.71408E-05-2.91507E-05-2.91534E-05-6.89280E-09 1.79263E-19-2.38373E-18
 -1        58 9.64465E-05-2.89409E-05-2.89421E-05-2.39441E-09 1.67567E-19-2.43705E-18
 -1        59 9.59551E-05-2.87921E-05-2.87923E-05 3.92604E-10 8.40197E-20-2.85747E-18
 -1        60 9.56166E-05-2.86893E-05-2.86890E-05 2.01333E-09-5.02563E-20-1.37832E-19
 -1        61 9.53917E-05-2.86209E-05-2.86203E-05 2.85645E-09 5.42287E-19 3.41084E-18
 -1        62 9.52499E-05-2.85775E-05-2.85768E-05 3.19690E-09-4.88277E-19 2.42704E-18
 -1        63 9.51675E-05-2.85522E-05-2.85514E-05 3.22783E-09-2.71470E-19 1.36108E-18
 -1        64 9.51271E-05-2.85395E-05-2.85388E-05 3.08375E-09-3.14249E-19-1.98920E-18
 -1        65 9.51153E-05-2.85356E-05-2.85350E-05 2.85689E-09-1.15675E-19 9.25051E-19
 -1        66 9.51225E-05-2.85374E-05-2.85369E-05 2.60828E-09-2.37151E-19 2.29443E-18
 -1        67 9.51416E-05-2.85429E-05-2.85425E-05 2.37364E-09 1.12734E-18 3.59330E-18
 -1        68 9.51670E-05-2.85503E-05-2.85500E-05 2.16242E-09 2.41201E-19 5.76740E-18
 -1        69 9.51944E-05-2.85584E-05-2.85580E-05 1.93115E-09 3.60533E-19 4.14005E-18
 -1        70 9.52189E-05-2.85657E-05-2.85650E-05 1.43001E-09-5.56252E-19 2.22480E-18
 -1        71 9.52352E-05-2.85709E-05-2.85697E-05 4.78576E-10-3.18567E-19 5.63642E-19
 -1        72 1.02144E-04-3.05671E-05-3.41454E-05-1.97727E-06 4.06179E-19 1.97659E-17
 -1        73 9.35322E-05-2.78126E-05-2.91817E-05-3.45434E-07 1.91198E-19 1.45847E-17
 -1        74 9.09643E-05-2.72648E-05-2.75266E-05-1.27424E-07 9.96786E-20 1.08867E-17
 -1        75 9.08553E-05-2.72856E-05-2.72867E-05-9.47763E-08 4.13921E-21 8.29219E-18
 -1        76 9.20136E-05-2.76295E-05-2.76065E-05-7.91537E-08 6.13594E-20 6.49256E-18
 -1        77 9.39220E-05-2.81913E-05-2.81831E-05-7.34119E-08 9.11801E-20 4.92354E-18
 -1        78 9.63365E-05-2.89072E-05-2.89110E-05-7.60214E-08-1.62645E-19 4.23039E-18
 -1        79 9.91003E-05-2.97297E-05-2.97383E-05-8.58665E-08 7.63744E-20 3.04018E-18
 -1        80 1.02055E-04-3.06103E-05-3.06161E-05-1.01621E-07-5.78129E-20 1.42311E-18
 -1        81 1.04981E-04-3.14833E-05-3.14755E-05-1.19931E-07 1.98964E-19 7.56394E-19
 -1        82 1.07546E-04-3.22509E-05-3.22143E-05-1.33138E-07-8.51372E-20-2.65568E-19
 -1        83 1.09280E-04-3.27745E-05-3.26913E-05-1.27282E-07 3.78466E-19-1.22896E-18
 -1        84 1.09599E-04-3.28815E-05-3.27394E-05-8.26130E-08-2.29363E-19-1.64118E-18
 -1        85 1.07934E-04-3.24004E-05-3.22080E-05 1.90297E-08 6.28657E-22-4.99220E-19
 -1        86 1.03997E-04-3.12383E-05-3.10420E-05 1.76934E-07 3.13088E-20-1.70117E-18
 -1        87 9.81412E-05-2.94881E-05-2.93726E-05 3.50807E-07-1.44759E-19-1.39109E-18
 -1        88 9.16038E-05-2.75092E-05-2.75632E-05 4.58385E-07-4.39063E-20-1.14466E-18
 -1        89 8.63300E-05-2.58886E-05-2.61377E-05 4.15008E-07 2.05291E-19-3.85045E-18
 -1        90 8.42152E-05-2.52163E-05-2.55808E-05 2.06246E-07-2.98566E-19-4.73412E-18
 -1        91 8.61145E-05-2.57737E-05-2.60996E-05-8.27436E-08-9.44872E-20-3.29064E-18
 -1        92 9.13398E-05-2.73577E-05-2.75233E-05-3.17035E-07-7.37465E-20-1.85683E-18
 -1        93 9.80705E-05-2.94067E-05-2.93845E-05-4.12348E-07 3.38150E-19-2.25681E-18
 -1        94 1.04336E-04-3.13106E-05-3.11612E-05-3.72576E-07 2.05860E-20-6.13460E-18
 -1        95 1.08819E-04-3.26660E-05-3.24764E-05-2.58449E-07-1.47954E-19-5.90616E-18
 -1        96 1.11098E-04-3.33490E-05-3.31837E-05-1.33651E-07 1.15053E-19-4.15677E-18
 -1        97 1.11425E-04-3.34410E-05-3.33278E-05-3.50384E-08-1.57354E-19-3.63821E-18
 -1        98 1.10361E-04-3.31158E-05-3.30549E-05 2.72415E-08-3.45720E-19-3.87652E-18
 -1        99 1.08500E-04-3.25531E-05-3.25315E-05 5.82171E-08 2.34552E-19-6.30647E-18
 -1       100 1.06318E-04-3.18961E-05-3.18991E-05 6.77391E-08-8.15626E-20-7.37430E-18
 -1       101 1.04139E-04-3.12415E-05-3.12570E-05 6.48679E-08 1.24696E-19-6.55586E-18
 -1       102 1.02151E-04-3.06451E-05-3.06652E-05 5.60924E-08 2.05900E-19-7.94049E-18
 -1       103 1.00443E-04-3.01329E-05-3.01531E-05 4.54185E-08-1.97201E-19-8.37012E-18
 -1       104 9.90386E-05-2.97119E-05-2.97300E-05 3.50258E-08 4.00140E-19-7.50635E-18
 -1       105 9.79238E-05-2.93777E-05-2.93927E-05 2.59265E-08 7.80619E-20-5.83972E-18
 -1       106 9.70653E-05-2.91203E-05-2.91323E-05 1.84576E-08-8.79504E-19-3.17793E-18
 -1       107 9.64229E-05-2.89276E-05-2.89368E-05 1.26005E-08 4.55057E-19-3.78978E-18
 -1       108 9.59560E-05-2.87875E-05-2.87943E-05 8.17164E-09 3.52486E-19-4.74676E-18
 -1       109 9.56273E-05-2.86889E-05-2.86938E-05 4.92986E-09-7.16340E-20-2.29473E-18
 -1       110 9.54049E-05-2.86221E-05-2.86255E-05 2.63124E-09-8.07549E-20-5.94290E-18
 -1       111 9.52621E-05-2.85791E-05-2.85814E-05 1.05521E-09 4.61700E-19-7.26736E-18
 -1       112 9.51776E-05-2.85537E-05-2.85552E-05 1.40994E-11-2.79861E-19-7.35008E-18
 -1       113 9.51349E-05-2.85408E-05-2.85417E-05-6.45738E-10 1.02721E-18-7.22886E-18
 -1       114 9.51211E-05-2.85366E-05-2.85371E-05-1.04713E-09-1.78678E-19-9.09446E-18
 -1       115 9.51268E-05-2.85382E-05-2.85385E-05-1.28762E-09-5.91135E-19-6.19502E-18
 -1       116 9.51447E-05-2.85435E-05-2.85436E-05-1.44181E-09 1.38412E-19-3.22524E-18
 -1       117 9.51693E-05-2.85508E-05-2.85508E-05-1.55758E-09 2.39170E-19-5.89113E-18
 -1       118 9.51960E-05-2.85588E-05-2.85585E-05-1.65947E-09-2.34990E-19-6.30149E-18
 -1       119 9.52199E-05-2.85660E-05-2.85653E-05-1.63941E-09-1.21794E-19-3.69768E-18
 -1       120 9.52351E-05-2.85710E-05-2.85698E-05-8.31530E-10 1.60329E-18-4.69951E-18
 -1       121 9.52379E-05-2.85740E-05-2.85698E-05-6.70264E-10-4.89235E-18 3.69082E-20
 -1       122 9.52425E-05-2.85887E-05-2.85655E-05-1.38165E-09-5.84440E-19 2.90174E-19
 -1       123 9.52488E-05-2.86097E-05-2.85596E-05-1.43877E-09 5.06585E-19 8.19516E-19
 -1       124 9.52550E-05-2.86308E-05-2.85535E-05-1.16980E-09-3.10078E-18 1.46377E-19
 -1       125 9.52604E-05-2.86486E-05-2.85482E-05-8.32936E-10-4.20793E-18-1.69321E-18
 -1       126 9.52643E-05-2.86618E-05-2.85442E-05-5.44631E-10-2.48817E-18 9.44835E-19
 -1       127 9.52669E-05-2.86707E-05-2.85416E-05-3.00729E-10-1.35364E-18-9.74169E-19
 -1       128 9.52683E-05-2.86751E-05-2.85402E-05-1.03314E-10-5.41158E-18-6.47980E-19
 -1       129 9.52683E-05-2.86753E-05-2.85401E-05 7.88936E-11-4.21922E-18 1.25056E-18
 -1       130 9.52671E-05-2.86713E-05-2.85414E-05 2.82490E-10-1.41714E-18 2.58615E-19
 -1       131 9.52646E-05-2.86627E-05-2.85440E-05 5.47809E-10-7.85095E-18-8.88069E-19
 -1       132 9.52606E-05-2.86495E-05-2.85480E-05 8.46137E-10-7.75937E-18 1.42889E-18
 -1       133 9.52552E-05-2.86314E-05-2.85533E-05 1.19686E-09-4.08329E-18-2.40452E-19
 -1       134 9.52489E-05-2.86100E-05-2.85595E-05 1.54148E-09-4.93320E-18-9.20239E-20
 -1       135 9.52426E-05-2.85890E-05-2.85655E-05 1.95182E-09-4.93642E-18 5.15598E-19
 -1       136 9.52383E-05-2.85745E-05-2.85698E-05 5.24020E-10-3.44536E-18 1.01193E-18
 -1       137 2.53832E-05-8.61782E-05 1.52844E-05-2.32179E-05 1.24884E-17 3.36267E-18
 -1       138 7.42848E-06-3.08750E-05 2.33950E-06-1.63813E-05 1.90129E-17 8.98511E-18
 -1       139 1.16375E-05 1.67148E-05-1.55665E-05 2.52667E-05 2.04749E-17 1.46410E-17
 -1       140 6.54720E-05 2.62132E-05-3.74450E-05 8.31416E-05 1.70288E-17 2.13342E-17
 -1       141 1.56437E-04-8.75677E-06-5.66007E-05 1.11546E-04 1.21149E-17 2.22732E-17
 -1       142 2.57939E-04-6.41016E-05-7.23527E-05 8.72872E-05 4.56572E-18 1.57188E-17
 -1       143 3.06130E-04-9.43624E-05-7.83506E-05 1.49409E-05 5.27278E-19 3.35362E-18
 -1       144 2.78657E-04-7.66625E-05-7.49928E-05-6.86298E-05 2.68016E-18-1.13994E-17
 -1       145 1.91891E-04-2.64624E-05-6.25398E-05-1.10867E-04 1.00153E-17-2.23761E-17
 -1       146 9.02322E-05 1.90789E-05-4.34000E-05-9.58781E-05 1.91417E-17-2.55770E-17
 -1       147 2.07457E-05 2.10127E-05-2.01509E-05-3.83732E-05 2.66180E-17-2.20690E-17
 -1       148 6.00946E-06-2.48925E-05 8.18371E-07 1.35220E-05 2.60170E-17-1.33744E-17
 -1       149 2.31344E-05-8.03515E-05 1.40912E-05 2.32889E-05 1.84581E-17-5.08013E-18
 -1       150 3.58079E-05-1.10948E-04 2.02692E-05 3.64475E-06 3.34570E-18-6.27943E-19
 -1       151 2.80854E-05-9.35008E-05 1.66898E-05-2.34511E-05-1.13570E-17-2.83658E-18
 -1       152 8.36475E-06-3.91178E-05 4.54682E-06-2.17429E-05-2.21647E-17-1.01038E-17
 -1       153 1.11889E-05 1.37204E-05-1.47011E-05 2.18459E-05-2.64461E-17-1.98862E-17
 -1       154 6.61045E-05 2.51717E-05-3.75510E-05 8.27777E-05-2.12453E-17-2.47876E-17
 -1       155 1.60876E-04-1.04475E-05-5.74189E-05 1.13218E-04-1.35758E-17-2.64914E-17
 -1       156 2.68602E-04-6.86439E-05-7.40072E-05 8.49434E-05-5.19221E-18-1.94057E-17
 -1       157 2.87157E-04-8.04025E-05-7.63781E-05-6.78975E-05-1.32890E-18 4.97060E-18
 -1       158 2.02496E-04-3.19607E-05-6.42664E-05-1.10188E-04-6.25407E-18 1.47007E-17
 -1       159 1.07092E-04 1.25267E-05-4.71380E-05-1.01935E-04-1.18618E-17 1.74150E-17
 -1       160 3.67486E-05 2.66932E-05-2.80092E-05-5.83018E-05-1.82294E-17 1.80050E-17
 -1       161 6.45450E-06 2.76508E-06-9.28489E-06-7.44053E-06-2.37478E-17 1.57538E-17
 -1       162 1.07307E-05-4.70440E-05 6.61087E-06 2.40957E-05-2.25806E-17 9.94448E-18
 -1       163 2.85810E-05-9.41606E-05 1.68994E-05 2.30546E-05-1.68839E-17 3.14040E-18
 -1       164 9.57227E-05-1.27467E-05-3.57535E-05-2.10417E-05-3.16785E-18 2.31229E-18
 -1       165 9.00851E-05-8.69559E-06-3.50358E-05-1.59036E-05-3.08820E-18-1.39858E-18
 -1       166 8.70520E-05-6.49537E-06-3.46320E-05-1.20296E-05-2.68449E-18-3.57063E-18
 -1       167 8.52494E-05-5.25511E-06-3.43635E-05-8.89071E-06-2.11399E-18-4.74822E-18
 -1       168 8.40328E-05-4.44552E-06-3.41731E-05-6.29869E-06-1.54354E-18-5.29560E-18
 -1       169 8.32070E-05-3.91635E-06-3.40376E-05-4.01576E-06-1.04451E-18-5.61616E-18
 -1       170 8.27323E-05-3.62102E-06-3.39565E-05-1.95564E-06-5.10384E-19-5.73014E-18
 -1       171 8.25909E-05-3.53850E-06-3.39301E-05 1.89311E-09-2.72278E-20-5.79990E-18
 -1       172 8.27752E-05-3.66048E-06-3.39583E-05 1.97208E-06 4.73812E-19-5.78889E-18
 -1       173 8.32827E-05-3.98910E-06-3.40394E-05 4.06748E-06 9.52020E-19-5.72031E-18
 -1       174 8.41077E-05-4.53116E-06-3.41694E-05 6.36021E-06 1.46926E-18-5.31976E-18
 -1       175 8.53391E-05-5.36249E-06-3.43569E-05 9.05283E-06 2.07403E-18-4.65401E-18
 -1       176 8.71638E-05-6.63641E-06-3.46239E-05 1.22678E-05 2.72939E-18-3.51134E-18
 -1       177 9.01996E-05-8.84237E-06-3.50278E-05 1.61913E-05 3.18261E-18-1.33601E-18
 -1       178 9.65696E-05-1.39713E-05-3.56017E-05 2.06699E-05 3.22745E-18 2.74767E-18
 -1       179 1.06081E-04-2.63535E-05-3.53427E-05 1.77614E-05 2.53361E-18 8.17731E-18
 -1       180 1.04212E-04-2.76115E-05-3.28246E-05-1.11542E-05-2.71170E-18 6.44071E-18
 -1       181 9.85750E-05-2.87259E-05-2.99666E-05-3.75295E-06-2.37791E-18 5.00430E-18
 -1       182 9.57659E-05-2.82657E-05-2.88773E-05-6.70644E-07-1.79773E-18 3.75500E-18
 -1       183 9.51920E-05-2.82883E-05-2.86339E-05 9.34561E-07-1.36667E-18 2.67621E-18
 -1       184 9.58181E-05-2.85431E-05-2.88094E-05 1.97252E-06-9.13178E-19 1.87202E-18
 -1       185 9.72858E-05-2.90067E-05-2.92489E-05 2.77710E-06-5.11187E-19 1.32401E-18
 -1       186 9.94060E-05-2.96503E-05-2.98865E-05 3.48171E-06-4.92080E-19 8.15274E-19
 -1       187 1.02072E-04-3.04602E-05-3.06856E-05 4.12392E-06-7.18354E-19 6.90521E-19
 -1       188 1.05192E-04-3.14310E-05-3.16112E-05 4.66110E-06-4.02651E-19 7.06626E-19
 -1       189 1.08635E-04-3.25543E-05-3.26111E-05 4.95451E-06-2.32669E-19 6.54242E-19
 -1       190 1.12165E-04-3.37992E-05-3.35971E-05 4.74450E-06-8.38331E-20 1.86369E-19
 -1       191 1.15377E-04-3.50785E-05-3.44316E-05 3.65178E-06 1.40841E-19 2.05463E-19
 -1       192 1.17653E-04-3.61887E-05-3.49327E-05 1.27730E-06 2.30453E-19 5.57113E-19
 -1       193 1.18193E-04-3.67412E-05-3.49215E-05-2.49522E-06-3.96352E-20 4.97304E-19
 -1       194 1.16248E-04-3.61713E-05-3.43208E-05-6.96991E-06-3.59681E-19 6.70741E-19
 -1       195 1.11704E-04-3.40644E-05-3.32730E-05-1.02253E-05-4.43220E-19 5.59664E-19
 -1       196 1.05831E-04-3.08336E-05-3.21494E-05-9.72085E-06 1.26128E-19 3.45225E-19
 -1       197 1.01436E-04-2.81916E-05-3.14162E-05-4.36485E-06-5.83076E-19-5.92605E-19
 -1       198 1.01171E-04-2.79885E-05-3.13918E-05 3.52690E-06-1.67078E-18-1.57835E-18
 -1       199 1.05307E-04-3.04538E-05-3.20874E-05 9.48557E-06-9.94797E-19-2.59874E-18
 -1       200 1.11348E-04-3.37772E-05-3.32391E-05 1.06911E-05 8.00708E-19-2.58233E-18
 -1       201 1.16405E-04-3.61585E-05-3.43919E-05 7.84178E-06 1.02555E-18-2.89546E-18
 -1       202 1.18963E-04-3.69920E-05-3.51421E-05 3.43733E-06 4.42432E-19-1.71223E-18
 -1       203 1.19000E-04-3.66376E-05-3.53166E-05-4.42202E-07 1.33897E-18-8.31376E-19
 -1       204 1.17225E-04-3.56665E-05-3.49712E-05-2.94853E-06 3.18790E-19-6.81024E-19
 -1       205 1.14451E-04-3.44981E-05-3.42781E-05-4.12220E-06-1.70857E-19-8.48813E-19
 -1       206 1.11328E-04-3.33588E-05-3.34214E-05-4.35402E-06 4.66220E-21-1.63390E-18
 -1       207 1.08276E-04-3.23452E-05-3.25422E-05-4.04757E-06 4.53402E-19-1.42523E-18
 -1       208 1.05524E-04-3.14872E-05-3.17269E-05-3.49752E-06-4.45199E-19-8.27901E-19
 -1       209 1.03169E-04-3.07835E-05-3.10176E-05-2.88339E-06-4.92369E-19-1.41943E-18
 -1       210 1.01228E-04-3.02196E-05-3.04267E-05-2.29989E-06-7.77192E-19-1.14216E-18
 -1       211 9.96708E-05-2.97764E-05-2.99496E-05-1.78876E-06-4.23552E-19-8.73041E-19
 -1       212 9.84505E-05-2.94341E-05-2.95739E-05-1.36214E-06-3.47941E-19-8.89431E-19
 -1       213 9.75128E-05-2.91741E-05-2.92842E-05-1.01734E-06 6.53423E-19-3.06773E-19
 -1       214 9.68057E-05-2.89800E-05-2.90650E-05-7.45127E-07 5.11890E-19-7.42010E-19
 -1       215 9.62824E-05-2.88377E-05-2.89024E-05-5.34242E-07 1.90334E-19 4.10025E-19
 -1       216 9.59031E-05-2.87357E-05-2.87841E-05-3.73555E-07 6.78719E-19-1.35677E-18
 -1       217 9.56346E-05-2.86644E-05-2.87000E-05-2.53031E-07 1.45042E-18-9.70880E-19
 -1       218 9.54501E-05-2.86162E-05-2.86420E-05-1.64065E-07 1.03210E-19-7.40546E-19
 -1       219 9.53282E-05-2.85851E-05-2.86034E-05-9.95071E-08-1.14783E-18 2.67690E-19
 -1       220 9.52522E-05-2.85663E-05-2.85791E-05-5.35568E-08-1.11161E-18-6.46020E-19
 -1       221 9.52093E-05-2.85565E-05-2.85651E-05-2.16102E-08 2.19453E-18 1.21421E-18
 -1       222 9.51896E-05-2.85528E-05-2.85583E-05-1.05131E-10 3.29764E-19 2.61180E-18
 -1       223 9.51855E-05-2.85532E-05-2.85565E-05 1.36102E-08 9.75338E-19 2.56563E-18
 -1       224 9.51914E-05-2.85563E-05-2.85578E-05 2.13687E-08 1.18708E-18 2.13908E-18
 -1       225 9.52028E-05-2.85609E-05-2.85608E-05 2.42234E-08-9.07993E-19 1.30353E-18
 -1       226 9.52160E-05-2.85662E-05-2.85642E-05 2.24059E-08-1.39723E-20 1.77713E-18
 -1       227 9.52284E-05-2.85717E-05-2.85672E-05 1.56284E-08-9.64827E-19 3.10971E-18
 -1       228 1.00515E-04-2.88813E-05-3.08749E-05 6.42191E-06 2.45309E-18 6.93396E-18
 -1       229 9.61321E-05-2.82958E-05-2.90407E-05 1.95513E-06 1.83116E-18 5.06401E-18
 -1       230 9.46124E-05-2.81239E-05-2.84491E-05 3.63989E-08 1.22325E-18 3.58599E-18
 -1       231 9.46108E-05-2.82301E-05-2.84213E-05-1.00411E-06 9.70132E-19 2.56087E-18
 -1       232 9.55335E-05-2.85542E-05-2.86916E-05-1.65872E-06 7.80340E-19 1.84764E-18
 -1       233 9.70600E-05-2.90415E-05-2.91443E-05-2.10441E-06 2.26330E-19 1.48166E-18
 -1       234 9.89855E-05-2.96472E-05-2.97140E-05-2.39758E-06 7.31602E-19 8.13402E-19
 -1       235 1.01140E-04-3.03316E-05-3.03466E-05-2.52802E-06 6.27326E-19 5.32853E-19
 -1       236 1.03335E-04-3.10484E-05-3.09819E-05-2.43674E-06 5.36941E-19-2.09571E-19
 -1       237 1.05327E-04-3.17322E-05-3.15433E-05-2.02790E-06 5.24586E-19-2.48105E-20
 -1       238 1.06801E-04-3.22877E-05-3.19355E-05-1.19403E-06 4.99275E-19-3.29167E-19
 -1       239 1.07380E-04-3.25838E-05-3.20539E-05 1.28725E-07-6.70546E-20 3.49750E-19
 -1       240 1.06704E-04-3.24644E-05-3.18108E-05 1.86585E-06 1.62759E-19-3.49125E-19
 -1       241 1.04571E-04-3.17959E-05-3.11805E-05 3.69538E-06 1.72241E-19-3.61044E-19
 -1       242 1.01153E-04-3.05638E-05-3.02468E-05 5.01245E-06 1.76549E-19-2.08959E-19
 -1       243 9.71632E-05-2.89890E-05-2.92214E-05 5.09622E-06 2.14311E-19-7.71574E-19
 -1       244 9.37935E-05-2.75644E-05-2.83994E-05 3.52480E-06 1.13120E-18-1.31908E-18
 -1       245 9.22847E-05-2.68783E-05-2.80514E-05 6.15354E-07 3.76963E-20-1.12867E-18
 -1       246 9.32751E-05-2.72627E-05-2.83028E-05-2.57221E-06-3.48207E-19-1.37075E-18
 -1       247 9.64114E-05-2.85546E-05-2.90794E-05-4.80809E-06-4.80951E-19-1.64869E-18
 -1       248 1.00564E-04-3.02113E-05-3.01387E-05-5.43400E-06 8.14020E-19-1.61704E-18
 -1       249 1.04471E-04-3.16726E-05-3.11857E-05-4.59971E-06 1.22256E-18-2.34969E-18
 -1       250 1.07264E-04-3.26151E-05-3.19843E-05-2.95645E-06-6.35142E-20-3.33351E-18
 -1       251 1.08641E-04-3.29890E-05-3.24213E-05-1.18969E-06-5.86686E-19-3.66654E-18
 -1       252 1.08730E-04-3.29068E-05-3.24992E-05 2.60149E-07-3.82200E-19-3.15723E-18
 -1       253 1.07868E-04-3.25297E-05-3.22932E-05 1.23024E-06-2.41940E-19-2.26936E-18
 -1       254 1.06431E-04-3.20018E-05-3.19034E-05 1.74464E-06 1.24708E-18-1.75430E-18
 -1       255 1.04739E-04-3.14274E-05-3.14229E-05 1.91035E-06-4.74403E-19-2.33750E-18
 -1       256 1.03020E-04-3.08724E-05-3.09226E-05 1.84749E-06-2.99465E-19-2.11328E-18
 -1       257 1.01420E-04-3.03730E-05-3.04492E-05 1.65651E-06 3.56729E-19-2.64710E-18
 -1       258 1.00013E-04-2.99452E-05-3.00288E-05 1.40947E-06 2.46235E-20-2.30204E-18
 -1       259 9.88295E-05-2.95920E-05-2.96721E-05 1.15254E-06 2.21807E-19-2.97690E-18
 -1       260 9.78665E-05-2.93092E-05-2.93803E-05 9.12218E-07-1.25611E-18-2.07680E-18
 -1       261 9.71058E-05-2.90887E-05-2.91488E-05 7.01485E-07-9.92685E-19-2.50746E-18
 -1       262 9.65208E-05-2.89210E-05-2.89699E-05 5.24807E-07 8.96843E-19-2.89595E-18
 -1       263 9.60823E-05-2.87968E-05-2.88354E-05 3.81663E-07-8.97080E-19-1.94794E-18
 -1       264 9.57625E-05-2.87072E-05-2.87369E-05 2.68910E-07-4.61530E-19-1.41444E-18
 -1       265 9.55363E-05-2.86446E-05-2.86670E-05 1.82271E-07 1.27266E-18-1.96067E-18
 -1       266 9.53821E-05-2.86027E-05-2.86191E-05 1.17227E-07-6.81695E-20-1.19111E-18
 -1       267 9.52823E-05-2.85761E-05-2.85878E-05 6.95068E-08 9.01171E-20-2.18633E-19
 -1       268 9.52224E-05-2.85607E-05-2.85689E-05 3.53451E-08 4.87512E-19-1.11687E-18
 -1       269 9.51913E-05-2.85533E-05-2.85589E-05 1.15827E-08-1.12902E-18-8.02745E-19
 -1       270 9.51802E-05-2.85514E-05-2.85550E-05-4.30839E-09-1.25147E-18 7.23440E-19
 -1       271 9.51825E-05-2.85532E-05-2.85553E-05-1.42298E-08 9.55513E-19-1.60968E-18
 -1       272 9.51927E-05-2.85572E-05-2.85580E-05-1.94340E-08 1.08036E-18-1.33155E-18
 -1       273 9.52068E-05-2.85623E-05-2.85619E-05-2.05651E-08-2.72480E-19-1.53923E-18
 -1       274 9.52209E-05-2.85676E-05-2.85656E-05-1.75382E-08-1.49729E-19-1.40474E-18
 -1       275 9.52323E-05-2.85724E-05-2.85684E-05-9.88505E-09 8.77028E-19-1.39155E-18
 -1       276 9.52373E-05-2.85805E-05-2.85672E-05-1.50305E-08 4.93001E-19 2.26294E-18
 -1       277 9.52428E-05-2.85922E-05-2.85646E-05-1.99470E-08 3.91723E-19-2.30262E-19
 -1       278 9.52477E-05-2.86045E-05-2.85614E-05-1.98796E-08-1.34118E-18-2.83292E-18
 -1       279 9.52516E-05-2.86156E-05-2.85583E-05-1.69125E-08-2.06169E-18 1.91578E-19
 -1       280 9.52544E-05-2.86243E-05-2.85557E-05-1.27856E-08-5.58722E-19-1.94604E-19
 -1       281 9.52562E-05-2.86307E-05-2.85538E-05-8.39158E-09-1.66273E-18-4.33975E-19
 -1       282 9.52573E-05-2.86345E-05-2.85526E-05-4.21105E-09-6.55938E-19-2.17491E-18
 -1       283 9.52577E-05-2.86358E-05-2.85522E-05-2.24006E-10 1.47167E-18 7.00835E-19
 -1       284 9.52574E-05-2.86348E-05-2.85525E-05 3.81914E-09-8.33470E-19-5.50608E-19
 -1       285 9.52565E-05-2.86312E-05-2.85536E-05 8.15753E-09-2.44491E-18-1.64562E-18
 -1       286 9.52547E-05-2.86251E-05-2.85555E-05 1.26971E-08-7.45139E-19-3.88312E-19
 -1       287 9.52519E-05-2.86162E-05-2.85581E-05 1.71083E-08-1.65386E-18 1.24121E-18
 -1       288 9.52479E-05-2.86050E-05-2.85613E-05 2.02557E-08-1.55547E-19-6.46159E-19
 -1       289 9.52426E-05-2.85922E-05-2.85645E-05 1.98650E-08-9.27601E-19 1.62714E-19
 -1       290 9.52367E-05-2.85814E-05-2.85666E-05 2.08955E-08-2.10515E-19-3.46504E-19
 -1       291 1.23402E-05-4.64681E-05 1.14502E-05 8.71573E-06-1.53313E-19 8.33110E-18
 -1       292 2.70858E-05-4.22559E-05 3.86965E-06 2.31118E-05 3.32164E-18 5.16648E-18
 -1       293 5.26111E-05-3.47152E-05-9.38544E-06 3.49833E-05 6.59648E-18 7.18316E-18
 -1       294 9.33454E-05-3.13843E-05-2.68037E-05 4.48594E-05 6.59945E-18 8.13829E-18
 -1       295 1.37587E-04-3.09298E-05-4.45688E-05 4.51049E-05 6.16206E-18 7.10999E-18
 -1       296 1.72982E-04-3.19737E-05-5.87092E-05 2.53531E-05 5.68603E-18 3.85442E-18
 -1       297 2.05655E-04-3.54718E-05-6.95357E-05 1.62732E-05 6.14342E-18 2.87864E-18
 -1       298 2.02477E-04-3.20238E-05-7.00157E-05-7.10950E-06 7.52642E-18-1.78210E-18
 -1       299 1.82646E-04-3.12046E-05-6.27110E-05-2.44796E-05 8.32051E-18-5.63912E-18
 -1       300 1.51417E-04-3.24292E-05-4.95871E-05-4.02198E-05 8.82243E-18-8.50358E-18
 -1       301 1.11112E-04-3.78314E-05-3.13235E-05-4.26856E-05 9.04144E-18-7.58222E-18
 -1       302 6.52413E-05-3.84574E-05-1.25626E-05-4.02744E-05 8.35365E-18-8.63391E-18
 -1       303 2.93581E-05-4.20406E-05 2.83887E-06-2.40635E-05 7.93500E-18-8.45582E-18
 -1       304 1.30666E-05-4.03371E-05 9.54613E-06-1.36665E-05 2.22590E-18-8.37165E-18
 -1       305 1.16613E-05-4.76289E-05 1.21496E-05 4.88323E-06-1.32328E-18-7.75152E-18
 -1       306 2.44040E-05-4.52151E-05 5.77837E-06 1.84774E-05-6.63248E-18-8.32549E-18
 -1       307 5.12005E-05-3.72439E-05-7.99235E-06 3.28583E-05-9.23605E-18-9.87910E-18
 -1       308 9.75245E-05-3.63099E-05-2.66052E-05 4.30445E-05-9.62949E-18-9.59964E-18
 -1       309 1.40314E-04-3.18351E-05-4.52394E-05 4.61363E-05-9.42187E-18-1.20006E-17
 -1       310 1.80167E-04-3.41314E-05-6.03768E-05 2.75688E-05-7.65723E-18-8.05740E-18
 -1       311 2.07726E-04-3.50586E-05-7.05250E-05 1.26211E-05-7.04329E-18-6.25364E-18
 -1       312 2.13568E-04-3.73577E-05-7.17554E-05-8.27956E-06-6.04845E-18-2.05723E-18
 -1       313 1.90240E-04-3.39261E-05-6.43338E-05-2.34326E-05-5.98206E-18 1.25022E-18
 -1       314 1.59752E-04-3.42107E-05-5.20612E-05-3.93577E-05-5.19554E-18 4.51405E-18
 -1       315 1.18197E-04-3.17992E-05-3.65585E-05-4.58761E-05-7.39883E-18 4.79505E-18
 -1       316 7.80168E-05-3.35262E-05-2.00582E-05-4.06146E-05-8.50845E-18 5.55654E-18
 -1       317 4.49388E-05-3.85682E-05-4.94358E-06-2.98745E-05-8.57684E-18 5.89741E-18
 -1       318 2.27061E-05-4.52302E-05 6.53723E-06-1.68155E-05-6.89866E-18 6.43962E-18
 -1       319 1.23672E-05-4.93625E-05 1.23528E-05-4.58193E-06-3.30788E-18 6.69251E-18
 -1       320 9.23647E-05-1.44159E-05-3.34691E-05-1.12866E-05-3.30581E-18-1.59807E-18
 -1       321 9.67556E-05-1.94225E-05-3.32024E-05-1.30473E-05-3.51383E-18 7.34907E-19
 -1       322 8.75308E-05-9.56962E-06-3.34639E-05-6.58589E-06-2.16601E-18-3.77871E-18
 -1       323 8.61472E-05-8.29016E-06-3.34109E-05-4.49658E-06-1.57334E-18-4.16930E-18
 -1       324 8.52656E-05-7.50570E-06-3.33647E-05-2.61952E-06-9.56280E-19-4.39903E-18
 -1       325 8.48536E-05-7.15090E-06-3.33382E-05-8.68418E-07-3.40950E-19-4.50942E-18
 -1       326 8.48946E-05-7.19404E-06-3.33374E-05 8.52475E-07 2.76020E-19-4.52660E-18
 -1       327 8.53797E-05-7.62822E-06-3.33616E-05 2.63722E-06 8.50664E-19-4.48045E-18
 -1       328 8.62909E-05-8.45469E-06-3.34026E-05 4.53766E-06 1.42093E-18-4.24437E-18
 -1       329 8.76946E-05-9.77054E-06-3.34484E-05 6.68163E-06 2.17969E-18-3.59555E-18
 -1       330 8.97026E-05-1.17480E-05-3.34741E-05 9.04749E-06 2.86169E-18-2.80099E-18
 -1       331 9.26358E-05-1.48028E-05-3.34360E-05 1.14726E-05 3.42496E-18-1.56563E-18
 -1       332 9.68161E-05-1.97765E-05-3.31216E-05 1.28912E-05 3.57268E-18 9.88210E-19
 -1       333 9.98497E-05-2.48071E-05-3.22443E-05 1.06808E-05 3.22039E-18 3.35950E-18
 -1       334 9.79210E-05-2.72270E-05-3.02657E-05 4.43641E-06 2.58753E-18 2.42061E-18
 -1       335 9.80008E-05-2.63383E-05-3.06657E-05-4.57570E-06-2.73480E-18 1.05898E-18
 -1       336 9.70556E-05-2.73830E-05-2.98316E-05-6.82259E-07-2.13178E-18 7.05218E-19
 -1       337 9.68129E-05-2.78815E-05-2.95237E-05 1.78105E-06-1.63808E-18 3.86605E-19
 -1       338 9.72181E-05-2.82618E-05-2.95414E-05 3.55445E-06-1.10515E-18 1.47211E-19
 -1       339 9.81728E-05-2.86667E-05-2.97804E-05 4.97915E-06-8.75737E-19-4.46032E-20
 -1       340 9.95957E-05-2.91676E-05-3.01776E-05 6.21070E-06-6.72028E-19-3.63335E-19
 -1       341 1.01438E-04-2.98318E-05-3.06847E-05 7.27450E-06-3.58669E-19-2.88124E-19
 -1       342 1.03681E-04-3.07514E-05-3.12554E-05 8.06875E-06-2.33565E-19-1.92473E-19
 -1       343 1.06324E-04-3.20506E-05-3.18374E-05 8.34103E-06-2.65286E-19-1.53734E-19
 -1       344 1.09364E-04-3.38581E-05-3.23743E-05 7.66591E-06-8.31110E-20-5.69497E-20
 -1       345 1.12728E-04-3.61976E-05-3.28230E-05 5.47571E-06 1.99911E-19-1.43747E-19
 -1       346 1.16096E-04-3.87314E-05-3.31878E-05 1.25713E-06 3.52629E-19 2.04277E-19
 -1       347 1.18653E-04-4.04152E-05-3.35640E-05-4.92842E-06 2.26158E-19 6.12960E-19
 -1       348 1.19044E-04-3.94759E-05-3.41276E-05-1.15255E-05-5.14832E-19 1.21453E-18
 -1       349 1.16231E-04-3.46636E-05-3.50028E-05-1.49744E-05-5.36877E-19 1.29137E-18
 -1       350 1.11495E-04-2.77129E-05-3.59672E-05-1.12520E-05-1.36034E-18 1.91221E-19
 -1       351 1.08766E-04-2.38451E-05-3.64755E-05-7.08375E-07-2.06505E-18-1.25427E-18
 -1       352 1.11000E-04-2.68565E-05-3.61261E-05 1.05432E-05-2.52577E-18-2.25829E-18
 -1       353 1.15889E-04-3.38020E-05-3.52147E-05 1.53492E-05-4.88514E-19-2.89511E-18
 -1       354 1.19235E-04-3.91304E-05-3.43625E-05 1.27808E-05 1.08061E-18-3.25111E-18
 -1       355 1.19410E-04-4.06001E-05-3.38096E-05 6.41327E-06 1.59583E-18-2.29506E-18
 -1       356 1.17232E-04-3.92018E-05-3.34725E-05 1.17538E-07 8.78640E-19-1.48374E-18
 -1       357 1.14103E-04-3.67521E-05-3.31746E-05-4.31037E-06 9.77266E-19-1.95433E-18
 -1       358 1.10912E-04-3.44049E-05-3.28042E-05-6.65525E-06-2.12463E-19-2.73189E-18
 -1       359 1.08033E-04-3.25861E-05-3.23413E-05-7.40270E-06-3.94047E-19-2.06549E-18
 -1       360 1.05553E-04-3.13042E-05-3.18211E-05-7.15322E-06 1.01639E-20-2.08354E-18
 -1       361 1.03453E-04-3.04345E-05-3.12904E-05-6.38531E-06 5.23564E-19-3.14516E-18
 -1       362 1.01697E-04-2.98478E-05-3.07877E-05-5.41717E-06-1.96848E-20-2.74979E-18
 -1       363 1.00246E-04-2.94474E-05-3.03368E-05-4.43501E-06-2.83826E-19-1.89894E-18
 -1       364 9.90615E-05-2.91694E-05-2.99488E-05-3.53447E-06 1.54386E-19-1.04842E-18
 -1       365 9.81096E-05-2.89734E-05-2.96255E-05-2.75560E-06-3.86664E-19-9.44976E-21
 -1       366 9.73561E-05-2.88342E-05-2.93630E-05-2.10711E-06-3.32347E-20-1.35664E-18
 -1       367 9.67690E-05-2.87354E-05-2.91544E-05-1.58168E-06 2.38453E-19-2.17277E-18
 -1       368 9.63191E-05-2.86660E-05-2.89919E-05-1.16491E-06 2.53140E-19-2.00297E-18
 -1       369 9.59804E-05-2.86184E-05-2.88677E-05-8.40170E-07-6.04964E-19-9.53068E-19
 -1       370 9.57303E-05-2.85868E-05-2.87745E-05-5.91213E-07 1.84006E-18-6.50666E-19
 -1       371 9.55497E-05-2.85668E-05-2.87060E-05-4.03319E-07 1.86388E-18-6.18809E-19
 -1       372 9.54225E-05-2.85553E-05-2.86567E-05-2.63756E-07 4.68142E-19 3.70540E-19
 -1       373 9.53361E-05-2.85497E-05-2.86222E-05-1.61860E-07-9.69843E-19 1.46682E-18
 -1       374 9.52800E-05-2.85482E-05-2.85989E-05-8.89168E-08 7.31079E-19 2.12277E-18
 -1       375 9.52460E-05-2.85496E-05-2.85839E-05-3.79832E-08 1.64240E-18 7.24444E-19
 -1       376 9.52278E-05-2.85528E-05-2.85749E-05-3.68565E-09 1.21081E-18 2.30475E-18
 -1       377 9.52206E-05-2.85572E-05-2.85699E-05 1.79591E-08 6.02827E-19 2.07527E-18
 -1       378 9.52205E-05-2.85625E-05-2.85676E-05 2.96738E-08-1.67296E-18 2.77987E-19
 -1       379 9.52245E-05-2.85687E-05-2.85668E-05 3.31964E-08-1.06055E-18-6.32069E-19
 -1       380 9.52298E-05-2.85748E-05-2.85665E-05 2.98093E-08-5.69892E-19-1.06910E-18
 -1       381 9.65123E-05-2.78733E-05-2.93770E-05 9.67796E-07 1.91318E-18 1.70455E-18
 -1       382 9.60598E-05-2.81714E-05-2.90712E-05-1.05072E-06 1.37586E-18 1.03389E-18
 -1       383 9.64184E-05-2.84947E-05-2.90980E-05-2.33583E-06 1.05243E-18 4.97559E-19
 -1       384 9.73624E-05-2.89108E-05-2.93303E-05-3.20284E-06 6.32364E-19-6.89649E-20
 -1       385 9.87246E-05-2.94344E-05-2.96933E-05-3.77450E-06 7.00134E-19-3.18160E-19
 -1       386 1.00370E-04-3.00672E-05-3.01301E-05-4.05937E-06 9.41917E-19-1.52815E-19
 -1       387 1.02164E-04-3.08032E-05-3.05874E-05-3.98562E-06 7.94807E-19-5.03767E-19
 -1       388 1.03952E-04-3.16184E-05-3.10079E-05-3.42261E-06 2.56785E-19-1.68857E-19
 -1       389 1.05525E-04-3.24478E-05-3.13303E-05-2.21790E-06 5.08850E-19 4.27069E-19
 -1       390 1.06613E-04-3.31535E-05-3.14970E-05-2.73388E-07-5.55386E-20 3.86644E-19
 -1       391 1.06895E-04-3.34976E-05-3.14697E-05 2.32278E-06 4.89951E-19-2.29700E-20
 -1       392 1.06065E-04-3.31704E-05-3.12505E-05 5.13286E-06 2.05434E-19 4.39398E-19
 -1       393 1.04021E-04-3.19369E-05-3.08956E-05 7.28918E-06 3.23858E-20-4.14507E-19
 -1       394 1.01107E-04-2.99052E-05-3.05101E-05 7.68855E-06 2.53118E-19 8.16957E-20
 -1       395 9.82616E-05-2.77457E-05-3.02099E-05 5.58429E-06 7.84923E-19 5.07674E-19
 -1       396 9.67216E-05-2.64987E-05-3.00821E-05 1.31846E-06 8.38619E-19 5.12238E-20
 -1       397 9.72843E-05-2.68716E-05-3.01591E-05-3.55405E-06-1.80689E-20-1.27084E-18
 -1       398 9.97141E-05-2.86699E-05-3.04311E-05-7.07870E-06 1.11501E-19-1.86904E-18
 -1       399 1.02910E-04-3.09353E-05-3.08364E-05-8.15490E-06 4.60929E-19-2.12320E-18
 -1       400 1.05698E-04-3.27284E-05-3.12751E-05-6.95529E-06 1.67993E-18-2.36350E-18
 -1       401 1.07400E-04-3.36158E-05-3.16336E-05-4.46909E-06 5.37133E-19-3.23343E-18
 -1       402 1.07911E-04-3.36752E-05-3.18312E-05-1.75473E-06-9.71357E-19-3.50696E-18
 -1       403 1.07465E-04-3.32069E-05-3.18396E-05 5.01637E-07-4.41552E-19-3.55094E-18
 -1       404 1.06390E-04-3.25028E-05-3.16772E-05 2.03556E-06-9.37995E-19-3.70808E-18
 -1       405 1.04985E-04-3.17589E-05-3.13892E-05 2.86919E-06 2.23618E-19-1.89844E-18
 -1       406 1.03470E-04-3.10764E-05-3.10287E-05 3.15610E-06-1.37558E-19 4.06388E-19
 -1       407 1.01993E-04-3.04938E-05-3.06424E-05 3.07576E-06-8.17522E-19 3.09240E-19
 -1       408 1.00641E-04-3.00171E-05-3.02656E-05 2.78257E-06 7.19766E-19 1.25033E-18
 -1       409 9.94581E-05-2.96375E-05-2.99206E-05 2.39035E-06 3.49149E-19-2.05078E-19
 -1       410 9.84596E-05-2.93413E-05-2.96193E-05 1.97426E-06 2.59204E-19-8.69473E-19
 -1       411 9.76409E-05-2.91142E-05-2.93657E-05 1.57902E-06-1.57785E-18-1.00402E-18
 -1       412 9.69864E-05-2.89432E-05-2.91589E-05 1.22781E-06 1.53487E-19-1.29827E-18
 -1       413 9.64757E-05-2.88166E-05-2.89946E-05 9.29766E-07 5.02802E-19-9.78487E-19
 -1       414 9.60861E-05-2.87250E-05-2.88673E-05 6.85512E-07-1.02327E-18 3.78753E-19
 -1       415 9.57960E-05-2.86602E-05-2.87711E-05 4.90950E-07-8.55280E-19 4.93915E-19
 -1       416 9.55856E-05-2.86158E-05-2.87002E-05 3.39761E-07 9.16236E-19 8.10480E-19
 -1       417 9.54374E-05-2.85867E-05-2.86494E-05 2.24927E-07-1.55257E-18 4.82813E-19
 -1       418 9.53370E-05-2.85687E-05-2.86143E-05 1.39636E-07 2.31478E-19 1.64268E-18
 -1       419 9.52725E-05-2.85588E-05-2.85911E-05 7.77543E-08 6.38038E-20 1.89663E-18
 -1       420 9.52342E-05-2.85546E-05-2.85767E-05 3.40546E-08-1.90632E-19 2.58188E-18
 -1       421 9.52148E-05-2.85542E-05-2.85686E-05 4.28932E-09-1.47314E-18 7.46761E-19
 -1       422 9.52083E-05-2.85564E-05-2.85650E-05-1.48201E-08 1.19948E-18 7.15768E-19
 -1       423 9.52102E-05-2.85603E-05-2.85642E-05-2.55285E-08 4.18606E-19-5.55672E-19
 -1       424 9.52169E-05-2.85653E-05-2.85649E-05-2.91931E-08 5.71511E-19 1.44128E-19
 -1       425 9.52257E-05-2.85713E-05-2.85662E-05-2.64084E-08-8.23150E-19 4.08587E-19
 -1       426 9.52318E-05-2.85759E-05-2.85669E-05-2.18684E-08 2.93363E-19 1.09146E-18
 -1       427 9.52469E-05-2.85926E-05-2.85661E-05-2.72035E-08-3.80082E-19-2.09081E-18
 -1       428 9.52424E-05-2.85870E-05-2.85666E-05-3.01404E-08-1.43297E-18-2.27241E-18
 -1       429 9.52373E-05-2.85821E-05-2.85665E-05-2.82527E-08-6.89674E-19-1.86322E-18
 -1       430 9.52492E-05-2.85963E-05-2.85655E-05-2.16018E-08-3.69009E-19-1.06017E-19
 -1       431 9.52500E-05-2.85985E-05-2.85649E-05-1.51661E-08-4.47711E-19-8.27201E-19
 -1       432 9.52501E-05-2.85997E-05-2.85644E-05-8.95198E-09 4.50833E-19 8.18191E-20
 -1       433 9.52500E-05-2.86002E-05-2.85642E-05-3.18459E-09-6.01377E-20 2.43626E-19
 -1       434 9.52501E-05-2.86003E-05-2.85642E-05 2.43669E-09-8.74544E-19-1.74136E-18
 -1       435 9.52504E-05-2.86001E-05-2.85644E-05 8.38314E-09-1.19263E-18-2.46863E-18
 -1       436 9.52504E-05-2.85992E-05-2.85648E-05 1.47987E-08-3.73277E-19-3.73891E-19
 -1       437 9.52497E-05-2.85971E-05-2.85654E-05 2.16113E-08-4.15696E-19 1.72958E-18
 -1       438 9.52473E-05-2.85932E-05-2.85660E-05 2.76392E-08-1.44978E-19 2.45082E-20
 -1       439 9.52425E-05-2.85876E-05-2.85664E-05 3.11896E-08-2.02441E-19-8.59352E-19
 -1       440 5.80739E-05-4.14457E-05-7.34389E-06 4.30200E-05-5.48666E-19 4.82933E-18
 -1       441 1.19114E-05-2.17526E-05 4.07699E-06 1.72346E-06-1.88538E-19 8.33353E-18
 -1       442 2.65823E-05-2.64602E-05-3.40978E-09 2.93863E-05-2.43040E-18 5.95951E-18
 -1       443 9.88729E-05-5.25411E-05-1.99130E-05 4.15174E-05 1.19432E-19 2.84860E-18
 -1       444 1.32392E-04-5.19885E-05-3.44172E-05 2.70307E-05 1.57733E-18 1.69015E-18
 -1       445 8.95790E-05-1.15401E-05-3.35057E-05-8.98843E-06-2.80331E-18-3.05255E-18
 -1       446 1.52274E-04-1.86830E-05-5.74191E-05-2.99070E-06 5.37252E-18-1.45811E-18
 -1       447 1.52793E-04-1.08454E-05-6.09237E-05-1.12345E-06 7.38962E-18-1.57555E-18
 -1       448 1.53883E-04-1.62025E-05-5.90719E-05 2.53177E-06 8.52422E-18-5.53589E-19
 -1       449 1.52625E-04-3.49982E-05-5.04946E-05-2.71321E-06 5.92997E-18-3.93341E-19
 -1       450 1.42613E-04-4.99964E-05-3.96169E-05-1.80949E-05 4.08029E-18-1.31237E-18
 -1       451 1.10682E-04-5.67428E-05-2.31006E-05-3.80389E-05 1.21687E-18-2.20223E-18
 -1       452 6.40843E-05-4.30120E-05-9.05487E-06-4.46898E-05 3.51519E-20-6.22291E-18
 -1       453 3.42800E-05-2.86920E-05-2.13951E-06-3.41559E-05-8.57886E-19-7.60360E-18
 -1       454 1.19947E-05-2.22445E-05 4.24249E-06-1.72678E-06-4.17131E-19-8.81571E-18
 -1       455 2.51832E-05-2.57856E-05 3.38309E-07 2.63677E-05 2.10699E-19-8.34740E-18
 -1       456 5.70010E-05-4.14881E-05-6.74695E-06 4.17647E-05-7.68471E-19-6.50484E-18
 -1       457 9.80022E-05-5.41873E-05-1.89451E-05 4.08698E-05-1.59105E-18-5.69833E-18
 -1       458 1.38017E-04-5.52133E-05-3.54459E-05 2.35198E-05-4.11589E-18-4.00530E-18
 -1       459 1.55278E-04-4.36544E-05-4.77934E-05 6.46176E-06-5.05239E-18-2.25427E-18
 -1       460 1.55781E-04-2.12312E-05-5.77091E-05-5.63418E-06-6.80824E-18-1.39803E-18
 -1       461 1.55501E-04-1.22956E-05-6.14665E-05-3.58840E-07-7.21090E-18-2.05550E-18
 -1       462 1.57379E-04-1.71889E-05-6.00650E-05 4.95500E-06-7.46808E-18-2.74290E-18
 -1       463 1.57369E-04-3.61646E-05-5.19854E-05 7.58320E-07-3.81858E-18-1.70921E-18
 -1       464 1.47094E-04-5.17806E-05-4.08740E-05-1.41052E-05-2.84121E-18-5.60630E-19
 -1       465 1.22255E-04-5.57229E-05-2.85940E-05-3.20224E-05-2.77530E-18 7.05155E-20
 -1       466 8.88937E-05-5.16791E-05-1.60354E-05-4.19226E-05-4.55598E-19 9.13102E-19
 -1       467 4.94265E-05-3.89997E-05-4.71105E-06-3.92271E-05-7.34060E-19 2.96467E-18
 -1       468 2.09903E-05-2.84724E-05 2.83175E-06-2.23764E-05-9.55771E-19 6.86954E-18
 -1       469 1.49974E-04-4.16816E-05-4.64584E-05 8.28898E-06 2.48762E-18-1.44101E-19
 -1       470 1.42311E-04-2.97317E-05-4.86811E-05-9.31997E-06 3.47051E-18-3.79058E-18
 -1       471 2.73010E-05-1.73077E-05-3.70028E-06-2.02911E-05-1.54626E-18-8.19208E-18
 -1       472 9.71996E-05-2.53244E-05-3.07889E-05 4.02976E-06 2.62569E-18-1.22284E-19
 -1       473 8.77469E-05-1.14632E-05-3.27096E-05-2.73000E-06-1.22047E-18-3.89329E-18
 -1       474 8.90765E-05-1.28427E-05-3.26901E-05-4.16786E-06-1.75227E-18-3.51838E-18
 -1       475 8.67714E-05-1.04942E-05-3.27052E-05-6.10778E-08-4.75194E-20-4.09474E-18
 -1       476 8.71021E-05-1.08298E-05-3.27036E-05 1.27897E-06 5.45863E-19-4.05908E-18
 -1       477 8.79397E-05-1.16845E-05-3.26978E-05 2.67823E-06 1.06984E-18-3.97390E-18
 -1       478 8.93017E-05-1.31192E-05-3.26692E-05 4.20729E-06 1.71979E-18-3.40868E-18
 -1       479 9.11863E-05-1.52139E-05-3.25819E-05 5.78786E-06 2.32705E-18-2.72426E-18
 -1       480 9.36928E-05-1.81931E-05-3.23769E-05 7.24855E-06 2.91067E-18-1.88205E-18
 -1       481 9.69081E-05-2.67576E-05-3.00454E-05 5.02796E-07 2.00403E-18-4.10019E-19
 -1       482 9.66375E-05-2.42777E-05-3.10006E-05-3.35506E-06-2.61770E-18-6.99642E-19
 -1       483 1.40138E-04-5.32350E-05-3.74815E-05 6.96599E-06 1.22140E-18-1.81593E-18
 -1       484 9.67242E-05-2.59267E-05-3.03321E-05 1.84448E-07-1.95451E-18-7.88130E-19
 -1       485 9.67668E-05-2.67639E-05-2.99955E-05 2.84441E-06-1.31399E-18-5.86588E-19
 -1       486 9.70017E-05-2.72478E-05-2.98907E-05 4.94191E-06-1.11039E-18-5.47076E-19
 -1       487 9.74931E-05-2.76195E-05-2.99429E-05 6.70796E-06-1.00542E-18-6.35225E-19
 -1       488 9.82725E-05-2.80471E-05-3.00943E-05 8.25882E-06-7.29094E-19-5.47033E-19
 -1       489 9.94036E-05-2.87126E-05-3.02950E-05 9.60006E-06-3.27410E-19-1.06570E-18
 -1       490 1.01026E-04-2.98591E-05-3.05010E-05 1.06119E-05-3.04340E-19-1.14389E-18
 -1       491 1.03388E-04-3.18036E-05-3.06829E-05 1.10147E-05-1.19249E-19-6.26034E-19
 -1       492 1.06828E-04-3.48645E-05-3.08499E-05 1.03263E-05 3.41466E-19-9.12927E-20
 -1       493 1.11664E-04-3.91290E-05-3.11017E-05 7.83218E-06 6.92969E-19 2.77833E-19
 -1       494 1.17685E-04-4.37989E-05-3.16863E-05 2.73352E-06 6.90281E-19 3.75372E-19
 -1       495 1.23523E-04-4.65072E-05-3.30446E-05-5.26474E-06 6.41582E-19 1.75573E-18
 -1       496 1.25743E-04-4.33687E-05-3.53709E-05-1.35570E-05-1.40435E-19 3.16781E-18
 -1       497 1.22906E-04-3.21079E-05-3.90860E-05-1.73248E-05-2.04523E-18 2.97740E-18
 -1       498 1.15910E-04-1.88105E-05-4.21557E-05-8.80906E-06-3.43427E-18 6.54057E-19
 -1       499 1.16220E-04-1.86064E-05-4.22911E-05 7.33270E-06-3.82893E-18-1.52485E-18
 -1       500 1.21581E-04-2.96839E-05-3.97372E-05 1.74522E-05-2.46644E-18-3.01777E-18
 -1       501 1.26246E-04-4.20985E-05-3.61457E-05 1.56180E-05 1.79869E-19-4.18570E-18
 -1       502 1.24401E-04-4.64640E-05-3.34518E-05 7.16170E-06 2.15245E-18-3.59942E-18
 -1       503 1.18878E-04-4.43336E-05-3.19651E-05-1.06347E-06 1.87742E-18-3.38804E-18
 -1       504 1.12867E-04-3.97889E-05-3.13313E-05-6.48160E-06 9.43145E-19-2.50026E-18
 -1       505 1.07918E-04-3.54014E-05-3.10891E-05-9.19036E-06 6.56510E-20-2.62453E-18
 -1       506 1.04381E-04-3.21916E-05-3.09436E-05-9.97102E-06-4.77360E-19-2.17093E-18
 -1       507 1.01974E-04-3.01625E-05-3.07773E-05-9.60575E-06-1.40864E-19-1.98323E-18
 -1       508 1.00327E-04-2.90097E-05-3.05635E-05-8.64155E-06-7.15429E-19-2.15892E-18
 -1       509 9.91589E-05-2.84202E-05-3.03144E-05-7.43097E-06 1.05007E-19-2.21674E-18
 -1       510 9.82886E-05-2.81600E-05-3.00527E-05-6.18455E-06 2.09780E-19-1.62852E-18
 -1       511 9.76131E-05-2.80782E-05-2.97984E-05-5.01776E-06 2.72615E-19-1.23812E-18
 -1       512 9.70752E-05-2.80856E-05-2.95649E-05-3.98567E-06-4.82686E-19-2.50311E-18
 -1       513 9.66429E-05-2.81329E-05-2.93597E-05-3.10689E-06-6.00226E-19-2.18822E-18
 -1       514 9.62962E-05-2.81941E-05-2.91852E-05-2.37932E-06-1.08329E-19-9.47824E-19
 -1       515 9.60208E-05-2.82564E-05-2.90408E-05-1.79012E-06 2.45544E-19-1.21261E-18
 -1       516 9.58051E-05-2.83139E-05-2.89240E-05-1.32182E-06 8.77899E-19-6.39308E-19
 -1       517 9.56390E-05-2.83644E-05-2.88313E-05-9.55771E-07 1.17509E-18-9.86343E-20
 -1       518 9.55135E-05-2.84074E-05-2.87593E-05-6.74137E-07 8.09074E-19-8.84695E-19
 -1       519 9.54207E-05-2.84433E-05-2.87043E-05-4.60808E-07 1.76263E-18-8.47208E-19
 -1       520 9.53537E-05-2.84728E-05-2.86630E-05-3.01815E-07 5.44480E-19-3.56675E-19
 -1       521 9.53069E-05-2.84968E-05-2.86327E-05-1.85399E-07 7.92945E-19 2.00781E-18
 -1       522 9.52753E-05-2.85162E-05-2.86109E-05-1.01917E-07-7.71724E-20 2.18883E-18
 -1       523 9.52552E-05-2.85319E-05-2.85956E-05-4.36713E-08 1.08312E-18 1.10783E-18
 -1       524 9.52434E-05-2.85449E-05-2.85850E-05-4.69785E-09 8.16855E-19 1.32033E-18
 -1       525 9.52376E-05-2.85561E-05-2.85778E-05 1.94033E-08-9.98194E-19 3.11501E-18
 -1       526 9.52361E-05-2.85666E-05-2.85727E-05 3.16942E-08-2.92575E-18 3.07315E-18
 -1       527 9.71738E-05-2.81159E-05-2.95913E-05-3.52925E-06 1.16437E-18-8.76671E-19
 -1       528 9.78496E-05-2.86585E-05-2.96509E-05-4.69107E-06 8.27654E-19-1.05461E-18
 -1       529 9.88580E-05-2.92946E-05-2.98123E-05-5.44705E-06 8.03036E-19-1.05432E-18
 -1       530 1.00171E-04-3.01089E-05-3.00280E-05-5.77418E-06 6.22765E-19-3.87758E-19
 -1       531 1.01763E-04-3.11658E-05-3.02598E-05-5.55821E-06 3.42223E-19-5.92768E-21
 -1       532 1.03588E-04-3.24841E-05-3.04801E-05-4.61805E-06 7.03215E-20 3.02845E-20
 -1       533 1.05537E-04-3.39767E-05-3.06783E-05-2.75799E-06 1.80961E-19 1.77027E-19
 -1       534 1.07360E-04-3.53560E-05-3.08696E-05 1.21654E-07 1.06733E-19 4.99302E-19
 -1       535 1.08604E-04-3.60612E-05-3.10994E-05 3.81990E-06 7.99942E-20 4.57589E-19
 -1       536 1.08672E-04-3.53526E-05-3.14281E-05 7.57466E-06 3.43813E-19 9.39396E-19
 -1       537 1.07150E-04-3.27526E-05-3.18838E-05 9.96959E-06 1.91929E-19 9.35038E-19
 -1       538 1.04382E-04-2.87512E-05-3.24131E-05 9.33360E-06 2.55703E-19 4.17028E-19
 -1       539 1.01804E-04-2.51885E-05-3.28354E-05 4.95153E-06 1.06284E-18 9.35052E-19
 -1       540 1.01111E-04-2.42069E-05-3.29610E-05-1.71549E-06 1.13985E-18 4.34059E-19
 -1       541 1.02898E-04-2.65627E-05-3.27165E-05-7.74415E-06 5.58764E-19-4.06452E-19
 -1       542 1.05878E-04-3.06017E-05-3.22528E-05-1.05347E-05 1.46221E-18-1.79967E-18
 -1       543 1.08313E-04-3.41476E-05-3.17847E-05-9.72726E-06 1.02510E-18-3.34529E-18
 -1       544 1.09229E-04-3.59152E-05-3.14278E-05-6.61263E-06 1.05208E-18-1.47700E-18
 -1       545 1.08690E-04-3.59296E-05-3.11944E-05-2.85644E-06 3.13725E-19-1.61755E-18
 -1       546 1.07260E-04-3.48750E-05-3.10330E-05 4.14659E-07-5.56076E-19-2.45455E-18
 -1       547 1.05484E-04-3.34378E-05-3.08854E-05 2.72968E-06-1.02965E-18-1.81515E-18
 -1       548 1.03714E-04-3.20595E-05-3.07145E-05 4.06603E-06-6.90675E-19-2.11002E-18
 -1       549 1.02115E-04-3.09323E-05-3.05096E-05 4.61122E-06-1.62930E-18-1.79784E-18
 -1       550 1.00739E-04-3.00914E-05-3.02779E-05 4.60305E-06-7.24736E-19-3.41018E-19
 -1       551 9.95829E-05-2.95010E-05-3.00342E-05 4.25479E-06-1.77035E-19-9.42555E-19
 -1       552 9.86272E-05-2.91043E-05-2.97939E-05 3.73022E-06 6.60892E-19-5.31104E-19
 -1       553 9.78463E-05-2.88473E-05-2.95691E-05 3.14276E-06 7.41563E-19-3.28118E-19
 -1       554 9.72155E-05-2.86868E-05-2.93676E-05 2.56411E-06-8.15961E-19 7.99931E-19
 -1       555 9.67123E-05-2.85908E-05-2.91932E-05 2.03500E-06-4.10556E-19 2.25283E-19
 -1       556 9.63164E-05-2.85370E-05-2.90469E-05 1.57478E-06 4.61936E-20-2.86209E-19
 -1       557 9.60097E-05-2.85101E-05-2.89272E-05 1.18908E-06-6.45443E-19-1.19876E-18
 -1       558 9.57761E-05-2.84998E-05-2.88317E-05 8.75283E-07-7.04214E-19-1.77327E-18
 -1       559 9.56015E-05-2.84995E-05-2.87572E-05 6.26356E-07-1.09865E-19-9.95073E-19
 -1       560 9.54737E-05-2.85048E-05-2.87004E-05 4.33321E-07-1.04348E-19 5.65338E-19
 -1       561 9.53826E-05-2.85128E-05-2.86581E-05 2.86817E-07-4.90003E-19-1.38059E-18
 -1       562 9.53197E-05-2.85219E-05-2.86273E-05 1.78011E-07-1.11238E-19-1.19868E-18
 -1       563 9.52781E-05-2.85312E-05-2.86056E-05 9.90850E-08-8.60913E-19-8.05390E-19
 -1       564 9.52523E-05-2.85401E-05-2.85908E-05 4.34543E-08-6.29056E-20 6.73738E-19
 -1       565 9.52378E-05-2.85485E-05-2.85810E-05 5.85804E-09 8.56900E-19-1.04318E-18
 -1       566 9.52313E-05-2.85565E-05-2.85748E-05-1.78121E-08 1.06320E-18 2.80647E-19
 -1       567 9.52302E-05-2.85648E-05-2.85709E-05-3.06971E-08 4.24898E-19 1.06332E-19
 -1       568 9.52329E-05-2.85732E-05-2.85684E-05-3.40089E-08 1.10513E-19-1.47743E-19
 -1       569 9.52464E-05-2.85723E-05-2.85746E-05-1.77781E-08 6.73229E-19-5.84405E-19
 -1       570 9.52449E-05-2.85690E-05-2.85754E-05-1.11141E-08 7.63505E-19 1.48906E-18
 -1       571 9.52430E-05-2.85760E-05-2.85716E-05-3.12506E-08 9.41219E-19-2.96994E-18
 -1       572 9.52465E-05-2.85750E-05-2.85735E-05-2.48167E-08 1.09287E-18-1.37936E-18
 -1       573 9.52435E-05-2.85666E-05-2.85758E-05-5.49557E-09-3.89602E-21-1.02549E-18
 -1       574 9.52430E-05-2.85658E-05-2.85759E-05-5.45865E-10-1.60901E-18-8.75102E-19
 -1       575 9.52438E-05-2.85669E-05-2.85758E-05 4.52310E-09-1.90366E-20-2.41720E-19
 -1       576 9.52456E-05-2.85696E-05-2.85754E-05 1.03736E-08 1.60375E-18-9.00823E-21
 -1       577 9.52472E-05-2.85731E-05-2.85746E-05 1.74909E-08 1.43878E-18-1.38525E-18
 -1       578 9.52472E-05-2.85759E-05-2.85734E-05 2.52398E-08-1.26723E-18-9.09380E-19
 -1       579 9.52435E-05-2.85767E-05-2.85715E-05 3.16013E-08-2.53599E-18 4.20950E-19
 -1       580 2.71854E-05-1.41742E-05-4.96339E-06 1.51270E-05-2.06623E-18 4.90009E-18
 -1       581 8.81524E-05-4.88957E-05-1.65599E-05 4.23106E-05-3.53393E-18 2.47498E-18
 -1       582 9.68620E-05-2.75517E-05-2.96944E-05-1.87489E-06 1.51424E-18-6.81546E-19
 -1       583 2.68682E-05-1.51699E-05-4.38311E-06-1.41999E-05 1.54719E-18 6.82740E-18
 -1       584 5.47169E-05-3.06661E-05-9.75325E-06 3.93825E-05-3.72382E-18 3.79640E-18
 -1       585 9.54961E-05-2.06871E-05-3.20824E-05-7.42169E-06-3.11225E-18-1.12983E-18
 -1       586 4.46143E-05-2.65836E-05-7.20363E-06-3.32455E-05 2.96636E-18 3.15912E-18
 -1       587 1.40912E-04-3.54894E-05-4.56310E-05-1.51446E-05-3.89773E-18 2.11393E-18
 -1       588 1.27154E-04-6.23681E-05-2.77852E-05 2.46937E-05 1.33567E-18-7.58968E-19
 -1       589 1.32244E-04-5.94160E-05-3.13391E-05-1.88240E-05-4.46016E-20 1.19024E-18
 -1       590 1.29880E-04-8.01909E-06-5.28648E-05 3.65297E-06 6.77309E-18-8.52075E-19
 -1       591 8.69824E-05-1.06977E-05-3.27088E-05-1.37565E-06-6.29187E-19-4.01171E-18
 -1       592 1.37456E-04-2.40227E-05-4.91680E-05 1.09979E-05 5.46987E-18 2.01975E-18
 -1       593 1.30849E-04-1.12493E-05-5.19038E-05-7.77390E-06 5.07764E-18-2.89630E-18
 -1       594 9.55155E-05-5.14212E-05-1.85801E-05-4.03857E-05-2.77758E-18-1.66685E-18
 -1       595 1.42601E-04-4.65969E-05-4.14451E-05 1.74684E-06 2.37789E-18 2.27476E-18
 -1       596 2.70644E-05-1.40740E-05-4.87604E-06 1.07597E-05 2.07523E-19-7.77439E-18
 -1       597 6.04329E-05-3.43427E-05-1.07173E-05-4.05972E-05-2.57900E-18-5.51768E-18
 -1       598 1.34819E-04-1.42197E-05-5.22888E-05-7.78892E-06-6.17439E-18 2.85212E-19
 -1       599 5.42144E-05-3.05316E-05-9.64487E-06 3.74268E-05 1.98957E-18-5.95242E-18
 -1       600 9.01530E-05-5.04058E-05-1.67245E-05 4.09407E-05 1.79407E-18-3.41749E-18
 -1       601 1.45433E-04-5.57937E-05-3.87944E-05 2.42847E-06-1.61151E-18 8.40839E-19
 -1       602 1.43878E-04-4.79482E-05-4.14528E-05 9.35842E-06-1.62035E-18-2.60743E-18
 -1       603 1.32916E-04-1.16797E-05-5.26361E-05 5.28192E-06-6.05099E-18-1.44565E-18
 -1       604 1.39739E-04-2.49062E-05-4.96918E-05 1.46748E-05-4.76551E-18-3.20771E-18
 -1       605 1.37678E-04-6.12551E-05-3.29147E-05-1.28292E-05-6.16508E-19-3.20787E-18
 -1       606 1.17739E-04-6.02082E-05-2.45027E-05-3.03318E-05 1.61090E-18-1.13836E-18
 -1       607 7.96231E-05-4.50033E-05-1.45016E-05-4.11552E-05 2.28837E-18-7.94093E-20
 -1       608 9.73484E-05-2.34464E-05-3.16753E-05 7.88592E-06 3.18804E-18 2.57711E-19
 -1       609 1.25443E-04-6.00015E-05-2.79710E-05 2.49819E-05-1.52458E-18 4.80294E-19
 -1       610 9.09395E-05-1.49122E-05-3.26149E-05-5.62680E-06-2.35033E-18-2.99961E-18
 -1       611 4.77639E-05-2.26917E-05-1.01979E-05-3.06563E-05-2.74547E-18-6.32109E-18
 -1       612 1.18336E-04-5.83625E-05-2.55922E-05-2.68910E-05-2.28684E-18 1.53839E-18
 -1       613 1.37961E-04-4.30082E-05-4.10505E-05-8.65898E-06 2.15064E-18-3.76376E-18
 -1       614 9.52368E-05-2.85737E-05-2.85699E-05 3.45374E-08-1.78235E-18 2.80257E-18
 -1       615 8.91047E-05-1.43025E-05-3.20629E-05 1.10830E-06 6.98001E-19-3.49915E-18
 -1       616 8.84312E-05-1.35848E-05-3.20816E-05 2.58587E-07 2.41166E-19-3.65490E-18
 -1       617 9.19839E-05-1.75584E-05-3.19021E-05 2.95164E-06 1.72280E-18-2.70407E-18
 -1       618 9.40007E-05-2.01354E-05-3.16639E-05 3.69255E-06 2.31163E-18-1.85215E-18
 -1       619 9.60875E-05-2.37610E-05-3.09871E-05 2.61024E-06 2.40826E-18-1.21994E-18
 -1       620 1.26840E-04-2.24501E-05-4.51646E-05-1.37571E-05 3.54944E-18-3.56410E-18
 -1       621 4.53816E-05-1.84656E-05-1.10079E-05-2.32932E-05 2.81466E-18 3.31105E-18
 -1       622 1.04022E-04-5.17234E-05-2.21754E-05-3.13804E-05 2.97200E-18-1.37327E-18
 -1       623 9.56531E-05-2.44232E-05-3.05244E-05 1.32512E-06-1.49373E-18-1.36977E-18
 -1       624 9.56939E-05-2.53371E-05-3.01515E-05 3.84932E-06-1.11619E-18-1.25335E-18
 -1       625 9.56448E-05-2.58175E-05-2.99249E-05 5.98192E-06-1.15978E-18-1.08533E-18
 -1       626 9.56290E-05-2.61277E-05-2.97853E-05 7.86656E-06-9.34598E-19-1.26964E-18
 -1       627 9.57615E-05-2.65089E-05-2.96789E-05 9.59742E-06-6.43836E-19-1.28863E-18
 -1       628 9.62213E-05-2.72547E-05-2.95565E-05 1.12061E-05-1.54696E-19-6.42006E-19
 -1       629 9.73262E-05-2.87667E-05-2.93823E-05 1.26415E-05 2.41353E-19-3.90961E-19
 -1       630 9.96068E-05-3.15733E-05-2.91569E-05 1.37145E-05 2.54909E-19-1.34568E-19
 -1       631 1.03805E-04-3.62019E-05-2.89694E-05 1.39575E-05 7.18706E-19-5.62288E-19
 -1       632 1.10853E-04-4.29252E-05-2.91414E-05 1.23548E-05 9.99866E-19 7.46158E-20
 -1       633 1.21033E-04-5.04601E-05-3.02338E-05 7.46330E-06 2.05900E-18 1.17992E-18
 -1       634 1.31210E-04-5.45332E-05-3.29014E-05-2.08939E-06 1.89620E-18 2.69875E-18
 -1       635 1.21997E-04-5.09407E-05-3.04626E-05-5.71319E-06 2.44378E-18-3.70898E-18
 -1       636 1.12025E-04-4.38299E-05-2.92246E-05-1.11680E-05 1.50452E-18-3.68366E-18
 -1       637 1.04599E-04-3.68119E-05-2.90560E-05-1.30121E-05 3.32479E-19-3.05581E-18
 -1       638 1.00075E-04-3.18908E-05-2.92241E-05-1.27997E-05 8.63719E-19-1.88637E-18
 -1       639 9.75705E-05-2.88986E-05-2.94313E-05-1.17276E-05 1.26780E-19-6.79244E-19
 -1       640 9.63175E-05-2.73250E-05-2.95677E-05-1.03148E-05 6.88967E-20-8.43716E-19
 -1       641 9.57501E-05-2.66534E-05-2.96120E-05-8.82039E-06-1.87277E-19-5.81336E-19
 -1       642 9.55229E-05-2.65004E-05-2.95801E-05-7.37502E-06-1.37753E-19-4.19041E-19
 -1       643 9.54457E-05-2.66163E-05-2.94975E-05-6.04723E-06 9.48263E-19-4.77395E-19
 -1       644 9.54237E-05-2.68514E-05-2.93874E-05-4.87081E-06-4.34385E-19-8.46628E-19
 -1       645 9.54150E-05-2.71224E-05-2.92676E-05-3.85760E-06-4.50579E-19 5.37927E-19
 -1       646 9.54041E-05-2.73861E-05-2.91501E-05-3.00528E-06-8.70817E-19-5.04802E-19
 -1       647 9.53879E-05-2.76229E-05-2.90417E-05-2.30275E-06 6.47071E-19 7.58076E-19
 -1       648 9.53677E-05-2.78258E-05-2.89462E-05-1.73413E-06-2.59313E-19-2.30545E-19
 -1       649 9.53460E-05-2.79944E-05-2.88647E-05-1.28156E-06 2.52398E-19-9.34509E-19
 -1       650 9.53249E-05-2.81315E-05-2.87970E-05-9.27055E-07 9.86365E-19-1.85760E-18
 -1       651 9.53058E-05-2.82409E-05-2.87420E-05-6.53677E-07 1.20056E-18-2.01079E-18
 -1       652 9.52893E-05-2.83269E-05-2.86981E-05-4.46176E-07 9.17375E-19-1.69463E-18
 -1       653 9.52758E-05-2.83937E-05-2.86637E-05-2.91289E-07 7.58818E-19-2.84900E-18
 -1       654 9.52651E-05-2.84449E-05-2.86372E-05-1.77811E-07 1.23781E-18-3.84062E-18
 -1       655 9.52569E-05-2.84838E-05-2.86170E-05-9.65291E-08 9.61828E-19-2.84864E-18
 -1       656 9.52509E-05-2.85135E-05-2.86017E-05-4.00858E-08 1.42237E-18-2.56671E-18
 -1       657 9.52468E-05-2.85365E-05-2.85901E-05-2.72204E-09-2.41887E-19-2.34362E-18
 -1       658 9.52444E-05-2.85552E-05-2.85811E-05 1.95875E-08-2.32911E-19-1.59058E-18
 -1       659 9.74293E-05-2.81306E-05-2.96989E-05-5.88718E-06 6.31816E-19-1.39480E-18
 -1       660 9.52434E-05-2.85606E-05-2.85783E-05-2.43362E-08-1.31163E-19-2.66612E-18
 -1       661 9.68958E-05-2.73924E-05-2.97861E-05-4.58238E-06 1.07731E-18-1.17383E-18
 -1       662 9.95303E-05-3.02135E-05-2.97079E-05-7.19584E-06 1.05282E-19-6.94198E-19
 -1       663 1.01302E-04-3.18652E-05-2.97602E-05-7.00122E-06 2.70562E-19-5.06441E-19
 -1       664 1.03667E-04-3.40154E-05-2.98540E-05-5.95862E-06 4.22149E-21 1.59706E-19
 -1       665 1.06590E-04-3.65044E-05-3.00413E-05-3.78269E-06-1.25001E-19 7.61141E-21
 -1       666 1.09728E-04-3.87535E-05-3.04227E-05-2.60928E-07-3.65857E-19 7.11232E-19
 -1       667 1.12282E-04-3.96472E-05-3.11344E-05 4.43163E-06-5.38115E-19 1.44067E-18
 -1       668 1.13039E-04-3.77581E-05-3.22749E-05 9.19707E-06 1.76853E-19 1.75406E-18
 -1       669 1.11121E-04-3.23513E-05-3.37756E-05 1.17896E-05 8.44559E-19 1.57550E-18
 -1       670 1.07308E-04-2.51643E-05-3.52384E-05 9.56586E-06 5.30375E-19 6.62386E-19
 -1       671 1.05021E-04-2.10151E-05-3.60579E-05 2.36640E-06 1.77072E-18 4.07218E-19
 -1       672 1.05392E-04-2.16751E-05-3.59262E-05-6.59163E-06 2.22473E-18-1.22350E-18
 -1       673 1.09172E-04-2.82791E-05-3.46818E-05-1.17171E-05 1.84227E-18-2.55005E-18
 -1       674 1.12394E-04-3.50605E-05-3.31544E-05-1.16637E-05 1.56161E-18-2.57714E-18
 -1       675 1.13121E-04-3.89113E-05-3.18132E-05-7.85596E-06 6.17573E-19-2.82329E-18
 -1       676 1.11441E-04-3.93717E-05-3.08930E-05-3.01931E-06 3.20354E-19-2.14958E-18
 -1       677 1.08550E-04-3.77156E-05-3.03621E-05 1.08991E-06-6.24750E-19-8.97364E-19
 -1       678 1.05481E-04-3.52693E-05-3.00938E-05 3.88796E-06-9.95221E-19-4.57640E-19
 -1       679 1.02821E-04-3.29236E-05-2.99582E-05 5.43086E-06-8.15791E-19-4.36132E-19
 -1       680 1.00747E-04-3.10587E-05-2.98676E-05 6.01803E-06-8.66653E-19-3.77270E-19
 -1       681 9.92163E-05-2.97378E-05-2.97769E-05 5.96102E-06-1.37343E-18-1.09374E-18
 -1       682 9.81168E-05-2.88848E-05-2.96707E-05 5.51346E-06-6.72136E-19-1.29265E-18
 -1       683 9.73328E-05-2.83837E-05-2.95491E-05 4.86200E-06 7.11423E-19-8.11986E-19
 -1       684 9.67712E-05-2.81253E-05-2.94191E-05 4.13457E-06-4.96135E-20-3.55321E-19
 -1       685 9.63643E-05-2.80228E-05-2.92886E-05 3.41322E-06-5.17226E-19 1.27327E-19
 -1       686 9.60656E-05-2.80137E-05-2.91645E-05 2.74632E-06-2.62850E-19-1.66675E-18
 -1       687 9.58440E-05-2.80558E-05-2.90516E-05 2.15855E-06-1.85861E-19-1.02539E-18
 -1       688 9.56783E-05-2.81217E-05-2.89524E-05 1.65883E-06 8.91228E-19-1.31565E-18
 -1       689 9.55542E-05-2.81951E-05-2.88679E-05 1.24610E-06 2.32511E-19-1.96430E-18
 -1       690 9.54615E-05-2.82663E-05-2.87977E-05 9.13521E-07-7.78320E-19-2.07503E-18
 -1       691 9.53928E-05-2.83305E-05-2.87408E-05 6.51381E-07-4.03579E-19-1.18355E-18
 -1       692 9.53424E-05-2.83856E-05-2.86956E-05 4.48987E-07 3.63586E-20-8.47724E-19
 -1       693 9.53061E-05-2.84313E-05-2.86605E-05 2.95863E-07 3.18658E-20-1.66450E-18
 -1       694 9.52805E-05-2.84682E-05-2.86338E-05 1.82446E-07-1.07244E-18-1.88111E-18
 -1       695 9.52630E-05-2.84976E-05-2.86137E-05 1.00444E-07-1.02505E-18-2.41694E-18
 -1       696 9.52516E-05-2.85208E-05-2.85989E-05 4.29902E-08 6.42352E-19-2.70098E-18
 -1       697 9.52449E-05-2.85394E-05-2.85880E-05 4.73306E-09 6.96468E-19-2.03802E-18
 -1       698 9.52434E-05-2.85496E-05-2.85830E-05-1.29604E-08 1.11915E-18-3.06869E-18
 -1       699 1.10124E-04-5.42579E-05-2.37979E-05 2.93508E-05-3.08804E-18 1.17971E-18
 -1       700 9.52343E-05-2.85293E-05-2.85878E-05-1.52755E-09 3.92920E-19-1.91006E-18
 -1       701 9.52436E-05-2.85663E-05-2.85760E-05 2.78677E-08-1.94131E-18-2.89599E-20
 -1       702 9.52406E-05-2.85411E-05-2.85855E-05-7.79329E-09 1.23905E-18-1.62000E-18
 -1       703 9.52346E-05-2.85296E-05-2.85879E-05 9.41316E-11 6.80175E-19 2.13783E-19
 -1       704 9.52367E-05-2.85335E-05-2.85871E-05-3.74629E-09 4.43639E-19 1.19198E-19
 -1       705 9.52374E-05-2.85341E-05-2.85871E-05 2.56265E-09 1.18016E-18-2.07871E-19
 -1       706 9.52417E-05-2.85420E-05-2.85856E-05 7.12491E-09 1.81472E-18-3.89719E-19
 -1       707 9.52453E-05-2.85515E-05-2.85831E-05 1.40699E-08 1.64406E-18-2.09088E-18
 -1       708 9.44164E-05-2.02611E-05-3.17803E-05-4.55707E-06-2.61132E-18-1.88343E-18
 -1       709 7.98189E-05-3.91848E-05-1.70695E-05 3.78585E-05-2.97936E-18 2.85614E-18
 -1       710 4.98555E-05-1.92385E-05-1.26289E-05 2.62219E-05-3.04580E-18 4.01859E-18
 -1       711 1.13729E-04-5.59603E-05-2.46394E-05 2.69178E-05 3.23432E-18-1.25738E-19
 -1       712 8.68848E-05-4.20616E-05-1.88716E-05 3.55606E-05 2.92618E-18-2.53402E-18
 -1       713 8.35722E-05-4.06684E-05-1.80454E-05-3.65035E-05-3.88935E-18-2.02293E-18
 -1       714 9.65815E-05-2.65995E-05-2.99897E-05-2.82097E-06 1.50717E-18-1.13552E-18
 -1       715 9.82754E-05-2.90147E-05-2.96831E-05-6.77553E-06 4.03518E-19-1.03509E-18
 -1       716 9.63687E-05-2.55066E-05-3.03649E-05-4.89168E-07 1.85199E-18-1.32083E-18
 -1       717 6.90931E-05-3.37512E-05-1.47509E-05-3.55816E-05 3.40976E-18 9.97672E-19
 -1       718 1.35256E-04-5.85480E-05-3.27367E-05 4.67315E-06 1.73795E-18 2.17955E-18
 -1       719 9.53046E-05-2.28555E-05-3.10499E-05-1.40016E-06-2.09694E-18-1.59245E-18
 -1       720 3.55577E-05-1.22031E-05-9.42581E-06-7.44218E-06-1.21903E-18-7.10449E-18
 -1       721 1.16706E-04-9.54873E-06-4.63114E-05-2.47248E-06 4.86980E-18-2.61886E-18
 -1       722 9.03127E-05-1.56263E-05-3.20137E-05 2.02506E-06 1.27467E-18-3.12191E-18
 -1       723 8.99824E-05-1.52454E-05-3.20351E-05-2.10133E-06-1.39292E-18-3.26335E-18
 -1       724 1.33567E-04-5.40067E-05-3.43253E-05-1.50864E-06-5.70983E-19 3.59051E-18
 -1       725 5.05210E-05-1.88424E-05-1.31356E-05 2.32044E-05 1.59499E-18-5.73640E-18
 -1       726 3.59715E-05-1.09037E-05-1.02239E-05-8.37876E-07-6.84662E-19 3.85516E-18
 -1       727 1.27673E-04-5.96488E-05-2.91148E-05-1.49630E-05 1.74572E-18-3.73525E-18
 -1       728 1.32031E-04-5.68407E-05-3.23126E-05 6.62916E-06-7.17761E-19-2.08855E-18
 -1       729 1.32267E-04-3.64663E-05-4.13884E-05 1.19788E-05 2.30292E-18 3.30981E-18
 -1       730 1.21842E-04-1.56658E-05-4.60050E-05 1.06561E-05 3.83526E-18 1.78261E-18
 -1       731 1.32201E-04-5.42974E-05-3.34579E-05 2.65096E-06 1.44433E-18-3.42259E-18
 -1       732 9.16616E-05-1.71294E-05-3.19463E-05-2.94345E-06-1.85447E-18-2.79531E-18
 -1       733 8.83452E-05-1.34915E-05-3.20849E-05-5.34375E-07-3.52671E-19-3.56524E-18
 -1       734 9.52442E-05-2.85503E-05-2.85831E-05-1.40645E-08 3.41335E-18 1.59849E-19
 -1       735 1.03770E-04-4.98567E-05-2.29496E-05-2.99348E-05-3.84746E-18 6.49376E-19
 -1       736 7.02164E-05-3.03032E-05-1.67733E-05-3.27482E-05-3.87236E-18-3.37998E-18
 -1       737 4.85176E-05-1.32941E-05-1.47427E-05 8.71027E-06 4.91359E-19-5.31013E-18
 -1       738 8.88657E-05-1.40386E-05-3.20737E-05-1.30821E-06-8.53079E-19-3.49463E-18
 -1       739 1.16118E-04-1.78126E-05-4.25305E-05-1.04409E-05 3.69324E-18-3.40446E-18
 -1       740 9.52459E-05-2.85526E-05-2.85828E-05 1.67931E-08 6.03365E-19-4.73902E-18
 -1       741 1.25842E-04-5.60921E-05-2.98688E-05-1.09993E-05-2.20295E-18 2.60222E-18
 -1       742 9.40150E-05-2.13088E-05-3.11588E-05 9.84622E-07 1.72503E-18-1.65411E-18
 -1       743 6.56830E-05-2.43988E-05-1.74186E-05-2.60458E-05 2.57375E-18 1.08132E-18
 -1       744 1.01933E-04-4.47980E-05-2.43560E-05 2.53234E-05 2.64085E-18-1.68325E-19
 -1       745 1.11617E-04-1.43590E-05-4.19021E-05 5.28337E-06 2.51188E-18-5.52074E-19
 -1       746 9.39803E-05-2.38201E-05-3.00687E-05 4.50107E-06-1.05887E-18-2.02465E-18
 -1       747 9.35045E-05-2.41881E-05-2.97068E-05 6.47613E-06-1.07916E-18-1.72753E-18
 -1       748 9.28848E-05-2.43721E-05-2.93622E-05 8.31778E-06-7.26848E-19-1.60484E-18
 -1       749 9.22686E-05-2.46493E-05-2.89793E-05 1.01470E-05-2.00435E-20-1.52161E-18
 -1       750 9.18971E-05-2.53863E-05-2.85037E-05 1.20887E-05 1.73708E-19-1.66177E-18
 -1       751 9.21976E-05-2.71004E-05-2.78960E-05 1.42697E-05 4.80552E-19-1.61146E-18
 -1       752 9.38938E-05-3.05033E-05-2.71635E-05 1.67604E-05 4.05969E-19-1.21949E-18
 -1       753 9.85787E-05-3.66672E-05-2.65112E-05 1.94572E-05 1.29925E-18-3.88755E-19
 -1       754 9.89200E-05-3.72653E-05-2.63759E-05-1.89011E-05 1.75179E-18-2.18333E-18
 -1       755 9.39074E-05-3.07658E-05-2.70579E-05-1.62145E-05 1.72964E-18-6.00122E-19
 -1       756 9.18541E-05-2.70779E-05-2.77600E-05-1.36040E-05 8.63624E-19-8.71565E-19
 -1       757 9.13357E-05-2.52571E-05-2.83187E-05-1.13692E-05 1.50936E-20-1.08702E-18
 -1       758 9.15690E-05-2.45891E-05-2.87051E-05-9.47881E-06 1.64621E-19-8.62617E-19
 -1       759 9.21073E-05-2.45774E-05-2.89409E-05-7.86250E-06 3.02055E-20-6.07731E-19
 -1       760 9.27163E-05-2.49047E-05-2.90618E-05-6.46589E-06-5.25722E-19-4.17027E-19
 -1       761 9.32847E-05-2.53783E-05-2.91025E-05-5.25740E-06-7.30829E-20-1.01876E-18
 -1       762 9.37685E-05-2.58877E-05-2.90916E-05-4.21888E-06-1.89622E-19-2.24742E-18
 -1       763 9.41586E-05-2.63738E-05-2.90505E-05-3.33723E-06-8.40977E-19-2.15204E-18
 -1       764 9.44619E-05-2.68086E-05-2.89942E-05-2.59978E-06 1.14657E-18-1.62113E-19
 -1       765 9.46918E-05-2.71819E-05-2.89327E-05-1.99266E-06-3.92942E-19-9.12116E-19
 -1       766 9.48624E-05-2.74934E-05-2.88724E-05-1.50081E-06-3.46117E-19-3.26542E-20
 -1       767 9.49867E-05-2.77476E-05-2.88167E-05-1.10867E-06-1.79623E-19-7.29597E-19
 -1       768 9.50756E-05-2.79514E-05-2.87675E-05-8.00942E-07 1.40741E-18-5.79936E-19
 -1       769 9.51378E-05-2.81121E-05-2.87253E-05-5.63284E-07 7.93470E-19-6.80593E-19
 -1       770 9.51804E-05-2.82370E-05-2.86900E-05-3.82734E-07 2.08103E-19-1.57584E-18
 -1       771 9.52085E-05-2.83326E-05-2.86611E-05-2.47966E-07 1.59913E-18-9.04488E-19
 -1       772 9.52262E-05-2.84051E-05-2.86376E-05-1.49365E-07 1.00507E-18-1.84364E-18
 -1       773 9.52367E-05-2.84595E-05-2.86188E-05-7.89832E-08 7.19706E-19-2.93524E-18
 -1       774 9.52424E-05-2.85005E-05-2.86037E-05-3.06786E-08 2.87508E-19-3.47666E-18
 -1       775 9.52451E-05-2.85298E-05-2.85923E-05-1.67374E-09-6.90598E-19-4.01475E-18
 -1       776 9.59145E-05-2.65153E-05-2.97423E-05-5.49278E-06 9.81385E-19-1.23088E-18
 -1       777 1.00595E-04-3.27430E-05-2.90797E-05-8.81887E-06-4.96359E-19-6.98878E-19
 -1       778 9.84221E-05-3.03271E-05-2.91836E-05-8.67436E-06-6.57299E-20-1.20347E-18
 -1       779 1.08183E-04-3.97314E-05-2.93374E-05-6.01824E-06-9.28930E-19 5.02239E-19
 -1       780 1.13228E-04-4.30941E-05-3.00575E-05-2.01892E-06-1.02631E-18 8.91453E-19
 -1       781 1.17512E-04-4.41110E-05-3.14634E-05 3.93478E-06-2.09635E-19 1.24564E-18
 -1       782 1.18815E-04-3.96994E-05-3.39325E-05 1.04862E-05 4.00471E-19 1.86330E-18
 -1       783 1.15826E-04-2.97022E-05-3.70737E-05 1.35677E-05 1.48787E-18 1.70779E-18
 -1       784 1.12053E-04-2.29839E-05-3.84197E-05-1.24235E-05 2.81196E-18-2.26432E-18
 -1       785 1.17169E-04-3.43414E-05-3.55926E-05-1.35107E-05 2.24561E-18-3.04013E-18
 -1       786 1.18354E-04-4.17786E-05-3.28477E-05-8.70415E-06 1.11473E-18-3.39198E-18
 -1       787 1.15520E-04-4.34273E-05-3.09038E-05-2.22878E-06-9.35559E-19-1.69277E-18
 -1       788 1.10815E-04-4.12537E-05-2.98134E-05 2.79336E-06-1.55932E-18-7.15665E-19
 -1       789 1.06077E-04-3.76520E-05-2.93251E-05 5.86640E-06-1.22785E-18 1.21101E-19
 -1       790 1.02226E-04-3.41586E-05-2.91717E-05 7.27194E-06-1.47366E-18 4.11062E-19
 -1       791 9.94606E-05-3.14045E-05-2.91675E-05 7.59048E-06-9.05813E-19 4.01195E-19
 -1       792 9.76281E-05-2.94856E-05-2.92042E-05 7.26869E-06-8.89274E-19 1.18738E-18
 -1       793 9.64878E-05-2.82810E-05-2.92314E-05 6.59857E-06-6.79517E-19-4.07370E-19
 -1       794 9.58192E-05-2.76124E-05-2.92313E-05 5.76875E-06-9.81115E-20-1.71838E-18
 -1       795 9.54518E-05-2.73115E-05-2.92027E-05 4.89702E-06 1.66679E-19-5.45153E-19
 -1       796 9.52667E-05-2.72445E-05-2.91521E-05 4.05511E-06-4.74860E-19-6.61335E-20
 -1       797 9.51860E-05-2.73140E-05-2.90878E-05 3.28434E-06 8.67862E-19-5.45303E-20
 -1       798 9.51615E-05-2.74537E-05-2.90174E-05 2.60557E-06-4.72013E-20-4.56565E-19
 -1       799 9.51646E-05-2.76212E-05-2.89470E-05 2.02591E-06 9.57320E-20-1.65937E-18
 -1       800 9.51789E-05-2.77905E-05-2.88806E-05 1.54346E-06 4.15589E-19-1.91181E-18
 -1       801 9.51959E-05-2.79472E-05-2.88208E-05 1.15090E-06-8.66813E-19-1.13272E-18
 -1       802 9.52115E-05-2.80844E-05-2.87686E-05 8.37984E-07-1.11287E-18-1.09650E-18
 -1       803 9.52239E-05-2.81999E-05-2.87245E-05 5.93350E-07-4.85969E-19 2.49178E-19
 -1       804 9.52330E-05-2.82941E-05-2.86881E-05 4.05695E-07 4.43596E-19 1.50213E-19
 -1       805 9.52390E-05-2.83691E-05-2.86585E-05 2.64516E-07 6.95306E-19-4.55678E-20
 -1       806 9.52425E-05-2.84276E-05-2.86349E-05 1.60529E-07-8.60207E-19-8.69490E-19
 -1       807 9.52442E-05-2.84726E-05-2.86164E-05 8.58953E-08-2.05611E-18 1.31234E-19
 -1       808 9.52447E-05-2.85070E-05-2.86018E-05 3.43955E-08 2.56213E-19 1.60554E-18
 -1       809 9.52232E-05-2.84900E-05-2.86000E-05-5.06362E-09 6.48289E-19 9.31687E-20
 -1       810 9.52385E-05-2.85165E-05-2.85951E-05-4.06608E-09-1.16364E-19-1.83823E-18
 -1       811 9.52204E-05-2.84859E-05-2.86005E-05-9.09015E-10 1.40860E-18-1.77018E-19
 -1       812 1.20320E-04-5.39991E-05-2.84310E-05 1.35681E-05-2.37736E-18-1.26871E-18
 -1       813 1.26192E-04-4.37080E-05-3.55065E-05 9.17516E-06 1.55755E-19 2.69835E-18
 -1       814 7.27746E-05-2.83163E-05-1.88484E-05 2.82766E-05-3.72069E-18 3.74993E-18
 -1       815 1.15303E-04-5.18597E-05-2.70749E-05-1.82054E-05 2.64155E-18-3.62603E-18
 -1       816 4.99502E-05-1.30846E-05-1.54924E-05 1.05299E-05-1.27224E-18 2.87851E-18
 -1       817 9.52300E-05-2.85009E-05-2.85982E-05-6.77073E-09-4.87271E-19-1.70387E-19
 -1       818 1.03812E-04-3.59433E-05-2.90876E-05-8.10252E-06-5.47429E-19-5.53649E-20
 -1       819 5.17628E-05-1.70521E-05-1.45039E-05-1.96301E-05-2.55009E-18-5.26442E-18
 -1       820 5.09037E-05-1.41389E-05-1.54492E-05-1.28357E-05 5.30990E-19 1.75272E-18
 -1       821 9.56692E-05-2.55709E-05-3.00419E-05-3.74597E-06 1.28320E-18-1.10895E-18
 -1       822 1.24931E-04-3.58397E-05-3.84217E-05-1.41965E-05 2.48857E-18-3.86847E-18
 -1       823 9.41720E-05-2.29981E-05-3.05032E-05 2.28602E-06-1.30498E-18-1.98448E-18
 -1       824 9.39199E-05-4.19185E-05-2.21711E-05 2.90159E-05-2.96141E-18 5.68611E-19
 -1       825 1.26779E-04-4.86526E-05-3.35347E-05-4.91646E-06 1.15489E-19-2.39184E-18
 -1       826 9.07480E-05-4.01039E-05-2.15436E-05-2.91120E-05 2.66060E-18-1.03255E-18
 -1       827 9.53793E-05-2.35347E-05-3.07899E-05 3.31642E-07 1.90476E-18-1.31911E-18
 -1       828 1.27376E-04-2.91639E-05-4.24529E-05 1.32790E-05 3.37789E-18 3.48365E-18
 -1       829 1.17644E-04-2.31250E-05-4.08334E-05 1.20997E-05 2.98222E-18 7.73672E-19
 -1       830 8.97936E-05-1.63698E-05-3.14684E-05-1.54654E-08 4.13361E-19-3.16931E-18
 -1       831 7.51668E-05-2.82560E-05-2.00020E-05 2.64146E-05 2.39436E-18-2.93116E-18
 -1       832 8.93487E-05-1.58992E-05-3.14803E-05-2.41294E-07-3.71828E-21-3.01921E-18
 -1       833 9.52368E-05-2.85152E-05-2.85950E-05 3.44334E-09 2.44625E-18-2.61003E-18
 -1       834 9.17873E-05-1.85845E-05-3.13753E-05-6.99016E-07-1.30234E-18-2.59482E-18
 -1       835 5.37370E-05-1.32807E-05-1.71224E-05-4.38604E-06-8.35314E-19-4.23858E-18
 -1       836 9.55863E-05-2.47257E-05-3.03688E-05-1.89478E-06 1.47191E-18-1.24079E-18
 -1       837 9.70876E-05-2.86385E-05-2.93351E-05-7.97574E-06-3.67948E-20-1.29577E-18
 -1       838 1.07963E-04-4.69889E-05-2.60802E-05 1.92986E-05-3.43021E-18 6.02543E-20
 -1       839 9.52440E-05-2.85247E-05-2.85941E-05 8.53592E-09 2.93365E-18 2.31395E-18
 -1       840 6.56034E-05-1.96752E-05-1.95452E-05 1.85056E-05-1.87328E-18 1.87042E-18
 -1       841 9.52287E-05-2.84999E-05-2.85981E-05 5.43290E-09 8.47887E-19-6.39414E-19
 -1       842 9.63248E-05-2.74509E-05-2.95172E-05-6.89629E-06 5.01650E-19-1.33523E-18
 -1       843 9.52225E-05-2.84894E-05-2.85999E-05 3.38849E-09 4.43725E-19-7.76995E-19
 -1       844 6.70987E-05-2.06262E-05-1.96872E-05 1.88217E-05 1.88665E-18-3.91593E-18
 -1       845 1.15707E-04-5.25161E-05-2.70885E-05-1.78596E-05-2.57654E-18 1.73401E-18
 -1       846 8.99983E-05-3.94479E-05-2.14761E-05-2.98833E-05-3.68584E-18-5.97535E-19
 -1       847 9.52438E-05-2.85335E-05-2.85901E-05-2.74497E-09 3.03550E-18 2.07170E-18
 -1       848 9.39190E-05-2.15844E-05-3.10007E-05 1.46710E-08-1.68253E-18-1.99202E-18
 -1       849 9.22940E-05-1.91625E-05-3.13415E-05 6.73177E-07 1.29287E-18-2.60337E-18
 -1       850 9.08114E-05-1.74755E-05-3.14305E-05 2.96362E-07 8.03411E-19-2.94841E-18
 -1       851 9.03778E-05-1.70020E-05-3.14476E-05-5.43447E-07-9.41340E-19-3.00188E-18
 -1       852 1.22932E-04-3.34895E-05-3.85431E-05 1.37981E-05 2.11128E-18 2.76069E-18
 -1       853 9.52419E-05-2.85221E-05-2.85941E-05-3.52336E-09-5.97902E-19-2.54901E-18
 -1       854 8.41228E-05-2.75607E-05-2.41998E-05-1.93819E-05 1.99510E-18-6.33328E-19
 -1       855 9.08757E-05-2.25248E-05-2.92934E-05 6.22440E-06-6.83034E-19-1.67039E-18
 -1       856 8.95175E-05-2.24826E-05-2.87293E-05 7.87201E-06-4.80824E-19-1.30057E-18
 -1       857 8.79358E-05-2.24973E-05-2.80452E-05 9.68105E-06-3.43872E-19-1.70070E-18
 -1       858 8.63087E-05-2.29232E-05-2.71641E-05 1.19129E-05 2.08867E-19-2.31940E-18
 -1       859 8.49524E-05-2.42766E-05-2.60026E-05 1.50026E-05 6.22638E-19-2.62760E-18
 -1       860 8.49408E-05-2.74895E-05-2.45531E-05 1.91416E-05 1.43912E-18-2.01334E-18
 -1       861 8.40290E-05-2.40520E-05-2.56987E-05-1.46530E-05 9.35821E-19-5.57475E-19
 -1       862 8.51680E-05-2.25734E-05-2.68247E-05-1.14262E-05 3.64349E-19-1.04330E-18
 -1       863 8.66769E-05-2.22194E-05-2.76244E-05-9.15682E-06 1.06683E-19-1.71430E-18
 -1       864 8.82124E-05-2.24877E-05-2.81676E-05-7.46489E-06 4.67499E-19-1.67423E-18
 -1       865 8.96191E-05-2.30758E-05-2.85185E-05-6.12542E-06 2.53140E-19-1.37431E-18
 -1       866 9.08360E-05-2.37982E-05-2.87304E-05-5.01630E-06-8.93744E-19-5.55315E-19
 -1       867 9.18499E-05-2.45439E-05-2.88454E-05-4.07590E-06-1.08624E-18-1.45519E-18
 -1       868 9.26723E-05-2.52500E-05-2.88953E-05-3.27371E-06-5.22155E-19-3.33096E-18
 -1       869 9.33256E-05-2.58844E-05-2.89033E-05-2.59313E-06 1.58360E-18-1.67309E-18
 -1       870 9.38354E-05-2.64343E-05-2.88862E-05-2.02249E-06 5.28666E-19-1.14199E-18
 -1       871 9.42272E-05-2.68982E-05-2.88553E-05-1.55108E-06 3.82093E-19-6.80490E-19
 -1       872 9.45238E-05-2.72811E-05-2.88183E-05-1.16789E-06-5.69614E-19-9.50882E-19
 -1       873 9.47450E-05-2.75915E-05-2.87801E-05-8.61519E-07 1.03357E-18 6.65998E-20
 -1       874 9.49071E-05-2.78387E-05-2.87436E-05-6.20618E-07 1.07275E-18-8.14823E-19
 -1       875 9.50237E-05-2.80327E-05-2.87104E-05-4.34373E-07 2.54667E-20-1.82256E-18
 -1       876 9.51057E-05-2.81826E-05-2.86813E-05-2.92882E-07 4.63925E-19-2.33676E-18
 -1       877 9.51617E-05-2.82968E-05-2.86564E-05-1.87416E-07 2.26587E-18-2.80185E-18
 -1       878 9.51985E-05-2.83828E-05-2.86353E-05-1.10572E-07 1.68013E-18-5.48390E-20
 -1       879 9.52217E-05-2.84476E-05-2.86175E-05-5.61035E-08 5.13910E-19 9.47061E-19
 -1       880 6.79161E-05-2.35228E-05-1.88425E-05-2.36859E-05-3.04717E-18-3.25965E-18
 -1       881 1.17137E-04-4.81961E-05-2.95577E-05-6.05395E-06-1.20482E-18 9.62620E-19
 -1       882 1.09390E-04-4.31940E-05-2.83523E-05-1.02901E-05-1.37166E-18 6.13681E-19
 -1       883 1.13720E-04-4.58785E-05-2.90479E-05 6.94890E-06-2.25531E-18-7.20623E-19
 -1       884 1.06298E-04-4.03494E-05-2.82605E-05 9.87521E-06-2.23041E-18 7.96730E-19
 -1       885 1.00949E-04-3.53370E-05-2.81138E-05 1.04004E-05-1.56492E-18 1.99447E-18
 -1       886 9.74339E-05-3.15476E-05-2.82358E-05 9.87372E-06-8.66415E-19 1.62898E-18
 -1       887 9.53389E-05-2.89827E-05-2.84384E-05 8.87180E-06-1.41393E-18 6.01350E-19
 -1       888 9.42295E-05-2.74189E-05-2.86330E-05 7.71021E-06 3.21692E-20 1.19426E-18
 -1       889 9.37506E-05-2.65893E-05-2.87834E-05 6.55275E-06 2.23290E-19 1.94481E-18
 -1       890 9.36470E-05-2.62572E-05-2.88813E-05 5.46930E-06 4.40101E-20 8.08581E-19
 -1       891 9.37483E-05-2.62402E-05-2.89320E-05 4.49035E-06-4.47804E-19-3.98869E-20
 -1       892 9.39463E-05-2.64060E-05-2.89458E-05 3.62797E-06 2.00345E-19-1.42373E-19
 -1       893 9.41754E-05-2.66642E-05-2.89334E-05 2.88433E-06 8.04410E-19 8.68087E-19
 -1       894 9.43990E-05-2.69555E-05-2.89044E-05 2.25553E-06 9.71849E-19 3.29988E-19
 -1       895 9.45985E-05-2.72438E-05-2.88663E-05 1.73359E-06 5.35815E-19-7.01505E-20
 -1       896 9.47663E-05-2.75085E-05-2.88248E-05 1.30799E-06-5.91449E-19-4.86771E-19
 -1       897 9.49015E-05-2.77398E-05-2.87836E-05 9.66918E-07-2.69254E-19-5.85045E-19
 -1       898 9.50066E-05-2.79345E-05-2.87451E-05 6.98174E-07-9.99144E-19-3.79084E-19
 -1       899 9.50855E-05-2.80938E-05-2.87107E-05 4.89996E-07-2.11987E-19-1.80150E-19
 -1       900 9.51428E-05-2.82209E-05-2.86808E-05 3.31534E-07-1.20585E-19 1.68079E-18
 -1       901 9.51829E-05-2.83201E-05-2.86555E-05 2.13150E-07 3.99245E-19 2.75870E-18
 -1       902 9.52098E-05-2.83964E-05-2.86343E-05 1.26623E-07-7.74079E-19 1.66017E-18
 -1       903 9.52267E-05-2.84541E-05-2.86168E-05 6.53490E-08-9.68705E-19 1.12648E-18
 -1       904 1.25206E-04-5.19387E-05-3.13994E-05-2.43765E-06-1.44402E-18 2.25878E-18
 -1       905 9.52002E-05-2.84347E-05-2.86138E-05-8.11040E-09 1.79738E-18-5.59062E-19
 -1       906 8.14463E-05-2.98130E-05-2.20173E-05-2.38483E-05 2.83958E-18-4.42714E-19
 -1       907 1.04134E-04-4.53429E-05-2.51558E-05-2.22831E-05-2.82455E-18 4.12871E-19
 -1       908 1.20038E-04-4.88425E-05-3.05646E-05 2.31315E-06-1.33713E-18-1.17009E-18
 -1       909 9.65395E-05-3.01768E-05-2.84400E-05-1.04241E-05-7.48110E-19-1.45071E-18
 -1       910 6.60075E-05-1.90185E-05-2.00170E-05-1.68755E-05 1.57573E-18-3.45934E-19
 -1       911 9.43208E-05-2.45397E-05-2.99060E-05-4.48632E-06 1.14144E-18-1.25161E-18
 -1       912 8.95456E-05-1.61064E-05-3.14754E-05-3.98799E-07-5.65451E-19-3.17562E-18
 -1       913 9.19006E-05-2.23543E-05-2.98059E-05 4.56807E-06-9.47359E-19-1.68811E-18
 -1       914 8.66317E-05-3.34525E-05-2.27263E-05 2.41881E-05-2.60116E-18 1.06534E-18
 -1       915 5.84087E-05-1.32858E-05-1.92110E-05-1.70776E-06-6.52053E-19 1.35329E-18
 -1       916 9.24889E-05-2.17330E-05-3.03240E-05 2.78659E-06-1.07022E-18-1.96896E-18
 -1       917 9.43822E-05-2.55355E-05-2.95055E-05-6.19351E-06 5.95202E-19-1.13375E-18
 -1       918 9.44429E-05-2.29190E-05-3.06529E-05-1.20049E-06 1.34513E-18-1.50479E-18
 -1       919 8.36680E-05-3.11806E-05-2.24428E-05-2.38268E-05-2.74787E-18-1.48224E-18
 -1       920 6.31038E-05-1.57328E-05-2.01759E-05 9.06409E-06 7.96964E-19-3.42087E-18
 -1       921 9.22761E-05-2.03990E-05-3.08035E-05 1.09078E-06-1.04366E-18-2.12892E-18
 -1       922 9.08553E-05-1.88652E-05-3.08525E-05 6.46936E-07-7.99109E-19-2.80097E-18
 -1       923 9.08429E-05-1.88032E-05-3.08745E-05-9.01318E-07 4.22473E-19-2.80512E-18
 -1       924 6.35400E-05-1.70142E-05-1.98294E-05-1.23736E-05-1.69030E-18-3.43852E-18
 -1       925 7.78020E-05-2.50974E-05-2.25388E-05 1.92334E-05-1.67765E-18 3.03884E-18
 -1       926 9.52348E-05-2.84898E-05-2.86050E-05-2.61903E-08-3.69161E-19-1.13229E-18
 -1       927 9.44733E-05-2.38619E-05-3.02624E-05-2.95909E-06 1.25566E-18-1.46152E-18
 -1       928 1.03307E-04-3.78423E-05-2.80459E-05-1.16780E-05-1.18287E-18 8.74692E-20
 -1       929 9.91074E-05-3.33963E-05-2.81675E-05-1.13729E-05-1.13209E-18-6.72554E-19
 -1       930 9.52015E-05-2.80415E-05-2.87820E-05-9.15655E-06 1.93231E-20-1.57378E-18
 -1       931 9.52325E-05-2.84840E-05-2.86065E-05 3.17651E-08 1.38854E-18-1.08669E-18
 -1       932 6.54440E-05-1.56941E-05-2.12664E-05 7.63993E-06-1.32640E-18 2.01096E-18
 -1       933 9.45889E-05-2.65999E-05-2.91378E-05-7.73841E-06 3.17520E-19-1.06113E-18
 -1       934 9.51996E-05-2.84344E-05-2.86137E-05 6.12046E-09 1.25490E-18 1.12527E-19
 -1       935 9.52202E-05-2.84639E-05-2.86098E-05-2.60104E-08-1.32224E-18-4.65471E-19
 -1       936 9.52199E-05-2.84656E-05-2.86090E-05 2.58260E-08 1.55027E-18-4.37656E-18
 -1       937 9.00240E-05-1.79508E-05-3.08883E-05-5.87622E-07 1.25590E-19-2.84678E-18
 -1       938 9.52077E-05-2.84451E-05-2.86125E-05-1.91343E-08 9.41066E-19-2.98463E-18
 -1       939 9.57100E-05-3.74775E-05-2.49487E-05-2.08932E-05-2.37266E-18-4.67928E-19
 -1       940 7.52965E-05-2.32244E-05-2.22608E-05-1.77810E-05-2.05248E-18-2.41000E-18
 -1       941 1.08327E-04-4.50359E-05-2.70978E-05-1.56677E-05-1.70962E-18 1.32170E-19
 -1       942 8.58483E-05-2.06300E-05-2.79515E-05 6.26981E-06-4.08446E-19-1.87718E-18
 -1       943 8.30446E-05-2.01833E-05-2.69420E-05 7.76047E-06-4.66983E-19-2.07878E-18
 -1       944 7.96044E-05-1.98984E-05-2.55848E-05 9.87844E-06-2.02171E-20-2.47334E-18
 -1       945 7.52441E-05-1.98217E-05-2.37274E-05 1.30313E-05 9.44305E-19-2.83038E-18
 -1       946 9.21727E-05-2.02371E-05-3.08306E-05-1.07121E-06 9.30378E-19-2.35009E-18
 -1       947 7.38642E-05-1.95796E-05-2.32296E-05-1.30352E-05 1.88528E-18-6.51822E-19
 -1       948 7.79419E-05-1.93038E-05-2.51295E-05-9.50381E-06-2.97872E-19-2.56575E-20
 -1       949 8.13493E-05-1.96874E-05-2.64280E-05-7.32208E-06-2.32698E-19-1.02854E-18
 -1       950 8.41471E-05-2.04175E-05-2.73138E-05-5.88619E-06 1.33884E-20-2.09060E-18
 -1       951 8.64451E-05-2.13201E-05-2.79114E-05-4.84595E-06 1.52832E-18-1.24120E-18
 -1       952 8.83296E-05-2.22865E-05-2.83046E-05-4.02310E-06-1.18494E-19-4.24595E-19
 -1       953 8.98664E-05-2.32423E-05-2.85534E-05-3.33135E-06-6.16994E-19 2.85245E-19
 -1       954 9.11092E-05-2.41394E-05-2.87015E-05-2.73235E-06-1.32116E-18 1.48617E-18
 -1       955 9.21043E-05-2.49496E-05-2.87807E-05-2.21079E-06 2.61152E-19 6.32102E-19
 -1       956 9.28921E-05-2.56596E-05-2.88140E-05-1.76052E-06 1.63383E-18 4.35071E-19
 -1       957 9.35085E-05-2.62666E-05-2.88180E-05-1.37777E-06-3.63346E-20 6.02072E-19
 -1       958 9.39846E-05-2.67746E-05-2.88043E-05-1.05829E-06-7.97620E-19-1.00106E-18
 -1       959 9.43474E-05-2.71918E-05-2.87810E-05-7.96652E-07 1.34246E-18-1.29292E-18
 -1       960 9.46195E-05-2.75285E-05-2.87533E-05-5.86405E-07 5.71441E-19-1.79399E-18
 -1       961 9.48203E-05-2.77957E-05-2.87248E-05-4.20592E-07-6.08640E-19-2.40574E-18
 -1       962 9.49655E-05-2.80046E-05-2.86975E-05-2.92249E-07 1.92840E-19-1.91782E-18
 -1       963 9.50680E-05-2.81654E-05-2.86725E-05-1.94792E-07 1.61625E-18-1.83817E-18
 -1       964 9.51382E-05-2.82875E-05-2.86503E-05-1.22314E-07 3.92523E-18-1.65792E-18
 -1       965 9.51843E-05-2.83788E-05-2.86309E-05-6.95129E-08 1.93571E-18-1.83735E-18
 -1       966 9.26179E-05-2.34927E-05-2.96251E-05-4.88607E-06 6.06479E-19-1.30157E-18
 -1       967 8.97135E-05-2.10851E-05-2.94131E-05 3.86443E-06-6.73275E-19-1.96454E-18
 -1       968 9.90529E-05-3.85457E-05-2.59313E-05 1.78396E-05-2.52232E-18-6.49603E-19
 -1       969 9.20650E-05-2.79305E-05-2.74876E-05 1.06379E-05-1.10625E-18 1.33513E-18
 -1       970 9.12815E-05-2.61737E-05-2.79036E-05 8.71504E-06-9.95876E-19 1.36294E-18
 -1       971 9.11891E-05-2.52999E-05-2.82385E-05 7.09282E-06 6.97614E-20 6.86274E-19
 -1       972 9.14754E-05-2.50102E-05-2.84852E-05 5.74228E-06 9.89780E-19-7.03387E-20
 -1       973 9.19437E-05-2.50866E-05-2.86532E-05 4.61963E-06 1.20127E-19 3.18452E-19
 -1       974 9.24739E-05-2.53744E-05-2.87570E-05 3.68648E-06-1.08270E-19 5.96172E-20
 -1       975 9.29955E-05-2.57672E-05-2.88122E-05 2.91265E-06 8.36961E-19-8.30337E-19
 -1       976 9.34703E-05-2.61947E-05-2.88325E-05 2.27444E-06 1.33342E-18-1.12416E-18
 -1       977 9.38808E-05-2.66126E-05-2.88293E-05 1.75249E-06 9.77637E-19-9.76358E-19
 -1       978 9.42222E-05-2.69955E-05-2.88115E-05 1.33011E-06 3.88206E-19 2.61347E-19
 -1       979 9.44973E-05-2.73309E-05-2.87856E-05 9.92397E-07-6.18517E-19 8.32266E-19
 -1       980 9.47128E-05-2.76146E-05-2.87564E-05 7.25918E-07-6.45310E-19 1.23135E-18
 -1       981 9.48771E-05-2.78480E-05-2.87268E-05 5.18572E-07-1.23909E-18 2.16309E-18
 -1       982 9.49992E-05-2.80355E-05-2.86988E-05 3.59648E-07-5.11672E-20 2.27573E-18
 -1       983 9.50872E-05-2.81829E-05-2.86733E-05 2.39825E-07 3.75214E-19 1.58551E-18
 -1       984 9.51486E-05-2.82966E-05-2.86508E-05 1.51112E-07 8.17467E-19 1.55040E-18
 -1       985 9.51896E-05-2.83829E-05-2.86314E-05 8.73648E-08-2.99140E-19 2.65493E-19
 -1       986 9.52066E-05-2.84273E-05-2.86197E-05 5.18860E-08 1.60685E-18-2.63385E-18
 -1       987 9.52069E-05-2.84453E-05-2.86121E-05 1.86701E-08 1.00666E-18-1.19578E-18
 -1       988 9.00157E-05-1.79897E-05-3.08684E-05 1.38725E-07-4.19988E-19-2.88218E-18
 -1       989 9.23305E-05-2.44089E-05-2.91094E-05-6.56910E-06 5.60533E-19-1.39472E-18
 -1       990 6.74731E-05-1.63617E-05-2.18681E-05-8.75503E-06 1.40310E-18-1.53300E-18
 -1       991 8.98252E-05-1.77697E-05-3.08802E-05-2.51632E-07-2.46702E-19-2.50999E-18
 -1       992 9.40738E-05-3.09986E-05-2.70362E-05 1.28097E-05-5.99961E-19-2.55696E-19
 -1       993 9.58960E-05-3.41056E-05-2.64792E-05 1.51556E-05-1.73826E-18-3.20993E-19
 -1       994 9.09319E-05-2.01583E-05-3.03316E-05 1.84705E-06-8.04169E-19-2.49650E-18
 -1       995 9.04849E-05-2.07795E-05-2.98737E-05 2.86712E-06-7.02599E-19-2.23536E-18
 -1       996 8.80641E-05-2.09956E-05-2.87442E-05 5.03871E-06-5.68410E-19-1.79191E-18
 -1       997 6.50283E-05-1.50523E-05-2.13590E-05 1.35217E-07-1.21541E-19-2.19988E-18
 -1       998 9.16489E-05-2.09030E-05-3.03185E-05-2.29715E-06 6.55521E-19-2.20437E-18
 -1       999 7.27864E-05-1.69469E-05-2.39394E-05 4.66250E-06-2.80150E-20-2.17465E-18
 -1      1000 9.04117E-05-1.96805E-05-3.03120E-05-1.54366E-06 1.77957E-19-2.62676E-18
 -1      1001 1.00911E-04-3.83942E-05-2.67768E-05-1.57379E-05-1.80018E-18-8.21184E-19
 -1      1002 7.35929E-05-1.94417E-05-2.31966E-05 1.16843E-05-1.68895E-18 2.11110E-18
 -1      1003 8.58947E-05-2.90260E-05-2.43457E-05-1.86353E-05-2.23862E-18-1.19496E-18
 -1      1004 9.33940E-05-2.93770E-05-2.74303E-05-1.24646E-05-1.10509E-18-1.53625E-18
 -1      1005 9.51865E-05-2.83982E-05-2.86236E-05 3.80128E-08 1.71847E-18-1.02158E-18
 -1      1006 8.84608E-05-3.07730E-05-2.46992E-05 1.84472E-05-2.03757E-18-2.60447E-19
 -1      1007 9.23318E-05-2.69731E-05-2.80127E-05-1.02836E-05-1.88674E-19-1.09893E-18
 -1      1008 9.21352E-05-2.54539E-05-2.85780E-05-8.33514E-06 3.92236E-19-1.12012E-18
 -1      1009 9.51660E-05-2.83662E-05-2.86285E-05-1.33500E-09 6.73200E-19 1.72357E-18
 -1      1010 6.85209E-05-1.54299E-05-2.27231E-05-3.72246E-07 4.48042E-19-3.24232E-19
 -1      1011 9.51711E-05-2.83724E-05-2.86280E-05-2.69978E-08 1.48286E-18-2.88333E-18
 -1      1012 9.27637E-05-2.24042E-05-3.01534E-05-3.17514E-06 9.37437E-19-1.73910E-18
 -1      1013 7.83516E-05-1.82156E-05-2.57768E-05 3.77222E-06-3.12371E-19-2.35020E-18
 -1      1014 9.13987E-05-2.20483E-05-2.97215E-05-3.77922E-06 5.76774E-19-1.78008E-18
 -1      1015 7.38923E-05-1.72499E-05-2.42597E-05-6.20794E-06 4.09858E-19-1.96821E-18
 -1      1016 7.85706E-05-1.83094E-05-2.58258E-05-4.80156E-06-2.39173E-19-1.53750E-18
 -1      1017 8.21157E-05-1.93938E-05-2.68812E-05-3.93853E-06-2.29683E-19-1.69957E-18
 -1      1018 8.48917E-05-2.04988E-05-2.75973E-05-3.33282E-06 1.73587E-18-8.10885E-19
 -1      1019 8.71086E-05-2.15953E-05-2.80772E-05-2.84866E-06 7.42904E-19-4.70004E-19
 -1      1020 8.88936E-05-2.26478E-05-2.83911E-05-2.42441E-06-5.36859E-19 2.98834E-19
 -1      1021 9.03323E-05-2.36267E-05-2.85881E-05-2.03731E-06 4.45155E-19-1.17414E-19
 -1      1022 9.14872E-05-2.45114E-05-2.87039E-05-1.68328E-06-7.02373E-20 5.73049E-19
 -1      1023 9.24070E-05-2.52905E-05-2.87642E-05-1.36471E-06 9.72623E-19 1.11113E-18
 -1      1024 9.31322E-05-2.59610E-05-2.87877E-05-1.08464E-06 5.86889E-19 5.87630E-20
 -1      1025 9.36972E-05-2.65259E-05-2.87877E-05-8.44496E-07-1.11234E-18 2.00881E-18
 -1      1026 9.41315E-05-2.69930E-05-2.87737E-05-6.43522E-07-1.37368E-19 1.49258E-18
 -1      1027 9.44606E-05-2.73724E-05-2.87521E-05-4.79158E-07 8.28398E-19-2.24021E-18
 -1      1028 9.47056E-05-2.76754E-05-2.87273E-05-3.47632E-07-3.34215E-19-8.29674E-19
 -1      1029 9.48848E-05-2.79134E-05-2.87020E-05-2.44573E-07-1.01342E-19 5.96749E-19
 -1      1030 9.50127E-05-2.80975E-05-2.86780E-05-1.65492E-07 1.43570E-18-4.31841E-19
 -1      1031 9.51016E-05-2.82380E-05-2.86559E-05-1.06145E-07 3.40699E-18 1.37699E-18
 -1      1032 9.51606E-05-2.83430E-05-2.86362E-05-6.35759E-08 1.79506E-18-2.64765E-18
 -1      1033 7.98418E-05-2.29125E-05-2.43787E-05-1.36908E-05-1.27927E-18-1.89907E-18
 -1      1034 8.80426E-05-2.36454E-05-2.75999E-05 7.19982E-06 3.81717E-20-1.05877E-18
 -1      1035 8.99736E-05-1.92262E-05-3.03209E-05 7.58386E-07-5.17743E-19-2.52845E-18
 -1      1036 9.51728E-05-2.83775E-05-2.86266E-05 2.07674E-08 2.15355E-18-2.31716E-18
 -1      1037 8.73693E-05-2.43156E-05-2.70250E-05 9.33783E-06-7.03353E-19-4.88434E-19
 -1      1038 8.99005E-05-2.38001E-05-2.83292E-05 4.35321E-06 1.94264E-19 8.70797E-19
 -1      1039 9.08352E-05-2.42558E-05-2.85343E-05 3.39218E-06 6.95292E-19 9.12167E-20
 -1      1040 9.16908E-05-2.48073E-05-2.86646E-05 2.63575E-06 2.23642E-18-2.24689E-18
 -1      1041 9.24422E-05-2.53832E-05-2.87398E-05 2.03615E-06 9.48966E-19-2.95520E-18
 -1      1042 9.30806E-05-2.59375E-05-2.87758E-05 1.55975E-06 6.37136E-21-7.53664E-19
 -1      1043 9.36082E-05-2.64430E-05-2.87852E-05 1.18195E-06-5.50901E-19 1.45456E-18
 -1      1044 9.40337E-05-2.68862E-05-2.87776E-05 8.83853E-07-6.90313E-19 2.47449E-18
 -1      1045 9.43689E-05-2.72626E-05-2.87600E-05 6.50458E-07-5.20115E-19 2.50216E-18
 -1      1046 9.46271E-05-2.75739E-05-2.87372E-05 4.69481E-07-9.29683E-19 2.43495E-18
 -1      1047 9.48215E-05-2.78256E-05-2.87126E-05 3.30699E-07 4.50333E-19 1.29156E-18
 -1      1048 9.49644E-05-2.80251E-05-2.86883E-05 2.25656E-07 1.01668E-18 2.93128E-20
 -1      1049 9.50661E-05-2.81797E-05-2.86656E-05 1.47554E-07 6.80217E-19-1.62476E-18
 -1      1050 9.51363E-05-2.82979E-05-2.86450E-05 9.06033E-08 1.09031E-18-1.02961E-18
 -1      1051 9.51638E-05-2.83512E-05-2.86340E-05 6.04245E-08 3.08899E-18-2.72825E-18
 -1      1052 8.89383E-05-2.35456E-05-2.80261E-05 5.58865E-06-4.67797E-19-3.49763E-19
 -1      1053 8.77295E-05-2.01860E-05-2.89479E-05 2.28854E-06-5.17762E-19-2.26775E-18
 -1      1054 8.24269E-05-1.91707E-05-2.71145E-05 3.24494E-06-5.79617E-19-2.35537E-18
 -1      1055 8.97555E-05-2.30745E-05-2.85777E-05-6.44277E-06 2.38730E-19-9.19026E-19
 -1      1056 7.18750E-05-1.86164E-05-2.27817E-05-1.01842E-05-1.09633E-18-2.47304E-18
 -1      1057 8.72362E-05-2.58872E-05-2.62933E-05 1.21410E-05-1.41149E-18 9.09575E-19
 -1      1058 9.29354E-05-3.20591E-05-2.61003E-05-1.63127E-05-1.82262E-18-1.34953E-18
 -1      1059 8.54754E-05-1.98410E-05-2.81304E-05 2.77442E-06-7.09916E-19-2.15899E-18
 -1      1060 9.06992E-05-2.26294E-05-2.91741E-05-5.05583E-06 3.28901E-19-1.35747E-18
 -1      1061 8.98680E-05-1.91711E-05-3.02975E-05-8.13790E-07-2.21483E-19-2.37188E-18
 -1      1062 8.15135E-05-2.40807E-05-2.46162E-05 1.42289E-05-2.22613E-18 2.67340E-18
 -1      1063 8.68405E-05-2.59088E-05-2.61132E-05-1.31948E-05-1.19786E-18-7.24361E-19
 -1      1064 7.29414E-05-1.71568E-05-2.39090E-05 5.05125E-06-2.56254E-19 2.92049E-20
 -1      1065 8.74509E-05-2.42015E-05-2.71075E-05-1.00745E-05 9.06277E-21-6.30351E-19
 -1      1066 7.26718E-05-1.72894E-05-2.37280E-05-4.20400E-06-6.13272E-21-1.88390E-18
 -1      1067 8.94500E-05-1.98549E-05-2.98224E-05 1.25652E-06-5.20112E-19-2.55974E-18
 -1      1068 9.51216E-05-2.82873E-05-2.86433E-05 2.09744E-08 1.13581E-18-1.92142E-18
 -1      1069 8.86512E-05-2.35474E-05-2.79022E-05-8.05206E-06 1.06403E-19-7.82191E-19
 -1      1070 7.81068E-05-1.83215E-05-2.56198E-05-2.65043E-06-2.15916E-19-1.84299E-18
 -1      1071 9.51212E-05-2.82859E-05-2.86437E-05-2.31150E-08 6.15496E-19 4.46537E-19
 -1      1072 8.97327E-05-1.90188E-05-3.03064E-05-4.06616E-08-3.47248E-19-2.61670E-18
 -1      1073 8.87050E-05-2.01154E-05-2.93949E-05 1.75086E-06-3.88541E-19-2.52206E-18
 -1      1074 7.48484E-05-1.69928E-05-2.47910E-05-7.47209E-07-7.84531E-20-8.94483E-19
 -1      1075 7.93503E-05-1.83401E-05-2.61476E-05-9.26313E-07-1.71787E-19-6.76716E-21
 -1      1076 8.27271E-05-1.95577E-05-2.70736E-05-1.04783E-06 9.18848E-19-1.72595E-19
 -1      1077 8.53699E-05-2.07272E-05-2.77047E-05-1.10541E-06 9.19039E-19-1.06433E-18
 -1      1078 8.74762E-05-2.18407E-05-2.81300E-05-1.09437E-06 1.99093E-19-1.28100E-18
 -1      1079 8.91744E-05-2.28859E-05-2.84097E-05-1.02663E-06 1.08514E-19-3.46950E-19
 -1      1080 9.05468E-05-2.38457E-05-2.85865E-05-9.20857E-07-1.75646E-19-5.39319E-19
 -1      1081 9.16514E-05-2.47062E-05-2.86910E-05-7.95146E-07 3.87742E-19-5.38220E-19
 -1      1082 9.25333E-05-2.54599E-05-2.87459E-05-6.64196E-07 3.01230E-19-1.22493E-18
 -1      1083 9.32298E-05-2.61058E-05-2.87676E-05-5.38508E-07 1.54146E-18-1.07595E-18
 -1      1084 9.37728E-05-2.66479E-05-2.87679E-05-4.24629E-07-7.39206E-19 1.62134E-19
 -1      1085 9.41902E-05-2.70944E-05-2.87554E-05-3.25884E-07-1.63644E-18-3.75964E-19
 -1      1086 9.45059E-05-2.74556E-05-2.87359E-05-2.43247E-07 1.58021E-20-2.86369E-18
 -1      1087 9.47404E-05-2.77428E-05-2.87133E-05-1.76138E-07 7.40121E-19-2.77252E-18
 -1      1088 9.49109E-05-2.79673E-05-2.86901E-05-1.23054E-07 4.71967E-19-1.71434E-18
 -1      1089 9.50314E-05-2.81397E-05-2.86679E-05-8.20406E-08 2.05507E-18-7.70390E-19
 -1      1090 8.82465E-05-2.89327E-05-2.54000E-05 1.57680E-05-1.66092E-18 4.79999E-19
 -1      1091 8.36130E-05-1.93810E-05-2.75276E-05-6.40858E-07-6.44858E-19-1.65870E-18
 -1      1092 8.43131E-05-2.16011E-05-2.68777E-05 6.58890E-06 4.26632E-19 5.59126E-19
 -1      1093 9.13874E-05-2.45676E-05-2.86364E-05 1.51780E-06 1.43599E-18-9.76743E-19
 -1      1094 9.03427E-05-2.38329E-05-2.85032E-05 2.02031E-06 2.36430E-18-2.00726E-18
 -1      1095 8.91151E-05-2.30965E-05-2.82924E-05 2.69115E-06 1.02054E-18-1.33616E-18
 -1      1096 9.22602E-05-2.52606E-05-2.87136E-05 1.13780E-06-1.31797E-18-1.15355E-18
 -1      1097 9.29759E-05-2.58877E-05-2.87517E-05 8.48698E-07-1.41324E-18-9.30528E-19
 -1      1098 9.35521E-05-2.64364E-05-2.87636E-05 6.28150E-07-7.13976E-19-8.22665E-19
 -1      1099 9.40072E-05-2.69034E-05-2.87586E-05 4.59942E-07-3.32358E-19-1.37112E-18
 -1      1100 9.43599E-05-2.72913E-05-2.87435E-05 3.32037E-07-7.94308E-19-1.39686E-20
 -1      1101 9.46278E-05-2.76066E-05-2.87233E-05 2.35328E-07 1.18847E-18-4.31224E-19
 -1      1102 9.48267E-05-2.78576E-05-2.87010E-05 1.62912E-07 1.14366E-18-8.94892E-19
 -1      1103 9.49706E-05-2.80540E-05-2.86786E-05 1.07324E-07 1.84583E-18-1.54688E-18
 -1      1104 9.50739E-05-2.82063E-05-2.86575E-05 6.68389E-08 7.24077E-19-2.89743E-18
 -1      1105 8.15346E-05-2.14000E-05-2.57760E-05-9.17390E-06-3.50930E-19-9.91329E-19
 -1      1106 8.11869E-05-1.89446E-05-2.66657E-05-1.49152E-06-5.98854E-19-1.64959E-18
 -1      1107 7.71510E-05-1.93020E-05-2.47913E-05-7.36468E-06 2.68660E-20-1.67754E-18
 -1      1108 8.23663E-05-2.17030E-05-2.59923E-05 8.97132E-06 2.00918E-20 1.65218E-18
 -1      1109 9.51413E-05-2.83171E-05-2.86389E-05 4.44555E-08 2.07959E-18-2.25480E-18
 -1      1110 8.63120E-05-1.98756E-05-2.84769E-05-2.59942E-07-3.72304E-19-2.03604E-18
 -1      1111 8.96361E-05-2.06407E-05-2.95747E-05-2.52328E-06-1.44668E-19-1.90720E-18
 -1      1112 8.91913E-05-1.96695E-05-2.97962E-05 2.55723E-08-5.29534E-19-2.26086E-18
 -1      1113 7.78948E-05-2.00923E-05-2.47632E-05 9.35436E-06-8.34751E-19 1.92848E-18
 -1      1114 9.51116E-05-2.82676E-05-2.86476E-05-4.46174E-08-6.09580E-20-3.49848E-18
 -1      1115 8.60920E-05-2.18771E-05-2.75192E-05 4.84392E-06-8.02122E-19-7.15930E-19
 -1      1116 8.76983E-05-2.24170E-05-2.79761E-05 3.59824E-06-9.83378E-19-1.15148E-18
 -1      1117 8.67859E-05-2.13575E-05-2.80419E-05-5.18587E-06-1.16534E-19-1.43657E-18
 -1      1118 8.76634E-05-2.00319E-05-2.89882E-05-2.37505E-07-2.41837E-19-2.10829E-18
 -1      1119 8.84955E-05-2.13244E-05-2.87758E-05-4.07511E-06-1.00540E-19-1.66697E-18
 -1      1120 9.50503E-05-2.81753E-05-2.86607E-05-8.83968E-10 1.32897E-18-1.18135E-20
 -1      1121 7.76477E-05-1.81714E-05-2.54944E-05 3.31633E-06 7.18694E-19-6.15384E-19
 -1      1122 8.13483E-05-1.92800E-05-2.66019E-05 2.10329E-06 4.52396E-19 7.32943E-19
 -1      1123 8.41736E-05-2.03369E-05-2.73605E-05 1.26063E-06 4.73205E-19 4.91131E-19
 -1      1124 8.64338E-05-2.13762E-05-2.78832E-05 7.12680E-07-1.33535E-19-1.25408E-18
 -1      1125 8.82743E-05-2.23893E-05-2.82373E-05 3.62505E-07 4.82931E-19-1.12083E-18
 -1      1126 8.97808E-05-2.33515E-05-2.84703E-05 1.47156E-07 7.25584E-19-2.26561E-19
 -1      1127 9.10108E-05-2.42398E-05-2.86166E-05 2.24424E-08 4.14607E-19 5.79261E-19
 -1      1128 9.20076E-05-2.50376E-05-2.87017E-05-4.30753E-08-4.54150E-19-1.37447E-18
 -1      1129 9.28067E-05-2.57362E-05-2.87447E-05-7.15074E-08-4.94559E-19-3.21500E-18
 -1      1130 9.34390E-05-2.63337E-05-2.87595E-05-7.80148E-08 4.67927E-19-4.78516E-18
 -1      1131 9.39319E-05-2.68339E-05-2.87564E-05-7.26451E-08-1.55738E-18-4.29812E-18
 -1      1132 9.43102E-05-2.72444E-05-2.87425E-05-6.17833E-08-1.15027E-18-4.36118E-18
 -1      1133 9.45952E-05-2.75750E-05-2.87229E-05-4.92884E-08 1.78922E-20-3.15813E-18
 -1      1134 9.48059E-05-2.78368E-05-2.87011E-05-3.72594E-08 1.77363E-18-2.48713E-18
 -1      1135 9.49583E-05-2.80401E-05-2.86790E-05-2.82661E-08 1.98256E-18-8.15968E-19
 -1      1136 8.10848E-05-1.97096E-05-2.63259E-05-4.96907E-06-4.17420E-19-1.47890E-18
 -1      1137 8.47687E-05-2.13281E-05-2.71884E-05-6.61103E-06-1.87119E-19-1.21612E-18
 -1      1138 8.90832E-05-2.00888E-05-2.95620E-05-1.23710E-06-2.46077E-19-2.06934E-18
 -1      1139 1.16287E-04 2.56872E-10-4.17523E-05-4.06308E-05-3.32884E-19 1.42069E-17
 -1      1140 8.91057E-05 7.41382E-11-3.73929E-05-2.30766E-05-2.02017E-19 3.25118E-18
 -1      1141 8.46898E-05 4.29120E-11-3.59878E-05-1.65126E-05-1.50348E-19-1.78177E-18
 -1      1142 8.28232E-05 3.21384E-11-3.52650E-05-1.23432E-05-1.11173E-19-4.35004E-18
 -1      1143 8.17605E-05 2.60782E-11-3.48419E-05-9.08661E-06-8.16593E-20-5.62951E-18
 -1      1144 8.10640E-05 2.21001E-11-3.45688E-05-6.40284E-06-6.06820E-20-6.25830E-18
 -1      1145 8.05960E-05 1.94791E-11-3.43878E-05-4.08850E-06-2.79389E-20-6.55822E-18
 -1      1146 8.03200E-05 1.80042E-11-3.42819E-05-1.98556E-06-1.44657E-20-6.71406E-18
 -1      1147 8.02337E-05 1.75923E-11-3.42484E-05 9.69370E-09-2.97785E-22-6.78005E-18
 -1      1148 8.03343E-05 1.82060E-11-3.42860E-05 2.01676E-06 1.74833E-20-6.73996E-18
 -1      1149 8.06191E-05 1.98506E-11-3.43940E-05 4.15325E-06 3.24255E-20-6.56212E-18
 -1      1150 8.10893E-05 2.25581E-11-3.45740E-05 6.51714E-06 5.56262E-20-6.24185E-18
 -1      1151 8.17796E-05 2.66321E-11-3.48449E-05 9.25965E-06 7.98593E-20-5.54808E-18
 -1      1152 8.28297E-05 3.27725E-11-3.52673E-05 1.25843E-05 1.10061E-19-4.25500E-18
 -1      1153 8.46629E-05 4.33961E-11-3.59984E-05 1.68065E-05 1.56225E-19-1.74339E-18
 -1      1154 8.87884E-05 6.90543E-11-3.74542E-05 2.29693E-05 1.88994E-19 3.17640E-18
 -1      1155 1.06276E-04 1.65327E-10-4.05620E-05 3.54271E-05 4.46175E-19 1.36226E-17
 -1      1156 1.29259E-04-2.56871E-05-4.01225E-05-2.55506E-05-1.41095E-18 2.12766E-17
 -1      1157 9.78480E-05-2.89898E-05-3.16961E-05-5.82290E-07-4.79924E-19 1.79821E-17
 -1      1158 9.15808E-05-2.74652E-05-2.83104E-05 4.04176E-07-1.77731E-19 1.30123E-17
 -1      1159 9.06372E-05-2.73015E-05-2.73706E-05 2.61752E-07-1.16917E-19 9.66475E-18
 -1      1160 9.14205E-05-2.75200E-05-2.74716E-05 1.82828E-07-1.33070E-19 7.12029E-18
 -1      1161 9.32316E-05-2.80357E-05-2.80039E-05 1.46966E-07-6.25382E-20 5.51172E-18
 -1      1162 9.57977E-05-2.87870E-05-2.87811E-05 1.34406E-07 8.61922E-21 4.67597E-18
 -1      1163 9.90258E-05-2.97443E-05-2.97565E-05 1.38082E-07-6.82242E-20 3.89468E-18
 -1      1164 1.02887E-04-3.08938E-05-3.09171E-05 1.54584E-07-9.24159E-20 2.61418E-18
 -1      1165 1.07337E-04-3.22187E-05-3.22439E-05 1.80320E-07 3.16024E-20 1.93333E-18
 -1      1166 1.12235E-04-3.36730E-05-3.36823E-05 2.07231E-07 3.81899E-21 1.34159E-18
 -1      1167 1.17217E-04-3.51453E-05-3.51072E-05 2.17085E-07-6.49792E-20 1.13195E-18
 -1      1168 1.21550E-04-3.64152E-05-3.62862E-05 1.75377E-07-1.73814E-19 1.04307E-18
 -1      1169 1.24023E-04-3.71225E-05-3.68670E-05 3.22346E-08 1.23812E-20 8.35287E-19
 -1      1170 1.23063E-04-3.68052E-05-3.64421E-05-2.53842E-07 3.11351E-20 1.57448E-18
 -1      1171 1.17357E-04-3.50900E-05-3.47484E-05-6.51626E-07-1.82873E-19 1.39326E-18
 -1      1172 1.07093E-04-3.20663E-05-3.19644E-05-9.85901E-07 4.77300E-20 3.75977E-19
 -1      1173 9.51599E-05-2.86060E-05-2.89082E-05-9.69473E-07 1.63219E-19-2.42887E-19
 -1      1174 8.67036E-05-2.61832E-05-2.68245E-05-4.49331E-07-4.05649E-20 1.16096E-19
 -1      1175 8.61715E-05-2.60370E-05-2.67015E-05 3.45574E-07-4.12796E-20-1.58877E-18
 -1      1176 9.39305E-05-2.82558E-05-2.86167E-05 9.31223E-07-1.34023E-19-3.98794E-18
 -1      1177 1.05948E-04-3.17387E-05-3.16826E-05 1.01628E-06-1.72699E-20-3.26997E-18
 -1      1178 1.16948E-04-3.49737E-05-3.46488E-05 7.14212E-07 2.15484E-19-1.23646E-18
 -1      1179 1.23651E-04-3.69810E-05-3.66122E-05 3.12069E-07-4.42032E-19-1.39999E-18
 -1      1180 1.25561E-04-3.75813E-05-3.73115E-05 8.86896E-09 2.28083E-19-8.57608E-19
 -1      1181 1.23884E-04-3.71132E-05-3.69734E-05-1.48476E-07-9.84676E-20 1.16220E-18
 -1      1182 1.20224E-04-3.60454E-05-3.60044E-05-1.95741E-07 2.73135E-21 1.47079E-18
 -1      1183 1.15862E-04-3.47590E-05-3.47730E-05-1.83582E-07-2.50842E-19 1.65696E-18
 -1      1184 1.11596E-04-3.34929E-05-3.35285E-05-1.48732E-07 1.72062E-19 1.12362E-18
 -1      1185 1.07819E-04-3.23671E-05-3.24058E-05-1.10879E-07 1.69384E-19 1.62454E-18
 -1      1186 1.04670E-04-3.14247E-05-3.14586E-05-7.81549E-08-2.46087E-19 1.06903E-18
 -1      1187 1.02147E-04-3.06670E-05-3.06937E-05-5.26678E-08 5.25450E-20 1.00346E-18
 -1      1188 1.00182E-04-3.00753E-05-3.00952E-05-3.39538E-08-1.39590E-19-1.33417E-18
 -1      1189 9.86863E-05-2.96237E-05-2.96380E-05-2.07331E-08 8.62758E-20-2.22877E-18
 -1      1190 9.75708E-05-2.92860E-05-2.92960E-05-1.16682E-08-5.44140E-20-2.93548E-18
 -1      1191 9.67551E-05-2.90385E-05-2.90453E-05-5.62651E-09 2.21119E-19-1.54582E-18
 -1      1192 9.61713E-05-2.88609E-05-2.88654E-05-1.72947E-09 1.25359E-19-3.48052E-18
 -1      1193 9.57636E-05-2.87365E-05-2.87394E-05 6.75539E-10 8.61583E-20-2.33871E-18
 -1      1194 9.54877E-05-2.86520E-05-2.86537E-05 2.06253E-09 5.04719E-19 2.15756E-18
 -1      1195 9.53088E-05-2.85969E-05-2.85979E-05 2.77144E-09-2.08016E-19 2.94585E-18
 -1      1196 9.52001E-05-2.85632E-05-2.85637E-05 3.04397E-09-2.29467E-19 2.15988E-18
 -1      1197 9.51412E-05-2.85447E-05-2.85448E-05 3.05056E-09-2.38907E-19-5.72661E-19
 -1      1198 9.51170E-05-2.85368E-05-2.85367E-05 2.90991E-09 1.76545E-19-8.01414E-19
 -1      1199 9.51162E-05-2.85360E-05-2.85358E-05 2.70278E-09-4.93816E-19 2.22590E-18
 -1      1200 9.51304E-05-2.85398E-05-2.85397E-05 2.48045E-09 9.83965E-20 2.75018E-18
 -1      1201 9.51535E-05-2.85465E-05-2.85462E-05 2.26715E-09 3.42290E-19 5.08918E-18
 -1      1202 9.51807E-05-2.85544E-05-2.85540E-05 2.04938E-09 4.43930E-19 4.23046E-18
 -1      1203 9.52074E-05-2.85622E-05-2.85616E-05 1.70850E-09-1.00572E-19 3.84683E-18
 -1      1204 9.52285E-05-2.85683E-05-2.85675E-05 9.85019E-10-1.89046E-19-1.97477E-19
 -1      1205 9.52374E-05-2.85713E-05-2.85710E-05-1.99712E-10 5.17638E-19 1.83350E-19
 -1      1206 1.30109E-04-3.74049E-05-3.85570E-05 1.19979E-05-2.31425E-19 2.23409E-17
 -1      1207 9.70260E-05-2.83400E-05-3.14642E-05 7.65697E-07 1.70412E-19 1.73850E-17
 -1      1208 9.17716E-05-2.73619E-05-2.82865E-05 1.13592E-07 1.21318E-19 1.28184E-17
 -1      1209 9.06374E-05-2.72013E-05-2.73788E-05 1.31565E-08 9.58206E-20 9.68243E-18
 -1      1210 9.12583E-05-2.74165E-05-2.74320E-05-1.79950E-08 7.43635E-21 7.53168E-18
 -1      1211 9.28376E-05-2.78841E-05-2.78845E-05-2.94167E-08 5.11363E-20 5.85414E-18
 -1      1212 9.50242E-05-2.85301E-05-2.85381E-05-3.84086E-08 4.50797E-20 4.50992E-18
 -1      1213 9.76323E-05-2.93030E-05-2.93165E-05-5.06716E-08-8.95762E-20 4.00660E-18
 -1      1214 1.00514E-04-3.01570E-05-3.01701E-05-6.85922E-08 9.17306E-20 2.04364E-18
 -1      1215 1.03488E-04-3.10366E-05-3.10410E-05-9.26022E-08 4.23572E-20 1.28361E-18
 -1      1216 1.06288E-04-3.18615E-05-3.18446E-05-1.19929E-07 3.77211E-20 1.80669E-19
 -1      1217 1.08517E-04-3.25154E-05-3.24601E-05-1.42261E-07 5.82137E-20-6.90107E-19
 -1      1218 1.09644E-04-3.28442E-05-3.27332E-05-1.43770E-07 2.16271E-19-1.62554E-18
 -1      1219 1.09070E-04-3.26762E-05-3.25031E-05-1.02720E-07-2.55215E-19-8.58587E-19
 -1      1220 1.06325E-04-3.18760E-05-3.16624E-05-1.26371E-09 1.06978E-19-1.27383E-18
 -1      1221 1.01388E-04-3.04343E-05-3.02427E-05 1.55444E-07 2.22164E-20-1.69163E-18
 -1      1222 9.50239E-05-2.85634E-05-2.84873E-05 3.21249E-07-3.13000E-19-1.16695E-18
 -1      1223 8.88563E-05-2.67259E-05-2.68428E-05 4.15640E-07 1.56344E-19-2.45221E-18
 -1      1224 8.49120E-05-2.55185E-05-2.58249E-05 3.69162E-07 5.43425E-20-4.56853E-18
 -1      1225 8.46849E-05-2.54058E-05-2.57916E-05 1.83106E-07-1.04069E-19-4.01533E-18
 -1      1226 8.83075E-05-2.64595E-05-2.67669E-05-6.23352E-08 4.66364E-20-2.77107E-18
 -1      1227 9.44687E-05-2.83022E-05-2.84267E-05-2.57906E-07-9.45120E-20-1.55198E-18
 -1      1228 1.01169E-04-3.03272E-05-3.02660E-05-3.41551E-07 2.53041E-19-3.97894E-18
 -1      1229 1.06685E-04-3.20005E-05-3.18271E-05-3.17243E-07-6.34348E-20-6.58542E-18
 -1      1230 1.10127E-04-3.30441E-05-3.28455E-05-2.30965E-07 1.14727E-19-5.22431E-18
 -1      1231 1.11427E-04-3.34371E-05-3.32718E-05-1.31080E-07-5.28271E-20-3.70435E-18
 -1      1232 1.11024E-04-3.33143E-05-3.32044E-05-4.75725E-08-1.74747E-19-3.72456E-18
 -1      1233 1.09518E-04-3.28597E-05-3.28022E-05 9.16898E-09-2.51808E-19-5.15823E-18
 -1      1234 1.07458E-04-3.22395E-05-3.22207E-05 4.08915E-08 2.50307E-19-7.05934E-18
 -1      1235 1.05249E-04-3.15755E-05-3.15806E-05 5.41034E-08 5.27123E-21-6.95705E-18
 -1      1236 1.03146E-04-3.09445E-05-3.09618E-05 5.56053E-08 1.18407E-19-7.23063E-18
 -1      1237 1.01286E-04-3.03868E-05-3.04088E-05 5.07276E-08 2.94791E-19-8.92964E-18
 -1      1238 9.97244E-05-2.99185E-05-2.99405E-05 4.30559E-08 1.05188E-19-7.86230E-18
 -1      1239 9.84628E-05-2.95403E-05-2.95601E-05 3.47460E-08 5.62247E-20-7.15260E-18
 -1      1240 9.74764E-05-2.92445E-05-2.92612E-05 2.69550E-08-2.76498E-19-4.27125E-18
 -1      1241 9.67276E-05-2.90199E-05-2.90333E-05 2.02084E-08 8.48220E-20-3.57558E-18
 -1      1242 9.61750E-05-2.88541E-05-2.88645E-05 1.46631E-08 2.36643E-19-4.83517E-18
 -1      1243 9.57795E-05-2.87353E-05-2.87431E-05 1.02781E-08-1.19032E-19-3.23472E-18
 -1      1244 9.55062E-05-2.86531E-05-2.86589E-05 6.91867E-09 3.27626E-19-3.92775E-18
 -1      1245 9.53256E-05-2.85987E-05-2.86028E-05 4.41598E-09 1.86403E-19-6.46790E-18
 -1      1246 9.52136E-05-2.85650E-05-2.85678E-05 2.59975E-09 2.73468E-19-8.02417E-18
 -1      1247 9.51515E-05-2.85462E-05-2.85481E-05 1.31388E-09 1.86683E-19-6.16936E-18
 -1      1248 9.51244E-05-2.85379E-05-2.85391E-05 4.22587E-10 3.64529E-19-8.13734E-18
 -1      1249 9.51212E-05-2.85368E-05-2.85376E-05-1.89507E-10-2.60398E-19-8.42563E-18
 -1      1250 9.51337E-05-2.85404E-05-2.85409E-05-6.19026E-10-2.54070E-19-3.97904E-18
 -1      1251 9.51555E-05-2.85468E-05-2.85470E-05-9.43291E-10 2.90013E-19-4.59621E-18
 -1      1252 9.51818E-05-2.85546E-05-2.85545E-05-1.22192E-09 2.89904E-19-6.85610E-18
 -1      1253 9.52079E-05-2.85623E-05-2.85619E-05-1.46138E-09-3.41822E-19-3.97367E-18
 -1      1254 9.52286E-05-2.85684E-05-2.85677E-05-1.40561E-09 7.13693E-19-4.54303E-18
 -1      1255 9.52374E-05-2.85714E-05-2.85710E-05 1.26336E-10 5.47575E-20-3.82738E-18
 -1      1256 9.52369E-05-2.85710E-05-2.85710E-05 5.26322E-12-4.36423E-18-6.23545E-19
 -1      1257 9.52399E-05-2.85798E-05-2.85677E-05-8.22424E-10-3.38742E-18 2.60231E-19
 -1      1258 9.52455E-05-2.85988E-05-2.85626E-05-1.41454E-09 5.79023E-19 2.41385E-19
 -1      1259 9.52519E-05-2.86205E-05-2.85565E-05-1.31259E-09-1.48623E-18-1.23453E-19
 -1      1260 9.52578E-05-2.86403E-05-2.85508E-05-1.01602E-09-3.04955E-18-8.68119E-19
 -1      1261 9.52624E-05-2.86560E-05-2.85462E-05-6.94347E-10-4.45510E-18-2.46378E-19
 -1      1262 9.52658E-05-2.86670E-05-2.85428E-05-4.34565E-10-1.71722E-18-3.90814E-19
 -1      1263 9.52677E-05-2.86736E-05-2.85408E-05-2.08419E-10-2.61773E-18-9.52243E-19
 -1      1264 9.52684E-05-2.86759E-05-2.85401E-05-1.20613E-11-5.58920E-18 3.16567E-20
 -1      1265 9.52679E-05-2.86740E-05-2.85407E-05 1.87892E-10-2.68220E-18 1.15206E-18
 -1      1266 9.52660E-05-2.86677E-05-2.85426E-05 4.24106E-10-3.43362E-18-8.99883E-19
 -1      1267 9.52627E-05-2.86568E-05-2.85459E-05 7.12540E-10-9.59528E-18 1.69506E-19
 -1      1268 9.52580E-05-2.86411E-05-2.85506E-05 1.03597E-09-4.66290E-18 5.94454E-19
 -1      1269 9.52520E-05-2.86209E-05-2.85564E-05 1.36092E-09-5.02835E-18-7.19571E-19
 -1      1270 9.52455E-05-2.85986E-05-2.85625E-05 1.70404E-09-4.66433E-18 3.02188E-19
 -1      1271 9.52402E-05-2.85800E-05-2.85677E-05 9.72167E-10-5.05447E-18 6.29777E-19
 -1      1272 9.52369E-05-2.85710E-05-2.85711E-05 9.16689E-11-3.39365E-19 3.14253E-19
 -1      1273 3.38906E-05-1.06060E-04 1.79447E-05-1.35821E-05 4.60151E-18 2.30999E-18
 -1      1274 1.69268E-05-6.26654E-05 9.03733E-06-2.39686E-05 1.71270E-17 6.70172E-18
 -1      1275 7.51079E-06-6.84832E-06-6.49179E-06 9.28863E-07 2.01391E-17 1.25107E-17
 -1      1276 3.54928E-05 2.50033E-05-2.64742E-05 5.44323E-05 1.92158E-17 1.84789E-17
 -1      1277 1.11183E-04 1.19425E-05-4.70692E-05 1.01784E-04 1.53245E-17 2.28089E-17
 -1      1278 2.12000E-04-3.59804E-05-6.47931E-05 1.04735E-04 8.36276E-18 2.03779E-17
 -1      1279 2.93163E-04-8.36324E-05-7.55864E-05 5.45951E-05 2.13304E-18 9.69937E-18
 -1      1280 3.03861E-04-8.99570E-05-7.70454E-05-2.86011E-05 1.15464E-18-3.77607E-18
 -1      1281 2.42463E-04-5.24408E-05-6.90198E-05-9.51305E-05 6.35974E-18-1.78309E-17
 -1      1282 1.42921E-04-1.25589E-06-5.31546E-05-1.09302E-04 1.46477E-17-2.49333E-17
 -1      1283 5.23399E-05 2.44330E-05-3.18205E-05-6.84918E-05 2.37186E-17-2.50112E-17
 -1      1284 1.04067E-05-4.55833E-07-9.44856E-06-9.03118E-06 2.77285E-17-1.87279E-17
 -1      1285 1.52831E-05-5.73144E-05 7.62122E-06 2.35003E-05 2.31867E-17-9.35887E-18
 -1      1286 3.16971E-05-1.02722E-04 1.75246E-05 1.57361E-05 1.13303E-17-3.24827E-18
 -1      1287 3.56690E-05-1.11095E-04 1.87526E-05-1.14645E-05-4.27836E-18-1.57490E-18
 -1      1288 1.94172E-05-7.12704E-05 1.08532E-05-2.68812E-05-1.71948E-17-6.50987E-18
 -1      1289 7.66586E-06-1.25908E-05-4.88238E-06-3.94780E-06-2.56227E-17-1.59318E-17
 -1      1290 3.54422E-05 2.29721E-05-2.61100E-05 5.22685E-05-2.44572E-17-2.32155E-17
 -1      1291 1.13231E-04 1.05679E-05-4.75411E-05 1.02461E-04-1.77894E-17-2.64969E-17
 -1      1292 2.20346E-04-3.95640E-05-6.60322E-05 1.05139E-04-9.65999E-18-2.41421E-17
 -1      1293 3.03099E-04-8.74902E-05-7.72500E-05 4.91954E-05-2.63340E-18-1.39896E-17
 -1      1294 3.11980E-04-9.30935E-05-7.83274E-05-3.18408E-05-6.18784E-19-1.65934E-18
 -1      1295 2.51709E-04-5.71811E-05-7.05958E-05-9.38479E-05-3.92367E-18 1.11054E-17
 -1      1296 1.56718E-04-7.60834E-06-5.57921E-05-1.10836E-04-9.38004E-18 1.68187E-17
 -1      1297 7.02132E-05 2.29202E-05-3.75885E-05-8.20785E-05-1.50069E-17 1.83383E-17
 -1      1298 1.88184E-05 1.68909E-05-1.85970E-05-3.15440E-05-2.14672E-17 1.71948E-17
 -1      1299 7.12620E-06-2.30280E-05-1.20298E-06 1.19497E-05-2.42641E-17 1.39312E-17
 -1      1300 2.06990E-05-7.53534E-05 1.19642E-05 2.71520E-05-2.05651E-17 6.35952E-18
 -1      1301 3.52378E-05-1.09737E-04 1.86553E-05 1.27205E-05-1.13240E-17 2.46706E-18
 -1      1302 1.04498E-04-2.20372E-05-3.78723E-05-1.66865E-05-5.03455E-19 1.20266E-17
 -1      1303 9.10438E-05-6.90974E-06-3.62116E-05-1.92434E-05-1.65722E-18 9.02249E-19
 -1      1304 9.32765E-05-7.00927E-06-3.73389E-05-2.46200E-05-2.07269E-18 3.52461E-18
 -1      1305 8.66110E-05-4.24080E-06-3.53645E-05-1.49742E-05-1.71776E-18-2.92507E-18
 -1      1306 8.79048E-05-4.24780E-06-3.58270E-05-1.74793E-05-1.92509E-18-1.23246E-18
 -1      1307 9.29704E-05-1.07536E-05-3.53153E-05-1.76608E-05-2.91075E-18 7.49359E-19
 -1      1308 8.45287E-05-3.19910E-06-3.48712E-05-1.12972E-05-1.50822E-18-4.91327E-18
 -1      1309 8.52741E-05-3.17991E-06-3.51299E-05-1.31184E-05-1.65992E-18-4.01245E-18
 -1      1310 8.85359E-05-7.49757E-06-3.48084E-05-1.38823E-05-2.74116E-18-2.40168E-18
 -1      1311 8.32404E-05-2.59800E-06-3.45589E-05-8.26729E-06-1.17393E-18-5.92556E-18
 -1      1312 8.37289E-05-2.59015E-06-3.47213E-05-9.74360E-06-1.30418E-18-5.44986E-18
 -1      1313 8.61462E-05-5.84248E-06-3.44808E-05-1.04361E-05-2.30674E-18-4.11327E-18
 -1      1314 8.23692E-05-2.20197E-06-3.43475E-05-5.74872E-06-8.43433E-19-6.42858E-18
 -1      1315 8.27041E-05-2.19993E-06-3.44557E-05-6.97895E-06-9.76338E-19-6.17029E-18
 -1      1316 8.46400E-05-4.83222E-06-3.42553E-05-7.57416E-06-1.74303E-18-4.95355E-18
 -1      1317 8.17830E-05-1.93981E-06-3.42043E-05-3.50903E-06-5.43097E-19-6.68828E-18
 -1      1318 8.20022E-05-1.94026E-06-3.42747E-05-4.61172E-06-6.50898E-19-6.57335E-18
 -1      1319 8.36194E-05-4.17064E-06-3.40942E-05-5.14477E-06-1.22284E-18-5.43947E-18
 -1      1320 8.14657E-05-1.79275E-06-3.41270E-05-1.46486E-06-2.35773E-19-6.80752E-18
 -1      1321 8.15714E-05-1.79330E-06-3.41612E-05-2.48398E-06-3.45199E-19-6.72324E-18
 -1      1322 8.29695E-05-3.76220E-06-3.39868E-05-2.97871E-06-7.60379E-19-5.60536E-18
 -1      1323 8.14081E-05-1.75206E-06-3.41141E-05 5.04279E-07 2.96395E-20-6.83264E-18
 -1      1324 8.14023E-05-1.75199E-06-3.41130E-05-4.91609E-07-6.69156E-20-6.83246E-18
 -1      1325 8.26613E-05-3.57515E-06-3.39334E-05-9.75050E-07-2.50787E-19-5.73977E-18
 -1      1326 8.16051E-05-1.81368E-06-3.41650E-05 2.51465E-06 3.13118E-19-6.78729E-18
 -1      1327 8.14897E-05-1.81304E-06-3.41292E-05 1.48377E-06 2.17499E-19-6.82526E-18
 -1      1328 8.26827E-05-3.59504E-06-3.39343E-05 9.83863E-07 1.97837E-19-5.74541E-18
 -1      1329 8.20546E-05-1.97818E-06-3.42791E-05 4.68142E-06 6.04021E-19-6.63105E-18
 -1      1330 8.18303E-05-1.97706E-06-3.42084E-05 3.55702E-06 4.91110E-19-6.75417E-18
 -1      1331 8.30281E-05-3.81836E-06-3.39886E-05 3.01170E-06 6.86744E-19-5.70879E-18
 -1      1332 8.27531E-05-2.24470E-06-3.44560E-05 7.07937E-06 9.12175E-19-6.20221E-18
 -1      1333 8.24204E-05-2.24761E-06-3.43492E-05 5.82336E-06 8.05211E-19-6.44916E-18
 -1      1334 8.36958E-05-4.25036E-06-3.40933E-05 5.20112E-06 1.14253E-18-5.48089E-18
 -1      1335 8.37831E-05-2.64488E-06-3.47199E-05 9.92692E-06 1.29407E-18-5.40603E-18
 -1      1336 8.32968E-05-2.65404E-06-3.45584E-05 8.41876E-06 1.14101E-18-5.87941E-18
 -1      1337 8.47219E-05-4.92871E-06-3.42499E-05 7.68665E-06 1.68984E-18-4.93611E-18
 -1      1338 8.53236E-05-3.23860E-06-3.51281E-05 1.33732E-05 1.70614E-18-3.94087E-18
 -1      1339 8.45841E-05-3.26477E-06-3.48687E-05 1.15159E-05 1.51418E-18-4.82606E-18
 -1      1340 8.62471E-05-5.96340E-06-3.44728E-05 1.06291E-05 2.27142E-18-4.03741E-18
 -1      1341 8.79758E-05-4.25110E-06-3.58377E-05 1.77653E-05 2.00524E-18-1.19405E-18
 -1      1342 8.66564E-05-4.29948E-06-3.53616E-05 1.52813E-05 1.77366E-18-2.86464E-18
 -1      1343 8.86516E-05-7.63933E-06-3.47988E-05 1.41720E-05 2.83190E-18-2.32444E-18
 -1      1344 9.40222E-05-7.03881E-06-3.72290E-05 2.40390E-05 1.83764E-18 4.09382E-18
 -1      1345 9.08382E-05-6.66741E-06-3.62254E-05 1.99548E-05 1.77316E-18 8.64027E-19
 -1      1346 9.31677E-05-1.09822E-05-3.52896E-05 1.83457E-05 3.06877E-18 7.82553E-19
 -1      1347 1.23237E-04-2.49119E-05-3.89579E-05 2.76544E-05 9.78641E-19 1.44406E-17
 -1      1348 1.00425E-04-1.45982E-05-3.74071E-05 2.31854E-05 9.91876E-19 7.20825E-18
 -1      1349 1.02298E-04-1.96241E-05-3.55340E-05 2.03028E-05 3.01938E-18 5.65458E-18
 -1      1350 1.02861E-04-2.79290E-05-3.47932E-05 6.83397E-06 1.72001E-18 1.37344E-17
 -1      1351 1.05559E-04-3.03834E-05-3.36245E-05-7.37613E-06-1.64123E-18 1.25263E-17
 -1      1352 9.91605E-05-2.81479E-05-3.10005E-05-4.49307E-06-1.57220E-18 1.06036E-17
 -1      1353 9.67199E-05-2.82161E-05-2.96114E-05-1.99215E-06-1.25896E-18 9.72845E-18
 -1      1354 9.49595E-05-2.80589E-05-2.87172E-05-1.54875E-06-1.21152E-18 7.94099E-18
 -1      1355 1.00613E-04-2.84175E-05-3.13075E-05-6.91350E-06-2.73597E-18 5.88889E-18
 -1      1356 9.36748E-05-2.78088E-05-2.82146E-05-2.92248E-07-9.79812E-19 7.26775E-18
 -1      1357 9.34801E-05-2.78632E-05-2.80710E-05-1.63385E-07-9.03572E-19 5.93839E-18
 -1      1358 9.65599E-05-2.83027E-05-2.93824E-05-2.08993E-06-2.11568E-18 4.50176E-18
 -1      1359 9.32204E-05-2.78160E-05-2.79832E-05 4.97464E-07-7.14247E-19 5.29938E-18
 -1      1360 9.37905E-05-2.80313E-05-2.81409E-05 5.86413E-07-6.89419E-19 4.31080E-18
 -1      1361 9.52267E-05-2.82553E-05-2.87402E-05 1.68624E-07-1.60942E-18 3.27165E-18
 -1      1362 9.41435E-05-2.81357E-05-2.82589E-05 1.01213E-06-4.67652E-19 3.85546E-18
 -1      1363 9.51813E-05-2.84706E-05-2.85655E-05 1.08290E-06-4.12191E-19 3.35327E-18
 -1      1364 9.53392E-05-2.84035E-05-2.87106E-05 1.46839E-06-1.17261E-18 2.34542E-18
 -1      1365 9.59554E-05-2.86919E-05-2.88129E-05 1.41359E-06-2.64645E-19 3.04855E-18
 -1      1366 9.73553E-05-2.91296E-05-2.92255E-05 1.47797E-06-1.98398E-19 2.67895E-18
 -1      1367 9.64319E-05-2.87691E-05-2.90208E-05 2.38246E-06-7.32065E-19 1.66513E-18
 -1      1368 9.84566E-05-2.94452E-05-2.95719E-05 1.76871E-06-2.11680E-19 2.48129E-18
 -1      1369 1.00181E-04-2.99801E-05-3.00785E-05 1.83182E-06-3.21518E-19 2.05612E-18
 -1      1370 9.82505E-05-2.93262E-05-2.95611E-05 3.13427E-06-4.97523E-19 1.08330E-18
 -1      1371 1.01557E-04-3.03776E-05-3.05078E-05 2.09766E-06-4.23146E-19 1.94518E-18
 -1      1372 1.03582E-04-3.10079E-05-3.11011E-05 2.15872E-06-3.61640E-19 1.42660E-18
 -1      1373 1.00661E-04-3.00555E-05-3.02808E-05 3.80822E-06-6.53354E-19 7.93010E-19
 -1      1374 1.05189E-04-3.14785E-05-3.15975E-05 2.38108E-06-2.29238E-19 1.38212E-18
 -1      1375 1.07467E-04-3.21960E-05-3.22614E-05 2.43164E-06-2.85195E-19 1.11872E-18
 -1      1376 1.03573E-04-3.09486E-05-3.11445E-05 4.40218E-06-5.61103E-19 6.88591E-19
 -1      1377 1.09234E-04-3.27271E-05-3.27991E-05 2.55135E-06-3.06801E-19 1.07187E-18
 -1      1378 1.11642E-04-3.35020E-05-3.34934E-05 2.57149E-06-6.48070E-20 7.48883E-19
 -1      1379 1.06887E-04-3.19989E-05-3.21094E-05 4.82675E-06-3.19132E-19 6.65682E-19
 -1      1380 1.13444E-04-3.40684E-05-3.40260E-05 2.47818E-06 6.19161E-20 6.16283E-19
 -1      1381 1.15717E-04-3.48277E-05-3.46693E-05 2.43234E-06-2.90794E-19 4.09567E-19
 -1      1382 1.10427E-04-3.31861E-05-3.31057E-05 4.88391E-06-1.08298E-19 5.77637E-19
 -1      1383 1.17339E-04-3.53792E-05-3.51206E-05 1.96519E-06-1.69043E-19 6.60897E-19
 -1      1384 1.19015E-04-3.59806E-05-3.55761E-05 1.80237E-06 5.41539E-20 4.65749E-19
 -1      1385 1.13879E-04-3.44494E-05-3.40208E-05 4.25305E-06-2.93285E-20-1.63980E-20
 -1      1386 1.20128E-04-3.64245E-05-3.58408E-05 7.93772E-07 7.46779E-20 7.10800E-19
 -1      1387 1.20543E-04-3.66404E-05-3.59247E-05 4.64769E-07 1.13430E-19 7.67663E-19
 -1      1388 1.16728E-04-3.56397E-05-3.46946E-05 2.53649E-06 2.13227E-19 4.24277E-19
 -1      1389 1.20734E-04-3.68270E-05-3.58915E-05-1.12969E-06 1.05667E-19 9.14703E-19
 -1      1390 1.19189E-04-3.63795E-05-3.54308E-05-1.62249E-06-2.62263E-19 9.92220E-19
 -1      1391 1.18237E-04-3.64559E-05-3.49450E-05-5.45066E-07 3.75209E-20 5.58196E-19
 -1      1392 1.18090E-04-3.61160E-05-3.50397E-05-3.49911E-06-3.60280E-19 1.21089E-18
 -1      1393 1.14288E-04-3.48219E-05-3.39968E-05-4.01798E-06-3.42201E-19 6.67568E-19
 -1      1394 1.17570E-04-3.64214E-05-3.46410E-05-4.73548E-06-1.74237E-19 7.03143E-19
 -1      1395 1.11875E-04-3.39922E-05-3.33154E-05-5.36357E-06-4.62659E-20 5.78312E-19
 -1      1396 1.06519E-04-3.20289E-05-3.19166E-05-5.60827E-06-2.69624E-19 1.68771E-19
 -1      1397 1.14216E-04-3.50632E-05-3.38105E-05-8.73659E-06-3.93718E-19 5.28204E-19
 -1      1398 1.03470E-04-3.08121E-05-3.11694E-05-5.36540E-06 1.78830E-19-8.59738E-20
 -1      1399 9.84967E-05-2.88952E-05-2.99209E-05-5.02460E-06 1.46246E-20 1.74489E-19
 -1      1400 1.08731E-04-3.24173E-05-3.27116E-05-1.02469E-05-1.41087E-19 5.04196E-19
 -1      1401 9.62417E-05-2.79207E-05-2.94200E-05-2.76953E-06-1.88068E-19-3.37437E-19
 -1      1402 9.40350E-05-2.70433E-05-2.88806E-05-1.88832E-06-4.34303E-19-4.91769E-19
 -1      1403 1.03255E-04-2.95539E-05-3.17642E-05-7.29012E-06-1.82297E-19-1.22979E-19
 -1      1404 9.39015E-05-2.69741E-05-2.88579E-05 1.41014E-06-8.31680E-19-1.07141E-18
 -1      1405 9.56760E-05-2.76712E-05-2.92960E-05 2.34183E-06-1.02987E-18-2.23204E-18
 -1      1406 1.00755E-04-2.81861E-05-3.13769E-05-4.43140E-07-1.19678E-18-9.36663E-19
 -1      1407 9.77935E-05-2.85843E-05-2.97659E-05 4.84632E-06-7.11481E-19-2.95710E-18
 -1      1408 1.02625E-04-3.04490E-05-3.09768E-05 5.27709E-06-5.81852E-19-3.68915E-18
 -1      1409 1.02821E-04-2.92736E-05-3.17195E-05 6.73794E-06-1.42958E-18-2.09042E-18
 -1      1410 1.05753E-04-3.17027E-05-3.17373E-05 5.81170E-06-2.04711E-20-3.33360E-18
 -1      1411 1.11319E-04-3.37519E-05-3.31859E-05 5.63820E-06 6.14913E-19-2.39615E-18
 -1      1412 1.08238E-04-3.20892E-05-3.26601E-05 1.03695E-05-1.36032E-19-2.74105E-18
 -1      1413 1.13990E-04-3.46888E-05-3.39279E-05 4.46633E-06 7.74890E-19-2.40240E-18
 -1      1414 1.18217E-04-3.61391E-05-3.50836E-05 3.96705E-06 4.68277E-19-2.12102E-18
 -1      1415 1.14085E-04-3.49135E-05-3.38279E-05 9.42760E-06 1.10591E-18-2.67019E-18
 -1      1416 1.19630E-04-3.65113E-05-3.55609E-05 2.12199E-06 7.31889E-20-1.37444E-18
 -1      1417 1.21647E-04-3.71185E-05-3.61527E-05 1.61862E-06 7.59683E-20-1.90408E-18
 -1      1418 1.18024E-04-3.65371E-05-3.47862E-05 5.65683E-06 6.04451E-19-2.44748E-18
 -1      1419 1.21755E-04-3.70221E-05-3.62772E-05-1.98324E-08 6.70566E-19-1.44373E-18
 -1      1420 1.21763E-04-3.69391E-05-3.63159E-05-3.67407E-07 7.12851E-19-5.05136E-19
 -1      1421 1.19300E-04-3.68027E-05-3.52475E-05 1.43855E-06 8.74006E-19-1.13088E-18
 -1      1422 1.20911E-04-3.65659E-05-3.61360E-05-1.43146E-06 1.02954E-19-1.95923E-19
 -1      1423 1.19591E-04-3.60709E-05-3.57865E-05-1.60729E-06 9.64294E-20 8.93487E-20
 -1      1424 1.18335E-04-3.61567E-05-3.51568E-05-1.76855E-06 8.30132E-19-8.88538E-19
 -1      1425 1.18199E-04-3.55792E-05-3.54111E-05-2.10874E-06 2.84816E-19-2.08158E-19
 -1      1426 1.16239E-04-3.49126E-05-3.48618E-05-2.15907E-06 8.53998E-20 2.39618E-19
 -1      1427 1.15953E-04-3.50930E-05-3.46316E-05-3.59308E-06-4.73611E-20-5.91282E-19
 -1      1428 1.14650E-04-3.44026E-05-3.43988E-05-2.26146E-06-1.58667E-19-9.27766E-21
 -1      1429 1.12546E-04-3.37192E-05-3.37946E-05-2.23944E-06 7.73155E-21-4.95779E-20
 -1      1430 1.12921E-04-3.39384E-05-3.38517E-05-4.27450E-06-3.27597E-20-1.27534E-18
 -1      1431 1.10984E-04-3.32442E-05-3.33231E-05-2.11356E-06 3.08642E-19-5.33631E-20
 -1      1432 1.09021E-04-3.26245E-05-3.27516E-05-2.05833E-06 2.12997E-19 7.64183E-20
 -1      1433 1.09779E-04-3.28592E-05-3.29804E-05-4.22013E-06 2.14792E-19-1.39213E-18
 -1      1434 1.07610E-04-3.22089E-05-3.23180E-05-1.82914E-06-4.19761E-19 4.41476E-19
 -1      1435 1.05916E-04-3.16844E-05-3.18208E-05-1.76417E-06-2.22962E-19 3.76513E-19
 -1      1436 1.06849E-04-3.19205E-05-3.21314E-05-3.78081E-06-3.80172E-20-1.17029E-18
 -1      1437 1.04710E-04-3.13355E-05-3.14466E-05-1.50776E-06-1.14897E-19 2.25741E-19
 -1      1438 1.03318E-04-3.09108E-05-3.10362E-05-1.44516E-06-5.30655E-19-6.64391E-20
 -1      1439 1.04284E-04-3.11375E-05-3.13684E-05-3.19242E-06-2.99835E-19-1.44440E-18
 -1      1440 1.02325E-04-3.06266E-05-3.07266E-05-1.20155E-06-5.48328E-19 1.40323E-19
 -1      1441 1.01221E-04-3.02932E-05-3.03999E-05-1.14658E-06-5.36427E-19-3.59777E-19
 -1      1442 1.02136E-04-3.05023E-05-3.07182E-05-2.59042E-06-7.48967E-19-1.07061E-18
 -1      1443 1.00426E-04-3.00672E-05-3.01517E-05-9.33356E-07-2.65100E-19-8.39611E-19
 -1      1444 9.95731E-05-2.98117E-05-2.98984E-05-8.87544E-07-2.94943E-19-1.24258E-18
 -1      1445 1.00392E-04-2.99980E-05-3.01845E-05-2.04174E-06-5.84582E-19-1.13229E-18
 -1      1446 9.89514E-05-2.96355E-05-2.97042E-05-7.09774E-07-6.36597E-19-1.55479E-18
 -1      1447 9.83058E-05-2.94437E-05-2.95121E-05-6.72854E-07-4.94058E-20-1.83893E-18
 -1      1448 9.90115E-05-2.96049E-05-2.97586E-05-1.57247E-06-6.15671E-19-1.08293E-18
 -1      1449 9.78292E-05-2.93089E-05-2.93632E-05-5.29345E-07 9.28188E-20-1.51382E-18
 -1      1450 9.73504E-05-2.91676E-05-2.92205E-05-5.00290E-07 2.74494E-19-1.52215E-18
 -1      1451 9.79408E-05-2.93036E-05-2.94264E-05-1.18686E-06 2.38575E-19-7.00960E-19
 -1      1452 9.69918E-05-2.90664E-05-2.91086E-05-3.87133E-07 2.41803E-19-1.35709E-18
 -1      1453 9.66439E-05-2.89644E-05-2.90046E-05-3.64692E-07 3.20829E-19-1.44871E-18
 -1      1454 9.71262E-05-2.90765E-05-2.91724E-05-8.78658E-07 6.00467E-19-5.17259E-19
 -1      1455 9.63792E-05-2.88898E-05-2.89220E-05-2.77136E-07 2.88780E-19-1.19672E-18
 -1      1456 9.61319E-05-2.88179E-05-2.88479E-05-2.60084E-07 3.26442E-19-8.61480E-19
 -1      1457 9.65179E-05-2.89084E-05-2.89820E-05-6.37486E-07 3.01702E-19-5.98321E-19
 -1      1458 9.59405E-05-2.87640E-05-2.87882E-05-1.93452E-07 3.76906E-19-1.74488E-18
 -1      1459 9.57694E-05-2.87148E-05-2.87368E-05-1.80694E-07 2.67011E-19-1.03227E-18
 -1      1460 9.60724E-05-2.87863E-05-2.88419E-05-4.52077E-07 3.97059E-19-3.77628E-19
 -1      1461 9.56344E-05-2.86768E-05-2.86947E-05-1.30779E-07 5.44809E-19 2.48051E-20
 -1      1462 9.55200E-05-2.86443E-05-2.86602E-05-1.21385E-07 9.16085E-19 7.87492E-19
 -1      1463 9.57532E-05-2.86997E-05-2.87410E-05-3.11815E-07 1.10874E-18-1.29695E-18
 -1      1464 9.54275E-05-2.86184E-05-2.86314E-05-8.45872E-08 2.71975E-19 1.18879E-18
 -1      1465 9.53547E-05-2.85980E-05-2.86093E-05-7.77847E-08-4.93878E-19 6.24487E-19
 -1      1466 9.55306E-05-2.86400E-05-2.86702E-05-2.07369E-07 1.05203E-18-1.22822E-18
 -1      1467 9.52940E-05-2.85810E-05-2.85904E-05-5.11198E-08-7.03641E-19 1.61564E-18
 -1      1468 9.52511E-05-2.85694E-05-2.85772E-05-4.62870E-08-8.57662E-19 4.39096E-19
 -1      1469 9.53804E-05-2.86004E-05-2.86221E-05-1.30860E-07-4.40798E-19 1.13985E-19
 -1      1470 9.52135E-05-2.85590E-05-2.85656E-05-2.73363E-08-1.03071E-18-7.91730E-20
 -1      1471 9.51917E-05-2.85535E-05-2.85588E-05-2.39790E-08-9.56927E-19-1.59282E-18
 -1      1472 9.52839E-05-2.85755E-05-2.85908E-05-7.58135E-08-1.42216E-18-5.63485E-19
 -1      1473 9.51708E-05-2.85477E-05-2.85523E-05-1.08261E-08 7.22361E-19-1.15873E-19
 -1      1474 9.51636E-05-2.85464E-05-2.85498E-05-8.55994E-09 1.11301E-18 7.90010E-19
 -1      1475 9.52262E-05-2.85613E-05-2.85717E-05-3.70315E-08 4.83466E-19 3.48261E-19
 -1      1476 9.51543E-05-2.85439E-05-2.85470E-05 2.76160E-10 4.25750E-21 1.89344E-18
 -1      1477 9.51567E-05-2.85454E-05-2.85474E-05 1.74156E-09 1.10549E-19 2.92335E-18
 -1      1478 9.51963E-05-2.85545E-05-2.85615E-05-1.04348E-08 1.53503E-18 1.77918E-18
 -1      1479 9.51553E-05-2.85451E-05-2.85470E-05 7.36125E-09 4.31100E-19 2.41480E-18
 -1      1480 9.51638E-05-2.85482E-05-2.85493E-05 8.23401E-09 1.03388E-18 3.40400E-18
 -1      1481 9.51855E-05-2.85529E-05-2.85573E-05 7.08049E-09 5.45332E-19 2.56621E-18
 -1      1482 9.51673E-05-2.85494E-05-2.85504E-05 1.13953E-08 1.20854E-18 3.09716E-18
 -1      1483 9.51791E-05-2.85534E-05-2.85537E-05 1.18070E-08 5.75775E-19 4.51154E-18
 -1      1484 9.51872E-05-2.85547E-05-2.85571E-05 1.77548E-08 1.05166E-18 2.36453E-18
 -1      1485 9.51853E-05-2.85554E-05-2.85556E-05 1.29394E-08-1.03917E-19 3.40746E-18
 -1      1486 9.51982E-05-2.85597E-05-2.85592E-05 1.29369E-08-2.38361E-19 2.92497E-18
 -1      1487 9.51965E-05-2.85585E-05-2.85593E-05 2.30343E-08 2.41018E-19 1.24135E-18
 -1      1488 9.52052E-05-2.85620E-05-2.85613E-05 1.21242E-08 4.73296E-20 3.01027E-18
 -1      1489 9.52168E-05-2.85660E-05-2.85645E-05 1.16367E-08-4.74989E-19 2.41452E-18
 -1      1490 9.52094E-05-2.85635E-05-2.85625E-05 2.35462E-08-6.20825E-19 1.58422E-18
 -1      1491 9.52231E-05-2.85682E-05-2.85662E-05 8.60120E-09-8.80854E-19 3.09631E-18
 -1      1492 9.52309E-05-2.85709E-05-2.85684E-05 7.64706E-09-6.69181E-19 2.49689E-18
 -1      1493 9.52226E-05-2.85689E-05-2.85657E-05 1.92022E-08-3.72612E-19 2.42301E-18
 -1      1494 9.52363E-05-2.85724E-05-2.85699E-05 1.13112E-09-1.45555E-18 1.35922E-18
 -1      1495 9.52347E-05-2.85743E-05-2.85685E-05 8.12869E-09-1.95542E-18 2.00959E-18
 -1      1496 9.75740E-05-2.86742E-05-3.00532E-05 2.58872E-06 1.41613E-18 1.06010E-17
 -1      1497 1.03046E-04-2.95543E-05-3.23027E-05 4.02839E-06 1.24567E-18 1.28869E-17
 -1      1498 1.03023E-04-2.70021E-05-3.28912E-05 1.19463E-05 2.49324E-18 8.24248E-18
 -1      1499 9.38237E-05-2.79634E-05-2.82967E-05 7.46315E-07 1.04270E-18 7.86661E-18
 -1      1500 9.53308E-05-2.79876E-05-2.90749E-05 1.07301E-06 1.03423E-18 9.56638E-18
 -1      1501 9.78356E-05-2.84480E-05-2.99350E-05 4.08877E-06 2.12941E-18 6.17034E-18
 -1      1502 9.28722E-05-2.77932E-05-2.78717E-05-1.29232E-07 6.47888E-19 5.86779E-18
 -1      1503 9.30115E-05-2.76645E-05-2.79983E-05 5.26625E-08 6.70129E-19 7.09631E-18
 -1      1504 9.51377E-05-2.81922E-05-2.87388E-05 1.01867E-06 1.55288E-18 4.42509E-18
 -1      1505 9.33959E-05-2.79813E-05-2.80134E-05-6.10729E-07 5.65904E-19 4.47548E-18
 -1      1506 9.28705E-05-2.77415E-05-2.78715E-05-4.92102E-07 4.59591E-19 5.31979E-18
 -1      1507 9.44522E-05-2.81636E-05-2.84256E-05-4.56503E-07 1.04275E-18 3.14891E-18
 -1      1508 9.47849E-05-2.84078E-05-2.84349E-05-9.18064E-07 3.90123E-19 3.40047E-18
 -1      1509 9.38724E-05-2.80820E-05-2.81650E-05-8.30421E-07 3.71920E-19 4.06593E-18
 -1      1510 9.49548E-05-2.83818E-05-2.85465E-05-1.30831E-06 8.78850E-19 2.26429E-18
 -1      1511 9.67397E-05-2.90013E-05-2.90238E-05-1.13058E-06 5.30785E-20 2.81256E-18
 -1      1512 9.55706E-05-2.86106E-05-2.86779E-05-1.06103E-06 2.29318E-19 3.12161E-18
 -1      1513 9.62060E-05-2.87900E-05-2.89091E-05-1.86271E-06 5.77198E-19 1.75443E-18
 -1      1514 9.90714E-05-2.97106E-05-2.97211E-05-1.27078E-06 3.63346E-19 1.97154E-18
 -1      1515 9.77294E-05-2.92741E-05-2.93259E-05-1.21639E-06 2.05759E-19 2.44429E-18
 -1      1516 9.79513E-05-2.93379E-05-2.94217E-05-2.23664E-06 3.82100E-19 1.17263E-18
 -1      1517 1.01611E-04-3.04882E-05-3.04749E-05-1.32906E-06 3.08474E-19 9.08946E-19
 -1      1518 1.00179E-04-3.00298E-05-3.00559E-05-1.29406E-06 4.05916E-19 1.59881E-18
 -1      1519 1.00010E-04-2.99837E-05-3.00244E-05-2.45428E-06 7.54915E-19 7.64580E-19
 -1      1520 1.04149E-04-3.12753E-05-3.12210E-05-1.27106E-06 3.14556E-19 2.91181E-19
 -1      1521 1.02740E-04-3.08303E-05-3.08126E-05-1.26657E-06 1.66698E-19 6.24131E-19
 -1      1522 1.02210E-04-3.06848E-05-3.06603E-05-2.48226E-06 5.58322E-19 1.86764E-19
 -1      1523 1.06397E-04-3.19871E-05-3.18706E-05-1.04319E-06 2.42000E-19-5.86570E-20
 -1      1524 1.05176E-04-3.16101E-05-3.15227E-05-1.08671E-06 3.51810E-19 2.40968E-19
 -1      1525 1.04338E-04-3.13860E-05-3.12616E-05-2.24402E-06 5.44202E-19-2.56284E-19
 -1      1526 1.07962E-04-3.25042E-05-3.23063E-05-5.86081E-07 4.64571E-19-7.35072E-19
 -1      1527 1.07159E-04-3.22724E-05-3.20865E-05-6.98328E-07 2.53779E-19-3.57057E-19
 -1      1528 1.06120E-04-3.20077E-05-3.17427E-05-1.63751E-06 5.49317E-19-7.07008E-20
 -1      1529 1.08370E-04-3.26743E-05-3.23933E-05 1.34718E-07-1.71921E-19-6.58207E-19
 -1      1530 1.08263E-04-3.26822E-05-3.23795E-05-6.14268E-08 1.42560E-19-6.84389E-19
 -1      1531 1.07206E-04-3.24378E-05-3.20033E-05-5.74199E-07 1.87849E-19-1.03149E-19
 -1      1532 1.07169E-04-3.23392E-05-3.20132E-05 1.07617E-06-1.72517E-20-3.07063E-19
 -1      1533 1.08020E-04-3.26758E-05-3.22730E-05 8.02735E-07-2.00985E-19-8.45207E-19
 -1      1534 1.07216E-04-3.25338E-05-3.19465E-05 9.46916E-07-9.40339E-21 1.87570E-19
 -1      1535 1.04138E-04-3.14007E-05-3.11248E-05 2.05806E-06 1.76335E-19-1.00246E-18
 -1      1536 1.06062E-04-3.21022E-05-3.16784E-05 1.75517E-06 2.44951E-19-5.92526E-19
 -1      1537 1.05847E-04-3.21510E-05-3.15135E-05 2.73607E-06 2.58597E-19-4.49272E-19
 -1      1538 9.95594E-05-2.99202E-05-2.98322E-05 2.74633E-06 1.99863E-20-7.56030E-19
 -1      1539 1.02360E-04-3.09089E-05-3.06119E-05 2.51009E-06 1.05879E-21-9.14319E-19
 -1      1540 1.03057E-04-3.12115E-05-3.07309E-05 4.33527E-06 5.67446E-20-2.42926E-19
 -1      1541 9.44046E-05-2.82041E-05-2.84186E-05 2.75025E-06 4.21035E-21-8.74059E-19
 -1      1542 9.74755E-05-2.92514E-05-2.92505E-05 2.69716E-06-5.88920E-20-9.69376E-19
 -1      1543 9.92727E-05-2.98113E-05-2.97453E-05 5.07539E-06 1.99988E-19-5.55508E-19
 -1      1544 9.02069E-05-2.67808E-05-2.72898E-05 1.85273E-06 6.69950E-19-2.35531E-18
 -1      1545 9.26273E-05-2.75498E-05-2.79311E-05 2.05225E-06 6.55604E-19-1.31711E-18
 -1      1546 9.54599E-05-2.82976E-05-2.88115E-05 4.36519E-06 7.11203E-19-1.29886E-18
 -1      1547 8.84758E-05-2.61939E-05-2.68246E-05 2.46308E-07-3.48806E-19-3.06062E-18
 -1      1548 8.93770E-05-2.63865E-05-2.70574E-05 6.52164E-07 1.02617E-19-2.69858E-18
 -1      1549 9.28860E-05-2.72130E-05-2.82165E-05 2.12977E-06 6.78990E-19-1.08236E-18
 -1      1550 8.99163E-05-2.66984E-05-2.71946E-05-1.47866E-06-2.73380E-19-2.43559E-18
 -1      1551 8.89332E-05-2.62258E-05-2.69318E-05-1.02083E-06-3.65826E-19-3.01284E-18
 -1      1552 9.25480E-05-2.70317E-05-2.81617E-05-9.42132E-07-2.28606E-19-1.29322E-18
 -1      1553 9.40150E-05-2.80962E-05-2.82832E-05-2.65661E-06-2.25417E-19-1.92647E-18
 -1      1554 9.15006E-05-2.71393E-05-2.76106E-05-2.32264E-06-2.83948E-19-2.33053E-18
 -1      1555 9.46180E-05-2.78603E-05-2.86747E-05-3.68685E-06-3.12105E-19-1.36419E-18
 -1      1556 9.93454E-05-2.98670E-05-2.97387E-05-2.94854E-06 7.33088E-19-2.01012E-18
 -1      1557 9.61611E-05-2.87619E-05-2.88744E-05-2.82762E-06 2.65964E-19-1.60224E-18
 -1      1558 9.83329E-05-2.93470E-05-2.95959E-05-5.13640E-06 9.90466E-21-1.75039E-18
 -1      1559 1.04341E-04-3.14713E-05-3.11519E-05-2.45812E-06 6.70400E-19-4.18802E-18
 -1      1560 1.01402E-04-3.05297E-05-3.03353E-05-2.53015E-06 8.24276E-19-2.54015E-18
 -1      1561 1.02454E-04-3.09287E-05-3.06542E-05-5.03406E-06 1.05329E-18-1.85103E-18
 -1      1562 1.07934E-04-3.25740E-05-3.22141E-05-1.55165E-06-2.50738E-19-4.65427E-18
 -1      1563 1.05846E-04-3.19668E-05-3.16161E-05-1.73172E-06-1.12702E-19-4.68528E-18
 -1      1564 1.05880E-04-3.21493E-05-3.15821E-05-3.78826E-06 6.31953E-19-2.68956E-18
 -1      1565 1.09759E-04-3.30903E-05-3.27925E-05-6.00820E-07-2.15699E-19-3.90088E-18
 -1      1566 1.08711E-04-3.28398E-05-3.24779E-05-8.02544E-07-3.88887E-19-4.60227E-18
 -1      1567 1.08010E-04-3.28166E-05-3.22036E-05-2.07674E-06-2.72917E-19-3.69187E-18
 -1      1568 1.09987E-04-3.31058E-05-3.29092E-05 1.64333E-07-2.98215E-19-3.36843E-18
 -1      1569 1.09860E-04-3.31422E-05-3.28557E-05-4.74294E-09-8.25394E-20-3.49117E-18
 -1      1570 1.08758E-04-3.29637E-05-3.24631E-05-4.65352E-07-3.48905E-19-3.25427E-18
 -1      1571 1.09054E-04-3.27744E-05-3.26739E-05 6.65746E-07-1.79022E-19-2.67682E-18
 -1      1572 1.09583E-04-3.29973E-05-3.28131E-05 5.49398E-07-2.66312E-19-2.74729E-18
 -1      1573 1.08366E-04-3.27313E-05-3.23999E-05 7.45163E-07-4.25637E-19-2.58741E-18
 -1      1574 1.07433E-04-3.22489E-05-3.22199E-05 9.23603E-07 7.32465E-19-3.95445E-18
 -1      1575 1.08340E-04-3.25668E-05-3.24745E-05 8.57946E-07 5.22747E-19-2.97410E-18
 -1      1576 1.07202E-04-3.22748E-05-3.21019E-05 1.48705E-06 5.79187E-19-1.93546E-18
 -1      1577 1.05517E-04-3.16491E-05-3.16646E-05 9.99099E-07-2.91986E-19-4.85755E-18
 -1      1578 1.06576E-04-3.19944E-05-3.19691E-05 9.72560E-07-3.96480E-20-4.56216E-18
 -1      1579 1.05620E-04-3.17200E-05-3.16661E-05 1.82684E-06 3.33560E-19-2.26348E-18
 -1      1580 1.03583E-04-3.10551E-05-3.10938E-05 9.57575E-07 2.37564E-20-4.19741E-18
 -1      1581 1.04640E-04-3.13854E-05-3.14019E-05 9.57117E-07-3.20903E-19-4.61689E-18
 -1      1582 1.03899E-04-3.11525E-05-3.11749E-05 1.87838E-06-5.74032E-19-2.09723E-18
 -1      1583 1.01797E-04-3.05138E-05-3.05611E-05 8.52218E-07 2.67326E-19-5.08172E-18
 -1      1584 1.02762E-04-3.08065E-05-3.08448E-05 8.66931E-07 5.40571E-19-4.61880E-18
 -1      1585 1.02228E-04-3.06234E-05-3.06873E-05 1.75182E-06 3.71732E-19-2.60279E-18
 -1      1586 1.00243E-04-3.00471E-05-3.00943E-05 7.20368E-07-2.12274E-19-5.17598E-18
 -1      1587 1.01074E-04-3.02932E-05-3.03400E-05 7.42389E-07 3.19548E-19-5.26650E-18
 -1      1588 1.00716E-04-3.01586E-05-3.02397E-05 1.53327E-06 2.74704E-19-2.88724E-18
 -1      1589 9.89500E-05-2.96612E-05-2.97038E-05 5.85471E-07 2.74325E-19-5.17800E-18
 -1      1590 9.96341E-05-2.98601E-05-2.99071E-05 6.09691E-07-1.55505E-19-5.17516E-18
 -1      1591 9.94153E-05-2.97675E-05-2.98506E-05 1.28169E-06-1.29321E-19-2.38821E-18
 -1      1592 9.79104E-05-2.93525E-05-2.93888E-05 4.60657E-07-7.18563E-19-4.14254E-18
 -1      1593 9.84543E-05-2.95081E-05-2.95510E-05 4.84058E-07-3.11261E-19-4.79954E-18
 -1      1594 9.83390E-05-2.94492E-05-2.95261E-05 1.03335E-06-2.01749E-19-2.68897E-18
 -1      1595 9.70991E-05-2.91127E-05-2.91422E-05 3.52122E-07-1.01293E-18-2.58227E-18
 -1      1596 9.75188E-05-2.92309E-05-2.92678E-05 3.73126E-07-4.98691E-19-3.77298E-18
 -1      1597 9.74762E-05-2.91975E-05-2.92642E-05 8.07983E-07-1.32590E-18-2.50947E-18
 -1      1598 9.64834E-05-2.89314E-05-2.89546E-05 2.61760E-07 6.60473E-19-3.17135E-18
 -1      1599 9.67981E-05-2.90186E-05-2.90491E-05 2.79715E-07 1.26533E-19-3.05715E-18
 -1      1600 9.68033E-05-2.90035E-05-2.90589E-05 6.14328E-07 3.21604E-19-2.92397E-18
 -1      1601 9.60286E-05-2.87981E-05-2.88158E-05 1.89005E-07-3.59323E-20-3.42127E-18
 -1      1602 9.62580E-05-2.88605E-05-2.88848E-05 2.03814E-07 1.19168E-20-2.97576E-18
 -1      1603 9.62923E-05-2.88577E-05-2.89022E-05 4.54384E-07-1.88663E-20-2.44279E-18
 -1      1604 9.57025E-05-2.87028E-05-2.87160E-05 1.32031E-07-4.62405E-19-1.74722E-18
 -1      1605 9.58644E-05-2.87460E-05-2.87649E-05 1.43903E-07-3.94362E-19-2.39170E-18
 -1      1606 9.59143E-05-2.87510E-05-2.87857E-05 3.26349E-07-9.08056E-19-1.23966E-18
 -1      1607 9.54765E-05-2.86371E-05-2.86467E-05 8.85046E-08 6.20750E-19-3.46554E-18
 -1      1608 9.55864E-05-2.86657E-05-2.86800E-05 9.77979E-08 8.94270E-19-1.95325E-18
 -1      1609 9.56424E-05-2.86751E-05-2.87015E-05 2.26538E-07 7.37371E-19-2.28426E-18
 -1      1610 9.53266E-05-2.85938E-05-2.86005E-05 5.60180E-08 3.36153E-19-4.18794E-18
 -1      1611 9.53976E-05-2.86115E-05-2.86222E-05 6.31410E-08-4.08855E-21-4.07962E-18
 -1      1612 9.54534E-05-2.86230E-05-2.86426E-05 1.50570E-07 5.05407E-19-1.77170E-18
 -1      1613 9.52334E-05-2.85670E-05-2.85717E-05 3.23321E-08-9.96173E-20-4.30444E-18
 -1      1614 9.52756E-05-2.85770E-05-2.85847E-05 3.76876E-08 2.58016E-19-4.00630E-18
 -1      1615 9.53275E-05-2.85888E-05-2.86031E-05 9.40625E-08 1.34655E-19-5.51685E-19
 -1      1616 9.51812E-05-2.85523E-05-2.85554E-05 1.54918E-08 7.82494E-19-4.51638E-18
 -1      1617 9.52029E-05-2.85567E-05-2.85622E-05 1.94454E-08-2.08760E-19-4.24796E-18
 -1      1618 9.52486E-05-2.85680E-05-2.85781E-05 5.30045E-08 4.82089E-20-7.61106E-19
 -1      1619 9.51580E-05-2.85461E-05-2.85480E-05 3.87023E-09-6.34691E-19-5.27559E-18
 -1      1620 9.51655E-05-2.85467E-05-2.85505E-05 6.73550E-09 1.76977E-19-4.70657E-18
 -1      1621 9.52039E-05-2.85567E-05-2.85636E-05 2.39368E-08 1.43009E-19-8.82146E-19
 -1      1622 9.51548E-05-2.85456E-05-2.85467E-05-3.82445E-09-1.14037E-18-3.19943E-18
 -1      1623 9.51526E-05-2.85438E-05-2.85463E-05-1.79293E-09-7.37941E-19-3.81085E-18
 -1      1624 9.51835E-05-2.85521E-05-2.85567E-05 4.01554E-09-1.36321E-18 6.26098E-19
 -1      1625 9.51644E-05-2.85489E-05-2.85494E-05-8.55224E-09 3.19481E-19-2.37127E-18
 -1      1626 9.51562E-05-2.85456E-05-2.85471E-05-7.16596E-09-1.59441E-20-3.53338E-18
 -1      1627 9.51796E-05-2.85521E-05-2.85550E-05-8.97820E-09-2.42654E-19-1.03121E-18
 -1      1628 9.51815E-05-2.85544E-05-2.85543E-05-1.09325E-08 5.72176E-19-3.32541E-18
 -1      1629 9.51699E-05-2.85503E-05-2.85510E-05-1.00775E-08 6.28367E-19-2.61235E-18
 -1      1630 9.51863E-05-2.85551E-05-2.85565E-05-1.66300E-08 1.02789E-18-1.79139E-18
 -1      1631 9.52015E-05-2.85607E-05-2.85601E-05-1.12577E-08-2.37462E-19-3.77537E-18
 -1      1632 9.51889E-05-2.85565E-05-2.85565E-05-1.09011E-08 2.50233E-19-3.54552E-18
 -1      1633 9.51989E-05-2.85596E-05-2.85598E-05-1.98999E-08 7.92885E-19-1.48235E-18
 -1      1634 9.52201E-05-2.85668E-05-2.85654E-05-9.39724E-09-2.80897E-19-2.65836E-18
 -1      1635 9.52090E-05-2.85632E-05-2.85623E-05-9.65494E-09-6.66163E-19-3.78101E-18
 -1      1636 9.52135E-05-2.85649E-05-2.85637E-05-1.90865E-08-8.29972E-19-1.18125E-18
 -1      1637 9.52331E-05-2.85712E-05-2.85691E-05-5.06864E-09 7.40585E-19-3.46431E-18
 -1      1638 9.52261E-05-2.85691E-05-2.85671E-05-6.01840E-09 5.03181E-19-3.38302E-18
 -1      1639 9.52268E-05-2.85701E-05-2.85670E-05-1.38770E-08 1.06803E-18-1.27010E-18
 -1      1640 9.52363E-05-2.85725E-05-2.85699E-05-1.31565E-09-1.80831E-18-2.05076E-18
 -1      1641 9.52403E-05-2.85850E-05-2.85665E-05-8.35361E-09-2.19608E-19 1.18388E-18
 -1      1642 9.52378E-05-2.85778E-05-2.85684E-05-7.17617E-09-2.05369E-18 1.26806E-18
 -1      1643 9.52460E-05-2.86009E-05-2.85622E-05-1.06346E-08 5.33678E-19 8.50423E-19
 -1      1644 9.52425E-05-2.85909E-05-2.85649E-05-1.04464E-08 5.78370E-20 1.32110E-19
 -1      1645 9.52401E-05-2.85860E-05-2.85659E-05-1.77571E-08 2.61938E-19 7.46340E-19
 -1      1646 9.52514E-05-2.86173E-05-2.85576E-05-1.03548E-08-2.22356E-18-1.81626E-18
 -1      1647 9.52481E-05-2.86073E-05-2.85604E-05-1.06105E-08-4.44903E-19-2.90543E-19
 -1      1648 9.52453E-05-2.85984E-05-2.85630E-05-2.01236E-08-1.50898E-21-9.15777E-19
 -1      1649 9.52559E-05-2.86317E-05-2.85533E-05-8.67155E-09-2.58860E-18-6.53544E-19
 -1      1650 9.52532E-05-2.86231E-05-2.85558E-05-9.11167E-09-2.62741E-18 5.33591E-19
 -1      1651 9.52497E-05-2.86103E-05-2.85598E-05-1.85088E-08-2.09984E-18-2.05775E-18
 -1      1652 9.52593E-05-2.86426E-05-2.85500E-05-6.47020E-09-1.32921E-18 9.35902E-19
 -1      1653 9.52573E-05-2.86363E-05-2.85519E-05-6.93442E-09-2.56257E-18-8.65659E-19
 -1      1654 9.52530E-05-2.86203E-05-2.85570E-05-1.48834E-08-1.36770E-18-8.33308E-19
 -1      1655 9.52615E-05-2.86503E-05-2.85477E-05-4.17124E-09-1.48097E-18-8.26124E-19
 -1      1656 9.52602E-05-2.86460E-05-2.85490E-05-4.61509E-09-1.86510E-18 4.49649E-19
 -1      1657 9.52553E-05-2.86279E-05-2.85547E-05-1.05934E-08-1.06785E-18 3.92026E-19
 -1      1658 9.52627E-05-2.86544E-05-2.85464E-05-1.99981E-09-2.59649E-18-1.40035E-18
 -1      1659 9.52620E-05-2.86523E-05-2.85471E-05-2.40312E-09-1.31785E-18-1.46724E-18
 -1      1660 9.52568E-05-2.86330E-05-2.85532E-05-6.29373E-09-1.48119E-18-1.40058E-18
 -1      1661 9.52629E-05-2.86552E-05-2.85462E-05 7.86938E-11-1.05433E-18 1.10193E-18
 -1      1662 9.52629E-05-2.86551E-05-2.85462E-05-3.11507E-10-1.97524E-18 1.71367E-19
 -1      1663 9.52575E-05-2.86355E-05-2.85524E-05-2.21516E-09 3.14920E-19-7.34051E-19
 -1      1664 9.52622E-05-2.86527E-05-2.85469E-05 2.20553E-09-1.67264E-18 2.51254E-19
 -1      1665 9.52628E-05-2.86547E-05-2.85464E-05 1.79055E-09-2.34611E-18 6.20791E-19
 -1      1666 9.52575E-05-2.86357E-05-2.85523E-05 1.78971E-09 4.02361E-19 1.95794E-19
 -1      1667 9.52604E-05-2.86467E-05-2.85488E-05 4.50304E-09-4.39557E-18-1.66661E-18
 -1      1668 9.52617E-05-2.86508E-05-2.85476E-05 4.03885E-09-2.21671E-18-8.95275E-19
 -1      1669 9.52569E-05-2.86334E-05-2.85531E-05 5.97653E-09-2.14863E-18-7.61043E-19
 -1      1670 9.52575E-05-2.86371E-05-2.85517E-05 6.90817E-09-4.42525E-18 6.84358E-19
 -1      1671 9.52595E-05-2.86434E-05-2.85498E-05 6.42399E-09-4.13040E-18-1.29289E-18
 -1      1672 9.52556E-05-2.86286E-05-2.85545E-05 1.04287E-08-1.18433E-18-2.20113E-18
 -1      1673 9.52534E-05-2.86237E-05-2.85556E-05 9.22809E-09-2.81719E-18 5.32190E-20
 -1      1674 9.52562E-05-2.86324E-05-2.85531E-05 8.76513E-09-4.33160E-18 1.77863E-18
 -1      1675 9.52533E-05-2.86210E-05-2.85568E-05 1.49437E-08-1.78795E-18 2.21920E-18
 -1      1676 9.52482E-05-2.86077E-05-2.85603E-05 1.08490E-08-2.53638E-18-5.34512E-19
 -1      1677 9.52516E-05-2.86178E-05-2.85574E-05 1.05442E-08-2.55713E-18-4.42002E-19
 -1      1678 9.52499E-05-2.86108E-05-2.85597E-05 1.87869E-08-1.37934E-18-2.52418E-19
 -1      1679 9.52427E-05-2.85914E-05-2.85649E-05 1.05290E-08-2.92088E-18 3.72431E-19
 -1      1680 9.52461E-05-2.86012E-05-2.85621E-05 1.07000E-08-2.86188E-18 2.33401E-19
 -1      1681 9.52453E-05-2.85986E-05-2.85629E-05 2.04763E-08-4.24331E-19-5.04623E-19
 -1      1682 9.52375E-05-2.85788E-05-2.85681E-05 9.81547E-09-2.36585E-18 1.05621E-19
 -1      1683 9.52401E-05-2.85858E-05-2.85661E-05 1.16200E-08-2.32747E-18 1.27962E-19
 -1      1684 9.52400E-05-2.85863E-05-2.85656E-05 2.03637E-08-4.28473E-19 2.14530E-19
 -1      1685 9.52324E-05-2.85760E-05-2.85669E-05 1.82372E-08-6.76461E-19 5.48629E-19
 -1      1686 2.01708E-05-6.51326E-05 1.34788E-05-5.04272E-06 5.71197E-18 5.28210E-18
 -1      1687 2.36631E-05-7.55957E-05 1.57405E-05 2.53717E-06-1.99053E-18 4.99178E-18
 -1      1688 1.97779E-05-3.71365E-05 3.28923E-06 3.98423E-06 1.11131E-17 6.60008E-18
 -1      1689 2.41263E-05-6.01116E-05 9.44364E-06-1.62925E-07 7.64278E-18 4.47096E-18
 -1      1690 3.36775E-05-9.46980E-06-1.22501E-05 2.87367E-05 1.35568E-17 1.03622E-17
 -1      1691 2.80321E-05-2.99880E-05-3.70304E-06 1.09319E-05 1.23853E-17 8.05020E-18
 -1      1692 7.88122E-05-2.36069E-06-3.18603E-05 6.12137E-05 1.17001E-17 1.41336E-17
 -1      1693 5.21288E-05-7.30724E-06-2.14464E-05 3.76295E-05 1.30164E-17 1.10292E-17
 -1      1694 1.42797E-04-1.78531E-05-5.03370E-05 7.59981E-05 9.45966E-18 1.41539E-17
 -1      1695 1.01951E-04-4.56393E-06-4.12342E-05 6.53311E-05 1.11334E-17 1.41378E-17
 -1      1696 2.09631E-04-4.50778E-05-6.54002E-05 5.59432E-05 5.92513E-18 9.51980E-18
 -1      1697 1.66332E-04-2.42609E-05-5.80002E-05 6.74431E-05 8.47965E-18 1.26775E-17
 -1      1698 2.51399E-04-6.36703E-05-7.39192E-05 1.81714E-05 3.43197E-18 3.10162E-18
 -1      1699 2.30019E-04-5.15805E-05-7.10425E-05 4.96499E-05 5.07267E-18 8.62407E-18
 -1      1700 2.38188E-04-5.58115E-05-7.26147E-05-3.45607E-05 4.94201E-18-6.05417E-18
 -1      1701 2.50331E-04-6.25784E-05-7.42122E-05 9.54395E-07 4.05835E-18 2.72850E-19
 -1      1702 1.87373E-04-3.22643E-05-6.28327E-05-6.53932E-05 8.64439E-18-1.35297E-17
 -1      1703 2.24446E-04-5.13019E-05-6.87048E-05-4.70013E-05 5.84834E-18-8.75027E-18
 -1      1704 1.21472E-04-9.34285E-06-4.67571E-05-6.88424E-05 1.32150E-17-1.67950E-17
 -1      1705 1.66738E-04-2.68355E-05-5.58524E-05-7.37246E-05 9.73029E-18-1.50907E-17
 -1      1706 6.68547E-05-9.57870E-06-2.60922E-05-4.34676E-05 1.68161E-17-1.46079E-17
 -1      1707 9.96536E-05-9.35398E-06-3.70295E-05-6.55659E-05 1.42962E-17-1.59064E-17
 -1      1708 3.40874E-05-2.93867E-05-6.10581E-06-1.60205E-05 1.67230E-17-1.13087E-17
 -1      1709 4.46392E-05-9.99335E-06-1.60165E-05-3.72497E-05 1.74184E-17-1.45673E-17
 -1      1710 2.38393E-05-5.68464E-05 8.34499E-06-6.59199E-09 1.31925E-17-6.65958E-18
 -1      1711 1.95917E-05-3.34630E-05 1.99836E-06-5.12821E-06 1.68145E-17-1.01763E-17
 -1      1712 2.29905E-05-7.13859E-05 1.49517E-05-3.38041E-06 3.10522E-18-4.74381E-18
 -1      1713 1.95229E-05-5.93816E-05 1.20509E-05 2.45485E-06 9.69429E-18-6.46519E-18
 -1      1714 2.08211E-05-6.89315E-05 1.45083E-05-6.79555E-06-6.10033E-18-5.05043E-18
 -1      1715 2.32407E-05-7.60049E-05 1.62051E-05 2.47054E-06 6.79797E-19-3.93891E-18
 -1      1716 1.88891E-05-4.25763E-05 5.33638E-06-1.01054E-06-1.42047E-17-8.67489E-18
 -1      1717 2.42191E-05-6.54355E-05 1.11336E-05-3.23820E-06-8.99041E-18-5.58221E-18
 -1      1718 3.27026E-05-1.22630E-05-1.11058E-05 2.57771E-05-1.79156E-17-1.42662E-17
 -1      1719 2.73370E-05-3.50833E-05-1.89843E-06 6.80143E-06-1.55397E-17-1.03342E-17
 -1      1720 8.18822E-05-5.89749E-06-3.17695E-05 5.98255E-05-1.54922E-17-1.65900E-17
 -1      1721 5.45848E-05-1.15239E-05-2.09610E-05 3.55884E-05-1.70999E-17-1.45190E-17
 -1      1722 1.46244E-04-1.85960E-05-5.10977E-05 7.77435E-05-1.16306E-17-1.89007E-17
 -1      1723 1.03153E-04-4.93541E-06-4.16088E-05 6.59507E-05-1.46952E-17-1.82849E-17
 -1      1724 2.18126E-04-4.84268E-05-6.70022E-05 5.63039E-05-6.88452E-18-1.38058E-17
 -1      1725 1.71986E-04-2.63417E-05-5.91749E-05 6.90795E-05-1.01106E-17-1.67958E-17
 -1      1726 2.56947E-04-6.53629E-05-7.51689E-05 1.29169E-05-3.96030E-18-7.13329E-18
 -1      1727 2.36629E-04-5.40847E-05-7.24046E-05 4.55884E-05-5.67703E-18-1.21672E-17
 -1      1728 2.47979E-04-6.01331E-05-7.41500E-05-3.55049E-05-3.50290E-18 8.16540E-19
 -1      1729 2.60118E-04-6.68390E-05-7.57897E-05-2.96304E-06-3.34345E-18-4.61908E-18
 -1      1730 1.96605E-04-3.63021E-05-6.45062E-05-6.46891E-05-5.69217E-18 7.69953E-18
 -1      1731 2.33127E-04-5.48079E-05-7.02314E-05-4.62314E-05-4.00795E-18 3.36103E-18
 -1      1732 1.34257E-04-1.38509E-05-4.98268E-05-7.08824E-05-8.31617E-18 1.08141E-17
 -1      1733 1.76422E-04-3.08397E-05-5.79564E-05-7.32323E-05-6.01986E-18 9.26908E-18
 -1      1734 7.75609E-05-3.64633E-06-3.25000E-05-5.40649E-05-1.23591E-17 1.14324E-17
 -1      1735 1.10502E-04-8.41150E-06-4.16206E-05-7.15015E-05-9.77645E-18 1.07192E-17
 -1      1736 4.13268E-05-1.43324E-05-1.48868E-05-2.63198E-05-1.54922E-17 1.05041E-17
 -1      1737 5.80225E-05-3.58893E-06-2.38109E-05-4.73775E-05-1.36245E-17 1.12401E-17
 -1      1738 2.59765E-05-3.98445E-05 6.77328E-07-4.27054E-06-1.52771E-17 8.44619E-18
 -1      1739 2.77945E-05-1.85521E-05-6.90543E-06-1.80571E-05-1.62020E-17 1.03740E-17
 -1      1740 2.38996E-05-6.60447E-05 1.16351E-05 3.29420E-06-1.15840E-17 4.94244E-18
 -1      1741 1.88547E-05-4.61859E-05 6.72446E-06 2.52966E-06-1.45673E-17 7.40741E-18
 -1      1742 2.38152E-05-7.70430E-05 1.61788E-05-8.24090E-07-4.25915E-18 4.20234E-18
 -1      1743 2.12987E-05-7.01309E-05 1.46802E-05 7.38894E-06-9.52531E-18 4.46408E-18
 -1      1744 1.16390E-04-3.04484E-05-3.57031E-05 4.57482E-05 6.34258E-18 8.45085E-18
 -1      1745 7.28726E-05-3.31654E-05-1.80761E-05 4.02980E-05 7.06002E-18 7.95067E-18
 -1      1746 9.52360E-05-2.85741E-05-2.85691E-05-5.25605E-09-1.98913E-18-9.45112E-19
 -1      1747 9.52347E-05-2.85762E-05-2.85678E-05-1.24079E-08 3.44409E-19 1.34486E-18
 -1      1748 1.90411E-05-4.69846E-05 7.86576E-06 1.55905E-05 1.79783E-18 6.94991E-18
 -1      1749 3.93835E-05-4.03894E-05-2.56468E-06 2.81637E-05 5.52096E-18 6.42136E-18
 -1      1750 1.18652E-05-5.10706E-05 1.20990E-05 1.92055E-06-1.98709E-18 8.15185E-18
 -1      1751 1.59428E-04-3.13388E-05-5.19580E-05 3.74525E-05 5.90022E-18 6.14099E-18
 -1      1752 1.91941E-04-3.24029E-05-6.42963E-05 2.18699E-05 6.41776E-18 3.60540E-18
 -1      1753 2.09530E-04-3.33901E-05-7.00620E-05 4.43986E-06 6.65514E-18 3.99588E-19
 -1      1754 1.96978E-04-3.07962E-05-6.65942E-05-1.64055E-05 8.13660E-18-3.87687E-18
 -1      1755 1.70733E-04-3.11652E-05-5.63599E-05-3.35517E-05 8.55601E-18-7.42594E-18
 -1      1756 1.32248E-04-3.44663E-05-4.04401E-05-4.14532E-05 9.25976E-18-8.64312E-18
 -1      1757 8.88946E-05-3.85830E-05-2.19346E-05-4.21009E-05 9.15897E-18-8.60120E-18
 -1      1758 4.63287E-05-4.08120E-05-4.81889E-06-3.24624E-05 8.85912E-18-9.06886E-18
 -1      1759 2.08818E-05-4.52240E-05 6.57349E-06-1.80298E-05 5.02418E-18-8.55588E-18
 -1      1760 1.15622E-05-4.70707E-05 1.11735E-05-4.16844E-06 9.42007E-19-8.30855E-18
 -1      1761 1.73624E-05-4.94834E-05 9.20557E-06 1.12174E-05-4.04077E-18-8.21728E-18
 -1      1762 3.70645E-05-4.30910E-05-9.06431E-07 2.49136E-05-8.37292E-18-9.66221E-18
 -1      1763 7.43847E-05-3.68183E-05-1.73261E-05 3.88872E-05-9.77561E-18-1.00585E-17
 -1      1764 1.19255E-04-3.36001E-05-3.58279E-05 4.42736E-05-1.00077E-17-1.13706E-17
 -1      1765 1.64435E-04-3.30403E-05-5.30974E-05 3.86622E-05-8.60543E-18-1.04210E-17
 -1      1766 1.97734E-04-3.33245E-05-6.56627E-05 2.06907E-05-7.55765E-18-7.73468E-18
 -1      1767 2.16236E-04-3.56989E-05-7.13963E-05 2.45889E-06-6.52046E-18-4.02341E-18
 -1      1768 2.06142E-04-3.46928E-05-6.82224E-05-1.65723E-05-6.20452E-18-2.00747E-19
 -1      1769 1.78828E-04-3.35999E-05-5.83780E-05-3.26127E-05-5.49417E-18 3.31529E-18
 -1      1770 1.40962E-04-3.22917E-05-4.44001E-05-4.38606E-05-6.32776E-18 5.28294E-18
 -1      1771 9.82361E-05-3.22677E-05-2.82955E-05-4.36417E-05-8.31448E-18 5.44812E-18
 -1      1772 6.09987E-05-3.66862E-05-1.24246E-05-3.49040E-05-8.92010E-18 6.09610E-18
 -1      1773 3.31750E-05-4.37127E-05 9.53112E-07-2.26291E-05-8.31532E-18 6.69918E-18
 -1      1774 1.70633E-05-5.01240E-05 9.61663E-06-1.01478E-05-4.98945E-18 6.71083E-18
 -1      1775 1.06406E-04-2.33711E-05-3.56779E-05-1.60098E-05-2.00985E-18 9.92998E-18
 -1      1776 8.97442E-05-1.05933E-05-3.40505E-05-1.16652E-05-2.91764E-18-2.22076E-18
 -1      1777 9.12744E-05-1.17669E-05-3.42075E-05-1.35007E-05-3.26047E-18-1.17616E-18
 -1      1778 9.34200E-05-1.41576E-05-3.41314E-05-1.44865E-05-3.19319E-18 1.52942E-19
 -1      1779 9.51940E-05-1.61838E-05-3.43482E-05-1.62341E-05-3.32016E-18 1.91699E-18
 -1      1780 9.43183E-05-1.65162E-05-3.33537E-05-1.20994E-05-3.39252E-18-3.67136E-19
 -1      1781 8.57569E-05-7.02285E-06-3.38168E-05-6.46069E-06-1.85866E-18-4.09654E-18
 -1      1782 8.64146E-05-7.44069E-06-3.39003E-05-7.73094E-06-2.17148E-18-3.84122E-18
 -1      1783 8.46594E-05-6.11397E-06-3.37215E-05-4.27080E-06-1.29106E-18-4.40318E-18
 -1      1784 8.51087E-05-6.38429E-06-3.37821E-05-5.39439E-06-1.58162E-18-4.26677E-18
 -1      1785 8.68375E-05-8.88027E-06-3.34366E-05-5.52897E-06-1.87329E-18-4.00063E-18
 -1      1786 8.39894E-05-5.57187E-06-3.36571E-05-2.29745E-06-7.44737E-19-4.59016E-18
 -1      1787 8.42475E-05-5.72207E-06-3.36938E-05-3.31429E-06-1.01392E-18-4.51766E-18
 -1      1788 8.57046E-05-7.86125E-06-3.33864E-05-3.55025E-06-1.21711E-18-4.28223E-18
 -1      1789 8.37207E-05-5.35221E-06-3.36297E-05-4.39401E-07-1.76536E-19-4.66351E-18
 -1      1790 8.37963E-05-5.39420E-06-3.36418E-05-1.40724E-06-4.40656E-19-4.64472E-18
 -1      1791 8.50584E-05-7.29888E-06-3.33497E-05-1.74055E-06-6.43745E-19-4.48405E-18
 -1      1792 8.38408E-05-5.43515E-06-3.36422E-05 1.40884E-06 3.89232E-19-4.67897E-18
 -1      1793 8.37381E-05-5.37335E-06-3.36295E-05 4.34396E-07 1.28602E-19-4.68364E-18
 -1      1794 8.48731E-05-7.14555E-06-3.33360E-05-8.85442E-09-2.77484E-20-4.54621E-18
 -1      1795 8.43440E-05-5.81908E-06-3.36930E-05 3.35049E-06 9.29490E-19-4.61069E-18
 -1      1796 8.40652E-05-5.65150E-06-3.36566E-05 2.31526E-06 6.76525E-19-4.68327E-18
 -1      1797 8.51354E-05-7.38227E-06-3.33478E-05 1.73996E-06 5.60252E-19-4.52580E-18
 -1      1798 8.52187E-05-6.50868E-06-3.37760E-05 5.44658E-06 1.45294E-18-4.30064E-18
 -1      1799 8.47679E-05-6.23216E-06-3.37183E-05 4.31746E-06 1.18320E-18-4.51072E-18
 -1      1800 8.58344E-05-8.00712E-06-3.33808E-05 3.57910E-06 1.12605E-18-4.37703E-18
 -1      1801 8.65435E-05-7.59622E-06-3.38886E-05 7.86180E-06 2.15989E-18-3.66515E-18
 -1      1802 8.58746E-05-7.16521E-06-3.38071E-05 6.54148E-06 1.81396E-18-4.00404E-18
 -1      1803 8.69879E-05-9.06200E-06-3.34249E-05 5.59822E-06 1.75275E-18-3.93646E-18
 -1      1804 8.84665E-05-9.26185E-06-3.40268E-05 1.06395E-05 2.82797E-18-2.77252E-18
 -1      1805 8.74915E-05-8.58496E-06-3.39154E-05 9.08003E-06 2.43908E-18-3.28736E-18
 -1      1806 8.86885E-05-1.06753E-05-3.34620E-05 7.85257E-06 2.48134E-18-3.19922E-18
 -1      1807 9.14121E-05-1.20052E-05-3.41833E-05 1.37405E-05 3.36168E-18-1.09392E-18
 -1      1808 8.98661E-05-1.07992E-05-3.40282E-05 1.19150E-05 3.02258E-18-2.10456E-18
 -1      1809 9.11366E-05-1.31157E-05-3.34548E-05 1.02621E-05 3.09032E-18-2.14900E-18
 -1      1810 9.67820E-05-1.73691E-05-3.42292E-05 1.63426E-05 3.40228E-18 2.14458E-18
 -1      1811 9.37541E-05-1.46265E-05-3.40885E-05 1.47394E-05 3.27931E-18 1.88650E-19
 -1      1812 9.48356E-05-1.70822E-05-3.33113E-05 1.23002E-05 3.45265E-18-2.69648E-19
 -1      1813 1.02691E-04-2.53892E-05-3.35533E-05 1.33860E-05 2.94280E-18 6.13972E-18
 -1      1814 9.89617E-05-1.99673E-05-3.38554E-05 1.57519E-05 3.15459E-18 3.54748E-18
 -1      1815 9.83728E-05-2.21926E-05-3.27211E-05 1.18880E-05 3.39417E-18 2.17624E-18
 -1      1816 9.98039E-05-2.64844E-05-3.16321E-05 8.41374E-06 2.91472E-18 5.19873E-18
 -1      1817 1.00950E-04-1.99209E-05-3.44133E-05-1.76960E-05-2.77607E-18 4.77314E-18
 -1      1818 9.69468E-05-2.77461E-05-2.96807E-05 3.00903E-06 2.16201E-18 3.74398E-18
 -1      1819 9.90251E-05-2.77663E-05-3.05785E-05 5.36908E-06 2.43848E-18 4.63210E-18
 -1      1820 9.88435E-05-2.59992E-05-3.12155E-05 7.50750E-06 2.92547E-18 2.92520E-18
 -1      1821 1.00747E-04-2.28596E-05-3.31029E-05-1.31625E-05-3.04781E-18 3.56267E-18
 -1      1822 9.84930E-05-2.73659E-05-3.03654E-05-4.34085E-06-2.43964E-18 2.97437E-18
 -1      1823 9.70785E-05-2.74952E-05-2.97812E-05-2.45399E-06-2.16810E-18 2.34254E-18
 -1      1824 9.65466E-05-2.77390E-05-2.93900E-05-8.06194E-07-1.96750E-18 2.20064E-18
 -1      1825 9.62530E-05-2.79243E-05-2.92326E-05 2.01656E-07-1.71209E-18 1.63277E-18
 -1      1826 9.73300E-05-2.68764E-05-3.02217E-05-2.52044E-06-2.48122E-18 9.48599E-19
 -1      1827 9.60996E-05-2.80467E-05-2.91037E-05 1.27399E-06-1.50094E-18 1.54929E-18
 -1      1828 9.63979E-05-2.82551E-05-2.91625E-05 1.93212E-06-1.25061E-18 1.13643E-18
 -1      1829 9.67702E-05-2.76256E-05-2.96604E-05 5.89497E-07-1.92251E-18 5.28357E-19
 -1      1830 9.65883E-05-2.83849E-05-2.91953E-05 2.70701E-06-1.01420E-18 1.01775E-18
 -1      1831 9.73098E-05-2.86561E-05-2.93890E-05 3.21005E-06-7.63613E-19 8.06577E-19
 -1      1832 9.68930E-05-2.80670E-05-2.95208E-05 2.68758E-06-1.36779E-18 2.56017E-19
 -1      1833 9.77831E-05-2.88277E-05-2.95327E-05 3.83616E-06-7.19460E-19 7.01427E-19
 -1      1834 9.88331E-05-2.91718E-05-2.98253E-05 4.26753E-06-6.36611E-19 3.32857E-19
 -1      1835 9.76022E-05-2.84613E-05-2.96526E-05 4.27692E-06-1.03494E-18 1.06431E-19
 -1      1836 9.95431E-05-2.94007E-05-3.00498E-05 4.81264E-06-5.21471E-19 1.65772E-19
 -1      1837 1.00868E-04-2.98274E-05-3.04208E-05 5.19780E-06-5.65568E-19 1.24951E-19
 -1      1838 9.88113E-05-2.89158E-05-2.99731E-05 5.60159E-06-8.07285E-19-1.93450E-19
 -1      1839 1.01786E-04-3.01307E-05-3.07034E-05 5.67148E-06-5.75081E-19 2.55559E-19
 -1      1840 1.03339E-04-3.06538E-05-3.11338E-05 5.98901E-06-3.21877E-19 3.28859E-19
 -1      1841 1.00459E-04-2.94995E-05-3.04273E-05 6.75108E-06-5.33259E-19-2.87505E-19
 -1      1842 1.04453E-04-3.10591E-05-3.14520E-05 6.34286E-06-2.85715E-19 4.34558E-19
 -1      1843 1.06170E-04-3.16947E-05-3.19150E-05 6.51763E-06-1.76372E-19 4.35918E-19
 -1      1844 1.02516E-04-3.02920E-05-3.09683E-05 7.68799E-06-2.76027E-19-2.74617E-19
 -1      1845 1.07474E-04-3.22421E-05-3.22420E-05 6.63316E-06-1.21293E-19 2.77939E-19
 -1      1846 1.09240E-04-3.29977E-05-3.26954E-05 6.52465E-06-1.17559E-20 3.76361E-19
 -1      1847 1.04974E-04-3.14015E-05-3.15467E-05 8.23685E-06-3.39489E-19-2.99904E-19
 -1      1848 1.10728E-04-3.37303E-05-3.29991E-05 6.20180E-06-7.26893E-20 7.88866E-20
 -1      1849 1.12344E-04-3.45786E-05-3.33806E-05 5.60683E-06 1.01495E-19 2.36504E-19
 -1      1850 1.07834E-04-3.29545E-05-3.21079E-05 8.05969E-06-1.30804E-19-1.04114E-19
 -1      1851 1.13978E-04-3.55044E-05-3.36302E-05 4.57839E-06 2.06087E-19 1.03765E-19
 -1      1852 1.15134E-04-3.63263E-05-3.38628E-05 3.28359E-06 3.09021E-19 2.01718E-19
 -1      1853 1.11058E-04-3.50280E-05-3.26009E-05 6.65744E-06 5.02330E-20-1.02183E-19
 -1      1854 1.16764E-04-3.73262E-05-3.40440E-05 1.31237E-06 2.84537E-19 2.47267E-19
 -1      1855 1.17052E-04-3.78328E-05-3.40604E-05-7.48258E-07 1.47185E-19 3.12755E-19
 -1      1856 1.14456E-04-3.74672E-05-3.30051E-05 3.47461E-06 3.03079E-19 2.53498E-20
 -1      1857 1.18300E-04-3.85328E-05-3.41981E-05-3.61554E-06 2.76139E-19 4.93086E-19
 -1      1858 1.17328E-04-3.82364E-05-3.39848E-05-6.08848E-06 1.07944E-19 7.62204E-19
 -1      1859 1.17473E-04-3.95798E-05-3.33708E-05-1.74848E-06 2.45097E-19 2.35422E-19
 -1      1860 1.17548E-04-3.79774E-05-3.41476E-05-9.08974E-06-3.28040E-19 8.17149E-19
 -1      1861 1.15243E-04-3.64447E-05-3.37863E-05-1.09418E-05-4.70126E-19 9.02805E-19
 -1      1862 1.18993E-04-3.99269E-05-3.38386E-05-8.26424E-06-2.31915E-19 9.76698E-19
 -1      1863 1.13990E-04-3.47894E-05-3.40397E-05-1.24339E-05-5.37310E-19 9.87574E-19
 -1      1864 1.10992E-04-3.22426E-05-3.36824E-05-1.22689E-05-3.44676E-19 6.25534E-19
 -1      1865 1.17801E-04-3.70577E-05-3.45618E-05-1.35326E-05-3.77929E-19 1.42596E-18
 -1      1866 1.08798E-04-2.97558E-05-3.39756E-05-1.04835E-05-5.95001E-19 2.72983E-19
 -1      1867 1.06554E-04-2.76046E-05-3.37630E-05-7.56427E-06-9.79779E-19-2.97904E-19
 -1      1868 1.13908E-04-3.11667E-05-3.55013E-05-1.35745E-05-1.01178E-18 7.97111E-19
 -1      1869 1.05328E-04-2.62449E-05-3.39240E-05-2.73946E-06-1.27103E-18-1.04045E-18
 -1      1870 1.05176E-04-2.60606E-05-3.39245E-05 1.64375E-06-1.66146E-18-1.53725E-18
 -1      1871 1.10062E-04-2.58353E-05-3.62456E-05-6.27241E-06-1.72554E-18-5.45648E-19
 -1      1872 1.06202E-04-2.71303E-05-3.38212E-05 6.77841E-06-2.18950E-18-1.81805E-18
 -1      1873 1.08315E-04-2.91375E-05-3.40275E-05 1.00317E-05-1.86867E-18-2.27990E-18
 -1      1874 1.09788E-04-2.53741E-05-3.63297E-05 5.15747E-06-2.20133E-18-1.81122E-18
 -1      1875 1.10562E-04-3.16075E-05-3.37579E-05 1.23122E-05-6.69632E-19-2.60075E-18
 -1      1876 1.13640E-04-3.42205E-05-3.41295E-05 1.28743E-05 4.01729E-19-2.69840E-18
 -1      1877 1.13468E-04-3.03134E-05-3.56866E-05 1.34259E-05-1.74329E-18-2.71741E-18
 -1      1878 1.15170E-04-3.60907E-05-3.38922E-05 1.17910E-05 9.75448E-19-2.61836E-18
 -1      1879 1.17742E-04-3.78382E-05-3.42958E-05 1.01461E-05 1.10195E-18-2.73536E-18
 -1      1880 1.17690E-04-3.64295E-05-3.47888E-05 1.43735E-05 4.79062E-19-2.93296E-18
 -1      1881 1.17782E-04-3.82910E-05-3.41502E-05 7.25972E-06 1.22345E-18-2.37928E-18
 -1      1882 1.19064E-04-3.87692E-05-3.44260E-05 4.82260E-06 1.19641E-18-1.80505E-18
 -1      1883 1.19480E-04-3.98617E-05-3.40789E-05 9.65601E-06 1.27571E-18-2.82463E-18
 -1      1884 1.18002E-04-3.81809E-05-3.43185E-05 1.90827E-06 8.70935E-19-1.48210E-18
 -1      1885 1.18004E-04-3.77911E-05-3.43742E-05-2.11468E-07 1.36386E-18-9.68324E-19
 -1      1886 1.18423E-04-3.99056E-05-3.36349E-05 3.18734E-06 1.23413E-18-1.74914E-18
 -1      1887 1.16493E-04-3.68285E-05-3.42340E-05-2.27894E-06 1.13469E-18-1.10205E-18
 -1      1888 1.15586E-04-3.60720E-05-3.40727E-05-3.64486E-06 7.10978E-19-1.07468E-18
 -1      1889 1.15716E-04-3.79792E-05-3.33226E-05-2.20587E-06 1.01930E-18-1.55777E-18
 -1      1890 1.14040E-04-3.51511E-05-3.38676E-05-4.74613E-06 2.22230E-19-1.58935E-18
 -1      1891 1.12641E-04-3.43478E-05-3.35519E-05-5.38517E-06-5.20889E-19-1.56545E-18
 -1      1892 1.12521E-04-3.55800E-05-3.29915E-05-5.57402E-06 4.65934E-19-2.41563E-18
 -1      1893 1.11237E-04-3.36191E-05-3.32898E-05-5.74158E-06-5.94311E-19-1.50379E-18
 -1      1894 1.09671E-04-3.29087E-05-3.28964E-05-5.86407E-06-1.62610E-19-1.75062E-18
 -1      1895 1.09465E-04-3.34959E-05-3.25750E-05-7.08872E-06-4.65321E-19-2.42096E-18
 -1      1896 1.08450E-04-3.23744E-05-3.26052E-05-5.75715E-06 3.67239E-20-1.73184E-18
 -1      1897 1.06925E-04-3.17926E-05-3.21971E-05-5.58040E-06 2.60304E-19-1.61022E-18
 -1      1898 1.06770E-04-3.19463E-05-3.20822E-05-7.31119E-06-1.18811E-19-1.95737E-18
 -1      1899 1.05884E-04-3.14092E-05-3.19048E-05-5.23435E-06 5.76555E-19-1.94103E-18
 -1      1900 1.04511E-04-3.09493E-05-3.15225E-05-4.91923E-06 2.59660E-19-1.72009E-18
 -1      1901 1.04470E-04-3.08708E-05-3.15552E-05-6.78427E-06 1.42679E-19-2.49860E-18
 -1      1902 1.03635E-04-3.06728E-05-3.12498E-05-4.48192E-06-1.36700E-19-1.50445E-18
 -1      1903 1.02460E-04-3.03159E-05-3.09142E-05-4.12829E-06-1.74031E-19-1.97660E-18
 -1      1904 1.02537E-04-3.01425E-05-3.10373E-05-5.90523E-06 1.41878E-19-3.00313E-18
 -1      1905 1.01733E-04-3.01134E-05-3.06727E-05-3.68539E-06-6.51337E-19-1.67711E-18
 -1      1906 1.00764E-04-2.98397E-05-3.03909E-05-3.34711E-06-6.12521E-19-1.47813E-18
 -1      1907 1.00932E-04-2.96486E-05-3.05598E-05-4.92415E-06 2.36359E-20-2.21187E-18
 -1      1908 1.00169E-04-2.96891E-05-3.01853E-05-2.94204E-06-4.69508E-19-1.38166E-18
 -1      1909 9.93915E-05-2.94813E-05-2.99562E-05-2.64367E-06-3.18251E-19-6.35249E-19
 -1      1910 9.96151E-05-2.93091E-05-3.01401E-05-3.98007E-06-2.55617E-19-1.74706E-18
 -1      1911 9.89117E-05-2.93685E-05-2.97865E-05-2.29427E-06-4.25348E-19-3.12951E-19
 -1      1912 9.83022E-05-2.92125E-05-2.96049E-05-2.04359E-06-1.18148E-19 2.57450E-19
 -1      1913 9.85504E-05-2.90717E-05-2.97845E-05-3.13946E-06-5.92956E-20-4.49041E-19
 -1      1914 9.79218E-05-2.91278E-05-2.94683E-05-1.75343E-06-9.94073E-20-1.94092E-19
 -1      1915 9.74530E-05-2.90122E-05-2.93274E-05-1.54955E-06 5.36934E-19-2.01183E-19
 -1      1916 9.77020E-05-2.89039E-05-2.94918E-05-2.42584E-06-3.32044E-19-3.54134E-19
 -1      1917 9.71564E-05-2.89490E-05-2.92197E-05-1.31503E-06 4.27142E-19-1.23215E-18
 -1      1918 9.68025E-05-2.88647E-05-2.91124E-05-1.15313E-06 5.53141E-19-1.30710E-18
 -1      1919 9.70362E-05-2.87847E-05-2.92566E-05-1.83940E-06 1.90411E-19-1.78712E-18
 -1      1920 9.65750E-05-2.88181E-05-2.90291E-05-9.67531E-07 8.00091E-19-1.46958E-18
 -1      1921 9.63129E-05-2.87577E-05-2.89490E-05-8.41401E-07 4.34957E-19-7.49359E-19
 -1      1922 9.65222E-05-2.87006E-05-2.90714E-05-1.36900E-06 5.32694E-19-2.45183E-18
 -1      1923 9.61415E-05-2.87240E-05-2.88858E-05-6.97101E-07-4.54726E-19-4.39516E-19
 -1      1924 9.59513E-05-2.86818E-05-2.88271E-05-6.00469E-07-1.73511E-19-9.68379E-19
 -1      1925 9.61321E-05-2.86421E-05-2.89283E-05-9.98955E-07-2.20436E-19-1.25405E-18
 -1      1926 9.58246E-05-2.86579E-05-2.87800E-05-4.90075E-07 1.33538E-18-8.05314E-19
 -1      1927 9.56898E-05-2.86294E-05-2.87381E-05-4.17200E-07 1.64848E-18-3.57545E-19
 -1      1928 9.58413E-05-2.86024E-05-2.88199E-05-7.12775E-07 6.18254E-19-7.97747E-19
 -1      1929 9.55982E-05-2.86130E-05-2.87037E-05-3.34057E-07 1.88174E-18-4.94434E-19
 -1      1930 9.55054E-05-2.85945E-05-2.86745E-05-2.79962E-07 1.21679E-18-1.35448E-19
 -1      1931 9.56289E-05-2.85766E-05-2.87393E-05-4.94937E-07 1.72551E-18-8.25749E-19
 -1      1932 9.54409E-05-2.85837E-05-2.86500E-05-2.18338E-07 6.44896E-19 2.82825E-19
 -1      1933 9.53795E-05-2.85725E-05-2.86303E-05-1.78852E-07 1.04907E-20 7.43666E-19
 -1      1934 9.54776E-05-2.85609E-05-2.86806E-05-3.31707E-07 1.30679E-18-3.55632E-20
 -1      1935 9.53356E-05-2.85658E-05-2.86134E-05-1.33959E-07-1.14917E-18 6.13477E-19
 -1      1936 9.52972E-05-2.85598E-05-2.86008E-05-1.05675E-07-6.69923E-19 7.29338E-19
 -1      1937 9.53729E-05-2.85523E-05-2.86389E-05-2.11391E-07-5.29976E-19 7.45078E-19
 -1      1938 9.52686E-05-2.85561E-05-2.85895E-05-7.36145E-08 1.28765E-19 1.04979E-18
 -1      1939 9.52468E-05-2.85537E-05-2.85820E-05-5.38102E-08 1.46782E-18 1.63655E-18
 -1      1940 9.53032E-05-2.85489E-05-2.86102E-05-1.24304E-07 1.05634E-19 1.69481E-18
 -1      1941 9.52295E-05-2.85521E-05-2.85749E-05-3.14823E-08 2.05887E-18 1.04645E-18
 -1      1942 9.52193E-05-2.85522E-05-2.85711E-05-1.80405E-08 1.20526E-18 1.48221E-18
 -1      1943 9.52595E-05-2.85488E-05-2.85911E-05-6.26280E-08 1.05581E-18 1.35003E-18
 -1      1944 9.52100E-05-2.85521E-05-2.85669E-05-3.05184E-09 5.09288E-19 2.31741E-18
 -1      1945 9.52077E-05-2.85538E-05-2.85656E-05 5.61448E-09 9.89773E-19 2.80113E-18
 -1      1946 9.52345E-05-2.85511E-05-2.85792E-05-2.02115E-08 1.65584E-18 1.50665E-18
 -1      1947 9.52038E-05-2.85546E-05-2.85635E-05 1.50313E-08 7.88577E-19 2.47038E-18
 -1      1948 9.52066E-05-2.85573E-05-2.85637E-05 2.00319E-08 7.65257E-19 2.12081E-18
 -1      1949 9.52226E-05-2.85549E-05-2.85723E-05 7.61714E-09 9.33226E-19 2.56515E-18
 -1      1950 9.52064E-05-2.85589E-05-2.85630E-05 2.50822E-08-3.43340E-20 8.10549E-19
 -1      1951 9.52119E-05-2.85622E-05-2.85641E-05 2.70742E-08-9.52068E-19 1.12616E-19
 -1      1952 9.52195E-05-2.85598E-05-2.85687E-05 2.42140E-08-7.42295E-19 1.17977E-18
 -1      1953 9.52139E-05-2.85644E-05-2.85640E-05 2.85448E-08-9.13434E-19-2.17291E-19
 -1      1954 9.52205E-05-2.85679E-05-2.85654E-05 2.77065E-08-2.02025E-19 6.18347E-19
 -1      1955 9.52219E-05-2.85655E-05-2.85672E-05 3.17685E-08-1.23454E-18-5.92803E-19
 -1      1956 9.52229E-05-2.85701E-05-2.85655E-05 2.60030E-08-2.11641E-19 1.41723E-19
 -1      1957 9.52291E-05-2.85738E-05-2.85667E-05 2.23960E-08-6.87851E-19-2.29875E-20
 -1      1958 9.52330E-05-2.85779E-05-2.85665E-05 2.56261E-08-4.87421E-19-3.36355E-19
 -1      1959 9.52271E-05-2.85719E-05-2.85666E-05 3.17228E-08-6.27760E-19-7.22429E-19
 -1      1960 9.55518E-05-2.79900E-05-2.89207E-05 3.96911E-07 1.62508E-18 2.61831E-18
 -1      1961 9.63428E-05-2.79879E-05-2.92331E-05 1.54573E-06 1.79797E-18 3.35871E-18
 -1      1962 9.70451E-05-2.75195E-05-2.98067E-05 2.65827E-06 2.23144E-18 2.13308E-18
 -1      1963 9.53499E-05-2.82005E-05-2.87476E-05-1.09811E-06 1.16846E-18 1.75636E-18
 -1      1964 9.53678E-05-2.80976E-05-2.87760E-05-4.31414E-07 1.22900E-18 2.25714E-18
 -1      1965 9.61224E-05-2.79894E-05-2.92119E-05-5.51796E-08 1.65729E-18 1.41701E-18
 -1      1966 9.59978E-05-2.85277E-05-2.88941E-05-2.04855E-06 9.80001E-19 1.15322E-18
 -1      1967 9.55438E-05-2.83314E-05-2.87716E-05-1.60902E-06 9.84447E-19 1.56081E-18
 -1      1968 9.61222E-05-2.83168E-05-2.90750E-05-1.69703E-06 1.23447E-18 8.02656E-19
 -1      1969 9.72344E-05-2.89823E-05-2.92357E-05-2.69263E-06 3.77813E-19 7.02139E-19
 -1      1970 9.64751E-05-2.87115E-05-2.90219E-05-2.38099E-06 6.98557E-19 9.48002E-19
 -1      1971 9.68058E-05-2.86944E-05-2.92068E-05-2.76898E-06 8.85447E-19 2.37907E-19
 -1      1972 9.88756E-05-2.95498E-05-2.97011E-05-3.11508E-06 7.80566E-19 2.26535E-19
 -1      1973 9.79165E-05-2.92211E-05-2.94300E-05-2.89869E-06 4.20317E-19 5.99924E-19
 -1      1974 9.79827E-05-2.91688E-05-2.95064E-05-3.48859E-06 6.81565E-19-1.04625E-19
 -1      1975 1.00768E-04-3.02112E-05-3.02347E-05-3.31171E-06 7.41556E-19 2.00072E-19
 -1      1976 9.96969E-05-2.98409E-05-2.99338E-05-3.19706E-06 8.49948E-19 4.24478E-19
 -1      1977 9.95067E-05-2.97498E-05-2.99083E-05-3.92061E-06 8.39336E-19-2.51046E-19
 -1      1978 1.02751E-04-3.09399E-05-3.07796E-05-3.21439E-06 6.83528E-19-3.73905E-19
 -1      1979 1.01663E-04-3.05493E-05-3.04788E-05-3.23772E-06 6.06944E-19-7.79601E-20
 -1      1980 1.01248E-04-3.04362E-05-3.03575E-05-4.03346E-06 8.83323E-19-4.34056E-19
 -1      1981 1.04622E-04-3.16897E-05-3.12690E-05-2.70787E-06 3.41053E-19-2.01508E-19
 -1      1982 1.03641E-04-3.13126E-05-3.10057E-05-2.92845E-06 4.27639E-19-2.96230E-19
 -1      1983 1.03064E-04-3.12129E-05-3.07989E-05-3.72569E-06 5.39730E-19-3.07420E-19
 -1      1984 1.06123E-04-3.23784E-05-3.16254E-05-1.66182E-06 5.30511E-19 3.64406E-20
 -1      1985 1.05405E-04-3.20686E-05-3.14444E-05-2.14700E-06 5.84396E-19 1.81138E-19
 -1      1986 1.04773E-04-3.20350E-05-3.11733E-05-2.85421E-06 4.76595E-19 2.53566E-19
 -1      1987 1.06936E-04-3.28688E-05-3.17683E-05 1.58201E-09 1.56106E-20 5.12763E-19
 -1      1988 1.06664E-04-3.27055E-05-3.17171E-05-7.90250E-07 4.76985E-20 1.89515E-19
 -1      1989 1.06137E-04-3.28004E-05-3.14209E-05-1.28933E-06 7.80329E-20 4.21435E-19
 -1      1990 1.06728E-04-3.29626E-05-3.16359E-05 2.19218E-06 5.07221E-19-2.76156E-19
 -1      1991 1.07075E-04-3.30448E-05-3.17515E-05 1.13487E-06 2.59172E-19 3.20700E-19
 -1      1992 1.06853E-04-3.33208E-05-3.14929E-05 9.82338E-07 3.45378E-19 1.64261E-19
 -1      1993 1.05257E-04-3.24412E-05-3.12171E-05 4.51568E-06 1.81156E-19 9.05597E-20
 -1      1994 1.06313E-04-3.28561E-05-3.15058E-05 3.38492E-06 2.50298E-19-4.18884E-20
 -1      1995 1.06595E-04-3.33230E-05-3.13705E-05 3.70814E-06 2.34211E-19 1.72586E-19
 -1      1996 1.02559E-04-3.11894E-05-3.05809E-05 6.22190E-06 1.60566E-19-3.01848E-19
 -1      1997 1.04235E-04-3.19461E-05-3.09989E-05 5.38349E-06-3.22799E-20-3.42320E-19
 -1      1998 1.05147E-04-3.25390E-05-3.10818E-05 6.23887E-06 2.89113E-19-1.47337E-20
 -1      1999 9.91481E-05-2.93862E-05-2.98831E-05 6.39854E-06 2.66736E-19-3.37966E-19
 -1      2000 1.01101E-04-3.03379E-05-3.03318E-05 6.28998E-06 1.44104E-19-1.87300E-19
 -1      2001 1.02620E-04-3.09112E-05-3.07071E-05 7.57390E-06-6.88417E-20-2.77092E-19
 -1      2002 9.60657E-05-2.76213E-05-2.93250E-05 4.48685E-06 9.70792E-19-5.36324E-19
 -1      2003 9.77238E-05-2.84485E-05-2.96752E-05 5.36098E-06 6.89511E-19-1.06210E-19
 -1      2004 9.96660E-05-2.88361E-05-3.03582E-05 6.74907E-06 7.09139E-19 4.72406E-19
 -1      2005 9.45395E-05-2.66998E-05-2.90833E-05 8.53220E-07 5.36119E-19-3.74228E-19
 -1      2006 9.53014E-05-2.70407E-05-2.92221E-05 2.51363E-06 8.51930E-19-4.40891E-19
 -1      2007 9.74034E-05-2.71518E-05-3.01388E-05 3.52675E-06 6.45121E-19 3.24271E-19
 -1      2008 9.52979E-05-2.71167E-05-2.92382E-05-3.17347E-06-3.09505E-19-1.32959E-18
 -1      2009 9.48408E-05-2.68004E-05-2.91169E-05-1.35137E-06 5.03588E-20-1.21590E-18
 -1      2010 9.68850E-05-2.67192E-05-3.01105E-05-1.12661E-06 5.87034E-19-7.04652E-19
 -1      2011 9.80719E-05-2.86768E-05-2.97514E-05-6.01689E-06-2.03000E-19-1.73045E-18
 -1      2012 9.65490E-05-2.78505E-05-2.94039E-05-4.73828E-06-8.22945E-20-1.36813E-18
 -1      2013 9.84027E-05-2.77803E-05-3.02861E-05-5.39924E-06-1.91575E-20-1.52542E-18
 -1      2014 1.01754E-04-3.06287E-05-3.04752E-05-6.82192E-06 7.29665E-19-1.98542E-18
 -1      2015 9.97036E-05-2.96467E-05-3.00059E-05-6.43882E-06 2.83591E-20-1.99929E-18
 -1      2016 1.01263E-04-2.97844E-05-3.06280E-05-7.71222E-06 2.25162E-19-2.31822E-18
 -1      2017 1.05116E-04-3.22359E-05-3.12140E-05-5.76840E-06 1.39122E-18-2.55629E-18
 -1      2018 1.03162E-04-3.14241E-05-3.07511E-05-6.18634E-06 1.14820E-18-1.92819E-18
 -1      2019 1.04303E-04-3.18037E-05-3.10543E-05-7.61502E-06 1.12207E-18-1.89406E-18
 -1      2020 1.07371E-04-3.31318E-05-3.17933E-05-3.68216E-06 3.66630E-19-3.51797E-18
 -1      2021 1.05954E-04-3.26500E-05-3.14411E-05-4.54205E-06 9.65505E-19-2.70381E-18
 -1      2022 1.06579E-04-3.31506E-05-3.14562E-05-5.72468E-06 1.16591E-18-2.98941E-18
 -1      2023 1.08313E-04-3.33353E-05-3.21144E-05-1.43380E-06-8.63345E-19-3.73137E-18
 -1      2024 1.07596E-04-3.31811E-05-3.19246E-05-2.36915E-06-5.32387E-19-3.56170E-18
 -1      2025 1.07699E-04-3.36367E-05-3.17361E-05-3.09300E-06-3.07453E-19-3.66528E-18
 -1      2026 1.08123E-04-3.30527E-05-3.21622E-05 4.17052E-07-4.84218E-19-3.41313E-18
 -1      2027 1.08053E-04-3.31420E-05-3.21352E-05-3.59496E-07-4.69938E-19-3.58683E-18
 -1      2028 1.07733E-04-3.34426E-05-3.18397E-05-5.96301E-07-6.04553E-19-3.46627E-18
 -1      2029 1.07142E-04-3.25088E-05-3.19822E-05 1.66130E-06-5.62761E-19-3.21733E-18
 -1      2030 1.07554E-04-3.27432E-05-3.20851E-05 1.13256E-06-7.03219E-19-3.45839E-18
 -1      2031 1.06966E-04-3.28619E-05-3.17623E-05 1.29691E-06-6.88092E-19-3.67093E-18
 -1      2032 1.05710E-04-3.18718E-05-3.16464E-05 2.32579E-06 6.46900E-19-1.54687E-18
 -1      2033 1.06417E-04-3.21716E-05-3.18342E-05 2.03621E-06-1.37329E-20-2.62435E-18
 -1      2034 1.05716E-04-3.21391E-05-3.15361E-05 2.47323E-06-3.61263E-19-2.97643E-18
 -1      2035 1.04099E-04-3.12436E-05-3.12276E-05 2.54325E-06-3.83386E-19-9.20993E-19
 -1      2036 1.04941E-04-3.15551E-05-3.14578E-05 2.43985E-06 4.23846E-19-8.68859E-19
 -1      2037 1.04244E-04-3.14248E-05-3.12108E-05 3.02555E-06 8.88078E-20-6.62180E-19
 -1      2038 1.02498E-04-3.06756E-05-3.07852E-05 2.46465E-06-6.80154E-19-6.75972E-19
 -1      2039 1.03357E-04-3.09677E-05-3.10247E-05 2.48608E-06-7.02901E-19-8.21136E-19
 -1      2040 1.02737E-04-3.07902E-05-3.08363E-05 3.12251E-06-5.87431E-19 2.08349E-19
 -1      2041 1.01021E-04-3.01886E-05-3.03603E-05 2.21769E-06 4.07302E-19-5.90761E-19
 -1      2042 1.01823E-04-3.04456E-05-3.05872E-05 2.31145E-06 3.12964E-19-4.55566E-19
 -1      2043 1.01314E-04-3.02586E-05-3.04540E-05 2.93144E-06 1.46181E-19 7.19002E-19
 -1      2044 9.97265E-05-2.97860E-05-2.99774E-05 1.89509E-06-1.65299E-19-1.60386E-18
 -1      2045 1.00434E-04-3.00023E-05-3.01794E-05 2.02267E-06-1.11899E-19-1.72658E-18
 -1      2046 1.00041E-04-2.98288E-05-3.00925E-05 2.58616E-06 5.78520E-19 2.46332E-19
 -1      2047 9.86365E-05-2.94624E-05-2.96481E-05 1.55709E-06 9.03662E-20-2.10912E-18
 -1      2048 9.92327E-05-2.96383E-05-2.98198E-05 1.69318E-06 1.29639E-19-1.53878E-18
 -1      2049 9.89475E-05-2.94897E-05-2.97690E-05 2.18067E-06 3.75230E-19-3.22228E-19
 -1      2050 9.77471E-05-2.92083E-05-2.93750E-05 1.23884E-06-1.42970E-18-1.10396E-18
 -1      2051 9.82327E-05-2.93475E-05-2.95158E-05 1.36843E-06-3.80275E-19-1.64848E-18
 -1      2052 9.80374E-05-2.92274E-05-2.94914E-05 1.77447E-06-6.63043E-19-8.33130E-19
 -1      2053 9.70411E-05-2.90133E-05-2.91554E-05 9.58077E-07-5.46763E-19-1.87924E-18
 -1      2054 9.74251E-05-2.91205E-05-2.92674E-05 1.07339E-06-7.58629E-19-1.37390E-18
 -1      2055 9.73007E-05-2.90280E-05-2.92612E-05 1.40117E-06-7.74026E-19-1.28480E-18
 -1      2056 9.64945E-05-2.88669E-05-2.89835E-05 7.21304E-07 6.50743E-19-2.07303E-18
 -1      2057 9.67902E-05-2.89475E-05-2.90702E-05 8.19266E-07-1.51046E-19-2.10803E-18
 -1      2058 9.67189E-05-2.88790E-05-2.90757E-05 1.07673E-06 4.19592E-19-1.35250E-18
 -1      2059 9.60816E-05-2.87595E-05-2.88522E-05 5.28373E-07-1.27624E-18-7.87161E-19
 -1      2060 9.63034E-05-2.88185E-05-2.89177E-05 6.08740E-07-3.27784E-19-1.37494E-18
 -1      2061 9.62700E-05-2.87699E-05-2.89300E-05 8.05880E-07-3.18276E-19-4.82142E-19
 -1      2062 9.57775E-05-2.86827E-05-2.87547E-05 3.75533E-07-7.68624E-19-5.78365E-19
 -1      2063 9.59394E-05-2.87247E-05-2.88027E-05 4.39627E-07-1.30054E-18-9.88616E-19
 -1      2064 9.59317E-05-2.86917E-05-2.88184E-05 5.86795E-07-7.60448E-19 6.76988E-19
 -1      2065 9.55598E-05-2.86296E-05-2.86840E-05 2.57405E-07 1.17252E-18-6.40344E-19
 -1      2066 9.56745E-05-2.86585E-05-2.87183E-05 3.07290E-07 6.38631E-19-1.37050E-19
 -1      2067 9.56829E-05-2.86373E-05-2.87350E-05 4.14228E-07-8.34170E-21 7.75406E-19
 -1      2068 9.54091E-05-2.85943E-05-2.86346E-05 1.68177E-07-1.06288E-18-1.60741E-20
 -1      2069 9.54874E-05-2.86133E-05-2.86581E-05 2.06148E-07-2.96790E-19-9.43873E-19
 -1      2070 9.55050E-05-2.86006E-05-2.86743E-05 2.81487E-07-2.31947E-19 1.73481E-19
 -1      2071 9.53094E-05-2.85722E-05-2.86013E-05 1.02286E-07-7.39032E-20 1.27273E-18
 -1      2072 9.53601E-05-2.85838E-05-2.86167E-05 1.30576E-07-1.94628E-19 3.79498E-19
 -1      2073 9.53821E-05-2.85772E-05-2.86314E-05 1.81652E-07-8.69912E-19 7.82129E-19
 -1      2074 9.52474E-05-2.85596E-05-2.85801E-05 5.47799E-08 2.93644E-19 1.01036E-18
 -1      2075 9.52780E-05-2.85660E-05-2.85896E-05 7.53999E-08 2.47757E-19 8.81413E-19
 -1      2076 9.53007E-05-2.85634E-05-2.86024E-05 1.08247E-07 2.56819E-19 1.74159E-18
 -1      2077 9.52129E-05-2.85539E-05-2.85678E-05 2.14726E-08-1.24910E-18 1.15211E-18
 -1      2078 9.52289E-05-2.85566E-05-2.85730E-05 3.61348E-08 6.10456E-20 9.53784E-19
 -1      2079 9.52503E-05-2.85564E-05-2.85836E-05 5.55962E-08 1.78603E-19 2.09660E-18
 -1      2080 9.51978E-05-2.85528E-05-2.85618E-05-1.01030E-09-1.18857E-18 3.85179E-19
 -1      2081 9.52036E-05-2.85530E-05-2.85639E-05 9.08064E-09-1.60042E-18 2.31478E-19
 -1      2082 9.52222E-05-2.85541E-05-2.85725E-05 1.89652E-08-1.12361E-18 1.61459E-18
 -1      2083 9.51957E-05-2.85549E-05-2.85601E-05-1.52429E-08 9.63857E-19-3.84419E-19
 -1      2084 9.51947E-05-2.85534E-05-2.85602E-05-8.66722E-09 1.56846E-19 4.75174E-19
 -1      2085 9.52099E-05-2.85551E-05-2.85667E-05-5.40617E-09 2.30319E-19 6.74877E-19
 -1      2086 9.52017E-05-2.85589E-05-2.85610E-05-2.29543E-08 5.92578E-19-9.30562E-19
 -1      2087 9.51967E-05-2.85564E-05-2.85599E-05-1.92046E-08 7.71193E-19-9.90098E-19
 -1      2088 9.52081E-05-2.85582E-05-2.85645E-05-2.02827E-08 5.61470E-19 1.74006E-19
 -1      2089 9.52120E-05-2.85640E-05-2.85633E-05-2.51297E-08 1.93421E-19-1.30163E-18
 -1      2090 9.52051E-05-2.85610E-05-2.85616E-05-2.38486E-08 1.10950E-18-4.80932E-19
 -1      2091 9.52128E-05-2.85628E-05-2.85645E-05-2.74689E-08 6.04679E-19-1.71860E-19
 -1      2092 9.52233E-05-2.85697E-05-2.85658E-05-2.18913E-08-1.39670E-19-4.87251E-19
 -1      2093 9.52163E-05-2.85665E-05-2.85642E-05-2.32690E-08-7.70657E-19-6.07591E-19
 -1      2094 9.52209E-05-2.85682E-05-2.85655E-05-2.80443E-08-4.86016E-19 2.33150E-20
 -1      2095 9.52320E-05-2.85745E-05-2.85675E-05-1.55975E-08 6.11212E-19 9.36581E-19
 -1      2096 9.52261E-05-2.85715E-05-2.85663E-05-1.96120E-08 2.14012E-19 8.47901E-21
 -1      2097 9.52286E-05-2.85733E-05-2.85665E-05-2.41631E-08-4.57932E-20 1.72967E-19
 -1      2098 9.52346E-05-2.85782E-05-2.85670E-05-1.84740E-08 3.79240E-19 1.94120E-18
 -1      2099 9.52494E-05-2.86040E-05-2.85623E-05-2.19370E-08-1.13708E-18-1.32591E-18
 -1      2100 9.52471E-05-2.85985E-05-2.85636E-05-2.35815E-08-9.17030E-19-2.83460E-18
 -1      2101 9.52453E-05-2.85957E-05-2.85641E-05-2.49769E-08-1.38274E-18-2.62503E-18
 -1      2102 9.52422E-05-2.85896E-05-2.85654E-05-2.50104E-08-4.98881E-19-1.29364E-18
 -1      2103 9.52446E-05-2.85899E-05-2.85664E-05-2.88945E-08-8.56849E-19-2.24336E-18
 -1      2104 9.52403E-05-2.85873E-05-2.85656E-05-2.40213E-08-4.94006E-19-1.61979E-18
 -1      2105 9.52369E-05-2.85814E-05-2.85667E-05-2.14143E-08 1.72589E-19-4.00970E-20
 -1      2106 9.52346E-05-2.85792E-05-2.85667E-05-2.49866E-08 2.76703E-19-3.95366E-19
 -1      2107 9.52400E-05-2.85848E-05-2.85666E-05-2.94270E-08-1.39546E-18-1.86427E-18
 -1      2108 9.52518E-05-2.86102E-05-2.85607E-05-1.70795E-08-6.27163E-19-7.93626E-19
 -1      2109 9.52503E-05-2.86058E-05-2.85618E-05-1.93753E-08-1.10243E-18-9.75834E-20
 -1      2110 9.52480E-05-2.85946E-05-2.85658E-05-2.44745E-08-4.07077E-19-1.02719E-18
 -1      2111 9.52531E-05-2.86145E-05-2.85594E-05-1.16709E-08-1.19207E-18-9.84036E-19
 -1      2112 9.52522E-05-2.86113E-05-2.85602E-05-1.41208E-08-5.47260E-19-1.27206E-19
 -1      2113 9.52496E-05-2.85976E-05-2.85652E-05-1.83881E-08-4.59199E-19-2.23427E-19
 -1      2114 9.52536E-05-2.86169E-05-2.85586E-05-6.48010E-09-2.55109E-19-1.34294E-18
 -1      2115 9.52532E-05-2.86150E-05-2.85591E-05-8.80765E-09-8.55305E-19-5.14701E-19
 -1      2116 9.52500E-05-2.85992E-05-2.85646E-05-1.20362E-08 1.20478E-19-8.66791E-19
 -1      2117 9.52538E-05-2.86178E-05-2.85582E-05-1.59778E-09 7.80048E-19 1.44810E-19
 -1      2118 9.52536E-05-2.86172E-05-2.85584E-05-3.81581E-09 1.33267E-19-9.68032E-19
 -1      2119 9.52500E-05-2.86000E-05-2.85643E-05-6.05064E-09 4.19159E-20 1.83381E-19
 -1      2120 9.52538E-05-2.86174E-05-2.85583E-05 3.25193E-09-5.14222E-19-1.18029E-18
 -1      2121 9.52538E-05-2.86179E-05-2.85582E-05 1.00147E-09 6.59773E-19-1.12614E-19
 -1      2122 9.52500E-05-2.86003E-05-2.85642E-05-3.78348E-10-3.90129E-19-5.75318E-19
 -1      2123 9.52534E-05-2.86155E-05-2.85590E-05 8.41402E-09-2.03123E-18-1.60107E-18
 -1      2124 9.52538E-05-2.86173E-05-2.85585E-05 5.99637E-09-8.98427E-19-1.91201E-18
 -1      2125 9.52502E-05-2.86003E-05-2.85643E-05 5.38461E-09-1.16275E-18-2.23174E-18
 -1      2126 9.52526E-05-2.86120E-05-2.85601E-05 1.38950E-08-5.36054E-19-6.52942E-19
 -1      2127 9.52534E-05-2.86150E-05-2.85593E-05 1.13699E-08-1.63434E-18-4.88381E-19
 -1      2128 9.52504E-05-2.85998E-05-2.85646E-05 1.15630E-08-1.04681E-18-9.55099E-19
 -1      2129 9.52507E-05-2.86065E-05-2.85617E-05 1.94872E-08-9.08940E-19 1.99026E-18
 -1      2130 9.52522E-05-2.86110E-05-2.85605E-05 1.70258E-08-7.15790E-19 1.59499E-18
 -1      2131 9.52501E-05-2.85983E-05-2.85651E-05 1.82025E-08-2.44127E-19 1.34451E-19
 -1      2132 9.52473E-05-2.85990E-05-2.85635E-05 2.39719E-08-2.98281E-19-5.53169E-20
 -1      2133 9.52497E-05-2.86046E-05-2.85622E-05 2.22369E-08-3.88559E-19 1.63737E-19
 -1      2134 9.52485E-05-2.85953E-05-2.85657E-05 2.47046E-08-1.49174E-19 1.06245E-18
 -1      2135 9.52420E-05-2.85899E-05-2.85653E-05 2.58173E-08-2.11465E-19-6.25238E-19
 -1      2136 9.52457E-05-2.85962E-05-2.85640E-05 2.54728E-08 4.70340E-20-1.00300E-18
 -1      2137 9.52449E-05-2.85904E-05-2.85662E-05 2.94313E-08-8.60599E-19-4.07501E-19
 -1      2138 5.60558E-05-3.82751E-05-8.25108E-06 3.95502E-05 3.02560E-18 5.96941E-18
 -1      2139 4.17653E-05-4.04611E-05-1.94983E-06 3.26592E-05 1.25191E-18 4.78955E-18
 -1      2140 1.19973E-05-3.27938E-05 7.68759E-06 6.41825E-06 2.79521E-20 8.28525E-18
 -1      2141 1.21960E-05-3.45356E-05 8.11538E-06-2.89224E-06-1.65193E-18 7.56866E-18
 -1      2142 2.75613E-05-3.40860E-05 1.96778E-06 2.79297E-05 3.61683E-19 5.39115E-18
 -1      2143 1.90200E-05-3.47268E-05 5.47568E-06 1.83794E-05-1.41073E-18 7.18919E-18
 -1      2144 9.62270E-05-4.23630E-05-2.30538E-05 4.31778E-05 3.64436E-18 5.18194E-18
 -1      2145 7.62679E-05-4.38571E-05-1.49784E-05 3.86573E-05 2.98410E-18 5.35134E-18
 -1      2146 1.33745E-04-4.10707E-05-3.92119E-05 3.59115E-05 4.03272E-18 4.37662E-18
 -1      2147 1.13015E-04-4.23331E-05-3.08566E-05 3.53894E-05 3.55966E-18 5.13006E-18
 -1      2148 8.73648E-05-8.40505E-06-3.39317E-05-8.90687E-06-2.43155E-18-3.45141E-18
 -1      2149 8.83148E-05-9.06698E-06-3.40434E-05-1.04454E-05-2.83318E-18-2.86158E-18
 -1      2150 9.09077E-05-1.28921E-05-3.34991E-05-1.01418E-05-2.99102E-18-2.38420E-18
 -1      2151 8.85139E-05-1.04338E-05-3.34819E-05-7.73166E-06-2.39563E-18-3.40867E-18
 -1      2152 1.77245E-04-2.61809E-05-6.32295E-05 7.82854E-06 6.00504E-18 8.06587E-19
 -1      2153 1.62521E-04-2.59015E-05-5.81927E-05 9.99680E-06 5.34774E-18 7.38613E-19
 -1      2154 1.75132E-04-2.10778E-05-6.53731E-05-2.10378E-06 7.34632E-18-1.38823E-18
 -1      2155 1.77558E-04-2.32972E-05-6.51269E-05 4.90273E-06 6.56578E-18 7.00708E-19
 -1      2156 1.54567E-04-1.42562E-05-5.92720E-05-2.30950E-06 6.40738E-18-1.03867E-18
 -1      2157 1.67344E-04-2.42517E-05-6.09145E-05-8.93239E-06 8.31320E-18-2.79013E-18
 -1      2158 1.75709E-04-2.33593E-05-6.43053E-05-3.97666E-06 8.16624E-18-1.13926E-18
 -1      2159 1.52548E-04-3.52056E-05-5.01770E-05-1.98405E-05 7.16190E-18-4.30504E-18
 -1      2160 1.65338E-04-3.23265E-05-5.62982E-05-1.43294E-05 7.25547E-18-3.13487E-18
 -1      2161 1.26680E-04-4.39391E-05-3.57621E-05-2.98464E-05 6.12447E-18-4.34740E-18
 -1      2162 1.46056E-04-4.09556E-05-4.43312E-05-2.93305E-05 6.55434E-18-4.83910E-18
 -1      2163 1.49093E-04-4.24348E-05-4.51621E-05-1.04022E-05 5.15570E-18-1.11893E-18
 -1      2164 8.83590E-05-4.75902E-05-1.81575E-05-3.87493E-05 4.38001E-18-5.33250E-18
 -1      2165 1.10136E-04-4.71754E-05-2.68859E-05-4.08123E-05 5.37654E-18-4.67605E-18
 -1      2166 4.67477E-05-4.16648E-05-3.42576E-06-3.46342E-05 3.67231E-18-7.33933E-18
 -1      2167 6.44388E-05-4.05391E-05-1.05540E-05-4.29354E-05 4.20848E-18-6.92939E-18
 -1      2168 2.29907E-05-3.23965E-05 3.46755E-06-2.37874E-05 8.21198E-19-7.71520E-18
 -1      2169 3.26834E-05-3.56591E-05 4.89226E-07-3.10603E-05 3.34832E-18-7.89519E-18
 -1      2170 4.86312E-05-3.67246E-05-5.39002E-06-3.94414E-05-2.30393E-19-7.19216E-18
 -1      2171 1.19942E-05-3.47073E-05 8.12699E-06 2.91767E-06-8.96108E-19-8.29245E-18
 -1      2172 1.23946E-05-3.09239E-05 6.85017E-06-8.17132E-06 6.83026E-19-8.19504E-18
 -1      2173 2.55954E-05-3.49844E-05 3.05000E-06 2.44555E-05-2.97901E-18-8.17704E-18
 -1      2174 1.79276E-05-3.48009E-05 5.99776E-06 1.49359E-05-5.93770E-19-7.92103E-18
 -1      2175 5.51689E-05-3.97961E-05-7.18554E-06 3.83441E-05-4.90263E-18-7.83050E-18
 -1      2176 4.00079E-05-4.16665E-05-7.65794E-07 3.03322E-05-3.48681E-18-7.51085E-18
 -1      2177 9.72096E-05-4.50003E-05-2.25053E-05 4.21539E-05-5.80514E-18-7.43504E-18
 -1      2178 7.49736E-05-4.57175E-05-1.37755E-05 3.71094E-05-5.03773E-18-7.57480E-18
 -1      2179 1.38510E-04-4.37023E-05-4.00224E-05 3.43886E-05-7.05028E-18-7.81049E-18
 -1      2180 1.17890E-04-4.61513E-05-3.13179E-05 3.27811E-05-6.74281E-18-7.00623E-18
 -1      2181 1.64969E-04-3.81016E-05-5.37931E-05 1.77149E-05-6.60548E-18-5.07584E-18
 -1      2182 1.48847E-04-3.94282E-05-4.66826E-05 2.49389E-05-7.02211E-18-6.95838E-18
 -1      2183 1.48037E-04-4.92942E-05-4.16513E-05 1.50726E-05-4.56138E-18-3.48639E-18
 -1      2184 1.78708E-04-2.71733E-05-6.38092E-05 4.78131E-06-7.14726E-18-4.14199E-18
 -1      2185 1.67283E-04-2.83993E-05-5.91519E-05 8.31809E-06-6.85419E-18-4.32537E-18
 -1      2186 1.81779E-04-2.43385E-05-6.64764E-05-2.10723E-06-6.76356E-18-2.35549E-18
 -1      2187 1.78853E-04-2.33366E-05-6.59247E-05 3.80051E-06-7.16336E-18-4.00138E-18
 -1      2188 1.72474E-04-2.58701E-05-6.23223E-05-7.08239E-06-6.66742E-18-1.26547E-18
 -1      2189 1.82526E-04-2.64758E-05-6.56412E-05-2.85098E-06-6.69918E-18-2.55592E-18
 -1      2190 1.58527E-04-1.40129E-05-6.08111E-05 2.34763E-06-7.25653E-18-2.21054E-18
 -1      2191 1.58602E-04-3.64791E-05-5.21329E-05-1.73660E-05-4.24829E-18 1.24048E-18
 -1      2192 1.71340E-04-3.43061E-05-5.78949E-05-1.20056E-05-4.90856E-18-1.74065E-19
 -1      2193 1.33447E-04-4.34057E-05-3.89340E-05-2.91688E-05-4.70929E-18 2.26370E-18
 -1      2194 1.51598E-04-4.26064E-05-4.61329E-05-2.65051E-05-3.95554E-18 2.04304E-18
 -1      2195 1.00069E-04-4.49267E-05-2.45626E-05-3.62981E-05-5.17071E-18 2.57667E-18
 -1      2196 1.19775E-04-4.36707E-05-3.23408E-05-3.85806E-05-5.17241E-18 2.08921E-18
 -1      2197 6.70980E-05-4.48529E-05-1.07979E-05-3.63683E-05-4.18942E-18 3.08744E-18
 -1      2198 8.43740E-05-4.32315E-05-1.78236E-05-4.14958E-05-4.39144E-18 2.86551E-18
 -1      2199 3.54675E-05-4.09086E-05 6.96938E-07-2.77017E-05-3.68290E-18 5.00046E-18
 -1      2200 4.79690E-05-3.88644E-05-4.71738E-06-3.53397E-05-4.56043E-18 3.90143E-18
 -1      2201 1.61727E-05-3.75365E-05 7.45788E-06-1.25902E-05-1.97316E-18 6.60728E-18
 -1      2202 2.23793E-05-3.64039E-05 4.70647E-06-2.07936E-05-3.89466E-18 6.15539E-18
 -1      2203 1.58505E-04-3.59279E-05-5.22785E-05 1.69898E-05 3.74706E-18 2.19212E-18
 -1      2204 1.44901E-04-3.77019E-05-4.57425E-05 2.51363E-05 4.30166E-18 3.07219E-18
 -1      2205 1.16617E-04-5.29597E-05-2.70751E-05 3.42031E-05 7.48354E-19 2.33019E-18
 -1      2206 9.84345E-05-2.46823E-05-3.16738E-05-8.67810E-06-2.94622E-18 2.80900E-18
 -1      2207 1.42932E-04-4.65567E-05-4.06531E-05 1.81309E-05 2.54756E-18 9.09290E-19
 -1      2208 1.46802E-04-2.47668E-05-5.29374E-05-6.45391E-06 4.28514E-18-2.79415E-18
 -1      2209 1.56403E-04-3.08918E-05-5.32914E-05 5.68249E-06 4.12897E-18-4.83656E-19
 -1      2210 1.47181E-04-3.54560E-05-4.76663E-05-4.01846E-07 2.82517E-18-1.88084E-18
 -1      2211 9.76010E-05-2.33972E-05-3.18709E-05-8.70644E-06-3.19117E-18 1.02224E-18
 -1      2212 4.21153E-05-3.54114E-05-3.35862E-06 3.61403E-05-1.41433E-18 5.39666E-18
 -1      2213 1.87233E-05-2.50452E-05 2.23427E-06 1.58587E-05-1.21242E-18 7.50090E-18
 -1      2214 9.52395E-05-2.85850E-05-2.85663E-05 2.62189E-08 3.05110E-20-3.50578E-19
 -1      2215 7.88807E-05-4.74457E-05-1.36611E-05 4.31030E-05 1.85924E-19 4.39515E-18
 -1      2216 1.59343E-05-2.63060E-05 3.64546E-06-1.02276E-05-7.17543E-19 8.02945E-18
 -1      2217 3.47550E-05-3.46821E-05-7.59888E-07-3.10213E-05-9.44442E-19 5.31344E-18
 -1      2218 6.93905E-05-4.60246E-05-1.03255E-05-4.11057E-05-1.01940E-18 2.16359E-18
 -1      2219 1.06025E-04-5.43335E-05-2.21966E-05-3.68145E-05-1.63520E-18 3.82647E-19
 -1      2220 1.36150E-04-5.37921E-05-3.48428E-05-2.38852E-05-3.15372E-18 1.68983E-19
 -1      2221 1.60111E-04-2.65355E-05-5.64120E-05 2.80425E-06-5.91758E-18-2.15443E-18
 -1      2222 1.58661E-04-3.27345E-05-5.31598E-05 4.62681E-07-6.06497E-18-1.67289E-18
 -1      2223 1.19226E-04-5.55430E-05-2.71757E-05 3.28129E-05-3.14080E-18-5.08029E-18
 -1      2224 7.77404E-05-4.86285E-05-1.27152E-05 4.16377E-05-1.35229E-18-6.21303E-18
 -1      2225 4.08855E-05-3.49371E-05-2.98911E-06 3.39922E-05-2.70839E-19-7.74612E-18
 -1      2226 2.09009E-05-2.72980E-05 2.38832E-06-1.78512E-05 1.13926E-19-8.36191E-18
 -1      2227 3.05412E-05-2.35387E-05-2.94632E-06-2.66640E-05-1.56616E-18-7.84162E-18
 -1      2228 1.93088E-05-1.91158E-05 1.70875E-07-1.17549E-05-7.82129E-19-8.44746E-18
 -1      2229 1.27511E-04-5.44250E-05-3.12688E-05-2.82697E-05 2.80198E-18-1.85606E-18
 -1      2230 1.55681E-04-1.29409E-05-6.02897E-05 7.37613E-07 7.99133E-18-1.46166E-18
 -1      2231 1.55447E-04-2.54226E-05-5.50380E-05 3.34039E-08 7.25187E-18-6.28287E-19
 -1      2232 8.77271E-05-5.02544E-05-1.59640E-05-4.24273E-05 9.10560E-19-4.53123E-18
 -1      2233 1.81547E-05-2.51209E-05 2.51739E-06 1.23938E-05-2.53475E-19-8.93959E-18
 -1      2234 1.57866E-04-1.60322E-05-5.98061E-05-2.99706E-06-7.11338E-18-1.96903E-18
 -1      2235 1.54248E-04-4.40007E-05-4.65112E-05-6.81691E-06-3.23847E-18-7.87317E-19
 -1      2236 9.69787E-05-2.67224E-05-3.00884E-05 2.43874E-06 2.20656E-18 8.07547E-19
 -1      2237 9.76516E-05-2.61625E-05-3.05644E-05 4.35991E-06 2.55445E-18 1.19161E-18
 -1      2238 8.65005E-05-9.50808E-06-3.30366E-05-2.69551E-06-1.07434E-18-4.16556E-18
 -1      2239 8.69604E-05-9.90558E-06-3.30553E-05-3.59570E-06-1.42009E-18-4.08226E-18
 -1      2240 8.76047E-05-1.05989E-05-3.30505E-05-4.35933E-06-1.65485E-18-3.89484E-18
 -1      2241 8.83208E-05-1.12515E-05-3.30688E-05-5.35318E-06-2.00065E-18-3.65503E-18
 -1      2242 8.84073E-05-1.20863E-05-3.27022E-05-3.44371E-06-1.47011E-18-3.71437E-18
 -1      2243 8.58381E-05-8.86357E-06-3.30193E-05 3.81616E-07 1.16739E-19-4.33979E-18
 -1      2244 8.58145E-05-8.84206E-06-3.30198E-05-4.49417E-07-2.20141E-19-4.32487E-18
 -1      2245 8.62511E-05-9.25071E-06-3.30293E-05 1.94458E-06 7.27800E-19-4.28288E-18
 -1      2246 8.59947E-05-9.03144E-06-3.30195E-05 1.08293E-06 3.89329E-19-4.31939E-18
 -1      2247 8.69349E-05-1.06158E-05-3.27051E-05 6.06302E-07 2.56153E-19-4.10692E-18
 -1      2248 8.71291E-05-1.00971E-05-3.30451E-05 3.59173E-06 1.27485E-18-4.14750E-18
 -1      2249 8.66531E-05-9.68007E-06-3.30291E-05 2.67726E-06 9.52862E-19-4.26390E-18
 -1      2250 8.75202E-05-1.12078E-05-3.27019E-05 1.97365E-06 8.21143E-19-4.02580E-18
 -1      2251 8.85118E-05-1.14852E-05-3.30507E-05 5.42034E-06 1.99487E-18-3.51714E-18
 -1      2252 8.77889E-05-1.08173E-05-3.30360E-05 4.39776E-06 1.52689E-18-3.84609E-18
 -1      2253 8.86165E-05-1.23387E-05-3.26859E-05 3.43731E-06 1.32978E-18-3.70658E-18
 -1      2254 9.04470E-05-1.35483E-05-3.30144E-05 7.37418E-06 2.64726E-18-2.79089E-18
 -1      2255 8.94441E-05-1.25412E-05-3.30159E-05 6.26881E-06 2.22399E-18-3.17140E-18
 -1      2256 9.02389E-05-1.40809E-05-3.26303E-05 4.99613E-06 2.01614E-18-3.05695E-18
 -1      2257 9.30635E-05-1.65591E-05-3.28820E-05 9.24273E-06 3.24343E-18-1.80366E-18
 -1      2258 9.16979E-05-1.50341E-05-3.29206E-05 8.15967E-06 2.86331E-18-2.33616E-18
 -1      2259 9.23899E-05-1.65473E-05-3.24830E-05 6.49750E-06 2.62876E-18-2.26598E-18
 -1      2260 9.65854E-05-2.75560E-05-2.95581E-05-3.31259E-07 1.71159E-18 3.10021E-19
 -1      2261 9.68125E-05-2.72558E-05-2.97380E-05 8.06739E-07 1.95114E-18 6.36797E-19
 -1      2262 9.69057E-05-2.60248E-05-3.03912E-05 2.18931E-06 2.33585E-18-2.10994E-19
 -1      2263 9.72882E-05-2.51779E-05-3.08547E-05-4.07401E-06-2.64952E-18 1.88802E-19
 -1      2264 9.69078E-05-2.59379E-05-3.04194E-05-1.96351E-06-2.34097E-18-6.63812E-21
 -1      2265 1.43622E-04-4.71280E-05-4.17766E-05 7.82787E-06 1.93192E-18-9.16913E-19
 -1      2266 1.36721E-04-5.26470E-05-3.61435E-05 1.59478E-05 1.39416E-18-2.70839E-19
 -1      2267 9.69402E-05-2.65768E-05-3.01000E-05-3.30670E-07-2.05439E-18 3.80644E-20
 -1      2268 9.68363E-05-2.69742E-05-2.99264E-05 1.02491E-06-1.80660E-18-1.35929E-19
 -1      2269 9.66183E-05-2.51269E-05-3.06480E-05-1.53285E-06-2.36289E-18-7.59107E-19
 -1      2270 9.68417E-05-2.72781E-05-2.97761E-05 2.25302E-06-1.48420E-18-4.10923E-20
 -1      2271 9.70441E-05-2.75512E-05-2.97641E-05 3.23214E-06-1.24633E-18-1.92412E-19
 -1      2272 9.66646E-05-2.63527E-05-3.01507E-05 1.54715E-06-1.62205E-18-7.09556E-19
 -1      2273 9.71527E-05-2.77299E-05-2.97313E-05 4.20491E-06-1.08296E-18-1.94115E-19
 -1      2274 9.76263E-05-2.79796E-05-2.98286E-05 4.98694E-06-9.16202E-19-2.69281E-19
 -1      2275 9.68131E-05-2.70055E-05-2.99344E-05 3.91145E-06-1.20623E-18-5.34895E-19
 -1      2276 9.78669E-05-2.81271E-05-2.98766E-05 5.81109E-06-9.25662E-19-3.22155E-19
 -1      2277 9.85749E-05-2.84100E-05-3.00508E-05 6.48010E-06-8.24217E-19-5.01944E-19
 -1      2278 9.71904E-05-2.74324E-05-2.99110E-05 5.83565E-06-1.15272E-18-5.45926E-19
 -1      2279 9.89608E-05-2.85913E-05-3.01512E-05 7.20857E-06-7.91499E-19-4.33569E-19
 -1      2280 9.98809E-05-2.89597E-05-3.03773E-05 7.78182E-06-4.91673E-19-5.30476E-19
 -1      2281 9.78367E-05-2.78317E-05-3.00152E-05 7.49154E-06-8.62320E-19-5.75418E-19
 -1      2282 1.00442E-04-2.92470E-05-3.05058E-05 8.41302E-06-2.81353E-19-6.42875E-19
 -1      2283 1.01567E-04-2.97673E-05-3.07601E-05 8.84378E-06-1.77927E-19-7.29939E-19
 -1      2284 9.87967E-05-2.83772E-05-3.01933E-05 8.93998E-06-5.04235E-19-7.74500E-19
 -1      2285 1.02372E-04-3.02600E-05-3.08947E-05 9.31248E-06-2.96341E-19-7.13658E-19
 -1      2286 1.03705E-04-3.10193E-05-3.11519E-05 9.48053E-06-4.47455E-19-6.69234E-19
 -1      2287 1.00168E-04-2.92812E-05-3.03981E-05 1.01249E-05-3.28598E-19-1.21376E-18
 -1      2288 1.04874E-04-3.18492E-05-3.12764E-05 9.63886E-06-1.50171E-19-4.17981E-19
 -1      2289 1.06417E-04-3.29395E-05-3.15113E-05 9.34106E-06 5.76049E-21-3.71609E-19
 -1      2290 1.02140E-04-3.08242E-05-3.05922E-05 1.08489E-05-2.26987E-19-9.32464E-19
 -1      2291 1.08119E-04-3.42399E-05-3.16264E-05 8.93674E-06 8.32260E-20-8.38248E-20
 -1      2292 1.09833E-04-3.56927E-05-3.18245E-05 7.90291E-06 3.35723E-19-6.78172E-20
 -1      2293 1.05002E-04-3.33257E-05-3.07641E-05 1.07327E-05 2.12420E-20-4.67119E-19
 -1      2294 1.12212E-04-3.74921E-05-3.19704E-05 6.57298E-06 4.91294E-19 1.29513E-19
 -1      2295 1.13930E-04-3.91154E-05-3.21477E-05 4.54848E-06 6.12504E-19 3.19206E-19
 -1      2296 1.09081E-04-3.69876E-05-3.09650E-05 9.18593E-06 5.20623E-19 1.68154E-19
 -1      2297 1.16893E-04-4.10923E-05-3.24313E-05 1.91412E-06 5.18962E-19 4.55006E-19
 -1      2298 1.18176E-04-4.22310E-05-3.26566E-05-1.10588E-06 3.58500E-19 5.91691E-19
 -1      2299 1.14481E-04-4.14848E-05-3.13684E-05 5.42371E-06 6.68948E-19 2.64169E-19
 -1      2300 1.21027E-04-4.33929E-05-3.32690E-05-5.08375E-06 2.43985E-19 1.17558E-18
 -1      2301 1.21190E-04-4.27970E-05-3.36624E-05-8.45750E-06-1.28316E-19 1.50371E-18
 -1      2302 1.20475E-04-4.52188E-05-3.23198E-05-1.09164E-06 6.30121E-19 8.50904E-19
 -1      2303 1.22298E-04-4.14889E-05-3.47745E-05-1.23609E-05-3.46039E-19 2.12252E-18
 -1      2304 1.20903E-04-3.83038E-05-3.54028E-05-1.42361E-05-4.76072E-19 2.28311E-18
 -1      2305 1.24555E-04-4.46294E-05-3.42860E-05-9.65345E-06 2.77297E-19 2.57032E-18
 -1      2306 1.19512E-04-3.40235E-05-3.69159E-05-1.57631E-05-1.22946E-18 2.01049E-18
 -1      2307 1.16820E-04-2.89436E-05-3.76516E-05-1.41489E-05-1.83176E-18 1.57674E-18
 -1      2308 1.24903E-04-3.85744E-05-3.70768E-05-1.57135E-05-9.97739E-19 3.19472E-18
 -1      2309 1.14327E-04-2.44768E-05-3.88753E-05-9.58989E-06-2.18392E-18 3.73462E-19
 -1      2310 1.12798E-04-2.16653E-05-3.92583E-05-4.62447E-06-2.75212E-18-1.39287E-19
 -1      2311 1.19915E-04-2.50474E-05-4.08388E-05-1.37217E-05-2.84264E-18 1.90683E-18
 -1      2312 1.12763E-04-2.12281E-05-3.93636E-05 3.20470E-06-3.05085E-18-1.28818E-18
 -1      2313 1.13836E-04-2.34408E-05-3.90871E-05 8.58292E-06-2.84735E-18-1.79703E-18
 -1      2314 1.17170E-04-1.86187E-05-4.22888E-05-3.42629E-07-3.69661E-18-6.57278E-19
 -1      2315 1.16325E-04-2.76689E-05-3.79890E-05 1.37303E-05-2.34914E-18-2.47468E-18
 -1      2316 1.18932E-04-3.26737E-05-3.72881E-05 1.58517E-05-1.55260E-18-2.78989E-18
 -1      2317 1.19536E-04-2.38324E-05-4.10770E-05 1.31546E-05-3.09172E-18-2.35745E-18
 -1      2318 1.20707E-04-3.71545E-05-3.57938E-05 1.52867E-05-3.65415E-19-3.44285E-18
 -1      2319 1.22519E-04-4.08102E-05-3.51584E-05 1.38522E-05 6.82464E-19-3.87876E-18
 -1      2320 1.24230E-04-3.58559E-05-3.79625E-05 1.71989E-05-1.25946E-18-3.62914E-18
 -1      2321 1.21669E-04-4.25726E-05-3.39839E-05 9.94579E-06 1.58025E-18-3.62185E-18
 -1      2322 1.21817E-04-4.34744E-05-3.35847E-05 6.73131E-06 1.97123E-18-3.20280E-18
 -1      2323 1.25250E-04-4.43257E-05-3.47763E-05 1.14938E-05 1.25196E-18-3.94402E-18
 -1      2324 1.19146E-04-4.25726E-05-3.29259E-05 2.68257E-06 1.62326E-18-3.11658E-18
 -1      2325 1.18051E-04-4.16039E-05-3.27088E-05-3.91029E-07 1.08582E-18-2.82164E-18
 -1      2326 1.21495E-04-4.54467E-05-3.26589E-05 2.91071E-06 1.98671E-18-3.14803E-18
 -1      2327 1.15102E-04-3.96853E-05-3.24091E-05-3.17927E-06 8.40111E-19-2.28472E-18
 -1      2328 1.13507E-04-3.81001E-05-3.22590E-05-5.30835E-06 1.11300E-18-2.14274E-18
 -1      2329 1.15682E-04-4.20696E-05-3.16190E-05-3.91562E-06 1.37882E-18-3.38003E-18
 -1      2330 1.11067E-04-3.62458E-05-3.21222E-05-6.75294E-06 5.61153E-19-2.61020E-18
 -1      2331 1.09437E-04-3.47746E-05-3.19586E-05-7.85966E-06 1.17468E-20-2.55500E-18
 -1      2332 1.10231E-04-3.75996E-05-3.11982E-05-7.94820E-06 5.08546E-19-2.33309E-18
 -1      2333 1.07689E-04-3.34126E-05-3.18586E-05-8.31394E-06-3.36082E-19-2.56330E-18
 -1      2334 1.06225E-04-3.23074E-05-3.16564E-05-8.64713E-06-2.82867E-19-1.94589E-18
 -1      2335 1.06039E-04-3.37873E-05-3.10136E-05-9.64712E-06-2.19553E-19-2.11361E-18
 -1      2336 1.05032E-04-3.14404E-05-3.15437E-05-8.50687E-06-1.57995E-19-2.09191E-18
 -1      2337 1.03778E-04-3.06885E-05-3.13129E-05-8.35459E-06-2.25996E-20-2.03056E-18
 -1      2338 1.03112E-04-3.11699E-05-3.08613E-05-9.82496E-06-2.17886E-19-2.06935E-18
 -1      2339 1.02960E-04-3.01887E-05-3.11791E-05-7.90386E-06-5.07436E-19-2.54924E-18
 -1      2340 1.01904E-04-2.97023E-05-3.09392E-05-7.49652E-06-1.75151E-19-2.93473E-18
 -1      2341 1.01112E-04-2.95818E-05-3.06719E-05-9.14084E-06-6.46395E-19-1.81066E-18
 -1      2342 1.01322E-04-2.94377E-05-3.07923E-05-6.91836E-06 5.34129E-19-3.03448E-18
 -1      2343 1.00442E-04-2.91296E-05-3.05613E-05-6.41117E-06 2.29272E-19-2.65542E-18
 -1      2344 9.97181E-05-2.87130E-05-3.04398E-05-8.04161E-06-2.11307E-19-2.12453E-18
 -1      2345 1.00007E-04-2.90022E-05-3.04129E-05-5.81363E-06 1.60989E-19-2.68178E-18
 -1      2346 9.92812E-05-2.88079E-05-3.02031E-05-5.29900E-06 3.31218E-19-1.73129E-18
 -1      2347 9.87042E-05-2.82895E-05-3.01836E-05-6.80636E-06 1.40269E-19-2.00418E-18
 -1      2348 9.89422E-05-2.87552E-05-3.00627E-05-4.74025E-06-1.22680E-19-2.20082E-18
 -1      2349 9.83511E-05-2.86321E-05-2.98801E-05-4.26673E-06 3.01864E-19-1.29432E-18
 -1      2350 9.79331E-05-2.81191E-05-2.99248E-05-5.59629E-06 3.34363E-19-1.19886E-18
 -1      2351 9.80804E-05-2.86176E-05-2.97538E-05-3.77384E-06 1.91764E-19-1.99170E-18
 -1      2352 9.76054E-05-2.85393E-05-2.96002E-05-3.36241E-06-4.77834E-19-1.78171E-18
 -1      2353 9.73272E-05-2.80821E-05-2.96805E-05-4.49542E-06-1.58510E-19-1.61446E-18
 -1      2354 9.73872E-05-2.85430E-05-2.94908E-05-2.94408E-06-6.11456E-19-1.78412E-18
 -1      2355 9.70112E-05-2.84933E-05-2.93651E-05-2.59988E-06-3.47061E-19-2.48166E-18
 -1      2356 9.68430E-05-2.81095E-05-2.94610E-05-3.53972E-06-5.29038E-19-2.46043E-18
 -1      2357 9.68359E-05-2.85046E-05-2.92731E-05-2.25465E-06 2.48246E-19-2.17564E-18
 -1      2358 9.65428E-05-2.84737E-05-2.91725E-05-1.97445E-06 2.83725E-19-1.70368E-18
 -1      2359 9.64547E-05-2.81637E-05-2.92711E-05-2.73692E-06-3.21303E-19-1.47504E-18
 -1      2360 9.64033E-05-2.84875E-05-2.90972E-05-1.69575E-06-1.23175E-20-2.16538E-18
 -1      2361 9.61786E-05-2.84690E-05-2.90183E-05-1.47248E-06-1.42776E-19-2.14833E-18
 -1      2362 9.61452E-05-2.82253E-05-2.91117E-05-2.07921E-06-3.52402E-20-1.00883E-18
 -1      2363 9.60692E-05-2.84829E-05-2.89579E-05-1.25162E-06 9.22472E-21-1.35963E-18
 -1      2364 9.58999E-05-2.84727E-05-2.88972E-05-1.07688E-06 1.88937E-19-9.66473E-19
 -1      2365 9.59014E-05-2.82852E-05-2.89812E-05-1.55125E-06 6.31606E-19-8.89215E-19
 -1      2366 9.58156E-05-2.84856E-05-2.88497E-05-9.04731E-07-7.60799E-21-4.43378E-19
 -1      2367 9.56905E-05-2.84810E-05-2.88038E-05-7.70197E-07 1.13393E-18-6.79461E-19
 -1      2368 9.57122E-05-2.83391E-05-2.88767E-05-1.13486E-06 1.01069E-18-1.99327E-19
 -1      2369 9.56266E-05-2.84924E-05-2.87672E-05-6.38106E-07 1.36442E-18-8.77335E-19
 -1      2370 9.55362E-05-2.84915E-05-2.87332E-05-5.36136E-07 1.18455E-18-8.44343E-19
 -1      2371 9.55681E-05-2.83858E-05-2.87945E-05-8.11739E-07 1.09973E-18-6.48723E-19
 -1      2372 9.54889E-05-2.85013E-05-2.87055E-05-4.36349E-07 2.02559E-18-9.70136E-19
 -1      2373 9.54252E-05-2.85027E-05-2.86808E-05-3.60280E-07 1.17584E-18-4.12840E-19
 -1      2374 9.54605E-05-2.84253E-05-2.87311E-05-5.64894E-07 1.28587E-18-8.69130E-19
 -1      2375 9.53911E-05-2.85111E-05-2.86602E-05-2.86111E-07 2.53382E-20-2.38688E-19
 -1      2376 9.53477E-05-2.85139E-05-2.86428E-05-2.30322E-07-3.24242E-19 8.50362E-19
 -1      2377 9.53820E-05-2.84580E-05-2.86831E-05-3.79278E-07 9.32858E-19-6.82459E-19
 -1      2378 9.53237E-05-2.85210E-05-2.86278E-05-1.76165E-07-1.07954E-19 1.96441E-18
 -1      2379 9.52955E-05-2.85246E-05-2.86159E-05-1.36037E-07 7.87907E-19 2.29379E-18
 -1      2380 9.53262E-05-2.84847E-05-2.86474E-05-2.42024E-07 8.71779E-19 6.30024E-19
 -1      2381 9.52793E-05-2.85305E-05-2.86053E-05-9.73157E-08 3.95791E-19 2.47428E-18
 -1      2382 9.52622E-05-2.85345E-05-2.85974E-05-6.91470E-08 7.06377E-19 1.53369E-18
 -1      2383 9.52880E-05-2.85064E-05-2.86215E-05-1.42440E-07 3.65235E-19 2.32450E-18
 -1      2384 9.52518E-05-2.85394E-05-2.85901E-05-4.22192E-08 1.08923E-18 9.68523E-19
 -1      2385 9.52426E-05-2.85436E-05-2.85852E-05-2.31327E-08 1.15707E-18 1.06719E-18
 -1      2386 9.52629E-05-2.85240E-05-2.86030E-05-7.18632E-08 3.65308E-19 1.79591E-18
 -1      2387 9.52365E-05-2.85478E-05-2.85802E-05-5.18626E-09 1.04198E-18 9.19301E-19
 -1      2388 9.52327E-05-2.85520E-05-2.85774E-05 6.96852E-09 1.06743E-18 1.44319E-18
 -1      2389 9.52476E-05-2.85384E-05-2.85901E-05-2.34724E-08 7.88126E-19 7.83980E-19
 -1      2390 9.52297E-05-2.85558E-05-2.85741E-05 1.79999E-08 1.75905E-20 2.39101E-18
 -1      2391 9.52295E-05-2.85601E-05-2.85726E-05 2.47043E-08-1.52763E-18 1.82850E-18
 -1      2392 9.52393E-05-2.85505E-05-2.85813E-05 7.92401E-09 2.52603E-19 2.46369E-18
 -1      2393 9.52286E-05-2.85639E-05-2.85704E-05 3.02982E-08-2.49638E-18 1.98140E-18
 -1      2394 9.52306E-05-2.85682E-05-2.85696E-05 3.23968E-08-2.24484E-18 1.39141E-18
 -1      2395 9.52360E-05-2.85612E-05-2.85752E-05 2.60610E-08-2.15796E-18 3.21054E-18
 -1      2396 9.73076E-05-2.85485E-05-2.94526E-05-3.40342E-06 8.82494E-19-5.69867E-19
 -1      2397 9.68463E-05-2.82802E-05-2.93587E-05-2.90260E-06 1.06609E-18-1.91638E-19
 -1      2398 9.83100E-05-2.90751E-05-2.96618E-05-4.26030E-06 6.89003E-19-7.73133E-19
 -1      2399 9.76380E-05-2.87619E-05-2.95021E-05-3.92655E-06 8.09965E-19-6.52883E-19
 -1      2400 9.74474E-05-2.83855E-05-2.96152E-05-4.12823E-06 1.04189E-18-9.55512E-19
 -1      2401 9.96239E-05-2.97111E-05-2.99593E-05-4.76949E-06 9.00418E-19-6.26468E-19
 -1      2402 9.88077E-05-2.93378E-05-2.97625E-05-4.59612E-06 7.19652E-19-7.62709E-19
 -1      2403 9.83064E-05-2.89754E-05-2.97281E-05-5.08616E-06 8.05532E-19-1.02093E-18
 -1      2404 1.01167E-04-3.04937E-05-3.02947E-05-4.88196E-06 7.26210E-19-4.08784E-19
 -1      2405 1.00271E-04-3.00517E-05-3.00869E-05-4.90514E-06 8.11948E-19-2.50378E-19
 -1      2406 9.94809E-05-2.97012E-05-2.99185E-05-5.63115E-06 7.53507E-19-8.08601E-19
 -1      2407 1.02845E-04-3.14400E-05-3.06212E-05-4.47418E-06 3.01139E-19-8.67812E-20
 -1      2408 1.01948E-04-3.09342E-05-3.04289E-05-4.76121E-06 6.30214E-19-1.41915E-19
 -1      2409 1.00945E-04-3.06372E-05-3.01436E-05-5.69378E-06 5.31186E-19-1.56651E-19
 -1      2410 1.04533E-04-3.25216E-05-3.08955E-05-3.37962E-06 2.50528E-19 3.32763E-19
 -1      2411 1.03736E-04-3.19858E-05-3.07458E-05-4.00929E-06 1.77321E-19 1.29864E-19
 -1      2412 1.02666E-04-3.18253E-05-3.03704E-05-5.12502E-06 1.88000E-19 4.11518E-20
 -1      2413 1.06039E-04-3.36158E-05-3.10849E-05-1.45370E-06 7.33875E-20 2.15490E-19
 -1      2414 1.05479E-04-3.31373E-05-3.10011E-05-2.47718E-06 2.89632E-19 4.24004E-19
 -1      2415 1.04567E-04-3.32316E-05-3.05796E-05-3.73356E-06 2.19848E-19 6.85104E-20
 -1      2416 1.07078E-04-3.44455E-05-3.11791E-05 1.30291E-06 3.40951E-19 2.58505E-19
 -1      2417 1.06920E-04-3.41882E-05-3.11734E-05-7.01469E-08 1.52903E-19 2.23415E-19
 -1      2418 1.06473E-04-3.46684E-05-3.07732E-05-1.36496E-06 8.08867E-20 2.70580E-19
 -1      2419 1.07276E-04-3.45641E-05-3.12011E-05 4.55926E-06 2.99042E-20 4.38024E-19
 -1      2420 1.07680E-04-3.47546E-05-3.12666E-05 3.06192E-06 9.32960E-20 3.91521E-19
 -1      2421 1.08034E-04-3.57100E-05-3.09819E-05 1.94204E-06 1.28934E-19 8.33896E-19
 -1      2422 1.06296E-04-3.34964E-05-3.12048E-05 7.48573E-06 3.73427E-19 3.36120E-19
 -1      2423 1.07318E-04-3.43200E-05-3.13134E-05 6.31836E-06 4.49765E-19 6.68453E-19
 -1      2424 1.08719E-04-3.57026E-05-3.12601E-05 5.71986E-06 2.66478E-19 4.53630E-19
 -1      2425 1.04114E-04-3.11044E-05-3.12498E-05 8.81406E-06 1.69828E-19 3.76053E-19
 -1      2426 1.05582E-04-3.25096E-05-3.13591E-05 8.56763E-06-5.77008E-20 1.52542E-19
 -1      2427 1.08001E-04-3.40404E-05-3.16542E-05 8.87698E-06 3.31681E-19 1.04789E-18
 -1      2428 1.01368E-04-2.80462E-05-3.13575E-05 7.36084E-06 4.44729E-19 4.06966E-19
 -1      2429 1.02808E-04-2.95638E-05-3.14328E-05 8.45195E-06 4.13508E-19 2.91773E-19
 -1      2430 1.05812E-04-3.07343E-05-3.21508E-05 9.83368E-06 2.15587E-19 6.34978E-19
 -1      2431 9.93725E-05-2.57983E-05-3.14791E-05 3.01281E-06 9.57121E-19 3.56970E-19
 -1      2432 1.00162E-04-2.66752E-05-3.15069E-05 5.26317E-06 8.52115E-19 7.58386E-19
 -1      2433 1.03070E-04-2.69859E-05-3.26334E-05 7.32014E-06 6.41085E-19 7.39880E-19
 -1      2434 9.93200E-05-2.56879E-05-3.15469E-05-2.72517E-06 6.66966E-19-1.64430E-19
 -1      2435 9.90493E-05-2.54157E-05-3.15259E-05-1.52762E-07 1.10989E-18 1.63142E-19
 -1      2436 1.01374E-04-2.46917E-05-3.29093E-05 1.67297E-06 1.06779E-18 5.32366E-19
 -1      2437 1.01378E-04-2.78668E-05-3.15347E-05-7.39566E-06 3.25433E-19-1.06411E-18
 -1      2438 1.00174E-04-2.66002E-05-3.14651E-05-5.58453E-06 3.08532E-19-7.30356E-19
 -1      2439 1.01944E-04-2.54201E-05-3.28508E-05-4.85082E-06 8.44240E-19 1.03262E-19
 -1      2440 1.04388E-04-3.09871E-05-3.14957E-05-9.27378E-06 7.14915E-19-2.06423E-18
 -1      2441 1.02789E-04-2.94309E-05-3.13784E-05-8.76767E-06 8.71913E-19-1.64391E-18
 -1      2442 1.04397E-04-2.85775E-05-3.24900E-05-9.32837E-06 9.09210E-19-1.11294E-18
 -1      2443 1.06938E-04-3.35448E-05-3.14841E-05-8.27062E-06 1.30735E-18-2.66628E-18
 -1      2444 1.05537E-04-3.23560E-05-3.13424E-05-8.94352E-06 7.27069E-19-2.77010E-18
 -1      2445 1.07168E-04-3.23611E-05-3.20192E-05-1.02822E-05 1.35886E-18-2.87117E-18
 -1      2446 1.08219E-04-3.47617E-05-3.14960E-05-5.50062E-06 6.77180E-19-1.97450E-18
 -1      2447 1.07360E-04-3.42129E-05-3.13715E-05-6.81000E-06 1.41643E-18-1.91833E-18
 -1      2448 1.08858E-04-3.50234E-05-3.16031E-05-8.23328E-06 9.92787E-19-2.56636E-18
 -1      2449 1.08210E-04-3.47343E-05-3.14914E-05-2.29315E-06-3.90677E-19-2.61716E-18
 -1      2450 1.07948E-04-3.47394E-05-3.14217E-05-3.69500E-06 1.99926E-19-2.37483E-18
 -1      2451 1.09024E-04-3.59221E-05-3.13077E-05-4.72850E-06 6.43184E-19-1.35281E-18
 -1      2452 1.07293E-04-3.39539E-05-3.14266E-05 4.55093E-07-6.11296E-19-3.10696E-18
 -1      2453 1.07514E-04-3.42903E-05-3.14308E-05-6.99753E-07-6.94024E-19-2.90100E-18
 -1      2454 1.08010E-04-3.54034E-05-3.11120E-05-1.18180E-06-1.58650E-19-2.15348E-18
 -1      2455 1.05894E-04-3.28928E-05-3.12802E-05 2.37429E-06-9.05515E-19-2.74398E-18
 -1      2456 1.06430E-04-3.33591E-05-3.13564E-05 1.59297E-06-5.57331E-19-2.67972E-18
 -1      2457 1.06384E-04-3.41579E-05-3.09592E-05 1.61845E-06-7.56831E-19-2.07122E-18
 -1      2458 1.04330E-04-3.18524E-05-3.10562E-05 3.45891E-06-3.24890E-19-2.30991E-18
 -1      2459 1.05032E-04-3.23214E-05-3.11883E-05 3.03622E-06-8.06455E-19-2.88197E-18
 -1      2460 1.04598E-04-3.27495E-05-3.08009E-05 3.43767E-06-7.31484E-19-1.86900E-18
 -1      2461 1.02790E-04-3.09689E-05-3.07762E-05 3.87585E-06-9.19079E-19-7.25983E-19
 -1      2462 1.03547E-04-3.13805E-05-3.09424E-05 3.73316E-06-7.04525E-19-1.83631E-18
 -1      2463 1.02906E-04-3.14965E-05-3.06131E-05 4.36782E-06-1.14645E-18-2.13700E-18
 -1      2464 1.01375E-04-3.02746E-05-3.04681E-05 3.83234E-06-8.90693E-19 8.63411E-21
 -1      2465 1.02113E-04-3.06106E-05-3.06478E-05 3.87867E-06-4.20664E-19 3.49859E-19
 -1      2466 1.01414E-04-3.05124E-05-3.03944E-05 4.62612E-06-1.16286E-18-9.70035E-19
 -1      2467 1.00128E-04-2.97533E-05-3.01576E-05 3.51203E-06 6.04909E-20 3.19367E-19
 -1      2468 1.00803E-04-3.00162E-05-3.03345E-05 3.66876E-06-5.62925E-19-2.28887E-19
 -1      2469 1.00145E-04-2.97968E-05-3.01561E-05 4.43974E-06-4.76114E-19-6.42175E-19
 -1      2470 9.90623E-05-2.93729E-05-2.98641E-05 3.05386E-06 7.65749E-19-1.65379E-20
 -1      2471 9.96525E-05-2.95729E-05-3.00274E-05 3.26260E-06 6.96585E-19 4.98215E-19
 -1      2472 9.90877E-05-2.93032E-05-2.99136E-05 3.99747E-06 2.91541E-19-9.21504E-19
 -1      2473 9.81729E-05-2.91006E-05-2.95999E-05 2.55233E-06 4.81503E-19-6.39675E-19
 -1      2474 9.86714E-05-2.92497E-05-2.97436E-05 2.77411E-06 9.02717E-19 2.40136E-19
 -1      2475 9.82187E-05-2.89763E-05-2.96806E-05 3.43760E-06 6.54458E-19-5.72403E-19
 -1      2476 9.74468E-05-2.89087E-05-2.93713E-05 2.06573E-06-1.26050E-18-3.08952E-19
 -1      2477 9.78559E-05-2.90179E-05-2.94930E-05 2.27708E-06-1.54163E-19-3.61861E-20
 -1      2478 9.75131E-05-2.87674E-05-2.94672E-05 2.85223E-06-8.33930E-20-1.10359E-19
 -1      2479 9.68659E-05-2.87756E-05-2.91796E-05 1.62603E-06-3.55478E-19-1.07417E-18
 -1      2480 9.71930E-05-2.88541E-05-2.92796E-05 1.81457E-06-1.02808E-18-8.51045E-19
 -1      2481 9.69472E-05-2.86390E-05-2.92791E-05 2.29712E-06-4.71777E-19 8.50957E-19
 -1      2482 9.64102E-05-2.86849E-05-2.90234E-05 1.24747E-06 2.87444E-19-4.48426E-19
 -1      2483 9.66657E-05-2.87402E-05-2.91033E-05 1.40813E-06 4.16456E-20-1.01777E-18
 -1      2484 9.64993E-05-2.85640E-05-2.91188E-05 1.80195E-06-5.15831E-19-3.03277E-19
 -1      2485 9.60596E-05-2.86247E-05-2.88992E-05 9.33112E-07-9.24985E-19-4.86021E-19
 -1      2486 9.62546E-05-2.86626E-05-2.89615E-05 1.06535E-06-2.56220E-19-3.94166E-19
 -1      2487 9.61499E-05-2.85235E-05-2.89859E-05 1.37893E-06 1.01768E-20-6.02567E-19
 -1      2488 9.57954E-05-2.85861E-05-2.88027E-05 6.79559E-07-6.42952E-19 1.67230E-19
 -1      2489 9.59408E-05-2.86113E-05-2.88502E-05 7.85372E-07-7.18592E-19-3.04958E-19
 -1      2490 9.58817E-05-2.85049E-05-2.88785E-05 1.02938E-06-8.28263E-19-2.04239E-18
 -1      2491 9.56008E-05-2.85627E-05-2.87296E-05 4.80097E-07 2.27975E-20 1.24645E-19
 -1      2492 9.57065E-05-2.85786E-05-2.87648E-05 5.62712E-07-4.21738E-19 4.14914E-19
 -1      2493 9.56794E-05-2.84996E-05-2.87936E-05 7.48351E-07-2.42689E-19-1.10215E-18
 -1      2494 9.54611E-05-2.85497E-05-2.86755E-05 3.26707E-07-6.92514E-19 7.22946E-19
 -1      2495 9.55356E-05-2.85590E-05-2.87009E-05 3.89773E-07 2.32717E-19 5.99447E-19
 -1      2496 9.55300E-05-2.85021E-05-2.87281E-05 5.27744E-07-1.94991E-19-2.11397E-20
 -1      2497 9.53640E-05-2.85439E-05-2.86365E-05 2.11289E-07-1.47999E-19-3.43090E-19
 -1      2498 9.54146E-05-2.85486E-05-2.86543E-05 2.58388E-07-1.16471E-18-2.49621E-19
 -1      2499 9.54221E-05-2.85087E-05-2.86786E-05 3.58345E-07-3.86624E-19-2.09447E-20
 -1      2500 9.52991E-05-2.85427E-05-2.86093E-05 1.26358E-07-2.54631E-19 5.20961E-19
 -1      2501 9.53317E-05-2.85443E-05-2.86213E-05 1.60739E-07 4.18705E-19 2.64745E-19
 -1      2502 9.53464E-05-2.85173E-05-2.86422E-05 2.31029E-07-2.81808E-19-1.51183E-18
 -1      2503 9.52583E-05-2.85446E-05-2.85912E-05 6.53961E-08 1.41830E-20 1.06385E-18
 -1      2504 9.52777E-05-2.85441E-05-2.85988E-05 8.98435E-08-3.10470E-19 6.43024E-19
 -1      2505 9.52953E-05-2.85265E-05-2.86161E-05 1.37457E-07-4.34711E-19-9.32139E-19
 -1      2506 9.52350E-05-2.85484E-05-2.85796E-05 2.29952E-08-9.22201E-19 1.14282E-18
 -1      2507 9.52450E-05-2.85466E-05-2.85841E-05 3.97851E-08 2.19774E-19 1.71145E-18
 -1      2508 9.52625E-05-2.85356E-05-2.85979E-05 7.04216E-08-5.02719E-19-3.75787E-19
 -1      2509 9.52240E-05-2.85534E-05-2.85729E-05-5.09742E-09 1.15848E-18 9.37136E-21
 -1      2510 9.52274E-05-2.85507E-05-2.85751E-05 5.78797E-09-4.32476E-19 5.46995E-19
 -1      2511 9.52431E-05-2.85442E-05-2.85857E-05 2.39855E-08 2.24932E-19 2.55646E-19
 -1      2512 9.52213E-05-2.85592E-05-2.85694E-05-2.21116E-08 1.01972E-18-2.70625E-20
 -1      2513 9.52204E-05-2.85558E-05-2.85701E-05-1.59025E-08 1.22745E-18 7.25684E-19
 -1      2514 9.52331E-05-2.85523E-05-2.85778E-05-6.46912E-09 1.08085E-18-2.18015E-19
 -1      2515 9.52238E-05-2.85656E-05-2.85678E-05-3.00176E-08 2.54028E-19 3.01641E-19
 -1      2516 9.52205E-05-2.85619E-05-2.85677E-05-2.77188E-08 4.52658E-19-1.17495E-19
 -1      2517 9.52298E-05-2.85607E-05-2.85728E-05-2.47220E-08 7.22914E-19 1.33250E-19
 -1      2518 9.52291E-05-2.85726E-05-2.85672E-05-3.01119E-08-7.81572E-19-2.21602E-19
 -1      2519 9.52248E-05-2.85685E-05-2.85668E-05-3.11626E-08 7.43342E-20 3.46492E-19
 -1      2520 9.52311E-05-2.85693E-05-2.85696E-05-3.27983E-08 1.95317E-19 5.02196E-19
 -1      2521 9.52315E-05-2.85763E-05-2.85665E-05-2.72700E-08-7.15079E-19-4.92628E-19
 -1      2522 9.52482E-05-2.85854E-05-2.85698E-05-1.64732E-08 1.73461E-20-4.36061E-19
 -1      2523 9.52478E-05-2.85843E-05-2.85700E-05-1.97069E-08 3.95105E-20-5.80660E-19
 -1      2524 9.52475E-05-2.85843E-05-2.85699E-05-1.00691E-08 1.01351E-18 9.88241E-19
 -1      2525 9.52475E-05-2.85838E-05-2.85701E-05-1.31468E-08 3.73993E-19 2.79795E-19
 -1      2526 9.52457E-05-2.85705E-05-2.85750E-05-1.43911E-08 8.25538E-19 6.31773E-19
 -1      2527 9.52453E-05-2.85844E-05-2.85689E-05-2.90356E-08 1.51429E-19-2.22601E-18
 -1      2528 9.52424E-05-2.85814E-05-2.85690E-05-3.05102E-08-2.42198E-19-2.69061E-18
 -1      2529 9.52479E-05-2.85857E-05-2.85695E-05-2.31719E-08 2.32283E-19-1.79248E-19
 -1      2530 9.52465E-05-2.85838E-05-2.85697E-05-2.60406E-08 2.16137E-19-1.54990E-18
 -1      2531 9.52450E-05-2.85758E-05-2.85726E-05-2.81537E-08 1.25152E-18-3.01268E-18
 -1      2532 9.52464E-05-2.85736E-05-2.85740E-05-2.13374E-08 6.38814E-19-6.60724E-19
 -1      2533 9.52467E-05-2.85834E-05-2.85700E-05-4.38335E-09-3.99996E-19-6.23008E-20
 -1      2534 9.52468E-05-2.85831E-05-2.85701E-05-7.20851E-09 1.03838E-19-1.27293E-19
 -1      2535 9.52442E-05-2.85676E-05-2.85756E-05-8.25932E-09 2.56168E-19-3.54056E-19
 -1      2536 9.52466E-05-2.85831E-05-2.85700E-05 9.14079E-10-1.29503E-18-1.68578E-18
 -1      2537 9.52465E-05-2.85830E-05-2.85700E-05-1.82877E-09-1.12950E-18 2.39602E-20
 -1      2538 9.52433E-05-2.85659E-05-2.85759E-05-3.00629E-09-6.46238E-19-3.56875E-19
 -1      2539 9.52472E-05-2.85835E-05-2.85701E-05 6.44609E-09-7.85473E-19-2.05027E-18
 -1      2540 9.52469E-05-2.85837E-05-2.85700E-05 3.52539E-09-8.31768E-19-1.63329E-18
 -1      2541 9.52434E-05-2.85661E-05-2.85759E-05 1.96331E-09-5.83201E-19-8.34820E-19
 -1      2542 9.52480E-05-2.85844E-05-2.85700E-05 1.25979E-08 7.05848E-19 1.61896E-19
 -1      2543 9.52479E-05-2.85849E-05-2.85699E-05 9.41650E-09 2.41667E-19-1.14044E-18
 -1      2544 9.52447E-05-2.85681E-05-2.85756E-05 7.39385E-09 5.61413E-19-6.01705E-19
 -1      2545 9.52484E-05-2.85850E-05-2.85699E-05 1.95620E-08 5.56815E-19-2.68000E-19
 -1      2546 9.52488E-05-2.85861E-05-2.85698E-05 1.61409E-08 7.36167E-19-1.05731E-18
 -1      2547 9.52464E-05-2.85712E-05-2.85750E-05 1.38735E-08 1.62984E-18-4.36446E-19
 -1      2548 9.52471E-05-2.85846E-05-2.85696E-05 2.63794E-08-8.90477E-19-1.76904E-19
 -1      2549 9.52485E-05-2.85865E-05-2.85694E-05 2.33113E-08-1.09831E-18 9.70070E-19
 -1      2550 9.52472E-05-2.85744E-05-2.85740E-05 2.13725E-08-5.86247E-20-8.58151E-19
 -1      2551 9.52427E-05-2.85821E-05-2.85689E-05 3.11484E-08-1.71543E-18 1.07567E-19
 -1      2552 9.52457E-05-2.85850E-05-2.85688E-05 2.95649E-08-1.57938E-18-8.89050E-20
 -1      2553 9.52456E-05-2.85765E-05-2.85725E-05 2.84325E-08-1.70263E-18-1.03223E-18
 -1      2554 2.62872E-05-1.98950E-05-2.50883E-06 2.24760E-05-2.20070E-18 5.15949E-18
 -1      2555 1.99316E-05-1.76478E-05-6.26609E-07 7.97023E-06-1.30930E-18 6.42813E-18
 -1      2556 9.23701E-05-5.06211E-05-1.80487E-05 4.24071E-05-1.74319E-18 2.57720E-18
 -1      2557 7.37924E-05-4.48782E-05-1.22211E-05 4.22320E-05-2.31007E-18 3.63149E-18
 -1      2558 9.67037E-05-2.80766E-05-2.93908E-05-2.15252E-06 1.22373E-18-1.40110E-19
 -1      2559 9.65336E-05-2.78250E-05-2.94012E-05-1.41756E-06 1.40337E-18 2.03960E-19
 -1      2560 9.69331E-05-2.78323E-05-2.96337E-05-2.72625E-06 1.39127E-18-7.96158E-19
 -1      2561 9.52364E-05-2.85807E-05-2.85667E-05 3.06533E-08-2.66746E-19 3.40845E-20
 -1      2562 1.90738E-05-1.78266E-05-2.67200E-07-6.13520E-06 4.95911E-19 7.38952E-18
 -1      2563 2.41378E-05-2.15035E-05-8.90413E-07-1.88800E-05 4.07846E-19 6.74895E-18
 -1      2564 5.62895E-05-3.63220E-05-8.46063E-06 4.17980E-05-2.35772E-18 4.40351E-18
 -1      2565 4.09897E-05-2.81290E-05-5.08278E-06 3.41421E-05-3.23291E-18 4.55577E-18
 -1      2566 7.17248E-05-4.01723E-05-1.30416E-05 4.09413E-05-3.54441E-18 3.60815E-18
 -1      2567 9.60558E-05-2.01481E-05-3.25744E-05-9.92176E-06-3.24263E-18-2.70084E-19
 -1      2568 9.67005E-05-2.34964E-05-3.13961E-05-6.02338E-06-2.97344E-18-3.74250E-20
 -1      2569 9.60498E-05-2.24198E-05-3.15342E-05-5.39171E-06-2.85795E-18-7.93351E-19
 -1      2570 9.39879E-05-1.75393E-05-3.27655E-05-9.43466E-06-3.21096E-18-1.29016E-18
 -1      2571 3.29715E-05-2.69756E-05-2.40035E-06-2.75440E-05 1.21020E-18 4.89267E-18
 -1      2572 4.64856E-05-3.25355E-05-5.86708E-06-3.66425E-05 1.11914E-18 2.81638E-18
 -1      2573 3.58367E-05-2.13225E-05-5.71450E-06-2.37045E-05 2.30986E-18 4.84799E-18
 -1      2574 1.47023E-04-2.87271E-05-5.15336E-05-9.22337E-06-5.35198E-18 5.29396E-20
 -1      2575 1.49082E-04-3.99415E-05-4.70025E-05-5.64337E-06-4.06406E-18-1.17738E-19
 -1      2576 1.31477E-04-5.92283E-05-3.13216E-05 2.45761E-05-1.38151E-18-2.16502E-18
 -1      2577 1.13515E-04-5.80751E-05-2.36867E-05 3.22184E-05 1.70254E-19-3.19204E-18
 -1      2578 1.21843E-04-5.74046E-05-2.75038E-05-2.82618E-05 6.05205E-19-3.04826E-19
 -1      2579 1.36585E-04-5.50302E-05-3.51918E-05-1.92657E-05 2.38440E-18 9.10560E-21
 -1      2580 1.41212E-04-1.18300E-05-5.59119E-05 4.08741E-06 7.52949E-18-5.05149E-19
 -1      2581 1.40770E-04-9.55315E-06-5.67816E-05 4.42801E-07 7.14006E-18-1.34686E-18
 -1      2582 8.59173E-05-8.94435E-06-3.30223E-05-1.13857E-06-4.62576E-19-4.29807E-18
 -1      2583 8.61320E-05-9.12388E-06-3.30337E-05-1.98244E-06-8.08877E-19-4.23706E-18
 -1      2584 8.73625E-05-1.10277E-05-3.27103E-05-2.04946E-06-9.00757E-19-3.93939E-18
 -1      2585 8.68753E-05-1.05492E-05-3.27077E-05-7.17944E-07-3.54246E-19-4.08265E-18
 -1      2586 1.45105E-04-2.91648E-05-4.99676E-05 5.12821E-06 5.63997E-18 9.74300E-19
 -1      2587 1.44737E-04-2.02910E-05-5.39425E-05 6.01127E-06 7.00030E-18 9.10560E-19
 -1      2588 1.41095E-04-1.12588E-05-5.62289E-05-3.55871E-06 6.29875E-18-2.33739E-18
 -1      2589 1.41859E-04-1.52832E-05-5.47073E-05-6.66279E-06 5.12413E-18-2.25311E-18
 -1      2590 8.05843E-05-4.71861E-05-1.40634E-05-4.21580E-05-1.48231E-18-4.01769E-18
 -1      2591 1.01709E-04-5.39209E-05-2.05690E-05-3.94032E-05-7.59789E-19-1.90085E-18
 -1      2592 1.42816E-04-4.79585E-05-4.06608E-05-7.03856E-06 3.30237E-18 4.78574E-19
 -1      2593 1.46479E-04-4.10531E-05-4.57314E-05-1.25312E-06 4.03193E-18 9.25595E-19
 -1      2594 2.54505E-05-1.96097E-05-2.22383E-06 1.86888E-05 1.36902E-19-7.83251E-18
 -1      2595 1.98983E-05-1.79531E-05-3.92196E-07 3.57453E-06 1.57760E-20-8.41315E-18
 -1      2596 4.72529E-05-3.10722E-05-6.52885E-06-3.68177E-05-1.59835E-18-6.56683E-18
 -1      2597 6.16488E-05-3.85082E-05-9.79211E-06-4.30777E-05-1.07573E-18-5.86877E-18
 -1      2598 1.44585E-04-1.33959E-05-5.67269E-05-2.87501E-06-6.59267E-18-1.12497E-18
 -1      2599 1.44269E-04-1.70072E-05-5.49600E-05-7.95779E-06-6.48573E-18-4.89797E-19
 -1      2600 5.54913E-05-3.60435E-05-8.19344E-06 4.00115E-05 4.83021E-19-6.18038E-18
 -1      2601 3.99766E-05-2.78789E-05-4.83117E-06 3.15452E-05 1.20596E-18-7.08585E-18
 -1      2602 9.32445E-05-5.23446E-05-1.76457E-05 4.15924E-05 1.28537E-19-4.70307E-18
 -1      2603 7.38120E-05-4.55092E-05-1.19663E-05 4.07636E-05 5.88900E-19-4.88547E-18
 -1      2604 1.48439E-04-4.90007E-05-4.31092E-05 5.11753E-06-3.24252E-18-7.90070E-19
 -1      2605 1.41770E-04-5.48115E-05-3.73754E-05 1.18266E-05-2.45364E-18-1.52021E-18
 -1      2606 1.46113E-04-5.01758E-05-4.13359E-05-1.69246E-06-2.08884E-18-1.79105E-18
 -1      2607 1.49145E-04-4.25144E-05-4.63529E-05 3.92824E-06-2.44575E-18-2.18492E-18
 -1      2608 1.44866E-04-1.47360E-05-5.62584E-05 6.26317E-06-6.63184E-18-1.99709E-18
 -1      2609 1.43694E-04-1.25724E-05-5.69166E-05 1.61576E-06-6.35021E-18-1.58816E-18
 -1      2610 1.48493E-04-3.04600E-05-5.09554E-05 8.71915E-06-4.30547E-18-2.57371E-18
 -1      2611 1.47660E-04-2.13754E-05-5.47117E-05 8.73014E-06-6.08530E-18-2.51759E-18
 -1      2612 1.30355E-04-5.85258E-05-3.09389E-05-2.18703E-05-1.66336E-18-1.13142E-18
 -1      2613 1.40859E-04-5.63547E-05-3.66517E-05-1.38613E-05-1.99402E-18-2.01234E-18
 -1      2614 1.03721E-04-5.56764E-05-2.05086E-05-3.55979E-05 1.01856E-18-2.10699E-20
 -1      2615 1.19473E-04-5.82841E-05-2.63443E-05-3.14171E-05-5.62218E-19-6.96473E-19
 -1      2616 1.28550E-04-6.09608E-05-2.87104E-05-2.17404E-05 3.25155E-19-1.93547E-18
 -1      2617 6.51481E-05-4.17386E-05-9.85823E-06-3.98179E-05 8.42798E-19 1.40735E-18
 -1      2618 8.33480E-05-4.81982E-05-1.51145E-05-4.19059E-05 8.94043E-19 3.82753E-19
 -1      2619 9.77051E-05-2.54272E-05-3.09933E-05 6.08880E-06 2.92062E-18 1.31764E-18
 -1      2620 9.85876E-05-2.40895E-05-3.19461E-05 9.25062E-06 3.12862E-18 1.70833E-18
 -1      2621 9.69781E-05-2.15857E-05-3.23668E-05 1.03112E-05 3.39206E-18 6.46577E-19
 -1      2622 9.71535E-05-2.43757E-05-3.12256E-05 5.84957E-06 2.97170E-18 9.82476E-20
 -1      2623 1.28117E-04-5.64952E-05-3.08996E-05 2.63529E-05 1.67924E-19 1.01856E-18
 -1      2624 1.13077E-04-5.61494E-05-2.42428E-05 3.26206E-05-9.36607E-19 1.31587E-18
 -1      2625 1.34488E-04-1.56156E-05-5.13052E-05 7.56025E-06 6.06624E-18 5.85300E-19
 -1      2626 9.00212E-05-1.38017E-05-3.26569E-05-4.90326E-06-2.05457E-18-3.23553E-18
 -1      2627 8.92596E-05-1.23134E-05-3.30386E-05-6.16072E-06-2.22339E-18-3.40824E-18
 -1      2628 9.02876E-05-1.33490E-05-3.30368E-05-7.25142E-06-2.55839E-18-3.08019E-18
 -1      2629 9.67811E-05-2.71573E-05-2.98567E-05-7.24839E-07 1.77832E-18-5.25415E-19
 -1      2630 9.51928E-05-1.92454E-05-3.25936E-05 9.89660E-06 3.26803E-18-6.64339E-19
 -1      2631 1.33717E-04-5.71778E-05-3.26919E-05 1.53137E-05-1.41031E-19-4.41728E-19
 -1      2632 9.93923E-05-5.33342E-05-1.94039E-05-3.63560E-05 1.97528E-18-6.12815E-19
 -1      2633 1.37692E-04-2.01905E-05-5.06943E-05-8.38878E-06 4.24702E-18-3.23429E-18
 -1      2634 1.43341E-04-3.64545E-05-4.57265E-05 1.32438E-05-3.20073E-18-2.88775E-18
 -1      2635 1.37831E-04-1.77396E-05-5.14034E-05 1.06051E-05-5.54849E-18-2.48668E-18
 -1      2636 1.44798E-04-4.55547E-05-4.24432E-05-6.37098E-06-2.85498E-18 1.34890E-18
 -1      2637 1.42878E-04-5.54538E-05-3.73416E-05-2.49591E-06-1.24998E-18-2.69018E-18
 -1      2638 9.52345E-05-2.85772E-05-2.85675E-05-3.13059E-08-4.47945E-19-1.39300E-18
 -1      2639 1.07912E-04-5.53451E-05-2.22674E-05 3.46799E-05-2.48477E-18 1.51050E-18
 -1      2640 9.52382E-05-2.85798E-05-2.85678E-05-3.19334E-08-4.53682E-19-1.66380E-18
 -1      2641 2.66344E-05-1.47601E-05-4.48522E-06 5.48683E-07-3.41884E-19 6.11452E-18
 -1      2642 4.06210E-05-2.25964E-05-7.12344E-06 2.78683E-05-3.02973E-18 4.42681E-18
 -1      2643 1.09650E-04-5.71826E-05-2.22005E-05 3.36165E-05 1.64049E-18-2.43511E-18
 -1      2644 7.25155E-05-4.08197E-05-1.30685E-05 3.90867E-05 1.86114E-18-4.65868E-18
 -1      2645 9.55521E-05-2.05991E-05-3.20800E-05 7.77813E-06 3.02558E-18-8.48396E-19
 -1      2646 1.34484E-04-1.22812E-05-5.25557E-05-5.57412E-07-6.20790E-18-5.93532E-19
 -1      2647 9.25825E-05-1.60333E-05-3.28380E-05-8.42717E-06-2.96775E-18-2.13608E-18
 -1      2648 1.37765E-04-5.96458E-05-3.33794E-05 1.33723E-05-2.51145E-19-1.83806E-19
 -1      2649 1.38633E-04-2.35616E-05-4.94594E-05-1.25632E-05-5.23932E-18 1.22047E-18
 -1      2650 4.21867E-05-2.62890E-05-6.39358E-06-3.22327E-05-1.89217E-18-7.05028E-18
 -1      2651 5.38647E-05-2.86052E-05-1.04236E-05-3.50669E-05-2.79235E-18-6.05565E-18
 -1      2652 3.73491E-05-1.97982E-05-7.00027E-06-2.57550E-05-2.07587E-18-6.92619E-18
 -1      2653 3.97239E-05-2.23053E-05-6.91215E-06 2.48435E-05 1.13778E-18-7.07061E-18
 -1      2654 1.38799E-04-5.39614E-05-3.64438E-05-8.74215E-06 1.44451E-18 1.51979E-18
 -1      2655 7.82649E-05-4.34299E-05-1.45081E-05-4.12414E-05-2.62834E-18-3.83621E-18
 -1      2656 1.15431E-04-5.80325E-05-2.44529E-05-3.20788E-05-8.28081E-19-1.58607E-19
 -1      2657 1.24651E-04-5.90910E-05-2.82927E-05-2.24939E-05-1.40782E-18 1.40480E-18
 -1      2658 1.07629E-04-5.50281E-05-2.22019E-05-3.42154E-05-2.32786E-18 6.53671E-20
 -1      2659 2.64263E-05-1.59304E-05-3.93788E-06-4.67138E-06-7.35158E-19-8.38796E-18
 -1      2660 1.31095E-04-9.33123E-06-5.25554E-05-2.21004E-06 6.10732E-18-1.90318E-18
 -1      2661 6.20997E-05-3.59881E-05-1.07278E-05-3.78279E-05 2.48498E-18 1.82853E-18
 -1      2662 1.44347E-04-4.26297E-05-4.36748E-05-7.32627E-07 2.02616E-18-1.91451E-18
 -1      2663 1.39604E-04-4.75146E-05-3.94174E-05-8.26038E-07 1.78639E-18-2.77022E-18
 -1      2664 1.38986E-04-3.64037E-05-4.48062E-05-8.91925E-06 2.82740E-18-3.60815E-18
 -1      2665 1.41210E-04-3.52817E-05-4.55325E-05 6.86539E-06 3.89752E-18 2.03627E-18
 -1      2666 9.52332E-05-2.85745E-05-2.85680E-05 3.21215E-08-7.62292E-19 5.77412E-19
 -1      2667 9.52398E-05-2.85805E-05-2.85683E-05 3.32016E-08-6.64042E-19 7.03775E-19
 -1      2668 9.52403E-05-2.85749E-05-2.85708E-05 3.30460E-08-2.15396E-18 2.18088E-18
 -1      2669 9.52306E-05-2.85708E-05-2.85684E-05 3.35578E-08-1.98117E-18 1.38185E-18
 -1      2670 9.52384E-05-2.85747E-05-2.85701E-05-3.28138E-08 5.36134E-19-1.53246E-18
 -1      2671 9.52361E-05-2.85703E-05-2.85713E-05 3.32206E-08-2.52250E-18 2.83713E-18
 -1      2672 8.85308E-05-1.30247E-05-3.23779E-05 1.87174E-06 9.15750E-19-3.72429E-18
 -1      2673 8.81001E-05-1.25954E-05-3.23829E-05 1.21783E-06 5.87491E-19-3.74006E-18
 -1      2674 8.77729E-05-1.22349E-05-3.23912E-05 7.47580E-07 3.94484E-19-3.87656E-18
 -1      2675 8.76009E-05-1.20674E-05-3.23927E-05 1.20972E-07 9.33331E-20-3.85763E-18
 -1      2676 8.87657E-05-1.38848E-05-3.20739E-05 6.79785E-07 4.54215E-19-3.59627E-18
 -1      2677 9.15762E-05-1.64356E-05-3.22346E-05 4.32860E-06 2.04955E-18-2.75773E-18
 -1      2678 9.06511E-05-1.53834E-05-3.22854E-05 3.61301E-06 1.72953E-18-3.07130E-18
 -1      2679 9.38138E-05-1.92357E-05-3.19982E-05 5.36710E-06 2.58767E-18-1.87717E-18
 -1      2680 9.26345E-05-1.77287E-05-3.21249E-05 4.80113E-06 2.29168E-18-2.24384E-18
 -1      2681 9.29902E-05-1.87511E-05-3.17939E-05 3.34315E-06 2.03627E-18-2.23512E-18
 -1      2682 9.65322E-05-2.53266E-05-3.05206E-05 1.51877E-06 2.18531E-18-7.85391E-19
 -1      2683 9.66628E-05-2.44873E-05-3.08994E-05 3.35656E-06 2.46096E-18-6.88354E-19
 -1      2684 1.28506E-04-1.69049E-05-4.84447E-05-1.08860E-05 4.33151E-18-3.15287E-18
 -1      2685 1.34957E-04-2.58932E-05-4.69957E-05-1.17259E-05 3.61471E-18-3.42710E-18
 -1      2686 3.62081E-05-1.68566E-05-7.78861E-06-1.85339E-05 2.46322E-18 5.32911E-18
 -1      2687 4.47893E-05-2.25703E-05-9.12775E-06-2.83365E-05 2.74470E-18 3.46098E-18
 -1      2688 9.27305E-05-4.82169E-05-1.85444E-05-3.57862E-05 2.62983E-18-7.48327E-19
 -1      2689 1.09712E-04-5.60456E-05-2.31642E-05-3.12051E-05 2.21753E-18-1.44084E-18
 -1      2690 9.62077E-05-2.51289E-05-3.04393E-05 7.14032E-07-1.65558E-18-1.16182E-18
 -1      2691 9.62396E-05-2.56383E-05-3.02574E-05 2.10333E-06-1.33489E-18-1.08597E-18
 -1      2692 9.62547E-05-2.60159E-05-3.00852E-05 3.31249E-06-1.18109E-18-9.08171E-19
 -1      2693 9.63741E-05-2.63219E-05-3.00161E-05 4.41044E-06-1.12321E-18-9.88719E-19
 -1      2694 9.56442E-05-2.48884E-05-3.03296E-05 2.61002E-06-1.30778E-18-1.20377E-18
 -1      2695 9.63451E-05-2.65106E-05-2.99197E-05 5.43642E-06-1.21422E-18-7.86716E-19
 -1      2696 9.65900E-05-2.67378E-05-2.99262E-05 6.35683E-06-1.09267E-18-8.40820E-19
 -1      2697 9.56402E-05-2.55780E-05-3.00332E-05 4.92966E-06-1.18491E-18-1.17977E-18
 -1      2698 9.65795E-05-2.68586E-05-2.98764E-05 7.26842E-06-9.08666E-19-8.86412E-19
 -1      2699 9.69690E-05-2.71030E-05-2.99295E-05 8.07177E-06-7.51528E-19-8.55433E-19
 -1      2700 9.56134E-05-2.59717E-05-2.98525E-05 6.93262E-06-1.03915E-18-1.15128E-18
 -1      2701 9.70346E-05-2.72639E-05-2.98996E-05 8.91195E-06-7.20489E-19-8.39660E-19
 -1      2702 9.76032E-05-2.76303E-05-2.99739E-05 9.60675E-06-5.60306E-19-1.11340E-18
 -1      2703 9.56741E-05-2.63156E-05-2.97316E-05 8.73756E-06-7.94913E-19-1.27418E-18
 -1      2704 9.78349E-05-2.79633E-05-2.99398E-05 1.03829E-05-3.21132E-19-9.47475E-19
 -1      2705 9.86563E-05-2.85910E-05-3.00134E-05 1.09202E-05-1.93159E-19-8.73671E-19
 -1      2706 9.59622E-05-2.68762E-05-2.96190E-05 1.04074E-05-4.30325E-19-1.05319E-18
 -1      2707 9.92135E-05-2.92767E-05-2.99575E-05 1.15909E-05 2.31789E-20-7.22143E-19
 -1      2708 1.00416E-04-3.03492E-05-3.00162E-05 1.18511E-05 4.10348E-20-5.06170E-19
 -1      2709 9.67162E-05-2.80004E-05-2.94712E-05 1.19334E-05 3.45410E-20-4.16505E-19
 -1      2710 1.01562E-04-3.16208E-05-2.99385E-05 1.22942E-05-5.36108E-20-3.70603E-19
 -1      2711 1.03320E-04-3.33350E-05-2.99886E-05 1.20668E-05 2.56620E-19-1.53005E-19
 -1      2712 9.83461E-05-3.01529E-05-2.92691E-05 1.31992E-05 2.30901E-19-3.16501E-19
 -1      2713 1.05419E-04-3.54117E-05-2.99317E-05 1.20139E-05 5.36946E-19-1.34114E-19
 -1      2714 1.07901E-04-3.78581E-05-3.00281E-05 1.09884E-05 6.99977E-19-7.07057E-20
 -1      2715 1.01483E-04-3.38745E-05-2.90539E-05 1.38843E-05 4.69412E-19-3.30935E-19
 -1      2716 1.11298E-04-4.07592E-05-3.01223E-05 9.98144E-06 6.63796E-19 2.19454E-19
 -1      2717 1.14442E-04-4.36042E-05-3.03995E-05 7.81590E-06 7.59243E-19 8.69855E-20
 -1      2718 1.06794E-04-3.94724E-05-2.90047E-05 1.32705E-05 8.52140E-19-3.15507E-19
 -1      2719 1.19259E-04-4.67434E-05-3.09218E-05 4.90059E-06 1.36775E-18 6.88079E-19
 -1      2720 1.22180E-04-4.86173E-05-3.16242E-05 1.38601E-06 1.36683E-18 1.19964E-18
 -1      2721 1.15239E-04-4.68235E-05-2.95918E-05 1.01158E-05 1.50986E-18 7.07292E-19
 -1      2722 1.27537E-04-5.02823E-05-3.30836E-05-3.87540E-06 1.43315E-18 2.28551E-18
 -1      2723 1.28190E-04-4.83582E-05-3.42352E-05-8.07317E-06 7.65188E-19 2.93369E-18
 -1      2724 1.25462E-04-5.24115E-05-3.16137E-05 3.19457E-06 1.92529E-18 1.61393E-18
 -1      2725 1.32652E-04-4.11336E-05-3.95323E-05-1.42251E-05-1.62831E-18 3.01094E-18
 -1      2726 1.30701E-04-3.31840E-05-4.22477E-05-1.59854E-05-3.05017E-18 2.86980E-18
 -1      2727 1.27976E-04-2.47251E-05-4.46475E-05-1.26119E-05-4.21399E-18 1.63350E-18
 -1      2728 1.22979E-04-1.43740E-05-4.71744E-05-2.24077E-06-4.78044E-18-3.75050E-19
 -1      2729 1.23400E-04-1.53914E-05-4.72162E-05 5.71090E-06-4.92783E-18-1.49689E-18
 -1      2730 1.26453E-04-2.04063E-05-4.60982E-05 1.09179E-05-4.44449E-18-2.60555E-18
 -1      2731 1.29744E-04-2.80228E-05-4.43986E-05 1.56503E-05-3.56326E-18-3.24882E-18
 -1      2732 1.32211E-04-3.72390E-05-4.10784E-05 1.44956E-05-2.43469E-18-3.25319E-18
 -1      2733 1.34318E-04-4.50850E-05-3.85637E-05 1.31264E-05-6.39722E-19-3.65855E-18
 -1      2734 1.23581E-04-4.90150E-05-3.20229E-05 5.44945E-07 2.12395E-18-3.65405E-18
 -1      2735 1.20590E-04-4.74107E-05-3.12429E-05-3.31269E-06 2.08666E-18-3.36123E-18
 -1      2736 1.15674E-04-4.43233E-05-3.06205E-05-6.21318E-06 1.88062E-18-3.41033E-18
 -1      2737 1.12611E-04-4.15963E-05-3.03088E-05-8.63357E-06 1.35867E-18-2.96899E-18
 -1      2738 1.16453E-04-4.71580E-05-2.98036E-05-8.49971E-06 1.93812E-18-3.92229E-18
 -1      2739 1.08903E-04-3.85178E-05-3.01879E-05-9.85116E-06 5.17024E-19-2.85641E-18
 -1      2740 1.06375E-04-3.59789E-05-3.00938E-05-1.09650E-05 8.26535E-20-3.11242E-18
 -1      2741 1.07942E-04-4.03671E-05-2.91098E-05-1.22858E-05 8.54180E-19-3.27377E-18
 -1      2742 1.04107E-04-3.37685E-05-3.01438E-05-1.10461E-05 2.92258E-19-2.70568E-18
 -1      2743 1.02296E-04-3.19706E-05-3.01008E-05-1.13119E-05 6.02804E-20-2.44720E-18
 -1      2744 1.02095E-04-3.43298E-05-2.91298E-05-1.29537E-05 5.06396E-19-2.31881E-18
 -1      2745 1.01037E-04-3.06109E-05-3.01723E-05-1.08731E-05-3.80460E-19-1.71578E-18
 -1      2746 9.98083E-05-2.94959E-05-3.01180E-05-1.06322E-05-8.93120E-20-1.60103E-18
 -1      2747 9.86977E-05-3.03775E-05-2.93272E-05-1.22855E-05 4.92826E-19-1.18468E-18
 -1      2748 9.91753E-05-2.87741E-05-3.01584E-05-9.97008E-06-8.95641E-20-1.67665E-18
 -1      2749 9.83396E-05-2.81535E-05-3.00767E-05-9.46418E-06-3.68550E-19-1.52531E-18
 -1      2750 9.68901E-05-2.81011E-05-2.95026E-05-1.10283E-05 1.86068E-19-8.52036E-19
 -1      2751 9.80520E-05-2.78412E-05-3.00760E-05-8.73561E-06-1.84950E-19-1.42499E-18
 -1      2752 9.74628E-05-2.75352E-05-2.99723E-05-8.12100E-06-3.46684E-19-1.41469E-18
 -1      2753 9.60161E-05-2.69836E-05-2.95933E-05-9.56779E-06 2.81387E-20-6.21531E-19
 -1      2754 9.73469E-05-2.74584E-05-2.99381E-05-7.40683E-06-2.71858E-19-1.18525E-18
 -1      2755 9.69107E-05-2.73356E-05-2.98237E-05-6.77866E-06-1.82026E-19-1.09362E-18
 -1      2756 9.56341E-05-2.65744E-05-2.95987E-05-8.09412E-06-2.10854E-19-6.10240E-19
 -1      2757 9.68706E-05-2.73802E-05-2.97683E-05-6.12053E-06 5.14704E-19-7.32062E-19
 -1      2758 9.65335E-05-2.73564E-05-2.96537E-05-5.53231E-06 8.32081E-19-4.45308E-19
 -1      2759 9.54865E-05-2.65575E-05-2.95404E-05-6.70546E-06 3.77057E-19-6.12522E-19
 -1      2760 9.65213E-05-2.74541E-05-2.95881E-05-4.94992E-06-2.49416E-19-9.94074E-19
 -1      2761 9.62537E-05-2.74792E-05-2.94807E-05-4.42798E-06-5.65630E-19-1.41978E-18
 -1      2762 9.54368E-05-2.67338E-05-2.94432E-05-5.45239E-06-2.13327E-20-8.57858E-19
 -1      2763 9.62482E-05-2.75926E-05-2.94130E-05-3.92790E-06-5.74996E-19-6.92621E-19
 -1      2764 9.60334E-05-2.76385E-05-2.93172E-05-3.48166E-06-6.26931E-19-5.28666E-19
 -1      2765 9.54197E-05-2.69871E-05-2.93277E-05-4.35737E-06-1.30275E-19-2.49673E-19
 -1      2766 9.60269E-05-2.77486E-05-2.92528E-05-3.06250E-06-4.31836E-19-8.23369E-19
 -1      2767 9.58547E-05-2.78003E-05-2.91703E-05-2.69141E-06-3.85183E-19-4.43467E-19
 -1      2768 9.54081E-05-2.72545E-05-2.92086E-05-3.42490E-06-7.16682E-19 7.01367E-20
 -1      2769 9.58455E-05-2.78986E-05-2.91122E-05-2.34720E-06 8.53772E-20 3.25865E-20
 -1      2770 9.57087E-05-2.79488E-05-2.90432E-05-2.04537E-06 8.07343E-19 1.15927E-19
 -1      2771 9.53932E-05-2.75047E-05-2.90954E-05-2.64804E-06-1.18161E-19-3.09601E-19
 -1      2772 9.56977E-05-2.80325E-05-2.89928E-05-1.76777E-06 2.49222E-19 2.76930E-20
 -1      2773 9.55904E-05-2.80778E-05-2.89365E-05-1.52686E-06 3.67395E-19-1.46284E-19
 -1      2774 9.53743E-05-2.77245E-05-2.89934E-05-2.01318E-06 2.21017E-19 8.30068E-19
 -1      2775 9.55787E-05-2.81469E-05-2.88940E-05-1.30667E-06 6.71410E-19-9.76055E-19
 -1      2776 9.54960E-05-2.81861E-05-2.88490E-05-1.11759E-06 1.06083E-18-2.96350E-19
 -1      2777 9.53531E-05-2.79102E-05-2.89049E-05-1.50335E-06-8.45139E-20-1.19055E-18
 -1      2778 9.54848E-05-2.82419E-05-2.88141E-05-9.45669E-07 1.19618E-18-1.17594E-18
 -1      2779 9.54222E-05-2.82749E-05-2.87788E-05-7.99623E-07 6.73623E-19-1.69884E-18
 -1      2780 9.53317E-05-2.80630E-05-2.88303E-05-1.10055E-06 6.87238E-19-7.20483E-19
 -1      2781 9.54120E-05-2.83192E-05-2.87507E-05-6.67454E-07 9.91978E-19-1.89589E-18
 -1      2782 9.53658E-05-2.83465E-05-2.87235E-05-5.56399E-07 1.44137E-18-1.60596E-18
 -1      2783 9.53119E-05-2.81862E-05-2.87690E-05-7.87289E-07 9.18204E-19-2.17155E-18
 -1      2784 9.53570E-05-2.83812E-05-2.87014E-05-4.56383E-07 1.04295E-18-9.93644E-19
 -1      2785 9.53236E-05-2.84034E-05-2.86808E-05-3.73290E-07 6.82658E-19-9.81963E-19
 -1      2786 9.52945E-05-2.82839E-05-2.87196E-05-5.47450E-07 1.27448E-18-1.60163E-18
 -1      2787 9.53164E-05-2.84302E-05-2.86636E-05-2.98862E-07 9.77134E-19-1.27746E-18
 -1      2788 9.52930E-05-2.84480E-05-2.86484E-05-2.37775E-07 1.23884E-18-9.42523E-19
 -1      2789 9.52800E-05-2.83603E-05-2.86805E-05-3.66770E-07 5.75130E-19-2.02222E-18
 -1      2790 9.52873E-05-2.84684E-05-2.86352E-05-1.83415E-07 9.38959E-19-1.11984E-18
 -1      2791 9.52715E-05-2.84827E-05-2.86241E-05-1.39424E-07 5.79661E-19-1.02373E-18
 -1      2792 9.52683E-05-2.84192E-05-2.86502E-05-2.33016E-07 1.25311E-18-3.58393E-18
 -1      2793 9.52671E-05-2.84982E-05-2.86142E-05-1.00615E-07-1.42261E-19-9.33208E-19
 -1      2794 9.52570E-05-2.85095E-05-2.86063E-05-6.97780E-08 8.53705E-19-1.12915E-18
 -1      2795 9.52593E-05-2.84643E-05-2.86269E-05-1.35984E-07 8.94430E-19-2.88650E-18
 -1      2796 9.52538E-05-2.85213E-05-2.85989E-05-4.29268E-08 1.86978E-18-3.96787E-19
 -1      2797 9.52478E-05-2.85305E-05-2.85933E-05-2.21791E-08 1.02880E-18 1.36945E-20
 -1      2798 9.52525E-05-2.84986E-05-2.86092E-05-6.73922E-08 1.49118E-18-2.96657E-18
 -1      2799 9.52456E-05-2.85395E-05-2.85878E-05-4.49479E-09 2.97339E-19-1.16207E-20
 -1      2800 9.52427E-05-2.85473E-05-2.85839E-05 8.48314E-09-3.07947E-19 7.66833E-20
 -1      2801 9.52478E-05-2.85249E-05-2.85958E-05-2.07160E-08 2.36408E-19-2.17273E-18
 -1      2802 9.52414E-05-2.85548E-05-2.85796E-05 1.89682E-08-1.23382E-18 1.45912E-18
 -1      2803 9.52406E-05-2.85614E-05-2.85768E-05 2.56717E-08-2.00765E-18 9.54792E-19
 -1      2804 9.52448E-05-2.85459E-05-2.85855E-05 9.10089E-09-6.03443E-20-1.80576E-18
 -1      2805 9.81685E-05-2.87463E-05-2.97483E-05-5.67756E-06 7.18447E-19-1.15280E-18
 -1      2806 9.76636E-05-2.83634E-05-2.96858E-05-5.25969E-06 7.51604E-19-1.11563E-18
 -1      2807 9.52428E-05-2.85682E-05-2.85749E-05-2.82354E-08 2.93539E-19-2.82811E-18
 -1      2808 9.52382E-05-2.85680E-05-2.85729E-05-2.98395E-08 1.80441E-19-1.22959E-18
 -1      2809 9.52371E-05-2.85625E-05-2.85747E-05-2.74185E-08 3.32223E-19-1.27295E-18
 -1      2810 9.74028E-05-2.80601E-05-2.97126E-05-4.65159E-06 8.91396E-19-1.14664E-18
 -1      2811 9.70645E-05-2.77192E-05-2.97004E-05-4.01961E-06 1.13765E-18-1.01683E-18
 -1      2812 9.71154E-05-2.77603E-05-2.97382E-05-5.25284E-06 8.60433E-19-1.31803E-18
 -1      2813 1.00669E-04-3.07428E-05-2.99759E-05-6.38006E-06 2.55880E-19-3.55697E-19
 -1      2814 9.98674E-05-3.01174E-05-2.98773E-05-6.45767E-06 4.44856E-19-4.45613E-19
 -1      2815 1.02468E-04-3.22445E-05-3.01140E-05-5.80946E-06 1.90275E-19-2.23855E-19
 -1      2816 1.01547E-04-3.14570E-05-3.00180E-05-6.24812E-06 2.70306E-19-1.73599E-19
 -1      2817 1.00362E-04-3.10373E-05-2.97322E-05-7.12991E-06 2.12219E-19-6.88773E-19
 -1      2818 1.04624E-04-3.40809E-05-3.02641E-05-4.35500E-06 4.78003E-20-2.36375E-20
 -1      2819 1.03641E-04-3.31751E-05-3.01726E-05-5.25101E-06 1.02609E-19-6.53072E-20
 -1      2820 1.02420E-04-3.29393E-05-2.98037E-05-6.52320E-06 1.74460E-19-1.90357E-19
 -1      2821 1.06987E-04-3.60128E-05-3.04611E-05-1.82112E-06-1.52775E-19 1.35424E-19
 -1      2822 1.06070E-04-3.51555E-05-3.03613E-05-3.23150E-06-8.61397E-20 1.23601E-19
 -1      2823 1.05058E-04-3.52633E-05-2.99409E-05-4.92891E-06-4.27084E-20 1.34304E-19
 -1      2824 1.09153E-04-3.74469E-05-3.07785E-05 1.79883E-06-5.57321E-20 5.52797E-19
 -1      2825 1.08537E-04-3.69833E-05-3.06408E-05-4.47799E-08-8.32748E-20 5.56463E-19
 -1      2826 1.08102E-04-3.76387E-05-3.02204E-05-2.08761E-06-2.54446E-19 2.01934E-19
 -1      2827 1.10423E-04-3.74250E-05-3.13138E-05 6.03101E-06-2.34257E-19 1.03268E-18
 -1      2828 1.10412E-04-3.78420E-05-3.11004E-05 4.10461E-06-1.32499E-19 8.14975E-19
 -1      2829 1.10993E-04-3.92121E-05-3.07627E-05 2.03536E-06-3.50388E-19 1.24216E-18
 -1      2830 1.10019E-04-3.50230E-05-3.21248E-05 9.60662E-06 3.74845E-19 1.43572E-18
 -1      2831 1.10809E-04-3.66699E-05-3.18203E-05 8.29196E-06 1.18938E-19 1.39610E-18
 -1      2832 1.12723E-04-3.87024E-05-3.16908E-05 6.84577E-06-2.83877E-19 1.66445E-18
 -1      2833 1.07686E-04-3.02046E-05-3.31414E-05 1.05354E-05 5.52517E-19 1.05511E-18
 -1      2834 1.09104E-04-3.28302E-05-3.27836E-05 1.07398E-05 5.02178E-19 1.44653E-18
 -1      2835 1.12223E-04-3.50640E-05-3.30229E-05 1.06736E-05 5.72948E-19 1.65791E-18
 -1      2836 1.04543E-04-2.48964E-05-3.40829E-05 7.15450E-06 7.20984E-19 7.69390E-19
 -1      2837 1.05878E-04-2.72894E-05-3.37939E-05 9.34190E-06 3.39382E-19 7.76646E-19
 -1      2838 1.09353E-04-2.87149E-05-3.45430E-05 1.09967E-05 6.77004E-19 1.13158E-18
 -1      2839 1.03041E-04-2.24794E-05-3.45200E-05 3.43946E-07 1.52493E-18 3.90548E-19
 -1      2840 1.03398E-04-2.31869E-05-3.44319E-05 3.62692E-06 1.47346E-18 8.27172E-19
 -1      2841 1.06189E-04-2.31841E-05-3.56531E-05 5.98556E-06 1.11285E-18 6.00127E-19
 -1      2842 1.04291E-04-2.45452E-05-3.42654E-05-7.13524E-06 1.33257E-18-8.02971E-19
 -1      2843 1.03236E-04-2.28899E-05-3.44452E-05-4.07990E-06 1.54433E-18-4.39603E-19
 -1      2844 1.05051E-04-2.10595E-05-3.60429E-05-1.97618E-06 1.95393E-18-5.45569E-19
 -1      2845 1.07515E-04-2.97713E-05-3.34161E-05-1.10075E-05 1.55691E-18-2.28717E-18
 -1      2846 1.05989E-04-2.71141E-05-3.37357E-05-9.66259E-06 1.20175E-18-1.69638E-18
 -1      2847 1.07534E-04-2.51669E-05-3.53183E-05-9.40603E-06 1.97375E-18-1.79523E-18
 -1      2848 1.10307E-04-3.48038E-05-3.24289E-05-1.05722E-05 1.34983E-18-2.68292E-18
 -1      2849 1.09055E-04-3.25145E-05-3.27524E-05-1.11095E-05 1.93227E-18-2.34518E-18
 -1      2850 1.10916E-04-3.16463E-05-3.39277E-05-1.19601E-05 1.89353E-18-2.87616E-18
 -1      2851 1.11134E-04-3.74611E-05-3.15965E-05-7.17934E-06 7.91481E-19-2.30824E-18
 -1      2852 1.10650E-04-3.63689E-05-3.18413E-05-8.82921E-06 8.50146E-19-2.87735E-18
 -1      2853 1.12871E-04-3.69941E-05-3.24747E-05-9.85644E-06 1.02742E-18-2.43530E-18
 -1      2854 1.10046E-04-3.76061E-05-3.10328E-05-2.94600E-06 4.11385E-19-1.72633E-18
 -1      2855 1.10309E-04-3.76329E-05-3.11879E-05-4.84849E-06 6.71840E-19-1.84169E-18
 -1      2856 1.12323E-04-3.91613E-05-3.13372E-05-5.41895E-06 4.00104E-19-2.82812E-18
 -1      2857 1.07905E-04-3.62148E-05-3.06953E-05 7.16664E-07-6.05878E-19-1.67516E-18
 -1      2858 1.08626E-04-3.68874E-05-3.07922E-05-9.05332E-07 6.16746E-20-1.21661E-18
 -1      2859 1.09970E-04-3.85544E-05-3.06140E-05-9.08910E-07-9.13513E-20-1.31140E-18
 -1      2860 1.05491E-04-3.42746E-05-3.04920E-05 3.26960E-06-1.22234E-18-1.21527E-18
 -1      2861 1.06392E-04-3.51585E-05-3.05671E-05 2.14018E-06-6.17020E-19-1.53657E-18
 -1      2862 1.06958E-04-3.64977E-05-3.02194E-05 2.55033E-06-7.45137E-19-8.17422E-19
 -1      2863 1.03280E-04-3.24294E-05-3.03411E-05 4.71626E-06-8.17987E-19-1.22155E-18
 -1      2864 1.04177E-04-3.32579E-05-3.04193E-05 4.07530E-06-9.55107E-19-1.51562E-18
 -1      2865 1.04091E-04-3.40960E-05-3.00219E-05 4.70805E-06-9.03900E-19-4.27609E-19
 -1      2866 1.01443E-04-3.09523E-05-3.01942E-05 5.29133E-06-1.15633E-18-1.01046E-18
 -1      2867 1.02251E-04-3.16170E-05-3.02856E-05 5.04078E-06-7.50180E-19-9.02062E-19
 -1      2868 1.01736E-04-3.19889E-05-2.99117E-05 5.75817E-06-8.74443E-19-8.81837E-21
 -1      2869 9.99880E-05-2.98878E-05-3.00331E-05 5.26600E-06-1.10855E-18-9.26249E-19
 -1      2870 1.00682E-04-3.03736E-05-3.01370E-05 5.28787E-06-1.42401E-18-1.10366E-18
 -1      2871 9.99463E-05-3.03959E-05-2.98224E-05 6.01097E-06-1.14231E-18-9.47277E-19
 -1      2872 9.88595E-05-2.91787E-05-2.98578E-05 4.87317E-06-2.82732E-19-9.80263E-19
 -1      2873 9.94401E-05-2.95109E-05-2.99685E-05 5.06251E-06-6.08164E-19-8.33638E-19
 -1      2874 9.86416E-05-2.93096E-05-2.97243E-05 5.74944E-06-1.03665E-18-1.28963E-18
 -1      2875 9.79891E-05-2.87387E-05-2.96762E-05 4.28843E-06 5.62056E-19-6.05331E-19
 -1      2876 9.84677E-05-2.89537E-05-2.97868E-05 4.56457E-06 4.53979E-19-9.87426E-19
 -1      2877 9.77067E-05-2.86332E-05-2.96103E-05 5.19345E-06 1.17755E-19-1.18524E-18
 -1      2878 9.73174E-05-2.84867E-05-2.94980E-05 3.63304E-06 1.76426E-19-2.73659E-19
 -1      2879 9.77075E-05-2.86184E-05-2.96027E-05 3.93982E-06 2.50031E-19-7.34746E-19
 -1      2880 9.70381E-05-2.82541E-05-2.94842E-05 4.49972E-06 2.48952E-19-6.05536E-19
 -1      2881 9.67980E-05-2.83586E-05-2.93313E-05 2.98435E-06-8.91546E-19 2.56609E-19
 -1      2882 9.71125E-05-2.84339E-05-2.94261E-05 3.28600E-06 3.59999E-20 2.85247E-19
 -1      2883 9.65564E-05-2.80739E-05-2.93536E-05 3.77269E-06-1.84764E-19 2.88039E-19
 -1      2884 9.63965E-05-2.83078E-05-2.91814E-05 2.38721E-06-1.77684E-19-3.69925E-19
 -1      2885 9.66470E-05-2.83464E-05-2.92642E-05 2.66322E-06-4.34574E-19-1.27009E-19
 -1      2886 9.62051E-05-2.80183E-05-2.92261E-05 3.07710E-06-3.93026E-19-7.99851E-19
 -1      2887 9.60870E-05-2.83025E-05-2.90512E-05 1.86385E-06-1.43767E-19-5.90934E-19
 -1      2888 9.62839E-05-2.83182E-05-2.91212E-05 2.10435E-06-8.24792E-20-2.55496E-19
 -1      2889 9.59462E-05-2.80349E-05-2.91075E-05 2.44909E-06-1.79079E-19-1.50531E-18
 -1      2890 9.58500E-05-2.83219E-05-2.89413E-05 1.42163E-06 2.22764E-19-1.49151E-18
 -1      2891 9.60025E-05-2.83240E-05-2.89990E-05 1.62367E-06 2.63931E-19-8.34837E-19
 -1      2892 9.57535E-05-2.80889E-05-2.90013E-05 1.90520E-06 1.01043E-20-1.06752E-18
 -1      2893 9.56703E-05-2.83530E-05-2.88508E-05 1.05878E-06-2.98452E-19-2.90658E-18
 -1      2894 9.57864E-05-2.83474E-05-2.88973E-05 1.22359E-06 9.64724E-20-2.17858E-18
 -1      2895 9.56096E-05-2.81585E-05-2.89095E-05 1.44913E-06 8.36688E-19-1.61518E-18
 -1      2896 9.55358E-05-2.83878E-05-2.87782E-05 7.68372E-07-3.63685E-19-2.10943E-18
 -1      2897 9.56226E-05-2.83784E-05-2.88147E-05 8.99500E-07-6.11039E-19-2.18718E-18
 -1      2898 9.55021E-05-2.82308E-05-2.88322E-05 1.07681E-06-2.60472E-19-2.21936E-18
 -1      2899 9.54368E-05-2.84217E-05-2.87211E-05 5.41083E-07-4.13705E-19-5.23184E-19
 -1      2900 9.55003E-05-2.84110E-05-2.87491E-05 6.43090E-07-3.84828E-19-1.05744E-18
 -1      2901 9.54223E-05-2.82984E-05-2.87687E-05 7.79864E-07-7.97144E-19-1.55501E-18
 -1      2902 9.53654E-05-2.84526E-05-2.86772E-05 3.66890E-07-2.59218E-19-1.50639E-18
 -1      2903 9.54107E-05-2.84418E-05-2.86982E-05 4.44569E-07-6.57343E-20-8.98293E-19
 -1      2904 9.53636E-05-2.83580E-05-2.87178E-05 5.48020E-07-2.32277E-21-1.09102E-18
 -1      2905 9.53151E-05-2.84793E-05-2.86441E-05 2.36146E-07-4.86634E-20-1.71583E-18
 -1      2906 9.53465E-05-2.84693E-05-2.86596E-05 2.94044E-07-2.22004E-19-1.75463E-18
 -1      2907 9.53210E-05-2.84084E-05-2.86777E-05 3.70661E-07-2.76465E-19-1.07352E-18
 -1      2908 9.52810E-05-2.85018E-05-2.86198E-05 1.40163E-07-1.03368E-18-1.82255E-18
 -1      2909 9.53018E-05-2.84929E-05-2.86308E-05 1.82327E-07-1.93940E-19-1.87903E-18
 -1      2910 9.52907E-05-2.84497E-05-2.86468E-05 2.37746E-07-9.61043E-20-1.73948E-18
 -1      2911 9.52589E-05-2.85205E-05-2.86022E-05 7.15083E-08-4.49771E-19-1.28533E-18
 -1      2912 9.52718E-05-2.85127E-05-2.86099E-05 1.01358E-07-1.09228E-18-1.48398E-18
 -1      2913 9.52697E-05-2.84829E-05-2.86235E-05 1.40339E-07-1.41043E-18-2.08354E-18
 -1      2914 9.52456E-05-2.85359E-05-2.85899E-05 2.41188E-08 8.00035E-19-2.45391E-18
 -1      2915 9.52529E-05-2.85291E-05-2.85951E-05 4.43963E-08 4.00028E-19-1.10340E-18
 -1      2916 9.52557E-05-2.85092E-05-2.86061E-05 7.08404E-08 5.26847E-20-2.36308E-18
 -1      2917 9.52389E-05-2.85488E-05-2.85814E-05-6.52851E-09 7.51493E-19-9.30385E-19
 -1      2918 9.52420E-05-2.85430E-05-2.85847E-05 6.00343E-09 8.63346E-19-2.11964E-18
 -1      2919 9.52469E-05-2.85300E-05-2.85933E-05 2.30888E-08 7.03439E-19-2.79957E-18
 -1      2920 9.52373E-05-2.85579E-05-2.85768E-05-2.19732E-08 9.69414E-19-1.89489E-18
 -1      2921 9.52379E-05-2.85525E-05-2.85791E-05-1.49531E-08 9.16774E-19-1.70087E-18
 -1      2922 9.52433E-05-2.85445E-05-2.85855E-05-4.50327E-09 7.32297E-19-1.97218E-18
 -1      2923 9.52431E-05-2.85556E-05-2.85806E-05-1.89643E-08 6.41921E-19-2.90141E-18
 -1      2924 1.16523E-04-5.74427E-05-2.56607E-05 2.79139E-05-2.43480E-18 1.01273E-18
 -1      2925 1.00028E-04-5.12049E-05-2.04304E-05 3.52261E-05-3.36600E-18 1.64522E-18
 -1      2926 9.52386E-05-2.85478E-05-2.85819E-05-1.22736E-09-6.58706E-19-1.01804E-18
 -1      2927 9.52389E-05-2.85481E-05-2.85818E-05-3.34418E-09 4.63278E-19-1.23815E-18
 -1      2928 9.52401E-05-2.85660E-05-2.85744E-05 2.94281E-08-2.56650E-18 1.54811E-18
 -1      2929 9.52404E-05-2.85704E-05-2.85729E-05 3.11223E-08-1.88976E-18 2.03988E-18
 -1      2930 9.52436E-05-2.85610E-05-2.85785E-05 2.40344E-08-1.35049E-18-1.21757E-18
 -1      2931 9.52427E-05-2.85552E-05-2.85805E-05-9.61979E-09 9.91790E-19 5.82714E-19
 -1      2932 9.52436E-05-2.85568E-05-2.85800E-05-1.27003E-08 1.36212E-18-5.68170E-19
 -1      2933 9.52393E-05-2.85485E-05-2.85818E-05 2.15227E-09 2.80657E-19 8.29213E-19
 -1      2934 9.52388E-05-2.85479E-05-2.85819E-05-2.61960E-11-7.99943E-19-6.23075E-19
 -1      2935 9.52344E-05-2.85289E-05-2.85879E-05-7.25260E-10 3.51359E-19-1.26611E-18
 -1      2936 9.52400E-05-2.85502E-05-2.85814E-05-4.81776E-09 2.84930E-19-1.20783E-18
 -1      2937 9.52409E-05-2.85514E-05-2.85812E-05-7.30956E-09 2.52195E-19 5.79312E-19
 -1      2938 9.52387E-05-2.85368E-05-2.85863E-05-5.66511E-09 5.52558E-19 1.74028E-20
 -1      2939 9.52355E-05-2.85308E-05-2.85875E-05-2.57679E-09 7.10770E-19-1.09039E-18
 -1      2940 9.52416E-05-2.85520E-05-2.85812E-05 6.34960E-09 1.32821E-18-9.52293E-19
 -1      2941 9.52405E-05-2.85507E-05-2.85815E-05 3.73946E-09 8.28119E-19 3.67332E-19
 -1      2942 9.52360E-05-2.85313E-05-2.85875E-05 1.25830E-09 1.01304E-18 6.61328E-19
 -1      2943 9.52445E-05-2.85577E-05-2.85800E-05 1.22342E-08 1.59984E-18-7.60275E-19
 -1      2944 9.52435E-05-2.85560E-05-2.85805E-05 8.90605E-09 1.80601E-18-9.58962E-20
 -1      2945 9.52396E-05-2.85376E-05-2.85864E-05 4.71695E-09 1.31270E-18-7.41852E-19
 -1      2946 9.52462E-05-2.85640E-05-2.85781E-05 1.96098E-08 3.57958E-19-1.73344E-18
 -1      2947 9.52462E-05-2.85624E-05-2.85789E-05 1.57613E-08 1.72042E-18-2.06624E-18
 -1      2948 9.52435E-05-2.85463E-05-2.85844E-05 1.04955E-08 1.68835E-18-1.59444E-18
 -1      2949 9.49039E-05-2.04833E-05-3.19278E-05-5.96064E-06-2.82450E-18-1.56863E-18
 -1      2950 9.54391E-05-2.22071E-05-3.13992E-05-3.91391E-06-2.65624E-18-1.32634E-18
 -1      2951 8.31251E-05-4.40235E-05-1.67680E-05 4.03689E-05-3.10427E-18 2.43840E-18
 -1      2952 6.77452E-05-3.48006E-05-1.35688E-05 3.79934E-05-3.29708E-18 3.29771E-18
 -1      2953 5.12971E-05-2.47913E-05-1.11119E-05 3.28839E-05-3.24795E-18 3.64510E-18
 -1      2954 3.88811E-05-1.65811E-05-8.89549E-06 2.06898E-05-2.67059E-18 4.11912E-18
 -1      2955 1.18842E-04-5.91372E-05-2.58955E-05 2.66931E-05 2.16311E-18-6.73563E-19
 -1      2956 1.02156E-04-5.25157E-05-2.08892E-05 3.34439E-05 2.39562E-18-1.65812E-18
 -1      2957 9.56198E-05-2.18458E-05-3.16209E-05 5.79909E-06 2.77112E-18-1.05944E-18
 -1      2958 8.81228E-05-4.63009E-05-1.78445E-05 3.83199E-05 2.15379E-18-2.84857E-18
 -1      2959 7.12225E-05-3.63366E-05-1.44763E-05 3.64067E-05 2.49674E-18-4.03886E-18
 -1      2960 1.00658E-04-4.89377E-05-2.17269E-05 3.12010E-05 2.91046E-18-1.34080E-18
 -1      2961 7.25733E-05-3.75708E-05-1.45401E-05-3.85158E-05-3.26658E-18-3.59269E-18
 -1      2962 8.86760E-05-4.59318E-05-1.81582E-05-3.86046E-05-3.37363E-18-1.85389E-18
 -1      2963 9.69186E-05-2.74056E-05-2.97861E-05-3.19602E-06 1.32947E-18-1.00089E-18
 -1      2964 9.67559E-05-2.70323E-05-2.98543E-05-2.30408E-06 1.52429E-18-8.66835E-19
 -1      2965 9.66908E-05-2.70007E-05-2.98812E-05-3.72301E-06 1.35219E-18-1.10185E-18
 -1      2966 9.92457E-05-2.96020E-05-2.98475E-05-6.28130E-06 4.59109E-19-6.97072E-19
 -1      2967 9.85864E-05-2.91204E-05-2.97579E-05-6.08486E-06 5.81650E-19-9.92819E-19
 -1      2968 9.78081E-05-2.85708E-05-2.96884E-05-6.34958E-06 5.30652E-19-1.26117E-18
 -1      2969 9.88564E-05-2.96118E-05-2.96938E-05-7.00827E-06 2.78451E-19-7.56557E-19
 -1      2970 9.66692E-05-2.65961E-05-3.00287E-05-1.20307E-06 1.70280E-18-9.79983E-19
 -1      2971 9.66677E-05-2.60725E-05-3.02186E-05 6.19161E-08 1.87555E-18-8.52585E-19
 -1      2972 9.61827E-05-2.46393E-05-3.06639E-05 1.01411E-06 2.20701E-18-1.27475E-18
 -1      2973 9.64297E-05-2.60625E-05-3.01681E-05-1.67962E-06 1.66575E-18-1.19437E-18
 -1      2974 5.72764E-05-3.00784E-05-1.10900E-05-3.40599E-05 3.16367E-18 2.25904E-18
 -1      2975 7.33474E-05-3.93389E-05-1.45515E-05-3.85868E-05 2.73920E-18 2.75603E-19
 -1      2976 5.72470E-05-2.60636E-05-1.27619E-05-2.96506E-05 2.81983E-18 2.27566E-18
 -1      2977 1.39935E-04-5.81117E-05-3.54989E-05 3.54350E-06-2.77668E-20 1.52762E-18
 -1      2978 1.31311E-04-5.99924E-05-3.04593E-05 1.36856E-05 1.45224E-18 9.78958E-19
 -1      2979 9.59710E-05-2.35333E-05-3.10298E-05-2.39351E-06-2.30106E-18-1.25765E-18
 -1      2980 9.60238E-05-2.44229E-05-3.06938E-05-5.87565E-07-1.96717E-18-1.24225E-18
 -1      2981 9.54492E-05-2.36273E-05-3.07772E-05-1.64611E-08-1.83362E-18-1.44058E-18
 -1      2982 9.48101E-05-2.15107E-05-3.14090E-05-2.90971E-06-2.41383E-18-1.75881E-18
 -1      2983 3.07505E-05-1.30108E-05-7.14197E-06 1.07667E-06-3.58957E-19-7.46554E-18
 -1      2984 3.14752E-05-1.48089E-05-6.47950E-06-1.37165E-05-1.25149E-18-7.62436E-18
 -1      2985 1.23157E-04-8.85398E-06-4.95196E-05 8.29898E-07 5.72933E-18-1.76433E-18
 -1      2986 1.23227E-04-1.01968E-05-4.90206E-05-5.19879E-06 4.96658E-18-2.86995E-18
 -1      2987 8.98118E-05-1.44107E-05-3.23371E-05 3.08773E-06 1.51721E-18-3.29278E-18
 -1      2988 8.91238E-05-1.36888E-05-3.23556E-05 2.37943E-06 1.15750E-18-3.53469E-18
 -1      2989 8.97066E-05-1.49002E-05-3.20411E-05 1.56316E-06 9.82111E-19-3.36464E-18
 -1      2990 9.11452E-05-1.65158E-05-3.19626E-05 2.48903E-06 1.48911E-18-2.92242E-18
 -1      2991 8.88651E-05-1.33901E-05-3.23722E-05-2.44519E-06-1.28639E-18-3.61121E-18
 -1      2992 8.95342E-05-1.40829E-05-3.23587E-05-3.10280E-06-1.58566E-18-3.42424E-18
 -1      2993 1.33466E-04-5.63805E-05-3.30360E-05-9.72419E-06-3.45537E-19 2.45110E-18
 -1      2994 1.37451E-04-5.08705E-05-3.76502E-05-5.67749E-07 1.01100E-18 3.20856E-18
 -1      2995 5.13445E-05-2.43699E-05-1.12651E-05 3.04272E-05 1.74859E-18-5.80239E-18
 -1      2996 3.90425E-05-1.62669E-05-9.16150E-06 1.70422E-05 8.61644E-19-6.42030E-18
 -1      2997 9.52433E-05-2.85713E-05-2.85738E-05 2.98858E-08-1.95010E-18 1.80981E-19
 -1      2998 9.22079E-05-1.60983E-05-3.26284E-05-6.89876E-06-2.71922E-18-2.40579E-18
 -1      2999 3.11187E-05-1.24916E-05-7.64752E-06 7.05608E-06-1.21962E-18 4.19112E-18
 -1      3000 3.16331E-05-1.30865E-05-7.37838E-06-7.57296E-06 3.11443E-19 5.54277E-18
 -1      3001 1.23020E-04-5.95945E-05-2.69691E-05-2.17565E-05 1.51926E-18-2.42320E-18
 -1      3002 1.31570E-04-6.03782E-05-3.08628E-05-1.39801E-05 5.70159E-19-3.71985E-18
 -1      3003 1.35853E-04-5.57251E-05-3.47463E-05 7.37419E-06 4.08640E-19-1.96649E-18
 -1      3004 1.29203E-04-5.76670E-05-3.03550E-05 1.49067E-05-1.02766E-18-7.91817E-19
 -1      3005 1.37559E-04-4.08827E-05-4.15756E-05 7.67301E-06 2.23839E-18 2.99871E-18
 -1      3006 1.34406E-04-3.07255E-05-4.50943E-05 1.10956E-05 3.69211E-18 2.50690E-18
 -1      3007 1.29393E-04-1.92989E-05-4.76267E-05 1.11042E-05 4.75313E-18 1.80778E-18
 -1      3008 1.25603E-04-1.20176E-05-4.93610E-05 6.95929E-06 5.30412E-18 1.67315E-19
 -1      3009 1.36064E-04-4.72866E-05-3.83857E-05-9.16787E-06-7.06108E-19 2.76869E-18
 -1      3010 1.37086E-04-5.16797E-05-3.69703E-05 5.88444E-06 5.17219E-20-2.67721E-18
 -1      3011 1.29721E-04-4.83209E-05-3.49514E-05 8.96787E-06 8.44776E-19-3.76654E-18
 -1      3012 1.28483E-04-5.03489E-05-3.34813E-05 4.92577E-06 1.91628E-18-3.89490E-18
 -1      3013 1.35526E-04-5.78393E-05-3.32713E-05-4.11613E-06 6.01168E-19-3.54081E-18
 -1      3014 9.03610E-05-1.50206E-05-3.23148E-05-3.56985E-06-1.75477E-18-3.13257E-18
 -1      3015 9.12615E-05-1.59887E-05-3.22768E-05-4.22086E-06-2.14171E-18-2.85790E-18
 -1      3016 9.08084E-05-1.61032E-05-3.19917E-05-2.50570E-06-1.56031E-18-3.00781E-18
 -1      3017 8.83862E-05-1.34808E-05-3.20846E-05-1.40223E-07-3.93725E-20-3.56392E-18
 -1      3018 8.75614E-05-1.20203E-05-3.23944E-05-3.20157E-07-1.72029E-19-3.82416E-18
 -1      3019 8.76675E-05-1.21240E-05-3.23955E-05-9.33032E-07-5.30759E-19-3.83529E-18
 -1      3020 1.33081E-04-3.26603E-05-4.34085E-05-1.10925E-05 2.98621E-18-3.64023E-18
 -1      3021 1.24106E-04-1.69471E-05-4.70341E-05-8.43908E-06-4.77007E-18 4.69547E-19
 -1      3022 1.25101E-04-5.82748E-05-2.85869E-05 1.63987E-05 2.61895E-18 8.96849E-19
 -1      3023 1.16687E-04-5.63265E-05-2.56074E-05-2.33809E-05 2.35835E-18-2.36253E-18
 -1      3024 1.26444E-04-5.26866E-05-3.18309E-05-1.67351E-06 2.03486E-18-3.61215E-18
 -1      3025 1.30749E-04-5.69866E-05-3.14724E-05-6.29397E-06 1.43884E-18-3.78440E-18
 -1      3026 1.35183E-04-5.05722E-05-3.65390E-05-1.32875E-06 7.61112E-19-3.14884E-18
 -1      3027 9.52424E-05-2.85454E-05-2.85843E-05-1.07951E-08 1.90322E-18-1.05486E-18
 -1      3028 9.52453E-05-2.85615E-05-2.85789E-05-1.59841E-08 1.93769E-18-5.60442E-19
 -1      3029 9.52453E-05-2.85626E-05-2.85782E-05-1.93983E-08 2.40186E-18-7.48115E-19
 -1      3030 9.55437E-05-4.69872E-05-2.04510E-05 3.40545E-05-2.83502E-18 1.75818E-18
 -1      3031 1.22080E-04-5.65877E-05-2.80327E-05 1.87126E-05-1.84118E-18 1.81477E-19
 -1      3032 9.27222E-05-1.75653E-05-3.22080E-05-5.19081E-06-2.43549E-18-2.41687E-18
 -1      3033 9.52451E-05-2.85672E-05-2.85762E-05-2.43868E-08 4.57708E-19-2.60366E-18
 -1      3034 4.10009E-05-1.73713E-05-9.51972E-06-1.91340E-05-2.13293E-18-6.81967E-18
 -1      3035 4.06206E-05-1.45850E-05-1.04957E-05-1.20969E-05 1.30665E-18 4.12664E-18
 -1      3036 9.52456E-05-2.85704E-05-2.85749E-05 2.62983E-08-1.21948E-18-1.01489E-18
 -1      3037 9.49608E-05-2.11046E-05-3.16621E-05 4.92881E-06 2.61096E-18-1.45933E-18
 -1      3038 9.50308E-05-2.19022E-05-3.13310E-05 3.18758E-06 2.36595E-18-1.57401E-18
 -1      3039 6.44260E-05-2.92132E-05-1.46086E-05 3.27106E-05-3.25488E-18 4.05708E-18
 -1      3040 4.21667E-05-1.45562E-05-1.11862E-05 1.30271E-05-1.86750E-18 3.52217E-18
 -1      3041 9.39756E-05-4.55560E-05-2.05064E-05-3.37830E-05-3.86877E-18-8.25328E-19
 -1      3042 1.00435E-04-5.07567E-05-2.09134E-05-3.47129E-05-3.43186E-18-5.90475E-19
 -1      3043 1.10246E-04-5.40287E-05-2.41456E-05-2.82929E-05-3.05361E-18 1.06455E-18
 -1      3044 1.34097E-04-4.58655E-05-3.79630E-05 5.74259E-06 9.07940E-19 3.51370E-18
 -1      3045 6.59241E-05-3.24717E-05-1.39251E-05-3.66168E-05-3.35976E-18-4.31807E-18
 -1      3046 7.68205E-05-3.55022E-05-1.73954E-05-3.41707E-05-3.97730E-18-2.71665E-18
 -1      3047 5.91497E-05-2.64490E-05-1.36144E-05-3.18997E-05-3.22190E-18-4.76678E-18
 -1      3048 8.71291E-05-4.30828E-05-1.84363E-05-3.43243E-05 3.32355E-18-2.93815E-19
 -1      3049 3.92009E-05-1.38770E-05-1.02037E-05 9.79418E-06 3.29046E-19-6.48615E-18
 -1      3050 4.17946E-05-1.25374E-05-1.21353E-05 1.35444E-06-4.23675E-19-6.23734E-18
 -1      3051 4.90981E-05-1.59592E-05-1.39427E-05 1.50465E-05 1.07334E-18-5.50783E-18
 -1      3052 8.79244E-05-1.23983E-05-3.23909E-05-1.36712E-06-7.21001E-19-3.71108E-18
 -1      3053 8.83132E-05-1.27841E-05-3.23893E-05-1.99459E-06-1.08903E-18-3.65681E-18
 -1      3054 8.94233E-05-1.45759E-05-3.20571E-05-1.70371E-06-1.15388E-18-3.42110E-18
 -1      3055 8.86037E-05-1.37054E-05-3.20809E-05-9.21681E-07-5.79400E-19-3.57548E-18
 -1      3056 1.19740E-04-1.24671E-05-4.64197E-05 4.08997E-06 4.26841E-18-1.33527E-19
 -1      3057 6.78438E-05-3.02651E-05-1.56556E-05 3.07916E-05 2.39509E-18-4.54719E-18
 -1      3058 1.16295E-04-1.34646E-05-4.43060E-05-6.10672E-06 4.43178E-18-3.30920E-18
 -1      3059 1.23087E-04-1.50079E-05-4.68050E-05-8.66421E-06 4.38382E-18-2.85207E-18
 -1      3060 1.21235E-04-1.95808E-05-4.38276E-05-1.21398E-05 3.57289E-18-3.42339E-18
 -1      3061 9.52449E-05-2.85598E-05-2.85794E-05 2.23098E-08-8.35595E-19-2.94100E-18
 -1      3062 9.52462E-05-2.85641E-05-2.85781E-05 2.15440E-08 1.75908E-19-3.20383E-18
 -1      3063 9.52457E-05-2.85514E-05-2.85830E-05 1.53287E-08 1.27462E-18-2.57611E-18
 -1      3064 9.52453E-05-2.85531E-05-2.85821E-05 1.76141E-08 1.99229E-19-3.99133E-18
 -1      3065 1.29324E-04-5.82385E-05-3.05123E-05-1.48016E-05-1.36362E-18 1.87035E-18
 -1      3066 1.29754E-04-5.53004E-05-3.19930E-05-6.15301E-06-1.53860E-18 2.99220E-18
 -1      3067 1.22221E-04-5.69047E-05-2.78676E-05-1.91871E-05-2.05146E-18 2.04703E-18
 -1      3068 1.37854E-04-5.61773E-05-3.53503E-05-4.68989E-07 4.20472E-19 2.28101E-18
 -1      3069 9.39909E-05-2.07504E-05-3.14059E-05 2.29536E-06 2.02535E-18-1.79442E-18
 -1      3070 9.30298E-05-1.94801E-05-3.15290E-05 2.00558E-06 1.67107E-18-2.13403E-18
 -1      3071 5.58442E-05-2.14784E-05-1.43399E-05-2.45646E-05 2.36269E-18 1.86898E-18
 -1      3072 6.66845E-05-2.89396E-05-1.60757E-05-3.07990E-05 2.85217E-18 9.86688E-19
 -1      3073 1.06267E-04-5.00315E-05-2.43577E-05 2.63851E-05 2.93238E-18-4.85456E-20
 -1      3074 9.48610E-05-4.33096E-05-2.17085E-05 2.95404E-05 2.85085E-18-1.09564E-18
 -1      3075 1.16779E-04-1.51538E-05-4.39637E-05 8.23408E-06 2.96970E-18 9.14690E-19
 -1      3076 1.14083E-04-1.18555E-05-4.41946E-05 9.96213E-07 3.40846E-18-1.49513E-18
 -1      3077 9.48413E-05-2.45545E-05-3.01189E-05 4.16192E-06-1.10299E-18-1.60667E-18
 -1      3078 9.48184E-05-2.48374E-05-2.99911E-05 5.24159E-06-1.11698E-18-1.59389E-18
 -1      3079 9.45790E-05-2.49876E-05-2.98251E-05 6.22057E-06-1.15055E-18-1.40125E-18
 -1      3080 9.45710E-05-2.51697E-05-2.97377E-05 7.17030E-06-1.09834E-18-1.52238E-18
 -1      3081 9.37474E-05-2.40051E-05-2.98859E-05 5.49681E-06-1.08572E-18-1.91561E-18
 -1      3082 9.42614E-05-2.52424E-05-2.95836E-05 8.08841E-06-9.11389E-19-1.47452E-18
 -1      3083 9.43278E-05-2.54469E-05-2.95095E-05 8.95673E-06-6.21627E-19-1.51735E-18
 -1      3084 9.32038E-05-2.42796E-05-2.95350E-05 7.40062E-06-9.33787E-19-1.58362E-18
 -1      3085 9.40240E-05-2.55776E-05-2.93398E-05 9.86929E-06-2.61655E-19-1.45659E-18
 -1      3086 9.42574E-05-2.59567E-05-2.92540E-05 1.06797E-05-6.78617E-20-1.09000E-18
 -1      3087 9.25851E-05-2.45076E-05-2.91736E-05 9.23084E-06-3.81444E-19-1.64428E-18
 -1      3088 9.40829E-05-2.63231E-05-2.90427E-05 1.16373E-05-3.62925E-22-1.07740E-18
 -1      3089 9.46466E-05-2.70864E-05-2.89264E-05 1.23810E-05 1.63756E-19-1.15273E-18
 -1      3090 9.20778E-05-2.50106E-05-2.87462E-05 1.11104E-05 8.06793E-20-1.41421E-18
 -1      3091 9.48189E-05-2.79349E-05-2.86557E-05 1.34222E-05 3.25923E-19-1.01295E-18
 -1      3092 9.59861E-05-2.93681E-05-2.85080E-05 1.40380E-05 3.96380E-19-9.43565E-19
 -1      3093 9.20004E-05-2.62280E-05-2.82049E-05 1.31653E-05 3.23829E-19-1.76432E-18
 -1      3094 9.68872E-05-3.10350E-05-2.81851E-05 1.51492E-05 2.94920E-19-6.84815E-19
 -1      3095 9.90461E-05-3.34592E-05-2.80485E-05 1.54491E-05 5.44857E-19-9.38885E-19
 -1      3096 9.29139E-05-2.87799E-05-2.75315E-05 1.54960E-05 3.79114E-19-1.48025E-18
 -1      3097 1.01359E-04-3.63557E-05-2.77502E-05 1.64488E-05 9.50015E-19-5.64738E-19
 -1      3098 1.05263E-04-4.00093E-05-2.78206E-05 1.58484E-05 1.30184E-18-1.69450E-19
 -1      3099 9.58098E-05-3.34742E-05-2.67871E-05 1.81365E-05 8.75465E-19-8.50421E-19
 -1      3100 1.07186E-04-4.39136E-05-2.69483E-05 1.83432E-05 1.91264E-18 2.97090E-20
 -1      3101 1.12850E-04-4.83600E-05-2.74248E-05 1.66582E-05 2.42413E-18 6.60064E-19
 -1      3102 1.05520E-04-4.07922E-05-2.77407E-05-1.54214E-05 1.32325E-18-2.96632E-18
 -1      3103 1.01906E-04-3.68258E-05-2.77547E-05-1.56751E-05 1.04528E-18-2.26880E-18
 -1      3104 9.94567E-05-3.39075E-05-2.80407E-05-1.47113E-05 9.95032E-19-1.63148E-18
 -1      3105 9.71301E-05-3.13177E-05-2.81658E-05-1.44019E-05 1.40377E-18-6.62551E-19
 -1      3106 9.60358E-05-3.39312E-05-2.66997E-05-1.75163E-05 1.60220E-18-1.26747E-18
 -1      3107 9.60549E-05-2.95174E-05-2.84742E-05-1.32513E-05 9.49498E-19-9.02595E-19
 -1      3108 9.47723E-05-2.79934E-05-2.86110E-05-1.26320E-05 5.44248E-19-6.61362E-19
 -1      3109 9.27306E-05-2.88910E-05-2.74099E-05-1.48816E-05 1.44242E-18-5.46042E-19
 -1      3110 9.44877E-05-2.70833E-05-2.88590E-05-1.15648E-05 1.65775E-19-1.03370E-18
 -1      3111 9.38480E-05-2.63012E-05-2.89537E-05-1.08367E-05 6.54531E-20-7.19986E-19
 -1      3112 9.15485E-05-2.61514E-05-2.80455E-05-1.24691E-05 3.23658E-19-1.29092E-18
 -1      3113 9.39509E-05-2.59521E-05-2.91230E-05-9.89821E-06 1.25350E-19-4.80138E-19
 -1      3114 9.36626E-05-2.56320E-05-2.91663E-05-9.15586E-06-1.15738E-19-3.59923E-19
 -1      3115 9.14551E-05-2.49153E-05-2.85187E-05-1.04109E-05 3.08022E-19-6.84943E-19
 -1      3116 9.39251E-05-2.56063E-05-2.92658E-05-8.33762E-06-1.42612E-19-4.50188E-19
 -1      3117 9.38109E-05-2.55498E-05-2.92666E-05-7.62847E-06 2.10489E-19-2.44416E-19
 -1      3118 9.18596E-05-2.45798E-05-2.88287E-05-8.66088E-06 1.56828E-21-1.03187E-18
 -1      3119 9.41125E-05-2.56916E-05-2.93128E-05-6.91611E-06-3.53335E-19-3.36912E-19
 -1      3120 9.40752E-05-2.57716E-05-2.92844E-05-6.26614E-06 2.74480E-19-5.87929E-19
 -1      3121 9.24372E-05-2.47398E-05-2.90056E-05-7.15619E-06-2.93875E-19-6.05215E-19
 -1      3122 9.43583E-05-2.59856E-05-2.92939E-05-5.64932E-06 1.86432E-19-7.51025E-19
 -1      3123 9.43492E-05-2.61260E-05-2.92487E-05-5.07221E-06-2.98031E-19-8.88405E-19
 -1      3124 9.30234E-05-2.51413E-05-2.90850E-05-5.85450E-06-2.68687E-19-6.02831E-19
 -1      3125 9.45907E-05-2.63578E-05-2.92351E-05-4.54360E-06-7.05288E-20-1.06454E-18
 -1      3126 9.45882E-05-2.65159E-05-2.91826E-05-4.04458E-06-5.50866E-20-8.68962E-19
 -1      3127 9.35449E-05-2.56333E-05-2.90988E-05-4.73149E-06-5.90759E-20-1.72592E-18
 -1      3128 9.47830E-05-2.67369E-05-2.91560E-05-3.59770E-06-6.59141E-19-8.18591E-19
 -1      3129 9.47793E-05-2.68901E-05-2.91026E-05-3.17596E-06-1.34897E-18-9.79327E-19
 -1      3130 9.39769E-05-2.61311E-05-2.90720E-05-3.77185E-06-4.09529E-19-2.47041E-18
 -1      3131 9.49308E-05-2.70871E-05-2.90701E-05-2.80388E-06-1.99918E-19-5.36091E-19
 -1      3132 9.49241E-05-2.72250E-05-2.90197E-05-2.45463E-06 1.09144E-18 3.51274E-19
 -1      3133 9.43195E-05-2.65916E-05-2.90228E-05-2.96280E-06-2.44401E-19-1.14561E-18
 -1      3134 9.50388E-05-2.73933E-05-2.89860E-05-2.14969E-06-1.49219E-20 1.12795E-19
 -1      3135 9.50298E-05-2.75121E-05-2.89408E-05-1.86573E-06-3.46608E-19-4.23075E-19
 -1      3136 9.45828E-05-2.69956E-05-2.89636E-05-2.29110E-06 6.72154E-19-5.00921E-19
 -1      3137 9.51148E-05-2.76517E-05-2.89085E-05-1.61974E-06-2.95851E-19-7.34898E-19
 -1      3138 9.51047E-05-2.77510E-05-2.88695E-05-1.39275E-06-7.78770E-21-8.15214E-19
 -1      3139 9.47806E-05-2.73379E-05-2.89025E-05-1.74225E-06-5.67432E-19-6.41479E-19
 -1      3140 9.51666E-05-2.78644E-05-2.88403E-05-1.19741E-06 3.04241E-19-9.42119E-19
 -1      3141 9.51566E-05-2.79455E-05-2.88075E-05-1.01888E-06 7.82964E-19-1.18020E-18
 -1      3142 9.49264E-05-2.76207E-05-2.88443E-05-1.30089E-06 4.33545E-20-3.27220E-19
 -1      3143 9.52007E-05-2.80359E-05-2.87821E-05-8.66162E-07 1.02954E-18-1.52110E-18
 -1      3144 9.51916E-05-2.81011E-05-2.87552E-05-7.27944E-07 9.95474E-19-1.47025E-18
 -1      3145 9.50318E-05-2.78497E-05-2.87918E-05-9.51581E-07 3.68603E-19-4.65367E-19
 -1      3146 9.52224E-05-2.81720E-05-2.87336E-05-6.10420E-07 9.33213E-19-1.25269E-18
 -1      3147 9.52145E-05-2.82235E-05-2.87120E-05-5.05105E-07 1.11557E-18-1.49779E-18
 -1      3148 9.51067E-05-2.80319E-05-2.87461E-05-6.79461E-07 1.17301E-18-3.80494E-19
 -1      3149 9.52355E-05-2.82783E-05-2.86941E-05-4.16130E-07 5.36414E-19-1.77823E-18
 -1      3150 9.52289E-05-2.83185E-05-2.86771E-05-3.37217E-07-3.15456E-20-1.93214E-18
 -1      3151 9.51587E-05-2.81746E-05-2.87074E-05-4.70867E-07 5.61321E-19-1.35623E-18
 -1      3152 9.52428E-05-2.83603E-05-2.86625E-05-2.71030E-07 7.37531E-19-1.80321E-18
 -1      3153 9.52375E-05-2.83913E-05-2.86492E-05-2.12990E-07 1.53579E-18-2.28280E-18
 -1      3154 9.51938E-05-2.82849E-05-2.86753E-05-3.13647E-07 6.32468E-19-8.08474E-19
 -1      3155 9.52462E-05-2.84227E-05-2.86376E-05-1.64734E-07 1.03816E-18-2.63125E-18
 -1      3156 9.52422E-05-2.84464E-05-2.86274E-05-1.22992E-07 1.30639E-18-2.43891E-18
 -1      3157 9.52167E-05-2.83689E-05-2.86491E-05-1.97329E-07 1.56855E-18-1.24919E-18
 -1      3158 9.52473E-05-2.84699E-05-2.86181E-05-8.86820E-08 1.24490E-18-2.67092E-18
 -1      3159 9.52443E-05-2.84880E-05-2.86103E-05-5.95668E-08 8.61342E-19-3.31383E-18
 -1      3160 9.52308E-05-2.84323E-05-2.86280E-05-1.13139E-07 7.26709E-19-2.87043E-18
 -1      3161 9.52469E-05-2.85056E-05-2.86029E-05-3.60579E-08 3.62915E-19-3.04501E-18
 -1      3162 9.52450E-05-2.85196E-05-2.85969E-05-1.67207E-08-3.40777E-19-2.67390E-18
 -1      3163 9.52390E-05-2.84799E-05-2.86111E-05-5.39957E-08 6.45833E-19-3.23574E-18
 -1      3164 9.52462E-05-2.85321E-05-2.85913E-05-2.80069E-09-7.93048E-19-3.25589E-18
 -1      3165 9.52450E-05-2.85432E-05-2.85866E-05 9.09262E-09-1.50165E-19-3.35673E-18
 -1      3166 9.52451E-05-2.85416E-05-2.85875E-05 7.97084E-09-3.65101E-19-4.55193E-18
 -1      3167 9.52432E-05-2.85153E-05-2.85979E-05-1.56685E-08-9.32970E-20-3.67648E-18
 -1      3168 9.66949E-05-2.73534E-05-2.97149E-05-5.69994E-06 7.93373E-19-1.31550E-18
 -1      3169 9.64248E-05-2.69242E-05-2.97734E-05-5.01185E-06 1.04568E-18-1.11551E-18
 -1      3170 1.02186E-04-3.34580E-05-2.94630E-05-7.41503E-06-3.18780E-19-3.03055E-19
 -1      3171 1.00988E-04-3.22405E-05-2.94297E-05-7.85516E-06-1.31392E-19-6.06557E-19
 -1      3172 9.99057E-05-3.11540E-05-2.94654E-05-7.85724E-06 3.47995E-21-8.87475E-19
 -1      3173 9.90087E-05-3.02280E-05-2.94552E-05-7.89600E-06-6.00268E-20-1.01547E-18
 -1      3174 9.94085E-05-3.15292E-05-2.91274E-05-8.77743E-06-2.87862E-19-9.00636E-19
 -1      3175 1.09011E-04-3.93605E-05-2.98914E-05-3.16985E-06-8.00188E-19 5.45387E-19
 -1      3176 1.07433E-04-3.79994E-05-2.96976E-05-4.80796E-06-5.16832E-19 2.71443E-19
 -1      3177 1.12769E-04-4.14338E-05-3.06228E-05 1.19220E-06-7.37795E-19 1.21032E-18
 -1      3178 1.11493E-04-4.07978E-05-3.02423E-05-1.06254E-06-7.36992E-19 9.82348E-19
 -1      3179 1.10526E-04-4.14263E-05-2.96701E-05-4.12445E-06-1.03674E-18 6.15147E-19
 -1      3180 1.15282E-04-4.07773E-05-3.19486E-05 6.54096E-06-1.03273E-19 1.47107E-18
 -1      3181 1.14864E-04-4.17541E-05-3.13196E-05 4.18644E-06-4.32291E-19 1.35016E-18
 -1      3182 1.15244E-04-4.35743E-05-3.07606E-05 9.43873E-07-5.52800E-19 1.08429E-18
 -1      3183 1.14815E-04-3.56602E-05-3.39286E-05 1.11448E-05 8.60367E-19 1.52499E-18
 -1      3184 1.15878E-04-3.89580E-05-3.30624E-05 9.73886E-06 3.19358E-19 1.63960E-18
 -1      3185 1.18401E-04-4.23524E-05-3.26016E-05 7.09441E-06-1.39751E-19 1.55735E-18
 -1      3186 1.11329E-04-2.68995E-05-3.61755E-05 1.15502E-05 1.09744E-18 1.10016E-18
 -1      3187 1.13530E-04-3.15833E-05-3.53088E-05 1.23116E-05 1.12943E-18 1.61560E-18
 -1      3188 1.17675E-04-3.48550E-05-3.55126E-05 1.21148E-05 1.07696E-18 1.88315E-18
 -1      3189 1.08075E-04-1.78548E-05-3.87581E-05 3.41121E-06 2.02737E-18-3.47343E-19
 -1      3190 1.09388E-04-2.04157E-05-3.83170E-05 7.79347E-06 1.52119E-18-2.21817E-20
 -1      3191 1.08062E-04-1.77421E-05-3.89086E-05-1.40865E-06 2.60616E-18-1.08658E-18
 -1      3192 1.10779E-04-2.63202E-05-3.64231E-05-1.15256E-05 2.16660E-18-1.89393E-18
 -1      3193 1.08613E-04-2.19519E-05-3.72086E-05-9.43475E-06 2.59867E-18-1.55559E-18
 -1      3194 1.14740E-04-3.50825E-05-3.42766E-05-1.23201E-05 1.57260E-18-2.66694E-18
 -1      3195 1.12962E-04-3.08007E-05-3.51676E-05-1.26106E-05 2.03854E-18-2.70913E-18
 -1      3196 1.14930E-04-2.85092E-05-3.70148E-05-1.30580E-05 2.54608E-18-2.99425E-18
 -1      3197 1.15675E-04-4.04109E-05-3.22826E-05-8.16995E-06 7.80036E-19-2.86257E-18
 -1      3198 1.15174E-04-3.81417E-05-3.30368E-05-1.01276E-05 1.22712E-18-2.98871E-18
 -1      3199 1.17857E-04-3.81060E-05-3.41944E-05-1.11620E-05 1.65869E-18-3.41589E-18
 -1      3200 1.13457E-04-4.13084E-05-3.08854E-05-2.63783E-06-1.59086E-19-1.98244E-18
 -1      3201 1.14257E-04-4.11593E-05-3.13863E-05-4.99738E-06 7.87306E-20-2.33177E-18
 -1      3202 1.16938E-04-4.27620E-05-3.18317E-05-5.39392E-06 1.44783E-19-2.54169E-18
 -1      3203 1.09713E-04-3.93682E-05-3.00891E-05 1.87574E-06-1.17854E-18-8.74843E-19
 -1      3204 1.11139E-04-4.03981E-05-3.03696E-05-7.71294E-08-6.11943E-19-1.21538E-18
 -1      3205 1.13030E-04-4.23671E-05-3.03248E-05 3.74493E-07-1.25282E-18-1.01342E-18
 -1      3206 1.05815E-04-3.63549E-05-2.97149E-05 4.80465E-06-1.21564E-18-1.75961E-19
 -1      3207 1.07352E-04-3.77907E-05-2.98485E-05 3.52066E-06-1.03616E-18-6.07358E-19
 -1      3208 1.08297E-04-3.94750E-05-2.95489E-05 4.41616E-06-1.26706E-18-5.63577E-19
 -1      3209 1.02557E-04-3.34647E-05-2.95714E-05 6.29456E-06-1.13605E-18 2.31088E-19
 -1      3210 1.03895E-04-3.47998E-05-2.96315E-05 5.61285E-06-1.18337E-18 2.89835E-19
 -1      3211 1.04011E-04-3.59047E-05-2.92376E-05 6.62414E-06-1.40472E-18 4.91912E-19
 -1      3212 1.00129E-04-3.11817E-05-2.95236E-05 6.76527E-06-8.08173E-19-1.32316E-19
 -1      3213 1.01175E-04-3.22234E-05-2.95585E-05 6.53204E-06-7.86877E-19 1.87350E-19
 -1      3214 1.00741E-04-3.27780E-05-2.91652E-05 7.46457E-06-1.18554E-18 3.13779E-19
 -1      3215 9.84381E-05-2.95812E-05-2.94961E-05 6.58948E-06-1.10658E-18-2.95516E-19
 -1      3216 9.92119E-05-3.03096E-05-2.95304E-05 6.65564E-06-8.03531E-19-2.56142E-21
 -1      3217 9.84787E-05-3.04418E-05-2.91847E-05 7.44850E-06-8.10243E-19 7.72908E-19
 -1      3218 9.73118E-05-2.85662E-05-2.94559E-05 6.04006E-06-9.79699E-19-9.90053E-19
 -1      3219 9.78685E-05-2.90308E-05-2.94987E-05 6.28614E-06-1.06524E-18-8.96374E-19
 -1      3220 9.70184E-05-2.88804E-05-2.92183E-05 6.94329E-06-8.07948E-19 3.30346E-19
 -1      3221 9.65814E-05-2.79907E-05-2.93943E-05 5.30541E-06 3.49157E-19-1.29234E-18
 -1      3222 9.69788E-05-2.82589E-05-2.94462E-05 5.64432E-06-2.03376E-19-1.69189E-18
 -1      3223 9.61313E-05-2.79446E-05-2.92323E-05 6.18751E-06-2.41308E-19-1.24757E-18
 -1      3224 9.61146E-05-2.77171E-05-2.93143E-05 4.50947E-06 2.89207E-19-5.25075E-19
 -1      3225 9.63995E-05-2.78505E-05-2.93719E-05 4.88144E-06 5.94686E-19-6.58656E-19
 -1      3226 9.56237E-05-2.74607E-05-2.92179E-05 5.33313E-06-2.25151E-19-9.71392E-19
 -1      3227 9.58174E-05-2.76360E-05-2.92231E-05 3.72999E-06-3.57663E-19-9.71405E-20
 -1      3228 9.60239E-05-2.76831E-05-2.92824E-05 4.09650E-06-1.31206E-19-3.25075E-19
 -1      3229 9.53530E-05-2.72773E-05-2.91781E-05 4.47412E-06-8.37802E-20-4.74913E-19
 -1      3230 9.56272E-05-2.76683E-05-2.91283E-05 3.01243E-06 3.39130E-19-1.13190E-18
 -1      3231 9.57788E-05-2.76638E-05-2.91858E-05 3.35061E-06 3.36948E-19-3.05841E-19
 -1      3232 9.52229E-05-2.72788E-05-2.91203E-05 3.66654E-06 2.55844E-19 2.76518E-19
 -1      3233 9.55039E-05-2.77601E-05-2.90361E-05 2.37994E-06-4.15089E-19-1.15224E-18
 -1      3234 9.56165E-05-2.77279E-05-2.90893E-05 2.67803E-06-5.01701E-19-1.48995E-18
 -1      3235 9.51715E-05-2.73836E-05-2.90527E-05 2.94121E-06 2.75872E-19-5.64077E-19
 -1      3236 9.54225E-05-2.78771E-05-2.89509E-05 1.84074E-06 5.28149E-19-1.64731E-18
 -1      3237 9.55067E-05-2.78322E-05-2.89981E-05 2.09450E-06-1.51617E-19-1.52550E-18
 -1      3238 9.51612E-05-2.75374E-05-2.89821E-05 2.31187E-06 1.94929E-19-9.21017E-19
 -1      3239 9.53676E-05-2.79981E-05-2.88751E-05 1.39349E-06 1.48241E-19-1.44963E-18
 -1      3240 9.54307E-05-2.79500E-05-2.89158E-05 1.60348E-06 1.16106E-18-1.51590E-18
 -1      3241 9.51700E-05-2.77058E-05-2.89136E-05 1.78099E-06 3.33628E-19-2.09023E-18
 -1      3242 9.53297E-05-2.81115E-05-2.88098E-05 1.03118E-06-7.01397E-19-1.44960E-18
 -1      3243 9.53768E-05-2.80655E-05-2.88439E-05 1.20077E-06-4.11809E-19-9.91660E-19
 -1      3244 9.51856E-05-2.78688E-05-2.88504E-05 1.34382E-06-3.34865E-19-1.56276E-18
 -1      3245 9.53031E-05-2.82116E-05-2.87551E-05 7.43852E-07-5.99003E-19-1.39568E-18
 -1      3246 9.53380E-05-2.81704E-05-2.87830E-05 8.77875E-07-9.03459E-19-1.18368E-18
 -1      3247 9.52019E-05-2.80158E-05-2.87944E-05 9.91509E-07-9.90385E-19-1.02952E-18
 -1      3248 9.52840E-05-2.82962E-05-2.87103E-05 5.20505E-07 9.22622E-21 3.36627E-19
 -1      3249 9.53097E-05-2.82610E-05-2.87326E-05 6.24276E-07-2.37591E-19-4.67294E-19
 -1      3250 9.52160E-05-2.81421E-05-2.87463E-05 7.13182E-07-8.46243E-19-7.83702E-19
 -1      3251 9.52703E-05-2.83656E-05-2.86744E-05 3.50257E-07 4.86068E-20-5.92421E-19
 -1      3252 9.52888E-05-2.83364E-05-2.86919E-05 4.29007E-07 1.85144E-19 3.13373E-19
 -1      3253 9.52269E-05-2.82470E-05-2.87060E-05 4.97468E-07 1.70174E-19 7.54566E-19
 -1      3254 9.52604E-05-2.84210E-05-2.86462E-05 2.23083E-07-4.28693E-19-3.60043E-19
 -1      3255 9.52734E-05-2.83974E-05-2.86596E-05 2.81605E-07 6.11016E-19-9.56572E-19
 -1      3256 9.52347E-05-2.83316E-05-2.86730E-05 3.33443E-07 6.53994E-19-5.71837E-19
 -1      3257 9.52533E-05-2.84644E-05-2.86243E-05 1.30195E-07-1.00205E-18-2.30140E-18
 -1      3258 9.52622E-05-2.84457E-05-2.86345E-05 1.72662E-07-9.50417E-19-1.39702E-18
 -1      3259 9.52396E-05-2.83983E-05-2.86465E-05 2.11201E-07-7.92273E-20-5.42267E-20
 -1      3260 9.52483E-05-2.84981E-05-2.86076E-05 6.42307E-08-3.80699E-19-7.49050E-19
 -1      3261 9.52541E-05-2.84833E-05-2.86152E-05 9.41113E-08-1.11737E-18-1.30293E-18
 -1      3262 9.52424E-05-2.84501E-05-2.86255E-05 1.22157E-07-1.62700E-18-9.19166E-19
 -1      3263 9.52452E-05-2.85241E-05-2.85949E-05 1.94256E-08 6.92079E-19-6.68988E-20
 -1      3264 9.52485E-05-2.85127E-05-2.86005E-05 3.92254E-08 3.35396E-19-4.40881E-19
 -1      3265 9.52435E-05-2.84898E-05-2.86089E-05 5.91959E-08-1.01946E-18 8.67736E-19
 -1      3266 9.52305E-05-2.85124E-05-2.85935E-05-1.51107E-09 9.84022E-19 8.55248E-19
 -1      3267 9.52288E-05-2.85101E-05-2.85939E-05-2.11668E-09 9.00768E-19 6.29520E-19
 -1      3268 9.52420E-05-2.85345E-05-2.85890E-05 5.05065E-09 7.50539E-19-2.12218E-18
 -1      3269 9.52399E-05-2.85295E-05-2.85904E-05 1.80321E-09 8.62870E-19-1.31208E-18
 -1      3270 9.52275E-05-2.85081E-05-2.85941E-05-7.50737E-10 1.43893E-18-1.65099E-19
 -1      3271 9.52273E-05-2.85080E-05-2.85941E-05-8.81615E-10 1.26597E-18-1.55756E-18
 -1      3272 9.52218E-05-2.84870E-05-2.86003E-05-3.06249E-09 7.19298E-19 2.25185E-19
 -1      3273 1.25486E-04-5.56988E-05-3.02308E-05 1.08498E-05-1.55253E-18-1.65304E-18
 -1      3274 1.15692E-04-5.38367E-05-2.62726E-05 2.11038E-05-2.66305E-18 2.23501E-19
 -1      3275 1.30167E-04-4.83111E-05-3.50913E-05 4.32272E-06-9.38354E-20 3.01885E-18
 -1      3276 1.28945E-04-4.06255E-05-3.82762E-05 1.03047E-05 1.13939E-18 2.95736E-18
 -1      3277 7.54241E-05-3.34659E-05-1.78671E-05 3.31765E-05-3.37172E-18 3.41174E-18
 -1      3278 6.18307E-05-2.39874E-05-1.58796E-05 2.75027E-05-3.22532E-18 3.97057E-18
 -1      3279 1.10510E-04-5.16687E-05-2.47776E-05-2.40672E-05 2.90479E-18-2.42625E-18
 -1      3280 1.20778E-04-5.58658E-05-2.79617E-05-1.66045E-05 2.23551E-18-3.50870E-18
 -1      3281 4.92057E-05-1.59680E-05-1.40197E-05 1.79251E-05-2.15497E-18 3.10988E-18
 -1      3282 4.30380E-05-1.19126E-05-1.28655E-05 5.16019E-06-1.00414E-18 2.62241E-18
 -1      3283 9.52361E-05-2.85217E-05-2.85919E-05-6.50737E-12 1.07555E-18-9.32047E-20
 -1      3284 9.52335E-05-2.85178E-05-2.85927E-05-1.70423E-09 4.24071E-19-2.46038E-19
 -1      3285 9.52267E-05-2.84945E-05-2.85992E-05-6.06535E-09-7.35474E-20-5.56866E-19
 -1      3286 9.52343E-05-2.85079E-05-2.85968E-05-5.70615E-09-4.36178E-20-5.99356E-19
 -1      3287 1.05272E-04-3.63379E-05-2.95655E-05-5.97498E-06-2.45677E-19-2.70629E-20
 -1      3288 1.03794E-04-3.48948E-05-2.94802E-05-6.95324E-06-2.55379E-19 2.04742E-19
 -1      3289 1.02069E-04-3.43426E-05-2.90752E-05-8.50150E-06-5.73108E-19-4.41293E-19
 -1      3290 1.05829E-04-3.78441E-05-2.91959E-05-7.14126E-06-6.28973E-19 2.54204E-19
 -1      3291 4.33652E-05-1.46256E-05-1.19699E-05-1.39895E-05-1.91504E-18-6.14522E-18
 -1      3292 4.95578E-05-1.96811E-05-1.23165E-05-2.50787E-05-2.61294E-18-5.82642E-18
 -1      3293 6.08351E-05-2.37279E-05-1.54704E-05-2.64741E-05-3.17844E-18-4.52040E-18
 -1      3294 1.18945E-04-5.15731E-05-2.88584E-05-1.19606E-05 2.32344E-18-3.63806E-18
 -1      3295 1.13772E-04-4.75427E-05-2.81815E-05-1.42549E-05 1.92252E-18-3.78935E-18
 -1      3296 4.32226E-05-1.25721E-05-1.28990E-05-7.09297E-06-1.11769E-19 3.11994E-18
 -1      3297 4.82191E-05-1.63985E-05-1.33015E-05-1.80402E-05 1.73208E-18 2.27248E-18
 -1      3298 5.85843E-05-1.93155E-05-1.63803E-05-1.95053E-05 1.54994E-18 1.65023E-18
 -1      3299 1.25164E-04-5.51803E-05-2.98077E-05-9.86279E-06 2.33377E-18-3.55145E-18
 -1      3300 9.63048E-05-2.65176E-05-2.99090E-05-4.17655E-06 1.16950E-18-1.13920E-18
 -1      3301 9.61408E-05-2.60520E-05-3.00248E-05-3.25639E-06 1.39921E-18-1.18141E-18
 -1      3302 9.57636E-05-2.60467E-05-2.98871E-05-4.63680E-06 1.15742E-18-1.12470E-18
 -1      3303 1.25606E-04-2.96603E-05-4.16658E-05-1.37650E-05 2.91496E-18-3.49745E-18
 -1      3304 1.31085E-04-3.89140E-05-3.96763E-05-1.15248E-05 2.22775E-18-3.87380E-18
 -1      3305 9.52441E-05-2.85550E-05-2.85810E-05-1.89690E-08 1.91175E-18-1.23418E-18
 -1      3306 9.49114E-05-2.36851E-05-3.05206E-05 1.78850E-06-1.37283E-18-1.64118E-18
 -1      3307 9.49410E-05-2.41948E-05-3.03236E-05 3.06897E-06-1.13751E-18-1.70608E-18
 -1      3308 9.40841E-05-2.34198E-05-3.02811E-05 3.40828E-06-1.15459E-18-1.99943E-18
 -1      3309 1.00829E-04-4.75757E-05-2.28507E-05 2.91457E-05-3.10157E-18 7.10528E-19
 -1      3310 8.76901E-05-4.06340E-05-1.97892E-05 3.29733E-05-2.87430E-18 1.83560E-18
 -1      3311 8.38226E-05-3.55193E-05-2.04304E-05 2.91330E-05-3.34528E-18 2.33482E-18
 -1      3312 1.31518E-04-4.64617E-05-3.68121E-05-5.93327E-06 1.08560E-18-3.02883E-18
 -1      3313 1.29325E-04-5.18860E-05-3.29753E-05 2.60812E-07-4.89241E-19-2.47858E-18
 -1      3314 1.26275E-04-4.27021E-05-3.58524E-05-9.58628E-06 1.36261E-18-3.39226E-18
 -1      3315 8.07286E-05-3.68786E-05-1.83162E-05-3.21114E-05 3.34377E-18-3.72165E-20
 -1      3316 9.63102E-05-4.60324E-05-2.17619E-05-3.05692E-05 2.84518E-18-1.10840E-18
 -1      3317 7.83294E-05-3.21976E-05-1.93993E-05-2.80467E-05 2.76278E-18-1.41587E-19
 -1      3318 9.57125E-05-2.36416E-05-3.08883E-05 1.46629E-06 2.20619E-18-1.37243E-18
 -1      3319 9.47133E-05-2.18637E-05-3.12154E-05 2.00978E-06 2.09579E-18-1.60551E-18
 -1      3320 9.46976E-05-2.24117E-05-3.09761E-05 6.65314E-07 1.80653E-18-1.48093E-18
 -1      3321 9.58505E-05-2.45148E-05-3.05796E-05-9.26561E-08 1.93132E-18-1.35382E-18
 -1      3322 1.32078E-04-2.70496E-05-4.55361E-05 1.19461E-05 4.18021E-18 2.56418E-18
 -1      3323 1.25051E-04-2.25767E-05-4.42688E-05 1.23939E-05 3.47040E-18 2.57164E-18
 -1      3324 1.29747E-04-3.26379E-05-4.18976E-05 1.21626E-05 2.89733E-18 3.27182E-18
 -1      3325 1.22325E-04-2.56570E-05-4.17031E-05 1.29652E-05 3.16939E-18 2.18135E-18
 -1      3326 1.19522E-04-1.95992E-05-4.32798E-05 1.10053E-05 3.30322E-18 1.24921E-18
 -1      3327 8.94561E-05-1.53677E-05-3.17646E-05 5.22449E-07 5.94152E-19-3.31494E-18
 -1      3328 8.91079E-05-1.50085E-05-3.17743E-05 1.48286E-07 3.01839E-19-3.39341E-18
 -1      3329 9.29956E-05-1.86039E-05-3.18814E-05-3.77813E-06-2.19309E-18-2.36317E-18
 -1      3330 7.98341E-05-3.48747E-05-1.92358E-05 3.12733E-05 2.64804E-18-2.84831E-18
 -1      3331 6.33774E-05-2.36081E-05-1.66375E-05 2.52316E-05 1.92610E-18-4.43252E-18
 -1      3332 8.88989E-05-1.47726E-05-3.17804E-05-1.61656E-08 1.30560E-19-3.36053E-18
 -1      3333 8.88470E-05-1.47288E-05-3.17818E-05-3.66914E-07-2.21171E-19-3.24777E-18
 -1      3334 8.95656E-05-1.60706E-05-3.14759E-05-1.32408E-07 2.02973E-19-3.16572E-18
 -1      3335 8.88093E-05-3.67613E-05-2.20063E-05 2.66410E-05 2.58271E-18-1.58279E-18
 -1      3336 1.18780E-04-5.31423E-05-2.77808E-05 1.60931E-05 2.75849E-18 8.41924E-19
 -1      3337 9.97314E-05-4.06825E-05-2.54398E-05 2.23340E-05 1.80675E-18-3.54801E-19
 -1      3338 1.24882E-04-5.61163E-05-2.92896E-05 1.24647E-05 2.50960E-18 1.20531E-18
 -1      3339 9.52385E-05-2.85284E-05-2.85903E-05-2.39617E-09 1.58745E-18-2.62055E-18
 -1      3340 9.52407E-05-2.85329E-05-2.85889E-05-5.06238E-09 2.56811E-18-6.32687E-19
 -1      3341 9.08972E-05-1.69592E-05-3.17029E-05-1.44203E-06-1.32744E-18-2.86489E-18
 -1      3342 9.17300E-05-1.79257E-05-3.16515E-05-1.79240E-06-1.60534E-18-2.79708E-18
 -1      3343 4.57849E-05-1.29043E-05-1.35321E-05-5.77471E-06-1.08904E-18-5.68899E-18
 -1      3344 5.24877E-05-1.49676E-05-1.57947E-05-1.14801E-05-1.80297E-18-4.75853E-18
 -1      3345 5.05420E-05-1.32804E-05-1.58618E-05 1.52431E-06-7.86417E-20-4.71480E-18
 -1      3346 9.60993E-05-2.56918E-05-3.01780E-05-2.36485E-06 1.48359E-18-1.29131E-18
 -1      3347 9.59833E-05-2.50852E-05-3.03728E-05-1.16822E-06 1.61804E-18-1.27097E-18
 -1      3348 9.54567E-05-2.41089E-05-3.05762E-05-7.94186E-07 1.67763E-18-1.20752E-18
 -1      3349 9.56058E-05-2.51446E-05-3.02022E-05-2.83294E-06 1.40507E-18-1.20154E-18
 -1      3350 9.76880E-05-2.94782E-05-2.92573E-05-8.34335E-06 4.41386E-20-1.27561E-18
 -1      3351 9.83413E-05-2.94666E-05-2.95143E-05-7.59941E-06-3.94364E-20-1.01555E-18
 -1      3352 9.77066E-05-2.87951E-05-2.95184E-05-7.34646E-06 2.43503E-19-1.19706E-18
 -1      3353 1.11394E-04-1.74681E-05-4.04533E-05-4.45982E-06 2.81374E-18-1.54589E-18
 -1      3354 1.13566E-04-5.00250E-05-2.71979E-05 1.60287E-05-3.17538E-18-7.24445E-20
 -1      3355 1.09139E-04-5.05402E-05-2.50367E-05 2.38960E-05-3.32048E-18 6.20164E-19
 -1      3356 1.01330E-04-4.45887E-05-2.41901E-05 2.43025E-05-3.14153E-18 3.71106E-20
 -1      3357 9.52446E-05-2.85311E-05-2.85912E-05 7.27726E-09 2.05651E-18 4.90729E-19
 -1      3358 9.52437E-05-2.85158E-05-2.85979E-05 2.08797E-08 1.85351E-18 2.01206E-18
 -1      3359 9.52439E-05-2.85372E-05-2.85885E-05-1.67522E-09 2.07467E-18-1.06109E-20
 -1      3360 5.88680E-05-1.97474E-05-1.63839E-05 2.20796E-05-2.36545E-18 3.14906E-18
 -1      3361 5.78743E-05-1.65161E-05-1.75793E-05 1.52390E-05-1.31178E-18 2.48763E-18
 -1      3362 6.89061E-05-2.37911E-05-1.91574E-05 2.29465E-05-3.08069E-18 2.91014E-18
 -1      3363 9.52325E-05-2.85170E-05-2.85926E-05 4.93824E-10 4.65659E-19 8.22080E-19
 -1      3364 9.52349E-05-2.85208E-05-2.85917E-05-9.79367E-10 1.10515E-18-1.30180E-18
 -1      3365 9.52328E-05-2.85068E-05-2.85966E-05 4.63559E-09 1.96878E-18-2.66954E-18
 -1      3366 9.73257E-05-2.82648E-05-2.95933E-05-6.84672E-06 4.25971E-19-1.27593E-18
 -1      3367 9.68983E-05-2.77629E-05-2.96172E-05-6.36640E-06 5.39245E-19-1.33243E-18
 -1      3368 9.66591E-05-2.80416E-05-2.94243E-05-7.45033E-06 2.09628E-19-1.37716E-18
 -1      3369 1.03673E-04-4.66797E-05-2.42874E-05-2.43555E-05 2.63030E-18-2.23367E-18
 -1      3370 1.24472E-04-5.21773E-05-3.10721E-05 4.53684E-06-1.05996E-18-2.17138E-18
 -1      3371 9.52283E-05-2.85098E-05-2.85938E-05 5.60229E-10 4.96067E-19-1.52657E-18
 -1      3372 9.52297E-05-2.85118E-05-2.85934E-05 9.71504E-11 7.48101E-19-6.90236E-19
 -1      3373 9.52256E-05-2.84938E-05-2.85990E-05 4.56481E-09 4.45880E-19-4.79729E-19
 -1      3374 9.52214E-05-2.84867E-05-2.86002E-05 1.28905E-09 1.02403E-18-8.12306E-19
 -1      3375 7.07032E-05-2.42066E-05-1.98062E-05 2.23056E-05 2.15367E-18-3.63054E-18
 -1      3376 5.98445E-05-2.01132E-05-1.66460E-05 2.10900E-05 1.66876E-18-4.84524E-18
 -1      3377 5.75942E-05-1.70185E-05-1.71886E-05 1.44731E-05 1.12200E-18-4.55820E-18
 -1      3378 1.17155E-04-5.52551E-05-2.63734E-05-2.21882E-05-2.48774E-18 1.54169E-18
 -1      3379 1.20342E-04-5.45056E-05-2.84243E-05-1.44930E-05-2.36016E-18 2.14290E-18
 -1      3380 1.09915E-04-5.10720E-05-2.51030E-05-2.41465E-05-2.99296E-18 1.28867E-18
 -1      3381 4.96894E-05-1.30522E-05-1.52447E-05-1.08950E-06-4.67483E-19 2.48821E-18
 -1      3382 8.73867E-05-4.02037E-05-1.98257E-05-3.31169E-05-3.84783E-18-1.43411E-18
 -1      3383 9.62940E-05-4.45940E-05-2.21162E-05-2.97908E-05-3.86983E-18 2.48816E-21
 -1      3384 1.05975E-04-4.42930E-05-2.65411E-05-1.87700E-05 2.31212E-18-3.05779E-18
 -1      3385 1.20889E-04-2.65980E-05-4.07414E-05-1.30266E-05 3.17627E-18-3.41005E-18
 -1      3386 9.52439E-05-2.85421E-05-2.85867E-05-8.76345E-09 3.46083E-18 1.62321E-18
 -1      3387 9.52438E-05-2.85474E-05-2.85841E-05-1.33302E-08 1.50944E-18 1.06828E-19
 -1      3388 9.52435E-05-2.85409E-05-2.85867E-05-7.43670E-09 1.95245E-18-3.67553E-19
 -1      3389 9.52403E-05-2.85238E-05-2.85926E-05 4.89478E-10 2.67398E-18-2.61430E-19
 -1      3390 9.47747E-05-2.30106E-05-3.07636E-05 6.78592E-07-1.63072E-18-1.74051E-18
 -1      3391 9.40394E-05-2.22830E-05-3.07474E-05 1.17026E-06-1.53358E-18-1.96157E-18
 -1      3392 9.45990E-05-2.22094E-05-3.10289E-05-7.11566E-07-1.88678E-18-1.76154E-18
 -1      3393 9.21274E-05-1.83957E-05-3.16180E-05 1.77176E-06 1.48780E-18-2.65751E-18
 -1      3394 9.13024E-05-1.74305E-05-3.16760E-05 1.37712E-06 1.24327E-18-2.81889E-18
 -1      3395 9.31593E-05-2.01791E-05-3.12558E-05 8.41178E-07 1.50205E-18-2.12502E-18
 -1      3396 9.35149E-05-1.99906E-05-3.15142E-05-2.26075E-06-2.03221E-18-2.20127E-18
 -1      3397 1.14907E-04-1.83542E-05-4.14614E-05 9.23135E-06 3.00596E-18 3.29496E-19
 -1      3398 9.60831E-05-2.69813E-05-2.96271E-05-6.20854E-06 7.78277E-19-1.31546E-18
 -1      3399 9.05670E-05-1.65853E-05-3.17201E-05 1.13290E-06 1.08769E-18-3.02187E-18
 -1      3400 8.99557E-05-1.59228E-05-3.17458E-05 7.30673E-07 7.46966E-19-3.22276E-18
 -1      3401 9.03011E-05-1.68606E-05-3.14517E-05 1.37437E-07 6.00794E-19-3.07436E-18
 -1      3402 9.15527E-05-1.82537E-05-3.13897E-05 4.82070E-07 1.08898E-18-2.76812E-18
 -1      3403 8.01756E-05-3.49955E-05-1.91406E-05-3.14645E-05-3.88746E-18-1.93240E-18
 -1      3404 8.96286E-05-1.55556E-05-3.17594E-05-9.61511E-07-8.40411E-19-3.25013E-18
 -1      3405 9.01888E-05-1.61697E-05-3.17390E-05-1.31060E-06-1.21375E-18-3.08880E-18
 -1      3406 9.10768E-05-1.77308E-05-3.14148E-05-6.24257E-07-1.16782E-18-2.72325E-18
 -1      3407 1.27202E-04-3.46714E-05-3.98940E-05 1.28296E-05 2.30112E-18 3.25869E-18
 -1      3408 1.24869E-04-3.14358E-05-4.04420E-05 1.33870E-05 2.95265E-18 3.11345E-18
 -1      3409 1.20662E-04-2.85514E-05-3.97396E-05 1.31587E-05 2.53858E-18 1.54599E-18
 -1      3410 1.24803E-04-3.86544E-05-3.70563E-05 1.14692E-05 8.92561E-19 2.99143E-18
 -1      3411 9.52442E-05-2.85383E-05-2.85884E-05 6.70868E-09 9.34326E-20-3.14273E-18
 -1      3412 9.52436E-05-2.85374E-05-2.85885E-05 5.83808E-09 5.43729E-19-1.74402E-18
 -1      3413 9.52401E-05-2.85187E-05-2.85946E-05-3.88003E-09-2.73687E-19-1.95332E-18
 -1      3414 9.52437E-05-2.85253E-05-2.85932E-05-3.01889E-09-6.77024E-19-3.59333E-18
 -1      3415 9.16100E-05-3.25634E-05-2.52472E-05-1.92574E-05 2.05188E-18-1.48437E-18
 -1      3416 8.91225E-05-2.92348E-05-2.56617E-05-1.76440E-05 1.99557E-18-8.58211E-19
 -1      3417 1.14428E-04-1.68224E-05-4.21785E-05-7.86936E-06 3.96936E-18-2.49663E-18
 -1      3418 9.21784E-05-2.33508E-05-2.95068E-05 6.35828E-06-8.57728E-19-1.74439E-18
 -1      3419 9.18663E-05-2.34496E-05-2.93188E-05 7.25791E-06-6.79318E-19-1.64867E-18
 -1      3420 9.11890E-05-2.34317E-05-2.90529E-05 8.10905E-06-5.82400E-19-1.46761E-18
 -1      3421 9.08775E-05-2.35559E-05-2.88423E-05 8.99668E-06-2.62490E-19-1.39911E-18
 -1      3422 9.02430E-05-2.25044E-05-2.90152E-05 7.04679E-06-5.87023E-19-1.48926E-18
 -1      3423 9.00947E-05-2.35928E-05-2.85203E-05 9.93227E-06-1.52562E-19-1.50440E-18
 -1      3424 8.99057E-05-2.39176E-05-2.82588E-05 1.08772E-05-2.35531E-20-1.56635E-18
 -1      3425 8.87807E-05-2.24887E-05-2.83942E-05 8.76560E-06-4.15864E-19-1.41847E-18
 -1      3426 8.91122E-05-2.41958E-05-2.78443E-05 1.20184E-05 2.12950E-19-1.98064E-18
 -1      3427 8.92629E-05-2.49708E-05-2.75100E-05 1.30995E-05 4.14604E-19-1.92968E-18
 -1      3428 8.71775E-05-2.27064E-05-2.76148E-05 1.07725E-05-7.60634E-20-2.04398E-18
 -1      3429 8.86373E-05-2.57591E-05-2.69665E-05 1.46282E-05 5.81059E-19-2.06919E-18
 -1      3430 8.94686E-05-2.73656E-05-2.65568E-05 1.59398E-05 6.27956E-19-1.82509E-18
 -1      3431 8.56640E-05-2.35820E-05-2.65965E-05 1.33936E-05 4.06872E-19-2.58375E-18
 -1      3432 8.93999E-05-2.90134E-05-2.58715E-05 1.78691E-05 8.88021E-19-1.53540E-18
 -1      3433 9.16581E-05-3.19038E-05-2.55060E-05 1.94615E-05 1.47618E-18-1.20968E-18
 -1      3434 8.49076E-05-2.59631E-05-2.52685E-05 1.70970E-05 9.70385E-19-2.26238E-18
 -1      3435 9.28578E-05-2.00481E-05-3.11915E-05-3.76385E-07-1.53132E-18-2.34081E-18
 -1      3436 9.28462E-05-1.94252E-05-3.14646E-05-1.50428E-06-1.78869E-18-2.30858E-18
 -1      3437 8.80090E-05-3.31700E-05-2.34341E-05 2.33532E-05 1.88057E-18-1.43344E-18
 -1      3438 8.90278E-05-2.73641E-05-2.63509E-05-1.54732E-05 1.40875E-18-7.77510E-19
 -1      3439 8.80026E-05-2.56432E-05-2.67459E-05-1.41246E-05 9.56558E-19-8.31892E-19
 -1      3440 8.40486E-05-2.57574E-05-2.49605E-05-1.69310E-05 1.52595E-18-4.68555E-19
 -1      3441 8.85203E-05-2.47795E-05-2.72717E-05-1.25237E-05 5.87498E-19-1.25658E-18
 -1      3442 8.82610E-05-2.39658E-05-2.75807E-05-1.14189E-05 1.70597E-19-1.09914E-18
 -1      3443 8.46362E-05-2.32965E-05-2.62763E-05-1.29844E-05 5.12177E-19-9.54934E-19
 -1      3444 8.89916E-05-2.37043E-05-2.79557E-05-1.02540E-05-1.42678E-21-1.34474E-18
 -1      3445 8.91117E-05-2.34355E-05-2.81705E-05-9.34377E-06 2.23765E-20-1.45992E-18
 -1      3446 8.59864E-05-2.23922E-05-2.72370E-05-1.02610E-05 2.87934E-19-1.12484E-18
 -1      3447 8.98688E-05-2.35148E-05-2.84242E-05-8.45708E-06 1.42937E-19-1.42427E-18
 -1      3448 9.01421E-05-2.35524E-05-2.85584E-05-7.68818E-06 2.86064E-19-1.31020E-18
 -1      3449 8.75100E-05-2.23524E-05-2.79058E-05-8.29316E-06 1.38147E-19-1.67076E-18
 -1      3450 9.08414E-05-2.38095E-05-2.87204E-05-6.97909E-06 1.24412E-19-1.23645E-18
 -1      3451 9.11499E-05-2.40041E-05-2.87934E-05-6.31661E-06 5.80985E-20-9.41907E-19
 -1      3452 8.89735E-05-2.27819E-05-2.83504E-05-6.78440E-06 4.85338E-19-1.88034E-18
 -1      3453 9.17572E-05-2.43378E-05-2.88891E-05-5.72856E-06-8.20972E-19-7.96701E-19
 -1      3454 9.20450E-05-2.45993E-05-2.89191E-05-5.15391E-06-2.91097E-19-1.00227E-18
 -1      3455 9.02752E-05-2.34375E-05-2.86297E-05-5.56350E-06-6.06939E-19-8.80699E-19
 -1      3456 9.25520E-05-2.49494E-05-2.89688E-05-4.65715E-06-2.88272E-19-1.58509E-18
 -1      3457 9.27971E-05-2.52255E-05-2.89707E-05-4.16086E-06-4.62885E-19-2.34529E-18
 -1      3458 9.13807E-05-2.41717E-05-2.87915E-05-4.54033E-06-8.87514E-19-8.47497E-19
 -1      3459 9.32087E-05-2.55583E-05-2.89897E-05-3.73968E-06-5.39294E-19-2.95448E-18
 -1      3460 9.34064E-05-2.58208E-05-2.89746E-05-3.31587E-06-4.84569E-19-2.97969E-18
 -1      3461 9.22900E-05-2.48976E-05-2.88728E-05-3.66980E-06-8.52614E-19-2.60185E-18
 -1      3462 9.37334E-05-2.61196E-05-2.89743E-05-2.96096E-06 5.34187E-19-1.49565E-18
 -1      3463 9.38873E-05-2.63547E-05-2.89502E-05-2.60436E-06 1.19111E-18-7.41495E-19
 -1      3464 9.30206E-05-2.55678E-05-2.89008E-05-2.92887E-06 7.01236E-19-2.45925E-18
 -1      3465 9.41425E-05-2.66129E-05-2.89384E-05-2.30872E-06 6.06105E-19-5.43335E-19
 -1      3466 9.42592E-05-2.68155E-05-2.89106E-05-2.01349E-06 6.59697E-20-9.05133E-19
 -1      3467 9.35963E-05-2.61598E-05-2.88957E-05-2.30365E-06 9.05190E-19-1.40353E-18
 -1      3468 9.44553E-05-2.70325E-05-2.88929E-05-1.77074E-06-1.53372E-19-7.09779E-19
 -1      3469 9.45419E-05-2.72024E-05-2.88647E-05-1.53032E-06 4.26422E-20-1.58442E-19
 -1      3470 9.40427E-05-2.66666E-05-2.88712E-05-1.78303E-06 2.62287E-19-8.91175E-19
 -1      3471 9.46903E-05-2.73807E-05-2.88446E-05-1.33407E-06-3.40355E-19-6.94704E-20
 -1      3472 9.47535E-05-2.75201E-05-2.88181E-05-1.14146E-06-2.92658E-19-6.03711E-19
 -1      3473 9.43835E-05-2.70900E-05-2.88370E-05-1.35617E-06-3.77459E-20-8.91681E-19
 -1      3474 9.48640E-05-2.76640E-05-2.87980E-05-9.85342E-07-4.49877E-20 1.16231E-19
 -1      3475 9.49092E-05-2.77763E-05-2.87742E-05-8.33518E-07 1.12283E-18-2.57373E-19
 -1      3476 9.46398E-05-2.74366E-05-2.87992E-05-1.01184E-06 3.65522E-19-7.20400E-20
 -1      3477 9.49902E-05-2.78905E-05-2.87553E-05-7.11320E-07 1.42828E-18-8.22717E-19
 -1      3478 9.50219E-05-2.79795E-05-2.87348E-05-5.93569E-07 9.16036E-19-1.03160E-18
 -1      3479 9.48296E-05-2.77153E-05-2.87618E-05-7.38651E-07 1.03863E-18-5.01136E-19
 -1      3480 9.50801E-05-2.80687E-05-2.87178E-05-4.99500E-07 5.22414E-19-1.54752E-18
 -1      3481 9.51018E-05-2.81381E-05-2.87004E-05-4.09679E-07 5.19598E-19-1.66189E-18
 -1      3482 9.49677E-05-2.79359E-05-2.87269E-05-5.25496E-07 6.79365E-19-1.48354E-18
 -1      3483 9.51427E-05-2.82068E-05-2.86857E-05-3.38508E-07 2.71164E-19-1.83378E-18
 -1      3484 9.51571E-05-2.82602E-05-2.86713E-05-2.71192E-07 1.09555E-18-1.54002E-18
 -1      3485 9.50661E-05-2.81077E-05-2.86957E-05-3.62005E-07 1.59032E-20-1.72691E-18
 -1      3486 9.51850E-05-2.83124E-05-2.86588E-05-2.18357E-07 1.96414E-18-2.34536E-18
 -1      3487 9.51940E-05-2.83530E-05-2.86471E-05-1.68907E-07 1.71705E-18-1.82900E-18
 -1      3488 9.51345E-05-2.82398E-05-2.86687E-05-2.38852E-07 1.48981E-18-3.11369E-18
 -1      3489 9.52123E-05-2.83921E-05-2.86366E-05-1.30546E-07 1.27744E-18-7.96800E-19
 -1      3490 9.52177E-05-2.84228E-05-2.86271E-05-9.51195E-08 8.94373E-19-1.27238E-18
 -1      3491 9.51805E-05-2.83399E-05-2.86457E-05-1.47953E-07 2.31055E-18-1.26862E-18
 -1      3492 9.52292E-05-2.84521E-05-2.86183E-05-6.79551E-08 7.77594E-19-7.91904E-19
 -1      3493 9.52324E-05-2.84751E-05-2.86106E-05-4.38256E-08 6.57295E-19-1.04528E-18
 -1      3494 9.52101E-05-2.84150E-05-2.86263E-05-8.23593E-08 7.90506E-19 4.33580E-19
 -1      3495 5.98588E-05-2.03877E-05-1.67284E-05-2.17461E-05-2.77012E-18-4.26846E-18
 -1      3496 6.86873E-05-2.67670E-05-1.77309E-05-2.81648E-05-3.36426E-18-3.55007E-18
 -1      3497 1.17702E-04-4.63254E-05-3.05999E-05-9.92793E-07-6.82374E-19 1.08864E-18
 -1      3498 1.15307E-04-4.54818E-05-2.98215E-05-3.90703E-06-1.18258E-18 9.96514E-19
 -1      3499 1.11505E-04-4.33634E-05-2.92267E-05-6.21252E-06-1.27131E-18 5.90823E-19
 -1      3500 1.08917E-04-4.13073E-05-2.88743E-05-7.95888E-06-1.15178E-18 4.78326E-19
 -1      3501 1.12882E-04-4.57102E-05-2.88867E-05-8.37652E-06-1.35963E-18 7.45482E-19
 -1      3502 1.13978E-04-2.22109E-05-3.95146E-05 1.03703E-05 2.09111E-18 8.96690E-19
 -1      3503 1.22449E-04-4.47839E-05-3.32638E-05-7.14060E-06 5.64283E-19-2.66302E-18
 -1      3504 1.22070E-04-4.11030E-05-3.48055E-05-9.60164E-06 1.47516E-18-2.64542E-18
 -1      3505 1.20971E-04-3.54348E-05-3.69692E-05-1.35549E-05 2.37513E-18-3.57628E-18
 -1      3506 1.18321E-04-2.82911E-05-3.86413E-05-1.31232E-05 2.76704E-18-3.28432E-18
 -1      3507 1.12217E-04-4.32430E-05-2.94428E-05 4.65051E-06-1.94758E-18-8.01214E-19
 -1      3508 1.14658E-04-4.46933E-05-3.00043E-05 2.36532E-06-1.75413E-18-1.26502E-18
 -1      3509 1.06259E-04-3.88553E-05-2.88111E-05 7.71154E-06-1.50081E-18 3.78927E-19
 -1      3510 1.08711E-04-4.09941E-05-2.90455E-05 6.39954E-06-1.79566E-18-2.14400E-19
 -1      3511 1.09577E-04-4.31538E-05-2.85971E-05 8.64095E-06-2.18860E-18-3.53934E-20
 -1      3512 1.01661E-04-3.46766E-05-2.86563E-05 8.74611E-06-1.58182E-18 1.02421E-18
 -1      3513 1.03640E-04-3.66141E-05-2.87187E-05 8.19377E-06-1.24005E-18 1.19916E-18
 -1      3514 1.03308E-04-3.77962E-05-2.81631E-05 1.02025E-05-1.88234E-18 1.34836E-18
 -1      3515 9.85051E-05-3.14389E-05-2.87117E-05 8.67365E-06-1.18474E-18 1.08849E-18
 -1      3516 9.99129E-05-3.29195E-05-2.86991E-05 8.61647E-06-1.36137E-18 9.35552E-19
 -1      3517 9.89946E-05-3.34130E-05-2.81664E-05 1.01662E-05-1.18887E-18 1.75239E-18
 -1      3518 9.65208E-05-2.92181E-05-2.88286E-05 8.03820E-06-1.41528E-18 1.11193E-18
 -1      3519 9.74524E-05-3.02310E-05-2.87967E-05 8.26039E-06-1.28465E-18 7.01486E-19
 -1      3520 9.62808E-05-3.02581E-05-2.83347E-05 9.38537E-06-9.85789E-19 1.09931E-18
 -1      3521 9.53801E-05-2.78453E-05-2.89377E-05 7.13956E-06-9.95019E-20 6.67270E-19
 -1      3522 9.59590E-05-2.84698E-05-2.89121E-05 7.50697E-06-3.18617E-19 1.39498E-18
 -1      3523 9.47265E-05-2.81947E-05-2.85364E-05 8.29262E-06-7.49619E-19 5.23568E-19
 -1      3524 9.47962E-05-2.71022E-05-2.90115E-05 6.15574E-06-6.65407E-20 2.24849E-19
 -1      3525 9.51347E-05-2.74411E-05-2.90015E-05 6.58567E-06-1.70791E-20 6.29016E-19
 -1      3526 9.39628E-05-2.70003E-05-2.87100E-05 7.12931E-06 1.43981E-19 1.16227E-18
 -1      3527 9.45548E-05-2.67891E-05-2.90453E-05 5.18337E-06-1.82260E-20 4.65832E-21
 -1      3528 9.47399E-05-2.69342E-05-2.90513E-05 5.62478E-06-3.96878E-20 2.49277E-20
 -1      3529 9.36889E-05-2.64210E-05-2.88343E-05 6.00721E-06-3.98603E-20 1.97707E-18
 -1      3530 9.45098E-05-2.67488E-05-2.90447E-05 4.27540E-06-7.15115E-19 8.04523E-20
 -1      3531 9.46022E-05-2.67715E-05-2.90633E-05 4.69725E-06-2.55505E-19 8.76501E-20
 -1      3532 9.36969E-05-2.62474E-05-2.89084E-05 4.97527E-06-1.04117E-19 1.65909E-19
 -1      3533 9.45670E-05-2.68674E-05-2.90188E-05 3.45972E-06 5.99533E-19 3.43929E-19
 -1      3534 9.46064E-05-2.68189E-05-2.90459E-05 3.84410E-06-1.41650E-19 3.73288E-19
 -1      3535 9.38507E-05-2.63224E-05-2.89403E-05 4.05433E-06-3.17644E-19-2.72558E-19
 -1      3536 9.46688E-05-2.70665E-05-2.89770E-05 2.74857E-06 6.40998E-19 4.04131E-19
 -1      3537 9.46798E-05-2.69819E-05-2.90083E-05 3.08651E-06 7.99175E-19 8.10018E-19
 -1      3538 9.40656E-05-2.65348E-05-2.89405E-05 3.25135E-06 6.07369E-19 7.81900E-19
 -1      3539 9.47820E-05-2.72956E-05-2.89269E-05 2.14397E-06 5.64046E-19-2.20382E-19
 -1      3540 9.47792E-05-2.71974E-05-2.89593E-05 2.43259E-06 7.50509E-19 3.33233E-19
 -1      3541 9.42919E-05-2.68097E-05-2.89194E-05 2.56536E-06 8.61310E-19 4.12975E-19
 -1      3542 9.48890E-05-2.75238E-05-2.88744E-05 1.64125E-06 4.63802E-19-7.11025E-19
 -1      3543 9.48806E-05-2.74256E-05-2.89056E-05 1.88173E-06 3.37861E-19-4.05452E-19
 -1      3544 9.45027E-05-2.70996E-05-2.88856E-05 1.99036E-06 7.50706E-19 3.01714E-19
 -1      3545 9.49815E-05-2.77338E-05-2.88235E-05 1.23162E-06-6.34976E-19-4.67791E-19
 -1      3546 9.49720E-05-2.76432E-05-2.88520E-05 1.42763E-06 3.75181E-20-6.83156E-19
 -1      3547 9.46854E-05-2.73762E-05-2.88456E-05 1.51705E-06 3.12188E-20-2.60257E-19
 -1      3548 9.50570E-05-2.79172E-05-2.87766E-05 9.04113E-07-7.09497E-19-9.01119E-19
 -1      3549 9.50484E-05-2.78380E-05-2.88018E-05 1.06069E-06-5.63408E-19-7.04511E-19
 -1      3550 9.48361E-05-2.76242E-05-2.88041E-05 1.13421E-06-5.79038E-19-2.60941E-19
 -1      3551 9.51158E-05-2.80715E-05-2.87352E-05 6.46991E-07-9.75528E-19-3.10785E-19
 -1      3552 9.51089E-05-2.80049E-05-2.87567E-05 7.69708E-07-1.28319E-18-8.36559E-19
 -1      3553 9.49554E-05-2.78372E-05-2.87642E-05 8.29793E-07-5.88646E-19-6.85863E-19
 -1      3554 9.51598E-05-2.81975E-05-2.86996E-05 4.48724E-07 6.14998E-21 2.44842E-20
 -1      3555 9.51548E-05-2.81430E-05-2.87176E-05 5.43116E-07-3.97622E-19-3.92117E-19
 -1      3556 9.50468E-05-2.80142E-05-2.87278E-05 5.91801E-07-5.90669E-19-5.60553E-19
 -1      3557 9.51915E-05-2.82979E-05-2.86698E-05 2.98634E-07 4.58843E-19 8.66794E-19
 -1      3558 9.51881E-05-2.82544E-05-2.86845E-05 3.69859E-07 5.16648E-19 4.52908E-19
 -1      3559 9.51145E-05-2.81574E-05-2.86956E-05 4.08907E-07 5.02484E-20 9.72755E-19
 -1      3560 9.52132E-05-2.83762E-05-2.86453E-05 1.87249E-07-7.49322E-19 1.90588E-18
 -1      3561 9.52112E-05-2.83421E-05-2.86571E-05 2.39881E-07 3.35118E-19 1.35142E-18
 -1      3562 9.51629E-05-2.82706E-05-2.86680E-05 2.70857E-07 2.37584E-19 1.83841E-18
 -1      3563 9.52274E-05-2.84363E-05-2.86254E-05 1.06503E-07-2.00316E-18 9.05900E-19
 -1      3564 9.52264E-05-2.84100E-05-2.86348E-05 1.44423E-07-1.01811E-18 9.61143E-19
 -1      3565 9.51962E-05-2.83583E-05-2.86447E-05 1.68700E-07-1.63752E-19 2.22067E-18
 -1      3566 9.52362E-05-2.84818E-05-2.86093E-05 4.99560E-08-4.86493E-19 1.06853E-18
 -1      3567 9.52358E-05-2.84620E-05-2.86167E-05 7.60585E-08-1.89080E-18 7.00024E-19
 -1      3568 9.52179E-05-2.84253E-05-2.86254E-05 9.49329E-08-1.40841E-18 1.37148E-18
 -1      3569 1.29020E-04-5.32988E-05-3.27380E-05-2.44020E-06-1.09467E-18 2.68316E-18
 -1      3570 1.26199E-04-4.82429E-05-3.34529E-05 3.66939E-06-5.25895E-19 2.55968E-18
 -1      3571 9.52119E-05-2.84629E-05-2.86068E-05-7.05939E-09 9.62234E-19-6.77610E-19
 -1      3572 9.52102E-05-2.84609E-05-2.86071E-05-3.97967E-09 1.31215E-18-5.16487E-19
 -1      3573 7.39549E-05-2.72221E-05-1.97742E-05-2.47803E-05 2.82811E-18 2.28778E-19
 -1      3574 8.52892E-05-3.45770E-05-2.17353E-05-2.63997E-05 2.59142E-18-8.42215E-19
 -1      3575 1.25594E-04-5.35957E-05-3.06664E-05-6.70794E-06-1.86923E-18 2.44602E-18
 -1      3576 9.55398E-05-3.85758E-05-2.41194E-05-2.33450E-05 2.20074E-18-2.18073E-18
 -1      3577 9.73526E-05-4.26205E-05-2.33853E-05-2.62786E-05-3.08038E-18-6.10128E-20
 -1      3578 1.04225E-04-4.75285E-05-2.41012E-05-2.60624E-05-3.25676E-18 7.31592E-19
 -1      3579 1.09686E-04-4.88427E-05-2.60569E-05-2.00085E-05-2.72927E-18 1.08223E-18
 -1      3580 1.18017E-04-4.60733E-05-3.07586E-05-1.34160E-07-1.44360E-18-1.31322E-18
 -1      3581 1.19604E-04-4.57120E-05-3.17822E-05-3.21579E-06-1.55573E-19-1.94868E-18
 -1      3582 1.23185E-04-4.89575E-05-3.19919E-05-9.72391E-07-6.30100E-19-1.75704E-18
 -1      3583 1.16406E-04-4.71473E-05-2.97444E-05 4.55964E-06-1.69272E-18-9.14716E-19
 -1      3584 9.86431E-05-3.15166E-05-2.87526E-05-9.66411E-06-5.25734E-19-1.01412E-18
 -1      3585 9.75352E-05-3.02266E-05-2.88227E-05-9.49904E-06-3.26556E-19-1.21322E-18
 -1      3586 1.20661E-04-5.13450E-05-2.95903E-05 7.76877E-06-1.65095E-18-1.65795E-18
 -1      3587 5.86452E-05-1.67218E-05-1.78130E-05-1.47830E-05 8.34188E-19 4.89479E-19
 -1      3588 6.54767E-05-2.16292E-05-1.87249E-05-2.14029E-05 1.99786E-18 3.05779E-19
 -1      3589 9.51280E-05-2.55490E-05-2.98193E-05-4.99495E-06 1.03553E-18-1.26480E-18
 -1      3590 9.50034E-05-2.50345E-05-2.99806E-05-4.10397E-06 1.23097E-18-1.14933E-18
 -1      3591 8.89529E-05-1.48303E-05-3.17794E-05-4.97101E-07-4.45669E-19-3.35788E-18
 -1      3592 8.92104E-05-1.51117E-05-3.17732E-05-8.41129E-07-7.04284E-19-3.38677E-18
 -1      3593 8.99443E-05-1.64892E-05-3.14634E-05-4.72973E-07-7.22867E-19-3.17768E-18
 -1      3594 9.29260E-05-2.30718E-05-2.99431E-05 4.53296E-06-9.86228E-19-1.93796E-18
 -1      3595 9.26916E-05-2.32787E-05-2.97496E-05 5.50981E-06-9.45422E-19-1.81645E-18
 -1      3596 9.14289E-05-2.24475E-05-2.95505E-05 5.39955E-06-8.19227E-19-1.60505E-18
 -1      3597 7.85325E-05-3.14171E-05-1.99714E-05-2.75201E-05-3.48917E-18-2.04852E-18
 -1      3598 8.98455E-05-3.77168E-05-2.23915E-05 2.68039E-05-2.76109E-18 6.04676E-19
 -1      3599 7.99704E-05-3.08868E-05-2.08667E-05 2.60821E-05-3.35342E-18 2.78044E-18
 -1      3600 1.33739E-04-5.60632E-05-3.28837E-05 1.87229E-06 1.70542E-18 2.33733E-18
 -1      3601 5.39232E-05-1.31512E-05-1.73602E-05 4.01086E-06-9.56280E-19 2.55783E-18
 -1      3602 5.44373E-05-1.35299E-05-1.73387E-05-7.02589E-06-2.16708E-19 1.29220E-18
 -1      3603 9.33143E-05-2.23559E-05-3.04177E-05 2.52257E-06-1.22693E-18-1.90244E-18
 -1      3604 9.32278E-05-2.27913E-05-3.01913E-05 3.62761E-06-1.06679E-18-1.97235E-18
 -1      3605 9.22279E-05-2.20588E-05-3.00633E-05 3.68702E-06-1.04089E-18-1.86393E-18
 -1      3606 9.53714E-05-2.65128E-05-2.95056E-05-6.55284E-06 5.71312E-19-1.21613E-18
 -1      3607 9.51616E-05-2.60063E-05-2.96315E-05-5.82692E-06 7.73887E-19-1.31159E-18
 -1      3608 9.43366E-05-2.50378E-05-2.97032E-05-5.34957E-06 9.02737E-19-1.19772E-18
 -1      3609 8.04895E-05-2.79955E-05-2.24461E-05 2.23214E-05 1.94146E-18-2.40729E-18
 -1      3610 1.21025E-04-5.26024E-05-2.92755E-05-1.03422E-05-2.00133E-18 2.13931E-18
 -1      3611 9.49136E-05-2.32130E-05-3.07272E-05-4.36079E-07 1.55321E-18-1.37576E-18
 -1      3612 9.42283E-05-2.21286E-05-3.09023E-05-1.24851E-07 1.55790E-18-1.55649E-18
 -1      3613 9.50061E-05-2.38249E-05-3.05114E-05-1.55497E-06 1.38689E-18-1.34204E-18
 -1      3614 7.59714E-05-2.75874E-05-2.06659E-05-2.40055E-05-2.90179E-18-2.14506E-18
 -1      3615 8.64135E-05-3.50956E-05-2.19105E-05-2.67898E-05-3.20630E-18-9.76311E-19
 -1      3616 5.64663E-05-1.45279E-05-1.75332E-05 8.95939E-06 7.08894E-19-4.25499E-18
 -1      3617 5.81187E-05-1.44657E-05-1.85762E-05 2.87649E-06-1.92832E-20-3.76609E-18
 -1      3618 6.45220E-05-1.79613E-05-1.98581E-05 1.36217E-05 1.42471E-18-3.65513E-18
 -1      3619 1.16646E-04-5.00671E-05-2.84291E-05-1.15329E-05-1.72352E-18 1.46162E-18
 -1      3620 1.20714E-04-5.00723E-05-3.04266E-05-4.41127E-06-1.22338E-18 1.52373E-18
 -1      3621 9.20447E-05-1.94899E-05-3.10877E-05 1.80766E-07-1.14079E-18-2.29566E-18
 -1      3622 9.30807E-05-2.09885E-05-3.09077E-05 5.65938E-07-1.36296E-18-2.07830E-18
 -1      3623 9.32139E-05-2.16903E-05-3.06545E-05 1.68129E-06-1.25443E-18-2.02493E-18
 -1      3624 9.13057E-05-1.87374E-05-3.11159E-05 3.32512E-08-9.91379E-19-2.63627E-18
 -1      3625 9.15539E-05-1.95881E-05-3.08293E-05 8.70039E-07-9.11393E-19-2.44188E-18
 -1      3626 9.06475E-05-1.79624E-05-3.11485E-05 3.88793E-08-8.47112E-19-2.87600E-18
 -1      3627 9.08356E-05-1.81703E-05-3.11520E-05-3.24635E-07 6.06926E-19-2.86547E-18
 -1      3628 9.03121E-05-1.76181E-05-3.11701E-05-4.29400E-07 3.83916E-19-2.96702E-18
 -1      3629 5.82432E-05-1.51917E-05-1.84563E-05-8.66542E-06-1.22219E-18-3.77787E-18
 -1      3630 5.83629E-05-1.71427E-05-1.73176E-05-1.57773E-05-2.04954E-18-4.25533E-18
 -1      3631 6.55510E-05-2.01184E-05-1.93195E-05-1.76417E-05-2.41906E-18-3.27521E-18
 -1      3632 8.20662E-05-2.90751E-05-2.26038E-05 2.14488E-05-2.33700E-18 2.45768E-18
 -1      3633 7.55864E-05-2.66970E-05-2.07848E-05 2.35568E-05-2.73498E-18 3.18154E-18
 -1      3634 7.15862E-05-2.25066E-05-2.10410E-05 1.90411E-05-1.88810E-18 2.25456E-18
 -1      3635 9.52387E-05-2.84942E-05-2.86044E-05-2.90120E-08-2.03554E-20-2.57610E-18
 -1      3636 9.52404E-05-2.85107E-05-2.85986E-05-1.40715E-08-2.62663E-19-2.90730E-18
 -1      3637 9.52385E-05-2.85067E-05-2.85995E-05-1.45630E-08-6.17015E-19-2.42999E-18
 -1      3638 9.52281E-05-2.84683E-05-2.86112E-05-4.12817E-08 1.97590E-19 3.11495E-19
 -1      3639 9.50720E-05-2.47234E-05-3.01519E-05-3.34851E-06 1.24313E-18-1.15841E-18
 -1      3640 9.50349E-05-2.42729E-05-3.03216E-05-2.41847E-06 1.34816E-18-1.27108E-18
 -1      3641 9.44524E-05-2.33889E-05-3.04561E-05-2.10509E-06 1.33802E-18-1.51493E-18
 -1      3642 9.43871E-05-2.41882E-05-3.00839E-05-3.73614E-06 1.20839E-18-1.32426E-18
 -1      3643 1.05973E-04-4.04656E-05-2.81712E-05-1.10864E-05-1.20384E-18 3.34863E-19
 -1      3644 1.05843E-04-3.89226E-05-2.86941E-05-8.85955E-06-9.20430E-19 2.94458E-19
 -1      3645 1.03664E-04-3.67912E-05-2.85860E-05-9.69853E-06-8.62197E-19 8.97243E-21
 -1      3646 1.21277E-04-3.63222E-05-3.65156E-05 1.16332E-05 9.55347E-19 2.12274E-18
 -1      3647 1.22259E-04-4.15366E-05-3.46969E-05 9.74399E-06 2.06200E-19 2.27178E-18
 -1      3648 9.99064E-05-3.30040E-05-2.86313E-05-1.00290E-05-7.57335E-19-5.19860E-19
 -1      3649 9.76407E-05-3.17544E-05-2.82913E-05-1.09160E-05-8.53851E-19-1.15555E-18
 -1      3650 1.01563E-04-3.47561E-05-2.86173E-05-9.82007E-06-8.95717E-19-3.36277E-19
 -1      3651 1.16947E-04-4.98544E-05-2.87373E-05 1.00758E-05-2.32429E-18-1.01785E-18
 -1      3652 1.11121E-04-4.63585E-05-2.76546E-05 1.28178E-05-2.81094E-18-3.57974E-19
 -1      3653 9.74276E-05-4.05303E-05-2.42831E-05 2.25289E-05-2.86514E-18-2.81969E-20
 -1      3654 9.57898E-05-2.91032E-05-2.86092E-05-9.79370E-06-4.44043E-19-1.49782E-18
 -1      3655 9.68558E-05-2.92150E-05-2.89754E-05-8.93894E-06-2.70980E-20-1.35762E-18
 -1      3656 9.61770E-05-2.83212E-05-2.90676E-05-8.53529E-06-1.56307E-20-1.35029E-18
 -1      3657 1.21183E-04-4.74819E-05-3.14712E-05 1.25333E-06-6.24846E-19 1.78696E-18
 -1      3658 1.21418E-04-4.42636E-05-3.32072E-05 6.13063E-06 1.57032E-20 1.93694E-18
 -1      3659 9.52386E-05-2.84942E-05-2.86044E-05 3.40903E-08 6.67507E-19-3.41974E-20
 -1      3660 9.52290E-05-2.84691E-05-2.86116E-05 4.80293E-08 3.19591E-19-1.12331E-19
 -1      3661 9.52388E-05-2.85050E-05-2.86002E-05 2.02987E-08 1.71071E-18 3.38693E-19
 -1      3662 9.07072E-05-3.39259E-05-2.42923E-05-2.17174E-05 2.41802E-18-1.69800E-18
 -1      3663 9.52436E-05-2.85292E-05-2.85920E-05 2.89430E-09 2.72976E-18 1.95392E-18
 -1      3664 9.23979E-05-2.10768E-05-3.05602E-05 1.92758E-06-1.04708E-18-2.05130E-18
 -1      3665 6.51169E-05-1.75340E-05-2.03531E-05 1.27130E-05-1.45980E-18 1.83605E-18
 -1      3666 5.86625E-05-1.45947E-05-1.86024E-05 8.93790E-06-1.28282E-18 2.89757E-18
 -1      3667 6.19360E-05-1.45270E-05-2.02497E-05 3.50886E-06-9.34615E-19 1.85748E-18
 -1      3668 9.58658E-05-2.76410E-05-2.92296E-05-7.87109E-06 3.85693E-20-1.22509E-18
 -1      3669 9.54777E-05-2.70087E-05-2.93356E-05-7.29656E-06 3.46468E-19-1.12305E-18
 -1      3670 9.48461E-05-2.73152E-05-2.89590E-05-8.45196E-06 2.65347E-19-1.33983E-18
 -1      3671 9.52100E-05-2.84607E-05-2.86071E-05 2.01388E-09 1.39126E-18 2.89970E-20
 -1      3672 9.52112E-05-2.84625E-05-2.86067E-05 5.11147E-09 9.51770E-19-5.87100E-19
 -1      3673 9.51998E-05-2.84331E-05-2.86138E-05-1.01857E-09 1.61647E-18-4.90687E-21
 -1      3674 9.52365E-05-2.85035E-05-2.86001E-05-1.46900E-08-2.51323E-19-1.57506E-18
 -1      3675 7.37373E-05-2.44081E-05-2.09426E-05-2.05767E-05 2.31049E-18-2.56307E-19
 -1      3676 9.52270E-05-2.84758E-05-2.86075E-05-2.64261E-08-5.65241E-19-5.92743E-19
 -1      3677 9.52299E-05-2.84909E-05-2.86024E-05-1.53110E-08-7.01333E-19-1.22455E-18
 -1      3678 9.52250E-05-2.84832E-05-2.86040E-05-1.61522E-08-9.11917E-19-5.26333E-19
 -1      3679 9.52239E-05-2.84832E-05-2.86035E-05 1.49641E-08 1.48456E-18-2.81394E-18
 -1      3680 9.52287E-05-2.84911E-05-2.86019E-05 1.46634E-08 2.26315E-18-3.76904E-18
 -1      3681 9.04251E-05-1.83145E-05-3.08830E-05-7.51940E-07 2.81271E-19-2.83195E-18
 -1      3682 8.99189E-05-1.71882E-05-3.11782E-05-3.28504E-07 2.99964E-19-3.02671E-18
 -1      3683 8.96800E-05-1.69584E-05-3.11835E-05-3.89664E-07 7.57174E-20-2.95111E-18
 -1      3684 8.29414E-05-2.87437E-05-2.31346E-05-2.15747E-05 2.45929E-18-8.50593E-19
 -1      3685 9.52191E-05-2.84735E-05-2.86053E-05-1.36194E-08-2.88034E-19-1.76171E-18
 -1      3686 9.52152E-05-2.84681E-05-2.86062E-05-1.17981E-08 8.22035E-19-2.19736E-18
 -1      3687 9.52041E-05-2.84385E-05-2.86132E-05-1.38762E-08 1.41134E-18-1.71785E-18
 -1      3688 9.52137E-05-2.84536E-05-2.86112E-05-2.29044E-08-3.55421E-19-1.26998E-18
 -1      3689 8.94342E-05-1.59368E-05-3.14792E-05-3.21057E-07-3.13535E-19-3.02340E-18
 -1      3690 9.32891E-05-3.84334E-05-2.33615E-05-2.47873E-05-2.80203E-18-3.87443E-19
 -1      3691 9.95228E-05-4.13914E-05-2.50173E-05-2.16364E-05-2.64245E-18-3.88709E-20
 -1      3692 8.99805E-05-3.45684E-05-2.37348E-05-2.25392E-05-2.38890E-18-9.36514E-19
 -1      3693 6.18054E-05-1.58319E-05-1.94845E-05-9.35420E-06 1.52744E-19 4.69230E-19
 -1      3694 9.33775E-05-2.10712E-05-3.09945E-05-2.19262E-07 1.32355E-18-2.06556E-18
 -1      3695 9.44575E-05-2.60648E-05-2.93206E-05-6.97174E-06 4.50869E-19-9.85719E-19
 -1      3696 9.52261E-05-2.84735E-05-2.86079E-05 2.91048E-08 1.32863E-18-2.33202E-18
 -1      3697 9.52341E-05-2.84998E-05-2.86007E-05 1.65828E-08 2.15590E-18-1.50436E-18
 -1      3698 7.20805E-05-2.34077E-05-2.06464E-05-2.05635E-05-2.54133E-18-2.61291E-18
 -1      3699 7.93039E-05-2.70517E-05-2.23139E-05-2.06426E-05-2.51672E-18-1.88552E-18
 -1      3700 6.92926E-05-2.02675E-05-2.10290E-05-1.54591E-05-1.80454E-18-2.85450E-18
 -1      3701 1.11523E-04-4.85958E-05-2.70522E-05-1.68535E-05-2.05616E-18 8.47658E-19
 -1      3702 1.13078E-04-4.68615E-05-2.83288E-05-1.08646E-05-1.44303E-18 7.15161E-19
 -1      3703 1.09076E-04-4.39974E-05-2.77492E-05-1.27593E-05-1.55001E-18 6.77396E-19
 -1      3704 1.06167E-04-4.49849E-05-2.61379E-05-1.87611E-05-2.25493E-18-4.88252E-20
 -1      3705 1.19263E-04-3.12142E-05-3.78556E-05 1.36553E-05 1.74727E-18 1.94622E-18
 -1      3706 1.16619E-04-2.68459E-05-3.88980E-05 1.28956E-05 2.16454E-18 1.26896E-18
 -1      3707 8.76462E-05-2.15704E-05-2.83440E-05 7.10726E-06-4.35858E-19-1.55591E-18
 -1      3708 8.68430E-05-2.15356E-05-2.79852E-05 7.94302E-06-4.47487E-19-1.72315E-18
 -1      3709 8.54480E-05-2.13782E-05-2.74973E-05 8.77182E-06-4.34976E-19-1.84065E-18
 -1      3710 8.46149E-05-2.14961E-05-2.70344E-05 9.80069E-06-1.23904E-19-2.18219E-18
 -1      3711 8.45710E-05-2.04119E-05-2.74592E-05 6.99921E-06-4.71148E-19-1.85072E-18
 -1      3712 8.29110E-05-2.14844E-05-2.63798E-05 1.09581E-05 1.18131E-19-2.40432E-18
 -1      3713 8.22005E-05-2.19848E-05-2.57672E-05 1.23861E-05 2.64043E-19-2.64930E-18
 -1      3714 8.14901E-05-2.00445E-05-2.62822E-05 8.78067E-06-2.23518E-19-2.28757E-18
 -1      3715 8.00500E-05-2.21413E-05-2.48493E-05 1.41858E-05 7.34887E-19-2.69221E-18
 -1      3716 7.98221E-05-2.35712E-05-2.40645E-05 1.63882E-05 1.32663E-18-2.57160E-18
 -1      3717 7.77448E-05-1.99834E-05-2.46638E-05 1.14266E-05 3.84738E-19-2.63003E-18
 -1      3718 9.14846E-05-1.88843E-05-3.11285E-05-3.64108E-07 7.90726E-19-2.65750E-18
 -1      3719 9.15012E-05-1.94615E-05-3.08549E-05-9.94627E-07 6.87120E-19-2.55432E-18
 -1      3720 9.22375E-05-1.97235E-05-3.10865E-05-2.31554E-07 1.13087E-18-2.53120E-18
 -1      3721 7.44958E-05-2.32873E-05-2.18836E-05 1.88630E-05 1.69947E-18-3.02028E-18
 -1      3722 7.86992E-05-2.33659E-05-2.36533E-05-1.63310E-05 1.90366E-18 4.30498E-20
 -1      3723 7.88393E-05-2.19106E-05-2.44655E-05-1.39754E-05 1.43380E-18-2.76341E-19
 -1      3724 9.52204E-05-2.84551E-05-2.86137E-05-4.08780E-08-3.25463E-19-2.89956E-22
 -1      3725 8.08548E-05-2.15468E-05-2.53808E-05-1.20766E-05 3.73691E-20 2.08898E-20
 -1      3726 8.14944E-05-2.10114E-05-2.59767E-05-1.05779E-05 2.26151E-21-5.45964E-19
 -1      3727 7.60968E-05-1.94463E-05-2.42091E-05-1.11504E-05 7.08613E-19-2.59584E-19
 -1      3728 8.31618E-05-2.10499E-05-2.66037E-05-9.35902E-06 3.83965E-20-7.20893E-19
 -1      3729 8.39534E-05-2.09908E-05-2.70248E-05-8.32126E-06-8.89186E-20-9.95099E-19
 -1      3730 7.97926E-05-1.95025E-05-2.57995E-05-8.35024E-06 4.86717E-20-6.69626E-19
 -1      3731 8.53379E-05-2.12697E-05-2.74530E-05-7.50321E-06 1.47904E-19-1.78931E-18
 -1      3732 8.61277E-05-2.14698E-05-2.77396E-05-6.73469E-06 3.51192E-19-1.74388E-18
 -1      3733 8.28573E-05-2.00588E-05-2.68852E-05-6.56989E-06-4.62464E-19-1.54174E-18
 -1      3734 8.72722E-05-2.18734E-05-2.80277E-05-6.13825E-06 9.59036E-19-1.27316E-18
 -1      3735 8.79895E-05-2.22055E-05-2.82145E-05-5.52968E-06 1.02608E-18-1.03374E-18
 -1      3736 8.53768E-05-2.08727E-05-2.76227E-05-5.34579E-06 7.37081E-19-1.71722E-18
 -1      3737 8.89310E-05-2.26606E-05-2.84029E-05-5.05993E-06 1.21192E-19-7.51156E-19
 -1      3738 8.95491E-05-2.30459E-05-2.85175E-05-4.55314E-06-3.64293E-19-1.63555E-19
 -1      3739 8.74480E-05-2.18058E-05-2.81152E-05-4.42174E-06 9.01884E-19-1.12576E-18
 -1      3740 9.03179E-05-2.35051E-05-2.86356E-05-4.16278E-06-8.40080E-19 8.71151E-20
 -1      3741 9.08323E-05-2.38955E-05-2.86997E-05-3.72943E-06-1.16216E-18 1.29502E-19
 -1      3742 8.91440E-05-2.27662E-05-2.84342E-05-3.66848E-06-5.62939E-19 3.97779E-20
 -1      3743 9.14541E-05-2.43295E-05-2.87689E-05-3.39614E-06-1.47502E-18-3.95341E-22
 -1      3744 9.18714E-05-2.46972E-05-2.87989E-05-3.02311E-06-9.30719E-19-8.81029E-19
 -1      3745 9.05229E-05-2.36923E-05-2.86311E-05-3.02531E-06-1.05508E-18 1.12190E-18
 -1      3746 9.23689E-05-2.50896E-05-2.88347E-05-2.73683E-06 9.25978E-20-1.26796E-18
 -1      3747 9.27007E-05-2.54200E-05-2.88426E-05-2.41760E-06 1.06991E-18-1.00903E-18
 -1      3748 9.16335E-05-2.45458E-05-2.87436E-05-2.46633E-06-4.06329E-19 1.13800E-18
 -1      3749 9.30942E-05-2.57632E-05-2.88564E-05-2.17339E-06 1.24632E-18-1.15057E-18
 -1      3750 9.33536E-05-2.60503E-05-2.88506E-05-1.90366E-06 1.14444E-18-3.20952E-19
 -1      3751 9.25186E-05-2.53058E-05-2.87991E-05-1.98129E-06 7.49152E-19-1.15691E-19
 -1      3752 9.36610E-05-2.63428E-05-2.88506E-05-1.69815E-06 5.36735E-19-6.56196E-19
 -1      3753 9.38607E-05-2.65860E-05-2.88371E-05-1.47381E-06 1.89257E-19-9.27775E-20
 -1      3754 9.32158E-05-2.59643E-05-2.88171E-05-1.56546E-06 9.88845E-19 7.94593E-19
 -1      3755 9.40978E-05-2.68298E-05-2.88288E-05-1.30372E-06 7.21204E-20-1.37802E-18
 -1      3756 9.42494E-05-2.70314E-05-2.88117E-05-1.12027E-06-5.64029E-19-1.33187E-18
 -1      3757 9.37582E-05-2.65217E-05-2.88119E-05-1.21492E-06-5.44236E-19 6.84627E-20
 -1      3758 9.44297E-05-2.72309E-05-2.87990E-05-9.81974E-07 5.66231E-23-1.32645E-18
 -1      3759 9.45429E-05-2.73949E-05-2.87809E-05-8.34514E-07 1.30678E-18-4.85086E-19
 -1      3760 9.41746E-05-2.69842E-05-2.87930E-05-9.24883E-07-8.57550E-20-1.36022E-18
 -1      3761 9.46780E-05-2.75554E-05-2.87664E-05-7.24078E-07 1.26388E-18-7.44846E-19
 -1      3762 9.47613E-05-2.76866E-05-2.87487E-05-6.07561E-07 9.13020E-19-1.00205E-18
 -1      3763 9.44897E-05-2.73610E-05-2.87673E-05-6.89406E-07 1.42112E-18-1.11383E-18
 -1      3764 9.48607E-05-2.78135E-05-2.87340E-05-5.20953E-07 3.93459E-19-1.53475E-18
 -1      3765 9.49208E-05-2.79168E-05-2.87179E-05-4.30459E-07-3.34079E-19-2.07104E-18
 -1      3766 9.47244E-05-2.76628E-05-2.87391E-05-5.01787E-07-1.28345E-19-2.31243E-18
 -1      3767 9.49925E-05-2.80156E-05-2.87039E-05-3.63766E-07-3.56531E-19-1.96584E-18
 -1      3768 9.50349E-05-2.80958E-05-2.86896E-05-2.94718E-07 5.06145E-19-2.12208E-18
 -1      3769 9.48961E-05-2.79008E-05-2.87111E-05-3.55063E-07-4.74133E-19-2.06848E-18
 -1      3770 9.50854E-05-2.81716E-05-2.86770E-05-2.44323E-07 1.33257E-18-2.16626E-18
 -1      3771 9.51145E-05-2.82329E-05-2.86646E-05-1.92640E-07 2.02340E-18-2.08044E-18
 -1      3772 9.50190E-05-2.80855E-05-2.86850E-05-2.42462E-07 9.92829E-19-1.78250E-18
 -1      3773 9.51490E-05-2.82903E-05-2.86534E-05-1.55330E-07 3.13071E-18-2.05151E-18
 -1      3774 9.51683E-05-2.83367E-05-2.86429E-05-1.17480E-07 3.05682E-18-1.05694E-18
 -1      3775 9.51046E-05-2.82269E-05-2.86613E-05-1.57728E-07 2.71074E-18-1.64987E-18
 -1      3776 9.51910E-05-2.83795E-05-2.86332E-05-9.06838E-08 1.88610E-18-1.21224E-18
 -1      3777 9.52032E-05-2.84144E-05-2.86242E-05-6.32887E-08 1.01907E-18-3.72090E-19
 -1      3778 9.51625E-05-2.83338E-05-2.86405E-05-9.55325E-08 3.08785E-18-1.87751E-18
 -1      3779 9.35004E-05-2.45201E-05-2.95599E-05-5.54128E-06 5.87281E-19-1.20178E-18
 -1      3780 9.34674E-05-2.40065E-05-2.97696E-05-4.68164E-06 8.49896E-19-1.27826E-18
 -1      3781 9.07795E-05-2.17158E-05-2.96133E-05 4.22497E-06-8.06858E-19-1.66616E-18
 -1      3782 9.02689E-05-2.18030E-05-2.93466E-05 5.01856E-06-6.89482E-19-1.75079E-18
 -1      3783 1.02899E-04-4.27065E-05-2.59384E-05 1.87994E-05-2.82351E-18-5.75135E-19
 -1      3784 9.31120E-05-3.60736E-05-2.43861E-05 2.09751E-05-2.15817E-18-5.88549E-19
 -1      3785 1.03122E-04-3.95769E-05-2.71453E-05 1.37731E-05-2.56463E-18 6.18066E-19
 -1      3786 1.06887E-04-4.26523E-05-2.74627E-05 1.28474E-05-2.55353E-18-2.60115E-19
 -1      3787 9.37544E-05-2.84640E-05-2.79723E-05 9.72250E-06-1.23711E-18 1.18013E-18
 -1      3788 9.48194E-05-2.97573E-05-2.78529E-05 1.03050E-05-8.57504E-19 1.28768E-18
 -1      3789 9.27804E-05-2.68085E-05-2.82743E-05 8.20054E-06-6.75869E-19 1.30254E-18
 -1      3790 9.33446E-05-2.75765E-05-2.81629E-05 8.81768E-06-1.21317E-18 1.12432E-18
 -1      3791 9.16161E-05-2.70438E-05-2.76976E-05 9.66239E-06-1.14191E-18 1.62417E-18
 -1      3792 9.24797E-05-2.59573E-05-2.85148E-05 6.82168E-06 1.68004E-20 1.29711E-18
 -1      3793 9.27238E-05-2.63511E-05-2.84288E-05 7.41250E-06-1.08317E-19 1.17628E-18
 -1      3794 9.12157E-05-2.57316E-05-2.80744E-05 7.89111E-06-2.13933E-19 7.84814E-19
 -1      3795 9.25629E-05-2.56455E-05-2.86860E-05 5.61001E-06 4.41306E-19 6.80987E-21
 -1      3796 9.26167E-05-2.57895E-05-2.86285E-05 6.15128E-06 6.58786E-19 1.08081E-18
 -1      3797 9.13325E-05-2.51522E-05-2.83653E-05 6.40703E-06 4.13173E-19 4.07700E-19
 -1      3798 9.28438E-05-2.56740E-05-2.87946E-05 4.56141E-06-4.74353E-20-4.67407E-19
 -1      3799 9.27936E-05-2.56615E-05-2.87626E-05 5.04457E-06 1.23007E-19 1.28947E-19
 -1      3800 9.17192E-05-2.50469E-05-2.85723E-05 5.17236E-06 4.51711E-19 1.99409E-19
 -1      3801 9.32063E-05-2.58998E-05-2.88529E-05 3.66415E-06-5.92291E-20-6.80709E-19
 -1      3802 9.31070E-05-2.57974E-05-2.88410E-05 4.08698E-06-1.92547E-19-3.65589E-19
 -1      3803 9.22221E-05-2.52297E-05-2.87075E-05 4.14593E-06-3.87621E-20 1.01886E-19
 -1      3804 9.35813E-05-2.62244E-05-2.88740E-05 2.90504E-06 6.31421E-19-3.54081E-19
 -1      3805 9.34661E-05-2.60774E-05-2.88763E-05 3.26848E-06 4.59303E-19-6.82344E-19
 -1      3806 9.27483E-05-2.55705E-05-2.87864E-05 3.29353E-06 4.67024E-19-1.81728E-19
 -1      3807 9.39309E-05-2.65829E-05-2.88693E-05 2.27074E-06 1.08088E-18-3.03882E-19
 -1      3808 9.38183E-05-2.64210E-05-2.88810E-05 2.57775E-06 9.10957E-19-7.96782E-19
 -1      3809 9.32454E-05-2.59809E-05-2.88236E-05 2.58836E-06 1.01485E-18-1.09721E-18
 -1      3810 9.42365E-05-2.69350E-05-2.88485E-05 1.74786E-06 6.30875E-19-7.34063E-19
 -1      3811 9.41360E-05-2.67765E-05-2.88654E-05 2.00279E-06 8.48747E-19-6.34408E-19
 -1      3812 9.36862E-05-2.64037E-05-2.88317E-05 2.00901E-06 1.11657E-18-9.54667E-19
 -1      3813 9.44918E-05-2.72580E-05-2.88187E-05 1.32295E-06-3.40925E-19-4.36810E-19
 -1      3814 9.44072E-05-2.71130E-05-2.88379E-05 1.53108E-06 3.96900E-19-3.87956E-19
 -1      3815 9.40601E-05-2.68041E-05-2.88209E-05 1.53748E-06 6.20457E-19-3.61521E-19
 -1      3816 9.46976E-05-2.75404E-05-2.87850E-05 9.82713E-07-7.50098E-19-1.96937E-19
 -1      3817 9.46293E-05-2.74139E-05-2.88046E-05 1.14983E-06-8.76593E-19-6.61610E-19
 -1      3818 9.43664E-05-2.71633E-05-2.87988E-05 1.15801E-06-5.55955E-20 7.64600E-19
 -1      3819 9.48584E-05-2.77788E-05-2.87511E-05 7.14379E-07-7.42523E-19 5.26047E-19
 -1      3820 9.48053E-05-2.76723E-05-2.87696E-05 8.46356E-07-6.98351E-19 1.35455E-19
 -1      3821 9.46101E-05-2.74728E-05-2.87711E-05 8.56446E-07-7.98772E-19 9.63930E-19
 -1      3822 9.49805E-05-2.79744E-05-2.87190E-05 5.06020E-07-7.48557E-19 1.03825E-18
 -1      3823 9.49406E-05-2.78873E-05-2.87358E-05 6.08527E-07-8.47072E-19 8.39525E-19
 -1      3824 9.47986E-05-2.77314E-05-2.87416E-05 6.20008E-07-6.75589E-19 1.60973E-18
 -1      3825 9.50705E-05-2.81310E-05-2.86899E-05 3.46857E-07-4.25297E-19 2.40415E-18
 -1      3826 9.50415E-05-2.80614E-05-2.87047E-05 4.25111E-07-1.47301E-19 1.61569E-18
 -1      3827 9.49408E-05-2.79418E-05-2.87127E-05 4.37287E-07-8.77871E-19 2.10179E-18
 -1      3828 9.51348E-05-2.82538E-05-2.86645E-05 2.27386E-07 7.27045E-19 1.90231E-18
 -1      3829 9.51145E-05-2.81993E-05-2.86771E-05 2.86034E-07-5.33187E-20 1.52428E-18
 -1      3830 9.50450E-05-2.81092E-05-2.86859E-05 2.98279E-07 4.13992E-19 2.12314E-18
 -1      3831 9.51791E-05-2.83483E-05-2.86426E-05 1.39474E-07 4.78211E-19 1.23114E-18
 -1      3832 9.51655E-05-2.83063E-05-2.86532E-05 1.82502E-07 1.01697E-18 1.74138E-18
 -1      3833 9.51190E-05-2.82398E-05-2.86620E-05 1.94313E-07 4.23234E-19 1.76850E-18
 -1      3834 9.52082E-05-2.84198E-05-2.86241E-05 7.65960E-08-1.11786E-18 8.52276E-19
 -1      3835 9.51996E-05-2.83881E-05-2.86329E-05 1.07028E-07-7.85868E-19 1.02446E-18
 -1      3836 9.51697E-05-2.83400E-05-2.86410E-05 1.18192E-07 2.71677E-19 8.91870E-19
 -1      3837 9.52197E-05-2.84563E-05-2.86131E-05 4.22410E-08 1.48738E-18-1.39398E-18
 -1      3838 9.52166E-05-2.84392E-05-2.86184E-05 5.93256E-08 7.41038E-19-6.78497E-19
 -1      3839 9.51979E-05-2.84054E-05-2.86255E-05 6.87946E-08 7.83557E-19-1.04204E-18
 -1      3840 9.52130E-05-2.84471E-05-2.86143E-05 3.81253E-08 1.18928E-18-3.27141E-18
 -1      3841 7.52313E-05-2.35335E-05-2.21413E-05-1.86379E-05 1.83216E-18-6.74185E-20
 -1      3842 9.52144E-05-2.84679E-05-2.86060E-05 1.03384E-08 4.79324E-19-1.02152E-18
 -1      3843 9.52182E-05-2.84732E-05-2.86050E-05 1.22571E-08 7.27487E-19-1.36146E-18
 -1      3844 9.52134E-05-2.84543E-05-2.86106E-05 2.26475E-08 1.49391E-18-2.95930E-18
 -1      3845 9.52031E-05-2.84385E-05-2.86130E-05 1.25851E-08 9.17483E-19-6.53635E-19
 -1      3846 8.98133E-05-1.70812E-05-3.11711E-05-1.35542E-07-4.53394E-19-3.03966E-18
 -1      3847 9.01711E-05-1.75075E-05-3.11587E-05-1.45260E-07-6.87702E-19-3.06909E-18
 -1      3848 9.04078E-05-1.83660E-05-3.08610E-05 3.90776E-07-6.62857E-19-2.88668E-18
 -1      3849 9.52386E-05-2.85098E-05-2.85981E-05 1.41193E-08 2.34012E-18 2.17034E-19
 -1      3850 9.34703E-05-2.55070E-05-2.91169E-05-7.16100E-06 4.38099E-19-1.27183E-18
 -1      3851 9.33651E-05-2.49694E-05-2.93132E-05-6.37508E-06 5.67222E-19-1.26172E-18
 -1      3852 9.24743E-05-2.39508E-05-2.93670E-05-5.72715E-06 6.43753E-19-1.36068E-18
 -1      3853 6.28612E-05-1.48812E-05-2.05288E-05-5.55226E-06 3.29258E-19 1.50745E-19
 -1      3854 6.66088E-05-1.75649E-05-2.09291E-05-1.24928E-05 1.55606E-18-9.68159E-19
 -1      3855 8.96068E-05-1.68667E-05-3.11797E-05-2.62102E-07-4.33158E-20-2.71978E-18
 -1      3856 8.96687E-05-1.69602E-05-3.11775E-05-2.84461E-07-4.04644E-19-2.78811E-18
 -1      3857 8.99177E-05-1.78346E-05-3.08746E-05-6.61584E-08-3.60654E-19-2.64357E-18
 -1      3858 8.99337E-05-1.78167E-05-3.08849E-05-4.27999E-07-5.49013E-20-2.70967E-18
 -1      3859 9.32883E-05-2.15091E-05-3.07504E-05-1.11963E-06 1.14720E-18-1.97410E-18
 -1      3860 9.58478E-05-3.12656E-05-2.76500E-05 1.12689E-05-7.90103E-19 1.03112E-18
 -1      3861 9.76613E-05-3.32025E-05-2.75695E-05 1.16521E-05-1.26038E-18 1.06150E-18
 -1      3862 9.29330E-05-2.94426E-05-2.72576E-05 1.17281E-05-8.63412E-19 4.45759E-19
 -1      3863 9.86543E-05-3.48005E-05-2.73201E-05 1.27049E-05-1.95946E-18 1.23093E-18
 -1      3864 1.01381E-04-3.73343E-05-2.73602E-05 1.26373E-05-2.25559E-18 5.40692E-19
 -1      3865 9.71749E-05-3.62793E-05-2.62005E-05 1.64863E-05-2.24702E-18-3.87815E-19
 -1      3866 9.48362E-05-3.25772E-05-2.67610E-05 1.39580E-05-1.09351E-18-5.12521E-19
 -1      3867 9.16013E-05-2.03064E-05-3.05694E-05 1.49291E-06-9.54445E-19-2.32745E-18
 -1      3868 9.17001E-05-2.09139E-05-3.03293E-05 2.31849E-06-9.35604E-19-2.24718E-18
 -1      3869 9.09245E-05-1.95366E-05-3.05899E-05 1.22557E-06-8.07482E-19-2.58256E-18
 -1      3870 9.14838E-05-2.12664E-05-3.01050E-05 2.85722E-06-8.35754E-19-2.14179E-18
 -1      3871 9.11779E-05-2.15602E-05-2.98371E-05 3.70611E-06-8.19174E-19-1.89787E-18
 -1      3872 9.01364E-05-2.09284E-05-2.96435E-05 3.36241E-06-6.65198E-19-2.02712E-18
 -1      3873 9.07395E-05-2.04800E-05-3.01025E-05 2.34673E-06-7.41570E-19-2.37106E-18
 -1      3874 8.94399E-05-2.17617E-05-2.90226E-05 5.65656E-06-5.84858E-19-1.73351E-18
 -1      3875 8.87542E-05-2.17303E-05-2.87272E-05 6.42762E-06-4.70389E-19-1.64621E-18
 -1      3876 8.89665E-05-2.10547E-05-2.90829E-05 4.45211E-06-6.61491E-19-1.82246E-18
 -1      3877 1.02061E-04-4.13588E-05-2.59808E-05-1.85689E-05-2.16480E-18-4.48795E-19
 -1      3878 6.39175E-05-1.54581E-05-2.07406E-05 4.38799E-06 3.19656E-19-2.85048E-18
 -1      3879 5.99191E-05-1.41994E-05-1.93051E-05-1.94963E-06-3.87195E-19-3.23420E-18
 -1      3880 6.38542E-05-1.58402E-05-2.05301E-05-5.72001E-06-9.40986E-19-2.93645E-18
 -1      3881 8.70489E-05-2.08175E-05-2.83555E-05 5.65056E-06-4.77060E-19-1.82672E-18
 -1      3882 9.19279E-05-2.06016E-05-3.05746E-05-1.70104E-06 7.77146E-19-2.24626E-18
 -1      3883 9.12357E-05-1.98795E-05-3.05944E-05-1.58019E-06 4.98748E-19-2.55377E-18
 -1      3884 9.52036E-05-2.84230E-05-2.86202E-05-4.68463E-08 2.00213E-19-9.15503E-19
 -1      3885 7.60290E-05-1.84984E-05-2.47401E-05 7.48497E-06 4.61865E-20-2.29181E-18
 -1      3886 7.40083E-05-1.84585E-05-2.37890E-05 8.84635E-06 5.53078E-19-2.61294E-18
 -1      3887 9.09923E-05-2.02348E-05-3.03151E-05-1.93186E-06 4.38869E-19-2.47400E-18
 -1      3888 9.06444E-05-1.92628E-05-3.05948E-05-1.24511E-06 3.02760E-19-2.78306E-18
 -1      3889 9.02097E-05-1.88476E-05-3.06000E-05-1.04641E-06 1.13433E-19-2.72144E-18
 -1      3890 1.04273E-04-4.17450E-05-2.69030E-05-1.58506E-05-1.81859E-18-3.16466E-19
 -1      3891 1.05333E-04-4.09898E-05-2.75499E-05-1.32033E-05-1.56902E-18 3.54670E-20
 -1      3892 1.02354E-04-3.80597E-05-2.74301E-05-1.36830E-05-1.54214E-18-2.48594E-19
 -1      3893 9.82839E-05-3.78001E-05-2.58829E-05-1.81936E-05-2.10175E-18-9.10410E-19
 -1      3894 6.84082E-05-1.64868E-05-2.21522E-05 6.81082E-06 3.00773E-19-2.82847E-18
 -1      3895 6.92050E-05-1.80367E-05-2.19888E-05 1.12636E-05 8.39711E-19-3.10078E-18
 -1      3896 7.54624E-05-2.21092E-05-2.28352E-05 1.52739E-05-1.67813E-18 2.80932E-18
 -1      3897 6.99763E-05-1.95884E-05-2.14375E-05 1.48871E-05-1.71447E-18 1.73638E-18
 -1      3898 6.93484E-05-1.76288E-05-2.22182E-05 9.85980E-06-1.53899E-18 1.71685E-18
 -1      3899 1.01037E-04-3.56623E-05-2.80977E-05-1.15731E-05-1.18477E-18-2.80537E-19
 -1      3900 8.05530E-05-2.63080E-05-2.33003E-05-1.84090E-05-2.07498E-18-1.89060E-18
 -1      3901 8.50096E-05-3.00616E-05-2.34166E-05-2.11735E-05-2.48072E-18-1.43743E-18
 -1      3902 9.63851E-05-3.14119E-05-2.77998E-05-1.18796E-05-1.28599E-18-1.26994E-18
 -1      3903 9.50304E-05-2.97915E-05-2.79483E-05-1.13719E-05-1.02032E-18-1.51664E-18
 -1      3904 9.51967E-05-2.84226E-05-2.86178E-05 2.77596E-08 1.53708E-18-8.35479E-19
 -1      3905 9.52035E-05-2.84325E-05-2.86163E-05 3.24814E-08 1.58089E-18-2.94314E-18
 -1      3906 9.51965E-05-2.84113E-05-2.86217E-05 4.55655E-08 1.67332E-18-2.49116E-18
 -1      3907 9.37640E-05-3.45097E-05-2.53020E-05 1.80009E-05-2.14629E-18-7.31342E-19
 -1      3908 8.76703E-05-3.21170E-05-2.37652E-05 2.11523E-05-2.24847E-18 4.97804E-19
 -1      3909 8.30435E-05-2.80557E-05-2.36135E-05 1.90218E-05-2.02239E-18 1.61998E-18
 -1      3910 9.21957E-05-3.24858E-05-2.56000E-05 1.67260E-05-1.60048E-18-8.44804E-19
 -1      3911 9.45018E-05-2.85877E-05-2.82203E-05-1.03597E-05-5.64863E-19-1.34796E-18
 -1      3912 9.38121E-05-2.75208E-05-2.84090E-05-9.68863E-06-9.53064E-20-1.36893E-18
 -1      3913 9.27948E-05-2.81425E-05-2.77180E-05-1.13617E-05-5.78222E-19-1.35463E-18
 -1      3914 9.36990E-05-2.67501E-05-2.86729E-05-8.75604E-06 3.09972E-19-1.33415E-18
 -1      3915 9.33843E-05-2.60320E-05-2.88657E-05-8.02317E-06 4.50687E-19-1.12743E-18
 -1      3916 9.22006E-05-2.61930E-05-2.82974E-05-9.29700E-06 1.49791E-19-1.03470E-18
 -1      3917 9.51832E-05-2.84013E-05-2.86211E-05-5.41512E-09 1.69417E-18 6.15670E-19
 -1      3918 9.51828E-05-2.84010E-05-2.86210E-05 3.05398E-09 9.59335E-19 1.08966E-18
 -1      3919 9.33217E-05-2.20646E-05-3.05423E-05-1.97661E-06 1.09860E-18-2.00260E-18
 -1      3920 9.06251E-05-3.31466E-05-2.45899E-05-1.97882E-05-2.44088E-18-6.29986E-19
 -1      3921 9.22204E-05-2.49249E-05-2.88448E-05-7.44794E-06 4.17367E-19-1.23554E-18
 -1      3922 6.67176E-05-1.55778E-05-2.19499E-05 3.43713E-06-3.95449E-19 1.03890E-18
 -1      3923 6.40331E-05-1.44682E-05-2.10622E-05-9.95645E-07-1.18694E-19 2.58279E-19
 -1      3924 6.78757E-05-1.58049E-05-2.22742E-05-4.28536E-06 8.06468E-19-1.10951E-18
 -1      3925 9.51901E-05-2.84101E-05-2.86202E-05-2.34563E-08 1.44863E-18-2.58311E-18
 -1      3926 9.51859E-05-2.84051E-05-2.86208E-05-1.69296E-08 1.97895E-18-9.76830E-19
 -1      3927 9.51691E-05-2.83682E-05-2.86283E-05-1.45004E-08 1.33354E-18-3.04259E-19
 -1      3928 7.03763E-05-1.94344E-05-2.17090E-05-1.47264E-05 1.95719E-18-3.39958E-19
 -1      3929 9.27002E-05-2.29560E-05-2.98881E-05-4.03486E-06 7.63303E-19-1.53503E-18
 -1      3930 9.35374E-05-2.34794E-05-3.00271E-05-3.82328E-06 9.79603E-19-1.57757E-18
 -1      3931 7.06389E-05-1.80610E-05-2.25527E-05-1.11125E-05 1.63684E-18-1.33244E-18
 -1      3932 9.36050E-05-2.31125E-05-3.02117E-05-3.06332E-06 1.05996E-18-1.67428E-18
 -1      3933 9.24849E-05-2.13523E-05-3.04857E-05-2.12417E-06 9.64424E-19-1.98817E-18
 -1      3934 9.22089E-05-2.16448E-05-3.02357E-05-2.72837E-06 8.23839E-19-1.89929E-18
 -1      3935 9.51955E-05-2.84122E-05-2.86217E-05-4.21109E-08 1.39381E-18-2.34398E-18
 -1      3936 7.88242E-05-1.89688E-05-2.56609E-05 6.76024E-06-2.16285E-19-2.47452E-18
 -1      3937 7.58621E-05-1.76326E-05-2.48770E-05 4.13999E-06-9.65634E-20-2.14592E-18
 -1      3938 8.05973E-05-1.92194E-05-2.63583E-05 5.87523E-06-4.24640E-19-2.38475E-18
 -1      3939 9.20969E-05-2.22425E-05-2.99429E-05-3.49109E-06 7.33689E-19-1.66090E-18
 -1      3940 9.15493E-05-2.14878E-05-3.00201E-05-3.03840E-06 6.66201E-19-1.96634E-18
 -1      3941 9.20087E-05-2.27679E-05-2.96736E-05-4.32785E-06 5.80209E-19-1.46091E-18
 -1      3942 7.14236E-05-2.00970E-05-2.17699E-05 1.54041E-05 1.34388E-18-3.22726E-18
 -1      3943 7.37559E-05-1.83273E-05-2.37321E-05-9.41167E-06 1.14637E-18-1.72077E-18
 -1      3944 7.57857E-05-1.83263E-05-2.46858E-05-7.94018E-06 1.72752E-19-9.34301E-19
 -1      3945 7.09864E-05-1.67613E-05-2.31059E-05-7.37564E-06 8.52755E-19-1.97776E-18
 -1      3946 7.81889E-05-1.87603E-05-2.54737E-05-7.02586E-06-1.90620E-19-8.50822E-19
 -1      3947 7.98868E-05-1.90296E-05-2.61214E-05-6.11931E-06 6.20907E-20-1.33280E-18
 -1      3948 7.64449E-05-1.77847E-05-2.50635E-05-5.45850E-06 4.89885E-20-1.23714E-18
 -1      3949 8.16950E-05-1.95221E-05-2.66527E-05-5.54656E-06-3.64585E-19-1.80377E-18
 -1      3950 8.30881E-05-1.99263E-05-2.70941E-05-4.95285E-06-1.03662E-19-1.91120E-18
 -1      3951 8.04760E-05-1.88489E-05-2.63665E-05-4.34294E-06-4.62149E-19-1.71291E-18
 -1      3952 8.44963E-05-2.04525E-05-2.74543E-05-4.54979E-06 9.88357E-19-1.66958E-18
 -1      3953 8.56408E-05-2.09228E-05-2.77521E-05-4.11904E-06 1.67586E-18-1.14495E-18
 -1      3954 8.35948E-05-1.99459E-05-2.72483E-05-3.61972E-06 9.21387E-19-1.29705E-18
 -1      3955 8.67615E-05-2.14584E-05-2.79932E-05-3.80240E-06 1.07896E-18-1.07696E-18
 -1      3956 8.76998E-05-2.19490E-05-2.81894E-05-3.45801E-06 2.86771E-19-5.59324E-19
 -1      3957 8.60657E-05-2.10477E-05-2.78437E-05-3.08072E-06 1.18211E-18-5.05755E-19
 -1      3958 8.86009E-05-2.24706E-05-2.83468E-05-3.18889E-06-5.09508E-19 3.49598E-20
 -1      3959 8.93653E-05-2.29495E-05-2.84712E-05-2.89461E-06-2.67255E-19-8.36719E-20
 -1      3960 8.80497E-05-2.21228E-05-2.82387E-05-2.62994E-06 1.91582E-19 2.26926E-19
 -1      3961 9.00916E-05-2.34388E-05-2.85697E-05-2.65676E-06-1.12026E-20-2.46571E-19
 -1      3962 9.07088E-05-2.38851E-05-2.86441E-05-2.39756E-06-4.62118E-19 7.54953E-19
 -1      3963 8.96497E-05-2.31386E-05-2.84928E-05-2.22620E-06-1.04341E-19-2.36955E-19
 -1      3964 9.12925E-05-2.43296E-05-2.87018E-05-2.18586E-06-4.33698E-19 9.51908E-19
 -1      3965 9.17857E-05-2.47311E-05-2.87418E-05-1.95673E-06 2.24188E-19 8.76447E-19
 -1      3966 9.09379E-05-2.40702E-05-2.86483E-05-1.85679E-06 4.78078E-20 2.92180E-19
 -1      3967 9.22513E-05-2.51238E-05-2.87716E-05-1.77028E-06 3.89553E-19 1.04025E-18
 -1      3968 9.26411E-05-2.54748E-05-2.87888E-05-1.56996E-06 1.43774E-18 6.22760E-19
 -1      3969 9.19687E-05-2.49019E-05-2.87356E-05-1.52124E-06 5.41436E-19 9.90937E-19
 -1      3970 9.30089E-05-2.58134E-05-2.88001E-05-1.40878E-06 1.28111E-18 9.83325E-19
 -1      3971 9.33132E-05-2.61130E-05-2.88027E-05-1.23672E-06 1.66635E-19 8.74193E-19
 -1      3972 9.27861E-05-2.56265E-05-2.87770E-05-1.22246E-06 7.72899E-19 3.92164E-19
 -1      3973 9.36005E-05-2.63988E-05-2.88023E-05-1.10032E-06-6.38164E-19 1.28816E-18
 -1      3974 9.38349E-05-2.66493E-05-2.87959E-05-9.55491E-07-9.72263E-19 8.85110E-19
 -1      3975 9.34272E-05-2.62440E-05-2.87884E-05-9.62777E-07-2.09173E-19 9.99387E-19
 -1      3976 9.40564E-05-2.68858E-05-2.87885E-05-8.42540E-07-8.19517E-19 1.93781E-19
 -1      3977 9.42346E-05-2.70914E-05-2.87773E-05-7.23090E-07 6.40960E-19-2.07403E-19
 -1      3978 9.39238E-05-2.67598E-05-2.87811E-05-7.42570E-07-7.12148E-19 1.87886E-18
 -1      3979 9.44027E-05-2.72837E-05-2.87662E-05-6.31513E-07 1.56939E-18-1.39788E-18
 -1      3980 9.45361E-05-2.74494E-05-2.87527E-05-5.34947E-07 5.47860E-19-2.03601E-18
 -1      3981 9.43031E-05-2.71829E-05-2.87631E-05-5.60200E-07 4.94867E-19-3.64424E-19
 -1      3982 9.46618E-05-2.76031E-05-2.87400E-05-4.62205E-07-1.31734E-19-2.14035E-18
 -1      3983 9.47599E-05-2.77346E-05-2.87261E-05-3.85644E-07-3.45598E-19-1.77837E-18
 -1      3984 9.45882E-05-2.75240E-05-2.87398E-05-4.12508E-07 6.71163E-20-1.93243E-18
 -1      3985 9.48520E-05-2.78555E-05-2.87132E-05-3.29014E-07-5.99613E-19-1.29174E-18
 -1      3986 9.49227E-05-2.79582E-05-2.86998E-05-2.69469E-07 7.37737E-20-9.84398E-19
 -1      3987 9.47989E-05-2.77944E-05-2.87147E-05-2.95424E-07-2.97467E-19 2.23432E-19
 -1      3988 9.49888E-05-2.80518E-05-2.86876E-05-2.26272E-07 7.14149E-19-1.40758E-18
 -1      3989 9.50384E-05-2.81308E-05-2.86753E-05-1.80838E-07 1.57158E-18-1.43205E-18
 -1      3990 9.49513E-05-2.80055E-05-2.86900E-05-2.04529E-07 4.80665E-19 1.41499E-20
 -1      3991 9.50847E-05-2.82022E-05-2.86641E-05-1.48650E-07 2.66567E-18-1.67953E-19
 -1      3992 9.51185E-05-2.82622E-05-2.86531E-05-1.14780E-07 3.65084E-18 1.29456E-19
 -1      3993 9.50591E-05-2.81679E-05-2.86669E-05-1.35324E-07 2.75880E-18 3.14756E-19
 -1      3994 9.51496E-05-2.83160E-05-2.86431E-05-9.10240E-08 3.08720E-18-1.21618E-18
 -1      3995 9.51720E-05-2.83609E-05-2.86336E-05-6.70868E-08 2.19488E-18-1.54590E-18
 -1      3996 9.51323E-05-2.82905E-05-2.86459E-05-8.42834E-08 2.45454E-18 7.03974E-20
 -1      3997 7.78487E-05-2.30658E-05-2.33474E-05-1.56386E-05-1.66188E-18-2.23306E-18
 -1      3998 8.27569E-05-2.58762E-05-2.43376E-05-1.61113E-05-1.76558E-18-1.65380E-18
 -1      3999 8.96174E-05-2.45012E-05-2.79224E-05 7.15779E-06 2.63647E-19-5.08285E-19
 -1      4000 8.96655E-05-2.48790E-05-2.77428E-05 7.96487E-06-2.82078E-19 2.25450E-20
 -1      4001 9.03912E-05-1.90655E-05-3.05874E-05 7.18748E-07-6.71297E-19-2.74635E-18
 -1      4002 9.04238E-05-1.96425E-05-3.03254E-05 1.29780E-06-6.50529E-19-2.59309E-18
 -1      4003 9.00248E-05-1.86341E-05-3.05940E-05 4.28104E-07-4.42574E-19-2.66479E-18
 -1      4004 9.51862E-05-2.84068E-05-2.86201E-05 1.28762E-08 1.40010E-18-9.49330E-19
 -1      4005 9.51900E-05-2.84120E-05-2.86193E-05 2.02567E-08 1.66529E-18-1.14953E-18
 -1      4006 9.51795E-05-2.83863E-05-2.86251E-05 2.96793E-08 2.10031E-18-1.57244E-18
 -1      4007 9.51696E-05-2.83704E-05-2.86276E-05 9.94045E-09 1.19655E-18-4.32668E-19
 -1      4008 8.93458E-05-2.52830E-05-2.74704E-05 9.02879E-06-8.62028E-19 3.29083E-19
 -1      4009 8.97409E-05-2.60936E-05-2.72447E-05 1.00133E-05-7.66387E-19 6.60190E-19
 -1      4010 8.77180E-05-2.39761E-05-2.73191E-05 8.23861E-06-2.17030E-19-9.08828E-19
 -1      4011 9.09133E-05-2.44596E-05-2.84924E-05 4.50009E-06 2.93230E-19 5.75440E-19
 -1      4012 9.06784E-05-2.43864E-05-2.84019E-05 5.04364E-06 6.60313E-19 7.90611E-19
 -1      4013 9.16450E-05-2.48277E-05-2.86465E-05 3.55189E-06 1.36700E-19 1.47523E-19
 -1      4014 9.13790E-05-2.46564E-05-2.85897E-05 4.00039E-06 3.99378E-19 6.51271E-19
 -1      4015 9.03952E-05-2.40274E-05-2.84355E-05 3.86268E-06 5.23095E-19 5.13724E-19
 -1      4016 9.23342E-05-2.52973E-05-2.87390E-05 2.78519E-06 1.61795E-18-1.51549E-18
 -1      4017 9.20724E-05-2.50789E-05-2.87078E-05 3.15551E-06 1.23843E-18-5.54410E-19
 -1      4018 9.12878E-05-2.45314E-05-2.86024E-05 3.00636E-06 1.41040E-18-1.09097E-18
 -1      4019 9.29483E-05-2.57971E-05-2.87866E-05 2.16459E-06 1.48825E-18-1.79369E-18
 -1      4020 9.27099E-05-2.55654E-05-2.87738E-05 2.46934E-06 1.10001E-18-1.75668E-18
 -1      4021 9.20879E-05-2.50952E-05-2.87043E-05 2.33001E-06 1.43612E-18-2.85696E-18
 -1      4022 9.34740E-05-2.62818E-05-2.88029E-05 1.66378E-06 7.88879E-19-1.03371E-18
 -1      4023 9.32679E-05-2.60579E-05-2.88025E-05 1.91287E-06 1.18336E-18-1.13173E-18
 -1      4024 9.27792E-05-2.56604E-05-2.87593E-05 1.79320E-06 6.63305E-19-1.97513E-18
 -1      4025 9.39099E-05-2.67249E-05-2.87986E-05 1.26219E-06-2.76443E-19 6.34882E-19
 -1      4026 9.37383E-05-2.65210E-05-2.88061E-05 1.46388E-06 2.76133E-19 3.06889E-19
 -1      4027 9.33588E-05-2.61904E-05-2.87815E-05 1.36701E-06-1.98699E-19 4.17681E-19
 -1      4028 9.42613E-05-2.71132E-05-2.87819E-05 9.42975E-07-4.38177E-19 1.79049E-18
 -1      4029 9.41231E-05-2.69352E-05-2.87938E-05 1.10447E-06 5.98971E-20 1.31853E-18
 -1      4030 9.38323E-05-2.66648E-05-2.87821E-05 1.02977E-06-7.72798E-19 1.86993E-18
 -1      4031 9.45377E-05-2.74424E-05-2.87583E-05 6.91930E-07-7.55166E-19 1.63506E-18
 -1      4032 9.44293E-05-2.72920E-05-2.87723E-05 8.19624E-07-4.06550E-19 1.90977E-18
 -1      4033 9.42100E-05-2.70745E-05-2.87692E-05 7.64610E-07-4.52004E-19 2.37085E-18
 -1      4034 9.47498E-05-2.77141E-05-2.87321E-05 4.96856E-07-1.02415E-18 2.32587E-18
 -1      4035 9.46671E-05-2.75904E-05-2.87465E-05 5.96466E-07-6.60685E-19 2.11006E-18
 -1      4036 9.45046E-05-2.74184E-05-2.87488E-05 5.57909E-07-9.47032E-19 2.39639E-18
 -1      4037 9.49087E-05-2.79330E-05-2.87058E-05 3.47263E-07-3.19847E-20 1.18848E-18
 -1      4038 9.48473E-05-2.78337E-05-2.87196E-05 4.23845E-07-6.05516E-19 2.04735E-18
 -1      4039 9.47291E-05-2.76999E-05-2.87249E-05 3.98442E-07-1.51701E-19 1.70636E-18
 -1      4040 9.50246E-05-2.81059E-05-2.86809E-05 2.34302E-07 7.14373E-19 6.86536E-19
 -1      4041 9.49803E-05-2.80277E-05-2.86935E-05 2.92207E-07 6.73225E-19 1.06269E-18
 -1      4042 9.48963E-05-2.79254E-05-2.87004E-05 2.76833E-07 5.32845E-19 8.09609E-19
 -1      4043 9.51066E-05-2.82398E-05-2.86583E-05 1.50393E-07 6.75046E-19 1.16417E-19
 -1      4044 9.50756E-05-2.81793E-05-2.86695E-05 1.93440E-07 6.68694E-19 1.43530E-19
 -1      4045 9.50176E-05-2.81023E-05-2.86769E-05 1.85672E-07 8.70753E-19-7.39517E-19
 -1      4046 9.51627E-05-2.83414E-05-2.86382E-05 8.98903E-08 8.29956E-19-1.45936E-19
 -1      4047 9.51419E-05-2.82959E-05-2.86480E-05 1.20477E-07 9.41046E-19 3.19488E-19
 -1      4048 9.51028E-05-2.82390E-05-2.86552E-05 1.18203E-07 9.02316E-19-1.34501E-18
 -1      4049 9.51856E-05-2.83902E-05-2.86268E-05 5.69580E-08 2.34624E-18-2.96655E-18
 -1      4050 9.51764E-05-2.83656E-05-2.86328E-05 7.47245E-08 1.93932E-18-1.51386E-18
 -1      4051 9.51500E-05-2.83241E-05-2.86395E-05 7.49717E-08 2.19073E-18-1.92132E-18
 -1      4052 9.51751E-05-2.83756E-05-2.86287E-05 4.88483E-08 2.22009E-18-1.80456E-18
 -1      4053 9.02011E-05-2.42994E-05-2.82576E-05 5.67916E-06 3.03734E-19-7.81217E-20
 -1      4054 9.00579E-05-2.43987E-05-2.81254E-05 6.34041E-06 1.65769E-20-2.76342E-20
 -1      4055 8.85143E-05-2.35929E-05-2.78187E-05 6.37549E-06-2.09241E-19-9.64622E-19
 -1      4056 8.94473E-05-2.36716E-05-2.81824E-05 4.95730E-06-1.79019E-19 5.70776E-19
 -1      4057 6.89387E-05-1.60726E-05-2.26953E-05 2.48104E-06-2.20741E-19-2.07630E-18
 -1      4058 8.86809E-05-2.06310E-05-2.91822E-05 3.09856E-06-6.15472E-19-2.18018E-18
 -1      4059 8.78578E-05-2.05866E-05-2.88404E-05 3.62238E-06-6.36440E-19-2.07909E-18
 -1      4060 8.40693E-05-1.99029E-05-2.75334E-05 4.81594E-06-4.46579E-19-2.22168E-18
 -1      4061 8.26392E-05-1.96382E-05-2.70159E-05 5.44545E-06-4.92459E-19-2.30589E-18
 -1      4062 8.06126E-05-1.87199E-05-2.64673E-05 3.49195E-06-4.60715E-19-2.32094E-18
 -1      4063 9.09335E-05-2.42450E-05-2.85704E-05-7.38911E-06 2.67129E-19-1.00582E-18
 -1      4064 9.10435E-05-2.37558E-05-2.88489E-05-6.51163E-06 3.83496E-19-1.09692E-18
 -1      4065 6.80372E-05-1.77293E-05-2.13395E-05-1.12561E-05-1.47249E-18-2.94466E-18
 -1      4066 7.32554E-05-2.07749E-05-2.24926E-05-1.38096E-05-1.60998E-18-2.51591E-18
 -1      4067 7.57670E-05-2.08584E-05-2.35777E-05-1.20828E-05-1.19050E-18-2.29243E-18
 -1      4068 8.96922E-05-2.69400E-05-2.68989E-05 1.13777E-05-1.16279E-18 1.03656E-18
 -1      4069 9.06560E-05-2.83957E-05-2.66431E-05 1.25800E-05-8.71847E-19 4.35595E-19
 -1      4070 8.72911E-05-2.51203E-05-2.66618E-05 1.07128E-05-1.09816E-18 3.77559E-19
 -1      4071 8.92669E-05-3.04918E-05-2.52324E-05-1.73737E-05-1.95511E-18-1.08171E-18
 -1      4072 9.40615E-05-3.45635E-05-2.55034E-05-1.85941E-05-2.03493E-18-9.17075E-19
 -1      4073 9.67804E-05-3.52305E-05-2.64117E-05-1.61482E-05-1.78357E-18-1.13128E-18
 -1      4074 8.67203E-05-2.04212E-05-2.84376E-05 3.94600E-06-6.21873E-19-2.04049E-18
 -1      4075 8.55998E-05-2.02275E-05-2.80314E-05 4.47707E-06-4.91350E-19-2.15246E-18
 -1      4076 8.40987E-05-1.95161E-05-2.76351E-05 3.01367E-06-6.19906E-19-2.25522E-18
 -1      4077 9.63616E-05-3.28481E-05-2.71943E-05-1.37469E-05-1.57095E-18-1.09522E-18
 -1      4078 9.31595E-05-3.06714E-05-2.67933E-05-1.42463E-05-1.56209E-18-1.42267E-18
 -1      4079 9.15206E-05-2.35209E-05-2.91388E-05-5.80744E-06 4.67589E-19-1.34909E-18
 -1      4080 9.16679E-05-2.30740E-05-2.94056E-05-4.98488E-06 5.28700E-19-1.32473E-18
 -1      4081 9.10708E-05-2.23212E-05-2.94504E-05-4.42177E-06 4.74897E-19-1.62652E-18
 -1      4082 9.02689E-05-2.28527E-05-2.88796E-05-5.73658E-06 2.62050E-19-1.09056E-18
 -1      4083 1.13807E-04-2.08151E-05-4.04277E-05-1.16755E-05 3.05885E-18-3.05149E-18
 -1      4084 8.67182E-05-2.00364E-05-2.85469E-05 2.53036E-06-6.44275E-19-2.20751E-18
 -1      4085 9.08587E-05-2.08652E-05-3.00096E-05-2.61903E-06 4.33902E-19-2.26621E-18
 -1      4086 9.51758E-05-2.83726E-05-2.86297E-05-4.82249E-08 1.54493E-18-2.49244E-18
 -1      4087 9.01404E-05-1.93869E-05-3.03058E-05-1.19944E-06-2.43102E-20-2.44561E-18
 -1      4088 8.99638E-05-1.85860E-05-3.05929E-05-7.15051E-07-2.91782E-20-2.60177E-18
 -1      4089 8.98361E-05-1.84998E-05-3.05885E-05-5.22737E-07-2.57502E-19-2.49529E-18
 -1      4090 7.98741E-05-2.45612E-05-2.36018E-05 1.65876E-05-2.14977E-18 2.62410E-18
 -1      4091 7.74730E-05-2.18855E-05-2.38835E-05 1.31980E-05-2.12032E-18 2.36074E-18
 -1      4092 8.47501E-05-2.72764E-05-2.46186E-05 1.63355E-05-2.34268E-18 1.30320E-18
 -1      4093 8.96864E-05-2.87366E-05-2.60767E-05-1.46808E-05-1.50112E-18-1.00072E-18
 -1      4094 9.00551E-05-2.77154E-05-2.67701E-05-1.28988E-05-1.02096E-18-1.07185E-18
 -1      4095 7.10538E-05-1.64025E-05-2.34692E-05-3.52713E-06 3.94598E-19-1.18423E-18
 -1      4096 7.30667E-05-1.82439E-05-2.35222E-05 8.25471E-06-9.02005E-19 1.16764E-18
 -1      4097 6.95390E-05-1.64892E-05-2.26177E-05 6.30589E-06-6.37171E-19 1.06862E-18
 -1      4098 7.05913E-05-1.63043E-05-2.33056E-05 2.50023E-06 3.00816E-19 1.68315E-19
 -1      4099 9.03211E-05-2.67090E-05-2.72356E-05-1.14025E-05-5.13553E-19-1.08538E-18
 -1      4100 8.98772E-05-2.56434E-05-2.75595E-05-1.02314E-05-1.29468E-19-8.98266E-19
 -1      4101 8.71591E-05-2.50544E-05-2.66123E-05-1.15934E-05-6.36093E-19-7.33714E-19
 -1      4102 7.25670E-05-1.70192E-05-2.37846E-05 2.63250E-07-1.43063E-19-2.13295E-18
 -1      4103 6.89618E-05-1.62118E-05-2.25587E-05-2.09781E-06-1.32950E-19-2.00303E-18
 -1      4104 8.97429E-05-1.95643E-05-3.00720E-05 1.00409E-06-4.60738E-19-2.43200E-18
 -1      4105 9.01574E-05-2.00100E-05-3.00790E-05 1.58437E-06-6.51180E-19-2.61283E-18
 -1      4106 8.99262E-05-2.02804E-05-2.98460E-05 2.05977E-06-7.06502E-19-2.54391E-18
 -1      4107 9.51437E-05-2.83277E-05-2.86358E-05 8.76966E-09 8.42435E-19-1.47239E-19
 -1      4108 9.51476E-05-2.83333E-05-2.86348E-05 2.11821E-08 1.75739E-18-2.53968E-18
 -1      4109 9.04535E-05-2.52142E-05-2.79434E-05-9.19830E-06-7.33153E-20-8.74674E-19
 -1      4110 9.03908E-05-2.45323E-05-2.82440E-05-8.21000E-06 2.02629E-19-9.47985E-19
 -1      4111 8.92528E-05-2.33116E-05-2.82455E-05-7.22321E-06 1.88221E-19-8.07453E-19
 -1      4112 8.81161E-05-2.38745E-05-2.75121E-05-9.01877E-06 9.88430E-20-6.62485E-19
 -1      4113 6.81447E-05-1.67704E-05-2.20029E-05-5.28956E-06-5.60769E-19-2.33086E-18
 -1      4114 9.84606E-05-3.52237E-05-2.70738E-05-1.42148E-05-1.62695E-18-7.17568E-19
 -1      4115 7.80184E-05-1.82115E-05-2.56690E-05 6.01903E-07-2.11633E-19-2.07578E-18
 -1      4116 7.52711E-05-1.75753E-05-2.47571E-05 6.95087E-07-1.33638E-19-2.10059E-18
 -1      4117 7.56105E-05-1.78285E-05-2.47016E-05-3.42385E-06-1.47091E-19-1.92901E-18
 -1      4118 8.33702E-05-2.45162E-05-2.52690E-05-1.34424E-05-1.25887E-18-1.21680E-18
 -1      4119 8.64097E-05-2.74050E-05-2.52584E-05-1.58160E-05-1.68910E-18-9.82365E-19
 -1      4120 9.51470E-05-2.83301E-05-2.86358E-05-2.57852E-08 1.11046E-18-1.36962E-18
 -1      4121 9.51435E-05-2.83272E-05-2.86360E-05-1.07853E-08 6.92840E-19 1.91806E-18
 -1      4122 9.51216E-05-2.82850E-05-2.86435E-05-7.26834E-10 1.17125E-18 2.64347E-19
 -1      4123 8.97952E-05-1.84182E-05-3.05929E-05-1.68406E-07-3.12537E-19-2.55156E-18
 -1      4124 8.98643E-05-1.85333E-05-3.05872E-05 4.63929E-08-3.69081E-19-2.68398E-18
 -1      4125 8.98494E-05-1.90803E-05-3.03132E-05 3.49888E-07-4.72444E-19-2.54094E-18
 -1      4126 8.98016E-05-1.90570E-05-3.03022E-05-4.39190E-07-3.23766E-19-2.50631E-18
 -1      4127 8.95700E-05-2.04527E-05-2.96364E-05 2.34273E-06-5.47612E-19-2.49834E-18
 -1      4128 8.91770E-05-2.05895E-05-2.94006E-05 2.80032E-06-4.99675E-19-2.44190E-18
 -1      4129 8.82571E-05-2.01299E-05-2.91725E-05 2.01434E-06-4.11111E-19-2.32988E-18
 -1      4130 8.91185E-05-1.99990E-05-2.96095E-05 1.49070E-06-4.87925E-19-2.47984E-18
 -1      4131 7.19722E-05-1.62366E-05-2.37856E-05-5.69113E-07 3.40607E-19-3.95746E-19
 -1      4132 7.42349E-05-1.71061E-05-2.45059E-05-3.38800E-06 1.54241E-19-1.37973E-18
 -1      4133 7.66085E-05-1.76714E-05-2.52981E-05-2.90482E-06-1.42371E-19-1.20728E-18
 -1      4134 7.37692E-05-1.70481E-05-2.43333E-05 2.00498E-06-1.13673E-19-4.06689E-19
 -1      4135 7.88747E-05-1.83158E-05-2.59740E-05-2.80018E-06-1.56963E-19-1.09085E-18
 -1      4136 8.06656E-05-1.88714E-05-2.65085E-05-2.51499E-06-2.52747E-19-6.04407E-19
 -1      4137 7.72843E-05-1.76764E-05-2.54881E-05-8.35332E-07-1.79431E-19-4.65514E-19
 -1      4138 8.23639E-05-1.94741E-05-2.69684E-05-2.45079E-06 6.71471E-19-1.00614E-18
 -1      4139 8.37636E-05-2.00288E-05-2.73316E-05-2.24684E-06 1.55735E-18-5.99485E-19
 -1      4140 8.11579E-05-1.89549E-05-2.66234E-05-9.93288E-07 1.81953E-19-8.12573E-20
 -1      4141 8.50901E-05-2.06137E-05-2.76446E-05-2.18829E-06 1.23700E-18-7.96462E-19
 -1      4142 8.62058E-05-2.11593E-05-2.78886E-05-2.01696E-06 7.16444E-19-6.93582E-19
 -1      4143 8.41336E-05-2.01475E-05-2.73981E-05-1.08057E-06 1.11963E-18-8.38967E-19
 -1      4144 8.72626E-05-2.17194E-05-2.80989E-05-1.94889E-06 5.86117E-19-8.06671E-19
 -1      4145 8.81603E-05-2.22420E-05-2.82591E-05-1.78878E-06 2.52621E-20-2.57265E-19
 -1      4146 8.64842E-05-2.12870E-05-2.79237E-05-1.10320E-06 3.47525E-19-7.16942E-19
 -1      4147 8.90115E-05-2.27677E-05-2.83969E-05-1.70865E-06-6.06296E-19-2.42253E-19
 -1      4148 8.97351E-05-2.32547E-05-2.84981E-05-1.55432E-06 2.11848E-19-6.94983E-20
 -1      4149 8.83707E-05-2.23651E-05-2.82743E-05-1.06286E-06 1.35077E-19-1.30526E-18
 -1      4150 9.04223E-05-2.37363E-05-2.85848E-05-1.46648E-06 4.57844E-19-3.82885E-19
 -1      4151 9.10034E-05-2.41778E-05-2.86447E-05-1.31940E-06-2.33868E-19-9.56559E-20
 -1      4152 8.98950E-05-2.33670E-05-2.85013E-05-9.75270E-07 1.44401E-19-2.65800E-19
 -1      4153 9.15560E-05-2.46081E-05-2.86957E-05-1.22982E-06 7.09815E-20-3.58992E-19
 -1      4154 9.20191E-05-2.49985E-05-2.87274E-05-1.09349E-06 9.04541E-19 1.89882E-19
 -1      4155 9.11254E-05-2.42768E-05-2.86410E-05-8.58867E-07-2.53345E-19-5.41680E-19
 -1      4156 9.24598E-05-2.53740E-05-2.87538E-05-1.00752E-06 5.60835E-19-3.94617E-19
 -1      4157 9.28252E-05-2.57111E-05-2.87667E-05-8.85047E-07 4.31277E-19-8.63456E-19
 -1      4158 9.21125E-05-2.50837E-05-2.87200E-05-7.30048E-07 4.42552E-19-9.85884E-19
 -1      4159 9.31730E-05-2.60318E-05-2.87768E-05-8.06519E-07 1.01769E-18-9.18026E-19
 -1      4160 9.34580E-05-2.63169E-05-2.87777E-05-6.99792E-07 2.98616E-19 1.91217E-19
 -1      4161 9.28969E-05-2.57833E-05-2.87577E-05-6.01399E-07 6.80744E-19-8.81041E-19
 -1      4162 9.37288E-05-2.65852E-05-2.87773E-05-6.30929E-07-1.12248E-18 1.31946E-18
 -1      4163 9.39482E-05-2.68217E-05-2.87709E-05-5.40486E-07-6.04929E-19 1.27002E-18
 -1      4164 9.35130E-05-2.63772E-05-2.87684E-05-4.81414E-07 6.63774E-19-5.23983E-19
 -1      4165 9.41562E-05-2.70420E-05-2.87642E-05-4.82140E-07-9.65789E-19 6.11134E-19
 -1      4166 9.43226E-05-2.72347E-05-2.87539E-05-4.07424E-07-3.64476E-19-1.15750E-18
 -1      4167 9.39903E-05-2.68714E-05-2.87621E-05-3.74996E-07-1.40822E-18-5.10129E-19
 -1      4168 9.44797E-05-2.74124E-05-2.87438E-05-3.59435E-07 6.23489E-19-2.42064E-18
 -1      4169 9.46038E-05-2.75667E-05-2.87317E-05-2.99137E-07 8.67071E-20-1.36703E-18
 -1      4170 9.43546E-05-2.72752E-05-2.87459E-05-2.84266E-07-6.10350E-19-1.44222E-18
 -1      4171 9.47204E-05-2.77076E-05-2.87202E-05-2.60699E-07 3.91659E-20-1.16944E-18
 -1      4172 9.48112E-05-2.78291E-05-2.87078E-05-2.13099E-07 2.94571E-19-6.14993E-19
 -1      4173 9.46279E-05-2.75994E-05-2.87247E-05-2.09392E-07 3.55752E-19-3.04565E-18
 -1      4174 9.48959E-05-2.79391E-05-2.86961E-05-1.83056E-07 5.77214E-19-3.98937E-19
 -1      4175 9.49609E-05-2.80334E-05-2.86841E-05-1.46246E-07 1.08802E-18-2.52130E-19
 -1      4176 9.48290E-05-2.78552E-05-2.87017E-05-1.49349E-07 5.51367E-19-2.49364E-18
 -1      4177 9.50209E-05-2.81176E-05-2.86729E-05-1.23512E-07 1.98370E-18-3.75019E-19
 -1      4178 9.50657E-05-2.81898E-05-2.86619E-05-9.53090E-08 2.84525E-18 3.10580E-20
 -1      4179 9.49740E-05-2.80543E-05-2.86790E-05-1.02404E-07 1.21276E-18-8.69602E-19
 -1      4180 8.76297E-05-2.74144E-05-2.58536E-05 1.39625E-05-1.55877E-18 9.90864E-19
 -1      4181 9.12297E-05-3.00020E-05-2.62406E-05 1.42279E-05-1.08618E-18-2.17120E-19
 -1      4182 8.45185E-05-1.96246E-05-2.78337E-05 1.15801E-06-7.17874E-19-1.84251E-18
 -1      4183 8.29529E-05-1.93067E-05-2.73172E-05 1.26798E-06-6.21556E-19-1.93279E-18
 -1      4184 9.20986E-05-3.14226E-05-2.59315E-05 1.54389E-05-1.48082E-18-3.43699E-19
 -1      4185 8.61540E-05-2.26659E-05-2.72414E-05 6.88475E-06 1.40891E-19-4.37053E-19
 -1      4186 8.58311E-05-2.29062E-05-2.69406E-05 7.92397E-06-1.32055E-19-2.07736E-19
 -1      4187 9.19056E-05-2.49875E-05-2.86888E-05 1.77960E-06 1.05162E-18-2.14737E-18
 -1      4188 9.15329E-05-2.46806E-05-2.86491E-05 2.05924E-06 1.93455E-18-1.76113E-18
 -1      4189 9.10058E-05-2.43357E-05-2.85849E-05 2.33105E-06 2.23372E-18-2.06912E-18
 -1      4190 9.05815E-05-2.40347E-05-2.85167E-05 2.68484E-06 1.74324E-18-1.27126E-18
 -1      4191 9.09091E-05-2.42047E-05-2.85732E-05 1.76547E-06 1.92454E-18-1.33189E-18
 -1      4192 8.99621E-05-2.36963E-05-2.84146E-05 3.04447E-06 9.88565E-19-6.53197E-19
 -1      4193 8.94991E-05-2.34341E-05-2.83078E-05 3.49640E-06 4.56567E-19-2.79239E-19
 -1      4194 8.97822E-05-2.34700E-05-2.84024E-05 2.35099E-06 1.76769E-18-1.91430E-18
 -1      4195 9.26627E-05-2.56086E-05-2.87452E-05 1.35079E-06-9.30584E-19-5.92750E-19
 -1      4196 9.23461E-05-2.53169E-05-2.87257E-05 1.57281E-06-2.36396E-19-2.09914E-18
 -1      4197 9.18596E-05-2.49179E-05-2.86775E-05 1.32474E-06-6.88431E-21-9.65249E-19
 -1      4198 9.32858E-05-2.61729E-05-2.87689E-05 1.01671E-06-8.12345E-19 5.30944E-19
 -1      4199 9.30242E-05-2.59087E-05-2.87631E-05 1.19299E-06-8.33822E-19-5.10737E-19
 -1      4200 9.26467E-05-2.55774E-05-2.87344E-05 9.90433E-07-1.36828E-18-1.40921E-18
 -1      4201 9.37878E-05-2.66672E-05-2.87709E-05 7.56842E-07-6.14599E-19 8.87028E-19
 -1      4202 9.35770E-05-2.64367E-05-2.87739E-05 8.96299E-07-5.20400E-19 5.08866E-19
 -1      4203 9.32866E-05-2.61649E-05-2.87588E-05 7.35762E-07-1.26892E-18-3.33629E-19
 -1      4204 9.41840E-05-2.70876E-05-2.87595E-05 5.55610E-07-2.82773E-19 8.58359E-19
 -1      4205 9.40181E-05-2.68923E-05-2.87678E-05 6.65220E-07-5.26454E-19 8.36861E-19
 -1      4206 9.37971E-05-2.66723E-05-2.87618E-05 5.41533E-07-4.79358E-19-1.43074E-18
 -1      4207 9.44904E-05-2.74362E-05-2.87405E-05 4.00857E-07-1.13192E-18 1.87663E-18
 -1      4208 9.43627E-05-2.72749E-05-2.87516E-05 4.86259E-07-8.54503E-19 1.58161E-18
 -1      4209 9.41967E-05-2.70994E-05-2.87515E-05 3.93655E-07-5.75951E-19-1.20415E-18
 -1      4210 9.47221E-05-2.77188E-05-2.87180E-05 2.82908E-07 9.83493E-19 5.67821E-19
 -1      4211 9.46262E-05-2.75885E-05-2.87301E-05 3.48762E-07 8.58548E-20 1.44218E-18
 -1      4212 9.45036E-05-2.74506E-05-2.87336E-05 2.81559E-07 3.04834E-19 5.45343E-19
 -1      4213 9.48936E-05-2.79433E-05-2.86947E-05 1.93959E-07 1.17187E-18-6.65510E-19
 -1      4214 9.48232E-05-2.78401E-05-2.87067E-05 2.44148E-07 9.92250E-19 1.72174E-19
 -1      4215 9.47343E-05-2.77335E-05-2.87122E-05 1.97199E-07 1.12280E-18-8.78471E-19
 -1      4216 9.50182E-05-2.81188E-05-2.86722E-05 1.28066E-07 9.07313E-19-1.61596E-18
 -1      4217 9.49671E-05-2.80388E-05-2.86835E-05 1.65093E-07 1.66535E-18-7.89831E-19
 -1      4218 9.49034E-05-2.79568E-05-2.86898E-05 1.34052E-07 1.92506E-18-1.07642E-18
 -1      4219 9.51046E-05-2.82527E-05-2.86513E-05 7.97717E-08 8.94080E-19-1.78350E-18
 -1      4220 9.50684E-05-2.81916E-05-2.86616E-05 1.06868E-07 7.49630E-19-2.16034E-18
 -1      4221 9.50255E-05-2.81313E-05-2.86680E-05 8.56100E-08 1.09686E-18-2.11087E-18
 -1      4222 7.21027E-05-1.79523E-05-2.32381E-05-7.19341E-06-4.45301E-19-2.13010E-18
 -1      4223 8.06912E-05-2.21344E-05-2.50812E-05-1.13758E-05-7.50522E-19-1.46802E-18
 -1      4224 8.41913E-05-2.36117E-05-2.59205E-05-1.12335E-05-8.38684E-19-8.80736E-19
 -1      4225 8.16736E-05-1.90083E-05-2.68811E-05 9.82895E-07-6.28320E-19-1.90632E-18
 -1      4226 7.96468E-05-1.85758E-05-2.62117E-05 1.07938E-06-4.39586E-19-2.00991E-18
 -1      4227 7.98548E-05-1.86578E-05-2.61510E-05-2.08665E-06-4.37712E-19-1.71634E-18
 -1      4228 8.25398E-05-1.91194E-05-2.71043E-05-1.04931E-06-5.94630E-19-1.55769E-18
 -1      4229 7.47971E-05-1.90179E-05-2.38164E-05-8.70557E-06-4.86041E-19-2.06121E-18
 -1      4230 7.83266E-05-2.10163E-05-2.45516E-05-1.05253E-05-6.05533E-19-1.98706E-18
 -1      4231 7.92456E-05-2.03843E-05-2.52780E-05-8.27903E-06-1.33598E-19-1.49655E-18
 -1      4232 7.48234E-05-1.82988E-05-2.42645E-05-5.92814E-06 7.42837E-20-1.65631E-18
 -1      4233 8.48451E-05-2.30538E-05-2.65132E-05 9.17297E-06-4.22963E-19 3.56406E-19
 -1      4234 8.47615E-05-2.37236E-05-2.61257E-05 1.05813E-05-6.64329E-19 1.00666E-18
 -1      4235 8.34446E-05-2.17235E-05-2.64459E-05 7.77258E-06 2.69075E-19 1.30101E-18
 -1      4236 9.51570E-05-2.83484E-05-2.86327E-05 3.21513E-08 2.18846E-18-2.16790E-18
 -1      4237 9.51644E-05-2.83585E-05-2.86312E-05 4.14424E-08 1.93123E-18-1.17586E-18
 -1      4238 9.51521E-05-2.83335E-05-2.86365E-05 5.24671E-08 2.53171E-18-2.22923E-18
 -1      4239 9.51314E-05-2.83011E-05-2.86411E-05 3.34182E-08 1.36854E-18-2.31184E-18
 -1      4240 8.69931E-05-2.00424E-05-2.87118E-05 1.07951E-06-4.29249E-19-2.15625E-18
 -1      4241 8.58445E-05-1.98637E-05-2.83004E-05 1.23663E-06-6.40764E-19-1.99715E-18
 -1      4242 8.51452E-05-1.96242E-05-2.80159E-05-3.75752E-07-5.64860E-19-1.83847E-18
 -1      4243 9.04736E-05-2.13069E-05-2.96456E-05-3.15493E-06 2.50238E-19-1.91905E-18
 -1      4244 9.00870E-05-2.01932E-05-2.99445E-05-2.00298E-06 7.55745E-20-2.21403E-18
 -1      4245 8.95648E-05-1.94605E-05-3.00586E-05 4.19877E-07-5.29029E-19-2.32486E-18
 -1      4246 8.92854E-05-1.97320E-05-2.98068E-05 6.22589E-07-4.93751E-19-2.38275E-18
 -1      4247 8.94880E-05-1.93835E-05-3.00514E-05 8.87797E-09-3.86542E-19-2.45022E-18
 -1      4248 8.97353E-05-1.99156E-05-2.99342E-05-1.60347E-06-2.11881E-19-2.09006E-18
 -1      4249 7.59672E-05-1.97638E-05-2.39861E-05 1.04800E-05-1.30755E-18 2.00063E-18
 -1      4250 7.52442E-05-1.86341E-05-2.43148E-05 7.37855E-06-6.53653E-19 9.85969E-19
 -1      4251 7.96684E-05-2.20702E-05-2.46738E-05 1.17936E-05-1.44456E-18 2.45524E-18
 -1      4252 8.45213E-05-2.28732E-05-2.64556E-05-9.70409E-06-1.39212E-19-7.50279E-19
 -1      4253 9.51060E-05-2.82516E-05-2.86518E-05-7.46327E-08 1.46336E-18-1.55043E-18
 -1      4254 9.51361E-05-2.83050E-05-2.86420E-05-5.58085E-08 7.98670E-19-3.74983E-18
 -1      4255 8.83166E-05-2.97963E-05-2.50417E-05 1.70607E-05-1.75486E-18-3.57086E-20
 -1      4256 8.70577E-05-2.27281E-05-2.75529E-05 5.98703E-06-3.88356E-19-5.26156E-19
 -1      4257 8.52805E-05-2.17474E-05-2.72069E-05 5.69252E-06-8.60131E-20-2.42950E-19
 -1      4258 8.74970E-05-2.27466E-05-2.77748E-05 5.21417E-06-7.32577E-19-2.99569E-19
 -1      4259 8.84703E-05-2.27632E-05-2.81401E-05 3.13754E-06 8.51938E-20-1.14234E-18
 -1      4260 8.87840E-05-2.31351E-05-2.81543E-05 3.97705E-06-4.67591E-19-2.06642E-20
 -1      4261 8.83087E-05-2.29598E-05-2.79967E-05 4.56283E-06-7.37243E-19-4.83143E-19
 -1      4262 8.77159E-05-2.24489E-05-2.79705E-05-6.58129E-06-3.54257E-20-1.23388E-18
 -1      4263 8.82690E-05-2.22715E-05-2.83159E-05-5.84260E-06 4.20814E-20-1.26112E-18
 -1      4264 7.76286E-05-1.88238E-05-2.52050E-05-4.86305E-06-1.31072E-19-1.74640E-18
 -1      4265 8.18672E-05-2.27850E-05-2.53258E-05 1.15045E-05-9.39499E-19 2.47531E-18
 -1      4266 8.44841E-05-2.50096E-05-2.54868E-05 1.30767E-05-1.73904E-18 1.81365E-18
 -1      4267 9.51378E-05-2.83067E-05-2.86420E-05 6.74373E-08 1.60436E-18-2.25383E-18
 -1      4268 8.76281E-05-2.00891E-05-2.89603E-05 1.02210E-06-3.64177E-19-2.22092E-18
 -1      4269 8.70611E-05-1.99921E-05-2.87384E-05-2.44013E-07-2.74540E-19-2.10440E-18
 -1      4270 8.81358E-05-2.00491E-05-2.91893E-05 7.89594E-07-3.50810E-19-2.30968E-18
 -1      4271 8.90691E-05-2.21658E-05-2.86726E-05-5.22696E-06 8.06394E-20-1.40417E-18
 -1      4272 8.95376E-05-2.19758E-05-2.89762E-05-4.54832E-06 8.88638E-20-1.51533E-18
 -1      4273 8.77380E-05-2.13294E-05-2.84162E-05-4.62282E-06-7.79684E-20-1.53546E-18
 -1      4274 9.50872E-05-2.82323E-05-2.86521E-05-1.27645E-08 8.88568E-19 2.71320E-19
 -1      4275 9.50865E-05-2.82319E-05-2.86519E-05 1.18259E-08 1.19775E-18-4.40205E-19
 -1      4276 9.50974E-05-2.82481E-05-2.86503E-05 4.32175E-08 5.69275E-19-2.73700E-18
 -1      4277 9.51092E-05-2.82628E-05-2.86481E-05 5.54290E-08 1.17433E-18-2.93253E-18
 -1      4278 9.01279E-05-2.16201E-05-2.93658E-05-3.75185E-06 7.88398E-20-1.70205E-18
 -1      4279 9.50602E-05-2.81885E-05-2.86591E-05 3.36725E-08 1.03230E-18-1.21068E-18
 -1      4280 9.50728E-05-2.82035E-05-2.86577E-05-6.22597E-08 1.10430E-18-2.19810E-18
 -1      4281 8.48163E-05-2.65356E-05-2.49821E-05 1.50835E-05-1.90656E-18 1.74516E-18
 -1      4282 9.51647E-05-2.83569E-05-2.86322E-05-4.44058E-08 1.44910E-18-3.56367E-18
 -1      4283 7.62142E-05-1.76454E-05-2.51391E-05 1.33701E-06 1.84003E-19-7.21390E-19
 -1      4284 7.84801E-05-1.82818E-05-2.58174E-05 1.05816E-06 1.84294E-19-1.53409E-19
 -1      4285 7.55681E-05-1.76802E-05-2.47236E-05 4.08358E-06 4.12536E-20-5.80290E-19
 -1      4286 8.02781E-05-1.88243E-05-2.63704E-05 6.09076E-07 3.02020E-20 1.69555E-19
 -1      4287 8.20007E-05-1.94060E-05-2.68347E-05 4.37951E-07 3.60709E-19 4.69138E-19
 -1      4288 7.96793E-05-1.87751E-05-2.60701E-05 2.70189E-06 5.37112E-19-3.34050E-19
 -1      4289 8.34084E-05-1.99650E-05-2.72148E-05 1.25991E-07 6.29027E-19 1.33561E-19
 -1      4290 8.47505E-05-2.05250E-05-2.75316E-05 1.67893E-08 8.71644E-19-3.34763E-19
 -1      4291 8.28850E-05-1.98321E-05-2.69945E-05 1.67190E-06 5.32321E-19 8.38276E-19
 -1      4292 8.58747E-05-2.10666E-05-2.77925E-05-1.80992E-07 3.01283E-19-5.32622E-19
 -1      4293 8.69418E-05-2.16051E-05-2.80064E-05-2.35133E-07-2.30843E-19-8.56821E-19
 -1      4294 8.53960E-05-2.08693E-05-2.76315E-05 9.82242E-07 2.32765E-19-6.18814E-21
 -1      4295 8.78565E-05-2.21268E-05-2.81827E-05-3.53871E-07 2.36525E-19-1.41837E-18
 -1      4296 8.87157E-05-2.26365E-05-2.83237E-05-3.65289E-07 5.88045E-19-6.58269E-19
 -1      4297 8.74253E-05-2.18913E-05-2.80674E-05 5.34971E-07-9.78871E-20-1.46347E-18
 -1      4298 8.94640E-05-2.31277E-05-2.84393E-05-4.30461E-07 5.49447E-19-8.70196E-20
 -1      4299 9.01580E-05-2.35990E-05-2.85288E-05-4.12224E-07 1.46566E-19-3.07268E-19
 -1      4300 8.90834E-05-2.28768E-05-2.83591E-05 2.53035E-07 6.60815E-19-8.91708E-19
 -1      4301 9.07686E-05-2.40494E-05-2.86010E-05-4.42249E-07-3.20856E-19-1.66261E-19
 -1      4302 9.13271E-05-2.44743E-05-2.86542E-05-4.05881E-07 1.29411E-19-2.57793E-19
 -1      4303 9.04399E-05-2.38008E-05-2.85473E-05 8.34000E-08 6.21023E-19 4.56935E-19
 -1      4304 9.18217E-05-2.48767E-05-2.86960E-05-4.14037E-07-2.67461E-20-3.91436E-19
 -1      4305 9.22677E-05-2.52506E-05-2.87242E-05-3.68674E-07-5.63967E-21-1.00631E-18
 -1      4306 9.15441E-05-2.46432E-05-2.86619E-05-1.15195E-08 4.76467E-20-3.47392E-19
 -1      4307 9.26638E-05-2.56014E-05-2.87450E-05-3.64275E-07 4.57094E-20-1.98400E-18
 -1      4308 9.30163E-05-2.59230E-05-2.87564E-05-3.16530E-07 7.24011E-19-1.82944E-18
 -1      4309 9.24345E-05-2.53909E-05-2.87251E-05-5.83890E-08-6.87053E-19-2.30845E-18
 -1      4310 9.33295E-05-2.62219E-05-2.87634E-05-3.05841E-07 1.30490E-18-2.51283E-18
 -1      4311 9.36046E-05-2.64927E-05-2.87640E-05-2.60072E-07 1.88278E-19-2.05054E-18
 -1      4312 9.31441E-05-2.60384E-05-2.87534E-05-7.57884E-08 1.63243E-19-4.15875E-18
 -1      4313 9.38486E-05-2.67422E-05-2.87620E-05-2.47083E-07-1.04584E-18-2.00246E-18
 -1      4314 9.40602E-05-2.69659E-05-2.87561E-05-2.05830E-07-1.43681E-18-2.19621E-18
 -1      4315 9.37017E-05-2.65869E-05-2.87588E-05-7.62940E-08-6.39393E-19-4.08395E-18
 -1      4316 9.42472E-05-2.71702E-05-2.87489E-05-1.92908E-07-1.40679E-18-2.09799E-18
 -1      4317 9.44074E-05-2.73515E-05-2.87393E-05-1.57368E-07-9.43628E-19-3.65103E-18
 -1      4318 9.41334E-05-2.70418E-05-2.87499E-05-6.81089E-08-1.19147E-18-4.29771E-18
 -1      4319 9.45482E-05-2.75157E-05-2.87294E-05-1.45768E-07-2.63513E-19-3.53501E-18
 -1      4320 9.46673E-05-2.76601E-05-2.87182E-05-1.16220E-07 6.11343E-19-3.15186E-18
 -1      4321 9.44618E-05-2.74120E-05-2.87330E-05-5.63503E-08-7.27732E-19-4.39311E-18
 -1      4322 9.47712E-05-2.77898E-05-2.87071E-05-1.06436E-07 1.37562E-18-3.22777E-18
 -1      4323 9.48580E-05-2.79030E-05-2.86956E-05-8.25621E-08 8.31881E-19-2.31986E-18
 -1      4324 9.47071E-05-2.77078E-05-2.87121E-05-4.40546E-08 8.90113E-19-2.69950E-18
 -1      4325 9.49329E-05-2.80033E-05-2.86845E-05-7.48743E-08 1.07134E-18-1.58606E-18
 -1      4326 9.49935E-05-2.80908E-05-2.86735E-05-5.56872E-08 1.82952E-18-7.89756E-19
 -1      4327 9.48867E-05-2.79410E-05-2.86900E-05-3.30240E-08 1.95250E-18-1.60728E-18
 -1      4328 7.92812E-05-1.95264E-05-2.55798E-05-6.11994E-06-1.85983E-19-1.55491E-18
 -1      4329 8.13282E-05-2.05220E-05-2.60485E-05-6.95017E-06-4.19210E-19-1.16023E-18
 -1      4330 7.95573E-05-1.90724E-05-2.59729E-05-3.84277E-06-2.77757E-19-1.62147E-18
 -1      4331 8.66936E-05-2.25111E-05-2.75507E-05-7.38425E-06 5.59650E-20-1.07867E-18
 -1      4332 8.59286E-05-2.13355E-05-2.76253E-05-5.85611E-06-1.60479E-19-1.27797E-18
 -1      4333 8.61364E-05-2.27593E-05-2.71470E-05-8.29036E-06 6.20336E-20-9.24523E-19
 -1      4334 8.93078E-05-2.03162E-05-2.95677E-05-1.90215E-06-2.31797E-19-1.99323E-18
 -1      4335 8.94888E-05-1.96633E-05-2.99285E-05-9.97843E-07-2.32572E-19-2.19908E-18
 -1      4336 8.93800E-05-1.95568E-05-2.99328E-05-5.80426E-07-2.82671E-19-2.37346E-18
 -1      4337 9.16056E-05-2.47496E-05-2.86629E-05 6.11552E-07-3.02616E-19-2.91717E-19
 -1      4338 9.11557E-05-2.43804E-05-2.86210E-05 7.70265E-07 8.61719E-19-1.79604E-19
 -1      4339 8.01981E-05-2.09287E-05-2.53885E-05 9.10341E-06-4.96864E-19 1.93751E-18
 -1      4340 8.92629E-05-2.31105E-05-2.83669E-05 1.23986E-06 1.43058E-18-1.35587E-18
 -1      4341 8.86286E-05-2.27095E-05-2.82547E-05 1.52949E-06 7.37205E-19-1.11279E-18
 -1      4342 9.31613E-05-2.60864E-05-2.87529E-05 2.99170E-07-7.72495E-19-2.04205E-18
 -1      4343 9.28638E-05-2.57955E-05-2.87455E-05 3.88725E-07-1.21520E-18-2.00265E-18
 -1      4344 9.37096E-05-2.66190E-05-2.87582E-05 2.07807E-07-1.29682E-19-3.23107E-18
 -1      4345 9.34741E-05-2.63714E-05-2.87598E-05 2.75390E-07-3.30854E-19-3.45615E-18
 -1      4346 9.41361E-05-2.70633E-05-2.87494E-05 1.43167E-07-1.14602E-18-3.04298E-18
 -1      4347 9.39532E-05-2.68574E-05-2.87563E-05 1.94151E-07-8.87813E-19-3.07658E-18
 -1      4348 9.44620E-05-2.74263E-05-2.87326E-05 9.74195E-08 9.32865E-20-2.52498E-18
 -1      4349 9.43227E-05-2.72588E-05-2.87424E-05 1.35759E-07-4.41510E-19-2.12202E-18
 -1      4350 9.47063E-05-2.77173E-05-2.87118E-05 6.51149E-08 5.16718E-19-1.39788E-18
 -1      4351 9.46025E-05-2.75836E-05-2.87228E-05 9.37190E-08 5.62199E-19-2.27083E-18
 -1      4352 9.48854E-05-2.79455E-05-2.86898E-05 4.26490E-08 2.05911E-18-1.50637E-18
 -1      4353 9.48101E-05-2.78417E-05-2.87009E-05 6.35682E-08 1.32470E-18-1.31183E-18
 -1      4354 9.50083E-05-2.81137E-05-2.86696E-05 4.85357E-08 1.36405E-18-1.15014E-18
 -1      4355 8.09493E-05-1.98946E-05-2.61923E-05 5.16944E-06 6.24640E-19 2.87558E-19
 -1      4356 7.98399E-05-1.98709E-05-2.57018E-05 6.25528E-06 4.01264E-19 8.11705E-19
 -1      4357 9.51397E-05-2.83126E-05-2.86401E-05-4.48729E-08 1.06999E-18-2.90341E-18
 -1      4358 8.33538E-05-2.14375E-05-2.65134E-05-7.83895E-06-2.18130E-19-1.02269E-18
 -1      4359 8.91244E-05-2.10314E-05-2.91776E-05-3.31071E-06-1.67004E-19-1.74952E-18
 -1      4360 9.05467E-05-2.39587E-05-2.85506E-05 8.71214E-07 1.16493E-18-4.72868E-19
 -1      4361 9.00080E-05-2.35645E-05-2.84793E-05 1.08458E-06 1.52640E-18-1.04757E-18
 -1      4362 8.89215E-05-1.98888E-05-2.95935E-05 8.34026E-07-5.09781E-19-2.34553E-18
 -1      4363 8.63248E-05-2.05082E-05-2.82355E-05-2.65273E-06-2.86574E-19-1.75829E-18
 -1      4364 8.50261E-05-2.03519E-05-2.77668E-05-3.03039E-06-3.76926E-19-1.58189E-18
 -1      4365 9.24683E-05-2.54624E-05-2.87251E-05 4.28440E-07-9.31722E-19-1.78786E-18
 -1      4366 9.20991E-05-2.51295E-05-2.87038E-05 5.47373E-07-8.55634E-19-1.90020E-18
 -1      4367 8.39469E-05-2.02458E-05-2.73256E-05-3.60684E-06-4.97559E-19-1.47845E-18
 -1      4368 8.72524E-05-2.05319E-05-2.86102E-05-2.24305E-06-2.35526E-19-1.86714E-18
 -1      4369 7.75176E-05-1.90331E-05-2.51063E-05 6.28626E-06-2.96594E-20 7.87848E-19
 -1      4370 8.77200E-05-2.22370E-05-2.80840E-05 1.76419E-06 3.99326E-19-1.69388E-18
 -1      4371 8.10589E-05-1.93507E-05-2.64865E-05-3.25018E-06-5.17770E-19-1.64350E-18
 -1      4372 8.80160E-05-2.02732E-05-2.90356E-05-1.56305E-06-2.03857E-19-1.94436E-18
 -1      4373 8.69694E-05-2.21555E-05-2.77550E-05 4.20911E-06-1.15352E-18-1.27838E-18
 -1      4374 8.69850E-05-2.18553E-05-2.79160E-05 2.16202E-06-2.31345E-19-1.58603E-18
 -1      4375 8.36574E-05-2.05928E-05-2.70582E-05 3.59016E-06-2.96267E-20 2.07769E-19
 -1      4376 8.27202E-05-2.03713E-05-2.67165E-05 4.37714E-06 5.11674E-19 5.11344E-19
 -1      4377 9.50057E-05-2.81084E-05-2.86698E-05-1.36900E-08 1.49915E-18-4.08724E-19
 -1      4378 9.49601E-05-2.80426E-05-2.86788E-05 3.97450E-08 1.79651E-18-1.28870E-18
 -1      4379 8.27737E-05-2.00985E-05-2.69022E-05-4.14636E-06-4.56444E-19-1.41768E-18
 -1      4380 8.84983E-05-1.98718E-05-2.93978E-05-1.02664E-07-4.10374E-19-2.12658E-18
 -1      4381 9.50403E-05-2.81560E-05-2.86644E-05-4.06268E-08 1.48408E-18-8.15758E-19
 -1      4382 9.50809E-05-2.82222E-05-2.86542E-05-2.40969E-08 7.72907E-19-1.57844E-18
 -1      4383 8.50346E-05-2.10543E-05-2.74219E-05 3.06644E-06-2.62336E-19-4.11631E-19
 -1      4384 8.58734E-05-2.13808E-05-2.76645E-05 2.51273E-06-4.18582E-19-5.39592E-19
 -1      4385 9.51156E-05-2.82768E-05-2.86457E-05-3.46935E-08-6.00052E-22-1.93480E-18
 -1      4386 8.78683E-05-2.00944E-05-2.90350E-05-8.45910E-07-2.47430E-19-1.98096E-18
 -1      4387 8.29957E-05-2.05428E-05-2.67612E-05-5.82449E-06-3.48198E-19-1.31040E-18
 -1      4388 8.91272E-05-1.98496E-05-2.96778E-05-5.75936E-07-4.04667E-19-2.19058E-18
 -1      4389 8.84105E-05-2.00875E-05-2.92800E-05-7.98636E-07-1.94727E-19-2.05529E-18
 -3
    1PSTEP                         4           1           1          
  100CL  101 1.000000000        4389                     0    1           1
 -4  ERROR       1    1
 -5  STR(%)      1    1    0    0
 -1         1 1.23847E+01
 -1         2 2.45705E+01
 -1         3 7.82389E-04
 -1         4 8.41099E-04
 -1         5 1.38145E+01
 -1         6 1.29092E+01
 -1         7 1.29092E+01
 -1         8 3.53954E+00
 -1         9 1.80449E+00
 -1        10 1.30611E+00
 -1        11 1.04588E+00
 -1        12 8.69246E-01
 -1        13 7.43705E-01
 -1        14 6.56497E-01
 -1        15 6.65850E-01
 -1        16 7.56847E-01
 -1        17 8.76797E-01
 -1        18 1.05862E+00
 -1        19 1.32866E+00
 -1        20 1.81795E+00
 -1        21 3.39282E+00
 -1        22 8.38541E+00
 -1        23 1.29092E+01
 -1        24 4.27193E+00
 -1        25 3.20653E+00
 -1        26 1.94857E+00
 -1        27 1.45274E+00
 -1        28 1.12256E+00
 -1        29 8.71366E-01
 -1        30 9.34381E-01
 -1        31 9.86891E-01
 -1        32 1.21021E+00
 -1        33 1.56012E+00
 -1        34 1.81085E+00
 -1        35 1.81085E+00
 -1        36 1.81409E+00
 -1        37 1.81409E+00
 -1        38 2.30926E+00
 -1        39 4.21464E+00
 -1        40 5.27618E+00
 -1        41 5.29225E+00
 -1        42 5.29225E+00
 -1        43 4.47371E+00
 -1        44 2.42144E+00
 -1        45 1.84862E+00
 -1        46 1.84862E+00
 -1        47 1.82801E+00
 -1        48 1.82801E+00
 -1        49 1.62028E+00
 -1        50 1.31212E+00
 -1        51 1.04548E+00
 -1        52 8.09166E-01
 -1        53 6.47060E-01
 -1        54 5.33490E-01
 -1        55 4.25737E-01
 -1        56 3.30740E-01
 -1        57 2.50910E-01
 -1        58 1.86091E-01
 -1        59 1.34838E-01
 -1        60 1.06825E-01
 -1        61 8.71993E-02
 -1        62 6.96500E-02
 -1        63 5.44133E-02
 -1        64 4.14550E-02
 -1        65 3.05844E-02
 -1        66 2.27815E-02
 -1        67 1.80979E-02
 -1        68 1.33758E-02
 -1        69 8.65834E-03
 -1        70 5.91010E-03
 -1        71 4.19476E-03
 -1        72 1.38145E+01
 -1        73 3.39369E+00
 -1        74 2.36507E+00
 -1        75 1.59609E+00
 -1        76 1.29860E+00
 -1        77 1.09218E+00
 -1        78 9.10366E-01
 -1        79 7.28002E-01
 -1        80 6.54582E-01
 -1        81 6.36895E-01
 -1        82 7.15467E-01
 -1        83 7.86635E-01
 -1        84 9.92638E-01
 -1        85 1.10420E+00
 -1        86 1.28913E+00
 -1        87 1.49748E+00
 -1        88 2.17109E+00
 -1        89 2.68953E+00
 -1        90 3.00304E+00
 -1        91 3.04193E+00
 -1        92 3.04193E+00
 -1        93 2.36190E+00
 -1        94 1.43971E+00
 -1        95 9.97186E-01
 -1        96 8.06941E-01
 -1        97 9.29739E-01
 -1        98 9.40276E-01
 -1        99 9.40276E-01
 -1       100 8.54105E-01
 -1       101 7.22066E-01
 -1       102 6.06375E-01
 -1       103 4.85393E-01
 -1       104 3.72385E-01
 -1       105 2.78540E-01
 -1       106 2.20917E-01
 -1       107 1.69898E-01
 -1       108 1.26833E-01
 -1       109 9.18057E-02
 -1       110 6.41778E-02
 -1       111 4.59065E-02
 -1       112 3.83884E-02
 -1       113 3.11210E-02
 -1       114 2.44041E-02
 -1       115 1.91108E-02
 -1       116 1.66767E-02
 -1       117 1.35136E-02
 -1       118 9.77844E-03
 -1       119 6.03233E-03
 -1       120 3.94650E-03
 -1       121 1.85172E-03
 -1       122 1.22249E-03
 -1       123 3.50417E-04
 -1       124 6.11437E-04
 -1       125 6.74262E-04
 -1       126 6.74262E-04
 -1       127 6.43643E-04
 -1       128 5.93513E-04
 -1       129 6.08419E-04
 -1       130 6.65025E-04
 -1       131 7.05950E-04
 -1       132 7.05950E-04
 -1       133 6.42216E-04
 -1       134 4.80109E-04
 -1       135 1.64466E-03
 -1       136 2.74495E-03
 -1       137 2.47767E+01
 -1       138 4.73165E+01
 -1       139 4.73165E+01
 -1       140 2.00621E+01
 -1       141 1.30908E+01
 -1       142 1.30908E+01
 -1       143 1.24533E+01
 -1       144 1.31860E+01
 -1       145 1.31860E+01
 -1       146 1.65041E+01
 -1       147 4.40502E+01
 -1       148 4.40502E+01
 -1       149 2.67461E+01
 -1       150 2.67461E+01
 -1       151 2.47749E+01
 -1       152 4.91750E+01
 -1       153 4.91750E+01
 -1       154 2.12183E+01
 -1       155 1.30970E+01
 -1       156 1.30970E+01
 -1       157 1.27803E+01
 -1       158 1.27803E+01
 -1       159 1.24419E+01
 -1       160 2.76644E+01
 -1       161 2.91429E+01
 -1       162 2.82720E+01
 -1       163 2.44993E+01
 -1       164 5.86948E+00
 -1       165 2.28905E+00
 -1       166 1.53979E+00
 -1       167 1.17534E+00
 -1       168 9.59074E-01
 -1       169 8.12643E-01
 -1       170 7.08377E-01
 -1       171 6.45619E-01
 -1       172 7.19114E-01
 -1       173 8.22422E-01
 -1       174 9.73446E-01
 -1       175 1.19430E+00
 -1       176 1.56206E+00
 -1       177 2.28005E+00
 -1       178 3.82168E+00
 -1       179 1.38145E+01
 -1       180 4.27193E+00
 -1       181 3.20653E+00
 -1       182 1.94857E+00
 -1       183 1.45274E+00
 -1       184 1.12256E+00
 -1       185 8.71366E-01
 -1       186 8.46361E-01
 -1       187 9.34381E-01
 -1       188 9.87944E-01
 -1       189 1.23403E+00
 -1       190 1.56012E+00
 -1       191 1.81085E+00
 -1       192 1.80976E+00
 -1       193 1.81409E+00
 -1       194 1.62469E+00
 -1       195 2.48645E+00
 -1       196 4.21464E+00
 -1       197 5.27618E+00
 -1       198 5.29225E+00
 -1       199 4.47371E+00
 -1       200 2.66783E+00
 -1       201 1.77816E+00
 -1       202 1.84862E+00
 -1       203 1.76635E+00
 -1       204 1.82801E+00
 -1       205 1.62028E+00
 -1       206 1.33595E+00
 -1       207 1.14533E+00
 -1       208 9.75758E-01
 -1       209 7.88294E-01
 -1       210 6.10665E-01
 -1       211 4.56438E-01
 -1       212 3.30740E-01
 -1       213 2.56836E-01
 -1       214 1.96617E-01
 -1       215 1.47428E-01
 -1       216 1.08227E-01
 -1       217 8.71993E-02
 -1       218 6.96500E-02
 -1       219 5.44133E-02
 -1       220 4.14550E-02
 -1       221 3.05844E-02
 -1       222 2.29045E-02
 -1       223 1.80979E-02
 -1       224 1.33758E-02
 -1       225 8.89231E-03
 -1       226 5.91010E-03
 -1       227 4.19476E-03
 -1       228 3.39369E+00
 -1       229 2.36507E+00
 -1       230 1.59609E+00
 -1       231 1.29860E+00
 -1       232 1.09218E+00
 -1       233 9.10366E-01
 -1       234 7.28002E-01
 -1       235 6.54582E-01
 -1       236 6.36895E-01
 -1       237 5.85343E-01
 -1       238 7.15467E-01
 -1       239 7.86635E-01
 -1       240 9.92638E-01
 -1       241 1.10420E+00
 -1       242 1.28913E+00
 -1       243 1.57547E+00
 -1       244 2.17109E+00
 -1       245 2.68953E+00
 -1       246 3.00304E+00
 -1       247 3.04193E+00
 -1       248 2.36190E+00
 -1       249 1.43971E+00
 -1       250 9.97186E-01
 -1       251 7.69497E-01
 -1       252 8.06941E-01
 -1       253 9.29739E-01
 -1       254 9.40276E-01
 -1       255 8.54105E-01
 -1       256 7.22066E-01
 -1       257 6.06375E-01
 -1       258 4.99685E-01
 -1       259 3.95379E-01
 -1       260 3.00877E-01
 -1       261 2.20917E-01
 -1       262 1.69898E-01
 -1       263 1.26833E-01
 -1       264 9.29945E-02
 -1       265 6.70613E-02
 -1       266 4.67295E-02
 -1       267 3.83884E-02
 -1       268 3.11210E-02
 -1       269 2.44041E-02
 -1       270 1.91108E-02
 -1       271 1.66767E-02
 -1       272 1.35136E-02
 -1       273 9.77844E-03
 -1       274 6.03233E-03
 -1       275 3.94650E-03
 -1       276 1.28845E-03
 -1       277 9.40236E-04
 -1       278 1.03366E-03
 -1       279 1.14619E-03
 -1       280 1.14619E-03
 -1       281 1.13258E-03
 -1       282 1.05020E-03
 -1       283 9.87453E-04
 -1       284 1.09855E-03
 -1       285 1.18859E-03
 -1       286 1.21775E-03
 -1       287 1.21775E-03
 -1       288 1.07888E-03
 -1       289 9.15765E-04
 -1       290 2.51943E-03
 -1       291 3.04696E+01
 -1       292 2.87088E+01
 -1       293 4.73165E+01
 -1       294 2.14343E+01
 -1       295 1.08789E+01
 -1       296 1.30908E+01
 -1       297 1.20716E+01
 -1       298 1.24533E+01
 -1       299 1.31860E+01
 -1       300 1.19201E+01
 -1       301 1.75156E+01
 -1       302 4.40502E+01
 -1       303 3.86927E+01
 -1       304 2.91626E+01
 -1       305 2.91626E+01
 -1       306 3.18641E+01
 -1       307 4.91750E+01
 -1       308 2.37645E+01
 -1       309 1.12088E+01
 -1       310 1.30970E+01
 -1       311 1.23847E+01
 -1       312 1.19558E+01
 -1       313 1.27803E+01
 -1       314 1.15701E+01
 -1       315 1.24419E+01
 -1       316 2.91429E+01
 -1       317 3.33600E+01
 -1       318 3.33600E+01
 -1       319 3.04696E+01
 -1       320 1.07277E+00
 -1       321 2.38474E+00
 -1       322 8.11614E-01
 -1       323 6.83926E-01
 -1       324 5.91552E-01
 -1       325 5.19495E-01
 -1       326 5.30276E-01
 -1       327 6.02162E-01
 -1       328 6.98362E-01
 -1       329 8.17467E-01
 -1       330 9.68666E-01
 -1       331 1.18001E+00
 -1       332 1.31649E+00
 -1       333 2.05658E+00
 -1       334 1.72423E+00
 -1       335 1.56060E+00
 -1       336 1.03535E+00
 -1       337 7.56305E-01
 -1       338 6.04803E-01
 -1       339 5.80119E-01
 -1       340 6.79580E-01
 -1       341 8.53815E-01
 -1       342 1.02775E+00
 -1       343 1.20032E+00
 -1       344 1.35871E+00
 -1       345 1.33737E+00
 -1       346 1.24373E+00
 -1       347 1.48808E+00
 -1       348 1.61958E+00
 -1       349 2.27072E+00
 -1       350 2.98494E+00
 -1       351 3.38215E+00
 -1       352 3.13685E+00
 -1       353 2.40426E+00
 -1       354 1.74104E+00
 -1       355 1.45830E+00
 -1       356 1.25438E+00
 -1       357 1.41798E+00
 -1       358 1.42175E+00
 -1       359 1.31400E+00
 -1       360 1.17934E+00
 -1       361 1.05361E+00
 -1       362 8.89294E-01
 -1       363 7.19074E-01
 -1       364 5.61869E-01
 -1       365 4.26449E-01
 -1       366 3.15180E-01
 -1       367 2.26898E-01
 -1       368 1.58795E-01
 -1       369 1.08227E-01
 -1       370 7.76207E-02
 -1       371 5.61212E-02
 -1       372 4.21079E-02
 -1       373 3.42638E-02
 -1       374 2.70085E-02
 -1       375 2.04837E-02
 -1       376 1.47262E-02
 -1       377 1.11167E-02
 -1       378 8.19898E-03
 -1       379 5.44090E-03
 -1       380 3.16963E-03
 -1       381 1.04820E+00
 -1       382 7.00392E-01
 -1       383 6.55459E-01
 -1       384 5.93618E-01
 -1       385 5.05530E-01
 -1       386 5.13785E-01
 -1       387 5.11133E-01
 -1       388 5.33142E-01
 -1       389 5.33142E-01
 -1       390 4.41754E-01
 -1       391 4.31114E-01
 -1       392 7.68217E-01
 -1       393 1.24465E+00
 -1       394 1.60046E+00
 -1       395 1.64974E+00
 -1       396 1.64974E+00
 -1       397 1.69395E+00
 -1       398 1.89599E+00
 -1       399 1.65671E+00
 -1       400 1.14320E+00
 -1       401 7.14671E-01
 -1       402 4.52614E-01
 -1       403 5.77143E-01
 -1       404 6.54120E-01
 -1       405 6.94810E-01
 -1       406 6.77617E-01
 -1       407 6.08829E-01
 -1       408 5.44631E-01
 -1       409 4.61833E-01
 -1       410 3.74625E-01
 -1       411 2.92415E-01
 -1       412 2.20234E-01
 -1       413 1.63881E-01
 -1       414 1.25183E-01
 -1       415 9.29945E-02
 -1       416 6.70613E-02
 -1       417 4.67295E-02
 -1       418 3.11767E-02
 -1       419 2.36647E-02
 -1       420 1.95061E-02
 -1       421 1.53260E-02
 -1       422 1.13343E-02
 -1       423 8.49235E-03
 -1       424 6.64369E-03
 -1       425 4.79880E-03
 -1       426 3.14852E-03
 -1       427 1.58811E-03
 -1       428 1.99376E-03
 -1       429 2.53344E-03
 -1       430 1.58811E-03
 -1       431 1.37416E-03
 -1       432 1.24904E-03
 -1       433 1.05979E-03
 -1       434 1.12362E-03
 -1       435 1.32627E-03
 -1       436 1.44405E-03
 -1       437 1.70136E-03
 -1       438 1.70136E-03
 -1       439 2.78310E-03
 -1       440 2.87088E+01
 -1       441 3.17810E+01
 -1       442 3.12482E+01
 -1       443 1.66438E+01
 -1       444 9.10553E+00
 -1       445 9.45609E-01
 -1       446 1.03985E+01
 -1       447 1.12687E+01
 -1       448 1.05818E+01
 -1       449 8.22071E+00
 -1       450 8.03033E+00
 -1       451 1.42757E+01
 -1       452 2.57228E+01
 -1       453 2.10475E+01
 -1       454 3.38392E+01
 -1       455 3.38392E+01
 -1       456 3.18641E+01
 -1       457 1.77999E+01
 -1       458 9.95854E+00
 -1       459 7.31739E+00
 -1       460 1.08658E+01
 -1       461 1.17780E+01
 -1       462 1.12015E+01
 -1       463 8.57533E+00
 -1       464 6.52966E+00
 -1       465 1.16781E+01
 -1       466 2.00328E+01
 -1       467 3.33600E+01
 -1       468 3.17810E+01
 -1       469 6.97906E+00
 -1       470 7.34385E+00
 -1       471 2.83683E+01
 -1       472 8.66758E-01
 -1       473 4.74389E-01
 -1       474 5.35562E-01
 -1       475 3.65843E-01
 -1       476 4.22737E-01
 -1       477 4.85774E-01
 -1       478 5.39508E-01
 -1       479 5.60389E-01
 -1       480 7.34593E-01
 -1       481 6.48708E-01
 -1       482 6.35113E-01
 -1       483 4.80136E+00
 -1       484 4.02392E-01
 -1       485 2.75884E-01
 -1       486 3.62578E-01
 -1       487 5.45189E-01
 -1       488 7.50732E-01
 -1       489 9.59874E-01
 -1       490 1.14633E+00
 -1       491 1.31117E+00
 -1       492 1.61360E+00
 -1       493 1.91355E+00
 -1       494 2.05366E+00
 -1       495 2.88197E+00
 -1       496 3.72254E+00
 -1       497 3.50859E+00
 -1       498 6.58212E+00
 -1       499 7.06784E+00
 -1       500 4.80369E+00
 -1       501 2.97843E+00
 -1       502 2.54979E+00
 -1       503 2.15814E+00
 -1       504 2.01535E+00
 -1       505 1.74256E+00
 -1       506 1.46347E+00
 -1       507 1.29487E+00
 -1       508 1.14051E+00
 -1       509 9.62405E-01
 -1       510 7.85614E-01
 -1       511 6.24255E-01
 -1       512 4.84723E-01
 -1       513 3.68575E-01
 -1       514 2.74653E-01
 -1       515 2.00479E-01
 -1       516 1.43098E-01
 -1       517 9.95604E-02
 -1       518 6.71632E-02
 -1       519 4.35545E-02
 -1       520 2.79550E-02
 -1       521 1.90059E-02
 -1       522 1.60638E-02
 -1       523 1.28692E-02
 -1       524 9.68509E-03
 -1       525 6.69592E-03
 -1       526 4.68665E-03
 -1       527 3.72963E-01
 -1       528 3.53621E-01
 -1       529 3.88759E-01
 -1       530 4.43123E-01
 -1       531 5.20784E-01
 -1       532 5.61166E-01
 -1       533 5.94558E-01
 -1       534 7.11880E-01
 -1       535 7.83778E-01
 -1       536 1.08809E+00
 -1       537 1.37804E+00
 -1       538 1.60046E+00
 -1       539 1.80898E+00
 -1       540 1.60214E+00
 -1       541 1.71741E+00
 -1       542 1.48609E+00
 -1       543 1.25273E+00
 -1       544 9.17534E-01
 -1       545 7.25936E-01
 -1       546 6.51772E-01
 -1       547 6.62216E-01
 -1       548 6.82058E-01
 -1       549 6.45623E-01
 -1       550 6.02229E-01
 -1       551 5.41019E-01
 -1       552 4.71924E-01
 -1       553 3.93790E-01
 -1       554 3.16599E-01
 -1       555 2.46278E-01
 -1       556 1.85717E-01
 -1       557 1.35749E-01
 -1       558 9.59567E-02
 -1       559 6.52540E-02
 -1       560 4.41364E-02
 -1       561 3.09037E-02
 -1       562 2.36647E-02
 -1       563 1.95061E-02
 -1       564 1.53260E-02
 -1       565 1.13343E-02
 -1       566 7.84782E-03
 -1       567 6.25901E-03
 -1       568 4.64365E-03
 -1       569 1.76549E-03
 -1       570 1.33460E-03
 -1       571 3.54647E-03
 -1       572 1.76549E-03
 -1       573 1.05979E-03
 -1       574 9.86695E-04
 -1       575 1.12362E-03
 -1       576 1.45637E-03
 -1       577 1.75642E-03
 -1       578 2.01141E-03
 -1       579 2.24480E-03
 -1       580 3.12482E+01
 -1       581 1.27064E+01
 -1       582 4.66980E-01
 -1       583 3.17810E+01
 -1       584 1.96058E+01
 -1       585 8.81862E-01
 -1       586 2.28548E+01
 -1       587 6.00655E+00
 -1       588 9.44781E+00
 -1       589 6.95265E+00
 -1       590 7.74251E+00
 -1       591 4.12142E-01
 -1       592 5.83131E+00
 -1       593 7.34966E+00
 -1       594 1.17948E+01
 -1       595 4.25808E+00
 -1       596 3.38392E+01
 -1       597 1.66568E+01
 -1       598 7.54488E+00
 -1       599 2.05288E+01
 -1       600 1.36642E+01
 -1       601 5.53079E+00
 -1       602 4.80369E+00
 -1       603 7.71501E+00
 -1       604 7.06784E+00
 -1       605 5.68932E+00
 -1       606 1.01424E+01
 -1       607 1.44822E+01
 -1       608 1.18731E+00
 -1       609 9.73216E+00
 -1       610 5.99024E-01
 -1       611 1.66791E+01
 -1       612 7.34136E+00
 -1       613 3.95796E+00
 -1       614 3.15914E-03
 -1       615 3.38535E-01
 -1       616 2.85823E-01
 -1       617 4.04763E-01
 -1       618 4.37631E-01
 -1       619 4.14131E-01
 -1       620 4.35212E+00
 -1       621 1.44240E+01
 -1       622 9.76292E+00
 -1       623 3.64693E-01
 -1       624 3.55391E-01
 -1       625 4.55298E-01
 -1       626 6.30060E-01
 -1       627 8.52266E-01
 -1       628 1.12076E+00
 -1       629 1.43084E+00
 -1       630 1.75311E+00
 -1       631 2.24866E+00
 -1       632 2.78416E+00
 -1       633 5.34135E+00
 -1       634 5.04251E+00
 -1       635 3.04434E+00
 -1       636 3.42364E+00
 -1       637 2.39583E+00
 -1       638 1.88785E+00
 -1       639 1.58892E+00
 -1       640 1.29298E+00
 -1       641 1.03791E+00
 -1       642 8.22829E-01
 -1       643 6.44821E-01
 -1       644 5.01249E-01
 -1       645 3.85140E-01
 -1       646 2.92084E-01
 -1       647 2.18302E-01
 -1       648 1.60513E-01
 -1       649 1.15858E-01
 -1       650 8.18592E-02
 -1       651 5.63933E-02
 -1       652 3.76699E-02
 -1       653 2.42011E-02
 -1       654 1.47680E-02
 -1       655 9.07622E-03
 -1       656 7.38258E-03
 -1       657 5.98459E-03
 -1       658 4.41773E-03
 -1       659 3.57866E-01
 -1       660 4.68020E-03
 -1       661 2.65733E-01
 -1       662 5.59451E-01
 -1       663 6.80456E-01
 -1       664 7.74756E-01
 -1       665 8.94132E-01
 -1       666 1.16526E+00
 -1       667 1.25934E+00
 -1       668 1.49455E+00
 -1       669 1.54882E+00
 -1       670 2.29491E+00
 -1       671 2.05704E+00
 -1       672 2.65876E+00
 -1       673 1.71741E+00
 -1       674 1.47684E+00
 -1       675 1.33105E+00
 -1       676 1.20752E+00
 -1       677 1.04253E+00
 -1       678 8.45549E-01
 -1       679 7.94774E-01
 -1       680 7.04475E-01
 -1       681 6.45623E-01
 -1       682 5.82335E-01
 -1       683 5.00463E-01
 -1       684 4.12899E-01
 -1       685 3.29816E-01
 -1       686 2.58041E-01
 -1       687 1.98597E-01
 -1       688 1.49861E-01
 -1       689 1.10333E-01
 -1       690 7.91105E-02
 -1       691 5.50559E-02
 -1       692 3.69812E-02
 -1       693 2.37585E-02
 -1       694 1.52618E-02
 -1       695 1.08082E-02
 -1       696 9.14162E-03
 -1       697 7.23971E-03
 -1       698 6.25901E-03
 -1       699 7.83522E+00
 -1       700 1.11114E-03
 -1       701 3.13875E-03
 -1       702 1.43043E-03
 -1       703 1.12133E-03
 -1       704 1.15633E-03
 -1       705 1.25660E-03
 -1       706 1.57940E-03
 -1       707 2.23841E-03
 -1       708 6.40230E-01
 -1       709 1.04463E+01
 -1       710 1.55709E+01
 -1       711 7.32888E+00
 -1       712 1.16936E+01
 -1       713 9.40315E+00
 -1       714 2.09669E-01
 -1       715 4.47720E-01
 -1       716 2.80251E-01
 -1       717 1.20819E+01
 -1       718 5.54944E+00
 -1       719 5.74922E-01
 -1       720 1.26622E+01
 -1       721 5.33586E+00
 -1       722 3.83628E-01
 -1       723 3.64255E-01
 -1       724 2.75724E+00
 -1       725 1.66090E+01
 -1       726 1.39045E+01
 -1       727 6.18810E+00
 -1       728 6.06895E+00
 -1       729 2.55795E+00
 -1       730 4.79033E+00
 -1       731 3.40966E+00
 -1       732 5.74922E-01
 -1       733 2.69398E-01
 -1       734 2.60473E-03
 -1       735 6.21908E+00
 -1       736 1.00690E+01
 -1       737 1.26622E+01
 -1       738 3.18888E-01
 -1       739 4.19727E+00
 -1       740 2.67818E-03
 -1       741 4.21637E+00
 -1       742 3.45648E-01
 -1       743 9.03964E+00
 -1       744 6.59455E+00
 -1       745 3.85081E+00
 -1       746 4.76338E-01
 -1       747 6.03998E-01
 -1       748 7.82626E-01
 -1       749 1.02941E+00
 -1       750 1.38363E+00
 -1       751 1.93089E+00
 -1       752 2.89644E+00
 -1       753 5.43392E+00
 -1       754 4.73645E+00
 -1       755 2.99163E+00
 -1       756 2.12140E+00
 -1       757 1.54692E+00
 -1       758 1.18904E+00
 -1       759 9.53601E-01
 -1       760 7.55583E-01
 -1       761 5.87073E-01
 -1       762 4.48393E-01
 -1       763 3.36886E-01
 -1       764 2.48856E-01
 -1       765 1.80473E-01
 -1       766 1.28169E-01
 -1       767 9.02926E-02
 -1       768 6.25355E-02
 -1       769 4.20844E-02
 -1       770 2.83091E-02
 -1       771 1.87025E-02
 -1       772 1.19214E-02
 -1       773 7.29299E-03
 -1       774 4.45676E-03
 -1       775 3.67997E-03
 -1       776 3.63516E-01
 -1       777 9.52130E-01
 -1       778 7.27319E-01
 -1       779 1.38702E+00
 -1       780 1.72129E+00
 -1       781 2.32379E+00
 -1       782 1.98934E+00
 -1       783 2.29491E+00
 -1       784 3.09963E+00
 -1       785 1.95705E+00
 -1       786 2.05635E+00
 -1       787 1.75290E+00
 -1       788 1.55046E+00
 -1       789 1.31253E+00
 -1       790 1.14304E+00
 -1       791 9.38734E-01
 -1       792 7.72467E-01
 -1       793 6.67768E-01
 -1       794 5.61551E-01
 -1       795 4.60430E-01
 -1       796 3.67773E-01
 -1       797 2.89304E-01
 -1       798 2.23954E-01
 -1       799 1.70324E-01
 -1       800 1.27157E-01
 -1       801 9.30500E-02
 -1       802 6.65957E-02
 -1       803 4.64686E-02
 -1       804 3.14724E-02
 -1       805 2.05613E-02
 -1       806 1.28427E-02
 -1       807 7.57310E-03
 -1       808 4.93344E-03
 -1       809 2.84577E-03
 -1       810 2.23841E-03
 -1       811 2.84577E-03
 -1       812 3.84904E+00
 -1       813 2.32379E+00
 -1       814 9.23094E+00
 -1       815 6.28093E+00
 -1       816 9.32220E+00
 -1       817 2.78955E-03
 -1       818 1.12955E+00
 -1       819 1.08046E+01
 -1       820 9.32220E+00
 -1       821 2.92016E-01
 -1       822 2.89348E+00
 -1       823 3.98242E-01
 -1       824 5.86230E+00
 -1       825 3.11374E+00
 -1       826 7.24798E+00
 -1       827 2.80251E-01
 -1       828 2.71226E+00
 -1       829 2.71226E+00
 -1       830 2.32542E-01
 -1       831 1.00133E+01
 -1       832 1.66866E-01
 -1       833 2.00075E-03
 -1       834 3.90391E-01
 -1       835 9.18507E+00
 -1       836 2.55087E-01
 -1       837 5.90261E-01
 -1       838 4.67199E+00
 -1       839 3.58717E-03
 -1       840 6.92454E+00
 -1       841 2.64194E-03
 -1       842 4.69175E-01
 -1       843 2.76591E-03
 -1       844 8.73811E+00
 -1       845 3.93447E+00
 -1       846 6.47369E+00
 -1       847 3.11969E-03
 -1       848 4.82694E-01
 -1       849 4.10334E-01
 -1       850 2.86197E-01
 -1       851 2.76892E-01
 -1       852 2.15531E+00
 -1       853 2.67818E-03
 -1       854 5.23881E+00
 -1       855 7.57482E-01
 -1       856 1.02941E+00
 -1       857 1.38363E+00
 -1       858 1.85526E+00
 -1       859 2.63374E+00
 -1       860 4.77690E+00
 -1       861 2.94630E+00
 -1       862 2.02207E+00
 -1       863 1.54692E+00
 -1       864 1.18904E+00
 -1       865 9.12683E-01
 -1       866 6.99643E-01
 -1       867 5.34262E-01
 -1       868 4.05278E-01
 -1       869 3.04577E-01
 -1       870 2.26185E-01
 -1       871 1.65546E-01
 -1       872 1.19068E-01
 -1       873 8.38571E-02
 -1       874 5.80060E-02
 -1       875 3.96893E-02
 -1       876 2.62662E-02
 -1       877 1.66373E-02
 -1       878 9.93903E-03
 -1       879 5.51591E-03
 -1       880 7.13638E+00
 -1       881 2.27382E+00
 -1       882 2.01308E+00
 -1       883 3.31984E+00
 -1       884 2.33604E+00
 -1       885 1.76445E+00
 -1       886 1.22847E+00
 -1       887 1.01744E+00
 -1       888 8.07938E-01
 -1       889 6.38212E-01
 -1       890 5.04837E-01
 -1       891 4.06624E-01
 -1       892 3.31178E-01
 -1       893 2.62256E-01
 -1       894 2.02441E-01
 -1       895 1.52444E-01
 -1       896 1.11905E-01
 -1       897 7.99031E-02
 -1       898 5.61850E-02
 -1       899 3.85504E-02
 -1       900 2.54514E-02
 -1       901 1.60042E-02
 -1       902 9.56161E-03
 -1       903 5.85961E-03
 -1       904 3.21215E+00
 -1       905 5.64640E-03
 -1       906 5.64418E+00
 -1       907 4.13784E+00
 -1       908 2.05635E+00
 -1       909 1.03172E+00
 -1       910 6.65231E+00
 -1       911 3.83276E-01
 -1       912 2.01215E-01
 -1       913 5.53262E-01
 -1       914 4.87629E+00
 -1       915 6.65231E+00
 -1       916 5.03112E-01
 -1       917 4.56223E-01
 -1       918 4.29531E-01
 -1       919 5.60533E+00
 -1       920 6.84376E+00
 -1       921 3.98242E-01
 -1       922 3.34259E-01
 -1       923 2.59713E-01
 -1       924 5.17791E+00
 -1       925 4.20766E+00
 -1       926 3.19677E-03
 -1       927 4.29531E-01
 -1       928 2.49332E+00
 -1       929 1.78291E+00
 -1       930 8.02418E-01
 -1       931 3.74842E-03
 -1       932 6.34523E+00
 -1       933 6.01119E-01
 -1       934 4.90367E-03
 -1       935 4.36998E-03
 -1       936 4.76793E-03
 -1       937 2.08915E-01
 -1       938 5.64640E-03
 -1       939 3.14187E+00
 -1       940 4.26519E+00
 -1       941 2.93996E+00
 -1       942 1.24345E+00
 -1       943 1.78323E+00
 -1       944 2.59516E+00
 -1       945 4.37953E+00
 -1       946 4.29531E-01
 -1       947 4.60808E+00
 -1       948 2.79591E+00
 -1       949 1.94953E+00
 -1       950 1.38414E+00
 -1       951 1.01136E+00
 -1       952 7.55261E-01
 -1       953 5.70964E-01
 -1       954 4.33558E-01
 -1       955 3.28625E-01
 -1       956 2.47450E-01
 -1       957 1.84402E-01
 -1       958 1.35556E-01
 -1       959 9.79823E-02
 -1       960 6.93855E-02
 -1       961 4.79146E-02
 -1       962 3.25919E-02
 -1       963 2.17499E-02
 -1       964 1.39126E-02
 -1       965 8.41729E-03
 -1       966 4.56223E-01
 -1       967 6.35311E-01
 -1       968 4.02075E+00
 -1       969 1.39298E+00
 -1       970 9.92270E-01
 -1       971 7.76057E-01
 -1       972 6.15925E-01
 -1       973 5.04837E-01
 -1       974 4.05300E-01
 -1       975 3.19519E-01
 -1       976 2.47534E-01
 -1       977 1.88390E-01
 -1       978 1.40706E-01
 -1       979 1.02949E-01
 -1       980 7.35922E-02
 -1       981 5.11946E-02
 -1       982 3.51014E-02
 -1       983 2.34889E-02
 -1       984 1.50429E-02
 -1       985 9.13791E-03
 -1       986 6.46544E-03
 -1       987 4.76793E-03
 -1       988 2.53617E-01
 -1       989 5.98022E-01
 -1       990 4.04052E+00
 -1       991 1.69610E-01
 -1       992 1.57950E+00
 -1       993 2.33604E+00
 -1       994 4.54462E-01
 -1       995 5.03112E-01
 -1       996 8.82669E-01
 -1       997 5.14130E+00
 -1       998 3.15573E-01
 -1       999 4.04764E+00
 -1      1000 3.05565E-01
 -1      1001 2.49332E+00
 -1      1002 3.32703E+00
 -1      1003 3.17995E+00
 -1      1004 1.60704E+00
 -1      1005 6.56978E-03
 -1      1006 2.96115E+00
 -1      1007 1.30555E+00
 -1      1008 8.10820E-01
 -1      1009 8.21484E-03
 -1      1010 4.04052E+00
 -1      1011 8.21484E-03
 -1      1012 3.71547E-01
 -1      1013 1.96509E+00
 -1      1014 4.44441E-01
 -1      1015 2.43644E+00
 -1      1016 1.55970E+00
 -1      1017 1.08284E+00
 -1      1018 7.93491E-01
 -1      1019 5.94435E-01
 -1      1020 4.50583E-01
 -1      1021 3.43172E-01
 -1      1022 2.61186E-01
 -1      1023 1.97832E-01
 -1      1024 1.48730E-01
 -1      1025 1.10972E-01
 -1      1026 8.16819E-02
 -1      1027 5.91113E-02
 -1      1028 4.18801E-02
 -1      1029 2.90634E-02
 -1      1030 2.01093E-02
 -1      1031 1.34900E-02
 -1      1032 8.93198E-03
 -1      1033 2.71135E+00
 -1      1034 9.87167E-01
 -1      1035 3.64473E-01
 -1      1036 7.86707E-03
 -1      1037 1.31457E+00
 -1      1038 6.06229E-01
 -1      1039 4.71035E-01
 -1      1040 3.63821E-01
 -1      1041 2.78821E-01
 -1      1042 2.11550E-01
 -1      1043 1.58545E-01
 -1      1044 1.17080E-01
 -1      1045 8.49587E-02
 -1      1046 6.03757E-02
 -1      1047 4.18350E-02
 -1      1048 2.82738E-02
 -1      1049 1.89074E-02
 -1      1050 1.21510E-02
 -1      1051 7.99109E-03
 -1      1052 7.76057E-01
 -1      1053 6.52401E-01
 -1      1054 1.25957E+00
 -1      1055 8.09771E-01
 -1      1056 3.53664E+00
 -1      1057 1.57745E+00
 -1      1058 2.49332E+00
 -1      1059 8.98895E-01
 -1      1060 5.96650E-01
 -1      1061 3.33897E-01
 -1      1062 2.47049E+00
 -1      1063 1.91956E+00
 -1      1064 2.72838E+00
 -1      1065 1.50755E+00
 -1      1066 3.06581E+00
 -1      1067 4.18027E-01
 -1      1068 1.13263E-02
 -1      1069 1.12038E+00
 -1      1070 2.11761E+00
 -1      1071 1.13263E-02
 -1      1072 3.33897E-01
 -1      1073 4.86047E-01
 -1      1074 2.26550E+00
 -1      1075 1.46731E+00
 -1      1076 1.03204E+00
 -1      1077 7.53838E-01
 -1      1078 5.64371E-01
 -1      1079 4.28779E-01
 -1      1080 3.27628E-01
 -1      1081 2.50162E-01
 -1      1082 1.89991E-01
 -1      1083 1.43540E-01
 -1      1084 1.07299E-01
 -1      1085 7.90144E-02
 -1      1086 5.71169E-02
 -1      1087 4.03471E-02
 -1      1088 2.76761E-02
 -1      1089 1.91456E-02
 -1      1090 1.89762E+00
 -1      1091 1.12690E+00
 -1      1092 1.91781E+00
 -1      1093 4.17779E-01
 -1      1094 5.53696E-01
 -1      1095 7.38045E-01
 -1      1096 3.15341E-01
 -1      1097 2.37037E-01
 -1      1098 1.76760E-01
 -1      1099 1.30308E-01
 -1      1100 9.46346E-02
 -1      1101 6.74323E-02
 -1      1102 4.70937E-02
 -1      1103 3.20234E-02
 -1      1104 1.49371E-02
 -1      1105 1.91956E+00
 -1      1106 1.25957E+00
 -1      1107 2.16831E+00
 -1      1108 1.91781E+00
 -1      1109 9.71380E-03
 -1      1110 9.23416E-01
 -1      1111 9.23416E-01
 -1      1112 4.92099E-01
 -1      1113 2.07488E+00
 -1      1114 1.26947E-02
 -1      1115 1.36583E+00
 -1      1116 9.95453E-01
 -1      1117 1.12690E+00
 -1      1118 8.11226E-01
 -1      1119 9.23416E-01
 -1      1120 1.51796E-02
 -1      1121 1.91781E+00
 -1      1122 1.75156E+00
 -1      1123 1.17592E+00
 -1      1124 8.25138E-01
 -1      1125 5.93719E-01
 -1      1126 4.33985E-01
 -1      1127 3.20012E-01
 -1      1128 2.37037E-01
 -1      1129 1.76760E-01
 -1      1130 1.30308E-01
 -1      1131 9.59512E-02
 -1      1132 7.02521E-02
 -1      1133 5.03521E-02
 -1      1134 3.51054E-02
 -1      1135 2.36721E-02
 -1      1136 1.30458E+00
 -1      1137 1.50755E+00
 -1      1138 8.11226E-01
 -1      1139 1.29092E+01
 -1      1140 8.22436E+00
 -1      1141 2.67202E+00
 -1      1142 1.55530E+00
 -1      1143 1.17600E+00
 -1      1144 9.57562E-01
 -1      1145 8.06475E-01
 -1      1146 7.00101E-01
 -1      1147 6.61174E-01
 -1      1148 7.11349E-01
 -1      1149 8.16822E-01
 -1      1150 9.67707E-01
 -1      1151 1.19364E+00
 -1      1152 1.57331E+00
 -1      1153 2.60538E+00
 -1      1154 5.88912E+00
 -1      1155 1.11000E+01
 -1      1156 1.29092E+01
 -1      1157 8.59055E+00
 -1      1158 3.73923E+00
 -1      1159 2.57755E+00
 -1      1160 1.70065E+00
 -1      1161 1.28765E+00
 -1      1162 9.96963E-01
 -1      1163 9.02874E-01
 -1      1164 9.60636E-01
 -1      1165 1.09855E+00
 -1      1166 1.38516E+00
 -1      1167 1.68548E+00
 -1      1168 1.81085E+00
 -1      1169 1.81247E+00
 -1      1170 1.81409E+00
 -1      1171 2.06168E+00
 -1      1172 3.26195E+00
 -1      1173 4.74541E+00
 -1      1174 5.28421E+00
 -1      1175 5.29225E+00
 -1      1176 4.88298E+00
 -1      1177 3.44757E+00
 -1      1178 2.13503E+00
 -1      1179 1.84862E+00
 -1      1180 1.83832E+00
 -1      1181 1.82801E+00
 -1      1182 1.72415E+00
 -1      1183 1.46620E+00
 -1      1184 1.17880E+00
 -1      1185 9.27323E-01
 -1      1186 7.28113E-01
 -1      1187 5.90275E-01
 -1      1188 4.79613E-01
 -1      1189 3.78238E-01
 -1      1190 2.90825E-01
 -1      1191 2.18501E-01
 -1      1192 1.60465E-01
 -1      1193 1.20831E-01
 -1      1194 9.70120E-02
 -1      1195 7.84246E-02
 -1      1196 6.20316E-02
 -1      1197 4.79341E-02
 -1      1198 3.60197E-02
 -1      1199 2.66830E-02
 -1      1200 2.04397E-02
 -1      1201 1.57368E-02
 -1      1202 1.10171E-02
 -1      1203 7.28422E-03
 -1      1204 5.05243E-03
 -1      1205 2.51793E-03
 -1      1206 1.38145E+01
 -1      1207 8.60409E+00
 -1      1208 2.87938E+00
 -1      1209 1.98058E+00
 -1      1210 1.44735E+00
 -1      1211 1.19539E+00
 -1      1212 1.00127E+00
 -1      1213 8.19184E-01
 -1      1214 6.91292E-01
 -1      1215 6.45739E-01
 -1      1216 6.76181E-01
 -1      1217 7.51051E-01
 -1      1218 8.89636E-01
 -1      1219 1.04842E+00
 -1      1220 1.19667E+00
 -1      1221 1.39331E+00
 -1      1222 1.83429E+00
 -1      1223 2.43031E+00
 -1      1224 2.84628E+00
 -1      1225 3.02248E+00
 -1      1226 3.04193E+00
 -1      1227 2.70192E+00
 -1      1228 1.90081E+00
 -1      1229 1.21845E+00
 -1      1230 9.02064E-01
 -1      1231 8.68340E-01
 -1      1232 9.35008E-01
 -1      1233 9.40276E-01
 -1      1234 8.97191E-01
 -1      1235 7.88085E-01
 -1      1236 6.64220E-01
 -1      1237 5.45884E-01
 -1      1238 4.28889E-01
 -1      1239 3.25462E-01
 -1      1240 2.49729E-01
 -1      1241 1.95408E-01
 -1      1242 1.48366E-01
 -1      1243 1.09320E-01
 -1      1244 7.79917E-02
 -1      1245 5.50421E-02
 -1      1246 4.21474E-02
 -1      1247 3.47547E-02
 -1      1248 2.77626E-02
 -1      1249 2.17574E-02
 -1      1250 1.78937E-02
 -1      1251 1.50951E-02
 -1      1252 1.16460E-02
 -1      1253 7.90538E-03
 -1      1254 4.98941E-03
 -1      1255 2.36444E-03
 -1      1256 1.31706E-03
 -1      1257 1.53711E-03
 -1      1258 7.86454E-04
 -1      1259 4.80927E-04
 -1      1260 6.42850E-04
 -1      1261 6.74262E-04
 -1      1262 6.58952E-04
 -1      1263 6.18578E-04
 -1      1264 6.00966E-04
 -1      1265 6.36722E-04
 -1      1266 6.85487E-04
 -1      1267 7.05950E-04
 -1      1268 6.74083E-04
 -1      1269 5.61162E-04
 -1      1270 1.06238E-03
 -1      1271 2.19480E-03
 -1      1272 1.79302E-03
 -1      1273 2.46736E+01
 -1      1274 3.60466E+01
 -1      1275 4.73165E+01
 -1      1276 3.36893E+01
 -1      1277 1.65765E+01
 -1      1278 1.30908E+01
 -1      1279 1.27721E+01
 -1      1280 1.28196E+01
 -1      1281 1.31860E+01
 -1      1282 1.48450E+01
 -1      1283 3.02771E+01
 -1      1284 4.40502E+01
 -1      1285 3.53981E+01
 -1      1286 2.67461E+01
 -1      1287 2.57605E+01
 -1      1288 3.69749E+01
 -1      1289 4.91750E+01
 -1      1290 3.51967E+01
 -1      1291 1.71577E+01
 -1      1292 1.30970E+01
 -1      1293 1.27409E+01
 -1      1294 1.25825E+01
 -1      1295 1.27803E+01
 -1      1296 1.26111E+01
 -1      1297 2.00532E+01
 -1      1298 2.84037E+01
 -1      1299 2.87074E+01
 -1      1300 2.63856E+01
 -1      1301 2.45349E+01
 -1      1302 1.29092E+01
 -1      1303 4.70451E+00
 -1      1304 9.38933E+00
 -1      1305 2.04677E+00
 -1      1306 2.91430E+00
 -1      1307 4.07927E+00
 -1      1308 1.42295E+00
 -1      1309 1.67214E+00
 -1      1310 1.91442E+00
 -1      1311 1.11061E+00
 -1      1312 1.24072E+00
 -1      1313 1.35756E+00
 -1      1314 9.14160E-01
 -1      1315 1.00248E+00
 -1      1316 1.06721E+00
 -1      1317 7.78174E-01
 -1      1318 8.40944E-01
 -1      1319 8.85858E-01
 -1      1320 6.82437E-01
 -1      1321 7.26041E-01
 -1      1322 7.60510E-01
 -1      1323 6.55735E-01
 -1      1324 6.51058E-01
 -1      1325 6.76998E-01
 -1      1326 7.37980E-01
 -1      1327 6.92482E-01
 -1      1328 6.82366E-01
 -1      1329 8.49609E-01
 -1      1330 7.89635E-01
 -1      1331 7.70768E-01
 -1      1332 1.01603E+00
 -1      1333 9.25121E-01
 -1      1334 8.97934E-01
 -1      1335 1.26148E+00
 -1      1336 1.12646E+00
 -1      1337 1.08387E+00
 -1      1338 1.69001E+00
 -1      1339 1.44536E+00
 -1      1340 1.37818E+00
 -1      1341 2.83643E+00
 -1      1342 2.04900E+00
 -1      1343 1.92105E+00
 -1      1344 6.10355E+00
 -1      1345 3.60725E+00
 -1      1346 3.05086E+00
 -1      1347 1.38145E+01
 -1      1348 1.11000E+01
 -1      1349 8.81809E+00
 -1      1350 1.38145E+01
 -1      1351 8.59055E+00
 -1      1352 4.27193E+00
 -1      1353 3.73923E+00
 -1      1354 3.20653E+00
 -1      1355 3.73923E+00
 -1      1356 2.57755E+00
 -1      1357 1.94857E+00
 -1      1358 2.57755E+00
 -1      1359 1.70065E+00
 -1      1360 1.45274E+00
 -1      1361 1.70065E+00
 -1      1362 1.28765E+00
 -1      1363 1.12256E+00
 -1      1364 1.28765E+00
 -1      1365 9.96963E-01
 -1      1366 8.71366E-01
 -1      1367 9.96963E-01
 -1      1368 8.58864E-01
 -1      1369 8.90371E-01
 -1      1370 8.58864E-01
 -1      1371 9.34381E-01
 -1      1372 9.60636E-01
 -1      1373 8.90371E-01
 -1      1374 9.87418E-01
 -1      1375 1.09908E+00
 -1      1376 9.61163E-01
 -1      1377 1.22212E+00
 -1      1378 1.39707E+00
 -1      1379 1.11099E+00
 -1      1380 1.56012E+00
 -1      1381 1.68548E+00
 -1      1382 1.39707E+00
 -1      1383 1.81085E+00
 -1      1384 1.81085E+00
 -1      1385 1.68548E+00
 -1      1386 1.81030E+00
 -1      1387 1.81193E+00
 -1      1388 1.81030E+00
 -1      1389 1.81409E+00
 -1      1390 1.81409E+00
 -1      1391 1.81193E+00
 -1      1392 1.71939E+00
 -1      1393 1.96697E+00
 -1      1394 1.71939E+00
 -1      1395 2.39785E+00
 -1      1396 3.35055E+00
 -1      1397 2.05557E+00
 -1      1398 4.21464E+00
 -1      1399 4.74541E+00
 -1      1400 3.35055E+00
 -1      1401 5.27618E+00
 -1      1402 5.28421E+00
 -1      1403 4.74541E+00
 -1      1404 5.29225E+00
 -1      1405 5.29225E+00
 -1      1406 5.28421E+00
 -1      1407 4.88298E+00
 -1      1408 4.47371E+00
 -1      1409 4.88298E+00
 -1      1410 3.57077E+00
 -1      1411 2.54464E+00
 -1      1412 3.57077E+00
 -1      1413 2.09980E+00
 -1      1414 1.81339E+00
 -1      1415 2.22300E+00
 -1      1416 1.84862E+00
 -1      1417 1.84862E+00
 -1      1418 1.81339E+00
 -1      1419 1.80748E+00
 -1      1420 1.79718E+00
 -1      1421 1.80748E+00
 -1      1422 1.82801E+00
 -1      1423 1.82801E+00
 -1      1424 1.79718E+00
 -1      1425 1.72415E+00
 -1      1426 1.62028E+00
 -1      1427 1.72415E+00
 -1      1428 1.47811E+00
 -1      1429 1.32403E+00
 -1      1430 1.47811E+00
 -1      1431 1.22872E+00
 -1      1432 1.09540E+00
 -1      1433 1.24064E+00
 -1      1434 1.01062E+00
 -1      1435 8.92462E-01
 -1      1436 1.06054E+00
 -1      1437 7.98730E-01
 -1      1438 7.17677E-01
 -1      1439 8.82026E-01
 -1      1440 6.28862E-01
 -1      1441 5.72077E-01
 -1      1442 6.99479E-01
 -1      1443 4.94964E-01
 -1      1444 4.41087E-01
 -1      1445 5.33551E-01
 -1      1446 3.78238E-01
 -1      1447 3.30740E-01
 -1      1448 3.93589E-01
 -1      1449 2.93788E-01
 -1      1450 2.53873E-01
 -1      1451 2.93788E-01
 -1      1452 2.23764E-01
 -1      1453 1.91354E-01
 -1      1454 2.26726E-01
 -1      1455 1.66760E-01
 -1      1456 1.41133E-01
 -1      1457 1.72023E-01
 -1      1458 1.21532E-01
 -1      1459 1.07526E-01
 -1      1460 1.27827E-01
 -1      1461 9.70120E-02
 -1      1462 8.71993E-02
 -1      1463 9.77129E-02
 -1      1464 7.84246E-02
 -1      1465 6.96500E-02
 -1      1466 7.84246E-02
 -1      1467 6.20316E-02
 -1      1468 5.44133E-02
 -1      1469 6.20316E-02
 -1      1470 4.79341E-02
 -1      1471 4.14550E-02
 -1      1472 4.79341E-02
 -1      1473 3.60197E-02
 -1      1474 3.05844E-02
 -1      1475 3.60197E-02
 -1      1476 2.67445E-02
 -1      1477 2.28430E-02
 -1      1478 2.67445E-02
 -1      1479 2.04397E-02
 -1      1480 1.80979E-02
 -1      1481 2.05012E-02
 -1      1482 1.57368E-02
 -1      1483 1.33758E-02
 -1      1484 1.57368E-02
 -1      1485 1.11341E-02
 -1      1486 8.77533E-03
 -1      1487 1.11341E-02
 -1      1488 7.28422E-03
 -1      1489 5.91010E-03
 -1      1490 7.40121E-03
 -1      1491 5.05243E-03
 -1      1492 4.19476E-03
 -1      1493 5.05243E-03
 -1      1494 3.46985E-03
 -1      1495 3.46985E-03
 -1      1496 3.39369E+00
 -1      1497 8.60409E+00
 -1      1498 8.60409E+00
 -1      1499 2.36507E+00
 -1      1500 2.87938E+00
 -1      1501 2.87938E+00
 -1      1502 1.59609E+00
 -1      1503 1.98058E+00
 -1      1504 1.98058E+00
 -1      1505 1.29860E+00
 -1      1506 1.44735E+00
 -1      1507 1.44735E+00
 -1      1508 1.09218E+00
 -1      1509 1.19539E+00
 -1      1510 1.19539E+00
 -1      1511 9.10366E-01
 -1      1512 1.00127E+00
 -1      1513 1.00127E+00
 -1      1514 7.28002E-01
 -1      1515 8.19184E-01
 -1      1516 8.19184E-01
 -1      1517 6.54582E-01
 -1      1518 6.91292E-01
 -1      1519 6.91292E-01
 -1      1520 6.36895E-01
 -1      1521 6.45739E-01
 -1      1522 6.45739E-01
 -1      1523 6.50405E-01
 -1      1524 6.11119E-01
 -1      1525 6.11119E-01
 -1      1526 7.51051E-01
 -1      1527 7.15467E-01
 -1      1528 6.50405E-01
 -1      1529 8.89636E-01
 -1      1530 7.86635E-01
 -1      1531 7.51051E-01
 -1      1532 1.04842E+00
 -1      1533 9.92638E-01
 -1      1534 8.89636E-01
 -1      1535 1.19667E+00
 -1      1536 1.10420E+00
 -1      1537 1.04842E+00
 -1      1538 1.39331E+00
 -1      1539 1.28913E+00
 -1      1540 1.19667E+00
 -1      1541 1.87328E+00
 -1      1542 1.53648E+00
 -1      1543 1.43230E+00
 -1      1544 2.43031E+00
 -1      1545 2.17109E+00
 -1      1546 1.87328E+00
 -1      1547 2.84628E+00
 -1      1548 2.68953E+00
 -1      1549 2.43031E+00
 -1      1550 3.02248E+00
 -1      1551 3.00304E+00
 -1      1552 2.84628E+00
 -1      1553 3.04193E+00
 -1      1554 3.04193E+00
 -1      1555 3.02248E+00
 -1      1556 2.36190E+00
 -1      1557 2.70192E+00
 -1      1558 2.70192E+00
 -1      1559 1.43971E+00
 -1      1560 1.90081E+00
 -1      1561 1.90081E+00
 -1      1562 9.97186E-01
 -1      1563 1.21845E+00
 -1      1564 1.21845E+00
 -1      1565 7.88219E-01
 -1      1566 8.83342E-01
 -1      1567 8.83342E-01
 -1      1568 8.68340E-01
 -1      1569 8.06941E-01
 -1      1570 7.88219E-01
 -1      1571 9.35008E-01
 -1      1572 9.29739E-01
 -1      1573 8.68340E-01
 -1      1574 9.40276E-01
 -1      1575 9.40276E-01
 -1      1576 9.35008E-01
 -1      1577 8.54105E-01
 -1      1578 8.97191E-01
 -1      1579 8.97191E-01
 -1      1580 7.22066E-01
 -1      1581 7.88085E-01
 -1      1582 7.88085E-01
 -1      1583 6.06375E-01
 -1      1584 6.64220E-01
 -1      1585 6.64220E-01
 -1      1586 4.92539E-01
 -1      1587 5.53030E-01
 -1      1588 5.53030E-01
 -1      1589 3.83882E-01
 -1      1590 4.40386E-01
 -1      1591 4.47532E-01
 -1      1592 2.89709E-01
 -1      1593 3.36631E-01
 -1      1594 3.48128E-01
 -1      1595 2.20917E-01
 -1      1596 2.49729E-01
 -1      1597 2.60897E-01
 -1      1598 1.69898E-01
 -1      1599 1.95408E-01
 -1      1600 1.95408E-01
 -1      1601 1.26833E-01
 -1      1602 1.48366E-01
 -1      1603 1.48366E-01
 -1      1604 9.24001E-02
 -1      1605 1.09914E-01
 -1      1606 1.09914E-01
 -1      1607 6.56195E-02
 -1      1608 7.94335E-02
 -1      1609 8.00279E-02
 -1      1610 4.63180E-02
 -1      1611 5.54536E-02
 -1      1612 5.68954E-02
 -1      1613 3.83884E-02
 -1      1614 4.21474E-02
 -1      1615 4.25589E-02
 -1      1616 3.11210E-02
 -1      1617 3.47547E-02
 -1      1618 3.47547E-02
 -1      1619 2.44041E-02
 -1      1620 2.77626E-02
 -1      1621 2.77626E-02
 -1      1622 1.91108E-02
 -1      1623 2.17574E-02
 -1      1624 2.17574E-02
 -1      1625 1.66767E-02
 -1      1626 1.78937E-02
 -1      1627 1.78937E-02
 -1      1628 1.35136E-02
 -1      1629 1.50951E-02
 -1      1630 1.50951E-02
 -1      1631 9.77844E-03
 -1      1632 1.16460E-02
 -1      1633 1.16460E-02
 -1      1634 6.03233E-03
 -1      1635 7.90538E-03
 -1      1636 7.90538E-03
 -1      1637 3.94650E-03
 -1      1638 4.98941E-03
 -1      1639 4.98941E-03
 -1      1640 2.89911E-03
 -1      1641 1.25547E-03
 -1      1642 1.57009E-03
 -1      1643 6.45327E-04
 -1      1644 1.08136E-03
 -1      1645 1.11434E-03
 -1      1646 8.22550E-04
 -1      1647 6.92040E-04
 -1      1648 9.86949E-04
 -1      1649 9.10226E-04
 -1      1650 8.78814E-04
 -1      1651 1.08993E-03
 -1      1652 9.10226E-04
 -1      1653 9.10226E-04
 -1      1654 1.14619E-03
 -1      1655 8.88113E-04
 -1      1656 9.03423E-04
 -1      1657 1.13939E-03
 -1      1658 8.21856E-04
 -1      1659 8.46921E-04
 -1      1660 1.09139E-03
 -1      1661 7.97936E-04
 -1      1662 7.90483E-04
 -1      1663 1.01883E-03
 -1      1664 8.81786E-04
 -1      1665 8.53484E-04
 -1      1666 1.04300E-03
 -1      1667 9.47270E-04
 -1      1668 9.26807E-04
 -1      1669 1.14357E-03
 -1      1670 9.61852E-04
 -1      1671 9.61852E-04
 -1      1672 1.20317E-03
 -1      1673 9.29985E-04
 -1      1674 9.61852E-04
 -1      1675 1.21775E-03
 -1      1676 7.79496E-04
 -1      1677 8.60549E-04
 -1      1678 1.14832E-03
 -1      1679 1.28021E-03
 -1      1680 6.97937E-04
 -1      1681 9.97324E-04
 -1      1682 2.63219E-03
 -1      1683 2.08205E-03
 -1      1684 1.71760E-03
 -1      1685 3.35709E-03
 -1      1686 2.76232E+01
 -1      1687 2.75201E+01
 -1      1688 3.80126E+01
 -1      1689 2.67427E+01
 -1      1690 4.73165E+01
 -1      1691 4.73165E+01
 -1      1692 2.07482E+01
 -1      1693 3.43754E+01
 -1      1694 1.19849E+01
 -1      1695 1.54705E+01
 -1      1696 1.30908E+01
 -1      1697 1.30908E+01
 -1      1698 1.22625E+01
 -1      1699 1.25812E+01
 -1      1700 1.28196E+01
 -1      1701 1.24533E+01
 -1      1702 1.31860E+01
 -1      1703 1.31860E+01
 -1      1704 1.42121E+01
 -1      1705 1.25530E+01
 -1      1706 3.07829E+01
 -1      1707 1.70098E+01
 -1      1708 4.40502E+01
 -1      1709 4.40502E+01
 -1      1710 3.27194E+01
 -1      1711 4.13714E+01
 -1      1712 2.79543E+01
 -1      1713 2.79543E+01
 -1      1714 2.69687E+01
 -1      1715 2.79543E+01
 -1      1716 4.05196E+01
 -1      1717 2.83195E+01
 -1      1718 4.91750E+01
 -1      1719 4.91750E+01
 -1      1720 2.24914E+01
 -1      1721 3.64698E+01
 -1      1722 1.21529E+01
 -1      1723 1.62135E+01
 -1      1724 1.30970E+01
 -1      1725 1.30970E+01
 -1      1726 1.23847E+01
 -1      1727 1.27409E+01
 -1      1728 1.23681E+01
 -1      1729 1.21703E+01
 -1      1730 1.27803E+01
 -1      1731 1.27803E+01
 -1      1732 1.20060E+01
 -1      1733 1.21752E+01
 -1      1734 2.00532E+01
 -1      1735 1.24419E+01
 -1      1736 2.91429E+01
 -1      1737 2.84037E+01
 -1      1738 3.08160E+01
 -1      1739 3.12514E+01
 -1      1740 2.89296E+01
 -1      1741 3.08160E+01
 -1      1742 2.75201E+01
 -1      1743 2.74844E+01
 -1      1744 1.61566E+01
 -1      1745 3.43754E+01
 -1      1746 2.89911E-03
 -1      1747 2.61747E-03
 -1      1748 2.95892E+01
 -1      1749 3.80126E+01
 -1      1750 3.04696E+01
 -1      1751 1.19849E+01
 -1      1752 1.25812E+01
 -1      1753 1.22625E+01
 -1      1754 1.28196E+01
 -1      1755 1.25530E+01
 -1      1756 1.47179E+01
 -1      1757 3.07829E+01
 -1      1758 4.13714E+01
 -1      1759 3.39277E+01
 -1      1760 2.91626E+01
 -1      1761 3.05134E+01
 -1      1762 4.05196E+01
 -1      1763 3.64698E+01
 -1      1764 1.74866E+01
 -1      1765 1.21529E+01
 -1      1766 1.27409E+01
 -1      1767 1.21703E+01
 -1      1768 1.23681E+01
 -1      1769 1.21752E+01
 -1      1770 1.20060E+01
 -1      1771 2.07924E+01
 -1      1772 3.12514E+01
 -1      1773 3.33600E+01
 -1      1774 3.19148E+01
 -1      1775 9.38933E+00
 -1      1776 1.30628E+00
 -1      1777 1.68091E+00
 -1      1778 2.33689E+00
 -1      1779 4.12711E+00
 -1      1780 1.72875E+00
 -1      1781 8.85344E-01
 -1      1782 9.93475E-01
 -1      1783 7.48284E-01
 -1      1784 8.21500E-01
 -1      1785 7.47770E-01
 -1      1786 6.49965E-01
 -1      1787 7.02097E-01
 -1      1788 6.37739E-01
 -1      1789 5.82557E-01
 -1      1790 6.13936E-01
 -1      1791 5.55523E-01
 -1      1792 6.24695E-01
 -1      1793 5.87947E-01
 -1      1794 5.24885E-01
 -1      1795 7.12292E-01
 -1      1796 6.60638E-01
 -1      1797 5.66219E-01
 -1      1798 8.35904E-01
 -1      1799 7.60392E-01
 -1      1800 6.50262E-01
 -1      1801 1.00588E+00
 -1      1802 8.95457E-01
 -1      1803 7.57915E-01
 -1      1804 1.26536E+00
 -1      1805 1.08148E+00
 -1      1806 8.93066E-01
 -1      1807 1.73003E+00
 -1      1808 1.37104E+00
 -1      1809 1.07434E+00
 -1      1810 2.56908E+00
 -1      1811 1.79827E+00
 -1      1812 1.24825E+00
 -1      1813 7.93554E+00
 -1      1814 2.93913E+00
 -1      1815 1.68653E+00
 -1      1816 2.72513E+00
 -1      1817 5.07070E+00
 -1      1818 2.04465E+00
 -1      1819 2.55896E+00
 -1      1820 1.89040E+00
 -1      1821 3.32833E+00
 -1      1822 2.38356E+00
 -1      1823 1.75458E+00
 -1      1824 1.49196E+00
 -1      1825 1.24405E+00
 -1      1826 1.29798E+00
 -1      1827 1.10452E+00
 -1      1828 9.39432E-01
 -1      1829 8.95828E-01
 -1      1830 8.63681E-01
 -1      1831 7.38085E-01
 -1      1832 6.80554E-01
 -1      1833 7.25743E-01
 -1      1834 7.13240E-01
 -1      1835 5.92461E-01
 -1      1836 7.62971E-01
 -1      1837 8.06981E-01
 -1      1838 6.29850E-01
 -1      1839 8.94098E-01
 -1      1840 9.20879E-01
 -1      1841 7.66698E-01
 -1      1842 1.00785E+00
 -1      1843 1.13089E+00
 -1      1844 9.40783E-01
 -1      1845 1.21718E+00
 -1      1846 1.38022E+00
 -1      1847 1.11404E+00
 -1      1848 1.45941E+00
 -1      1849 1.58478E+00
 -1      1850 1.27951E+00
 -1      1851 1.57411E+00
 -1      1852 1.57356E+00
 -1      1853 1.34804E+00
 -1      1854 1.52674E+00
 -1      1855 1.52891E+00
 -1      1856 1.29055E+00
 -1      1857 1.65109E+00
 -1      1858 1.55638E+00
 -1      1859 1.36591E+00
 -1      1860 1.62213E+00
 -1      1861 2.05301E+00
 -1      1862 1.55383E+00
 -1      1863 2.37858E+00
 -1      1864 3.24268E+00
 -1      1865 1.94515E+00
 -1      1866 3.59979E+00
 -1      1867 4.13056E+00
 -1      1868 2.62783E+00
 -1      1869 4.32916E+00
 -1      1870 4.33720E+00
 -1      1871 3.18355E+00
 -1      1872 4.21455E+00
 -1      1873 3.80528E+00
 -1      1874 3.25950E+00
 -1      1875 3.43898E+00
 -1      1876 2.53605E+00
 -1      1877 2.77056E+00
 -1      1878 2.20444E+00
 -1      1879 1.75960E+00
 -1      1880 2.07265E+00
 -1      1881 1.61823E+00
 -1      1882 1.65346E+00
 -1      1883 1.59967E+00
 -1      1884 1.55150E+00
 -1      1885 1.51036E+00
 -1      1886 1.35634E+00
 -1      1887 1.59217E+00
 -1      1888 1.62300E+00
 -1      1889 1.33618E+00
 -1      1890 1.62488E+00
 -1      1891 1.52101E+00
 -1      1892 1.41987E+00
 -1      1893 1.46714E+00
 -1      1894 1.32498E+00
 -1      1895 1.36788E+00
 -1      1896 1.25765E+00
 -1      1897 1.16233E+00
 -1      1898 1.24667E+00
 -1      1899 1.09947E+00
 -1      1900 1.01468E+00
 -1      1901 1.11647E+00
 -1      1902 9.32526E-01
 -1      1903 8.38794E-01
 -1      1904 9.71449E-01
 -1      1905 7.53684E-01
 -1      1906 6.64869E-01
 -1      1907 8.04184E-01
 -1      1908 5.86267E-01
 -1      1909 5.09153E-01
 -1      1910 6.40472E-01
 -1      1911 4.41443E-01
 -1      1912 3.78594E-01
 -1      1913 4.94159E-01
 -1      1914 3.22960E-01
 -1      1915 2.86008E-01
 -1      1916 3.70815E-01
 -1      1917 2.41867E-01
 -1      1918 2.11758E-01
 -1      1919 2.71039E-01
 -1      1920 1.77706E-01
 -1      1921 1.53112E-01
 -1      1922 1.92847E-01
 -1      1923 1.27827E-01
 -1      1924 1.08227E-01
 -1      1925 1.33511E-01
 -1      1926 9.29236E-02
 -1      1927 8.24100E-02
 -1      1928 9.29236E-02
 -1      1929 7.16602E-02
 -1      1930 6.28856E-02
 -1      1931 6.68709E-02
 -1      1932 5.58789E-02
 -1      1933 4.82606E-02
 -1      1934 4.91145E-02
 -1      1935 4.43385E-02
 -1      1936 3.78594E-02
 -1      1937 3.81858E-02
 -1      1938 3.42318E-02
 -1      1939 2.87965E-02
 -1      1940 3.06361E-02
 -1      1941 2.55341E-02
 -1      1942 2.16941E-02
 -1      1943 2.37461E-02
 -1      1944 1.88154E-02
 -1      1945 1.64120E-02
 -1      1946 1.76050E-02
 -1      1947 1.46073E-02
 -1      1948 1.22462E-02
 -1      1949 1.29215E-02
 -1      1950 1.07874E-02
 -1      1951 8.54565E-03
 -1      1952 9.65782E-03
 -1      1953 7.16661E-03
 -1      1954 5.67550E-03
 -1      1955 6.81994E-03
 -1      1956 4.53986E-03
 -1      1957 3.68219E-03
 -1      1958 2.84453E-03
 -1      1959 4.30526E-03
 -1      1960 1.32214E+00
 -1      1961 1.70664E+00
 -1      1962 1.38621E+00
 -1      1963 9.99498E-01
 -1      1964 1.14824E+00
 -1      1965 8.74296E-01
 -1      1966 8.73818E-01
 -1      1967 9.77031E-01
 -1      1968 6.77926E-01
 -1      1969 7.51992E-01
 -1      1970 8.42898E-01
 -1      1971 6.24539E-01
 -1      1972 6.16766E-01
 -1      1973 7.07948E-01
 -1      1974 5.49574E-01
 -1      1975 5.84183E-01
 -1      1976 6.20893E-01
 -1      1977 5.09657E-01
 -1      1978 5.74014E-01
 -1      1979 5.82857E-01
 -1      1980 5.12459E-01
 -1      1981 5.59242E-01
 -1      1982 5.85019E-01
 -1      1983 5.22137E-01
 -1      1984 6.24305E-01
 -1      1985 5.59242E-01
 -1      1986 5.33142E-01
 -1      1987 6.14194E-01
 -1      1988 5.78611E-01
 -1      1989 4.87448E-01
 -1      1990 7.11876E-01
 -1      1991 6.08874E-01
 -1      1992 4.36434E-01
 -1      1993 9.36211E-01
 -1      1994 8.80427E-01
 -1      1995 5.99665E-01
 -1      1996 1.26689E+00
 -1      1997 1.17443E+00
 -1      1998 1.00643E+00
 -1      1999 1.58796E+00
 -1      2000 1.44479E+00
 -1      2001 1.42255E+00
 -1      2002 1.91042E+00
 -1      2003 1.61261E+00
 -1      2004 1.62510E+00
 -1      2005 2.16963E+00
 -1      2006 1.91042E+00
 -1      2007 1.64974E+00
 -1      2008 2.34850E+00
 -1      2009 2.19174E+00
 -1      2010 1.67185E+00
 -1      2011 2.46896E+00
 -1      2012 2.44951E+00
 -1      2013 1.79497E+00
 -1      2014 2.00931E+00
 -1      2015 2.34932E+00
 -1      2016 1.77635E+00
 -1      2017 1.29145E+00
 -1      2018 1.75255E+00
 -1      2019 1.39995E+00
 -1      2020 8.55929E-01
 -1      2021 1.07719E+00
 -1      2022 9.28933E-01
 -1      2023 6.11055E-01
 -1      2024 7.24900E-01
 -1      2025 5.83642E-01
 -1      2026 6.92042E-01
 -1      2027 6.73320E-01
 -1      2028 5.14878E-01
 -1      2029 7.91929E-01
 -1      2030 7.30531E-01
 -1      2031 6.15631E-01
 -1      2032 8.17543E-01
 -1      2033 8.12275E-01
 -1      2034 6.74465E-01
 -1      2035 7.65861E-01
 -1      2036 8.08947E-01
 -1      2037 6.86214E-01
 -1      2038 6.65448E-01
 -1      2039 7.31467E-01
 -1      2040 6.43223E-01
 -1      2041 5.75503E-01
 -1      2042 6.33349E-01
 -1      2043 5.76730E-01
 -1      2044 4.80759E-01
 -1      2045 5.34104E-01
 -1      2046 5.03232E-01
 -1      2047 3.85002E-01
 -1      2048 4.37155E-01
 -1      2049 4.18229E-01
 -1      2050 2.96646E-01
 -1      2051 3.43897E-01
 -1      2052 3.33520E-01
 -1      2053 2.20575E-01
 -1      2054 2.60555E-01
 -1      2055 2.56324E-01
 -1      2056 1.66890E-01
 -1      2057 1.92399E-01
 -1      2058 1.92057E-01
 -1      2059 1.26008E-01
 -1      2060 1.47541E-01
 -1      2061 1.44532E-01
 -1      2062 9.29945E-02
 -1      2063 1.09914E-01
 -1      2064 1.09089E-01
 -1      2065 6.70613E-02
 -1      2066 8.00279E-02
 -1      2067 8.00279E-02
 -1      2068 4.67295E-02
 -1      2069 5.68954E-02
 -1      2070 5.68954E-02
 -1      2071 3.47825E-02
 -1      2072 3.89531E-02
 -1      2073 3.89531E-02
 -1      2074 2.73928E-02
 -1      2075 3.10265E-02
 -1      2076 2.74207E-02
 -1      2077 2.19551E-02
 -1      2078 2.53136E-02
 -1      2079 2.15854E-02
 -1      2080 1.72184E-02
 -1      2081 1.98651E-02
 -1      2082 1.74160E-02
 -1      2083 1.40055E-02
 -1      2084 1.52226E-02
 -1      2085 1.33302E-02
 -1      2086 1.10030E-02
 -1      2087 1.25845E-02
 -1      2088 9.91334E-03
 -1      2089 8.21107E-03
 -1      2090 1.00786E-02
 -1      2091 7.56802E-03
 -1      2092 5.41557E-03
 -1      2093 7.28862E-03
 -1      2094 5.72125E-03
 -1      2095 3.54751E-03
 -1      2096 4.59043E-03
 -1      2097 3.97366E-03
 -1      2098 2.21849E-03
 -1      2099 1.36715E-03
 -1      2100 1.31089E-03
 -1      2101 1.51371E-03
 -1      2102 1.46700E-03
 -1      2103 1.79093E-03
 -1      2104 1.73684E-03
 -1      2105 1.91095E-03
 -1      2106 2.84098E-03
 -1      2107 2.26360E-03
 -1      2108 1.36715E-03
 -1      2109 1.36715E-03
 -1      2110 1.58811E-03
 -1      2111 1.25337E-03
 -1      2112 1.26018E-03
 -1      2113 1.48114E-03
 -1      2114 1.14962E-03
 -1      2115 1.19081E-03
 -1      2116 1.31160E-03
 -1      2117 1.02362E-03
 -1      2118 1.05499E-03
 -1      2119 1.15441E-03
 -1      2120 1.11108E-03
 -1      2121 1.05554E-03
 -1      2122 1.09170E-03
 -1      2123 1.25743E-03
 -1      2124 1.21241E-03
 -1      2125 1.22495E-03
 -1      2126 1.33090E-03
 -1      2127 1.31632E-03
 -1      2128 1.38516E-03
 -1      2129 1.45956E-03
 -1      2130 1.45956E-03
 -1      2131 1.57270E-03
 -1      2132 1.39012E-03
 -1      2133 1.45956E-03
 -1      2134 1.70136E-03
 -1      2135 1.84943E-03
 -1      2136 1.93099E-03
 -1      2137 2.24223E-03
 -1      2138 3.80126E+01
 -1      2139 2.87088E+01
 -1      2140 3.11253E+01
 -1      2141 3.11253E+01
 -1      2142 2.99785E+01
 -1      2143 3.08589E+01
 -1      2144 1.90391E+01
 -1      2145 3.19802E+01
 -1      2146 9.99223E+00
 -1      2147 1.52699E+01
 -1      2148 1.06047E+00
 -1      2149 1.24270E+00
 -1      2150 1.00919E+00
 -1      2151 8.78612E-01
 -1      2152 1.12351E+01
 -1      2153 1.17446E+01
 -1      2154 1.18610E+01
 -1      2155 1.16702E+01
 -1      2156 1.08336E+01
 -1      2157 1.18839E+01
 -1      2158 1.15176E+01
 -1      2159 1.00704E+01
 -1      2160 1.07033E+01
 -1      2161 1.27730E+01
 -1      2162 9.97523E+00
 -1      2163 8.12552E+00
 -1      2164 2.91629E+01
 -1      2165 1.58957E+01
 -1      2166 3.22078E+01
 -1      2167 3.48865E+01
 -1      2168 2.51050E+01
 -1      2169 2.98701E+01
 -1      2170 2.33851E+01
 -1      2171 3.15009E+01
 -1      2172 3.15009E+01
 -1      2173 3.28517E+01
 -1      2174 3.15009E+01
 -1      2175 4.05196E+01
 -1      2176 3.18641E+01
 -1      2177 2.07822E+01
 -1      2178 3.34875E+01
 -1      2179 1.05836E+01
 -1      2180 1.68615E+01
 -1      2181 1.02072E+01
 -1      2182 9.26307E+00
 -1      2183 8.63797E+00
 -1      2184 1.16253E+01
 -1      2185 1.19814E+01
 -1      2186 1.18669E+01
 -1      2187 1.20813E+01
 -1      2188 1.19909E+01
 -1      2189 1.15787E+01
 -1      2190 1.14897E+01
 -1      2191 1.00727E+01
 -1      2192 1.06778E+01
 -1      2193 9.48576E+00
 -1      2194 9.04990E+00
 -1      2195 2.04105E+01
 -1      2196 1.20600E+01
 -1      2197 2.66964E+01
 -1      2198 2.45878E+01
 -1      2199 3.33600E+01
 -1      2200 3.33600E+01
 -1      2201 3.11253E+01
 -1      2202 3.25705E+01
 -1      2203 1.00349E+01
 -1      2204 8.92900E+00
 -1      2205 1.28747E+01
 -1      2206 2.79563E+00
 -1      2207 8.04230E+00
 -1      2208 8.87118E+00
 -1      2209 1.02173E+01
 -1      2210 7.16146E+00
 -1      2211 1.97267E+00
 -1      2212 2.99785E+01
 -1      2213 3.15146E+01
 -1      2214 2.65127E-03
 -1      2215 2.26763E+01
 -1      2216 3.17810E+01
 -1      2217 3.25705E+01
 -1      2218 2.66964E+01
 -1      2219 1.58555E+01
 -1      2220 9.10388E+00
 -1      2221 9.88840E+00
 -1      2222 9.09161E+00
 -1      2223 1.38792E+01
 -1      2224 2.48320E+01
 -1      2225 3.28517E+01
 -1      2226 2.87655E+01
 -1      2227 2.47079E+01
 -1      2228 3.11038E+01
 -1      2229 1.11530E+01
 -1      2230 1.09252E+01
 -1      2231 9.40125E+00
 -1      2232 1.99993E+01
 -1      2233 3.38392E+01
 -1      2234 1.13219E+01
 -1      2235 7.55250E+00
 -1      2236 9.57479E-01
 -1      2237 1.29549E+00
 -1      2238 5.32970E-01
 -1      2239 5.79157E-01
 -1      2240 6.09744E-01
 -1      2241 6.73588E-01
 -1      2242 5.04975E-01
 -1      2243 4.48059E-01
 -1      2244 4.42669E-01
 -1      2245 5.12450E-01
 -1      2246 4.76507E-01
 -1      2247 3.94290E-01
 -1      2248 5.92068E-01
 -1      2249 5.43968E-01
 -1      2250 4.54256E-01
 -1      2251 6.78488E-01
 -1      2252 6.18935E-01
 -1      2253 5.12641E-01
 -1      2254 7.64528E-01
 -1      2255 6.88928E-01
 -1      2256 5.49949E-01
 -1      2257 9.57302E-01
 -1      2258 8.51630E-01
 -1      2259 6.47491E-01
 -1      2260 6.74550E-01
 -1      2261 8.48454E-01
 -1      2262 7.57733E-01
 -1      2263 1.09786E+00
 -1      2264 8.35232E-01
 -1      2265 5.89021E+00
 -1      2266 6.95344E+00
 -1      2267 7.18872E-01
 -1      2268 5.79348E-01
 -1      2269 5.18752E-01
 -1      2270 5.16095E-01
 -1      2271 4.40344E-01
 -1      2272 3.39138E-01
 -1      2273 4.83691E-01
 -1      2274 4.71348E-01
 -1      2275 3.19231E-01
 -1      2276 5.62654E-01
 -1      2277 6.12385E-01
 -1      2278 4.53884E-01
 -1      2279 7.15156E-01
 -1      2280 8.02273E-01
 -1      2281 6.47961E-01
 -1      2282 9.06845E-01
 -1      2283 9.93813E-01
 -1      2284 8.55303E-01
 -1      2285 1.08704E+00
 -1      2286 1.17332E+00
 -1      2287 1.05310E+00
 -1      2288 1.25575E+00
 -1      2289 1.33494E+00
 -1      2290 1.22875E+00
 -1      2291 1.48615E+00
 -1      2292 1.47548E+00
 -1      2293 1.46238E+00
 -1      2294 1.62546E+00
 -1      2295 1.57864E+00
 -1      2296 1.76357E+00
 -1      2297 1.64870E+00
 -1      2298 1.77087E+00
 -1      2299 1.98361E+00
 -1      2300 2.18503E+00
 -1      2301 2.25077E+00
 -1      2302 2.46782E+00
 -1      2303 2.67106E+00
 -1      2304 2.99663E+00
 -1      2305 3.30226E+00
 -1      2306 2.88965E+00
 -1      2307 3.24677E+00
 -1      2308 3.61557E+00
 -1      2309 4.78353E+00
 -1      2310 4.98214E+00
 -1      2311 5.04536E+00
 -1      2312 5.22500E+00
 -1      2313 5.10235E+00
 -1      2314 6.82498E+00
 -1      2315 3.97027E+00
 -1      2316 3.60397E+00
 -1      2317 5.93576E+00
 -1      2318 2.69135E+00
 -1      2319 2.35974E+00
 -1      2320 3.89106E+00
 -1      2321 2.14541E+00
 -1      2322 2.00404E+00
 -1      2323 2.76411E+00
 -1      2324 1.80822E+00
 -1      2325 1.70626E+00
 -1      2326 2.35397E+00
 -1      2327 1.63486E+00
 -1      2328 1.71666E+00
 -1      2329 2.08674E+00
 -1      2330 1.58027E+00
 -1      2331 1.58216E+00
 -1      2332 1.87895E+00
 -1      2333 1.44261E+00
 -1      2334 1.38874E+00
 -1      2335 1.60302E+00
 -1      2336 1.30444E+00
 -1      2337 1.23711E+00
 -1      2338 1.37917E+00
 -1      2339 1.15993E+00
 -1      2340 1.09706E+00
 -1      2341 1.21769E+00
 -1      2342 1.00801E+00
 -1      2343 9.25849E-01
 -1      2344 1.05146E+00
 -1      2345 8.37454E-01
 -1      2346 7.52344E-01
 -1      2347 8.74009E-01
 -1      2348 6.71665E-01
 -1      2349 5.93062E-01
 -1      2350 7.04935E-01
 -1      2351 5.23296E-01
 -1      2352 4.55586E-01
 -1      2353 5.54489E-01
 -1      2354 3.97512E-01
 -1      2355 3.41878E-01
 -1      2356 4.26649E-01
 -1      2357 2.94917E-01
 -1      2358 2.50776E-01
 -1      2359 3.21614E-01
 -1      2360 2.13689E-01
 -1      2361 1.79637E-01
 -1      2362 2.37566E-01
 -1      2363 1.50947E-01
 -1      2364 1.25662E-01
 -1      2365 1.71788E-01
 -1      2366 1.03893E-01
 -1      2367 8.85905E-02
 -1      2368 1.21329E-01
 -1      2369 7.23919E-02
 -1      2370 6.16422E-02
 -1      2371 8.33618E-02
 -1      2372 4.98379E-02
 -1      2373 4.28312E-02
 -1      2374 5.53588E-02
 -1      2375 3.50314E-02
 -1      2376 3.11094E-02
 -1      2377 3.57547E-02
 -1      2378 2.66349E-02
 -1      2379 2.30072E-02
 -1      2380 2.34804E-02
 -1      2381 2.15361E-02
 -1      2382 1.82737E-02
 -1      2383 1.75348E-02
 -1      2384 1.66765E-02
 -1      2385 1.37977E-02
 -1      2386 1.44665E-02
 -1      2387 1.22057E-02
 -1      2388 1.04009E-02
 -1      2389 1.12772E-02
 -1      2390 8.90629E-03
 -1      2391 7.44745E-03
 -1      2392 8.19051E-03
 -1      2393 6.44282E-03
 -1      2394 5.06378E-03
 -1      2395 5.69129E-03
 -1      2396 4.83291E-01
 -1      2397 5.14211E-01
 -1      2398 4.29575E-01
 -1      2399 4.73620E-01
 -1      2400 3.63292E-01
 -1      2401 4.51272E-01
 -1      2402 4.47145E-01
 -1      2403 3.71190E-01
 -1      2404 4.77128E-01
 -1      2405 4.78454E-01
 -1      2406 4.15941E-01
 -1      2407 5.26963E-01
 -1      2408 5.15958E-01
 -1      2409 4.81954E-01
 -1      2410 5.47154E-01
 -1      2411 5.47154E-01
 -1      2412 5.40975E-01
 -1      2413 5.18156E-01
 -1      2414 5.63850E-01
 -1      2415 5.77862E-01
 -1      2416 5.71497E-01
 -1      2417 5.76817E-01
 -1      2418 6.53219E-01
 -1      2419 7.75997E-01
 -1      2420 6.07446E-01
 -1      2421 7.47829E-01
 -1      2422 1.16637E+00
 -1      2423 9.28154E-01
 -1      2424 9.35934E-01
 -1      2425 1.48925E+00
 -1      2426 1.31135E+00
 -1      2427 1.23307E+00
 -1      2428 1.62510E+00
 -1      2429 1.60046E+00
 -1      2430 1.48925E+00
 -1      2431 1.72936E+00
 -1      2432 1.72936E+00
 -1      2433 1.70472E+00
 -1      2434 1.64805E+00
 -1      2435 1.62594E+00
 -1      2436 1.70556E+00
 -1      2437 1.80670E+00
 -1      2438 1.70568E+00
 -1      2439 1.65978E+00
 -1      2440 1.57140E+00
 -1      2441 1.69104E+00
 -1      2442 1.60175E+00
 -1      2443 1.19796E+00
 -1      2444 1.45472E+00
 -1      2445 1.36941E+00
 -1      2446 8.16102E-01
 -1      2447 1.03036E+00
 -1      2448 1.08513E+00
 -1      2449 5.89275E-01
 -1      2450 7.20304E-01
 -1      2451 8.21735E-01
 -1      2452 6.14457E-01
 -1      2453 5.52193E-01
 -1      2454 6.88854E-01
 -1      2455 6.58168E-01
 -1      2456 6.19679E-01
 -1      2457 6.56994E-01
 -1      2458 6.88434E-01
 -1      2459 6.68089E-01
 -1      2460 6.72137E-01
 -1      2461 6.61620E-01
 -1      2462 6.70217E-01
 -1      2463 6.63841E-01
 -1      2464 6.05529E-01
 -1      2465 6.39923E-01
 -1      2466 6.23926E-01
 -1      2467 5.42825E-01
 -1      2468 5.74924E-01
 -1      2469 5.71624E-01
 -1      2470 4.66879E-01
 -1      2471 5.08278E-01
 -1      2472 5.06471E-01
 -1      2473 3.84208E-01
 -1      2474 4.27812E-01
 -1      2475 4.32857E-01
 -1      2476 3.04507E-01
 -1      2477 3.45612E-01
 -1      2478 3.55194E-01
 -1      2479 2.33256E-01
 -1      2480 2.69347E-01
 -1      2481 2.81439E-01
 -1      2482 1.74799E-01
 -1      2483 2.02975E-01
 -1      2484 2.15997E-01
 -1      2485 1.30466E-01
 -1      2486 1.49815E-01
 -1      2487 1.60733E-01
 -1      2488 9.44756E-02
 -1      2489 1.10570E-01
 -1      2490 1.15853E-01
 -1      2491 6.61577E-02
 -1      2492 7.91242E-02
 -1      2493 8.06054E-02
 -1      2494 4.54330E-02
 -1      2495 5.55989E-02
 -1      2496 5.46952E-02
 -1      2497 3.10402E-02
 -1      2498 3.88166E-02
 -1      2499 3.75201E-02
 -1      2500 2.36647E-02
 -1      2501 2.74207E-02
 -1      2502 2.72842E-02
 -1      2503 1.95061E-02
 -1      2504 2.15854E-02
 -1      2505 2.15854E-02
 -1      2506 1.53260E-02
 -1      2507 1.74160E-02
 -1      2508 1.74160E-02
 -1      2509 1.13343E-02
 -1      2510 1.33302E-02
 -1      2511 1.33302E-02
 -1      2512 8.17009E-03
 -1      2513 9.59107E-03
 -1      2514 9.59107E-03
 -1      2515 6.45135E-03
 -1      2516 7.37568E-03
 -1      2517 7.05341E-03
 -1      2518 4.72123E-03
 -1      2519 5.64367E-03
 -1      2520 5.45133E-03
 -1      2521 3.66612E-03
 -1      2522 1.56983E-03
 -1      2523 1.67680E-03
 -1      2524 1.29182E-03
 -1      2525 1.35438E-03
 -1      2526 1.55005E-03
 -1      2527 2.56729E-03
 -1      2528 2.77011E-03
 -1      2529 1.67680E-03
 -1      2530 1.67680E-03
 -1      2531 2.65598E-03
 -1      2532 1.76549E-03
 -1      2533 1.05979E-03
 -1      2534 1.15441E-03
 -1      2535 1.19720E-03
 -1      2536 1.05516E-03
 -1      2537 1.02324E-03
 -1      2538 1.02324E-03
 -1      2539 1.22495E-03
 -1      2540 1.12362E-03
 -1      2541 1.05516E-03
 -1      2542 1.45021E-03
 -1      2543 1.39132E-03
 -1      2544 1.28999E-03
 -1      2545 1.72889E-03
 -1      2546 1.60024E-03
 -1      2547 1.60639E-03
 -1      2548 1.85638E-03
 -1      2549 1.85638E-03
 -1      2550 1.88392E-03
 -1      2551 2.51395E-03
 -1      2552 1.97308E-03
 -1      2553 2.12811E-03
 -1      2554 3.12482E+01
 -1      2555 3.15146E+01
 -1      2556 1.46751E+01
 -1      2557 2.07076E+01
 -1      2558 5.61220E-01
 -1      2559 5.83686E-01
 -1      2560 4.19971E-01
 -1      2561 2.97636E-03
 -1      2562 3.17810E+01
 -1      2563 3.17810E+01
 -1      2564 2.41573E+01
 -1      2565 2.54270E+01
 -1      2566 1.61561E+01
 -1      2567 1.63330E+00
 -1      2568 1.22123E+00
 -1      2569 7.58487E-01
 -1      2570 9.77315E-01
 -1      2571 2.73179E+01
 -1      2572 2.81074E+01
 -1      2573 2.73179E+01
 -1      2574 8.43619E+00
 -1      2575 6.66197E+00
 -1      2576 9.70317E+00
 -1      2577 1.36239E+01
 -1      2578 1.06142E+01
 -1      2579 7.49149E+00
 -1      2580 9.16215E+00
 -1      2581 9.50561E+00
 -1      2582 4.65818E-01
 -1      2583 5.01847E-01
 -1      2584 4.43265E-01
 -1      2585 3.88992E-01
 -1      2586 7.02601E+00
 -1      2587 8.20655E+00
 -1      2588 9.30918E+00
 -1      2589 8.87408E+00
 -1      2590 1.87588E+01
 -1      2591 1.30353E+01
 -1      2592 6.14421E+00
 -1      2593 6.23940E+00
 -1      2594 3.38392E+01
 -1      2595 3.38392E+01
 -1      2596 1.88521E+01
 -1      2597 2.11898E+01
 -1      2598 9.66142E+00
 -1      2599 9.20535E+00
 -1      2600 2.61965E+01
 -1      2601 2.71840E+01
 -1      2602 1.57320E+01
 -1      2603 2.27642E+01
 -1      2604 6.42409E+00
 -1      2605 7.74467E+00
 -1      2606 5.66668E+00
 -1      2607 6.68951E+00
 -1      2608 9.45825E+00
 -1      2609 9.74649E+00
 -1      2610 7.82159E+00
 -1      2611 9.13466E+00
 -1      2612 8.68371E+00
 -1      2613 6.10949E+00
 -1      2614 1.50876E+01
 -1      2615 1.09103E+01
 -1      2616 7.91588E+00
 -1      2617 2.39211E+01
 -1      2618 1.72575E+01
 -1      2619 1.45577E+00
 -1      2620 1.62194E+00
 -1      2621 1.25190E+00
 -1      2622 1.02703E+00
 -1      2623 9.41885E+00
 -1      2624 1.31880E+01
 -1      2625 6.78691E+00
 -1      2626 5.67293E-01
 -1      2627 7.05319E-01
 -1      2628 7.72316E-01
 -1      2629 5.57844E-01
 -1      2630 1.18366E+00
 -1      2631 7.26676E+00
 -1      2632 1.23123E+01
 -1      2633 7.34675E+00
 -1      2634 5.93576E+00
 -1      2635 7.39143E+00
 -1      2636 5.76867E+00
 -1      2637 5.24651E+00
 -1      2638 3.58855E-03
 -1      2639 1.12193E+01
 -1      2640 3.31870E-03
 -1      2641 3.15146E+01
 -1      2642 2.54270E+01
 -1      2643 1.15560E+01
 -1      2644 1.70965E+01
 -1      2645 9.60950E-01
 -1      2646 7.62995E+00
 -1      2647 9.13735E-01
 -1      2648 7.48930E+00
 -1      2649 6.77571E+00
 -1      2650 1.88633E+01
 -1      2651 1.66680E+01
 -1      2652 2.25237E+01
 -1      2653 2.71840E+01
 -1      2654 5.60537E+00
 -1      2655 1.42258E+01
 -1      2656 1.08085E+01
 -1      2657 7.14701E+00
 -1      2658 9.56810E+00
 -1      2659 3.11038E+01
 -1      2660 7.54608E+00
 -1      2661 1.86685E+01
 -1      2662 5.46851E+00
 -1      2663 4.37966E+00
 -1      2664 5.65091E+00
 -1      2665 5.04470E+00
 -1      2666 3.16438E-03
 -1      2667 2.97112E-03
 -1      2668 2.70197E-03
 -1      2669 4.30002E-03
 -1      2670 4.09506E-03
 -1      2671 3.92290E-03
 -1      2672 4.12155E-01
 -1      2673 3.80636E-01
 -1      2674 3.54280E-01
 -1      2675 3.25833E-01
 -1      2676 3.12179E-01
 -1      2677 4.82576E-01
 -1      2678 4.72136E-01
 -1      2679 5.86112E-01
 -1      2680 4.99010E-01
 -1      2681 4.21197E-01
 -1      2682 5.31420E-01
 -1      2683 6.40445E-01
 -1      2684 5.85089E+00
 -1      2685 5.84799E+00
 -1      2686 2.31025E+01
 -1      2687 1.86394E+01
 -1      2688 1.21225E+01
 -1      2689 9.95268E+00
 -1      2690 3.83543E-01
 -1      2691 3.20289E-01
 -1      2692 3.15638E-01
 -1      2693 3.58985E-01
 -1      2694 3.60042E-01
 -1      2695 4.08938E-01
 -1      2696 5.00243E-01
 -1      2697 4.05344E-01
 -1      2698 5.87625E-01
 -1      2699 6.90396E-01
 -1      2700 5.42679E-01
 -1      2701 8.01499E-01
 -1      2702 9.06070E-01
 -1      2703 7.41163E-01
 -1      2704 1.04032E+00
 -1      2705 1.13354E+00
 -1      2706 9.86513E-01
 -1      2707 1.28858E+00
 -1      2708 1.37101E+00
 -1      2709 1.27580E+00
 -1      2710 1.53214E+00
 -1      2711 1.68335E+00
 -1      2712 1.59197E+00
 -1      2713 1.93113E+00
 -1      2714 2.08110E+00
 -1      2715 2.00088E+00
 -1      2716 2.34885E+00
 -1      2717 2.41891E+00
 -1      2718 2.51641E+00
 -1      2719 3.69751E+00
 -1      2720 4.11166E+00
 -1      2721 4.06276E+00
 -1      2722 3.96224E+00
 -1      2723 4.38252E+00
 -1      2724 5.19193E+00
 -1      2725 4.86455E+00
 -1      2726 4.75757E+00
 -1      2727 6.29434E+00
 -1      2728 7.14857E+00
 -1      2729 7.39143E+00
 -1      2730 7.06784E+00
 -1      2731 5.93576E+00
 -1      2732 4.80369E+00
 -1      2733 3.89106E+00
 -1      2734 2.79706E+00
 -1      2735 2.60124E+00
 -1      2736 2.79089E+00
 -1      2737 2.71949E+00
 -1      2738 3.23399E+00
 -1      2739 2.20559E+00
 -1      2740 2.06919E+00
 -1      2741 2.90973E+00
 -1      2742 1.81520E+00
 -1      2743 1.67566E+00
 -1      2744 2.14184E+00
 -1      2745 1.52620E+00
 -1      2746 1.44190E+00
 -1      2747 1.73839E+00
 -1      2748 1.29393E+00
 -1      2749 1.21675E+00
 -1      2750 1.44095E+00
 -1      2751 1.08921E+00
 -1      2752 1.00016E+00
 -1      2753 1.16545E+00
 -1      2754 8.92617E-01
 -1      2755 8.04222E-01
 -1      2756 9.30371E-01
 -1      2757 7.15217E-01
 -1      2758 6.34538E-01
 -1      2759 7.33825E-01
 -1      2760 5.62752E-01
 -1      2761 4.92986E-01
 -1      2762 5.73035E-01
 -1      2763 4.34932E-01
 -1      2764 3.76858E-01
 -1      2765 4.43194E-01
 -1      2766 3.30330E-01
 -1      2767 2.83369E-01
 -1      2768 3.38612E-01
 -1      2769 2.46477E-01
 -1      2770 2.09390E-01
 -1      2771 2.55193E-01
 -1      2772 1.80496E-01
 -1      2773 1.51805E-01
 -1      2774 1.89407E-01
 -1      2775 1.29478E-01
 -1      2776 1.07709E-01
 -1      2777 1.38186E-01
 -1      2778 9.07098E-02
 -1      2779 7.45112E-02
 -1      2780 9.88588E-02
 -1      2781 6.17782E-02
 -1      2782 4.99739E-02
 -1      2783 6.91263E-02
 -1      2784 4.06122E-02
 -1      2785 3.28125E-02
 -1      2786 4.70316E-02
 -1      2787 2.60781E-02
 -1      2788 2.16035E-02
 -1      2789 3.09355E-02
 -1      2790 1.68869E-02
 -1      2791 1.54159E-02
 -1      2792 1.94846E-02
 -1      2793 1.25700E-02
 -1      2794 1.09727E-02
 -1      2795 1.19221E-02
 -1      2796 1.01259E-02
 -1      2797 8.53383E-03
 -1      2798 8.22940E-03
 -1      2799 7.83484E-03
 -1      2800 6.34026E-03
 -1      2801 6.68358E-03
 -1      2802 5.55683E-03
 -1      2803 4.55219E-03
 -1      2804 5.20116E-03
 -1      2805 3.73312E-01
 -1      2806 3.55743E-01
 -1      2807 4.11333E-03
 -1      2808 4.66192E-03
 -1      2809 5.46960E-03
 -1      2810 3.09677E-01
 -1      2811 3.19348E-01
 -1      2812 3.11799E-01
 -1      2813 5.40118E-01
 -1      2814 5.01287E-01
 -1      2815 6.20811E-01
 -1      2816 6.00620E-01
 -1      2817 6.19954E-01
 -1      2818 6.84657E-01
 -1      2819 6.67961E-01
 -1      2820 7.27606E-01
 -1      2821 8.03006E-01
 -1      2822 7.44345E-01
 -1      2823 8.34444E-01
 -1      2824 9.74517E-01
 -1      2825 9.38568E-01
 -1      2826 1.02969E+00
 -1      2827 1.17372E+00
 -1      2828 1.02156E+00
 -1      2829 1.21230E+00
 -1      2830 1.43630E+00
 -1      2831 1.29132E+00
 -1      2832 1.37695E+00
 -1      2833 1.57464E+00
 -1      2834 1.46343E+00
 -1      2835 1.52169E+00
 -1      2836 2.05194E+00
 -1      2837 1.94768E+00
 -1      2838 1.92187E+00
 -1      2839 1.82959E+00
 -1      2840 1.93301E+00
 -1      2841 2.17597E+00
 -1      2842 2.18808E+00
 -1      2843 2.13045E+00
 -1      2844 2.35790E+00
 -1      2845 1.60175E+00
 -1      2846 1.71741E+00
 -1      2847 2.18808E+00
 -1      2848 1.36479E+00
 -1      2849 1.48146E+00
 -1      2850 1.59712E+00
 -1      2851 1.12429E+00
 -1      2852 1.29189E+00
 -1      2853 1.40394E+00
 -1      2854 9.66729E-01
 -1      2855 1.06253E+00
 -1      2856 1.26928E+00
 -1      2857 8.47153E-01
 -1      2858 8.84235E-01
 -1      2859 1.12503E+00
 -1      2860 7.53883E-01
 -1      2861 7.48660E-01
 -1      2862 9.44042E-01
 -1      2863 7.38416E-01
 -1      2864 7.28495E-01
 -1      2865 8.20161E-01
 -1      2866 6.75049E-01
 -1      2867 6.93266E-01
 -1      2868 7.49624E-01
 -1      2869 6.23926E-01
 -1      2870 6.45623E-01
 -1      2871 6.75049E-01
 -1      2872 5.61677E-01
 -1      2873 5.92282E-01
 -1      2874 6.13979E-01
 -1      2875 4.86194E-01
 -1      2876 5.20741E-01
 -1      2877 5.41399E-01
 -1      2878 4.03345E-01
 -1      2879 4.42412E-01
 -1      2880 4.56681E-01
 -1      2881 3.23208E-01
 -1      2882 3.61803E-01
 -1      2883 3.71358E-01
 -1      2884 2.52160E-01
 -1      2885 2.87320E-01
 -1      2886 2.93929E-01
 -1      2887 1.92157E-01
 -1      2888 2.22438E-01
 -1      2889 2.28319E-01
 -1      2890 1.42805E-01
 -1      2891 1.67789E-01
 -1      2892 1.74229E-01
 -1      2893 1.03145E-01
 -1      2894 1.23041E-01
 -1      2895 1.30097E-01
 -1      2896 7.21823E-02
 -1      2897 8.75336E-02
 -1      2898 9.47217E-02
 -1      2899 4.95962E-02
 -1      2900 6.01550E-02
 -1      2901 6.70832E-02
 -1      2902 3.39424E-02
 -1      2903 4.05588E-02
 -1      2904 4.60186E-02
 -1      2905 2.37116E-02
 -1      2906 2.73311E-02
 -1      2907 3.03699E-02
 -1      2908 1.73839E-02
 -1      2909 1.94632E-02
 -1      2910 1.95102E-02
 -1      2911 1.30671E-02
 -1      2912 1.51571E-02
 -1      2913 1.30350E-02
 -1      2914 1.02380E-02
 -1      2915 1.22338E-02
 -1      2916 9.97490E-03
 -1      2917 7.54376E-03
 -1      2918 9.28702E-03
 -1      2919 8.19067E-03
 -1      2920 6.25901E-03
 -1      2921 7.05341E-03
 -1      2922 6.74936E-03
 -1      2923 5.46960E-03
 -1      2924 8.78369E+00
 -1      2925 1.02708E+01
 -1      2926 1.04892E-03
 -1      2927 1.08546E-03
 -1      2928 3.91270E-03
 -1      2929 3.14895E-03
 -1      2930 3.77824E-03
 -1      2931 1.38251E-03
 -1      2932 1.59796E-03
 -1      2933 1.12248E-03
 -1      2934 1.05401E-03
 -1      2935 1.11624E-03
 -1      2936 1.10806E-03
 -1      2937 1.24547E-03
 -1      2938 1.29338E-03
 -1      2939 1.13374E-03
 -1      2940 1.35648E-03
 -1      2941 1.19011E-03
 -1      2942 1.18897E-03
 -1      2943 1.66791E-03
 -1      2944 1.51788E-03
 -1      2945 1.41800E-03
 -1      2946 2.12491E-03
 -1      2947 1.99741E-03
 -1      2948 1.90890E-03
 -1      2949 7.61046E-01
 -1      2950 6.37671E-01
 -1      2951 1.15764E+01
 -1      2952 1.50260E+01
 -1      2953 1.75883E+01
 -1      2954 2.34095E+01
 -1      2955 8.38834E+00
 -1      2956 1.04965E+01
 -1      2957 8.00676E-01
 -1      2958 1.26789E+01
 -1      2959 1.61112E+01
 -1      2960 9.51126E+00
 -1      2961 1.30300E+01
 -1      2962 1.05990E+01
 -1      2963 2.91316E-01
 -1      2964 3.38324E-01
 -1      2965 2.37701E-01
 -1      2966 4.45421E-01
 -1      2967 4.18240E-01
 -1      2968 4.02793E-01
 -1      2969 5.03585E-01
 -1      2970 3.73615E-01
 -1      2971 4.64479E-01
 -1      2972 3.47191E-01
 -1      2973 2.44960E-01
 -1      2974 1.74684E+01
 -1      2975 1.32820E+01
 -1      2976 1.32529E+01
 -1      2977 5.54012E+00
 -1      2978 7.49862E+00
 -1      2979 6.05017E-01
 -1      2980 4.88657E-01
 -1      2981 4.69808E-01
 -1      2982 6.07576E-01
 -1      2983 2.32507E+01
 -1      2984 2.05153E+01
 -1      2985 6.53919E+00
 -1      2986 6.34276E+00
 -1      2987 4.61568E-01
 -1      2988 4.34701E-01
 -1      2989 3.61082E-01
 -1      2990 3.94196E-01
 -1      2991 4.19322E-01
 -1      2992 4.49908E-01
 -1      2993 4.85495E+00
 -1      2994 3.50766E+00
 -1      2995 1.85689E+01
 -1      2996 2.52241E+01
 -1      2997 2.69178E-03
 -1      2998 7.92920E-01
 -1      2999 2.25763E+01
 -1      3000 2.28427E+01
 -1      3001 8.16527E+00
 -1      3002 5.93871E+00
 -1      3003 5.43516E+00
 -1      3004 7.90056E+00
 -1      3005 3.40802E+00
 -1      3006 4.19463E+00
 -1      3007 5.31082E+00
 -1      3008 6.26642E+00
 -1      3009 5.52453E+00
 -1      3010 4.10667E+00
 -1      3011 3.19405E+00
 -1      3012 2.97972E+00
 -1      3013 4.54949E+00
 -1      3014 5.55242E-01
 -1      3015 5.86973E-01
 -1      3016 4.69589E-01
 -1      3017 2.77611E-01
 -1      3018 3.17620E-01
 -1      3019 3.40770E-01
 -1      3020 4.15504E+00
 -1      3021 7.06350E+00
 -1      3022 6.43916E+00
 -1      3023 7.97551E+00
 -1      3024 3.22700E+00
 -1      3025 4.79888E+00
 -1      3026 5.01346E+00
 -1      3027 2.01758E-03
 -1      3028 2.18511E-03
 -1      3029 2.18511E-03
 -1      3030 9.14076E+00
 -1      3031 6.95209E+00
 -1      3032 6.19627E-01
 -1      3033 3.22284E-03
 -1      3034 1.46707E+01
 -1      3035 1.41642E+01
 -1      3036 2.57508E-03
 -1      3037 5.74362E-01
 -1      3038 4.25881E-01
 -1      3039 1.30086E+01
 -1      3040 1.47377E+01
 -1      3041 7.81111E+00
 -1      3042 9.00696E+00
 -1      3043 6.78022E+00
 -1      3044 2.65760E+00
 -1      3045 1.33629E+01
 -1      3046 9.73608E+00
 -1      3047 1.33741E+01
 -1      3048 1.09224E+01
 -1      3049 2.32507E+01
 -1      3050 1.26622E+01
 -1      3051 1.46356E+01
 -1      3052 3.65515E-01
 -1      3053 3.96638E-01
 -1      3054 3.41572E-01
 -1      3055 2.94143E-01
 -1      3056 5.06310E+00
 -1      3057 1.41513E+01
 -1      3058 4.76657E+00
 -1      3059 5.77346E+00
 -1      3060 4.27470E+00
 -1      3061 2.90846E-03
 -1      3062 2.34480E-03
 -1      3063 2.45829E-03
 -1      3064 3.54796E-03
 -1      3065 5.58451E+00
 -1      3066 3.48680E+00
 -1      3067 5.77886E+00
 -1      3068 5.28665E+00
 -1      3069 3.91640E-01
 -1      3070 3.75205E-01
 -1      3071 1.17318E+01
 -1      3072 1.05607E+01
 -1      3073 6.96171E+00
 -1      3074 9.14409E+00
 -1      3075 4.32057E+00
 -1      3076 4.59334E+00
 -1      3077 4.15865E-01
 -1      3078 4.65818E-01
 -1      3079 5.29648E-01
 -1      3080 6.17029E-01
 -1      3081 5.40168E-01
 -1      3082 7.06343E-01
 -1      3083 8.17446E-01
 -1      3084 6.93312E-01
 -1      3085 9.40838E-01
 -1      3086 1.07508E+00
 -1      3087 9.06017E-01
 -1      3088 1.25220E+00
 -1      3089 1.40724E+00
 -1      3090 1.20652E+00
 -1      3091 1.68087E+00
 -1      3092 1.84200E+00
 -1      3093 1.65726E+00
 -1      3094 2.32477E+00
 -1      3095 2.57255E+00
 -1      3096 2.41367E+00
 -1      3097 3.84129E+00
 -1      3098 4.10904E+00
 -1      3099 4.16518E+00
 -1      3100 4.68935E+00
 -1      3101 5.96795E+00
 -1      3102 4.08004E+00
 -1      3103 3.56614E+00
 -1      3104 2.69373E+00
 -1      3105 2.43974E+00
 -1      3106 3.86404E+00
 -1      3107 2.00462E+00
 -1      3108 1.85516E+00
 -1      3109 2.55651E+00
 -1      3110 1.56792E+00
 -1      3111 1.41995E+00
 -1      3112 1.83416E+00
 -1      3113 1.24101E+00
 -1      3114 1.11347E+00
 -1      3115 1.36798E+00
 -1      3116 9.95757E-01
 -1      3117 8.88215E-01
 -1      3118 1.07132E+00
 -1      3119 7.89206E-01
 -1      3120 7.00202E-01
 -1      3121 8.54592E-01
 -1      3122 6.15947E-01
 -1      3123 5.44161E-01
 -1      3124 6.71328E-01
 -1      3125 4.74821E-01
 -1      3126 4.16767E-01
 -1      3127 5.17733E-01
 -1      3128 3.61013E-01
 -1      3129 3.14485E-01
 -1      3130 3.92640E-01
 -1      3131 2.70470E-01
 -1      3132 2.33579E-01
 -1      3133 2.92871E-01
 -1      3134 1.99387E-01
 -1      3135 1.70493E-01
 -1      3136 2.14664E-01
 -1      3137 1.44341E-01
 -1      3138 1.22014E-01
 -1      3139 1.54321E-01
 -1      3140 1.03075E-01
 -1      3141 8.60759E-02
 -1      3142 1.09231E-01
 -1      3143 7.21974E-02
 -1      3144 5.94644E-02
 -1      3145 7.64140E-02
 -1      3146 4.92389E-02
 -1      3147 3.98772E-02
 -1      3148 5.23099E-02
 -1      3149 3.29895E-02
 -1      3150 2.62551E-02
 -1      3151 3.51967E-02
 -1      3152 2.14518E-02
 -1      3153 1.67352E-02
 -1      3154 2.35058E-02
 -1      3155 1.33447E-02
 -1      3156 1.04988E-02
 -1      3157 1.53119E-02
 -1      3158 8.18461E-03
 -1      3159 7.33778E-03
 -1      3160 9.60718E-03
 -1      3161 5.91967E-03
 -1      3162 5.22067E-03
 -1      3163 5.87488E-03
 -1      3164 4.83228E-03
 -1      3165 4.04885E-03
 -1      3166 3.17907E-03
 -1      3167 4.06836E-03
 -1      3168 3.60691E-01
 -1      3169 3.14624E-01
 -1      3170 8.63443E-01
 -1      3171 8.16293E-01
 -1      3172 7.03887E-01
 -1      3173 6.43385E-01
 -1      3174 8.39725E-01
 -1      3175 1.27614E+00
 -1      3176 1.14058E+00
 -1      3177 1.49031E+00
 -1      3178 1.44327E+00
 -1      3179 1.55415E+00
 -1      3180 1.90917E+00
 -1      3181 1.79157E+00
 -1      3182 2.02254E+00
 -1      3183 1.76908E+00
 -1      3184 1.74194E+00
 -1      3185 2.15656E+00
 -1      3186 2.29491E+00
 -1      3187 1.92187E+00
 -1      3188 2.14212E+00
 -1      3189 2.95392E+00
 -1      3190 3.07286E+00
 -1      3191 3.25478E+00
 -1      3192 2.40852E+00
 -1      3193 2.87920E+00
 -1      3194 1.71695E+00
 -1      3195 1.83723E+00
 -1      3196 2.52834E+00
 -1      3197 1.69370E+00
 -1      3198 1.76659E+00
 -1      3199 2.00670E+00
 -1      3200 1.48021E+00
 -1      3201 1.54198E+00
 -1      3202 1.90463E+00
 -1      3203 1.29650E+00
 -1      3204 1.37899E+00
 -1      3205 1.65168E+00
 -1      3206 1.07904E+00
 -1      3207 1.17753E+00
 -1      3208 1.43149E+00
 -1      3209 9.68907E-01
 -1      3210 9.94295E-01
 -1      3211 1.22779E+00
 -1      3212 8.21605E-01
 -1      3213 8.66754E-01
 -1      3214 1.04089E+00
 -1      3215 7.09045E-01
 -1      3216 7.38471E-01
 -1      3217 8.55601E-01
 -1      3218 6.25051E-01
 -1      3219 6.56696E-01
 -1      3220 7.20118E-01
 -1      3221 5.31007E-01
 -1      3222 5.71943E-01
 -1      3223 6.14660E-01
 -1      3224 4.36665E-01
 -1      3225 4.80446E-01
 -1      3226 5.10990E-01
 -1      3227 3.48794E-01
 -1      3228 3.90336E-01
 -1      3229 4.14101E-01
 -1      3230 2.73673E-01
 -1      3231 3.09560E-01
 -1      3232 3.28538E-01
 -1      3233 2.11275E-01
 -1      3234 2.40997E-01
 -1      3235 2.56629E-01
 -1      3236 1.60092E-01
 -1      3237 1.84460E-01
 -1      3238 1.97139E-01
 -1      3239 1.18745E-01
 -1      3240 1.38509E-01
 -1      3241 1.48740E-01
 -1      3242 8.60803E-02
 -1      3243 1.01691E-01
 -1      3244 1.10104E-01
 -1      3245 6.08258E-02
 -1      3246 7.28531E-02
 -1      3247 7.98228E-02
 -1      3248 4.17249E-02
 -1      3249 5.07623E-02
 -1      3250 5.65321E-02
 -1      3251 2.76154E-02
 -1      3252 3.42268E-02
 -1      3253 3.89705E-02
 -1      3254 1.79115E-02
 -1      3255 2.21599E-02
 -1      3256 2.60168E-02
 -1      3257 1.18255E-02
 -1      3258 1.40523E-02
 -1      3259 1.67020E-02
 -1      3260 8.35736E-03
 -1      3261 9.19064E-03
 -1      3262 1.02079E-02
 -1      3263 6.08658E-03
 -1      3264 7.03753E-03
 -1      3265 6.25327E-03
 -1      3266 2.05119E-03
 -1      3267 1.98355E-03
 -1      3268 2.23841E-03
 -1      3269 1.90890E-03
 -1      3270 1.98355E-03
 -1      3271 1.97846E-03
 -1      3272 2.84577E-03
 -1      3273 4.95900E+00
 -1      3274 5.84213E+00
 -1      3275 2.54052E+00
 -1      3276 2.44087E+00
 -1      3277 9.83862E+00
 -1      3278 1.24009E+01
 -1      3279 8.02193E+00
 -1      3280 6.23452E+00
 -1      3281 1.24465E+01
 -1      3282 1.16133E+01
 -1      3283 2.18447E-03
 -1      3284 2.02308E-03
 -1      3285 2.81766E-03
 -1      3286 2.51398E-03
 -1      3287 1.01184E+00
 -1      3288 9.52154E-01
 -1      3289 1.04084E+00
 -1      3290 1.25829E+00
 -1      3291 1.17334E+01
 -1      3292 1.37419E+01
 -1      3293 1.04368E+01
 -1      3294 4.66263E+00
 -1      3295 4.85229E+00
 -1      3296 1.16133E+01
 -1      3297 1.18731E+01
 -1      3298 9.18092E+00
 -1      3299 4.61622E+00
 -1      3300 2.78874E-01
 -1      3301 2.50842E-01
 -1      3302 3.27766E-01
 -1      3303 3.62280E+00
 -1      3304 3.42572E+00
 -1      3305 3.64246E-03
 -1      3306 3.81468E-01
 -1      3307 3.76816E-01
 -1      3308 4.37290E-01
 -1      3309 6.84876E+00
 -1      3310 8.15430E+00
 -1      3311 7.54662E+00
 -1      3312 3.53585E+00
 -1      3313 4.59135E+00
 -1      3314 3.00361E+00
 -1      3315 9.66492E+00
 -1      3316 8.50545E+00
 -1      3317 8.14381E+00
 -1      3318 3.47191E-01
 -1      3319 3.58941E-01
 -1      3320 3.12949E-01
 -1      3321 2.80251E-01
 -1      3322 4.27179E+00
 -1      3323 3.75130E+00
 -1      3324 2.63511E+00
 -1      3325 2.71226E+00
 -1      3326 3.75130E+00
 -1      3327 2.85539E-01
 -1      3328 2.59183E-01
 -1      3329 6.07576E-01
 -1      3330 1.08535E+01
 -1      3331 1.33112E+01
 -1      3332 2.26345E-01
 -1      3333 2.18132E-01
 -1      3334 1.99704E-01
 -1      3335 8.30394E+00
 -1      3336 6.33512E+00
 -1      3337 6.01423E+00
 -1      3338 6.18569E+00
 -1      3339 1.71559E-03
 -1      3340 2.30274E-03
 -1      3341 3.77323E-01
 -1      3342 4.82657E-01
 -1      3343 1.09237E+01
 -1      3344 9.99484E+00
 -1      3345 1.09237E+01
 -1      3346 2.32378E-01
 -1      3347 2.67669E-01
 -1      3348 2.67669E-01
 -1      3349 2.73551E-01
 -1      3350 6.58790E-01
 -1      3351 5.74856E-01
 -1      3352 5.18990E-01
 -1      3353 3.47522E+00
 -1      3354 4.26051E+00
 -1      3355 6.25360E+00
 -1      3356 5.26714E+00
 -1      3357 5.41344E-03
 -1      3358 4.26030E-03
 -1      3359 4.92309E-03
 -1      3360 1.12477E+01
 -1      3361 8.12337E+00
 -1      3362 8.07774E+00
 -1      3363 1.89913E-03
 -1      3364 2.03618E-03
 -1      3365 2.32134E-03
 -1      3366 4.58448E-01
 -1      3367 4.13520E-01
 -1      3368 5.29718E-01
 -1      3369 6.76446E+00
 -1      3370 3.48139E+00
 -1      3371 1.93853E-03
 -1      3372 1.96112E-03
 -1      3373 2.70392E-03
 -1      3374 2.80584E-03
 -1      3375 9.37572E+00
 -1      3376 1.26736E+01
 -1      3377 1.07002E+01
 -1      3378 5.63792E+00
 -1      3379 4.07542E+00
 -1      3380 5.07678E+00
 -1      3381 9.32220E+00
 -1      3382 7.93842E+00
 -1      3383 6.34638E+00
 -1      3384 5.50869E+00
 -1      3385 3.54537E+00
 -1      3386 2.86221E-03
 -1      3387 3.89994E-03
 -1      3388 4.68935E-03
 -1      3389 2.56022E-03
 -1      3390 4.23694E-01
 -1      3391 4.40468E-01
 -1      3392 5.28808E-01
 -1      3393 4.07548E-01
 -1      3394 3.96981E-01
 -1      3395 3.77991E-01
 -1      3396 5.74922E-01
 -1      3397 3.28154E+00
 -1      3398 4.16346E-01
 -1      3399 3.34912E-01
 -1      3400 3.12366E-01
 -1      3401 2.59369E-01
 -1      3402 3.48265E-01
 -1      3403 8.27135E+00
 -1      3404 2.97890E-01
 -1      3405 3.20573E-01
 -1      3406 3.33641E-01
 -1      3407 2.35663E+00
 -1      3408 2.43379E+00
 -1      3409 2.43379E+00
 -1      3410 2.23955E+00
 -1      3411 2.67818E-03
 -1      3412 2.45829E-03
 -1      3413 2.45829E-03
 -1      3414 3.17907E-03
 -1      3415 4.98763E+00
 -1      3416 4.11522E+00
 -1      3417 4.21775E+00
 -1      3418 6.80740E-01
 -1      3419 7.70054E-01
 -1      3420 9.06017E-01
 -1      3421 1.02941E+00
 -1      3422 8.93445E-01
 -1      3423 1.20652E+00
 -1      3424 1.38363E+00
 -1      3425 1.20652E+00
 -1      3426 1.61944E+00
 -1      3427 1.89307E+00
 -1      3428 1.61944E+00
 -1      3429 2.28231E+00
 -1      3430 2.76509E+00
 -1      3431 2.24450E+00
 -1      3432 3.83667E+00
 -1      3433 5.10541E+00
 -1      3434 3.70532E+00
 -1      3435 4.36542E-01
 -1      3436 5.28808E-01
 -1      3437 7.72363E+00
 -1      3438 2.96896E+00
 -1      3439 2.53385E+00
 -1      3440 4.09255E+00
 -1      3441 2.07174E+00
 -1      3442 1.78450E+00
 -1      3443 2.48418E+00
 -1      3444 1.54692E+00
 -1      3445 1.36798E+00
 -1      3446 1.78450E+00
 -1      3447 1.18904E+00
 -1      3448 1.07132E+00
 -1      3449 1.36798E+00
 -1      3450 9.33142E-01
 -1      3451 8.34133E-01
 -1      3452 1.05086E+00
 -1      3453 7.27613E-01
 -1      3454 6.43358E-01
 -1      3455 8.06163E-01
 -1      3456 5.60668E-01
 -1      3457 4.91328E-01
 -1      3458 6.16952E-01
 -1      3459 4.26836E-01
 -1      3460 3.71082E-01
 -1      3461 4.69770E-01
 -1      3462 3.20732E-01
 -1      3463 2.76717E-01
 -1      3464 3.54928E-01
 -1      3465 2.37521E-01
 -1      3466 2.03329E-01
 -1      3467 2.65381E-01
 -1      3468 1.73009E-01
 -1      3469 1.46858E-01
 -1      3470 1.95866E-01
 -1      3471 1.23619E-01
 -1      3472 1.04680E-01
 -1      3473 1.42307E-01
 -1      3474 8.70748E-02
 -1      3475 7.31963E-02
 -1      3476 1.01462E-01
 -1      3477 6.02707E-02
 -1      3478 5.00452E-02
 -1      3479 7.09315E-02
 -1      3480 4.08869E-02
 -1      3481 3.39992E-02
 -1      3482 4.88477E-02
 -1      3483 2.72876E-02
 -1      3484 2.24843E-02
 -1      3485 3.29778E-02
 -1      3486 1.76699E-02
 -1      3487 1.42793E-02
 -1      3488 2.14518E-02
 -1      3489 1.09302E-02
 -1      3490 8.61601E-03
 -1      3491 1.32882E-02
 -1      3492 6.40445E-03
 -1      3493 4.98634E-03
 -1      3494 7.72747E-03
 -1      3495 8.97049E+00
 -1      3496 8.60270E+00
 -1      3497 2.29881E+00
 -1      3498 1.99755E+00
 -1      3499 1.86718E+00
 -1      3500 1.70005E+00
 -1      3501 2.14345E+00
 -1      3502 3.07286E+00
 -1      3503 2.58504E+00
 -1      3504 2.53539E+00
 -1      3505 2.42527E+00
 -1      3506 2.99656E+00
 -1      3507 2.43515E+00
 -1      3508 2.53637E+00
 -1      3509 1.82429E+00
 -1      3510 1.94325E+00
 -1      3511 2.82794E+00
 -1      3512 1.45374E+00
 -1      3513 1.53849E+00
 -1      3514 2.05024E+00
 -1      3515 1.08360E+00
 -1      3516 1.18576E+00
 -1      3517 1.49646E+00
 -1      3518 8.94954E-01
 -1      3519 9.78088E-01
 -1      3520 1.12296E+00
 -1      3521 7.37853E-01
 -1      3522 7.90202E-01
 -1      3523 9.12689E-01
 -1      3524 5.99881E-01
 -1      3525 6.52990E-01
 -1      3526 7.23075E-01
 -1      3527 4.82633E-01
 -1      3528 5.33194E-01
 -1      3529 5.71524E-01
 -1      3530 3.87198E-01
 -1      3531 4.33527E-01
 -1      3532 4.55730E-01
 -1      3533 3.10241E-01
 -1      3534 3.49475E-01
 -1      3535 3.68901E-01
 -1      3536 2.43105E-01
 -1      3537 2.75780E-01
 -1      3538 2.96717E-01
 -1      3539 1.86382E-01
 -1      3540 2.13197E-01
 -1      3541 2.32348E-01
 -1      3542 1.39800E-01
 -1      3543 1.61384E-01
 -1      3544 1.77442E-01
 -1      3545 1.02477E-01
 -1      3546 1.19531E-01
 -1      3547 1.32174E-01
 -1      3548 7.32494E-02
 -1      3549 8.64766E-02
 -1      3550 9.59040E-02
 -1      3551 5.13268E-02
 -1      3552 6.13903E-02
 -1      3553 6.80441E-02
 -1      3554 3.50114E-02
 -1      3555 4.25095E-02
 -1      3556 4.73677E-02
 -1      3557 2.30064E-02
 -1      3558 2.84619E-02
 -1      3559 3.20009E-02
 -1      3560 1.44235E-02
 -1      3561 1.82827E-02
 -1      3562 2.07278E-02
 -1      3563 8.56736E-03
 -1      3564 1.12022E-02
 -1      3565 1.27829E-02
 -1      3566 5.39652E-03
 -1      3567 6.71635E-03
 -1      3568 7.71061E-03
 -1      3569 2.98470E+00
 -1      3570 2.76797E+00
 -1      3571 4.24608E-03
 -1      3572 4.24608E-03
 -1      3573 7.34191E+00
 -1      3574 6.44608E+00
 -1      3575 3.71426E+00
 -1      3576 5.99221E+00
 -1      3577 5.30576E+00
 -1      3578 5.17846E+00
 -1      3579 4.03616E+00
 -1      3580 1.90463E+00
 -1      3581 2.05635E+00
 -1      3582 2.58504E+00
 -1      3583 2.68809E+00
 -1      3584 9.91926E-01
 -1      3585 8.79520E-01
 -1      3586 2.95269E+00
 -1      3587 7.98725E+00
 -1      3588 7.84597E+00
 -1      3589 3.73396E-01
 -1      3590 3.37646E-01
 -1      3591 2.35306E-01
 -1      3592 2.60052E-01
 -1      3593 2.39053E-01
 -1      3594 5.14800E-01
 -1      3595 5.78630E-01
 -1      3596 6.55372E-01
 -1      3597 6.80503E+00
 -1      3598 5.36930E+00
 -1      3599 7.05362E+00
 -1      3600 5.29597E+00
 -1      3601 7.98725E+00
 -1      3602 7.98725E+00
 -1      3603 4.50677E-01
 -1      3604 4.89725E-01
 -1      3605 5.28187E-01
 -1      3606 4.62699E-01
 -1      3607 4.09869E-01
 -1      3608 4.19750E-01
 -1      3609 7.39512E+00
 -1      3610 3.57331E+00
 -1      3611 3.54891E-01
 -1      3612 3.87590E-01
 -1      3613 3.42309E-01
 -1      3614 6.37085E+00
 -1      3615 6.03951E+00
 -1      3616 9.75300E+00
 -1      3617 8.01441E+00
 -1      3618 7.79093E+00
 -1      3619 3.10415E+00
 -1      3620 2.74299E+00
 -1      3621 3.94316E-01
 -1      3622 4.40468E-01
 -1      3623 3.98242E-01
 -1      3624 3.62325E-01
 -1      3625 3.66250E-01
 -1      3626 3.05575E-01
 -1      3627 2.72955E-01
 -1      3628 2.46128E-01
 -1      3629 7.18149E+00
 -1      3630 7.99126E+00
 -1      3631 6.15715E+00
 -1      3632 4.54197E+00
 -1      3633 6.71930E+00
 -1      3634 5.56610E+00
 -1      3635 3.82676E-03
 -1      3636 3.43837E-03
 -1      3637 2.93747E-03
 -1      3638 4.35634E-03
 -1      3639 3.60774E-01
 -1      3640 3.42309E-01
 -1      3641 4.29531E-01
 -1      3642 4.06404E-01
 -1      3643 2.25320E+00
 -1      3644 1.94017E+00
 -1      3645 1.81144E+00
 -1      3646 2.30935E+00
 -1      3647 2.15656E+00
 -1      3648 1.36752E+00
 -1      3649 1.40732E+00
 -1      3650 1.45623E+00
 -1      3651 3.58444E+00
 -1      3652 3.99591E+00
 -1      3653 4.77414E+00
 -1      3654 9.17070E-01
 -1      3655 7.64868E-01
 -1      3656 6.96339E-01
 -1      3657 2.76797E+00
 -1      3658 2.32379E+00
 -1      3659 4.34093E-03
 -1      3660 4.80401E-03
 -1      3661 3.66779E-03
 -1      3662 5.19031E+00
 -1      3663 3.35343E-03
 -1      3664 4.50677E-01
 -1      3665 6.63489E+00
 -1      3666 7.83372E+00
 -1      3667 6.49877E+00
 -1      3668 5.95690E-01
 -1      3669 5.35147E-01
 -1      3670 7.01769E-01
 -1      3671 3.87472E-03
 -1      3672 3.83479E-03
 -1      3673 5.27503E-03
 -1      3674 2.71759E-03
 -1      3675 6.14824E+00
 -1      3676 3.78338E-03
 -1      3677 3.30420E-03
 -1      3678 3.57977E-03
 -1      3679 3.70493E-03
 -1      3680 3.38434E-03
 -1      3681 2.34314E-01
 -1      3682 2.20728E-01
 -1      3683 1.87890E-01
 -1      3684 5.44149E+00
 -1      3685 4.21797E-03
 -1      3686 4.24608E-03
 -1      3687 5.64640E-03
 -1      3688 5.00819E-03
 -1      3689 1.84040E-01
 -1      3690 4.80778E+00
 -1      3691 3.63985E+00
 -1      3692 4.37360E+00
 -1      3693 6.65231E+00
 -1      3694 4.19933E-01
 -1      3695 5.28671E-01
 -1      3696 4.25817E-03
 -1      3697 2.87458E-03
 -1      3698 5.70078E+00
 -1      3699 4.93526E+00
 -1      3700 4.72155E+00
 -1      3701 3.43722E+00
 -1      3702 2.60689E+00
 -1      3703 2.47652E+00
 -1      3704 3.53890E+00
 -1      3705 2.22511E+00
 -1      3706 2.50359E+00
 -1      3707 1.13643E+00
 -1      3708 1.31354E+00
 -1      3709 1.58343E+00
 -1      3710 1.81925E+00
 -1      3711 1.51334E+00
 -1      3712 2.22521E+00
 -1      3713 2.61445E+00
 -1      3714 2.18920E+00
 -1      3715 3.50663E+00
 -1      3716 4.57821E+00
 -1      3717 3.48735E+00
 -1      3718 3.57864E-01
 -1      3719 3.44622E-01
 -1      3720 4.19933E-01
 -1      3721 7.19643E+00
 -1      3722 4.92344E+00
 -1      3723 3.77719E+00
 -1      3724 4.94295E-03
 -1      3725 2.87110E+00
 -1      3726 2.40899E+00
 -1      3727 3.70200E+00
 -1      3728 1.98580E+00
 -1      3729 1.74822E+00
 -1      3730 2.37272E+00
 -1      3731 1.46553E+00
 -1      3732 1.28659E+00
 -1      3733 1.66683E+00
 -1      3734 1.10020E+00
 -1      3735 9.62022E-01
 -1      3736 1.19775E+00
 -1      3737 8.33972E-01
 -1      3738 7.27452E-01
 -1      3739 8.83311E-01
 -1      3740 6.35303E-01
 -1      3741 5.52613E-01
 -1      3742 6.63112E-01
 -1      3743 4.83910E-01
 -1      3744 4.19418E-01
 -1      3745 5.02261E-01
 -1      3746 3.66952E-01
 -1      3747 3.16601E-01
 -1      3748 3.81092E-01
 -1      3749 2.76014E-01
 -1      3750 2.36818E-01
 -1      3751 2.88037E-01
 -1      3752 2.05294E-01
 -1      3753 1.74974E-01
 -1      3754 2.15926E-01
 -1      3755 1.50551E-01
 -1      3756 1.27312E-01
 -1      3757 1.59979E-01
 -1      3758 1.08525E-01
 -1      3759 9.09197E-02
 -1      3760 1.16769E-01
 -1      3761 7.66213E-02
 -1      3762 6.36958E-02
 -1      3763 8.36839E-02
 -1      3764 5.29603E-02
 -1      3765 4.38020E-02
 -1      3766 5.86501E-02
 -1      3767 3.61406E-02
 -1      3768 2.94290E-02
 -1      3769 4.02532E-02
 -1      3770 2.40080E-02
 -1      3771 1.91936E-02
 -1      3772 2.71709E-02
 -1      3773 1.52750E-02
 -1      3774 1.19258E-02
 -1      3775 1.78312E-02
 -1      3776 9.17816E-03
 -1      3777 6.96660E-03
 -1      3778 1.11649E-02
 -1      3779 4.56223E-01
 -1      3780 4.19750E-01
 -1      3781 5.94287E-01
 -1      3782 6.96397E-01
 -1      3783 4.34637E+00
 -1      3784 4.44852E+00
 -1      3785 3.17839E+00
 -1      3786 3.67030E+00
 -1      3787 1.20521E+00
 -1      3788 1.31073E+00
 -1      3789 9.00104E-01
 -1      3790 1.00486E+00
 -1      3791 1.19263E+00
 -1      3792 7.07134E-01
 -1      3793 7.91997E-01
 -1      3794 8.84164E-01
 -1      3795 5.60381E-01
 -1      3796 6.27069E-01
 -1      3797 6.95991E-01
 -1      3798 4.55730E-01
 -1      3799 5.04837E-01
 -1      3800 5.60381E-01
 -1      3801 3.68239E-01
 -1      3802 4.05962E-01
 -1      3803 4.55068E-01
 -1      3804 2.90887E-01
 -1      3805 3.25348E-01
 -1      3806 3.62410E-01
 -1      3807 2.24987E-01
 -1      3808 2.54895E-01
 -1      3809 2.83526E-01
 -1      3810 1.70417E-01
 -1      3811 1.95415E-01
 -1      3812 2.17962E-01
 -1      3813 1.26305E-01
 -1      3814 1.46575E-01
 -1      3815 1.64548E-01
 -1      3816 9.14263E-02
 -1      3817 1.07427E-01
 -1      3818 1.21828E-01
 -1      3819 6.48886E-02
 -1      3820 7.67476E-02
 -1      3821 8.82708E-02
 -1      3822 4.48725E-02
 -1      3823 5.36898E-02
 -1      3824 6.23934E-02
 -1      3825 3.02764E-02
 -1      3826 3.68259E-02
 -1      3827 4.31480E-02
 -1      3828 1.97466E-02
 -1      3829 2.44702E-02
 -1      3830 2.92951E-02
 -1      3831 1.23023E-02
 -1      3832 1.55236E-02
 -1      3833 1.92659E-02
 -1      3834 7.49876E-03
 -1      3835 9.34976E-03
 -1      3836 1.20904E-02
 -1      3837 5.10693E-03
 -1      3838 6.16253E-03
 -1      3839 7.80168E-03
 -1      3840 5.61669E-03
 -1      3841 5.94556E+00
 -1      3842 3.76692E-03
 -1      3843 3.70493E-03
 -1      3844 4.76793E-03
 -1      3845 4.83580E-03
 -1      3846 2.27416E-01
 -1      3847 2.65254E-01
 -1      3848 2.93938E-01
 -1      3849 3.43405E-03
 -1      3850 5.99571E-01
 -1      3851 5.27122E-01
 -1      3852 5.27122E-01
 -1      3853 5.34641E+00
 -1      3854 5.34641E+00
 -1      3855 1.68238E-01
 -1      3856 1.85413E-01
 -1      3857 2.11613E-01
 -1      3858 1.89262E-01
 -1      3859 4.29531E-01
 -1      3860 1.40398E+00
 -1      3861 1.67197E+00
 -1      3862 1.48624E+00
 -1      3863 2.05024E+00
 -1      3864 2.33604E+00
 -1      3865 3.17839E+00
 -1      3866 1.95777E+00
 -1      3867 4.26352E-01
 -1      3868 4.78787E-01
 -1      3869 3.94360E-01
 -1      3870 5.03112E-01
 -1      3871 5.28187E-01
 -1      3872 5.69211E-01
 -1      3873 4.78787E-01
 -1      3874 8.20076E-01
 -1      3875 9.56039E-01
 -1      3876 7.58990E-01
 -1      3877 3.04092E+00
 -1      3878 5.99253E+00
 -1      3879 7.16318E+00
 -1      3880 5.15961E+00
 -1      3881 1.06306E+00
 -1      3882 3.72552E-01
 -1      3883 2.87643E-01
 -1      3884 6.39363E-03
 -1      3885 3.32140E+00
 -1      3886 4.21358E+00
 -1      3887 3.10569E-01
 -1      3888 2.82639E-01
 -1      3889 2.57240E-01
 -1      3890 2.71664E+00
 -1      3891 2.25320E+00
 -1      3892 2.49332E+00
 -1      3893 2.81760E+00
 -1      3894 5.44570E+00
 -1      3895 5.61164E+00
 -1      3896 3.76734E+00
 -1      3897 5.12579E+00
 -1      3898 4.83613E+00
 -1      3899 2.13812E+00
 -1      3900 3.72257E+00
 -1      3901 4.39264E+00
 -1      3902 1.69498E+00
 -1      3903 1.31938E+00
 -1      3904 5.66885E-03
 -1      3905 5.66885E-03
 -1      3906 6.51761E-03
 -1      3907 3.49095E+00
 -1      3908 3.91872E+00
 -1      3909 3.58440E+00
 -1      3910 2.64860E+00
 -1      3911 1.16863E+00
 -1      3912 1.05398E+00
 -1      3913 1.45629E+00
 -1      3914 8.06619E-01
 -1      3915 7.05970E-01
 -1      3916 1.05818E+00
 -1      3917 6.93062E-03
 -1      3918 6.55925E-03
 -1      3919 4.29531E-01
 -1      3920 3.16091E+00
 -1      3921 7.04421E-01
 -1      3922 5.19288E+00
 -1      3923 5.34641E+00
 -1      3924 4.04052E+00
 -1      3925 6.93062E-03
 -1      3926 6.93062E-03
 -1      3927 8.21484E-03
 -1      3928 5.63019E+00
 -1      3929 4.13885E-01
 -1      3930 3.77411E-01
 -1      3931 4.32430E+00
 -1      3932 4.00539E-01
 -1      3933 4.00539E-01
 -1      3934 3.43560E-01
 -1      3935 7.03184E-03
 -1      3936 2.28013E+00
 -1      3937 3.00636E+00
 -1      3938 1.87416E+00
 -1      3939 4.07994E-01
 -1      3940 3.80007E-01
 -1      3941 4.50332E-01
 -1      3942 6.55882E+00
 -1      3943 3.52226E+00
 -1      3944 2.61618E+00
 -1      3945 3.23848E+00
 -1      3946 2.17780E+00
 -1      3947 1.75461E+00
 -1      3948 1.99807E+00
 -1      3949 1.51618E+00
 -1      3950 1.23349E+00
 -1      3951 1.32127E+00
 -1      3952 1.08881E+00
 -1      3953 9.02426E-01
 -1      3954 9.38164E-01
 -1      3955 8.02898E-01
 -1      3956 6.74848E-01
 -1      3957 6.93963E-01
 -1      3958 6.02922E-01
 -1      3959 5.10773E-01
 -1      3960 5.22509E-01
 -1      3961 4.57068E-01
 -1      3962 3.88365E-01
 -1      3963 3.96877E-01
 -1      3964 3.47372E-01
 -1      3965 2.94906E-01
 -1      3966 3.02179E-01
 -1      3967 2.63229E-01
 -1      3968 2.22641E-01
 -1      3969 2.29509E-01
 -1      3970 1.98090E-01
 -1      3971 1.66566E-01
 -1      3972 1.73281E-01
 -1      3973 1.47687E-01
 -1      3974 1.23264E-01
 -1      3975 1.29851E-01
 -1      3976 1.08619E-01
 -1      3977 8.98321E-02
 -1      3978 9.63271E-02
 -1      3979 7.85468E-02
 -1      3980 6.42484E-02
 -1      3981 7.03966E-02
 -1      3982 5.56328E-02
 -1      3983 4.48974E-02
 -1      3984 5.04957E-02
 -1      3985 3.84890E-02
 -1      3986 3.08277E-02
 -1      3987 3.54718E-02
 -1      3988 2.63506E-02
 -1      3989 2.09296E-02
 -1      3990 2.45864E-02
 -1      3991 1.76199E-02
 -1      3992 1.37013E-02
 -1      3993 1.67997E-02
 -1      3994 1.14223E-02
 -1      3995 8.67463E-03
 -1      3996 1.12110E-02
 -1      3997 3.48827E+00
 -1      3998 2.94565E+00
 -1      3999 8.81612E-01
 -1      4000 9.89719E-01
 -1      4001 3.49366E-01
 -1      4002 4.09467E-01
 -1      4003 3.09045E-01
 -1      4004 6.38537E-03
 -1      4005 6.31750E-03
 -1      4006 7.21842E-03
 -1      4007 8.04095E-03
 -1      4008 1.15342E+00
 -1      4009 1.35378E+00
 -1      4010 1.15087E+00
 -1      4011 5.55533E-01
 -1      4012 6.11077E-01
 -1      4013 4.38167E-01
 -1      4014 4.87936E-01
 -1      4015 5.38632E-01
 -1      4016 3.41670E-01
 -1      4017 3.84560E-01
 -1      4018 4.17428E-01
 -1      4019 2.63177E-01
 -1      4020 2.99170E-01
 -1      4021 3.21321E-01
 -1      4022 1.99970E-01
 -1      4023 2.29542E-01
 -1      4024 2.45186E-01
 -1      4025 1.49625E-01
 -1      4026 1.73467E-01
 -1      4027 1.85047E-01
 -1      4028 1.10015E-01
 -1      4029 1.28893E-01
 -1      4030 1.37812E-01
 -1      4031 7.92755E-02
 -1      4032 9.39541E-02
 -1      4033 1.01019E-01
 -1      4034 5.57852E-02
 -1      4035 6.69840E-02
 -1      4036 7.26672E-02
 -1      4037 3.84682E-02
 -1      4038 4.65148E-02
 -1      4039 5.11054E-02
 -1      4040 2.58813E-02
 -1      4041 3.16876E-02
 -1      4042 3.50544E-02
 -1      4043 1.69752E-02
 -1      4044 2.11982E-02
 -1      4045 2.35906E-02
 -1      4046 1.06445E-02
 -1      4047 1.35970E-02
 -1      4048 1.55292E-02
 -1      4049 7.22827E-03
 -1      4050 8.56450E-03
 -1      4051 1.00710E-02
 -1      4052 7.28043E-03
 -1      4053 6.95991E-01
 -1      4054 7.76057E-01
 -1      4055 8.81612E-01
 -1      4056 6.91143E-01
 -1      4057 4.59447E+00
 -1      4058 6.43856E-01
 -1      4059 7.67535E-01
 -1      4060 1.25151E+00
 -1      4061 1.52140E+00
 -1      4062 1.61233E+00
 -1      4063 8.10296E-01
 -1      4064 7.03897E-01
 -1      4065 4.35728E+00
 -1      4066 3.90091E+00
 -1      4067 3.12400E+00
 -1      4068 1.48521E+00
 -1      4069 1.57847E+00
 -1      4070 1.44601E+00
 -1      4071 2.83664E+00
 -1      4072 2.81760E+00
 -1      4073 2.49332E+00
 -1      4074 8.90782E-01
 -1      4075 1.07117E+00
 -1      4076 1.07923E+00
 -1      4077 2.13812E+00
 -1      4078 2.05018E+00
 -1      4079 5.97336E-01
 -1      4080 5.26437E-01
 -1      4081 5.20546E-01
 -1      4082 7.03211E-01
 -1      4083 3.64845E+00
 -1      4084 7.75648E-01
 -1      4085 3.75003E-01
 -1      4086 8.31606E-03
 -1      4087 3.19731E-01
 -1      4088 2.71406E-01
 -1      4089 2.51753E-01
 -1      4090 3.33907E+00
 -1      4091 2.89876E+00
 -1      4092 2.71582E+00
 -1      4093 2.20644E+00
 -1      4094 1.76330E+00
 -1      4095 3.23848E+00
 -1      4096 3.02771E+00
 -1      4097 4.53681E+00
 -1      4098 3.38445E+00
 -1      4099 1.55729E+00
 -1      4100 1.40655E+00
 -1      4101 1.71356E+00
 -1      4102 3.55672E+00
 -1      4103 4.10355E+00
 -1      4104 3.91250E-01
 -1      4105 4.36245E-01
 -1      4106 4.60570E-01
 -1      4107 9.77058E-03
 -1      4108 9.59670E-03
 -1      4109 1.21296E+00
 -1      4110 9.65601E-01
 -1      4111 9.65076E-01
 -1      4112 1.31396E+00
 -1      4113 4.33897E+00
 -1      4114 2.49332E+00
 -1      4115 2.04135E+00
 -1      4116 3.08262E+00
 -1      4117 2.59171E+00
 -1      4118 2.31546E+00
 -1      4119 2.54976E+00
 -1      4120 9.77058E-03
 -1      4121 9.77058E-03
 -1      4122 1.13263E-02
 -1      4123 2.51753E-01
 -1      4124 2.93757E-01
 -1      4125 3.49185E-01
 -1      4126 3.33897E-01
 -1      4127 4.94579E-01
 -1      4128 5.60679E-01
 -1      4129 5.69224E-01
 -1      4130 4.52037E-01
 -1      4131 3.15301E+00
 -1      4132 2.35097E+00
 -1      4133 1.91260E+00
 -1      4134 2.49694E+00
 -1      4135 1.51351E+00
 -1      4136 1.27508E+00
 -1      4137 1.86641E+00
 -1      4138 1.05744E+00
 -1      4139 9.12763E-01
 -1      4140 1.24967E+00
 -1      4141 7.73664E-01
 -1      4142 6.74136E-01
 -1      4143 8.92936E-01
 -1      4144 5.79403E-01
 -1      4145 5.07477E-01
 -1      4146 6.59104E-01
 -1      4147 4.39681E-01
 -1      4148 3.85975E-01
 -1      4149 4.96575E-01
 -1      4150 3.35400E-01
 -1      4151 2.94407E-01
 -1      4152 3.78203E-01
 -1      4153 2.55674E-01
 -1      4154 2.23997E-01
 -1      4155 2.88895E-01
 -1      4156 1.93912E-01
 -1      4157 1.69361E-01
 -1      4158 2.20077E-01
 -1      4159 1.46135E-01
 -1      4160 1.27256E-01
 -1      4161 1.66766E-01
 -1      4162 1.09136E-01
 -1      4163 9.44906E-02
 -1      4164 1.25420E-01
 -1      4165 8.03482E-02
 -1      4166 6.90629E-02
 -1      4167 9.31569E-02
 -1      4168 5.81141E-02
 -1      4169 4.94985E-02
 -1      4170 6.80657E-02
 -1      4171 4.11136E-02
 -1      4172 3.47053E-02
 -1      4173 4.87320E-02
 -1      4174 2.83698E-02
 -1      4175 2.38927E-02
 -1      4176 3.40116E-02
 -1      4177 1.96275E-02
 -1      4178 1.63178E-02
 -1      4179 2.34108E-02
 -1      4180 1.73753E+00
 -1      4181 1.73856E+00
 -1      4182 1.01290E+00
 -1      4183 1.19324E+00
 -1      4184 2.11683E+00
 -1      4185 1.45249E+00
 -1      4186 1.61619E+00
 -1      4187 3.48300E-01
 -1      4188 3.90800E-01
 -1      4189 4.58758E-01
 -1      4190 5.12365E-01
 -1      4191 4.85737E-01
 -1      4192 6.04540E-01
 -1      4193 6.72137E-01
 -1      4194 6.45870E-01
 -1      4195 2.63445E-01
 -1      4196 2.97081E-01
 -1      4197 3.66560E-01
 -1      4198 1.97791E-01
 -1      4199 2.24293E-01
 -1      4200 2.76189E-01
 -1      4201 1.46920E-01
 -1      4202 1.67652E-01
 -1      4203 2.06898E-01
 -1      4204 1.07633E-01
 -1      4205 1.23694E-01
 -1      4206 1.53534E-01
 -1      4207 7.75052E-02
 -1      4208 8.97967E-02
 -1      4209 1.12471E-01
 -1      4210 5.46337E-02
 -1      4211 6.39040E-02
 -1      4212 8.10335E-02
 -1      4213 3.76837E-02
 -1      4214 4.44644E-02
 -1      4215 5.72630E-02
 -1      4216 2.54654E-02
 -1      4217 3.01486E-02
 -1      4218 3.95586E-02
 -1      4219 1.35440E-02
 -1      4220 1.69222E-02
 -1      4221 2.34803E-02
 -1      4222 3.30122E+00
 -1      4223 2.31546E+00
 -1      4224 1.91956E+00
 -1      4225 1.25957E+00
 -1      4226 1.61233E+00
 -1      4227 1.68859E+00
 -1      4228 1.19324E+00
 -1      4229 2.85248E+00
 -1      4230 2.43983E+00
 -1      4231 2.04394E+00
 -1      4232 2.61706E+00
 -1      4233 1.61619E+00
 -1      4234 1.74763E+00
 -1      4235 1.91781E+00
 -1      4236 8.79043E-03
 -1      4237 8.14179E-03
 -1      4238 8.85245E-03
 -1      4239 1.05201E-02
 -1      4240 7.87908E-01
 -1      4241 9.11155E-01
 -1      4242 1.02516E+00
 -1      4243 6.83928E-01
 -1      4244 6.14490E-01
 -1      4245 4.28286E-01
 -1      4246 4.55063E-01
 -1      4247 4.12998E-01
 -1      4248 6.28656E-01
 -1      4249 2.70096E+00
 -1      4250 2.40163E+00
 -1      4251 2.27268E+00
 -1      4252 1.71356E+00
 -1      4253 1.30923E-02
 -1      4254 1.08133E-02
 -1      4255 2.42938E+00
 -1      4256 1.17650E+00
 -1      4257 1.64182E+00
 -1      4258 1.07094E+00
 -1      4259 8.66749E-01
 -1      4260 8.00841E-01
 -1      4261 8.85755E-01
 -1      4262 1.12364E+00
 -1      4263 9.68337E-01
 -1      4264 2.14296E+00
 -1      4265 2.19415E+00
 -1      4266 2.02397E+00
 -1      4267 1.09324E-02
 -1      4268 7.31813E-01
 -1      4269 8.67321E-01
 -1      4270 6.48637E-01
 -1      4271 8.66593E-01
 -1      4272 7.60033E-01
 -1      4273 1.02516E+00
 -1      4274 1.32530E-02
 -1      4275 1.32530E-02
 -1      4276 1.31317E-02
 -1      4277 1.23254E-02
 -1      4278 7.60033E-01
 -1      4279 1.50583E-02
 -1      4280 1.59202E-02
 -1      4281 2.18405E+00
 -1      4282 8.57341E-03
 -1      4283 2.09166E+00
 -1      4284 1.69256E+00
 -1      4285 2.32310E+00
 -1      4286 1.60943E+00
 -1      4287 1.39180E+00
 -1      4288 1.83468E+00
 -1      4289 1.10398E+00
 -1      4290 9.64877E-01
 -1      4291 1.46374E+00
 -1      4292 7.89488E-01
 -1      4293 6.94754E-01
 -1      4294 1.00053E+00
 -1      4295 5.79045E-01
 -1      4296 5.11249E-01
 -1      4297 7.09429E-01
 -1      4298 4.31382E-01
 -1      4299 3.80807E-01
 -1      4300 5.13852E-01
 -1      4301 3.23820E-01
 -1      4302 2.85087E-01
 -1      4303 3.76999E-01
 -1      4304 2.43599E-01
 -1      4305 2.13514E-01
 -1      4306 2.78525E-01
 -1      4307 1.83376E-01
 -1      4308 1.60150E-01
 -1      4309 2.06898E-01
 -1      4310 1.36924E-01
 -1      4311 1.18804E-01
 -1      4312 1.53534E-01
 -1      4313 1.01625E-01
 -1      4314 8.74828E-02
 -1      4315 1.13130E-01
 -1      4316 7.46332E-02
 -1      4317 6.36845E-02
 -1      4318 8.31016E-02
 -1      4319 5.37345E-02
 -1      4320 4.53496E-02
 -1      4321 6.03021E-02
 -1      4322 3.77262E-02
 -1      4323 3.13907E-02
 -1      4324 4.27288E-02
 -1      4325 2.56741E-02
 -1      4326 2.14089E-02
 -1      4327 2.93887E-02
 -1      4328 1.73645E+00
 -1      4329 1.61207E+00
 -1      4330 1.71110E+00
 -1      4331 1.31396E+00
 -1      4332 1.31723E+00
 -1      4333 1.50755E+00
 -1      4334 8.67321E-01
 -1      4335 5.72561E-01
 -1      4336 5.72561E-01
 -1      4337 3.17677E-01
 -1      4338 3.68896E-01
 -1      4339 1.99635E+00
 -1      4340 5.73707E-01
 -1      4341 6.65882E-01
 -1      4342 1.76760E-01
 -1      4343 2.06898E-01
 -1      4344 1.30308E-01
 -1      4345 1.53534E-01
 -1      4346 9.52929E-02
 -1      4347 1.13130E-01
 -1      4348 6.88422E-02
 -1      4349 8.24434E-02
 -1      4350 4.87229E-02
 -1      4351 5.88922E-02
 -1      4352 3.35644E-02
 -1      4353 4.10996E-02
 -1      4354 2.36015E-02
 -1      4355 1.91781E+00
 -1      4356 1.91781E+00
 -1      4357 1.01292E-02
 -1      4358 1.71356E+00
 -1      4359 9.23416E-01
 -1      4360 4.25882E-01
 -1      4361 4.93840E-01
 -1      4362 4.89073E-01
 -1      4363 1.02516E+00
 -1      4364 1.12690E+00
 -1      4365 2.37037E-01
 -1      4366 2.76189E-01
 -1      4367 1.31723E+00
 -1      4368 9.23416E-01
 -1      4369 1.99635E+00
 -1      4370 7.81591E-01
 -1      4371 1.28208E+00
 -1      4372 9.23416E-01
 -1      4373 1.18064E+00
 -1      4374 9.10296E-01
 -1      4375 1.55869E+00
 -1      4376 1.83468E+00
 -1      4377 1.94258E-02
 -1      4378 2.78478E-02
 -1      4379 1.38356E+00
 -1      4380 6.51662E-01
 -1      4381 1.71626E-02
 -1      4382 1.39371E-02
 -1      4383 1.27087E+00
 -1      4384 1.08568E+00
 -1      4385 1.20105E-02
 -1      4386 8.67321E-01
 -1      4387 1.40607E+00
 -1      4388 6.51662E-01
 -1      4389 8.11226E-01
 -3
 9999
