    1C
    1UUSER                                                              
    1UDATE              27.october.2022                                 
    1UTIME              00:31:02                                        
    1UHOST                                                              
    1UPGM               CalculiX                                        
    1UVERSION           Version 2.17                             
    1UCOMPILETIME       Thu Jul 23 21:43:50 CEST 2020                    
    1UDIR                                                               
    1UDBN                                                               
    1UMAT    1SOLIDMATERIAL                                             
    2C                          4313                                     1
 -1         1 1.10029E+02 3.14132E+01 0.00000E+00
 -1         2 1.22183E+02 2.66760E+01 0.00000E+00
 -1         3 1.50000E+02 0.00000E+00 0.00000E+00
 -1         4 1.50000E+02 5.00000E+01 0.00000E+00
 -1         5 0.00000E+00 0.00000E+00 0.00000E+00
 -1         6 0.00000E+00 5.00000E+01 0.00000E+00
 -1         7 0.00000E+00 4.70500E+01 0.00000E+00
 -1         8 0.00000E+00 4.41000E+01 0.00000E+00
 -1         9 0.00000E+00 4.11500E+01 0.00000E+00
 -1        10 0.00000E+00 3.82000E+01 0.00000E+00
 -1        11 0.00000E+00 3.52500E+01 0.00000E+00
 -1        12 0.00000E+00 3.23500E+01 0.00000E+00
 -1        13 0.00000E+00 2.94000E+01 0.00000E+00
 -1        14 0.00000E+00 2.64500E+01 0.00000E+00
 -1        15 0.00000E+00 2.35000E+01 0.00000E+00
 -1        16 0.00000E+00 2.05500E+01 0.00000E+00
 -1        17 0.00000E+00 1.76000E+01 0.00000E+00
 -1        18 0.00000E+00 1.47000E+01 0.00000E+00
 -1        19 0.00000E+00 1.17500E+01 0.00000E+00
 -1        20 0.00000E+00 8.80000E+00 0.00000E+00
 -1        21 0.00000E+00 5.85000E+00 0.00000E+00
 -1        22 0.00000E+00 2.90000E+00 0.00000E+00
 -1        23 3.15000E+00 5.00000E+01 0.00000E+00
 -1        24 6.15000E+00 5.00000E+01 0.00000E+00
 -1        25 9.15000E+00 5.00000E+01 0.00000E+00
 -1        26 1.21500E+01 5.00000E+01 0.00000E+00
 -1        27 1.51500E+01 5.00000E+01 0.00000E+00
 -1        28 1.81500E+01 5.00000E+01 0.00000E+00
 -1        29 2.11500E+01 5.00000E+01 0.00000E+00
 -1        30 2.41500E+01 5.00000E+01 0.00000E+00
 -1        31 2.71500E+01 5.00000E+01 0.00000E+00
 -1        32 3.01500E+01 5.00000E+01 0.00000E+00
 -1        33 3.31500E+01 5.00000E+01 0.00000E+00
 -1        34 3.61500E+01 5.00000E+01 0.00000E+00
 -1        35 3.91500E+01 5.00000E+01 0.00000E+00
 -1        36 4.21500E+01 5.00000E+01 0.00000E+00
 -1        37 4.51500E+01 5.00000E+01 0.00000E+00
 -1        38 4.81500E+01 5.00000E+01 0.00000E+00
 -1        39 5.11500E+01 5.00000E+01 0.00000E+00
 -1        40 5.41500E+01 5.00000E+01 0.00000E+00
 -1        41 5.71500E+01 5.00000E+01 0.00000E+00
 -1        42 6.01500E+01 5.00000E+01 0.00000E+00
 -1        43 6.31500E+01 5.00000E+01 0.00000E+00
 -1        44 6.61500E+01 5.00000E+01 0.00000E+00
 -1        45 6.91500E+01 5.00000E+01 0.00000E+00
 -1        46 7.21500E+01 5.00000E+01 0.00000E+00
 -1        47 7.51500E+01 5.00000E+01 0.00000E+00
 -1        48 7.81500E+01 5.00000E+01 0.00000E+00
 -1        49 8.11500E+01 5.00000E+01 0.00000E+00
 -1        50 8.41500E+01 5.00000E+01 0.00000E+00
 -1        51 8.71500E+01 5.00000E+01 0.00000E+00
 -1        52 9.01500E+01 5.00000E+01 0.00000E+00
 -1        53 9.31500E+01 5.00000E+01 0.00000E+00
 -1        54 9.61500E+01 5.00000E+01 0.00000E+00
 -1        55 9.91500E+01 5.00000E+01 0.00000E+00
 -1        56 1.02150E+02 5.00000E+01 0.00000E+00
 -1        57 1.05150E+02 5.00000E+01 0.00000E+00
 -1        58 1.08150E+02 5.00000E+01 0.00000E+00
 -1        59 1.11150E+02 5.00000E+01 0.00000E+00
 -1        60 1.14150E+02 5.00000E+01 0.00000E+00
 -1        61 1.17150E+02 5.00000E+01 0.00000E+00
 -1        62 1.20150E+02 5.00000E+01 0.00000E+00
 -1        63 1.23150E+02 5.00000E+01 0.00000E+00
 -1        64 1.26150E+02 5.00000E+01 0.00000E+00
 -1        65 1.29150E+02 5.00000E+01 0.00000E+00
 -1        66 1.32150E+02 5.00000E+01 0.00000E+00
 -1        67 1.35150E+02 5.00000E+01 0.00000E+00
 -1        68 1.38150E+02 5.00000E+01 0.00000E+00
 -1        69 1.41150E+02 5.00000E+01 0.00000E+00
 -1        70 1.44150E+02 5.00000E+01 0.00000E+00
 -1        71 1.47150E+02 5.00000E+01 0.00000E+00
 -1        72 3.15000E+00 0.00000E+00 0.00000E+00
 -1        73 6.15000E+00 0.00000E+00 0.00000E+00
 -1        74 9.15000E+00 0.00000E+00 0.00000E+00
 -1        75 1.21500E+01 0.00000E+00 0.00000E+00
 -1        76 1.51500E+01 0.00000E+00 0.00000E+00
 -1        77 1.81500E+01 0.00000E+00 0.00000E+00
 -1        78 2.11500E+01 0.00000E+00 0.00000E+00
 -1        79 2.41500E+01 0.00000E+00 0.00000E+00
 -1        80 2.71500E+01 0.00000E+00 0.00000E+00
 -1        81 3.01500E+01 0.00000E+00 0.00000E+00
 -1        82 3.31500E+01 0.00000E+00 0.00000E+00
 -1        83 3.61500E+01 0.00000E+00 0.00000E+00
 -1        84 3.91500E+01 0.00000E+00 0.00000E+00
 -1        85 4.21500E+01 0.00000E+00 0.00000E+00
 -1        86 4.51500E+01 0.00000E+00 0.00000E+00
 -1        87 4.81500E+01 0.00000E+00 0.00000E+00
 -1        88 5.11500E+01 0.00000E+00 0.00000E+00
 -1        89 5.41500E+01 0.00000E+00 0.00000E+00
 -1        90 5.71500E+01 0.00000E+00 0.00000E+00
 -1        91 6.01500E+01 0.00000E+00 0.00000E+00
 -1        92 6.31500E+01 0.00000E+00 0.00000E+00
 -1        93 6.61500E+01 0.00000E+00 0.00000E+00
 -1        94 6.91500E+01 0.00000E+00 0.00000E+00
 -1        95 7.21500E+01 0.00000E+00 0.00000E+00
 -1        96 7.51500E+01 0.00000E+00 0.00000E+00
 -1        97 7.81500E+01 0.00000E+00 0.00000E+00
 -1        98 8.11500E+01 0.00000E+00 0.00000E+00
 -1        99 8.41500E+01 0.00000E+00 0.00000E+00
 -1       100 8.71500E+01 0.00000E+00 0.00000E+00
 -1       101 9.01500E+01 0.00000E+00 0.00000E+00
 -1       102 9.31500E+01 0.00000E+00 0.00000E+00
 -1       103 9.61500E+01 0.00000E+00 0.00000E+00
 -1       104 9.91500E+01 0.00000E+00 0.00000E+00
 -1       105 1.02150E+02 0.00000E+00 0.00000E+00
 -1       106 1.05150E+02 0.00000E+00 0.00000E+00
 -1       107 1.08150E+02 0.00000E+00 0.00000E+00
 -1       108 1.11150E+02 0.00000E+00 0.00000E+00
 -1       109 1.14150E+02 0.00000E+00 0.00000E+00
 -1       110 1.17150E+02 0.00000E+00 0.00000E+00
 -1       111 1.20150E+02 0.00000E+00 0.00000E+00
 -1       112 1.23150E+02 0.00000E+00 0.00000E+00
 -1       113 1.26150E+02 0.00000E+00 0.00000E+00
 -1       114 1.29150E+02 0.00000E+00 0.00000E+00
 -1       115 1.32150E+02 0.00000E+00 0.00000E+00
 -1       116 1.35150E+02 0.00000E+00 0.00000E+00
 -1       117 1.38150E+02 0.00000E+00 0.00000E+00
 -1       118 1.41150E+02 0.00000E+00 0.00000E+00
 -1       119 1.44150E+02 0.00000E+00 0.00000E+00
 -1       120 1.47150E+02 0.00000E+00 0.00000E+00
 -1       121 1.50000E+02 2.95000E+00 0.00000E+00
 -1       122 1.50000E+02 5.90000E+00 0.00000E+00
 -1       123 1.50000E+02 8.85000E+00 0.00000E+00
 -1       124 1.50000E+02 1.18000E+01 0.00000E+00
 -1       125 1.50000E+02 1.47500E+01 0.00000E+00
 -1       126 1.50000E+02 1.76500E+01 0.00000E+00
 -1       127 1.50000E+02 2.06000E+01 0.00000E+00
 -1       128 1.50000E+02 2.35500E+01 0.00000E+00
 -1       129 1.50000E+02 2.65000E+01 0.00000E+00
 -1       130 1.50000E+02 2.94500E+01 0.00000E+00
 -1       131 1.50000E+02 3.24000E+01 0.00000E+00
 -1       132 1.50000E+02 3.53000E+01 0.00000E+00
 -1       133 1.50000E+02 3.82500E+01 0.00000E+00
 -1       134 1.50000E+02 4.12000E+01 0.00000E+00
 -1       135 1.50000E+02 4.41500E+01 0.00000E+00
 -1       136 1.50000E+02 4.71000E+01 0.00000E+00
 -1       137 1.22040E+02 2.52695E+01 0.00000E+00
 -1       138 1.21556E+02 2.37796E+01 0.00000E+00
 -1       139 1.20802E+02 2.25015E+01 0.00000E+00
 -1       140 1.19830E+02 2.14408E+01 0.00000E+00
 -1       141 1.18621E+02 2.05782E+01 0.00000E+00
 -1       142 1.17117E+02 1.99486E+01 0.00000E+00
 -1       143 1.15617E+02 1.96895E+01 0.00000E+00
 -1       144 1.14143E+02 1.97538E+01 0.00000E+00
 -1       145 1.12635E+02 2.01564E+01 0.00000E+00
 -1       146 1.11332E+02 2.08309E+01 0.00000E+00
 -1       147 1.10170E+02 2.17903E+01 0.00000E+00
 -1       148 1.09238E+02 2.29802E+01 0.00000E+00
 -1       149 1.08569E+02 2.43834E+01 0.00000E+00
 -1       150 1.08230E+02 2.58696E+01 0.00000E+00
 -1       151 1.08218E+02 2.73754E+01 0.00000E+00
 -1       152 1.08542E+02 2.88877E+01 0.00000E+00
 -1       153 1.09191E+02 3.02954E+01 0.00000E+00
 -1       154 1.11138E+02 3.23888E+01 0.00000E+00
 -1       155 1.12482E+02 3.31338E+01 0.00000E+00
 -1       156 1.13871E+02 3.35521E+01 0.00000E+00
 -1       157 1.15389E+02 3.36730E+01 0.00000E+00
 -1       158 1.16926E+02 3.34556E+01 0.00000E+00
 -1       159 1.18361E+02 3.29129E+01 0.00000E+00
 -1       160 1.19693E+02 3.20294E+01 0.00000E+00
 -1       161 1.20786E+02 3.08726E+01 0.00000E+00
 -1       162 1.21560E+02 2.95618E+01 0.00000E+00
 -1       163 1.22035E+02 2.81086E+01 0.00000E+00
 -1       164 2.59800E+00 4.55750E+01 0.00000E+00
 -1       165 2.59800E+00 4.26250E+01 0.00000E+00
 -1       166 2.59800E+00 3.96750E+01 0.00000E+00
 -1       167 2.59800E+00 3.67250E+01 0.00000E+00
 -1       168 2.59800E+00 3.38250E+01 0.00000E+00
 -1       169 2.59800E+00 3.08750E+01 0.00000E+00
 -1       170 2.59800E+00 2.79250E+01 0.00000E+00
 -1       171 2.59800E+00 2.49750E+01 0.00000E+00
 -1       172 2.59800E+00 2.20250E+01 0.00000E+00
 -1       173 2.59800E+00 1.90750E+01 0.00000E+00
 -1       174 2.59800E+00 1.61750E+01 0.00000E+00
 -1       175 2.59800E+00 1.32250E+01 0.00000E+00
 -1       176 2.59800E+00 1.02750E+01 0.00000E+00
 -1       177 2.59800E+00 7.32500E+00 0.00000E+00
 -1       178 2.59800E+00 4.37500E+00 0.00000E+00
 -1       179 2.87400E+00 2.18750E+00 0.00000E+00
 -1       180 4.65000E+00 4.74020E+01 0.00000E+00
 -1       181 7.65000E+00 4.74020E+01 0.00000E+00
 -1       182 1.06500E+01 4.74020E+01 0.00000E+00
 -1       183 1.36500E+01 4.74020E+01 0.00000E+00
 -1       184 1.66500E+01 4.74020E+01 0.00000E+00
 -1       185 1.96500E+01 4.74020E+01 0.00000E+00
 -1       186 2.26500E+01 4.74020E+01 0.00000E+00
 -1       187 2.56500E+01 4.74020E+01 0.00000E+00
 -1       188 2.86500E+01 4.74020E+01 0.00000E+00
 -1       189 3.16500E+01 4.74020E+01 0.00000E+00
 -1       190 3.46500E+01 4.74020E+01 0.00000E+00
 -1       191 3.76500E+01 4.74020E+01 0.00000E+00
 -1       192 4.06500E+01 4.74020E+01 0.00000E+00
 -1       193 4.36500E+01 4.74020E+01 0.00000E+00
 -1       194 4.66500E+01 4.74020E+01 0.00000E+00
 -1       195 4.96500E+01 4.74020E+01 0.00000E+00
 -1       196 5.26500E+01 4.74020E+01 0.00000E+00
 -1       197 5.56500E+01 4.74020E+01 0.00000E+00
 -1       198 5.86500E+01 4.74020E+01 0.00000E+00
 -1       199 6.16500E+01 4.74020E+01 0.00000E+00
 -1       200 6.46500E+01 4.74020E+01 0.00000E+00
 -1       201 6.76500E+01 4.74020E+01 0.00000E+00
 -1       202 7.06500E+01 4.74020E+01 0.00000E+00
 -1       203 7.36500E+01 4.74020E+01 0.00000E+00
 -1       204 7.66500E+01 4.74020E+01 0.00000E+00
 -1       205 7.96500E+01 4.74020E+01 0.00000E+00
 -1       206 8.26500E+01 4.74020E+01 0.00000E+00
 -1       207 8.56500E+01 4.74020E+01 0.00000E+00
 -1       208 8.86500E+01 4.74020E+01 0.00000E+00
 -1       209 9.16500E+01 4.74020E+01 0.00000E+00
 -1       210 9.46500E+01 4.74020E+01 0.00000E+00
 -1       211 9.76500E+01 4.74020E+01 0.00000E+00
 -1       212 1.00650E+02 4.74020E+01 0.00000E+00
 -1       213 1.03650E+02 4.74020E+01 0.00000E+00
 -1       214 1.06650E+02 4.74020E+01 0.00000E+00
 -1       215 1.09650E+02 4.74020E+01 0.00000E+00
 -1       216 1.12650E+02 4.74020E+01 0.00000E+00
 -1       217 1.15650E+02 4.74020E+01 0.00000E+00
 -1       218 1.18650E+02 4.74020E+01 0.00000E+00
 -1       219 1.21650E+02 4.74020E+01 0.00000E+00
 -1       220 1.24650E+02 4.74020E+01 0.00000E+00
 -1       221 1.27650E+02 4.74020E+01 0.00000E+00
 -1       222 1.30650E+02 4.74020E+01 0.00000E+00
 -1       223 1.33650E+02 4.74020E+01 0.00000E+00
 -1       224 1.36650E+02 4.74020E+01 0.00000E+00
 -1       225 1.39650E+02 4.74020E+01 0.00000E+00
 -1       226 1.42650E+02 4.74020E+01 0.00000E+00
 -1       227 1.45650E+02 4.74020E+01 0.00000E+00
 -1       228 5.87400E+00 2.18750E+00 0.00000E+00
 -1       229 8.87400E+00 2.18750E+00 0.00000E+00
 -1       230 1.18740E+01 2.18750E+00 0.00000E+00
 -1       231 1.48740E+01 2.18750E+00 0.00000E+00
 -1       232 1.78740E+01 2.18750E+00 0.00000E+00
 -1       233 2.08740E+01 2.18750E+00 0.00000E+00
 -1       234 2.38740E+01 2.18750E+00 0.00000E+00
 -1       235 2.68740E+01 2.18750E+00 0.00000E+00
 -1       236 2.98740E+01 2.18750E+00 0.00000E+00
 -1       237 3.28740E+01 2.18750E+00 0.00000E+00
 -1       238 3.58740E+01 2.18750E+00 0.00000E+00
 -1       239 3.88740E+01 2.18750E+00 0.00000E+00
 -1       240 4.18740E+01 2.18750E+00 0.00000E+00
 -1       241 4.48740E+01 2.18750E+00 0.00000E+00
 -1       242 4.78740E+01 2.18750E+00 0.00000E+00
 -1       243 5.08740E+01 2.18750E+00 0.00000E+00
 -1       244 5.38740E+01 2.18750E+00 0.00000E+00
 -1       245 5.68740E+01 2.18750E+00 0.00000E+00
 -1       246 5.98740E+01 2.18750E+00 0.00000E+00
 -1       247 6.28740E+01 2.18750E+00 0.00000E+00
 -1       248 6.58740E+01 2.18750E+00 0.00000E+00
 -1       249 6.88740E+01 2.18750E+00 0.00000E+00
 -1       250 7.18740E+01 2.18750E+00 0.00000E+00
 -1       251 7.48740E+01 2.18750E+00 0.00000E+00
 -1       252 7.78740E+01 2.18750E+00 0.00000E+00
 -1       253 8.08740E+01 2.18750E+00 0.00000E+00
 -1       254 8.38740E+01 2.18750E+00 0.00000E+00
 -1       255 8.68740E+01 2.18750E+00 0.00000E+00
 -1       256 8.98740E+01 2.18750E+00 0.00000E+00
 -1       257 9.28740E+01 2.18750E+00 0.00000E+00
 -1       258 9.58740E+01 2.18750E+00 0.00000E+00
 -1       259 9.88740E+01 2.18750E+00 0.00000E+00
 -1       260 1.01874E+02 2.18750E+00 0.00000E+00
 -1       261 1.04874E+02 2.18750E+00 0.00000E+00
 -1       262 1.07874E+02 2.18750E+00 0.00000E+00
 -1       263 1.10874E+02 2.18750E+00 0.00000E+00
 -1       264 1.13874E+02 2.18750E+00 0.00000E+00
 -1       265 1.16874E+02 2.18750E+00 0.00000E+00
 -1       266 1.19874E+02 2.18750E+00 0.00000E+00
 -1       267 1.22874E+02 2.18750E+00 0.00000E+00
 -1       268 1.25874E+02 2.18750E+00 0.00000E+00
 -1       269 1.28874E+02 2.18750E+00 0.00000E+00
 -1       270 1.31874E+02 2.18750E+00 0.00000E+00
 -1       271 1.34874E+02 2.18750E+00 0.00000E+00
 -1       272 1.37874E+02 2.18750E+00 0.00000E+00
 -1       273 1.40874E+02 2.18750E+00 0.00000E+00
 -1       274 1.43874E+02 2.18750E+00 0.00000E+00
 -1       275 1.46874E+02 2.18750E+00 0.00000E+00
 -1       276 1.47402E+02 4.42500E+00 0.00000E+00
 -1       277 1.47402E+02 7.37500E+00 0.00000E+00
 -1       278 1.47402E+02 1.03250E+01 0.00000E+00
 -1       279 1.47402E+02 1.32750E+01 0.00000E+00
 -1       280 1.47402E+02 1.61750E+01 0.00000E+00
 -1       281 1.47402E+02 1.91250E+01 0.00000E+00
 -1       282 1.47402E+02 2.20750E+01 0.00000E+00
 -1       283 1.47402E+02 2.50250E+01 0.00000E+00
 -1       284 1.47402E+02 2.79750E+01 0.00000E+00
 -1       285 1.47402E+02 3.09250E+01 0.00000E+00
 -1       286 1.47402E+02 3.38250E+01 0.00000E+00
 -1       287 1.47402E+02 3.67750E+01 0.00000E+00
 -1       288 1.47402E+02 3.97250E+01 0.00000E+00
 -1       289 1.47402E+02 4.26750E+01 0.00000E+00
 -1       290 1.46526E+02 4.50385E+01 0.00000E+00
 -1       291 1.23318E+02 2.58503E+01 0.00000E+00
 -1       292 1.23110E+02 2.40977E+01 0.00000E+00
 -1       293 1.22223E+02 2.25247E+01 0.00000E+00
 -1       294 1.21210E+02 2.11519E+01 0.00000E+00
 -1       295 1.20027E+02 1.98861E+01 0.00000E+00
 -1       296 1.18467E+02 1.88360E+01 0.00000E+00
 -1       297 1.16573E+02 1.86243E+01 0.00000E+00
 -1       298 1.14827E+02 1.85104E+01 0.00000E+00
 -1       299 1.13054E+02 1.87028E+01 0.00000E+00
 -1       300 1.11426E+02 1.94169E+01 0.00000E+00
 -1       301 1.09979E+02 2.03759E+01 0.00000E+00
 -1       302 1.08750E+02 2.16377E+01 0.00000E+00
 -1       303 1.07658E+02 2.30878E+01 0.00000E+00
 -1       304 1.07136E+02 2.48378E+01 0.00000E+00
 -1       305 1.07011E+02 2.66132E+01 0.00000E+00
 -1       306 1.07194E+02 2.83852E+01 0.00000E+00
 -1       307 1.07614E+02 3.01699E+01 0.00000E+00
 -1       308 1.08573E+02 3.16319E+01 0.00000E+00
 -1       309 1.09616E+02 3.29997E+01 0.00000E+00
 -1       310 1.11181E+02 3.38950E+01 0.00000E+00
 -1       311 1.12827E+02 3.45039E+01 0.00000E+00
 -1       312 1.14527E+02 3.49046E+01 0.00000E+00
 -1       313 1.16351E+02 3.49307E+01 0.00000E+00
 -1       314 1.18102E+02 3.43967E+01 0.00000E+00
 -1       315 1.19836E+02 3.36910E+01 0.00000E+00
 -1       316 1.21243E+02 3.23985E+01 0.00000E+00
 -1       317 1.22289E+02 3.08769E+01 0.00000E+00
 -1       318 1.22950E+02 2.92114E+01 0.00000E+00
 -1       319 1.23315E+02 2.75170E+01 0.00000E+00
 -1       320 5.19600E+00 4.11500E+01 0.00000E+00
 -1       321 5.19600E+00 4.41000E+01 0.00000E+00
 -1       322 5.19600E+00 3.52750E+01 0.00000E+00
 -1       323 5.19600E+00 3.23250E+01 0.00000E+00
 -1       324 5.19600E+00 2.93750E+01 0.00000E+00
 -1       325 5.19600E+00 2.64250E+01 0.00000E+00
 -1       326 5.19600E+00 2.34750E+01 0.00000E+00
 -1       327 5.19600E+00 2.05250E+01 0.00000E+00
 -1       328 5.19600E+00 1.76250E+01 0.00000E+00
 -1       329 5.19600E+00 1.46750E+01 0.00000E+00
 -1       330 5.19600E+00 1.17250E+01 0.00000E+00
 -1       331 5.19600E+00 8.77500E+00 0.00000E+00
 -1       332 5.19600E+00 5.82500E+00 0.00000E+00
 -1       333 5.53500E+00 4.00625E+00 0.00000E+00
 -1       334 8.53500E+00 4.00625E+00 0.00000E+00
 -1       335 9.15000E+00 4.48040E+01 0.00000E+00
 -1       336 1.21500E+01 4.48040E+01 0.00000E+00
 -1       337 1.51500E+01 4.48040E+01 0.00000E+00
 -1       338 1.81500E+01 4.48040E+01 0.00000E+00
 -1       339 2.11500E+01 4.48040E+01 0.00000E+00
 -1       340 2.41500E+01 4.48040E+01 0.00000E+00
 -1       341 2.71500E+01 4.48040E+01 0.00000E+00
 -1       342 3.01500E+01 4.48040E+01 0.00000E+00
 -1       343 3.31500E+01 4.48040E+01 0.00000E+00
 -1       344 3.61500E+01 4.48040E+01 0.00000E+00
 -1       345 3.91500E+01 4.48040E+01 0.00000E+00
 -1       346 4.21500E+01 4.48040E+01 0.00000E+00
 -1       347 4.51500E+01 4.48040E+01 0.00000E+00
 -1       348 4.81500E+01 4.48040E+01 0.00000E+00
 -1       349 5.11500E+01 4.48040E+01 0.00000E+00
 -1       350 5.41500E+01 4.48040E+01 0.00000E+00
 -1       351 5.71500E+01 4.48040E+01 0.00000E+00
 -1       352 6.01500E+01 4.48040E+01 0.00000E+00
 -1       353 6.31500E+01 4.48040E+01 0.00000E+00
 -1       354 6.61500E+01 4.48040E+01 0.00000E+00
 -1       355 6.91500E+01 4.48040E+01 0.00000E+00
 -1       356 7.21500E+01 4.48040E+01 0.00000E+00
 -1       357 7.51500E+01 4.48040E+01 0.00000E+00
 -1       358 7.81500E+01 4.48040E+01 0.00000E+00
 -1       359 8.11500E+01 4.48040E+01 0.00000E+00
 -1       360 8.41500E+01 4.48040E+01 0.00000E+00
 -1       361 8.71500E+01 4.48040E+01 0.00000E+00
 -1       362 9.01500E+01 4.48040E+01 0.00000E+00
 -1       363 9.31500E+01 4.48040E+01 0.00000E+00
 -1       364 9.61500E+01 4.48040E+01 0.00000E+00
 -1       365 9.91500E+01 4.48040E+01 0.00000E+00
 -1       366 1.02150E+02 4.48040E+01 0.00000E+00
 -1       367 1.05150E+02 4.48040E+01 0.00000E+00
 -1       368 1.08150E+02 4.48040E+01 0.00000E+00
 -1       369 1.11150E+02 4.48040E+01 0.00000E+00
 -1       370 1.14150E+02 4.48040E+01 0.00000E+00
 -1       371 1.17150E+02 4.48040E+01 0.00000E+00
 -1       372 1.20150E+02 4.48040E+01 0.00000E+00
 -1       373 1.23150E+02 4.48040E+01 0.00000E+00
 -1       374 1.26150E+02 4.48040E+01 0.00000E+00
 -1       375 1.29150E+02 4.48040E+01 0.00000E+00
 -1       376 1.32150E+02 4.48040E+01 0.00000E+00
 -1       377 1.35150E+02 4.48040E+01 0.00000E+00
 -1       378 1.38150E+02 4.48040E+01 0.00000E+00
 -1       379 1.41150E+02 4.48040E+01 0.00000E+00
 -1       380 1.43838E+02 4.49212E+01 0.00000E+00
 -1       381 1.15350E+01 4.00625E+00 0.00000E+00
 -1       382 1.45350E+01 4.00625E+00 0.00000E+00
 -1       383 1.75350E+01 4.00625E+00 0.00000E+00
 -1       384 2.05350E+01 4.00625E+00 0.00000E+00
 -1       385 2.35350E+01 4.00625E+00 0.00000E+00
 -1       386 2.65350E+01 4.00625E+00 0.00000E+00
 -1       387 2.95350E+01 4.00625E+00 0.00000E+00
 -1       388 3.25350E+01 4.00625E+00 0.00000E+00
 -1       389 3.55350E+01 4.00625E+00 0.00000E+00
 -1       390 3.85350E+01 4.00625E+00 0.00000E+00
 -1       391 4.15350E+01 4.00625E+00 0.00000E+00
 -1       392 4.45350E+01 4.00625E+00 0.00000E+00
 -1       393 4.75350E+01 4.00625E+00 0.00000E+00
 -1       394 5.05350E+01 4.00625E+00 0.00000E+00
 -1       395 5.35350E+01 4.00625E+00 0.00000E+00
 -1       396 5.65350E+01 4.00625E+00 0.00000E+00
 -1       397 5.95350E+01 4.00625E+00 0.00000E+00
 -1       398 6.25350E+01 4.00625E+00 0.00000E+00
 -1       399 6.55350E+01 4.00625E+00 0.00000E+00
 -1       400 6.85350E+01 4.00625E+00 0.00000E+00
 -1       401 7.15350E+01 4.00625E+00 0.00000E+00
 -1       402 7.45350E+01 4.00625E+00 0.00000E+00
 -1       403 7.75350E+01 4.00625E+00 0.00000E+00
 -1       404 8.05350E+01 4.00625E+00 0.00000E+00
 -1       405 8.35350E+01 4.00625E+00 0.00000E+00
 -1       406 8.65350E+01 4.00625E+00 0.00000E+00
 -1       407 8.95350E+01 4.00625E+00 0.00000E+00
 -1       408 9.25350E+01 4.00625E+00 0.00000E+00
 -1       409 9.55350E+01 4.00625E+00 0.00000E+00
 -1       410 9.85350E+01 4.00625E+00 0.00000E+00
 -1       411 1.01535E+02 4.00625E+00 0.00000E+00
 -1       412 1.04535E+02 4.00625E+00 0.00000E+00
 -1       413 1.07535E+02 4.00625E+00 0.00000E+00
 -1       414 1.10535E+02 4.00625E+00 0.00000E+00
 -1       415 1.13535E+02 4.00625E+00 0.00000E+00
 -1       416 1.16535E+02 4.00625E+00 0.00000E+00
 -1       417 1.19535E+02 4.00625E+00 0.00000E+00
 -1       418 1.22535E+02 4.00625E+00 0.00000E+00
 -1       419 1.25535E+02 4.00625E+00 0.00000E+00
 -1       420 1.28535E+02 4.00625E+00 0.00000E+00
 -1       421 1.31535E+02 4.00625E+00 0.00000E+00
 -1       422 1.34535E+02 4.00625E+00 0.00000E+00
 -1       423 1.37535E+02 4.00625E+00 0.00000E+00
 -1       424 1.40535E+02 4.00625E+00 0.00000E+00
 -1       425 1.43535E+02 4.00625E+00 0.00000E+00
 -1       426 1.45469E+02 4.21562E+00 0.00000E+00
 -1       427 1.44804E+02 1.18000E+01 0.00000E+00
 -1       428 1.44804E+02 8.85000E+00 0.00000E+00
 -1       429 1.45136E+02 6.53281E+00 0.00000E+00
 -1       430 1.44804E+02 1.47000E+01 0.00000E+00
 -1       431 1.44804E+02 1.76500E+01 0.00000E+00
 -1       432 1.44804E+02 2.06000E+01 0.00000E+00
 -1       433 1.44804E+02 2.35500E+01 0.00000E+00
 -1       434 1.44804E+02 2.65000E+01 0.00000E+00
 -1       435 1.44804E+02 2.94500E+01 0.00000E+00
 -1       436 1.44804E+02 3.23500E+01 0.00000E+00
 -1       437 1.44804E+02 3.53000E+01 0.00000E+00
 -1       438 1.44804E+02 3.82500E+01 0.00000E+00
 -1       439 1.44804E+02 4.12000E+01 0.00000E+00
 -1       440 1.23869E+02 2.26334E+01 0.00000E+00
 -1       441 1.24696E+02 2.66861E+01 0.00000E+00
 -1       442 1.24751E+02 2.47920E+01 0.00000E+00
 -1       443 1.22894E+02 2.09689E+01 0.00000E+00
 -1       444 1.21565E+02 1.96339E+01 0.00000E+00
 -1       445 5.19600E+00 3.82125E+01 0.00000E+00
 -1       446 1.17683E+02 1.72755E+01 0.00000E+00
 -1       447 1.15790E+02 1.71903E+01 0.00000E+00
 -1       448 1.13792E+02 1.72347E+01 0.00000E+00
 -1       449 1.11619E+02 1.76426E+01 0.00000E+00
 -1       450 1.09847E+02 1.86064E+01 0.00000E+00
 -1       451 1.08316E+02 1.99855E+01 0.00000E+00
 -1       452 1.07101E+02 2.15328E+01 0.00000E+00
 -1       453 1.05914E+02 2.35202E+01 0.00000E+00
 -1       454 1.05613E+02 2.56233E+01 0.00000E+00
 -1       455 1.05730E+02 2.76408E+01 0.00000E+00
 -1       456 1.05897E+02 2.96315E+01 0.00000E+00
 -1       457 1.06940E+02 3.16582E+01 0.00000E+00
 -1       458 1.07998E+02 3.31526E+01 0.00000E+00
 -1       459 1.09630E+02 3.47906E+01 0.00000E+00
 -1       460 1.11525E+02 3.54937E+01 0.00000E+00
 -1       461 1.13380E+02 3.59659E+01 0.00000E+00
 -1       462 1.15417E+02 3.64650E+01 0.00000E+00
 -1       463 1.17702E+02 3.62241E+01 0.00000E+00
 -1       464 1.19437E+02 3.55184E+01 0.00000E+00
 -1       465 1.21587E+02 3.41842E+01 0.00000E+00
 -1       466 1.22972E+02 3.24670E+01 0.00000E+00
 -1       467 1.24136E+02 3.06463E+01 0.00000E+00
 -1       468 1.24727E+02 2.87075E+01 0.00000E+00
 -1       469 1.20017E+02 1.82163E+01 0.00000E+00
 -1       470 1.19233E+02 1.66558E+01 0.00000E+00
 -1       471 1.00350E+01 6.60425E+00 0.00000E+00
 -1       472 7.79400E+00 3.08500E+01 0.00000E+00
 -1       473 7.79400E+00 3.38000E+01 0.00000E+00
 -1       474 7.79400E+00 2.49500E+01 0.00000E+00
 -1       475 7.79400E+00 2.20000E+01 0.00000E+00
 -1       476 7.79400E+00 1.91000E+01 0.00000E+00
 -1       477 7.79400E+00 1.61500E+01 0.00000E+00
 -1       478 7.79400E+00 1.32000E+01 0.00000E+00
 -1       479 7.79400E+00 1.02500E+01 0.00000E+00
 -1       480 1.30350E+01 6.60425E+00 0.00000E+00
 -1       481 1.06500E+01 4.22060E+01 0.00000E+00
 -1       482 1.21950E+02 1.76603E+01 0.00000E+00
 -1       483 1.36500E+01 4.22060E+01 0.00000E+00
 -1       484 1.66500E+01 4.22060E+01 0.00000E+00
 -1       485 1.96500E+01 4.22060E+01 0.00000E+00
 -1       486 2.26500E+01 4.22060E+01 0.00000E+00
 -1       487 2.56500E+01 4.22060E+01 0.00000E+00
 -1       488 2.86500E+01 4.22060E+01 0.00000E+00
 -1       489 3.16500E+01 4.22060E+01 0.00000E+00
 -1       490 3.46500E+01 4.22060E+01 0.00000E+00
 -1       491 3.76500E+01 4.22060E+01 0.00000E+00
 -1       492 4.06500E+01 4.22060E+01 0.00000E+00
 -1       493 4.36500E+01 4.22060E+01 0.00000E+00
 -1       494 4.66500E+01 4.22060E+01 0.00000E+00
 -1       495 4.96500E+01 4.22060E+01 0.00000E+00
 -1       496 5.26500E+01 4.22060E+01 0.00000E+00
 -1       497 5.56500E+01 4.22060E+01 0.00000E+00
 -1       498 5.86500E+01 4.22060E+01 0.00000E+00
 -1       499 6.16500E+01 4.22060E+01 0.00000E+00
 -1       500 6.46500E+01 4.22060E+01 0.00000E+00
 -1       501 6.76500E+01 4.22060E+01 0.00000E+00
 -1       502 7.06500E+01 4.22060E+01 0.00000E+00
 -1       503 7.36500E+01 4.22060E+01 0.00000E+00
 -1       504 7.66500E+01 4.22060E+01 0.00000E+00
 -1       505 7.96500E+01 4.22060E+01 0.00000E+00
 -1       506 8.26500E+01 4.22060E+01 0.00000E+00
 -1       507 8.56500E+01 4.22060E+01 0.00000E+00
 -1       508 8.86500E+01 4.22060E+01 0.00000E+00
 -1       509 9.16500E+01 4.22060E+01 0.00000E+00
 -1       510 9.46500E+01 4.22060E+01 0.00000E+00
 -1       511 9.76500E+01 4.22060E+01 0.00000E+00
 -1       512 1.00650E+02 4.22060E+01 0.00000E+00
 -1       513 1.03650E+02 4.22060E+01 0.00000E+00
 -1       514 1.06650E+02 4.22060E+01 0.00000E+00
 -1       515 1.09650E+02 4.22060E+01 0.00000E+00
 -1       516 1.12650E+02 4.22060E+01 0.00000E+00
 -1       517 1.15650E+02 4.22060E+01 0.00000E+00
 -1       518 1.18650E+02 4.22060E+01 0.00000E+00
 -1       519 1.21650E+02 4.22060E+01 0.00000E+00
 -1       520 1.24650E+02 4.22060E+01 0.00000E+00
 -1       521 1.27650E+02 4.22060E+01 0.00000E+00
 -1       522 1.30650E+02 4.22060E+01 0.00000E+00
 -1       523 1.33650E+02 4.22060E+01 0.00000E+00
 -1       524 1.36650E+02 4.22060E+01 0.00000E+00
 -1       525 1.39650E+02 4.22060E+01 0.00000E+00
 -1       526 1.90350E+01 6.60425E+00 0.00000E+00
 -1       527 2.20350E+01 6.60425E+00 0.00000E+00
 -1       528 2.50350E+01 6.60425E+00 0.00000E+00
 -1       529 2.80350E+01 6.60425E+00 0.00000E+00
 -1       530 3.10350E+01 6.60425E+00 0.00000E+00
 -1       531 3.40350E+01 6.60425E+00 0.00000E+00
 -1       532 3.70350E+01 6.60425E+00 0.00000E+00
 -1       533 4.00350E+01 6.60425E+00 0.00000E+00
 -1       534 4.30350E+01 6.60425E+00 0.00000E+00
 -1       535 4.60350E+01 6.60425E+00 0.00000E+00
 -1       536 4.90350E+01 6.60425E+00 0.00000E+00
 -1       537 5.20350E+01 6.60425E+00 0.00000E+00
 -1       538 5.50350E+01 6.60425E+00 0.00000E+00
 -1       539 5.80350E+01 6.60425E+00 0.00000E+00
 -1       540 6.10350E+01 6.60425E+00 0.00000E+00
 -1       541 6.40350E+01 6.60425E+00 0.00000E+00
 -1       542 6.70350E+01 6.60425E+00 0.00000E+00
 -1       543 7.00350E+01 6.60425E+00 0.00000E+00
 -1       544 7.30350E+01 6.60425E+00 0.00000E+00
 -1       545 7.60350E+01 6.60425E+00 0.00000E+00
 -1       546 7.90350E+01 6.60425E+00 0.00000E+00
 -1       547 8.20350E+01 6.60425E+00 0.00000E+00
 -1       548 8.50350E+01 6.60425E+00 0.00000E+00
 -1       549 8.80350E+01 6.60425E+00 0.00000E+00
 -1       550 9.10350E+01 6.60425E+00 0.00000E+00
 -1       551 9.40350E+01 6.60425E+00 0.00000E+00
 -1       552 9.70350E+01 6.60425E+00 0.00000E+00
 -1       553 1.00035E+02 6.60425E+00 0.00000E+00
 -1       554 1.03035E+02 6.60425E+00 0.00000E+00
 -1       555 1.06035E+02 6.60425E+00 0.00000E+00
 -1       556 1.09035E+02 6.60425E+00 0.00000E+00
 -1       557 1.12035E+02 6.60425E+00 0.00000E+00
 -1       558 1.15035E+02 6.60425E+00 0.00000E+00
 -1       559 1.18035E+02 6.60425E+00 0.00000E+00
 -1       560 1.21035E+02 6.60425E+00 0.00000E+00
 -1       561 1.24035E+02 6.60425E+00 0.00000E+00
 -1       562 1.27035E+02 6.60425E+00 0.00000E+00
 -1       563 1.30035E+02 6.60425E+00 0.00000E+00
 -1       564 1.33035E+02 6.60425E+00 0.00000E+00
 -1       565 1.36035E+02 6.60425E+00 0.00000E+00
 -1       566 1.39035E+02 6.60425E+00 0.00000E+00
 -1       567 1.42035E+02 6.60425E+00 0.00000E+00
 -1       568 1.42206E+02 1.61750E+01 0.00000E+00
 -1       569 1.42206E+02 1.91250E+01 0.00000E+00
 -1       570 1.42206E+02 1.03250E+01 0.00000E+00
 -1       571 1.42206E+02 1.32500E+01 0.00000E+00
 -1       572 1.42206E+02 2.20750E+01 0.00000E+00
 -1       573 1.42206E+02 2.50250E+01 0.00000E+00
 -1       574 1.42206E+02 2.79750E+01 0.00000E+00
 -1       575 1.42206E+02 3.08750E+01 0.00000E+00
 -1       576 1.42206E+02 3.38250E+01 0.00000E+00
 -1       577 1.42206E+02 3.67750E+01 0.00000E+00
 -1       578 1.42206E+02 3.97250E+01 0.00000E+00
 -1       579 1.26270E+02 2.57836E+01 0.00000E+00
 -1       580 1.24861E+02 2.09344E+01 0.00000E+00
 -1       581 1.60350E+01 6.60425E+00 0.00000E+00
 -1       582 1.26302E+02 2.78049E+01 0.00000E+00
 -1       583 1.25743E+02 2.30930E+01 0.00000E+00
 -1       584 7.92300E+00 4.16780E+01 0.00000E+00
 -1       585 1.25992E+02 3.01531E+01 0.00000E+00
 -1       586 1.16731E+02 3.79669E+01 0.00000E+00
 -1       587 7.79400E+00 2.79000E+01 0.00000E+00
 -1       588 1.14753E+02 1.54978E+01 0.00000E+00
 -1       589 1.23614E+02 3.44024E+01 0.00000E+00
 -1       590 1.16646E+02 1.55830E+01 0.00000E+00
 -1       591 1.12420E+02 1.59176E+01 0.00000E+00
 -1       592 1.09913E+02 1.66180E+01 0.00000E+00
 -1       593 1.07934E+02 1.80213E+01 0.00000E+00
 -1       594 1.06491E+02 1.98038E+01 0.00000E+00
 -1       595 1.05179E+02 2.17328E+01 0.00000E+00
 -1       596 1.04315E+02 2.43647E+01 0.00000E+00
 -1       597 1.04043E+02 2.67263E+01 0.00000E+00
 -1       598 1.04210E+02 2.87170E+01 0.00000E+00
 -1       599 1.05042E+02 3.13527E+01 0.00000E+00
 -1       600 1.06206E+02 3.32994E+01 0.00000E+00
 -1       601 1.07362E+02 3.54190E+01 0.00000E+00
 -1       602 1.09923E+02 3.69073E+01 0.00000E+00
 -1       603 1.12112E+02 3.70671E+01 0.00000E+00
 -1       604 1.14010E+02 3.77999E+01 0.00000E+00
 -1       605 1.19279E+02 3.76151E+01 0.00000E+00
 -1       606 1.21416E+02 3.63086E+01 0.00000E+00
 -1       607 1.24928E+02 3.24352E+01 0.00000E+00
 -1       608 7.61550E+00 6.21462E+00 0.00000E+00
 -1       609 1.23267E+02 1.92687E+01 0.00000E+00
 -1       610 7.79400E+00 3.67375E+01 0.00000E+00
 -1       611 1.18196E+02 1.49633E+01 0.00000E+00
 -1       612 1.27263E+02 2.40846E+01 0.00000E+00
 -1       613 1.03355E+02 3.04382E+01 0.00000E+00
 -1       614 1.03580E+02 2.25773E+01 0.00000E+00
 -1       615 1.21166E+02 1.60998E+01 0.00000E+00
 -1       616 1.41678E+02 4.22645E+01 0.00000E+00
 -1       617 1.03920E+01 2.05500E+01 0.00000E+00
 -1       618 1.03920E+01 2.35000E+01 0.00000E+00
 -1       619 1.03920E+01 1.46750E+01 0.00000E+00
 -1       620 1.03920E+01 1.17250E+01 0.00000E+00
 -1       621 1.15350E+01 9.20225E+00 0.00000E+00
 -1       622 1.15245E+02 3.99298E+01 0.00000E+00
 -1       623 1.27318E+02 3.21601E+01 0.00000E+00
 -1       624 1.51500E+01 3.96080E+01 0.00000E+00
 -1       625 1.81500E+01 3.96080E+01 0.00000E+00
 -1       626 2.11500E+01 3.96080E+01 0.00000E+00
 -1       627 2.41500E+01 3.96080E+01 0.00000E+00
 -1       628 2.71500E+01 3.96080E+01 0.00000E+00
 -1       629 3.01500E+01 3.96080E+01 0.00000E+00
 -1       630 3.31500E+01 3.96080E+01 0.00000E+00
 -1       631 3.61500E+01 3.96080E+01 0.00000E+00
 -1       632 3.91500E+01 3.96080E+01 0.00000E+00
 -1       633 4.21500E+01 3.96080E+01 0.00000E+00
 -1       634 4.51500E+01 3.96080E+01 0.00000E+00
 -1       635 4.81500E+01 3.96080E+01 0.00000E+00
 -1       636 5.11500E+01 3.96080E+01 0.00000E+00
 -1       637 5.41500E+01 3.96080E+01 0.00000E+00
 -1       638 5.71500E+01 3.96080E+01 0.00000E+00
 -1       639 6.01500E+01 3.96080E+01 0.00000E+00
 -1       640 6.31500E+01 3.96080E+01 0.00000E+00
 -1       641 6.61500E+01 3.96080E+01 0.00000E+00
 -1       642 6.91500E+01 3.96080E+01 0.00000E+00
 -1       643 7.21500E+01 3.96080E+01 0.00000E+00
 -1       644 7.51500E+01 3.96080E+01 0.00000E+00
 -1       645 7.81500E+01 3.96080E+01 0.00000E+00
 -1       646 8.11500E+01 3.96080E+01 0.00000E+00
 -1       647 8.41500E+01 3.96080E+01 0.00000E+00
 -1       648 8.71500E+01 3.96080E+01 0.00000E+00
 -1       649 9.01500E+01 3.96080E+01 0.00000E+00
 -1       650 9.31500E+01 3.96080E+01 0.00000E+00
 -1       651 9.61500E+01 3.96080E+01 0.00000E+00
 -1       652 9.91500E+01 3.96080E+01 0.00000E+00
 -1       653 1.02150E+02 3.96080E+01 0.00000E+00
 -1       654 1.05150E+02 3.96080E+01 0.00000E+00
 -1       655 1.08150E+02 3.96080E+01 0.00000E+00
 -1       656 1.20150E+02 3.98206E+01 0.00000E+00
 -1       657 1.23150E+02 3.98206E+01 0.00000E+00
 -1       658 1.26150E+02 3.98206E+01 0.00000E+00
 -1       659 1.29150E+02 3.98206E+01 0.00000E+00
 -1       660 1.32150E+02 3.98206E+01 0.00000E+00
 -1       661 1.35150E+02 3.98206E+01 0.00000E+00
 -1       662 1.38150E+02 3.98206E+01 0.00000E+00
 -1       663 2.35350E+01 9.20225E+00 0.00000E+00
 -1       664 1.39206E+02 1.03250E+01 0.00000E+00
 -1       665 2.05350E+01 9.20225E+00 0.00000E+00
 -1       666 2.95350E+01 9.20225E+00 0.00000E+00
 -1       667 3.25350E+01 9.20225E+00 0.00000E+00
 -1       668 3.55350E+01 9.20225E+00 0.00000E+00
 -1       669 3.85350E+01 9.20225E+00 0.00000E+00
 -1       670 4.15350E+01 9.20225E+00 0.00000E+00
 -1       671 4.45350E+01 9.20225E+00 0.00000E+00
 -1       672 4.75350E+01 9.20225E+00 0.00000E+00
 -1       673 5.05350E+01 9.20225E+00 0.00000E+00
 -1       674 5.35350E+01 9.20225E+00 0.00000E+00
 -1       675 5.65350E+01 9.20225E+00 0.00000E+00
 -1       676 5.95350E+01 9.20225E+00 0.00000E+00
 -1       677 6.25350E+01 9.20225E+00 0.00000E+00
 -1       678 6.55350E+01 9.20225E+00 0.00000E+00
 -1       679 6.85350E+01 9.20225E+00 0.00000E+00
 -1       680 7.15350E+01 9.20225E+00 0.00000E+00
 -1       681 7.45350E+01 9.20225E+00 0.00000E+00
 -1       682 7.75350E+01 9.20225E+00 0.00000E+00
 -1       683 8.05350E+01 9.20225E+00 0.00000E+00
 -1       684 8.35350E+01 9.20225E+00 0.00000E+00
 -1       685 8.65350E+01 9.20225E+00 0.00000E+00
 -1       686 8.95350E+01 9.20225E+00 0.00000E+00
 -1       687 9.25350E+01 9.20225E+00 0.00000E+00
 -1       688 9.55350E+01 9.20225E+00 0.00000E+00
 -1       689 9.85350E+01 9.20225E+00 0.00000E+00
 -1       690 1.01535E+02 9.20225E+00 0.00000E+00
 -1       691 1.04535E+02 9.20225E+00 0.00000E+00
 -1       692 1.07535E+02 9.20225E+00 0.00000E+00
 -1       693 1.10535E+02 9.20225E+00 0.00000E+00
 -1       694 1.13535E+02 9.20225E+00 0.00000E+00
 -1       695 1.16535E+02 9.20225E+00 0.00000E+00
 -1       696 1.19535E+02 9.20225E+00 0.00000E+00
 -1       697 1.22535E+02 9.20225E+00 0.00000E+00
 -1       698 1.25535E+02 9.20225E+00 0.00000E+00
 -1       699 1.28535E+02 9.20225E+00 0.00000E+00
 -1       700 1.31535E+02 9.20225E+00 0.00000E+00
 -1       701 1.34535E+02 9.20225E+00 0.00000E+00
 -1       702 1.36870E+02 9.76363E+00 0.00000E+00
 -1       703 1.25303E+02 1.89156E+01 0.00000E+00
 -1       704 1.39608E+02 2.35500E+01 0.00000E+00
 -1       705 1.40178E+02 3.97728E+01 0.00000E+00
 -1       706 1.39608E+02 1.76500E+01 0.00000E+00
 -1       707 1.39608E+02 2.65000E+01 0.00000E+00
 -1       708 1.39608E+02 2.06000E+01 0.00000E+00
 -1       709 1.39608E+02 2.94000E+01 0.00000E+00
 -1       710 1.39608E+02 3.23500E+01 0.00000E+00
 -1       711 1.39608E+02 3.53000E+01 0.00000E+00
 -1       712 1.39893E+02 3.75364E+01 0.00000E+00
 -1       713 1.23639E+02 3.66513E+01 0.00000E+00
 -1       714 9.78035E+00 3.93914E+01 0.00000E+00
 -1       715 1.28168E+02 2.67653E+01 0.00000E+00
 -1       716 1.26813E+02 2.13966E+01 0.00000E+00
 -1       717 1.02142E+02 2.53113E+01 0.00000E+00
 -1       718 1.15776E+02 1.38270E+01 0.00000E+00
 -1       719 1.75350E+01 9.20225E+00 0.00000E+00
 -1       720 2.65350E+01 9.20225E+00 0.00000E+00
 -1       721 1.24652E+01 3.94997E+01 0.00000E+00
 -1       722 1.03920E+01 1.76125E+01 0.00000E+00
 -1       723 1.45350E+01 9.20225E+00 0.00000E+00
 -1       724 1.17793E+02 3.95780E+01 0.00000E+00
 -1       725 1.03920E+01 3.23250E+01 0.00000E+00
 -1       726 1.21330E+02 3.85681E+01 0.00000E+00
 -1       727 1.27847E+02 2.92033E+01 0.00000E+00
 -1       728 1.04224E+02 3.31628E+01 0.00000E+00
 -1       729 1.07835E+02 1.57838E+01 0.00000E+00
 -1       730 1.05749E+02 1.77280E+01 0.00000E+00
 -1       731 1.04437E+02 1.96570E+01 0.00000E+00
 -1       732 1.02418E+02 2.78652E+01 0.00000E+00
 -1       733 1.05278E+02 3.51806E+01 0.00000E+00
 -1       734 1.07528E+02 3.80807E+01 0.00000E+00
 -1       735 1.10868E+02 3.90320E+01 0.00000E+00
 -1       736 1.13057E+02 3.94809E+01 0.00000E+00
 -1       737 1.10570E+02 1.41318E+01 0.00000E+00
 -1       738 1.23986E+02 1.73072E+01 0.00000E+00
 -1       739 1.25837E+02 3.44646E+01 0.00000E+00
 -1       740 1.13253E+02 1.38548E+01 0.00000E+00
 -1       741 1.03920E+01 3.52625E+01 0.00000E+00
 -1       742 1.03920E+01 2.64500E+01 0.00000E+00
 -1       743 1.17327E+02 1.32073E+01 0.00000E+00
 -1       744 1.20128E+02 1.44073E+01 0.00000E+00
 -1       745 1.39608E+02 1.47250E+01 0.00000E+00
 -1       746 1.27254E+02 1.93778E+01 0.00000E+00
 -1       747 1.28332E+02 2.23882E+01 0.00000E+00
 -1       748 1.01407E+02 2.35239E+01 0.00000E+00
 -1       749 1.02838E+02 2.05015E+01 0.00000E+00
 -1       750 1.03920E+01 2.93875E+01 0.00000E+00
 -1       751 1.02537E+02 3.22483E+01 0.00000E+00
 -1       752 1.23202E+02 1.57467E+01 0.00000E+00
 -1       753 1.29900E+01 1.32000E+01 0.00000E+00
 -1       754 1.08142E+02 1.32028E+01 0.00000E+00
 -1       755 1.96500E+01 3.70100E+01 0.00000E+00
 -1       756 2.26500E+01 3.70100E+01 0.00000E+00
 -1       757 2.56500E+01 3.70100E+01 0.00000E+00
 -1       758 2.86500E+01 3.70100E+01 0.00000E+00
 -1       759 3.16500E+01 3.70100E+01 0.00000E+00
 -1       760 3.46500E+01 3.70100E+01 0.00000E+00
 -1       761 3.76500E+01 3.70100E+01 0.00000E+00
 -1       762 4.06500E+01 3.70100E+01 0.00000E+00
 -1       763 4.36500E+01 3.70100E+01 0.00000E+00
 -1       764 4.66500E+01 3.70100E+01 0.00000E+00
 -1       765 4.96500E+01 3.70100E+01 0.00000E+00
 -1       766 5.26500E+01 3.70100E+01 0.00000E+00
 -1       767 5.56500E+01 3.70100E+01 0.00000E+00
 -1       768 5.86500E+01 3.70100E+01 0.00000E+00
 -1       769 6.16500E+01 3.70100E+01 0.00000E+00
 -1       770 6.46500E+01 3.70100E+01 0.00000E+00
 -1       771 6.76500E+01 3.70100E+01 0.00000E+00
 -1       772 7.06500E+01 3.70100E+01 0.00000E+00
 -1       773 7.36500E+01 3.70100E+01 0.00000E+00
 -1       774 7.66500E+01 3.70100E+01 0.00000E+00
 -1       775 7.96500E+01 3.70100E+01 0.00000E+00
 -1       776 8.26500E+01 3.70100E+01 0.00000E+00
 -1       777 8.56500E+01 3.70100E+01 0.00000E+00
 -1       778 8.86500E+01 3.70100E+01 0.00000E+00
 -1       779 9.16500E+01 3.70100E+01 0.00000E+00
 -1       780 9.46500E+01 3.70100E+01 0.00000E+00
 -1       781 9.76500E+01 3.70100E+01 0.00000E+00
 -1       782 1.00650E+02 3.70100E+01 0.00000E+00
 -1       783 1.27650E+02 3.72226E+01 0.00000E+00
 -1       784 1.30650E+02 3.72226E+01 0.00000E+00
 -1       785 1.33650E+02 3.72226E+01 0.00000E+00
 -1       786 1.36650E+02 3.72226E+01 0.00000E+00
 -1       787 3.70350E+01 1.18003E+01 0.00000E+00
 -1       788 2.20350E+01 1.18003E+01 0.00000E+00
 -1       789 3.40350E+01 1.18003E+01 0.00000E+00
 -1       790 3.10350E+01 1.18003E+01 0.00000E+00
 -1       791 4.00350E+01 1.18003E+01 0.00000E+00
 -1       792 4.30350E+01 1.18003E+01 0.00000E+00
 -1       793 4.60350E+01 1.18003E+01 0.00000E+00
 -1       794 4.90350E+01 1.18003E+01 0.00000E+00
 -1       795 5.20350E+01 1.18003E+01 0.00000E+00
 -1       796 5.50350E+01 1.18003E+01 0.00000E+00
 -1       797 5.80350E+01 1.18003E+01 0.00000E+00
 -1       798 6.10350E+01 1.18003E+01 0.00000E+00
 -1       799 6.40350E+01 1.18003E+01 0.00000E+00
 -1       800 6.70350E+01 1.18003E+01 0.00000E+00
 -1       801 7.00350E+01 1.18003E+01 0.00000E+00
 -1       802 7.30350E+01 1.18003E+01 0.00000E+00
 -1       803 7.60350E+01 1.18003E+01 0.00000E+00
 -1       804 7.90350E+01 1.18003E+01 0.00000E+00
 -1       805 8.20350E+01 1.18003E+01 0.00000E+00
 -1       806 8.50350E+01 1.18003E+01 0.00000E+00
 -1       807 8.80350E+01 1.18003E+01 0.00000E+00
 -1       808 9.10350E+01 1.18003E+01 0.00000E+00
 -1       809 9.40350E+01 1.18003E+01 0.00000E+00
 -1       810 9.70350E+01 1.18003E+01 0.00000E+00
 -1       811 1.00035E+02 1.18003E+01 0.00000E+00
 -1       812 1.03035E+02 1.18003E+01 0.00000E+00
 -1       813 1.12035E+02 1.14201E+01 0.00000E+00
 -1       814 1.21035E+02 1.15876E+01 0.00000E+00
 -1       815 1.24035E+02 1.15876E+01 0.00000E+00
 -1       816 1.27035E+02 1.15876E+01 0.00000E+00
 -1       817 1.30035E+02 1.15876E+01 0.00000E+00
 -1       818 1.33035E+02 1.15876E+01 0.00000E+00
 -1       819 1.37010E+02 2.79500E+01 0.00000E+00
 -1       820 1.37010E+02 3.09000E+01 0.00000E+00
 -1       821 1.37010E+02 2.50000E+01 0.00000E+00
 -1       822 1.28302E+02 3.44212E+01 0.00000E+00
 -1       823 1.06125E+02 3.70038E+01 0.00000E+00
 -1       824 1.37625E+01 1.12011E+01 0.00000E+00
 -1       825 1.90350E+01 1.18003E+01 0.00000E+00
 -1       826 1.30040E+02 2.82523E+01 0.00000E+00
 -1       827 1.29817E+02 2.47153E+01 0.00000E+00
 -1       828 1.05165E+02 1.50111E+01 0.00000E+00
 -1       829 1.66500E+01 3.70100E+01 0.00000E+00
 -1       830 1.03082E+02 3.50437E+01 0.00000E+00
 -1       831 1.03398E+02 1.75396E+01 0.00000E+00
 -1       832 1.00408E+02 2.67902E+01 0.00000E+00
 -1       833 1.29931E+02 3.11015E+01 0.00000E+00
 -1       834 1.37010E+02 3.38500E+01 0.00000E+00
 -1       835 1.00960E+02 2.98537E+01 0.00000E+00
 -1       836 1.29900E+01 2.20250E+01 0.00000E+00
 -1       837 1.26101E+02 1.69185E+01 0.00000E+00
 -1       838 1.03929E+02 3.68669E+01 0.00000E+00
 -1       839 1.29900E+01 2.49750E+01 0.00000E+00
 -1       840 2.80350E+01 1.18003E+01 0.00000E+00
 -1       841 1.37010E+02 1.61875E+01 0.00000E+00
 -1       842 1.39652E+01 3.69017E+01 0.00000E+00
 -1       843 1.06035E+02 1.18003E+01 0.00000E+00
 -1       844 1.18035E+02 1.14201E+01 0.00000E+00
 -1       845 1.35370E+02 1.21490E+01 0.00000E+00
 -1       846 1.37010E+02 2.20500E+01 0.00000E+00
 -1       847 1.37010E+02 1.91187E+01 0.00000E+00
 -1       848 1.28774E+02 2.03694E+01 0.00000E+00
 -1       849 1.29900E+01 3.37938E+01 0.00000E+00
 -1       850 9.96733E+01 2.50028E+01 0.00000E+00
 -1       851 1.00665E+02 2.14481E+01 0.00000E+00
 -1       852 1.29900E+01 1.90875E+01 0.00000E+00
 -1       853 1.22165E+02 1.40541E+01 0.00000E+00
 -1       854 2.50350E+01 1.18003E+01 0.00000E+00
 -1       855 1.01799E+02 1.83840E+01 0.00000E+00
 -1       856 1.29900E+01 1.61437E+01 0.00000E+00
 -1       857 1.25317E+02 1.53579E+01 0.00000E+00
 -1       858 1.36940E+02 1.29756E+01 0.00000E+00
 -1       859 1.63988E+01 1.15007E+01 0.00000E+00
 -1       860 1.29900E+01 3.08563E+01 0.00000E+00
 -1       861 9.98960E+01 3.22705E+01 0.00000E+00
 -1       862 2.41500E+01 3.44120E+01 0.00000E+00
 -1       863 2.71500E+01 3.44120E+01 0.00000E+00
 -1       864 3.01500E+01 3.44120E+01 0.00000E+00
 -1       865 3.31500E+01 3.44120E+01 0.00000E+00
 -1       866 3.61500E+01 3.44120E+01 0.00000E+00
 -1       867 3.91500E+01 3.44120E+01 0.00000E+00
 -1       868 4.21500E+01 3.44120E+01 0.00000E+00
 -1       869 4.51500E+01 3.44120E+01 0.00000E+00
 -1       870 4.81500E+01 3.44120E+01 0.00000E+00
 -1       871 5.11500E+01 3.44120E+01 0.00000E+00
 -1       872 5.41500E+01 3.44120E+01 0.00000E+00
 -1       873 5.71500E+01 3.44120E+01 0.00000E+00
 -1       874 6.01500E+01 3.44120E+01 0.00000E+00
 -1       875 6.31500E+01 3.44120E+01 0.00000E+00
 -1       876 6.61500E+01 3.44120E+01 0.00000E+00
 -1       877 6.91500E+01 3.44120E+01 0.00000E+00
 -1       878 7.21500E+01 3.44120E+01 0.00000E+00
 -1       879 7.51500E+01 3.44120E+01 0.00000E+00
 -1       880 7.81500E+01 3.44120E+01 0.00000E+00
 -1       881 8.11500E+01 3.44120E+01 0.00000E+00
 -1       882 8.41500E+01 3.44120E+01 0.00000E+00
 -1       883 8.71500E+01 3.44120E+01 0.00000E+00
 -1       884 9.01500E+01 3.44120E+01 0.00000E+00
 -1       885 9.31500E+01 3.44120E+01 0.00000E+00
 -1       886 9.61500E+01 3.44120E+01 0.00000E+00
 -1       887 9.96161E+01 3.47278E+01 0.00000E+00
 -1       888 1.28534E+02 1.72777E+01 0.00000E+00
 -1       889 1.32150E+02 3.46246E+01 0.00000E+00
 -1       890 1.34580E+02 3.42373E+01 0.00000E+00
 -1       891 4.15350E+01 1.43982E+01 0.00000E+00
 -1       892 3.85350E+01 1.43982E+01 0.00000E+00
 -1       893 3.25350E+01 1.43982E+01 0.00000E+00
 -1       894 4.45350E+01 1.43982E+01 0.00000E+00
 -1       895 4.75350E+01 1.43982E+01 0.00000E+00
 -1       896 5.05350E+01 1.43982E+01 0.00000E+00
 -1       897 5.35350E+01 1.43982E+01 0.00000E+00
 -1       898 5.65350E+01 1.43982E+01 0.00000E+00
 -1       899 5.95350E+01 1.43982E+01 0.00000E+00
 -1       900 6.25350E+01 1.43982E+01 0.00000E+00
 -1       901 6.55350E+01 1.43982E+01 0.00000E+00
 -1       902 6.85350E+01 1.43982E+01 0.00000E+00
 -1       903 7.15350E+01 1.43982E+01 0.00000E+00
 -1       904 7.45350E+01 1.43982E+01 0.00000E+00
 -1       905 7.75350E+01 1.43982E+01 0.00000E+00
 -1       906 8.05350E+01 1.43982E+01 0.00000E+00
 -1       907 8.35350E+01 1.43982E+01 0.00000E+00
 -1       908 8.65350E+01 1.43982E+01 0.00000E+00
 -1       909 8.95350E+01 1.43982E+01 0.00000E+00
 -1       910 9.25350E+01 1.43982E+01 0.00000E+00
 -1       911 9.55350E+01 1.43982E+01 0.00000E+00
 -1       912 9.85350E+01 1.43982E+01 0.00000E+00
 -1       913 1.01535E+02 1.43982E+01 0.00000E+00
 -1       914 1.31535E+02 1.41856E+01 0.00000E+00
 -1       915 1.34412E+02 2.94250E+01 0.00000E+00
 -1       916 1.34412E+02 2.64750E+01 0.00000E+00
 -1       917 1.32034E+02 2.97556E+01 0.00000E+00
 -1       918 1.28535E+02 1.41856E+01 0.00000E+00
 -1       919 1.29900E+01 2.79188E+01 0.00000E+00
 -1       920 3.55350E+01 1.43982E+01 0.00000E+00
 -1       921 1.31086E+02 2.22687E+01 0.00000E+00
 -1       922 1.81500E+01 3.44120E+01 0.00000E+00
 -1       923 2.11500E+01 3.44120E+01 0.00000E+00
 -1       924 1.31975E+02 2.63546E+01 0.00000E+00
 -1       925 2.05350E+01 1.43982E+01 0.00000E+00
 -1       926 1.34496E+02 3.18312E+01 0.00000E+00
 -1       927 9.81717E+01 2.87749E+01 0.00000E+00
 -1       928 2.95350E+01 1.43982E+01 0.00000E+00
 -1       929 9.74369E+01 2.69875E+01 0.00000E+00
 -1       930 1.55880E+01 2.35000E+01 0.00000E+00
 -1       931 1.56748E+01 3.39021E+01 0.00000E+00
 -1       932 1.33870E+02 1.47470E+01 0.00000E+00
 -1       933 1.34412E+02 2.35250E+01 0.00000E+00
 -1       934 1.78988E+01 1.40987E+01 0.00000E+00
 -1       935 1.30054E+02 1.82692E+01 0.00000E+00
 -1       936 1.34412E+02 1.76531E+01 0.00000E+00
 -1       937 9.89314E+01 2.29270E+01 0.00000E+00
 -1       938 1.46944E+01 1.38222E+01 0.00000E+00
 -1       939 1.55880E+01 2.05625E+01 0.00000E+00
 -1       940 1.56748E+01 3.09646E+01 0.00000E+00
 -1       941 2.35350E+01 1.43982E+01 0.00000E+00
 -1       942 2.56500E+01 3.18140E+01 0.00000E+00
 -1       943 2.86500E+01 3.18140E+01 0.00000E+00
 -1       944 3.16500E+01 3.18140E+01 0.00000E+00
 -1       945 3.46500E+01 3.18140E+01 0.00000E+00
 -1       946 3.76500E+01 3.18140E+01 0.00000E+00
 -1       947 4.06500E+01 3.18140E+01 0.00000E+00
 -1       948 4.36500E+01 3.18140E+01 0.00000E+00
 -1       949 4.66500E+01 3.18140E+01 0.00000E+00
 -1       950 4.96500E+01 3.18140E+01 0.00000E+00
 -1       951 5.26500E+01 3.18140E+01 0.00000E+00
 -1       952 5.56500E+01 3.18140E+01 0.00000E+00
 -1       953 5.86500E+01 3.18140E+01 0.00000E+00
 -1       954 6.16500E+01 3.18140E+01 0.00000E+00
 -1       955 6.46500E+01 3.18140E+01 0.00000E+00
 -1       956 6.76500E+01 3.18140E+01 0.00000E+00
 -1       957 7.06500E+01 3.18140E+01 0.00000E+00
 -1       958 7.36500E+01 3.18140E+01 0.00000E+00
 -1       959 7.66500E+01 3.18140E+01 0.00000E+00
 -1       960 7.96500E+01 3.18140E+01 0.00000E+00
 -1       961 8.26500E+01 3.18140E+01 0.00000E+00
 -1       962 8.56500E+01 3.18140E+01 0.00000E+00
 -1       963 8.86500E+01 3.18140E+01 0.00000E+00
 -1       964 9.16500E+01 3.18140E+01 0.00000E+00
 -1       965 9.46500E+01 3.18140E+01 0.00000E+00
 -1       966 9.72730E+01 3.20422E+01 0.00000E+00
 -1       967 1.96500E+01 3.18140E+01 0.00000E+00
 -1       968 4.90350E+01 1.69963E+01 0.00000E+00
 -1       969 4.00350E+01 1.69963E+01 0.00000E+00
 -1       970 4.30350E+01 1.69963E+01 0.00000E+00
 -1       971 5.20350E+01 1.69963E+01 0.00000E+00
 -1       972 5.50350E+01 1.69963E+01 0.00000E+00
 -1       973 5.80350E+01 1.69963E+01 0.00000E+00
 -1       974 6.10350E+01 1.69963E+01 0.00000E+00
 -1       975 6.40350E+01 1.69963E+01 0.00000E+00
 -1       976 6.70350E+01 1.69963E+01 0.00000E+00
 -1       977 7.00350E+01 1.69963E+01 0.00000E+00
 -1       978 7.30350E+01 1.69963E+01 0.00000E+00
 -1       979 7.60350E+01 1.69963E+01 0.00000E+00
 -1       980 7.90350E+01 1.69963E+01 0.00000E+00
 -1       981 8.20350E+01 1.69963E+01 0.00000E+00
 -1       982 8.50350E+01 1.69963E+01 0.00000E+00
 -1       983 8.80350E+01 1.69963E+01 0.00000E+00
 -1       984 9.10350E+01 1.69963E+01 0.00000E+00
 -1       985 9.40350E+01 1.69963E+01 0.00000E+00
 -1       986 9.70350E+01 1.69963E+01 0.00000E+00
 -1       987 1.30794E+02 1.62274E+01 0.00000E+00
 -1       988 1.56748E+01 2.80271E+01 0.00000E+00
 -1       989 1.00271E+02 1.72711E+01 0.00000E+00
 -1       990 1.34412E+02 2.05844E+01 0.00000E+00
 -1       991 1.56314E+01 2.57635E+01 0.00000E+00
 -1       992 2.26500E+01 3.18140E+01 0.00000E+00
 -1       993 2.65350E+01 1.43982E+01 0.00000E+00
 -1       994 1.55880E+01 1.76187E+01 0.00000E+00
 -1       995 4.60350E+01 1.69963E+01 0.00000E+00
 -1       996 1.76624E+01 3.13893E+01 0.00000E+00
 -1       997 1.32603E+02 1.69403E+01 0.00000E+00
 -1       998 9.55981E+01 2.87882E+01 0.00000E+00
 -1       999 1.82072E+01 2.45819E+01 0.00000E+00
 -1      1000 3.40350E+01 1.69963E+01 0.00000E+00
 -1      1001 3.10350E+01 1.69963E+01 0.00000E+00
 -1      1002 2.20350E+01 1.69963E+01 0.00000E+00
 -1      1003 1.93988E+01 1.66967E+01 0.00000E+00
 -1      1004 9.66950E+01 2.49117E+01 0.00000E+00
 -1      1005 9.89947E+01 1.90887E+01 0.00000E+00
 -1      1006 3.70350E+01 1.69963E+01 0.00000E+00
 -1      1007 9.72606E+01 2.05676E+01 0.00000E+00
 -1      1008 1.82072E+01 2.16444E+01 0.00000E+00
 -1      1009 2.50350E+01 1.69963E+01 0.00000E+00
 -1      1010 2.11500E+01 2.92160E+01 0.00000E+00
 -1      1011 1.82506E+01 2.68455E+01 0.00000E+00
 -1      1012 2.71500E+01 2.92160E+01 0.00000E+00
 -1      1013 3.01500E+01 2.92160E+01 0.00000E+00
 -1      1014 3.31500E+01 2.92160E+01 0.00000E+00
 -1      1015 3.61500E+01 2.92160E+01 0.00000E+00
 -1      1016 3.91500E+01 2.92160E+01 0.00000E+00
 -1      1017 4.21500E+01 2.92160E+01 0.00000E+00
 -1      1018 4.51500E+01 2.92160E+01 0.00000E+00
 -1      1019 4.81500E+01 2.92160E+01 0.00000E+00
 -1      1020 5.11500E+01 2.92160E+01 0.00000E+00
 -1      1021 5.41500E+01 2.92160E+01 0.00000E+00
 -1      1022 5.71500E+01 2.92160E+01 0.00000E+00
 -1      1023 6.01500E+01 2.92160E+01 0.00000E+00
 -1      1024 6.31500E+01 2.92160E+01 0.00000E+00
 -1      1025 6.61500E+01 2.92160E+01 0.00000E+00
 -1      1026 6.91500E+01 2.92160E+01 0.00000E+00
 -1      1027 7.21500E+01 2.92160E+01 0.00000E+00
 -1      1028 7.51500E+01 2.92160E+01 0.00000E+00
 -1      1029 7.81500E+01 2.92160E+01 0.00000E+00
 -1      1030 8.11500E+01 2.92160E+01 0.00000E+00
 -1      1031 8.41500E+01 2.92160E+01 0.00000E+00
 -1      1032 8.71500E+01 2.92160E+01 0.00000E+00
 -1      1033 9.01500E+01 2.92160E+01 0.00000E+00
 -1      1034 5.35350E+01 1.95942E+01 0.00000E+00
 -1      1035 4.15350E+01 1.95942E+01 0.00000E+00
 -1      1036 5.65350E+01 1.95942E+01 0.00000E+00
 -1      1037 5.95350E+01 1.95942E+01 0.00000E+00
 -1      1038 6.25350E+01 1.95942E+01 0.00000E+00
 -1      1039 6.55350E+01 1.95942E+01 0.00000E+00
 -1      1040 6.85350E+01 1.95942E+01 0.00000E+00
 -1      1041 7.15350E+01 1.95942E+01 0.00000E+00
 -1      1042 7.45350E+01 1.95942E+01 0.00000E+00
 -1      1043 7.75350E+01 1.95942E+01 0.00000E+00
 -1      1044 8.05350E+01 1.95942E+01 0.00000E+00
 -1      1045 8.35350E+01 1.95942E+01 0.00000E+00
 -1      1046 8.65350E+01 1.95942E+01 0.00000E+00
 -1      1047 8.95350E+01 1.95942E+01 0.00000E+00
 -1      1048 9.25350E+01 1.95942E+01 0.00000E+00
 -1      1049 2.80350E+01 1.69963E+01 0.00000E+00
 -1      1050 1.79565E+01 2.91174E+01 0.00000E+00
 -1      1051 5.05350E+01 1.95942E+01 0.00000E+00
 -1      1052 9.48562E+01 2.67124E+01 0.00000E+00
 -1      1053 2.41500E+01 2.92160E+01 0.00000E+00
 -1      1054 4.75350E+01 1.95942E+01 0.00000E+00
 -1      1055 4.45350E+01 1.95942E+01 0.00000E+00
 -1      1056 9.31500E+01 2.92160E+01 0.00000E+00
 -1      1057 3.85350E+01 1.95942E+01 0.00000E+00
 -1      1058 1.88115E+01 1.87794E+01 0.00000E+00
 -1      1059 9.50243E+01 2.25522E+01 0.00000E+00
 -1      1060 2.35350E+01 1.95942E+01 0.00000E+00
 -1      1061 2.08052E+01 2.31132E+01 0.00000E+00
 -1      1062 3.55350E+01 1.95942E+01 0.00000E+00
 -1      1063 2.08486E+01 2.53767E+01 0.00000E+00
 -1      1064 3.25350E+01 1.95942E+01 0.00000E+00
 -1      1065 2.86500E+01 2.66180E+01 0.00000E+00
 -1      1066 3.16500E+01 2.66180E+01 0.00000E+00
 -1      1067 3.46500E+01 2.66180E+01 0.00000E+00
 -1      1068 3.76500E+01 2.66180E+01 0.00000E+00
 -1      1069 4.06500E+01 2.66180E+01 0.00000E+00
 -1      1070 4.36500E+01 2.66180E+01 0.00000E+00
 -1      1071 4.66500E+01 2.66180E+01 0.00000E+00
 -1      1072 4.96500E+01 2.66180E+01 0.00000E+00
 -1      1073 5.26500E+01 2.66180E+01 0.00000E+00
 -1      1074 5.56500E+01 2.66180E+01 0.00000E+00
 -1      1075 5.86500E+01 2.66180E+01 0.00000E+00
 -1      1076 6.16500E+01 2.66180E+01 0.00000E+00
 -1      1077 6.46500E+01 2.66180E+01 0.00000E+00
 -1      1078 6.76500E+01 2.66180E+01 0.00000E+00
 -1      1079 7.06500E+01 2.66180E+01 0.00000E+00
 -1      1080 7.36500E+01 2.66180E+01 0.00000E+00
 -1      1081 7.66500E+01 2.66180E+01 0.00000E+00
 -1      1082 7.96500E+01 2.66180E+01 0.00000E+00
 -1      1083 8.26500E+01 2.66180E+01 0.00000E+00
 -1      1084 8.56500E+01 2.66180E+01 0.00000E+00
 -1      1085 8.86500E+01 2.66180E+01 0.00000E+00
 -1      1086 5.80350E+01 2.21922E+01 0.00000E+00
 -1      1087 9.18562E+01 2.67124E+01 0.00000E+00
 -1      1088 5.50350E+01 2.21922E+01 0.00000E+00
 -1      1089 6.40350E+01 2.21922E+01 0.00000E+00
 -1      1090 6.70350E+01 2.21922E+01 0.00000E+00
 -1      1091 7.00350E+01 2.21922E+01 0.00000E+00
 -1      1092 7.30350E+01 2.21922E+01 0.00000E+00
 -1      1093 7.60350E+01 2.21922E+01 0.00000E+00
 -1      1094 7.90350E+01 2.21922E+01 0.00000E+00
 -1      1095 8.20350E+01 2.21922E+01 0.00000E+00
 -1      1096 8.50350E+01 2.21922E+01 0.00000E+00
 -1      1097 8.80350E+01 2.21922E+01 0.00000E+00
 -1      1098 9.10350E+01 2.21922E+01 0.00000E+00
 -1      1099 2.65350E+01 1.95942E+01 0.00000E+00
 -1      1100 2.26500E+01 2.66180E+01 0.00000E+00
 -1      1101 2.56500E+01 2.66180E+01 0.00000E+00
 -1      1102 6.10350E+01 2.21922E+01 0.00000E+00
 -1      1103 5.20350E+01 2.21922E+01 0.00000E+00
 -1      1104 9.34402E+01 2.46323E+01 0.00000E+00
 -1      1105 4.00350E+01 2.21922E+01 0.00000E+00
 -1      1106 4.90350E+01 2.21922E+01 0.00000E+00
 -1      1107 2.50350E+01 2.21922E+01 0.00000E+00
 -1      1108 2.95350E+01 1.95942E+01 0.00000E+00
 -1      1109 4.30350E+01 2.21922E+01 0.00000E+00
 -1      1110 2.10514E+01 2.07481E+01 0.00000E+00
 -1      1111 3.70350E+01 2.21922E+01 0.00000E+00
 -1      1112 2.26066E+01 2.43545E+01 0.00000E+00
 -1      1113 3.40350E+01 2.21922E+01 0.00000E+00
 -1      1114 3.01500E+01 2.40200E+01 0.00000E+00
 -1      1115 4.81500E+01 2.40200E+01 0.00000E+00
 -1      1116 2.80349E+01 2.21923E+01 0.00000E+00
 -1      1117 2.35124E+01 2.21996E+01 0.00000E+00
 -1      1118 4.60350E+01 2.21922E+01 0.00000E+00
 -1      1119 2.63783E+01 2.41872E+01 0.00000E+00
 -1      1120 0.00000E+00 4.85250E+01 0.00000E+00
 -1      1121 0.00000E+00 4.55750E+01 0.00000E+00
 -1      1122 0.00000E+00 4.26250E+01 0.00000E+00
 -1      1123 0.00000E+00 3.96750E+01 0.00000E+00
 -1      1124 0.00000E+00 3.67250E+01 0.00000E+00
 -1      1125 0.00000E+00 3.38000E+01 0.00000E+00
 -1      1126 0.00000E+00 3.08750E+01 0.00000E+00
 -1      1127 0.00000E+00 2.79250E+01 0.00000E+00
 -1      1128 0.00000E+00 2.49750E+01 0.00000E+00
 -1      1129 0.00000E+00 2.20250E+01 0.00000E+00
 -1      1130 0.00000E+00 1.90750E+01 0.00000E+00
 -1      1131 0.00000E+00 1.61500E+01 0.00000E+00
 -1      1132 0.00000E+00 1.32250E+01 0.00000E+00
 -1      1133 0.00000E+00 1.02750E+01 0.00000E+00
 -1      1134 0.00000E+00 7.32500E+00 0.00000E+00
 -1      1135 0.00000E+00 4.37500E+00 0.00000E+00
 -1      1136 0.00000E+00 1.45000E+00 0.00000E+00
 -1      1137 1.57500E+00 5.00000E+01 0.00000E+00
 -1      1138 4.65000E+00 5.00000E+01 0.00000E+00
 -1      1139 7.65000E+00 5.00000E+01 0.00000E+00
 -1      1140 1.06500E+01 5.00000E+01 0.00000E+00
 -1      1141 1.36500E+01 5.00000E+01 0.00000E+00
 -1      1142 1.66500E+01 5.00000E+01 0.00000E+00
 -1      1143 1.96500E+01 5.00000E+01 0.00000E+00
 -1      1144 2.26500E+01 5.00000E+01 0.00000E+00
 -1      1145 2.56500E+01 5.00000E+01 0.00000E+00
 -1      1146 2.86500E+01 5.00000E+01 0.00000E+00
 -1      1147 3.16500E+01 5.00000E+01 0.00000E+00
 -1      1148 3.46500E+01 5.00000E+01 0.00000E+00
 -1      1149 3.76500E+01 5.00000E+01 0.00000E+00
 -1      1150 4.06500E+01 5.00000E+01 0.00000E+00
 -1      1151 4.36500E+01 5.00000E+01 0.00000E+00
 -1      1152 4.66500E+01 5.00000E+01 0.00000E+00
 -1      1153 4.96500E+01 5.00000E+01 0.00000E+00
 -1      1154 5.26500E+01 5.00000E+01 0.00000E+00
 -1      1155 5.56500E+01 5.00000E+01 0.00000E+00
 -1      1156 5.86500E+01 5.00000E+01 0.00000E+00
 -1      1157 6.16500E+01 5.00000E+01 0.00000E+00
 -1      1158 6.46500E+01 5.00000E+01 0.00000E+00
 -1      1159 6.76500E+01 5.00000E+01 0.00000E+00
 -1      1160 7.06500E+01 5.00000E+01 0.00000E+00
 -1      1161 7.36500E+01 5.00000E+01 0.00000E+00
 -1      1162 7.66500E+01 5.00000E+01 0.00000E+00
 -1      1163 7.96500E+01 5.00000E+01 0.00000E+00
 -1      1164 8.26500E+01 5.00000E+01 0.00000E+00
 -1      1165 8.56500E+01 5.00000E+01 0.00000E+00
 -1      1166 8.86500E+01 5.00000E+01 0.00000E+00
 -1      1167 9.16500E+01 5.00000E+01 0.00000E+00
 -1      1168 9.46500E+01 5.00000E+01 0.00000E+00
 -1      1169 9.76500E+01 5.00000E+01 0.00000E+00
 -1      1170 1.00650E+02 5.00000E+01 0.00000E+00
 -1      1171 1.03650E+02 5.00000E+01 0.00000E+00
 -1      1172 1.06650E+02 5.00000E+01 0.00000E+00
 -1      1173 1.09650E+02 5.00000E+01 0.00000E+00
 -1      1174 1.12650E+02 5.00000E+01 0.00000E+00
 -1      1175 1.15650E+02 5.00000E+01 0.00000E+00
 -1      1176 1.18650E+02 5.00000E+01 0.00000E+00
 -1      1177 1.21650E+02 5.00000E+01 0.00000E+00
 -1      1178 1.24650E+02 5.00000E+01 0.00000E+00
 -1      1179 1.27650E+02 5.00000E+01 0.00000E+00
 -1      1180 1.30650E+02 5.00000E+01 0.00000E+00
 -1      1181 1.33650E+02 5.00000E+01 0.00000E+00
 -1      1182 1.36650E+02 5.00000E+01 0.00000E+00
 -1      1183 1.39650E+02 5.00000E+01 0.00000E+00
 -1      1184 1.42650E+02 5.00000E+01 0.00000E+00
 -1      1185 1.45650E+02 5.00000E+01 0.00000E+00
 -1      1186 1.48575E+02 5.00000E+01 0.00000E+00
 -1      1187 1.57500E+00 0.00000E+00 0.00000E+00
 -1      1188 4.65000E+00 0.00000E+00 0.00000E+00
 -1      1189 7.65000E+00 0.00000E+00 0.00000E+00
 -1      1190 1.06500E+01 0.00000E+00 0.00000E+00
 -1      1191 1.36500E+01 0.00000E+00 0.00000E+00
 -1      1192 1.66500E+01 0.00000E+00 0.00000E+00
 -1      1193 1.96500E+01 0.00000E+00 0.00000E+00
 -1      1194 2.26500E+01 0.00000E+00 0.00000E+00
 -1      1195 2.56500E+01 0.00000E+00 0.00000E+00
 -1      1196 2.86500E+01 0.00000E+00 0.00000E+00
 -1      1197 3.16500E+01 0.00000E+00 0.00000E+00
 -1      1198 3.46500E+01 0.00000E+00 0.00000E+00
 -1      1199 3.76500E+01 0.00000E+00 0.00000E+00
 -1      1200 4.06500E+01 0.00000E+00 0.00000E+00
 -1      1201 4.36500E+01 0.00000E+00 0.00000E+00
 -1      1202 4.66500E+01 0.00000E+00 0.00000E+00
 -1      1203 4.96500E+01 0.00000E+00 0.00000E+00
 -1      1204 5.26500E+01 0.00000E+00 0.00000E+00
 -1      1205 5.56500E+01 0.00000E+00 0.00000E+00
 -1      1206 5.86500E+01 0.00000E+00 0.00000E+00
 -1      1207 6.16500E+01 0.00000E+00 0.00000E+00
 -1      1208 6.46500E+01 0.00000E+00 0.00000E+00
 -1      1209 6.76500E+01 0.00000E+00 0.00000E+00
 -1      1210 7.06500E+01 0.00000E+00 0.00000E+00
 -1      1211 7.36500E+01 0.00000E+00 0.00000E+00
 -1      1212 7.66500E+01 0.00000E+00 0.00000E+00
 -1      1213 7.96500E+01 0.00000E+00 0.00000E+00
 -1      1214 8.26500E+01 0.00000E+00 0.00000E+00
 -1      1215 8.56500E+01 0.00000E+00 0.00000E+00
 -1      1216 8.86500E+01 0.00000E+00 0.00000E+00
 -1      1217 9.16500E+01 0.00000E+00 0.00000E+00
 -1      1218 9.46500E+01 0.00000E+00 0.00000E+00
 -1      1219 9.76500E+01 0.00000E+00 0.00000E+00
 -1      1220 1.00650E+02 0.00000E+00 0.00000E+00
 -1      1221 1.03650E+02 0.00000E+00 0.00000E+00
 -1      1222 1.06650E+02 0.00000E+00 0.00000E+00
 -1      1223 1.09650E+02 0.00000E+00 0.00000E+00
 -1      1224 1.12650E+02 0.00000E+00 0.00000E+00
 -1      1225 1.15650E+02 0.00000E+00 0.00000E+00
 -1      1226 1.18650E+02 0.00000E+00 0.00000E+00
 -1      1227 1.21650E+02 0.00000E+00 0.00000E+00
 -1      1228 1.24650E+02 0.00000E+00 0.00000E+00
 -1      1229 1.27650E+02 0.00000E+00 0.00000E+00
 -1      1230 1.30650E+02 0.00000E+00 0.00000E+00
 -1      1231 1.33650E+02 0.00000E+00 0.00000E+00
 -1      1232 1.36650E+02 0.00000E+00 0.00000E+00
 -1      1233 1.39650E+02 0.00000E+00 0.00000E+00
 -1      1234 1.42650E+02 0.00000E+00 0.00000E+00
 -1      1235 1.45650E+02 0.00000E+00 0.00000E+00
 -1      1236 1.48575E+02 0.00000E+00 0.00000E+00
 -1      1237 1.50000E+02 1.47500E+00 0.00000E+00
 -1      1238 1.50000E+02 4.42500E+00 0.00000E+00
 -1      1239 1.50000E+02 7.37500E+00 0.00000E+00
 -1      1240 1.50000E+02 1.03250E+01 0.00000E+00
 -1      1241 1.50000E+02 1.32750E+01 0.00000E+00
 -1      1242 1.50000E+02 1.62000E+01 0.00000E+00
 -1      1243 1.50000E+02 1.91250E+01 0.00000E+00
 -1      1244 1.50000E+02 2.20750E+01 0.00000E+00
 -1      1245 1.50000E+02 2.50250E+01 0.00000E+00
 -1      1246 1.50000E+02 2.79750E+01 0.00000E+00
 -1      1247 1.50000E+02 3.09250E+01 0.00000E+00
 -1      1248 1.50000E+02 3.38500E+01 0.00000E+00
 -1      1249 1.50000E+02 3.67750E+01 0.00000E+00
 -1      1250 1.50000E+02 3.97250E+01 0.00000E+00
 -1      1251 1.50000E+02 4.26750E+01 0.00000E+00
 -1      1252 1.50000E+02 4.56250E+01 0.00000E+00
 -1      1253 1.50000E+02 4.85500E+01 0.00000E+00
 -1      1254 1.22147E+02 2.59692E+01 0.00000E+00
 -1      1255 1.21840E+02 2.45109E+01 0.00000E+00
 -1      1256 1.21213E+02 2.31205E+01 0.00000E+00
 -1      1257 1.20343E+02 2.19461E+01 0.00000E+00
 -1      1258 1.19248E+02 2.09773E+01 0.00000E+00
 -1      1259 1.17887E+02 2.02195E+01 0.00000E+00
 -1      1260 1.16374E+02 1.97781E+01 0.00000E+00
 -1      1261 1.14878E+02 1.96827E+01 0.00000E+00
 -1      1262 1.13377E+02 1.99129E+01 0.00000E+00
 -1      1263 1.11965E+02 2.04594E+01 0.00000E+00
 -1      1264 1.10725E+02 2.12793E+01 0.00000E+00
 -1      1265 1.09672E+02 2.23600E+01 0.00000E+00
 -1      1266 1.08865E+02 2.36631E+01 0.00000E+00
 -1      1267 1.08359E+02 2.51172E+01 0.00000E+00
 -1      1268 1.08183E+02 2.66222E+01 0.00000E+00
 -1      1269 1.08338E+02 2.81405E+01 0.00000E+00
 -1      1270 1.08827E+02 2.96096E+01 0.00000E+00
 -1      1271 1.09582E+02 3.08753E+01 0.00000E+00
 -1      1272 1.10558E+02 3.19303E+01 0.00000E+00
 -1      1273 1.11789E+02 3.27983E+01 0.00000E+00
 -1      1274 1.13166E+02 3.33791E+01 0.00000E+00
 -1      1275 1.14627E+02 3.36539E+01 0.00000E+00
 -1      1276 1.16164E+02 3.36070E+01 0.00000E+00
 -1      1277 1.17658E+02 3.32237E+01 0.00000E+00
 -1      1278 1.19052E+02 3.25093E+01 0.00000E+00
 -1      1279 1.20272E+02 3.14822E+01 0.00000E+00
 -1      1280 1.21209E+02 3.02384E+01 0.00000E+00
 -1      1281 1.21837E+02 2.88482E+01 0.00000E+00
 -1      1282 1.22146E+02 2.73961E+01 0.00000E+00
 -1      1283 1.57500E+00 4.85250E+01 0.00000E+00
 -1      1284 1.29900E+00 4.48375E+01 0.00000E+00
 -1      1285 1.29900E+00 4.63125E+01 0.00000E+00
 -1      1286 1.29900E+00 4.18875E+01 0.00000E+00
 -1      1287 1.29900E+00 4.33625E+01 0.00000E+00
 -1      1288 2.59800E+00 4.41000E+01 0.00000E+00
 -1      1289 1.29900E+00 3.89375E+01 0.00000E+00
 -1      1290 1.29900E+00 4.04125E+01 0.00000E+00
 -1      1291 2.59800E+00 4.11500E+01 0.00000E+00
 -1      1292 1.29900E+00 3.59875E+01 0.00000E+00
 -1      1293 1.29900E+00 3.74625E+01 0.00000E+00
 -1      1294 2.59800E+00 3.82000E+01 0.00000E+00
 -1      1295 1.29900E+00 3.30875E+01 0.00000E+00
 -1      1296 1.29900E+00 3.45375E+01 0.00000E+00
 -1      1297 2.59800E+00 3.52750E+01 0.00000E+00
 -1      1298 1.29900E+00 3.01375E+01 0.00000E+00
 -1      1299 1.29900E+00 3.16125E+01 0.00000E+00
 -1      1300 2.59800E+00 3.23500E+01 0.00000E+00
 -1      1301 1.29900E+00 2.71875E+01 0.00000E+00
 -1      1302 1.29900E+00 2.86625E+01 0.00000E+00
 -1      1303 2.59800E+00 2.94000E+01 0.00000E+00
 -1      1304 1.29900E+00 2.42375E+01 0.00000E+00
 -1      1305 1.29900E+00 2.57125E+01 0.00000E+00
 -1      1306 2.59800E+00 2.64500E+01 0.00000E+00
 -1      1307 1.29900E+00 2.12875E+01 0.00000E+00
 -1      1308 1.29900E+00 2.27625E+01 0.00000E+00
 -1      1309 2.59800E+00 2.35000E+01 0.00000E+00
 -1      1310 1.29900E+00 1.83375E+01 0.00000E+00
 -1      1311 1.29900E+00 1.98125E+01 0.00000E+00
 -1      1312 2.59800E+00 2.05500E+01 0.00000E+00
 -1      1313 1.29900E+00 1.54375E+01 0.00000E+00
 -1      1314 1.29900E+00 1.68875E+01 0.00000E+00
 -1      1315 2.59800E+00 1.76250E+01 0.00000E+00
 -1      1316 1.29900E+00 1.24875E+01 0.00000E+00
 -1      1317 1.29900E+00 1.39625E+01 0.00000E+00
 -1      1318 2.59800E+00 1.47000E+01 0.00000E+00
 -1      1319 1.29900E+00 9.53750E+00 0.00000E+00
 -1      1320 1.29900E+00 1.10125E+01 0.00000E+00
 -1      1321 2.59800E+00 1.17500E+01 0.00000E+00
 -1      1322 1.29900E+00 6.58750E+00 0.00000E+00
 -1      1323 1.29900E+00 8.06250E+00 0.00000E+00
 -1      1324 2.59800E+00 8.80000E+00 0.00000E+00
 -1      1325 1.29900E+00 3.63750E+00 0.00000E+00
 -1      1326 1.29900E+00 5.11250E+00 0.00000E+00
 -1      1327 2.59800E+00 5.85000E+00 0.00000E+00
 -1      1328 1.43700E+00 1.09375E+00 0.00000E+00
 -1      1329 1.43700E+00 2.54375E+00 0.00000E+00
 -1      1330 2.73600E+00 3.28125E+00 0.00000E+00
 -1      1331 3.01200E+00 1.09375E+00 0.00000E+00
 -1      1332 3.90000E+00 4.87010E+01 0.00000E+00
 -1      1333 5.40000E+00 4.87010E+01 0.00000E+00
 -1      1334 6.90000E+00 4.87010E+01 0.00000E+00
 -1      1335 8.40000E+00 4.87010E+01 0.00000E+00
 -1      1336 6.15000E+00 4.74020E+01 0.00000E+00
 -1      1337 9.90000E+00 4.87010E+01 0.00000E+00
 -1      1338 1.14000E+01 4.87010E+01 0.00000E+00
 -1      1339 9.15000E+00 4.74020E+01 0.00000E+00
 -1      1340 1.29000E+01 4.87010E+01 0.00000E+00
 -1      1341 1.44000E+01 4.87010E+01 0.00000E+00
 -1      1342 1.21500E+01 4.74020E+01 0.00000E+00
 -1      1343 1.59000E+01 4.87010E+01 0.00000E+00
 -1      1344 1.74000E+01 4.87010E+01 0.00000E+00
 -1      1345 1.51500E+01 4.74020E+01 0.00000E+00
 -1      1346 1.89000E+01 4.87010E+01 0.00000E+00
 -1      1347 2.04000E+01 4.87010E+01 0.00000E+00
 -1      1348 1.81500E+01 4.74020E+01 0.00000E+00
 -1      1349 2.19000E+01 4.87010E+01 0.00000E+00
 -1      1350 2.34000E+01 4.87010E+01 0.00000E+00
 -1      1351 2.11500E+01 4.74020E+01 0.00000E+00
 -1      1352 2.49000E+01 4.87010E+01 0.00000E+00
 -1      1353 2.64000E+01 4.87010E+01 0.00000E+00
 -1      1354 2.41500E+01 4.74020E+01 0.00000E+00
 -1      1355 2.79000E+01 4.87010E+01 0.00000E+00
 -1      1356 2.94000E+01 4.87010E+01 0.00000E+00
 -1      1357 2.71500E+01 4.74020E+01 0.00000E+00
 -1      1358 3.09000E+01 4.87010E+01 0.00000E+00
 -1      1359 3.24000E+01 4.87010E+01 0.00000E+00
 -1      1360 3.01500E+01 4.74020E+01 0.00000E+00
 -1      1361 3.39000E+01 4.87010E+01 0.00000E+00
 -1      1362 3.54000E+01 4.87010E+01 0.00000E+00
 -1      1363 3.31500E+01 4.74020E+01 0.00000E+00
 -1      1364 3.69000E+01 4.87010E+01 0.00000E+00
 -1      1365 3.84000E+01 4.87010E+01 0.00000E+00
 -1      1366 3.61500E+01 4.74020E+01 0.00000E+00
 -1      1367 3.99000E+01 4.87010E+01 0.00000E+00
 -1      1368 4.14000E+01 4.87010E+01 0.00000E+00
 -1      1369 3.91500E+01 4.74020E+01 0.00000E+00
 -1      1370 4.29000E+01 4.87010E+01 0.00000E+00
 -1      1371 4.44000E+01 4.87010E+01 0.00000E+00
 -1      1372 4.21500E+01 4.74020E+01 0.00000E+00
 -1      1373 4.59000E+01 4.87010E+01 0.00000E+00
 -1      1374 4.74000E+01 4.87010E+01 0.00000E+00
 -1      1375 4.51500E+01 4.74020E+01 0.00000E+00
 -1      1376 4.89000E+01 4.87010E+01 0.00000E+00
 -1      1377 5.04000E+01 4.87010E+01 0.00000E+00
 -1      1378 4.81500E+01 4.74020E+01 0.00000E+00
 -1      1379 5.19000E+01 4.87010E+01 0.00000E+00
 -1      1380 5.34000E+01 4.87010E+01 0.00000E+00
 -1      1381 5.11500E+01 4.74020E+01 0.00000E+00
 -1      1382 5.49000E+01 4.87010E+01 0.00000E+00
 -1      1383 5.64000E+01 4.87010E+01 0.00000E+00
 -1      1384 5.41500E+01 4.74020E+01 0.00000E+00
 -1      1385 5.79000E+01 4.87010E+01 0.00000E+00
 -1      1386 5.94000E+01 4.87010E+01 0.00000E+00
 -1      1387 5.71500E+01 4.74020E+01 0.00000E+00
 -1      1388 6.09000E+01 4.87010E+01 0.00000E+00
 -1      1389 6.24000E+01 4.87010E+01 0.00000E+00
 -1      1390 6.01500E+01 4.74020E+01 0.00000E+00
 -1      1391 6.39000E+01 4.87010E+01 0.00000E+00
 -1      1392 6.54000E+01 4.87010E+01 0.00000E+00
 -1      1393 6.31500E+01 4.74020E+01 0.00000E+00
 -1      1394 6.69000E+01 4.87010E+01 0.00000E+00
 -1      1395 6.84000E+01 4.87010E+01 0.00000E+00
 -1      1396 6.61500E+01 4.74020E+01 0.00000E+00
 -1      1397 6.99000E+01 4.87010E+01 0.00000E+00
 -1      1398 7.14000E+01 4.87010E+01 0.00000E+00
 -1      1399 6.91500E+01 4.74020E+01 0.00000E+00
 -1      1400 7.29000E+01 4.87010E+01 0.00000E+00
 -1      1401 7.44000E+01 4.87010E+01 0.00000E+00
 -1      1402 7.21500E+01 4.74020E+01 0.00000E+00
 -1      1403 7.59000E+01 4.87010E+01 0.00000E+00
 -1      1404 7.74000E+01 4.87010E+01 0.00000E+00
 -1      1405 7.51500E+01 4.74020E+01 0.00000E+00
 -1      1406 7.89000E+01 4.87010E+01 0.00000E+00
 -1      1407 8.04000E+01 4.87010E+01 0.00000E+00
 -1      1408 7.81500E+01 4.74020E+01 0.00000E+00
 -1      1409 8.19000E+01 4.87010E+01 0.00000E+00
 -1      1410 8.34000E+01 4.87010E+01 0.00000E+00
 -1      1411 8.11500E+01 4.74020E+01 0.00000E+00
 -1      1412 8.49000E+01 4.87010E+01 0.00000E+00
 -1      1413 8.64000E+01 4.87010E+01 0.00000E+00
 -1      1414 8.41500E+01 4.74020E+01 0.00000E+00
 -1      1415 8.79000E+01 4.87010E+01 0.00000E+00
 -1      1416 8.94000E+01 4.87010E+01 0.00000E+00
 -1      1417 8.71500E+01 4.74020E+01 0.00000E+00
 -1      1418 9.09000E+01 4.87010E+01 0.00000E+00
 -1      1419 9.24000E+01 4.87010E+01 0.00000E+00
 -1      1420 9.01500E+01 4.74020E+01 0.00000E+00
 -1      1421 9.39000E+01 4.87010E+01 0.00000E+00
 -1      1422 9.54000E+01 4.87010E+01 0.00000E+00
 -1      1423 9.31500E+01 4.74020E+01 0.00000E+00
 -1      1424 9.69000E+01 4.87010E+01 0.00000E+00
 -1      1425 9.84000E+01 4.87010E+01 0.00000E+00
 -1      1426 9.61500E+01 4.74020E+01 0.00000E+00
 -1      1427 9.99000E+01 4.87010E+01 0.00000E+00
 -1      1428 1.01400E+02 4.87010E+01 0.00000E+00
 -1      1429 9.91500E+01 4.74020E+01 0.00000E+00
 -1      1430 1.02900E+02 4.87010E+01 0.00000E+00
 -1      1431 1.04400E+02 4.87010E+01 0.00000E+00
 -1      1432 1.02150E+02 4.74020E+01 0.00000E+00
 -1      1433 1.05900E+02 4.87010E+01 0.00000E+00
 -1      1434 1.07400E+02 4.87010E+01 0.00000E+00
 -1      1435 1.05150E+02 4.74020E+01 0.00000E+00
 -1      1436 1.08900E+02 4.87010E+01 0.00000E+00
 -1      1437 1.10400E+02 4.87010E+01 0.00000E+00
 -1      1438 1.08150E+02 4.74020E+01 0.00000E+00
 -1      1439 1.11900E+02 4.87010E+01 0.00000E+00
 -1      1440 1.13400E+02 4.87010E+01 0.00000E+00
 -1      1441 1.11150E+02 4.74020E+01 0.00000E+00
 -1      1442 1.14900E+02 4.87010E+01 0.00000E+00
 -1      1443 1.16400E+02 4.87010E+01 0.00000E+00
 -1      1444 1.14150E+02 4.74020E+01 0.00000E+00
 -1      1445 1.17900E+02 4.87010E+01 0.00000E+00
 -1      1446 1.19400E+02 4.87010E+01 0.00000E+00
 -1      1447 1.17150E+02 4.74020E+01 0.00000E+00
 -1      1448 1.20900E+02 4.87010E+01 0.00000E+00
 -1      1449 1.22400E+02 4.87010E+01 0.00000E+00
 -1      1450 1.20150E+02 4.74020E+01 0.00000E+00
 -1      1451 1.23900E+02 4.87010E+01 0.00000E+00
 -1      1452 1.25400E+02 4.87010E+01 0.00000E+00
 -1      1453 1.23150E+02 4.74020E+01 0.00000E+00
 -1      1454 1.26900E+02 4.87010E+01 0.00000E+00
 -1      1455 1.28400E+02 4.87010E+01 0.00000E+00
 -1      1456 1.26150E+02 4.74020E+01 0.00000E+00
 -1      1457 1.29900E+02 4.87010E+01 0.00000E+00
 -1      1458 1.31400E+02 4.87010E+01 0.00000E+00
 -1      1459 1.29150E+02 4.74020E+01 0.00000E+00
 -1      1460 1.32900E+02 4.87010E+01 0.00000E+00
 -1      1461 1.34400E+02 4.87010E+01 0.00000E+00
 -1      1462 1.32150E+02 4.74020E+01 0.00000E+00
 -1      1463 1.35900E+02 4.87010E+01 0.00000E+00
 -1      1464 1.37400E+02 4.87010E+01 0.00000E+00
 -1      1465 1.35150E+02 4.74020E+01 0.00000E+00
 -1      1466 1.38900E+02 4.87010E+01 0.00000E+00
 -1      1467 1.40400E+02 4.87010E+01 0.00000E+00
 -1      1468 1.38150E+02 4.74020E+01 0.00000E+00
 -1      1469 1.41900E+02 4.87010E+01 0.00000E+00
 -1      1470 1.43400E+02 4.87010E+01 0.00000E+00
 -1      1471 1.41150E+02 4.74020E+01 0.00000E+00
 -1      1472 1.44900E+02 4.87010E+01 0.00000E+00
 -1      1473 1.46400E+02 4.87010E+01 0.00000E+00
 -1      1474 1.44150E+02 4.74020E+01 0.00000E+00
 -1      1475 1.48575E+02 4.85500E+01 0.00000E+00
 -1      1476 1.47825E+02 4.72510E+01 0.00000E+00
 -1      1477 6.01200E+00 1.09375E+00 0.00000E+00
 -1      1478 4.51200E+00 1.09375E+00 0.00000E+00
 -1      1479 4.37400E+00 2.18750E+00 0.00000E+00
 -1      1480 9.01200E+00 1.09375E+00 0.00000E+00
 -1      1481 7.51200E+00 1.09375E+00 0.00000E+00
 -1      1482 7.37400E+00 2.18750E+00 0.00000E+00
 -1      1483 1.20120E+01 1.09375E+00 0.00000E+00
 -1      1484 1.05120E+01 1.09375E+00 0.00000E+00
 -1      1485 1.03740E+01 2.18750E+00 0.00000E+00
 -1      1486 1.50120E+01 1.09375E+00 0.00000E+00
 -1      1487 1.35120E+01 1.09375E+00 0.00000E+00
 -1      1488 1.33740E+01 2.18750E+00 0.00000E+00
 -1      1489 1.80120E+01 1.09375E+00 0.00000E+00
 -1      1490 1.65120E+01 1.09375E+00 0.00000E+00
 -1      1491 1.63740E+01 2.18750E+00 0.00000E+00
 -1      1492 2.10120E+01 1.09375E+00 0.00000E+00
 -1      1493 1.95120E+01 1.09375E+00 0.00000E+00
 -1      1494 1.93740E+01 2.18750E+00 0.00000E+00
 -1      1495 2.40120E+01 1.09375E+00 0.00000E+00
 -1      1496 2.25120E+01 1.09375E+00 0.00000E+00
 -1      1497 2.23740E+01 2.18750E+00 0.00000E+00
 -1      1498 2.70120E+01 1.09375E+00 0.00000E+00
 -1      1499 2.55120E+01 1.09375E+00 0.00000E+00
 -1      1500 2.53740E+01 2.18750E+00 0.00000E+00
 -1      1501 3.00120E+01 1.09375E+00 0.00000E+00
 -1      1502 2.85120E+01 1.09375E+00 0.00000E+00
 -1      1503 2.83740E+01 2.18750E+00 0.00000E+00
 -1      1504 3.30120E+01 1.09375E+00 0.00000E+00
 -1      1505 3.15120E+01 1.09375E+00 0.00000E+00
 -1      1506 3.13740E+01 2.18750E+00 0.00000E+00
 -1      1507 3.60120E+01 1.09375E+00 0.00000E+00
 -1      1508 3.45120E+01 1.09375E+00 0.00000E+00
 -1      1509 3.43740E+01 2.18750E+00 0.00000E+00
 -1      1510 3.90120E+01 1.09375E+00 0.00000E+00
 -1      1511 3.75120E+01 1.09375E+00 0.00000E+00
 -1      1512 3.73740E+01 2.18750E+00 0.00000E+00
 -1      1513 4.20120E+01 1.09375E+00 0.00000E+00
 -1      1514 4.05120E+01 1.09375E+00 0.00000E+00
 -1      1515 4.03740E+01 2.18750E+00 0.00000E+00
 -1      1516 4.50120E+01 1.09375E+00 0.00000E+00
 -1      1517 4.35120E+01 1.09375E+00 0.00000E+00
 -1      1518 4.33740E+01 2.18750E+00 0.00000E+00
 -1      1519 4.80120E+01 1.09375E+00 0.00000E+00
 -1      1520 4.65120E+01 1.09375E+00 0.00000E+00
 -1      1521 4.63740E+01 2.18750E+00 0.00000E+00
 -1      1522 5.10120E+01 1.09375E+00 0.00000E+00
 -1      1523 4.95120E+01 1.09375E+00 0.00000E+00
 -1      1524 4.93740E+01 2.18750E+00 0.00000E+00
 -1      1525 5.40120E+01 1.09375E+00 0.00000E+00
 -1      1526 5.25120E+01 1.09375E+00 0.00000E+00
 -1      1527 5.23740E+01 2.18750E+00 0.00000E+00
 -1      1528 5.70120E+01 1.09375E+00 0.00000E+00
 -1      1529 5.55120E+01 1.09375E+00 0.00000E+00
 -1      1530 5.53740E+01 2.18750E+00 0.00000E+00
 -1      1531 6.00120E+01 1.09375E+00 0.00000E+00
 -1      1532 5.85120E+01 1.09375E+00 0.00000E+00
 -1      1533 5.83740E+01 2.18750E+00 0.00000E+00
 -1      1534 6.30120E+01 1.09375E+00 0.00000E+00
 -1      1535 6.15120E+01 1.09375E+00 0.00000E+00
 -1      1536 6.13740E+01 2.18750E+00 0.00000E+00
 -1      1537 6.60120E+01 1.09375E+00 0.00000E+00
 -1      1538 6.45120E+01 1.09375E+00 0.00000E+00
 -1      1539 6.43740E+01 2.18750E+00 0.00000E+00
 -1      1540 6.90120E+01 1.09375E+00 0.00000E+00
 -1      1541 6.75120E+01 1.09375E+00 0.00000E+00
 -1      1542 6.73740E+01 2.18750E+00 0.00000E+00
 -1      1543 7.20120E+01 1.09375E+00 0.00000E+00
 -1      1544 7.05120E+01 1.09375E+00 0.00000E+00
 -1      1545 7.03740E+01 2.18750E+00 0.00000E+00
 -1      1546 7.50120E+01 1.09375E+00 0.00000E+00
 -1      1547 7.35120E+01 1.09375E+00 0.00000E+00
 -1      1548 7.33740E+01 2.18750E+00 0.00000E+00
 -1      1549 7.80120E+01 1.09375E+00 0.00000E+00
 -1      1550 7.65120E+01 1.09375E+00 0.00000E+00
 -1      1551 7.63740E+01 2.18750E+00 0.00000E+00
 -1      1552 8.10120E+01 1.09375E+00 0.00000E+00
 -1      1553 7.95120E+01 1.09375E+00 0.00000E+00
 -1      1554 7.93740E+01 2.18750E+00 0.00000E+00
 -1      1555 8.40120E+01 1.09375E+00 0.00000E+00
 -1      1556 8.25120E+01 1.09375E+00 0.00000E+00
 -1      1557 8.23740E+01 2.18750E+00 0.00000E+00
 -1      1558 8.70120E+01 1.09375E+00 0.00000E+00
 -1      1559 8.55120E+01 1.09375E+00 0.00000E+00
 -1      1560 8.53740E+01 2.18750E+00 0.00000E+00
 -1      1561 9.00120E+01 1.09375E+00 0.00000E+00
 -1      1562 8.85120E+01 1.09375E+00 0.00000E+00
 -1      1563 8.83740E+01 2.18750E+00 0.00000E+00
 -1      1564 9.30120E+01 1.09375E+00 0.00000E+00
 -1      1565 9.15120E+01 1.09375E+00 0.00000E+00
 -1      1566 9.13740E+01 2.18750E+00 0.00000E+00
 -1      1567 9.60120E+01 1.09375E+00 0.00000E+00
 -1      1568 9.45120E+01 1.09375E+00 0.00000E+00
 -1      1569 9.43740E+01 2.18750E+00 0.00000E+00
 -1      1570 9.90120E+01 1.09375E+00 0.00000E+00
 -1      1571 9.75120E+01 1.09375E+00 0.00000E+00
 -1      1572 9.73740E+01 2.18750E+00 0.00000E+00
 -1      1573 1.02012E+02 1.09375E+00 0.00000E+00
 -1      1574 1.00512E+02 1.09375E+00 0.00000E+00
 -1      1575 1.00374E+02 2.18750E+00 0.00000E+00
 -1      1576 1.05012E+02 1.09375E+00 0.00000E+00
 -1      1577 1.03512E+02 1.09375E+00 0.00000E+00
 -1      1578 1.03374E+02 2.18750E+00 0.00000E+00
 -1      1579 1.08012E+02 1.09375E+00 0.00000E+00
 -1      1580 1.06512E+02 1.09375E+00 0.00000E+00
 -1      1581 1.06374E+02 2.18750E+00 0.00000E+00
 -1      1582 1.11012E+02 1.09375E+00 0.00000E+00
 -1      1583 1.09512E+02 1.09375E+00 0.00000E+00
 -1      1584 1.09374E+02 2.18750E+00 0.00000E+00
 -1      1585 1.14012E+02 1.09375E+00 0.00000E+00
 -1      1586 1.12512E+02 1.09375E+00 0.00000E+00
 -1      1587 1.12374E+02 2.18750E+00 0.00000E+00
 -1      1588 1.17012E+02 1.09375E+00 0.00000E+00
 -1      1589 1.15512E+02 1.09375E+00 0.00000E+00
 -1      1590 1.15374E+02 2.18750E+00 0.00000E+00
 -1      1591 1.20012E+02 1.09375E+00 0.00000E+00
 -1      1592 1.18512E+02 1.09375E+00 0.00000E+00
 -1      1593 1.18374E+02 2.18750E+00 0.00000E+00
 -1      1594 1.23012E+02 1.09375E+00 0.00000E+00
 -1      1595 1.21512E+02 1.09375E+00 0.00000E+00
 -1      1596 1.21374E+02 2.18750E+00 0.00000E+00
 -1      1597 1.26012E+02 1.09375E+00 0.00000E+00
 -1      1598 1.24512E+02 1.09375E+00 0.00000E+00
 -1      1599 1.24374E+02 2.18750E+00 0.00000E+00
 -1      1600 1.29012E+02 1.09375E+00 0.00000E+00
 -1      1601 1.27512E+02 1.09375E+00 0.00000E+00
 -1      1602 1.27374E+02 2.18750E+00 0.00000E+00
 -1      1603 1.32012E+02 1.09375E+00 0.00000E+00
 -1      1604 1.30512E+02 1.09375E+00 0.00000E+00
 -1      1605 1.30374E+02 2.18750E+00 0.00000E+00
 -1      1606 1.35012E+02 1.09375E+00 0.00000E+00
 -1      1607 1.33512E+02 1.09375E+00 0.00000E+00
 -1      1608 1.33374E+02 2.18750E+00 0.00000E+00
 -1      1609 1.38012E+02 1.09375E+00 0.00000E+00
 -1      1610 1.36512E+02 1.09375E+00 0.00000E+00
 -1      1611 1.36374E+02 2.18750E+00 0.00000E+00
 -1      1612 1.41012E+02 1.09375E+00 0.00000E+00
 -1      1613 1.39512E+02 1.09375E+00 0.00000E+00
 -1      1614 1.39374E+02 2.18750E+00 0.00000E+00
 -1      1615 1.44012E+02 1.09375E+00 0.00000E+00
 -1      1616 1.42512E+02 1.09375E+00 0.00000E+00
 -1      1617 1.42374E+02 2.18750E+00 0.00000E+00
 -1      1618 1.47012E+02 1.09375E+00 0.00000E+00
 -1      1619 1.45512E+02 1.09375E+00 0.00000E+00
 -1      1620 1.45374E+02 2.18750E+00 0.00000E+00
 -1      1621 1.48575E+02 1.47500E+00 0.00000E+00
 -1      1622 1.48701E+02 5.16250E+00 0.00000E+00
 -1      1623 1.48701E+02 3.68750E+00 0.00000E+00
 -1      1624 1.48701E+02 8.11250E+00 0.00000E+00
 -1      1625 1.48701E+02 6.63750E+00 0.00000E+00
 -1      1626 1.47402E+02 5.90000E+00 0.00000E+00
 -1      1627 1.48701E+02 1.10625E+01 0.00000E+00
 -1      1628 1.48701E+02 9.58750E+00 0.00000E+00
 -1      1629 1.47402E+02 8.85000E+00 0.00000E+00
 -1      1630 1.48701E+02 1.40125E+01 0.00000E+00
 -1      1631 1.48701E+02 1.25375E+01 0.00000E+00
 -1      1632 1.47402E+02 1.18000E+01 0.00000E+00
 -1      1633 1.48701E+02 1.69125E+01 0.00000E+00
 -1      1634 1.48701E+02 1.54625E+01 0.00000E+00
 -1      1635 1.47402E+02 1.47250E+01 0.00000E+00
 -1      1636 1.48701E+02 1.98625E+01 0.00000E+00
 -1      1637 1.48701E+02 1.83875E+01 0.00000E+00
 -1      1638 1.47402E+02 1.76500E+01 0.00000E+00
 -1      1639 1.48701E+02 2.28125E+01 0.00000E+00
 -1      1640 1.48701E+02 2.13375E+01 0.00000E+00
 -1      1641 1.47402E+02 2.06000E+01 0.00000E+00
 -1      1642 1.48701E+02 2.57625E+01 0.00000E+00
 -1      1643 1.48701E+02 2.42875E+01 0.00000E+00
 -1      1644 1.47402E+02 2.35500E+01 0.00000E+00
 -1      1645 1.48701E+02 2.87125E+01 0.00000E+00
 -1      1646 1.48701E+02 2.72375E+01 0.00000E+00
 -1      1647 1.47402E+02 2.65000E+01 0.00000E+00
 -1      1648 1.48701E+02 3.16625E+01 0.00000E+00
 -1      1649 1.48701E+02 3.01875E+01 0.00000E+00
 -1      1650 1.47402E+02 2.94500E+01 0.00000E+00
 -1      1651 1.48701E+02 3.45625E+01 0.00000E+00
 -1      1652 1.48701E+02 3.31125E+01 0.00000E+00
 -1      1653 1.47402E+02 3.23750E+01 0.00000E+00
 -1      1654 1.48701E+02 3.75125E+01 0.00000E+00
 -1      1655 1.48701E+02 3.60375E+01 0.00000E+00
 -1      1656 1.47402E+02 3.53000E+01 0.00000E+00
 -1      1657 1.48701E+02 4.04625E+01 0.00000E+00
 -1      1658 1.48701E+02 3.89875E+01 0.00000E+00
 -1      1659 1.47402E+02 3.82500E+01 0.00000E+00
 -1      1660 1.48701E+02 4.34125E+01 0.00000E+00
 -1      1661 1.48701E+02 4.19375E+01 0.00000E+00
 -1      1662 1.47402E+02 4.12000E+01 0.00000E+00
 -1      1663 1.48263E+02 4.60692E+01 0.00000E+00
 -1      1664 1.48263E+02 4.45942E+01 0.00000E+00
 -1      1665 1.46964E+02 4.38568E+01 0.00000E+00
 -1      1666 1.46088E+02 4.62202E+01 0.00000E+00
 -1      1667 1.22679E+02 2.55599E+01 0.00000E+00
 -1      1668 1.22750E+02 2.62632E+01 0.00000E+00
 -1      1669 1.22333E+02 2.39386E+01 0.00000E+00
 -1      1670 1.22575E+02 2.46836E+01 0.00000E+00
 -1      1671 1.21513E+02 2.25131E+01 0.00000E+00
 -1      1672 1.21889E+02 2.31522E+01 0.00000E+00
 -1      1673 1.20520E+02 2.12964E+01 0.00000E+00
 -1      1674 1.21006E+02 2.18267E+01 0.00000E+00
 -1      1675 1.19324E+02 2.02321E+01 0.00000E+00
 -1      1676 1.19928E+02 2.06634E+01 0.00000E+00
 -1      1677 1.17792E+02 1.93923E+01 0.00000E+00
 -1      1678 1.18544E+02 1.97071E+01 0.00000E+00
 -1      1679 1.16095E+02 1.91569E+01 0.00000E+00
 -1      1680 1.16845E+02 1.92865E+01 0.00000E+00
 -1      1681 1.14485E+02 1.91321E+01 0.00000E+00
 -1      1682 1.15222E+02 1.91000E+01 0.00000E+00
 -1      1683 1.12845E+02 1.94296E+01 0.00000E+00
 -1      1684 1.13598E+02 1.92283E+01 0.00000E+00
 -1      1685 1.11379E+02 2.01239E+01 0.00000E+00
 -1      1686 1.12030E+02 1.97866E+01 0.00000E+00
 -1      1687 1.10074E+02 2.10831E+01 0.00000E+00
 -1      1688 1.10655E+02 2.06034E+01 0.00000E+00
 -1      1689 1.08994E+02 2.23089E+01 0.00000E+00
 -1      1690 1.09460E+02 2.17140E+01 0.00000E+00
 -1      1691 1.08114E+02 2.37356E+01 0.00000E+00
 -1      1692 1.08448E+02 2.30340E+01 0.00000E+00
 -1      1693 1.07683E+02 2.53537E+01 0.00000E+00
 -1      1694 1.07852E+02 2.46106E+01 0.00000E+00
 -1      1695 1.07615E+02 2.69943E+01 0.00000E+00
 -1      1696 1.07621E+02 2.62414E+01 0.00000E+00
 -1      1697 1.07868E+02 2.86364E+01 0.00000E+00
 -1      1698 1.07706E+02 2.78803E+01 0.00000E+00
 -1      1699 1.08402E+02 3.02327E+01 0.00000E+00
 -1      1700 1.08078E+02 2.95288E+01 0.00000E+00
 -1      1701 1.09301E+02 3.15225E+01 0.00000E+00
 -1      1702 1.08882E+02 3.09637E+01 0.00000E+00
 -1      1703 1.10377E+02 3.26943E+01 0.00000E+00
 -1      1704 1.09823E+02 3.22064E+01 0.00000E+00
 -1      1705 1.11831E+02 3.35144E+01 0.00000E+00
 -1      1706 1.11160E+02 3.31419E+01 0.00000E+00
 -1      1707 1.13349E+02 3.40280E+01 0.00000E+00
 -1      1708 1.12654E+02 3.38189E+01 0.00000E+00
 -1      1709 1.14958E+02 3.42888E+01 0.00000E+00
 -1      1710 1.14199E+02 3.42283E+01 0.00000E+00
 -1      1711 1.16638E+02 3.41931E+01 0.00000E+00
 -1      1712 1.15870E+02 3.43018E+01 0.00000E+00
 -1      1713 1.18232E+02 3.36548E+01 0.00000E+00
 -1      1714 1.17514E+02 3.39262E+01 0.00000E+00
 -1      1715 1.19765E+02 3.28602E+01 0.00000E+00
 -1      1716 1.19099E+02 3.33020E+01 0.00000E+00
 -1      1717 1.21014E+02 3.16356E+01 0.00000E+00
 -1      1718 1.20468E+02 3.22140E+01 0.00000E+00
 -1      1719 1.21925E+02 3.02194E+01 0.00000E+00
 -1      1720 1.21537E+02 3.08748E+01 0.00000E+00
 -1      1721 1.22493E+02 2.86600E+01 0.00000E+00
 -1      1722 1.22255E+02 2.93866E+01 0.00000E+00
 -1      1723 1.22749E+02 2.70965E+01 0.00000E+00
 -1      1724 1.22675E+02 2.78128E+01 0.00000E+00
 -1      1725 1.20618E+02 2.05190E+01 0.00000E+00
 -1      1726 1.21716E+02 2.18383E+01 0.00000E+00
 -1      1727 1.48437E+02 2.56875E+00 0.00000E+00
 -1      1728 1.47138E+02 3.30625E+00 0.00000E+00
 -1      1729 1.23214E+02 2.49740E+01 0.00000E+00
 -1      1730 1.22667E+02 2.33112E+01 0.00000E+00
 -1      1731 1.23316E+02 2.66837E+01 0.00000E+00
 -1      1732 1.19247E+02 1.93610E+01 0.00000E+00
 -1      1733 1.17520E+02 1.87302E+01 0.00000E+00
 -1      1734 1.15700E+02 1.85674E+01 0.00000E+00
 -1      1735 1.13941E+02 1.86066E+01 0.00000E+00
 -1      1736 1.12240E+02 1.90598E+01 0.00000E+00
 -1      1737 1.10702E+02 1.98964E+01 0.00000E+00
 -1      1738 1.09364E+02 2.10068E+01 0.00000E+00
 -1      1739 1.08204E+02 2.23628E+01 0.00000E+00
 -1      1740 1.07397E+02 2.39628E+01 0.00000E+00
 -1      1741 1.07074E+02 2.57255E+01 0.00000E+00
 -1      1742 1.07103E+02 2.74992E+01 0.00000E+00
 -1      1743 1.07404E+02 2.92775E+01 0.00000E+00
 -1      1744 1.08093E+02 3.09009E+01 0.00000E+00
 -1      1745 1.09095E+02 3.23158E+01 0.00000E+00
 -1      1746 1.10399E+02 3.34473E+01 0.00000E+00
 -1      1747 1.12004E+02 3.41994E+01 0.00000E+00
 -1      1748 1.13677E+02 3.47043E+01 0.00000E+00
 -1      1749 1.15439E+02 3.49176E+01 0.00000E+00
 -1      1750 1.17226E+02 3.46637E+01 0.00000E+00
 -1      1751 1.18969E+02 3.40438E+01 0.00000E+00
 -1      1752 1.20539E+02 3.30448E+01 0.00000E+00
 -1      1753 1.21766E+02 3.16377E+01 0.00000E+00
 -1      1754 1.22620E+02 3.00442E+01 0.00000E+00
 -1      1755 1.23133E+02 2.83642E+01 0.00000E+00
 -1      1756 2.87400E+00 4.77875E+01 0.00000E+00
 -1      1757 3.89700E+00 4.04125E+01 0.00000E+00
 -1      1758 3.89700E+00 4.18875E+01 0.00000E+00
 -1      1759 3.89700E+00 4.33625E+01 0.00000E+00
 -1      1760 3.89700E+00 4.48375E+01 0.00000E+00
 -1      1761 5.19600E+00 4.26250E+01 0.00000E+00
 -1      1762 3.89700E+00 3.45500E+01 0.00000E+00
 -1      1763 3.89700E+00 3.60000E+01 0.00000E+00
 -1      1764 3.89700E+00 3.16000E+01 0.00000E+00
 -1      1765 3.89700E+00 3.30750E+01 0.00000E+00
 -1      1766 5.19600E+00 3.38000E+01 0.00000E+00
 -1      1767 3.89700E+00 2.86500E+01 0.00000E+00
 -1      1768 3.89700E+00 3.01250E+01 0.00000E+00
 -1      1769 5.19600E+00 3.08500E+01 0.00000E+00
 -1      1770 3.89700E+00 2.57000E+01 0.00000E+00
 -1      1771 3.89700E+00 2.71750E+01 0.00000E+00
 -1      1772 5.19600E+00 2.79000E+01 0.00000E+00
 -1      1773 3.89700E+00 2.27500E+01 0.00000E+00
 -1      1774 3.89700E+00 2.42250E+01 0.00000E+00
 -1      1775 5.19600E+00 2.49500E+01 0.00000E+00
 -1      1776 3.89700E+00 1.98000E+01 0.00000E+00
 -1      1777 3.89700E+00 2.12750E+01 0.00000E+00
 -1      1778 5.19600E+00 2.20000E+01 0.00000E+00
 -1      1779 3.89700E+00 1.69000E+01 0.00000E+00
 -1      1780 3.89700E+00 1.83500E+01 0.00000E+00
 -1      1781 5.19600E+00 1.90750E+01 0.00000E+00
 -1      1782 3.89700E+00 1.39500E+01 0.00000E+00
 -1      1783 3.89700E+00 1.54250E+01 0.00000E+00
 -1      1784 5.19600E+00 1.61500E+01 0.00000E+00
 -1      1785 3.89700E+00 1.10000E+01 0.00000E+00
 -1      1786 3.89700E+00 1.24750E+01 0.00000E+00
 -1      1787 5.19600E+00 1.32000E+01 0.00000E+00
 -1      1788 3.89700E+00 8.05000E+00 0.00000E+00
 -1      1789 3.89700E+00 9.52500E+00 0.00000E+00
 -1      1790 5.19600E+00 1.02500E+01 0.00000E+00
 -1      1791 3.89700E+00 5.10000E+00 0.00000E+00
 -1      1792 3.89700E+00 6.57500E+00 0.00000E+00
 -1      1793 5.19600E+00 7.30000E+00 0.00000E+00
 -1      1794 4.20450E+00 3.09687E+00 0.00000E+00
 -1      1795 4.06650E+00 4.19063E+00 0.00000E+00
 -1      1796 5.36550E+00 4.91563E+00 0.00000E+00
 -1      1797 5.70450E+00 3.09687E+00 0.00000E+00
 -1      1798 3.62400E+00 4.64885E+01 0.00000E+00
 -1      1799 8.70450E+00 3.09687E+00 0.00000E+00
 -1      1800 7.20450E+00 3.09687E+00 0.00000E+00
 -1      1801 7.03500E+00 4.00625E+00 0.00000E+00
 -1      1802 4.92300E+00 4.57510E+01 0.00000E+00
 -1      1803 8.40000E+00 4.61030E+01 0.00000E+00
 -1      1804 9.90000E+00 4.61030E+01 0.00000E+00
 -1      1805 1.14000E+01 4.61030E+01 0.00000E+00
 -1      1806 1.29000E+01 4.61030E+01 0.00000E+00
 -1      1807 1.06500E+01 4.48040E+01 0.00000E+00
 -1      1808 1.44000E+01 4.61030E+01 0.00000E+00
 -1      1809 1.59000E+01 4.61030E+01 0.00000E+00
 -1      1810 1.36500E+01 4.48040E+01 0.00000E+00
 -1      1811 1.74000E+01 4.61030E+01 0.00000E+00
 -1      1812 1.89000E+01 4.61030E+01 0.00000E+00
 -1      1813 1.66500E+01 4.48040E+01 0.00000E+00
 -1      1814 2.04000E+01 4.61030E+01 0.00000E+00
 -1      1815 2.19000E+01 4.61030E+01 0.00000E+00
 -1      1816 1.96500E+01 4.48040E+01 0.00000E+00
 -1      1817 2.34000E+01 4.61030E+01 0.00000E+00
 -1      1818 2.49000E+01 4.61030E+01 0.00000E+00
 -1      1819 2.26500E+01 4.48040E+01 0.00000E+00
 -1      1820 2.64000E+01 4.61030E+01 0.00000E+00
 -1      1821 2.79000E+01 4.61030E+01 0.00000E+00
 -1      1822 2.56500E+01 4.48040E+01 0.00000E+00
 -1      1823 2.94000E+01 4.61030E+01 0.00000E+00
 -1      1824 3.09000E+01 4.61030E+01 0.00000E+00
 -1      1825 2.86500E+01 4.48040E+01 0.00000E+00
 -1      1826 3.24000E+01 4.61030E+01 0.00000E+00
 -1      1827 3.39000E+01 4.61030E+01 0.00000E+00
 -1      1828 3.16500E+01 4.48040E+01 0.00000E+00
 -1      1829 3.54000E+01 4.61030E+01 0.00000E+00
 -1      1830 3.69000E+01 4.61030E+01 0.00000E+00
 -1      1831 3.46500E+01 4.48040E+01 0.00000E+00
 -1      1832 3.84000E+01 4.61030E+01 0.00000E+00
 -1      1833 3.99000E+01 4.61030E+01 0.00000E+00
 -1      1834 3.76500E+01 4.48040E+01 0.00000E+00
 -1      1835 4.14000E+01 4.61030E+01 0.00000E+00
 -1      1836 4.29000E+01 4.61030E+01 0.00000E+00
 -1      1837 4.06500E+01 4.48040E+01 0.00000E+00
 -1      1838 4.44000E+01 4.61030E+01 0.00000E+00
 -1      1839 4.59000E+01 4.61030E+01 0.00000E+00
 -1      1840 4.36500E+01 4.48040E+01 0.00000E+00
 -1      1841 4.74000E+01 4.61030E+01 0.00000E+00
 -1      1842 4.89000E+01 4.61030E+01 0.00000E+00
 -1      1843 4.66500E+01 4.48040E+01 0.00000E+00
 -1      1844 5.04000E+01 4.61030E+01 0.00000E+00
 -1      1845 5.19000E+01 4.61030E+01 0.00000E+00
 -1      1846 4.96500E+01 4.48040E+01 0.00000E+00
 -1      1847 5.34000E+01 4.61030E+01 0.00000E+00
 -1      1848 5.49000E+01 4.61030E+01 0.00000E+00
 -1      1849 5.26500E+01 4.48040E+01 0.00000E+00
 -1      1850 5.64000E+01 4.61030E+01 0.00000E+00
 -1      1851 5.79000E+01 4.61030E+01 0.00000E+00
 -1      1852 5.56500E+01 4.48040E+01 0.00000E+00
 -1      1853 5.94000E+01 4.61030E+01 0.00000E+00
 -1      1854 6.09000E+01 4.61030E+01 0.00000E+00
 -1      1855 5.86500E+01 4.48040E+01 0.00000E+00
 -1      1856 6.24000E+01 4.61030E+01 0.00000E+00
 -1      1857 6.39000E+01 4.61030E+01 0.00000E+00
 -1      1858 6.16500E+01 4.48040E+01 0.00000E+00
 -1      1859 6.54000E+01 4.61030E+01 0.00000E+00
 -1      1860 6.69000E+01 4.61030E+01 0.00000E+00
 -1      1861 6.46500E+01 4.48040E+01 0.00000E+00
 -1      1862 6.84000E+01 4.61030E+01 0.00000E+00
 -1      1863 6.99000E+01 4.61030E+01 0.00000E+00
 -1      1864 6.76500E+01 4.48040E+01 0.00000E+00
 -1      1865 7.14000E+01 4.61030E+01 0.00000E+00
 -1      1866 7.29000E+01 4.61030E+01 0.00000E+00
 -1      1867 7.06500E+01 4.48040E+01 0.00000E+00
 -1      1868 7.44000E+01 4.61030E+01 0.00000E+00
 -1      1869 7.59000E+01 4.61030E+01 0.00000E+00
 -1      1870 7.36500E+01 4.48040E+01 0.00000E+00
 -1      1871 7.74000E+01 4.61030E+01 0.00000E+00
 -1      1872 7.89000E+01 4.61030E+01 0.00000E+00
 -1      1873 7.66500E+01 4.48040E+01 0.00000E+00
 -1      1874 8.04000E+01 4.61030E+01 0.00000E+00
 -1      1875 8.19000E+01 4.61030E+01 0.00000E+00
 -1      1876 7.96500E+01 4.48040E+01 0.00000E+00
 -1      1877 8.34000E+01 4.61030E+01 0.00000E+00
 -1      1878 8.49000E+01 4.61030E+01 0.00000E+00
 -1      1879 8.26500E+01 4.48040E+01 0.00000E+00
 -1      1880 8.64000E+01 4.61030E+01 0.00000E+00
 -1      1881 8.79000E+01 4.61030E+01 0.00000E+00
 -1      1882 8.56500E+01 4.48040E+01 0.00000E+00
 -1      1883 8.94000E+01 4.61030E+01 0.00000E+00
 -1      1884 9.09000E+01 4.61030E+01 0.00000E+00
 -1      1885 8.86500E+01 4.48040E+01 0.00000E+00
 -1      1886 9.24000E+01 4.61030E+01 0.00000E+00
 -1      1887 9.39000E+01 4.61030E+01 0.00000E+00
 -1      1888 9.16500E+01 4.48040E+01 0.00000E+00
 -1      1889 9.54000E+01 4.61030E+01 0.00000E+00
 -1      1890 9.69000E+01 4.61030E+01 0.00000E+00
 -1      1891 9.46500E+01 4.48040E+01 0.00000E+00
 -1      1892 9.84000E+01 4.61030E+01 0.00000E+00
 -1      1893 9.99000E+01 4.61030E+01 0.00000E+00
 -1      1894 9.76500E+01 4.48040E+01 0.00000E+00
 -1      1895 1.01400E+02 4.61030E+01 0.00000E+00
 -1      1896 1.02900E+02 4.61030E+01 0.00000E+00
 -1      1897 1.00650E+02 4.48040E+01 0.00000E+00
 -1      1898 1.04400E+02 4.61030E+01 0.00000E+00
 -1      1899 1.05900E+02 4.61030E+01 0.00000E+00
 -1      1900 1.03650E+02 4.48040E+01 0.00000E+00
 -1      1901 1.07400E+02 4.61030E+01 0.00000E+00
 -1      1902 1.08900E+02 4.61030E+01 0.00000E+00
 -1      1903 1.06650E+02 4.48040E+01 0.00000E+00
 -1      1904 1.10400E+02 4.61030E+01 0.00000E+00
 -1      1905 1.11900E+02 4.61030E+01 0.00000E+00
 -1      1906 1.09650E+02 4.48040E+01 0.00000E+00
 -1      1907 1.13400E+02 4.61030E+01 0.00000E+00
 -1      1908 1.14900E+02 4.61030E+01 0.00000E+00
 -1      1909 1.12650E+02 4.48040E+01 0.00000E+00
 -1      1910 1.16400E+02 4.61030E+01 0.00000E+00
 -1      1911 1.17900E+02 4.61030E+01 0.00000E+00
 -1      1912 1.15650E+02 4.48040E+01 0.00000E+00
 -1      1913 1.19400E+02 4.61030E+01 0.00000E+00
 -1      1914 1.20900E+02 4.61030E+01 0.00000E+00
 -1      1915 1.18650E+02 4.48040E+01 0.00000E+00
 -1      1916 1.22400E+02 4.61030E+01 0.00000E+00
 -1      1917 1.23900E+02 4.61030E+01 0.00000E+00
 -1      1918 1.21650E+02 4.48040E+01 0.00000E+00
 -1      1919 1.25400E+02 4.61030E+01 0.00000E+00
 -1      1920 1.26900E+02 4.61030E+01 0.00000E+00
 -1      1921 1.24650E+02 4.48040E+01 0.00000E+00
 -1      1922 1.28400E+02 4.61030E+01 0.00000E+00
 -1      1923 1.29900E+02 4.61030E+01 0.00000E+00
 -1      1924 1.27650E+02 4.48040E+01 0.00000E+00
 -1      1925 1.31400E+02 4.61030E+01 0.00000E+00
 -1      1926 1.32900E+02 4.61030E+01 0.00000E+00
 -1      1927 1.30650E+02 4.48040E+01 0.00000E+00
 -1      1928 1.34400E+02 4.61030E+01 0.00000E+00
 -1      1929 1.35900E+02 4.61030E+01 0.00000E+00
 -1      1930 1.33650E+02 4.48040E+01 0.00000E+00
 -1      1931 1.37400E+02 4.61030E+01 0.00000E+00
 -1      1932 1.38900E+02 4.61030E+01 0.00000E+00
 -1      1933 1.36650E+02 4.48040E+01 0.00000E+00
 -1      1934 1.40400E+02 4.61030E+01 0.00000E+00
 -1      1935 1.41900E+02 4.61030E+01 0.00000E+00
 -1      1936 1.39650E+02 4.48040E+01 0.00000E+00
 -1      1937 1.43244E+02 4.61616E+01 0.00000E+00
 -1      1938 1.44744E+02 4.61616E+01 0.00000E+00
 -1      1939 1.45182E+02 4.49799E+01 0.00000E+00
 -1      1940 1.42494E+02 4.48626E+01 0.00000E+00
 -1      1941 1.17045E+01 3.09687E+00 0.00000E+00
 -1      1942 1.02045E+01 3.09687E+00 0.00000E+00
 -1      1943 1.00350E+01 4.00625E+00 0.00000E+00
 -1      1944 1.47045E+01 3.09687E+00 0.00000E+00
 -1      1945 1.32045E+01 3.09687E+00 0.00000E+00
 -1      1946 1.30350E+01 4.00625E+00 0.00000E+00
 -1      1947 1.77045E+01 3.09687E+00 0.00000E+00
 -1      1948 1.62045E+01 3.09687E+00 0.00000E+00
 -1      1949 1.60350E+01 4.00625E+00 0.00000E+00
 -1      1950 2.07045E+01 3.09687E+00 0.00000E+00
 -1      1951 1.92045E+01 3.09687E+00 0.00000E+00
 -1      1952 1.90350E+01 4.00625E+00 0.00000E+00
 -1      1953 2.37045E+01 3.09687E+00 0.00000E+00
 -1      1954 2.22045E+01 3.09687E+00 0.00000E+00
 -1      1955 2.20350E+01 4.00625E+00 0.00000E+00
 -1      1956 2.67045E+01 3.09687E+00 0.00000E+00
 -1      1957 2.52045E+01 3.09687E+00 0.00000E+00
 -1      1958 2.50350E+01 4.00625E+00 0.00000E+00
 -1      1959 2.97045E+01 3.09687E+00 0.00000E+00
 -1      1960 2.82045E+01 3.09687E+00 0.00000E+00
 -1      1961 2.80350E+01 4.00625E+00 0.00000E+00
 -1      1962 3.27045E+01 3.09687E+00 0.00000E+00
 -1      1963 3.12045E+01 3.09687E+00 0.00000E+00
 -1      1964 3.10350E+01 4.00625E+00 0.00000E+00
 -1      1965 3.57045E+01 3.09687E+00 0.00000E+00
 -1      1966 3.42045E+01 3.09687E+00 0.00000E+00
 -1      1967 3.40350E+01 4.00625E+00 0.00000E+00
 -1      1968 3.87045E+01 3.09687E+00 0.00000E+00
 -1      1969 3.72045E+01 3.09687E+00 0.00000E+00
 -1      1970 3.70350E+01 4.00625E+00 0.00000E+00
 -1      1971 4.17045E+01 3.09687E+00 0.00000E+00
 -1      1972 4.02045E+01 3.09687E+00 0.00000E+00
 -1      1973 4.00350E+01 4.00625E+00 0.00000E+00
 -1      1974 4.47045E+01 3.09687E+00 0.00000E+00
 -1      1975 4.32045E+01 3.09687E+00 0.00000E+00
 -1      1976 4.30350E+01 4.00625E+00 0.00000E+00
 -1      1977 4.77045E+01 3.09687E+00 0.00000E+00
 -1      1978 4.62045E+01 3.09687E+00 0.00000E+00
 -1      1979 4.60350E+01 4.00625E+00 0.00000E+00
 -1      1980 5.07045E+01 3.09687E+00 0.00000E+00
 -1      1981 4.92045E+01 3.09687E+00 0.00000E+00
 -1      1982 4.90350E+01 4.00625E+00 0.00000E+00
 -1      1983 5.37045E+01 3.09687E+00 0.00000E+00
 -1      1984 5.22045E+01 3.09687E+00 0.00000E+00
 -1      1985 5.20350E+01 4.00625E+00 0.00000E+00
 -1      1986 5.67045E+01 3.09687E+00 0.00000E+00
 -1      1987 5.52045E+01 3.09687E+00 0.00000E+00
 -1      1988 5.50350E+01 4.00625E+00 0.00000E+00
 -1      1989 5.97045E+01 3.09687E+00 0.00000E+00
 -1      1990 5.82045E+01 3.09687E+00 0.00000E+00
 -1      1991 5.80350E+01 4.00625E+00 0.00000E+00
 -1      1992 6.27045E+01 3.09687E+00 0.00000E+00
 -1      1993 6.12045E+01 3.09687E+00 0.00000E+00
 -1      1994 6.10350E+01 4.00625E+00 0.00000E+00
 -1      1995 6.57045E+01 3.09687E+00 0.00000E+00
 -1      1996 6.42045E+01 3.09687E+00 0.00000E+00
 -1      1997 6.40350E+01 4.00625E+00 0.00000E+00
 -1      1998 6.87045E+01 3.09687E+00 0.00000E+00
 -1      1999 6.72045E+01 3.09687E+00 0.00000E+00
 -1      2000 6.70350E+01 4.00625E+00 0.00000E+00
 -1      2001 7.17045E+01 3.09687E+00 0.00000E+00
 -1      2002 7.02045E+01 3.09687E+00 0.00000E+00
 -1      2003 7.00350E+01 4.00625E+00 0.00000E+00
 -1      2004 7.47045E+01 3.09687E+00 0.00000E+00
 -1      2005 7.32045E+01 3.09687E+00 0.00000E+00
 -1      2006 7.30350E+01 4.00625E+00 0.00000E+00
 -1      2007 7.77045E+01 3.09687E+00 0.00000E+00
 -1      2008 7.62045E+01 3.09687E+00 0.00000E+00
 -1      2009 7.60350E+01 4.00625E+00 0.00000E+00
 -1      2010 8.07045E+01 3.09687E+00 0.00000E+00
 -1      2011 7.92045E+01 3.09687E+00 0.00000E+00
 -1      2012 7.90350E+01 4.00625E+00 0.00000E+00
 -1      2013 8.37045E+01 3.09687E+00 0.00000E+00
 -1      2014 8.22045E+01 3.09687E+00 0.00000E+00
 -1      2015 8.20350E+01 4.00625E+00 0.00000E+00
 -1      2016 8.67045E+01 3.09687E+00 0.00000E+00
 -1      2017 8.52045E+01 3.09687E+00 0.00000E+00
 -1      2018 8.50350E+01 4.00625E+00 0.00000E+00
 -1      2019 8.97045E+01 3.09687E+00 0.00000E+00
 -1      2020 8.82045E+01 3.09687E+00 0.00000E+00
 -1      2021 8.80350E+01 4.00625E+00 0.00000E+00
 -1      2022 9.27045E+01 3.09687E+00 0.00000E+00
 -1      2023 9.12045E+01 3.09687E+00 0.00000E+00
 -1      2024 9.10350E+01 4.00625E+00 0.00000E+00
 -1      2025 9.57045E+01 3.09687E+00 0.00000E+00
 -1      2026 9.42045E+01 3.09687E+00 0.00000E+00
 -1      2027 9.40350E+01 4.00625E+00 0.00000E+00
 -1      2028 9.87045E+01 3.09687E+00 0.00000E+00
 -1      2029 9.72045E+01 3.09687E+00 0.00000E+00
 -1      2030 9.70350E+01 4.00625E+00 0.00000E+00
 -1      2031 1.01704E+02 3.09687E+00 0.00000E+00
 -1      2032 1.00204E+02 3.09687E+00 0.00000E+00
 -1      2033 1.00035E+02 4.00625E+00 0.00000E+00
 -1      2034 1.04704E+02 3.09687E+00 0.00000E+00
 -1      2035 1.03204E+02 3.09687E+00 0.00000E+00
 -1      2036 1.03035E+02 4.00625E+00 0.00000E+00
 -1      2037 1.07704E+02 3.09687E+00 0.00000E+00
 -1      2038 1.06204E+02 3.09687E+00 0.00000E+00
 -1      2039 1.06035E+02 4.00625E+00 0.00000E+00
 -1      2040 1.10704E+02 3.09687E+00 0.00000E+00
 -1      2041 1.09204E+02 3.09687E+00 0.00000E+00
 -1      2042 1.09035E+02 4.00625E+00 0.00000E+00
 -1      2043 1.13704E+02 3.09687E+00 0.00000E+00
 -1      2044 1.12204E+02 3.09687E+00 0.00000E+00
 -1      2045 1.12035E+02 4.00625E+00 0.00000E+00
 -1      2046 1.16704E+02 3.09687E+00 0.00000E+00
 -1      2047 1.15204E+02 3.09687E+00 0.00000E+00
 -1      2048 1.15035E+02 4.00625E+00 0.00000E+00
 -1      2049 1.19704E+02 3.09687E+00 0.00000E+00
 -1      2050 1.18204E+02 3.09687E+00 0.00000E+00
 -1      2051 1.18035E+02 4.00625E+00 0.00000E+00
 -1      2052 1.22704E+02 3.09687E+00 0.00000E+00
 -1      2053 1.21204E+02 3.09687E+00 0.00000E+00
 -1      2054 1.21035E+02 4.00625E+00 0.00000E+00
 -1      2055 1.25704E+02 3.09687E+00 0.00000E+00
 -1      2056 1.24204E+02 3.09687E+00 0.00000E+00
 -1      2057 1.24035E+02 4.00625E+00 0.00000E+00
 -1      2058 1.28704E+02 3.09687E+00 0.00000E+00
 -1      2059 1.27204E+02 3.09687E+00 0.00000E+00
 -1      2060 1.27035E+02 4.00625E+00 0.00000E+00
 -1      2061 1.31704E+02 3.09687E+00 0.00000E+00
 -1      2062 1.30204E+02 3.09687E+00 0.00000E+00
 -1      2063 1.30035E+02 4.00625E+00 0.00000E+00
 -1      2064 1.34704E+02 3.09687E+00 0.00000E+00
 -1      2065 1.33204E+02 3.09687E+00 0.00000E+00
 -1      2066 1.33035E+02 4.00625E+00 0.00000E+00
 -1      2067 1.37704E+02 3.09687E+00 0.00000E+00
 -1      2068 1.36204E+02 3.09687E+00 0.00000E+00
 -1      2069 1.36035E+02 4.00625E+00 0.00000E+00
 -1      2070 1.40704E+02 3.09687E+00 0.00000E+00
 -1      2071 1.39204E+02 3.09687E+00 0.00000E+00
 -1      2072 1.39035E+02 4.00625E+00 0.00000E+00
 -1      2073 1.43704E+02 3.09687E+00 0.00000E+00
 -1      2074 1.42204E+02 3.09687E+00 0.00000E+00
 -1      2075 1.42035E+02 4.00625E+00 0.00000E+00
 -1      2076 1.46171E+02 3.20156E+00 0.00000E+00
 -1      2077 1.44671E+02 3.20156E+00 0.00000E+00
 -1      2078 1.44502E+02 4.11094E+00 0.00000E+00
 -1      2079 1.46435E+02 4.32031E+00 0.00000E+00
 -1      2080 1.46103E+02 1.25375E+01 0.00000E+00
 -1      2081 1.46103E+02 1.10625E+01 0.00000E+00
 -1      2082 1.46103E+02 9.58750E+00 0.00000E+00
 -1      2083 1.46103E+02 8.11250E+00 0.00000E+00
 -1      2084 1.44804E+02 1.03250E+01 0.00000E+00
 -1      2085 1.46269E+02 6.95391E+00 0.00000E+00
 -1      2086 1.46269E+02 5.47891E+00 0.00000E+00
 -1      2087 1.45302E+02 5.37422E+00 0.00000E+00
 -1      2088 1.44970E+02 7.69141E+00 0.00000E+00
 -1      2089 1.46103E+02 1.54375E+01 0.00000E+00
 -1      2090 1.46103E+02 1.39875E+01 0.00000E+00
 -1      2091 1.44804E+02 1.32500E+01 0.00000E+00
 -1      2092 1.46103E+02 1.83875E+01 0.00000E+00
 -1      2093 1.46103E+02 1.69125E+01 0.00000E+00
 -1      2094 1.44804E+02 1.61750E+01 0.00000E+00
 -1      2095 1.46103E+02 2.13375E+01 0.00000E+00
 -1      2096 1.46103E+02 1.98625E+01 0.00000E+00
 -1      2097 1.44804E+02 1.91250E+01 0.00000E+00
 -1      2098 1.46103E+02 2.42875E+01 0.00000E+00
 -1      2099 1.46103E+02 2.28125E+01 0.00000E+00
 -1      2100 1.44804E+02 2.20750E+01 0.00000E+00
 -1      2101 1.46103E+02 2.72375E+01 0.00000E+00
 -1      2102 1.46103E+02 2.57625E+01 0.00000E+00
 -1      2103 1.44804E+02 2.50250E+01 0.00000E+00
 -1      2104 1.46103E+02 3.01875E+01 0.00000E+00
 -1      2105 1.46103E+02 2.87125E+01 0.00000E+00
 -1      2106 1.44804E+02 2.79750E+01 0.00000E+00
 -1      2107 1.46103E+02 3.30875E+01 0.00000E+00
 -1      2108 1.46103E+02 3.16375E+01 0.00000E+00
 -1      2109 1.44804E+02 3.09000E+01 0.00000E+00
 -1      2110 1.46103E+02 3.60375E+01 0.00000E+00
 -1      2111 1.46103E+02 3.45625E+01 0.00000E+00
 -1      2112 1.44804E+02 3.38250E+01 0.00000E+00
 -1      2113 1.46103E+02 3.89875E+01 0.00000E+00
 -1      2114 1.46103E+02 3.75125E+01 0.00000E+00
 -1      2115 1.44804E+02 3.67750E+01 0.00000E+00
 -1      2116 1.46103E+02 4.19375E+01 0.00000E+00
 -1      2117 1.46103E+02 4.04625E+01 0.00000E+00
 -1      2118 1.44804E+02 3.97250E+01 0.00000E+00
 -1      2119 1.23046E+02 2.25791E+01 0.00000E+00
 -1      2120 1.23489E+02 2.33655E+01 0.00000E+00
 -1      2121 1.24007E+02 2.62682E+01 0.00000E+00
 -1      2122 1.24006E+02 2.71016E+01 0.00000E+00
 -1      2123 1.23931E+02 2.44448E+01 0.00000E+00
 -1      2124 1.24034E+02 2.53212E+01 0.00000E+00
 -1      2125 1.22052E+02 2.10604E+01 0.00000E+00
 -1      2126 1.22559E+02 2.17468E+01 0.00000E+00
 -1      2127 1.20796E+02 1.97600E+01 0.00000E+00
 -1      2128 1.21387E+02 2.03929E+01 0.00000E+00
 -1      2129 3.89700E+00 3.74688E+01 0.00000E+00
 -1      2130 3.89700E+00 3.89437E+01 0.00000E+00
 -1      2131 5.19600E+00 3.96813E+01 0.00000E+00
 -1      2132 5.19600E+00 3.67438E+01 0.00000E+00
 -1      2133 1.17128E+02 1.79499E+01 0.00000E+00
 -1      2134 1.18075E+02 1.80557E+01 0.00000E+00
 -1      2135 1.15309E+02 1.78504E+01 0.00000E+00
 -1      2136 1.16182E+02 1.79073E+01 0.00000E+00
 -1      2137 1.13423E+02 1.79687E+01 0.00000E+00
 -1      2138 1.14309E+02 1.78725E+01 0.00000E+00
 -1      2139 1.11522E+02 1.85297E+01 0.00000E+00
 -1      2140 1.12336E+02 1.81727E+01 0.00000E+00
 -1      2141 1.09913E+02 1.94911E+01 0.00000E+00
 -1      2142 1.10637E+02 1.90116E+01 0.00000E+00
 -1      2143 1.08533E+02 2.08116E+01 0.00000E+00
 -1      2144 1.09147E+02 2.01807E+01 0.00000E+00
 -1      2145 1.07380E+02 2.23103E+01 0.00000E+00
 -1      2146 1.07925E+02 2.15853E+01 0.00000E+00
 -1      2147 1.06525E+02 2.41790E+01 0.00000E+00
 -1      2148 1.06786E+02 2.33040E+01 0.00000E+00
 -1      2149 1.06312E+02 2.61183E+01 0.00000E+00
 -1      2150 1.06375E+02 2.52306E+01 0.00000E+00
 -1      2151 1.06462E+02 2.80130E+01 0.00000E+00
 -1      2152 1.06371E+02 2.71270E+01 0.00000E+00
 -1      2153 1.06755E+02 2.99007E+01 0.00000E+00
 -1      2154 1.06546E+02 2.90083E+01 0.00000E+00
 -1      2155 1.07757E+02 3.16450E+01 0.00000E+00
 -1      2156 1.07277E+02 3.09140E+01 0.00000E+00
 -1      2157 1.08807E+02 3.30761E+01 0.00000E+00
 -1      2158 1.08285E+02 3.23922E+01 0.00000E+00
 -1      2159 1.10406E+02 3.43428E+01 0.00000E+00
 -1      2160 1.09623E+02 3.38952E+01 0.00000E+00
 -1      2161 1.12176E+02 3.49988E+01 0.00000E+00
 -1      2162 1.11353E+02 3.46943E+01 0.00000E+00
 -1      2163 1.13954E+02 3.54353E+01 0.00000E+00
 -1      2164 1.13104E+02 3.52349E+01 0.00000E+00
 -1      2165 1.15884E+02 3.56979E+01 0.00000E+00
 -1      2166 1.14972E+02 3.56848E+01 0.00000E+00
 -1      2167 1.17902E+02 3.53104E+01 0.00000E+00
 -1      2168 1.17027E+02 3.55774E+01 0.00000E+00
 -1      2169 1.19636E+02 3.46047E+01 0.00000E+00
 -1      2170 1.18769E+02 3.49575E+01 0.00000E+00
 -1      2171 1.18569E+02 3.58712E+01 0.00000E+00
 -1      2172 1.21415E+02 3.32914E+01 0.00000E+00
 -1      2173 1.20711E+02 3.39376E+01 0.00000E+00
 -1      2174 1.22630E+02 3.16719E+01 0.00000E+00
 -1      2175 1.22107E+02 3.24328E+01 0.00000E+00
 -1      2176 1.23543E+02 2.99289E+01 0.00000E+00
 -1      2177 1.23212E+02 3.07616E+01 0.00000E+00
 -1      2178 1.24021E+02 2.81123E+01 0.00000E+00
 -1      2179 1.23839E+02 2.89595E+01 0.00000E+00
 -1      2180 1.19242E+02 1.85262E+01 0.00000E+00
 -1      2181 1.20022E+02 1.90512E+01 0.00000E+00
 -1      2182 1.22230E+02 2.03014E+01 0.00000E+00
 -1      2183 6.42300E+00 4.57510E+01 0.00000E+00
 -1      2184 1.20791E+02 1.89251E+01 0.00000E+00
 -1      2185 1.18458E+02 1.69656E+01 0.00000E+00
 -1      2186 1.18850E+02 1.77459E+01 0.00000E+00
 -1      2187 1.19625E+02 1.74360E+01 0.00000E+00
 -1      2188 7.17300E+00 4.44520E+01 0.00000E+00
 -1      2189 1.24310E+02 2.37127E+01 0.00000E+00
 -1      2190 1.24724E+02 2.57391E+01 0.00000E+00
 -1      2191 1.45665E+02 4.31193E+01 0.00000E+00
 -1      2192 1.23381E+02 2.18011E+01 0.00000E+00
 -1      2193 1.24712E+02 2.76968E+01 0.00000E+00
 -1      2194 1.24432E+02 2.96769E+01 0.00000E+00
 -1      2195 1.23554E+02 3.15566E+01 0.00000E+00
 -1      2196 1.20512E+02 3.48513E+01 0.00000E+00
 -1      2197 1.16560E+02 3.63446E+01 0.00000E+00
 -1      2198 1.14398E+02 3.62155E+01 0.00000E+00
 -1      2199 1.12453E+02 3.57298E+01 0.00000E+00
 -1      2200 1.10578E+02 3.51421E+01 0.00000E+00
 -1      2201 1.08814E+02 3.39716E+01 0.00000E+00
 -1      2202 1.07469E+02 3.24054E+01 0.00000E+00
 -1      2203 1.06419E+02 3.06448E+01 0.00000E+00
 -1      2204 1.05814E+02 2.86361E+01 0.00000E+00
 -1      2205 1.05672E+02 2.66320E+01 0.00000E+00
 -1      2206 1.05764E+02 2.45718E+01 0.00000E+00
 -1      2207 1.06508E+02 2.25265E+01 0.00000E+00
 -1      2208 1.07708E+02 2.07592E+01 0.00000E+00
 -1      2209 1.09081E+02 1.92959E+01 0.00000E+00
 -1      2210 1.10733E+02 1.81245E+01 0.00000E+00
 -1      2211 1.12705E+02 1.74386E+01 0.00000E+00
 -1      2212 1.16736E+02 1.72329E+01 0.00000E+00
 -1      2213 1.14791E+02 1.72125E+01 0.00000E+00
 -1      2214 1.22279E+02 3.33256E+01 0.00000E+00
 -1      2215 1.07850E+01 5.30525E+00 0.00000E+00
 -1      2216 9.28500E+00 5.30525E+00 0.00000E+00
 -1      2217 6.49500E+00 3.01125E+01 0.00000E+00
 -1      2218 6.49500E+00 3.15875E+01 0.00000E+00
 -1      2219 6.49500E+00 3.30625E+01 0.00000E+00
 -1      2220 6.49500E+00 3.45375E+01 0.00000E+00
 -1      2221 7.79400E+00 3.23250E+01 0.00000E+00
 -1      2222 6.49500E+00 2.42125E+01 0.00000E+00
 -1      2223 6.49500E+00 2.56875E+01 0.00000E+00
 -1      2224 6.49500E+00 2.12625E+01 0.00000E+00
 -1      2225 6.49500E+00 2.27375E+01 0.00000E+00
 -1      2226 7.79400E+00 2.34750E+01 0.00000E+00
 -1      2227 6.49500E+00 1.83625E+01 0.00000E+00
 -1      2228 6.49500E+00 1.98125E+01 0.00000E+00
 -1      2229 7.79400E+00 2.05500E+01 0.00000E+00
 -1      2230 6.49500E+00 1.54125E+01 0.00000E+00
 -1      2231 6.49500E+00 1.68875E+01 0.00000E+00
 -1      2232 7.79400E+00 1.76250E+01 0.00000E+00
 -1      2233 6.49500E+00 1.24625E+01 0.00000E+00
 -1      2234 6.49500E+00 1.39375E+01 0.00000E+00
 -1      2235 7.79400E+00 1.46750E+01 0.00000E+00
 -1      2236 6.49500E+00 9.51250E+00 0.00000E+00
 -1      2237 6.49500E+00 1.09875E+01 0.00000E+00
 -1      2238 7.79400E+00 1.17250E+01 0.00000E+00
 -1      2239 1.37850E+01 5.30525E+00 0.00000E+00
 -1      2240 1.22850E+01 5.30525E+00 0.00000E+00
 -1      2241 1.15350E+01 6.60425E+00 0.00000E+00
 -1      2242 9.90000E+00 4.35050E+01 0.00000E+00
 -1      2243 1.14000E+01 4.35050E+01 0.00000E+00
 -1      2244 1.20983E+02 1.79383E+01 0.00000E+00
 -1      2245 1.21757E+02 1.86471E+01 0.00000E+00
 -1      2246 1.29000E+01 4.35050E+01 0.00000E+00
 -1      2247 1.44000E+01 4.35050E+01 0.00000E+00
 -1      2248 1.21500E+01 4.22060E+01 0.00000E+00
 -1      2249 1.59000E+01 4.35050E+01 0.00000E+00
 -1      2250 1.74000E+01 4.35050E+01 0.00000E+00
 -1      2251 1.51500E+01 4.22060E+01 0.00000E+00
 -1      2252 1.89000E+01 4.35050E+01 0.00000E+00
 -1      2253 2.04000E+01 4.35050E+01 0.00000E+00
 -1      2254 1.81500E+01 4.22060E+01 0.00000E+00
 -1      2255 2.19000E+01 4.35050E+01 0.00000E+00
 -1      2256 2.34000E+01 4.35050E+01 0.00000E+00
 -1      2257 2.11500E+01 4.22060E+01 0.00000E+00
 -1      2258 2.49000E+01 4.35050E+01 0.00000E+00
 -1      2259 2.64000E+01 4.35050E+01 0.00000E+00
 -1      2260 2.41500E+01 4.22060E+01 0.00000E+00
 -1      2261 2.79000E+01 4.35050E+01 0.00000E+00
 -1      2262 2.94000E+01 4.35050E+01 0.00000E+00
 -1      2263 2.71500E+01 4.22060E+01 0.00000E+00
 -1      2264 3.09000E+01 4.35050E+01 0.00000E+00
 -1      2265 3.24000E+01 4.35050E+01 0.00000E+00
 -1      2266 3.01500E+01 4.22060E+01 0.00000E+00
 -1      2267 3.39000E+01 4.35050E+01 0.00000E+00
 -1      2268 3.54000E+01 4.35050E+01 0.00000E+00
 -1      2269 3.31500E+01 4.22060E+01 0.00000E+00
 -1      2270 3.69000E+01 4.35050E+01 0.00000E+00
 -1      2271 3.84000E+01 4.35050E+01 0.00000E+00
 -1      2272 3.61500E+01 4.22060E+01 0.00000E+00
 -1      2273 3.99000E+01 4.35050E+01 0.00000E+00
 -1      2274 4.14000E+01 4.35050E+01 0.00000E+00
 -1      2275 3.91500E+01 4.22060E+01 0.00000E+00
 -1      2276 4.29000E+01 4.35050E+01 0.00000E+00
 -1      2277 4.44000E+01 4.35050E+01 0.00000E+00
 -1      2278 4.21500E+01 4.22060E+01 0.00000E+00
 -1      2279 4.59000E+01 4.35050E+01 0.00000E+00
 -1      2280 4.74000E+01 4.35050E+01 0.00000E+00
 -1      2281 4.51500E+01 4.22060E+01 0.00000E+00
 -1      2282 4.89000E+01 4.35050E+01 0.00000E+00
 -1      2283 5.04000E+01 4.35050E+01 0.00000E+00
 -1      2284 4.81500E+01 4.22060E+01 0.00000E+00
 -1      2285 5.19000E+01 4.35050E+01 0.00000E+00
 -1      2286 5.34000E+01 4.35050E+01 0.00000E+00
 -1      2287 5.11500E+01 4.22060E+01 0.00000E+00
 -1      2288 5.49000E+01 4.35050E+01 0.00000E+00
 -1      2289 5.64000E+01 4.35050E+01 0.00000E+00
 -1      2290 5.41500E+01 4.22060E+01 0.00000E+00
 -1      2291 5.79000E+01 4.35050E+01 0.00000E+00
 -1      2292 5.94000E+01 4.35050E+01 0.00000E+00
 -1      2293 5.71500E+01 4.22060E+01 0.00000E+00
 -1      2294 6.09000E+01 4.35050E+01 0.00000E+00
 -1      2295 6.24000E+01 4.35050E+01 0.00000E+00
 -1      2296 6.01500E+01 4.22060E+01 0.00000E+00
 -1      2297 6.39000E+01 4.35050E+01 0.00000E+00
 -1      2298 6.54000E+01 4.35050E+01 0.00000E+00
 -1      2299 6.31500E+01 4.22060E+01 0.00000E+00
 -1      2300 6.69000E+01 4.35050E+01 0.00000E+00
 -1      2301 6.84000E+01 4.35050E+01 0.00000E+00
 -1      2302 6.61500E+01 4.22060E+01 0.00000E+00
 -1      2303 6.99000E+01 4.35050E+01 0.00000E+00
 -1      2304 7.14000E+01 4.35050E+01 0.00000E+00
 -1      2305 6.91500E+01 4.22060E+01 0.00000E+00
 -1      2306 7.29000E+01 4.35050E+01 0.00000E+00
 -1      2307 7.44000E+01 4.35050E+01 0.00000E+00
 -1      2308 7.21500E+01 4.22060E+01 0.00000E+00
 -1      2309 7.59000E+01 4.35050E+01 0.00000E+00
 -1      2310 7.74000E+01 4.35050E+01 0.00000E+00
 -1      2311 7.51500E+01 4.22060E+01 0.00000E+00
 -1      2312 7.89000E+01 4.35050E+01 0.00000E+00
 -1      2313 8.04000E+01 4.35050E+01 0.00000E+00
 -1      2314 7.81500E+01 4.22060E+01 0.00000E+00
 -1      2315 8.19000E+01 4.35050E+01 0.00000E+00
 -1      2316 8.34000E+01 4.35050E+01 0.00000E+00
 -1      2317 8.11500E+01 4.22060E+01 0.00000E+00
 -1      2318 8.49000E+01 4.35050E+01 0.00000E+00
 -1      2319 8.64000E+01 4.35050E+01 0.00000E+00
 -1      2320 8.41500E+01 4.22060E+01 0.00000E+00
 -1      2321 8.79000E+01 4.35050E+01 0.00000E+00
 -1      2322 8.94000E+01 4.35050E+01 0.00000E+00
 -1      2323 8.71500E+01 4.22060E+01 0.00000E+00
 -1      2324 9.09000E+01 4.35050E+01 0.00000E+00
 -1      2325 9.24000E+01 4.35050E+01 0.00000E+00
 -1      2326 9.01500E+01 4.22060E+01 0.00000E+00
 -1      2327 9.39000E+01 4.35050E+01 0.00000E+00
 -1      2328 9.54000E+01 4.35050E+01 0.00000E+00
 -1      2329 9.31500E+01 4.22060E+01 0.00000E+00
 -1      2330 9.69000E+01 4.35050E+01 0.00000E+00
 -1      2331 9.84000E+01 4.35050E+01 0.00000E+00
 -1      2332 9.61500E+01 4.22060E+01 0.00000E+00
 -1      2333 9.99000E+01 4.35050E+01 0.00000E+00
 -1      2334 1.01400E+02 4.35050E+01 0.00000E+00
 -1      2335 9.91500E+01 4.22060E+01 0.00000E+00
 -1      2336 1.02900E+02 4.35050E+01 0.00000E+00
 -1      2337 1.04400E+02 4.35050E+01 0.00000E+00
 -1      2338 1.02150E+02 4.22060E+01 0.00000E+00
 -1      2339 1.05900E+02 4.35050E+01 0.00000E+00
 -1      2340 1.07400E+02 4.35050E+01 0.00000E+00
 -1      2341 1.05150E+02 4.22060E+01 0.00000E+00
 -1      2342 1.08900E+02 4.35050E+01 0.00000E+00
 -1      2343 1.10400E+02 4.35050E+01 0.00000E+00
 -1      2344 1.08150E+02 4.22060E+01 0.00000E+00
 -1      2345 1.11900E+02 4.35050E+01 0.00000E+00
 -1      2346 1.13400E+02 4.35050E+01 0.00000E+00
 -1      2347 1.11150E+02 4.22060E+01 0.00000E+00
 -1      2348 1.14900E+02 4.35050E+01 0.00000E+00
 -1      2349 1.16400E+02 4.35050E+01 0.00000E+00
 -1      2350 1.14150E+02 4.22060E+01 0.00000E+00
 -1      2351 1.17900E+02 4.35050E+01 0.00000E+00
 -1      2352 1.19400E+02 4.35050E+01 0.00000E+00
 -1      2353 1.17150E+02 4.22060E+01 0.00000E+00
 -1      2354 1.20900E+02 4.35050E+01 0.00000E+00
 -1      2355 1.22400E+02 4.35050E+01 0.00000E+00
 -1      2356 1.20150E+02 4.22060E+01 0.00000E+00
 -1      2357 1.23900E+02 4.35050E+01 0.00000E+00
 -1      2358 1.25400E+02 4.35050E+01 0.00000E+00
 -1      2359 1.23150E+02 4.22060E+01 0.00000E+00
 -1      2360 1.26900E+02 4.35050E+01 0.00000E+00
 -1      2361 1.28400E+02 4.35050E+01 0.00000E+00
 -1      2362 1.26150E+02 4.22060E+01 0.00000E+00
 -1      2363 1.29900E+02 4.35050E+01 0.00000E+00
 -1      2364 1.31400E+02 4.35050E+01 0.00000E+00
 -1      2365 1.29150E+02 4.22060E+01 0.00000E+00
 -1      2366 1.32900E+02 4.35050E+01 0.00000E+00
 -1      2367 1.34400E+02 4.35050E+01 0.00000E+00
 -1      2368 1.32150E+02 4.22060E+01 0.00000E+00
 -1      2369 1.35900E+02 4.35050E+01 0.00000E+00
 -1      2370 1.37400E+02 4.35050E+01 0.00000E+00
 -1      2371 1.35150E+02 4.22060E+01 0.00000E+00
 -1      2372 1.38900E+02 4.35050E+01 0.00000E+00
 -1      2373 1.40400E+02 4.35050E+01 0.00000E+00
 -1      2374 1.38150E+02 4.22060E+01 0.00000E+00
 -1      2375 1.97850E+01 5.30525E+00 0.00000E+00
 -1      2376 1.82850E+01 5.30525E+00 0.00000E+00
 -1      2377 2.27850E+01 5.30525E+00 0.00000E+00
 -1      2378 2.12850E+01 5.30525E+00 0.00000E+00
 -1      2379 2.05350E+01 6.60425E+00 0.00000E+00
 -1      2380 2.57850E+01 5.30525E+00 0.00000E+00
 -1      2381 2.42850E+01 5.30525E+00 0.00000E+00
 -1      2382 2.35350E+01 6.60425E+00 0.00000E+00
 -1      2383 2.87850E+01 5.30525E+00 0.00000E+00
 -1      2384 2.72850E+01 5.30525E+00 0.00000E+00
 -1      2385 2.65350E+01 6.60425E+00 0.00000E+00
 -1      2386 3.17850E+01 5.30525E+00 0.00000E+00
 -1      2387 3.02850E+01 5.30525E+00 0.00000E+00
 -1      2388 2.95350E+01 6.60425E+00 0.00000E+00
 -1      2389 3.47850E+01 5.30525E+00 0.00000E+00
 -1      2390 3.32850E+01 5.30525E+00 0.00000E+00
 -1      2391 3.25350E+01 6.60425E+00 0.00000E+00
 -1      2392 3.77850E+01 5.30525E+00 0.00000E+00
 -1      2393 3.62850E+01 5.30525E+00 0.00000E+00
 -1      2394 3.55350E+01 6.60425E+00 0.00000E+00
 -1      2395 4.07850E+01 5.30525E+00 0.00000E+00
 -1      2396 3.92850E+01 5.30525E+00 0.00000E+00
 -1      2397 3.85350E+01 6.60425E+00 0.00000E+00
 -1      2398 4.37850E+01 5.30525E+00 0.00000E+00
 -1      2399 4.22850E+01 5.30525E+00 0.00000E+00
 -1      2400 4.15350E+01 6.60425E+00 0.00000E+00
 -1      2401 4.67850E+01 5.30525E+00 0.00000E+00
 -1      2402 4.52850E+01 5.30525E+00 0.00000E+00
 -1      2403 4.45350E+01 6.60425E+00 0.00000E+00
 -1      2404 4.97850E+01 5.30525E+00 0.00000E+00
 -1      2405 4.82850E+01 5.30525E+00 0.00000E+00
 -1      2406 4.75350E+01 6.60425E+00 0.00000E+00
 -1      2407 5.27850E+01 5.30525E+00 0.00000E+00
 -1      2408 5.12850E+01 5.30525E+00 0.00000E+00
 -1      2409 5.05350E+01 6.60425E+00 0.00000E+00
 -1      2410 5.57850E+01 5.30525E+00 0.00000E+00
 -1      2411 5.42850E+01 5.30525E+00 0.00000E+00
 -1      2412 5.35350E+01 6.60425E+00 0.00000E+00
 -1      2413 5.87850E+01 5.30525E+00 0.00000E+00
 -1      2414 5.72850E+01 5.30525E+00 0.00000E+00
 -1      2415 5.65350E+01 6.60425E+00 0.00000E+00
 -1      2416 6.17850E+01 5.30525E+00 0.00000E+00
 -1      2417 6.02850E+01 5.30525E+00 0.00000E+00
 -1      2418 5.95350E+01 6.60425E+00 0.00000E+00
 -1      2419 6.47850E+01 5.30525E+00 0.00000E+00
 -1      2420 6.32850E+01 5.30525E+00 0.00000E+00
 -1      2421 6.25350E+01 6.60425E+00 0.00000E+00
 -1      2422 6.77850E+01 5.30525E+00 0.00000E+00
 -1      2423 6.62850E+01 5.30525E+00 0.00000E+00
 -1      2424 6.55350E+01 6.60425E+00 0.00000E+00
 -1      2425 7.07850E+01 5.30525E+00 0.00000E+00
 -1      2426 6.92850E+01 5.30525E+00 0.00000E+00
 -1      2427 6.85350E+01 6.60425E+00 0.00000E+00
 -1      2428 7.37850E+01 5.30525E+00 0.00000E+00
 -1      2429 7.22850E+01 5.30525E+00 0.00000E+00
 -1      2430 7.15350E+01 6.60425E+00 0.00000E+00
 -1      2431 7.67850E+01 5.30525E+00 0.00000E+00
 -1      2432 7.52850E+01 5.30525E+00 0.00000E+00
 -1      2433 7.45350E+01 6.60425E+00 0.00000E+00
 -1      2434 7.97850E+01 5.30525E+00 0.00000E+00
 -1      2435 7.82850E+01 5.30525E+00 0.00000E+00
 -1      2436 7.75350E+01 6.60425E+00 0.00000E+00
 -1      2437 8.27850E+01 5.30525E+00 0.00000E+00
 -1      2438 8.12850E+01 5.30525E+00 0.00000E+00
 -1      2439 8.05350E+01 6.60425E+00 0.00000E+00
 -1      2440 8.57850E+01 5.30525E+00 0.00000E+00
 -1      2441 8.42850E+01 5.30525E+00 0.00000E+00
 -1      2442 8.35350E+01 6.60425E+00 0.00000E+00
 -1      2443 8.87850E+01 5.30525E+00 0.00000E+00
 -1      2444 8.72850E+01 5.30525E+00 0.00000E+00
 -1      2445 8.65350E+01 6.60425E+00 0.00000E+00
 -1      2446 9.17850E+01 5.30525E+00 0.00000E+00
 -1      2447 9.02850E+01 5.30525E+00 0.00000E+00
 -1      2448 8.95350E+01 6.60425E+00 0.00000E+00
 -1      2449 9.47850E+01 5.30525E+00 0.00000E+00
 -1      2450 9.32850E+01 5.30525E+00 0.00000E+00
 -1      2451 9.25350E+01 6.60425E+00 0.00000E+00
 -1      2452 9.77850E+01 5.30525E+00 0.00000E+00
 -1      2453 9.62850E+01 5.30525E+00 0.00000E+00
 -1      2454 9.55350E+01 6.60425E+00 0.00000E+00
 -1      2455 1.00785E+02 5.30525E+00 0.00000E+00
 -1      2456 9.92850E+01 5.30525E+00 0.00000E+00
 -1      2457 9.85350E+01 6.60425E+00 0.00000E+00
 -1      2458 1.03785E+02 5.30525E+00 0.00000E+00
 -1      2459 1.02285E+02 5.30525E+00 0.00000E+00
 -1      2460 1.01535E+02 6.60425E+00 0.00000E+00
 -1      2461 1.06785E+02 5.30525E+00 0.00000E+00
 -1      2462 1.05285E+02 5.30525E+00 0.00000E+00
 -1      2463 1.04535E+02 6.60425E+00 0.00000E+00
 -1      2464 1.09785E+02 5.30525E+00 0.00000E+00
 -1      2465 1.08285E+02 5.30525E+00 0.00000E+00
 -1      2466 1.07535E+02 6.60425E+00 0.00000E+00
 -1      2467 1.12785E+02 5.30525E+00 0.00000E+00
 -1      2468 1.11285E+02 5.30525E+00 0.00000E+00
 -1      2469 1.10535E+02 6.60425E+00 0.00000E+00
 -1      2470 1.15785E+02 5.30525E+00 0.00000E+00
 -1      2471 1.14285E+02 5.30525E+00 0.00000E+00
 -1      2472 1.13535E+02 6.60425E+00 0.00000E+00
 -1      2473 1.18785E+02 5.30525E+00 0.00000E+00
 -1      2474 1.17285E+02 5.30525E+00 0.00000E+00
 -1      2475 1.16535E+02 6.60425E+00 0.00000E+00
 -1      2476 1.21785E+02 5.30525E+00 0.00000E+00
 -1      2477 1.20285E+02 5.30525E+00 0.00000E+00
 -1      2478 1.19535E+02 6.60425E+00 0.00000E+00
 -1      2479 1.24785E+02 5.30525E+00 0.00000E+00
 -1      2480 1.23285E+02 5.30525E+00 0.00000E+00
 -1      2481 1.22535E+02 6.60425E+00 0.00000E+00
 -1      2482 1.27785E+02 5.30525E+00 0.00000E+00
 -1      2483 1.26285E+02 5.30525E+00 0.00000E+00
 -1      2484 1.25535E+02 6.60425E+00 0.00000E+00
 -1      2485 1.30785E+02 5.30525E+00 0.00000E+00
 -1      2486 1.29285E+02 5.30525E+00 0.00000E+00
 -1      2487 1.28535E+02 6.60425E+00 0.00000E+00
 -1      2488 1.33785E+02 5.30525E+00 0.00000E+00
 -1      2489 1.32285E+02 5.30525E+00 0.00000E+00
 -1      2490 1.31535E+02 6.60425E+00 0.00000E+00
 -1      2491 1.36785E+02 5.30525E+00 0.00000E+00
 -1      2492 1.35285E+02 5.30525E+00 0.00000E+00
 -1      2493 1.34535E+02 6.60425E+00 0.00000E+00
 -1      2494 1.39785E+02 5.30525E+00 0.00000E+00
 -1      2495 1.38285E+02 5.30525E+00 0.00000E+00
 -1      2496 1.37535E+02 6.60425E+00 0.00000E+00
 -1      2497 1.42785E+02 5.30525E+00 0.00000E+00
 -1      2498 1.41285E+02 5.30525E+00 0.00000E+00
 -1      2499 1.40535E+02 6.60425E+00 0.00000E+00
 -1      2500 1.44336E+02 5.26953E+00 0.00000E+00
 -1      2501 1.43505E+02 1.69125E+01 0.00000E+00
 -1      2502 1.43505E+02 1.54375E+01 0.00000E+00
 -1      2503 1.43505E+02 1.98625E+01 0.00000E+00
 -1      2504 1.43505E+02 1.83875E+01 0.00000E+00
 -1      2505 1.42206E+02 1.76500E+01 0.00000E+00
 -1      2506 1.43505E+02 1.10625E+01 0.00000E+00
 -1      2507 1.43505E+02 9.58750E+00 0.00000E+00
 -1      2508 1.43505E+02 1.39750E+01 0.00000E+00
 -1      2509 1.43505E+02 1.25250E+01 0.00000E+00
 -1      2510 1.42206E+02 1.17875E+01 0.00000E+00
 -1      2511 1.42206E+02 1.47125E+01 0.00000E+00
 -1      2512 1.43505E+02 2.28125E+01 0.00000E+00
 -1      2513 1.43505E+02 2.13375E+01 0.00000E+00
 -1      2514 1.42206E+02 2.06000E+01 0.00000E+00
 -1      2515 1.43505E+02 2.57625E+01 0.00000E+00
 -1      2516 1.43505E+02 2.42875E+01 0.00000E+00
 -1      2517 1.42206E+02 2.35500E+01 0.00000E+00
 -1      2518 1.43505E+02 2.87125E+01 0.00000E+00
 -1      2519 1.43505E+02 2.72375E+01 0.00000E+00
 -1      2520 1.42206E+02 2.65000E+01 0.00000E+00
 -1      2521 1.43505E+02 3.16125E+01 0.00000E+00
 -1      2522 1.43505E+02 3.01625E+01 0.00000E+00
 -1      2523 1.42206E+02 2.94250E+01 0.00000E+00
 -1      2524 1.43505E+02 3.45625E+01 0.00000E+00
 -1      2525 1.43505E+02 3.30875E+01 0.00000E+00
 -1      2526 1.42206E+02 3.23500E+01 0.00000E+00
 -1      2527 1.43505E+02 3.75125E+01 0.00000E+00
 -1      2528 1.43505E+02 3.60375E+01 0.00000E+00
 -1      2529 1.42206E+02 3.53000E+01 0.00000E+00
 -1      2530 1.43505E+02 4.04625E+01 0.00000E+00
 -1      2531 1.43505E+02 3.89875E+01 0.00000E+00
 -1      2532 1.42206E+02 3.82500E+01 0.00000E+00
 -1      2533 1.25511E+02 2.52878E+01 0.00000E+00
 -1      2534 1.25483E+02 2.62348E+01 0.00000E+00
 -1      2535 1.23878E+02 2.09517E+01 0.00000E+00
 -1      2536 1.24365E+02 2.17839E+01 0.00000E+00
 -1      2537 1.67850E+01 5.30525E+00 0.00000E+00
 -1      2538 1.52850E+01 5.30525E+00 0.00000E+00
 -1      2539 1.75350E+01 6.60425E+00 0.00000E+00
 -1      2540 1.44321E+02 4.30606E+01 0.00000E+00
 -1      2541 1.25499E+02 2.72455E+01 0.00000E+00
 -1      2542 1.25514E+02 2.82562E+01 0.00000E+00
 -1      2543 1.26286E+02 2.67942E+01 0.00000E+00
 -1      2544 1.24806E+02 2.28632E+01 0.00000E+00
 -1      2545 1.25247E+02 2.39425E+01 0.00000E+00
 -1      2546 1.25302E+02 2.20137E+01 0.00000E+00
 -1      2547 6.55950E+00 4.28890E+01 0.00000E+00
 -1      2548 8.53650E+00 4.32410E+01 0.00000E+00
 -1      2549 9.28650E+00 4.19420E+01 0.00000E+00
 -1      2550 6.55950E+00 4.14140E+01 0.00000E+00
 -1      2551 1.25360E+02 2.94303E+01 0.00000E+00
 -1      2552 1.25064E+02 3.03997E+01 0.00000E+00
 -1      2553 1.17216E+02 3.70955E+01 0.00000E+00
 -1      2554 1.16074E+02 3.72160E+01 0.00000E+00
 -1      2555 6.49500E+00 2.71625E+01 0.00000E+00
 -1      2556 6.49500E+00 2.86375E+01 0.00000E+00
 -1      2557 7.79400E+00 2.93750E+01 0.00000E+00
 -1      2558 7.79400E+00 2.64250E+01 0.00000E+00
 -1      2559 1.14272E+02 1.63662E+01 0.00000E+00
 -1      2560 1.15272E+02 1.63441E+01 0.00000E+00
 -1      2561 1.23293E+02 3.34347E+01 0.00000E+00
 -1      2562 1.22600E+02 3.42933E+01 0.00000E+00
 -1      2563 1.16218E+02 1.63866E+01 0.00000E+00
 -1      2564 1.17164E+02 1.64292E+01 0.00000E+00
 -1      2565 1.15699E+02 1.55404E+01 0.00000E+00
 -1      2566 1.12019E+02 1.67801E+01 0.00000E+00
 -1      2567 1.13106E+02 1.65762E+01 0.00000E+00
 -1      2568 1.09880E+02 1.76122E+01 0.00000E+00
 -1      2569 1.10766E+02 1.71303E+01 0.00000E+00
 -1      2570 1.08125E+02 1.90034E+01 0.00000E+00
 -1      2571 1.08891E+02 1.83138E+01 0.00000E+00
 -1      2572 1.06796E+02 2.06683E+01 0.00000E+00
 -1      2573 1.07403E+02 1.98946E+01 0.00000E+00
 -1      2574 1.05547E+02 2.26265E+01 0.00000E+00
 -1      2575 1.06140E+02 2.16328E+01 0.00000E+00
 -1      2576 1.04964E+02 2.49940E+01 0.00000E+00
 -1      2577 1.05114E+02 2.39424E+01 0.00000E+00
 -1      2578 1.04887E+02 2.71835E+01 0.00000E+00
 -1      2579 1.04828E+02 2.61748E+01 0.00000E+00
 -1      2580 1.05054E+02 2.91742E+01 0.00000E+00
 -1      2581 1.04970E+02 2.81789E+01 0.00000E+00
 -1      2582 1.04127E+02 2.77216E+01 0.00000E+00
 -1      2583 1.05991E+02 3.15054E+01 0.00000E+00
 -1      2584 1.05470E+02 3.04921E+01 0.00000E+00
 -1      2585 1.07102E+02 3.32260E+01 0.00000E+00
 -1      2586 1.06573E+02 3.24788E+01 0.00000E+00
 -1      2587 1.08496E+02 3.51048E+01 0.00000E+00
 -1      2588 1.07680E+02 3.42858E+01 0.00000E+00
 -1      2589 1.10724E+02 3.62005E+01 0.00000E+00
 -1      2590 1.09777E+02 3.58489E+01 0.00000E+00
 -1      2591 1.12746E+02 3.65165E+01 0.00000E+00
 -1      2592 1.11819E+02 3.62804E+01 0.00000E+00
 -1      2593 1.14714E+02 3.71325E+01 0.00000E+00
 -1      2594 1.13695E+02 3.68829E+01 0.00000E+00
 -1      2595 1.19358E+02 3.65667E+01 0.00000E+00
 -1      2596 1.18491E+02 3.69196E+01 0.00000E+00
 -1      2597 1.21501E+02 3.52464E+01 0.00000E+00
 -1      2598 1.20426E+02 3.59135E+01 0.00000E+00
 -1      2599 1.24532E+02 3.15407E+01 0.00000E+00
 -1      2600 1.23950E+02 3.24511E+01 0.00000E+00
 -1      2601 8.07525E+00 5.11044E+00 0.00000E+00
 -1      2602 6.57525E+00 5.11044E+00 0.00000E+00
 -1      2603 6.40575E+00 6.01981E+00 0.00000E+00
 -1      2604 8.82525E+00 6.40944E+00 0.00000E+00
 -1      2605 1.22416E+02 1.94513E+01 0.00000E+00
 -1      2606 1.23080E+02 2.01188E+01 0.00000E+00
 -1      2607 1.13586E+02 1.57077E+01 0.00000E+00
 -1      2608 7.79400E+00 3.52687E+01 0.00000E+00
 -1      2609 6.49500E+00 3.60062E+01 0.00000E+00
 -1      2610 6.49500E+00 3.74750E+01 0.00000E+00
 -1      2611 1.45350E+01 6.60425E+00 0.00000E+00
 -1      2612 6.40575E+00 7.49481E+00 0.00000E+00
 -1      2613 1.22608E+02 1.84645E+01 0.00000E+00
 -1      2614 1.17939E+02 1.61194E+01 0.00000E+00
 -1      2615 1.18715E+02 1.58095E+01 0.00000E+00
 -1      2616 1.17421E+02 1.52731E+01 0.00000E+00
 -1      2617 1.26147E+02 2.89790E+01 0.00000E+00
 -1      2618 1.43586E+02 6.56853E+00 0.00000E+00
 -1      2619 1.24064E+02 2.01016E+01 0.00000E+00
 -1      2620 1.43419E+02 7.72713E+00 0.00000E+00
 -1      2621 1.25460E+02 3.12941E+01 0.00000E+00
 -1      2622 1.26503E+02 2.35888E+01 0.00000E+00
 -1      2623 1.26007E+02 2.44383E+01 0.00000E+00
 -1      2624 1.26767E+02 2.49341E+01 0.00000E+00
 -1      2625 1.22515E+02 3.53555E+01 0.00000E+00
 -1      2626 1.20347E+02 3.69618E+01 0.00000E+00
 -1      2627 7.70475E+00 8.23231E+00 0.00000E+00
 -1      2628 1.15370E+02 3.78834E+01 0.00000E+00
 -1      2629 6.55950E+00 3.99453E+01 0.00000E+00
 -1      2630 1.18005E+02 3.77910E+01 0.00000E+00
 -1      2631 1.13061E+02 3.74335E+01 0.00000E+00
 -1      2632 1.11018E+02 3.69872E+01 0.00000E+00
 -1      2633 1.08642E+02 3.61631E+01 0.00000E+00
 -1      2634 1.06784E+02 3.43592E+01 0.00000E+00
 -1      2635 1.04626E+02 3.00348E+01 0.00000E+00
 -1      2636 1.03783E+02 2.95776E+01 0.00000E+00
 -1      2637 1.04199E+02 3.08954E+01 0.00000E+00
 -1      2638 1.04179E+02 2.55455E+01 0.00000E+00
 -1      2639 1.04747E+02 2.30487E+01 0.00000E+00
 -1      2640 1.04380E+02 2.21551E+01 0.00000E+00
 -1      2641 1.03947E+02 2.34710E+01 0.00000E+00
 -1      2642 1.05835E+02 2.07683E+01 0.00000E+00
 -1      2643 1.07212E+02 1.89125E+01 0.00000E+00
 -1      2644 1.08924E+02 1.73196E+01 0.00000E+00
 -1      2645 1.20591E+02 1.71581E+01 0.00000E+00
 -1      2646 1.21558E+02 1.68801E+01 0.00000E+00
 -1      2647 1.20199E+02 1.63778E+01 0.00000E+00
 -1      2648 1.24271E+02 3.34188E+01 0.00000E+00
 -1      2649 1.11166E+02 1.62678E+01 0.00000E+00
 -1      2650 1.05624E+02 3.23261E+01 0.00000E+00
 -1      2651 1.42758E+02 4.35929E+01 0.00000E+00
 -1      2652 1.43241E+02 4.17323E+01 0.00000E+00
 -1      2653 1.41942E+02 4.09948E+01 0.00000E+00
 -1      2654 1.41414E+02 4.35342E+01 0.00000E+00
 -1      2655 1.42120E+02 8.46463E+00 0.00000E+00
 -1      2656 1.40664E+02 4.22352E+01 0.00000E+00
 -1      2657 9.09300E+00 1.98250E+01 0.00000E+00
 -1      2658 9.09300E+00 2.12750E+01 0.00000E+00
 -1      2659 9.09300E+00 2.27500E+01 0.00000E+00
 -1      2660 9.09300E+00 2.42250E+01 0.00000E+00
 -1      2661 1.03920E+01 2.20250E+01 0.00000E+00
 -1      2662 9.09300E+00 1.39375E+01 0.00000E+00
 -1      2663 9.09300E+00 1.54125E+01 0.00000E+00
 -1      2664 9.09300E+00 1.09875E+01 0.00000E+00
 -1      2665 9.09300E+00 1.24625E+01 0.00000E+00
 -1      2666 1.03920E+01 1.32000E+01 0.00000E+00
 -1      2667 1.22850E+01 7.90325E+00 0.00000E+00
 -1      2668 1.07850E+01 7.90325E+00 0.00000E+00
 -1      2669 1.15988E+02 3.89483E+01 0.00000E+00
 -1      2670 1.14628E+02 3.88649E+01 0.00000E+00
 -1      2671 1.26655E+02 3.11566E+01 0.00000E+00
 -1      2672 1.26123E+02 3.22977E+01 0.00000E+00
 -1      2673 1.44000E+01 4.09070E+01 0.00000E+00
 -1      2674 1.59000E+01 4.09070E+01 0.00000E+00
 -1      2675 1.74000E+01 4.09070E+01 0.00000E+00
 -1      2676 1.89000E+01 4.09070E+01 0.00000E+00
 -1      2677 1.66500E+01 3.96080E+01 0.00000E+00
 -1      2678 2.04000E+01 4.09070E+01 0.00000E+00
 -1      2679 2.19000E+01 4.09070E+01 0.00000E+00
 -1      2680 1.96500E+01 3.96080E+01 0.00000E+00
 -1      2681 2.34000E+01 4.09070E+01 0.00000E+00
 -1      2682 2.49000E+01 4.09070E+01 0.00000E+00
 -1      2683 2.26500E+01 3.96080E+01 0.00000E+00
 -1      2684 2.64000E+01 4.09070E+01 0.00000E+00
 -1      2685 2.79000E+01 4.09070E+01 0.00000E+00
 -1      2686 2.56500E+01 3.96080E+01 0.00000E+00
 -1      2687 2.94000E+01 4.09070E+01 0.00000E+00
 -1      2688 3.09000E+01 4.09070E+01 0.00000E+00
 -1      2689 2.86500E+01 3.96080E+01 0.00000E+00
 -1      2690 3.24000E+01 4.09070E+01 0.00000E+00
 -1      2691 3.39000E+01 4.09070E+01 0.00000E+00
 -1      2692 3.16500E+01 3.96080E+01 0.00000E+00
 -1      2693 3.54000E+01 4.09070E+01 0.00000E+00
 -1      2694 3.69000E+01 4.09070E+01 0.00000E+00
 -1      2695 3.46500E+01 3.96080E+01 0.00000E+00
 -1      2696 3.84000E+01 4.09070E+01 0.00000E+00
 -1      2697 3.99000E+01 4.09070E+01 0.00000E+00
 -1      2698 3.76500E+01 3.96080E+01 0.00000E+00
 -1      2699 4.14000E+01 4.09070E+01 0.00000E+00
 -1      2700 4.29000E+01 4.09070E+01 0.00000E+00
 -1      2701 4.06500E+01 3.96080E+01 0.00000E+00
 -1      2702 4.44000E+01 4.09070E+01 0.00000E+00
 -1      2703 4.59000E+01 4.09070E+01 0.00000E+00
 -1      2704 4.36500E+01 3.96080E+01 0.00000E+00
 -1      2705 4.74000E+01 4.09070E+01 0.00000E+00
 -1      2706 4.89000E+01 4.09070E+01 0.00000E+00
 -1      2707 4.66500E+01 3.96080E+01 0.00000E+00
 -1      2708 5.04000E+01 4.09070E+01 0.00000E+00
 -1      2709 5.19000E+01 4.09070E+01 0.00000E+00
 -1      2710 4.96500E+01 3.96080E+01 0.00000E+00
 -1      2711 5.34000E+01 4.09070E+01 0.00000E+00
 -1      2712 5.49000E+01 4.09070E+01 0.00000E+00
 -1      2713 5.26500E+01 3.96080E+01 0.00000E+00
 -1      2714 5.64000E+01 4.09070E+01 0.00000E+00
 -1      2715 5.79000E+01 4.09070E+01 0.00000E+00
 -1      2716 5.56500E+01 3.96080E+01 0.00000E+00
 -1      2717 5.94000E+01 4.09070E+01 0.00000E+00
 -1      2718 6.09000E+01 4.09070E+01 0.00000E+00
 -1      2719 5.86500E+01 3.96080E+01 0.00000E+00
 -1      2720 6.24000E+01 4.09070E+01 0.00000E+00
 -1      2721 6.39000E+01 4.09070E+01 0.00000E+00
 -1      2722 6.16500E+01 3.96080E+01 0.00000E+00
 -1      2723 6.54000E+01 4.09070E+01 0.00000E+00
 -1      2724 6.69000E+01 4.09070E+01 0.00000E+00
 -1      2725 6.46500E+01 3.96080E+01 0.00000E+00
 -1      2726 6.84000E+01 4.09070E+01 0.00000E+00
 -1      2727 6.99000E+01 4.09070E+01 0.00000E+00
 -1      2728 6.76500E+01 3.96080E+01 0.00000E+00
 -1      2729 7.14000E+01 4.09070E+01 0.00000E+00
 -1      2730 7.29000E+01 4.09070E+01 0.00000E+00
 -1      2731 7.06500E+01 3.96080E+01 0.00000E+00
 -1      2732 7.44000E+01 4.09070E+01 0.00000E+00
 -1      2733 7.59000E+01 4.09070E+01 0.00000E+00
 -1      2734 7.36500E+01 3.96080E+01 0.00000E+00
 -1      2735 7.74000E+01 4.09070E+01 0.00000E+00
 -1      2736 7.89000E+01 4.09070E+01 0.00000E+00
 -1      2737 7.66500E+01 3.96080E+01 0.00000E+00
 -1      2738 8.04000E+01 4.09070E+01 0.00000E+00
 -1      2739 8.19000E+01 4.09070E+01 0.00000E+00
 -1      2740 7.96500E+01 3.96080E+01 0.00000E+00
 -1      2741 8.34000E+01 4.09070E+01 0.00000E+00
 -1      2742 8.49000E+01 4.09070E+01 0.00000E+00
 -1      2743 8.26500E+01 3.96080E+01 0.00000E+00
 -1      2744 8.64000E+01 4.09070E+01 0.00000E+00
 -1      2745 8.79000E+01 4.09070E+01 0.00000E+00
 -1      2746 8.56500E+01 3.96080E+01 0.00000E+00
 -1      2747 8.94000E+01 4.09070E+01 0.00000E+00
 -1      2748 9.09000E+01 4.09070E+01 0.00000E+00
 -1      2749 8.86500E+01 3.96080E+01 0.00000E+00
 -1      2750 9.24000E+01 4.09070E+01 0.00000E+00
 -1      2751 9.39000E+01 4.09070E+01 0.00000E+00
 -1      2752 9.16500E+01 3.96080E+01 0.00000E+00
 -1      2753 9.54000E+01 4.09070E+01 0.00000E+00
 -1      2754 9.69000E+01 4.09070E+01 0.00000E+00
 -1      2755 9.46500E+01 3.96080E+01 0.00000E+00
 -1      2756 9.84000E+01 4.09070E+01 0.00000E+00
 -1      2757 9.99000E+01 4.09070E+01 0.00000E+00
 -1      2758 9.76500E+01 3.96080E+01 0.00000E+00
 -1      2759 1.01400E+02 4.09070E+01 0.00000E+00
 -1      2760 1.02900E+02 4.09070E+01 0.00000E+00
 -1      2761 1.00650E+02 3.96080E+01 0.00000E+00
 -1      2762 1.04400E+02 4.09070E+01 0.00000E+00
 -1      2763 1.05900E+02 4.09070E+01 0.00000E+00
 -1      2764 1.03650E+02 3.96080E+01 0.00000E+00
 -1      2765 1.07400E+02 4.09070E+01 0.00000E+00
 -1      2766 1.08900E+02 4.09070E+01 0.00000E+00
 -1      2767 1.06650E+02 3.96080E+01 0.00000E+00
 -1      2768 1.13947E+02 4.10679E+01 0.00000E+00
 -1      2769 1.15447E+02 4.10679E+01 0.00000E+00
 -1      2770 1.19400E+02 4.10133E+01 0.00000E+00
 -1      2771 1.20900E+02 4.10133E+01 0.00000E+00
 -1      2772 1.22400E+02 4.10133E+01 0.00000E+00
 -1      2773 1.23900E+02 4.10133E+01 0.00000E+00
 -1      2774 1.21650E+02 3.98206E+01 0.00000E+00
 -1      2775 1.25400E+02 4.10133E+01 0.00000E+00
 -1      2776 1.26900E+02 4.10133E+01 0.00000E+00
 -1      2777 1.24650E+02 3.98206E+01 0.00000E+00
 -1      2778 1.28400E+02 4.10133E+01 0.00000E+00
 -1      2779 1.29900E+02 4.10133E+01 0.00000E+00
 -1      2780 1.27650E+02 3.98206E+01 0.00000E+00
 -1      2781 1.31400E+02 4.10133E+01 0.00000E+00
 -1      2782 1.32900E+02 4.10133E+01 0.00000E+00
 -1      2783 1.30650E+02 3.98206E+01 0.00000E+00
 -1      2784 1.34400E+02 4.10133E+01 0.00000E+00
 -1      2785 1.35900E+02 4.10133E+01 0.00000E+00
 -1      2786 1.33650E+02 3.98206E+01 0.00000E+00
 -1      2787 1.37400E+02 4.10133E+01 0.00000E+00
 -1      2788 1.38900E+02 4.10133E+01 0.00000E+00
 -1      2789 1.36650E+02 3.98206E+01 0.00000E+00
 -1      2790 2.42850E+01 7.90325E+00 0.00000E+00
 -1      2791 2.27850E+01 7.90325E+00 0.00000E+00
 -1      2792 1.40706E+02 1.03250E+01 0.00000E+00
 -1      2793 1.40620E+02 8.46463E+00 0.00000E+00
 -1      2794 1.39120E+02 8.46463E+00 0.00000E+00
 -1      2795 8.91450E+00 8.42712E+00 0.00000E+00
 -1      2796 2.12850E+01 7.90325E+00 0.00000E+00
 -1      2797 1.97850E+01 7.90325E+00 0.00000E+00
 -1      2798 2.20350E+01 9.20225E+00 0.00000E+00
 -1      2799 3.02850E+01 7.90325E+00 0.00000E+00
 -1      2800 2.87850E+01 7.90325E+00 0.00000E+00
 -1      2801 3.32850E+01 7.90325E+00 0.00000E+00
 -1      2802 3.17850E+01 7.90325E+00 0.00000E+00
 -1      2803 3.10350E+01 9.20225E+00 0.00000E+00
 -1      2804 3.62850E+01 7.90325E+00 0.00000E+00
 -1      2805 3.47850E+01 7.90325E+00 0.00000E+00
 -1      2806 3.40350E+01 9.20225E+00 0.00000E+00
 -1      2807 3.92850E+01 7.90325E+00 0.00000E+00
 -1      2808 3.77850E+01 7.90325E+00 0.00000E+00
 -1      2809 3.70350E+01 9.20225E+00 0.00000E+00
 -1      2810 4.22850E+01 7.90325E+00 0.00000E+00
 -1      2811 4.07850E+01 7.90325E+00 0.00000E+00
 -1      2812 4.00350E+01 9.20225E+00 0.00000E+00
 -1      2813 4.52850E+01 7.90325E+00 0.00000E+00
 -1      2814 4.37850E+01 7.90325E+00 0.00000E+00
 -1      2815 4.30350E+01 9.20225E+00 0.00000E+00
 -1      2816 4.82850E+01 7.90325E+00 0.00000E+00
 -1      2817 4.67850E+01 7.90325E+00 0.00000E+00
 -1      2818 4.60350E+01 9.20225E+00 0.00000E+00
 -1      2819 5.12850E+01 7.90325E+00 0.00000E+00
 -1      2820 4.97850E+01 7.90325E+00 0.00000E+00
 -1      2821 4.90350E+01 9.20225E+00 0.00000E+00
 -1      2822 5.42850E+01 7.90325E+00 0.00000E+00
 -1      2823 5.27850E+01 7.90325E+00 0.00000E+00
 -1      2824 5.20350E+01 9.20225E+00 0.00000E+00
 -1      2825 5.72850E+01 7.90325E+00 0.00000E+00
 -1      2826 5.57850E+01 7.90325E+00 0.00000E+00
 -1      2827 5.50350E+01 9.20225E+00 0.00000E+00
 -1      2828 6.02850E+01 7.90325E+00 0.00000E+00
 -1      2829 5.87850E+01 7.90325E+00 0.00000E+00
 -1      2830 5.80350E+01 9.20225E+00 0.00000E+00
 -1      2831 6.32850E+01 7.90325E+00 0.00000E+00
 -1      2832 6.17850E+01 7.90325E+00 0.00000E+00
 -1      2833 6.10350E+01 9.20225E+00 0.00000E+00
 -1      2834 6.62850E+01 7.90325E+00 0.00000E+00
 -1      2835 6.47850E+01 7.90325E+00 0.00000E+00
 -1      2836 6.40350E+01 9.20225E+00 0.00000E+00
 -1      2837 6.92850E+01 7.90325E+00 0.00000E+00
 -1      2838 6.77850E+01 7.90325E+00 0.00000E+00
 -1      2839 6.70350E+01 9.20225E+00 0.00000E+00
 -1      2840 7.22850E+01 7.90325E+00 0.00000E+00
 -1      2841 7.07850E+01 7.90325E+00 0.00000E+00
 -1      2842 7.00350E+01 9.20225E+00 0.00000E+00
 -1      2843 7.52850E+01 7.90325E+00 0.00000E+00
 -1      2844 7.37850E+01 7.90325E+00 0.00000E+00
 -1      2845 7.30350E+01 9.20225E+00 0.00000E+00
 -1      2846 7.82850E+01 7.90325E+00 0.00000E+00
 -1      2847 7.67850E+01 7.90325E+00 0.00000E+00
 -1      2848 7.60350E+01 9.20225E+00 0.00000E+00
 -1      2849 8.12850E+01 7.90325E+00 0.00000E+00
 -1      2850 7.97850E+01 7.90325E+00 0.00000E+00
 -1      2851 7.90350E+01 9.20225E+00 0.00000E+00
 -1      2852 8.42850E+01 7.90325E+00 0.00000E+00
 -1      2853 8.27850E+01 7.90325E+00 0.00000E+00
 -1      2854 8.20350E+01 9.20225E+00 0.00000E+00
 -1      2855 8.72850E+01 7.90325E+00 0.00000E+00
 -1      2856 8.57850E+01 7.90325E+00 0.00000E+00
 -1      2857 8.50350E+01 9.20225E+00 0.00000E+00
 -1      2858 9.02850E+01 7.90325E+00 0.00000E+00
 -1      2859 8.87850E+01 7.90325E+00 0.00000E+00
 -1      2860 8.80350E+01 9.20225E+00 0.00000E+00
 -1      2861 9.32850E+01 7.90325E+00 0.00000E+00
 -1      2862 9.17850E+01 7.90325E+00 0.00000E+00
 -1      2863 9.10350E+01 9.20225E+00 0.00000E+00
 -1      2864 9.62850E+01 7.90325E+00 0.00000E+00
 -1      2865 9.47850E+01 7.90325E+00 0.00000E+00
 -1      2866 9.40350E+01 9.20225E+00 0.00000E+00
 -1      2867 9.92850E+01 7.90325E+00 0.00000E+00
 -1      2868 9.77850E+01 7.90325E+00 0.00000E+00
 -1      2869 9.70350E+01 9.20225E+00 0.00000E+00
 -1      2870 1.02285E+02 7.90325E+00 0.00000E+00
 -1      2871 1.00785E+02 7.90325E+00 0.00000E+00
 -1      2872 1.00035E+02 9.20225E+00 0.00000E+00
 -1      2873 1.05285E+02 7.90325E+00 0.00000E+00
 -1      2874 1.03785E+02 7.90325E+00 0.00000E+00
 -1      2875 1.03035E+02 9.20225E+00 0.00000E+00
 -1      2876 1.08285E+02 7.90325E+00 0.00000E+00
 -1      2877 1.06785E+02 7.90325E+00 0.00000E+00
 -1      2878 1.06035E+02 9.20225E+00 0.00000E+00
 -1      2879 1.11285E+02 7.90325E+00 0.00000E+00
 -1      2880 1.09785E+02 7.90325E+00 0.00000E+00
 -1      2881 1.09035E+02 9.20225E+00 0.00000E+00
 -1      2882 1.14285E+02 7.90325E+00 0.00000E+00
 -1      2883 1.12785E+02 7.90325E+00 0.00000E+00
 -1      2884 1.12035E+02 9.20225E+00 0.00000E+00
 -1      2885 1.17285E+02 7.90325E+00 0.00000E+00
 -1      2886 1.15785E+02 7.90325E+00 0.00000E+00
 -1      2887 1.15035E+02 9.20225E+00 0.00000E+00
 -1      2888 1.20285E+02 7.90325E+00 0.00000E+00
 -1      2889 1.18785E+02 7.90325E+00 0.00000E+00
 -1      2890 1.18035E+02 9.20225E+00 0.00000E+00
 -1      2891 1.23285E+02 7.90325E+00 0.00000E+00
 -1      2892 1.21785E+02 7.90325E+00 0.00000E+00
 -1      2893 1.21035E+02 9.20225E+00 0.00000E+00
 -1      2894 1.26285E+02 7.90325E+00 0.00000E+00
 -1      2895 1.24785E+02 7.90325E+00 0.00000E+00
 -1      2896 1.24035E+02 9.20225E+00 0.00000E+00
 -1      2897 1.29285E+02 7.90325E+00 0.00000E+00
 -1      2898 1.27785E+02 7.90325E+00 0.00000E+00
 -1      2899 1.27035E+02 9.20225E+00 0.00000E+00
 -1      2900 1.32285E+02 7.90325E+00 0.00000E+00
 -1      2901 1.30785E+02 7.90325E+00 0.00000E+00
 -1      2902 1.30035E+02 9.20225E+00 0.00000E+00
 -1      2903 1.35285E+02 7.90325E+00 0.00000E+00
 -1      2904 1.33785E+02 7.90325E+00 0.00000E+00
 -1      2905 1.33035E+02 9.20225E+00 0.00000E+00
 -1      2906 1.37953E+02 8.18394E+00 0.00000E+00
 -1      2907 1.36453E+02 8.18394E+00 0.00000E+00
 -1      2908 1.35703E+02 9.48294E+00 0.00000E+00
 -1      2909 1.38038E+02 1.00443E+01 0.00000E+00
 -1      2910 1.24285E+02 1.90922E+01 0.00000E+00
 -1      2911 1.25082E+02 1.99250E+01 0.00000E+00
 -1      2912 1.40907E+02 2.42875E+01 0.00000E+00
 -1      2913 1.40907E+02 2.28125E+01 0.00000E+00
 -1      2914 1.39914E+02 4.09894E+01 0.00000E+00
 -1      2915 1.40928E+02 4.10187E+01 0.00000E+00
 -1      2916 1.41192E+02 3.97489E+01 0.00000E+00
 -1      2917 1.39164E+02 3.97967E+01 0.00000E+00
 -1      2918 1.40907E+02 1.83875E+01 0.00000E+00
 -1      2919 1.40907E+02 1.69125E+01 0.00000E+00
 -1      2920 1.40907E+02 2.72375E+01 0.00000E+00
 -1      2921 1.40907E+02 2.57625E+01 0.00000E+00
 -1      2922 1.39608E+02 2.50250E+01 0.00000E+00
 -1      2923 1.40907E+02 2.13375E+01 0.00000E+00
 -1      2924 1.40907E+02 1.98625E+01 0.00000E+00
 -1      2925 1.39608E+02 1.91250E+01 0.00000E+00
 -1      2926 1.39608E+02 2.20750E+01 0.00000E+00
 -1      2927 1.40907E+02 3.01375E+01 0.00000E+00
 -1      2928 1.40907E+02 2.86875E+01 0.00000E+00
 -1      2929 1.39608E+02 2.79500E+01 0.00000E+00
 -1      2930 1.40907E+02 3.30875E+01 0.00000E+00
 -1      2931 1.40907E+02 3.16125E+01 0.00000E+00
 -1      2932 1.39608E+02 3.08750E+01 0.00000E+00
 -1      2933 1.40907E+02 3.60375E+01 0.00000E+00
 -1      2934 1.40907E+02 3.45625E+01 0.00000E+00
 -1      2935 1.39608E+02 3.38250E+01 0.00000E+00
 -1      2936 1.41049E+02 3.86307E+01 0.00000E+00
 -1      2937 1.41049E+02 3.71557E+01 0.00000E+00
 -1      2938 1.39751E+02 3.64182E+01 0.00000E+00
 -1      2939 1.40036E+02 3.86546E+01 0.00000E+00
 -1      2940 1.23626E+02 3.55269E+01 0.00000E+00
 -1      2941 1.22527E+02 3.64800E+01 0.00000E+00
 -1      2942 8.85168E+00 4.05347E+01 0.00000E+00
 -1      2943 1.02152E+01 4.07987E+01 0.00000E+00
 -1      2944 1.27219E+02 2.62745E+01 0.00000E+00
 -1      2945 1.27235E+02 2.72851E+01 0.00000E+00
 -1      2946 1.25837E+02 2.11655E+01 0.00000E+00
 -1      2947 1.26278E+02 2.22448E+01 0.00000E+00
 -1      2948 7.48818E+00 3.88019E+01 0.00000E+00
 -1      2949 1.03093E+02 2.60188E+01 0.00000E+00
 -1      2950 1.03228E+02 2.48380E+01 0.00000E+00
 -1      2951 1.15265E+02 1.46624E+01 0.00000E+00
 -1      2952 1.16211E+02 1.47050E+01 0.00000E+00
 -1      2953 1.82850E+01 7.90325E+00 0.00000E+00
 -1      2954 1.67850E+01 7.90325E+00 0.00000E+00
 -1      2955 1.90350E+01 9.20225E+00 0.00000E+00
 -1      2956 2.72850E+01 7.90325E+00 0.00000E+00
 -1      2957 2.57850E+01 7.90325E+00 0.00000E+00
 -1      2958 2.50350E+01 9.20225E+00 0.00000E+00
 -1      2959 2.80350E+01 9.20225E+00 0.00000E+00
 -1      2960 1.15576E+01 4.08528E+01 0.00000E+00
 -1      2961 1.30576E+01 4.08528E+01 0.00000E+00
 -1      2962 1.38076E+01 3.95538E+01 0.00000E+00
 -1      2963 1.11228E+01 3.94455E+01 0.00000E+00
 -1      2964 9.09300E+00 1.68813E+01 0.00000E+00
 -1      2965 9.09300E+00 1.83563E+01 0.00000E+00
 -1      2966 1.03920E+01 1.90812E+01 0.00000E+00
 -1      2967 1.03920E+01 1.61437E+01 0.00000E+00
 -1      2968 1.52850E+01 7.90325E+00 0.00000E+00
 -1      2969 1.37850E+01 7.90325E+00 0.00000E+00
 -1      2970 1.30350E+01 9.20225E+00 0.00000E+00
 -1      2971 1.60350E+01 9.20225E+00 0.00000E+00
 -1      2972 1.18536E+02 3.85965E+01 0.00000E+00
 -1      2973 1.17262E+02 3.87724E+01 0.00000E+00
 -1      2974 1.16519E+02 3.97539E+01 0.00000E+00
 -1      2975 9.09300E+00 3.15875E+01 0.00000E+00
 -1      2976 9.09300E+00 3.30625E+01 0.00000E+00
 -1      2977 1.21373E+02 3.74384E+01 0.00000E+00
 -1      2978 1.20304E+02 3.80916E+01 0.00000E+00
 -1      2979 1.27074E+02 2.85041E+01 0.00000E+00
 -1      2980 1.26919E+02 2.96782E+01 0.00000E+00
 -1      2981 1.05215E+02 3.32311E+01 0.00000E+00
 -1      2982 1.04633E+02 3.22577E+01 0.00000E+00
 -1      2983 1.07884E+02 1.69025E+01 0.00000E+00
 -1      2984 1.08874E+02 1.62009E+01 0.00000E+00
 -1      2985 1.06120E+02 1.87659E+01 0.00000E+00
 -1      2986 1.06842E+02 1.78746E+01 0.00000E+00
 -1      2987 1.04808E+02 2.06949E+01 0.00000E+00
 -1      2988 1.05464E+02 1.97304E+01 0.00000E+00
 -1      2989 1.05093E+02 1.86925E+01 0.00000E+00
 -1      2990 1.03314E+02 2.82911E+01 0.00000E+00
 -1      2991 1.03230E+02 2.72957E+01 0.00000E+00
 -1      2992 1.06320E+02 3.52998E+01 0.00000E+00
 -1      2993 1.05742E+02 3.42400E+01 0.00000E+00
 -1      2994 1.08726E+02 3.74940E+01 0.00000E+00
 -1      2995 1.07445E+02 3.67499E+01 0.00000E+00
 -1      2996 1.11490E+02 3.80495E+01 0.00000E+00
 -1      2997 1.10396E+02 3.79696E+01 0.00000E+00
 -1      2998 1.13533E+02 3.86404E+01 0.00000E+00
 -1      2999 1.12584E+02 3.82740E+01 0.00000E+00
 -1      3000 1.11962E+02 3.92564E+01 0.00000E+00
 -1      3001 1.14151E+02 3.97053E+01 0.00000E+00
 -1      3002 1.10241E+02 1.53749E+01 0.00000E+00
 -1      3003 1.11495E+02 1.50247E+01 0.00000E+00
 -1      3004 1.22968E+02 1.74838E+01 0.00000E+00
 -1      3005 1.23626E+02 1.82880E+01 0.00000E+00
 -1      3006 1.24644E+02 1.81114E+01 0.00000E+00
 -1      3007 1.25383E+02 3.34499E+01 0.00000E+00
 -1      3008 1.24725E+02 3.44335E+01 0.00000E+00
 -1      3009 1.12836E+02 1.48862E+01 0.00000E+00
 -1      3010 1.14003E+02 1.46763E+01 0.00000E+00
 -1      3011 9.09300E+00 3.45313E+01 0.00000E+00
 -1      3012 9.09300E+00 3.60000E+01 0.00000E+00
 -1      3013 1.03920E+01 3.37938E+01 0.00000E+00
 -1      3014 1.03920E+01 2.49750E+01 0.00000E+00
 -1      3015 9.09300E+00 2.57000E+01 0.00000E+00
 -1      3016 9.09300E+00 2.71750E+01 0.00000E+00
 -1      3017 1.11911E+02 1.39933E+01 0.00000E+00
 -1      3018 1.26578E+02 3.33124E+01 0.00000E+00
 -1      3019 1.16986E+02 1.43951E+01 0.00000E+00
 -1      3020 1.17761E+02 1.40853E+01 0.00000E+00
 -1      3021 1.16552E+02 1.35172E+01 0.00000E+00
 -1      3022 1.19162E+02 1.46853E+01 0.00000E+00
 -1      3023 1.19681E+02 1.55315E+01 0.00000E+00
 -1      3024 1.20647E+02 1.52536E+01 0.00000E+00
 -1      3025 1.16722E+02 4.08920E+01 0.00000E+00
 -1      3026 1.09509E+02 3.93200E+01 0.00000E+00
 -1      3027 1.10259E+02 4.06190E+01 0.00000E+00
 -1      3028 1.12853E+02 4.08434E+01 0.00000E+00
 -1      3029 1.11759E+02 4.06190E+01 0.00000E+00
 -1      3030 1.39608E+02 1.61875E+01 0.00000E+00
 -1      3031 1.40907E+02 1.54500E+01 0.00000E+00
 -1      3032 1.40907E+02 1.39875E+01 0.00000E+00
 -1      3033 1.18222E+02 4.08920E+01 0.00000E+00
 -1      3034 1.26279E+02 1.91467E+01 0.00000E+00
 -1      3035 1.26058E+02 2.01561E+01 0.00000E+00
 -1      3036 1.27033E+02 2.03872E+01 0.00000E+00
 -1      3037 1.24738E+02 3.55580E+01 0.00000E+00
 -1      3038 9.66450E+00 9.72612E+00 0.00000E+00
 -1      3039 1.22484E+02 3.76097E+01 0.00000E+00
 -1      3040 1.40706E+02 1.17875E+01 0.00000E+00
 -1      3041 1.27716E+02 2.54250E+01 0.00000E+00
 -1      3042 1.27038E+02 2.27406E+01 0.00000E+00
 -1      3043 1.27798E+02 2.32364E+01 0.00000E+00
 -1      3044 1.27572E+02 2.18924E+01 0.00000E+00
 -1      3045 1.09635E+01 1.04636E+01 0.00000E+00
 -1      3046 1.01775E+02 2.44176E+01 0.00000E+00
 -1      3047 1.02861E+02 2.39443E+01 0.00000E+00
 -1      3048 1.02494E+02 2.30506E+01 0.00000E+00
 -1      3049 1.28008E+02 2.79843E+01 0.00000E+00
 -1      3050 1.09202E+02 1.49578E+01 0.00000E+00
 -1      3051 1.09198E+02 3.85564E+01 0.00000E+00
 -1      3052 8.78718E+00 3.80644E+01 0.00000E+00
 -1      3053 1.04009E+02 2.11172E+01 0.00000E+00
 -1      3054 1.03638E+02 2.00793E+01 0.00000E+00
 -1      3055 1.03209E+02 2.15394E+01 0.00000E+00
 -1      3056 1.02280E+02 2.65882E+01 0.00000E+00
 -1      3057 1.14515E+02 1.38409E+01 0.00000E+00
 -1      3058 9.09300E+00 2.86437E+01 0.00000E+00
 -1      3059 9.09300E+00 3.01187E+01 0.00000E+00
 -1      3060 1.03920E+01 3.08563E+01 0.00000E+00
 -1      3061 1.03920E+01 2.79188E+01 0.00000E+00
 -1      3062 1.03790E+02 3.18005E+01 0.00000E+00
 -1      3063 1.02946E+02 3.13432E+01 0.00000E+00
 -1      3064 1.03380E+02 3.27055E+01 0.00000E+00
 -1      3065 1.18972E+02 3.96993E+01 0.00000E+00
 -1      3066 1.06792E+02 1.67559E+01 0.00000E+00
 -1      3067 1.04751E+02 3.41717E+01 0.00000E+00
 -1      3068 1.27583E+02 3.06817E+01 0.00000E+00
 -1      3069 1.22184E+02 1.59232E+01 0.00000E+00
 -1      3070 1.22576E+02 1.67035E+01 0.00000E+00
 -1      3071 1.23594E+02 1.65269E+01 0.00000E+00
 -1      3072 1.02887E+02 2.91517E+01 0.00000E+00
 -1      3073 1.16910E+01 1.24625E+01 0.00000E+00
 -1      3074 1.16910E+01 1.39375E+01 0.00000E+00
 -1      3075 1.19715E+02 3.87178E+01 0.00000E+00
 -1      3076 1.07988E+02 1.44933E+01 0.00000E+00
 -1      3077 1.09356E+02 1.36673E+01 0.00000E+00
 -1      3078 1.89000E+01 3.83090E+01 0.00000E+00
 -1      3079 2.04000E+01 3.83090E+01 0.00000E+00
 -1      3080 2.19000E+01 3.83090E+01 0.00000E+00
 -1      3081 2.34000E+01 3.83090E+01 0.00000E+00
 -1      3082 2.11500E+01 3.70100E+01 0.00000E+00
 -1      3083 2.49000E+01 3.83090E+01 0.00000E+00
 -1      3084 2.64000E+01 3.83090E+01 0.00000E+00
 -1      3085 2.41500E+01 3.70100E+01 0.00000E+00
 -1      3086 2.79000E+01 3.83090E+01 0.00000E+00
 -1      3087 2.94000E+01 3.83090E+01 0.00000E+00
 -1      3088 2.71500E+01 3.70100E+01 0.00000E+00
 -1      3089 3.09000E+01 3.83090E+01 0.00000E+00
 -1      3090 3.24000E+01 3.83090E+01 0.00000E+00
 -1      3091 3.01500E+01 3.70100E+01 0.00000E+00
 -1      3092 3.39000E+01 3.83090E+01 0.00000E+00
 -1      3093 3.54000E+01 3.83090E+01 0.00000E+00
 -1      3094 3.31500E+01 3.70100E+01 0.00000E+00
 -1      3095 3.69000E+01 3.83090E+01 0.00000E+00
 -1      3096 3.84000E+01 3.83090E+01 0.00000E+00
 -1      3097 3.61500E+01 3.70100E+01 0.00000E+00
 -1      3098 3.99000E+01 3.83090E+01 0.00000E+00
 -1      3099 4.14000E+01 3.83090E+01 0.00000E+00
 -1      3100 3.91500E+01 3.70100E+01 0.00000E+00
 -1      3101 4.29000E+01 3.83090E+01 0.00000E+00
 -1      3102 4.44000E+01 3.83090E+01 0.00000E+00
 -1      3103 4.21500E+01 3.70100E+01 0.00000E+00
 -1      3104 4.59000E+01 3.83090E+01 0.00000E+00
 -1      3105 4.74000E+01 3.83090E+01 0.00000E+00
 -1      3106 4.51500E+01 3.70100E+01 0.00000E+00
 -1      3107 4.89000E+01 3.83090E+01 0.00000E+00
 -1      3108 5.04000E+01 3.83090E+01 0.00000E+00
 -1      3109 4.81500E+01 3.70100E+01 0.00000E+00
 -1      3110 5.19000E+01 3.83090E+01 0.00000E+00
 -1      3111 5.34000E+01 3.83090E+01 0.00000E+00
 -1      3112 5.11500E+01 3.70100E+01 0.00000E+00
 -1      3113 5.49000E+01 3.83090E+01 0.00000E+00
 -1      3114 5.64000E+01 3.83090E+01 0.00000E+00
 -1      3115 5.41500E+01 3.70100E+01 0.00000E+00
 -1      3116 5.79000E+01 3.83090E+01 0.00000E+00
 -1      3117 5.94000E+01 3.83090E+01 0.00000E+00
 -1      3118 5.71500E+01 3.70100E+01 0.00000E+00
 -1      3119 6.09000E+01 3.83090E+01 0.00000E+00
 -1      3120 6.24000E+01 3.83090E+01 0.00000E+00
 -1      3121 6.01500E+01 3.70100E+01 0.00000E+00
 -1      3122 6.39000E+01 3.83090E+01 0.00000E+00
 -1      3123 6.54000E+01 3.83090E+01 0.00000E+00
 -1      3124 6.31500E+01 3.70100E+01 0.00000E+00
 -1      3125 6.69000E+01 3.83090E+01 0.00000E+00
 -1      3126 6.84000E+01 3.83090E+01 0.00000E+00
 -1      3127 6.61500E+01 3.70100E+01 0.00000E+00
 -1      3128 6.99000E+01 3.83090E+01 0.00000E+00
 -1      3129 7.14000E+01 3.83090E+01 0.00000E+00
 -1      3130 6.91500E+01 3.70100E+01 0.00000E+00
 -1      3131 7.29000E+01 3.83090E+01 0.00000E+00
 -1      3132 7.44000E+01 3.83090E+01 0.00000E+00
 -1      3133 7.21500E+01 3.70100E+01 0.00000E+00
 -1      3134 7.59000E+01 3.83090E+01 0.00000E+00
 -1      3135 7.74000E+01 3.83090E+01 0.00000E+00
 -1      3136 7.51500E+01 3.70100E+01 0.00000E+00
 -1      3137 7.89000E+01 3.83090E+01 0.00000E+00
 -1      3138 8.04000E+01 3.83090E+01 0.00000E+00
 -1      3139 7.81500E+01 3.70100E+01 0.00000E+00
 -1      3140 8.19000E+01 3.83090E+01 0.00000E+00
 -1      3141 8.34000E+01 3.83090E+01 0.00000E+00
 -1      3142 8.11500E+01 3.70100E+01 0.00000E+00
 -1      3143 8.49000E+01 3.83090E+01 0.00000E+00
 -1      3144 8.64000E+01 3.83090E+01 0.00000E+00
 -1      3145 8.41500E+01 3.70100E+01 0.00000E+00
 -1      3146 8.79000E+01 3.83090E+01 0.00000E+00
 -1      3147 8.94000E+01 3.83090E+01 0.00000E+00
 -1      3148 8.71500E+01 3.70100E+01 0.00000E+00
 -1      3149 9.09000E+01 3.83090E+01 0.00000E+00
 -1      3150 9.24000E+01 3.83090E+01 0.00000E+00
 -1      3151 9.01500E+01 3.70100E+01 0.00000E+00
 -1      3152 9.39000E+01 3.83090E+01 0.00000E+00
 -1      3153 9.54000E+01 3.83090E+01 0.00000E+00
 -1      3154 9.31500E+01 3.70100E+01 0.00000E+00
 -1      3155 9.69000E+01 3.83090E+01 0.00000E+00
 -1      3156 9.84000E+01 3.83090E+01 0.00000E+00
 -1      3157 9.61500E+01 3.70100E+01 0.00000E+00
 -1      3158 9.99000E+01 3.83090E+01 0.00000E+00
 -1      3159 1.01400E+02 3.83090E+01 0.00000E+00
 -1      3160 9.91500E+01 3.70100E+01 0.00000E+00
 -1      3161 1.26900E+02 3.85216E+01 0.00000E+00
 -1      3162 1.28400E+02 3.85216E+01 0.00000E+00
 -1      3163 1.29900E+02 3.85216E+01 0.00000E+00
 -1      3164 1.31400E+02 3.85216E+01 0.00000E+00
 -1      3165 1.29150E+02 3.72226E+01 0.00000E+00
 -1      3166 1.32900E+02 3.85216E+01 0.00000E+00
 -1      3167 1.34400E+02 3.85216E+01 0.00000E+00
 -1      3168 1.32150E+02 3.72226E+01 0.00000E+00
 -1      3169 1.35900E+02 3.85216E+01 0.00000E+00
 -1      3170 1.37400E+02 3.85216E+01 0.00000E+00
 -1      3171 1.35150E+02 3.72226E+01 0.00000E+00
 -1      3172 3.77850E+01 1.05013E+01 0.00000E+00
 -1      3173 3.62850E+01 1.05013E+01 0.00000E+00
 -1      3174 2.27850E+01 1.05013E+01 0.00000E+00
 -1      3175 2.12850E+01 1.05013E+01 0.00000E+00
 -1      3176 3.47850E+01 1.05013E+01 0.00000E+00
 -1      3177 3.32850E+01 1.05013E+01 0.00000E+00
 -1      3178 3.55350E+01 1.18003E+01 0.00000E+00
 -1      3179 3.17850E+01 1.05013E+01 0.00000E+00
 -1      3180 3.02850E+01 1.05013E+01 0.00000E+00
 -1      3181 3.25350E+01 1.18003E+01 0.00000E+00
 -1      3182 4.07850E+01 1.05013E+01 0.00000E+00
 -1      3183 3.92850E+01 1.05013E+01 0.00000E+00
 -1      3184 3.85350E+01 1.18003E+01 0.00000E+00
 -1      3185 4.37850E+01 1.05013E+01 0.00000E+00
 -1      3186 4.22850E+01 1.05013E+01 0.00000E+00
 -1      3187 4.15350E+01 1.18003E+01 0.00000E+00
 -1      3188 4.67850E+01 1.05013E+01 0.00000E+00
 -1      3189 4.52850E+01 1.05013E+01 0.00000E+00
 -1      3190 4.45350E+01 1.18003E+01 0.00000E+00
 -1      3191 4.97850E+01 1.05013E+01 0.00000E+00
 -1      3192 4.82850E+01 1.05013E+01 0.00000E+00
 -1      3193 4.75350E+01 1.18003E+01 0.00000E+00
 -1      3194 5.27850E+01 1.05013E+01 0.00000E+00
 -1      3195 5.12850E+01 1.05013E+01 0.00000E+00
 -1      3196 5.05350E+01 1.18003E+01 0.00000E+00
 -1      3197 5.57850E+01 1.05013E+01 0.00000E+00
 -1      3198 5.42850E+01 1.05013E+01 0.00000E+00
 -1      3199 5.35350E+01 1.18003E+01 0.00000E+00
 -1      3200 5.87850E+01 1.05013E+01 0.00000E+00
 -1      3201 5.72850E+01 1.05013E+01 0.00000E+00
 -1      3202 5.65350E+01 1.18003E+01 0.00000E+00
 -1      3203 6.17850E+01 1.05013E+01 0.00000E+00
 -1      3204 6.02850E+01 1.05013E+01 0.00000E+00
 -1      3205 5.95350E+01 1.18003E+01 0.00000E+00
 -1      3206 6.47850E+01 1.05013E+01 0.00000E+00
 -1      3207 6.32850E+01 1.05013E+01 0.00000E+00
 -1      3208 6.25350E+01 1.18003E+01 0.00000E+00
 -1      3209 6.77850E+01 1.05013E+01 0.00000E+00
 -1      3210 6.62850E+01 1.05013E+01 0.00000E+00
 -1      3211 6.55350E+01 1.18003E+01 0.00000E+00
 -1      3212 7.07850E+01 1.05013E+01 0.00000E+00
 -1      3213 6.92850E+01 1.05013E+01 0.00000E+00
 -1      3214 6.85350E+01 1.18003E+01 0.00000E+00
 -1      3215 7.37850E+01 1.05013E+01 0.00000E+00
 -1      3216 7.22850E+01 1.05013E+01 0.00000E+00
 -1      3217 7.15350E+01 1.18003E+01 0.00000E+00
 -1      3218 7.67850E+01 1.05013E+01 0.00000E+00
 -1      3219 7.52850E+01 1.05013E+01 0.00000E+00
 -1      3220 7.45350E+01 1.18003E+01 0.00000E+00
 -1      3221 7.97850E+01 1.05013E+01 0.00000E+00
 -1      3222 7.82850E+01 1.05013E+01 0.00000E+00
 -1      3223 7.75350E+01 1.18003E+01 0.00000E+00
 -1      3224 8.27850E+01 1.05013E+01 0.00000E+00
 -1      3225 8.12850E+01 1.05013E+01 0.00000E+00
 -1      3226 8.05350E+01 1.18003E+01 0.00000E+00
 -1      3227 8.57850E+01 1.05013E+01 0.00000E+00
 -1      3228 8.42850E+01 1.05013E+01 0.00000E+00
 -1      3229 8.35350E+01 1.18003E+01 0.00000E+00
 -1      3230 8.87850E+01 1.05013E+01 0.00000E+00
 -1      3231 8.72850E+01 1.05013E+01 0.00000E+00
 -1      3232 8.65350E+01 1.18003E+01 0.00000E+00
 -1      3233 9.17850E+01 1.05013E+01 0.00000E+00
 -1      3234 9.02850E+01 1.05013E+01 0.00000E+00
 -1      3235 8.95350E+01 1.18003E+01 0.00000E+00
 -1      3236 9.47850E+01 1.05013E+01 0.00000E+00
 -1      3237 9.32850E+01 1.05013E+01 0.00000E+00
 -1      3238 9.25350E+01 1.18003E+01 0.00000E+00
 -1      3239 9.77850E+01 1.05013E+01 0.00000E+00
 -1      3240 9.62850E+01 1.05013E+01 0.00000E+00
 -1      3241 9.55350E+01 1.18003E+01 0.00000E+00
 -1      3242 1.00785E+02 1.05013E+01 0.00000E+00
 -1      3243 9.92850E+01 1.05013E+01 0.00000E+00
 -1      3244 9.85350E+01 1.18003E+01 0.00000E+00
 -1      3245 1.03785E+02 1.05013E+01 0.00000E+00
 -1      3246 1.02285E+02 1.05013E+01 0.00000E+00
 -1      3247 1.01535E+02 1.18003E+01 0.00000E+00
 -1      3248 1.09339E+02 1.12025E+01 0.00000E+00
 -1      3249 1.07839E+02 1.12025E+01 0.00000E+00
 -1      3250 1.12785E+02 1.03112E+01 0.00000E+00
 -1      3251 1.11285E+02 1.03112E+01 0.00000E+00
 -1      3252 1.16156E+02 1.15146E+01 0.00000E+00
 -1      3253 1.14656E+02 1.15146E+01 0.00000E+00
 -1      3254 1.21785E+02 1.03949E+01 0.00000E+00
 -1      3255 1.20285E+02 1.03949E+01 0.00000E+00
 -1      3256 1.24785E+02 1.03949E+01 0.00000E+00
 -1      3257 1.23285E+02 1.03949E+01 0.00000E+00
 -1      3258 1.22535E+02 1.15876E+01 0.00000E+00
 -1      3259 1.27785E+02 1.03949E+01 0.00000E+00
 -1      3260 1.26285E+02 1.03949E+01 0.00000E+00
 -1      3261 1.25535E+02 1.15876E+01 0.00000E+00
 -1      3262 1.30785E+02 1.03949E+01 0.00000E+00
 -1      3263 1.29285E+02 1.03949E+01 0.00000E+00
 -1      3264 1.28535E+02 1.15876E+01 0.00000E+00
 -1      3265 1.33785E+02 1.03949E+01 0.00000E+00
 -1      3266 1.32285E+02 1.03949E+01 0.00000E+00
 -1      3267 1.31535E+02 1.15876E+01 0.00000E+00
 -1      3268 1.38309E+02 2.86750E+01 0.00000E+00
 -1      3269 1.38309E+02 2.72250E+01 0.00000E+00
 -1      3270 1.38309E+02 3.16250E+01 0.00000E+00
 -1      3271 1.38309E+02 3.01500E+01 0.00000E+00
 -1      3272 1.37010E+02 2.94250E+01 0.00000E+00
 -1      3273 1.38309E+02 2.57500E+01 0.00000E+00
 -1      3274 1.38309E+02 2.42750E+01 0.00000E+00
 -1      3275 1.37010E+02 2.64750E+01 0.00000E+00
 -1      3276 1.27810E+02 3.32907E+01 0.00000E+00
 -1      3277 1.27069E+02 3.44429E+01 0.00000E+00
 -1      3278 1.11302E+02 1.27759E+01 0.00000E+00
 -1      3279 1.12644E+02 1.26374E+01 0.00000E+00
 -1      3280 1.06743E+02 3.62114E+01 0.00000E+00
 -1      3281 1.05702E+02 3.60922E+01 0.00000E+00
 -1      3282 1.26488E+01 1.02017E+01 0.00000E+00
 -1      3283 1.20772E+01 1.14631E+01 0.00000E+00
 -1      3284 1.33763E+01 1.22006E+01 0.00000E+00
 -1      3285 1.41488E+01 1.02017E+01 0.00000E+00
 -1      3286 1.97850E+01 1.05013E+01 0.00000E+00
 -1      3287 1.82850E+01 1.05013E+01 0.00000E+00
 -1      3288 2.05350E+01 1.18003E+01 0.00000E+00
 -1      3289 1.26743E+02 3.58436E+01 0.00000E+00
 -1      3290 1.25644E+02 3.69370E+01 0.00000E+00
 -1      3291 1.39021E+02 3.86785E+01 0.00000E+00
 -1      3292 1.29104E+02 2.75088E+01 0.00000E+00
 -1      3293 1.28944E+02 2.87278E+01 0.00000E+00
 -1      3294 1.28540E+02 2.44000E+01 0.00000E+00
 -1      3295 1.28993E+02 2.57403E+01 0.00000E+00
 -1      3296 1.05457E+02 1.63696E+01 0.00000E+00
 -1      3297 1.06500E+02 1.53974E+01 0.00000E+00
 -1      3298 1.59000E+01 3.83090E+01 0.00000E+00
 -1      3299 1.74000E+01 3.83090E+01 0.00000E+00
 -1      3300 1.81500E+01 3.70100E+01 0.00000E+00
 -1      3301 1.39407E+02 1.25250E+01 0.00000E+00
 -1      3302 1.20740E+02 3.91944E+01 0.00000E+00
 -1      3303 1.04180E+02 3.51122E+01 0.00000E+00
 -1      3304 1.03653E+02 3.41032E+01 0.00000E+00
 -1      3305 1.03918E+02 1.85983E+01 0.00000E+00
 -1      3306 1.04573E+02 1.76338E+01 0.00000E+00
 -1      3307 1.01413E+02 2.73277E+01 0.00000E+00
 -1      3308 1.01275E+02 2.60508E+01 0.00000E+00
 -1      3309 1.28889E+02 3.01524E+01 0.00000E+00
 -1      3310 1.28625E+02 3.16308E+01 0.00000E+00
 -1      3311 1.38309E+02 3.45750E+01 0.00000E+00
 -1      3312 1.38309E+02 3.31000E+01 0.00000E+00
 -1      3313 1.37010E+02 3.23750E+01 0.00000E+00
 -1      3314 1.06827E+02 3.75423E+01 0.00000E+00
 -1      3315 1.00862E+01 3.73269E+01 0.00000E+00
 -1      3316 1.02158E+02 3.01460E+01 0.00000E+00
 -1      3317 1.01689E+02 2.88595E+01 0.00000E+00
 -1      3318 1.16910E+01 2.12875E+01 0.00000E+00
 -1      3319 1.16910E+01 2.27625E+01 0.00000E+00
 -1      3320 1.25043E+02 1.71128E+01 0.00000E+00
 -1      3321 1.25702E+02 1.79170E+01 0.00000E+00
 -1      3322 1.05027E+02 3.69354E+01 0.00000E+00
 -1      3323 1.04604E+02 3.60238E+01 0.00000E+00
 -1      3324 1.03506E+02 3.59553E+01 0.00000E+00
 -1      3325 1.22240E+02 3.91944E+01 0.00000E+00
 -1      3326 1.23394E+02 3.82360E+01 0.00000E+00
 -1      3327 1.24894E+02 3.82360E+01 0.00000E+00
 -1      3328 1.16910E+01 2.42375E+01 0.00000E+00
 -1      3329 1.16910E+01 2.57125E+01 0.00000E+00
 -1      3330 1.29900E+01 2.35000E+01 0.00000E+00
 -1      3331 1.02809E+02 3.36460E+01 0.00000E+00
 -1      3332 1.06654E+02 1.41070E+01 0.00000E+00
 -1      3333 1.18728E+02 1.38073E+01 0.00000E+00
 -1      3334 1.07839E+02 3.88444E+01 0.00000E+00
 -1      3335 2.95350E+01 1.18003E+01 0.00000E+00
 -1      3336 2.87850E+01 1.05013E+01 0.00000E+00
 -1      3337 2.72850E+01 1.05013E+01 0.00000E+00
 -1      3338 1.02290E+02 3.69384E+01 0.00000E+00
 -1      3339 1.03040E+02 3.82374E+01 0.00000E+00
 -1      3340 1.04540E+02 3.82374E+01 0.00000E+00
 -1      3341 1.06339E+02 3.88444E+01 0.00000E+00
 -1      3342 1.38309E+02 1.69188E+01 0.00000E+00
 -1      3343 1.38309E+02 1.54563E+01 0.00000E+00
 -1      3344 1.26678E+02 1.81481E+01 0.00000E+00
 -1      3345 1.32152E+01 3.82007E+01 0.00000E+00
 -1      3346 1.45576E+01 3.82548E+01 0.00000E+00
 -1      3347 1.53076E+01 3.69558E+01 0.00000E+00
 -1      3348 1.38271E+02 3.73795E+01 0.00000E+00
 -1      3349 1.14286E+01 3.73811E+01 0.00000E+00
 -1      3350 1.06785E+02 1.05013E+01 0.00000E+00
 -1      3351 1.05285E+02 1.05013E+01 0.00000E+00
 -1      3352 1.13906E+02 1.26235E+01 0.00000E+00
 -1      3353 1.18785E+02 1.03112E+01 0.00000E+00
 -1      3354 1.17285E+02 1.03112E+01 0.00000E+00
 -1      3355 1.27976E+02 3.58219E+01 0.00000E+00
 -1      3356 1.34953E+02 1.06756E+01 0.00000E+00
 -1      3357 1.34203E+02 1.18683E+01 0.00000E+00
 -1      3358 1.36120E+02 1.09563E+01 0.00000E+00
 -1      3359 1.37010E+02 2.35250E+01 0.00000E+00
 -1      3360 1.38309E+02 2.28000E+01 0.00000E+00
 -1      3361 1.38309E+02 2.13250E+01 0.00000E+00
 -1      3362 1.38309E+02 1.98594E+01 0.00000E+00
 -1      3363 1.38309E+02 1.83844E+01 0.00000E+00
 -1      3364 1.37010E+02 1.76531E+01 0.00000E+00
 -1      3365 1.37010E+02 2.05844E+01 0.00000E+00
 -1      3366 1.29117E+02 3.27613E+01 0.00000E+00
 -1      3367 1.27793E+02 2.08830E+01 0.00000E+00
 -1      3368 1.28553E+02 2.13788E+01 0.00000E+00
 -1      3369 1.28014E+02 1.98736E+01 0.00000E+00
 -1      3370 1.16910E+01 3.30594E+01 0.00000E+00
 -1      3371 1.16910E+01 3.45281E+01 0.00000E+00
 -1      3372 1.29986E+02 2.96769E+01 0.00000E+00
 -1      3373 1.38129E+02 3.62613E+01 0.00000E+00
 -1      3374 1.00908E+02 2.51571E+01 0.00000E+00
 -1      3375 1.00540E+02 2.42634E+01 0.00000E+00
 -1      3376 1.00041E+02 2.58965E+01 0.00000E+00
 -1      3377 1.36830E+02 3.55363E+01 0.00000E+00
 -1      3378 1.01036E+02 2.24860E+01 0.00000E+00
 -1      3379 1.02123E+02 2.20127E+01 0.00000E+00
 -1      3380 1.01752E+02 2.09748E+01 0.00000E+00
 -1      3381 1.16910E+01 1.83500E+01 0.00000E+00
 -1      3382 1.16910E+01 1.98188E+01 0.00000E+00
 -1      3383 1.29900E+01 2.05562E+01 0.00000E+00
 -1      3384 1.04282E+02 1.62753E+01 0.00000E+00
 -1      3385 1.04535E+02 1.18003E+01 0.00000E+00
 -1      3386 1.05638E+02 3.83059E+01 0.00000E+00
 -1      3387 1.29075E+02 2.35518E+01 0.00000E+00
 -1      3388 1.29929E+02 2.64838E+01 0.00000E+00
 -1      3389 1.21147E+02 1.42307E+01 0.00000E+00
 -1      3390 1.21665E+02 1.50770E+01 0.00000E+00
 -1      3391 1.22683E+02 1.49004E+01 0.00000E+00
 -1      3392 2.42850E+01 1.05013E+01 0.00000E+00
 -1      3393 2.35350E+01 1.18003E+01 0.00000E+00
 -1      3394 2.57850E+01 1.05013E+01 0.00000E+00
 -1      3395 1.00684E+02 2.83220E+01 0.00000E+00
 -1      3396 1.03118E+02 1.90205E+01 0.00000E+00
 -1      3397 1.02598E+02 1.79618E+01 0.00000E+00
 -1      3398 1.02318E+02 1.94428E+01 0.00000E+00
 -1      3399 1.16910E+01 1.54094E+01 0.00000E+00
 -1      3400 1.16910E+01 1.68781E+01 0.00000E+00
 -1      3401 1.29900E+01 1.76156E+01 0.00000E+00
 -1      3402 1.29900E+01 1.46719E+01 0.00000E+00
 -1      3403 1.10089E+02 1.23115E+01 0.00000E+00
 -1      3404 1.24259E+02 1.55523E+01 0.00000E+00
 -1      3405 1.24651E+02 1.63326E+01 0.00000E+00
 -1      3406 1.25709E+02 1.61382E+01 0.00000E+00
 -1      3407 1.38274E+02 1.38503E+01 0.00000E+00
 -1      3408 1.38073E+02 1.16503E+01 0.00000E+00
 -1      3409 1.36905E+02 1.13696E+01 0.00000E+00
 -1      3410 1.36975E+02 1.45815E+01 0.00000E+00
 -1      3411 1.69669E+01 1.03515E+01 0.00000E+00
 -1      3412 1.54669E+01 1.03515E+01 0.00000E+00
 -1      3413 1.50806E+01 1.13509E+01 0.00000E+00
 -1      3414 1.77169E+01 1.16505E+01 0.00000E+00
 -1      3415 1.01748E+02 3.10510E+01 0.00000E+00
 -1      3416 1.16910E+01 3.01219E+01 0.00000E+00
 -1      3417 1.16910E+01 3.15906E+01 0.00000E+00
 -1      3418 1.29900E+01 3.23250E+01 0.00000E+00
 -1      3419 1.19535E+02 1.15039E+01 0.00000E+00
 -1      3420 1.01216E+02 3.22594E+01 0.00000E+00
 -1      3421 1.00428E+02 3.10621E+01 0.00000E+00
 -1      3422 1.01866E+02 3.60268E+01 0.00000E+00
 -1      3423 2.34000E+01 3.57110E+01 0.00000E+00
 -1      3424 2.49000E+01 3.57110E+01 0.00000E+00
 -1      3425 2.64000E+01 3.57110E+01 0.00000E+00
 -1      3426 2.79000E+01 3.57110E+01 0.00000E+00
 -1      3427 2.56500E+01 3.44120E+01 0.00000E+00
 -1      3428 2.94000E+01 3.57110E+01 0.00000E+00
 -1      3429 3.09000E+01 3.57110E+01 0.00000E+00
 -1      3430 2.86500E+01 3.44120E+01 0.00000E+00
 -1      3431 3.24000E+01 3.57110E+01 0.00000E+00
 -1      3432 3.39000E+01 3.57110E+01 0.00000E+00
 -1      3433 3.16500E+01 3.44120E+01 0.00000E+00
 -1      3434 3.54000E+01 3.57110E+01 0.00000E+00
 -1      3435 3.69000E+01 3.57110E+01 0.00000E+00
 -1      3436 3.46500E+01 3.44120E+01 0.00000E+00
 -1      3437 3.84000E+01 3.57110E+01 0.00000E+00
 -1      3438 3.99000E+01 3.57110E+01 0.00000E+00
 -1      3439 3.76500E+01 3.44120E+01 0.00000E+00
 -1      3440 4.14000E+01 3.57110E+01 0.00000E+00
 -1      3441 4.29000E+01 3.57110E+01 0.00000E+00
 -1      3442 4.06500E+01 3.44120E+01 0.00000E+00
 -1      3443 4.44000E+01 3.57110E+01 0.00000E+00
 -1      3444 4.59000E+01 3.57110E+01 0.00000E+00
 -1      3445 4.36500E+01 3.44120E+01 0.00000E+00
 -1      3446 4.74000E+01 3.57110E+01 0.00000E+00
 -1      3447 4.89000E+01 3.57110E+01 0.00000E+00
 -1      3448 4.66500E+01 3.44120E+01 0.00000E+00
 -1      3449 5.04000E+01 3.57110E+01 0.00000E+00
 -1      3450 5.19000E+01 3.57110E+01 0.00000E+00
 -1      3451 4.96500E+01 3.44120E+01 0.00000E+00
 -1      3452 5.34000E+01 3.57110E+01 0.00000E+00
 -1      3453 5.49000E+01 3.57110E+01 0.00000E+00
 -1      3454 5.26500E+01 3.44120E+01 0.00000E+00
 -1      3455 5.64000E+01 3.57110E+01 0.00000E+00
 -1      3456 5.79000E+01 3.57110E+01 0.00000E+00
 -1      3457 5.56500E+01 3.44120E+01 0.00000E+00
 -1      3458 5.94000E+01 3.57110E+01 0.00000E+00
 -1      3459 6.09000E+01 3.57110E+01 0.00000E+00
 -1      3460 5.86500E+01 3.44120E+01 0.00000E+00
 -1      3461 6.24000E+01 3.57110E+01 0.00000E+00
 -1      3462 6.39000E+01 3.57110E+01 0.00000E+00
 -1      3463 6.16500E+01 3.44120E+01 0.00000E+00
 -1      3464 6.54000E+01 3.57110E+01 0.00000E+00
 -1      3465 6.69000E+01 3.57110E+01 0.00000E+00
 -1      3466 6.46500E+01 3.44120E+01 0.00000E+00
 -1      3467 6.84000E+01 3.57110E+01 0.00000E+00
 -1      3468 6.99000E+01 3.57110E+01 0.00000E+00
 -1      3469 6.76500E+01 3.44120E+01 0.00000E+00
 -1      3470 7.14000E+01 3.57110E+01 0.00000E+00
 -1      3471 7.29000E+01 3.57110E+01 0.00000E+00
 -1      3472 7.06500E+01 3.44120E+01 0.00000E+00
 -1      3473 7.44000E+01 3.57110E+01 0.00000E+00
 -1      3474 7.59000E+01 3.57110E+01 0.00000E+00
 -1      3475 7.36500E+01 3.44120E+01 0.00000E+00
 -1      3476 7.74000E+01 3.57110E+01 0.00000E+00
 -1      3477 7.89000E+01 3.57110E+01 0.00000E+00
 -1      3478 7.66500E+01 3.44120E+01 0.00000E+00
 -1      3479 8.04000E+01 3.57110E+01 0.00000E+00
 -1      3480 8.19000E+01 3.57110E+01 0.00000E+00
 -1      3481 7.96500E+01 3.44120E+01 0.00000E+00
 -1      3482 8.34000E+01 3.57110E+01 0.00000E+00
 -1      3483 8.49000E+01 3.57110E+01 0.00000E+00
 -1      3484 8.26500E+01 3.44120E+01 0.00000E+00
 -1      3485 8.64000E+01 3.57110E+01 0.00000E+00
 -1      3486 8.79000E+01 3.57110E+01 0.00000E+00
 -1      3487 8.56500E+01 3.44120E+01 0.00000E+00
 -1      3488 8.94000E+01 3.57110E+01 0.00000E+00
 -1      3489 9.09000E+01 3.57110E+01 0.00000E+00
 -1      3490 8.86500E+01 3.44120E+01 0.00000E+00
 -1      3491 9.24000E+01 3.57110E+01 0.00000E+00
 -1      3492 9.39000E+01 3.57110E+01 0.00000E+00
 -1      3493 9.16500E+01 3.44120E+01 0.00000E+00
 -1      3494 9.54000E+01 3.57110E+01 0.00000E+00
 -1      3495 9.69000E+01 3.57110E+01 0.00000E+00
 -1      3496 9.46500E+01 3.44120E+01 0.00000E+00
 -1      3497 9.86331E+01 3.58689E+01 0.00000E+00
 -1      3498 1.00133E+02 3.58689E+01 0.00000E+00
 -1      3499 1.01349E+02 3.48858E+01 0.00000E+00
 -1      3500 9.78831E+01 3.45699E+01 0.00000E+00
 -1      3501 1.27317E+02 1.70981E+01 0.00000E+00
 -1      3502 1.27894E+02 1.83277E+01 0.00000E+00
 -1      3503 1.31400E+02 3.59236E+01 0.00000E+00
 -1      3504 1.32900E+02 3.59236E+01 0.00000E+00
 -1      3505 1.34115E+02 3.57300E+01 0.00000E+00
 -1      3506 1.35615E+02 3.57300E+01 0.00000E+00
 -1      3507 1.35795E+02 3.40437E+01 0.00000E+00
 -1      3508 1.33365E+02 3.44310E+01 0.00000E+00
 -1      3509 4.22850E+01 1.30992E+01 0.00000E+00
 -1      3510 4.07850E+01 1.30992E+01 0.00000E+00
 -1      3511 1.07089E+02 1.25015E+01 0.00000E+00
 -1      3512 3.92850E+01 1.30992E+01 0.00000E+00
 -1      3513 3.77850E+01 1.30992E+01 0.00000E+00
 -1      3514 4.00350E+01 1.43982E+01 0.00000E+00
 -1      3515 3.32850E+01 1.30992E+01 0.00000E+00
 -1      3516 3.17850E+01 1.30992E+01 0.00000E+00
 -1      3517 4.52850E+01 1.30992E+01 0.00000E+00
 -1      3518 4.37850E+01 1.30992E+01 0.00000E+00
 -1      3519 4.30350E+01 1.43982E+01 0.00000E+00
 -1      3520 4.82850E+01 1.30992E+01 0.00000E+00
 -1      3521 4.67850E+01 1.30992E+01 0.00000E+00
 -1      3522 4.60350E+01 1.43982E+01 0.00000E+00
 -1      3523 5.12850E+01 1.30992E+01 0.00000E+00
 -1      3524 4.97850E+01 1.30992E+01 0.00000E+00
 -1      3525 4.90350E+01 1.43982E+01 0.00000E+00
 -1      3526 5.42850E+01 1.30992E+01 0.00000E+00
 -1      3527 5.27850E+01 1.30992E+01 0.00000E+00
 -1      3528 5.20350E+01 1.43982E+01 0.00000E+00
 -1      3529 5.72850E+01 1.30992E+01 0.00000E+00
 -1      3530 5.57850E+01 1.30992E+01 0.00000E+00
 -1      3531 5.50350E+01 1.43982E+01 0.00000E+00
 -1      3532 6.02850E+01 1.30992E+01 0.00000E+00
 -1      3533 5.87850E+01 1.30992E+01 0.00000E+00
 -1      3534 5.80350E+01 1.43982E+01 0.00000E+00
 -1      3535 6.32850E+01 1.30992E+01 0.00000E+00
 -1      3536 6.17850E+01 1.30992E+01 0.00000E+00
 -1      3537 6.10350E+01 1.43982E+01 0.00000E+00
 -1      3538 6.62850E+01 1.30992E+01 0.00000E+00
 -1      3539 6.47850E+01 1.30992E+01 0.00000E+00
 -1      3540 6.40350E+01 1.43982E+01 0.00000E+00
 -1      3541 6.92850E+01 1.30992E+01 0.00000E+00
 -1      3542 6.77850E+01 1.30992E+01 0.00000E+00
 -1      3543 6.70350E+01 1.43982E+01 0.00000E+00
 -1      3544 7.22850E+01 1.30992E+01 0.00000E+00
 -1      3545 7.07850E+01 1.30992E+01 0.00000E+00
 -1      3546 7.00350E+01 1.43982E+01 0.00000E+00
 -1      3547 7.52850E+01 1.30992E+01 0.00000E+00
 -1      3548 7.37850E+01 1.30992E+01 0.00000E+00
 -1      3549 7.30350E+01 1.43982E+01 0.00000E+00
 -1      3550 7.82850E+01 1.30992E+01 0.00000E+00
 -1      3551 7.67850E+01 1.30992E+01 0.00000E+00
 -1      3552 7.60350E+01 1.43982E+01 0.00000E+00
 -1      3553 8.12850E+01 1.30992E+01 0.00000E+00
 -1      3554 7.97850E+01 1.30992E+01 0.00000E+00
 -1      3555 7.90350E+01 1.43982E+01 0.00000E+00
 -1      3556 8.42850E+01 1.30992E+01 0.00000E+00
 -1      3557 8.27850E+01 1.30992E+01 0.00000E+00
 -1      3558 8.20350E+01 1.43982E+01 0.00000E+00
 -1      3559 8.72850E+01 1.30992E+01 0.00000E+00
 -1      3560 8.57850E+01 1.30992E+01 0.00000E+00
 -1      3561 8.50350E+01 1.43982E+01 0.00000E+00
 -1      3562 9.02850E+01 1.30992E+01 0.00000E+00
 -1      3563 8.87850E+01 1.30992E+01 0.00000E+00
 -1      3564 8.80350E+01 1.43982E+01 0.00000E+00
 -1      3565 9.32850E+01 1.30992E+01 0.00000E+00
 -1      3566 9.17850E+01 1.30992E+01 0.00000E+00
 -1      3567 9.10350E+01 1.43982E+01 0.00000E+00
 -1      3568 9.62850E+01 1.30992E+01 0.00000E+00
 -1      3569 9.47850E+01 1.30992E+01 0.00000E+00
 -1      3570 9.40350E+01 1.43982E+01 0.00000E+00
 -1      3571 9.92850E+01 1.30992E+01 0.00000E+00
 -1      3572 9.77850E+01 1.30992E+01 0.00000E+00
 -1      3573 9.70350E+01 1.43982E+01 0.00000E+00
 -1      3574 1.02285E+02 1.30992E+01 0.00000E+00
 -1      3575 1.00785E+02 1.30992E+01 0.00000E+00
 -1      3576 1.00035E+02 1.43982E+01 0.00000E+00
 -1      3577 1.29476E+02 3.58219E+01 0.00000E+00
 -1      3578 1.23100E+02 1.28209E+01 0.00000E+00
 -1      3579 1.21600E+02 1.28209E+01 0.00000E+00
 -1      3580 1.32285E+02 1.28866E+01 0.00000E+00
 -1      3581 1.30785E+02 1.28866E+01 0.00000E+00
 -1      3582 1.31040E+02 3.28630E+01 0.00000E+00
 -1      3583 1.30226E+02 3.45229E+01 0.00000E+00
 -1      3584 1.35711E+02 3.01625E+01 0.00000E+00
 -1      3585 1.35711E+02 2.86875E+01 0.00000E+00
 -1      3586 1.35711E+02 2.72125E+01 0.00000E+00
 -1      3587 1.35711E+02 2.57375E+01 0.00000E+00
 -1      3588 1.34412E+02 2.79500E+01 0.00000E+00
 -1      3589 1.31037E+02 2.90040E+01 0.00000E+00
 -1      3590 1.30983E+02 3.04286E+01 0.00000E+00
 -1      3591 1.29285E+02 1.28866E+01 0.00000E+00
 -1      3592 1.27785E+02 1.28866E+01 0.00000E+00
 -1      3593 1.30035E+02 1.41856E+01 0.00000E+00
 -1      3594 1.26176E+02 1.34728E+01 0.00000E+00
 -1      3595 1.24676E+02 1.34728E+01 0.00000E+00
 -1      3596 1.16906E+02 1.26235E+01 0.00000E+00
 -1      3597 1.16910E+01 2.71844E+01 0.00000E+00
 -1      3598 1.16910E+01 2.86531E+01 0.00000E+00
 -1      3599 1.29900E+01 2.93875E+01 0.00000E+00
 -1      3600 1.21786E+01 3.60821E+01 0.00000E+00
 -1      3601 3.62850E+01 1.30992E+01 0.00000E+00
 -1      3602 3.47850E+01 1.30992E+01 0.00000E+00
 -1      3603 3.40350E+01 1.43982E+01 0.00000E+00
 -1      3604 3.70350E+01 1.43982E+01 0.00000E+00
 -1      3605 1.34776E+01 3.53477E+01 0.00000E+00
 -1      3606 1.29709E+02 2.23285E+01 0.00000E+00
 -1      3607 1.30451E+02 2.34920E+01 0.00000E+00
 -1      3608 1.74000E+01 3.57110E+01 0.00000E+00
 -1      3609 1.89000E+01 3.57110E+01 0.00000E+00
 -1      3610 2.04000E+01 3.57110E+01 0.00000E+00
 -1      3611 2.19000E+01 3.57110E+01 0.00000E+00
 -1      3612 2.26500E+01 3.44120E+01 0.00000E+00
 -1      3613 1.30896E+02 2.55350E+01 0.00000E+00
 -1      3614 1.31008E+02 2.73034E+01 0.00000E+00
 -1      3615 1.05600E+02 1.34057E+01 0.00000E+00
 -1      3616 1.04100E+02 1.34057E+01 0.00000E+00
 -1      3617 2.12850E+01 1.30992E+01 0.00000E+00
 -1      3618 1.97850E+01 1.30992E+01 0.00000E+00
 -1      3619 1.35753E+02 3.28406E+01 0.00000E+00
 -1      3620 1.35753E+02 3.13656E+01 0.00000E+00
 -1      3621 1.34454E+02 3.06281E+01 0.00000E+00
 -1      3622 1.34538E+02 3.30342E+01 0.00000E+00
 -1      3623 1.02466E+02 1.59689E+01 0.00000E+00
 -1      3624 1.03350E+02 1.47047E+01 0.00000E+00
 -1      3625 1.01076E+02 3.34881E+01 0.00000E+00
 -1      3626 9.95660E+01 2.93143E+01 0.00000E+00
 -1      3627 9.92899E+01 2.77825E+01 0.00000E+00
 -1      3628 1.27318E+02 1.55521E+01 0.00000E+00
 -1      3629 1.28534E+02 1.57316E+01 0.00000E+00
 -1      3630 3.02850E+01 1.30992E+01 0.00000E+00
 -1      3631 2.87850E+01 1.30992E+01 0.00000E+00
 -1      3632 3.10350E+01 1.43982E+01 0.00000E+00
 -1      3633 1.32005E+02 2.80551E+01 0.00000E+00
 -1      3634 9.78043E+01 2.78812E+01 0.00000E+00
 -1      3635 9.89225E+01 2.68889E+01 0.00000E+00
 -1      3636 9.85551E+01 2.59952E+01 0.00000E+00
 -1      3637 1.29900E+01 2.64469E+01 0.00000E+00
 -1      3638 1.42890E+01 2.27625E+01 0.00000E+00
 -1      3639 1.42890E+01 2.42375E+01 0.00000E+00
 -1      3640 1.43324E+01 3.38479E+01 0.00000E+00
 -1      3641 1.48200E+01 3.54019E+01 0.00000E+00
 -1      3642 1.61624E+01 3.54560E+01 0.00000E+00
 -1      3643 1.33453E+02 1.31673E+01 0.00000E+00
 -1      3644 1.32703E+02 1.44663E+01 0.00000E+00
 -1      3645 1.34620E+02 1.34480E+01 0.00000E+00
 -1      3646 9.97560E+01 3.34992E+01 0.00000E+00
 -1      3647 9.90338E+01 3.05227E+01 0.00000E+00
 -1      3648 1.36155E+02 1.25623E+01 0.00000E+00
 -1      3649 1.35711E+02 2.42625E+01 0.00000E+00
 -1      3650 1.35711E+02 2.27875E+01 0.00000E+00
 -1      3651 1.34412E+02 2.50000E+01 0.00000E+00
 -1      3652 1.84669E+01 1.29495E+01 0.00000E+00
 -1      3653 1.71488E+01 1.27997E+01 0.00000E+00
 -1      3654 1.92169E+01 1.42485E+01 0.00000E+00
 -1      3655 1.20582E+02 1.29975E+01 0.00000E+00
 -1      3656 1.19082E+02 1.29137E+01 0.00000E+00
 -1      3657 1.28654E+02 1.88235E+01 0.00000E+00
 -1      3658 1.29414E+02 1.93193E+01 0.00000E+00
 -1      3659 1.29294E+02 1.77734E+01 0.00000E+00
 -1      3660 1.35711E+02 1.83859E+01 0.00000E+00
 -1      3661 1.35711E+02 1.69203E+01 0.00000E+00
 -1      3662 1.01232E+02 1.99161E+01 0.00000E+00
 -1      3663 1.00169E+02 2.32255E+01 0.00000E+00
 -1      3664 9.97984E+01 2.21876E+01 0.00000E+00
 -1      3665 9.93023E+01 2.39649E+01 0.00000E+00
 -1      3666 1.42284E+01 1.25117E+01 0.00000E+00
 -1      3667 1.38422E+01 1.35111E+01 0.00000E+00
 -1      3668 1.38422E+01 1.49830E+01 0.00000E+00
 -1      3669 1.55466E+01 1.26615E+01 0.00000E+00
 -1      3670 1.42890E+01 1.98250E+01 0.00000E+00
 -1      3671 1.42890E+01 2.12938E+01 0.00000E+00
 -1      3672 1.55880E+01 2.20313E+01 0.00000E+00
 -1      3673 1.96500E+01 3.44120E+01 0.00000E+00
 -1      3674 2.65350E+01 1.18003E+01 0.00000E+00
 -1      3675 1.29930E+02 2.13190E+01 0.00000E+00
 -1      3676 1.31530E+02 2.43116E+01 0.00000E+00
 -1      3677 1.43324E+01 3.23792E+01 0.00000E+00
 -1      3678 1.56748E+01 3.24333E+01 0.00000E+00
 -1      3679 1.43324E+01 3.09104E+01 0.00000E+00
 -1      3680 1.69124E+01 3.41570E+01 0.00000E+00
 -1      3681 2.42850E+01 1.30992E+01 0.00000E+00
 -1      3682 2.27850E+01 1.30992E+01 0.00000E+00
 -1      3683 2.20350E+01 1.43982E+01 0.00000E+00
 -1      3684 1.34141E+02 1.62001E+01 0.00000E+00
 -1      3685 1.35440E+02 1.54673E+01 0.00000E+00
 -1      3686 1.17681E+02 1.23137E+01 0.00000E+00
 -1      3687 2.49000E+01 3.31130E+01 0.00000E+00
 -1      3688 2.64000E+01 3.31130E+01 0.00000E+00
 -1      3689 2.79000E+01 3.31130E+01 0.00000E+00
 -1      3690 2.94000E+01 3.31130E+01 0.00000E+00
 -1      3691 2.71500E+01 3.18140E+01 0.00000E+00
 -1      3692 3.09000E+01 3.31130E+01 0.00000E+00
 -1      3693 3.24000E+01 3.31130E+01 0.00000E+00
 -1      3694 3.01500E+01 3.18140E+01 0.00000E+00
 -1      3695 3.39000E+01 3.31130E+01 0.00000E+00
 -1      3696 3.54000E+01 3.31130E+01 0.00000E+00
 -1      3697 3.31500E+01 3.18140E+01 0.00000E+00
 -1      3698 3.69000E+01 3.31130E+01 0.00000E+00
 -1      3699 3.84000E+01 3.31130E+01 0.00000E+00
 -1      3700 3.61500E+01 3.18140E+01 0.00000E+00
 -1      3701 3.99000E+01 3.31130E+01 0.00000E+00
 -1      3702 4.14000E+01 3.31130E+01 0.00000E+00
 -1      3703 3.91500E+01 3.18140E+01 0.00000E+00
 -1      3704 4.29000E+01 3.31130E+01 0.00000E+00
 -1      3705 4.44000E+01 3.31130E+01 0.00000E+00
 -1      3706 4.21500E+01 3.18140E+01 0.00000E+00
 -1      3707 4.59000E+01 3.31130E+01 0.00000E+00
 -1      3708 4.74000E+01 3.31130E+01 0.00000E+00
 -1      3709 4.51500E+01 3.18140E+01 0.00000E+00
 -1      3710 4.89000E+01 3.31130E+01 0.00000E+00
 -1      3711 5.04000E+01 3.31130E+01 0.00000E+00
 -1      3712 4.81500E+01 3.18140E+01 0.00000E+00
 -1      3713 5.19000E+01 3.31130E+01 0.00000E+00
 -1      3714 5.34000E+01 3.31130E+01 0.00000E+00
 -1      3715 5.11500E+01 3.18140E+01 0.00000E+00
 -1      3716 5.49000E+01 3.31130E+01 0.00000E+00
 -1      3717 5.64000E+01 3.31130E+01 0.00000E+00
 -1      3718 5.41500E+01 3.18140E+01 0.00000E+00
 -1      3719 5.79000E+01 3.31130E+01 0.00000E+00
 -1      3720 5.94000E+01 3.31130E+01 0.00000E+00
 -1      3721 5.71500E+01 3.18140E+01 0.00000E+00
 -1      3722 6.09000E+01 3.31130E+01 0.00000E+00
 -1      3723 6.24000E+01 3.31130E+01 0.00000E+00
 -1      3724 6.01500E+01 3.18140E+01 0.00000E+00
 -1      3725 6.39000E+01 3.31130E+01 0.00000E+00
 -1      3726 6.54000E+01 3.31130E+01 0.00000E+00
 -1      3727 6.31500E+01 3.18140E+01 0.00000E+00
 -1      3728 6.69000E+01 3.31130E+01 0.00000E+00
 -1      3729 6.84000E+01 3.31130E+01 0.00000E+00
 -1      3730 6.61500E+01 3.18140E+01 0.00000E+00
 -1      3731 6.99000E+01 3.31130E+01 0.00000E+00
 -1      3732 7.14000E+01 3.31130E+01 0.00000E+00
 -1      3733 6.91500E+01 3.18140E+01 0.00000E+00
 -1      3734 7.29000E+01 3.31130E+01 0.00000E+00
 -1      3735 7.44000E+01 3.31130E+01 0.00000E+00
 -1      3736 7.21500E+01 3.18140E+01 0.00000E+00
 -1      3737 7.59000E+01 3.31130E+01 0.00000E+00
 -1      3738 7.74000E+01 3.31130E+01 0.00000E+00
 -1      3739 7.51500E+01 3.18140E+01 0.00000E+00
 -1      3740 7.89000E+01 3.31130E+01 0.00000E+00
 -1      3741 8.04000E+01 3.31130E+01 0.00000E+00
 -1      3742 7.81500E+01 3.18140E+01 0.00000E+00
 -1      3743 8.19000E+01 3.31130E+01 0.00000E+00
 -1      3744 8.34000E+01 3.31130E+01 0.00000E+00
 -1      3745 8.11500E+01 3.18140E+01 0.00000E+00
 -1      3746 8.49000E+01 3.31130E+01 0.00000E+00
 -1      3747 8.64000E+01 3.31130E+01 0.00000E+00
 -1      3748 8.41500E+01 3.18140E+01 0.00000E+00
 -1      3749 8.79000E+01 3.31130E+01 0.00000E+00
 -1      3750 8.94000E+01 3.31130E+01 0.00000E+00
 -1      3751 8.71500E+01 3.18140E+01 0.00000E+00
 -1      3752 9.09000E+01 3.31130E+01 0.00000E+00
 -1      3753 9.24000E+01 3.31130E+01 0.00000E+00
 -1      3754 9.01500E+01 3.18140E+01 0.00000E+00
 -1      3755 9.39000E+01 3.31130E+01 0.00000E+00
 -1      3756 9.54000E+01 3.31130E+01 0.00000E+00
 -1      3757 9.31500E+01 3.18140E+01 0.00000E+00
 -1      3758 9.67115E+01 3.32271E+01 0.00000E+00
 -1      3759 9.84445E+01 3.33850E+01 0.00000E+00
 -1      3760 9.85845E+01 3.21564E+01 0.00000E+00
 -1      3761 9.59615E+01 3.19281E+01 0.00000E+00
 -1      3762 1.26926E+02 1.47718E+01 0.00000E+00
 -1      3763 1.89000E+01 3.31130E+01 0.00000E+00
 -1      3764 2.04000E+01 3.31130E+01 0.00000E+00
 -1      3765 1.33193E+02 2.78898E+01 0.00000E+00
 -1      3766 1.33223E+02 2.95903E+01 0.00000E+00
 -1      3767 4.97850E+01 1.56973E+01 0.00000E+00
 -1      3768 4.82850E+01 1.56973E+01 0.00000E+00
 -1      3769 4.07850E+01 1.56973E+01 0.00000E+00
 -1      3770 3.92850E+01 1.56973E+01 0.00000E+00
 -1      3771 4.37850E+01 1.56973E+01 0.00000E+00
 -1      3772 4.22850E+01 1.56973E+01 0.00000E+00
 -1      3773 4.15350E+01 1.69963E+01 0.00000E+00
 -1      3774 5.27850E+01 1.56973E+01 0.00000E+00
 -1      3775 5.12850E+01 1.56973E+01 0.00000E+00
 -1      3776 5.05350E+01 1.69963E+01 0.00000E+00
 -1      3777 5.57850E+01 1.56973E+01 0.00000E+00
 -1      3778 5.42850E+01 1.56973E+01 0.00000E+00
 -1      3779 5.35350E+01 1.69963E+01 0.00000E+00
 -1      3780 5.87850E+01 1.56973E+01 0.00000E+00
 -1      3781 5.72850E+01 1.56973E+01 0.00000E+00
 -1      3782 5.65350E+01 1.69963E+01 0.00000E+00
 -1      3783 6.17850E+01 1.56973E+01 0.00000E+00
 -1      3784 6.02850E+01 1.56973E+01 0.00000E+00
 -1      3785 5.95350E+01 1.69963E+01 0.00000E+00
 -1      3786 6.47850E+01 1.56973E+01 0.00000E+00
 -1      3787 6.32850E+01 1.56973E+01 0.00000E+00
 -1      3788 6.25350E+01 1.69963E+01 0.00000E+00
 -1      3789 6.77850E+01 1.56973E+01 0.00000E+00
 -1      3790 6.62850E+01 1.56973E+01 0.00000E+00
 -1      3791 6.55350E+01 1.69963E+01 0.00000E+00
 -1      3792 7.07850E+01 1.56973E+01 0.00000E+00
 -1      3793 6.92850E+01 1.56973E+01 0.00000E+00
 -1      3794 6.85350E+01 1.69963E+01 0.00000E+00
 -1      3795 7.37850E+01 1.56973E+01 0.00000E+00
 -1      3796 7.22850E+01 1.56973E+01 0.00000E+00
 -1      3797 7.15350E+01 1.69963E+01 0.00000E+00
 -1      3798 7.67850E+01 1.56973E+01 0.00000E+00
 -1      3799 7.52850E+01 1.56973E+01 0.00000E+00
 -1      3800 7.45350E+01 1.69963E+01 0.00000E+00
 -1      3801 7.97850E+01 1.56973E+01 0.00000E+00
 -1      3802 7.82850E+01 1.56973E+01 0.00000E+00
 -1      3803 7.75350E+01 1.69963E+01 0.00000E+00
 -1      3804 8.27850E+01 1.56973E+01 0.00000E+00
 -1      3805 8.12850E+01 1.56973E+01 0.00000E+00
 -1      3806 8.05350E+01 1.69963E+01 0.00000E+00
 -1      3807 8.57850E+01 1.56973E+01 0.00000E+00
 -1      3808 8.42850E+01 1.56973E+01 0.00000E+00
 -1      3809 8.35350E+01 1.69963E+01 0.00000E+00
 -1      3810 8.87850E+01 1.56973E+01 0.00000E+00
 -1      3811 8.72850E+01 1.56973E+01 0.00000E+00
 -1      3812 8.65350E+01 1.69963E+01 0.00000E+00
 -1      3813 9.17850E+01 1.56973E+01 0.00000E+00
 -1      3814 9.02850E+01 1.56973E+01 0.00000E+00
 -1      3815 8.95350E+01 1.69963E+01 0.00000E+00
 -1      3816 9.47850E+01 1.56973E+01 0.00000E+00
 -1      3817 9.32850E+01 1.56973E+01 0.00000E+00
 -1      3818 9.25350E+01 1.69963E+01 0.00000E+00
 -1      3819 9.77850E+01 1.56973E+01 0.00000E+00
 -1      3820 9.62850E+01 1.56973E+01 0.00000E+00
 -1      3821 9.55350E+01 1.69963E+01 0.00000E+00
 -1      3822 1.29665E+02 1.52065E+01 0.00000E+00
 -1      3823 1.29664E+02 1.67525E+01 0.00000E+00
 -1      3824 1.30424E+02 1.72483E+01 0.00000E+00
 -1      3825 1.31165E+02 1.52065E+01 0.00000E+00
 -1      3826 1.33193E+02 2.64148E+01 0.00000E+00
 -1      3827 1.33323E+02 3.32279E+01 0.00000E+00
 -1      3828 1.32213E+02 3.14663E+01 0.00000E+00
 -1      3829 1.43324E+01 2.79729E+01 0.00000E+00
 -1      3830 1.43324E+01 2.94417E+01 0.00000E+00
 -1      3831 1.56748E+01 2.94958E+01 0.00000E+00
 -1      3832 1.23741E+02 1.47060E+01 0.00000E+00
 -1      3833 1.01834E+02 1.74053E+01 0.00000E+00
 -1      3834 1.00903E+02 1.58347E+01 0.00000E+00
 -1      3835 1.35711E+02 2.13172E+01 0.00000E+00
 -1      3836 1.35711E+02 1.98516E+01 0.00000E+00
 -1      3837 1.34412E+02 1.91187E+01 0.00000E+00
 -1      3838 1.33265E+02 3.07934E+01 0.00000E+00
 -1      3839 1.33193E+02 2.49398E+01 0.00000E+00
 -1      3840 1.43107E+01 2.53693E+01 0.00000E+00
 -1      3841 1.43107E+01 2.68411E+01 0.00000E+00
 -1      3842 1.56531E+01 2.68953E+01 0.00000E+00
 -1      3843 1.56097E+01 2.46318E+01 0.00000E+00
 -1      3844 2.19000E+01 3.31130E+01 0.00000E+00
 -1      3845 2.34000E+01 3.31130E+01 0.00000E+00
 -1      3846 2.41500E+01 3.18140E+01 0.00000E+00
 -1      3847 2.72850E+01 1.30992E+01 0.00000E+00
 -1      3848 2.57850E+01 1.30992E+01 0.00000E+00
 -1      3849 2.50350E+01 1.43982E+01 0.00000E+00
 -1      3850 1.42890E+01 1.68813E+01 0.00000E+00
 -1      3851 1.42890E+01 1.83531E+01 0.00000E+00
 -1      3852 1.55880E+01 1.90906E+01 0.00000E+00
 -1      3853 1.35405E+02 1.38613E+01 0.00000E+00
 -1      3854 1.30570E+02 2.02690E+01 0.00000E+00
 -1      3855 4.67850E+01 1.56973E+01 0.00000E+00
 -1      3856 4.52850E+01 1.56973E+01 0.00000E+00
 -1      3857 4.45350E+01 1.69963E+01 0.00000E+00
 -1      3858 4.75350E+01 1.69963E+01 0.00000E+00
 -1      3859 1.32749E+02 2.28968E+01 0.00000E+00
 -1      3860 9.77223E+01 3.04085E+01 0.00000E+00
 -1      3861 1.66686E+01 3.26457E+01 0.00000E+00
 -1      3862 1.79062E+01 3.29006E+01 0.00000E+00
 -1      3863 1.86562E+01 3.16016E+01 0.00000E+00
 -1      3864 1.66686E+01 3.11769E+01 0.00000E+00
 -1      3865 1.33237E+02 1.58436E+01 0.00000E+00
 -1      3866 1.32069E+02 1.55630E+01 0.00000E+00
 -1      3867 1.31699E+02 1.65839E+01 0.00000E+00
 -1      3868 1.33508E+02 1.72967E+01 0.00000E+00
 -1      3869 9.94028E+01 1.58347E+01 0.00000E+00
 -1      3870 9.86528E+01 1.71337E+01 0.00000E+00
 -1      3871 2.80350E+01 1.43982E+01 0.00000E+00
 -1      3872 9.68849E+01 2.87815E+01 0.00000E+00
 -1      3873 9.65175E+01 2.78878E+01 0.00000E+00
 -1      3874 1.68976E+01 2.40410E+01 0.00000E+00
 -1      3875 1.69193E+01 2.51727E+01 0.00000E+00
 -1      3876 1.32749E+02 2.14265E+01 0.00000E+00
 -1      3877 1.34412E+02 2.20547E+01 0.00000E+00
 -1      3878 3.47850E+01 1.56973E+01 0.00000E+00
 -1      3879 3.32850E+01 1.56973E+01 0.00000E+00
 -1      3880 3.17850E+01 1.56973E+01 0.00000E+00
 -1      3881 3.02850E+01 1.56973E+01 0.00000E+00
 -1      3882 3.25350E+01 1.69963E+01 0.00000E+00
 -1      3883 2.27850E+01 1.56973E+01 0.00000E+00
 -1      3884 2.12850E+01 1.56973E+01 0.00000E+00
 -1      3885 1.01035E+02 1.78276E+01 0.00000E+00
 -1      3886 1.32233E+02 1.94268E+01 0.00000E+00
 -1      3887 1.32233E+02 1.79612E+01 0.00000E+00
 -1      3888 1.99669E+01 1.55475E+01 0.00000E+00
 -1      3889 1.86488E+01 1.53977E+01 0.00000E+00
 -1      3890 2.07169E+01 1.68465E+01 0.00000E+00
 -1      3891 1.62966E+01 1.39605E+01 0.00000E+00
 -1      3892 9.70659E+01 2.59496E+01 0.00000E+00
 -1      3893 9.81841E+01 2.49573E+01 0.00000E+00
 -1      3894 9.78132E+01 2.39194E+01 0.00000E+00
 -1      3895 9.98300E+01 2.02684E+01 0.00000E+00
 -1      3896 1.00397E+02 1.87364E+01 0.00000E+00
 -1      3897 9.96326E+01 1.81799E+01 0.00000E+00
 -1      3898 1.51412E+01 1.57205E+01 0.00000E+00
 -1      3899 3.77850E+01 1.56973E+01 0.00000E+00
 -1      3900 3.62850E+01 1.56973E+01 0.00000E+00
 -1      3901 3.55350E+01 1.69963E+01 0.00000E+00
 -1      3902 3.85350E+01 1.69963E+01 0.00000E+00
 -1      3903 9.80960E+01 2.17473E+01 0.00000E+00
 -1      3904 9.89630E+01 2.10079E+01 0.00000E+00
 -1      3905 9.81276E+01 1.98282E+01 0.00000E+00
 -1      3906 1.68976E+01 2.25722E+01 0.00000E+00
 -1      3907 1.82072E+01 2.31132E+01 0.00000E+00
 -1      3908 1.68976E+01 2.11035E+01 0.00000E+00
 -1      3909 9.64355E+01 3.04152E+01 0.00000E+00
 -1      3910 2.11500E+01 3.18140E+01 0.00000E+00
 -1      3911 9.80148E+01 1.80425E+01 0.00000E+00
 -1      3912 2.57850E+01 1.56973E+01 0.00000E+00
 -1      3913 2.42850E+01 1.56973E+01 0.00000E+00
 -1      3914 2.35350E+01 1.69963E+01 0.00000E+00
 -1      3915 2.04000E+01 3.05150E+01 0.00000E+00
 -1      3916 2.19000E+01 3.05150E+01 0.00000E+00
 -1      3917 1.82289E+01 2.57137E+01 0.00000E+00
 -1      3918 1.69410E+01 2.63045E+01 0.00000E+00
 -1      3919 1.69627E+01 2.74363E+01 0.00000E+00
 -1      3920 1.67434E+01 1.58587E+01 0.00000E+00
 -1      3921 2.64000E+01 3.05150E+01 0.00000E+00
 -1      3922 2.79000E+01 3.05150E+01 0.00000E+00
 -1      3923 2.94000E+01 3.05150E+01 0.00000E+00
 -1      3924 3.09000E+01 3.05150E+01 0.00000E+00
 -1      3925 2.86500E+01 2.92160E+01 0.00000E+00
 -1      3926 3.24000E+01 3.05150E+01 0.00000E+00
 -1      3927 3.39000E+01 3.05150E+01 0.00000E+00
 -1      3928 3.16500E+01 2.92160E+01 0.00000E+00
 -1      3929 3.54000E+01 3.05150E+01 0.00000E+00
 -1      3930 3.69000E+01 3.05150E+01 0.00000E+00
 -1      3931 3.46500E+01 2.92160E+01 0.00000E+00
 -1      3932 3.84000E+01 3.05150E+01 0.00000E+00
 -1      3933 3.99000E+01 3.05150E+01 0.00000E+00
 -1      3934 3.76500E+01 2.92160E+01 0.00000E+00
 -1      3935 4.14000E+01 3.05150E+01 0.00000E+00
 -1      3936 4.29000E+01 3.05150E+01 0.00000E+00
 -1      3937 4.06500E+01 2.92160E+01 0.00000E+00
 -1      3938 4.44000E+01 3.05150E+01 0.00000E+00
 -1      3939 4.59000E+01 3.05150E+01 0.00000E+00
 -1      3940 4.36500E+01 2.92160E+01 0.00000E+00
 -1      3941 4.74000E+01 3.05150E+01 0.00000E+00
 -1      3942 4.89000E+01 3.05150E+01 0.00000E+00
 -1      3943 4.66500E+01 2.92160E+01 0.00000E+00
 -1      3944 5.04000E+01 3.05150E+01 0.00000E+00
 -1      3945 5.19000E+01 3.05150E+01 0.00000E+00
 -1      3946 4.96500E+01 2.92160E+01 0.00000E+00
 -1      3947 5.34000E+01 3.05150E+01 0.00000E+00
 -1      3948 5.49000E+01 3.05150E+01 0.00000E+00
 -1      3949 5.26500E+01 2.92160E+01 0.00000E+00
 -1      3950 5.64000E+01 3.05150E+01 0.00000E+00
 -1      3951 5.79000E+01 3.05150E+01 0.00000E+00
 -1      3952 5.56500E+01 2.92160E+01 0.00000E+00
 -1      3953 5.94000E+01 3.05150E+01 0.00000E+00
 -1      3954 6.09000E+01 3.05150E+01 0.00000E+00
 -1      3955 5.86500E+01 2.92160E+01 0.00000E+00
 -1      3956 6.24000E+01 3.05150E+01 0.00000E+00
 -1      3957 6.39000E+01 3.05150E+01 0.00000E+00
 -1      3958 6.16500E+01 2.92160E+01 0.00000E+00
 -1      3959 6.54000E+01 3.05150E+01 0.00000E+00
 -1      3960 6.69000E+01 3.05150E+01 0.00000E+00
 -1      3961 6.46500E+01 2.92160E+01 0.00000E+00
 -1      3962 6.84000E+01 3.05150E+01 0.00000E+00
 -1      3963 6.99000E+01 3.05150E+01 0.00000E+00
 -1      3964 6.76500E+01 2.92160E+01 0.00000E+00
 -1      3965 7.14000E+01 3.05150E+01 0.00000E+00
 -1      3966 7.29000E+01 3.05150E+01 0.00000E+00
 -1      3967 7.06500E+01 2.92160E+01 0.00000E+00
 -1      3968 7.44000E+01 3.05150E+01 0.00000E+00
 -1      3969 7.59000E+01 3.05150E+01 0.00000E+00
 -1      3970 7.36500E+01 2.92160E+01 0.00000E+00
 -1      3971 7.74000E+01 3.05150E+01 0.00000E+00
 -1      3972 7.89000E+01 3.05150E+01 0.00000E+00
 -1      3973 7.66500E+01 2.92160E+01 0.00000E+00
 -1      3974 8.04000E+01 3.05150E+01 0.00000E+00
 -1      3975 8.19000E+01 3.05150E+01 0.00000E+00
 -1      3976 7.96500E+01 2.92160E+01 0.00000E+00
 -1      3977 8.34000E+01 3.05150E+01 0.00000E+00
 -1      3978 8.49000E+01 3.05150E+01 0.00000E+00
 -1      3979 8.26500E+01 2.92160E+01 0.00000E+00
 -1      3980 8.64000E+01 3.05150E+01 0.00000E+00
 -1      3981 8.79000E+01 3.05150E+01 0.00000E+00
 -1      3982 8.56500E+01 2.92160E+01 0.00000E+00
 -1      3983 8.94000E+01 3.05150E+01 0.00000E+00
 -1      3984 9.09000E+01 3.05150E+01 0.00000E+00
 -1      3985 8.86500E+01 2.92160E+01 0.00000E+00
 -1      3986 9.51240E+01 3.03011E+01 0.00000E+00
 -1      3987 5.42850E+01 1.82952E+01 0.00000E+00
 -1      3988 5.27850E+01 1.82952E+01 0.00000E+00
 -1      3989 4.22850E+01 1.82952E+01 0.00000E+00
 -1      3990 4.07850E+01 1.82952E+01 0.00000E+00
 -1      3991 5.72850E+01 1.82952E+01 0.00000E+00
 -1      3992 5.57850E+01 1.82952E+01 0.00000E+00
 -1      3993 5.50350E+01 1.95942E+01 0.00000E+00
 -1      3994 6.02850E+01 1.82952E+01 0.00000E+00
 -1      3995 5.87850E+01 1.82952E+01 0.00000E+00
 -1      3996 5.80350E+01 1.95942E+01 0.00000E+00
 -1      3997 6.32850E+01 1.82952E+01 0.00000E+00
 -1      3998 6.17850E+01 1.82952E+01 0.00000E+00
 -1      3999 6.10350E+01 1.95942E+01 0.00000E+00
 -1      4000 6.62850E+01 1.82952E+01 0.00000E+00
 -1      4001 6.47850E+01 1.82952E+01 0.00000E+00
 -1      4002 6.40350E+01 1.95942E+01 0.00000E+00
 -1      4003 6.92850E+01 1.82952E+01 0.00000E+00
 -1      4004 6.77850E+01 1.82952E+01 0.00000E+00
 -1      4005 6.70350E+01 1.95942E+01 0.00000E+00
 -1      4006 7.22850E+01 1.82952E+01 0.00000E+00
 -1      4007 7.07850E+01 1.82952E+01 0.00000E+00
 -1      4008 7.00350E+01 1.95942E+01 0.00000E+00
 -1      4009 7.52850E+01 1.82952E+01 0.00000E+00
 -1      4010 7.37850E+01 1.82952E+01 0.00000E+00
 -1      4011 7.30350E+01 1.95942E+01 0.00000E+00
 -1      4012 7.82850E+01 1.82952E+01 0.00000E+00
 -1      4013 7.67850E+01 1.82952E+01 0.00000E+00
 -1      4014 7.60350E+01 1.95942E+01 0.00000E+00
 -1      4015 8.12850E+01 1.82952E+01 0.00000E+00
 -1      4016 7.97850E+01 1.82952E+01 0.00000E+00
 -1      4017 7.90350E+01 1.95942E+01 0.00000E+00
 -1      4018 8.42850E+01 1.82952E+01 0.00000E+00
 -1      4019 8.27850E+01 1.82952E+01 0.00000E+00
 -1      4020 8.20350E+01 1.95942E+01 0.00000E+00
 -1      4021 8.72850E+01 1.82952E+01 0.00000E+00
 -1      4022 8.57850E+01 1.82952E+01 0.00000E+00
 -1      4023 8.50350E+01 1.95942E+01 0.00000E+00
 -1      4024 9.02850E+01 1.82952E+01 0.00000E+00
 -1      4025 8.87850E+01 1.82952E+01 0.00000E+00
 -1      4026 8.80350E+01 1.95942E+01 0.00000E+00
 -1      4027 9.32850E+01 1.82952E+01 0.00000E+00
 -1      4028 9.17850E+01 1.82952E+01 0.00000E+00
 -1      4029 9.10350E+01 1.95942E+01 0.00000E+00
 -1      4030 2.87850E+01 1.56973E+01 0.00000E+00
 -1      4031 2.72850E+01 1.56973E+01 0.00000E+00
 -1      4032 2.65350E+01 1.69963E+01 0.00000E+00
 -1      4033 2.95350E+01 1.69963E+01 0.00000E+00
 -1      4034 1.74934E+01 1.71577E+01 0.00000E+00
 -1      4035 1.68157E+01 2.85722E+01 0.00000E+00
 -1      4036 1.68157E+01 3.00410E+01 0.00000E+00
 -1      4037 1.78095E+01 3.02533E+01 0.00000E+00
 -1      4038 1.81036E+01 2.79814E+01 0.00000E+00
 -1      4039 5.12850E+01 1.82952E+01 0.00000E+00
 -1      4040 4.97850E+01 1.82952E+01 0.00000E+00
 -1      4041 5.20350E+01 1.95942E+01 0.00000E+00
 -1      4042 9.52271E+01 2.77503E+01 0.00000E+00
 -1      4043 9.61465E+01 2.68499E+01 0.00000E+00
 -1      4044 9.57756E+01 2.58120E+01 0.00000E+00
 -1      4045 2.34000E+01 3.05150E+01 0.00000E+00
 -1      4046 2.49000E+01 3.05150E+01 0.00000E+00
 -1      4047 2.56500E+01 2.92160E+01 0.00000E+00
 -1      4048 9.71478E+01 1.87819E+01 0.00000E+00
 -1      4049 4.90350E+01 1.95942E+01 0.00000E+00
 -1      4050 4.82850E+01 1.82952E+01 0.00000E+00
 -1      4051 4.67850E+01 1.82952E+01 0.00000E+00
 -1      4052 9.56478E+01 1.87819E+01 0.00000E+00
 -1      4053 4.37850E+01 1.82952E+01 0.00000E+00
 -1      4054 4.30350E+01 1.95942E+01 0.00000E+00
 -1      4055 4.52850E+01 1.82952E+01 0.00000E+00
 -1      4056 9.24000E+01 3.05150E+01 0.00000E+00
 -1      4057 9.39000E+01 3.05150E+01 0.00000E+00
 -1      4058 4.00350E+01 1.95942E+01 0.00000E+00
 -1      4059 3.92850E+01 1.82952E+01 0.00000E+00
 -1      4060 3.77850E+01 1.82952E+01 0.00000E+00
 -1      4061 9.43740E+01 2.90021E+01 0.00000E+00
 -1      4062 1.91051E+01 1.77380E+01 0.00000E+00
 -1      4063 1.71998E+01 1.81991E+01 0.00000E+00
 -1      4064 1.71998E+01 1.96709E+01 0.00000E+00
 -1      4065 2.04233E+01 1.78878E+01 0.00000E+00
 -1      4066 2.26500E+01 2.92160E+01 0.00000E+00
 -1      4067 9.48978E+01 2.00809E+01 0.00000E+00
 -1      4068 1.31328E+02 1.76048E+01 0.00000E+00
 -1      4069 9.69778E+01 2.27396E+01 0.00000E+00
 -1      4070 9.61424E+01 2.15599E+01 0.00000E+00
 -1      4071 9.58596E+01 2.37320E+01 0.00000E+00
 -1      4072 2.42850E+01 1.82952E+01 0.00000E+00
 -1      4073 2.27850E+01 1.82952E+01 0.00000E+00
 -1      4074 1.85094E+01 2.02119E+01 0.00000E+00
 -1      4075 1.95062E+01 2.23788E+01 0.00000E+00
 -1      4076 1.95062E+01 2.38476E+01 0.00000E+00
 -1      4077 2.11733E+01 1.91868E+01 0.00000E+00
 -1      4078 9.40031E+01 2.79642E+01 0.00000E+00
 -1      4079 1.88033E+01 3.04657E+01 0.00000E+00
 -1      4080 1.95533E+01 2.91667E+01 0.00000E+00
 -1      4081 3.62850E+01 1.82952E+01 0.00000E+00
 -1      4082 3.47850E+01 1.82952E+01 0.00000E+00
 -1      4083 3.70350E+01 1.95942E+01 0.00000E+00
 -1      4084 2.08269E+01 2.42450E+01 0.00000E+00
 -1      4085 1.95279E+01 2.49793E+01 0.00000E+00
 -1      4086 1.95496E+01 2.61111E+01 0.00000E+00
 -1      4087 3.40350E+01 1.95942E+01 0.00000E+00
 -1      4088 3.32850E+01 1.82952E+01 0.00000E+00
 -1      4089 3.17850E+01 1.82952E+01 0.00000E+00
 -1      4090 9.16500E+01 2.92160E+01 0.00000E+00
 -1      4091 2.79000E+01 2.79170E+01 0.00000E+00
 -1      4092 2.94000E+01 2.79170E+01 0.00000E+00
 -1      4093 3.09000E+01 2.79170E+01 0.00000E+00
 -1      4094 3.24000E+01 2.79170E+01 0.00000E+00
 -1      4095 3.01500E+01 2.66180E+01 0.00000E+00
 -1      4096 3.39000E+01 2.79170E+01 0.00000E+00
 -1      4097 3.54000E+01 2.79170E+01 0.00000E+00
 -1      4098 3.31500E+01 2.66180E+01 0.00000E+00
 -1      4099 3.69000E+01 2.79170E+01 0.00000E+00
 -1      4100 3.84000E+01 2.79170E+01 0.00000E+00
 -1      4101 3.61500E+01 2.66180E+01 0.00000E+00
 -1      4102 3.99000E+01 2.79170E+01 0.00000E+00
 -1      4103 4.14000E+01 2.79170E+01 0.00000E+00
 -1      4104 3.91500E+01 2.66180E+01 0.00000E+00
 -1      4105 4.29000E+01 2.79170E+01 0.00000E+00
 -1      4106 4.44000E+01 2.79170E+01 0.00000E+00
 -1      4107 4.21500E+01 2.66180E+01 0.00000E+00
 -1      4108 4.59000E+01 2.79170E+01 0.00000E+00
 -1      4109 4.74000E+01 2.79170E+01 0.00000E+00
 -1      4110 4.51500E+01 2.66180E+01 0.00000E+00
 -1      4111 4.89000E+01 2.79170E+01 0.00000E+00
 -1      4112 5.04000E+01 2.79170E+01 0.00000E+00
 -1      4113 4.81500E+01 2.66180E+01 0.00000E+00
 -1      4114 5.19000E+01 2.79170E+01 0.00000E+00
 -1      4115 5.34000E+01 2.79170E+01 0.00000E+00
 -1      4116 5.11500E+01 2.66180E+01 0.00000E+00
 -1      4117 5.49000E+01 2.79170E+01 0.00000E+00
 -1      4118 5.64000E+01 2.79170E+01 0.00000E+00
 -1      4119 5.41500E+01 2.66180E+01 0.00000E+00
 -1      4120 5.79000E+01 2.79170E+01 0.00000E+00
 -1      4121 5.94000E+01 2.79170E+01 0.00000E+00
 -1      4122 5.71500E+01 2.66180E+01 0.00000E+00
 -1      4123 6.09000E+01 2.79170E+01 0.00000E+00
 -1      4124 6.24000E+01 2.79170E+01 0.00000E+00
 -1      4125 6.01500E+01 2.66180E+01 0.00000E+00
 -1      4126 6.39000E+01 2.79170E+01 0.00000E+00
 -1      4127 6.54000E+01 2.79170E+01 0.00000E+00
 -1      4128 6.31500E+01 2.66180E+01 0.00000E+00
 -1      4129 6.69000E+01 2.79170E+01 0.00000E+00
 -1      4130 6.84000E+01 2.79170E+01 0.00000E+00
 -1      4131 6.61500E+01 2.66180E+01 0.00000E+00
 -1      4132 6.99000E+01 2.79170E+01 0.00000E+00
 -1      4133 7.14000E+01 2.79170E+01 0.00000E+00
 -1      4134 6.91500E+01 2.66180E+01 0.00000E+00
 -1      4135 7.29000E+01 2.79170E+01 0.00000E+00
 -1      4136 7.44000E+01 2.79170E+01 0.00000E+00
 -1      4137 7.21500E+01 2.66180E+01 0.00000E+00
 -1      4138 7.59000E+01 2.79170E+01 0.00000E+00
 -1      4139 7.74000E+01 2.79170E+01 0.00000E+00
 -1      4140 7.51500E+01 2.66180E+01 0.00000E+00
 -1      4141 7.89000E+01 2.79170E+01 0.00000E+00
 -1      4142 8.04000E+01 2.79170E+01 0.00000E+00
 -1      4143 7.81500E+01 2.66180E+01 0.00000E+00
 -1      4144 8.19000E+01 2.79170E+01 0.00000E+00
 -1      4145 8.34000E+01 2.79170E+01 0.00000E+00
 -1      4146 8.11500E+01 2.66180E+01 0.00000E+00
 -1      4147 8.49000E+01 2.79170E+01 0.00000E+00
 -1      4148 8.64000E+01 2.79170E+01 0.00000E+00
 -1      4149 8.41500E+01 2.66180E+01 0.00000E+00
 -1      4150 8.79000E+01 2.79170E+01 0.00000E+00
 -1      4151 8.94000E+01 2.79170E+01 0.00000E+00
 -1      4152 8.71500E+01 2.66180E+01 0.00000E+00
 -1      4153 5.87850E+01 2.08932E+01 0.00000E+00
 -1      4154 5.72850E+01 2.08932E+01 0.00000E+00
 -1      4155 9.25031E+01 2.79642E+01 0.00000E+00
 -1      4156 9.33562E+01 2.67124E+01 0.00000E+00
 -1      4157 9.10031E+01 2.79642E+01 0.00000E+00
 -1      4158 5.57850E+01 2.08932E+01 0.00000E+00
 -1      4159 5.42850E+01 2.08932E+01 0.00000E+00
 -1      4160 5.65350E+01 2.21922E+01 0.00000E+00
 -1      4161 6.47850E+01 2.08932E+01 0.00000E+00
 -1      4162 6.32850E+01 2.08932E+01 0.00000E+00
 -1      4163 6.77850E+01 2.08932E+01 0.00000E+00
 -1      4164 6.62850E+01 2.08932E+01 0.00000E+00
 -1      4165 6.55350E+01 2.21922E+01 0.00000E+00
 -1      4166 7.07850E+01 2.08932E+01 0.00000E+00
 -1      4167 6.92850E+01 2.08932E+01 0.00000E+00
 -1      4168 6.85350E+01 2.21922E+01 0.00000E+00
 -1      4169 7.37850E+01 2.08932E+01 0.00000E+00
 -1      4170 7.22850E+01 2.08932E+01 0.00000E+00
 -1      4171 7.15350E+01 2.21922E+01 0.00000E+00
 -1      4172 7.67850E+01 2.08932E+01 0.00000E+00
 -1      4173 7.52850E+01 2.08932E+01 0.00000E+00
 -1      4174 7.45350E+01 2.21922E+01 0.00000E+00
 -1      4175 7.97850E+01 2.08932E+01 0.00000E+00
 -1      4176 7.82850E+01 2.08932E+01 0.00000E+00
 -1      4177 7.75350E+01 2.21922E+01 0.00000E+00
 -1      4178 8.27850E+01 2.08932E+01 0.00000E+00
 -1      4179 8.12850E+01 2.08932E+01 0.00000E+00
 -1      4180 8.05350E+01 2.21922E+01 0.00000E+00
 -1      4181 8.57850E+01 2.08932E+01 0.00000E+00
 -1      4182 8.42850E+01 2.08932E+01 0.00000E+00
 -1      4183 8.35350E+01 2.21922E+01 0.00000E+00
 -1      4184 8.87850E+01 2.08932E+01 0.00000E+00
 -1      4185 8.72850E+01 2.08932E+01 0.00000E+00
 -1      4186 8.65350E+01 2.21922E+01 0.00000E+00
 -1      4187 9.17850E+01 2.08932E+01 0.00000E+00
 -1      4188 9.02850E+01 2.08932E+01 0.00000E+00
 -1      4189 8.95350E+01 2.21922E+01 0.00000E+00
 -1      4190 2.57850E+01 1.82952E+01 0.00000E+00
 -1      4191 2.50350E+01 1.95942E+01 0.00000E+00
 -1      4192 2.72850E+01 1.82952E+01 0.00000E+00
 -1      4193 2.19000E+01 2.79170E+01 0.00000E+00
 -1      4194 2.34000E+01 2.79170E+01 0.00000E+00
 -1      4195 2.49000E+01 2.79170E+01 0.00000E+00
 -1      4196 2.64000E+01 2.79170E+01 0.00000E+00
 -1      4197 2.41500E+01 2.66180E+01 0.00000E+00
 -1      4198 1.97003E+01 2.80307E+01 0.00000E+00
 -1      4199 9.37796E+01 2.10732E+01 0.00000E+00
 -1      4200 6.17850E+01 2.08932E+01 0.00000E+00
 -1      4201 6.02850E+01 2.08932E+01 0.00000E+00
 -1      4202 5.95350E+01 2.21922E+01 0.00000E+00
 -1      4203 5.27850E+01 2.08932E+01 0.00000E+00
 -1      4204 5.12850E+01 2.08932E+01 0.00000E+00
 -1      4205 5.35350E+01 2.21922E+01 0.00000E+00
 -1      4206 9.41482E+01 2.56724E+01 0.00000E+00
 -1      4207 9.50676E+01 2.47720E+01 0.00000E+00
 -1      4208 9.42322E+01 2.35923E+01 0.00000E+00
 -1      4209 9.26482E+01 2.56724E+01 0.00000E+00
 -1      4210 4.07850E+01 2.08932E+01 0.00000E+00
 -1      4211 3.92850E+01 2.08932E+01 0.00000E+00
 -1      4212 6.25350E+01 2.21922E+01 0.00000E+00
 -1      4213 4.60350E+01 1.95942E+01 0.00000E+00
 -1      4214 9.02531E+01 2.66652E+01 0.00000E+00
 -1      4215 5.05350E+01 2.21922E+01 0.00000E+00
 -1      4216 4.97850E+01 2.08932E+01 0.00000E+00
 -1      4217 4.82850E+01 2.08932E+01 0.00000E+00
 -1      4218 2.71500E+01 2.66180E+01 0.00000E+00
 -1      4219 2.57850E+01 2.08932E+01 0.00000E+00
 -1      4220 2.42850E+01 2.08932E+01 0.00000E+00
 -1      4221 9.30296E+01 2.23722E+01 0.00000E+00
 -1      4222 2.09993E+01 2.72964E+01 0.00000E+00
 -1      4223 3.02850E+01 1.82952E+01 0.00000E+00
 -1      4224 2.87850E+01 1.82952E+01 0.00000E+00
 -1      4225 3.10350E+01 1.95942E+01 0.00000E+00
 -1      4226 4.37850E+01 2.08932E+01 0.00000E+00
 -1      4227 4.22850E+01 2.08932E+01 0.00000E+00
 -1      4228 4.15350E+01 2.21922E+01 0.00000E+00
 -1      4229 2.17493E+01 2.59974E+01 0.00000E+00
 -1      4230 1.99315E+01 1.97637E+01 0.00000E+00
 -1      4231 1.96293E+01 2.11963E+01 0.00000E+00
 -1      4232 2.09283E+01 2.19306E+01 0.00000E+00
 -1      4233 3.77850E+01 2.08932E+01 0.00000E+00
 -1      4234 3.62850E+01 2.08932E+01 0.00000E+00
 -1      4235 3.85350E+01 2.21922E+01 0.00000E+00
 -1      4236 2.17059E+01 2.37338E+01 0.00000E+00
 -1      4237 2.17276E+01 2.48656E+01 0.00000E+00
 -1      4238 2.26283E+01 2.54862E+01 0.00000E+00
 -1      4239 3.47850E+01 2.08932E+01 0.00000E+00
 -1      4240 3.32850E+01 2.08932E+01 0.00000E+00
 -1      4241 3.55350E+01 2.21922E+01 0.00000E+00
 -1      4242 2.94000E+01 2.53190E+01 0.00000E+00
 -1      4243 3.09000E+01 2.53190E+01 0.00000E+00
 -1      4244 6.28425E+01 2.44051E+01 0.00000E+00
 -1      4245 6.13425E+01 2.44051E+01 0.00000E+00
 -1      4246 3.28425E+01 2.44051E+01 0.00000E+00
 -1      4247 3.43425E+01 2.44051E+01 0.00000E+00
 -1      4248 3.58425E+01 2.44051E+01 0.00000E+00
 -1      4249 3.73425E+01 2.44051E+01 0.00000E+00
 -1      4250 3.88425E+01 2.44051E+01 0.00000E+00
 -1      4251 4.03425E+01 2.44051E+01 0.00000E+00
 -1      4252 4.18425E+01 2.44051E+01 0.00000E+00
 -1      4253 4.33425E+01 2.44051E+01 0.00000E+00
 -1      4254 4.74000E+01 2.53190E+01 0.00000E+00
 -1      4255 4.89000E+01 2.53190E+01 0.00000E+00
 -1      4256 5.08425E+01 2.44051E+01 0.00000E+00
 -1      4257 5.23425E+01 2.44051E+01 0.00000E+00
 -1      4258 5.38425E+01 2.44051E+01 0.00000E+00
 -1      4259 5.53425E+01 2.44051E+01 0.00000E+00
 -1      4260 5.68425E+01 2.44051E+01 0.00000E+00
 -1      4261 5.83425E+01 2.44051E+01 0.00000E+00
 -1      4262 5.98425E+01 2.44051E+01 0.00000E+00
 -1      4263 6.43425E+01 2.44051E+01 0.00000E+00
 -1      4264 6.58425E+01 2.44051E+01 0.00000E+00
 -1      4265 6.73425E+01 2.44051E+01 0.00000E+00
 -1      4266 6.88425E+01 2.44051E+01 0.00000E+00
 -1      4267 7.03425E+01 2.44051E+01 0.00000E+00
 -1      4268 7.18425E+01 2.44051E+01 0.00000E+00
 -1      4269 7.33425E+01 2.44051E+01 0.00000E+00
 -1      4270 7.48425E+01 2.44051E+01 0.00000E+00
 -1      4271 7.63425E+01 2.44051E+01 0.00000E+00
 -1      4272 7.78425E+01 2.44051E+01 0.00000E+00
 -1      4273 7.93425E+01 2.44051E+01 0.00000E+00
 -1      4274 8.08425E+01 2.44051E+01 0.00000E+00
 -1      4275 8.23425E+01 2.44051E+01 0.00000E+00
 -1      4276 8.38425E+01 2.44051E+01 0.00000E+00
 -1      4277 8.53425E+01 2.44051E+01 0.00000E+00
 -1      4278 8.68425E+01 2.44051E+01 0.00000E+00
 -1      4279 8.83425E+01 2.44051E+01 0.00000E+00
 -1      4280 2.72850E+01 2.08933E+01 0.00000E+00
 -1      4281 2.65350E+01 2.21923E+01 0.00000E+00
 -1      4282 2.41283E+01 2.54862E+01 0.00000E+00
 -1      4283 8.98425E+01 2.44051E+01 0.00000E+00
 -1      4284 9.14456E+01 2.44523E+01 0.00000E+00
 -1      4285 2.80350E+01 1.95942E+01 0.00000E+00
 -1      4286 2.22819E+01 2.14738E+01 0.00000E+00
 -1      4287 2.21588E+01 2.26564E+01 0.00000E+00
 -1      4288 2.42737E+01 2.21959E+01 0.00000E+00
 -1      4289 2.35237E+01 2.08969E+01 0.00000E+00
 -1      4290 2.22932E+01 2.01712E+01 0.00000E+00
 -1      4291 2.30595E+01 2.32770E+01 0.00000E+00
 -1      4292 4.67850E+01 2.08932E+01 0.00000E+00
 -1      4293 4.52850E+01 2.08932E+01 0.00000E+00
 -1      4294 4.45350E+01 2.21922E+01 0.00000E+00
 -1      4295 4.75350E+01 2.21922E+01 0.00000E+00
 -1      4296 2.60141E+01 2.54026E+01 0.00000E+00
 -1      4297 2.75141E+01 2.54026E+01 0.00000E+00
 -1      4298 2.82641E+01 2.41036E+01 0.00000E+00
 -1      4299 2.44924E+01 2.42709E+01 0.00000E+00
 -1      4300 2.49453E+01 2.31934E+01 0.00000E+00
 -1      4301 2.87850E+01 2.08933E+01 0.00000E+00
 -1      4302 4.48425E+01 2.44051E+01 0.00000E+00
 -1      4303 4.63425E+01 2.44051E+01 0.00000E+00
 -1      4304 9.22376E+01 2.34123E+01 0.00000E+00
 -1      4305 3.20925E+01 2.31061E+01 0.00000E+00
 -1      4306 3.13425E+01 2.18071E+01 0.00000E+00
 -1      4307 5.00925E+01 2.31061E+01 0.00000E+00
 -1      4308 2.98425E+01 2.18071E+01 0.00000E+00
 -1      4309 4.70925E+01 2.31061E+01 0.00000E+00
 -1      4310 4.85925E+01 2.31061E+01 0.00000E+00
 -1      4311 2.90925E+01 2.31061E+01 0.00000E+00
 -1      4312 2.72066E+01 2.31898E+01 0.00000E+00
 -1      4313 2.57066E+01 2.31897E+01 0.00000E+00
 -3
    3C                          2075                                     1
 -1       164    8    0    1
 -2         6         7        23      1120      1283      1137
 -1       165    8    0    1
 -2         7         8       164      1121      1284      1285
 -1       166    8    0    1
 -2         8         9       165      1122      1286      1287
 -1       167    8    0    1
 -2         8       165       164      1287      1288      1284
 -1       168    8    0    1
 -2         9        10       166      1123      1289      1290
 -1       169    8    0    1
 -2         9       166       165      1290      1291      1286
 -1       170    8    0    1
 -2        10        11       167      1124      1292      1293
 -1       171    8    0    1
 -2        10       167       166      1293      1294      1289
 -1       172    8    0    1
 -2        11        12       168      1125      1295      1296
 -1       173    8    0    1
 -2        11       168       167      1296      1297      1292
 -1       174    8    0    1
 -2        12        13       169      1126      1298      1299
 -1       175    8    0    1
 -2        12       169       168      1299      1300      1295
 -1       176    8    0    1
 -2        13        14       170      1127      1301      1302
 -1       177    8    0    1
 -2        13       170       169      1302      1303      1298
 -1       178    8    0    1
 -2        14        15       171      1128      1304      1305
 -1       179    8    0    1
 -2        14       171       170      1305      1306      1301
 -1       180    8    0    1
 -2        15        16       172      1129      1307      1308
 -1       181    8    0    1
 -2        15       172       171      1308      1309      1304
 -1       182    8    0    1
 -2        16        17       173      1130      1310      1311
 -1       183    8    0    1
 -2        16       173       172      1311      1312      1307
 -1       184    8    0    1
 -2        17        18       174      1131      1313      1314
 -1       185    8    0    1
 -2        17       174       173      1314      1315      1310
 -1       186    8    0    1
 -2        18        19       175      1132      1316      1317
 -1       187    8    0    1
 -2        18       175       174      1317      1318      1313
 -1       188    8    0    1
 -2        19        20       176      1133      1319      1320
 -1       189    8    0    1
 -2        19       176       175      1320      1321      1316
 -1       190    8    0    1
 -2        20        21       177      1134      1322      1323
 -1       191    8    0    1
 -2        20       177       176      1323      1324      1319
 -1       192    8    0    1
 -2        21        22       178      1135      1325      1326
 -1       193    8    0    1
 -2        21       178       177      1326      1327      1322
 -1       194    8    0    1
 -2        22         5       179      1136      1328      1329
 -1       195    8    0    1
 -2       178        22       179      1325      1329      1330
 -1       196    8    0    1
 -2         5        72       179      1187      1331      1328
 -1       197    8    0    1
 -2        24        23       180      1138      1332      1333
 -1       198    8    0    1
 -2        25        24       181      1139      1334      1335
 -1       199    8    0    1
 -2        24       180       181      1333      1336      1334
 -1       200    8    0    1
 -2        26        25       182      1140      1337      1338
 -1       201    8    0    1
 -2        25       181       182      1335      1339      1337
 -1       202    8    0    1
 -2        27        26       183      1141      1340      1341
 -1       203    8    0    1
 -2        26       182       183      1338      1342      1340
 -1       204    8    0    1
 -2        28        27       184      1142      1343      1344
 -1       205    8    0    1
 -2        27       183       184      1341      1345      1343
 -1       206    8    0    1
 -2        29        28       185      1143      1346      1347
 -1       207    8    0    1
 -2        28       184       185      1344      1348      1346
 -1       208    8    0    1
 -2        30        29       186      1144      1349      1350
 -1       209    8    0    1
 -2        29       185       186      1347      1351      1349
 -1       210    8    0    1
 -2        31        30       187      1145      1352      1353
 -1       211    8    0    1
 -2        30       186       187      1350      1354      1352
 -1       212    8    0    1
 -2        32        31       188      1146      1355      1356
 -1       213    8    0    1
 -2        31       187       188      1353      1357      1355
 -1       214    8    0    1
 -2        33        32       189      1147      1358      1359
 -1       215    8    0    1
 -2        32       188       189      1356      1360      1358
 -1       216    8    0    1
 -2        34        33       190      1148      1361      1362
 -1       217    8    0    1
 -2        33       189       190      1359      1363      1361
 -1       218    8    0    1
 -2        35        34       191      1149      1364      1365
 -1       219    8    0    1
 -2        34       190       191      1362      1366      1364
 -1       220    8    0    1
 -2        36        35       192      1150      1367      1368
 -1       221    8    0    1
 -2        35       191       192      1365      1369      1367
 -1       222    8    0    1
 -2        37        36       193      1151      1370      1371
 -1       223    8    0    1
 -2        36       192       193      1368      1372      1370
 -1       224    8    0    1
 -2        38        37       194      1152      1373      1374
 -1       225    8    0    1
 -2        37       193       194      1371      1375      1373
 -1       226    8    0    1
 -2        39        38       195      1153      1376      1377
 -1       227    8    0    1
 -2        38       194       195      1374      1378      1376
 -1       228    8    0    1
 -2        40        39       196      1154      1379      1380
 -1       229    8    0    1
 -2        39       195       196      1377      1381      1379
 -1       230    8    0    1
 -2        41        40       197      1155      1382      1383
 -1       231    8    0    1
 -2        40       196       197      1380      1384      1382
 -1       232    8    0    1
 -2        42        41       198      1156      1385      1386
 -1       233    8    0    1
 -2        41       197       198      1383      1387      1385
 -1       234    8    0    1
 -2        43        42       199      1157      1388      1389
 -1       235    8    0    1
 -2        42       198       199      1386      1390      1388
 -1       236    8    0    1
 -2        44        43       200      1158      1391      1392
 -1       237    8    0    1
 -2        43       199       200      1389      1393      1391
 -1       238    8    0    1
 -2        45        44       201      1159      1394      1395
 -1       239    8    0    1
 -2        44       200       201      1392      1396      1394
 -1       240    8    0    1
 -2        46        45       202      1160      1397      1398
 -1       241    8    0    1
 -2        45       201       202      1395      1399      1397
 -1       242    8    0    1
 -2        47        46       203      1161      1400      1401
 -1       243    8    0    1
 -2        46       202       203      1398      1402      1400
 -1       244    8    0    1
 -2        48        47       204      1162      1403      1404
 -1       245    8    0    1
 -2        47       203       204      1401      1405      1403
 -1       246    8    0    1
 -2        49        48       205      1163      1406      1407
 -1       247    8    0    1
 -2        48       204       205      1404      1408      1406
 -1       248    8    0    1
 -2        50        49       206      1164      1409      1410
 -1       249    8    0    1
 -2        49       205       206      1407      1411      1409
 -1       250    8    0    1
 -2        51        50       207      1165      1412      1413
 -1       251    8    0    1
 -2        50       206       207      1410      1414      1412
 -1       252    8    0    1
 -2        52        51       208      1166      1415      1416
 -1       253    8    0    1
 -2        51       207       208      1413      1417      1415
 -1       254    8    0    1
 -2        53        52       209      1167      1418      1419
 -1       255    8    0    1
 -2        52       208       209      1416      1420      1418
 -1       256    8    0    1
 -2        54        53       210      1168      1421      1422
 -1       257    8    0    1
 -2        53       209       210      1419      1423      1421
 -1       258    8    0    1
 -2        55        54       211      1169      1424      1425
 -1       259    8    0    1
 -2        54       210       211      1422      1426      1424
 -1       260    8    0    1
 -2        56        55       212      1170      1427      1428
 -1       261    8    0    1
 -2        55       211       212      1425      1429      1427
 -1       262    8    0    1
 -2        57        56       213      1171      1430      1431
 -1       263    8    0    1
 -2        56       212       213      1428      1432      1430
 -1       264    8    0    1
 -2        58        57       214      1172      1433      1434
 -1       265    8    0    1
 -2        57       213       214      1431      1435      1433
 -1       266    8    0    1
 -2        59        58       215      1173      1436      1437
 -1       267    8    0    1
 -2        58       214       215      1434      1438      1436
 -1       268    8    0    1
 -2        60        59       216      1174      1439      1440
 -1       269    8    0    1
 -2        59       215       216      1437      1441      1439
 -1       270    8    0    1
 -2        61        60       217      1175      1442      1443
 -1       271    8    0    1
 -2        60       216       217      1440      1444      1442
 -1       272    8    0    1
 -2        62        61       218      1176      1445      1446
 -1       273    8    0    1
 -2        61       217       218      1443      1447      1445
 -1       274    8    0    1
 -2        63        62       219      1177      1448      1449
 -1       275    8    0    1
 -2        62       218       219      1446      1450      1448
 -1       276    8    0    1
 -2        64        63       220      1178      1451      1452
 -1       277    8    0    1
 -2        63       219       220      1449      1453      1451
 -1       278    8    0    1
 -2        65        64       221      1179      1454      1455
 -1       279    8    0    1
 -2        64       220       221      1452      1456      1454
 -1       280    8    0    1
 -2        66        65       222      1180      1457      1458
 -1       281    8    0    1
 -2        65       221       222      1455      1459      1457
 -1       282    8    0    1
 -2        67        66       223      1181      1460      1461
 -1       283    8    0    1
 -2        66       222       223      1458      1462      1460
 -1       284    8    0    1
 -2        68        67       224      1182      1463      1464
 -1       285    8    0    1
 -2        67       223       224      1461      1465      1463
 -1       286    8    0    1
 -2        69        68       225      1183      1466      1467
 -1       287    8    0    1
 -2        68       224       225      1464      1468      1466
 -1       288    8    0    1
 -2        70        69       226      1184      1469      1470
 -1       289    8    0    1
 -2        69       225       226      1467      1471      1469
 -1       290    8    0    1
 -2        71        70       227      1185      1472      1473
 -1       291    8    0    1
 -2        70       226       227      1470      1474      1472
 -1       292    8    0    1
 -2         4        71       136      1186      1475      1253
 -1       293    8    0    1
 -2       136        71       227      1475      1473      1476
 -1       294    8    0    1
 -2        72        73       228      1188      1477      1478
 -1       295    8    0    1
 -2        72       228       179      1478      1479      1331
 -1       296    8    0    1
 -2        73        74       229      1189      1480      1481
 -1       297    8    0    1
 -2        73       229       228      1481      1482      1477
 -1       298    8    0    1
 -2        74        75       230      1190      1483      1484
 -1       299    8    0    1
 -2        74       230       229      1484      1485      1480
 -1       300    8    0    1
 -2        75        76       231      1191      1486      1487
 -1       301    8    0    1
 -2        75       231       230      1487      1488      1483
 -1       302    8    0    1
 -2        76        77       232      1192      1489      1490
 -1       303    8    0    1
 -2        76       232       231      1490      1491      1486
 -1       304    8    0    1
 -2        77        78       233      1193      1492      1493
 -1       305    8    0    1
 -2        77       233       232      1493      1494      1489
 -1       306    8    0    1
 -2        78        79       234      1194      1495      1496
 -1       307    8    0    1
 -2        78       234       233      1496      1497      1492
 -1       308    8    0    1
 -2        79        80       235      1195      1498      1499
 -1       309    8    0    1
 -2        79       235       234      1499      1500      1495
 -1       310    8    0    1
 -2        80        81       236      1196      1501      1502
 -1       311    8    0    1
 -2        80       236       235      1502      1503      1498
 -1       312    8    0    1
 -2        81        82       237      1197      1504      1505
 -1       313    8    0    1
 -2        81       237       236      1505      1506      1501
 -1       314    8    0    1
 -2        82        83       238      1198      1507      1508
 -1       315    8    0    1
 -2        82       238       237      1508      1509      1504
 -1       316    8    0    1
 -2        83        84       239      1199      1510      1511
 -1       317    8    0    1
 -2        83       239       238      1511      1512      1507
 -1       318    8    0    1
 -2        84        85       240      1200      1513      1514
 -1       319    8    0    1
 -2        84       240       239      1514      1515      1510
 -1       320    8    0    1
 -2        85        86       241      1201      1516      1517
 -1       321    8    0    1
 -2        85       241       240      1517      1518      1513
 -1       322    8    0    1
 -2        86        87       242      1202      1519      1520
 -1       323    8    0    1
 -2        86       242       241      1520      1521      1516
 -1       324    8    0    1
 -2        87        88       243      1203      1522      1523
 -1       325    8    0    1
 -2        87       243       242      1523      1524      1519
 -1       326    8    0    1
 -2        88        89       244      1204      1525      1526
 -1       327    8    0    1
 -2        88       244       243      1526      1527      1522
 -1       328    8    0    1
 -2        89        90       245      1205      1528      1529
 -1       329    8    0    1
 -2        89       245       244      1529      1530      1525
 -1       330    8    0    1
 -2        90        91       246      1206      1531      1532
 -1       331    8    0    1
 -2        90       246       245      1532      1533      1528
 -1       332    8    0    1
 -2        91        92       247      1207      1534      1535
 -1       333    8    0    1
 -2        91       247       246      1535      1536      1531
 -1       334    8    0    1
 -2        92        93       248      1208      1537      1538
 -1       335    8    0    1
 -2        92       248       247      1538      1539      1534
 -1       336    8    0    1
 -2        93        94       249      1209      1540      1541
 -1       337    8    0    1
 -2        93       249       248      1541      1542      1537
 -1       338    8    0    1
 -2        94        95       250      1210      1543      1544
 -1       339    8    0    1
 -2        94       250       249      1544      1545      1540
 -1       340    8    0    1
 -2        95        96       251      1211      1546      1547
 -1       341    8    0    1
 -2        95       251       250      1547      1548      1543
 -1       342    8    0    1
 -2        96        97       252      1212      1549      1550
 -1       343    8    0    1
 -2        96       252       251      1550      1551      1546
 -1       344    8    0    1
 -2        97        98       253      1213      1552      1553
 -1       345    8    0    1
 -2        97       253       252      1553      1554      1549
 -1       346    8    0    1
 -2        98        99       254      1214      1555      1556
 -1       347    8    0    1
 -2        98       254       253      1556      1557      1552
 -1       348    8    0    1
 -2        99       100       255      1215      1558      1559
 -1       349    8    0    1
 -2        99       255       254      1559      1560      1555
 -1       350    8    0    1
 -2       100       101       256      1216      1561      1562
 -1       351    8    0    1
 -2       100       256       255      1562      1563      1558
 -1       352    8    0    1
 -2       101       102       257      1217      1564      1565
 -1       353    8    0    1
 -2       101       257       256      1565      1566      1561
 -1       354    8    0    1
 -2       102       103       258      1218      1567      1568
 -1       355    8    0    1
 -2       102       258       257      1568      1569      1564
 -1       356    8    0    1
 -2       103       104       259      1219      1570      1571
 -1       357    8    0    1
 -2       103       259       258      1571      1572      1567
 -1       358    8    0    1
 -2       104       105       260      1220      1573      1574
 -1       359    8    0    1
 -2       104       260       259      1574      1575      1570
 -1       360    8    0    1
 -2       105       106       261      1221      1576      1577
 -1       361    8    0    1
 -2       105       261       260      1577      1578      1573
 -1       362    8    0    1
 -2       106       107       262      1222      1579      1580
 -1       363    8    0    1
 -2       106       262       261      1580      1581      1576
 -1       364    8    0    1
 -2       107       108       263      1223      1582      1583
 -1       365    8    0    1
 -2       107       263       262      1583      1584      1579
 -1       366    8    0    1
 -2       108       109       264      1224      1585      1586
 -1       367    8    0    1
 -2       108       264       263      1586      1587      1582
 -1       368    8    0    1
 -2       109       110       265      1225      1588      1589
 -1       369    8    0    1
 -2       109       265       264      1589      1590      1585
 -1       370    8    0    1
 -2       110       111       266      1226      1591      1592
 -1       371    8    0    1
 -2       110       266       265      1592      1593      1588
 -1       372    8    0    1
 -2       111       112       267      1227      1594      1595
 -1       373    8    0    1
 -2       111       267       266      1595      1596      1591
 -1       374    8    0    1
 -2       112       113       268      1228      1597      1598
 -1       375    8    0    1
 -2       112       268       267      1598      1599      1594
 -1       376    8    0    1
 -2       113       114       269      1229      1600      1601
 -1       377    8    0    1
 -2       113       269       268      1601      1602      1597
 -1       378    8    0    1
 -2       114       115       270      1230      1603      1604
 -1       379    8    0    1
 -2       114       270       269      1604      1605      1600
 -1       380    8    0    1
 -2       115       116       271      1231      1606      1607
 -1       381    8    0    1
 -2       115       271       270      1607      1608      1603
 -1       382    8    0    1
 -2       116       117       272      1232      1609      1610
 -1       383    8    0    1
 -2       116       272       271      1610      1611      1606
 -1       384    8    0    1
 -2       117       118       273      1233      1612      1613
 -1       385    8    0    1
 -2       117       273       272      1613      1614      1609
 -1       386    8    0    1
 -2       118       119       274      1234      1615      1616
 -1       387    8    0    1
 -2       118       274       273      1616      1617      1612
 -1       388    8    0    1
 -2       119       120       275      1235      1618      1619
 -1       389    8    0    1
 -2       119       275       274      1619      1620      1615
 -1       390    8    0    1
 -2       120         3       121      1236      1237      1621
 -1       391    8    0    1
 -2       121       122       276      1238      1622      1623
 -1       392    8    0    1
 -2       122       123       277      1239      1624      1625
 -1       393    8    0    1
 -2       122       277       276      1625      1626      1622
 -1       394    8    0    1
 -2       123       124       278      1240      1627      1628
 -1       395    8    0    1
 -2       123       278       277      1628      1629      1624
 -1       396    8    0    1
 -2       124       125       279      1241      1630      1631
 -1       397    8    0    1
 -2       124       279       278      1631      1632      1627
 -1       398    8    0    1
 -2       125       126       280      1242      1633      1634
 -1       399    8    0    1
 -2       125       280       279      1634      1635      1630
 -1       400    8    0    1
 -2       126       127       281      1243      1636      1637
 -1       401    8    0    1
 -2       126       281       280      1637      1638      1633
 -1       402    8    0    1
 -2       127       128       282      1244      1639      1640
 -1       403    8    0    1
 -2       127       282       281      1640      1641      1636
 -1       404    8    0    1
 -2       128       129       283      1245      1642      1643
 -1       405    8    0    1
 -2       128       283       282      1643      1644      1639
 -1       406    8    0    1
 -2       129       130       284      1246      1645      1646
 -1       407    8    0    1
 -2       129       284       283      1646      1647      1642
 -1       408    8    0    1
 -2       130       131       285      1247      1648      1649
 -1       409    8    0    1
 -2       130       285       284      1649      1650      1645
 -1       410    8    0    1
 -2       131       132       286      1248      1651      1652
 -1       411    8    0    1
 -2       131       286       285      1652      1653      1648
 -1       412    8    0    1
 -2       132       133       287      1249      1654      1655
 -1       413    8    0    1
 -2       132       287       286      1655      1656      1651
 -1       414    8    0    1
 -2       133       134       288      1250      1657      1658
 -1       415    8    0    1
 -2       133       288       287      1658      1659      1654
 -1       416    8    0    1
 -2       134       135       289      1251      1660      1661
 -1       417    8    0    1
 -2       134       289       288      1661      1662      1657
 -1       418    8    0    1
 -2       135       136       290      1252      1663      1664
 -1       419    8    0    1
 -2       289       135       290      1660      1664      1665
 -1       420    8    0    1
 -2       136       227       290      1476      1666      1663
 -1       421    8    0    1
 -2         2       137       291      1254      1667      1668
 -1       422    8    0    1
 -2       137       138       292      1255      1669      1670
 -1       423    8    0    1
 -2       138       139       293      1256      1671      1672
 -1       424    8    0    1
 -2       139       140       294      1257      1673      1674
 -1       425    8    0    1
 -2       140       141       295      1258      1675      1676
 -1       426    8    0    1
 -2       141       142       296      1259      1677      1678
 -1       427    8    0    1
 -2       142       143       297      1260      1679      1680
 -1       428    8    0    1
 -2       143       144       298      1261      1681      1682
 -1       429    8    0    1
 -2       144       145       299      1262      1683      1684
 -1       430    8    0    1
 -2       145       146       300      1263      1685      1686
 -1       431    8    0    1
 -2       146       147       301      1264      1687      1688
 -1       432    8    0    1
 -2       147       148       302      1265      1689      1690
 -1       433    8    0    1
 -2       148       149       303      1266      1691      1692
 -1       434    8    0    1
 -2       149       150       304      1267      1693      1694
 -1       435    8    0    1
 -2       150       151       305      1268      1695      1696
 -1       436    8    0    1
 -2       151       152       306      1269      1697      1698
 -1       437    8    0    1
 -2       152       153       307      1270      1699      1700
 -1       438    8    0    1
 -2       153         1       308      1271      1701      1702
 -1       439    8    0    1
 -2         1       154       309      1272      1703      1704
 -1       440    8    0    1
 -2       154       155       310      1273      1705      1706
 -1       441    8    0    1
 -2       155       156       311      1274      1707      1708
 -1       442    8    0    1
 -2       156       157       312      1275      1709      1710
 -1       443    8    0    1
 -2       157       158       313      1276      1711      1712
 -1       444    8    0    1
 -2       158       159       314      1277      1713      1714
 -1       445    8    0    1
 -2       159       160       315      1278      1715      1716
 -1       446    8    0    1
 -2       160       161       316      1279      1717      1718
 -1       447    8    0    1
 -2       161       162       317      1280      1719      1720
 -1       448    8    0    1
 -2       162       163       318      1281      1721      1722
 -1       449    8    0    1
 -2       163         2       319      1282      1723      1724
 -1       450    8    0    1
 -2       294       140       295      1673      1676      1725
 -1       451    8    0    1
 -2       293       139       294      1671      1674      1726
 -1       452    8    0    1
 -2       120       121       275      1621      1727      1618
 -1       453    8    0    1
 -2       121       276       275      1623      1728      1727
 -1       454    8    0    1
 -2       291       137       292      1667      1670      1729
 -1       455    8    0    1
 -2       292       138       293      1669      1672      1730
 -1       456    8    0    1
 -2         2       291       319      1668      1731      1723
 -1       457    8    0    1
 -2       141       296       295      1678      1732      1675
 -1       458    8    0    1
 -2       142       297       296      1680      1733      1677
 -1       459    8    0    1
 -2       143       298       297      1682      1734      1679
 -1       460    8    0    1
 -2       144       299       298      1684      1735      1681
 -1       461    8    0    1
 -2       145       300       299      1686      1736      1683
 -1       462    8    0    1
 -2       146       301       300      1688      1737      1685
 -1       463    8    0    1
 -2       147       302       301      1690      1738      1687
 -1       464    8    0    1
 -2       148       303       302      1692      1739      1689
 -1       465    8    0    1
 -2       149       304       303      1694      1740      1691
 -1       466    8    0    1
 -2       150       305       304      1696      1741      1693
 -1       467    8    0    1
 -2       151       306       305      1698      1742      1695
 -1       468    8    0    1
 -2       152       307       306      1700      1743      1697
 -1       469    8    0    1
 -2       153       308       307      1702      1744      1699
 -1       470    8    0    1
 -2         1       309       308      1704      1745      1701
 -1       471    8    0    1
 -2       154       310       309      1706      1746      1703
 -1       472    8    0    1
 -2       155       311       310      1708      1747      1705
 -1       473    8    0    1
 -2       156       312       311      1710      1748      1707
 -1       474    8    0    1
 -2       157       313       312      1712      1749      1709
 -1       475    8    0    1
 -2       158       314       313      1714      1750      1711
 -1       476    8    0    1
 -2       159       315       314      1716      1751      1713
 -1       477    8    0    1
 -2       160       316       315      1718      1752      1715
 -1       478    8    0    1
 -2       161       317       316      1720      1753      1717
 -1       479    8    0    1
 -2       162       318       317      1722      1754      1719
 -1       480    8    0    1
 -2       163       319       318      1724      1755      1721
 -1       481    8    0    1
 -2        23         7       164      1283      1285      1756
 -1       482    8    0    1
 -2       165       166       320      1291      1757      1758
 -1       483    8    0    1
 -2       164       165       321      1288      1759      1760
 -1       484    8    0    1
 -2       165       320       321      1758      1761      1759
 -1       485    8    0    1
 -2       167       168       322      1297      1762      1763
 -1       486    8    0    1
 -2       168       169       323      1300      1764      1765
 -1       487    8    0    1
 -2       168       323       322      1765      1766      1762
 -1       488    8    0    1
 -2       169       170       324      1303      1767      1768
 -1       489    8    0    1
 -2       169       324       323      1768      1769      1764
 -1       490    8    0    1
 -2       170       171       325      1306      1770      1771
 -1       491    8    0    1
 -2       170       325       324      1771      1772      1767
 -1       492    8    0    1
 -2       171       172       326      1309      1773      1774
 -1       493    8    0    1
 -2       171       326       325      1774      1775      1770
 -1       494    8    0    1
 -2       172       173       327      1312      1776      1777
 -1       495    8    0    1
 -2       172       327       326      1777      1778      1773
 -1       496    8    0    1
 -2       173       174       328      1315      1779      1780
 -1       497    8    0    1
 -2       173       328       327      1780      1781      1776
 -1       498    8    0    1
 -2       174       175       329      1318      1782      1783
 -1       499    8    0    1
 -2       174       329       328      1783      1784      1779
 -1       500    8    0    1
 -2       175       176       330      1321      1785      1786
 -1       501    8    0    1
 -2       175       330       329      1786      1787      1782
 -1       502    8    0    1
 -2       176       177       331      1324      1788      1789
 -1       503    8    0    1
 -2       176       331       330      1789      1790      1785
 -1       504    8    0    1
 -2       177       178       332      1327      1791      1792
 -1       505    8    0    1
 -2       177       332       331      1792      1793      1788
 -1       506    8    0    1
 -2       178       179       333      1330      1794      1795
 -1       507    8    0    1
 -2       332       178       333      1791      1795      1796
 -1       508    8    0    1
 -2       179       228       333      1479      1797      1794
 -1       509    8    0    1
 -2       180        23       164      1332      1756      1798
 -1       510    8    0    1
 -2       228       229       334      1482      1799      1800
 -1       511    8    0    1
 -2       228       334       333      1800      1801      1797
 -1       512    8    0    1
 -2       180       164       321      1798      1760      1802
 -1       513    8    0    1
 -2       182       181       335      1339      1803      1804
 -1       514    8    0    1
 -2       183       182       336      1342      1805      1806
 -1       515    8    0    1
 -2       182       335       336      1804      1807      1805
 -1       516    8    0    1
 -2       184       183       337      1345      1808      1809
 -1       517    8    0    1
 -2       183       336       337      1806      1810      1808
 -1       518    8    0    1
 -2       185       184       338      1348      1811      1812
 -1       519    8    0    1
 -2       184       337       338      1809      1813      1811
 -1       520    8    0    1
 -2       186       185       339      1351      1814      1815
 -1       521    8    0    1
 -2       185       338       339      1812      1816      1814
 -1       522    8    0    1
 -2       187       186       340      1354      1817      1818
 -1       523    8    0    1
 -2       186       339       340      1815      1819      1817
 -1       524    8    0    1
 -2       188       187       341      1357      1820      1821
 -1       525    8    0    1
 -2       187       340       341      1818      1822      1820
 -1       526    8    0    1
 -2       189       188       342      1360      1823      1824
 -1       527    8    0    1
 -2       188       341       342      1821      1825      1823
 -1       528    8    0    1
 -2       190       189       343      1363      1826      1827
 -1       529    8    0    1
 -2       189       342       343      1824      1828      1826
 -1       530    8    0    1
 -2       191       190       344      1366      1829      1830
 -1       531    8    0    1
 -2       190       343       344      1827      1831      1829
 -1       532    8    0    1
 -2       192       191       345      1369      1832      1833
 -1       533    8    0    1
 -2       191       344       345      1830      1834      1832
 -1       534    8    0    1
 -2       193       192       346      1372      1835      1836
 -1       535    8    0    1
 -2       192       345       346      1833      1837      1835
 -1       536    8    0    1
 -2       194       193       347      1375      1838      1839
 -1       537    8    0    1
 -2       193       346       347      1836      1840      1838
 -1       538    8    0    1
 -2       195       194       348      1378      1841      1842
 -1       539    8    0    1
 -2       194       347       348      1839      1843      1841
 -1       540    8    0    1
 -2       196       195       349      1381      1844      1845
 -1       541    8    0    1
 -2       195       348       349      1842      1846      1844
 -1       542    8    0    1
 -2       197       196       350      1384      1847      1848
 -1       543    8    0    1
 -2       196       349       350      1845      1849      1847
 -1       544    8    0    1
 -2       198       197       351      1387      1850      1851
 -1       545    8    0    1
 -2       197       350       351      1848      1852      1850
 -1       546    8    0    1
 -2       199       198       352      1390      1853      1854
 -1       547    8    0    1
 -2       198       351       352      1851      1855      1853
 -1       548    8    0    1
 -2       200       199       353      1393      1856      1857
 -1       549    8    0    1
 -2       199       352       353      1854      1858      1856
 -1       550    8    0    1
 -2       201       200       354      1396      1859      1860
 -1       551    8    0    1
 -2       200       353       354      1857      1861      1859
 -1       552    8    0    1
 -2       202       201       355      1399      1862      1863
 -1       553    8    0    1
 -2       201       354       355      1860      1864      1862
 -1       554    8    0    1
 -2       203       202       356      1402      1865      1866
 -1       555    8    0    1
 -2       202       355       356      1863      1867      1865
 -1       556    8    0    1
 -2       204       203       357      1405      1868      1869
 -1       557    8    0    1
 -2       203       356       357      1866      1870      1868
 -1       558    8    0    1
 -2       205       204       358      1408      1871      1872
 -1       559    8    0    1
 -2       204       357       358      1869      1873      1871
 -1       560    8    0    1
 -2       206       205       359      1411      1874      1875
 -1       561    8    0    1
 -2       205       358       359      1872      1876      1874
 -1       562    8    0    1
 -2       207       206       360      1414      1877      1878
 -1       563    8    0    1
 -2       206       359       360      1875      1879      1877
 -1       564    8    0    1
 -2       208       207       361      1417      1880      1881
 -1       565    8    0    1
 -2       207       360       361      1878      1882      1880
 -1       566    8    0    1
 -2       209       208       362      1420      1883      1884
 -1       567    8    0    1
 -2       208       361       362      1881      1885      1883
 -1       568    8    0    1
 -2       210       209       363      1423      1886      1887
 -1       569    8    0    1
 -2       209       362       363      1884      1888      1886
 -1       570    8    0    1
 -2       211       210       364      1426      1889      1890
 -1       571    8    0    1
 -2       210       363       364      1887      1891      1889
 -1       572    8    0    1
 -2       212       211       365      1429      1892      1893
 -1       573    8    0    1
 -2       211       364       365      1890      1894      1892
 -1       574    8    0    1
 -2       213       212       366      1432      1895      1896
 -1       575    8    0    1
 -2       212       365       366      1893      1897      1895
 -1       576    8    0    1
 -2       214       213       367      1435      1898      1899
 -1       577    8    0    1
 -2       213       366       367      1896      1900      1898
 -1       578    8    0    1
 -2       215       214       368      1438      1901      1902
 -1       579    8    0    1
 -2       214       367       368      1899      1903      1901
 -1       580    8    0    1
 -2       216       215       369      1441      1904      1905
 -1       581    8    0    1
 -2       215       368       369      1902      1906      1904
 -1       582    8    0    1
 -2       217       216       370      1444      1907      1908
 -1       583    8    0    1
 -2       216       369       370      1905      1909      1907
 -1       584    8    0    1
 -2       218       217       371      1447      1910      1911
 -1       585    8    0    1
 -2       217       370       371      1908      1912      1910
 -1       586    8    0    1
 -2       219       218       372      1450      1913      1914
 -1       587    8    0    1
 -2       218       371       372      1911      1915      1913
 -1       588    8    0    1
 -2       220       219       373      1453      1916      1917
 -1       589    8    0    1
 -2       219       372       373      1914      1918      1916
 -1       590    8    0    1
 -2       221       220       374      1456      1919      1920
 -1       591    8    0    1
 -2       220       373       374      1917      1921      1919
 -1       592    8    0    1
 -2       222       221       375      1459      1922      1923
 -1       593    8    0    1
 -2       221       374       375      1920      1924      1922
 -1       594    8    0    1
 -2       223       222       376      1462      1925      1926
 -1       595    8    0    1
 -2       222       375       376      1923      1927      1925
 -1       596    8    0    1
 -2       224       223       377      1465      1928      1929
 -1       597    8    0    1
 -2       223       376       377      1926      1930      1928
 -1       598    8    0    1
 -2       225       224       378      1468      1931      1932
 -1       599    8    0    1
 -2       224       377       378      1929      1933      1931
 -1       600    8    0    1
 -2       226       225       379      1471      1934      1935
 -1       601    8    0    1
 -2       225       378       379      1932      1936      1934
 -1       602    8    0    1
 -2       227       226       380      1474      1937      1938
 -1       603    8    0    1
 -2       290       227       380      1666      1938      1939
 -1       604    8    0    1
 -2       226       379       380      1935      1940      1937
 -1       605    8    0    1
 -2       229       230       381      1485      1941      1942
 -1       606    8    0    1
 -2       229       381       334      1942      1943      1799
 -1       607    8    0    1
 -2       230       231       382      1488      1944      1945
 -1       608    8    0    1
 -2       230       382       381      1945      1946      1941
 -1       609    8    0    1
 -2       231       232       383      1491      1947      1948
 -1       610    8    0    1
 -2       231       383       382      1948      1949      1944
 -1       611    8    0    1
 -2       232       233       384      1494      1950      1951
 -1       612    8    0    1
 -2       232       384       383      1951      1952      1947
 -1       613    8    0    1
 -2       233       234       385      1497      1953      1954
 -1       614    8    0    1
 -2       233       385       384      1954      1955      1950
 -1       615    8    0    1
 -2       234       235       386      1500      1956      1957
 -1       616    8    0    1
 -2       234       386       385      1957      1958      1953
 -1       617    8    0    1
 -2       235       236       387      1503      1959      1960
 -1       618    8    0    1
 -2       235       387       386      1960      1961      1956
 -1       619    8    0    1
 -2       236       237       388      1506      1962      1963
 -1       620    8    0    1
 -2       236       388       387      1963      1964      1959
 -1       621    8    0    1
 -2       237       238       389      1509      1965      1966
 -1       622    8    0    1
 -2       237       389       388      1966      1967      1962
 -1       623    8    0    1
 -2       238       239       390      1512      1968      1969
 -1       624    8    0    1
 -2       238       390       389      1969      1970      1965
 -1       625    8    0    1
 -2       239       240       391      1515      1971      1972
 -1       626    8    0    1
 -2       239       391       390      1972      1973      1968
 -1       627    8    0    1
 -2       240       241       392      1518      1974      1975
 -1       628    8    0    1
 -2       240       392       391      1975      1976      1971
 -1       629    8    0    1
 -2       241       242       393      1521      1977      1978
 -1       630    8    0    1
 -2       241       393       392      1978      1979      1974
 -1       631    8    0    1
 -2       242       243       394      1524      1980      1981
 -1       632    8    0    1
 -2       242       394       393      1981      1982      1977
 -1       633    8    0    1
 -2       243       244       395      1527      1983      1984
 -1       634    8    0    1
 -2       243       395       394      1984      1985      1980
 -1       635    8    0    1
 -2       244       245       396      1530      1986      1987
 -1       636    8    0    1
 -2       244       396       395      1987      1988      1983
 -1       637    8    0    1
 -2       245       246       397      1533      1989      1990
 -1       638    8    0    1
 -2       245       397       396      1990      1991      1986
 -1       639    8    0    1
 -2       246       247       398      1536      1992      1993
 -1       640    8    0    1
 -2       246       398       397      1993      1994      1989
 -1       641    8    0    1
 -2       247       248       399      1539      1995      1996
 -1       642    8    0    1
 -2       247       399       398      1996      1997      1992
 -1       643    8    0    1
 -2       248       249       400      1542      1998      1999
 -1       644    8    0    1
 -2       248       400       399      1999      2000      1995
 -1       645    8    0    1
 -2       249       250       401      1545      2001      2002
 -1       646    8    0    1
 -2       249       401       400      2002      2003      1998
 -1       647    8    0    1
 -2       250       251       402      1548      2004      2005
 -1       648    8    0    1
 -2       250       402       401      2005      2006      2001
 -1       649    8    0    1
 -2       251       252       403      1551      2007      2008
 -1       650    8    0    1
 -2       251       403       402      2008      2009      2004
 -1       651    8    0    1
 -2       252       253       404      1554      2010      2011
 -1       652    8    0    1
 -2       252       404       403      2011      2012      2007
 -1       653    8    0    1
 -2       253       254       405      1557      2013      2014
 -1       654    8    0    1
 -2       253       405       404      2014      2015      2010
 -1       655    8    0    1
 -2       254       255       406      1560      2016      2017
 -1       656    8    0    1
 -2       254       406       405      2017      2018      2013
 -1       657    8    0    1
 -2       255       256       407      1563      2019      2020
 -1       658    8    0    1
 -2       255       407       406      2020      2021      2016
 -1       659    8    0    1
 -2       256       257       408      1566      2022      2023
 -1       660    8    0    1
 -2       256       408       407      2023      2024      2019
 -1       661    8    0    1
 -2       257       258       409      1569      2025      2026
 -1       662    8    0    1
 -2       257       409       408      2026      2027      2022
 -1       663    8    0    1
 -2       258       259       410      1572      2028      2029
 -1       664    8    0    1
 -2       258       410       409      2029      2030      2025
 -1       665    8    0    1
 -2       259       260       411      1575      2031      2032
 -1       666    8    0    1
 -2       259       411       410      2032      2033      2028
 -1       667    8    0    1
 -2       260       261       412      1578      2034      2035
 -1       668    8    0    1
 -2       260       412       411      2035      2036      2031
 -1       669    8    0    1
 -2       261       262       413      1581      2037      2038
 -1       670    8    0    1
 -2       261       413       412      2038      2039      2034
 -1       671    8    0    1
 -2       262       263       414      1584      2040      2041
 -1       672    8    0    1
 -2       262       414       413      2041      2042      2037
 -1       673    8    0    1
 -2       263       264       415      1587      2043      2044
 -1       674    8    0    1
 -2       263       415       414      2044      2045      2040
 -1       675    8    0    1
 -2       264       265       416      1590      2046      2047
 -1       676    8    0    1
 -2       264       416       415      2047      2048      2043
 -1       677    8    0    1
 -2       265       266       417      1593      2049      2050
 -1       678    8    0    1
 -2       265       417       416      2050      2051      2046
 -1       679    8    0    1
 -2       266       267       418      1596      2052      2053
 -1       680    8    0    1
 -2       266       418       417      2053      2054      2049
 -1       681    8    0    1
 -2       267       268       419      1599      2055      2056
 -1       682    8    0    1
 -2       267       419       418      2056      2057      2052
 -1       683    8    0    1
 -2       268       269       420      1602      2058      2059
 -1       684    8    0    1
 -2       268       420       419      2059      2060      2055
 -1       685    8    0    1
 -2       269       270       421      1605      2061      2062
 -1       686    8    0    1
 -2       269       421       420      2062      2063      2058
 -1       687    8    0    1
 -2       270       271       422      1608      2064      2065
 -1       688    8    0    1
 -2       270       422       421      2065      2066      2061
 -1       689    8    0    1
 -2       271       272       423      1611      2067      2068
 -1       690    8    0    1
 -2       271       423       422      2068      2069      2064
 -1       691    8    0    1
 -2       272       273       424      1614      2070      2071
 -1       692    8    0    1
 -2       272       424       423      2071      2072      2067
 -1       693    8    0    1
 -2       273       274       425      1617      2073      2074
 -1       694    8    0    1
 -2       273       425       424      2074      2075      2070
 -1       695    8    0    1
 -2       274       275       426      1620      2076      2077
 -1       696    8    0    1
 -2       425       274       426      2073      2077      2078
 -1       697    8    0    1
 -2       275       276       426      1728      2079      2076
 -1       698    8    0    1
 -2       278       279       427      1632      2080      2081
 -1       699    8    0    1
 -2       277       278       428      1629      2082      2083
 -1       700    8    0    1
 -2       278       427       428      2081      2084      2082
 -1       701    8    0    1
 -2       276       277       429      1626      2085      2086
 -1       702    8    0    1
 -2       426       276       429      2079      2086      2087
 -1       703    8    0    1
 -2       277       428       429      2083      2088      2085
 -1       704    8    0    1
 -2       279       280       430      1635      2089      2090
 -1       705    8    0    1
 -2       279       430       427      2090      2091      2080
 -1       706    8    0    1
 -2       280       281       431      1638      2092      2093
 -1       707    8    0    1
 -2       280       431       430      2093      2094      2089
 -1       708    8    0    1
 -2       281       282       432      1641      2095      2096
 -1       709    8    0    1
 -2       281       432       431      2096      2097      2092
 -1       710    8    0    1
 -2       282       283       433      1644      2098      2099
 -1       711    8    0    1
 -2       282       433       432      2099      2100      2095
 -1       712    8    0    1
 -2       283       284       434      1647      2101      2102
 -1       713    8    0    1
 -2       283       434       433      2102      2103      2098
 -1       714    8    0    1
 -2       284       285       435      1650      2104      2105
 -1       715    8    0    1
 -2       284       435       434      2105      2106      2101
 -1       716    8    0    1
 -2       285       286       436      1653      2107      2108
 -1       717    8    0    1
 -2       285       436       435      2108      2109      2104
 -1       718    8    0    1
 -2       286       287       437      1656      2110      2111
 -1       719    8    0    1
 -2       286       437       436      2111      2112      2107
 -1       720    8    0    1
 -2       287       288       438      1659      2113      2114
 -1       721    8    0    1
 -2       287       438       437      2114      2115      2110
 -1       722    8    0    1
 -2       288       289       439      1662      2116      2117
 -1       723    8    0    1
 -2       288       439       438      2117      2118      2113
 -1       724    8    0    1
 -2       292       293       440      1730      2119      2120
 -1       725    8    0    1
 -2       319       291       441      1731      2121      2122
 -1       726    8    0    1
 -2       291       292       442      1729      2123      2124
 -1       727    8    0    1
 -2       293       294       443      1726      2125      2126
 -1       728    8    0    1
 -2       294       295       444      1725      2127      2128
 -1       729    8    0    1
 -2       166       167       445      1294      2129      2130
 -1       730    8    0    1
 -2       320       166       445      1757      2130      2131
 -1       731    8    0    1
 -2       167       322       445      1763      2132      2129
 -1       732    8    0    1
 -2       296       297       446      1733      2133      2134
 -1       733    8    0    1
 -2       297       298       447      1734      2135      2136
 -1       734    8    0    1
 -2       298       299       448      1735      2137      2138
 -1       735    8    0    1
 -2       299       300       449      1736      2139      2140
 -1       736    8    0    1
 -2       300       301       450      1737      2141      2142
 -1       737    8    0    1
 -2       301       302       451      1738      2143      2144
 -1       738    8    0    1
 -2       302       303       452      1739      2145      2146
 -1       739    8    0    1
 -2       303       304       453      1740      2147      2148
 -1       740    8    0    1
 -2       304       305       454      1741      2149      2150
 -1       741    8    0    1
 -2       305       306       455      1742      2151      2152
 -1       742    8    0    1
 -2       306       307       456      1743      2153      2154
 -1       743    8    0    1
 -2       307       308       457      1744      2155      2156
 -1       744    8    0    1
 -2       308       309       458      1745      2157      2158
 -1       745    8    0    1
 -2       309       310       459      1746      2159      2160
 -1       746    8    0    1
 -2       310       311       460      1747      2161      2162
 -1       747    8    0    1
 -2       311       312       461      1748      2163      2164
 -1       748    8    0    1
 -2       312       313       462      1749      2165      2166
 -1       749    8    0    1
 -2       313       314       463      1750      2167      2168
 -1       750    8    0    1
 -2       314       315       464      1751      2169      2170
 -1       751    8    0    1
 -2       314       464       463      2170      2171      2167
 -1       752    8    0    1
 -2       315       316       465      1752      2172      2173
 -1       753    8    0    1
 -2       316       317       466      1753      2174      2175
 -1       754    8    0    1
 -2       317       318       467      1754      2176      2177
 -1       755    8    0    1
 -2       318       319       468      1755      2178      2179
 -1       756    8    0    1
 -2       295       296       469      1732      2180      2181
 -1       757    8    0    1
 -2       443       294       444      2125      2128      2182
 -1       758    8    0    1
 -2       180       321       181      1802      2183      1336
 -1       759    8    0    1
 -2       444       295       469      2127      2181      2184
 -1       760    8    0    1
 -2       296       446       470      2134      2185      2186
 -1       761    8    0    1
 -2       296       470       469      2186      2187      2180
 -1       762    8    0    1
 -2       335       181       321      1803      2183      2188
 -1       763    8    0    1
 -2       442       292       440      2123      2120      2189
 -1       764    8    0    1
 -2       441       291       442      2121      2124      2190
 -1       765    8    0    1
 -2       439       289       290      2116      1665      2191
 -1       766    8    0    1
 -2       440       293       443      2119      2126      2192
 -1       767    8    0    1
 -2       319       441       468      2122      2193      2178
 -1       768    8    0    1
 -2       467       318       468      2176      2179      2194
 -1       769    8    0    1
 -2       466       317       467      2174      2177      2195
 -1       770    8    0    1
 -2       464       315       465      2169      2173      2196
 -1       771    8    0    1
 -2       462       313       463      2165      2168      2197
 -1       772    8    0    1
 -2       461       312       462      2163      2166      2198
 -1       773    8    0    1
 -2       460       311       461      2161      2164      2199
 -1       774    8    0    1
 -2       459       310       460      2159      2162      2200
 -1       775    8    0    1
 -2       458       309       459      2157      2160      2201
 -1       776    8    0    1
 -2       457       308       458      2155      2158      2202
 -1       777    8    0    1
 -2       456       307       457      2153      2156      2203
 -1       778    8    0    1
 -2       455       306       456      2151      2154      2204
 -1       779    8    0    1
 -2       454       305       455      2149      2152      2205
 -1       780    8    0    1
 -2       453       304       454      2147      2150      2206
 -1       781    8    0    1
 -2       452       303       453      2145      2148      2207
 -1       782    8    0    1
 -2       451       302       452      2143      2146      2208
 -1       783    8    0    1
 -2       450       301       451      2141      2144      2209
 -1       784    8    0    1
 -2       449       300       450      2139      2142      2210
 -1       785    8    0    1
 -2       448       299       449      2137      2140      2211
 -1       786    8    0    1
 -2       446       297       447      2133      2136      2212
 -1       787    8    0    1
 -2       447       298       448      2135      2138      2213
 -1       788    8    0    1
 -2       465       316       466      2172      2175      2214
 -1       789    8    0    1
 -2       334       381       471      1943      2215      2216
 -1       790    8    0    1
 -2       323       324       472      1769      2217      2218
 -1       791    8    0    1
 -2       322       323       473      1766      2219      2220
 -1       792    8    0    1
 -2       323       472       473      2218      2221      2219
 -1       793    8    0    1
 -2       325       326       474      1775      2222      2223
 -1       794    8    0    1
 -2       326       327       475      1778      2224      2225
 -1       795    8    0    1
 -2       326       475       474      2225      2226      2222
 -1       796    8    0    1
 -2       327       328       476      1781      2227      2228
 -1       797    8    0    1
 -2       327       476       475      2228      2229      2224
 -1       798    8    0    1
 -2       328       329       477      1784      2230      2231
 -1       799    8    0    1
 -2       328       477       476      2231      2232      2227
 -1       800    8    0    1
 -2       329       330       478      1787      2233      2234
 -1       801    8    0    1
 -2       329       478       477      2234      2235      2230
 -1       802    8    0    1
 -2       330       331       479      1790      2236      2237
 -1       803    8    0    1
 -2       330       479       478      2237      2238      2233
 -1       804    8    0    1
 -2       381       382       480      1946      2239      2240
 -1       805    8    0    1
 -2       381       480       471      2240      2241      2215
 -1       806    8    0    1
 -2       336       335       481      1807      2242      2243
 -1       807    8    0    1
 -2       444       469       482      2184      2244      2245
 -1       808    8    0    1
 -2       337       336       483      1810      2246      2247
 -1       809    8    0    1
 -2       336       481       483      2243      2248      2246
 -1       810    8    0    1
 -2       338       337       484      1813      2249      2250
 -1       811    8    0    1
 -2       337       483       484      2247      2251      2249
 -1       812    8    0    1
 -2       339       338       485      1816      2252      2253
 -1       813    8    0    1
 -2       338       484       485      2250      2254      2252
 -1       814    8    0    1
 -2       340       339       486      1819      2255      2256
 -1       815    8    0    1
 -2       339       485       486      2253      2257      2255
 -1       816    8    0    1
 -2       341       340       487      1822      2258      2259
 -1       817    8    0    1
 -2       340       486       487      2256      2260      2258
 -1       818    8    0    1
 -2       342       341       488      1825      2261      2262
 -1       819    8    0    1
 -2       341       487       488      2259      2263      2261
 -1       820    8    0    1
 -2       343       342       489      1828      2264      2265
 -1       821    8    0    1
 -2       342       488       489      2262      2266      2264
 -1       822    8    0    1
 -2       344       343       490      1831      2267      2268
 -1       823    8    0    1
 -2       343       489       490      2265      2269      2267
 -1       824    8    0    1
 -2       345       344       491      1834      2270      2271
 -1       825    8    0    1
 -2       344       490       491      2268      2272      2270
 -1       826    8    0    1
 -2       346       345       492      1837      2273      2274
 -1       827    8    0    1
 -2       345       491       492      2271      2275      2273
 -1       828    8    0    1
 -2       347       346       493      1840      2276      2277
 -1       829    8    0    1
 -2       346       492       493      2274      2278      2276
 -1       830    8    0    1
 -2       348       347       494      1843      2279      2280
 -1       831    8    0    1
 -2       347       493       494      2277      2281      2279
 -1       832    8    0    1
 -2       349       348       495      1846      2282      2283
 -1       833    8    0    1
 -2       348       494       495      2280      2284      2282
 -1       834    8    0    1
 -2       350       349       496      1849      2285      2286
 -1       835    8    0    1
 -2       349       495       496      2283      2287      2285
 -1       836    8    0    1
 -2       351       350       497      1852      2288      2289
 -1       837    8    0    1
 -2       350       496       497      2286      2290      2288
 -1       838    8    0    1
 -2       352       351       498      1855      2291      2292
 -1       839    8    0    1
 -2       351       497       498      2289      2293      2291
 -1       840    8    0    1
 -2       353       352       499      1858      2294      2295
 -1       841    8    0    1
 -2       352       498       499      2292      2296      2294
 -1       842    8    0    1
 -2       354       353       500      1861      2297      2298
 -1       843    8    0    1
 -2       353       499       500      2295      2299      2297
 -1       844    8    0    1
 -2       355       354       501      1864      2300      2301
 -1       845    8    0    1
 -2       354       500       501      2298      2302      2300
 -1       846    8    0    1
 -2       356       355       502      1867      2303      2304
 -1       847    8    0    1
 -2       355       501       502      2301      2305      2303
 -1       848    8    0    1
 -2       357       356       503      1870      2306      2307
 -1       849    8    0    1
 -2       356       502       503      2304      2308      2306
 -1       850    8    0    1
 -2       358       357       504      1873      2309      2310
 -1       851    8    0    1
 -2       357       503       504      2307      2311      2309
 -1       852    8    0    1
 -2       359       358       505      1876      2312      2313
 -1       853    8    0    1
 -2       358       504       505      2310      2314      2312
 -1       854    8    0    1
 -2       360       359       506      1879      2315      2316
 -1       855    8    0    1
 -2       359       505       506      2313      2317      2315
 -1       856    8    0    1
 -2       361       360       507      1882      2318      2319
 -1       857    8    0    1
 -2       360       506       507      2316      2320      2318
 -1       858    8    0    1
 -2       362       361       508      1885      2321      2322
 -1       859    8    0    1
 -2       361       507       508      2319      2323      2321
 -1       860    8    0    1
 -2       363       362       509      1888      2324      2325
 -1       861    8    0    1
 -2       362       508       509      2322      2326      2324
 -1       862    8    0    1
 -2       364       363       510      1891      2327      2328
 -1       863    8    0    1
 -2       363       509       510      2325      2329      2327
 -1       864    8    0    1
 -2       365       364       511      1894      2330      2331
 -1       865    8    0    1
 -2       364       510       511      2328      2332      2330
 -1       866    8    0    1
 -2       366       365       512      1897      2333      2334
 -1       867    8    0    1
 -2       365       511       512      2331      2335      2333
 -1       868    8    0    1
 -2       367       366       513      1900      2336      2337
 -1       869    8    0    1
 -2       366       512       513      2334      2338      2336
 -1       870    8    0    1
 -2       368       367       514      1903      2339      2340
 -1       871    8    0    1
 -2       367       513       514      2337      2341      2339
 -1       872    8    0    1
 -2       369       368       515      1906      2342      2343
 -1       873    8    0    1
 -2       368       514       515      2340      2344      2342
 -1       874    8    0    1
 -2       370       369       516      1909      2345      2346
 -1       875    8    0    1
 -2       369       515       516      2343      2347      2345
 -1       876    8    0    1
 -2       371       370       517      1912      2348      2349
 -1       877    8    0    1
 -2       370       516       517      2346      2350      2348
 -1       878    8    0    1
 -2       372       371       518      1915      2351      2352
 -1       879    8    0    1
 -2       371       517       518      2349      2353      2351
 -1       880    8    0    1
 -2       373       372       519      1918      2354      2355
 -1       881    8    0    1
 -2       372       518       519      2352      2356      2354
 -1       882    8    0    1
 -2       374       373       520      1921      2357      2358
 -1       883    8    0    1
 -2       373       519       520      2355      2359      2357
 -1       884    8    0    1
 -2       375       374       521      1924      2360      2361
 -1       885    8    0    1
 -2       374       520       521      2358      2362      2360
 -1       886    8    0    1
 -2       376       375       522      1927      2363      2364
 -1       887    8    0    1
 -2       375       521       522      2361      2365      2363
 -1       888    8    0    1
 -2       377       376       523      1930      2366      2367
 -1       889    8    0    1
 -2       376       522       523      2364      2368      2366
 -1       890    8    0    1
 -2       378       377       524      1933      2369      2370
 -1       891    8    0    1
 -2       377       523       524      2367      2371      2369
 -1       892    8    0    1
 -2       379       378       525      1936      2372      2373
 -1       893    8    0    1
 -2       378       524       525      2370      2374      2372
 -1       894    8    0    1
 -2       383       384       526      1952      2375      2376
 -1       895    8    0    1
 -2       384       385       527      1955      2377      2378
 -1       896    8    0    1
 -2       384       527       526      2378      2379      2375
 -1       897    8    0    1
 -2       385       386       528      1958      2380      2381
 -1       898    8    0    1
 -2       385       528       527      2381      2382      2377
 -1       899    8    0    1
 -2       386       387       529      1961      2383      2384
 -1       900    8    0    1
 -2       386       529       528      2384      2385      2380
 -1       901    8    0    1
 -2       387       388       530      1964      2386      2387
 -1       902    8    0    1
 -2       387       530       529      2387      2388      2383
 -1       903    8    0    1
 -2       388       389       531      1967      2389      2390
 -1       904    8    0    1
 -2       388       531       530      2390      2391      2386
 -1       905    8    0    1
 -2       389       390       532      1970      2392      2393
 -1       906    8    0    1
 -2       389       532       531      2393      2394      2389
 -1       907    8    0    1
 -2       390       391       533      1973      2395      2396
 -1       908    8    0    1
 -2       390       533       532      2396      2397      2392
 -1       909    8    0    1
 -2       391       392       534      1976      2398      2399
 -1       910    8    0    1
 -2       391       534       533      2399      2400      2395
 -1       911    8    0    1
 -2       392       393       535      1979      2401      2402
 -1       912    8    0    1
 -2       392       535       534      2402      2403      2398
 -1       913    8    0    1
 -2       393       394       536      1982      2404      2405
 -1       914    8    0    1
 -2       393       536       535      2405      2406      2401
 -1       915    8    0    1
 -2       394       395       537      1985      2407      2408
 -1       916    8    0    1
 -2       394       537       536      2408      2409      2404
 -1       917    8    0    1
 -2       395       396       538      1988      2410      2411
 -1       918    8    0    1
 -2       395       538       537      2411      2412      2407
 -1       919    8    0    1
 -2       396       397       539      1991      2413      2414
 -1       920    8    0    1
 -2       396       539       538      2414      2415      2410
 -1       921    8    0    1
 -2       397       398       540      1994      2416      2417
 -1       922    8    0    1
 -2       397       540       539      2417      2418      2413
 -1       923    8    0    1
 -2       398       399       541      1997      2419      2420
 -1       924    8    0    1
 -2       398       541       540      2420      2421      2416
 -1       925    8    0    1
 -2       399       400       542      2000      2422      2423
 -1       926    8    0    1
 -2       399       542       541      2423      2424      2419
 -1       927    8    0    1
 -2       400       401       543      2003      2425      2426
 -1       928    8    0    1
 -2       400       543       542      2426      2427      2422
 -1       929    8    0    1
 -2       401       402       544      2006      2428      2429
 -1       930    8    0    1
 -2       401       544       543      2429      2430      2425
 -1       931    8    0    1
 -2       402       403       545      2009      2431      2432
 -1       932    8    0    1
 -2       402       545       544      2432      2433      2428
 -1       933    8    0    1
 -2       403       404       546      2012      2434      2435
 -1       934    8    0    1
 -2       403       546       545      2435      2436      2431
 -1       935    8    0    1
 -2       404       405       547      2015      2437      2438
 -1       936    8    0    1
 -2       404       547       546      2438      2439      2434
 -1       937    8    0    1
 -2       405       406       548      2018      2440      2441
 -1       938    8    0    1
 -2       405       548       547      2441      2442      2437
 -1       939    8    0    1
 -2       406       407       549      2021      2443      2444
 -1       940    8    0    1
 -2       406       549       548      2444      2445      2440
 -1       941    8    0    1
 -2       407       408       550      2024      2446      2447
 -1       942    8    0    1
 -2       407       550       549      2447      2448      2443
 -1       943    8    0    1
 -2       408       409       551      2027      2449      2450
 -1       944    8    0    1
 -2       408       551       550      2450      2451      2446
 -1       945    8    0    1
 -2       409       410       552      2030      2452      2453
 -1       946    8    0    1
 -2       409       552       551      2453      2454      2449
 -1       947    8    0    1
 -2       410       411       553      2033      2455      2456
 -1       948    8    0    1
 -2       410       553       552      2456      2457      2452
 -1       949    8    0    1
 -2       411       412       554      2036      2458      2459
 -1       950    8    0    1
 -2       411       554       553      2459      2460      2455
 -1       951    8    0    1
 -2       412       413       555      2039      2461      2462
 -1       952    8    0    1
 -2       412       555       554      2462      2463      2458
 -1       953    8    0    1
 -2       413       414       556      2042      2464      2465
 -1       954    8    0    1
 -2       413       556       555      2465      2466      2461
 -1       955    8    0    1
 -2       414       415       557      2045      2467      2468
 -1       956    8    0    1
 -2       414       557       556      2468      2469      2464
 -1       957    8    0    1
 -2       415       416       558      2048      2470      2471
 -1       958    8    0    1
 -2       415       558       557      2471      2472      2467
 -1       959    8    0    1
 -2       416       417       559      2051      2473      2474
 -1       960    8    0    1
 -2       416       559       558      2474      2475      2470
 -1       961    8    0    1
 -2       417       418       560      2054      2476      2477
 -1       962    8    0    1
 -2       417       560       559      2477      2478      2473
 -1       963    8    0    1
 -2       418       419       561      2057      2479      2480
 -1       964    8    0    1
 -2       418       561       560      2480      2481      2476
 -1       965    8    0    1
 -2       419       420       562      2060      2482      2483
 -1       966    8    0    1
 -2       419       562       561      2483      2484      2479
 -1       967    8    0    1
 -2       420       421       563      2063      2485      2486
 -1       968    8    0    1
 -2       420       563       562      2486      2487      2482
 -1       969    8    0    1
 -2       421       422       564      2066      2488      2489
 -1       970    8    0    1
 -2       421       564       563      2489      2490      2485
 -1       971    8    0    1
 -2       422       423       565      2069      2491      2492
 -1       972    8    0    1
 -2       422       565       564      2492      2493      2488
 -1       973    8    0    1
 -2       423       424       566      2072      2494      2495
 -1       974    8    0    1
 -2       423       566       565      2495      2496      2491
 -1       975    8    0    1
 -2       424       425       567      2075      2497      2498
 -1       976    8    0    1
 -2       424       567       566      2498      2499      2494
 -1       977    8    0    1
 -2       425       426       429      2078      2087      2500
 -1       978    8    0    1
 -2       430       431       568      2094      2501      2502
 -1       979    8    0    1
 -2       431       432       569      2097      2503      2504
 -1       980    8    0    1
 -2       431       569       568      2504      2505      2501
 -1       981    8    0    1
 -2       428       427       570      2084      2506      2507
 -1       982    8    0    1
 -2       427       430       571      2091      2508      2509
 -1       983    8    0    1
 -2       570       427       571      2506      2509      2510
 -1       984    8    0    1
 -2       430       568       571      2502      2511      2508
 -1       985    8    0    1
 -2       432       433       572      2100      2512      2513
 -1       986    8    0    1
 -2       432       572       569      2513      2514      2503
 -1       987    8    0    1
 -2       433       434       573      2103      2515      2516
 -1       988    8    0    1
 -2       433       573       572      2516      2517      2512
 -1       989    8    0    1
 -2       434       435       574      2106      2518      2519
 -1       990    8    0    1
 -2       434       574       573      2519      2520      2515
 -1       991    8    0    1
 -2       435       436       575      2109      2521      2522
 -1       992    8    0    1
 -2       435       575       574      2522      2523      2518
 -1       993    8    0    1
 -2       436       437       576      2112      2524      2525
 -1       994    8    0    1
 -2       436       576       575      2525      2526      2521
 -1       995    8    0    1
 -2       437       438       577      2115      2527      2528
 -1       996    8    0    1
 -2       437       577       576      2528      2529      2524
 -1       997    8    0    1
 -2       438       439       578      2118      2530      2531
 -1       998    8    0    1
 -2       438       578       577      2531      2532      2527
 -1       999    8    0    1
 -2       441       442       579      2190      2533      2534
 -1      1000    8    0    1
 -2       440       443       580      2192      2535      2536
 -1      1001    8    0    1
 -2       382       383       581      1949      2537      2538
 -1      1002    8    0    1
 -2       383       526       581      2376      2539      2537
 -1      1003    8    0    1
 -2       439       290       380      2191      1939      2540
 -1      1004    8    0    1
 -2       468       441       582      2193      2541      2542
 -1      1005    8    0    1
 -2       441       579       582      2534      2543      2541
 -1      1006    8    0    1
 -2       442       440       583      2189      2544      2545
 -1      1007    8    0    1
 -2       440       580       583      2536      2546      2544
 -1      1008    8    0    1
 -2       335       321       584      2188      2547      2548
 -1      1009    8    0    1
 -2       481       335       584      2242      2548      2549
 -1      1010    8    0    1
 -2       321       320       584      1761      2550      2547
 -1      1011    8    0    1
 -2       467       468       585      2194      2551      2552
 -1      1012    8    0    1
 -2       462       463       586      2197      2553      2554
 -1      1013    8    0    1
 -2       324       325       587      1772      2555      2556
 -1      1014    8    0    1
 -2       472       324       587      2217      2556      2557
 -1      1015    8    0    1
 -2       325       474       587      2223      2558      2555
 -1      1016    8    0    1
 -2       447       448       588      2213      2559      2560
 -1      1017    8    0    1
 -2       465       466       589      2214      2561      2562
 -1      1018    8    0    1
 -2       446       447       590      2212      2563      2564
 -1      1019    8    0    1
 -2       447       588       590      2560      2565      2563
 -1      1020    8    0    1
 -2       448       449       591      2211      2566      2567
 -1      1021    8    0    1
 -2       449       450       592      2210      2568      2569
 -1      1022    8    0    1
 -2       450       451       593      2209      2570      2571
 -1      1023    8    0    1
 -2       451       452       594      2208      2572      2573
 -1      1024    8    0    1
 -2       452       453       595      2207      2574      2575
 -1      1025    8    0    1
 -2       453       454       596      2206      2576      2577
 -1      1026    8    0    1
 -2       454       455       597      2205      2578      2579
 -1      1027    8    0    1
 -2       455       456       598      2204      2580      2581
 -1      1028    8    0    1
 -2       455       598       597      2581      2582      2578
 -1      1029    8    0    1
 -2       456       457       599      2203      2583      2584
 -1      1030    8    0    1
 -2       457       458       600      2202      2585      2586
 -1      1031    8    0    1
 -2       458       459       601      2201      2587      2588
 -1      1032    8    0    1
 -2       459       460       602      2200      2589      2590
 -1      1033    8    0    1
 -2       460       461       603      2199      2591      2592
 -1      1034    8    0    1
 -2       461       462       604      2198      2593      2594
 -1      1035    8    0    1
 -2       463       464       605      2171      2595      2596
 -1      1036    8    0    1
 -2       464       465       606      2196      2597      2598
 -1      1037    8    0    1
 -2       466       467       607      2195      2599      2600
 -1      1038    8    0    1
 -2       333       334       608      1801      2601      2602
 -1      1039    8    0    1
 -2       332       333       608      1796      2602      2603
 -1      1040    8    0    1
 -2       334       471       608      2216      2604      2601
 -1      1041    8    0    1
 -2       443       444       609      2182      2605      2606
 -1      1042    8    0    1
 -2       448       591       588      2567      2607      2559
 -1      1043    8    0    1
 -2       322       473       610      2220      2608      2609
 -1      1044    8    0    1
 -2       322       610       445      2609      2610      2132
 -1      1045    8    0    1
 -2       480       382       581      2239      2538      2611
 -1      1046    8    0    1
 -2       331       332       608      1793      2603      2612
 -1      1047    8    0    1
 -2       609       444       482      2605      2245      2613
 -1      1048    8    0    1
 -2       470       446       611      2185      2614      2615
 -1      1049    8    0    1
 -2       446       590       611      2564      2616      2614
 -1      1050    8    0    1
 -2       585       468       582      2551      2542      2617
 -1      1051    8    0    1
 -2       425       429       567      2500      2618      2497
 -1      1052    8    0    1
 -2       580       443       609      2535      2606      2619
 -1      1053    8    0    1
 -2       429       428       567      2088      2620      2618
 -1      1054    8    0    1
 -2       607       467       585      2599      2552      2621
 -1      1055    8    0    1
 -2       442       583       612      2545      2622      2623
 -1      1056    8    0    1
 -2       442       612       579      2623      2624      2533
 -1      1057    8    0    1
 -2       606       465       589      2597      2562      2625
 -1      1058    8    0    1
 -2       605       464       606      2595      2598      2626
 -1      1059    8    0    1
 -2       331       608       479      2612      2627      2236
 -1      1060    8    0    1
 -2       604       462       586      2593      2554      2628
 -1      1061    8    0    1
 -2       584       320       445      2550      2131      2629
 -1      1062    8    0    1
 -2       586       463       605      2553      2596      2630
 -1      1063    8    0    1
 -2       603       461       604      2591      2594      2631
 -1      1064    8    0    1
 -2       602       460       603      2589      2592      2632
 -1      1065    8    0    1
 -2       601       459       602      2587      2590      2633
 -1      1066    8    0    1
 -2       600       458       601      2585      2588      2634
 -1      1067    8    0    1
 -2       598       456       613      2580      2635      2636
 -1      1068    8    0    1
 -2       456       599       613      2584      2637      2635
 -1      1069    8    0    1
 -2       596       454       597      2576      2579      2638
 -1      1070    8    0    1
 -2       595       453       614      2574      2639      2640
 -1      1071    8    0    1
 -2       453       596       614      2577      2641      2639
 -1      1072    8    0    1
 -2       594       452       595      2572      2575      2642
 -1      1073    8    0    1
 -2       593       451       594      2570      2573      2643
 -1      1074    8    0    1
 -2       592       450       593      2568      2571      2644
 -1      1075    8    0    1
 -2       482       469       615      2244      2645      2646
 -1      1076    8    0    1
 -2       469       470       615      2187      2647      2645
 -1      1077    8    0    1
 -2       589       466       607      2561      2600      2648
 -1      1078    8    0    1
 -2       591       449       592      2566      2569      2649
 -1      1079    8    0    1
 -2       599       457       600      2583      2586      2650
 -1      1080    8    0    1
 -2       439       380       616      2540      2651      2652
 -1      1081    8    0    1
 -2       578       439       616      2530      2652      2653
 -1      1082    8    0    1
 -2       380       379       616      1940      2654      2651
 -1      1083    8    0    1
 -2       567       428       570      2620      2507      2655
 -1      1084    8    0    1
 -2       616       379       525      2654      2373      2656
 -1      1085    8    0    1
 -2       475       476       617      2229      2657      2658
 -1      1086    8    0    1
 -2       474       475       618      2226      2659      2660
 -1      1087    8    0    1
 -2       475       617       618      2658      2661      2659
 -1      1088    8    0    1
 -2       477       478       619      2235      2662      2663
 -1      1089    8    0    1
 -2       478       479       620      2238      2664      2665
 -1      1090    8    0    1
 -2       478       620       619      2665      2666      2662
 -1      1091    8    0    1
 -2       471       480       621      2241      2667      2668
 -1      1092    8    0    1
 -2       604       586       622      2628      2669      2670
 -1      1093    8    0    1
 -2       607       585       623      2621      2671      2672
 -1      1094    8    0    1
 -2       484       483       624      2251      2673      2674
 -1      1095    8    0    1
 -2       485       484       625      2254      2675      2676
 -1      1096    8    0    1
 -2       484       624       625      2674      2677      2675
 -1      1097    8    0    1
 -2       486       485       626      2257      2678      2679
 -1      1098    8    0    1
 -2       485       625       626      2676      2680      2678
 -1      1099    8    0    1
 -2       487       486       627      2260      2681      2682
 -1      1100    8    0    1
 -2       486       626       627      2679      2683      2681
 -1      1101    8    0    1
 -2       488       487       628      2263      2684      2685
 -1      1102    8    0    1
 -2       487       627       628      2682      2686      2684
 -1      1103    8    0    1
 -2       489       488       629      2266      2687      2688
 -1      1104    8    0    1
 -2       488       628       629      2685      2689      2687
 -1      1105    8    0    1
 -2       490       489       630      2269      2690      2691
 -1      1106    8    0    1
 -2       489       629       630      2688      2692      2690
 -1      1107    8    0    1
 -2       491       490       631      2272      2693      2694
 -1      1108    8    0    1
 -2       490       630       631      2691      2695      2693
 -1      1109    8    0    1
 -2       492       491       632      2275      2696      2697
 -1      1110    8    0    1
 -2       491       631       632      2694      2698      2696
 -1      1111    8    0    1
 -2       493       492       633      2278      2699      2700
 -1      1112    8    0    1
 -2       492       632       633      2697      2701      2699
 -1      1113    8    0    1
 -2       494       493       634      2281      2702      2703
 -1      1114    8    0    1
 -2       493       633       634      2700      2704      2702
 -1      1115    8    0    1
 -2       495       494       635      2284      2705      2706
 -1      1116    8    0    1
 -2       494       634       635      2703      2707      2705
 -1      1117    8    0    1
 -2       496       495       636      2287      2708      2709
 -1      1118    8    0    1
 -2       495       635       636      2706      2710      2708
 -1      1119    8    0    1
 -2       497       496       637      2290      2711      2712
 -1      1120    8    0    1
 -2       496       636       637      2709      2713      2711
 -1      1121    8    0    1
 -2       498       497       638      2293      2714      2715
 -1      1122    8    0    1
 -2       497       637       638      2712      2716      2714
 -1      1123    8    0    1
 -2       499       498       639      2296      2717      2718
 -1      1124    8    0    1
 -2       498       638       639      2715      2719      2717
 -1      1125    8    0    1
 -2       500       499       640      2299      2720      2721
 -1      1126    8    0    1
 -2       499       639       640      2718      2722      2720
 -1      1127    8    0    1
 -2       501       500       641      2302      2723      2724
 -1      1128    8    0    1
 -2       500       640       641      2721      2725      2723
 -1      1129    8    0    1
 -2       502       501       642      2305      2726      2727
 -1      1130    8    0    1
 -2       501       641       642      2724      2728      2726
 -1      1131    8    0    1
 -2       503       502       643      2308      2729      2730
 -1      1132    8    0    1
 -2       502       642       643      2727      2731      2729
 -1      1133    8    0    1
 -2       504       503       644      2311      2732      2733
 -1      1134    8    0    1
 -2       503       643       644      2730      2734      2732
 -1      1135    8    0    1
 -2       505       504       645      2314      2735      2736
 -1      1136    8    0    1
 -2       504       644       645      2733      2737      2735
 -1      1137    8    0    1
 -2       506       505       646      2317      2738      2739
 -1      1138    8    0    1
 -2       505       645       646      2736      2740      2738
 -1      1139    8    0    1
 -2       507       506       647      2320      2741      2742
 -1      1140    8    0    1
 -2       506       646       647      2739      2743      2741
 -1      1141    8    0    1
 -2       508       507       648      2323      2744      2745
 -1      1142    8    0    1
 -2       507       647       648      2742      2746      2744
 -1      1143    8    0    1
 -2       509       508       649      2326      2747      2748
 -1      1144    8    0    1
 -2       508       648       649      2745      2749      2747
 -1      1145    8    0    1
 -2       510       509       650      2329      2750      2751
 -1      1146    8    0    1
 -2       509       649       650      2748      2752      2750
 -1      1147    8    0    1
 -2       511       510       651      2332      2753      2754
 -1      1148    8    0    1
 -2       510       650       651      2751      2755      2753
 -1      1149    8    0    1
 -2       512       511       652      2335      2756      2757
 -1      1150    8    0    1
 -2       511       651       652      2754      2758      2756
 -1      1151    8    0    1
 -2       513       512       653      2338      2759      2760
 -1      1152    8    0    1
 -2       512       652       653      2757      2761      2759
 -1      1153    8    0    1
 -2       514       513       654      2341      2762      2763
 -1      1154    8    0    1
 -2       513       653       654      2760      2764      2762
 -1      1155    8    0    1
 -2       515       514       655      2344      2765      2766
 -1      1156    8    0    1
 -2       514       654       655      2763      2767      2765
 -1      1157    8    0    1
 -2       517       516       622      2350      2768      2769
 -1      1158    8    0    1
 -2       519       518       656      2356      2770      2771
 -1      1159    8    0    1
 -2       520       519       657      2359      2772      2773
 -1      1160    8    0    1
 -2       519       656       657      2771      2774      2772
 -1      1161    8    0    1
 -2       521       520       658      2362      2775      2776
 -1      1162    8    0    1
 -2       520       657       658      2773      2777      2775
 -1      1163    8    0    1
 -2       522       521       659      2365      2778      2779
 -1      1164    8    0    1
 -2       521       658       659      2776      2780      2778
 -1      1165    8    0    1
 -2       523       522       660      2368      2781      2782
 -1      1166    8    0    1
 -2       522       659       660      2779      2783      2781
 -1      1167    8    0    1
 -2       524       523       661      2371      2784      2785
 -1      1168    8    0    1
 -2       523       660       661      2782      2786      2784
 -1      1169    8    0    1
 -2       525       524       662      2374      2787      2788
 -1      1170    8    0    1
 -2       524       661       662      2785      2789      2787
 -1      1171    8    0    1
 -2       527       528       663      2382      2790      2791
 -1      1172    8    0    1
 -2       567       570       664      2655      2792      2793
 -1      1173    8    0    1
 -2       567       664       566      2793      2794      2499
 -1      1174    8    0    1
 -2       608       471       479      2604      2795      2627
 -1      1175    8    0    1
 -2       526       527       665      2379      2796      2797
 -1      1176    8    0    1
 -2       527       663       665      2791      2798      2796
 -1      1177    8    0    1
 -2       529       530       666      2388      2799      2800
 -1      1178    8    0    1
 -2       530       531       667      2391      2801      2802
 -1      1179    8    0    1
 -2       530       667       666      2802      2803      2799
 -1      1180    8    0    1
 -2       531       532       668      2394      2804      2805
 -1      1181    8    0    1
 -2       531       668       667      2805      2806      2801
 -1      1182    8    0    1
 -2       532       533       669      2397      2807      2808
 -1      1183    8    0    1
 -2       532       669       668      2808      2809      2804
 -1      1184    8    0    1
 -2       533       534       670      2400      2810      2811
 -1      1185    8    0    1
 -2       533       670       669      2811      2812      2807
 -1      1186    8    0    1
 -2       534       535       671      2403      2813      2814
 -1      1187    8    0    1
 -2       534       671       670      2814      2815      2810
 -1      1188    8    0    1
 -2       535       536       672      2406      2816      2817
 -1      1189    8    0    1
 -2       535       672       671      2817      2818      2813
 -1      1190    8    0    1
 -2       536       537       673      2409      2819      2820
 -1      1191    8    0    1
 -2       536       673       672      2820      2821      2816
 -1      1192    8    0    1
 -2       537       538       674      2412      2822      2823
 -1      1193    8    0    1
 -2       537       674       673      2823      2824      2819
 -1      1194    8    0    1
 -2       538       539       675      2415      2825      2826
 -1      1195    8    0    1
 -2       538       675       674      2826      2827      2822
 -1      1196    8    0    1
 -2       539       540       676      2418      2828      2829
 -1      1197    8    0    1
 -2       539       676       675      2829      2830      2825
 -1      1198    8    0    1
 -2       540       541       677      2421      2831      2832
 -1      1199    8    0    1
 -2       540       677       676      2832      2833      2828
 -1      1200    8    0    1
 -2       541       542       678      2424      2834      2835
 -1      1201    8    0    1
 -2       541       678       677      2835      2836      2831
 -1      1202    8    0    1
 -2       542       543       679      2427      2837      2838
 -1      1203    8    0    1
 -2       542       679       678      2838      2839      2834
 -1      1204    8    0    1
 -2       543       544       680      2430      2840      2841
 -1      1205    8    0    1
 -2       543       680       679      2841      2842      2837
 -1      1206    8    0    1
 -2       544       545       681      2433      2843      2844
 -1      1207    8    0    1
 -2       544       681       680      2844      2845      2840
 -1      1208    8    0    1
 -2       545       546       682      2436      2846      2847
 -1      1209    8    0    1
 -2       545       682       681      2847      2848      2843
 -1      1210    8    0    1
 -2       546       547       683      2439      2849      2850
 -1      1211    8    0    1
 -2       546       683       682      2850      2851      2846
 -1      1212    8    0    1
 -2       547       548       684      2442      2852      2853
 -1      1213    8    0    1
 -2       547       684       683      2853      2854      2849
 -1      1214    8    0    1
 -2       548       549       685      2445      2855      2856
 -1      1215    8    0    1
 -2       548       685       684      2856      2857      2852
 -1      1216    8    0    1
 -2       549       550       686      2448      2858      2859
 -1      1217    8    0    1
 -2       549       686       685      2859      2860      2855
 -1      1218    8    0    1
 -2       550       551       687      2451      2861      2862
 -1      1219    8    0    1
 -2       550       687       686      2862      2863      2858
 -1      1220    8    0    1
 -2       551       552       688      2454      2864      2865
 -1      1221    8    0    1
 -2       551       688       687      2865      2866      2861
 -1      1222    8    0    1
 -2       552       553       689      2457      2867      2868
 -1      1223    8    0    1
 -2       552       689       688      2868      2869      2864
 -1      1224    8    0    1
 -2       553       554       690      2460      2870      2871
 -1      1225    8    0    1
 -2       553       690       689      2871      2872      2867
 -1      1226    8    0    1
 -2       554       555       691      2463      2873      2874
 -1      1227    8    0    1
 -2       554       691       690      2874      2875      2870
 -1      1228    8    0    1
 -2       555       556       692      2466      2876      2877
 -1      1229    8    0    1
 -2       555       692       691      2877      2878      2873
 -1      1230    8    0    1
 -2       556       557       693      2469      2879      2880
 -1      1231    8    0    1
 -2       556       693       692      2880      2881      2876
 -1      1232    8    0    1
 -2       557       558       694      2472      2882      2883
 -1      1233    8    0    1
 -2       557       694       693      2883      2884      2879
 -1      1234    8    0    1
 -2       558       559       695      2475      2885      2886
 -1      1235    8    0    1
 -2       558       695       694      2886      2887      2882
 -1      1236    8    0    1
 -2       559       560       696      2478      2888      2889
 -1      1237    8    0    1
 -2       559       696       695      2889      2890      2885
 -1      1238    8    0    1
 -2       560       561       697      2481      2891      2892
 -1      1239    8    0    1
 -2       560       697       696      2892      2893      2888
 -1      1240    8    0    1
 -2       561       562       698      2484      2894      2895
 -1      1241    8    0    1
 -2       561       698       697      2895      2896      2891
 -1      1242    8    0    1
 -2       562       563       699      2487      2897      2898
 -1      1243    8    0    1
 -2       562       699       698      2898      2899      2894
 -1      1244    8    0    1
 -2       563       564       700      2490      2900      2901
 -1      1245    8    0    1
 -2       563       700       699      2901      2902      2897
 -1      1246    8    0    1
 -2       564       565       701      2493      2903      2904
 -1      1247    8    0    1
 -2       564       701       700      2904      2905      2900
 -1      1248    8    0    1
 -2       565       566       702      2496      2906      2907
 -1      1249    8    0    1
 -2       701       565       702      2903      2907      2908
 -1      1250    8    0    1
 -2       566       664       702      2794      2909      2906
 -1      1251    8    0    1
 -2       580       609       703      2619      2910      2911
 -1      1252    8    0    1
 -2       572       573       704      2517      2912      2913
 -1      1253    8    0    1
 -2       616       525       705      2656      2914      2915
 -1      1254    8    0    1
 -2       578       616       705      2653      2915      2916
 -1      1255    8    0    1
 -2       525       662       705      2788      2917      2914
 -1      1256    8    0    1
 -2       568       569       706      2505      2918      2919
 -1      1257    8    0    1
 -2       573       574       707      2520      2920      2921
 -1      1258    8    0    1
 -2       573       707       704      2921      2922      2912
 -1      1259    8    0    1
 -2       569       572       708      2514      2923      2924
 -1      1260    8    0    1
 -2       706       569       708      2918      2924      2925
 -1      1261    8    0    1
 -2       572       704       708      2913      2926      2923
 -1      1262    8    0    1
 -2       574       575       709      2523      2927      2928
 -1      1263    8    0    1
 -2       574       709       707      2928      2929      2920
 -1      1264    8    0    1
 -2       575       576       710      2526      2930      2931
 -1      1265    8    0    1
 -2       575       710       709      2931      2932      2927
 -1      1266    8    0    1
 -2       576       577       711      2529      2933      2934
 -1      1267    8    0    1
 -2       576       711       710      2934      2935      2930
 -1      1268    8    0    1
 -2       577       578       712      2532      2936      2937
 -1      1269    8    0    1
 -2       711       577       712      2933      2937      2938
 -1      1270    8    0    1
 -2       578       705       712      2916      2939      2936
 -1      1271    8    0    1
 -2       606       589       713      2625      2940      2941
 -1      1272    8    0    1
 -2       481       584       714      2549      2942      2943
 -1      1273    8    0    1
 -2       582       579       715      2543      2944      2945
 -1      1274    8    0    1
 -2       583       580       716      2546      2946      2947
 -1      1275    8    0    1
 -2       584       445       714      2629      2948      2942
 -1      1276    8    0    1
 -2       596       597       717      2638      2949      2950
 -1      1277    8    0    1
 -2       590       588       718      2565      2951      2952
 -1      1278    8    0    1
 -2       581       526       719      2539      2953      2954
 -1      1279    8    0    1
 -2       526       665       719      2797      2955      2953
 -1      1280    8    0    1
 -2       528       529       720      2385      2956      2957
 -1      1281    8    0    1
 -2       663       528       720      2790      2957      2958
 -1      1282    8    0    1
 -2       529       666       720      2800      2959      2956
 -1      1283    8    0    1
 -2       483       481       721      2248      2960      2961
 -1      1284    8    0    1
 -2       624       483       721      2673      2961      2962
 -1      1285    8    0    1
 -2       481       714       721      2943      2963      2960
 -1      1286    8    0    1
 -2       476       477       722      2232      2964      2965
 -1      1287    8    0    1
 -2       617       476       722      2657      2965      2966
 -1      1288    8    0    1
 -2       477       619       722      2663      2967      2964
 -1      1289    8    0    1
 -2       480       581       723      2611      2968      2969
 -1      1290    8    0    1
 -2       621       480       723      2667      2969      2970
 -1      1291    8    0    1
 -2       581       719       723      2954      2971      2968
 -1      1292    8    0    1
 -2       586       605       724      2630      2972      2973
 -1      1293    8    0    1
 -2       586       724       622      2973      2974      2669
 -1      1294    8    0    1
 -2       473       472       725      2221      2975      2976
 -1      1295    8    0    1
 -2       605       606       726      2626      2977      2978
 -1      1296    8    0    1
 -2       585       582       727      2617      2979      2980
 -1      1297    8    0    1
 -2       599       600       728      2650      2981      2982
 -1      1298    8    0    1
 -2       592       593       729      2644      2983      2984
 -1      1299    8    0    1
 -2       593       594       730      2643      2985      2986
 -1      1300    8    0    1
 -2       594       595       731      2642      2987      2988
 -1      1301    8    0    1
 -2       594       731       730      2988      2989      2985
 -1      1302    8    0    1
 -2       597       598       732      2582      2990      2991
 -1      1303    8    0    1
 -2       600       601       733      2634      2992      2993
 -1      1304    8    0    1
 -2       601       602       734      2633      2994      2995
 -1      1305    8    0    1
 -2       602       603       735      2632      2996      2997
 -1      1306    8    0    1
 -2       603       604       736      2631      2998      2999
 -1      1307    8    0    1
 -2       735       603       736      2996      2999      3000
 -1      1308    8    0    1
 -2       604       622       736      2670      3001      2998
 -1      1309    8    0    1
 -2       591       592       737      2649      3002      3003
 -1      1310    8    0    1
 -2       609       482       738      2613      3004      3005
 -1      1311    8    0    1
 -2       609       738       703      3005      3006      2910
 -1      1312    8    0    1
 -2       589       607       739      2648      3007      3008
 -1      1313    8    0    1
 -2       588       591       740      2607      3009      3010
 -1      1314    8    0    1
 -2       610       473       741      2608      3011      3012
 -1      1315    8    0    1
 -2       473       725       741      2976      3013      3011
 -1      1316    8    0    1
 -2       474       618       742      2660      3014      3015
 -1      1317    8    0    1
 -2       474       742       587      3015      3016      2558
 -1      1318    8    0    1
 -2       591       737       740      3003      3017      3009
 -1      1319    8    0    1
 -2       607       623       739      2672      3018      3007
 -1      1320    8    0    1
 -2       611       590       743      2616      3019      3020
 -1      1321    8    0    1
 -2       590       718       743      2952      3021      3019
 -1      1322    8    0    1
 -2       470       611       744      2615      3022      3023
 -1      1323    8    0    1
 -2       470       744       615      3023      3024      2647
 -1      1324    8    0    1
 -2       517       622       724      2769      2974      3025
 -1      1325    8    0    1
 -2       515       655       735      2766      3026      3027
 -1      1326    8    0    1
 -2       622       516       736      2768      3028      3001
 -1      1327    8    0    1
 -2       516       515       735      2347      3027      3029
 -1      1328    8    0    1
 -2       568       706       745      2919      3030      3031
 -1      1329    8    0    1
 -2       568       745       571      3031      3032      2511
 -1      1330    8    0    1
 -2       518       517       724      2353      3025      3033
 -1      1331    8    0    1
 -2       580       703       746      2911      3034      3035
 -1      1332    8    0    1
 -2       580       746       716      3035      3036      2946
 -1      1333    8    0    1
 -2       589       739       713      3008      3037      2940
 -1      1334    8    0    1
 -2       479       471       621      2795      2668      3038
 -1      1335    8    0    1
 -2       606       713       726      2941      3039      2977
 -1      1336    8    0    1
 -2       570       571       664      2510      3040      2792
 -1      1337    8    0    1
 -2       715       579       612      2944      2624      3041
 -1      1338    8    0    1
 -2       612       583       747      2622      3042      3043
 -1      1339    8    0    1
 -2       583       716       747      2947      3044      3042
 -1      1340    8    0    1
 -2       479       621       620      3038      3045      2664
 -1      1341    8    0    1
 -2       596       717       748      2950      3046      3047
 -1      1342    8    0    1
 -2       596       748       614      3047      3048      2641
 -1      1343    8    0    1
 -2       582       715       727      2945      3049      2979
 -1      1344    8    0    1
 -2       516       735       736      3029      3000      3028
 -1      1345    8    0    1
 -2       737       592       729      3002      2984      3050
 -1      1346    8    0    1
 -2       734       602       735      2994      2997      3051
 -1      1347    8    0    1
 -2       714       445       610      2948      2610      3052
 -1      1348    8    0    1
 -2       731       595       749      2987      3053      3054
 -1      1349    8    0    1
 -2       595       614       749      2640      3055      3053
 -1      1350    8    0    1
 -2       597       732       717      2991      3056      2949
 -1      1351    8    0    1
 -2       718       588       740      2951      3010      3057
 -1      1352    8    0    1
 -2       472       587       750      2557      3058      3059
 -1      1353    8    0    1
 -2       725       472       750      2975      3059      3060
 -1      1354    8    0    1
 -2       587       742       750      3016      3061      3058
 -1      1355    8    0    1
 -2       613       599       751      2637      3062      3063
 -1      1356    8    0    1
 -2       599       728       751      2982      3064      3062
 -1      1357    8    0    1
 -2       656       518       724      2770      3033      3065
 -1      1358    8    0    1
 -2       729       593       730      2983      2986      3066
 -1      1359    8    0    1
 -2       728       600       733      2981      2993      3067
 -1      1360    8    0    1
 -2       585       727       623      2980      3068      2671
 -1      1361    8    0    1
 -2       482       615       752      2646      3069      3070
 -1      1362    8    0    1
 -2       482       752       738      3070      3071      3004
 -1      1363    8    0    1
 -2       732       598       613      2990      2636      3072
 -1      1364    8    0    1
 -2       619       620       753      2666      3073      3074
 -1      1365    8    0    1
 -2       724       605       656      2972      3075      3065
 -1      1366    8    0    1
 -2       737       729       754      3050      3076      3077
 -1      1367    8    0    1
 -2       626       625       755      2680      3078      3079
 -1      1368    8    0    1
 -2       627       626       756      2683      3080      3081
 -1      1369    8    0    1
 -2       626       755       756      3079      3082      3080
 -1      1370    8    0    1
 -2       628       627       757      2686      3083      3084
 -1      1371    8    0    1
 -2       627       756       757      3081      3085      3083
 -1      1372    8    0    1
 -2       629       628       758      2689      3086      3087
 -1      1373    8    0    1
 -2       628       757       758      3084      3088      3086
 -1      1374    8    0    1
 -2       630       629       759      2692      3089      3090
 -1      1375    8    0    1
 -2       629       758       759      3087      3091      3089
 -1      1376    8    0    1
 -2       631       630       760      2695      3092      3093
 -1      1377    8    0    1
 -2       630       759       760      3090      3094      3092
 -1      1378    8    0    1
 -2       632       631       761      2698      3095      3096
 -1      1379    8    0    1
 -2       631       760       761      3093      3097      3095
 -1      1380    8    0    1
 -2       633       632       762      2701      3098      3099
 -1      1381    8    0    1
 -2       632       761       762      3096      3100      3098
 -1      1382    8    0    1
 -2       634       633       763      2704      3101      3102
 -1      1383    8    0    1
 -2       633       762       763      3099      3103      3101
 -1      1384    8    0    1
 -2       635       634       764      2707      3104      3105
 -1      1385    8    0    1
 -2       634       763       764      3102      3106      3104
 -1      1386    8    0    1
 -2       636       635       765      2710      3107      3108
 -1      1387    8    0    1
 -2       635       764       765      3105      3109      3107
 -1      1388    8    0    1
 -2       637       636       766      2713      3110      3111
 -1      1389    8    0    1
 -2       636       765       766      3108      3112      3110
 -1      1390    8    0    1
 -2       638       637       767      2716      3113      3114
 -1      1391    8    0    1
 -2       637       766       767      3111      3115      3113
 -1      1392    8    0    1
 -2       639       638       768      2719      3116      3117
 -1      1393    8    0    1
 -2       638       767       768      3114      3118      3116
 -1      1394    8    0    1
 -2       640       639       769      2722      3119      3120
 -1      1395    8    0    1
 -2       639       768       769      3117      3121      3119
 -1      1396    8    0    1
 -2       641       640       770      2725      3122      3123
 -1      1397    8    0    1
 -2       640       769       770      3120      3124      3122
 -1      1398    8    0    1
 -2       642       641       771      2728      3125      3126
 -1      1399    8    0    1
 -2       641       770       771      3123      3127      3125
 -1      1400    8    0    1
 -2       643       642       772      2731      3128      3129
 -1      1401    8    0    1
 -2       642       771       772      3126      3130      3128
 -1      1402    8    0    1
 -2       644       643       773      2734      3131      3132
 -1      1403    8    0    1
 -2       643       772       773      3129      3133      3131
 -1      1404    8    0    1
 -2       645       644       774      2737      3134      3135
 -1      1405    8    0    1
 -2       644       773       774      3132      3136      3134
 -1      1406    8    0    1
 -2       646       645       775      2740      3137      3138
 -1      1407    8    0    1
 -2       645       774       775      3135      3139      3137
 -1      1408    8    0    1
 -2       647       646       776      2743      3140      3141
 -1      1409    8    0    1
 -2       646       775       776      3138      3142      3140
 -1      1410    8    0    1
 -2       648       647       777      2746      3143      3144
 -1      1411    8    0    1
 -2       647       776       777      3141      3145      3143
 -1      1412    8    0    1
 -2       649       648       778      2749      3146      3147
 -1      1413    8    0    1
 -2       648       777       778      3144      3148      3146
 -1      1414    8    0    1
 -2       650       649       779      2752      3149      3150
 -1      1415    8    0    1
 -2       649       778       779      3147      3151      3149
 -1      1416    8    0    1
 -2       651       650       780      2755      3152      3153
 -1      1417    8    0    1
 -2       650       779       780      3150      3154      3152
 -1      1418    8    0    1
 -2       652       651       781      2758      3155      3156
 -1      1419    8    0    1
 -2       651       780       781      3153      3157      3155
 -1      1420    8    0    1
 -2       653       652       782      2761      3158      3159
 -1      1421    8    0    1
 -2       652       781       782      3156      3160      3158
 -1      1422    8    0    1
 -2       659       658       783      2780      3161      3162
 -1      1423    8    0    1
 -2       660       659       784      2783      3163      3164
 -1      1424    8    0    1
 -2       659       783       784      3162      3165      3163
 -1      1425    8    0    1
 -2       661       660       785      2786      3166      3167
 -1      1426    8    0    1
 -2       660       784       785      3164      3168      3166
 -1      1427    8    0    1
 -2       662       661       786      2789      3169      3170
 -1      1428    8    0    1
 -2       661       785       786      3167      3171      3169
 -1      1429    8    0    1
 -2       668       669       787      2809      3172      3173
 -1      1430    8    0    1
 -2       665       663       788      2798      3174      3175
 -1      1431    8    0    1
 -2       667       668       789      2806      3176      3177
 -1      1432    8    0    1
 -2       668       787       789      3173      3178      3176
 -1      1433    8    0    1
 -2       666       667       790      2803      3179      3180
 -1      1434    8    0    1
 -2       667       789       790      3177      3181      3179
 -1      1435    8    0    1
 -2       669       670       791      2812      3182      3183
 -1      1436    8    0    1
 -2       669       791       787      3183      3184      3172
 -1      1437    8    0    1
 -2       670       671       792      2815      3185      3186
 -1      1438    8    0    1
 -2       670       792       791      3186      3187      3182
 -1      1439    8    0    1
 -2       671       672       793      2818      3188      3189
 -1      1440    8    0    1
 -2       671       793       792      3189      3190      3185
 -1      1441    8    0    1
 -2       672       673       794      2821      3191      3192
 -1      1442    8    0    1
 -2       672       794       793      3192      3193      3188
 -1      1443    8    0    1
 -2       673       674       795      2824      3194      3195
 -1      1444    8    0    1
 -2       673       795       794      3195      3196      3191
 -1      1445    8    0    1
 -2       674       675       796      2827      3197      3198
 -1      1446    8    0    1
 -2       674       796       795      3198      3199      3194
 -1      1447    8    0    1
 -2       675       676       797      2830      3200      3201
 -1      1448    8    0    1
 -2       675       797       796      3201      3202      3197
 -1      1449    8    0    1
 -2       676       677       798      2833      3203      3204
 -1      1450    8    0    1
 -2       676       798       797      3204      3205      3200
 -1      1451    8    0    1
 -2       677       678       799      2836      3206      3207
 -1      1452    8    0    1
 -2       677       799       798      3207      3208      3203
 -1      1453    8    0    1
 -2       678       679       800      2839      3209      3210
 -1      1454    8    0    1
 -2       678       800       799      3210      3211      3206
 -1      1455    8    0    1
 -2       679       680       801      2842      3212      3213
 -1      1456    8    0    1
 -2       679       801       800      3213      3214      3209
 -1      1457    8    0    1
 -2       680       681       802      2845      3215      3216
 -1      1458    8    0    1
 -2       680       802       801      3216      3217      3212
 -1      1459    8    0    1
 -2       681       682       803      2848      3218      3219
 -1      1460    8    0    1
 -2       681       803       802      3219      3220      3215
 -1      1461    8    0    1
 -2       682       683       804      2851      3221      3222
 -1      1462    8    0    1
 -2       682       804       803      3222      3223      3218
 -1      1463    8    0    1
 -2       683       684       805      2854      3224      3225
 -1      1464    8    0    1
 -2       683       805       804      3225      3226      3221
 -1      1465    8    0    1
 -2       684       685       806      2857      3227      3228
 -1      1466    8    0    1
 -2       684       806       805      3228      3229      3224
 -1      1467    8    0    1
 -2       685       686       807      2860      3230      3231
 -1      1468    8    0    1
 -2       685       807       806      3231      3232      3227
 -1      1469    8    0    1
 -2       686       687       808      2863      3233      3234
 -1      1470    8    0    1
 -2       686       808       807      3234      3235      3230
 -1      1471    8    0    1
 -2       687       688       809      2866      3236      3237
 -1      1472    8    0    1
 -2       687       809       808      3237      3238      3233
 -1      1473    8    0    1
 -2       688       689       810      2869      3239      3240
 -1      1474    8    0    1
 -2       688       810       809      3240      3241      3236
 -1      1475    8    0    1
 -2       689       690       811      2872      3242      3243
 -1      1476    8    0    1
 -2       689       811       810      3243      3244      3239
 -1      1477    8    0    1
 -2       690       691       812      2875      3245      3246
 -1      1478    8    0    1
 -2       690       812       811      3246      3247      3242
 -1      1479    8    0    1
 -2       692       693       754      2881      3248      3249
 -1      1480    8    0    1
 -2       693       694       813      2884      3250      3251
 -1      1481    8    0    1
 -2       694       695       718      2887      3252      3253
 -1      1482    8    0    1
 -2       696       697       814      2893      3254      3255
 -1      1483    8    0    1
 -2       697       698       815      2896      3256      3257
 -1      1484    8    0    1
 -2       697       815       814      3257      3258      3254
 -1      1485    8    0    1
 -2       698       699       816      2899      3259      3260
 -1      1486    8    0    1
 -2       698       816       815      3260      3261      3256
 -1      1487    8    0    1
 -2       699       700       817      2902      3262      3263
 -1      1488    8    0    1
 -2       699       817       816      3263      3264      3259
 -1      1489    8    0    1
 -2       700       701       818      2905      3265      3266
 -1      1490    8    0    1
 -2       700       818       817      3266      3267      3262
 -1      1491    8    0    1
 -2       707       709       819      2929      3268      3269
 -1      1492    8    0    1
 -2       709       710       820      2932      3270      3271
 -1      1493    8    0    1
 -2       709       820       819      3271      3272      3268
 -1      1494    8    0    1
 -2       704       707       821      2922      3273      3274
 -1      1495    8    0    1
 -2       707       819       821      3269      3275      3273
 -1      1496    8    0    1
 -2       739       623       822      3018      3276      3277
 -1      1497    8    0    1
 -2       740       737       813      3017      3278      3279
 -1      1498    8    0    1
 -2       733       601       823      2992      3280      3281
 -1      1499    8    0    1
 -2       620       621       824      3045      3282      3283
 -1      1500    8    0    1
 -2       753       620       824      3073      3283      3284
 -1      1501    8    0    1
 -2       621       723       824      2970      3285      3282
 -1      1502    8    0    1
 -2       719       665       825      2955      3286      3287
 -1      1503    8    0    1
 -2       665       788       825      3175      3288      3286
 -1      1504    8    0    1
 -2       713       739       783      3037      3289      3290
 -1      1505    8    0    1
 -2       705       662       712      2917      3291      2939
 -1      1506    8    0    1
 -2       727       715       826      3049      3292      3293
 -1      1507    8    0    1
 -2       715       612       827      3041      3294      3295
 -1      1508    8    0    1
 -2       729       730       828      3066      3296      3297
 -1      1509    8    0    1
 -2       625       624       829      2677      3298      3299
 -1      1510    8    0    1
 -2       625       829       755      3299      3300      3078
 -1      1511    8    0    1
 -2       664       571       745      3040      3032      3301
 -1      1512    8    0    1
 -2       605       726       656      2978      3302      3075
 -1      1513    8    0    1
 -2       728       733       830      3067      3303      3304
 -1      1514    8    0    1
 -2       730       731       831      2989      3305      3306
 -1      1515    8    0    1
 -2       717       732       832      3056      3307      3308
 -1      1516    8    0    1
 -2       623       727       833      3068      3309      3310
 -1      1517    8    0    1
 -2       710       711       834      2935      3311      3312
 -1      1518    8    0    1
 -2       710       834       820      3312      3313      3270
 -1      1519    8    0    1
 -2       601       734       823      2995      3314      3280
 -1      1520    8    0    1
 -2       714       610       741      3052      3012      3315
 -1      1521    8    0    1
 -2       732       613       835      3072      3316      3317
 -1      1522    8    0    1
 -2       618       617       836      2661      3318      3319
 -1      1523    8    0    1
 -2       703       738       837      3006      3320      3321
 -1      1524    8    0    1
 -2       733       823       838      3281      3322      3323
 -1      1525    8    0    1
 -2       733       838       830      3323      3324      3303
 -1      1526    8    0    1
 -2       656       726       657      3302      3325      2774
 -1      1527    8    0    1
 -2       657       726       713      3325      3039      3326
 -1      1528    8    0    1
 -2       657       713       658      3326      3327      2777
 -1      1529    8    0    1
 -2       658       713       783      3327      3290      3161
 -1      1530    8    0    1
 -2       742       618       839      3014      3328      3329
 -1      1531    8    0    1
 -2       618       836       839      3319      3330      3328
 -1      1532    8    0    1
 -2       728       830       751      3304      3331      3064
 -1      1533    8    0    1
 -2       754       729       828      3076      3297      3332
 -1      1534    8    0    1
 -2       744       611       743      3022      3020      3333
 -1      1535    8    0    1
 -2       735       655       734      3026      3334      3051
 -1      1536    8    0    1
 -2       666       790       840      3180      3335      3336
 -1      1537    8    0    1
 -2       666       840       720      3336      3337      2959
 -1      1538    8    0    1
 -2       653       782       838      3159      3338      3339
 -1      1539    8    0    1
 -2       654       653       838      2764      3339      3340
 -1      1540    8    0    1
 -2       655       654       734      2767      3341      3334
 -1      1541    8    0    1
 -2       745       706       841      3030      3342      3343
 -1      1542    8    0    1
 -2       746       703       837      3034      3321      3344
 -1      1543    8    0    1
 -2       624       721       842      2962      3345      3346
 -1      1544    8    0    1
 -2       624       842       829      3346      3347      3298
 -1      1545    8    0    1
 -2       662       786       712      3170      3348      3291
 -1      1546    8    0    1
 -2       721       714       741      2963      3315      3349
 -1      1547    8    0    1
 -2       691       692       843      2878      3350      3351
 -1      1548    8    0    1
 -2       694       718       813      3253      3352      3250
 -1      1549    8    0    1
 -2       695       696       844      2890      3353      3354
 -1      1550    8    0    1
 -2       739       822       783      3277      3355      3289
 -1      1551    8    0    1
 -2       818       701       845      3265      3356      3357
 -1      1552    8    0    1
 -2       701       702       845      2908      3358      3356
 -1      1553    8    0    1
 -2       704       821       846      3274      3359      3360
 -1      1554    8    0    1
 -2       704       846       708      3360      3361      2926
 -1      1555    8    0    1
 -2       706       708       847      2925      3362      3363
 -1      1556    8    0    1
 -2       841       706       847      3342      3363      3364
 -1      1557    8    0    1
 -2       708       846       847      3361      3365      3362
 -1      1558    8    0    1
 -2       822       623       833      3276      3310      3366
 -1      1559    8    0    1
 -2       747       716       848      3044      3367      3368
 -1      1560    8    0    1
 -2       716       746       848      3036      3369      3367
 -1      1561    8    0    1
 -2       741       725       849      3013      3370      3371
 -1      1562    8    0    1
 -2       833       727       826      3309      3293      3372
 -1      1563    8    0    1
 -2       711       712       786      2938      3348      3373
 -1      1564    8    0    1
 -2       748       717       850      3046      3374      3375
 -1      1565    8    0    1
 -2       717       832       850      3308      3376      3374
 -1      1566    8    0    1
 -2       711       786       834      3373      3377      3311
 -1      1567    8    0    1
 -2       614       748       851      3048      3378      3379
 -1      1568    8    0    1
 -2       614       851       749      3379      3380      3055
 -1      1569    8    0    1
 -2       617       722       852      2966      3381      3382
 -1      1570    8    0    1
 -2       617       852       836      3382      3383      3318
 -1      1571    8    0    1
 -2       828       730       831      3296      3306      3384
 -1      1572    8    0    1
 -2       691       843       812      3351      3385      3245
 -1      1573    8    0    1
 -2       823       734       654      3314      3341      3386
 -1      1574    8    0    1
 -2       827       612       747      3294      3043      3387
 -1      1575    8    0    1
 -2       826       715       827      3292      3295      3388
 -1      1576    8    0    1
 -2       615       744       853      3024      3389      3390
 -1      1577    8    0    1
 -2       615       853       752      3390      3391      3069
 -1      1578    8    0    1
 -2       788       663       854      3174      3392      3393
 -1      1579    8    0    1
 -2       663       720       854      2958      3394      3392
 -1      1580    8    0    1
 -2       832       732       835      3307      3317      3395
 -1      1581    8    0    1
 -2       831       731       855      3305      3396      3397
 -1      1582    8    0    1
 -2       731       749       855      3054      3398      3396
 -1      1583    8    0    1
 -2       722       619       856      2967      3399      3400
 -1      1584    8    0    1
 -2       852       722       856      3381      3400      3401
 -1      1585    8    0    1
 -2       619       753       856      3074      3402      3399
 -1      1586    8    0    1
 -2       737       754       813      3077      3403      3278
 -1      1587    8    0    1
 -2       738       752       857      3071      3404      3405
 -1      1588    8    0    1
 -2       738       857       837      3405      3406      3320
 -1      1589    8    0    1
 -2       664       745       858      3301      3407      3408
 -1      1590    8    0    1
 -2       702       664       858      2909      3408      3409
 -1      1591    8    0    1
 -2       745       841       858      3343      3410      3407
 -1      1592    8    0    1
 -2       723       719       859      2971      3411      3412
 -1      1593    8    0    1
 -2       824       723       859      3285      3412      3413
 -1      1594    8    0    1
 -2       719       825       859      3287      3414      3411
 -1      1595    8    0    1
 -2       835       613       751      3316      3063      3415
 -1      1596    8    0    1
 -2       725       750       860      3060      3416      3417
 -1      1597    8    0    1
 -2       725       860       849      3417      3418      3370
 -1      1598    8    0    1
 -2       823       654       838      3386      3340      3322
 -1      1599    8    0    1
 -2       844       696       814      3353      3255      3419
 -1      1600    8    0    1
 -2       835       751       861      3415      3420      3421
 -1      1601    8    0    1
 -2       838       782       830      3338      3422      3324
 -1      1602    8    0    1
 -2       757       756       862      3085      3423      3424
 -1      1603    8    0    1
 -2       758       757       863      3088      3425      3426
 -1      1604    8    0    1
 -2       757       862       863      3424      3427      3425
 -1      1605    8    0    1
 -2       759       758       864      3091      3428      3429
 -1      1606    8    0    1
 -2       758       863       864      3426      3430      3428
 -1      1607    8    0    1
 -2       760       759       865      3094      3431      3432
 -1      1608    8    0    1
 -2       759       864       865      3429      3433      3431
 -1      1609    8    0    1
 -2       761       760       866      3097      3434      3435
 -1      1610    8    0    1
 -2       760       865       866      3432      3436      3434
 -1      1611    8    0    1
 -2       762       761       867      3100      3437      3438
 -1      1612    8    0    1
 -2       761       866       867      3435      3439      3437
 -1      1613    8    0    1
 -2       763       762       868      3103      3440      3441
 -1      1614    8    0    1
 -2       762       867       868      3438      3442      3440
 -1      1615    8    0    1
 -2       764       763       869      3106      3443      3444
 -1      1616    8    0    1
 -2       763       868       869      3441      3445      3443
 -1      1617    8    0    1
 -2       765       764       870      3109      3446      3447
 -1      1618    8    0    1
 -2       764       869       870      3444      3448      3446
 -1      1619    8    0    1
 -2       766       765       871      3112      3449      3450
 -1      1620    8    0    1
 -2       765       870       871      3447      3451      3449
 -1      1621    8    0    1
 -2       767       766       872      3115      3452      3453
 -1      1622    8    0    1
 -2       766       871       872      3450      3454      3452
 -1      1623    8    0    1
 -2       768       767       873      3118      3455      3456
 -1      1624    8    0    1
 -2       767       872       873      3453      3457      3455
 -1      1625    8    0    1
 -2       769       768       874      3121      3458      3459
 -1      1626    8    0    1
 -2       768       873       874      3456      3460      3458
 -1      1627    8    0    1
 -2       770       769       875      3124      3461      3462
 -1      1628    8    0    1
 -2       769       874       875      3459      3463      3461
 -1      1629    8    0    1
 -2       771       770       876      3127      3464      3465
 -1      1630    8    0    1
 -2       770       875       876      3462      3466      3464
 -1      1631    8    0    1
 -2       772       771       877      3130      3467      3468
 -1      1632    8    0    1
 -2       771       876       877      3465      3469      3467
 -1      1633    8    0    1
 -2       773       772       878      3133      3470      3471
 -1      1634    8    0    1
 -2       772       877       878      3468      3472      3470
 -1      1635    8    0    1
 -2       774       773       879      3136      3473      3474
 -1      1636    8    0    1
 -2       773       878       879      3471      3475      3473
 -1      1637    8    0    1
 -2       775       774       880      3139      3476      3477
 -1      1638    8    0    1
 -2       774       879       880      3474      3478      3476
 -1      1639    8    0    1
 -2       776       775       881      3142      3479      3480
 -1      1640    8    0    1
 -2       775       880       881      3477      3481      3479
 -1      1641    8    0    1
 -2       777       776       882      3145      3482      3483
 -1      1642    8    0    1
 -2       776       881       882      3480      3484      3482
 -1      1643    8    0    1
 -2       778       777       883      3148      3485      3486
 -1      1644    8    0    1
 -2       777       882       883      3483      3487      3485
 -1      1645    8    0    1
 -2       779       778       884      3151      3488      3489
 -1      1646    8    0    1
 -2       778       883       884      3486      3490      3488
 -1      1647    8    0    1
 -2       780       779       885      3154      3491      3492
 -1      1648    8    0    1
 -2       779       884       885      3489      3493      3491
 -1      1649    8    0    1
 -2       781       780       886      3157      3494      3495
 -1      1650    8    0    1
 -2       780       885       886      3492      3496      3494
 -1      1651    8    0    1
 -2       782       781       887      3160      3497      3498
 -1      1652    8    0    1
 -2       830       782       887      3422      3498      3499
 -1      1653    8    0    1
 -2       781       886       887      3495      3500      3497
 -1      1654    8    0    1
 -2       746       837       888      3344      3501      3502
 -1      1655    8    0    1
 -2       785       784       889      3168      3503      3504
 -1      1656    8    0    1
 -2       786       785       890      3171      3505      3506
 -1      1657    8    0    1
 -2       834       786       890      3377      3506      3507
 -1      1658    8    0    1
 -2       785       889       890      3504      3508      3505
 -1      1659    8    0    1
 -2       791       792       891      3187      3509      3510
 -1      1660    8    0    1
 -2       843       692       754      3350      3249      3511
 -1      1661    8    0    1
 -2       787       791       892      3184      3512      3513
 -1      1662    8    0    1
 -2       791       891       892      3510      3514      3512
 -1      1663    8    0    1
 -2       790       789       893      3181      3515      3516
 -1      1664    8    0    1
 -2       792       793       894      3190      3517      3518
 -1      1665    8    0    1
 -2       792       894       891      3518      3519      3509
 -1      1666    8    0    1
 -2       793       794       895      3193      3520      3521
 -1      1667    8    0    1
 -2       793       895       894      3521      3522      3517
 -1      1668    8    0    1
 -2       794       795       896      3196      3523      3524
 -1      1669    8    0    1
 -2       794       896       895      3524      3525      3520
 -1      1670    8    0    1
 -2       795       796       897      3199      3526      3527
 -1      1671    8    0    1
 -2       795       897       896      3527      3528      3523
 -1      1672    8    0    1
 -2       796       797       898      3202      3529      3530
 -1      1673    8    0    1
 -2       796       898       897      3530      3531      3526
 -1      1674    8    0    1
 -2       797       798       899      3205      3532      3533
 -1      1675    8    0    1
 -2       797       899       898      3533      3534      3529
 -1      1676    8    0    1
 -2       798       799       900      3208      3535      3536
 -1      1677    8    0    1
 -2       798       900       899      3536      3537      3532
 -1      1678    8    0    1
 -2       799       800       901      3211      3538      3539
 -1      1679    8    0    1
 -2       799       901       900      3539      3540      3535
 -1      1680    8    0    1
 -2       800       801       902      3214      3541      3542
 -1      1681    8    0    1
 -2       800       902       901      3542      3543      3538
 -1      1682    8    0    1
 -2       801       802       903      3217      3544      3545
 -1      1683    8    0    1
 -2       801       903       902      3545      3546      3541
 -1      1684    8    0    1
 -2       802       803       904      3220      3547      3548
 -1      1685    8    0    1
 -2       802       904       903      3548      3549      3544
 -1      1686    8    0    1
 -2       803       804       905      3223      3550      3551
 -1      1687    8    0    1
 -2       803       905       904      3551      3552      3547
 -1      1688    8    0    1
 -2       804       805       906      3226      3553      3554
 -1      1689    8    0    1
 -2       804       906       905      3554      3555      3550
 -1      1690    8    0    1
 -2       805       806       907      3229      3556      3557
 -1      1691    8    0    1
 -2       805       907       906      3557      3558      3553
 -1      1692    8    0    1
 -2       806       807       908      3232      3559      3560
 -1      1693    8    0    1
 -2       806       908       907      3560      3561      3556
 -1      1694    8    0    1
 -2       807       808       909      3235      3562      3563
 -1      1695    8    0    1
 -2       807       909       908      3563      3564      3559
 -1      1696    8    0    1
 -2       808       809       910      3238      3565      3566
 -1      1697    8    0    1
 -2       808       910       909      3566      3567      3562
 -1      1698    8    0    1
 -2       809       810       911      3241      3568      3569
 -1      1699    8    0    1
 -2       809       911       910      3569      3570      3565
 -1      1700    8    0    1
 -2       810       811       912      3244      3571      3572
 -1      1701    8    0    1
 -2       810       912       911      3572      3573      3568
 -1      1702    8    0    1
 -2       811       812       913      3247      3574      3575
 -1      1703    8    0    1
 -2       811       913       912      3575      3576      3571
 -1      1704    8    0    1
 -2       754       693       813      3248      3251      3403
 -1      1705    8    0    1
 -2       783       822       784      3355      3577      3165
 -1      1706    8    0    1
 -2       814       815       853      3258      3578      3579
 -1      1707    8    0    1
 -2       817       818       914      3267      3580      3581
 -1      1708    8    0    1
 -2       822       833       889      3366      3582      3583
 -1      1709    8    0    1
 -2       819       820       915      3272      3584      3585
 -1      1710    8    0    1
 -2       821       819       916      3275      3586      3587
 -1      1711    8    0    1
 -2       819       915       916      3585      3588      3586
 -1      1712    8    0    1
 -2       833       826       917      3372      3589      3590
 -1      1713    8    0    1
 -2       816       817       918      3264      3591      3592
 -1      1714    8    0    1
 -2       817       914       918      3581      3593      3591
 -1      1715    8    0    1
 -2       815       816       857      3261      3594      3595
 -1      1716    8    0    1
 -2       718       695       844      3252      3354      3596
 -1      1717    8    0    1
 -2       718       740       813      3057      3279      3352
 -1      1718    8    0    1
 -2       750       742       919      3061      3597      3598
 -1      1719    8    0    1
 -2       750       919       860      3598      3599      3416
 -1      1720    8    0    1
 -2       721       741       842      3349      3600      3345
 -1      1721    8    0    1
 -2       789       787       920      3178      3601      3602
 -1      1722    8    0    1
 -2       893       789       920      3515      3602      3603
 -1      1723    8    0    1
 -2       787       892       920      3513      3604      3601
 -1      1724    8    0    1
 -2       741       849       842      3371      3605      3600
 -1      1725    8    0    1
 -2       827       747       921      3387      3606      3607
 -1      1726    8    0    1
 -2       755       829       922      3300      3608      3609
 -1      1727    8    0    1
 -2       756       755       923      3082      3610      3611
 -1      1728    8    0    1
 -2       756       923       862      3611      3612      3423
 -1      1729    8    0    1
 -2       826       827       924      3388      3613      3614
 -1      1730    8    0    1
 -2       754       828       843      3332      3615      3511
 -1      1731    8    0    1
 -2       812       843       828      3385      3615      3616
 -1      1732    8    0    1
 -2       825       788       925      3288      3617      3618
 -1      1733    8    0    1
 -2       820       834       926      3313      3619      3620
 -1      1734    8    0    1
 -2       915       820       926      3584      3620      3621
 -1      1735    8    0    1
 -2       834       890       926      3507      3622      3619
 -1      1736    8    0    1
 -2       784       822       889      3577      3583      3503
 -1      1737    8    0    1
 -2       828       831       913      3384      3623      3624
 -1      1738    8    0    1
 -2       751       830       887      3331      3499      3625
 -1      1739    8    0    1
 -2       832       835       927      3395      3626      3627
 -1      1740    8    0    1
 -2       812       828       913      3616      3624      3574
 -1      1741    8    0    1
 -2       888       837       918      3501      3628      3629
 -1      1742    8    0    1
 -2       840       790       928      3335      3630      3631
 -1      1743    8    0    1
 -2       790       893       928      3516      3632      3630
 -1      1744    8    0    1
 -2       826       924       917      3614      3633      3589
 -1      1745    8    0    1
 -2       832       927       929      3627      3634      3635
 -1      1746    8    0    1
 -2       832       929       850      3635      3636      3376
 -1      1747    8    0    1
 -2       742       839       919      3329      3637      3597
 -1      1748    8    0    1
 -2       839       836       930      3330      3638      3639
 -1      1749    8    0    1
 -2       842       849       931      3605      3640      3641
 -1      1750    8    0    1
 -2       842       931       829      3641      3642      3347
 -1      1751    8    0    1
 -2       914       818       932      3580      3643      3644
 -1      1752    8    0    1
 -2       818       845       932      3357      3645      3643
 -1      1753    8    0    1
 -2       861       751       887      3420      3625      3646
 -1      1754    8    0    1
 -2       835       861       927      3421      3647      3626
 -1      1755    8    0    1
 -2       845       702       858      3358      3409      3648
 -1      1756    8    0    1
 -2       846       821       933      3359      3649      3650
 -1      1757    8    0    1
 -2       821       916       933      3587      3651      3649
 -1      1758    8    0    1
 -2       859       825       934      3414      3652      3653
 -1      1759    8    0    1
 -2       825       925       934      3618      3654      3652
 -1      1760    8    0    1
 -2       844       814       744      3419      3655      3656
 -1      1761    8    0    1
 -2       848       746       935      3369      3657      3658
 -1      1762    8    0    1
 -2       746       888       935      3502      3659      3657
 -1      1763    8    0    1
 -2       841       847       936      3364      3660      3661
 -1      1764    8    0    1
 -2       749       851       855      3380      3662      3398
 -1      1765    8    0    1
 -2       851       748       937      3378      3663      3664
 -1      1766    8    0    1
 -2       748       850       937      3375      3665      3663
 -1      1767    8    0    1
 -2       753       824       938      3284      3666      3667
 -1      1768    8    0    1
 -2       856       753       938      3402      3667      3668
 -1      1769    8    0    1
 -2       824       859       938      3413      3669      3666
 -1      1770    8    0    1
 -2       836       852       939      3383      3670      3671
 -1      1771    8    0    1
 -2       836       939       930      3671      3672      3638
 -1      1772    8    0    1
 -2       923       755       922      3610      3609      3673
 -1      1773    8    0    1
 -2       853       744       814      3389      3655      3579
 -1      1774    8    0    1
 -2       854       720       840      3394      3337      3674
 -1      1775    8    0    1
 -2       921       747       848      3606      3368      3675
 -1      1776    8    0    1
 -2       924       827       921      3613      3607      3676
 -1      1777    8    0    1
 -2       931       849       940      3640      3677      3678
 -1      1778    8    0    1
 -2       849       860       940      3418      3679      3677
 -1      1779    8    0    1
 -2       829       931       922      3642      3680      3608
 -1      1780    8    0    1
 -2       788       854       941      3393      3681      3682
 -1      1781    8    0    1
 -2       788       941       925      3682      3683      3617
 -1      1782    8    0    1
 -2       841       936       932      3661      3684      3685
 -1      1783    8    0    1
 -2       743       718       844      3021      3596      3686
 -1      1784    8    0    1
 -2       863       862       942      3427      3687      3688
 -1      1785    8    0    1
 -2       864       863       943      3430      3689      3690
 -1      1786    8    0    1
 -2       863       942       943      3688      3691      3689
 -1      1787    8    0    1
 -2       865       864       944      3433      3692      3693
 -1      1788    8    0    1
 -2       864       943       944      3690      3694      3692
 -1      1789    8    0    1
 -2       866       865       945      3436      3695      3696
 -1      1790    8    0    1
 -2       865       944       945      3693      3697      3695
 -1      1791    8    0    1
 -2       867       866       946      3439      3698      3699
 -1      1792    8    0    1
 -2       866       945       946      3696      3700      3698
 -1      1793    8    0    1
 -2       868       867       947      3442      3701      3702
 -1      1794    8    0    1
 -2       867       946       947      3699      3703      3701
 -1      1795    8    0    1
 -2       869       868       948      3445      3704      3705
 -1      1796    8    0    1
 -2       868       947       948      3702      3706      3704
 -1      1797    8    0    1
 -2       870       869       949      3448      3707      3708
 -1      1798    8    0    1
 -2       869       948       949      3705      3709      3707
 -1      1799    8    0    1
 -2       871       870       950      3451      3710      3711
 -1      1800    8    0    1
 -2       870       949       950      3708      3712      3710
 -1      1801    8    0    1
 -2       872       871       951      3454      3713      3714
 -1      1802    8    0    1
 -2       871       950       951      3711      3715      3713
 -1      1803    8    0    1
 -2       873       872       952      3457      3716      3717
 -1      1804    8    0    1
 -2       872       951       952      3714      3718      3716
 -1      1805    8    0    1
 -2       874       873       953      3460      3719      3720
 -1      1806    8    0    1
 -2       873       952       953      3717      3721      3719
 -1      1807    8    0    1
 -2       875       874       954      3463      3722      3723
 -1      1808    8    0    1
 -2       874       953       954      3720      3724      3722
 -1      1809    8    0    1
 -2       876       875       955      3466      3725      3726
 -1      1810    8    0    1
 -2       875       954       955      3723      3727      3725
 -1      1811    8    0    1
 -2       877       876       956      3469      3728      3729
 -1      1812    8    0    1
 -2       876       955       956      3726      3730      3728
 -1      1813    8    0    1
 -2       878       877       957      3472      3731      3732
 -1      1814    8    0    1
 -2       877       956       957      3729      3733      3731
 -1      1815    8    0    1
 -2       879       878       958      3475      3734      3735
 -1      1816    8    0    1
 -2       878       957       958      3732      3736      3734
 -1      1817    8    0    1
 -2       880       879       959      3478      3737      3738
 -1      1818    8    0    1
 -2       879       958       959      3735      3739      3737
 -1      1819    8    0    1
 -2       881       880       960      3481      3740      3741
 -1      1820    8    0    1
 -2       880       959       960      3738      3742      3740
 -1      1821    8    0    1
 -2       882       881       961      3484      3743      3744
 -1      1822    8    0    1
 -2       881       960       961      3741      3745      3743
 -1      1823    8    0    1
 -2       883       882       962      3487      3746      3747
 -1      1824    8    0    1
 -2       882       961       962      3744      3748      3746
 -1      1825    8    0    1
 -2       884       883       963      3490      3749      3750
 -1      1826    8    0    1
 -2       883       962       963      3747      3751      3749
 -1      1827    8    0    1
 -2       885       884       964      3493      3752      3753
 -1      1828    8    0    1
 -2       884       963       964      3750      3754      3752
 -1      1829    8    0    1
 -2       886       885       965      3496      3755      3756
 -1      1830    8    0    1
 -2       885       964       965      3753      3757      3755
 -1      1831    8    0    1
 -2       887       886       966      3500      3758      3759
 -1      1832    8    0    1
 -2       861       887       966      3646      3759      3760
 -1      1833    8    0    1
 -2       886       965       966      3756      3761      3758
 -1      1834    8    0    1
 -2       918       837       857      3628      3406      3762
 -1      1835    8    0    1
 -2       923       922       967      3673      3763      3764
 -1      1836    8    0    1
 -2       917       924       915      3633      3765      3766
 -1      1837    8    0    1
 -2       895       896       968      3525      3767      3768
 -1      1838    8    0    1
 -2       892       891       969      3514      3769      3770
 -1      1839    8    0    1
 -2       891       894       970      3519      3771      3772
 -1      1840    8    0    1
 -2       891       970       969      3772      3773      3769
 -1      1841    8    0    1
 -2       896       897       971      3528      3774      3775
 -1      1842    8    0    1
 -2       896       971       968      3775      3776      3767
 -1      1843    8    0    1
 -2       897       898       972      3531      3777      3778
 -1      1844    8    0    1
 -2       897       972       971      3778      3779      3774
 -1      1845    8    0    1
 -2       898       899       973      3534      3780      3781
 -1      1846    8    0    1
 -2       898       973       972      3781      3782      3777
 -1      1847    8    0    1
 -2       899       900       974      3537      3783      3784
 -1      1848    8    0    1
 -2       899       974       973      3784      3785      3780
 -1      1849    8    0    1
 -2       900       901       975      3540      3786      3787
 -1      1850    8    0    1
 -2       900       975       974      3787      3788      3783
 -1      1851    8    0    1
 -2       901       902       976      3543      3789      3790
 -1      1852    8    0    1
 -2       901       976       975      3790      3791      3786
 -1      1853    8    0    1
 -2       902       903       977      3546      3792      3793
 -1      1854    8    0    1
 -2       902       977       976      3793      3794      3789
 -1      1855    8    0    1
 -2       903       904       978      3549      3795      3796
 -1      1856    8    0    1
 -2       903       978       977      3796      3797      3792
 -1      1857    8    0    1
 -2       904       905       979      3552      3798      3799
 -1      1858    8    0    1
 -2       904       979       978      3799      3800      3795
 -1      1859    8    0    1
 -2       905       906       980      3555      3801      3802
 -1      1860    8    0    1
 -2       905       980       979      3802      3803      3798
 -1      1861    8    0    1
 -2       906       907       981      3558      3804      3805
 -1      1862    8    0    1
 -2       906       981       980      3805      3806      3801
 -1      1863    8    0    1
 -2       907       908       982      3561      3807      3808
 -1      1864    8    0    1
 -2       907       982       981      3808      3809      3804
 -1      1865    8    0    1
 -2       908       909       983      3564      3810      3811
 -1      1866    8    0    1
 -2       908       983       982      3811      3812      3807
 -1      1867    8    0    1
 -2       909       910       984      3567      3813      3814
 -1      1868    8    0    1
 -2       909       984       983      3814      3815      3810
 -1      1869    8    0    1
 -2       910       911       985      3570      3816      3817
 -1      1870    8    0    1
 -2       910       985       984      3817      3818      3813
 -1      1871    8    0    1
 -2       911       912       986      3573      3819      3820
 -1      1872    8    0    1
 -2       911       986       985      3820      3821      3816
 -1      1873    8    0    1
 -2       888       918       987      3629      3822      3823
 -1      1874    8    0    1
 -2       935       888       987      3659      3823      3824
 -1      1875    8    0    1
 -2       918       914       987      3593      3825      3822
 -1      1876    8    0    1
 -2       916       915       924      3588      3765      3826
 -1      1877    8    0    1
 -2       890       889       926      3508      3827      3622
 -1      1878    8    0    1
 -2       889       833       926      3582      3828      3827
 -1      1879    8    0    1
 -2       860       919       988      3599      3829      3830
 -1      1880    8    0    1
 -2       860       988       940      3830      3831      3679
 -1      1881    8    0    1
 -2       853       815       857      3578      3595      3832
 -1      1882    8    0    1
 -2       913       831       989      3623      3833      3834
 -1      1883    8    0    1
 -2       847       846       990      3365      3835      3836
 -1      1884    8    0    1
 -2       847       990       936      3836      3837      3660
 -1      1885    8    0    1
 -2       833       917       926      3590      3838      3828
 -1      1886    8    0    1
 -2       926       917       915      3838      3766      3621
 -1      1887    8    0    1
 -2       916       924       933      3826      3839      3651
 -1      1888    8    0    1
 -2       816       918       857      3592      3762      3594
 -1      1889    8    0    1
 -2       919       839       991      3637      3840      3841
 -1      1890    8    0    1
 -2       988       919       991      3829      3841      3842
 -1      1891    8    0    1
 -2       839       930       991      3639      3843      3840
 -1      1892    8    0    1
 -2       744       743       844      3333      3686      3656
 -1      1893    8    0    1
 -2       862       923       992      3612      3844      3845
 -1      1894    8    0    1
 -2       862       992       942      3845      3846      3687
 -1      1895    8    0    1
 -2       854       840       993      3674      3847      3848
 -1      1896    8    0    1
 -2       854       993       941      3848      3849      3681
 -1      1897    8    0    1
 -2       852       856       994      3401      3850      3851
 -1      1898    8    0    1
 -2       852       994       939      3851      3852      3670
 -1      1899    8    0    1
 -2       857       752       853      3404      3391      3832
 -1      1900    8    0    1
 -2       858       841       932      3410      3685      3853
 -1      1901    8    0    1
 -2       921       848       935      3675      3658      3854
 -1      1902    8    0    1
 -2       894       895       995      3522      3855      3856
 -1      1903    8    0    1
 -2       970       894       995      3771      3856      3857
 -1      1904    8    0    1
 -2       895       968       995      3768      3858      3855
 -1      1905    8    0    1
 -2       924       921       933      3676      3859      3839
 -1      1906    8    0    1
 -2       927       861       966      3647      3760      3860
 -1      1907    8    0    1
 -2       922       931       996      3680      3861      3862
 -1      1908    8    0    1
 -2       967       922       996      3763      3862      3863
 -1      1909    8    0    1
 -2       931       940       996      3678      3864      3861
 -1      1910    8    0    1
 -2       914       932       997      3644      3865      3866
 -1      1911    8    0    1
 -2       987       914       997      3825      3866      3867
 -1      1912    8    0    1
 -2       932       936       997      3684      3868      3865
 -1      1913    8    0    1
 -2       913       989       912      3834      3869      3576
 -1      1914    8    0    1
 -2       912       989       986      3869      3870      3819
 -1      1915    8    0    1
 -2       840       928       993      3631      3871      3847
 -1      1916    8    0    1
 -2       929       927       998      3634      3872      3873
 -1      1917    8    0    1
 -2       991       930       999      3843      3874      3875
 -1      1918    8    0    1
 -2       933       921       990      3859      3876      3877
 -1      1919    8    0    1
 -2       893       920      1000      3603      3878      3879
 -1      1920    8    0    1
 -2       928       893      1001      3632      3880      3881
 -1      1921    8    0    1
 -2       893      1000      1001      3879      3882      3880
 -1      1922    8    0    1
 -2       925       941      1002      3683      3883      3884
 -1      1923    8    0    1
 -2       932       845       858      3645      3648      3853
 -1      1924    8    0    1
 -2       990       846       933      3835      3650      3877
 -1      1925    8    0    1
 -2       989       831       855      3833      3397      3885
 -1      1926    8    0    1
 -2       990       921       935      3876      3854      3886
 -1      1927    8    0    1
 -2       936       990       935      3837      3886      3887
 -1      1928    8    0    1
 -2       934       925      1003      3654      3888      3889
 -1      1929    8    0    1
 -2       925      1002      1003      3884      3890      3888
 -1      1930    8    0    1
 -2       859       934       938      3653      3891      3669
 -1      1931    8    0    1
 -2       850       929      1004      3636      3892      3893
 -1      1932    8    0    1
 -2       850      1004       937      3893      3894      3665
 -1      1933    8    0    1
 -2       855       851      1005      3662      3895      3896
 -1      1934    8    0    1
 -2       855      1005       989      3896      3897      3885
 -1      1935    8    0    1
 -2       856       938       994      3668      3898      3850
 -1      1936    8    0    1
 -2       920       892      1006      3604      3899      3900
 -1      1937    8    0    1
 -2      1000       920      1006      3878      3900      3901
 -1      1938    8    0    1
 -2       892       969      1006      3770      3902      3899
 -1      1939    8    0    1
 -2       851       937      1007      3664      3903      3904
 -1      1940    8    0    1
 -2       851      1007      1005      3904      3905      3895
 -1      1941    8    0    1
 -2       999       930      1008      3874      3906      3907
 -1      1942    8    0    1
 -2       930       939      1008      3672      3908      3906
 -1      1943    8    0    1
 -2       927       966       998      3860      3909      3872
 -1      1944    8    0    1
 -2       923       967       992      3764      3910      3844
 -1      1945    8    0    1
 -2       989      1005       986      3897      3911      3870
 -1      1946    8    0    1
 -2       941       993      1009      3849      3912      3913
 -1      1947    8    0    1
 -2       941      1009      1002      3913      3914      3883
 -1      1948    8    0    1
 -2       992       967      1010      3910      3915      3916
 -1      1949    8    0    1
 -2       991       999      1011      3875      3917      3918
 -1      1950    8    0    1
 -2       991      1011       988      3918      3919      3842
 -1      1951    8    0    1
 -2       994       938       934      3898      3891      3920
 -1      1952    8    0    1
 -2       943       942      1012      3691      3921      3922
 -1      1953    8    0    1
 -2       944       943      1013      3694      3923      3924
 -1      1954    8    0    1
 -2       943      1012      1013      3922      3925      3923
 -1      1955    8    0    1
 -2       945       944      1014      3697      3926      3927
 -1      1956    8    0    1
 -2       944      1013      1014      3924      3928      3926
 -1      1957    8    0    1
 -2       946       945      1015      3700      3929      3930
 -1      1958    8    0    1
 -2       945      1014      1015      3927      3931      3929
 -1      1959    8    0    1
 -2       947       946      1016      3703      3932      3933
 -1      1960    8    0    1
 -2       946      1015      1016      3930      3934      3932
 -1      1961    8    0    1
 -2       948       947      1017      3706      3935      3936
 -1      1962    8    0    1
 -2       947      1016      1017      3933      3937      3935
 -1      1963    8    0    1
 -2       949       948      1018      3709      3938      3939
 -1      1964    8    0    1
 -2       948      1017      1018      3936      3940      3938
 -1      1965    8    0    1
 -2       950       949      1019      3712      3941      3942
 -1      1966    8    0    1
 -2       949      1018      1019      3939      3943      3941
 -1      1967    8    0    1
 -2       951       950      1020      3715      3944      3945
 -1      1968    8    0    1
 -2       950      1019      1020      3942      3946      3944
 -1      1969    8    0    1
 -2       952       951      1021      3718      3947      3948
 -1      1970    8    0    1
 -2       951      1020      1021      3945      3949      3947
 -1      1971    8    0    1
 -2       953       952      1022      3721      3950      3951
 -1      1972    8    0    1
 -2       952      1021      1022      3948      3952      3950
 -1      1973    8    0    1
 -2       954       953      1023      3724      3953      3954
 -1      1974    8    0    1
 -2       953      1022      1023      3951      3955      3953
 -1      1975    8    0    1
 -2       955       954      1024      3727      3956      3957
 -1      1976    8    0    1
 -2       954      1023      1024      3954      3958      3956
 -1      1977    8    0    1
 -2       956       955      1025      3730      3959      3960
 -1      1978    8    0    1
 -2       955      1024      1025      3957      3961      3959
 -1      1979    8    0    1
 -2       957       956      1026      3733      3962      3963
 -1      1980    8    0    1
 -2       956      1025      1026      3960      3964      3962
 -1      1981    8    0    1
 -2       958       957      1027      3736      3965      3966
 -1      1982    8    0    1
 -2       957      1026      1027      3963      3967      3965
 -1      1983    8    0    1
 -2       959       958      1028      3739      3968      3969
 -1      1984    8    0    1
 -2       958      1027      1028      3966      3970      3968
 -1      1985    8    0    1
 -2       960       959      1029      3742      3971      3972
 -1      1986    8    0    1
 -2       959      1028      1029      3969      3973      3971
 -1      1987    8    0    1
 -2       961       960      1030      3745      3974      3975
 -1      1988    8    0    1
 -2       960      1029      1030      3972      3976      3974
 -1      1989    8    0    1
 -2       962       961      1031      3748      3977      3978
 -1      1990    8    0    1
 -2       961      1030      1031      3975      3979      3977
 -1      1991    8    0    1
 -2       963       962      1032      3751      3980      3981
 -1      1992    8    0    1
 -2       962      1031      1032      3978      3982      3980
 -1      1993    8    0    1
 -2       964       963      1033      3754      3983      3984
 -1      1994    8    0    1
 -2       963      1032      1033      3981      3985      3983
 -1      1995    8    0    1
 -2       966       965       998      3761      3986      3909
 -1      1996    8    0    1
 -2       971       972      1034      3779      3987      3988
 -1      1997    8    0    1
 -2       969       970      1035      3773      3989      3990
 -1      1998    8    0    1
 -2       972       973      1036      3782      3991      3992
 -1      1999    8    0    1
 -2       972      1036      1034      3992      3993      3987
 -1      2000    8    0    1
 -2       973       974      1037      3785      3994      3995
 -1      2001    8    0    1
 -2       973      1037      1036      3995      3996      3991
 -1      2002    8    0    1
 -2       974       975      1038      3788      3997      3998
 -1      2003    8    0    1
 -2       974      1038      1037      3998      3999      3994
 -1      2004    8    0    1
 -2       975       976      1039      3791      4000      4001
 -1      2005    8    0    1
 -2       975      1039      1038      4001      4002      3997
 -1      2006    8    0    1
 -2       976       977      1040      3794      4003      4004
 -1      2007    8    0    1
 -2       976      1040      1039      4004      4005      4000
 -1      2008    8    0    1
 -2       977       978      1041      3797      4006      4007
 -1      2009    8    0    1
 -2       977      1041      1040      4007      4008      4003
 -1      2010    8    0    1
 -2       978       979      1042      3800      4009      4010
 -1      2011    8    0    1
 -2       978      1042      1041      4010      4011      4006
 -1      2012    8    0    1
 -2       979       980      1043      3803      4012      4013
 -1      2013    8    0    1
 -2       979      1043      1042      4013      4014      4009
 -1      2014    8    0    1
 -2       980       981      1044      3806      4015      4016
 -1      2015    8    0    1
 -2       980      1044      1043      4016      4017      4012
 -1      2016    8    0    1
 -2       981       982      1045      3809      4018      4019
 -1      2017    8    0    1
 -2       981      1045      1044      4019      4020      4015
 -1      2018    8    0    1
 -2       982       983      1046      3812      4021      4022
 -1      2019    8    0    1
 -2       982      1046      1045      4022      4023      4018
 -1      2020    8    0    1
 -2       983       984      1047      3815      4024      4025
 -1      2021    8    0    1
 -2       983      1047      1046      4025      4026      4021
 -1      2022    8    0    1
 -2       984       985      1048      3818      4027      4028
 -1      2023    8    0    1
 -2       984      1048      1047      4028      4029      4024
 -1      2024    8    0    1
 -2       993       928      1049      3871      4030      4031
 -1      2025    8    0    1
 -2      1009       993      1049      3912      4031      4032
 -1      2026    8    0    1
 -2       928      1001      1049      3881      4033      4030
 -1      2027    8    0    1
 -2       994       934      1003      3920      3889      4034
 -1      2028    8    0    1
 -2       940       988      1050      3831      4035      4036
 -1      2029    8    0    1
 -2       996       940      1050      3864      4036      4037
 -1      2030    8    0    1
 -2       988      1011      1050      3919      4038      4035
 -1      2031    8    0    1
 -2       968       971      1051      3776      4039      4040
 -1      2032    8    0    1
 -2       971      1034      1051      3988      4041      4039
 -1      2033    8    0    1
 -2       929       998      1052      3873      4042      4043
 -1      2034    8    0    1
 -2       929      1052      1004      4043      4044      3892
 -1      2035    8    0    1
 -2       942       992      1053      3846      4045      4046
 -1      2036    8    0    1
 -2       942      1053      1012      4046      4047      3921
 -1      2037    8    0    1
 -2       986      1005      1007      3911      3905      4048
 -1      2038    8    0    1
 -2       968      1051      1054      4040      4049      4050
 -1      2039    8    0    1
 -2       968      1054       995      4050      4051      3858
 -1      2040    8    0    1
 -2       986      1007       985      4048      4052      3821
 -1      2041    8    0    1
 -2      1035       970      1055      3989      4053      4054
 -1      2042    8    0    1
 -2       970       995      1055      3857      4055      4053
 -1      2043    8    0    1
 -2       965       964      1056      3757      4056      4057
 -1      2044    8    0    1
 -2       969      1035      1057      3990      4058      4059
 -1      2045    8    0    1
 -2       969      1057      1006      4059      4060      3902
 -1      2046    8    0    1
 -2       998       965      1056      3986      4057      4061
 -1      2047    8    0    1
 -2       994      1003      1058      4034      4062      4063
 -1      2048    8    0    1
 -2       939       994      1058      3852      4063      4064
 -1      2049    8    0    1
 -2      1003      1002      1058      3890      4065      4062
 -1      2050    8    0    1
 -2       992      1010      1053      3916      4066      4045
 -1      2051    8    0    1
 -2      1048       985      1007      4027      4052      4067
 -1      2052    8    0    1
 -2       935       987       997      3824      3867      4068
 -1      2053    8    0    1
 -2      1007       937      1059      3903      4069      4070
 -1      2054    8    0    1
 -2       937      1004      1059      3894      4071      4069
 -1      2055    8    0    1
 -2      1002      1009      1060      3914      4072      4073
 -1      2056    8    0    1
 -2       939      1058      1008      4064      4074      3908
 -1      2057    8    0    1
 -2       999      1008      1061      3907      4075      4076
 -1      2058    8    0    1
 -2      1002      1060      1058      4073      4077      4065
 -1      2059    8    0    1
 -2       998      1056      1052      4061      4078      4042
 -1      2060    8    0    1
 -2       967       996      1050      3863      4037      4079
 -1      2061    8    0    1
 -2       967      1050      1010      4079      4080      3915
 -1      2062    8    0    1
 -2      1000      1006      1062      3901      4081      4082
 -1      2063    8    0    1
 -2      1006      1057      1062      4060      4083      4081
 -1      2064    8    0    1
 -2       999      1061      1063      4076      4084      4085
 -1      2065    8    0    1
 -2       999      1063      1011      4085      4086      3917
 -1      2066    8    0    1
 -2      1000      1062      1064      4082      4087      4088
 -1      2067    8    0    1
 -2      1000      1064      1001      4088      4089      3882
 -1      2068    8    0    1
 -2      1056       964      1033      4056      3984      4090
 -1      2069    8    0    1
 -2      1013      1012      1065      3925      4091      4092
 -1      2070    8    0    1
 -2      1014      1013      1066      3928      4093      4094
 -1      2071    8    0    1
 -2      1013      1065      1066      4092      4095      4093
 -1      2072    8    0    1
 -2      1015      1014      1067      3931      4096      4097
 -1      2073    8    0    1
 -2      1014      1066      1067      4094      4098      4096
 -1      2074    8    0    1
 -2      1016      1015      1068      3934      4099      4100
 -1      2075    8    0    1
 -2      1015      1067      1068      4097      4101      4099
 -1      2076    8    0    1
 -2      1017      1016      1069      3937      4102      4103
 -1      2077    8    0    1
 -2      1016      1068      1069      4100      4104      4102
 -1      2078    8    0    1
 -2      1018      1017      1070      3940      4105      4106
 -1      2079    8    0    1
 -2      1017      1069      1070      4103      4107      4105
 -1      2080    8    0    1
 -2      1019      1018      1071      3943      4108      4109
 -1      2081    8    0    1
 -2      1018      1070      1071      4106      4110      4108
 -1      2082    8    0    1
 -2      1020      1019      1072      3946      4111      4112
 -1      2083    8    0    1
 -2      1019      1071      1072      4109      4113      4111
 -1      2084    8    0    1
 -2      1021      1020      1073      3949      4114      4115
 -1      2085    8    0    1
 -2      1020      1072      1073      4112      4116      4114
 -1      2086    8    0    1
 -2      1022      1021      1074      3952      4117      4118
 -1      2087    8    0    1
 -2      1021      1073      1074      4115      4119      4117
 -1      2088    8    0    1
 -2      1023      1022      1075      3955      4120      4121
 -1      2089    8    0    1
 -2      1022      1074      1075      4118      4122      4120
 -1      2090    8    0    1
 -2      1024      1023      1076      3958      4123      4124
 -1      2091    8    0    1
 -2      1023      1075      1076      4121      4125      4123
 -1      2092    8    0    1
 -2      1025      1024      1077      3961      4126      4127
 -1      2093    8    0    1
 -2      1024      1076      1077      4124      4128      4126
 -1      2094    8    0    1
 -2      1026      1025      1078      3964      4129      4130
 -1      2095    8    0    1
 -2      1025      1077      1078      4127      4131      4129
 -1      2096    8    0    1
 -2      1027      1026      1079      3967      4132      4133
 -1      2097    8    0    1
 -2      1026      1078      1079      4130      4134      4132
 -1      2098    8    0    1
 -2      1028      1027      1080      3970      4135      4136
 -1      2099    8    0    1
 -2      1027      1079      1080      4133      4137      4135
 -1      2100    8    0    1
 -2      1029      1028      1081      3973      4138      4139
 -1      2101    8    0    1
 -2      1028      1080      1081      4136      4140      4138
 -1      2102    8    0    1
 -2      1030      1029      1082      3976      4141      4142
 -1      2103    8    0    1
 -2      1029      1081      1082      4139      4143      4141
 -1      2104    8    0    1
 -2      1031      1030      1083      3979      4144      4145
 -1      2105    8    0    1
 -2      1030      1082      1083      4142      4146      4144
 -1      2106    8    0    1
 -2      1032      1031      1084      3982      4147      4148
 -1      2107    8    0    1
 -2      1031      1083      1084      4145      4149      4147
 -1      2108    8    0    1
 -2      1033      1032      1085      3985      4150      4151
 -1      2109    8    0    1
 -2      1032      1084      1085      4148      4152      4150
 -1      2110    8    0    1
 -2      1036      1037      1086      3996      4153      4154
 -1      2111    8    0    1
 -2       997       936       935      3868      3887      4068
 -1      2112    8    0    1
 -2      1052      1056      1087      4078      4155      4156
 -1      2113    8    0    1
 -2      1056      1033      1087      4090      4157      4155
 -1      2114    8    0    1
 -2      1034      1036      1088      3993      4158      4159
 -1      2115    8    0    1
 -2      1036      1086      1088      4154      4160      4158
 -1      2116    8    0    1
 -2      1038      1039      1089      4002      4161      4162
 -1      2117    8    0    1
 -2      1039      1040      1090      4005      4163      4164
 -1      2118    8    0    1
 -2      1039      1090      1089      4164      4165      4161
 -1      2119    8    0    1
 -2      1040      1041      1091      4008      4166      4167
 -1      2120    8    0    1
 -2      1040      1091      1090      4167      4168      4163
 -1      2121    8    0    1
 -2      1041      1042      1092      4011      4169      4170
 -1      2122    8    0    1
 -2      1041      1092      1091      4170      4171      4166
 -1      2123    8    0    1
 -2      1042      1043      1093      4014      4172      4173
 -1      2124    8    0    1
 -2      1042      1093      1092      4173      4174      4169
 -1      2125    8    0    1
 -2      1043      1044      1094      4017      4175      4176
 -1      2126    8    0    1
 -2      1043      1094      1093      4176      4177      4172
 -1      2127    8    0    1
 -2      1044      1045      1095      4020      4178      4179
 -1      2128    8    0    1
 -2      1044      1095      1094      4179      4180      4175
 -1      2129    8    0    1
 -2      1045      1046      1096      4023      4181      4182
 -1      2130    8    0    1
 -2      1045      1096      1095      4182      4183      4178
 -1      2131    8    0    1
 -2      1046      1047      1097      4026      4184      4185
 -1      2132    8    0    1
 -2      1046      1097      1096      4185      4186      4181
 -1      2133    8    0    1
 -2      1047      1048      1098      4029      4187      4188
 -1      2134    8    0    1
 -2      1047      1098      1097      4188      4189      4184
 -1      2135    8    0    1
 -2      1060      1009      1099      4072      4190      4191
 -1      2136    8    0    1
 -2      1009      1049      1099      4032      4192      4190
 -1      2137    8    0    1
 -2      1053      1010      1100      4066      4193      4194
 -1      2138    8    0    1
 -2      1012      1053      1101      4047      4195      4196
 -1      2139    8    0    1
 -2      1053      1100      1101      4194      4197      4195
 -1      2140    8    0    1
 -2      1050      1011      1010      4038      4198      4080
 -1      2141    8    0    1
 -2      1048      1007      1059      4067      4070      4199
 -1      2142    8    0    1
 -2      1037      1038      1102      3999      4200      4201
 -1      2143    8    0    1
 -2      1037      1102      1086      4201      4202      4153
 -1      2144    8    0    1
 -2      1051      1034      1103      4041      4203      4204
 -1      2145    8    0    1
 -2      1034      1088      1103      4159      4205      4203
 -1      2146    8    0    1
 -2      1004      1052      1104      4044      4206      4207
 -1      2147    8    0    1
 -2      1059      1004      1104      4071      4207      4208
 -1      2148    8    0    1
 -2      1052      1087      1104      4156      4209      4206
 -1      2149    8    0    1
 -2      1057      1035      1105      4058      4210      4211
 -1      2150    8    0    1
 -2      1038      1089      1102      4162      4212      4200
 -1      2151    8    0    1
 -2      1055       995      1054      4055      4051      4213
 -1      2152    8    0    1
 -2      1033      1085      1087      4151      4214      4157
 -1      2153    8    0    1
 -2      1051      1103      1106      4204      4215      4216
 -1      2154    8    0    1
 -2      1051      1106      1054      4216      4217      4049
 -1      2155    8    0    1
 -2      1065      1012      1101      4091      4196      4218
 -1      2156    8    0    1
 -2      1060      1099      1107      4191      4219      4220
 -1      2157    8    0    1
 -2      1098      1048      1059      4187      4199      4221
 -1      2158    8    0    1
 -2      1010      1011      1063      4198      4086      4222
 -1      2159    8    0    1
 -2      1049      1001      1108      4033      4223      4224
 -1      2160    8    0    1
 -2      1001      1064      1108      4089      4225      4223
 -1      2161    8    0    1
 -2      1035      1055      1109      4054      4226      4227
 -1      2162    8    0    1
 -2      1035      1109      1105      4227      4228      4210
 -1      2163    8    0    1
 -2      1100      1010      1063      4193      4222      4229
 -1      2164    8    0    1
 -2      1008      1058      1110      4074      4230      4231
 -1      2165    8    0    1
 -2      1061      1008      1110      4075      4231      4232
 -1      2166    8    0    1
 -2      1062      1057      1111      4083      4233      4234
 -1      2167    8    0    1
 -2      1057      1105      1111      4211      4235      4233
 -1      2168    8    0    1
 -2      1063      1061      1112      4084      4236      4237
 -1      2169    8    0    1
 -2      1063      1112      1100      4237      4238      4229
 -1      2170    8    0    1
 -2      1064      1062      1113      4087      4239      4240
 -1      2171    8    0    1
 -2      1062      1111      1113      4234      4241      4239
 -1      2172    8    0    1
 -2      1066      1065      1114      4095      4242      4243
 -1      2173    8    0    1
 -2      1102      1089      1076      4212      4244      4245
 -1      2174    8    0    1
 -2      1067      1066      1113      4098      4246      4247
 -1      2175    8    0    1
 -2      1068      1067      1111      4101      4248      4249
 -1      2176    8    0    1
 -2      1069      1068      1105      4104      4250      4251
 -1      2177    8    0    1
 -2      1070      1069      1109      4107      4252      4253
 -1      2178    8    0    1
 -2      1072      1071      1115      4113      4254      4255
 -1      2179    8    0    1
 -2      1073      1072      1103      4116      4256      4257
 -1      2180    8    0    1
 -2      1074      1073      1088      4119      4258      4259
 -1      2181    8    0    1
 -2      1075      1074      1086      4122      4260      4261
 -1      2182    8    0    1
 -2      1076      1075      1102      4125      4262      4245
 -1      2183    8    0    1
 -2      1077      1076      1089      4128      4244      4263
 -1      2184    8    0    1
 -2      1078      1077      1090      4131      4264      4265
 -1      2185    8    0    1
 -2      1079      1078      1091      4134      4266      4267
 -1      2186    8    0    1
 -2      1080      1079      1092      4137      4268      4269
 -1      2187    8    0    1
 -2      1081      1080      1093      4140      4270      4271
 -1      2188    8    0    1
 -2      1082      1081      1094      4143      4272      4273
 -1      2189    8    0    1
 -2      1083      1082      1095      4146      4274      4275
 -1      2190    8    0    1
 -2      1084      1083      1096      4149      4276      4277
 -1      2191    8    0    1
 -2      1085      1084      1097      4152      4278      4279
 -1      2192    8    0    1
 -2      1111      1067      1113      4248      4247      4241
 -1      2193    8    0    1
 -2      1107      1099      1116      4219      4280      4281
 -1      2194    8    0    1
 -2      1101      1100      1112      4197      4238      4282
 -1      2195    8    0    1
 -2      1091      1092      1079      4171      4268      4267
 -1      2196    8    0    1
 -2      1088      1086      1074      4160      4260      4259
 -1      2197    8    0    1
 -2      1097      1084      1096      4278      4277      4186
 -1      2198    8    0    1
 -2      1087      1085      1098      4214      4283      4284
 -1      2199    8    0    1
 -2      1095      1082      1094      4274      4273      4180
 -1      2200    8    0    1
 -2      1090      1091      1078      4168      4266      4265
 -1      2201    8    0    1
 -2      1096      1083      1095      4276      4275      4183
 -1      2202    8    0    1
 -2      1089      1090      1077      4165      4264      4263
 -1      2203    8    0    1
 -2      1092      1093      1080      4174      4270      4269
 -1      2204    8    0    1
 -2      1093      1094      1081      4177      4272      4271
 -1      2205    8    0    1
 -2      1097      1098      1085      4189      4283      4279
 -1      2206    8    0    1
 -2      1099      1049      1108      4192      4224      4285
 -1      2207    8    0    1
 -2      1061      1110      1117      4232      4286      4287
 -1      2208    8    0    1
 -2      1060      1107      1117      4220      4288      4289
 -1      2209    8    0    1
 -2      1088      1073      1103      4258      4257      4205
 -1      2210    8    0    1
 -2      1111      1105      1068      4235      4250      4249
 -1      2211    8    0    1
 -2      1058      1060      1110      4077      4290      4230
 -1      2212    8    0    1
 -2      1112      1061      1117      4236      4287      4291
 -1      2213    8    0    1
 -2      1055      1054      1118      4213      4292      4293
 -1      2214    8    0    1
 -2      1109      1055      1118      4226      4293      4294
 -1      2215    8    0    1
 -2      1054      1106      1118      4217      4295      4292
 -1      2216    8    0    1
 -2      1086      1102      1075      4202      4262      4261
 -1      2217    8    0    1
 -2      1065      1101      1119      4218      4296      4297
 -1      2218    8    0    1
 -2      1114      1065      1119      4242      4297      4298
 -1      2219    8    0    1
 -2      1101      1112      1119      4282      4299      4296
 -1      2220    8    0    1
 -2      1110      1060      1117      4290      4289      4286
 -1      2221    8    0    1
 -2      1069      1105      1109      4251      4228      4252
 -1      2222    8    0    1
 -2      1112      1117      1119      4291      4300      4299
 -1      2223    8    0    1
 -2      1116      1099      1108      4280      4285      4301
 -1      2224    8    0    1
 -2      1070      1109      1118      4253      4294      4302
 -1      2225    8    0    1
 -2      1071      1070      1118      4110      4302      4303
 -1      2226    8    0    1
 -2      1087      1098      1104      4284      4304      4209
 -1      2227    8    0    1
 -2      1098      1059      1104      4221      4208      4304
 -1      2228    8    0    1
 -2      1113      1066      1114      4246      4243      4305
 -1      2229    8    0    1
 -2      1064      1113      1114      4240      4305      4306
 -1      2230    8    0    1
 -2      1103      1072      1115      4256      4255      4307
 -1      2231    8    0    1
 -2      1064      1114      1108      4306      4308      4225
 -1      2232    8    0    1
 -2      1071      1118      1115      4303      4309      4254
 -1      2233    8    0    1
 -2      1106      1103      1115      4215      4307      4310
 -1      2234    8    0    1
 -2      1108      1114      1116      4308      4311      4301
 -1      2235    8    0    1
 -2      1114      1119      1116      4298      4312      4311
 -1      2236    8    0    1
 -2      1106      1115      1118      4310      4309      4295
 -1      2237    8    0    1
 -2      1117      1107      1119      4288      4313      4300
 -1      2238    8    0    1
 -2      1119      1107      1116      4313      4281      4312
 -3
    1PSTEP                         1           1           1          
  100CL  101 1.000000000        4313                     0    1           1
 -4  DISP        4    1
 -5  D1          1    2    1    0
 -5  D2          1    2    2    0
 -5  D3          1    2    3    0
 -5  ALL         1    2    0    0    1ALL
 -1         1 9.78702E-03-6.93699E-04-6.53618E-14
 -1         2 1.36668E-02-1.69632E-04-8.06687E-14
 -1         3 1.46804E-02 1.35748E-04-1.20008E-13
 -1         4 1.50501E-02-6.66472E-04-1.16094E-13
 -1         5 0.00000E+00 0.00000E+00 0.00000E+00
 -1         6 0.00000E+00 0.00000E+00 0.00000E+00
 -1         7 0.00000E+00 0.00000E+00 0.00000E+00
 -1         8 0.00000E+00 0.00000E+00 0.00000E+00
 -1         9 0.00000E+00 0.00000E+00 0.00000E+00
 -1        10 0.00000E+00 0.00000E+00 0.00000E+00
 -1        11 0.00000E+00 0.00000E+00 0.00000E+00
 -1        12 0.00000E+00 0.00000E+00 0.00000E+00
 -1        13 0.00000E+00 0.00000E+00 0.00000E+00
 -1        14 0.00000E+00 0.00000E+00 0.00000E+00
 -1        15 0.00000E+00 0.00000E+00 0.00000E+00
 -1        16 0.00000E+00 0.00000E+00 0.00000E+00
 -1        17 0.00000E+00 0.00000E+00 0.00000E+00
 -1        18 0.00000E+00 0.00000E+00 0.00000E+00
 -1        19 0.00000E+00 0.00000E+00 0.00000E+00
 -1        20 0.00000E+00 0.00000E+00 0.00000E+00
 -1        21 0.00000E+00 0.00000E+00 0.00000E+00
 -1        22 0.00000E+00 0.00000E+00 0.00000E+00
 -1        23 4.11395E-04-2.60758E-04 5.73983E-17
 -1        24 7.03383E-04-4.01026E-04 1.89464E-17
 -1        25 9.73449E-04-4.98427E-04-1.16738E-16
 -1        26 1.23793E-03-5.67194E-04-3.52298E-16
 -1        27 1.50144E-03-6.16467E-04-6.90264E-16
 -1        28 1.76607E-03-6.51627E-04-1.12973E-15
 -1        29 2.03278E-03-6.76382E-04-1.67255E-15
 -1        30 2.30193E-03-6.93421E-04-2.32140E-15
 -1        31 2.57356E-03-7.04756E-04-3.07766E-15
 -1        32 2.84755E-03-7.11903E-04-3.93912E-15
 -1        33 3.12364E-03-7.15998E-04-4.90145E-15
 -1        34 3.40158E-03-7.17884E-04-5.96134E-15
 -1        35 3.68108E-03-7.18167E-04-7.12284E-15
 -1        36 3.96190E-03-7.17271E-04-8.38822E-15
 -1        37 4.24382E-03-7.15474E-04-9.75116E-15
 -1        38 4.52667E-03-7.12938E-04-1.12102E-14
 -1        39 4.81038E-03-7.09741E-04-1.27669E-14
 -1        40 5.09489E-03-7.05898E-04-1.44246E-14
 -1        41 5.38029E-03-7.01384E-04-1.61767E-14
 -1        42 5.66673E-03-6.96158E-04-1.80293E-14
 -1        43 5.95449E-03-6.90188E-04-1.99836E-14
 -1        44 6.24399E-03-6.83490E-04-2.20417E-14
 -1        45 6.53580E-03-6.76164E-04-2.42017E-14
 -1        46 6.83071E-03-6.68463E-04-2.64654E-14
 -1        47 7.12971E-03-6.60867E-04-2.88234E-14
 -1        48 7.43405E-03-6.54204E-04-3.12802E-14
 -1        49 7.74518E-03-6.49785E-04-3.38349E-14
 -1        50 8.06476E-03-6.49599E-04-3.64934E-14
 -1        51 8.39441E-03-6.56502E-04-3.92507E-14
 -1        52 8.73546E-03-6.74394E-04-4.21021E-14
 -1        53 9.08824E-03-7.08207E-04-4.50371E-14
 -1        54 9.45123E-03-7.63473E-04-4.80551E-14
 -1        55 9.81979E-03-8.45030E-04-5.11617E-14
 -1        56 1.01853E-02-9.54455E-04-5.43526E-14
 -1        57 1.05355E-02-1.08631E-03-5.76300E-14
 -1        58 1.08580E-02-1.22470E-03-6.09874E-14
 -1        59 1.11463E-02-1.34373E-03-6.44434E-14
 -1        60 1.14062E-02-1.41500E-03-6.79977E-14
 -1        61 1.16558E-02-1.42067E-03-7.16454E-14
 -1        62 1.19179E-02-1.36333E-03-7.53907E-14
 -1        63 1.22075E-02-1.26416E-03-7.92455E-14
 -1        64 1.25265E-02-1.15113E-03-8.31802E-14
 -1        65 1.28656E-02-1.04663E-03-8.71834E-14
 -1        66 1.32115E-02-9.61990E-04-9.12457E-14
 -1        67 1.35525E-02-8.98379E-04-9.53588E-14
 -1        68 1.38809E-02-8.50510E-04-9.94993E-14
 -1        69 1.41936E-02-8.10186E-04-1.03670E-13
 -1        70 1.44916E-02-7.68874E-04-1.07855E-13
 -1        71 1.47795E-02-7.20211E-04-1.12065E-13
 -1        72 4.13841E-04 2.61462E-04 3.36408E-17
 -1        73 7.03207E-04 4.03733E-04-5.08796E-17
 -1        74 9.73985E-04 5.00201E-04-2.48868E-16
 -1        75 1.23876E-03 5.68906E-04-5.60746E-16
 -1        76 1.50240E-03 6.18227E-04-9.85536E-16
 -1        77 1.76710E-03 6.53478E-04-1.52017E-15
 -1        78 2.03385E-03 6.78343E-04-2.16410E-15
 -1        79 2.30302E-03 6.95504E-04-2.91523E-15
 -1        80 2.57467E-03 7.06967E-04-3.77260E-15
 -1        81 2.84866E-03 7.14244E-04-4.73791E-15
 -1        82 3.12476E-03 7.18472E-04-5.81102E-15
 -1        83 3.40271E-03 7.20492E-04-6.99096E-15
 -1        84 3.68222E-03 7.20910E-04-8.27609E-15
 -1        85 3.96305E-03 7.20153E-04-9.66427E-15
 -1        86 4.24498E-03 7.18497E-04-1.11583E-14
 -1        87 4.52786E-03 7.16111E-04-1.27637E-14
 -1        88 4.81158E-03 7.13078E-04-1.44754E-14
 -1        89 5.09613E-03 7.09419E-04-1.62870E-14
 -1        90 5.38157E-03 7.05124E-04-1.82020E-14
 -1        91 5.66804E-03 7.00171E-04-2.02232E-14
 -1        92 5.95582E-03 6.94555E-04-2.23541E-14
 -1        93 6.24530E-03 6.88328E-04-2.45957E-14
 -1        94 6.53699E-03 6.81640E-04-2.69422E-14
 -1        95 6.83159E-03 6.74799E-04-2.93847E-14
 -1        96 7.12992E-03 6.68346E-04-3.19256E-14
 -1        97 7.43294E-03 6.63141E-04-3.45582E-14
 -1        98 7.74169E-03 6.60470E-04-3.72908E-14
 -1        99 8.05717E-03 6.62144E-04-4.01250E-14
 -1       100 8.38011E-03 6.70565E-04-4.30565E-14
 -1       101 8.71065E-03 6.88686E-04-4.60662E-14
 -1       102 9.04786E-03 7.19767E-04-4.91383E-14
 -1       103 9.38915E-03 7.66746E-04-5.22927E-14
 -1       104 9.72982E-03 8.31088E-04-5.55235E-14
 -1       105 1.00631E-02 9.11088E-04-5.88418E-14
 -1       106 1.03811E-02 1.00007E-03-6.22590E-14
 -1       107 1.06774E-02 1.08554E-03-6.57719E-14
 -1       108 1.09501E-02 1.15076E-03-6.93592E-14
 -1       109 1.12047E-02 1.17948E-03-7.30100E-14
 -1       110 1.14528E-02 1.16214E-03-7.67101E-14
 -1       111 1.17079E-02 1.10010E-03-8.04600E-14
 -1       112 1.19802E-02 1.00481E-03-8.42886E-14
 -1       113 1.22725E-02 8.92518E-04-8.81650E-14
 -1       114 1.25809E-02 7.78005E-04-9.20734E-14
 -1       115 1.28978E-02 6.70702E-04-9.60268E-14
 -1       116 1.32152E-02 5.73869E-04-1.00016E-13
 -1       117 1.35268E-02 4.85863E-04-1.04029E-13
 -1       118 1.38294E-02 4.02122E-04-1.08062E-13
 -1       119 1.41227E-02 3.17155E-04-1.12115E-13
 -1       120 1.44095E-02 2.26671E-04-1.16168E-13
 -1       121 1.47760E-02 5.08648E-05-1.19795E-13
 -1       122 1.48771E-02-3.22966E-05-1.19606E-13
 -1       123 1.49844E-02-1.08743E-04-1.19405E-13
 -1       124 1.50946E-02-1.74164E-04-1.19188E-13
 -1       125 1.52025E-02-2.25530E-04-1.18964E-13
 -1       126 1.52995E-02-2.60888E-04-1.18750E-13
 -1       127 1.53817E-02-2.82053E-04-1.18540E-13
 -1       128 1.54401E-02-2.91337E-04-1.18344E-13
 -1       129 1.54697E-02-2.94145E-04-1.18149E-13
 -1       130 1.54686E-02-2.97376E-04-1.17906E-13
 -1       131 1.54390E-02-3.08052E-04-1.17662E-13
 -1       132 1.53872E-02-3.31352E-04-1.17440E-13
 -1       133 1.53194E-02-3.71415E-04-1.17218E-13
 -1       134 1.52450E-02-4.28623E-04-1.16973E-13
 -1       135 1.51723E-02-5.00994E-04-1.16699E-13
 -1       136 1.51069E-02-5.82799E-04-1.16403E-13
 -1       137 1.36141E-02 5.88997E-06-8.06290E-14
 -1       138 1.34505E-02 1.92038E-04-8.01572E-14
 -1       139 1.32017E-02 3.55598E-04-7.93304E-14
 -1       140 1.28837E-02 4.93508E-04-7.82114E-14
 -1       141 1.24916E-02 6.08008E-04-7.67963E-14
 -1       142 1.20103E-02 6.95018E-04-7.50105E-14
 -1       143 1.15293E-02 7.32576E-04-7.32042E-14
 -1       144 1.10607E-02 7.27739E-04-7.14058E-14
 -1       145 1.05856E-02 6.79040E-04-6.95482E-14
 -1       146 1.01769E-02 5.96362E-04-6.79313E-14
 -1       147 9.81536E-03 4.79643E-04-6.64664E-14
 -1       148 9.52721E-03 3.36419E-04-6.52568E-14
 -1       149 9.32166E-03 1.70269E-04-6.43405E-14
 -1       150 9.21846E-03-5.60182E-06-6.37950E-14
 -1       151 9.21660E-03-1.85535E-04-6.36347E-14
 -1       152 9.31858E-03-3.70031E-04-6.38599E-14
 -1       153 9.52277E-03-5.46618E-04-6.44822E-14
 -1       154 1.01377E-02-8.28918E-04-6.65738E-14
 -1       155 1.05663E-02-9.39503E-04-6.80928E-14
 -1       156 1.10128E-02-1.00772E-03-6.97149E-14
 -1       157 1.15018E-02-1.03572E-03-7.15422E-14
 -1       158 1.19962E-02-1.01557E-03-7.34421E-14
 -1       159 1.24591E-02-9.49603E-04-7.52733E-14
 -1       160 1.28854E-02-8.37777E-04-7.70232E-14
 -1       161 1.32339E-02-6.91922E-04-7.85085E-14
 -1       162 1.34787E-02-5.28004E-04-7.96155E-14
 -1       163 1.36255E-02-3.47261E-04-8.03488E-14
 -1       164 2.40406E-04-1.25537E-04-2.07015E-18
 -1       165 2.25273E-04-9.46367E-05-2.10539E-17
 -1       166 2.19512E-04-7.27960E-05-3.27226E-17
 -1       167 2.16714E-04-5.51200E-05-3.98614E-17
 -1       168 2.15221E-04-3.99798E-05-4.44658E-17
 -1       169 2.14387E-04-2.59262E-05-4.76236E-17
 -1       170 2.13970E-04-1.26500E-05-4.95142E-17
 -1       171 2.13848E-04 2.72708E-07-5.08186E-17
 -1       172 2.13989E-04 1.32077E-05-5.13607E-17
 -1       173 2.14429E-04 2.65236E-05-5.12489E-17
 -1       174 2.15270E-04 4.04076E-05-5.04764E-17
 -1       175 2.16817E-04 5.59309E-05-4.84164E-17
 -1       176 2.19672E-04 7.38350E-05-4.41914E-17
 -1       177 2.25443E-04 9.60365E-05-3.55754E-17
 -1       178 2.39335E-04 1.27613E-04-1.94479E-17
 -1       179 2.97712E-04 1.85520E-04-2.68340E-18
 -1       180 4.68627E-04-2.63585E-04-1.17805E-17
 -1       181 7.66767E-04-3.82199E-04-1.26103E-16
 -1       182 1.05061E-03-4.65104E-04-3.34422E-16
 -1       183 1.32798E-03-5.23899E-04-6.41285E-16
 -1       184 1.60256E-03-5.65600E-04-1.04776E-15
 -1       185 1.87642E-03-5.94892E-04-1.55577E-15
 -1       186 2.15068E-03-6.15074E-04-2.16670E-15
 -1       187 2.42595E-03-6.28564E-04-2.88177E-15
 -1       188 2.70248E-03-6.37162E-04-3.70068E-15
 -1       189 2.98033E-03-6.42214E-04-4.62282E-15
 -1       190 3.25947E-03-6.44716E-04-5.64407E-15
 -1       191 3.53979E-03-6.45390E-04-6.76382E-15
 -1       192 3.82117E-03-6.44743E-04-7.98680E-15
 -1       193 4.10347E-03-6.43116E-04-9.30987E-15
 -1       194 4.38660E-03-6.40713E-04-1.07288E-14
 -1       195 4.67050E-03-6.37638E-04-1.22455E-14
 -1       196 4.95514E-03-6.33919E-04-1.38613E-14
 -1       197 5.24058E-03-6.29528E-04-1.55748E-14
 -1       198 5.52690E-03-6.24407E-04-1.73856E-14
 -1       199 5.81432E-03-6.18489E-04-1.92969E-14
 -1       200 6.10312E-03-6.11729E-04-2.13133E-14
 -1       201 6.39370E-03-6.04142E-04-2.34312E-14
 -1       202 6.68658E-03-5.95854E-04-2.56525E-14
 -1       203 6.98245E-03-5.87171E-04-2.79727E-14
 -1       204 7.28211E-03-5.78679E-04-3.03883E-14
 -1       205 7.58654E-03-5.71379E-04-3.29014E-14
 -1       206 7.89679E-03-5.66858E-04-3.55152E-14
 -1       207 8.21398E-03-5.67508E-04-3.82274E-14
 -1       208 8.53908E-03-5.76755E-04-4.10377E-14
 -1       209 8.87265E-03-5.99211E-04-4.39355E-14
 -1       210 9.21447E-03-6.40566E-04-4.69178E-14
 -1       211 9.56293E-03-7.06855E-04-4.99839E-14
 -1       212 9.91451E-03-8.02561E-04-5.31324E-14
 -1       213 1.02635E-02-9.27161E-04-5.63648E-14
 -1       214 1.06026E-02-1.07063E-03-5.96835E-14
 -1       215 1.09256E-02-1.21055E-03-6.30936E-14
 -1       216 1.12311E-02-1.31553E-03-6.65966E-14
 -1       217 1.15252E-02-1.35749E-03-7.01940E-14
 -1       218 1.18196E-02-1.32701E-03-7.38878E-14
 -1       219 1.21249E-02-1.23900E-03-7.76834E-14
 -1       220 1.24449E-02-1.12322E-03-8.15684E-14
 -1       221 1.27763E-02-1.00844E-03-8.55246E-14
 -1       222 1.31122E-02-9.12359E-04-8.95462E-14
 -1       223 1.34455E-02-8.40234E-04-9.36229E-14
 -1       224 1.37708E-02-7.88533E-04-9.77369E-14
 -1       225 1.40857E-02-7.49207E-04-1.01883E-13
 -1       226 1.43897E-02-7.12858E-04-1.06052E-13
 -1       227 1.46843E-02-6.70948E-04-1.10243E-13
 -1       228 6.04569E-04 3.31080E-04-1.00099E-16
 -1       229 8.93656E-04 4.32719E-04-3.03478E-16
 -1       230 1.17253E-03 5.04485E-04-6.15895E-16
 -1       231 1.44686E-03 5.55586E-04-1.03796E-15
 -1       232 1.71965E-03 5.91839E-04-1.56860E-15
 -1       233 1.99251E-03 6.17222E-04-2.20710E-15
 -1       234 2.26628E-03 6.34599E-04-2.95239E-15
 -1       235 2.54138E-03 6.46095E-04-3.80228E-15
 -1       236 2.81793E-03 6.53300E-04-4.75813E-15
 -1       237 3.09592E-03 6.57400E-04-5.82018E-15
 -1       238 3.37524E-03 6.59268E-04-6.98836E-15
 -1       239 3.65578E-03 6.59534E-04-8.26062E-15
 -1       240 3.93736E-03 6.58633E-04-9.63669E-15
 -1       241 4.21988E-03 6.56847E-04-1.11177E-14
 -1       242 4.50323E-03 6.54342E-04-1.27063E-14
 -1       243 4.78735E-03 6.51196E-04-1.44007E-14
 -1       244 5.07224E-03 6.47420E-04-1.61985E-14
 -1       245 5.35798E-03 6.42989E-04-1.80981E-14
 -1       246 5.64468E-03 6.37860E-04-2.01012E-14
 -1       247 5.93259E-03 6.32004E-04-2.22139E-14
 -1       248 6.22200E-03 6.25440E-04-2.44349E-14
 -1       249 6.51336E-03 6.18280E-04-2.67613E-14
 -1       250 6.80718E-03 6.10783E-04-2.91822E-14
 -1       251 7.10410E-03 6.03439E-04-3.17029E-14
 -1       252 7.40484E-03 5.97053E-04-3.43214E-14
 -1       253 7.71016E-03 5.92859E-04-3.70367E-14
 -1       254 8.02076E-03 5.92639E-04-3.98496E-14
 -1       255 8.33717E-03 5.98805E-04-4.27548E-14
 -1       256 8.65946E-03 6.14410E-04-4.57463E-14
 -1       257 8.98704E-03 6.42939E-04-4.88062E-14
 -1       258 9.31825E-03 6.87749E-04-5.19448E-14
 -1       259 9.65013E-03 7.50926E-04-5.51626E-14
 -1       260 9.97843E-03 8.31519E-04-5.84660E-14
 -1       261 1.02982E-02 9.23471E-04-6.18630E-14
 -1       262 1.06050E-02 1.01433E-03-6.53485E-14
 -1       263 1.08974E-02 1.08644E-03-6.89123E-14
 -1       264 1.11780E-02 1.12177E-03-7.25408E-14
 -1       265 1.14535E-02 1.10886E-03-7.62265E-14
 -1       266 1.17323E-02 1.04813E-03-7.99707E-14
 -1       267 1.20206E-02 9.51504E-04-8.37874E-14
 -1       268 1.23204E-02 8.36557E-04-8.76593E-14
 -1       269 1.26296E-02 7.19480E-04-9.15695E-14
 -1       270 1.29434E-02 6.10611E-04-9.55172E-14
 -1       271 1.32567E-02 5.13533E-04-9.94997E-14
 -1       272 1.35657E-02 4.26492E-04-1.03507E-13
 -1       273 1.38680E-02 3.44552E-04-1.07536E-13
 -1       274 1.41632E-02 2.61678E-04-1.11583E-13
 -1       275 1.44527E-02 1.72840E-04-1.15635E-13
 -1       276 1.45785E-02 9.39173E-05-1.16189E-13
 -1       277 1.46846E-02 1.56092E-05-1.15981E-13
 -1       278 1.47965E-02-5.58394E-05-1.15766E-13
 -1       279 1.49096E-02-1.18350E-04-1.15557E-13
 -1       280 1.50156E-02-1.69688E-04-1.15348E-13
 -1       281 1.51105E-02-2.11350E-04-1.15134E-13
 -1       282 1.51844E-02-2.43621E-04-1.14926E-13
 -1       283 1.52304E-02-2.69447E-04-1.14712E-13
 -1       284 1.52446E-02-2.93118E-04-1.14477E-13
 -1       285 1.52270E-02-3.19487E-04-1.14232E-13
 -1       286 1.51828E-02-3.52327E-04-1.13986E-13
 -1       287 1.51178E-02-3.95843E-04-1.13729E-13
 -1       288 1.50416E-02-4.50931E-04-1.13465E-13
 -1       289 1.49636E-02-5.17199E-04-1.13186E-13
 -1       290 1.48214E-02-5.91962E-04-1.11722E-13
 -1       291 1.36751E-02-1.26504E-04-8.22531E-14
 -1       292 1.35267E-02-2.31128E-05-8.21604E-14
 -1       293 1.32540E-02 1.32302E-04-8.11725E-14
 -1       294 1.29101E-02 3.01164E-04-8.00168E-14
 -1       295 1.25111E-02 4.77145E-04-7.86486E-14
 -1       296 1.20832E-02 6.59305E-04-7.68017E-14
 -1       297 1.16938E-02 7.78806E-04-7.44792E-14
 -1       298 1.13094E-02 8.09817E-04-7.23589E-14
 -1       299 1.09246E-02 7.53873E-04-7.02032E-14
 -1       300 1.05274E-02 6.22358E-04-6.81995E-14
 -1       301 1.01417E-02 4.56470E-04-6.64126E-14
 -1       302 9.77433E-03 2.83516E-04-6.48655E-14
 -1       303 9.46675E-03 1.18824E-04-6.34813E-14
 -1       304 9.25218E-03 2.37895E-06-6.27182E-14
 -1       305 9.17754E-03-9.58016E-05-6.24057E-14
 -1       306 9.24744E-03-1.99403E-04-6.24403E-14
 -1       307 9.46140E-03-3.16387E-04-6.27475E-14
 -1       308 9.76393E-03-4.77216E-04-6.36966E-14
 -1       309 1.01330E-02-6.48758E-04-6.47655E-14
 -1       310 1.05190E-02-8.51067E-04-6.64914E-14
 -1       311 1.09100E-02-1.01043E-03-6.83696E-14
 -1       312 1.13002E-02-1.10294E-03-7.03637E-14
 -1       313 1.16907E-02-1.10474E-03-7.25788E-14
 -1       314 1.20937E-02-1.00540E-03-7.47977E-14
 -1       315 1.24971E-02-8.35418E-04-7.70440E-14
 -1       316 1.29199E-02-6.40716E-04-7.89561E-14
 -1       317 1.32862E-02-4.69472E-04-8.04435E-14
 -1       318 1.35509E-02-3.34316E-04-8.14552E-14
 -1       319 1.36825E-02-2.23704E-04-8.20887E-14
 -1       320 4.55387E-04-1.64848E-04-1.16199E-16
 -1       321 4.74257E-04-2.13023E-04-8.28703E-17
 -1       322 4.40444E-04-9.40506E-05-1.54221E-16
 -1       323 4.37489E-04-6.49386E-05-1.64785E-16
 -1       324 4.35873E-04-3.79220E-05-1.72232E-16
 -1       325 4.35165E-04-1.20229E-05-1.77281E-16
 -1       326 4.35195E-04 1.35413E-05-1.80167E-16
 -1       327 4.35970E-04 3.94973E-05-1.80842E-16
 -1       328 4.37633E-04 6.61626E-05-1.79195E-16
 -1       329 4.40684E-04 9.54447E-05-1.75271E-16
 -1       330 4.46067E-04 1.28361E-04-1.67208E-16
 -1       331 4.55896E-04 1.67343E-04-1.52402E-16
 -1       332 4.75887E-04 2.17084E-04-1.26560E-16
 -1       333 5.32015E-04 2.70013E-04-1.18774E-16
 -1       334 8.24489E-04 3.73569E-04-3.23692E-16
 -1       335 8.63263E-04-3.57466E-04-2.96841E-16
 -1       336 1.14961E-03-4.26246E-04-5.75166E-16
 -1       337 1.43238E-03-4.75430E-04-9.50642E-16
 -1       338 1.71308E-03-5.10168E-04-1.42507E-15
 -1       339 1.99283E-03-5.34255E-04-2.00036E-15
 -1       340 2.27240E-03-5.50507E-04-2.67673E-15
 -1       341 2.55226E-03-5.61029E-04-3.45508E-15
 -1       342 2.83265E-03-5.67399E-04-4.33623E-15
 -1       343 3.11371E-03-5.70789E-04-5.31799E-15
 -1       344 3.39547E-03-5.72055E-04-6.39832E-15
 -1       345 3.67791E-03-5.71806E-04-7.57813E-15
 -1       346 3.96100E-03-5.70457E-04-8.86074E-15
 -1       347 4.24468E-03-5.68271E-04-1.02407E-14
 -1       348 4.52894E-03-5.65390E-04-1.17181E-14
 -1       349 4.81376E-03-5.61868E-04-1.32915E-14
 -1       350 5.09916E-03-5.57690E-04-1.49651E-14
 -1       351 5.38522E-03-5.52797E-04-1.67346E-14
 -1       352 5.67206E-03-5.47107E-04-1.86062E-14
 -1       353 5.95983E-03-5.40542E-04-2.05792E-14
 -1       354 6.24879E-03-5.33059E-04-2.26548E-14
 -1       355 6.53925E-03-5.24693E-04-2.48333E-14
 -1       356 6.83161E-03-5.15616E-04-2.71145E-14
 -1       357 7.12637E-03-5.06220E-04-2.94907E-14
 -1       358 7.42410E-03-4.97226E-04-3.19629E-14
 -1       359 7.72549E-03-4.89836E-04-3.45342E-14
 -1       360 8.03133E-03-4.85926E-04-3.72042E-14
 -1       361 8.34247E-03-4.88274E-04-3.99746E-14
 -1       362 8.65985E-03-5.00783E-04-4.28327E-14
 -1       363 8.98439E-03-5.28607E-04-4.57782E-14
 -1       364 9.31689E-03-5.77938E-04-4.88052E-14
 -1       365 9.65753E-03-6.55067E-04-5.19159E-14
 -1       366 1.00051E-02-7.64058E-04-5.51061E-14
 -1       367 1.03556E-02-9.02448E-04-5.83812E-14
 -1       368 1.07024E-02-1.05555E-03-6.17421E-14
 -1       369 1.10380E-02-1.19334E-03-6.51944E-14
 -1       370 1.13609E-02-1.27753E-03-6.87453E-14
 -1       371 1.16786E-02-1.28178E-03-7.23888E-14
 -1       372 1.20023E-02-1.21025E-03-7.61324E-14
 -1       373 1.23372E-02-1.09415E-03-7.99685E-14
 -1       374 1.26794E-02-9.70133E-04-8.38863E-14
 -1       375 1.30211E-02-8.63042E-04-8.78680E-14
 -1       376 1.33562E-02-7.82199E-04-9.19059E-14
 -1       377 1.36816E-02-7.25798E-04-9.59868E-14
 -1       378 1.39966E-02-6.86299E-04-1.00101E-13
 -1       379 1.43016E-02-6.54140E-04-1.04253E-13
 -1       380 1.45643E-02-6.27010E-04-1.07977E-13
 -1       381 1.10996E-03 4.47909E-04-6.33499E-16
 -1       382 1.39070E-03 5.00985E-04-1.05013E-15
 -1       383 1.66899E-03 5.38602E-04-1.57400E-15
 -1       384 1.94636E-03 5.64878E-04-2.20460E-15
 -1       385 2.22375E-03 5.82814E-04-2.94080E-15
 -1       386 2.50169E-03 5.94638E-04-3.78088E-15
 -1       387 2.78046E-03 6.02017E-04-4.72532E-15
 -1       388 3.06017E-03 6.06191E-04-5.77482E-15
 -1       389 3.34081E-03 6.08073E-04-6.92999E-15
 -1       390 3.62234E-03 6.08319E-04-8.18854E-15
 -1       391 3.90469E-03 6.07380E-04-9.54952E-15
 -1       392 4.18779E-03 6.05553E-04-1.10149E-14
 -1       393 4.47157E-03 6.03008E-04-1.25868E-14
 -1       394 4.75602E-03 5.99823E-04-1.42643E-14
 -1       395 5.04113E-03 5.96008E-04-1.60463E-14
 -1       396 5.32696E-03 5.91529E-04-1.79290E-14
 -1       397 5.61363E-03 5.86332E-04-1.99141E-14
 -1       398 5.90132E-03 5.80370E-04-2.20082E-14
 -1       399 6.19028E-03 5.73639E-04-2.42100E-14
 -1       400 6.48083E-03 5.66219E-04-2.65148E-14
 -1       401 6.77340E-03 5.58328E-04-2.89167E-14
 -1       402 7.06846E-03 5.50403E-04-3.14182E-14
 -1       403 7.36660E-03 5.43186E-04-3.40174E-14
 -1       404 7.66842E-03 5.37837E-04-3.67135E-14
 -1       405 7.97453E-03 5.36058E-04-3.95062E-14
 -1       406 8.28545E-03 5.40194E-04-4.23915E-14
 -1       407 8.60149E-03 5.53270E-04-4.53655E-14
 -1       408 8.92259E-03 5.78850E-04-4.84116E-14
 -1       409 9.24805E-03 6.20562E-04-5.15324E-14
 -1       410 9.57626E-03 6.81075E-04-5.47351E-14
 -1       411 9.90446E-03 7.60381E-04-5.80192E-14
 -1       412 1.02288E-02 8.53545E-04-6.13959E-14
 -1       413 1.05452E-02 9.48849E-04-6.48576E-14
 -1       414 1.08508E-02 1.02816E-03-6.84049E-14
 -1       415 1.11466E-02 1.07149E-03-7.20154E-14
 -1       416 1.14375E-02 1.06468E-03-7.56844E-14
 -1       417 1.17303E-02 1.00660E-03-7.94197E-14
 -1       418 1.20305E-02 9.09497E-04-8.32290E-14
 -1       419 1.23391E-02 7.92479E-04-8.70943E-14
 -1       420 1.26537E-02 6.73272E-04-9.10002E-14
 -1       421 1.29700E-02 5.63095E-04-9.49444E-14
 -1       422 1.32841E-02 4.65816E-04-9.89200E-14
 -1       423 1.35930E-02 3.79640E-04-1.02926E-13
 -1       424 1.38955E-02 2.99434E-04-1.06950E-13
 -1       425 1.41913E-02 2.18861E-04-1.10992E-13
 -1       426 1.43860E-02 1.58102E-04-1.13591E-13
 -1       427 1.46095E-02-1.96357E-05-1.12140E-13
 -1       428 1.44935E-02 5.26008E-05-1.12353E-13
 -1       429 1.44373E-02 1.04260E-04-1.12973E-13
 -1       430 1.47223E-02-8.36196E-05-1.11932E-13
 -1       431 1.48286E-02-1.40489E-04-1.11722E-13
 -1       432 1.49178E-02-1.88968E-04-1.11505E-13
 -1       433 1.49812E-02-2.30433E-04-1.11278E-13
 -1       434 1.50126E-02-2.67850E-04-1.11045E-13
 -1       435 1.50097E-02-3.05268E-04-1.10796E-13
 -1       436 1.49755E-02-3.46060E-04-1.10543E-13
 -1       437 1.49156E-02-3.94750E-04-1.10271E-13
 -1       438 1.48394E-02-4.52328E-04-1.09988E-13
 -1       439 1.47571E-02-5.18940E-04-1.09702E-13
 -1       440 1.33666E-02-8.26269E-06-8.33087E-14
 -1       441 1.37140E-02-1.80118E-04-8.39888E-14
 -1       442 1.36391E-02-1.25204E-04-8.42468E-14
 -1       443 1.30353E-02 1.39447E-04-8.22162E-14
 -1       444 1.26682E-02 3.27706E-04-8.06411E-14
 -1       445 4.45679E-04-1.26456E-04-1.38737E-16
 -1       446 1.17945E-02 7.60826E-04-7.59882E-14
 -1       447 1.14819E-02 8.38574E-04-7.36653E-14
 -1       448 1.11494E-02 8.23542E-04-7.12370E-14
 -1       449 1.07744E-02 6.96338E-04-6.86106E-14
 -1       450 1.04071E-02 5.14041E-04-6.64487E-14
 -1       451 1.00151E-02 3.13396E-04-6.45516E-14
 -1       452 9.66241E-03 1.45981E-04-6.30257E-14
 -1       453 9.33786E-03 5.42032E-06-6.15143E-14
 -1       454 9.17859E-03-6.62929E-05-6.09851E-14
 -1       455 9.17991E-03-1.22512E-04-6.09211E-14
 -1       456 9.32616E-03-1.89336E-04-6.09197E-14
 -1       457 9.64466E-03-3.29500E-04-6.18781E-14
 -1       458 9.97536E-03-4.89631E-04-6.29188E-14
 -1       459 1.04246E-02-7.31459E-04-6.46143E-14
 -1       460 1.07945E-02-9.40994E-04-6.67360E-14
 -1       461 1.11362E-02-1.08744E-03-6.88761E-14
 -1       462 1.14851E-02-1.15198E-03-7.12743E-14
 -1       463 1.18601E-02-1.08434E-03-7.41062E-14
 -1       464 1.21870E-02-9.42684E-04-7.63494E-14
 -1       465 1.26626E-02-6.91547E-04-7.92161E-14
 -1       466 1.30796E-02-4.86053E-04-8.11740E-14
 -1       467 1.34281E-02-3.30265E-04-8.28690E-14
 -1       468 1.36456E-02-2.40067E-04-8.38353E-14
 -1       469 1.22501E-02 5.43980E-04-7.88191E-14
 -1       470 1.19906E-02 6.70335E-04-7.79896E-14
 -1       471 9.31242E-04 3.46106E-04-5.23707E-16
 -1       472 6.65863E-04-7.51665E-05-3.63591E-16
 -1       473 6.69818E-04-1.15940E-04-3.46477E-16
 -1       474 6.63201E-04 1.10483E-06-3.83045E-16
 -1       475 6.63918E-04 3.87836E-05-3.86755E-16
 -1       476 6.66050E-04 7.68524E-05-3.86084E-16
 -1       477 6.70131E-04 1.17777E-04-3.81019E-16
 -1       478 6.77126E-04 1.62404E-04-3.70628E-16
 -1       479 6.89025E-04 2.12773E-04-3.51935E-16
 -1       480 1.21712E-03 4.06611E-04-8.98370E-16
 -1       481 9.76289E-04-3.28702E-04-4.94467E-16
 -1       482 1.24702E-02 4.03556E-04-8.13392E-14
 -1       483 1.26219E-03-3.83603E-04-8.40033E-16
 -1       484 1.54721E-03-4.23360E-04-1.28188E-15
 -1       485 1.83133E-03-4.51414E-04-1.82277E-15
 -1       486 2.11486E-03-4.70660E-04-2.46259E-15
 -1       487 2.39812E-03-4.83381E-04-3.20235E-15
 -1       488 2.68135E-03-4.91333E-04-4.04292E-15
 -1       489 2.96473E-03-4.95845E-04-4.98420E-15
 -1       490 3.24835E-03-4.97903E-04-6.02508E-15
 -1       491 3.53225E-03-4.98219E-04-7.16488E-15
 -1       492 3.81646E-03-4.97291E-04-8.40547E-15
 -1       493 4.10098E-03-4.95443E-04-9.74644E-15
 -1       494 4.38581E-03-4.92867E-04-1.11833E-14
 -1       495 4.67095E-03-4.89653E-04-1.27164E-14
 -1       496 4.95643E-03-4.85811E-04-1.43486E-14
 -1       497 5.24226E-03-4.81296E-04-1.60788E-14
 -1       498 5.52852E-03-4.76029E-04-1.79084E-14
 -1       499 5.81527E-03-4.69918E-04-1.98397E-14
 -1       500 6.10262E-03-4.62890E-04-2.18736E-14
 -1       501 6.39072E-03-4.54920E-04-2.40095E-14
 -1       502 6.67975E-03-4.46082E-04-2.62485E-14
 -1       503 6.96994E-03-4.36611E-04-2.85874E-14
 -1       504 7.26156E-03-4.26990E-04-3.10212E-14
 -1       505 7.55497E-03-4.18064E-04-3.35533E-14
 -1       506 7.85065E-03-4.11191E-04-3.61811E-14
 -1       507 8.14926E-03-4.08426E-04-3.89070E-14
 -1       508 8.45180E-03-4.12736E-04-4.17282E-14
 -1       509 8.75975E-03-4.28216E-04-4.46364E-14
 -1       510 9.07529E-03-4.60249E-04-4.76282E-14
 -1       511 9.40130E-03-5.15447E-04-5.06988E-14
 -1       512 9.74069E-03-6.00936E-04-5.38497E-14
 -1       513 1.00945E-02-7.22002E-04-5.70793E-14
 -1       514 1.04588E-02-8.76183E-04-6.03934E-14
 -1       515 1.08230E-02-1.04333E-03-6.37955E-14
 -1       516 1.11751E-02-1.17939E-03-6.72948E-14
 -1       517 1.15156E-02-1.23278E-03-7.08934E-14
 -1       518 1.18572E-02-1.18435E-03-7.45862E-14
 -1       519 1.22116E-02-1.06491E-03-7.83763E-14
 -1       520 1.25743E-02-9.26797E-04-8.22500E-14
 -1       521 1.29326E-02-8.06942E-04-8.61990E-14
 -1       522 1.32777E-02-7.18340E-04-9.02032E-14
 -1       523 1.36070E-02-6.58870E-04-9.42531E-14
 -1       524 1.39223E-02-6.20296E-04-9.83390E-14
 -1       525 1.42264E-02-5.92767E-04-1.02457E-13
 -1       526 1.78395E-03 4.81179E-04-1.96125E-15
 -1       527 2.06592E-03 5.02512E-04-2.64970E-15
 -1       528 2.34765E-03 5.16783E-04-3.44050E-15
 -1       529 2.62947E-03 5.25893E-04-4.33323E-15
 -1       530 2.91159E-03 5.31272E-04-5.32972E-15
 -1       531 3.19412E-03 5.33984E-04-6.43162E-15
 -1       532 3.47711E-03 5.34800E-04-7.63609E-15
 -1       533 3.76057E-03 5.34264E-04-8.94212E-15
 -1       534 4.04448E-03 5.32740E-04-1.03503E-14
 -1       535 4.32883E-03 5.30449E-04-1.18640E-14
 -1       536 4.61361E-03 5.27505E-04-1.34821E-14
 -1       537 4.89883E-03 5.23942E-04-1.52056E-14
 -1       538 5.18452E-03 5.19736E-04-1.70301E-14
 -1       539 5.47075E-03 5.14829E-04-1.89564E-14
 -1       540 5.75761E-03 5.09153E-04-2.09884E-14
 -1       541 6.04525E-03 5.02661E-04-2.31262E-14
 -1       542 6.33385E-03 4.95365E-04-2.53685E-14
 -1       543 6.62366E-03 4.87379E-04-2.77106E-14
 -1       544 6.91499E-03 4.78981E-04-3.01514E-14
 -1       545 7.20819E-03 4.70698E-04-3.26906E-14
 -1       546 7.50372E-03 4.63400E-04-3.53245E-14
 -1       547 7.80211E-03 4.58416E-04-3.80580E-14
 -1       548 8.10396E-03 4.57653E-04-4.08853E-14
 -1       549 8.41000E-03 4.63701E-04-4.38042E-14
 -1       550 8.72103E-03 4.79844E-04-4.68057E-14
 -1       551 9.03779E-03 5.09901E-04-4.98793E-14
 -1       552 9.36074E-03 5.57692E-04-5.30305E-14
 -1       553 9.68949E-03 6.25873E-04-5.62598E-14
 -1       554 1.00220E-02 7.13851E-04-5.95754E-14
 -1       555 1.03541E-02 8.14845E-04-6.29773E-14
 -1       556 1.06802E-02 9.13261E-04-6.64661E-14
 -1       557 1.09966E-02 9.85897E-04-7.00328E-14
 -1       558 1.13048E-02 1.00960E-03-7.36617E-14
 -1       559 1.16119E-02 9.73113E-04-7.73604E-14
 -1       560 1.19252E-02 8.85033E-04-8.11296E-14
 -1       561 1.22470E-02 7.67068E-04-8.49690E-14
 -1       562 1.25739E-02 6.42296E-04-8.88545E-14
 -1       563 1.29002E-02 5.26214E-04-9.27820E-14
 -1       564 1.32214E-02 4.25013E-04-9.67417E-14
 -1       565 1.35352E-02 3.37863E-04-1.00731E-13
 -1       566 1.38409E-02 2.59942E-04-1.04745E-13
 -1       567 1.41389E-02 1.84635E-04-1.08777E-13
 -1       568 1.45364E-02-6.83244E-05-1.08309E-13
 -1       569 1.46411E-02-1.30565E-04-1.08090E-13
 -1       570 1.43020E-02 7.72772E-05-1.08735E-13
 -1       571 1.44207E-02 1.32070E-06-1.08524E-13
 -1       572 1.47238E-02-1.84491E-04-1.07860E-13
 -1       573 1.47753E-02-2.31886E-04-1.07620E-13
 -1       574 1.47897E-02-2.76594E-04-1.07369E-13
 -1       575 1.47676E-02-3.22581E-04-1.07111E-13
 -1       576 1.47139E-02-3.75461E-04-1.06833E-13
 -1       577 1.46384E-02-4.36653E-04-1.06543E-13
 -1       578 1.45520E-02-5.06365E-04-1.06245E-13
 -1       579 1.37300E-02-1.69319E-04-8.61563E-14
 -1       580 1.32179E-02 2.71842E-05-8.47821E-14
 -1       581 1.50122E-03 4.50291E-04-1.37743E-15
 -1       582 1.37334E-02-2.06486E-04-8.59996E-14
 -1       583 1.35295E-02-9.35714E-05-8.57234E-14
 -1       584 7.12643E-04-2.51792E-04-2.71444E-16
 -1       585 1.35840E-02-2.66994E-04-8.53579E-14
 -1       586 1.16635E-02-1.15493E-03-7.27156E-14
 -1       587 6.63807E-04-3.65384E-05-3.75530E-16
 -1       588 1.13131E-02 8.64020E-04-7.25699E-14
 -1       589 1.29004E-02-5.60013E-04-8.18044E-14
 -1       590 1.15729E-02 8.38096E-04-7.48756E-14
 -1       591 1.09833E-02 7.91001E-04-6.97274E-14
 -1       592 1.05930E-02 6.09752E-04-6.67187E-14
 -1       593 1.02024E-02 3.95633E-04-6.43116E-14
 -1       594 9.82977E-03 2.04897E-04-6.25141E-14
 -1       595 9.48517E-03 5.62190E-05-6.08787E-14
 -1       596 9.20702E-03-4.47022E-05-5.96915E-14
 -1       597 9.12945E-03-8.94820E-05-5.91805E-14
 -1       598 9.19490E-03-1.27208E-04-5.91767E-14
 -1       599 9.46447E-03-2.26374E-04-5.98279E-14
 -1       600 9.79871E-03-3.72707E-04-6.09113E-14
 -1       601 1.01792E-02-5.73359E-04-6.19811E-14
 -1       602 1.06666E-02-8.59838E-04-6.47310E-14
 -1       603 1.09944E-02-1.03543E-03-6.72589E-14
 -1       604 1.12887E-02-1.14567E-03-6.94321E-14
 -1       605 1.20286E-02-1.02920E-03-7.59197E-14
 -1       606 1.24147E-02-8.21898E-04-7.87706E-14
 -1       607 1.32723E-02-3.86754E-04-8.37260E-14
 -1       608 7.03806E-04 2.90953E-04-2.90515E-16
 -1       609 1.28312E-02 2.09975E-04-8.28745E-14
 -1       610 6.76599E-04-1.60179E-04-3.23323E-16
 -1       611 1.17647E-02 7.81296E-04-7.68571E-14
 -1       612 1.36858E-02-1.42127E-04-8.76331E-14
 -1       613 9.27318E-03-1.59750E-04-5.80906E-14
 -1       614 9.29780E-03 1.94874E-07-5.90548E-14
 -1       615 1.22299E-02 5.44733E-04-8.04908E-14
 -1       616 1.44252E-02-5.77053E-04-1.05253E-13
 -1       617 8.99830E-04 7.41470E-05-6.67526E-16
 -1       618 8.97750E-04 2.51906E-05-6.64880E-16
 -1       619 9.11865E-04 1.78300E-04-6.52903E-16
 -1       620 9.24211E-04 2.36876E-04-6.32730E-16
 -1       621 1.04888E-03 3.14010E-04-7.44254E-16
 -1       622 1.14643E-02-1.19443E-03-7.06776E-14
 -1       623 1.35063E-02-3.26869E-04-8.69037E-14
 -1       624 1.38329E-03-3.37160E-04-1.12937E-15
 -1       625 1.66949E-03-3.68076E-04-1.63560E-15
 -1       626 1.95571E-03-3.89843E-04-2.24007E-15
 -1       627 2.24175E-03-4.04606E-04-2.94281E-15
 -1       628 2.52761E-03-4.14143E-04-3.74391E-15
 -1       629 2.81333E-03-4.19858E-04-4.64543E-15
 -1       630 3.09895E-03-4.22823E-04-5.64670E-15
 -1       631 3.38454E-03-4.23831E-04-6.74627E-15
 -1       632 3.67011E-03-4.23449E-04-7.94562E-15
 -1       633 3.95570E-03-4.22061E-04-9.24541E-15
 -1       634 4.24131E-03-4.19910E-04-1.06427E-14
 -1       635 4.52697E-03-4.17124E-04-1.21368E-14
 -1       636 4.81268E-03-4.13746E-04-1.37273E-14
 -1       637 5.09845E-03-4.09757E-04-1.54184E-14
 -1       638 5.38429E-03-4.05093E-04-1.72074E-14
 -1       639 5.67021E-03-3.99668E-04-1.90962E-14
 -1       640 5.95622E-03-3.93397E-04-2.10889E-14
 -1       641 6.24233E-03-3.86224E-04-2.31836E-14
 -1       642 6.52854E-03-3.78157E-04-2.53786E-14
 -1       643 6.81488E-03-3.69317E-04-2.76761E-14
 -1       644 7.10136E-03-3.60001E-04-3.00726E-14
 -1       645 7.38805E-03-3.50759E-04-3.25662E-14
 -1       646 7.67510E-03-3.42497E-04-3.51553E-14
 -1       647 7.96284E-03-3.36600E-04-3.78395E-14
 -1       648 8.25194E-03-3.35084E-04-4.06199E-14
 -1       649 8.54372E-03-3.40778E-04-4.34925E-14
 -1       650 8.84051E-03-3.57583E-04-4.64484E-14
 -1       651 9.14615E-03-3.90856E-04-4.94825E-14
 -1       652 9.46626E-03-4.47961E-04-5.25952E-14
 -1       653 9.80737E-03-5.38665E-04-5.57826E-14
 -1       654 1.01736E-02-6.73068E-04-5.90495E-14
 -1       655 1.05602E-02-8.52658E-04-6.24022E-14
 -1       656 1.20757E-02-1.05312E-03-7.67602E-14
 -1       657 1.24641E-02-8.90839E-04-8.05946E-14
 -1       658 1.28445E-02-7.51111E-04-8.45082E-14
 -1       659 1.32032E-02-6.53318E-04-8.84835E-14
 -1       660 1.35379E-02-5.92127E-04-9.25051E-14
 -1       661 1.38533E-02-5.55997E-04-9.65647E-14
 -1       662 1.41550E-02-5.33805E-04-1.00657E-13
 -1       663 2.19064E-03 4.37511E-04-3.10247E-15
 -1       664 1.40075E-02 1.42771E-04-1.04697E-13
 -1       665 1.90566E-03 4.20789E-04-2.35944E-15
 -1       666 2.76008E-03 4.55212E-04-4.88936E-15
 -1       667 3.04476E-03 4.58921E-04-5.93750E-15
 -1       668 3.32951E-03 4.60467E-04-7.08867E-15
 -1       669 3.61437E-03 4.60481E-04-8.34094E-15
 -1       670 3.89938E-03 4.59392E-04-9.69354E-15
 -1       671 4.18453E-03 4.57479E-04-1.11493E-14
 -1       672 4.46985E-03 4.54898E-04-1.27105E-14
 -1       673 4.75534E-03 4.51713E-04-1.43737E-14
 -1       674 5.04102E-03 4.47922E-04-1.61418E-14
 -1       675 5.32692E-03 4.43477E-04-1.80099E-14
 -1       676 5.61307E-03 4.38305E-04-1.99818E-14
 -1       677 5.89952E-03 4.32337E-04-2.20583E-14
 -1       678 6.18636E-03 4.25535E-04-2.42373E-14
 -1       679 6.47369E-03 4.17931E-04-2.65187E-14
 -1       680 6.76164E-03 4.09673E-04-2.89006E-14
 -1       681 7.05041E-03 4.01088E-04-3.13792E-14
 -1       682 7.34028E-03 3.92763E-04-3.39543E-14
 -1       683 7.63165E-03 3.85636E-04-3.66259E-14
 -1       684 7.92510E-03 3.81107E-04-3.93948E-14
 -1       685 8.22148E-03 3.81156E-04-4.22573E-14
 -1       686 8.52203E-03 3.88455E-04-4.52085E-14
 -1       687 8.82845E-03 4.06433E-04-4.82362E-14
 -1       688 9.14278E-03 4.39223E-04-5.13373E-14
 -1       689 9.46703E-03 4.91299E-04-5.45160E-14
 -1       690 9.80203E-03 5.66300E-04-5.77747E-14
 -1       691 1.01457E-02 6.64273E-04-6.11173E-14
 -1       692 1.04919E-02 7.77061E-04-6.45478E-14
 -1       693 1.08305E-02 8.81351E-04-6.80596E-14
 -1       694 1.11585E-02 9.45799E-04-7.16439E-14
 -1       695 1.14791E-02 9.40259E-04-7.53062E-14
 -1       696 1.18049E-02 8.63637E-04-7.90380E-14
 -1       697 1.21418E-02 7.41069E-04-8.28437E-14
 -1       698 1.24859E-02 6.06111E-04-8.67050E-14
 -1       699 1.28280E-02 4.81788E-04-9.06143E-14
 -1       700 1.31612E-02 3.76609E-04-9.45610E-14
 -1       701 1.34826E-02 2.89594E-04-9.85386E-14
 -1       702 1.37484E-02 2.12482E-04-1.01612E-13
 -1       703 1.30330E-02 1.20487E-04-8.55561E-14
 -1       704 1.45324E-02-1.90866E-04-1.04214E-13
 -1       705 1.43552E-02-5.20370E-04-1.03446E-13
 -1       706 1.43522E-02-6.75482E-05-1.04686E-13
 -1       707 1.45690E-02-2.40896E-04-1.03960E-13
 -1       708 1.44565E-02-1.34166E-04-1.04457E-13
 -1       709 1.45625E-02-2.89427E-04-1.03698E-13
 -1       710 1.45162E-02-3.44279E-04-1.03423E-13
 -1       711 1.44406E-02-4.08483E-04-1.03130E-13
 -1       712 1.43991E-02-4.62713E-04-1.03291E-13
 -1       713 1.26982E-02-6.95389E-04-8.15926E-14
 -1       714 8.72352E-04-2.47232E-04-4.65753E-16
 -1       715 1.38095E-02-1.94013E-04-8.85735E-14
 -1       716 1.34366E-02-5.05467E-05-8.72957E-14
 -1       717 9.08473E-03-6.21545E-05-5.72638E-14
 -1       718 1.14341E-02 8.77582E-04-7.39754E-14
 -1       719 1.62031E-03 3.96319E-04-1.71863E-15
 -1       720 2.47541E-03 4.48469E-04-3.94484E-15
 -1       721 1.12693E-03-2.97206E-04-7.60625E-16
 -1       722 9.04264E-04 1.24673E-04-6.63810E-16
 -1       723 1.33461E-03 3.61656E-04-1.18040E-15
 -1       724 1.17806E-02-1.15081E-03-7.38406E-14
 -1       725 9.03891E-04-1.22260E-04-6.18182E-16
 -1       726 1.22719E-02-9.37228E-04-7.84045E-14
 -1       727 1.37409E-02-2.35030E-04-8.79074E-14
 -1       728 9.58523E-03-2.83562E-04-5.87540E-14
 -1       729 1.03531E-02 5.12060E-04-6.43974E-14
 -1       730 9.94546E-03 2.91408E-04-6.18695E-14
 -1       731 9.62686E-03 1.37514E-04-6.02481E-14
 -1       732 9.09622E-03-9.88745E-05-5.73269E-14
 -1       733 9.89307E-03-4.34604E-04-5.96964E-14
 -1       734 1.04045E-02-7.35926E-04-6.18794E-14
 -1       735 1.08978E-02-1.01018E-03-6.55853E-14
 -1       736 1.11901E-02-1.13757E-03-6.81044E-14
 -1       737 1.07823E-02 7.41502E-04-6.77089E-14
 -1       738 1.27128E-02 2.83904E-04-8.39962E-14
 -1       739 1.31577E-02-4.68342E-04-8.47023E-14
 -1       740 1.11257E-02 8.58326E-04-7.09131E-14
 -1       741 9.11263E-04-1.75661E-04-5.87787E-16
 -1       742 8.97688E-04-2.31690E-05-6.55607E-16
 -1       743 1.16137E-02 8.50585E-04-7.59423E-14
 -1       744 1.19996E-02 6.84159E-04-7.93353E-14
 -1       745 1.42332E-02 8.08979E-06-1.04909E-13
 -1       746 1.32881E-02 3.17028E-05-8.80658E-14
 -1       747 1.36325E-02-1.05697E-04-8.92082E-14
 -1       748 9.11273E-03-2.75633E-05-5.66312E-14
 -1       749 9.40602E-03 7.04247E-05-5.84249E-14
 -1       750 8.99624E-04-7.18605E-05-6.40543E-16
 -1       751 9.35844E-03-2.07781E-04-5.70271E-14
 -1       752 1.24851E-02 4.21516E-04-8.31307E-14
 -1       753 1.16158E-03 2.43733E-04-9.92472E-16
 -1       754 1.04948E-02 6.49635E-04-6.49632E-14
 -1       755 1.79735E-03-3.09580E-04-2.01110E-15
 -1       756 2.08503E-03-3.25637E-04-2.67718E-15
 -1       757 2.37284E-03-3.36363E-04-3.44049E-15
 -1       758 2.66056E-03-3.43097E-04-4.30240E-15
 -1       759 2.94807E-03-3.46912E-04-5.26453E-15
 -1       760 3.23535E-03-3.48629E-04-6.32485E-15
 -1       761 3.52237E-03-3.48852E-04-7.48318E-15
 -1       762 3.80916E-03-3.48007E-04-8.74133E-15
 -1       763 4.09572E-03-3.46374E-04-1.00972E-14
 -1       764 4.38206E-03-3.44119E-04-1.15518E-14
 -1       765 4.66819E-03-3.41317E-04-1.31039E-14
 -1       766 4.95410E-03-3.37978E-04-1.47525E-14
 -1       767 5.23978E-03-3.34062E-04-1.65019E-14
 -1       768 5.52518E-03-3.29501E-04-1.83504E-14
 -1       769 5.81024E-03-3.24216E-04-2.02995E-14
 -1       770 6.09487E-03-3.18141E-04-2.23539E-14
 -1       771 6.37897E-03-3.11251E-04-2.45084E-14
 -1       772 6.66238E-03-3.03594E-04-2.67631E-14
 -1       773 6.94493E-03-2.95334E-04-2.91202E-14
 -1       774 7.22645E-03-2.86806E-04-3.15757E-14
 -1       775 7.50676E-03-2.78577E-04-3.41270E-14
 -1       776 7.78580E-03-2.71510E-04-3.67711E-14
 -1       777 8.06372E-03-2.66845E-04-3.95089E-14
 -1       778 8.34113E-03-2.66288E-04-4.23413E-14
 -1       779 8.61947E-03-2.72168E-04-4.52637E-14
 -1       780 8.90166E-03-2.87778E-04-4.82660E-14
 -1       781 9.19305E-03-3.18301E-04-5.13421E-14
 -1       782 9.50207E-03-3.72211E-04-5.44890E-14
 -1       783 1.31632E-02-5.66264E-04-8.67917E-14
 -1       784 1.34978E-02-5.07149E-04-9.07875E-14
 -1       785 1.38068E-02-4.77866E-04-9.48231E-14
 -1       786 1.41005E-02-4.63938E-04-9.88946E-14
 -1       787 3.46650E-03 3.85924E-04-7.74585E-15
 -1       788 2.03277E-03 3.57714E-04-2.76786E-15
 -1       789 3.18009E-03 3.85272E-04-6.54740E-15
 -1       790 2.89351E-03 3.82935E-04-5.44997E-15
 -1       791 3.75278E-03 3.85374E-04-9.04500E-15
 -1       792 4.03893E-03 3.83948E-04-1.04451E-14
 -1       793 4.32498E-03 3.81842E-04-1.19473E-14
 -1       794 4.61093E-03 3.79155E-04-1.35537E-14
 -1       795 4.89679E-03 3.75911E-04-1.52630E-14
 -1       796 5.18255E-03 3.72082E-04-1.70730E-14
 -1       797 5.46822E-03 3.67604E-04-1.89867E-14
 -1       798 5.75378E-03 3.62402E-04-2.10028E-14
 -1       799 6.03922E-03 3.56411E-04-2.31219E-14
 -1       800 6.32452E-03 3.49604E-04-2.53426E-14
 -1       801 6.60969E-03 3.42030E-04-2.76636E-14
 -1       802 6.89477E-03 3.33853E-04-3.00834E-14
 -1       803 7.17984E-03 3.25415E-04-3.25992E-14
 -1       804 7.46511E-03 3.17295E-04-3.52111E-14
 -1       805 7.75097E-03 3.10400E-04-3.79215E-14
 -1       806 8.03815E-03 3.06052E-04-4.07271E-14
 -1       807 8.32785E-03 3.06121E-04-4.36230E-14
 -1       808 8.62198E-03 3.13186E-04-4.66035E-14
 -1       809 8.92336E-03 3.30761E-04-4.96575E-14
 -1       810 9.23574E-03 3.63576E-04-5.27866E-14
 -1       811 9.56320E-03 4.17800E-04-5.59905E-14
 -1       812 9.90826E-03 4.99944E-04-5.92789E-14
 -1       813 1.09924E-02 8.70203E-04-6.96693E-14
 -1       814 1.20245E-02 7.29068E-04-8.07348E-14
 -1       815 1.23884E-02 5.76448E-04-8.45712E-14
 -1       816 1.27494E-02 4.38324E-04-8.84594E-14
 -1       817 1.30968E-02 3.26867E-04-9.23936E-14
 -1       818 1.34270E-02 2.40060E-04-9.63601E-14
 -1       819 1.43626E-02-2.52656E-04-1.00309E-13
 -1       820 1.43265E-02-3.06793E-04-1.00033E-13
 -1       821 1.43466E-02-2.02291E-04-1.00575E-13
 -1       822 1.34229E-02-4.14027E-04-8.79677E-14
 -1       823 1.01491E-02-5.86560E-04-6.04335E-14
 -1       824 1.24624E-03 3.00954E-04-1.08840E-15
 -1       825 1.74571E-03 3.39180E-04-2.07320E-15
 -1       826 1.38852E-02-2.24389E-04-9.09219E-14
 -1       827 1.38469E-02-1.68259E-04-9.09622E-14
 -1       828 1.00455E-02 4.18916E-04-6.14356E-14
 -1       829 1.51025E-03-2.86627E-04-1.44263E-15
 -1       830 9.63392E-03-3.43107E-04-5.73166E-14
 -1       831 9.68226E-03 2.22058E-04-5.92749E-14
 -1       832 8.99401E-03-7.59326E-05-5.52826E-14
 -1       833 1.37751E-02-2.84824E-04-9.04899E-14
 -1       834 1.42500E-02-3.72189E-04-9.97410E-14
 -1       835 9.10077E-03-1.26863E-04-5.55814E-14
 -1       836 1.13836E-03 5.90808E-05-1.02017E-15
 -1       837 1.29464E-02 2.01915E-04-8.67804E-14
 -1       838 9.86413E-03-4.68809E-04-5.80331E-14
 -1       839 1.13701E-03 1.19667E-06-1.01105E-15
 -1       840 2.60675E-03 3.78228E-04-4.45505E-15
 -1       841 1.40474E-02 4.02145E-06-1.01304E-13
 -1       842 1.25392E-03-2.56319E-04-1.01797E-15
 -1       843 1.02682E-02 6.12723E-04-6.26509E-14
 -1       844 1.16697E-02 8.60603E-04-7.69794E-14
 -1       845 1.36984E-02 1.64803E-04-9.94263E-14
 -1       846 1.42792E-02-1.46029E-04-1.00830E-13
 -1       847 1.41738E-02-7.76423E-05-1.01071E-13
 -1       848 1.35142E-02-4.05817E-05-8.99780E-14
 -1       849 1.14930E-03-1.76204E-04-9.32136E-16
 -1       850 8.97092E-03-4.79228E-05-5.46608E-14
 -1       851 9.16944E-03 2.68604E-05-5.60081E-14
 -1       852 1.14245E-03 1.17860E-04-1.02048E-15
 -1       853 1.22519E-02 5.70835E-04-8.19560E-14
 -1       854 2.31983E-03 3.70226E-04-3.56221E-15
 -1       855 9.45671E-03 1.50688E-04-5.74622E-14
 -1       856 1.14984E-03 1.79065E-04-1.01193E-15
 -1       857 1.27356E-02 3.24785E-04-8.59011E-14
 -1       858 1.38954E-02 1.05514E-04-1.01461E-13
 -1       859 1.49561E-03 3.24215E-04-1.54151E-15
 -1       860 1.14213E-03-1.15247E-04-9.67905E-16
 -1       861 9.15351E-03-1.81078E-04-5.42129E-14
 -1       862 2.21849E-03-2.58891E-04-3.13357E-15
 -1       863 2.50759E-03-2.66125E-04-3.95670E-15
 -1       864 2.79662E-03-2.70493E-04-4.87893E-15
 -1       865 3.08539E-03-2.72770E-04-5.90008E-15
 -1       866 3.37380E-03-2.73545E-04-7.01886E-15
 -1       867 3.66180E-03-2.73248E-04-8.23476E-15
 -1       868 3.94937E-03-2.72174E-04-9.54995E-15
 -1       869 4.23651E-03-2.70510E-04-1.09637E-14
 -1       870 4.52322E-03-2.68358E-04-1.24758E-14
 -1       871 4.80947E-03-2.65753E-04-1.40846E-14
 -1       872 5.09523E-03-2.62682E-04-1.57922E-14
 -1       873 5.38044E-03-2.59101E-04-1.76007E-14
 -1       874 5.66498E-03-2.54949E-04-1.95084E-14
 -1       875 5.94872E-03-2.50167E-04-2.15192E-14
 -1       876 6.23145E-03-2.44719E-04-2.36338E-14
 -1       877 6.51294E-03-2.38615E-04-2.58492E-14
 -1       878 6.79287E-03-2.31941E-04-2.81660E-14
 -1       879 7.07088E-03-2.24894E-04-3.05803E-14
 -1       880 7.34656E-03-2.17814E-04-3.30934E-14
 -1       881 7.61950E-03-2.11220E-04-3.57013E-14
 -1       882 7.88931E-03-2.05835E-04-3.83999E-14
 -1       883 8.15580E-03-2.02596E-04-4.11905E-14
 -1       884 8.41913E-03-2.02681E-04-4.40747E-14
 -1       885 8.68023E-03-2.07611E-04-4.70423E-14
 -1       886 8.94143E-03-2.19671E-04-5.00873E-14
 -1       887 9.26829E-03-2.60360E-04-5.36559E-14
 -1       888 1.32543E-02 1.03537E-04-8.99384E-14
 -1       889 1.37815E-02-3.94263E-04-9.30899E-14
 -1       890 1.40202E-02-3.79630E-04-9.64087E-14
 -1       891 3.89237E-03 3.09752E-04-9.75036E-15
 -1       892 3.60512E-03 3.10632E-04-8.40520E-15
 -1       893 3.02960E-03 3.09346E-04-6.01512E-15
 -1       894 4.17927E-03 3.08200E-04-1.11956E-14
 -1       895 4.46584E-03 3.06102E-04-1.27442E-14
 -1       896 4.75207E-03 3.03509E-04-1.43946E-14
 -1       897 5.03793E-03 3.00416E-04-1.61479E-14
 -1       898 5.32340E-03 2.96777E-04-1.80023E-14
 -1       899 5.60842E-03 2.92524E-04-1.99597E-14
 -1       900 5.89291E-03 2.87585E-04-2.20207E-14
 -1       901 6.17677E-03 2.81902E-04-2.41838E-14
 -1       902 6.45989E-03 2.75456E-04-2.64429E-14
 -1       903 6.74217E-03 2.68296E-04-2.88016E-14
 -1       904 7.02351E-03 2.60574E-04-3.12601E-14
 -1       905 7.30390E-03 2.52588E-04-3.38156E-14
 -1       906 7.58345E-03 2.44830E-04-3.64655E-14
 -1       907 7.86255E-03 2.38043E-04-3.92135E-14
 -1       908 8.14197E-03 2.33307E-04-4.20548E-14
 -1       909 8.42320E-03 2.32178E-04-4.49825E-14
 -1       910 8.70875E-03 2.36968E-04-4.79884E-14
 -1       911 9.00254E-03 2.51191E-04-5.10708E-14
 -1       912 9.31033E-03 2.80705E-04-5.42264E-14
 -1       913 9.63920E-03 3.34809E-04-5.74589E-14
 -1       914 1.33926E-02 1.71565E-04-9.41646E-14
 -1       915 1.41510E-02-2.66248E-04-9.66676E-14
 -1       916 1.41683E-02-2.15574E-04-9.69442E-14
 -1       917 1.39740E-02-2.61524E-04-9.34402E-14
 -1       918 1.30559E-02 2.56390E-04-9.02069E-14
 -1       919 1.13821E-03-5.65396E-05-9.93912E-16
 -1       920 3.31753E-03 3.10613E-04-7.15987E-15
 -1       921 1.38223E-02-1.20934E-04-9.28738E-14
 -1       922 1.64169E-03-2.31834E-04-1.77964E-15
 -1       923 1.92967E-03-2.47831E-04-2.40834E-15
 -1       924 1.40062E-02-2.03222E-04-9.36882E-14
 -1       925 1.87599E-03 2.78816E-04-2.43989E-15
 -1       926 1.40979E-02-3.17112E-04-9.65445E-14
 -1       927 8.89888E-03-9.83802E-05-5.27459E-14
 -1       928 2.74135E-03 3.06327E-04-4.97117E-15
 -1       929 8.83074E-03-6.88517E-05-5.21412E-14
 -1       930 1.38118E-03 3.41267E-05-1.44022E-15
 -1       931 1.40351E-03-2.01911E-04-1.34293E-15
 -1       932 1.36679E-02 1.00471E-04-9.72231E-14
 -1       933 1.41170E-02-1.63203E-04-9.72083E-14
 -1       934 1.62462E-03 2.70160E-04-1.86351E-15
 -1       935 1.34824E-02 2.62413E-05-9.18584E-14
 -1       936 1.38690E-02-9.62843E-06-9.77080E-14
 -1       937 8.98226E-03-6.78819E-06-5.40484E-14
 -1       938 1.32019E-03 2.48867E-04-1.26718E-15
 -1       939 1.38431E-03 9.98713E-05-1.44769E-15
 -1       940 1.39519E-03-1.33406E-04-1.38940E-15
 -1       941 2.16432E-03 2.92076E-04-3.18579E-15
 -1       942 2.35550E-03-1.89740E-04-3.61031E-15
 -1       943 2.64553E-03-1.94097E-04-4.49319E-15
 -1       944 2.93545E-03-1.96584E-04-5.47398E-15
 -1       945 3.22503E-03-1.97710E-04-6.55252E-15
 -1       946 3.51412E-03-1.97859E-04-7.72736E-15
 -1       947 3.80268E-03-1.97306E-04-9.00009E-15
 -1       948 4.09064E-03-1.96234E-04-1.03723E-14
 -1       949 4.37801E-03-1.94753E-04-1.18443E-14
 -1       950 4.66475E-03-1.92916E-04-1.34140E-14
 -1       951 4.95081E-03-1.90733E-04-1.50805E-14
 -1       952 5.23612E-03-1.88182E-04-1.68483E-14
 -1       953 5.52055E-03-1.85227E-04-1.87163E-14
 -1       954 5.80394E-03-1.81826E-04-2.06847E-14
 -1       955 6.08603E-03-1.77949E-04-2.27559E-14
 -1       956 6.36655E-03-1.73593E-04-2.49305E-14
 -1       957 6.64509E-03-1.68806E-04-2.72079E-14
 -1       958 6.92120E-03-1.63705E-04-2.95825E-14
 -1       959 7.19433E-03-1.58500E-04-3.20557E-14
 -1       960 7.46382E-03-1.53511E-04-3.46258E-14
 -1       961 7.72897E-03-1.49171E-04-3.72886E-14
 -1       962 7.98895E-03-1.46006E-04-4.00383E-14
 -1       963 8.24290E-03-1.44602E-04-4.28810E-14
 -1       964 8.48992E-03-1.45538E-04-4.58130E-14
 -1       965 8.72925E-03-1.49425E-04-4.88250E-14
 -1       966 8.94061E-03-1.61576E-04-5.14938E-14
 -1       967 1.77693E-03-1.72751E-04-2.13894E-15
 -1       968 4.60709E-03 2.30549E-04-1.35398E-14
 -1       969 3.74525E-03 2.34876E-04-9.06610E-15
 -1       970 4.03306E-03 2.33898E-04-1.04554E-14
 -1       971 4.89326E-03 2.28263E-04-1.52345E-14
 -1       972 5.17881E-03 2.25552E-04-1.70306E-14
 -1       973 5.46365E-03 2.22363E-04-1.89302E-14
 -1       974 5.74766E-03 2.18631E-04-2.09321E-14
 -1       975 6.03068E-03 2.14290E-04-2.30368E-14
 -1       976 6.31253E-03 2.09288E-04-2.52388E-14
 -1       977 6.59299E-03 2.03603E-04-2.75379E-14
 -1       978 6.87180E-03 1.97263E-04-2.99366E-14
 -1       979 7.14876E-03 1.90372E-04-3.24334E-14
 -1       980 7.42369E-03 1.83126E-04-3.50300E-14
 -1       981 7.69656E-03 1.75841E-04-3.77193E-14
 -1       982 7.96756E-03 1.68985E-04-4.05028E-14
 -1       983 8.23735E-03 1.63238E-04-4.33767E-14
 -1       984 8.50727E-03 1.59646E-04-4.63326E-14
 -1       985 8.77992E-03 1.60179E-04-4.93694E-14
 -1       986 9.06025E-03 1.67720E-04-5.24805E-14
 -1       987 1.34284E-02 1.00182E-04-9.30145E-14
 -1       988 1.39049E-03-6.68151E-05-1.42369E-15
 -1       989 9.36520E-03 1.81056E-04-5.58942E-14
 -1       990 1.40079E-02-9.53148E-05-9.74610E-14
 -1       991 1.38494E-03-1.61828E-05-1.43472E-15
 -1       992 2.06576E-03-1.82874E-04-2.82601E-15
 -1       993 2.45287E-03 3.00871E-04-4.02903E-15
 -1       994 1.39080E-03 1.67249E-04-1.44436E-15
 -1       995 4.32035E-03 2.32432E-04-1.19473E-14
 -1       996 1.58540E-03-1.53416E-04-1.74402E-15
 -1       997 1.36553E-02 3.96292E-05-9.53557E-14
 -1       998 8.73078E-03-9.29395E-05-5.00803E-14
 -1       999 1.62979E-03 1.10575E-05-1.93295E-15
 -1      1000 3.16811E-03 2.34718E-04-6.58498E-15
 -1      1001 2.87886E-03 2.33012E-04-5.49388E-15
 -1      1002 2.01033E-03 2.15261E-04-2.81795E-15
 -1      1003 1.75774E-03 2.12105E-04-2.19931E-15
 -1      1004 8.79191E-03-3.43076E-05-5.15472E-14
 -1      1005 9.15241E-03 1.01665E-04-5.44042E-14
 -1      1006 3.45692E-03 2.35226E-04-7.77602E-15
 -1      1007 8.94337E-03 5.55673E-05-5.24723E-14
 -1      1008 1.63198E-03 8.27284E-05-1.94858E-15
 -1      1009 2.29967E-03 2.23978E-04-3.61160E-15
 -1      1010 1.91557E-03-1.09543E-04-2.52027E-15
 -1      1011 1.63448E-03-4.41075E-05-1.92174E-15
 -1      1012 2.49565E-03-1.18401E-04-4.10715E-15
 -1      1013 2.78628E-03-1.20541E-04-5.04710E-15
 -1      1014 3.07670E-03-1.21652E-04-6.08458E-15
 -1      1015 3.36668E-03-1.22022E-04-7.21968E-15
 -1      1016 3.65607E-03-1.21857E-04-8.44987E-15
 -1      1017 3.94481E-03-1.21304E-04-9.77886E-15
 -1      1018 4.23284E-03-1.20457E-04-1.12098E-14
 -1      1019 4.52013E-03-1.19368E-04-1.27392E-14
 -1      1020 4.80664E-03-1.18058E-04-1.43667E-14
 -1      1021 5.09227E-03-1.16525E-04-1.60919E-14
 -1      1022 5.37692E-03-1.14754E-04-1.79201E-14
 -1      1023 5.66040E-03-1.12725E-04-1.98483E-14
 -1      1024 5.94247E-03-1.10424E-04-2.18778E-14
 -1      1025 6.22282E-03-1.07854E-04-2.40097E-14
 -1      1026 6.50105E-03-1.05046E-04-2.62437E-14
 -1      1027 6.77666E-03-1.02081E-04-2.85793E-14
 -1      1028 7.04906E-03-9.90956E-05-3.10120E-14
 -1      1029 7.31752E-03-9.63015E-05-3.35424E-14
 -1      1030 7.58118E-03-9.39851E-05-3.61676E-14
 -1      1031 7.83898E-03-9.24957E-05-3.88826E-14
 -1      1032 8.08957E-03-9.22078E-05-4.16852E-14
 -1      1033 8.33117E-03-9.34627E-05-4.45787E-14
 -1      1034 5.03455E-03 1.53700E-04-1.60734E-14
 -1      1035 3.88672E-03 1.58938E-04-9.72848E-15
 -1      1036 5.31951E-03 1.51616E-04-1.79123E-14
 -1      1037 5.60347E-03 1.49156E-04-1.98569E-14
 -1      1038 5.88623E-03 1.46263E-04-2.19020E-14
 -1      1039 6.16755E-03 1.42877E-04-2.40459E-14
 -1      1040 6.44713E-03 1.38948E-04-2.62884E-14
 -1      1041 6.72464E-03 1.34438E-04-2.86306E-14
 -1      1042 6.99970E-03 1.29335E-04-3.10688E-14
 -1      1043 7.27190E-03 1.23658E-04-3.36077E-14
 -1      1044 7.54087E-03 1.17460E-04-3.62426E-14
 -1      1045 7.80627E-03 1.10830E-04-3.89711E-14
 -1      1046 8.06789E-03 1.03895E-04-4.17899E-14
 -1      1047 8.32580E-03 9.68376E-05-4.46940E-14
 -1      1048 8.58070E-03 9.00650E-05-4.76820E-14
 -1      1049 2.58931E-03 2.29640E-04-4.50299E-15
 -1      1050 1.60893E-03-9.89358E-05-1.83558E-15
 -1      1051 4.74870E-03 1.55457E-04-1.43360E-14
 -1      1052 8.66156E-03-5.73280E-05-4.95043E-14
 -1      1053 2.20522E-03-1.14874E-04-3.26502E-15
 -1      1054 4.46208E-03 1.56918E-04-1.26995E-14
 -1      1055 4.17474E-03 1.58087E-04-1.11624E-14
 -1      1056 8.56134E-03-9.65153E-05-4.75556E-14
 -1      1057 3.59805E-03 1.59397E-04-8.39484E-15
 -1      1058 1.69524E-03 1.56031E-04-2.07835E-15
 -1      1059 8.71432E-03 1.56076E-05-5.00086E-14
 -1      1060 2.14817E-03 1.48548E-04-3.20536E-15
 -1      1061 1.87974E-03 4.99647E-05-2.51202E-15
 -1      1062 3.30876E-03 1.59336E-04-7.15909E-15
 -1      1063 1.88320E-03-8.84192E-06-2.50241E-15
 -1      1064 3.01895E-03 1.58558E-04-6.02207E-15
 -1      1065 2.63857E-03-4.51946E-05-4.62051E-15
 -1      1066 2.92944E-03-4.57809E-05-5.61649E-15
 -1      1067 3.22001E-03-4.60218E-05-6.70996E-15
 -1      1068 3.51002E-03-4.60139E-05-7.89949E-15
 -1      1069 3.79936E-03-4.58270E-05-9.18645E-15
 -1      1070 4.08797E-03-4.55088E-05-1.05726E-14
 -1      1071 4.37580E-03-4.50878E-05-1.20605E-14
 -1      1072 4.66279E-03-4.45812E-05-1.36488E-14
 -1      1073 4.94888E-03-4.39958E-05-1.53342E-14
 -1      1074 5.23395E-03-4.33299E-05-1.71196E-14
 -1      1075 5.51785E-03-4.25850E-05-1.90073E-14
 -1      1076 5.80036E-03-4.17657E-05-2.09948E-14
 -1      1077 6.08117E-03-4.08874E-05-2.30868E-14
 -1      1078 6.35992E-03-3.99836E-05-2.52781E-14
 -1      1079 6.63613E-03-3.91149E-05-2.75711E-14
 -1      1080 6.90924E-03-3.83790E-05-2.99633E-14
 -1      1081 7.17856E-03-3.79207E-05-3.24525E-14
 -1      1082 7.44327E-03-3.79396E-05-3.50376E-14
 -1      1083 7.70235E-03-3.86930E-05-3.77163E-14
 -1      1084 7.95451E-03-4.04884E-05-4.04829E-14
 -1      1085 8.19796E-03-4.36626E-05-4.33395E-14
 -1      1086 5.46023E-03 7.88463E-05-1.87936E-14
 -1      1087 8.44553E-03-5.05998E-05-4.64795E-14
 -1      1088 5.17599E-03 8.00579E-05-1.69097E-14
 -1      1089 6.02460E-03 7.56579E-05-2.28646E-14
 -1      1090 6.30416E-03 7.35821E-05-2.50497E-14
 -1      1091 6.58147E-03 7.11098E-05-2.73355E-14
 -1      1092 6.85606E-03 6.81780E-05-2.97188E-14
 -1      1093 7.12739E-03 6.47167E-05-3.21986E-14
 -1      1094 7.39486E-03 6.06444E-05-3.47782E-14
 -1      1095 7.65778E-03 5.58597E-05-3.74521E-14
 -1      1096 7.91541E-03 5.02311E-05-4.02163E-14
 -1      1097 8.16683E-03 4.35882E-05-4.30693E-14
 -1      1098 8.41085E-03 3.56227E-05-4.60072E-14
 -1      1099 2.43833E-03 1.53601E-04-4.04566E-15
 -1      1100 2.05738E-03-4.24892E-05-2.92234E-15
 -1      1101 2.34770E-03-4.41536E-05-3.72240E-15
 -1      1102 5.74318E-03 7.73951E-05-2.07794E-14
 -1      1103 4.89066E-03 8.10680E-05-1.51313E-14
 -1      1104 8.56849E-03-1.83844E-05-4.82374E-14
 -1      1105 3.74065E-03 8.34180E-05-9.01379E-15
 -1      1106 4.60439E-03 8.19038E-05-1.34517E-14
 -1      1107 2.28920E-03 7.90193E-05-3.60162E-15
 -1      1108 2.72871E-03 1.56771E-04-4.98434E-15
 -1      1109 4.02933E-03 8.30935E-05-1.03919E-14
 -1      1110 1.90632E-03 1.12214E-04-2.58129E-15
 -1      1111 3.45126E-03 8.35010E-05-7.73640E-15
 -1      1112 2.05282E-03 1.83346E-05-2.93852E-15
 -1      1113 3.16123E-03 8.32526E-05-6.55474E-15
 -1      1114 2.78384E-03 2.94659E-05-5.14974E-15
 -1      1115 4.51936E-03 2.96850E-05-1.29271E-14
 -1      1116 2.57990E-03 8.12114E-05-4.48729E-15
 -1      1117 2.14184E-03 7.73001E-05-3.18910E-15
 -1      1118 4.31726E-03 8.25810E-05-1.18705E-14
 -1      1119 2.41799E-03 2.39689E-05-3.96642E-15
 -1      1120 0.00000E+00 0.00000E+00 0.00000E+00
 -1      1121 0.00000E+00 0.00000E+00 0.00000E+00
 -1      1122 0.00000E+00 0.00000E+00 0.00000E+00
 -1      1123 0.00000E+00 0.00000E+00 0.00000E+00
 -1      1124 0.00000E+00 0.00000E+00 0.00000E+00
 -1      1125 0.00000E+00 0.00000E+00 0.00000E+00
 -1      1126 0.00000E+00 0.00000E+00 0.00000E+00
 -1      1127 0.00000E+00 0.00000E+00 0.00000E+00
 -1      1128 0.00000E+00 0.00000E+00 0.00000E+00
 -1      1129 0.00000E+00 0.00000E+00 0.00000E+00
 -1      1130 0.00000E+00 0.00000E+00 0.00000E+00
 -1      1131 0.00000E+00 0.00000E+00 0.00000E+00
 -1      1132 0.00000E+00 0.00000E+00 0.00000E+00
 -1      1133 0.00000E+00 0.00000E+00 0.00000E+00
 -1      1134 0.00000E+00 0.00000E+00 0.00000E+00
 -1      1135 0.00000E+00 0.00000E+00 0.00000E+00
 -1      1136 0.00000E+00 0.00000E+00 0.00000E+00
 -1      1137 2.11671E-04-1.48339E-04 2.68069E-17
 -1      1138 5.51641E-04-3.37538E-04 2.56956E-17
 -1      1139 8.33456E-04-4.59047E-04-6.04578E-17
 -1      1140 1.10302E-03-5.40745E-04-2.47171E-16
 -1      1141 1.36842E-03-5.98007E-04-5.35244E-16
 -1      1142 1.63320E-03-6.38723E-04-9.24960E-16
 -1      1143 1.89923E-03-6.67537E-04-1.41647E-15
 -1      1144 2.16734E-03-6.87567E-04-2.01187E-15
 -1      1145 2.43782E-03-7.01092E-04-2.71391E-15
 -1      1146 2.71068E-03-7.09825E-04-3.52237E-15
 -1      1147 2.98573E-03-7.15060E-04-4.43493E-15
 -1      1148 3.26275E-03-7.17762E-04-5.44692E-15
 -1      1149 3.54147E-03-7.18636E-04-6.55716E-15
 -1      1150 3.82162E-03-7.18181E-04-7.76992E-15
 -1      1151 4.10298E-03-7.16735E-04-9.08427E-15
 -1      1152 4.38537E-03-7.14506E-04-1.04944E-14
 -1      1153 4.66865E-03-7.11605E-04-1.20030E-14
 -1      1154 4.95277E-03-7.08069E-04-1.36096E-14
 -1      1155 5.23775E-03-7.03882E-04-1.53135E-14
 -1      1156 5.52370E-03-6.99001E-04-1.71167E-14
 -1      1157 5.81085E-03-6.93376E-04-1.90227E-14
 -1      1158 6.09953E-03-6.86983E-04-2.10296E-14
 -1      1159 6.39026E-03-6.79858E-04-2.31369E-14
 -1      1160 6.68372E-03-6.72151E-04-2.53487E-14
 -1      1161 6.98078E-03-6.64190E-04-2.76607E-14
 -1      1162 7.28256E-03-6.56585E-04-3.00667E-14
 -1      1163 7.59040E-03-6.50350E-04-3.25712E-14
 -1      1164 7.90583E-03-6.47082E-04-3.51770E-14
 -1      1165 8.23046E-03-6.49166E-04-3.78863E-14
 -1      1166 8.56572E-03-6.60001E-04-4.06909E-14
 -1      1167 8.91242E-03-6.84151E-04-4.35813E-14
 -1      1168 9.26997E-03-7.27224E-04-4.65573E-14
 -1      1169 9.63540E-03-7.95099E-04-4.96198E-14
 -1      1170 1.00022E-02-8.91969E-04-5.27694E-14
 -1      1171 1.03603E-02-1.01684E-03-5.60061E-14
 -1      1172 1.06971E-02-1.15919E-03-5.93203E-14
 -1      1173 1.10028E-02-1.29662E-03-6.27251E-14
 -1      1174 1.12767E-02-1.39889E-03-6.62332E-14
 -1      1175 1.15307E-02-1.43970E-03-6.98351E-14
 -1      1176 1.17859E-02-1.41035E-03-7.35314E-14
 -1      1177 1.20617E-02-1.32456E-03-7.73306E-14
 -1      1178 1.23664E-02-1.21034E-03-8.12247E-14
 -1      1179 1.26958E-02-1.09565E-03-8.51947E-14
 -1      1180 1.30384E-02-9.98367E-04-8.92267E-14
 -1      1181 1.33817E-02-9.24315E-04-9.33106E-14
 -1      1182 1.37161E-02-8.70404E-04-9.74340E-14
 -1      1183 1.40366E-02-8.28857E-04-1.01590E-13
 -1      1184 1.43419E-02-7.90428E-04-1.05767E-13
 -1      1185 1.46346E-02-7.46722E-04-1.09962E-13
 -1      1186 1.49132E-02-6.95283E-04-1.14084E-13
 -1      1187 2.28430E-04 1.60717E-04 1.76589E-17
 -1      1188 5.53814E-04 3.42170E-04-2.19009E-17
 -1      1189 8.34386E-04 4.61216E-04-1.63376E-16
 -1      1190 1.10392E-03 5.42433E-04-4.19410E-16
 -1      1191 1.36932E-03 5.99688E-04-7.88838E-16
 -1      1192 1.63416E-03 6.40492E-04-1.26877E-15
 -1      1193 1.90023E-03 6.69412E-04-1.85796E-15
 -1      1194 2.16838E-03 6.89561E-04-2.55431E-15
 -1      1195 2.43890E-03 7.03213E-04-3.35959E-15
 -1      1196 2.71177E-03 7.12078E-04-4.27037E-15
 -1      1197 2.98684E-03 7.17448E-04-5.28916E-15
 -1      1198 3.26387E-03 7.20286E-04-6.41583E-15
 -1      1199 3.54260E-03 7.21298E-04-7.64915E-15
 -1      1200 3.82276E-03 7.20982E-04-8.98641E-15
 -1      1201 4.10414E-03 7.19678E-04-1.04258E-14
 -1      1202 4.38654E-03 7.17596E-04-1.19766E-14
 -1      1203 4.66984E-03 7.14852E-04-1.36356E-14
 -1      1204 4.95399E-03 7.11487E-04-1.53969E-14
 -1      1205 5.23900E-03 7.07499E-04-1.72598E-14
 -1      1206 5.52499E-03 7.02858E-04-1.92279E-14
 -1      1207 5.81215E-03 6.97538E-04-2.13036E-14
 -1      1208 6.10083E-03 6.91547E-04-2.34903E-14
 -1      1209 6.39147E-03 6.84966E-04-2.57840E-14
 -1      1210 6.68469E-03 6.78000E-04-2.81791E-14
 -1      1211 6.98122E-03 6.71043E-04-3.06715E-14
 -1      1212 7.28196E-03 6.64766E-04-3.32578E-14
 -1      1213 7.58790E-03 6.60214E-04-3.59362E-14
 -1      1214 7.90003E-03 6.58920E-04-3.87192E-14
 -1      1215 8.21920E-03 6.63009E-04-4.16053E-14
 -1      1216 8.54582E-03 6.75244E-04-4.45755E-14
 -1      1217 8.87950E-03 6.98919E-04-4.76154E-14
 -1      1218 9.21849E-03 7.37466E-04-5.07287E-14
 -1      1219 9.55924E-03 7.93555E-04-5.39215E-14
 -1      1220 9.89608E-03 8.67580E-04-5.71932E-14
 -1      1221 1.02218E-02 9.55656E-04-6.05610E-14
 -1      1222 1.05291E-02 1.04794E-03-6.40257E-14
 -1      1223 1.08137E-02 1.12876E-03-6.75729E-14
 -1      1224 1.10774E-02 1.17990E-03-7.11963E-14
 -1      1225 1.13285E-02 1.18689E-03-7.48719E-14
 -1      1226 1.15800E-02 1.14513E-03-7.85975E-14
 -1      1227 1.18438E-02 1.06195E-03-8.23845E-14
 -1      1228 1.21262E-02 9.52987E-04-8.62378E-14
 -1      1229 1.24267E-02 8.35384E-04-9.01259E-14
 -1      1230 1.27394E-02 7.22092E-04-9.40531E-14
 -1      1231 1.30564E-02 6.19471E-04-9.80204E-14
 -1      1232 1.33708E-02 5.27848E-04-1.02023E-13
 -1      1233 1.36778E-02 4.43460E-04-1.06049E-13
 -1      1234 1.39757E-02 3.60592E-04-1.10090E-13
 -1      1235 1.42655E-02 2.73690E-04-1.14140E-13
 -1      1236 1.45439E-02 1.82632E-04-1.18092E-13
 -1      1237 1.47268E-02 9.44961E-05-1.19899E-13
 -1      1238 1.48248E-02 1.01608E-05-1.19698E-13
 -1      1239 1.49297E-02-6.96825E-05-1.19507E-13
 -1      1240 1.50400E-02-1.40518E-04-1.19295E-13
 -1      1241 1.51512E-02-1.98862E-04-1.19078E-13
 -1      1242 1.52561E-02-2.42231E-04-1.18856E-13
 -1      1243 1.53482E-02-2.70746E-04-1.18643E-13
 -1      1244 1.54205E-02-2.86251E-04-1.18438E-13
 -1      1245 1.54657E-02-2.92625E-04-1.18250E-13
 -1      1246 1.54799E-02-2.95983E-04-1.18031E-13
 -1      1247 1.54632E-02-3.03250E-04-1.17778E-13
 -1      1248 1.54202E-02-3.20549E-04-1.17544E-13
 -1      1249 1.53577E-02-3.52307E-04-1.17327E-13
 -1      1250 1.52837E-02-4.00959E-04-1.17095E-13
 -1      1251 1.52077E-02-4.65693E-04-1.16833E-13
 -1      1252 1.51374E-02-5.42980E-04-1.16550E-13
 -1      1253 1.50766E-02-6.26323E-04-1.16256E-13
 -1      1254 1.36935E-02-9.48059E-05-8.06997E-14
 -1      1255 1.35703E-02 6.52238E-05-8.04598E-14
 -1      1256 1.33357E-02 2.32697E-04-7.98033E-14
 -1      1257 1.30251E-02 3.92941E-04-7.88238E-14
 -1      1258 1.26535E-02 5.41993E-04-7.75566E-14
 -1      1259 1.22163E-02 6.71646E-04-7.59613E-14
 -1      1260 1.17502E-02 7.55973E-04-7.41561E-14
 -1      1261 1.13001E-02 7.76922E-04-7.23457E-14
 -1      1262 1.08496E-02 7.37393E-04-7.05052E-14
 -1      1263 1.04177E-02 6.46535E-04-6.87530E-14
 -1      1264 1.00251E-02 5.20252E-04-6.71953E-14
 -1      1265 9.67857E-03 3.71611E-04-6.58430E-14
 -1      1266 9.40339E-03 2.13897E-04-6.47702E-14
 -1      1267 9.22558E-03 5.65623E-05-6.40313E-14
 -1      1268 9.16325E-03-9.66690E-05-6.36739E-14
 -1      1269 9.22057E-03-2.53245E-04-6.37050E-14
 -1      1270 9.39678E-03-4.18201E-04-6.41351E-14
 -1      1271 9.66017E-03-5.80727E-04-6.49065E-14
 -1      1272 9.98926E-03-7.38242E-04-6.59589E-14
 -1      1273 1.03884E-02-8.89098E-04-6.73340E-14
 -1      1274 1.08197E-02-1.00528E-03-6.89229E-14
 -1      1275 1.12667E-02-1.06869E-03-7.06616E-14
 -1      1276 1.17335E-02-1.07003E-03-7.25339E-14
 -1      1277 1.21943E-02-1.00751E-03-7.44022E-14
 -1      1278 1.26379E-02-8.89252E-04-7.61950E-14
 -1      1279 1.30424E-02-7.34520E-04-7.78188E-14
 -1      1280 1.33663E-02-5.68508E-04-7.91205E-14
 -1      1281 1.35901E-02-4.03740E-04-8.00405E-14
 -1      1282 1.36996E-02-2.45800E-04-8.05568E-14
 -1      1283 1.66700E-04-1.10349E-04 1.12486E-17
 -1      1284 1.12540E-04-5.69830E-05-1.12079E-17
 -1      1285 1.17621E-04-6.75902E-05-5.27193E-18
 -1      1286 1.08420E-04-4.35005E-05-2.14130E-17
 -1      1287 1.10284E-04-4.96149E-05-1.80791E-17
 -1      1288 2.26328E-04-1.07643E-04-4.22432E-17
 -1      1289 1.06840E-04-3.36232E-05-2.77014E-17
 -1      1290 1.07685E-04-3.83449E-05-2.58176E-17
 -1      1291 2.19101E-04-8.24779E-05-6.13794E-17
 -1      1292 1.06063E-04-2.53616E-05-3.18891E-17
 -1      1293 1.06493E-04-2.93951E-05-3.07507E-17
 -1      1294 2.15868E-04-6.32986E-05-7.39697E-17
 -1      1295 1.05660E-04-1.81001E-05-3.49384E-17
 -1      1296 1.05890E-04-2.16686E-05-3.41524E-17
 -1      1297 2.14210E-04-4.72061E-05-8.25620E-17
 -1      1298 1.05441E-04-1.12456E-05-3.70526E-17
 -1      1299 1.05564E-04-1.46320E-05-3.66189E-17
 -1      1300 2.13296E-04-3.27690E-05-8.87419E-17
 -1      1301 1.05342E-04-4.69212E-06-3.82723E-17
 -1      1302 1.05394E-04-7.94713E-06-3.80419E-17
 -1      1303 2.12802E-04-1.92006E-05-9.28484E-17
 -1      1304 1.05330E-04 1.74381E-06-3.90313E-17
 -1      1305 1.05329E-04-1.47142E-06-3.89093E-17
 -1      1306 2.12589E-04-6.16405E-06-9.54504E-17
 -1      1307 1.05403E-04 8.22924E-06-3.93701E-17
 -1      1308 1.05346E-04 4.96774E-06-3.93023E-17
 -1      1309 2.12597E-04 6.71196E-06-9.69548E-17
 -1      1310 1.05580E-04 1.49397E-05-3.92888E-17
 -1      1311 1.05452E-04 1.15383E-05-3.93294E-17
 -1      1312 2.12828E-04 1.97744E-05-9.73071E-17
 -1      1313 1.05912E-04 2.19610E-05-3.84621E-17
 -1      1314 1.05678E-04 1.83687E-05-3.86925E-17
 -1      1315 2.13337E-04 3.32823E-05-9.63991E-17
 -1      1316 1.06535E-04 2.98293E-05-3.68493E-17
 -1      1317 1.06096E-04 2.57518E-05-3.74185E-17
 -1      1318 2.14276E-04 4.78144E-05-9.40816E-17
 -1      1319 1.07725E-04 3.89286E-05-3.36374E-17
 -1      1320 1.06874E-04 3.41349E-05-3.49384E-17
 -1      1321 2.15978E-04 6.42297E-05-8.94331E-17
 -1      1322 1.10263E-04 5.03546E-05-2.74574E-17
 -1      1323 1.08426E-04 4.41714E-05-3.00731E-17
 -1      1324 2.19203E-04 8.37280E-05-8.04885E-17
 -1      1325 1.16937E-04 6.76256E-05-1.66832E-17
 -1      1326 1.12186E-04 5.77821E-05-2.19686E-17
 -1      1327 2.26315E-04 1.09462E-04-6.53774E-17
 -1      1328 1.57581E-04 1.09865E-04 1.12486E-18
 -1      1329 1.35661E-04 8.60969E-05-1.04219E-17
 -1      1330 2.56037E-04 1.52107E-04-4.66478E-17
 -1      1331 3.35086E-04 2.20751E-04-1.79029E-17
 -1      1332 4.21540E-04-2.61757E-04 1.87025E-18
 -1      1333 5.74634E-04-3.36825E-04-2.37034E-17
 -1      1334 7.21820E-04-3.97436E-04-7.46609E-17
 -1      1335 8.64983E-04-4.46739E-04-1.49823E-16
 -1      1336 6.12065E-04-3.30924E-04-8.24400E-17
 -1      1337 1.00500E-03-4.87820E-04-2.48865E-16
 -1      1338 1.14284E-03-5.21817E-04-3.72396E-16
 -1      1339 9.05290E-04-4.31640E-04-2.44352E-16
 -1      1340 1.27932E-03-5.50597E-04-5.21068E-16
 -1      1341 1.41496E-03-5.74639E-04-6.95353E-16
 -1      1342 1.18771E-03-5.01077E-04-5.02609E-16
 -1      1343 1.55019E-03-5.95006E-04-8.94589E-16
 -1      1344 1.68527E-03-6.12034E-04-1.11895E-15
 -1      1345 1.46462E-03-5.49860E-04-8.59949E-16
 -1      1346 1.82043E-03-6.26348E-04-1.36882E-15
 -1      1347 1.95580E-03-6.38242E-04-1.64467E-15
 -1      1348 1.73928E-03-5.84166E-04-1.31752E-15
 -1      1349 2.09149E-03-6.48117E-04-1.94626E-15
 -1      1350 2.22755E-03-6.56222E-04-2.27407E-15
 -1      1351 2.01355E-03-6.07970E-04-1.87692E-15
 -1      1352 2.36403E-03-6.62830E-04-2.62834E-15
 -1      1353 2.50093E-03-6.68146E-04-3.00907E-15
 -1      1354 2.28842E-03-6.24082E-04-2.54001E-15
 -1      1355 2.63828E-03-6.72363E-04-3.41600E-15
 -1      1356 2.77607E-03-6.75643E-04-3.84865E-15
 -1      1357 2.56437E-03-6.34565E-04-3.30686E-15
 -1      1358 2.91429E-03-6.78123E-04-4.30627E-15
 -1      1359 3.05291E-03-6.79930E-04-4.79011E-15
 -1      1360 2.84158E-03-6.40959E-04-4.17683E-15
 -1      1361 3.19193E-03-6.81161E-04-5.29832E-15
 -1      1362 3.33132E-03-6.81911E-04-5.83153E-15
 -1      1363 3.12008E-03-6.44408E-04-5.14789E-15
 -1      1364 3.47105E-03-6.82244E-04-6.38949E-15
 -1      1365 3.61111E-03-6.82234E-04-6.97226E-15
 -1      1366 3.39980E-03-6.45753E-04-6.21877E-15
 -1      1367 3.75147E-03-6.81919E-04-7.58141E-15
 -1      1368 3.89211E-03-6.81353E-04-8.21588E-15
 -1      1369 3.68063E-03-6.45592E-04-7.39055E-15
 -1      1370 4.03300E-03-6.80556E-04-8.87464E-15
 -1      1371 4.17414E-03-6.79566E-04-9.55777E-15
 -1      1372 3.96246E-03-6.44334E-04-8.66317E-15
 -1      1373 4.31551E-03-6.78388E-04-1.02655E-14
 -1      1374 4.45709E-03-6.77048E-04-1.09974E-14
 -1      1375 4.24517E-03-6.42239E-04-1.00340E-14
 -1      1376 4.59889E-03-6.75541E-04-1.17533E-14
 -1      1377 4.74088E-03-6.73881E-04-1.25346E-14
 -1      1378 4.52868E-03-6.39453E-04-1.15021E-14
 -1      1379 4.88308E-03-6.72058E-04-1.33397E-14
 -1      1380 5.02548E-03-6.70079E-04-1.41691E-14
 -1      1381 4.81296E-03-6.36030E-04-1.30675E-14
 -1      1382 5.16810E-03-6.67925E-04-1.50242E-14
 -1      1383 5.31096E-03-6.65605E-04-1.59029E-14
 -1      1384 5.09801E-03-6.31962E-04-1.47322E-14
 -1      1385 5.45406E-03-6.63094E-04-1.68063E-14
 -1      1386 5.59744E-03-6.60400E-04-1.77361E-14
 -1      1387 5.38391E-03-6.27195E-04-1.64945E-14
 -1      1388 5.74113E-03-6.57499E-04-1.86903E-14
 -1      1389 5.88517E-03-6.54403E-04-1.96711E-14
 -1      1390 5.67083E-03-6.21655E-04-1.83572E-14
 -1      1391 6.02961E-03-6.51090E-04-2.06765E-14
 -1      1392 6.17451E-03-6.47584E-04-2.17063E-14
 -1      1393 5.95899E-03-6.15272E-04-2.03208E-14
 -1      1394 6.31993E-03-6.43866E-04-2.27638E-14
 -1      1395 6.46595E-03-6.39981E-04-2.38456E-14
 -1      1396 6.24875E-03-6.08013E-04-2.23881E-14
 -1      1397 6.61265E-03-6.35920E-04-2.49533E-14
 -1      1398 6.76014E-03-6.31756E-04-2.60876E-14
 -1      1399 6.54058E-03-5.99925E-04-2.45573E-14
 -1      1400 6.90851E-03-6.27503E-04-2.72445E-14
 -1      1401 7.05790E-03-6.23274E-04-2.84263E-14
 -1      1402 6.83507E-03-5.91191E-04-2.68277E-14
 -1      1403 7.20843E-03-6.19118E-04-2.96333E-14
 -1      1404 7.36024E-03-6.15203E-04-3.08613E-14
 -1      1405 7.13296E-03-5.82219E-04-2.91951E-14
 -1      1406 7.51350E-03-6.11638E-04-3.21165E-14
 -1      1407 7.66835E-03-6.08661E-04-3.33966E-14
 -1      1408 7.43513E-03-5.73753E-04-3.16603E-14
 -1      1409 7.82496E-03-6.06473E-04-3.47009E-14
 -1      1410 7.98349E-03-6.05404E-04-3.60314E-14
 -1      1411 7.74260E-03-5.67034E-04-3.42242E-14
 -1      1412 8.14409E-03-6.05785E-04-3.73870E-14
 -1      1413 8.30692E-03-6.08055E-04-3.87672E-14
 -1      1414 8.05641E-03-5.64003E-04-3.68870E-14
 -1      1415 8.47207E-03-6.12725E-04-4.01704E-14
 -1      1416 8.63962E-03-6.20343E-04-4.15943E-14
 -1      1417 8.37755E-03-5.67550E-04-3.96481E-14
 -1      1418 8.80959E-03-6.31637E-04-4.30409E-14
 -1      1419 8.98189E-03-6.47240E-04-4.45093E-14
 -1      1420 8.70675E-03-5.81754E-04-4.25005E-14
 -1      1421 9.15636E-03-6.68074E-04-4.59997E-14
 -1      1422 9.33270E-03-6.94761E-04-4.75104E-14
 -1      1423 9.04412E-03-6.11992E-04-4.54399E-14
 -1      1424 9.51046E-03-7.28267E-04-4.90417E-14
 -1      1425 9.68902E-03-7.68987E-04-5.05943E-14
 -1      1426 9.38878E-03-6.64616E-04-4.84635E-14
 -1      1427 9.86760E-03-8.17543E-04-5.21692E-14
 -1      1428 1.00452E-02-8.73711E-04-5.37664E-14
 -1      1429 9.73826E-03-7.45727E-04-5.15703E-14
 -1      1430 1.02209E-02-9.37126E-04-5.53837E-14
 -1      1431 1.03933E-02-1.00643E-03-5.70219E-14
 -1      1432 1.00882E-02-8.58393E-04-5.47628E-14
 -1      1433 1.05615E-02-1.07958E-03-5.86808E-14
 -1      1434 1.07245E-02-1.15373E-03-6.03575E-14
 -1      1435 1.04323E-02-9.98177E-04-5.80384E-14
 -1      1436 1.08817E-02-1.22507E-03-6.20618E-14
 -1      1437 1.10330E-02-1.28966E-03-6.37920E-14
 -1      1438 1.07638E-02-1.14847E-03-6.13996E-14
 -1      1439 1.11788E-02-1.34308E-03-6.55449E-14
 -1      1440 1.13204E-02-1.38183E-03-6.73231E-14
 -1      1441 1.10784E-02-1.27990E-03-6.48567E-14
 -1      1442 1.14590E-02-1.40305E-03-6.91231E-14
 -1      1443 1.15969E-02-1.40557E-03-7.09443E-14
 -1      1444 1.13781E-02-1.35891E-03-6.84088E-14
 -1      1445 1.17358E-02-1.38983E-03-7.27925E-14
 -1      1446 1.18777E-02-1.35767E-03-7.46677E-14
 -1      1447 1.16720E-02-1.36391E-03-7.20565E-14
 -1      1448 1.20236E-02-1.31254E-03-7.65649E-14
 -1      1449 1.21745E-02-1.25811E-03-7.84855E-14
 -1      1450 1.19718E-02-1.29817E-03-7.57992E-14
 -1      1451 1.23305E-02-1.19874E-03-8.04291E-14
 -1      1452 1.24909E-02-1.13805E-03-8.23923E-14
 -1      1453 1.22848E-02-1.18745E-03-7.96386E-14
 -1      1454 1.26552E-02-1.07929E-03-8.43740E-14
 -1      1455 1.28221E-02-1.02470E-03-8.63730E-14
 -1      1456 1.26109E-02-1.06469E-03-8.35594E-14
 -1      1457 1.29906E-02-9.75665E-04-8.83865E-14
 -1      1458 1.31594E-02-9.32944E-04-9.04105E-14
 -1      1459 1.29445E-02-9.55024E-04-8.75481E-14
 -1      1460 1.33276E-02-8.96323E-04-9.24478E-14
 -1      1461 1.34942E-02-8.65528E-04-9.44982E-14
 -1      1462 1.32787E-02-8.69904E-04-9.15942E-14
 -1      1463 1.36587E-02-8.39458E-04-9.65597E-14
 -1      1464 1.38204E-02-8.17281E-04-9.86263E-14
 -1      1465 1.36076E-02-8.09217E-04-9.56860E-14
 -1      1466 1.39791E-02-7.97581E-04-1.00699E-13
 -1      1467 1.41347E-02-7.79328E-04-1.02780E-13
 -1      1468 1.39274E-02-7.66080E-04-9.98142E-14
 -1      1469 1.42873E-02-7.61151E-04-1.04868E-13
 -1      1470 1.44370E-02-7.42042E-04-1.06958E-13
 -1      1471 1.42368E-02-7.30877E-04-1.03970E-13
 -1      1472 1.45843E-02-7.20987E-04-1.09056E-13
 -1      1473 1.47296E-02-6.97260E-04-1.11161E-13
 -1      1474 1.45362E-02-6.93920E-04-1.08150E-13
 -1      1475 1.49407E-02-6.54006E-04-1.14240E-13
 -1      1476 1.48951E-02-6.31370E-04-1.13321E-13
 -1      1477 6.43077E-04 3.72044E-04-1.05954E-16
 -1      1478 4.92953E-04 3.03712E-04-4.74474E-17
 -1      1479 4.44880E-04 2.65916E-04-6.87926E-17
 -1      1480 9.28653E-04 4.72024E-04-3.07954E-16
 -1      1481 7.87795E-04 4.26526E-04-1.93056E-16
 -1      1482 7.44734E-04 3.90755E-04-2.17098E-16
 -1      1483 1.20353E-03 5.41459E-04-6.20611E-16
 -1      1484 1.06687E-03 5.09773E-04-4.50256E-16
 -1      1485 1.03077E-03 4.76212E-04-4.75707E-16
 -1      1486 1.47405E-03 5.90664E-04-1.04386E-15
 -1      1487 1.33901E-03 5.68202E-04-8.18451E-16
 -1      1488 1.30867E-03 5.36048E-04-8.43360E-16
 -1      1489 1.74355E-03 6.25559E-04-1.57636E-15
 -1      1490 1.60876E-03 6.09659E-04-1.29637E-15
 -1      1491 1.58287E-03 5.78342E-04-1.31953E-15
 -1      1492 2.01371E-03 6.50006E-04-2.21645E-15
 -1      1493 1.87846E-03 6.38916E-04-1.88310E-15
 -1      1494 1.85600E-03 6.08064E-04-1.90374E-15
 -1      1495 2.28533E-03 6.66748E-04-2.96410E-15
 -1      1496 2.14930E-03 6.59210E-04-2.57708E-15
 -1      1497 2.12947E-03 6.28594E-04-2.59500E-15
 -1      1498 2.55874E-03 6.77816E-04-3.81872E-15
 -1      1499 2.42180E-03 6.72891E-04-3.37786E-15
 -1      1500 2.40397E-03 6.42372E-04-3.39270E-15
 -1      1501 2.83399E-03 6.84738E-04-4.77862E-15
 -1      1502 2.69614E-03 6.81719E-04-4.28550E-15
 -1      1503 2.67983E-03 6.51214E-04-4.29542E-15
 -1      1504 3.11098E-03 6.88659E-04-5.84621E-15
 -1      1505 2.97227E-03 6.87017E-04-5.29927E-15
 -1      1506 2.95710E-03 6.56478E-04-5.30453E-15
 -1      1507 3.38954E-03 6.90420E-04-7.02009E-15
 -1      1508 3.25007E-03 6.89768E-04-6.41962E-15
 -1      1509 3.23575E-03 6.59170E-04-6.41975E-15
 -1      1510 3.66949E-03 6.90628E-04-8.29947E-15
 -1      1511 3.52936E-03 6.90689E-04-7.64658E-15
 -1      1512 3.51567E-03 6.60022E-04-7.64013E-15
 -1      1513 3.95064E-03 6.89704E-04-9.68113E-15
 -1      1514 3.80993E-03 6.90288E-04-8.97729E-15
 -1      1515 3.79672E-03 6.59552E-04-8.96421E-15
 -1      1516 4.23281E-03 6.87919E-04-1.11685E-14
 -1      1517 4.09161E-03 6.88906E-04-1.04113E-14
 -1      1518 4.07876E-03 6.58104E-04-1.03921E-14
 -1      1519 4.51590E-03 6.85431E-04-1.27661E-14
 -1      1520 4.37425E-03 6.86755E-04-1.19537E-14
 -1      1521 4.36168E-03 6.55892E-04-1.19273E-14
 -1      1522 4.79982E-03 6.82313E-04-1.44686E-14
 -1      1523 4.65776E-03 6.83947E-04-1.36047E-14
 -1      1524 4.64541E-03 6.53027E-04-1.35694E-14
 -1      1525 5.08458E-03 6.78576E-04-1.62723E-14
 -1      1526 4.94210E-03 6.80521E-04-1.53574E-14
 -1      1527 4.92993E-03 6.49543E-04-1.53149E-14
 -1      1528 5.37022E-03 6.74193E-04-1.81803E-14
 -1      1529 5.22728E-03 6.76464E-04-1.72134E-14
 -1      1530 5.21526E-03 6.45424E-04-1.71633E-14
 -1      1531 5.65691E-03 6.69122E-04-2.01943E-14
 -1      1532 5.51343E-03 6.71740E-04-1.91740E-14
 -1      1533 5.50151E-03 6.40625E-04-1.91154E-14
 -1      1534 5.94490E-03 6.63336E-04-2.23148E-14
 -1      1535 5.80073E-03 6.66310E-04-2.12408E-14
 -1      1536 5.78886E-03 6.35097E-04-2.11740E-14
 -1      1537 6.23453E-03 6.56858E-04-2.45464E-14
 -1      1538 6.08948E-03 6.60168E-04-2.34170E-14
 -1      1539 6.07757E-03 6.28820E-04-2.33403E-14
 -1      1540 6.52628E-03 6.49803E-04-2.68794E-14
 -1      1541 6.38011E-03 6.53376E-04-2.57005E-14
 -1      1542 6.36803E-03 6.21839E-04-2.56138E-14
 -1      1543 6.82076E-03 6.42438E-04-2.93143E-14
 -1      1544 6.67314E-03 6.46117E-04-2.80851E-14
 -1      1545 6.66070E-03 6.14318E-04-2.79876E-14
 -1      1546 7.11868E-03 6.35257E-04-3.18445E-14
 -1      1547 6.96924E-03 6.38762E-04-3.05671E-14
 -1      1548 6.95616E-03 6.06605E-04-3.04599E-14
 -1      1549 7.42086E-03 6.29076E-04-3.44681E-14
 -1      1550 7.26919E-03 6.31953E-04-3.31440E-14
 -1      1551 7.25508E-03 5.99316E-04-3.30284E-14
 -1      1552 7.72816E-03 6.25145E-04-3.71900E-14
 -1      1553 7.57382E-03 6.26710E-04-3.58174E-14
 -1      1554 7.55818E-03 5.93445E-04-3.56930E-14
 -1      1555 8.04134E-03 6.25266E-04-4.00142E-14
 -1      1556 7.88396E-03 6.24546E-04-3.85886E-14
 -1      1557 7.86618E-03 5.90484E-04-3.84559E-14
 -1      1558 8.36093E-03 6.31889E-04-4.29318E-14
 -1      1559 8.20030E-03 6.27583E-04-4.14617E-14
 -1      1560 8.17966E-03 5.92542E-04-4.13159E-14
 -1      1561 8.68693E-03 6.48116E-04-4.59256E-14
 -1      1562 8.52314E-03 6.38608E-04-4.44202E-14
 -1      1563 8.49890E-03 6.02421E-04-4.42632E-14
 -1      1564 9.01845E-03 6.77503E-04-4.89980E-14
 -1      1565 8.85208E-03 6.60996E-04-4.74532E-14
 -1      1566 8.82360E-03 6.23555E-04-4.72892E-14
 -1      1567 9.35333E-03 7.23466E-04-5.21422E-14
 -1      1568 9.18565E-03 6.98335E-04-5.05601E-14
 -1      1569 9.15266E-03 6.59662E-04-5.03884E-14
 -1      1570 9.68784E-03 7.88098E-04-5.53678E-14
 -1      1571 9.52092E-03 7.53561E-04-5.37451E-14
 -1      1572 9.48381E-03 7.13904E-04-5.35670E-14
 -1      1573 1.00168E-02 8.70323E-04-5.86805E-14
 -1      1574 9.85339E-03 8.27423E-04-5.70121E-14
 -1      1575 9.81355E-03 7.87368E-04-5.68261E-14
 -1      1576 1.03344E-02 9.63759E-04-6.20848E-14
 -1      1577 1.01774E-02 9.16418E-04-6.03706E-14
 -1      1578 1.01374E-02 8.76932E-04-6.01754E-14
 -1      1579 1.06359E-02 1.05548E-03-6.55800E-14
 -1      1580 1.04874E-02 1.01092E-03-6.38217E-14
 -1      1581 1.04507E-02 9.73235E-04-6.36149E-14
 -1      1582 1.09199E-02 1.12740E-03-6.91526E-14
 -1      1583 1.07800E-02 1.09504E-03-6.73561E-14
 -1      1584 1.07506E-02 1.06029E-03-6.71377E-14
 -1      1585 1.11902E-02 1.16132E-03-7.27915E-14
 -1      1586 1.10563E-02 1.14986E-03-7.09662E-14
 -1      1587 1.10373E-02 1.11856E-03-7.07355E-14
 -1      1588 1.14550E-02 1.14606E-03-7.64890E-14
 -1      1589 1.13226E-02 1.15987E-03-7.46337E-14
 -1      1590 1.13156E-02 1.13155E-03-7.43933E-14
 -1      1591 1.17241E-02 1.08264E-03-8.02375E-14
 -1      1592 1.15884E-02 1.11966E-03-7.83558E-14
 -1      1593 1.15929E-02 1.09303E-03-7.81110E-14
 -1      1594 1.20051E-02 9.83516E-04-8.40578E-14
 -1      1595 1.18628E-02 1.03641E-03-8.21385E-14
 -1      1596 1.18767E-02 1.00998E-03-8.18907E-14
 -1      1597 1.23003E-02 8.66703E-04-8.79238E-14
 -1      1598 1.21509E-02 9.26233E-04-8.59859E-14
 -1      1599 1.21710E-02 8.98938E-04-8.57340E-14
 -1      1600 1.26072E-02 7.48545E-04-9.18320E-14
 -1      1601 1.24526E-02 8.07070E-04-8.98725E-14
 -1      1602 1.24755E-02 7.78542E-04-8.96191E-14
 -1      1603 1.29205E-02 6.39273E-04-9.57789E-14
 -1      1604 1.27635E-02 6.92524E-04-9.38024E-14
 -1      1605 1.27867E-02 6.62976E-04-9.35468E-14
 -1      1606 1.32343E-02 5.42217E-04-9.97643E-14
 -1      1607 1.30777E-02 5.89305E-04-9.77680E-14
 -1      1608 1.31000E-02 5.59261E-04-9.75120E-14
 -1      1609 1.35437E-02 4.55328E-04-1.03773E-13
 -1      1610 1.33898E-02 4.97802E-04-1.01764E-13
 -1      1611 1.34108E-02 4.67863E-04-1.01506E-13
 -1      1612 1.38460E-02 3.73407E-04-1.07806E-13
 -1      1613 1.36958E-02 4.14119E-04-1.05787E-13
 -1      1614 1.37163E-02 3.84801E-04-1.05525E-13
 -1      1615 1.41408E-02 2.90248E-04-1.11848E-13
 -1      1616 1.39943E-02 3.32311E-04-1.09827E-13
 -1      1617 1.40150E-02 3.03955E-04-1.09562E-13
 -1      1618 1.44297E-02 2.00859E-04-1.15902E-13
 -1      1619 1.42858E-02 2.46470E-04-1.13874E-13
 -1      1620 1.43074E-02 2.19164E-04-1.13610E-13
 -1      1621 1.45910E-02 1.40583E-04-1.17981E-13
 -1      1622 1.47269E-02 3.35892E-05-1.17893E-13
 -1      1623 1.46760E-02 7.40684E-05-1.17993E-13
 -1      1624 1.48345E-02-4.28278E-05-1.17690E-13
 -1      1625 1.47799E-02-5.50679E-06-1.17794E-13
 -1      1626 1.46300E-02 5.56152E-05-1.16085E-13
 -1      1627 1.49471E-02-1.10721E-04-1.17477E-13
 -1      1628 1.48904E-02-7.80079E-05-1.17582E-13
 -1      1629 1.47402E-02-1.90671E-05-1.15874E-13
 -1      1630 1.50593E-02-1.67707E-04-1.17261E-13
 -1      1631 1.50036E-02-1.40691E-04-1.17371E-13
 -1      1632 1.48546E-02-8.58901E-05-1.15660E-13
 -1      1633 1.51628E-02-2.11789E-04-1.17048E-13
 -1      1634 1.51124E-02-1.91256E-04-1.17153E-13
 -1      1635 1.49664E-02-1.42750E-04-1.15449E-13
 -1      1636 1.52531E-02-2.44659E-04-1.16834E-13
 -1      1637 1.52103E-02-2.29656E-04-1.16941E-13
 -1      1638 1.50695E-02-1.89441E-04-1.15237E-13
 -1      1639 1.53204E-02-2.67475E-04-1.16628E-13
 -1      1640 1.52900E-02-2.57127E-04-1.16727E-13
 -1      1641 1.51562E-02-2.26700E-04-1.15021E-13
 -1      1642 1.53587E-02-2.84096E-04-1.16422E-13
 -1      1643 1.53435E-02-2.76265E-04-1.16526E-13
 -1      1644 1.52178E-02-2.56146E-04-1.14808E-13
 -1      1645 1.53647E-02-2.99696E-04-1.16185E-13
 -1      1646 1.53657E-02-2.91681E-04-1.16310E-13
 -1      1647 1.52484E-02-2.81345E-04-1.14587E-13
 -1      1648 1.53397E-02-3.19800E-04-1.15941E-13
 -1      1649 1.53559E-02-3.08864E-04-1.16061E-13
 -1      1650 1.52460E-02-3.06812E-04-1.14345E-13
 -1      1651 1.52898E-02-3.48585E-04-1.15700E-13
 -1      1652 1.53175E-02-3.32845E-04-1.15824E-13
 -1      1653 1.52132E-02-3.36837E-04-1.14099E-13
 -1      1654 1.52212E-02-3.90161E-04-1.15467E-13
 -1      1655 1.52572E-02-3.67707E-04-1.15584E-13
 -1      1656 1.51561E-02-3.75234E-04-1.13853E-13
 -1      1657 1.51438E-02-4.45237E-04-1.15212E-13
 -1      1658 1.51830E-02-4.16022E-04-1.15343E-13
 -1      1659 1.50826E-02-4.24622E-04-1.13597E-13
 -1      1660 1.50668E-02-5.12812E-04-1.14939E-13
 -1      1661 1.51047E-02-4.77606E-04-1.15079E-13
 -1      1662 1.50027E-02-4.85207E-04-1.13329E-13
 -1      1663 1.49623E-02-5.90683E-04-1.14059E-13
 -1      1664 1.49963E-02-5.51424E-04-1.14207E-13
 -1      1665 1.48913E-02-5.56011E-04-1.12457E-13
 -1      1666 1.47506E-02-6.32524E-04-1.10988E-13
 -1      1667 1.36874E-02-9.74903E-05-8.14499E-14
 -1      1668 1.37216E-02-1.45063E-04-8.14672E-14
 -1      1669 1.35034E-02 2.13447E-05-8.11715E-14
 -1      1670 1.36075E-02-3.96886E-05-8.14066E-14
 -1      1671 1.32107E-02 1.84308E-04-8.02665E-14
 -1      1672 1.33575E-02 1.09947E-04-8.06823E-14
 -1      1673 1.28542E-02 3.58826E-04-7.91291E-14
 -1      1674 1.30241E-02 2.76169E-04-7.96908E-14
 -1      1675 1.24485E-02 5.37732E-04-7.77440E-14
 -1      1676 1.26335E-02 4.51482E-04-7.84521E-14
 -1      1677 1.20098E-02 7.11350E-04-7.59337E-14
 -1      1678 1.22079E-02 6.34621E-04-7.68301E-14
 -1      1679 1.16116E-02 8.07755E-04-7.38754E-14
 -1      1680 1.17974E-02 7.73680E-04-7.47798E-14
 -1      1681 1.12213E-02 8.16641E-04-7.19198E-14
 -1      1682 1.13993E-02 8.23507E-04-7.28167E-14
 -1      1683 1.08208E-02 7.39129E-04-6.99151E-14
 -1      1684 1.10089E-02 7.86694E-04-7.08417E-14
 -1      1685 1.04202E-02 5.98624E-04-6.80967E-14
 -1      1686 1.06004E-02 6.68565E-04-6.89053E-14
 -1      1687 1.00292E-02 4.27444E-04-6.64629E-14
 -1      1688 1.02091E-02 5.09229E-04-6.71944E-14
 -1      1689 9.66808E-03 2.56277E-04-6.50824E-14
 -1      1690 9.82908E-03 3.33817E-04-6.56830E-14
 -1      1691 9.37625E-03 9.79613E-05-6.39286E-14
 -1      1692 9.50303E-03 1.63127E-04-6.43834E-14
 -1      1693 9.19155E-03-1.85105E-05-6.32690E-14
 -1      1694 9.25952E-03 3.29694E-05-6.35400E-14
 -1      1695 9.14925E-03-1.21226E-04-6.30266E-14
 -1      1696 9.15110E-03-7.40580E-05-6.31061E-14
 -1      1697 9.25232E-03-2.34297E-04-6.31561E-14
 -1      1698 9.18616E-03-1.79676E-04-6.30439E-14
 -1      1699 9.49481E-03-3.65970E-04-6.36272E-14
 -1      1700 9.36855E-03-2.98205E-04-6.33185E-14
 -1      1701 9.80779E-03-5.31988E-04-6.45473E-14
 -1      1702 9.65808E-03-4.55751E-04-6.41127E-14
 -1      1703 1.01897E-02-7.11763E-04-6.56910E-14
 -1      1704 1.00122E-02-6.22258E-04-6.50905E-14
 -1      1705 1.05903E-02-9.09072E-04-6.73214E-14
 -1      1706 1.03983E-02-8.22713E-04-6.65636E-14
 -1      1707 1.09847E-02-1.05231E-03-6.90796E-14
 -1      1708 1.08043E-02-9.94494E-04-6.82693E-14
 -1      1709 1.13848E-02-1.12378E-03-7.09939E-14
 -1      1710 1.12010E-02-1.10187E-03-7.00808E-14
 -1      1711 1.17887E-02-1.10103E-03-7.30491E-14
 -1      1712 1.16030E-02-1.12495E-03-7.21004E-14
 -1      1713 1.22042E-02-9.86212E-04-7.50657E-14
 -1      1714 1.20144E-02-1.04816E-03-7.41521E-14
 -1      1715 1.26214E-02-8.05079E-04-7.70522E-14
 -1      1716 1.24245E-02-8.93788E-04-7.61786E-14
 -1      1717 1.30410E-02-6.11511E-04-7.87509E-14
 -1      1718 1.28560E-02-7.00987E-04-7.80017E-14
 -1      1719 1.33870E-02-4.44976E-04-8.00459E-14
 -1      1720 1.32413E-02-5.18964E-04-7.94891E-14
 -1      1721 1.36256E-02-3.10664E-04-8.09104E-14
 -1      1722 1.35311E-02-3.70992E-04-8.05442E-14
 -1      1723 1.37250E-02-1.99947E-04-8.13822E-14
 -1      1724 1.36964E-02-2.47984E-04-8.12208E-14
 -1      1725 1.26766E-02 3.62758E-04-7.93481E-14
 -1      1726 1.30736E-02 1.73165E-04-8.06085E-14
 -1      1727 1.46135E-02 1.13957E-04-1.17718E-13
 -1      1728 1.45140E-02 1.34378E-04-1.15911E-13
 -1      1729 1.36477E-02-1.00055E-04-8.22160E-14
 -1      1730 1.34127E-02 8.80490E-06-8.16785E-14
 -1      1731 1.37335E-02-1.74819E-04-8.21753E-14
 -1      1732 1.22529E-02 5.71044E-04-7.77460E-14
 -1      1733 1.18631E-02 7.53440E-04-7.56654E-14
 -1      1734 1.14939E-02 8.41108E-04-7.34497E-14
 -1      1735 1.11346E-02 8.23801E-04-7.13130E-14
 -1      1736 1.07656E-02 7.07881E-04-6.92314E-14
 -1      1737 1.03746E-02 5.30543E-04-6.73291E-14
 -1      1738 9.98210E-03 3.36135E-04-6.56569E-14
 -1      1739 9.61677E-03 1.54794E-04-6.41886E-14
 -1      1740 9.32659E-03 2.28223E-05-6.31127E-14
 -1      1741 9.16360E-03-6.14808E-05-6.25699E-14
 -1      1742 9.15969E-03-1.34290E-04-6.24265E-14
 -1      1743 9.31821E-03-2.22126E-04-6.26021E-14
 -1      1744 9.60608E-03-3.49825E-04-6.32373E-14
 -1      1745 9.97091E-03-5.24988E-04-6.42527E-14
 -1      1746 1.03634E-02-7.36240E-04-6.56520E-14
 -1      1747 1.07532E-02-9.48122E-04-6.74616E-14
 -1      1748 1.11304E-02-1.09724E-03-6.94027E-14
 -1      1749 1.14936E-02-1.15217E-03-7.15069E-14
 -1      1750 1.18607E-02-1.09094E-03-7.37196E-14
 -1      1751 1.22561E-02-9.29453E-04-7.59426E-14
 -1      1752 1.26742E-02-7.14352E-04-7.80157E-14
 -1      1753 1.30946E-02-5.11576E-04-7.97135E-14
 -1      1754 1.34413E-02-3.57934E-04-8.09611E-14
 -1      1755 1.36631E-02-2.51362E-04-8.17768E-14
 -1      1756 2.85239E-04-1.76244E-04-7.38613E-18
 -1      1757 3.32167E-04-1.16797E-04-1.01305E-16
 -1      1758 3.36316E-04-1.33044E-04-8.99075E-17
 -1      1759 3.42207E-04-1.52030E-04-7.66938E-17
 -1      1760 3.51759E-04-1.74031E-04-5.95634E-17
 -1      1761 4.58323E-04-1.88117E-04-1.30009E-16
 -1      1762 3.24560E-04-6.54011E-05-1.29535E-16
 -1      1763 3.25704E-04-7.66922E-05-1.24100E-16
 -1      1764 3.23080E-04-4.39035E-05-1.37721E-16
 -1      1765 3.23728E-04-5.43950E-05-1.33777E-16
 -1      1766 4.36508E-04-7.93168E-05-1.95604E-16
 -1      1767 3.22301E-04-2.37797E-05-1.43155E-16
 -1      1768 3.22630E-04-3.36959E-05-1.40729E-16
 -1      1769 4.34526E-04-5.13338E-05-2.06053E-16
 -1      1770 3.22010E-04-4.33888E-06-1.46679E-16
 -1      1771 3.22106E-04-1.39944E-05-1.45066E-16
 -1      1772 4.33512E-04-2.49318E-05-2.13249E-16
 -1      1773 3.22131E-04 1.49853E-05-1.48576E-16
 -1      1774 3.22018E-04 5.31980E-06-1.47872E-16
 -1      1775 4.33217E-04 7.57221E-07-2.17762E-16
 -1      1776 3.22693E-04 3.47397E-05-1.48847E-16
 -1      1777 3.22344E-04 2.47912E-05-1.49024E-16
 -1      1778 4.33570E-04 2.64746E-05-2.20039E-16
 -1      1779 3.23817E-04 5.51810E-05-1.46842E-16
 -1      1780 3.23157E-04 4.48166E-05-1.48021E-16
 -1      1781 4.34641E-04 5.27362E-05-2.19483E-16
 -1      1782 3.25867E-04 7.78346E-05-1.42573E-16
 -1      1783 3.24672E-04 6.62527E-05-1.45093E-16
 -1      1784 4.36687E-04 8.06203E-05-2.16000E-16
 -1      1785 3.29548E-04 1.03673E-04-1.34577E-16
 -1      1786 3.27403E-04 9.03228E-05-1.39320E-16
 -1      1787 4.40325E-04 1.11592E-04-2.08966E-16
 -1      1788 3.36575E-04 1.35130E-04-1.19818E-16
 -1      1789 3.32396E-04 1.18632E-04-1.28464E-16
 -1      1790 4.46784E-04 1.47362E-04-1.96200E-16
 -1      1791 3.52296E-04 1.77621E-04-9.50845E-17
 -1      1792 3.42803E-04 1.54777E-04-1.09220E-16
 -1      1793 4.59309E-04 1.91481E-04-1.74123E-16
 -1      1794 4.07694E-04 2.33703E-04-7.93500E-17
 -1      1795 3.78084E-04 2.02679E-04-9.04089E-17
 -1      1796 4.95847E-04 2.44019E-04-1.54417E-16
 -1      1797 5.58539E-04 3.02528E-04-1.39903E-16
 -1      1798 3.40018E-04-1.90926E-04-3.20924E-17
 -1      1799 8.53553E-04 4.07154E-04-3.45183E-16
 -1      1800 7.07153E-04 3.59407E-04-2.29295E-16
 -1      1801 6.73388E-04 3.28840E-04-2.38321E-16
 -1      1802 4.58947E-04-2.36740E-04-7.44711E-17
 -1      1803 8.07216E-04-3.74149E-04-2.34811E-16
 -1      1804 9.52479E-04-4.15339E-04-3.45345E-16
 -1      1805 1.09531E-03-4.50032E-04-4.79326E-16
 -1      1806 1.23697E-03-4.78931E-04-6.38026E-16
 -1      1807 1.00391E-03-3.97959E-04-4.51963E-16
 -1      1808 1.37737E-03-5.03417E-04-8.21270E-16
 -1      1809 1.51705E-03-5.23787E-04-1.02942E-15
 -1      1810 1.28958E-03-4.55931E-04-7.78945E-16
 -1      1811 1.65621E-03-5.40961E-04-1.26253E-15
 -1      1812 1.79504E-03-5.55177E-04-1.52073E-15
 -1      1813 1.57197E-03-4.96873E-04-1.20378E-15
 -1      1814 1.93374E-03-5.67042E-04-1.80423E-15
 -1      1815 2.07238E-03-5.76760E-04-2.11350E-15
 -1      1816 1.85257E-03-5.25400E-04-1.72867E-15
 -1      1817 2.21112E-03-5.84746E-04-2.44872E-15
 -1      1818 2.34994E-03-5.91171E-04-2.80898E-15
 -1      1819 2.13245E-03-5.44845E-04-2.35436E-15
 -1      1820 2.48896E-03-5.96329E-04-3.19540E-15
 -1      1821 2.62815E-03-6.00359E-04-3.60738E-15
 -1      1822 2.41229E-03-5.57652E-04-3.08180E-15
 -1      1823 2.76760E-03-6.03470E-04-4.04562E-15
 -1      1824 2.90725E-03-6.05774E-04-4.50818E-15
 -1      1825 2.69249E-03-5.65642E-04-3.91160E-15
 -1      1826 3.04716E-03-6.07418E-04-4.99604E-15
 -1      1827 3.18728E-03-6.08488E-04-5.50933E-15
 -1      1828 2.97326E-03-5.70168E-04-4.84301E-15
 -1      1829 3.32766E-03-6.09088E-04-6.04727E-15
 -1      1830 3.46825E-03-6.09281E-04-6.61015E-15
 -1      1831 3.25469E-03-5.72226E-04-5.87375E-15
 -1      1832 3.60907E-03-6.09137E-04-7.19828E-15
 -1      1833 3.75008E-03-6.08702E-04-7.81170E-15
 -1      1834 3.53680E-03-5.72534E-04-7.00431E-15
 -1      1835 3.89131E-03-6.08018E-04-8.45022E-15
 -1      1836 4.03271E-03-6.07117E-04-9.11342E-15
 -1      1837 3.81957E-03-5.71591E-04-8.23541E-15
 -1      1838 4.17431E-03-6.06022E-04-9.80088E-15
 -1      1839 4.31608E-03-6.04753E-04-1.05130E-14
 -1      1840 4.10295E-03-5.69724E-04-9.56654E-15
 -1      1841 4.45802E-03-6.03316E-04-1.12489E-14
 -1      1842 4.60013E-03-6.01725E-04-1.20092E-14
 -1      1843 4.38693E-03-5.67125E-04-1.09943E-14
 -1      1844 4.74241E-03-5.99972E-04-1.27951E-14
 -1      1845 4.88486E-03-5.98065E-04-1.36044E-14
 -1      1846 4.67147E-03-5.63883E-04-1.25198E-14
 -1      1847 5.02749E-03-5.95987E-04-1.44383E-14
 -1      1848 5.17030E-03-5.93744E-04-1.52969E-14
 -1      1849 4.95660E-03-5.60007E-04-1.41433E-14
 -1      1850 5.31332E-03-5.91311E-04-1.61813E-14
 -1      1851 5.45655E-03-5.88693E-04-1.70894E-14
 -1      1852 5.24235E-03-5.55452E-04-1.58651E-14
 -1      1853 5.60002E-03-5.85863E-04-1.80221E-14
 -1      1854 5.74376E-03-5.82827E-04-1.89816E-14
 -1      1855 5.52883E-03-5.50136E-04-1.76869E-14
 -1      1856 5.88779E-03-5.79560E-04-1.99658E-14
 -1      1857 6.03216E-03-5.76072E-04-2.09755E-14
 -1      1858 5.81618E-03-5.43967E-04-1.96085E-14
 -1      1859 6.17690E-03-5.72344E-04-2.20123E-14
 -1      1860 6.32207E-03-5.68397E-04-2.30741E-14
 -1      1861 6.10460E-03-5.36869E-04-2.16344E-14
 -1      1862 6.46771E-03-5.64222E-04-2.41597E-14
 -1      1863 6.61392E-03-5.59860E-04-2.52720E-14
 -1      1864 6.39437E-03-5.28817E-04-2.37610E-14
 -1      1865 6.76070E-03-5.55322E-04-2.64091E-14
 -1      1866 6.90822E-03-5.50675E-04-2.75701E-14
 -1      1867 6.68586E-03-5.19890E-04-2.59893E-14
 -1      1868 7.05646E-03-5.45968E-04-2.87571E-14
 -1      1869 7.20562E-03-5.41302E-04-2.99679E-14
 -1      1870 6.97950E-03-5.10337E-04-2.83173E-14
 -1      1871 7.35568E-03-5.36785E-04-3.12022E-14
 -1      1872 7.50687E-03-5.32569E-04-3.24608E-14
 -1      1873 7.27582E-03-5.00674E-04-3.07429E-14
 -1      1874 7.65916E-03-5.28848E-04-3.37457E-14
 -1      1875 7.81281E-03-5.25842E-04-3.50532E-14
 -1      1876 7.57544E-03-4.91817E-04-3.32656E-14
 -1      1877 7.96778E-03-5.23872E-04-3.63862E-14
 -1      1878 8.12432E-03-5.23249E-04-3.77449E-14
 -1      1879 7.87907E-03-4.85259E-04-3.58856E-14
 -1      1880 8.28242E-03-5.24458E-04-3.91265E-14
 -1      1881 8.44227E-03-5.27928E-04-4.05317E-14
 -1      1882 8.18751E-03-4.83294E-04-3.86045E-14
 -1      1883 8.60390E-03-5.34340E-04-4.19599E-14
 -1      1884 8.76735E-03-5.44264E-04-4.34084E-14
 -1      1885 8.50161E-03-4.89274E-04-4.14183E-14
 -1      1886 8.93277E-03-5.58568E-04-4.48793E-14
 -1      1887 9.09991E-03-5.77959E-04-4.63723E-14
 -1      1888 8.82230E-03-5.07830E-04-4.43196E-14
 -1      1889 9.26911E-03-6.03388E-04-4.78861E-14
 -1      1890 9.43966E-03-6.35614E-04-4.94186E-14
 -1      1891 9.15048E-03-5.44916E-04-4.73066E-14
 -1      1892 9.61213E-03-6.75396E-04-5.09713E-14
 -1      1893 9.78518E-03-7.23291E-04-5.25470E-14
 -1      1894 9.48681E-03-6.07336E-04-5.03739E-14
 -1      1895 9.95960E-03-7.79369E-04-5.41428E-14
 -1      1896 1.01334E-02-8.43408E-04-5.57593E-14
 -1      1897 9.83112E-03-7.01204E-04-5.35238E-14
 -1      1898 1.03072E-02-9.14139E-04-5.73967E-14
 -1      1899 1.04788E-02-9.89775E-04-5.90552E-14
 -1      1900 1.01811E-02-8.28515E-04-5.67549E-14
 -1      1901 1.06486E-02-1.06725E-03-6.07370E-14
 -1      1902 1.08149E-02-1.14267E-03-6.24406E-14
 -1      1903 1.05314E-02-9.81511E-04-6.00739E-14
 -1      1904 1.09773E-02-1.21160E-03-6.41676E-14
 -1      1905 1.11367E-02-1.26898E-03-6.59207E-14
 -1      1906 1.08736E-02-1.13694E-03-6.34811E-14
 -1      1907 1.12917E-02-1.31076E-03-6.76960E-14
 -1      1908 1.14460E-02-1.33344E-03-6.94951E-14
 -1      1909 1.12019E-02-1.25687E-03-6.69832E-14
 -1      1910 1.15980E-02-1.33566E-03-7.13185E-14
 -1      1911 1.17524E-02-1.31794E-03-7.31664E-14
 -1      1912 1.15191E-02-1.30419E-03-7.05815E-14
 -1      1913 1.19078E-02-1.28249E-03-7.50373E-14
 -1      1914 1.20670E-02-1.23347E-03-7.69324E-14
 -1      1915 1.18371E-02-1.26584E-03-7.42751E-14
 -1      1916 1.22290E-02-1.17520E-03-7.88512E-14
 -1      1917 1.23937E-02-1.11248E-03-8.07890E-14
 -1      1918 1.21661E-02-1.16263E-03-7.80641E-14
 -1      1919 1.25609E-02-1.04936E-03-8.27464E-14
 -1      1920 1.27288E-02-9.89061E-04-8.47239E-14
 -1      1921 1.25060E-02-1.03354E-03-8.19386E-14
 -1      1922 1.28979E-02-9.33960E-04-8.67160E-14
 -1      1923 1.30656E-02-8.85175E-04-8.87222E-14
 -1      1924 1.28495E-02-9.12253E-04-8.58863E-14
 -1      1925 1.32330E-02-8.43299E-04-9.07444E-14
 -1      1926 1.33981E-02-8.08066E-04-9.27746E-14
 -1      1927 1.31887E-02-8.16179E-04-8.98949E-14
 -1      1928 1.35616E-02-7.78824E-04-9.48165E-14
 -1      1929 1.37225E-02-7.54646E-04-9.68706E-14
 -1      1930 1.35191E-02-7.48064E-04-9.39545E-14
 -1      1931 1.38812E-02-7.34259E-04-9.89320E-14
 -1      1932 1.40373E-02-7.16545E-04-1.00999E-13
 -1      1933 1.38392E-02-7.02076E-04-9.80492E-14
 -1      1934 1.41910E-02-7.00077E-04-1.03074E-13
 -1      1935 1.43423E-02-6.83733E-04-1.05158E-13
 -1      1936 1.41490E-02-6.68761E-04-1.02182E-13
 -1      1937 1.44745E-02-6.69877E-04-1.07020E-13
 -1      1938 1.46218E-02-6.50511E-04-1.09114E-13
 -1      1939 1.46924E-02-6.11963E-04-1.09848E-13
 -1      1940 1.44326E-02-6.41373E-04-1.06118E-13
 -1      1941 1.13859E-03 4.80126E-04-6.56674E-16
 -1      1942 9.96829E-04 4.46872E-04-4.87335E-16
 -1      1943 9.64448E-04 4.17417E-04-4.95914E-16
 -1      1944 1.41769E-03 5.31610E-04-1.07570E-15
 -1      1945 1.27854E-03 5.08161E-04-8.52562E-16
 -1      1946 1.24891E-03 4.80026E-04-8.58973E-16
 -1      1947 1.69404E-03 5.67898E-04-1.60279E-15
 -1      1948 1.55603E-03 5.51409E-04-1.32587E-15
 -1      1949 1.52916E-03 5.24239E-04-1.32916E-15
 -1      1950 1.96958E-03 5.93162E-04-2.23649E-15
 -1      1951 1.83182E-03 5.81738E-04-1.90642E-15
 -1      1952 1.80738E-03 5.55208E-04-1.90608E-15
 -1      1953 2.24538E-03 6.10353E-04-2.97674E-15
 -1      1954 2.10740E-03 6.02642E-04-2.59341E-15
 -1      1955 2.08497E-03 5.76519E-04-2.58907E-15
 -1      1956 2.52199E-03 6.21638E-04-3.82169E-15
 -1      1957 2.38356E-03 6.16641E-04-3.38617E-15
 -1      1958 2.36275E-03 5.90768E-04-3.37699E-15
 -1      1959 2.79967E-03 6.28631E-04-4.77161E-15
 -1      1960 2.66069E-03 6.25602E-04-4.28319E-15
 -1      1961 2.64117E-03 5.99873E-04-4.26850E-15
 -1      1962 3.07850E-03 6.32534E-04-5.82763E-15
 -1      1963 2.93895E-03 6.30918E-04-5.28619E-15
 -1      1964 2.92044E-03 6.05264E-04-5.26510E-15
 -1      1965 3.35846E-03 6.34231E-04-6.98818E-15
 -1      1966 3.21835E-03 6.33622E-04-6.39475E-15
 -1      1967 3.20062E-03 6.07999E-04-6.36740E-15
 -1      1968 3.63945E-03 6.34352E-04-8.25422E-15
 -1      1969 3.49883E-03 6.34463E-04-7.60838E-15
 -1      1970 3.48171E-03 6.08845E-04-7.57398E-15
 -1      1971 3.92138E-03 6.33333E-04-9.62251E-15
 -1      1972 3.78030E-03 6.33968E-04-8.92537E-15
 -1      1973 3.76365E-03 6.08340E-04-8.88384E-15
 -1      1974 4.20415E-03 6.31456E-04-1.10962E-14
 -1      1975 4.06267E-03 6.32492E-04-1.03463E-14
 -1      1976 4.04637E-03 6.06847E-04-1.02973E-14
 -1      1977 4.48770E-03 6.28882E-04-1.26769E-14
 -1      1978 4.34584E-03 6.30251E-04-1.18735E-14
 -1      1979 4.32981E-03 6.04588E-04-1.18167E-14
 -1      1980 4.77199E-03 6.25680E-04-1.43631E-14
 -1      1981 4.62976E-03 6.27357E-04-1.35066E-14
 -1      1982 4.61392E-03 6.01677E-04-1.34417E-14
 -1      1983 5.05701E-03 6.21856E-04-1.61507E-14
 -1      1984 4.91441E-03 6.23846E-04-1.52442E-14
 -1      1985 4.89871E-03 5.98148E-04-1.51710E-14
 -1      1986 5.34284E-03 6.17371E-04-1.80427E-14
 -1      1987 5.19982E-03 6.19696E-04-1.70841E-14
 -1      1988 5.18420E-03 5.93980E-04-1.70025E-14
 -1      1989 5.62961E-03 6.12168E-04-2.00397E-14
 -1      1990 5.48610E-03 6.14858E-04-1.90281E-14
 -1      1991 5.47048E-03 5.89118E-04-1.89379E-14
 -1      1992 5.91751E-03 6.06201E-04-2.21428E-14
 -1      1993 5.77340E-03 6.09276E-04-2.10779E-14
 -1      1994 5.75769E-03 5.83499E-04-2.09790E-14
 -1      1995 6.20684E-03 5.99463E-04-2.43532E-14
 -1      1996 6.06197E-03 6.02919E-04-2.32342E-14
 -1      1997 6.04606E-03 5.77084E-04-2.31266E-14
 -1      1998 6.49796E-03 5.92038E-04-2.66654E-14
 -1      1999 6.35214E-03 5.95819E-04-2.54970E-14
 -1      2000 6.33588E-03 5.69891E-04-2.53783E-14
 -1      2001 6.79134E-03 5.84149E-04-2.90805E-14
 -1      2002 6.64433E-03 5.88121E-04-2.78611E-14
 -1      2003 6.62750E-03 5.62050E-04-2.77325E-14
 -1      2004 7.08755E-03 5.76243E-04-3.15905E-14
 -1      2005 6.93905E-03 5.80151E-04-3.03224E-14
 -1      2006 6.92139E-03 5.53862E-04-3.01843E-14
 -1      2007 7.38719E-03 5.69079E-04-3.41974E-14
 -1      2008 7.23689E-03 5.72499E-04-3.28822E-14
 -1      2009 7.21806E-03 5.45887E-04-3.27339E-14
 -1      2010 7.69093E-03 5.63849E-04-3.69027E-14
 -1      2011 7.53849E-03 5.66125E-04-3.55380E-14
 -1      2012 7.51808E-03 5.39053E-04-3.53808E-14
 -1      2013 7.99937E-03 5.62304E-04-3.97041E-14
 -1      2014 7.84451E-03 5.62486E-04-3.82912E-14
 -1      2015 7.82205E-03 5.34772E-04-3.81250E-14
 -1      2016 8.31297E-03 5.66867E-04-4.25989E-14
 -1      2017 8.15549E-03 5.63659E-04-4.11402E-14
 -1      2018 8.13051E-03 5.35077E-04-4.09637E-14
 -1      2019 8.63186E-03 5.80666E-04-4.55756E-14
 -1      2020 8.47176E-03 5.72423E-04-4.40774E-14
 -1      2021 8.44386E-03 5.42710E-04-4.38907E-14
 -1      2022 8.95566E-03 6.07390E-04-4.86323E-14
 -1      2023 8.79321E-03 5.92223E-04-4.70944E-14
 -1      2024 8.76222E-03 5.61109E-04-4.69002E-14
 -1      2025 9.28317E-03 6.50762E-04-5.17625E-14
 -1      2026 9.11911E-03 6.26857E-04-5.01882E-14
 -1      2027 9.08523E-03 5.94135E-04-4.99853E-14
 -1      2028 9.61222E-03 7.13437E-04-5.49721E-14
 -1      2029 9.44778E-03 6.79693E-04-5.33575E-14
 -1      2030 9.41183E-03 6.45355E-04-5.31472E-14
 -1      2031 9.93949E-03 7.95147E-04-5.82689E-14
 -1      2032 9.77646E-03 7.52187E-04-5.66097E-14
 -1      2033 9.73996E-03 7.16624E-04-5.63900E-14
 -1      2034 1.02609E-02 8.90382E-04-6.16534E-14
 -1      2035 1.01013E-02 8.41726E-04-5.99498E-14
 -1      2036 1.00664E-02 8.05914E-04-5.97218E-14
 -1      2037 1.05725E-02 9.86681E-04-6.51250E-14
 -1      2038 1.04182E-02 9.39435E-04-6.33789E-14
 -1      2039 1.03872E-02 9.04925E-04-6.31398E-14
 -1      2040 1.08722E-02 1.06534E-03-6.86746E-14
 -1      2041 1.07238E-02 1.02939E-03-6.68892E-14
 -1      2042 1.06986E-02 9.97893E-04-6.66410E-14
 -1      2043 1.11616E-02 1.10644E-03-7.22925E-14
 -1      2044 1.10177E-02 1.09146E-03-7.04768E-14
 -1      2045 1.09992E-02 1.06403E-03-7.02177E-14
 -1      2046 1.14462E-02 1.09660E-03-7.59765E-14
 -1      2047 1.13038E-02 1.10803E-03-7.41269E-14
 -1      2048 1.12919E-02 1.08439E-03-7.38594E-14
 -1      2049 1.17331E-02 1.03557E-03-7.97175E-14
 -1      2050 1.15887E-02 1.07182E-03-7.78392E-14
 -1      2051 1.15831E-02 1.05047E-03-7.75661E-14
 -1      2052 1.20278E-02 9.35998E-04-8.35272E-14
 -1      2053 1.18791E-02 9.89455E-04-8.16133E-14
 -1      2054 1.18795E-02 9.68605E-04-8.13360E-14
 -1      2055 1.23317E-02 8.17174E-04-8.73884E-14
 -1      2056 1.21787E-02 8.77892E-04-8.54525E-14
 -1      2057 1.21841E-02 8.56303E-04-8.51710E-14
 -1      2058 1.26427E-02 6.96807E-04-9.12944E-14
 -1      2059 1.24866E-02 7.56469E-04-8.93362E-14
 -1      2060 1.24962E-02 7.33774E-04-8.90516E-14
 -1      2061 1.29566E-02 5.86029E-04-9.52387E-14
 -1      2062 1.27996E-02 6.39963E-04-9.32626E-14
 -1      2063 1.28119E-02 6.16410E-04-9.29776E-14
 -1      2064 1.32693E-02 4.88548E-04-9.92172E-14
 -1      2065 1.31134E-02 5.35726E-04-9.72240E-14
 -1      2066 1.31271E-02 5.11817E-04-9.69352E-14
 -1      2067 1.35776E-02 4.02333E-04-1.03220E-13
 -1      2068 1.34242E-02 4.44340E-04-1.01215E-13
 -1      2069 1.34385E-02 4.20611E-04-1.00924E-13
 -1      2070 1.38798E-02 3.21980E-04-1.07249E-13
 -1      2071 1.37296E-02 3.61807E-04-1.05233E-13
 -1      2072 1.37441E-02 3.38742E-04-1.04939E-13
 -1      2073 1.41756E-02 2.40934E-04-1.11289E-13
 -1      2074 1.40285E-02 2.81894E-04-1.09269E-13
 -1      2075 1.40432E-02 2.59873E-04-1.08973E-13
 -1      2076 1.44179E-02 1.66736E-04-1.14615E-13
 -1      2077 1.42731E-02 2.10683E-04-1.12588E-13
 -1      2078 1.42879E-02 1.89688E-04-1.12294E-13
 -1      2079 1.44815E-02 1.27698E-04-1.14891E-13
 -1      2080 1.47621E-02-6.64041E-05-1.13851E-13
 -1      2081 1.47040E-02-3.38132E-05-1.13956E-13
 -1      2082 1.46461E-02 8.53126E-07-1.14062E-13
 -1      2083 1.45890E-02 3.71757E-05-1.14170E-13
 -1      2084 1.45521E-02 1.69799E-05-1.12252E-13
 -1      2085 1.45609E-02 6.21295E-05-1.14477E-13
 -1      2086 1.45067E-02 1.01068E-04-1.14582E-13
 -1      2087 1.44102E-02 1.31990E-04-1.13284E-13
 -1      2088 1.44648E-02 7.93178E-05-1.12666E-13
 -1      2089 1.48732E-02-1.24313E-04-1.13641E-13
 -1      2090 1.48184E-02-9.64564E-05-1.13745E-13
 -1      2091 1.46685E-02-5.11742E-05-1.12043E-13
 -1      2092 1.49754E-02-1.74249E-04-1.13426E-13
 -1      2093 1.49261E-02-1.50386E-04-1.13532E-13
 -1      2094 1.47805E-02-1.11796E-04-1.11829E-13
 -1      2095 1.50581E-02-2.15691E-04-1.13206E-13
 -1      2096 1.50197E-02-1.95863E-04-1.13317E-13
 -1      2097 1.48806E-02-1.64651E-04-1.11609E-13
 -1      2098 1.51134E-02-2.50690E-04-1.12986E-13
 -1      2099 1.50896E-02-2.33684E-04-1.13096E-13
 -1      2100 1.49590E-02-2.09742E-04-1.11386E-13
 -1      2101 1.51361E-02-2.82685E-04-1.12755E-13
 -1      2102 1.51290E-02-2.66658E-04-1.12874E-13
 -1      2103 1.50076E-02-2.49207E-04-1.11159E-13
 -1      2104 1.51249E-02-3.15878E-04-1.12508E-13
 -1      2105 1.51346E-02-2.98719E-04-1.12634E-13
 -1      2106 1.50217E-02-2.86594E-04-1.10920E-13
 -1      2107 1.50843E-02-3.53571E-04-1.12259E-13
 -1      2108 1.51080E-02-3.33778E-04-1.12382E-13
 -1      2109 1.50018E-02-3.25714E-04-1.10669E-13
 -1      2110 1.50201E-02-4.00001E-04-1.11998E-13
 -1      2111 1.50546E-02-3.75581E-04-1.12129E-13
 -1      2112 1.49526E-02-3.70482E-04-1.10408E-13
 -1      2113 1.49421E-02-4.56048E-04-1.11726E-13
 -1      2114 1.49822E-02-4.26790E-04-1.11863E-13
 -1      2115 1.48818E-02-4.23708E-04-1.10134E-13
 -1      2116 1.48603E-02-5.21745E-04-1.11443E-13
 -1      2117 1.49011E-02-4.87791E-04-1.11585E-13
 -1      2118 1.47998E-02-4.85862E-04-1.09850E-13
 -1      2119 1.33092E-02 5.64234E-06-8.22539E-14
 -1      2120 1.34605E-02-5.63345E-05-8.27474E-14
 -1      2121 1.37351E-02-1.67937E-04-8.31294E-14
 -1      2122 1.37384E-02-1.86694E-04-8.30440E-14
 -1      2123 1.36110E-02-1.16103E-04-8.32158E-14
 -1      2124 1.36921E-02-1.42329E-04-8.32625E-14
 -1      2125 1.29452E-02 1.70814E-04-8.11279E-14
 -1      2126 1.31257E-02 8.57579E-05-8.17103E-14
 -1      2127 1.25489E-02 3.77303E-04-7.96609E-14
 -1      2128 1.27437E-02 2.75794E-04-8.03462E-14
 -1      2129 3.27171E-04-8.89872E-05-1.17907E-16
 -1      2130 3.29251E-04-1.02158E-04-1.10074E-16
 -1      2131 4.46287E-04-1.45132E-04-1.59974E-16
 -1      2132 4.40000E-04-1.09964E-04-1.80791E-16
 -1      2133 1.17238E-02 8.04133E-04-7.52633E-14
 -1      2134 1.18877E-02 7.30874E-04-7.64234E-14
 -1      2135 1.14077E-02 8.67358E-04-7.30423E-14
 -1      2136 1.15582E-02 8.48661E-04-7.41028E-14
 -1      2137 1.10790E-02 8.20740E-04-7.07546E-14
 -1      2138 1.12325E-02 8.57839E-04-7.18290E-14
 -1      2139 1.07137E-02 6.65305E-04-6.84381E-14
 -1      2140 1.08813E-02 7.47861E-04-6.94397E-14
 -1      2141 1.03343E-02 4.61810E-04-6.64539E-14
 -1      2142 1.05133E-02 5.61870E-04-6.73465E-14
 -1      2143 9.93230E-03 2.54095E-04-6.47306E-14
 -1      2144 1.01179E-02 3.49345E-04-6.54993E-14
 -1      2145 9.56960E-03 8.59645E-05-6.32747E-14
 -1      2146 9.73702E-03 1.61585E-04-6.39635E-14
 -1      2147 9.27233E-03-2.83408E-05-6.21327E-14
 -1      2148 9.38990E-03 1.06529E-05-6.25108E-14
 -1      2149 9.13999E-03-8.34923E-05-6.17035E-14
 -1      2150 9.18147E-03-6.32369E-05-6.18606E-14
 -1      2151 9.17829E-03-1.31877E-04-6.16861E-14
 -1      2152 9.13907E-03-1.09926E-04-6.16696E-14
 -1      2153 9.37778E-03-2.02221E-04-6.18442E-14
 -1      2154 9.26149E-03-1.64180E-04-6.16899E-14
 -1      2155 9.71837E-03-3.49486E-04-6.28037E-14
 -1      2156 9.55508E-03-2.76462E-04-6.23312E-14
 -1      2157 1.00877E-02-5.30245E-04-6.38607E-14
 -1      2158 9.90205E-03-4.37212E-04-6.33323E-14
 -1      2159 1.05199E-02-7.79889E-04-6.55768E-14
 -1      2160 1.03342E-02-6.64196E-04-6.47169E-14
 -1      2161 1.08886E-02-9.96132E-04-6.75863E-14
 -1      2162 1.07175E-02-8.99086E-04-6.66472E-14
 -1      2163 1.12271E-02-1.13506E-03-6.96561E-14
 -1      2164 1.10695E-02-1.07874E-03-6.86608E-14
 -1      2165 1.15619E-02-1.16944E-03-7.19632E-14
 -1      2166 1.14108E-02-1.17051E-03-7.08569E-14
 -1      2167 1.19209E-02-1.06803E-03-7.44821E-14
 -1      2168 1.17593E-02-1.13052E-03-7.33737E-14
 -1      2169 1.22799E-02-8.83805E-04-7.67189E-14
 -1      2170 1.20985E-02-9.86445E-04-7.55991E-14
 -1      2171 1.19878E-02-1.03451E-03-7.52490E-14
 -1      2172 1.27415E-02-6.29379E-04-7.91077E-14
 -1      2173 1.25372E-02-7.40947E-04-7.81478E-14
 -1      2174 1.31636E-02-4.28063E-04-8.08280E-14
 -1      2175 1.29736E-02-5.15208E-04-8.00791E-14
 -1      2176 1.35014E-02-2.89655E-04-8.21743E-14
 -1      2177 1.33579E-02-3.42231E-04-8.16670E-14
 -1      2178 1.36990E-02-2.14860E-04-8.29675E-14
 -1      2179 1.36244E-02-2.42340E-04-8.26509E-14
 -1      2180 1.21271E-02 6.07499E-04-7.78311E-14
 -1      2181 1.23208E-02 4.97696E-04-7.87567E-14
 -1      2182 1.28306E-02 1.97998E-04-8.14401E-14
 -1      2183 6.07867E-04-2.98154E-04-1.33221E-16
 -1      2184 1.24191E-02 4.22922E-04-7.97455E-14
 -1      2185 1.18666E-02 7.33194E-04-7.70127E-14
 -1      2186 1.19823E-02 6.74716E-04-7.74221E-14
 -1      2187 1.20747E-02 6.13814E-04-7.84267E-14
 -1      2188 6.63585E-04-2.92443E-04-2.00008E-16
 -1      2189 1.35407E-02-1.04633E-04-8.37894E-14
 -1      2190 1.37235E-02-1.63591E-04-8.41288E-14
 -1      2191 1.47868E-02-5.56736E-04-1.10714E-13
 -1      2192 1.32047E-02 2.16457E-05-8.27723E-14
 -1      2193 1.37284E-02-1.97798E-04-8.39202E-14
 -1      2194 1.35692E-02-2.50019E-04-8.33607E-14
 -1      2195 1.32613E-02-3.63251E-04-8.20364E-14
 -1      2196 1.23873E-02-8.11510E-04-7.78012E-14
 -1      2197 1.16570E-02-1.16203E-03-7.27151E-14
 -1      2198 1.13261E-02-1.16429E-03-7.01054E-14
 -1      2199 1.09968E-02-1.04215E-03-6.78362E-14
 -1      2200 1.06468E-02-8.37717E-04-6.56987E-14
 -1      2201 1.02310E-02-5.85113E-04-6.37862E-14
 -1      2202 9.81949E-03-3.68198E-04-6.24163E-14
 -1      2203 9.46214E-03-2.16213E-04-6.14113E-14
 -1      2204 9.21204E-03-1.32955E-04-6.09293E-14
 -1      2205 9.12984E-03-9.44222E-05-6.09602E-14
 -1      2206 9.21726E-03-5.58224E-05-6.12608E-14
 -1      2207 9.48013E-03 3.14660E-05-6.22849E-14
 -1      2208 9.85193E-03 1.90002E-04-6.38059E-14
 -1      2209 1.02451E-02 3.92224E-04-6.55168E-14
 -1      2210 1.06308E-02 6.10178E-04-6.75519E-14
 -1      2211 1.09890E-02 7.91974E-04-6.99484E-14
 -1      2212 1.16225E-02 8.37637E-04-7.48515E-14
 -1      2213 1.13209E-02 8.74901E-04-7.24757E-14
 -1      2214 1.28484E-02-5.55078E-04-8.02138E-14
 -1      2215 1.01656E-03 3.99861E-04-6.10501E-16
 -1      2216 8.72104E-04 3.63473E-04-4.52058E-16
 -1      2217 5.47806E-04-5.53224E-05-2.96638E-16
 -1      2218 5.48839E-04-7.20457E-05-2.90620E-16
 -1      2219 5.50255E-04-8.93748E-05-2.83587E-16
 -1      2220 5.52111E-04-1.07366E-04-2.75279E-16
 -1      2221 6.65311E-04-9.55260E-05-3.91167E-16
 -1      2222 5.46428E-04 8.85975E-06-3.10759E-16
 -1      2223 5.46409E-04-6.98441E-06-3.08428E-16
 -1      2224 5.47181E-04 4.08835E-05-3.13009E-16
 -1      2225 5.46682E-04 2.48027E-05-3.12345E-16
 -1      2226 6.61373E-04 1.99382E-05-4.22934E-16
 -1      2227 5.49002E-04 7.35160E-05-3.11424E-16
 -1      2228 5.47942E-04 5.70185E-05-3.12765E-16
 -1      2229 6.62695E-04 5.78081E-05-4.24614E-16
 -1      2230 5.52387E-04 1.08997E-04-3.05840E-16
 -1      2231 5.50466E-04 9.09182E-05-3.09282E-16
 -1      2232 6.65549E-04 9.72889E-05-4.21578E-16
 -1      2233 5.58258E-04 1.48336E-04-2.95106E-16
 -1      2234 5.54944E-04 1.28109E-04-3.01273E-16
 -1      2235 6.70630E-04 1.40068E-04-4.13271E-16
 -1      2236 5.68578E-04 1.93935E-04-2.76187E-16
 -1      2237 5.62743E-04 1.70217E-04-2.86907E-16
 -1      2238 6.79269E-04 1.87617E-04-3.97672E-16
 -1      2239 1.30201E-03 4.56805E-04-1.00552E-15
 -1      2240 1.15969E-03 4.30864E-04-7.94761E-16
 -1      2241 1.07174E-03 3.81386E-04-7.29356E-16
 -1      2242 9.15160E-04-3.46418E-04-4.20914E-16
 -1      2243 1.05925E-03-3.79744E-04-5.65262E-16
 -1      2244 1.23272E-02 4.61657E-04-8.00950E-14
 -1      2245 1.25229E-02 3.44502E-04-8.10089E-14
 -1      2246 1.20250E-03-4.08139E-04-7.33232E-16
 -1      2247 1.34530E-03-4.32011E-04-9.25732E-16
 -1      2248 1.11694E-03-3.60572E-04-6.84701E-16
 -1      2249 1.48747E-03-4.52222E-04-1.14246E-15
 -1      2250 1.62924E-03-4.69053E-04-1.38402E-15
 -1      2251 1.40326E-03-4.07331E-04-1.07817E-15
 -1      2252 1.77065E-03-4.83172E-04-1.65029E-15
 -1      2253 1.91182E-03-4.94794E-04-1.94177E-15
 -1      2254 1.68838E-03-4.40550E-04-1.56922E-15
 -1      2255 2.05284E-03-5.04413E-04-2.25776E-15
 -1      2256 2.19375E-03-5.12203E-04-2.59952E-15
 -1      2257 1.97256E-03-4.63562E-04-2.15924E-15
 -1      2258 2.33463E-03-5.18522E-04-2.96621E-15
 -1      2259 2.47551E-03-5.23513E-04-3.35840E-15
 -1      2260 2.25618E-03-4.78999E-04-2.84848E-15
 -1      2261 2.61644E-03-5.27437E-04-3.77605E-15
 -1      2262 2.75742E-03-5.30407E-04-4.21919E-15
 -1      2263 2.53957E-03-4.88885E-04-3.63881E-15
 -1      2264 2.89851E-03-5.32611E-04-4.68732E-15
 -1      2265 3.03967E-03-5.34136E-04-5.18021E-15
 -1      2266 2.82297E-03-4.94757E-04-4.52997E-15
 -1      2267 3.18097E-03-5.35117E-04-5.69792E-15
 -1      2268 3.32236E-03-5.35619E-04-6.24060E-15
 -1      2269 3.10654E-03-4.97760E-04-5.52089E-15
 -1      2270 3.46388E-03-5.35735E-04-6.80852E-15
 -1      2271 3.60551E-03-5.35512E-04-7.40118E-15
 -1      2272 3.39034E-03-4.98731E-04-6.61111E-15
 -1      2273 3.74726E-03-5.35010E-04-8.01917E-15
 -1      2274 3.88913E-03-5.34264E-04-8.66244E-15
 -1      2275 3.67442E-03-4.98264E-04-7.80151E-15
 -1      2276 4.03111E-03-5.33307E-04-9.32892E-15
 -1      2277 4.17320E-03-5.32162E-04-1.00209E-14
 -1      2278 3.95880E-03-4.96760E-04-9.09102E-15
 -1      2279 4.31541E-03-5.30845E-04-1.07381E-14
 -1      2280 4.45773E-03-5.29369E-04-1.14784E-14
 -1      2281 4.24349E-03-4.94467E-04-1.04791E-14
 -1      2282 4.60016E-03-5.27734E-04-1.22433E-14
 -1      2283 4.74270E-03-5.25948E-04-1.30327E-14
 -1      2284 4.52849E-03-4.91518E-04-1.19656E-14
 -1      2285 4.88536E-03-5.23999E-04-1.38472E-14
 -1      2286 5.02815E-03-5.21889E-04-1.46852E-14
 -1      2287 4.81382E-03-4.87953E-04-1.35484E-14
 -1      2288 5.17106E-03-5.19600E-04-1.55473E-14
 -1      2289 5.31412E-03-5.17132E-04-1.64362E-14
 -1      2290 5.09950E-03-4.83746E-04-1.52302E-14
 -1      2291 5.45732E-03-5.14462E-04-1.73493E-14
 -1      2292 5.60069E-03-5.11588E-04-1.82870E-14
 -1      2293 5.38557E-03-4.78826E-04-1.70100E-14
 -1      2294 5.74424E-03-5.08486E-04-1.92509E-14
 -1      2295 5.88801E-03-5.05159E-04-2.02400E-14
 -1      2296 5.67210E-03-4.73097E-04-1.88913E-14
 -1      2297 6.03198E-03-5.01585E-04-2.12542E-14
 -1      2298 6.17622E-03-4.97773E-04-2.22951E-14
 -1      2299 5.95919E-03-4.66463E-04-2.08739E-14
 -1      2300 6.32073E-03-4.93711E-04-2.33618E-14
 -1      2301 6.46557E-03-4.89418E-04-2.44519E-14
 -1      2302 6.24697E-03-4.58858E-04-2.29591E-14
 -1      2303 6.61073E-03-4.84901E-04-2.55679E-14
 -1      2304 6.75633E-03-4.80196E-04-2.67090E-14
 -1      2305 6.53558E-03-4.50286E-04-2.51458E-14
 -1      2306 6.90232E-03-4.75339E-04-2.78756E-14
 -1      2307 7.04884E-03-4.70393E-04-2.90670E-14
 -1      2308 6.82523E-03-4.40876E-04-2.74329E-14
 -1      2309 7.19586E-03-4.65441E-04-3.02821E-14
 -1      2310 7.34353E-03-4.60584E-04-3.15217E-14
 -1      2311 7.11617E-03-4.30956E-04-2.98193E-14
 -1      2312 7.49181E-03-4.55974E-04-3.27858E-14
 -1      2313 7.64089E-03-4.51766E-04-3.40734E-14
 -1      2314 7.40869E-03-4.21151E-04-3.23040E-14
 -1      2315 7.79072E-03-4.48207E-04-3.53851E-14
 -1      2316 7.94153E-03-4.45533E-04-3.67214E-14
 -1      2317 7.70319E-03-4.12524E-04-3.48837E-14
 -1      2318 8.09329E-03-4.44116E-04-3.80825E-14
 -1      2319 8.24621E-03-4.44306E-04-3.94672E-14
 -1      2320 8.00021E-03-4.06742E-04-3.75597E-14
 -1      2321 8.40036E-03-4.46622E-04-4.08758E-14
 -1      2322 8.55593E-03-4.51576E-04-4.23066E-14
 -1      2323 8.30056E-03-4.06294E-04-4.03331E-14
 -1      2324 8.71309E-03-4.59832E-04-4.37589E-14
 -1      2325 8.87199E-03-4.72119E-04-4.52325E-14
 -1      2326 8.60547E-03-4.14722E-04-4.31968E-14
 -1      2327 9.03301E-03-4.89194E-04-4.67243E-14
 -1      2328 9.19609E-03-5.12048E-04-4.82394E-14
 -1      2329 8.91683E-03-4.36852E-04-4.61447E-14
 -1      2330 9.36196E-03-5.41388E-04-4.97761E-14
 -1      2331 9.53013E-03-5.78395E-04-5.13297E-14
 -1      2332 9.23734E-03-4.78927E-04-4.91747E-14
 -1      2333 9.70166E-03-6.23458E-04-5.29039E-14
 -1      2334 9.87532E-03-6.77604E-04-5.44998E-14
 -1      2335 9.57035E-03-5.48371E-04-5.22866E-14
 -1      2336 1.00523E-02-7.40483E-04-5.61170E-14
 -1      2337 1.02302E-02-8.11912E-04-5.77525E-14
 -1      2338 9.91850E-03-6.52559E-04-5.54768E-14
 -1      2339 1.04100E-02-8.90161E-04-5.94111E-14
 -1      2340 1.05885E-02-9.72473E-04-6.10918E-14
 -1      2341 1.02807E-02-7.94689E-04-5.87496E-14
 -1      2342 1.07655E-02-1.05541E-03-6.27937E-14
 -1      2343 1.09390E-02-1.13223E-03-6.45198E-14
 -1      2344 1.06484E-02-9.65135E-04-6.21078E-14
 -1      2345 1.11077E-02-1.19831E-03-6.62708E-14
 -1      2346 1.12738E-02-1.24602E-03-6.80463E-14
 -1      2347 1.10072E-02-1.13051E-03-6.55582E-14
 -1      2348 1.14351E-02-1.27213E-03-6.98438E-14
 -1      2349 1.15980E-02-1.27332E-03-7.16668E-14
 -1      2350 1.13479E-02-1.23529E-03-6.91082E-14
 -1      2351 1.17602E-02-1.25052E-03-7.35153E-14
 -1      2352 1.19272E-02-1.20818E-03-7.53871E-14
 -1      2353 1.16813E-02-1.23631E-03-7.27540E-14
 -1      2354 1.20972E-02-1.15015E-03-7.72788E-14
 -1      2355 1.22710E-02-1.08471E-03-7.91938E-14
 -1      2356 1.20257E-02-1.14046E-03-7.64958E-14
 -1      2357 1.24474E-02-1.01605E-03-8.11338E-14
 -1      2358 1.26238E-02-9.49514E-04-8.30884E-14
 -1      2359 1.23860E-02-9.99021E-04-8.03265E-14
 -1      2360 1.28004E-02-8.88033E-04-8.50589E-14
 -1      2361 1.29742E-02-8.33440E-04-8.70490E-14
 -1      2362 1.27502E-02-8.62253E-04-8.42366E-14
 -1      2363 1.31463E-02-7.86787E-04-8.90494E-14
 -1      2364 1.33144E-02-7.47597E-04-9.10649E-14
 -1      2365 1.31047E-02-7.55166E-04-8.82083E-14
 -1      2366 1.34799E-02-7.15722E-04-9.30927E-14
 -1      2367 1.36418E-02-6.89765E-04-9.51279E-14
 -1      2368 1.34432E-02-6.81490E-04-9.22326E-14
 -1      2369 1.38009E-02-6.68883E-04-9.71740E-14
 -1      2370 1.39570E-02-6.51602E-04-9.92279E-14
 -1      2371 1.37658E-02-6.34392E-04-9.63012E-14
 -1      2372 1.41107E-02-6.36761E-04-1.01292E-13
 -1      2373 1.42619E-02-6.23000E-04-1.03362E-13
 -1      2374 1.40755E-02-6.03837E-04-1.00405E-13
 -1      2375 1.86512E-03 5.25265E-04-2.11307E-15
 -1      2376 1.72491E-03 5.12536E-04-1.79677E-15
 -1      2377 2.14517E-03 5.44477E-04-2.82466E-15
 -1      2378 2.00520E-03 5.35852E-04-2.45579E-15
 -1      2379 1.92447E-03 4.94638E-04-2.32263E-15
 -1      2380 2.42518E-03 5.57156E-04-3.63960E-15
 -1      2381 2.28516E-03 5.51529E-04-3.21917E-15
 -1      2382 2.20654E-03 5.11823E-04-3.06192E-15
 -1      2383 2.70554E-03 5.65090E-04-4.55790E-15
 -1      2384 2.56531E-03 5.61635E-04-4.08596E-15
 -1      2385 2.48845E-03 5.23012E-04-3.90348E-15
 -1      2386 2.98646E-03 5.69614E-04-5.58107E-15
 -1      2387 2.84593E-03 5.67717E-04-5.05607E-15
 -1      2388 2.77050E-03 5.29857E-04-4.84794E-15
 -1      2389 3.26801E-03 5.71710E-04-6.70816E-15
 -1      2390 3.12716E-03 5.70920E-04-6.13180E-15
 -1      2391 3.05288E-03 5.33590E-04-5.89672E-15
 -1      2392 3.55023E-03 5.72085E-04-7.93953E-15
 -1      2393 3.40905E-03 5.72080E-04-7.31068E-15
 -1      2394 3.33568E-03 5.35116E-04-7.04902E-15
 -1      2395 3.83309E-03 5.71228E-04-9.27307E-15
 -1      2396 3.69159E-03 5.71787E-04-8.59352E-15
 -1      2397 3.61892E-03 5.35080E-04-8.30415E-15
 -1      2398 4.11655E-03 5.69462E-04-1.07107E-14
 -1      2399 3.97475E-03 5.70444E-04-9.97882E-15
 -1      2400 3.90262E-03 5.33922E-04-9.66179E-15
 -1      2401 4.40059E-03 5.66976E-04-1.22538E-14
 -1      2402 4.25850E-03 5.68300E-04-1.14688E-14
 -1      2403 4.18676E-03 5.31925E-04-1.11230E-14
 -1      2404 4.68519E-03 5.63858E-04-1.39012E-14
 -1      2405 4.54282E-03 5.65492E-04-1.30642E-14
 -1      2406 4.47133E-03 5.29247E-04-1.26894E-14
 -1      2407 4.97035E-03 5.60123E-04-1.56520E-14
 -1      2408 4.82770E-03 5.62067E-04-1.47639E-14
 -1      2409 4.75634E-03 5.25954E-04-1.43591E-14
 -1      2410 5.25614E-03 5.55733E-04-1.75061E-14
 -1      2411 5.11316E-03 5.58010E-04-1.65664E-14
 -1      2412 5.04182E-03 5.22040E-04-1.61328E-14
 -1      2413 5.54263E-03 5.50622E-04-1.94646E-14
 -1      2414 5.39928E-03 5.53268E-04-1.84720E-14
 -1      2415 5.32780E-03 5.17456E-04-1.80094E-14
 -1      2416 5.82996E-03 5.44723E-04-2.15275E-14
 -1      2417 5.68617E-03 5.47770E-04-2.04827E-14
 -1      2418 5.61437E-03 5.12126E-04-1.99897E-14
 -1      2419 6.11833E-03 5.37998E-04-2.36955E-14
 -1      2420 5.97399E-03 5.41460E-04-2.25983E-14
 -1      2421 5.90166E-03 5.05983E-04-2.20741E-14
 -1      2422 6.40799E-03 5.30478E-04-2.59671E-14
 -1      2423 6.26297E-03 5.34328E-04-2.48190E-14
 -1      2424 6.18981E-03 4.98993E-04-2.42628E-14
 -1      2425 6.69927E-03 5.22313E-04-2.83416E-14
 -1      2426 6.55339E-03 5.26457E-04-2.71416E-14
 -1      2427 6.47906E-03 4.91200E-04-2.65561E-14
 -1      2428 6.99254E-03 5.13845E-04-3.08116E-14
 -1      2429 6.84561E-03 5.18085E-04-2.95636E-14
 -1      2430 6.76967E-03 4.82779E-04-2.89472E-14
 -1      2431 7.28827E-03 5.05693E-04-3.33789E-14
 -1      2432 7.14005E-03 5.09678E-04-3.20833E-14
 -1      2433 7.06196E-03 4.74110E-04-3.14365E-14
 -1      2434 7.58696E-03 4.98864E-04-3.60456E-14
 -1      2435 7.43720E-03 5.02036E-04-3.47003E-14
 -1      2436 7.35633E-03 4.65866E-04-3.40235E-14
 -1      2437 7.88916E-03 4.94882E-04-3.88065E-14
 -1      2438 7.73757E-03 4.96407E-04-3.74143E-14
 -1      2439 7.65325E-03 4.59127E-04-3.67075E-14
 -1      2440 8.19543E-03 4.95912E-04-4.16624E-14
 -1      2441 8.04175E-03 4.94621E-04-4.02233E-14
 -1      2442 7.95329E-03 4.55503E-04-3.94870E-14
 -1      2443 8.50628E-03 5.04849E-04-4.46054E-14
 -1      2444 8.35027E-03 4.99199E-04-4.31235E-14
 -1      2445 8.25710E-03 4.57266E-04-4.23589E-14
 -1      2446 8.82211E-03 5.25281E-04-4.76277E-14
 -1      2447 8.66360E-03 5.13398E-04-4.61054E-14
 -1      2448 8.56544E-03 4.67425E-04-4.53174E-14
 -1      2449 9.14305E-03 5.61185E-04-5.07275E-14
 -1      2450 8.98205E-03 5.41060E-04-4.91679E-14
 -1      2451 8.87914E-03 4.89690E-04-4.83534E-14
 -1      2452 9.46863E-03 6.16139E-04-5.39024E-14
 -1      2453 9.30547E-03 5.86102E-04-5.23053E-14
 -1      2454 9.19891E-03 5.28167E-04-5.14664E-14
 -1      2455 9.79738E-03 6.91791E-04-5.71635E-14
 -1      2456 9.63295E-03 6.51393E-04-5.55224E-14
 -1      2457 9.52498E-03 5.86548E-04-5.46579E-14
 -1      2458 1.01264E-02 7.85468E-04-6.05080E-14
 -1      2459 9.96230E-03 7.36776E-04-5.88252E-14
 -1      2460 9.85630E-03 6.66466E-04-5.79324E-14
 -1      2461 1.04512E-02 8.87486E-04-6.39410E-14
 -1      2462 1.02898E-02 8.36363E-04-6.22141E-14
 -1      2463 1.01897E-02 7.64753E-04-6.12925E-14
 -1      2464 1.07676E-02 9.79959E-04-6.74519E-14
 -1      2465 1.06106E-02 9.36375E-04-6.56860E-14
 -1      2466 1.05199E-02 8.70275E-04-6.47358E-14
 -1      2467 1.10736E-02 1.03997E-03-7.10379E-14
 -1      2468 1.09215E-02 1.01549E-03-6.92370E-14
 -1      2469 1.08412E-02 9.62191E-04-6.82608E-14
 -1      2470 1.13728E-02 1.04812E-03-7.46932E-14
 -1      2471 1.12233E-02 1.05126E-03-7.28572E-14
 -1      2472 1.11520E-02 1.01490E-03-7.18581E-14
 -1      2473 1.16725E-02 9.98997E-04-7.84109E-14
 -1      2474 1.15217E-02 1.03039E-03-7.65429E-14
 -1      2475 1.14571E-02 1.00891E-03-7.55231E-14
 -1      2476 1.19792E-02 9.03556E-04-8.21983E-14
 -1      2477 1.18246E-02 9.55764E-04-8.02960E-14
 -1      2478 1.17655E-02 9.42783E-04-7.92564E-14
 -1      2479 1.22942E-02 7.83302E-04-8.60439E-14
 -1      2480 1.21358E-02 8.45095E-04-8.41156E-14
 -1      2481 1.20830E-02 8.33705E-04-8.30595E-14
 -1      2482 1.26144E-02 6.59121E-04-8.99372E-14
 -1      2483 1.24541E-02 7.20651E-04-8.79840E-14
 -1      2484 1.24084E-02 7.06796E-04-8.69179E-14
 -1      2485 1.29349E-02 5.44625E-04-9.38709E-14
 -1      2486 1.27751E-02 6.00177E-04-9.19005E-14
 -1      2487 1.27362E-02 5.82787E-04-9.08224E-14
 -1      2488 1.32518E-02 4.44873E-04-9.78381E-14
 -1      2489 1.30941E-02 4.92886E-04-9.58513E-14
 -1      2490 1.30608E-02 4.72696E-04-9.47657E-14
 -1      2491 1.35626E-02 3.58386E-04-1.01830E-13
 -1      2492 1.34081E-02 4.00219E-04-9.98307E-14
 -1      2493 1.33787E-02 3.78694E-04-9.87382E-14
 -1      2494 1.38666E-02 2.79910E-04-1.05853E-13
 -1      2495 1.37155E-02 3.18536E-04-1.03840E-13
 -1      2496 1.36886E-02 2.97332E-04-1.02740E-13
 -1      2497 1.41635E-02 2.02621E-04-1.09889E-13
 -1      2498 1.40159E-02 2.41548E-04-1.07869E-13
 -1      2499 1.39904E-02 2.22333E-04-1.06765E-13
 -1      2500 1.43131E-02 1.61956E-04-1.11984E-13
 -1      2501 1.46876E-02-1.04063E-04-1.10014E-13
 -1      2502 1.46323E-02-7.31415E-05-1.10125E-13
 -1      2503 1.47857E-02-1.59766E-04-1.09792E-13
 -1      2504 1.47391E-02-1.32889E-04-1.09903E-13
 -1      2505 1.45948E-02-1.00440E-04-1.08200E-13
 -1      2506 1.44577E-02 2.95668E-05-1.10443E-13
 -1      2507 1.43984E-02 6.72425E-05-1.10548E-13
 -1      2508 1.45751E-02-4.05341E-05-1.10232E-13
 -1      2509 1.45169E-02-6.46190E-06-1.10337E-13
 -1      2510 1.43627E-02 3.89842E-05-1.08635E-13
 -1      2511 1.44821E-02-3.41922E-05-1.08420E-13
 -1      2512 1.48595E-02-2.07892E-04-1.09563E-13
 -1      2513 1.48262E-02-1.84576E-04-1.09680E-13
 -1      2514 1.46910E-02-1.58558E-04-1.07975E-13
 -1      2515 1.49010E-02-2.50813E-04-1.09329E-13
 -1      2516 1.48847E-02-2.29649E-04-1.09447E-13
 -1      2517 1.47600E-02-2.08879E-04-1.07741E-13
 -1      2518 1.49060E-02-2.92458E-04-1.09081E-13
 -1      2519 1.49081E-02-2.71371E-04-1.09207E-13
 -1      2520 1.47936E-02-2.54294E-04-1.07498E-13
 -1      2521 1.48768E-02-3.36376E-04-1.08825E-13
 -1      2522 1.48954E-02-3.13679E-04-1.08956E-13
 -1      2523 1.47889E-02-2.98989E-04-1.07245E-13
 -1      2524 1.48186E-02-3.87536E-04-1.08552E-13
 -1      2525 1.48507E-02-3.60905E-04-1.08689E-13
 -1      2526 1.47492E-02-3.47963E-04-1.06978E-13
 -1      2527 1.47412E-02-4.46998E-04-1.08270E-13
 -1      2528 1.47816E-02-4.16161E-04-1.08414E-13
 -1      2529 1.46818E-02-4.04902E-04-1.06698E-13
 -1      2530 1.46553E-02-5.14905E-04-1.07975E-13
 -1      2531 1.46986E-02-4.79962E-04-1.08120E-13
 -1      2532 1.45979E-02-4.70497E-04-1.06405E-13
 -1      2533 1.37160E-02-1.66218E-04-8.52104E-14
 -1      2534 1.37521E-02-1.76370E-04-8.50797E-14
 -1      2535 1.31180E-02 3.92789E-05-8.35072E-14
 -1      2536 1.32869E-02-2.89748E-05-8.40567E-14
 -1      2537 1.58441E-03 4.97120E-04-1.50693E-15
 -1      2538 1.44348E-03 4.78803E-04-1.24301E-15
 -1      2539 1.64176E-03 4.69261E-04-1.68726E-15
 -1      2540 1.46594E-02-5.72131E-04-1.08847E-13
 -1      2541 1.37550E-02-1.90384E-04-8.50010E-14
 -1      2542 1.37197E-02-2.02198E-04-8.49218E-14
 -1      2543 1.37726E-02-1.86785E-04-8.60839E-14
 -1      2544 1.34613E-02-9.16923E-05-8.45261E-14
 -1      2545 1.36061E-02-1.33947E-04-8.49989E-14
 -1      2546 1.33906E-02-6.80558E-05-8.52621E-14
 -1      2547 5.88464E-04-2.38014E-04-1.93625E-16
 -1      2548 7.81283E-04-3.04839E-04-3.16275E-16
 -1      2549 8.40705E-04-2.93651E-04-4.03933E-16
 -1      2550 5.78953E-04-2.10243E-04-2.15539E-16
 -1      2551 1.36339E-02-2.28510E-04-8.46054E-14
 -1      2552 1.35210E-02-2.60062E-04-8.41224E-14
 -1      2553 1.17319E-02-1.14907E-03-7.34376E-14
 -1      2554 1.15737E-02-1.18686E-03-7.20249E-14
 -1      2555 5.46622E-04-2.29109E-05-3.05460E-16
 -1      2556 5.47077E-04-3.89583E-05-3.01584E-16
 -1      2557 6.62546E-04-5.58377E-05-4.06562E-16
 -1      2558 6.61321E-04-1.77129E-05-4.16876E-16
 -1      2559 1.12520E-02 8.76772E-04-7.19317E-14
 -1      2560 1.13882E-02 8.85838E-04-7.31446E-14
 -1      2561 1.29605E-02-4.88703E-04-8.15116E-14
 -1      2562 1.27566E-02-5.94903E-04-8.05286E-14
 -1      2563 1.15218E-02 8.69644E-04-7.42978E-14
 -1      2564 1.16535E-02 8.28782E-04-7.54601E-14
 -1      2565 1.14388E-02 8.86150E-04-7.37449E-14
 -1      2566 1.09198E-02 7.63324E-04-6.92002E-14
 -1      2567 1.10822E-02 8.34178E-04-7.05110E-14
 -1      2568 1.05488E-02 5.57689E-04-6.66068E-14
 -1      2569 1.07158E-02 6.57760E-04-6.76895E-14
 -1      2570 1.01503E-02 3.28618E-04-6.44534E-14
 -1      2571 1.03376E-02 4.35626E-04-6.53971E-14
 -1      2572 9.76634E-03 1.38001E-04-6.27944E-14
 -1      2573 9.94376E-03 2.21734E-04-6.35508E-14
 -1      2574 9.40418E-03-2.11831E-06-6.12159E-14
 -1      2575 9.57466E-03 5.72461E-05-6.19683E-14
 -1      2576 9.16713E-03-7.06716E-05-6.03502E-14
 -1      2577 9.24868E-03-5.05827E-05-6.06154E-14
 -1      2578 9.12398E-03-9.67477E-05-6.00596E-14
 -1      2579 9.12191E-03-8.80905E-05-6.00914E-14
 -1      2580 9.23464E-03-1.28679E-04-6.00565E-14
 -1      2581 9.16212E-03-1.11608E-04-6.00565E-14
 -1      2582 9.12468E-03-9.89514E-05-5.91892E-14
 -1      2583 9.55132E-03-2.34131E-04-6.08652E-14
 -1      2584 9.38515E-03-1.75900E-04-6.03882E-14
 -1      2585 9.90435E-03-3.91759E-04-6.19325E-14
 -1      2586 9.73774E-03-3.12935E-04-6.14158E-14
 -1      2587 1.03318E-02-6.28729E-04-6.33144E-14
 -1      2588 1.01185E-02-5.02574E-04-6.24750E-14
 -1      2589 1.07662E-02-9.03345E-04-6.57617E-14
 -1      2590 1.05945E-02-7.91347E-04-6.47015E-14
 -1      2591 1.10862E-02-1.08625E-03-6.80994E-14
 -1      2592 1.09367E-02-1.00492E-03-6.70306E-14
 -1      2593 1.13838E-02-1.18425E-03-7.03835E-14
 -1      2594 1.12387E-02-1.14791E-03-6.91877E-14
 -1      2595 1.20628E-02-9.96440E-04-7.61597E-14
 -1      2596 1.19200E-02-1.07479E-03-7.50368E-14
 -1      2597 1.24922E-02-7.42887E-04-7.90199E-14
 -1      2598 1.22686E-02-8.78127E-04-7.75808E-14
 -1      2599 1.33474E-02-3.21623E-04-8.33139E-14
 -1      2600 1.31682E-02-3.92919E-04-8.24656E-14
 -1      2601 7.57866E-04 3.34262E-04-3.39735E-16
 -1      2602 6.11457E-04 2.84894E-04-2.28279E-16
 -1      2603 5.84736E-04 2.58125E-04-2.31531E-16
 -1      2604 8.13693E-04 3.22940E-04-4.30049E-16
 -1      2605 1.27218E-02 2.36169E-04-8.17693E-14
 -1      2606 1.29062E-02 1.39810E-04-8.25583E-14
 -1      2607 1.11641E-02 8.63679E-04-7.11695E-14
 -1      2608 6.70214E-04-1.38022E-04-3.69848E-16
 -1      2609 5.54560E-04-1.26281E-04-2.65684E-16
 -1      2610 5.57746E-04-1.46283E-04-2.53920E-16
 -1      2611 1.35775E-03 4.32789E-04-1.15619E-15
 -1      2612 5.72240E-04 2.27930E-04-2.50613E-16
 -1      2613 1.26232E-02 2.86497E-04-8.21189E-14
 -1      2614 1.17506E-02 7.90206E-04-7.64518E-14
 -1      2615 1.18450E-02 7.44793E-04-7.74465E-14
 -1      2616 1.16562E-02 8.33689E-04-7.58894E-14
 -1      2617 1.36968E-02-2.15687E-04-8.56882E-14
 -1      2618 1.42885E-02 1.46201E-04-1.10876E-13
 -1      2619 1.30197E-02 8.28127E-05-8.38360E-14
 -1      2620 1.43168E-02 1.18901E-04-1.10568E-13
 -1      2621 1.34487E-02-2.91009E-04-8.45563E-14
 -1      2622 1.36299E-02-1.41579E-04-8.66863E-14
 -1      2623 1.36775E-02-1.55903E-04-8.59493E-14
 -1      2624 1.37343E-02-1.67573E-04-8.69023E-14
 -1      2625 1.26313E-02-6.73085E-04-8.03073E-14
 -1      2626 1.21884E-02-9.35170E-04-7.73651E-14
 -1      2627 6.89522E-04 2.51289E-04-3.57760E-16
 -1      2628 1.14768E-02-1.19553E-03-7.10918E-14
 -1      2629 5.71726E-04-1.85365E-04-2.33727E-16
 -1      2630 1.18260E-02-1.12362E-03-7.43352E-14
 -1      2631 1.11632E-02-1.12249E-03-6.83710E-14
 -1      2632 1.08567E-02-9.61251E-04-6.60179E-14
 -1      2633 1.04511E-02-7.07951E-04-6.33727E-14
 -1      2634 1.00087E-02-4.45542E-04-6.14672E-14
 -1      2635 9.29246E-03-1.42993E-04-5.95131E-14
 -1      2636 9.21502E-03-1.24201E-04-5.86437E-14
 -1      2637 9.35274E-03-1.63194E-04-5.89691E-14
 -1      2638 9.12572E-03-7.86552E-05-5.94495E-14
 -1      2639 9.31285E-03-2.96394E-05-6.03002E-14
 -1      2640 9.37901E-03-2.12716E-06-5.99822E-14
 -1      2641 9.23517E-03-4.35377E-05-5.93904E-14
 -1      2642 9.65564E-03 9.38848E-05-6.17143E-14
 -1      2643 1.00373E-02 2.74423E-04-6.34308E-14
 -1      2644 1.04295E-02 4.96703E-04-6.55307E-14
 -1      2645 1.21955E-02 5.38897E-04-7.96760E-14
 -1      2646 1.23163E-02 4.70170E-04-8.09333E-14
 -1      2647 1.20841E-02 6.10921E-04-7.92578E-14
 -1      2648 1.30799E-02-4.39853E-04-8.27848E-14
 -1      2649 1.08170E-02 7.19325E-04-6.82401E-14
 -1      2650 9.62602E-03-2.62552E-04-6.03856E-14
 -1      2651 1.44929E-02-6.03149E-04-1.06617E-13
 -1      2652 1.45927E-02-5.49089E-04-1.07479E-13
 -1      2653 1.44892E-02-5.40726E-04-1.05755E-13
 -1      2654 1.43620E-02-6.14575E-04-1.04759E-13
 -1      2655 1.42195E-02 1.30495E-04-1.08762E-13
 -1      2656 1.43262E-02-5.84303E-04-1.03860E-13
 -1      2657 7.80237E-04 7.73644E-05-5.54475E-16
 -1      2658 7.78981E-04 5.54945E-05-5.54868E-16
 -1      2659 7.78138E-04 3.35738E-05-5.53756E-16
 -1      2660 7.77717E-04 1.19007E-05-5.51127E-16
 -1      2661 8.96559E-04 4.97002E-05-7.02875E-16
 -1      2662 7.91551E-04 1.73186E-04-5.37832E-16
 -1      2663 7.87553E-04 1.47767E-04-5.44771E-16
 -1      2664 8.03394E-04 2.28389E-04-5.16595E-16
 -1      2665 7.96781E-04 1.99996E-04-5.28684E-16
 -1      2666 9.14850E-04 2.07889E-04-6.79158E-16
 -1      2667 1.12978E-03 3.62027E-04-8.53281E-16
 -1      2668 9.86182E-04 3.32955E-04-6.63450E-16
 -1      2669 1.15519E-02-1.20355E-03-7.17213E-14
 -1      2670 1.13876E-02-1.19802E-03-7.00830E-14
 -1      2671 1.35511E-02-2.72839E-04-8.61422E-14
 -1      2672 1.33953E-02-3.24410E-04-8.53246E-14
 -1      2673 1.32010E-03-3.62841E-04-1.01147E-15
 -1      2674 1.46333E-03-3.81820E-04-1.23652E-15
 -1      2675 1.60637E-03-3.97895E-04-1.48609E-15
 -1      2676 1.74930E-03-4.11294E-04-1.76000E-15
 -1      2677 1.52495E-03-3.55487E-04-1.40057E-15
 -1      2678 1.89206E-03-4.22484E-04-2.05840E-15
 -1      2679 2.03471E-03-4.31654E-04-2.38142E-15
 -1      2680 1.81164E-03-3.81369E-04-1.95574E-15
 -1      2681 2.17726E-03-4.39176E-04-2.72948E-15
 -1      2682 2.31972E-03-4.45203E-04-3.10235E-15
 -1      2683 2.09810E-03-3.99177E-04-2.60852E-15
 -1      2684 2.46213E-03-4.50021E-04-3.50037E-15
 -1      2685 2.60449E-03-4.53751E-04-3.92343E-15
 -1      2686 2.38427E-03-4.10921E-04-3.36038E-15
 -1      2687 2.74684E-03-4.56607E-04-4.37148E-15
 -1      2688 2.88917E-03-4.58683E-04-4.84477E-15
 -1      2689 2.67022E-03-4.18206E-04-4.21179E-15
 -1      2690 3.03152E-03-4.60136E-04-5.34242E-15
 -1      2691 3.17387E-03-4.61036E-04-5.86491E-15
 -1      2692 2.95601E-03-4.22268E-04-5.16309E-15
 -1      2693 3.31626E-03-4.61495E-04-6.41260E-15
 -1      2694 3.45865E-03-4.61564E-04-6.98546E-15
 -1      2695 3.24169E-03-4.24036E-04-6.21325E-15
 -1      2696 3.60109E-03-4.61321E-04-7.58288E-15
 -1      2697 3.74356E-03-4.60800E-04-8.20558E-15
 -1      2698 3.52733E-03-4.24181E-04-7.36316E-15
 -1      2699 3.88607E-03-4.60050E-04-8.85281E-15
 -1      2700 4.02861E-03-4.59093E-04-9.52360E-15
 -1      2701 3.81294E-03-4.23170E-04-8.61237E-15
 -1      2702 4.17121E-03-4.57959E-04-1.02197E-14
 -1      2703 4.31383E-03-4.56658E-04-1.09411E-14
 -1      2704 4.09858E-03-4.21310E-04-9.96050E-15
 -1      2705 4.45651E-03-4.55203E-04-1.16862E-14
 -1      2706 4.59923E-03-4.53598E-04-1.24553E-14
 -1      2707 4.38424E-03-4.18777E-04-1.14056E-14
 -1      2708 4.74200E-03-4.51842E-04-1.32494E-14
 -1      2709 4.88482E-03-4.49934E-04-1.40679E-14
 -1      2710 4.66994E-03-4.15650E-04-1.29491E-14
 -1      2711 5.02770E-03-4.47864E-04-1.49104E-14
 -1      2712 5.17063E-03-4.45626E-04-1.57777E-14
 -1      2713 4.95571E-03-4.11932E-04-1.45898E-14
 -1      2714 5.31362E-03-4.43206E-04-1.66700E-14
 -1      2715 5.45669E-03-4.40596E-04-1.75874E-14
 -1      2716 5.24154E-03-4.07573E-04-1.63292E-14
 -1      2717 5.59981E-03-4.37778E-04-1.85299E-14
 -1      2718 5.74303E-03-4.34745E-04-1.94985E-14
 -1      2719 5.52745E-03-4.02490E-04-1.81687E-14
 -1      2720 5.88632E-03-4.31481E-04-2.04927E-14
 -1      2721 6.02971E-03-4.27982E-04-2.15117E-14
 -1      2722 5.81345E-03-3.96587E-04-2.01092E-14
 -1      2723 6.17320E-03-4.24238E-04-2.25562E-14
 -1      2724 6.31681E-03-4.20251E-04-2.36272E-14
 -1      2725 6.09954E-03-3.89778E-04-2.21533E-14
 -1      2726 6.46053E-03-4.16027E-04-2.47238E-14
 -1      2727 6.60441E-03-4.11578E-04-2.58426E-14
 -1      2728 6.38573E-03-3.82026E-04-2.42986E-14
 -1      2729 6.74841E-03-4.06931E-04-2.69898E-14
 -1      2730 6.89261E-03-4.02118E-04-2.81613E-14
 -1      2731 6.67202E-03-3.73374E-04-2.65452E-14
 -1      2732 7.03695E-03-3.97200E-04-2.93561E-14
 -1      2733 7.18155E-03-3.92235E-04-3.05763E-14
 -1      2734 6.95843E-03-3.64006E-04-2.88920E-14
 -1      2735 7.32633E-03-3.87336E-04-3.18197E-14
 -1      2736 7.47142E-03-3.82598E-04-3.30886E-14
 -1      2737 7.24499E-03-3.54318E-04-3.13360E-14
 -1      2738 7.61677E-03-3.78205E-04-3.43814E-14
 -1      2739 7.76254E-03-3.74309E-04-3.56971E-14
 -1      2740 7.53177E-03-3.45005E-04-3.38768E-14
 -1      2741 7.90867E-03-3.71182E-04-3.70375E-14
 -1      2742 8.05538E-03-3.69063E-04-3.84013E-14
 -1      2743 7.81900E-03-3.37176E-04-3.65135E-14
 -1      2744 8.20269E-03-3.68322E-04-3.97892E-14
 -1      2745 8.35084E-03-3.69338E-04-4.12006E-14
 -1      2746 8.10715E-03-3.32496E-04-3.92450E-14
 -1      2747 8.49998E-03-3.72575E-04-4.26339E-14
 -1      2748 8.65044E-03-3.78627E-04-4.40894E-14
 -1      2749 8.39718E-03-3.33349E-04-4.20704E-14
 -1      2750 8.80254E-03-3.88026E-04-4.55647E-14
 -1      2751 8.95668E-03-4.01697E-04-4.70590E-14
 -1      2752 8.69095E-03-3.43065E-04-4.49828E-14
 -1      2753 9.11352E-03-4.20157E-04-4.85754E-14
 -1      2754 9.27342E-03-4.44854E-04-5.01126E-14
 -1      2755 8.99166E-03-3.66230E-04-4.79770E-14
 -1      2756 9.43748E-03-4.76178E-04-5.16689E-14
 -1      2757 9.60566E-03-5.16117E-04-5.32431E-14
 -1      2758 9.30443E-03-4.09286E-04-5.10500E-14
 -1      2759 9.77951E-03-5.64804E-04-5.48381E-14
 -1      2760 9.95784E-03-6.24410E-04-5.64534E-14
 -1      2761 9.63617E-03-4.81252E-04-5.42008E-14
 -1      2762 1.01426E-02-6.94287E-04-5.80878E-14
 -1      2763 1.03299E-02-7.75094E-04-5.97438E-14
 -1      2764 9.99364E-03-5.93760E-04-5.74288E-14
 -1      2765 1.05210E-02-8.64651E-04-6.14227E-14
 -1      2766 1.07103E-02-9.58164E-04-6.31237E-14
 -1      2767 1.03769E-02-7.56040E-04-6.07396E-14
 -1      2768 1.13179E-02-1.21170E-03-6.90056E-14
 -1      2769 1.14899E-02-1.23192E-03-7.08131E-14
 -1      2770 1.19492E-02-1.13681E-03-7.57000E-14
 -1      2771 1.21327E-02-1.06535E-03-7.75921E-14
 -1      2772 1.23205E-02-9.85649E-04-7.95074E-14
 -1      2773 1.25092E-02-9.08763E-04-8.14450E-14
 -1      2774 1.22560E-02-9.76885E-04-7.86929E-14
 -1      2775 1.26982E-02-8.38415E-04-8.33996E-14
 -1      2776 1.28821E-02-7.76491E-04-8.53700E-14
 -1      2777 1.26466E-02-8.13832E-04-8.25629E-14
 -1      2778 1.30624E-02-7.24685E-04-8.73558E-14
 -1      2779 1.32366E-02-6.82151E-04-8.93540E-14
 -1      2780 1.30223E-02-6.91827E-04-8.65046E-14
 -1      2781 1.34061E-02-6.48736E-04-9.13647E-14
 -1      2782 1.35702E-02-6.22138E-04-9.33871E-14
 -1      2783 1.33719E-02-6.13281E-04-9.04997E-14
 -1      2784 1.37304E-02-6.01807E-04-9.54201E-14
 -1      2785 1.38865E-02-5.85729E-04-9.74616E-14
 -1      2786 1.36978E-02-5.67240E-04-9.45415E-14
 -1      2787 1.40397E-02-5.73045E-04-9.95074E-14
 -1      2788 1.41901E-02-5.62145E-04-1.01565E-13
 -1      2789 1.40064E-02-5.40891E-04-9.86169E-14
 -1      2790 2.26907E-03 4.78526E-04-3.30035E-15
 -1      2791 2.12726E-03 4.71720E-04-2.90475E-15
 -1      2792 1.41564E-02 1.10212E-04-1.06722E-13
 -1      2793 1.40721E-02 1.65652E-04-1.06744E-13
 -1      2794 1.39227E-02 2.00470E-04-1.04730E-13
 -1      2795 8.03066E-04 2.78296E-04-4.70015E-16
 -1      2796 1.98535E-03 4.63281E-04-2.53459E-15
 -1      2797 1.84332E-03 4.53047E-04-2.18971E-15
 -1      2798 2.04756E-03 4.31337E-04-2.74856E-15
 -1      2799 2.83609E-03 4.94161E-04-5.13944E-15
 -1      2800 2.69433E-03 4.91665E-04-4.64125E-15
 -1      2801 3.11976E-03 4.97186E-04-6.21293E-15
 -1      2802 2.97791E-03 4.95976E-04-5.66272E-15
 -1      2803 2.90231E-03 4.58094E-04-5.43088E-15
 -1      2804 3.40365E-03 4.98215E-04-7.38977E-15
 -1      2805 3.26168E-03 4.97914E-04-6.78868E-15
 -1      2806 3.18710E-03 4.60476E-04-6.52946E-15
 -1      2807 3.68781E-03 4.97831E-04-8.66877E-15
 -1      2808 3.54570E-03 4.98174E-04-8.01641E-15
 -1      2809 3.47195E-03 4.61069E-04-7.73036E-15
 -1      2810 3.97225E-03 4.96427E-04-1.00502E-14
 -1      2811 3.83000E-03 4.97240E-04-9.34685E-15
 -1      2812 3.75692E-03 4.60391E-04-9.03311E-15
 -1      2813 4.25700E-03 4.94247E-04-1.15356E-14
 -1      2814 4.11459E-03 4.95424E-04-1.07794E-14
 -1      2815 4.04203E-03 4.58788E-04-1.04383E-14
 -1      2816 4.54204E-03 4.91422E-04-1.31243E-14
 -1      2817 4.39948E-03 4.92911E-04-1.23167E-14
 -1      2818 4.32729E-03 4.56469E-04-1.19465E-14
 -1      2819 4.82739E-03 4.87993E-04-1.48166E-14
 -1      2820 4.68467E-03 4.89782E-04-1.39579E-14
 -1      2821 4.61271E-03 4.53536E-04-1.35582E-14
 -1      2822 5.11308E-03 4.83941E-04-1.66126E-14
 -1      2823 4.97019E-03 4.86047E-04-1.57020E-14
 -1      2824 4.89832E-03 4.50012E-04-1.52738E-14
 -1      2825 5.39915E-03 4.79203E-04-1.85113E-14
 -1      2826 5.25606E-03 4.81660E-04-1.75485E-14
 -1      2827 5.18413E-03 4.45861E-04-1.70918E-14
 -1      2828 5.68567E-03 4.73702E-04-2.05139E-14
 -1      2829 5.54235E-03 4.76551E-04-1.94994E-14
 -1      2830 5.47017E-03 4.41016E-04-1.90115E-14
 -1      2831 5.97274E-03 4.67368E-04-2.26189E-14
 -1      2832 5.82912E-03 4.70640E-04-2.15534E-14
 -1      2833 5.75650E-03 4.35395E-04-2.10357E-14
 -1      2834 6.26048E-03 4.60176E-04-2.48301E-14
 -1      2835 6.11651E-03 4.63877E-04-2.37125E-14
 -1      2836 6.04317E-03 4.28932E-04-2.31643E-14
 -1      2837 6.54906E-03 4.52184E-04-2.71415E-14
 -1      2838 6.40464E-03 4.56271E-04-2.59727E-14
 -1      2839 6.33028E-03 4.21609E-04-2.53949E-14
 -1      2840 6.83869E-03 4.43591E-04-2.95528E-14
 -1      2841 6.69371E-03 4.47944E-04-2.83352E-14
 -1      2842 6.61793E-03 4.13498E-04-2.77258E-14
 -1      2843 7.12965E-03 4.34809E-04-3.20597E-14
 -1      2844 6.98397E-03 4.39190E-04-3.07940E-14
 -1      2845 6.90629E-03 4.04817E-04-3.01559E-14
 -1      2846 7.42229E-03 4.26552E-04-3.46659E-14
 -1      2847 7.27571E-03 4.30559E-04-3.33503E-14
 -1      2848 7.19559E-03 3.96003E-04-3.26817E-14
 -1      2849 7.71706E-03 4.19950E-04-3.73673E-14
 -1      2850 7.56936E-03 4.22960E-04-3.60046E-14
 -1      2851 7.48614E-03 3.87796E-04-3.53053E-14
 -1      2852 8.01459E-03 4.16671E-04-4.01652E-14
 -1      2853 7.86543E-03 4.17772E-04-3.87541E-14
 -1      2854 7.77842E-03 3.81349E-04-3.80261E-14
 -1      2855 8.31570E-03 4.19044E-04-4.30544E-14
 -1      2856 8.16464E-03 4.16979E-04-4.15989E-14
 -1      2857 8.07315E-03 3.78347E-04-4.08419E-14
 -1      2858 8.62149E-03 4.30148E-04-4.60257E-14
 -1      2859 8.46796E-03 4.23274E-04-4.45296E-14
 -1      2860 8.37137E-03 3.81131E-04-4.37461E-14
 -1      2861 8.93331E-03 4.53791E-04-4.90768E-14
 -1      2862 8.77661E-03 4.40114E-04-4.75412E-14
 -1      2863 8.67461E-03 3.92811E-04-4.67330E-14
 -1      2864 9.25260E-03 4.94255E-04-5.22038E-14
 -1      2865 9.09204E-03 4.71597E-04-5.06315E-14
 -1      2866 8.98486E-03 4.17300E-04-4.97977E-14
 -1      2867 9.58033E-03 5.55532E-04-5.54098E-14
 -1      2868 9.41557E-03 5.22018E-04-5.37958E-14
 -1      2869 9.30438E-03 4.59178E-04-5.29389E-14
 -1      2870 9.91587E-03 6.39600E-04-5.86980E-14
 -1      2871 9.74750E-03 5.94698E-04-5.70440E-14
 -1      2872 9.63494E-03 5.23074E-04-5.61587E-14
 -1      2873 1.02556E-02 7.43181E-04-6.20723E-14
 -1      2874 1.00858E-02 6.89530E-04-6.03747E-14
 -1      2875 9.97611E-03 6.11767E-04-5.94617E-14
 -1      2876 1.05925E-02 8.53406E-04-6.55260E-14
 -1      2877 1.04250E-02 7.98901E-04-6.37884E-14
 -1      2878 1.03234E-02 7.21904E-04-6.28460E-14
 -1      2879 1.09195E-02 9.45874E-04-6.90634E-14
 -1      2880 1.07574E-02 9.04004E-04-6.72871E-14
 -1      2881 1.06675E-02 8.38726E-04-6.63158E-14
 -1      2882 1.12348E-02 9.90465E-04-7.26736E-14
 -1      2883 1.10780E-02 9.76071E-04-7.08589E-14
 -1      2884 1.09999E-02 9.31379E-04-6.98646E-14
 -1      2885 1.15450E-02 9.67687E-04-7.63526E-14
 -1      2886 1.13887E-02 9.87902E-04-7.45037E-14
 -1      2887 1.13190E-02 9.65314E-04-7.34860E-14
 -1      2888 1.18628E-02 8.81765E-04-8.01031E-14
 -1      2889 1.17022E-02 9.30985E-04-7.82192E-14
 -1      2890 1.16371E-02 9.20801E-04-7.71825E-14
 -1      2891 1.21919E-02 7.58279E-04-8.39200E-14
 -1      2892 1.20260E-02 8.22527E-04-8.20043E-14
 -1      2893 1.19667E-02 8.13312E-04-8.09491E-14
 -1      2894 1.25277E-02 6.26074E-04-8.77922E-14
 -1      2895 1.23597E-02 6.91666E-04-8.58506E-14
 -1      2896 1.23086E-02 6.76715E-04-8.47813E-14
 -1      2897 1.28625E-02 5.04308E-04-9.17077E-14
 -1      2898 1.26960E-02 5.63158E-04-8.97443E-14
 -1      2899 1.26543E-02 5.42115E-04-8.86661E-14
 -1      2900 1.31900E-02 4.00451E-04-9.56604E-14
 -1      2901 1.30276E-02 4.50145E-04-9.36794E-14
 -1      2902 1.29941E-02 4.25360E-04-9.25929E-14
 -1      2903 1.35078E-02 3.13335E-04-9.96399E-14
 -1      2904 1.33503E-02 3.55144E-04-9.76481E-14
 -1      2905 1.33226E-02 3.29378E-04-9.65545E-14
 -1      2906 1.37935E-02 2.36743E-04-1.03183E-13
 -1      2907 1.36403E-02 2.73600E-04-1.01175E-13
 -1      2908 1.36162E-02 2.48396E-04-1.00079E-13
 -1      2909 1.38791E-02 1.75935E-04-1.03160E-13
 -1      2910 1.29183E-02 1.35105E-04-8.42239E-14
 -1      2911 1.31129E-02 4.67669E-05-8.51802E-14
 -1      2912 1.46610E-02-2.12201E-04-1.05916E-13
 -1      2913 1.46336E-02-1.87114E-04-1.06037E-13
 -1      2914 1.42913E-02-5.54647E-04-1.02961E-13
 -1      2915 1.43898E-02-5.48557E-04-1.04352E-13
 -1      2916 1.44552E-02-5.13104E-04-1.04850E-13
 -1      2917 1.42567E-02-5.25424E-04-1.02057E-13
 -1      2918 1.45027E-02-1.00436E-04-1.06389E-13
 -1      2919 1.44475E-02-6.68762E-05-1.06502E-13
 -1      2920 1.46859E-02-2.59253E-04-1.05667E-13
 -1      2921 1.46787E-02-2.35819E-04-1.05794E-13
 -1      2922 1.45626E-02-2.16745E-04-1.04092E-13
 -1      2923 1.45972E-02-1.60502E-04-1.06157E-13
 -1      2924 1.45531E-02-1.31567E-04-1.06273E-13
 -1      2925 1.44117E-02-1.03313E-04-1.04576E-13
 -1      2926 1.45046E-02-1.64572E-04-1.04339E-13
 -1      2927 1.46705E-02-3.06378E-04-1.05407E-13
 -1      2928 1.46830E-02-2.82215E-04-1.05538E-13
 -1      2929 1.45775E-02-2.64461E-04-1.03837E-13
 -1      2930 1.46191E-02-3.60306E-04-1.05129E-13
 -1      2931 1.46487E-02-3.32233E-04-1.05268E-13
 -1      2932 1.45496E-02-3.14818E-04-1.03567E-13
 -1      2933 1.45422E-02-4.23137E-04-1.04841E-13
 -1      2934 1.45831E-02-3.90488E-04-1.04985E-13
 -1      2935 1.44858E-02-3.73725E-04-1.03281E-13
 -1      2936 1.44767E-02-4.85158E-04-1.04769E-13
 -1      2937 1.45222E-02-4.48955E-04-1.04923E-13
 -1      2938 1.44235E-02-4.33788E-04-1.03214E-13
 -1      2939 1.43789E-02-4.90088E-04-1.03373E-13
 -1      2940 1.27706E-02-6.10642E-04-8.17222E-14
 -1      2941 1.25357E-02-7.44514E-04-8.01997E-14
 -1      2942 7.88837E-04-2.52565E-04-3.93403E-16
 -1      2943 9.20018E-04-2.88355E-04-5.12787E-16
 -1      2944 1.37942E-02-1.86512E-04-8.73707E-14
 -1      2945 1.37966E-02-1.93970E-04-8.72909E-14
 -1      2946 1.33333E-02-4.37283E-05-8.60469E-14
 -1      2947 1.34887E-02-9.71670E-05-8.65224E-14
 -1      2948 6.52860E-04-1.88452E-04-3.10231E-16
 -1      2949 9.08399E-03-7.87060E-05-5.82340E-14
 -1      2950 9.12337E-03-6.87251E-05-5.84886E-14
 -1      2951 1.13781E-02 8.96617E-04-7.32969E-14
 -1      2952 1.14922E-02 8.83248E-04-7.44511E-14
 -1      2953 1.70112E-03 4.40599E-04-1.87090E-15
 -1      2954 1.55867E-03 4.25735E-04-1.57800E-15
 -1      2955 1.76207E-03 4.11270E-04-2.05772E-15
 -1      2956 2.55258E-03 4.88316E-04-4.16830E-15
 -1      2957 2.41084E-03 4.84015E-04-3.72173E-15
 -1      2958 2.33266E-03 4.44714E-04-3.54094E-15
 -1      2959 2.61754E-03 4.53179E-04-4.43492E-15
 -1      2960 1.04823E-03-3.15928E-04-6.52297E-16
 -1      2961 1.19149E-03-3.41577E-04-8.31949E-16
 -1      2962 1.25303E-03-3.20010E-04-9.65929E-16
 -1      2963 9.96728E-04-2.74929E-04-6.34624E-16
 -1      2964 7.84415E-04 1.23506E-04-5.49569E-16
 -1      2965 7.82035E-04 1.00063E-04-5.52821E-16
 -1      2966 8.99660E-04 9.94880E-05-7.02482E-16
 -1      2967 9.05379E-04 1.51642E-04-6.95136E-16
 -1      2968 1.41600E-03 4.07922E-04-1.31054E-15
 -1      2969 1.27296E-03 3.86894E-04-1.06886E-15
 -1      2970 1.18964E-03 3.41575E-04-9.81989E-16
 -1      2971 1.47606E-03 3.82268E-04-1.46865E-15
 -1      2972 1.18769E-02-1.11397E-03-7.49046E-14
 -1      2973 1.17122E-02-1.17453E-03-7.33051E-14
 -1      2974 1.16149E-02-1.20508E-03-7.22769E-14
 -1      2975 7.81769E-04-9.80049E-05-5.18411E-16
 -1      2976 7.84074E-04-1.21362E-04-5.07027E-16
 -1      2977 1.23092E-02-8.80549E-04-7.86147E-14
 -1      2978 1.21300E-02-9.89096E-04-7.71818E-14
 -1      2979 1.37584E-02-2.08992E-04-8.69595E-14
 -1      2980 1.36845E-02-2.28675E-04-8.66414E-14
 -1      2981 9.69494E-03-2.95222E-04-5.98480E-14
 -1      2982 9.52797E-03-2.26978E-04-5.93083E-14
 -1      2983 1.03126E-02 4.44840E-04-6.43769E-14
 -1      2984 1.04969E-02 5.55428E-04-6.55763E-14
 -1      2985 9.91262E-03 2.24460E-04-6.22171E-14
 -1      2986 1.00919E-02 3.20552E-04-6.31062E-14
 -1      2987 9.56401E-03 6.93082E-05-6.05847E-14
 -1      2988 9.73621E-03 1.39754E-04-6.13985E-14
 -1      2989 9.79467E-03 1.90438E-04-6.10763E-14
 -1      2990 9.12251E-03-9.94453E-05-5.82607E-14
 -1      2991 9.08944E-03-9.11455E-05-5.82643E-14
 -1      2992 1.00489E-02-4.78832E-04-6.08544E-14
 -1      2993 9.86603E-03-3.77771E-04-6.03253E-14
 -1      2994 1.05575E-02-7.91210E-04-6.33241E-14
 -1      2995 1.03266E-02-6.46695E-04-6.19567E-14
 -1      2996 1.09684E-02-1.03507E-03-6.64529E-14
 -1      2997 1.08154E-02-9.46483E-04-6.51886E-14
 -1      2998 1.12482E-02-1.16498E-03-6.87970E-14
 -1      2999 1.11214E-02-1.11095E-03-6.77121E-14
 -1      3000 1.10599E-02-1.09685E-03-6.68666E-14
 -1      3001 1.13343E-02-1.19647E-03-6.94115E-14
 -1      3002 1.07239E-02 6.86107E-04-6.72357E-14
 -1      3003 1.09011E-02 7.78988E-04-6.87405E-14
 -1      3004 1.25706E-02 3.24694E-04-8.26804E-14
 -1      3005 1.27432E-02 2.25772E-04-8.34497E-14
 -1      3006 1.28597E-02 1.80968E-04-8.47866E-14
 -1      3007 1.32023E-02-4.00900E-04-8.42314E-14
 -1      3008 1.30200E-02-4.85179E-04-8.32687E-14
 -1      3009 1.10776E-02 8.47861E-04-7.03501E-14
 -1      3010 1.12227E-02 8.86496E-04-7.17674E-14
 -1      3011 7.87119E-04-1.45507E-04-4.93949E-16
 -1      3012 7.90972E-04-1.70667E-04-4.78662E-16
 -1      3013 9.04908E-04-1.49106E-04-6.37809E-16
 -1      3014 8.95539E-04 1.01008E-06-6.96410E-16
 -1      3015 7.77688E-04-9.72552E-06-5.47129E-16
 -1      3016 7.78050E-04-3.13820E-05-5.42142E-16
 -1      3017 1.09694E-02 8.23784E-04-6.93255E-14
 -1      3018 1.33404E-02-3.69050E-04-8.58158E-14
 -1      3019 1.15832E-02 8.64508E-04-7.54336E-14
 -1      3020 1.16722E-02 8.36558E-04-7.64216E-14
 -1      3021 1.15195E-02 8.86851E-04-7.49787E-14
 -1      3022 1.18654E-02 7.47369E-04-7.81152E-14
 -1      3023 1.19652E-02 6.84835E-04-7.86867E-14
 -1      3024 1.20860E-02 6.23087E-04-7.99328E-14
 -1      3025 1.16339E-02-1.21924E-03-7.23890E-14
 -1      3026 1.07435E-02-9.35903E-04-6.40120E-14
 -1      3027 1.08748E-02-1.03392E-03-6.47212E-14
 -1      3028 1.11915E-02-1.17447E-03-6.77299E-14
 -1      3029 1.10593E-02-1.11791E-03-6.64679E-14
 -1      3030 1.42971E-02-3.18666E-05-1.04805E-13
 -1      3031 1.43893E-02-3.14247E-05-1.06611E-13
 -1      3032 1.43291E-02 5.89858E-06-1.06721E-13
 -1      3033 1.18099E-02-1.18164E-03-7.42427E-14
 -1      3034 1.31595E-02 5.20941E-05-8.68197E-14
 -1      3035 1.32421E-02 1.47406E-06-8.64350E-14
 -1      3036 1.33618E-02-3.07563E-05-8.76940E-14
 -1      3037 1.29174E-02-5.58641E-04-8.31627E-14
 -1      3038 8.64836E-04 2.66619E-04-5.63473E-16
 -1      3039 1.24594E-02-8.14090E-04-8.00175E-14
 -1      3040 1.42176E-02 6.91155E-05-1.06615E-13
 -1      3041 1.37888E-02-1.78657E-04-8.81108E-14
 -1      3042 1.35872E-02-1.23370E-04-8.74740E-14
 -1      3043 1.36738E-02-1.40367E-04-8.84290E-14
 -1      3044 1.35482E-02-1.00020E-04-8.82596E-14
 -1      3045 9.82933E-04 2.75859E-04-7.22282E-16
 -1      3046 9.07961E-03-5.48437E-05-5.69631E-14
 -1      3047 9.15192E-03-5.31332E-05-5.81720E-14
 -1      3048 9.18786E-03-3.34434E-05-5.78549E-14
 -1      3049 1.38106E-02-2.05926E-04-8.82483E-14
 -1      3050 1.05953E-02 6.36439E-04-6.60639E-14
 -1      3051 1.06730E-02-8.80353E-04-6.37434E-14
 -1      3052 7.69984E-04-2.02459E-04-4.25265E-16
 -1      3053 9.45066E-03 3.54202E-05-5.96692E-14
 -1      3054 9.51289E-03 7.96372E-05-5.93520E-14
 -1      3055 9.34758E-03 1.34142E-05-5.87595E-14
 -1      3056 9.05512E-03-8.03145E-05-5.73101E-14
 -1      3057 1.12844E-02 8.99291E-04-7.24624E-14
 -1      3058 7.78826E-04-5.31756E-05-5.35677E-16
 -1      3059 7.80039E-04-7.53725E-05-5.27654E-16
 -1      3060 8.99378E-04-9.71353E-05-6.64697E-16
 -1      3061 8.96431E-04-4.75476E-05-6.83793E-16
 -1      3062 9.41163E-03-1.89084E-04-5.84388E-14
 -1      3063 9.30757E-03-1.63261E-04-5.75726E-14
 -1      3064 9.46405E-03-2.20526E-04-5.79046E-14
 -1      3065 1.19150E-02-1.12102E-03-7.53201E-14
 -1      3066 1.01703E-02 3.88741E-04-6.31482E-14
 -1      3067 9.74350E-03-3.32753E-04-5.92426E-14
 -1      3068 1.36510E-02-2.57299E-04-8.74167E-14
 -1      3069 1.23373E-02 4.76469E-04-8.18243E-14
 -1      3070 1.24475E-02 4.01196E-04-8.22517E-14
 -1      3071 1.25773E-02 3.43033E-04-8.35775E-14
 -1      3072 9.14936E-03-1.10707E-04-5.77209E-14
 -1      3073 1.04028E-03 2.43341E-04-8.36719E-16
 -1      3074 1.03368E-03 2.11612E-04-8.48849E-16
 -1      3075 1.20295E-02-1.05065E-03-7.63659E-14
 -1      3076 1.04502E-02 5.83385E-04-6.47007E-14
 -1      3077 1.06528E-02 7.00260E-04-6.63494E-14
 -1      3078 1.73168E-03-3.40534E-04-1.85115E-15
 -1      3079 1.87535E-03-3.50726E-04-2.15617E-15
 -1      3080 2.01901E-03-3.59194E-04-2.48631E-15
 -1      3081 2.16266E-03-3.66093E-04-2.84051E-15
 -1      3082 1.94021E-03-3.19399E-04-2.36237E-15
 -1      3083 2.30626E-03-3.71696E-04-3.21898E-15
 -1      3084 2.44982E-03-3.76128E-04-3.62256E-15
 -1      3085 2.22826E-03-3.32464E-04-3.07679E-15
 -1      3086 2.59332E-03-3.79610E-04-4.05137E-15
 -1      3087 2.73675E-03-3.82237E-04-4.50491E-15
 -1      3088 2.51625E-03-3.40898E-04-3.88945E-15
 -1      3089 2.88014E-03-3.84180E-04-4.98237E-15
 -1      3090 3.02347E-03-3.85510E-04-5.48514E-15
 -1      3091 2.80403E-03-3.45920E-04-4.80139E-15
 -1      3092 3.16676E-03-3.86354E-04-6.01280E-15
 -1      3093 3.31000E-03-3.86764E-04-6.56518E-15
 -1      3094 3.09154E-03-3.48478E-04-5.81151E-15
 -1      3095 3.45320E-03-3.86830E-04-7.14225E-15
 -1      3096 3.59636E-03-3.86589E-04-7.74436E-15
 -1      3097 3.37878E-03-3.49284E-04-6.92099E-15
 -1      3098 3.73949E-03-3.86102E-04-8.37114E-15
 -1      3099 3.88258E-03-3.85391E-04-9.02250E-15
 -1      3100 3.66575E-03-3.48848E-04-8.12894E-15
 -1      3101 4.02565E-03-3.84497E-04-9.69874E-15
 -1      3102 4.16869E-03-3.83430E-04-1.03989E-14
 -1      3103 3.95247E-03-3.47515E-04-9.43631E-15
 -1      3104 4.31171E-03-3.82213E-04-1.11239E-14
 -1      3105 4.45470E-03-3.80850E-04-1.18736E-14
 -1      3106 4.23896E-03-3.45502E-04-1.08417E-14
 -1      3107 4.59768E-03-3.79349E-04-1.26471E-14
 -1      3108 4.74063E-03-3.77707E-04-1.34457E-14
 -1      3109 4.52523E-03-3.42923E-04-1.23449E-14
 -1      3110 4.88356E-03-3.75923E-04-1.42687E-14
 -1      3111 5.02647E-03-3.73990E-04-1.51153E-14
 -1      3112 4.81128E-03-3.39815E-04-1.39454E-14
 -1      3113 5.16935E-03-3.71900E-04-1.59870E-14
 -1      3114 5.31222E-03-3.69642E-04-1.68840E-14
 -1      3115 5.09710E-03-3.36154E-04-1.56443E-14
 -1      3116 5.45505E-03-3.67206E-04-1.78065E-14
 -1      3117 5.59786E-03-3.64579E-04-1.87537E-14
 -1      3118 5.38266E-03-3.31881E-04-1.74426E-14
 -1      3119 5.74063E-03-3.61750E-04-1.97265E-14
 -1      3120 5.88337E-03-3.58708E-04-2.07251E-14
 -1      3121 5.66792E-03-3.26912E-04-1.93425E-14
 -1      3122 6.02605E-03-3.55447E-04-2.17487E-14
 -1      3123 6.16869E-03-3.51958E-04-2.27985E-14
 -1      3124 5.95279E-03-3.21165E-04-2.13435E-14
 -1      3125 6.31125E-03-3.48246E-04-2.38742E-14
 -1      3126 6.45376E-03-3.44306E-04-2.49742E-14
 -1      3127 6.23718E-03-3.14582E-04-2.34483E-14
 -1      3128 6.59617E-03-3.40163E-04-2.61000E-14
 -1      3129 6.73851E-03-3.35820E-04-2.72512E-14
 -1      3130 6.52094E-03-3.07159E-04-2.56541E-14
 -1      3131 6.88072E-03-3.31328E-04-2.84262E-14
 -1      3132 7.02284E-03-3.26707E-04-2.96259E-14
 -1      3133 6.80391E-03-2.98985E-04-2.79601E-14
 -1      3134 7.16481E-03-3.22045E-04-3.08508E-14
 -1      3135 7.30668E-03-3.17384E-04-3.20994E-14
 -1      3136 7.08590E-03-2.90290E-04-3.03644E-14
 -1      3137 7.44837E-03-3.12862E-04-3.33721E-14
 -1      3138 7.58999E-03-3.08554E-04-3.46693E-14
 -1      3139 7.36671E-03-2.81497E-04-3.28670E-14
 -1      3140 7.73145E-03-3.04658E-04-3.59902E-14
 -1      3141 7.87291E-03-3.01300E-04-3.73337E-14
 -1      3142 7.64621E-03-2.73296E-04-3.54654E-14
 -1      3143 8.01429E-03-2.98743E-04-3.87009E-14
 -1      3144 8.15584E-03-2.97198E-04-4.00913E-14
 -1      3145 7.92439E-03-2.66702E-04-3.81562E-14
 -1      3146 8.29756E-03-2.96985E-04-4.15056E-14
 -1      3147 8.43983E-03-2.98458E-04-4.29428E-14
 -1      3148 8.20162E-03-2.63142E-04-4.09408E-14
 -1      3149 8.58276E-03-3.01968E-04-4.43994E-14
 -1      3150 8.72695E-03-3.08137E-04-4.58777E-14
 -1      3151 8.47889E-03-2.64550E-04-4.38155E-14
 -1      3152 8.87274E-03-3.17293E-04-4.73765E-14
 -1      3153 9.02101E-03-3.30547E-04-4.88950E-14
 -1      3154 8.75843E-03-2.73584E-04-4.67750E-14
 -1      3155 9.17245E-03-3.48137E-04-5.04319E-14
 -1      3156 9.32827E-03-3.72150E-04-5.19880E-14
 -1      3157 9.04448E-03-2.94098E-04-4.98141E-14
 -1      3158 9.48982E-03-4.02702E-04-5.35627E-14
 -1      3159 9.65795E-03-4.43305E-04-5.51560E-14
 -1      3160 9.34461E-03-3.32757E-04-5.29265E-14
 -1      3161 1.29939E-02-6.49352E-04-8.56660E-14
 -1      3162 1.31748E-02-6.03259E-04-8.76498E-14
 -1      3163 1.33485E-02-5.69913E-04-8.96476E-14
 -1      3164 1.35142E-02-5.44404E-04-9.16548E-14
 -1      3165 1.33321E-02-5.22400E-04-8.87960E-14
 -1      3166 1.36741E-02-5.26627E-04-9.36745E-14
 -1      3167 1.38290E-02-5.13308E-04-9.57046E-14
 -1      3168 1.36557E-02-4.83127E-04-9.28110E-14
 -1      3169 1.39800E-02-5.04001E-04-9.77383E-14
 -1      3170 1.41281E-02-4.96792E-04-9.97808E-14
 -1      3171 1.39571E-02-4.65461E-04-9.68631E-14
 -1      3172 3.54062E-03 4.23683E-04-8.07090E-15
 -1      3173 3.39778E-03 4.23744E-04-7.44607E-15
 -1      3174 2.11105E-03 3.98763E-04-2.96438E-15
 -1      3175 1.96782E-03 3.90869E-04-2.59298E-15
 -1      3176 3.25492E-03 4.23462E-04-6.84605E-15
 -1      3177 3.11206E-03 4.22797E-04-6.27159E-15
 -1      3178 3.32323E-03 3.86211E-04-7.16342E-15
 -1      3179 2.96917E-03 4.21650E-04-5.72327E-15
 -1      3180 2.82626E-03 4.19959E-04-5.20057E-15
 -1      3181 3.03664E-03 3.84904E-04-6.01658E-15
 -1      3182 3.82628E-03 4.22771E-04-9.39738E-15
 -1      3183 3.68345E-03 4.23350E-04-8.72101E-15
 -1      3184 3.60963E-03 3.86119E-04-8.41197E-15
 -1      3185 4.11195E-03 4.21023E-04-1.08257E-14
 -1      3186 3.96912E-03 4.21990E-04-1.00989E-14
 -1      3187 3.89589E-03 3.85023E-04-9.76144E-15
 -1      3188 4.39764E-03 4.18615E-04-1.23571E-14
 -1      3189 4.25479E-03 4.19896E-04-1.15787E-14
 -1      3190 4.18203E-03 3.83179E-04-1.12126E-14
 -1      3191 4.68336E-03 4.15622E-04-1.39918E-14
 -1      3192 4.54050E-03 4.17190E-04-1.31613E-14
 -1      3193 4.46805E-03 3.80726E-04-1.27674E-14
 -1      3194 4.96913E-03 4.12050E-04-1.57294E-14
 -1      3195 4.82624E-03 4.13910E-04-1.48475E-14
 -1      3196 4.75398E-03 3.77719E-04-1.44243E-14
 -1      3197 5.25495E-03 4.07854E-04-1.75694E-14
 -1      3198 5.11203E-03 4.10034E-04-1.66367E-14
 -1      3199 5.03982E-03 3.74149E-04-1.61841E-14
 -1      3200 5.54086E-03 4.02959E-04-1.95123E-14
 -1      3201 5.39789E-03 4.05499E-04-1.85277E-14
 -1      3202 5.32556E-03 3.69961E-04-1.80469E-14
 -1      3203 5.82685E-03 3.97285E-04-2.15586E-14
 -1      3204 5.68383E-03 4.00224E-04-2.05232E-14
 -1      3205 5.61119E-03 3.65078E-04-2.00125E-14
 -1      3206 6.11296E-03 3.90768E-04-2.37080E-14
 -1      3207 5.96988E-03 3.94134E-04-2.26197E-14
 -1      3208 5.89671E-03 3.59421E-04-2.20805E-14
 -1      3209 6.39923E-03 3.83399E-04-2.59577E-14
 -1      3210 6.25606E-03 3.87189E-04-2.48202E-14
 -1      3211 6.18209E-03 3.52930E-04-2.42497E-14
 -1      3212 6.68573E-03 3.75262E-04-2.83090E-14
 -1      3213 6.54243E-03 3.79418E-04-2.71203E-14
 -1      3214 6.46733E-03 3.45604E-04-2.65201E-14
 -1      3215 6.97255E-03 3.66587E-04-3.07567E-14
 -1      3216 6.82907E-03 3.70973E-04-2.95213E-14
 -1      3217 6.75244E-03 3.37534E-04-2.88895E-14
 -1      3218 7.25988E-03 3.57822E-04-3.33027E-14
 -1      3219 7.11612E-03 3.62182E-04-3.20174E-14
 -1      3220 7.03747E-03 3.28954E-04-3.13571E-14
 -1      3221 7.54802E-03 3.49711E-04-3.59450E-14
 -1      3222 7.40380E-03 3.53629E-04-3.46121E-14
 -1      3223 7.32254E-03 3.20306E-04-3.39221E-14
 -1      3224 7.83747E-03 3.43396E-04-3.86838E-14
 -1      3225 7.69252E-03 3.46242E-04-3.73027E-14
 -1      3226 7.60796E-03 3.12312E-04-3.65837E-14
 -1      3227 8.12907E-03 3.40534E-04-4.15174E-14
 -1      3228 7.98292E-03 3.41403E-04-4.00885E-14
 -1      3229 7.89426E-03 3.06067E-04-3.93408E-14
 -1      3230 8.42412E-03 3.43427E-04-4.44363E-14
 -1      3231 8.27605E-03 3.41072E-04-4.29672E-14
 -1      3232 8.18240E-03 3.03148E-04-4.21901E-14
 -1      3233 8.72460E-03 3.55169E-04-4.74394E-14
 -1      3234 8.57355E-03 3.47921E-04-4.59275E-14
 -1      3235 8.47398E-03 3.05761E-04-4.51265E-14
 -1      3236 9.03321E-03 3.79782E-04-5.05166E-14
 -1      3237 8.87774E-03 3.65496E-04-4.89675E-14
 -1      3238 8.77145E-03 3.16954E-04-4.81421E-14
 -1      3239 9.35316E-03 4.22269E-04-5.36708E-14
 -1      3240 9.19167E-03 3.98311E-04-5.20843E-14
 -1      3241 9.07830E-03 3.40883E-04-5.12326E-14
 -1      3242 9.68720E-03 4.88230E-04-5.69052E-14
 -1      3243 9.51853E-03 4.51818E-04-5.52781E-14
 -1      3244 9.39886E-03 3.83247E-04-5.44013E-14
 -1      3245 1.00354E-02 5.81907E-04-6.02229E-14
 -1      3246 9.86007E-03 5.31446E-04-5.85532E-14
 -1      3247 9.73707E-03 4.51276E-04-5.76488E-14
 -1      3248 1.06878E-02 7.85052E-04-6.65231E-14
 -1      3249 1.05083E-02 7.18414E-04-6.47807E-14
 -1      3250 1.10835E-02 9.24081E-04-7.06776E-14
 -1      3251 1.09171E-02 8.85389E-04-6.88881E-14
 -1      3252 1.14556E-02 9.20108E-04-7.46693E-14
 -1      3253 1.12894E-02 9.27943E-04-7.28365E-14
 -1      3254 1.20760E-02 7.39982E-04-8.18042E-14
 -1      3255 1.19024E-02 8.09569E-04-7.99039E-14
 -1      3256 1.24307E-02 5.92635E-04-8.56495E-14
 -1      3257 1.22528E-02 6.65584E-04-8.37206E-14
 -1      3258 1.21965E-02 6.57189E-04-8.26596E-14
 -1      3259 1.27845E-02 4.59477E-04-8.95486E-14
 -1      3260 1.26091E-02 5.23266E-04-8.75942E-14
 -1      3261 1.25634E-02 5.03938E-04-8.65209E-14
 -1      3262 1.31265E-02 3.50564E-04-9.34873E-14
 -1      3263 1.29575E-02 4.02024E-04-9.15136E-14
 -1      3264 1.29217E-02 3.76576E-04-9.04344E-14
 -1      3265 1.34536E-02 2.63793E-04-9.74580E-14
 -1      3266 1.32921E-02 3.04926E-04-9.54684E-14
 -1      3267 1.32628E-02 2.77928E-04-9.43837E-14
 -1      3268 1.44687E-02-2.70404E-04-1.02008E-13
 -1      3269 1.44732E-02-2.46129E-04-1.02139E-13
 -1      3270 1.44259E-02-3.24331E-04-1.01728E-13
 -1      3271 1.44525E-02-2.96127E-04-1.01870E-13
 -1      3272 1.43577E-02-2.77113E-04-1.00178E-13
 -1      3273 1.44655E-02-2.22191E-04-1.02271E-13
 -1      3274 1.44455E-02-1.97028E-04-1.02398E-13
 -1      3275 1.43690E-02-2.27641E-04-1.00450E-13
 -1      3276 1.34633E-02-3.52144E-04-8.74461E-14
 -1      3277 1.32914E-02-4.18562E-04-8.63439E-14
 -1      3278 1.09081E-02 8.24260E-04-6.87090E-14
 -1      3279 1.10662E-02 8.79568E-04-7.03186E-14
 -1      3280 1.01873E-02-5.63945E-04-6.12276E-14
 -1      3281 1.00368E-02-4.94157E-04-6.00837E-14
 -1      3282 1.14499E-03 3.10657E-04-9.41806E-16
 -1      3283 1.08235E-03 2.71715E-04-8.78543E-16
 -1      3284 1.20145E-03 2.73122E-04-1.07375E-15
 -1      3285 1.28815E-03 3.32629E-04-1.16727E-15
 -1      3286 1.82454E-03 3.81219E-04-2.24702E-15
 -1      3287 1.68119E-03 3.69640E-04-1.92627E-15
 -1      3288 1.88827E-03 3.50492E-04-2.43903E-15
 -1      3289 1.31438E-02-5.02620E-04-8.57611E-14
 -1      3290 1.29275E-02-6.05814E-04-8.41959E-14
 -1      3291 1.42804E-02-4.94783E-04-1.01981E-13
 -1      3292 1.38671E-02-2.06411E-04-8.97538E-14
 -1      3293 1.38321E-02-2.19841E-04-8.94204E-14
 -1      3294 1.37833E-02-1.67217E-04-8.93009E-14
 -1      3295 1.38517E-02-1.84784E-04-8.97738E-14
 -1      3296 1.00190E-02 3.44675E-04-6.16768E-14
 -1      3297 1.02127E-02 4.53622E-04-6.29301E-14
 -1      3298 1.44459E-03-3.13827E-04-1.31373E-15
 -1      3299 1.58809E-03-3.28297E-04-1.57055E-15
 -1      3300 1.65240E-03-3.00212E-04-1.74554E-15
 -1      3301 1.41218E-02 7.27303E-05-1.04813E-13
 -1      3302 1.21534E-02-1.00437E-03-7.76078E-14
 -1      3303 9.76651E-03-3.65733E-04-5.85202E-14
 -1      3304 9.61773E-03-2.93235E-04-5.80542E-14
 -1      3305 9.66763E-03 1.61811E-04-5.97837E-14
 -1      3306 9.82083E-03 2.36175E-04-6.05887E-14
 -1      3307 9.02662E-03-8.33982E-05-5.63155E-14
 -1      3308 9.01873E-03-7.24020E-05-5.62848E-14
 -1      3309 1.37674E-02-2.46622E-04-8.92045E-14
 -1      3310 1.36564E-02-2.85266E-04-8.87034E-14
 -1      3311 1.43482E-02-3.88933E-04-1.01435E-13
 -1      3312 1.43903E-02-3.55069E-04-1.01582E-13
 -1      3313 1.42978E-02-3.35270E-04-9.98917E-14
 -1      3314 1.02941E-02-6.52916E-04-6.11756E-14
 -1      3315 8.87899E-04-2.11888E-04-5.60302E-16
 -1      3316 9.17176E-03-1.25398E-04-5.68443E-14
 -1      3317 9.08041E-03-1.02948E-04-5.64683E-14
 -1      3318 1.01664E-03 6.82315E-05-8.70519E-16
 -1      3319 1.01547E-03 4.12390E-05-8.68636E-16
 -1      3320 1.28190E-02 2.24746E-04-8.53999E-14
 -1      3321 1.29744E-02 1.44503E-04-8.61809E-14
 -1      3322 1.00144E-02-5.11086E-04-5.92476E-14
 -1      3323 9.89245E-03-4.35396E-04-5.88848E-14
 -1      3324 9.75470E-03-3.89590E-04-5.76949E-14
 -1      3325 1.23527E-02-9.13029E-04-7.95216E-14
 -1      3326 1.25513E-02-7.92550E-04-8.11193E-14
 -1      3327 1.27513E-02-7.14069E-04-8.30687E-14
 -1      3328 1.01488E-03 1.44536E-05-8.64733E-16
 -1      3329 1.01484E-03-1.22350E-05-8.58891E-16
 -1      3330 1.13558E-03 3.01734E-05-1.05123E-15
 -1      3331 9.49276E-03-2.53190E-04-5.71910E-14
 -1      3332 1.02872E-02 5.31167E-04-6.32047E-14
 -1      3333 1.17868E-02 7.93983E-04-7.76515E-14
 -1      3334 1.05022E-02-7.94518E-04-6.21655E-14
 -1      3335 2.74986E-03 3.81618E-04-4.97065E-15
 -1      3336 2.68331E-03 4.17586E-04-4.70225E-15
 -1      3337 2.54033E-03 4.14450E-04-4.22945E-15
 -1      3338 9.68226E-03-4.02334E-04-5.62697E-14
 -1      3339 9.84775E-03-4.95257E-04-5.69297E-14
 -1      3340 1.00334E-02-5.61775E-04-5.85646E-14
 -1      3341 1.03018E-02-6.95935E-04-6.04831E-14
 -1      3342 1.42055E-02-3.51009E-05-1.02998E-13
 -1      3343 1.41424E-02 5.60548E-06-1.03111E-13
 -1      3344 1.31124E-02 9.74690E-05-8.74354E-14
 -1      3345 1.18784E-03-2.78849E-04-9.16883E-16
 -1      3346 1.31609E-03-2.97378E-04-1.10604E-15
 -1      3347 1.38022E-03-2.73516E-04-1.25228E-15
 -1      3348 1.42526E-02-4.61339E-04-1.01093E-13
 -1      3349 1.01426E-03-2.34470E-04-7.07632E-16
 -1      3350 1.03925E-02 7.00163E-04-6.36192E-14
 -1      3351 1.02141E-02 6.38652E-04-6.19105E-14
 -1      3352 1.12092E-02 9.06167E-04-7.18331E-14
 -1      3353 1.17322E-02 8.72577E-04-7.80268E-14
 -1      3354 1.15668E-02 9.17015E-04-7.61606E-14
 -1      3355 1.32885E-02-4.74588E-04-8.73926E-14
 -1      3356 1.35894E-02 2.24498E-04-9.89896E-14
 -1      3357 1.35640E-02 1.98343E-04-9.78989E-14
 -1      3358 1.37229E-02 1.87857E-04-1.00524E-13
 -1      3359 1.43258E-02-1.76984E-04-1.00709E-13
 -1      3360 1.44139E-02-1.70392E-04-1.02523E-13
 -1      3361 1.43723E-02-1.40932E-04-1.02645E-13
 -1      3362 1.43226E-02-1.08869E-04-1.02763E-13
 -1      3363 1.42663E-02-7.33501E-05-1.02882E-13
 -1      3364 1.41161E-02-4.08910E-05-1.01193E-13
 -1      3365 1.42358E-02-1.16012E-04-1.00955E-13
 -1      3366 1.36193E-02-3.25615E-04-8.92391E-14
 -1      3367 1.34764E-02-6.48400E-05-8.86463E-14
 -1      3368 1.35817E-02-8.99114E-05-8.96021E-14
 -1      3369 1.34076E-02-2.34321E-05-8.90312E-14
 -1      3370 1.02371E-03-1.49160E-04-8.01307E-16
 -1      3371 1.02775E-03-1.78404E-04-7.82808E-16
 -1      3372 1.38551E-02-2.43031E-04-9.07157E-14
 -1      3373 1.42773E-02-4.31442E-04-1.01017E-13
 -1      3374 9.01634E-03-6.05439E-05-5.59733E-14
 -1      3375 9.02344E-03-4.66732E-05-5.56588E-14
 -1      3376 8.96396E-03-6.42158E-05-5.49874E-14
 -1      3377 1.41814E-02-4.12621E-04-9.93237E-14
 -1      3378 9.13016E-03-1.37178E-05-5.63360E-14
 -1      3379 9.23240E-03-4.94576E-06-5.75425E-14
 -1      3380 9.27697E-03 2.95685E-05-5.72272E-14
 -1      3381 1.02090E-03 1.23284E-04-8.68717E-16
 -1      3382 1.01844E-03 9.55027E-05-8.70601E-16
 -1      3383 1.13822E-03 8.85908E-05-1.05632E-15
 -1      3384 9.87536E-03 3.06159E-04-6.03724E-14
 -1      3385 1.00937E-02 5.51195E-04-6.09790E-14
 -1      3386 1.01800E-02-6.23228E-04-5.97650E-14
 -1      3387 1.37672E-02-1.52115E-04-9.00902E-14
 -1      3388 1.39059E-02-1.97545E-04-9.09501E-14
 -1      3389 1.21095E-02 6.31982E-04-8.06590E-14
 -1      3390 1.22161E-02 5.57184E-04-8.12400E-14
 -1      3391 1.23467E-02 4.95746E-04-8.25566E-14
 -1      3392 2.25420E-03 4.05216E-04-3.36080E-15
 -1      3393 2.17564E-03 3.65638E-04-3.18255E-15
 -1      3394 2.39729E-03 4.10362E-04-3.78250E-15
 -1      3395 9.01584E-03-9.31169E-05-5.54491E-14
 -1      3396 9.54844E-03 1.23826E-04-5.88729E-14
 -1      3397 9.56982E-03 1.70056E-04-5.83887E-14
 -1      3398 9.43521E-03 9.40380E-05-5.79671E-14
 -1      3399 1.02834E-03 1.81165E-04-8.58119E-16
 -1      3400 1.02418E-03 1.51833E-04-8.64489E-16
 -1      3401 1.14380E-03 1.48694E-04-1.05231E-15
 -1      3402 1.15309E-03 2.11810E-04-1.03768E-15
 -1      3403 1.07645E-02 7.82849E-04-6.73172E-14
 -1      3404 1.25975E-02 3.62872E-04-8.45275E-14
 -1      3405 1.27050E-02 2.92690E-04-8.49632E-14
 -1      3406 1.28293E-02 2.52812E-04-8.63542E-14
 -1      3407 1.40682E-02 5.33914E-05-1.03186E-13
 -1      3408 1.39516E-02 1.24531E-04-1.03086E-13
 -1      3409 1.38215E-02 1.57228E-04-1.01540E-13
 -1      3410 1.39734E-02 5.15498E-05-1.01387E-13
 -1      3411 1.55629E-03 3.61560E-04-1.66229E-15
 -1      3412 1.41292E-03 3.45394E-04-1.38880E-15
 -1      3413 1.36911E-03 3.15165E-04-1.33734E-15
 -1      3414 1.61929E-03 3.33959E-04-1.82951E-15
 -1      3415 9.20596E-03-1.46384E-04-5.63203E-14
 -1      3416 1.01817E-03-9.30276E-05-8.30553E-16
 -1      3417 1.02054E-03-1.20752E-04-8.17150E-16
 -1      3418 1.14334E-03-1.45952E-04-9.84306E-16
 -1      3419 1.18363E-02 8.12374E-04-7.88644E-14
 -1      3420 9.24883E-03-1.77763E-04-5.56306E-14
 -1      3421 9.11710E-03-1.41118E-04-5.49152E-14
 -1      3422 9.57521E-03-3.44434E-04-5.59182E-14
 -1      3423 2.15049E-03-2.93397E-04-2.93367E-15
 -1      3424 2.29486E-03-2.98269E-04-3.31763E-15
 -1      3425 2.43922E-03-3.02178E-04-3.72669E-15
 -1      3426 2.58355E-03-3.05218E-04-4.16111E-15
 -1      3427 2.36235E-03-2.63556E-04-3.56392E-15
 -1      3428 2.72782E-03-3.07551E-04-4.61881E-15
 -1      3429 2.87203E-03-3.09250E-04-5.10140E-15
 -1      3430 2.65164E-03-2.69147E-04-4.43588E-15
 -1      3431 3.01616E-03-3.10441E-04-5.60959E-15
 -1      3432 3.16020E-03-3.11177E-04-6.14201E-15
 -1      3433 2.94070E-03-2.72290E-04-5.40678E-15
 -1      3434 3.30416E-03-3.11554E-04-6.69908E-15
 -1      3435 3.44803E-03-3.11607E-04-7.28068E-15
 -1      3436 3.22942E-03-2.73669E-04-6.47655E-15
 -1      3437 3.59181E-03-3.11406E-04-7.88669E-15
 -1      3438 3.73549E-03-3.10972E-04-8.51753E-15
 -1      3439 3.51771E-03-2.73791E-04-7.64405E-15
 -1      3440 3.87910E-03-3.10353E-04-9.17316E-15
 -1      3441 4.02261E-03-3.09561E-04-9.85336E-15
 -1      3442 3.80557E-03-2.73016E-04-8.90940E-15
 -1      3443 4.16604E-03-3.08626E-04-1.05579E-14
 -1      3444 4.30938E-03-3.07550E-04-1.12872E-14
 -1      3445 4.09298E-03-2.71580E-04-1.02739E-14
 -1      3446 4.45264E-03-3.06352E-04-1.20404E-14
 -1      3447 4.59582E-03-3.05027E-04-1.28189E-14
 -1      3448 4.37994E-03-2.69622E-04-1.17361E-14
 -1      3449 4.73891E-03-3.03582E-04-1.36219E-14
 -1      3450 4.88190E-03-3.02010E-04-1.44486E-14
 -1      3451 4.66646E-03-2.67206E-04-1.32970E-14
 -1      3452 5.02481E-03-3.00310E-04-1.53007E-14
 -1      3453 5.16761E-03-2.98470E-04-1.61765E-14
 -1      3454 4.95250E-03-2.64337E-04-1.49555E-14
 -1      3455 5.31031E-03-2.96486E-04-1.70782E-14
 -1      3456 5.45289E-03-2.94344E-04-1.80055E-14
 -1      3457 5.23801E-03-2.60980E-04-1.67135E-14
 -1      3458 5.59534E-03-2.92040E-04-1.89575E-14
 -1      3459 5.73765E-03-2.89556E-04-1.99352E-14
 -1      3460 5.52291E-03-2.57077E-04-1.85723E-14
 -1      3461 5.87979E-03-2.86895E-04-2.09382E-14
 -1      3462 6.02177E-03-2.84037E-04-2.19664E-14
 -1      3463 5.80707E-03-2.52561E-04-2.05317E-14
 -1      3464 6.16353E-03-2.80991E-04-2.30213E-14
 -1      3465 6.30508E-03-2.77742E-04-2.41019E-14
 -1      3466 6.09033E-03-2.47373E-04-2.25943E-14
 -1      3467 6.44636E-03-2.74313E-04-2.52065E-14
 -1      3468 6.58737E-03-2.70690E-04-2.63375E-14
 -1      3469 6.37244E-03-2.41492E-04-2.47588E-14
 -1      3470 6.72804E-03-2.66917E-04-2.74926E-14
 -1      3471 6.86839E-03-2.62988E-04-2.86723E-14
 -1      3472 6.65313E-03-2.34951E-04-2.70242E-14
 -1      3473 7.00831E-03-2.58974E-04-2.98780E-14
 -1      3474 7.14784E-03-2.54880E-04-3.11065E-14
 -1      3475 6.93205E-03-2.27879E-04-2.93892E-14
 -1      3476 7.28685E-03-2.50813E-04-3.23606E-14
 -1      3477 7.42540E-03-2.46790E-04-3.36384E-14
 -1      3478 7.20879E-03-2.20527E-04-3.18527E-14
 -1      3479 7.56336E-03-2.42965E-04-3.49390E-14
 -1      3480 7.70081E-03-2.39371E-04-3.62642E-14
 -1      3481 7.48292E-03-2.13305E-04-3.44128E-14
 -1      3482 7.83762E-03-2.36209E-04-3.76113E-14
 -1      3483 7.97393E-03-2.33543E-04-3.89817E-14
 -1      3484 7.75402E-03-2.06810E-04-3.70657E-14
 -1      3485 8.10962E-03-2.31612E-04-4.03758E-14
 -1      3486 8.24494E-03-2.30536E-04-4.17925E-14
 -1      3487 8.02175E-03-2.01835E-04-3.98098E-14
 -1      3488 8.37982E-03-2.30572E-04-4.32308E-14
 -1      3489 8.51471E-03-2.31955E-04-4.46904E-14
 -1      3490 8.28606E-03-1.99367E-04-4.26454E-14
 -1      3491 8.64958E-03-2.34925E-04-4.61725E-14
 -1      3492 8.78531E-03-2.39984E-04-4.76748E-14
 -1      3493 8.54744E-03-2.00601E-04-4.55686E-14
 -1      3494 8.92195E-03-2.47302E-04-4.91939E-14
 -1      3495 9.06103E-03-2.57959E-04-5.07324E-14
 -1      3496 8.80756E-03-2.07146E-04-4.85735E-14
 -1      3497 9.23350E-03-2.80458E-04-5.25150E-14
 -1      3498 9.38265E-03-3.02456E-04-5.40912E-14
 -1      3499 9.44452E-03-2.80716E-04-5.54918E-14
 -1      3500 9.09888E-03-2.28175E-04-5.18767E-14
 -1      3501 1.30992E-02 1.35766E-04-8.83670E-14
 -1      3502 1.32638E-02 5.37117E-05-8.90130E-14
 -1      3503 1.36449E-02-4.37889E-04-9.19474E-14
 -1      3504 1.37938E-02-4.29969E-04-9.39644E-14
 -1      3505 1.39195E-02-4.20524E-04-9.56234E-14
 -1      3506 1.40612E-02-4.18425E-04-9.76531E-14
 -1      3507 1.41403E-02-3.71601E-04-9.80731E-14
 -1      3508 1.39063E-02-3.79640E-04-9.47503E-14
 -1      3509 3.96575E-03 3.47167E-04-1.01260E-14
 -1      3510 3.82241E-03 3.47874E-04-9.42661E-15
 -1      3511 1.03916E-02 6.29869E-04-6.38245E-14
 -1      3512 3.67901E-03 3.48388E-04-8.75308E-15
 -1      3513 3.53554E-03 3.48691E-04-8.10484E-15
 -1      3514 3.74873E-03 3.10545E-04-9.09480E-15
 -1      3515 3.10473E-03 3.47857E-04-6.31031E-15
 -1      3516 2.96099E-03 3.46823E-04-5.76310E-15
 -1      3517 4.25225E-03 3.45278E-04-1.16004E-14
 -1      3518 4.10903E-03 3.46299E-04-1.08504E-14
 -1      3519 4.03585E-03 3.09251E-04-1.04902E-14
 -1      3520 4.53853E-03 3.42833E-04-1.31769E-14
 -1      3521 4.39542E-03 3.44123E-04-1.23757E-14
 -1      3522 4.32263E-03 3.07368E-04-1.19874E-14
 -1      3523 4.82457E-03 3.39865E-04-1.48565E-14
 -1      3524 4.68158E-03 3.41416E-04-1.40040E-14
 -1      3525 4.60906E-03 3.04980E-04-1.35866E-14
 -1      3526 5.11038E-03 3.36353E-04-1.66381E-14
 -1      3527 4.96751E-03 3.38181E-04-1.57341E-14
 -1      3528 4.89513E-03 3.02103E-04-1.52876E-14
 -1      3529 5.39593E-03 3.32237E-04-1.85232E-14
 -1      3530 5.25319E-03 3.34376E-04-1.75680E-14
 -1      3531 5.18083E-03 2.98706E-04-1.70918E-14
 -1      3532 5.68119E-03 3.27438E-04-2.05110E-14
 -1      3533 5.53860E-03 3.29929E-04-1.95043E-14
 -1      3534 5.46609E-03 2.94726E-04-1.89990E-14
 -1      3535 5.96611E-03 3.21879E-04-2.25997E-14
 -1      3536 5.82369E-03 3.24759E-04-2.15425E-14
 -1      3537 5.75087E-03 2.90085E-04-2.10074E-14
 -1      3538 6.25061E-03 3.15506E-04-2.47900E-14
 -1      3539 6.10841E-03 3.18798E-04-2.36819E-14
 -1      3540 6.03505E-03 2.84708E-04-2.31184E-14
 -1      3541 6.53465E-03 3.08323E-04-2.70800E-14
 -1      3542 6.39269E-03 3.12017E-04-2.59231E-14
 -1      3543 6.31854E-03 2.78548E-04-2.53296E-14
 -1      3544 6.81817E-03 3.00421E-04-2.94689E-14
 -1      3545 6.67647E-03 3.04456E-04-2.82624E-14
 -1      3546 6.60122E-03 2.71606E-04-2.76387E-14
 -1      3547 7.10118E-03 2.92028E-04-3.19557E-14
 -1      3548 6.95972E-03 2.96271E-04-3.06997E-14
 -1      3549 6.88297E-03 2.63971E-04-3.00470E-14
 -1      3550 7.38374E-03 2.83563E-04-3.45398E-14
 -1      3551 7.24249E-03 2.87776E-04-3.32355E-14
 -1      3552 7.16374E-03 2.55851E-04-3.25535E-14
 -1      3553 7.66614E-03 2.75699E-04-3.72203E-14
 -1      3554 7.52492E-03 2.79507E-04-3.58684E-14
 -1      3555 7.44355E-03 2.47621E-04-3.51577E-14
 -1      3556 7.94894E-03 2.69445E-04-3.99963E-14
 -1      3557 7.80742E-03 2.72293E-04-3.85968E-14
 -1      3558 7.72264E-03 2.39876E-04-3.78569E-14
 -1      3559 8.23321E-03 2.66249E-04-4.28615E-14
 -1      3560 8.09078E-03 2.67341E-04-4.14169E-14
 -1      3561 8.00157E-03 2.33495E-04-4.06492E-14
 -1      3562 8.52077E-03 2.68170E-04-4.58128E-14
 -1      3563 8.37640E-03 2.66377E-04-4.43284E-14
 -1      3564 8.28149E-03 2.29745E-04-4.35322E-14
 -1      3565 8.81455E-03 2.78154E-04-4.88422E-14
 -1      3566 8.66663E-03 2.71838E-04-4.73181E-14
 -1      3567 8.56441E-03 2.30460E-04-4.64974E-14
 -1      3568 9.11886E-03 3.00494E-04-5.19476E-14
 -1      3569 8.96508E-03 2.87281E-04-5.03845E-14
 -1      3570 8.85371E-03 2.38458E-04-4.95416E-14
 -1      3571 9.43929E-03 3.41765E-04-5.51302E-14
 -1      3572 9.27678E-03 3.17998E-04-5.35296E-14
 -1      3573 9.15454E-03 2.58172E-04-5.26617E-14
 -1      3574 9.78158E-03 4.11135E-04-5.83917E-14
 -1      3575 9.60775E-03 3.71903E-04-5.67497E-14
 -1      3576 9.47407E-03 2.97393E-04-5.58560E-14
 -1      3577 1.34522E-02-4.50368E-04-8.93880E-14
 -1      3578 1.23069E-02 5.73029E-04-8.32768E-14
 -1      3579 1.21179E-02 6.59291E-04-8.13600E-14
 -1      3580 1.34071E-02 2.03531E-04-9.52708E-14
 -1      3581 1.32418E-02 2.43269E-04-9.32873E-14
 -1      3582 1.37783E-02-3.28478E-04-9.17969E-14
 -1      3583 1.36073E-02-3.88259E-04-9.05305E-14
 -1      3584 1.42444E-02-2.84038E-04-9.83513E-14
 -1      3585 1.42663E-02-2.57361E-04-9.84924E-14
 -1      3586 1.42740E-02-2.33518E-04-9.86294E-14
 -1      3587 1.42656E-02-2.09450E-04-9.87621E-14
 -1      3588 1.41780E-02-2.38893E-04-9.68101E-14
 -1      3589 1.39414E-02-2.36863E-04-9.21858E-14
 -1      3590 1.38901E-02-2.62770E-04-9.19701E-14
 -1      3591 1.30704E-02 2.88807E-04-9.13110E-14
 -1      3592 1.28939E-02 3.42888E-04-8.93433E-14
 -1      3593 1.32250E-02 2.05066E-04-9.21900E-14
 -1      3594 1.27261E-02 3.79512E-04-8.71965E-14
 -1      3595 1.25374E-02 4.53453E-04-8.52502E-14
 -1      3596 1.15508E-02 8.89092E-04-7.54949E-14
 -1      3597 1.01537E-03-3.89494E-05-8.51329E-16
 -1      3598 1.01645E-03-6.58018E-05-8.42032E-16
 -1      3599 1.13797E-03-8.60147E-05-1.01576E-15
 -1      3600 1.07918E-03-2.16853E-04-8.21432E-16
 -1      3601 3.39201E-03 3.48730E-04-7.48178E-15
 -1      3602 3.24841E-03 3.48478E-04-6.88348E-15
 -1      3603 3.17339E-03 3.10574E-04-6.60606E-15
 -1      3604 3.46124E-03 3.11080E-04-7.80035E-15
 -1      3605 1.19879E-03-2.16016E-04-1.00881E-15
 -1      3606 1.37361E-02-1.25795E-04-9.10457E-14
 -1      3607 1.38502E-02-1.53848E-04-9.19250E-14
 -1      3608 1.57407E-03-2.60769E-04-1.63944E-15
 -1      3609 1.71788E-03-2.71234E-04-1.92633E-15
 -1      3610 1.86194E-03-2.80048E-04-2.23781E-15
 -1      3611 2.00618E-03-2.87362E-04-2.57360E-15
 -1      3612 2.07311E-03-2.54639E-04-2.78963E-15
 -1      3613 1.39445E-02-1.89284E-04-9.23277E-14
 -1      3614 1.39648E-02-2.11746E-04-9.23115E-14
 -1      3615 1.01774E-02 5.16323E-04-6.20660E-14
 -1      3616 9.99033E-03 4.54958E-04-6.03825E-14
 -1      3617 1.95321E-03 3.19058E-04-2.63370E-15
 -1      3618 1.80922E-03 3.10486E-04-2.28680E-15
 -1      3619 1.41777E-02-3.41441E-04-9.81404E-14
 -1      3620 1.42203E-02-3.08170E-04-9.82903E-14
 -1      3621 1.41366E-02-2.86802E-04-9.66087E-14
 -1      3622 1.40673E-02-3.42457E-04-9.64777E-14
 -1      3623 9.67579E-03 2.69563E-04-5.83927E-14
 -1      3624 9.84501E-03 3.61931E-04-5.94571E-14
 -1      3625 9.32088E-03-2.19007E-04-5.53515E-14
 -1      3626 8.98596E-03-1.04012E-04-5.41753E-14
 -1      3627 8.93291E-03-8.37582E-05-5.40263E-14
 -1      3628 1.29887E-02 2.20526E-04-8.85045E-14
 -1      3629 1.31457E-02 1.71320E-04-9.00829E-14
 -1      3630 2.81717E-03 3.45268E-04-5.24057E-15
 -1      3631 2.67329E-03 3.43132E-04-4.74315E-15
 -1      3632 2.88518E-03 3.08603E-04-5.51138E-15
 -1      3633 1.40168E-02-2.27523E-04-9.35708E-14
 -1      3634 8.85061E-03-8.08438E-05-5.24631E-14
 -1      3635 8.90417E-03-7.15936E-05-5.37200E-14
 -1      3636 8.88526E-03-5.99227E-05-5.34141E-14
 -1      3637 1.13549E-03-2.77110E-05-1.03765E-15
 -1      3638 1.25758E-03 4.78669E-05-1.25603E-15
 -1      3639 1.25684E-03 1.67883E-05-1.25038E-15
 -1      3640 1.27425E-03-1.90402E-04-1.16064E-15
 -1      3641 1.32637E-03-2.30992E-04-1.20836E-15
 -1      3642 1.45458E-03-2.44432E-04-1.42663E-15
 -1      3643 1.35464E-02 1.65471E-04-9.68004E-14
 -1      3644 1.35323E-02 1.29686E-04-9.56988E-14
 -1      3645 1.36822E-02 1.30747E-04-9.83322E-14
 -1      3646 9.20656E-03-2.07498E-04-5.39537E-14
 -1      3647 8.99967E-03-1.25432E-04-5.35003E-14
 -1      3648 1.37984E-02 1.32334E-04-1.00447E-13
 -1      3649 1.42413E-02-1.84793E-04-9.88951E-14
 -1      3650 1.42033E-02-1.56832E-04-9.90224E-14
 -1      3651 1.41604E-02-1.91906E-04-9.70818E-14
 -1      3652 1.68360E-03 3.05498E-04-2.00054E-15
 -1      3653 1.55813E-03 2.98906E-04-1.73310E-15
 -1      3654 1.74899E-03 2.76166E-04-2.17418E-15
 -1      3655 1.19950E-02 7.13401E-04-8.00561E-14
 -1      3656 1.18085E-02 7.96584E-04-7.81753E-14
 -1      3657 1.33838E-02 1.38455E-05-8.99695E-14
 -1      3658 1.34984E-02-1.96388E-05-9.09269E-14
 -1      3659 1.33708E-02 5.17026E-05-9.09052E-14
 -1      3660 1.40289E-02-4.90941E-05-9.93911E-14
 -1      3661 1.39600E-02-5.07163E-06-9.95117E-14
 -1      3662 9.30256E-03 6.87603E-05-5.67537E-14
 -1      3663 9.04020E-03-2.64908E-05-5.53516E-14
 -1      3664 9.06195E-03-1.58399E-06-5.50411E-14
 -1      3665 8.96254E-03-3.42975E-05-5.43720E-14
 -1      3666 1.28081E-03 2.76352E-04-1.21082E-15
 -1      3667 1.23888E-03 2.47962E-04-1.15924E-15
 -1      3668 1.23248E-03 2.13992E-04-1.17102E-15
 -1      3669 1.40571E-03 2.87243E-04-1.43506E-15
 -1      3670 1.26122E-03 1.10522E-04-1.26003E-15
 -1      3671 1.25904E-03 7.90277E-05-1.25923E-15
 -1      3672 1.38076E-03 6.71154E-05-1.47899E-15
 -1      3673 1.78435E-03-2.41329E-04-2.11311E-15
 -1      3674 2.46286E-03 3.75553E-04-4.02609E-15
 -1      3675 1.36853E-02-9.70039E-05-9.14308E-14
 -1      3676 1.39491E-02-1.71415E-04-9.32870E-14
 -1      3677 1.26986E-03-1.57453E-04-1.18274E-15
 -1      3678 1.39725E-03-1.68001E-04-1.39992E-15
 -1      3679 1.26648E-03-1.25156E-04-1.20216E-15
 -1      3680 1.52090E-03-2.18006E-04-1.58524E-15
 -1      3681 2.24131E-03 3.31932E-04-3.40305E-15
 -1      3682 2.09725E-03 3.26161E-04-3.00607E-15
 -1      3683 2.01919E-03 2.86940E-04-2.83149E-15
 -1      3684 1.37711E-02 3.93413E-05-9.74733E-14
 -1      3685 1.38632E-02 4.58085E-05-9.92669E-14
 -1      3686 1.16344E-02 8.70916E-04-7.64804E-14
 -1      3687 2.28582E-03-2.25174E-04-3.40055E-15
 -1      3688 2.43071E-03-2.28321E-04-3.81500E-15
 -1      3689 2.57562E-03-2.30804E-04-4.25380E-15
 -1      3690 2.72049E-03-2.32687E-04-4.71641E-15
 -1      3691 2.49986E-03-1.92610E-04-4.07066E-15
 -1      3692 2.86530E-03-2.34086E-04-5.20391E-15
 -1      3693 3.01003E-03-2.35048E-04-5.71697E-15
 -1      3694 2.79004E-03-1.95894E-04-5.00159E-15
 -1      3695 3.15466E-03-2.35663E-04-6.25377E-15
 -1      3696 3.29917E-03-2.35965E-04-6.81501E-15
 -1      3697 3.07995E-03-1.97581E-04-6.03063E-15
 -1      3698 3.44356E-03-2.36021E-04-7.40076E-15
 -1      3699 3.58782E-03-2.35852E-04-8.01032E-15
 -1      3700 3.36941E-03-1.98122E-04-7.15704E-15
 -1      3701 3.73196E-03-2.35509E-04-8.64531E-15
 -1      3702 3.87596E-03-2.35000E-04-9.30484E-15
 -1      3703 3.65832E-03-1.97844E-04-8.38072E-15
 -1      3704 4.01984E-03-2.34362E-04-9.98909E-15
 -1      3705 4.16358E-03-2.33595E-04-1.06979E-14
 -1      3706 3.94665E-03-1.96973E-04-9.70343E-15
 -1      3707 4.30718E-03-2.32724E-04-1.14314E-14
 -1      3708 4.45065E-03-2.31745E-04-1.21891E-14
 -1      3709 4.23438E-03-1.95652E-04-1.11256E-14
 -1      3710 4.59398E-03-2.30670E-04-1.29712E-14
 -1      3711 4.73716E-03-2.29491E-04-1.37785E-14
 -1      3712 4.52148E-03-1.93960E-04-1.26456E-14
 -1      3713 4.88020E-03-2.28215E-04-1.46110E-14
 -1      3714 5.02307E-03-2.26831E-04-1.54670E-14
 -1      3715 4.80792E-03-1.91923E-04-1.42645E-14
 -1      3716 5.16578E-03-2.25340E-04-1.63482E-14
 -1      3717 5.30831E-03-2.23728E-04-1.72548E-14
 -1      3718 5.09363E-03-1.89531E-04-1.59819E-14
 -1      3719 5.45064E-03-2.21997E-04-1.81860E-14
 -1      3720 5.59276E-03-2.20129E-04-1.91428E-14
 -1      3721 5.37853E-03-1.86752E-04-1.77998E-14
 -1      3722 5.73463E-03-2.18130E-04-2.01256E-14
 -1      3723 5.87625E-03-2.15979E-04-2.11329E-14
 -1      3724 5.66246E-03-1.83539E-04-1.97182E-14
 -1      3725 6.01756E-03-2.13689E-04-2.21674E-14
 -1      3726 6.15856E-03-2.11237E-04-2.32267E-14
 -1      3727 5.94521E-03-1.79851E-04-2.17398E-14
 -1      3728 6.29917E-03-2.08647E-04-2.43103E-14
 -1      3729 6.43939E-03-2.05897E-04-2.54203E-14
 -1      3730 6.22652E-03-1.75665E-04-2.38618E-14
 -1      3731 6.57914E-03-2.03027E-04-2.65559E-14
 -1      3732 6.71840E-03-2.00015E-04-2.77157E-14
 -1      3733 6.50603E-03-1.70995E-04-2.60860E-14
 -1      3734 6.85707E-03-1.96923E-04-2.89007E-14
 -1      3735 6.99514E-03-1.93731E-04-3.01104E-14
 -1      3736 6.78331E-03-1.65914E-04-2.84111E-14
 -1      3737 7.13249E-03-1.90532E-04-3.13446E-14
 -1      3738 7.26910E-03-1.87303E-04-3.26031E-14
 -1      3739 7.05783E-03-1.60574E-04-3.08353E-14
 -1      3740 7.40485E-03-1.84172E-04-3.38852E-14
 -1      3741 7.53972E-03-1.81118E-04-3.51910E-14
 -1      3742 7.32899E-03-1.55231E-04-3.33560E-14
 -1      3743 7.67356E-03-1.78306E-04-3.65183E-14
 -1      3744 7.80638E-03-1.75708E-04-3.78696E-14
 -1      3745 7.59606E-03-1.50245E-04-3.59710E-14
 -1      3746 7.93801E-03-1.73530E-04-3.92441E-14
 -1      3747 8.06853E-03-1.71730E-04-4.06410E-14
 -1      3748 7.85824E-03-1.46078E-04-3.86763E-14
 -1      3749 8.19769E-03-1.70549E-04-4.20606E-14
 -1      3750 8.32572E-03-1.69929E-04-4.35011E-14
 -1      3751 8.11466E-03-1.43246E-04-4.14733E-14
 -1      3752 8.45228E-03-1.70121E-04-4.49642E-14
 -1      3753 8.57787E-03-1.71092E-04-4.64484E-14
 -1      3754 8.36436E-03-1.42244E-04-4.43590E-14
 -1      3755 8.70204E-03-1.73101E-04-4.79518E-14
 -1      3756 8.82581E-03-1.76270E-04-4.94733E-14
 -1      3757 8.60641E-03-1.43444E-04-4.73284E-14
 -1      3758 8.93764E-03-1.82980E-04-5.08079E-14
 -1      3759 9.08942E-03-1.95387E-04-5.25899E-14
 -1      3760 9.04009E-03-1.61230E-04-5.28651E-14
 -1      3761 8.82966E-03-1.49406E-04-5.01706E-14
 -1      3762 1.28911E-02 2.78917E-04-8.80598E-14
 -1      3763 1.70760E-03-2.03510E-04-1.98825E-15
 -1      3764 1.85179E-03-2.10521E-04-2.30515E-15
 -1      3765 1.40951E-02-2.32174E-04-9.51787E-14
 -1      3766 1.40712E-02-2.59530E-04-9.50559E-14
 -1      3767 4.67965E-03 2.67198E-04-1.39959E-14
 -1      3768 4.53646E-03 2.68394E-04-1.31726E-14
 -1      3769 3.81878E-03 2.72610E-04-9.43637E-15
 -1      3770 3.67491E-03 2.73039E-04-8.76530E-15
 -1      3771 4.10619E-03 2.71299E-04-1.08549E-14
 -1      3772 3.96254E-03 2.72028E-04-1.01329E-14
 -1      3773 3.88914E-03 2.34634E-04-9.77862E-15
 -1      3774 4.96567E-03 2.64469E-04-1.57182E-14
 -1      3775 4.82273E-03 2.65893E-04-1.48439E-14
 -1      3776 4.75030E-03 2.29529E-04-1.44043E-14
 -1      3777 5.25117E-03 2.61251E-04-1.75451E-14
 -1      3778 5.10849E-03 2.62927E-04-1.66189E-14
 -1      3779 5.03619E-03 2.27005E-04-1.61496E-14
 -1      3780 5.53606E-03 2.57479E-04-1.94736E-14
 -1      3781 5.39369E-03 2.59441E-04-1.84960E-14
 -1      3782 5.32140E-03 2.24029E-04-1.79973E-14
 -1      3783 5.82025E-03 2.53077E-04-2.15042E-14
 -1      3784 5.67825E-03 2.55364E-04-2.04766E-14
 -1      3785 5.60585E-03 2.20537E-04-1.99482E-14
 -1      3786 6.10361E-03 2.47975E-04-2.36368E-14
 -1      3787 5.96204E-03 2.50621E-04-2.25582E-14
 -1      3788 5.88938E-03 2.16457E-04-2.20007E-14
 -1      3789 6.38597E-03 2.42127E-04-2.58678E-14
 -1      3790 6.24492E-03 2.45151E-04-2.47401E-14
 -1      3791 6.17181E-03 2.11723E-04-2.41538E-14
 -1      3792 6.66715E-03 2.35534E-04-2.81966E-14
 -1      3793 6.52671E-03 2.38928E-04-2.70194E-14
 -1      3794 6.45294E-03 2.06290E-04-2.64042E-14
 -1      3795 6.94699E-03 2.28270E-04-3.06247E-14
 -1      3796 6.80724E-03 2.31986E-04-2.93988E-14
 -1      3797 6.73253E-03 2.00150E-04-2.87542E-14
 -1      3798 7.22535E-03 2.20513E-04-3.31511E-14
 -1      3799 7.08634E-03 2.24447E-04-3.18751E-14
 -1      3800 7.01032E-03 1.93359E-04-3.12022E-14
 -1      3801 7.50219E-03 2.12579E-04-3.57739E-14
 -1      3802 7.36394E-03 2.16552E-04-3.44503E-14
 -1      3803 7.28612E-03 1.86050E-04-3.37476E-14
 -1      3804 7.77768E-03 2.04957E-04-3.84929E-14
 -1      3805 7.64006E-03 2.08698E-04-3.71218E-14
 -1      3806 7.55979E-03 1.78460E-04-3.63912E-14
 -1      3807 8.05235E-03 1.98366E-04-4.13029E-14
 -1      3808 7.91504E-03 2.01478E-04-3.98874E-14
 -1      3809 7.83140E-03 1.70950E-04-3.91283E-14
 -1      3810 8.32731E-03 1.93847E-04-4.42013E-14
 -1      3811 8.18964E-03 1.95750E-04-4.27408E-14
 -1      3812 8.10136E-03 1.64041E-04-4.19561E-14
 -1      3813 8.60466E-03 1.92974E-04-4.71820E-14
 -1      3814 8.46544E-03 1.92784E-04-4.56819E-14
 -1      3815 8.37068E-03 1.58501E-04-4.48694E-14
 -1      3816 8.88804E-03 1.98312E-04-5.02385E-14
 -1      3817 8.74522E-03 1.94521E-04-4.86999E-14
 -1      3818 8.64134E-03 1.55500E-04-4.78640E-14
 -1      3819 9.18338E-03 2.14505E-04-5.33739E-14
 -1      3820 9.03365E-03 2.04396E-04-5.17973E-14
 -1      3821 8.91721E-03 1.57314E-04-5.09365E-14
 -1      3822 1.32422E-02 1.66851E-04-9.16158E-14
 -1      3823 1.33398E-02 9.19583E-05-9.14827E-14
 -1      3824 1.34541E-02 5.48186E-05-9.24441E-14
 -1      3825 1.34083E-02 1.30470E-04-9.35975E-14
 -1      3826 1.40963E-02-2.09494E-04-9.53175E-14
 -1      3827 1.39552E-02-3.44062E-04-9.48213E-14
 -1      3828 1.39388E-02-2.92806E-04-9.35118E-14
 -1      3829 1.26218E-03-6.20405E-05-1.23305E-15
 -1      3830 1.26393E-03-9.33982E-05-1.21898E-15
 -1      3831 1.39084E-03-1.00287E-04-1.44069E-15
 -1      3832 1.24788E-02 4.41374E-04-8.39345E-14
 -1      3833 9.52314E-03 1.85029E-04-5.75985E-14
 -1      3834 9.50575E-03 2.46003E-04-5.67006E-14
 -1      3835 1.41532E-02-1.25466E-04-9.91484E-14
 -1      3836 1.40943E-02-8.94721E-05-9.92703E-14
 -1      3837 1.39457E-02-5.93184E-05-9.75923E-14
 -1      3838 1.40423E-02-2.83730E-04-9.49917E-14
 -1      3839 1.40750E-02-1.86251E-04-9.54535E-14
 -1      3840 1.25879E-03-7.01465E-06-1.24816E-15
 -1      3841 1.25927E-03-3.80238E-05-1.23846E-15
 -1      3842 1.38591E-03-4.15759E-05-1.46347E-15
 -1      3843 1.38126E-03 9.01512E-06-1.47178E-15
 -1      3844 1.99628E-03-2.16393E-04-2.64568E-15
 -1      3845 2.14099E-03-2.21226E-04-3.01091E-15
 -1      3846 2.20971E-03-1.87152E-04-3.23758E-15
 -1      3847 2.52934E-03 3.40270E-04-4.27135E-15
 -1      3848 2.38534E-03 3.36599E-04-3.82455E-15
 -1      3849 2.30792E-03 2.97698E-04-3.62559E-15
 -1      3850 1.26819E-03 1.75214E-04-1.25324E-15
 -1      3851 1.26426E-03 1.42567E-04-1.25803E-15
 -1      3852 1.38550E-03 1.33816E-04-1.48122E-15
 -1      3853 1.37824E-02 1.01422E-04-9.93457E-14
 -1      3854 1.36697E-02-6.55686E-05-9.23735E-14
 -1      3855 4.39315E-03 2.69476E-04-1.23736E-14
 -1      3856 4.24973E-03 2.70449E-04-1.16015E-14
 -1      3857 4.17675E-03 2.33359E-04-1.12185E-14
 -1      3858 4.46381E-03 2.31644E-04-1.27615E-14
 -1      3859 1.39814E-02-1.48516E-04-9.50417E-14
 -1      3860 8.90653E-03-1.21302E-04-5.21407E-14
 -1      3861 1.49250E-03-1.79332E-04-1.57041E-15
 -1      3862 1.61162E-03-1.92830E-04-1.79591E-15
 -1      3863 1.67971E-03-1.63718E-04-1.96903E-15
 -1      3864 1.48859E-03-1.43983E-04-1.59425E-15
 -1      3865 1.36613E-02 6.57137E-05-9.62983E-14
 -1      3866 1.35250E-02 9.73748E-05-9.47685E-14
 -1      3867 1.35448E-02 6.17103E-05-9.41914E-14
 -1      3868 1.37664E-02 8.65378E-06-9.65378E-14
 -1      3869 9.34449E-03 2.24214E-04-5.50863E-14
 -1      3870 9.21001E-03 1.64254E-04-5.42010E-14
 -1      3871 2.59665E-03 3.04576E-04-4.51818E-15
 -1      3872 8.80805E-03-9.18590E-05-5.14266E-14
 -1      3873 8.77119E-03-7.84414E-05-5.11270E-14
 -1      3874 1.50362E-03 2.33046E-05-1.71143E-15
 -1      3875 1.50550E-03-3.19928E-06-1.70817E-15
 -1      3876 1.39171E-02-1.14285E-04-9.51725E-14
 -1      3877 1.40754E-02-1.35522E-04-9.73431E-14
 -1      3878 3.24260E-03 2.73063E-04-6.90171E-15
 -1      3879 3.09829E-03 2.72531E-04-6.33013E-15
 -1      3880 2.95387E-03 2.71626E-04-5.78402E-15
 -1      3881 2.80936E-03 2.70306E-04-5.26279E-15
 -1      3882 3.02319E-03 2.34396E-04-6.05760E-15
 -1      3883 2.08617E-03 2.54132E-04-3.03178E-15
 -1      3884 1.94167E-03 2.48196E-04-2.65926E-15
 -1      3885 9.41311E-03 1.54663E-04-5.67032E-14
 -1      3886 1.37650E-02-5.19459E-05-9.46591E-14
 -1      3887 1.36793E-02-8.98871E-08-9.47835E-14
 -1      3888 1.81543E-03 2.45956E-04-2.35079E-15
 -1      3889 1.68943E-03 2.42506E-04-2.06200E-15
 -1      3890 1.88280E-03 2.14833E-04-2.53106E-15
 -1      3891 1.47057E-03 2.61828E-04-1.58424E-15
 -1      3892 8.79806E-03-5.28704E-05-5.18642E-14
 -1      3893 8.87447E-03-4.41946E-05-5.31142E-14
 -1      3894 8.87212E-03-2.63757E-05-5.28113E-14
 -1      3895 9.16115E-03 5.31234E-05-5.52242E-14
 -1      3896 9.29785E-03 1.10519E-04-5.59475E-14
 -1      3897 9.25458E-03 1.28903E-04-5.51711E-14
 -1      3898 1.35292E-03 2.09032E-04-1.39072E-15
 -1      3899 3.53092E-03 2.73275E-04-8.11916E-15
 -1      3900 3.38682E-03 2.73302E-04-7.49815E-15
 -1      3901 3.31234E-03 2.35383E-04-7.19828E-15
 -1      3902 3.60100E-03 2.35369E-04-8.43887E-15
 -1      3903 8.95791E-03 1.64999E-05-5.32786E-14
 -1      3904 9.05458E-03 3.18244E-05-5.42476E-14
 -1      3905 9.04016E-03 6.85368E-05-5.34556E-14
 -1      3906 1.50456E-03 5.77701E-05-1.71854E-15
 -1      3907 1.62909E-03 4.69833E-05-1.97581E-15
 -1      3908 1.50631E-03 9.24296E-05-1.72292E-15
 -1      3909 8.81761E-03-1.19196E-04-5.08080E-14
 -1      3910 1.92009E-03-1.78810E-04-2.50227E-15
 -1      3911 9.10779E-03 1.27507E-04-5.34620E-14
 -1      3912 2.37546E-03 2.62922E-04-3.84939E-15
 -1      3913 2.23078E-03 2.59004E-04-3.42814E-15
 -1      3914 2.15405E-03 2.20651E-04-3.23374E-15
 -1      3915 1.84467E-03-1.42091E-04-2.35928E-15
 -1      3916 1.98927E-03-1.46220E-04-2.70487E-15
 -1      3917 1.63053E-03-1.65492E-05-1.96163E-15
 -1      3918 1.50784E-03-2.97488E-05-1.70316E-15
 -1      3919 1.51065E-03-5.63906E-05-1.69667E-15
 -1      3920 1.50513E-03 2.18192E-04-1.68267E-15
 -1      3921 2.42449E-03-1.54683E-04-3.88738E-15
 -1      3922 2.56977E-03-1.56439E-04-4.33086E-15
 -1      3923 2.71504E-03-1.57794E-04-4.79887E-15
 -1      3924 2.86026E-03-1.58781E-04-5.29045E-15
 -1      3925 2.64036E-03-1.19860E-04-4.59555E-15
 -1      3926 3.00540E-03-1.59478E-04-5.80688E-15
 -1      3927 3.15043E-03-1.59906E-04-6.34814E-15
 -1      3928 2.93108E-03-1.21406E-04-5.58347E-15
 -1      3929 3.29534E-03-1.60129E-04-6.91316E-15
 -1      3930 3.44011E-03-1.60159E-04-7.50241E-15
 -1      3931 3.22143E-03-1.22080E-04-6.66919E-15
 -1      3932 3.58473E-03-1.60042E-04-8.11664E-15
 -1      3933 3.72919E-03-1.59786E-04-8.75485E-15
 -1      3934 3.51123E-03-1.22128E-04-7.85198E-15
 -1      3935 3.87349E-03-1.59424E-04-9.41766E-15
 -1      3936 4.01762E-03-1.58956E-04-1.01059E-14
 -1      3937 3.80038E-03-1.21727E-04-9.13207E-15
 -1      3938 4.16159E-03-1.58408E-04-1.08193E-14
 -1      3939 4.30538E-03-1.57774E-04-1.15571E-14
 -1      3940 4.08884E-03-1.20995E-04-1.05122E-14
 -1      3941 4.44900E-03-1.57073E-04-1.23188E-14
 -1      3942 4.59243E-03-1.56294E-04-1.31055E-14
 -1      3943 4.37655E-03-1.20002E-04-1.19914E-14
 -1      3944 4.73568E-03-1.55450E-04-1.39169E-14
 -1      3945 4.87873E-03-1.54529E-04-1.47533E-14
 -1      3946 4.66350E-03-1.18782E-04-1.35694E-14
 -1      3947 5.02157E-03-1.53540E-04-1.56150E-14
 -1      3948 5.16420E-03-1.52469E-04-1.65010E-14
 -1      3949 4.94960E-03-1.17343E-04-1.52462E-14
 -1      3950 5.30658E-03-1.51322E-04-1.74120E-14
 -1      3951 5.44871E-03-1.50083E-04-1.83480E-14
 -1      3952 5.23478E-03-1.15674E-04-1.70235E-14
 -1      3953 5.59054E-03-1.48762E-04-1.93098E-14
 -1      3954 5.73208E-03-1.47340E-04-2.02976E-14
 -1      3955 5.51886E-03-1.13752E-04-1.89013E-14
 -1      3956 5.87326E-03-1.45830E-04-2.13103E-14
 -1      3957 6.01407E-03-1.44211E-04-2.23488E-14
 -1      3958 5.80165E-03-1.11559E-04-2.08803E-14
 -1      3959 6.15444E-03-1.42506E-04-2.34124E-14
 -1      3960 6.29435E-03-1.40692E-04-2.45007E-14
 -1      3961 6.08287E-03-1.09083E-04-2.29611E-14
 -1      3962 6.43373E-03-1.38804E-04-2.56151E-14
 -1      3963 6.57253E-03-1.36815E-04-2.67551E-14
 -1      3964 6.36214E-03-1.06338E-04-2.51439E-14
 -1      3965 6.71067E-03-1.34781E-04-2.79196E-14
 -1      3966 6.84810E-03-1.32670E-04-2.91094E-14
 -1      3967 6.63902E-03-1.03373E-04-2.74272E-14
 -1      3968 6.98471E-03-1.30562E-04-3.03234E-14
 -1      3969 7.12046E-03-1.28420E-04-3.15620E-14
 -1      3970 6.91294E-03-1.00292E-04-2.98103E-14
 -1      3971 7.25520E-03-1.26352E-04-3.28251E-14
 -1      3972 7.38888E-03-1.24312E-04-3.41118E-14
 -1      3973 7.18323E-03-9.72640E-05-3.22915E-14
 -1      3974 7.52134E-03-1.22445E-04-3.54207E-14
 -1      3975 7.65252E-03-1.20683E-04-3.67519E-14
 -1      3976 7.44908E-03-9.45322E-05-3.48683E-14
 -1      3977 7.78221E-03-1.19214E-04-3.81068E-14
 -1      3978 7.91036E-03-1.17930E-04-3.94852E-14
 -1      3979 7.70949E-03-9.24090E-05-3.75369E-14
 -1      3980 8.03668E-03-1.17073E-04-4.08865E-14
 -1      3981 8.16115E-03-1.16459E-04-4.23083E-14
 -1      3982 7.96321E-03-9.12456E-05-4.02959E-14
 -1      3983 8.28336E-03-1.16403E-04-4.37519E-14
 -1      3984 8.40334E-03-1.16588E-04-4.52177E-14
 -1      3985 8.20862E-03-9.13678E-05-4.31445E-14
 -1      3986 8.72034E-03-1.15842E-04-4.94735E-14
 -1      3987 5.10669E-03 1.89742E-04-1.65810E-14
 -1      3988 4.96394E-03 1.90923E-04-1.56842E-14
 -1      3989 3.95981E-03 1.96637E-04-1.01209E-14
 -1      3990 3.81572E-03 1.97075E-04-9.42721E-15
 -1      3991 5.39157E-03 1.87075E-04-1.84499E-14
 -1      3992 5.24924E-03 1.88466E-04-1.75022E-14
 -1      3993 5.17720E-03 1.52718E-04-1.70103E-14
 -1      3994 5.67550E-03 1.83940E-04-2.04217E-14
 -1      3995 5.53366E-03 1.85574E-04-1.94227E-14
 -1      3996 5.46168E-03 1.50426E-04-1.89008E-14
 -1      3997 5.95831E-03 1.80270E-04-2.24957E-14
 -1      3998 5.81706E-03 1.82181E-04-2.14466E-14
 -1      3999 5.74505E-03 1.47724E-04-2.08949E-14
 -1      4000 6.23977E-03 1.76001E-04-2.46683E-14
 -1      4001 6.09922E-03 1.78219E-04-2.35695E-14
 -1      4002 6.02709E-03 1.44550E-04-2.29893E-14
 -1      4003 6.51960E-03 1.71087E-04-2.69406E-14
 -1      4004 6.37990E-03 1.73634E-04-2.57926E-14
 -1      4005 6.30753E-03 1.40842E-04-2.51827E-14
 -1      4006 6.79752E-03 1.65510E-04-2.93100E-14
 -1      4007 6.65881E-03 1.68390E-04-2.81129E-14
 -1      4008 6.58604E-03 1.36551E-04-2.74754E-14
 -1      4009 7.07319E-03 1.59297E-04-3.17785E-14
 -1      4010 6.93565E-03 1.62491E-04-3.05332E-14
 -1      4011 6.86224E-03 1.31644E-04-2.98666E-14
 -1      4012 7.34632E-03 1.52531E-04-3.43447E-14
 -1      4013 7.21008E-03 1.55989E-04-3.30483E-14
 -1      4014 7.13574E-03 1.26114E-04-3.23542E-14
 -1      4015 7.61666E-03 1.45359E-04-3.70066E-14
 -1      4016 7.48183E-03 1.48999E-04-3.56635E-14
 -1      4017 7.40612E-03 1.19984E-04-3.49401E-14
 -1      4018 7.88414E-03 1.38002E-04-3.97621E-14
 -1      4019 7.75072E-03 1.41702E-04-3.83736E-14
 -1      4020 7.67301E-03 1.13301E-04-3.76211E-14
 -1      4021 8.14895E-03 1.30769E-04-4.26062E-14
 -1      4022 8.01680E-03 1.34358E-04-4.11738E-14
 -1      4023 7.93611E-03 1.06137E-04-4.03948E-14
 -1      4024 8.41183E-03 1.24135E-04-4.55356E-14
 -1      4025 8.28047E-03 1.27333E-04-4.40599E-14
 -1      4026 8.19532E-03 9.85720E-05-4.32558E-14
 -1      4027 8.67441E-03 1.18931E-04-4.85449E-14
 -1      4028 8.54287E-03 1.21290E-04-4.70310E-14
 -1      4029 8.45093E-03 9.07629E-05-4.61999E-14
 -1      4030 2.66477E-03 2.68467E-04-4.76679E-15
 -1      4031 2.52013E-03 2.66051E-04-4.29568E-15
 -1      4032 2.44382E-03 2.27652E-04-4.07573E-15
 -1      4033 2.73363E-03 2.32000E-04-5.01698E-15
 -1      4034 1.57231E-03 1.90800E-04-1.83508E-15
 -1      4035 1.49788E-03-8.28056E-05-1.65663E-15
 -1      4036 1.50021E-03-1.17576E-04-1.63751E-15
 -1      4037 1.59549E-03-1.26624E-04-1.82329E-15
 -1      4038 1.62008E-03-7.18204E-05-1.91241E-15
 -1      4039 4.82100E-03 1.92003E-04-1.48131E-14
 -1      4040 4.67788E-03 1.92997E-04-1.39686E-14
 -1      4041 4.89176E-03 1.54656E-04-1.52226E-14
 -1      4042 8.68546E-03-7.35159E-05-4.98134E-14
 -1      4043 8.73989E-03-6.25727E-05-5.08352E-14
 -1      4044 8.71660E-03-4.66603E-05-5.05420E-14
 -1      4045 2.13417E-03-1.49645E-04-3.07453E-15
 -1      4046 2.27927E-03-1.52433E-04-3.46885E-15
 -1      4047 2.34959E-03-1.17116E-04-3.70471E-15
 -1      4048 8.99817E-03 1.02129E-04-5.25003E-14
 -1      4049 4.60550E-03 1.56284E-04-1.35349E-14
 -1      4050 4.53459E-03 1.93900E-04-1.31485E-14
 -1      4051 4.39114E-03 1.94723E-04-1.23527E-14
 -1      4052 8.86629E-03 1.02241E-04-5.09376E-14
 -1      4053 4.10374E-03 1.96097E-04-1.08399E-14
 -1      4054 4.03074E-03 1.58666E-04-1.04637E-14
 -1      4055 4.24752E-03 1.95453E-04-1.15837E-14
 -1      4056 8.52043E-03-1.17429E-04-4.67039E-14
 -1      4057 8.63483E-03-1.18364E-04-4.82086E-14
 -1      4058 3.74232E-03 1.59364E-04-9.07910E-15
 -1      4059 3.67148E-03 1.97382E-04-8.75877E-15
 -1      4060 3.52710E-03 1.97555E-04-8.11509E-15
 -1      4061 8.64149E-03-9.20492E-05-4.88317E-14
 -1      4062 1.72499E-03 1.84432E-04-2.17162E-15
 -1      4063 1.54114E-03 1.63513E-04-1.78090E-15
 -1      4064 1.53765E-03 1.27784E-04-1.78254E-15
 -1      4065 1.85128E-03 1.86005E-04-2.46690E-15
 -1      4066 2.05924E-03-1.12773E-04-2.91242E-15
 -1      4067 8.76198E-03 6.83331E-05-5.00774E-14
 -1      4068 1.35690E-02 2.55229E-05-9.36138E-14
 -1      4069 8.84531E-03-5.69115E-07-5.20329E-14
 -1      4070 8.81812E-03 2.86418E-05-5.12555E-14
 -1      4071 8.74532E-03-1.33456E-05-5.07975E-14
 -1      4072 2.22282E-03 1.86490E-04-3.43767E-15
 -1      4073 2.07787E-03 1.82817E-04-3.04203E-15
 -1      4074 1.66181E-03 1.19355E-04-2.04746E-15
 -1      4075 1.75426E-03 6.72720E-05-2.25511E-15
 -1      4076 1.75315E-03 3.00597E-05-2.24629E-15
 -1      4077 1.92011E-03 1.54168E-04-2.64423E-15
 -1      4078 8.60295E-03-7.48458E-05-4.85477E-14
 -1      4079 1.69111E-03-1.35574E-04-2.01861E-15
 -1      4080 1.76067E-03-1.04856E-04-2.19688E-15
 -1      4081 3.38257E-03 1.97551E-04-7.49582E-15
 -1      4082 3.23791E-03 1.97360E-04-6.90169E-15
 -1      4083 3.45325E-03 1.59620E-04-7.79455E-15
 -1      4084 1.88005E-03 2.06253E-05-2.54107E-15
 -1      4085 1.75496E-03 1.44240E-06-2.24204E-15
 -1      4086 1.75726E-03-2.72121E-05-2.23580E-15
 -1      4087 3.16358E-03 1.59272E-04-6.60881E-15
 -1      4088 3.09311E-03 1.96925E-04-6.33274E-15
 -1      4089 2.94820E-03 1.96225E-04-5.78846E-15
 -1      4090 8.44348E-03-9.29725E-05-4.60773E-14
 -1      4091 2.56613E-03-8.21833E-05-4.39244E-15
 -1      4092 2.71163E-03-8.28996E-05-4.86415E-15
 -1      4093 2.85709E-03-8.34355E-05-5.36035E-15
 -1      4094 3.00248E-03-8.37943E-05-5.88047E-15
 -1      4095 2.78348E-03-4.56233E-05-5.13686E-15
 -1      4096 3.14776E-03-8.40230E-05-6.42459E-15
 -1      4097 3.29291E-03-8.41255E-05-6.99338E-15
 -1      4098 3.07438E-03-4.59961E-05-6.18047E-15
 -1      4099 3.43791E-03-8.41358E-05-7.58696E-15
 -1      4100 3.58274E-03-8.40535E-05-8.20458E-15
 -1      4101 3.36480E-03-4.60913E-05-7.32170E-15
 -1      4102 3.72740E-03-8.39060E-05-8.84652E-15
 -1      4103 3.87188E-03-8.36899E-05-9.51301E-15
 -1      4104 3.65458E-03-4.59772E-05-8.56044E-15
 -1      4105 4.01618E-03-8.34262E-05-1.02049E-14
 -1      4106 4.16028E-03-8.31091E-05-1.09217E-14
 -1      4107 3.94364E-03-4.57119E-05-9.89760E-15
 -1      4108 4.30419E-03-8.27544E-05-1.16636E-14
 -1      4109 4.44790E-03-8.23545E-05-1.24297E-14
 -1      4110 4.23192E-03-4.53331E-05-1.13343E-14
 -1      4111 4.59140E-03-8.19213E-05-1.32203E-14
 -1      4112 4.73468E-03-8.14443E-05-1.40363E-14
 -1      4113 4.51938E-03-4.48641E-05-1.28717E-14
 -1      4114 4.87774E-03-8.09360E-05-1.48776E-14
 -1      4115 5.02055E-03-8.03839E-05-1.57438E-14
 -1      4116 4.80597E-03-4.43077E-05-1.45082E-14
 -1      4117 5.16311E-03-7.97973E-05-1.66342E-14
 -1      4118 5.30540E-03-7.91643E-05-1.75497E-14
 -1      4119 5.09158E-03-4.36745E-05-1.62435E-14
 -1      4120 5.44739E-03-7.84947E-05-1.84910E-14
 -1      4121 5.58905E-03-7.77750E-05-1.94580E-14
 -1      4122 5.37610E-03-4.29608E-05-1.80803E-14
 -1      4123 5.73036E-03-7.70184E-05-2.04495E-14
 -1      4124 5.87127E-03-7.62094E-05-2.14667E-14
 -1      4125 5.65932E-03-4.21678E-05-2.00181E-14
 -1      4126 6.01174E-03-7.53673E-05-2.25103E-14
 -1      4127 6.15174E-03-7.44740E-05-2.35787E-14
 -1      4128 5.94098E-03-4.13039E-05-2.20577E-14
 -1      4129 6.29119E-03-7.35582E-05-2.46729E-14
 -1      4130 6.43005E-03-7.25986E-05-2.57912E-14
 -1      4131 6.22076E-03-4.03917E-05-2.42000E-14
 -1      4132 6.56825E-03-7.16376E-05-2.69347E-14
 -1      4133 6.70572E-03-7.06489E-05-2.81039E-14
 -1      4134 6.49820E-03-3.94768E-05-2.64417E-14
 -1      4135 6.84237E-03-6.96937E-05-2.92972E-14
 -1      4136 6.97814E-03-6.87383E-05-3.05154E-14
 -1      4137 6.77279E-03-3.86368E-05-2.87831E-14
 -1      4138 7.11289E-03-6.78687E-05-3.17577E-14
 -1      4139 7.24657E-03-6.70392E-05-3.30248E-14
 -1      4140 7.04389E-03-3.79924E-05-3.12229E-14
 -1      4141 7.37900E-03-6.63683E-05-3.43157E-14
 -1      4142 7.51011E-03-6.57890E-05-3.56286E-14
 -1      4143 7.31072E-03-3.77167E-05-3.37597E-14
 -1      4144 7.63971E-03-6.54626E-05-3.69646E-14
 -1      4145 7.76767E-03-6.52833E-05-3.83237E-14
 -1      4146 7.57233E-03-3.80417E-05-3.63913E-14
 -1      4147 7.89375E-03-6.54723E-05-3.97042E-14
 -1      4148 8.01781E-03-6.58491E-05-4.11090E-14
 -1      4149 7.82755E-03-3.92575E-05-3.91122E-14
 -1      4150 8.13946E-03-6.67308E-05-4.25352E-14
 -1      4151 8.25852E-03-6.77878E-05-4.39828E-14
 -1      4152 8.07477E-03-4.16998E-05-4.19232E-14
 -1      4153 5.53179E-03 1.14106E-04-1.93512E-14
 -1      4154 5.38990E-03 1.15073E-04-1.83825E-14
 -1      4155 8.49488E-03-7.22644E-05-4.70377E-14
 -1      4156 8.55005E-03-5.33916E-05-4.80021E-14
 -1      4157 8.38258E-03-7.04531E-05-4.55482E-14
 -1      4158 5.24773E-03 1.15955E-04-1.74397E-14
 -1      4159 5.10528E-03 1.16770E-04-1.65228E-14
 -1      4160 5.31829E-03 7.94814E-05-1.78681E-14
 -1      4161 6.09583E-03 1.09322E-04-2.34818E-14
 -1      4162 5.95541E-03 1.10677E-04-2.24127E-14
 -1      4163 6.37524E-03 1.06272E-04-2.56966E-14
 -1      4164 6.23578E-03 1.07865E-04-2.45762E-14
 -1      4165 6.16458E-03 7.46131E-05-2.39737E-14
 -1      4166 6.65242E-03 1.02707E-04-2.80090E-14
 -1      4167 6.51413E-03 1.04566E-04-2.68400E-14
 -1      4168 6.44299E-03 7.23153E-05-2.62078E-14
 -1      4169 6.92692E-03 9.85762E-05-3.04207E-14
 -1      4170 6.79003E-03 1.00726E-04-2.92021E-14
 -1      4171 6.71887E-03 6.95786E-05-2.85418E-14
 -1      4172 7.19826E-03 9.38368E-05-3.29288E-14
 -1      4173 7.06301E-03 9.62980E-05-3.16632E-14
 -1      4174 6.99172E-03 6.63317E-05-3.09729E-14
 -1      4175 7.46590E-03 8.84478E-05-3.55347E-14
 -1      4176 7.33256E-03 9.12413E-05-3.42199E-14
 -1      4177 7.26095E-03 6.24919E-05-3.35033E-14
 -1      4178 7.72929E-03 8.23624E-05-3.82357E-14
 -1      4179 7.59813E-03 8.55133E-05-3.68729E-14
 -1      4180 7.52590E-03 5.79559E-05-3.61291E-14
 -1      4181 7.98789E-03 7.55103E-05-4.10254E-14
 -1      4182 7.85917E-03 7.90584E-05-3.96193E-14
 -1      4183 7.78581E-03 5.25860E-05-3.88465E-14
 -1      4184 8.24115E-03 6.77678E-05-4.39033E-14
 -1      4185 8.11513E-03 7.17869E-05-4.24543E-14
 -1      4186 8.03983E-03 4.61890E-05-4.16550E-14
 -1      4187 8.48865E-03 5.89956E-05-4.68646E-14
 -1      4188 8.36547E-03 6.35361E-05-4.53736E-14
 -1      4189 8.28685E-03 3.84982E-05-4.45493E-14
 -1      4190 2.36788E-03 1.89506E-04-3.85850E-15
 -1      4191 2.29237E-03 1.51716E-04-3.64459E-15
 -1      4192 2.51299E-03 1.91897E-04-4.30401E-15
 -1      4193 1.98502E-03-7.66829E-05-2.75126E-15
 -1      4194 2.13000E-03-7.85185E-05-3.12490E-15
 -1      4195 2.27525E-03-8.00304E-05-3.52288E-15
 -1      4196 2.42065E-03-8.12319E-05-3.94553E-15
 -1      4197 2.20151E-03-4.35026E-05-3.34223E-15
 -1      4198 1.77324E-03-7.61868E-05-2.24533E-15
 -1      4199 8.64559E-03 4.86279E-05-4.88652E-14
 -1      4200 5.81457E-03 1.11914E-04-2.13672E-14
 -1      4201 5.67335E-03 1.13061E-04-2.03469E-14
 -1      4202 5.60190E-03 7.81414E-05-1.98021E-14
 -1      4203 4.96259E-03 1.17512E-04-1.56300E-14
 -1      4204 4.81966E-03 1.18197E-04-1.47632E-14
 -1      4205 5.03348E-03 8.06000E-05-1.60372E-14
 -1      4206 8.60692E-03-3.88761E-05-4.88905E-14
 -1      4207 8.67636E-03-2.78774E-05-4.99009E-14
 -1      4208 8.63217E-03-4.39134E-06-4.91409E-14
 -1      4209 8.49984E-03-3.47180E-05-4.73765E-14
 -1      4210 3.81349E-03 1.21337E-04-9.39972E-15
 -1      4211 3.66901E-03 1.21524E-04-8.73433E-15
 -1      4212 5.88410E-03 7.65359E-05-2.18377E-14
 -1      4213 4.31847E-03 1.57624E-04-1.19489E-14
 -1      4214 8.31966E-03-4.67017E-05-4.49199E-14
 -1      4215 4.74765E-03 8.15297E-05-1.43080E-14
 -1      4216 4.67652E-03 1.18816E-04-1.39218E-14
 -1      4217 4.53316E-03 1.19385E-04-1.31046E-14
 -1      4218 2.49238E-03-4.48383E-05-4.19024E-15
 -1      4219 2.36271E-03 1.16344E-04-3.85324E-15
 -1      4220 2.21742E-03 1.14411E-04-3.43398E-15
 -1      4221 8.56087E-03 2.35230E-05-4.80127E-14
 -1      4222 1.89751E-03-5.91229E-05-2.54728E-15
 -1      4223 2.80319E-03 1.95183E-04-5.26897E-15
 -1      4224 2.65811E-03 1.93773E-04-4.77397E-15
 -1      4225 2.87339E-03 1.58067E-04-5.52206E-15
 -1      4226 4.10192E-03 1.20743E-04-1.08067E-14
 -1      4227 3.95780E-03 1.21079E-04-1.00908E-14
 -1      4228 3.88495E-03 8.33428E-05-9.72085E-15
 -1      4229 1.96905E-03-2.54795E-05-2.74127E-15
 -1      4230 1.79925E-03 1.35264E-04-2.35657E-15
 -1      4231 1.76760E-03 9.76120E-05-2.28662E-15
 -1      4232 1.89161E-03 8.12062E-05-2.58013E-15
 -1      4233 3.52435E-03 1.21611E-04-8.09350E-15
 -1      4234 3.37954E-03 1.21600E-04-7.47711E-15
 -1      4235 3.59583E-03 8.35710E-05-8.39292E-15
 -1      4236 1.96503E-03 3.45501E-05-2.75404E-15
 -1      4237 1.96679E-03 4.53983E-06-2.74875E-15
 -1      4238 2.05384E-03-1.20969E-05-2.96372E-15
 -1      4239 3.23456E-03 1.21453E-04-6.88547E-15
 -1      4240 3.08945E-03 1.21171E-04-6.31877E-15
 -1      4241 3.30601E-03 8.35216E-05-7.16343E-15
 -1      4242 2.71035E-03-8.04092E-06-4.91400E-15
 -1      4243 2.85590E-03-8.06364E-06-5.41350E-15
 -1      4244 5.91205E-03 1.74276E-05-2.19553E-14
 -1      4245 5.77135E-03 1.76542E-05-2.09239E-14
 -1      4246 3.04434E-03 1.85890E-05-6.11237E-15
 -1      4247 3.18967E-03 1.86762E-05-6.66802E-15
 -1      4248 3.33486E-03 1.87237E-05-7.24828E-15
 -1      4249 3.47989E-03 1.87687E-05-7.85391E-15
 -1      4250 3.62475E-03 1.87813E-05-8.48307E-15
 -1      4251 3.76943E-03 1.87941E-05-9.13698E-15
 -1      4252 3.91392E-03 1.87809E-05-9.81597E-15
 -1      4253 4.05822E-03 1.87690E-05-1.05196E-14
 -1      4254 4.44748E-03-7.62258E-06-1.25212E-14
 -1      4255 4.59101E-03-7.54356E-06-1.33164E-14
 -1      4256 4.77656E-03 1.85288E-05-1.44152E-14
 -1      4257 4.91955E-03 1.84562E-05-1.52697E-14
 -1      4258 5.06228E-03 1.83606E-05-1.61491E-14
 -1      4259 5.20474E-03 1.82616E-05-1.70531E-14
 -1      4260 5.34690E-03 1.81350E-05-1.79817E-14
 -1      4261 5.48874E-03 1.80020E-05-1.89368E-14
 -1      4262 5.63024E-03 1.78332E-05-1.99182E-14
 -1      4263 6.05228E-03 1.71857E-05-2.30125E-14
 -1      4264 6.19200E-03 1.68796E-05-2.40946E-14
 -1      4265 6.33116E-03 1.65513E-05-2.52017E-14
 -1      4266 6.46969E-03 1.61359E-05-2.63326E-14
 -1      4267 6.60753E-03 1.56885E-05-2.74883E-14
 -1      4268 6.74461E-03 1.51230E-05-2.86703E-14
 -1      4269 6.88085E-03 1.45117E-05-2.98753E-14
 -1      4270 7.01617E-03 1.37404E-05-3.11064E-14
 -1      4271 7.15047E-03 1.29048E-05-3.23613E-14
 -1      4272 7.28365E-03 1.18528E-05-3.36391E-14
 -1      4273 7.41561E-03 1.07121E-05-3.49425E-14
 -1      4274 7.54623E-03 9.27871E-06-3.62694E-14
 -1      4275 7.67535E-03 7.72756E-06-3.76167E-14
 -1      4276 7.80286E-03 5.77972E-06-3.89874E-14
 -1      4277 7.92854E-03 3.68455E-06-4.03811E-14
 -1      4278 8.05225E-03 1.04841E-06-4.17974E-14
 -1      4279 8.17368E-03-1.74638E-06-4.32348E-14
 -1      4280 2.50809E-03 1.17893E-04-4.29692E-15
 -1      4281 2.43376E-03 8.04278E-05-4.06367E-15
 -1      4282 2.19899E-03-1.23404E-05-3.35235E-15
 -1      4283 8.29266E-03-5.25465E-06-4.46935E-14
 -1      4284 8.41627E-03-9.94318E-06-4.62712E-14
 -1      4285 2.58289E-03 1.55705E-04-4.53396E-15
 -1      4286 2.02282E-03 9.55475E-05-2.90955E-15
 -1      4287 2.00955E-03 6.36548E-05-2.87262E-15
 -1      4288 2.21460E-03 7.83809E-05-3.42354E-15
 -1      4289 2.14374E-03 1.13170E-04-3.22997E-15
 -1      4290 2.02608E-03 1.30657E-04-2.91680E-15
 -1      4291 2.09611E-03 4.77400E-05-3.09517E-15
 -1      4292 4.38961E-03 1.19894E-04-1.23136E-14
 -1      4293 4.24586E-03 1.20352E-04-1.15475E-14
 -1      4294 4.17332E-03 8.29061E-05-1.11492E-14
 -1      4295 4.46090E-03 8.22991E-05-1.26784E-14
 -1      4296 2.38178E-03-1.02450E-05-3.87678E-15
 -1      4297 2.52732E-03-1.03474E-05-4.32023E-15
 -1      4298 2.60025E-03 2.67876E-05-4.56986E-15
 -1      4299 2.23435E-03 2.11975E-05-3.46554E-15
 -1      4300 2.27878E-03 5.12750E-05-3.60003E-15
 -1      4301 2.65350E-03 1.19096E-04-4.76549E-15
 -1      4302 4.20231E-03 1.87356E-05-1.12484E-14
 -1      4303 4.34620E-03 1.87023E-05-1.20030E-14
 -1      4304 8.48540E-03 6.40530E-06-4.71404E-14
 -1      4305 2.97210E-03 5.63758E-05-5.86205E-15
 -1      4306 2.90037E-03 9.39658E-05-5.61287E-15
 -1      4307 4.70517E-03 5.55972E-05-1.40368E-14
 -1      4308 2.75496E-03 9.33868E-05-5.10306E-15
 -1      4309 4.41828E-03 5.60887E-05-1.24240E-14
 -1      4310 4.56184E-03 5.58564E-05-1.32176E-14
 -1      4311 2.68111E-03 5.56378E-05-4.84478E-15
 -1      4312 2.49808E-03 5.25349E-05-4.25551E-15
 -1      4313 2.35258E-03 5.18207E-05-3.81475E-15
 -3
    1PSTEP                         2           1           1          
  100CL  101 1.000000000        4313                     0    1           1
 -4  STRESS      6    1
 -5  SXX         1    4    1    1
 -5  SYY         1    4    2    2
 -5  SZZ         1    4    3    3
 -5  SXY         1    4    1    2
 -5  SYZ         1    4    2    3
 -5  SZX         1    4    3    1
 -1         1 7.97146E+00 7.08878E+00-4.66213E-01 7.63418E+00-2.78655E-12-2.41773E-12
 -1         2-6.87475E-01-2.61619E+01-3.54398E+00 1.44904E-02 1.18252E-14 5.06921E-14
 -1         3 1.99737E+01-2.77660E-02 4.66789E-02-2.75157E-02-3.77173E-13-3.40191E-13
 -1         4 1.99632E+01-3.76766E-02 6.37786E-02 3.78275E-02 2.19968E-13 6.19032E-14
 -1         5 3.27680E+01 6.14269E+00 2.74254E+00 6.22436E+00-2.90393E-14 2.12405E-12
 -1         6 3.57522E+01 1.22634E+01 5.12559E+00-8.64678E+00-9.89209E-14 2.56545E-12
 -1         7 2.08182E+01 6.09955E+00-1.28710E-01-4.72580E+00-1.56125E-14 8.57883E-13
 -1         8 1.96714E+01 5.93484E+00 5.09495E-02-3.27518E+00-2.74086E-14 2.37400E-13
 -1         9 1.91367E+01 5.77179E+00 4.90873E-02-2.52705E+00-2.95527E-14-1.41470E-13
 -1        10 1.88952E+01 5.69211E+00 5.10662E-02-1.95191E+00-2.41578E-14-3.41940E-13
 -1        11 1.87740E+01 5.65131E+00 5.02787E-02-1.45661E+00-1.58697E-14-4.60253E-13
 -1        12 1.87106E+01 5.62973E+00 4.87692E-02-1.01559E+00-1.32735E-14-5.43043E-13
 -1        13 1.86772E+01 5.61837E+00 4.74539E-02-5.95662E-01-6.80684E-15-5.84781E-13
 -1        14 1.86633E+01 5.61357E+00 4.67398E-02-1.91316E-01-7.41621E-15-6.07003E-13
 -1        15 1.86638E+01 5.61373E+00 4.67810E-02 2.08305E-01-4.85235E-16-6.14998E-13
 -1        16 1.86788E+01 5.61886E+00 4.75971E-02 6.13482E-01 2.98752E-15-6.26177E-13
 -1        17 1.87134E+01 5.63050E+00 4.91050E-02 1.03541E+00 1.76638E-15-6.21661E-13
 -1        18 1.87780E+01 5.65246E+00 5.08449E-02 1.47961E+00 7.48056E-15-5.95324E-13
 -1        19 1.89009E+01 5.69375E+00 5.15415E-02 1.98080E+00 1.68789E-14-5.41999E-13
 -1        20 1.91421E+01 5.77438E+00 4.87771E-02 2.56438E+00 2.06796E-14-4.03854E-13
 -1        21 1.96669E+01 5.94943E+00 4.58982E-02 3.30925E+00 2.85535E-14-1.08875E-13
 -1        22 2.12010E+01 6.38132E+00 1.39666E-01 4.52332E+00 3.42781E-15 5.45911E-13
 -1        23 2.30289E+01-1.37917E+00-9.38319E-01-7.11249E-01-6.25576E-14 2.19313E-12
 -1        24 1.93658E+01-9.94907E-02-3.09842E-01 6.32116E-02-1.86075E-14 1.85716E-12
 -1        25 1.86770E+01-5.63186E-02-6.87745E-02 6.07129E-02-1.27220E-14 1.50509E-12
 -1        26 1.84739E+01-2.20806E-02-6.46237E-03 3.29525E-02 1.21127E-15 1.24045E-12
 -1        27 1.84846E+01-1.17930E-02 1.59978E-03 2.25876E-02-9.01189E-16 1.05743E-12
 -1        28 1.85979E+01-6.22827E-03 1.81235E-03 1.62808E-02-1.00374E-14 1.00637E-12
 -1        29 1.87567E+01-3.07456E-03 1.75369E-03 1.21183E-02 5.99157E-15 9.18236E-13
 -1        30 1.89296E+01-1.22404E-03 1.93572E-03 9.14598E-03 1.11289E-14 8.02620E-13
 -1        31 1.90991E+01-1.38401E-04 2.09299E-03 6.90483E-03 1.06058E-14 6.68449E-13
 -1        32 1.92553E+01 4.71186E-04 2.11555E-03 5.16169E-03-3.03423E-14 5.03594E-13
 -1        33 1.93937E+01 7.71568E-04 2.00782E-03 3.78590E-03 2.26356E-14 4.33398E-13
 -1        34 1.95127E+01 8.64995E-04 1.80401E-03 2.69515E-03 1.11207E-15 5.29784E-13
 -1        35 1.96131E+01 8.16108E-04 1.53490E-03 1.83230E-03-1.33703E-14 4.52547E-13
 -1        36 1.96972E+01 6.65512E-04 1.22031E-03 1.15533E-03 1.81105E-14 4.05020E-13
 -1        37 1.97682E+01 4.37192E-04 8.69145E-04 6.33192E-04-3.55791E-14 4.27073E-13
 -1        38 1.98300E+01 1.42976E-04 4.80702E-04 2.44470E-04-8.82592E-15 3.04141E-13
 -1        39 1.98876E+01-2.14443E-04 4.59994E-05-2.25894E-05 1.87216E-15 2.63003E-13
 -1        40 1.99463E+01-6.39196E-04-4.51219E-04-1.69088E-04 1.84480E-14 2.92253E-13
 -1        41 2.00127E+01-1.14012E-03-1.03362E-03-1.83697E-04-2.19160E-14 8.47427E-14
 -1        42 2.00943E+01-1.72833E-03-1.72930E-03-4.00041E-05-5.56807E-15 6.69660E-14
 -1        43 2.02001E+01-2.41393E-03-2.57014E-03 3.07154E-04-3.54637E-14 2.00041E-13
 -1        44 2.03406E+01-3.20069E-03-3.58830E-03 9.26497E-04 4.65176E-14 3.49063E-13
 -1        45 2.05285E+01-4.07727E-03-4.80870E-03 1.91594E-03-1.25151E-14 3.39282E-13
 -1        46 2.07782E+01-5.00232E-03-6.23274E-03 3.40765E-03 3.40965E-14 1.92735E-13
 -1        47 2.11060E+01-5.88004E-03-7.80497E-03 5.56839E-03-4.11428E-15 6.36993E-13
 -1        48 2.15285E+01-6.52223E-03-9.34837E-03 8.58481E-03-3.50553E-14 5.97293E-13
 -1        49 2.20602E+01-6.59473E-03-1.04473E-02 1.26113E-02-4.97920E-16 3.69674E-13
 -1        50 2.27085E+01-5.55644E-03-1.02599E-02 1.76365E-02-2.59889E-14 1.59897E-13
 -1        51 2.34636E+01-2.62576E-03-7.27968E-03 2.31959E-02 4.07920E-14 2.89745E-13
 -1        52 2.42836E+01 3.12802E-03 7.97147E-04 2.78418E-02 2.80895E-14 3.83386E-13
 -1        53 2.50726E+01 1.23875E-02 1.66590E-02 2.83677E-02-4.28210E-14 2.29998E-13
 -1        54 2.56588E+01 2.46342E-02 4.15001E-02 1.91749E-02 3.29519E-14 2.04777E-13
 -1        55 2.57890E+01 3.66850E-02 7.09594E-02-6.89973E-03-6.40237E-14 1.30344E-13
 -1        56 2.51784E+01 4.16479E-02 9.01333E-02-5.37850E-02-5.78487E-15 3.24834E-13
 -1        57 2.36569E+01 3.09453E-02 7.50850E-02-1.12335E-01 9.34589E-14 6.94694E-13
 -1        58 2.13964E+01 1.15553E-03 9.07030E-03-1.52199E-01-1.15758E-13 6.00860E-13
 -1        59 1.90597E+01-3.76477E-02-8.84747E-02-1.33288E-01 5.78212E-14 6.01741E-14
 -1        60 1.76034E+01-6.34549E-02-1.57601E-01-4.45574E-02-1.52600E-13-2.52957E-14
 -1        61 1.76991E+01-5.87327E-02-1.45216E-01 6.97985E-02 1.54411E-13-1.04250E-13
 -1        62 1.92248E+01-2.66011E-02-6.03108E-02 1.41312E-01-5.53119E-14-6.55975E-13
 -1        63 2.13553E+01 1.19964E-02 3.42855E-02 1.40016E-01 7.28540E-15-6.70214E-13
 -1        64 2.31596E+01 3.70270E-02 8.69410E-02 8.95034E-02-2.47189E-14-5.93033E-13
 -1        65 2.41032E+01 4.24609E-02 9.05335E-02 3.00425E-02 3.51464E-14-3.00801E-14
 -1        66 2.41303E+01 3.37184E-02 6.58405E-02-1.38505E-02 5.91463E-14 1.95813E-13
 -1        67 2.34731E+01 1.90208E-02 3.42188E-02-3.74255E-02 1.42317E-14 1.66766E-13
 -1        68 2.24478E+01 3.81437E-03 5.62065E-03-4.52092E-02 1.12202E-13 3.85660E-13
 -1        69 2.13493E+01-9.60508E-03-1.93883E-02-4.14877E-02 5.30541E-14 1.37002E-13
 -1        70 2.04428E+01-1.63465E-02-3.73809E-02-2.19528E-02 9.17300E-15 4.22872E-13
 -1        71 1.99758E+01 5.54878E-03-1.74365E-02 1.12423E-02-5.56587E-14 2.92582E-13
 -1        72 2.10415E+01-4.04882E-01-9.80391E-01-3.11570E-01 3.52218E-14 1.86461E-12
 -1        73 1.93303E+01-6.58813E-02-2.91133E-01-5.38210E-02 2.29088E-14 1.30666E-12
 -1        74 1.86864E+01-2.05029E-02-6.42682E-02-2.03372E-02 1.98412E-14 9.14126E-13
 -1        75 1.84830E+01-9.87416E-03-9.30222E-03-1.54370E-02 8.45808E-15 6.38215E-13
 -1        76 1.84936E+01-5.16040E-03 6.94368E-04-1.23665E-02 5.18953E-16 4.78300E-13
 -1        77 1.86061E+01-2.61014E-03 1.76299E-03-1.00876E-02-6.29190E-16 3.57876E-13
 -1        78 1.87639E+01-1.14272E-03 1.89797E-03-8.33563E-03-5.63262E-15 3.22471E-13
 -1        79 1.89358E+01-2.83889E-04 2.08939E-03-6.88737E-03-1.04861E-14 1.64709E-13
 -1        80 1.91043E+01 2.06378E-04 2.22427E-03-5.63467E-03-1.22386E-15 9.17036E-14
 -1        81 1.92597E+01 4.61900E-04 2.22311E-03-4.53403E-03 2.45214E-14 5.27972E-14
 -1        82 1.93973E+01 5.62661E-04 2.09337E-03-3.56559E-03 1.53341E-14-9.00985E-14
 -1        83 1.95157E+01 5.58527E-04 1.86879E-03-2.71640E-03 1.12850E-14-2.54742E-13
 -1        84 1.96157E+01 4.80939E-04 1.57977E-03-1.97443E-03 7.10390E-15-2.66950E-13
 -1        85 1.96994E+01 3.49154E-04 1.24595E-03-1.32719E-03-1.07972E-14-1.96210E-13
 -1        86 1.97702E+01 1.73901E-04 8.76189E-04-7.62296E-04 2.40880E-14-3.81353E-13
 -1        87 1.98320E+01-4.01466E-05 4.70213E-04-2.68824E-04-2.99586E-14-5.08997E-13
 -1        88 1.98896E+01-2.92423E-04 2.04049E-05 1.60814E-04 9.34522E-15-4.55729E-13
 -1        89 1.99485E+01-5.84605E-04-4.86348E-04 5.28540E-04 1.51319E-14-4.99314E-13
 -1        90 2.00148E+01-9.18482E-04-1.06649E-03 8.27737E-04-3.91909E-14-5.64993E-13
 -1        91 2.00957E+01-1.29318E-03-1.73678E-03 1.03958E-03 4.89116E-14-7.19861E-13
 -1        92 2.01995E+01-1.70119E-03-2.50964E-03 1.12834E-03-9.74297E-15-9.11236E-13
 -1        93 2.03354E+01-2.12263E-03-3.38539E-03 1.03552E-03-4.90217E-15-9.42232E-13
 -1        94 2.05137E+01-2.51683E-03-4.33927E-03 6.72944E-04 3.18254E-14-8.79218E-13
 -1        95 2.07451E+01-2.81061E-03-5.29969E-03-8.37993E-05-3.66762E-14-7.81537E-13
 -1        96 2.10399E+01-2.88338E-03-6.11328E-03-1.39811E-03 2.49276E-14-4.84187E-13
 -1        97 2.14057E+01-2.55151E-03-6.49215E-03-3.46241E-03-6.90186E-14-3.72482E-13
 -1        98 2.18443E+01-1.56025E-03-5.94465E-03-6.45763E-03 9.29997E-14-8.25358E-13
 -1        99 2.23462E+01 3.97174E-04-3.70937E-03-1.04501E-02 2.42125E-14-1.48250E-12
 -1       100 2.28826E+01 3.59678E-03 1.24127E-03-1.51799E-02-2.88577E-14-1.02888E-12
 -1       101 2.33958E+01 8.08345E-03 9.97689E-03-1.97010E-02-1.47331E-14-7.38181E-13
 -1       102 2.37901E+01 1.33152E-02 2.29135E-02-2.19127E-02-2.29608E-14-6.27597E-13
 -1       103 2.39300E+01 1.77417E-02 3.84445E-02-1.82911E-02-1.09034E-13-4.36998E-13
 -1       104 2.36590E+01 1.86858E-02 5.12378E-02-4.60147E-03 5.16757E-14-2.17192E-13
 -1       105 2.28532E+01 1.32553E-02 5.19174E-02 2.13924E-02 2.51728E-14-5.79037E-13
 -1       106 2.15123E+01 7.03786E-04 3.09395E-02 5.52632E-02 2.68710E-14-9.91596E-13
 -1       107 1.98529E+01-1.53146E-02-1.24706E-02 8.27451E-02-2.21075E-14-1.13028E-12
 -1       108 1.83162E+01-2.74301E-02-6.33785E-02 8.53129E-02 7.81836E-14-1.28240E-12
 -1       109 1.74179E+01-2.87876E-02-9.46388E-02 5.32742E-02-2.09147E-14-7.50784E-13
 -1       110 1.74799E+01-1.91279E-02-8.60081E-02-1.59854E-03-4.62584E-14-5.33041E-13
 -1       111 1.84234E+01-3.94968E-03-4.23967E-02-5.16911E-02 1.55805E-13-3.81702E-13
 -1       112 1.98182E+01 9.51656E-03 9.53054E-03-7.53493E-02-1.61955E-13-2.68455E-13
 -1       113 2.11370E+01 1.69501E-02 4.57134E-02-6.97219E-02 2.21695E-14 2.27256E-13
 -1       114 2.20038E+01 1.77565E-02 5.73054E-02-4.63212E-02-9.58604E-14-1.93918E-13
 -1       115 2.22893E+01 1.37242E-02 4.93272E-02-1.88646E-02 5.09739E-14-4.44758E-13
 -1       116 2.20643E+01 7.18344E-03 3.13955E-02 4.20727E-03 9.38572E-14-7.11005E-13
 -1       117 2.15063E+01-4.06404E-05 1.03309E-02 1.98714E-02 6.70436E-14-1.02038E-12
 -1       118 2.08282E+01-6.49897E-03-1.07642E-02 2.74463E-02-1.38290E-13-9.43165E-13
 -1       119 2.02477E+01-9.83798E-03-2.63201E-02 2.36910E-02 6.01154E-14-9.05815E-13
 -1       120 1.99767E+01 1.11809E-02-5.36078E-03-3.11850E-03 1.83343E-13-9.32574E-13
 -1       121 1.99972E+01-5.91409E-03-7.77197E-03-1.33958E-02-9.34938E-13-9.20352E-15
 -1       122 1.99829E+01 2.73206E-01-3.09257E-02 9.89575E-03-9.37191E-13 5.01609E-14
 -1       123 1.99856E+01 9.17789E-01-2.54518E-02 2.44433E-02-2.27474E-14 2.86958E-13
 -1       124 1.99909E+01 1.82203E+00-1.63321E-02 3.40211E-02 2.01518E-13 4.27248E-14
 -1       125 1.99986E+01 2.88890E+00-4.46649E-03 4.03254E-02 4.88744E-13-2.20026E-13
 -1       126 2.00084E+01 3.97500E+00 1.06032E-02 4.12601E-02-1.46515E-14 6.80928E-15
 -1       127 2.00183E+01 4.95167E+00 2.71330E-02 3.46793E-02-6.83720E-13 1.07893E-14
 -1       128 2.00261E+01 5.62353E+00 4.06996E-02 1.99037E-02-1.63659E-12-2.01594E-13
 -1       129 2.00293E+01 5.84707E+00 4.65811E-02-4.71102E-04-9.37896E-13 2.56290E-13
 -1       130 2.00269E+01 5.56138E+00 4.25421E-02-2.14726E-02 1.80064E-13 4.20868E-14
 -1       131 2.00190E+01 4.81126E+00 2.98311E-02-3.83830E-02-9.40369E-13-2.22625E-13
 -1       132 2.00087E+01 3.75117E+00 1.28247E-02-4.66764E-02-1.99188E-12 2.55450E-13
 -1       133 1.99973E+01 2.53059E+00-6.06915E-03-4.76240E-02-1.82434E-12 9.08639E-14
 -1       134 1.99842E+01 1.36018E+00-2.69642E-02-4.33457E-02-1.23923E-12-2.04497E-14
 -1       135 1.99819E+01 4.62423E-01-3.53443E-02-3.29890E-02-6.66408E-13 6.62149E-14
 -1       136 1.99809E+01 2.61935E-02-1.18316E-02 3.00590E-02-4.68880E-13-1.40181E-13
 -1       137-1.48120E+00-2.14224E+01-3.24227E+00-4.02883E+00 7.67553E-13-6.52985E-14
 -1       138-1.58754E+00-9.05543E+00-2.33645E+00-3.11972E+00 1.47865E-12 7.80431E-13
 -1       139 3.12799E+00 3.72772E+00-1.02488E+00 3.66232E+00 1.78541E-12 1.21647E-12
 -1       140 1.56574E+01 1.05923E+01 4.38795E-01 1.27286E+01 1.58074E-12 2.08822E-12
 -1       141 3.49542E+01 1.02331E+01 1.86609E+00 1.82225E+01 1.55059E-12 2.53192E-12
 -1       142 5.55053E+01 5.15339E+00 3.04997E+00 1.54953E+01 5.39915E-13 1.98364E-12
 -1       143 6.64537E+01 9.82050E-01 3.57862E+00 4.01026E+00 1.36790E-13 4.65419E-13
 -1       144 6.32096E+01 2.13965E+00 3.40701E+00-9.23436E+00 7.24290E-14-1.22366E-12
 -1       145 4.73645E+01 7.20290E+00 2.56204E+00-1.76068E+01 8.48321E-13-2.24393E-12
 -1       146 2.72218E+01 1.10573E+01 1.30538E+00-1.70278E+01 1.62370E-12-2.42095E-12
 -1       147 9.86855E+00 8.85147E+00-1.54889E-01-9.38562E+00 2.38864E-12-2.27829E-12
 -1       148 4.50374E-01-8.91546E-01-1.56456E+00-4.76907E-01 2.42645E-12-1.53705E-12
 -1       149-1.85161E+00-1.40232E+01-2.66735E+00 4.13917E+00 2.40213E-12-7.76670E-13
 -1       150-9.48954E-01-2.35447E+01-3.28572E+00 2.52450E+00 1.20787E-12-3.54873E-13
 -1       151-8.68225E-01-2.42483E+01-3.34190E+00-2.25685E+00-3.44905E-13 4.86972E-14
 -1       152-1.96333E+00-1.54206E+01-2.80546E+00-4.54539E+00-1.73050E-12-6.25194E-13
 -1       153-7.51190E-02-2.50890E+00-1.76187E+00-4.27951E-01-2.92666E-12-1.98064E-12
 -1       154 2.39210E+01 1.07370E+01 9.93467E-01 1.57827E+01-1.80750E-12-2.49623E-12
 -1       155 4.50612E+01 7.85504E+00 2.42042E+00 1.80360E+01-9.53737E-13-2.41951E-12
 -1       156 6.19175E+01 2.81457E+00 3.39499E+00 1.11827E+01-4.22582E-13-1.68487E-12
 -1       157 6.75946E+01 1.02373E+00 3.73880E+00-2.02492E+00-3.84207E-14-3.91964E-13
 -1       158 5.85122E+01 4.36034E+00 3.28343E+00-1.42413E+01-3.32331E-13 9.57234E-13
 -1       159 3.88974E+01 9.75112E+00 2.13490E+00-1.87736E+01-8.61089E-13 1.70319E-12
 -1       160 1.77092E+01 1.07584E+01 5.77993E-01-1.36071E+01-1.18550E-12 1.71424E-12
 -1       161 3.29518E+00 3.57423E+00-1.06700E+00-3.75425E+00-1.31334E-12 8.03302E-13
 -1       162-1.75406E+00-9.33082E+00-2.40938E+00 3.41889E+00-1.55015E-12 6.52756E-13
 -1       163-1.45390E+00-2.15948E+01-3.28449E+00 4.10011E+00-1.44931E-12 3.34767E-13
 -1       164 2.10127E+01 3.69402E+00-5.73780E-02-3.61091E+00-3.04975E-13 4.92641E-13
 -1       165 1.99905E+01 4.20731E+00-4.58048E-02-2.80975E+00-3.23761E-13 8.50917E-14
 -1       166 1.95066E+01 4.47789E+00-3.17264E-02-2.19569E+00-3.00966E-13-1.71439E-13
 -1       167 1.92682E+01 4.61441E+00-2.38258E-02-1.67532E+00-2.58130E-13-3.19762E-13
 -1       168 1.91375E+01 4.69705E+00-1.95884E-02-1.21954E+00-2.02235E-13-3.97984E-13
 -1       169 1.90640E+01 4.74779E+00-1.74528E-02-7.92530E-01-1.55713E-13-4.54819E-13
 -1       170 1.90271E+01 4.77561E+00-1.64307E-02-3.87113E-01-1.03322E-13-4.81268E-13
 -1       171 1.90163E+01 4.78415E+00-1.61371E-02 8.26804E-03-6.02537E-14-5.04090E-13
 -1       172 1.90288E+01 4.77434E+00-1.64695E-02 4.03973E-01-7.08700E-15-5.16273E-13
 -1       173 1.90678E+01 4.74481E+00-1.75227E-02 8.10413E-01 3.77706E-14-5.14234E-13
 -1       174 1.91420E+01 4.69238E+00-1.96901E-02 1.23205E+00 1.02190E-13-4.93521E-13
 -1       175 1.92772E+01 4.60524E+00-2.40092E-02 1.69885E+00 1.78835E-13-4.51052E-13
 -1       176 1.95237E+01 4.45946E+00-3.28536E-02 2.22725E+00 2.40359E-13-3.76905E-13
 -1       177 2.00128E+01 4.18378E+00-4.72167E-02 2.84745E+00 3.00383E-13-1.88776E-13
 -1       178 2.11343E+01 3.46367E+00-5.97854E-02 3.53726E+00 3.15055E-13 1.88155E-13
 -1       179 2.24186E+01 1.14342E+00-3.36473E-01 3.01522E+00 2.60381E-13 7.19383E-13
 -1       180 2.19706E+01 8.58334E-01 6.06131E-04-1.95929E+00-2.50563E-13 8.97726E-13
 -1       181 2.04461E+01 1.90049E-01-9.99049E-03-7.64566E-01-2.19895E-13 7.40114E-13
 -1       182 1.96700E+01 1.01638E-01 1.35703E-02-2.86229E-01-1.66059E-13 6.06395E-13
 -1       183 1.93298E+01 4.71865E-02 1.00098E-02-6.85361E-02-1.23504E-13 5.00615E-13
 -1       184 1.91996E+01 2.25250E-02 5.16882E-03 3.86908E-02-6.02507E-14 4.26345E-13
 -1       185 1.91855E+01 9.47362E-03 2.43419E-03 9.12074E-02-6.76375E-14 3.89261E-13
 -1       186 1.92335E+01 2.08970E-03 1.13039E-03 1.13506E-01-6.30825E-14 3.64824E-13
 -1       187 1.93120E+01-2.11600E-03 4.98370E-04 1.18410E-01-7.55896E-14 3.43329E-13
 -1       188 1.94024E+01-4.37009E-03 1.67458E-04 1.13384E-01-1.02766E-13 3.08318E-13
 -1       189 1.94938E+01-5.36450E-03-1.25061E-05 1.03100E-01-7.45500E-14 2.57679E-13
 -1       190 1.95800E+01-5.52541E-03-1.04069E-04 9.06051E-02 1.43535E-14 1.07250E-13
 -1       191 1.96582E+01-5.12587E-03-1.37809E-04 7.79355E-02-3.21833E-14 1.10842E-13
 -1       192 1.97277E+01-4.33936E-03-1.31237E-04 6.64832E-02-4.53381E-14 1.26437E-13
 -1       193 1.97895E+01-3.26868E-03-9.50218E-05 5.72375E-02-6.47476E-14 8.55966E-14
 -1       194 1.98455E+01-1.96331E-03-3.54596E-05 5.09597E-02-8.00236E-14 1.37730E-13
 -1       195 1.98986E+01-4.30970E-04 4.42205E-05 4.83132E-02-3.19514E-14 1.11491E-13
 -1       196 1.99526E+01 1.35387E-03 1.42951E-04 4.99657E-02-1.82370E-14 3.05987E-14
 -1       197 2.00119E+01 3.44306E-03 2.61056E-04 5.66682E-02-6.39600E-14 8.69729E-15
 -1       198 2.00819E+01 5.90769E-03 3.99417E-04 6.93131E-02-6.00016E-14 1.64583E-14
 -1       199 2.01688E+01 8.82908E-03 5.58379E-04 8.89695E-02 5.19576E-14-3.90964E-14
 -1       200 2.02799E+01 1.22843E-02 7.36094E-04 1.16885E-01 5.23654E-14-5.19787E-14
 -1       201 2.04236E+01 1.63203E-02 9.25888E-04 1.54433E-01-7.69821E-15-1.40725E-13
 -1       202 2.06093E+01 2.09063E-02 1.11213E-03 2.02962E-01 8.51306E-14 9.99473E-14
 -1       203 2.08473E+01 2.58470E-02 1.26408E-03 2.63476E-01 8.99991E-14 8.78628E-14
 -1       204 2.11475E+01 3.06290E-02 1.32798E-03 3.36015E-01-1.84209E-14 5.32618E-14
 -1       205 2.15185E+01 3.41636E-02 1.21934E-03 4.18536E-01-7.63454E-14 6.43713E-14
 -1       206 2.19648E+01 3.43947E-02 8.22586E-04 5.05038E-01-1.23433E-13-7.98244E-15
 -1       207 2.24821E+01 2.77936E-02 1.24880E-05 5.82658E-01 1.02952E-14-1.28238E-13
 -1       208 2.30510E+01 8.96302E-03-1.28016E-03 6.27813E-01 6.13439E-14 1.18354E-14
 -1       209 2.36284E+01-2.89468E-02-2.94483E-03 6.02527E-01-3.88864E-14 7.01834E-14
 -1       210 2.41389E+01-9.13820E-02-4.51122E-03 4.54728E-01 4.99167E-15 1.69239E-13
 -1       211 2.44700E+01-1.74741E-01-5.14377E-03 1.30735E-01-5.62866E-14 2.13972E-13
 -1       212 2.44839E+01-2.53157E-01-4.01001E-03-3.88325E-01 1.37274E-13 1.53634E-13
 -1       213 2.40590E+01-2.68893E-01-1.44052E-03-1.02292E+00 2.40278E-13 2.56409E-13
 -1       214 2.31764E+01-1.51864E-01 8.24398E-04-1.54082E+00-7.00438E-15 1.83803E-13
 -1       215 2.20244E+01 1.09459E-01 1.62650E-04-1.60608E+00-3.32831E-13 1.97304E-13
 -1       216 2.10245E+01 3.89926E-01-2.85043E-03-1.01103E+00-1.14879E-13-5.07892E-14
 -1       217 2.06356E+01 4.88496E-01-4.11913E-03 5.15063E-02-1.36266E-13 1.46000E-13
 -1       218 2.10207E+01 3.21000E-01-1.91273E-03 1.02868E+00-2.72484E-13 6.21031E-15
 -1       219 2.19025E+01 2.25217E-02 7.89260E-04 1.43240E+00-6.23387E-14-5.42014E-15
 -1       220 2.27945E+01-2.07210E-01 4.02605E-04 1.19596E+00 8.85620E-14-1.52912E-13
 -1       221 2.33292E+01-2.83619E-01-2.12344E-03 5.95703E-01 4.59977E-13-2.59653E-14
 -1       222 2.33840E+01-2.42197E-01-4.21023E-03-4.12643E-02 1.61949E-13 2.69447E-13
 -1       223 2.30232E+01-1.52655E-01-4.35014E-03-5.17926E-01 2.01169E-13 4.01899E-13
 -1       224 2.23953E+01-6.09255E-02-2.74170E-03-7.74715E-01 4.70661E-14 6.11559E-13
 -1       225 2.16615E+01 1.86619E-02-7.93666E-04-8.23647E-01-1.26345E-13 4.16029E-13
 -1       226 2.09645E+01 9.19903E-02 7.53847E-04-6.91856E-01 3.84202E-14 2.58918E-13
 -1       227 2.03978E+01 1.60830E-01 8.08143E-04-4.06782E-01-5.51348E-14 1.83355E-13
 -1       228 2.09623E+01 2.77030E-01-5.13371E-02 1.16524E+00 2.67456E-13 6.07655E-13
 -1       229 1.98671E+01 1.26832E-01 8.30923E-03 4.43550E-01 1.93967E-13 4.29760E-13
 -1       230 1.93603E+01 5.80462E-02 1.27344E-02 1.50550E-01 1.37042E-13 3.14876E-13
 -1       231 1.91501E+01 2.76926E-02 7.62790E-03 1.13398E-02 8.37110E-14 2.13443E-13
 -1       232 1.90997E+01 1.30374E-02 3.82293E-03-5.77047E-02 7.01974E-14 1.31762E-13
 -1       233 1.91348E+01 5.09782E-03 1.90646E-03-9.00529E-02 2.65309E-14 7.17627E-14
 -1       234 1.92132E+01 5.71360E-04 1.00672E-03-1.01777E-01 5.84925E-14 1.89323E-14
 -1       235 1.93101E+01-1.98758E-03 5.49934E-04-1.01623E-01 5.37248E-14-8.13206E-15
 -1       236 1.94112E+01-3.31706E-03 2.91309E-04-9.48452E-02 5.03131E-14-8.36794E-14
 -1       237 1.95081E+01-3.84500E-03 1.37058E-04-8.47877E-02 6.56435E-14-9.68234E-14
 -1       238 1.95967E+01-3.83921E-03 4.75835E-05-7.36536E-02 8.36782E-14-1.05208E-13
 -1       239 1.96754E+01-3.47204E-03 2.23656E-06-6.29235E-02 4.20112E-15-8.96010E-14
 -1       240 1.97446E+01-2.85205E-03-1.17145E-05-5.36167E-02 2.60996E-14-1.50496E-13
 -1       241 1.98057E+01-2.04204E-03-2.70440E-06-4.64694E-02 7.05775E-14-1.80018E-13
 -1       242 1.98616E+01-1.07080E-03 2.35320E-05-4.20624E-02 7.18817E-14-2.24973E-13
 -1       243 1.99155E+01 5.83359E-05 6.29623E-05-4.09156E-02 6.71507E-16-3.48698E-13
 -1       244 1.99717E+01 1.35996E-03 1.12462E-04-4.35550E-02 3.20588E-14-2.99507E-13
 -1       245 2.00349E+01 2.85904E-03 1.69054E-04-5.05557E-02 3.61105E-14-3.32373E-13
 -1       246 2.01108E+01 4.58161E-03 2.29065E-04-6.25559E-02 9.33603E-14-4.06590E-13
 -1       247 2.02056E+01 6.54184E-03 2.87127E-04-8.02367E-02-3.71835E-14-4.13037E-13
 -1       248 2.03264E+01 8.72244E-03 3.34958E-04-1.04248E-01-1.03918E-14-3.95563E-13
 -1       249 2.04807E+01 1.10443E-02 3.60022E-04-1.35060E-01 1.82460E-14-3.96117E-13
 -1       250 2.06759E+01 1.33194E-02 3.44432E-04-1.72692E-01-6.78478E-14-5.06919E-13
 -1       251 2.09189E+01 1.51799E-02 2.65156E-04-2.16274E-01-1.66469E-13-4.01997E-13
 -1       252 2.12137E+01 1.59788E-02 9.76990E-05-2.63354E-01-1.67754E-14-2.66887E-13
 -1       253 2.15601E+01 1.46674E-02-1.73024E-04-3.08904E-01 2.53400E-13-3.11392E-13
 -1       254 2.19493E+01 9.68818E-03-5.30666E-04-3.44024E-01 1.48518E-13-2.79511E-13
 -1       255 2.23597E+01-1.00401E-03-8.92805E-04-3.54593E-01-2.74826E-13-2.83452E-13
 -1       256 2.27517E+01-1.95491E-02-1.07758E-03-3.20616E-01-6.26211E-14-2.72182E-13
 -1       257 2.30637E+01-4.69921E-02-8.13544E-04-2.17931E-01-8.42614E-14-3.09473E-13
 -1       258 2.32128E+01-8.08254E-02 1.38647E-04-2.51533E-02-1.75049E-13-1.20237E-13
 -1       259 2.31070E+01-1.11539E-01 1.68245E-03 2.61095E-01 8.91518E-14-2.03563E-13
 -1       260 2.26751E+01-1.20717E-01 2.98058E-03 6.03435E-01 1.89708E-13-1.47589E-13
 -1       261 2.19149E+01-8.60202E-02 2.72121E-03 9.05494E-01 1.20356E-13-5.26940E-14
 -1       262 2.09447E+01 1.57793E-03 8.39125E-05 1.02482E+00 1.41889E-13-1.74826E-13
 -1       263 2.00137E+01 1.16259E-01-4.35153E-03 8.44355E-01 9.18965E-14-1.96130E-13
 -1       264 1.94237E+01 2.01598E-01-7.43206E-03 3.68923E-01-2.62076E-13-5.59429E-13
 -1       265 1.93807E+01 2.02075E-01-6.01286E-03-2.28183E-01-1.59876E-13-3.65047E-13
 -1       266 1.98604E+01 1.17919E-01-8.12151E-04-6.92036E-01-1.44411E-14-4.17123E-14
 -1       267 2.06232E+01 1.84416E-03 3.61723E-03-8.53403E-01-2.18887E-13 2.13072E-13
 -1       268 2.13594E+01-8.74403E-02 5.01986E-03-7.12092E-01 3.31445E-14 1.42070E-13
 -1       269 2.18381E+01-1.23564E-01 3.69490E-03-3.91726E-01-1.82450E-15 1.29447E-14
 -1       270 2.19698E+01-1.13908E-01 1.42209E-03-3.92494E-02 3.57468E-13 1.73137E-14
 -1       271 2.17862E+01-7.87638E-02-2.85437E-04 2.42281E-01 2.08732E-13-2.00648E-13
 -1       272 2.13890E+01-3.44975E-02-1.21486E-03 4.04300E-01-1.28357E-14 4.95610E-14
 -1       273 2.09054E+01 1.04265E-02-2.18114E-03 4.34415E-01-6.59705E-14-1.66684E-13
 -1       274 2.04601E+01 5.57929E-02-2.16306E-03 3.36582E-01 1.23507E-13-3.54227E-13
 -1       275 2.01423E+01 8.22249E-02 8.22004E-04 1.40991E-01 1.14176E-14-3.73896E-13
 -1       276 2.01115E+01 2.87059E-01 2.09511E-03 2.74119E-01 2.39123E-14 2.11904E-13
 -1       277 2.00924E+01 6.86114E-01 1.92055E-03 5.07967E-01-4.76290E-16 4.14464E-13
 -1       278 2.00651E+01 1.24177E+00 1.22963E-03 6.97982E-01-3.49820E-14 4.36334E-13
 -1       279 2.00329E+01 1.92256E+00 2.75622E-04 8.18884E-01-1.10634E-13 2.73236E-13
 -1       280 1.99879E+01 2.65076E+00-1.35780E-03 8.43580E-01-1.12937E-13-3.12111E-13
 -1       281 1.99329E+01 3.35707E+00-2.85723E-03 7.44184E-01-1.59628E-13-4.76572E-13
 -1       282 1.98802E+01 3.91449E+00-4.07602E-03 5.10654E-01-4.75594E-13-5.04812E-13
 -1       283 1.98464E+01 4.21696E+00-4.72727E-03 1.69544E-01-7.40497E-14 1.90052E-13
 -1       284 1.98436E+01 4.19727E+00-4.70933E-03-2.16847E-01-2.57583E-13 3.46870E-13
 -1       285 1.98735E+01 3.85127E+00-3.98641E-03-5.69317E-01-2.78213E-13-4.79539E-13
 -1       286 1.99250E+01 3.25293E+00-2.55033E-03-8.16052E-01-1.48513E-13-5.42773E-13
 -1       287 1.99858E+01 2.48714E+00-8.87008E-04-9.26840E-01-4.03747E-13 5.24275E-14
 -1       288 2.00451E+01 1.68818E+00 7.55413E-04-8.88981E-01-4.25084E-13 4.64871E-13
 -1       289 2.01094E+01 9.70315E-01 2.32414E-03-7.01538E-01-3.15941E-13 3.81526E-13
 -1       290 2.02392E+01 5.18853E-01 3.33279E-03-6.26851E-01-2.32833E-13 1.49235E-13
 -1       291-9.64588E-01-1.16932E+01-1.03052E+00 1.11864E+00 1.27467E-13 3.43683E-13
 -1       292 2.98669E+00-8.87587E+00-7.19687E-01 3.92998E+00 4.31599E-13 7.45515E-13
 -1       293 9.44487E+00-5.38219E+00-5.22080E-01 5.60113E+00 7.99139E-13 7.77350E-13
 -1       294 1.86978E+01-1.10605E+00-9.22370E-02 7.33814E+00 8.30808E-13 1.10978E-12
 -1       295 2.93932E+01 1.76181E+00 2.86901E-01 7.11783E+00 7.25531E-13 8.82988E-13
 -1       296 3.77722E+01 4.52449E+00 4.79390E-01 4.48098E+00 6.29399E-13 2.70228E-13
 -1       297 4.58530E+01 6.48925E+00 1.01337E+00 3.33589E+00 7.34385E-13 2.08417E-13
 -1       298 4.74193E+01 6.66084E+00 1.08308E+00-6.71911E-01 7.71438E-13-3.39034E-14
 -1       299 4.29481E+01 5.98019E+00 8.47827E-01-4.16120E+00 7.70078E-13-5.73125E-13
 -1       300 3.53494E+01 4.15728E+00 5.90599E-01-7.03029E+00 8.07757E-13-1.09240E-12
 -1       301 2.50487E+01 1.35386E+00 1.74893E-01-7.66495E+00 1.10278E-12-1.15200E-12
 -1       302 1.46091E+01-2.50999E+00-2.74533E-01-6.58204E+00 1.23920E-12-1.14025E-12
 -1       303 6.78203E+00-6.69320E+00-5.43090E-01-5.10176E+00 1.05069E-12-7.83100E-13
 -1       304 7.43882E-01-9.73492E+00-8.28112E-01-2.58351E+00 4.41702E-13-8.26283E-13
 -1       305-1.39311E+00-1.16520E+01-1.03393E+00-2.23189E-01 1.20520E-13-6.96943E-13
 -1       306 1.62427E-01-1.05520E+01-9.54598E-01 1.87485E+00-3.36425E-13-6.90406E-13
 -1       307 6.09835E+00-7.16608E+00-5.83457E-01 4.73135E+00-7.31415E-13-1.28581E-12
 -1       308 1.40564E+01-3.65180E+00-3.05848E-01 6.28426E+00-1.16815E-12-1.02010E-12
 -1       309 2.44038E+01-8.11571E-01 4.39816E-02 6.61937E+00-1.11486E-12-7.79127E-13
 -1       310 3.40305E+01 3.21792E+00 4.59204E-01 6.44247E+00-7.86468E-13-1.28575E-12
 -1       311 4.28765E+01 5.57652E+00 8.86281E-01 4.80853E+00-6.74676E-13-9.80049E-13
 -1       312 4.66880E+01 6.79523E+00 1.00006E+00 1.08711E+00-6.44679E-13-5.22582E-13
 -1       313 4.52314E+01 6.90718E+00 8.88848E-01-2.30004E+00-7.89979E-13 9.29395E-14
 -1       314 4.04306E+01 5.21659E+00 7.34451E-01-5.50666E+00-5.93033E-13 6.73572E-13
 -1       315 3.11880E+01 1.79488E+00 3.01197E-01-6.45426E+00-3.67678E-13 4.97408E-13
 -1       316 2.03246E+01-1.75844E+00-6.77320E-02-7.18468E+00-3.26350E-13 6.34687E-13
 -1       317 9.91586E+00-5.61561E+00-4.92756E-01-5.80496E+00-3.86857E-13 1.61038E-13
 -1       318 2.41994E+00-9.49529E+00-8.87782E-01-3.27388E+00-4.46143E-13 2.90414E-13
 -1       319-1.00460E+00-1.17827E+01-1.05856E+00-1.00160E+00-1.53808E-13 6.38295E-13
 -1       320 2.01455E+01 3.01485E+00-1.78015E-02-2.11094E+00-3.51957E-13 2.21203E-14
 -1       321 2.07542E+01 2.20989E+00-1.78593E-02-2.36408E+00-3.48784E-13 2.77578E-13
 -1       322 1.95830E+01 3.69187E+00-1.56053E-02-1.31917E+00-2.77296E-13-2.45512E-13
 -1       323 1.94612E+01 3.84800E+00-1.36956E-02-9.24365E-01-2.15180E-13-3.00467E-13
 -1       324 1.93924E+01 3.93901E+00-1.27094E-02-5.44204E-01-1.47407E-13-3.42783E-13
 -1       325 1.93620E+01 3.98036E+00-1.22969E-02-1.73347E-01-9.32062E-14-3.93591E-13
 -1       326 1.93633E+01 3.97876E+00-1.23159E-02 1.94519E-01-3.93844E-14-3.90432E-13
 -1       327 1.93966E+01 3.93389E+00-1.27620E-02 5.65691E-01 9.42483E-15-3.92880E-13
 -1       328 1.94671E+01 3.84065E+00-1.37699E-02 9.39801E-01 8.51398E-14-3.77803E-13
 -1       329 1.95936E+01 3.67844E+00-1.56572E-02 1.33397E+00 1.75356E-13-3.17318E-13
 -1       330 1.98087E+01 3.40981E+00-1.88346E-02 1.73934E+00 2.56421E-13-2.83861E-13
 -1       331 2.01788E+01 2.95512E+00-2.29428E-02 2.12792E+00 3.15858E-13-1.87374E-13
 -1       332 2.07482E+01 2.12941E+00-3.04703E-02 2.32281E+00 3.43971E-13 3.94563E-14
 -1       333 2.10945E+01 1.18773E+00-2.49249E-02 1.92247E+00 3.25523E-13 2.64446E-13
 -1       334 2.03905E+01 4.89238E-01 8.33449E-03 9.27946E-01 2.68431E-13 1.93275E-13
 -1       335 2.04575E+01 6.75044E-01 1.25580E-02-1.02653E+00-2.76818E-13 3.06534E-13
 -1       336 2.00351E+01 3.37121E-01 7.18364E-03-4.58813E-01-2.03104E-13 2.59233E-13
 -1       337 1.97809E+01 1.76404E-01 4.16502E-03-1.49759E-01-1.54771E-13 2.36488E-13
 -1       338 1.96451E+01 9.03218E-02 1.90334E-03 2.12560E-02-8.64606E-14 1.66247E-13
 -1       339 1.95893E+01 4.12414E-02 7.90794E-04 1.12316E-01-7.85911E-14 1.31393E-13
 -1       340 1.95838E+01 1.23807E-02 2.72396E-04 1.55491E-01-8.07587E-14 9.26680E-14
 -1       341 1.96076E+01-4.41621E-03 1.73378E-05 1.69759E-01-8.16062E-14 5.86936E-14
 -1       342 1.96472E+01-1.35716E-02-1.13147E-04 1.66988E-01-9.32370E-14 6.11619E-14
 -1       343 1.96936E+01-1.77058E-02-1.74428E-04 1.54914E-01-1.29537E-13 7.35319E-14
 -1       344 1.97417E+01-1.84652E-02-1.91836E-04 1.38727E-01-1.48461E-14 4.84110E-14
 -1       345 1.97885E+01-1.69071E-02-1.79446E-04 1.21978E-01-5.66247E-14 1.14924E-14
 -1       346 1.98329E+01-1.36971E-02-1.45786E-04 1.07165E-01-6.84173E-14 4.90315E-14
 -1       347 1.98752E+01-9.22027E-03-9.58269E-05 9.61238E-02-4.91533E-14 9.81898E-14
 -1       348 1.99164E+01-3.65171E-03-3.19654E-05 9.03232E-02-4.44056E-14 8.03815E-14
 -1       349 1.99586E+01 2.99541E-03 4.53448E-05 9.10753E-02-1.01269E-13 9.36478E-14
 -1       350 2.00043E+01 1.08321E-02 1.37086E-04 9.97007E-02-9.80554E-14-3.14647E-14
 -1       351 2.00568E+01 2.00598E-02 2.45195E-04 1.17645E-01-4.27168E-14-1.00714E-14
 -1       352 2.01199E+01 3.09322E-02 3.71978E-04 1.46556E-01 6.26250E-15 3.08946E-14
 -1       353 2.01980E+01 4.37032E-02 5.19255E-04 1.88299E-01 5.83863E-15-4.23600E-14
 -1       354 2.02961E+01 5.85420E-02 6.86927E-04 2.44908E-01 1.24141E-16-1.20726E-14
 -1       355 2.04199E+01 7.53896E-02 8.70555E-04 3.18401E-01 1.06063E-13 3.57036E-14
 -1       356 2.05751E+01 9.37060E-02 1.05728E-03 4.10410E-01 6.85755E-14-1.16397E-13
 -1       357 2.07678E+01 1.12040E-01 1.21936E-03 5.21467E-01-4.25688E-14-1.61272E-13
 -1       358 2.10036E+01 1.27319E-01 1.30481E-03 6.49775E-01 9.79620E-15-2.44620E-13
 -1       359 2.12874E+01 1.33766E-01 1.22618E-03 7.89168E-01-5.34333E-14-2.03160E-13
 -1       360 2.16221E+01 1.21442E-01 8.52101E-04 9.25971E-01-5.61761E-14-8.01014E-14
 -1       361 2.20085E+01 7.48019E-02 1.45839E-05 1.03461E+00 1.39976E-13-5.09191E-14
 -1       362 2.24435E+01-2.73168E-02-1.44515E-03 1.07252E+00 9.51377E-14 8.49207E-15
 -1       363 2.29181E+01-2.06796E-01-3.56290E-03 9.76628E-01 4.39474E-14 1.81713E-13
 -1       364 2.34111E+01-4.69872E-01-5.91112E-03 6.67866E-01 6.90116E-14 4.50801E-13
 -1       365 2.38743E+01-7.72821E-01-7.54449E-03 7.63851E-02 6.04156E-14 7.42409E-13
 -1       366 2.42097E+01-9.75790E-01-7.29734E-03-7.94173E-01 1.76000E-13 5.33719E-13
 -1       367 2.42652E+01-8.39584E-01-6.21350E-03-1.75856E+00-5.60251E-14 4.57998E-13
 -1       368 2.39161E+01-1.66680E-01-5.98804E-03-2.37718E+00-1.79482E-13 2.93739E-13
 -1       369 2.32594E+01 8.88401E-01-9.01970E-03-2.10218E+00-3.87712E-13 2.89575E-13
 -1       370 2.27238E+01 1.66814E+00-1.20116E-02-7.99809E-01-6.28716E-14 6.67838E-14
 -1       371 2.27405E+01 1.52073E+00-1.03609E-02 8.75692E-01-1.62799E-13 8.35161E-15
 -1       372 2.32146E+01 5.77222E-01-7.59679E-03 1.92204E+00 1.09622E-14 1.80107E-13
 -1       373 2.36705E+01-4.26963E-01-5.43886E-03 1.89075E+00-1.18023E-13 5.32823E-13
 -1       374 2.37562E+01-9.52308E-01-6.20681E-03 1.09794E+00-9.22352E-15 4.23043E-13
 -1       375 2.34561E+01-9.68208E-01-7.67861E-03 1.01675E-01 5.17977E-13 1.31539E-13
 -1       376 2.29202E+01-7.03720E-01-7.30141E-03-7.16133E-01 3.72598E-13 3.52103E-13
 -1       377 2.22942E+01-3.68422E-01-4.69736E-03-1.21617E+00 2.31311E-13 4.53729E-13
 -1       378 2.16676E+01-6.16943E-02-1.56269E-03-1.39982E+00-3.06594E-13 7.49602E-13
 -1       379 2.10921E+01 2.01476E-01 1.51372E-03-1.31466E+00-2.68509E-13 5.48470E-13
 -1       380 2.06464E+01 3.84243E-01 3.96876E-03-1.03491E+00-7.69773E-14 5.57062E-13
 -1       381 1.98886E+01 2.28415E-01 1.07960E-02 3.99392E-01 2.10098E-13 1.64069E-13
 -1       382 1.95996E+01 1.15251E-01 6.17184E-03 1.20811E-01 1.38205E-13 8.43498E-14
 -1       383 1.94645E+01 5.75241E-02 2.80170E-03-2.78644E-02 9.90817E-14 1.90633E-14
 -1       384 1.94242E+01 2.56554E-02 1.17150E-03-1.04584E-01 5.88458E-14-2.06221E-14
 -1       385 1.94395E+01 7.25268E-03 4.48193E-04-1.39704E-01 5.43533E-14-1.52933E-14
 -1       386 1.94852E+01-3.36005E-03 1.03906E-04-1.50213E-01 8.90994E-14-1.48548E-14
 -1       387 1.95453E+01-9.12031E-03-7.37196E-05-1.46405E-01 1.04177E-13-4.91468E-14
 -1       388 1.96102E+01-1.17232E-02-1.63148E-04-1.34858E-01 4.24147E-14-5.52004E-14
 -1       389 1.96739E+01-1.22210E-02-1.97538E-04-1.19922E-01 6.45522E-14-1.08630E-13
 -1       390 1.97338E+01-1.12883E-02-1.94644E-04-1.04542E-01 3.39400E-14-8.08946E-14
 -1       391 1.97888E+01-9.35352E-03-1.65415E-04-9.07574E-02 6.14518E-14-1.29684E-13
 -1       392 1.98394E+01-6.67162E-03-1.16667E-04-8.00378E-02 7.61125E-14-1.54011E-13
 -1       393 1.98872E+01-3.37138E-03-5.23312E-05-7.35220E-02 1.08758E-13-1.63272E-13
 -1       394 1.99344E+01 5.11000E-04 2.56920E-05-7.21883E-02 9.70279E-14-2.08547E-13
 -1       395 1.99841E+01 5.00320E-03 1.16789E-04-7.69755E-02 4.50197E-14-2.52736E-13
 -1       396 2.00399E+01 1.01681E-02 2.20870E-04-8.88577E-02 1.36745E-13-3.51763E-13
 -1       397 2.01062E+01 1.60696E-02 3.37446E-04-1.08871E-01 5.24462E-14-4.33791E-13
 -1       398 2.01876E+01 2.27269E-02 4.64401E-04-1.38078E-01 2.32664E-15-2.51488E-13
 -1       399 2.02896E+01 3.00469E-02 5.96260E-04-1.77452E-01 5.91741E-15-2.66395E-13
 -1       400 2.04177E+01 3.77230E-02 7.21742E-04-2.27636E-01 1.06295E-13-3.40941E-13
 -1       401 2.05774E+01 4.50829E-02 8.20500E-04-2.88530E-01-3.30861E-14-3.05854E-13
 -1       402 2.07739E+01 5.08675E-02 8.59265E-04-3.58622E-01-2.37133E-13-2.55062E-13
 -1       403 2.10104E+01 5.29321E-02 7.88536E-04-4.33982E-01-1.22058E-13-1.99674E-13
 -1       404 2.12876E+01 4.78981E-02 5.42608E-04-5.06837E-01 1.37269E-13-1.89084E-13
 -1       405 2.16012E+01 3.08853E-02 4.83175E-05-5.63778E-01 2.12697E-13 9.33552E-14
 -1       406 2.19395E+01-4.33242E-03-7.51184E-04-5.83940E-01-1.22386E-13-2.31766E-14
 -1       407 2.22808E+01-6.40293E-02-1.84496E-03-5.38151E-01-8.09040E-14-2.55258E-13
 -1       408 2.25900E+01-1.50927E-01-3.08930E-03-3.91247E-01-1.08856E-13-2.44229E-13
 -1       409 2.28169E+01-2.57029E-01-4.13938E-03-1.11231E-01-2.16551E-13-2.52222E-13
 -1       410 2.28978E+01-3.53589E-01-4.45402E-03 3.10271E-01 3.91659E-14-3.18185E-13
 -1       411 2.27664E+01-3.85161E-01-3.62575E-03 8.25946E-01-2.89803E-14-1.86244E-13
 -1       412 2.23819E+01-2.83316E-01-1.92801E-03 1.30276E+00 1.23345E-13 4.65535E-14
 -1       413 2.17786E+01-1.46291E-02 8.47874E-04 1.53058E+00 1.33891E-13 2.88138E-13
 -1       414 2.11122E+01 3.46778E-01 2.87675E-03 1.31681E+00 7.15224E-14 3.86223E-13
 -1       415 2.06246E+01 6.29862E-01 3.24255E-03 6.40023E-01-6.22549E-15 2.60362E-14
 -1       416 2.05289E+01 6.50269E-01 3.97397E-03-2.59011E-01-1.46829E-13-1.56949E-13
 -1       417 2.08342E+01 3.94086E-01 5.06171E-03-9.81402E-01-3.50064E-13-1.40969E-13
 -1       418 2.13409E+01 2.29697E-02 3.04220E-03-1.24959E+00-2.69417E-13 1.30623E-13
 -1       419 2.17942E+01-2.71571E-01-3.36499E-04-1.05000E+00-2.96267E-14 1.61105E-13
 -1       420 2.20261E+01-3.97173E-01-3.43260E-03-5.69132E-01 1.57838E-14 3.45549E-13
 -1       421 2.19963E+01-3.72246E-01-4.90396E-03-3.28867E-02 2.26522E-13 2.76200E-13
 -1       422 2.17512E+01-2.61104E-01-4.42490E-03 3.99816E-01 1.05188E-13 6.78179E-13
 -1       423 2.13706E+01-1.17928E-01-2.57134E-03 6.54663E-01-4.34963E-14 5.86121E-13
 -1       424 2.09384E+01 2.66342E-02-5.61154E-04 7.13894E-01 2.34624E-13 5.05327E-13
 -1       425 2.05265E+01 1.56308E-01 7.04553E-04 5.91216E-01 2.80912E-13 2.17334E-13
 -1       426 2.03013E+01 2.36509E-01 1.70574E-03 4.55713E-01 8.46987E-14 2.57973E-13
 -1       427 2.01914E+01 1.15888E+00 1.63463E-03 1.27451E+00-1.31403E-13 1.19844E-13
 -1       428 2.02883E+01 7.27427E-01 2.61625E-03 1.02748E+00 1.82334E-13 5.54523E-13
 -1       429 2.03071E+01 4.69879E-01 2.88447E-03 7.45255E-01 1.78865E-13 2.60389E-13
 -1       430 2.00447E+01 1.65962E+00-2.35944E-04 1.40317E+00-4.51528E-13-2.57476E-13
 -1       431 1.98466E+01 2.20289E+00-1.92345E-03 1.35235E+00-2.41805E-13-1.42041E-13
 -1       432 1.96312E+01 2.70123E+00-3.67144E-03 1.07894E+00 3.31106E-14-7.11552E-13
 -1       433 1.94568E+01 3.05721E+00-4.90291E-03 5.91689E-01-1.68860E-14-5.00119E-14
 -1       434 1.93831E+01 3.18583E+00-5.39619E-03-3.28298E-02-1.98538E-13 3.11129E-13
 -1       435 1.94390E+01 3.05068E+00-4.98452E-03-6.66820E-01-2.46271E-13-4.95344E-14
 -1       436 1.96017E+01 2.68932E+00-3.70718E-03-1.17024E+00-1.88909E-13-5.44571E-13
 -1       437 1.98269E+01 2.16862E+00-1.81519E-03-1.47003E+00 5.36234E-14-8.33740E-14
 -1       438 2.00595E+01 1.59181E+00 5.90274E-04-1.52784E+00 1.90311E-13 2.88458E-13
 -1       439 2.02720E+01 1.04210E+00 3.67807E-03-1.36735E+00-2.59200E-13 2.26203E-13
 -1       440 1.09700E+01-6.11369E+00-3.83470E-02 7.19699E+00 5.96745E-15 8.32022E-13
 -1       441 1.04171E+00-5.14803E+00-9.40645E-02 5.21040E-02-2.49257E-13 8.11406E-13
 -1       442 3.82608E+00-4.89608E+00-6.28439E-03 4.39009E+00 1.85033E-13 5.24178E-13
 -1       443 1.92226E+01-5.79495E+00-1.93151E-02 6.93522E+00 2.46067E-13 5.42524E-13
 -1       444 2.64628E+01-3.54005E+00-7.63006E-04 4.95781E+00 2.10304E-13 2.52909E-13
 -1       445 1.98031E+01 3.43098E+00-1.76717E-02-1.73879E+00-3.23598E-13-1.56538E-13
 -1       446 3.47845E+01 5.86948E+00 2.28138E-03-7.04627E-02 6.50063E-13-2.57128E-13
 -1       447 3.67244E+01 8.03389E+00 9.97626E-02 1.51441E-01 6.90503E-13-2.50980E-14
 -1       448 3.63119E+01 7.36147E+00 9.00334E-02 3.14520E-01 9.45438E-13 2.45866E-13
 -1       449 3.39355E+01 3.42707E+00 1.05785E-02-1.73547E-01 6.52964E-13 6.15064E-14
 -1       450 3.04806E+01-1.05198E+00 7.99740E-03-2.43631E+00 5.54064E-13-1.70364E-13
 -1       451 2.39649E+01-4.38577E+00-1.23474E-02-5.42360E+00 7.12569E-13-4.12226E-13
 -1       452 1.58293E+01-5.76978E+00-2.72215E-02-7.04507E+00 4.48558E-13-7.11424E-13
 -1       453 7.40187E+00-5.19664E+00 8.04019E-03-6.26076E+00-9.81853E-14-6.52228E-13
 -1       454 1.80994E+00-4.69021E+00-5.44650E-02-2.55267E+00-1.34545E-13-9.39082E-13
 -1       455 1.40286E+00-5.04310E+00-9.31326E-02 1.96429E+00-4.81490E-14-6.04461E-13
 -1       456 6.45786E+00-5.21974E+00-7.08944E-03 5.69593E+00-6.39766E-15-1.26167E-12
 -1       457 1.48572E+01-6.01246E+00-2.49340E-02 6.87978E+00-2.65565E-13-8.84811E-13
 -1       458 2.26927E+01-5.25054E+00-3.23685E-02 5.56146E+00-5.36057E-13-3.49332E-13
 -1       459 3.02775E+01-1.96862E+00 4.57274E-03 2.11659E+00-5.10033E-13-6.67702E-13
 -1       460 3.44784E+01 2.84613E+00 5.72963E-02 3.67842E-01-6.49973E-13-5.53030E-13
 -1       461 3.68040E+01 6.62334E+00 1.11124E-01-3.73897E-01-7.33691E-13-2.98331E-13
 -1       462 3.56574E+01 8.08373E+00 1.53144E-02-2.00022E-01-8.66834E-13-2.38694E-13
 -1       463 3.47449E+01 5.65253E+00-2.48931E-02 4.62838E-01-9.78551E-13-2.32023E-13
 -1       464 3.34804E+01 1.59479E+00 2.08493E-02-6.44599E-01-1.38181E-13 3.75963E-13
 -1       465 2.79131E+01-3.76759E+00-1.69117E-02-3.91732E+00-8.32875E-14 2.49134E-13
 -1       466 1.96263E+01-5.99322E+00-2.14064E-02-6.81401E+00 2.01741E-13 1.66707E-13
 -1       467 1.07864E+01-5.93351E+00-7.92872E-03-7.14237E+00 1.43968E-13-7.90895E-14
 -1       468 4.07617E+00-4.91770E+00-1.69275E-03-4.54174E+00 3.14151E-13 3.67303E-13
 -1       469 3.20194E+01 2.52132E-01 2.90975E-03 1.71316E+00 3.99880E-13-4.30433E-13
 -1       470 3.14189E+01 2.40651E+00-1.17453E-01-1.12506E+00 3.67581E-13-3.34788E-13
 -1       471 2.03723E+01 8.31810E-01 4.03250E-03 9.72854E-01 2.53402E-13-2.99752E-14
 -1       472 1.97341E+01 3.10347E+00-5.33233E-03-6.34268E-01-1.60406E-13-2.86858E-13
 -1       473 1.98304E+01 2.92983E+00-5.71293E-03-9.50263E-01-2.10330E-13-2.24037E-13
 -1       474 1.96667E+01 3.22606E+00-5.02231E-03 8.84142E-03-6.57837E-14-3.51635E-13
 -1       475 1.96851E+01 3.19308E+00-5.10333E-03 3.30698E-01-2.20052E-14-3.64439E-13
 -1       476 1.97386E+01 3.09631E+00-5.41637E-03 6.46323E-01 2.90027E-14-3.23353E-13
 -1       477 1.98368E+01 2.91855E+00-5.95566E-03 9.62103E-01 1.20792E-13-2.78968E-13
 -1       478 1.99917E+01 2.63354E+00-6.53028E-03 1.25749E+00 1.93753E-13-2.55758E-13
 -1       479 2.02332E+01 2.18760E+00-5.70494E-03 1.50231E+00 2.69097E-13-2.11080E-13
 -1       480 2.01103E+01 4.53495E-01 5.08042E-03 4.65133E-01 1.95592E-13-4.57489E-14
 -1       481 2.03432E+01 9.72672E-01 2.77983E-03-9.41003E-01-2.52062E-13 1.00061E-13
 -1       482 2.87509E+01-3.45952E+00-4.75765E-02 1.54055E+00 1.39447E-13-4.95812E-13
 -1       483 2.01709E+01 5.45187E-01 2.33347E-03-4.68855E-01-1.89428E-13 8.55488E-14
 -1       484 2.00233E+01 3.03422E-01 1.11229E-03-1.67740E-01-1.53036E-13 5.84272E-14
 -1       485 1.99224E+01 1.61453E-01 4.67858E-04 1.36466E-02-1.29932E-13 2.08795E-14
 -1       486 1.98636E+01 7.53612E-02 1.61166E-04 1.16264E-01-1.13563E-13-6.27011E-15
 -1       487 1.98363E+01 2.29995E-02 2.26217E-05 1.67844E-01-1.03658E-13-7.29227E-14
 -1       488 1.98304E+01-7.91767E-03-4.50040E-05 1.87093E-01-8.37820E-14-8.17137E-14
 -1       489 1.98383E+01-2.47014E-02-7.80668E-05 1.86753E-01-9.61633E-14-8.27345E-14
 -1       490 1.98542E+01-3.19526E-02-9.02071E-05 1.75598E-01-8.19229E-14-2.74653E-14
 -1       491 1.98746E+01-3.26581E-02-8.82384E-05 1.59731E-01-2.42164E-14-3.32947E-14
 -1       492 1.98972E+01-2.87584E-02-7.63158E-05 1.43459E-01-1.63826E-14 1.12585E-15
 -1       493 1.99210E+01-2.14654E-02-5.70284E-05 1.29903E-01-4.13193E-14 4.15028E-14
 -1       494 1.99458E+01-1.14574E-02-3.17804E-05 1.21437E-01-6.82632E-14 2.55030E-14
 -1       495 1.99720E+01 9.89665E-04-1.04824E-06 1.20022E-01-8.64050E-14 3.92292E-14
 -1       496 2.00007E+01 1.59057E-02 3.54173E-05 1.27451E-01-1.60688E-13 4.97637E-14
 -1       497 2.00332E+01 3.35450E-02 7.83929E-05 1.45532E-01-4.32098E-14 6.62021E-14
 -1       498 2.00713E+01 5.43061E-02 1.28973E-04 1.76205E-01-7.56569E-14-3.99717E-14
 -1       499 2.01171E+01 7.86346E-02 1.88318E-04 2.21602E-01-4.25776E-14-1.64465E-13
 -1       500 2.01728E+01 1.06885E-01 2.57207E-04 2.84023E-01 1.15796E-14-1.73037E-13
 -1       501 2.02410E+01 1.39100E-01 3.35316E-04 3.65810E-01 9.98166E-14-1.45095E-13
 -1       502 2.03241E+01 1.74648E-01 4.19952E-04 4.69058E-01 2.46270E-15-1.04052E-13
 -1       503 2.04249E+01 2.11613E-01 5.03903E-04 5.95088E-01-7.22328E-14-2.27437E-13
 -1       504 2.05467E+01 2.45813E-01 5.72021E-04 7.43558E-01-5.63952E-14-2.62787E-13
 -1       505 2.06933E+01 2.69266E-01 5.96190E-04 9.11028E-01-4.71898E-14-2.61686E-13
 -1       506 2.08708E+01 2.68018E-01 5.28895E-04 1.08877E+00 2.74838E-14-1.00127E-13
 -1       507 2.10901E+01 2.19526E-01 2.96915E-04 1.25953E+00 6.56020E-14-1.13636E-13
 -1       508 2.13697E+01 9.07292E-02-1.97640E-04 1.39303E+00 4.37842E-14-1.36400E-13
 -1       509 2.17410E+01-1.59828E-01-1.06185E-03 1.44015E+00 2.67743E-13 8.95703E-14
 -1       510 2.22478E+01-5.68251E-01-2.38176E-03 1.32693E+00 2.33248E-13 2.89007E-13
 -1       511 2.29339E+01-1.12585E+00-3.51726E-03 9.53408E-01 1.94061E-13 3.68534E-13
 -1       512 2.37972E+01-1.70295E+00-4.07015E-03 2.14395E-01 1.16257E-13 6.29546E-13
 -1       513 2.47040E+01-1.94972E+00-4.92466E-03-9.13544E-01 3.64173E-14 6.88053E-13
 -1       514 2.53150E+01-1.32754E+00-1.69144E-02-2.16995E+00-1.96073E-13 8.09701E-13
 -1       515 2.53156E+01 4.40310E-01-3.31322E-02-2.83356E+00-2.18122E-13 8.89957E-13
 -1       516 2.47029E+01 2.66891E+00-7.81071E-02-2.04527E+00-4.13111E-13 9.07242E-13
 -1       517 2.45047E+01 3.42642E+00-7.65794E-02 9.13300E-02-3.11768E-13 5.76768E-13
 -1       518 2.48554E+01 2.06736E+00-5.20524E-02 1.94380E+00-3.08059E-13 1.49539E-13
 -1       519 2.51953E+01-1.62434E-01-3.17219E-02 2.28579E+00 8.64473E-14-1.85177E-13
 -1       520 2.49533E+01-1.66210E+00-1.04349E-02 1.34828E+00-4.93863E-14-8.81352E-14
 -1       521 2.41404E+01-1.99391E+00-4.68423E-03 5.15339E-02 2.68459E-13 3.03274E-13
 -1       522 2.31488E+01-1.59097E+00-4.81160E-03-9.97696E-01 3.81385E-13 5.61246E-14
 -1       523 2.22576E+01-9.50557E-01-3.23514E-03-1.63019E+00 3.32953E-13-7.35002E-14
 -1       524 2.15511E+01-3.35628E-01-1.34982E-03-1.88588E+00 3.10533E-13 5.13052E-14
 -1       525 2.10154E+01 1.80410E-01 5.78680E-04-1.84101E+00-1.67241E-13 5.56881E-13
 -1       526 1.98077E+01 1.28746E-01 9.82012E-04-1.83476E-02 1.02828E-13-6.53774E-14
 -1       527 1.97496E+01 5.94783E-02 3.62377E-04-1.16831E-01 8.52937E-14-8.44086E-14
 -1       528 1.97307E+01 1.79743E-02 8.52596E-05-1.65116E-01 8.61142E-14-6.83527E-14
 -1       529 1.97368E+01-6.37299E-03-4.90147E-05-1.82225E-01 9.28264E-14-6.31111E-14
 -1       530 1.97576E+01-1.96030E-02-1.15502E-04-1.80653E-01 7.37492E-14 6.25292E-15
 -1       531 1.97862E+01-2.54185E-02-1.42791E-04-1.68821E-01 6.11163E-14 2.37672E-14
 -1       532 1.98182E+01-2.61950E-02-1.44507E-04-1.52498E-01 9.79192E-14 3.26350E-15
 -1       533 1.98511E+01-2.34714E-02-1.28665E-04-1.35695E-01 8.60290E-14-1.01479E-13
 -1       534 1.98838E+01-1.82199E-02-1.00260E-04-1.21272E-01 1.10774E-13-1.50135E-13
 -1       535 1.99163E+01-1.10095E-02-6.22815E-05-1.11360E-01 5.48748E-14-1.74513E-13
 -1       536 1.99494E+01-2.11556E-03-1.62496E-05-1.07660E-01 9.24069E-14-3.13300E-14
 -1       537 1.99843E+01 8.39361E-03 3.73211E-05-1.11668E-01 7.55050E-14-9.81211E-14
 -1       538 2.00231E+01 2.05792E-02 9.84955E-05-1.24818E-01 1.85012E-13-8.70259E-14
 -1       539 2.00681E+01 3.45489E-02 1.67422E-04-1.48555E-01 5.85241E-14-3.93466E-14
 -1       540 2.01221E+01 5.03548E-02 2.43719E-04-1.84339E-01-1.18512E-13-2.05573E-14
 -1       541 2.01880E+01 6.78533E-02 3.25613E-04-2.33546E-01 2.18715E-14-2.22667E-14
 -1       542 2.02693E+01 8.65036E-02 4.08728E-04-2.97247E-01 9.98932E-14-5.79330E-14
 -1       543 2.03695E+01 1.05074E-01 4.84335E-04-3.75800E-01-2.57400E-15 7.43839E-14
 -1       544 2.04923E+01 1.21220E-01 5.37027E-04-4.68208E-01-1.17935E-13 6.18482E-14
 -1       545 2.06412E+01 1.30907E-01 5.41996E-04-5.71137E-01-4.85272E-14-2.50950E-13
 -1       546 2.08197E+01 1.27708E-01 4.62666E-04-6.77522E-01 7.12210E-14-3.72012E-13
 -1       547 2.10311E+01 1.02111E-01 2.50638E-04-7.74723E-01 9.57657E-14-3.13268E-13
 -1       548 2.12785E+01 4.13483E-02-1.48801E-04-8.42335E-01-7.14891E-14-1.75898E-13
 -1       549 2.15641E+01-6.92304E-02-7.85250E-04-8.50198E-01-1.75237E-14-1.12803E-13
 -1       550 2.18879E+01-2.41232E-01-1.64951E-03-7.57920E-01-5.69748E-14-1.45024E-13
 -1       551 2.22429E+01-4.72016E-01-2.62371E-03-5.18707E-01-1.06706E-13-1.15816E-13
 -1       552 2.26043E+01-7.24822E-01-3.36789E-03-9.27332E-02-7.53227E-14-2.22982E-13
 -1       553 2.29152E+01-9.05629E-01-3.25378E-03 5.21895E-01-1.33096E-13-8.49924E-14
 -1       554 2.30786E+01-8.60741E-01-2.22631E-03 1.23901E+00 2.23699E-14 3.30203E-14
 -1       555 2.29830E+01-4.37262E-01-2.57051E-03 1.83635E+00 9.89600E-15 1.75997E-13
 -1       556 2.26167E+01 3.54558E-01-2.67127E-04 1.96643E+00 5.78732E-14 2.23949E-13
 -1       557 2.21371E+01 1.21452E+00-9.94364E-04 1.41128E+00 3.34686E-13 2.78600E-13
 -1       558 2.18657E+01 1.62519E+00-5.63740E-03 2.57050E-01 1.28745E-13 2.42856E-13
 -1       559 2.19999E+01 1.27585E+00-7.97470E-04-9.23371E-01-2.21913E-13 1.71378E-13
 -1       560 2.23649E+01 4.33702E-01-4.46105E-04-1.55716E+00-3.73058E-13-7.72316E-14
 -1       561 2.26597E+01-4.03127E-01-3.96092E-04-1.46658E+00-3.29895E-14-1.54808E-15
 -1       562 2.26804E+01-8.75361E-01-1.91210E-03-8.75531E-01-8.62632E-14-5.77720E-14
 -1       563 2.24323E+01-9.43093E-01-3.65952E-03-1.34913E-01 8.60461E-14 2.03112E-13
 -1       564 2.20220E+01-7.42692E-01-3.62713E-03 5.01289E-01 2.20424E-14 4.90768E-13
 -1       565 2.15574E+01-4.26819E-01-2.31440E-03 9.14730E-01-4.74697E-14 4.75484E-13
 -1       566 2.11013E+01-8.77684E-02-6.87375E-04 1.08287E+00 8.91177E-14 3.24518E-13
 -1       567 2.06787E+01 2.24076E-01 8.92425E-04 1.02401E+00 3.67816E-13 4.77562E-13
 -1       568 1.99152E+01 1.23996E+00-4.90393E-04 1.83890E+00-6.64908E-14 7.55242E-16
 -1       569 1.94685E+01 1.70889E+00-1.39634E-03 1.66563E+00 2.78594E-14-1.95492E-13
 -1       570 2.04965E+01 5.06423E-01-4.99591E-04 1.47782E+00-5.15666E-14 2.09790E-14
 -1       571 2.02729E+01 8.23550E-01 1.50832E-03 1.74531E+00-1.71205E-13-2.46007E-13
 -1       572 1.90337E+01 2.13703E+00-2.10959E-03 1.17350E+00 1.89416E-13-2.23124E-13
 -1       573 1.87519E+01 2.40393E+00-2.34790E-03 4.10833E-01 8.12532E-14-3.63490E-15
 -1       574 1.87323E+01 2.42025E+00-2.48109E-03-4.67569E-01-7.56123E-14 2.95596E-13
 -1       575 1.89785E+01 2.18669E+00-2.17271E-03-1.24417E+00-1.75773E-14-2.55673E-13
 -1       576 1.94108E+01 1.77331E+00-1.50388E-03-1.77895E+00 5.16764E-14-5.08554E-13
 -1       577 1.99008E+01 1.29792E+00-9.10423E-04-1.98357E+00-1.03742E-13 8.81499E-14
 -1       578 2.03451E+01 8.59262E-01 8.23993E-04-1.88551E+00-4.58134E-13-8.14830E-15
 -1       579 5.01919E+00-1.96195E+00 1.62634E-01 1.99173E+00-5.96294E-14 1.13416E-12
 -1       580 1.80001E+01-5.72601E+00 9.10672E-02 7.01840E+00-1.13125E-13 3.89378E-13
 -1       581 1.99228E+01 2.46056E-01 2.43658E-03 1.59866E-01 1.48239E-13-5.29017E-14
 -1       582 5.32689E+00-1.99281E+00 1.73760E-01-2.39370E+00 1.41522E-13-1.53183E-13
 -1       583 1.05253E+01-3.89013E+00 1.44159E-01 6.51981E+00-5.60663E-15 5.98167E-13
 -1       584 2.03967E+01 1.75553E+00-5.96363E-03-1.53786E+00-3.25467E-13 6.15231E-14
 -1       585 1.02226E+01-3.53573E+00 1.41505E-01-6.22098E+00 5.39443E-13-3.57353E-14
 -1       586 3.02727E+01 6.34802E+00-1.81918E-01 1.06773E+00-7.91450E-13-2.53689E-13
 -1       587 1.96823E+01 3.19747E+00-5.09727E-03-3.13104E-01-1.11580E-13-3.24204E-13
 -1       588 3.03193E+01 7.40527E+00-1.69070E-01 6.16716E-01 5.99118E-13-2.97930E-14
 -1       589 2.49933E+01-5.88645E+00 4.71500E-03-4.41814E+00 1.58318E-13 5.55393E-13
 -1       590 3.03788E+01 6.67330E+00-1.88280E-01-8.74488E-01 5.52489E-13-8.58653E-14
 -1       591 3.08690E+01 4.96287E+00-1.40361E-01 1.86664E+00 6.89351E-13 6.32931E-13
 -1       592 3.00808E+01-2.17908E-01-1.14352E-01 1.07406E+00 4.00645E-13 4.25084E-13
 -1       593 2.75098E+01-4.24171E+00-3.70874E-02-2.12536E+00 3.50442E-13 2.58960E-13
 -1       594 2.19718E+01-5.79393E+00 3.53438E-02-5.55278E+00 1.32727E-13-2.17985E-13
 -1       595 1.46144E+01-4.89683E+00 9.84184E-02-6.92313E+00-2.55018E-13-7.17343E-13
 -1       596 6.82295E+00-2.52396E+00 1.65915E-01-4.61586E+00-4.09513E-13-7.53203E-13
 -1       597 4.31274E+00-1.60955E+00 1.72699E-01-1.05421E-01-2.24533E-13-6.50438E-13
 -1       598 6.17874E+00-2.26627E+00 1.57632E-01 3.77985E+00-2.67668E-13-8.05508E-13
 -1       599 1.35210E+01-4.68011E+00 1.12040E-01 6.63484E+00 2.69805E-13-8.57252E-13
 -1       600 2.09048E+01-5.91668E+00 5.56380E-02 5.71614E+00 1.79440E-14-1.43902E-13
 -1       601 2.70142E+01-5.03036E+00-2.93454E-02 2.07982E+00-1.62835E-13-1.86393E-13
 -1       602 3.02529E+01-5.22203E-01-1.07927E-01-1.58462E+00-3.71512E-13 1.09232E-13
 -1       603 3.17495E+01 4.13293E+00-1.26949E-01-2.01877E+00-5.81341E-13 1.43358E-14
 -1       604 3.07411E+01 6.68648E+00-1.72788E-01-1.31904E+00-7.50164E-13-5.27182E-14
 -1       605 3.02287E+01 2.22492E+00-1.53893E-01 2.01319E+00-4.43853E-13-7.65367E-13
 -1       606 2.98625E+01-2.44247E+00-6.45174E-02-9.03320E-02 4.29344E-14-3.69774E-14
 -1       607 1.79890E+01-5.67524E+00 9.58384E-02-6.93312E+00 3.85580E-13 1.40513E-15
 -1       608 2.05842E+01 1.30515E+00-9.99079E-04 1.54863E+00 3.06052E-13-7.41247E-15
 -1       609 2.46355E+01-5.70256E+00 2.03564E-02 4.87236E+00-8.65419E-14-2.58196E-14
 -1       610 1.99731E+01 2.64887E+00-9.82364E-03-1.23986E+00-2.68050E-13-1.81721E-13
 -1       611 2.89077E+01 4.37193E+00-1.48731E-01-1.85961E+00 3.47937E-13-7.65325E-14
 -1       612 9.44257E+00-1.71231E+00 1.61783E-01 4.50602E+00-1.63376E-13 5.54869E-13
 -1       613 1.13047E+01-2.43490E+00 1.47518E-01 5.34426E+00 6.16278E-14-8.07215E-13
 -1       614 1.22712E+01-2.91692E+00 1.35978E-01-5.93750E+00-5.58553E-13-8.09054E-13
 -1       615 2.91304E+01-1.21658E+00-9.92518E-02-8.63185E-01 4.77257E-14-4.78402E-13
 -1       616 2.07243E+01 4.75528E-01 1.58617E-03-1.67404E+00-5.10612E-13 6.44925E-13
 -1       617 1.99619E+01 2.44852E+00-1.59100E-03 3.94596E-01 1.13534E-14-3.00334E-13
 -1       618 1.99302E+01 2.52346E+00-1.52106E-03 1.35956E-01-3.88596E-14-3.20806E-13
 -1       619 2.01211E+01 2.04546E+00-1.57966E-03 8.51047E-01 1.46215E-13-2.12861E-13
 -1       620 2.02389E+01 1.67555E+00-2.22877E-03 9.92931E-01 2.01425E-13-1.88067E-13
 -1       621 2.03188E+01 1.03619E+00 2.88071E-03 8.32646E-01 2.14010E-13-1.44095E-13
 -1       622 2.67864E+01 5.36512E+00-1.45425E-01-2.71697E-01-6.59160E-13 3.98488E-13
 -1       623 1.62162E+01-3.52427E+00 1.02887E-01-6.13475E+00 4.54158E-13 1.07032E-13
 -1       624 2.02392E+01 6.74479E-01 5.64442E-04-3.95845E-01-1.82166E-13-4.40322E-14
 -1       625 2.01671E+01 3.91442E-01 2.08057E-04-1.41299E-01-1.64940E-13-4.82415E-14
 -1       626 2.01018E+01 2.12247E-01 6.76806E-05 2.05851E-02-1.32657E-13-3.41152E-14
 -1       627 2.00518E+01 9.84888E-02 6.60966E-06 1.15771E-01-1.50645E-13-7.61146E-14
 -1       628 2.00171E+01 2.76326E-02-1.51262E-05 1.65078E-01-9.65369E-14-8.62737E-14
 -1       629 1.99951E+01-1.43908E-02-2.55078E-05 1.84275E-01-5.57579E-14-5.83259E-14
 -1       630 1.99830E+01-3.67084E-02-3.00786E-05 1.84943E-01-5.09817E-14 2.27379E-14
 -1       631 1.99779E+01-4.53899E-02-3.04797E-05 1.75466E-01-5.08423E-14 1.31268E-14
 -1       632 1.99779E+01-4.44943E-02-2.76447E-05 1.61883E-01-1.44663E-14 2.12591E-14
 -1       633 1.99815E+01-3.66805E-02-2.23590E-05 1.48587E-01-5.33574E-14-1.60650E-14
 -1       634 1.99879E+01-2.35878E-02-1.51774E-05 1.38850E-01-6.25087E-14-5.15617E-14
 -1       635 1.99964E+01-6.09002E-03-6.37088E-06 1.35246E-01-2.63797E-14-1.61792E-14
 -1       636 2.00069E+01 1.55171E-02 4.05939E-06 1.39963E-01-7.24509E-14 5.53874E-14
 -1       637 2.00193E+01 4.13674E-02 1.63281E-05 1.55037E-01-1.30733E-13 1.69531E-13
 -1       638 2.00338E+01 7.18896E-02 3.07723E-05 1.82517E-01-1.32531E-13 1.34485E-13
 -1       639 2.00505E+01 1.07663E-01 4.78577E-05 2.24565E-01-7.99327E-14 1.55454E-14
 -1       640 2.00695E+01 1.49237E-01 6.80219E-05 2.83475E-01-1.00837E-13-3.04449E-14
 -1       641 2.00909E+01 1.96870E-01 9.16228E-05 3.61619E-01 2.19203E-14-8.76359E-14
 -1       642 2.01145E+01 2.50126E-01 1.18713E-04 4.61283E-01 7.24464E-14-3.52581E-13
 -1       643 2.01403E+01 3.07237E-01 1.48669E-04 5.84375E-01-2.35504E-14-2.09987E-13
 -1       644 2.01685E+01 3.64082E-01 1.79538E-04 7.31972E-01-1.12634E-13 3.88415E-14
 -1       645 2.02006E+01 4.12604E-01 2.06873E-04 9.03655E-01-3.81780E-14-1.27261E-14
 -1       646 2.02408E+01 4.38483E-01 2.21659E-04 1.09656E+00 4.88106E-14 2.65694E-14
 -1       647 2.02996E+01 4.17980E-01 2.06530E-04 1.30406E+00 3.60214E-14 1.02436E-13
 -1       648 2.03995E+01 3.14359E-01 1.29802E-04 1.51364E+00 7.74452E-14 1.60343E-13
 -1       649 2.05826E+01 7.55668E-02-4.99734E-05 1.70307E+00 2.47552E-13 2.40647E-13
 -1       650 2.09217E+01-3.61918E-01-3.72501E-04 1.83243E+00 3.71133E-13 2.25641E-13
 -1       651 2.15249E+01-1.05092E+00-1.15709E-03 1.82754E+00 3.37315E-13 2.90953E-13
 -1       652 2.25238E+01-1.96876E+00-8.10161E-05 1.55640E+00 2.91941E-13 3.67428E-13
 -1       653 2.39834E+01-2.86997E+00-1.26438E-04 8.04396E-01 6.60250E-14 4.64729E-13
 -1       654 2.57041E+01-3.07595E+00-9.13369E-03-5.66664E-01 1.04741E-13 5.05511E-13
 -1       655 2.70247E+01-1.38875E+00-2.97431E-02-2.22856E+00-1.54215E-13 6.29040E-13
 -1       656 2.72547E+01 9.77873E-01-7.39606E-02 2.43905E+00-3.99115E-13 2.46140E-13
 -1       657 2.65667E+01-2.10304E+00-6.60424E-02 1.40986E+00-9.60534E-14-2.90790E-13
 -1       658 2.51802E+01-3.14654E+00-7.57750E-03-2.67098E-01 3.47227E-13-9.81498E-14
 -1       659 2.35277E+01-2.65464E+00-3.87783E-03-1.52685E+00 1.65696E-13 8.74153E-14
 -1       660 2.22098E+01-1.69704E+00-2.20813E-03-2.16706E+00 3.16593E-13 1.84992E-13
 -1       661 2.13228E+01-7.55422E-01-7.07176E-04-2.36665E+00 3.53689E-13 2.37943E-13
 -1       662 2.07739E+01 2.28523E-02 2.15477E-04-2.28158E+00 3.72379E-13 1.17301E-13
 -1       663 1.99725E+01 8.80412E-02 6.04277E-05-1.18042E-01 9.47376E-14-7.31512E-14
 -1       664 2.08992E+01-6.00574E-02 1.23825E-03 1.65524E+00-9.02338E-14-2.30031E-13
 -1       665 2.00261E+01 1.89140E-01 1.69429E-04-1.94844E-02 1.07236E-13-9.56396E-14
 -1       666 1.99256E+01-1.14161E-02-2.75177E-05-1.87617E-01 5.54083E-14 2.09135E-14
 -1       667 1.99218E+01-3.12546E-02-4.20051E-05-1.87707E-01 8.60497E-14 3.11998E-14
 -1       668 1.99256E+01-3.93429E-02-4.68917E-05-1.77311E-01 9.12279E-14-7.92848E-15
 -1       669 1.99342E+01-3.92667E-02-4.48934E-05-1.62530E-01 1.57580E-13-8.62365E-14
 -1       670 1.99460E+01-3.33758E-02-3.78610E-05-1.47738E-01 1.12219E-13-5.75487E-14
 -1       671 1.99600E+01-2.31495E-02-2.69950E-05-1.36145E-01 7.11326E-14 6.93869E-14
 -1       672 1.99757E+01-9.43226E-03-1.30223E-05-1.30215E-01 8.56940E-14-1.88063E-15
 -1       673 1.99934E+01 7.38998E-03 3.72537E-06-1.31978E-01 8.65746E-14 1.43602E-16
 -1       674 2.00135E+01 2.72402E-02 2.32374E-05-1.43253E-01 9.83505E-14 2.37916E-14
 -1       675 2.00367E+01 5.02071E-02 4.56511E-05-1.65782E-01 5.59911E-14 6.41698E-14
 -1       676 2.00641E+01 7.63845E-02 7.10658E-05-2.01291E-01 3.31121E-14 7.68402E-14
 -1       677 2.00968E+01 1.05668E-01 9.92830E-05-2.51456E-01 2.09364E-15-4.17774E-14
 -1       678 2.01365E+01 1.37475E-01 1.29565E-04-3.17765E-01 7.07492E-15-8.45631E-14
 -1       679 2.01848E+01 1.70356E-01 1.60079E-04-4.01227E-01 4.34974E-15-2.91675E-14
 -1       680 2.02439E+01 2.01441E-01 1.87237E-04-5.01915E-01 7.53950E-15 6.74297E-14
 -1       681 2.03168E+01 2.25674E-01 2.04778E-04-6.18256E-01-1.04527E-15 9.29071E-14
 -1       682 2.04079E+01 2.34833E-01 2.02687E-04-7.46026E-01 3.20911E-14 1.66353E-13
 -1       683 2.05240E+01 2.16406E-01 1.66132E-04-8.76960E-01 3.87072E-14 1.58186E-13
 -1       684 2.06759E+01 1.52701E-01 7.46195E-05-9.96883E-01-3.95264E-14 5.30529E-14
 -1       685 2.08800E+01 2.11223E-02-1.00168E-04-1.08333E+00-7.88588E-14 1.10226E-13
 -1       686 2.11598E+01-2.02384E-01-4.18405E-04-1.10273E+00 5.73034E-14-1.11625E-14
 -1       687 2.15432E+01-5.33116E-01-8.66815E-04-1.00806E+00-1.55238E-13-3.95564E-14
 -1       688 2.20537E+01-9.56078E-01-1.40439E-03-7.38752E-01-3.02677E-15 7.10886E-15
 -1       689 2.26836E+01-1.38544E+00-1.78200E-03-2.31373E-01-1.51591E-13 2.61358E-14
 -1       690 2.33524E+01-1.62197E+00-1.30272E-03 5.37343E-01-7.93216E-14-1.50062E-13
 -1       691 2.38782E+01-1.36141E+00-2.27184E-03 1.46038E+00-1.15949E-14 8.90440E-14
 -1       692 2.40400E+01-3.06797E-01-3.22662E-03 2.23905E+00-1.13024E-13 1.63135E-13
 -1       693 2.36710E+01 1.31309E+00-3.11684E-02 2.21051E+00 2.47793E-13 2.26160E-14
 -1       694 2.32133E+01 2.66244E+00-2.00909E-02 1.12198E+00 3.53910E-13 1.83641E-13
 -1       695 2.31935E+01 2.67779E+00-1.68876E-02-5.05366E-01 1.31116E-13 1.16003E-13
 -1       696 2.35658E+01 1.45592E+00-1.84162E-02-1.67195E+00-2.17487E-13-8.74910E-14
 -1       697 2.38837E+01-2.20534E-01-9.19470E-03-1.78545E+00-2.36187E-13-9.39676E-14
 -1       698 2.37658E+01-1.35526E+00-2.02029E-03-1.06963E+00 1.05361E-13-1.23457E-13
 -1       699 2.32267E+01-1.68257E+00-2.57043E-03-1.14323E-01 4.02239E-16-1.87649E-13
 -1       700 2.25149E+01-1.44216E+00-1.83139E-03 6.98855E-01-1.43197E-13-3.32980E-14
 -1       701 2.18269E+01-9.40737E-01-1.00960E-03 1.21944E+00-6.86207E-14 9.50559E-14
 -1       702 2.13335E+01-5.26231E-01-2.40849E-04 1.52503E+00 1.38524E-13-1.88101E-13
 -1       703 2.26117E+01-5.48353E+00 3.67502E-02 4.99961E+00-5.10997E-13-5.15330E-13
 -1       704 1.80989E+01 1.70800E+00-6.22851E-04 1.08598E+00 1.35439E-13-8.28967E-14
 -1       705 2.05229E+01 4.65086E-01-7.28296E-04-2.12023E+00-3.78313E-14 2.51454E-13
 -1       706 1.95627E+01 7.57724E-01-5.67035E-04 2.20804E+00-9.88342E-15-2.31481E-13
 -1       707 1.78120E+01 1.90737E+00-5.16986E-04-3.06517E-03 8.98804E-14-2.03948E-14
 -1       708 1.87726E+01 1.26387E+00-5.94233E-04 1.86698E+00-6.52789E-14-1.24030E-13
 -1       709 1.80265E+01 1.78248E+00-1.30769E-03-1.09504E+00-2.49166E-13-2.78412E-13
 -1       710 1.86643E+01 1.39542E+00-4.98098E-04-1.93215E+00-3.62441E-13-3.35271E-13
 -1       711 1.94836E+01 9.18489E-01 1.84058E-03-2.33036E+00-1.50815E-14-3.11510E-13
 -1       712 2.00682E+01 6.58247E-01-1.06848E-04-2.31557E+00-1.15334E-13-1.99901E-13
 -1       713 2.72235E+01-4.53660E+00-1.38362E-02-1.30451E+00 2.21524E-14 4.11442E-14
 -1       714 2.02805E+01 1.67861E+00 7.61578E-05-1.14158E+00-2.65988E-13-4.75896E-14
 -1       715 8.12181E+00-2.44022E-01 1.64872E-01-9.44181E-02 2.39095E-13 3.71016E-13
 -1       716 1.57859E+01-3.83462E+00 1.05389E-01 6.33325E+00-3.07296E-13 2.18912E-13
 -1       717 8.44685E+00-3.15019E-01 1.60808E-01-2.28256E+00-3.38254E-13-5.96995E-13
 -1       718 2.69502E+01 5.99591E+00-1.39818E-01-1.92236E-01 4.33049E-13-3.86692E-14
 -1       719 2.01045E+01 3.52584E-01 5.45844E-04 1.50758E-01 1.31238E-13-8.15567E-14
 -1       720 1.99408E+01 2.55895E-02 1.92674E-06-1.68436E-01 6.39088E-14-4.27814E-14
 -1       721 2.02906E+01 1.07601E+00-1.43146E-04-7.24357E-01-2.27826E-13-4.17438E-14
 -1       722 2.00252E+01 2.29417E+00-1.65568E-03 6.38655E-01 5.99034E-14-2.29589E-13
 -1       723 2.02049E+01 6.14203E-01 1.06158E-03 4.21411E-01 1.56466E-13-1.25306E-13
 -1       724 2.74065E+01 4.12005E+00-1.34844E-01 1.82132E+00-4.82100E-13 1.84413E-13
 -1       725 2.00196E+01 2.30474E+00-1.57343E-03-6.30217E-01-1.47005E-13-2.05072E-13
 -1       726 2.82773E+01-9.14832E-01-7.34201E-02 1.77903E+00-4.25149E-13-3.00756E-13
 -1       727 9.98646E+00-1.26527E+00 1.44705E-01-4.06409E+00 2.97991E-13-2.29282E-13
 -1       728 1.86123E+01-4.68452E+00 7.82488E-02 5.57531E+00 5.13267E-13-2.46483E-13
 -1       729 2.77724E+01-2.78738E+00-5.46597E-02 5.78395E-01 7.42809E-14 7.33313E-13
 -1       730 2.47826E+01-5.14693E+00-3.49353E-03-2.98818E+00-1.75129E-13 6.04922E-13
 -1       731 2.00615E+01-4.96661E+00 5.56253E-02-5.43407E+00-3.65992E-13-1.90041E-13
 -1       732 7.77155E+00-4.06265E-01 1.58817E-01 1.78151E+00-2.91433E-13-6.39877E-13
 -1       733 2.37481E+01-5.27037E+00 2.83591E-02 3.51429E+00 1.89064E-13-1.25904E-13
 -1       734 2.75896E+01-2.98941E+00-6.28202E-02-1.06076E+00-1.41792E-13 2.64682E-13
 -1       735 2.82047E+01 1.71624E+00-1.11277E-01-2.93539E+00-3.00693E-13 5.00194E-13
 -1       736 2.75926E+01 4.45781E+00-1.58594E-01-2.13888E+00-5.33344E-13 4.09797E-13
 -1       737 2.75959E+01 1.77722E+00-1.06696E-01 2.62874E+00 4.25680E-13 3.32671E-13
 -1       738 2.62577E+01-4.94367E+00-1.35217E-02 2.47755E+00-3.13747E-13-3.90332E-13
 -1       739 2.22780E+01-5.37868E+00 3.53019E-02-4.95646E+00 4.42753E-13 6.27686E-13
 -1       740 2.73223E+01 5.04434E+00-1.57961E-01 1.73842E+00 3.07872E-13 6.83967E-14
 -1       741 2.01197E+01 2.06268E+00-1.17509E-03-8.55124E-01-2.00204E-13-1.61980E-13
 -1       742 1.99292E+01 2.52518E+00-1.52973E-03-1.26658E-01-9.42658E-14-3.25575E-13
 -1       743 2.65400E+01 4.46508E+00-1.36755E-01-1.36435E+00 4.03181E-13-1.14506E-13
 -1       744 2.79229E+01 1.26660E+00-1.03987E-01-2.11447E+00 8.35859E-14-1.61832E-13
 -1       745 2.02444E+01 3.34928E-01-4.93693E-05 2.16010E+00 9.14643E-14-3.62663E-14
 -1       746 2.01845E+01-4.41721E+00 5.14896E-02 5.37495E+00-4.36391E-13-4.08751E-13
 -1       747 1.38388E+01-2.10146E+00 9.98231E-02 5.32012E+00-3.29266E-13 2.63498E-13
 -1       748 1.16583E+01-8.41296E-01 1.03309E-01-3.93618E+00-5.04690E-13-5.01217E-13
 -1       749 1.72044E+01-3.51865E+00 7.62657E-02-5.48484E+00-5.63230E-13-4.68202E-13
 -1       750 1.99587E+01 2.45434E+00-1.56863E-03-3.84828E-01-1.15056E-13-2.70415E-13
 -1       751 1.59014E+01-2.99504E+00 8.50515E-02 5.30167E+00 4.07081E-13-2.61714E-13
 -1       752 2.72673E+01-3.39406E+00-5.60659E-02 3.22730E-01 6.59381E-14-4.72023E-13
 -1       753 2.02650E+01 1.30661E+00-4.84011E-04 6.32362E-01 1.30343E-13-1.51132E-13
 -1       754 2.64250E+01-8.91973E-01-3.95988E-02 2.19993E+00 3.50726E-14 3.42761E-13
 -1       755 2.02628E+01 4.32560E-01-3.46655E-05-9.51901E-02-1.40579E-13-4.48118E-14
 -1       756 2.02231E+01 2.34438E-01-1.47606E-05 3.44949E-02-1.66672E-13-9.04752E-15
 -1       757 2.01820E+01 1.04986E-01-1.34624E-05 1.12117E-01-1.53140E-13-1.31763E-14
 -1       758 2.01449E+01 2.34822E-02-1.06132E-05 1.52608E-01-6.06325E-14 5.71185E-15
 -1       759 2.01135E+01-2.44115E-02-9.47000E-06 1.68271E-01-2.43988E-14-2.81936E-14
 -1       760 2.00880E+01-4.86612E-02-8.97253E-06 1.68663E-01-2.67842E-14-5.01826E-16
 -1       761 2.00680E+01-5.61794E-02-8.16396E-06 1.60970E-01-2.28659E-14 3.54249E-14
 -1       762 2.00525E+01-5.16848E-02-6.84776E-06 1.50526E-01-3.26910E-14 2.74954E-14
 -1       763 2.00408E+01-3.82696E-02-5.10533E-06 1.41310E-01-7.96065E-14 1.55162E-14
 -1       764 2.00319E+01-1.77941E-02-3.13923E-06 1.36366E-01-6.68246E-14 7.86972E-15
 -1       765 2.00249E+01 8.81875E-03-9.69473E-07 1.38158E-01-3.70047E-14 3.36023E-15
 -1       766 2.00188E+01 4.13477E-02 1.49359E-06 1.48832E-01-7.62407E-14 4.39496E-14
 -1       767 2.00125E+01 8.00764E-02 4.35135E-06 1.70408E-01-1.55174E-13 3.33834E-15
 -1       768 2.00048E+01 1.25597E-01 7.86972E-06 2.04911E-01-1.89077E-13 1.05459E-13
 -1       769 1.99942E+01 1.78592E-01 1.21176E-05 2.54430E-01-2.92018E-14 7.00825E-14
 -1       770 1.99789E+01 2.39557E-01 1.73257E-05 3.21118E-01-1.38925E-13 6.59517E-14
 -1       771 1.99567E+01 3.08409E-01 2.38314E-05 4.07126E-01-6.29330E-14 5.58617E-14
 -1       772 1.99251E+01 3.83903E-01 3.21034E-05 5.14490E-01 1.71206E-13 7.12109E-14
 -1       773 1.98814E+01 4.62757E-01 4.28130E-05 6.44995E-01 1.20182E-13 2.53837E-13
 -1       774 1.98238E+01 5.38311E-01 5.68901E-05 8.00067E-01-9.62593E-14 3.00585E-13
 -1       775 1.97519E+01 5.98559E-01 7.53354E-05 9.80798E-01-4.97255E-14 3.33323E-13
 -1       776 1.96698E+01 6.23339E-01 9.82587E-05 1.18821E+00 1.31761E-13 3.14928E-13
 -1       777 1.95906E+01 5.80589E-01 1.22959E-04 1.42375E+00 1.94288E-13 3.95174E-13
 -1       778 1.95440E+01 4.21888E-01 1.50575E-04 1.68963E+00 1.69498E-13 4.68753E-13
 -1       779 1.95889E+01 7.85166E-02 2.59106E-04 1.98689E+00 1.40693E-13 3.55820E-13
 -1       780 1.98341E+01-5.38453E-01 6.48322E-04 2.30672E+00 3.06220E-13 2.55850E-14
 -1       781 2.04593E+01-1.50996E+00 1.79835E-03 2.58549E+00 2.92403E-13 4.74976E-14
 -1       782 2.17326E+01-2.84882E+00 1.12516E-02 2.65722E+00 1.74470E-13-1.05672E-13
 -1       783 2.35873E+01-3.91405E+00 2.21680E-02-2.74192E+00 1.58534E-13-5.08794E-15
 -1       784 2.17179E+01-2.53175E+00-6.77582E-05-3.12398E+00 4.40405E-13 1.31801E-13
 -1       785 2.06669E+01-1.19640E+00 4.93824E-03-3.03803E+00 4.41748E-13 1.33873E-13
 -1       786 2.01766E+01-1.62779E-01 2.68946E-03-2.74176E+00 2.56583E-13 1.11137E-13
 -1       787 2.00301E+01-5.14934E-02-1.28120E-05-1.68831E-01 1.01694E-13 6.75658E-14
 -1       788 2.01711E+01 2.24057E-01 2.11147E-05-3.07695E-02 7.35477E-14-5.41413E-14
 -1       789 2.00437E+01-4.33888E-02-1.27189E-05-1.77465E-01 8.86216E-14 4.33446E-14
 -1       790 2.00635E+01-1.99839E-02-1.18401E-05-1.77125E-01 6.63590E-14-3.01970E-14
 -1       791 2.00212E+01-4.87208E-02-1.15496E-05-1.56877E-01 9.49715E-14 9.36990E-14
 -1       792 2.00162E+01-3.80026E-02-9.31399E-06-1.45771E-01 6.53933E-14-3.37791E-15
 -1       793 2.00140E+01-2.11602E-02-6.02865E-06-1.38657E-01 9.58927E-14-6.10997E-15
 -1       794 2.00139E+01 8.03587E-04-1.97132E-06-1.38024E-01 6.10873E-14 3.18170E-14
 -1       795 2.00155E+01 2.74671E-02 2.82501E-06-1.45986E-01 5.52121E-14 6.33992E-14
 -1       796 2.00183E+01 5.87730E-02 8.44392E-06-1.64476E-01 8.16796E-14 5.63133E-14
 -1       797 2.00219E+01 9.48138E-02 1.50016E-05-1.95361E-01 6.12699E-15 3.58693E-14
 -1       798 2.00260E+01 1.35578E-01 2.24353E-05-2.40484E-01 8.00823E-14 5.24188E-14
 -1       799 2.00304E+01 1.80624E-01 3.08950E-05-3.01619E-01 4.97643E-15 1.10137E-13
 -1       800 2.00351E+01 2.28647E-01 4.03112E-05-3.80330E-01-1.05595E-13 2.84069E-13
 -1       801 2.00407E+01 2.76883E-01 5.04078E-05-4.77722E-01-4.17071E-14 2.36855E-13
 -1       802 2.00486E+01 3.20289E-01 6.05789E-05-5.94072E-01 6.65107E-15 1.27012E-13
 -1       803 2.00620E+01 3.50465E-01 6.97880E-05-7.28302E-01-5.29715E-14 1.20564E-13
 -1       804 2.00874E+01 3.54309E-01 7.66111E-05-8.77278E-01 4.00082E-15 2.60942E-13
 -1       805 2.01364E+01 3.12542E-01 7.93699E-05-1.03479E+00-3.82810E-14 1.53136E-13
 -1       806 2.02293E+01 1.98622E-01 7.51069E-05-1.18997E+00-7.34593E-14 1.09280E-13
 -1       807 2.03987E+01-2.06560E-02 4.52875E-05-1.32443E+00-8.86520E-14 2.58353E-13
 -1       808 2.06926E+01-3.80027E-01-1.68002E-04-1.40716E+00 9.34222E-14 3.13590E-13
 -1       809 2.11739E+01-9.00220E-01-3.51433E-04-1.38714E+00-7.20942E-14 1.54689E-13
 -1       810 2.19101E+01-1.55823E+00-6.64755E-04-1.17744E+00-4.50060E-14 1.88978E-13
 -1       811 2.29228E+01-2.20323E+00-3.74976E-04-6.56312E-01-3.74001E-15-1.67011E-14
 -1       812 2.41100E+01-2.49008E+00 2.37988E-04 2.87550E-01-3.09517E-13 2.39868E-13
 -1       813 2.48142E+01 2.94422E+00-9.15805E-02 2.22372E+00 3.58064E-13 1.19214E-13
 -1       814 2.53503E+01 5.20617E-01-4.03137E-02-2.07659E+00-7.36520E-14-6.14956E-13
 -1       815 2.51119E+01-1.66071E+00-2.42968E-02-1.23888E+00-1.32775E-13-7.82174E-13
 -1       816 2.42505E+01-2.47199E+00-3.87985E-03 1.57254E-02-8.79622E-14-4.28453E-13
 -1       817 2.31044E+01-2.26724E+00-1.80419E-03 1.04988E+00-9.80850E-14-1.25832E-13
 -1       818 2.20979E+01-1.58314E+00-1.72107E-04 1.63182E+00-1.86354E-13-9.77426E-14
 -1       819 1.67205E+01 1.46069E+00 4.39918E-05-6.96988E-01-1.89328E-13-2.70844E-13
 -1       820 1.75023E+01 1.07526E+00-7.29899E-04-1.97355E+00-1.56235E-13-4.34203E-13
 -1       821 1.67913E+01 1.39686E+00 1.14519E-03 7.88923E-01-1.21829E-13-2.23080E-13
 -1       822 2.02077E+01-3.64096E+00 5.12042E-02-4.84558E+00 2.66854E-13 6.90794E-13
 -1       823 2.63526E+01-4.39218E+00-5.69636E-03 9.32731E-01 1.30026E-14 8.53033E-14
 -1       824 2.02781E+01 9.44682E-01 3.63604E-04 5.56667E-01 1.51755E-13-1.35619E-13
 -1       825 2.02206E+01 4.14159E-01 7.23569E-05 1.12272E-01 1.17202E-13-1.05702E-13
 -1       826 1.14147E+01 2.24164E-01 8.83631E-02-1.95697E+00 1.71122E-13-2.00583E-13
 -1       827 1.14303E+01-1.54647E-02 8.35226E-02 2.52216E+00-2.07361E-13 4.19362E-13
 -1       828 2.55191E+01-3.77825E+00-6.30006E-03-5.25585E-01-2.46384E-13 5.62347E-13
 -1       829 2.02897E+01 7.30861E-01 3.78985E-06-2.92893E-01-1.63668E-13-4.79027E-14
 -1       830 2.13052E+01-4.17348E+00 4.37720E-02 4.00475E+00 2.95968E-13-2.50629E-13
 -1       831 2.23930E+01-4.43043E+00 7.96274E-04-3.46540E+00-3.45367E-13 6.79054E-13
 -1       832 1.01631E+01 4.94215E-01 9.52604E-02 2.14394E-02-3.65138E-14-5.25007E-13
 -1       833 1.47891E+01-1.17637E+00 6.21759E-02-4.41579E+00 1.90787E-13-3.67050E-14
 -1       834 1.87389E+01 4.89396E-01-1.74911E-03-2.66221E+00-1.22241E-13 1.73455E-13
 -1       835 1.18239E+01-5.68991E-01 8.08920E-02 3.52241E+00 1.17533E-13-3.47809E-13
 -1       836 2.01412E+01 1.88767E+00-3.48212E-04 1.99434E-01-1.17892E-14-2.61670E-13
 -1       837 2.42712E+01-4.74901E+00 1.94108E-02 3.12348E+00-3.96776E-13 1.06957E-13
 -1       838 2.40486E+01-4.31054E+00 4.63350E-03 2.15830E+00 2.06570E-13-1.35501E-14
 -1       839 2.01286E+01 1.92578E+00-6.05197E-04 3.66825E-03-6.40521E-14-2.71762E-13
 -1       840 2.00908E+01 2.52782E-02-9.79435E-06-1.60108E-01 3.18910E-14-1.20409E-13
 -1       841 2.00537E+01-2.50330E-01 2.33918E-03 2.59264E+00-8.38767E-14-1.84169E-13
 -1       842 2.02885E+01 1.12406E+00 2.45443E-04-5.36983E-01-2.00525E-13-5.16614E-14
 -1       843 2.50394E+01-1.77485E+00-2.47513E-02 1.48339E+00-5.06661E-14 3.81651E-13
 -1       844 2.47038E+01 3.16207E+00-9.41906E-02-1.57015E+00 1.25063E-13-5.82277E-14
 -1       845 2.13921E+01-9.78693E-01-2.53966E-04 1.95170E+00 6.95211E-14-4.46558E-14
 -1       846 1.76527E+01 9.20263E-01 2.33055E-03 2.00221E+00-2.44450E-13 1.33622E-13
 -1       847 1.88999E+01 2.69456E-01-6.95996E-04 2.58603E+00-2.13266E-13-1.26212E-13
 -1       848 1.76396E+01-2.90859E+00 5.64697E-02 5.20455E+00-3.48879E-13-1.50591E-13
 -1       849 2.02158E+01 1.59106E+00-9.71513E-04-5.27924E-01-1.56321E-13-1.32110E-13
 -1       850 1.16014E+01 3.58706E-01 6.36020E-02-1.84078E+00-2.20626E-13-2.39555E-13
 -1       851 1.53098E+01-1.71243E+00 4.79151E-02-4.52613E+00-7.73435E-13-5.73109E-13
 -1       852 2.01731E+01 1.77500E+00-2.68425E-04 3.81653E-01 4.48723E-14-2.36249E-13
 -1       853 2.71752E+01-1.40360E+00-3.46241E-02-1.41755E+00 2.28810E-14-1.95954E-14
 -1       854 2.01266E+01 1.01976E-01-1.43606E-06-1.15928E-01 7.82627E-14-6.74018E-14
 -1       855 2.02257E+01-3.52007E+00 5.32138E-02-4.14850E+00-5.75896E-13 1.00713E-13
 -1       856 2.02208E+01 1.58428E+00 1.29853E-04 5.35214E-01 8.98470E-14-1.50160E-13
 -1       857 2.56387E+01-4.10521E+00-1.84963E-02 1.25210E+00-1.39169E-13-3.67831E-13
 -1       858 2.09348E+01-5.50261E-01-4.85626E-04 2.13187E+00 2.09122E-13 6.88759E-14
 -1       859 2.02511E+01 6.33706E-01-2.65797E-04 2.97052E-01 1.19383E-13-1.32945E-13
 -1       860 2.01697E+01 1.78204E+00-3.28536E-04-3.73955E-01-1.27126E-13-2.21928E-13
 -1       861 1.57999E+01-1.29373E+00 2.76449E-02 4.01649E+00 1.65004E-13-1.98565E-13
 -1       862 2.03069E+01 2.28514E-01-1.66897E-05 4.66445E-02-1.49952E-13-7.36457E-14
 -1       863 2.02710E+01 9.48273E-02-8.79830E-06 1.03013E-01-7.28796E-14-1.58457E-14
 -1       864 2.02320E+01 1.09285E-02-5.31171E-06 1.31978E-01-5.09841E-14-1.00946E-14
 -1       865 2.01939E+01-3.70656E-02-4.39087E-06 1.42588E-01-2.38016E-14-3.79264E-14
 -1       866 2.01590E+01-5.92595E-02-3.59514E-06 1.42125E-01 1.05226E-14-5.33883E-14
 -1       867 2.01278E+01-6.28571E-02-2.79984E-06 1.36215E-01-2.86438E-14-3.59284E-14
 -1       868 2.01004E+01-5.28181E-02-1.88941E-06 1.29116E-01-6.56028E-14-7.61960E-14
 -1       869 2.00760E+01-3.23551E-02-1.10105E-06 1.24069E-01-5.77498E-14-9.71273E-14
 -1       870 2.00535E+01-3.32212E-03-8.03444E-07 1.23614E-01-3.82267E-14-9.32081E-14
 -1       871 2.00316E+01 3.34506E-02-1.03372E-06 1.29858E-01-2.78706E-14-5.69083E-14
 -1       872 2.00084E+01 7.78943E-02-1.48995E-06 1.44664E-01-1.33563E-13-8.85015E-14
 -1       873 1.99818E+01 1.30454E-01-1.47426E-06 1.69795E-01-6.86520E-14-4.97019E-15
 -1       874 1.99492E+01 1.91825E-01-1.47339E-06 2.06996E-01-1.05548E-14 1.10681E-13
 -1       875 1.99075E+01 2.62668E-01-1.48521E-06 2.58018E-01-9.49397E-14 1.66550E-13
 -1       876 1.98530E+01 3.43242E-01-1.35701E-06 3.24608E-01-7.19573E-14 1.70876E-13
 -1       877 1.97816E+01 4.32909E-01-8.52388E-07 4.08478E-01 9.10567E-14 1.87648E-13
 -1       878 1.96884E+01 5.29443E-01 4.23264E-07 5.11313E-01 1.48175E-13 8.13765E-14
 -1       879 1.95682E+01 6.28054E-01 3.14950E-06 6.34911E-01-2.77997E-14-4.38319E-14
 -1       880 1.94161E+01 7.20004E-01 8.39868E-06 7.81623E-01-3.48699E-15 2.23602E-14
 -1       881 1.92284E+01 7.90664E-01 1.73979E-05 9.55359E-01 9.32249E-14 1.57838E-13
 -1       882 1.90048E+01 8.16835E-01 3.13618E-05 1.16350E+00 2.16265E-13 2.70351E-13
 -1       883 1.87523E+01 7.63062E-01 5.95910E-05 1.41998E+00 1.78956E-13 2.14944E-13
 -1       884 1.84929E+01 5.76343E-01 2.21149E-04 1.74965E+00 9.67508E-14 4.99982E-14
 -1       885 1.82784E+01 1.78952E-01 1.39816E-03 2.18982E+00 2.90344E-14-8.18024E-14
 -1       886 1.82034E+01-5.41725E-01 4.05735E-03 2.79531E+00 2.02738E-13-2.46020E-13
 -1       887 1.90269E+01-2.04410E+00 1.87357E-02 3.59241E+00 2.25053E-13-4.08282E-13
 -1       888 2.19147E+01-3.78205E+00 1.20069E-02 3.78380E+00-2.76502E-13-6.37975E-14
 -1       889 1.91523E+01-1.43860E+00 9.59531E-03-3.83032E+00 4.34127E-13 5.25314E-13
 -1       890 1.87446E+01-3.64757E-01-1.03061E-03-3.23007E+00 9.12608E-14 2.23903E-13
 -1       891 2.00806E+01-5.26775E-02-4.42121E-07-1.39750E-01 1.48099E-13-4.13503E-15
 -1       892 2.01029E+01-6.01434E-02-1.75100E-07-1.48399E-01 1.07762E-13 1.14838E-15
 -1       893 2.01602E+01-3.16396E-02 2.11265E-06-1.55528E-01 2.76138E-14-1.08264E-13
 -1       894 2.00618E+01-3.55649E-02-7.68948E-07-1.32868E-01 6.90925E-14-9.11534E-15
 -1       895 2.00453E+01-1.07530E-02-5.60166E-07-1.30523E-01 5.93693E-14-1.51648E-14
 -1       896 2.00302E+01 2.07466E-02-1.33333E-07-1.34979E-01 2.69190E-14 5.73736E-15
 -1       897 2.00152E+01 5.85598E-02 7.48545E-07-1.48228E-01 3.46657E-14-3.79651E-14
 -1       898 1.99989E+01 1.02673E-01 2.11150E-06-1.72136E-01 8.19410E-14 2.20233E-14
 -1       899 1.99797E+01 1.53157E-01 3.33893E-06-2.08546E-01 5.62571E-14 1.95866E-14
 -1       900 1.99562E+01 2.09806E-01 5.00206E-06-2.59317E-01 3.77346E-14 1.58241E-13
 -1       901 1.99267E+01 2.71702E-01 7.25383E-06-3.26299E-01-8.85522E-14 1.51861E-13
 -1       902 1.98900E+01 3.36645E-01 1.03146E-05-4.11266E-01-3.02720E-14-2.36493E-14
 -1       903 1.98456E+01 4.00382E-01 1.45312E-05-5.15811E-01 3.56687E-14 4.15244E-14
 -1       904 1.97941E+01 4.55608E-01 2.05536E-05-6.41235E-01-3.58315E-14-6.96604E-14
 -1       905 1.97390E+01 4.90669E-01 2.99411E-05-7.88446E-01-1.31452E-13-2.09649E-13
 -1       906 1.96881E+01 4.87980E-01 4.70763E-05-9.57885E-01-1.18908E-13-1.37849E-14
 -1       907 1.96568E+01 4.22232E-01 8.39527E-05-1.14930E+00-6.84120E-14 1.23583E-13
 -1       908 1.96731E+01 2.58765E-01 1.66495E-04-1.36082E+00-2.06007E-13 1.76472E-13
 -1       909 1.97836E+01-4.66743E-02 3.06339E-04-1.58577E+00 9.27987E-14 9.54849E-15
 -1       910 2.00630E+01-5.43495E-01-5.77729E-07-1.80253E+00 5.36422E-14 1.08398E-13
 -1       911 2.06166E+01-1.26959E+00 1.38600E-04-1.96840E+00-1.90480E-13-1.94232E-14
 -1       912 2.15902E+01-2.20961E+00 7.99635E-04-1.94474E+00-1.80857E-13 3.23962E-13
 -1       913 2.30954E+01-3.15789E+00 6.45275E-03-1.52926E+00-2.25097E-13 5.78111E-13
 -1       914 2.21225E+01-2.32832E+00 4.84236E-03 2.39094E+00-2.65826E-13-2.92425E-13
 -1       915 1.57175E+01 8.51079E-01 7.07003E-03-1.83704E+00-5.66040E-14-3.52092E-13
 -1       916 1.51461E+01 1.12057E+00 2.06253E-02 1.23596E-01-2.09177E-13-2.48666E-13
 -1       917 1.44753E+01 2.45610E-01 4.20602E-02-2.63326E+00 1.31774E-13-3.19991E-13
 -1       918 2.36019E+01-3.30695E+00-1.55540E-03 1.84009E+00-3.23048E-13-4.07664E-13
 -1       919 2.01387E+01 1.89119E+00-5.17215E-04-1.91001E-01-1.14058E-13-2.94549E-13
 -1       920 2.01293E+01-5.47583E-02 1.05912E-07-1.55245E-01 4.23426E-14-1.94244E-14
 -1       921 1.51948E+01-7.21793E-01 3.96050E-02 3.89306E+00-3.68410E-13 2.00171E-13
 -1       922 2.03350E+01 7.27547E-01 1.31582E-05-1.90352E-01-1.65075E-13-7.82329E-14
 -1       923 2.03323E+01 4.30624E-01-6.07531E-05-4.77612E-02-1.23095E-13-9.55344E-14
 -1       924 1.29818E+01 8.14923E-01 3.67055E-02 3.13957E-01-9.26857E-14-1.45658E-13
 -1       925 2.03014E+01 4.30366E-01-4.99149E-05 6.47223E-02 7.21641E-14-7.10353E-14
 -1       926 1.71733E+01 2.73714E-01 5.97959E-03-2.85386E+00 1.30652E-13-1.22136E-13
 -1       927 1.29950E+01 6.35057E-01 3.56862E-02 1.64671E+00-1.23581E-13-3.98208E-13
 -1       928 2.01952E+01 1.62056E-02-4.16793E-06-1.43008E-01 1.26284E-15-1.18686E-13
 -1       929 1.30857E+01 9.19154E-01 2.99932E-02 1.58102E-01-1.51293E-13-4.96519E-13
 -1       930 2.02790E+01 1.40473E+00 2.25459E-04 7.06234E-02-2.37479E-14-2.34321E-13
 -1       931 2.03060E+01 1.10093E+00 2.01358E-04-3.37953E-01-1.58303E-13-8.75411E-14
 -1       932 2.11406E+01-1.48004E+00 3.02483E-03 2.61984E+00-2.40694E-13-2.78749E-13
 -1       933 1.59072E+01 7.02531E-01 1.01794E-02 2.01256E+00-2.54462E-13 1.07886E-13
 -1       934 2.03102E+01 6.61453E-01-5.87826E-05 2.06969E-01 1.10565E-13-9.77509E-14
 -1       935 2.00739E+01-2.79715E+00 2.89752E-02 4.26450E+00-2.13187E-13-3.17413E-13
 -1       936 1.96180E+01-9.72167E-01-1.05345E-02 3.17162E+00-2.18497E-13-2.88201E-13
 -1       937 1.39501E+01-2.30737E-01 3.33778E-02-3.09697E+00-3.10578E-13-2.77780E-13
 -1       938 2.02907E+01 1.07377E+00 2.41897E-05 4.56969E-01 1.22775E-13-1.45967E-13
 -1       939 2.02884E+01 1.33607E+00-1.06316E-05 1.98764E-01 2.42544E-14-2.03718E-13
 -1       940 2.02950E+01 1.26606E+00 3.66240E-05-2.48411E-01-1.24032E-13-1.91983E-13
 -1       941 2.02708E+01 2.30539E-01 1.03283E-05-4.41564E-02 9.18629E-14-1.01154E-13
 -1       942 2.03627E+01 1.99484E-01-4.06074E-06 5.03382E-02-8.07404E-14-4.02717E-14
 -1       943 2.03275E+01 7.14007E-02-4.04217E-06 8.60110E-02 1.32850E-14 1.86390E-14
 -1       944 2.02857E+01-7.51706E-03-3.33352E-06 1.03611E-01-4.40563E-14 4.16506E-14
 -1       945 2.02424E+01-5.03910E-02-1.85216E-06 1.09285E-01 5.93524E-15 4.43645E-14
 -1       946 2.02003E+01-6.69762E-02-7.49874E-07 1.08102E-01-2.01985E-14 3.30175E-14
 -1       947 2.01608E+01-6.43377E-02 7.32946E-08 1.04001E-01-8.92197E-14-1.92445E-14
 -1       948 2.01241E+01-4.72995E-02 8.06634E-07 9.99919E-02-4.98832E-14 5.50262E-15
 -1       949 2.00894E+01-1.89091E-02 6.11820E-07 9.83990E-02-2.95213E-14-1.43796E-14
 -1       950 2.00551E+01 1.91925E-02-1.19704E-06 1.01102E-01-5.73216E-15-3.03071E-14
 -1       951 2.00194E+01 6.63603E-02-5.08325E-06 1.09651E-01-9.53010E-14 4.24712E-14
 -1       952 1.99795E+01 1.22731E-01-7.44231E-06 1.25447E-01-5.21278E-14 8.78095E-14
 -1       953 1.99322E+01 1.88866E-01-1.03504E-05 1.49795E-01 6.71933E-14 9.52297E-14
 -1       954 1.98739E+01 2.65461E-01-1.43297E-05 1.83938E-01 1.02993E-13 1.12745E-13
 -1       955 1.98000E+01 3.53000E-01-1.94599E-05 2.29058E-01-7.04680E-15 2.34494E-13
 -1       956 1.97052E+01 4.51321E-01-2.59668E-05 2.86262E-01-2.94434E-14 3.85250E-13
 -1       957 1.95834E+01 5.59084E-01-3.43087E-05 3.56602E-01 1.83269E-14 1.93291E-13
 -1       958 1.94274E+01 6.73087E-01-4.53291E-05 4.41204E-01 9.78593E-15 1.14044E-13
 -1       959 1.92293E+01 7.87403E-01-6.05886E-05 5.41673E-01 1.51186E-14 1.86213E-13
 -1       960 1.89796E+01 8.92315E-01-8.30478E-05 6.61014E-01 1.14164E-13 2.76115E-13
 -1       961 1.86679E+01 9.72956E-01-1.18133E-04 8.05498E-01 9.52229E-14 2.00116E-13
 -1       962 1.82823E+01 1.00750E+00-1.67575E-04 9.87993E-01 1.50130E-13-2.03647E-14
 -1       963 1.78098E+01 9.64702E-01-1.38301E-04 1.23332E+00 3.19813E-14-7.80502E-14
 -1       964 1.72349E+01 7.99786E-01 2.97846E-04 1.58951E+00 7.36802E-14-1.49132E-13
 -1       965 1.65466E+01 4.34196E-01 4.06391E-03 2.14084E+00 1.03508E-13-1.01522E-13
 -1       966 1.60478E+01-1.90672E-01 1.96474E-02 2.93455E+00 6.07138E-14-2.14798E-13
 -1       967 2.03774E+01 6.74484E-01-2.41444E-04-1.03749E-01-1.44000E-13-7.71735E-14
 -1       968 2.00556E+01 8.12452E-03 5.53736E-08-1.12575E-01-3.24331E-14 9.14179E-14
 -1       969 2.01476E+01-6.40301E-02 8.71040E-06-1.19320E-01 9.01493E-14-5.17145E-14
 -1       970 2.01148E+01-5.01651E-02 7.27593E-06-1.13934E-01 1.27296E-13-1.39467E-14
 -1       971 2.00262E+01 4.98362E-02-2.84369E-08-1.20654E-01 1.84249E-14 4.84245E-14
 -1       972 1.99945E+01 9.93523E-02-1.22649E-07-1.36913E-01 2.32608E-14 4.35507E-15
 -1       973 1.99581E+01 1.56755E-01-2.07410E-06-1.63007E-01-2.22626E-16 2.18025E-14
 -1       974 1.99144E+01 2.22063E-01-4.00664E-06-2.00657E-01-6.58532E-14 3.94281E-14
 -1       975 1.98606E+01 2.94827E-01-5.94236E-06-2.51684E-01 3.40551E-14 2.52024E-14
 -1       976 1.97939E+01 3.73615E-01-7.91604E-06-3.18054E-01 7.28527E-14 5.36242E-14
 -1       977 1.97115E+01 4.55346E-01-9.93657E-06-4.01939E-01-1.19696E-13 6.49729E-14
 -1       978 1.96115E+01 5.34455E-01-1.19572E-05-5.05842E-01-1.36849E-14 1.36852E-13
 -1       979 1.94934E+01 6.01837E-01-1.36062E-05-6.32860E-01 4.95422E-14 1.00982E-13
 -1       980 1.93591E+01 6.43539E-01-1.28821E-05-7.87182E-01-2.07771E-13-4.78693E-14
 -1       981 1.92151E+01 6.39152E-01-1.02666E-06-9.74917E-01-2.37885E-13-6.82694E-14
 -1       982 1.90757E+01 5.59724E-01 5.48950E-05-1.20522E+00-8.96271E-14-6.39369E-14
 -1       983 1.89687E+01 3.65047E-01 2.90819E-04-1.49078E+00-5.29685E-14-2.41030E-13
 -1       984 1.89427E+01 1.89383E-03 3.59665E-04-1.84815E+00-4.82408E-14-2.32167E-14
 -1       985 1.91161E+01-6.01862E-01-1.47678E-03-2.27325E+00-9.43195E-14-1.38229E-14
 -1       986 1.95982E+01-1.51369E+00 6.90807E-03-2.76665E+00-3.50002E-13-5.14508E-15
 -1       987 2.15072E+01-2.69594E+00 6.50620E-03 3.23499E+00-2.62873E-13-2.66651E-13
 -1       988 2.02848E+01 1.36494E+00 1.59981E-04-1.31476E-01-8.94405E-14-2.51473E-13
 -1       989 2.05440E+01-2.85190E+00 2.57361E-02-3.30407E+00-5.34591E-13 2.61660E-13
 -1       990 1.77248E+01-1.39962E-01 1.16953E-02 3.05210E+00-3.56083E-13-1.67376E-13
 -1       991 2.02798E+01 1.40324E+00 2.95689E-04-3.26066E-02-4.94833E-14-2.31052E-13
 -1       992 2.03833E+01 3.93569E-01-9.28816E-06-1.02548E-02-1.01813E-13-5.54886E-14
 -1       993 2.02332E+01 9.89184E-02-9.37594E-06-1.09414E-01 6.89628E-14-9.46888E-14
 -1       994 2.03043E+01 1.19832E+00-2.82204E-04 3.04066E-01 7.40838E-14-1.35999E-13
 -1       995 2.00845E+01-2.54916E-02 3.16984E-06-1.10956E-01 7.51161E-14 1.04417E-14
 -1       996 2.03504E+01 9.44154E-01 4.85442E-04-1.75460E-01-1.27297E-13-1.27505E-13
 -1       997 2.04292E+01-1.79328E+00 1.05435E-02 3.28237E+00-2.63101E-13-1.98835E-13
 -1       998 1.46518E+01 9.22325E-01 1.19024E-02 1.15794E+00-6.63803E-14-4.15379E-13
 -1       999 2.03715E+01 9.93630E-01-1.21994E-04 1.24199E-02-6.41002E-15-2.19331E-13
 -1      1000 2.02225E+01-4.49252E-02 1.39796E-05-1.25476E-01 3.47419E-15-8.57832E-14
 -1      1001 2.02635E+01-3.39973E-05-1.95564E-05-1.17898E-01-6.16282E-15-8.29179E-14
 -1      1002 2.03611E+01 4.05808E-01-3.75184E-04 2.44426E-02 8.87178E-14-7.84421E-14
 -1      1003 2.03581E+01 6.40930E-01 8.70992E-04 1.21601E-01 7.74224E-14-1.11208E-13
 -1      1004 1.39210E+01 8.00579E-01 1.77595E-02-1.24714E+00-1.65011E-13-2.08211E-13
 -1      1005 1.82139E+01-1.84885E+00 9.01282E-03-3.64754E+00-6.08549E-13-3.35569E-13
 -1      1006 2.01835E+01-6.38978E-02 9.68448E-06-1.24344E-01 6.75466E-14-4.19319E-14
 -1      1007 1.67799E+01-6.71133E-01 7.60655E-03-3.13653E+00-2.77309E-13-2.79936E-13
 -1      1008 2.03707E+01 9.57446E-01-8.69853E-05 8.82167E-02 3.40335E-14-1.58498E-13
 -1      1009 2.03395E+01 2.11006E-01 1.80168E-05-5.17551E-02 9.21636E-14-7.39027E-14
 -1      1010 2.04134E+01 5.87438E-01-2.01205E-04-4.12000E-02-6.96116E-14-1.41261E-13
 -1      1011 2.03740E+01 9.76625E-01 2.84923E-04-4.97687E-02-3.25369E-14-1.94976E-13
 -1      1012 2.03941E+01 1.54466E-01-3.25689E-06 4.18428E-02-2.15689E-14-8.89162E-14
 -1      1013 2.03562E+01 3.98403E-02-3.44921E-07 5.98505E-02-1.18749E-15-8.00888E-14
 -1      1014 2.03109E+01-2.84295E-02-1.93901E-05 6.81496E-02-4.98100E-15-3.31270E-14
 -1      1015 2.02632E+01-6.21159E-02-9.77870E-06 7.01531E-02-4.81686E-16-4.10673E-14
 -1      1016 2.02161E+01-7.05037E-02-5.06248E-06 6.88751E-02-3.84159E-14-3.69284E-14
 -1      1017 2.01708E+01-6.01624E-02-2.83394E-06 6.65602E-02-2.95892E-14 1.19556E-13
 -1      1018 2.01274E+01-3.54448E-02-2.46593E-06 6.49799E-02-1.10394E-13-1.34599E-14
 -1      1019 2.00847E+01 1.03408E-03 5.03991E-06 6.54690E-02-3.33590E-14-1.70692E-14
 -1      1020 2.00409E+01 4.77883E-02-1.51355E-05 6.91826E-02-2.36095E-15-3.82457E-14
 -1      1021 1.99931E+01 1.04661E-01-2.31694E-05 7.70110E-02-1.62931E-14 7.94046E-14
 -1      1022 1.99381E+01 1.71868E-01-3.09188E-05 8.97584E-02-4.90478E-14 1.62234E-13
 -1      1023 1.98718E+01 2.50012E-01-4.17137E-05 1.08114E-01 1.23649E-13 4.65350E-14
 -1      1024 1.97895E+01 3.39650E-01-5.50436E-05 1.32646E-01 8.17530E-14 7.64046E-14
 -1      1025 1.96856E+01 4.40903E-01-7.11469E-05 1.63773E-01 1.06328E-13 1.48984E-13
 -1      1026 1.95534E+01 5.52999E-01-9.08466E-05 2.01732E-01-1.04545E-13 1.15351E-13
 -1      1027 1.93853E+01 6.73758E-01-1.15964E-04 2.46597E-01 4.47004E-14 2.18107E-13
 -1      1028 1.91721E+01 7.99029E-01-1.50295E-04 2.98422E-01 3.25000E-14 2.04695E-13
 -1      1029 1.89024E+01 9.22137E-01-2.01559E-04 3.57672E-01 5.80234E-14 2.12516E-13
 -1      1030 1.85615E+01 1.03343E+00-2.85040E-04 4.26167E-01-3.10525E-14 1.42586E-13
 -1      1031 1.81288E+01 1.11995E+00-4.30306E-04 5.09012E-01 4.67655E-14 1.89267E-14
 -1      1032 1.75741E+01 1.16498E+00-6.64494E-04 6.18074E-01 2.06200E-14-8.21042E-15
 -1      1033 1.68551E+01 1.14601E+00-3.33511E-04 7.76181E-01 6.66389E-15-8.87475E-14
 -1      1034 2.00058E+01 8.60667E-02-5.49948E-06-9.44964E-02-1.31005E-14 1.65332E-13
 -1      1035 2.01676E+01-6.24363E-02 1.06006E-05-8.40241E-02 1.03622E-13-2.02067E-14
 -1      1036 1.99582E+01 1.47017E-01-1.49571E-05-1.10403E-01 4.99584E-14 2.39834E-13
 -1      1037 1.99021E+01 2.17263E-01-2.28318E-05-1.34363E-01 4.84275E-14 8.42071E-14
 -1      1038 1.98337E+01 2.96779E-01-3.11429E-05-1.67872E-01 1.52000E-14-9.64397E-14
 -1      1039 1.97491E+01 3.84891E-01-3.98726E-05-2.12669E-01 7.25062E-14-6.56847E-14
 -1      1040 1.96439E+01 4.79724E-01-4.90416E-05-2.70842E-01 2.05981E-14-1.18466E-13
 -1      1041 1.95140E+01 5.77537E-01-5.88457E-05-3.45034E-01-1.19647E-13-8.63394E-14
 -1      1042 1.93551E+01 6.71941E-01-6.99804E-05-4.38803E-01-9.64659E-14-7.40735E-14
 -1      1043 1.91639E+01 7.52979E-01-8.43031E-05-5.57250E-01-8.97146E-14 1.07142E-13
 -1      1044 1.89383E+01 8.06080E-01-1.05793E-04-7.08102E-01-1.54093E-13-4.10546E-14
 -1      1045 1.86781E+01 8.10812E-01-1.39839E-04-9.03490E-01-1.54292E-13-9.14951E-14
 -1      1046 1.83869E+01 7.38970E-01-2.21670E-04-1.16305E+00-9.16271E-14 7.92747E-14
 -1      1047 1.80790E+01 5.47696E-01-4.22477E-04-1.51837E+00-4.68587E-14 3.94471E-14
 -1      1048 1.78126E+01 1.88247E-01 1.10298E-03-2.00651E+00 1.02122E-14-1.21806E-13
 -1      1049 2.03039E+01 8.10060E-02-2.69522E-05-9.57932E-02 3.42363E-14-9.82944E-14
 -1      1050 2.03638E+01 9.77113E-01 5.05111E-04-1.14449E-01-7.28417E-14-2.38453E-13
 -1      1051 2.00479E+01 3.42503E-02-1.20340E-05-8.52351E-02-6.43015E-14 3.47192E-14
 -1      1052 1.46967E+01 1.08377E+00 4.76757E-03-2.46369E-02-1.48355E-13-3.75535E-13
 -1      1053 2.04166E+01 3.30778E-01-4.97457E-05 9.73924E-03-7.76819E-14-7.34041E-14
 -1      1054 2.00875E+01-8.30810E-03-2.15814E-06-8.13748E-02 7.54905E-15 3.20976E-15
 -1      1055 2.01269E+01-4.10696E-02 9.14724E-06-8.14447E-02 7.61950E-14 2.52116E-14
 -1      1056 1.58916E+01 1.04113E+00 4.77180E-03 1.03189E+00 1.54095E-14-3.05550E-13
 -1      1057 2.02104E+01-6.94691E-02 9.28950E-06-8.72333E-02 4.45317E-14-4.23571E-14
 -1      1058 2.03770E+01 7.86298E-01 4.74720E-04 1.24342E-01 6.78368E-14-1.26786E-13
 -1      1059 1.58377E+01 4.63527E-01 4.79807E-03-1.98444E+00-4.41674E-14-2.07657E-13
 -1      1060 2.04040E+01 3.54701E-01 1.94304E-04-6.68197E-03 5.64508E-14-1.10470E-13
 -1      1061 2.04206E+01 6.58533E-01 1.55525E-04 2.37505E-02 7.01867E-14-1.56155E-13
 -1      1062 2.02554E+01-5.75216E-02 1.11816E-05-8.87445E-02 5.44153E-15-7.28148E-14
 -1      1063 2.04221E+01 6.64372E-01-2.13074E-04-3.63610E-03 8.64807E-15-1.73176E-13
 -1      1064 2.03024E+01-2.06966E-02-6.72993E-05-8.55224E-02-1.80916E-14-5.29474E-14
 -1      1065 2.04014E+01 1.00866E-01-8.41182E-05 1.94919E-02 7.61177E-15-6.95069E-14
 -1      1066 2.03601E+01 5.38981E-03-1.13832E-05 2.49173E-02-1.19639E-14-9.38118E-14
 -1      1067 2.03118E+01-4.72611E-02 4.91434E-05 2.69231E-02-3.44060E-14-8.73391E-14
 -1      1068 2.02613E+01-6.94861E-02 5.75600E-05 2.72850E-02-4.80874E-16-9.03441E-14
 -1      1069 2.02113E+01-6.85866E-02 4.66410E-05 2.66814E-02-5.35931E-15-6.61844E-14
 -1      1070 2.01629E+01-5.02009E-02 3.57398E-05 2.60284E-02-1.11332E-13-6.03705E-14
 -1      1071 2.01149E+01-1.79522E-02-2.22286E-05 2.58651E-02-6.23368E-14-2.89017E-14
 -1      1072 2.00673E+01 2.54129E-02 5.58036E-05 2.66842E-02 4.45556E-14-1.89871E-14
 -1      1073 2.00162E+01 8.00851E-02 3.09504E-05 2.88606E-02 8.39567E-14 5.62843E-14
 -1      1074 1.99589E+01 1.45130E-01 2.85192E-05 3.25883E-02 1.06058E-14 1.01873E-14
 -1      1075 1.98915E+01 2.21175E-01 3.34420E-05 3.80068E-02 1.90229E-14 7.28226E-14
 -1      1076 1.98093E+01 3.08713E-01 3.95617E-05 4.50824E-02 6.68543E-14 3.56845E-14
 -1      1077 1.97069E+01 4.07977E-01 4.72814E-05 5.35928E-02 5.30070E-14-7.49552E-14
 -1      1078 1.95780E+01 5.18492E-01 5.64521E-05 6.30371E-02 8.89214E-14-4.57820E-14
 -1      1079 1.94151E+01 6.38619E-01 6.65874E-05 7.25470E-02 5.20956E-14 1.90992E-13
 -1      1080 1.92097E+01 7.65083E-01 7.66958E-05 8.08010E-02-5.47622E-14 2.06902E-13
 -1      1081 1.89508E+01 8.92561E-01 8.42239E-05 8.59685E-02-8.73395E-14 4.01387E-14
 -1      1082 1.86245E+01 1.01346E+00 8.08952E-05 8.57054E-02-4.05375E-14-1.15428E-13
 -1      1083 1.82113E+01 1.11801E+00 3.76248E-05 7.71737E-02-8.86238E-14-4.42465E-14
 -1      1084 1.76811E+01 1.19491E+00-1.64532E-04 5.69017E-02 5.71681E-14-2.02529E-13
 -1      1085 1.69857E+01 1.23014E+00-1.50245E-03 2.04013E-02-4.71302E-14-1.99246E-13
 -1      1086 1.99122E+01 1.98196E-01-1.41123E-05-6.76191E-02 4.34324E-14 6.91911E-14
 -1      1087 1.60222E+01 1.18959E+00 1.70984E-03-6.85511E-04-1.02011E-13-2.47646E-13
 -1      1088 1.99740E+01 1.26823E-01-9.53809E-06-5.62120E-02-2.13925E-14 7.59690E-14
 -1      1089 1.97460E+01 3.72376E-01-2.98510E-05-1.07465E-01 7.86660E-14 9.12054E-14
 -1      1090 1.96316E+01 4.74258E-01-4.25341E-05-1.38695E-01 1.14376E-13 1.65104E-13
 -1      1091 1.94889E+01 5.83535E-01-5.87679E-05-1.80084E-01 4.15885E-14 4.70982E-14
 -1      1092 1.93112E+01 6.96121E-01-7.82896E-05-2.34549E-01-1.02875E-13-1.40157E-13
 -1      1093 1.90916E+01 8.05409E-01-1.00902E-04-3.06317E-01-1.55558E-13-1.35789E-13
 -1      1094 1.88219E+01 9.01690E-01-1.29282E-04-4.01720E-01-1.09275E-13-1.50370E-13
 -1      1095 1.84921E+01 9.71618E-01-1.78727E-04-5.30507E-01-2.01150E-13-1.28344E-13
 -1      1096 1.80892E+01 9.97766E-01-2.87250E-04-7.07881E-01-1.28660E-13-2.51418E-13
 -1      1097 1.75944E+01 9.59821E-01-1.42423E-04-9.56951E-01-5.35824E-14-4.08455E-13
 -1      1098 1.69860E+01 8.34612E-01 6.77809E-04-1.33293E+00-4.42701E-15-4.23966E-13
 -1      1099 2.03814E+01 1.73135E-01 4.86787E-07-4.83743E-02 4.51225E-14-3.81248E-14
 -1      1100 2.04349E+01 4.80525E-01 2.32176E-04-7.00909E-03-2.30223E-14-1.19319E-13
 -1      1101 2.04303E+01 2.51838E-01-1.52344E-04 8.99334E-03-2.30436E-14-6.37047E-14
 -1      1102 1.98378E+01 2.80070E-01-2.05705E-05-8.42958E-02 8.62670E-14 2.60881E-14
 -1      1103 2.00273E+01 6.53706E-02-1.74488E-05-4.88236E-02-7.43080E-14 1.23600E-13
 -1      1104 1.55867E+01 1.00186E+00-6.34125E-03-9.03330E-01-1.62187E-13-2.97597E-13
 -1      1105 2.02152E+01-7.00729E-02-1.33312E-05-4.62125E-02 5.81707E-14-7.23481E-14
 -1      1106 2.00750E+01 1.48523E-02 5.64951E-05-4.52743E-02-3.73707E-14 2.01517E-13
 -1      1107 2.04249E+01 2.85777E-01-2.39833E-04-1.15059E-02 1.89993E-15-1.11774E-13
 -1      1108 2.03450E+01 5.38474E-02-7.28969E-05-7.35524E-02 2.77260E-14-6.08008E-14
 -1      1109 2.01678E+01-5.50499E-02-1.42710E-05-4.48639E-02 3.16864E-14 7.05709E-14
 -1      1110 2.04108E+01 5.94303E-01-4.07432E-04 4.39073E-02 6.72638E-14-1.18766E-13
 -1      1111 2.02643E+01-6.71293E-02-7.61369E-06-4.71640E-02 1.25568E-14-1.18768E-14
 -1      1112 2.04375E+01 4.84770E-01-1.13630E-04 1.72338E-03 4.65399E-14-1.06970E-13
 -1      1113 2.03141E+01-4.02612E-02 5.34484E-05-4.57715E-02-1.06869E-15-7.19616E-14
 -1      1114 2.03863E+01 4.76940E-02 1.10906E-04-1.34827E-02-4.67694E-15-4.23664E-14
 -1      1115 2.00920E+01 2.07166E-03 1.80938E-05-1.58838E-02-1.57690E-14 1.95290E-13
 -1      1116 2.04007E+01 1.22436E-01-6.48244E-06-3.24509E-02 2.34942E-14-9.31470E-14
 -1      1117 2.04297E+01 3.95604E-01-8.46293E-05-1.41302E-03 2.32158E-14-1.52591E-13
 -1      1118 2.01216E+01-2.61697E-02-6.67923E-05-4.41989E-02 9.72955E-15 2.16204E-13
 -1      1119 2.04285E+01 2.10913E-01 3.18058E-04-7.28703E-03-3.34019E-14-7.92499E-14
 -1      1120 2.79629E+01 9.08653E+00 2.32535E+00-6.69856E+00-2.30371E-14 1.68812E-12
 -1      1121 2.05471E+01 6.22705E+00 2.09717E-01-3.90452E+00-1.88460E-14 6.04378E-13
 -1      1122 1.94339E+01 5.85277E+00 7.52745E-02-2.88855E+00-1.61537E-14 5.98323E-14
 -1      1123 1.90258E+01 5.72587E+00 6.03949E-02-2.23583E+00-1.34510E-14-2.29758E-13
 -1      1124 1.88398E+01 5.66920E+00 5.75582E-02-1.70222E+00-9.83935E-15-3.86453E-13
 -1      1125 1.87464E+01 5.64059E+00 5.55393E-02-1.23472E+00-6.56766E-15-4.92113E-13
 -1      1126 1.86976E+01 5.62541E+00 5.37806E-02-8.04793E-01-5.05412E-15-5.50323E-13
 -1      1127 1.86737E+01 5.61789E+00 5.25651E-02-3.93097E-01-3.56768E-15-5.86886E-13
 -1      1128 1.86669E+01 5.61574E+00 5.21764E-02 8.47450E-03-9.96924E-16-5.97336E-13
 -1      1129 1.86748E+01 5.61824E+00 5.26866E-02 4.10453E-01 4.51895E-16-6.09183E-13
 -1      1130 1.86998E+01 5.62615E+00 5.40685E-02 8.23514E-01 1.33834E-15-6.14237E-13
 -1      1131 1.87502E+01 5.64195E+00 5.62663E-02 1.25611E+00 4.45564E-15-5.94306E-13
 -1      1132 1.88451E+01 5.67108E+00 5.84636E-02 1.72801E+00 6.76369E-15-5.54713E-13
 -1      1133 1.90313E+01 5.72751E+00 6.03966E-02 2.26911E+00 1.03841E-14-4.59074E-13
 -1      1134 1.94307E+01 5.84997E+00 6.91904E-02 2.92920E+00 1.50574E-14-2.43236E-13
 -1      1135 2.04531E+01 6.18190E+00 1.53240E-01 3.87907E+00 1.96787E-14 2.22433E-13
 -1      1136 2.52171E+01 7.99430E+00 1.43044E+00 5.84670E+00 4.67959E-14 1.26407E-12
 -1      1137 2.88126E+01 3.61646E+00 1.27137E+00-4.21727E+00-1.17684E-13 2.39975E-12
 -1      1138 2.02269E+01-1.77754E-01-6.16343E-01-1.09930E-01-3.69774E-14 2.11975E-12
 -1      1139 1.88323E+01-9.63501E-02-2.36345E-01 6.25165E-02-2.06987E-14 1.68262E-12
 -1      1140 1.84978E+01-4.80537E-02-5.95751E-02 4.04925E-02-1.22862E-15 1.39123E-12
 -1      1141 1.84420E+01-2.46142E-02-1.51856E-02 2.67756E-02-6.97793E-15 1.14885E-12
 -1      1142 1.85230E+01-1.30404E-02-4.95118E-03 1.90481E-02-6.91569E-15 1.06086E-12
 -1      1143 1.86690E+01-6.59719E-03-1.44294E-03 1.40934E-02 4.27392E-16 9.77557E-13
 -1      1144 1.88405E+01-2.83148E-03 5.91559E-04 1.06498E-02-1.67910E-15 8.71577E-13
 -1      1145 1.90149E+01-6.09239E-04 1.90159E-03 8.09660E-03 4.27439E-15 7.29541E-13
 -1      1146 1.91795E+01 6.65277E-04 2.62994E-03 6.12418E-03-6.47777E-16 6.13971E-13
 -1      1147 1.93276E+01 1.33026E-03 2.90769E-03 4.56794E-03-6.21772E-15 4.37417E-13
 -1      1148 1.94565E+01 1.59102E-03 2.86313E-03 3.33011E-03 4.11514E-15 5.00500E-13
 -1      1149 1.95660E+01 1.57742E-03 2.59677E-03 2.34569E-03 4.89737E-15 5.28832E-13
 -1      1150 1.96578E+01 1.37223E-03 2.17688E-03 1.56782E-03 2.24508E-15 4.01319E-13
 -1      1151 1.97347E+01 1.02615E-03 1.64385E-03 9.61719E-04-2.41444E-15 4.17594E-13
 -1      1152 1.98003E+01 5.66613E-04 1.01548E-03 5.02427E-04-1.81089E-14 3.96511E-13
 -1      1153 1.98590E+01 3.54130E-06 2.91235E-04 1.74373E-04-1.59586E-15 2.97268E-13
 -1      1154 1.99160E+01-6.66543E-04-5.44424E-04-2.79308E-05 2.11017E-14 2.84905E-13
 -1      1155 1.99772E+01-1.45706E-03-1.51935E-03-9.84266E-05-1.82772E-14 2.23035E-13
 -1      1156 2.00496E+01-2.38792E-03-2.67100E-03-1.72734E-05 1.28513E-14 6.11361E-15
 -1      1157 2.01413E+01-3.48119E-03-4.04287E-03 2.52257E-04-2.17861E-14 1.55968E-13
 -1      1158 2.02622E+01-4.75461E-03-5.67849E-03 7.67824E-04 2.08763E-16 2.93053E-13
 -1      1159 2.04238E+01-6.21092E-03-7.61009E-03 1.61283E-03 2.40570E-14 4.12544E-13
 -1      1160 2.06397E+01-7.81951E-03-9.83663E-03 2.90096E-03-2.55065E-14 2.06269E-13
 -1      1161 2.09254E+01-9.48530E-03-1.22814E-02 4.77755E-03 3.99473E-14 4.39229E-13
 -1      1162 2.12976E+01-1.09973E-02-1.47138E-02 7.41025E-03-3.62641E-14 7.05106E-13
 -1      1163 2.17728E+01-1.19486E-02-1.66114E-02 1.09528E-02 2.22283E-15 4.99649E-13
 -1      1164 2.23632E+01-1.16253E-02-1.69416E-02 1.54498E-02-2.39218E-14 2.65971E-13
 -1      1165 2.30698E+01-8.88250E-03-1.38703E-02 2.06264E-02 3.85179E-14 2.32571E-13
 -1      1166 2.38702E+01-2.08939E-03-4.53349E-03 2.54907E-02 2.25983E-14 3.82121E-13
 -1      1167 2.46993E+01 1.06347E-02 1.47063E-02 2.77081E-02-1.63044E-14 3.20629E-13
 -1      1168 2.54257E+01 3.04811E-02 4.65790E-02 2.29450E-02-3.33067E-15 2.24487E-13
 -1      1169 2.58330E+01 5.57103E-02 8.86051E-02 4.98376E-03-1.46966E-14 1.51156E-13
 -1      1170 2.56351E+01 7.82206E-02 1.26411E-01-3.15501E-02-1.17493E-14 2.23155E-13
 -1      1171 2.45710E+01 8.11975E-02 1.30494E-01-8.41067E-02 3.62592E-14 4.63032E-13
 -1      1172 2.26059E+01 4.54375E-02 6.87774E-02-1.33263E-01 2.28680E-14 8.25034E-13
 -1      1173 2.01586E+01-3.16448E-02-5.89402E-02-1.43872E-01-2.52337E-14 2.65413E-13
 -1      1174 1.81098E+01-1.13506E-01-1.91061E-01-8.98054E-02-1.90377E-14-1.52794E-14
 -1      1175 1.73775E+01-1.42113E-01-2.36473E-01 1.26501E-02-6.62664E-15-4.54099E-14
 -1      1176 1.82776E+01-9.33239E-02-1.58797E-01 1.06374E-01 1.49551E-14-3.60156E-13
 -1      1177 2.02693E+01-5.98821E-03-1.69738E-02 1.41536E-01-2.25926E-15-7.36800E-13
 -1      1178 2.23702E+01 6.19882E-02 9.71650E-02 1.15509E-01-2.19087E-14-6.46622E-13
 -1      1179 2.37955E+01 8.58789E-02 1.39367E-01 6.06489E-02 3.71751E-14-3.23588E-13
 -1      1180 2.42627E+01 7.47049E-02 1.22025E-01 9.14083E-03 2.86958E-14 1.94827E-13
 -1      1181 2.38968E+01 4.78984E-02 7.80170E-02-2.46515E-02-1.52768E-14 1.41425E-13
 -1      1182 2.29998E+01 1.91362E-02 3.11715E-02-4.05736E-02 4.91425E-14 2.72088E-13
 -1      1183 2.18878E+01-6.34338E-03-1.03451E-02-4.29155E-02 1.33217E-14 2.36533E-13
 -1      1184 2.08403E+01-2.74874E-02-4.52282E-02-3.27083E-02 5.99520E-14 3.21149E-13
 -1      1185 2.01258E+01-4.58103E-02-5.83386E-02-4.19826E-03-1.95330E-14 3.61556E-13
 -1      1186 1.99527E+01 1.53218E-02 2.63907E-02 1.71423E-02 7.73140E-14 1.41978E-13
 -1      1187 2.77923E+01 5.25756E-01 3.77136E-01 1.96671E+00-2.65205E-14 2.14617E-12
 -1      1188 2.00845E+01-6.62371E-02-5.73620E-01 1.29483E-01 2.13683E-14 1.60835E-12
 -1      1189 1.89068E+01-4.06041E-02-1.93232E-01 1.94191E-02 1.40938E-14 1.11470E-12
 -1      1190 1.85266E+01-2.14178E-02-5.05590E-02 1.46120E-03 1.39814E-14 7.78926E-13
 -1      1191 1.84547E+01-1.24035E-02-1.34045E-02-4.07732E-03 9.28879E-15 5.69145E-13
 -1      1192 1.85294E+01-7.39695E-03-4.65284E-03-5.53207E-03-9.73614E-16 4.22357E-13
 -1      1193 1.86723E+01-4.32092E-03-1.92041E-03-5.71576E-03-1.43218E-15 3.35454E-13
 -1      1194 1.88421E+01-2.35120E-03-3.34296E-04-5.42659E-03-4.56758E-15 2.68747E-13
 -1      1195 1.90156E+01-1.08446E-03 7.81737E-04-4.91685E-03-9.69765E-15 1.13128E-13
 -1      1196 1.91796E+01-2.90529E-04 1.48326E-03-4.29855E-03 1.67851E-14 9.50047E-14
 -1      1197 1.93275E+01 1.74401E-04 1.83060E-03-3.63719E-03 1.26407E-14-2.93203E-14
 -1      1198 1.94564E+01 4.04739E-04 1.90642E-03-2.97322E-03 6.09784E-15-1.71872E-13
 -1      1199 1.95661E+01 4.62951E-04 1.78369E-03-2.33028E-03 1.95528E-14-2.95413E-13
 -1      1200 1.96581E+01 3.89173E-04 1.51419E-03-1.71993E-03-2.05990E-14-2.13369E-13
 -1      1201 1.97353E+01 2.07063E-04 1.12869E-03-1.14538E-03 1.58387E-14-2.68615E-13
 -1      1202 1.98013E+01-7.23108E-05 6.40024E-04-6.04525E-04 5.29767E-15-4.54553E-13
 -1      1203 1.98605E+01-4.47519E-04 4.63320E-05-9.28661E-05-1.97044E-14-5.15514E-13
 -1      1204 1.99181E+01-9.24078E-04-6.65800E-04 3.93641E-04 2.38525E-14-4.90416E-13
 -1      1205 1.99797E+01-1.51147E-03-1.51800E-03 8.55371E-04 2.78742E-15-5.26114E-13
 -1      1206 2.00521E+01-2.21915E-03-2.53572E-03 1.28516E-03 3.49327E-15-6.25286E-13
 -1      1207 2.01430E+01-3.05067E-03-3.74168E-03 1.66329E-03 1.51568E-14-8.43367E-13
 -1      1208 2.02610E+01-3.99450E-03-5.14513E-03 1.95092E-03-8.74165E-15-9.49996E-13
 -1      1209 2.04160E+01-5.00969E-03-6.72419E-03 2.08124E-03 6.71452E-15-9.39799E-13
 -1      1210 2.06184E+01-6.00391E-03-8.39661E-03 1.94854E-03-7.19992E-15-8.52421E-13
 -1      1211 2.08791E+01-6.80142E-03-9.97304E-03 1.39606E-03 1.13299E-16-6.99370E-13
 -1      1212 2.12073E+01-7.10058E-03-1.10866E-02 2.07121E-04-1.75090E-14-4.21726E-13
 -1      1213 2.16085E+01-6.42722E-03-1.10978E-02-1.88920E-03-1.77450E-14-5.28437E-13
 -1      1214 2.20800E+01-4.10740E-03-8.99374E-03-5.17384E-03 8.14557E-14-1.23391E-12
 -1      1215 2.26044E+01 6.83536E-04-3.35000E-03-9.81180E-03 4.42201E-15-1.31927E-12
 -1      1216 2.31406E+01 8.68721E-03 7.48131E-03-1.55842E-02-1.43032E-14-8.74904E-13
 -1      1217 2.36138E+01 1.99898E-02 2.46617E-02-2.14346E-02-2.05131E-14-6.93258E-13
 -1      1218 2.39083E+01 3.30333E-02 4.73111E-02-2.49218E-02-4.80753E-14-6.03151E-13
 -1      1219 2.38738E+01 4.35468E-02 7.02241E-02-2.20351E-02-3.70788E-14-3.18584E-13
 -1      1220 2.33588E+01 4.45481E-02 8.23398E-02-8.32130E-03-3.52539E-15-3.72063E-13
 -1      1221 2.22845E+01 2.93829E-02 6.93156E-02 1.77970E-02 5.09939E-14-7.87717E-13
 -1      1222 2.07455E+01-1.86949E-03 2.30671E-02 5.04254E-02 2.55210E-14-1.09203E-12
 -1      1223 1.90750E+01-3.79630E-02-4.63545E-02 7.49668E-02 6.76395E-14-1.21828E-12
 -1      1224 1.77796E+01-6.03124E-02-1.08331E-01 7.51169E-02-1.45214E-14-1.03182E-12
 -1      1225 1.73175E+01-5.62020E-02-1.28219E-01 4.53160E-02 1.96232E-14-7.37696E-13
 -1      1226 1.78318E+01-3.06770E-02-9.47684E-02-1.49638E-03-4.15041E-14-3.48471E-13
 -1      1227 1.90541E+01-8.69934E-05-3.02311E-02-4.28597E-02 5.24663E-14-5.09010E-13
 -1      1228 2.04729E+01 2.17540E-02 3.03904E-02-6.25590E-02-1.01668E-13 4.58800E-14
 -1      1229 2.16100E+01 3.02015E-02 6.45841E-02-5.90210E-02-1.61681E-14 4.36803E-14
 -1      1230 2.22043E+01 2.78145E-02 6.94905E-02-4.08470E-02-3.91614E-16-3.05957E-13
 -1      1231 2.22314E+01 1.90541E-02 5.43462E-02-1.81965E-02 1.49312E-14-5.27346E-13
 -1      1232 2.18232E+01 7.19228E-03 2.94935E-02 2.22530E-03 9.23693E-14-8.53807E-13
 -1      1233 2.11801E+01-6.02946E-03 1.11516E-03 1.73296E-02 5.53824E-15-9.12711E-13
 -1      1234 2.05194E+01-1.84814E-02-2.58912E-02 2.46702E-02-6.90767E-14-9.77073E-13
 -1      1235 2.00593E+01-2.13046E-02-3.44114E-02 1.69430E-02 9.55258E-14-9.47474E-13
 -1      1236 1.99686E+01 1.14548E-02 2.35434E-02-1.11845E-02 1.39814E-14-6.63728E-13
 -1      1237 2.00108E+01-3.25819E-02 2.08897E-02-1.06084E-02-6.97230E-13-1.90724E-14
 -1      1238 1.99720E+01 6.25300E-02-4.12432E-02-4.30144E-03-1.15140E-12-1.17876E-13
 -1      1239 1.99712E+01 5.40181E-01-4.48530E-02 1.75551E-02-4.68819E-13 2.09573E-13
 -1      1240 1.99780E+01 1.32971E+00-3.33039E-02 2.94410E-02 2.53696E-13 4.82674E-14
 -1      1241 1.99893E+01 2.33659E+00-1.64047E-02 3.71811E-02 4.68764E-13-6.74032E-14
 -1      1242 2.00049E+01 3.44149E+00 5.98296E-03 4.05421E-02 1.58616E-13-8.67386E-14
 -1      1243 2.00238E+01 4.50584E+00 3.22195E-02 3.79013E-02-2.99448E-13-5.91825E-14
 -1      1244 2.00416E+01 5.36187E+00 5.74453E-02 2.71547E-02-1.14893E-12-1.02470E-13
 -1      1245 2.00530E+01 5.82960E+00 7.36014E-02 9.62833E-03-1.60855E-12-7.40432E-14
 -1      1246 2.00538E+01 5.80007E+00 7.49852E-02-1.10078E-02-1.07274E-13 1.90729E-13
 -1      1247 2.00433E+01 5.26421E+00 6.07970E-02-2.97284E-02-3.55212E-13-1.42675E-13
 -1      1248 2.00263E+01 4.32707E+00 3.60380E-02-4.24849E-02-1.47965E-12-3.93444E-14
 -1      1249 2.00051E+01 3.15049E+00 6.38336E-03-4.71661E-02-2.08787E-12 9.02975E-14
 -1      1250 1.99848E+01 1.91762E+00-2.46750E-02-4.46866E-02-1.59943E-12 2.93871E-14
 -1      1251 1.99655E+01 8.24936E-01-5.70989E-02-3.86311E-02-9.57959E-13 8.01993E-14
 -1      1252 1.99494E+01 1.47967E-01-5.66026E-02 7.22761E-03-5.16350E-13-1.80789E-13
 -1      1253 2.00182E+01-4.47129E-02 2.70843E-02 1.33431E-02-1.12711E-13 4.29912E-14
 -1      1254-1.10178E+00-2.56446E+01-3.90356E+00-2.29930E+00 8.39273E-13 6.67556E-14
 -1      1255-1.88264E+00-1.63996E+01-3.18354E+00-4.24254E+00 9.20375E-13 3.66152E-13
 -1      1256 1.77332E-01-2.88537E+00-1.90348E+00-3.36301E-01 1.72728E-12 9.82991E-13
 -1      1257 8.99466E+00 7.77988E+00-2.18239E-01 8.21557E+00 1.56897E-12 1.55431E-12
 -1      1258 2.56749E+01 1.14120E+01 1.55624E+00 1.61294E+01 1.71063E-12 2.67253E-12
 -1      1259 4.65219E+01 8.45211E+00 3.01298E+00 1.77465E+01 1.07658E-12 2.28484E-12
 -1      1260 6.34123E+01 3.11486E+00 3.99278E+00 1.03774E+01 3.04215E-13 1.33693E-12
 -1      1261 6.72414E+01 1.61873E+00 4.17710E+00-2.76328E+00 8.62990E-14-4.04843E-13
 -1      1262 5.71116E+01 5.01904E+00 3.57687E+00-1.41622E+01 4.96408E-13-1.83875E-12
 -1      1263 3.81170E+01 9.82994E+00 2.36406E+00-1.81280E+01 1.23146E-12-2.43272E-12
 -1      1264 1.84378E+01 1.07025E+01 7.56343E-01-1.35781E+01 1.99707E-12-2.38942E-12
 -1      1265 4.55636E+00 4.24568E+00-9.50089E-01-4.61662E+00 2.52443E-12-1.94089E-12
 -1      1266-1.22841E+00-8.06205E+00-2.41644E+00 2.50808E+00 2.39053E-12-1.20393E-12
 -1      1267-1.55606E+00-2.02614E+01-3.41079E+00 3.91195E+00 2.11042E-12-5.44759E-13
 -1      1268-8.41102E-01-2.57030E+01-3.77936E+00 1.74392E-01 2.77250E-13-1.47542E-13
 -1      1269-1.45865E+00-2.13883E+01-3.49254E+00-3.96931E+00-9.69558E-13-3.33941E-13
 -1      1270-1.54624E+00-9.57877E+00-2.58331E+00-3.16544E+00-2.44338E-12-1.31195E-12
 -1      1271 3.34397E+00 2.49657E+00-1.21777E+00 3.24970E+00-3.07709E-12-2.32681E-12
 -1      1272 1.56746E+01 9.66485E+00 4.09101E-01 1.18848E+01-2.34435E-12-2.52354E-12
 -1      1273 3.50820E+01 1.00326E+01 2.06638E+00 1.77371E+01-1.38134E-12-2.52287E-12
 -1      1274 5.52810E+01 5.71796E+00 3.51398E+00 1.54427E+01-6.93112E-13-2.08966E-12
 -1      1275 6.73680E+01 2.03881E+00 4.32077E+00 4.88101E+00-2.27478E-13-1.15929E-12
 -1      1276 6.55646E+01 2.96291E+00 4.27769E+00-8.61627E+00-1.83908E-13 4.14113E-13
 -1      1277 5.04266E+01 7.60368E+00 3.33638E+00-1.75544E+01-5.20861E-13 1.36868E-12
 -1      1278 2.86599E+01 1.12062E+01 1.71667E+00-1.69043E+01-1.08535E-12 1.85918E-12
 -1      1279 1.00347E+01 7.89666E+00-1.53638E-01-8.70335E+00-1.31362E-12 1.35358E-12
 -1      1280 1.75859E-01-3.04087E+00-1.92969E+00 4.41581E-01-1.33782E-12 7.55840E-13
 -1      1281-1.85471E+00-1.66487E+01-3.22293E+00 4.48049E+00-1.81766E-12 5.31519E-13
 -1      1282-1.10249E+00-2.56203E+01-3.89352E+00 2.31651E+00-9.07274E-13 1.87385E-13
 -1      1283 2.22662E+01 1.83815E+00-7.25903E-01-2.79089E+00-4.04121E-14 1.50280E-12
 -1      1284 2.03589E+01 4.69014E+00-4.86536E-02-3.30763E+00-1.62745E-13 3.58297E-13
 -1      1285 2.08662E+01 4.81062E+00-1.13403E-01-4.16180E+00-1.96537E-13 6.41313E-13
 -1      1286 1.95310E+01 4.99312E+00-1.96970E-02-2.65514E+00-1.85393E-13-6.68354E-14
 -1      1287 1.98293E+01 5.09001E+00 2.30141E-04-3.04619E+00-2.01075E-13 1.25282E-13
 -1      1288 2.05255E+01 3.95269E+00-2.59096E-02-3.07569E+00-2.94660E-13 3.20161E-13
 -1      1289 1.91839E+01 5.08434E+00-3.54442E-03-2.07151E+00-1.71706E-13-3.02453E-13
 -1      1290 1.93323E+01 5.13949E+00 1.05439E-02-2.36431E+00-1.87975E-13-1.93984E-13
 -1      1291 1.97528E+01 4.36576E+00-2.45247E-02-2.49001E+00-2.96638E-13-3.56867E-14
 -1      1292 1.90094E+01 5.13079E+00 3.28696E-03-1.56528E+00-1.41066E-13-4.33053E-13
 -1      1293 1.90869E+01 5.16031E+00 1.25437E-02-1.81537E+00-1.59697E-13-3.67754E-13
 -1      1294 1.93916E+01 4.55474E+00-2.00493E-02-1.93268E+00-2.66553E-13-2.39544E-13
 -1      1295 1.89160E+01 5.16074E+00 6.52881E-03-1.11757E+00-1.08532E-13-5.14505E-13
 -1      1296 1.89583E+01 5.17701E+00 1.26769E-02-1.33906E+00-1.20939E-13-4.68426E-13
 -1      1297 1.92061E+01 4.66142E+00-1.61241E-02-1.44511E+00-2.17814E-13-3.52180E-13
 -1      1298 1.88648E+01 5.18049E+00 8.19805E-03-6.94238E-01-8.44338E-14-5.66627E-13
 -1      1299 1.88876E+01 5.18929E+00 1.19651E-02-9.04535E-01-9.49865E-14-5.44075E-13
 -1      1300 1.91034E+01 4.72676E+00-1.40384E-02-1.00481E+00-1.66280E-13-4.24796E-13
 -1      1301 1.88411E+01 5.19240E+00 9.29915E-03-2.89351E-01-5.68621E-14-5.92464E-13
 -1      1302 1.88509E+01 5.19621E+00 1.10689E-02-4.91564E-01-6.46393E-14-5.74965E-13
 -1      1303 1.90480E+01 4.76560E+00-1.29353E-02-5.89145E-01-1.25577E-13-4.58099E-13
 -1      1304 1.88374E+01 5.19734E+00 1.02306E-02 1.08264E-01-2.97418E-14-6.08423E-13
 -1      1305 1.88371E+01 5.19721E+00 1.01594E-02-9.15059E-02-4.15860E-14-6.02541E-13
 -1      1306 1.90240E+01 4.78360E+00-1.24787E-02-1.89219E-01-7.55481E-14-4.91877E-13
 -1      1307 1.88526E+01 5.19585E+00 1.11668E-02 5.08901E-01 1.89649E-15-6.17928E-13
 -1      1308 1.88421E+01 5.19176E+00 9.23691E-03 3.06270E-01-8.96971E-15-6.12241E-13
 -1      1309 1.90248E+01 4.78297E+00-1.24946E-02 2.05882E-01-3.49716E-14-5.04229E-13
 -1      1310 1.88910E+01 5.18814E+00 1.20980E-02 9.23350E-01 2.60104E-14-6.13773E-13
 -1      1311 1.88673E+01 5.17915E+00 8.14517E-03 7.12090E-01 1.89406E-14-6.15973E-13
 -1      1312 1.90506E+01 4.76354E+00-1.29804E-02 6.06474E-01 1.44513E-14-5.11664E-13
 -1      1313 1.89626E+01 5.17511E+00 1.29003E-02 1.35671E+00 6.34076E-14-5.91803E-13
 -1      1314 1.89195E+01 5.15842E+00 6.45834E-03 1.13375E+00 5.03074E-14-6.04869E-13
 -1      1315 1.91078E+01 4.72312E+00-1.40029E-02 1.01996E+00 6.73372E-14-4.98265E-13
 -1      1316 1.90949E+01 5.15662E+00 1.28235E-02 1.84146E+00 1.12129E-13-5.43995E-13
 -1      1317 1.90156E+01 5.12632E+00 3.15034E-03 1.58862E+00 9.11467E-14-5.70521E-13
 -1      1318 1.92129E+01 4.65475E+00-1.61478E-02 1.46321E+00 1.30726E-13-4.63338E-13
 -1      1319 1.93432E+01 5.13334E+00 1.01616E-02 2.39858E+00 1.48874E-13-4.34895E-13
 -1      1320 1.91933E+01 5.07628E+00-4.37521E-03 2.10130E+00 1.32030E-13-5.06092E-13
 -1      1321 1.94052E+01 4.54233E+00-1.99872E-02 1.95897E+00 2.03481E-13-4.11463E-13
 -1      1322 1.98545E+01 5.09928E+00 6.03367E-03 3.08463E+00 1.90667E-13-1.90049E-13
 -1      1323 1.95427E+01 4.98433E+00-2.05472E-02 2.69729E+00 1.63661E-13-3.36592E-13
 -1      1324 1.97741E+01 4.34634E+00-2.45666E-02 2.52885E+00 2.55414E-13-2.74329E-13
 -1      1325 2.11022E+01 4.90690E+00 8.29399E-03 4.05452E+00 1.78885E-13 3.13721E-13
 -1      1326 2.03333E+01 4.73376E+00-4.79807E-02 3.41696E+00 1.69198E-13 1.45023E-15
 -1      1327 2.05636E+01 3.91589E+00-2.24211E-02 3.17913E+00 2.93383E-13 9.27036E-15
 -1      1328 2.72021E+01 3.20540E+00 9.29086E-01 4.58259E+00 1.03667E-13 1.34753E-12
 -1      1329 2.20190E+01 3.52214E+00-1.82010E-01 3.88546E+00 9.68114E-14 6.22336E-13
 -1      1330 2.21112E+01 2.56180E+00-3.25636E-02 3.45719E+00 3.02702E-13 4.72927E-13
 -1      1331 2.14258E+01 3.59608E-01-7.63533E-01 1.18415E+00 1.76990E-13 1.26688E-12
 -1      1332 2.20000E+01 1.31437E-01-4.00898E-01-1.28597E+00-1.45828E-13 1.52789E-12
 -1      1333 2.06770E+01 3.06723E-01-1.64855E-01-8.05971E-01-1.44926E-13 1.36072E-12
 -1      1334 2.00792E+01 1.53471E-01-7.35290E-02-4.02380E-01-1.11220E-13 1.27195E-12
 -1      1335 1.96091E+01 9.11642E-02-1.49328E-02-3.30228E-01-1.18364E-13 1.10600E-12
 -1      1336 2.09709E+01 3.69053E-01-1.04293E-01-1.27432E+00-2.52548E-13 8.36369E-13
 -1      1337 1.92514E+01 6.44891E-02 3.03864E-03-1.35651E-01-8.75610E-14 1.04251E-12
 -1      1338 1.90967E+01 4.12590E-02 1.32204E-02-1.17858E-01-8.20680E-14 9.14036E-13
 -1      1339 1.99198E+01 1.33887E-01-3.51391E-02-5.04526E-01-1.95493E-13 6.85719E-13
 -1      1340 1.89361E+01 3.15244E-02 1.32439E-02-2.83543E-02-5.89208E-14 8.52311E-13
 -1      1341 1.89162E+01 1.93810E-02 1.10585E-02-1.89750E-02-5.74189E-14 7.62581E-13
 -1      1342 1.94420E+01 5.54372E-02-8.51348E-03-1.70643E-01-1.52302E-13 5.61474E-13
 -1      1343 1.88598E+01 1.59936E-02 8.78288E-03 2.46421E-02-2.72761E-14 7.35264E-13
 -1      1344 1.89017E+01 9.05546E-03 6.44176E-03 2.92600E-02-3.77168E-14 7.06248E-13
 -1      1345 1.92324E+01 2.43938E-02-3.49225E-03-1.18519E-02-9.10348E-14 4.79635E-13
 -1      1346 1.89013E+01 7.82984E-03 4.68087E-03 5.03732E-02-3.50821E-14 6.73841E-13
 -1      1347 1.89711E+01 3.48289E-03 3.64747E-03 5.22492E-02-3.18393E-14 6.33690E-13
 -1      1348 1.91749E+01 1.01524E-02-2.20809E-03 6.67298E-02-6.38955E-14 4.23809E-13
 -1      1349 1.90002E+01 3.16518E-03 2.45283E-03 6.10011E-02-2.60712E-14 6.28423E-13
 -1      1350 1.90801E+01 3.19617E-04 2.21891E-03 6.12572E-02-3.17021E-14 5.77790E-13
 -1      1351 1.92003E+01 2.73368E-03-1.31761E-03 1.03449E-01-6.25682E-14 3.84621E-13
 -1      1352 1.91232E+01 4.31481E-04 1.34608E-03 6.29210E-02-3.25976E-14 5.62755E-13
 -1      1353 1.92033E+01-1.45743E-03 1.45127E-03 6.22332E-02-3.58423E-14 4.95309E-13
 -1      1354 1.92685E+01-1.33454E-03-5.57920E-04 1.16644E-01-7.97338E-14 3.59248E-13
 -1      1355 1.92515E+01-1.13220E-03 7.66147E-04 5.98727E-02-4.57724E-14 4.77651E-13
 -1      1356 1.93264E+01-2.37099E-03 9.88543E-04 5.86783E-02-7.44676E-14 3.97932E-13
 -1      1357 1.93560E+01-3.51031E-03-5.91321E-06 1.16321E-01-7.51271E-14 3.37723E-13
 -1      1358 1.93743E+01-1.94543E-03 4.36230E-04 5.42072E-02-6.10579E-14 3.58409E-13
 -1      1359 1.94413E+01-2.72435E-03 6.85348E-04 5.27976E-02-2.73518E-14 3.15680E-13
 -1      1360 1.94486E+01-4.52172E-03 3.35635E-04 1.08488E-01-1.03807E-13 2.90474E-13
 -1      1361 1.94860E+01-2.26153E-03 2.40407E-04 4.74616E-02 2.70935E-14 2.64553E-13
 -1      1362 1.95441E+01-2.70707E-03 4.81128E-04 4.60328E-02 6.07836E-15 3.06176E-13
 -1      1363 1.95383E+01-4.78399E-03 5.09296E-04 9.69736E-02-2.24554E-14 1.73985E-13
 -1      1364 1.95844E+01-2.24131E-03 1.26385E-04 4.06630E-02-2.09207E-14 3.16048E-13
 -1      1365 1.96338E+01-2.44082E-03 3.46217E-04 3.93476E-02-4.20690E-14 2.82121E-13
 -1      1366 1.96208E+01-4.55330E-03 5.61088E-04 8.43026E-02-7.72901E-15 1.15644E-13
 -1      1367 1.96694E+01-1.98784E-03 6.64178E-05 3.45108E-02-2.72686E-14 2.65337E-13
 -1      1368 1.97110E+01-2.00213E-03 2.63216E-04 3.34006E-02-1.37506E-14 2.66135E-13
 -1      1369 1.96947E+01-3.99132E-03 5.26555E-04 7.21773E-02-4.03908E-14 1.19929E-13
 -1      1370 1.97424E+01-1.56447E-03 4.34910E-05 2.94994E-02-1.44462E-14 2.31389E-13
 -1      1371 1.97779E+01-1.43519E-03 2.20769E-04 2.86618E-02-4.56892E-14 2.29331E-13
 -1      1372 1.97600E+01-3.19634E-03 4.29732E-04 6.17797E-02-6.31684E-14 1.10369E-13
 -1      1373 1.98062E+01-1.00535E-03 4.61559E-05 2.60063E-02-5.79381E-14 2.58632E-13
 -1      1374 1.98373E+01-7.59793E-04 2.11091E-04 2.54973E-02-6.50343E-14 2.01156E-13
 -1      1375 1.98184E+01-2.22034E-03 2.85200E-04 5.39789E-02-6.00883E-14 1.13623E-13
 -1      1376 1.98641E+01-3.22034E-04 6.61207E-05 2.43586E-02-1.64675E-14 1.79214E-13
 -1      1377 1.98933E+01 2.31870E-05 2.28667E-04 2.42329E-02-1.85781E-14 1.72562E-13
 -1      1378 1.98723E+01-1.07943E-03 1.00195E-04 4.94821E-02-8.01632E-14 1.51323E-13
 -1      1379 1.99203E+01 4.91862E-04 9.67748E-05 2.48854E-02-6.09820E-15 1.49171E-13
 -1      1380 1.99503E+01 9.27582E-04 2.69311E-04 2.52048E-02-6.52308E-15 1.59443E-13
 -1      1381 1.99250E+01 2.38873E-04-1.23729E-04 4.89512E-02-1.97600E-14 8.60853E-14
 -1      1382 1.99800E+01 1.45699E-03 1.32034E-04 2.79591E-02-2.35008E-14 1.16028E-13
 -1      1383 2.00139E+01 1.97828E-03 3.29283E-04 2.87986E-02-6.02030E-14 6.38328E-14
 -1      1384 1.99806E+01 1.77019E-03-3.89367E-04 5.30927E-02-4.33293E-14-2.31832E-15
 -1      1385 2.00489E+01 2.60489E-03 1.65221E-04 3.40256E-02-2.59878E-14 3.82645E-14
 -1      1386 2.00905E+01 3.20725E-03 4.04243E-04 3.54790E-02-1.53674E-14 8.77296E-16
 -1      1387 2.00441E+01 3.56834E-03-7.02686E-04 6.27265E-02-7.80788E-14 3.99778E-14
 -1      1388 2.01340E+01 3.97381E-03 1.87799E-04 4.36249E-02 1.19260E-14 1.61533E-14
 -1      1389 2.01878E+01 4.64825E-03 4.87820E-04 4.58075E-02-1.21296E-14 4.52254E-14
 -1      1390 2.01211E+01 5.69951E-03-1.07160E-03 7.88330E-02 6.00724E-15-3.47749E-14
 -1      1391 2.02436E+01 5.60257E-03 1.87795E-04 5.73946E-02 1.92397E-14 8.29949E-14
 -1      1392 2.03147E+01 6.32813E-03 5.69568E-04 6.04429E-02 6.00504E-14 1.33606E-13
 -1      1393 2.02185E+01 8.23337E-03-1.50441E-03 1.02572E-01 4.71549E-14-3.79650E-14
 -1      1394 2.03871E+01 7.51963E-03 1.47868E-04 7.60482E-02 1.38261E-14 7.90562E-14
 -1      1395 2.04816E+01 8.25184E-03 6.32138E-04 8.01138E-02-1.28825E-14 7.50862E-14
 -1      1396 2.03440E+01 1.12273E-02-2.00753E-03 1.35259E-01 1.72430E-14-9.63753E-14
 -1      1397 2.05755E+01 9.72332E-03 4.32246E-05 1.00306E-01 1.12599E-14 1.75950E-13
 -1      1398 2.07006E+01 1.03755E-02 6.47792E-04 1.05540E-01 1.40255E-14 1.52201E-13
 -1      1399 2.05067E+01 1.46969E-02-2.58170E-03 1.78266E-01 5.41910E-14-4.38066E-14
 -1      1400 2.08212E+01 1.21456E-02-1.59652E-04 1.30747E-01 9.79128E-14 1.70229E-13
 -1      1401 2.09845E+01 1.25589E-02 5.75388E-04 1.37258E-01 6.75965E-14 3.03489E-13
 -1      1402 2.07165E+01 1.85598E-02-3.21542E-03 2.32788E-01 6.28172E-14 1.58511E-13
 -1      1403 2.11371E+01 1.45876E-02-5.00713E-04 1.67504E-01 3.38748E-15 3.12303E-13
 -1      1404 2.13464E+01 1.44846E-02 3.61290E-04 1.75292E-01-3.68154E-14 3.26098E-13
 -1      1405 2.09836E+01 2.25351E-02-3.87328E-03 2.99386E-01 5.27863E-14 8.01158E-15
 -1      1406 2.15357E+01 1.66107E-02-1.01415E-03 2.09726E-01-4.35298E-14 3.08893E-13
 -1      1407 2.17975E+01 1.55300E-02-4.76749E-05 2.18539E-01-2.27802E-14 1.95418E-13
 -1      1408 2.13178E+01 2.59675E-02-4.47515E-03 3.77122E-01-7.17525E-14 1.08838E-13
 -1      1409 2.20259E+01 1.73655E-02-1.69405E-03 2.54639E-01-2.95714E-14 1.56052E-13
 -1      1410 2.23425E+01 1.45838E-02-6.64347E-04 2.63732E-01-6.22993E-14 5.59691E-14
 -1      1411 2.17264E+01 2.75470E-02-4.86055E-03 4.62079E-01-8.85396E-14 4.85851E-14
 -1      1412 2.26082E+01 1.53606E-02-2.41993E-03 2.96074E-01-2.07033E-14 2.34899E-14
 -1      1413 2.29735E+01 9.84381E-03-1.37588E-03 3.03830E-01 2.21932E-14 4.91707E-14
 -1      1414 2.22105E+01 2.49168E-02-4.73222E-03 5.44984E-01-5.63581E-14-3.97252E-14
 -1      1415 2.32666E+01 8.24269E-03-2.83062E-03 3.22442E-01 2.02376E-14 1.06085E-13
 -1      1416 2.36581E+01-1.25452E-03-1.81108E-03 3.25841E-01 4.54481E-14 1.87269E-13
 -1      1417 2.27599E+01 1.42777E-02-3.58227E-03 6.07807E-01 1.86889E-14-1.08628E-13
 -1      1418 2.39565E+01-7.15232E-03-2.18264E-03 3.14653E-01 1.20563E-16 2.03912E-13
 -1      1419 2.43260E+01-2.15723E-02-1.21878E-03 3.08763E-01-5.33571E-14 1.36327E-13
 -1      1420 2.33453E+01-9.59938E-03-6.39782E-04 6.19915E-01 2.89135E-14 6.98721E-14
 -1      1421 2.45898E+01-3.38258E-02 6.53704E-04 2.45767E-01-1.64565E-14 2.13548E-13
 -1      1422 2.48544E+01-5.24618E-02 1.40608E-03 2.23860E-01 7.49574E-15 2.45765E-13
 -1      1423 2.39087E+01-5.19321E-02 5.03962E-03 5.36110E-01-1.62552E-14 1.07002E-13
 -1      1424 2.50239E+01-7.16686E-02 6.62741E-03 8.65289E-02 8.96765E-15 2.06529E-13
 -1      1425 2.50669E+01-8.97321E-02 6.56877E-03 4.21412E-02-6.41041E-14 1.48799E-13
 -1      1426 2.43555E+01-1.13255E-01 1.40693E-02 3.02482E-01-2.36425E-14 2.04269E-13
 -1      1427 2.50676E+01-1.11726E-01 1.50020E-02-1.76926E-01 3.06491E-14 1.46667E-13
 -1      1428 2.47647E+01-1.17949E-01 1.26329E-02-2.44049E-01 7.02112E-14 2.09992E-13
 -1      1429 2.45547E+01-1.80353E-01 2.53995E-02-1.19837E-01 2.14707E-14 1.78835E-13
 -1      1430 2.45303E+01-1.30534E-01 2.12550E-02-5.10258E-01 1.07799E-13 3.25115E-13
 -1      1431 2.38183E+01-1.09015E-01 1.45602E-02-5.84624E-01 1.61971E-13 3.92179E-13
 -1      1432 2.43633E+01-2.16750E-01 3.42452E-02-7.04446E-01 1.71595E-13 2.06436E-13
 -1      1433 2.33370E+01-9.47124E-02 1.77382E-02-7.99405E-01 3.77936E-14 4.87888E-13
 -1      1434 2.23086E+01-3.66091E-02 5.71984E-03-8.44385E-01-1.00222E-13 3.89216E-13
 -1      1435 2.36917E+01-1.69412E-01 3.11731E-02-1.29732E+00 1.51585E-13 2.15146E-13
 -1      1436 2.16818E+01 1.12927E-02-5.15198E-04-8.67783E-01-2.20085E-13 3.17399E-13
 -1      1437 2.06378E+01 8.91767E-02-1.48383E-02-8.40772E-01-1.33686E-13 1.52378E-13
 -1      1438 2.26124E+01-8.17789E-03 7.44642E-03-1.60756E+00-2.08757E-13 1.27121E-13
 -1      1439 2.00946E+01 1.45842E-01-2.56910E-02-5.89328E-01 7.38819E-15 1.36280E-14
 -1      1440 1.94482E+01 1.99240E-01-3.52455E-02-4.82347E-01-9.33090E-14-2.31828E-14
 -1      1441 2.14470E+01 2.12924E-01-3.27896E-02-1.34546E+00-2.04694E-13 9.17356E-14
 -1      1442 1.92394E+01 2.19645E-01-3.93108E-02-3.81297E-02-1.47132E-13 7.00637E-14
 -1      1443 1.92737E+01 2.10377E-01-3.81296E-02 9.73679E-02 2.86160E-14 2.38976E-14
 -1      1444 2.06894E+01 3.63492E-01-6.32467E-02-4.92861E-01-1.12042E-13 5.61747E-14
 -1      1445 1.94883E+01 1.74982E-01-3.03820E-02 5.06473E-01-8.58966E-14-8.87623E-14
 -1      1446 2.01521E+01 1.09924E-01-1.92599E-02 5.93700E-01-2.02857E-13-3.44030E-13
 -1      1447 2.06994E+01 3.36844E-01-5.72996E-02 5.62172E-01-1.91361E-13 4.84474E-14
 -1      1448 2.06384E+01 4.98711E-02-7.78627E-03 7.65819E-01-1.21092E-14-3.84789E-13
 -1      1449 2.15814E+01-2.59845E-02 5.89689E-03 7.68606E-01 4.07636E-14-4.26117E-13
 -1      1450 2.14104E+01 1.50076E-01-2.06348E-02 1.26956E+00-1.92955E-13 1.51684E-14
 -1      1451 2.20743E+01-6.68667E-02 1.03658E-02 6.73187E-01-9.46725E-15-4.61201E-13
 -1      1452 2.28902E+01-1.14680E-01 2.03556E-02 6.13650E-01 3.80954E-14-4.30309E-13
 -1      1453 2.23838E+01-6.80412E-02 1.70255E-02 1.34393E+00-1.32767E-14-1.31284E-13
 -1      1454 2.31898E+01-1.21307E-01 1.60366E-02 3.63545E-01 1.69014E-13-2.42188E-13
 -1      1455 2.36309E+01-1.32582E-01 2.07213E-02 2.86080E-01 2.28272E-13-7.11202E-14
 -1      1456 2.31474E+01-2.00214E-01 3.48515E-02 9.05957E-01 2.82838E-13-2.09659E-14
 -1      1457 2.36717E+01-1.16655E-01 1.26639E-02 1.82530E-02 7.65759E-14 1.51094E-13
 -1      1458 2.36972E+01-1.03542E-01 1.35589E-02-4.54347E-02 1.21486E-13 2.52346E-13
 -1      1459 2.34485E+01-2.19726E-01 3.34842E-02 2.72649E-01 3.52022E-13 9.15270E-14
 -1      1460 2.35150E+01-8.16709E-02 6.85689E-03-2.46973E-01 1.12980E-13 2.68070E-13
 -1      1461 2.32199E+01-5.89152E-02 5.87707E-03-2.85670E-01 7.78301E-14 3.02942E-13
 -1      1462 2.32738E+01-1.67371E-01 2.27406E-02-2.90150E-01 1.85626E-13 2.73508E-13
 -1      1463 2.28949E+01-4.01667E-02 2.33734E-03-3.94837E-01 9.04068E-14 3.30222E-13
 -1      1464 2.24218E+01-1.64822E-02 5.03197E-04-4.09495E-01 1.49265E-13 5.15601E-13
 -1      1465 2.27475E+01-9.19337E-02 1.06630E-02-6.57317E-01 1.03286E-13 4.41999E-13
 -1      1466 2.20403E+01-2.29379E-03-8.98665E-04-4.30889E-01-2.69726E-14 4.04544E-13
 -1      1467 2.15287E+01 1.94406E-02-3.32859E-03-4.25440E-01-5.49599E-14 3.02237E-13
 -1      1468 2.20349E+01-1.99652E-02 2.51707E-04-8.08881E-01-6.22933E-14 5.62557E-13
 -1      1469 2.11666E+01 3.17556E-02-4.59576E-03-3.70395E-01 9.65035E-14 1.90958E-13
 -1      1470 2.07412E+01 5.10957E-02-5.88739E-03-3.46327E-01 3.19727E-14 2.89243E-13
 -1      1471 2.12931E+01 4.44750E-02-8.02449E-03-7.66120E-01-1.58233E-14 3.63214E-13
 -1      1472 2.04540E+01 6.73964E-02-7.08369E-03-2.22392E-01-2.89048E-14 3.27792E-13
 -1      1473 2.02169E+01 7.08396E-02-2.48101E-03-1.84211E-01-7.39560E-14 3.15589E-13
 -1      1474 2.06481E+01 1.08922E-01-1.28702E-02-5.56273E-01-1.28578E-14 1.67158E-13
 -1      1475 2.00099E+01 3.20582E-02-2.18478E-03-2.01821E-03-2.24401E-13 1.43920E-13
 -1      1476 2.01430E+01 1.32499E-01-8.03285E-03-1.82021E-01-2.16296E-13 5.03703E-14
 -1      1477 2.02579E+01 7.54782E-02-1.52102E-01 4.84104E-01 1.54373E-13 9.45882E-13
 -1      1478 2.15286E+01 2.16127E-01-2.29289E-01 7.21107E-01 1.29591E-13 1.18851E-12
 -1      1479 2.17272E+01 8.81808E-01-8.54587E-02 2.06531E+00 2.66197E-13 7.33191E-13
 -1      1480 1.93290E+01 3.23767E-02-2.13357E-02 1.86270E-01 1.14303E-13 6.65010E-13
 -1      1481 1.97500E+01 1.13610E-01-6.27063E-02 2.38275E-01 1.04208E-13 8.36532E-13
 -1      1482 2.03015E+01 1.87685E-01-5.51868E-02 7.86654E-01 2.27492E-13 5.31577E-13
 -1      1483 1.89466E+01 1.50981E-02 5.66666E-03 5.37921E-02 6.92536E-14 4.68899E-13
 -1      1484 1.90855E+01 5.16131E-02 9.74426E-04 8.00960E-02 7.82950E-14 5.99507E-13
 -1      1485 1.95559E+01 7.18300E-02-1.21511E-02 2.99497E-01 1.69153E-13 3.86182E-13
 -1      1486 1.88353E+01 7.11017E-03 6.97783E-03-8.66721E-03 3.95786E-14 3.48499E-13
 -1      1487 1.88503E+01 2.58415E-02 1.10872E-02 5.71847E-03 4.25762E-14 4.21264E-13
 -1      1488 1.92199E+01 3.10203E-02-2.45710E-03 8.40594E-02 1.10752E-13 2.67088E-13
 -1      1489 1.88604E+01 3.19652E-03 4.78618E-03-3.88664E-02 3.29771E-14 2.42683E-13
 -1      1490 1.88172E+01 1.37837E-02 8.51971E-03-3.07670E-02 3.44186E-14 2.98145E-13
 -1      1491 1.91026E+01 1.32391E-02-1.61091E-03-2.08384E-02 7.71137E-14 1.84629E-13
 -1      1492 1.89535E+01 1.04195E-03 3.29679E-03-5.22400E-02 1.81347E-14 2.00374E-13
 -1      1493 1.88836E+01 7.25355E-03 5.36771E-03-4.77901E-02 1.66497E-14 2.16681E-13
 -1      1494 1.91029E+01 4.51139E-03-1.62538E-03-7.22257E-02 4.12908E-14 1.10001E-13
 -1      1495 1.90766E+01-1.99671E-04 2.51449E-03-5.61489E-02 2.26284E-14 9.69780E-14
 -1      1496 1.89972E+01 3.42418E-03 3.43197E-03-5.39558E-02 2.74255E-14 1.59918E-13
 -1      1497 1.91647E+01-1.32733E-04-1.36874E-03-9.47762E-02 4.72884E-14 4.21260E-14
 -1      1498 1.92081E+01-8.95075E-04 2.04862E-03-5.46425E-02 3.41939E-14 2.77408E-14
 -1      1499 1.91287E+01 1.10401E-03 2.33192E-03-5.38645E-02 2.58273E-14 6.65327E-14
 -1      1500 1.92557E+01-2.63343E-03-9.93047E-04-1.00926E-01 5.12070E-14 2.05929E-14
 -1      1501 1.93356E+01-1.23773E-03 1.70183E-03-5.01807E-02 3.36070E-14-7.04211E-15
 -1      1502 1.92614E+01-2.81069E-04 1.65652E-03-5.02698E-02 1.49925E-14 1.46562E-14
 -1      1503 1.93570E+01-3.87240E-03-6.52868E-04-9.77158E-02 4.32506E-14-4.31877E-14
 -1      1504 1.94524E+01-1.34515E-03 1.40722E-03-4.43407E-02 4.84213E-14-8.05146E-14
 -1      1505 1.93861E+01-1.05074E-03 1.20024E-03-4.49264E-02 5.00092E-14-3.20833E-14
 -1      1506 1.94575E+01-4.32370E-03-3.94785E-04-8.94746E-02 6.58751E-14-1.09879E-13
 -1      1507 1.95557E+01-1.29344E-03 1.14624E-03-3.81627E-02 5.43521E-14-1.91855E-13
 -1      1508 1.94983E+01-1.40127E-03 8.74138E-04-3.89883E-02 4.96146E-14-9.98403E-14
 -1      1509 1.95513E+01-4.27040E-03-2.16752E-04-7.89971E-02 6.83808E-14-9.33607E-14
 -1      1510 1.96450E+01-1.13220E-03 9.13490E-04-3.23451E-02 8.11132E-15-1.78283E-13
 -1      1511 1.95962E+01-1.45916E-03 6.36942E-04-3.32283E-02 1.33499E-14-1.90463E-13
 -1      1512 1.96355E+01-3.89114E-03-1.05651E-04-6.81386E-02 5.54780E-14-1.13296E-13
 -1      1513 1.97215E+01-8.92301E-04 7.05780E-04-2.73682E-02 1.45370E-15-1.67349E-13
 -1      1514 1.96803E+01-1.30597E-03 4.65793E-04-2.81750E-02-2.49318E-15-1.87222E-13
 -1      1515 1.97098E+01-3.29913E-03-4.97332E-05-5.81578E-02 2.93331E-16-1.17733E-13
 -1      1516 1.97876E+01-5.90729E-04 5.19398E-04-2.35799E-02 4.06456E-14-2.91465E-13
 -1      1517 1.97526E+01-9.91687E-04 3.45856E-04-2.42059E-02 3.57858E-14-2.18378E-13
 -1      1518 1.97750E+01-2.56255E-03-4.11971E-05-4.99378E-02 5.16808E-14-1.79433E-13
 -1      1519 1.98467E+01-2.33957E-04 3.49604E-04-2.12585E-02 5.33677E-15-3.65550E-13
 -1      1520 1.98159E+01-5.42830E-04 2.66569E-04-2.16139E-02 4.25695E-14-3.19623E-13
 -1      1521 1.98334E+01-1.71698E-03-7.62271E-05-4.41400E-02 7.64204E-14-1.98533E-13
 -1      1522 1.99028E+01 1.79349E-04 1.90664E-04-2.06588E-02-1.02925E-14-3.76398E-13
 -1      1523 1.98739E+01 3.19567E-05 2.20003E-04-2.06573E-02-1.28341E-14-4.13089E-13
 -1      1524 1.98880E+01-7.73903E-04-1.54616E-04-4.13155E-02 4.25388E-14-2.96876E-13
 -1      1525 1.99607E+01 6.55813E-04 3.60426E-05-2.20461E-02 1.99192E-14-4.20882E-13
 -1      1526 1.99310E+01 7.37403E-04 1.99912E-04-2.15953E-02 3.58277E-14-3.78652E-13
 -1      1527 1.99426E+01 2.72530E-04-2.79342E-04-4.19863E-02 1.16921E-14-3.22058E-13
 -1      1528 2.00260E+01 1.20459E-03-1.21326E-04-2.57164E-02 2.43458E-15-4.53809E-13
 -1      1529 1.99925E+01 1.58725E-03 2.01013E-04-2.47115E-02 2.55700E-14-4.00801E-13
 -1      1530 2.00017E+01 1.43924E-03-4.56077E-04-4.67012E-02 4.06445E-14-3.04871E-13
 -1      1531 2.01049E+01 1.83381E-03-2.88628E-04-3.20043E-02 8.19842E-14-5.48596E-13
 -1      1532 2.00641E+01 2.59912E-03 2.18286E-04-3.03244E-02 2.07425E-14-4.82572E-13
 -1      1533 2.00704E+01 2.74736E-03-6.92447E-04-5.60648E-02 4.71685E-14-3.86808E-13
 -1      1534 2.02049E+01 2.54544E-03-4.72467E-04-4.12712E-02-1.72057E-14-6.55550E-13
 -1      1535 2.01528E+01 3.78735E-03 2.46206E-04-3.87795E-02 2.19476E-14-5.45554E-13
 -1      1536 2.01546E+01 4.21344E-03-9.96762E-04-7.07353E-02 4.72016E-14-3.74843E-13
 -1      1537 2.03340E+01 3.32747E-03-6.77524E-04-5.38665E-02 1.17838E-14-6.78696E-13
 -1      1538 2.02661E+01 5.15222E-03 2.77843E-04-5.04179E-02 1.15105E-14-6.30973E-13
 -1      1539 2.02612E+01 5.83676E-03-1.37579E-03-9.13799E-02-2.71649E-14-4.09142E-13
 -1      1540 2.05012E+01 4.14184E-03-9.03907E-04-7.00479E-02 5.45375E-15-6.11872E-13
 -1      1541 2.04124E+01 6.66289E-03 3.03938E-04-6.55074E-02-1.57065E-14-6.25076E-13
 -1      1542 2.03973E+01 7.58005E-03-1.83079E-03-1.18565E-01 3.60638E-15-3.98997E-13
 -1      1543 2.07153E+01 4.90597E-03-1.14196E-03-8.98384E-02-5.37615E-14-5.98497E-13
 -1      1544 2.06007E+01 8.23062E-03 3.12305E-04-8.41174E-02-1.51355E-15-6.38853E-13
 -1      1545 2.05704E+01 9.33960E-03-2.35064E-03-1.52554E-01-1.11729E-14-4.63304E-13
 -1      1546 2.09848E+01 5.46570E-03-1.36239E-03-1.12787E-01-6.91125E-14-4.15308E-13
 -1      1547 2.08395E+01 9.66781E-03 2.88504E-04-1.05910E-01-9.54491E-14-5.53707E-13
 -1      1548 2.07879E+01 1.08996E-02-2.90019E-03-1.92957E-01-1.16882E-13-4.75837E-13
 -1      1549 2.13155E+01 5.55877E-03-1.49869E-03-1.37596E-01-4.10248E-14-3.27579E-13
 -1      1550 2.11361E+01 1.06288E-02 2.19790E-04-1.29809E-01-2.64896E-14-3.75980E-13
 -1      1551 2.10555E+01 1.18656E-02-3.40148E-03-2.38173E-01-1.13838E-13-3.53639E-13
 -1      1552 2.17075E+01 4.77347E-03-1.41919E-03-1.61573E-01 1.87552E-13-5.41869E-13
 -1      1553 2.14936E+01 1.05338E-02 1.05640E-04-1.53517E-01 7.44104E-14-3.91837E-13
 -1      1554 2.13756E+01 1.15765E-02-3.70580E-03-2.84565E-01 1.07875E-13-2.78530E-13
 -1      1555 2.21512E+01 2.52129E-03-8.90991E-04-1.79918E-01 9.49241E-14-8.58189E-13
 -1      1556 2.19082E+01 8.49304E-03-2.12659E-05-1.72868E-01 1.66069E-13-6.21923E-13
 -1      1557 2.17443E+01 9.00989E-03-3.55822E-03-3.25319E-01 2.60067E-13-3.16217E-13
 -1      1558 2.26209E+01-1.92748E-03 4.45729E-04-1.84969E-01-1.51032E-13-6.79914E-13
 -1      1559 2.23633E+01 3.28783E-03-6.26825E-05-1.81115E-01-1.18673E-13-8.35417E-13
 -1      1560 2.21476E+01 2.73830E-03-2.56792E-03-3.49115E-01-9.45065E-14-2.31980E-13
 -1      1561 2.30672E+01-9.24706E-03 3.03819E-03-1.65825E-01-4.94656E-14-4.64316E-13
 -1      1562 2.28235E+01-6.46511E-03 1.76406E-04-1.68485E-01-7.08682E-14-5.71682E-13
 -1      1563 2.25560E+01-8.92596E-03-2.21535E-04-3.39081E-01-1.87571E-13-2.98110E-13
 -1      1564 2.34113E+01-1.95439E-02 7.20514E-03-1.09290E-01-3.63329E-14-4.20831E-13
 -1      1565 2.32277E+01-2.17363E-02 9.74481E-04-1.22760E-01-9.74915E-15-5.02617E-13
 -1      1566 2.29198E+01-2.73326E-02 3.97688E-03-2.73197E-01-2.35966E-14-3.47126E-13
 -1      1567 2.35454E+01-3.14040E-02 1.26139E-02-3.76096E-03-1.41319E-13-2.64740E-13
 -1      1568 2.34854E+01-4.18213E-02 2.55065E-03-3.22598E-02-9.54089E-14-3.73164E-13
 -1      1569 2.31667E+01-5.20622E-02 1.01287E-02-1.28379E-01-1.48215E-13-2.59091E-13
 -1      1570 2.33484E+01-4.07407E-02 1.74780E-02 1.52235E-01 9.03687E-14-1.98924E-13
 -1      1571 2.34835E+01-6.24332E-02 4.69843E-03 1.07155E-01-4.10548E-14-2.82776E-13
 -1      1572 2.32068E+01-7.84944E-02 1.72855E-02 1.08718E-01-8.60475E-14-1.39582E-13
 -1      1573 2.27281E+01-4.05702E-02 1.80903E-02 3.37405E-01 8.51567E-14-3.97848E-13
 -1      1574 2.31121E+01-7.42579E-02 6.26922E-03 2.80908E-01 1.12293E-13-2.33646E-13
 -1      1575 2.29523E+01-9.53591E-02 2.27925E-02 4.22750E-01 1.59015E-13-1.89030E-13
 -1      1576 2.16885E+01-2.37102E-02 1.00778E-02 4.97932E-01 3.51793E-14-4.61214E-13
 -1      1577 2.23166E+01-6.46332E-02 5.13360E-03 4.45247E-01 9.10261E-14-3.62210E-13
 -1      1578 2.23578E+01-8.55273E-02 2.25559E-02 7.48425E-01 1.56174E-13-1.58819E-13
 -1      1579 2.03976E+01 1.03837E-02-7.79198E-03 5.55730E-01 9.24808E-15-6.20989E-13
 -1      1580 2.11662E+01-2.53596E-02-6.14311E-04 5.29990E-01 5.51129E-14-5.51337E-13
 -1      1581 2.14742E+01-3.41405E-02 1.36425E-02 9.66307E-01 1.34181E-13-5.23540E-14
 -1      1582 1.91928E+01 4.95608E-02-2.98361E-02 4.48608E-01 9.75877E-14-7.57484E-13
 -1      1583 1.98994E+01 3.58212E-02-1.03848E-02 4.68767E-01 5.96589E-14-6.83752E-13
 -1      1584 2.04870E+01 5.39968E-02-2.55861E-03 9.43043E-01 1.15737E-13-2.10460E-13
 -1      1585 1.84688E+01 7.29460E-02-4.36698E-02 1.83071E-01-1.55395E-13-6.17955E-13
 -1      1586 1.88809E+01 9.26226E-02-1.96147E-02 2.48879E-01-1.22558E-13-8.05987E-13
 -1      1587 1.96849E+01 1.44046E-01-1.91878E-02 6.18080E-01-8.44082E-14-3.02838E-13
 -1      1588 1.84791E+01 6.48289E-02-3.85483E-02-1.42969E-01-1.06602E-13-4.04232E-13
 -1      1589 1.84529E+01 1.13244E-01-2.14193E-02-5.76421E-02-7.14619E-14-5.41704E-13
 -1      1590 1.93417E+01 1.85603E-01-2.66759E-02 7.78469E-02-1.53414E-13-5.83936E-13
 -1      1591 1.91729E+01 3.08392E-02-1.62503E-02-3.90011E-01 9.24356E-14-1.41040E-13
 -1      1592 1.87442E+01 8.63996E-02-1.31122E-02-3.21918E-01-5.00702E-14-2.45470E-13
 -1      1593 1.95584E+01 1.47888E-01-2.20598E-02-4.59451E-01-1.60236E-13-1.90733E-13
 -1      1594 2.02262E+01-8.72419E-03 9.24469E-03-4.69010E-01-1.79347E-13-2.54310E-14
 -1      1595 1.95890E+01 3.07332E-02 5.38800E-04-4.41731E-01 2.97663E-14-1.12611E-13
 -1      1596 2.01988E+01 5.32126E-02-1.05331E-02-7.76702E-01-5.63815E-14 9.57394E-14
 -1      1597 2.12327E+01-3.53369E-02 2.57040E-02-3.84448E-01 1.24640E-14 1.90632E-13
 -1      1598 2.06263E+01-2.31590E-02 1.15664E-02-3.97716E-01-1.25887E-13 6.69326E-14
 -1      1599 2.09755E+01-4.47262E-02 6.46112E-04-7.87417E-01-1.37020E-13 2.07147E-13
 -1      1600 2.18950E+01-4.31584E-02 2.92030E-02-2.06702E-01-6.14760E-14-1.86448E-13
 -1      1601 2.14931E+01-5.46737E-02 1.58117E-02-2.44157E-01 4.19595E-14 6.07292E-14
 -1      1602 2.16064E+01-1.03668E-01 7.54042E-03-5.54999E-01 8.57162E-14 4.31617E-14
 -1      1603 2.21033E+01-3.66943E-02 2.32648E-02-1.59977E-02 2.12793E-13-2.38152E-13
 -1      1604 2.19689E+01-6.07804E-02 1.38170E-02-5.88992E-02 1.38231E-13-4.80328E-14
 -1      1605 2.19255E+01-1.14254E-01 9.74767E-03-2.16839E-01 1.58333E-13 7.60954E-14
 -1      1606 2.19058E+01-2.31222E-02 1.35241E-02 1.33285E-01 1.53244E-13-5.22384E-13
 -1      1607 2.20091E+01-4.90559E-02 8.72917E-03 9.79175E-02 1.22630E-13-3.95975E-13
 -1      1608 2.19033E+01-9.09703E-02 8.65015E-03 1.01384E-01 2.70510E-13-2.07234E-13
 -1      1609 2.14386E+01-7.49216E-03 3.53120E-03 2.16755E-01 3.79930E-14-5.55337E-13
 -1      1610 2.16985E+01-2.82536E-02 3.33277E-03 1.95456E-01 4.76225E-14-4.22168E-13
 -1      1611 2.16081E+01-5.25655E-02 5.53869E-03 3.24260E-01 9.09611E-14 2.91624E-14
 -1      1612 2.08700E+01 7.90364E-03-5.48103E-03 2.28970E-01-8.98940E-14-5.43485E-13
 -1      1613 2.11865E+01-3.96696E-03-1.35768E-03 2.24380E-01 4.40452E-15-5.71598E-13
 -1      1614 2.11569E+01-1.11230E-02 9.23351E-04 4.21741E-01-6.10742E-15-5.01509E-14
 -1      1615 2.03681E+01 2.20339E-02-1.12621E-02 1.72190E-01 8.92684E-14-6.46523E-13
 -1      1616 2.06391E+01 2.13450E-02-5.06537E-03 1.86153E-01-2.85976E-14-6.61029E-13
 -1      1617 2.06777E+01 2.95734E-02-4.29954E-03 3.90298E-01-1.29011E-14-2.57927E-13
 -1      1618 2.00762E+01 3.31432E-02-1.06121E-03 6.39607E-02 1.00429E-14-6.76989E-13
 -1      1619 2.02088E+01 4.14128E-02-4.89777E-03 9.20191E-02 5.59531E-14-6.83082E-13
 -1      1620 2.02828E+01 6.56360E-02-6.71933E-03 2.43000E-01 1.64851E-13-4.64886E-13
 -1      1621 2.00077E+01 2.07399E-02 2.73821E-03 2.34085E-03-3.28807E-13-3.50928E-13
 -1      1622 2.00466E+01 3.05484E-01-5.71333E-03 1.51289E-01-4.50922E-13 6.23906E-14
 -1      1623 2.00505E+01 1.53007E-01 1.18336E-03 1.19973E-01-4.49390E-13-2.12612E-14
 -1      1624 2.00379E+01 8.21718E-01-3.22961E-03 2.73503E-01-7.56027E-14 4.29970E-13
 -1      1625 2.00451E+01 5.10412E-01-4.44616E-03 2.50914E-01-3.70121E-13 3.05662E-13
 -1      1626 2.00892E+01 4.52709E-01-1.03691E-02 3.91379E-01 1.40791E-14 2.55180E-13
 -1      1627 2.00255E+01 1.54089E+00-1.70361E-03 3.69467E-01 3.15165E-14 7.30960E-14
 -1      1628 2.00351E+01 1.10841E+00-3.90535E-03 3.52791E-01-8.46892E-15 3.54481E-13
 -1      1629 2.00645E+01 9.33657E-01-1.01273E-02 6.06155E-01 5.56400E-14 5.26281E-13
 -1      1630 2.00087E+01 2.40112E+00-9.61408E-04 4.28863E-01 2.39326E-13 3.67191E-14
 -1      1631 2.00211E+01 1.89362E+00-3.15201E-03 4.19982E-01-2.17742E-14 2.26620E-13
 -1      1632 2.00394E+01 1.56185E+00-7.35528E-03 7.62665E-01-1.35903E-13 2.40980E-13
 -1      1633 1.99860E+01 3.29223E+00-2.68309E-04 4.36577E-01-4.02456E-15-8.64525E-14
 -1      1634 2.00012E+01 2.77934E+00-2.24390E-03 4.39010E-01 1.31062E-13-1.95307E-13
 -1      1635 2.00076E+01 2.28405E+00-2.07504E-03 8.36915E-01-1.29039E-13-5.51329E-14
 -1      1636 1.99599E+01 4.11878E+00 1.03132E-03 3.78238E-01-3.82312E-13-2.35088E-13
 -1      1637 1.99760E+01 3.66048E+00-6.27154E-04 3.94894E-01-1.17479E-13-1.77287E-13
 -1      1638 1.99680E+01 3.02348E+00 5.04270E-03 8.01040E-01-9.30775E-14-3.37261E-13
 -1      1639 1.99373E+01 4.72299E+00 2.48560E-03 2.50192E-01-9.58740E-13-3.09816E-13
 -1      1640 1.99499E+01 4.40980E+00 1.35980E-03 2.80719E-01-6.54084E-13-1.91156E-13
 -1      1641 1.99252E+01 3.67901E+00 1.30833E-02 6.34181E-01-3.55491E-13-5.61906E-13
 -1      1642 1.99255E+01 4.98414E+00 3.39895E-03 6.84593E-02-4.96076E-13 2.61492E-13
 -1      1643 1.99306E+01 4.88118E+00 3.03412E-03 1.08002E-01-8.91814E-13-1.95989E-14
 -1      1644 1.98912E+01 4.12772E+00 1.97129E-02 3.44406E-01-3.40453E-13-2.14315E-13
 -1      1645 1.99289E+01 4.83930E+00 3.17342E-03-1.32824E-01-9.17877E-14 2.18484E-13
 -1      1646 1.99247E+01 4.97401E+00 3.72553E-03-9.25392E-02-5.07929E-13 3.96123E-13
 -1      1647 1.98768E+01 4.27683E+00 2.25404E-02-2.33682E-02-4.31231E-14 4.50470E-13
 -1      1648 1.99465E+01 4.30671E+00 1.82549E-03-3.12169E-01-5.62848E-13-4.18836E-13
 -1      1649 1.99347E+01 4.65867E+00 3.36804E-03-2.79801E-01-1.81482E-13-2.36538E-13
 -1      1650 1.98870E+01 4.08791E+00 2.03909E-02-3.96990E-01-3.55981E-13-8.37256E-14
 -1      1651 1.99729E+01 3.49660E+00 1.55044E-04-4.33751E-01-9.47346E-13-5.41177E-14
 -1      1652 1.99562E+01 3.99412E+00 2.16218E-03-4.15373E-01-4.95836E-13-4.62339E-13
 -1      1653 1.99198E+01 3.59689E+00 1.43174E-02-6.99281E-01-1.84171E-13-6.53115E-13
 -1      1654 2.00023E+01 2.52213E+00-1.78606E-03-4.83612E-01-1.09672E-12 2.76452E-14
 -1      1655 1.99839E+01 3.09683E+00 7.72428E-04-4.80190E-01-1.15578E-12 1.82498E-13
 -1      1656 1.99636E+01 2.89055E+00 5.91351E-03-8.79295E-01-2.98648E-13-1.78607E-14
 -1      1657 2.00299E+01 1.55586E+00-3.97097E-03-4.57169E-01-9.29763E-13 2.45181E-13
 -1      1658 2.00120E+01 2.10589E+00-1.10608E-03-4.67733E-01-1.12248E-12 3.19462E-13
 -1      1659 2.00123E+01 2.08199E+00-2.52277E-03-9.15417E-01-4.91347E-13 1.45866E-13
 -1      1660 2.00584E+01 7.62728E-01-1.02694E-03-3.56695E-01-5.83705E-13 2.66070E-13
 -1      1661 2.00367E+01 1.18624E+00-4.22765E-03-3.80752E-01-7.47818E-13 1.42030E-13
 -1      1662 2.00628E+01 1.30175E+00-9.12929E-03-8.05662E-01-4.11736E-13 3.66538E-13
 -1      1663 2.01123E+01 3.03334E-01 6.28166E-03-2.70038E-01-3.67048E-13-4.15137E-14
 -1      1664 2.01011E+01 5.36400E-01-3.04955E-03-3.35660E-01-3.76199E-13 9.68106E-14
 -1      1665 2.01537E+01 7.10812E-01-1.29343E-02-6.62419E-01-2.72199E-13 2.97501E-13
 -1      1666 2.03164E+01 3.20175E-01-4.32725E-03-5.18367E-01-1.43078E-13 1.13355E-13
 -1      1667-7.12211E-01-1.59924E+01-1.79659E+00-1.11759E+00 4.98712E-13 6.95000E-14
 -1      1668-6.70441E-01-1.81388E+01-2.00637E+00 2.82343E-01 1.28425E-13 2.38892E-13
 -1      1669 1.45381E+00-8.81876E+00-1.21235E+00 5.85450E-01 9.09717E-13 8.52318E-13
 -1      1670 6.70336E-01-1.41921E+01-1.74853E+00-7.64421E-03 5.60219E-13 3.27217E-13
 -1      1671 6.73721E+00-7.26474E-01-5.61751E-01 4.42118E+00 1.35048E-12 9.39027E-13
 -1      1672 3.69963E+00-6.57966E+00-1.34791E+00 1.49952E+00 1.16773E-12 8.49931E-13
 -1      1673 1.70293E+01 4.78098E+00 1.90114E-01 9.59787E+00 1.19160E-12 1.49503E-12
 -1      1674 1.06922E+01 1.29682E+00-6.77830E-01 5.87029E+00 1.30917E-12 1.16185E-12
 -1      1675 3.12858E+01 5.97442E+00 8.64416E-01 1.21909E+01 1.18539E-12 1.64646E-12
 -1      1676 2.24584E+01 5.52136E+00 9.25047E-02 1.01367E+01 1.14231E-12 1.60139E-12
 -1      1677 4.53332E+01 5.00982E+00 1.45873E+00 9.81589E+00 6.12843E-13 1.08935E-12
 -1      1678 3.62860E+01 6.41184E+00 7.88243E-01 1.11921E+01 1.00808E-12 1.29319E-12
 -1      1679 5.51195E+01 3.66537E+00 1.96895E+00 4.03464E+00 4.18443E-13 3.92519E-13
 -1      1680 5.00117E+01 5.05597E+00 1.57664E+00 9.04422E+00 5.37514E-13 1.03695E-12
 -1      1681 5.44860E+01 3.82763E+00 1.81379E+00-4.46708E+00 3.67428E-13-4.99489E-13
 -1      1682 5.59805E+01 3.45464E+00 1.93391E+00 1.21037E+00 4.37400E-13 1.42289E-13
 -1      1683 4.48019E+01 5.70945E+00 1.29519E+00-1.05119E+01 7.62557E-13-1.36469E-12
 -1      1684 5.19116E+01 4.06095E+00 1.79816E+00-6.88212E+00 4.53304E-13-9.10605E-13
 -1      1685 3.11046E+01 6.84029E+00 6.18765E-01-1.20843E+01 1.15657E-12-1.73106E-12
 -1      1686 4.03741E+01 5.86518E+00 1.37620E+00-1.21809E+01 8.38996E-13-1.63869E-12
 -1      1687 1.73262E+01 4.75522E+00-1.85594E-01-8.87657E+00 1.66955E-12-1.72928E-12
 -1      1688 2.57159E+01 6.39154E+00 7.19107E-01-1.19649E+01 1.42386E-12-1.74039E-12
 -1      1689 7.31169E+00-1.37816E+00-9.34616E-01-3.90141E+00 1.78435E-12-1.39544E-12
 -1      1690 1.24238E+01 3.30435E+00-6.98352E-02-7.63348E+00 1.87850E-12-1.66922E-12
 -1      1691 2.33420E+00-9.57021E+00-1.45238E+00-7.26424E-01 1.66533E-12-8.17457E-13
 -1      1692 4.31927E+00-3.78090E+00-7.88644E-01-2.74091E+00 1.73861E-12-1.15896E-12
 -1      1693-1.46587E-01-1.57793E+01-1.82719E+00 1.25503E-01 8.61922E-13-5.67379E-13
 -1      1694 8.89855E-02-1.15450E+01-1.42249E+00 5.29306E-01 1.45228E-12-7.28292E-13
 -1      1695-8.16086E-01-1.73141E+01-1.89745E+00-8.92642E-01-9.54792E-14-3.04284E-13
 -1      1696-8.02375E-01-1.69616E+01-1.85013E+00 8.04563E-01 5.71404E-13-5.13978E-13
 -1      1697-3.01613E-01-1.26435E+01-1.56905E+00-1.10076E+00-9.82436E-13-6.63976E-13
 -1      1698-3.78277E-01-1.66249E+01-1.93216E+00-4.08311E-01-3.31901E-13-3.76227E-13
 -1      1699 3.69076E+00-4.80201E+00-9.09420E-01 2.14062E+00-1.76481E-12-1.53894E-12
 -1      1700 1.89993E+00-1.05111E+01-1.55091E+00 3.17198E-01-1.21503E-12-9.82270E-13
 -1      1701 1.12185E+01 1.74746E+00-2.65996E-01 6.63343E+00-1.99618E-12-1.58396E-12
 -1      1702 6.80230E+00-2.74180E+00-1.03525E+00 3.31673E+00-2.00329E-12-1.51668E-12
 -1      1703 2.39356E+01 4.90300E+00 5.01860E-01 1.06420E+01-1.49036E-12-1.61382E-12
 -1      1704 1.63272E+01 2.75582E+00-3.45806E-01 7.54422E+00-1.85418E-12-1.58729E-12
 -1      1705 3.87022E+01 5.78197E+00 1.30065E+00 1.19778E+01-8.93841E-13-1.84919E-12
 -1      1706 2.88658E+01 6.29492E+00 4.32988E-01 1.12293E+01-1.22602E-12-1.82432E-12
 -1      1707 5.11919E+01 4.22762E+00 1.81350E+00 8.12476E+00-5.89598E-13-1.31029E-12
 -1      1708 4.35789E+01 5.88112E+00 1.25148E+00 1.11632E+01-7.69051E-13-1.65101E-12
 -1      1709 5.59169E+01 3.54565E+00 1.89489E+00 3.49760E-02-3.44613E-13-5.62009E-13
 -1      1710 5.35157E+01 4.20036E+00 1.76065E+00 5.65626E+00-5.31214E-13-1.09579E-12
 -1      1711 5.11267E+01 4.82604E+00 1.59257E+00-7.71494E+00-5.34295E-13 4.91496E-13
 -1      1712 5.51350E+01 3.72006E+00 1.86314E+00-2.56796E+00-3.96239E-13-1.41831E-13
 -1      1713 3.93060E+01 6.61485E+00 1.02121E+00-1.20031E+01-6.64135E-13 1.06803E-12
 -1      1714 4.81893E+01 4.92243E+00 1.69241E+00-9.93823E+00-4.81580E-13 7.60392E-13
 -1      1715 2.45085E+01 5.51047E+00 1.60089E-01-1.02486E+01-7.04214E-13 1.10578E-12
 -1      1716 3.42208E+01 5.84306E+00 1.05438E+00-1.21187E+01-6.46816E-13 1.05094E-12
 -1      1717 1.16787E+01 8.53836E-01-6.80841E-01-5.93558E+00-8.08464E-13 7.74936E-13
 -1      1718 1.88354E+01 4.49089E+00 2.64457E-01-9.89166E+00-7.95919E-13 1.15308E-12
 -1      1719 3.81662E+00-6.91958E+00-1.40905E+00-1.48402E+00-8.56648E-13 4.44866E-13
 -1      1720 7.06960E+00-1.01386E+00-5.83723E-01-4.52841E+00-8.18456E-13 4.11671E-13
 -1      1721 3.26184E-01-1.47386E+01-1.91027E+00 5.14252E-01-9.32143E-13 3.44513E-13
 -1      1722 9.95408E-01-9.21167E+00-1.34863E+00-1.12279E-02-1.05782E-12 3.84637E-13
 -1      1723-6.55356E-01-1.81961E+01-2.01351E+00-2.18362E-01-1.79523E-13 2.94598E-13
 -1      1724-7.06814E-01-1.61689E+01-1.84061E+00 1.18202E+00-6.69576E-13 3.91520E-13
 -1      1725 2.44796E+01 6.77592E-01 3.10100E-01 7.47523E+00 7.71605E-13 1.18361E-12
 -1      1726 1.39552E+01-3.35151E+00-3.62059E-01 6.45438E+00 8.66973E-13 8.54095E-13
 -1      1727 2.00522E+01 5.77286E-02-4.50392E-03 6.06961E-02-4.53554E-13-1.81837E-13
 -1      1728 2.01205E+01 1.73573E-01-4.65502E-03 2.04100E-01-3.46374E-14 4.90181E-14
 -1      1729 4.99040E-01-1.10076E+01-1.21229E+00 2.48256E+00 3.65208E-13 3.43559E-13
 -1      1730 5.85265E+00-7.83356E+00-8.89919E-01 4.59847E+00 5.56777E-13 1.00391E-12
 -1      1731-1.48986E+00-1.27643E+01-1.45687E+00 5.86280E-02-4.01068E-14 6.27720E-13
 -1      1732 3.46075E+01 3.63882E+00 7.87594E-01 6.09640E+00 7.33108E-13 5.40568E-13
 -1      1733 4.25476E+01 6.15604E+00 1.12688E+00 4.04836E+00 6.69159E-13 3.07643E-13
 -1      1734 4.80628E+01 7.22183E+00 1.61410E+00 1.39720E+00 7.80043E-13 4.32432E-14
 -1      1735 4.64440E+01 6.99120E+00 1.49840E+00-2.53778E+00 7.83484E-13-2.54630E-13
 -1      1736 4.02418E+01 5.64974E+00 1.17635E+00-5.77583E+00 7.97126E-13-9.25260E-13
 -1      1737 3.07754E+01 3.18137E+00 6.66197E-01-7.50960E+00 9.83991E-13-1.10412E-12
 -1      1738 1.99299E+01-4.73743E-01 1.17517E-02-7.19157E+00 1.22247E-12-1.17539E-12
 -1      1739 1.04160E+01-5.05767E+00-5.88499E-01-5.67563E+00 1.14264E-12-1.09349E-12
 -1      1740 3.36021E+00-8.80382E+00-9.54198E-01-3.80862E+00 8.30447E-13-7.87981E-13
 -1      1741-8.29161E-01-1.15563E+01-1.29494E+00-1.34723E+00 2.53797E-13-7.81986E-13
 -1      1742-1.10522E+00-1.20510E+01-1.37107E+00 7.64783E-01-9.40359E-14-6.81344E-13
 -1      1743 2.69994E+00-9.39921E+00-1.03065E+00 3.27721E+00-5.69100E-13-1.06470E-12
 -1      1744 9.82293E+00-5.80438E+00-6.07392E-01 5.38888E+00-1.01086E-12-1.26044E-12
 -1      1745 1.93958E+01-2.11352E+00-6.15071E-02 6.62959E+00-1.20193E-12-9.13714E-13
 -1      1746 2.95033E+01 1.45640E+00 4.20886E-01 6.50916E+00-9.71501E-13-9.90874E-13
 -1      1747 3.92943E+01 4.95399E+00 1.06066E+00 5.80812E+00-7.34184E-13-1.28075E-12
 -1      1748 4.61803E+01 6.80938E+00 1.49703E+00 3.05371E+00-6.97442E-13-7.05380E-13
 -1      1749 4.73931E+01 7.64266E+00 1.55882E+00-6.60722E-01-7.46569E-13-2.45977E-13
 -1      1750 4.42411E+01 6.78841E+00 1.39621E+00-4.04791E+00-7.01439E-13 4.89164E-13
 -1      1751 3.65257E+01 4.06338E+00 8.84819E-01-6.05379E+00-5.00322E-13 5.98410E-13
 -1      1752 2.62582E+01 2.81048E-01 3.27419E-01-6.99055E+00-3.55271E-13 5.90084E-13
 -1      1753 1.50809E+01-3.74881E+00-3.01657E-01-6.55905E+00-3.80362E-13 3.80196E-13
 -1      1754 5.80333E+00-8.03539E+00-9.13207E-01-4.48869E+00-5.28688E-13 1.96676E-13
 -1      1755 1.92223E-01-1.15285E+01-1.34511E+00-2.03628E+00-2.98483E-13 5.30742E-13
 -1      1756 2.28590E+01 1.98501E+00-2.35738E-02-2.72282E+00-1.82656E-13 1.26837E-12
 -1      1757 1.98230E+01 3.71431E+00-3.55569E-02-2.15280E+00-3.18042E-13-4.20219E-14
 -1      1758 2.00580E+01 3.56208E+00-4.02645E-02-2.44578E+00-3.45890E-13 8.07063E-14
 -1      1759 2.03633E+01 3.18179E+00-4.57148E-02-2.58566E+00-3.25282E-13 2.22336E-13
 -1      1760 2.05831E+01 2.81004E+00-1.42538E-01-2.85403E+00-3.28425E-13 4.17069E-13
 -1      1761 2.04232E+01 2.69337E+00-4.44514E-03-2.22674E+00-3.49904E-13 1.59612E-13
 -1      1762 1.93547E+01 4.18934E+00-2.02046E-02-1.27137E+00-2.41185E-13-2.83934E-13
 -1      1763 1.94278E+01 4.14901E+00-1.75119E-02-1.49567E+00-2.69284E-13-2.44613E-13
 -1      1764 1.92589E+01 4.29445E+00-1.67984E-02-8.60208E-01-1.84022E-13-3.33759E-13
 -1      1765 1.93014E+01 4.27070E+00-1.43424E-02-1.07102E+00-2.14956E-13-3.08522E-13
 -1      1766 1.95272E+01 3.78257E+00-9.21388E-03-1.12082E+00-2.45961E-13-2.73616E-13
 -1      1767 1.92076E+01 4.35483E+00-1.48084E-02-4.67045E-01-1.26580E-13-3.67753E-13
 -1      1768 1.92295E+01 4.34203E+00-1.33185E-02-6.67437E-01-1.56144E-13-3.51752E-13
 -1      1769 1.94305E+01 3.90283E+00-9.19899E-03-7.33672E-01-1.76355E-13-3.20598E-13
 -1      1770 1.91883E+01 4.38045E+00-1.36744E-02-8.36729E-02-7.61525E-14-4.04888E-13
 -1      1771 1.91947E+01 4.37653E+00-1.32228E-02-2.79214E-01-9.81123E-14-3.97000E-13
 -1      1772 1.93803E+01 3.96737E+00-9.16027E-03-3.58489E-01-1.15222E-13-3.69357E-13
 -1      1773 1.91964E+01 4.37517E+00-1.31763E-02 2.98276E-01-2.36265E-14-4.09218E-13
 -1      1774 1.91888E+01 4.37963E+00-1.37568E-02 1.02579E-01-4.84536E-14-4.01477E-13
 -1      1775 1.93656E+01 3.98679E+00-9.14864E-03 1.05743E-02-6.31998E-14-3.94768E-13
 -1      1776 1.92335E+01 4.33800E+00-1.33350E-02 6.87186E-01 2.29233E-14-4.13568E-13
 -1      1777 1.92104E+01 4.35169E+00-1.49195E-02 4.86303E-01 4.23218E-15-4.13510E-13
 -1      1778 1.93830E+01 3.96411E+00-9.19036E-03 3.79811E-01-1.68157E-14-3.91390E-13
 -1      1779 1.93068E+01 4.26463E+00-1.44160E-02 1.08498E+00 9.81801E-14-3.87522E-13
 -1      1780 1.92636E+01 4.28910E+00-1.69741E-02 8.76953E-01 5.85272E-14-3.98584E-13
 -1      1781 1.94356E+01 3.89665E+00-9.19653E-03 7.52139E-01 4.10854E-14-3.85483E-13
 -1      1782 1.94382E+01 4.13746E+00-1.74096E-02 1.51509E+00 1.81483E-13-3.39732E-13
 -1      1783 1.93618E+01 4.18004E+00-2.05021E-02 1.28551E+00 1.35911E-13-3.61527E-13
 -1      1784 1.95351E+01 3.77279E+00-9.24212E-03 1.13603E+00 1.28601E-13-3.49160E-13
 -1      1785 1.96671E+01 3.92097E+00-2.52008E-02 1.98021E+00 2.54086E-13-2.86628E-13
 -1      1786 1.95344E+01 3.99773E+00-2.69016E-02 1.72286E+00 2.17480E-13-3.21809E-13
 -1      1787 1.97081E+01 3.56578E+00-8.70219E-03 1.53584E+00 2.14628E-13-3.03705E-13
 -1      1788 2.00755E+01 3.52271E+00-4.51917E-02 2.47263E+00 3.12361E-13-1.56535E-13
 -1      1789 1.98355E+01 3.68316E+00-3.97218E-02 2.18354E+00 2.72477E-13-2.35166E-13
 -1      1790 2.00043E+01 3.22274E+00-5.27370E-03 1.93520E+00 2.83889E-13-2.26843E-13
 -1      1791 2.09207E+01 2.68181E+00-5.76534E-02 2.85825E+00 3.28128E-13 1.41977E-13
 -1      1792 2.04133E+01 3.09691E+00-5.04280E-02 2.61651E+00 3.13714E-13-4.03497E-14
 -1      1793 2.05172E+01 2.60988E+00 3.18571E-03 2.24513E+00 3.27661E-13-7.44370E-14
 -1      1794 2.17309E+01 1.21300E+00-1.22096E-01 2.33022E+00 2.95527E-13 5.32879E-13
 -1      1795 2.12745E+01 2.26306E+00 1.19158E-04 2.74087E+00 3.14530E-13 2.76640E-13
 -1      1796 2.09372E+01 1.68502E+00-2.29649E-02 2.14069E+00 3.35294E-13 1.50224E-13
 -1      1797 2.09521E+01 7.78683E-01-6.24562E-02 1.52453E+00 3.08288E-13 4.38954E-13
 -1      1798 2.17968E+01 2.45832E+00 9.08601E-02-3.04860E+00-2.60330E-13 7.28723E-13
 -1      1799 2.01010E+01 2.97918E-01-8.91914E-03 6.57415E-01 2.30392E-13 3.13655E-13
 -1      1800 2.06533E+01 4.40396E-01-1.24682E-02 1.03443E+00 2.58994E-13 3.96533E-13
 -1      1801 2.07445E+01 8.45117E-01 2.25348E-03 1.41559E+00 2.98702E-13 2.30710E-13
 -1      1802 2.15070E+01 1.74278E+00 7.94502E-02-2.33758E+00-2.93748E-13 5.83124E-13
 -1      1803 2.05209E+01 5.00421E-01 3.25303E-02-9.22095E-01-2.36693E-13 5.17992E-13
 -1      1804 2.00887E+01 3.51797E-01 7.57352E-03-6.30340E-01-2.14932E-13 4.49400E-13
 -1      1805 1.98940E+01 2.57313E-01 2.74160E-02-3.92007E-01-1.84948E-13 4.26598E-13
 -1      1806 1.97027E+01 1.78057E-01 1.04001E-02-2.54177E-01-1.66244E-13 3.74601E-13
 -1      1807 2.01988E+01 4.83736E-01-5.72274E-03-7.23727E-01-2.46475E-13 2.85599E-13
 -1      1808 1.95807E+01 1.32659E-01 1.66810E-02-1.20650E-01-1.43532E-13 3.65315E-13
 -1      1809 1.95022E+01 9.29331E-02 6.97177E-03-4.99406E-02-1.09420E-13 3.25335E-13
 -1      1810 1.98723E+01 2.43997E-01-5.70430E-03-2.96552E-01-1.82375E-13 2.46529E-13
 -1      1811 1.94372E+01 6.82283E-02 8.69394E-03 2.34494E-02-7.35943E-14 3.00721E-13
 -1      1812 1.94223E+01 4.65174E-02 4.10651E-03 5.95133E-02-7.24828E-14 2.93330E-13
 -1      1813 1.96893E+01 1.24993E-01-4.61123E-03-5.99476E-02-1.21365E-13 2.12553E-13
 -1      1814 1.93960E+01 3.21775E-02 4.23788E-03 9.80819E-02-7.03036E-14 2.67910E-13
 -1      1815 1.94153E+01 1.97414E-02 2.42634E-03 1.14735E-01-6.18876E-14 2.37458E-13
 -1      1816 1.96023E+01 6.06300E-02-3.45212E-03 6.93331E-02-8.76043E-14 1.50135E-13
 -1      1817 1.94133E+01 1.11216E-02 1.85695E-03 1.32531E-01-7.53658E-14 2.31922E-13
 -1      1818 1.94499E+01 3.96880E-03 1.44673E-03 1.37856E-01-7.26466E-14 2.18946E-13
 -1      1819 1.95776E+01 2.37633E-02-2.33796E-03 1.35450E-01-8.76705E-14 1.12599E-13
 -1      1820 1.94622E+01-1.18260E-03 5.60585E-04 1.43170E-01-7.96091E-14 2.23029E-13
 -1      1821 1.95059E+01-5.10572E-03 8.43219E-04 1.41907E-01-7.67997E-14 2.01644E-13
 -1      1822 1.95906E+01 2.31995E-03-1.44550E-03 1.63561E-01-8.10939E-14 8.06026E-14
 -1      1823 1.95257E+01-8.02017E-03-1.52997E-04 1.39915E-01-9.60741E-14 1.95918E-13
 -1      1824 1.95706E+01-9.87812E-03 4.63758E-04 1.35042E-01-7.90482E-14 1.98111E-13
 -1      1825 1.96248E+01-9.76100E-03-8.09191E-04 1.68914E-01-8.06349E-14 4.02524E-14
 -1      1826 1.95937E+01-1.12969E-02-5.28079E-04 1.29112E-01-8.83307E-14 1.82221E-13
 -1      1827 1.96366E+01-1.17990E-02 2.36016E-04 1.22581E-01-5.61895E-14 1.15755E-13
 -1      1828 1.96694E+01-1.58517E-02-3.89737E-04 1.61227E-01-1.17787E-13 7.59971E-14
 -1      1829 1.96604E+01-1.21958E-02-6.93346E-04 1.14967E-01-2.03179E-15 7.75812E-14
 -1      1830 1.96996E+01-1.17907E-02 1.20066E-04 1.08089E-01 7.71179E-15 7.97179E-14
 -1      1831 1.97176E+01-1.79849E-02-1.34640E-04 1.46916E-01-8.53901E-14 5.62656E-14
 -1      1832 1.97227E+01-1.14753E-02-7.24235E-04 1.00330E-01-3.84507E-14 6.75468E-14
 -1      1833 1.97578E+01-1.04460E-02 9.13422E-05 9.40052E-02-6.12536E-14 6.56219E-14
 -1      1834 1.97654E+01-1.74434E-02 8.94118E-08 1.30321E-01-2.14107E-14 5.17654E-14
 -1      1835 1.97797E+01-9.61687E-03-6.68271E-04 8.71823E-02-5.77034E-14 5.69382E-14
 -1      1836 1.98110E+01-8.13205E-03 1.34894E-04 8.20543E-02-6.15970E-14 6.43639E-14
 -1      1837 1.98111E+01-1.50414E-02 4.67337E-05 1.14449E-01-7.10954E-14 6.26285E-15
 -1      1838 1.98318E+01-6.90766E-03-5.56181E-04 7.69621E-02-6.84431E-14 9.49210E-14
 -1      1839 1.98604E+01-5.05215E-03 2.42934E-04 7.35236E-02-5.11506E-14 1.18491E-13
 -1      1840 1.98543E+01-1.12723E-02 2.77196E-05 1.01451E-01-5.55572E-14 7.13539E-14
 -1      1841 1.98807E+01-3.49016E-03-4.07661E-04 7.07985E-02-4.24633E-14 1.19300E-13
 -1      1842 1.99079E+01-1.28464E-03 4.13345E-04 6.94730E-02-3.12447E-14 1.19255E-13
 -1      1843 1.98958E+01-6.39630E-03-4.20082E-05 9.29715E-02-4.61277E-14 6.44464E-14
 -1      1844 1.99286E+01 6.04005E-04-2.34917E-04 6.96877E-02-6.27338E-14 1.05653E-13
 -1      1845 1.99564E+01 3.18876E-03 6.48501E-04 7.08918E-02-6.48541E-14 6.44723E-14
 -1      1846 1.99370E+01-4.95781E-04-1.52995E-04 9.03913E-02-5.82534E-14 9.77958E-14
 -1      1847 1.99788E+01 5.42881E-03-4.51576E-05 7.46272E-02-4.59199E-14-3.00335E-14
 -1      1848 2.00095E+01 8.46035E-03 9.54133E-04 7.88177E-02-5.16290E-14-1.41839E-14
 -1      1849 1.99803E+01 6.48360E-03-2.99648E-04 9.50211E-02-1.20994E-13 3.20940E-14
 -1      1850 2.00352E+01 1.11021E-02 1.57428E-04 8.67157E-02-5.87993E-14 4.10202E-15
 -1      1851 2.00713E+01 1.46749E-02 1.33792E-03 9.44234E-02-6.51282E-14 1.22752E-14
 -1      1852 2.00287E+01 1.46994E-02-4.78841E-04 1.08240E-01-6.37009E-14-2.59872E-14
 -1      1853 2.01022E+01 1.77828E-02 3.69909E-04 1.07221E-01-3.02879E-14 4.41780E-14
 -1      1854 2.01470E+01 2.20036E-02 1.80741E-03 1.19070E-01 3.97568E-14 2.96888E-14
 -1      1855 2.00855E+01 2.43785E-02-6.88603E-04 1.31592E-01-1.70937E-14 3.85525E-15
 -1      1856 2.01853E+01 2.56407E-02 5.88852E-04 1.37609E-01 5.29255E-14-1.00133E-14
 -1      1857 2.02424E+01 3.06068E-02 2.36662E-03 1.54317E-01 3.52866E-14-3.35567E-14
 -1      1858 2.01551E+01 3.57740E-02-9.26789E-04 1.66835E-01 6.33635E-15 1.44130E-15
 -1      1859 2.02906E+01 3.48094E-02 8.08389E-04 1.79520E-01 1.57983E-14-4.08276E-14
 -1      1860 2.03642E+01 4.05709E-02 3.01028E-03 2.01860E-01 5.56087E-15-2.18498E-14
 -1      1861 2.02420E+01 4.91000E-02-1.18978E-03 2.15922E-01 5.96214E-15-3.91672E-14
 -1      1862 2.04250E+01 4.53066E-02 1.01806E-03 2.34654E-01 4.82237E-14-1.86687E-14
 -1      1863 2.05199E+01 5.18000E-02 3.71407E-03 2.63365E-01 1.39125E-13 2.70071E-14
 -1      1864 2.03517E+01 6.44207E-02-1.47124E-03 2.80891E-01 4.31953E-14 5.40708E-14
 -1      1865 2.05962E+01 5.68935E-02 1.20052E-03 3.04513E-01 9.76918E-14-4.05872E-15
 -1      1866 2.07174E+01 6.38253E-02 4.41886E-03 3.40109E-01 5.89450E-14-1.30718E-14
 -1      1867 2.04900E+01 8.14574E-02-1.76144E-03 3.63589E-01 8.82152E-14-4.93682E-14
 -1      1868 2.08122E+01 6.88322E-02 1.32978E-03 3.89893E-01 1.59627E-14-2.33537E-14
 -1      1869 2.09645E+01 7.54806E-02 5.00655E-03 4.32303E-01-1.77250E-14-3.32713E-14
 -1      1870 2.06628E+01 9.92530E-02-2.04764E-03 4.65137E-01 8.78551E-15-1.37165E-13
 -1      1871 2.10808E+01 7.94786E-02 1.37164E-03 4.89960E-01-1.61603E-14-6.56768E-14
 -1      1872 2.12681E+01 8.43753E-02 5.26684E-03 5.37899E-01-5.18658E-14-1.00793E-13
 -1      1873 2.08761E+01 1.15610E-01-2.31680E-03 5.84974E-01-3.98054E-15-2.21758E-13
 -1      1874 2.14085E+01 8.56421E-02 1.28979E-03 6.00683E-01-7.51274E-14-8.69608E-14
 -1      1875 2.16323E+01 8.61060E-02 4.85953E-03 6.50609E-01-1.15365E-13-8.10683E-14
 -1      1876 2.11355E+01 1.26200E-01-2.56155E-03 7.19230E-01-3.29051E-14-2.21130E-13
 -1      1877 2.17989E+01 8.16824E-02 1.06287E-03 7.12330E-01-1.41128E-13-6.45207E-14
 -1      1878 2.20561E+01 7.32527E-02 3.29119E-03 7.56877E-01-2.47144E-14-9.06775E-14
 -1      1879 2.14452E+01 1.23298E-01-2.78855E-03 8.58158E-01-5.68303E-14-1.08777E-13
 -1      1880 2.22498E+01 5.85008E-02 7.15536E-04 8.05826E-01 1.02419E-13-1.05440E-13
 -1      1881 2.25294E+01 3.45525E-02-4.73232E-05 8.31767E-01 1.54685E-13 2.30111E-14
 -1      1882 2.18072E+01 9.43209E-02-3.02144E-03 9.82372E-01 1.89229E-14-1.06153E-13
 -1      1883 2.27498E+01 3.12970E-03 3.50420E-04 8.48268E-01 8.98723E-14 8.81183E-14
 -1      1884 2.30286E+01-4.45018E-02-5.69596E-03 8.34666E-01 3.77925E-14 1.23443E-13
 -1      1885 2.22208E+01 2.10774E-02-3.27374E-03 1.05805E+00 1.31181E-13-3.25710E-14
 -1      1886 2.32727E+01-9.91981E-02 1.18945E-04 7.89374E-01 8.46025E-15 1.07168E-13
 -1      1887 2.35115E+01-1.76759E-01-1.36260E-02 7.07889E-01 5.44165E-14 1.13117E-13
 -1      1888 2.26801E+01-1.17808E-01-3.44082E-03 1.03251E+00 7.32743E-14 1.29674E-13
 -1      1889 2.37695E+01-2.56625E-01 8.24402E-05 5.63922E-01 3.67978E-14 2.38046E-13
 -1      1890 2.39127E+01-3.59547E-01-2.23445E-02 3.85540E-01-1.60037E-14 3.58014E-13
 -1      1891 2.31705E+01-3.36296E-01-3.00520E-03 8.34244E-01 6.72578E-14 3.25971E-13
 -1      1892 2.41594E+01-4.51244E-01-3.53305E-04 1.10751E-01 2.11376E-15 5.01820E-13
 -1      1893 2.41433E+01-5.48850E-01-2.78769E-02-1.75221E-01 1.30333E-13 4.75002E-13
 -1      1894 2.36581E+01-6.15291E-01-6.69960E-04 3.87045E-01 4.96738E-14 6.31877E-13
 -1      1895 2.43245E+01-6.09310E-01-2.89784E-03-5.77156E-01 1.42044E-13 3.98082E-13
 -1      1896 2.41012E+01-6.32977E-01-2.42229E-02-9.29401E-01 1.92220E-13 4.55036E-13
 -1      1897 2.40711E+01-8.62242E-01 5.19805E-03-3.46551E-01 8.09283E-14 6.21187E-13
 -1      1898 2.41302E+01-5.88028E-01-9.95668E-03-1.36880E+00 1.15838E-13 3.87608E-13
 -1      1899 2.37083E+01-4.53113E-01-7.84618E-03-1.66287E+00 3.32885E-14 3.41322E-13
 -1      1900 2.42811E+01-8.86747E-01 1.35419E-02-1.27882E+00 1.07990E-13 4.85512E-13
 -1      1901 2.35140E+01-2.41179E-01-1.92510E-02-1.93531E+00-7.26719E-14 2.16686E-13
 -1      1902 2.29936E+01 6.97118E-02 1.45246E-02-1.98465E+00-2.55379E-13 2.65322E-13
 -1      1903 2.41369E+01-4.79331E-01 1.53068E-02-2.09939E+00-1.28187E-13 3.72020E-13
 -1      1904 2.26282E+01 4.00715E-01-2.17715E-02-1.84643E+00-3.39326E-13 2.32616E-13
 -1      1905 2.21934E+01 7.38231E-01 2.33948E-02-1.52463E+00-2.97866E-13 7.26389E-14
 -1      1906 2.36059E+01 3.74579E-01 4.60469E-04-2.29883E+00-2.52996E-13 3.24150E-13
 -1      1907 2.18993E+01 9.82075E-01-6.98846E-03-9.27857E-01-8.08000E-14 1.79579E-14
 -1      1908 2.17261E+01 1.10066E+00 8.73688E-03-3.37099E-01-7.56929E-14 1.38312E-13
 -1      1909 2.29622E+01 1.25500E+00-2.97278E-02-1.49909E+00-2.36294E-13 1.71923E-13
 -1      1910 2.17402E+01 1.05655E+00 1.69056E-02 4.25273E-01-2.10252E-13 1.02093E-13
 -1      1911 2.18912E+01 8.53029E-01-1.37395E-02 9.65870E-01-2.10117E-13 8.21322E-14
 -1      1912 2.26823E+01 1.56341E+00-3.97128E-02 4.95608E-02-1.65791E-13 3.90939E-14
 -1      1913 2.21641E+01 5.57777E-01 2.47762E-02 1.44958E+00-9.56422E-14 2.04597E-13
 -1      1914 2.25369E+01 1.98714E-01-2.35953E-02 1.66220E+00-4.04607E-14 3.09155E-13
 -1      1915 2.29589E+01 1.04098E+00-2.00160E-02 1.45533E+00-4.39770E-14-6.68953E-17
 -1      1916 2.27996E+01-1.15715E-01 1.00323E-02 1.66099E+00-1.73561E-13 3.46927E-13
 -1      1917 2.31973E+01-3.87995E-01-1.82834E-02 1.51824E+00 1.26114E-14 3.71750E-13
 -1      1918 2.34722E+01 9.16684E-02 6.36011E-03 1.96010E+00-8.74821E-14 3.50725E-13
 -1      1919 2.32553E+01-5.53579E-01-1.22988E-02 1.16373E+00 8.59191E-14 2.01684E-13
 -1      1920 2.35124E+01-6.39980E-01-8.84344E-03 8.26396E-01 2.90573E-13 2.17390E-13
 -1      1921 2.37620E+01-6.63835E-01 1.72884E-02 1.51734E+00-4.93546E-14 5.34147E-13
 -1      1922 2.33573E+01-6.46884E-01-2.54394E-02 3.69972E-01 5.28095E-13 3.57483E-15
 -1      1923 2.34007E+01-5.92495E-01-2.75965E-03 1.81942E-02 3.89399E-13 1.73433E-13
 -1      1924 2.36467E+01-9.41552E-01 1.16979E-02 5.96664E-01 2.34964E-13 2.39899E-13
 -1      1925 2.31184E+01-5.12531E-01-2.58835E-02-3.60753E-01 2.56779E-13 3.20844E-13
 -1      1926 2.29633E+01-4.01084E-01 1.11960E-04-6.21969E-01 3.32845E-13 5.03648E-13
 -1      1927 2.32120E+01-8.25895E-01 2.94882E-03-3.21735E-01 4.90389E-13 1.61648E-13
 -1      1928 2.26351E+01-2.99041E-01-1.85814E-02-8.55449E-01 2.30122E-13 4.73202E-13
 -1      1929 2.23457E+01-1.85131E-01 2.44511E-03-9.94906E-01 9.32566E-14 5.44049E-13
 -1      1930 2.26164E+01-5.32170E-01-2.16855E-03-9.82080E-01 2.94551E-13 4.10941E-13
 -1      1931 2.20201E+01-9.15402E-02-9.52767E-03-1.08237E+00-2.10023E-13 6.61223E-13
 -1      1932 2.16730E+01 6.41383E-03 4.99326E-03-1.10677E+00-2.37908E-13 5.32322E-13
 -1      1933 2.19786E+01-2.16243E-01-4.17199E-03-1.32187E+00-4.71801E-15 5.96078E-13
 -1      1934 2.13737E+01 8.70034E-02-2.45364E-03-1.07103E+00-1.59484E-13 3.57260E-13
 -1      1935 2.10392E+01 1.70658E-01 7.28733E-03-9.95831E-01-7.78412E-14 4.70672E-13
 -1      1936 2.13689E+01 6.26169E-02-4.42064E-03-1.36876E+00-3.46741E-13 5.95963E-13
 -1      1937 2.08057E+01 2.27373E-01 1.23077E-03-8.64328E-01-9.23003E-15 3.14704E-13
 -1      1938 2.05355E+01 2.96253E-01 1.05019E-02-7.11469E-01-3.87962E-14 2.90952E-13
 -1      1939 2.04406E+01 4.33044E-01-2.87397E-03-8.37737E-01-1.92451E-13 4.20942E-13
 -1      1940 2.08506E+01 2.92853E-01-3.54323E-03-1.18001E+00-1.04005E-13 5.32681E-13
 -1      1941 1.96180E+01 1.41999E-01 7.87927E-03 2.59845E-01 1.78474E-13 2.37792E-13
 -1      1942 1.98903E+01 2.04064E-01 1.64332E-02 4.32816E-01 1.96603E-13 2.93069E-13
 -1      1943 2.01019E+01 3.50519E-01-1.52411E-03 6.55480E-01 2.41876E-13 1.84290E-13
 -1      1944 1.93753E+01 7.18627E-02 6.94177E-03 5.69405E-02 1.19326E-13 1.37574E-13
 -1      1945 1.94905E+01 1.01754E-01 1.41944E-02 1.45420E-01 1.33509E-13 2.03731E-13
 -1      1946 1.97089E+01 1.65122E-01-1.94425E-03 2.56801E-01 1.68941E-13 1.40397E-13
 -1      1947 1.92843E+01 3.60867E-02 4.42406E-03-4.84259E-02 9.02286E-14 7.13951E-14
 -1      1948 1.93148E+01 5.19003E-02 8.33351E-03-1.26999E-03 8.81073E-14 1.13558E-13
 -1      1949 1.95083E+01 8.06048E-02-2.82285E-03 4.49062E-02 1.18384E-13 5.01005E-14
 -1      1950 1.92821E+01 1.61678E-02 2.85624E-03-1.00840E-01 3.71049E-14 9.79555E-15
 -1      1951 1.92672E+01 2.50177E-02 4.34933E-03-7.62620E-02 6.19992E-14 5.45241E-14
 -1      1952 1.94289E+01 3.74010E-02-2.84474E-03-6.68906E-02 8.21975E-14 3.87385E-15
 -1      1953 1.93288E+01 4.57759E-03 1.98580E-03-1.22915E-01 5.75260E-14 1.63975E-15
 -1      1954 1.92908E+01 9.59018E-03 2.14863E-03-1.11507E-01 3.27532E-14 1.18152E-14
 -1      1955 1.94219E+01 1.36163E-02-2.31426E-03-1.22393E-01 6.24275E-14-1.68992E-14
 -1      1956 1.93999E+01-2.13915E-03 1.44823E-03-1.27215E-01 6.87920E-14-4.86850E-15
 -1      1957 1.93517E+01 5.73890E-04 9.56305E-04-1.23693E-01 6.81959E-14 1.18839E-14
 -1      1958 1.94561E+01 1.09985E-04-1.69553E-03-1.44994E-01 7.25086E-14-1.29090E-14
 -1      1959 1.94802E+01-5.79185E-03 1.07445E-03-1.21347E-01 7.87017E-14-9.14591E-14
 -1      1960 1.94294E+01-4.52067E-03 2.91494E-04-1.22470E-01 6.15780E-14-4.40476E-14
 -1      1961 1.95115E+01-7.36406E-03-1.17790E-03-1.48233E-01 9.33326E-14-2.53611E-14
 -1      1962 1.95607E+01-7.43629E-03 8.01622E-04-1.10175E-01 4.43139E-14-9.52440E-14
 -1      1963 1.95117E+01-7.08734E-03-7.98440E-05-1.13841E-01 6.27600E-14-1.01331E-13
 -1      1964 1.95756E+01-1.10597E-02-7.93309E-04-1.40495E-01 7.93615E-14-4.68576E-14
 -1      1965 1.96366E+01-7.73321E-03 6.04303E-04-9.69151E-02 6.38794E-14-1.04681E-13
 -1      1966 1.95917E+01-7.97494E-03-2.71599E-04-1.01711E-01 6.13544E-14-1.00772E-13
 -1      1967 1.96410E+01-1.22961E-02-5.23634E-04-1.27220E-01 6.48985E-14-7.22363E-14
 -1      1968 1.97057E+01-7.10784E-03 4.69196E-04-8.37418E-02 1.56507E-14-6.08721E-14
 -1      1969 1.96656E+01-7.72500E-03-3.45752E-04-8.86946E-02 5.18008E-14-8.55541E-14
 -1      1970 1.97034E+01-1.18942E-02-3.43920E-04-1.12043E-01 4.01212E-14-1.24966E-13
 -1      1971 1.97676E+01-5.82963E-03 3.87990E-04-7.21585E-02 6.25891E-14-1.33178E-13
 -1      1972 1.97323E+01-6.68462E-03-3.39818E-04-7.65792E-02 3.15563E-14-1.08220E-13
 -1      1973 1.97611E+01-1.03750E-02-2.33828E-04-9.74444E-02 4.84539E-14-9.28853E-14
 -1      1974 1.98234E+01-4.05776E-03 3.55526E-04-6.32524E-02 7.30628E-14-1.54329E-13
 -1      1975 1.97921E+01-5.06723E-03-2.77586E-04-6.66281E-02 5.83869E-14-1.47928E-13
 -1      1976 1.98140E+01-8.05849E-03-1.78634E-04-8.51739E-02 6.53331E-14-1.32996E-13
 -1      1977 1.98752E+01-1.87051E-03 3.69102E-04-5.78739E-02 8.09196E-14-1.84100E-13
 -1      1978 1.98466E+01-2.98965E-03-1.74033E-04-5.97900E-02 8.55632E-14-1.47673E-13
 -1      1979 1.98630E+01-5.12279E-03-1.68268E-04-7.65302E-02 1.02004E-13-1.89790E-13
 -1      1980 1.99258E+01 7.13165E-04 4.27933E-04-5.67680E-02 4.31574E-14-2.91868E-13
 -1      1981 1.98982E+01-4.97570E-04-3.81472E-05-5.68506E-02 8.83426E-14-2.14600E-13
 -1      1982 1.99102E+01-1.64227E-03-1.96274E-04-7.25675E-02 1.07640E-13-1.89379E-13
 -1      1983 1.99788E+01 3.71490E-03 5.32512E-04-6.06670E-02 1.55041E-14-2.71495E-13
 -1      1984 1.99501E+01 2.41397E-03 1.25056E-04-5.85406E-02 5.30998E-15-2.97100E-13
 -1      1985 1.99582E+01 2.38244E-03-2.58932E-04-7.42406E-02 6.59650E-14-2.01175E-13
 -1      1986 2.00386E+01 7.17788E-03 6.83663E-04-7.03476E-02 7.76361E-14-3.14073E-13
 -1      1987 2.00063E+01 5.78130E-03 3.12814E-04-6.56085E-02 7.99614E-14-2.99467E-13
 -1      1988 2.00105E+01 6.99725E-03-3.54492E-04-8.25034E-02 1.01561E-13-3.03455E-13
 -1      1989 2.01100E+01 1.11438E-02 8.81076E-04-8.66501E-02 6.27335E-14-4.28112E-13
 -1      1990 2.00713E+01 9.65049E-03 5.22898E-04-7.88560E-02 3.83364E-14-3.89649E-13
 -1      1991 2.00708E+01 1.22647E-02-4.82462E-04-9.83596E-02 9.74507E-14-3.83648E-13
 -1      1992 2.01985E+01 1.56210E-02 1.12096E-03-1.10448E-01-2.71652E-14-3.79202E-13
 -1      1993 2.01503E+01 1.40490E-02 7.51632E-04-9.91297E-02 5.90052E-14-3.54275E-13
 -1      1994 2.01438E+01 1.82260E-02-6.42828E-04-1.22860E-01 3.79998E-14-3.48442E-13
 -1      1995 2.03104E+01 2.05381E-02 1.39240E-03-1.42550E-01-4.87088E-14-3.43473E-13
 -1      1996 2.02492E+01 1.89453E-02 9.91402E-04-1.27255E-01-5.79159E-14-3.83136E-13
 -1      1997 2.02346E+01 2.48464E-02-8.35139E-04-1.57027E-01-6.67023E-15-2.66918E-13
 -1      1998 2.04522E+01 2.56729E-02 1.67181E-03-1.83498E-01 7.94668E-14-4.19626E-13
 -1      1999 2.03742E+01 2.41878E-02 1.22739E-03-1.63883E-01 3.51750E-14-3.72141E-13
 -1      2000 2.03486E+01 3.19348E-02-1.05737E-03-2.01681E-01 6.07913E-14-2.78336E-13
 -1      2001 2.06303E+01 3.05468E-02 1.91528E-03-2.33223E-01-6.45716E-14-4.25760E-13
 -1      2002 2.05318E+01 2.94136E-02 1.43344E-03-2.09218E-01 1.37168E-14-4.24679E-13
 -1      2003 2.04915E+01 3.90219E-02-1.30440E-03-2.57117E-01 3.59860E-14-3.79166E-13
 -1      2004 2.08504E+01 3.42714E-02 2.04880E-03-2.90472E-01-2.07421E-13-3.90240E-13
 -1      2005 2.07284E+01 3.39132E-02 1.56715E-03-2.62553E-01-1.51275E-13-4.44281E-13
 -1      2006 2.06687E+01 4.51804E-02-1.56578E-03-3.22570E-01-1.18238E-13-2.82605E-13
 -1      2007 2.11163E+01 3.53427E-02 1.95902E-03-3.51949E-01-6.44377E-14-2.28732E-13
 -1      2008 2.09687E+01 3.64429E-02 1.56536E-03-3.21568E-01-1.64672E-13-3.42616E-13
 -1      2009 2.08846E+01 4.87747E-02-1.82200E-03-3.95384E-01-2.05914E-13-2.17210E-13
 -1      2010 2.14276E+01 3.14085E-02 1.49073E-03-4.11086E-01 1.83108E-13-1.91701E-13
 -1      2011 2.12552E+01 3.49917E-02 1.34259E-03-3.81284E-01 9.94252E-14-1.87602E-13
 -1      2012 2.11415E+01 4.71493E-02-2.03784E-03-4.69807E-01 3.24835E-14-2.15942E-13
 -1      2013 2.17774E+01 1.91052E-02 4.64391E-04-4.56483E-01 1.65867E-13-3.49629E-14
 -1      2014 2.15852E+01 2.65645E-02 7.97539E-04-4.32695E-01 2.49895E-13-5.96673E-14
 -1      2015 2.14379E+01 3.63342E-02-2.15051E-03-5.35383E-01 1.88817E-13-4.23220E-14
 -1      2016 2.21488E+01-5.78100E-03-1.26430E-03-4.70325E-01-2.23574E-13-1.76791E-13
 -1      2017 2.19480E+01 7.15723E-03-1.65528E-04-4.61228E-01-4.86038E-14-1.24013E-13
 -1      2018 2.17663E+01 1.09987E-02-2.05071E-03-5.75130E-01 3.88438E-14 3.96924E-14
 -1      2019 2.25106E+01-4.73133E-02-3.67634E-03-4.27685E-01-7.50916E-14-3.01007E-13
 -1      2020 2.23216E+01-2.76773E-02-1.59067E-03-4.45632E-01-2.08292E-13-2.59614E-13
 -1      2021 2.21106E+01-3.48304E-02-1.55772E-03-5.64140E-01-1.60641E-13-1.67215E-13
 -1      2022 2.28148E+01-1.06761E-01-6.39166E-03-2.98689E-01-1.19676E-13-3.23310E-13
 -1      2023 2.26681E+01-8.09755E-02-3.40537E-03-3.58730E-01-3.42465E-14-3.41600E-13
 -1      2024 2.24427E+01-1.05364E-01-4.01749E-04-4.70170E-01-3.17949E-14-2.83087E-13
 -1      2025 2.29963E+01-1.77551E-01-8.47564E-03-5.68980E-02-1.58578E-13-1.99022E-13
 -1      2026 2.29312E+01-1.50310E-01-5.35059E-03-1.72636E-01-1.87825E-13-2.42617E-13
 -1      2027 2.27199E+01-1.97785E-01 1.74058E-03-2.59109E-01-2.08130E-13-2.37373E-13
 -1      2028 2.29803E+01-2.38675E-01-8.53175E-03 3.02365E-01 7.65993E-14-3.26805E-13
 -1      2029 2.30385E+01-2.21382E-01-6.94053E-03 1.28019E-01-8.44793E-14-1.85358E-13
 -1      2030 2.28841E+01-2.93938E-01 5.05472E-03 9.05414E-02-7.69749E-14-3.07309E-13
 -1      2031 2.27016E+01-2.51877E-01-5.54954E-03 7.34278E-01 1.27785E-13-1.46602E-13
 -1      2032 2.29128E+01-2.62366E-01-7.55691E-03 5.23076E-01 8.69565E-14-2.34632E-13
 -1      2033 2.28675E+01-3.52830E-01 9.07188E-03 5.61411E-01 2.10517E-14-2.84841E-13
 -1      2034 2.21403E+01-1.73293E-01-3.08911E-04 1.12092E+00 1.06766E-13 5.82867E-15
 -1      2035 2.25016E+01-2.27802E-01-6.69378E-03 9.30758E-01 1.39732E-13 1.46810E-14
 -1      2036 2.26117E+01-3.14972E-01 1.19103E-02 1.06516E+00 4.69659E-14-8.40578E-14
 -1      2037 2.13673E+01 1.22870E-02 4.08695E-03 1.28426E+00 1.79388E-13 5.03052E-14
 -1      2038 2.18246E+01-8.32940E-02-3.46458E-03 1.20179E+00 1.29011E-13 1.15786E-13
 -1      2039 2.21079E+01-1.34055E-01 1.05885E-02 1.42911E+00 1.04407E-13 1.70467E-13
 -1      2040 2.05765E+01 2.48152E-01 3.32349E-03 1.07298E+00-1.62734E-14 7.39825E-14
 -1      2041 2.10198E+01 1.47835E-01 2.00036E-03 1.16813E+00 1.05515E-13 2.93862E-15
 -1      2042 2.14501E+01 1.67749E-01 3.50729E-03 1.44431E+00 1.44147E-13 3.13760E-13
 -1      2043 2.00333E+01 4.18289E-01-3.05340E-03 4.85779E-01-2.03801E-13-3.09970E-13
 -1      2044 2.03286E+01 3.68818E-01 7.82441E-03 7.55394E-01 1.74999E-14-5.97473E-14
 -1      2045 2.08465E+01 4.72454E-01-7.14749E-03 9.97021E-01 8.25642E-14 2.70091E-13
 -1      2046 1.99522E+01 4.12211E-01-8.30562E-03-2.63561E-01-1.14166E-13-2.47846E-13
 -1      2047 2.00004E+01 4.50619E-01 1.22432E-02 7.55326E-02-1.89945E-13-4.31452E-13
 -1      2048 2.05401E+01 6.14087E-01-1.33289E-02 1.92728E-01-1.13611E-13-1.28842E-13
 -1      2049 2.03382E+01 2.34721E-01-6.61560E-03-8.50524E-01-2.21869E-13-1.12025E-13
 -1      2050 2.01350E+01 3.38151E-01 1.21925E-02-5.88409E-01-2.42794E-13-2.82482E-13
 -1      2051 2.06514E+01 5.05762E-01-7.49327E-03-6.34819E-01-2.15930E-13-1.19001E-13
 -1      2052 2.09764E+01-4.49879E-03-7.22823E-04-1.05631E+00-2.97443E-13 1.87468E-13
 -1      2053 2.06216E+01 1.05161E-01 6.72277E-03-9.63622E-01-1.56963E-13-5.01682E-15
 -1      2054 2.10757E+01 2.07210E-01 1.29075E-03-1.13566E+00-3.53692E-13-2.88051E-14
 -1      2055 2.15799E+01-1.86224E-01 5.07901E-03-8.78509E-01-9.88098E-15 1.40218E-13
 -1      2056 2.12181E+01-1.19047E-01-1.32632E-03-9.51823E-01-1.55584E-13 1.10668E-13
 -1      2057 2.15728E+01-1.13935E-01 6.29634E-03-1.16382E+00-1.07801E-13 1.32883E-13
 -1      2058 2.19418E+01-2.58122E-01 7.39579E-03-4.73539E-01 4.41773E-14 2.64593E-13
 -1      2059 2.16917E+01-2.45464E-01-7.66807E-03-6.44009E-01 8.52911E-14 2.25549E-13
 -1      2060 2.19243E+01-3.21785E-01 5.61505E-03-8.13504E-01-2.63175E-14 2.85564E-13
 -1      2061 2.19945E+01-2.36046E-01 6.43148E-03-2.78179E-02 2.88900E-13 1.18066E-13
 -1      2062 2.19098E+01-2.62285E-01-1.02582E-02-2.16624E-01 6.43305E-14 1.58945E-13
 -1      2063 2.20270E+01-3.75098E-01 2.51364E-03-2.97622E-01 1.29705E-13 2.74059E-13
 -1      2064 2.17786E+01-1.61366E-01 4.40683E-03 3.28275E-01 1.60959E-13 2.38256E-13
 -1      2065 2.18509E+01-2.05109E-01-9.34174E-03 1.76123E-01 3.11338E-13 3.24961E-13
 -1      2066 2.18870E+01-3.11201E-01-2.13309E-05 1.90036E-01 2.25517E-13 4.85461E-13
 -1      2067 2.13877E+01-6.76449E-02 2.94189E-03 5.33773E-01-6.40818E-14 4.16963E-13
 -1      2068 2.15700E+01-1.14380E-01-6.24258E-03 4.45316E-01 7.38212E-15 3.59574E-13
 -1      2069 2.15693E+01-1.87652E-01-1.10122E-03 5.34623E-01-5.25665E-14 6.75971E-13
 -1      2070 2.09289E+01 2.67545E-02 2.09302E-03 5.74275E-01 6.73338E-14 2.02257E-13
 -1      2071 2.11588E+01-1.61232E-02-2.58520E-03 5.57955E-01 1.33763E-13 3.31182E-13
 -1      2072 2.11567E+01-4.72027E-02-1.58259E-03 6.91480E-01 1.52043E-13 5.08386E-13
 -1      2073 2.05015E+01 1.14388E-01 2.74416E-03 4.59795E-01 1.89392E-13-1.74604E-14
 -1      2074 2.07160E+01 7.60682E-02-3.23310E-05 5.15401E-01 7.60273E-14 5.92855E-14
 -1      2075 2.07283E+01 8.68771E-02-2.35211E-03 6.59982E-01 1.81423E-13 3.74378E-13
 -1      2076 2.02250E+01 1.70155E-01 4.82476E-03 2.92166E-01 2.49254E-14 2.63693E-14
 -1      2077 2.03870E+01 1.43052E-01 8.37226E-04 3.96226E-01 1.22138E-13-9.17803E-14
 -1      2078 2.04087E+01 1.85008E-01-3.48306E-03 5.23276E-01 2.64218E-13 1.19483E-13
 -1      2079 2.02077E+01 2.63313E-01 1.29411E-03 3.64771E-01 6.93868E-15 3.68507E-13
 -1      2080 2.01023E+01 1.54333E+00 2.38125E-03 1.04947E+00-6.04100E-14 1.59646E-13
 -1      2081 2.01417E+01 1.21097E+00 4.30194E-03 9.79671E-01-6.18795E-14 3.37679E-13
 -1      2082 2.01728E+01 9.91936E-01 5.05515E-03 8.69185E-01 1.14860E-13 5.35714E-13
 -1      2083 2.02010E+01 7.18066E-01 4.74950E-03 7.60864E-01 6.55055E-14 4.50809E-13
 -1      2084 2.02318E+01 9.27162E-01-4.66362E-03 1.15551E+00 1.85210E-14 3.29868E-13
 -1      2085 2.02003E+01 5.89891E-01 5.32884E-03 6.27940E-01 4.26902E-14 2.53537E-13
 -1      2086 2.02169E+01 3.86474E-01 4.85714E-03 4.99570E-01 9.72586E-14 2.38585E-13
 -1      2087 2.03062E+01 3.52800E-01 2.65583E-03 5.95577E-01 1.62758E-13 2.65185E-13
 -1      2088 2.02925E+01 5.91897E-01-1.05621E-03 8.85266E-01 1.54813E-13 4.52298E-13
 -1      2089 1.99982E+01 2.14856E+00-3.48314E-03 1.12087E+00-4.10636E-13-3.77015E-13
 -1      2090 2.00556E+01 1.79777E+00 2.72330E-03 1.10659E+00-3.03653E-13 1.95060E-14
 -1      2091 2.01116E+01 1.39917E+00-4.15504E-03 1.34578E+00-2.45863E-13-1.06533E-13
 -1      2092 1.98646E+01 2.76279E+00-9.76873E-03 1.03991E+00-2.04469E-13-3.11130E-13
 -1      2093 1.99356E+01 2.42738E+00 2.08536E-05 1.09758E+00-1.99693E-13-1.33001E-13
 -1      2094 1.99459E+01 1.93416E+00-5.96536E-04 1.38765E+00-3.66393E-13-1.33664E-13
 -1      2095 1.97292E+01 3.28201E+00-1.45851E-02 7.80938E-01-1.98729E-13-6.96347E-13
 -1      2096 1.97973E+01 3.02039E+00-3.97078E-03 9.16686E-01-1.10967E-13-6.52704E-13
 -1      2097 1.97472E+01 2.47217E+00 4.67883E-03 1.22680E+00-1.51391E-13-4.94240E-13
 -1      2098 1.96311E+01 3.60739E+00-1.62194E-02 3.63758E-01-1.45520E-13-6.47061E-14
 -1      2099 1.96749E+01 3.46723E+00-8.82446E-03 5.62285E-01-1.97608E-13-2.54829E-13
 -1      2100 1.95609E+01 2.91640E+00 1.03903E-02 8.44526E-01 1.23265E-13-4.34431E-13
 -1      2101 1.96047E+01 3.66424E+00-1.43311E-02-1.40923E-01-1.57577E-13 2.92620E-13
 -1      2102 1.96082E+01 3.67497E+00-1.32321E-02 8.39736E-02-8.57968E-14 3.13319E-13
 -1      2103 1.94427E+01 3.16980E+00 1.43410E-02 2.83327E-01-2.04752E-13 1.54803E-13
 -1      2104 1.96606E+01 3.43126E+00-1.00269E-02-6.29748E-01-2.74387E-13-1.52777E-13
 -1      2105 1.96225E+01 3.59476E+00-1.53188E-02-4.25070E-01-2.78891E-13 4.99722E-14
 -1      2106 1.94338E+01 3.16717E+00 1.44990E-02-3.52877E-01-2.10737E-13 1.50487E-14
 -1      2107 1.97783E+01 2.96163E+00-4.59373E-03-9.98603E-01-2.12326E-13-5.85086E-13
 -1      2108 1.97117E+01 3.24428E+00-1.41081E-02-8.55729E-01-2.34683E-13-3.77111E-13
 -1      2109 1.95388E+01 2.90802E+00 1.11383E-02-9.27045E-01-2.73482E-13-1.88833E-13
 -1      2110 1.99272E+01 2.32896E+00 5.18847E-04-1.19787E+00-1.72413E-13 6.80337E-14
 -1      2111 1.98492E+01 2.69292E+00-9.67229E-03-1.13416E+00-5.54075E-14-2.62752E-13
 -1      2112 1.97231E+01 2.45044E+00 5.36765E-03-1.33178E+00-2.13408E-14-4.01153E-13
 -1      2113 2.00753E+01 1.64875E+00 4.81814E-03-1.20247E+00-3.42326E-14 3.17965E-13
 -1      2114 2.00003E+01 2.03193E+00-3.74361E-03-1.22447E+00-7.51187E-14 1.14112E-13
 -1      2115 1.99434E+01 1.88371E+00 2.27364E-04-1.51014E+00 1.55990E-13 1.32428E-13
 -1      2116 2.02118E+01 1.00910E+00 4.55830E-03-1.03179E+00-2.29311E-13 3.45917E-13
 -1      2117 2.01365E+01 1.36375E+00-2.21112E-04-1.12863E+00-2.53974E-13 3.44156E-13
 -1      2118 2.01578E+01 1.30534E+00-3.13524E-03-1.45409E+00-1.15596E-13 2.41768E-13
 -1      2119 1.04814E+01-5.73702E+00-1.71470E-01 6.55297E+00 3.74034E-13 8.10692E-13
 -1      2120 6.92019E+00-7.21562E+00-3.60310E-01 5.48875E+00 1.84186E-13 8.66029E-13
 -1      2121 1.50896E-01-8.08312E+00-4.42745E-01 8.01382E-01-1.30451E-14 6.23779E-13
 -1      2122 1.15010E-01-8.09215E+00-4.50663E-01-6.94098E-01-2.04420E-13 6.83231E-13
 -1      2123 3.52797E+00-6.67767E+00-2.36439E-01 4.36315E+00 2.72671E-13 4.59133E-13
 -1      2124 1.45379E+00-7.94034E+00-4.45165E-01 2.59502E+00 1.71835E-13 4.00235E-13
 -1      2125 1.90656E+01-3.50927E+00 1.52613E-02 7.12905E+00 4.93161E-13 7.47846E-13
 -1      2126 1.43774E+01-5.57232E+00-3.24378E-01 6.32780E+00 5.38458E-13 5.81063E-13
 -1      2127 2.75761E+01-8.52549E-01 1.07552E-01 6.06039E+00 4.76175E-13 5.32796E-13
 -1      2128 2.25781E+01-2.53969E+00-1.55485E-01 6.09191E+00 4.57190E-13 7.43627E-13
 -1      2129 1.95241E+01 4.01746E+00-2.49847E-02-1.70049E+00-2.88839E-13-2.00449E-13
 -1      2130 1.96479E+01 3.94372E+00-2.46617E-02-1.95685E+00-3.19093E-13-1.23210E-13
 -1      2131 1.99639E+01 3.23727E+00-1.87414E-02-1.92639E+00-3.28145E-13-7.19008E-14
 -1      2132 1.96954E+01 3.58928E+00-6.68044E-03-1.52081E+00-2.91703E-13-1.99804E-13
 -1      2133 4.01279E+01 6.30524E+00 5.28459E-01 1.88082E+00 7.01439E-13-2.75890E-14
 -1      2134 3.62674E+01 5.03317E+00 1.50204E-01 2.09872E+00 5.78787E-13-3.39728E-14
 -1      2135 4.15562E+01 7.24294E+00 4.23006E-01 8.38471E-02 7.27141E-13 1.97620E-14
 -1      2136 4.08684E+01 6.95266E+00 3.45264E-01 1.38194E+00 7.54119E-13 2.29539E-14
 -1      2137 3.92142E+01 6.38076E+00 2.54296E-01-1.59398E+00 8.14016E-13-9.75886E-14
 -1      2138 4.13319E+01 6.94400E+00 4.44115E-01-4.90029E-01 8.59812E-13 1.00753E-13
 -1      2139 3.45077E+01 3.35982E+00 1.06043E-01-3.23477E+00 7.17579E-13-5.68434E-13
 -1      2140 3.78312E+01 4.68401E+00 3.00753E-01-2.26139E+00 7.51926E-13-2.66898E-13
 -1      2141 2.77636E+01-2.45700E-01-8.01328E-02-4.89272E+00 8.06244E-13-5.95080E-13
 -1      2142 3.25031E+01 1.49828E+00 2.29175E-01-4.64352E+00 7.17884E-13-5.74429E-13
 -1      2143 1.93150E+01-3.59410E+00-2.42352E-01-6.03106E+00 9.07108E-13-7.56284E-13
 -1      2144 2.44170E+01-1.55863E+00 1.03029E-01-6.47593E+00 8.82849E-13-8.17457E-13
 -1      2145 1.12221E+01-6.04184E+00-3.07828E-01-6.04599E+00 7.17204E-13-7.83838E-13
 -1      2146 1.54453E+01-4.17049E+00-5.84661E-02-6.87702E+00 8.17346E-13-8.54899E-13
 -1      2147 4.07121E+00-7.14743E+00-3.65430E-01-4.34193E+00 1.73639E-13-8.19872E-13
 -1      2148 7.22870E+00-5.83085E+00-1.55996E-01-5.85196E+00 4.61409E-13-6.36768E-13
 -1      2149 2.65744E-01-7.81054E+00-4.55132E-01-1.17906E+00-3.49304E-14-7.80875E-13
 -1      2150 1.42461E+00-6.94922E+00-3.19996E-01-2.77909E+00 8.90954E-14-8.27671E-13
 -1      2151 9.44966E-01-7.53820E+00-4.00741E-01 2.16071E+00-1.58318E-13-6.33937E-13
 -1      2152 4.00470E-02-7.99463E+00-4.68478E-01 6.59694E-01 5.35058E-14-6.56308E-13
 -1      2153 6.38873E+00-6.08261E+00-1.87504E-01 5.35852E+00-3.48721E-13-1.27057E-12
 -1      2154 3.30029E+00-7.55307E+00-4.33900E-01 3.70558E+00-1.53766E-13-9.63229E-13
 -1      2155 1.46119E+01-4.83993E+00-8.71037E-02 6.63064E+00-7.23421E-13-9.71973E-13
 -1      2156 1.04137E+01-6.44503E+00-3.34922E-01 5.75971E+00-4.80338E-13-1.04780E-12
 -1      2157 2.33170E+01-2.94522E+00 1.67856E-02 6.13602E+00-8.40050E-13-6.00409E-13
 -1      2158 1.83713E+01-4.55770E+00-2.51036E-01 5.89663E+00-8.00915E-13-7.21145E-13
 -1      2159 3.20011E+01 5.90369E-01 2.45370E-01 4.25419E+00-6.42042E-13-9.41136E-13
 -1      2160 2.73207E+01-1.55128E+00-9.21292E-02 4.25918E+00-7.66165E-13-7.30915E-13
 -1      2161 3.82651E+01 4.26208E+00 4.16262E-01 2.68471E+00-6.52783E-13-7.29916E-13
 -1      2162 3.40835E+01 2.68963E+00 6.48358E-02 3.20195E+00-6.79283E-13-8.85292E-13
 -1      2163 4.11404E+01 6.57501E+00 3.69188E-01 5.89703E-01-6.63025E-13-3.56382E-13
 -1      2164 3.95754E+01 5.81514E+00 3.29204E-01 1.87911E+00-6.90725E-13-5.23803E-13
 -1      2165 3.98850E+01 7.26232E+00 2.35431E-01-8.78261E-01-8.55482E-13-8.04357E-14
 -1      2166 4.07122E+01 7.31968E+00 3.64901E-01 4.90698E-02-7.50289E-13-3.52551E-13
 -1      2167 3.73309E+01 5.03149E+00 1.47610E-01-2.10108E+00-7.38798E-13 2.97706E-13
 -1      2168 3.93165E+01 6.22471E+00 2.64585E-01-1.11148E+00-8.85791E-13-1.55431E-15
 -1      2169 3.22349E+01 1.48038E+00 5.79492E-03-3.36131E+00-2.66162E-13 5.09148E-13
 -1      2170 3.65205E+01 3.36620E+00 3.01830E-01-3.11218E+00-3.59990E-13 5.88585E-13
 -1      2171 3.46311E+01 3.94446E+00 2.32531E-01-6.98195E-02-5.44398E-13 5.35683E-14
 -1      2172 2.42044E+01-2.98752E+00-1.42190E-01-5.44069E+00-1.21014E-13 4.09728E-13
 -1      2173 2.92344E+01-1.01847E+00 1.09321E-01-5.22719E+00-2.07612E-13 3.22742E-13
 -1      2174 1.47643E+01-5.78442E+00-3.13454E-01-6.29983E+00-9.52571E-14 1.54238E-13
 -1      2175 1.99007E+01-3.89134E+00-1.36496E-02-7.00824E+00-6.85008E-14 3.44391E-13
 -1      2176 6.64201E+00-7.39835E+00-4.10264E-01-5.26075E+00-1.08191E-13 1.16906E-13
 -1      2177 1.05558E+01-5.73767E+00-1.33626E-01-6.62329E+00-1.37668E-13 7.47943E-14
 -1      2178 1.54891E+00-7.88679E+00-4.32300E-01-2.65415E+00 1.73472E-14 4.90552E-13
 -1      2179 3.50444E+00-6.95941E+00-2.86707E-01-4.20289E+00-3.24185E-14 3.20299E-13
 -1      2180 3.42694E+01 2.35061E+00 1.03074E-01 3.15500E+00 5.79717E-13-1.46938E-13
 -1      2181 3.07958E+01 7.98188E-01 5.63406E-02 4.18990E+00 5.23956E-13 1.47882E-13
 -1      2182 2.29933E+01-4.67652E+00 5.04323E-02 5.94536E+00 1.64146E-13 4.59466E-13
 -1      2183 2.07347E+01 1.10846E+00-2.09136E-02-1.61619E+00-2.86826E-13 5.04107E-13
 -1      2184 2.97848E+01-1.41416E+00 1.81471E-01 3.44383E+00 3.29958E-13-5.67879E-14
 -1      2185 3.28629E+01 3.95579E+00-1.57722E-01-6.71366E-01 5.38292E-13-2.46386E-13
 -1      2186 3.44519E+01 3.37040E+00 1.63865E-01 1.36592E+00 5.07455E-13-6.51701E-14
 -1      2187 3.20757E+01 1.57988E+00 8.81534E-02 2.96277E-01 3.99125E-13-4.31322E-13
 -1      2188 2.06263E+01 1.33215E+00-1.78554E-02-1.67801E+00-3.15845E-13 3.08005E-13
 -1      2189 7.08050E+00-5.91168E+00-1.46082E-01 5.85087E+00 6.46150E-14 7.13429E-13
 -1      2190 2.14133E+00-5.33181E+00-1.90963E-01 2.24214E+00 4.94049E-15 8.02969E-13
 -1      2191 2.02758E+01 7.88473E-01 5.88187E-03-9.94332E-01-2.52129E-13 2.27284E-13
 -1      2192 1.51101E+01-6.14295E+00-7.56632E-02 7.11797E+00 2.21656E-13 6.83245E-13
 -1      2193 2.25615E+00-5.39368E+00-2.00783E-01-2.27474E+00 2.80331E-15 5.49061E-13
 -1      2194 7.27831E+00-5.72611E+00-1.09697E-01-5.89043E+00 2.76501E-13 1.16573E-13
 -1      2195 1.52004E+01-6.17368E+00-3.87105E-02-7.01876E+00 1.03417E-13 2.55872E-14
 -1      2196 3.11869E+01-1.01552E+00 1.34240E-01-2.26850E+00-1.13617E-13 3.16580E-13
 -1      2197 3.58952E+01 7.24478E+00 2.52571E-01 1.43588E-01-9.45577E-13-1.97842E-13
 -1      2198 3.68953E+01 7.77046E+00 3.33119E-01-3.13283E-01-7.77045E-13-2.65801E-13
 -1      2199 3.62254E+01 5.06724E+00 3.22784E-01 2.30551E-02-6.87811E-13-4.67348E-13
 -1      2200 3.26529E+01 5.84235E-01 1.52116E-01 1.15538E+00-5.82930E-13-6.22391E-13
 -1      2201 2.68867E+01-3.64890E+00 7.22718E-02 3.96328E+00-5.87697E-13-4.78728E-13
 -1      2202 1.88772E+01-5.66466E+00 4.92752E-04 6.25893E+00-4.48197E-13-5.98993E-13
 -1      2203 1.04569E+01-5.96364E+00-1.08560E-01 6.35613E+00-1.05083E-13-1.12628E-12
 -1      2204 3.66369E+00-5.37058E+00-1.62819E-01 3.88221E+00-5.70100E-14-9.48686E-13
 -1      2205 1.31083E+00-5.22899E+00-2.22459E-01-3.16236E-01-3.91041E-14-7.29194E-13
 -1      2206 4.36782E+00-5.17710E+00-1.17634E-01-4.45877E+00-1.19821E-13-8.75300E-13
 -1      2207 1.13972E+01-5.84797E+00-1.11338E-01-6.70038E+00 2.08389E-13-7.18106E-13
 -1      2208 1.99988E+01-5.16100E+00-1.15979E-02-6.28718E+00 5.75318E-13-5.75651E-13
 -1      2209 2.76092E+01-2.63600E+00 1.22934E-01-4.00436E+00 6.86451E-13-3.18801E-13
 -1      2210 3.27455E+01 1.42384E+00 2.18589E-01-1.31255E+00 5.91450E-13-1.19682E-13
 -1      2211 3.57388E+01 5.72897E+00 2.86355E-01 7.42117E-02 8.22453E-13 1.68532E-13
 -1      2212 3.63516E+01 7.30892E+00 2.93284E-01 2.74579E-02 6.75848E-13-1.93040E-13
 -1      2213 3.72227E+01 8.14448E+00 3.89048E-01 2.35322E-01 8.16180E-13 1.44780E-13
 -1      2214 2.40758E+01-4.88645E+00 6.36773E-02-5.49002E+00 5.92859E-14 2.86104E-13
 -1      2215 2.01468E+01 5.06349E-01 3.73630E-03 6.78705E-01 2.28298E-13 6.57634E-14
 -1      2216 2.04148E+01 6.99894E-01 2.07935E-02 9.70264E-01 2.57573E-13 8.11157E-14
 -1      2217 1.95610E+01 3.51557E+00-1.11099E-02-5.91872E-01-1.52945E-13-3.14418E-13
 -1      2218 1.95964E+01 3.46954E+00-1.05102E-02-7.76423E-01-1.88907E-13-2.97411E-13
 -1      2219 1.96431E+01 3.38106E+00-1.27887E-02-9.40770E-01-2.10776E-13-2.67852E-13
 -1      2220 1.97039E+01 3.30048E+00-1.27703E-02-1.13074E+00-2.53055E-13-2.35336E-13
 -1      2221 1.97878E+01 3.03281E+00 3.25630E-04-7.92458E-01-1.78225E-13-2.58027E-13
 -1      2222 1.95139E+01 3.59813E+00-9.62176E-03 9.95343E-02-4.67051E-14-3.72975E-13
 -1      2223 1.95132E+01 3.59894E+00-9.62910E-03-8.00928E-02-8.56285E-14-3.74373E-13
 -1      2224 1.95399E+01 3.55875E+00-9.72421E-03 4.45881E-01-4.08777E-15-3.78261E-13
 -1      2225 1.95225E+01 3.58130E+00-1.01407E-02 2.64912E-01-3.29697E-14-3.81120E-13
 -1      2226 1.96802E+01 3.22078E+00-8.98588E-04 1.69761E-01-3.44864E-14-3.61858E-13
 -1      2227 1.96015E+01 3.46226E+00-1.06137E-02 7.90122E-01 6.04827E-14-3.58402E-13
 -1      2228 1.95654E+01 3.50925E+00-1.12108E-02 6.08563E-01 1.93292E-14-3.60430E-13
 -1      2229 1.97168E+01 3.15729E+00-5.03348E-04 4.88505E-01 1.98818E-15-3.40912E-13
 -1      2230 1.97119E+01 3.28860E+00-1.29531E-02 1.14369E+00 1.49510E-13-2.97077E-13
 -1      2231 1.96494E+01 3.37190E+00-1.28772E-02 9.54325E-01 9.66336E-14-3.31158E-13
 -1      2232 1.97936E+01 3.02370E+00 2.67041E-04 8.04451E-01 7.06779E-14-3.03577E-13
 -1      2233 1.98907E+01 3.00312E+00-1.81739E-02 1.49089E+00 2.31679E-13-2.75054E-13
 -1      2234 1.97914E+01 3.14435E+00-1.51817E-02 1.30042E+00 1.82805E-13-2.85560E-13
 -1      2235 1.99224E+01 2.79865E+00 1.95093E-03 1.11091E+00 1.56743E-13-2.70794E-13
 -1      2236 2.01687E+01 2.54370E+00-2.84039E-02 1.79529E+00 2.98878E-13-2.00340E-13
 -1      2237 2.00177E+01 2.78301E+00-1.70941E-02 1.62081E+00 2.60119E-13-2.44776E-13
 -1      2238 2.01167E+01 2.44813E+00 5.83763E-03 1.37681E+00 2.34118E-13-2.28021E-13
 -1      2239 1.98693E+01 2.68122E-01 4.72341E-03 2.86253E-01 1.68450E-13 1.80561E-14
 -1      2240 2.00302E+01 3.67898E-01 2.01715E-02 4.43371E-01 2.01100E-13 6.60535E-14
 -1      2241 2.02096E+01 6.34522E-01-2.21033E-03 7.05760E-01 2.28983E-13-2.40663E-14
 -1      2242 2.04010E+01 8.55487E-01 1.35229E-02-1.00041E+00-2.65149E-13 1.98763E-13
 -1      2243 2.01883E+01 6.26790E-01-4.68576E-03-6.92624E-01-2.27984E-13 1.86790E-13
 -1      2244 2.99978E+01-1.75577E+00-1.27132E-01 1.63241E+00 2.48030E-13-4.84057E-13
 -1      2245 2.78132E+01-3.50688E+00-1.81135E-02 3.09582E+00 2.07917E-13-1.71418E-13
 -1      2246 2.01231E+01 4.69649E-01 1.62006E-02-4.75794E-01-1.94548E-13 1.86601E-13
 -1      2247 1.99822E+01 3.44243E-01 8.17789E-05-3.04460E-01-1.71197E-13 1.62393E-13
 -1      2248 2.02443E+01 7.49136E-01-6.70602E-04-6.94937E-01-2.27401E-13 1.01857E-13
 -1      2249 1.99186E+01 2.59237E-01 1.08803E-02-1.67259E-01-1.51945E-13 1.63481E-13
 -1      2250 1.98397E+01 1.87755E-01 7.23353E-04-7.01492E-02-1.17176E-13 1.15776E-13
 -1      2251 2.00796E+01 4.15808E-01-3.63277E-03-3.11741E-01-1.73917E-13 6.97712E-14
 -1      2252 1.97952E+01 1.38270E-01 6.40902E-03 1.18166E-02-1.06529E-13 9.69417E-14
 -1      2253 1.97599E+01 9.59524E-02 7.22248E-04 6.50228E-02-9.88521E-14 8.38610E-14
 -1      2254 1.99584E+01 2.26887E-01-3.61613E-03-7.29050E-02-1.36041E-13 4.42842E-14
 -1      2255 1.97340E+01 6.60936E-02 3.58444E-03 1.10654E-01-9.57363E-14 6.43271E-14
 -1      2256 1.97264E+01 4.06327E-02 6.23913E-04 1.37156E-01-9.65457E-14 3.58338E-14
 -1      2257 1.98825E+01 1.14542E-01-2.92905E-03 6.76133E-02-1.25937E-13 5.16313E-15
 -1      2258 1.97147E+01 2.24775E-02 1.86077E-03 1.59397E-01-9.75888E-14 1.06100E-14
 -1      2259 1.97237E+01 7.37082E-03 5.11635E-04 1.69553E-01-9.44426E-14-1.57877E-14
 -1      2260 1.98427E+01 4.66019E-02-2.13244E-03 1.43754E-01-1.10008E-13-3.00513E-14
 -1      2261 1.97218E+01-3.36975E-03 8.00505E-04 1.77077E-01-7.38582E-14-2.53020E-14
 -1      2262 1.97399E+01-1.18162E-02 4.10531E-04 1.77445E-01-7.24838E-14-3.93019E-14
 -1      2263 1.98286E+01 5.89652E-03-1.45401E-03 1.78525E-01-9.29672E-14-8.25458E-14
 -1      2264 1.97442E+01-1.76653E-02 1.52944E-04 1.76133E-01-1.01182E-13-1.16651E-14
 -1      2265 1.97666E+01-2.16991E-02 3.35697E-04 1.71026E-01-1.24708E-13-6.72944E-15
 -1      2266 1.98314E+01-1.73030E-02-9.45164E-04 1.87540E-01-8.15703E-14-8.83404E-14
 -1      2267 1.97746E+01-2.42402E-02-2.27361E-04 1.64911E-01-1.16507E-13-4.66663E-15
 -1      2268 1.97983E+01-2.52927E-02 2.94936E-04 1.57240E-01-5.22276E-14 6.51547E-15
 -1      2269 1.98445E+01-2.88872E-02-5.90147E-04 1.81487E-01-1.13787E-13-6.72778E-14
 -1      2270 1.98083E+01-2.55549E-02-4.31284E-04 1.49124E-01-2.39416E-14 1.64373E-14
 -1      2271 1.98318E+01-2.45531E-02 2.91216E-04 1.40892E-01-3.14491E-14 7.39077E-15
 -1      2272 1.98634E+01-3.25967E-02-3.58399E-04 1.67761E-01-3.13686E-14-2.68776E-14
 -1      2273 1.98427E+01-2.32067E-02-5.19250E-04 1.32744E-01-2.98093E-14 1.04190E-14
 -1      2274 1.98653E+01-2.07390E-02 3.26000E-04 1.25365E-01-4.99933E-14 6.23946E-14
 -1      2275 1.98853E+01-3.08540E-02-2.21413E-04 1.51539E-01-2.59496E-14-1.19615E-14
 -1      2276 1.98767E+01-1.82038E-02-5.32764E-04 1.18609E-01-5.96512E-14 8.01913E-14
 -1      2277 1.98985E+01-1.46166E-02 4.01256E-04 1.13127E-01-4.16846E-14 1.12688E-13
 -1      2278 1.99087E+01-2.52045E-02-1.56410E-04 1.36512E-01-3.13480E-14 1.66788E-14
 -1      2279 1.99102E+01-1.11284E-02-5.00705E-04 1.08848E-01-5.91774E-14 9.29427E-14
 -1      2280 1.99317E+01-6.58757E-03 5.20286E-04 1.06091E-01-6.30035E-14 8.07615E-14
 -1      2281 1.99330E+01-1.65715E-02-1.46222E-04 1.25411E-01-6.61829E-14 3.54686E-14
 -1      2282 1.99441E+01-2.24283E-03-4.43234E-04 1.05190E-01-7.87855E-14 6.99876E-14
 -1      2283 1.99661E+01 3.22353E-03 6.87839E-04 1.05890E-01-7.92969E-14 5.07002E-14
 -1      2284 1.99583E+01-5.41663E-03-1.78217E-04 1.20393E-01-7.01925E-14 4.13595E-14
 -1      2285 1.99797E+01 8.43457E-03-3.74454E-04 1.09197E-01-1.24508E-13 3.50208E-14
 -1      2286 2.00037E+01 1.49026E-02 9.09808E-04 1.14079E-01-1.37888E-13 4.23719E-14
 -1      2287 1.99855E+01 8.14786E-03-2.43041E-04 1.23325E-01-1.29174E-13-8.70270E-15
 -1      2288 2.00190E+01 2.10678E-02-3.04327E-04 1.22439E-01-8.54727E-14 2.38041E-14
 -1      2289 2.00466E+01 2.86879E-02 1.19254E-03 1.32284E-01-2.02200E-14 3.76227E-14
 -1      2290 2.00158E+01 2.42716E-02-3.33430E-04 1.36001E-01-1.14220E-13 7.85776E-14
 -1      2291 2.00645E+01 3.59456E-02-2.40045E-04 1.46614E-01-5.07191E-14 1.82240E-14
 -1      2292 2.00976E+01 4.49099E-02 1.54160E-03 1.62295E-01-4.57103E-14-2.46789E-14
 -1      2293 2.00507E+01 4.32869E-02-4.43119E-04 1.60292E-01-3.47121E-14 3.13551E-14
 -1      2294 2.01192E+01 5.34142E-02-1.86910E-04 1.83614E-01-1.62199E-14-8.33455E-14
 -1      2295 2.01601E+01 6.39125E-02 1.95980E-03 2.06107E-01-2.94113E-14-1.28931E-13
 -1      2296 2.00921E+01 6.56220E-02-5.65814E-04 1.98232E-01-7.27488E-14-1.34867E-13
 -1      2297 2.01863E+01 7.37844E-02-1.48646E-04 2.35525E-01-2.14314E-14-1.24131E-13
 -1      2298 2.02376E+01 8.59367E-02 2.44383E-03 2.65877E-01 9.55600E-15-1.33732E-13
 -1      2299 2.01423E+01 9.16844E-02-6.94503E-04 2.52042E-01-2.83625E-14-1.43641E-13
 -1      2300 2.02697E+01 9.71851E-02-1.26787E-04 3.04539E-01 2.76516E-14-9.39893E-14
 -1      2301 2.03340E+01 1.10929E-01 2.97897E-03 3.43769E-01 1.05024E-13-5.76555E-14
 -1      2302 2.02037E+01 1.21683E-01-8.21436E-04 3.24049E-01 5.58100E-14-1.89770E-13
 -1      2303 2.03734E+01 1.23318E-01-1.18494E-04 3.92717E-01 3.59353E-14-4.23477E-14
 -1      2304 2.04537E+01 1.38220E-01 3.53077E-03 4.41618E-01 1.58093E-14-1.02251E-13
 -1      2305 2.02788E+01 1.55338E-01-9.39609E-04 4.16489E-01 6.90404E-14-1.14116E-13
 -1      2306 2.05017E+01 1.51045E-01-1.11688E-04 5.01538E-01 1.67185E-14-2.15782E-13
 -1      2307 2.06009E+01 1.65983E-01 4.03265E-03 5.60311E-01-4.17798E-14-1.98789E-13
 -1      2308 2.03704E+01 1.91392E-01-1.04726E-03 5.31099E-01-4.59156E-14-1.94557E-13
 -1      2309 2.06592E+01 1.77706E-01-7.57750E-05 6.31097E-01-6.54603E-14-2.20726E-13
 -1      2310 2.07798E+01 1.90359E-01 4.36858E-03 6.98725E-01-1.95457E-14-2.03275E-13
 -1      2311 2.04813E+01 2.26808E-01-1.15787E-03 6.68417E-01-6.29810E-14-2.24176E-13
 -1      2312 2.08508E+01 1.98035E-01 5.41149E-05 7.78757E-01-7.55418E-15-2.45378E-13
 -1      2313 2.09948E+01 2.04120E-01 4.35121E-03 8.51997E-01-1.60401E-14-2.10853E-13
 -1      2314 2.06151E+01 2.55502E-01-1.31891E-03 8.26629E-01-7.86305E-14-3.04120E-13
 -1      2315 2.10821E+01 2.02575E-01 4.00417E-04 9.37017E-01-3.48246E-16-1.94887E-13
 -1      2316 2.12503E+01 1.94819E-01 3.69854E-03 1.00888E+00 2.76170E-14-5.61020E-14
 -1      2317 2.07768E+01 2.66461E-01-1.64240E-03 9.99767E-01 1.26642E-14-1.86063E-13
 -1      2318 2.13603E+01 1.75669E-01 1.16923E-03 1.09029E+00 2.48157E-14-1.08168E-13
 -1      2319 2.15520E+01 1.42770E-01 2.01759E-03 1.14795E+00 8.60659E-14-7.28554E-14
 -1      2320 2.09741E+01 2.41306E-01-2.34461E-03 1.17501E+00 3.44613E-14-6.87990E-14
 -1      2321 2.16955E+01 9.37337E-02 2.65722E-03 1.21044E+00 7.36736E-14-1.19602E-13
 -1      2322 2.19075E+01 2.01862E-02-1.18403E-03 1.23286E+00 8.64613E-14-1.58982E-13
 -1      2323 2.12212E+01 1.51953E-01-3.77337E-03 1.32882E+00 5.16850E-14-1.65483E-13
 -1      2324 2.21024E+01-7.39525E-02 5.17141E-03 1.25131E+00 1.57904E-13-3.72739E-14
 -1      2325 2.23279E+01-2.04925E-01-6.41678E-03 1.20773E+00 1.40311E-13 1.10136E-13
 -1      2326 2.15418E+01-3.93393E-02-6.35288E-03 1.42180E+00 1.69352E-13-2.16670E-14
 -1      2327 2.25981E+01-3.56751E-01 8.69833E-03 1.14429E+00 1.34528E-13 2.63541E-13
 -1      2328 2.28242E+01-5.52610E-01-1.37644E-02 9.96153E-01 1.88770E-13 3.69801E-13
 -1      2329 2.19729E+01-3.71883E-01-1.02916E-02 1.39273E+00 2.32219E-13 2.01702E-13
 -1      2330 2.31917E+01-7.56679E-01 1.24466E-02 8.00623E-01 1.36299E-13 4.23368E-13
 -1      2331 2.33933E+01-9.91733E-01-2.18875E-02 5.12955E-01 1.29423E-13 5.99226E-13
 -1      2332 2.25597E+01-8.59736E-01-1.46456E-02 1.15468E+00 2.28602E-13 2.99667E-13
 -1      2333 2.38522E+01-1.19629E+00 1.30631E-02 1.36093E-01 5.05347E-14 6.46834E-13
 -1      2334 2.39864E+01-1.37431E+00-2.64330E-02-2.93956E-01 1.25807E-13 5.42248E-13
 -1      2335 2.33297E+01-1.43139E+00-1.59471E-02 6.03905E-01 1.29293E-13 5.23996E-13
 -1      2336 2.44550E+01-1.44789E+00 3.81593E-03-8.53159E-01 1.51756E-13 5.62120E-13
 -1      2337 2.44675E+01-1.38442E+00-2.01721E-02-1.34392E+00-1.17259E-14 5.06241E-13
 -1      2338 2.42278E+01-1.84111E+00-9.38931E-03-3.30527E-01 1.03034E-13 6.25989E-13
 -1      2339 2.47566E+01-1.13630E+00-2.36839E-02-1.93946E+00-1.61932E-13 5.12379E-13
 -1      2340 2.46137E+01-6.54901E-01-3.68383E-03-2.27721E+00-1.70848E-13 4.87816E-13
 -1      2341 2.50279E+01-1.63152E+00 3.33322E-03-1.54680E+00-1.19099E-13 6.91312E-13
 -1      2342 2.45550E+01 6.26471E-03-5.63144E-02-2.56135E+00-2.03831E-13 5.40177E-13
 -1      2343 2.43045E+01 8.31390E-01 1.27943E-02-2.46091E+00-3.17135E-13 5.90896E-13
 -1      2344 2.53714E+01-4.35408E-01-4.68592E-03-2.55041E+00-1.63286E-13 8.84489E-13
 -1      2345 2.39672E+01 1.60787E+00-7.38595E-02-2.02713E+00-4.32931E-13 5.71998E-13
 -1      2346 2.37573E+01 2.23477E+00-1.65019E-02-1.39029E+00-2.77819E-13 5.05229E-13
 -1      2347 2.51045E+01 1.60956E+00-2.25612E-02-2.53119E+00-3.30111E-13 8.06674E-13
 -1      2348 2.36357E+01 2.53035E+00-3.07941E-02-3.61033E-01-1.92769E-13 2.78710E-13
 -1      2349 2.35953E+01 2.39695E+00-5.78717E-02 4.72034E-01-1.80911E-13 2.51927E-13
 -1      2350 2.47090E+01 3.10724E+00-4.49459E-02-9.71799E-01-3.85109E-13 7.98648E-13
 -1      2351 2.38258E+01 1.93301E+00 8.21784E-03 1.39707E+00-1.46411E-13 5.32100E-14
 -1      2352 2.39770E+01 1.16653E+00-6.97159E-02 1.90114E+00-1.01962E-13 2.21252E-14
 -1      2353 2.47145E+01 2.84810E+00-4.50718E-02 1.08965E+00-3.17649E-13 3.80534E-13
 -1      2354 2.42251E+01 3.55096E-01 1.07297E-02 2.10080E+00 4.15293E-14-8.96592E-14
 -1      2355 2.43786E+01-4.13470E-01-5.13740E-02 2.04969E+00 6.74434E-14 3.25512E-14
 -1      2356 2.50910E+01 9.75920E-01-1.94246E-02 2.19484E+00-1.49106E-13-5.05741E-14
 -1      2357 2.43101E+01-9.73332E-01-5.12726E-03 1.63028E+00-8.46926E-14 1.22707E-13
 -1      2358 2.43283E+01-1.33939E+00-1.61896E-02 1.20816E+00-3.90777E-14 2.45322E-13
 -1      2359 2.51314E+01-8.94281E-01 4.91081E-03 1.85888E+00 4.63761E-14-1.89491E-13
 -1      2360 2.39350E+01-1.47990E+00-2.14000E-02 5.84158E-01 8.77874E-14 3.33922E-13
 -1      2361 2.38043E+01-1.45629E+00 5.77395E-03 8.12377E-02 3.44105E-13 3.16354E-13
 -1      2362 2.45555E+01-1.82549E+00 3.32041E-03 6.95271E-01 1.22945E-13 1.11170E-13
 -1      2363 2.32913E+01-1.32061E+00-2.48723E-02-4.43293E-01 4.70633E-13 2.20440E-13
 -1      2364 2.30551E+01-1.10323E+00 1.22739E-02-8.45385E-01 4.53865E-13 1.48997E-13
 -1      2365 2.36197E+01-1.80662E+00-1.09004E-02-4.93566E-01 2.80006E-13 2.93720E-13
 -1      2366 2.25823E+01-8.71341E-01-1.91888E-02-1.17092E+00 2.92367E-13 1.03898E-13
 -1      2367 2.22982E+01-6.16138E-01 1.24604E-02-1.41193E+00 2.59562E-13 1.93415E-13
 -1      2368 2.26693E+01-1.28505E+00-1.51995E-02-1.33299E+00 3.69803E-13-8.65957E-14
 -1      2369 2.19195E+01-3.88622E-01-1.15034E-02-1.54996E+00 3.11970E-13 3.07578E-13
 -1      2370 2.16285E+01-1.62174E-01 1.08987E-02-1.63369E+00 9.15257E-14 4.36611E-13
 -1      2371 2.18751E+01-6.54004E-01-1.27485E-02-1.77287E+00 3.35601E-13-3.41972E-14
 -1      2372 2.13373E+01 3.18411E-02-5.23896E-03-1.62265E+00-2.41076E-13 7.56900E-13
 -1      2373 2.10670E+01 2.14446E-01 8.15161E-03-1.57071E+00-3.27929E-13 6.79988E-13
 -1      2374 2.12608E+01-8.57506E-02-8.16922E-03-1.87666E+00 1.17539E-13 2.57104E-13
 -1      2375 1.96212E+01 7.24565E-02 2.05924E-03-6.49614E-02 6.94808E-14-4.66677E-14
 -1      2376 1.96488E+01 1.04151E-01 6.90325E-03-1.88616E-02 1.02600E-13-2.15897E-14
 -1      2377 1.95974E+01 3.07143E-02 1.34067E-03-1.30629E-01 6.33504E-14-5.11717E-14
 -1      2378 1.95945E+01 4.95702E-02 3.68171E-03-1.08124E-01 6.86552E-14-5.58348E-14
 -1      2379 1.97664E+01 8.97441E-02-3.18612E-03-7.01970E-02 9.04245E-14-9.23359E-14
 -1      2380 1.96092E+01 5.85893E-03 8.84566E-04-1.59214E-01 9.27731E-14-5.03229E-14
 -1      2381 1.95893E+01 1.70046E-02 1.82165E-03-1.50900E-01 7.34962E-14-4.14248E-14
 -1      2382 1.97321E+01 3.59362E-02-2.29517E-03-1.42604E-01 8.74520E-14-7.14938E-14
 -1      2383 1.96414E+01-8.45513E-03 5.78565E-04-1.65297E-01 1.08478E-13-3.77459E-14
 -1      2384 1.96131E+01-2.19055E-03 7.27422E-04-1.65403E-01 8.93962E-14-2.35481E-14
 -1      2385 1.97288E+01 4.11098E-03-1.53165E-03-1.74681E-01 8.99074E-14-6.43538E-14
 -1      2386 1.96837E+01-1.58925E-02 3.76743E-04-1.58357E-01 6.05508E-14-1.83944E-14
 -1      2387 1.96522E+01-1.28328E-02 8.03885E-05-1.63155E-01 9.87161E-14 4.05557E-15
 -1      2388 1.97443E+01-1.39313E-02-9.64772E-04-1.82031E-01 8.53477E-14-1.60867E-14
 -1      2389 1.97297E+01-1.87233E-02 2.56779E-04-1.44734E-01 7.48797E-14-3.63758E-14
 -1      2390 1.96981E+01-1.78145E-02-2.86829E-04-1.51737E-01 6.36092E-14-9.58990E-15
 -1      2391 1.97704E+01-2.29710E-02-5.75226E-04-1.75043E-01 6.90656E-14-1.02457E-14
 -1      2392 1.97755E+01-1.84095E-02 2.04610E-04-1.28752E-01 7.36425E-14-6.80718E-14
 -1      2393 1.97456E+01-1.89714E-02-4.71785E-04-1.36264E-01 8.29408E-14-3.91139E-14
 -1      2394 1.98015E+01-2.59766E-02-3.24728E-04-1.60766E-01 8.59719E-14 2.22720E-14
 -1      2395 1.98196E+01-1.58938E-02 2.10659E-04-1.13411E-01 7.80759E-14-1.29656E-13
 -1      2396 1.97918E+01-1.74918E-02-5.36659E-04-1.20247E-01 6.57453E-14-9.71662E-14
 -1      2397 1.98344E+01-2.48543E-02-1.79315E-04-1.44061E-01 7.30939E-14-7.02483E-14
 -1      2398 1.98615E+01-1.17614E-02 2.69085E-04-1.00863E-01 9.16648E-14-1.50122E-13
 -1      2399 1.98357E+01-1.41323E-02-5.22761E-04-1.06163E-01 8.25077E-14-1.36650E-13
 -1      2400 1.98674E+01-2.08230E-02-1.12911E-04-1.28345E-01 1.13132E-13-1.04896E-13
 -1      2401 1.99019E+01-6.34037E-03 3.77293E-04-9.27312E-02 8.48777E-14-1.68620E-13
 -1      2402 1.98774E+01-9.34529E-03-4.57925E-04-9.58272E-02 7.07411E-14-1.55817E-13
 -1      2403 1.98999E+01-1.46277E-02-1.06402E-04-1.16097E-01 8.71069E-14-1.91259E-13
 -1      2404 1.99424E+01 2.28702E-04 5.35182E-04-9.03524E-02 1.00298E-13-1.26477E-13
 -1      2405 1.99180E+01-3.36145E-03-3.60766E-04-9.06729E-02 1.14719E-13-9.31917E-14
 -1      2406 1.99325E+01-6.67276E-03-1.46260E-04-1.09224E-01 7.62940E-14-1.21002E-13
 -1      2407 1.99851E+01 7.93526E-03 7.44098E-04-9.49413E-02 6.46978E-14-1.69884E-13
 -1      2408 1.99594E+01 3.74725E-03-2.43472E-04-9.19447E-02 8.86560E-14-1.38131E-13
 -1      2409 1.99661E+01 2.88132E-03-2.23041E-04-1.09317E-01 9.06781E-14-4.96664E-14
 -1      2410 2.00329E+01 1.68449E-02 1.00542E-03-1.07701E-01 1.69003E-13-2.64528E-13
 -1      2411 2.00041E+01 1.20132E-02-1.13821E-04-1.00834E-01 1.37155E-13-1.79049E-13
 -1      2412 2.00026E+01 1.40386E-02-3.30044E-04-1.17835E-01 1.27489E-13-8.99416E-14
 -1      2413 2.00891E+01 2.70391E-02 1.31853E-03-1.29871E-01 5.35146E-14-2.38182E-13
 -1      2414 2.00549E+01 2.15174E-02 2.32630E-05-1.18555E-01 1.04131E-13-2.56762E-13
 -1      2415 2.00439E+01 2.68892E-02-4.62170E-04-1.36217E-01 1.29851E-13-9.20809E-14
 -1      2416 2.01573E+01 3.85373E-02 1.67787E-03-1.62708E-01-6.73090E-14-1.04735E-13
 -1      2417 2.01154E+01 3.23221E-02 1.64507E-04-1.46360E-01-3.68236E-14-2.23058E-13
 -1      2418 2.00928E+01 4.15180E-02-6.14960E-04-1.65917E-01-2.87861E-14-1.87342E-14
 -1      2419 2.02418E+01 5.11879E-02 2.06865E-03-2.07376E-01 3.55654E-14-1.37237E-13
 -1      2420 2.01896E+01 4.43804E-02 3.07362E-04-1.85471E-01 2.91368E-15-8.52016E-14
 -1      2421 2.01520E+01 5.78863E-02-7.83795E-04-2.08359E-01-4.99516E-14-3.09240E-14
 -1      2422 2.03470E+01 6.45090E-02 2.46069E-03-2.64710E-01 9.14173E-14-1.91618E-13
 -1      2423 2.02817E+01 5.74060E-02 4.49382E-04-2.36913E-01 8.84994E-14-1.57130E-13
 -1      2424 2.02249E+01 7.56620E-02-9.63459E-04-2.64781E-01 5.88885E-14-5.31902E-14
 -1      2425 2.04773E+01 7.74546E-02 2.80001E-03-3.34798E-01-2.09028E-14-8.40420E-14
 -1      2426 2.03963E+01 7.06819E-02 5.88081E-04-3.01192E-01 4.72534E-14-1.08896E-13
 -1      2427 2.03150E+01 9.39747E-02-1.14845E-03-3.35917E-01 5.77729E-14 2.21378E-15
 -1      2428 2.06369E+01 8.80809E-02 2.99799E-03-4.16321E-01-1.75241E-13-8.67351E-14
 -1      2429 2.05380E+01 8.27823E-02 7.21582E-04-3.77762E-01-7.64393E-14-8.49352E-14
 -1      2430 2.04259E+01 1.11058E-01-1.33443E-03-4.21484E-01-7.46398E-14 5.96338E-14
 -1      2431 2.08292E+01 9.30966E-02 2.91961E-03-5.05545E-01-1.01942E-13-2.21145E-13
 -1      2432 2.07109E+01 9.11840E-02 8.50451E-04-4.64199E-01-1.69378E-13-1.30656E-13
 -1      2433 2.05613E+01 1.23753E-01-1.52131E-03-5.19365E-01-9.38308E-14-5.93762E-14
 -1      2434 2.10561E+01 8.73340E-02 2.37459E-03-5.94910E-01 9.64073E-14-3.19822E-13
 -1      2435 2.09184E+01 9.17694E-02 9.80917E-04-5.54995E-01 1.20277E-14-2.46934E-13
 -1      2436 2.07248E+01 1.26859E-01-1.71776E-03-6.24434E-01 6.43160E-15-3.33924E-13
 -1      2437 2.13167E+01 6.33024E-02 1.12135E-03-6.71203E-01 1.53583E-13-1.98132E-13
 -1      2438 2.11625E+01 7.83026E-02 1.12838E-03-6.39915E-01 1.24024E-13-2.81770E-13
 -1      2439 2.09199E+01 1.12439E-01-1.94476E-03-7.26928E-01 9.50860E-14-3.49379E-13
 -1      2440 2.16067E+01 1.12747E-02-1.09919E-03-7.13578E-01-7.23855E-14-5.26272E-14
 -1      2441 2.14422E+01 4.21558E-02 1.31649E-03-7.02006E-01 6.49547E-14-8.17777E-14
 -1      2442 2.11496E+01 6.93748E-02-2.23148E-03-8.10427E-01 1.37548E-14-2.76827E-13
 -1      2443 2.19163E+01-7.91384E-02-4.46619E-03-6.92180E-01-6.64020E-14-1.33702E-13
 -1      2444 2.17531E+01-2.70587E-02 1.55708E-03-7.15694E-01-5.66601E-14-2.26512E-14
 -1      2445 2.14169E+01-1.60250E-02-2.59009E-03-8.49732E-01-4.90980E-14-1.50237E-13
 -1      2446 2.22281E+01-2.14293E-01-8.88022E-03-5.69174E-01-6.89917E-14-1.43968E-13
 -1      2447 2.20838E+01-1.38663E-01 1.80422E-03-6.46175E-01-4.44449E-14-1.51951E-13
 -1      2448 2.17228E+01-1.56861E-01-2.94005E-03-8.09541E-01-6.32698E-14-1.16644E-13
 -1      2449 2.25142E+01-3.86620E-01-1.36052E-02-3.05386E-01-1.84575E-13-2.00478E-13
 -1      2450 2.24133E+01-2.94003E-01 1.82914E-03-4.52617E-01-1.16702E-13-1.57373E-13
 -1      2451 2.20642E+01-3.57499E-01-2.95401E-03-6.45990E-01-5.57338E-14-1.40140E-13
 -1      2452 2.27321E+01-5.59072E-01-1.68000E-02 1.22466E-01-4.43452E-14-2.84520E-13
 -1      2453 2.27035E+01-4.73538E-01 1.07958E-03-9.96943E-02-1.69885E-13-2.58479E-13
 -1      2454 2.24265E+01-5.97748E-01-1.83945E-03-3.14908E-01-1.02154E-13-2.00069E-13
 -1      2455 2.28230E+01-6.51445E-01-1.55540E-02 6.89898E-01-1.00771E-13-1.55465E-13
 -1      2456 2.28940E+01-6.20257E-01-1.27478E-03 4.16655E-01-2.46127E-14-1.99897E-13
 -1      2457 2.27702E+01-8.11413E-01 1.54965E-03 2.06471E-01-1.03038E-13-1.72676E-13
 -1      2458 2.27214E+01-5.49906E-01-7.52069E-03 1.28441E+00 6.20302E-14-2.69945E-14
 -1      2459 2.29038E+01-6.33357E-01-6.06077E-03 1.02861E+00-4.83884E-14-9.03401E-14
 -1      2460 2.30184E+01-8.73843E-01 7.59060E-03 8.78853E-01-4.31682E-14-2.85089E-14
 -1      2461 2.23915E+01-1.69356E-01 6.53381E-03 1.68708E+00 2.38153E-14 2.86586E-13
 -1      2462 2.26617E+01-4.00358E-01-1.29608E-02 1.55888E+00 6.50619E-14 1.07847E-13
 -1      2463 2.30628E+01-6.33492E-01 1.27996E-02 1.55019E+00 2.23573E-15 1.05774E-13
 -1      2464 2.18945E+01 4.21718E-01 1.90467E-02 1.63067E+00 9.96659E-14 3.77485E-13
 -1      2465 2.21813E+01 1.08463E-01-1.54014E-02 1.73706E+00 1.04540E-13 3.74590E-13
 -1      2466 2.28237E+01-2.52207E-02 9.99433E-03 1.93137E+00 3.13866E-15 2.30799E-13
 -1      2467 2.14206E+01 9.64830E-01 1.79520E-02 1.00152E+00 1.88762E-13 1.89135E-13
 -1      2468 2.16301E+01 7.19208E-01-1.00121E-02 1.35704E+00 2.31328E-13 3.72808E-13
 -1      2469 2.23833E+01 7.88467E-01 5.36473E-04 1.72902E+00 1.90016E-13 1.67145E-13
 -1      2470 2.12211E+01 1.11858E+00 2.00074E-03-1.86987E-02-6.56246E-14 4.12600E-14
 -1      2471 2.12748E+01 1.10927E+00 3.44950E-03 4.55050E-01 7.12538E-14 1.10978E-13
 -1      2472 2.19809E+01 1.40115E+00-1.86682E-02 8.53145E-01 2.84444E-13 2.44826E-13
 -1      2473 2.14133E+01 7.69544E-01-1.04437E-02-9.51855E-01-2.72952E-13 6.85112E-14
 -1      2474 2.13027E+01 1.00077E+00 1.91851E-02-5.79915E-01-1.84215E-13-1.35972E-14
 -1      2475 2.19103E+01 1.43767E+00-1.73347E-02-3.51613E-01-7.29720E-14 1.74444E-13
 -1      2476 2.18275E+01 1.55900E-01-1.63908E-02-1.38872E+00-3.59089E-13 4.53101E-14
 -1      2477 2.16250E+01 4.77010E-01 2.07013E-02-1.26096E+00-3.99212E-13-7.35878E-14
 -1      2478 2.21827E+01 8.53374E-01-3.21000E-03-1.27696E+00-3.02006E-13 1.20135E-13
 -1      2479 2.21952E+01-3.82057E-01-1.25064E-02-1.24244E+00-2.77148E-14 1.29884E-13
 -1      2480 2.20007E+01-1.38091E-01 9.14354E-03-1.35762E+00-1.24882E-13 6.57972E-14
 -1      2481 2.25382E+01 3.03104E-02 1.13599E-02-1.54457E+00-2.25041E-13-8.76838E-14
 -1      2482 2.23274E+01-6.45835E-01-5.66093E-03-7.13189E-01-8.88612E-14 1.33783E-13
 -1      2483 2.22171E+01-5.51327E-01-5.48750E-03-9.67106E-01-5.64800E-14 1.08177E-13
 -1      2484 2.27014E+01-6.22621E-01 1.41937E-02-1.18542E+00-5.41524E-14 3.25601E-14
 -1      2485 2.21991E+01-6.42718E-01-4.50997E-04-8.14080E-02 1.71692E-13 3.08535E-13
 -1      2486 2.22015E+01-6.73696E-01-1.44937E-02-3.57701E-01 5.70967E-14 2.35208E-13
 -1      2487 2.25775E+01-8.99699E-01 7.67039E-03-5.04266E-01 1.26648E-14 1.85998E-14
 -1      2488 2.18818E+01-4.76051E-01 2.82798E-03 4.48779E-01 7.98406E-15 5.35168E-13
 -1      2489 2.19845E+01-5.75383E-01-1.61727E-02 2.29114E-01 1.09517E-13 4.16638E-13
 -1      2490 2.22359E+01-8.39297E-01 1.01891E-03 1.92129E-01 5.67389E-14 3.77887E-13
 -1      2491 2.14674E+01-2.44612E-01 5.25094E-03 7.82191E-01 1.48982E-14 4.19734E-13
 -1      2492 2.16367E+01-3.67825E-01-1.34494E-02 6.54035E-01-2.27231E-14 5.92401E-13
 -1      2493 2.17886E+01-5.85599E-01-2.66972E-03 7.19158E-01-1.68429E-14 5.64974E-13
 -1      2494 2.10277E+01-5.92121E-03 6.99508E-03 8.94799E-01 1.78993E-13 4.30411E-13
 -1      2495 2.12251E+01-1.27725E-01-8.94972E-03 8.66309E-01 1.02356E-13 4.48833E-13
 -1      2496 2.13244E+01-2.54705E-01-1.51035E-03 1.00962E+00 1.81168E-14 3.71246E-13
 -1      2497 2.06105E+01 2.08369E-01 6.36398E-03 8.00880E-01 2.90507E-13 3.62412E-13
 -1      2498 2.08056E+01 1.03802E-01-4.56940E-03 8.64747E-01 2.79374E-13 5.07556E-13
 -1      2499 2.08843E+01 7.45212E-02-3.98389E-04 1.06253E+00 2.16246E-13 4.35189E-13
 -1      2500 2.04203E+01 3.00573E-01 8.16949E-04 6.69233E-01 2.58507E-13 2.30492E-13
 -1      2501 1.98499E+01 1.70927E+00-9.71280E-03 1.59066E+00-1.47679E-13-1.03691E-13
 -1      2502 2.00066E+01 1.46012E+00 6.83141E-03 1.61472E+00-2.15661E-13-1.20642E-13
 -1      2503 1.95134E+01 2.18454E+00-1.53999E-02 1.36222E+00-1.53230E-14-3.62931E-13
 -1      2504 1.96880E+01 1.96229E+00 5.85874E-03 1.50548E+00-1.14327E-13-2.56558E-13
 -1      2505 1.96910E+01 1.47529E+00-1.31707E-03 1.76702E+00-4.03815E-14-7.77486E-14
 -1      2506 2.03353E+01 8.41152E-01 3.35444E-03 1.37359E+00-1.52247E-13 7.85410E-14
 -1      2507 2.04033E+01 6.22628E-01 3.18915E-03 1.24571E+00 8.56251E-14 2.93883E-13
 -1      2508 2.01396E+01 1.24025E+00-2.56114E-03 1.57285E+00-2.86403E-13-2.69600E-13
 -1      2509 2.02519E+01 1.00174E+00 6.06225E-03 1.50132E+00-2.30174E-13-6.65002E-14
 -1      2510 2.03779E+01 6.58936E-01-2.38708E-03 1.61339E+00-1.20945E-13-9.00170E-14
 -1      2511 2.00860E+01 1.02292E+00-5.71583E-03 1.80341E+00-9.16173E-14-2.37106E-13
 -1      2512 1.92140E+01 2.57244E+00-1.72013E-02 8.69139E-01 1.83514E-13-1.48154E-13
 -1      2513 1.93569E+01 2.41745E+00 1.47602E-03 1.12788E+00 1.57182E-13-4.44790E-13
 -1      2514 1.92581E+01 1.93956E+00 5.01469E-03 1.43472E+00 6.34087E-14-2.21716E-13
 -1      2515 1.90523E+01 2.77273E+00-1.39062E-02 1.75953E-01-5.86271E-14 1.52702E-13
 -1      2516 1.91130E+01 2.71843E+00-5.43796E-03 5.09260E-01 1.20160E-14 4.43660E-14
 -1      2517 1.89083E+01 2.30228E+00 1.17086E-02 8.02368E-01 1.45200E-13-1.51733E-13
 -1      2518 1.90909E+01 2.72176E+00-7.22149E-03-5.75747E-01-1.36761E-13 7.41104E-14
 -1      2519 1.90456E+01 2.78222E+00-1.24441E-02-2.37610E-01-1.65162E-13 3.04117E-13
 -1      2520 1.87610E+01 2.45065E+00 1.46953E-02-2.77323E-02-5.14996E-17 1.70602E-13
 -1      2521 1.93129E+01 2.43511E+00 2.27424E-04-1.20931E+00-8.74947E-14-3.65489E-13
 -1      2522 1.91798E+01 2.59443E+00-1.63300E-02-9.42131E-01-1.14280E-13-1.53410E-13
 -1      2523 1.88724E+01 2.33583E+00 1.23078E-02-8.64653E-01-2.96069E-14-6.38092E-14
 -1      2524 1.96508E+01 1.97707E+00 5.63661E-03-1.62084E+00 4.77502E-14-3.04210E-13
 -1      2525 1.94695E+01 2.21031E+00-1.53743E-02-1.46388E+00 2.07966E-14-5.87493E-13
 -1      2526 1.92024E+01 1.99808E+00 5.81823E-03-1.52649E+00 1.26281E-14-3.67180E-13
 -1      2527 2.00091E+01 1.45602E+00 7.80332E-03-1.75074E+00 8.75877E-14 2.76483E-13
 -1      2528 1.98270E+01 1.72121E+00-1.04745E-02-1.72176E+00-1.25100E-14 8.15385E-14
 -1      2529 1.96523E+01 1.53917E+00-6.21954E-04-1.89655E+00-3.69258E-14-1.40870E-13
 -1      2530 2.03307E+01 9.64243E-01 1.00326E-02-1.61742E+00-4.04948E-13 1.06540E-13
 -1      2531 2.01733E+01 1.22141E+00-3.69377E-03-1.70542E+00-1.96788E-13 1.49942E-13
 -1      2532 2.01252E+01 1.07472E+00-2.56863E-04-1.94580E+00-2.30416E-13-5.13093E-14
 -1      2533 4.34735E+00-3.34237E+00 7.14537E-02 3.16075E+00 9.38138E-15 8.38996E-13
 -1      2534 3.11235E+00-3.52639E+00 3.82294E-02 9.57678E-01-2.15238E-13 9.78273E-13
 -1      2535 1.84238E+01-5.84226E+00-1.94257E-03 7.07119E+00 1.09024E-13 4.99541E-13
 -1      2536 1.46492E+01-5.76592E+00 5.88735E-02 7.04149E+00-2.64788E-14 5.62009E-13
 -1      2537 1.97026E+01 1.43167E-01 3.25509E-03 6.10113E-02 1.18864E-13-1.80474E-14
 -1      2538 1.97814E+01 1.98007E-01 1.23803E-02 1.47155E-01 1.38947E-13 1.17428E-14
 -1      2539 1.98476E+01 1.80734E-01-3.87802E-03 6.66172E-02 1.32593E-13-6.20979E-14
 -1      2540 2.04536E+01 6.87631E-01-3.83337E-04-1.20849E+00-2.24350E-13 4.85694E-13
 -1      2541 3.25533E+00-3.48601E+00 5.56244E-02-1.09925E+00-5.16739E-14 2.90545E-13
 -1      2542 4.61722E+00-3.43773E+00 6.51374E-02-3.50087E+00 2.44804E-13 1.56430E-13
 -1      2543 5.16892E+00-2.07646E+00 1.66904E-01-1.79787E-01 1.26111E-13 4.03122E-13
 -1      2544 1.05973E+01-5.03798E+00 3.63315E-02 6.95040E+00-2.60347E-14 7.05658E-13
 -1      2545 7.22256E+00-4.25542E+00 9.60400E-02 5.47513E+00 9.63118E-14 5.02570E-13
 -1      2546 1.42014E+01-4.90168E+00 1.13418E-01 6.91119E+00-7.31915E-14 5.91721E-13
 -1      2547 2.05467E+01 1.95503E+00-1.37222E-02-1.89643E+00-3.26314E-13 1.60197E-13
 -1      2548 2.04085E+01 1.20888E+00-8.82109E-03-1.29015E+00-3.03587E-13 1.82532E-13
 -1      2549 2.03815E+01 1.38480E+00 9.19547E-03-1.23912E+00-2.86281E-13 8.92914E-14
 -1      2550 2.02946E+01 2.39742E+00 7.04782E-04-1.83670E+00-3.38361E-13 4.57724E-14
 -1      2551 7.29995E+00-4.11950E+00 1.01024E-01-5.28746E+00 4.33709E-13 1.56208E-13
 -1      2552 1.03372E+01-4.76896E+00 1.79821E-02-6.74468E+00 3.05256E-13-1.29813E-13
 -1      2553 3.24356E+01 6.00323E+00-1.27699E-01 8.88439E-01-9.09384E-13-3.70259E-13
 -1      2554 3.27837E+01 7.10908E+00-1.40098E-01 2.71043E-01-8.43658E-13-2.93522E-13
 -1      2555 1.95205E+01 3.58431E+00-1.00946E-02-2.45475E-01-1.03190E-13-3.61553E-13
 -1      2556 1.95365E+01 3.56360E+00-9.67176E-03-4.26348E-01-1.32720E-13-3.35199E-13
 -1      2557 1.97129E+01 3.16303E+00-5.53747E-04-4.73706E-01-1.34332E-13-2.98859E-13
 -1      2558 1.96788E+01 3.22289E+00-9.09991E-04-1.52125E-01-9.26242E-14-3.46647E-13
 -1      2559 3.30807E+01 7.34630E+00-1.09442E-01 6.40988E-01 8.19900E-13 9.30922E-14
 -1      2560 3.32596E+01 7.59506E+00-1.22314E-01 2.35196E-01 6.89115E-13-2.97193E-14
 -1      2561 2.25520E+01-5.80153E+00 4.67995E-02-5.48658E+00 2.37754E-13 4.50626E-13
 -1      2562 2.60607E+01-5.06254E+00-1.34271E-01-4.28813E+00-4.06342E-14 4.34874E-13
 -1      2563 3.33882E+01 7.27681E+00-8.53221E-02-2.39908E-01 6.07181E-13-1.20237E-13
 -1      2564 3.25027E+01 6.25034E+00-1.51834E-01-6.00609E-01 6.39044E-13-1.60288E-13
 -1      2565 3.06872E+01 7.19356E+00-6.05920E-02-1.66833E-01 5.60274E-13-6.04308E-14
 -1      2566 3.23547E+01 4.26052E+00-8.38974E-02 9.77506E-01 6.94500E-13 4.18499E-13
 -1      2567 3.33177E+01 6.03376E+00-1.06891E-01 9.49110E-01 8.62255E-13 4.57051E-13
 -1      2568 3.03475E+01-5.82511E-01-4.41419E-02-5.24592E-01 4.50931E-13-1.74860E-14
 -1      2569 3.16824E+01 1.41401E+00-1.46775E-01 3.17983E-01 4.95506E-13 1.77636E-13
 -1      2570 2.59006E+01-4.25836E+00-7.62746E-03-3.64132E+00 5.70405E-13 4.05231E-15
 -1      2571 2.86580E+01-2.82446E+00-1.08889E-01-2.36283E+00 4.49210E-13-6.52256E-15
 -1      2572 1.90248E+01-5.67392E+00 2.03975E-02-6.19752E+00 2.92183E-13-4.87610E-13
 -1      2573 2.27219E+01-5.20796E+00-5.45372E-02-5.55837E+00 4.44506E-13-2.38462E-13
 -1      2574 1.10815E+01-4.88032E+00 8.41837E-02-6.60692E+00-1.62759E-13-6.90559E-13
 -1      2575 1.50627E+01-5.39600E+00 1.90743E-02-7.08666E+00 1.17018E-13-6.82746E-13
 -1      2576 4.38190E+00-3.57602E+00 6.86017E-02-3.51834E+00-3.03924E-13-9.51128E-13
 -1      2577 6.93787E+00-3.89424E+00 4.36892E-02-5.42268E+00-2.64844E-13-6.63108E-13
 -1      2578 2.91493E+00-3.24341E+00 5.70856E-02 1.00441E+00-1.72556E-13-5.57887E-13
 -1      2579 3.00985E+00-3.08154E+00 5.45972E-02-1.38160E+00-1.44190E-13-7.59559E-13
 -1      2580 6.20768E+00-3.69247E+00 6.36021E-02 4.70469E+00-1.02973E-13-1.03323E-12
 -1      2581 3.90759E+00-3.60325E+00 4.31785E-02 2.82125E+00-1.70183E-13-7.40519E-13
 -1      2582 5.27424E+00-2.04852E+00 1.65863E-01 1.87969E+00-2.81462E-13-7.15650E-13
 -1      2583 1.40199E+01-5.40001E+00 2.25312E-02 6.85335E+00-2.66454E-15-8.80518E-13
 -1      2584 1.00873E+01-4.79129E+00 8.64823E-02 6.18326E+00 7.62723E-14-1.03417E-12
 -1      2585 2.15495E+01-5.69474E+00-6.14283E-02 5.68772E+00-2.75585E-13-2.35201E-13
 -1      2586 1.80040E+01-5.86558E+00 3.44224E-02 6.18020E+00-1.21625E-13-5.15643E-13
 -1      2587 2.82840E+01-3.77704E+00-1.25898E-01 2.19049E+00-3.16497E-13-4.25826E-13
 -1      2588 2.51463E+01-5.05719E+00 1.90570E-02 3.69031E+00-2.82330E-13-2.19408E-13
 -1      2589 3.21246E+01 9.51460E-01-9.47214E-02-5.35911E-01-5.51587E-13-2.33424E-13
 -1      2590 3.03138E+01-1.11868E+00-4.46923E-02 8.33912E-02-4.49363E-13-3.41560E-13
 -1      2591 3.39819E+01 5.24014E+00-1.00063E-01-1.04770E+00-6.72518E-13-1.54932E-13
 -1      2592 3.30301E+01 3.48127E+00-8.07494E-02-9.03327E-01-6.16035E-13-3.37563E-13
 -1      2593 3.29390E+01 7.31618E+00-1.60910E-01-6.44101E-01-7.88647E-13-1.63793E-13
 -1      2594 3.37184E+01 6.58599E+00-4.98017E-02-1.05536E+00-7.13041E-13-2.06002E-13
 -1      2595 3.17945E+01 1.94632E+00-7.84207E-02 8.98627E-01-2.67342E-13-3.34649E-13
 -1      2596 3.21528E+01 3.72419E+00-1.92222E-01 1.11026E+00-7.09904E-13-5.60829E-13
 -1      2597 2.90884E+01-2.92953E+00 1.85130E-02-1.81387E+00-8.59625E-14 1.57874E-13
 -1      2598 3.12659E+01-6.42295E-01-1.43522E-01-4.65635E-01-4.73510E-14 1.97675E-13
 -1      2599 1.45381E+01-5.67029E+00 7.77326E-02-6.94435E+00 2.01617E-13-1.07470E-13
 -1      2600 1.85739E+01-5.96517E+00-3.42194E-02-6.95919E+00 2.99261E-13 4.95298E-14
 -1      2601 2.04893E+01 8.74869E-01-7.31846E-03 1.22743E+00 2.86667E-13 8.96876E-14
 -1      2602 2.08399E+01 1.25690E+00-6.05268E-03 1.72810E+00 3.09613E-13 1.13649E-13
 -1      2603 2.06459E+01 1.71558E+00-1.57911E-02 1.92230E+00 3.27629E-13 1.45543E-14
 -1      2604 2.04481E+01 1.05789E+00-9.39137E-03 1.24232E+00 2.83975E-13-1.26670E-14
 -1      2605 2.53099E+01-4.73763E+00-5.40954E-02 4.97298E+00 4.44089E-14 1.47660E-13
 -1      2606 2.19785E+01-5.64290E+00 5.21737E-03 5.80387E+00 9.43690E-16 2.52479E-13
 -1      2607 3.09126E+01 6.41466E+00-4.25839E-02 1.24574E+00 6.21392E-13 2.46317E-13
 -1      2608 1.99137E+01 2.81012E+00 1.14218E-03-1.09814E+00-2.42613E-13-1.96179E-13
 -1      2609 1.97806E+01 3.15599E+00-1.61775E-02-1.28784E+00-2.70747E-13-2.15935E-13
 -1      2610 1.98832E+01 3.01258E+00-1.85367E-02-1.47780E+00-2.90793E-13-1.78002E-13
 -1      2611 1.99934E+01 3.40026E-01-3.55902E-03 3.05644E-01 1.77200E-13-4.99201E-14
 -1      2612 2.04218E+01 2.11568E+00-1.27801E-02 1.87535E+00 3.08126E-13-1.04193E-13
 -1      2613 2.69931E+01-4.54866E+00 5.30872E-02 3.23283E+00 5.77316E-14-1.65257E-13
 -1      2614 3.17795E+01 4.99503E+00-7.32650E-02-1.08638E+00 5.28522E-13-6.05904E-14
 -1      2615 3.02281E+01 3.48596E+00-1.12452E-01-1.37771E+00 3.35620E-13-1.12924E-13
 -1      2616 2.96847E+01 5.51149E+00-1.50125E-01-1.42440E+00 4.87416E-13-5.62050E-14
 -1      2617 7.69551E+00-2.80093E+00 1.63375E-01-4.39636E+00 2.94376E-13 2.25653E-14
 -1      2618 2.04892E+01 3.42684E-01 5.33989E-04 8.93160E-01 3.10314E-13 3.44081E-13
 -1      2619 2.13420E+01-5.87298E+00 5.59600E-02 5.99605E+00-6.98885E-14 1.29216E-13
 -1      2620 2.04781E+01 4.66951E-01 3.27542E-03 1.03318E+00 3.22713E-13 4.31665E-13
 -1      2621 1.41586E+01-4.69006E+00 1.43485E-01-6.67588E+00 4.36928E-13-7.20535E-14
 -1      2622 9.90343E+00-2.80750E+00 1.23323E-01 5.39565E+00-7.83817E-14 4.54470E-13
 -1      2623 7.00681E+00-3.17070E+00 1.27556E-01 4.48059E+00 2.51466E-14 5.70377E-13
 -1      2624 7.17526E+00-1.85432E+00 1.31947E-01 3.35174E+00-1.39111E-13 9.42080E-13
 -1      2625 2.77625E+01-4.25390E+00 2.87826E-02-2.25710E+00 1.08802E-14 1.83187E-13
 -1      2626 3.03327E+01-1.95818E-02-3.22429E-02 1.01138E+00-1.14894E-13-4.43645E-13
 -1      2627 2.04359E+01 1.80790E+00 1.25448E-02 1.56315E+00 2.84700E-13-1.10304E-13
 -1      2628 3.07731E+01 6.78900E+00-8.24452E-02-1.13315E-01-8.11240E-13-6.48630E-14
 -1      2629 2.01186E+01 2.61279E+00-9.99871E-03-1.67700E+00-3.31109E-13-4.52936E-14
 -1      2630 3.05107E+01 4.44023E+00-8.17000E-02 1.63511E+00-6.72490E-13-5.08094E-13
 -1      2631 3.16234E+01 5.60976E+00-1.25525E-02-1.72291E+00-6.33993E-13 2.92544E-14
 -1      2632 3.11244E+01 1.90091E+00-4.51555E-02-1.90170E+00-4.96381E-13 5.71210E-14
 -1      2633 2.89461E+01-2.95958E+00-3.75480E-02 2.36807E-01-2.75589E-13-1.47188E-13
 -1      2634 2.42484E+01-5.43826E+00 7.77321E-02 3.99403E+00-8.27949E-14-1.30868E-13
 -1      2635 9.22506E+00-3.74188E+00 1.08542E-01 5.54041E+00 8.60423E-15-1.03795E-12
 -1      2636 8.78263E+00-2.34358E+00 1.50759E-01 4.66303E+00-1.41831E-13-7.96779E-13
 -1      2637 1.23036E+01-3.58353E+00 9.22597E-02 5.87262E+00 2.08847E-13-8.98975E-13
 -1      2638 5.40613E+00-2.15575E+00 1.60243E-01-2.41642E+00-2.70325E-13-7.76657E-13
 -1      2639 1.01399E+01-3.95125E+00 1.23967E-01-6.12171E+00-3.41283E-13-6.46483E-13
 -1      2640 1.32238E+01-3.98028E+00 5.06494E-02-6.34333E+00-4.06244E-13-7.97182E-13
 -1      2641 9.63168E+00-2.68311E+00 1.70068E-01-5.42823E+00-4.49488E-13-6.86173E-13
 -1      2642 1.83104E+01-5.47967E+00 7.17042E-02-6.34676E+00-6.09790E-14-4.95919E-13
 -1      2643 2.49736E+01-5.05561E+00 4.65136E-02-3.91671E+00 2.63678E-13 1.11217E-13
 -1      2644 2.91043E+01-2.25108E+00-4.74030E-03-5.29067E-01 3.80843E-13 2.42473E-13
 -1      2645 3.06299E+01-5.75544E-01-2.56675E-02 3.10044E-01 2.42625E-13-4.83252E-13
 -1      2646 2.91335E+01-2.20430E+00 2.50834E-03 3.73283E-01 1.26701E-13-5.15393E-13
 -1      2647 2.99972E+01 4.39510E-01-2.11369E-01-1.04630E+00 1.94705E-13-4.85695E-13
 -1      2648 2.16755E+01-5.83111E+00 9.53692E-02-5.75423E+00 3.73285E-13 3.92835E-13
 -1      2649 3.07543E+01 2.47546E+00-4.21224E-02 1.58242E+00 5.37015E-13 6.00658E-13
 -1      2650 1.71991E+01-5.41234E+00 8.69564E-02 6.28449E+00 1.65368E-13-4.71206E-13
 -1      2651 2.07026E+01 4.51737E-01 9.76284E-03-1.34956E+00-3.25155E-13 6.42489E-13
 -1      2652 2.04737E+01 7.52959E-01-1.36843E-03-1.53066E+00-4.04490E-13 2.82254E-13
 -1      2653 2.05300E+01 6.52998E-01-1.85861E-03-1.78612E+00-4.82262E-13 2.92978E-13
 -1      2654 2.09161E+01 3.23152E-01-3.69818E-04-1.49015E+00-4.12059E-13 7.96116E-13
 -1      2655 2.05944E+01 3.48906E-01-3.48463E-03 1.25063E+00 1.86604E-13 2.37472E-13
 -1      2656 2.08592E+01 3.24513E-01-3.53820E-03-1.75716E+00-3.62748E-13 7.27879E-13
 -1      2657 1.98465E+01 2.76433E+00-6.30134E-03 5.16749E-01 1.85671E-14-3.11382E-13
 -1      2658 1.98218E+01 2.81406E+00-5.70207E-03 3.65751E-01-1.27524E-14-3.27021E-13
 -1      2659 1.98049E+01 2.85160E+00-5.61156E-03 2.30096E-01-2.82832E-14-3.48122E-13
 -1      2660 1.97965E+01 2.86845E+00-5.43977E-03 7.53422E-02-4.87316E-14-3.29406E-13
 -1      2661 1.99514E+01 2.50024E+00 3.63013E-03 2.65543E-01-1.63128E-14-3.14521E-13
 -1      2662 2.00443E+01 2.32353E+00-1.06988E-02 1.04683E+00 1.72924E-13-2.39124E-13
 -1      2663 1.99802E+01 2.47237E+00-6.33739E-03 9.11170E-01 1.32895E-13-2.44968E-13
 -1      2664 2.02168E+01 1.90825E+00-1.19318E-02 1.22832E+00 2.33660E-13-2.04717E-13
 -1      2665 2.01246E+01 2.14584E+00-4.85062E-03 1.13496E+00 1.96645E-13-2.21807E-13
 -1      2666 2.01898E+01 1.88602E+00 6.38898E-03 9.27460E-01 1.83522E-13-1.97344E-13
 -1      2667 2.02119E+01 7.26649E-01-3.46536E-03 6.43963E-01 2.00028E-13-9.28052E-14
 -1      2668 2.03540E+01 9.51425E-01 9.17581E-03 9.07574E-01 2.33274E-13-8.01114E-14
 -1      2669 2.84527E+01 5.92620E+00-1.62879E-01 4.54535E-01-7.20368E-13 1.02258E-13
 -1      2670 2.86088E+01 5.98363E+00-2.01273E-01-8.39726E-01-7.36439E-13 2.19810E-13
 -1      2671 1.34824E+01-3.42175E+00 1.84132E-01-6.13461E+00 5.44564E-13 1.47243E-14
 -1      2672 1.67840E+01-4.71339E+00-8.35838E-03-6.57605E+00 3.82555E-13 7.59948E-14
 -1      2673 2.02148E+01 6.26792E-01 7.81240E-03-4.38640E-01-1.78234E-13 1.25817E-14
 -1      2674 2.01317E+01 4.75637E-01-3.11464E-03-2.79604E-01-1.69722E-13-3.46432E-15
 -1      2675 2.01056E+01 3.62207E-01 6.62576E-03-1.60058E-01-1.56707E-13 3.04523E-15
 -1      2676 2.00464E+01 2.67590E-01-1.73694E-03-6.23801E-02-1.45977E-13-2.86378E-14
 -1      2677 2.01954E+01 5.28364E-01-1.52147E-03-2.63435E-01-1.77169E-13-2.91836E-14
 -1      2678 2.00203E+01 1.97445E-01 4.54406E-03 1.29484E-02-1.37852E-13-2.28157E-14
 -1      2679 1.99845E+01 1.38056E-01-8.17697E-04 6.95690E-02-1.24226E-13-2.55580E-14
 -1      2680 2.01263E+01 2.98556E-01-2.06379E-03-5.69141E-02-1.49657E-13-3.95739E-14
 -1      2681 1.99636E+01 9.41233E-02 2.90136E-03 1.13054E-01-1.23661E-13-2.69547E-14
 -1      2682 1.99456E+01 5.71274E-02-2.74141E-04 1.42666E-01-1.14705E-13-5.90614E-14
 -1      2683 2.00699E+01 1.52759E-01-1.90352E-03 7.05350E-02-1.40615E-13-5.74382E-14
 -1      2684 1.99307E+01 3.00081E-02 1.73205E-03 1.64433E-01-9.93184E-14-7.38191E-14
 -1      2685 1.99250E+01 7.69845E-03 3.75219E-05 1.76707E-01-9.83868E-14-6.69627E-14
 -1      2686 2.00291E+01 6.11004E-02-1.53673E-03 1.41997E-01-1.25197E-13-7.76769E-14
 -1      2687 1.99155E+01-8.26195E-03 9.22523E-04 1.84346E-01-8.12184E-14-5.40465E-14
 -1      2688 1.99177E+01-2.07006E-02 2.14008E-04 1.85961E-01-6.42959E-14-6.24691E-14
 -1      2689 2.00022E+01 5.19913E-03-1.16319E-03 1.75674E-01-7.79930E-14-8.61480E-14
 -1      2690 1.99123E+01-2.90857E-02 3.77380E-04 1.85003E-01-7.19411E-14-4.27234E-14
 -1      2691 1.99194E+01-3.47821E-02 3.17704E-04 1.80602E-01-7.42562E-14-6.14465E-15
 -1      2692 1.99862E+01-2.65556E-02-8.50761E-04 1.85191E-01-4.94194E-14-6.56898E-15
 -1      2693 1.99170E+01-3.79445E-02 2.17361E-05 1.75027E-01-6.45277E-14 1.55758E-14
 -1      2694 1.99269E+01-3.89719E-02 3.86442E-04 1.67862E-01-3.62489E-14-2.36109E-14
 -1      2695 1.99784E+01-4.17517E-02-6.11902E-04 1.80489E-01-6.01106E-14 4.34050E-14
 -1      2696 1.99267E+01-3.84729E-02-2.01978E-04 1.60529E-01-2.35830E-14 5.85161E-15
 -1      2697 1.99382E+01-3.61978E-02 4.43782E-04 1.52908E-01-6.42040E-15 2.05984E-15
 -1      2698 1.99765E+01-4.54348E-02-4.40263E-04 1.68744E-01-3.47855E-14 1.58667E-14
 -1      2699 1.99395E+01-3.30551E-02-3.37519E-04 1.45889E-01-3.29308E-14-5.05917E-15
 -1      2700 1.99519E+01-2.83434E-02 5.05501E-04 1.39488E-01-3.84234E-14 1.96618E-15
 -1      2701 1.99787E+01-4.09449E-02-3.24329E-04 1.55147E-01-2.74435E-14 8.29938E-15
 -1      2702 1.99544E+01-2.31809E-02-4.17982E-04 1.34326E-01-5.33083E-14-3.49565E-14
 -1      2703 1.99675E+01-1.65286E-02 5.83183E-04 1.30422E-01-5.82593E-14-4.96825E-14
 -1      2704 1.99839E+01-3.04144E-02-2.52374E-04 1.43510E-01-6.53482E-14-2.94796E-14
 -1      2705 1.99710E+01-9.67532E-03-4.68357E-04 1.28330E-01-5.67826E-14-1.43937E-14
 -1      2706 1.99850E+01-1.29918E-03 6.85946E-04 1.27971E-01-5.79144E-14 3.34060E-14
 -1      2707 1.99914E+01-1.50860E-02-2.13961E-04 1.36742E-01-3.22687E-14-5.67316E-14
 -1      2708 1.99893E+01 7.13922E-03-5.07607E-04 1.29990E-01-7.96356E-14 6.30504E-14
 -1      2709 2.00048E+01 1.72332E-02 8.21240E-04 1.34124E-01-1.18582E-13 8.46830E-14
 -1      2710 2.00009E+01 4.46668E-03-1.99953E-04 1.37211E-01-5.64667E-14-3.69216E-16
 -1      2711 2.00098E+01 2.73174E-02-5.50313E-04 1.41230E-01-1.44190E-13 1.19725E-13
 -1      2712 2.00275E+01 3.92768E-02 9.95020E-04 1.50798E-01-9.28627E-14 1.11851E-13
 -1      2713 2.00124E+01 2.81728E-02-2.02024E-04 1.47021E-01-9.58085E-14 1.15085E-13
 -1      2714 2.00334E+01 5.11821E-02-6.07804E-04 1.63987E-01-7.71029E-14 1.07809E-13
 -1      2715 2.00540E+01 6.52518E-02 1.21140E-03 1.79984E-01-7.73060E-14 3.11653E-14
 -1      2716 2.00258E+01 5.63230E-02-2.12243E-04 1.68210E-01-1.36378E-13 1.93022E-13
 -1      2717 2.00608E+01 7.92120E-02-6.88722E-04 2.00318E-01-9.50831E-14-1.51855E-14
 -1      2718 2.00855E+01 9.56679E-02 1.47196E-03 2.23822E-01-7.98595E-14-6.76639E-14
 -1      2719 2.00413E+01 8.94309E-02-2.22413E-04 2.02881E-01-9.60953E-14 4.81800E-14
 -1      2720 2.00932E+01 1.11904E-01-7.98951E-04 2.52444E-01-6.93181E-14-1.04915E-13
 -1      2721 2.01232E+01 1.30962E-01 1.77459E-03 2.84600E-01-3.36657E-14-9.85375E-14
 -1      2722 2.00591E+01 1.28072E-01-2.23898E-04 2.53261E-01-1.04127E-13-3.78398E-14
 -1      2723 2.01317E+01 1.49576E-01-9.40458E-04 3.22706E-01 2.97800E-14-1.15669E-13
 -1      2724 2.01682E+01 1.71255E-01 2.11189E-03 3.64659E-01 8.29386E-14-1.21759E-13
 -1      2725 2.00793E+01 1.72661E-01-2.08139E-04 3.21689E-01-2.93603E-14-4.57704E-14
 -1      2726 2.01775E+01 1.92064E-01-1.10847E-03 4.13421E-01 8.55041E-14-1.82647E-13
 -1      2727 2.02217E+01 2.15960E-01 2.46933E-03 4.66174E-01 5.39956E-14-2.08777E-13
 -1      2728 2.01019E+01 2.23123E-01-1.68720E-04 4.10503E-01 3.47513E-14-2.26960E-13
 -1      2729 2.02318E+01 2.38227E-01-1.28590E-03 5.26590E-01-1.09551E-14-1.61595E-13
 -1      2730 2.02852E+01 2.63155E-01 2.82334E-03 5.90740E-01-9.01943E-14-1.69055E-13
 -1      2731 2.01267E+01 2.78365E-01-1.06497E-04 5.21816E-01 4.87563E-14-3.61229E-13
 -1      2732 2.02963E+01 2.85152E-01-1.43347E-03 6.63398E-01-1.23198E-13-1.08580E-13
 -1      2733 2.03603E+01 3.08573E-01 3.14009E-03 7.38711E-01-7.01663E-14-1.67486E-13
 -1      2734 2.01540E+01 3.35441E-01-4.01887E-05 6.57146E-01-9.04754E-14-4.70498E-14
 -1      2735 2.03733E+01 3.26895E-01-1.47312E-03 8.23423E-01-5.28679E-14-1.96115E-13
 -1      2736 2.04496E+01 3.44034E-01 3.37498E-03 9.08168E-01-7.80890E-14-1.75456E-13
 -1      2737 2.01843E+01 3.88230E-01-2.61449E-05 8.16854E-01-7.83943E-14 1.69900E-15
 -1      2738 2.04672E+01 3.52591E-01-1.26215E-03 1.00342E+00-6.18933E-15-8.54255E-14
 -1      2739 2.05587E+01 3.55186E-01 3.47160E-03 1.09337E+00 4.07073E-14-3.45665E-14
 -1      2740 2.02203E+01 4.25453E-01-1.92036E-04 9.99347E-01 3.58921E-15-4.32593E-15
 -1      2741 2.05869E+01 3.43843E-01-5.56045E-04 1.19550E+00 2.70548E-14-3.16597E-14
 -1      2742 2.06983E+01 3.18592E-01 3.35110E-03 1.28254E+00 4.96912E-14-2.39608E-14
 -1      2743 2.02686E+01 4.27875E-01-7.88642E-04 1.19994E+00 6.32422E-14 3.89546E-14
 -1      2744 2.07495E+01 2.71719E-01 1.03774E-03 1.38443E+00 6.88074E-14-1.52218E-14
 -1      2745 2.08895E+01 1.98897E-01 2.86786E-03 1.45457E+00 5.69878E-14 3.17354E-14
 -1      2746 2.03447E+01 3.64856E-01-2.25764E-03 1.40917E+00 5.35525E-14 1.02851E-13
 -1      2747 2.09867E+01 9.47418E-02 4.10001E-03 1.54332E+00 1.48871E-13 6.09740E-14
 -1      2748 2.11695E+01-5.14545E-02 1.67782E-03 1.57427E+00 3.13535E-13 1.84462E-13
 -1      2749 2.04787E+01 1.91296E-01-5.28618E-03 1.60986E+00 1.40343E-13 1.72132E-13
 -1      2750 2.13517E+01-2.38045E-01 9.34545E-03 1.62678E+00 3.25436E-13 2.10071E-13
 -1      2751 2.15964E+01-4.83583E-01-1.06898E-03 1.58524E+00 2.69620E-13 3.19169E-13
 -1      2752 2.07256E+01-1.51720E-01-1.07515E-02 1.77141E+00 3.44565E-13 1.74658E-13
 -1      2753 2.19208E+01-7.69891E-01 1.70966E-02 1.56022E+00 2.54528E-13 2.63830E-13
 -1      2754 2.22443E+01-1.12079E+00-6.52564E-03 1.40032E+00 2.71878E-13 2.64192E-13
 -1      2755 2.11737E+01-7.23872E-01-1.93931E-02 1.83787E+00 3.13741E-13 2.98569E-13
 -1      2756 2.27767E+01-1.48617E+00 2.71129E-02 1.22792E+00 2.33047E-13 3.37331E-13
 -1      2757 2.31730E+01-1.88382E+00-1.49175E-02 8.98510E-01 2.01361E-13 5.24101E-13
 -1      2758 2.19431E+01-1.54216E+00-3.00676E-02 1.70842E+00 3.21570E-13 2.69203E-13
 -1      2759 2.39380E+01-2.21309E+00 3.16931E-02 4.79776E-01 1.20095E-13 5.45384E-13
 -1      2760 2.43483E+01-2.45189E+00-2.22078E-02-4.22374E-02 1.01768E-13 5.55811E-13
 -1      2761 2.31465E+01-2.46487E+00-3.56288E-02 1.21038E+00 1.46455E-13 4.60344E-13
 -1      2762 2.52283E+01-2.47845E+00 1.08223E-02-7.57989E-01 4.37827E-14 6.74644E-13
 -1      2763 2.55325E+01-2.17879E+00-2.24596E-02-1.37923E+00-6.39731E-14 7.56548E-13
 -1      2764 2.47625E+01-3.00620E+00-2.71153E-02 1.42859E-01 1.19908E-13 4.45039E-13
 -1      2765 2.61394E+01-1.45929E+00-4.82975E-02-2.19068E+00-1.41486E-13 9.26160E-13
 -1      2766 2.61550E+01-4.13550E-01-4.45560E-02-2.50033E+00-1.90670E-13 9.10392E-13
 -1      2767 2.64087E+01-2.29909E+00 1.87722E-03-1.42806E+00-2.42341E-15 5.42254E-13
 -1      2768 2.56659E+01 4.02709E+00-1.04035E-01-1.22488E+00-5.16087E-13 6.90770E-13
 -1      2769 2.55528E+01 4.25187E+00-1.60190E-01-1.37785E-01-5.06040E-13 4.86472E-13
 -1      2770 2.60240E+01 1.72427E+00-3.75979E-02 2.17358E+00-4.22655E-13 2.02772E-13
 -1      2771 2.61160E+01 2.41336E-01-1.10315E-01 2.32714E+00-1.86955E-13 5.84949E-14
 -1      2772 2.59278E+01-1.01623E+00-2.23488E-02 1.84923E+00-1.42802E-14-1.48068E-13
 -1      2773 2.57494E+01-1.94458E+00-4.36257E-02 1.34656E+00-3.13326E-14-2.38044E-13
 -1      2774 2.69950E+01-6.40804E-01-5.15550E-02 1.97312E+00-2.10783E-13 9.02056E-15
 -1      2775 2.50651E+01-2.37940E+00-1.76021E-02 5.25807E-01 1.32962E-13-1.08084E-13
 -1      2776 2.46757E+01-2.50513E+00 1.66093E-02-1.02416E-01 3.25002E-13 7.27899E-14
 -1      2777 2.58814E+01-2.60485E+00-1.27403E-02 5.97164E-01 1.50397E-13-2.82566E-13
 -1      2778 2.38271E+01-2.36961E+00-2.39807E-02-7.54871E-01 2.26768E-13 1.29612E-13
 -1      2779 2.33823E+01-2.05004E+00 2.80447E-02-1.23672E+00 2.29006E-13 6.34241E-14
 -1      2780 2.42437E+01-2.93922E+00-4.00142E-02-9.33232E-01 2.58500E-13-2.67703E-14
 -1      2781 2.26825E+01-1.68866E+00-1.56734E-02-1.59697E+00 3.20183E-13-4.78849E-15
 -1      2782 2.22751E+01-1.26396E+00 2.35871E-02-1.87580E+00 3.71102E-13 4.75566E-14
 -1      2783 2.27729E+01-2.21743E+00-3.59227E-02-1.87250E+00 2.21909E-13 1.56007E-13
 -1      2784 2.17967E+01-8.86090E-01-7.39919E-03-2.00732E+00 3.88927E-13 7.87757E-14
 -1      2785 2.14671E+01-5.02750E-01 1.64785E-02-2.11028E+00 3.02060E-13 9.69578E-14
 -1      2786 2.16971E+01-1.25319E+00-2.61336E-02-2.28173E+00 3.42242E-13 2.53938E-13
 -1      2787 2.11671E+01-1.79724E-01-2.70618E-03-2.09032E+00 2.75024E-13 1.11777E-13
 -1      2788 2.09157E+01 1.26659E-01 9.78338E-03-2.05233E+00 1.26311E-13 1.61648E-13
 -1      2789 2.10080E+01-3.80642E-01-1.50189E-02-2.33578E+00 3.35049E-13 1.67845E-13
 -1      2790 1.98536E+01 4.95519E-02 6.44511E-05-1.42588E-01 8.45023E-14-6.94582E-14
 -1      2791 1.98676E+01 8.12456E-02 3.16315E-03-1.14176E-01 9.29553E-14-5.83738E-14
 -1      2792 2.06914E+01 2.33999E-01 3.13455E-03 1.57548E+00-1.19400E-13-1.45372E-13
 -1      2793 2.08048E+01 1.17436E-01 6.20775E-03 1.32051E+00 1.22257E-13 1.47681E-13
 -1      2794 2.09979E+01-9.12736E-02-7.47054E-03 1.35798E+00 8.69246E-15 5.02474E-14
 -1      2795 2.03373E+01 1.50006E+00-1.90660E-03 1.26795E+00 2.58802E-13-1.31047E-13
 -1      2796 1.98905E+01 1.18693E-01-2.53500E-04-6.96216E-02 9.70853E-14-9.21599E-14
 -1      2797 1.99263E+01 1.70217E-01 5.19552E-03-1.41280E-02 1.04460E-13-6.61183E-14
 -1      2798 1.99909E+01 1.35479E-01-2.34481E-03-7.12508E-02 9.76893E-14-9.41272E-14
 -1      2799 1.98426E+01-1.65982E-02 2.89462E-04-1.84555E-01 5.04287E-14 1.99103E-14
 -1      2800 1.98339E+01-5.97809E-03 8.79913E-04-1.83578E-01 5.99058E-14-2.74106E-14
 -1      2801 1.98547E+01-2.87709E-02 3.24443E-04-1.78531E-01 5.99406E-14 3.64335E-14
 -1      2802 1.98413E+01-2.38145E-02 2.92781E-04-1.83383E-01 7.07695E-14 1.50625E-14
 -1      2803 1.99208E+01-2.23363E-02-8.84123E-04-1.88262E-01 7.03405E-14 2.54289E-14
 -1      2804 1.98725E+01-3.27388E-02 3.50547E-04-1.65087E-01 8.73998E-14 2.14186E-14
 -1      2805 1.98567E+01-3.16618E-02-7.33822E-05-1.72634E-01 6.77867E-14 2.67864E-14
 -1      2806 1.99218E+01-3.59433E-02-5.96686E-04-1.82806E-01 9.33607E-14 5.52648E-15
 -1      2807 1.98932E+01-3.09929E-02 3.83880E-04-1.49265E-01 1.11822E-13-7.99794E-14
 -1      2808 1.98766E+01-3.26251E-02-2.89192E-04-1.57315E-01 1.23293E-13-1.45610E-14
 -1      2809 1.99287E+01-3.97152E-02-4.00413E-04-1.70002E-01 1.32436E-13-3.58396E-14
 -1      2810 1.99154E+01-2.51452E-02 4.34482E-04-1.34669E-01 1.15316E-13-8.90065E-14
 -1      2811 1.98986E+01-2.87381E-02-4.04859E-04-1.41655E-01 1.09935E-13-6.56349E-14
 -1      2812 1.99393E+01-3.65930E-02-2.77219E-04-1.55060E-01 1.26703E-13-1.01463E-13
 -1      2813 1.99387E+01-1.61841E-02 5.09607E-04-1.23961E-01 5.87975E-14-6.75341E-14
 -1      2814 1.99218E+01-2.12916E-02-4.56455E-04-1.28714E-01 8.63988E-14-4.90413E-14
 -1      2815 1.99524E+01-2.84684E-02-2.10614E-04-1.41750E-01 9.65173E-14 2.09503E-14
 -1      2816 1.99633E+01-4.64363E-03 6.15085E-04-1.19221E-01 7.21206E-14-3.41066E-14
 -1      2817 1.99459E+01-1.10399E-02-4.70106E-04-1.20811E-01 6.98702E-14-8.65555E-14
 -1      2818 1.99673E+01-1.64862E-02-1.87354E-04-1.32896E-01 7.78380E-14 2.06054E-14
 -1      2819 1.99898E+01 9.26671E-03 7.55606E-04-1.22205E-01 9.89643E-14-6.36304E-14
 -1      2820 1.99713E+01 1.65171E-03-4.64463E-04-1.19824E-01 1.08084E-13-1.16575E-14
 -1      2821 1.99839E+01-1.24861E-03-1.97183E-04-1.30732E-01 8.45935E-14-1.31788E-15
 -1      2822 2.00194E+01 2.55488E-02 9.34437E-04-1.34536E-01 1.11537E-13-3.24071E-14
 -1      2823 1.99988E+01 1.66878E-02-4.52521E-04-1.27420E-01 8.22442E-14-6.15472E-14
 -1      2824 2.00026E+01 1.70227E-02-2.32122E-04-1.37177E-01 1.02648E-13-6.19913E-15
 -1      2825 2.00538E+01 4.43019E-02 1.15258E-03-1.57804E-01 7.09299E-14 3.49150E-14
 -1      2826 2.00299E+01 3.41307E-02-4.42815E-04-1.45194E-01 1.17572E-13 6.83541E-15
 -1      2827 2.00241E+01 3.83415E-02-2.85733E-04-1.54006E-01 6.49449E-14 3.98374E-14
 -1      2828 2.00948E+01 6.55887E-02 1.40726E-03-1.93594E-01-3.52488E-14 2.56076E-14
 -1      2829 2.00663E+01 5.40794E-02-4.39929E-04-1.74737E-01 4.57228E-14 5.55571E-14
 -1      2830 2.00491E+01 6.28060E-02-3.52839E-04-1.82952E-01 5.07373E-14 6.39377E-14
 -1      2831 2.01445E+01 8.92597E-02 1.68977E-03-2.43424E-01-8.78816E-15-5.95210E-14
 -1      2832 2.01097E+01 7.65187E-02-4.44224E-04-2.17619E-01-5.63838E-14-4.31803E-14
 -1      2833 2.00789E+01 9.04169E-02-4.29517E-04-2.25721E-01 3.38103E-14 1.24276E-14
 -1      2834 2.02053E+01 1.14708E-01 1.98248E-03-3.08559E-01 3.22601E-14-3.59792E-14
 -1      2835 2.01627E+01 1.01114E-01-4.50671E-04-2.75273E-01 3.51688E-16-3.00857E-14
 -1      2836 2.01149E+01 1.20837E-01-5.13566E-04-2.83903E-01-1.14863E-14-7.54122E-14
 -1      2837 2.02798E+01 1.40521E-01 2.25488E-03-3.89665E-01 1.62567E-14 5.32649E-14
 -1      2838 2.02276E+01 1.26921E-01-4.46436E-04-3.48740E-01 6.88918E-14 1.69949E-15
 -1      2839 2.01586E+01 1.53055E-01-6.06394E-04-3.58763E-01 2.53596E-14-8.25334E-14
 -1      2840 2.03708E+01 1.63982E-01 2.45868E-03-4.86259E-01-5.97005E-14 4.35782E-14
 -1      2841 2.03075E+01 1.51970E-01-4.06711E-04-4.38227E-01-7.45226E-15 4.42585E-14
 -1      2842 2.02119E+01 1.84912E-01-7.16729E-04-4.50865E-01-3.30793E-15 1.54509E-14
 -1      2843 2.04818E+01 1.80396E-01 2.52210E-03-5.95864E-01 8.75385E-16-9.79882E-14
 -1      2844 2.04056E+01 1.72688E-01-2.88356E-04-5.42435E-01-5.36143E-14 5.14755E-14
 -1      2845 2.02776E+01 2.12435E-01-8.67105E-04-5.59495E-01-1.14832E-14 8.14572E-14
 -1      2846 2.06164E+01 1.82233E-01 2.34371E-03-7.12823E-01 3.04242E-14-1.07422E-13
 -1      2847 2.05261E+01 1.83131E-01-2.13726E-05-6.57554E-01 3.05162E-14-6.74304E-14
 -1      2848 2.03592E+01 2.28958E-01-1.10373E-03-6.81808E-01 3.19126E-14 1.48963E-13
 -1      2849 2.07798E+01 1.58229E-01 1.78647E-03-8.26680E-01 4.94661E-14-7.76330E-14
 -1      2850 2.06742E+01 1.74078E-01 5.00071E-04-7.75861E-01 7.95806E-14-1.41202E-13
 -1      2851 2.04620E+01 2.24052E-01-1.50879E-03-8.11627E-01 3.41882E-14 1.71730E-13
 -1      2852 2.09789E+01 9.28662E-02 6.73628E-04-9.20179E-01-4.81793E-14-7.51377E-14
 -1      2853 2.08572E+01 1.32241E-01 1.42053E-03-8.83852E-01 2.88169E-14-1.10771E-13
 -1      2854 2.05946E+01 1.82499E-01-2.20962E-03-9.37825E-01-1.62649E-15 8.49913E-14
 -1      2855 2.12229E+01-3.27255E-02-1.21414E-03-9.67064E-01-5.66907E-14-4.43440E-14
 -1      2856 2.10850E+01 4.02587E-02 2.90298E-03-9.59962E-01-8.25076E-14-3.89087E-14
 -1      2857 2.07702E+01 8.39714E-02-3.36974E-03-1.04219E+00-7.51198E-14 7.68608E-14
 -1      2858 2.15235E+01-2.36402E-01-4.09892E-03-9.30416E-01-1.08380E-14-8.69591E-14
 -1      2859 2.13706E+01-1.21054E-01 5.03988E-03-9.72219E-01 2.19347E-14-9.49473E-14
 -1      2860 2.10082E+01-9.50650E-02-5.13611E-03-1.09686E+00 1.66008E-14 4.19539E-14
 -1      2861 2.18906E+01-5.23946E-01-8.09960E-03-7.63334E-01-1.05259E-13-1.01432E-13
 -1      2862 2.17278E+01-3.65517E-01 7.72202E-03-8.76951E-01-7.40615E-14-1.32766E-13
 -1      2863 2.13344E+01-3.74435E-01-7.45480E-03-1.06162E+00-5.41879E-14-1.28488E-14
 -1      2864 2.23232E+01-8.67061E-01-1.27364E-02-4.15183E-01-1.26860E-14-8.70987E-14
 -1      2865 2.21632E+01-6.86041E-01 1.02288E-02-6.21045E-01-4.49478E-14-5.65098E-14
 -1      2866 2.17758E+01-7.54168E-01-9.70588E-03-8.82760E-01-8.35940E-14-5.33995E-14
 -1      2867 2.27893E+01-1.17001E+00-1.59730E-02 1.47218E-01-1.56024E-13-4.22833E-14
 -1      2868 2.26575E+01-1.02614E+00 1.07466E-02-1.54700E-01-7.07020E-14-7.39404E-15
 -1      2869 2.23443E+01-1.18226E+00-9.98603E-03-4.97416E-01-4.79430E-14 5.18671E-14
 -1      2870 2.32033E+01-1.24692E+00-1.37768E-02 8.92660E-01-2.84811E-14-2.68350E-14
 -1      2871 2.31377E+01-1.24746E+00 6.45262E-03 5.31817E-01-1.42485E-13-7.31226E-14
 -1      2872 2.30023E+01-1.51341E+00-5.42916E-03 1.40448E-01-1.24348E-13-7.70326E-14
 -1      2873 2.34202E+01-8.65463E-01-6.26970E-03 1.65216E+00 4.53934E-14 1.18033E-13
 -1      2874 2.34612E+01-1.12738E+00-6.26075E-03 1.34026E+00 6.12678E-14 8.11191E-14
 -1      2875 2.36213E+01-1.48855E+00 5.52981E-03 9.96107E-01-4.47576E-14-3.28940E-14
 -1      2876 2.33172E+01 1.19981E-01 1.40858E-02 2.08809E+00-2.95354E-14 1.33035E-13
 -1      2877 2.34615E+01-4.42917E-01-2.51085E-02 2.00373E+00-1.80489E-14 2.01922E-13
 -1      2878 2.39871E+01-8.48534E-01 6.87487E-03 1.86482E+00-6.30153E-14 2.18476E-13
 -1      2879 2.29488E+01 1.33664E+00 2.00769E-02 1.78489E+00 2.79067E-13 1.56767E-13
 -1      2880 2.30964E+01 6.97302E-01-4.77962E-02 2.03468E+00 2.00356E-13 9.38112E-14
 -1      2881 2.38775E+01 5.75264E-01 3.28315E-03 2.27627E+00 1.15789E-13 1.98522E-14
 -1      2882 2.25507E+01 2.16957E+00-1.27189E-02 6.90942E-01 2.94487E-13 2.49636E-13
 -1      2883 2.26721E+01 1.85555E+00-3.41255E-02 1.26739E+00 4.15893E-13 2.66287E-13
 -1      2884 2.35342E+01 1.97769E+00-9.99792E-03 1.72393E+00 2.71219E-13 1.02349E-13
 -1      2885 2.25868E+01 1.92031E+00-3.12757E-02-7.17668E-01-6.57590E-14 1.07388E-13
 -1      2886 2.25493E+01 2.19667E+00-4.46503E-03-1.31536E-01 1.29102E-13 1.99775E-13
 -1      2887 2.32018E+01 2.67861E+00-2.06215E-02 2.90306E-01 2.26670E-13 9.77742E-14
 -1      2888 2.29203E+01 8.35202E-01-4.14491E-02-1.58904E+00-2.63425E-13-1.43049E-13
 -1      2889 2.28070E+01 1.45854E+00 1.93875E-02-1.28242E+00-2.01268E-13 1.10094E-14
 -1      2890 2.34155E+01 2.09835E+00-1.87552E-02-1.13487E+00-4.66484E-14-1.61156E-15
 -1      2891 2.32305E+01-3.91050E-01-3.01079E-02-1.59916E+00-1.63375E-13-1.13317E-13
 -1      2892 2.31387E+01 2.02245E-01 1.61936E-02-1.67060E+00-2.97469E-13-2.12153E-13
 -1      2893 2.37717E+01 6.42734E-01 4.90191E-03-1.78331E+00-2.55422E-13-1.11963E-13
 -1      2894 2.32028E+01-1.13734E+00-9.36730E-03-9.61516E-01-3.40960E-15-1.29724E-13
 -1      2895 2.32094E+01-8.32979E-01 7.58319E-04-1.27592E+00 4.42463E-14-1.20478E-13
 -1      2896 2.38686E+01-7.69239E-01 1.55524E-02-1.45341E+00-7.16204E-14-1.05437E-13
 -1      2897 2.28323E+01-1.29723E+00 3.98794E-03-1.26482E-01 1.72931E-14-7.82403E-14
 -1      2898 2.29437E+01-1.28029E+00-1.23066E-02-5.01130E-01-3.66066E-14-1.55304E-13
 -1      2899 2.35073E+01-1.51670E+00 6.24470E-03-5.89512E-01 5.96819E-14-9.21396E-14
 -1      2900 2.22834E+01-1.06024E+00 1.05474E-02 5.91592E-01-4.85345E-14 1.54537E-13
 -1      2901 2.24650E+01-1.21798E+00-1.58654E-02 2.78511E-01-4.02233E-14 1.29020E-14
 -1      2902 2.28586E+01-1.56964E+00-3.89635E-03 3.05071E-01-4.36463E-14-1.18899E-13
 -1      2903 2.17096E+01-6.53681E-01 1.08746E-02 1.05695E+00-6.37836E-14 3.37575E-13
 -1      2904 2.19162E+01-8.72038E-01-1.35233E-02 8.61181E-01-3.28355E-14 3.24391E-13
 -1      2905 2.21463E+01-1.20014E+00-8.02806E-03 9.75016E-01-1.21030E-13 1.15829E-13
 -1      2906 2.12311E+01-2.81375E-01 7.54393E-03 1.29153E+00 7.68258E-14-1.34071E-14
 -1      2907 2.14391E+01-5.04060E-01-1.04843E-02 1.21661E+00 3.32687E-14 1.75490E-13
 -1      2908 2.15613E+01-7.41786E-01-6.21142E-03 1.38263E+00 5.55680E-14-1.42539E-14
 -1      2909 2.10946E+01-2.83591E-01-2.37900E-03 1.59077E+00 6.28540E-14-2.37454E-13
 -1      2910 2.34474E+01-5.69615E+00-1.65812E-02 5.01856E+00-2.65815E-13-2.56947E-13
 -1      2911 2.04231E+01-5.51827E+00 8.27591E-02 5.99716E+00-2.70867E-13-1.32363E-13
 -1      2912 1.83949E+01 2.03168E+00-1.65651E-02 7.34601E-01 6.69958E-14-1.16218E-13
 -1      2913 1.85984E+01 1.92502E+00 6.03812E-03 1.13010E+00 1.45492E-13-1.41921E-13
 -1      2914 2.07812E+01 3.12093E-01 1.17142E-03-1.97712E+00-6.75878E-14 3.17099E-13
 -1      2915 2.06406E+01 4.83996E-01 5.60581E-03-1.88899E+00-2.59655E-13 3.54866E-13
 -1      2916 2.04214E+01 6.63472E-01-4.03023E-03-2.00169E+00-2.94879E-13 1.48364E-13
 -1      2917 2.06340E+01 2.39320E-01-4.30587E-03-2.20262E+00 1.85659E-13 2.13271E-13
 -1      2918 1.94710E+01 1.21672E+00-1.50283E-02 1.93014E+00-1.73524E-14-2.10284E-13
 -1      2919 1.97808E+01 1.01703E+00 1.35093E-02 2.01357E+00-3.79733E-14-2.18575E-14
 -1      2920 1.82708E+01 2.14918E+00-7.37865E-03-2.44966E-01 5.23353E-15 1.36374E-13
 -1      2921 1.82856E+01 2.14352E+00-4.91147E-03 2.12701E-01 7.12880E-14-5.81891E-15
 -1      2922 1.79723E+01 1.84005E+00 1.59146E-02 5.50289E-01 7.75420E-14-6.64133E-14
 -1      2923 1.88559E+01 1.67603E+00-1.94390E-02 1.50873E+00 5.01839E-14-1.24589E-13
 -1      2924 1.91651E+01 1.50043E+00 1.26877E-02 1.75901E+00 4.95656E-14-1.16303E-13
 -1      2925 1.91640E+01 1.00668E+00-2.65001E-03 2.05813E+00-9.56568E-14-1.33948E-13
 -1      2926 1.84433E+01 1.50184E+00 7.59421E-03 1.49694E+00 3.66413E-14-1.80060E-13
 -1      2927 1.85306E+01 1.98529E+00 3.77495E-03-1.17093E+00-1.56425E-13-2.75427E-13
 -1      2928 1.83534E+01 2.07849E+00-1.52055E-02-7.68061E-01-1.34977E-13-1.21078E-14
 -1      2929 1.79390E+01 1.87766E+00 1.64786E-02-5.55624E-01-2.71164E-14-1.45868E-13
 -1      2930 1.90814E+01 1.59793E+00 1.18141E-02-1.84887E+00-1.92757E-13-4.06215E-13
 -1      2931 1.87755E+01 1.76709E+00-1.88863E-02-1.57688E+00-2.09947E-13-3.19943E-13
 -1      2932 1.83525E+01 1.60729E+00 8.12244E-03-1.53304E+00-3.50016E-13-3.54494E-13
 -1      2933 1.97310E+01 1.12099E+00 1.05131E-02-2.14290E+00-9.31313E-14-1.75351E-13
 -1      2934 1.94037E+01 1.32571E+00-1.48002E-02-2.05098E+00 5.64584E-14-3.75808E-13
 -1      2935 1.90732E+01 1.15272E+00-4.78203E-04-2.15773E+00-1.36016E-13-2.07963E-13
 -1      2936 2.02347E+01 7.71841E-01 4.95913E-03-2.09044E+00-3.16105E-13-1.49545E-13
 -1      2937 1.99571E+01 9.76612E-01-8.24098E-03-2.14353E+00-1.86058E-13-9.47184E-14
 -1      2938 1.97574E+01 7.87559E-01-4.53688E-03-2.32889E+00-9.44689E-14-2.45274E-13
 -1      2939 2.03099E+01 5.59433E-01 2.71895E-03-2.21787E+00-8.20116E-14 4.27971E-14
 -1      2940 2.63843E+01-4.94623E+00 1.10772E-01-2.73085E+00 4.12240E-14 1.72098E-13
 -1      2941 2.81784E+01-3.75519E+00-1.85099E-01-8.26962E-01-1.19991E-14 3.62210E-14
 -1      2942 2.03196E+01 1.70949E+00-9.82688E-03-1.33271E+00-2.92647E-13 6.37988E-15
 -1      2943 2.02868E+01 1.32786E+00-7.05873E-03-1.03565E+00-2.64859E-13 1.94053E-14
 -1      2944 6.64361E+00-1.05199E+00 1.87489E-01 9.67208E-01 1.77410E-13 8.38135E-13
 -1      2945 6.67584E+00-1.12575E+00 1.25582E-01-1.23367E+00 1.62301E-13 2.01228E-14
 -1      2946 1.66755E+01-4.80318E+00 5.81785E-02 6.68521E+00-2.23835E-13 3.65208E-13
 -1      2947 1.32875E+01-3.84248E+00 1.43613E-01 6.42442E+00-1.14520E-13 5.32380E-13
 -1      2948 2.00853E+01 2.52645E+00-2.10971E-03-1.45845E+00-2.94015E-13-9.31217E-14
 -1      2949 6.40661E+00-9.03300E-01 1.75646E-01-1.22401E+00-2.49590E-13-7.04270E-13
 -1      2950 7.54477E+00-1.42116E+00 1.33713E-01-3.43589E+00-3.83193E-13-6.53977E-13
 -1      2951 2.85575E+01 6.60322E+00-2.12926E-01 2.93966E-01 5.30298E-13 1.05484E-14
 -1      2952 2.86545E+01 6.23910E+00-2.11052E-01-6.21802E-01 5.27745E-13-1.08837E-13
 -1      2953 1.99598E+01 2.30892E-01-8.41791E-04 6.40466E-02 1.13775E-13-6.72960E-14
 -1      2954 2.00257E+01 3.14704E-01 7.82227E-03 1.61709E-01 1.39184E-13-5.93300E-14
 -1      2955 2.00555E+01 2.65801E-01-2.71502E-03 6.20176E-02 1.20456E-13-8.43194E-14
 -1      2956 1.98403E+01 7.56849E-03 2.18375E-04-1.75992E-01 8.29395E-14-6.85585E-14
 -1      2957 1.98401E+01 2.65762E-02 1.78717E-03-1.64639E-01 7.87248E-14-5.65822E-14
 -1      2958 1.99506E+01 5.45986E-02-1.78589E-03-1.44873E-01 8.53947E-14-6.23805E-14
 -1      2959 1.99290E+01 5.57480E-03-1.27976E-03-1.79056E-01 6.00796E-14-6.50467E-15
 -1      2960 2.03183E+01 1.03561E+00 5.04185E-03-8.34650E-01-2.28609E-13 2.23912E-14
 -1      2961 2.02245E+01 7.98510E-01-5.17469E-03-5.94388E-01-2.00929E-13 2.00072E-14
 -1      2962 2.02614E+01 8.78274E-01 2.16123E-03-5.55335E-01-2.04485E-13-3.95839E-14
 -1      2963 2.02794E+01 1.38575E+00 1.93128E-03-9.20910E-01-2.52373E-13-4.23125E-14
 -1      2964 1.99246E+01 2.59538E+00-7.88673E-03 7.95236E-01 9.86595E-14-2.55798E-13
 -1      2965 1.98810E+01 2.68744E+00-6.13074E-03 6.46142E-01 4.28735E-14-2.73320E-13
 -1      2966 1.99999E+01 2.38769E+00 4.32607E-03 5.17412E-01 3.61723E-14-2.74842E-13
 -1      2967 2.00809E+01 2.19011E+00 5.63927E-03 7.46482E-01 9.87070E-14-2.17370E-13
 -1      2968 2.00688E+01 4.15263E-01-1.61345E-03 2.88997E-01 1.54911E-13-8.22455E-14
 -1      2969 2.01701E+01 5.53764E-01 1.04628E-02 4.51774E-01 1.66502E-13-8.78807E-14
 -1      2970 2.02531E+01 8.21335E-01 6.91147E-04 6.18522E-01 1.89385E-13-1.43274E-13
 -1      2971 2.01455E+01 4.77339E-01-1.93443E-03 2.81638E-01 1.43358E-13-9.84677E-14
 -1      2972 2.88459E+01 3.38006E+00-1.15830E-01 1.94395E+00-4.83363E-13-2.54324E-13
 -1      2973 2.87079E+01 5.02616E+00-2.23468E-01 1.36732E+00-5.67074E-13-2.06016E-14
 -1      2974 2.72788E+01 4.85953E+00-8.50532E-02 8.67893E-01-6.02796E-13 2.45221E-13
 -1      2975 1.98760E+01 2.69641E+00-5.97789E-03-6.35878E-01-1.50551E-13-2.53646E-13
 -1      2976 1.99187E+01 2.60684E+00-7.55800E-03-7.84996E-01-1.79408E-13-2.14318E-13
 -1      2977 2.92101E+01-1.47952E+00 8.12557E-03 1.01670E+00-1.38688E-13-2.44638E-13
 -1      2978 2.90525E+01 5.21890E-01-1.62879E-01 1.82713E+00-3.88356E-13-5.60385E-13
 -1      2979 7.78515E+00-1.57536E+00 1.89101E-01-3.19028E+00 1.58942E-13-1.27676E-13
 -1      2980 9.84048E+00-2.49449E+00 4.57376E-02-5.16206E+00 4.34083E-13-8.74856E-14
 -1      2981 1.94928E+01-5.38678E+00-2.55317E-03 5.71535E+00 2.81997E-13-2.43930E-13
 -1      2982 1.61715E+01-4.59997E+00 1.19153E-01 6.10019E+00 4.24188E-13-5.08926E-13
 -1      2983 2.78088E+01-3.29067E+00 4.40499E-02-6.39893E-01 1.48036E-13 3.99056E-13
 -1      2984 2.86342E+01-1.75215E+00-2.03425E-01 7.17121E-01 2.29386E-13 5.94691E-13
 -1      2985 2.35603E+01-5.30836E+00 7.87750E-02-4.15766E+00-5.87586E-14 2.08049E-13
 -1      2986 2.58116E+01-4.88776E+00-1.34280E-01-2.66450E+00 7.61266E-14 4.33875E-13
 -1      2987 1.74856E+01-4.85059E+00 1.06890E-01-6.17642E+00-3.00773E-13-4.67668E-13
 -1      2988 2.07942E+01-5.45791E+00-1.07172E-02-5.57325E+00-1.36585E-13-1.92166E-13
 -1      2989 2.25463E+01-5.11362E+00 5.51322E-02-4.30612E+00-2.83856E-13 2.55627E-13
 -1      2990 6.97615E+00-1.33417E+00 1.56476E-01 2.81110E+00-3.19939E-13-6.59167E-13
 -1      2991 6.05698E+00-1.01836E+00 1.36190E-01 8.15864E-01-2.78122E-13-6.89976E-13
 -1      2992 2.50765E+01-5.21841E+00-6.76819E-02 2.87347E+00 4.97519E-15-9.41469E-14
 -1      2993 2.26013E+01-5.49754E+00 1.12163E-01 4.52092E+00 9.28146E-14-9.47298E-14
 -1      2994 2.87362E+01-2.03664E+00-1.75782E-01-1.23753E+00-2.42979E-13 1.91874E-13
 -1      2995 2.74512E+01-3.75900E+00 1.31521E-02 3.67990E-01-2.21862E-13 1.36419E-14
 -1      2996 2.97675E+01 2.67228E+00-2.07748E-01-2.37674E+00-4.08923E-13 1.54474E-13
 -1      2997 2.92383E+01 8.68157E-01-5.97778E-02-2.32903E+00-2.82552E-13 2.63400E-13
 -1      2998 2.89340E+01 5.45488E+00-2.29518E-01-1.64851E+00-6.31384E-13 1.49852E-13
 -1      2999 2.96133E+01 4.43031E+00-1.34778E-01-2.18703E+00-4.95215E-13 1.84797E-13
 -1      3000 2.80255E+01 3.29570E+00-6.15786E-02-2.61059E+00-4.01484E-13 4.34153E-13
 -1      3001 2.73345E+01 5.00008E+00-9.09823E-02-1.17899E+00-6.31606E-13 5.07039E-13
 -1      3002 2.89265E+01 1.01765E+00-3.92038E-02 1.97308E+00 4.08326E-13 6.10664E-13
 -1      3003 2.89601E+01 3.11120E+00-2.13727E-01 2.16973E+00 5.44120E-13 5.20819E-13
 -1      3004 2.72618E+01-4.31638E+00-9.89034E-02 2.05310E+00-6.57321E-14-4.86000E-13
 -1      3005 2.56091E+01-5.22816E+00 4.08722E-02 3.56510E+00-1.88405E-13-3.59046E-13
 -1      3006 2.46287E+01-5.28927E+00 4.58010E-02 3.76121E+00-4.41709E-13-4.59483E-13
 -1      3007 2.03653E+01-5.34712E+00 1.42082E-01-5.81299E+00 4.27464E-13 4.22707E-13
 -1      3008 2.32406E+01-5.85273E+00-1.27108E-01-4.82500E+00 3.09211E-13 6.75132E-13
 -1      3009 2.90024E+01 5.10266E+00-1.41321E-01 1.89460E+00 4.53193E-13 3.37647E-13
 -1      3010 2.86966E+01 6.23281E+00-1.77748E-01 1.06902E+00 4.12836E-13 2.35575E-14
 -1      3011 1.99731E+01 2.48907E+00-5.43945E-03-9.02512E-01-2.04612E-13-1.95809E-13
 -1      3012 2.00337E+01 2.35956E+00-6.75457E-03-1.03689E+00-2.39213E-13-1.71106E-13
 -1      3013 2.00738E+01 2.20438E+00 5.87042E-03-7.40310E-01-1.74899E-13-1.75367E-13
 -1      3014 1.99348E+01 2.53776E+00 3.38734E-03 4.61128E-03-5.77271E-14-3.11951E-13
 -1      3015 1.97958E+01 2.86934E+00-5.47863E-03-6.19591E-02-8.19321E-14-3.32345E-13
 -1      3016 1.98033E+01 2.85467E+00-5.54637E-03-2.16778E-01-1.07083E-13-3.26937E-13
 -1      3017 2.75482E+01 3.46885E+00-9.83580E-02 2.32321E+00 3.92728E-13 1.05888E-13
 -1      3018 1.93809E+01-4.45491E+00 1.27696E-01-5.60062E+00 4.30822E-13 3.86344E-13
 -1      3019 2.83682E+01 5.45325E+00-1.62483E-01-1.07347E+00 4.79727E-13-5.06054E-14
 -1      3020 2.77443E+01 4.49172E+00-1.23166E-01-1.63346E+00 3.98126E-13-1.41595E-13
 -1      3021 2.68939E+01 5.26892E+00-8.97380E-02-7.98744E-01 4.25132E-13-5.04527E-14
 -1      3022 2.83243E+01 2.73403E+00-1.75411E-01-1.99227E+00 1.74694E-13-2.07570E-13
 -1      3023 2.96426E+01 1.69890E+00-1.15438E-01-1.57361E+00 1.59137E-13-2.34285E-13
 -1      3024 2.86313E+01 7.97068E-02-6.90755E-02-1.39373E+00-8.02136E-15-2.38434E-13
 -1      3025 2.59104E+01 3.94027E+00-8.33027E-02 9.39563E-01-4.73371E-13 3.76532E-13
 -1      3026 2.76064E+01-2.72554E-02-1.00028E-01-2.59704E+00-2.87478E-13 5.28189E-13
 -1      3027 2.66268E+01 9.59274E-01-9.95991E-02-2.87274E+00-2.82704E-13 8.29878E-13
 -1      3028 2.60010E+01 3.38465E+00-1.90023E-01-2.05426E+00-4.79949E-13 7.36786E-13
 -1      3029 2.64279E+01 2.48438E+00-5.67636E-02-2.49256E+00-3.56992E-13 7.76892E-13
 -1      3030 1.98923E+01 5.33207E-01-8.23082E-03 2.19450E+00 5.69116E-14-1.75976E-13
 -1      3031 2.00440E+01 7.86431E-01-7.34268E-03 1.99215E+00 1.04555E-14-3.41303E-14
 -1      3032 2.02857E+01 5.95294E-01 1.03487E-02 1.94565E+00 5.85209E-15-1.10700E-13
 -1      3033 2.60130E+01 2.88920E+00-1.49967E-01 1.83670E+00-4.33271E-13 2.26673E-13
 -1      3034 2.12218E+01-5.04620E+00-2.02752E-02 5.19076E+00-4.86167E-13-4.94920E-13
 -1      3035 1.92640E+01-5.01243E+00 9.81487E-02 6.10082E+00-3.51538E-13-8.11851E-14
 -1      3036 1.80628E+01-4.10907E+00 8.90784E-02 5.92014E+00-3.92048E-13-1.18024E-13
 -1      3037 2.49497E+01-5.11535E+00 3.64813E-02-3.23064E+00 2.14204E-13 2.01908E-13
 -1      3038 2.02900E+01 1.58733E+00-1.22368E-03 1.16686E+00 2.43691E-13-1.68912E-13
 -1      3039 2.80068E+01-2.78492E+00-3.11401E-02 3.38669E-01-2.04428E-13-5.72598E-14
 -1      3040 2.05607E+01 3.56610E-01-2.90039E-03 1.72066E+00-1.57728E-13-1.89904E-13
 -1      3041 8.61022E+00-9.61117E-01 1.80232E-01 2.18617E+00 4.80761E-14 6.25583E-13
 -1      3042 1.23869E+01-2.98022E+00 1.38277E-01 5.87331E+00-1.34726E-13 4.84862E-13
 -1      3043 1.16037E+01-1.92564E+00 9.86705E-02 4.94795E+00-1.96426E-13 3.53134E-13
 -1      3044 1.47484E+01-2.99710E+00 8.58619E-02 5.77399E+00-3.27266E-13 2.11997E-13
 -1      3045 2.02792E+01 1.36585E+00 1.97937E-03 9.20581E-01 2.05626E-13-1.69544E-13
 -1      3046 1.00819E+01-6.31064E-01 1.18337E-01-3.20648E+00-4.58619E-13-4.76619E-13
 -1      3047 9.53462E+00-1.59487E+00 1.77504E-01-4.25361E+00-4.97116E-13-5.35572E-13
 -1      3048 1.17696E+01-1.91480E+00 6.79401E-02-4.85286E+00-5.60066E-13-5.98174E-13
 -1      3049 9.11016E+00-7.22305E-01 2.05856E-01-2.07165E+00 2.07549E-13 7.47735E-14
 -1      3050 2.79054E+01-5.63421E-01-7.33642E-02 1.67151E+00 2.62006E-13 6.36172E-13
 -1      3051 2.81265E+01-7.44643E-01-6.58044E-02-2.09546E+00-2.24418E-13 3.68108E-13
 -1      3052 2.01445E+01 2.17278E+00 5.15960E-04-1.20770E+00-2.62854E-13-1.13006E-13
 -1      3053 1.61152E+01-4.19954E+00 1.12119E-01-6.18303E+00-4.08493E-13-6.12718E-13
 -1      3054 1.85644E+01-4.25656E+00 5.55041E-02-5.38173E+00-4.57384E-13-3.66623E-13
 -1      3055 1.47903E+01-3.20418E+00 1.13673E-01-5.81629E+00-5.42122E-13-7.29805E-13
 -1      3056 8.06354E+00-3.51825E-01 1.84851E-01-2.89106E-01-2.76007E-13-7.31498E-13
 -1      3057 2.73036E+01 5.84543E+00-6.00238E-02 7.22543E-01 3.98265E-13 2.60434E-14
 -1      3058 1.98188E+01 2.81924E+00-5.67410E-03-3.52139E-01-1.11500E-13-2.93753E-13
 -1      3059 1.98428E+01 2.77098E+00-6.16553E-03-5.05823E-01-1.39859E-13-2.78973E-13
 -1      3060 1.99954E+01 2.39541E+00 4.23222E-03-5.08330E-01-1.27511E-13-2.45484E-13
 -1      3061 1.99494E+01 2.50372E+00 3.56269E-03-2.56060E-01-1.11762E-13-3.03480E-13
 -1      3062 1.48706E+01-3.83735E+00 1.14125E-01 5.92802E+00 3.32137E-13-5.41525E-13
 -1      3063 1.35649E+01-2.65634E+00 1.14151E-01 5.33303E+00 2.32911E-13-4.96353E-13
 -1      3064 1.70741E+01-3.94635E+00 1.00588E-02 5.43697E+00 4.81969E-13-1.78156E-13
 -1      3065 2.73892E+01 2.60722E+00-7.53891E-02 2.22925E+00-4.65100E-13 1.66631E-13
 -1      3066 2.64915E+01-4.04945E+00 5.48659E-03-1.24032E+00-8.78984E-14 6.11372E-13
 -1      3067 2.13717E+01-5.06553E+00 8.40823E-02 4.62878E+00 3.25448E-13-1.96769E-13
 -1      3068 1.31192E+01-2.38178E+00 1.56858E-01-5.26484E+00 3.88481E-13-4.26326E-14
 -1      3069 2.80700E+01-2.32490E+00-1.02552E-01-2.98322E-01 5.64618E-14-4.07452E-13
 -1      3070 2.80693E+01-3.43488E+00-2.73824E-02 8.88301E-01 7.05365E-14-5.21097E-13
 -1      3071 2.68644E+01-4.16513E+00-1.70606E-02 1.44628E+00-1.13340E-13-4.39294E-13
 -1      3072 9.40406E+00-1.42490E+00 1.70222E-01 3.60610E+00-1.56930E-13-6.62859E-13
 -1      3073 2.02412E+01 1.48100E+00-5.85385E-03 8.03356E-01 1.66129E-13-1.71912E-13
 -1      3074 2.02013E+01 1.66826E+00-6.61266E-04 7.47337E-01 1.38438E-13-1.79391E-13
 -1      3075 2.86376E+01 1.44776E+00-1.48400E-01 2.19075E+00-4.22967E-13-2.30899E-13
 -1      3076 2.72531E+01-1.63629E+00 5.01754E-02 1.46792E+00 1.07435E-13 5.79127E-13
 -1      3077 2.68028E+01 1.44384E-01-1.96354E-01 2.30651E+00 1.68948E-13 2.97429E-13
 -1      3078 2.02213E+01 4.22546E-01 4.06092E-03-1.21691E-01-1.62018E-13-3.51220E-14
 -1      3079 2.01821E+01 3.14949E-01-2.29515E-03-3.68341E-02-1.47555E-13-3.54083E-14
 -1      3080 2.01681E+01 2.31595E-01 3.17849E-03 2.46506E-02-1.46204E-13-2.46712E-14
 -1      3081 2.01379E+01 1.61320E-01-1.29318E-03 7.56819E-02-1.59042E-13-4.84576E-14
 -1      3082 2.02387E+01 3.31738E-01-8.69117E-04-2.76885E-02-1.56620E-13-4.02534E-14
 -1      3083 2.01213E+01 1.07664E-01 2.23014E-03 1.11706E-01-1.50855E-13-3.55867E-14
 -1      3084 2.01003E+01 6.29791E-02-6.04021E-04 1.39145E-01-1.12255E-13-4.25897E-14
 -1      3085 2.01983E+01 1.68072E-01-1.02718E-03 7.51966E-02-1.59811E-13 6.31817E-15
 -1      3086 2.00842E+01 2.95799E-02 1.45360E-03 1.57186E-01-8.06715E-14-4.72155E-14
 -1      3087 2.00709E+01 2.56267E-03-1.55498E-04 1.68944E-01-5.50695E-14-4.25029E-14
 -1      3088 2.01597E+01 6.28196E-02-9.82704E-04 1.33656E-01-1.07466E-13-1.79246E-14
 -1      3089 2.00566E+01-1.68444E-02 8.59814E-04 1.75089E-01-3.18706E-14-3.47399E-14
 -1      3090 2.00491E+01-3.15676E-02 1.29716E-04 1.77058E-01-3.32886E-14 1.90419E-15
 -1      3091 2.01261E+01-1.62733E-03-8.57022E-04 1.61266E-01-3.89487E-14 2.85723E-15
 -1      3092 2.00371E+01-4.12207E-02 4.25794E-04 1.75984E-01-4.13841E-14 1.13478E-14
 -1      3093 2.00338E+01-4.73324E-02 3.10208E-04 1.72468E-01-3.31316E-14 1.09764E-14
 -1      3094 2.00982E+01-3.74665E-02-7.12935E-04 1.68942E-01-3.03234E-14-3.54423E-14
 -1      3095 2.00239E+01-5.01229E-02 1.16852E-04 1.67673E-01-3.76282E-14 4.99376E-15
 -1      3096 2.00238E+01-5.01367E-02 4.27111E-04 1.61795E-01-2.37543E-14 1.34386E-14
 -1      3097 2.00760E+01-5.31529E-02-5.76880E-04 1.65031E-01-3.22848E-14 4.77569E-14
 -1      3098 2.00158E+01-4.80164E-02-1.01516E-04 1.55860E-01-1.94748E-14 1.25807E-14
 -1      3099 2.00178E+01-4.36054E-02 5.09081E-04 1.49903E-01-3.51372E-14 6.83476E-15
 -1      3100 2.00587E+01-5.45039E-02-4.57694E-04 1.55771E-01-1.89122E-14 3.68397E-14
 -1      3101 2.00114E+01-3.78425E-02-2.59709E-04 1.44750E-01-1.01949E-13-1.49061E-14
 -1      3102 2.00151E+01-3.00545E-02 5.76590E-04 1.40418E-01-9.37380E-14 3.87111E-17
 -1      3103 2.00455E+01-4.54205E-02-3.56014E-04 1.45796E-01-6.13758E-14 5.22899E-14
 -1      3104 2.00099E+01-2.14040E-02-3.83058E-04 1.37516E-01-7.21816E-14 2.01786E-14
 -1      3105 2.00150E+01-1.08134E-02 6.44405E-04 1.36148E-01-4.25516E-14-9.44598E-16
 -1      3106 2.00354E+01-2.83720E-02-2.68871E-04 1.38603E-01-6.86635E-14 8.54487E-15
 -1      3107 2.00105E+01 3.58561E-04-4.92046E-04 1.36690E-01-2.69520E-14 3.01876E-16
 -1      3108 2.00167E+01 1.35357E-02 7.23089E-04 1.39416E-01-4.33989E-14-1.21781E-14
 -1      3109 2.00277E+01-4.74273E-03-1.91536E-04 1.36933E-01-5.54768E-14-1.16496E-14
 -1      3110 2.00125E+01 2.71545E-02-6.03231E-04 1.44451E-01-7.59753E-14 3.12259E-14
 -1      3111 2.00200E+01 4.29678E-02 8.19980E-04 1.52309E-01-1.07200E-13 9.34967E-14
 -1      3112 2.00213E+01 2.49042E-02-1.17553E-04 1.43080E-01-5.06049E-14 6.08250E-15
 -1      3113 2.00155E+01 5.91685E-02-7.30123E-04 1.62835E-01-1.38859E-13 1.18930E-13
 -1      3114 2.00241E+01 7.78489E-02 9.39404E-04 1.76858E-01-1.55335E-13 1.24362E-13
 -1      3115 2.00154E+01 6.06095E-02-3.96174E-05 1.59120E-01-1.12037E-13 2.48046E-14
 -1      3116 2.00187E+01 9.68954E-02-8.83545E-04 1.93891E-01-1.83254E-13 1.32928E-13
 -1      3117 2.00287E+01 1.18766E-01 1.08288E-03 2.15148E-01-1.22046E-13 7.15265E-14
 -1      3118 2.00086E+01 1.02822E-01 5.07664E-05 1.87074E-01-1.72049E-13 7.37622E-14
 -1      3119 2.00215E+01 1.40958E-01-1.07182E-03 2.39752E-01-4.11225E-14 3.83559E-14
 -1      3120 2.00330E+01 1.66327E-01 1.24906E-03 2.69361E-01-7.71757E-14 6.23152E-14
 -1      3121 1.99998E+01 1.52191E-01 1.63025E-04 2.28996E-01-1.10739E-13 8.63739E-14
 -1      3122 2.00231E+01 1.91881E-01-1.30018E-03 3.02650E-01-1.01515E-13 7.99855E-14
 -1      3123 2.00360E+01 2.20891E-01 1.43430E-03 3.41747E-01-5.05219E-14 3.22970E-14
 -1      3124 1.99872E+01 2.09320E-01 3.06914E-04 2.87010E-01-7.44778E-14 6.44006E-14
 -1      3125 2.00224E+01 2.49762E-01-1.56918E-03 3.84853E-01-4.31855E-14-4.16210E-14
 -1      3126 2.00366E+01 2.82173E-01 1.63395E-03 4.34511E-01 2.53586E-14-1.27875E-13
 -1      3127 1.99690E+01 2.74428E-01 4.90961E-04 3.63271E-01-1.32236E-13 1.41355E-14
 -1      3128 2.00180E+01 3.13788E-01-1.87179E-03 4.88524E-01 1.10047E-13-1.54693E-13
 -1      3129 2.00336E+01 3.48635E-01 1.84575E-03 5.49616E-01 9.14893E-14-1.07397E-13
 -1      3130 1.99427E+01 3.46864E-01 7.18693E-04 4.59879E-01 5.60514E-14 8.06273E-14
 -1      3131 2.00087E+01 3.81474E-01-2.18818E-03 6.15504E-01 3.71820E-14 3.26213E-14
 -1      3132 2.00257E+01 4.16543E-01 2.07688E-03 6.88491E-01 2.08422E-15 2.20055E-13
 -1      3133 1.99059E+01 4.24369E-01 9.81128E-04 5.78752E-01 1.48236E-13 1.57479E-13
 -1      3134 1.99936E+01 4.47497E-01-2.47675E-03 7.67018E-01-9.10057E-14 2.54717E-13
 -1      3135 2.00128E+01 4.78526E-01 2.35651E-03 8.51668E-01-5.52854E-14 2.46948E-13
 -1      3136 1.98562E+01 5.01951E-01 1.24273E-03 7.21499E-01 2.63309E-14 2.64725E-13
 -1      3137 1.99736E+01 5.01928E-01-2.65863E-03 9.43335E-01-3.30607E-14 2.08862E-13
 -1      3138 1.99971E+01 5.21441E-01 2.75436E-03 1.03835E+00-1.98089E-15 1.61413E-13
 -1      3139 1.97922E+01 5.70216E-01 1.41654E-03 8.89372E-01-6.79687E-14 3.47291E-13
 -1      3140 1.99532E+01 5.27696E-01-2.59003E-03 1.14339E+00 8.77286E-14 1.63471E-13
 -1      3141 1.99864E+01 5.23397E-01 3.40061E-03 1.24590E+00 8.92909E-14 2.45795E-13
 -1      3142 1.97154E+01 6.12933E-01 1.32222E-03 1.08341E+00 3.80895E-14 2.94325E-13
 -1      3143 1.99448E+01 4.97223E-01-2.00967E-03 1.36428E+00 1.00792E-13 3.36682E-13
 -1      3144 1.99991E+01 4.50039E-01 4.48627E-03 1.46915E+00 1.33441E-13 3.04807E-13
 -1      3145 1.96334E+01 6.03691E-01 6.18944E-04 1.30481E+00 1.72210E-13 3.47595E-13
 -1      3146 1.99757E+01 3.68625E-01-4.30326E-04 1.60030E+00 8.32598E-14 3.44947E-13
 -1      3147 2.00722E+01 2.50896E-01 6.19811E-03 1.69868E+00 1.55481E-13 3.92695E-13
 -1      3148 1.95658E+01 5.01691E-01-1.29460E-03 1.55536E+00 1.85813E-13 4.05643E-13
 -1      3149 2.00986E+01 8.30667E-02 3.09897E-03 1.83983E+00 1.63744E-13 3.92927E-13
 -1      3150 2.02733E+01-1.41416E-01 8.49467E-03 1.91593E+00 2.90626E-13 2.70303E-13
 -1      3151 1.95540E+01 2.47332E-01-5.39444E-03 1.83681E+00 1.35311E-13 4.16609E-13
 -1      3152 2.04074E+01-4.31969E-01 1.03673E-02 2.05626E+00 3.05524E-13 1.49712E-13
 -1      3153 2.07103E+01-8.02940E-01 9.33712E-03 2.08083E+00 3.25574E-13 2.54974E-13
 -1      3154 1.96765E+01-2.39527E-01-1.30810E-02 2.14543E+00 2.43953E-13 1.26474E-13
 -1      3155 2.10513E+01-1.23732E+00 2.47707E-02 2.17964E+00 3.55161E-13 2.33139E-13
 -1      3156 2.15347E+01-1.76681E+00 7.37516E-03 2.09808E+00 3.22707E-13 1.83517E-13
 -1      3157 2.00752E+01-1.05382E+00-2.63884E-02 2.45006E+00 3.01043E-13 9.66848E-14
 -1      3158 2.22297E+01-2.33202E+00 4.67285E-02 2.06411E+00 2.40046E-13 1.88426E-13
 -1      3159 2.29201E+01-2.92587E+00 6.40542E-04 1.76733E+00 6.15653E-14 1.72409E-13
 -1      3160 2.09637E+01-2.23084E+00-4.38820E-02 2.64023E+00 2.34611E-13-4.45807E-14
 -1      3161 2.44313E+01-3.61946E+00-6.40259E-03-1.55533E+00 2.45835E-13 7.61145E-14
 -1      3162 2.36632E+01-3.17580E+00 5.54943E-02-2.07087E+00 1.74036E-13 6.74421E-14
 -1      3163 2.26771E+01-2.63686E+00 2.24988E-03-2.36499E+00 2.54503E-13 1.35510E-13
 -1      3164 2.20416E+01-2.03153E+00 3.90483E-02-2.60752E+00 3.82803E-13 1.29477E-13
 -1      3165 2.24478E+01-3.29490E+00-6.50849E-02-2.94524E+00 2.60940E-13-2.12833E-14
 -1      3166 2.14736E+01-1.47483E+00 6.53449E-03-2.62052E+00 3.08321E-13 1.67082E-13
 -1      3167 2.10412E+01-9.36609E-01 2.13086E-02-2.67440E+00 3.46206E-13 1.77955E-13
 -1      3168 2.10523E+01-1.91066E+00-4.36541E-02-3.09815E+00 4.51490E-13 1.41200E-13
 -1      3169 2.07721E+01-4.73790E-01 7.21276E-03-2.56202E+00 2.23057E-13 2.50577E-13
 -1      3170 2.04990E+01-4.97181E-02 8.96173E-03-2.50023E+00 3.18463E-13 1.08805E-13
 -1      3171 2.03451E+01-7.07568E-01-2.60656E-02-2.88678E+00 3.30879E-13 1.88571E-13
 -1      3172 1.99829E+01-4.52431E-02 4.16660E-04-1.66006E-01 1.45115E-13-2.28676E-14
 -1      3173 1.99788E+01-4.47280E-02 8.46986E-05-1.72542E-01 1.08909E-13 1.46391E-14
 -1      3174 2.00728E+01 1.50648E-01-1.10777E-03-7.52093E-02 8.96842E-14-7.25813E-14
 -1      3175 2.01052E+01 2.15726E-01 3.67624E-03-2.17123E-02 9.44285E-14-6.75534E-14
 -1      3176 1.99855E+01-4.17388E-02 3.18005E-04-1.77761E-01 8.59367E-14-2.46908E-14
 -1      3177 1.99844E+01-3.57896E-02 4.13969E-04-1.81755E-01 1.03124E-13 2.73272E-14
 -1      3178 2.00349E+01-4.81605E-02-5.86693E-04-1.73393E-01 7.30225E-14 3.25294E-14
 -1      3179 1.99936E+01-2.66982E-02 1.65905E-04-1.82863E-01 7.21100E-14-3.82053E-15
 -1      3180 1.99970E+01-1.29954E-02 8.94415E-04-1.81124E-01 6.58630E-14-9.79680E-15
 -1      3181 2.00510E+01-3.26466E-02-7.64438E-04-1.77816E-01 9.27963E-14 1.37570E-14
 -1      3182 1.99844E+01-4.05323E-02 4.89112E-04-1.52610E-01 9.16185E-14-6.51944E-17
 -1      3183 1.99783E+01-4.39085E-02-1.37060E-04-1.59386E-01 1.27775E-13-1.63039E-14
 -1      3184 2.00241E+01-5.06469E-02-4.47717E-04-1.62896E-01 1.18889E-13 7.36774E-14
 -1      3185 1.99888E+01-2.97615E-02 5.53917E-04-1.41258E-01 5.36045E-14 6.08293E-14
 -1      3186 1.99813E+01-3.60428E-02-2.86120E-04-1.46581E-01 6.25187E-14-5.60953E-16
 -1      3187 2.00176E+01-4.37716E-02-3.42739E-04-1.51215E-01 7.12671E-14 4.47655E-14
 -1      3188 1.99956E+01-1.42263E-02 6.24515E-04-1.34753E-01 9.01521E-14-3.83678E-15
 -1      3189 1.99870E+01-2.28383E-02-3.90334E-04-1.37323E-01 1.01194E-13 4.28756E-14
 -1      3190 2.00142E+01-2.99017E-02-2.65753E-04-1.41990E-01 8.58309E-14-3.32773E-14
 -1      3191 2.00045E+01 5.40577E-03 7.10451E-04-1.35351E-01 5.11299E-14 3.86139E-14
 -1      3192 1.99947E+01-5.26209E-03-4.71221E-04-1.34102E-01 8.27528E-14 3.32276E-14
 -1      3193 2.00132E+01-1.04386E-02-2.09870E-04-1.38022E-01 7.60341E-14 8.85623E-15
 -1      3194 2.00154E+01 2.89022E-02 8.18195E-04-1.45015E-01 8.67952E-14 7.76659E-14
 -1      3195 2.00043E+01 1.62508E-02-5.44828E-04-1.39003E-01 4.53194E-14 7.10129E-14
 -1      3196 2.00141E+01 1.39135E-02-1.69199E-04-1.41602E-01 5.43070E-14 4.40593E-14
 -1      3197 2.00286E+01 5.62868E-02 9.51485E-04-1.65577E-01 6.51252E-14 4.05617E-14
 -1      3198 2.00156E+01 4.16127E-02-6.22497E-04-1.53908E-01 1.19751E-13 6.82324E-14
 -1      3199 2.00164E+01 4.29230E-02-1.38223E-04-1.54749E-01 8.36130E-14 7.13472E-14
 -1      3200 2.00442E+01 8.76511E-02 1.11114E-03-1.98831E-01-5.79706E-15 5.31452E-14
 -1      3201 2.00289E+01 7.09043E-02-7.11350E-04-1.80629E-01 1.78340E-14 1.75060E-14
 -1      3202 2.00196E+01 7.66149E-02-1.11977E-04-1.79359E-01 4.18324E-14 1.18030E-14
 -1      3203 2.00628E+01 1.22924E-01 1.29442E-03-2.46529E-01 5.13955E-14 5.26409E-14
 -1      3204 2.00446E+01 1.04168E-01-8.13732E-04-2.20955E-01 5.78792E-14 7.53015E-14
 -1      3205 2.00236E+01 1.15035E-01-8.75130E-05-2.17286E-01 2.84582E-14 6.09848E-14
 -1      3206 2.00850E+01 1.61568E-01 1.49477E-03-3.10294E-01 7.77091E-15 4.47282E-15
 -1      3207 2.00632E+01 1.41148E-01-9.25836E-04-2.76613E-01 1.51865E-14 5.81665E-14
 -1      3208 2.00279E+01 1.57962E-01-6.41456E-05-2.70344E-01 4.79063E-14 8.98934E-14
 -1      3209 2.01116E+01 2.02164E-01 1.70117E-03-3.91406E-01-5.40493E-14 9.63414E-14
 -1      3210 2.00853E+01 1.80933E-01-1.03540E-03-3.49124E-01-2.69801E-14 4.87827E-14
 -1      3211 2.00325E+01 2.04523E-01-4.62387E-05-3.40210E-01-4.88787E-14 1.67702E-13
 -1      3212 2.01440E+01 2.41835E-01 1.89817E-03-4.90450E-01-2.49057E-14 1.48524E-13
 -1      3213 2.01122E+01 2.21475E-01-1.11765E-03-4.39535E-01-4.53847E-14 9.42809E-14
 -1      3214 2.00377E+01 2.52677E-01-4.74545E-05-4.28232E-01-6.83916E-14 2.89907E-13
 -1      3215 2.01845E+01 2.75456E-01 2.06630E-03-6.06783E-01-9.56590E-15 1.50660E-13
 -1      3216 2.01458E+01 2.58907E-01-1.12902E-03-5.47997E-01 1.82481E-14 1.43067E-13
 -1      3217 2.00444E+01 2.98498E-01-9.78250E-05-5.35119E-01-1.57815E-14 1.57555E-13
 -1      3218 2.02370E+01 2.94614E-01 2.18259E-03-7.37777E-01-2.51575E-14 1.19194E-13
 -1      3219 2.01893E+01 2.86638E-01-9.97917E-04-6.73139E-01-2.44392E-14 1.16182E-13
 -1      3220 2.00548E+01 3.35219E-01-2.54905E-04-6.60496E-01-2.10789E-14 8.82992E-14
 -1      3221 2.03080E+01 2.86372E-01 2.21823E-03-8.77788E-01 6.48429E-15 2.00106E-13
 -1      3222 2.02483E+01 2.94204E-01-6.11664E-04-8.11197E-01 3.28059E-14 2.21092E-13
 -1      3223 2.00735E+01 3.51997E-01-6.19808E-04-8.02291E-01-3.05309E-14 2.26647E-13
 -1      3224 2.04091E+01 2.32062E-01 2.12586E-03-1.01673E+00-7.04496E-14 1.46093E-13
 -1      3225 2.03324E+01 2.66002E-01 2.00063E-04-9.54793E-01-1.67868E-14 2.07221E-13
 -1      3226 2.01090E+01 3.32483E-01-1.35726E-03-9.55883E-01-3.53158E-15 1.59016E-13
 -1      3227 2.05588E+01 1.06827E-01 1.80196E-03-1.13808E+00-1.04448E-13 9.35652E-14
 -1      3228 2.04574E+01 1.80340E-01 1.67941E-03-1.09118E+00-6.98440E-14 1.15867E-13
 -1      3229 2.01767E+01 2.53502E-01-2.71351E-03-1.11281E+00-6.08429E-14 1.16638E-13
 -1      3230 2.07850E+01-1.18427E-01 9.78444E-04-1.21606E+00 2.39368E-14 1.26055E-13
 -1      3231 2.06485E+01 9.90812E-03 4.12917E-03-1.19963E+00-1.52224E-14 1.57110E-13
 -1      3232 2.03020E+01 8.47836E-02-5.01503E-03-1.25860E+00-8.21420E-14 1.31208E-13
 -1      3233 2.11257E+01-4.69276E-01-8.14133E-04-1.21170E+00-6.93696E-14 1.55090E-13
 -1      3234 2.09417E+01-2.74011E-01 7.77547E-03-1.24755E+00 5.21322E-14 1.76444E-13
 -1      3235 2.05241E+01-2.08104E-01-8.63471E-03-1.36887E+00-5.57031E-15 3.17927E-13
 -1      3236 2.16224E+01-9.49793E-01-4.46350E-03-1.06917E+00-6.54475E-14 6.20134E-14
 -1      3237 2.13823E+01-6.88975E-01 1.28092E-02-1.18562E+00-1.28844E-13 9.11561E-14
 -1      3238 2.08981E+01-6.53333E-01-1.36347E-02-1.40283E+00 3.13893E-15 2.18061E-13
 -1      3239 2.23025E+01-1.50287E+00-1.03604E-02-7.11840E-01-9.80854E-14 9.44246E-14
 -1      3240 2.20132E+01-1.21659E+00 1.83496E-02-9.41324E-01-1.99916E-14 9.95154E-14
 -1      3241 2.14907E+01-1.24990E+00-1.91791E-02-1.29339E+00-6.91188E-14 1.29688E-13
 -1      3242 2.31343E+01-1.94509E+00-1.62870E-02-6.53338E-02-2.34556E-15-1.60065E-13
 -1      3243 2.28343E+01-1.74563E+00 2.13731E-02-4.25196E-01-7.04428E-14-3.86579E-14
 -1      3244 2.23528E+01-1.90934E+00-2.24190E-02-9.35022E-01-6.99923E-15 1.15046E-13
 -1      3245 2.39898E+01-1.92018E+00-1.08442E-02 8.73346E-01-1.68878E-13 1.90197E-13
 -1      3246 2.37415E+01-2.01620E+00 1.50645E-02 4.17974E-01-1.42650E-13 1.62483E-14
 -1      3247 2.34542E+01-2.37576E+00-1.95531E-02-2.09773E-01-1.71117E-13 7.71418E-14
 -1      3248 2.50844E+01 5.12500E-01 4.76393E-04 2.30700E+00 1.25781E-13 1.47097E-13
 -1      3249 2.51108E+01-5.97778E-01-4.43146E-02 2.20701E+00-3.40995E-14 1.78250E-13
 -1      3250 2.39765E+01 2.94603E+00-1.20401E-02 1.62742E+00 3.21042E-13 2.17335E-13
 -1      3251 2.41962E+01 1.97049E+00-1.09258E-01 2.16716E+00 2.58515E-13 4.86841E-14
 -1      3252 2.48538E+01 4.17172E+00-9.00171E-02-3.49977E-01 2.70853E-13 3.66556E-14
 -1      3253 2.48747E+01 4.21363E+00-9.47584E-02 5.28055E-01 3.30069E-13 5.56786E-14
 -1      3254 2.45518E+01 1.80844E-02-6.56873E-02-1.89187E+00-1.43362E-13-3.15387E-13
 -1      3255 2.44796E+01 1.14767E+00 7.96515E-03-1.88433E+00-1.28390E-13-2.87905E-13
 -1      3256 2.44192E+01-1.55265E+00-2.03381E-02-1.12625E+00 1.19182E-14-3.98192E-13
 -1      3257 2.45061E+01-8.67299E-01-3.21568E-03-1.50991E+00-1.00149E-13-3.22345E-13
 -1      3258 2.53029E+01-5.79448E-01-5.58523E-04-1.69520E+00-1.19727E-13-7.78053E-13
 -1      3259 2.37360E+01-2.04501E+00 1.01324E-02-4.34151E-02-1.59725E-15-2.71602E-13
 -1      3260 2.39851E+01-1.90825E+00-1.33398E-02-5.06819E-01 1.06582E-13-2.15542E-13
 -1      3261 2.46792E+01-2.05937E+00-8.13876E-03-6.14473E-01-1.34406E-13-6.06591E-13
 -1      3262 2.28376E+01-1.80398E+00 2.02226E-02 8.58335E-01-1.20074E-13-5.11388E-14
 -1      3263 2.31542E+01-2.00699E+00-1.88183E-02 4.76307E-01-1.99697E-14-1.39163E-13
 -1      3264 2.36112E+01-2.40338E+00-2.18710E-02 5.54623E-01-5.18418E-14-2.62073E-13
 -1      3265 2.19956E+01-1.21919E+00 2.01114E-02 1.41100E+00-9.91396E-14-2.95544E-14
 -1      3266 2.22971E+01-1.54769E+00-1.37855E-02 1.17641E+00-1.94867E-13-2.42070E-15
 -1      3267 2.25355E+01-1.94863E+00-2.04549E-02 1.36189E+00-2.01809E-13-8.81846E-14
 -1      3268 1.74019E+01 1.61869E+00 3.17183E-03-9.00932E-01-1.84531E-13-3.21332E-13
 -1      3269 1.72541E+01 1.66536E+00-1.04481E-02-3.36290E-01-3.04800E-14-8.93003E-14
 -1      3270 1.81408E+01 1.25193E+00 1.68453E-02-1.94505E+00-2.57817E-13-3.35107E-13
 -1      3271 1.77048E+01 1.40330E+00-2.29796E-02-1.51865E+00-2.42195E-13-3.21278E-13
 -1      3272 1.71195E+01 1.29612E+00 1.55486E-02-1.35708E+00-1.74211E-13-4.76605E-13
 -1      3273 1.72792E+01 1.63064E+00-1.34725E-02 3.78779E-01 6.85866E-15-7.89655E-14
 -1      3274 1.74791E+01 1.55427E+00 7.27581E-03 9.40971E-01 4.85608E-14-6.45787E-14
 -1      3275 1.67710E+01 1.46481E+00 2.01767E-02 4.91791E-02-1.45574E-13-1.73189E-13
 -1      3276 1.84169E+01-3.52343E+00 1.35811E-01-5.41404E+00 3.59143E-13 3.07671E-13
 -1      3277 2.09472E+01-4.59009E+00-5.07779E-02-4.93817E+00 3.75283E-13 6.24348E-13
 -1      3278 2.63259E+01 2.70142E+00 1.67510E-02 2.48535E+00 4.22329E-13 6.84869E-14
 -1      3279 2.59066E+01 3.69403E+00-2.31603E-01 1.98264E+00 3.67970E-13 7.44335E-14
 -1      3280 2.66163E+01-4.67158E+00-2.33334E-02 1.50876E+00-1.10370E-13-6.90559E-14
 -1      3281 2.50223E+01-4.86348E+00-1.23478E-02 2.29515E+00 1.20480E-13-7.85552E-14
 -1      3282 2.02911E+01 9.89609E-01-1.31527E-04 6.91858E-01 1.81827E-13-1.48525E-13
 -1      3283 2.02672E+01 1.30567E+00 2.64326E-03 7.73205E-01 1.78321E-13-1.60323E-13
 -1      3284 2.02743E+01 1.12854E+00 9.99502E-04 5.98502E-01 1.40515E-13-1.49361E-13
 -1      3285 2.02305E+01 7.76202E-01-3.96946E-03 4.85222E-01 1.60952E-13-1.34248E-13
 -1      3286 2.01241E+01 2.93384E-01-1.99605E-03 4.54480E-02 1.10381E-13-9.89984E-14
 -1      3287 2.01695E+01 3.94830E-01 4.53281E-03 1.35812E-01 1.29475E-13-1.02414E-13
 -1      3288 2.01903E+01 3.15826E-01-1.40871E-03 3.76688E-02 9.13359E-14-6.29722E-14
 -1      3289 2.31548E+01-4.49191E+00 1.08654E-01-3.71820E+00 3.13308E-13 2.42792E-13
 -1      3290 2.50633E+01-4.41297E+00-5.90162E-02-2.13382E+00 1.71155E-13 7.66054E-15
 -1      3291 2.04262E+01 3.32855E-01 4.62448E-03-2.29882E+00 2.02449E-13-1.32495E-14
 -1      3292 9.84914E+00-1.98080E-02 1.30982E-01-1.03870E+00 1.62250E-13-1.48215E-14
 -1      3293 1.05665E+01-5.89864E-01 3.89428E-02-2.98157E+00 2.34340E-13-3.32803E-13
 -1      3294 1.05023E+01-8.21725E-01 1.43844E-01 3.49308E+00-1.98619E-13 5.43135E-13
 -1      3295 9.64366E+00-1.91990E-01 5.99264E-02 1.29096E+00 3.88318E-14 4.65558E-13
 -1      3296 2.53495E+01-4.26210E+00 8.28225E-02-1.65195E+00-1.71188E-13 6.14453E-13
 -1      3297 2.63456E+01-3.51529E+00-1.44563E-01-1.14065E-01-5.30929E-14 7.39828E-13
 -1      3298 2.02685E+01 7.12570E-01 3.63786E-03-3.47503E-01-1.69160E-13-5.55231E-14
 -1      3299 2.02267E+01 5.51072E-01-3.44048E-03-2.16391E-01-1.61959E-13-6.26496E-14
 -1      3300 2.02734E+01 5.78919E-01-2.91157E-04-1.90373E-01-1.51723E-13-3.25043E-14
 -1      3301 2.05805E+01 9.88361E-02-7.18116E-03 1.92583E+00 3.88983E-14-1.10926E-13
 -1      3302 2.77618E+01 1.50561E-01-3.48241E-02 2.06495E+00-4.31467E-13 5.58581E-15
 -1      3303 2.22912E+01-4.81430E+00-3.85987E-02 3.78648E+00 2.75842E-13-1.82621E-13
 -1      3304 2.02385E+01-4.32670E+00 1.50539E-01 4.76247E+00 4.04433E-13-2.27301E-13
 -1      3305 2.13670E+01-4.58828E+00 7.66865E-02-4.40351E+00-3.67262E-13 2.57731E-13
 -1      3306 2.33463E+01-4.90255E+00-8.28520E-02-3.30199E+00-2.49856E-13 6.42185E-13
 -1      3307 9.00796E+00 5.76745E-02 1.34327E-01 8.66071E-01-1.44043E-13-6.01852E-13
 -1      3308 9.19175E+00 4.06901E-02 8.55219E-02-1.10022E+00-2.13780E-13-5.63299E-13
 -1      3309 1.25874E+01-1.13567E+00 1.53796E-01-4.21766E+00 2.20296E-13-1.85477E-13
 -1      3310 1.51083E+01-2.45133E+00-3.64639E-02-5.30975E+00 3.62876E-13 4.65045E-14
 -1      3311 1.91648E+01 7.33748E-01 2.14399E-02-2.49150E+00-8.64012E-14-1.44620E-13
 -1      3312 1.86271E+01 9.27870E-01-2.18678E-02-2.28434E+00-2.23845E-13-3.25900E-14
 -1      3313 1.81264E+01 7.89824E-01 5.41342E-03-2.34198E+00-1.09537E-13-2.73768E-14
 -1      3314 2.70518E+01-3.62162E+00-5.11369E-03-9.35758E-02-9.91247E-14 1.60247E-13
 -1      3315 2.01971E+01 1.89079E+00 1.10790E-03-1.00786E+00-2.24247E-13-1.11621E-13
 -1      3316 1.15054E+01-1.48781E+00 1.04874E-01 4.41977E+00 9.25510E-14-5.08038E-13
 -1      3317 9.73617E+00-5.29519E-01 7.32159E-02 2.70538E+00-4.64767E-14-4.37511E-13
 -1      3318 2.00469E+01 2.15973E+00-4.30828E-03 2.93033E-01-2.61141E-15-2.84573E-13
 -1      3319 2.00337E+01 2.19851E+00-3.37595E-03 1.71056E-01-3.17946E-14-2.97242E-13
 -1      3320 2.50462E+01-4.92028E+00-6.04809E-02 2.82864E+00-4.09270E-13-4.60257E-14
 -1      3321 2.36297E+01-5.03000E+00 8.73839E-02 3.99780E+00-5.17621E-13-2.69096E-13
 -1      3322 2.50681E+01-4.42606E+00-4.43437E-02 1.56788E+00 1.57168E-13 7.48464E-14
 -1      3323 2.39891E+01-4.67030E+00 7.23961E-02 2.77495E+00 2.22815E-13-1.06602E-13
 -1      3324 2.26652E+01-4.31632E+00 9.26933E-05 3.11953E+00 2.36228E-13-1.56907E-13
 -1      3325 2.73067E+01-1.70546E+00-1.46149E-01 1.54259E+00-3.02772E-13-2.40172E-13
 -1      3326 2.70367E+01-3.13088E+00-1.14761E-02 1.58272E-01-9.11736E-14-6.89448E-14
 -1      3327 2.61714E+01-3.81649E+00 4.93994E-03-7.20719E-01 2.37563E-13 5.64652E-14
 -1      3328 2.00271E+01 2.21761E+00-3.51284E-03 6.62111E-02-5.33187E-14-2.93951E-13
 -1      3329 2.00264E+01 2.21818E+00-3.67733E-03-5.84588E-02-7.56175E-14-2.96680E-13
 -1      3330 2.01404E+01 1.92151E+00 4.76827E-03 1.01694E-01-3.41759E-14-2.64217E-13
 -1      3331 1.87306E+01-3.66064E+00 7.37220E-02 4.76786E+00 3.67227E-13-2.92197E-13
 -1      3332 2.61695E+01-2.45608E+00 3.91159E-03 8.34233E-01-4.68566E-14 5.26454E-13
 -1      3333 2.73836E+01 3.08672E+00-8.11122E-02-1.85829E+00 2.61763E-13-2.16757E-13
 -1      3334 2.73834E+01-2.10026E+00-5.19184E-03-1.66049E+00-1.36582E-13 3.59018E-13
 -1      3335 2.00737E+01 1.38168E-03-9.76058E-04-1.69517E-01 3.69238E-14-8.39256E-14
 -1      3336 2.00092E+01 4.85512E-03-8.10690E-05-1.74408E-01 5.15302E-14-5.85526E-14
 -1      3337 2.00194E+01 2.97531E-02 1.57852E-03-1.62465E-01 4.19322E-14-7.46788E-14
 -1      3338 2.27014E+01-3.60344E+00-3.06973E-02 2.44360E+00 1.43534E-13-1.05449E-13
 -1      3339 2.41235E+01-3.49951E+00 4.85509E-02 1.42311E+00 9.12694E-14 2.55381E-13
 -1      3340 2.49872E+01-3.74288E+00-1.62516E-02 7.89558E-01 1.66801E-13 2.05086E-13
 -1      3341 2.64601E+01-3.15323E+00-8.80961E-02-6.98907E-01-4.41877E-15 3.62529E-13
 -1      3342 1.97598E+01 2.43702E-01-1.22735E-02 2.39569E+00-8.64239E-15-2.80612E-13
 -1      3343 2.02017E+01 7.19918E-02 2.10719E-02 2.35791E+00-1.13733E-14-8.48819E-14
 -1      3344 2.23112E+01-4.65711E+00 4.00849E-02 4.33849E+00-3.82652E-13-2.22916E-13
 -1      3345 2.02866E+01 1.10341E+00-2.67351E-04-6.33040E-01-2.22416E-13-5.93571E-14
 -1      3346 2.02556E+01 8.92040E-01-4.84714E-03-4.64768E-01-1.96820E-13-6.22019E-14
 -1      3347 2.02876E+01 9.30146E-01 1.70671E-03-4.10506E-01-1.81956E-13-4.21343E-14
 -1      3348 2.01060E+01 2.60856E-01 1.72693E-03-2.52628E+00 1.51345E-13-8.17005E-14
 -1      3349 2.02175E+01 1.56757E+00-2.11843E-03-8.08698E-01-2.18462E-13-1.03442E-13
 -1      3350 2.45764E+01-1.05261E+00-1.66030E-02 1.84804E+00-1.23923E-13 2.83143E-13
 -1      3351 2.44674E+01-1.60113E+00-1.03970E-02 1.45911E+00-9.07620E-14 2.13855E-13
 -1      3352 2.58200E+01 4.55800E+00-1.21214E-01 1.10474E+00 3.72327E-13 7.05477E-14
 -1      3353 2.41151E+01 2.13933E+00-9.36961E-02-1.55700E+00-3.96801E-14-5.60381E-14
 -1      3354 2.39804E+01 2.98712E+00-6.49749E-03-9.71365E-01 1.70315E-13 8.99714E-14
 -1      3355 2.20741E+01-3.82880E+00 4.52385E-02-3.80905E+00 2.03764E-13 3.49372E-13
 -1      3356 2.16137E+01-9.91625E-01-9.07247E-03 1.59404E+00 3.10199E-14-9.88782E-15
 -1      3357 2.17112E+01-1.30154E+00-1.32499E-02 1.80684E+00-5.65330E-14-6.34505E-14
 -1      3358 2.13927E+01-7.33733E-01 1.21239E-02 1.73157E+00 1.27793E-13-6.82120E-14
 -1      3359 1.72391E+01 1.18046E+00 1.73502E-02 1.41909E+00-1.42162E-13-4.10347E-14
 -1      3360 1.78173E+01 1.28232E+00-2.34231E-02 1.52728E+00 8.60531E-15 9.64814E-14
 -1      3361 1.82790E+01 1.11226E+00 2.13104E-02 1.92306E+00-2.12101E-13-6.69882E-14
 -1      3362 1.87702E+01 7.44973E-01-2.21518E-02 2.21856E+00-2.00173E-13-6.67648E-14
 -1      3363 1.92912E+01 5.45822E-01 2.23042E-02 2.38143E+00-1.61105E-13-1.42962E-13
 -1      3364 1.94605E+01-1.75578E-02-1.23966E-02 2.61100E+00-1.73869E-13-2.41869E-13
 -1      3365 1.82712E+01 5.85273E-01-2.10159E-03 2.32950E+00-2.57792E-13 1.11131E-15
 -1      3366 1.74884E+01-2.41111E+00 9.92148E-02-4.79860E+00 2.52201E-13 2.51674E-13
 -1      3367 1.69024E+01-3.35096E+00 1.23644E-01 5.76213E+00-3.42115E-13-1.10537E-14
 -1      3368 1.56310E+01-2.53004E+00 3.68571E-02 5.34250E+00-3.44148E-13-1.96509E-14
 -1      3369 1.88606E+01-3.69330E+00 4.11905E-02 5.22382E+00-3.88512E-13-2.02480E-13
 -1      3370 2.01212E+01 1.93946E+00-2.49663E-03-5.84429E-01-1.50811E-13-1.61107E-13
 -1      3371 2.01581E+01 1.81002E+00-6.71441E-03-6.83779E-01-1.79064E-13-1.48823E-13
 -1      3372 1.31875E+01-4.45191E-01 1.21514E-01-3.23612E+00 1.14669E-13-2.51237E-13
 -1      3373 1.97662E+01 3.68004E-01-9.19031E-03-2.53992E+00 1.13935E-13-1.70485E-13
 -1      3374 1.02485E+01 4.93676E-02 1.57144E-01-2.02910E+00-3.36980E-13-3.77573E-13
 -1      3375 1.14837E+01-2.84737E-01 4.72629E-02-2.84472E+00-3.70686E-13-3.57422E-13
 -1      3376 1.08395E+01 3.88615E-01 5.73097E-02-9.93365E-01-1.54946E-13-3.73361E-13
 -1      3377 1.94898E+01 1.52575E-01 8.69144E-03-2.73360E+00 8.23933E-14 3.13378E-15
 -1      3378 1.34595E+01-1.28598E+00 6.66602E-02-4.29479E+00-5.52371E-13-5.65610E-13
 -1      3379 1.39827E+01-2.24468E+00 1.36037E-01-5.15084E+00-6.46372E-13-7.34267E-13
 -1      3380 1.60413E+01-2.70410E+00-5.64044E-03-5.01508E+00-7.17922E-13-5.14408E-13
 -1      3381 2.00923E+01 2.02426E+00-5.31262E-03 5.05187E-01 5.23622E-14-2.41184E-13
 -1      3382 2.00672E+01 2.10436E+00-3.05545E-03 3.91701E-01 2.81414E-14-2.69860E-13
 -1      3383 2.01632E+01 1.84686E+00 5.29686E-03 2.91572E-01 1.25776E-14-2.52039E-13
 -1      3384 2.41547E+01-4.18207E+00 2.23616E-02-2.05519E+00-2.95465E-13 6.16129E-13
 -1      3385 2.45871E+01-2.11818E+00 4.42564E-03 9.14719E-01-1.77869E-13 3.67815E-13
 -1      3386 2.61125E+01-3.61610E+00 4.11830E-02 1.01913E-01 4.26976E-14 3.27179E-13
 -1      3387 1.26315E+01-1.05191E+00 1.17348E-01 3.87076E+00-2.66211E-13 3.75824E-13
 -1      3388 1.13030E+01 2.11790E-01 1.28563E-01 2.88133E-01 1.54087E-15 1.75665E-13
 -1      3389 2.75002E+01-7.05725E-02-6.25128E-02-1.76692E+00 5.89667E-14-2.17881E-15
 -1      3390 2.81304E+01-1.35730E+00-8.11787E-02-1.11283E+00-4.75314E-14-2.13107E-13
 -1      3391 2.73400E+01-2.30841E+00 1.63063E-03-5.80899E-01 5.98237E-14-2.20768E-13
 -1      3392 2.00546E+01 1.01474E-01 2.51096E-03-1.14446E-01 9.16098E-14-6.49340E-14
 -1      3393 2.01435E+01 1.60954E-01-1.39074E-03-7.54621E-02 7.34905E-14-6.57030E-14
 -1      3394 2.00348E+01 6.03072E-02-4.79883E-04-1.42845E-01 6.71591E-14-5.64380E-14
 -1      3395 1.09438E+01 3.27846E-02 1.29104E-01 1.77274E+00 8.27064E-14-4.73482E-13
 -1      3396 2.01412E+01-4.27954E+00 2.94292E-02-4.76584E+00-4.91947E-13-6.17562E-15
 -1      3397 2.12459E+01-3.98555E+00 1.46371E-02-3.78510E+00-4.68008E-13 4.38087E-13
 -1      3398 1.88324E+01-3.46723E+00 1.03608E-01-4.80536E+00-5.60791E-13-1.87787E-13
 -1      3399 2.01596E+01 1.80179E+00-6.68032E-03 6.86247E-01 1.12831E-13-1.85200E-13
 -1      3400 2.01241E+01 1.92981E+00-2.83795E-03 5.91114E-01 7.16133E-14-1.90960E-13
 -1      3401 2.02043E+01 1.69478E+00 5.81715E-03 4.59888E-01 7.35243E-14-1.94282E-13
 -1      3402 2.02521E+01 1.46142E+00 5.80708E-03 5.88417E-01 1.06610E-13-1.47984E-13
 -1      3403 2.58231E+01 1.14006E+00-3.16801E-02 2.32837E+00 1.46230E-13 1.83090E-13
 -1      3404 2.63056E+01-3.91412E+00-1.10039E-01 8.54939E-01-2.04697E-16-4.41615E-13
 -1      3405 2.59875E+01-4.42850E+00 2.46732E-02 1.83862E+00-2.17600E-13-2.47212E-13
 -1      3406 2.49804E+01-4.39779E+00 2.04975E-02 2.24746E+00-2.88769E-13-2.76480E-14
 -1      3407 2.05508E+01-1.11579E-01-6.98373E-03 2.16084E+00 1.69537E-13-2.58029E-15
 -1      3408 2.09565E+01-2.81061E-01 1.45279E-02 1.88003E+00 1.26700E-13-6.65315E-14
 -1      3409 2.11459E+01-5.59140E-01-5.21568E-03 1.82705E+00 1.95693E-13-6.06226E-14
 -1      3410 2.04740E+01-4.29734E-01-1.36639E-02 2.38086E+00 6.79743E-14-3.37417E-14
 -1      3411 2.01753E+01 4.86179E-01-2.95126E-03 2.23064E-01 1.29270E-13-1.17408E-13
 -1      3412 2.02325E+01 6.34303E-01 4.13737E-03 3.62357E-01 1.37241E-13-1.27426E-13
 -1      3413 2.02593E+01 7.89411E-01-6.83074E-04 4.22126E-01 1.36849E-13-1.26127E-13
 -1      3414 2.02298E+01 5.25529E-01-6.80489E-04 2.01479E-01 1.25375E-13-1.23968E-13
 -1      3415 1.37903E+01-1.72408E+00 1.21172E-01 4.43946E+00 2.25694E-13-3.13138E-13
 -1      3416 2.00647E+01 2.11061E+00-2.86543E-03-3.83760E-01-1.13732E-13-2.48650E-13
 -1      3417 2.00887E+01 2.03275E+00-5.10895E-03-4.99195E-01-1.38365E-13-2.10915E-13
 -1      3418 2.01973E+01 1.70064E+00 3.93455E-03-4.52048E-01-1.46113E-13-1.63506E-13
 -1      3419 2.51657E+01 1.93630E+00-2.15626E-02-1.90302E+00 2.01297E-14-3.61180E-13
 -1      3420 1.58013E+01-2.10518E+00 4.64704E-02 4.59845E+00 3.08361E-13-2.56989E-13
 -1      3421 1.37688E+01-1.01434E+00 8.00973E-03 3.77843E+00 1.18509E-13-2.89574E-13
 -1      3422 2.15949E+01-3.40294E+00 7.37532E-02 3.23303E+00 2.21692E-13-1.68424E-13
 -1      3423 2.02687E+01 2.37512E-01 2.14249E-03 3.86435E-02-1.61009E-13-4.67527E-14
 -1      3424 2.02443E+01 1.62628E-01-1.27184E-03 7.96116E-02-1.62040E-13-3.53746E-14
 -1      3425 2.02296E+01 1.04393E-01 1.59948E-03 1.05942E-01-1.21698E-13-2.24475E-14
 -1      3426 2.02083E+01 5.64777E-02-6.28045E-04 1.28183E-01-6.35855E-14-1.96226E-15
 -1      3427 2.02863E+01 1.60669E-01-4.42179E-04 7.62172E-02-1.20709E-13-2.02243E-14
 -1      3428 2.01909E+01 2.03309E-02 1.10297E-03 1.40999E-01-6.53057E-14 1.62089E-14
 -1      3429 2.01734E+01-8.29328E-03-1.81615E-04 1.50559E-01-5.96048E-14-2.31705E-14
 -1      3430 2.02488E+01 5.18613E-02-5.91634E-04 1.18455E-01-4.74067E-14-5.56269E-15
 -1      3431 2.01556E+01-2.87198E-02 6.90775E-04 1.54439E-01-4.08230E-14-6.02317E-14
 -1      3432 2.01418E+01-4.35763E-02 1.15348E-04 1.56075E-01-2.98908E-14-5.12820E-14
 -1      3433 2.02104E+01-1.40162E-02-6.25128E-04 1.37892E-01-5.45066E-14-4.20308E-14
 -1      3434 2.01249E+01-5.28050E-02 3.66600E-04 1.54661E-01-6.52393E-15-1.88421E-14
 -1      3435 2.01144E+01-5.78217E-02 3.07278E-04 1.51987E-01-3.54298E-15-1.07828E-14
 -1      3436 2.01742E+01-4.89974E-02-5.91537E-04 1.42693E-01 9.82085E-15-3.40863E-14
 -1      3437 2.00988E+01-5.90242E-02 1.16619E-04 1.48072E-01-1.87259E-14-1.42978E-15
 -1      3438 2.00910E+01-5.69314E-02 4.28886E-04 1.43786E-01-3.12694E-14-1.07924E-14
 -1      3439 2.01415E+01-6.17656E-02-5.22020E-04 1.39300E-01-2.01350E-14-3.85616E-14
 -1      3440 2.00770E+01-5.22661E-02-7.90654E-05 1.39475E-01-6.63201E-14-4.66154E-14
 -1      3441 2.00714E+01-4.48793E-02 5.06922E-04 1.35599E-01-5.56498E-14-2.46391E-14
 -1      3442 2.01126E+01-5.84114E-02-4.31589E-04 1.32640E-01-4.47761E-14-4.67983E-14
 -1      3443 2.00586E+01-3.57306E-02-2.40875E-04 1.32489E-01-6.18763E-14-7.18404E-14
 -1      3444 2.00547E+01-2.41592E-02 5.61232E-04 1.30570E-01-6.76023E-14-5.75512E-14
 -1      3445 2.00870E+01-4.30265E-02-3.28412E-04 1.26449E-01-6.71393E-14-8.05868E-14
 -1      3446 2.00427E+01-1.13158E-02-3.87257E-04 1.29917E-01-4.15966E-14-6.73467E-14
 -1      3447 2.00399E+01 3.87145E-03 6.05629E-04 1.31205E-01-5.22558E-14-4.32177E-14
 -1      3448 2.00639E+01-1.81429E-02-2.15038E-04 1.23602E-01-2.90172E-14-1.02580E-13
 -1      3449 2.00280E+01 2.00698E-02-5.33690E-04 1.34053E-01-5.59242E-14-3.02626E-14
 -1      3450 2.00259E+01 3.87089E-02 6.49514E-04 1.39625E-01-4.96633E-14-8.44065E-15
 -1      3451 2.00421E+01 1.49003E-02-9.06618E-05 1.26415E-01-5.81602E-14-7.97448E-14
 -1      3452 2.00131E+01 5.82551E-02-6.93582E-04 1.46911E-01-1.14553E-13-1.10375E-14
 -1      3453 2.00111E+01 8.04736E-02 6.98490E-04 1.57769E-01-1.52055E-13-6.41773E-14
 -1      3454 2.00200E+01 5.56624E-02 5.00680E-05 1.36865E-01-7.32705E-14-7.22844E-14
 -1      3455 1.99963E+01 1.03585E-01-8.77985E-04 1.70392E-01-1.21666E-13-1.85422E-14
 -1      3456 1.99938E+01 1.29688E-01 7.54762E-04 1.87523E-01-1.18690E-13 7.05509E-15
 -1      3457 1.99955E+01 1.04340E-01 2.14017E-04 1.56760E-01-9.20854E-14-3.10215E-14
 -1      3458 1.99759E+01 1.56693E-01-1.09632E-03 2.06393E-01-1.20002E-13 9.68381E-14
 -1      3459 1.99721E+01 1.87038E-01 8.17121E-04 2.30796E-01-3.73100E-14 8.02905E-14
 -1      3460 1.99665E+01 1.61515E-01 4.10322E-04 1.87854E-01-3.95883E-14 5.29800E-14
 -1      3461 1.99493E+01 2.18243E-01-1.35634E-03 2.56842E-01-5.37021E-14 1.05201E-13
 -1      3462 1.99434E+01 2.53092E-01 8.82835E-04 2.89527E-01-1.38368E-13 7.59252E-14
 -1      3463 1.99300E+01 2.27881E-01 6.49120E-04 2.31893E-01-2.62446E-14 1.41116E-13
 -1      3464 1.99139E+01 2.88612E-01-1.66364E-03 3.23699E-01-1.24561E-13 7.77418E-14
 -1      3465 1.99048E+01 3.27925E-01 9.49569E-04 3.65652E-01-6.93899E-14 1.23889E-13
 -1      3466 1.98827E+01 3.03914E-01 9.41354E-04 2.90628E-01-1.02997E-13 1.42620E-13
 -1      3467 1.98665E+01 3.67439E-01-2.02163E-03 4.08905E-01-3.21561E-15 1.40222E-13
 -1      3468 1.98529E+01 4.10587E-01 1.01977E-03 4.61035E-01 1.46523E-13 1.13425E-13
 -1      3469 1.98208E+01 3.89441E-01 1.29680E-03 3.65791E-01-4.97430E-15 1.56414E-13
 -1      3470 1.98034E+01 4.52989E-01-2.43135E-03 5.14327E-01 1.88464E-13 1.00322E-13
 -1      3471 1.97840E+01 4.98333E-01 1.10923E-03 5.77407E-01 1.44575E-13 1.38952E-13
 -1      3472 1.97398E+01 4.83043E-01 1.72066E-03 4.59078E-01 1.50394E-13 1.63052E-13
 -1      3473 1.97207E+01 5.41212E-01-2.89142E-03 6.41755E-01 4.82113E-14 7.89019E-14
 -1      3474 1.96946E+01 5.85492E-01 1.26238E-03 7.16396E-01-6.91794E-14 8.31467E-14
 -1      3475 1.96346E+01 5.81219E-01 2.20749E-03 5.72223E-01 4.41133E-14 4.95945E-15
 -1      3476 1.96151E+01 6.24371E-01-3.39721E-03 7.93059E-01-5.10587E-14 1.03015E-13
 -1      3477 1.95823E+01 6.61824E-01 1.57705E-03 8.79778E-01-1.83925E-14 1.96161E-13
 -1      3478 1.95002E+01 6.77194E-01 2.73028E-03 7.07273E-01-1.92419E-16-2.33070E-14
 -1      3479 1.94846E+01 6.89079E-01-3.93625E-03 9.70690E-01-1.43297E-14 1.98702E-13
 -1      3480 1.94475E+01 7.10197E-01 2.24030E-03 1.07014E+00 1.06813E-13 2.34889E-13
 -1      3481 1.93320E+01 7.59241E-01 3.22075E-03 8.67298E-01 1.87433E-14 1.22026E-13
 -1      3482 1.93315E+01 7.13553E-01-4.46991E-03 1.17872E+00 1.83776E-13 3.05854E-13
 -1      3483 1.92974E+01 7.03404E-01 3.57516E-03 1.29216E+00 2.10417E-13 3.21135E-13
 -1      3484 1.91278E+01 8.08331E-01 3.53377E-03 1.05783E+00 1.78758E-13 2.21228E-13
 -1      3485 1.91666E+01 6.63997E-01-4.86759E-03 1.42458E+00 1.70458E-13 3.03502E-13
 -1      3486 1.91513E+01 6.00043E-01 6.09348E-03 1.55433E+00 2.08487E-13 3.49591E-13
 -1      3487 1.88901E+01 7.94905E-01 3.38783E-03 1.28935E+00 1.92378E-13 2.42936E-13
 -1      3488 1.90170E+01 4.90097E-01-4.67802E-03 1.72116E+00 1.49159E-13 2.33757E-13
 -1      3489 1.90515E+01 3.39413E-01 1.05006E-02 1.87041E+00 1.27214E-13 2.23703E-13
 -1      3490 1.86316E+01 6.74357E-01 2.28285E-03 1.58097E+00 1.36006E-13 1.20802E-13
 -1      3491 1.89411E+01 1.20213E-01-2.42320E-03 2.08656E+00 5.84877E-14 7.22570E-14
 -1      3492 1.90816E+01-1.62057E-01 1.83216E-02 2.25544E+00 1.75853E-13-7.22622E-14
 -1      3493 1.83859E+01 3.79728E-01-5.98488E-04 1.96394E+00 5.51619E-14-2.74167E-14
 -1      3494 1.90527E+01-5.39042E-01 5.92878E-03 2.53984E+00 2.69400E-13-1.53585E-13
 -1      3495 1.93766E+01-1.02500E+00 2.19624E-02 2.71464E+00 2.61347E-13-1.64914E-13
 -1      3496 1.82226E+01-1.83137E-01-6.45378E-03 2.48028E+00 1.16149E-13-9.29959E-14
 -1      3497 1.97966E+01-1.71414E+00 3.47188E-02 3.04072E+00 2.51822E-13-1.65084E-13
 -1      3498 2.03977E+01-2.50038E+00 1.16528E-02 3.17941E+00 2.04996E-13-1.90427E-13
 -1      3499 1.99570E+01-3.14492E+00-2.26479E-02 3.79852E+00 2.13702E-13-3.18863E-13
 -1      3500 1.85012E+01-1.27365E+00-7.45001E-03 3.19006E+00 2.40174E-13-3.83296E-13
 -1      3501 2.29827E+01-4.30861E+00-1.19069E-02 3.48855E+00-2.83882E-13 8.62192E-14
 -1      3502 2.11483E+01-4.02912E+00 6.53568E-02 4.55217E+00-3.33105E-13-2.48523E-13
 -1      3503 2.05339E+01-2.00867E+00 3.46826E-02-3.51027E+00 4.44618E-13 3.28799E-13
 -1      3504 1.99957E+01-1.28199E+00 3.43892E-02-3.40243E+00 5.23530E-13 3.26151E-13
 -1      3505 1.97792E+01-7.74795E-01 2.70974E-02-3.14857E+00 3.16596E-13 1.58639E-13
 -1      3506 1.95448E+01-2.45079E-01 1.77706E-02-2.96635E+00 1.72156E-13 1.81355E-13
 -1      3507 1.86854E+01 3.73795E-02-2.70185E-02-2.94316E+00-1.94612E-14 2.58366E-13
 -1      3508 1.88679E+01-8.95352E-01-7.99223E-03-3.52150E+00 3.01788E-13 3.56234E-13
 -1      3509 2.00492E+01-4.47052E-02 5.15476E-04-1.43132E-01 1.23765E-13-1.16637E-14
 -1      3510 2.00515E+01-5.06808E-02-8.58587E-05-1.47969E-01 9.85087E-14 4.99917E-14
 -1      3511 2.56303E+01-1.45105E+00-6.13730E-02 1.76642E+00 6.50799E-14 3.68413E-13
 -1      3512 2.00629E+01-5.41473E-02 4.34586E-04-1.53034E-01 1.09152E-13 5.85429E-14
 -1      3513 2.00674E+01-5.52569E-02 1.20165E-04-1.58085E-01 1.06311E-13 5.64856E-14
 -1      3514 2.00902E+01-5.69831E-02-4.39127E-04-1.44068E-01 1.32397E-13-1.48161E-14
 -1      3515 2.01028E+01-3.83582E-02 1.24496E-04-1.66947E-01 6.10411E-14-3.73755E-15
 -1      3516 2.01139E+01-2.35731E-02 7.66038E-04-1.65259E-01 5.57660E-14-5.14292E-14
 -1      3517 2.00387E+01-2.74556E-02 5.76370E-04-1.36113E-01 5.90043E-14-1.55171E-14
 -1      3518 2.00392E+01-3.71839E-02-2.46269E-04-1.39119E-01 9.03414E-14-9.94817E-15
 -1      3519 2.00700E+01-4.45650E-02-3.41148E-04-1.36171E-01 1.25333E-13 7.52809E-15
 -1      3520 2.00304E+01-3.83933E-03 6.32215E-04-1.34608E-01 5.55383E-14 1.28922E-16
 -1      3521 2.00297E+01-1.66950E-02-3.80772E-04-1.34506E-01 7.86949E-14 2.00906E-14
 -1      3522 2.00527E+01-2.34862E-02-2.45303E-04-1.31455E-01 5.50523E-14-1.62163E-14
 -1      3523 2.00237E+01 2.54511E-02 6.93418E-04-1.40804E-01 4.52360E-14-7.42939E-16
 -1      3524 2.00219E+01 9.74261E-03-5.06438E-04-1.36516E-01 4.47869E-14 8.57367E-15
 -1      3525 2.00372E+01 4.78167E-03-1.48285E-04-1.32423E-01 5.34116E-14-4.55788E-15
 -1      3526 2.00175E+01 6.02139E-02 7.66589E-04-1.56662E-01 5.42048E-14 3.43179E-14
 -1      3527 2.00150E+01 4.17060E-02-6.35747E-04-1.47210E-01 5.64342E-14 8.43608E-15
 -1      3528 2.00224E+01 3.95473E-02-4.91779E-05-1.41195E-01 2.32355E-14-2.24317E-14
 -1      3529 2.00112E+01 1.00497E-01 8.55984E-04-1.84043E-01 5.39052E-14 3.24784E-14
 -1      3530 2.00080E+01 7.91432E-02-7.77869E-04-1.68496E-01 6.23278E-14 4.28608E-14
 -1      3531 2.00070E+01 8.06261E-02 5.69327E-05-1.59697E-01 5.87239E-14-1.61953E-14
 -1      3532 2.00036E+01 1.46326E-01 9.63017E-04-2.24787E-01 7.36202E-14 7.54702E-15
 -1      3533 2.00000E+01 1.22127E-01-9.38476E-04-2.02233E-01 5.33992E-14 4.31916E-14
 -1      3534 1.99896E+01 1.28050E-01 1.71441E-04-1.89779E-01 7.63231E-14 2.72173E-14
 -1      3535 1.99940E+01 1.97370E-01 1.08834E-03-2.80706E-01 2.05626E-14 1.11715E-13
 -1      3536 1.99900E+01 1.70552E-01-1.11789E-03-2.50277E-01 8.98719E-14 6.76073E-14
 -1      3537 1.99686E+01 1.81758E-01 2.95605E-04-2.33292E-01 5.56527E-14 7.84993E-14
 -1      3538 1.99817E+01 2.52503E-01 1.23246E-03-3.53505E-01-1.26695E-13 2.12930E-13
 -1      3539 1.99773E+01 2.23754E-01-1.31040E-03-3.14438E-01-7.22326E-14 1.17107E-13
 -1      3540 1.99425E+01 2.41189E-01 4.26217E-04-2.92093E-01-5.92798E-14 1.46923E-13
 -1      3541 1.99661E+01 3.09221E-01 1.39854E-03-4.44626E-01-2.37768E-14 1.22984E-13
 -1      3542 1.99611E+01 2.80006E-01-1.50172E-03-3.96377E-01-6.48716E-14 1.52768E-13
 -1      3543 1.99099E+01 3.04778E-01 5.52157E-04-3.67999E-01-4.73753E-14 6.06909E-14
 -1      3544 1.99479E+01 3.62860E-01 1.59663E-03-5.55017E-01 4.63094E-14 5.95831E-14
 -1      3545 1.99415E+01 3.35845E-01-1.66516E-03-4.97426E-01 4.23622E-14 1.32272E-13
 -1      3546 1.98697E+01 3.69281E-01 6.48804E-04-4.62698E-01 3.81611E-15 1.57393E-14
 -1      3547 1.99290E+01 4.05555E-01 1.84998E-03-6.84827E-01-4.96772E-14 5.54062E-14
 -1      3548 1.99197E+01 3.85164E-01-1.75567E-03-6.18335E-01-5.92439E-15 3.98461E-14
 -1      3549 1.98220E+01 4.28882E-01 6.68961E-04-5.77641E-01 2.40690E-14-2.17270E-14
 -1      3550 1.99146E+01 4.24926E-01 2.20211E-03-8.33012E-01-9.40324E-14 5.25753E-14
 -1      3551 1.98991E+01 4.18037E-01-1.69958E-03-7.58953E-01-1.13335E-13 1.58074E-14
 -1      3552 1.97685E+01 4.74026E-01 5.28938E-04-7.13936E-01-1.17810E-13-1.52163E-13
 -1      3553 1.99147E+01 4.02530E-01 2.71899E-03-9.96817E-01-3.81665E-14 9.82178E-14
 -1      3554 1.98872E+01 4.19281E-01-1.37592E-03-9.17810E-01-2.19875E-14 1.50460E-13
 -1      3555 1.97147E+01 4.89961E-01 8.77151E-05-8.72257E-01-8.27673E-14-1.58260E-13
 -1      3556 1.99475E+01 3.12351E-01 3.46923E-03-1.17088E+00-4.45262E-14 1.32984E-13
 -1      3557 1.98981E+01 3.66893E-01-5.81359E-04-1.09147E+00-3.81767E-14 1.27515E-13
 -1      3558 1.96713E+01 4.55012E-01-8.83439E-04-1.05271E+00-1.12870E-13 6.76822E-14
 -1      3559 2.00437E+01 1.20105E-01 4.44829E-03-1.34537E+00-1.99849E-13 2.18958E-13
 -1      3560 1.99563E+01 2.30824E-01 1.02624E-03-1.27320E+00-1.17709E-13 1.65857E-13
 -1      3561 1.96590E+01 3.38810E-01-2.74225E-03-1.25427E+00-1.32947E-13 1.75394E-13
 -1      3562 2.02510E+01-2.14715E-01 5.23212E-03-1.50187E+00 1.00315E-13 1.90320E-13
 -1      3563 2.01027E+01-2.65523E-02 3.98517E-03-1.44989E+00-4.41157E-14 1.70790E-13
 -1      3564 1.97134E+01 1.01298E-01-6.02441E-03-1.47286E+00-4.75327E-14 6.08915E-14
 -1      3565 2.06376E+01-7.27776E-01 5.26534E-03-1.60428E+00 3.45036E-15 1.39749E-13
 -1      3566 2.03994E+01-4.45348E-01 8.83366E-03-1.59505E+00 1.09228E-13 2.22431E-13
 -1      3567 1.98927E+01-3.05421E-01-1.17046E-02-1.69536E+00 5.86769E-14 1.02062E-13
 -1      3568 2.12895E+01-1.43449E+00 2.23639E-03-1.58725E+00-1.18014E-13 9.19216E-14
 -1      3569 2.09326E+01-1.05245E+00 1.71036E-02-1.65904E+00-1.19275E-13 9.87401E-14
 -1      3570 2.02843E+01-9.26331E-01-2.08377E-02-1.88848E+00-5.56187E-14 4.70097E-14
 -1      3571 2.22834E+01-2.24427E+00-3.84132E-03-1.32450E+00-6.97550E-14 2.50166E-13
 -1      3572 2.18032E+01-1.82596E+00 2.88679E-02-1.53405E+00-7.95568E-14 2.88182E-13
 -1      3573 2.10114E+01-1.77633E+00-3.20291E-02-1.96935E+00-2.06140E-13 5.19879E-14
 -1      3574 2.36249E+01-2.87963E+00-9.11870E-03-6.54716E-01-3.16142E-13 3.33565E-13
 -1      3575 2.30748E+01-2.59578E+00 4.17534E-02-1.06036E+00-1.54300E-13 3.09970E-13
 -1      3576 2.22057E+01-2.74084E+00-4.52909E-02-1.76093E+00-1.88862E-13 5.29848E-13
 -1      3577 2.10981E+01-2.99742E+00 5.63802E-02-3.86456E+00 3.88175E-13 4.76152E-13
 -1      3578 2.60471E+01-1.63529E+00-7.22203E-02-1.28618E+00-8.23126E-14-4.82066E-13
 -1      3579 2.61721E+01-3.25883E-01-4.64697E-02-1.70106E+00-1.55813E-14-3.05395E-13
 -1      3580 2.21772E+01-1.89863E+00 3.21834E-02 1.97553E+00-2.05391E-13-1.92600E-13
 -1      3581 2.26429E+01-2.34520E+00-6.10053E-03 1.73037E+00-1.69338E-13-2.13829E-13
 -1      3582 1.71153E+01-1.32474E+00 3.46677E-02-4.15245E+00 3.23979E-13 2.69958E-13
 -1      3583 1.94789E+01-2.58345E+00-3.19483E-02-4.34216E+00 3.21115E-13 6.01935E-13
 -1      3584 1.66796E+01 9.62971E-01 1.39882E-02-1.88387E+00-1.03786E-13-5.22747E-13
 -1      3585 1.61721E+01 1.14698E+00-1.23141E-02-1.24684E+00-1.41785E-13-2.97283E-13
 -1      3586 1.59219E+01 1.26893E+00-3.65343E-03-2.88272E-01-2.60147E-13-1.57181E-13
 -1      3587 1.59772E+01 1.24285E+00 3.48452E-03 4.59230E-01-2.01594E-13-2.75181E-13
 -1      3588 1.53628E+01 1.02802E+00 1.83560E-02-8.70718E-01-1.42942E-13-1.50126E-13
 -1      3589 1.30857E+01 2.38594E-01 9.32295E-02-2.30302E+00 1.36954E-13-2.15855E-13
 -1      3590 1.45351E+01-4.62464E-01 2.98203E-02-3.43876E+00 1.03091E-13-2.66148E-13
 -1      3591 2.34207E+01-2.70899E+00 3.44818E-02 1.41780E+00-1.69318E-13-3.10280E-13
 -1      3592 2.40001E+01-2.93213E+00-2.00783E-03 9.37431E-01-2.11545E-13-4.51939E-13
 -1      3593 2.27344E+01-2.84760E+00-2.95455E-02 2.16489E+00-2.50351E-13-3.62763E-13
 -1      3594 2.49694E+01-3.22081E+00-2.94674E-03 5.60951E-01-2.19678E-13-4.64011E-13
 -1      3595 2.55195E+01-2.81772E+00-1.32004E-02-8.52652E-02-1.43061E-13-6.24297E-13
 -1      3596 2.58334E+01 4.51424E+00-9.74051E-02-9.95897E-01 2.43042E-13-7.10543E-15
 -1      3597 2.00331E+01 2.20133E+00-3.11116E-03-1.62807E-01-1.05553E-13-3.15152E-13
 -1      3598 2.00449E+01 2.16420E+00-4.22013E-03-2.85304E-01-1.18509E-13-2.86356E-13
 -1      3599 2.01585E+01 1.85020E+00 4.02054E-03-2.82518E-01-1.15756E-13-2.70577E-13
 -1      3600 2.02191E+01 1.58124E+00 1.61189E-03-7.00370E-01-1.99997E-13-9.99101E-14
 -1      3601 2.00806E+01-5.33140E-02 3.13291E-04-1.62460E-01 5.60661E-14 2.91194E-14
 -1      3602 2.00879E+01-4.77870E-02 3.96561E-04-1.65589E-01 6.66324E-14 3.93760E-14
 -1      3603 2.01424E+01-4.40696E-02-6.32011E-04-1.55786E-01 4.94405E-14-5.50573E-14
 -1      3604 2.01142E+01-5.81675E-02-5.38636E-04-1.51986E-01 5.83087E-14-1.96741E-14
 -1      3605 2.02568E+01 1.36545E+00 2.05481E-03-5.39126E-01-1.74052E-13-9.17596E-14
 -1      3606 1.46692E+01-1.36296E+00 1.19533E-01 4.56553E+00-3.85646E-13 2.67085E-13
 -1      3607 1.32950E+01-4.11870E-01 3.11109E-02 3.22977E+00-3.42042E-13 2.48378E-13
 -1      3608 2.03135E+01 7.33978E-01 1.15992E-03-2.43499E-01-1.62262E-13-5.57551E-14
 -1      3609 2.02970E+01 5.72630E-01-2.83910E-03-1.42595E-01-1.40804E-13-6.69275E-14
 -1      3610 2.03013E+01 4.38824E-01 2.45530E-03-7.35454E-02-1.19191E-13-8.74198E-14
 -1      3611 2.02768E+01 3.26729E-01-2.13531E-03-6.61102E-03-1.43920E-13-5.95129E-14
 -1      3612 2.03175E+01 3.28798E-01-9.94208E-05 1.40244E-03-1.38470E-13-8.71610E-14
 -1      3613 1.22011E+01 4.11904E-01 6.52298E-02 1.39975E+00-1.14013E-13 5.63785E-14
 -1      3614 1.20737E+01 4.87012E-01 1.80882E-02-7.85870E-01 1.19317E-13-1.48631E-14
 -1      3615 2.53770E+01-2.68311E+00 3.95768E-03 5.74061E-01-1.17880E-13 4.63231E-13
 -1      3616 2.47915E+01-3.08622E+00 8.86708E-03-8.08127E-02-3.27254E-13 3.27588E-13
 -1      3617 2.02361E+01 3.20710E-01-1.99778E-03 1.69805E-02 6.82542E-14-6.02341E-14
 -1      3618 2.02656E+01 4.30223E-01 2.95133E-03 9.08110E-02 9.48276E-14-8.09625E-14
 -1      3619 1.80223E+01 3.84517E-01 1.74753E-02-2.72041E+00 5.52206E-15 1.81986E-13
 -1      3620 1.72757E+01 6.37643E-01-2.14935E-02-2.39891E+00-3.67941E-14-3.02900E-13
 -1      3621 1.65033E+01 5.63991E-01 2.71003E-02-2.36135E+00 3.00419E-14-4.18832E-13
 -1      3622 1.79303E+01-5.39022E-02 4.64611E-03-3.05158E+00 1.25004E-13 1.59253E-13
 -1      3623 2.29343E+01-3.68744E+00 6.66251E-02-2.41882E+00-2.48984E-13 6.43072E-13
 -1      3624 2.40742E+01-3.54110E+00-5.09994E-02-1.09739E+00-2.58321E-13 4.68070E-13
 -1      3625 1.76740E+01-2.44891E+00 8.03684E-02 4.33949E+00 3.28119E-13-3.91444E-13
 -1      3626 1.24120E+01 8.76817E-02 6.63383E-02 2.53794E+00-1.98140E-14-3.55743E-13
 -1      3627 1.15778E+01 5.31690E-01 3.92142E-02 8.83197E-01-7.78631E-14-4.02359E-13
 -1      3628 2.39881E+01-3.96206E+00 3.57762E-02 2.37952E+00-3.73077E-13-8.77540E-14
 -1      3629 2.28482E+01-3.56411E+00 5.53568E-03 2.82578E+00-2.94880E-13-2.53934E-13
 -1      3630 2.01301E+01-3.62905E-03-1.73119E-04-1.60520E-01 2.91982E-14-7.36131E-14
 -1      3631 2.01458E+01 2.42436E-02 1.25060E-03-1.50115E-01 7.48776E-15-9.12435E-14
 -1      3632 2.01749E+01-8.73471E-03-7.03850E-04-1.49966E-01 9.43198E-15-1.31891E-13
 -1      3633 1.36964E+01 5.86567E-01 6.77657E-02-1.24734E+00 2.87064E-14-5.59691E-14
 -1      3634 1.30698E+01 7.43357E-01 2.76552E-02 8.20084E-01-1.77866E-13-4.34406E-13
 -1      3635 1.18159E+01 7.30704E-01 9.43038E-02 1.28485E-01-1.11354E-13-4.50660E-13
 -1      3636 1.22653E+01 6.32678E-01 2.44337E-02-7.66433E-01-1.53398E-13-3.65447E-13
 -1      3637 2.01387E+01 1.92270E+00 4.36987E-03-9.35548E-02-8.67150E-14-2.79732E-13
 -1      3638 2.02059E+01 1.63874E+00-3.17863E-03 1.30685E-01-1.35605E-14-2.40414E-13
 -1      3639 2.02007E+01 1.65756E+00-3.01955E-03 4.01623E-02-4.51969E-14-2.58764E-13
 -1      3640 2.02633E+01 1.34973E+00 2.19986E-03-4.34070E-01-1.55138E-13-1.10946E-13
 -1      3641 2.02943E+01 1.11323E+00-1.08160E-03-4.37745E-01-1.72949E-13-7.07043E-14
 -1      3642 2.02965E+01 9.12600E-01-2.43675E-03-3.17697E-01-1.66550E-13-5.57429E-14
 -1      3643 2.16433E+01-1.57235E+00-6.94687E-03 2.13300E+00-2.15751E-13-1.72983E-13
 -1      3644 2.15532E+01-1.94010E+00-2.62794E-02 2.51423E+00-3.00691E-13-2.86477E-13
 -1      3645 2.12951E+01-1.21019E+00 8.32013E-03 2.27065E+00-1.28928E-13-1.52664E-13
 -1      3646 1.75100E+01-1.73964E+00 1.13277E-02 3.83840E+00 2.15850E-13-3.31030E-13
 -1      3647 1.42882E+01-2.47454E-01 6.36956E-02 2.87819E+00 1.51597E-14-3.20511E-13
 -1      3648 2.11577E+01-7.59534E-01-1.56034E-05 2.03031E+00 1.37728E-13 1.04547E-14
 -1      3649 1.62858E+01 1.02525E+00-1.97872E-02 1.37035E+00-2.22519E-13-1.60014E-13
 -1      3650 1.68693E+01 8.31357E-01 3.00729E-02 1.99275E+00-2.84206E-13 5.74315E-14
 -1      3651 1.55100E+01 9.54246E-01 3.13901E-02 1.07011E+00-1.54293E-13-1.62844E-13
 -1      3652 2.02624E+01 5.33026E-01-2.65556E-03 1.60230E-01 1.16153E-13-1.07304E-13
 -1      3653 2.02869E+01 6.58457E-01 4.16310E-03 2.53809E-01 1.14486E-13-1.24708E-13
 -1      3654 2.03012E+01 5.48975E-01 1.87699E-04 1.33838E-01 8.93368E-14-7.09190E-14
 -1      3655 2.65158E+01 7.69894E-01-1.16910E-01-2.05129E+00 4.90441E-14-3.65173E-13
 -1      3656 2.63582E+01 2.49695E+00-6.61783E-02-1.88608E+00 1.65978E-13-2.06495E-13
 -1      3657 2.01208E+01-3.58263E+00 3.51179E-02 4.79364E+00-2.46546E-13-3.38757E-13
 -1      3658 1.90576E+01-2.77732E+00 1.10275E-01 4.75158E+00-2.35171E-13-2.68707E-13
 -1      3659 2.10283E+01-3.33590E+00 1.76425E-02 3.95609E+00-2.48063E-13-2.19193E-13
 -1      3660 1.91722E+01-3.46914E-01-2.43571E-02 2.87288E+00-1.84743E-13-2.38766E-13
 -1      3661 1.99068E+01-5.55214E-01 2.84990E-02 2.86252E+00-1.47047E-13-2.50123E-13
 -1      3662 1.77341E+01-2.68105E+00 4.78281E-02-4.47768E+00-7.04353E-13-3.37183E-13
 -1      3663 1.29425E+01-4.81579E-01 1.18397E-01-3.50452E+00-3.70818E-13-4.63872E-13
 -1      3664 1.45216E+01-9.61997E-01 2.69591E-02-3.75855E+00-5.32491E-13-3.64420E-13
 -1      3665 1.26822E+01 4.78945E-03 1.32359E-02-2.55300E+00-2.35860E-13-3.26919E-13
 -1      3666 2.02875E+01 1.01985E+00 2.86156E-03 5.10692E-01 1.30916E-13-1.46804E-13
 -1      3667 2.02708E+01 1.19140E+00-2.07143E-03 5.42085E-01 1.24443E-13-1.53426E-13
 -1      3668 2.02585E+01 1.32565E+00-9.73873E-04 5.01030E-01 9.97292E-14-1.48548E-13
 -1      3669 2.02699E+01 8.43190E-01-3.37283E-03 3.76975E-01 1.22888E-13-1.37068E-13
 -1      3670 2.02240E+01 1.54668E+00-4.34298E-03 2.84896E-01 3.58242E-14-2.17516E-13
 -1      3671 2.02137E+01 1.60604E+00-2.03033E-03 2.01844E-01 4.17898E-15-2.29753E-13
 -1      3672 2.02889E+01 1.38661E+00 5.50927E-03 1.35844E-01-5.97887E-15-2.12126E-13
 -1      3673 2.03334E+01 5.76985E-01 4.39959E-04-1.16172E-01-1.43402E-13-9.23833E-14
 -1      3674 2.01043E+01 6.20019E-02-1.20081E-03-1.39438E-01 6.99766E-14-1.08309E-13
 -1      3675 1.62151E+01-1.92493E+00-1.86460E-02 4.62083E+00-3.61815E-13 7.92075E-14
 -1      3676 1.39303E+01 1.77946E-01 7.09694E-02 2.18291E+00-2.90960E-13 1.65389E-14
 -1      3677 2.02497E+01 1.42441E+00-3.07034E-03-3.81563E-01-1.40647E-13-1.55036E-13
 -1      3678 2.02991E+01 1.19060E+00 1.14844E-03-2.92662E-01-1.41057E-13-1.31358E-13
 -1      3679 2.02349E+01 1.52054E+00 2.67618E-04-3.13350E-01-1.29398E-13-2.05271E-13
 -1      3680 2.03235E+01 9.14471E-01 1.81145E-03-2.64095E-01-1.63930E-13-7.90609E-14
 -1      3681 2.01988E+01 1.61723E-01-1.27165E-03-8.03642E-02 7.94271E-14-7.08707E-14
 -1      3682 2.02254E+01 2.34202E-01 2.55406E-03-3.50810E-02 7.69852E-14-7.60480E-14
 -1      3683 2.02832E+01 3.28098E-01-6.51637E-04 8.16536E-03 7.84813E-14-9.23351E-14
 -1      3684 2.04065E+01-1.26066E+00-6.73545E-03 2.91356E+00-1.96758E-13-2.66363E-13
 -1      3685 2.05364E+01-8.65544E-01-4.92645E-03 2.61773E+00-1.51878E-13-1.90104E-13
 -1      3686 2.54527E+01 3.71246E+00-1.95269E-01-1.48424E+00 2.39239E-13-8.47586E-14
 -1      3687 2.03371E+01 2.18086E-01 1.32701E-03 4.72326E-02-1.10364E-13-6.33868E-14
 -1      3688 2.03166E+01 1.44195E-01-1.02544E-03 7.68069E-02-8.40627E-14-3.82278E-14
 -1      3689 2.03014E+01 8.62391E-02 1.04983E-03 9.33572E-02-2.13600E-14-1.77006E-14
 -1      3690 2.02801E+01 3.92951E-02-4.91702E-04 1.09311E-01-6.39474E-15 8.83254E-15
 -1      3691 2.03434E+01 1.34814E-01-1.19202E-04 6.91009E-02-3.56817E-14-2.34166E-14
 -1      3692 2.02607E+01 3.91635E-03 7.58784E-04 1.16801E-01-3.13078E-14 1.10076E-14
 -1      3693 2.02405E+01-2.33046E-02-1.12222E-04 1.23515E-01-2.55415E-14 1.34261E-14
 -1      3694 2.03046E+01 3.11656E-02-3.67925E-04 9.54376E-02-1.69743E-14 4.72500E-14
 -1      3695 2.02196E+01-4.22930E-02 4.96381E-04 1.25128E-01-4.94633E-16 2.01099E-14
 -1      3696 2.02015E+01-5.51926E-02 1.44075E-04 1.26161E-01 6.09983E-15-7.58248E-15
 -1      3697 2.02619E+01-2.97455E-02-4.74147E-04 1.06835E-01-2.01058E-14 3.97425E-14
 -1      3698 2.01808E+01-6.23109E-02 2.72508E-04 1.24481E-01-1.76234E-14-1.64280E-14
 -1      3699 2.01649E+01-6.48168E-02 3.05759E-04 1.22610E-01-2.98634E-14-2.19053E-15
 -1      3700 2.02194E+01-5.94357E-02-4.98661E-04 1.08890E-01-1.54326E-14 2.61715E-14
 -1      3701 2.01451E+01-6.32913E-02 8.35836E-05 1.19642E-01-4.12429E-14-2.45818E-14
 -1      3702 2.01314E+01-5.81472E-02 4.00936E-04 1.16978E-01-6.61592E-14-3.32427E-14
 -1      3703 2.01789E+01-6.63121E-02-4.57820E-04 1.06104E-01-4.18533E-14 2.20124E-14
 -1      3704 2.01127E+01-5.01588E-02-8.20340E-05 1.14243E-01-7.04251E-14-4.13990E-14
 -1      3705 2.01008E+01-3.91617E-02 4.51986E-04 1.12399E-01-5.90579E-14-3.86576E-14
 -1      3706 2.01411E+01-5.63443E-02-3.72075E-04 1.01938E-01-8.27777E-14-1.47935E-14
 -1      3707 2.00828E+01-2.60743E-02-2.36800E-04 1.11072E-01-3.15563E-14-9.99743E-15
 -1      3708 2.00721E+01-1.02754E-02 4.75482E-04 1.11310E-01-3.25498E-14-3.40538E-14
 -1      3709 2.01058E+01-3.34787E-02-2.53724E-04 9.90526E-02-4.06862E-14 8.31453E-15
 -1      3710 2.00542E+01 7.18498E-03-3.93001E-04 1.12340E-01-3.01458E-14-4.71745E-14
 -1      3711 2.00439E+01 2.72922E-02 4.81231E-04 1.15704E-01-2.31096E-14-4.31672E-14
 -1      3712 2.00717E+01-6.24108E-05-1.09657E-04 9.95350E-02-1.29492E-14-5.19684E-14
 -1      3713 2.00250E+01 4.88608E-02-5.61561E-04 1.19890E-01-5.56413E-14-1.95379E-14
 -1      3714 2.00142E+01 7.32035E-02 4.76804E-04 1.27287E-01-1.20280E-13-1.02052E-15
 -1      3715 2.00372E+01 4.27752E-02 6.53279E-05 1.05101E-01-5.33722E-14-3.06271E-14
 -1      3716 1.99931E+01 9.89675E-02-7.51383E-04 1.35356E-01-8.09138E-14-4.80915E-16
 -1      3717 1.99808E+01 1.27754E-01 4.66037E-04 1.47634E-01-4.48137E-14 5.00775E-14
 -1      3718 2.00000E+01 9.47701E-02 2.69324E-04 1.17217E-01-7.63427E-14 9.64533E-14
 -1      3719 1.99558E+01 1.57996E-01-9.70616E-04 1.60286E-01-2.73643E-15 5.99976E-14
 -1      3720 1.99406E+01 1.91571E-01 4.46850E-04 1.78261E-01 3.48167E-14 1.12273E-13
 -1      3721 1.99571E+01 1.56292E-01 5.13725E-04 1.37236E-01 1.50005E-14 1.01709E-13
 -1      3722 1.99099E+01 2.26634E-01-1.22817E-03 1.96182E-01 6.28784E-14 1.41357E-13
 -1      3723 1.98902E+01 2.65325E-01 4.15883E-04 2.20654E-01 2.50262E-14 1.64462E-13
 -1      3724 1.99051E+01 2.27981E-01 8.06211E-04 1.66431E-01 6.58587E-14 1.12142E-13
 -1      3725 1.98515E+01 3.05446E-01-1.53159E-03 2.44522E-01-5.72748E-14 2.30932E-13
 -1      3726 1.98256E+01 3.49378E-01 3.69222E-04 2.76264E-01-5.69281E-14 2.62377E-13
 -1      3727 1.98400E+01 3.10441E-01 1.15821E-03 2.06016E-01 6.65252E-14 1.26939E-13
 -1      3728 1.97762E+01 3.94472E-01-1.88931E-03 3.06747E-01-6.19404E-14 2.76579E-13
 -1      3729 1.97419E+01 4.43325E-01 3.05363E-04 3.46486E-01 2.73945E-14 2.59458E-13
 -1      3730 1.97569E+01 4.03855E-01 1.58308E-03 2.57135E-01-2.29999E-14 3.26351E-13
 -1      3731 1.96787E+01 4.92706E-01-2.31335E-03 3.84252E-01 8.93696E-14 2.22406E-13
 -1      3732 1.96337E+01 5.45397E-01 2.31194E-04 4.32677E-01 9.55272E-14 1.32801E-13
 -1      3733 1.96501E+01 5.07491E-01 2.09568E-03 3.20868E-01 7.97608E-15 2.91510E-13
 -1      3734 1.95531E+01 5.97391E-01-2.82453E-03 4.78461E-01 6.47255E-14 8.91586E-14
 -1      3735 1.94948E+01 6.51646E-01 1.72786E-04 5.36295E-01 3.48064E-15 8.95871E-14
 -1      3736 1.95132E+01 6.19105E-01 2.71240E-03 3.98295E-01 1.91673E-14 1.10795E-13
 -1      3737 1.93927E+01 7.03076E-01-3.46178E-03 5.91097E-01 2.28706E-14 3.80048E-14
 -1      3738 1.93187E+01 7.54872E-01 1.93882E-04 6.59326E-01 3.03859E-14 9.30384E-14
 -1      3739 1.93385E+01 7.34158E-01 3.45180E-03 4.90758E-01 1.74032E-15 1.36365E-13
 -1      3740 1.91903E+01 8.00353E-01-4.29647E-03 7.24865E-01 4.65632E-14 1.29451E-13
 -1      3741 1.90992E+01 8.43165E-01 4.25712E-04 8.05266E-01 1.39843E-13 2.27570E-13
 -1      3742 1.91174E+01 8.44867E-01 4.33613E-03 6.00506E-01 7.77686E-14 2.69675E-13
 -1      3743 1.89388E+01 8.74159E-01-5.45030E-03 8.84886E-01 1.37716E-13 2.07935E-13
 -1      3744 1.88309E+01 8.97961E-01 1.11135E-03 9.81026E-01 1.62922E-13 2.75431E-13
 -1      3745 1.88403E+01 9.38986E-01 5.39218E-03 7.32073E-01 1.07204E-13 2.39847E-13
 -1      3746 1.86321E+01 9.01486E-01-7.10447E-03 1.08130E+00 1.83288E-13 9.21807E-14
 -1      3747 1.85120E+01 8.91380E-01 2.68046E-03 1.20018E+00 1.88933E-13 8.01704E-14
 -1      3748 1.84961E+01 9.98223E-01 6.64853E-03 8.94840E-01 9.59107E-14 7.42621E-14
 -1      3749 1.82673E+01 8.48271E-01-9.43828E-03 1.33352E+00 9.82276E-14 8.39547E-15
 -1      3750 1.81481E+01 7.82686E-01 6.09132E-03 1.48780E+00 6.98012E-14-3.43714E-14
 -1      3751 1.80724E+01 9.96047E-01 8.16169E-03 1.10740E+00 1.09324E-13-4.45089E-14
 -1      3752 1.78497E+01 6.64583E-01-1.21870E-02 1.67750E+00 4.84746E-14-1.11755E-13
 -1      3753 1.77601E+01 5.10379E-01 1.29676E-02 1.88753E+00 5.55889E-14-1.31545E-13
 -1      3754 1.75553E+01 8.94913E-01 1.02771E-02 1.40494E+00 1.58387E-14-1.30160E-13
 -1      3755 1.74107E+01 2.73640E-01-1.24243E-02 2.16945E+00 1.03141E-13-6.29525E-14
 -1      3756 1.74036E+01-1.57057E-02 2.91313E-02 2.46003E+00 1.43416E-13-5.31224E-14
 -1      3757 1.69377E+01 6.32727E-01 1.45738E-02 1.85427E+00 1.23124E-13-9.11324E-14
 -1      3758 1.71207E+01-4.14343E-01-1.13701E-02 2.86048E+00 1.41282E-13-1.91667E-13
 -1      3759 1.75118E+01-1.10614E+00 3.74455E-02 3.29710E+00 1.59325E-13-2.78813E-13
 -1      3760 1.59815E+01-6.72037E-01 6.05113E-02 3.45344E+00 1.02795E-13-2.23172E-13
 -1      3761 1.63487E+01 1.48992E-01 2.81153E-02 2.51740E+00 6.77262E-14-1.55668E-13
 -1      3762 2.44075E+01-3.70088E+00-4.05684E-02 1.58445E+00-3.11964E-13-3.36413E-13
 -1      3763 2.03568E+01 7.04517E-01 5.47914E-04-1.47296E-01-1.54280E-13-7.49945E-14
 -1      3764 2.03526E+01 5.48004E-01-2.28840E-03-7.61715E-02-1.36458E-13-7.97040E-14
 -1      3765 1.43466E+01 8.33664E-01 1.54226E-02-8.97749E-01-8.48193E-14-1.43673E-13
 -1      3766 1.50983E+01 5.04113E-01 7.51540E-03-2.23502E+00 6.19253E-14-3.19503E-13
 -1      3767 2.00435E+01 1.55047E-02 5.54927E-04-1.24053E-01 1.27088E-15 7.61694E-14
 -1      3768 2.00504E+01-2.07919E-03-3.89341E-04-1.21506E-01 2.17064E-14 2.61932E-14
 -1      3769 2.01150E+01-5.79527E-02 4.23464E-04-1.29954E-01 1.20940E-13-1.95974E-14
 -1      3770 2.01261E+01-6.17100E-02 1.01237E-04-1.33374E-01 9.38980E-14-3.65870E-14
 -1      3771 2.00891E+01-4.21839E-02 4.88086E-04-1.23781E-01 1.11382E-13 1.22313E-14
 -1      3772 2.00982E+01-5.14975E-02-7.93759E-05-1.26518E-01 1.50675E-13 5.64534E-15
 -1      3773 2.01297E+01-5.76430E-02-3.88615E-04-1.16578E-01 1.06714E-13-3.87661E-14
 -1      3774 2.00213E+01 5.54203E-02 5.82840E-04-1.34657E-01 2.56452E-14-4.02722E-15
 -1      3775 2.00279E+01 3.42226E-02-5.44353E-04-1.27906E-01 1.98045E-14 6.54691E-14
 -1      3776 2.00406E+01 2.88925E-02-1.99302E-05-1.16306E-01-1.19249E-14 9.10604E-14
 -1      3777 1.99971E+01 1.02384E-01 6.16057E-04-1.54668E-01 6.07418E-14-7.79995E-15
 -1      3778 2.00042E+01 7.75904E-02-7.12259E-04-1.42797E-01 3.49710E-14-3.55957E-14
 -1      3779 2.00106E+01 7.46880E-02 1.41889E-04-1.28408E-01 2.23625E-14 5.74240E-15
 -1      3780 1.99692E+01 1.56477E-01 6.57650E-04-1.85836E-01 1.28440E-14 3.16873E-14
 -1      3781 1.99775E+01 1.28036E-01-9.02543E-04-1.67945E-01 5.13256E-14 3.05883E-14
 -1      3782 1.99771E+01 1.28348E-01 3.21947E-04-1.49514E-01 1.10490E-14 6.61976E-15
 -1      3783 1.99355E+01 2.17606E-01 7.12636E-04-2.29946E-01-2.38225E-14 1.18932E-13
 -1      3784 1.99458E+01 1.85600E-01-1.11882E-03-2.05139E-01-1.90209E-15 5.33463E-14
 -1      3785 1.99376E+01 1.89933E-01 5.23890E-04-1.81313E-01-1.35151E-14 3.74135E-14
 -1      3786 1.98937E+01 2.85091E-01 7.86573E-04-2.88833E-01-3.14071E-14 9.42188E-14
 -1      3787 1.99067E+01 2.49952E-01-1.36220E-03-2.56219E-01 3.27440E-15 1.27167E-13
 -1      3788 1.98895E+01 2.59231E-01 7.47213E-04-2.25575E-01-2.52510E-14-4.42136E-15
 -1      3789 1.98418E+01 3.57119E-01 8.89800E-04-3.64368E-01 7.45440E-15 5.95975E-14
 -1      3790 1.98582E+01 3.19920E-01-1.62986E-03-3.23094E-01 2.20742E-14 1.12022E-13
 -1      3791 1.98299E+01 3.35300E-01 9.86729E-04-2.84189E-01 4.57812E-14 1.04526E-14
 -1      3792 1.97782E+01 4.30039E-01 1.04277E-03-4.58447E-01-8.83727E-14 8.37793E-14
 -1      3793 1.97982E+01 3.92871E-01-1.91402E-03-4.07728E-01-5.18861E-14 1.11894E-14
 -1      3794 1.97562E+01 4.15876E-01 1.22916E-03-3.59224E-01-4.13455E-15 6.85155E-14
 -1      3795 1.97025E+01 4.97456E-01 1.28434E-03-5.73000E-01-8.38419E-15 2.37740E-14
 -1      3796 1.97256E+01 4.63904E-01-2.20044E-03-5.12152E-01 1.21075E-14 1.04576E-13
 -1      3797 1.96658E+01 4.96618E-01 1.44782E-03-4.53009E-01-7.63226E-14 1.30889E-13
 -1      3798 1.96161E+01 5.49068E-01 1.68403E-03-7.10087E-01-1.44759E-14-5.82995E-14
 -1      3799 1.96405E+01 5.24822E-01-2.46546E-03-6.38528E-01 1.50193E-15 3.66555E-16
 -1      3800 1.95574E+01 5.70151E-01 1.59457E-03-5.68329E-01 3.15487E-15 1.24200E-13
 -1      3801 1.95242E+01 5.69236E-01 2.35908E-03-8.72122E-01-1.94235E-13-1.11589E-13
 -1      3802 1.95458E+01 5.62836E-01-2.66771E-03-7.89339E-01-1.20716E-13-1.33180E-13
 -1      3803 1.94315E+01 6.24873E-01 1.58702E-03-7.08798E-01-4.76924E-14 1.11735E-15
 -1      3804 1.94382E+01 5.35263E-01 3.49361E-03-1.06221E+00-1.66384E-13-2.72784E-14
 -1      3805 1.94490E+01 5.58996E-01-2.72425E-03-9.67735E-01-2.26745E-13-4.75050E-14
 -1      3806 1.92920E+01 6.43478E-01 1.28752E-03-8.79515E-01-2.68144E-13-6.60369E-14
 -1      3807 1.93797E+01 4.15414E-01 5.32984E-03-1.28427E+00-1.65510E-13 1.87452E-14
 -1      3808 1.93653E+01 4.86365E-01-2.44573E-03-1.17793E+00-8.21619E-14 3.06728E-14
 -1      3809 1.91485E+01 6.01077E-01 4.64206E-04-1.08804E+00-1.50245E-13-4.72478E-14
 -1      3810 1.93873E+01 1.67263E-01 8.20650E-03-1.54172E+00 5.83556E-14-2.02847E-13
 -1      3811 1.93238E+01 3.08089E-01-1.39326E-03-1.42487E+00-1.02587E-13-5.33852E-14
 -1      3812 1.90207E+01 4.62604E-01-1.28774E-03-1.34531E+00-9.28190E-14-1.61700E-13
 -1      3813 1.95246E+01-2.64355E-01 1.10774E-02-1.83342E+00-9.33184E-15 3.76674E-14
 -1      3814 1.93752E+01-2.34556E-02 1.33187E-03-1.71193E+00 4.15194E-14 1.73379E-14
 -1      3815 1.89454E+01 1.80376E-01-4.68742E-03-1.66492E+00-4.06880E-14-1.20246E-13
 -1      3816 1.98971E+01-9.24854E-01 1.76387E-02-2.14318E+00-1.12095E-13 2.80967E-14
 -1      3817 1.96074E+01-5.57336E-01 8.93496E-03-2.02824E+00-8.70658E-15 8.35655E-14
 -1      3818 1.89872E+01-3.11236E-01-1.29311E-02-2.05811E+00-7.81788E-14-9.06154E-15
 -1      3819 2.06336E+01-1.87964E+00 1.38099E-02-2.36880E+00-3.21927E-13 1.30240E-13
 -1      3820 2.01576E+01-1.36846E+00 2.07078E-02-2.33337E+00-2.89404E-13 5.44139E-15
 -1      3821 1.92841E+01-1.10383E+00-3.32969E-02-2.52231E+00-1.88699E-13-3.30578E-14
 -1      3822 2.25943E+01-3.06161E+00 4.26364E-03 2.57675E+00-2.85264E-13-3.22958E-13
 -1      3823 2.17058E+01-3.26010E+00 1.95352E-03 3.51812E+00-2.76834E-13-2.17774E-13
 -1      3824 2.07833E+01-2.77160E+00-6.80522E-03 3.70799E+00-2.75726E-13-2.88634E-13
 -1      3825 2.18903E+01-2.46678E+00 3.91758E-02 2.79186E+00-2.45041E-13-3.02063E-13
 -1      3826 1.41516E+01 9.16619E-01 1.69832E-02 2.15573E-01-1.53217E-13-3.09874E-13
 -1      3827 1.81235E+01-5.44966E-01 2.36920E-02-3.35133E+00 2.72963E-13 2.87793E-13
 -1      3828 1.60732E+01-4.52844E-01 1.56256E-02-3.56015E+00 1.96550E-13-8.08199E-14
 -1      3829 2.02123E+01 1.62257E+00-1.04080E-03-1.63023E-01-9.65043E-14-2.72938E-13
 -1      3830 2.02223E+01 1.56813E+00-3.10732E-03-2.46807E-01-1.07700E-13-2.47392E-13
 -1      3831 2.02920E+01 1.32619E+00 3.03079E-03-1.89833E-01-1.08258E-13-2.29155E-13
 -1      3832 2.65672E+01-2.86160E+00-6.38979E-03-1.18553E-01-1.58883E-14-2.51098E-13
 -1      3833 2.12943E+01-3.65521E+00-2.08805E-02-3.41715E+00-4.11938E-13 4.80144E-13
 -1      3834 2.19384E+01-3.06642E+00 2.18543E-02-2.44405E+00-3.57840E-13 4.96505E-13
 -1      3835 1.76155E+01 3.32191E-01-2.99610E-02 2.50698E+00-3.25277E-13-8.09771E-14
 -1      3836 1.84382E+01 1.15902E-01 4.71779E-02 2.77865E+00-2.29833E-13-1.92400E-13
 -1      3837 1.85851E+01-5.72501E-01-2.16499E-02 3.15253E+00-2.99189E-13-1.60438E-13
 -1      3838 1.58240E+01 2.48461E-01-3.83194E-03-2.75064E+00 1.82619E-13-3.80646E-13
 -1      3839 1.44610E+01 7.47223E-01 1.72362E-02 1.27825E+00-1.89102E-13-6.71997E-14
 -1      3840 2.02028E+01 1.65790E+00-2.12824E-03-1.71045E-02-5.20402E-14-2.50861E-13
 -1      3841 2.02053E+01 1.64040E+00-3.15162E-03-1.07153E-01-8.92302E-14-2.56329E-13
 -1      3842 2.02873E+01 1.39516E+00 4.57524E-03-8.20718E-02-8.07191E-14-2.36863E-13
 -1      3843 2.02858E+01 1.41681E+00 5.55149E-03 1.89181E-02-2.48157E-14-2.36543E-13
 -1      3844 2.03600E+01 4.17101E-01 1.50585E-03-3.01511E-02-1.20416E-13-7.15472E-14
 -1      3845 2.03440E+01 3.06846E-01-1.71854E-03 1.79911E-02-1.25353E-13-7.23811E-14
 -1      3846 2.03720E+01 2.96207E-01 3.10517E-04 2.12597E-02-9.13783E-14-3.87000E-14
 -1      3847 2.01625E+01 5.91263E-02-6.28349E-04-1.35195E-01 5.62195E-14-8.90537E-14
 -1      3848 2.01836E+01 1.05567E-01 1.87693E-03-1.10816E-01 8.14141E-14-8.01779E-14
 -1      3849 2.02487E+01 1.63561E-01-6.48582E-04-7.84265E-02 9.23948E-14-9.92344E-14
 -1      3850 2.02525E+01 1.38823E+00-3.66400E-03 4.13603E-01 8.57910E-14-1.44624E-13
 -1      3851 2.02380E+01 1.48288E+00-1.34481E-03 3.46280E-01 5.88022E-14-1.84692E-13
 -1      3852 2.03025E+01 1.28406E+00 5.90912E-03 2.52708E-01 5.86992E-14-1.61191E-13
 -1      3853 2.10465E+01-9.80169E-01 1.19480E-02 2.36356E+00-4.94218E-14-5.70920E-14
 -1      3854 1.75986E+01-1.90106E+00 2.37448E-03 4.27895E+00-2.53696E-13-4.05231E-14
 -1      3855 2.00657E+01-1.72295E-02 5.26459E-04-1.21072E-01 5.00434E-14-1.28165E-14
 -1      3856 2.00733E+01-3.09736E-02-2.38662E-04-1.21733E-01 7.64654E-14 2.59614E-15
 -1      3857 2.00986E+01-3.82321E-02-2.84151E-04-1.12294E-01 1.12185E-13 1.12641E-14
 -1      3858 2.00694E+01-8.94213E-03-1.64738E-04-1.11534E-01 1.44126E-14 2.69620E-14
 -1      3859 1.54384E+01 4.15246E-02 3.87392E-03 2.87631E+00-2.73953E-13 1.63564E-13
 -1      3860 1.44060E+01 1.42276E-01-2.20341E-02 2.38235E+00-2.07351E-14-3.60177E-13
 -1      3861 2.03250E+01 1.01912E+00-1.61270E-03-2.54089E-01-1.39262E-13-1.03044E-13
 -1      3862 2.03406E+01 8.37009E-01-1.00113E-03-1.83622E-01-1.46625E-13-9.17728E-14
 -1      3863 2.03641E+01 8.11021E-01 9.09774E-04-1.39426E-01-1.38290E-13-1.03325E-13
 -1      3864 2.03248E+01 1.10281E+00 6.21640E-04-2.13661E-01-1.22082E-13-1.60710E-13
 -1      3865 2.08646E+01-1.60260E+00 3.57999E-02 2.93506E+00-2.48543E-13-2.45947E-13
 -1      3866 2.12989E+01-2.09005E+00 5.32345E-03 2.86806E+00-2.80157E-13-2.93805E-13
 -1      3867 2.08938E+01-2.25653E+00-1.50438E-02 3.27696E+00-2.65789E-13-2.87010E-13
 -1      3868 2.00064E+01-1.39419E+00-6.52021E-03 3.21318E+00-2.39242E-13-2.44218E-13
 -1      3869 2.11896E+01-2.46823E+00 4.88331E-02-2.57699E+00-4.06684E-13 3.42622E-13
 -1      3870 1.99309E+01-2.21611E+00-3.24735E-02-3.03862E+00-4.63639E-13 1.23384E-13
 -1      3871 2.02111E+01 5.63635E-02-7.50719E-04-1.27306E-01 3.14432E-14-8.58563E-14
 -1      3872 1.39763E+01 8.14608E-01 6.50691E-02 1.38255E+00-1.02321E-13-4.20754E-13
 -1      3873 1.38166E+01 8.71482E-01-1.21132E-02 6.71870E-01-1.17813E-13-4.40446E-13
 -1      3874 2.03224E+01 1.19211E+00-2.47898E-03 3.84876E-02-9.97293E-15-2.33574E-13
 -1      3875 2.03227E+01 1.19109E+00-2.58606E-03-8.42887E-03-2.29908E-14-2.26766E-13
 -1      3876 1.66454E+01-3.60197E-01 7.00402E-02 3.41438E+00-3.01122E-13-5.53082E-14
 -1      3877 1.68814E+01 2.32226E-01 1.15878E-02 2.58767E+00-3.34909E-13-3.49057E-14
 -1      3878 2.01767E+01-5.03308E-02 1.40646E-04-1.40793E-01 3.34875E-14-5.92875E-14
 -1      3879 2.01930E+01-3.65607E-02 5.92016E-04-1.39610E-01 2.33253E-14-1.14679E-13
 -1      3880 2.02125E+01-1.70437E-02-1.41461E-04-1.37111E-01-1.17162E-15-1.00562E-13
 -1      3881 2.02315E+01 1.07082E-02 9.13592E-04-1.29359E-01-5.26850E-15-1.15967E-13
 -1      3882 2.02407E+01-2.33063E-02-5.49690E-04-1.22186E-01-1.63207E-15-8.09060E-14
 -1      3883 2.03147E+01 3.15753E-01-1.60700E-03-9.96190E-03 8.68958E-14-1.02920E-13
 -1      3884 2.03345E+01 4.24773E-01 1.87321E-03 4.69315E-02 7.37600E-14-9.14230E-14
 -1      3885 2.03901E+01-3.06664E+00 8.24284E-02-3.64137E+00-5.44917E-13 1.61629E-13
 -1      3886 1.86231E+01-1.48057E+00-1.95033E-02 3.73738E+00-3.18601E-13-1.26017E-13
 -1      3887 1.98467E+01-1.78658E+00 4.31453E-02 3.65223E+00-2.64110E-13-3.54750E-13
 -1      3888 2.03270E+01 5.31186E-01-2.32998E-03 9.15651E-02 7.81878E-14-9.22448E-14
 -1      3889 2.03349E+01 6.56255E-01 1.34442E-03 1.66369E-01 8.50611E-14-9.11160E-14
 -1      3890 2.03564E+01 5.15585E-01-2.55286E-03 7.05683E-02 8.24903E-14-1.05079E-13
 -1      3891 2.02978E+01 8.61557E-01-9.80671E-04 3.25462E-01 1.29901E-13-1.16176E-13
 -1      3892 1.34238E+01 8.26658E-01 1.01126E-03-5.90310E-01-1.31019E-13-3.84425E-13
 -1      3893 1.29042E+01 6.47174E-01 8.78941E-02-1.51402E+00-1.57953E-13-2.04330E-13
 -1      3894 1.38452E+01 3.07533E-01 1.68049E-02-2.12262E+00-2.36275E-13-2.44419E-13
 -1      3895 1.68485E+01-1.74987E+00 4.64703E-02-4.08594E+00-7.12279E-13-4.40330E-13
 -1      3896 1.90397E+01-2.72716E+00-1.41680E-02-3.93545E+00-6.00062E-13-1.33719E-13
 -1      3897 1.93659E+01-2.40231E+00 8.35726E-03-3.52532E+00-5.53682E-13-1.11886E-13
 -1      3898 2.03027E+01 1.15329E+00 4.40463E-03 3.85284E-01 9.26228E-14-1.32178E-13
 -1      3899 2.01441E+01-6.20045E-02 3.15522E-04-1.36817E-01 7.23518E-14-3.82710E-14
 -1      3900 2.01576E+01-5.83851E-02 3.17130E-04-1.39121E-01 4.48539E-14-4.76090E-14
 -1      3901 2.02009E+01-5.51768E-02-5.22790E-04-1.25141E-01 3.57073E-14-4.76793E-14
 -1      3902 2.01637E+01-6.46357E-02-4.70515E-04-1.21918E-01 8.38616E-14-5.91859E-14
 -1      3903 1.53145E+01-4.90693E-01-1.21311E-02-3.15220E+00-3.11071E-13-1.92924E-13
 -1      3904 1.60828E+01-1.14997E+00 3.70805E-02-3.80080E+00-5.26145E-13-3.83799E-13
 -1      3905 1.74611E+01-1.27141E+00 7.20157E-04-3.38211E+00-4.36240E-13-3.28276E-13
 -1      3906 2.03239E+01 1.17441E+00-2.05618E-03 8.33262E-02 9.00836E-17-1.99966E-13
 -1      3907 2.03753E+01 9.88420E-01 3.96800E-03 5.10085E-02 1.71625E-14-1.95367E-13
 -1      3908 2.03253E+01 1.13641E+00-3.82300E-03 1.41260E-01 2.80815E-14-1.95481E-13
 -1      3909 1.52438E+01 3.89302E-01 9.44971E-03 2.05651E+00-2.02609E-14-3.55514E-13
 -1      3910 2.03806E+01 5.34369E-01 9.61051E-04-5.50005E-02-1.22686E-13-6.65430E-14
 -1      3911 1.90118E+01-1.61068E+00 5.23032E-02-3.18973E+00-4.65499E-13-1.66805E-13
 -1      3912 2.02861E+01 1.51497E-01-1.14525E-03-8.07831E-02 7.74183E-14-9.44061E-14
 -1      3913 2.03083E+01 2.25899E-01 1.82058E-03-4.66198E-02 9.58171E-14-8.92506E-14
 -1      3914 2.03484E+01 3.10803E-01 4.58085E-04-1.64033E-02 9.71352E-14-6.39882E-14
 -1      3915 2.03972E+01 6.34494E-01 1.15294E-03-7.23320E-02-1.12340E-13-1.27679E-13
 -1      3916 2.03962E+01 4.87729E-01-1.69881E-03-2.56429E-02-8.81299E-14-9.90233E-14
 -1      3917 2.03778E+01 9.97076E-01 4.65825E-03-1.88846E-02-2.14857E-14-2.08010E-13
 -1      3918 2.03233E+01 1.18418E+00-2.07110E-03-4.40108E-02-4.26911E-14-2.19443E-13
 -1      3919 2.03251E+01 1.16413E+00-2.56009E-03-8.82681E-02-6.90488E-14-2.18423E-13
 -1      3920 2.03126E+01 9.22077E-01-1.88737E-03 2.61934E-01 8.84654E-14-1.10984E-13
 -1      3921 2.03798E+01 1.79519E-01 7.19651E-04 4.52544E-02-4.19195E-14-6.23101E-14
 -1      3922 2.03607E+01 1.11149E-01-6.91229E-04 6.40558E-02 5.00224E-16-3.25551E-14
 -1      3923 2.03433E+01 5.75833E-02 6.09615E-04 7.21169E-02 1.33425E-14-3.69380E-14
 -1      3924 2.03213E+01 1.51352E-02-2.82828E-04 8.20922E-02-2.13694E-14-2.47783E-14
 -1      3925 2.03738E+01 9.67485E-02 2.51053E-06 5.13582E-02-1.19925E-14-9.70971E-14
 -1      3926 2.02996E+01-1.65279E-02 4.72367E-04 8.51440E-02-3.72186E-14-2.60298E-14
 -1      3927 2.02773E+01-3.98350E-02 8.32525E-06 8.91471E-02-4.03775E-15-2.66152E-15
 -1      3928 2.03317E+01 5.07121E-03-3.00151E-04 6.43441E-02 2.10998E-15-4.34077E-14
 -1      3929 2.02539E+01-5.52921E-02 3.28369E-04 8.90603E-02 5.76427E-15 8.93398E-15
 -1      3930 2.02325E+01-6.45359E-02 1.94406E-04 8.95779E-02-2.01966E-15 8.58992E-15
 -1      3931 2.02851E+01-4.60680E-02-4.73091E-04 6.93298E-02-1.62664E-14-4.80547E-14
 -1      3932 2.02091E+01-6.81927E-02 1.93419E-04 8.79514E-02-1.79388E-14 1.02881E-14
 -1      3933 2.01893E+01-6.71307E-02 2.97912E-04 8.68671E-02-6.85999E-14-1.23346E-14
 -1      3934 2.02377E+01-6.70471E-02-4.92672E-04 6.95802E-02-1.54071E-14-4.65131E-14
 -1      3935 2.01665E+01-6.20548E-02 5.87953E-05 8.48792E-02-8.25745E-14 2.78156E-14
 -1      3936 2.01482E+01-5.32545E-02 3.45145E-04 8.36507E-02-3.15230E-14 7.11734E-14
 -1      3937 2.01919E+01-6.59623E-02-4.35896E-04 6.77048E-02-3.15245E-14 5.49449E-14
 -1      3938 2.01261E+01-4.14877E-02-7.75893E-05 8.22233E-02-5.35869E-14 8.61463E-16
 -1      3939 2.01090E+01-2.65965E-02 3.50799E-04 8.19842E-02-5.64617E-14-1.22001E-14
 -1      3940 2.01479E+01-4.82781E-02-3.24461E-04 6.56882E-02-6.94027E-14 5.26275E-14
 -1      3941 2.00871E+01-9.33980E-03-2.18112E-04 8.18186E-02-3.08960E-14-4.35497E-14
 -1      3942 2.00703E+01 1.07581E-02 3.27163E-04 8.34871E-02-2.10041E-14-2.53043E-14
 -1      3943 2.01054E+01-1.75130E-02-1.69444E-04 6.50979E-02-6.81331E-14-8.98371E-15
 -1      3944 2.00477E+01 3.28451E-02-3.77918E-04 8.52064E-02-7.19437E-15-5.11923E-14
 -1      3945 2.00303E+01 5.77633E-02 2.79997E-04 8.94929E-02-3.61765E-14-2.99018E-14
 -1      3946 2.00626E+01 2.43786E-02 2.60729E-05 6.71789E-02-3.67557E-14-4.86315E-14
 -1      3947 2.00056E+01 8.45949E-02-5.60817E-04 9.35661E-02-5.40715E-14 6.18790E-14
 -1      3948 1.99862E+01 1.14387E-01 2.17941E-04 1.01152E-01-5.04682E-14 6.97583E-14
 -1      3949 2.00174E+01 7.64122E-02 2.25711E-04 7.28916E-02 1.05171E-14 1.60763E-14
 -1      3950 1.99577E+01 1.46106E-01-7.64023E-04 1.08042E-01-5.55273E-14 1.18231E-13
 -1      3951 1.99347E+01 1.81023E-01 1.35146E-04 1.19516E-01 2.30080E-14 8.08882E-14
 -1      3952 1.99668E+01 1.38752E-01 4.90388E-04 8.31471E-02-3.61411E-14 1.33261E-13
 -1      3953 1.99005E+01 2.17944E-01-1.00070E-03 1.29631E-01 9.96315E-14 4.22909E-14
 -1      3954 1.98720E+01 2.58316E-01 2.75601E-05 1.45538E-01 9.86029E-14 5.91151E-14
 -1      3955 1.99070E+01 2.11783E-01 8.05545E-04 9.86686E-02 3.97544E-14 5.84396E-14
 -1      3956 1.98296E+01 3.00732E-01-1.27702E-03 1.59249E-01 8.44743E-14 4.29862E-14
 -1      3957 1.97933E+01 3.46774E-01-1.11074E-04 1.80079E-01 5.33728E-14 8.98582E-14
 -1      3958 1.98338E+01 2.96100E-01 1.18151E-03 1.20088E-01 8.50312E-14 4.05309E-14
 -1      3959 1.97399E+01 3.94761E-01-1.60101E-03 1.97710E-01 6.72467E-14 1.92443E-13
 -1      3960 1.96933E+01 4.46364E-01-2.88188E-04 2.23888E-01 5.01229E-14 2.80054E-13
 -1      3961 1.97420E+01 3.92063E-01 1.63295E-03 1.47899E-01 1.09537E-13 1.34015E-13
 -1      3962 1.96256E+01 4.99549E-01-1.98537E-03 2.45703E-01-7.23093E-14 2.67218E-13
 -1      3963 1.95655E+01 5.56024E-01-5.09990E-04 2.77590E-01-7.77781E-14 1.36281E-13
 -1      3964 1.96256E+01 4.99368E-01 2.17886E-03 1.82434E-01 3.13032E-15 1.45445E-13
 -1      3965 1.94796E+01 6.13297E-01-2.45348E-03 3.03812E-01 3.17613E-15 1.81410E-13
 -1      3966 1.94024E+01 6.73079E-01-7.77477E-04 3.41764E-01 2.84474E-14 1.41399E-13
 -1      3967 1.94776E+01 6.16574E-01 2.84534E-03 2.23844E-01-3.35885E-14 1.39244E-13
 -1      3968 1.92937E+01 7.32250E-01-3.05102E-03 3.72665E-01 5.52356E-15 1.40701E-13
 -1      3969 1.91954E+01 7.92545E-01-1.07996E-03 4.17217E-01 1.35200E-16 2.15056E-13
 -1      3970 1.92895E+01 7.40558E-01 3.67165E-03 2.72184E-01 4.32796E-14 2.18529E-13
 -1      3971 1.90580E+01 8.49944E-01-3.86655E-03 4.53354E-01 2.93444E-14 2.72844E-13
 -1      3972 1.89341E+01 9.06363E-01-1.38436E-03 5.05650E-01 9.31927E-14 2.83015E-13
 -1      3973 1.90514E+01 8.65981E-01 4.72212E-03 3.27689E-01 4.59126E-14 2.47358E-13
 -1      3974 1.87603E+01 9.56384E-01-5.06601E-03 5.48396E-01 4.52245E-15 2.08429E-13
 -1      3975 1.86057E+01 1.00254E+00-1.61574E-03 6.11061E-01 2.92762E-14 1.56091E-13
 -1      3976 1.87506E+01 9.84796E-01 6.10828E-03 3.91444E-01 6.48686E-15 1.75537E-13
 -1      3977 1.83846E+01 1.03712E+00-6.94230E-03 6.63658E-01 6.38177E-14 7.44359E-14
 -1      3978 1.81940E+01 1.06416E+00-1.62748E-03 7.42368E-01 9.31624E-14 1.76926E-14
 -1      3979 1.83701E+01 1.08591E+00 8.02632E-03 4.66795E-01 9.06325E-15 8.59462E-14
 -1      3980 1.79093E+01 1.07206E+00-9.95826E-03 8.11786E-01 8.43322E-14 1.15061E-15
 -1      3981 1.76769E+01 1.06794E+00-1.15524E-03 9.17889E-01 6.53621E-14-2.41043E-14
 -1      3982 1.78856E+01 1.15488E+00 1.08042E-02 5.62048E-01 2.71877E-14 1.84249E-15
 -1      3983 1.73037E+01 1.03351E+00-1.47263E-02 1.01736E+00 1.28901E-15-7.96030E-14
 -1      3984 1.70221E+01 9.82095E-01 1.85837E-04 1.17257E+00 3.93781E-14-1.04893E-13
 -1      3985 1.72606E+01 1.17293E+00 1.49978E-02 6.94726E-01 2.22132E-14-8.97709E-14
 -1      3986 1.55083E+01 6.33838E-01-2.44041E-02 1.68610E+00-5.85382E-15-3.46394E-13
 -1      3987 2.00003E+01 9.36714E-02 3.88867E-04-1.15747E-01 9.04187E-15 1.26162E-13
 -1      3988 2.00154E+01 6.69414E-02-5.60581E-04-1.07765E-01 5.00512E-15 1.04243E-13
 -1      3989 2.01420E+01-5.58090E-02 3.86523E-04-9.93704E-02 9.52244E-14-2.15716E-14
 -1      3990 2.01582E+01-6.29876E-02 7.74555E-05-1.01249E-01 9.23252E-14-2.99838E-14
 -1      3991 1.99581E+01 1.52920E-01 3.69635E-04-1.36619E-01 3.64989E-14 1.14533E-13
 -1      3992 1.99755E+01 1.21853E-01-7.60928E-04-1.24026E-01 4.74346E-14 1.25986E-13
 -1      3993 1.99828E+01 1.16875E-01 3.58887E-04-1.02136E-01 2.66757E-14 2.07662E-13
 -1      3994 1.99080E+01 2.20772E-01 3.54779E-04-1.67271E-01-2.75187E-14 4.01679E-14
 -1      3995 1.99288E+01 1.85333E-01-9.89967E-04-1.49254E-01 3.14557E-14 3.41317E-14
 -1      3996 1.99317E+01 1.82769E-01 6.14704E-04-1.22013E-01 5.64235E-14 1.59209E-13
 -1      3997 1.98466E+01 2.96996E-01 3.50408E-04-2.09362E-01 2.32545E-14-4.55791E-14
 -1      3998 1.98723E+01 2.57355E-01-1.25555E-03-1.85064E-01-4.42539E-14-6.12662E-14
 -1      3999 1.98703E+01 2.57991E-01 9.07746E-04-1.50679E-01 2.76755E-14-2.48218E-14
 -1      4000 1.97706E+01 3.80550E-01 3.66716E-04-2.64743E-01 6.74140E-14-6.49351E-15
 -1      4001 1.98025E+01 3.37346E-01-1.56282E-03-2.33237E-01 5.67623E-14-1.59475E-14
 -1      4002 1.97948E+01 3.42199E-01 1.24024E-03-1.89751E-01 3.64901E-14-8.66514E-14
 -1      4003 1.96765E+01 4.68982E-01 4.22267E-04-3.35550E-01-5.43782E-14-4.82510E-14
 -1      4004 1.97159E+01 4.23634E-01-1.91767E-03-2.95803E-01 6.48000E-14-3.76610E-14
 -1      4005 1.97010E+01 4.34125E-01 1.61206E-03-2.41134E-01 5.18635E-14-7.48567E-14
 -1      4006 1.95612E+01 5.57689E-01 5.50659E-04-4.24369E-01-9.56656E-14-2.44173E-14
 -1      4007 1.96090E+01 5.12780E-01-2.32832E-03-3.75169E-01-1.10863E-13-2.59071E-14
 -1      4008 1.95848E+01 5.30963E-01 2.01910E-03-3.07184E-01-5.26995E-14-7.58123E-14
 -1      4009 1.94225E+01 6.39016E-01 8.10878E-04-5.34555E-01-3.37366E-14-8.51000E-15
 -1      4010 1.94789E+01 5.98759E-01-2.80842E-03-4.74358E-01-6.01486E-14-1.73480E-14
 -1      4011 1.94418E+01 6.27645E-01 2.45140E-03-3.90978E-01-1.03790E-13-8.55909E-14
 -1      4012 1.92599E+01 7.01168E-01 1.30361E-03-6.70809E-01-1.17144E-13 5.98948E-14
 -1      4013 1.93235E+01 6.71955E-01-3.38112E-03-5.97456E-01-3.46387E-14 1.10012E-13
 -1      4014 1.92683E+01 7.15988E-01 2.89072E-03-4.96809E-01-1.22213E-13 1.24323E-14
 -1      4015 1.90756E+01 7.26915E-01 2.19959E-03-8.40135E-01-1.92219E-13-5.19428E-14
 -1      4016 1.91428E+01 7.17978E-01-4.08121E-03-7.50389E-01-1.80309E-13 4.28293E-14
 -1      4017 1.90615E+01 7.83712E-01 3.30562E-03-6.31029E-01-7.27348E-14 8.33968E-14
 -1      4018 1.88774E+01 6.91980E-01 3.80378E-03-1.05332E+00-1.25754E-13-9.97637E-15
 -1      4019 1.89402E+01 7.16220E-01-4.94299E-03-9.42223E-01-1.85990E-13-3.90871E-14
 -1      4020 1.88201E+01 8.13278E-01 3.64091E-03-8.03461E-01-1.98802E-13-1.48590E-13
 -1      4021 1.86817E+01 5.62486E-01 6.58059E-03-1.32693E+00-8.78068E-14-2.26880E-14
 -1      4022 1.87252E+01 6.37941E-01-5.92686E-03-1.18721E+00-6.06705E-14-2.56781E-14
 -1      4023 1.85456E+01 7.80357E-01 3.77720E-03-1.02977E+00-1.15860E-13-2.63520E-14
 -1      4024 1.85194E+01 2.89701E-01 9.99915E-03-1.68399E+00-4.04796E-14-4.16624E-14
 -1      4025 1.85194E+01 4.42426E-01-6.74249E-03-1.50665E+00-7.65093E-14-7.19170E-14
 -1      4026 1.82450E+01 6.49957E-01 3.31965E-03-1.33544E+00-1.06548E-13 1.19001E-13
 -1      4027 1.84912E+01-1.89838E-01 1.59145E-02-2.13595E+00-7.62359E-14-1.02054E-13
 -1      4028 1.83675E+01 7.71922E-02-5.70569E-03-1.92450E+00-2.64584E-14-8.88573E-14
 -1      4029 1.79500E+01 3.68985E-01 3.90851E-03-1.75652E+00 1.22577E-14-5.33160E-14
 -1      4030 2.02499E+01 4.63855E-02-5.65157E-04-1.19760E-01 2.08645E-14-1.05477E-13
 -1      4031 2.02711E+01 9.36290E-02 1.25435E-03-1.01248E-01 4.63361E-14-9.87518E-14
 -1      4032 2.03195E+01 1.45186E-01-2.73041E-04-7.48131E-02 6.29097E-14-9.71997E-14
 -1      4033 2.02814E+01 3.95070E-02-5.13312E-04-1.07664E-01 1.23593E-14-1.01339E-13
 -1      4034 2.03343E+01 9.08306E-01-1.93246E-04 2.12014E-01 6.77607E-14-1.17735E-13
 -1      4035 2.03240E+01 1.16557E+00-1.12176E-03-1.25657E-01-8.17912E-14-2.37222E-13
 -1      4036 2.03254E+01 1.11690E+00-2.16248E-03-1.78982E-01-9.76321E-14-2.15472E-13
 -1      4037 2.03579E+01 9.66507E-01 2.10702E-03-1.45785E-01-1.01172E-13-1.92962E-13
 -1      4038 2.03738E+01 9.85353E-01 4.03035E-03-8.22251E-02-5.10785E-14-2.09117E-13
 -1      4039 2.00375E+01 4.29242E-02 3.99260E-04-1.03099E-01-8.10852E-15 5.57286E-14
 -1      4040 2.00516E+01 2.04630E-02-3.89431E-04-9.89335E-02-4.49575E-14 7.32653E-14
 -1      4041 2.00270E+01 6.02673E-02 1.40310E-04-8.96209E-02-2.75583E-14 1.10274E-13
 -1      4042 1.46486E+01 9.81442E-01-3.08382E-03 5.39621E-01-8.87964E-14-3.97612E-13
 -1      4043 1.39845E+01 1.03518E+00 5.04689E-02 6.85328E-02-1.31422E-13-4.68105E-13
 -1      4044 1.42545E+01 9.13249E-01-9.05425E-03-6.13296E-01-1.75774E-13-3.25044E-13
 -1      4045 2.04011E+01 3.65120E-01 7.07119E-04-9.77477E-04-8.74180E-14-6.45933E-14
 -1      4046 2.03888E+01 2.62562E-01-1.22088E-03 2.98719E-02-8.11540E-14-4.15233E-14
 -1      4047 2.04047E+01 2.42494E-01 3.62066E-04 2.65048E-02-5.25549E-14-7.61032E-14
 -1      4048 1.82537E+01-1.13076E+00 1.85064E-02-3.00197E+00-3.11078E-13-2.21126E-13
 -1      4049 2.00674E+01 1.28023E-02-6.77238E-05-8.31153E-02-5.56663E-14 1.02135E-14
 -1      4050 2.00721E+01 6.83323E-04 4.08616E-04-9.72306E-02-1.49636E-14 4.64767E-14
 -1      4051 2.00861E+01-1.73267E-02-2.30621E-04-9.60315E-02 4.85853E-14 1.54144E-14
 -1      4052 1.80373E+01-6.46258E-01 5.36427E-03-2.68756E+00-2.06588E-13-2.01434E-13
 -1      4053 2.01212E+01-4.57370E-02-7.45871E-05-9.74131E-02 8.30236E-14-2.54767E-15
 -1      4054 2.01459E+01-5.22619E-02-3.46959E-04-8.26573E-02 7.18424E-14 1.63076E-14
 -1      4055 2.01064E+01-3.26220E-02 4.14654E-04-9.65298E-02 7.72833E-14 3.31744E-14
 -1      4056 1.65167E+01 8.87910E-01-2.07116E-02 1.32491E+00 6.79749E-14-1.53086E-13
 -1      4057 1.61591E+01 7.46340E-01-3.14918E-03 1.57722E+00 6.28187E-14-2.67622E-13
 -1      4058 2.01873E+01-6.65989E-02-4.47741E-04-8.56441E-02 8.06102E-14-6.18278E-15
 -1      4059 2.01798E+01-6.65101E-02 3.14953E-04-1.03710E-01 7.60446E-14-1.68847E-14
 -1      4060 2.01979E+01-6.60113E-02 2.38018E-04-1.05223E-01 5.43040E-14-4.06640E-14
 -1      4061 1.53853E+01 1.01595E+00 4.56427E-02 1.08942E+00-1.28051E-14-4.11275E-13
 -1      4062 2.03717E+01 7.24015E-01 4.75062E-03 1.25799E-01 6.66171E-14-1.27817E-13
 -1      4063 2.03340E+01 9.81517E-01-3.91106E-03 2.07683E-01 7.49906E-14-1.29196E-13
 -1      4064 2.03328E+01 1.05396E+00-1.56779E-03 1.66468E-01 5.33573E-14-1.46840E-13
 -1      4065 2.03687E+01 5.87424E-01-1.61052E-03 7.60507E-02 6.85074E-14-1.07789E-13
 -1      4066 2.04149E+01 4.59087E-01 6.48661E-04-1.39086E-02-7.10634E-14-9.19310E-14
 -1      4067 1.73145E+01-2.11250E-01 5.49552E-03-2.53594E+00-1.20019E-13-1.83586E-13
 -1      4068 2.02354E+01-2.25428E+00 1.21478E-02 3.68351E+00-2.71370E-13-2.65113E-13
 -1      4069 1.49946E+01 1.66561E-01 4.52898E-02-2.51459E+00-1.84237E-13-2.08628E-13
 -1      4070 1.62570E+01-4.89041E-02 1.97466E-02-2.52522E+00-1.27824E-13-1.81534E-13
 -1      4071 1.48227E+01 5.94190E-01-1.63783E-02-1.66135E+00-1.22533E-13-2.39094E-13
 -1      4072 2.03705E+01 2.78047E-01-2.12205E-03-2.80295E-02 7.85425E-14-8.61911E-14
 -1      4073 2.03870E+01 3.86356E-01 2.71498E-03 8.19649E-03 8.49212E-14-8.30601E-14
 -1      4074 2.03785E+01 8.83077E-01 3.50667E-03 1.08706E-01 5.60166E-14-1.32435E-13
 -1      4075 2.03923E+01 8.02766E-01-2.20508E-03 5.22898E-02 5.11244E-14-1.55483E-13
 -1      4076 2.03952E+01 8.21288E-01-1.39884E-03 2.01815E-02 3.06631E-14-1.91967E-13
 -1      4077 2.03894E+01 5.60671E-01-6.26800E-04 5.43171E-02 5.96877E-14-1.31191E-13
 -1      4078 1.52470E+01 1.03278E+00-1.57434E-02 5.39273E-01-8.59902E-14-3.87441E-13
 -1      4079 2.03690E+01 8.22687E-01-1.65156E-03-1.11233E-01-1.12069E-13-1.58683E-13
 -1      4080 2.03885E+01 7.76634E-01-3.35640E-04-7.64808E-02-7.34159E-14-1.97685E-13
 -1      4081 2.02202E+01-6.08490E-02 1.81933E-04-1.06985E-01 2.96508E-14-6.14429E-14
 -1      4082 2.02403E+01-5.00192E-02 4.52796E-04-1.06377E-01-1.39356E-15-5.72584E-14
 -1      4083 2.02310E+01-6.42655E-02-4.96646E-04-8.81263E-02 2.16394E-14-1.09921E-13
 -1      4084 2.04247E+01 6.69138E-01 2.93683E-03 1.02905E-02 4.49225E-14-1.62846E-13
 -1      4085 2.03953E+01 8.21733E-01-1.97596E-03 2.79417E-03 1.45554E-16-1.90589E-13
 -1      4086 2.03969E+01 8.13963E-01-1.97797E-03-2.43579E-02-1.55151E-14-1.92567E-13
 -1      4087 2.02757E+01-3.94564E-02-6.16633E-04-8.75707E-02-4.80319E-15-3.45745E-14
 -1      4088 2.02624E+01-3.29067E-02-2.49555E-05-1.05708E-01-1.98917E-14-5.36212E-14
 -1      4089 2.02847E+01-8.00343E-03 8.73374E-04-1.00310E-01-1.10494E-14-5.44844E-14
 -1      4090 1.64419E+01 1.11614E+00 2.34762E-02 8.96433E-01-8.05161E-15-1.32679E-13
 -1      4091 2.03990E+01 1.29236E-01 3.84495E-04 3.02047E-02-1.52531E-14-6.54365E-14
 -1      4092 2.03789E+01 6.98945E-02-3.69494E-04 3.99772E-02 2.64579E-16-6.49621E-14
 -1      4093 2.03585E+01 2.41169E-02 3.18995E-04 4.20565E-02-1.19439E-14-7.07287E-14
 -1      4094 2.03361E+01-1.14485E-02 1.43206E-04 4.75108E-02-3.76808E-16-5.23089E-14
 -1      4095 2.03783E+01 5.37073E-02-1.02673E-04 2.23714E-02 1.02785E-14-9.15342E-14
 -1      4096 2.03115E+01-3.71262E-02 2.58710E-04 4.66798E-02-1.66717E-14-5.68046E-14
 -1      4097 2.02878E+01-5.44698E-02 3.27216E-04 4.93582E-02-2.68558E-14-8.68399E-14
 -1      4098 2.03331E+01-2.24515E-02-8.28193E-04 2.52694E-02-2.45953E-14-9.28589E-14
 -1      4099 2.02624E+01-6.51989E-02 2.52894E-04 4.79335E-02-8.77057E-15-6.35352E-14
 -1      4100 2.02390E+01-6.95604E-02 3.85005E-04 4.87976E-02-3.15024E-14-7.34166E-14
 -1      4101 2.02829E+01-6.02235E-02-1.06464E-03 2.67282E-02-1.57468E-14-1.19078E-13
 -1      4102 2.02139E+01-6.91626E-02 1.76479E-04 4.71267E-02-4.43817E-15-6.92563E-14
 -1      4103 2.01915E+01-6.38601E-02 3.83732E-04 4.72146E-02 5.63862E-15-3.79892E-15
 -1      4104 2.02331E+01-7.06495E-02-9.83077E-04 2.66566E-02-2.56877E-15-6.97063E-14
 -1      4105 2.01670E+01-5.50578E-02 7.34613E-05 4.57638E-02-7.19815E-14 3.72800E-15
 -1      4106 2.01455E+01-4.23265E-02 3.43652E-04 4.59057E-02-1.29482E-13-5.03392E-14
 -1      4107 2.01845E+01-6.06338E-02-7.69139E-04 2.60819E-02-5.07622E-14-8.57466E-14
 -1      4108 2.01214E+01-2.69502E-02-6.04971E-05 4.50070E-02-1.04520E-13-2.06147E-14
 -1      4109 2.01001E+01-8.15765E-03 2.09198E-04 4.57775E-02-3.97488E-14-5.93075E-15
 -1      4110 2.01375E+01-3.48292E-02-3.96346E-04 2.57965E-02-8.72266E-14-3.81514E-14
 -1      4111 2.00760E+01 1.29601E-02-1.45335E-04 4.59728E-02-1.11304E-14-1.95942E-14
 -1      4112 2.00542E+01 3.69032E-02 1.51500E-04 4.79556E-02-1.08943E-15-1.09057E-14
 -1      4113 2.00905E+01 3.51301E-03-4.73484E-05 2.62384E-02-1.81007E-14-5.93125E-14
 -1      4114 2.00281E+01 6.32090E-02-3.68625E-04 4.89174E-02 5.22556E-14 4.19485E-14
 -1      4115 2.00047E+01 9.24963E-02 8.14312E-05 5.26886E-02 4.22554E-14 1.01118E-13
 -1      4116 2.00422E+01 5.29882E-02 2.96029E-04 2.75655E-02 7.09400E-14 2.32213E-14
 -1      4117 1.99754E+01 1.23791E-01-5.71091E-04 5.48490E-02 5.47149E-15 8.26027E-14
 -1      4118 1.99484E+01 1.58379E-01-5.38558E-05 6.06140E-02-1.90497E-14 1.72376E-13
 -1      4119 1.99893E+01 1.13290E-01 7.88561E-04 3.05946E-02 4.92204E-14 2.33031E-14
 -1      4120 1.99139E+01 1.94999E-01-8.02255E-04 6.41128E-02-3.43037E-14 1.82746E-13
 -1      4121 1.98813E+01 2.35152E-01-2.24899E-04 7.21263E-02 6.99042E-14 1.25764E-13
 -1      4122 1.99286E+01 1.84513E-01 1.39323E-03 3.52327E-02-2.25061E-15 4.94085E-14
 -1      4123 1.98394E+01 2.77364E-01-1.07110E-03 7.70513E-02 8.04379E-14 1.41285E-13
 -1      4124 1.97988E+01 3.23321E-01-4.43193E-04 8.74791E-02 4.78394E-14 1.10858E-13
 -1      4125 1.98557E+01 2.67112E-01 2.11924E-03 4.15728E-02 7.26538E-14 1.21466E-13
 -1      4126 1.97468E+01 3.71271E-01-1.38185E-03 9.38560E-02 1.06484E-13 5.21707E-14
 -1      4127 1.96953E+01 4.23034E-01-7.24362E-04 1.06749E-01 1.00966E-13 3.16811E-14
 -1      4128 1.97658E+01 3.61496E-01 2.99727E-03 4.95077E-02 5.61752E-14-9.14336E-14
 -1      4129 1.96300E+01 4.76526E-01-1.74272E-03 1.14509E-01 6.89268E-14 2.89527E-14
 -1      4130 1.95644E+01 5.33632E-01-1.08904E-03 1.29779E-01-9.95490E-15 4.96409E-14
 -1      4131 1.96531E+01 4.67602E-01 4.06971E-03 5.86966E-02 7.41096E-14-3.59275E-14
 -1      4132 1.94822E+01 5.91892E-01-2.16941E-03 1.38725E-01-1.97569E-14 1.75680E-13
 -1      4133 1.93983E+01 6.53165E-01-1.56405E-03 1.56133E-01 4.80131E-14 1.95042E-13
 -1      4134 1.95108E+01 5.84449E-01 5.39628E-03 6.84805E-02 5.02340E-14 7.05416E-14
 -1      4135 1.92950E+01 7.14574E-01-2.69368E-03 1.65922E-01 1.11247E-14 1.99248E-13
 -1      4136 1.91883E+01 7.77869E-01-2.18571E-03 1.85125E-01-6.55200E-15 1.92849E-13
 -1      4137 1.93313E+01 7.09692E-01 7.06777E-03 7.77959E-02 2.82096E-14 1.88350E-13
 -1      4138 1.90585E+01 8.39707E-01-3.37984E-03 1.95277E-01 8.69423E-15 1.05450E-13
 -1      4139 1.89230E+01 9.01688E-01-3.00829E-03 2.15979E-01 2.70920E-15 7.57319E-14
 -1      4140 1.91051E+01 8.39204E-01 9.23144E-03 8.51064E-02-7.82778E-14 1.45811E-13
 -1      4141 1.87599E+01 9.59909E-01-4.35476E-03 2.25959E-01-3.23519E-14-1.78246E-14
 -1      4142 1.85880E+01 1.01592E+00-4.12477E-03 2.48285E-01-3.11738E-14-4.33369E-14
 -1      4143 1.88206E+01 9.66808E-01 1.21343E-02 8.83801E-02-9.04610E-14 3.50089E-15
 -1      4144 1.83817E+01 1.06506E+00-5.86048E-03 2.57696E-01-8.19241E-14 2.71900E-14
 -1      4145 1.81628E+01 1.10910E+00-5.70915E-03 2.82942E-01-4.67183E-14-1.21709E-14
 -1      4146 1.84623E+01 1.08428E+00 1.61861E-02 8.51181E-02-4.03103E-14-1.21528E-13
 -1      4147 1.78981E+01 1.14244E+00-8.32394E-03 2.91977E-01 2.12075E-14-6.71397E-14
 -1      4148 1.76167E+01 1.16728E+00-8.01548E-03 3.24034E-01 1.85767E-14-6.82711E-14
 -1      4149 1.80073E+01 1.18175E+00 2.19782E-02 7.23362E-02-2.12619E-14-1.08815E-13
 -1      4150 1.72683E+01 1.17727E+00-1.23196E-02 3.34912E-01-3.87703E-14-6.97681E-14
 -1      4151 1.69075E+01 1.17569E+00-9.04493E-03 3.82040E-01-1.35391E-14-1.11298E-13
 -1      4152 1.74175E+01 1.24760E+00 2.95991E-02 4.61129E-02 1.73507E-14-2.38224E-13
 -1      4153 1.99070E+01 2.07911E-01 3.56212E-06-1.00625E-01 5.60380E-14 1.20408E-13
 -1      4154 1.99345E+01 1.71035E-01-7.82578E-04-8.95504E-02 2.18871E-14 1.88774E-13
 -1      4155 1.59344E+01 1.11020E+00-2.83836E-03 5.09181E-01-3.49271E-14-2.37627E-13
 -1      4156 1.54650E+01 1.16299E+00 3.37938E-02-1.11205E-02-1.36130E-13-2.68151E-13
 -1      4157 1.63952E+01 1.14891E+00-1.82150E-02 4.22218E-01-1.77090E-14-1.30149E-13
 -1      4158 1.99660E+01 1.37252E-01 1.01692E-04-8.31311E-02 9.48095E-15 1.85024E-13
 -1      4159 1.99894E+01 1.05334E-01-5.40654E-04-7.55941E-02 3.21029E-15 1.05557E-13
 -1      4160 1.99457E+01 1.63453E-01 9.99589E-04-6.17607E-02-1.73493E-14 8.27505E-14
 -1      4161 1.97471E+01 3.78477E-01-1.92424E-04-1.59164E-01 8.13021E-14 3.47562E-14
 -1      4162 1.97886E+01 3.31813E-01-1.41301E-03-1.38935E-01 6.23723E-14 2.92735E-14
 -1      4163 1.96373E+01 4.76673E-01-2.70717E-04-2.03484E-01 7.66719E-14-4.32137E-15
 -1      4164 1.96888E+01 4.26010E-01-1.83823E-03-1.77400E-01 1.13095E-13 1.93080E-14
 -1      4165 1.96976E+01 4.26930E-01 3.26520E-03-1.22480E-01 1.08766E-13 1.42674E-13
 -1      4166 1.95010E+01 5.80099E-01-3.10236E-04-2.60788E-01-8.14718E-14-2.94159E-14
 -1      4167 1.95644E+01 5.27059E-01-2.36927E-03-2.27701E-01-1.47797E-14-2.80730E-14
 -1      4168 1.95721E+01 5.33844E-01 4.34381E-03-1.58516E-01 4.91791E-14 1.41050E-13
 -1      4169 1.93330E+01 6.83569E-01-2.75161E-04-3.34281E-01-1.15672E-13-6.06530E-14
 -1      4170 1.94102E+01 6.30953E-01-3.04657E-03-2.92626E-01-1.13963E-13-1.04838E-13
 -1      4171 1.94156E+01 6.46447E-01 5.66574E-03-2.06054E-01-5.93037E-15-8.30137E-14
 -1      4172 1.91281E+01 7.78894E-01-1.07194E-04-4.28583E-01-1.34349E-13-2.88638E-14
 -1      4173 1.92204E+01 7.31042E-01-3.93594E-03-3.76074E-01-1.14654E-13-8.18160E-14
 -1      4174 1.92216E+01 7.59509E-01 7.32010E-03-2.68610E-01-1.31651E-13-1.53613E-13
 -1      4175 1.88814E+01 8.54083E-01 2.85694E-04-5.50652E-01-9.95427E-14-9.24462E-14
 -1      4176 1.89894E+01 8.17237E-01-5.14772E-03-4.83772E-01-8.94006E-14-4.70505E-14
 -1      4177 1.89829E+01 8.65052E-01 9.45261E-03-3.51377E-01-1.48946E-13-1.36107E-13
 -1      4178 1.85882E+01 8.92486E-01 1.04223E-03-7.11318E-01-1.77207E-13-1.67282E-13
 -1      4179 1.87110E+01 8.75171E-01-6.86980E-03-6.24474E-01-1.98935E-13-1.27908E-13
 -1      4180 1.86911E+01 9.51849E-01 1.23014E-02-4.62264E-01-1.45893E-13-1.27233E-13
 -1      4181 1.82440E+01 8.71770E-01 2.36670E-03-9.27818E-01-1.19333E-13-1.28333E-13
 -1      4182 1.83786E+01 8.85277E-01-9.42031E-03-8.11899E-01-9.72955E-14-1.30286E-13
 -1      4183 1.83359E+01 1.00498E+00 1.62319E-02-6.13544E-01-1.55568E-13-1.80627E-13
 -1      4184 1.78474E+01 7.62791E-01 5.46864E-03-1.22837E+00-6.28435E-14-1.94994E-13
 -1      4185 1.79841E+01 8.22231E-01-1.32071E-02-1.06823E+00-8.79805E-14-1.14535E-13
 -1      4186 1.79027E+01 1.00538E+00 2.16731E-02-8.24327E-01-1.19595E-13-3.39457E-13
 -1      4187 1.74101E+01 5.16705E-01 8.98859E-03-1.66385E+00 9.99634E-16-2.47531E-13
 -1      4188 1.75160E+01 6.45863E-01-2.06169E-02-1.43573E+00-9.04225E-17-1.96506E-13
 -1      4189 1.73611E+01 9.30112E-01 2.74071E-02-1.12753E+00-2.88042E-14-4.84528E-13
 -1      4190 2.03621E+01 1.95244E-01 9.56014E-04-4.89077E-02 7.45195E-14-5.79847E-14
 -1      4191 2.03913E+01 2.63653E-01-2.71759E-06-2.71429E-02 5.27508E-14-8.07567E-14
 -1      4192 2.03425E+01 1.24803E-01-8.37434E-04-7.21442E-02 4.24575E-14-7.13696E-14
 -1      4193 2.04233E+01 5.35730E-01-4.14519E-04-2.24906E-02-4.60042E-14-1.32362E-13
 -1      4194 2.04245E+01 4.03232E-01-1.16967E-03 1.92852E-03-4.62980E-14-1.10867E-13
 -1      4195 2.04249E+01 2.93878E-01 5.65228E-04 8.85673E-03-5.37370E-14-7.84882E-14
 -1      4196 2.04113E+01 2.02966E-01-7.55614E-04 2.58723E-02-4.03483E-14-8.35397E-14
 -1      4197 2.04323E+01 3.62608E-01-2.90903E-04 2.40844E-03-2.02451E-14-8.14866E-14
 -1      4198 2.03940E+01 7.75741E-01-1.45553E-03-5.00069E-02-4.18298E-14-1.62034E-13
 -1      4199 1.67978E+01 2.85627E-01-2.18182E-02-2.01689E+00 1.77094E-14-1.23644E-13
 -1      4200 1.98354E+01 2.88440E-01-9.68183E-05-1.25481E-01 6.48416E-14 5.25233E-15
 -1      4201 1.98690E+01 2.46553E-01-1.06737E-03-1.10206E-01 7.44210E-14 8.45329E-14
 -1      4202 1.98793E+01 2.40797E-01 1.62736E-03-7.56930E-02 8.52593E-14 3.39809E-14
 -1      4203 2.00166E+01 7.63234E-02 1.90297E-04-7.17548E-02-4.91946E-14 1.19904E-13
 -1      4204 2.00375E+01 4.92935E-02-2.82584E-04-6.71251E-02-8.29111E-14 7.53331E-14
 -1      4205 2.00017E+01 9.65965E-02 4.59914E-04-5.25769E-02-3.54892E-14 7.49789E-14
 -1      4206 1.51110E+01 1.03567E+00-1.11823E-02-5.06130E-01-1.37886E-13-2.85597E-13
 -1      4207 1.48583E+01 9.22750E-01 3.13206E-02-1.07317E+00-1.81415E-13-2.56835E-13
 -1      4208 1.56982E+01 7.34253E-01 2.55128E-03-1.41448E+00-1.53456E-13-2.94863E-13
 -1      4209 1.57406E+01 1.06619E+00-2.47853E-02-4.61273E-01-1.32089E-13-2.83162E-13
 -1      4210 2.01915E+01-6.57135E-02 3.45289E-04-6.56366E-02 1.08806E-13-7.74495E-14
 -1      4211 2.02132E+01-6.91221E-02 2.94004E-04-6.59403E-02 6.20802E-14-6.87806E-14
 -1      4212 1.97982E+01 3.28761E-01 2.37283E-03-9.54738E-02 7.24020E-14 7.50473E-14
 -1      4213 2.01063E+01-2.50180E-02-2.15765E-04-8.12693E-02 6.45596E-14 1.63341E-14
 -1      4214 1.65787E+01 1.25292E+00 2.95446E-02 1.22602E-02-6.68146E-14-2.23528E-13
 -1      4215 2.00512E+01 3.92759E-02-9.13483E-05-4.68849E-02-6.64404E-14 1.58315E-13
 -1      4216 2.00617E+01 2.48915E-02 1.74127E-04-6.54947E-02-7.19625E-14 7.34844E-14
 -1      4217 2.00814E+01 2.83429E-03-1.90779E-04-6.32327E-02-2.00645E-14 8.66058E-14
 -1      4218 2.04148E+01 1.77189E-01 2.26672E-04 1.55674E-02-1.75885E-14-7.13855E-14
 -1      4219 2.04033E+01 2.27604E-01-8.16909E-04-2.98671E-02 1.51598E-14-6.45794E-14
 -1      4220 2.04147E+01 3.23754E-01 1.33071E-04-7.86967E-03 2.20131E-14-1.10285E-13
 -1      4221 1.64868E+01 6.42845E-01 1.17660E-02-1.64868E+00-3.93723E-14-2.93675E-13
 -1      4222 2.04200E+01 6.36034E-01 1.81295E-03-2.38592E-02-3.14490E-14-1.54947E-13
 -1      4223 2.03044E+01 2.47689E-02-5.08006E-04-9.65838E-02 5.66448E-15-6.38257E-14
 -1      4224 2.03260E+01 6.95701E-02 7.98642E-04-8.39043E-02 1.62870E-14-6.87140E-14
 -1      4225 2.03219E+01 1.48793E-02-7.21408E-04-8.06354E-02 1.36274E-14-5.50998E-14
 -1      4226 2.01475E+01-4.74531E-02 3.48535E-04-6.35144E-02 4.73782E-14 2.49199E-14
 -1      4227 2.01679E+01-5.84297E-02 1.44714E-04-6.37982E-02 6.71807E-14-1.28094E-14
 -1      4228 2.01885E+01-6.38810E-02-9.67776E-04-4.59204E-02 3.72885E-14-3.15391E-14
 -1      4229 2.04282E+01 5.73839E-01 1.00641E-04-8.20444E-03-7.60640E-15-1.39504E-13
 -1      4230 2.03934E+01 6.93140E-01 4.64554E-04 8.05318E-02 6.89904E-14-1.30926E-13
 -1      4231 2.03913E+01 7.77330E-01 7.13442E-04 6.83054E-02 5.80325E-14-1.30721E-13
 -1      4232 2.04194E+01 6.33873E-01 2.62280E-03 3.46985E-02 6.83433E-14-1.37407E-13
 -1      4233 2.02374E+01-6.79601E-02 2.73587E-04-6.78854E-02 1.76614E-14-5.63506E-14
 -1      4234 2.02604E+01-6.13368E-02 4.48516E-04-6.71298E-02 1.28239E-15-6.65610E-14
 -1      4235 2.02362E+01-7.01888E-02-1.14115E-03-4.72545E-02 3.38753E-14-4.53076E-14
 -1      4236 2.04255E+01 5.69106E-01-1.94556E-03 1.20559E-02 6.65971E-14-1.29250E-13
 -1      4237 2.04277E+01 5.73638E-01-1.15405E-03 1.14026E-03 3.38654E-14-1.45969E-13
 -1      4238 2.04383E+01 4.88508E-01 2.04138E-03-3.38774E-03 1.82917E-14-1.11947E-13
 -1      4239 2.02847E+01-4.91292E-02 8.01275E-05-6.84584E-02 1.29165E-14-8.16745E-14
 -1      4240 2.03097E+01-2.98517E-02 5.58500E-04-6.52371E-02-1.16184E-15-8.45828E-14
 -1      4241 2.02856E+01-5.52852E-02-1.09108E-03-4.73662E-02 6.10088E-15-4.96391E-14
 -1      4242 2.03939E+01 7.51578E-02 3.03393E-04 2.41015E-03 4.83996E-15-7.05686E-14
 -1      4243 2.03745E+01 2.62155E-02 2.89621E-04 6.08436E-03-5.46409E-15-7.64197E-14
 -1      4244 1.97704E+01 3.39645E-01-1.95283E-03-2.95555E-02 7.71156E-14-4.73016E-14
 -1      4245 1.98175E+01 2.94338E-01-1.42625E-03-2.03984E-02 8.75640E-14-2.04983E-14
 -1      4246 2.03402E+01-1.74649E-02 2.42861E-04-1.06273E-02-9.13481E-15-5.93776E-14
 -1      4247 2.03169E+01-4.14743E-02 8.38783E-04-8.37283E-03-2.71498E-14-4.04727E-14
 -1      4248 2.02922E+01-5.71372E-02 5.66590E-04-9.97191E-03 3.97204E-16-3.50816E-14
 -1      4249 2.02668E+01-6.67867E-02 8.22475E-04-9.06800E-03 2.56620E-14-4.35893E-14
 -1      4250 2.02420E+01-6.95764E-02 6.50302E-04-9.53469E-03 2.72662E-14-3.76252E-14
 -1      4251 2.02167E+01-6.82075E-02 6.96840E-04-9.11608E-03-1.00149E-14-7.70421E-15
 -1      4252 2.01926E+01-6.15963E-02 5.47794E-04-9.23387E-03-7.31221E-15 5.44455E-14
 -1      4253 2.01679E+01-5.17994E-02 4.92216E-04-8.94650E-03-2.39632E-14 6.58876E-14
 -1      4254 2.01040E+01-7.87953E-03 1.49273E-05 5.07207E-03-5.65811E-14 5.85803E-14
 -1      4255 2.00798E+01 1.36501E-02 1.35499E-05 5.65597E-03 1.76839E-14 6.49703E-14
 -1      4256 2.00470E+01 4.56206E-02-1.33294E-04-1.09585E-02 1.48222E-14 8.56904E-14
 -1      4257 2.00210E+01 7.32567E-02-2.16907E-04-1.01292E-02-8.22153E-15 5.72015E-14
 -1      4258 1.99937E+01 1.03209E-01-4.86329E-04-1.31156E-02 1.43169E-14 4.03219E-14
 -1      4259 1.99643E+01 1.36258E-01-5.41623E-04-1.20400E-02-3.04310E-14 6.01702E-15
 -1      4260 1.99326E+01 1.71224E-01-8.98778E-04-1.66215E-02 9.72173E-15 2.24186E-15
 -1      4261 1.98979E+01 2.09833E-01-9.38987E-04-1.52797E-02 4.19751E-14-1.89716E-14
 -1      4262 1.98597E+01 2.49962E-01-1.38205E-03-2.18902E-02 6.72050E-14-4.12433E-14
 -1      4263 1.97178E+01 3.89806E-01-2.03319E-03-2.81485E-02 4.75491E-14-5.09481E-14
 -1      4264 1.96591E+01 4.39968E-01-2.63085E-03-4.05303E-02 5.58190E-14 7.62362E-14
 -1      4265 1.95929E+01 4.95516E-01-2.80080E-03-3.96060E-02 1.07227E-13 8.54957E-14
 -1      4266 1.95196E+01 5.49612E-01-3.44508E-03-5.61367E-02 1.09909E-13 4.28294E-14
 -1      4267 1.94360E+01 6.09484E-01-3.78801E-03-5.63110E-02 9.65919E-14 1.00166E-13
 -1      4268 1.93447E+01 6.65719E-01-4.44172E-03-7.82965E-02 2.16575E-15 3.87401E-14
 -1      4269 1.92392E+01 7.27936E-01-5.08433E-03-8.04661E-02-7.85222E-14 4.72067E-14
 -1      4270 1.91260E+01 7.83354E-01-5.69946E-03-1.09812E-01-1.37543E-13 5.11935E-14
 -1      4271 1.89930E+01 8.44782E-01-6.83290E-03-1.15225E-01-1.61086E-13-2.86934E-16
 -1      4272 1.88535E+01 8.94994E-01-7.35592E-03-1.54794E-01-1.48045E-13-1.07885E-14
 -1      4273 1.86855E+01 9.51194E-01-9.27028E-03-1.65135E-01-7.45416E-14-6.28370E-14
 -1      4274 1.85139E+01 9.90160E-01-9.64487E-03-2.19312E-01-1.00983E-13-7.94234E-14
 -1      4275 1.83006E+01 1.03534E+00-1.27827E-02-2.36865E-01-1.18388E-13-6.65058E-14
 -1      4276 1.80894E+01 1.05527E+00-1.28986E-02-3.12404E-01-1.07965E-13-1.24240E-13
 -1      4277 1.78153E+01 1.08239E+00-1.78874E-02-3.40522E-01-3.70156E-14-2.13106E-13
 -1      4278 1.75544E+01 1.07430E+00-1.70875E-02-4.47330E-01 2.30828E-14-3.11580E-13
 -1      4279 1.71969E+01 1.07483E+00-2.45421E-02-4.90895E-01-2.32685E-14-3.45956E-13
 -1      4280 2.03923E+01 1.49768E-01 5.47905E-04-3.97023E-02 2.39659E-14-7.23877E-14
 -1      4281 2.04123E+01 2.04660E-01 6.05992E-04-2.30790E-02 1.21118E-14-9.01296E-14
 -1      4282 2.04336E+01 3.63341E-01-1.22850E-03 2.80889E-03 1.86723E-14-7.77685E-14
 -1      4283 1.68761E+01 1.03929E+00-1.66740E-02-6.40255E-01-3.76930E-14-3.27305E-13
 -1      4284 1.63995E+01 1.01429E+00-1.42162E-02-7.07779E-01-7.88501E-14-3.74579E-13
 -1      4285 2.03614E+01 1.12644E-01-9.95522E-05-6.15241E-02 3.08981E-14-5.11178E-14
 -1      4286 2.04183E+01 4.90133E-01-2.14189E-03 1.91231E-02 4.93150E-14-1.15136E-13
 -1      4287 2.04250E+01 5.25146E-01-1.54122E-05 1.33723E-02 4.44709E-14-1.47890E-13
 -1      4288 2.04255E+01 3.39806E-01-1.04109E-03-5.83167E-03 2.03067E-14-1.54609E-13
 -1      4289 2.04181E+01 3.84584E-01 2.15510E-03-4.39356E-03 4.20895E-14-1.16496E-13
 -1      4290 2.04050E+01 4.67506E-01-2.07361E-03 1.78953E-02 4.79101E-14-1.16062E-13
 -1      4291 2.04366E+01 4.44177E-01 1.83884E-03 9.64404E-04 2.52894E-14-1.31452E-13
 -1      4292 2.01047E+01-1.65009E-02 3.03975E-04-6.29398E-02 3.10124E-14 8.99328E-14
 -1      4293 2.01244E+01-3.35392E-02 8.86976E-06-6.23163E-02 7.35898E-14 9.49683E-14
 -1      4294 2.01427E+01-4.14989E-02-6.53239E-04-4.47933E-02 2.99823E-14 1.49499E-13
 -1      4295 2.00973E+01-5.85932E-03-1.28744E-04-4.44654E-02-4.59532E-15 2.21834E-13
 -1      4296 2.04311E+01 2.35302E-01 1.28093E-03 5.25669E-04-1.11016E-14-7.78565E-14
 -1      4297 2.04148E+01 1.53604E-01-8.04247E-04 5.70109E-03-9.37065E-15-8.07331E-14
 -1      4298 2.04056E+01 1.26459E-01-3.33171E-05-1.02654E-02-7.04323E-15-5.38616E-14
 -1      4299 2.04332E+01 3.43619E-01 1.95683E-05-1.93542E-03-7.03004E-15-9.30243E-14
 -1      4300 2.04274E+01 3.00202E-01-1.06583E-03-5.29688E-03-2.42223E-14-1.28193E-13
 -1      4301 2.03739E+01 8.75647E-02-2.94756E-04-5.18654E-02 2.91603E-14-9.96920E-14
 -1      4302 2.01443E+01-3.80697E-02 2.93986E-04-9.30035E-03-6.11878E-14 9.90152E-14
 -1      4303 2.01201E+01-2.13608E-02 2.89067E-04-8.99882E-03-3.63883E-14 1.29976E-13
 -1      4304 1.63175E+01 9.23309E-01 5.62547E-03-1.13055E+00-9.51986E-14-3.85848E-13
 -1      4305 2.03475E+01 1.04896E-03-6.11518E-04-2.92501E-02 2.45191E-15-4.51110E-14
 -1      4306 2.03466E+01 1.27238E-02-2.39293E-04-4.95538E-02-3.93838E-15-4.33464E-14
 -1      4307 2.00594E+01 3.33982E-02 3.66607E-05-3.18458E-02-1.91441E-14 1.89106E-13
 -1      4308 2.03690E+01 5.52029E-02 7.56527E-04-4.25825E-02 2.01091E-14-6.21905E-14
 -1      4309 2.01064E+01-1.24990E-02-3.00491E-04-3.03155E-02-1.59968E-14 2.20255E-13
 -1      4310 2.00834E+01 8.93412E-03 2.06207E-04-3.06060E-02-1.55266E-14 2.29491E-13
 -1      4311 2.03924E+01 8.47133E-02-3.61907E-04-2.37346E-02 1.01466E-14-7.22209E-14
 -1      4312 2.04137E+01 1.66231E-01-2.29662E-04-1.96798E-02 4.12782E-15-6.84464E-14
 -1      4313 2.04273E+01 2.52675E-01 1.20883E-03-1.04476E-02-1.92088E-14-1.02005E-13
 -3
    1PSTEP                         3           1           1          
  100CL  101 1.000000000        4313                     0    1           1
 -4  TOSTRAIN    6    1
 -5  EXX         1    4    1    1
 -5  EYY         1    4    2    2
 -5  EZZ         1    4    3    3
 -5  EXY         1    4    1    2
 -5  EYZ         1    4    2    3
 -5  EZX         1    4    3    1
 -1         1 2.84985E-05 2.30343E-05-2.37347E-05 4.72592E-05-1.72473E-17-1.49683E-17
 -1         2 3.91632E-05-1.18535E-04 2.14801E-05 8.97022E-08 7.31269E-20 3.13879E-19
 -1         3 9.50857E-05-2.87327E-05-2.82719E-05-1.70335E-07-2.33487E-18-2.10595E-18
 -1         4 9.50257E-05-2.87894E-05-2.81614E-05 2.34170E-07 1.36170E-18 3.83206E-19
 -1         5 1.43345E-04-2.14784E-05-4.25269E-05 3.85318E-05-1.79730E-19 1.31490E-17
 -1         6 1.45407E-04 2.57561E-10-4.41861E-05-5.35277E-05-6.12405E-19 1.58813E-17
 -1         7 9.06044E-05-5.10914E-07-3.90668E-05-2.92550E-05-9.65618E-20 5.31082E-18
 -1         8 8.51222E-05 8.63542E-08-3.63377E-05-2.02749E-05-1.69804E-19 1.46958E-18
 -1         9 8.28114E-05 7.65313E-08-3.53497E-05-1.56437E-05-1.82972E-19-8.75773E-19
 -1        10 8.17728E-05 3.91460E-08-3.48816E-05-1.20832E-05-1.49548E-19-2.11677E-18
 -1        11 8.12550E-05 1.91336E-08-3.46539E-05-9.01711E-06-9.82525E-20-2.84919E-18
 -1        12 8.09859E-05 9.14311E-09-3.45397E-05-6.28701E-06-8.21639E-20-3.36169E-18
 -1        13 8.08452E-05 4.57297E-09-3.44821E-05-3.68743E-06-4.21399E-20-3.62008E-18
 -1        14 8.07866E-05 2.68492E-09-3.44586E-05-1.18434E-06-4.59091E-20-3.75764E-18
 -1        15 8.07887E-05 2.66950E-09-3.44594E-05 1.28951E-06-3.00225E-21-3.80713E-18
 -1        16 8.08517E-05 4.46630E-09-3.44843E-05 3.79774E-06 1.84958E-20-3.87634E-18
 -1        17 8.09976E-05 8.36293E-09-3.45432E-05 6.40971E-06 1.09386E-20-3.84838E-18
 -1        18 8.12714E-05 1.81443E-08-3.46585E-05 9.15951E-06 4.63320E-20-3.68534E-18
 -1        19 8.17967E-05 3.81930E-08-3.48898E-05 1.22621E-05 1.04463E-19-3.35524E-18
 -1        20 8.28340E-05 8.15599E-08-3.53627E-05 1.58747E-05 1.27955E-19-2.50005E-18
 -1        21 8.50869E-05 1.69555E-07-3.63761E-05 2.04859E-05 1.76792E-19-6.73969E-19
 -1        22 9.16415E-05-9.94657E-08-3.87383E-05 2.80015E-05 2.09641E-20 3.37949E-18
 -1        23 1.12972E-04-3.81255E-05-3.53964E-05-4.40297E-06-3.87226E-19 1.35766E-17
 -1        24 9.28030E-05-2.76966E-05-2.89988E-05 3.91310E-07-1.15203E-19 1.14967E-17
 -1        25 8.91170E-05-2.68514E-05-2.69285E-05 3.75841E-07-7.87476E-20 9.31728E-18
 -1        26 8.80120E-05-2.64873E-05-2.63906E-05 2.03992E-07 7.49839E-21 7.67900E-18
 -1        27 8.80364E-05-2.64650E-05-2.63821E-05 1.39828E-07-5.57851E-21 6.54603E-18
 -1        28 8.85677E-05-2.66007E-05-2.65509E-05 1.00786E-07-6.21370E-20 6.22989E-18
 -1        29 8.93195E-05-2.68124E-05-2.67825E-05 7.50183E-08 3.70912E-20 5.68433E-18
 -1        30 9.01402E-05-2.70509E-05-2.70314E-05 5.66180E-08 6.88928E-20 4.96859E-18
 -1        31 9.09453E-05-2.72881E-05-2.72742E-05 4.27442E-08 6.56550E-20 4.13802E-18
 -1        32 9.16883E-05-2.75084E-05-2.74982E-05 3.19533E-08-1.87833E-19 3.11749E-18
 -1        33 9.23467E-05-2.77044E-05-2.76968E-05 2.34365E-08 1.40125E-19 2.68293E-18
 -1        34 9.29137E-05-2.78737E-05-2.78679E-05 1.66843E-08 6.88447E-21 3.27962E-18
 -1        35 9.33925E-05-2.80170E-05-2.80126E-05 1.13428E-08-8.27684E-20 2.80148E-18
 -1        36 9.37935E-05-2.81374E-05-2.81340E-05 7.15204E-09 1.12113E-19 2.50727E-18
 -1        37 9.41322E-05-2.82394E-05-2.82367E-05 3.91976E-09-2.20252E-19 2.64378E-18
 -1        38 9.44279E-05-2.83286E-05-2.83265E-05 1.51339E-09-5.46366E-20 1.88278E-18
 -1        39 9.47030E-05-2.84119E-05-2.84103E-05-1.39839E-10 1.15896E-20 1.62812E-18
 -1        40 9.49841E-05-2.84972E-05-2.84960E-05-1.04674E-09 1.14202E-19 1.80919E-18
 -1        41 9.53019E-05-2.85936E-05-2.85929E-05-1.13717E-09-1.35671E-19 5.24598E-19
 -1        42 9.56923E-05-2.87120E-05-2.87120E-05-2.47644E-10-3.44687E-20 4.14551E-19
 -1        43 9.61980E-05-2.88651E-05-2.88661E-05 1.90143E-09-2.19536E-19 1.23835E-18
 -1        44 9.68699E-05-2.90682E-05-2.90706E-05 5.73546E-09 2.87966E-19 2.16087E-18
 -1        45 9.77675E-05-2.93390E-05-2.93435E-05 1.18606E-08-7.74741E-20 2.10032E-18
 -1        46 9.89601E-05-2.96981E-05-2.97057E-05 2.10950E-08 2.11074E-19 1.19312E-18
 -1        47 1.00524E-04-3.01683E-05-3.01802E-05 3.44710E-08-2.54697E-20 3.94328E-18
 -1        48 1.02539E-04-3.07727E-05-3.07902E-05 5.31440E-08-2.17009E-19 3.69754E-18
 -1        49 1.05073E-04-3.15311E-05-3.15549E-05 7.80699E-08-3.08249E-21 2.28847E-18
 -1        50 1.08158E-04-3.24525E-05-3.24816E-05 1.09179E-07-1.60884E-19 9.89844E-19
 -1        51 1.11745E-04-3.35215E-05-3.35503E-05 1.43594E-07 2.52522E-19 1.79365E-18
 -1        52 1.15630E-04-3.46770E-05-3.46915E-05 1.72354E-07 1.73887E-19 2.37333E-18
 -1        53 1.19352E-04-3.57829E-05-3.57564E-05 1.75609E-07-2.65078E-19 1.42382E-18
 -1        54 1.22090E-04-3.65975E-05-3.64931E-05 1.18702E-07 2.03989E-19 1.26769E-18
 -1        55 1.22651E-04-3.67681E-05-3.65559E-05-4.27126E-08-3.96334E-19 8.06901E-19
 -1        56 1.19709E-04-3.58995E-05-3.55994E-05-3.32955E-07-3.58136E-20 2.01090E-18
 -1        57 1.12500E-04-3.37554E-05-3.34822E-05-6.95408E-07 5.78562E-19 4.30060E-18
 -1        58 1.01873E-04-3.05737E-05-3.05247E-05-9.42184E-07-7.16602E-19 3.71969E-18
 -1        59 9.09407E-05-2.72810E-05-2.75957E-05-8.25116E-07 3.57951E-19 3.72589E-19
 -1        60 8.41415E-05-2.52247E-05-2.58075E-05-2.75831E-07-9.44663E-19-1.56608E-19
 -1        61 8.45728E-05-2.53567E-05-2.58920E-05 4.32086E-07 9.55870E-19-6.45320E-19
 -1        62 9.16711E-05-2.75046E-05-2.77133E-05 8.74787E-07-3.42405E-19-4.06076E-18
 -1        63 1.01626E-04-3.04994E-05-3.03615E-05 8.66763E-07 4.51004E-20-4.14898E-18
 -1        64 1.10107E-04-3.30330E-05-3.27240E-05 5.54068E-07-1.53015E-19-3.67131E-18
 -1        65 1.14587E-04-3.43603E-05-3.40627E-05 1.85977E-07 2.17568E-19-1.86188E-19
 -1        66 1.14764E-04-3.44053E-05-3.42064E-05-8.57413E-08 3.66140E-19 1.21217E-18
 -1        67 1.11701E-04-3.34914E-05-3.33973E-05-2.31681E-07 8.80997E-20 1.03237E-18
 -1        68 1.06881E-04-3.20581E-05-3.20469E-05-2.79866E-07 6.94586E-19 2.38743E-18
 -1        69 1.01705E-04-3.05171E-05-3.05776E-05-2.56828E-07 3.28430E-19 8.48092E-19
 -1        70 9.74236E-05-2.92285E-05-2.93587E-05-1.35898E-07 5.67851E-20 2.61778E-18
 -1        71 9.51399E-05-2.84856E-05-2.86278E-05 6.95950E-08-3.44553E-19 1.81121E-18
 -1        72 1.02177E-04-3.05868E-05-3.41494E-05-1.92877E-06 2.17979E-19 1.15426E-17
 -1        73 9.25591E-05-2.75125E-05-2.89070E-05-3.33178E-07 1.41799E-19 8.08891E-18
 -1        74 8.91041E-05-2.67007E-05-2.69716E-05-1.25897E-07 1.22828E-19 5.65886E-18
 -1        75 8.80419E-05-2.64381E-05-2.64345E-05-9.55624E-08 5.23614E-20 3.95083E-18
 -1        76 8.80713E-05-2.64450E-05-2.64088E-05-7.65543E-08 3.21112E-21 2.96092E-18
 -1        77 8.86018E-05-2.65951E-05-2.65681E-05-6.24470E-08-3.89437E-21 2.21541E-18
 -1        78 8.93508E-05-2.68137E-05-2.67949E-05-5.16015E-08-3.48685E-20 1.99624E-18
 -1        79 9.01680E-05-2.70555E-05-2.70408E-05-4.26361E-08-6.49140E-20 1.01962E-18
 -1        80 9.09695E-05-2.72941E-05-2.72816E-05-3.48813E-08-7.57634E-21 5.67682E-19
 -1        81 9.17090E-05-2.75148E-05-2.75039E-05-2.80678E-08 1.51799E-19 3.26837E-19
 -1        82 9.23643E-05-2.77107E-05-2.77013E-05-2.20727E-08 9.49255E-20-5.57743E-19
 -1        83 9.29284E-05-2.78796E-05-2.78715E-05-1.68158E-08 6.98597E-20-1.57698E-18
 -1        84 9.34050E-05-2.80223E-05-2.80155E-05-1.22226E-08 4.39766E-20-1.65255E-18
 -1        85 9.38045E-05-2.81421E-05-2.81366E-05-8.21593E-09-6.68401E-20-1.21463E-18
 -1        86 9.41422E-05-2.82435E-05-2.82392E-05-4.71898E-09 1.49116E-19-2.36075E-18
 -1        87 9.44375E-05-2.83323E-05-2.83291E-05-1.66415E-09-1.85458E-19-3.15093E-18
 -1        88 9.47129E-05-2.84152E-05-2.84132E-05 9.95515E-10 5.78514E-20-2.82118E-18
 -1        89 9.49942E-05-2.84999E-05-2.84993E-05 3.27192E-09 9.36737E-20-3.09099E-18
 -1        90 9.53113E-05-2.85954E-05-2.85963E-05 5.12409E-09-2.42610E-19-3.49758E-18
 -1        91 9.56983E-05-2.87119E-05-2.87146E-05 6.43550E-09 3.02787E-19-4.45628E-18
 -1        92 9.61941E-05-2.88609E-05-2.88660E-05 6.98499E-09-6.03138E-20-5.64099E-18
 -1        93 9.68432E-05-2.90559E-05-2.90637E-05 6.41035E-09-3.03461E-20-5.83287E-18
 -1        94 9.76941E-05-2.93111E-05-2.93223E-05 4.16585E-09 1.97015E-19-5.44278E-18
 -1        95 9.87978E-05-2.96417E-05-2.96571E-05-5.18757E-10-2.27043E-19-4.83809E-18
 -1        96 1.00203E-04-3.00620E-05-3.00820E-05-8.65495E-09 1.54314E-19-2.99735E-18
 -1        97 1.01945E-04-3.05824E-05-3.06068E-05-2.14340E-08-4.27259E-19-2.30584E-18
 -1        98 1.04031E-04-3.12051E-05-3.12322E-05-3.99758E-08 5.75712E-19-5.10935E-18
 -1        99 1.06415E-04-3.19159E-05-3.19413E-05-6.46911E-08 1.49887E-19-9.17741E-18
 -1       100 1.08958E-04-3.26740E-05-3.26886E-05-9.39710E-08-1.78642E-19-6.36924E-18
 -1       101 1.11383E-04-3.33983E-05-3.33866E-05-1.21959E-07-9.12047E-20-4.56970E-18
 -1       102 1.13234E-04-3.39552E-05-3.38957E-05-1.35650E-07-1.42136E-19-3.88511E-18
 -1       103 1.13872E-04-3.41562E-05-3.40280E-05-1.13231E-07-6.74975E-19-2.70522E-18
 -1       104 1.12562E-04-3.37828E-05-3.35813E-05-2.84853E-08 3.19900E-19-1.34452E-18
 -1       105 1.08731E-04-3.26584E-05-3.24191E-05 1.32429E-07 1.55833E-19-3.58447E-18
 -1       106 1.02394E-04-3.07727E-05-3.05855E-05 3.42106E-07 1.66345E-19-6.13847E-18
 -1       107 9.45774E-05-2.84164E-05-2.83988E-05 5.12232E-07-1.36860E-19-6.99692E-18
 -1       108 8.73499E-05-2.62061E-05-2.64287E-05 5.28128E-07 4.83988E-19-7.93866E-18
 -1       109 8.31189E-05-2.48846E-05-2.52923E-05 3.29793E-07-1.29472E-19-4.64773E-18
 -1       110 8.33877E-05-2.49395E-05-2.53535E-05-9.89570E-09-2.86368E-19-3.29975E-18
 -1       111 8.77969E-05-2.62774E-05-2.65155E-05-3.19992E-07 9.64507E-19-2.36285E-18
 -1       112 9.43452E-05-2.82800E-05-2.82799E-05-4.66448E-07-1.00258E-18-1.66193E-18
 -1       113 1.00563E-04-3.01802E-05-3.00022E-05-4.31612E-07 1.37236E-19 1.40684E-18
 -1       114 1.04673E-04-3.14313E-05-3.11864E-05-2.86751E-07-5.93415E-19-1.20044E-18
 -1       115 1.06049E-04-3.18469E-05-3.16265E-05-1.16781E-07 3.15551E-19-2.75325E-18
 -1       116 1.05013E-04-3.15311E-05-3.13812E-05 2.60450E-08 5.81021E-19-4.40146E-18
 -1       117 1.02396E-04-3.07382E-05-3.06740E-05 1.23014E-07 4.15033E-19-6.31665E-18
 -1       118 9.92063E-05-2.97701E-05-2.97965E-05 1.69905E-07-8.56083E-19-5.83864E-18
 -1       119 9.64694E-05-2.89346E-05-2.90366E-05 1.46659E-07 3.72146E-19-5.60744E-18
 -1       120 9.51188E-05-2.84772E-05-2.85796E-05-1.93050E-08 1.13498E-18-5.77308E-18
 -1       121 9.52443E-05-2.85845E-05-2.85960E-05-8.29265E-08-5.78771E-18-5.69743E-20
 -1       122 9.48103E-05-2.72018E-05-2.90845E-05 6.12594E-08-5.80165E-18 3.10515E-19
 -1       123 9.38949E-05-2.41441E-05-2.99832E-05 1.51316E-07-1.40826E-19 1.77640E-18
 -1       124 9.26150E-05-1.98587E-05-3.12391E-05 2.10607E-07 1.24745E-18 2.64491E-19
 -1       125 9.11108E-05-1.48063E-05-3.27177E-05 2.49633E-07 3.02558E-18-1.36206E-18
 -1       126 8.95846E-05-9.67008E-06-3.42116E-05 2.55419E-07-9.06987E-20 4.21527E-20
 -1       127 8.82125E-05-5.05689E-06-3.55421E-05 2.14681E-07-4.23258E-18 6.67932E-20
 -1       128 8.72705E-05-1.88813E-06-3.64485E-05 1.23213E-07-1.01312E-17-1.24796E-18
 -1       129 8.69581E-05-8.36648E-07-3.67444E-05-2.91635E-09-5.80603E-18 1.58656E-18
 -1       130 8.73604E-05-2.18779E-06-3.63520E-05-1.32926E-07 1.11470E-18 2.60537E-19
 -1       131 8.84129E-05-5.73050E-06-3.53298E-05-2.37609E-07-5.82137E-18-1.37816E-18
 -1       132 8.99024E-05-1.07395E-05-3.38816E-05-2.88949E-07-1.23307E-17 1.58136E-18
 -1       133 9.16189E-05-1.65085E-05-3.22116E-05-2.94815E-07-1.12936E-17 5.62492E-19
 -1       134 9.32585E-05-2.20334E-05-3.06204E-05-2.68330E-07-7.67141E-18-1.26593E-19
 -1       135 9.45420E-05-2.62931E-05-2.93746E-05-2.04217E-07-4.12537E-18 4.09902E-19
 -1       136 9.51265E-05-2.84025E-05-2.86379E-05 1.86080E-07-2.90259E-18-8.67789E-19
 -1       137 2.81820E-05-9.52638E-05 1.72801E-05-2.49404E-05 4.75228E-18-4.04167E-19
 -1       138 8.71440E-06-3.75154E-05 4.07830E-06-1.93125E-05 9.15261E-18 4.83148E-18
 -1       139 1.10340E-05 1.47466E-05-1.46742E-05 2.26715E-05 1.10525E-17 7.53055E-18
 -1       140 5.88005E-05 2.74449E-05-3.54101E-05 7.87964E-05 9.78747E-18 1.29274E-17
 -1       141 1.49164E-04-3.87148E-06-5.56670E-05 1.12806E-04 9.59752E-18 1.56752E-17
 -1       142 2.52592E-04-5.91104E-05-7.21316E-05 9.59230E-05 3.34244E-18 1.22799E-17
 -1       143 3.09931E-04-9.53697E-05-7.92957E-05 2.48254E-05 8.46954E-19 2.88129E-18
 -1       144 2.93074E-04-8.49778E-05-7.71323E-05-5.71651E-05 4.48345E-19-7.57480E-18
 -1       145 2.11595E-04-3.70241E-05-6.57533E-05-1.08995E-04 5.25097E-18-1.38913E-17
 -1       146 1.11967E-04 1.19008E-05-4.84683E-05-1.05410E-04 1.00513E-17-1.49891E-17
 -1       147 3.45694E-05 2.82732E-05-2.74805E-05-5.81015E-05 1.47879E-17-1.41031E-17
 -1       148 5.65336E-06-2.65376E-06-6.82003E-06-2.95228E-06 1.50230E-17-9.51472E-18
 -1       149 1.50264E-05-6.03213E-05 9.97658E-06 2.56234E-05 1.48718E-17-4.80776E-18
 -1       150 3.38103E-05-1.06068E-04 1.93446E-05 1.56279E-05 7.47623E-18-2.19677E-18
 -1       151 3.52801E-05-1.09453E-04 1.99669E-05-1.39710E-05-2.13516E-18 3.01557E-19
 -1       152 1.66881E-05-6.66189E-05 1.14749E-05-2.81381E-05-1.07133E-17-3.87052E-18
 -1       153 5.74339E-06-9.32288E-06-4.69839E-06-2.64922E-06-1.81185E-17-1.22612E-17
 -1       154 9.71515E-05 1.55367E-05-4.47806E-05 9.77027E-05-1.11889E-17-1.54533E-17
 -1       155 1.99898E-04-3.04260E-05-6.40689E-05 1.11651E-04-5.90340E-18-1.49772E-17
 -1       156 2.85974E-04-7.99008E-05-7.63077E-05 6.92263E-05-2.61601E-18-1.04293E-17
 -1       157 3.15075E-04-9.70299E-05-8.02223E-05-1.25352E-05-2.37804E-19-2.42635E-18
 -1       158 2.67710E-04-6.75160E-05-7.41826E-05-8.81604E-05-2.05718E-18 5.92627E-18
 -1       159 1.68245E-04-1.21836E-05-5.93317E-05-1.16217E-04-5.33038E-18 1.05447E-17
 -1       160 6.81344E-05 2.51060E-05-3.79156E-05-8.42346E-05-7.33827E-18 1.06137E-17
 -1       161 1.21096E-05 1.38370E-05-1.48944E-05-2.32406E-05-8.13025E-18 4.97251E-18
 -1       162 8.41904E-06-3.84847E-05 4.36231E-06 2.11646E-05-9.59688E-18 4.04077E-18
 -1       163 2.86186E-05-9.60635E-05 1.72864E-05 2.53816E-05-8.97241E-18 2.07235E-18
 -1       164 9.48654E-05-1.23456E-05-3.55686E-05-2.23532E-05-1.88801E-18 3.04966E-18
 -1       165 8.92480E-05-8.45764E-06-3.47865E-05-1.73937E-05-2.00425E-18 5.26735E-19
 -1       166 8.65370E-05-6.49799E-06-3.44147E-05-1.35924E-05-1.86312E-18-1.06128E-18
 -1       167 8.51956E-05-5.51863E-06-3.42315E-05-1.03710E-05-1.59796E-18-1.97952E-18
 -1       168 8.44487E-05-4.94432E-06-3.41426E-05-7.54954E-06-1.25193E-18-2.46370E-18
 -1       169 8.40235E-05-4.60088E-06-3.41000E-05-4.90614E-06-9.63935E-19-2.81556E-18
 -1       170 8.38064E-05-4.41710E-06-3.40821E-05-2.39641E-06-6.39611E-19-2.97927E-18
 -1       171 8.37423E-05-4.36142E-06-3.40775E-05 5.11831E-08-3.72999E-19-3.12058E-18
 -1       172 8.38163E-05-4.42547E-06-3.40829E-05 2.50079E-06-4.38722E-20-3.19596E-18
 -1       173 8.40456E-05-4.62032E-06-3.41014E-05 5.01684E-06 2.33817E-19-3.18335E-18
 -1       174 8.44772E-05-4.97297E-06-3.41429E-05 7.62698E-06 6.32608E-19-3.05514E-18
 -1       175 8.52516E-05-5.57488E-06-3.42321E-05 1.05167E-05 1.10708E-18-2.79222E-18
 -1       176 8.66461E-05-6.60848E-06-3.44181E-05 1.37877E-05 1.48794E-18-2.33319E-18
 -1       177 8.93897E-05-8.59952E-06-3.47914E-05 1.76270E-05 1.85950E-18-1.16863E-18
 -1       178 9.57768E-05-1.36128E-05-3.54246E-05 2.18973E-05 1.95033E-18 1.16475E-18
 -1       179 1.05602E-04-2.61010E-05-3.52622E-05 1.86656E-05 1.61192E-18 4.45333E-18
 -1       180 1.03395E-04-2.73002E-05-3.26099E-05-1.21289E-05-1.55108E-18 5.55728E-18
 -1       181 9.71052E-05-2.82895E-05-2.95278E-05-4.73303E-06-1.36127E-18 4.58167E-18
 -1       182 9.35023E-05-2.76354E-05-2.81806E-05-1.77189E-06-1.02799E-18 3.75386E-18
 -1       183 9.19649E-05-2.74036E-05-2.76337E-05-4.24271E-07-7.64553E-19 3.09905E-18
 -1       184 9.13870E-05-2.73281E-05-2.74355E-05 2.39515E-07-3.72983E-19 2.63928E-18
 -1       185 9.13426E-05-2.73663E-05-2.74098E-05 5.64617E-07-4.18709E-19 2.40971E-18
 -1       186 9.15834E-05-2.74681E-05-2.74740E-05 7.02657E-07-3.90511E-19 2.25844E-18
 -1       187 9.19642E-05-2.75994E-05-2.75832E-05 7.33013E-07-4.67935E-19 2.12537E-18
 -1       188 9.23984E-05-2.77388E-05-2.77107E-05 7.01901E-07-6.36170E-19 1.90863E-18
 -1       189 9.28351E-05-2.78738E-05-2.78406E-05 6.38239E-07-4.61500E-19 1.59516E-18
 -1       190 9.32461E-05-2.79976E-05-2.79640E-05 5.60889E-07 8.88549E-20 6.63928E-19
 -1       191 9.36180E-05-2.81073E-05-2.80765E-05 4.82458E-07-1.99230E-19 6.86167E-19
 -1       192 9.39481E-05-2.82030E-05-2.81769E-05 4.11562E-07-2.80664E-19 7.82703E-19
 -1       193 9.42406E-05-2.82862E-05-2.82665E-05 3.54328E-07-4.00818E-19 5.29883E-19
 -1       194 9.45053E-05-2.83600E-05-2.83481E-05 3.15465E-07-4.95384E-19 8.52616E-19
 -1       195 9.47560E-05-2.84287E-05-2.84258E-05 2.99081E-07-1.97795E-19 6.90183E-19
 -1       196 9.50103E-05-2.84975E-05-2.85050E-05 3.09312E-07-1.12896E-19 1.89421E-19
 -1       197 9.52896E-05-2.85724E-05-2.85921E-05 3.50803E-07-3.95943E-19 5.38402E-20
 -1       198 9.56190E-05-2.86608E-05-2.86949E-05 4.29081E-07-3.71439E-19 1.01885E-19
 -1       199 9.60283E-05-2.87713E-05-2.88225E-05 5.50764E-07 3.21642E-19-2.42025E-19
 -1       200 9.65522E-05-2.89138E-05-2.89853E-05 7.23574E-07 3.24167E-19-3.21773E-19
 -1       201 9.72305E-05-2.91001E-05-2.91954E-05 9.56013E-07-4.76564E-20-8.71156E-19
 -1       202 9.81082E-05-2.93439E-05-2.94665E-05 1.25643E-06 5.26998E-19 6.18721E-19
 -1       203 9.92339E-05-2.96605E-05-2.98127E-05 1.63104E-06 5.57135E-19 5.43911E-19
 -1       204 1.00657E-04-3.00667E-05-3.02481E-05 2.08009E-06-1.14035E-19 3.29716E-19
 -1       205 1.02419E-04-3.05798E-05-3.07838E-05 2.59094E-06-4.72613E-19 3.98487E-19
 -1       206 1.04544E-04-3.12157E-05-3.14235E-05 3.12643E-06-7.64111E-19-4.94154E-20
 -1       207 1.07018E-04-3.19849E-05-3.21569E-05 3.60693E-06 6.37314E-20-7.93853E-19
 -1       208 1.09755E-04-3.28854E-05-3.29488E-05 3.88646E-06 3.79748E-19 7.32667E-20
 -1       209 1.12562E-04-3.38885E-05-3.37276E-05 3.72993E-06-2.40725E-19 4.34470E-19
 -1       210 1.15084E-04-3.49128E-05-3.43750E-05 2.81498E-06 3.09035E-20 1.04767E-18
 -1       211 1.16781E-04-3.57820E-05-3.47321E-05 8.09311E-07-3.48442E-19 1.32458E-18
 -1       212 1.16957E-04-3.61768E-05-3.46345E-05-2.40391E-06 8.49789E-19 9.51069E-19
 -1       213 1.14953E-04-3.56483E-05-3.39927E-05-6.33236E-06 1.48744E-18 1.58730E-18
 -1       214 1.10579E-04-3.38334E-05-3.28882E-05-9.53840E-06-4.33641E-20 1.13782E-18
 -1       215 1.04721E-04-3.09424E-05-3.16190E-05-9.94239E-06-2.06039E-18 1.22142E-18
 -1       216 9.95635E-05-2.81741E-05-3.06056E-05-6.25877E-06-7.11144E-19-3.14401E-19
 -1       217 9.75729E-05-2.71474E-05-3.01969E-05 3.18849E-07-8.43592E-19 9.03810E-19
 -1       218 9.96429E-05-2.84983E-05-3.04973E-05 6.36805E-06-1.68681E-18 3.84738E-20
 -1       219 1.04264E-04-3.11832E-05-3.13177E-05 8.86724E-06-3.85907E-19-3.35174E-20
 -1       220 1.08840E-04-3.35508E-05-3.22656E-05 7.40355E-06 5.48245E-19-9.46573E-19
 -1       221 1.11500E-04-3.46750E-05-3.29324E-05 3.68769E-06 2.84747E-18-1.60736E-19
 -1       222 1.11704E-04-3.45530E-05-3.30797E-05-2.55445E-07 1.00255E-18 1.66800E-18
 -1       223 1.09859E-04-3.36110E-05-3.26929E-05-3.20621E-06 1.24533E-18 2.48794E-18
 -1       224 1.06735E-04-3.22795E-05-3.19193E-05-4.79585E-06 2.91364E-19 3.78584E-18
 -1       225 1.03124E-04-3.08550E-05-3.09754E-05-5.09877E-06-7.82137E-19 2.57541E-18
 -1       226 9.96983E-05-2.95123E-05-3.00771E-05-4.28292E-06 2.37843E-19 1.60283E-18
 -1       227 9.69016E-05-2.83751E-05-2.93657E-05-2.51817E-06-3.41307E-19 1.13505E-18
 -1       228 9.94981E-05-2.85536E-05-3.05864E-05 7.21336E-06 1.65567E-18 3.76166E-18
 -1       229 9.44124E-05-2.77895E-05-2.85233E-05 2.74578E-06 1.20075E-18 2.66042E-18
 -1       230 9.20909E-05-2.73994E-05-2.76799E-05 9.31978E-07 8.48356E-19 1.94923E-18
 -1       231 9.11406E-05-2.72363E-05-2.73605E-05 7.01985E-08 5.18205E-19 1.32131E-18
 -1       232 9.09269E-05-2.72287E-05-2.72857E-05-3.57220E-07 4.34552E-19 8.15660E-19
 -1       233 9.11081E-05-2.73139E-05-2.73336E-05-5.57471E-07 1.64238E-19 4.44241E-19
 -1       234 9.14890E-05-2.74461E-05-2.74434E-05-6.30046E-07 3.62096E-19 1.17199E-19
 -1       235 9.19550E-05-2.75961E-05-2.75804E-05-6.29097E-07 3.32582E-19-5.03422E-20
 -1       236 9.24386E-05-2.77465E-05-2.77242E-05-5.87137E-07 3.11462E-19-5.18015E-19
 -1       237 9.29012E-05-2.78873E-05-2.78626E-05-5.24876E-07 4.06364E-19-5.99383E-19
 -1       238 9.33231E-05-2.80137E-05-2.79896E-05-4.55951E-07 5.18008E-19-6.51285E-19
 -1       239 9.36974E-05-2.81243E-05-2.81028E-05-3.89526E-07 2.60070E-20-5.54673E-19
 -1       240 9.40258E-05-2.82201E-05-2.82025E-05-3.31913E-07 1.61569E-19-9.31639E-19
 -1       241 9.43160E-05-2.83036E-05-2.82910E-05-2.87668E-07 4.36908E-19-1.11440E-18
 -1       242 9.45805E-05-2.83788E-05-2.83721E-05-2.60386E-07 4.44982E-19-1.39269E-18
 -1       243 9.48357E-05-2.84506E-05-2.84506E-05-2.53287E-07 4.15697E-21-2.15861E-18
 -1       244 9.51012E-05-2.85247E-05-2.85324E-05-2.69626E-07 1.98459E-19-1.85409E-18
 -1       245 9.54000E-05-2.86079E-05-2.86246E-05-3.12964E-07 2.23541E-19-2.05755E-18
 -1       246 9.57587E-05-2.87082E-05-2.87351E-05-3.87251E-07 5.77944E-19-2.51698E-18
 -1       247 9.62073E-05-2.88344E-05-2.88731E-05-4.96703E-07-2.30183E-19-2.55690E-18
 -1       248 9.67794E-05-2.89966E-05-2.90486E-05-6.45346E-07-6.43307E-20-2.44873E-18
 -1       249 9.75107E-05-2.92060E-05-2.92722E-05-8.36085E-07 1.12950E-19-2.45215E-18
 -1       250 9.84373E-05-2.94741E-05-2.95544E-05-1.06905E-06-4.20009E-19-3.13807E-18
 -1       251 9.95916E-05-2.98122E-05-2.99045E-05-1.33884E-06-1.03052E-18-2.48855E-18
 -1       252 1.00995E-04-3.02294E-05-3.03277E-05-1.63029E-06-1.03847E-19-1.65215E-18
 -1       253 1.02646E-04-3.07300E-05-3.08219E-05-1.91226E-06 1.56867E-18-1.92766E-18
 -1       254 1.04507E-04-3.13092E-05-3.13724E-05-2.12967E-06 9.19400E-19-1.73031E-18
 -1       255 1.06477E-04-3.19459E-05-3.19452E-05-2.19510E-06-1.70130E-18-1.75470E-18
 -1       256 1.08371E-04-3.25940E-05-3.24796E-05-1.98476E-06-3.87659E-19-1.68493E-18
 -1       257 1.09895E-04-3.31707E-05-3.28849E-05-1.34910E-06-5.21618E-19-1.91579E-18
 -1       258 1.10652E-04-3.35462E-05-3.30450E-05-1.55711E-07-1.08364E-18-7.44327E-19
 -1       259 1.10190E-04-3.35436E-05-3.28427E-05 1.61630E-06 5.51892E-19-1.26016E-18
 -1       260 1.08145E-04-3.29720E-05-3.22063E-05 3.73555E-06 1.17439E-18-9.13634E-19
 -1       261 1.04476E-04-3.17205E-05-3.11712E-05 5.60544E-06 7.45061E-19-3.26187E-19
 -1       262 9.97345E-05-2.99137E-05-2.99229E-05 6.34412E-06 8.78363E-19-1.08226E-18
 -1       263 9.51436E-05-2.80312E-05-2.87779E-05 5.22696E-06 5.68885E-19-1.21415E-18
 -1       264 9.22165E-05-2.67775E-05-2.80715E-05 2.28381E-06-1.62238E-18-3.46313E-18
 -1       265 9.20088E-05-2.67158E-05-2.80040E-05-1.41256E-06-9.89708E-19-2.25982E-18
 -1       266 9.44059E-05-2.78093E-05-2.85443E-05-4.28403E-06-8.93901E-20-2.58233E-19
 -1       267 9.81977E-05-2.94580E-05-2.94471E-05-5.28297E-06-1.35502E-18 1.31903E-18
 -1       268 1.01829E-04-3.09370E-05-3.03647E-05-4.40819E-06 2.05182E-19 8.79475E-19
 -1       269 1.04162E-04-3.17910E-05-3.10032E-05-2.42497E-06-1.12794E-20 8.01339E-20
 -1       270 1.04779E-04-3.19298E-05-3.12159E-05-2.42972E-07 2.21289E-18 1.07181E-19
 -1       271 1.03857E-04-3.14978E-05-3.10120E-05 1.49983E-06 1.29215E-18-1.24211E-18
 -1       272 1.01903E-04-3.07182E-05-3.05122E-05 2.50281E-06-7.94581E-20 3.06810E-19
 -1       273 9.95379E-05-2.98121E-05-2.98902E-05 2.68924E-06-4.08389E-19-1.03184E-18
 -1       274 9.73525E-05-2.89600E-05-2.93187E-05 2.08360E-06 7.64569E-19-2.19283E-18
 -1       275 9.57972E-05-2.83844E-05-2.88883E-05 8.72799E-07 7.06801E-20-2.31459E-18
 -1       276 9.53560E-05-2.73668E-05-2.91308E-05 1.69693E-06 1.48029E-19 1.31179E-18
 -1       277 9.46950E-05-2.54389E-05-2.96744E-05 3.14456E-06-2.94807E-21 2.56573E-18
 -1       278 9.37724E-05-2.27530E-05-3.04325E-05 4.32084E-06-2.16558E-19 2.70112E-18
 -1       279 9.26478E-05-1.94637E-05-3.13636E-05 5.06928E-06-6.84879E-19 1.69146E-18
 -1       280 9.13957E-05-1.59296E-05-3.23474E-05 5.22216E-06-6.99118E-19-1.93211E-18
 -1       281 9.01266E-05-1.24854E-05-3.32849E-05 4.60685E-06-9.88171E-19-2.95021E-18
 -1       282 8.90814E-05-9.75408E-06-3.40119E-05 3.16119E-06-2.94415E-18-3.12503E-18
 -1       283 8.84891E-05-8.26444E-06-3.43987E-05 1.04956E-06-4.58401E-19 1.17652E-18
 -1       284 8.85040E-05-8.35428E-06-3.43666E-05-1.34239E-06-1.59456E-18 2.14730E-18
 -1       285 8.91396E-05-1.00456E-05-3.39115E-05-3.52435E-06-1.72228E-18-2.96858E-18
 -1       286 9.02374E-05-1.29705E-05-3.31234E-05-5.05175E-06-9.19380E-19-3.36002E-18
 -1       287 9.16189E-05-1.67064E-05-3.21085E-05-5.73758E-06-2.49939E-18 3.24551E-19
 -1       288 9.30399E-05-2.05979E-05-3.10439E-05-5.50321E-06-2.63147E-18 2.87777E-18
 -1       289 9.43696E-05-2.41105E-05-3.01028E-05-4.34285E-06-1.95583E-18 2.36183E-18
 -1       290 9.56312E-05-2.64472E-05-2.96385E-05-3.88050E-06-1.44135E-18 9.23837E-19
 -1       291 1.35834E-05-5.28317E-05 1.31753E-05 6.92493E-06 7.89064E-19 2.12796E-18
 -1       292 2.79303E-05-4.55046E-05 4.98603E-06 2.43284E-05 2.67218E-18 4.61495E-18
 -1       293 5.34102E-05-3.83763E-05-8.28992E-06 3.46737E-05 4.94773E-18 4.81242E-18
 -1       294 9.07491E-05-3.18463E-05-2.55703E-05 4.54266E-05 5.14276E-18 6.87071E-18
 -1       295 1.37041E-04-3.40105E-05-4.31409E-05 4.40628E-05 4.49171E-18 5.46548E-18
 -1       296 1.72719E-04-3.30999E-05-5.81410E-05 2.77394E-05 3.89633E-18 1.67289E-18
 -1       297 2.07630E-04-3.60508E-05-6.99491E-05 2.06508E-05 4.54634E-18 1.29045E-18
 -1       298 2.14743E-04-3.75708E-05-7.20998E-05-4.15945E-06 4.77568E-18-2.09773E-19
 -1       299 1.94761E-04-3.40886E-05-6.58603E-05-2.57598E-05 4.76721E-18-3.54822E-18
 -1       300 1.61548E-04-3.15463E-05-5.36258E-05-4.35209E-05 5.00035E-18-6.76165E-18
 -1       301 1.17096E-04-2.95868E-05-3.68852E-05-4.74497E-05 6.82687E-18-7.13159E-18
 -1       302 7.35449E-05-3.24302E-05-1.85917E-05-4.07459E-05 7.67158E-18-7.05928E-18
 -1       303 4.26329E-05-4.07851E-05-2.71304E-06-3.15823E-05 6.50415E-18-4.84776E-18
 -1       304 1.86323E-05-4.62364E-05 8.90095E-06-1.59932E-05 2.73433E-18-5.11523E-18
 -1       305 1.14889E-05-5.20186E-05 1.37124E-05-1.38165E-06 7.46011E-19-4.31394E-18
 -1       306 1.72115E-05-4.91161E-05 1.02966E-05 1.16062E-05-2.08243E-18-4.27402E-18
 -1       307 4.01105E-05-4.20026E-05-1.25303E-06 2.92893E-05-4.52824E-18-7.95984E-18
 -1       308 7.25890E-05-3.70332E-05-1.63201E-05 3.89026E-05-7.23176E-18-6.31495E-18
 -1       309 1.17305E-04-3.87901E-05-3.34938E-05 4.09770E-05-6.90141E-18-4.82343E-18
 -1       310 1.56797E-04-3.39475E-05-5.10253E-05 3.98820E-05-4.86864E-18-7.95978E-18
 -1       311 1.94941E-04-3.59634E-05-6.49982E-05 2.97671E-05-4.17651E-18-6.06793E-18
 -1       312 2.11188E-04-3.57675E-05-7.16424E-05 6.72975E-06-3.99058E-18-3.23514E-18
 -1       313 2.04250E-04-3.29947E-05-7.02511E-05-1.42384E-05-4.89034E-18 5.75771E-19
 -1       314 1.84025E-04-3.39663E-05-6.17128E-05-3.40889E-05-3.67107E-18 4.17015E-18
 -1       315 1.45520E-04-3.64375E-05-4.56841E-05-3.99549E-05-2.27587E-18 3.07918E-18
 -1       316 9.93928E-05-3.73120E-05-2.68457E-05-4.44766E-05-2.02060E-18 3.92875E-18
 -1       317 5.59446E-05-4.02026E-05-8.48968E-06-3.59354E-05-2.39499E-18 9.96746E-19
 -1       318 2.63565E-05-4.74045E-05 5.88012E-06-2.02669E-05-2.76090E-18 1.79772E-18
 -1       319 1.35609E-05-5.31609E-05 1.32269E-05-6.20037E-06-9.52065E-19 3.95130E-18
 -1       320 9.16496E-05-1.43975E-05-3.31710E-05-1.30677E-05-2.17879E-18 1.36941E-19
 -1       321 9.56979E-05-1.91000E-05-3.28908E-05-1.46348E-05-2.15914E-18 1.71833E-18
 -1       322 8.80005E-05-1.03731E-05-3.33241E-05-8.16630E-06-1.71659E-18-1.51985E-18
 -1       323 8.71947E-05-9.45832E-06-3.33640E-05-5.72226E-06-1.33206E-18-1.86003E-18
 -1       324 8.67359E-05-8.92815E-06-3.33911E-05-3.36888E-06-9.12522E-19-2.12199E-18
 -1       325 8.65314E-05-8.68839E-06-3.34048E-05-1.07310E-06-5.76990E-19-2.43652E-18
 -1       326 8.65399E-05-8.69780E-06-3.34045E-05 1.20416E-06-2.43808E-19-2.41696E-18
 -1       327 8.67629E-05-8.95832E-06-3.33900E-05 3.50190E-06 5.83447E-20-2.43210E-18
 -1       328 8.72335E-05-9.50167E-06-3.33623E-05 5.81782E-06 5.27057E-19-2.33878E-18
 -1       329 8.80705E-05-1.04522E-05-3.33204E-05 8.25790E-06 1.08554E-18-1.96434E-18
 -1       330 8.94831E-05-1.20341E-05-3.32590E-05 1.07674E-05 1.58737E-18-1.75725E-18
 -1       331 9.19008E-05-1.47221E-05-3.31577E-05 1.31728E-05 1.95531E-18-1.15993E-18
 -1       332 9.58024E-05-1.94567E-05-3.28274E-05 1.43793E-05 2.12934E-18 2.44250E-19
 -1       333 9.87888E-05-2.44435E-05-3.19504E-05 1.19010E-05 2.01512E-18 1.63706E-18
 -1       334 9.63869E-05-2.68115E-05-2.97885E-05 5.74443E-06 1.66171E-18 1.19645E-18
 -1       335 9.64345E-05-2.60285E-05-3.01296E-05-6.35473E-06-1.71363E-18 1.89759E-18
 -1       336 9.49135E-05-2.70265E-05-2.90690E-05-2.84027E-06-1.25731E-18 1.60478E-18
 -1       337 9.39366E-05-2.74243E-05-2.84905E-05-9.27077E-07-9.58103E-19 1.46398E-18
 -1       338 9.34162E-05-2.76370E-05-2.81844E-05 1.31585E-07-5.35231E-19 1.02915E-18
 -1       339 9.32225E-05-2.77895E-05-2.80399E-05 6.95287E-07-4.86516E-19 8.13387E-19
 -1       340 9.32379E-05-2.79182E-05-2.79932E-05 9.62561E-07-4.99935E-19 5.73659E-19
 -1       341 9.33759E-05-2.80319E-05-2.80045E-05 1.05089E-06-5.05181E-19 3.63341E-19
 -1       342 9.35776E-05-2.81319E-05-2.80486E-05 1.03373E-06-5.77182E-19 3.78621E-19
 -1       343 9.38048E-05-2.82178E-05-2.81093E-05 9.58993E-07-8.01893E-19 4.55198E-19
 -1       344 9.40347E-05-2.82901E-05-2.81769E-05 8.58787E-07-9.19046E-20 2.99687E-19
 -1       345 9.42552E-05-2.83495E-05-2.82459E-05 7.55105E-07-3.50534E-19 7.11437E-20
 -1       346 9.44621E-05-2.83977E-05-2.83138E-05 6.63401E-07-4.23535E-19 3.03528E-19
 -1       347 9.46569E-05-2.84369E-05-2.83804E-05 5.95052E-07-3.04283E-19 6.07842E-19
 -1       348 9.48453E-05-2.84694E-05-2.84470E-05 5.59143E-07-2.74892E-19 4.97600E-19
 -1       349 9.50367E-05-2.84981E-05-2.85164E-05 5.63800E-07-6.26900E-19 5.79724E-19
 -1       350 9.52431E-05-2.85262E-05-2.85924E-05 6.17195E-07-6.07009E-19-1.94782E-19
 -1       351 9.54797E-05-2.85574E-05-2.86801E-05 7.28281E-07-2.64437E-19-6.23470E-20
 -1       352 9.57643E-05-2.85959E-05-2.87851E-05 9.07251E-07 3.87681E-20 1.91252E-19
 -1       353 9.61178E-05-2.86469E-05-2.89142E-05 1.16566E-06 3.61439E-20-2.62229E-19
 -1       354 9.65636E-05-2.87167E-05-2.90748E-05 1.51610E-06 7.68451E-22-7.47352E-20
 -1       355 9.71285E-05-2.88135E-05-2.92748E-05 1.97106E-06 6.56581E-19 2.21022E-19
 -1       356 9.78411E-05-2.89482E-05-2.95218E-05 2.54063E-06 4.24515E-19-7.20550E-19
 -1       357 9.87323E-05-2.91364E-05-2.98225E-05 3.22813E-06-2.63521E-19-9.98353E-19
 -1       358 9.98334E-05-2.94007E-05-3.01808E-05 4.02241E-06 6.06427E-20-1.51432E-18
 -1       359 1.01176E-04-2.97753E-05-3.05958E-05 4.88532E-06-3.30778E-19-1.25766E-18
 -1       360 1.02788E-04-3.03116E-05-3.10582E-05 5.73220E-06-3.47757E-19-4.95866E-19
 -1       361 1.04695E-04-3.10845E-05-3.15475E-05 6.40476E-06 8.66515E-19-3.15213E-19
 -1       362 1.06915E-04-3.21901E-05-3.20300E-05 6.63940E-06 5.88948E-19 5.25698E-20
 -1       363 1.09434E-04-3.37198E-05-3.24617E-05 6.04579E-06 2.72055E-19 1.12489E-18
 -1       364 1.12161E-04-3.56735E-05-3.28013E-05 4.13441E-06 4.27216E-19 2.79067E-18
 -1       365 1.14802E-04-3.77755E-05-3.30380E-05 4.72860E-07 3.74003E-19 4.59587E-18
 -1       366 1.16689E-04-3.92215E-05-3.32261E-05-4.91631E-06 1.08952E-18 3.30397E-18
 -1       367 1.16757E-04-3.86537E-05-3.34947E-05-1.08864E-05-3.46814E-19 2.83522E-18
 -1       368 1.14133E-04-3.49510E-05-3.39563E-05-1.47159E-05-1.11108E-18 1.81838E-18
 -1       369 1.09503E-04-2.89843E-05-3.45398E-05-1.30135E-05-2.40013E-18 1.79261E-18
 -1       370 1.05843E-04-2.45019E-05-3.49029E-05-4.95120E-06-3.89212E-19 4.13422E-19
 -1       371 1.06130E-04-2.52300E-05-3.47082E-05 5.42095E-06-1.00783E-18 5.17046E-20
 -1       372 1.09732E-04-3.04042E-05-3.40245E-05 1.18983E-05 6.78553E-20 1.11495E-18
 -1       373 1.13334E-04-3.58404E-05-3.32309E-05 1.17046E-05-7.30614E-19 3.29842E-18
 -1       374 1.14494E-04-3.84633E-05-3.26065E-05 6.79679E-06-5.70953E-20 2.61883E-18
 -1       375 1.13090E-04-3.81083E-05-3.21621E-05 6.29414E-07 3.20653E-18 8.14289E-19
 -1       376 1.10160E-04-3.60838E-05-3.17727E-05-4.43320E-06 2.30656E-18 2.17969E-18
 -1       377 1.06696E-04-3.35966E-05-3.13450E-05-7.52866E-06 1.43193E-18 2.80880E-18
 -1       378 1.03269E-04-3.12453E-05-3.08730E-05-8.66554E-06-1.89796E-18 4.64039E-18
 -1       379 1.00149E-04-2.91744E-05-3.04122E-05-8.13834E-06-1.66220E-18 3.39529E-18
 -1       380 9.77615E-05-2.76708E-05-3.00248E-05-6.40656E-06-4.76528E-19 3.44848E-18
 -1       381 9.43658E-05-2.73400E-05-2.86871E-05 2.47242E-06 1.30061E-18 1.01567E-18
 -1       382 9.31579E-05-2.74594E-05-2.81346E-05 7.47875E-07 8.55557E-19 5.22164E-19
 -1       383 9.26021E-05-2.75366E-05-2.78753E-05-1.72494E-07 6.13361E-19 1.18011E-19
 -1       384 9.24581E-05-2.76284E-05-2.77800E-05-6.47422E-07 3.64283E-19-1.27660E-19
 -1       385 9.25582E-05-2.77369E-05-2.77790E-05-8.64835E-07 3.36473E-19-9.46733E-20
 -1       386 9.27913E-05-2.78521E-05-2.78307E-05-9.29890E-07 5.51568E-19-9.19578E-20
 -1       387 9.30862E-05-2.79652E-05-2.79092E-05-9.06317E-07 6.44907E-19-3.04242E-19
 -1       388 9.33987E-05-2.80701E-05-2.79985E-05-8.34833E-07 2.62567E-19-3.41717E-19
 -1       389 9.37031E-05-2.81635E-05-2.80891E-05-7.42375E-07 3.99609E-19-6.72469E-19
 -1       390 9.39868E-05-2.82446E-05-2.81759E-05-6.47167E-07 2.10105E-19-5.00776E-19
 -1       391 9.42459E-05-2.83140E-05-2.82571E-05-5.61832E-07 3.80416E-19-8.02805E-19
 -1       392 9.44831E-05-2.83736E-05-2.83330E-05-4.95472E-07 4.71173E-19-9.53399E-19
 -1       393 9.47056E-05-2.84262E-05-2.84057E-05-4.55136E-07 6.73266E-19-1.01073E-18
 -1       394 9.49248E-05-2.84753E-05-2.84783E-05-4.46880E-07 6.00649E-19-1.29100E-18
 -1       395 9.51550E-05-2.85250E-05-2.85553E-05-4.76515E-07 2.78694E-19-1.56455E-18
 -1       396 9.54134E-05-2.85804E-05-2.86419E-05-5.50071E-07 8.46518E-19-2.17758E-18
 -1       397 9.57203E-05-2.86471E-05-2.87445E-05-6.73962E-07 3.24667E-19-2.68537E-18
 -1       398 9.60985E-05-2.87319E-05-2.88697E-05-8.54769E-07 1.44029E-20-1.55683E-18
 -1       399 9.65734E-05-2.88429E-05-2.90252E-05-1.09851E-06 3.66315E-20-1.64911E-18
 -1       400 9.71721E-05-2.89895E-05-2.92186E-05-1.40917E-06 6.58019E-19-2.11059E-18
 -1       401 9.79223E-05-2.91828E-05-2.94569E-05-1.78614E-06-2.04817E-19-1.89338E-18
 -1       402 9.88493E-05-2.94360E-05-2.97455E-05-2.22004E-06-1.46797E-18-1.57896E-18
 -1       403 9.99729E-05-2.97640E-05-3.00868E-05-2.68655E-06-7.55597E-19-1.23608E-18
 -1       404 1.01300E-04-3.01836E-05-3.04767E-05-3.13756E-06 8.49761E-19-1.17052E-18
 -1       405 1.02819E-04-3.07118E-05-3.09027E-05-3.49006E-06 1.31670E-18 5.77913E-19
 -1       406 1.04481E-04-3.13617E-05-3.13395E-05-3.61487E-06-7.57625E-19-1.43473E-19
 -1       407 1.06193E-04-3.21320E-05-3.17470E-05-3.33141E-06-5.00835E-19-1.58016E-18
 -1       408 1.07791E-04-3.29857E-05-3.20705E-05-2.42201E-06-6.73868E-19-1.51189E-18
 -1       409 1.09025E-04-3.38135E-05-3.22480E-05-6.88572E-07-1.34056E-18-1.56137E-18
 -1       410 1.09549E-04-3.43885E-05-3.22272E-05 1.92072E-06 2.42460E-19-1.96972E-18
 -1       411 1.08967E-04-3.43523E-05-3.19905E-05 5.11300E-06-1.79397E-19-1.15294E-18
 -1       412 1.06988E-04-3.33205E-05-3.15786E-05 8.06473E-06 7.63565E-19 2.88190E-19
 -1       413 1.03728E-04-3.11832E-05-3.10874E-05 9.47501E-06 8.28852E-19 1.78371E-18
 -1       414 1.00035E-04-2.85130E-05-3.06419E-05 8.15171E-06 4.42765E-19 2.39091E-18
 -1       415 9.73080E-05-2.64690E-05-3.03481E-05 3.96205E-06-3.85433E-20 1.61177E-19
 -1       416 9.68221E-05-2.62362E-05-3.02371E-05-1.60340E-06-9.08949E-19-9.71587E-19
 -1       417 9.86402E-05-2.78937E-05-3.03020E-05-6.07534E-06-2.16707E-18-8.72662E-19
 -1       418 1.01586E-04-3.03819E-05-3.05053E-05-7.73553E-06-1.66782E-18 8.08612E-19
 -1       419 1.04170E-04-3.24273E-05-3.07482E-05-6.49999E-06-1.83404E-19 9.97323E-19
 -1       420 1.05458E-04-3.33522E-05-3.09148E-05-3.52320E-06 9.77132E-20 2.13911E-18
 -1       421 1.05283E-04-3.31888E-05-3.09148E-05-2.03584E-07 1.40228E-18 1.70981E-18
 -1       422 1.03956E-04-3.23101E-05-3.07211E-05 2.47505E-06 6.51167E-19 4.19825E-18
 -1       423 1.01937E-04-3.10874E-05-3.03732E-05 4.05267E-06-2.69263E-19 3.62837E-18
 -1       424 9.96696E-05-2.97844E-05-2.99528E-05 4.41934E-06 1.45244E-18 3.12821E-18
 -1       425 9.75208E-05-2.85802E-05-2.95435E-05 3.65991E-06 1.73898E-18 1.34540E-18
 -1       426 9.63323E-05-2.78780E-05-2.93315E-05 2.82108E-06 5.24324E-19 1.59698E-18
 -1       427 9.44919E-05-2.33288E-05-3.04927E-05 7.88983E-06-8.13448E-19 7.41893E-19
 -1       428 9.55679E-05-2.55230E-05-3.00100E-05 6.36060E-06 1.12873E-18 3.43276E-18
 -1       429 9.60251E-05-2.67767E-05-2.96677E-05 4.61348E-06 1.10726E-18 1.61193E-18
 -1       430 9.30804E-05-2.07320E-05-3.10073E-05 8.68628E-06-2.79517E-18-1.59390E-18
 -1       431 9.13635E-05-1.78596E-05-3.15085E-05 8.37168E-06-1.49689E-18-8.79300E-19
 -1       432 8.96280E-05-1.51763E-05-3.19209E-05 6.67917E-06 2.04972E-19-4.40485E-18
 -1       433 8.82910E-05-1.32303E-05-3.21862E-05 3.66284E-06-1.04532E-19-3.09599E-19
 -1       434 8.77572E-05-1.25119E-05-3.22671E-05-2.03232E-07-1.22905E-18 1.92604E-18
 -1       435 8.82155E-05-1.32358E-05-3.21518E-05-4.12793E-06-1.52454E-18-3.06633E-19
 -1       436 8.95049E-05-1.51909E-05-3.18620E-05-7.24432E-06-1.16943E-18-3.37115E-18
 -1       437 9.13183E-05-1.79948E-05-3.14308E-05-9.10019E-06 3.31953E-19-5.16126E-19
 -1       438 9.32466E-05-2.10772E-05-3.09276E-05-9.45806E-06 1.17812E-18 1.78569E-18
 -1       439 9.50395E-05-2.40029E-05-3.04312E-05-8.46456E-06-1.60457E-18 1.40031E-18
 -1       440 6.10266E-05-4.47294E-05-7.12015E-06 4.45528E-05 3.66342E-20 5.15081E-18
 -1       441 1.24492E-05-2.58682E-05 5.41824E-06 3.22548E-07-1.54300E-18 5.02291E-18
 -1       442 2.52228E-05-2.87715E-05 1.49864E-06 2.71768E-05 1.14561E-18 3.24488E-18
 -1       443 9.98424E-05-5.50283E-05-1.92744E-05 4.29323E-05 1.52275E-18 3.35859E-18
 -1       444 1.31072E-04-5.46604E-05-3.27505E-05 3.06912E-05 1.30178E-18 1.56574E-18
 -1       445 8.94242E-05-1.19269E-05-3.32756E-05-1.07639E-05-2.00323E-18-9.69055E-19
 -1       446 1.57252E-04-2.17455E-05-5.80663E-05-4.36197E-07 4.02468E-18-1.59179E-18
 -1       447 1.63259E-04-1.43494E-05-6.34654E-05 9.37494E-07 4.27466E-18-1.55378E-19
 -1       448 1.62269E-04-1.69481E-05-6.19618E-05 1.94703E-06 5.85279E-18 1.52175E-18
 -1       449 1.56687E-04-3.21750E-05-5.33247E-05-1.07434E-06 4.04225E-18 3.80847E-19
 -1       450 1.46637E-04-4.85645E-05-4.20027E-05-1.50819E-05 3.42990E-18-1.05477E-18
 -1       451 1.20402E-04-5.51026E-05-2.80290E-05-3.35747E-05 4.41114E-18-2.55158E-18
 -1       452 8.36589E-05-5.00495E-05-1.45003E-05-4.36123E-05 2.77679E-18-4.40404E-18
 -1       453 4.26593E-05-3.53315E-05-3.11204E-06-3.87571E-05-6.07640E-19-4.03733E-18
 -1       454 1.53969E-05-2.48421E-05 3.85531E-06-1.58023E-05-8.32792E-19-5.81382E-18
 -1       455 1.40177E-05-2.58858E-05 4.75685E-06 1.21599E-05-2.97997E-19-3.74198E-18
 -1       456 3.82186E-05-3.40713E-05-1.80249E-06 3.52605E-05-3.95988E-20-7.81017E-18
 -1       457 7.93732E-05-4.98197E-05-1.27540E-05 4.25891E-05-1.64356E-18-5.47744E-18
 -1       458 1.15607E-04-5.73744E-05-2.50715E-05 3.44281E-05-3.31836E-18-2.16263E-18
 -1       459 1.46984E-04-5.26345E-05-4.04194E-05 1.31027E-05-3.15729E-18-4.13352E-18
 -1       460 1.60035E-04-3.57837E-05-5.30479E-05 2.27712E-06-4.02357E-18-3.42360E-18
 -1       461 1.65636E-04-2.11962E-05-6.15099E-05-2.31460E-06-4.54243E-18-1.84696E-18
 -1       462 1.58227E-04-1.24670E-05-6.24144E-05-1.23823E-06-5.36606E-18-1.47764E-18
 -1       463 1.57413E-04-2.26833E-05-5.78292E-05 2.86519E-06-6.05734E-18-1.43614E-18
 -1       464 1.57122E-04-4.02647E-05-5.00081E-05-3.99037E-06-8.55397E-19 2.32722E-18
 -1       465 1.38326E-04-5.77926E-05-3.45741E-05-2.42501E-05-5.15843E-19 1.54234E-18
 -1       466 1.02051E-04-5.65462E-05-1.95778E-05-4.21820E-05 1.24884E-18 1.03200E-18
 -1       467 5.98515E-05-4.36526E-05-6.97044E-06-4.42147E-05 8.91185E-19-4.89532E-19
 -1       468 2.64381E-05-2.92383E-05 1.19413E-06-2.81156E-05 1.94463E-18 2.27386E-18
 -1       469 1.52109E-04-4.45455E-05-4.60883E-05 1.06053E-05 2.47545E-18-2.66530E-18
 -1       470 1.46344E-04-3.32567E-05-4.88813E-05-6.96468E-06 2.27555E-18-2.07232E-18
 -1       471 9.58169E-05-2.51480E-05-3.02724E-05 6.02243E-06 1.56867E-18-1.85559E-19
 -1       472 8.95458E-05-1.34054E-05-3.26504E-05-3.92642E-06-9.92991E-19-1.77579E-18
 -1       473 9.02529E-05-1.43693E-05-3.25417E-05-5.88258E-06-1.30204E-18-1.38690E-18
 -1       474 8.90496E-05-1.27259E-05-3.27279E-05 5.47326E-08-4.07232E-19-2.17679E-18
 -1       475 8.91843E-05-1.29091E-05-3.27074E-05 2.04718E-06-1.36223E-19-2.25605E-18
 -1       476 8.95778E-05-1.34459E-05-3.26471E-05 4.00105E-06 1.79541E-19-2.00171E-18
 -1       477 9.02999E-05-1.44319E-05-3.25360E-05 5.95587E-06 7.47759E-19-1.72694E-18
 -1       478 9.14458E-05-1.60096E-05-3.23529E-05 7.78446E-06 1.19942E-18-1.58327E-18
 -1       479 9.32317E-05-1.84793E-05-3.20569E-05 9.30000E-06 1.66584E-18-1.30669E-18
 -1       480 9.51083E-05-2.65768E-05-2.93527E-05 2.87939E-06 1.21080E-18-2.83206E-19
 -1       481 9.54788E-05-2.44339E-05-3.04380E-05-5.82525E-06-1.56038E-18 6.19429E-19
 -1       482 1.41919E-04-5.74787E-05-3.63571E-05 9.53672E-06 8.63279E-19-3.06933E-18
 -1       483 9.52699E-05-2.62228E-05-2.95834E-05-2.90243E-06-1.17265E-18 5.29588E-19
 -1       484 9.49139E-05-2.71614E-05-2.90329E-05-1.03839E-06-9.47366E-19 3.61693E-19
 -1       485 9.46374E-05-2.76925E-05-2.86890E-05 8.44792E-08-8.04341E-19 1.29254E-19
 -1       486 9.44807E-05-2.80179E-05-2.84835E-05 7.19727E-07-7.03008E-19-3.88149E-20
 -1       487 9.44255E-05-2.82280E-05-2.83703E-05 1.03904E-06-6.41695E-19-4.51426E-19
 -1       488 9.44420E-05-2.83668E-05-2.83181E-05 1.15820E-06-5.18651E-19-5.05847E-19
 -1       489 9.45033E-05-2.84579E-05-2.83055E-05 1.15609E-06-5.95297E-19-5.12166E-19
 -1       490 9.45896E-05-2.85152E-05-2.83179E-05 1.08703E-06-5.07142E-19-1.70023E-19
 -1       491 9.46875E-05-2.85476E-05-2.83460E-05 9.88808E-07-1.49911E-19-2.06110E-19
 -1       492 9.47896E-05-2.85614E-05-2.83838E-05 8.88081E-07-1.01416E-19 6.96957E-21
 -1       493 9.48925E-05-2.85607E-05-2.84281E-05 8.04162E-07-2.55786E-19 2.56922E-19
 -1       494 9.49962E-05-2.85484E-05-2.84777E-05 7.51754E-07-4.22582E-19 1.57876E-19
 -1       495 9.51033E-05-2.85267E-05-2.85328E-05 7.42993E-07-5.34888E-19 2.42847E-19
 -1       496 9.52186E-05-2.84967E-05-2.85950E-05 7.88984E-07-9.94737E-19 3.08061E-19
 -1       497 9.53482E-05-2.84593E-05-2.86664E-05 9.00913E-07-2.67489E-19 4.09823E-19
 -1       498 9.55001E-05-2.84149E-05-2.87503E-05 1.09079E-06-4.68352E-19-2.47444E-19
 -1       499 9.56832E-05-2.83646E-05-2.88502E-05 1.37182E-06-2.63575E-19-1.01812E-18
 -1       500 9.59081E-05-2.83097E-05-2.89698E-05 1.75824E-06 7.16835E-20-1.07118E-18
 -1       501 9.61863E-05-2.82537E-05-2.91128E-05 2.26454E-06 6.17912E-19-8.98206E-19
 -1       502 9.65312E-05-2.82033E-05-2.92819E-05 2.90369E-06 1.52455E-20-6.44130E-19
 -1       503 9.69586E-05-2.81715E-05-2.94784E-05 3.68388E-06-4.47156E-19-1.40795E-18
 -1       504 9.74893E-05-2.81827E-05-2.97008E-05 4.60297E-06-3.49114E-19-1.62678E-18
 -1       505 9.81538E-05-2.82804E-05-2.99436E-05 5.63970E-06-2.92127E-19-1.61996E-18
 -1       506 9.90013E-05-2.85400E-05-3.01959E-05 6.74001E-06 1.70139E-19-6.19831E-19
 -1       507 1.00115E-04-2.90837E-05-3.04408E-05 7.79711E-06 4.06107E-19-7.03464E-19
 -1       508 1.01631E-04-3.00959E-05-3.06587E-05 8.62354E-06 2.71045E-19-8.44380E-19
 -1       509 1.03758E-04-3.18181E-05-3.08353E-05 8.91522E-06 1.65746E-18 5.54483E-19
 -1       510 1.06757E-04-3.44852E-05-3.09822E-05 8.21432E-06 1.44391E-18 1.78909E-18
 -1       511 1.10822E-04-3.81189E-05-3.11711E-05 5.90205E-06 1.20133E-18 2.28140E-18
 -1       512 1.15758E-04-4.20994E-05-3.15826E-05 1.32721E-06 7.19681E-19 3.89719E-18
 -1       513 1.20431E-04-4.45688E-05-3.25296E-05-5.65528E-06 2.25439E-19 4.25938E-18
 -1       514 1.22468E-04-4.24618E-05-3.43484E-05-1.34330E-05-1.21378E-18 5.01244E-18
 -1       515 1.19969E-04-3.40211E-05-3.69519E-05-1.75411E-05-1.35028E-18 5.50925E-18
 -1       516 1.13932E-04-2.24691E-05-3.94745E-05-1.26612E-05-2.55740E-18 5.61626E-18
 -1       517 1.11904E-04-1.85810E-05-4.02663E-05 5.65376E-07-1.92985E-18 3.57045E-18
 -1       518 1.15480E-04-2.55888E-05-3.87090E-05 1.20330E-05-1.90705E-18 9.25724E-19
 -1       519 1.20255E-04-3.67215E-05-3.59123E-05 1.41502E-05 5.35153E-19-1.14635E-18
 -1       520 1.21215E-04-4.35474E-05-3.33228E-05 8.34647E-06-3.05719E-19-5.45602E-19
 -1       521 1.17810E-04-4.39744E-05-3.16602E-05 3.19020E-07 1.66189E-18 1.87741E-18
 -1       522 1.12512E-04-4.06389E-05-3.08199E-05-6.17621E-06 2.36096E-18 3.47437E-19
 -1       523 1.07351E-04-3.63184E-05-3.04540E-05-1.00916E-05 2.06114E-18-4.55000E-19
 -1       524 1.03106E-04-3.23836E-05-3.03143E-05-1.16745E-05 1.92235E-18 3.17604E-19
 -1       525 9.98149E-05-2.91638E-05-3.02770E-05-1.13967E-05-1.03530E-18 3.44736E-18
 -1       526 9.41370E-05-2.76850E-05-2.84760E-05-1.13580E-07 6.36553E-19-4.04717E-19
 -1       527 9.39601E-05-2.79310E-05-2.82969E-05-7.23238E-07 5.28009E-19-5.22530E-19
 -1       528 9.39298E-05-2.81012E-05-2.82119E-05-1.02215E-06 5.33088E-19-4.23136E-19
 -1       529 9.39938E-05-2.82257E-05-2.81865E-05-1.12806E-06 5.74640E-19-3.90688E-19
 -1       530 9.41120E-05-2.83183E-05-2.81977E-05-1.11833E-06 4.56542E-19 3.87085E-20
 -1       531 9.42566E-05-2.83869E-05-2.82304E-05-1.04508E-06 3.78339E-19 1.47130E-19
 -1       532 9.44101E-05-2.84363E-05-2.82750E-05-9.44035E-07 6.06166E-19 2.02026E-20
 -1       533 9.45628E-05-2.84703E-05-2.83258E-05-8.40017E-07 5.32560E-19-6.28201E-19
 -1       534 9.47110E-05-2.84921E-05-2.83799E-05-7.50735E-07 6.85746E-19-9.29408E-19
 -1       535 9.48554E-05-2.85042E-05-2.84364E-05-6.89369E-07 3.39701E-19-1.08032E-18
 -1       536 9.50000E-05-2.85091E-05-2.84961E-05-6.66465E-07 5.72043E-19-1.93947E-19
 -1       537 9.51514E-05-2.85091E-05-2.85609E-05-6.91281E-07 4.67412E-19-6.07416E-19
 -1       538 9.53187E-05-2.85066E-05-2.86334E-05-7.72684E-07 1.14531E-18-5.38732E-19
 -1       539 9.55130E-05-2.85045E-05-2.87173E-05-9.19627E-07 3.62292E-19-2.43574E-19
 -1       540 9.57470E-05-2.85064E-05-2.88166E-05-1.14115E-06-7.33643E-19-1.27260E-19
 -1       541 9.60359E-05-2.85173E-05-2.89354E-05-1.44576E-06 1.35395E-19-1.37842E-19
 -1       542 9.63963E-05-2.85448E-05-2.90778E-05-1.84010E-06 6.18386E-19-3.58633E-19
 -1       543 9.68469E-05-2.85996E-05-2.92471E-05-2.32638E-06-1.59341E-20 4.60472E-19
 -1       544 9.74084E-05-2.86982E-05-2.94453E-05-2.89843E-06-7.30071E-19 3.82870E-19
 -1       545 9.81036E-05-2.88648E-05-2.96718E-05-3.53561E-06-3.00407E-19-1.55350E-18
 -1       546 9.89583E-05-2.91350E-05-2.99227E-05-4.19418E-06 4.40892E-19-2.30293E-18
 -1       547 1.00002E-04-2.95586E-05-3.01891E-05-4.79590E-06 5.92836E-19-1.93928E-18
 -1       548 1.01267E-04-3.02007E-05-3.04576E-05-5.21446E-06-4.42552E-19-1.08889E-18
 -1       549 1.02786E-04-3.11344E-05-3.07107E-05-5.26313E-06-1.08480E-19-6.98303E-19
 -1       550 1.04575E-04-3.24148E-05-3.09317E-05-4.69189E-06-3.52702E-19-8.97770E-19
 -1       551 1.06596E-04-3.40195E-05-3.11137E-05-3.21104E-06-6.60561E-19-7.16955E-19
 -1       552 1.08680E-04-3.57386E-05-3.12724E-05-5.74063E-07-4.66284E-19-1.38036E-18
 -1       553 1.10418E-04-3.70439E-05-3.14577E-05 3.23078E-06-8.23931E-19-5.26144E-19
 -1       554 1.11131E-04-3.70650E-05-3.17504E-05 7.67006E-06 1.38482E-19 2.04411E-19
 -1       555 1.10071E-04-3.49114E-05-3.22204E-05 1.13679E-05 6.12583E-20 1.08951E-18
 -1       556 1.07192E-04-3.06208E-05-3.28173E-05 1.21731E-05 3.58262E-19 1.38635E-18
 -1       557 1.03681E-04-2.58395E-05-3.33642E-05 8.73649E-06 2.07186E-18 1.72467E-18
 -1       558 1.01809E-04-2.34897E-05-3.35853E-05 1.59126E-06 7.96985E-19 1.50339E-18
 -1       559 1.02940E-04-2.53518E-05-3.32549E-05-5.71610E-06-1.37374E-18 1.06091E-18
 -1       560 1.05880E-04-2.98839E-05-3.25715E-05-9.63959E-06-2.30941E-18-4.78101E-19
 -1       561 1.08480E-04-3.42902E-05-3.17971E-05-9.07885E-06-2.04224E-19-9.58206E-21
 -1       562 1.09255E-04-3.65662E-05-3.11592E-05-5.41995E-06-5.34010E-19-3.57638E-19
 -1       563 1.08173E-04-3.65318E-05-3.07163E-05-8.35173E-07 5.32664E-19 1.25736E-18
 -1       564 1.05933E-04-3.49915E-05-3.04163E-05 3.10322E-06 1.36451E-19 3.03809E-18
 -1       565 1.03267E-04-3.28254E-05-3.01976E-05 5.66261E-06-2.93861E-19 2.94347E-18
 -1       566 1.00609E-04-3.05616E-05-3.00226E-05 6.70346E-06 5.51681E-19 2.00892E-18
 -1       567 9.81485E-05-2.84752E-05-2.98568E-05 6.33911E-06 2.27696E-18 2.95633E-18
 -1       568 9.30636E-05-2.25450E-05-3.02240E-05 1.13836E-05-4.11610E-19 4.67559E-21
 -1       569 9.02677E-05-1.96725E-05-3.02600E-05 1.03111E-05 1.72463E-19-1.21019E-18
 -1       570 9.68797E-05-2.68685E-05-3.00066E-05 9.14844E-06-3.19222E-19 1.29871E-19
 -1       571 9.53590E-05-2.50418E-05-3.01306E-05 1.08043E-05-1.05984E-18-1.52290E-18
 -1       572 8.75866E-05-1.70116E-05-3.02539E-05 7.26450E-06 1.17257E-18-1.38124E-18
 -1       573 8.58640E-05-1.53378E-05-3.02338E-05 2.54325E-06 5.02997E-19-2.24993E-20
 -1       574 8.57475E-05-1.52319E-05-3.02298E-05-2.89448E-06-4.68077E-19 1.82988E-18
 -1       575 8.72531E-05-1.66962E-05-3.02464E-05-7.70198E-06-1.08813E-19-1.58274E-18
 -1       576 8.99012E-05-1.92832E-05-3.02702E-05-1.10125E-05 3.19902E-19-3.14819E-18
 -1       577 9.29127E-05-2.22478E-05-3.02882E-05-1.22792E-05-6.42212E-19 5.45690E-19
 -1       578 9.56527E-05-2.49739E-05-3.02880E-05-1.16722E-05-2.83607E-18-5.04414E-20
 -1       579 2.64713E-05-1.67452E-05-3.59303E-06 1.23298E-05-3.69108E-19 7.02063E-18
 -1       580 9.37645E-05-5.31112E-05-1.71007E-05 4.34472E-05-7.00390E-19 2.41044E-18
 -1       581 9.45155E-05-2.72929E-05-2.88011E-05 9.89649E-07 9.17668E-19-3.27488E-19
 -1       582 2.79648E-05-1.73476E-05-3.93555E-06-1.48181E-05 8.76044E-19-9.48253E-19
 -1       583 5.54718E-05-3.37665E-05-8.79232E-06 4.03607E-05-3.47284E-20 3.70291E-18
 -1       584 9.46275E-05-2.07699E-05-3.16744E-05-9.52010E-06-2.01480E-18 3.80861E-19
 -1       585 5.35279E-05-3.16427E-05-8.87882E-06-3.85108E-05 3.33948E-18-2.21446E-19
 -1       586 1.35347E-04-1.27582E-05-5.31816E-05 6.60974E-06-4.89956E-18-1.57045E-18
 -1       587 8.91646E-05-1.28842E-05-3.27096E-05-1.93826E-06-6.90733E-19-2.00698E-18
 -1       588 1.34040E-04-7.80860E-06-5.46974E-05 3.81777E-06 3.70873E-18-1.84402E-19
 -1       589 1.27418E-04-6.37422E-05-2.72731E-05-2.73504E-05 9.79858E-19 3.43805E-18
 -1       590 1.35397E-04-1.13517E-05-5.38282E-05-5.41350E-06 3.41990E-18-5.31566E-19
 -1       591 1.40106E-04-2.02653E-05-5.18568E-05 1.15554E-05 4.26762E-18 3.91816E-18
 -1       592 1.43717E-04-4.38469E-05-4.32058E-05 6.64892E-06 2.48014E-18 2.63173E-18
 -1       593 1.37111E-04-5.94453E-05-3.34167E-05-1.31570E-05 2.16941E-18 1.60322E-18
 -1       594 1.12854E-04-5.90290E-05-2.29430E-05-3.43744E-05 8.21569E-19-1.34939E-18
 -1       595 7.64473E-05-4.43366E-05-1.34136E-05-4.28575E-05-1.57850E-18-4.44070E-18
 -1       596 3.58589E-05-2.20029E-05-5.35135E-06-2.85744E-05-2.53498E-18-4.66260E-18
 -1       597 2.25895E-05-1.40723E-05-3.03932E-06-6.52608E-07-1.38996E-18-4.02658E-18
 -1       598 3.24349E-05-1.98437E-05-4.83862E-06 2.33991E-05-1.65693E-18-4.98659E-18
 -1       599 7.09115E-05-4.17620E-05-1.20963E-05 4.10728E-05 1.67014E-18-5.30693E-18
 -1       600 1.07919E-04-5.81181E-05-2.11466E-05 3.53856E-05 1.10908E-19-8.90837E-19
 -1       601 1.35867E-04-6.25039E-05-3.15452E-05 1.28751E-05-1.00808E-18-1.15376E-18
 -1       602 1.44962E-04-4.55510E-05-4.29864E-05-9.80957E-06-2.29972E-18 6.76250E-19
 -1       603 1.45465E-04-2.54945E-05-5.18652E-05-1.24972E-05-3.59883E-18 8.88855E-20
 -1       604 1.37081E-04-1.18286E-05-5.42907E-05-8.16546E-06-4.64396E-18-3.26372E-19
 -1       605 1.40988E-04-3.23692E-05-4.70951E-05 1.24626E-05-2.74751E-18-4.73804E-18
 -1       606 1.45784E-04-5.41994E-05-3.94788E-05-5.59198E-07 2.65770E-19-2.29069E-19
 -1       607 9.36326E-05-5.28605E-05-1.71348E-05-4.29193E-05 2.38699E-18 8.76150E-21
 -1       608 9.61569E-05-2.31896E-05-3.12752E-05 9.58676E-06 1.89461E-18-4.58837E-20
 -1       609 1.25429E-04-6.23777E-05-2.69502E-05 3.01622E-05-5.35854E-19-1.59930E-19
 -1       610 9.13400E-05-1.59053E-05-3.23639E-05-7.67535E-06-1.65936E-18-1.12494E-18
 -1       611 1.31623E-04-2.02655E-05-4.82506E-05-1.15119E-05 2.15400E-18-4.73836E-19
 -1       612 4.71797E-05-2.18744E-05-1.02728E-05 2.78944E-05-1.01129E-18 3.43472E-18
 -1       613 5.70996E-05-2.79551E-05-1.19687E-05 3.30835E-05 3.81509E-19-4.99707E-18
 -1       614 6.24070E-05-3.16146E-05-1.27157E-05-3.67560E-05-3.45777E-18-5.00853E-18
 -1       615 1.40596E-04-4.72664E-05-4.03495E-05-5.34353E-06 2.95429E-19-2.96147E-18
 -1       616 9.80054E-05-2.73440E-05-3.02779E-05-1.03631E-05-3.16093E-18 3.99239E-18
 -1       617 9.15610E-05-1.68551E-05-3.20224E-05 2.44274E-06 7.02827E-20-1.85921E-18
 -1       618 9.13029E-05-1.64531E-05-3.20839E-05 8.41631E-07-2.40560E-19-1.98594E-18
 -1       619 9.28949E-05-1.90019E-05-3.16740E-05 5.26839E-06 9.05140E-19-1.31771E-18
 -1       620 9.39852E-05-2.09307E-05-3.13170E-05 6.14672E-06 1.24691E-18-1.16422E-18
 -1       621 9.52717E-05-2.40967E-05-3.04934E-05 5.15448E-06 1.32482E-18-8.92015E-19
 -1       622 1.20098E-04-1.25104E-05-4.66233E-05-1.68194E-06-4.08053E-18 2.46684E-18
 -1       623 8.21078E-05-4.00953E-05-1.76414E-05-3.79770E-05 2.81146E-18 6.62671E-19
 -1       624 9.54128E-05-2.57021E-05-2.98740E-05-2.45047E-06-1.12769E-18-2.72580E-19
 -1       625 9.54742E-05-2.69464E-05-2.93683E-05-8.74710E-07-1.02106E-18-2.98638E-19
 -1       626 9.54197E-05-2.77063E-05-2.90198E-05 1.27432E-07-8.21207E-19-2.11189E-19
 -1       627 9.53438E-05-2.81764E-05-2.87860E-05 7.16679E-07-9.32562E-19-4.71186E-19
 -1       628 9.52799E-05-2.84642E-05-2.86353E-05 1.02191E-06-5.97609E-19-5.34076E-19
 -1       629 9.52356E-05-2.86330E-05-2.85441E-05 1.14075E-06-3.45168E-19-3.61065E-19
 -1       630 9.52095E-05-2.87219E-05-2.84948E-05 1.14489E-06-3.15601E-19 1.40758E-19
 -1       631 9.51977E-05-2.87560E-05-2.84752E-05 1.08622E-06-3.14738E-19 8.12610E-20
 -1       632 9.51964E-05-2.87517E-05-2.84764E-05 1.00214E-06-8.95536E-20 1.31604E-19
 -1       633 9.52025E-05-2.87197E-05-2.84927E-05 9.19822E-07-3.30308E-19-9.94500E-20
 -1       634 9.52140E-05-2.86664E-05-2.85204E-05 8.59548E-07-3.86959E-19-3.19191E-19
 -1       635 9.52296E-05-2.85952E-05-2.85576E-05 8.37240E-07-1.63303E-19-1.00157E-19
 -1       636 9.52487E-05-2.85074E-05-2.86034E-05 8.66438E-07-4.48505E-19 3.42874E-19
 -1       637 9.52710E-05-2.84021E-05-2.86580E-05 9.59750E-07-8.09301E-19 1.04948E-18
 -1       638 9.52964E-05-2.82774E-05-2.87223E-05 1.12987E-06-8.20430E-19 8.32525E-19
 -1       639 9.53247E-05-2.81310E-05-2.87972E-05 1.39016E-06-4.94821E-19 9.62337E-20
 -1       640 9.53559E-05-2.79602E-05-2.88836E-05 1.75485E-06-6.24231E-19-1.88469E-19
 -1       641 9.53895E-05-2.77639E-05-2.89821E-05 2.23860E-06 1.35697E-19-5.42508E-19
 -1       642 9.54259E-05-2.75441E-05-2.90918E-05 2.85556E-06 4.48478E-19-2.18265E-18
 -1       643 9.54672E-05-2.73091E-05-2.92101E-05 3.61756E-06-1.45789E-19-1.29992E-18
 -1       644 9.55203E-05-2.70787E-05-2.93315E-05 4.53126E-06-6.97259E-19 2.40447E-19
 -1       645 9.56034E-05-2.68935E-05-2.94464E-05 5.59406E-06-2.36340E-19-7.87804E-20
 -1       646 9.57578E-05-2.68277E-05-2.95407E-05 6.78826E-06 3.02161E-19 1.64477E-19
 -1       647 9.60675E-05-2.70094E-05-2.95956E-05 8.07277E-06 2.22990E-19 6.34126E-19
 -1       648 9.66910E-05-2.76453E-05-2.95906E-05 9.37012E-06 4.79422E-19 9.92601E-19
 -1       649 9.79044E-05-2.90438E-05-2.95119E-05 1.05428E-05 1.53246E-18 1.48972E-18
 -1       650 1.00145E-04-3.16110E-05-2.93729E-05 1.13436E-05 2.29749E-18 1.39682E-18
 -1       651 1.04002E-04-3.57525E-05-2.92540E-05 1.13133E-05 2.08814E-18 1.80113E-18
 -1       652 1.10069E-04-4.15518E-05-2.93647E-05 9.63488E-06 1.80726E-18 2.27455E-18
 -1       653 1.18307E-04-4.79284E-05-3.01627E-05 4.97960E-06 4.08737E-19 2.87689E-18
 -1       654 1.26808E-04-5.13544E-05-3.23694E-05-3.50792E-06 6.48400E-19 3.12935E-18
 -1       655 1.30716E-04-4.51773E-05-3.67644E-05-1.37959E-05-9.54686E-19 3.89406E-18
 -1       656 1.28493E-04-3.41730E-05-4.06844E-05 1.50989E-05-2.47068E-18 1.52377E-18
 -1       657 1.29607E-04-4.78726E-05-3.52626E-05 8.72768E-06-5.94577E-19-1.80013E-18
 -1       658 1.24411E-04-5.09444E-05-3.15127E-05-1.65346E-06 2.14951E-18-6.07601E-19
 -1       659 1.15835E-04-4.62466E-05-2.98371E-05-9.45192E-06 1.02575E-18 5.41142E-19
 -1       660 1.08189E-04-3.98063E-05-2.93145E-05-1.34151E-05 1.95986E-18 1.14519E-18
 -1       661 1.02617E-04-3.40573E-05-2.93853E-05-1.46507E-05 2.18950E-18 1.47298E-18
 -1       662 9.88906E-05-2.95685E-05-2.97087E-05-1.41241E-05 2.30520E-18 7.26149E-19
 -1       663 9.49811E-05-2.81129E-05-2.86576E-05-7.30735E-07 5.86470E-19-4.52840E-19
 -1       664 9.96041E-05-3.01438E-05-2.97643E-05 1.02467E-05-5.58590E-19-1.42400E-18
 -1       665 9.50918E-05-2.77082E-05-2.88781E-05-1.20617E-07 6.63841E-19-5.92055E-19
 -1       666 9.49001E-05-2.85195E-05-2.84490E-05-1.16144E-06 3.43004E-19 1.29464E-19
 -1       667 9.49104E-05-2.86085E-05-2.84153E-05-1.16199E-06 5.32688E-19 1.93141E-19
 -1       668 9.49400E-05-2.86524E-05-2.84091E-05-1.09764E-06 5.64744E-19-4.90810E-20
 -1       669 9.49811E-05-2.86644E-05-2.84216E-05-1.00614E-06 9.75494E-19-5.33845E-19
 -1       670 9.50288E-05-2.86532E-05-2.84468E-05-9.14569E-07 6.94686E-19-3.56254E-19
 -1       671 9.50806E-05-2.86244E-05-2.84813E-05-8.42802E-07 4.40345E-19 4.29538E-19
 -1       672 9.51360E-05-2.85816E-05-2.85233E-05-8.06091E-07 5.30487E-19-1.16420E-20
 -1       673 9.51961E-05-2.85268E-05-2.85725E-05-8.17008E-07 5.35938E-19 8.88933E-22
 -1       674 9.52632E-05-2.84610E-05-2.86295E-05-8.86806E-07 6.08837E-19 1.47281E-19
 -1       675 9.53409E-05-2.83848E-05-2.86953E-05-1.02627E-06 3.46611E-19 3.97242E-19
 -1       676 9.54339E-05-2.82993E-05-2.87717E-05-1.24608E-06 2.04980E-19 4.75677E-19
 -1       677 9.55482E-05-2.82067E-05-2.88603E-05-1.55663E-06 1.29606E-20-2.58622E-19
 -1       678 9.56915E-05-2.81120E-05-2.89622E-05-1.96712E-06 4.37971E-20-5.23486E-19
 -1       679 9.58743E-05-2.80244E-05-2.90780E-05-2.48379E-06 2.69271E-20-1.80561E-19
 -1       680 9.61113E-05-2.79608E-05-2.92067E-05-3.10709E-06 4.66731E-20 4.17422E-19
 -1       681 9.64238E-05-2.79496E-05-2.93454E-05-3.82730E-06-6.47062E-21 5.75139E-19
 -1       682 9.68446E-05-2.80361E-05-2.94886E-05-4.61826E-06 1.98659E-19 1.02980E-18
 -1       683 9.74239E-05-2.82897E-05-2.96283E-05-5.42880E-06 2.39616E-19 9.79245E-19
 -1       684 9.82384E-05-2.88099E-05-2.97548E-05-6.17118E-06-2.44687E-19 3.28423E-19
 -1       685 9.93988E-05-2.97279E-05-2.98593E-05-6.70630E-06-4.88174E-19 6.82349E-19
 -1       686 1.01050E-04-3.11914E-05-2.99411E-05-6.82641E-06 3.54736E-19-6.91014E-20
 -1       687 1.03349E-04-3.33134E-05-3.00185E-05-6.24040E-06-9.60997E-19-2.44873E-19
 -1       688 1.06386E-04-3.60561E-05-3.01462E-05-4.57322E-06-1.87377E-20 4.40057E-20
 -1       689 1.09999E-04-3.89999E-05-3.04344E-05-1.43231E-06-9.38422E-19 1.61792E-19
 -1       690 1.13521E-04-4.10824E-05-3.10497E-05 3.32641E-06-4.91040E-19-9.28954E-19
 -1       691 1.15654E-04-4.05914E-05-3.21777E-05 9.04044E-06-7.17761E-20 5.51227E-19
 -1       692 1.14919E-04-3.57992E-05-3.39199E-05 1.38608E-05-6.99669E-19 1.00988E-18
 -1       693 1.10888E-04-2.75185E-05-3.58400E-05 1.36841E-05 1.53395E-18 1.39995E-19
 -1       694 1.06765E-04-2.04550E-05-3.70611E-05 6.94558E-06 2.19088E-18 1.13683E-18
 -1       695 1.06644E-04-2.03581E-05-3.70394E-05-3.12845E-06 8.11685E-19 7.18122E-19
 -1       696 1.10164E-04-2.67061E-05-3.58330E-05-1.03502E-05-1.34634E-18-5.41614E-19
 -1       697 1.14060E-04-3.51566E-05-3.38483E-05-1.10528E-05-1.46211E-18-5.81702E-19
 -1       698 1.15110E-04-4.04019E-05-3.20247E-05-6.62151E-06 6.52234E-19-7.64260E-19
 -1       699 1.13011E-04-4.11896E-05-3.07895E-05-7.07716E-07 2.48971E-21-1.16164E-18
 -1       700 1.09277E-04-3.90289E-05-3.01126E-05 4.32625E-06-8.86458E-19-2.06132E-19
 -1       701 1.05283E-04-3.56596E-05-2.98422E-05 7.54891E-06-4.24795E-19 5.88441E-19
 -1       702 1.02340E-04-3.29819E-05-2.97258E-05 9.44066E-06 8.57531E-19-1.16444E-18
 -1       703 1.15456E-04-5.84670E-05-2.42938E-05 3.09499E-05-3.16327E-18-3.19015E-18
 -1       704 8.37460E-05-1.77213E-05-2.82985E-05 6.72276E-06 8.38432E-19-5.13171E-19
 -1       705 9.70646E-05-2.71027E-05-2.99863E-05-1.31252E-05-2.34194E-19 1.55662E-18
 -1       706 9.20743E-05-2.43378E-05-2.90319E-05 1.36688E-05-6.11837E-20-1.43298E-18
 -1       707 8.20948E-05-1.63622E-05-2.81729E-05-1.89749E-08 5.56403E-19-1.26252E-19
 -1       708 8.75888E-05-2.07988E-05-2.86264E-05 1.15575E-05-4.04106E-19-7.67807E-19
 -1       709 8.32960E-05-1.72623E-05-2.83048E-05-6.77882E-06-1.54245E-18-1.72350E-18
 -1       710 8.68850E-05-2.00177E-05-2.86592E-05-1.19609E-05-2.24368E-18-2.07549E-18
 -1       711 9.14641E-05-2.34625E-05-2.91370E-05-1.44261E-05-9.33597E-20-1.92840E-18
 -1       712 9.46227E-05-2.55342E-05-2.96097E-05-1.43345E-05-7.13971E-19-1.23748E-18
 -1       713 1.36136E-04-6.04739E-05-3.24758E-05-8.07554E-06 1.37143E-19 2.54692E-19
 -1       714 9.41758E-05-2.09789E-05-3.13698E-05-7.06694E-06-1.64659E-18-2.94603E-19
 -1       715 3.87884E-05-1.30001E-05-1.04689E-05-5.84493E-07 1.48012E-18 2.29694E-18
 -1       716 8.04983E-05-4.09619E-05-1.65714E-05 3.92058E-05-1.90225E-18 1.35512E-18
 -1       717 4.04434E-05-1.37967E-05-1.08512E-05-1.41302E-05-2.09397E-18-3.69571E-18
 -1       718 1.19968E-04-9.74856E-06-4.77316E-05-1.19003E-06 2.68097E-18-2.39371E-19
 -1       719 9.52313E-05-2.70425E-05-2.92218E-05 9.33262E-07 8.12423E-19-5.04875E-19
 -1       720 9.49197E-05-2.83650E-05-2.85234E-05-1.04270E-06 3.95626E-19-2.64838E-19
 -1       721 9.50851E-05-2.38626E-05-3.05244E-05-4.48412E-06-1.41035E-18-2.58415E-19
 -1       722 9.20832E-05-1.76805E-05-3.18927E-05 3.95358E-06 3.70831E-19-1.42126E-18
 -1       723 9.53347E-05-2.59408E-05-2.97365E-05 2.60873E-06 9.68599E-19-7.75706E-19
 -1       724 1.24814E-04-1.93402E-05-4.56800E-05 1.12748E-05-2.98426E-18 1.14169E-18
 -1       725 9.20413E-05-1.76223E-05-3.18994E-05-3.90134E-06-9.10033E-19-1.26949E-18
 -1       726 1.36066E-04-4.46477E-05-3.94389E-05 1.10130E-05-2.63180E-18-1.86178E-18
 -1       727 4.91554E-05-2.04982E-05-1.17698E-05-2.51587E-05 1.84468E-18-1.41952E-18
 -1       728 9.52105E-05-4.90080E-05-1.95242E-05 3.45138E-05 3.17725E-18-1.52589E-18
 -1       729 1.36309E-04-5.28700E-05-3.59531E-05 3.58054E-06 4.59807E-19 4.53965E-18
 -1       730 1.25370E-04-5.99080E-05-2.80677E-05-1.84983E-05-1.08408E-18 3.74477E-18
 -1       731 1.02547E-04-5.23893E-05-2.12992E-05-3.36395E-05-2.26560E-18-1.17640E-18
 -1       732 3.73609E-05-1.32637E-05-9.76557E-06 1.10284E-05-1.80411E-18-3.96115E-18
 -1       733 1.20575E-04-5.90633E-05-2.62617E-05 2.17551E-05 1.17033E-18-7.79403E-19
 -1       734 1.35739E-04-5.35593E-05-3.54423E-05-6.56659E-06-8.77763E-19 1.63852E-18
 -1       735 1.32015E-04-3.19609E-05-4.32740E-05-1.81714E-05-1.86146E-18 3.09651E-18
 -1       736 1.25252E-04-1.79638E-05-4.65416E-05-1.32407E-05-3.30163E-18 2.53684E-18
 -1       737 1.29023E-04-3.08074E-05-4.24697E-05 1.62732E-05 2.63523E-18 2.05943E-18
 -1       738 1.32118E-04-6.10329E-05-3.05129E-05 1.53372E-05-1.94225E-18-2.41633E-18
 -1       739 1.13719E-04-5.74890E-05-2.39738E-05-3.06829E-05 2.74089E-18 3.88566E-18
 -1       740 1.23125E-04-1.47855E-05-4.69902E-05 1.07616E-05 1.90588E-18 4.23464E-19
 -1       741 9.28632E-05-1.89185E-05-3.16947E-05-5.29362E-06-1.23936E-18-1.00273E-18
 -1       742 9.12957E-05-1.64434E-05-3.20850E-05-7.84073E-07-5.83550E-19-2.01546E-18
 -1       743 1.20198E-04-1.64566E-05-4.49442E-05-8.44595E-06 2.49584E-18-7.08900E-19
 -1       744 1.31305E-04-3.37098E-05-4.21944E-05-1.30896E-05 5.17352E-19-1.00185E-18
 -1       745 9.59235E-05-2.73256E-05-2.93993E-05 1.33720E-05 5.66208E-19-2.24506E-19
 -1       746 1.02354E-04-4.99430E-05-2.22796E-05 3.32735E-05-2.70153E-18-2.53036E-18
 -1       747 6.87587E-05-2.99193E-05-1.62923E-05 3.29341E-05-2.03831E-18 1.63117E-18
 -1       748 5.65701E-05-2.08085E-05-1.49609E-05-2.43669E-05-3.12427E-18-3.10268E-18
 -1       749 8.68436E-05-4.14422E-05-1.91880E-05-3.39538E-05-3.48668E-18-2.89840E-18
 -1       750 9.15374E-05-1.68228E-05-3.20261E-05-2.38227E-06-7.12254E-19-1.67400E-18
 -1       751 7.98783E-05-3.70999E-05-1.80327E-05 3.28199E-05 2.52003E-18-1.62014E-18
 -1       752 1.34773E-04-5.50354E-05-3.43717E-05 1.99785E-06 4.08199E-19-2.92208E-18
 -1       753 9.46342E-05-2.27274E-05-3.08189E-05 3.91462E-06 8.06883E-19-9.35582E-19
 -1       754 1.27164E-04-4.19409E-05-3.66643E-05 1.36186E-05 2.17118E-19 2.12184E-18
 -1       755 9.58717E-05-2.68870E-05-2.95650E-05-5.89272E-07-8.70253E-19-2.77406E-19
 -1       756 9.59656E-05-2.77738E-05-2.92251E-05 2.13540E-07-1.03178E-18-5.60086E-20
 -1       757 9.59549E-05-2.83315E-05-2.89815E-05 6.94056E-07-9.48007E-19-8.15676E-20
 -1       758 9.58945E-05-2.86666E-05-2.88120E-05 9.44714E-07-3.75344E-19 3.53591E-20
 -1       759 9.58135E-05-2.88498E-05-2.86987E-05 1.04168E-06-1.51040E-19-1.74532E-19
 -1       760 9.57269E-05-2.89289E-05-2.86277E-05 1.04410E-06-1.65807E-19-3.10646E-21
 -1       761 9.56421E-05-2.89361E-05-2.85883E-05 9.96479E-07-1.41551E-19 2.19297E-19
 -1       762 9.55621E-05-2.88926E-05-2.85727E-05 9.31830E-07-2.02373E-19 1.70210E-19
 -1       763 9.54871E-05-2.88119E-05-2.85751E-05 8.74774E-07-4.92802E-19 9.60525E-20
 -1       764 9.54154E-05-2.87017E-05-2.85916E-05 8.44170E-07-4.13676E-19 4.87173E-20
 -1       765 9.53440E-05-2.85650E-05-2.86196E-05 8.55267E-07-2.29076E-19 2.08014E-20
 -1       766 9.52684E-05-2.84014E-05-2.86573E-05 9.21342E-07-4.71966E-19 2.72069E-19
 -1       767 9.51833E-05-2.82080E-05-2.87037E-05 1.05491E-06-9.60599E-19 2.06659E-20
 -1       768 9.50817E-05-2.79803E-05-2.87577E-05 1.26849E-06-1.17048E-18 6.52839E-19
 -1       769 9.49555E-05-2.77128E-05-2.88183E-05 1.57504E-06-1.80773E-19 4.33844E-19
 -1       770 9.47954E-05-2.74006E-05-2.88834E-05 1.98787E-06-8.60010E-19 4.08273E-19
 -1       771 9.45912E-05-2.70410E-05-2.89500E-05 2.52030E-06-3.89585E-19 3.45811E-19
 -1       772 9.43327E-05-2.66363E-05-2.90126E-05 3.18494E-06 1.05985E-18 4.40829E-19
 -1       773 9.40124E-05-2.61985E-05-2.90629E-05 3.99283E-06 7.43981E-19 1.57137E-18
 -1       774 9.36299E-05-2.57564E-05-2.90884E-05 4.95279E-06-5.95891E-19 1.86077E-18
 -1       775 9.32014E-05-2.53668E-05-2.90717E-05 6.07161E-06-3.07825E-19 2.06343E-18
 -1       776 9.27753E-05-2.51316E-05-2.89898E-05 7.35556E-06 8.15666E-19 1.94956E-18
 -1       777 9.24592E-05-2.52221E-05-2.88155E-05 8.81369E-06 1.20274E-18 2.44632E-18
 -1       778 9.24637E-05-2.59112E-05-2.85220E-05 1.04596E-05 1.04927E-18 2.90180E-18
 -1       779 9.31682E-05-2.76107E-05-2.80951E-05 1.22998E-05 8.70957E-19 2.20270E-18
 -1       780 9.52163E-05-3.08994E-05-2.75621E-05 1.42797E-05 1.89565E-18 1.58385E-19
 -1       781 9.95796E-05-3.64204E-05-2.70619E-05 1.60054E-05 1.81012E-18 2.94038E-19
 -1       782 1.07542E-04-4.46285E-05-2.69232E-05 1.64494E-05 1.08005E-18-6.54174E-19
 -1       783 1.17880E-04-5.23661E-05-2.79990E-05-1.69738E-05 9.81418E-19-3.14990E-20
 -1       784 1.07035E-04-4.30814E-05-2.74091E-05-1.93389E-05 2.72632E-18 8.15914E-19
 -1       785 1.00116E-04-3.52284E-05-2.77915E-05-1.88068E-05 2.73463E-18 8.28743E-19
 -1       786 9.63076E-05-2.96026E-05-2.85783E-05-1.69728E-05 1.58837E-18 6.87991E-19
 -1       787 9.54548E-05-2.88596E-05-2.85409E-05-1.04515E-06 6.29532E-19 4.18265E-19
 -1       788 9.57329E-05-2.77490E-05-2.91359E-05-1.90478E-07 4.55295E-19-3.35161E-19
 -1       789 9.55083E-05-2.88405E-05-2.85720E-05-1.09859E-06 5.48610E-19 2.68324E-19
 -1       790 9.55690E-05-2.87573E-05-2.86336E-05-1.09649E-06 4.10794E-19-1.86934E-19
 -1       791 9.54088E-05-2.88338E-05-2.85322E-05-9.71142E-07 5.87919E-19 5.80042E-19
 -1       792 9.53693E-05-2.87755E-05-2.85403E-05-9.02392E-07 4.04816E-19-2.09109E-20
 -1       793 9.53348E-05-2.86921E-05-2.85612E-05-8.58354E-07 5.93621E-19-3.78236E-20
 -1       794 9.53033E-05-2.85875E-05-2.85925E-05-8.54436E-07 3.78160E-19 1.96963E-19
 -1       795 9.52728E-05-2.84628E-05-2.86328E-05-9.03725E-07 3.41789E-19 3.92471E-19
 -1       796 9.52414E-05-2.83177E-05-2.86815E-05-1.01819E-06 5.05635E-19 3.48606E-19
 -1       797 9.52070E-05-2.81513E-05-2.87381E-05-1.20938E-06 3.79290E-20 2.22048E-19
 -1       798 9.51682E-05-2.79630E-05-2.88021E-05-1.48871E-06 4.95747E-19 3.24497E-19
 -1       799 9.51247E-05-2.77548E-05-2.88727E-05-1.86716E-06 3.08065E-20 6.81802E-19
 -1       800 9.50787E-05-2.75329E-05-2.89481E-05-2.35442E-06-6.53686E-19 1.75852E-18
 -1       801 9.50363E-05-2.73112E-05-2.90249E-05-2.95733E-06-2.58187E-19 1.46625E-18
 -1       802 9.50119E-05-2.71158E-05-2.90981E-05-3.67759E-06 4.11733E-20 7.86266E-19
 -1       803 9.50326E-05-2.69912E-05-2.91604E-05-4.50854E-06-3.27919E-19 7.46350E-19
 -1       804 9.51479E-05-2.70092E-05-2.92020E-05-5.43077E-06 2.47671E-20 1.61536E-18
 -1       805 9.54410E-05-2.72781E-05-2.92124E-05-6.40586E-06-2.36977E-19 9.47986E-19
 -1       806 9.60462E-05-2.79533E-05-2.91824E-05-7.36648E-06-4.54748E-19 6.76493E-19
 -1       807 9.71659E-05-2.92394E-05-2.91112E-05-8.19886E-06-5.48798E-19 1.59933E-18
 -1       808 9.90793E-05-3.13703E-05-2.90187E-05-8.71101E-06 5.78328E-19 1.94127E-18
 -1       809 1.02115E-04-3.45347E-05-2.89641E-05-8.58707E-06-4.46300E-19 9.57603E-19
 -1       810 1.06561E-04-3.87193E-05-2.90772E-05-7.28893E-06-2.78608E-19 1.16986E-18
 -1       811 1.12304E-04-4.32380E-05-2.96012E-05-4.06288E-06-2.31520E-20-1.03388E-19
 -1       812 1.18367E-04-4.63007E-05-3.08845E-05 1.78007E-06-1.91606E-18 1.48490E-18
 -1       813 1.14088E-04-2.12979E-05-4.00910E-05 1.37659E-05 2.21655E-18 7.37977E-19
 -1       814 1.20030E-04-3.36780E-05-3.71505E-05-1.28551E-05-4.55942E-19-3.80689E-18
 -1       815 1.21988E-04-4.37476E-05-3.36174E-05-7.66926E-06-8.21940E-19-4.84203E-18
 -1       816 1.19016E-04-4.64094E-05-3.11307E-05 9.73480E-08-5.44528E-19-2.65232E-18
 -1       817 1.13262E-04-4.38001E-05-2.97760E-05 6.49928E-06-6.07194E-19-7.78969E-19
 -1       818 1.07490E-04-3.91069E-05-2.93076E-05 1.01017E-05-1.15362E-18-6.05074E-19
 -1       819 7.75347E-05-1.69308E-05-2.59729E-05-4.31469E-06-1.17203E-18-1.67665E-18
 -1       820 8.18090E-05-1.98819E-05-2.65428E-05-1.22172E-05-9.67173E-19-2.68792E-18
 -1       821 7.79614E-05-1.73375E-05-2.59776E-05 4.88381E-06-7.54178E-19-1.38097E-18
 -1       822 1.01355E-04-4.62792E-05-2.34230E-05-2.99965E-05 1.65191E-18 4.27636E-18
 -1       823 1.31771E-04-5.85536E-05-3.13992E-05 5.77405E-06 8.04880E-20 5.28125E-19
 -1       824 9.52124E-05-2.44708E-05-3.03166E-05 3.44603E-06 9.39434E-19-8.39544E-19
 -1       825 9.56968E-05-2.69145E-05-2.94779E-05 6.95017E-07 7.25539E-19-6.54348E-19
 -1       826 5.39094E-05-1.53655E-05-1.62062E-05-1.21146E-05 1.05935E-18-1.24174E-18
 -1       827 5.43328E-05-1.65220E-05-1.59092E-05 1.56133E-05-1.28365E-18 2.59605E-18
 -1       828 1.26926E-04-5.44385E-05-3.10884E-05-3.25362E-06-1.52525E-18 3.48121E-18
 -1       829 9.55734E-05-2.55050E-05-3.00293E-05-1.81315E-06-1.01318E-18-2.96540E-19
 -1       830 1.07353E-04-5.03722E-05-2.42654E-05 2.47913E-05 1.83217E-18-1.55152E-18
 -1       831 1.12961E-04-5.30884E-05-2.56571E-05-2.14525E-05-2.13794E-18 4.20366E-18
 -1       832 4.75536E-05-1.23014E-05-1.47711E-05 1.32720E-07-2.26038E-19-3.25009E-18
 -1       833 7.20162E-05-2.68179E-05-1.91507E-05-2.73359E-05 1.18104E-18-2.27203E-19
 -1       834 8.85361E-05-2.44369E-05-2.74773E-05-1.64804E-05-7.56733E-19 1.07377E-18
 -1       835 5.70016E-05-1.97163E-05-1.56933E-05 2.18054E-05 7.27581E-19-2.15316E-18
 -1       836 9.32143E-05-1.97837E-05-3.14715E-05 1.23459E-06-7.29810E-20-1.61986E-18
 -1       837 1.22334E-04-5.73152E-05-2.77964E-05 1.93358E-05-2.45623E-18 6.62122E-19
 -1       838 1.20668E-04-5.48881E-05-2.81752E-05 1.33609E-05 1.27877E-18-8.38827E-20
 -1       839 9.31004E-05-1.95840E-05-3.15092E-05 2.27082E-08-3.96513E-19-1.68234E-18
 -1       840 9.56342E-05-2.85807E-05-2.87373E-05-9.91144E-07 1.97420E-19-7.45391E-19
 -1       841 9.58481E-05-2.98435E-05-2.82794E-05 1.60497E-05-5.19236E-19-1.14009E-18
 -1       842 9.50056E-05-2.36312E-05-3.05882E-05-3.32418E-06-1.24134E-18-3.19808E-19
 -1       843 1.21806E-04-4.41868E-05-3.33529E-05 9.18290E-06-3.13637E-19 2.36261E-18
 -1       844 1.13254E-04-2.00991E-05-4.02569E-05-9.71995E-06 7.74188E-19-3.60446E-19
 -1       845 1.03265E-04-3.52202E-05-2.91632E-05 1.20820E-05 4.30369E-19-2.76441E-19
 -1       846 8.27424E-05-2.08392E-05-2.65217E-05 1.23946E-05-1.51326E-18 8.27188E-19
 -1       847 8.96155E-05-2.57157E-05-2.73881E-05 1.60087E-05-1.32021E-18-7.81312E-19
 -1       848 8.80724E-05-3.91305E-05-2.07754E-05 3.22187E-05-2.15976E-18-9.32285E-19
 -1       849 9.39943E-05-2.13019E-05-3.11573E-05-3.26810E-06-9.67701E-19-8.17822E-19
 -1       850 5.46416E-05-1.49562E-05-1.67830E-05-1.13953E-05-1.36580E-18-1.48290E-18
 -1       851 7.52818E-05-3.00941E-05-1.91967E-05-2.80189E-05-4.78795E-18-3.54786E-18
 -1       852 9.35273E-05-2.03660E-05-3.13558E-05 2.36261E-06 2.77781E-19-1.46249E-18
 -1       853 1.31460E-04-4.54561E-05-3.69815E-05-8.77529E-06 1.41627E-19-1.21390E-19
 -1       854 9.56954E-05-2.82667E-05-2.88980E-05-7.17650E-07 4.84483E-19-4.17249E-19
 -1       855 1.01265E-04-4.57321E-05-2.36118E-05-2.56812E-05-3.56507E-18 6.23448E-19
 -1       856 9.40263E-05-2.13429E-05-3.11496E-05 3.31323E-06 5.56196E-19-9.29563E-19
 -1       857 1.27980E-04-5.61490E-05-3.08503E-05 7.75111E-06-8.61530E-19-2.27706E-18
 -1       858 1.00476E-04-3.25264E-05-2.91230E-05 1.31973E-05 1.29457E-18 4.26374E-19
 -1       859 9.55291E-05-2.59122E-05-2.98368E-05 1.83890E-06 7.39034E-19-8.22995E-19
 -1       860 9.35011E-05-2.03275E-05-3.13613E-05-2.31496E-06-7.86969E-19-1.37384E-18
 -1       861 7.70465E-05-2.87715E-05-2.05915E-05 2.48640E-05 1.02150E-18-1.22926E-18
 -1       862 9.63731E-05-2.79217E-05-2.93364E-05 2.88752E-07-9.28275E-19-4.55902E-19
 -1       863 9.63930E-05-2.85070E-05-2.90940E-05 6.37698E-07-4.51160E-19-9.80926E-20
 -1       864 9.63270E-05-2.88507E-05-2.89184E-05 8.17006E-07-3.15616E-19-6.24902E-20
 -1       865 9.62146E-05-2.90250E-05-2.87956E-05 8.82690E-07-1.47343E-19-2.34782E-19
 -1       866 9.60798E-05-2.90807E-05-2.87139E-05 8.79824E-07 6.51396E-20-3.30499E-19
 -1       867 9.59365E-05-2.90533E-05-2.86642E-05 8.43235E-07-1.77319E-19-2.22414E-19
 -1       868 9.57914E-05-2.89663E-05-2.86393E-05 7.99291E-07-4.06112E-19-4.71689E-19
 -1       869 9.56460E-05-2.88340E-05-2.86337E-05 7.68045E-07-3.57499E-19-6.01264E-19
 -1       870 9.54977E-05-2.86637E-05-2.86432E-05 7.65228E-07-2.36641E-19-5.77002E-19
 -1       871 9.53408E-05-2.84573E-05-2.86644E-05 8.03885E-07-1.72532E-19-3.52290E-19
 -1       872 9.51670E-05-2.82125E-05-2.86948E-05 8.95537E-07-8.26820E-19-5.47866E-19
 -1       873 9.49652E-05-2.79242E-05-2.87318E-05 1.05111E-06-4.24989E-19-3.07678E-20
 -1       874 9.47222E-05-2.75854E-05-2.87729E-05 1.28140E-06-6.53394E-20 6.85170E-19
 -1       875 9.44224E-05-2.71885E-05-2.88145E-05 1.59726E-06-5.87722E-19 1.03102E-18
 -1       876 9.40480E-05-2.67270E-05-2.88518E-05 2.00948E-06-4.45450E-19 1.05781E-18
 -1       877 9.35797E-05-2.61980E-05-2.88779E-05 2.52867E-06 5.63684E-19 1.16163E-18
 -1       878 9.29978E-05-2.56051E-05-2.88826E-05 3.16527E-06 9.17272E-19 5.03759E-19
 -1       879 9.22846E-05-2.49638E-05-2.88517E-05 3.93040E-06-1.72094E-19-2.71340E-19
 -1       880 9.14289E-05-2.43087E-05-2.87658E-05 4.83862E-06-2.15863E-20 1.38420E-19
 -1       881 9.04341E-05-2.37040E-05-2.85985E-05 5.91413E-06 5.77106E-19 9.77092E-19
 -1       882 8.93320E-05-2.32600E-05-2.83164E-05 7.20259E-06 1.33878E-18 1.67360E-18
 -1       883 8.82066E-05-2.31555E-05-2.78788E-05 8.79036E-06 1.10782E-18 1.33061E-18
 -1       884 8.72376E-05-2.36742E-05-2.72407E-05 1.08311E-05 5.98934E-19 3.09513E-19
 -1       885 8.67824E-05-2.52619E-05-2.63610E-05 1.35560E-05 1.79737E-19-5.06395E-19
 -1       886 8.74508E-05-2.85902E-05-2.52116E-05 1.73043E-05 1.25505E-18-1.52298E-18
 -1       887 9.34978E-05-3.69419E-05-2.41720E-05 2.22387E-05 1.39318E-18-2.52746E-18
 -1       888 1.09742E-04-4.93337E-05-2.58467E-05 2.34235E-05-1.71168E-18-3.94952E-19
 -1       889 9.32431E-05-3.42247E-05-2.52597E-05-2.37115E-05 2.68745E-18 3.25193E-18
 -1       890 8.97827E-05-2.85135E-05-2.62619E-05-1.99957E-05 5.64941E-19 1.38606E-18
 -1       891 9.56974E-05-2.89375E-05-2.86114E-05-8.65119E-07 9.16802E-19-2.55977E-20
 -1       892 9.58141E-05-2.90049E-05-2.86325E-05-9.18661E-07 6.67100E-19 7.10903E-21
 -1       893 9.60460E-05-2.89509E-05-2.87550E-05-9.62795E-07 1.70943E-19-6.70204E-19
 -1       894 9.55830E-05-2.88290E-05-2.86088E-05-8.22517E-07 4.27716E-19-5.64283E-20
 -1       895 9.54692E-05-2.86874E-05-2.86208E-05-8.08002E-07 3.67524E-19-9.38771E-20
 -1       896 9.53523E-05-2.85158E-05-2.86442E-05-8.35585E-07 1.66641E-19 3.55170E-20
 -1       897 9.52268E-05-2.83143E-05-2.86768E-05-9.17605E-07 2.14597E-19-2.35022E-19
 -1       898 9.50860E-05-2.80809E-05-2.87165E-05-1.06560E-06 5.07254E-19 1.36335E-19
 -1       899 9.49227E-05-2.78131E-05-2.87612E-05-1.29100E-06 3.48258E-19 1.21250E-19
 -1       900 9.47296E-05-2.75097E-05-2.88085E-05-1.60529E-06 2.33595E-19 9.79590E-19
 -1       901 9.45008E-05-2.71729E-05-2.88548E-05-2.01994E-06-5.48180E-19 9.40093E-19
 -1       902 9.42335E-05-2.68113E-05-2.88952E-05-2.54593E-06-1.87398E-19-1.46400E-19
 -1       903 9.39307E-05-2.64442E-05-2.89227E-05-3.19312E-06 2.20807E-19 2.57056E-19
 -1       904 9.36066E-05-2.61077E-05-2.89280E-05-3.96955E-06-2.21814E-19-4.31231E-19
 -1       905 9.32940E-05-2.58620E-05-2.88993E-05-4.88086E-06-8.13749E-19-1.29783E-18
 -1       906 9.30555E-05-2.58021E-05-2.88227E-05-5.92976E-06-7.36096E-19-8.53352E-20
 -1       907 9.30007E-05-2.60707E-05-2.86840E-05-7.11473E-06-4.23503E-19 7.65039E-19
 -1       908 9.33113E-05-2.68724E-05-2.84732E-05-8.42411E-06-1.27528E-18 1.09245E-18
 -1       909 9.42738E-05-2.84850E-05-2.81941E-05-9.81670E-06 5.74468E-19 5.91091E-20
 -1       910 9.63143E-05-3.12494E-05-2.78849E-05-1.11585E-05 3.32069E-19 6.71036E-19
 -1       911 9.99877E-05-3.54981E-05-2.76379E-05-1.21853E-05-1.17916E-18-1.20241E-19
 -1       912 1.05966E-04-4.13663E-05-2.76828E-05-1.20388E-05-1.11959E-18 2.00548E-18
 -1       913 1.14480E-04-4.80403E-05-2.84515E-05-9.46684E-06-1.39345E-18 3.57878E-18
 -1       914 1.08665E-04-4.26978E-05-2.82544E-05 1.48011E-05-1.64559E-18-1.81025E-18
 -1       915 7.36193E-05-1.84109E-05-2.36357E-05-1.13721E-05-3.50397E-19-2.17960E-18
 -1       916 7.04941E-05-1.63307E-05-2.31399E-05 7.65116E-07-1.29490E-18-1.53936E-18
 -1       917 6.85191E-05-1.95695E-05-2.08296E-05-1.63011E-05 8.15746E-19-1.98090E-18
 -1       918 1.17117E-04-4.94622E-05-2.90002E-05 1.13910E-05-1.99982E-18-2.52363E-18
 -1       919 9.31978E-05-1.97632E-05-3.14738E-05-1.18239E-06-7.06073E-19-1.82340E-18
 -1       920 9.59321E-05-2.90169E-05-2.86779E-05-9.61039E-07 2.62121E-19-1.20246E-19
 -1       921 7.33308E-05-2.52006E-05-2.04872E-05 2.40999E-05-2.28062E-18 1.23916E-18
 -1       922 9.57942E-05-2.55856E-05-3.00894E-05-1.17837E-06-1.02189E-18-4.84299E-19
 -1       923 9.62054E-05-2.69955E-05-2.96616E-05-2.95665E-07-7.62017E-19-5.91403E-19
 -1       924 6.06015E-05-1.47173E-05-1.95348E-05 1.94354E-06-5.73766E-19-9.01667E-19
 -1       925 9.60588E-05-2.69526E-05-2.96171E-05 4.00662E-07 4.46730E-19-4.39742E-19
 -1       926 8.13781E-05-2.32384E-05-2.48958E-05-1.76667E-05 8.08802E-19-7.56079E-19
 -1       927 6.09226E-05-1.55912E-05-1.93015E-05 1.01939E-05-7.65023E-19-2.46509E-18
 -1       928 9.61447E-05-2.87732E-05-2.88735E-05-8.85287E-07 7.81758E-21-7.34724E-19
 -1       929 6.09567E-05-1.43597E-05-1.98640E-05 9.78729E-07-9.36579E-19-3.07368E-18
 -1       930 9.45594E-05-2.22811E-05-3.09756E-05 4.37193E-07-1.47011E-19-1.45056E-18
 -1       931 9.51220E-05-2.37663E-05-3.05803E-05-2.09209E-06-9.79973E-19-5.41921E-19
 -1       932 1.02780E-04-3.72531E-05-2.80722E-05 1.62181E-05-1.49001E-18-1.72559E-18
 -1       933 7.47305E-05-1.93937E-05-2.36797E-05 1.24587E-05-1.57524E-18 6.67846E-19
 -1       934 9.57703E-05-2.58647E-05-2.99597E-05 1.28124E-06 6.84451E-19-6.05124E-19
 -1       935 9.95445E-05-4.20382E-05-2.45431E-05 2.63993E-05-1.31973E-18-1.96495E-18
 -1       936 9.48229E-05-3.26400E-05-2.66871E-05 1.96338E-05-1.35259E-18-1.78410E-18
 -1       937 6.67109E-05-2.10751E-05-1.94401E-05-1.91717E-05-1.92262E-18-1.71961E-18
 -1       938 9.50886E-05-2.38736E-05-3.05206E-05 2.82886E-06 7.60033E-19-9.03604E-19
 -1       939 9.47027E-05-2.26212E-05-3.08921E-05 1.23044E-06 1.50147E-19-1.26111E-18
 -1       940 9.48341E-05-2.29641E-05-3.08013E-05-1.53779E-06-7.67814E-19-1.18847E-18
 -1       941 9.61983E-05-2.78605E-05-2.92876E-05-2.73349E-07 5.68675E-19-6.26190E-19
 -1       942 9.66803E-05-2.81397E-05-2.93746E-05 3.11617E-07-4.99821E-19-2.49301E-19
 -1       943 9.66958E-05-2.86993E-05-2.91414E-05 5.32449E-07 8.22406E-20 1.15384E-19
 -1       944 9.66094E-05-2.90154E-05-2.89689E-05 6.41404E-07-2.72730E-19 2.57837E-19
 -1       945 9.64642E-05-2.91576E-05-2.88457E-05 6.76524E-07 3.67419E-20 2.74637E-19
 -1       946 9.62875E-05-2.91765E-05-2.87619E-05 6.69204E-07-1.25038E-19 2.04394E-19
 -1       947 9.60959E-05-2.91076E-05-2.87093E-05 6.43815E-07-5.52313E-19-1.19133E-19
 -1       948 9.58967E-05-2.89740E-05-2.86812E-05 6.18997E-07-3.08800E-19 3.40639E-20
 -1       949 9.56906E-05-2.87891E-05-2.86721E-05 6.09137E-07-1.82751E-19-8.90167E-20
 -1       950 9.54731E-05-2.85588E-05-2.86776E-05 6.25870E-07-3.54848E-20-1.87615E-19
 -1       951 9.52355E-05-2.82831E-05-2.86939E-05 6.78791E-07-5.89959E-19 2.62917E-19
 -1       952 9.49649E-05-2.79576E-05-2.87174E-05 7.76574E-07-3.22696E-19 5.43583E-19
 -1       953 9.46456E-05-2.75752E-05-2.87445E-05 9.27302E-07 4.15959E-19 5.89517E-19
 -1       954 9.42584E-05-2.71272E-05-2.87706E-05 1.13866E-06 6.37574E-19 6.97948E-19
 -1       955 9.37814E-05-2.66047E-05-2.87901E-05 1.41798E-06-4.36230E-20 1.45163E-18
 -1       956 9.31895E-05-2.60011E-05-2.87951E-05 1.77210E-06-1.82269E-19 2.38488E-18
 -1       957 9.24555E-05-2.53139E-05-2.87751E-05 2.20753E-06 1.13452E-19 1.19656E-18
 -1       958 9.15501E-05-2.45482E-05-2.87153E-05 2.73127E-06 6.05796E-20 7.05988E-19
 -1       959 9.04432E-05-2.37208E-05-2.85955E-05 3.35321E-06 9.35911E-20 1.15274E-18
 -1       960 8.91045E-05-2.28645E-05-2.83889E-05 4.09199E-06 7.06729E-19 1.70928E-18
 -1       961 8.75051E-05-2.20352E-05-2.80589E-05 4.98642E-06 5.89476E-19 1.23882E-18
 -1       962 8.56197E-05-2.13198E-05-2.75577E-05 6.11614E-06 9.29376E-19-1.26067E-19
 -1       963 8.34307E-05-2.08486E-05-2.68214E-05 7.63484E-06 1.97980E-19-4.83168E-19
 -1       964 8.09278E-05-2.08131E-05-2.57624E-05 9.83981E-06 4.56115E-19-9.23201E-19
 -1       965 7.81671E-05-2.15762E-05-2.42389E-05 1.32528E-05 6.40769E-19-6.28478E-19
 -1       966 7.66624E-05-2.38615E-05-2.25595E-05 1.81663E-05 3.75851E-19-1.32971E-18
 -1       967 9.60721E-05-2.58984E-05-3.00753E-05-6.42256E-07-8.91427E-19-4.77741E-19
 -1       968 9.54910E-05-2.86121E-05-2.86624E-05-6.96895E-07-2.00776E-19 5.65921E-19
 -1       969 9.60322E-05-2.90871E-05-2.86907E-05-7.38649E-07 5.58067E-19-3.20137E-19
 -1       970 9.58563E-05-2.89743E-05-2.86637E-05-7.05304E-07 7.88024E-19-8.63368E-20
 -1       971 9.52918E-05-2.83716E-05-2.86801E-05-7.46905E-07 1.14059E-19 2.99771E-19
 -1       972 9.50701E-05-2.80905E-05-2.87056E-05-8.47558E-07 1.43995E-19 2.69600E-20
 -1       973 9.48148E-05-2.77652E-05-2.87356E-05-1.00909E-06-1.37817E-21 1.34968E-19
 -1       974 9.45134E-05-2.73918E-05-2.87665E-05-1.24216E-06-4.07663E-19 2.44079E-19
 -1       975 9.41533E-05-2.69684E-05-2.87935E-05-1.55804E-06 2.10818E-19 1.56015E-19
 -1       976 9.37228E-05-2.64978E-05-2.88107E-05-1.96890E-06 4.50993E-19 3.31959E-19
 -1       977 9.32138E-05-2.59909E-05-2.88098E-05-2.48819E-06-7.40974E-19 4.02213E-19
 -1       978 9.26248E-05-2.54714E-05-2.87800E-05-3.13140E-06-8.47161E-20 8.47180E-19
 -1       979 9.19660E-05-2.49818E-05-2.87076E-05-3.91770E-06 3.06690E-19 6.25129E-19
 -1       980 9.12669E-05-2.45914E-05-2.85753E-05-4.87303E-06-1.28620E-18-2.96334E-19
 -1       981 9.05874E-05-2.44066E-05-2.83632E-05-6.03520E-06-1.47262E-18-4.22620E-19
 -1       982 9.00369E-05-2.45857E-05-2.80503E-05-7.46086E-06-5.54835E-19-3.95799E-19
 -1       983 8.98054E-05-2.53603E-05-2.76183E-05-9.22864E-06-3.27900E-19-1.49209E-18
 -1       984 9.01999E-05-2.70524E-05-2.70619E-05-1.14410E-05-2.98632E-19-1.43723E-19
 -1       985 9.18908E-05-3.01726E-05-2.64559E-05-1.40725E-05-5.83885E-19-8.55722E-20
 -1       986 9.54775E-05-3.52154E-05-2.58022E-05-1.71269E-05-2.16668E-18-3.18531E-20
 -1       987 1.06257E-04-4.35717E-05-2.68423E-05 2.00261E-05-1.62731E-18-1.65069E-18
 -1       988 9.46443E-05-2.24788E-05-3.09275E-05-8.13896E-07-5.53679E-19-1.55674E-18
 -1       989 1.01866E-04-4.29658E-05-2.51519E-05-2.04537E-05-3.30938E-18 1.61980E-18
 -1       990 8.45871E-05-2.60043E-05-2.50655E-05 1.88940E-05-2.20434E-18-1.03615E-18
 -1       991 9.45656E-05-2.22895E-05-3.09744E-05-2.01850E-07-3.06325E-19-1.43032E-18
 -1       992 9.65011E-05-2.72448E-05-2.96813E-05-6.34820E-08-6.30272E-19-3.43501E-19
 -1       993 9.62073E-05-2.84335E-05-2.90459E-05-6.77327E-07 4.26913E-19-5.86169E-19
 -1       994 9.49759E-05-2.32995E-05-3.07194E-05 1.88232E-06 4.58614E-19-8.41899E-19
 -1       995 9.56770E-05-2.88136E-05-2.86557E-05-6.86869E-07 4.65005E-19 6.46391E-20
 -1       996 9.55573E-05-2.45768E-05-3.04185E-05-1.08618E-06-7.88027E-19-7.89317E-19
 -1       997 9.98285E-05-3.77390E-05-2.65725E-05 2.03194E-05-1.62873E-18-1.23088E-18
 -1       998 6.84357E-05-1.65561E-05-2.21920E-05 7.16823E-06-4.10926E-19-2.57139E-18
 -1       999 9.55879E-05-2.43704E-05-3.05222E-05 7.68851E-08-3.96811E-20-1.35776E-18
 -1      1000 9.63619E-05-2.91033E-05-2.88251E-05-7.76757E-07 2.15068E-20-5.31039E-19
 -1      1001 9.64931E-05-2.89481E-05-2.89480E-05-7.29843E-07-3.81507E-20-5.13302E-19
 -1      1002 9.63785E-05-2.71543E-05-2.96688E-05 1.51311E-07 5.49205E-19-4.85594E-19
 -1      1003 9.60266E-05-2.60322E-05-2.99945E-05 7.52770E-07 4.79281E-19-6.88431E-19
 -1      1004 6.51213E-05-1.61002E-05-2.09462E-05-7.72039E-06-1.02151E-18-1.28893E-18
 -1      1005 8.93610E-05-3.48367E-05-2.33357E-05-2.25800E-05-3.76720E-18-2.07733E-18
 -1      1006 9.62030E-05-2.91378E-05-2.87422E-05-7.69748E-07 4.18146E-19-2.59579E-19
 -1      1007 8.08523E-05-2.71781E-05-2.29763E-05-1.94166E-05-1.71667E-18-1.73295E-18
 -1      1008 9.56358E-05-2.45416E-05-3.04692E-05 5.46103E-07 2.10684E-19-9.81179E-19
 -1      1009 9.65532E-05-2.80516E-05-2.93577E-05-3.20389E-07 5.70537E-19-4.57493E-19
 -1      1010 9.63675E-05-2.63643E-05-3.00021E-05-2.55048E-07-4.30929E-19-8.74472E-19
 -1      1011 9.56236E-05-2.44556E-05-3.04996E-05-3.08092E-07-2.01419E-19-1.20700E-18
 -1      1012 9.68940E-05-2.83988E-05-2.93551E-05 2.59027E-07-1.33522E-19-5.50433E-19
 -1      1013 9.68773E-05-2.88906E-05-2.91372E-05 3.70503E-07-7.35111E-21-4.95788E-19
 -1      1014 9.67591E-05-2.91509E-05-2.89750E-05 4.21878E-07-3.08347E-20-2.05072E-19
 -1      1015 9.65800E-05-2.92432E-05-2.88587E-05 4.34281E-07-2.98188E-21-2.54226E-19
 -1      1016 9.63677E-05-2.92158E-05-2.87794E-05 4.26370E-07-2.37813E-19-2.28604E-19
 -1      1017 9.61376E-05-2.91020E-05-2.87296E-05 4.12040E-07-1.83171E-19 7.40111E-19
 -1      1018 9.58955E-05-2.89223E-05-2.87029E-05 4.02257E-07-6.83390E-19-8.33233E-20
 -1      1019 9.56401E-05-2.86876E-05-2.86939E-05 4.05284E-07-2.06508E-19-1.05666E-19
 -1      1020 9.53644E-05-2.84022E-05-2.86981E-05 4.28273E-07-1.46154E-20-2.36759E-19
 -1      1021 9.50556E-05-2.80631E-05-2.87111E-05 4.76735E-07-1.00862E-19 4.91552E-19
 -1      1022 9.46977E-05-2.76645E-05-2.87286E-05 5.55647E-07-3.03629E-19 1.00431E-18
 -1      1023 9.42705E-05-2.71977E-05-2.87456E-05 6.69275E-07 7.65444E-19 2.88074E-19
 -1      1024 9.37506E-05-2.66533E-05-2.87562E-05 8.21139E-07 5.06090E-19 4.72981E-19
 -1      1025 9.31110E-05-2.60226E-05-2.87524E-05 1.01383E-06 6.58223E-19 9.22280E-19
 -1      1026 9.23216E-05-2.53000E-05-2.87239E-05 1.24882E-06-6.47181E-19 7.14076E-19
 -1      1027 9.13487E-05-2.44848E-05-2.86564E-05 1.52655E-06 2.76716E-19 1.35018E-18
 -1      1028 9.01545E-05-2.35836E-05-2.85309E-05 1.84738E-06 2.01190E-19 1.26716E-18
 -1      1029 8.86944E-05-2.26120E-05-2.83217E-05 2.21416E-06 3.59192E-19 1.31557E-18
 -1      1030 8.69120E-05-2.15949E-05-2.79941E-05 2.63817E-06-1.92230E-19 8.82673E-19
 -1      1031 8.47282E-05-2.05645E-05-2.75002E-05 3.15102E-06 2.89501E-19 1.17165E-19
 -1      1032 8.20227E-05-1.95573E-05-2.67732E-05 3.82617E-06 1.27648E-19-5.08268E-20
 -1      1033 7.86257E-05-1.86210E-05-2.57175E-05 4.80493E-06 4.12510E-20-5.49390E-19
 -1      1034 9.51426E-05-2.81698E-05-2.87026E-05-5.84977E-07-8.10984E-20 1.02349E-18
 -1      1035 9.61252E-05-2.91081E-05-2.87216E-05-5.20149E-07 6.41472E-19-1.25089E-19
 -1      1036 9.48291E-05-2.78116E-05-2.87218E-05-6.83449E-07 3.09266E-19 1.48469E-18
 -1      1037 9.44615E-05-2.73969E-05-2.87420E-05-8.31770E-07 2.99790E-19 5.21282E-19
 -1      1038 9.40224E-05-2.69206E-05-2.87580E-05-1.03921E-06 9.40953E-20-5.97008E-19
 -1      1039 9.34935E-05-2.63801E-05-2.87630E-05-1.31652E-06 4.48848E-19-4.06619E-19
 -1      1040 9.28573E-05-2.57783E-05-2.87483E-05-1.67664E-06 1.27512E-19-7.33363E-19
 -1      1041 9.20986E-05-2.51268E-05-2.87024E-05-2.13593E-06-7.40673E-19-5.34482E-19
 -1      1042 9.12073E-05-2.44503E-05-2.86104E-05-2.71640E-06-5.97170E-19-4.58550E-19
 -1      1043 9.01813E-05-2.37913E-05-2.84531E-05-3.44964E-06-5.55376E-19 6.63261E-19
 -1      1044 8.90310E-05-2.32161E-05-2.82068E-05-4.38349E-06-9.53908E-19-2.54148E-19
 -1      1045 8.77854E-05-2.28218E-05-2.78420E-05-5.59304E-06-9.55142E-19-5.66398E-19
 -1      1046 8.65014E-05-2.27478E-05-2.73238E-05-7.19986E-06-5.67216E-19 4.90748E-19
 -1      1047 8.53088E-05-2.32185E-05-2.66116E-05-9.39943E-06-2.90078E-19 2.44197E-19
 -1      1048 8.45513E-05-2.45517E-05-2.57102E-05-1.24213E-05 6.32206E-20-7.54040E-19
 -1      1049 9.65693E-05-2.86197E-05-2.91214E-05-5.93005E-07 2.11939E-19-6.08489E-19
 -1      1050 9.55738E-05-2.44389E-05-3.04846E-05-7.08493E-07-4.50925E-19-1.47614E-18
 -1      1051 9.54174E-05-2.84768E-05-2.86889E-05-5.27646E-07-3.98057E-19 2.14929E-19
 -1      1052 6.84290E-05-1.58412E-05-2.25208E-05-1.52514E-07-9.18386E-19-2.32474E-18
 -1      1053 9.67495E-05-2.75914E-05-2.96394E-05 6.02905E-08-4.80888E-19-4.54406E-19
 -1      1054 9.56668E-05-2.87360E-05-2.86846E-05-5.03749E-07 4.67322E-20 1.98699E-20
 -1      1055 9.59010E-05-2.89483E-05-2.86940E-05-5.04181E-07 4.71684E-19 1.56072E-19
 -1      1056 7.41801E-05-1.77513E-05-2.41669E-05 6.38788E-06 9.53923E-20-1.89150E-18
 -1      1057 9.63394E-05-2.92029E-05-2.87728E-05-5.40016E-07 2.75673E-19-2.62210E-19
 -1      1058 9.59095E-05-2.53664E-05-3.02310E-05 7.69739E-07 4.19942E-19-7.84864E-19
 -1      1059 7.47485E-05-2.04248E-05-2.32646E-05-1.22847E-05-2.73415E-19-1.28549E-18
 -1      1060 9.66549E-05-2.74598E-05-2.96544E-05-4.13646E-08 3.49457E-19-6.83865E-19
 -1      1061 9.62997E-05-2.60366E-05-3.01122E-05 1.47027E-07 4.34489E-19-9.66674E-19
 -1      1062 9.65364E-05-2.92102E-05-2.88540E-05-5.49371E-07 3.36856E-20-4.50758E-19
 -1      1063 9.62995E-05-2.60105E-05-3.01246E-05-2.25092E-08 5.35357E-20-1.07204E-18
 -1      1064 9.67076E-05-2.91018E-05-2.89741E-05-5.29425E-07-1.11995E-19-3.27770E-19
 -1      1065 9.70055E-05-2.86644E-05-2.92893E-05 1.20664E-07 4.71204E-20-4.30281E-19
 -1      1066 9.69450E-05-2.90601E-05-2.90935E-05 1.54250E-07-7.40622E-20-5.80740E-19
 -1      1067 9.67902E-05-2.92420E-05-2.89491E-05 1.66667E-07-2.12989E-19-5.40671E-19
 -1      1068 9.65814E-05-2.92756E-05-2.88451E-05 1.68907E-07-2.97682E-21-5.59273E-19
 -1      1069 9.63424E-05-2.92000E-05-2.87751E-05 1.65171E-07-3.31766E-20-4.09713E-19
 -1      1070 9.60853E-05-2.90432E-05-2.87322E-05 1.61128E-07-6.89201E-19-3.73722E-19
 -1      1071 9.58107E-05-2.88210E-05-2.87100E-05 1.60117E-07-3.85894E-19-1.78915E-19
 -1      1072 9.55224E-05-2.85467E-05-2.87037E-05 1.65188E-07 2.75820E-19-1.17539E-19
 -1      1073 9.52007E-05-2.82132E-05-2.87088E-05 1.78661E-07 5.19732E-19 3.48427E-19
 -1      1074 9.48349E-05-2.78216E-05-2.87199E-05 2.01737E-07 6.56552E-20 6.30647E-20
 -1      1075 9.44053E-05-2.73632E-05-2.87322E-05 2.35280E-07 1.17761E-19 4.50807E-19
 -1      1076 9.38889E-05-2.68290E-05-2.87398E-05 2.79082E-07 4.13860E-19 2.20904E-19
 -1      1077 9.32595E-05-2.62100E-05-2.87353E-05 3.31765E-07 3.28139E-19-4.64008E-19
 -1      1078 9.24877E-05-2.54996E-05-2.87090E-05 3.90230E-07 5.50466E-19-2.83413E-19
 -1      1079 9.15407E-05-2.46950E-05-2.86479E-05 4.49100E-07 3.22496E-19 1.18233E-18
 -1      1080 9.03815E-05-2.37992E-05-2.85350E-05 5.00197E-07-3.39004E-19 1.28082E-18
 -1      1081 8.89666E-05-2.28224E-05-2.83472E-05 5.32186E-07-5.40674E-19 2.48477E-19
 -1      1082 8.72404E-05-2.17806E-05-2.80539E-05 5.30557E-07-2.50947E-19-7.14556E-19
 -1      1083 8.51233E-05-2.06924E-05-2.76131E-05 4.77742E-07-5.48622E-19-2.73906E-19
 -1      1084 8.24888E-05-1.95684E-05-2.69665E-05 3.52249E-07 3.53898E-19-1.25375E-18
 -1      1085 7.91289E-05-1.84053E-05-2.60297E-05 1.26294E-07-2.91757E-19-1.23343E-18
 -1      1086 9.45370E-05-2.75022E-05-2.87293E-05-4.18594E-07 2.68867E-19 4.28326E-19
 -1      1087 7.45943E-05-1.72266E-05-2.45801E-05-4.24364E-09-6.31499E-19-1.53304E-18
 -1      1088 9.49333E-05-2.79304E-05-2.87155E-05-3.47979E-07-1.32430E-19 4.70284E-19
 -1      1089 9.34967E-05-2.64353E-05-2.87407E-05-6.65261E-07 4.86980E-19 5.64605E-19
 -1      1090 9.28066E-05-2.57868E-05-2.87229E-05-8.58591E-07 7.08044E-19 1.02207E-18
 -1      1091 9.19705E-05-2.50624E-05-2.86751E-05-1.11480E-06 2.57453E-19 2.91560E-19
 -1      1092 9.09639E-05-2.42725E-05-2.85823E-05-1.45197E-06-6.36844E-19-8.67636E-19
 -1      1093 8.97620E-05-2.34383E-05-2.84248E-05-1.89625E-06-9.62976E-19-8.40600E-19
 -1      1094 8.83400E-05-2.25944E-05-2.81771E-05-2.48684E-06-6.76465E-19-9.30864E-19
 -1      1095 8.66697E-05-2.17902E-05-2.78061E-05-3.28409E-06-1.24522E-18-7.94509E-19
 -1      1096 8.47141E-05-2.10901E-05-2.72685E-05-4.38212E-06-7.96466E-19-1.55640E-18
 -1      1097 8.24120E-05-2.05641E-05-2.65067E-05-5.92399E-06-3.31699E-19-2.52853E-18
 -1      1098 7.96924E-05-2.02923E-05-2.54548E-05-8.25149E-06-2.74037E-20-2.62455E-18
 -1      1099 9.68071E-05-2.82919E-05-2.93637E-05-2.99460E-07 2.79330E-19-2.36011E-19
 -1      1100 9.66221E-05-2.69048E-05-2.98780E-05-4.33896E-08-1.42519E-19-7.38641E-19
 -1      1101 9.69276E-05-2.79867E-05-2.95467E-05 5.56731E-08-1.42651E-19-3.94363E-19
 -1      1102 9.40656E-05-2.70060E-05-2.87399E-05-5.21831E-07 5.34033E-19 1.61498E-19
 -1      1103 9.52748E-05-2.82991E-05-2.87039E-05-3.02241E-07-4.60002E-19 7.65141E-19
 -1      1104 7.28001E-05-1.74869E-05-2.37281E-05-5.59204E-06-1.00402E-18-1.84226E-18
 -1      1105 9.63630E-05-2.92125E-05-2.87788E-05-2.86078E-07 3.60104E-19-4.47869E-19
 -1      1106 9.55739E-05-2.86079E-05-2.86995E-05-2.80269E-07-2.31343E-19 1.24748E-18
 -1      1107 9.68535E-05-2.78172E-05-2.95878E-05-7.12267E-08 1.17615E-20-6.91934E-19
 -1      1108 9.68039E-05-2.88077E-05-2.91415E-05-4.55324E-07 1.71637E-19-3.76386E-19
 -1      1109 9.61157E-05-2.90732E-05-2.87325E-05-2.77729E-07 1.96154E-19 4.36867E-19
 -1      1110 9.63458E-05-2.63277E-05-3.00092E-05 2.71807E-07 4.16395E-19-7.35217E-19
 -1      1111 9.65928E-05-2.92687E-05-2.88532E-05-2.91968E-07 7.77323E-20-7.35228E-20
 -1      1112 9.66290E-05-2.68878E-05-2.98895E-05 1.06685E-08 2.88104E-19-6.62196E-19
 -1      1113 9.67914E-05-2.92120E-05-2.89624E-05-2.83348E-07-6.61566E-21-4.45476E-19
 -1      1114 9.70091E-05-2.88963E-05-2.91908E-05-8.34643E-08-2.89525E-20-2.62268E-19
 -1      1115 9.56733E-05-2.86930E-05-2.87058E-05-9.83283E-08-9.76173E-20 1.20894E-18
 -1      1116 9.69712E-05-2.85608E-05-2.93188E-05-2.00886E-07 1.45441E-19-5.76625E-19
 -1      1117 9.67190E-05-2.73013E-05-2.97508E-05-8.74730E-09 1.43717E-19-9.44612E-19
 -1      1118 9.58545E-05-2.88696E-05-2.87080E-05-2.73612E-07 6.02306E-20 1.33841E-18
 -1      1119 9.69770E-05-2.81797E-05-2.94834E-05-4.51102E-08-2.06773E-19-4.90595E-19
 -1      1120 1.16854E-04 2.57561E-10-4.18547E-05-4.14673E-05-1.41878E-19 1.04503E-17
 -1      1121 8.86478E-05 7.19130E-11-3.72501E-05-2.41708E-05-1.16785E-19 3.74140E-18
 -1      1122 8.40739E-05 4.14536E-11-3.57654E-05-1.78815E-05-1.00056E-19 3.70365E-19
 -1      1123 8.23331E-05 3.20113E-11-3.50720E-05-1.38409E-05-8.32475E-20-1.42231E-18
 -1      1124 8.15320E-05 2.73457E-11-3.47387E-05-1.05376E-05-6.09070E-20-2.39231E-18
 -1      1125 8.11313E-05 2.46098E-11-3.45741E-05-7.64350E-06-4.06576E-20-3.04643E-18
 -1      1126 8.09229E-05 2.29587E-11-3.44910E-05-4.98205E-06-3.12873E-20-3.40677E-18
 -1      1127 8.08218E-05 2.20679E-11-3.44520E-05-2.43346E-06-2.20874E-20-3.63310E-18
 -1      1128 8.07931E-05 2.17981E-11-3.44411E-05 5.24612E-08-6.17077E-21-3.69780E-18
 -1      1129 8.08262E-05 2.21118E-11-3.44534E-05 2.54090E-06 2.79918E-21-3.77113E-18
 -1      1130 8.09319E-05 2.30603E-11-3.44938E-05 5.09794E-06 8.29166E-21-3.80242E-18
 -1      1131 8.11464E-05 2.47743E-11-3.45780E-05 7.77591E-06 2.75881E-20-3.67904E-18
 -1      1132 8.15537E-05 2.76443E-11-3.47448E-05 1.06972E-05 4.18620E-20-3.43394E-18
 -1      1133 8.23567E-05 3.24996E-11-3.50821E-05 1.40468E-05 6.42686E-20-2.84189E-18
 -1      1134 8.40710E-05 4.19203E-11-3.57857E-05 1.81331E-05 9.30148E-20-1.50576E-18
 -1      1135 8.83453E-05 6.67358E-11-3.73202E-05 2.40133E-05 1.22079E-19 1.37696E-18
 -1      1136 1.06618E-04 1.63914E-10-4.06333E-05 3.61939E-05 2.89685E-19 7.82531E-18
 -1      1137 1.30220E-04-2.57559E-05-4.02732E-05-2.61069E-05-7.28448E-19 1.48561E-17
 -1      1138 9.74531E-05-2.88615E-05-3.15766E-05-6.80519E-07-2.28937E-19 1.31220E-17
 -1      1139 9.01529E-05-2.70245E-05-2.78911E-05 3.87007E-07-1.28100E-19 1.04162E-17
 -1      1140 8.82385E-05-2.65691E-05-2.66405E-05 2.50668E-07-7.60344E-21 8.61242E-18
 -1      1141 8.78759E-05-2.64412E-05-2.63829E-05 1.65754E-07-4.31937E-20 7.11193E-18
 -1      1142 8.82306E-05-2.65165E-05-2.64664E-05 1.17917E-07-4.28140E-20 6.56726E-18
 -1      1143 8.89116E-05-2.66994E-05-2.66675E-05 8.72451E-08 2.64574E-21 6.05153E-18
 -1      1144 8.97198E-05-2.69293E-05-2.69081E-05 6.59274E-08-1.03948E-20 5.39547E-18
 -1      1145 9.05452E-05-2.71697E-05-2.71542E-05 5.01218E-08 2.64605E-20 4.51621E-18
 -1      1146 9.13261E-05-2.73998E-05-2.73877E-05 3.79116E-08-4.00996E-21 3.80077E-18
 -1      1147 9.20300E-05-2.76086E-05-2.75989E-05 2.82777E-08-3.84907E-20 2.70781E-18
 -1      1148 9.26436E-05-2.77915E-05-2.77836E-05 2.06150E-08 2.54749E-20 3.09833E-18
 -1      1149 9.31657E-05-2.79477E-05-2.79414E-05 1.45209E-08 3.03173E-20 3.27372E-18
 -1      1150 9.36037E-05-2.80792E-05-2.80742E-05 9.70553E-09 1.38981E-20 2.48435E-18
 -1      1151 9.39709E-05-2.81899E-05-2.81861E-05 5.95350E-09-1.49465E-20 2.58511E-18
 -1      1152 9.42848E-05-2.82849E-05-2.82821E-05 3.11026E-09-1.12102E-19 2.45459E-18
 -1      1153 9.45662E-05-2.83704E-05-2.83686E-05 1.07945E-09-9.87916E-21 1.84023E-18
 -1      1154 9.48397E-05-2.84538E-05-2.84530E-05-1.72905E-10 1.30630E-19 1.76370E-18
 -1      1155 9.51337E-05-2.85436E-05-2.85440E-05-6.09307E-10-1.13145E-19 1.38070E-18
 -1      1156 9.54813E-05-2.86498E-05-2.86515E-05-1.06931E-10 7.95562E-20 3.78460E-20
 -1      1157 9.59218E-05-2.87841E-05-2.87876E-05 1.56159E-09-1.34866E-19 9.65517E-19
 -1      1158 9.65017E-05-2.89606E-05-2.89663E-05 4.75320E-09 1.29330E-21 1.81414E-18
 -1      1159 9.72761E-05-2.91956E-05-2.92043E-05 9.98416E-09 1.48924E-19 2.55384E-18
 -1      1160 9.83096E-05-2.95085E-05-2.95210E-05 1.79583E-08-1.57897E-19 1.27691E-18
 -1      1161 9.96757E-05-2.99210E-05-2.99383E-05 2.95753E-08 2.47294E-19 2.71904E-18
 -1      1162 1.01454E-04-3.04565E-05-3.04795E-05 4.58730E-08-2.24494E-19 4.36494E-18
 -1      1163 1.03721E-04-3.11371E-05-3.11660E-05 6.78032E-08 1.37601E-20 3.09306E-18
 -1      1164 1.06532E-04-3.19786E-05-3.20115E-05 9.56417E-08-1.48088E-19 1.64650E-18
 -1      1165 1.09889E-04-3.29794E-05-3.30103E-05 1.27688E-07 2.38445E-19 1.43970E-18
 -1      1166 1.13677E-04-3.41038E-05-3.41189E-05 1.57800E-07 1.39894E-19 2.36545E-18
 -1      1167 1.17580E-04-3.52551E-05-3.52299E-05 1.71526E-07-1.00932E-19 1.98481E-18
 -1      1168 1.20965E-04-3.62438E-05-3.61442E-05 1.42040E-07-2.06133E-20 1.38970E-18
 -1      1169 1.22808E-04-3.67656E-05-3.65619E-05 3.08519E-08-9.09733E-20 9.35740E-19
 -1      1170 1.21780E-04-3.64297E-05-3.61314E-05-1.95310E-07-7.27390E-20 1.38151E-18
 -1      1171 1.16702E-04-3.49012E-05-3.45960E-05-5.20660E-07 2.24477E-19 2.86625E-18
 -1      1172 1.07484E-04-3.21761E-05-3.20316E-05-8.24962E-07 1.41564E-19 5.10729E-18
 -1      1173 9.61228E-05-2.88645E-05-2.90335E-05-8.90634E-07-1.56215E-19 1.64314E-18
 -1      1174 8.66723E-05-2.61387E-05-2.66188E-05-5.55938E-07-1.17850E-19-9.44442E-20
 -1      1175 8.32909E-05-2.51639E-05-2.57481E-05 7.83101E-08-4.10149E-20-2.81069E-19
 -1      1176 8.73962E-05-2.63283E-05-2.67337E-05 6.58503E-07 9.25847E-20-2.22939E-18
 -1      1177 9.65532E-05-2.89604E-05-2.90284E-05 8.76174E-07-1.39843E-20-4.56148E-18
 -1      1178 1.06297E-04-3.18010E-05-3.15833E-05 7.15053E-07-1.35621E-19-4.00308E-18
 -1      1179 1.12990E-04-3.37837E-05-3.34526E-05 3.75446E-07 2.30128E-19-2.00313E-18
 -1      1180 1.15256E-04-3.44796E-05-3.41866E-05 5.65861E-08 1.77632E-19 1.20610E-18
 -1      1181 1.13615E-04-3.40217E-05-3.38352E-05-1.52605E-07-9.45666E-20 8.75488E-19
 -1      1182 1.09451E-04-3.28102E-05-3.27357E-05-2.51170E-07 3.04214E-19 1.68430E-18
 -1      1183 1.04251E-04-3.12836E-05-3.13084E-05-2.65667E-07 8.24683E-20 1.46426E-18
 -1      1184 9.93434E-05-2.98381E-05-2.99480E-05-2.02480E-07 3.71134E-19 1.98809E-18
 -1      1185 9.59861E-05-2.88860E-05-2.89636E-05-2.59892E-08-1.20919E-19 2.23821E-18
 -1      1186 9.49533E-05-2.84686E-05-2.84001E-05 1.06119E-07 4.78607E-19 8.78903E-19
 -1      1187 1.31055E-04-3.77385E-05-3.86585E-05 1.21748E-05-1.64113E-19 1.32857E-17
 -1      1188 9.65545E-05-2.81881E-05-3.13290E-05 8.01562E-07 1.32269E-19 9.95613E-18
 -1      1189 9.03666E-05-2.69271E-05-2.78719E-05 1.20213E-07 8.72378E-20 6.90049E-18
 -1      1190 8.83249E-05-2.64964E-05-2.66768E-05 9.04555E-09 8.65562E-20 4.82192E-18
 -1      1191 8.79165E-05-2.64038E-05-2.64100E-05-2.52406E-08 5.75006E-20 3.52329E-18
 -1      1192 8.82526E-05-2.64992E-05-2.64822E-05-3.42462E-08-6.02684E-21 2.61458E-18
 -1      1193 8.89248E-05-2.66926E-05-2.66777E-05-3.53833E-08-8.86572E-21 2.07662E-18
 -1      1194 8.97281E-05-2.69280E-05-2.69155E-05-3.35932E-08-2.82755E-20 1.66367E-18
 -1      1195 9.05507E-05-2.71714E-05-2.71598E-05-3.04376E-08-6.00331E-20 7.00298E-19
 -1      1196 9.13299E-05-2.74030E-05-2.73920E-05-2.66101E-08 1.03908E-19 5.88119E-19
 -1      1197 9.20330E-05-2.76125E-05-2.76023E-05-2.25159E-08 7.82517E-20-1.81500E-19
 -1      1198 9.26462E-05-2.77957E-05-2.77864E-05-1.84057E-08 3.77486E-20-1.06397E-18
 -1      1199 9.31685E-05-2.79519E-05-2.79437E-05-1.44255E-08 1.21041E-19-1.82875E-18
 -1      1200 9.36072E-05-2.80833E-05-2.80763E-05-1.06472E-08-1.27518E-19-1.32086E-18
 -1      1201 9.39756E-05-2.81939E-05-2.81882E-05-7.09042E-09 9.80490E-20-1.66286E-18
 -1      1202 9.42910E-05-2.82888E-05-2.82844E-05-3.74229E-09 3.27951E-20-2.81390E-18
 -1      1203 9.45745E-05-2.83744E-05-2.83713E-05-5.74885E-10-1.21980E-19-3.19128E-18
 -1      1204 9.48501E-05-2.84578E-05-2.84562E-05 2.43683E-09 1.47658E-19-3.03591E-18
 -1      1205 9.51458E-05-2.85475E-05-2.85475E-05 5.29515E-09 1.72555E-20-3.25690E-18
 -1      1206 9.54931E-05-2.86528E-05-2.86548E-05 7.95572E-09 2.16253E-20-3.87082E-18
 -1      1207 9.59287E-05-2.87849E-05-2.87892E-05 1.02966E-08 9.38281E-20-5.22084E-18
 -1      1208 9.64940E-05-2.89560E-05-2.89631E-05 1.20771E-08-5.41154E-20-5.88093E-18
 -1      1209 9.72356E-05-2.91799E-05-2.91905E-05 1.28839E-08 4.15667E-20-5.81781E-18
 -1      1210 9.82035E-05-2.94715E-05-2.94863E-05 1.20624E-08-4.45706E-20-5.27690E-18
 -1      1211 9.94481E-05-2.98454E-05-2.98650E-05 8.64225E-09 7.02276E-22-4.32944E-18
 -1      1212 1.01013E-04-3.03141E-05-3.03387E-05 1.28218E-09-1.08389E-19-2.61069E-18
 -1      1213 1.02922E-04-3.08840E-05-3.09129E-05-1.16950E-08-1.09850E-19-3.27127E-18
 -1      1214 1.05161E-04-3.15495E-05-3.15798E-05-3.20285E-08 5.04249E-19-7.63846E-18
 -1      1215 1.07644E-04-3.22839E-05-3.23089E-05-6.07397E-08 2.73744E-20-8.16692E-18
 -1      1216 1.10170E-04-3.30273E-05-3.30348E-05-9.64734E-08-8.85435E-20-5.41606E-18
 -1      1217 1.12383E-04-3.36740E-05-3.36451E-05-1.32690E-07-1.26985E-19-4.29159E-18
 -1      1218 1.13734E-04-3.40650E-05-3.39767E-05-1.54278E-07-2.97606E-19-3.73378E-18
 -1      1219 1.13522E-04-3.39984E-05-3.38333E-05-1.36408E-07-2.29533E-19-1.97218E-18
 -1      1220 1.11051E-04-3.32752E-05-3.30413E-05-5.15128E-08-2.18243E-20-2.30327E-18
 -1      1221 1.05975E-04-3.17940E-05-3.15468E-05 1.10172E-07 3.15679E-19-4.87626E-18
 -1      1222 9.87577E-05-2.96783E-05-2.95239E-05 3.12157E-07 1.57987E-19-6.76022E-18
 -1      1223 9.09536E-05-2.73645E-05-2.74164E-05 4.64080E-07 4.18712E-19-7.54161E-18
 -1      1224 8.49054E-05-2.55318E-05-2.58291E-05 4.65009E-07-8.98980E-20-6.38753E-18
 -1      1225 8.27280E-05-2.48238E-05-2.52696E-05 2.80528E-07 1.21483E-19-4.56667E-18
 -1      1226 8.50927E-05-2.54847E-05-2.58815E-05-9.26332E-09-2.56932E-19-2.15718E-18
 -1      1227 9.07773E-05-2.71774E-05-2.73640E-05-2.65322E-07 3.24792E-19-3.15096E-18
 -1      1228 9.74154E-05-2.91868E-05-2.91333E-05-3.87270E-07-6.29375E-19 2.84180E-19
 -1      1229 1.02769E-04-3.08198E-05-3.06070E-05-3.65368E-07-1.00089E-19 2.70362E-19
 -1      1230 1.05596E-04-3.16873E-05-3.14293E-05-2.52862E-07-2.41537E-21-1.89399E-18
 -1      1231 1.05759E-04-3.17460E-05-3.15275E-05-1.12645E-07 9.24308E-20-3.26451E-18
 -1      1232 1.03867E-04-3.11838E-05-3.10458E-05 1.37757E-08 5.71807E-19-5.28545E-18
 -1      1233 1.00865E-04-3.02876E-05-3.02433E-05 1.07279E-07 3.42844E-20-5.65011E-18
 -1      1234 9.77747E-05-2.93644E-05-2.94103E-05 1.52720E-07-4.27616E-19-6.04856E-18
 -1      1235 9.56003E-05-2.87085E-05-2.87896E-05 1.04885E-07 5.91355E-19-5.86532E-18
 -1      1236 9.50386E-05-2.85057E-05-2.84308E-05-6.92373E-08 8.65562E-20-4.10880E-18
 -1      1237 9.53063E-05-2.87719E-05-2.84409E-05-6.56709E-08-4.31619E-18-1.18068E-19
 -1      1238 9.50743E-05-2.81747E-05-2.88171E-05-2.66280E-08-7.12773E-18-7.29709E-19
 -1      1239 9.43932E-05-2.58939E-05-2.95155E-05 1.08674E-07-2.90220E-18 1.29735E-18
 -1      1240 9.32813E-05-2.21604E-05-3.05982E-05 1.82254E-07 1.57048E-18 2.98801E-19
 -1      1241 9.18728E-05-1.74061E-05-3.19723E-05 2.30169E-07 2.90180E-18-4.17256E-19
 -1      1242 9.03365E-05-1.21989E-05-3.34664E-05 2.50975E-07 9.81923E-19-5.36953E-19
 -1      1243 8.88685E-05-7.19506E-06-3.48889E-05 2.34627E-07-1.85373E-18-3.66367E-19
 -1      1244 8.76945E-05-3.18029E-06-3.60172E-05 1.68100E-07-7.11243E-18-6.34332E-19
 -1      1245 8.70571E-05-9.92213E-07-3.66246E-05 5.96039E-08-9.95771E-18-4.58364E-19
 -1      1246 8.71012E-05-1.13599E-06-3.65770E-05-6.81435E-08-6.64087E-19 1.18071E-18
 -1      1247 8.78369E-05-3.65243E-06-3.58640E-05-1.84033E-07-2.19890E-18-8.83237E-19
 -1      1248 8.91305E-05-8.05546E-06-3.46190E-05-2.63002E-07-9.15971E-18-2.43560E-19
 -1      1249 9.07524E-05-1.35854E-05-3.30490E-05-2.91981E-07-1.29249E-17 5.58985E-19
 -1      1250 9.24613E-05-1.93829E-05-3.14066E-05-2.76632E-07-9.90123E-18 1.81920E-19
 -1      1251 9.39771E-05-2.45124E-05-2.99726E-05-2.39145E-07-5.93021E-18 4.96470E-19
 -1      1252 9.48665E-05-2.77136E-05-2.89800E-05 4.47424E-08-3.19643E-18-1.11917E-18
 -1      1253 9.53497E-05-2.88490E-05-2.84045E-05 8.26001E-08-6.97743E-19 2.66130E-19
 -1      1254 3.69650E-05-1.14967E-04 1.96207E-05-1.42337E-05 5.19612E-18 4.13458E-19
 -1      1255 1.90110E-05-7.08559E-05 1.09578E-05-2.62633E-05 5.69714E-18 2.26708E-18
 -1      1256 7.68565E-06-1.12739E-05-5.19557E-06-2.08186E-06 1.06929E-17 6.08508E-18
 -1      1257 3.20294E-05 2.45093E-05-2.50029E-05 5.08583E-05 9.71377E-18 9.62060E-18
 -1      1258 1.03735E-04 1.54413E-05-4.55707E-05 9.98484E-05 1.05888E-17 1.65442E-17
 -1      1259 2.05154E-04-3.05160E-05-6.41868E-05 1.09860E-04 6.66446E-18 1.41455E-17
 -1      1260 2.91810E-04-8.14603E-05-7.60256E-05 6.42408E-05 1.88311E-18 8.27678E-18
 -1      1261 3.11917E-04-9.43182E-05-7.84806E-05-1.71060E-05 5.34293E-19-2.50658E-18
 -1      1262 2.59680E-04-6.27976E-05-7.17253E-05-8.76707E-05 3.07282E-18-1.13816E-17
 -1      1263 1.64089E-04-1.10208E-05-5.72382E-05-1.12221E-04 7.62245E-18-1.50619E-17
 -1      1264 7.14291E-05 2.35443E-05-3.80274E-05-8.40546E-05 1.23616E-17-1.47943E-17
 -1      1265 1.69890E-05 1.50657E-05-1.70986E-05-2.85791E-05 1.56295E-17-1.20135E-17
 -1      1266 9.11968E-06-3.31838E-05 1.76521E-06 1.55262E-05 1.48027E-17-7.45389E-18
 -1      1267 2.64076E-05-8.93875E-05 1.49260E-05 2.42168E-05 1.30646E-17-3.37214E-18
 -1      1268 3.81124E-05-1.15795E-04 1.99232E-05 1.07957E-06 1.71609E-18-9.13366E-19
 -1      1269 2.85981E-05-9.47759E-05 1.60074E-05-2.45719E-05-6.00208E-18-2.06729E-18
 -1      1270 1.00113E-05-3.97138E-05 3.59140E-06-1.95956E-05-1.51263E-17-8.12220E-18
 -1      1271 1.40968E-05 8.85099E-06-1.41425E-05 2.01172E-05-1.90481E-17-1.44046E-17
 -1      1272 6.02495E-05 2.30464E-05-3.42511E-05 7.35723E-05-1.45122E-17-1.56227E-17
 -1      1273 1.49773E-04-5.29503E-06-5.46094E-05 1.09801E-04-8.54910E-18-1.56176E-17
 -1      1274 2.50054E-04-5.67645E-05-7.04082E-05 9.55979E-05-4.29043E-18-1.29367E-17
 -1      1275 3.11715E-04-9.27039E-05-7.85775E-05 3.02158E-05-1.40825E-18-7.17649E-18
 -1      1276 3.01868E-04-8.56655E-05-7.75264E-05-5.33388E-05-1.13847E-18 2.56312E-18
 -1      1277 2.24498E-04-4.05963E-05-6.70129E-05-1.08670E-04-3.22423E-18 8.47287E-18
 -1      1278 1.18014E-04 9.96793E-06-4.87769E-05-1.04645E-04-6.71782E-18 1.15112E-17
 -1      1279 3.67226E-05 2.34874E-05-2.63478E-05-5.38779E-05-8.13152E-18 8.37716E-18
 -1      1280 7.93823E-06-1.19749E-05-5.09615E-06 2.73360E-06-8.28059E-18 4.67901E-18
 -1      1281 1.95561E-05-7.20259E-05 1.10862E-05 2.77364E-05-1.12545E-17 3.29051E-18
 -1      1282 3.69126E-05-1.14864E-04 1.96348E-05 1.43403E-05-5.61625E-18 1.15980E-18
 -1      1283 1.04441E-04-2.20187E-05-3.78915E-05-1.72770E-05-2.50086E-19 9.30317E-18
 -1      1284 9.03162E-05-6.68056E-06-3.60160E-05-2.04758E-05-1.00755E-18 2.21790E-18
 -1      1285 9.26524E-05-6.73907E-06-3.72211E-05-2.57635E-05-1.21697E-18 3.97004E-18
 -1      1286 8.59000E-05-4.09655E-06-3.51283E-05-1.64366E-05-1.14770E-18-4.13802E-19
 -1      1287 8.71533E-05-4.08971E-06-3.55979E-05-1.88574E-05-1.24482E-18 7.75512E-19
 -1      1288 9.21309E-05-1.04628E-05-3.50922E-05-1.90400E-05-1.82409E-18 1.98195E-18
 -1      1289 8.40935E-05-3.18930E-06-3.46858E-05-1.28236E-05-1.06293E-18-1.87237E-18
 -1      1290 8.47015E-05-3.15889E-06-3.49095E-05-1.46362E-05-1.16364E-18-1.20083E-18
 -1      1291 8.78592E-05-7.39391E-06-3.45719E-05-1.54144E-05-1.83630E-18-2.20890E-19
 -1      1292 8.31867E-05-2.72868E-06-3.44704E-05-9.68984E-06-8.73271E-19-2.68082E-18
 -1      1293 8.35003E-05-2.71204E-06-3.45792E-05-1.12380E-05-9.88567E-19-2.27657E-18
 -1      1294 8.58626E-05-5.98436E-06-3.43045E-05-1.19642E-05-1.65010E-18-1.48292E-18
 -1      1295 8.26943E-05-2.45723E-06-3.43642E-05-6.91832E-06-6.71859E-19-3.18503E-18
 -1      1296 8.28637E-05-2.44893E-06-3.44186E-05-8.28943E-06-7.48671E-19-2.89978E-18
 -1      1297 8.48216E-05-5.21703E-06-3.41733E-05-8.94594E-06-1.34836E-18-2.18018E-18
 -1      1298 8.24202E-05-2.29248E-06-3.43114E-05-4.29766E-06-5.22686E-19-3.50768E-18
 -1      1299 8.25107E-05-2.28854E-06-3.43386E-05-5.59950E-06-5.88006E-19-3.36809E-18
 -1      1300 8.42359E-05-4.76208E-06-3.41099E-05-6.22026E-06-1.02935E-18-2.62969E-18
 -1      1301 8.22885E-05-2.20342E-06-3.42893E-05-1.79122E-06-3.52003E-19-3.66763E-18
 -1      1302 8.23272E-05-2.20182E-06-3.43003E-05-3.04301E-06-4.00150E-19-3.55930E-18
 -1      1303 8.39152E-05-4.49962E-06-3.40810E-05-3.64709E-06-7.77383E-19-2.83584E-18
 -1      1304 8.22626E-05-2.17596E-06-3.42866E-05 6.70206E-07-1.84117E-19-3.76644E-18
 -1      1305 8.22612E-05-2.17600E-06-3.42863E-05-5.66465E-07-2.57436E-19-3.73000E-18
 -1      1306 8.37745E-05-4.38025E-06-3.40703E-05-1.17136E-06-4.67678E-19-3.04496E-18
 -1      1307 8.23358E-05-2.20613E-06-3.43018E-05 3.15034E-06 1.17393E-20-3.82525E-18
 -1      1308 8.22942E-05-2.20776E-06-3.42901E-05 1.89596E-06-5.55270E-20-3.79005E-18
 -1      1309 8.37794E-05-4.38441E-06-3.40706E-05 1.27451E-06-2.16491E-19-3.12141E-18
 -1      1310 8.25281E-05-2.29898E-06-3.43411E-05 5.71598E-06 1.61019E-19-3.79955E-18
 -1      1311 8.24340E-05-2.30236E-06-3.43133E-05 4.40818E-06 1.17253E-19-3.81317E-18
 -1      1312 8.39308E-05-4.51311E-06-3.40821E-05 3.75436E-06 8.94612E-20-3.16745E-18
 -1      1313 8.28865E-05-2.46444E-06-3.44210E-05 8.39868E-06 3.92534E-19-3.66355E-18
 -1      1314 8.27143E-05-2.47314E-06-3.43662E-05 7.01848E-06 3.11434E-19-3.74445E-18
 -1      1315 8.42622E-05-4.78582E-06-3.41108E-05 6.31406E-06 4.16853E-19-3.08447E-18
 -1      1316 8.35432E-05-2.74143E-06-3.45840E-05 1.13995E-05 6.94130E-19-3.36759E-18
 -1      1317 8.32225E-05-2.75855E-06-3.44734E-05 9.83433E-06 5.64250E-19-3.53180E-18
 -1      1318 8.48636E-05-5.25849E-06-3.41736E-05 9.05797E-06 8.09254E-19-2.86829E-18
 -1      1319 8.47628E-05-3.20324E-06-3.49181E-05 1.48484E-05 9.21598E-19-2.69219E-18
 -1      1320 8.41511E-05-3.24000E-06-3.46917E-05 1.30081E-05 8.17334E-19-3.13291E-18
 -1      1321 8.59451E-05-6.06300E-06-3.43059E-05 1.21270E-05 1.25964E-18-2.54713E-18
 -1      1322 8.72521E-05-4.08993E-06-3.56196E-05 1.90953E-05 1.18029E-18-1.17642E-18
 -1      1323 8.59692E-05-4.15385E-06-3.51364E-05 1.66975E-05 1.01310E-18-2.08365E-18
 -1      1324 8.79885E-05-7.51679E-06-3.45748E-05 1.56548E-05 1.58116E-18-1.69814E-18
 -1      1325 9.34651E-05-6.79171E-06-3.71164E-05 2.50994E-05 1.10760E-18 1.94209E-18
 -1      1326 9.01312E-05-6.43729E-06-3.60385E-05 2.11526E-05 1.04752E-18 9.05266E-21
 -1      1327 9.23597E-05-1.06974E-05-3.50774E-05 1.96803E-05 1.81622E-18 5.73865E-20
 -1      1328 1.23627E-04-2.49236E-05-3.90150E-05 2.83684E-05 6.41839E-19 8.34243E-18
 -1      1329 1.00081E-04-1.44237E-05-3.73541E-05 2.40528E-05 5.99170E-19 3.85231E-18
 -1      1330 1.01678E-04-1.93419E-05-3.54022E-05 2.14016E-05 1.87391E-18 2.92735E-18
 -1      1331 1.02605E-04-2.78051E-05-3.47579E-05 7.33043E-06 1.09561E-18 7.84268E-18
 -1      1332 1.05147E-04-3.02300E-05-3.35254E-05-7.96076E-06-9.02725E-19 9.45818E-18
 -1      1333 9.82594E-05-2.78425E-05-3.07618E-05-4.98934E-06-8.97220E-19 8.42348E-18
 -1      1334 9.55012E-05-2.78488E-05-2.92540E-05-2.49092E-06-6.88505E-19 7.87401E-18
 -1      1335 9.32677E-05-2.75575E-05-2.82143E-05-2.04427E-06-7.32763E-19 6.84667E-18
 -1      1336 9.94834E-05-2.80521E-05-3.09823E-05-7.88863E-06-1.56336E-18 5.17757E-18
 -1      1337 9.15770E-05-2.71993E-05-2.75797E-05-8.39744E-07-5.42055E-19 6.45370E-18
 -1      1338 9.08590E-05-2.71035E-05-2.72770E-05-7.29600E-07-5.08034E-19 5.65834E-18
 -1      1339 9.47150E-05-2.77691E-05-2.88154E-05-3.12326E-06-1.21025E-18 4.24492E-18
 -1      1340 9.01078E-05-2.69203E-05-2.70335E-05-1.75527E-07-3.64740E-19 5.27622E-18
 -1      1341 9.00337E-05-2.69467E-05-2.69982E-05-1.17464E-07-3.55449E-19 4.72074E-18
 -1      1342 9.25137E-05-2.74981E-05-2.78940E-05-1.05636E-06-9.42814E-19 3.47579E-18
 -1      1343 8.97732E-05-2.68790E-05-2.69236E-05 1.52546E-07-1.68852E-19 4.55168E-18
 -1      1344 8.99860E-05-2.69685E-05-2.69847E-05 1.81133E-07-2.33480E-19 4.37201E-18
 -1      1345 9.15532E-05-2.73538E-05-2.75264E-05-7.33687E-08-5.63552E-19 2.96917E-18
 -1      1346 8.99885E-05-2.69713E-05-2.69908E-05 3.11834E-07-2.17175E-19 4.17141E-18
 -1      1347 9.03285E-05-2.70902E-05-2.70892E-05 3.23447E-07-1.97102E-19 3.92285E-18
 -1      1348 9.12979E-05-2.73413E-05-2.74178E-05 4.13089E-07-3.95546E-19 2.62358E-18
 -1      1349 9.04690E-05-2.71315E-05-2.71359E-05 3.77626E-07-1.61393E-19 3.89025E-18
 -1      1350 9.08538E-05-2.72589E-05-2.72471E-05 3.79211E-07-1.96251E-19 3.57680E-18
 -1      1351 9.14280E-05-2.74141E-05-2.74392E-05 6.40396E-07-3.87329E-19 2.38098E-18
 -1      1352 9.10603E-05-2.73187E-05-2.73130E-05 3.89511E-07-2.01795E-19 3.48372E-18
 -1      1353 9.14443E-05-2.74423E-05-2.74243E-05 3.85253E-07-2.21881E-19 3.06619E-18
 -1      1354 9.17575E-05-2.75320E-05-2.75272E-05 7.22082E-07-4.93590E-19 2.22392E-18
 -1      1355 9.16741E-05-2.75086E-05-2.74968E-05 3.70640E-07-2.83353E-19 2.95689E-18
 -1      1356 9.20323E-05-2.76218E-05-2.76010E-05 3.63247E-07-4.60990E-19 2.46339E-18
 -1      1357 9.21762E-05-2.76681E-05-2.76464E-05 7.20082E-07-4.65072E-19 2.09067E-18
 -1      1358 9.22606E-05-2.76874E-05-2.76727E-05 3.35568E-07-3.77977E-19 2.21872E-18
 -1      1359 9.25803E-05-2.77872E-05-2.77661E-05 3.26842E-07-1.69320E-19 1.95421E-18
 -1      1360 9.26182E-05-2.78057E-05-2.77756E-05 6.71591E-07-6.42612E-19 1.79817E-18
 -1      1361 9.27934E-05-2.78483E-05-2.78328E-05 2.93810E-07 1.67722E-19 1.63771E-18
 -1      1362 9.30703E-05-2.79337E-05-2.79140E-05 2.84965E-07 3.76280E-20 1.89538E-18
 -1      1363 9.30454E-05-2.79353E-05-2.79025E-05 6.00313E-07-1.39009E-19 1.07705E-18
 -1      1364 9.32620E-05-2.79886E-05-2.79739E-05 2.51723E-07-1.29509E-19 1.95648E-18
 -1      1365 9.34972E-05-2.80604E-05-2.80431E-05 2.43580E-07-2.60427E-19 1.74646E-18
 -1      1366 9.34382E-05-2.80522E-05-2.80206E-05 5.21873E-07-4.78460E-20 7.15891E-19
 -1      1367 9.36664E-05-2.81087E-05-2.80960E-05 2.13638E-07-1.68805E-19 1.64256E-18
 -1      1368 9.38645E-05-2.81685E-05-2.81545E-05 2.06765E-07-8.51229E-20 1.64750E-18
 -1      1369 9.37891E-05-2.81550E-05-2.81270E-05 4.46812E-07-2.50038E-19 7.42417E-19
 -1      1370 9.40138E-05-2.82110E-05-2.82011E-05 1.82615E-07-8.94290E-20 1.43241E-18
 -1      1371 9.41821E-05-2.82613E-05-2.82510E-05 1.77430E-07-2.82838E-19 1.41967E-18
 -1      1372 9.40994E-05-2.82445E-05-2.82220E-05 3.82446E-07-3.91043E-19 6.83237E-19
 -1      1373 9.43166E-05-2.82994E-05-2.82929E-05 1.60991E-07-3.58664E-19 1.60105E-18
 -1      1374 9.44643E-05-2.83430E-05-2.83370E-05 1.57841E-07-4.02593E-19 1.24525E-18
 -1      1375 9.43761E-05-2.83230E-05-2.83075E-05 3.34155E-07-3.71975E-19 7.03380E-19
 -1      1376 9.45912E-05-2.83789E-05-2.83765E-05 1.50791E-07-1.01942E-19 1.10942E-18
 -1      1377 9.47295E-05-2.84192E-05-2.84179E-05 1.50013E-07-1.15007E-19 1.06824E-18
 -1      1378 9.46314E-05-2.83943E-05-2.83870E-05 3.06318E-07-4.96248E-19 9.36764E-19
 -1      1379 9.48578E-05-2.84554E-05-2.84578E-05 1.54053E-07-3.77508E-20 9.23441E-19
 -1      1380 9.49997E-05-2.84964E-05-2.85005E-05 1.56030E-07-4.03810E-20 9.87031E-19
 -1      1381 9.48808E-05-2.84630E-05-2.84652E-05 3.03031E-07-1.22323E-19 5.32909E-19
 -1      1382 9.51404E-05-2.85360E-05-2.85442E-05 1.73080E-07-1.45481E-19 7.18269E-19
 -1      1383 9.53010E-05-2.85823E-05-2.85925E-05 1.78277E-07-3.72685E-19 3.95155E-19
 -1      1384 9.51439E-05-2.85348E-05-2.85481E-05 3.28669E-07-2.68229E-19-1.43514E-20
 -1      1385 9.54669E-05-2.86291E-05-2.86442E-05 2.10635E-07-1.60877E-19 2.36875E-19
 -1      1386 9.56640E-05-2.86860E-05-2.87034E-05 2.19632E-07-9.51309E-20 5.43091E-21
 -1      1387 9.54438E-05-2.86164E-05-2.86428E-05 3.88307E-07-4.83345E-19 2.47482E-19
 -1      1388 9.58705E-05-2.87443E-05-2.87677E-05 2.70059E-07 7.38288E-20 9.99965E-20
 -1      1389 9.61250E-05-2.88183E-05-2.88440E-05 2.83570E-07-7.50881E-20 2.79967E-19
 -1      1390 9.58081E-05-2.87157E-05-2.87576E-05 4.88014E-07 3.71880E-20-2.15273E-19
 -1      1391 9.63898E-05-2.88930E-05-2.89265E-05 3.55300E-07 1.19103E-19 5.13778E-19
 -1      1392 9.67267E-05-2.89917E-05-2.90273E-05 3.74170E-07 3.71741E-19 8.27085E-19
 -1      1393 9.62687E-05-2.88421E-05-2.89024E-05 6.34971E-07 2.91912E-19-2.35022E-19
 -1      1394 9.70704E-05-2.90888E-05-2.91344E-05 4.70774E-07 8.55892E-20 4.89396E-19
 -1      1395 9.75189E-05-2.92211E-05-2.92683E-05 4.95943E-07-7.97501E-20 4.64818E-19
 -1      1396 9.68631E-05-2.90066E-05-2.90885E-05 8.37319E-07 1.06742E-19-5.96609E-19
 -1      1397 9.79646E-05-2.93473E-05-2.94073E-05 6.20945E-07 6.97049E-20 1.08922E-18
 -1      1398 9.85584E-05-2.95238E-05-2.95840E-05 6.53340E-07 8.68242E-20 9.42198E-19
 -1      1399 9.76338E-05-2.92216E-05-2.93286E-05 1.10355E-06 3.35468E-19-2.71183E-19
 -1      1400 9.91313E-05-2.96865E-05-2.97626E-05 8.09384E-07 6.06127E-19 1.05380E-18
 -1      1401 9.99072E-05-2.99188E-05-2.99930E-05 8.49694E-07 4.18454E-19 1.87874E-18
 -1      1402 9.86279E-05-2.95020E-05-2.96368E-05 1.44107E-06 3.88866E-19 9.81256E-19
 -1      1403 1.00633E-04-3.01257E-05-3.02191E-05 1.03693E-06 2.09690E-20 1.93330E-18
 -1      1404 1.01628E-04-3.04264E-05-3.05138E-05 1.08514E-06-2.27905E-19 2.01870E-18
 -1      1405 9.98951E-05-2.98637E-05-3.00272E-05 1.85334E-06 3.26773E-19 4.95961E-20
 -1      1406 1.02529E-04-3.06847E-05-3.07939E-05 1.29830E-06-2.69471E-19 1.91219E-18
 -1      1407 1.03775E-04-3.10652E-05-3.11616E-05 1.35286E-06-1.41019E-19 1.20974E-18
 -1      1408 1.01483E-04-3.03240E-05-3.05124E-05 2.33456E-06-4.44179E-19 6.73756E-19
 -1      1409 1.04863E-04-3.13805E-05-3.14984E-05 1.57634E-06-1.83062E-19 9.66048E-19
 -1      1410 1.06373E-04-3.18475E-05-3.19419E-05 1.63263E-06-3.85665E-19 3.46470E-19
 -1      1411 1.03427E-04-3.08996E-05-3.11002E-05 2.86049E-06-5.48103E-19 3.00765E-19
 -1      1412 1.07640E-04-3.22209E-05-3.23309E-05 1.83284E-06-1.28163E-19 1.45398E-19
 -1      1413 1.09385E-04-3.27704E-05-3.28398E-05 1.88085E-06 1.37385E-19 3.04389E-19
 -1      1414 1.05735E-04-3.16039E-05-3.17874E-05 3.37371E-06-3.48885E-19-2.45914E-19
 -1      1415 1.10786E-04-3.31948E-05-3.32633E-05 1.99607E-06 1.25281E-19 6.56715E-19
 -1      1416 1.12662E-04-3.38006E-05-3.38041E-05 2.01711E-06 2.81345E-19 1.15928E-18
 -1      1417 1.08365E-04-3.24411E-05-3.25517E-05 3.76262E-06 1.15693E-19-6.72465E-19
 -1      1418 1.14092E-04-3.42545E-05-3.42237E-05 1.94785E-06 7.47771E-22 1.26232E-18
 -1      1419 1.15870E-04-3.48523E-05-3.47263E-05 1.91139E-06-3.30305E-19 8.43936E-19
 -1      1420 1.11183E-04-3.33953E-05-3.33398E-05 3.83757E-06 1.78990E-19 4.32539E-19
 -1      1421 1.17142E-04-3.52903E-05-3.50769E-05 1.52141E-06-1.01872E-19 1.32198E-18
 -1      1422 1.18427E-04-3.57582E-05-3.54247E-05 1.38580E-06 4.64048E-20 1.52141E-18
 -1      1423 1.13918E-04-3.44098E-05-3.40572E-05 3.31878E-06-1.00631E-19 6.62393E-19
 -1      1424 1.19254E-04-3.60992E-05-3.56145E-05 5.35655E-07 5.55137E-20 1.27852E-18
 -1      1425 1.19485E-04-3.62465E-05-3.56503E-05 2.60874E-07-3.96835E-19 9.21135E-19
 -1      1426 1.16120E-04-3.53529E-05-3.45647E-05 1.87251E-06-1.46358E-19 1.26452E-18
 -1      1427 1.19508E-04-3.63643E-05-3.55798E-05-1.09526E-06 1.89729E-19 9.07953E-19
 -1      1428 1.18078E-04-3.59579E-05-3.51496E-05-1.51078E-06 4.34621E-19 1.29998E-18
 -1      1429 1.17148E-04-3.59732E-05-3.46995E-05-7.41850E-07 1.32918E-19 1.10707E-18
 -1      1430 1.16967E-04-3.56952E-05-3.47555E-05-3.15874E-06 6.67343E-19 2.01260E-18
 -1      1431 1.13555E-04-3.45660E-05-3.38010E-05-3.61910E-06 1.00269E-18 2.42786E-18
 -1      1432 1.16276E-04-3.58857E-05-3.43319E-05-4.36086E-06 1.06227E-18 1.27794E-18
 -1      1433 1.11238E-04-3.38149E-05-3.31188E-05-4.94870E-06 2.33966E-19 3.02031E-18
 -1      1434 1.06276E-04-3.20520E-05-3.17900E-05-5.22715E-06-6.20425E-19 2.40933E-18
 -1      1435 1.13015E-04-3.46966E-05-3.34549E-05-8.03103E-06 9.38380E-19 1.33185E-18
 -1      1436 1.03231E-04-3.09195E-05-3.09926E-05-5.37199E-06-1.36243E-18 1.96501E-18
 -1      1437 9.81692E-05-2.90368E-05-2.96807E-05-5.20478E-06-8.27564E-19 9.43330E-19
 -1      1438 1.07679E-04-3.23531E-05-3.22564E-05-9.95159E-06-1.29230E-18 7.86947E-19
 -1      1439 9.55169E-05-2.79754E-05-2.90372E-05-3.64822E-06 4.57530E-20 8.43327E-20
 -1      1440 9.23760E-05-2.67840E-05-2.82355E-05-2.98596E-06-5.77637E-19-1.43546E-19
 -1      1441 1.01871E-04-2.95779E-05-3.10989E-05-8.32903E-06-1.26713E-18 5.67883E-19
 -1      1442 9.13583E-05-2.63827E-05-2.79858E-05-2.36041E-07-9.10799E-19 4.33707E-19
 -1      1443 9.15333E-05-2.64775E-05-2.80159E-05 6.02754E-07 1.77149E-19 1.47966E-19
 -1      1444 9.80919E-05-2.77350E-05-3.03767E-05-3.05104E-06-6.93614E-19 3.47720E-19
 -1      1445 9.25948E-05-2.69638E-05-2.82351E-05 3.13531E-06-5.31765E-19-5.49460E-19
 -1      1446 9.58327E-05-2.82377E-05-2.90374E-05 3.67529E-06-1.25578E-18-2.12965E-18
 -1      1447 9.81690E-05-2.78846E-05-3.03246E-05 3.48011E-06-1.18464E-18 2.99942E-19
 -1      1448 9.82182E-05-2.92349E-05-2.95918E-05 4.74079E-06-7.49608E-20-2.38207E-18
 -1      1449 1.02797E-04-3.09627E-05-3.07654E-05 4.75804E-06 2.52346E-19-2.63798E-18
 -1      1450 1.01769E-04-2.98421E-05-3.08989E-05 7.85919E-06-1.19448E-18 9.39148E-20
 -1      1451 1.05196E-04-3.18679E-05-3.13898E-05 4.16735E-06-5.85975E-20-2.85508E-18
 -1      1452 1.09136E-04-3.32755E-05-3.24395E-05 3.79878E-06 2.35839E-19-2.66387E-18
 -1      1453 1.06662E-04-3.23252E-05-3.17986E-05 8.31954E-06-8.21887E-20-8.12702E-19
 -1      1454 1.10578E-04-3.37289E-05-3.28787E-05 2.25052E-06 1.04627E-18-1.49920E-18
 -1      1455 1.12688E-04-3.44193E-05-3.34703E-05 1.77097E-06 1.41309E-18-4.40245E-19
 -1      1456 1.10462E-04-3.40709E-05-3.26157E-05 5.60830E-06 1.75090E-18-1.29781E-19
 -1      1457 1.12871E-04-3.43903E-05-3.35898E-05 1.12995E-07 4.74047E-19 9.35349E-19
 -1      1458 1.12972E-04-3.43655E-05-3.36406E-05-2.81262E-07 7.52046E-19 1.56214E-18
 -1      1459 1.11926E-04-3.45920E-05-3.30245E-05 1.68783E-06 2.17919E-18 5.66599E-19
 -1      1460 1.12083E-04-3.39915E-05-3.34435E-05-1.52888E-06 6.99391E-19 1.65948E-18
 -1      1461 1.10647E-04-3.34602E-05-3.30591E-05-1.76843E-06 4.81810E-19 1.87536E-18
 -1      1462 1.11034E-04-3.40778E-05-3.29009E-05-1.79617E-06 1.14912E-18 1.69314E-18
 -1      1463 1.09077E-04-3.29016E-05-3.26385E-05-2.44423E-06 5.59660E-19 2.04421E-18
 -1      1464 1.06793E-04-3.21103E-05-3.20052E-05-2.53497E-06 9.24020E-19 3.19181E-18
 -1      1465 1.08437E-04-3.29494E-05-3.23143E-05-4.06911E-06 6.39404E-19 2.73619E-18
 -1      1466 1.04958E-04-3.14958E-05-3.14871E-05-2.66741E-06-1.66974E-19 2.50436E-18
 -1      1467 1.02495E-04-3.06579E-05-3.07989E-05-2.63368E-06-3.40229E-19 1.87099E-18
 -1      1468 1.04956E-04-3.15738E-05-3.14486E-05-5.00736E-06-3.85627E-19 3.48250E-18
 -1      1469 1.00755E-04-3.00802E-05-3.03053E-05-2.29292E-06 5.97403E-19 1.18211E-18
 -1      1470 9.87033E-05-2.93786E-05-2.97314E-05-2.14393E-06 1.97931E-19 1.79057E-18
 -1      1471 1.01344E-04-3.01955E-05-3.05205E-05-4.74265E-06-9.79514E-20 2.24848E-18
 -1      1472 9.73139E-05-2.88890E-05-2.93500E-05-1.37671E-06-1.78934E-19 2.02917E-18
 -1      1473 9.61735E-05-2.85405E-05-2.89944E-05-1.14035E-06-4.57825E-19 1.95364E-18
 -1      1474 9.81870E-05-2.89602E-05-2.97142E-05-3.44360E-06-7.95946E-20 1.03478E-18
 -1      1475 9.52425E-05-2.84298E-05-2.86417E-05-1.24937E-08-1.38916E-18 8.90926E-19
 -1      1476 9.57413E-05-2.81333E-05-2.90033E-05-1.12680E-06-1.33898E-18 3.11819E-19
 -1      1477 9.65758E-05-2.83632E-05-2.97720E-05 2.99684E-06 9.55638E-19 5.85554E-18
 -1      1478 1.02536E-04-2.93984E-05-3.21557E-05 4.46400E-06 8.02299E-19 7.35743E-18
 -1      1479 1.02325E-04-2.67177E-05-3.27055E-05 1.27853E-05 1.64790E-18 4.53883E-18
 -1      1480 9.20271E-05-2.74282E-05-2.77607E-05 1.15310E-06 7.07577E-19 4.11671E-18
 -1      1481 9.39750E-05-2.75837E-05-2.86752E-05 1.47503E-06 6.45095E-19 5.17853E-18
 -1      1482 9.64845E-05-2.80296E-05-2.95331E-05 4.86976E-06 1.40827E-18 3.29072E-18
 -1      1483 9.01920E-05-2.70027E-05-2.70611E-05 3.32999E-07 4.28705E-19 2.90270E-18
 -1      1484 9.08083E-05-2.70206E-05-2.73341E-05 4.95832E-07 4.84688E-19 3.71122E-18
 -1      1485 9.30379E-05-2.75775E-05-2.80974E-05 1.85403E-06 1.04714E-18 2.39067E-18
 -1      1486 8.96718E-05-2.68837E-05-2.68845E-05-5.36542E-08 2.45011E-19 2.15739E-18
 -1      1487 8.97108E-05-2.68218E-05-2.69132E-05 3.54001E-08 2.63568E-19 2.60782E-18
 -1      1488 9.14824E-05-2.73057E-05-2.75130E-05 5.20368E-07 6.85607E-19 1.65338E-18
 -1      1489 8.98002E-05-2.69351E-05-2.69253E-05-2.40602E-07 2.04145E-19 1.50231E-18
 -1      1490 8.95736E-05-2.68282E-05-2.68608E-05-1.90462E-07 2.13068E-19 1.84567E-18
 -1      1491 9.09480E-05-2.72240E-05-2.73160E-05-1.28999E-07 4.77369E-19 1.14294E-18
 -1      1492 9.02485E-05-2.70762E-05-2.70622E-05-3.23390E-07 1.12262E-19 1.24041E-18
 -1      1493 8.99040E-05-2.69497E-05-2.69614E-05-2.95843E-07 1.03070E-19 1.34134E-18
 -1      1494 9.09622E-05-2.72661E-05-2.73041E-05-4.47111E-07 2.55610E-19 6.80958E-19
 -1      1495 9.08377E-05-2.72568E-05-2.72400E-05-3.47588E-07 1.40081E-19 6.00328E-19
 -1      1496 9.04530E-05-2.71274E-05-2.71274E-05-3.34012E-07 1.69777E-19 9.89950E-19
 -1      1497 9.12628E-05-2.73769E-05-2.73845E-05-5.86710E-07 2.92737E-19 2.60775E-19
 -1      1498 9.14655E-05-2.74473E-05-2.74291E-05-3.38263E-07 2.11677E-19 1.71723E-19
 -1      1499 9.10840E-05-2.73247E-05-2.73171E-05-3.33447E-07 1.59884E-19 4.11863E-19
 -1      1500 9.16992E-05-2.75193E-05-2.75092E-05-6.24780E-07 3.16996E-19 1.27478E-19
 -1      1501 9.20735E-05-2.76306E-05-2.76124E-05-3.10642E-07 2.08043E-19-4.35990E-20
 -1      1502 9.17190E-05-2.75200E-05-2.75080E-05-3.11194E-07 9.28106E-20 9.07252E-20
 -1      1503 9.21827E-05-2.76704E-05-2.76504E-05-6.04907E-07 2.67742E-19-2.67353E-19
 -1      1504 9.26304E-05-2.77976E-05-2.77805E-05-2.74490E-07 2.99751E-19-4.98419E-19
 -1      1505 9.23148E-05-2.77012E-05-2.76873E-05-2.78116E-07 3.09580E-19-1.98609E-19
 -1      1506 9.26616E-05-2.78165E-05-2.77922E-05-5.53890E-07 4.07798E-19-6.80204E-19
 -1      1507 9.31226E-05-2.79445E-05-2.79294E-05-2.36245E-07 3.36465E-19-1.18767E-18
 -1      1508 9.28496E-05-2.78626E-05-2.78485E-05-2.41356E-07 3.07138E-19-6.18056E-19
 -1      1509 9.31077E-05-2.79504E-05-2.79253E-05-4.89030E-07 4.23309E-19-5.77947E-19
 -1      1510 9.35478E-05-2.80710E-05-2.80583E-05-2.00232E-07 5.02129E-20-1.10365E-18
 -1      1511 9.33163E-05-2.80024E-05-2.79894E-05-2.05699E-07 8.26420E-20-1.17906E-18
 -1      1512 9.35082E-05-2.80691E-05-2.80457E-05-4.21810E-07 3.43435E-19-7.01353E-19
 -1      1513 9.39121E-05-2.81788E-05-2.81689E-05-1.69422E-07 8.99921E-21-1.03597E-18
 -1      1514 9.37171E-05-2.81216E-05-2.81107E-05-1.74417E-07-1.54342E-20-1.15900E-18
 -1      1515 9.38608E-05-2.81724E-05-2.81523E-05-3.60025E-07 1.81628E-21-7.28821E-19
 -1      1516 9.42269E-05-2.82716E-05-2.82647E-05-1.45971E-07 2.51616E-19-1.80431E-18
 -1      1517 9.40609E-05-2.82232E-05-2.82149E-05-1.49846E-07 2.21531E-19-1.35187E-18
 -1      1518 9.41704E-05-2.82622E-05-2.82465E-05-3.09139E-07 3.19929E-19-1.11078E-18
 -1      1519 9.45080E-05-2.83541E-05-2.83505E-05-1.31600E-07 3.30372E-20-2.26293E-18
 -1      1520 9.43618E-05-2.83114E-05-2.83064E-05-1.33801E-07 2.63526E-19-1.97862E-18
 -1      1521 9.44474E-05-2.83415E-05-2.83314E-05-2.73248E-07 4.73079E-19-1.22901E-18
 -1      1522 9.47748E-05-2.84320E-05-2.84319E-05-1.27888E-07-6.37154E-20-2.33008E-18
 -1      1523 9.46372E-05-2.83914E-05-2.83903E-05-1.27879E-07-7.94495E-20-2.55722E-18
 -1      1524 9.47063E-05-2.84149E-05-2.84111E-05-2.55762E-07 2.63335E-19-1.83781E-18
 -1      1525 9.50500E-05-2.85122E-05-2.85161E-05-1.36476E-07 1.23310E-19-2.60546E-18
 -1      1526 9.49083E-05-2.84697E-05-2.84730E-05-1.33685E-07 2.21791E-19-2.34403E-18
 -1      1527 9.49649E-05-2.84878E-05-2.84912E-05-2.59915E-07 7.23796E-20-1.99370E-18
 -1      1528 9.53602E-05-2.86026E-05-2.86108E-05-1.59197E-07 1.50714E-20-2.80930E-18
 -1      1529 9.51997E-05-2.85534E-05-2.85620E-05-1.52976E-07 1.58291E-19-2.48115E-18
 -1      1530 9.52446E-05-2.85663E-05-2.85780E-05-2.89103E-07 2.51609E-19-1.88730E-18
 -1      1531 9.57356E-05-2.87122E-05-2.87253E-05-1.98122E-07 5.07522E-19-3.39607E-18
 -1      1532 9.55395E-05-2.86510E-05-2.86657E-05-1.87723E-07 1.28406E-19-2.98735E-18
 -1      1533 9.55702E-05-2.86579E-05-2.86792E-05-3.47068E-07 2.91996E-19-2.39452E-18
 -1      1534 9.62109E-05-2.88514E-05-2.88701E-05-2.55488E-07-1.06512E-19-4.05817E-18
 -1      1535 9.59600E-05-2.87720E-05-2.87940E-05-2.40064E-07 1.35866E-19-3.37724E-18
 -1      1536 9.59699E-05-2.87709E-05-2.88031E-05-4.37885E-07 2.92201E-19-2.32046E-18
 -1      1537 9.68250E-05-2.90318E-05-2.90566E-05-3.33459E-07 7.29482E-20-4.20145E-18
 -1      1538 9.64975E-05-2.89274E-05-2.89576E-05-3.12111E-07 7.12550E-20-3.90602E-18
 -1      1539 9.64754E-05-2.89148E-05-2.89594E-05-5.65685E-07-1.68164E-19-2.53278E-18
 -1      1540 9.76199E-05-2.92664E-05-2.92976E-05-4.33630E-07 3.37614E-20-3.78778E-18
 -1      1541 9.71921E-05-2.91293E-05-2.91687E-05-4.05522E-07-9.72301E-20-3.86952E-18
 -1      1542 9.71216E-05-2.91002E-05-2.91585E-05-7.33976E-07 2.23240E-20-2.46998E-18
 -1      1543 9.86390E-05-2.95683E-05-2.96058E-05-5.56142E-07-3.32810E-19-3.70498E-18
 -1      1544 9.80864E-05-2.93908E-05-2.94398E-05-5.20727E-07-9.36947E-21-3.95480E-18
 -1      1545 9.79444E-05-2.93385E-05-2.94109E-05-9.44385E-07-6.91672E-20-2.86808E-18
 -1      1546 9.99219E-05-2.99504E-05-2.99926E-05-6.98205E-07-4.27839E-19-2.57095E-18
 -1      1547 9.92217E-05-2.97251E-05-2.97832E-05-6.55633E-07-5.90875E-19-3.42771E-18
 -1      1548 9.89788E-05-2.96410E-05-2.97264E-05-1.19449E-06-7.23556E-19-2.94566E-18
 -1      1549 1.01496E-04-3.04220E-05-3.04657E-05-8.51782E-07-2.53963E-19-2.02787E-18
 -1      1550 1.00632E-04-3.01441E-05-3.02085E-05-8.03582E-07-1.63984E-19-2.32749E-18
 -1      1551 1.00252E-04-3.00180E-05-3.01125E-05-1.47440E-06-7.04718E-19-2.18919E-18
 -1      1552 1.03364E-04-3.09859E-05-3.10242E-05-1.00021E-06 1.16104E-18-3.35443E-18
 -1      1553 1.02335E-04-3.06551E-05-3.07197E-05-9.50346E-07 4.60637E-19-2.42566E-18
 -1      1554 1.01777E-04-3.04762E-05-3.05708E-05-1.76159E-06 6.67796E-19-1.72423E-18
 -1      1555 1.05480E-04-3.16313E-05-3.16524E-05-1.11378E-06 5.87625E-19-5.31260E-18
 -1      1556 1.04312E-04-3.12569E-05-3.13096E-05-1.07013E-06 1.02805E-18-3.85000E-18
 -1      1557 1.03537E-04-3.10154E-05-3.10932E-05-2.01388E-06 1.60994E-18-1.95753E-18
 -1      1558 1.07720E-04-3.23253E-05-3.23106E-05-1.14505E-06-9.34960E-19-4.20900E-18
 -1      1559 1.06487E-04-3.19318E-05-3.19525E-05-1.12119E-06-7.34645E-19-5.17163E-18
 -1      1560 1.05464E-04-3.16227E-05-3.16555E-05-2.16119E-06-5.85041E-19-1.43606E-18
 -1      1561 1.09853E-04-3.30015E-05-3.29254E-05-1.02653E-06-3.06219E-19-2.87433E-18
 -1      1562 1.08692E-04-3.26360E-05-3.25949E-05-1.04300E-06-4.38712E-19-3.53898E-18
 -1      1563 1.07422E-04-3.22650E-05-3.22111E-05-2.09908E-06-1.16116E-18-1.84545E-18
 -1      1564 1.11500E-04-3.35481E-05-3.33825E-05-6.76555E-07-2.24922E-19-2.60515E-18
 -1      1565 1.10638E-04-3.32873E-05-3.31467E-05-7.59945E-07-6.03544E-20-3.11145E-18
 -1      1566 1.09175E-04-3.28784E-05-3.26846E-05-1.69122E-06-1.46080E-19-2.14888E-18
 -1      1567 1.12148E-04-3.38038E-05-3.35314E-05-2.32822E-08-8.74836E-19-1.63886E-18
 -1      1568 1.11891E-04-3.37534E-05-3.34787E-05-1.99704E-07-5.90633E-19-2.31006E-18
 -1      1569 1.10377E-04-3.33577E-05-3.29727E-05-7.94728E-07-9.17522E-19-1.60390E-18
 -1      1570 1.11216E-04-3.35738E-05-3.32134E-05 9.42406E-07 5.59422E-19-1.23141E-18
 -1      1571 1.11909E-04-3.38519E-05-3.34363E-05 6.63343E-07-2.54156E-19-1.75052E-18
 -1      1572 1.10596E-04-3.35510E-05-3.29581E-05 6.73019E-07-5.32684E-19-8.64082E-19
 -1      1573 1.08261E-04-3.26877E-05-3.23246E-05 2.08870E-06 5.27159E-19-2.46285E-18
 -1      1574 1.10155E-04-3.33799E-05-3.28814E-05 1.73896E-06 6.95149E-19-1.44640E-18
 -1      1575 1.09400E-04-3.32757E-05-3.25443E-05 2.61703E-06 9.84385E-19-1.17018E-18
 -1      1576 1.03298E-04-3.11109E-05-3.09018E-05 3.08243E-06 2.17777E-19-2.85514E-18
 -1      1577 1.06354E-04-3.21959E-05-3.17640E-05 2.75629E-06 5.63492E-19-2.24223E-18
 -1      1578 1.06556E-04-3.23793E-05-3.17102E-05 4.63311E-06 9.66789E-19-9.83167E-19
 -1      1579 9.71278E-05-2.90789E-05-2.91914E-05 3.44023E-06 5.72483E-20-3.84421E-18
 -1      1580 1.00829E-04-3.03573E-05-3.02041E-05 3.28089E-06 3.41175E-19-3.41301E-18
 -1      1581 1.02288E-04-3.08595E-05-3.05637E-05 5.98190E-06 8.30648E-19-3.24109E-19
 -1      1582 9.13659E-05-2.71396E-05-2.76311E-05 2.77710E-06 6.04120E-19-4.68925E-18
 -1      1583 9.47227E-05-2.82423E-05-2.85283E-05 2.90189E-06 3.69306E-19-4.23273E-18
 -1      1584 9.74835E-05-2.90063E-05-2.93564E-05 5.83789E-06 7.16464E-19-1.30283E-18
 -1      1585 8.79050E-05-2.59743E-05-2.66962E-05 1.13330E-06-9.61958E-19-3.82547E-18
 -1      1586 8.98049E-05-2.65037E-05-2.71985E-05 1.54068E-06-7.58690E-19-4.98947E-18
 -1      1587 9.35593E-05-2.74079E-05-2.84184E-05 3.82621E-06-5.22513E-19-1.87470E-18
 -1      1588 8.79580E-05-2.60349E-05-2.66748E-05-8.85044E-07-6.59918E-19-2.50240E-18
 -1      1589 8.77399E-05-2.57915E-05-2.66251E-05-3.56832E-07-4.42389E-19-3.35341E-18
 -1      1590 9.18761E-05-2.67090E-05-2.80231E-05 4.81910E-07-9.49709E-19-3.61484E-18
 -1      1591 9.12785E-05-2.72197E-05-2.75112E-05-2.41436E-06 5.72217E-19-8.73132E-19
 -1      1592 8.91535E-05-2.63473E-05-2.69633E-05-1.99282E-06-3.09955E-19-1.51955E-18
 -1      1593 9.29556E-05-2.72049E-05-2.82569E-05-2.84422E-06-9.91929E-19-1.18074E-18
 -1      1594 9.63145E-05-2.89493E-05-2.88381E-05-2.90339E-06-1.11025E-18-1.57495E-19
 -1      1595 9.32361E-05-2.78386E-05-2.80256E-05-2.73452E-06 1.84268E-19-6.97055E-19
 -1      1596 9.61240E-05-2.85871E-05-2.89817E-05-4.80816E-06-3.49024E-19 5.92698E-19
 -1      1597 1.01122E-04-3.05375E-05-3.01596E-05-2.37992E-06 7.71594E-20 1.18016E-18
 -1      1598 9.82368E-05-2.95929E-05-2.93779E-05-2.46205E-06-7.79290E-19 4.14305E-19
 -1      1599 9.99462E-05-3.01789E-05-2.98980E-05-4.87449E-06-8.48221E-19 1.28235E-18
 -1      1600 1.04282E-04-3.15258E-05-3.10779E-05-1.27958E-06-3.80559E-19-1.15421E-18
 -1      1601 1.02404E-04-3.09874E-05-3.05510E-05-1.51145E-06 2.59755E-19 3.75924E-19
 -1      1602 1.03025E-04-3.13707E-05-3.06822E-05-3.43571E-06 5.30613E-19 2.67186E-19
 -1      1603 1.05273E-04-3.17842E-05-3.14130E-05-9.90337E-08 1.31730E-18-1.47427E-18
 -1      1604 1.04681E-04-3.16934E-05-3.12316E-05-3.64614E-07 8.55715E-19-2.97348E-19
 -1      1605 1.04556E-04-3.18801E-05-3.11125E-05-1.34234E-06 9.80163E-19 4.71069E-19
 -1      1606 1.04327E-04-3.14234E-05-3.11966E-05 8.25100E-07 9.48654E-19-3.23379E-18
 -1      1607 1.04863E-04-3.16877E-05-3.13300E-05 6.06156E-07 7.59143E-19-2.45128E-18
 -1      1608 1.04419E-04-3.17359E-05-3.11192E-05 6.27616E-07 1.67460E-18-1.28288E-18
 -1      1609 1.02094E-04-3.06673E-05-3.05990E-05 1.34182E-06 2.35197E-19-3.43780E-18
 -1      1610 1.03362E-04-3.11371E-05-3.09416E-05 1.20996E-06 2.94807E-19-2.61344E-18
 -1      1611 1.02963E-04-3.11270E-05-3.07673E-05 2.00732E-06 5.63095E-19 1.80537E-19
 -1      1612 9.93777E-05-2.97689E-05-2.98517E-05 1.41743E-06-5.56487E-19-3.36444E-18
 -1      1613 1.00896E-04-3.02834E-05-3.02672E-05 1.38902E-06 2.72661E-20-3.53847E-18
 -1      1614 1.00762E-04-3.02784E-05-3.02039E-05 2.61078E-06-3.78075E-20-3.10451E-19
 -1      1615 9.69756E-05-2.89763E-05-2.91824E-05 1.06594E-06 5.52613E-19-4.00228E-18
 -1      1616 9.82582E-05-2.93756E-05-2.95391E-05 1.15238E-06-1.77033E-19-4.09208E-18
 -1      1617 9.84293E-05-2.93926E-05-2.96023E-05 2.41613E-06-7.98659E-20-1.59669E-18
 -1      1618 9.55549E-05-2.85209E-05-2.87326E-05 3.95947E-07 6.21697E-20-4.19089E-18
 -1      1619 9.61801E-05-2.86655E-05-2.89522E-05 5.69642E-07 3.46379E-19-4.22860E-18
 -1      1620 9.65006E-05-2.86533E-05-2.91012E-05 1.50428E-06 1.02051E-18-2.87787E-18
 -1      1621 9.52413E-05-2.84876E-05-2.85990E-05 1.44910E-08-2.03547E-18-2.17241E-18
 -1      1622 9.50318E-05-2.71752E-05-2.91016E-05 9.36554E-07-2.79142E-18 3.86227E-19
 -1      1623 9.52584E-05-2.79167E-05-2.88565E-05 7.42692E-07-2.78193E-18-1.31613E-19
 -1      1624 9.42495E-05-2.47081E-05-2.98149E-05 1.69311E-06-4.68025E-19 2.66172E-18
 -1      1625 9.47302E-05-2.61990E-05-2.93862E-05 1.55328E-06-2.29121E-18 1.89219E-18
 -1      1626 9.50308E-05-2.65283E-05-2.93949E-05 2.42282E-06 8.71559E-20 1.57969E-18
 -1      1627 9.31607E-05-2.12679E-05-3.08172E-05 2.28717E-06 1.95069E-19 4.52504E-19
 -1      1628 9.38273E-05-2.33378E-05-3.02236E-05 2.18395E-06-5.24234E-20 2.19441E-18
 -1      1629 9.42257E-05-2.42031E-05-3.00455E-05 3.75239E-06 3.44433E-19 3.25793E-18
 -1      1630 9.18506E-05-1.71485E-05-3.20186E-05 2.65487E-06 1.48151E-18 2.27309E-19
 -1      1631 9.26381E-05-1.95799E-05-3.13218E-05 2.59989E-06-1.34811E-19 1.40289E-18
 -1      1632 9.32050E-05-2.11798E-05-3.08939E-05 4.72126E-06-8.41312E-19 1.49178E-18
 -1      1633 9.04687E-05-1.28738E-05-3.32559E-05 2.70262E-06-2.49345E-20-5.35183E-19
 -1      1634 9.12764E-05-1.53350E-05-3.25543E-05 2.71768E-06 8.11378E-19-1.20904E-18
 -1      1635 9.20145E-05-1.77029E-05-3.18552E-05 5.18090E-06-7.98812E-19-3.41298E-19
 -1      1636 8.91615E-05-8.90230E-06-3.43931E-05 2.34147E-06-2.36669E-18-1.45530E-18
 -1      1637 8.98956E-05-1.11054E-05-3.37694E-05 2.44458E-06-7.27231E-19-1.09750E-18
 -1      1638 9.07592E-05-1.41354E-05-3.28209E-05 4.95882E-06-5.76194E-19-2.08780E-18
 -1      1639 8.81888E-05-5.99497E-06-3.52171E-05 1.54881E-06-5.93508E-18-1.91789E-18
 -1      1640 8.86981E-05-7.50280E-06-3.47932E-05 1.73778E-06-4.04908E-18-1.18335E-18
 -1      1641 8.96077E-05-1.09642E-05-3.36580E-05 3.92588E-06-2.20066E-18-3.47848E-18
 -1      1642 8.77581E-05-4.73579E-06-3.55690E-05 4.23796E-07-3.07095E-18 1.61876E-18
 -1      1643 8.79302E-05-5.23291E-06-3.54310E-05 6.68587E-07-5.52074E-18-1.21331E-19
 -1      1644 8.87950E-05-8.78833E-06-3.42189E-05 2.13204E-06-2.10756E-18-1.32670E-18
 -1      1645 8.79816E-05-5.43008E-06-3.53680E-05-8.22243E-07-5.68207E-19 1.35253E-18
 -1      1646 8.77684E-05-4.78341E-06-3.55518E-05-5.72862E-07-3.14433E-18 2.45219E-18
 -1      1647 8.85092E-05-8.06169E-06-3.43978E-05-1.44660E-07-2.66954E-19 2.78863E-18
 -1      1648 8.88284E-05-7.98951E-06-3.46388E-05-1.93247E-06-3.48432E-18-2.59279E-18
 -1      1649 8.82669E-05-6.29875E-06-3.51173E-05-1.73210E-06-1.12346E-18-1.46428E-18
 -1      1650 8.88312E-05-8.97295E-06-3.41528E-05-2.45756E-06-2.20370E-18-5.18305E-19
 -1      1651 9.01135E-05-1.18824E-05-3.35271E-05-2.68512E-06-5.86449E-18-3.35008E-19
 -1      1652 8.93204E-05-9.49226E-06-3.42044E-05-2.57136E-06-3.06949E-18-2.86210E-18
 -1      1653 8.96971E-05-1.13492E-05-3.35270E-05-4.32888E-06-1.14011E-18-4.04309E-18
 -1      1654 9.16487E-05-1.65621E-05-3.21863E-05-2.99379E-06-6.78918E-18 1.71138E-19
 -1      1655 9.07363E-05-1.38027E-05-3.29688E-05-2.97261E-06-7.15483E-18 1.12975E-18
 -1      1656 9.09270E-05-1.47634E-05-3.26207E-05-5.44325E-06-1.84879E-18-1.10564E-19
 -1      1657 9.31634E-05-2.11996E-05-3.08557E-05-2.83009E-06-5.75564E-18 1.51778E-18
 -1      1658 9.22886E-05-1.85590E-05-3.16023E-05-2.89549E-06-6.94874E-18 1.97762E-18
 -1      1659 9.23259E-05-1.86711E-05-3.15753E-05-5.66687E-06-3.04168E-18 9.02982E-19
 -1      1660 9.44280E-05-2.50214E-05-2.97494E-05-2.20811E-06-3.61342E-18 1.64710E-18
 -1      1661 9.37245E-05-2.29691E-05-3.03387E-05-2.35703E-06-4.62934E-18 8.79237E-19
 -1      1662 9.36906E-05-2.24493E-05-3.05643E-05-4.98743E-06-2.54885E-18 2.26904E-18
 -1      1663 9.53305E-05-2.72964E-05-2.91352E-05-1.67166E-06-2.27220E-18-2.56988E-19
 -1      1664 9.49576E-05-2.61572E-05-2.94967E-05-2.07790E-06-2.32884E-18 5.99306E-19
 -1      1665 9.49731E-05-2.53877E-05-2.98681E-05-4.10069E-06-1.68504E-18 1.84167E-18
 -1      1666 9.62936E-05-2.74926E-05-2.95014E-05-3.20894E-06-8.85719E-19 7.01722E-19
 -1      1667 2.20213E-05-7.25702E-05 1.53085E-05-6.91840E-06 3.08828E-18 4.30716E-19
 -1      1668 2.55863E-05-8.25514E-05 1.73163E-05 1.74784E-06 7.94835E-19 1.47955E-18
 -1      1669 2.12530E-05-4.23390E-05 4.74829E-06 3.62421E-06 5.63192E-18 5.27627E-18
 -1      1670 2.59644E-05-6.60411E-05 1.09904E-05-4.73213E-08 3.46775E-18 2.02568E-18
 -1      1671 3.39223E-05-1.22815E-05-1.12618E-05 2.73692E-05 8.35937E-18 5.81361E-18
 -1      1672 2.89424E-05-3.46913E-05-2.30429E-06 9.28275E-06 7.22858E-18 5.26092E-18
 -1      1673 7.39902E-05-1.83253E-06-3.02522E-05 5.94154E-05 7.37681E-18 9.25553E-18
 -1      1674 5.00312E-05-8.13096E-06-2.03550E-05 3.63399E-05 8.10356E-18 7.19300E-18
 -1      1675 1.39210E-04-1.74793E-05-4.91127E-05 7.54673E-05 7.33742E-18 1.01940E-17
 -1      1676 9.89247E-05-5.92333E-06-3.95305E-05 6.27507E-05 7.07103E-18 9.91452E-18
 -1      1677 2.06632E-04-4.29893E-05-6.49722E-05 6.07650E-05 3.79386E-18 6.74408E-18
 -1      1678 1.62505E-04-2.24307E-05-5.72434E-05 6.92844E-05 6.23988E-18 8.00616E-18
 -1      1679 2.54425E-04-6.41008E-05-7.46025E-05 2.49763E-05 2.59023E-18 2.42971E-18
 -1      1680 2.28676E-04-4.96216E-05-7.11603E-05 5.59881E-05 3.32746E-18 6.41882E-18
 -1      1681 2.51398E-04-6.22015E-05-7.46681E-05-2.76533E-05 2.27471E-18-3.09294E-18
 -1      1682 2.58876E-04-6.62842E-05-7.56983E-05 7.49275E-06 2.70796E-18 8.80861E-19
 -1      1683 2.03336E-04-3.86652E-05-6.59915E-05-6.50737E-05 4.72030E-18-8.44661E-18
 -1      1684 2.38828E-04-5.73903E-05-7.13980E-05-4.26036E-05 2.80622E-18-5.63658E-18
 -1      1685 1.37461E-04-1.27463E-05-5.12604E-05-7.48079E-05 7.15912E-18-1.07167E-17
 -1      1686 1.81913E-04-3.17138E-05-5.95027E-05-7.54054E-05 5.19401E-18-1.01449E-17
 -1      1687 7.59777E-05-1.84268E-06-3.24287E-05-5.49502E-05 1.03355E-17-1.07065E-17
 -1      1688 1.12298E-04-7.32836E-06-4.24434E-05-7.40681E-05 8.81507E-18-1.07751E-17
 -1      1689 3.81215E-05-1.56728E-05-1.29270E-05-2.41516E-05 1.10462E-17-8.63804E-18
 -1      1690 5.45403E-05-1.91355E-06-2.28013E-05-4.72549E-05 1.16298E-17-1.03330E-17
 -1      1691 2.68618E-05-4.68322E-05 3.42107E-06-4.49691E-06 1.03092E-17-5.06017E-18
 -1      1692 2.70959E-05-2.30480E-05-4.52455E-06-1.69675E-05 1.07632E-17-7.17437E-18
 -1      1693 2.44541E-05-7.23199E-05 1.40504E-05 7.76921E-07 5.33546E-18-3.51233E-18
 -1      1694 1.89487E-05-5.30711E-05 9.59196E-06 3.27665E-06 8.99210E-18-4.50823E-18
 -1      1695 2.35590E-05-7.85719E-05 1.68649E-05-5.52588E-06-5.91229E-19-1.88359E-18
 -1      1696 2.30531E-05-7.69804E-05 1.65670E-05 4.98063E-06 3.53721E-18-3.18124E-18
 -1      1697 1.88674E-05-5.75349E-05 1.10214E-05-6.81421E-06-6.08339E-18-4.11017E-18
 -1      1698 2.47087E-05-7.58654E-05 1.50894E-05-2.52764E-06-2.05490E-18-2.32892E-18
 -1      1699 2.57342E-05-2.68400E-05-2.74308E-06 1.32515E-05-1.09242E-17-9.52658E-18
 -1      1700 2.62787E-05-5.05513E-05 4.91631E-06 1.96361E-06-7.52250E-18-6.08064E-18
 -1      1701 5.13049E-05-7.32514E-06-1.97894E-05 4.10641E-05-1.23565E-17-9.80610E-18
 -1      1702 3.77877E-05-2.12948E-05-1.07305E-05 2.05321E-05-1.24014E-17-9.38851E-18
 -1      1703 1.06258E-04-1.15631E-05-3.88082E-05 6.58788E-05-9.22588E-18-9.99075E-18
 -1      1704 7.43055E-05-9.70755E-06-2.89081E-05 4.67023E-05-1.14764E-17-9.82728E-18
 -1      1705 1.74178E-04-2.96138E-05-5.73553E-05 7.41482E-05-5.53282E-18-1.14468E-17
 -1      1706 1.27845E-04-1.18796E-05-4.81678E-05 6.95146E-05-7.58984E-18-1.12935E-17
 -1      1707 2.35141E-04-5.55905E-05-7.05350E-05 5.02961E-05-3.64973E-18-8.11119E-18
 -1      1708 1.97329E-04-3.60381E-05-6.46978E-05 6.91056E-05-4.76064E-18-1.02203E-17
 -1      1709 2.58499E-04-6.57042E-05-7.59232E-05 2.16518E-07-2.13304E-18-3.47908E-18
 -1      1710 2.46321E-04-5.89645E-05-7.40675E-05 3.50149E-05-3.28861E-18-6.78304E-18
 -1      1711 2.34291E-04-5.23321E-05-7.23488E-05-4.77591E-05-3.30766E-18 3.04254E-18
 -1      1712 2.54572E-04-6.37114E-05-7.52066E-05-1.58969E-05-2.45301E-18-8.77738E-19
 -1      1713 1.76263E-04-2.61110E-05-6.07383E-05-7.43047E-05-4.11086E-18 6.61194E-18
 -1      1714 2.20023E-04-4.78195E-05-6.78148E-05-6.15224E-05-2.98113E-18 4.70866E-18
 -1      1715 1.08607E-04-9.00055E-06-4.21220E-05-6.34438E-05-4.35798E-18 6.84741E-18
 -1      1716 1.53103E-04-2.25690E-05-5.22132E-05-7.50204E-05-4.00435E-18 6.50860E-18
 -1      1717 5.53658E-05-1.16454E-05-2.11457E-05-3.67441E-05-5.00512E-18 4.79675E-18
 -1      1718 8.28988E-05-5.90026E-06-3.20639E-05-6.12341E-05-4.92634E-18 7.13710E-18
 -1      1719 3.00725E-05-3.63898E-05-2.27698E-06-9.18680E-06-5.30327E-18 2.75413E-18
 -1      1720 3.59470E-05-1.40934E-05-1.14307E-05-2.80330E-05-5.06526E-18 2.54872E-18
 -1      1721 2.53373E-05-6.79206E-05 1.14926E-05 3.18346E-06-5.77084E-18 2.13272E-18
 -1      1722 1.98262E-05-4.33605E-05 5.31547E-06-6.95059E-08-6.54926E-18 2.38112E-18
 -1      1723 2.57501E-05-8.28352E-05 1.73425E-05-1.35177E-06-1.11120E-18 1.82345E-18
 -1      1724 2.23621E-05-7.33557E-05 1.53434E-05 7.31730E-06-4.14538E-18 2.42336E-18
 -1      1725 1.15159E-04-3.21873E-05-3.44622E-05 4.62753E-05 4.77642E-18 7.32683E-18
 -1      1726 7.17582E-05-3.53783E-05-1.68722E-05 3.99557E-05 5.36680E-18 5.28803E-18
 -1      1727 9.54107E-05-2.83647E-05-2.87499E-05 3.75738E-07-2.80771E-18-1.12566E-18
 -1      1728 9.55707E-05-2.79104E-05-2.90137E-05 1.26347E-06-2.14422E-19 3.03446E-19
 -1      1729 1.98333E-05-5.13981E-05 9.23939E-06 1.53683E-05 2.26115E-18 2.12669E-18
 -1      1730 4.03319E-05-4.43923E-05-1.40784E-06 2.84667E-05 3.44573E-18 6.21463E-18
 -1      1731 1.32214E-05-5.65728E-05 1.34256E-05 3.62935E-07-2.48392E-19 3.88661E-18
 -1      1732 1.58474E-04-3.32368E-05-5.08872E-05 3.77396E-05 4.53840E-18 3.34663E-18
 -1      1733 1.92203E-04-3.30776E-05-6.42105E-05 2.50613E-05 4.14241E-18 1.90498E-18
 -1      1734 2.16248E-04-3.65773E-05-7.12918E-05 8.64933E-06 4.82809E-18 2.67557E-19
 -1      1735 2.09034E-04-3.51978E-05-6.92008E-05-1.57101E-05 4.85011E-18-1.57633E-18
 -1      1736 1.81876E-04-3.22653E-05-5.99577E-05-3.57551E-05 4.93450E-18-5.73018E-18
 -1      1737 1.41053E-04-2.97671E-05-4.53373E-05-4.64880E-05 6.09144E-18-6.83556E-18
 -1      1738 9.55643E-05-3.07440E-05-2.77385E-05-4.45192E-05 7.56739E-18-7.27601E-18
 -1      1739 5.76662E-05-3.81235E-05-1.04572E-05-3.51349E-05 7.07273E-18-6.76906E-18
 -1      1740 2.99410E-05-4.53601E-05 3.23278E-06-2.35772E-05 5.14064E-18-4.87796E-18
 -1      1741 1.44105E-05-5.19956E-05 1.15271E-05-8.33999E-06 1.57125E-18-4.84037E-18
 -1      1742 1.39114E-05-5.38480E-05 1.22656E-05 4.73437E-06-5.81912E-19-4.21780E-18
 -1      1743 2.77566E-05-4.71428E-05 4.66252E-06 2.02875E-05-3.52239E-18-6.59087E-18
 -1      1744 5.59355E-05-4.08050E-05-8.63312E-06 3.33598E-05-6.25703E-18-7.80287E-18
 -1      1745 9.54680E-05-3.76848E-05-2.49818E-05 4.10403E-05-7.44118E-18-5.65606E-18
 -1      1746 1.37810E-04-3.58136E-05-4.22239E-05 4.02948E-05-6.01351E-18-6.13421E-18
 -1      1747 1.78523E-04-3.40595E-05-5.81611E-05 3.59551E-05-4.54494E-18-7.92908E-18
 -1      1748 2.08040E-04-3.56849E-05-6.85709E-05 1.89039E-05-4.31733E-18-4.36688E-18
 -1      1749 2.12537E-04-3.35377E-05-7.11996E-05-4.09018E-06-4.62141E-18-1.52265E-18
 -1      1750 1.98980E-04-3.28704E-05-6.62507E-05-2.50585E-05-4.34231E-18 3.02814E-18
 -1      1751 1.66863E-04-3.40942E-05-5.37710E-05-3.74759E-05-3.09739E-18 3.70408E-18
 -1      1752 1.24170E-04-3.66411E-05-3.63541E-05-4.32748E-05-2.19974E-18 3.65325E-18
 -1      1753 7.76002E-05-3.89647E-05-1.76252E-05-4.06036E-05-2.35560E-18 2.35306E-18
 -1      1754 4.04186E-05-4.52497E-05-1.15995E-06-2.77871E-05-3.27209E-18 1.21735E-18
 -1      1755 1.93062E-05-5.32507E-05 9.78939E-06-1.26055E-05-1.84738E-18 3.28543E-18
 -1      1756 1.06050E-04-2.31696E-05-3.56037E-05-1.68556E-05-1.13076E-18 7.85178E-18
 -1      1757 8.91401E-05-1.05807E-05-3.37941E-05-1.33268E-05-1.96883E-18-2.60119E-19
 -1      1758 9.04833E-05-1.16345E-05-3.39348E-05-1.51405E-05-2.14122E-18 4.99617E-19
 -1      1759 9.24879E-05-1.38737E-05-3.38535E-05-1.60065E-05-2.01365E-18 1.37632E-18
 -1      1760 9.42039E-05-1.58196E-05-3.40975E-05-1.76678E-05-2.03309E-18 2.58186E-18
 -1      1761 9.34121E-05-1.63441E-05-3.30448E-05-1.37846E-05-2.16607E-18 9.88090E-19
 -1      1762 8.62094E-05-7.67150E-06-3.37306E-05-7.87040E-06-1.49305E-18-1.75767E-18
 -1      1763 8.66113E-05-7.97185E-06-3.37646E-05-9.25892E-06-1.66700E-18-1.51431E-18
 -1      1764 8.55981E-05-7.03898E-06-3.37276E-05-5.32510E-06-1.13918E-18-2.06613E-18
 -1      1765 8.58310E-05-7.21629E-06-3.37427E-05-6.63009E-06-1.33068E-18-1.90990E-18
 -1      1766 8.75961E-05-9.87057E-06-3.33435E-05-6.93840E-06-1.52262E-18-1.69381E-18
 -1      1767 8.52649E-05-6.68101E-06-3.37312E-05-2.89123E-06-7.83589E-19-2.27656E-18
 -1      1768 8.53850E-05-6.77530E-06-3.37370E-05-4.13175E-06-9.66605E-19-2.17752E-18
 -1      1769 8.69638E-05-9.15978E-06-3.33771E-05-4.54178E-06-1.09172E-18-1.98465E-18
 -1      1770 8.51347E-05-6.53304E-06-3.37348E-05-5.17975E-07-4.71420E-19-2.50646E-18
 -1      1771 8.51701E-05-6.56151E-06-3.37362E-05-1.72847E-06-6.07362E-19-2.45761E-18
 -1      1772 8.66328E-05-8.78089E-06-3.33975E-05-2.21922E-06-7.13280E-19-2.28650E-18
 -1      1773 8.51798E-05-6.57039E-06-3.37364E-05 1.84647E-06-1.46259E-19-2.53324E-18
 -1      1774 8.51383E-05-6.53754E-06-3.37347E-05 6.35012E-07-2.99951E-19-2.48535E-18
 -1      1775 8.65349E-05-8.66738E-06-3.34042E-05 6.54597E-08-3.91237E-19-2.44380E-18
 -1      1776 8.54100E-05-6.80021E-06-3.37371E-05 4.25401E-06 1.41906E-19-2.56017E-18
 -1      1777 8.52825E-05-6.69971E-06-3.37311E-05 3.01044E-06 2.61989E-20-2.55981E-18
 -1      1778 8.66501E-05-8.80018E-06-3.33968E-05 2.35121E-06-1.04097E-19-2.42288E-18
 -1      1779 8.58655E-05-7.25282E-06-3.37421E-05 6.71657E-06 6.07779E-19-2.39894E-18
 -1      1780 8.56282E-05-7.07085E-06-3.37275E-05 5.42876E-06 3.62313E-19-2.46743E-18
 -1      1781 8.69972E-05-9.19659E-06-3.33756E-05 4.65610E-06 2.54339E-19-2.38632E-18
 -1      1782 8.66769E-05-8.04175E-06-3.37624E-05 9.37914E-06 1.12347E-18-2.10310E-18
 -1      1783 8.62570E-05-7.72551E-06-3.37289E-05 7.95795E-06 8.41358E-19-2.23801E-18
 -1      1784 8.76476E-05-9.92834E-06-3.33409E-05 7.03255E-06 7.96102E-19-2.16147E-18
 -1      1785 8.80874E-05-9.38855E-06-3.38172E-05 1.22585E-05 1.57293E-18-1.77443E-18
 -1      1786 8.73483E-05-8.83102E-06-3.37454E-05 1.06653E-05 1.34631E-18-1.99214E-18
 -1      1787 8.87668E-05-1.11621E-05-3.32899E-05 9.50756E-06 1.32865E-18-1.88007E-18
 -1      1788 9.06297E-05-1.18399E-05-3.39269E-05 1.53067E-05 1.93364E-18-9.69006E-19
 -1      1789 8.92501E-05-1.07409E-05-3.37873E-05 1.35172E-05 1.68676E-18-1.45576E-18
 -1      1790 9.06621E-05-1.32236E-05-3.32066E-05 1.19798E-05 1.75740E-18-1.40427E-18
 -1      1791 9.58735E-05-1.70338E-05-3.39924E-05 1.76939E-05 2.03126E-18 8.78850E-19
 -1      1792 9.28543E-05-1.43427E-05-3.38262E-05 1.61974E-05 1.94203E-18-2.49848E-19
 -1      1793 9.39679E-05-1.68868E-05-3.30235E-05 1.38984E-05 2.02837E-18-4.60786E-19
 -1      1794 1.01922E-04-2.50936E-05-3.33585E-05 1.44251E-05 1.82949E-18 3.29866E-18
 -1      1795 9.80738E-05-1.96158E-05-3.36245E-05 1.69673E-05 1.94708E-18 1.71249E-18
 -1      1796 9.73264E-05-2.18535E-05-3.24268E-05 1.32519E-05 2.07565E-18 9.29910E-19
 -1      1797 9.87489E-05-2.61344E-05-3.13414E-05 9.43759E-06 1.90842E-18 2.71733E-18
 -1      1798 1.00153E-04-1.95618E-05-3.42175E-05-1.88723E-05-1.61157E-18 4.51109E-18
 -1      1799 9.53064E-05-2.72844E-05-2.91838E-05 4.06971E-06 1.42622E-18 1.94166E-18
 -1      1800 9.77377E-05-2.73898E-05-3.01932E-05 6.40363E-06 1.60327E-18 2.45471E-18
 -1      1801 9.75729E-05-2.56139E-05-3.08316E-05 8.76315E-06 1.84907E-18 1.42821E-18
 -1      1802 9.98112E-05-2.25389E-05-3.28357E-05-1.44708E-05-1.81842E-18 3.60974E-18
 -1      1803 9.69574E-05-2.69791E-05-2.98756E-05-5.70821E-06-1.46523E-18 3.20662E-18
 -1      1804 9.51472E-05-2.70338E-05-2.91647E-05-3.90211E-06-1.33054E-18 2.78199E-18
 -1      1805 9.43266E-05-2.72339E-05-2.86570E-05-2.42671E-06-1.14492E-18 2.64084E-18
 -1      1806 9.35534E-05-2.73137E-05-2.83516E-05-1.57348E-06-1.02915E-18 2.31896E-18
 -1      1807 9.55017E-05-2.65437E-05-2.95737E-05-4.48022E-06-1.52578E-18 1.76799E-18
 -1      1808 9.30279E-05-2.73645E-05-2.80825E-05-7.46883E-07-8.88538E-19 2.26148E-18
 -1      1809 9.27251E-05-2.74278E-05-2.79599E-05-3.09156E-07-6.77368E-19 2.01399E-18
 -1      1810 9.42894E-05-2.72189E-05-2.87647E-05-1.83580E-06-1.12899E-18 1.52614E-18
 -1      1811 9.24481E-05-2.74549E-05-2.78235E-05 1.45163E-07-4.55588E-19 1.86161E-18
 -1      1812 9.24148E-05-2.75305E-05-2.77930E-05 3.68416E-07-4.48702E-19 1.81585E-18
 -1      1813 9.35867E-05-2.75258E-05-2.83281E-05-3.71104E-07-7.51305E-19 1.31581E-18
 -1      1814 9.23099E-05-2.75614E-05-2.77344E-05 6.07174E-07-4.35213E-19 1.65849E-18
 -1      1815 9.24223E-05-2.76456E-05-2.77528E-05 7.10266E-07-3.83114E-19 1.46998E-18
 -1      1816 9.32627E-05-2.77097E-05-2.81064E-05 4.29205E-07-5.42312E-19 9.29407E-19
 -1      1817 9.24260E-05-2.76831E-05-2.77404E-05 8.20429E-07-4.66551E-19 1.43570E-18
 -1      1818 9.26108E-05-2.77687E-05-2.77843E-05 8.53392E-07-4.49717E-19 1.35538E-18
 -1      1819 9.31960E-05-2.78515E-05-2.80131E-05 8.38501E-07-5.42722E-19 6.97037E-19
 -1      1820 9.26779E-05-2.78095E-05-2.77987E-05 8.86293E-07-4.92818E-19 1.38065E-18
 -1      1821 9.28912E-05-2.78910E-05-2.78542E-05 8.78470E-07-4.75427E-19 1.24827E-18
 -1      1822 9.32874E-05-2.79735E-05-2.79968E-05 1.01252E-06-5.02010E-19 4.98969E-19
 -1      1823 9.29912E-05-2.79318E-05-2.78831E-05 8.66142E-07-5.94744E-19 1.21282E-18
 -1      1824 9.32069E-05-2.80057E-05-2.79417E-05 8.35974E-07-4.89346E-19 1.22640E-18
 -1      1825 9.34667E-05-2.80808E-05-2.80254E-05 1.04566E-06-4.99168E-19 2.49181E-19
 -1      1826 9.33204E-05-2.80441E-05-2.79774E-05 7.99267E-07-5.46809E-19 1.12803E-18
 -1      1827 9.35241E-05-2.81088E-05-2.80343E-05 7.58835E-07-3.47840E-19 7.16581E-19
 -1      1828 9.36871E-05-2.81741E-05-2.80784E-05 9.98073E-07-7.29156E-19 4.70458E-19
 -1      1829 9.36393E-05-2.81434E-05-2.80722E-05 7.11700E-07-1.25775E-20 4.80264E-19
 -1      1830 9.38242E-05-2.81986E-05-2.81249E-05 6.69119E-07 4.77401E-20 4.93492E-19
 -1      1831 9.39191E-05-2.82534E-05-2.81429E-05 9.09478E-07-5.28606E-19 3.48311E-19
 -1      1832 9.39350E-05-2.82289E-05-2.81623E-05 6.21089E-07-2.38028E-19 4.18147E-19
 -1      1833 9.40994E-05-2.82753E-05-2.82100E-05 5.81937E-07-3.79189E-19 4.06231E-19
 -1      1834 9.41460E-05-2.83194E-05-2.82114E-05 8.06750E-07-1.32542E-19 3.20452E-19
 -1      1835 9.42036E-05-2.83015E-05-2.82461E-05 5.39700E-07-3.57211E-19 3.52475E-19
 -1      1836 9.43496E-05-2.83404E-05-2.82892E-05 5.07955E-07-3.81315E-19 3.98443E-19
 -1      1837 9.43602E-05-2.83733E-05-2.82799E-05 7.08492E-07-4.40115E-19 3.87700E-20
 -1      1838 9.44479E-05-2.83633E-05-2.83239E-05 4.76432E-07-4.23695E-19 5.87606E-19
 -1      1839 9.45802E-05-2.83964E-05-2.83636E-05 4.55146E-07-3.16646E-19 7.33515E-19
 -1      1840 9.45606E-05-2.84171E-05-2.83471E-05 6.28032E-07-3.43926E-19 4.41714E-19
 -1      1841 9.46754E-05-2.84170E-05-2.83979E-05 4.38276E-07-2.62868E-19 7.38524E-19
 -1      1842 9.48009E-05-2.84466E-05-2.84361E-05 4.30071E-07-1.93419E-19 7.38242E-19
 -1      1843 9.47510E-05-2.84529E-05-2.84136E-05 5.75538E-07-2.85552E-19 3.98954E-19
 -1      1844 9.48977E-05-2.84663E-05-2.84714E-05 4.31400E-07-3.88352E-19 6.54043E-19
 -1      1845 9.50252E-05-2.84949E-05-2.85107E-05 4.38854E-07-4.01478E-19 3.99114E-19
 -1      1846 9.49390E-05-2.84836E-05-2.84814E-05 5.59565E-07-3.60617E-19 6.05403E-19
 -1      1847 9.51297E-05-2.85153E-05-2.85492E-05 4.61978E-07-2.84266E-19-1.85922E-19
 -1      1848 9.52698E-05-2.85460E-05-2.85925E-05 4.87919E-07-3.19608E-19-8.78049E-20
 -1      1849 9.51355E-05-2.85120E-05-2.85540E-05 5.88226E-07-7.49010E-19 1.98677E-19
 -1      1850 9.53896E-05-2.85691E-05-2.86368E-05 5.36812E-07-3.63996E-19 2.53932E-20
 -1      1851 9.55548E-05-2.86053E-05-2.86879E-05 5.84526E-07-4.03175E-19 7.59894E-20
 -1      1852 9.53542E-05-2.85417E-05-2.86356E-05 6.70057E-07-3.94339E-19-1.60873E-19
 -1      1853 9.56989E-05-2.86333E-05-2.87411E-05 6.63748E-07-1.87496E-19 2.73483E-19
 -1      1854 9.59041E-05-2.86792E-05-2.88043E-05 7.37103E-07 2.46113E-19 1.83788E-19
 -1      1855 9.56115E-05-2.85765E-05-2.87317E-05 8.14619E-07-1.05818E-19 2.38657E-20
 -1      1856 9.60829E-05-2.87149E-05-2.88699E-05 8.51865E-07 3.27634E-19-6.19870E-20
 -1      1857 9.63454E-05-2.87754E-05-2.89502E-05 9.55295E-07 2.18441E-19-2.07732E-19
 -1      1858 9.59268E-05-2.86213E-05-2.88485E-05 1.03279E-06 3.92253E-20 8.92238E-21
 -1      1859 9.65708E-05-2.88219E-05-2.90324E-05 1.11131E-06 9.77992E-20-2.52742E-19
 -1      1860 9.69103E-05-2.89029E-05-2.91354E-05 1.24961E-06 3.44256E-20-1.35261E-19
 -1      1861 9.63223E-05-2.86817E-05-2.89930E-05 1.33666E-06 3.69080E-20-2.42464E-19
 -1      1862 9.71956E-05-2.89642E-05-2.92384E-05 1.45262E-06 2.98529E-19-1.15568E-19
 -1      1863 9.76346E-05-2.90728E-05-2.93705E-05 1.63035E-06 8.61249E-19 1.67187E-19
 -1      1864 9.68232E-05-2.87651E-05-2.91730E-05 1.73885E-06 2.67399E-19 3.34725E-19
 -1      1865 9.79941E-05-2.91539E-05-2.94987E-05 1.88508E-06 6.04759E-19-2.51252E-20
 -1      1866 9.85566E-05-2.92986E-05-2.96664E-05 2.10544E-06 3.64895E-19-8.09214E-20
 -1      1867 9.74574E-05-2.88810E-05-2.93961E-05 2.25079E-06 5.46095E-19-3.05613E-19
 -1      1868 9.90055E-05-2.94058E-05-2.98237E-05 2.41363E-06 9.88150E-20-1.44571E-19
 -1      1869 9.97157E-05-2.95969E-05-3.00332E-05 2.67616E-06-1.09726E-19-2.05965E-19
 -1      1870 9.82552E-05-2.90427E-05-2.96698E-05 2.87942E-06 5.43863E-20-8.49116E-19
 -1      1871 1.00269E-04-2.97389E-05-3.02224E-05 3.03309E-06-1.00043E-19-4.06570E-19
 -1      1872 1.01148E-04-2.99887E-05-3.04784E-05 3.32985E-06-3.21070E-19-6.23959E-19
 -1      1873 9.92483E-05-2.92692E-05-2.99992E-05 3.62127E-06-2.46417E-20-1.37279E-18
 -1      1874 1.01821E-04-3.01776E-05-3.06998E-05 3.71851E-06-4.65074E-19-5.38328E-19
 -1      1875 1.02881E-04-3.05002E-05-3.10032E-05 4.02758E-06-7.14161E-19-5.01851E-19
 -1      1876 1.00469E-04-2.95890E-05-3.03861E-05 4.45237E-06-2.03699E-19-1.36890E-18
 -1      1877 1.03686E-04-3.07538E-05-3.12528E-05 4.40966E-06-8.73649E-19-3.99415E-19
 -1      1878 1.04920E-04-3.11646E-05-3.15977E-05 4.68543E-06-1.52994E-19-5.61338E-19
 -1      1879 1.01948E-04-3.00448E-05-3.08254E-05 5.31241E-06-3.51809E-19-6.73382E-19
 -1      1880 1.05867E-04-3.15078E-05-3.18656E-05 4.98844E-06 6.34026E-19-6.52723E-19
 -1      1881 1.07234E-04-3.20203E-05-3.22345E-05 5.14904E-06 9.57573E-19 1.42447E-19
 -1      1882 1.03713E-04-3.06997E-05-3.13023E-05 6.08135E-06 1.17142E-19-6.57140E-19
 -1      1883 1.08328E-04-3.24853E-05-3.25025E-05 5.25118E-06 5.56352E-19 5.45496E-19
 -1      1884 1.09732E-04-3.31018E-05-3.28616E-05 5.16698E-06 2.33955E-19 7.64169E-19
 -1      1885 1.05788E-04-3.16389E-05-3.17896E-05 6.54985E-06 8.12072E-19-2.01629E-19
 -1      1886 1.10964E-04-3.37192E-05-3.31044E-05 4.88660E-06 5.23738E-20 6.63419E-19
 -1      1887 1.12231E-04-3.44101E-05-3.34002E-05 4.38217E-06 3.36861E-19 7.00251E-19
 -1      1888 1.08174E-04-3.29562E-05-3.22482E-05 6.39170E-06 4.53606E-19 8.02746E-19
 -1      1889 1.13554E-04-3.51785E-05-3.35894E-05 3.49095E-06 2.27799E-19 1.47362E-18
 -1      1890 1.14415E-04-3.58412E-05-3.37537E-05 2.38668E-06-9.90764E-20 2.21627E-18
 -1      1891 1.10820E-04-3.46978E-05-3.26346E-05 5.16437E-06 4.16360E-19 2.01792E-18
 -1      1892 1.15690E-04-3.66617E-05-3.38705E-05 6.85603E-07 1.30827E-20 3.10650E-18
 -1      1893 1.15792E-04-3.70642E-05-3.38392E-05-1.08470E-06 8.06845E-19 2.94049E-18
 -1      1894 1.13538E-04-3.67263E-05-3.29215E-05 2.39600E-06 3.07503E-19 3.91162E-18
 -1      1895 1.16706E-04-3.76466E-05-3.38927E-05-3.57287E-06 8.79333E-19 2.46432E-18
 -1      1896 1.15706E-04-3.74098E-05-3.36413E-05-5.75344E-06 1.18993E-18 2.81689E-18
 -1      1897 1.15849E-04-3.85007E-05-3.31308E-05-2.14532E-06 5.00987E-19 3.84544E-18
 -1      1898 1.15760E-04-3.72576E-05-3.36791E-05-8.47353E-06 7.17093E-19 2.39948E-18
 -1      1899 1.13555E-04-3.60155E-05-3.32591E-05-1.02939E-05 2.06067E-19 2.11294E-18
 -1      1900 1.16872E-04-3.89293E-05-3.33561E-05-7.91650E-06 6.68508E-19 3.00555E-18
 -1      1901 1.12344E-04-3.47124E-05-3.33386E-05-1.19805E-05-4.49874E-19 1.34140E-18
 -1      1902 1.09373E-04-3.25368E-05-3.28785E-05-1.22859E-05-1.58091E-18 1.64250E-18
 -1      1903 1.15601E-04-3.67857E-05-3.37237E-05-1.29962E-05-7.93535E-19 2.30298E-18
 -1      1904 1.07212E-04-3.03868E-05-3.30022E-05-1.14303E-05-2.10060E-18 1.44001E-18
 -1      1905 1.04595E-04-2.82229E-05-3.26481E-05-9.43820E-06-1.84392E-18 4.49695E-19
 -1      1906 1.11873E-04-3.19396E-05-3.42556E-05-1.42308E-05-1.56619E-18 2.00664E-18
 -1      1907 1.02889E-04-2.65982E-05-3.27209E-05-5.74388E-06-5.00199E-19 1.11173E-19
 -1      1908 1.01873E-04-2.58085E-05-3.25680E-05-2.08680E-06-4.68621E-19 8.56213E-19
 -1      1909 1.07593E-04-2.67845E-05-3.47376E-05-9.28009E-06-1.46275E-18 1.06428E-18
 -1      1910 1.01991E-04-2.60504E-05-3.24863E-05 2.63264E-06-1.30160E-18 6.32000E-19
 -1      1911 1.03045E-04-2.71914E-05-3.25572E-05 5.97920E-06-1.30076E-18 5.08458E-19
 -1      1912 1.05834E-04-2.49018E-05-3.48259E-05 3.06805E-07-1.02634E-18 2.42007E-19
 -1      1913 1.04711E-04-2.90423E-05-3.23418E-05 8.97357E-06-5.92076E-19 1.26656E-18
 -1      1914 1.07069E-04-3.12157E-05-3.25919E-05 1.02898E-05-2.50464E-19 1.91384E-18
 -1      1915 1.07869E-04-2.78127E-05-3.43808E-05 9.00916E-06-2.72268E-19-4.11109E-22
 -1      1916 1.08720E-04-3.31362E-05-3.23577E-05 1.02823E-05-1.07442E-18 2.14765E-18
 -1      1917 1.11044E-04-3.49604E-05-3.26718E-05 9.39862E-06 7.80759E-20 2.30130E-18
 -1      1918 1.11632E-04-3.31043E-05-3.36324E-05 1.21339E-05-5.41545E-19 2.17116E-18
 -1      1919 1.11548E-04-3.58404E-05-3.24896E-05 7.20404E-06 5.31871E-19 1.24852E-18
 -1      1920 1.12891E-04-3.66240E-05-3.27170E-05 5.11578E-06 1.79879E-18 1.34575E-18
 -1      1921 1.14076E-04-3.71315E-05-3.29150E-05 9.39305E-06-3.05534E-19 3.30662E-18
 -1      1922 1.12186E-04-3.64116E-05-3.25646E-05 2.29031E-06 3.26916E-18 2.21254E-20
 -1      1923 1.12282E-04-3.62470E-05-3.25963E-05 1.12631E-07 2.41056E-18 1.07363E-18
 -1      1924 1.13931E-04-3.82812E-05-3.23802E-05 3.69364E-06 1.45454E-18 1.48509E-18
 -1      1925 1.10857E-04-3.54299E-05-3.24173E-05-2.23323E-06 1.58960E-18 1.98617E-18
 -1      1926 1.09922E-04-3.47147E-05-3.22311E-05-3.85028E-06 2.06046E-18 3.11782E-18
 -1      1927 1.11709E-04-3.70970E-05-3.19661E-05-1.99169E-06 3.03575E-18 1.00068E-18
 -1      1928 1.08240E-04-3.37334E-05-3.19972E-05-5.29563E-06 1.42456E-18 2.92935E-18
 -1      1929 1.06669E-04-3.28075E-05-3.16463E-05-6.15894E-06 5.77306E-19 3.36793E-18
 -1      1930 1.08461E-04-3.48402E-05-3.15592E-05-6.07954E-06 1.82340E-18 2.54392E-18
 -1      1931 1.05002E-04-3.18795E-05-3.13718E-05-6.70038E-06-1.30014E-18 4.09328E-18
 -1      1932 1.03188E-04-3.09380E-05-3.09467E-05-6.85141E-06-1.47276E-18 3.29532E-18
 -1      1933 1.04975E-04-3.24218E-05-3.11090E-05-8.18300E-06-2.92028E-20 3.69001E-18
 -1      1934 1.01659E-04-3.01160E-05-3.06698E-05-6.63020E-06-9.87286E-19 2.21160E-18
 -1      1935 9.99324E-05-2.92537E-05-3.02651E-05-6.16467E-06-4.81872E-19 2.91369E-18
 -1      1936 1.01673E-04-3.02225E-05-3.06375E-05-8.47326E-06-2.14650E-18 3.68929E-18
 -1      1937 9.87482E-05-2.86415E-05-3.00414E-05-5.35060E-06-5.71433E-20 1.94817E-18
 -1      1938 9.73499E-05-2.79407E-05-2.97097E-05-4.40433E-06-2.40167E-19 1.80113E-18
 -1      1939 9.67218E-05-2.71347E-05-2.98332E-05-5.18599E-06-1.19137E-18 2.60583E-18
 -1      1940 9.88751E-05-2.83869E-05-3.02217E-05-7.30482E-06-6.43841E-19 3.29755E-18
 -1      1941 9.32049E-05-2.73608E-05-2.81910E-05 1.60857E-06 1.10484E-18 1.47204E-18
 -1      1942 9.44006E-05-2.74664E-05-2.86279E-05 2.67934E-06 1.21707E-18 1.81424E-18
 -1      1943 9.52250E-05-2.70458E-05-2.92251E-05 4.05773E-06 1.49733E-18 1.14084E-18
 -1      1944 9.21505E-05-2.73467E-05-2.77485E-05 3.52489E-07 7.38686E-19 8.51652E-19
 -1      1945 9.26462E-05-2.73793E-05-2.79213E-05 9.00221E-07 8.26486E-19 1.26119E-18
 -1      1946 9.36188E-05-2.73665E-05-2.84007E-05 1.58972E-06 1.04583E-18 8.69122E-19
 -1      1947 9.17724E-05-2.73835E-05-2.75796E-05-2.99779E-07 5.58554E-19 4.41973E-19
 -1      1948 9.18890E-05-2.73573E-05-2.76270E-05-7.86185E-09 5.45421E-19 7.02984E-19
 -1      1949 9.27856E-05-2.74811E-05-2.79976E-05 2.77991E-07 7.32847E-19 3.10146E-19
 -1      1950 9.17925E-05-2.74730E-05-2.75554E-05-6.24247E-07 2.29696E-19 6.06406E-20
 -1      1951 9.17067E-05-2.74117E-05-2.75396E-05-4.72098E-07 3.83804E-19 3.37526E-19
 -1      1952 9.24690E-05-2.75734E-05-2.78225E-05-4.14085E-07 5.08843E-19 2.39833E-20
 -1      1953 9.20327E-05-2.75937E-05-2.76097E-05-7.60905E-07 3.56113E-19 1.01503E-20
 -1      1954 9.18442E-05-2.75157E-05-2.75618E-05-6.90283E-07 2.02757E-19 7.31393E-20
 -1      1955 9.24693E-05-2.76775E-05-2.77761E-05-7.57670E-07 3.86457E-19-1.04614E-19
 -1      1956 9.23813E-05-2.77263E-05-2.77041E-05-7.87524E-07 4.25856E-19-3.01379E-20
 -1      1957 9.21486E-05-2.76439E-05-2.76415E-05-7.65719E-07 4.22165E-19 7.35670E-20
 -1      1958 9.26505E-05-2.77915E-05-2.78027E-05-8.97584E-07 4.48863E-19-7.99127E-20
 -1      1959 9.27694E-05-2.78579E-05-2.78154E-05-7.51196E-07 4.87201E-19-5.66176E-19
 -1      1960 9.25270E-05-2.77782E-05-2.77484E-05-7.58150E-07 3.81197E-19-2.72676E-19
 -1      1961 9.29242E-05-2.79070E-05-2.78687E-05-9.17632E-07 5.77773E-19-1.56997E-19
 -1      1962 9.31558E-05-2.79804E-05-2.79294E-05-6.82033E-07 2.74324E-19-5.89606E-19
 -1      1963 9.29233E-05-2.79076E-05-2.78642E-05-7.04728E-07 3.88514E-19-6.27286E-19
 -1      1964 9.32342E-05-2.80167E-05-2.79532E-05-8.69730E-07 4.91285E-19-2.90071E-19
 -1      1965 9.35179E-05-2.80900E-05-2.80384E-05-5.99950E-07 3.95444E-19-6.48023E-19
 -1      1966 9.33056E-05-2.80257E-05-2.79780E-05-6.29639E-07 3.79812E-19-6.23829E-19
 -1      1967 9.35467E-05-2.81163E-05-2.80434E-05-7.87554E-07 4.01752E-19-4.47177E-19
 -1      1968 9.38461E-05-2.81855E-05-2.81386E-05-5.18401E-07 9.68854E-20-3.76827E-19
 -1      1969 9.36574E-05-2.81301E-05-2.80844E-05-5.49062E-07 3.20672E-19-5.29620E-19
 -1      1970 9.38432E-05-2.82038E-05-2.81323E-05-6.93597E-07 2.48369E-19-7.73598E-19
 -1      1971 9.41391E-05-2.82677E-05-2.82292E-05-4.46695E-07 3.87457E-19-8.24434E-19
 -1      1972 9.39735E-05-2.82204E-05-2.81811E-05-4.74062E-07 1.95349E-19-6.69935E-19
 -1      1973 9.41157E-05-2.82792E-05-2.82165E-05-6.03227E-07 2.99953E-19-5.75004E-19
 -1      1974 9.44024E-05-2.83390E-05-2.83116E-05-3.91562E-07 4.52294E-19-9.55372E-19
 -1      1975 9.42558E-05-2.82982E-05-2.82685E-05-4.12459E-07 3.61443E-19-9.15747E-19
 -1      1976 9.43641E-05-2.83438E-05-2.82950E-05-5.27267E-07 4.04443E-19-8.23309E-19
 -1      1977 9.46458E-05-2.84025E-05-2.83887E-05-3.58267E-07 5.00931E-19-1.13966E-18
 -1      1978 9.45120E-05-2.83662E-05-2.83488E-05-3.70129E-07 5.29677E-19-9.14164E-19
 -1      1979 9.45934E-05-2.83999E-05-2.83692E-05-4.73759E-07 6.31455E-19-1.17489E-18
 -1      1980 9.48831E-05-2.84626E-05-2.84644E-05-3.51421E-07 2.67165E-19-1.80680E-18
 -1      1981 9.47539E-05-2.84283E-05-2.84254E-05-3.51932E-07 5.46883E-19-1.32847E-18
 -1      1982 9.48132E-05-2.84507E-05-2.84418E-05-4.49227E-07 6.66343E-19-1.17235E-18
 -1      1983 9.51313E-05-2.85243E-05-2.85440E-05-3.75557E-07 9.59779E-20-1.68069E-18
 -1      1984 9.49969E-05-2.84888E-05-2.85030E-05-3.62394E-07 3.28713E-20-1.83919E-18
 -1      1985 9.50362E-05-2.85001E-05-2.85164E-05-4.59585E-07 4.08354E-19-1.24537E-18
 -1      1986 9.54107E-05-2.85934E-05-2.86336E-05-4.35485E-07 4.80604E-19-1.94426E-18
 -1      1987 9.52594E-05-2.85533E-05-2.85872E-05-4.06148E-07 4.94999E-19-1.85385E-18
 -1      1988 9.52784E-05-2.85525E-05-2.85980E-05-5.10735E-07 6.28708E-19-1.87853E-18
 -1      1989 9.57446E-05-2.86767E-05-2.87403E-05-5.36405E-07 3.88350E-19-2.65022E-18
 -1      1990 9.55631E-05-2.86281E-05-2.86846E-05-4.88156E-07 2.37320E-19-2.41211E-18
 -1      1991 9.55584E-05-2.86135E-05-2.86924E-05-6.08893E-07 6.03267E-19-2.37496E-18
 -1      1992 9.61596E-05-2.87823E-05-2.88720E-05-6.83726E-07-1.68165E-19-2.34744E-18
 -1      1993 9.59327E-05-2.87203E-05-2.88027E-05-6.13660E-07 3.65271E-19-2.19313E-18
 -1      1994 9.58978E-05-2.86892E-05-2.88060E-05-7.60560E-07 2.35237E-19-2.15702E-18
 -1      1995 9.66850E-05-2.89191E-05-2.90376E-05-8.82451E-07-3.01530E-19-2.12626E-18
 -1      1996 9.63961E-05-2.88386E-05-2.89497E-05-7.87768E-07-3.58526E-19-2.37180E-18
 -1      1997 9.63209E-05-2.87870E-05-2.89460E-05-9.72072E-07-4.12924E-20-1.65235E-18
 -1      1998 9.73522E-05-2.90975E-05-2.92461E-05-1.13594E-06 4.91938E-19-2.59769E-18
 -1      1999 9.69835E-05-2.89925E-05-2.91346E-05-1.01452E-06 2.17750E-19-2.30373E-18
 -1      2000 9.68540E-05-2.89158E-05-2.91201E-05-1.24850E-06 3.76329E-19-1.72304E-18
 -1      2001 9.81930E-05-2.93291E-05-2.95063E-05-1.44376E-06-3.99728E-19-2.63566E-18
 -1      2002 9.77265E-05-2.91932E-05-2.93664E-05-1.29516E-06 8.49134E-20-2.62896E-18
 -1      2003 9.75247E-05-2.90859E-05-2.93355E-05-1.59168E-06 2.22771E-19-2.34722E-18
 -1      2004 9.92358E-05-2.96260E-05-2.98255E-05-1.79816E-06-1.28404E-18-2.41577E-18
 -1      2005 9.86558E-05-2.94527E-05-2.96529E-05-1.62533E-06-9.36464E-19-2.75031E-18
 -1      2006 9.83601E-05-2.93093E-05-2.95987E-05-1.99686E-06-7.31951E-19-1.74946E-18
 -1      2007 1.00500E-04-3.00006E-05-3.02073E-05-2.17873E-06-3.98900E-19-1.41596E-18
 -1      2008 9.97969E-05-2.97840E-05-3.00000E-05-1.99066E-06-1.01940E-18-2.12096E-18
 -1      2009 9.93834E-05-2.96003E-05-2.99135E-05-2.44761E-06-1.27470E-18-1.34463E-18
 -1      2010 1.01989E-04-3.04634E-05-3.06486E-05-2.54482E-06 1.13353E-18-1.18673E-18
 -1      2011 1.01163E-04-3.01999E-05-3.04082E-05-2.36033E-06 6.15492E-19-1.16134E-18
 -1      2012 1.00609E-04-2.99747E-05-3.02792E-05-2.90833E-06 2.01089E-19-1.33679E-18
 -1      2013 1.03674E-04-3.10203E-05-3.11357E-05-2.82585E-06 1.02680E-18-2.16440E-19
 -1      2014 1.02747E-04-3.07106E-05-3.08701E-05-2.67859E-06 1.54697E-18-3.69369E-19
 -1      2015 1.02036E-04-3.04494E-05-3.06877E-05-3.31428E-06 1.16887E-18-2.61994E-19
 -1      2016 1.05480E-04-3.16668E-05-3.16389E-05-2.91153E-06-1.38403E-18-1.09442E-18
 -1      2017 1.04505E-04-3.13200E-05-3.13654E-05-2.85522E-06-3.00881E-19-7.67701E-19
 -1      2018 1.03636E-04-3.10394E-05-3.11202E-05-3.56033E-06 2.40462E-19 2.45717E-19
 -1      2019 1.07266E-04-3.23780E-05-3.21079E-05-2.64757E-06-4.64856E-19-1.86337E-18
 -1      2020 1.06335E-04-3.20175E-05-3.18561E-05-2.75867E-06-1.28942E-18-1.60713E-18
 -1      2021 1.05341E-04-3.17502E-05-3.15442E-05-3.49229E-06-9.94445E-19-1.03514E-18
 -1      2022 1.08804E-04-3.30918E-05-3.24705E-05-1.84903E-06-7.40853E-19-2.00145E-18
 -1      2023 1.08064E-04-3.27637E-05-3.22835E-05-2.22071E-06-2.12003E-19-2.11467E-18
 -1      2024 1.07021E-04-3.25622E-05-3.19124E-05-2.91058E-06-1.96826E-19-1.75244E-18
 -1      2025 1.09772E-04-3.36853E-05-3.26386E-05-3.52226E-07-9.81671E-19-1.23204E-18
 -1      2026 1.09419E-04-3.34670E-05-3.25696E-05-1.06870E-06-1.16272E-18-1.50192E-18
 -1      2027 1.08470E-04-3.34013E-05-3.21661E-05-1.60401E-06-1.28843E-18-1.46945E-18
 -1      2028 1.09783E-04-3.39534E-05-3.25287E-05 1.87178E-06 4.74180E-19-2.02308E-18
 -1      2029 1.10033E-04-3.39564E-05-3.26290E-05 7.92497E-07-5.22970E-19-1.14745E-18
 -1      2030 1.09385E-04-3.40985E-05-3.22476E-05 5.60494E-07-4.76509E-19-1.90239E-18
 -1      2031 1.08471E-04-3.36224E-05-3.20975E-05 4.54553E-06 7.91063E-19-9.07530E-19
 -1      2032 1.09494E-04-3.39712E-05-3.23938E-05 3.23809E-06 5.38336E-19-1.45249E-18
 -1      2033 1.09384E-04-3.43610E-05-3.21206E-05 3.47540E-06 1.30324E-19-1.76330E-18
 -1      2034 1.05678E-04-3.24537E-05-3.13829E-05 6.93906E-06 6.60937E-19 3.61048E-20
 -1      2035 1.07485E-04-3.32203E-05-3.18516E-05 5.76184E-06 8.65006E-19 9.08774E-20
 -1      2036 1.08108E-04-3.38193E-05-3.17957E-05 6.59383E-06 2.90751E-19-5.20366E-19
 -1      2037 1.01726E-04-3.04721E-05-3.05229E-05 7.95017E-06 1.11050E-18 3.11417E-19
 -1      2038 1.04051E-04-3.15698E-05-3.10756E-05 7.43966E-06 7.98643E-19 7.16775E-19
 -1      2039 1.05452E-04-3.22362E-05-3.13408E-05 8.84686E-06 6.46331E-19 1.05527E-18
 -1      2040 9.76239E-05-2.82180E-05-2.97336E-05 6.64227E-06-1.00737E-19 4.57980E-19
 -1      2041 9.98801E-05-2.93271E-05-3.02299E-05 7.23129E-06 6.53191E-19 1.81980E-20
 -1      2042 1.01899E-04-2.98493E-05-3.08660E-05 8.94099E-06 8.92343E-19 1.94233E-18
 -1      2043 9.48034E-05-2.66228E-05-2.92311E-05 3.00720E-06-1.26162E-18-1.91886E-18
 -1      2044 9.62648E-05-2.72957E-05-2.95305E-05 4.67625E-06 1.08341E-19-3.69875E-19
 -1      2045 9.86044E-05-2.75207E-05-3.04897E-05 6.17204E-06 5.11118E-19 1.67200E-18
 -1      2046 9.44335E-05-2.65284E-05-2.91316E-05-1.63157E-06-7.06743E-19-1.53428E-18
 -1      2047 9.45787E-05-2.64437E-05-2.91574E-05 4.67583E-07-1.17585E-18-2.67089E-18
 -1      2048 9.69520E-05-2.63998E-05-3.02838E-05 1.19308E-06-7.03289E-19-7.97591E-19
 -1      2049 9.65229E-05-2.79275E-05-2.94215E-05-5.26515E-06-1.37346E-18-6.93495E-19
 -1      2050 9.53803E-05-2.71714E-05-2.91893E-05-3.64253E-06-1.50301E-18-1.74869E-18
 -1      2051 9.76282E-05-2.70829E-05-3.02602E-05-3.92983E-06-1.33672E-18-7.36674E-19
 -1      2052 9.98951E-05-2.99867E-05-2.99633E-05-6.53903E-06-1.84131E-18 1.16051E-18
 -1      2053 9.80385E-05-2.89683E-05-2.95777E-05-5.96528E-06-9.71679E-19-3.10755E-20
 -1      2054 1.00062E-04-2.91232E-05-3.03980E-05-7.03029E-06-2.18953E-18-1.78320E-19
 -1      2055 1.03020E-04-3.17225E-05-3.05382E-05-5.43839E-06-6.11684E-20 8.68023E-19
 -1      2056 1.01210E-04-3.08765E-05-3.01478E-05-5.89224E-06-9.63143E-19 6.85104E-19
 -1      2057 1.02881E-04-3.13699E-05-3.06256E-05-7.20460E-06-6.67338E-19 8.22601E-19
 -1      2058 1.04843E-04-3.25852E-05-3.09415E-05-2.93143E-06 2.73466E-19 1.63795E-18
 -1      2059 1.03655E-04-3.21461E-05-3.06740E-05-3.98672E-06 5.27993E-19 1.39624E-18
 -1      2060 1.04853E-04-3.28608E-05-3.08340E-05-5.03598E-06-1.62921E-19 1.76777E-18
 -1      2061 1.05064E-04-3.25539E-05-3.10528E-05-1.72206E-07 1.78843E-18 7.30882E-19
 -1      2062 1.04722E-04-3.25340E-05-3.09739E-05-1.34100E-06 3.98238E-19 9.83941E-19
 -1      2063 1.05423E-04-3.32570E-05-3.09194E-05-1.84242E-06 8.02934E-19 1.69656E-18
 -1      2064 1.03932E-04-3.18870E-05-3.08607E-05 2.03218E-06 9.96415E-19 1.47492E-18
 -1      2065 1.04358E-04-3.21789E-05-3.09670E-05 1.09029E-06 1.92733E-18 2.01166E-18
 -1      2066 1.04668E-04-3.27490E-05-3.08227E-05 1.17641E-06 1.39607E-18 3.00523E-18
 -1      2067 1.01939E-04-3.08802E-05-3.04432E-05 3.30431E-06-3.96696E-19 2.58121E-18
 -1      2068 1.02886E-04-3.13500E-05-3.06806E-05 2.75672E-06 4.57001E-20 2.22594E-18
 -1      2069 1.02981E-04-3.17053E-05-3.05505E-05 3.30957E-06-3.25413E-19 4.18458E-18
 -1      2070 9.96202E-05-2.97740E-05-2.99267E-05 3.55503E-06 4.16829E-19 1.25207E-18
 -1      2071 1.00783E-04-3.03000E-05-3.02162E-05 3.45401E-06 8.28054E-19 2.05018E-18
 -1      2072 1.00816E-04-3.04463E-05-3.01639E-05 4.28059E-06 9.41217E-19 3.14715E-18
 -1      2073 9.74588E-05-2.87471E-05-2.94382E-05 2.84635E-06 1.17243E-18-1.08089E-19
 -1      2074 9.85390E-05-2.92320E-05-2.97031E-05 3.19058E-06 4.70646E-19 3.67003E-19
 -1      2075 9.85853E-05-2.91947E-05-2.97471E-05 4.08560E-06 1.12309E-18 2.31757E-18
 -1      2076 9.60594E-05-2.80894E-05-2.91129E-05 1.80865E-06 1.54299E-19 1.63240E-19
 -1      2077 9.68754E-05-2.84443E-05-2.93246E-05 2.45283E-06 7.56091E-19-5.68162E-19
 -1      2078 9.69250E-05-2.82693E-05-2.94362E-05 3.23933E-06 1.63563E-18 7.39657E-19
 -1      2079 9.58493E-05-2.76162E-05-2.92382E-05 2.25811E-06 4.29526E-20 2.28123E-18
 -1      2080 9.35171E-05-2.13718E-05-3.09110E-05 6.49675E-06-3.73965E-19 9.88286E-19
 -1      2081 9.41767E-05-2.30134E-05-3.04833E-05 6.06463E-06-3.83062E-19 2.09039E-18
 -1      2082 9.46369E-05-2.41021E-05-3.02113E-05 5.38067E-06 7.11038E-19 3.31633E-18
 -1      2083 9.51625E-05-2.54460E-05-2.98617E-05 4.71011E-06 4.05511E-19 2.79072E-18
 -1      2084 9.50240E-05-2.44808E-05-3.02493E-05 7.15316E-06 1.14654E-19 2.04204E-18
 -1      2085 9.53416E-05-2.60562E-05-2.96749E-05 3.88725E-06 2.64273E-19 1.56951E-18
 -1      2086 9.57118E-05-2.70478E-05-2.94102E-05 3.09258E-06 6.02078E-19 1.47695E-18
 -1      2087 9.61882E-05-2.73326E-05-2.95001E-05 3.68690E-06 1.00755E-18 1.64162E-18
 -1      2088 9.57869E-05-2.61692E-05-2.98399E-05 5.48022E-06 9.58369E-19 2.79994E-18
 -1      2089 9.21649E-05-1.83326E-05-3.16547E-05 6.93871E-06-2.54203E-18-2.33390E-18
 -1      2090 9.29307E-05-2.00939E-05-3.12061E-05 6.85029E-06-1.87975E-18 1.20753E-19
 -1      2091 9.37766E-05-2.20622E-05-3.07494E-05 8.33099E-06-1.52201E-18-6.59491E-19
 -1      2092 9.06604E-05-1.52079E-05-3.23714E-05 6.43751E-06-1.26577E-18-1.92604E-18
 -1      2093 9.14639E-05-1.69206E-05-3.19471E-05 6.79452E-06-1.23619E-18-8.23336E-19
 -1      2094 9.22182E-05-1.92830E-05-3.12601E-05 8.59019E-06-2.26814E-18-8.27444E-19
 -1      2095 8.92807E-05-1.25351E-05-3.29426E-05 4.83438E-06-1.23022E-18-4.31073E-18
 -1      2096 8.99637E-05-1.38933E-05-3.26156E-05 5.67472E-06-6.86937E-19-4.04055E-18
 -1      2097 9.04959E-05-1.64447E-05-3.17197E-05 7.59448E-06-9.37181E-19-3.05958E-18
 -1      2098 8.83511E-05-1.08432E-05-3.32751E-05 2.25184E-06-9.00834E-19-4.00561E-19
 -1      2099 8.87493E-05-1.15837E-05-3.31022E-05 3.48081E-06-1.22329E-18-1.57752E-18
 -1      2100 8.89660E-05-1.40713E-05-3.20609E-05 5.22802E-06 7.63073E-19-2.68933E-18
 -1      2101 8.81416E-05-1.05375E-05-3.33096E-05-8.72383E-07-9.75474E-19 1.81147E-18
 -1      2102 8.81415E-05-1.04930E-05-3.33247E-05 5.19837E-07-5.31124E-19 1.93960E-18
 -1      2103 8.80357E-05-1.27016E-05-3.22353E-05 1.75393E-06-1.26751E-18 9.58305E-19
 -1      2104 8.87344E-05-1.17329E-05-3.30361E-05-3.89844E-06-1.69859E-18-9.45765E-19
 -1      2105 8.83272E-05-1.08924E-05-3.32405E-05-2.63138E-06-1.72647E-18 3.09352E-19
 -1      2106 8.79965E-05-1.27014E-05-3.22180E-05-2.18447E-06-1.30456E-18 9.31604E-20
 -1      2107 8.99579E-05-1.41451E-05-3.25075E-05-6.18183E-06-1.31440E-18-3.62196E-18
 -1      2108 8.92509E-05-1.26905E-05-3.28615E-05-5.29737E-06-1.45280E-18-2.33449E-18
 -1      2109 8.88716E-05-1.40807E-05-3.20138E-05-5.73885E-06-1.69298E-18-1.16897E-18
 -1      2110 9.15636E-05-1.73779E-05-3.17920E-05-7.41541E-06-1.06732E-18 4.21157E-19
 -1      2111 9.06870E-05-1.55188E-05-3.22491E-05-7.02097E-06-3.43002E-19-1.62656E-18
 -1      2112 9.04111E-05-1.65147E-05-3.16509E-05-8.24434E-06-1.32109E-19-2.48333E-18
 -1      2113 9.32346E-05-2.08348E-05-3.10115E-05-7.44385E-06-2.11917E-19 1.96836E-18
 -1      2114 9.23419E-05-1.88906E-05-3.14924E-05-7.58002E-06-4.65021E-19 7.06406E-19
 -1      2115 9.22774E-05-1.95209E-05-3.11805E-05-9.34849E-06 9.65647E-19 8.19790E-19
 -1      2116 9.47985E-05-2.40753E-05-3.02938E-05-6.38725E-06-1.41955E-18 2.14140E-18
 -1      2117 9.39402E-05-2.22721E-05-3.07157E-05-6.98676E-06-1.57222E-18 2.13049E-18
 -1      2118 9.41292E-05-2.25765E-05-3.06765E-05-9.00149E-06-7.15591E-19 1.49666E-18
 -1      2119 5.83523E-05-4.20477E-05-7.59425E-06 4.05660E-05 2.31409E-18 5.01872E-18
 -1      2120 4.37761E-05-4.37314E-05-1.29372E-06 3.39780E-05 1.14138E-18 5.36098E-18
 -1      2121 1.28984E-05-3.80741E-05 9.22344E-06 4.96094E-06-8.07858E-20 3.86120E-18
 -1      2122 1.27517E-05-3.80546E-05 9.24991E-06-4.29680E-06-1.26526E-18 4.22966E-18
 -1      2123 2.66772E-05-3.65006E-05 3.37367E-06 2.70100E-05 1.68814E-18 2.84222E-18
 -1      2124 1.89021E-05-3.92520E-05 7.14667E-06 1.60644E-05 1.06409E-18 2.47672E-18
 -1      2125 9.57799E-05-4.39691E-05-2.21506E-05 4.41322E-05 3.05355E-18 4.63073E-18
 -1      2126 7.68874E-05-4.66105E-05-1.41233E-05 3.91721E-05 3.33307E-18 3.59756E-18
 -1      2127 1.32379E-04-4.36078E-05-3.76643E-05 3.75167E-05 2.94810E-18 3.29835E-18
 -1      2128 1.11365E-04-4.41261E-05-2.93667E-05 3.77118E-05 2.83036E-18 4.60362E-18
 -1      2129 8.72681E-05-8.72504E-06-3.37497E-05-1.05268E-05-1.78806E-18-1.24092E-18
 -1      2130 8.79630E-05-9.25363E-06-3.38198E-05-1.21138E-05-1.97534E-18-7.62753E-19
 -1      2131 9.04682E-05-1.30775E-05-3.32337E-05-1.19253E-05-2.03136E-18-4.45103E-19
 -1      2132 8.86695E-05-1.10349E-05-3.32956E-05-9.41454E-06-1.80578E-18-1.23691E-18
 -1      2133 1.81323E-04-2.80555E-05-6.38166E-05 1.16432E-05 4.34274E-18-1.71101E-19
 -1      2134 1.65297E-04-2.80577E-05-5.82856E-05 1.29921E-05 3.58316E-18-2.10911E-19
 -1      2135 1.86935E-04-2.54801E-05-6.76987E-05 5.19053E-07 4.50156E-18 1.22370E-19
 -1      2136 1.84186E-04-2.57687E-05-6.66716E-05 8.55485E-06 4.66842E-18 1.42302E-19
 -1      2137 1.77256E-04-2.59990E-05-6.39247E-05-9.86752E-06 5.03900E-18-6.04358E-19
 -1      2138 1.86264E-04-2.66133E-05-6.68507E-05-3.03351E-06 5.32318E-18 6.23628E-19
 -1      2139 1.59371E-04-3.34491E-05-5.35915E-05-2.00248E-05 4.44232E-18-3.51942E-18
 -1      2140 1.73027E-04-3.21694E-05-5.93038E-05-1.39991E-05 4.65487E-18-1.65171E-18
 -1      2141 1.32673E-04-4.07178E-05-3.96929E-05-3.02883E-05 4.99093E-18-3.68375E-18
 -1      2142 1.52309E-04-3.96258E-05-4.74822E-05-2.87456E-05 4.44406E-18-3.55584E-18
 -1      2143 9.74569E-05-4.43614E-05-2.36125E-05-3.73351E-05 5.61540E-18-4.68113E-18
 -1      2144 1.18351E-04-4.24506E-05-3.21642E-05-4.00891E-05 5.46590E-18-5.05975E-18
 -1      2145 6.25095E-05-4.43625E-05-8.86623E-06-3.74276E-05 4.43930E-18-4.85233E-18
 -1      2146 7.95902E-05-4.18406E-05-1.63852E-05-4.25720E-05 5.06017E-18-5.29226E-18
 -1      2147 3.01194E-05-3.93294E-05 2.65446E-06-2.68786E-05 1.07488E-18-5.07521E-18
 -1      2148 4.29750E-05-3.78698E-05-2.73977E-06-3.62264E-05 2.85704E-18-3.94177E-18
 -1      2149 1.30736E-05-3.69225E-05 8.61099E-06-7.29897E-06-2.16417E-19-4.83402E-18
 -1      2150 1.71684E-05-3.46696E-05 6.36852E-06-1.72039E-05 5.52054E-19-5.12413E-18
 -1      2151 1.58412E-05-3.66736E-05 7.51061E-06 1.33758E-05-9.80229E-19-3.92388E-18
 -1      2152 1.22808E-05-3.74576E-05 9.13284E-06 4.08382E-06 3.31243E-19-4.06237E-18
 -1      2153 3.93798E-05-3.78237E-05-1.33019E-06 3.31718E-05-2.15909E-18-7.86512E-18
 -1      2154 2.71256E-05-4.00618E-05 4.00920E-06 2.29393E-05-9.51642E-19-5.96248E-18
 -1      2155 7.66189E-05-4.37969E-05-1.43747E-05 4.10468E-05-4.47826E-18-6.01690E-18
 -1      2156 5.92749E-05-4.50889E-05-7.26447E-06 3.56553E-05-2.97266E-18-6.48645E-18
 -1      2157 1.15217E-04-4.73588E-05-2.90226E-05 3.79849E-05-5.19994E-18-3.71720E-18
 -1      2158 9.43522E-05-4.75895E-05-2.09292E-05 3.65030E-05-4.95768E-18-4.46429E-18
 -1      2159 1.51192E-04-4.32551E-05-4.53909E-05 2.63355E-05-3.97449E-18-5.82589E-18
 -1      2160 1.32446E-04-4.62850E-05-3.72522E-05 2.63663E-05-4.74254E-18-4.52570E-18
 -1      2161 1.75532E-04-3.49635E-05-5.87709E-05 1.66196E-05-4.04098E-18-4.51892E-18
 -1      2162 1.58367E-04-3.59755E-05-5.22243E-05 1.98216E-05-4.20507E-18-5.48030E-18
 -1      2163 1.85986E-04-2.79898E-05-6.64069E-05 3.65054E-06-4.10515E-18-2.20631E-18
 -1      2164 1.79677E-04-2.93154E-05-6.32760E-05 1.16326E-05-4.27603E-18-3.24244E-18
 -1      2165 1.79218E-04-2.27325E-05-6.62323E-05-5.43685E-06-5.29565E-18-4.97738E-19
 -1      2166 1.82890E-04-2.38259E-05-6.68793E-05 3.03765E-07-4.64471E-18-2.18259E-18
 -1      2167 1.70368E-04-2.95813E-05-5.98148E-05-1.30067E-05-4.57334E-18 1.84272E-18
 -1      2168 1.77951E-04-2.69030E-05-6.37990E-05-6.88061E-06-5.48327E-18-9.31736E-21
 -1      2169 1.51377E-04-3.90088E-05-4.81372E-05-2.08081E-05-1.64764E-18 3.15012E-18
 -1      2170 1.68667E-04-3.65739E-05-5.55438E-05-1.92659E-05-2.22854E-18 3.64394E-18
 -1      2171 1.58943E-04-3.10221E-05-5.40007E-05-4.32216E-07-3.37013E-18 3.31613E-19
 -1      2172 1.19730E-04-4.86009E-05-3.09870E-05-3.36804E-05-7.50048E-19 2.53602E-18
 -1      2173 1.40510E-04-4.67695E-05-3.97879E-05-3.23588E-05-1.28516E-18 1.99815E-18
 -1      2174 7.90176E-05-4.81889E-05-1.43211E-05-3.89990E-05-5.90382E-19 9.54606E-19
 -1      2175 1.00344E-04-4.69402E-05-2.29355E-05-4.33843E-05-4.24787E-19 2.13177E-18
 -1      2176 4.27838E-05-4.41327E-05-8.73152E-07-3.25665E-05-6.70003E-19 7.23684E-19
 -1      2177 5.86535E-05-4.22111E-05-7.51941E-06-4.10013E-05-8.52962E-19 4.62824E-19
 -1      2178 1.92602E-05-3.91513E-05 6.99554E-06-1.64305E-05 1.07150E-19 3.03661E-18
 -1      2179 2.70394E-05-3.77368E-05 3.57041E-06-2.60179E-05-2.00747E-19 1.98290E-18
 -1      2180 1.59682E-04-3.79102E-05-5.18235E-05 1.95310E-05 3.58883E-18-9.10137E-19
 -1      2181 1.45426E-04-4.02736E-05-4.48659E-05 2.59375E-05 3.24361E-18 9.14796E-19
 -1      2182 1.16100E-04-5.51887E-05-2.59266E-05 3.68046E-05 1.01559E-18 2.84476E-18
 -1      2183 9.71830E-05-2.43127E-05-3.13041E-05-1.00050E-05-1.77557E-18 3.12068E-18
 -1      2184 1.43593E-04-4.95430E-05-3.96653E-05 2.13189E-05 2.04262E-18-3.51942E-19
 -1      2185 1.51064E-04-2.78846E-05-5.33492E-05-4.15607E-06 3.33223E-18-1.52508E-18
 -1      2186 1.59008E-04-3.34016E-05-5.32515E-05 8.45567E-06 3.14143E-18-4.03188E-19
 -1      2187 1.50358E-04-3.84251E-05-4.76596E-05 1.83410E-06 2.47058E-18-2.66985E-18
 -1      2188 9.63431E-05-2.30971E-05-3.14543E-05-1.03877E-05-1.95523E-18 1.90670E-18
 -1      2189 4.23706E-05-3.80572E-05-2.36537E-06 3.62196E-05 3.99800E-19 4.41664E-18
 -1      2190 1.80865E-05-2.81758E-05 3.64849E-06 1.38799E-05 3.05991E-20 4.97081E-18
 -1      2191 9.54165E-05-2.52192E-05-3.00638E-05-6.15539E-06-1.56079E-18 1.40699E-18
 -1      2192 8.08366E-05-5.07299E-05-1.31705E-05 4.40636E-05 1.37092E-18 4.22966E-18
 -1      2193 1.87357E-05-2.86204E-05 3.52609E-06-1.40817E-05 1.71524E-20 3.39957E-18
 -1      2194 4.29955E-05-3.75081E-05-2.73979E-06-3.64646E-05 1.71143E-18 7.21672E-19
 -1      2195 8.12579E-05-5.10581E-05-1.30797E-05-4.34495E-05 6.39933E-19 1.58342E-19
 -1      2196 1.49768E-04-4.95803E-05-4.24627E-05-1.40431E-05-7.03408E-19 1.95919E-18
 -1      2197 1.60219E-04-1.71407E-05-6.04258E-05 8.88877E-07-5.85384E-18-1.22449E-18
 -1      2198 1.64115E-04-1.61813E-05-6.22219E-05-1.93937E-06-4.81115E-18-1.64557E-18
 -1      2199 1.64802E-04-2.80820E-05-5.74524E-05 1.42722E-07-4.25803E-18-2.89304E-18
 -1      2200 1.54438E-04-4.40823E-05-4.67573E-05 7.15234E-06-3.60857E-18-3.85315E-18
 -1      2201 1.33141E-04-5.58885E-05-3.28527E-05 2.45346E-05-3.63801E-18-2.96398E-18
 -1      2202 9.79833E-05-5.39428E-05-1.88728E-05 3.87457E-05-2.77488E-18-3.70789E-18
 -1      2203 5.84693E-05-4.31816E-05-6.93586E-06 3.93475E-05-6.50521E-19-6.97203E-18
 -1      2204 2.53510E-05-3.05754E-05 1.66309E-06 2.40327E-05-3.53001E-19-5.87248E-18
 -1      2205 1.40298E-05-2.64548E-05 4.53804E-06-1.95765E-06-2.41987E-19-4.51384E-18
 -1      2206 2.83630E-05-3.07246E-05 5.95964E-07-2.76019E-05-7.41789E-19-5.41889E-18
 -1      2207 6.27856E-05-4.39701E-05-8.45765E-06-4.14785E-05 1.29088E-18-4.44544E-18
 -1      2208 1.02622E-04-5.31294E-05-2.12522E-05-3.89206E-05 3.56177E-18-3.56347E-18
 -1      2209 1.35062E-04-5.21697E-05-3.50906E-05-2.47889E-05 4.24935E-18-1.97316E-18
 -1      2210 1.53584E-04-4.03113E-05-4.77724E-05-8.12529E-06 3.66141E-18-7.42001E-19
 -1      2211 1.61592E-04-2.41837E-05-5.78761E-05 4.59406E-07 5.09152E-18 1.04312E-18
 -1      2212 1.62243E-04-1.75455E-05-6.09756E-05 1.69978E-07 4.18392E-18-1.19538E-18
 -1      2213 1.65060E-04-1.49479E-05-6.29576E-05 1.45676E-06 5.05255E-18 8.96214E-19
 -1      2214 1.21536E-04-5.77538E-05-2.71102E-05-3.39858E-05 3.66765E-19 1.77136E-18
 -1      2215 9.52083E-05-2.63752E-05-2.94867E-05 4.20150E-06 1.41326E-18 4.07109E-19
 -1      2216 9.61839E-05-2.58609E-05-3.00649E-05 6.00640E-06 1.59451E-18 5.02148E-19
 -1      2217 8.81414E-05-1.11876E-05-3.30195E-05-3.66397E-06-9.46801E-19-1.94640E-18
 -1      2218 8.83748E-05-1.14582E-05-3.30014E-05-4.80643E-06-1.16943E-18-1.84112E-18
 -1      2219 8.87269E-05-1.19431E-05-3.29526E-05-5.82382E-06-1.30480E-18-1.65813E-18
 -1      2220 8.91312E-05-1.24136E-05-3.29241E-05-6.99982E-06-1.56653E-18-1.45684E-18
 -1      2221 8.98947E-05-1.38268E-05-3.25994E-05-4.90569E-06-1.10330E-18-1.59731E-18
 -1      2222 8.77970E-05-1.07293E-05-3.30630E-05 6.16165E-07-2.89127E-19-2.30888E-18
 -1      2223 8.77926E-05-1.07245E-05-3.30633E-05-4.95813E-07-5.30081E-19-2.31755E-18
 -1      2224 8.79771E-05-1.09538E-05-3.30444E-05 2.76022E-06-2.53049E-20-2.34161E-18
 -1      2225 8.78628E-05-1.08211E-05-3.30538E-05 1.63993E-06-2.04098E-19-2.35932E-18
 -1      2226 8.91152E-05-1.27762E-05-3.27199E-05 1.05090E-06-2.13487E-19-2.24008E-18
 -1      2227 8.84098E-05-1.15001E-05-3.29988E-05 4.89123E-06 3.74417E-19-2.21868E-18
 -1      2228 8.81712E-05-1.12238E-05-3.30171E-05 3.76729E-06 1.19657E-19-2.23122E-18
 -1      2229 8.93798E-05-1.31314E-05-3.26797E-05 3.02408E-06 1.23080E-20-2.11041E-18
 -1      2230 8.91868E-05-1.24814E-05-3.29196E-05 7.07998E-06 9.25536E-19-1.83903E-18
 -1      2231 8.87700E-05-1.19955E-05-3.29489E-05 5.90773E-06 5.98208E-19-2.05003E-18
 -1      2232 8.99352E-05-1.38784E-05-3.25948E-05 4.97994E-06 4.37530E-19-1.87928E-18
 -1      2233 9.04536E-05-1.40888E-05-3.27921E-05 9.22935E-06 1.43421E-18-1.70271E-18
 -1      2234 8.97746E-05-1.32787E-05-3.28377E-05 8.05022E-06 1.13165E-18-1.76775E-18
 -1      2235 9.08678E-05-1.51365E-05-3.24494E-05 6.87704E-06 9.70313E-19-1.67634E-18
 -1      2236 9.24484E-05-1.66591E-05-3.25816E-05 1.11137E-05 1.85020E-18-1.24019E-18
 -1      2237 9.13712E-05-1.53199E-05-3.26539E-05 1.00336E-05 1.61026E-18-1.51529E-18
 -1      2238 9.22881E-05-1.70887E-05-3.22077E-05 8.52310E-06 1.44931E-18-1.41157E-18
 -1      2239 9.42261E-05-2.71147E-05-2.87453E-05 1.77204E-06 1.04278E-18 1.11775E-19
 -1      2240 9.48277E-05-2.68915E-05-2.90441E-05 2.74468E-06 1.24490E-18 4.08902E-19
 -1      2241 9.53330E-05-2.58462E-05-2.97879E-05 4.36899E-06 1.41752E-18-1.48979E-19
 -1      2242 9.59060E-05-2.50898E-05-3.03020E-05-6.19299E-06-1.64140E-18 1.23044E-18
 -1      2243 9.52460E-05-2.58490E-05-2.97582E-05-4.28767E-06-1.41132E-18 1.15632E-18
 -1      2244 1.45536E-04-5.10332E-05-4.09511E-05 1.01054E-05 1.53541E-18-2.99680E-18
 -1      2245 1.37479E-04-5.64066E-05-3.48095E-05 1.91646E-05 1.28728E-18-1.06176E-18
 -1      2246 9.51304E-05-2.65340E-05-2.93411E-05-2.94539E-06-1.20435E-18 1.15515E-18
 -1      2247 9.46615E-05-2.69069E-05-2.90374E-05-1.88475E-06-1.05979E-18 1.00529E-18
 -1      2248 9.53321E-05-2.53521E-05-2.99938E-05-4.30199E-06-1.40772E-18 6.30546E-19
 -1      2249 9.44646E-05-2.72362E-05-2.87737E-05-1.03541E-06-9.40612E-19 1.01203E-18
 -1      2250 9.42055E-05-2.74494E-05-2.86072E-05-4.34257E-07-7.25371E-19 7.16706E-19
 -1      2251 9.50282E-05-2.66999E-05-2.92964E-05-1.92983E-06-1.07663E-18 4.31919E-19
 -1      2252 9.40563E-05-2.76296E-05-2.84459E-05 7.31506E-08-6.59461E-19 6.00116E-19
 -1      2253 9.39568E-05-2.77726E-05-2.83621E-05 4.02522E-07-6.11942E-19 5.19140E-19
 -1      2254 9.47210E-05-2.74264E-05-2.88533E-05-4.51317E-07-8.42155E-19 2.74140E-19
 -1      2255 9.38718E-05-2.78818E-05-2.82688E-05 6.85003E-07-5.92653E-19 3.98215E-19
 -1      2256 9.38765E-05-2.79880E-05-2.82357E-05 8.49060E-07-5.97664E-19 2.21828E-19
 -1      2257 9.45190E-05-2.78539E-05-2.85811E-05 4.18558E-07-7.79612E-19 3.19623E-20
 -1      2258 9.38448E-05-2.80595E-05-2.81871E-05 9.86746E-07-6.04121E-19 6.56809E-20
 -1      2259 9.39112E-05-2.81424E-05-2.81848E-05 1.04961E-06-5.84645E-19-9.77335E-20
 -1      2260 9.44256E-05-2.81218E-05-2.84235E-05 8.89904E-07-6.81000E-19-1.86032E-19
 -1      2261 9.39170E-05-2.81912E-05-2.81654E-05 1.09619E-06-4.57218E-19-1.56631E-19
 -1      2262 9.40158E-05-2.82567E-05-2.81810E-05 1.09847E-06-4.48709E-19-2.43298E-19
 -1      2263 9.44157E-05-2.82965E-05-2.83420E-05 1.10516E-06-5.75511E-19-5.10998E-19
 -1      2264 9.40451E-05-2.82904E-05-2.81801E-05 1.09034E-06-6.26365E-19-7.22122E-20
 -1      2265 9.41572E-05-2.83418E-05-2.82054E-05 1.05873E-06-7.72003E-19-4.16585E-20
 -1      2266 9.44613E-05-2.84116E-05-2.83104E-05 1.16096E-06-5.04959E-19-5.46869E-19
 -1      2267 9.41996E-05-2.83645E-05-2.82159E-05 1.02088E-06-7.21235E-19-2.88887E-20
 -1      2268 9.43135E-05-2.84042E-05-2.82458E-05 9.73392E-07-3.23313E-19 4.03339E-20
 -1      2269 9.45396E-05-2.84860E-05-2.83108E-05 1.12349E-06-7.04393E-19-4.16481E-19
 -1      2270 9.43623E-05-2.84186E-05-2.82631E-05 9.23148E-07-1.48210E-19 1.01755E-19
 -1      2271 9.44719E-05-2.84485E-05-2.82947E-05 8.72189E-07-1.94685E-19 4.57524E-20
 -1      2272 9.46346E-05-2.85310E-05-2.83314E-05 1.03852E-06-1.94187E-19-1.66385E-19
 -1      2273 9.45230E-05-2.84565E-05-2.83160E-05 8.21746E-07-1.84534E-19 6.44983E-20
 -1      2274 9.46260E-05-2.84783E-05-2.83479E-05 7.76069E-07-3.09482E-19 3.86252E-19
 -1      2275 9.47363E-05-2.85542E-05-2.83646E-05 9.38099E-07-1.60640E-19-7.40474E-20
 -1      2276 9.46778E-05-2.84812E-05-2.83718E-05 7.34247E-07-3.69269E-19 4.96422E-19
 -1      2277 9.47749E-05-2.84966E-05-2.84036E-05 7.00307E-07-2.58047E-19 6.97590E-19
 -1      2278 9.48395E-05-2.85608E-05-2.84057E-05 8.45074E-07-1.94059E-19 1.03250E-19
 -1      2279 9.48273E-05-2.84955E-05-2.84297E-05 6.73824E-07-3.66336E-19 5.75360E-19
 -1      2280 9.49214E-05-2.85059E-05-2.84619E-05 6.56751E-07-3.90021E-19 4.99952E-19
 -1      2281 9.49428E-05-2.85544E-05-2.84527E-05 7.76356E-07-4.09704E-19 2.19568E-19
 -1      2282 9.49756E-05-2.85016E-05-2.84904E-05 6.51178E-07-4.87720E-19 4.33257E-19
 -1      2283 9.50713E-05-2.85087E-05-2.85244E-05 6.55508E-07-4.90885E-19 3.13859E-19
 -1      2284 9.50476E-05-2.85374E-05-2.85050E-05 7.45288E-07-4.34525E-19 2.56035E-19
 -1      2285 9.51297E-05-2.85017E-05-2.85562E-05 6.75983E-07-7.70767E-19 2.16796E-19
 -1      2286 9.52330E-05-2.85070E-05-2.85936E-05 7.06204E-07-8.53590E-19 2.62302E-19
 -1      2287 9.51579E-05-2.85116E-05-2.85635E-05 7.63438E-07-7.99648E-19-5.38739E-20
 -1      2288 9.52988E-05-2.84978E-05-2.86301E-05 7.57958E-07-5.29116E-19 1.47359E-19
 -1      2289 9.54172E-05-2.85030E-05-2.86733E-05 8.18899E-07-1.25171E-19 2.32903E-19
 -1      2290 9.52790E-05-2.84779E-05-2.86302E-05 8.41911E-07-7.07076E-19 4.86433E-19
 -1      2291 9.54943E-05-2.84921E-05-2.87161E-05 9.07612E-07-3.13976E-19 1.12815E-19
 -1      2292 9.56366E-05-2.84992E-05-2.87677E-05 1.00468E-06-2.82968E-19-1.52774E-19
 -1      2293 9.54181E-05-2.84370E-05-2.87077E-05 9.92283E-07-2.14885E-19 1.94103E-19
 -1      2294 9.57296E-05-2.84871E-05-2.88189E-05 1.13666E-06-1.00409E-19-5.15948E-19
 -1      2295 9.59063E-05-2.84986E-05-2.88821E-05 1.27590E-06-1.82070E-19-7.98144E-19
 -1      2296 9.55838E-05-2.83897E-05-2.87995E-05 1.22715E-06-4.50350E-19-8.34889E-19
 -1      2297 9.60202E-05-2.84861E-05-2.89437E-05 1.45801E-06-1.32670E-19-7.68432E-19
 -1      2298 9.62430E-05-2.85051E-05-2.90219E-05 1.64590E-06 5.91558E-20-8.27862E-19
 -1      2299 9.57858E-05-2.83372E-05-2.89090E-05 1.56026E-06-1.75577E-19-8.89204E-19
 -1      2300 9.63839E-05-2.84938E-05-2.90962E-05 1.88524E-06 1.71176E-19-5.81838E-19
 -1      2301 9.66660E-05-2.85246E-05-2.91929E-05 2.12809E-06 6.50151E-19-3.56915E-19
 -1      2302 9.60354E-05-2.82818E-05-2.90402E-05 2.00602E-06 3.45490E-19-1.17477E-18
 -1      2303 9.68402E-05-2.85175E-05-2.92816E-05 2.43110E-06 2.22457E-19-2.62152E-19
 -1      2304 9.71960E-05-2.85664E-05-2.94002E-05 2.73382E-06 9.78679E-20-6.32981E-19
 -1      2305 9.63452E-05-2.82287E-05-2.91961E-05 2.57826E-06 4.27393E-19-7.06434E-19
 -1      2306 9.74116E-05-2.85687E-05-2.95045E-05 3.10476E-06 1.03495E-19-1.33579E-18
 -1      2307 9.78565E-05-2.86452E-05-2.96477E-05 3.46859E-06-2.58638E-19-1.23060E-18
 -1      2308 9.67298E-05-2.81876E-05-2.93789E-05 3.28776E-06-2.84239E-19-1.20440E-18
 -1      2309 9.81234E-05-2.86668E-05-2.97674E-05 3.90679E-06-4.05230E-19-1.36640E-18
 -1      2310 9.86733E-05-2.87852E-05-2.99366E-05 4.32544E-06-1.20997E-19-1.25837E-18
 -1      2311 9.72076E-05-2.81773E-05-2.95885E-05 4.13782E-06-3.89882E-19-1.38775E-18
 -1      2312 9.90065E-05-2.88439E-05-3.00695E-05 4.82087E-06-4.67647E-20-1.51901E-18
 -1      2313 9.96774E-05-2.90268E-05-3.02635E-05 5.27427E-06-9.92964E-20-1.30528E-18
 -1      2314 9.78042E-05-2.82316E-05-2.98215E-05 5.11723E-06-4.86760E-19-1.88265E-18
 -1      2315 1.00101E-04-2.91532E-05-3.04048E-05 5.80058E-06-2.15646E-21-1.20645E-18
 -1      2316 1.00908E-04-2.94352E-05-3.06183E-05 6.24543E-06 1.70963E-19-3.47298E-19
 -1      2317 9.85587E-05-2.84099E-05-3.00696E-05 6.18904E-06 7.83977E-20-1.15182E-18
 -1      2318 1.01463E-04-2.96798E-05-3.07601E-05 6.74944E-06 1.53621E-19-6.69613E-19
 -1      2319 1.02422E-04-3.01115E-05-3.09829E-05 7.10634E-06 5.32790E-19-4.51010E-19
 -1      2320 9.95355E-05-2.88106E-05-3.03189E-05 7.27388E-06 2.13332E-19-4.25899E-19
 -1      2321 1.03174E-04-3.05511E-05-3.11149E-05 7.49320E-06 4.56074E-19-7.40393E-19
 -1      2322 1.04294E-04-3.11986E-05-3.13309E-05 7.63201E-06 5.35237E-19-9.84175E-19
 -1      2323 1.00842E-04-2.95870E-05-3.05510E-05 8.22605E-06 3.19955E-19-1.02442E-18
 -1      2324 1.05348E-04-3.19343E-05-3.14445E-05 7.74623E-06 9.77501E-19-2.30742E-19
 -1      2325 1.06625E-04-3.28637E-05-3.16348E-05 7.47645E-06 8.68593E-19 6.81795E-19
 -1      2326 1.02645E-04-3.09523E-05-3.07481E-05 8.80163E-06 1.04837E-18-1.34130E-19
 -1      2327 1.08107E-04-3.39942E-05-3.17319E-05 7.08370E-06 8.32793E-19 1.63145E-18
 -1      2328 1.09496E-04-3.52178E-05-3.18821E-05 6.16666E-06 1.16858E-18 2.28925E-18
 -1      2329 1.05179E-04-3.31461E-05-3.09077E-05 8.62168E-06 1.43755E-18 1.24863E-18
 -1      2330 1.11500E-04-3.67520E-05-3.19907E-05 4.95624E-06 8.43754E-19 2.62085E-18
 -1      2331 1.12845E-04-3.81103E-05-3.21065E-05 3.17544E-06 8.01187E-19 3.70950E-18
 -1      2332 1.08676E-04-3.63012E-05-3.10697E-05 7.14803E-06 1.41516E-18 1.85508E-18
 -1      2333 1.15272E-04-3.97898E-05-3.23033E-05 8.42480E-07 3.12833E-19 4.00422E-18
 -1      2334 1.16222E-04-4.07729E-05-3.24289E-05-1.81973E-06 7.78807E-19 3.35677E-18
 -1      2335 1.13161E-04-4.01215E-05-3.13592E-05 3.73846E-06 8.00385E-19 3.24379E-18
 -1      2336 1.18515E-04-4.18359E-05-3.28491E-05-5.28146E-06 9.39446E-19 3.47979E-18
 -1      2337 1.18518E-04-4.15172E-05-3.30719E-05-8.31948E-06-7.25834E-20 3.13387E-18
 -1      2338 1.18014E-04-4.33649E-05-3.20257E-05-2.04612E-06 6.37829E-19 3.87517E-18
 -1      2339 1.19546E-04-4.07437E-05-3.38561E-05-1.20062E-05-1.00243E-18 3.17187E-18
 -1      2340 1.18149E-04-3.82757E-05-3.42444E-05-1.40970E-05-1.05763E-18 3.01981E-18
 -1      2341 1.21507E-04-4.35281E-05-3.34076E-05-9.57541E-06-7.37276E-19 4.27954E-18
 -1      2342 1.17000E-04-3.49683E-05-3.53557E-05-1.58560E-05-1.26181E-18 3.34395E-18
 -1      2343 1.14530E-04-3.07801E-05-3.58476E-05-1.52342E-05-1.96326E-18 3.65793E-18
 -1      2344 1.21445E-04-3.83116E-05-3.56452E-05-1.57882E-05-1.01083E-18 5.47541E-18
 -1      2345 1.11938E-04-2.64769E-05-3.68876E-05-1.25489E-05-2.68007E-18 3.54094E-18
 -1      2346 1.09961E-04-2.32736E-05-3.72101E-05-8.60657E-06-1.71979E-18 3.12760E-18
 -1      2347 1.17278E-04-2.81668E-05-3.82703E-05-1.56693E-05-2.04357E-18 4.99367E-18
 -1      2348 1.08980E-04-2.16721E-05-3.75268E-05-2.23497E-06-1.19331E-18 1.72535E-18
 -1      2349 1.09017E-04-2.22109E-05-3.74074E-05 2.92212E-06-1.11991E-18 1.55955E-18
 -1      2350 1.13287E-04-2.04380E-05-3.99515E-05-6.01590E-06-2.38387E-18 4.94400E-18
 -1      2351 1.10683E-04-2.48437E-05-3.67591E-05 8.64852E-06-9.06378E-19 3.29393E-19
 -1      2352 1.12609E-04-2.85983E-05-3.62513E-05 1.17689E-05-6.31212E-19 1.36968E-19
 -1      2353 1.13684E-04-2.16796E-05-3.95897E-05 6.74544E-06-1.96639E-18 2.35568E-18
 -1      2354 1.14835E-04-3.29316E-05-3.50634E-05 1.30050E-05 2.57074E-19-5.55043E-19
 -1      2355 1.16753E-04-3.67221E-05-3.44805E-05 1.26885E-05 4.17521E-19 2.01501E-19
 -1      2356 1.18115E-04-3.11693E-05-3.73310E-05 1.35871E-05-9.23054E-19-3.13085E-19
 -1      2357 1.17160E-04-3.93563E-05-3.33627E-05 1.00922E-05-5.24287E-19 7.59610E-19
 -1      2358 1.17786E-04-4.11097E-05-3.29185E-05 7.47910E-06-2.41911E-19 1.51866E-18
 -1      2359 1.20944E-04-4.01676E-05-3.46011E-05 1.15073E-05 2.87104E-19-1.17303E-18
 -1      2360 1.16121E-04-4.12095E-05-3.21807E-05 3.61621E-06 5.43451E-19 2.06714E-18
 -1      2361 1.15426E-04-4.09491E-05-3.18982E-05 5.02900E-07 2.13017E-18 1.95838E-18
 -1      2362 1.19534E-04-4.37769E-05-3.24556E-05 4.30406E-06 7.61095E-19 6.88194E-19
 -1      2363 1.12833E-04-3.95263E-05-3.15051E-05-2.74420E-06 2.91344E-18 1.36463E-18
 -1      2364 1.11345E-04-3.82069E-05-3.13013E-05-5.23333E-06 2.80965E-18 9.22359E-19
 -1      2365 1.15071E-04-4.23298E-05-3.12134E-05-3.05541E-06 1.73338E-18 1.81827E-18
 -1      2366 1.08807E-04-3.63823E-05-3.11071E-05-7.24855E-06 1.80989E-18 6.43179E-19
 -1      2367 1.07044E-04-3.48064E-05-3.09150E-05-8.74053E-06 1.60681E-18 1.19733E-18
 -1      2368 1.09806E-04-3.84822E-05-3.06212E-05-8.25182E-06 2.28925E-18-5.36068E-19
 -1      2369 1.04950E-04-3.31478E-05-3.08132E-05-9.59498E-06 1.93125E-18 1.90405E-18
 -1      2370 1.03209E-04-3.16856E-05-3.06142E-05-1.01133E-05 5.66587E-19 2.70283E-18
 -1      2371 1.05120E-04-3.43463E-05-3.03766E-05-1.09749E-05 2.07753E-18-2.11697E-19
 -1      2372 1.01568E-04-3.03228E-05-3.05524E-05-1.00450E-05-1.49237E-18 4.68557E-18
 -1      2373 1.00001E-04-2.90862E-05-3.03632E-05-9.72342E-06-2.03004E-18 4.20945E-18
 -1      2374 1.01376E-04-3.07693E-05-3.02890E-05-1.16174E-05 7.27622E-19 1.59159E-18
 -1      2375 9.33279E-05-2.76882E-05-2.81240E-05-4.02142E-07 4.30118E-19-2.88895E-19
 -1      2376 9.34072E-05-2.75836E-05-2.81857E-05-1.16762E-07 6.35141E-19-1.33651E-19
 -1      2377 9.32750E-05-2.78519E-05-2.80337E-05-8.08656E-07 3.92170E-19-3.16777E-19
 -1      2378 9.32310E-05-2.77613E-05-2.80454E-05-6.69341E-07 4.25008E-19-3.45643E-19
 -1      2379 9.40021E-05-2.78058E-05-2.83811E-05-4.34553E-07 5.59771E-19-5.71602E-19
 -1      2380 9.33675E-05-2.79865E-05-2.80173E-05-9.85610E-07 5.74310E-19-3.11522E-19
 -1      2381 9.32556E-05-2.79064E-05-2.80004E-05-9.34141E-07 4.54977E-19-2.56439E-19
 -1      2382 9.39144E-05-2.80143E-05-2.82510E-05-8.82788E-07 5.41369E-19-4.42581E-19
 -1      2383 9.35417E-05-2.81002E-05-2.80443E-05-1.02327E-06 6.71531E-19-2.33666E-19
 -1      2384 9.33976E-05-2.80301E-05-2.80121E-05-1.02392E-06 5.53405E-19-1.45774E-19
 -1      2385 9.39427E-05-2.81622E-05-2.81971E-05-1.08136E-06 5.56570E-19-3.98381E-19
 -1      2386 9.37541E-05-2.81958E-05-2.80951E-05-9.80307E-07 3.74838E-19-1.13870E-19
 -1      2387 9.36001E-05-2.81358E-05-2.80559E-05-1.01001E-06 6.11100E-19 2.51058E-20
 -1      2388 9.40417E-05-2.82711E-05-2.81908E-05-1.12686E-06 5.28343E-19-9.95843E-20
 -1      2389 9.39771E-05-2.82747E-05-2.81572E-05-8.95975E-07 4.63541E-19-2.25183E-19
 -1      2390 9.38264E-05-2.82246E-05-2.81161E-05-9.39327E-07 3.93771E-19-5.93661E-20
 -1      2391 9.41783E-05-2.83520E-05-2.82133E-05-1.08360E-06 4.27549E-19-6.34255E-20
 -1      2392 9.41952E-05-2.83387E-05-2.82235E-05-7.97034E-07 4.55882E-19-4.21397E-19
 -1      2393 9.40544E-05-2.82976E-05-2.81831E-05-8.43537E-07 5.13443E-19-2.42134E-19
 -1      2394 9.43305E-05-2.84111E-05-2.82523E-05-9.95217E-07 5.32207E-19 1.37874E-19
 -1      2395 9.44014E-05-2.83897E-05-2.82900E-05-7.02069E-07 4.83327E-19-8.02635E-19
 -1      2396 9.42724E-05-2.83565E-05-2.82516E-05-7.44389E-07 4.06995E-19-6.01505E-19
 -1      2397 9.44853E-05-2.84529E-05-2.83002E-05-8.91808E-07 4.52486E-19-4.34870E-19
 -1      2398 9.45948E-05-2.84299E-05-2.83554E-05-6.24388E-07 5.67448E-19-9.29330E-19
 -1      2399 9.44765E-05-2.84032E-05-2.83190E-05-6.57199E-07 5.10762E-19-8.45928E-19
 -1      2400 9.46364E-05-2.84809E-05-2.83527E-05-7.94517E-07 7.00342E-19-6.49357E-19
 -1      2401 9.47794E-05-2.84620E-05-2.84204E-05-5.74050E-07 5.25434E-19-1.04384E-18
 -1      2402 9.46682E-05-2.84401E-05-2.83851E-05-5.93216E-07 4.37921E-19-9.64580E-19
 -1      2403 9.47825E-05-2.84979E-05-2.84081E-05-7.18697E-07 5.39233E-19-1.18398E-18
 -1      2404 9.49626E-05-2.84888E-05-2.84869E-05-5.59324E-07 6.20892E-19-7.82956E-19
 -1      2405 9.48530E-05-2.84698E-05-2.84512E-05-5.61308E-07 7.10166E-19-5.76901E-19
 -1      2406 9.49262E-05-2.85065E-05-2.84661E-05-6.76147E-07 4.72296E-19-7.49061E-19
 -1      2407 9.51549E-05-2.85135E-05-2.85580E-05-5.87732E-07 4.00510E-19-1.05166E-18
 -1      2408 9.50399E-05-2.84953E-05-2.85200E-05-5.69182E-07 5.48823E-19-8.55094E-19
 -1      2409 9.50730E-05-2.85090E-05-2.85282E-05-6.76721E-07 5.61341E-19-3.07458E-19
 -1      2410 9.53695E-05-2.85397E-05-2.86378E-05-6.66719E-07 1.04621E-18-1.63755E-18
 -1      2411 9.52404E-05-2.85199E-05-2.85949E-05-6.24211E-07 8.49054E-19-1.10840E-18
 -1      2412 9.52307E-05-2.85078E-05-2.85967E-05-7.29454E-07 7.89216E-19-5.56782E-19
 -1      2413 9.56218E-05-2.85718E-05-2.87310E-05-8.03961E-07 3.31281E-19-1.47446E-18
 -1      2414 9.54687E-05-2.85474E-05-2.86805E-05-7.33914E-07 6.44620E-19-1.58948E-18
 -1      2415 9.54094E-05-2.85055E-05-2.86748E-05-8.43246E-07 8.03843E-19-5.70025E-19
 -1      2416 9.59298E-05-2.86151E-05-2.88432E-05-1.00724E-06-4.16674E-19-6.48360E-19
 -1      2417 9.57414E-05-2.85827E-05-2.87817E-05-9.06037E-07-2.27956E-19-1.38083E-18
 -1      2418 9.56213E-05-2.85053E-05-2.87662E-05-1.02710E-06-1.78200E-19-1.15974E-19
 -1      2419 9.63134E-05-2.86761E-05-2.89801E-05-1.28376E-06 2.20167E-19-8.49564E-19
 -1      2420 9.60772E-05-2.86314E-05-2.89042E-05-1.14815E-06 1.80367E-20-5.27439E-19
 -1      2421 9.58804E-05-2.85118E-05-2.88750E-05-1.28984E-06-3.09224E-19-1.91434E-19
 -1      2422 9.67946E-05-2.87634E-05-2.91475E-05-1.63868E-06 5.65916E-19-1.18621E-18
 -1      2423 9.64970E-05-2.87012E-05-2.90538E-05-1.46660E-06 5.47853E-19-9.72711E-19
 -1      2424 9.62025E-05-2.85311E-05-2.90054E-05-1.63912E-06 3.64548E-19-3.29273E-19
 -1      2425 9.73961E-05-2.88884E-05-2.93505E-05-2.07256E-06-1.29399E-19-5.20260E-19
 -1      2426 9.70235E-05-2.88019E-05-2.92358E-05-1.86452E-06 2.92521E-19-6.74120E-19
 -1      2427 9.66056E-05-2.85723E-05-2.91612E-05-2.07949E-06 3.57642E-19 1.37045E-20
 -1      2428 9.81409E-05-2.90661E-05-2.95928E-05-2.57723E-06-1.08482E-18-5.36932E-19
 -1      2429 9.76805E-05-2.89468E-05-2.94548E-05-2.33853E-06-4.73196E-19-5.25789E-19
 -1      2430 9.71096E-05-2.86491E-05-2.93449E-05-2.60919E-06-4.62056E-19 3.69162E-19
 -1      2431 9.90497E-05-2.93169E-05-2.98752E-05-3.12957E-06-6.31072E-19-1.36899E-18
 -1      2432 9.84917E-05-2.91540E-05-2.97132E-05-2.87361E-06-1.04853E-18-8.08820E-19
 -1      2433 9.77365E-05-2.87819E-05-2.95574E-05-3.21512E-06-5.80857E-19-3.67567E-19
 -1      2434 1.00139E-04-2.96676E-05-3.01936E-05-3.68277E-06 5.96807E-19-1.97985E-18
 -1      2435 9.94791E-05-2.94479E-05-3.00099E-05-3.43568E-06 7.44582E-20-1.52864E-18
 -1      2436 9.85109E-05-2.90004E-05-2.97963E-05-3.86554E-06 3.98147E-20-2.06715E-18
 -1      2437 1.01416E-04-3.01526E-05-3.05376E-05-4.15506E-06 9.50753E-19-1.22653E-18
 -1      2438 1.00660E-04-2.98608E-05-3.03386E-05-3.96138E-06 7.67769E-19-1.74429E-18
 -1      2439 9.94606E-05-2.93473E-05-3.00554E-05-4.50003E-06 5.88628E-19-2.16282E-18
 -1      2440 1.02875E-04-3.08115E-05-3.08881E-05-4.41739E-06-4.48101E-19-3.25787E-19
 -1      2441 1.02044E-04-3.04329E-05-3.06857E-05-4.34575E-06 4.02100E-19-5.06244E-19
 -1      2442 1.00617E-04-2.98802E-05-3.03235E-05-5.01693E-06 8.51491E-20-1.71369E-18
 -1      2443 1.04483E-04-3.16795E-05-3.12172E-05-4.28492E-06-4.11061E-19-8.27675E-19
 -1      2444 1.03622E-04-3.12069E-05-3.10297E-05-4.43048E-06-3.50753E-19-1.40220E-19
 -1      2445 1.02012E-04-3.06681E-05-3.05849E-05-5.26024E-06-3.03940E-19-9.30041E-19
 -1      2446 1.06167E-04-3.27622E-05-3.14906E-05-3.52346E-06-4.27095E-19-8.91226E-19
 -1      2447 1.05357E-04-3.22112E-05-3.13417E-05-4.00013E-06-2.75135E-19-9.40648E-19
 -1      2448 1.03670E-04-3.17753E-05-3.08224E-05-5.01144E-06-3.91671E-19-7.22080E-19
 -1      2449 1.07782E-04-3.39848E-05-3.16757E-05-1.89049E-06-1.14261E-18-1.24105E-18
 -1      2450 1.07147E-04-3.34216E-05-3.15902E-05-2.80191E-06-7.22440E-19-9.74209E-19
 -1      2451 1.05583E-04-3.32185E-05-3.10237E-05-3.99898E-06-3.45017E-19-8.67531E-19
 -1      2452 1.09071E-04-3.51127E-05-3.17558E-05 7.58124E-07-2.74518E-19-1.76131E-18
 -1      2453 1.08787E-04-3.46901E-05-3.17520E-05-6.17155E-07-1.05167E-18-1.60011E-18
 -1      2454 1.07649E-04-3.48816E-05-3.11927E-05-1.94943E-06-6.32380E-19-1.23852E-18
 -1      2455 1.09634E-04-3.56841E-05-3.17477E-05 4.27080E-06-6.23823E-19-9.62400E-19
 -1      2456 1.09907E-04-3.56575E-05-3.18257E-05 2.57929E-06-1.52367E-19-1.23746E-18
 -1      2457 1.09586E-04-3.63949E-05-3.13623E-05 1.27815E-06-6.37852E-19-1.06894E-18
 -1      2458 1.08993E-04-3.50670E-05-3.17093E-05 7.95113E-06 3.83994E-19-1.67110E-19
 -1      2459 1.09979E-04-3.57271E-05-3.18438E-05 6.36762E-06-2.99545E-19-5.59249E-19
 -1      2460 1.10849E-04-3.70554E-05-3.15989E-05 5.44052E-06-2.67232E-19-1.76484E-19
 -1      2461 1.06859E-04-3.28036E-05-3.17148E-05 1.04438E-05 1.47429E-19 1.77409E-18
 -1      2462 1.08503E-04-3.42618E-05-3.18636E-05 9.65022E-06 4.02761E-19 6.67621E-19
 -1      2463 1.10709E-04-3.59817E-05-3.19809E-05 9.59642E-06 1.38412E-20 6.54792E-19
 -1      2464 1.03630E-04-2.92970E-05-3.17897E-05 1.00946E-05 6.16984E-19 2.33681E-18
 -1      2465 1.05492E-04-3.11490E-05-3.19158E-05 1.07532E-05 6.47156E-19 2.31890E-18
 -1      2466 1.08706E-04-3.27397E-05-3.25217E-05 1.19561E-05 1.94280E-20 1.42876E-18
 -1      2467 1.00599E-04-2.60321E-05-3.18937E-05 6.19990E-06 1.16852E-18 1.17083E-18
 -1      2468 1.01987E-04-2.74611E-05-3.19753E-05 8.40075E-06 1.43203E-18 2.30787E-18
 -1      2469 1.05460E-04-2.82223E-05-3.30999E-05 1.07034E-05 1.17629E-18 1.03471E-18
 -1      2470 9.94520E-05-2.49921E-05-3.19043E-05-1.15754E-07-4.06245E-19 2.55418E-19
 -1      2471 9.97188E-05-2.51152E-05-3.19608E-05 2.81698E-06 4.41079E-19 6.87005E-19
 -1      2472 1.02696E-04-2.47025E-05-3.34919E-05 5.28137E-06 1.76084E-18 1.51559E-18
 -1      2473 1.00883E-04-2.69110E-05-3.17395E-05-5.89244E-06-1.68970E-18 4.24122E-19
 -1      2474 9.99843E-05-2.56942E-05-3.17707E-05-3.58995E-06-1.14038E-18-8.41739E-20
 -1      2475 1.02306E-04-2.44297E-05-3.34369E-05-2.17665E-06-4.51746E-19 1.07989E-18
 -1      2476 1.03741E-04-3.04163E-05-3.14829E-05-8.59683E-06-2.22293E-18 2.80487E-19
 -1      2477 1.02265E-04-2.86509E-05-3.14757E-05-7.80593E-06-2.47131E-18-4.55542E-19
 -1      2478 1.04418E-04-2.76214E-05-3.29240E-05-7.90500E-06-1.86956E-18 7.43689E-19
 -1      2479 1.06255E-04-3.35089E-05-3.12212E-05-7.69132E-06-1.71570E-19 8.04039E-19
 -1      2480 1.04950E-04-3.21002E-05-3.11888E-05-8.40430E-06-7.73079E-19 4.07324E-19
 -1      2481 1.07265E-04-3.20693E-05-3.21866E-05-9.56163E-06-1.39312E-18-5.42806E-19
 -1      2482 1.07252E-04-3.49636E-05-3.10007E-05-4.41498E-06-5.50098E-19 8.28177E-19
 -1      2483 1.06591E-04-3.43562E-05-3.09772E-05-5.98685E-06-3.49643E-19 6.69669E-19
 -1      2484 1.08971E-04-3.54157E-05-3.14735E-05-7.33833E-06-3.35230E-19 2.01562E-19
 -1      2485 1.06629E-04-3.47729E-05-3.07969E-05-5.03954E-07 1.06285E-18 1.90998E-18
 -1      2486 1.06705E-04-3.49038E-05-3.08230E-05-2.21434E-06 3.53468E-19 1.45605E-18
 -1      2487 1.08786E-04-3.65489E-05-3.09318E-05-3.12165E-06 7.83985E-20 1.15141E-19
 -1      2488 1.04875E-04-3.35306E-05-3.05661E-05 2.77815E-06 4.94257E-20 3.31295E-18
 -1      2489 1.05533E-04-3.41232E-05-3.06614E-05 1.41832E-06 6.77970E-19 2.57919E-18
 -1      2490 1.07083E-04-3.57636E-05-3.05617E-05 1.18937E-06 3.51236E-19 2.33930E-18
 -1      2491 1.02568E-04-3.18400E-05-3.02933E-05 4.84213E-06 9.22273E-20 2.59835E-18
 -1      2492 1.03576E-04-3.26418E-05-3.04481E-05 4.04879E-06-1.40667E-19 3.66724E-18
 -1      2493 1.04596E-04-3.39113E-05-3.03027E-05 4.45193E-06-1.04269E-19 3.49746E-18
 -1      2494 1.00130E-04-3.00777E-05-2.99978E-05 5.53923E-06 1.10805E-18 2.66445E-18
 -1      2495 1.01267E-04-3.09170E-05-3.01817E-05 5.36287E-06 6.33635E-19 2.77849E-18
 -1      2496 1.01911E-04-3.16741E-05-3.01067E-05 6.25001E-06 1.12150E-19 2.29819E-18
 -1      2497 9.78384E-05-2.84604E-05-2.97109E-05 4.95783E-06 1.79838E-18 2.24351E-18
 -1      2498 9.89327E-05-2.92215E-05-2.98924E-05 5.35319E-06 1.72946E-18 3.14201E-18
 -1      2499 9.93431E-05-2.94793E-05-2.99430E-05 6.57756E-06 1.33866E-18 2.69403E-18
 -1      2500 9.68090E-05-2.77417E-05-2.95974E-05 4.14287E-06 1.60028E-18 1.42686E-18
 -1      2501 9.20952E-05-2.02037E-05-3.08450E-05 9.84697E-06-9.14202E-19-6.41897E-19
 -1      2502 9.31738E-05-2.16376E-05-3.06342E-05 9.99589E-06-1.33504E-18-7.46835E-19
 -1      2503 8.98220E-05-1.74516E-05-3.10703E-05 8.43276E-06-9.48553E-20-2.24672E-18
 -1      2504 9.09405E-05-1.87898E-05-3.09010E-05 9.31964E-06-7.07737E-19-1.58822E-18
 -1      2505 9.16610E-05-2.11029E-05-3.02438E-05 1.09387E-05-2.49981E-19-4.81301E-19
 -1      2506 9.56284E-05-2.50498E-05-3.02361E-05 8.50315E-06-9.42483E-19 4.86208E-19
 -1      2507 9.62647E-05-2.61873E-05-3.00219E-05 7.71156E-06 5.30060E-19 1.81928E-18
 -1      2508 9.41345E-05-2.28612E-05-3.05548E-05 9.73670E-06-1.77298E-18-1.66895E-18
 -1      2509 9.49980E-05-2.41698E-05-3.03335E-05 9.29388E-06-1.42489E-18-4.11668E-19
 -1      2510 9.60997E-05-2.59701E-05-3.00640E-05 9.98762E-06-7.48709E-19-5.57249E-19
 -1      2511 9.41943E-05-2.38150E-05-3.01827E-05 1.11640E-05-5.67156E-19-1.46780E-18
 -1      2512 8.78447E-05-1.51742E-05-3.12053E-05 5.38038E-06 1.13604E-18-9.17141E-19
 -1      2513 8.87201E-05-1.61432E-05-3.10992E-05 6.98209E-06 9.73029E-19-2.75346E-18
 -1      2514 8.89274E-05-1.82828E-05-3.02585E-05 8.88158E-06 3.92530E-19-1.37253E-18
 -1      2515 8.67840E-05-1.39942E-05-3.12448E-05 1.08923E-06-3.62930E-19 9.45302E-19
 -1      2516 8.71384E-05-1.43516E-05-3.12136E-05 3.15256E-06 7.43846E-20 2.74650E-19
 -1      2517 8.67338E-05-1.60653E-05-3.02451E-05 4.96704E-06 8.98859E-19-9.39297E-19
 -1      2518 8.70314E-05-1.43017E-05-3.11954E-05-3.56415E-06-8.46619E-19 4.58784E-19
 -1      2519 8.67363E-05-1.39415E-05-3.12418E-05-1.47092E-06-1.02243E-18 1.88263E-18
 -1      2520 8.58160E-05-1.51526E-05-3.02323E-05-1.71676E-07-3.18051E-22 1.05611E-18
 -1      2521 8.84873E-05-1.59945E-05-3.10676E-05-7.48622E-06-5.41635E-19-2.26255E-18
 -1      2522 8.76493E-05-1.50219E-05-3.11838E-05-5.83224E-06-7.07449E-19-9.49676E-19
 -1      2523 8.65141E-05-1.58551E-05-3.02389E-05-5.35262E-06-1.83282E-19-3.95009E-19
 -1      2524 9.07428E-05-1.86660E-05-3.08701E-05-1.00338E-05 2.95598E-19-1.88321E-18
 -1      2525 8.95763E-05-1.72663E-05-3.10444E-05-9.06211E-06 1.28741E-19-3.63686E-18
 -1      2526 8.85773E-05-1.79257E-05-3.02587E-05-9.44967E-06 7.81739E-20-2.27302E-18
 -1      2527 9.31905E-05-2.16622E-05-3.06274E-05-1.08379E-05 5.42209E-19 1.71156E-18
 -1      2528 9.19705E-05-2.01131E-05-3.08331E-05-1.06585E-05-7.74415E-20 5.04762E-19
 -1      2529 9.13845E-05-2.07445E-05-3.02765E-05-1.17406E-05-2.28588E-19-8.72054E-19
 -1      2530 9.54213E-05-2.44666E-05-3.03736E-05-1.00126E-05-2.50682E-18 6.59533E-19
 -1      2531 9.43237E-05-2.29975E-05-3.05814E-05-1.05574E-05-1.21821E-18 9.28214E-19
 -1      2532 9.42995E-05-2.36323E-05-3.02869E-05-1.20454E-05-1.42638E-18-3.17628E-19
 -1      2533 2.53744E-05-2.22286E-05-1.09544E-06 1.95665E-05 5.80218E-20 5.19358E-18
 -1      2534 1.98038E-05-2.12932E-05 7.73543E-07 5.92848E-06-1.33244E-18 6.05629E-18
 -1      2535 9.60813E-05-5.41373E-05-1.79829E-05 4.37740E-05 6.74662E-19 3.09241E-18
 -1      2536 7.79111E-05-4.84683E-05-1.24101E-05 4.35902E-05-1.63901E-19 3.47913E-18
 -1      2537 9.36127E-05-2.74695E-05-2.83356E-05 3.77689E-07 7.35825E-19-1.11721E-19
 -1      2538 9.38964E-05-2.73339E-05-2.84830E-05 9.10958E-07 8.60150E-19 7.26959E-20
 -1      2539 9.42595E-05-2.74875E-05-2.86303E-05 4.12392E-07 8.20813E-19-3.84414E-19
 -1      2540 9.64163E-05-2.59444E-05-3.02036E-05-7.48115E-06-1.38883E-18 3.00667E-18
 -1      2541 2.04021E-05-2.13300E-05 5.94417E-07-6.80491E-06-3.19914E-19 1.79910E-18
 -1      2542 2.68047E-05-2.30592E-05-1.37480E-06-2.16720E-05 1.51534E-18 9.68582E-19
 -1      2543 2.73418E-05-1.75105E-05-3.62302E-06-1.11297E-06 7.80660E-19 2.49494E-18
 -1      2544 5.76087E-05-3.91813E-05-7.76893E-06 4.30263E-05-1.61148E-19 4.36836E-18
 -1      2545 4.03351E-05-3.07191E-05-3.78144E-06 3.38937E-05 5.96523E-19 3.11115E-18
 -1      2546 7.44662E-05-4.37911E-05-1.27452E-05 4.27836E-05-4.52739E-19 3.66299E-18
 -1      2547 9.50682E-05-2.00232E-05-3.22107E-05-1.17398E-05-2.02005E-18 9.91704E-19
 -1      2548 9.54691E-05-2.33859E-05-3.09240E-05-7.98664E-06-1.87934E-18 1.12996E-18
 -1      2549 9.50636E-05-2.25353E-05-3.10510E-05-7.67076E-06-1.77222E-18 5.52755E-19
 -1      2550 9.32149E-05-1.75770E-05-3.24138E-05-1.13701E-05-2.09463E-18 2.83372E-19
 -1      2551 4.05024E-05-3.01895E-05-4.06243E-06-3.27319E-05 2.68488E-18 9.67100E-19
 -1      2552 5.60120E-05-3.75025E-05-7.86902E-06-4.17528E-05 1.88973E-18-8.03834E-19
 -1      2553 1.46062E-04-1.75673E-05-5.55207E-05 5.49986E-06-5.62938E-18-2.29207E-18
 -1      2554 1.46157E-04-1.27810E-05-5.76568E-05 1.67788E-06-5.22196E-18-1.81704E-18
 -1      2555 8.78489E-05-1.08039E-05-3.30550E-05-1.51961E-06-6.38797E-19-2.23819E-18
 -1      2556 8.79538E-05-1.09259E-05-3.30462E-05-2.63930E-06-8.21599E-19-2.07505E-18
 -1      2557 8.93531E-05-1.30985E-05-3.26825E-05-2.93246E-06-8.31578E-19-1.85009E-18
 -1      2558 8.91056E-05-1.27641E-05-3.27210E-05-9.41728E-07-5.73388E-19-2.14591E-18
 -1      2559 1.47189E-04-1.21195E-05-5.82741E-05 3.96802E-06 5.07627E-18 5.76300E-19
 -1      2560 1.47704E-04-1.11721E-05-5.89463E-05 1.45597E-06 4.26650E-18-1.83938E-19
 -1      2561 1.15611E-04-5.99103E-05-2.37064E-05-3.39646E-05 1.47172E-18 2.78970E-18
 -1      2562 1.31522E-04-6.11450E-05-3.06367E-05-2.65456E-05-2.51781E-19 2.69198E-18
 -1      2563 1.48718E-04-1.29241E-05-5.84992E-05-1.48515E-06 3.75913E-18-7.44330E-19
 -1      2564 1.46063E-04-1.64521E-05-5.60846E-05-3.71806E-06 3.95607E-18-9.92617E-19
 -1      2565 1.35940E-04-9.49729E-06-5.44039E-05-1.03277E-06 3.46775E-18-3.74018E-19
 -1      2566 1.48103E-04-2.58130E-05-5.27070E-05 6.05123E-06 4.29954E-18 2.59065E-18
 -1      2567 1.50189E-04-1.87119E-05-5.67254E-05 5.87544E-06 5.33779E-18 2.82930E-18
 -1      2568 1.45407E-04-4.60644E-05-4.27317E-05-3.24748E-06 2.79145E-18-1.08632E-19
 -1      2569 1.49058E-04-3.83175E-05-4.79794E-05 1.96847E-06 3.06732E-18 1.09924E-18
 -1      2570 1.29430E-04-5.72678E-05-3.09538E-05-2.25415E-05 3.53128E-18 2.51992E-20
 -1      2571 1.40657E-04-5.42343E-05-3.74236E-05-1.46270E-05 2.78086E-18-4.02341E-20
 -1      2572 9.86708E-05-5.42261E-05-1.89756E-05-3.83656E-05 1.80863E-18-3.01851E-18
 -1      2573 1.15717E-04-5.71818E-05-2.52796E-05-3.44090E-05 2.75137E-18-1.47617E-18
 -1      2574 5.96206E-05-3.91906E-05-8.45792E-06-4.09000E-05-1.00733E-18-4.27498E-18
 -1      2575 7.94083E-05-4.72406E-05-1.37187E-05-4.38698E-05 7.24213E-19-4.22648E-18
 -1      2576 2.58768E-05-2.33865E-05-8.24578E-07-2.17802E-05-1.88137E-18-5.88836E-18
 -1      2577 3.85383E-05-2.85177E-05-4.13999E-06-3.35690E-05-1.64007E-18-4.10515E-18
 -1      2578 1.84325E-05-1.96905E-05 7.41099E-07 6.21778E-06-1.06827E-18-3.45420E-18
 -1      2579 1.86568E-05-1.90518E-05 3.62410E-07-8.55277E-06-8.92614E-19-4.70230E-18
 -1      2580 3.47445E-05-2.65422E-05-3.29029E-06 2.91243E-05-6.37816E-19-6.39616E-18
 -1      2581 2.36934E-05-2.28023E-05-2.29172E-07 1.74649E-05-1.05360E-18-4.58372E-18
 -1      2582 2.78049E-05-1.75264E-05-3.81834E-06 1.16362E-05-1.74240E-18-4.43041E-18
 -1      2583 7.44437E-05-4.57750E-05-1.22069E-05 4.24255E-05-1.63054E-20-5.45076E-18
 -1      2584 5.47558E-05-3.73496E-05-7.15386E-06 3.82774E-05 4.72221E-19-6.40188E-18
 -1      2585 1.10840E-04-5.78150E-05-2.29421E-05 3.52097E-05-1.70614E-18-1.45605E-18
 -1      2586 9.40638E-05-5.37006E-05-1.71767E-05 3.82584E-05-7.53012E-19-3.19210E-18
 -1      2587 1.40262E-04-5.82118E-05-3.56095E-05 1.35602E-05-1.95940E-18-2.63597E-18
 -1      2588 1.26942E-04-6.00324E-05-2.86080E-05 2.28448E-05-1.74764E-18-1.35864E-18
 -1      2589 1.51750E-04-4.12261E-05-4.77025E-05-3.31754E-06-3.41460E-18-1.44483E-18
 -1      2590 1.46013E-04-4.85686E-05-4.19201E-05 5.16231E-07-2.78171E-18-2.11441E-18
 -1      2591 1.54476E-04-2.34497E-05-5.65080E-05-6.48577E-06-4.16317E-18-9.58841E-19
 -1      2592 1.52429E-04-3.04931E-05-5.25437E-05-5.59202E-06-3.81355E-18-2.09005E-18
 -1      2593 1.46631E-04-1.19869E-05-5.82737E-05-3.98729E-06-4.88230E-18-1.01395E-18
 -1      2594 1.51226E-04-1.67361E-05-5.78148E-05-6.53321E-06-4.41495E-18-1.27542E-18
 -1      2595 1.48734E-04-3.60405E-05-4.85746E-05 5.56293E-06-1.65489E-18-2.07100E-18
 -1      2596 1.48063E-04-2.79237E-05-5.21682E-05 6.87307E-06-4.39483E-18-3.47156E-18
 -1      2597 1.42675E-04-5.55315E-05-3.72817E-05-1.12287E-05-5.32254E-19 9.77264E-19
 -1      2598 1.50008E-04-4.75190E-05-4.44314E-05-2.88250E-06-2.93179E-19 1.22354E-18
 -1      2599 7.72182E-05-4.78811E-05-1.22981E-05-4.29888E-05 1.24831E-18-6.65344E-19
 -1      2600 9.70176E-05-5.48908E-05-1.81754E-05-4.30807E-05 1.85246E-18 3.06626E-19
 -1      2601 9.63287E-05-2.50939E-05-3.05551E-05 7.59838E-06 1.77461E-18 5.55209E-19
 -1      2602 9.74509E-05-2.37775E-05-3.15957E-05 1.06977E-05 1.91662E-18 7.03540E-19
 -1      2603 9.58857E-05-2.13022E-05-3.20202E-05 1.19000E-05 2.02819E-18 9.00899E-20
 -1      2604 9.58741E-05-2.41606E-05-3.07676E-05 7.69056E-06 1.75794E-18-7.84142E-20
 -1      2605 1.27369E-04-5.86399E-05-2.96466E-05 3.07851E-05 2.74862E-19 9.14160E-19
 -1      2606 1.12713E-04-5.82763E-05-2.33118E-05 3.59287E-05 5.71747E-21 1.56299E-18
 -1      2607 1.38100E-04-1.35540E-05-5.35274E-05 7.71170E-06 3.84680E-18 1.52487E-18
 -1      2608 9.08111E-05-1.50683E-05-3.24572E-05-6.79802E-06-1.50189E-18-1.21444E-18
 -1      2609 8.97077E-05-1.32063E-05-3.28435E-05-7.97231E-06-1.67605E-18-1.33674E-18
 -1      2610 9.04049E-05-1.40325E-05-3.27966E-05-9.14829E-06-1.80015E-18-1.10191E-18
 -1      2611 9.47261E-05-2.69378E-05-2.90647E-05 1.89208E-06 1.09695E-18-3.09033E-19
 -1      2612 9.42424E-05-1.90810E-05-3.22572E-05 1.16093E-05 1.90745E-18-6.45002E-19
 -1      2613 1.34961E-04-6.02977E-05-3.18107E-05 2.00127E-05 3.57342E-19-1.02311E-18
 -1      2614 1.44300E-04-2.15088E-05-5.28839E-05-6.72521E-06 3.27209E-18-3.75236E-19
 -1      2615 1.39124E-04-2.64226E-05-4.86985E-05-8.52870E-06 2.07798E-18-6.99014E-19
 -1      2616 1.33697E-04-1.59471E-05-5.09952E-05-8.81773E-06 3.01755E-18-3.48131E-19
 -1      2617 4.04132E-05-2.45647E-05-6.21428E-06-2.72156E-05 1.82239E-18 1.39549E-19
 -1      2618 9.70773E-05-2.76392E-05-2.97573E-05 5.52909E-06 1.92099E-18 2.13002E-18
 -1      2619 1.09939E-04-5.85351E-05-2.18321E-05 3.71184E-05-4.32622E-19 7.99917E-19
 -1      2620 9.68432E-05-2.70356E-05-2.99060E-05 6.39585E-06 1.99775E-18 2.67221E-18
 -1      2621 7.39168E-05-4.27651E-05-1.28432E-05-4.13269E-05 2.70479E-18-4.45963E-19
 -1      2622 5.09937E-05-2.76930E-05-9.54979E-06 3.34017E-05-4.85244E-19 2.81321E-18
 -1      2623 3.77131E-05-2.52905E-05-4.87275E-06 2.77370E-05 1.55960E-19 3.53086E-18
 -1      2624 3.66285E-05-1.92690E-05-6.97303E-06 2.07489E-05-8.61062E-19 5.83140E-18
 -1      2625 1.38238E-04-5.99584E-05-3.34466E-05-1.39725E-05 6.73391E-20 1.13386E-18
 -1      2626 1.44515E-04-4.33796E-05-4.34580E-05 6.26093E-06-7.11190E-19-2.74629E-18
 -1      2627 9.47131E-05-2.06030E-05-3.17171E-05 9.67662E-06 1.76242E-18-6.82834E-19
 -1      2628 1.36958E-04-1.15152E-05-5.40527E-05-7.01476E-07-5.02185E-18-4.01599E-19
 -1      2629 9.20847E-05-1.62848E-05-3.25211E-05-1.03814E-05-2.04972E-18-2.80381E-19
 -1      2630 1.39063E-04-2.23261E-05-5.03189E-05 1.01221E-05-4.16317E-18-3.14556E-18
 -1      2631 1.42592E-04-1.84452E-05-5.32500E-05-1.06656E-05-3.92494E-18 1.81265E-19
 -1      2632 1.45561E-04-3.53470E-05-4.73941E-05-1.17724E-05-3.07282E-18 3.53424E-19
 -1      2633 1.42120E-04-5.53912E-05-3.73024E-05 1.46595E-06-1.70598E-18-9.10984E-19
 -1      2634 1.23126E-04-6.06480E-05-2.65014E-05 2.47250E-05-5.12773E-19-8.10187E-19
 -1      2635 4.91193E-05-3.11522E-05-7.31625E-06 3.42978E-05 5.33631E-20-6.42538E-18
 -1      2636 4.49547E-05-2.39219E-05-8.48074E-06 2.88664E-05-8.78056E-19-4.93291E-18
 -1      2637 6.35759E-05-3.47727E-05-1.20179E-05 3.63543E-05 1.29289E-18-5.56522E-18
 -1      2638 2.85942E-05-1.82174E-05-3.88034E-06-1.49588E-05-1.67337E-18-4.80755E-18
 -1      2639 5.37526E-05-3.34781E-05-8.25054E-06-3.78963E-05-2.11292E-18-4.00223E-18
 -1      2640 6.85845E-05-3.79173E-05-1.29639E-05-3.92683E-05-2.51484E-18-4.93503E-18
 -1      2641 4.94552E-05-2.67792E-05-9.11668E-06-3.36033E-05-2.78250E-18-4.24787E-18
 -1      2642 9.49178E-05-5.23538E-05-1.79881E-05-3.92895E-05-3.77353E-19-3.07000E-18
 -1      2643 1.26078E-04-5.98174E-05-2.82328E-05-2.42463E-05 1.63234E-18 6.88426E-19
 -1      2644 1.41814E-04-5.22902E-05-3.83843E-05-3.27518E-06 2.35748E-18 1.50115E-18
 -1      2645 1.46716E-04-4.64611E-05-4.30571E-05 1.91932E-06 1.50195E-18-2.99151E-18
 -1      2646 1.41876E-04-5.21195E-05-3.84583E-05 2.31080E-06 7.84379E-19-3.19024E-18
 -1      2647 1.42518E-04-4.04583E-05-4.44875E-05-6.47708E-06 1.20512E-18-3.00654E-18
 -1      2648 1.11410E-04-5.88684E-05-2.21807E-05-3.56214E-05 2.31071E-18 2.43188E-18
 -1      2649 1.42973E-04-3.20866E-05-4.76716E-05 9.79591E-06 3.32439E-18 3.71847E-18
 -1      2650 8.95082E-05-5.04674E-05-1.64241E-05 3.89040E-05 1.02343E-18-2.91702E-18
 -1      2651 9.79246E-05-2.74380E-05-3.01740E-05-8.35445E-06-2.01286E-18 3.97731E-18
 -1      2652 9.64201E-05-2.56607E-05-3.03303E-05-9.47552E-06-2.50399E-18 1.74729E-18
 -1      2653 9.68316E-05-2.62164E-05-3.02702E-05-1.10570E-05-2.98543E-18 1.81368E-18
 -1      2654 9.91391E-05-2.83407E-05-3.03435E-05-9.22472E-06-2.55085E-18 4.92834E-18
 -1      2655 9.75754E-05-2.77542E-05-2.99357E-05 7.74199E-06 1.15517E-18 1.47006E-18
 -1      2656 9.88711E-05-2.82485E-05-3.02793E-05-1.08777E-05-2.24558E-18 4.50592E-18
 -1      2657 9.05670E-05-1.51796E-05-3.23312E-05 3.19892E-06 1.14939E-19-1.92760E-18
 -1      2658 9.03774E-05-1.49084E-05-3.23641E-05 2.26417E-06-7.89433E-20-2.02441E-18
 -1      2659 9.02436E-05-1.47057E-05-3.23932E-05 1.42441E-06-1.75087E-19-2.15504E-18
 -1      2660 9.01788E-05-1.46136E-05-3.24043E-05 4.66404E-07-3.01672E-19-2.03918E-18
 -1      2661 9.14298E-05-1.66013E-05-3.20565E-05 1.64384E-06-1.00984E-19-1.94703E-18
 -1      2662 9.21450E-05-1.75550E-05-3.20050E-05 6.48041E-06 1.07048E-18-1.48029E-18
 -1      2663 9.16211E-05-1.67610E-05-3.21053E-05 5.64057E-06 8.22681E-19-1.51647E-18
 -1      2664 9.35614E-05-1.97772E-05-3.16640E-05 7.60386E-06 1.44647E-18-1.26730E-18
 -1      2665 9.27729E-05-1.85243E-05-3.18380E-05 7.02594E-06 1.21733E-18-1.37310E-18
 -1      2666 9.34386E-05-1.98707E-05-3.15065E-05 5.74142E-06 1.13609E-18-1.22165E-18
 -1      2667 9.52138E-05-2.54089E-05-2.99287E-05 3.98644E-06 1.23826E-18-5.74505E-19
 -1      2668 9.55515E-05-2.45596E-05-3.03926E-05 5.61831E-06 1.44408E-18-4.95927E-19
 -1      2669 1.27256E-04-1.21941E-05-4.98884E-05 2.81379E-06-4.45963E-18 6.33025E-19
 -1      2670 1.27972E-04-1.20888E-05-5.03762E-05-5.19830E-06-4.55873E-18 1.36068E-18
 -1      2671 6.88268E-05-3.58176E-05-1.34955E-05-3.79762E-05 3.37109E-18 9.12678E-20
 -1      2672 8.66690E-05-4.64099E-05-1.72835E-05-4.07089E-05 2.36830E-18 4.70527E-19
 -1      2673 9.53545E-05-2.59048E-05-2.97365E-05-2.71539E-06-1.10335E-18 7.78869E-20
 -1      2674 9.51903E-05-2.64902E-05-2.94539E-05-1.73088E-06-1.05066E-18-2.14455E-20
 -1      2675 9.52139E-05-2.70069E-05-2.92081E-05-9.90835E-07-9.70092E-19 1.88514E-20
 -1      2676 9.50792E-05-2.73610E-05-2.90283E-05-3.86163E-07-9.03668E-19-1.77282E-19
 -1      2677 9.54160E-05-2.63324E-05-2.96126E-05-1.63079E-06-1.09676E-18-1.80661E-19
 -1      2678 9.50464E-05-2.76668E-05-2.88609E-05 8.01565E-08-8.53371E-19-1.41240E-19
 -1      2679 9.49682E-05-2.78907E-05-2.87504E-05 4.30665E-07-7.69017E-19-1.58216E-19
 -1      2680 9.54159E-05-2.73272E-05-2.91882E-05-3.52325E-07-9.26445E-19-2.44981E-19
 -1      2681 9.49262E-05-2.80754E-05-2.86401E-05 6.99858E-07-7.65519E-19-1.66862E-19
 -1      2682 9.48977E-05-2.82213E-05-2.85766E-05 8.83167E-07-7.10081E-19-3.65618E-19
 -1      2683 9.53555E-05-2.79412E-05-2.88986E-05 4.36645E-07-8.70477E-19-3.55570E-19
 -1      2684 9.48629E-05-2.83321E-05-2.85071E-05 1.01792E-06-6.14828E-19-4.56975E-19
 -1      2685 9.48700E-05-2.84277E-05-2.84751E-05 1.09390E-06-6.09061E-19-4.14531E-19
 -1      2686 9.52915E-05-2.83198E-05-2.87076E-05 8.79029E-07-7.75027E-19-4.80857E-19
 -1      2687 9.48460E-05-2.84913E-05-2.84344E-05 1.14119E-06-5.02780E-19-3.34574E-19
 -1      2688 9.48755E-05-2.85528E-05-2.84233E-05 1.15119E-06-3.98022E-19-3.86713E-19
 -1      2689 9.52427E-05-2.85481E-05-2.85875E-05 1.08750E-06-4.82814E-19-5.33297E-19
 -1      2690 9.48613E-05-2.85851E-05-2.84027E-05 1.14525E-06-4.45349E-19-2.64478E-19
 -1      2691 9.49035E-05-2.86224E-05-2.84051E-05 1.11801E-06-4.59681E-19-3.80384E-20
 -1      2692 9.52117E-05-2.86770E-05-2.85179E-05 1.14642E-06-3.05930E-19-4.06651E-20
 -1      2693 9.48970E-05-2.86336E-05-2.83985E-05 1.08350E-06-3.99457E-19 9.64216E-20
 -1      2694 9.49452E-05-2.86532E-05-2.84095E-05 1.03915E-06-2.24398E-19-1.46163E-19
 -1      2695 9.51959E-05-2.87386E-05-2.84839E-05 1.11731E-06-3.72113E-19 2.68697E-19
 -1      2696 9.49443E-05-2.86496E-05-2.84127E-05 9.93753E-07-1.45990E-19 3.62242E-20
 -1      2697 9.49947E-05-2.86561E-05-2.84293E-05 9.46576E-07-3.97454E-20 1.27514E-20
 -1      2698 9.51916E-05-2.87535E-05-2.84750E-05 1.04461E-06-2.15339E-19 9.82224E-20
 -1      2699 9.49977E-05-2.86419E-05-2.84394E-05 9.03122E-07-2.03857E-19-3.13187E-20
 -1      2700 9.50487E-05-2.86384E-05-2.84598E-05 8.63499E-07-2.37859E-19 1.21716E-20
 -1      2701 9.51954E-05-2.87355E-05-2.84840E-05 9.60433E-07-1.69888E-19 5.13771E-20
 -1      2702 9.50546E-05-2.86161E-05-2.84752E-05 8.31539E-07-3.30004E-19-2.16398E-19
 -1      2703 9.51062E-05-2.86046E-05-2.84986E-05 8.07371E-07-3.60653E-19-3.07558E-19
 -1      2704 9.52051E-05-2.86929E-05-2.85061E-05 8.88396E-07-4.04536E-19-1.82493E-19
 -1      2705 9.51143E-05-2.85753E-05-2.85184E-05 7.94425E-07-3.51511E-19-8.91039E-20
 -1      2706 9.51676E-05-2.85572E-05-2.85449E-05 7.92201E-07-3.58518E-19 2.06799E-19
 -1      2707 9.52191E-05-2.86307E-05-2.85386E-05 8.46498E-07-1.99759E-19-3.51195E-19
 -1      2708 9.51776E-05-2.85214E-05-2.85687E-05 8.04699E-07-4.92982E-19 3.90312E-19
 -1      2709 9.52350E-05-2.84974E-05-2.85990E-05 8.30288E-07-7.34082E-19 5.24228E-19
 -1      2710 9.52365E-05-2.85512E-05-2.85801E-05 8.49402E-07-3.49556E-19-2.28561E-21
 -1      2711 9.52468E-05-2.84546E-05-2.86271E-05 8.74279E-07-8.92602E-19 7.41154E-19
 -1      2712 9.53114E-05-2.84251E-05-2.86620E-05 9.33509E-07-5.74864E-19 6.92413E-19
 -1      2713 9.52571E-05-2.84547E-05-2.86303E-05 9.10132E-07-5.93101E-19 7.12428E-19
 -1      2714 9.53247E-05-2.83745E-05-2.86951E-05 1.01516E-06-4.77304E-19 6.67387E-19
 -1      2715 9.54004E-05-2.83396E-05-2.87361E-05 1.11419E-06-4.78561E-19 1.92928E-19
 -1      2716 9.52807E-05-2.83397E-05-2.86897E-05 1.04130E-06-8.44242E-19 1.19490E-18
 -1      2717 9.54154E-05-2.82801E-05-2.87747E-05 1.24007E-06-5.88610E-19-9.40053E-20
 -1      2718 9.55066E-05-2.82401E-05-2.88233E-05 1.38557E-06-4.94368E-19-4.18872E-19
 -1      2719 9.53073E-05-2.82042E-05-2.87592E-05 1.25593E-06-5.94876E-19 2.98257E-19
 -1      2720 9.55230E-05-2.81705E-05-2.88682E-05 1.56275E-06-4.29112E-19-6.49473E-19
 -1      2721 9.56350E-05-2.81263E-05-2.89260E-05 1.76181E-06-2.08406E-19-6.09994E-19
 -1      2722 9.53368E-05-2.80457E-05-2.88399E-05 1.56781E-06-6.44596E-19-2.34246E-19
 -1      2723 9.56528E-05-2.80459E-05-2.89777E-05 1.99770E-06 1.84352E-19-7.16047E-19
 -1      2724 9.57912E-05-2.79992E-05-2.90462E-05 2.25742E-06 5.13429E-19-7.53747E-19
 -1      2725 9.53692E-05-2.78622E-05-2.89323E-05 1.99141E-06-1.81754E-19-2.83340E-19
 -1      2726 9.58104E-05-2.79088E-05-2.91046E-05 2.55927E-06 5.29311E-19-1.13067E-18
 -1      2727 9.59820E-05-2.78634E-05-2.91850E-05 2.88584E-06 3.34259E-19-1.29243E-18
 -1      2728 9.54046E-05-2.76542E-05-2.90365E-05 2.54121E-06 2.15127E-19-1.40499E-18
 -1      2729 9.60036E-05-2.77664E-05-2.92491E-05 3.25984E-06-6.78171E-20-1.00035E-18
 -1      2730 9.62163E-05-2.77298E-05-2.93414E-05 3.65696E-06-5.58346E-19-1.04653E-18
 -1      2731 9.54441E-05-2.74268E-05-2.91507E-05 3.23029E-06 3.01824E-19-2.23618E-18
 -1      2732 9.62439E-05-2.76349E-05-2.94090E-05 4.10675E-06-7.62652E-19-6.72159E-19
 -1      2733 9.65084E-05-2.76212E-05-2.95120E-05 4.57298E-06-4.34363E-19-1.03682E-18
 -1      2734 9.54923E-05-2.71940E-05-2.92708E-05 4.06804E-06-5.60086E-19-2.91261E-19
 -1      2735 9.65510E-05-2.75460E-05-2.95788E-05 5.09738E-06-3.27278E-19-1.21404E-18
 -1      2736 9.68828E-05-2.75803E-05-2.96892E-05 5.62199E-06-4.83407E-19-1.08615E-18
 -1      2737 9.55612E-05-2.69860E-05-2.93895E-05 5.05671E-06-4.85298E-19 1.05176E-20
 -1      2738 9.69612E-05-2.75581E-05-2.97486E-05 6.21164E-06-3.83147E-20-5.28825E-19
 -1      2739 9.73860E-05-2.76831E-05-2.98604E-05 6.76850E-06 2.51998E-19-2.13983E-19
 -1      2740 9.56794E-05-2.68598E-05-2.94948E-05 6.18643E-06 2.22192E-20-2.67796E-20
 -1      2741 9.75424E-05-2.77717E-05-2.99037E-05 7.40074E-06 1.67482E-19-1.95988E-19
 -1      2742 9.81033E-05-2.80566E-05-3.00081E-05 7.93953E-06 3.07612E-19-1.48330E-19
 -1      2743 9.59072E-05-2.69166E-05-2.95702E-05 7.42822E-06 3.91500E-19 2.41148E-19
 -1      2744 9.84174E-05-2.83497E-05-3.00253E-05 8.57026E-06 4.25951E-19-9.42306E-20
 -1      2745 9.91855E-05-2.88991E-05-3.01126E-05 9.00448E-06 3.52781E-19 1.96457E-19
 -1      2746 9.63613E-05-2.73232E-05-2.95958E-05 8.72342E-06 3.31515E-19 6.36700E-19
 -1      2747 9.97956E-05-2.95358E-05-3.00969E-05 9.55386E-06 9.21581E-19 3.77458E-19
 -1      2748 1.00878E-04-3.04895E-05-3.01606E-05 9.74547E-06 1.94093E-18 1.14191E-18
 -1      2749 9.72519E-05-2.83368E-05-2.95538E-05 9.96579E-06 8.68792E-19 1.06558E-18
 -1      2750 1.02002E-04-3.16494E-05-3.01179E-05 1.00706E-05 2.01461E-18 1.30044E-18
 -1      2751 1.03532E-04-3.31532E-05-3.01662E-05 9.81336E-06 1.66908E-18 1.97581E-18
 -1      2752 9.89256E-05-3.03152E-05-2.94425E-05 1.09659E-05 2.13302E-18 1.08122E-18
 -1      2753 1.05460E-04-3.50060E-05-3.01342E-05 9.65851E-06 1.57565E-18 1.63323E-18
 -1      2754 1.07536E-04-3.71054E-05-3.02076E-05 8.66866E-06 1.68306E-18 1.63547E-18
 -1      2755 1.01889E-04-3.36675E-05-2.93064E-05 1.13773E-05 1.94220E-18 1.84828E-18
 -1      2756 1.10545E-04-3.96539E-05-3.02860E-05 7.60143E-06 1.44267E-18 2.08824E-18
 -1      2757 1.13060E-04-4.20535E-05-3.04841E-05 5.56220E-06 1.24652E-18 3.24443E-18
 -1      2758 1.06737E-04-3.86480E-05-2.92874E-05 1.05759E-05 1.99067E-18 1.66650E-18
 -1      2759 1.17107E-04-4.47809E-05-3.08846E-05 2.97004E-06 7.43448E-19 3.37619E-18
 -1      2760 1.19478E-04-4.64272E-05-3.13863E-05-2.61470E-07 6.29987E-19 3.44073E-18
 -1      2761 1.13794E-04-4.47530E-05-2.97148E-05 7.49283E-06 9.06631E-19 2.84974E-18
 -1      2762 1.23660E-04-4.78581E-05-3.24483E-05-4.69231E-06 2.71038E-19 4.17636E-18
 -1      2763 1.24728E-04-4.68182E-05-3.34694E-05-8.53811E-06-3.96019E-19 4.68338E-18
 -1      2764 1.22250E-04-4.96515E-05-3.12095E-05 8.84365E-07 7.42299E-19 2.75501E-18
 -1      2765 1.26627E-04-4.42220E-05-3.54873E-05-1.35613E-05-8.75859E-19 5.73338E-18
 -1      2766 1.25202E-04-3.92699E-05-3.69856E-05-1.54783E-05-1.18031E-18 5.63576E-18
 -1      2767 1.29037E-04-4.86774E-05-3.44333E-05-8.84035E-06-1.50084E-20 3.35682E-18
 -1      2768 1.16614E-04-1.73403E-05-4.29140E-05-7.58257E-06-3.19490E-18 4.27625E-18
 -1      2769 1.15835E-04-1.60282E-05-4.33409E-05-8.52953E-07-3.13233E-18 3.01148E-18
 -1      2770 1.21514E-04-2.89126E-05-3.98194E-05 1.34555E-05-2.61648E-18 1.25522E-18
 -1      2771 1.24175E-04-3.60018E-05-3.81787E-05 1.44061E-05-1.15734E-18 3.62107E-19
 -1      2772 1.24949E-04-4.18470E-05-3.56944E-05 1.14476E-05-8.83826E-20-9.16609E-19
 -1      2773 1.25457E-04-4.59825E-05-3.42147E-05 8.33582E-06-1.93944E-19-1.47361E-18
 -1      2774 1.29537E-04-4.15421E-05-3.78944E-05 1.22146E-05-1.30485E-18 5.57983E-20
 -1      2775 1.22782E-04-4.71126E-05-3.24920E-05 3.25499E-06 8.23098E-19-6.69096E-19
 -1      2776 1.21058E-04-4.72039E-05-3.15932E-05-6.34007E-07 2.01192E-18 4.50602E-19
 -1      2777 1.26984E-04-4.93592E-05-3.33128E-05 3.69673E-06 9.31074E-19-1.74922E-18
 -1      2778 1.16882E-04-4.52883E-05-3.07677E-05-4.67301E-06 1.40380E-18 8.02355E-19
 -1      2779 1.14233E-04-4.32055E-05-3.03412E-05-7.65591E-06 1.41766E-18 3.92620E-19
 -1      2780 1.19702E-04-4.85729E-05-3.06255E-05-5.77715E-06 1.60024E-18-1.65727E-19
 -1      2781 1.10446E-04-4.04224E-05-3.00658E-05-9.88602E-06 1.98209E-18-2.96478E-20
 -1      2782 1.07844E-04-3.78742E-05-2.99036E-05-1.16121E-05 2.29730E-18 2.94399E-19
 -1      2783 1.11662E-04-4.30407E-05-2.95361E-05-1.15916E-05 1.37372E-18 9.65759E-19
 -1      2784 1.05070E-04-3.53470E-05-2.99075E-05-1.24262E-05 2.40764E-18 4.87658E-19
 -1      2785 1.02919E-04-3.30848E-05-2.98706E-05-1.30636E-05 1.86989E-18 6.00217E-19
 -1      2786 1.05147E-04-3.69261E-05-2.93300E-05-1.41250E-05 2.11864E-18 1.57199E-18
 -1      2787 1.01056E-04-3.10907E-05-2.99949E-05-1.29401E-05 1.70253E-18 6.91953E-19
 -1      2788 9.94036E-05-2.92904E-05-3.00139E-05-1.27049E-05 7.81921E-19 1.00068E-18
 -1      2789 1.00603E-04-3.18025E-05-2.95391E-05-1.44596E-05 2.07411E-18 1.03904E-18
 -1      2790 9.44701E-05-2.81264E-05-2.84328E-05-8.82690E-07 5.23109E-19-4.29980E-19
 -1      2791 9.44870E-05-2.79999E-05-2.84833E-05-7.06805E-07 5.75438E-19-3.61361E-19
 -1      2792 9.81916E-05-2.84493E-05-2.98785E-05 9.75299E-06-7.39145E-19-8.99919E-19
 -1      2793 9.88938E-05-2.91708E-05-2.98593E-05 8.17459E-06 7.56830E-19 9.14215E-19
 -1      2794 1.00131E-04-3.04210E-05-2.99022E-05 8.40655E-06 5.38110E-20 3.11055E-19
 -1      2795 9.47042E-05-2.19075E-05-3.12054E-05 7.84924E-06 1.60210E-18-8.11246E-19
 -1      2796 9.45475E-05-2.78494E-05-2.85858E-05-4.30991E-07 6.01005E-19-5.70514E-19
 -1      2797 9.46364E-05-2.76630E-05-2.86845E-05-8.74588E-08 6.46659E-19-4.09303E-19
 -1      2798 9.50048E-05-2.79100E-05-2.87632E-05-4.41076E-07 6.04743E-19-5.82692E-19
 -1      2799 9.45120E-05-2.84261E-05-2.83215E-05-1.14248E-06 3.12178E-19 1.23254E-19
 -1      2800 9.44544E-05-2.83639E-05-2.83214E-05-1.13644E-06 3.70845E-19-1.69684E-19
 -1      2801 9.45870E-05-2.85014E-05-2.83213E-05-1.10519E-06 3.71061E-19 2.25541E-19
 -1      2802 9.45159E-05-2.84585E-05-2.83093E-05-1.13523E-06 4.38097E-19 9.32441E-20
 -1      2803 9.48943E-05-2.85634E-05-2.84306E-05-1.16543E-06 4.35441E-19 1.57417E-19
 -1      2804 9.46770E-05-2.85456E-05-2.83408E-05-1.02197E-06 5.41047E-19 1.32591E-19
 -1      2805 9.46012E-05-2.85174E-05-2.83219E-05-1.06869E-06 4.19632E-19 1.65821E-19
 -1      2806 9.49179E-05-2.86300E-05-2.84112E-05-1.13166E-06 5.77947E-19 3.42116E-20
 -1      2807 9.47730E-05-2.85669E-05-2.83727E-05-9.24018E-07 6.92232E-19-4.95110E-19
 -1      2808 9.46973E-05-2.85500E-05-2.83499E-05-9.73853E-07 7.63239E-19-9.01397E-20
 -1      2809 9.49557E-05-2.86581E-05-2.84147E-05-1.05240E-06 8.19840E-19-2.21864E-19
 -1      2810 9.48706E-05-2.85709E-05-2.84126E-05-8.33664E-07 7.13861E-19-5.50993E-19
 -1      2811 9.47969E-05-2.85629E-05-2.83875E-05-8.76909E-07 6.80548E-19-4.06312E-19
 -1      2812 9.50016E-05-2.86585E-05-2.84337E-05-9.59894E-07 7.84351E-19-6.28106E-19
 -1      2813 9.49686E-05-2.85617E-05-2.84583E-05-7.67380E-07 3.63985E-19-4.18068E-19
 -1      2814 9.48968E-05-2.85604E-05-2.84315E-05-7.96804E-07 5.34850E-19-3.03589E-19
 -1      2815 9.50522E-05-2.86386E-05-2.84637E-05-8.77502E-07 5.97488E-19 1.29692E-19
 -1      2816 9.50689E-05-2.85419E-05-2.85094E-05-7.38032E-07 4.46461E-19-2.11136E-19
 -1      2817 9.49968E-05-2.85460E-05-2.84806E-05-7.47875E-07 4.32530E-19-5.35820E-19
 -1      2818 9.51060E-05-2.86029E-05-2.85020E-05-8.22687E-07 4.81854E-19 1.27557E-19
 -1      2819 9.51751E-05-2.85138E-05-2.85665E-05-7.56508E-07 6.12636E-19-3.93903E-19
 -1      2820 9.50995E-05-2.85218E-05-2.85349E-05-7.41767E-07 6.69089E-19-7.21658E-20
 -1      2821 9.51636E-05-2.85541E-05-2.85476E-05-8.09296E-07 5.23674E-19-8.15831E-21
 -1      2822 9.52929E-05-2.84789E-05-2.86313E-05-8.32844E-07 6.90465E-19-2.00615E-19
 -1      2823 9.52093E-05-2.84896E-05-2.85958E-05-7.88792E-07 5.09131E-19-3.81007E-19
 -1      2824 9.52267E-05-2.84938E-05-2.86006E-05-8.49193E-07 6.35437E-19-3.83755E-20
 -1      2825 9.54295E-05-2.84390E-05-2.87061E-05-9.76881E-07 4.39090E-19 2.16140E-19
 -1      2826 9.53326E-05-2.84510E-05-2.86651E-05-8.98822E-07 7.27828E-19 4.23145E-20
 -1      2827 9.52984E-05-2.84228E-05-2.86620E-05-9.53371E-07 4.02040E-19 2.46613E-19
 -1      2828 9.55938E-05-2.83965E-05-2.87939E-05-1.19844E-06-2.18207E-19 1.58523E-19
 -1      2829 9.54769E-05-2.84079E-05-2.87454E-05-1.08170E-06 2.83046E-19 3.43925E-19
 -1      2830 9.53828E-05-2.83420E-05-2.87330E-05-1.13256E-06 3.14088E-19 3.95805E-19
 -1      2831 9.57962E-05-2.83552E-05-2.88973E-05-1.50691E-06-5.44029E-20-3.68463E-19
 -1      2832 9.56520E-05-2.83632E-05-2.88396E-05-1.34716E-06-3.49043E-19-2.67306E-19
 -1      2833 9.54854E-05-2.82530E-05-2.88154E-05-1.39732E-06 2.09302E-19 7.69330E-20
 -1      2834 9.60488E-05-2.83213E-05-2.90191E-05-1.91013E-06 1.99706E-19-2.22729E-19
 -1      2835 9.58689E-05-2.83217E-05-2.89504E-05-1.70407E-06 2.17735E-21-1.86245E-19
 -1      2836 9.56132E-05-2.81594E-05-2.89106E-05-1.75750E-06-7.11058E-20-4.66838E-19
 -1      2837 9.63663E-05-2.83052E-05-2.91611E-05-2.41221E-06 1.00636E-19 3.29735E-19
 -1      2838 9.61414E-05-2.82916E-05-2.90801E-05-2.15886E-06 4.26473E-19 1.05207E-20
 -1      2839 9.57753E-05-2.80682E-05-2.90195E-05-2.22091E-06 1.56988E-19-5.10921E-19
 -1      2840 9.67663E-05-2.83239E-05-2.93238E-05-3.01017E-06-3.69574E-19 2.69770E-19
 -1      2841 9.64858E-05-2.82865E-05-2.92297E-05-2.71283E-06-4.61331E-20 2.73981E-19
 -1      2842 9.59842E-05-2.79927E-05-2.91418E-05-2.79107E-06-2.04775E-20 9.56483E-20
 -1      2843 9.72710E-05-2.84043E-05-2.95054E-05-3.68868E-06 5.41927E-21-6.06594E-19
 -1      2844 9.69234E-05-2.83282E-05-2.93990E-05-3.35793E-06-3.31898E-19 3.18658E-19
 -1      2845 9.62579E-05-2.79552E-05-2.92756E-05-3.46354E-06-7.10859E-20 5.04259E-19
 -1      2846 9.79098E-05-2.85876E-05-2.97012E-05-4.41271E-06 1.88340E-19-6.64994E-19
 -1      2847 9.74818E-05-2.84509E-05-2.95847E-05-4.07057E-06 1.88910E-19-4.17426E-19
 -1      2848 9.66229E-05-2.79927E-05-2.94169E-05-4.22072E-06 1.97554E-19 9.22152E-19
 -1      2849 9.87230E-05-2.89346E-05-2.99030E-05-5.11755E-06 3.06219E-19-4.80585E-19
 -1      2850 9.81993E-05-2.87064E-05-2.97809E-05-4.80295E-06 4.92642E-19-8.74108E-19
 -1      2851 9.71203E-05-2.81624E-05-2.95587E-05-5.02436E-06 2.11641E-19 1.06309E-18
 -1      2852 9.97657E-05-2.95286E-05-3.00993E-05-5.69635E-06-2.98253E-19-4.65138E-19
 -1      2853 9.91290E-05-2.91683E-05-2.99781E-05-5.47147E-06 1.78390E-19-6.85726E-19
 -1      2854 9.78122E-05-2.85487E-05-2.96922E-05-5.80558E-06-1.00690E-20 5.26137E-19
 -1      2855 1.01110E-04-3.04725E-05-3.02775E-05-5.98658E-06-3.50943E-19-2.74511E-19
 -1      2856 1.00343E-04-2.99339E-05-3.01651E-05-5.94262E-06-5.10761E-19-2.40863E-19
 -1      2857 9.87907E-05-2.92671E-05-2.98078E-05-6.45168E-06-4.65027E-19 4.75805E-19
 -1      2858 1.02836E-04-3.18677E-05-3.04296E-05-5.75972E-06-6.70930E-20-5.38318E-19
 -1      2859 1.01931E-04-3.11131E-05-3.03326E-05-6.01850E-06 1.35786E-19-5.87770E-19
 -1      2860 1.00182E-04-3.04571E-05-2.99004E-05-6.79008E-06 1.02767E-19 2.59715E-19
 -1      2861 1.05001E-04-3.37557E-05-3.05623E-05-4.72540E-06-6.51603E-19-6.27917E-19
 -1      2862 1.03977E-04-3.27913E-05-3.04808E-05-5.42874E-06-4.58476E-19-8.21885E-19
 -1      2863 1.02138E-04-3.22501E-05-2.99783E-05-6.57192E-06-3.35448E-19-7.95407E-20
 -1      2864 1.07558E-04-3.60010E-05-3.07123E-05-2.57018E-06-7.85309E-20-5.39182E-19
 -1      2865 1.06504E-04-3.49432E-05-3.06329E-05-3.84456E-06-2.78249E-19-3.49824E-19
 -1      2866 1.04785E-04-3.46856E-05-3.00771E-05-5.46470E-06-5.17488E-19-3.30569E-19
 -1      2867 1.10215E-04-3.81049E-05-3.09608E-05 9.11350E-07-9.65866E-19-2.61756E-19
 -1      2868 1.09343E-04-3.72696E-05-3.08508E-05-9.57666E-07-4.37679E-19-4.57737E-20
 -1      2869 1.08105E-04-3.75360E-05-3.02791E-05-3.07924E-06-2.96790E-19 3.21083E-19
 -1      2870 1.12293E-04-3.90656E-05-3.14318E-05 5.52599E-06-1.76310E-19-1.66121E-19
 -1      2871 1.11953E-04-3.90034E-05-3.12411E-05 3.29220E-06-8.82049E-19-4.52666E-19
 -1      2872 1.11705E-04-4.00594E-05-3.07243E-05 8.69442E-07-7.69775E-19-4.76869E-19
 -1      2873 1.12770E-04-3.75697E-05-3.22509E-05 1.02276E-05 2.81006E-19 7.30677E-19
 -1      2874 1.13339E-04-3.88755E-05-3.19352E-05 8.29687E-06 3.79279E-19 5.02165E-19
 -1      2875 1.14601E-04-4.08409E-05-3.15919E-05 6.16638E-06-2.77071E-19-2.03630E-19
 -1      2876 1.10843E-04-3.27591E-05-3.34147E-05 1.29263E-05-1.82840E-19 8.23543E-19
 -1      2877 1.12390E-04-3.55896E-05-3.30032E-05 1.24040E-05-1.11739E-19 1.24999E-18
 -1      2878 1.15426E-04-3.83177E-05-3.30223E-05 1.15441E-05-3.90095E-19 1.35247E-18
 -1      2879 1.07342E-04-2.64476E-05-3.45978E-05 1.10493E-05 1.72754E-18 9.70465E-19
 -1      2880 1.09055E-04-2.96061E-05-3.42186E-05 1.25957E-05 1.24029E-18 5.80727E-19
 -1      2881 1.12876E-04-3.13761E-05-3.49169E-05 1.40912E-05 7.16775E-19 1.22879E-19
 -1      2882 1.04303E-04-2.18658E-05-3.53753E-05 4.27726E-06 1.82297E-18 1.54537E-18
 -1      2883 1.05360E-04-2.35040E-05-3.52020E-05 7.84575E-06 2.57456E-18 1.64845E-18
 -1      2884 1.09257E-04-2.41884E-05-3.64932E-05 1.06720E-05 1.67900E-18 6.33589E-19
 -1      2885 1.04858E-04-2.30779E-05-3.51592E-05-4.44271E-06-4.07072E-19 6.64785E-19
 -1      2886 1.04246E-04-2.17466E-05-3.53727E-05-8.14271E-07 7.99189E-19 1.23670E-18
 -1      2887 1.06687E-04-2.03606E-05-3.70702E-05 1.79713E-06 1.40320E-18 6.05271E-19
 -1      2888 1.08010E-04-2.87069E-05-3.41338E-05-9.83693E-06-1.63072E-18-8.85540E-19
 -1      2889 1.06493E-04-2.56637E-05-3.45727E-05-7.93879E-06-1.24593E-18 6.81630E-20
 -1      2890 1.08531E-04-2.34318E-05-3.65376E-05-7.02536E-06-2.88765E-19-9.97249E-21
 -1      2891 1.11223E-04-3.50056E-05-3.27712E-05-9.89957E-06-1.01138E-18-7.01486E-19
 -1      2892 1.09872E-04-3.21154E-05-3.32671E-05-1.03418E-05-1.84146E-18-1.31333E-18
 -1      2893 1.12273E-04-3.09059E-05-3.48544E-05-1.10395E-05-1.58117E-18-6.93105E-19
 -1      2894 1.12128E-04-3.85494E-05-3.15667E-05-5.95224E-06-2.11063E-20-8.03056E-19
 -1      2895 1.11710E-04-3.71239E-05-3.19627E-05-7.89856E-06 2.73906E-19-7.45817E-19
 -1      2896 1.14737E-04-3.77833E-05-3.29251E-05-8.99733E-06-4.43375E-19-6.52712E-19
 -1      2897 1.10573E-04-3.88005E-05-3.07454E-05-7.82983E-07 1.07051E-19-4.84345E-19
 -1      2898 1.11102E-04-3.88557E-05-3.10063E-05-3.10223E-06-2.26611E-19-9.61407E-19
 -1      2899 1.14097E-04-4.08131E-05-3.13854E-05-3.64936E-06 3.69462E-19-5.70388E-19
 -1      2900 1.07611E-04-3.68973E-05-3.02686E-05 3.66224E-06-3.00454E-19 9.56656E-19
 -1      2901 1.08739E-04-3.78700E-05-3.04284E-05 1.72411E-06-2.49005E-19 7.98684E-20
 -1      2902 1.11099E-04-4.01241E-05-3.04314E-05 1.88854E-06-2.70194E-19-7.36042E-19
 -1      2903 1.04297E-04-3.41420E-05-3.00280E-05 6.54302E-06-3.94851E-19 2.08975E-18
 -1      2904 1.05628E-04-3.54420E-05-3.01274E-05 5.33112E-06-2.03273E-19 2.00813E-18
 -1      2905 1.07185E-04-3.73411E-05-2.99614E-05 6.03581E-06-7.49235E-19 7.17039E-19
 -1      2906 1.01492E-04-3.16808E-05-2.98923E-05 7.99520E-06 4.75589E-19-8.29968E-20
 -1      2907 1.02826E-04-3.30126E-05-2.99571E-05 7.53139E-06 2.05949E-19 1.08637E-18
 -1      2908 1.03741E-04-3.43252E-05-2.97717E-05 8.55913E-06 3.43992E-19-8.82380E-20
 -1      2909 1.00859E-04-3.14821E-05-2.97413E-05 9.84763E-06 3.89097E-19-1.46995E-18
 -1      2910 1.19815E-04-6.05971E-05-2.54379E-05 3.10672E-05-1.64557E-18-1.59065E-18
 -1      2911 1.05018E-04-5.55716E-05-2.08986E-05 3.71253E-05-1.67691E-18-8.19398E-19
 -1      2912 8.47159E-05-1.65801E-05-2.92597E-05 4.54753E-06 4.14736E-19-7.19445E-19
 -1      2913 8.58050E-05-1.74109E-05-2.92904E-05 6.99583E-06 9.00666E-19-8.78557E-19
 -1      2914 9.85104E-05-2.82029E-05-3.01276E-05-1.22393E-05-4.18401E-19 1.96299E-18
 -1      2915 9.75890E-05-2.71898E-05-3.01513E-05-1.16938E-05-1.60739E-18 2.19679E-18
 -1      2916 9.63028E-05-2.60083E-05-3.01405E-05-1.23914E-05-1.82544E-18 9.18443E-19
 -1      2917 9.79214E-05-2.83314E-05-2.98395E-05-1.36353E-05 1.14932E-18 1.32025E-18
 -1      2918 9.10023E-05-2.20003E-05-2.96254E-05 1.19485E-05-1.07420E-19-1.30176E-18
 -1      2919 9.27220E-05-2.34346E-05-2.96468E-05 1.24650E-05-2.35073E-19-1.35308E-19
 -1      2920 8.39440E-05-1.58564E-05-2.92065E-05-1.51646E-06 3.23984E-20 8.44222E-19
 -1      2921 8.40192E-05-1.59081E-05-2.92079E-05 1.31672E-06 4.41309E-19-3.60204E-20
 -1      2922 8.29308E-05-1.69353E-05-2.82275E-05 3.40655E-06 4.80021E-19-4.11130E-19
 -1      2923 8.74237E-05-1.89282E-05-2.94240E-05 9.33973E-06 3.10662E-19-7.71263E-19
 -1      2924 8.91010E-05-2.02520E-05-2.94618E-05 1.08891E-05 3.06834E-19-7.19972E-19
 -1      2925 8.98229E-05-2.25797E-05-2.88279E-05 1.27408E-05-5.92160E-19-8.29202E-19
 -1      2926 8.56688E-05-1.92068E-05-2.84569E-05 9.26678E-06 2.26827E-19-1.11466E-18
 -1      2927 8.53993E-05-1.70239E-05-2.92904E-05-7.24859E-06-9.68346E-19-1.70502E-18
 -1      2928 8.44497E-05-1.62999E-05-2.92609E-05-4.75467E-06-8.35573E-19-7.49517E-20
 -1      2929 8.27178E-05-1.67094E-05-2.82310E-05-3.43958E-06-1.67864E-19-9.02994E-19
 -1      2930 8.85641E-05-1.96668E-05-2.94856E-05-1.14454E-05-1.19326E-18-2.51467E-18
 -1      2931 8.69097E-05-1.83804E-05-2.94365E-05-9.76165E-06-1.29967E-18-1.98060E-18
 -1      2932 8.50850E-05-1.85757E-05-2.84753E-05-9.49027E-06-2.16677E-18-2.19449E-18
 -1      2933 9.23408E-05-2.28641E-05-2.97385E-05-1.32656E-05-5.76528E-19-1.08551E-18
 -1      2934 9.05257E-05-2.13855E-05-2.96839E-05-1.26966E-05 3.49504E-19-2.32643E-18
 -1      2935 8.91786E-05-2.17576E-05-2.88964E-05-1.33573E-05-8.42005E-19-1.28739E-18
 -1      2936 9.52459E-05-2.52383E-05-2.99857E-05-1.29408E-05-1.95684E-18-9.25754E-19
 -1      2937 9.36502E-05-2.38478E-05-2.99445E-05-1.32695E-05-1.15179E-18-5.86352E-19
 -1      2938 9.29640E-05-2.44680E-05-2.93715E-05-1.44169E-05-5.84808E-19-1.51836E-18
 -1      2939 9.59105E-05-2.63540E-05-2.98003E-05-1.37297E-05-5.07691E-19 2.64934E-19
 -1      2940 1.32548E-04-6.14036E-05-3.00984E-05-1.69053E-05 2.55063E-19 1.06536E-18
 -1      2941 1.39812E-04-5.78723E-05-3.57718E-05-5.11929E-06-7.42345E-20 2.24040E-19
 -1      2942 9.43317E-05-2.08735E-05-3.15169E-05-8.25011E-06-1.81162E-18 3.94896E-20
 -1      2943 9.47171E-05-2.26480E-05-3.09117E-05-6.41116E-06-1.63960E-18 1.20127E-19
 -1      2944 3.28712E-05-1.47682E-05-7.09522E-06 5.98748E-06 1.09826E-18 5.18808E-18
 -1      2945 3.32185E-05-1.50770E-05-7.33069E-06-7.63698E-06 1.00469E-18 1.24514E-19
 -1      2946 8.61859E-05-4.67776E-05-1.66835E-05 4.13846E-05-1.38564E-18 2.26084E-18
 -1      2947 6.85579E-05-3.74848E-05-1.28090E-05 3.97702E-05-7.08967E-19 3.29581E-18
 -1      2948 9.20382E-05-1.66596E-05-3.23126E-05-9.02848E-06-1.82009E-18-5.76465E-19
 -1      2949 3.15472E-05-1.37047E-05-7.02546E-06-7.57721E-06-1.54508E-18-4.35947E-18
 -1      2950 3.77667E-05-1.77367E-05-8.11129E-06-2.12698E-05-2.37222E-18-4.04818E-18
 -1      2951 1.26859E-04-9.04829E-06-5.12435E-05 1.81979E-06 3.28268E-18 6.53109E-20
 -1      2952 1.27838E-04-1.09234E-05-5.08530E-05-3.84925E-06 3.26679E-18-6.73735E-19
 -1      2953 9.47182E-05-2.74134E-05-2.88479E-05 3.96479E-07 7.04319E-19-4.16594E-19
 -1      2954 9.48998E-05-2.71207E-05-2.90205E-05 1.00105E-06 8.61617E-19-3.67282E-19
 -1      2955 9.51265E-05-2.73811E-05-2.90434E-05 3.83919E-07 7.45679E-19-5.21977E-19
 -1      2956 9.44663E-05-2.83075E-05-2.83530E-05-1.08947E-06 5.13435E-19-4.24410E-19
 -1      2957 9.44360E-05-2.82190E-05-2.83724E-05-1.01919E-06 4.87344E-19-3.50271E-19
 -1      2958 9.49272E-05-2.82383E-05-2.85873E-05-8.96831E-07 5.28634E-19-3.86165E-19
 -1      2959 9.48937E-05-2.84416E-05-2.84840E-05-1.10844E-06 3.71921E-19-4.02673E-20
 -1      2960 9.52670E-05-2.41018E-05-3.04815E-05-5.16688E-06-1.41520E-18 1.38612E-19
 -1      2961 9.51736E-05-2.50823E-05-3.00574E-05-3.67955E-06-1.24385E-18 1.23855E-19
 -1      2962 9.52253E-05-2.47658E-05-3.01893E-05-3.43779E-06-1.26586E-18-2.45045E-19
 -1      2963 9.45860E-05-2.23745E-05-3.09410E-05-5.70087E-06-1.56231E-18-2.61936E-19
 -1      2964 9.11824E-05-1.60934E-05-3.22089E-05 4.92289E-06 6.10749E-19-1.58351E-18
 -1      2965 9.08409E-05-1.55953E-05-3.22698E-05 3.99992E-06 2.65407E-19-1.69198E-18
 -1      2966 9.18203E-05-1.72075E-05-3.19616E-05 3.20303E-06 2.23924E-19-1.70140E-18
 -1      2967 9.24866E-05-1.82660E-05-3.17889E-05 4.62108E-06 6.11043E-19-1.34562E-18
 -1      2968 9.49746E-05-2.66899E-05-2.92706E-05 1.78903E-06 9.58976E-19-5.09138E-19
 -1      2969 9.52421E-05-2.61924E-05-2.95557E-05 2.79669E-06 1.03072E-18-5.44022E-19
 -1      2970 9.52688E-05-2.50228E-05-3.01030E-05 3.82895E-06 1.17238E-18-8.86937E-19
 -1      2971 9.52517E-05-2.65035E-05-2.94704E-05 1.74347E-06 8.87455E-19-6.09561E-19
 -1      2972 1.32698E-04-2.49474E-05-4.65887E-05 1.20340E-05-2.99193E-18-1.57442E-18
 -1      2973 1.29843E-04-1.67580E-05-4.92557E-05 8.46437E-06-3.51074E-18-1.27478E-19
 -1      2974 1.23078E-04-1.57076E-05-4.63169E-05 5.37267E-06-3.73139E-18 1.51809E-18
 -1      2975 9.08043E-05-1.55457E-05-3.22748E-05-3.93639E-06-9.31982E-19-1.57019E-18
 -1      2976 9.11377E-05-1.60310E-05-3.22154E-05-4.85950E-06-1.11062E-18-1.32673E-18
 -1      2977 1.41198E-04-4.87857E-05-3.95765E-05 6.29388E-06-8.58468E-19-1.51471E-18
 -1      2978 1.37832E-04-3.87857E-05-4.30248E-05 1.13108E-05-2.40388E-18-3.46902E-18
 -1      2979 3.90525E-05-1.88935E-05-7.97065E-06-1.97494E-05 9.83935E-19-7.90493E-19
 -1      2980 5.03576E-05-2.60017E-05-1.02765E-05-3.19556E-05 2.68721E-18-5.41889E-19
 -1      2981 1.00522E-04-5.34946E-05-2.01636E-05 3.53807E-05 1.74542E-18-1.51005E-18
 -1      2982 8.34084E-05-4.51770E-05-1.59634E-05 3.77631E-05 2.62591E-18-3.15075E-18
 -1      2983 1.37061E-04-5.54597E-05-3.48161E-05-3.96124E-06 9.16397E-19 2.47058E-18
 -1      2984 1.39147E-04-4.89590E-05-3.93717E-05 4.43932E-06 1.42002E-18 3.68163E-18
 -1      2985 1.19663E-04-5.90480E-05-2.56991E-05-2.57379E-05-3.63801E-19 1.28791E-18
 -1      2986 1.30087E-04-5.99569E-05-3.05306E-05-1.64945E-05 4.71374E-19 2.68589E-18
 -1      2987 9.00417E-05-4.82303E-05-1.75411E-05-3.82350E-05-1.86199E-18-2.89511E-18
 -1      2988 1.06832E-04-5.56807E-05-2.19600E-05-3.45011E-05-8.45762E-19-1.18957E-18
 -1      2989 1.14590E-04-5.66383E-05-2.46413E-05-2.66570E-05-1.75717E-18 1.58244E-18
 -1      2990 3.49022E-05-1.65427E-05-7.31484E-06 1.74021E-05-1.98057E-18-4.08058E-18
 -1      2991 3.01030E-05-1.36967E-05-6.54950E-06 5.05059E-06-1.72168E-18-4.27138E-18
 -1      2992 1.26963E-04-6.05765E-05-2.86910E-05 1.77882E-05 3.07049E-20-5.82838E-19
 -1      2993 1.15319E-04-5.86266E-05-2.38999E-05 2.79867E-05 5.74500E-19-5.86385E-19
 -1      2994 1.40000E-04-5.04989E-05-3.89793E-05-7.66090E-06-1.50409E-18 1.18796E-18
 -1      2995 1.36071E-04-5.71348E-05-3.37834E-05 2.27803E-06-1.37348E-18 8.45445E-20
 -1      2996 1.38229E-04-2.95030E-05-4.73318E-05-1.47132E-05-2.53168E-18 9.56406E-19
 -1      2997 1.38075E-04-3.75495E-05-4.32939E-05-1.44178E-05-1.74902E-18 1.63086E-18
 -1      2998 1.30316E-04-1.50307E-05-5.02198E-05-1.02051E-05-3.90863E-18 9.27607E-19
 -1      2999 1.34879E-04-2.10155E-05-4.92755E-05-1.35388E-05-3.06584E-18 1.14413E-18
 -1      3000 1.28835E-04-2.42546E-05-4.50378E-05-1.61608E-05-2.48530E-18 2.68758E-18
 -1      3001 1.23151E-04-1.51095E-05-4.66256E-05-7.29849E-06-3.90980E-18 3.13884E-18
 -1      3002 1.36348E-04-3.64217E-05-4.29641E-05 1.22143E-05 2.52776E-18 3.78041E-18
 -1      3003 1.33766E-04-2.62510E-05-4.68339E-05 1.34317E-05 3.36844E-18 3.22391E-18
 -1      3004 1.36126E-04-5.93583E-05-3.32501E-05 1.27097E-05-4.06867E-19-3.00856E-18
 -1      3005 1.29359E-04-6.15389E-05-2.89211E-05 2.20697E-05-1.16631E-18-2.22261E-18
 -1      3006 1.24770E-04-6.04362E-05-2.74096E-05 2.32837E-05-2.73433E-18-2.84442E-18
 -1      3007 1.04413E-04-5.47587E-05-2.07779E-05-3.59851E-05 2.64613E-18 2.61680E-18
 -1      3008 1.19212E-04-6.08893E-05-2.54450E-05-2.98690E-05 1.91398E-18 4.17937E-18
 -1      3009 1.31019E-04-1.69318E-05-4.93945E-05 1.17285E-05 2.80558E-18 2.09027E-18
 -1      3010 1.28000E-04-1.10611E-05-5.07455E-05 6.61776E-06 2.55550E-18 1.45875E-19
 -1      3011 9.15618E-05-1.66725E-05-3.21147E-05-5.58698E-06-1.26665E-18-1.21215E-18
 -1      3012 9.20376E-05-1.73740E-05-3.20226E-05-6.41882E-06-1.48084E-18-1.05923E-18
 -1      3013 9.24322E-05-1.81883E-05-3.17981E-05-4.58287E-06-1.08271E-18-1.08560E-18
 -1      3014 9.12976E-05-1.63986E-05-3.20876E-05 2.85460E-08-3.57358E-19-1.93112E-18
 -1      3015 9.01746E-05-1.46084E-05-3.24049E-05-3.83556E-07-5.07199E-19-2.05737E-18
 -1      3016 9.02310E-05-1.46888E-05-3.23949E-05-1.34196E-06-6.62895E-19-2.02390E-18
 -1      3017 1.26367E-04-2.26957E-05-4.47784E-05 1.43818E-05 2.43120E-18 6.55498E-19
 -1      3018 9.84715E-05-4.90832E-05-2.07147E-05-3.46705E-05 2.66709E-18 2.39160E-18
 -1      3019 1.27528E-04-1.43260E-05-4.90900E-05-6.64529E-06 2.96959E-18-3.13349E-19
 -1      3020 1.25875E-04-1.80696E-05-4.66380E-05-1.01119E-05 2.46465E-18-8.76414E-19
 -1      3021 1.20667E-04-1.32016E-05-4.63742E-05-4.94460E-06 2.63152E-18-3.12370E-19
 -1      3022 1.31223E-04-2.71935E-05-4.52044E-05-1.23331E-05 1.08145E-18-1.28484E-18
 -1      3023 1.38893E-04-3.40916E-05-4.53232E-05-9.74142E-06 9.85099E-19-1.45033E-18
 -1      3024 1.36324E-04-4.04236E-05-4.13447E-05-8.62786E-06-4.97102E-20-1.47595E-18
 -1      3025 1.17873E-04-1.81327E-05-4.30405E-05 5.81635E-06-2.93031E-18 2.33089E-18
 -1      3026 1.31641E-04-3.94246E-05-3.98751E-05-1.60769E-05-1.77962E-18 3.26981E-18
 -1      3027 1.25566E-04-3.33280E-05-3.98829E-05-1.77836E-05-1.75005E-18 5.13736E-18
 -1      3028 1.19251E-04-2.07555E-05-4.28844E-05-1.27169E-05-2.97118E-18 4.56103E-18
 -1      3029 1.22379E-04-2.58426E-05-4.15735E-05-1.54301E-05-2.20991E-18 4.80932E-18
 -1      3030 9.39753E-05-2.58668E-05-2.92185E-05 1.35850E-05 3.52310E-19-1.08937E-18
 -1      3031 9.43349E-05-2.48790E-05-2.97928E-05 1.23323E-05 6.47244E-20-2.11283E-19
 -1      3032 9.57334E-05-2.61596E-05-2.97807E-05 1.20445E-05 3.62268E-20-6.85287E-19
 -1      3033 1.19958E-04-2.31891E-05-4.20030E-05 1.13700E-05-2.68208E-18 1.40323E-18
 -1      3034 1.08294E-04-5.43174E-05-2.32046E-05 3.21333E-05-3.00961E-18-3.06380E-18
 -1      3035 9.87537E-05-5.15289E-05-1.98920E-05 3.77670E-05-2.17635E-18-5.02529E-19
 -1      3036 9.17560E-05-4.54982E-05-1.95097E-05 3.66485E-05-2.42707E-18-7.30619E-19
 -1      3037 1.26064E-04-6.00533E-05-2.81610E-05-1.99992E-05 1.32614E-18 1.25001E-18
 -1      3038 9.43533E-05-2.14253E-05-3.12592E-05 7.22344E-06 1.50856E-18-1.04565E-18
 -1      3039 1.37389E-04-5.32267E-05-3.61795E-05 2.09652E-06-1.26553E-18-3.54589E-19
 -1      3040 9.74030E-05-2.76702E-05-2.98957E-05 1.06517E-05-9.76409E-19-1.17560E-18
 -1      3041 4.21166E-05-1.71345E-05-1.00690E-05 1.35334E-05 2.97626E-19 3.87263E-18
 -1      3042 6.30454E-05-3.20847E-05-1.27797E-05 3.63586E-05-8.34222E-19 3.00157E-18
 -1      3043 5.78656E-05-2.58874E-05-1.33559E-05 3.06302E-05-1.21597E-18 2.18598E-18
 -1      3044 7.43894E-05-3.54637E-05-1.63787E-05 3.57438E-05-2.02589E-18 1.31227E-18
 -1      3045 9.46135E-05-2.24690E-05-3.09120E-05 5.69883E-06 1.27292E-18-1.04955E-18
 -1      3046 4.87417E-05-1.75769E-05-1.29377E-05-1.98496E-05-2.83899E-18-2.95043E-18
 -1      3047 4.74278E-05-2.14691E-05-1.04972E-05-2.63319E-05-3.07727E-18-3.31539E-18
 -1      3048 5.86843E-05-2.60289E-05-1.37548E-05-3.00415E-05-3.46699E-18-3.70302E-18
 -1      3049 4.41195E-05-1.67481E-05-1.10024E-05-1.28245E-05 1.28479E-18 4.62904E-19
 -1      3050 1.33793E-04-4.24431E-05-3.94094E-05 1.03475E-05 1.62196E-18 3.93849E-18
 -1      3051 1.35093E-04-4.36326E-05-3.94303E-05-1.29719E-05-1.38929E-18 2.27873E-18
 -1      3052 9.28214E-05-1.84320E-05-3.18793E-05-7.47622E-06-1.62719E-18-6.99562E-19
 -1      3053 8.25783E-05-4.31797E-05-1.64885E-05-3.82759E-05-2.52882E-18-3.79296E-18
 -1      3054 9.44034E-05-4.68692E-05-2.01755E-05-3.33155E-05-2.83137E-18-2.26957E-18
 -1      3055 7.48451E-05-3.65494E-05-1.60103E-05-3.60056E-05-3.35605E-18-4.51776E-18
 -1      3056 3.86363E-05-1.34588E-05-1.01365E-05-1.78970E-06-1.70864E-18-4.52834E-18
 -1      3057 1.21752E-04-1.10841E-05-4.76416E-05 4.47288E-06 2.46571E-18 1.61254E-19
 -1      3058 9.03558E-05-1.48795E-05-3.23671E-05-2.17991E-06-6.90238E-19-1.81847E-18
 -1      3059 9.05396E-05-1.51429E-05-3.23347E-05-3.13128E-06-8.65792E-19-1.72698E-18
 -1      3060 9.17883E-05-1.71642E-05-3.19667E-05-3.14681E-06-7.89352E-19-1.51966E-18
 -1      3061 9.14151E-05-1.65817E-05-3.20589E-05-1.58514E-06-6.91858E-19-1.87869E-18
 -1      3062 7.61312E-05-3.96798E-05-1.52183E-05 3.66973E-05 2.05607E-18-3.35234E-18
 -1      3063 6.82264E-05-3.21907E-05-1.50401E-05 3.30140E-05 1.44181E-18-3.07261E-18
 -1      3064 8.69284E-05-4.31980E-05-1.87060E-05 3.36574E-05 2.98362E-18-1.10289E-18
 -1      3065 1.26808E-04-2.66044E-05-4.32110E-05 1.38001E-05-2.87917E-18 1.03158E-18
 -1      3066 1.31927E-04-5.71359E-05-3.20339E-05-7.67818E-06-5.44113E-19 3.78470E-18
 -1      3067 1.08886E-04-5.47726E-05-2.28941E-05 2.86543E-05 2.01456E-18-1.21808E-18
 -1      3068 6.56507E-05-3.03076E-05-1.45922E-05-3.25919E-05 2.40473E-18-2.63957E-19
 -1      3069 1.37134E-04-5.10244E-05-3.72670E-05-1.84676E-06 3.49533E-19-2.52204E-18
 -1      3070 1.38609E-04-5.64164E-05-3.53224E-05 5.49900E-06 4.36679E-19-3.22571E-18
 -1      3071 1.33900E-04-5.81873E-05-3.25088E-05 8.95317E-06-7.01634E-19-2.71951E-18
 -1      3072 4.65736E-05-2.04628E-05-1.05882E-05 2.23235E-05-9.71494E-19-4.10335E-18
 -1      3073 9.42795E-05-2.18553E-05-3.10596E-05 4.97316E-06 1.02842E-18-1.06422E-18
 -1      3074 9.38144E-05-2.09140E-05-3.12454E-05 4.62637E-06 8.56998E-19-1.11052E-18
 -1      3075 1.34513E-04-3.38048E-05-4.36858E-05 1.35618E-05-2.61818E-18-1.42937E-18
 -1      3076 1.32043E-04-4.67965E-05-3.63565E-05 9.08710E-06 6.65080E-19 3.58507E-18
 -1      3077 1.27707E-04-3.73217E-05-3.94310E-05 1.42784E-05 1.04587E-18 1.84124E-18
 -1      3078 9.56824E-05-2.68812E-05-2.94718E-05-7.53323E-07-1.00297E-18-2.17421E-19
 -1      3079 9.56587E-05-2.73286E-05-2.92925E-05-2.28020E-07-9.13438E-19-2.19194E-19
 -1      3080 9.57030E-05-2.77132E-05-2.91272E-05 1.52599E-07-9.05073E-19-1.52727E-19
 -1      3081 9.56661E-05-2.79984E-05-2.90050E-05 4.68507E-07-9.84546E-19-2.99976E-19
 -1      3082 9.59019E-05-2.73314E-05-2.93904E-05-1.71405E-07-9.69553E-19-2.49188E-19
 -1      3083 9.56587E-05-2.82352E-05-2.88879E-05 6.91515E-07-9.33862E-19-2.20299E-19
 -1      3084 9.56267E-05-2.84140E-05-2.88076E-05 8.61373E-07-6.94909E-19-2.63651E-19
 -1      3085 9.59436E-05-2.80529E-05-2.90997E-05 4.65503E-07-9.89309E-19 3.91124E-20
 -1      3086 9.55949E-05-2.85530E-05-2.87271E-05 9.73058E-07-4.99395E-19-2.92286E-19
 -1      3087 9.55723E-05-2.86603E-05-2.86771E-05 1.04585E-06-3.40907E-19-2.63113E-19
 -1      3088 9.59101E-05-2.84990E-05-2.88940E-05 8.27393E-07-6.65266E-19-1.10962E-19
 -1      3089 9.55306E-05-2.87338E-05-2.86242E-05 1.08388E-06-1.97294E-19-2.15056E-19
 -1      3090 9.55170E-05-2.87921E-05-2.85959E-05 1.09607E-06-2.06072E-19 1.17878E-20
 -1      3091 9.58419E-05-2.87580E-05-2.87533E-05 9.98314E-07-2.41111E-19 1.76875E-20
 -1      3092 9.54728E-05-2.88213E-05-2.85635E-05 1.08943E-06-2.56187E-19 7.02481E-20
 -1      3093 9.54664E-05-2.88456E-05-2.85507E-05 1.06766E-06-2.05100E-19 6.79492E-20
 -1      3094 9.57604E-05-2.88892E-05-2.86616E-05 1.04583E-06-1.87716E-19-2.19405E-19
 -1      3095 9.54235E-05-2.88445E-05-2.85334E-05 1.03797E-06-2.32936E-19 3.09137E-20
 -1      3096 9.54223E-05-2.88447E-05-2.85317E-05 1.00159E-06-1.47051E-19 8.31911E-20
 -1      3097 9.56768E-05-2.89323E-05-2.86068E-05 1.02162E-06-1.99858E-19 2.95638E-19
 -1      3098 9.53820E-05-2.88225E-05-2.85259E-05 9.64850E-07-1.20558E-19 7.78803E-20
 -1      3099 9.53845E-05-2.88053E-05-2.85322E-05 9.27973E-07-2.17516E-19 4.23104E-20
 -1      3100 9.55961E-05-2.89142E-05-2.85796E-05 9.64296E-07-1.17076E-19 2.28055E-19
 -1      3101 9.53469E-05-2.87676E-05-2.85349E-05 8.96069E-07-6.31111E-19-9.22756E-20
 -1      3102 9.53522E-05-2.87370E-05-2.85474E-05 8.69255E-07-5.80283E-19 2.39637E-22
 -1      3103 9.55199E-05-2.88521E-05-2.85732E-05 9.02549E-07-3.79945E-19 3.23700E-19
 -1      3104 9.53164E-05-2.86870E-05-2.85568E-05 8.51288E-07-4.46839E-19 1.24915E-19
 -1      3105 9.53238E-05-2.86452E-05-2.85743E-05 8.42820E-07-2.63415E-19-5.84749E-21
 -1      3106 9.54477E-05-2.87567E-05-2.85828E-05 8.58019E-07-4.25060E-19 5.28968E-20
 -1      3107 9.52882E-05-2.85840E-05-2.85893E-05 8.46178E-07-1.66846E-19 1.86872E-21
 -1      3108 9.52974E-05-2.85319E-05-2.86112E-05 8.63051E-07-2.68660E-19-7.53881E-20
 -1      3109 9.53770E-05-2.86333E-05-2.86051E-05 8.47678E-07-3.43428E-19-7.21167E-20
 -1      3110 9.52598E-05-2.84592E-05-2.86310E-05 8.94218E-07-4.70323E-19 1.93303E-19
 -1      3111 9.52706E-05-2.83965E-05-2.86574E-05 9.42866E-07-6.63618E-19 5.78789E-19
 -1      3112 9.53043E-05-2.84831E-05-2.86380E-05 8.85731E-07-3.13269E-19 3.76536E-20
 -1      3113 9.52283E-05-2.83107E-05-2.86815E-05 1.00803E-06-8.59606E-19 7.36236E-19
 -1      3114 9.52405E-05-2.82365E-05-2.87126E-05 1.09484E-06-9.61595E-19 7.69863E-19
 -1      3115 9.52247E-05-2.83047E-05-2.86801E-05 9.85031E-07-6.93560E-19 1.53552E-19
 -1      3116 9.51900E-05-2.81355E-05-2.87408E-05 1.20028E-06-1.13443E-18 8.22890E-19
 -1      3117 9.52036E-05-2.80484E-05-2.87769E-05 1.33187E-06-7.55521E-19 4.42783E-19
 -1      3118 9.51322E-05-2.80942E-05-2.87304E-05 1.15808E-06-1.06507E-18 4.56623E-19
 -1      3119 9.51408E-05-2.79294E-05-2.88087E-05 1.48418E-06-2.54568E-19 2.37441E-19
 -1      3120 9.51556E-05-2.78283E-05-2.88502E-05 1.66747E-06-4.77754E-19 3.85761E-19
 -1      3121 9.50194E-05-2.78466E-05-2.87878E-05 1.41759E-06-6.85524E-19 5.34696E-19
 -1      3122 9.50760E-05-2.76889E-05-2.88848E-05 1.87355E-06-6.28425E-19 4.95149E-19
 -1      3123 9.50918E-05-2.75730E-05-2.89316E-05 2.11558E-06-3.12755E-19 1.99934E-19
 -1      3124 9.48778E-05-2.75569E-05-2.88508E-05 1.77673E-06-4.61053E-19 3.98671E-19
 -1      3125 9.49901E-05-2.74118E-05-2.89677E-05 2.38242E-06-2.67339E-19-2.57654E-19
 -1      3126 9.50071E-05-2.72824E-05-2.90191E-05 2.68983E-06 1.56982E-19-7.91609E-19
 -1      3127 9.46976E-05-2.72210E-05-2.89168E-05 2.24882E-06-8.18605E-19 8.75053E-20
 -1      3128 9.48782E-05-2.71002E-05-2.90543E-05 3.02419E-06 6.81241E-19-9.57621E-19
 -1      3129 9.48974E-05-2.69619E-05-2.91087E-05 3.40238E-06 5.66362E-19-6.64842E-19
 -1      3130 9.44688E-05-2.68389E-05-2.89817E-05 2.84687E-06 3.46985E-19 4.99122E-19
 -1      3131 9.47376E-05-2.67642E-05-2.91392E-05 3.81026E-06 2.30174E-19 2.01942E-19
 -1      3132 9.47627E-05-2.66276E-05-2.91934E-05 4.26209E-06 1.29022E-20 1.36224E-18
 -1      3133 9.41825E-05-2.64177E-05-2.90386E-05 3.58275E-06 9.17652E-19 9.74871E-19
 -1      3134 9.45720E-05-2.64278E-05-2.92134E-05 4.74821E-06-5.63369E-19 1.57682E-18
 -1      3135 9.46122E-05-2.63144E-05-2.92622E-05 5.27223E-06-3.42243E-19 1.52873E-18
 -1      3136 9.38345E-05-2.59775E-05-2.90772E-05 4.46642E-06 1.63001E-19 1.63877E-18
 -1      3137 9.43991E-05-2.61398E-05-2.92634E-05 5.83969E-06-2.04661E-19 1.29296E-18
 -1      3138 9.44756E-05-2.60882E-05-2.92991E-05 6.42786E-06-1.22625E-20 9.99226E-19
 -1      3139 9.34320E-05-2.55613E-05-2.90824E-05 5.50564E-06-4.20758E-19 2.14990E-18
 -1      3140 9.42649E-05-2.59880E-05-2.92707E-05 7.07810E-06 5.43082E-19 1.01196E-18
 -1      3141 9.44209E-05-2.60645E-05-2.92836E-05 7.71271E-06 5.52753E-19 1.52159E-18
 -1      3142 9.30052E-05-2.52480E-05-2.90341E-05 6.70681E-06 2.35793E-19 1.82201E-18
 -1      3143 9.42679E-05-2.61220E-05-2.92125E-05 8.44556E-06 6.23950E-19 2.08422E-18
 -1      3144 9.45844E-05-2.64335E-05-2.91917E-05 9.09473E-06 8.26065E-19 1.88690E-18
 -1      3145 9.26289E-05-2.51738E-05-2.89071E-05 8.07737E-06 1.06606E-18 2.15178E-18
 -1      3146 9.45964E-05-2.67808E-05-2.90654E-05 9.90664E-06 5.15418E-19 2.13539E-18
 -1      3147 9.52148E-05-2.74887E-05-2.90035E-05 1.05156E-05 9.62498E-19 2.43097E-18
 -1      3148 9.24555E-05-2.55603E-05-2.86740E-05 9.62844E-06 1.15027E-18 2.51112E-18
 -1      3149 9.55848E-05-2.83212E-05-2.88163E-05 1.13895E-05 1.01365E-18 2.43241E-18
 -1      3150 9.67294E-05-2.96474E-05-2.87194E-05 1.18605E-05 1.79911E-18 1.67331E-18
 -1      3151 9.27685E-05-2.67488E-05-2.83133E-05 1.13707E-05 8.37641E-19 2.57901E-18
 -1      3152 9.77804E-05-3.12252E-05-2.84870E-05 1.27292E-05 1.89134E-18 9.26786E-19
 -1      3153 9.97543E-05-3.34231E-05-2.83947E-05 1.28813E-05 2.01546E-18 1.57841E-18
 -1      3154 9.40583E-05-2.92312E-05-2.78294E-05 1.32812E-05 1.51018E-18 7.82936E-19
 -1      3155 1.01977E-04-3.60007E-05-2.81878E-05 1.34930E-05 2.19862E-18 1.44324E-18
 -1      3156 1.05060E-04-3.91878E-05-2.82048E-05 1.29881E-05 1.99771E-18 1.13606E-18
 -1      3157 9.71393E-05-3.36593E-05-2.72991E-05 1.51671E-05 1.86359E-18 5.98526E-19
 -1      3158 1.09120E-04-4.29283E-05-2.82028E-05 1.27778E-05 1.48600E-18 1.16644E-18
 -1      3159 1.13322E-04-4.66767E-05-2.85602E-05 1.09406E-05 3.81138E-19 1.06728E-18
 -1      3160 1.03077E-04-4.05086E-05-2.69702E-05 1.63443E-05 1.45236E-18-2.75974E-19
 -1      3161 1.21519E-04-5.21282E-05-2.97616E-05-9.62826E-06 1.52185E-18 4.71185E-19
 -1      3162 1.17139E-04-4.90067E-05-2.90035E-05-1.28197E-05 1.07738E-18 4.17495E-19
 -1      3163 1.11750E-04-4.49555E-05-2.86181E-05-1.46404E-05 1.57550E-18 8.38867E-19
 -1      3164 1.07807E-04-4.12178E-05-2.83999E-05-1.61418E-05 2.36973E-18 8.01521E-19
 -1      3165 1.11694E-04-4.76653E-05-2.76712E-05-1.82324E-05 1.61534E-18-1.31753E-19
 -1      3166 1.04353E-04-3.77089E-05-2.85385E-05-1.62222E-05 1.90865E-18 1.03432E-18
 -1      3167 1.01504E-04-3.45493E-05-2.86194E-05-1.65558E-05 2.14318E-18 1.10162E-18
 -1      3168 1.03041E-04-3.91107E-05-2.75530E-05-1.91790E-05 2.79494E-18 8.74095E-19
 -1      3169 9.95815E-05-3.19409E-05-2.89633E-05-1.58601E-05 1.38083E-18 1.55119E-18
 -1      3170 9.76725E-05-2.95338E-05-2.91706E-05-1.54776E-05 1.97144E-18 6.73556E-19
 -1      3171 9.79294E-05-3.23965E-05-2.81777E-05-1.78705E-05 2.04830E-18 1.16735E-18
 -1      3172 9.52208E-05-2.87631E-05-2.84804E-05-1.02766E-06 8.98331E-19-1.41561E-19
 -1      3173 9.52009E-05-2.87542E-05-2.84768E-05-1.06812E-06 6.74196E-19 9.06228E-20
 -1      3174 9.53711E-05-2.79565E-05-2.88959E-05-4.65581E-07 5.55188E-19-4.49313E-19
 -1      3175 9.54257E-05-2.76997E-05-2.90124E-05-1.34410E-07 5.84557E-19-4.18188E-19
 -1      3176 9.52282E-05-2.87499E-05-2.84896E-05-1.10043E-06 5.31989E-19-1.52848E-19
 -1      3177 9.52141E-05-2.87201E-05-2.84960E-05-1.12515E-06 6.38386E-19 1.69169E-19
 -1      3178 9.54739E-05-2.88498E-05-2.85553E-05-1.07339E-06 4.52044E-19 2.01372E-19
 -1      3179 9.52455E-05-2.86896E-05-2.85233E-05-1.13201E-06 4.46396E-19-2.36509E-20
 -1      3180 9.52411E-05-2.86303E-05-2.85443E-05-1.12124E-06 4.07724E-19-6.06468E-20
 -1      3181 9.55285E-05-2.87986E-05-2.86012E-05-1.10077E-06 5.74453E-19 8.51622E-20
 -1      3182 9.52209E-05-2.87428E-05-2.84889E-05-9.44728E-07 5.67162E-19-4.03574E-22
 -1      3183 9.51975E-05-2.87493E-05-2.84783E-05-9.86674E-07 7.90987E-19-1.00929E-19
 -1      3184 9.54261E-05-2.88465E-05-2.85357E-05-1.00840E-06 7.35981E-19 4.56098E-19
 -1      3185 9.52265E-05-2.86979E-05-2.85103E-05-8.74457E-07 3.31837E-19 3.76562E-19
 -1      3186 9.52010E-05-2.87160E-05-2.84946E-05-9.07408E-07 3.87021E-19-3.47255E-21
 -1      3187 9.53847E-05-2.88045E-05-2.85356E-05-9.36095E-07 4.41178E-19 2.77120E-19
 -1      3188 9.52367E-05-2.86338E-05-2.85419E-05-8.34186E-07 5.58084E-19-2.37515E-20
 -1      3189 9.52093E-05-2.86610E-05-2.85221E-05-8.50095E-07 6.26439E-19 2.65421E-19
 -1      3190 9.53486E-05-2.87337E-05-2.85502E-05-8.78985E-07 5.31334E-19-2.06002E-19
 -1      3191 9.52508E-05-2.85531E-05-2.85822E-05-8.37887E-07 3.16519E-19 2.39038E-19
 -1      3192 9.52211E-05-2.85883E-05-2.85586E-05-8.30157E-07 5.12279E-19 2.05694E-19
 -1      3193 9.53163E-05-2.86397E-05-2.85764E-05-8.54419E-07 4.70687E-19 5.48243E-20
 -1      3194 9.52692E-05-2.84570E-05-2.86309E-05-8.97709E-07 5.37304E-19 4.80789E-19
 -1      3195 9.52359E-05-2.84994E-05-2.86033E-05-8.60492E-07 2.80549E-19 4.39604E-19
 -1      3196 9.52857E-05-2.85251E-05-2.86123E-05-8.76586E-07 3.36186E-19 2.72748E-19
 -1      3197 9.52924E-05-2.83456E-05-2.86881E-05-1.02500E-06 4.03156E-19 2.51096E-19
 -1      3198 9.52539E-05-2.83947E-05-2.86561E-05-9.52762E-07 7.41314E-19 4.22391E-19
 -1      3199 9.52551E-05-2.83903E-05-2.86568E-05-9.57972E-07 5.17604E-19 4.41673E-19
 -1      3200 9.53218E-05-2.82188E-05-2.87545E-05-1.23086E-06-3.58866E-20 3.28994E-19
 -1      3201 9.52757E-05-2.82741E-05-2.87175E-05-1.11818E-06 1.10401E-19 1.08371E-19
 -1      3202 9.52224E-05-2.82345E-05-2.87095E-05-1.11032E-06 2.58963E-19 7.30664E-20
 -1      3203 9.53597E-05-2.80776E-05-2.88306E-05-1.52613E-06 3.18162E-19 3.25872E-19
 -1      3204 9.53029E-05-2.81380E-05-2.87879E-05-1.36782E-06 3.58300E-19 4.66152E-19
 -1      3205 9.51860E-05-2.80572E-05-2.87698E-05-1.34510E-06 1.76170E-19 3.77525E-19
 -1      3206 9.54097E-05-2.79256E-05-2.89165E-05-1.92087E-06 4.81057E-20 2.76888E-20
 -1      3207 9.53385E-05-2.79882E-05-2.88677E-05-1.71236E-06 9.40119E-20 3.60078E-19
 -1      3208 9.51452E-05-2.78589E-05-2.88372E-05-1.67356E-06 2.96563E-19 5.56483E-19
 -1      3209 9.54782E-05-2.77706E-05-2.90115E-05-2.42299E-06-3.34591E-19 5.96399E-19
 -1      3210 9.53873E-05-2.78302E-05-2.89567E-05-2.16124E-06-1.67020E-19 3.01988E-19
 -1      3211 9.51008E-05-2.76439E-05-2.89103E-05-2.10606E-06-3.02582E-19 1.03816E-18
 -1      3212 9.55758E-05-2.76283E-05-2.91136E-05-3.03612E-06-1.54178E-19 9.19433E-19
 -1      3213 9.54577E-05-2.76755E-05-2.90535E-05-2.72093E-06-2.80953E-19 5.83644E-19
 -1      3214 9.50568E-05-2.74220E-05-2.89865E-05-2.65096E-06-4.23377E-19 1.79467E-18
 -1      3215 9.57204E-05-2.75263E-05-2.92187E-05-3.75627E-06-5.92171E-20 9.32658E-19
 -1      3216 9.55643E-05-2.75453E-05-2.91550E-05-3.39236E-06 1.12965E-19 8.85654E-19
 -1      3217 9.50234E-05-2.72133E-05-2.90618E-05-3.31264E-06-9.76950E-20 9.75338E-19
 -1      3218 9.59425E-05-2.75101E-05-2.93204E-05-4.56719E-06-1.55737E-19 7.37870E-19
 -1      3219 9.57316E-05-2.74755E-05-2.92561E-05-4.16705E-06-1.51291E-19 7.19219E-19
 -1      3220 9.50207E-05-2.70531E-05-2.91299E-05-4.08878E-06-1.30488E-19 5.46614E-19
 -1      3221 9.62926E-05-2.76509E-05-2.94100E-05-5.43393E-06 4.01409E-20 1.23875E-18
 -1      3222 9.60011E-05-2.75243E-05-2.93494E-05-5.02169E-06 2.03084E-19 1.36867E-18
 -1      3223 9.50861E-05-2.69994E-05-2.91822E-05-4.96656E-06-1.89001E-19 1.40305E-18
 -1      3224 9.68517E-05-2.80538E-05-2.94773E-05-6.29404E-06-4.36116E-19 9.04386E-19
 -1      3225 9.64405E-05-2.77798E-05-2.94253E-05-5.91063E-06-1.03918E-19 1.28280E-18
 -1      3226 9.52842E-05-2.71420E-05-2.92086E-05-5.91737E-06-2.18622E-20 9.84384E-19
 -1      3227 9.77437E-05-2.88635E-05-2.95137E-05-7.04527E-06-6.46580E-19 5.79213E-19
 -1      3228 9.71562E-05-2.83685E-05-2.94745E-05-6.75494E-06-4.32367E-19 7.17274E-19
 -1      3229 9.57213E-05-2.76128E-05-2.91989E-05-6.88883E-06-3.76647E-19 7.22046E-19
 -1      3230 9.91439E-05-3.02582E-05-2.95190E-05-7.52802E-06 1.48180E-19 7.80342E-19
 -1      3231 9.83061E-05-2.94566E-05-2.94923E-05-7.42628E-06-9.42340E-20 9.72584E-19
 -1      3232 9.65620E-05-2.85919E-05-2.91478E-05-7.79133E-06-5.08499E-19 8.12243E-19
 -1      3233 1.01270E-04-3.24130E-05-2.95130E-05-7.50102E-06-4.29430E-19 9.60081E-19
 -1      3234 1.00103E-04-3.12326E-05-2.94883E-05-7.72294E-06 3.22724E-19 1.09227E-18
 -1      3235 9.80435E-05-3.02988E-05-2.90640E-05-8.47394E-06-3.44833E-20 1.96812E-18
 -1      3236 1.04327E-04-3.54056E-05-2.95536E-05-6.61867E-06-4.05152E-19 3.83891E-19
 -1      3237 1.02786E-04-3.38453E-05-2.95009E-05-7.33954E-06-7.97606E-19 5.64299E-19
 -1      3238 1.00468E-04-3.29461E-05-2.89861E-05-8.68418E-06 1.94317E-20 1.34990E-18
 -1      3239 1.08364E-04-3.90025E-05-2.97631E-05-4.40663E-06-6.07195E-19 5.84531E-19
 -1      3240 1.06536E-04-3.72669E-05-2.96220E-05-5.82724E-06-1.23758E-19 6.16046E-19
 -1      3241 1.04149E-04-3.66254E-05-2.90067E-05-8.00671E-06-4.27882E-19 8.02833E-19
 -1      3242 1.12965E-04-4.22881E-05-3.03479E-05-4.04447E-07-1.45220E-20-9.90881E-19
 -1      3243 1.11198E-04-4.09636E-05-3.00250E-05-2.63216E-06-4.36071E-19-2.39312E-19
 -1      3244 1.09202E-04-4.09927E-05-2.93118E-05-5.78823E-06-4.33285E-20 7.12188E-19
 -1      3245 1.16996E-04-4.33994E-05-3.15797E-05 5.40643E-06-1.04543E-18 1.17741E-18
 -1      3246 1.15914E-04-4.35390E-05-3.09645E-05 2.58746E-06-8.83075E-19 1.00582E-19
 -1      3247 1.15108E-04-4.47911E-05-3.02051E-05-1.29859E-06-1.05930E-18 4.77544E-19
 -1      3248 1.18717E-04-3.33951E-05-3.65648E-05 1.42814E-05 7.78635E-19 9.10574E-19
 -1      3249 1.20492E-04-3.86558E-05-3.52296E-05 1.36625E-05-2.11096E-19 1.10345E-18
 -1      3250 1.09982E-04-2.02062E-05-3.85181E-05 1.00745E-05 1.98738E-18 1.34540E-18
 -1      3251 1.12561E-04-2.50266E-05-3.79012E-05 1.34158E-05 1.60032E-18 3.01368E-19
 -1      3252 1.12520E-04-1.55115E-05-4.18937E-05-2.16652E-06 1.67670E-18 2.26939E-19
 -1      3253 1.12567E-04-1.53349E-05-4.20059E-05 3.26891E-06 2.04336E-18 3.44689E-19
 -1      3254 1.16981E-04-3.48940E-05-3.54126E-05-1.17116E-05-8.87499E-19-1.95239E-18
 -1      3255 1.14919E-04-2.95171E-05-3.65725E-05-1.16649E-05-7.94782E-19-1.78228E-18
 -1      3256 1.18529E-04-4.22491E-05-3.27634E-05-6.97204E-06 7.37729E-20-2.46500E-18
 -1      3257 1.17939E-04-3.91342E-05-3.37851E-05-9.34709E-06-6.19982E-19-1.99547E-18
 -1      3258 1.21318E-04-3.89054E-05-3.53218E-05-1.04941E-05-7.41167E-19-4.81652E-18
 -1      3259 1.15936E-04-4.36612E-05-3.09389E-05-2.68760E-07-9.88977E-21-1.68134E-18
 -1      3260 1.16960E-04-4.33323E-05-3.16019E-05-3.13745E-06 6.59792E-19-1.33430E-18
 -1      3261 1.20474E-04-4.50510E-05-3.23529E-05-3.80388E-06-8.32031E-19-3.75509E-18
 -1      3262 1.11298E-04-4.12443E-05-2.99517E-05 5.31350E-06-7.43315E-19-3.16572E-19
 -1      3263 1.13152E-04-4.26076E-05-3.02999E-05 2.94856E-06-1.23622E-19-8.61485E-19
 -1      3264 1.15899E-04-4.51437E-05-3.04010E-05 3.43338E-06-3.20928E-19-1.62236E-18
 -1      3265 1.06454E-04-3.72567E-05-2.95849E-05 8.73473E-06-6.13721E-19-1.82957E-19
 -1      3266 1.08408E-04-3.92033E-05-2.97077E-05 7.28251E-06-1.20632E-18-1.49869E-20
 -1      3267 1.10125E-04-4.14436E-05-2.95073E-05 8.43076E-06-1.24930E-18-5.45905E-19
 -1      3268 8.05492E-05-1.71563E-05-2.71572E-05-5.57720E-06-1.14233E-18-1.98920E-18
 -1      3269 7.97982E-05-1.67035E-05-2.70776E-05-2.08180E-06-1.88687E-19-5.52809E-19
 -1      3270 8.45723E-05-1.99780E-05-2.76237E-05-1.20408E-05-1.59601E-18-2.07447E-18
 -1      3271 8.23367E-05-1.85774E-05-2.74067E-05-9.40119E-06-1.49931E-18-1.98886E-18
 -1      3272 7.96476E-05-1.83066E-05-2.62340E-05-8.40096E-06-1.07845E-18-2.95041E-18
 -1      3273 7.99717E-05-1.69004E-05-2.70782E-05 2.34482E-06 4.24592E-20-4.88831E-19
 -1      3274 8.10030E-05-1.75792E-05-2.71559E-05 5.82506E-06 3.00614E-19-3.99773E-19
 -1      3275 7.77406E-05-1.70121E-05-2.59551E-05 3.04442E-07-9.01174E-19-1.07212E-18
 -1      3276 9.25389E-05-4.32821E-05-2.06297E-05-3.35155E-05 2.22328E-18 1.90466E-18
 -1      3277 1.06378E-04-5.17095E-05-2.36091E-05-3.05696E-05 2.32325E-18 3.86505E-18
 -1      3278 1.21478E-04-2.47684E-05-4.13878E-05 1.53855E-05 2.61426E-18 4.23914E-19
 -1      3279 1.18418E-04-1.90879E-05-4.33894E-05 1.22735E-05 2.27794E-18 4.60786E-19
 -1      3280 1.33451E-04-6.02355E-05-3.14607E-05 9.33997E-06-6.83291E-19-4.27434E-19
 -1      3281 1.26119E-04-5.88879E-05-2.88571E-05 1.42081E-05 7.45865E-19-4.86303E-19
 -1      3282 9.52106E-05-2.42746E-05-3.04016E-05 4.28293E-06 1.12560E-18-9.19443E-19
 -1      3283 9.46416E-05-2.27395E-05-3.08058E-05 4.78651E-06 1.10389E-18-9.92474E-19
 -1      3284 9.49307E-05-2.35907E-05-3.05707E-05 3.70501E-06 8.69855E-19-9.24617E-19
 -1      3285 9.52326E-05-2.51989E-05-3.00285E-05 3.00376E-06 9.96368E-19-8.31062E-19
 -1      3286 9.54127E-05-2.73488E-05-2.91773E-05 2.81345E-07 6.83307E-19-6.12847E-19
 -1      3287 9.54748E-05-2.69399E-05-2.93561E-05 8.40741E-07 8.01511E-19-6.33989E-19
 -1      3288 9.56952E-05-2.73374E-05-2.93012E-05 2.33188E-07 5.65412E-19-3.89828E-19
 -1      3289 1.16523E-04-5.46236E-05-2.61439E-05-2.30174E-05 1.93959E-18 1.50299E-18
 -1      3290 1.25737E-04-5.67345E-05-2.97815E-05-1.32094E-05 1.05956E-18 4.74272E-20
 -1      3291 9.67855E-05-2.76019E-05-2.96338E-05-1.42308E-05 1.25325E-18-8.20212E-20
 -1      3292 4.67418E-05-1.43516E-05-1.34182E-05-6.43006E-06 1.00440E-18-9.17972E-20
 -1      3293 5.11038E-05-1.79595E-05-1.40669E-05-1.84573E-05 1.45068E-18-2.06030E-18
 -1      3294 5.09793E-05-1.91218E-05-1.31444E-05 2.16239E-05-1.22952E-18 3.36209E-18
 -1      3295 4.61108E-05-1.47765E-05-1.32170E-05 7.99164E-06 2.40385E-19 2.88192E-18
 -1      3296 1.26682E-04-5.66276E-05-2.97305E-05-1.02263E-05-1.05974E-18 3.80373E-18
 -1      3297 1.30683E-04-5.41695E-05-3.33031E-05-7.06119E-07-3.28702E-19 4.57991E-18
 -1      3298 9.54933E-05-2.55669E-05-2.99556E-05-2.15121E-06-1.04718E-18-3.43715E-19
 -1      3299 9.55355E-05-2.62663E-05-2.96990E-05-1.33957E-06-1.00260E-18-3.87831E-19
 -1      3300 9.57132E-05-2.62048E-05-2.97903E-05-1.17850E-06-9.39239E-19-2.01217E-19
 -1      3301 9.78713E-05-2.89198E-05-2.95760E-05 1.19218E-05 2.40798E-19-6.86683E-19
 -1      3302 1.32034E-04-3.88930E-05-4.00406E-05 1.27830E-05-2.67091E-18 3.45166E-20
 -1      3303 1.13081E-04-5.47147E-05-2.51508E-05 2.34401E-05 1.70757E-18-1.13050E-18
 -1      3304 1.02340E-04-4.97306E-05-2.20144E-05 2.94819E-05 2.50362E-18-1.40708E-18
 -1      3305 1.08193E-04-5.24828E-05-2.36044E-05-2.72598E-05-2.27354E-18 1.59547E-18
 -1      3306 1.18295E-04-5.65790E-05-2.67427E-05-2.04409E-05-1.54671E-18 3.97541E-18
 -1      3307 4.26208E-05-1.27858E-05-1.23113E-05 5.36139E-06-8.91687E-19-3.72567E-18
 -1      3308 4.35900E-05-1.30595E-05-1.27820E-05-6.81086E-06-1.32342E-18-3.48702E-18
 -1      3309 6.13425E-05-2.36096E-05-1.56272E-05-2.61093E-05 1.36378E-18-1.14815E-18
 -1      3310 7.54981E-05-3.32042E-05-1.82550E-05-3.28699E-05 2.24633E-18 2.87938E-19
 -1      3311 9.01822E-05-2.39149E-05-2.83244E-05-1.54236E-05-5.34860E-19-8.95270E-19
 -1      3312 8.74061E-05-2.21604E-05-2.80398E-05-1.41411E-05-1.38571E-18-2.01751E-19
 -1      3313 8.51799E-05-2.21415E-05-2.69973E-05-1.44979E-05-6.78086E-19-1.69475E-19
 -1      3314 1.33999E-04-5.58839E-05-3.34960E-05-5.79279E-07-6.13636E-19 9.91981E-19
 -1      3315 9.34741E-05-1.98509E-05-3.15489E-05-6.23915E-06-1.38819E-18-6.90984E-19
 -1      3316 5.67634E-05-2.36710E-05-1.38115E-05 2.73605E-05 5.72965E-19-3.14503E-18
 -1      3317 4.70146E-05-1.65349E-05-1.28037E-05 1.67476E-05-2.87727E-19-2.70818E-18
 -1      3318 9.23822E-05-1.83478E-05-3.17443E-05 1.81401E-06-1.61660E-20-1.76164E-18
 -1      3319 9.22626E-05-1.81456E-05-3.17764E-05 1.05892E-06-1.96824E-19-1.84007E-18
 -1      3320 1.26383E-04-5.91238E-05-2.90393E-05 1.75107E-05-2.53353E-18-2.84921E-19
 -1      3321 1.19583E-04-5.78339E-05-2.61548E-05 2.47483E-05-3.20435E-18-1.66582E-18
 -1      3322 1.25758E-04-5.68248E-05-2.96998E-05 9.70590E-06 9.72963E-19 4.63353E-19
 -1      3323 1.20802E-04-5.66131E-05-2.72536E-05 1.71783E-05 1.37937E-18-6.59945E-19
 -1      3324 1.14096E-04-5.29329E-05-2.62123E-05 1.93114E-05 1.46240E-18-9.71322E-19
 -1      3325 1.32677E-04-4.69221E-05-3.72692E-05 9.54938E-06-1.87427E-18-1.48675E-18
 -1      3326 1.33235E-04-5.35164E-05-3.42058E-05 9.79778E-07-5.64389E-19-4.26825E-19
 -1      3327 1.30071E-04-5.55686E-05-3.19121E-05-4.46159E-06 1.47064E-18 3.49560E-19
 -1      3328 9.22042E-05-1.80451E-05-3.17949E-05 4.09878E-07-3.30068E-19-1.81970E-18
 -1      3329 9.22000E-05-1.80411E-05-3.17954E-05-3.61888E-07-4.68108E-19-1.83659E-18
 -1      3330 9.31546E-05-1.96287E-05-3.14942E-05 6.29537E-07-2.11565E-19-1.63563E-18
 -1      3331 9.43175E-05-4.42949E-05-2.11774E-05 2.95153E-05 2.27338E-18-1.80881E-18
 -1      3332 1.28120E-04-4.90862E-05-3.38577E-05 5.16430E-06-2.90092E-19 3.25907E-18
 -1      3333 1.26104E-04-2.43048E-05-4.39152E-05-1.15037E-05 1.62037E-18-1.34181E-18
 -1      3334 1.33405E-04-4.91130E-05-3.61435E-05-1.02792E-05-8.45551E-19 2.22251E-18
 -1      3335 9.55884E-05-2.86687E-05-2.86833E-05-1.04939E-06 2.28576E-19-5.19540E-19
 -1      3336 9.52752E-05-2.85614E-05-2.85919E-05-1.07967E-06 3.18997E-19-3.62468E-19
 -1      3337 9.52856E-05-2.84597E-05-2.86341E-05-1.00574E-06 2.59580E-19-4.62297E-19
 -1      3338 1.13294E-04-4.95460E-05-2.74290E-05 1.51271E-05 8.88538E-19-6.52784E-19
 -1      3339 1.19804E-04-5.11958E-05-2.92316E-05 8.80975E-06 5.65009E-19 1.58091E-18
 -1      3340 1.24357E-04-5.34960E-05-3.04264E-05 4.88774E-06 1.03260E-18 1.26957E-18
 -1      3341 1.30631E-04-5.26897E-05-3.37150E-05-4.32657E-06-2.73466E-20 2.24421E-18
 -1      3342 9.37638E-05-2.70503E-05-2.86349E-05 1.48305E-05-5.35004E-20-1.73712E-18
 -1      3343 9.60655E-05-2.85468E-05-2.88620E-05 1.45966E-05-7.04063E-20-5.25455E-19
 -1      3344 1.12839E-04-5.41071E-05-2.50292E-05 2.68573E-05-2.36889E-18-1.37995E-18
 -1      3345 9.50272E-05-2.37262E-05-3.05585E-05-3.91882E-06-1.37686E-18-3.67449E-19
 -1      3346 9.51877E-05-2.46818E-05-3.02340E-05-2.87714E-06-1.21841E-18-3.85060E-19
 -1      3347 9.52766E-05-2.45555E-05-3.03030E-05-2.54123E-06-1.12640E-18-2.60831E-19
 -1      3348 9.53678E-05-2.74832E-05-2.90873E-05-1.56389E-05 9.36896E-19-5.05764E-19
 -1      3349 9.40373E-05-2.14144E-05-3.11316E-05-5.00622E-06-1.35238E-18-6.40353E-19
 -1      3350 1.18558E-04-4.00979E-05-3.36845E-05 1.14403E-05-7.67160E-19 1.75279E-18
 -1      3351 1.18813E-04-4.25630E-05-3.27156E-05 9.03261E-06-5.61861E-19 1.32387E-18
 -1      3352 1.16614E-04-1.50078E-05-4.39744E-05 6.83889E-06 2.30509E-18 4.36751E-19
 -1      3353 1.11911E-04-2.41289E-05-3.79524E-05-9.63856E-06-2.45640E-19-3.46910E-19
 -1      3354 1.09934E-04-2.00241E-05-3.85560E-05-6.01321E-06 1.05434E-18 5.56984E-19
 -1      3355 1.10520E-04-4.98314E-05-2.58492E-05-2.35798E-05 1.26139E-18 2.16279E-18
 -1      3356 1.04352E-04-3.55858E-05-2.95034E-05 9.86786E-06 1.92028E-19-6.12105E-20
 -1      3357 1.05265E-04-3.71948E-05-2.92197E-05 1.11852E-05-3.49964E-19-3.92789E-19
 -1      3358 1.02901E-04-3.40723E-05-2.94551E-05 1.07192E-05 7.91100E-19-4.22266E-19
 -1      3359 8.03799E-05-1.90309E-05-2.62311E-05 8.78483E-06-8.80049E-19-2.54026E-19
 -1      3360 8.30458E-05-1.93136E-05-2.73967E-05 9.45460E-06 5.32688E-20 5.97264E-19
 -1      3361 8.54235E-05-2.08469E-05-2.76003E-05 1.19046E-05-1.31300E-18-4.14690E-19
 -1      3362 8.83493E-05-2.32354E-05-2.79843E-05 1.37339E-05-1.23916E-18-4.13307E-19
 -1      3363 9.10512E-05-2.49916E-05-2.82324E-05 1.47422E-05-9.97318E-19-8.85002E-19
 -1      3364 9.27120E-05-2.78667E-05-2.78347E-05 1.61634E-05-1.07633E-18-1.49729E-18
 -1      3365 8.61725E-05-2.33117E-05-2.69478E-05 1.44207E-05-1.59585E-18 6.87883E-21
 -1      3366 8.65810E-05-3.66067E-05-2.10666E-05-2.97056E-05 1.56121E-18 1.55796E-18
 -1      3367 8.50981E-05-4.02799E-05-1.87704E-05 3.56703E-05-2.11785E-18-6.85038E-20
 -1      3368 7.79951E-05-3.44305E-05-1.85402E-05 3.30727E-05-2.13045E-18-1.21761E-19
 -1      3369 9.50295E-05-4.45897E-05-2.14714E-05 3.23379E-05-2.40510E-18-1.25345E-18
 -1      3370 9.30482E-05-1.95055E-05-3.15271E-05-3.61789E-06-9.33589E-19-9.97328E-19
 -1      3371 9.34148E-05-2.01686E-05-3.14150E-05-4.23291E-06-1.10849E-18-9.21289E-19
 -1      3372 6.32601E-05-2.11329E-05-1.76247E-05-2.00331E-05 7.09893E-19-1.55531E-18
 -1      3373 9.36120E-05-2.64719E-05-2.88069E-05-1.57233E-05 7.05317E-19-1.05539E-18
 -1      3374 4.85076E-05-1.46302E-05-1.39630E-05-1.25611E-05-2.08608E-18-2.33739E-18
 -1      3375 5.50236E-05-1.78287E-05-1.57735E-05-1.76101E-05-2.29476E-18-2.21245E-18
 -1      3376 5.09798E-05-1.37164E-05-1.57673E-05-6.14940E-06-9.59185E-19-2.31129E-18
 -1      3377 9.25780E-05-2.71284E-05-2.80191E-05-1.69223E-05 5.10051E-19 1.93990E-20
 -1      3378 6.58347E-05-2.54468E-05-1.70733E-05-2.65868E-05-3.41945E-18-3.50137E-18
 -1      3379 6.95965E-05-3.08585E-05-1.61207E-05-3.18861E-05-4.00138E-18-4.54550E-18
 -1      3380 8.02580E-05-3.57847E-05-1.90800E-05-3.10457E-05-4.44428E-18-3.18437E-18
 -1      3381 9.27936E-05-1.90564E-05-3.16204E-05 3.12735E-06 3.24147E-19-1.49304E-18
 -1      3382 9.25560E-05-1.86422E-05-3.16881E-05 2.42482E-06 1.74209E-19-1.67056E-18
 -1      3383 9.33693E-05-2.00176E-05-3.14177E-05 1.80497E-06 7.78613E-20-1.56024E-18
 -1      3384 1.20965E-04-5.44533E-05-2.84259E-05-1.27226E-05-1.82904E-18 3.81414E-18
 -1      3385 1.20101E-04-4.52173E-05-3.20773E-05 5.66255E-06-1.10108E-18 2.27696E-18
 -1      3386 1.29452E-04-5.45819E-05-3.19415E-05 6.30889E-07 2.64311E-19 2.02539E-18
 -1      3387 6.14851E-05-2.32217E-05-1.59835E-05 2.39619E-05-1.64796E-18 2.32659E-18
 -1      3388 5.33377E-05-1.53223E-05-1.58375E-05 1.78368E-06 9.54566E-21 1.08738E-18
 -1      3389 1.31143E-04-3.95327E-05-3.94828E-05-1.09381E-05 3.65071E-19-1.35525E-20
 -1      3390 1.36009E-04-4.65336E-05-3.86338E-05-6.88892E-06-2.94265E-19-1.31947E-18
 -1      3391 1.33486E-04-5.00519E-05-3.57517E-05-3.59604E-06 3.70312E-19-1.36669E-18
 -1      3392 9.53494E-05-2.81698E-05-2.87824E-05-7.08476E-07 5.67108E-19-4.01972E-19
 -1      3393 9.56937E-05-2.80081E-05-2.90131E-05-4.67146E-07 4.54941E-19-4.06733E-19
 -1      3394 9.53184E-05-2.83333E-05-2.87096E-05-8.84280E-07 4.15747E-19-3.49378E-19
 -1      3395 5.18821E-05-1.56623E-05-1.50661E-05 1.09741E-05 5.12005E-19-2.93105E-18
 -1      3396 1.01982E-04-4.91940E-05-2.25194E-05-2.95028E-05-3.04540E-18-3.81694E-20
 -1      3397 1.06843E-04-4.93510E-05-2.45879E-05-2.34315E-05-2.89717E-18 2.71196E-18
 -1      3398 9.44834E-05-4.35621E-05-2.14569E-05-2.97475E-05-3.47156E-18-1.16250E-18
 -1      3399 9.34337E-05-2.02099E-05-3.14052E-05 4.24820E-06 6.98478E-19-1.14647E-18
 -1      3400 9.30765E-05-1.95552E-05-3.15192E-05 3.65928E-06 4.43321E-19-1.18213E-18
 -1      3401 9.37817E-05-2.08013E-05-3.12568E-05 2.84693E-06 4.55151E-19-1.20270E-18
 -1      3402 9.43426E-05-2.19807E-05-3.09917E-05 3.64258E-06 6.59965E-19-9.16092E-19
 -1      3403 1.21384E-04-3.14161E-05-3.86697E-05 1.44137E-05 9.05214E-19 1.13336E-18
 -1      3404 1.31014E-04-5.60609E-05-3.25118E-05 5.29248E-06-1.27717E-21-2.73385E-18
 -1      3405 1.30041E-04-5.82484E-05-3.06811E-05 1.13820E-05-1.34705E-18-1.53035E-18
 -1      3406 1.25208E-04-5.66574E-05-2.93061E-05 1.39128E-05-1.78766E-18-1.71140E-19
 -1      3407 9.80304E-05-2.98797E-05-2.92322E-05 1.33766E-05 1.04951E-18-1.59742E-20
 -1      3408 1.00173E-04-3.12970E-05-2.94671E-05 1.16383E-05 7.84332E-19-4.11861E-19
 -1      3409 1.01501E-04-3.28636E-05-2.94345E-05 1.13103E-05 1.21143E-18-3.75284E-19
 -1      3410 9.81285E-05-3.12753E-05-2.86997E-05 1.47386E-05 4.20793E-19-2.08875E-19
 -1      3411 9.53825E-05-2.65025E-05-2.95305E-05 1.38087E-06 8.00240E-19-7.26812E-19
 -1      3412 9.54332E-05-2.58890E-05-2.97900E-05 2.24316E-06 8.49586E-19-7.88825E-19
 -1      3413 9.53459E-05-2.51817E-05-3.00728E-05 2.61316E-06 8.47163E-19-7.80787E-19
 -1      3414 9.55826E-05-2.63962E-05-2.96537E-05 1.24725E-06 7.76131E-19-7.67420E-19
 -1      3415 6.79579E-05-2.80834E-05-1.66604E-05 2.74823E-05 1.39715E-18-1.93854E-18
 -1      3416 9.25352E-05-1.86093E-05-3.16927E-05-2.37566E-06-7.04057E-19-1.53926E-18
 -1      3417 9.27640E-05-1.90111E-05-3.16265E-05-3.09025E-06-8.56542E-19-1.30567E-18
 -1      3418 9.37427E-05-2.07607E-05-3.12641E-05-2.79840E-06-9.04508E-19-1.01218E-18
 -1      3419 1.17101E-04-2.66997E-05-3.88198E-05-1.17806E-05 1.24620E-19-2.23588E-18
 -1      3420 7.81853E-05-3.26644E-05-1.93446E-05 2.84666E-05 1.90892E-18-1.59089E-18
 -1      3421 6.70035E-05-2.45114E-05-1.81826E-05 2.33903E-05 7.33663E-19-1.79275E-18
 -1      3422 1.07589E-04-4.71598E-05-2.56374E-05 2.00140E-05 1.37238E-18-1.04264E-18
 -1      3423 9.61753E-05-2.78273E-05-2.92844E-05 2.39221E-07-9.96721E-19-2.89422E-19
 -1      3424 9.61711E-05-2.81442E-05-2.91589E-05 4.92834E-07-1.00310E-18-2.18985E-19
 -1      3425 9.61801E-05-2.84046E-05-2.90410E-05 6.55829E-07-7.53369E-19-1.38960E-19
 -1      3426 9.61504E-05-2.85992E-05-2.89527E-05 7.93516E-07-3.93625E-19-1.21473E-20
 -1      3427 9.63725E-05-2.82147E-05-2.92120E-05 4.71821E-07-7.47246E-19-1.25198E-19
 -1      3428 9.61165E-05-2.87489E-05-2.88679E-05 8.72853E-07-4.04274E-19 1.00341E-19
 -1      3429 9.60760E-05-2.88584E-05-2.88082E-05 9.32031E-07-3.68982E-19-1.43436E-19
 -1      3430 9.63494E-05-2.86790E-05-2.90037E-05 7.33292E-07-2.93470E-19-3.44358E-20
 -1      3431 9.60190E-05-2.89314E-05-2.87494E-05 9.56049E-07-2.52714E-19-3.72863E-19
 -1      3432 9.59755E-05-2.89817E-05-2.87112E-05 9.66177E-07-1.85038E-19-3.17460E-19
 -1      3433 9.62610E-05-2.89379E-05-2.88550E-05 8.53616E-07-3.37422E-19-2.60191E-19
 -1      3434 9.59075E-05-2.90018E-05-2.86726E-05 9.57425E-07-4.03863E-20-1.16642E-19
 -1      3435 9.58648E-05-2.90106E-05-2.86507E-05 9.40870E-07-2.19327E-20-6.67508E-20
 -1      3436 9.61386E-05-2.90528E-05-2.87532E-05 8.83336E-07 6.07957E-20-2.11010E-19
 -1      3437 9.57928E-05-2.89938E-05-2.86277E-05 9.16634E-07-1.15922E-19-8.85105E-21
 -1      3438 9.57523E-05-2.89732E-05-2.86181E-05 8.90105E-07-1.93573E-19-6.68102E-20
 -1      3439 9.60009E-05-2.90670E-05-2.86878E-05 8.62333E-07-1.24645E-19-2.38715E-19
 -1      3440 9.56795E-05-2.89302E-05-2.86071E-05 8.63419E-07-4.10553E-19-2.88572E-19
 -1      3441 9.56416E-05-2.88879E-05-2.86069E-05 8.39421E-07-3.44499E-19-1.52528E-19
 -1      3442 9.58582E-05-2.90098E-05-2.86508E-05 8.21107E-07-2.77185E-19-2.89704E-19
 -1      3443 9.55687E-05-2.88250E-05-2.86053E-05 8.20170E-07-3.83044E-19-4.44727E-19
 -1      3444 9.55324E-05-2.87654E-05-2.86124E-05 8.08293E-07-4.18490E-19-3.56269E-19
 -1      3445 9.57143E-05-2.89001E-05-2.86358E-05 7.82777E-07-4.15624E-19-4.98870E-19
 -1      3446 9.54581E-05-2.86858E-05-2.86181E-05 8.04245E-07-2.57503E-19-4.16908E-19
 -1      3447 9.54219E-05-2.86109E-05-2.86311E-05 8.12220E-07-3.23488E-19-2.67538E-19
 -1      3448 9.55688E-05-2.87488E-05-2.86379E-05 7.65153E-07-1.79630E-19-6.35017E-19
 -1      3449 9.53434E-05-2.85151E-05-2.86426E-05 8.29850E-07-3.46198E-19-1.87340E-19
 -1      3450 9.53051E-05-2.84250E-05-2.86606E-05 8.64346E-07-3.07440E-19-5.22516E-20
 -1      3451 9.54175E-05-2.85605E-05-2.86533E-05 7.82567E-07-3.60039E-19-4.93658E-19
 -1      3452 9.52181E-05-2.83117E-05-2.86766E-05 9.09447E-07-7.09139E-19-6.83272E-20
 -1      3453 9.51749E-05-2.82050E-05-2.86989E-05 9.76663E-07-9.41294E-19-3.97288E-19
 -1      3454 9.52536E-05-2.83350E-05-2.86792E-05 8.47258E-07-4.53579E-19-4.47475E-19
 -1      3455 9.50740E-05-2.80717E-05-2.87184E-05 1.05481E-06-7.53173E-19-1.14785E-19
 -1      3456 9.50224E-05-2.79461E-05-2.87443E-05 1.16086E-06-7.34748E-19 4.36744E-20
 -1      3457 9.50675E-05-2.80685E-05-2.87131E-05 9.70420E-07-5.70053E-19-1.92038E-19
 -1      3458 9.49009E-05-2.77892E-05-2.87660E-05 1.27767E-06-7.42870E-19 5.99474E-19
 -1      3459 9.48368E-05-2.76421E-05-2.87949E-05 1.42874E-06-2.30967E-19 4.97036E-19
 -1      3460 9.48471E-05-2.77550E-05-2.87523E-05 1.16290E-06-2.45070E-19 3.27971E-19
 -1      3461 9.46868E-05-2.74578E-05-2.88172E-05 1.58998E-06-3.32442E-19 6.51246E-19
 -1      3462 9.46057E-05-2.72866E-05-2.88479E-05 1.79231E-06-8.56565E-19 4.70013E-19
 -1      3463 9.45781E-05-2.73872E-05-2.87938E-05 1.43553E-06-1.62467E-19 8.73572E-19
 -1      3464 9.44183E-05-2.70718E-05-2.88687E-05 2.00385E-06-7.71090E-19 4.81259E-19
 -1      3465 9.43148E-05-2.68752E-05-2.88993E-05 2.26356E-06-4.29557E-19 7.66935E-19
 -1      3466 9.42441E-05-2.69580E-05-2.88336E-05 1.79913E-06-6.37598E-19 8.82885E-19
 -1      3467 9.40804E-05-2.66281E-05-2.89153E-05 2.53132E-06-1.99062E-20 8.68043E-19
 -1      3468 9.39495E-05-2.64075E-05-2.89429E-05 2.85402E-06 9.07048E-19 7.02158E-19
 -1      3469 9.38267E-05-2.64628E-05-2.88656E-05 2.26442E-06-3.07932E-20 9.68276E-19
 -1      3470 9.36582E-05-2.61300E-05-2.89493E-05 3.18393E-06 1.16668E-18 6.21043E-19
 -1      3471 9.34960E-05-2.58914E-05-2.89695E-05 3.57442E-06 8.94989E-19 8.60182E-19
 -1      3472 9.33064E-05-2.59019E-05-2.88815E-05 2.84191E-06 9.31008E-19 1.00937E-18
 -1      3473 9.31392E-05-2.55911E-05-2.89594E-05 3.97277E-06 2.98452E-19 4.88440E-19
 -1      3474 9.29457E-05-2.53489E-05-2.89656E-05 4.43483E-06-4.28253E-19 5.14718E-19
 -1      3475 9.26646E-05-2.52849E-05-2.88692E-05 3.54233E-06 2.73082E-19 3.07013E-20
 -1      3476 9.25179E-05-2.50435E-05-2.89296E-05 4.90941E-06-3.16077E-19 6.37711E-19
 -1      3477 9.23012E-05-2.48254E-05-2.89126E-05 5.44625E-06-1.13859E-19 1.21433E-18
 -1      3478 9.18867E-05-2.46366E-05-2.88118E-05 4.37836E-06-1.19124E-21-1.44281E-19
 -1      3479 9.18050E-05-2.45482E-05-2.88383E-05 6.00903E-06-8.87078E-20 1.23006E-18
 -1      3480 9.15896E-05-2.44035E-05-2.87861E-05 6.62470E-06 6.61223E-19 1.45407E-18
 -1      3481 9.09681E-05-2.40064E-05-2.86865E-05 5.36899E-06 1.16030E-19 7.55401E-19
 -1      3482 9.10420E-05-2.42122E-05-2.86571E-05 7.29684E-06 1.13766E-18 1.89338E-18
 -1      3483 9.08824E-05-2.42233E-05-2.85555E-05 7.99906E-06 1.30258E-18 1.98798E-18
 -1      3484 8.99251E-05-2.34813E-05-2.84634E-05 6.54849E-06 1.10660E-18 1.36951E-18
 -1      3485 9.03281E-05-2.42121E-05-2.83526E-05 8.81885E-06 1.05522E-18 1.87882E-18
 -1      3486 9.03307E-05-2.45103E-05-2.81872E-05 9.62205E-06 1.29063E-18 2.16413E-18
 -1      3487 8.88126E-05-2.32055E-05-2.81053E-05 7.98171E-06 1.19091E-18 1.50389E-18
 -1      3488 8.98638E-05-2.48267E-05-2.78896E-05 1.06548E-05 9.23364E-19 1.44707E-18
 -1      3489 9.02214E-05-2.56151E-05-2.76512E-05 1.15787E-05 7.87514E-19 1.38483E-18
 -1      3490 8.77555E-05-2.34087E-05-2.75691E-05 9.78699E-06 8.41941E-19 7.47820E-19
 -1      3491 9.00275E-05-2.64828E-05-2.72420E-05 1.29168E-05 3.62068E-19 4.47306E-19
 -1      3492 9.10700E-05-2.80573E-05-2.69406E-05 1.39623E-05 1.08862E-18-4.47337E-19
 -1      3493 8.70101E-05-2.44564E-05-2.68108E-05 1.21577E-05 3.41478E-19-1.69722E-19
 -1      3494 9.14888E-05-2.97935E-05-2.64199E-05 1.57228E-05 1.66772E-18-9.50766E-19
 -1      3495 9.37026E-05-3.25932E-05-2.61120E-05 1.68049E-05 1.61787E-18-1.02090E-18
 -1      3496 8.70453E-05-2.68952E-05-2.58015E-05 1.53541E-05 7.19018E-19-5.75688E-19
 -1      3497 9.66685E-05-3.64930E-05-2.56667E-05 1.88235E-05 1.55889E-18-1.02194E-18
 -1      3498 1.00687E-04-4.10628E-05-2.55121E-05 1.96821E-05 1.26904E-18-1.17884E-18
 -1      3499 9.95585E-05-4.34535E-05-2.41251E-05 2.35146E-05 1.32293E-18-1.97390E-18
 -1      3500 8.99312E-05-3.24847E-05-2.46463E-05 1.97480E-05 1.48679E-18-2.37278E-18
 -1      3501 1.15614E-04-5.33326E-05-2.67340E-05 2.15958E-05-1.75737E-18 5.33717E-19
 -1      3502 1.06369E-04-4.94915E-05-2.41447E-05 2.81801E-05-2.06210E-18-1.53848E-18
 -1      3503 1.00600E-04-3.89487E-05-2.62994E-05-2.17302E-05 2.75239E-18 2.03542E-18
 -1      3504 9.69998E-05-3.47191E-05-2.65701E-05-2.10627E-05 3.24090E-18 2.01904E-18
 -1      3505 9.52547E-05-3.19842E-05-2.70201E-05-1.94912E-05 1.95987E-18 9.82056E-19
 -1      3506 9.33953E-05-2.91136E-05-2.74864E-05-1.83631E-05 1.06572E-18 1.12267E-18
 -1      3507 8.89635E-05-2.64769E-05-2.68755E-05-1.82196E-05-1.20476E-19 1.59942E-18
 -1      3508 9.11375E-05-3.12063E-05-2.57131E-05-2.17997E-05 1.86820E-18 2.20525E-18
 -1      3509 9.55357E-05-2.88554E-05-2.85754E-05-8.86054E-07 7.66165E-19-7.22039E-20
 -1      3510 9.55559E-05-2.88862E-05-2.85730E-05-9.15998E-07 6.09816E-19 3.09473E-19
 -1      3511 1.24210E-04-4.34368E-05-3.48341E-05 1.09350E-05 4.02863E-19 2.28065E-18
 -1      3512 9.56145E-05-2.89198E-05-2.85819E-05-9.47354E-07 6.75706E-19 3.62409E-19
 -1      3513 9.56380E-05-2.89311E-05-2.85883E-05-9.78624E-07 6.58117E-19 3.49673E-19
 -1      3514 9.57499E-05-2.89711E-05-2.86210E-05-8.91847E-07 8.19602E-19-9.17187E-20
 -1      3515 9.57822E-05-2.89011E-05-2.86629E-05-1.03348E-06 3.77874E-19-2.31371E-20
 -1      3516 9.58129E-05-2.88475E-05-2.86968E-05-1.02303E-06 3.45218E-19-3.18371E-19
 -1      3517 9.54606E-05-2.87582E-05-2.85847E-05-8.42605E-07 3.65265E-19-9.60585E-20
 -1      3518 9.54783E-05-2.88042E-05-2.85755E-05-8.61215E-07 5.59256E-19-6.15839E-20
 -1      3519 9.56356E-05-2.88832E-05-2.86094E-05-8.42966E-07 7.75873E-19 4.66025E-20
 -1      3520 9.53875E-05-2.86341E-05-2.86064E-05-8.33287E-07 3.43809E-19 7.98035E-22
 -1      3521 9.54037E-05-2.86927E-05-2.85918E-05-8.32656E-07 4.87159E-19 1.24371E-19
 -1      3522 9.55227E-05-2.87581E-05-2.86143E-05-8.13768E-07 3.40800E-19-1.00386E-19
 -1      3523 9.53134E-05-2.84850E-05-2.86383E-05-8.71646E-07 2.80032E-19-4.59915E-21
 -1      3524 9.53291E-05-2.85556E-05-2.86190E-05-8.45097E-07 2.77252E-19 5.30751E-20
 -1      3525 9.54085E-05-2.86016E-05-2.86321E-05-8.19760E-07 3.30643E-19-2.82155E-20
 -1      3526 9.52345E-05-2.83108E-05-2.86789E-05-9.69813E-07 3.35553E-19 2.12444E-19
 -1      3527 9.52507E-05-2.83933E-05-2.86554E-05-9.11299E-07 3.49355E-19 5.22233E-20
 -1      3528 9.52884E-05-2.84150E-05-2.86602E-05-8.74067E-07 1.43839E-19-1.38863E-19
 -1      3529 9.51465E-05-2.81101E-05-2.87269E-05-1.13932E-06 3.33699E-19 2.01057E-19
 -1      3530 9.51642E-05-2.82049E-05-2.86996E-05-1.04307E-06 3.85839E-19 2.65329E-19
 -1      3531 9.51563E-05-2.81976E-05-2.86964E-05-9.88603E-07 3.63529E-19-1.00256E-19
 -1      3532 9.50450E-05-2.78812E-05-2.87811E-05-1.39154E-06 4.55744E-19 4.67196E-20
 -1      3533 9.50650E-05-2.79885E-05-2.87504E-05-1.25192E-06 3.30566E-19 2.67377E-19
 -1      3534 9.50054E-05-2.79471E-05-2.87387E-05-1.17482E-06 4.72476E-19 1.68488E-19
 -1      3535 9.49262E-05-2.76246E-05-2.88397E-05-1.73771E-06 1.27292E-19 6.91571E-19
 -1      3536 9.49487E-05-2.77435E-05-2.88062E-05-1.54933E-06 5.56350E-19 4.18521E-19
 -1      3537 9.48286E-05-2.76615E-05-2.87848E-05-1.44419E-06 3.44517E-19 4.85948E-19
 -1      3538 9.47883E-05-2.73446E-05-2.89001E-05-2.18836E-06-7.84305E-19 1.31814E-18
 -1      3539 9.48121E-05-2.74716E-05-2.88648E-05-1.94652E-06-4.47154E-19 7.24946E-19
 -1      3540 9.46192E-05-2.73414E-05-2.88318E-05-1.80820E-06-3.66970E-19 9.09526E-19
 -1      3541 9.46330E-05-2.70525E-05-2.89581E-05-2.75245E-06-1.47190E-19 7.61331E-19
 -1      3542 9.46549E-05-2.71803E-05-2.89230E-05-2.45376E-06-4.01586E-19 9.45706E-19
 -1      3543 9.43727E-05-2.69921E-05-2.88754E-05-2.27809E-06-2.93276E-19 3.75706E-19
 -1      3544 9.44692E-05-2.67713E-05-2.90077E-05-3.43582E-06 2.86677E-19 3.68847E-19
 -1      3545 9.44820E-05-2.68862E-05-2.89755E-05-3.07931E-06 2.62242E-19 8.18827E-19
 -1      3546 9.40891E-05-2.66277E-05-2.89097E-05-2.86432E-06 2.36237E-20 9.74335E-20
 -1      3547 9.43181E-05-2.65414E-05-2.90406E-05-4.23941E-06-3.07525E-19 3.42991E-19
 -1      3548 9.43079E-05-2.66201E-05-2.90153E-05-3.82779E-06-3.66748E-20 2.46666E-19
 -1      3549 9.37767E-05-2.62758E-05-2.89266E-05-3.57587E-06 1.48999E-19-1.34501E-19
 -1      3550 9.42212E-05-2.64291E-05-2.90460E-05-5.15674E-06-5.82105E-19 3.25466E-19
 -1      3551 9.41630E-05-2.64342E-05-2.90326E-05-4.69828E-06-7.01596E-19 9.78554E-20
 -1      3552 9.34580E-05-2.59843E-05-2.89154E-05-4.41960E-06-7.29300E-19-9.41962E-19
 -1      3553 9.42529E-05-2.65366E-05-2.90116E-05-6.17077E-06-2.36269E-19 6.08015E-19
 -1      3554 9.41042E-05-2.64118E-05-2.90159E-05-5.68168E-06-1.36113E-19 9.31418E-19
 -1      3555 9.31793E-05-2.58308E-05-2.88633E-05-5.39969E-06-5.12369E-19-9.79707E-19
 -1      3556 9.45369E-05-2.70140E-05-2.89261E-05-7.24832E-06-2.75639E-19 8.23235E-19
 -1      3557 9.42295E-05-2.66779E-05-2.89527E-05-6.75671E-06-2.36332E-19 7.89378E-19
 -1      3558 9.30242E-05-2.59339E-05-2.87561E-05-6.51676E-06-6.98721E-19 4.18985E-19
 -1      3559 9.52682E-05-2.80683E-05-2.87842E-05-8.32848E-06-1.23716E-18 1.35545E-18
 -1      3560 9.46989E-05-2.74113E-05-2.88339E-05-7.88170E-06-7.28672E-19 1.02673E-18
 -1      3561 9.31344E-05-2.64670E-05-2.85814E-05-7.76456E-06-8.23002E-19 1.08577E-18
 -1      3562 9.67324E-05-2.99599E-05-2.85983E-05-9.29731E-06 6.20998E-19 1.17817E-18
 -1      3563 9.57593E-05-2.88503E-05-2.86612E-05-8.97552E-06-2.73098E-19 1.05727E-18
 -1      3564 9.37374E-05-2.76711E-05-2.83354E-05-9.11768E-06-2.94250E-19 3.76948E-19
 -1      3565 9.93067E-05-3.29555E-05-2.84176E-05-9.93124E-06 2.13590E-20 8.65113E-19
 -1      3566 9.77635E-05-3.12753E-05-2.84637E-05-9.87410E-06 6.76171E-19 1.37695E-18
 -1      3567 9.51801E-05-2.98558E-05-2.80376E-05-1.04951E-05 3.63238E-19 6.31814E-19
 -1      3568 1.03425E-04-3.72477E-05-2.83537E-05-9.82585E-06-7.30559E-19 5.69039E-19
 -1      3569 1.01158E-04-3.49398E-05-2.83188E-05-1.02702E-05-7.38373E-19 6.11250E-19
 -1      3570 9.79448E-05-3.33589E-05-2.77534E-05-1.16906E-05-3.44309E-19 2.91012E-19
 -1      3571 1.09323E-04-4.25149E-05-2.86456E-05-8.19926E-06-4.31818E-19 1.54864E-18
 -1      3572 1.06392E-04-3.98837E-05-2.84014E-05-9.49653E-06-4.92493E-19 1.78399E-18
 -1      3573 1.02638E-04-3.84292E-05-2.76312E-05-1.21912E-05-1.27611E-18 3.21833E-19
 -1      3574 1.16626E-04-4.74494E-05-2.96795E-05-4.05301E-06-1.95707E-18 2.06494E-18
 -1      3575 1.13528E-04-4.53844E-05-2.90568E-05-6.56412E-06-9.55192E-19 1.91886E-18
 -1      3576 1.09722E-04-4.47094E-05-2.80227E-05-1.09010E-05-1.16914E-18 3.28001E-18
 -1      3577 1.04669E-04-4.44941E-05-2.55896E-05-2.39235E-05 2.40297E-18 2.94761E-18
 -1      3578 1.26473E-04-4.48941E-05-3.52180E-05-7.96205E-06-5.09537E-19-2.98420E-18
 -1      3579 1.25161E-04-3.88741E-05-3.71444E-05-1.05304E-05-9.64294E-20-1.89054E-18
 -1      3580 1.08272E-04-4.07689E-05-2.88162E-05 1.22295E-05-1.27147E-18-1.19229E-18
 -1      3581 1.11182E-04-4.35060E-05-2.90258E-05 1.07118E-05-1.04828E-18-1.32371E-18
 -1      3582 8.33444E-05-3.08082E-05-2.23928E-05-2.57056E-05 2.00559E-18 1.67114E-18
 -1      3583 9.64931E-05-4.00835E-05-2.42886E-05-2.68800E-05 1.98784E-18 3.72623E-18
 -1      3584 7.80312E-05-1.92625E-05-2.51371E-05-1.16621E-05-6.42479E-19-3.23605E-18
 -1      3585 7.53890E-05-1.76236E-05-2.48002E-05-7.71854E-06-8.77716E-19-1.84032E-18
 -1      3586 7.40112E-05-1.66979E-05-2.45758E-05-1.78454E-06-1.61042E-18-9.73026E-19
 -1      3587 7.43016E-05-1.69113E-05-2.45835E-05 2.84285E-06-1.24796E-18-1.70350E-18
 -1      3588 7.16615E-05-1.70778E-05-2.33281E-05-5.39016E-06-8.84878E-19-9.29354E-19
 -1      3589 6.18389E-05-1.76909E-05-1.85908E-05-1.42568E-05 8.47825E-19-1.33625E-18
 -1      3590 6.98330E-05-2.30093E-05-1.99618E-05-2.12876E-05 6.38190E-19-1.64753E-18
 -1      3591 1.15348E-04-4.64074E-05-2.94240E-05 8.77687E-06-1.04816E-18-1.92079E-18
 -1      3592 1.18478E-04-4.82456E-05-3.01067E-05 5.80314E-06-1.30957E-18-2.79771E-18
 -1      3593 1.12369E-04-4.59956E-05-2.85505E-05 1.34017E-05-1.54979E-18-2.24567E-18
 -1      3594 1.23507E-04-5.10035E-05-3.10834E-05 3.47255E-06-1.35991E-18-2.87243E-18
 -1      3595 1.25566E-04-4.98553E-05-3.24940E-05-5.27832E-07-8.85599E-19-3.86468E-18
 -1      3596 1.16706E-04-1.52693E-05-4.38176E-05-6.16508E-06 1.50454E-18-4.40192E-20
 -1      3597 9.22553E-05-1.81317E-05-3.17783E-05-1.00785E-06-6.53421E-19-1.95094E-18
 -1      3598 9.23664E-05-1.83239E-05-3.17474E-05-1.76617E-06-7.33629E-19-1.77268E-18
 -1      3599 9.33441E-05-1.99932E-05-3.14219E-05-1.74892E-06-7.16584E-19-1.67500E-18
 -1      3600 9.40202E-05-2.13570E-05-3.11357E-05-4.33563E-06-1.23808E-18-6.18492E-19
 -1      3601 9.56974E-05-2.89408E-05-2.86089E-05-1.00571E-06 3.47076E-19 1.80263E-19
 -1      3602 9.57246E-05-2.89252E-05-2.86269E-05-1.02507E-06 4.12487E-19 2.43756E-19
 -1      3603 9.59801E-05-2.89838E-05-2.87149E-05-9.64390E-07 3.06060E-19-3.40831E-19
 -1      3604 9.58658E-05-2.90108E-05-2.86540E-05-9.40863E-07 3.60959E-19-1.21792E-19
 -1      3605 9.45074E-05-2.24391E-05-3.08791E-05-3.33744E-06-1.07746E-18-5.68036E-19
 -1      3606 7.16295E-05-2.76170E-05-1.84397E-05 2.82628E-05-2.38731E-18 1.65330E-18
 -1      3607 6.38533E-05-2.09985E-05-1.82563E-05 1.99938E-05-2.11737E-18 1.53768E-18
 -1      3608 9.56807E-05-2.55258E-05-3.00623E-05-1.50738E-06-1.00448E-18-3.45151E-19
 -1      3609 9.58383E-05-2.62648E-05-2.98272E-05-8.82731E-07-8.71646E-19-4.14313E-19
 -1      3610 9.60427E-05-2.69158E-05-2.96171E-05-4.55281E-07-7.37850E-19-5.41170E-19
 -1      3611 9.60923E-05-2.74079E-05-2.94437E-05-4.09254E-08-8.90931E-19-3.68413E-19
 -1      3612 9.62803E-05-2.74591E-05-2.94952E-05 8.68179E-09-8.57193E-19-5.39568E-19
 -1      3613 5.74189E-05-1.55619E-05-1.77080E-05 8.66513E-06-7.05784E-19 3.49083E-19
 -1      3614 5.67722E-05-1.49549E-05-1.78577E-05-4.86491E-06 7.38626E-19-9.20090E-20
 -1      3615 1.24670E-04-4.90352E-05-3.24010E-05 3.55371E-06-7.29692E-19 2.86761E-18
 -1      3616 1.22451E-04-5.01254E-05-3.09653E-05-5.00269E-07-2.02586E-18 2.02792E-18
 -1      3617 9.59070E-05-2.73787E-05-2.93764E-05 1.05117E-07 4.22526E-19-3.72878E-19
 -1      3618 9.58841E-05-2.69064E-05-2.95514E-05 5.62163E-07 5.87028E-19-5.01196E-19
 -1      3619 8.52463E-05-2.39401E-05-2.62123E-05-1.68407E-05 3.41816E-20 1.12658E-18
 -1      3620 8.13852E-05-2.16125E-05-2.56929E-05-1.48504E-05-2.27774E-19-1.87509E-18
 -1      3621 7.77429E-05-2.09292E-05-2.42528E-05-1.46179E-05 1.85983E-19-2.59277E-18
 -1      3622 8.54525E-05-2.58780E-05-2.55155E-05-1.88907E-05 7.73831E-19 9.85846E-19
 -1      3623 1.14384E-04-5.04177E-05-2.71783E-05-1.49737E-05-1.54131E-18 3.98092E-18
 -1      3624 1.19770E-04-5.11812E-05-2.95758E-05-6.79340E-06-1.59912E-18 2.89759E-18
 -1      3625 8.75455E-05-3.70249E-05-2.13674E-05 2.68635E-05 2.03125E-18-2.42322E-18
 -1      3626 5.88846E-05-1.74086E-05-1.75407E-05 1.57111E-05-1.22661E-19-2.20223E-18
 -1      3627 5.43166E-05-1.40638E-05-1.71125E-05 5.46741E-06-4.82008E-19-2.49081E-18
 -1      3628 1.19838E-04-5.31868E-05-2.84383E-05 1.47304E-05-2.30952E-18-5.43233E-19
 -1      3629 1.13885E-04-4.96202E-05-2.75224E-05 1.74929E-05-1.82544E-18-1.57199E-18
 -1      3630 9.58632E-05-2.87744E-05-2.87530E-05-9.93698E-07 1.80751E-19-4.55701E-19
 -1      3631 9.58959E-05-2.86660E-05-2.88084E-05-9.29284E-07 4.63527E-20-5.64841E-19
 -1      3632 9.60847E-05-2.88619E-05-2.88122E-05-9.28359E-07 5.83884E-20-8.16466E-19
 -1      3633 6.42860E-05-1.68699E-05-2.00815E-05-7.72164E-06 1.77705E-19-3.46489E-19
 -1      3634 6.11358E-05-1.51709E-05-1.96014E-05 5.07671E-06-1.10108E-18-2.68918E-18
 -1      3635 5.50874E-05-1.35350E-05-1.74746E-05 7.95386E-07-6.89339E-19-2.78986E-18
 -1      3636 5.74676E-05-1.45440E-05-1.83094E-05-4.74459E-06-9.49617E-19-2.26224E-18
 -1      3637 9.31457E-05-1.96201E-05-3.14955E-05-5.79149E-07-5.36807E-19-1.73167E-18
 -1      3638 9.38820E-05-2.10575E-05-3.12217E-05 8.09001E-07-8.39460E-20-1.48828E-18
 -1      3639 9.38301E-05-2.09607E-05-3.12404E-05 2.48624E-07-2.79791E-19-1.60187E-18
 -1      3640 9.45607E-05-2.25234E-05-3.08653E-05-2.68710E-06-9.60380E-19-6.86807E-19
 -1      3641 9.50506E-05-2.36892E-05-3.05873E-05-2.70985E-06-1.07064E-18-4.37694E-19
 -1      3642 9.53496E-05-2.46457E-05-3.03103E-05-1.96669E-06-1.03102E-18-3.45075E-19
 -1      3643 1.05320E-04-3.83965E-05-2.87059E-05 1.32043E-05-1.33560E-18-1.07085E-18
 -1      3644 1.05443E-04-3.99912E-05-2.81438E-05 1.55643E-05-1.86142E-18-1.77343E-18
 -1      3645 1.03122E-04-3.61962E-05-2.86531E-05 1.40564E-05-7.98125E-19-9.45065E-19
 -1      3646 8.58498E-05-3.33144E-05-2.24751E-05 2.37615E-05 1.33626E-18-2.04926E-18
 -1      3647 6.83015E-05-2.16810E-05-1.97549E-05 1.78174E-05 9.38486E-20-1.98415E-18
 -1      3648 1.01836E-04-3.38421E-05-2.91403E-05 1.25686E-05 8.52601E-19 6.47186E-20
 -1      3649 7.61153E-05-1.83551E-05-2.48244E-05 8.48313E-06-1.37750E-18-9.90565E-19
 -1      3650 7.90995E-05-2.01832E-05-2.51435E-05 1.23361E-05-1.75937E-18 3.55522E-19
 -1      3651 7.24492E-05-1.76580E-05-2.33709E-05 6.62449E-06-9.55143E-19-1.00809E-18
 -1      3652 9.57298E-05-2.64042E-05-2.97204E-05 9.91899E-07 7.19042E-19-6.64263E-19
 -1      3653 9.56576E-05-2.58517E-05-2.99021E-05 1.57120E-06 7.08721E-19-7.72001E-19
 -1      3654 9.58877E-05-2.63878E-05-2.97850E-05 8.28520E-07 5.53037E-19-4.39022E-19
 -1      3655 1.25333E-04-3.40466E-05-3.95363E-05-1.26985E-05 3.03555E-19-2.26063E-18
 -1      3656 1.22043E-04-2.56698E-05-4.15368E-05-1.16758E-05 1.02745E-18-1.27831E-18
 -1      3657 1.00881E-04-4.58544E-05-2.34588E-05 2.96749E-05-1.52622E-18-2.09707E-18
 -1      3658 9.45607E-05-4.06081E-05-2.27325E-05 2.94145E-05-1.45584E-18-1.66345E-18
 -1      3659 1.04875E-04-4.59509E-05-2.51909E-05 2.44901E-05-1.53563E-18-1.35692E-18
 -1      3660 9.18264E-05-2.90060E-05-2.70092E-05 1.77845E-05-1.14365E-18-1.47808E-18
 -1      3661 9.55465E-05-3.11228E-05-2.75093E-05 1.77203E-05-9.10289E-19-1.54838E-18
 -1      3662 8.82097E-05-3.81696E-05-2.12766E-05-2.77190E-05-4.36026E-18-2.08738E-18
 -1      3663 6.21498E-05-2.09516E-05-1.72375E-05-2.16946E-05-2.29551E-18-2.87155E-18
 -1      3664 7.04863E-05-2.53646E-05-1.92425E-05-2.32672E-05-3.29635E-18-2.25597E-18
 -1      3665 6.03659E-05-1.81136E-05-1.80613E-05-1.58043E-05-1.46013E-18-2.02377E-18
 -1      3666 9.51463E-05-2.41298E-05-3.04255E-05 3.16143E-06 8.10433E-19-9.08785E-19
 -1      3667 9.48286E-05-2.32820E-05-3.06702E-05 3.35576E-06 7.70364E-19-9.49780E-19
 -1      3668 9.45767E-05-2.26267E-05-3.08392E-05 3.10162E-06 6.17371E-19-9.19586E-19
 -1      3669 9.53236E-05-2.49370E-05-3.01776E-05 2.33366E-06 7.60733E-19-8.48515E-19
 -1      3670 9.41014E-05-2.15201E-05-3.11216E-05 1.76364E-06 2.21769E-19-1.34652E-18
 -1      3671 9.39644E-05-2.12260E-05-3.11807E-05 1.24951E-06 2.58695E-20-1.42228E-18
 -1      3672 9.46250E-05-2.23891E-05-3.09388E-05 8.40941E-07-3.70118E-20-1.31316E-18
 -1      3673 9.60009E-05-2.63008E-05-2.98699E-05-7.19158E-07-8.87726E-19-5.71897E-19
 -1      3674 9.56479E-05-2.84235E-05-2.88147E-05-8.63187E-07 4.33188E-19-6.70482E-19
 -1      3675 7.99913E-05-3.23041E-05-2.05033E-05 2.86051E-05-2.23982E-18 4.90273E-19
 -1      3676 6.59792E-05-1.91545E-05-1.98167E-05 1.35133E-05-1.80120E-18 1.02385E-19
 -1      3677 9.43969E-05-2.21409E-05-3.09777E-05-2.36205E-06-8.70674E-19-9.59745E-19
 -1      3678 9.49600E-05-2.33309E-05-3.06942E-05-1.81172E-06-8.73208E-19-8.13166E-19
 -1      3679 9.41839E-05-2.16667E-05-3.10779E-05-1.93978E-06-8.01038E-19-1.27072E-18
 -1      3680 9.54698E-05-2.46816E-05-3.03314E-05-1.63488E-06-1.01480E-18-4.89425E-19
 -1      3681 9.59555E-05-2.80835E-05-2.90925E-05-4.97493E-07 4.91692E-19-4.38723E-19
 -1      3682 9.59730E-05-2.77818E-05-2.92158E-05-2.17168E-07 4.76575E-19-4.70773E-19
 -1      3683 9.61190E-05-2.74127E-05-2.94479E-05 5.05475E-08 4.85837E-19-5.71599E-19
 -1      3684 9.89845E-05-3.51457E-05-2.73833E-05 1.80363E-05-1.21803E-18-1.64891E-18
 -1      3685 9.90358E-05-3.34523E-05-2.81246E-05 1.62050E-05-9.40197E-19-1.17683E-18
 -1      3686 1.16179E-04-1.84037E-05-4.25944E-05-9.18813E-06 1.48098E-18-5.24710E-19
 -1      3687 9.65301E-05-2.80165E-05-2.93583E-05 2.92392E-07-6.83205E-19-3.92395E-19
 -1      3688 9.65412E-05-2.83356E-05-2.92346E-05 4.75471E-07-5.20388E-19-2.36648E-19
 -1      3689 9.65487E-05-2.85928E-05-2.91202E-05 5.77926E-07-1.32228E-19-1.09575E-19
 -1      3690 9.65162E-05-2.87837E-05-2.90300E-05 6.76689E-07-3.95865E-20 5.46776E-20
 -1      3691 9.66809E-05-2.84199E-05-2.92552E-05 4.27768E-07-2.20887E-19-1.44960E-19
 -1      3692 9.64727E-05-2.89263E-05-2.89458E-05 7.23052E-07-1.93810E-19 6.81426E-20
 -1      3693 9.64166E-05-2.90258E-05-2.88822E-05 7.64617E-07-1.58114E-19 8.31136E-20
 -1      3694 9.66444E-05-2.88576E-05-2.90528E-05 5.90804E-07-1.05079E-19 2.92500E-19
 -1      3695 9.63436E-05-2.90873E-05-2.88224E-05 7.74601E-07-3.06207E-21 1.24490E-19
 -1      3696 9.62761E-05-2.91223E-05-2.87797E-05 7.80994E-07 3.77609E-20-4.69391E-20
 -1      3697 9.65286E-05-2.90866E-05-2.89054E-05 6.61363E-07-1.24464E-19 2.46025E-19
 -1      3698 9.61874E-05-2.91268E-05-2.87393E-05 7.70599E-07-1.09097E-19-1.01697E-19
 -1      3699 9.61155E-05-2.91161E-05-2.87130E-05 7.59015E-07-1.84869E-19-1.35604E-20
 -1      3700 9.63683E-05-2.91671E-05-2.88023E-05 6.74082E-07-9.55353E-20 1.62014E-19
 -1      3701 9.60194E-05-2.90802E-05-2.86879E-05 7.40639E-07-2.55313E-19-1.52173E-19
 -1      3702 9.59465E-05-2.90367E-05-2.86742E-05 7.24149E-07-4.09557E-19-2.05788E-19
 -1      3703 9.61852E-05-2.91420E-05-2.87344E-05 6.56835E-07-2.59092E-19 1.36267E-19
 -1      3704 9.58466E-05-2.89712E-05-2.86612E-05 7.07219E-07-4.35965E-19-2.56280E-19
 -1      3705 9.57734E-05-2.89026E-05-2.86573E-05 6.95803E-07-3.65597E-19-2.39309E-19
 -1      3706 9.59910E-05-2.90408E-05-2.86943E-05 6.31047E-07-5.12433E-19-9.15789E-20
 -1      3707 9.56701E-05-2.88136E-05-2.86536E-05 6.87587E-07-1.95348E-19-6.18889E-20
 -1      3708 9.55955E-05-2.87240E-05-2.86575E-05 6.89064E-07-2.01499E-19-2.10809E-19
 -1      3709 9.57899E-05-2.88816E-05-2.86759E-05 6.13183E-07-2.51867E-19 5.14708E-20
 -1      3710 9.54865E-05-2.86141E-05-2.86610E-05 6.95437E-07-1.86617E-19-2.92033E-19
 -1      3711 9.54074E-05-2.85049E-05-2.86708E-05 7.16265E-07-1.43059E-19-2.67225E-19
 -1      3712 9.55798E-05-2.86740E-05-2.86743E-05 6.16169E-07-8.01614E-20-3.21709E-19
 -1      3713 9.52883E-05-2.83737E-05-2.86797E-05 7.42177E-07-3.44446E-19-1.20949E-19
 -1      3714 9.52007E-05-2.82439E-05-2.86941E-05 7.87969E-07-7.44588E-19-6.31741E-21
 -1      3715 9.53541E-05-2.84210E-05-2.86854E-05 6.50626E-07-3.30400E-19-1.89596E-19
 -1      3716 9.50651E-05-2.80893E-05-2.87066E-05 8.37921E-07-5.00895E-19-2.97700E-21
 -1      3717 9.49634E-05-2.79363E-05-2.87243E-05 9.13925E-07-2.77418E-19 3.10003E-19
 -1      3718 9.51021E-05-2.81205E-05-2.87055E-05 7.25626E-07-4.72598E-19 5.97092E-19
 -1      3719 9.48034E-05-2.77546E-05-2.87386E-05 9.92247E-07-1.69399E-20 3.71414E-19
 -1      3720 9.46809E-05-2.75750E-05-2.87581E-05 1.10352E-06 2.15532E-19 6.95025E-19
 -1      3721 9.48097E-05-2.77666E-05-2.87309E-05 8.49554E-07 9.28604E-20 6.29626E-19
 -1      3722 9.44869E-05-2.73617E-05-2.87723E-05 1.21446E-06 3.89247E-19 8.75066E-19
 -1      3723 9.43358E-05-2.71518E-05-2.87917E-05 1.36595E-06 1.54924E-19 1.01810E-18
 -1      3724 9.44595E-05-2.73514E-05-2.87578E-05 1.03029E-06 4.07697E-19 6.94215E-19
 -1      3725 9.40966E-05-2.69026E-05-2.88029E-05 1.51371E-06-3.54558E-19 1.42958E-18
 -1      3726 9.39080E-05-2.66591E-05-2.88196E-05 1.71020E-06-3.52412E-19 1.62424E-18
 -1      3727 9.40311E-05-2.68662E-05-2.87809E-05 1.27534E-06 4.11822E-19 7.85815E-19
 -1      3728 9.36113E-05-2.63705E-05-2.88242E-05 1.89891E-06-3.83441E-19 1.71215E-18
 -1      3729 9.33754E-05-2.60921E-05-2.88346E-05 2.14491E-06 1.69585E-19 1.60617E-18
 -1      3730 9.35013E-05-2.63033E-05-2.87935E-05 1.59179E-06-1.42380E-19 2.02027E-18
 -1      3731 9.30075E-05-2.57629E-05-2.88273E-05 2.37870E-06 5.53240E-19 1.37680E-18
 -1      3732 9.27143E-05-2.54513E-05-2.88262E-05 2.67848E-06 5.91359E-19 8.22099E-19
 -1      3733 9.28440E-05-2.56580E-05-2.87866E-05 1.98633E-06 4.93759E-20 1.80459E-18
 -1      3734 9.22606E-05-2.50842E-05-2.87998E-05 2.96190E-06 4.00681E-19 5.51934E-19
 -1      3735 9.19012E-05-2.47469E-05-2.87798E-05 3.31992E-06 2.15468E-20 5.54586E-19
 -1      3736 9.20315E-05-2.49317E-05-2.87475E-05 2.46564E-06 1.18655E-19 6.85872E-19
 -1      3737 9.13466E-05-2.43509E-05-2.87247E-05 3.65917E-06 1.41580E-19 2.35267E-19
 -1      3738 9.09153E-05-2.40038E-05-2.86757E-05 4.08154E-06 1.88103E-19 5.75952E-19
 -1      3739 9.10341E-05-2.41353E-05-2.86587E-05 3.03802E-06 1.07736E-20 8.44165E-19
 -1      3740 9.02451E-05-2.35974E-05-2.85785E-05 4.48726E-06 2.88248E-19 8.01364E-19
 -1      3741 8.97432E-05-2.32700E-05-2.84870E-05 4.98498E-06 8.65694E-19 1.40877E-18
 -1      3742 8.98222E-05-2.32936E-05-2.84969E-05 3.71742E-06 4.81425E-19 1.66942E-18
 -1      3743 8.89436E-05-2.28849E-05-2.83301E-05 5.47787E-06 8.52531E-19 1.28721E-18
 -1      3744 8.83866E-05-2.26269E-05-2.81788E-05 6.07302E-06 1.00857E-18 1.70505E-18
 -1      3745 8.83667E-05-2.24511E-05-2.82305E-05 4.53188E-06 6.63647E-19 1.48477E-18
 -1      3746 8.74464E-05-2.23143E-05-2.79389E-05 6.69376E-06 1.13464E-18 5.70643E-19
 -1      3747 8.68753E-05-2.22049E-05-2.77064E-05 7.42968E-06 1.16959E-18 4.96293E-19
 -1      3748 8.66409E-05-2.16790E-05-2.78173E-05 5.53949E-06 5.93733E-19 4.59719E-19
 -1      3749 8.57889E-05-2.20433E-05-2.73529E-05 8.25510E-06 6.08076E-19 5.19718E-20
 -1      3750 8.52927E-05-2.22075E-05-2.70150E-05 9.21019E-06 4.32103E-19-2.12776E-19
 -1      3751 8.46242E-05-2.10862E-05-2.72017E-05 6.85532E-06 6.76769E-19-2.75531E-19
 -1      3752 8.40667E-05-2.23175E-05-2.65071E-05 1.03845E-05 3.00081E-19-6.91821E-19
 -1      3753 8.38243E-05-2.29597E-05-2.60390E-05 1.16847E-05 3.44122E-19-8.14325E-19
 -1      3754 8.23037E-05-2.08322E-05-2.63086E-05 8.69728E-06 9.80494E-20-8.05753E-19
 -1      3755 8.25350E-05-2.35517E-05-2.53225E-05 1.34299E-05 6.38496E-19-3.89705E-19
 -1      3756 8.28553E-05-2.49787E-05-2.47012E-05 1.52287E-05 8.87811E-19-3.28856E-19
 -1      3757 7.97310E-05-2.12045E-05-2.50312E-05 1.14788E-05 7.62192E-19-5.64155E-19
 -1      3758 8.21354E-05-2.64150E-05-2.39204E-05 1.77077E-05 8.74609E-19-1.18651E-18
 -1      3759 8.49161E-05-3.03376E-05-2.32583E-05 2.04106E-05 9.86297E-19-1.72598E-18
 -1      3760 7.69758E-05-2.61173E-05-2.15825E-05 2.13785E-05 6.36360E-19-1.38152E-18
 -1      3761 7.75977E-05-2.26859E-05-2.34342E-05 1.55839E-05 4.19258E-19-9.63665E-19
 -1      3762 1.21571E-04-5.24331E-05-2.97740E-05 9.80848E-06-1.93122E-18-2.08254E-18
 -1      3763 9.59301E-05-2.57271E-05-3.00850E-05-9.11830E-07-9.55069E-19-4.64251E-19
 -1      3764 9.61377E-05-2.64624E-05-2.98690E-05-4.71538E-07-8.44741E-19-4.93406E-19
 -1      3765 6.71041E-05-1.65473E-05-2.16126E-05-5.55750E-06-5.25068E-19-8.89385E-19
 -1      3766 7.11655E-05-1.91791E-05-2.22533E-05-1.38358E-05 3.83349E-19-1.97786E-18
 -1      3767 9.54225E-05-2.85606E-05-2.86531E-05-7.67947E-07 7.86737E-21 4.71525E-19
 -1      3768 9.54815E-05-2.86527E-05-2.86423E-05-7.52179E-07 1.34373E-19 1.62148E-19
 -1      3769 9.58677E-05-2.90122E-05-2.86508E-05-8.04476E-07 7.48678E-19-1.21317E-19
 -1      3770 9.59265E-05-2.90455E-05-2.86629E-05-8.25648E-07 5.81273E-19-2.26491E-19
 -1      3771 9.57219E-05-2.89003E-05-2.86361E-05-7.66261E-07 6.89507E-19 7.57177E-20
 -1      3772 9.57795E-05-2.89569E-05-2.86386E-05-7.83208E-07 9.32749E-19 3.49474E-20
 -1      3773 9.59388E-05-2.90307E-05-2.86763E-05-7.21676E-07 6.60612E-19-2.39980E-19
 -1      3774 9.52593E-05-2.83387E-05-2.86782E-05-8.33590E-07 1.58756E-19-2.49304E-20
 -1      3775 9.53227E-05-2.84475E-05-2.86627E-05-7.91799E-07 1.22599E-19 4.05285E-19
 -1      3776 9.53903E-05-2.84919E-05-2.86708E-05-7.19990E-07-7.38210E-20 5.63707E-19
 -1      3777 9.50773E-05-2.80807E-05-2.87107E-05-9.57471E-07 3.76021E-19-4.82854E-20
 -1      3778 9.51484E-05-2.82070E-05-2.86917E-05-8.83984E-07 2.16487E-19-2.20355E-19
 -1      3779 9.51816E-05-2.82311E-05-2.86926E-05-7.94909E-07 1.38434E-19 3.55482E-20
 -1      3780 9.48671E-05-2.77833E-05-2.87479E-05-1.15041E-06 7.95107E-20 1.96160E-19
 -1      3781 9.49495E-05-2.79284E-05-2.87265E-05-1.03966E-06 3.17730E-19 1.89356E-19
 -1      3782 9.49450E-05-2.79279E-05-2.87205E-05-9.25561E-07 6.83986E-20 4.09795E-20
 -1      3783 9.46189E-05-2.74440E-05-2.87867E-05-1.42348E-06-1.47473E-19 7.36245E-19
 -1      3784 9.47163E-05-2.76085E-05-2.87644E-05-1.26991E-06-1.17748E-20 3.30239E-19
 -1      3785 9.46688E-05-2.75786E-05-2.87511E-05-1.12241E-06-8.36649E-20 2.31607E-19
 -1      3786 9.43233E-05-2.70631E-05-2.88230E-05-1.78801E-06-1.94425E-19 5.83259E-19
 -1      3787 9.44386E-05-2.72459E-05-2.88017E-05-1.58612E-06 2.02701E-20 7.87225E-19
 -1      3788 9.43405E-05-2.71802E-05-2.87803E-05-1.39641E-06-1.56316E-19-2.73702E-20
 -1      3789 9.39732E-05-2.66461E-05-2.88513E-05-2.25561E-06 4.61464E-20 3.68937E-19
 -1      3790 9.41079E-05-2.68430E-05-2.88336E-05-2.00011E-06 1.36650E-19 6.93472E-19
 -1      3791 9.39479E-05-2.67332E-05-2.88028E-05-1.75927E-06 2.83408E-19 6.47064E-20
 -1      3792 9.35662E-05-2.62083E-05-2.88640E-05-2.83801E-06-5.47069E-19 5.18634E-19
 -1      3793 9.37187E-05-2.64096E-05-2.88535E-05-2.52403E-06-3.21200E-19 6.92678E-20
 -1      3794 9.34811E-05-2.62445E-05-2.88113E-05-2.22377E-06-2.55945E-20 4.24143E-19
 -1      3795 9.31088E-05-2.57794E-05-2.88509E-05-3.54714E-06-5.19020E-20 1.47172E-19
 -1      3796 9.32719E-05-2.59672E-05-2.88526E-05-3.17047E-06 7.49509E-20 6.47376E-19
 -1      3797 9.29351E-05-2.57312E-05-2.87965E-05-2.80434E-06-4.72473E-19 8.10268E-19
 -1      3798 9.26230E-05-2.54107E-05-2.87993E-05-4.39578E-06-8.96127E-20-3.60902E-19
 -1      3799 9.27801E-05-2.55552E-05-2.88194E-05-3.95279E-06 9.29756E-21 2.26927E-21
 -1      3800 9.23138E-05-2.52264E-05-2.87461E-05-3.51823E-06 1.95298E-20 7.68854E-19
 -1      3801 9.21556E-05-2.51844E-05-2.86936E-05-5.39885E-06-1.20240E-18-6.90788E-19
 -1      3802 9.22751E-05-2.52386E-05-2.87394E-05-4.88638E-06-7.47287E-19-8.24447E-19
 -1      3803 9.16362E-05-2.47860E-05-2.86445E-05-4.38779E-06-2.95239E-19 6.91688E-21
 -1      3804 9.17931E-05-2.52249E-05-2.85168E-05-6.57558E-06-1.03000E-18-1.68866E-19
 -1      3805 9.18195E-05-2.51185E-05-2.85958E-05-5.99074E-06-1.40366E-18-2.94079E-19
 -1      3806 9.09457E-05-2.44977E-05-2.84732E-05-5.44462E-06-1.65994E-18-4.08800E-19
 -1      3807 9.16834E-05-2.57148E-05-2.82534E-05-7.95026E-06-1.02458E-18 1.16042E-19
 -1      3808 9.15246E-05-2.53453E-05-2.83712E-05-7.29193E-06-5.08621E-19 1.89880E-19
 -1      3809 9.03240E-05-2.44934E-05-2.82115E-05-6.73548E-06-9.30089E-19-2.92487E-19
 -1      3810 9.20700E-05-2.69114E-05-2.78961E-05-9.54397E-06 3.61249E-19-1.25572E-18
 -1      3811 9.15797E-05-2.61363E-05-2.80521E-05-8.82065E-06-6.35064E-19-3.30479E-19
 -1      3812 8.99159E-05-2.49677E-05-2.78395E-05-8.32813E-06-5.74594E-19-1.00100E-18
 -1      3813 9.33362E-05-2.91670E-05-2.74619E-05-1.13497E-05-5.77670E-20 2.33180E-19
 -1      3814 9.22944E-05-2.77924E-05-2.76390E-05-1.05977E-05 2.57026E-19 1.07330E-19
 -1      3815 8.99652E-05-2.61992E-05-2.73448E-05-1.03066E-05-2.51877E-19-7.44381E-19
 -1      3816 9.60443E-05-3.28538E-05-2.70193E-05-1.32673E-05-6.93922E-19 1.73931E-19
 -1      3817 9.41519E-05-3.06773E-05-2.71718E-05-1.25557E-05-5.39007E-20 5.17311E-19
 -1      3818 9.08783E-05-2.85882E-05-2.67415E-05-1.27407E-05-4.83966E-19-5.60961E-20
 -1      3819 1.00921E-04-3.84469E-05-2.67256E-05-1.46640E-05-1.99288E-18 8.06246E-19
 -1      3820 9.79137E-05-3.53426E-05-2.67429E-05-1.44447E-05-1.79155E-18 3.36844E-20
 -1      3821 9.34534E-05-3.27574E-05-2.61303E-05-1.56143E-05-1.16814E-18-2.04641E-19
 -1      3822 1.11960E-04-4.68627E-05-2.78835E-05 1.59513E-05-1.76591E-18-1.99927E-18
 -1      3823 1.08016E-04-4.65354E-05-2.63417E-05 2.17788E-05-1.71373E-18-1.34815E-18
 -1      3824 1.02937E-04-4.28788E-05-2.57634E-05 2.29542E-05-1.70687E-18-1.78678E-18
 -1      3825 1.07707E-04-4.30744E-05-2.75613E-05 1.72830E-05-1.51692E-18-1.86992E-18
 -1      3826 6.60547E-05-1.58759E-05-2.14451E-05 1.33450E-06-9.48483E-19-1.91826E-18
 -1      3827 8.70471E-05-2.85196E-05-2.49994E-05-2.07463E-05 1.68977E-18 1.78157E-18
 -1      3828 7.71634E-05-2.51404E-05-2.22403E-05-2.20390E-05 1.21674E-18-5.00305E-19
 -1      3829 9.39328E-05-2.11468E-05-3.11977E-05-1.00919E-06-5.97407E-19-1.68961E-18
 -1      3830 9.40610E-05-2.14173E-05-3.11440E-05-1.52785E-06-6.66715E-19-1.53147E-18
 -1      3831 9.47299E-05-2.26778E-05-3.08688E-05-1.17516E-06-6.70167E-19-1.41858E-18
 -1      3832 1.30607E-04-5.15706E-05-3.38955E-05-7.33898E-07-9.83716E-20-1.55446E-18
 -1      3833 1.06653E-04-4.77963E-05-2.52981E-05-2.11538E-05-2.55006E-18 2.97230E-18
 -1      3834 1.08818E-04-4.59738E-05-2.68559E-05-1.51299E-05-2.21523E-18 3.07358E-18
 -1      3835 8.34514E-05-2.35403E-05-2.57822E-05 1.55194E-05-2.01362E-18-5.01283E-19
 -1      3836 8.75682E-05-2.58558E-05-2.62813E-05 1.72012E-05-1.42277E-18-1.19104E-18
 -1      3837 8.93494E-05-2.92455E-05-2.58354E-05 1.95157E-05-1.85212E-18-9.93192E-19
 -1      3838 7.50030E-05-2.14171E-05-2.29789E-05-1.70278E-05 1.13051E-18-2.35638E-18
 -1      3839 6.77699E-05-1.71250E-05-2.16440E-05 7.91296E-06-1.17063E-18-4.15973E-19
 -1      3840 9.38386E-05-2.09634E-05-3.12397E-05-1.05885E-07-3.22154E-19-1.55295E-18
 -1      3841 9.38766E-05-2.10487E-05-3.12231E-05-6.63331E-07-5.52377E-19-1.58680E-18
 -1      3842 9.46065E-05-2.23447E-05-3.09531E-05-5.08063E-07-4.99690E-19-1.46629E-18
 -1      3843 9.45673E-05-2.22410E-05-3.09773E-05 1.17112E-07-1.53621E-19-1.46431E-18
 -1      3844 9.63546E-05-2.71017E-05-2.96745E-05-1.86650E-07-7.45431E-19-4.42911E-19
 -1      3845 9.64404E-05-2.75993E-05-2.95094E-05 1.11374E-07-7.75997E-19-4.48073E-19
 -1      3846 9.65861E-05-2.76929E-05-2.95246E-05 1.31608E-07-5.65675E-19-2.39571E-19
 -1      3847 9.59284E-05-2.85211E-05-2.88911E-05-8.36922E-07 3.48026E-19-5.51285E-19
 -1      3848 9.59587E-05-2.83337E-05-2.89755E-05-6.86001E-07 5.03992E-19-4.96339E-19
 -1      3849 9.61896E-05-2.81469E-05-2.91634E-05-4.85497E-07 5.71968E-19-6.14308E-19
 -1      3850 9.44627E-05-2.23163E-05-3.09328E-05 2.56040E-06 5.31087E-19-8.95289E-19
 -1      3851 9.42551E-05-2.18482E-05-3.10363E-05 2.14364E-06 3.64013E-19-1.14333E-18
 -1      3852 9.48359E-05-2.28975E-05-3.08098E-05 1.56438E-06 3.63376E-19-9.97850E-19
 -1      3853 1.01605E-04-3.47510E-05-2.86093E-05 1.46316E-05-3.05944E-19-3.53429E-19
 -1      3854 8.65151E-05-3.41969E-05-2.24137E-05 2.64887E-05-1.57050E-18-2.50881E-19
 -1      3855 9.55746E-05-2.87480E-05-2.86381E-05-7.49494E-07 3.09793E-19-7.93402E-20
 -1      3856 9.56319E-05-2.88234E-05-2.86331E-05-7.53587E-07 4.73357E-19 1.60713E-20
 -1      3857 9.57626E-05-2.88939E-05-2.86590E-05-6.95154E-07 6.94481E-19 6.97302E-20
 -1      3858 9.55814E-05-2.87129E-05-2.86585E-05-6.90448E-07 8.92207E-20 1.66907E-19
 -1      3859 7.34515E-05-2.18627E-05-2.20958E-05 1.78058E-05-1.69591E-18 1.01254E-18
 -1      3860 6.84284E-05-1.98711E-05-2.08882E-05 1.47479E-05-1.28365E-19-2.22966E-18
 -1      3861 9.53322E-05-2.41805E-05-3.04993E-05-1.57293E-06-8.62097E-19-6.37894E-19
 -1      3862 9.56655E-05-2.50708E-05-3.02584E-05-1.13671E-06-9.07677E-19-5.68118E-19
 -1      3863 9.58120E-05-2.52309E-05-3.02458E-05-8.63112E-07-8.56083E-19-6.39633E-19
 -1      3864 9.52083E-05-2.37848E-05-3.06079E-05-1.32266E-06-7.55744E-19-9.94869E-19
 -1      3865 1.01594E-04-3.74892E-05-2.73467E-05 1.81694E-05-1.53860E-18-1.52253E-18
 -1      3866 1.04401E-04-4.03872E-05-2.74158E-05 1.77547E-05-1.73431E-18-1.81879E-18
 -1      3867 1.02739E-04-4.05721E-05-2.66963E-05 2.02860E-05-1.64536E-18-1.77673E-18
 -1      3868 9.72696E-05-3.52103E-05-2.66199E-05 1.98911E-05-1.48102E-18-1.51182E-18
 -1      3869 1.04359E-04-4.20941E-05-2.65123E-05-1.59528E-05-2.51757E-18 2.12100E-18
 -1      3870 9.81215E-05-3.89793E-05-2.54615E-05-1.88105E-05-2.87016E-18 7.63825E-19
 -1      3871 9.61639E-05-2.86035E-05-2.89571E-05-7.88085E-07 1.94648E-19-5.31491E-19
 -1      3872 6.52972E-05-1.61800E-05-2.08200E-05 8.55862E-06-6.33415E-19-2.60465E-18
 -1      3873 6.45657E-05-1.55708E-05-2.10407E-05 4.15919E-06-7.29319E-19-2.72658E-18
 -1      3874 9.50738E-05-2.33517E-05-3.07468E-05 2.38256E-07-6.17372E-20-1.44594E-18
 -1      3875 9.50768E-05-2.33568E-05-3.07463E-05-5.21787E-08-1.42324E-19-1.40379E-18
 -1      3876 7.96785E-05-2.55945E-05-2.29311E-05 2.11366E-05-1.86408E-18-3.42382E-19
 -1      3877 8.00391E-05-2.30269E-05-2.43928E-05 1.60189E-05-2.07325E-18-2.16083E-19
 -1      3878 9.61512E-05-2.90637E-05-2.87513E-05-8.71576E-07 2.07304E-19-3.67018E-19
 -1      3879 9.62083E-05-2.90220E-05-2.87920E-05-8.64251E-07 1.44395E-19-7.09916E-19
 -1      3880 9.62745E-05-2.89559E-05-2.88513E-05-8.48784E-07-7.25293E-21-6.22526E-19
 -1      3881 9.63239E-05-2.88525E-05-2.89131E-05-8.00794E-07-3.26144E-20-7.17894E-19
 -1      3882 9.64184E-05-2.90255E-05-2.88846E-05-7.56386E-07-1.01033E-20-5.00847E-19
 -1      3883 9.62879E-05-2.75151E-05-2.94797E-05-6.16689E-08 5.37926E-19-6.37123E-19
 -1      3884 9.62214E-05-2.70292E-05-2.96472E-05 2.90528E-07 4.56609E-19-5.65952E-19
 -1      3885 1.01359E-04-4.38495E-05-2.43553E-05-2.25418E-05-3.37328E-18 1.00057E-18
 -1      3886 9.08246E-05-3.36270E-05-2.45823E-05 2.31362E-05-1.97231E-18-7.80117E-19
 -1      3887 9.69988E-05-3.69216E-05-2.55948E-05 2.26091E-05-1.63496E-18-2.19607E-18
 -1      3888 9.60396E-05-2.65057E-05-2.98085E-05 5.66831E-07 4.84020E-19-5.71039E-19
 -1      3889 9.58936E-05-2.59268E-05-2.99810E-05 1.02990E-06 5.26569E-19-5.64051E-19
 -1      3890 9.62026E-05-2.66218E-05-2.98293E-05 4.36851E-07 5.10654E-19-6.50492E-19
 -1      3891 9.54267E-05-2.48928E-05-3.02323E-05 2.01476E-06 8.04149E-19-7.19185E-19
 -1      3892 6.27407E-05-1.52419E-05-2.03530E-05-3.65430E-06-8.11074E-19-2.37974E-18
 -1      3893 6.03985E-05-1.54783E-05-1.89406E-05-9.37252E-06-9.77832E-19-1.26488E-18
 -1      3894 6.54663E-05-1.83385E-05-2.01382E-05-1.31400E-05-1.46267E-18-1.51309E-18
 -1      3895 8.26644E-05-3.24684E-05-2.13482E-05-2.52939E-05-4.40934E-18-2.72586E-18
 -1      3896 9.45816E-05-4.01658E-05-2.33712E-05-2.43623E-05-3.71465E-18-8.27776E-19
 -1      3897 9.56385E-05-3.91171E-05-2.41939E-05-2.18234E-05-3.42754E-18-6.92621E-19
 -1      3898 9.50257E-05-2.35183E-05-3.06304E-05 2.38509E-06 5.73379E-19-8.18247E-19
 -1      3899 9.60122E-05-2.90729E-05-2.86871E-05-8.46965E-07 4.47892E-19-2.36916E-19
 -1      3900 9.60715E-05-2.90751E-05-2.87117E-05-8.61225E-07 2.77667E-19-2.94723E-19
 -1      3901 9.62743E-05-2.91204E-05-2.87821E-05-7.74681E-07 2.21045E-19-2.95158E-19
 -1      3902 9.61108E-05-2.91125E-05-2.87152E-05-7.54728E-07 5.19143E-19-3.66389E-19
 -1      3903 7.36444E-05-2.41971E-05-2.12346E-05-1.95136E-05-1.92567E-18-1.19430E-18
 -1      3904 7.81746E-05-2.85045E-05-2.11560E-05-2.35287E-05-3.25709E-18-2.37591E-18
 -1      3905 8.49632E-05-3.09997E-05-2.31247E-05-2.09369E-05-2.70055E-18-2.03218E-18
 -1      3906 9.51055E-05-2.34387E-05-3.07216E-05 5.15829E-07 5.57727E-22-1.23789E-18
 -1      3907 9.56073E-05-2.44064E-05-3.05006E-05 3.15767E-07 1.06244E-19-1.20941E-18
 -1      3908 9.51691E-05-2.36192E-05-3.06778E-05 8.74464E-07 1.73838E-19-1.21012E-18
 -1      3909 7.20200E-05-1.99366E-05-2.22881E-05 1.27308E-05-1.25422E-19-2.20081E-18
 -1      3910 9.62859E-05-2.65719E-05-2.98740E-05-3.40479E-07-7.59484E-19-4.11933E-19
 -1      3911 9.27585E-05-3.49043E-05-2.46097E-05-1.97460E-05-2.88166E-18-1.03260E-18
 -1      3912 9.63855E-05-2.82570E-05-2.92020E-05-5.00086E-07 4.79256E-19-5.84419E-19
 -1      3913 9.63809E-05-2.79388E-05-2.93259E-05-2.88599E-07 5.93154E-19-5.52504E-19
 -1      3914 9.64523E-05-2.75897E-05-2.95109E-05-1.01544E-07 6.01313E-19-3.96118E-19
 -1      3915 9.62214E-05-2.61191E-05-3.00398E-05-4.47769E-07-6.95441E-19-7.90394E-19
 -1      3916 9.64306E-05-2.68125E-05-2.98423E-05-1.58742E-07-5.45566E-19-6.13001E-19
 -1      3917 9.56062E-05-2.43698E-05-3.05134E-05-1.16905E-07-1.33007E-19-1.28768E-18
 -1      3918 9.50890E-05-2.33914E-05-3.07349E-05-2.72448E-07-2.64278E-19-1.35846E-18
 -1      3919 9.51269E-05-2.34888E-05-3.07111E-05-5.46422E-07-4.27445E-19-1.35215E-18
 -1      3920 9.54120E-05-2.46244E-05-3.03442E-05 1.62150E-06 5.47643E-19-6.87046E-19
 -1      3921 9.67892E-05-2.82602E-05-2.93670E-05 2.80146E-07-2.59502E-19-3.85729E-19
 -1      3922 9.67979E-05-2.85564E-05-2.92488E-05 3.96536E-07 3.09665E-21-2.01532E-19
 -1      3923 9.67897E-05-2.87885E-05-2.91412E-05 4.46438E-07 8.25963E-20-2.28664E-19
 -1      3924 9.67470E-05-2.89580E-05-2.90534E-05 5.08190E-07-1.32287E-19-1.53390E-19
 -1      3925 9.68797E-05-2.86447E-05-2.92436E-05 3.17931E-07-7.42393E-20-6.01077E-19
 -1      3926 9.66879E-05-2.90789E-05-2.89736E-05 5.27082E-07-2.30401E-19-1.61137E-19
 -1      3927 9.66155E-05-2.91573E-05-2.89106E-05 5.51863E-07-2.49956E-20-1.64761E-20
 -1      3928 9.68108E-05-2.90207E-05-2.90540E-05 3.98321E-07 1.30619E-20-2.68714E-19
 -1      3929 9.65256E-05-2.91979E-05-2.88536E-05 5.51326E-07 3.56835E-20 5.53055E-20
 -1      3930 9.64373E-05-2.92112E-05-2.88105E-05 5.54530E-07-1.25027E-20 5.31757E-20
 -1      3931 9.66620E-05-2.91973E-05-2.89151E-05 4.29184E-07-1.00697E-19-2.97482E-19
 -1      3932 9.63308E-05-2.91951E-05-2.87718E-05 5.44461E-07-1.11050E-19 6.36879E-20
 -1      3933 9.62348E-05-2.91619E-05-2.87445E-05 5.37749E-07-4.24666E-19-7.63572E-20
 -1      3934 9.64666E-05-2.92296E-05-2.88176E-05 4.30734E-07-9.53773E-20-2.87938E-19
 -1      3935 9.61194E-05-2.91048E-05-2.87203E-05 5.25443E-07-5.11175E-19 1.72192E-19
 -1      3936 9.60195E-05-2.90373E-05-2.87055E-05 5.17837E-07-1.95142E-19 4.40597E-19
 -1      3937 9.62465E-05-2.91590E-05-2.87533E-05 4.19125E-07-1.95152E-19 3.40135E-19
 -1      3938 9.58981E-05-2.89491E-05-2.86927E-05 5.09002E-07-3.31728E-19 5.33285E-21
 -1      3939 9.57947E-05-2.88543E-05-2.86875E-05 5.07521E-07-3.49525E-19-7.55244E-20
 -1      3940 9.60120E-05-2.90122E-05-2.87153E-05 4.06642E-07-4.29636E-19 3.25789E-19
 -1      3941 9.56666E-05-2.87400E-05-2.86836E-05 5.06496E-07-1.91261E-19-2.69594E-19
 -1      3942 9.55572E-05-2.86212E-05-2.86857E-05 5.16825E-07-1.30026E-19-1.56646E-19
 -1      3943 9.57650E-05-2.88051E-05-2.86977E-05 4.02987E-07-4.21776E-19-5.56135E-20
 -1      3944 9.54190E-05-2.84827E-05-2.86883E-05 5.27468E-07-4.45366E-20-3.16905E-19
 -1      3945 9.52995E-05-2.83401E-05-2.86959E-05 5.54004E-07-2.23949E-19-1.85106E-19
 -1      3946 9.55014E-05-2.85448E-05-2.86956E-05 4.15870E-07-2.27535E-19-3.01052E-19
 -1      3947 9.51446E-05-2.81758E-05-2.87029E-05 5.79219E-07-3.34728E-19 3.83061E-19
 -1      3948 9.50086E-05-2.80073E-05-2.87141E-05 6.26180E-07-3.12422E-19 4.31837E-19
 -1      3949 9.52115E-05-2.82328E-05-2.87044E-05 4.51234E-07 6.51061E-20 9.95202E-20
 -1      3950 9.48290E-05-2.78142E-05-2.87233E-05 6.68829E-07-3.43741E-19 7.31909E-19
 -1      3951 9.46684E-05-2.76163E-05-2.87361E-05 7.39864E-07 1.42431E-19 5.00736E-19
 -1      3952 9.48809E-05-2.78639E-05-2.87198E-05 5.14720E-07-2.23731E-19 8.24949E-19
 -1      3953 9.44541E-05-2.73900E-05-2.87453E-05 8.02476E-07 6.16766E-19 2.61801E-19
 -1      3954 9.42595E-05-2.71585E-05-2.87575E-05 9.00950E-07 6.10399E-19 3.65950E-19
 -1      3955 9.44917E-05-2.74313E-05-2.87373E-05 6.10805E-07 2.46099E-19 3.61769E-19
 -1      3956 9.39986E-05-2.68941E-05-2.87636E-05 9.85830E-07 5.22937E-19 2.66105E-19
 -1      3957 9.37588E-05-2.66247E-05-2.87721E-05 1.11478E-06 3.30403E-19 5.56265E-19
 -1      3958 9.40222E-05-2.69257E-05-2.87514E-05 7.43399E-07 5.26384E-19 2.50906E-19
 -1      3959 9.34379E-05-2.63178E-05-2.87714E-05 1.22392E-06 4.16289E-19 1.19132E-18
 -1      3960 9.31404E-05-2.60073E-05-2.87723E-05 1.38597E-06 3.10285E-19 1.73367E-18
 -1      3961 9.34473E-05-2.63383E-05-2.87552E-05 9.15568E-07 6.78085E-19 8.29616E-19
 -1      3962 9.27443E-05-2.56549E-05-2.87596E-05 1.52102E-06-4.47629E-19 1.65421E-18
 -1      3963 9.23753E-05-2.53022E-05-2.87474E-05 1.71841E-06-4.81484E-19 8.43645E-19
 -1      3964 9.27389E-05-2.56618E-05-2.87396E-05 1.12935E-06 1.93781E-20 9.00374E-19
 -1      3965 9.18873E-05-2.49040E-05-2.87158E-05 1.88074E-06 1.96618E-20 1.12301E-18
 -1      3966 9.14320E-05-2.45115E-05-2.86830E-05 2.11568E-06 1.76103E-19 8.75326E-19
 -1      3967 9.18654E-05-2.48931E-05-2.86924E-05 1.38570E-06-2.07929E-19 8.61987E-19
 -1      3968 9.08329E-05-2.40711E-05-2.86230E-05 2.30697E-06 3.41933E-20 8.71006E-19
 -1      3969 9.02760E-05-2.36464E-05-2.85594E-05 2.58277E-06 8.36900E-22 1.33130E-18
 -1      3970 9.07915E-05-2.40352E-05-2.85969E-05 1.68495E-06 2.67921E-19 1.35280E-18
 -1      3971 8.95436E-05-2.31728E-05-2.84583E-05 2.80648E-06 1.81656E-19 1.68904E-18
 -1      3972 8.88694E-05-2.27307E-05-2.83501E-05 3.13022E-06 5.76907E-19 1.75200E-18
 -1      3973 8.94770E-05-2.30993E-05-2.84309E-05 2.02855E-06 2.84221E-19 1.53127E-18
 -1      3974 8.79755E-05-2.22389E-05-2.81908E-05 3.39483E-06 2.79963E-20 1.29028E-18
 -1      3975 8.71687E-05-2.18033E-05-2.80195E-05 3.78276E-06 1.81234E-19 9.66278E-19
 -1      3976 8.78728E-05-2.21057E-05-2.81643E-05 2.42323E-06 4.01565E-20 1.08666E-18
 -1      3977 8.60741E-05-2.13151E-05-2.77784E-05 4.10836E-06 3.95063E-19 4.60794E-19
 -1      3978 8.51201E-05-2.09216E-05-2.75194E-05 4.59561E-06 5.76720E-19 1.09526E-19
 -1      3979 8.59138E-05-2.10834E-05-2.77561E-05 2.88969E-06 5.61066E-20 5.32048E-19
 -1      3980 8.37653E-05-2.04655E-05-2.71637E-05 5.02534E-06 5.22056E-19 7.12327E-21
 -1      3981 8.26518E-05-2.01656E-05-2.67839E-05 5.68217E-06 4.04622E-19-1.49218E-19
 -1      3982 8.35044E-05-2.00669E-05-2.71493E-05 3.47934E-06 1.68305E-19 1.14043E-20
 -1      3983 8.09430E-05-1.97770E-05-2.62661E-05 6.29793E-06 7.98064E-21-4.92781E-19
 -1      3984 7.96545E-05-1.96409E-05-2.57194E-05 7.25876E-06 2.43768E-19-6.49337E-19
 -1      3985 8.04963E-05-1.90940E-05-2.62622E-05 4.30069E-06 1.37511E-19-5.55726E-19
 -1      3986 7.29785E-05-1.91016E-05-2.31764E-05 1.04378E-05-3.62355E-20-2.14434E-18
 -1      3987 9.51053E-05-2.81264E-05-2.87039E-05-7.16530E-07 5.59735E-20 7.81003E-19
 -1      3988 9.52168E-05-2.82739E-05-2.86918E-05-6.67115E-07 3.09841E-20 6.45316E-19
 -1      3989 9.59932E-05-2.90405E-05-2.86926E-05-6.15150E-07 5.89484E-19-1.33539E-19
 -1      3990 9.60815E-05-2.90975E-05-2.87071E-05-6.26782E-07 5.71537E-19-1.85614E-19
 -1      3991 9.48197E-05-2.77840E-05-2.87283E-05-8.45735E-07 2.25945E-19 7.09017E-19
 -1      3992 9.49482E-05-2.79550E-05-2.87141E-05-7.67778E-07 2.93643E-19 7.79913E-19
 -1      3993 9.49887E-05-2.79908E-05-2.87121E-05-6.32272E-07 1.65135E-19 1.28553E-18
 -1      3994 9.44839E-05-2.73892E-05-2.87536E-05-1.03549E-06-1.70354E-19 2.48659E-19
 -1      3995 9.46356E-05-2.75857E-05-2.87392E-05-9.23954E-07 1.94726E-19 2.11291E-19
 -1      3996 9.46509E-05-2.76044E-05-2.87320E-05-7.55321E-07 3.49288E-19 9.85582E-19
 -1      3997 9.40828E-05-2.69385E-05-2.87749E-05-1.29605E-06 1.43956E-19-2.82157E-19
 -1      3998 9.42639E-05-2.71616E-05-2.87626E-05-1.14563E-06-2.73953E-19-3.79267E-19
 -1      3999 9.42507E-05-2.71589E-05-2.87504E-05-9.32777E-07 1.71324E-19-1.53659E-19
 -1      4000 9.36014E-05-2.64320E-05-2.87856E-05-1.63889E-06 4.17325E-19-4.01980E-20
 -1      4001 9.38178E-05-2.66806E-05-2.87786E-05-1.44385E-06 3.51386E-19-9.87226E-20
 -1      4002 9.37704E-05-2.66505E-05-2.87612E-05-1.17465E-06 2.25891E-19-5.36414E-19
 -1      4003 9.30269E-05-2.58766E-05-2.87772E-05-2.07721E-06-3.36627E-19-2.98697E-19
 -1      4004 9.32828E-05-2.61455E-05-2.87799E-05-1.83116E-06 4.01143E-19-2.33140E-19
 -1      4005 9.31920E-05-2.60794E-05-2.87568E-05-1.49274E-06 3.21060E-19-4.63399E-19
 -1      4006 9.23511E-05-2.52897E-05-2.87387E-05-2.62704E-06-5.92216E-19-1.51155E-19
 -1      4007 9.26471E-05-2.55678E-05-2.87565E-05-2.32248E-06-6.86297E-19-1.60377E-19
 -1      4008 9.24993E-05-2.54527E-05-2.87271E-05-1.90161E-06-3.26235E-19-4.69314E-19
 -1      4009 9.15742E-05-2.47047E-05-2.86555E-05-3.30915E-06-2.08846E-19-5.26808E-20
 -1      4010 9.19053E-05-2.49717E-05-2.86957E-05-2.93650E-06-3.72348E-19-1.07392E-19
 -1      4011 9.16796E-05-2.47887E-05-2.86589E-05-2.42034E-06-6.42512E-19-5.29848E-19
 -1      4012 9.07101E-05-2.41771E-05-2.85096E-05-4.15263E-06-7.25176E-19 3.70777E-19
 -1      4013 9.10615E-05-2.44004E-05-2.85810E-05-3.69853E-06-2.14430E-19 6.81025E-19
 -1      4014 9.07267E-05-2.41208E-05-2.85352E-05-3.07548E-06-7.56555E-19 7.69617E-20
 -1      4015 8.97947E-05-2.37925E-05-2.82789E-05-5.20083E-06-1.18992E-18-3.21550E-19
 -1      4016 9.01363E-05-2.39221E-05-2.83920E-05-4.64526E-06-1.11620E-18 2.65134E-19
 -1      4017 8.96446E-05-2.35034E-05-2.83345E-05-3.90637E-06-4.50263E-19 5.16266E-19
 -1      4018 8.88983E-05-2.36780E-05-2.79381E-05-6.52057E-06-7.78479E-19-6.17577E-20
 -1      4019 8.91754E-05-2.36398E-05-2.81042E-05-5.83281E-06-1.15136E-18-2.41967E-19
 -1      4020 8.84525E-05-2.30183E-05-2.80303E-05-4.97380E-06-1.23068E-18-9.19840E-19
 -1      4021 8.81476E-05-2.40191E-05-2.74604E-05-8.21430E-06-5.43566E-19-1.40450E-19
 -1      4022 8.82647E-05-2.37040E-05-2.76898E-05-7.34940E-06-3.75579E-19-1.58959E-19
 -1      4023 8.71921E-05-2.27831E-05-2.75905E-05-6.37474E-06-7.17228E-19-1.63131E-19
 -1      4024 8.77594E-05-2.50910E-05-2.68225E-05-1.04247E-05-2.50587E-19-2.57912E-19
 -1      4025 8.75653E-05-2.43399E-05-2.71205E-05-9.32688E-06-4.73629E-19-4.45201E-19
 -1      4026 8.59478E-05-2.29740E-05-2.69770E-05-8.26703E-06-6.59586E-19 7.36671E-19
 -1      4027 8.83017E-05-2.73427E-05-2.60690E-05-1.32225E-05-4.71940E-19-6.31758E-19
 -1      4028 8.73624E-05-2.58636E-05-2.63768E-05-1.19136E-05-1.63793E-19-5.50071E-19
 -1      4029 8.49435E-05-2.38914E-05-2.61514E-05-1.08737E-05 7.58806E-20-3.30051E-19
 -1      4030 9.63625E-05-2.87067E-05-2.89973E-05-7.41369E-07 1.29161E-19-6.52955E-19
 -1      4031 9.63933E-05-2.85146E-05-2.90864E-05-6.26776E-07 2.86842E-19-6.11321E-19
 -1      4032 9.65526E-05-2.83361E-05-2.92366E-05-4.63129E-07 3.89441E-19-6.01713E-19
 -1      4033 9.65222E-05-2.87845E-05-2.90322E-05-6.66490E-07 7.65098E-20-6.27336E-19
 -1      4034 9.55327E-05-2.47235E-05-3.03475E-05 1.31247E-06 4.19471E-19-7.28837E-19
 -1      4035 9.51176E-05-2.34824E-05-3.07048E-05-7.77877E-07-5.06327E-19-1.46852E-18
 -1      4036 9.51950E-05-2.37146E-05-3.06421E-05-1.10798E-06-6.04390E-19-1.33387E-18
 -1      4037 9.55585E-05-2.44833E-05-3.04534E-05-9.02481E-07-6.26305E-19-1.19452E-18
 -1      4038 9.56046E-05-2.44190E-05-3.04939E-05-5.09013E-07-3.16200E-19-1.29453E-18
 -1      4039 9.53546E-05-2.84211E-05-2.86844E-05-6.38233E-07-5.01956E-20 3.44987E-19
 -1      4040 9.54549E-05-2.85471E-05-2.86762E-05-6.12445E-07-2.78309E-19 4.53547E-19
 -1      4041 9.52805E-05-2.83233E-05-2.86955E-05-5.54796E-07-1.70599E-19 6.82648E-19
 -1      4042 6.83575E-05-1.62486E-05-2.23433E-05 3.34051E-06-5.49691E-19-2.46140E-18
 -1      4043 6.50417E-05-1.51205E-05-2.12163E-05 4.24251E-07-8.13560E-19-2.89778E-18
 -1      4044 6.65870E-05-1.60019E-05-2.17114E-05-3.79660E-06-1.08812E-18-2.01217E-18
 -1      4045 9.66255E-05-2.74068E-05-2.96627E-05-6.05105E-09-5.41159E-19-3.99863E-19
 -1      4046 9.67163E-05-2.78749E-05-2.95078E-05 1.84921E-07-5.02382E-19-2.57049E-19
 -1      4047 9.68183E-05-2.79954E-05-2.94943E-05 1.64077E-07-3.25340E-19-4.71115E-19
 -1      4048 8.85113E-05-3.14877E-05-2.43732E-05-1.85836E-05-1.92572E-18-1.36889E-18
 -1      4049 9.55407E-05-2.86066E-05-2.86863E-05-5.14523E-07-3.44601E-19 6.32266E-20
 -1      4050 9.55798E-05-2.86718E-05-2.86735E-05-6.01903E-07-9.26318E-20 2.87713E-19
 -1      4051 9.56734E-05-2.87767E-05-2.86708E-05-5.94481E-07 3.00766E-19 9.54225E-20
 -1      4052 8.68077E-05-2.88527E-05-2.48189E-05-1.66373E-05-1.27888E-18-1.24697E-18
 -1      4053 9.58809E-05-2.89623E-05-2.86797E-05-6.03034E-07 5.13955E-19-1.57713E-20
 -1      4054 9.60081E-05-2.90282E-05-2.87069E-05-5.11688E-07 4.44738E-19 1.00952E-19
 -1      4055 9.57907E-05-2.88794E-05-2.86748E-05-5.97565E-07 4.78420E-19 2.05365E-19
 -1      4056 7.74119E-05-1.93375E-05-2.49623E-05 8.20183E-06 4.20796E-19-9.47678E-19
 -1      4057 7.58863E-05-1.95259E-05-2.41656E-05 9.76374E-06 3.88879E-19-1.65671E-18
 -1      4058 9.62258E-05-2.91555E-05-2.87460E-05-5.30178E-07 4.99015E-19-3.82744E-20
 -1      4059 9.61889E-05-2.91455E-05-2.87318E-05-6.42014E-07 4.70752E-19-1.04524E-19
 -1      4060 9.62745E-05-2.91688E-05-2.87587E-05-6.51382E-07 3.36168E-19-2.51730E-19
 -1      4061 7.17470E-05-1.72064E-05-2.32131E-05 6.74404E-06-7.92720E-20-2.54599E-18
 -1      4062 9.59672E-05-2.56616E-05-3.01142E-05 7.78756E-07 4.12392E-19-7.91248E-19
 -1      4063 9.54321E-05-2.43691E-05-3.04694E-05 1.28565E-06 4.64228E-19-7.99783E-19
 -1      4064 9.53193E-05-2.40257E-05-3.05600E-05 1.03052E-06 3.30307E-19-9.09008E-19
 -1      4065 9.61571E-05-2.62986E-05-2.99450E-05 4.70790E-07 4.24093E-19-6.67264E-19
 -1      4066 9.65570E-05-2.69789E-05-2.98169E-05-8.61010E-08-4.39916E-19-5.69097E-19
 -1      4067 8.27438E-05-2.57488E-05-2.44070E-05-1.56986E-05-7.42976E-19-1.13649E-18
 -1      4068 9.95621E-05-3.96597E-05-2.56295E-05 2.28027E-05-1.67991E-18-1.64119E-18
 -1      4069 7.11003E-05-2.06924E-05-2.14432E-05-1.55665E-05-1.14051E-18-1.29151E-18
 -1      4070 7.74558E-05-2.34853E-05-2.30604E-05-1.56323E-05-7.91281E-19-1.12378E-18
 -1      4071 6.97586E-05-1.83223E-05-2.21021E-05-1.02845E-05-7.58541E-19-1.48011E-18
 -1      4072 9.66080E-05-2.77736E-05-2.95080E-05-1.73516E-07 4.86216E-19-5.33564E-19
 -1      4073 9.65251E-05-2.72884E-05-2.96633E-05 5.07402E-08 5.25702E-19-5.14181E-19
 -1      4074 9.57741E-05-2.49121E-05-3.03570E-05 6.72944E-07 3.46769E-19-8.19835E-19
 -1      4075 9.59625E-05-2.53060E-05-3.02891E-05 3.23699E-07 3.16485E-19-9.62515E-19
 -1      4076 9.59487E-05-2.52231E-05-3.03159E-05 1.24933E-07 1.89819E-19-1.18837E-18
 -1      4077 9.62925E-05-2.64570E-05-2.99317E-05 3.36249E-07 3.69495E-19-8.12137E-19
 -1      4078 7.11519E-05-1.68409E-05-2.33318E-05 3.33835E-06-5.32327E-19-2.39845E-18
 -1      4079 9.58223E-05-2.51786E-05-3.02817E-05-6.88587E-07-6.93759E-19-9.82325E-19
 -1      4080 9.59791E-05-2.54277E-05-3.02375E-05-4.73453E-07-4.54479E-19-1.22377E-18
 -1      4081 9.63733E-05-2.91760E-05-2.87982E-05-6.62291E-07 1.83552E-19-3.80361E-19
 -1      4082 9.64532E-05-2.91536E-05-2.88411E-05-6.58523E-07-8.62687E-21-3.54457E-19
 -1      4083 9.64305E-05-2.92067E-05-2.88120E-05-5.45544E-07 1.33958E-19-6.80462E-19
 -1      4084 9.63005E-05-2.59960E-05-3.01201E-05 6.37030E-08 2.78092E-19-1.00810E-18
 -1      4085 9.59496E-05-2.52204E-05-3.03195E-05 1.72972E-08 9.01110E-22-1.17984E-18
 -1      4086 9.59679E-05-2.52595E-05-3.03106E-05-1.50787E-07-9.60455E-20-1.19208E-18
 -1      4087 9.66081E-05-2.91523E-05-2.89118E-05-5.42104E-07-2.97341E-20-2.14032E-19
 -1      4088 9.65344E-05-2.91029E-05-2.88993E-05-6.54385E-07-1.23139E-19-3.31941E-19
 -1      4089 9.66038E-05-2.90174E-05-2.89625E-05-6.20969E-07-6.84009E-20-3.37284E-19
 -1      4090 7.66666E-05-1.82069E-05-2.49711E-05 5.54935E-06-4.98426E-20-8.21347E-19
 -1      4091 9.69528E-05-2.85265E-05-2.93242E-05 1.86981E-07-9.44238E-20-4.05083E-19
 -1      4092 9.69432E-05-2.87794E-05-2.92144E-05 2.47478E-07 1.63782E-21-4.02146E-19
 -1      4093 9.69102E-05-2.89691E-05-2.91165E-05 2.60350E-07-7.39383E-20-4.37844E-19
 -1      4094 9.68547E-05-2.91063E-05-2.90345E-05 2.94115E-07-2.33255E-21-3.23817E-19
 -1      4095 9.69627E-05-2.88559E-05-2.91890E-05 1.38490E-07 6.36289E-20-5.66640E-19
 -1      4096 9.67740E-05-2.91936E-05-2.89621E-05 2.88970E-07-1.03206E-19-3.51647E-19
 -1      4097 9.66861E-05-2.92425E-05-2.89033E-05 3.05551E-07-1.66250E-19-5.37580E-19
 -1      4098 9.68578E-05-2.91531E-05-2.90192E-05 1.56430E-07-1.52257E-19-5.74841E-19
 -1      4099 9.65804E-05-2.92571E-05-2.88519E-05 2.96731E-07-5.42940E-20-3.93313E-19
 -1      4100 9.64752E-05-2.92447E-05-2.88117E-05 3.02080E-07-1.95015E-19-4.54484E-19
 -1      4101 9.66729E-05-2.92609E-05-2.88946E-05 1.65461E-07-9.74804E-20-7.37152E-19
 -1      4102 9.63550E-05-2.92065E-05-2.87773E-05 2.91737E-07-2.74745E-20-4.28730E-19
 -1      4103 9.62405E-05-2.91496E-05-2.87519E-05 2.92281E-07 3.49058E-20-2.35171E-20
 -1      4104 9.64502E-05-2.92394E-05-2.88081E-05 1.65017E-07-1.59019E-20-4.31515E-19
 -1      4105 9.61117E-05-2.90722E-05-2.87309E-05 2.83300E-07-4.45600E-19 2.30780E-20
 -1      4106 9.59909E-05-2.89813E-05-2.87172E-05 2.84178E-07-8.01555E-19-3.11624E-19
 -1      4107 9.62046E-05-2.91227E-05-2.87521E-05 1.61459E-07-3.14242E-19-5.30812E-19
 -1      4108 9.58547E-05-2.88731E-05-2.87066E-05 2.78615E-07-6.47027E-19-1.27615E-19
 -1      4109 9.57261E-05-2.87536E-05-2.87018E-05 2.83384E-07-2.46064E-19-3.67142E-20
 -1      4110 9.59434E-05-2.89332E-05-2.87200E-05 1.59693E-07-5.39974E-19-2.36175E-19
 -1      4111 9.55815E-05-2.86180E-05-2.86991E-05 2.84594E-07-6.89026E-20-1.21298E-19
 -1      4112 9.54434E-05-2.84734E-05-2.87009E-05 2.96868E-07-6.74413E-21-6.75115E-20
 -1      4113 9.56639E-05-2.86839E-05-2.87059E-05 1.62428E-07-1.12052E-19-3.67172E-19
 -1      4114 9.52823E-05-2.83101E-05-2.87037E-05 3.02822E-07 3.23487E-19 2.59681E-19
 -1      4115 9.51281E-05-2.81378E-05-2.87099E-05 3.26168E-07 2.61581E-19 6.25969E-19
 -1      4116 9.53627E-05-2.83798E-05-2.87059E-05 1.70644E-07 4.39152E-19 1.43751E-19
 -1      4117 9.49449E-05-2.79460E-05-2.87158E-05 3.39541E-07 3.38711E-20 5.11350E-19
 -1      4118 9.47660E-05-2.77434E-05-2.87242E-05 3.75230E-07-1.17927E-19 1.06709E-18
 -1      4119 9.50242E-05-2.80178E-05-2.87142E-05 1.89395E-07 3.04697E-19 1.44257E-19
 -1      4120 9.45508E-05-2.75188E-05-2.87309E-05 3.96888E-07-2.12356E-19 1.13128E-18
 -1      4121 9.43374E-05-2.72818E-05-2.87389E-05 4.46496E-07 4.32740E-19 7.78540E-19
 -1      4122 9.46323E-05-2.75927E-05-2.87263E-05 2.18107E-07-1.39322E-20 3.05862E-19
 -1      4123 9.40788E-05-2.70197E-05-2.87434E-05 4.76984E-07 4.97949E-19 8.74624E-19
 -1      4124 9.38189E-05-2.67438E-05-2.87481E-05 5.41537E-07 2.96149E-19 6.86264E-19
 -1      4125 9.41664E-05-2.70964E-05-2.87368E-05 2.57356E-07 4.49761E-19 7.51930E-19
 -1      4126 9.35040E-05-2.64398E-05-2.87467E-05 5.81014E-07 6.59188E-19 3.22961E-19
 -1      4127 9.31840E-05-2.61207E-05-2.87440E-05 6.60829E-07 6.25027E-19 1.96121E-19
 -1      4128 9.36022E-05-2.65197E-05-2.87390E-05 3.06477E-07 3.47751E-19-5.66018E-19
 -1      4129 9.27981E-05-2.57713E-05-2.87320E-05 7.08865E-07 4.26690E-19 1.79231E-19
 -1      4130 9.24029E-05-2.54064E-05-2.87166E-05 8.03393E-07-6.16260E-20 3.07301E-19
 -1      4131 9.29122E-05-2.58549E-05-2.87244E-05 3.63360E-07 4.58773E-19-2.22408E-19
 -1      4132 9.19299E-05-2.50101E-05-2.86876E-05 8.58774E-07-1.22305E-19 1.08754E-18
 -1      4133 9.14422E-05-2.45994E-05-2.86525E-05 9.66539E-07 2.97224E-19 1.20740E-18
 -1      4134 9.20660E-05-2.50972E-05-2.86818E-05 4.23927E-07 3.10973E-19 4.36685E-19
 -1      4135 9.08641E-05-2.41577E-05-2.85980E-05 1.02714E-06 6.88673E-20 1.23344E-18
 -1      4136 9.02645E-05-2.37045E-05-2.85334E-05 1.14601E-06-4.05591E-20 1.19383E-18
 -1      4137 9.10297E-05-2.42467E-05-2.85963E-05 4.81594E-07 1.74630E-19 1.16598E-18
 -1      4138 8.95601E-05-2.32230E-05-2.84421E-05 1.20885E-06 5.38212E-20 6.52783E-19
 -1      4139 8.88255E-05-2.27348E-05-2.83353E-05 1.33701E-06 1.67723E-20 4.68817E-19
 -1      4140 8.97645E-05-2.33100E-05-2.84479E-05 5.26849E-07-4.84577E-19 9.02641E-19
 -1      4141 8.79677E-05-2.22226E-05-2.81919E-05 1.39879E-06-2.00273E-19-1.10342E-19
 -1      4142 8.70687E-05-2.17107E-05-2.80252E-05 1.53700E-06-1.92981E-19-2.68277E-19
 -1      4143 8.82236E-05-2.23001E-05-2.82100E-05 5.47115E-07-5.59998E-19 2.16730E-20
 -1      4144 8.60187E-05-2.11795E-05-2.78090E-05 1.59526E-06-5.07149E-19 1.68320E-19
 -1      4145 8.49134E-05-2.06573E-05-2.75585E-05 1.75154E-06-2.89208E-19-7.53433E-20
 -1      4146 8.63438E-05-2.12347E-05-2.78467E-05 5.26921E-07-2.49541E-19-7.52317E-19
 -1      4147 8.36090E-05-2.01167E-05-2.72405E-05 1.80748E-06 1.31284E-19-4.15628E-19
 -1      4148 8.22328E-05-1.95967E-05-2.68724E-05 2.00592E-06 1.14998E-19-4.22631E-19
 -1      4149 8.40296E-05-2.01288E-05-2.73083E-05 4.47796E-07-1.31618E-19-6.73615E-19
 -1      4150 8.05659E-05-1.90454E-05-2.64095E-05 2.07327E-06-2.40006E-19-4.31900E-19
 -1      4151 7.88455E-05-1.85422E-05-2.58763E-05 2.36501E-06-8.38149E-20-6.88989E-19
 -1      4152 8.11160E-05-1.89835E-05-2.65235E-05 2.85461E-07 1.07408E-19-1.47472E-18
 -1      4153 9.44980E-05-2.74485E-05-2.87355E-05-6.22915E-07 3.46902E-19 7.45381E-19
 -1      4154 9.46830E-05-2.76623E-05-2.87259E-05-5.54360E-07 1.35492E-19 1.16860E-18
 -1      4155 7.42961E-05-1.74727E-05-2.43630E-05 3.15207E-06-2.16215E-19-1.47103E-18
 -1      4156 7.19334E-05-1.66032E-05-2.35934E-05-6.88410E-08-8.42705E-19-1.65998E-18
 -1      4157 7.64569E-05-1.79247E-05-2.51497E-05 2.61373E-06-1.09628E-19-8.05685E-19
 -1      4158 9.48802E-05-2.78695E-05-2.87185E-05-5.14621E-07 5.86916E-20 1.14539E-18
 -1      4159 9.50380E-05-2.80539E-05-2.87094E-05-4.67963E-07 1.98732E-20 6.53449E-19
 -1      4160 9.47446E-05-2.77169E-05-2.87226E-05-3.82328E-07-1.07401E-19 5.12265E-19
 -1      4161 9.34936E-05-2.64076E-05-2.87518E-05-9.85301E-07 5.03298E-19 2.15158E-19
 -1      4162 9.37595E-05-2.66874E-05-2.87502E-05-8.60077E-07 3.86114E-19 1.81217E-19
 -1      4163 9.28305E-05-2.57831E-05-2.87356E-05-1.25966E-06 4.74636E-19-2.67515E-20
 -1      4164 9.31501E-05-2.60956E-05-2.87442E-05-1.09819E-06 7.00112E-19 1.19526E-19
 -1      4165 9.31837E-05-2.61112E-05-2.87338E-05-7.58207E-07 6.73313E-19 8.83221E-19
 -1      4166 9.20336E-05-2.50958E-05-2.86888E-05-1.61440E-06-5.04349E-19-1.82098E-19
 -1      4167 9.24143E-05-2.54360E-05-2.87134E-05-1.40958E-06-9.14932E-20-1.73785E-19
 -1      4168 9.24315E-05-2.54242E-05-2.87020E-05-9.81291E-07 3.04442E-19 8.73167E-19
 -1      4169 9.10857E-05-2.43631E-05-2.85964E-05-2.06936E-06-7.16065E-19-3.75471E-19
 -1      4170 9.15323E-05-2.47199E-05-2.86447E-05-1.81149E-06-7.05483E-19-6.49000E-19
 -1      4171 9.15234E-05-2.46663E-05-2.86330E-05-1.27557E-06-3.67117E-20-5.13894E-19
 -1      4172 8.99738E-05-2.36167E-05-2.84391E-05-2.65313E-06-8.31683E-19-1.78680E-19
 -1      4173 9.04871E-05-2.39710E-05-2.85208E-05-2.32808E-06-7.09761E-19-5.06480E-19
 -1      4174 9.04359E-05-2.38532E-05-2.85096E-05-1.66283E-06-8.14985E-19-9.50938E-19
 -1      4175 8.86911E-05-2.29068E-05-2.81922E-05-3.40880E-06-6.16216E-19-5.72286E-19
 -1      4176 8.92655E-05-2.32287E-05-2.83197E-05-2.99478E-06-5.53432E-19-2.91265E-19
 -1      4177 8.91455E-05-2.30126E-05-2.83092E-05-2.17519E-06-9.22045E-19-8.42566E-19
 -1      4178 8.72388E-05-2.23061E-05-2.78246E-05-4.40340E-06-1.09699E-18-1.03555E-18
 -1      4179 8.78595E-05-2.25527E-05-2.80129E-05-3.86579E-06-1.23150E-18-7.91812E-19
 -1      4180 8.76281E-05-2.21866E-05-2.80028E-05-2.86163E-06-9.03146E-19-7.87633E-19
 -1      4181 8.56275E-05-2.19150E-05-2.72970E-05-5.74364E-06-7.38726E-19-7.94447E-19
 -1      4182 8.62661E-05-2.20261E-05-2.75647E-05-5.02604E-06-6.02306E-19-8.06530E-19
 -1      4183 8.58550E-05-2.14317E-05-2.75525E-05-3.79813E-06-9.63044E-19-1.11816E-18
 -1      4184 8.38903E-05-2.18718E-05-2.65600E-05-7.60418E-06-3.89031E-19-1.20711E-18
 -1      4185 8.44829E-05-2.17573E-05-2.69291E-05-6.61287E-06-5.44641E-19-7.09027E-19
 -1      4186 8.37839E-05-2.08188E-05-2.69084E-05-5.10297E-06-7.40346E-19-2.10140E-18
 -1      4187 8.21541E-05-2.24239E-05-2.55669E-05-1.03000E-05 6.18897E-21-1.53233E-18
 -1      4188 8.25165E-05-2.19179E-05-2.60438E-05-8.88788E-06-5.58761E-22-1.21646E-18
 -1      4189 8.13042E-05-2.04117E-05-2.59999E-05-6.97993E-06-1.78312E-19-2.99946E-18
 -1      4190 9.66819E-05-2.81603E-05-2.93630E-05-3.02762E-07 4.61311E-19-3.58953E-19
 -1      4191 9.67250E-05-2.78750E-05-2.95071E-05-1.68028E-07 3.26553E-19-4.99922E-19
 -1      4192 9.66917E-05-2.84652E-05-2.92429E-05-4.46607E-07 2.62832E-19-4.41812E-19
 -1      4193 9.64893E-05-2.66245E-05-2.99435E-05-1.39228E-07-2.84788E-19-8.19385E-19
 -1      4194 9.66851E-05-2.72560E-05-2.97594E-05 1.19384E-08-2.86607E-19-6.86321E-19
 -1      4195 9.68408E-05-2.77798E-05-2.95955E-05 5.48274E-08-3.32658E-19-4.85879E-19
 -1      4196 9.69079E-05-2.81914E-05-2.94526E-05 1.60162E-07-2.49775E-19-5.17151E-19
 -1      4197 9.67793E-05-2.74619E-05-2.97085E-05 1.49094E-08-1.25326E-19-5.04441E-19
 -1      4198 9.60081E-05-2.54382E-05-3.02494E-05-3.09567E-07-2.58946E-19-1.00306E-18
 -1      4199 7.96128E-05-2.26056E-05-2.45088E-05-1.24855E-05 1.09633E-19-7.65416E-19
 -1      4200 9.40425E-05-2.69627E-05-2.87489E-05-7.76784E-07 4.01400E-19 3.25145E-20
 -1      4201 9.42635E-05-2.72087E-05-2.87416E-05-6.82229E-07 4.60702E-19 5.23299E-19
 -1      4202 9.43170E-05-2.72547E-05-2.87352E-05-4.68575E-07 5.27796E-19 2.10358E-19
 -1      4203 9.52077E-05-2.82319E-05-2.87032E-05-4.44196E-07-3.04538E-19 7.42266E-19
 -1      4204 9.53467E-05-2.83899E-05-2.86968E-05-4.15536E-07-5.13259E-19 4.66348E-19
 -1      4205 9.51077E-05-2.81146E-05-2.87097E-05-3.25476E-07-2.19695E-19 4.64155E-19
 -1      4206 7.04938E-05-1.66395E-05-2.31200E-05-3.13318E-06-8.53576E-19-1.76797E-18
 -1      4207 6.93909E-05-1.68768E-05-2.23952E-05-6.64344E-06-1.12304E-18-1.58993E-18
 -1      4208 7.37008E-05-1.89332E-05-2.34628E-05-8.75629E-06-9.49967E-19-1.82535E-18
 -1      4209 7.34673E-05-1.73740E-05-2.41277E-05-2.85550E-06-8.17698E-19-1.75291E-18
 -1      4210 9.62436E-05-2.91585E-05-2.87495E-05-4.06322E-07 6.73564E-19-4.79450E-19
 -1      4211 9.63517E-05-2.92056E-05-2.87759E-05-4.08202E-07 3.84306E-19-4.25785E-19
 -1      4212 9.38043E-05-2.67211E-05-2.87416E-05-5.91028E-07 4.48203E-19 4.64578E-19
 -1      4213 9.57805E-05-2.88422E-05-2.86886E-05-5.03096E-07 3.99655E-19 1.01116E-19
 -1      4214 7.71139E-05-1.77597E-05-2.53330E-05 7.58962E-08-4.13613E-19-1.38374E-18
 -1      4215 9.54259E-05-2.84574E-05-2.87011E-05-2.90240E-07-4.11298E-19 9.80044E-19
 -1      4216 9.54962E-05-2.85413E-05-2.86943E-05-4.05443E-07-4.45482E-19 4.54904E-19
 -1      4217 9.56218E-05-2.86739E-05-2.86926E-05-3.91441E-07-1.24209E-19 5.36131E-19
 -1      4218 9.69597E-05-2.83205E-05-2.94160E-05 9.63693E-08-1.08881E-19-4.41910E-19
 -1      4219 9.68347E-05-2.80626E-05-2.94766E-05-1.84892E-07 9.38465E-20-3.99777E-19
 -1      4220 9.67501E-05-2.76223E-05-2.96257E-05-4.87170E-08 1.36272E-19-6.82719E-19
 -1      4221 7.75732E-05-2.05082E-05-2.44148E-05-1.02061E-05-2.43736E-19-1.81799E-18
 -1      4222 9.63269E-05-2.61453E-05-3.00714E-05-1.47700E-07-1.94684E-19-9.59197E-19
 -1      4223 9.66528E-05-2.88876E-05-2.90440E-05-5.97900E-07 3.50659E-20-3.95112E-19
 -1      4224 9.66899E-05-2.87070E-05-2.91327E-05-5.19407E-07 1.00824E-19-4.25372E-19
 -1      4225 9.67509E-05-2.89594E-05-2.90560E-05-4.99172E-07 8.43603E-20-3.41094E-19
 -1      4226 9.60079E-05-2.90087E-05-2.87127E-05-3.93184E-07 2.93293E-19 1.54266E-19
 -1      4227 9.61209E-05-2.90897E-05-2.87271E-05-3.94941E-07 4.15880E-19-7.92961E-20
 -1      4228 9.62284E-05-2.91435E-05-2.87541E-05-2.84269E-07 2.30833E-19-1.95242E-19
 -1      4229 9.64572E-05-2.64507E-05-3.00024E-05-5.07894E-08-4.70872E-20-8.63594E-19
 -1      4230 9.61206E-05-2.58334E-05-3.01214E-05 4.98530E-07 4.27084E-19-8.10492E-19
 -1      4231 9.59899E-05-2.54299E-05-3.02375E-05 4.22843E-07 3.59250E-19-8.09228E-19
 -1      4232 9.63260E-05-2.61559E-05-3.00636E-05 2.14800E-07 4.23078E-19-8.50615E-19
 -1      4233 9.64653E-05-2.92346E-05-2.88122E-05-4.20243E-07 1.09333E-19-3.48837E-19
 -1      4234 9.65652E-05-2.92362E-05-2.88537E-05-4.15566E-07 7.93856E-21-4.12044E-19
 -1      4235 9.64646E-05-2.92414E-05-2.88140E-05-2.92528E-07 2.09704E-19-2.80475E-19
 -1      4236 9.64542E-05-2.64665E-05-3.00016E-05 7.46318E-08 4.12268E-19-8.00116E-19
 -1      4237 9.64567E-05-2.64491E-05-3.00073E-05 7.05877E-09 2.09643E-19-9.03616E-19
 -1      4238 9.66247E-05-2.68743E-05-2.98858E-05-2.09717E-08 1.13234E-19-6.93003E-19
 -1      4239 9.66641E-05-2.92123E-05-2.89076E-05-4.23790E-07 7.99590E-20-5.05604E-19
 -1      4240 9.67549E-05-2.91569E-05-2.89686E-05-4.03849E-07-7.19223E-21-5.23608E-19
 -1      4241 9.66785E-05-2.92411E-05-2.89056E-05-2.93219E-07 3.77673E-20-3.07289E-19
 -1      4242 9.70062E-05-2.87767E-05-2.92401E-05 1.49200E-08 2.99616E-20-4.36853E-19
 -1      4243 9.69837E-05-2.89820E-05-2.91425E-05 3.76651E-08-3.38255E-20-4.73074E-19
 -1      4244 9.36622E-05-2.66233E-05-2.87379E-05-1.82963E-07 4.77382E-19-2.92819E-19
 -1      4245 9.39504E-05-2.69070E-05-2.87379E-05-1.26276E-07 5.42063E-19-1.26894E-19
 -1      4246 9.68825E-05-2.91409E-05-2.90313E-05-6.57881E-08-5.65489E-20-3.67576E-19
 -1      4247 9.68051E-05-2.92228E-05-2.89609E-05-5.18318E-08-1.68071E-19-2.50545E-19
 -1      4248 9.67102E-05-2.92617E-05-2.89045E-05-6.17308E-08 2.45879E-21-2.17172E-19
 -1      4249 9.66028E-05-2.92718E-05-2.88532E-05-5.61353E-08 1.58860E-19-2.69839E-19
 -1      4250 9.64892E-05-2.92495E-05-2.88147E-05-5.90243E-08 1.68791E-19-2.32918E-19
 -1      4251 9.63665E-05-2.92068E-05-2.87803E-05-5.64329E-08-6.19971E-20-4.76925E-20
 -1      4252 9.62426E-05-2.91407E-05-2.87560E-05-5.71620E-08-4.52660E-20 3.37044E-19
 -1      4253 9.61108E-05-2.90586E-05-2.87349E-05-5.53831E-08-1.48343E-19 4.07875E-19
 -1      4254 9.57444E-05-2.87575E-05-2.87086E-05 3.13985E-08-3.50264E-19 3.62640E-19
 -1      4255 9.55986E-05-2.86204E-05-2.87049E-05 3.50132E-08 1.09472E-19 4.02197E-19
 -1      4256 9.53968E-05-2.84211E-05-2.87043E-05-6.78386E-08 9.17565E-20 5.30464E-19
 -1      4257 9.52338E-05-2.82523E-05-2.87071E-05-6.27046E-08-5.08952E-20 3.54105E-19
 -1      4258 9.50615E-05-2.80703E-05-2.87122E-05-8.11919E-08 8.86287E-20 2.49612E-19
 -1      4259 9.48741E-05-2.78708E-05-2.87176E-05-7.45333E-08-1.88382E-19 3.72484E-20
 -1      4260 9.46737E-05-2.76585E-05-2.87240E-05-1.02895E-07 6.01821E-20 1.38783E-20
 -1      4261 9.44535E-05-2.74250E-05-2.87298E-05-9.45886E-08 2.59846E-19-1.17443E-19
 -1      4262 9.42149E-05-2.71787E-05-2.87347E-05-1.35511E-07 4.16030E-19-2.55316E-19
 -1      4263 9.33401E-05-2.63091E-05-2.87348E-05-1.74252E-07 2.94352E-19-3.15393E-19
 -1      4264 9.29899E-05-2.59856E-05-2.87255E-05-2.50902E-07 3.45546E-19 4.71939E-19
 -1      4265 9.25955E-05-2.56262E-05-2.87110E-05-2.45180E-07 6.63786E-19 5.29260E-19
 -1      4266 9.21701E-05-2.52630E-05-2.86867E-05-3.47513E-07 6.80386E-19 2.65135E-19
 -1      4267 9.16870E-05-2.48580E-05-2.86544E-05-3.48592E-07 5.97950E-19 6.20074E-19
 -1      4268 9.11729E-05-2.44588E-05-2.86074E-05-4.84692E-07 1.34065E-20 2.39820E-19
 -1      4269 9.05824E-05-2.40109E-05-2.85486E-05-4.98124E-07-4.86090E-19 2.92232E-19
 -1      4270 8.99654E-05-2.35845E-05-2.84691E-05-6.79792E-07-8.51453E-19 3.16912E-19
 -1      4271 8.92457E-05-2.31003E-05-2.83722E-05-7.13300E-07-9.97198E-19-1.77720E-21
 -1      4272 8.85104E-05-2.26612E-05-2.82471E-05-9.58249E-07-9.16472E-19-6.67853E-20
 -1      4273 8.76329E-05-2.21508E-05-2.80965E-05-1.02227E-06-4.61448E-19-3.88992E-19
 -1      4274 8.67607E-05-2.17196E-05-2.79089E-05-1.35764E-06-6.25134E-19-4.91669E-19
 -1      4275 8.56849E-05-2.11953E-05-2.76836E-05-1.46631E-06-7.32876E-19-4.11701E-19
 -1      4276 8.46507E-05-2.07984E-05-2.74109E-05-1.93393E-06-6.68350E-19-7.69102E-19
 -1      4277 8.33139E-05-2.02706E-05-2.70818E-05-2.10800E-06-2.29142E-19-1.31923E-18
 -1      4278 8.20822E-05-1.99376E-05-2.66938E-05-2.76919E-06 1.42895E-19-1.92883E-18
 -1      4279 8.03894E-05-1.94137E-05-2.62193E-05-3.03887E-06-1.44043E-19-2.14163E-18
 -1      4280 9.68916E-05-2.84195E-05-2.93433E-05-2.45776E-07 1.48360E-19-4.48114E-19
 -1      4281 9.69083E-05-2.81867E-05-2.94499E-05-1.42870E-07 7.49780E-20-5.57945E-19
 -1      4282 9.67857E-05-2.74590E-05-2.97158E-05 1.73884E-08 1.15590E-19-4.81424E-19
 -1      4283 7.89014E-05-1.91358E-05-2.56728E-05-3.96348E-06-2.33332E-19-2.02617E-18
 -1      4284 7.66642E-05-1.85776E-05-2.49446E-05-4.38149E-06-4.88119E-19-2.31882E-18
 -1      4285 9.67982E-05-2.85511E-05-2.92491E-05-3.80864E-07 1.91274E-19-3.16443E-19
 -1      4286 9.65327E-05-2.68319E-05-2.98794E-05 1.18381E-07 3.05284E-19-7.12748E-19
 -1      4287 9.65118E-05-2.66779E-05-2.99289E-05 8.27807E-08 2.75296E-19-9.15509E-19
 -1      4288 9.67805E-05-2.75597E-05-2.96697E-05-3.61008E-08 1.25708E-19-9.57104E-19
 -1      4289 9.66764E-05-2.73404E-05-2.97078E-05-2.71982E-08 2.60554E-19-7.21167E-19
 -1      4290 9.65016E-05-2.69208E-05-2.98277E-05 1.10780E-07 2.96586E-19-7.18477E-19
 -1      4291 9.66802E-05-2.70827E-05-2.98210E-05 5.97012E-09 1.56553E-19-8.13748E-19
 -1      4292 9.57598E-05-2.88000E-05-2.86960E-05-3.89627E-07 1.91982E-19 5.56727E-19
 -1      4293 9.58782E-05-2.89088E-05-2.87011E-05-3.85768E-07 4.55556E-19 5.87899E-19
 -1      4294 9.59779E-05-2.89720E-05-2.87191E-05-2.77292E-07 1.85605E-19 9.25472E-19
 -1      4295 9.57099E-05-2.87381E-05-2.87026E-05-2.75262E-07-2.84472E-20 1.37326E-18
 -1      4296 9.69531E-05-2.80687E-05-2.95174E-05 3.25414E-09-6.87244E-20-4.81969E-19
 -1      4297 9.69949E-05-2.84314E-05-2.93872E-05 3.52924E-08-5.80088E-20-4.99776E-19
 -1      4298 9.69889E-05-2.85486E-05-2.93317E-05-6.35479E-08-4.36009E-20-3.33429E-19
 -1      4299 9.68102E-05-2.75541E-05-2.96811E-05-1.19812E-08-4.35193E-20-5.75865E-19
 -1      4300 9.68460E-05-2.77510E-05-2.96159E-05-3.27902E-08-1.49948E-19-7.93576E-19
 -1      4301 9.68937E-05-2.86881E-05-2.92320E-05-3.21071E-07 1.80516E-19-6.17141E-19
 -1      4302 9.59793E-05-2.89593E-05-2.87218E-05-5.75736E-08-3.78781E-19 6.12951E-19
 -1      4303 9.58403E-05-2.88452E-05-2.87112E-05-5.57070E-08-2.25261E-19 8.04612E-19
 -1      4304 7.63754E-05-1.89221E-05-2.46030E-05-6.99862E-06-5.89323E-19-2.38859E-18
 -1      4305 9.68924E-05-2.90620E-05-2.90723E-05-1.81072E-07 1.51786E-20-2.79258E-19
 -1      4306 9.68707E-05-2.90056E-05-2.90859E-05-3.06762E-07-2.43803E-20-2.68335E-19
 -1      4307 9.54730E-05-2.84972E-05-2.87038E-05-1.97141E-07-1.18511E-19 1.17066E-18
 -1      4308 9.69154E-05-2.88368E-05-2.91738E-05-2.63606E-07 1.24485E-19-3.84989E-19
 -1      4309 9.57630E-05-2.87825E-05-2.87070E-05-1.87668E-07-9.90278E-20 1.36349E-18
 -1      4310 9.56223E-05-2.86484E-05-2.87024E-05-1.89466E-07-9.61170E-20 1.42066E-18
 -1      4311 9.69860E-05-2.87280E-05-2.92547E-05-1.46929E-07 6.28125E-20-4.47082E-19
 -1      4312 9.69710E-05-2.83705E-05-2.94010E-05-1.21827E-07 2.55532E-20-4.23716E-19
 -1      4313 9.69100E-05-2.79803E-05-2.95370E-05-6.46757E-08-1.18912E-19-6.31457E-19
 -3
    1PSTEP                         4           1           1          
  100CL  101 1.000000000        4313                     0    1           1
 -4  ERROR       1    1
 -5  STR(%)      1    1    0    0
 -1         1 3.64614E+01
 -1         2 2.35270E+01
 -1         3 1.04268E-01
 -1         4 1.72745E-01
 -1         5 1.40404E+01
 -1         6 1.31447E+01
 -1         7 1.31447E+01
 -1         8 3.66362E+00
 -1         9 1.82463E+00
 -1        10 1.28887E+00
 -1        11 1.04611E+00
 -1        12 8.99865E-01
 -1        13 8.08937E-01
 -1        14 7.54217E-01
 -1        15 7.56171E-01
 -1        16 8.13207E-01
 -1        17 9.00751E-01
 -1        18 1.05237E+00
 -1        19 1.30743E+00
 -1        20 1.83533E+00
 -1        21 3.50541E+00
 -1        22 8.64231E+00
 -1        23 1.31447E+01
 -1        24 4.31860E+00
 -1        25 3.34210E+00
 -1        26 2.11290E+00
 -1        27 1.36453E+00
 -1        28 1.01524E+00
 -1        29 7.76725E-01
 -1        30 5.97601E-01
 -1        31 4.58368E-01
 -1        32 3.51737E-01
 -1        33 2.74353E-01
 -1        34 2.12868E-01
 -1        35 1.65292E-01
 -1        36 1.29709E-01
 -1        37 1.04367E-01
 -1        38 8.76925E-02
 -1        39 8.16057E-02
 -1        40 9.01300E-02
 -1        41 1.03321E-01
 -1        42 1.34445E-01
 -1        43 1.77399E-01
 -1        44 2.33541E-01
 -1        45 3.03824E-01
 -1        46 3.88052E-01
 -1        47 4.83802E-01
 -1        48 5.84826E-01
 -1        49 7.19916E-01
 -1        50 9.29664E-01
 -1        51 1.16237E+00
 -1        52 1.44047E+00
 -1        53 1.64703E+00
 -1        54 1.65296E+00
 -1        55 1.72733E+00
 -1        56 1.72733E+00
 -1        57 2.15999E+00
 -1        58 3.56206E+00
 -1        59 4.90973E+00
 -1        60 4.90973E+00
 -1        61 4.78069E+00
 -1        62 4.63055E+00
 -1        63 3.04117E+00
 -1        64 1.80375E+00
 -1        65 1.33749E+00
 -1        66 1.48034E+00
 -1        67 1.48034E+00
 -1        68 1.22717E+00
 -1        69 1.11735E+00
 -1        70 1.04382E+00
 -1        71 8.27797E-01
 -1        72 1.40404E+01
 -1        73 3.39529E+00
 -1        74 2.41397E+00
 -1        75 1.66696E+00
 -1        76 1.14607E+00
 -1        77 9.06404E-01
 -1        78 7.32080E-01
 -1        79 5.89202E-01
 -1        80 4.70524E-01
 -1        81 3.72301E-01
 -1        82 2.98983E-01
 -1        83 2.39177E-01
 -1        84 1.90836E-01
 -1        85 1.53328E-01
 -1        86 1.25837E-01
 -1        87 1.07519E-01
 -1        88 1.01194E-01
 -1        89 1.12269E-01
 -1        90 1.30344E-01
 -1        91 1.54363E-01
 -1        92 1.82709E-01
 -1        93 2.18423E-01
 -1        94 2.76883E-01
 -1        95 3.42579E-01
 -1        96 4.10644E-01
 -1        97 4.72482E-01
 -1        98 5.14575E-01
 -1        99 5.27754E-01
 -1       100 6.64208E-01
 -1       101 8.30710E-01
 -1       102 9.40715E-01
 -1       103 1.13481E+00
 -1       104 1.34735E+00
 -1       105 1.36661E+00
 -1       106 1.68150E+00
 -1       107 2.11373E+00
 -1       108 2.93572E+00
 -1       109 3.09275E+00
 -1       110 3.40370E+00
 -1       111 3.40370E+00
 -1       112 2.77130E+00
 -1       113 1.72328E+00
 -1       114 9.67141E-01
 -1       115 8.01689E-01
 -1       116 8.79687E-01
 -1       117 8.79687E-01
 -1       118 7.12849E-01
 -1       119 6.66074E-01
 -1       120 3.92742E-01
 -1       121 2.19957E-01
 -1       122 2.19957E-01
 -1       123 2.09024E-01
 -1       124 1.74137E-01
 -1       125 1.18346E-01
 -1       126 1.18698E-01
 -1       127 2.47681E-01
 -1       128 3.31096E-01
 -1       129 3.35589E-01
 -1       130 3.35589E-01
 -1       131 2.56584E-01
 -1       132 1.29258E-01
 -1       133 1.55007E-01
 -1       134 2.51588E-01
 -1       135 4.28732E-01
 -1       136 4.96739E-01
 -1       137 2.46441E+01
 -1       138 4.82087E+01
 -1       139 4.82087E+01
 -1       140 2.07540E+01
 -1       141 1.30702E+01
 -1       142 1.30702E+01
 -1       143 1.19712E+01
 -1       144 1.23487E+01
 -1       145 1.23487E+01
 -1       146 1.32139E+01
 -1       147 3.12266E+01
 -1       148 3.12266E+01
 -1       149 2.76964E+01
 -1       150 2.47921E+01
 -1       151 2.41088E+01
 -1       152 2.59064E+01
 -1       153 3.64614E+01
 -1       154 1.40122E+01
 -1       155 1.21462E+01
 -1       156 1.23575E+01
 -1       157 1.28410E+01
 -1       158 1.28410E+01
 -1       159 1.25887E+01
 -1       160 2.09971E+01
 -1       161 4.80762E+01
 -1       162 4.80762E+01
 -1       163 2.42164E+01
 -1       164 6.07790E+00
 -1       165 2.29851E+00
 -1       166 1.50729E+00
 -1       167 1.15767E+00
 -1       168 9.73424E-01
 -1       169 8.64614E-01
 -1       170 7.96233E-01
 -1       171 7.56171E-01
 -1       172 7.99654E-01
 -1       173 8.67275E-01
 -1       174 9.80879E-01
 -1       175 1.17221E+00
 -1       176 1.52718E+00
 -1       177 2.26044E+00
 -1       178 3.93119E+00
 -1       179 1.40404E+01
 -1       180 4.31860E+00
 -1       181 3.34210E+00
 -1       182 2.11290E+00
 -1       183 1.44882E+00
 -1       184 1.02750E+00
 -1       185 7.76725E-01
 -1       186 5.97601E-01
 -1       187 4.70919E-01
 -1       188 3.71930E-01
 -1       189 2.94356E-01
 -1       190 2.38832E-01
 -1       191 1.92126E-01
 -1       192 1.54043E-01
 -1       193 1.23898E-01
 -1       194 1.00734E-01
 -1       195 8.34425E-02
 -1       196 8.16057E-02
 -1       197 9.01300E-02
 -1       198 1.11962E-01
 -1       199 1.44115E-01
 -1       200 1.86132E-01
 -1       201 2.38705E-01
 -1       202 3.03824E-01
 -1       203 4.07608E-01
 -1       204 5.43757E-01
 -1       205 7.00535E-01
 -1       206 8.66864E-01
 -1       207 1.02032E+00
 -1       208 1.19082E+00
 -1       209 1.44047E+00
 -1       210 1.64703E+00
 -1       211 1.65296E+00
 -1       212 1.72733E+00
 -1       213 1.52155E+00
 -1       214 2.15999E+00
 -1       215 3.56206E+00
 -1       216 4.90973E+00
 -1       217 4.78069E+00
 -1       218 4.63055E+00
 -1       219 3.04117E+00
 -1       220 1.80375E+00
 -1       221 1.33749E+00
 -1       222 1.32046E+00
 -1       223 1.48034E+00
 -1       224 1.22717E+00
 -1       225 1.11735E+00
 -1       226 1.04382E+00
 -1       227 8.27797E-01
 -1       228 3.39529E+00
 -1       229 2.41397E+00
 -1       230 1.66696E+00
 -1       231 1.14607E+00
 -1       232 9.06404E-01
 -1       233 7.32080E-01
 -1       234 5.89202E-01
 -1       235 4.70524E-01
 -1       236 3.72301E-01
 -1       237 2.98983E-01
 -1       238 2.39177E-01
 -1       239 1.92537E-01
 -1       240 1.56182E-01
 -1       241 1.28265E-01
 -1       242 1.08196E-01
 -1       243 9.79096E-02
 -1       244 1.01194E-01
 -1       245 1.12269E-01
 -1       246 1.30344E-01
 -1       247 1.54584E-01
 -1       248 1.95741E-01
 -1       249 2.44084E-01
 -1       250 2.97431E-01
 -1       251 3.51521E-01
 -1       252 4.10644E-01
 -1       253 4.72482E-01
 -1       254 5.14575E-01
 -1       255 5.75738E-01
 -1       256 6.83749E-01
 -1       257 8.30710E-01
 -1       258 9.40715E-01
 -1       259 1.13481E+00
 -1       260 1.34735E+00
 -1       261 1.36661E+00
 -1       262 1.68150E+00
 -1       263 2.13107E+00
 -1       264 2.93572E+00
 -1       265 3.09275E+00
 -1       266 3.40370E+00
 -1       267 2.77130E+00
 -1       268 1.72328E+00
 -1       269 9.67141E-01
 -1       270 6.26866E-01
 -1       271 8.01689E-01
 -1       272 8.79687E-01
 -1       273 7.12849E-01
 -1       274 6.66074E-01
 -1       275 4.23879E-01
 -1       276 2.93819E-01
 -1       277 3.47582E-01
 -1       278 3.47582E-01
 -1       279 3.06527E-01
 -1       280 2.04144E-01
 -1       281 4.11476E-01
 -1       282 6.03864E-01
 -1       283 6.51605E-01
 -1       284 6.51605E-01
 -1       285 6.14080E-01
 -1       286 4.31808E-01
 -1       287 2.45906E-01
 -1       288 4.01709E-01
 -1       289 4.01709E-01
 -1       290 4.96072E-01
 -1       291 2.88513E+01
 -1       292 2.92798E+01
 -1       293 4.82087E+01
 -1       294 2.25672E+01
 -1       295 1.13733E+01
 -1       296 1.30702E+01
 -1       297 1.19712E+01
 -1       298 1.15771E+01
 -1       299 1.23487E+01
 -1       300 1.14733E+01
 -1       301 1.32139E+01
 -1       302 3.12266E+01
 -1       303 3.10058E+01
 -1       304 2.64859E+01
 -1       305 2.68740E+01
 -1       306 2.68740E+01
 -1       307 3.35975E+01
 -1       308 3.64614E+01
 -1       309 1.45209E+01
 -1       310 1.14656E+01
 -1       311 1.21462E+01
 -1       312 1.23575E+01
 -1       313 1.28410E+01
 -1       314 1.25887E+01
 -1       315 1.13290E+01
 -1       316 2.29138E+01
 -1       317 4.80762E+01
 -1       318 3.03281E+01
 -1       319 2.88513E+01
 -1       320 1.04769E+00
 -1       321 2.47980E+00
 -1       322 7.94987E-01
 -1       323 6.94846E-01
 -1       324 6.31869E-01
 -1       325 5.87780E-01
 -1       326 5.90963E-01
 -1       327 6.34522E-01
 -1       328 7.01118E-01
 -1       329 7.96189E-01
 -1       330 9.31523E-01
 -1       331 1.15963E+00
 -1       332 1.32868E+00
 -1       333 2.20133E+00
 -1       334 1.91499E+00
 -1       335 1.73055E+00
 -1       336 1.26895E+00
 -1       337 9.09003E-01
 -1       338 6.58355E-01
 -1       339 5.40508E-01
 -1       340 4.44100E-01
 -1       341 3.59489E-01
 -1       342 2.94493E-01
 -1       343 2.40303E-01
 -1       344 1.94078E-01
 -1       345 1.57415E-01
 -1       346 1.28579E-01
 -1       347 1.04144E-01
 -1       348 8.36185E-02
 -1       349 7.37247E-02
 -1       350 7.30272E-02
 -1       351 8.86376E-02
 -1       352 1.11962E-01
 -1       353 1.44115E-01
 -1       354 2.02396E-01
 -1       355 2.81952E-01
 -1       356 3.81237E-01
 -1       357 5.01158E-01
 -1       358 6.39549E-01
 -1       359 7.88889E-01
 -1       360 9.33361E-01
 -1       361 1.04597E+00
 -1       362 1.17149E+00
 -1       363 1.28234E+00
 -1       364 1.24491E+00
 -1       365 1.09160E+00
 -1       366 1.20307E+00
 -1       367 1.40925E+00
 -1       368 2.12182E+00
 -1       369 2.80995E+00
 -1       370 2.92571E+00
 -1       371 2.91801E+00
 -1       372 2.61305E+00
 -1       373 2.03348E+00
 -1       374 1.49880E+00
 -1       375 1.21544E+00
 -1       376 1.00831E+00
 -1       377 8.83396E-01
 -1       378 7.78011E-01
 -1       379 8.08056E-01
 -1       380 7.12638E-01
 -1       381 1.13128E+00
 -1       382 8.92750E-01
 -1       383 7.05592E-01
 -1       384 5.47182E-01
 -1       385 4.39847E-01
 -1       386 3.73997E-01
 -1       387 3.11063E-01
 -1       388 2.55914E-01
 -1       389 2.11425E-01
 -1       390 1.72614E-01
 -1       391 1.41302E-01
 -1       392 1.17421E-01
 -1       393 9.96870E-02
 -1       394 8.77545E-02
 -1       395 8.56515E-02
 -1       396 8.98266E-02
 -1       397 1.03928E-01
 -1       398 1.30306E-01
 -1       399 1.64920E-01
 -1       400 2.29411E-01
 -1       401 3.07460E-01
 -1       402 3.97661E-01
 -1       403 4.95369E-01
 -1       404 5.91150E-01
 -1       405 6.69406E-01
 -1       406 7.46593E-01
 -1       407 7.67379E-01
 -1       408 7.67379E-01
 -1       409 6.90603E-01
 -1       410 5.72439E-01
 -1       411 6.12277E-01
 -1       412 1.15775E+00
 -1       413 1.70013E+00
 -1       414 1.91398E+00
 -1       415 1.91398E+00
 -1       416 1.84551E+00
 -1       417 2.01059E+00
 -1       418 1.85924E+00
 -1       419 1.32528E+00
 -1       420 8.82738E-01
 -1       421 5.98318E-01
 -1       422 5.48947E-01
 -1       423 5.57315E-01
 -1       424 5.39716E-01
 -1       425 5.39731E-01
 -1       426 4.23879E-01
 -1       427 4.46894E-01
 -1       428 4.46894E-01
 -1       429 4.51725E-01
 -1       430 4.14855E-01
 -1       431 4.91031E-01
 -1       432 8.10094E-01
 -1       433 9.79958E-01
 -1       434 9.81591E-01
 -1       435 9.81591E-01
 -1       436 8.47901E-01
 -1       437 5.29708E-01
 -1       438 4.86221E-01
 -1       439 6.35747E-01
 -1       440 2.92798E+01
 -1       441 2.96510E+01
 -1       442 2.96510E+01
 -1       443 1.70679E+01
 -1       444 9.22972E+00
 -1       445 9.10597E-01
 -1       446 9.81036E+00
 -1       447 1.04574E+01
 -1       448 1.05167E+01
 -1       449 9.11727E+00
 -1       450 7.32128E+00
 -1       451 1.24514E+01
 -1       452 2.11681E+01
 -1       453 2.53836E+01
 -1       454 3.57308E+01
 -1       455 3.57308E+01
 -1       456 2.65212E+01
 -1       457 2.21133E+01
 -1       458 1.27989E+01
 -1       459 7.90885E+00
 -1       460 8.46593E+00
 -1       461 9.88369E+00
 -1       462 1.09672E+01
 -1       463 1.03653E+01
 -1       464 7.52882E+00
 -1       465 9.34845E+00
 -1       466 1.69564E+01
 -1       467 3.03281E+01
 -1       468 2.91744E+01
 -1       469 6.52062E+00
 -1       470 6.99224E+00
 -1       471 1.04904E+00
 -1       472 4.86367E-01
 -1       473 5.14257E-01
 -1       474 4.31737E-01
 -1       475 4.57538E-01
 -1       476 4.86998E-01
 -1       477 5.10987E-01
 -1       478 5.10987E-01
 -1       479 6.08117E-01
 -1       480 8.92750E-01
 -1       481 8.03653E-01
 -1       482 5.37461E+00
 -1       483 7.03655E-01
 -1       484 5.90710E-01
 -1       485 4.78688E-01
 -1       486 3.80398E-01
 -1       487 3.25918E-01
 -1       488 2.76674E-01
 -1       489 2.30281E-01
 -1       490 1.91098E-01
 -1       491 1.57857E-01
 -1       492 1.28720E-01
 -1       493 1.04144E-01
 -1       494 8.36185E-02
 -1       495 6.83895E-02
 -1       496 5.72983E-02
 -1       497 6.75313E-02
 -1       498 8.26702E-02
 -1       499 1.22096E-01
 -1       500 1.76398E-01
 -1       501 2.44868E-01
 -1       502 3.30118E-01
 -1       503 4.34165E-01
 -1       504 5.57654E-01
 -1       505 6.98642E-01
 -1       506 8.50821E-01
 -1       507 1.00122E+00
 -1       508 1.12776E+00
 -1       509 1.26509E+00
 -1       510 1.47593E+00
 -1       511 1.65988E+00
 -1       512 1.72918E+00
 -1       513 2.26089E+00
 -1       514 2.10053E+00
 -1       515 2.87209E+00
 -1       516 4.33231E+00
 -1       517 4.57714E+00
 -1       518 2.91801E+00
 -1       519 2.21020E+00
 -1       520 2.10526E+00
 -1       521 2.01097E+00
 -1       522 1.52910E+00
 -1       523 1.13144E+00
 -1       524 9.19718E-01
 -1       525 7.30880E-01
 -1       526 5.47182E-01
 -1       527 4.39847E-01
 -1       528 3.73997E-01
 -1       529 3.11063E-01
 -1       530 2.55914E-01
 -1       531 2.11690E-01
 -1       532 1.73256E-01
 -1       533 1.40468E-01
 -1       534 1.13178E-01
 -1       535 9.12721E-02
 -1       536 7.41818E-02
 -1       537 6.38184E-02
 -1       538 6.91590E-02
 -1       539 8.36719E-02
 -1       540 1.05057E-01
 -1       541 1.52163E-01
 -1       542 2.10088E-01
 -1       543 2.79694E-01
 -1       544 3.60478E-01
 -1       545 4.49680E-01
 -1       546 5.41123E-01
 -1       547 6.23959E-01
 -1       548 6.96187E-01
 -1       549 7.46593E-01
 -1       550 7.99715E-01
 -1       551 7.95457E-01
 -1       552 7.59863E-01
 -1       553 8.87008E-01
 -1       554 1.05062E+00
 -1       555 1.44062E+00
 -1       556 1.71968E+00
 -1       557 2.07075E+00
 -1       558 2.09585E+00
 -1       559 2.04730E+00
 -1       560 1.77037E+00
 -1       561 1.56092E+00
 -1       562 1.35328E+00
 -1       563 9.79490E-01
 -1       564 8.34267E-01
 -1       565 6.21220E-01
 -1       566 5.57315E-01
 -1       567 5.36569E-01
 -1       568 7.54782E-01
 -1       569 9.11338E-01
 -1       570 7.08231E-01
 -1       571 7.08231E-01
 -1       572 1.34840E+00
 -1       573 1.35021E+00
 -1       574 1.38983E+00
 -1       575 1.38983E+00
 -1       576 9.95346E-01
 -1       577 8.06401E-01
 -1       578 6.37523E-01
 -1       579 2.96510E+01
 -1       580 1.28119E+01
 -1       581 7.05592E-01
 -1       582 2.91744E+01
 -1       583 2.16721E+01
 -1       584 8.72782E-01
 -1       585 2.01165E+01
 -1       586 7.50772E+00
 -1       587 4.57448E-01
 -1       588 8.52027E+00
 -1       589 8.75678E+00
 -1       590 7.86039E+00
 -1       591 6.76658E+00
 -1       592 4.05973E+00
 -1       593 6.81675E+00
 -1       594 9.92811E+00
 -1       595 1.63990E+01
 -1       596 2.53836E+01
 -1       597 3.57308E+01
 -1       598 2.65212E+01
 -1       599 1.75821E+01
 -1       600 1.06505E+01
 -1       601 7.71484E+00
 -1       602 4.33944E+00
 -1       603 6.18101E+00
 -1       604 8.14453E+00
 -1       605 5.50071E+00
 -1       606 5.99495E+00
 -1       607 1.31902E+01
 -1       608 1.32858E+00
 -1       609 8.23137E+00
 -1       610 5.30963E-01
 -1       611 5.77549E+00
 -1       612 1.77098E+01
 -1       613 1.57637E+01
 -1       614 1.51404E+01
 -1       615 3.79737E+00
 -1       616 6.35747E-01
 -1       617 3.58565E-01
 -1       618 3.43091E-01
 -1       619 3.61788E-01
 -1       620 3.37630E-01
 -1       621 5.44354E-01
 -1       622 6.08417E+00
 -1       623 1.21101E+01
 -1       624 3.98537E-01
 -1       625 3.85965E-01
 -1       626 3.45204E-01
 -1       627 2.95822E-01
 -1       628 2.46341E-01
 -1       629 2.14713E-01
 -1       630 1.82079E-01
 -1       631 1.50621E-01
 -1       632 1.24262E-01
 -1       633 1.01209E-01
 -1       634 8.10705E-02
 -1       635 6.32456E-02
 -1       636 4.67924E-02
 -1       637 4.40473E-02
 -1       638 5.76671E-02
 -1       639 9.34984E-02
 -1       640 1.37866E-01
 -1       641 1.93195E-01
 -1       642 2.62132E-01
 -1       643 3.47513E-01
 -1       644 4.52303E-01
 -1       645 5.79506E-01
 -1       646 7.32264E-01
 -1       647 9.13817E-01
 -1       648 1.11874E+00
 -1       649 1.34565E+00
 -1       650 1.56707E+00
 -1       651 1.97102E+00
 -1       652 2.55034E+00
 -1       653 3.01226E+00
 -1       654 2.95899E+00
 -1       655 2.87209E+00
 -1       656 2.94625E+00
 -1       657 2.11520E+00
 -1       658 3.85702E+00
 -1       659 2.45091E+00
 -1       660 1.94833E+00
 -1       661 1.40484E+00
 -1       662 1.03894E+00
 -1       663 3.30170E-01
 -1       664 9.19085E-01
 -1       665 3.98465E-01
 -1       666 2.37116E-01
 -1       667 2.00612E-01
 -1       668 1.66857E-01
 -1       669 1.37319E-01
 -1       670 1.12056E-01
 -1       671 9.00797E-02
 -1       672 7.19803E-02
 -1       673 5.63229E-02
 -1       674 5.01129E-02
 -1       675 5.92468E-02
 -1       676 8.50371E-02
 -1       677 1.26125E-01
 -1       678 1.76306E-01
 -1       679 2.37018E-01
 -1       680 3.09104E-01
 -1       681 3.92323E-01
 -1       682 4.84662E-01
 -1       683 5.81399E-01
 -1       684 6.73941E-01
 -1       685 7.48693E-01
 -1       686 8.70937E-01
 -1       687 9.97759E-01
 -1       688 1.08786E+00
 -1       689 1.22334E+00
 -1       690 1.52740E+00
 -1       691 1.58362E+00
 -1       692 2.13283E+00
 -1       693 3.27077E+00
 -1       694 4.32023E+00
 -1       695 4.15002E+00
 -1       696 2.24294E+00
 -1       697 1.70007E+00
 -1       698 1.76540E+00
 -1       699 1.42836E+00
 -1       700 1.23690E+00
 -1       701 9.02213E-01
 -1       702 6.21220E-01
 -1       703 7.34513E+00
 -1       704 2.06027E+00
 -1       705 7.75193E-01
 -1       706 1.26044E+00
 -1       707 2.07540E+00
 -1       708 1.58371E+00
 -1       709 2.07540E+00
 -1       710 1.71646E+00
 -1       711 1.36751E+00
 -1       712 1.03087E+00
 -1       713 6.04000E+00
 -1       714 5.30963E-01
 -1       715 1.31939E+01
 -1       716 1.07475E+01
 -1       717 1.61598E+01
 -1       718 5.74114E+00
 -1       719 4.65721E-01
 -1       720 2.75386E-01
 -1       721 4.02729E-01
 -1       722 3.61788E-01
 -1       723 5.16706E-01
 -1       724 4.57714E+00
 -1       725 3.58858E-01
 -1       726 3.17469E+00
 -1       727 1.55036E+01
 -1       728 9.24051E+00
 -1       729 4.40470E+00
 -1       730 5.89676E+00
 -1       731 8.77701E+00
 -1       732 1.50816E+01
 -1       733 6.89877E+00
 -1       734 2.84455E+00
 -1       735 4.33231E+00
 -1       736 6.04059E+00
 -1       737 3.68952E+00
 -1       738 4.72387E+00
 -1       739 7.85271E+00
 -1       740 5.62768E+00
 -1       741 3.78120E-01
 -1       742 3.42676E-01
 -1       743 4.76712E+00
 -1       744 4.12900E+00
 -1       745 1.01858E+00
 -1       746 6.79188E+00
 -1       747 1.04781E+01
 -1       748 1.02814E+01
 -1       749 9.32584E+00
 -1       750 3.57723E-01
 -1       751 9.27969E+00
 -1       752 3.11937E+00
 -1       753 2.40073E-01
 -1       754 3.27077E+00
 -1       755 2.56984E-01
 -1       756 2.50152E-01
 -1       757 2.28429E-01
 -1       758 2.00018E-01
 -1       759 1.73093E-01
 -1       760 1.51489E-01
 -1       761 1.28405E-01
 -1       762 1.05551E-01
 -1       763 8.37020E-02
 -1       764 6.29605E-02
 -1       765 4.29230E-02
 -1       766 3.09842E-02
 -1       767 3.76201E-02
 -1       768 6.76004E-02
 -1       769 1.04902E-01
 -1       770 1.54784E-01
 -1       771 2.17938E-01
 -1       772 2.97312E-01
 -1       773 3.95811E-01
 -1       774 5.15806E-01
 -1       775 6.58185E-01
 -1       776 8.20503E-01
 -1       777 1.02396E+00
 -1       778 1.29923E+00
 -1       779 1.74573E+00
 -1       780 2.31723E+00
 -1       781 2.78529E+00
 -1       782 3.68695E+00
 -1       783 4.62007E+00
 -1       784 3.16212E+00
 -1       785 2.50159E+00
 -1       786 1.97994E+00
 -1       787 1.37869E-01
 -1       788 2.88381E-01
 -1       789 1.64373E-01
 -1       790 1.90395E-01
 -1       791 1.12486E-01
 -1       792 8.88340E-02
 -1       793 6.73629E-02
 -1       794 4.96060E-02
 -1       795 3.20997E-02
 -1       796 3.35165E-02
 -1       797 5.90654E-02
 -1       798 9.27283E-02
 -1       799 1.33670E-01
 -1       800 1.83728E-01
 -1       801 2.44811E-01
 -1       802 3.18837E-01
 -1       803 4.10729E-01
 -1       804 5.18026E-01
 -1       805 6.38314E-01
 -1       806 7.68597E-01
 -1       807 9.09412E-01
 -1       808 1.07838E+00
 -1       809 1.35138E+00
 -1       810 1.63250E+00
 -1       811 1.86635E+00
 -1       812 2.70517E+00
 -1       813 4.32023E+00
 -1       814 2.66069E+00
 -1       815 2.50057E+00
 -1       816 2.11942E+00
 -1       817 1.75621E+00
 -1       818 1.33160E+00
 -1       819 2.91559E+00
 -1       820 2.79589E+00
 -1       821 2.91559E+00
 -1       822 7.78540E+00
 -1       823 4.27035E+00
 -1       824 2.83331E-01
 -1       825 3.06946E-01
 -1       826 8.97283E+00
 -1       827 1.00659E+01
 -1       828 4.21076E+00
 -1       829 2.33839E-01
 -1       830 7.84607E+00
 -1       831 4.27040E+00
 -1       832 1.02262E+01
 -1       833 9.14370E+00
 -1       834 2.17553E+00
 -1       835 1.09167E+01
 -1       836 2.88912E-01
 -1       837 5.40927E+00
 -1       838 3.98572E+00
 -1       839 2.81487E-01
 -1       840 2.19195E-01
 -1       841 1.69453E+00
 -1       842 2.61510E-01
 -1       843 2.13283E+00
 -1       844 4.15002E+00
 -1       845 9.02213E-01
 -1       846 2.74118E+00
 -1       847 2.14334E+00
 -1       848 7.19986E+00
 -1       849 2.81477E-01
 -1       850 6.91847E+00
 -1       851 7.50279E+00
 -1       852 2.88912E-01
 -1       853 2.66069E+00
 -1       854 2.55909E-01
 -1       855 6.91866E+00
 -1       856 2.79280E-01
 -1       857 2.83350E+00
 -1       858 1.40147E+00
 -1       859 2.71767E-01
 -1       860 2.88735E-01
 -1       861 7.23349E+00
 -1       862 1.83703E-01
 -1       863 1.76377E-01
 -1       864 1.60397E-01
 -1       865 1.40195E-01
 -1       866 1.23562E-01
 -1       867 1.06248E-01
 -1       868 8.81704E-02
 -1       869 7.01984E-02
 -1       870 5.25906E-02
 -1       871 4.50821E-02
 -1       872 4.88089E-02
 -1       873 6.35870E-02
 -1       874 9.87284E-02
 -1       875 1.43748E-01
 -1       876 2.00785E-01
 -1       877 2.72948E-01
 -1       878 3.63944E-01
 -1       879 4.78282E-01
 -1       880 6.21558E-01
 -1       881 8.00721E-01
 -1       882 1.02396E+00
 -1       883 1.29884E+00
 -1       884 1.66266E+00
 -1       885 2.28878E+00
 -1       886 3.78418E+00
 -1       887 4.97501E+00
 -1       888 3.34910E+00
 -1       889 6.08220E+00
 -1       890 3.00909E+00
 -1       891 9.56386E-02
 -1       892 1.15762E-01
 -1       893 1.53131E-01
 -1       894 7.59342E-02
 -1       895 5.68472E-02
 -1       896 3.81473E-02
 -1       897 3.99932E-02
 -1       898 5.06091E-02
 -1       899 8.11374E-02
 -1       900 1.20584E-01
 -1       901 1.69009E-01
 -1       902 2.27877E-01
 -1       903 2.98202E-01
 -1       904 3.80092E-01
 -1       905 4.71979E-01
 -1       906 5.76715E-01
 -1       907 7.15801E-01
 -1       908 9.17791E-01
 -1       909 1.18976E+00
 -1       910 1.48980E+00
 -1       911 1.82229E+00
 -1       912 2.59582E+00
 -1       913 3.43391E+00
 -1       914 2.16915E+00
 -1       915 4.90046E+00
 -1       916 4.99896E+00
 -1       917 6.56252E+00
 -1       918 2.96325E+00
 -1       919 2.88735E-01
 -1       920 1.35475E-01
 -1       921 7.49520E+00
 -1       922 1.42055E-01
 -1       923 1.75918E-01
 -1       924 7.08152E+00
 -1       925 2.08768E-01
 -1       926 4.78045E+00
 -1       927 6.35526E+00
 -1       928 1.76994E-01
 -1       929 6.01673E+00
 -1       930 2.21058E-01
 -1       931 1.45101E-01
 -1       932 1.91354E+00
 -1       933 4.99896E+00
 -1       934 1.69300E-01
 -1       935 7.19986E+00
 -1       936 3.74723E+00
 -1       937 5.48166E+00
 -1       938 1.41759E-01
 -1       939 2.17597E-01
 -1       940 1.88459E-01
 -1       941 2.10905E-01
 -1       942 1.36851E-01
 -1       943 1.36023E-01
 -1       944 1.26860E-01
 -1       945 1.12993E-01
 -1       946 9.82238E-02
 -1       947 8.51162E-02
 -1       948 7.11580E-02
 -1       949 5.71240E-02
 -1       950 5.42162E-02
 -1       951 5.75746E-02
 -1       952 6.45272E-02
 -1       953 8.39457E-02
 -1       954 1.20872E-01
 -1       955 1.67742E-01
 -1       956 2.27263E-01
 -1       957 3.02924E-01
 -1       958 3.99509E-01
 -1       959 5.24077E-01
 -1       960 6.87743E-01
 -1       961 9.08682E-01
 -1       962 1.21676E+00
 -1       963 1.66266E+00
 -1       964 2.28878E+00
 -1       965 3.42888E+00
 -1       966 5.81869E+00
 -1       967 9.38513E-02
 -1       968 4.98358E-02
 -1       969 9.42988E-02
 -1       970 7.85244E-02
 -1       971 5.16970E-02
 -1       972 5.68018E-02
 -1       973 7.42687E-02
 -1       974 1.09517E-01
 -1       975 1.53474E-01
 -1       976 2.08110E-01
 -1       977 2.75545E-01
 -1       978 3.58004E-01
 -1       979 4.57733E-01
 -1       980 5.76715E-01
 -1       981 7.15801E-01
 -1       982 8.80495E-01
 -1       983 1.15018E+00
 -1       984 1.61021E+00
 -1       985 2.81191E+00
 -1       986 3.97868E+00
 -1       987 2.53028E+00
 -1       988 2.12378E-01
 -1       989 3.43391E+00
 -1       990 4.59004E+00
 -1       991 2.21058E-01
 -1       992 1.24415E-01
 -1       993 1.97886E-01
 -1       994 2.04588E-01
 -1       995 6.26488E-02
 -1       996 1.10551E-01
 -1       997 2.16915E+00
 -1       998 4.55955E+00
 -1       999 1.53499E-01
 -1      1000 1.24676E-01
 -1      1001 1.41188E-01
 -1      1002 1.47835E-01
 -1      1003 1.21018E-01
 -1      1004 4.27765E+00
 -1      1005 5.06026E+00
 -1      1006 1.09196E-01
 -1      1007 4.40755E+00
 -1      1008 1.59602E-01
 -1      1009 1.56620E-01
 -1      1010 9.38513E-02
 -1      1011 1.51837E-01
 -1      1012 1.02287E-01
 -1      1013 1.03587E-01
 -1      1014 9.79895E-02
 -1      1015 8.82436E-02
 -1      1016 7.63543E-02
 -1      1017 6.55003E-02
 -1      1018 6.03213E-02
 -1      1019 5.84048E-02
 -1      1020 6.16648E-02
 -1      1021 6.75508E-02
 -1      1022 7.91260E-02
 -1      1023 9.95048E-02
 -1      1024 1.27745E-01
 -1      1025 1.70638E-01
 -1      1026 2.26139E-01
 -1      1027 2.96880E-01
 -1      1028 3.88172E-01
 -1      1029 5.08949E-01
 -1      1030 6.75445E-01
 -1      1031 9.18341E-01
 -1      1032 1.29517E+00
 -1      1033 1.89774E+00
 -1      1034 6.24578E-02
 -1      1035 7.41955E-02
 -1      1036 7.12025E-02
 -1      1037 9.05110E-02
 -1      1038 1.26666E-01
 -1      1039 1.72613E-01
 -1      1040 2.30922E-01
 -1      1041 3.04895E-01
 -1      1042 3.98985E-01
 -1      1043 5.19464E-01
 -1      1044 6.75443E-01
 -1      1045 8.80495E-01
 -1      1046 1.15018E+00
 -1      1047 1.49821E+00
 -1      1048 2.80004E+00
 -1      1049 1.53071E-01
 -1      1050 1.40085E-01
 -1      1051 5.66385E-02
 -1      1052 3.20411E+00
 -1      1053 9.03661E-02
 -1      1054 5.65394E-02
 -1      1055 6.23921E-02
 -1      1056 2.68212E+00
 -1      1057 8.54098E-02
 -1      1058 1.59602E-01
 -1      1059 3.73388E+00
 -1      1060 1.05148E-01
 -1      1061 1.01905E-01
 -1      1062 9.89913E-02
 -1      1063 1.01905E-01
 -1      1064 1.23861E-01
 -1      1065 7.46054E-02
 -1      1066 1.03658E-01
 -1      1067 8.35662E-02
 -1      1068 7.90545E-02
 -1      1069 7.13239E-02
 -1      1070 6.31371E-02
 -1      1071 6.03213E-02
 -1      1072 7.72950E-02
 -1      1073 6.75508E-02
 -1      1074 7.91260E-02
 -1      1075 9.85773E-02
 -1      1076 1.24990E-01
 -1      1077 1.59731E-01
 -1      1078 2.04522E-01
 -1      1079 2.61709E-01
 -1      1080 3.34794E-01
 -1      1081 4.29469E-01
 -1      1082 5.55655E-01
 -1      1083 7.31794E-01
 -1      1084 1.03690E+00
 -1      1085 1.56289E+00
 -1      1086 8.80511E-02
 -1      1087 2.35321E+00
 -1      1088 7.12025E-02
 -1      1089 1.41377E-01
 -1      1090 1.80155E-01
 -1      1091 2.29695E-01
 -1      1092 3.05594E-01
 -1      1093 4.06847E-01
 -1      1094 5.44907E-01
 -1      1095 7.38660E-01
 -1      1096 1.03690E+00
 -1      1097 1.53471E+00
 -1      1098 2.63107E+00
 -1      1099 1.16765E-01
 -1      1100 5.23250E-02
 -1      1101 6.60853E-02
 -1      1102 1.11078E-01
 -1      1103 7.72950E-02
 -1      1104 2.92659E+00
 -1      1105 7.90545E-02
 -1      1106 7.57307E-02
 -1      1107 7.90592E-02
 -1      1108 1.23861E-01
 -1      1109 7.13239E-02
 -1      1110 9.81291E-02
 -1      1111 8.35662E-02
 -1      1112 5.29626E-02
 -1      1113 1.03658E-01
 -1      1114 1.23861E-01
 -1      1115 7.72950E-02
 -1      1116 8.81216E-02
 -1      1117 5.46306E-02
 -1      1118 6.24140E-02
 -1      1119 7.03832E-02
 -1      1120 1.31447E+01
 -1      1121 8.40415E+00
 -1      1122 2.74412E+00
 -1      1123 1.55675E+00
 -1      1124 1.16749E+00
 -1      1125 9.72990E-01
 -1      1126 8.54401E-01
 -1      1127 7.81577E-01
 -1      1128 7.55194E-01
 -1      1129 7.84689E-01
 -1      1130 8.56979E-01
 -1      1131 9.76560E-01
 -1      1132 1.17990E+00
 -1      1133 1.57138E+00
 -1      1134 2.67037E+00
 -1      1135 6.07386E+00
 -1      1136 1.13413E+01
 -1      1137 1.31447E+01
 -1      1138 8.73164E+00
 -1      1139 3.83035E+00
 -1      1140 2.72750E+00
 -1      1141 1.73871E+00
 -1      1142 1.18989E+00
 -1      1143 8.95984E-01
 -1      1144 6.87163E-01
 -1      1145 5.27985E-01
 -1      1146 4.05052E-01
 -1      1147 3.13045E-01
 -1      1148 2.43610E-01
 -1      1149 1.89080E-01
 -1      1150 1.47501E-01
 -1      1151 1.17038E-01
 -1      1152 9.60297E-02
 -1      1153 8.46491E-02
 -1      1154 8.58679E-02
 -1      1155 9.67254E-02
 -1      1156 1.18883E-01
 -1      1157 1.55922E-01
 -1      1158 2.05470E-01
 -1      1159 2.68683E-01
 -1      1160 3.45938E-01
 -1      1161 4.35927E-01
 -1      1162 5.34314E-01
 -1      1163 6.52371E-01
 -1      1164 8.24790E-01
 -1      1165 1.04602E+00
 -1      1166 1.30142E+00
 -1      1167 1.54375E+00
 -1      1168 1.64999E+00
 -1      1169 1.69014E+00
 -1      1170 1.72733E+00
 -1      1171 1.94366E+00
 -1      1172 2.86102E+00
 -1      1173 4.23589E+00
 -1      1174 4.90973E+00
 -1      1175 4.84521E+00
 -1      1176 4.70562E+00
 -1      1177 3.83586E+00
 -1      1178 2.42246E+00
 -1      1179 1.57062E+00
 -1      1180 1.40892E+00
 -1      1181 1.48034E+00
 -1      1182 1.35376E+00
 -1      1183 1.17226E+00
 -1      1184 1.08058E+00
 -1      1185 9.35808E-01
 -1      1186 5.00271E-01
 -1      1187 1.40404E+01
 -1      1188 8.71784E+00
 -1      1189 2.90463E+00
 -1      1190 2.04046E+00
 -1      1191 1.40651E+00
 -1      1192 1.02624E+00
 -1      1193 8.19242E-01
 -1      1194 6.60641E-01
 -1      1195 5.29863E-01
 -1      1196 4.21413E-01
 -1      1197 3.35642E-01
 -1      1198 2.69080E-01
 -1      1199 2.15007E-01
 -1      1200 1.72082E-01
 -1      1201 1.39583E-01
 -1      1202 1.16678E-01
 -1      1203 1.04356E-01
 -1      1204 1.06731E-01
 -1      1205 1.21307E-01
 -1      1206 1.42354E-01
 -1      1207 1.68536E-01
 -1      1208 2.00566E-01
 -1      1209 2.47653E-01
 -1      1210 3.09731E-01
 -1      1211 3.76612E-01
 -1      1212 4.41563E-01
 -1      1213 4.93528E-01
 -1      1214 5.21165E-01
 -1      1215 5.95981E-01
 -1      1216 7.47459E-01
 -1      1217 8.85713E-01
 -1      1218 1.03776E+00
 -1      1219 1.24108E+00
 -1      1220 1.35698E+00
 -1      1221 1.52406E+00
 -1      1222 1.89761E+00
 -1      1223 2.52473E+00
 -1      1224 3.01424E+00
 -1      1225 3.24822E+00
 -1      1226 3.40370E+00
 -1      1227 3.08750E+00
 -1      1228 2.24729E+00
 -1      1229 1.34521E+00
 -1      1230 8.84415E-01
 -1      1231 8.40688E-01
 -1      1232 8.79687E-01
 -1      1233 7.96268E-01
 -1      1234 6.89462E-01
 -1      1235 5.29408E-01
 -1      1236 2.48505E-01
 -1      1237 1.62112E-01
 -1      1238 2.19957E-01
 -1      1239 2.14491E-01
 -1      1240 1.91581E-01
 -1      1241 1.46242E-01
 -1      1242 1.18522E-01
 -1      1243 1.83189E-01
 -1      1244 2.89388E-01
 -1      1245 3.33342E-01
 -1      1246 3.35589E-01
 -1      1247 2.96087E-01
 -1      1248 1.92921E-01
 -1      1249 1.42132E-01
 -1      1250 2.03298E-01
 -1      1251 3.40160E-01
 -1      1252 4.62736E-01
 -1      1253 3.34742E-01
 -1      1254 2.40855E+01
 -1      1255 3.64264E+01
 -1      1256 4.82087E+01
 -1      1257 3.44814E+01
 -1      1258 1.69121E+01
 -1      1259 1.30702E+01
 -1      1260 1.25207E+01
 -1      1261 1.21600E+01
 -1      1262 1.23487E+01
 -1      1263 1.27813E+01
 -1      1264 2.22202E+01
 -1      1265 3.12266E+01
 -1      1266 2.94615E+01
 -1      1267 2.62442E+01
 -1      1268 2.44504E+01
 -1      1269 2.50076E+01
 -1      1270 3.11839E+01
 -1      1271 3.64614E+01
 -1      1272 2.52368E+01
 -1      1273 1.30792E+01
 -1      1274 1.22519E+01
 -1      1275 1.25993E+01
 -1      1276 1.28410E+01
 -1      1277 1.27149E+01
 -1      1278 1.67929E+01
 -1      1279 3.45367E+01
 -1      1280 4.80762E+01
 -1      1281 3.61463E+01
 -1      1282 2.38717E+01
 -1      1283 1.31447E+01
 -1      1284 4.87076E+00
 -1      1285 9.61129E+00
 -1      1286 2.06157E+00
 -1      1287 2.98106E+00
 -1      1288 4.18820E+00
 -1      1289 1.39808E+00
 -1      1290 1.66596E+00
 -1      1291 1.90290E+00
 -1      1292 1.10189E+00
 -1      1293 1.22327E+00
 -1      1294 1.33248E+00
 -1      1295 9.36644E-01
 -1      1296 1.00977E+00
 -1      1297 1.06555E+00
 -1      1298 8.36775E-01
 -1      1299 8.82239E-01
 -1      1300 9.19019E-01
 -1      1301 7.75225E-01
 -1      1302 8.02585E-01
 -1      1303 8.30423E-01
 -1      1304 7.56171E-01
 -1      1305 7.55194E-01
 -1      1306 7.76202E-01
 -1      1307 8.06431E-01
 -1      1308 7.77913E-01
 -1      1309 7.77913E-01
 -1      1310 8.84013E-01
 -1      1311 8.40241E-01
 -1      1312 8.33465E-01
 -1      1313 1.01662E+00
 -1      1314 9.40815E-01
 -1      1315 9.24077E-01
 -1      1316 1.23982E+00
 -1      1317 1.11229E+00
 -1      1318 1.07655E+00
 -1      1319 1.68126E+00
 -1      1320 1.41731E+00
 -1      1321 1.34970E+00
 -1      1322 2.88293E+00
 -1      1323 2.04789E+00
 -1      1324 1.89381E+00
 -1      1325 6.28675E+00
 -1      1326 3.71830E+00
 -1      1327 3.09582E+00
 -1      1328 1.40404E+01
 -1      1329 1.13413E+01
 -1      1330 8.98579E+00
 -1      1331 1.40404E+01
 -1      1332 8.73164E+00
 -1      1333 4.31860E+00
 -1      1334 3.83035E+00
 -1      1335 3.34210E+00
 -1      1336 3.83035E+00
 -1      1337 2.72750E+00
 -1      1338 2.11290E+00
 -1      1339 2.72750E+00
 -1      1340 1.78086E+00
 -1      1341 1.40667E+00
 -1      1342 1.78086E+00
 -1      1343 1.19602E+00
 -1      1344 1.02137E+00
 -1      1345 1.23816E+00
 -1      1346 8.95984E-01
 -1      1347 7.76725E-01
 -1      1348 9.02115E-01
 -1      1349 6.87163E-01
 -1      1350 5.97601E-01
 -1      1351 6.87163E-01
 -1      1352 5.34260E-01
 -1      1353 4.64644E-01
 -1      1354 5.34260E-01
 -1      1355 4.15149E-01
 -1      1356 3.61833E-01
 -1      1357 4.21425E-01
 -1      1358 3.23046E-01
 -1      1359 2.84354E-01
 -1      1360 3.33143E-01
 -1      1361 2.56592E-01
 -1      1362 2.25850E-01
 -1      1363 2.66594E-01
 -1      1364 2.02497E-01
 -1      1365 1.78709E-01
 -1      1366 2.15479E-01
 -1      1367 1.59667E-01
 -1      1368 1.41876E-01
 -1      1369 1.73084E-01
 -1      1370 1.26804E-01
 -1      1371 1.14132E-01
 -1      1372 1.38970E-01
 -1      1373 1.02550E-01
 -1      1374 9.42131E-02
 -1      1375 1.12316E-01
 -1      1376 8.55675E-02
 -1      1377 8.25241E-02
 -1      1378 9.20881E-02
 -1      1379 8.16057E-02
 -1      1380 8.58679E-02
 -1      1381 8.25241E-02
 -1      1382 9.01300E-02
 -1      1383 9.67254E-02
 -1      1384 8.58679E-02
 -1      1385 1.07641E-01
 -1      1386 1.23203E-01
 -1      1387 1.01046E-01
 -1      1388 1.39280E-01
 -1      1389 1.60757E-01
 -1      1390 1.28038E-01
 -1      1391 1.81766E-01
 -1      1392 2.09836E-01
 -1      1393 1.65124E-01
 -1      1394 2.36123E-01
 -1      1395 2.71264E-01
 -1      1396 2.12418E-01
 -1      1397 3.03824E-01
 -1      1398 3.45938E-01
 -1      1399 2.71264E-01
 -1      1400 3.97830E-01
 -1      1401 4.45705E-01
 -1      1402 3.55716E-01
 -1      1403 5.13780E-01
 -1      1404 5.64292E-01
 -1      1405 4.75683E-01
 -1      1406 6.42681E-01
 -1      1407 7.10226E-01
 -1      1408 6.22146E-01
 -1      1409 7.93390E-01
 -1      1410 8.98264E-01
 -1      1411 7.83700E-01
 -1      1412 9.74990E-01
 -1      1413 1.09134E+00
 -1      1414 9.43590E-01
 -1      1415 1.17660E+00
 -1      1416 1.31564E+00
 -1      1417 1.10557E+00
 -1      1418 1.44047E+00
 -1      1419 1.54375E+00
 -1      1420 1.31564E+00
 -1      1421 1.64703E+00
 -1      1422 1.64999E+00
 -1      1423 1.54375E+00
 -1      1424 1.65296E+00
 -1      1425 1.69014E+00
 -1      1426 1.64999E+00
 -1      1427 1.72733E+00
 -1      1428 1.72733E+00
 -1      1429 1.69014E+00
 -1      1430 1.62444E+00
 -1      1431 1.84077E+00
 -1      1432 1.62444E+00
 -1      1433 2.15999E+00
 -1      1434 2.86102E+00
 -1      1435 1.84077E+00
 -1      1436 3.56206E+00
 -1      1437 4.23589E+00
 -1      1438 2.86102E+00
 -1      1439 4.90973E+00
 -1      1440 4.90973E+00
 -1      1441 4.23589E+00
 -1      1442 4.84521E+00
 -1      1443 4.78069E+00
 -1      1444 4.84521E+00
 -1      1445 4.70562E+00
 -1      1446 4.63055E+00
 -1      1447 4.70562E+00
 -1      1448 3.83586E+00
 -1      1449 3.04117E+00
 -1      1450 3.83586E+00
 -1      1451 2.42246E+00
 -1      1452 1.80375E+00
 -1      1453 2.42246E+00
 -1      1454 1.57062E+00
 -1      1455 1.33749E+00
 -1      1456 1.57062E+00
 -1      1457 1.32898E+00
 -1      1458 1.40040E+00
 -1      1459 1.32898E+00
 -1      1460 1.48034E+00
 -1      1461 1.48034E+00
 -1      1462 1.40040E+00
 -1      1463 1.35376E+00
 -1      1464 1.22717E+00
 -1      1465 1.35376E+00
 -1      1466 1.17226E+00
 -1      1467 1.11735E+00
 -1      1468 1.17226E+00
 -1      1469 1.08058E+00
 -1      1470 1.04382E+00
 -1      1471 1.08058E+00
 -1      1472 9.35808E-01
 -1      1473 8.27797E-01
 -1      1474 9.35808E-01
 -1      1475 6.62268E-01
 -1      1476 6.62268E-01
 -1      1477 3.39529E+00
 -1      1478 8.71784E+00
 -1      1479 8.71784E+00
 -1      1480 2.41397E+00
 -1      1481 2.90463E+00
 -1      1482 2.90463E+00
 -1      1483 1.66696E+00
 -1      1484 2.04046E+00
 -1      1485 2.04046E+00
 -1      1486 1.14607E+00
 -1      1487 1.40651E+00
 -1      1488 1.40651E+00
 -1      1489 9.06404E-01
 -1      1490 1.02624E+00
 -1      1491 1.02624E+00
 -1      1492 7.32080E-01
 -1      1493 8.19242E-01
 -1      1494 8.19242E-01
 -1      1495 5.89202E-01
 -1      1496 6.60641E-01
 -1      1497 6.60641E-01
 -1      1498 4.70524E-01
 -1      1499 5.29863E-01
 -1      1500 5.29863E-01
 -1      1501 3.72301E-01
 -1      1502 4.21413E-01
 -1      1503 4.21413E-01
 -1      1504 2.98983E-01
 -1      1505 3.35642E-01
 -1      1506 3.35642E-01
 -1      1507 2.39177E-01
 -1      1508 2.69080E-01
 -1      1509 2.69080E-01
 -1      1510 1.91687E-01
 -1      1511 2.15857E-01
 -1      1512 2.15857E-01
 -1      1513 1.54755E-01
 -1      1514 1.73509E-01
 -1      1515 1.74359E-01
 -1      1516 1.27051E-01
 -1      1517 1.40796E-01
 -1      1518 1.42223E-01
 -1      1519 1.07858E-01
 -1      1520 1.17017E-01
 -1      1521 1.18230E-01
 -1      1522 9.95517E-02
 -1      1523 1.02714E-01
 -1      1524 1.03053E-01
 -1      1525 1.06731E-01
 -1      1526 1.01194E-01
 -1      1527 9.95517E-02
 -1      1528 1.21307E-01
 -1      1529 1.12269E-01
 -1      1530 1.06731E-01
 -1      1531 1.42354E-01
 -1      1532 1.30344E-01
 -1      1533 1.21307E-01
 -1      1534 1.68647E-01
 -1      1535 1.54474E-01
 -1      1536 1.42464E-01
 -1      1537 2.07082E-01
 -1      1538 1.89225E-01
 -1      1539 1.75162E-01
 -1      1540 2.60484E-01
 -1      1541 2.31254E-01
 -1      1542 2.19913E-01
 -1      1543 3.20005E-01
 -1      1544 2.87157E-01
 -1      1545 2.70758E-01
 -1      1546 3.81083E-01
 -1      1547 3.47050E-01
 -1      1548 3.24476E-01
 -1      1549 4.41563E-01
 -1      1550 4.10644E-01
 -1      1551 3.81083E-01
 -1      1552 4.93528E-01
 -1      1553 4.72482E-01
 -1      1554 4.41563E-01
 -1      1555 5.21165E-01
 -1      1556 5.14575E-01
 -1      1557 4.93528E-01
 -1      1558 6.19973E-01
 -1      1559 5.51746E-01
 -1      1560 5.45157E-01
 -1      1561 7.57230E-01
 -1      1562 6.73979E-01
 -1      1563 6.29744E-01
 -1      1564 8.85713E-01
 -1      1565 8.30710E-01
 -1      1566 7.57230E-01
 -1      1567 1.03776E+00
 -1      1568 9.40715E-01
 -1      1569 8.85713E-01
 -1      1570 1.24108E+00
 -1      1571 1.13481E+00
 -1      1572 1.03776E+00
 -1      1573 1.35698E+00
 -1      1574 1.34735E+00
 -1      1575 1.24108E+00
 -1      1576 1.52406E+00
 -1      1577 1.36661E+00
 -1      1578 1.35698E+00
 -1      1579 1.89761E+00
 -1      1580 1.68150E+00
 -1      1581 1.52406E+00
 -1      1582 2.53340E+00
 -1      1583 2.12240E+00
 -1      1584 1.90628E+00
 -1      1585 3.01424E+00
 -1      1586 2.93572E+00
 -1      1587 2.53340E+00
 -1      1588 3.24822E+00
 -1      1589 3.09275E+00
 -1      1590 3.01424E+00
 -1      1591 3.40370E+00
 -1      1592 3.40370E+00
 -1      1593 3.24822E+00
 -1      1594 2.77130E+00
 -1      1595 3.08750E+00
 -1      1596 3.08750E+00
 -1      1597 1.72328E+00
 -1      1598 2.24729E+00
 -1      1599 2.24729E+00
 -1      1600 9.67141E-01
 -1      1601 1.34521E+00
 -1      1602 1.34521E+00
 -1      1603 7.14278E-01
 -1      1604 7.97004E-01
 -1      1605 7.97004E-01
 -1      1606 8.40688E-01
 -1      1607 8.01689E-01
 -1      1608 7.14278E-01
 -1      1609 8.79687E-01
 -1      1610 8.79687E-01
 -1      1611 8.40688E-01
 -1      1612 7.12849E-01
 -1      1613 7.96268E-01
 -1      1614 7.96268E-01
 -1      1615 6.66074E-01
 -1      1616 6.89462E-01
 -1      1617 6.89462E-01
 -1      1618 4.08311E-01
 -1      1619 5.44976E-01
 -1      1620 5.44976E-01
 -1      1621 3.06350E-01
 -1      1622 2.56888E-01
 -1      1623 2.56888E-01
 -1      1624 2.78303E-01
 -1      1625 2.83770E-01
 -1      1626 3.20701E-01
 -1      1627 2.60860E-01
 -1      1628 2.78303E-01
 -1      1629 3.47582E-01
 -1      1630 2.12437E-01
 -1      1631 2.40332E-01
 -1      1632 3.27055E-01
 -1      1633 1.61421E-01
 -1      1634 1.61245E-01
 -1      1635 2.55336E-01
 -1      1636 3.29579E-01
 -1      1637 2.65087E-01
 -1      1638 3.07810E-01
 -1      1639 4.67480E-01
 -1      1640 4.25772E-01
 -1      1641 5.07670E-01
 -1      1642 4.93597E-01
 -1      1643 4.91350E-01
 -1      1644 6.27734E-01
 -1      1645 4.93597E-01
 -1      1646 4.93597E-01
 -1      1647 6.51605E-01
 -1      1648 4.35332E-01
 -1      1649 4.74834E-01
 -1      1650 6.32843E-01
 -1      1651 2.80533E-01
 -1      1652 3.44196E-01
 -1      1653 5.22944E-01
 -1      1654 2.00457E-01
 -1      1655 1.87582E-01
 -1      1656 3.38857E-01
 -1      1657 3.26648E-01
 -1      1658 2.78358E-01
 -1      1659 3.23807E-01
 -1      1660 4.15220E-01
 -1      1661 3.26648E-01
 -1      1662 4.01709E-01
 -1      1663 4.96406E-01
 -1      1664 4.62402E-01
 -1      1665 4.48890E-01
 -1      1666 6.61934E-01
 -1      1667 2.67477E+01
 -1      1668 2.61891E+01
 -1      1669 3.87443E+01
 -1      1670 2.69620E+01
 -1      1671 4.82087E+01
 -1      1672 4.82087E+01
 -1      1673 2.16606E+01
 -1      1674 3.53880E+01
 -1      1675 1.22217E+01
 -1      1676 1.60637E+01
 -1      1677 1.30702E+01
 -1      1678 1.30702E+01
 -1      1679 1.19712E+01
 -1      1680 1.25207E+01
 -1      1681 1.19629E+01
 -1      1682 1.17741E+01
 -1      1683 1.23487E+01
 -1      1684 1.23487E+01
 -1      1685 1.23436E+01
 -1      1686 1.19110E+01
 -1      1687 2.22202E+01
 -1      1688 1.32139E+01
 -1      1689 3.12266E+01
 -1      1690 3.12266E+01
 -1      1691 2.93511E+01
 -1      1692 3.11162E+01
 -1      1693 2.56390E+01
 -1      1694 2.70912E+01
 -1      1695 2.54914E+01
 -1      1696 2.58330E+01
 -1      1697 2.63902E+01
 -1      1698 2.54914E+01
 -1      1699 3.50294E+01
 -1      1700 2.97519E+01
 -1      1701 3.64614E+01
 -1      1702 3.64614E+01
 -1      1703 1.42666E+01
 -1      1704 2.54911E+01
 -1      1705 1.18059E+01
 -1      1706 1.27389E+01
 -1      1707 1.22519E+01
 -1      1708 1.21462E+01
 -1      1709 1.25993E+01
 -1      1710 1.23575E+01
 -1      1711 1.28410E+01
 -1      1712 1.28410E+01
 -1      1713 1.25887E+01
 -1      1714 1.27149E+01
 -1      1715 1.61631E+01
 -1      1716 1.19589E+01
 -1      1717 3.54950E+01
 -1      1718 2.19555E+01
 -1      1719 4.80762E+01
 -1      1720 4.80762E+01
 -1      1721 2.72723E+01
 -1      1722 3.92022E+01
 -1      1723 2.61891E+01
 -1      1724 2.65339E+01
 -1      1725 1.69702E+01
 -1      1726 3.53880E+01
 -1      1727 3.21918E-01
 -1      1728 3.58849E-01
 -1      1729 2.90656E+01
 -1      1730 3.87443E+01
 -1      1731 2.88513E+01
 -1      1732 1.22217E+01
 -1      1733 1.25207E+01
 -1      1734 1.17741E+01
 -1      1735 1.19629E+01
 -1      1736 1.19110E+01
 -1      1737 1.23436E+01
 -1      1738 2.22202E+01
 -1      1739 3.11162E+01
 -1      1740 2.87459E+01
 -1      1741 2.66800E+01
 -1      1742 2.68740E+01
 -1      1743 3.02357E+01
 -1      1744 3.50294E+01
 -1      1745 2.54911E+01
 -1      1746 1.29933E+01
 -1      1747 1.18059E+01
 -1      1748 1.22519E+01
 -1      1749 1.25993E+01
 -1      1750 1.27149E+01
 -1      1751 1.19589E+01
 -1      1752 1.71214E+01
 -1      1753 3.54950E+01
 -1      1754 3.92022E+01
 -1      1755 2.95897E+01
 -1      1756 9.61129E+00
 -1      1757 1.27749E+00
 -1      1758 1.67310E+00
 -1      1759 2.38915E+00
 -1      1760 4.27885E+00
 -1      1761 1.76374E+00
 -1      1762 8.84205E-01
 -1      1763 9.76327E-01
 -1      1764 7.79730E-01
 -1      1765 8.34135E-01
 -1      1766 7.44916E-01
 -1      1767 7.14051E-01
 -1      1768 7.48241E-01
 -1      1769 6.63357E-01
 -1      1770 6.71976E-01
 -1      1771 6.92006E-01
 -1      1772 6.09825E-01
 -1      1773 6.95309E-01
 -1      1774 6.73567E-01
 -1      1775 5.89371E-01
 -1      1776 7.50899E-01
 -1      1777 7.17088E-01
 -1      1778 6.12742E-01
 -1      1779 8.40998E-01
 -1      1780 7.84197E-01
 -1      1781 6.67820E-01
 -1      1782 9.84201E-01
 -1      1783 8.88534E-01
 -1      1784 7.48654E-01
 -1      1785 1.22935E+00
 -1      1786 1.05187E+00
 -1      1787 8.63856E-01
 -1      1788 1.71004E+00
 -1      1789 1.34341E+00
 -1      1790 1.04558E+00
 -1      1791 2.62994E+00
 -1      1792 1.79456E+00
 -1      1793 1.24415E+00
 -1      1794 8.12086E+00
 -1      1795 3.06626E+00
 -1      1796 1.76501E+00
 -1      1797 2.79831E+00
 -1      1798 5.19825E+00
 -1      1799 2.16448E+00
 -1      1800 2.65514E+00
 -1      1801 2.05816E+00
 -1      1802 3.39920E+00
 -1      1803 2.53633E+00
 -1      1804 1.92172E+00
 -1      1805 1.69092E+00
 -1      1806 1.35888E+00
 -1      1807 1.49975E+00
 -1      1808 1.17891E+00
 -1      1809 9.68254E-01
 -1      1810 1.08898E+00
 -1      1811 8.42930E-01
 -1      1812 7.17540E-01
 -1      1813 7.83679E-01
 -1      1814 6.58616E-01
 -1      1815 5.69055E-01
 -1      1816 5.99431E-01
 -1      1817 5.20851E-01
 -1      1818 4.57510E-01
 -1      1819 4.92304E-01
 -1      1820 4.15204E-01
 -1      1821 3.65710E-01
 -1      1822 4.01795E-01
 -1      1823 3.33212E-01
 -1      1824 2.94425E-01
 -1      1825 3.26991E-01
 -1      1826 2.67330E-01
 -1      1827 2.39568E-01
 -1      1828 2.67398E-01
 -1      1829 2.16455E-01
 -1      1830 1.93102E-01
 -1      1831 2.17191E-01
 -1      1832 1.74770E-01
 -1      1833 1.55729E-01
 -1      1834 1.75747E-01
 -1      1835 1.41311E-01
 -1      1836 1.26238E-01
 -1      1837 1.42997E-01
 -1      1838 1.14021E-01
 -1      1839 1.02439E-01
 -1      1840 1.16361E-01
 -1      1841 9.21761E-02
 -1      1842 8.35305E-02
 -1      1843 9.38812E-02
 -1      1844 7.85836E-02
 -1      1845 7.76652E-02
 -1      1846 7.86716E-02
 -1      1847 7.73165E-02
 -1      1848 8.15786E-02
 -1      1849 7.33759E-02
 -1      1850 8.93838E-02
 -1      1851 1.00300E-01
 -1      1852 8.08324E-02
 -1      1853 1.11962E-01
 -1      1854 1.28038E-01
 -1      1855 1.00300E-01
 -1      1856 1.44115E-01
 -1      1857 1.65124E-01
 -1      1858 1.28038E-01
 -1      1859 1.94264E-01
 -1      1860 2.20550E-01
 -1      1861 1.73256E-01
 -1      1862 2.60328E-01
 -1      1863 2.92888E-01
 -1      1864 2.42174E-01
 -1      1865 3.42531E-01
 -1      1866 3.94423E-01
 -1      1867 3.31595E-01
 -1      1868 4.54383E-01
 -1      1869 5.22458E-01
 -1      1870 4.41198E-01
 -1      1871 5.91653E-01
 -1      1872 6.70042E-01
 -1      1873 5.70353E-01
 -1      1874 7.44712E-01
 -1      1875 8.27876E-01
 -1      1876 7.14219E-01
 -1      1877 9.00112E-01
 -1      1878 9.76839E-01
 -1      1879 8.61125E-01
 -1      1880 1.03314E+00
 -1      1881 1.11840E+00
 -1      1882 9.89666E-01
 -1      1883 1.18115E+00
 -1      1884 1.30598E+00
 -1      1885 1.10873E+00
 -1      1886 1.36140E+00
 -1      1887 1.46468E+00
 -1      1888 1.22691E+00
 -1      1889 1.44597E+00
 -1      1890 1.44894E+00
 -1      1891 1.26363E+00
 -1      1892 1.37228E+00
 -1      1893 1.40946E+00
 -1      1894 1.16826E+00
 -1      1895 1.46520E+00
 -1      1896 1.36231E+00
 -1      1897 1.14734E+00
 -1      1898 1.46540E+00
 -1      1899 1.78462E+00
 -1      1900 1.30616E+00
 -1      1901 2.14090E+00
 -1      1902 2.84194E+00
 -1      1903 1.76553E+00
 -1      1904 3.18600E+00
 -1      1905 3.85984E+00
 -1      1906 2.46588E+00
 -1      1907 3.91772E+00
 -1      1908 3.85320E+00
 -1      1909 2.86783E+00
 -1      1910 3.84935E+00
 -1      1911 3.77428E+00
 -1      1912 2.92186E+00
 -1      1913 3.62180E+00
 -1      1914 2.82711E+00
 -1      1915 2.76553E+00
 -1      1916 2.53733E+00
 -1      1917 1.91862E+00
 -1      1918 2.32327E+00
 -1      1919 1.65127E+00
 -1      1920 1.41815E+00
 -1      1921 1.76614E+00
 -1      1922 1.27647E+00
 -1      1923 1.26795E+00
 -1      1924 1.35712E+00
 -1      1925 1.16439E+00
 -1      1926 1.24433E+00
 -1      1927 1.11188E+00
 -1      1928 1.18187E+00
 -1      1929 1.05528E+00
 -1      1930 9.45853E-01
 -1      1931 1.00259E+00
 -1      1932 9.47679E-01
 -1      1933 8.30703E-01
 -1      1934 9.62701E-01
 -1      1935 9.25937E-01
 -1      1936 7.93033E-01
 -1      1937 8.78228E-01
 -1      1938 7.70218E-01
 -1      1939 6.04355E-01
 -1      1940 7.60347E-01
 -1      1941 1.39912E+00
 -1      1942 1.77263E+00
 -1      1943 1.52314E+00
 -1      1944 1.01941E+00
 -1      1945 1.27985E+00
 -1      1946 1.01202E+00
 -1      1947 8.05998E-01
 -1      1948 9.25831E-01
 -1      1949 7.99171E-01
 -1      1950 6.39631E-01
 -1      1951 7.26793E-01
 -1      1952 6.26387E-01
 -1      1953 5.14525E-01
 -1      1954 5.85964E-01
 -1      1955 4.93515E-01
 -1      1956 4.22261E-01
 -1      1957 4.81599E-01
 -1      1958 4.06922E-01
 -1      1959 3.41682E-01
 -1      1960 3.90794E-01
 -1      1961 3.42530E-01
 -1      1962 2.77449E-01
 -1      1963 3.14108E-01
 -1      1964 2.83489E-01
 -1      1965 2.25301E-01
 -1      1966 2.55204E-01
 -1      1967 2.33670E-01
 -1      1968 1.82576E-01
 -1      1969 2.05896E-01
 -1      1970 1.92019E-01
 -1      1971 1.48742E-01
 -1      1972 1.66919E-01
 -1      1973 1.56958E-01
 -1      1974 1.22843E-01
 -1      1975 1.36802E-01
 -1      1976 1.29362E-01
 -1      1977 1.03942E-01
 -1      1978 1.13976E-01
 -1      1979 1.08554E-01
 -1      1980 9.28321E-02
 -1      1981 9.79754E-02
 -1      1982 9.37207E-02
 -1      1983 9.34227E-02
 -1      1984 9.17806E-02
 -1      1985 8.67030E-02
 -1      1986 1.01048E-01
 -1      1987 9.55102E-02
 -1      1988 8.77391E-02
 -1      1989 1.17136E-01
 -1      1990 1.08098E-01
 -1      1991 9.68771E-02
 -1      1992 1.42445E-01
 -1      1993 1.30325E-01
 -1      1994 1.17117E-01
 -1      1995 1.80330E-01
 -1      1996 1.59752E-01
 -1      1997 1.47613E-01
 -1      1998 2.36748E-01
 -1      1999 2.12576E-01
 -1      2000 1.97166E-01
 -1      2001 3.02446E-01
 -1      2002 2.75772E-01
 -1      2003 2.68436E-01
 -1      2004 3.74591E-01
 -1      2005 3.47546E-01
 -1      2006 3.52561E-01
 -1      2007 4.53006E-01
 -1      2008 4.23445E-01
 -1      2009 4.46515E-01
 -1      2010 5.31816E-01
 -1      2011 5.00897E-01
 -1      2012 5.43259E-01
 -1      2013 5.91990E-01
 -1      2014 5.70944E-01
 -1      2015 6.30278E-01
 -1      2016 6.61165E-01
 -1      2017 6.30584E-01
 -1      2018 7.07999E-01
 -1      2019 7.25564E-01
 -1      2020 6.71558E-01
 -1      2021 7.56986E-01
 -1      2022 7.99045E-01
 -1      2023 7.25564E-01
 -1      2024 7.67379E-01
 -1      2025 8.15659E-01
 -1      2026 7.60657E-01
 -1      2027 7.28991E-01
 -1      2028 8.53625E-01
 -1      2029 7.56577E-01
 -1      2030 6.31521E-01
 -1      2031 9.79812E-01
 -1      2032 8.73544E-01
 -1      2033 5.92358E-01
 -1      2034 1.26218E+00
 -1      2035 1.25255E+00
 -1      2036 8.85013E-01
 -1      2037 1.69082E+00
 -1      2038 1.53337E+00
 -1      2039 1.42894E+00
 -1      2040 2.02252E+00
 -1      2041 1.79774E+00
 -1      2042 1.80706E+00
 -1      2043 2.42485E+00
 -1      2044 2.02252E+00
 -1      2045 1.91398E+00
 -1      2046 2.46913E+00
 -1      2047 2.39062E+00
 -1      2048 1.87975E+00
 -1      2049 2.70714E+00
 -1      2050 2.55167E+00
 -1      2051 1.92805E+00
 -1      2052 2.31527E+00
 -1      2053 2.63147E+00
 -1      2054 1.93491E+00
 -1      2055 1.52428E+00
 -1      2056 2.04829E+00
 -1      2057 1.59226E+00
 -1      2058 9.24940E-01
 -1      2059 1.30301E+00
 -1      2060 1.10401E+00
 -1      2061 6.12592E-01
 -1      2062 7.82729E-01
 -1      2063 7.40528E-01
 -1      2064 6.75318E-01
 -1      2065 5.87906E-01
 -1      2066 5.73632E-01
 -1      2067 7.18501E-01
 -1      2068 6.79502E-01
 -1      2069 5.53131E-01
 -1      2070 6.26283E-01
 -1      2071 7.09702E-01
 -1      2072 5.48515E-01
 -1      2073 6.02903E-01
 -1      2074 6.26290E-01
 -1      2075 5.39724E-01
 -1      2076 4.23879E-01
 -1      2077 5.44976E-01
 -1      2078 4.81805E-01
 -1      2079 3.58849E-01
 -1      2080 3.76711E-01
 -1      2081 3.97238E-01
 -1      2082 3.97238E-01
 -1      2083 3.97238E-01
 -1      2084 4.46894E-01
 -1      2085 3.99653E-01
 -1      2086 3.72772E-01
 -1      2087 4.37802E-01
 -1      2088 4.49309E-01
 -1      2089 3.09499E-01
 -1      2090 3.60691E-01
 -1      2091 4.30874E-01
 -1      2092 4.51254E-01
 -1      2093 3.47588E-01
 -1      2094 4.52943E-01
 -1      2095 7.06979E-01
 -1      2096 6.10785E-01
 -1      2097 6.50563E-01
 -1      2098 8.15782E-01
 -1      2099 7.91911E-01
 -1      2100 8.95026E-01
 -1      2101 8.16598E-01
 -1      2102 8.16598E-01
 -1      2103 9.80774E-01
 -1      2104 7.97835E-01
 -1      2105 8.16598E-01
 -1      2106 9.81591E-01
 -1      2107 6.39855E-01
 -1      2108 7.30991E-01
 -1      2109 9.14746E-01
 -1      2110 3.87807E-01
 -1      2111 4.80758E-01
 -1      2112 6.88805E-01
 -1      2113 4.43965E-01
 -1      2114 3.66063E-01
 -1      2115 5.07964E-01
 -1      2116 5.18728E-01
 -1      2117 5.18728E-01
 -1      2118 5.60984E-01
 -1      2119 3.87443E+01
 -1      2120 2.92798E+01
 -1      2121 2.92511E+01
 -1      2122 2.92511E+01
 -1      2123 2.94654E+01
 -1      2124 2.92511E+01
 -1      2125 1.98175E+01
 -1      2126 3.26383E+01
 -1      2127 1.03015E+01
 -1      2128 1.58985E+01
 -1      2129 1.03413E+00
 -1      2130 1.20894E+00
 -1      2131 9.79144E-01
 -1      2132 8.52792E-01
 -1      2133 1.08908E+01
 -1      2134 1.14403E+01
 -1      2135 1.10173E+01
 -1      2136 1.12143E+01
 -1      2137 1.14327E+01
 -1      2138 1.10469E+01
 -1      2139 1.02953E+01
 -1      2140 1.07330E+01
 -1      2141 1.02676E+01
 -1      2142 9.39728E+00
 -1      2143 2.18390E+01
 -1      2144 1.28326E+01
 -1      2145 2.60870E+01
 -1      2146 2.61974E+01
 -1      2147 2.59348E+01
 -1      2148 2.81947E+01
 -1      2149 3.13024E+01
 -1      2150 3.11084E+01
 -1      2151 3.13024E+01
 -1      2152 3.13024E+01
 -1      2153 3.00593E+01
 -1      2154 2.66976E+01
 -1      2155 2.92873E+01
 -1      2156 2.78554E+01
 -1      2157 1.36599E+01
 -1      2158 2.46301E+01
 -1      2159 9.68725E+00
 -1      2160 1.12149E+01
 -1      2161 1.03061E+01
 -1      2162 9.96579E+00
 -1      2163 1.11206E+01
 -1      2164 1.10150E+01
 -1      2165 1.19041E+01
 -1      2166 1.16623E+01
 -1      2167 1.14770E+01
 -1      2168 1.16032E+01
 -1      2169 9.42893E+00
 -1      2170 1.00588E+01
 -1      2171 8.94708E+00
 -1      2172 1.61311E+01
 -1      2173 1.03387E+01
 -1      2174 3.25163E+01
 -1      2175 1.99351E+01
 -1      2176 3.03281E+01
 -1      2177 3.92022E+01
 -1      2178 2.90128E+01
 -1      2179 2.97512E+01
 -1      2180 9.79541E+00
 -1      2181 8.94695E+00
 -1      2182 1.31488E+01
 -1      2183 2.91095E+00
 -1      2184 7.87517E+00
 -1      2185 8.40130E+00
 -1      2186 1.00312E+01
 -1      2187 6.75643E+00
 -1      2188 2.10517E+00
 -1      2189 2.94654E+01
 -1      2190 2.96510E+01
 -1      2191 5.65910E-01
 -1      2192 2.31739E+01
 -1      2193 2.94127E+01
 -1      2194 2.97512E+01
 -1      2195 2.36422E+01
 -1      2196 8.43864E+00
 -1      2197 1.06663E+01
 -1      2198 1.04255E+01
 -1      2199 9.17481E+00
 -1      2200 8.18739E+00
 -1      2201 1.03539E+01
 -1      2202 1.74561E+01
 -1      2203 2.43173E+01
 -1      2204 3.11260E+01
 -1      2205 3.57308E+01
 -1      2206 3.05572E+01
 -1      2207 2.32759E+01
 -1      2208 1.68097E+01
 -1      2209 9.88632E+00
 -1      2210 8.21927E+00
 -1      2211 9.81700E+00
 -1      2212 1.01339E+01
 -1      2213 1.04871E+01
 -1      2214 1.31524E+01
 -1      2215 1.09016E+00
 -1      2216 1.48202E+00
 -1      2217 5.59118E-01
 -1      2218 5.90606E-01
 -1      2219 6.04551E-01
 -1      2220 6.54622E-01
 -1      2221 5.00312E-01
 -1      2222 5.11350E-01
 -1      2223 5.09759E-01
 -1      2224 5.46030E-01
 -1      2225 5.24251E-01
 -1      2226 4.44638E-01
 -1      2227 5.94058E-01
 -1      2228 5.60760E-01
 -1      2229 4.72268E-01
 -1      2230 6.53588E-01
 -1      2231 6.06052E-01
 -1      2232 4.98993E-01
 -1      2233 7.21255E-01
 -1      2234 6.53588E-01
 -1      2235 5.10987E-01
 -1      2236 8.83873E-01
 -1      2237 7.69820E-01
 -1      2238 5.59552E-01
 -1      2239 8.92750E-01
 -1      2240 1.01202E+00
 -1      2241 9.70896E-01
 -1      2242 1.26710E+00
 -1      2243 1.03630E+00
 -1      2244 5.94762E+00
 -1      2245 7.30216E+00
 -1      2246 9.86304E-01
 -1      2247 8.06329E-01
 -1      2248 7.53654E-01
 -1      2249 7.49857E-01
 -1      2250 6.24532E-01
 -1      2251 6.47183E-01
 -1      2252 5.68521E-01
 -1      2253 5.09598E-01
 -1      2254 5.34699E-01
 -1      2255 4.60453E-01
 -1      2256 4.12249E-01
 -1      2257 4.29543E-01
 -1      2258 3.85009E-01
 -1      2259 3.42703E-01
 -1      2260 3.53158E-01
 -1      2261 3.18082E-01
 -1      2262 2.85584E-01
 -1      2263 3.01296E-01
 -1      2264 2.62387E-01
 -1      2265 2.35292E-01
 -1      2266 2.53478E-01
 -1      2267 2.15700E-01
 -1      2268 1.92588E-01
 -1      2269 2.10689E-01
 -1      2270 1.75968E-01
 -1      2271 1.57636E-01
 -1      2272 1.74478E-01
 -1      2273 1.43067E-01
 -1      2274 1.28649E-01
 -1      2275 1.43289E-01
 -1      2276 1.16361E-01
 -1      2277 1.04144E-01
 -1      2278 1.16432E-01
 -1      2279 9.38812E-02
 -1      2280 8.36185E-02
 -1      2281 9.38812E-02
 -1      2282 7.60040E-02
 -1      2283 7.10571E-02
 -1      2284 7.60040E-02
 -1      2285 6.55115E-02
 -1      2286 6.51628E-02
 -1      2287 6.28439E-02
 -1      2288 7.02793E-02
 -1      2289 7.80845E-02
 -1      2290 6.24148E-02
 -1      2291 8.56539E-02
 -1      2292 9.73159E-02
 -1      2293 7.51008E-02
 -1      2294 1.17029E-01
 -1      2295 1.33106E-01
 -1      2296 1.02383E-01
 -1      2297 1.60257E-01
 -1      2298 1.89397E-01
 -1      2299 1.49247E-01
 -1      2300 2.23632E-01
 -1      2301 2.63410E-01
 -1      2302 2.10633E-01
 -1      2303 3.06035E-01
 -1      2304 3.55678E-01
 -1      2305 2.87493E-01
 -1      2306 4.07701E-01
 -1      2307 4.67661E-01
 -1      2308 3.82142E-01
 -1      2309 5.29406E-01
 -1      2310 5.98601E-01
 -1      2311 4.95909E-01
 -1      2312 6.69095E-01
 -1      2313 7.43765E-01
 -1      2314 6.28148E-01
 -1      2315 8.19855E-01
 -1      2316 8.92091E-01
 -1      2317 7.74732E-01
 -1      2318 9.67290E-01
 -1      2319 1.02360E+00
 -1      2320 9.26021E-01
 -1      2321 1.08687E+00
 -1      2322 1.14962E+00
 -1      2323 1.06449E+00
 -1      2324 1.21829E+00
 -1      2325 1.27372E+00
 -1      2326 1.19643E+00
 -1      2327 1.37914E+00
 -1      2328 1.36042E+00
 -1      2329 1.37051E+00
 -1      2330 1.45239E+00
 -1      2331 1.37574E+00
 -1      2332 1.56791E+00
 -1      2333 1.41039E+00
 -1      2334 1.46613E+00
 -1      2335 1.69453E+00
 -1      2336 1.73198E+00
 -1      2337 1.83507E+00
 -1      2338 1.99504E+00
 -1      2339 1.75489E+00
 -1      2340 2.11118E+00
 -1      2341 2.18071E+00
 -1      2342 2.49695E+00
 -1      2343 2.84102E+00
 -1      2344 2.48631E+00
 -1      2345 3.57113E+00
 -1      2346 3.62901E+00
 -1      2347 3.60220E+00
 -1      2348 3.75142E+00
 -1      2349 3.74757E+00
 -1      2350 4.45472E+00
 -1      2351 2.91801E+00
 -1      2352 2.76553E+00
 -1      2353 3.74757E+00
 -1      2354 2.41163E+00
 -1      2355 2.12184E+00
 -1      2356 2.56411E+00
 -1      2357 2.06937E+00
 -1      2358 1.80203E+00
 -1      2359 2.15773E+00
 -1      2360 1.75488E+00
 -1      2361 1.61321E+00
 -1      2362 2.05811E+00
 -1      2363 1.37227E+00
 -1      2364 1.26870E+00
 -1      2365 1.77003E+00
 -1      2366 1.06987E+00
 -1      2367 1.00742E+00
 -1      2368 1.33027E+00
 -1      2369 9.01557E-01
 -1      2370 8.48865E-01
 -1      2371 1.02558E+00
 -1      2372 7.54445E-01
 -1      2373 7.69468E-01
 -1      2374 8.25299E-01
 -1      2375 5.47182E-01
 -1      2376 6.26387E-01
 -1      2377 4.39847E-01
 -1      2378 4.93515E-01
 -1      2379 4.93515E-01
 -1      2380 3.73997E-01
 -1      2381 4.06922E-01
 -1      2382 4.06922E-01
 -1      2383 3.11063E-01
 -1      2384 3.42530E-01
 -1      2385 3.42530E-01
 -1      2386 2.55914E-01
 -1      2387 2.83489E-01
 -1      2388 2.83489E-01
 -1      2389 2.11557E-01
 -1      2390 2.33802E-01
 -1      2391 2.33802E-01
 -1      2392 1.72935E-01
 -1      2393 1.92341E-01
 -1      2394 1.92473E-01
 -1      2395 1.40885E-01
 -1      2396 1.56541E-01
 -1      2397 1.56862E-01
 -1      2398 1.15300E-01
 -1      2399 1.27240E-01
 -1      2400 1.26823E-01
 -1      2401 9.54795E-02
 -1      2402 1.04347E-01
 -1      2403 1.02225E-01
 -1      2404 8.09681E-02
 -1      2405 8.69344E-02
 -1      2406 8.27269E-02
 -1      2407 7.47350E-02
 -1      2408 7.57865E-02
 -1      2409 6.90001E-02
 -1      2410 7.94928E-02
 -1      2411 7.74052E-02
 -1      2412 6.64887E-02
 -1      2413 9.37997E-02
 -1      2414 8.67492E-02
 -1      2415 7.64154E-02
 -1      2416 1.17682E-01
 -1      2417 1.04492E-01
 -1      2418 9.43645E-02
 -1      2419 1.58541E-01
 -1      2420 1.41234E-01
 -1      2421 1.28610E-01
 -1      2422 2.19750E-01
 -1      2423 1.87504E-01
 -1      2424 1.81126E-01
 -1      2425 2.93577E-01
 -1      2426 2.54552E-01
 -1      2427 2.44891E-01
 -1      2428 3.79070E-01
 -1      2429 3.33969E-01
 -1      2430 3.20086E-01
 -1      2431 4.72524E-01
 -1      2432 4.23671E-01
 -1      2433 4.05079E-01
 -1      2434 5.66136E-01
 -1      2435 5.18246E-01
 -1      2436 4.95402E-01
 -1      2437 6.46683E-01
 -1      2438 6.07554E-01
 -1      2439 5.82541E-01
 -1      2440 7.21390E-01
 -1      2441 6.82796E-01
 -1      2442 6.60073E-01
 -1      2443 7.56986E-01
 -1      2444 7.46593E-01
 -1      2445 7.21390E-01
 -1      2446 7.83547E-01
 -1      2447 7.83547E-01
 -1      2448 7.73154E-01
 -1      2449 7.43030E-01
 -1      2450 7.81418E-01
 -1      2451 7.97586E-01
 -1      2452 6.66151E-01
 -1      2453 7.25233E-01
 -1      2454 7.77660E-01
 -1      2455 7.49643E-01
 -1      2456 7.29724E-01
 -1      2457 8.23436E-01
 -1      2458 1.10418E+00
 -1      2459 8.31447E-01
 -1      2460 9.68813E-01
 -1      2461 1.57038E+00
 -1      2462 1.29919E+00
 -1      2463 1.24562E+00
 -1      2464 1.81683E+00
 -1      2465 1.70991E+00
 -1      2466 1.58015E+00
 -1      2467 1.99236E+00
 -1      2468 1.99236E+00
 -1      2469 1.89521E+00
 -1      2470 1.97068E+00
 -1      2471 2.00492E+00
 -1      2472 2.08330E+00
 -1      2473 2.02894E+00
 -1      2474 1.94641E+00
 -1      2475 2.07158E+00
 -1      2476 1.81481E+00
 -1      2477 1.89048E+00
 -1      2478 1.90884E+00
 -1      2479 1.44310E+00
 -1      2480 1.71008E+00
 -1      2481 1.66564E+00
 -1      2482 1.11801E+00
 -1      2483 1.33928E+00
 -1      2484 1.45710E+00
 -1      2485 7.88904E-01
 -1      2486 9.31114E-01
 -1      2487 1.16638E+00
 -1      2488 6.91607E-01
 -1      2489 7.16292E-01
 -1      2490 9.06879E-01
 -1      2491 5.89267E-01
 -1      2492 5.85083E-01
 -1      2493 7.27743E-01
 -1      2494 5.48515E-01
 -1      2495 5.57315E-01
 -1      2496 5.89267E-01
 -1      2497 5.38150E-01
 -1      2498 5.38143E-01
 -1      2499 5.46942E-01
 -1      2500 4.95728E-01
 -1      2501 6.22907E-01
 -1      2502 5.84819E-01
 -1      2503 8.60716E-01
 -1      2504 7.01185E-01
 -1      2505 8.33060E-01
 -1      2506 5.77562E-01
 -1      2507 5.77562E-01
 -1      2508 5.61543E-01
 -1      2509 5.77562E-01
 -1      2510 7.08231E-01
 -1      2511 7.31507E-01
 -1      2512 1.16418E+00
 -1      2513 1.07925E+00
 -1      2514 1.12987E+00
 -1      2515 1.16590E+00
 -1      2516 1.16509E+00
 -1      2517 1.34931E+00
 -1      2518 1.18571E+00
 -1      2519 1.18571E+00
 -1      2520 1.37002E+00
 -1      2521 1.11887E+00
 -1      2522 1.18571E+00
 -1      2523 1.38983E+00
 -1      2524 7.62527E-01
 -1      2525 9.21624E-01
 -1      2526 1.19259E+00
 -1      2527 6.46311E-01
 -1      2528 6.68054E-01
 -1      2529 9.00873E-01
 -1      2530 6.36635E-01
 -1      2531 5.61872E-01
 -1      2532 7.21962E-01
 -1      2533 2.96510E+01
 -1      2534 2.96510E+01
 -1      2535 1.49399E+01
 -1      2536 2.10459E+01
 -1      2537 7.05592E-01
 -1      2538 7.99171E-01
 -1      2539 6.26387E-01
 -1      2540 6.74193E-01
 -1      2541 2.94127E+01
 -1      2542 2.91744E+01
 -1      2543 2.94127E+01
 -1      2544 2.54760E+01
 -1      2545 2.56615E+01
 -1      2546 1.72420E+01
 -1      2547 1.67629E+00
 -1      2548 1.30167E+00
 -1      2549 8.38218E-01
 -1      2550 9.60236E-01
 -1      2551 2.46454E+01
 -1      2552 2.52223E+01
 -1      2553 8.93653E+00
 -1      2554 9.23747E+00
 -1      2555 5.22614E-01
 -1      2556 5.44659E-01
 -1      2557 4.71907E-01
 -1      2558 4.44593E-01
 -1      2559 9.51850E+00
 -1      2560 9.48886E+00
 -1      2561 1.28566E+01
 -1      2562 9.05261E+00
 -1      2563 9.15891E+00
 -1      2564 8.83538E+00
 -1      2565 8.19033E+00
 -1      2566 7.94193E+00
 -1      2567 8.64166E+00
 -1      2568 5.69050E+00
 -1      2569 6.58850E+00
 -1      2570 9.63405E+00
 -1      2571 7.06901E+00
 -1      2572 1.55481E+01
 -1      2573 1.11897E+01
 -1      2574 2.08913E+01
 -1      2575 1.87836E+01
 -1      2576 3.05572E+01
 -1      2577 2.53836E+01
 -1      2578 3.57308E+01
 -1      2579 3.57308E+01
 -1      2580 2.65212E+01
 -1      2581 3.11260E+01
 -1      2582 3.11260E+01
 -1      2583 1.98477E+01
 -1      2584 2.20517E+01
 -1      2585 1.17247E+01
 -1      2586 1.63819E+01
 -1      2587 7.81185E+00
 -1      2588 1.02569E+01
 -1      2589 6.40268E+00
 -1      2590 6.12414E+00
 -1      2591 8.03235E+00
 -1      2592 7.32347E+00
 -1      2593 9.55587E+00
 -1      2594 9.01411E+00
 -1      2595 6.51477E+00
 -1      2596 7.93302E+00
 -1      2597 7.67170E+00
 -1      2598 6.76189E+00
 -1      2599 2.17592E+01
 -1      2600 1.50733E+01
 -1      2601 1.62178E+00
 -1      2602 1.76496E+00
 -1      2603 1.32863E+00
 -1      2604 1.18881E+00
 -1      2605 8.73054E+00
 -1      2606 1.26496E+01
 -1      2607 7.64343E+00
 -1      2608 5.22610E-01
 -1      2609 6.62975E-01
 -1      2610 7.20780E-01
 -1      2611 7.99171E-01
 -1      2612 1.24410E+00
 -1      2613 6.80299E+00
 -1      2614 7.79293E+00
 -1      2615 6.38387E+00
 -1      2616 6.81794E+00
 -1      2617 2.46454E+01
 -1      2618 4.94147E-01
 -1      2619 1.05216E+01
 -1      2620 4.91731E-01
 -1      2621 1.66533E+01
 -1      2622 1.96909E+01
 -1      2623 2.36804E+01
 -1      2624 2.36804E+01
 -1      2625 7.37587E+00
 -1      2626 5.74783E+00
 -1      2627 9.68347E-01
 -1      2628 7.82612E+00
 -1      2629 8.91690E-01
 -1      2630 6.50421E+00
 -1      2631 7.16277E+00
 -1      2632 5.26022E+00
 -1      2633 6.02714E+00
 -1      2634 9.18268E+00
 -1      2635 2.11425E+01
 -1      2636 2.11425E+01
 -1      2637 1.66729E+01
 -1      2638 3.05572E+01
 -1      2639 2.02620E+01
 -1      2640 1.57697E+01
 -1      2641 2.02620E+01
 -1      2642 1.31635E+01
 -1      2643 8.37243E+00
 -1      2644 5.43824E+00
 -1      2645 5.15900E+00
 -1      2646 4.58599E+00
 -1      2647 5.39480E+00
 -1      2648 1.09735E+01
 -1      2649 5.41316E+00
 -1      2650 1.41163E+01
 -1      2651 6.74193E-01
 -1      2652 6.35747E-01
 -1      2653 6.36635E-01
 -1      2654 7.21902E-01
 -1      2655 6.22400E-01
 -1      2656 6.83314E-01
 -1      2657 4.22782E-01
 -1      2658 4.08051E-01
 -1      2659 4.00314E-01
 -1      2660 3.87414E-01
 -1      2661 3.50828E-01
 -1      2662 4.36388E-01
 -1      2663 4.36388E-01
 -1      2664 4.72874E-01
 -1      2665 4.24309E-01
 -1      2666 3.49709E-01
 -1      2667 7.18552E-01
 -1      2668 7.96698E-01
 -1      2669 6.79595E+00
 -1      2670 7.11435E+00
 -1      2671 1.61133E+01
 -1      2672 1.26501E+01
 -1      2673 5.51096E-01
 -1      2674 4.94624E-01
 -1      2675 4.88338E-01
 -1      2676 4.32326E-01
 -1      2677 3.92251E-01
 -1      2678 4.11946E-01
 -1      2679 3.62801E-01
 -1      2680 3.65585E-01
 -1      2681 3.38110E-01
 -1      2682 3.10870E-01
 -1      2683 3.20513E-01
 -1      2684 2.86129E-01
 -1      2685 2.61507E-01
 -1      2686 2.71081E-01
 -1      2687 2.45693E-01
 -1      2688 2.22497E-01
 -1      2689 2.30527E-01
 -1      2690 2.06180E-01
 -1      2691 1.86589E-01
 -1      2692 1.98396E-01
 -1      2693 1.70860E-01
 -1      2694 1.54239E-01
 -1      2695 1.66350E-01
 -1      2696 1.41060E-01
 -1      2697 1.26491E-01
 -1      2698 1.37442E-01
 -1      2699 1.14965E-01
 -1      2700 1.02677E-01
 -1      2701 1.12736E-01
 -1      2702 9.26072E-02
 -1      2703 8.23445E-02
 -1      2704 9.11400E-02
 -1      2705 7.34321E-02
 -1      2706 6.58176E-02
 -1      2707 7.21581E-02
 -1      2708 5.75910E-02
 -1      2709 5.20453E-02
 -1      2710 5.50190E-02
 -1      2711 5.06728E-02
 -1      2712 5.57893E-02
 -1      2713 4.54198E-02
 -1      2714 6.25992E-02
 -1      2715 7.01687E-02
 -1      2716 5.08572E-02
 -1      2717 8.80843E-02
 -1      2718 1.07797E-01
 -1      2719 7.55828E-02
 -1      2720 1.29981E-01
 -1      2721 1.57132E-01
 -1      2722 1.15682E-01
 -1      2723 1.84796E-01
 -1      2724 2.19031E-01
 -1      2725 1.65530E-01
 -1      2726 2.53500E-01
 -1      2727 2.96125E-01
 -1      2728 2.27663E-01
 -1      2729 3.38816E-01
 -1      2730 3.90839E-01
 -1      2731 3.04823E-01
 -1      2732 4.43234E-01
 -1      2733 5.04978E-01
 -1      2734 3.99908E-01
 -1      2735 5.68580E-01
 -1      2736 6.39074E-01
 -1      2737 5.15905E-01
 -1      2738 7.15453E-01
 -1      2739 7.91543E-01
 -1      2740 6.55885E-01
 -1      2741 8.82319E-01
 -1      2742 9.57518E-01
 -1      2743 8.23041E-01
 -1      2744 1.05998E+00
 -1      2745 1.12325E+00
 -1      2746 1.01628E+00
 -1      2747 1.23670E+00
 -1      2748 1.30537E+00
 -1      2749 1.23219E+00
 -1      2750 1.41608E+00
 -1      2751 1.52150E+00
 -1      2752 1.45636E+00
 -1      2753 1.72348E+00
 -1      2754 1.81545E+00
 -1      2755 1.76904E+00
 -1      2756 2.10511E+00
 -1      2757 2.13976E+00
 -1      2758 2.26068E+00
 -1      2759 2.37072E+00
 -1      2760 2.63657E+00
 -1      2761 2.78130E+00
 -1      2762 2.60994E+00
 -1      2763 2.52976E+00
 -1      2764 2.98562E+00
 -1      2765 2.48631E+00
 -1      2766 2.87209E+00
 -1      2767 2.91554E+00
 -1      2768 5.20824E+00
 -1      2769 5.33066E+00
 -1      2770 2.93213E+00
 -1      2771 2.57823E+00
 -1      2772 2.16270E+00
 -1      2773 2.11023E+00
 -1      2774 2.53072E+00
 -1      2775 2.98114E+00
 -1      2776 2.93400E+00
 -1      2777 2.98611E+00
 -1      2778 2.23094E+00
 -1      2779 1.99001E+00
 -1      2780 3.15397E+00
 -1      2781 1.73872E+00
 -1      2782 1.53989E+00
 -1      2783 2.19962E+00
 -1      2784 1.26814E+00
 -1      2785 1.16228E+00
 -1      2786 1.67659E+00
 -1      2787 9.79331E-01
 -1      2788 8.84912E-01
 -1      2789 1.22189E+00
 -1      2790 3.52084E-01
 -1      2791 3.85009E-01
 -1      2792 8.13658E-01
 -1      2793 7.27827E-01
 -1      2794 7.38200E-01
 -1      2795 8.28579E-01
 -1      2796 4.19156E-01
 -1      2797 4.72823E-01
 -1      2798 3.64317E-01
 -1      2799 2.46515E-01
 -1      2800 2.74090E-01
 -1      2801 2.06151E-01
 -1      2802 2.28263E-01
 -1      2803 2.18864E-01
 -1      2804 1.70057E-01
 -1      2805 1.89273E-01
 -1      2806 1.83734E-01
 -1      2807 1.38893E-01
 -1      2808 1.55288E-01
 -1      2809 1.52088E-01
 -1      2810 1.12617E-01
 -1      2811 1.26262E-01
 -1      2812 1.24688E-01
 -1      2813 9.06759E-02
 -1      2814 1.01629E-01
 -1      2815 1.01068E-01
 -1      2816 7.30810E-02
 -1      2817 8.16262E-02
 -1      2818 8.10300E-02
 -1      2819 6.00706E-02
 -1      2820 6.52523E-02
 -1      2821 6.41516E-02
 -1      2822 5.96359E-02
 -1      2823 5.69656E-02
 -1      2824 5.32179E-02
 -1      2825 7.14593E-02
 -1      2826 6.42029E-02
 -1      2827 5.46798E-02
 -1      2828 9.50471E-02
 -1      2829 8.43545E-02
 -1      2830 7.21419E-02
 -1      2831 1.39144E-01
 -1      2832 1.15591E-01
 -1      2833 1.05581E-01
 -1      2834 1.93197E-01
 -1      2835 1.64234E-01
 -1      2836 1.51215E-01
 -1      2837 2.58356E-01
 -1      2838 2.23553E-01
 -1      2839 2.06662E-01
 -1      2840 3.34791E-01
 -1      2841 2.94399E-01
 -1      2842 2.73061E-01
 -1      2843 4.21002E-01
 -1      2844 3.76401E-01
 -1      2845 3.50713E-01
 -1      2846 5.12893E-01
 -1      2847 4.67171E-01
 -1      2848 4.38493E-01
 -1      2849 6.02679E-01
 -1      2850 5.61261E-01
 -1      2851 5.33031E-01
 -1      2852 6.85064E-01
 -1      2853 6.48950E-01
 -1      2854 6.27670E-01
 -1      2855 7.47643E-01
 -1      2856 7.22440E-01
 -1      2857 7.11317E-01
 -1      2858 8.35326E-01
 -1      2859 8.08765E-01
 -1      2860 8.09815E-01
 -1      2861 8.96608E-01
 -1      2862 8.98737E-01
 -1      2863 9.34348E-01
 -1      2864 9.23860E-01
 -1      2865 9.41657E-01
 -1      2866 1.04281E+00
 -1      2867 1.05517E+00
 -1      2868 9.91601E-01
 -1      2869 1.15560E+00
 -1      2870 1.28901E+00
 -1      2871 1.20720E+00
 -1      2872 1.37537E+00
 -1      2873 1.51212E+00
 -1      2874 1.31712E+00
 -1      2875 1.55551E+00
 -1      2876 1.92626E+00
 -1      2877 1.78673E+00
 -1      2878 1.85822E+00
 -1      2879 2.67076E+00
 -1      2880 2.49523E+00
 -1      2881 2.70180E+00
 -1      2882 3.20804E+00
 -1      2883 3.19549E+00
 -1      2884 3.79550E+00
 -1      2885 3.09866E+00
 -1      2886 3.12294E+00
 -1      2887 4.23513E+00
 -1      2888 2.00666E+00
 -1      2889 2.14512E+00
 -1      2890 3.19648E+00
 -1      2891 1.63049E+00
 -1      2892 1.73522E+00
 -1      2893 1.97151E+00
 -1      2894 1.55934E+00
 -1      2895 1.66316E+00
 -1      2896 1.73273E+00
 -1      2897 1.20392E+00
 -1      2898 1.39082E+00
 -1      2899 1.59688E+00
 -1      2900 1.03558E+00
 -1      2901 1.10819E+00
 -1      2902 1.33263E+00
 -1      2903 7.61716E-01
 -1      2904 8.68240E-01
 -1      2905 1.06955E+00
 -1      2906 5.89267E-01
 -1      2907 6.21220E-01
 -1      2908 7.61716E-01
 -1      2909 7.70152E-01
 -1      2910 7.78825E+00
 -1      2911 1.00785E+01
 -1      2912 1.70524E+00
 -1      2913 1.70434E+00
 -1      2914 7.53036E-01
 -1      2915 7.05470E-01
 -1      2916 7.06358E-01
 -1      2917 9.07068E-01
 -1      2918 1.08589E+00
 -1      2919 1.00761E+00
 -1      2920 1.73262E+00
 -1      2921 1.71281E+00
 -1      2922 2.06784E+00
 -1      2923 1.46606E+00
 -1      2924 1.24752E+00
 -1      2925 1.42207E+00
 -1      2926 1.82199E+00
 -1      2927 1.73262E+00
 -1      2928 1.73262E+00
 -1      2929 2.07540E+00
 -1      2930 1.35590E+00
 -1      2931 1.55315E+00
 -1      2932 1.89593E+00
 -1      2933 1.08695E+00
 -1      2934 1.18143E+00
 -1      2935 1.54199E+00
 -1      2936 8.34199E-01
 -1      2937 9.18638E-01
 -1      2938 1.19919E+00
 -1      2939 9.03034E-01
 -1      2940 7.39839E+00
 -1      2941 6.01748E+00
 -1      2942 7.01873E-01
 -1      2943 6.67308E-01
 -1      2944 2.14225E+01
 -1      2945 2.11841E+01
 -1      2946 1.17797E+01
 -1      2947 1.62098E+01
 -1      2948 7.20780E-01
 -1      2949 2.59453E+01
 -1      2950 2.07717E+01
 -1      2951 7.13071E+00
 -1      2952 6.80076E+00
 -1      2953 5.06452E-01
 -1      2954 5.85657E-01
 -1      2955 4.32093E-01
 -1      2956 2.93224E-01
 -1      2957 3.24691E-01
 -1      2958 3.02778E-01
 -1      2959 2.56251E-01
 -1      2960 6.03191E-01
 -1      2961 5.53192E-01
 -1      2962 4.00633E-01
 -1      2963 4.66846E-01
 -1      2964 4.36388E-01
 -1      2965 4.24393E-01
 -1      2966 3.60176E-01
 -1      2967 3.61788E-01
 -1      2968 6.11149E-01
 -1      2969 7.04728E-01
 -1      2970 5.30530E-01
 -1      2971 4.91213E-01
 -1      2972 5.03892E+00
 -1      2973 6.04243E+00
 -1      2974 5.33066E+00
 -1      2975 4.22613E-01
 -1      2976 4.36557E-01
 -1      2977 4.58482E+00
 -1      2978 4.33770E+00
 -1      2979 2.23390E+01
 -1      2980 1.78100E+01
 -1      2981 9.94552E+00
 -1      2982 1.34113E+01
 -1      2983 5.61072E+00
 -1      2984 4.23221E+00
 -1      2985 7.91243E+00
 -1      2986 6.35675E+00
 -1      2987 1.25880E+01
 -1      2988 9.35256E+00
 -1      2989 7.33688E+00
 -1      2990 2.08014E+01
 -1      2991 2.54062E+01
 -1      2992 7.30680E+00
 -1      2993 8.77465E+00
 -1      2994 3.59199E+00
 -1      2995 5.27969E+00
 -1      2996 5.25666E+00
 -1      2997 4.33587E+00
 -1      2998 7.09256E+00
 -1      2999 6.11080E+00
 -1      3000 5.18645E+00
 -1      3001 6.06238E+00
 -1      3002 3.87463E+00
 -1      3003 5.22805E+00
 -1      3004 5.04924E+00
 -1      3005 6.47762E+00
 -1      3006 6.03450E+00
 -1      3007 1.05215E+01
 -1      3008 8.30474E+00
 -1      3009 6.19713E+00
 -1      3010 7.07398E+00
 -1      3011 4.46188E-01
 -1      3012 4.54542E-01
 -1      3013 3.68489E-01
 -1      3014 3.42883E-01
 -1      3015 3.87206E-01
 -1      3016 4.00062E-01
 -1      3017 4.65860E+00
 -1      3018 9.98139E+00
 -1      3019 6.31375E+00
 -1      3020 5.27130E+00
 -1      3021 5.25413E+00
 -1      3022 4.95225E+00
 -1      3023 5.56062E+00
 -1      3024 3.96318E+00
 -1      3025 4.57714E+00
 -1      3026 3.60220E+00
 -1      3027 3.60220E+00
 -1      3028 5.18645E+00
 -1      3029 4.33231E+00
 -1      3030 1.13951E+00
 -1      3031 8.86683E-01
 -1      3032 8.63407E-01
 -1      3033 3.74757E+00
 -1      3034 7.06851E+00
 -1      3035 9.80188E+00
 -1      3036 8.76967E+00
 -1      3037 6.94635E+00
 -1      3038 5.76236E-01
 -1      3039 4.60735E+00
 -1      3040 8.13658E-01
 -1      3041 1.54518E+01
 -1      3042 1.60751E+01
 -1      3043 1.40940E+01
 -1      3044 1.06128E+01
 -1      3045 4.40992E-01
 -1      3046 1.32206E+01
 -1      3047 1.78325E+01
 -1      3048 1.27109E+01
 -1      3049 1.43488E+01
 -1      3050 4.04711E+00
 -1      3051 3.58843E+00
 -1      3052 5.30963E-01
 -1      3053 1.28624E+01
 -1      3054 9.05143E+00
 -1      3055 1.22331E+01
 -1      3056 1.56207E+01
 -1      3057 5.68441E+00
 -1      3058 4.07586E-01
 -1      3059 4.22045E-01
 -1      3060 3.58291E-01
 -1      3061 3.50199E-01
 -1      3062 1.34309E+01
 -1      3063 1.25217E+01
 -1      3064 9.26010E+00
 -1      3065 3.76169E+00
 -1      3066 5.15073E+00
 -1      3067 8.06964E+00
 -1      3068 1.38068E+01
 -1      3069 3.45837E+00
 -1      3070 4.24699E+00
 -1      3071 3.92162E+00
 -1      3072 1.54227E+01
 -1      3073 2.88852E-01
 -1      3074 3.00931E-01
 -1      3075 4.22348E+00
 -1      3076 3.83774E+00
 -1      3077 3.48015E+00
 -1      3078 3.21475E-01
 -1      3079 3.01094E-01
 -1      3080 2.97678E-01
 -1      3081 2.72987E-01
 -1      3082 2.53568E-01
 -1      3083 2.62125E-01
 -1      3084 2.37385E-01
 -1      3085 2.39291E-01
 -1      3086 2.23180E-01
 -1      3087 2.07365E-01
 -1      3088 2.14224E-01
 -1      3089 1.93903E-01
 -1      3090 1.77586E-01
 -1      3091 1.86556E-01
 -1      3092 1.66784E-01
 -1      3093 1.51055E-01
 -1      3094 1.62291E-01
 -1      3095 1.39513E-01
 -1      3096 1.26334E-01
 -1      3097 1.39947E-01
 -1      3098 1.14906E-01
 -1      3099 1.03380E-01
 -1      3100 1.16978E-01
 -1      3101 9.24557E-02
 -1      3102 8.23862E-02
 -1      3103 9.46263E-02
 -1      3104 7.20155E-02
 -1      3105 6.31031E-02
 -1      3106 7.33313E-02
 -1      3107 5.30843E-02
 -1      3108 4.48577E-02
 -1      3109 5.29418E-02
 -1      3110 3.88883E-02
 -1      3111 3.75157E-02
 -1      3112 3.69536E-02
 -1      3113 4.08337E-02
 -1      3114 4.76436E-02
 -1      3115 3.43022E-02
 -1      3116 6.26338E-02
 -1      3117 8.05494E-02
 -1      3118 5.26103E-02
 -1      3119 9.92003E-02
 -1      3120 1.21384E-01
 -1      3121 8.62513E-02
 -1      3122 1.46325E-01
 -1      3123 1.73989E-01
 -1      3124 1.29843E-01
 -1      3125 2.05566E-01
 -1      3126 2.40035E-01
 -1      3127 1.86361E-01
 -1      3128 2.79722E-01
 -1      3129 3.22413E-01
 -1      3130 2.57625E-01
 -1      3131 3.71662E-01
 -1      3132 4.24057E-01
 -1      3133 3.46561E-01
 -1      3134 4.84054E-01
 -1      3135 5.47656E-01
 -1      3136 4.55808E-01
 -1      3137 6.18846E-01
 -1      3138 6.95225E-01
 -1      3139 5.86995E-01
 -1      3140 7.76384E-01
 -1      3141 8.67160E-01
 -1      3142 7.39344E-01
 -1      3143 9.68888E-01
 -1      3144 1.07135E+00
 -1      3145 9.22231E-01
 -1      3146 1.20899E+00
 -1      3147 1.32244E+00
 -1      3148 1.16160E+00
 -1      3149 1.54569E+00
 -1      3150 1.65640E+00
 -1      3151 1.52248E+00
 -1      3152 1.94215E+00
 -1      3153 2.14413E+00
 -1      3154 2.03148E+00
 -1      3155 2.37815E+00
 -1      3156 2.66782E+00
 -1      3157 2.55126E+00
 -1      3158 3.11865E+00
 -1      3159 3.34961E+00
 -1      3160 3.23612E+00
 -1      3161 4.23855E+00
 -1      3162 3.53549E+00
 -1      3163 2.80652E+00
 -1      3164 2.55523E+00
 -1      3165 3.89110E+00
 -1      3166 2.22496E+00
 -1      3167 1.95322E+00
 -1      3168 2.83186E+00
 -1      3169 1.69239E+00
 -1      3170 1.50944E+00
 -1      3171 2.24076E+00
 -1      3172 1.37594E-01
 -1      3173 1.52363E-01
 -1      3174 3.09275E-01
 -1      3175 3.43423E-01
 -1      3176 1.65615E-01
 -1      3177 1.82492E-01
 -1      3178 1.51121E-01
 -1      3179 1.95503E-01
 -1      3180 2.13756E-01
 -1      3181 1.77384E-01
 -1      3182 1.12271E-01
 -1      3183 1.24902E-01
 -1      3184 1.25177E-01
 -1      3185 8.94568E-02
 -1      3186 1.00445E-01
 -1      3187 1.00660E-01
 -1      3188 6.96716E-02
 -1      3189 7.87213E-02
 -1      3190 7.80984E-02
 -1      3191 5.29644E-02
 -1      3192 6.07931E-02
 -1      3193 5.84844E-02
 -1      3194 4.11063E-02
 -1      3195 4.42113E-02
 -1      3196 4.08529E-02
 -1      3197 4.63817E-02
 -1      3198 4.18147E-02
 -1      3199 3.28081E-02
 -1      3200 7.20512E-02
 -1      3201 5.91561E-02
 -1      3202 4.62910E-02
 -1      3203 1.09427E-01
 -1      3204 8.88827E-02
 -1      3205 7.58969E-02
 -1      3206 1.54988E-01
 -1      3207 1.29897E-01
 -1      3208 1.13199E-01
 -1      3209 2.10373E-01
 -1      3210 1.80017E-01
 -1      3211 1.58699E-01
 -1      3212 2.76957E-01
 -1      3213 2.40914E-01
 -1      3214 2.14269E-01
 -1      3215 3.55580E-01
 -1      3216 3.13970E-01
 -1      3217 2.81824E-01
 -1      3218 4.47696E-01
 -1      3219 4.01526E-01
 -1      3220 3.64783E-01
 -1      3221 5.49712E-01
 -1      3222 5.01344E-01
 -1      3223 4.64377E-01
 -1      3224 6.56128E-01
 -1      3225 6.09857E-01
 -1      3226 5.78170E-01
 -1      3227 7.58645E-01
 -1      3228 7.21269E-01
 -1      3229 7.03455E-01
 -1      3230 8.90174E-01
 -1      3231 8.29053E-01
 -1      3232 8.39004E-01
 -1      3233 1.03807E+00
 -1      3234 9.74657E-01
 -1      3235 9.93895E-01
 -1      3236 1.21962E+00
 -1      3237 1.17457E+00
 -1      3238 1.21488E+00
 -1      3239 1.42792E+00
 -1      3240 1.36018E+00
 -1      3241 1.49194E+00
 -1      3242 1.69687E+00
 -1      3243 1.54485E+00
 -1      3244 1.74943E+00
 -1      3245 2.14439E+00
 -1      3246 2.11628E+00
 -1      3247 2.28576E+00
 -1      3248 3.27077E+00
 -1      3249 2.70180E+00
 -1      3250 4.32023E+00
 -1      3251 3.79550E+00
 -1      3252 4.94558E+00
 -1      3253 5.03068E+00
 -1      3254 2.18038E+00
 -1      3255 2.45182E+00
 -1      3256 2.13298E+00
 -1      3257 2.10032E+00
 -1      3258 2.58063E+00
 -1      3259 1.77389E+00
 -1      3260 1.94241E+00
 -1      3261 2.30999E+00
 -1      3262 1.49655E+00
 -1      3263 1.59229E+00
 -1      3264 1.93781E+00
 -1      3265 1.11690E+00
 -1      3266 1.28425E+00
 -1      3267 1.54390E+00
 -1      3268 2.49549E+00
 -1      3269 2.49549E+00
 -1      3270 2.25617E+00
 -1      3271 2.43564E+00
 -1      3272 2.85574E+00
 -1      3273 2.49549E+00
 -1      3274 2.48793E+00
 -1      3275 2.91559E+00
 -1      3276 9.94774E+00
 -1      3277 7.81906E+00
 -1      3278 4.00488E+00
 -1      3279 4.97396E+00
 -1      3280 5.99259E+00
 -1      3281 5.58456E+00
 -1      3282 4.13843E-01
 -1      3283 3.10481E-01
 -1      3284 2.61702E-01
 -1      3285 4.00019E-01
 -1      3286 3.52705E-01
 -1      3287 3.86333E-01
 -1      3288 2.97663E-01
 -1      3289 6.23639E+00
 -1      3290 5.33004E+00
 -1      3291 1.03491E+00
 -1      3292 1.10834E+01
 -1      3293 1.22382E+01
 -1      3294 1.38878E+01
 -1      3295 1.16299E+01
 -1      3296 5.05376E+00
 -1      3297 4.30773E+00
 -1      3298 3.16188E-01
 -1      3299 3.09902E-01
 -1      3300 2.45412E-01
 -1      3301 9.68834E-01
 -1      3302 3.06047E+00
 -1      3303 7.37242E+00
 -1      3304 8.54329E+00
 -1      3305 6.52371E+00
 -1      3306 5.08358E+00
 -1      3307 1.26539E+01
 -1      3308 1.31930E+01
 -1      3309 1.23237E+01
 -1      3310 1.06269E+01
 -1      3311 1.77152E+00
 -1      3312 1.94600E+00
 -1      3313 2.48571E+00
 -1      3314 3.55745E+00
 -1      3315 4.54542E-01
 -1      3316 1.33402E+01
 -1      3317 1.29991E+01
 -1      3318 3.23738E-01
 -1      3319 3.16001E-01
 -1      3320 5.06657E+00
 -1      3321 6.37720E+00
 -1      3322 4.12804E+00
 -1      3323 5.44224E+00
 -1      3324 5.91590E+00
 -1      3325 2.64495E+00
 -1      3326 4.07760E+00
 -1      3327 4.94851E+00
 -1      3328 3.12289E-01
 -1      3329 3.12081E-01
 -1      3330 2.85199E-01
 -1      3331 8.56288E+00
 -1      3332 3.74077E+00
 -1      3333 4.44806E+00
 -1      3334 2.85832E+00
 -1      3335 2.04795E-01
 -1      3336 2.28156E-01
 -1      3337 2.47291E-01
 -1      3338 3.83634E+00
 -1      3339 3.49899E+00
 -1      3340 3.47236E+00
 -1      3341 2.90177E+00
 -1      3342 1.47748E+00
 -1      3343 1.35656E+00
 -1      3344 6.10058E+00
 -1      3345 3.32120E-01
 -1      3346 3.30024E-01
 -1      3347 2.47675E-01
 -1      3348 1.50541E+00
 -1      3349 3.90424E-01
 -1      3350 2.13283E+00
 -1      3351 1.85822E+00
 -1      3352 5.03068E+00
 -1      3353 3.19648E+00
 -1      3354 4.15002E+00
 -1      3355 6.20274E+00
 -1      3356 9.02213E-01
 -1      3357 1.11690E+00
 -1      3358 7.61716E-01
 -1      3359 2.82838E+00
 -1      3360 2.40072E+00
 -1      3361 2.16244E+00
 -1      3362 1.86353E+00
 -1      3363 1.70189E+00
 -1      3364 1.91894E+00
 -1      3365 2.44226E+00
 -1      3366 8.46455E+00
 -1      3367 8.97366E+00
 -1      3368 8.83900E+00
 -1      3369 6.99587E+00
 -1      3370 3.20168E-01
 -1      3371 3.29799E-01
 -1      3372 9.05827E+00
 -1      3373 1.67372E+00
 -1      3374 1.15391E+01
 -1      3375 8.59993E+00
 -1      3376 8.57235E+00
 -1      3377 2.07773E+00
 -1      3378 8.89209E+00
 -1      3379 1.13216E+01
 -1      3380 8.41432E+00
 -1      3381 3.25350E-01
 -1      3382 3.23738E-01
 -1      3383 2.88912E-01
 -1      3384 4.24058E+00
 -1      3385 2.41900E+00
 -1      3386 3.61467E+00
 -1      3387 1.02720E+01
 -1      3388 9.51938E+00
 -1      3389 3.39484E+00
 -1      3390 3.22903E+00
 -1      3391 2.89003E+00
 -1      3392 2.93039E-01
 -1      3393 2.72145E-01
 -1      3394 2.65647E-01
 -1      3395 1.05715E+01
 -1      3396 7.84784E+00
 -1      3397 5.59453E+00
 -1      3398 8.12225E+00
 -1      3399 3.20534E-01
 -1      3400 3.20534E-01
 -1      3401 2.84096E-01
 -1      3402 2.59676E-01
 -1      3403 3.79550E+00
 -1      3404 2.97643E+00
 -1      3405 3.77868E+00
 -1      3406 4.12139E+00
 -1      3407 1.21002E+00
 -1      3408 1.16028E+00
 -1      3409 1.01134E+00
 -1      3410 1.54800E+00
 -1      3411 3.68744E-01
 -1      3412 3.94237E-01
 -1      3413 2.77549E-01
 -1      3414 2.89357E-01
 -1      3415 1.00982E+01
 -1      3416 3.23229E-01
 -1      3417 3.23797E-01
 -1      3418 2.85106E-01
 -1      3419 3.40535E+00
 -1      3420 8.25659E+00
 -1      3421 9.07509E+00
 -1      3422 5.76651E+00
 -1      3423 2.16928E-01
 -1      3424 2.06066E-01
 -1      3425 2.02403E-01
 -1      3426 1.88198E-01
 -1      3427 1.80040E-01
 -1      3428 1.80208E-01
 -1      3429 1.66745E-01
 -1      3430 1.68387E-01
 -1      3431 1.56644E-01
 -1      3432 1.45842E-01
 -1      3433 1.50296E-01
 -1      3434 1.37526E-01
 -1      3435 1.25984E-01
 -1      3436 1.31879E-01
 -1      3437 1.17327E-01
 -1      3438 1.05899E-01
 -1      3439 1.14905E-01
 -1      3440 9.68605E-02
 -1      3441 8.59362E-02
 -1      3442 9.72093E-02
 -1      3443 7.69502E-02
 -1      3444 6.65795E-02
 -1      3445 7.91844E-02
 -1      3446 5.77756E-02
 -1      3447 4.77568E-02
 -1      3448 6.13945E-02
 -1      3449 4.40026E-02
 -1      3450 3.80332E-02
 -1      3451 4.88364E-02
 -1      3452 3.98966E-02
 -1      3453 4.32145E-02
 -1      3454 4.69455E-02
 -1      3455 5.06035E-02
 -1      3456 6.55937E-02
 -1      3457 5.61979E-02
 -1      3458 8.31644E-02
 -1      3459 1.01815E-01
 -1      3460 8.11577E-02
 -1      3461 1.24325E-01
 -1      3462 1.49266E-01
 -1      3463 1.21238E-01
 -1      3464 1.77785E-01
 -1      3465 2.09362E-01
 -1      3466 1.72267E-01
 -1      3467 2.45443E-01
 -1      3468 2.85130E-01
 -1      3469 2.36867E-01
 -1      3470 3.30628E-01
 -1      3471 3.79877E-01
 -1      3472 3.18446E-01
 -1      3473 4.37046E-01
 -1      3474 4.97044E-01
 -1      3475 4.21113E-01
 -1      3476 5.68682E-01
 -1      3477 6.39871E-01
 -1      3478 5.49920E-01
 -1      3479 7.29453E-01
 -1      3480 8.10612E-01
 -1      3481 7.11139E-01
 -1      3482 9.22231E-01
 -1      3483 1.02396E+00
 -1      3484 9.12339E-01
 -1      3485 1.16140E+00
 -1      3486 1.29904E+00
 -1      3487 1.16140E+00
 -1      3488 1.48095E+00
 -1      3489 1.70420E+00
 -1      3490 1.48075E+00
 -1      3491 2.01726E+00
 -1      3492 2.30301E+00
 -1      3493 1.97572E+00
 -1      3494 3.05070E+00
 -1      3495 3.28473E+00
 -1      3496 3.03648E+00
 -1      3497 3.88015E+00
 -1      3498 4.33098E+00
 -1      3499 6.41054E+00
 -1      3500 4.37960E+00
 -1      3501 4.37919E+00
 -1      3502 5.07049E+00
 -1      3503 4.62216E+00
 -1      3504 4.29189E+00
 -1      3505 2.75534E+00
 -1      3506 2.49451E+00
 -1      3507 2.59231E+00
 -1      3508 4.54564E+00
 -1      3509 9.22363E-02
 -1      3510 1.04062E-01
 -1      3511 2.70180E+00
 -1      3512 1.14124E-01
 -1      3513 1.26815E-01
 -1      3514 1.05700E-01
 -1      3515 1.58752E-01
 -1      3516 1.71763E-01
 -1      3517 7.16485E-02
 -1      3518 8.23841E-02
 -1      3519 8.57864E-02
 -1      3520 5.32266E-02
 -1      3521 6.21050E-02
 -1      3522 6.63907E-02
 -1      3523 3.51235E-02
 -1      3524 4.38766E-02
 -1      3525 4.74972E-02
 -1      3526 3.67549E-02
 -1      3527 3.60464E-02
 -1      3528 3.90702E-02
 -1      3529 5.48373E-02
 -1      3530 4.20628E-02
 -1      3531 4.53012E-02
 -1      3532 8.69328E-02
 -1      3533 7.01014E-02
 -1      3534 6.58733E-02
 -1      3535 1.27127E-01
 -1      3536 1.06656E-01
 -1      3537 1.00861E-01
 -1      3538 1.76368E-01
 -1      3539 1.51340E-01
 -1      3540 1.44797E-01
 -1      3541 2.36344E-01
 -1      3542 2.05802E-01
 -1      3543 1.98443E-01
 -1      3544 3.08519E-01
 -1      3545 2.71506E-01
 -1      3546 2.63039E-01
 -1      3547 3.95411E-01
 -1      3548 3.49465E-01
 -1      3549 3.39147E-01
 -1      3550 4.95002E-01
 -1      3551 4.41354E-01
 -1      3552 4.26036E-01
 -1      3553 6.07515E-01
 -1      3554 5.47370E-01
 -1      3555 5.24347E-01
 -1      3556 7.42199E-01
 -1      3557 6.77058E-01
 -1      3558 6.46258E-01
 -1      3559 9.13602E-01
 -1      3560 8.43194E-01
 -1      3561 8.16796E-01
 -1      3562 1.13407E+00
 -1      3563 1.04959E+00
 -1      3564 1.05378E+00
 -1      3565 1.42059E+00
 -1      3566 1.28409E+00
 -1      3567 1.33978E+00
 -1      3568 1.72739E+00
 -1      3569 1.58683E+00
 -1      3570 1.65605E+00
 -1      3571 2.23109E+00
 -1      3572 2.11416E+00
 -1      3573 2.20905E+00
 -1      3574 3.06954E+00
 -1      3575 2.65013E+00
 -1      3576 3.01486E+00
 -1      3577 5.47376E+00
 -1      3578 2.58063E+00
 -1      3579 2.66069E+00
 -1      3580 1.75037E+00
 -1      3581 1.96268E+00
 -1      3582 7.61295E+00
 -1      3583 6.93380E+00
 -1      3584 3.84817E+00
 -1      3585 3.90802E+00
 -1      3586 3.95727E+00
 -1      3587 3.95727E+00
 -1      3588 4.94971E+00
 -1      3589 7.76767E+00
 -1      3590 7.85311E+00
 -1      3591 2.35973E+00
 -1      3592 2.54133E+00
 -1      3593 2.56620E+00
 -1      3594 2.47646E+00
 -1      3595 2.66703E+00
 -1      3596 4.94558E+00
 -1      3597 3.15705E-01
 -1      3598 3.23229E-01
 -1      3599 2.88735E-01
 -1      3600 3.19815E-01
 -1      3601 1.36672E-01
 -1      3602 1.49924E-01
 -1      3603 1.44303E-01
 -1      3604 1.25619E-01
 -1      3605 2.71494E-01
 -1      3606 8.98667E+00
 -1      3607 8.78056E+00
 -1      3608 1.87947E-01
 -1      3609 1.99520E-01
 -1      3610 2.16451E-01
 -1      3611 2.13035E-01
 -1      3612 1.79811E-01
 -1      3613 8.57372E+00
 -1      3614 8.02717E+00
 -1      3615 3.17179E+00
 -1      3616 3.45796E+00
 -1      3617 2.48574E-01
 -1      3618 2.57857E-01
 -1      3619 3.47799E+00
 -1      3620 3.78817E+00
 -1      3621 4.84045E+00
 -1      3622 3.89477E+00
 -1      3623 3.85215E+00
 -1      3624 3.82233E+00
 -1      3625 7.12735E+00
 -1      3626 8.63598E+00
 -1      3627 8.29075E+00
 -1      3628 4.18626E+00
 -1      3629 3.15618E+00
 -1      3630 1.83694E-01
 -1      3631 1.98094E-01
 -1      3632 1.65062E-01
 -1      3633 6.82202E+00
 -1      3634 6.18599E+00
 -1      3635 8.12148E+00
 -1      3636 6.46760E+00
 -1      3637 2.85111E-01
 -1      3638 2.54985E-01
 -1      3639 2.51272E-01
 -1      3640 2.13289E-01
 -1      3641 2.03305E-01
 -1      3642 1.89470E-01
 -1      3643 1.62257E+00
 -1      3644 2.04134E+00
 -1      3645 1.40788E+00
 -1      3646 6.10425E+00
 -1      3647 6.79438E+00
 -1      3648 1.15184E+00
 -1      3649 3.95727E+00
 -1      3650 3.87007E+00
 -1      3651 4.99896E+00
 -1      3652 2.38123E-01
 -1      3653 2.20534E-01
 -1      3654 1.89034E-01
 -1      3655 3.39484E+00
 -1      3656 4.13951E+00
 -1      3657 6.99587E+00
 -1      3658 7.19986E+00
 -1      3659 5.27448E+00
 -1      3660 2.94528E+00
 -1      3661 2.72088E+00
 -1      3662 7.21073E+00
 -1      3663 7.88152E+00
 -1      3664 6.49222E+00
 -1      3665 6.20006E+00
 -1      3666 2.12545E-01
 -1      3667 1.90916E-01
 -1      3668 2.10519E-01
 -1      3669 2.06763E-01
 -1      3670 2.53254E-01
 -1      3671 2.53254E-01
 -1      3672 2.19327E-01
 -1      3673 1.58987E-01
 -1      3674 2.37552E-01
 -1      3675 7.34753E+00
 -1      3676 7.28836E+00
 -1      3677 2.34968E-01
 -1      3678 1.66780E-01
 -1      3679 2.38597E-01
 -1      3680 1.43578E-01
 -1      3681 2.33407E-01
 -1      3682 2.49643E-01
 -1      3683 2.09837E-01
 -1      3684 2.83038E+00
 -1      3685 1.80403E+00
 -1      3686 4.45857E+00
 -1      3687 1.60277E-01
 -1      3688 1.56614E-01
 -1      3689 1.56200E-01
 -1      3690 1.48210E-01
 -1      3691 1.36437E-01
 -1      3692 1.43629E-01
 -1      3693 1.33527E-01
 -1      3694 1.31442E-01
 -1      3695 1.26594E-01
 -1      3696 1.18278E-01
 -1      3697 1.19926E-01
 -1      3698 1.10893E-01
 -1      3699 1.02236E-01
 -1      3700 1.05608E-01
 -1      3701 9.56821E-02
 -1      3702 8.66433E-02
 -1      3703 9.16700E-02
 -1      3704 7.96642E-02
 -1      3705 7.06782E-02
 -1      3706 7.81371E-02
 -1      3707 6.36612E-02
 -1      3708 5.48573E-02
 -1      3709 6.41410E-02
 -1      3710 5.34034E-02
 -1      3711 4.96492E-02
 -1      3712 5.56701E-02
 -1      3713 5.13284E-02
 -1      3714 5.31917E-02
 -1      3715 5.58954E-02
 -1      3716 5.66680E-02
 -1      3717 6.40571E-02
 -1      3718 6.10509E-02
 -1      3719 7.37663E-02
 -1      3720 9.13370E-02
 -1      3721 7.42364E-02
 -1      3722 1.09800E-01
 -1      3723 1.32310E-01
 -1      3724 1.02409E-01
 -1      3725 1.55745E-01
 -1      3726 1.84264E-01
 -1      3727 1.44307E-01
 -1      3728 2.14024E-01
 -1      3729 2.50105E-01
 -1      3730 1.97502E-01
 -1      3731 2.87936E-01
 -1      3732 3.33434E-01
 -1      3733 2.65093E-01
 -1      3734 3.81727E-01
 -1      3735 4.38896E-01
 -1      3736 3.51216E-01
 -1      3737 5.01180E-01
 -1      3738 5.72817E-01
 -1      3739 4.61793E-01
 -1      3740 6.54650E-01
 -1      3741 7.44232E-01
 -1      3742 6.05910E-01
 -1      3743 8.54701E-01
 -1      3744 9.66320E-01
 -1      3745 7.98212E-01
 -1      3746 1.12036E+00
 -1      3747 1.25780E+00
 -1      3748 1.06272E+00
 -1      3749 1.48075E+00
 -1      3750 1.66266E+00
 -1      3751 1.43971E+00
 -1      3752 1.97572E+00
 -1      3753 2.28878E+00
 -1      3754 1.97572E+00
 -1      3755 2.85883E+00
 -1      3756 3.60653E+00
 -1      3757 2.85883E+00
 -1      3758 4.80143E+00
 -1      3759 5.39685E+00
 -1      3760 6.52609E+00
 -1      3761 4.62378E+00
 -1      3762 2.89837E+00
 -1      3763 1.17953E-01
 -1      3764 1.34885E-01
 -1      3765 5.99099E+00
 -1      3766 5.73149E+00
 -1      3767 4.39915E-02
 -1      3768 5.33415E-02
 -1      3769 9.49687E-02
 -1      3770 1.05031E-01
 -1      3771 7.72293E-02
 -1      3772 8.70815E-02
 -1      3773 8.64116E-02
 -1      3774 4.58451E-02
 -1      3775 4.49221E-02
 -1      3776 5.07664E-02
 -1      3777 5.37055E-02
 -1      3778 4.83975E-02
 -1      3779 5.42494E-02
 -1      3780 7.77031E-02
 -1      3781 6.24389E-02
 -1      3782 6.55353E-02
 -1      3783 1.15051E-01
 -1      3784 9.53270E-02
 -1      3785 9.18927E-02
 -1      3786 1.61242E-01
 -1      3787 1.37029E-01
 -1      3788 1.31495E-01
 -1      3789 2.17993E-01
 -1      3790 1.88560E-01
 -1      3791 1.80792E-01
 -1      3792 2.86873E-01
 -1      3793 2.51711E-01
 -1      3794 2.41827E-01
 -1      3795 3.69048E-01
 -1      3796 3.28103E-01
 -1      3797 3.16775E-01
 -1      3798 4.64856E-01
 -1      3799 4.18913E-01
 -1      3800 4.07869E-01
 -1      3801 5.76715E-01
 -1      3802 5.24347E-01
 -1      3803 5.17224E-01
 -1      3804 7.15801E-01
 -1      3805 6.46258E-01
 -1      3806 6.46258E-01
 -1      3807 8.99143E-01
 -1      3808 7.98148E-01
 -1      3809 7.98148E-01
 -1      3810 1.16997E+00
 -1      3811 1.03399E+00
 -1      3812 1.01534E+00
 -1      3813 1.55001E+00
 -1      3814 1.39999E+00
 -1      3815 1.38020E+00
 -1      3816 2.31710E+00
 -1      3817 2.15086E+00
 -1      3818 2.21106E+00
 -1      3819 3.28725E+00
 -1      3820 2.90048E+00
 -1      3821 3.39530E+00
 -1      3822 2.74676E+00
 -1      3823 2.93969E+00
 -1      3824 4.86507E+00
 -1      3825 2.34971E+00
 -1      3826 6.04024E+00
 -1      3827 5.43132E+00
 -1      3828 6.96208E+00
 -1      3829 2.50557E-01
 -1      3830 2.50557E-01
 -1      3831 2.00419E-01
 -1      3832 2.74710E+00
 -1      3833 3.85215E+00
 -1      3834 3.43391E+00
 -1      3835 3.66561E+00
 -1      3836 3.36669E+00
 -1      3837 4.16863E+00
 -1      3838 5.67148E+00
 -1      3839 6.04024E+00
 -1      3840 2.51272E-01
 -1      3841 2.54896E-01
 -1      3842 2.16718E-01
 -1      3843 2.21058E-01
 -1      3844 1.50167E-01
 -1      3845 1.54059E-01
 -1      3846 1.30633E-01
 -1      3847 2.08541E-01
 -1      3848 2.26898E-01
 -1      3849 2.04396E-01
 -1      3850 2.41934E-01
 -1      3851 2.46750E-01
 -1      3852 2.11093E-01
 -1      3853 1.65750E+00
 -1      3854 7.34753E+00
 -1      3855 5.97480E-02
 -1      3856 6.92915E-02
 -1      3857 7.05866E-02
 -1      3858 5.62423E-02
 -1      3859 6.24708E+00
 -1      3860 6.08698E+00
 -1      3861 1.27826E-01
 -1      3862 1.26303E-01
 -1      3863 1.02201E-01
 -1      3864 1.49505E-01
 -1      3865 2.04134E+00
 -1      3866 2.16915E+00
 -1      3867 2.34971E+00
 -1      3868 2.95819E+00
 -1      3869 3.01486E+00
 -1      3870 3.70629E+00
 -1      3871 1.87440E-01
 -1      3872 5.45741E+00
 -1      3873 5.28814E+00
 -1      3874 1.87278E-01
 -1      3875 1.87278E-01
 -1      3876 6.04262E+00
 -1      3877 4.79450E+00
 -1      3878 1.30076E-01
 -1      3879 1.38904E-01
 -1      3880 1.47160E-01
 -1      3881 1.59091E-01
 -1      3882 1.32932E-01
 -1      3883 1.79370E-01
 -1      3884 1.78301E-01
 -1      3885 5.17628E+00
 -1      3886 5.89495E+00
 -1      3887 5.47354E+00
 -1      3888 1.64893E-01
 -1      3889 1.45159E-01
 -1      3890 1.34426E-01
 -1      3891 1.55530E-01
 -1      3892 5.14719E+00
 -1      3893 5.59806E+00
 -1      3894 4.87965E+00
 -1      3895 6.28153E+00
 -1      3896 5.98946E+00
 -1      3897 4.24709E+00
 -1      3898 1.73173E-01
 -1      3899 1.12479E-01
 -1      3900 1.22336E-01
 -1      3901 1.16936E-01
 -1      3902 1.01747E-01
 -1      3903 4.94460E+00
 -1      3904 5.95517E+00
 -1      3905 4.73391E+00
 -1      3906 1.90330E-01
 -1      3907 1.56550E-01
 -1      3908 1.88599E-01
 -1      3909 5.18912E+00
 -1      3910 1.09133E-01
 -1      3911 4.51947E+00
 -1      3912 1.77253E-01
 -1      3913 1.83763E-01
 -1      3914 1.52227E-01
 -1      3915 9.38513E-02
 -1      3916 1.09133E-01
 -1      3917 1.52668E-01
 -1      3918 1.86447E-01
 -1      3919 1.82108E-01
 -1      3920 1.86944E-01
 -1      3921 1.19569E-01
 -1      3922 1.19155E-01
 -1      3923 1.19805E-01
 -1      3924 1.15224E-01
 -1      3925 1.02937E-01
 -1      3926 1.12425E-01
 -1      3927 1.05491E-01
 -1      3928 1.00788E-01
 -1      3929 1.00618E-01
 -1      3930 9.32337E-02
 -1      3931 9.31165E-02
 -1      3932 8.72890E-02
 -1      3933 8.07352E-02
 -1      3934 8.22989E-02
 -1      3935 7.53082E-02
 -1      3936 6.83292E-02
 -1      3937 7.09273E-02
 -1      3938 6.57396E-02
 -1      3939 5.87226E-02
 -1      3940 6.29108E-02
 -1      3941 5.77644E-02
 -1      3942 5.63105E-02
 -1      3943 5.93630E-02
 -1      3944 5.79405E-02
 -1      3945 5.96197E-02
 -1      3946 6.00348E-02
 -1      3947 6.25627E-02
 -1      3948 6.60390E-02
 -1      3949 6.46078E-02
 -1      3950 7.18266E-02
 -1      3951 8.15358E-02
 -1      3952 7.33384E-02
 -1      3953 9.17252E-02
 -1      3954 1.10189E-01
 -1      3955 8.93154E-02
 -1      3956 1.24309E-01
 -1      3957 1.47743E-01
 -1      3958 1.13625E-01
 -1      3959 1.69190E-01
 -1      3960 1.98950E-01
 -1      3961 1.49191E-01
 -1      3962 2.26701E-01
 -1      3963 2.64531E-01
 -1      3964 1.98388E-01
 -1      3965 2.99902E-01
 -1      3966 3.48195E-01
 -1      3967 2.61510E-01
 -1      3968 3.93840E-01
 -1      3969 4.56124E-01
 -1      3970 3.42526E-01
 -1      3971 5.16513E-01
 -1      3972 5.98346E-01
 -1      3973 4.48560E-01
 -1      3974 6.81594E-01
 -1      3975 7.92064E-01
 -1      3976 5.92197E-01
 -1      3977 9.13512E-01
 -1      3978 1.06755E+00
 -1      3979 7.96893E-01
 -1      3980 1.25596E+00
 -1      3981 1.47892E+00
 -1      3982 1.10675E+00
 -1      3983 1.78020E+00
 -1      3984 2.09326E+00
 -1      3985 1.59646E+00
 -1      3986 3.99422E+00
 -1      3987 5.96298E-02
 -1      3988 5.70774E-02
 -1      3989 7.63600E-02
 -1      3990 8.42472E-02
 -1      3991 7.27356E-02
 -1      3992 6.40021E-02
 -1      3993 6.68301E-02
 -1      3994 1.00014E-01
 -1      3995 8.23899E-02
 -1      3996 8.08567E-02
 -1      3997 1.40070E-01
 -1      3998 1.18091E-01
 -1      3999 1.08588E-01
 -1      4000 1.90362E-01
 -1      4001 1.63044E-01
 -1      4002 1.49640E-01
 -1      4003 2.53233E-01
 -1      4004 2.19516E-01
 -1      4005 2.01767E-01
 -1      4006 3.31450E-01
 -1      4007 2.90220E-01
 -1      4008 2.67908E-01
 -1      4009 4.28359E-01
 -1      4010 3.78495E-01
 -1      4011 3.51940E-01
 -1      4012 5.48089E-01
 -1      4013 4.88598E-01
 -1      4014 4.59225E-01
 -1      4015 6.95622E-01
 -1      4016 6.26079E-01
 -1      4017 5.97453E-01
 -1      4018 8.80495E-01
 -1      4019 7.98148E-01
 -1      4020 7.77969E-01
 -1      4021 1.15018E+00
 -1      4022 1.01534E+00
 -1      4023 1.01534E+00
 -1      4024 1.55421E+00
 -1      4025 1.32419E+00
 -1      4026 1.32419E+00
 -1      4027 2.80598E+00
 -1      4028 2.20513E+00
 -1      4029 2.14913E+00
 -1      4030 1.65033E-01
 -1      4031 1.75479E-01
 -1      4032 1.54846E-01
 -1      4033 1.47130E-01
 -1      4034 1.62803E-01
 -1      4035 1.76232E-01
 -1      4036 1.64272E-01
 -1      4037 1.25318E-01
 -1      4038 1.45961E-01
 -1      4039 5.41678E-02
 -1      4040 5.32371E-02
 -1      4041 5.95481E-02
 -1      4042 3.88183E+00
 -1      4043 4.61042E+00
 -1      4044 3.74088E+00
 -1      4045 1.07391E-01
 -1      4046 1.13608E-01
 -1      4047 9.63263E-02
 -1      4048 4.19311E+00
 -1      4049 5.65890E-02
 -1      4050 5.31876E-02
 -1      4051 5.95941E-02
 -1      4052 3.60973E+00
 -1      4053 7.04583E-02
 -1      4054 6.82938E-02
 -1      4055 6.25205E-02
 -1      4056 2.48545E+00
 -1      4057 3.05550E+00
 -1      4058 7.98027E-02
 -1      4059 8.98543E-02
 -1      4060 9.73028E-02
 -1      4061 3.62084E+00
 -1      4062 1.40310E-01
 -1      4063 1.82095E-01
 -1      4064 1.88599E-01
 -1      4065 1.53718E-01
 -1      4066 9.21087E-02
 -1      4067 3.60380E+00
 -1      4068 4.68451E+00
 -1      4069 4.60777E+00
 -1      4070 4.07071E+00
 -1      4071 4.00577E+00
 -1      4072 1.30884E-01
 -1      4073 1.26491E-01
 -1      4074 1.59602E-01
 -1      4075 1.30754E-01
 -1      4076 1.27702E-01
 -1      4077 1.32375E-01
 -1      4078 2.94311E+00
 -1      4079 1.16968E-01
 -1      4080 1.16968E-01
 -1      4081 1.04093E-01
 -1      4082 1.11834E-01
 -1      4083 9.22005E-02
 -1      4084 1.01905E-01
 -1      4085 1.27702E-01
 -1      4086 1.26871E-01
 -1      4087 1.11426E-01
 -1      4088 1.24269E-01
 -1      4089 1.32525E-01
 -1      4090 2.28993E+00
 -1      4091 8.84459E-02
 -1      4092 8.90964E-02
 -1      4093 1.03623E-01
 -1      4094 1.00824E-01
 -1      4095 8.91318E-02
 -1      4096 9.07778E-02
 -1      4097 8.59049E-02
 -1      4098 9.36122E-02
 -1      4099 8.36490E-02
 -1      4100 7.77044E-02
 -1      4101 8.13103E-02
 -1      4102 7.38391E-02
 -1      4103 6.84121E-02
 -1      4104 7.51892E-02
 -1      4105 6.43187E-02
 -1      4106 6.17292E-02
 -1      4107 6.72305E-02
 -1      4108 6.03213E-02
 -1      4109 5.93630E-02
 -1      4110 6.17292E-02
 -1      4111 6.78499E-02
 -1      4112 6.94799E-02
 -1      4113 6.88081E-02
 -1      4114 6.46078E-02
 -1      4115 6.75508E-02
 -1      4116 7.24229E-02
 -1      4117 7.33384E-02
 -1      4118 7.91260E-02
 -1      4119 7.33384E-02
 -1      4120 8.88516E-02
 -1      4121 9.90411E-02
 -1      4122 8.88516E-02
 -1      4123 1.12247E-01
 -1      4124 1.26368E-01
 -1      4125 1.11784E-01
 -1      4126 1.43738E-01
 -1      4127 1.65184E-01
 -1      4128 1.42361E-01
 -1      4129 1.87580E-01
 -1      4130 2.15330E-01
 -1      4131 1.82126E-01
 -1      4132 2.43924E-01
 -1      4133 2.79295E-01
 -1      4134 2.33115E-01
 -1      4135 3.15837E-01
 -1      4136 3.61483E-01
 -1      4137 2.98252E-01
 -1      4138 4.08821E-01
 -1      4139 4.69209E-01
 -1      4140 3.82132E-01
 -1      4141 5.32302E-01
 -1      4142 6.15550E-01
 -1      4143 4.92562E-01
 -1      4144 7.03620E-01
 -1      4145 8.25068E-01
 -1      4146 6.43725E-01
 -1      4147 9.77621E-01
 -1      4148 1.16603E+00
 -1      4149 8.84347E-01
 -1      4150 1.42903E+00
 -1      4151 1.73032E+00
 -1      4152 1.29990E+00
 -1      4153 8.92811E-02
 -1      4154 7.96268E-02
 -1      4155 2.51766E+00
 -1      4156 2.77866E+00
 -1      4157 2.12548E+00
 -1      4158 7.12025E-02
 -1      4159 6.68301E-02
 -1      4160 7.96268E-02
 -1      4161 1.56995E-01
 -1      4162 1.34021E-01
 -1      4163 2.05538E-01
 -1      4164 1.76384E-01
 -1      4165 1.60766E-01
 -1      4166 2.67295E-01
 -1      4167 2.30308E-01
 -1      4168 2.04925E-01
 -1      4169 3.52289E-01
 -1      4170 3.05244E-01
 -1      4171 2.67644E-01
 -1      4172 4.63155E-01
 -1      4173 4.02916E-01
 -1      4174 3.56220E-01
 -1      4175 6.10175E-01
 -1      4176 5.32185E-01
 -1      4177 4.75877E-01
 -1      4178 8.09577E-01
 -1      4179 7.07051E-01
 -1      4180 6.41783E-01
 -1      4181 1.09354E+00
 -1      4182 9.58697E-01
 -1      4183 8.87780E-01
 -1      4184 1.51646E+00
 -1      4185 1.34245E+00
 -1      4186 1.28581E+00
 -1      4187 2.71555E+00
 -1      4188 2.06464E+00
 -1      4189 2.08289E+00
 -1      4190 1.36693E-01
 -1      4191 1.10957E-01
 -1      4192 1.34918E-01
 -1      4193 7.30881E-02
 -1      4194 7.13455E-02
 -1      4195 7.82257E-02
 -1      4196 8.41859E-02
 -1      4197 5.92051E-02
 -1      4198 1.22844E-01
 -1      4199 3.26696E+00
 -1      4200 1.18872E-01
 -1      4201 1.00795E-01
 -1      4202 9.95646E-02
 -1      4203 6.98764E-02
 -1      4204 6.69667E-02
 -1      4205 7.42487E-02
 -1      4206 3.06535E+00
 -1      4207 3.60212E+00
 -1      4208 3.33023E+00
 -1      4209 2.63990E+00
 -1      4210 7.66250E-02
 -1      4211 8.22322E-02
 -1      4212 1.26228E-01
 -1      4213 5.94658E-02
 -1      4214 1.95805E+00
 -1      4215 7.65128E-02
 -1      4216 6.61846E-02
 -1      4217 6.61350E-02
 -1      4218 7.03454E-02
 -1      4219 9.79123E-02
 -1      4220 9.21038E-02
 -1      4221 3.18247E+00
 -1      4222 9.78783E-02
 -1      4223 1.32525E-01
 -1      4224 1.38466E-01
 -1      4225 1.23861E-01
 -1      4226 6.68580E-02
 -1      4227 7.27597E-02
 -1      4228 7.51892E-02
 -1      4229 7.71151E-02
 -1      4230 1.28865E-01
 -1      4231 1.28865E-01
 -1      4232 1.00017E-01
 -1      4233 8.44880E-02
 -1      4234 9.12787E-02
 -1      4235 8.13103E-02
 -1      4236 7.74340E-02
 -1      4237 7.74340E-02
 -1      4238 5.26438E-02
 -1      4239 1.01325E-01
 -1      4240 1.13759E-01
 -1      4241 9.36122E-02
 -1      4242 9.92330E-02
 -1      4243 1.13759E-01
 -1      4244 1.33184E-01
 -1      4245 1.18034E-01
 -1      4246 1.03658E-01
 -1      4247 9.36122E-02
 -1      4248 8.35662E-02
 -1      4249 8.13103E-02
 -1      4250 7.90545E-02
 -1      4251 7.51892E-02
 -1      4252 7.13239E-02
 -1      4253 6.72305E-02
 -1      4254 6.88081E-02
 -1      4255 7.72950E-02
 -1      4256 7.72950E-02
 -1      4257 7.24229E-02
 -1      4258 6.93766E-02
 -1      4259 7.51642E-02
 -1      4260 8.35885E-02
 -1      4261 9.33142E-02
 -1      4262 1.04828E-01
 -1      4263 1.50554E-01
 -1      4264 1.69943E-01
 -1      4265 1.92338E-01
 -1      4266 2.17108E-01
 -1      4267 2.45702E-01
 -1      4268 2.83651E-01
 -1      4269 3.20194E-01
 -1      4270 3.70821E-01
 -1      4271 4.18158E-01
 -1      4272 4.87188E-01
 -1      4273 5.50281E-01
 -1      4274 6.47158E-01
 -1      4275 7.35227E-01
 -1      4276 8.84347E-01
 -1      4277 1.03690E+00
 -1      4278 1.28581E+00
 -1      4279 1.54880E+00
 -1      4280 1.02443E-01
 -1      4281 8.35904E-02
 -1      4282 5.95240E-02
 -1      4283 2.09698E+00
 -1      4284 2.49214E+00
 -1      4285 1.20313E-01
 -1      4286 7.63798E-02
 -1      4287 7.82679E-02
 -1      4288 6.68449E-02
 -1      4289 7.98894E-02
 -1      4290 1.01639E-01
 -1      4291 5.37966E-02
 -1      4292 5.94767E-02
 -1      4293 6.24031E-02
 -1      4294 6.68690E-02
 -1      4295 6.90723E-02
 -1      4296 6.82342E-02
 -1      4297 7.24943E-02
 -1      4298 9.71219E-02
 -1      4299 6.16729E-02
 -1      4300 6.25069E-02
 -1      4301 1.05991E-01
 -1      4302 6.27755E-02
 -1      4303 6.13676E-02
 -1      4304 2.77883E+00
 -1      4305 1.13759E-01
 -1      4306 1.23861E-01
 -1      4307 7.72950E-02
 -1      4308 1.23861E-01
 -1      4309 6.98545E-02
 -1      4310 7.65128E-02
 -1      4311 1.05991E-01
 -1      4312 7.92524E-02
 -1      4313 7.47212E-02
 -3
 9999
