    1C
    1UUSER                                                              
    1UDATE              26.october.2022                                 
    1UTIME              23:41:26                                        
    1UHOST                                                              
    1UPGM               CalculiX                                        
    1UVERSION           Version 2.17                             
    1UCOMPILETIME       Thu Jul 23 21:43:50 CEST 2020                    
    1UDIR                                                               
    1UDBN                                                               
    1UMAT    1SOLIDMATERIAL                                             
    2C                          4308                                     1
 -1         1 4.36338E+01 2.75920E+01 0.00000E+00
 -1         2 5.75602E+01 2.86047E+01 0.00000E+00
 -1         3 1.50000E+02 0.00000E+00 0.00000E+00
 -1         4 1.50000E+02 5.00000E+01 0.00000E+00
 -1         5 0.00000E+00 0.00000E+00 0.00000E+00
 -1         6 0.00000E+00 5.00000E+01 0.00000E+00
 -1         7 0.00000E+00 4.70500E+01 0.00000E+00
 -1         8 0.00000E+00 4.41000E+01 0.00000E+00
 -1         9 0.00000E+00 4.11500E+01 0.00000E+00
 -1        10 0.00000E+00 3.82000E+01 0.00000E+00
 -1        11 0.00000E+00 3.52500E+01 0.00000E+00
 -1        12 0.00000E+00 3.23500E+01 0.00000E+00
 -1        13 0.00000E+00 2.94000E+01 0.00000E+00
 -1        14 0.00000E+00 2.64500E+01 0.00000E+00
 -1        15 0.00000E+00 2.35000E+01 0.00000E+00
 -1        16 0.00000E+00 2.05500E+01 0.00000E+00
 -1        17 0.00000E+00 1.76000E+01 0.00000E+00
 -1        18 0.00000E+00 1.47000E+01 0.00000E+00
 -1        19 0.00000E+00 1.17500E+01 0.00000E+00
 -1        20 0.00000E+00 8.80000E+00 0.00000E+00
 -1        21 0.00000E+00 5.85000E+00 0.00000E+00
 -1        22 0.00000E+00 2.90000E+00 0.00000E+00
 -1        23 3.15000E+00 5.00000E+01 0.00000E+00
 -1        24 6.15000E+00 5.00000E+01 0.00000E+00
 -1        25 9.15000E+00 5.00000E+01 0.00000E+00
 -1        26 1.21500E+01 5.00000E+01 0.00000E+00
 -1        27 1.51500E+01 5.00000E+01 0.00000E+00
 -1        28 1.81500E+01 5.00000E+01 0.00000E+00
 -1        29 2.11500E+01 5.00000E+01 0.00000E+00
 -1        30 2.41500E+01 5.00000E+01 0.00000E+00
 -1        31 2.71500E+01 5.00000E+01 0.00000E+00
 -1        32 3.01500E+01 5.00000E+01 0.00000E+00
 -1        33 3.31500E+01 5.00000E+01 0.00000E+00
 -1        34 3.61500E+01 5.00000E+01 0.00000E+00
 -1        35 3.91500E+01 5.00000E+01 0.00000E+00
 -1        36 4.21500E+01 5.00000E+01 0.00000E+00
 -1        37 4.51500E+01 5.00000E+01 0.00000E+00
 -1        38 4.81500E+01 5.00000E+01 0.00000E+00
 -1        39 5.11500E+01 5.00000E+01 0.00000E+00
 -1        40 5.41500E+01 5.00000E+01 0.00000E+00
 -1        41 5.71500E+01 5.00000E+01 0.00000E+00
 -1        42 6.01500E+01 5.00000E+01 0.00000E+00
 -1        43 6.31500E+01 5.00000E+01 0.00000E+00
 -1        44 6.61500E+01 5.00000E+01 0.00000E+00
 -1        45 6.91500E+01 5.00000E+01 0.00000E+00
 -1        46 7.21500E+01 5.00000E+01 0.00000E+00
 -1        47 7.51500E+01 5.00000E+01 0.00000E+00
 -1        48 7.81500E+01 5.00000E+01 0.00000E+00
 -1        49 8.11500E+01 5.00000E+01 0.00000E+00
 -1        50 8.41500E+01 5.00000E+01 0.00000E+00
 -1        51 8.71500E+01 5.00000E+01 0.00000E+00
 -1        52 9.01500E+01 5.00000E+01 0.00000E+00
 -1        53 9.31500E+01 5.00000E+01 0.00000E+00
 -1        54 9.61500E+01 5.00000E+01 0.00000E+00
 -1        55 9.91500E+01 5.00000E+01 0.00000E+00
 -1        56 1.02150E+02 5.00000E+01 0.00000E+00
 -1        57 1.05150E+02 5.00000E+01 0.00000E+00
 -1        58 1.08150E+02 5.00000E+01 0.00000E+00
 -1        59 1.11150E+02 5.00000E+01 0.00000E+00
 -1        60 1.14150E+02 5.00000E+01 0.00000E+00
 -1        61 1.17150E+02 5.00000E+01 0.00000E+00
 -1        62 1.20150E+02 5.00000E+01 0.00000E+00
 -1        63 1.23150E+02 5.00000E+01 0.00000E+00
 -1        64 1.26150E+02 5.00000E+01 0.00000E+00
 -1        65 1.29150E+02 5.00000E+01 0.00000E+00
 -1        66 1.32150E+02 5.00000E+01 0.00000E+00
 -1        67 1.35150E+02 5.00000E+01 0.00000E+00
 -1        68 1.38150E+02 5.00000E+01 0.00000E+00
 -1        69 1.41150E+02 5.00000E+01 0.00000E+00
 -1        70 1.44150E+02 5.00000E+01 0.00000E+00
 -1        71 1.47150E+02 5.00000E+01 0.00000E+00
 -1        72 3.15000E+00 0.00000E+00 0.00000E+00
 -1        73 6.15000E+00 0.00000E+00 0.00000E+00
 -1        74 9.15000E+00 0.00000E+00 0.00000E+00
 -1        75 1.21500E+01 0.00000E+00 0.00000E+00
 -1        76 1.51500E+01 0.00000E+00 0.00000E+00
 -1        77 1.81500E+01 0.00000E+00 0.00000E+00
 -1        78 2.11500E+01 0.00000E+00 0.00000E+00
 -1        79 2.41500E+01 0.00000E+00 0.00000E+00
 -1        80 2.71500E+01 0.00000E+00 0.00000E+00
 -1        81 3.01500E+01 0.00000E+00 0.00000E+00
 -1        82 3.31500E+01 0.00000E+00 0.00000E+00
 -1        83 3.61500E+01 0.00000E+00 0.00000E+00
 -1        84 3.91500E+01 0.00000E+00 0.00000E+00
 -1        85 4.21500E+01 0.00000E+00 0.00000E+00
 -1        86 4.51500E+01 0.00000E+00 0.00000E+00
 -1        87 4.81500E+01 0.00000E+00 0.00000E+00
 -1        88 5.11500E+01 0.00000E+00 0.00000E+00
 -1        89 5.41500E+01 0.00000E+00 0.00000E+00
 -1        90 5.71500E+01 0.00000E+00 0.00000E+00
 -1        91 6.01500E+01 0.00000E+00 0.00000E+00
 -1        92 6.31500E+01 0.00000E+00 0.00000E+00
 -1        93 6.61500E+01 0.00000E+00 0.00000E+00
 -1        94 6.91500E+01 0.00000E+00 0.00000E+00
 -1        95 7.21500E+01 0.00000E+00 0.00000E+00
 -1        96 7.51500E+01 0.00000E+00 0.00000E+00
 -1        97 7.81500E+01 0.00000E+00 0.00000E+00
 -1        98 8.11500E+01 0.00000E+00 0.00000E+00
 -1        99 8.41500E+01 0.00000E+00 0.00000E+00
 -1       100 8.71500E+01 0.00000E+00 0.00000E+00
 -1       101 9.01500E+01 0.00000E+00 0.00000E+00
 -1       102 9.31500E+01 0.00000E+00 0.00000E+00
 -1       103 9.61500E+01 0.00000E+00 0.00000E+00
 -1       104 9.91500E+01 0.00000E+00 0.00000E+00
 -1       105 1.02150E+02 0.00000E+00 0.00000E+00
 -1       106 1.05150E+02 0.00000E+00 0.00000E+00
 -1       107 1.08150E+02 0.00000E+00 0.00000E+00
 -1       108 1.11150E+02 0.00000E+00 0.00000E+00
 -1       109 1.14150E+02 0.00000E+00 0.00000E+00
 -1       110 1.17150E+02 0.00000E+00 0.00000E+00
 -1       111 1.20150E+02 0.00000E+00 0.00000E+00
 -1       112 1.23150E+02 0.00000E+00 0.00000E+00
 -1       113 1.26150E+02 0.00000E+00 0.00000E+00
 -1       114 1.29150E+02 0.00000E+00 0.00000E+00
 -1       115 1.32150E+02 0.00000E+00 0.00000E+00
 -1       116 1.35150E+02 0.00000E+00 0.00000E+00
 -1       117 1.38150E+02 0.00000E+00 0.00000E+00
 -1       118 1.41150E+02 0.00000E+00 0.00000E+00
 -1       119 1.44150E+02 0.00000E+00 0.00000E+00
 -1       120 1.47150E+02 0.00000E+00 0.00000E+00
 -1       121 1.50000E+02 2.95000E+00 0.00000E+00
 -1       122 1.50000E+02 5.90000E+00 0.00000E+00
 -1       123 1.50000E+02 8.85000E+00 0.00000E+00
 -1       124 1.50000E+02 1.18000E+01 0.00000E+00
 -1       125 1.50000E+02 1.47500E+01 0.00000E+00
 -1       126 1.50000E+02 1.76500E+01 0.00000E+00
 -1       127 1.50000E+02 2.06000E+01 0.00000E+00
 -1       128 1.50000E+02 2.35500E+01 0.00000E+00
 -1       129 1.50000E+02 2.65000E+01 0.00000E+00
 -1       130 1.50000E+02 2.94500E+01 0.00000E+00
 -1       131 1.50000E+02 3.24000E+01 0.00000E+00
 -1       132 1.50000E+02 3.53000E+01 0.00000E+00
 -1       133 1.50000E+02 3.82500E+01 0.00000E+00
 -1       134 1.50000E+02 4.12000E+01 0.00000E+00
 -1       135 1.50000E+02 4.41500E+01 0.00000E+00
 -1       136 1.50000E+02 4.71000E+01 0.00000E+00
 -1       137 5.74053E+01 2.71402E+01 0.00000E+00
 -1       138 5.69338E+01 2.57105E+01 0.00000E+00
 -1       139 5.62204E+01 2.44863E+01 0.00000E+00
 -1       140 5.52266E+01 2.33870E+01 0.00000E+00
 -1       141 5.40234E+01 2.25215E+01 0.00000E+00
 -1       142 5.26500E+01 2.19240E+01 0.00000E+00
 -1       143 5.11719E+01 2.16315E+01 0.00000E+00
 -1       144 4.97130E+01 2.16562E+01 0.00000E+00
 -1       145 4.81643E+01 2.20275E+01 0.00000E+00
 -1       146 4.67625E+01 2.27245E+01 0.00000E+00
 -1       147 4.56142E+01 2.36512E+01 0.00000E+00
 -1       148 4.46955E+01 2.47831E+01 0.00000E+00
 -1       149 4.39927E+01 2.61824E+01 0.00000E+00
 -1       150 4.35729E+01 2.90269E+01 0.00000E+00
 -1       151 4.37927E+01 3.03937E+01 0.00000E+00
 -1       152 4.42835E+01 3.17037E+01 0.00000E+00
 -1       153 4.50370E+01 3.29052E+01 0.00000E+00
 -1       154 4.60861E+01 3.39882E+01 0.00000E+00
 -1       155 4.72448E+01 3.47698E+01 0.00000E+00
 -1       156 4.85264E+01 3.53028E+01 0.00000E+00
 -1       157 5.00707E+01 3.55876E+01 0.00000E+00
 -1       158 5.15254E+01 3.55379E+01 0.00000E+00
 -1       159 5.29779E+01 3.51739E+01 0.00000E+00
 -1       160 5.42697E+01 3.45410E+01 0.00000E+00
 -1       161 5.53870E+01 3.36744E+01 0.00000E+00
 -1       162 5.63064E+01 3.26023E+01 0.00000E+00
 -1       163 5.69953E+01 3.13596E+01 0.00000E+00
 -1       164 5.74243E+01 2.99773E+01 0.00000E+00
 -1       165 2.59800E+00 4.55750E+01 0.00000E+00
 -1       166 2.59800E+00 4.26250E+01 0.00000E+00
 -1       167 2.59800E+00 3.96750E+01 0.00000E+00
 -1       168 2.59800E+00 3.67250E+01 0.00000E+00
 -1       169 2.59800E+00 3.38250E+01 0.00000E+00
 -1       170 2.59800E+00 3.08750E+01 0.00000E+00
 -1       171 2.59800E+00 2.79250E+01 0.00000E+00
 -1       172 2.59800E+00 2.49750E+01 0.00000E+00
 -1       173 2.59800E+00 2.20250E+01 0.00000E+00
 -1       174 2.59800E+00 1.90750E+01 0.00000E+00
 -1       175 2.59800E+00 1.61750E+01 0.00000E+00
 -1       176 2.59800E+00 1.32250E+01 0.00000E+00
 -1       177 2.59800E+00 1.02750E+01 0.00000E+00
 -1       178 2.59800E+00 7.32500E+00 0.00000E+00
 -1       179 2.59800E+00 4.37500E+00 0.00000E+00
 -1       180 2.87400E+00 2.18750E+00 0.00000E+00
 -1       181 4.65000E+00 4.74020E+01 0.00000E+00
 -1       182 7.65000E+00 4.74020E+01 0.00000E+00
 -1       183 1.06500E+01 4.74020E+01 0.00000E+00
 -1       184 1.36500E+01 4.74020E+01 0.00000E+00
 -1       185 1.66500E+01 4.74020E+01 0.00000E+00
 -1       186 1.96500E+01 4.74020E+01 0.00000E+00
 -1       187 2.26500E+01 4.74020E+01 0.00000E+00
 -1       188 2.56500E+01 4.74020E+01 0.00000E+00
 -1       189 2.86500E+01 4.74020E+01 0.00000E+00
 -1       190 3.16500E+01 4.74020E+01 0.00000E+00
 -1       191 3.46500E+01 4.74020E+01 0.00000E+00
 -1       192 3.76500E+01 4.74020E+01 0.00000E+00
 -1       193 4.06500E+01 4.74020E+01 0.00000E+00
 -1       194 4.36500E+01 4.74020E+01 0.00000E+00
 -1       195 4.66500E+01 4.74020E+01 0.00000E+00
 -1       196 4.96500E+01 4.74020E+01 0.00000E+00
 -1       197 5.26500E+01 4.74020E+01 0.00000E+00
 -1       198 5.56500E+01 4.74020E+01 0.00000E+00
 -1       199 5.86500E+01 4.74020E+01 0.00000E+00
 -1       200 6.16500E+01 4.74020E+01 0.00000E+00
 -1       201 6.46500E+01 4.74020E+01 0.00000E+00
 -1       202 6.76500E+01 4.74020E+01 0.00000E+00
 -1       203 7.06500E+01 4.74020E+01 0.00000E+00
 -1       204 7.36500E+01 4.74020E+01 0.00000E+00
 -1       205 7.66500E+01 4.74020E+01 0.00000E+00
 -1       206 7.96500E+01 4.74020E+01 0.00000E+00
 -1       207 8.26500E+01 4.74020E+01 0.00000E+00
 -1       208 8.56500E+01 4.74020E+01 0.00000E+00
 -1       209 8.86500E+01 4.74020E+01 0.00000E+00
 -1       210 9.16500E+01 4.74020E+01 0.00000E+00
 -1       211 9.46500E+01 4.74020E+01 0.00000E+00
 -1       212 9.76500E+01 4.74020E+01 0.00000E+00
 -1       213 1.00650E+02 4.74020E+01 0.00000E+00
 -1       214 1.03650E+02 4.74020E+01 0.00000E+00
 -1       215 1.06650E+02 4.74020E+01 0.00000E+00
 -1       216 1.09650E+02 4.74020E+01 0.00000E+00
 -1       217 1.12650E+02 4.74020E+01 0.00000E+00
 -1       218 1.15650E+02 4.74020E+01 0.00000E+00
 -1       219 1.18650E+02 4.74020E+01 0.00000E+00
 -1       220 1.21650E+02 4.74020E+01 0.00000E+00
 -1       221 1.24650E+02 4.74020E+01 0.00000E+00
 -1       222 1.27650E+02 4.74020E+01 0.00000E+00
 -1       223 1.30650E+02 4.74020E+01 0.00000E+00
 -1       224 1.33650E+02 4.74020E+01 0.00000E+00
 -1       225 1.36650E+02 4.74020E+01 0.00000E+00
 -1       226 1.39650E+02 4.74020E+01 0.00000E+00
 -1       227 1.42650E+02 4.74020E+01 0.00000E+00
 -1       228 1.45650E+02 4.74020E+01 0.00000E+00
 -1       229 5.87400E+00 2.18750E+00 0.00000E+00
 -1       230 8.87400E+00 2.18750E+00 0.00000E+00
 -1       231 1.18740E+01 2.18750E+00 0.00000E+00
 -1       232 1.48740E+01 2.18750E+00 0.00000E+00
 -1       233 1.78740E+01 2.18750E+00 0.00000E+00
 -1       234 2.08740E+01 2.18750E+00 0.00000E+00
 -1       235 2.38740E+01 2.18750E+00 0.00000E+00
 -1       236 2.68740E+01 2.18750E+00 0.00000E+00
 -1       237 2.98740E+01 2.18750E+00 0.00000E+00
 -1       238 3.28740E+01 2.18750E+00 0.00000E+00
 -1       239 3.58740E+01 2.18750E+00 0.00000E+00
 -1       240 3.88740E+01 2.18750E+00 0.00000E+00
 -1       241 4.18740E+01 2.18750E+00 0.00000E+00
 -1       242 4.48740E+01 2.18750E+00 0.00000E+00
 -1       243 4.78740E+01 2.18750E+00 0.00000E+00
 -1       244 5.08740E+01 2.18750E+00 0.00000E+00
 -1       245 5.38740E+01 2.18750E+00 0.00000E+00
 -1       246 5.68740E+01 2.18750E+00 0.00000E+00
 -1       247 5.98740E+01 2.18750E+00 0.00000E+00
 -1       248 6.28740E+01 2.18750E+00 0.00000E+00
 -1       249 6.58740E+01 2.18750E+00 0.00000E+00
 -1       250 6.88740E+01 2.18750E+00 0.00000E+00
 -1       251 7.18740E+01 2.18750E+00 0.00000E+00
 -1       252 7.48740E+01 2.18750E+00 0.00000E+00
 -1       253 7.78740E+01 2.18750E+00 0.00000E+00
 -1       254 8.08740E+01 2.18750E+00 0.00000E+00
 -1       255 8.38740E+01 2.18750E+00 0.00000E+00
 -1       256 8.68740E+01 2.18750E+00 0.00000E+00
 -1       257 8.98740E+01 2.18750E+00 0.00000E+00
 -1       258 9.28740E+01 2.18750E+00 0.00000E+00
 -1       259 9.58740E+01 2.18750E+00 0.00000E+00
 -1       260 9.88740E+01 2.18750E+00 0.00000E+00
 -1       261 1.01874E+02 2.18750E+00 0.00000E+00
 -1       262 1.04874E+02 2.18750E+00 0.00000E+00
 -1       263 1.07874E+02 2.18750E+00 0.00000E+00
 -1       264 1.10874E+02 2.18750E+00 0.00000E+00
 -1       265 1.13874E+02 2.18750E+00 0.00000E+00
 -1       266 1.16874E+02 2.18750E+00 0.00000E+00
 -1       267 1.19874E+02 2.18750E+00 0.00000E+00
 -1       268 1.22874E+02 2.18750E+00 0.00000E+00
 -1       269 1.25874E+02 2.18750E+00 0.00000E+00
 -1       270 1.28874E+02 2.18750E+00 0.00000E+00
 -1       271 1.31874E+02 2.18750E+00 0.00000E+00
 -1       272 1.34874E+02 2.18750E+00 0.00000E+00
 -1       273 1.37874E+02 2.18750E+00 0.00000E+00
 -1       274 1.40874E+02 2.18750E+00 0.00000E+00
 -1       275 1.43874E+02 2.18750E+00 0.00000E+00
 -1       276 1.46874E+02 2.18750E+00 0.00000E+00
 -1       277 1.47402E+02 4.42500E+00 0.00000E+00
 -1       278 1.47402E+02 7.37500E+00 0.00000E+00
 -1       279 1.47402E+02 1.03250E+01 0.00000E+00
 -1       280 1.47402E+02 1.32750E+01 0.00000E+00
 -1       281 1.47402E+02 1.61750E+01 0.00000E+00
 -1       282 1.47402E+02 1.91250E+01 0.00000E+00
 -1       283 1.47402E+02 2.20750E+01 0.00000E+00
 -1       284 1.47402E+02 2.50250E+01 0.00000E+00
 -1       285 1.47402E+02 2.79750E+01 0.00000E+00
 -1       286 1.47402E+02 3.09250E+01 0.00000E+00
 -1       287 1.47402E+02 3.38250E+01 0.00000E+00
 -1       288 1.47402E+02 3.67750E+01 0.00000E+00
 -1       289 1.47402E+02 3.97250E+01 0.00000E+00
 -1       290 1.47402E+02 4.26750E+01 0.00000E+00
 -1       291 1.46526E+02 4.50385E+01 0.00000E+00
 -1       292 5.87717E+01 2.77361E+01 0.00000E+00
 -1       293 5.84005E+01 2.60194E+01 0.00000E+00
 -1       294 5.76246E+01 2.44879E+01 0.00000E+00
 -1       295 5.66850E+01 2.30673E+01 0.00000E+00
 -1       296 5.53330E+01 2.19700E+01 0.00000E+00
 -1       297 5.38873E+01 2.09573E+01 0.00000E+00
 -1       298 5.21626E+01 2.05062E+01 0.00000E+00
 -1       299 5.04206E+01 2.03478E+01 0.00000E+00
 -1       300 4.86169E+01 2.04999E+01 0.00000E+00
 -1       301 4.68863E+01 2.12153E+01 0.00000E+00
 -1       302 4.53216E+01 2.21140E+01 0.00000E+00
 -1       303 4.42135E+01 2.34531E+01 0.00000E+00
 -1       304 4.31109E+01 2.48634E+01 0.00000E+00
 -1       305 4.26383E+01 2.65881E+01 0.00000E+00
 -1       306 4.23921E+01 2.82580E+01 0.00000E+00
 -1       307 4.24858E+01 2.99027E+01 0.00000E+00
 -1       308 4.29028E+01 3.14741E+01 0.00000E+00
 -1       309 4.36331E+01 3.29486E+01 0.00000E+00
 -1       310 4.46305E+01 3.43486E+01 0.00000E+00
 -1       311 4.59875E+01 3.53842E+01 0.00000E+00
 -1       312 4.74201E+01 3.61558E+01 0.00000E+00
 -1       313 4.90331E+01 3.68847E+01 0.00000E+00
 -1       314 5.08423E+01 3.68582E+01 0.00000E+00
 -1       315 5.25870E+01 3.66945E+01 0.00000E+00
 -1       316 5.41941E+01 3.60215E+01 0.00000E+00
 -1       317 5.55714E+01 3.50658E+01 0.00000E+00
 -1       318 5.67671E+01 3.39276E+01 0.00000E+00
 -1       319 5.77113E+01 3.25688E+01 0.00000E+00
 -1       320 5.85278E+01 3.10775E+01 0.00000E+00
 -1       321 5.86987E+01 2.94104E+01 0.00000E+00
 -1       322 5.19600E+00 4.11500E+01 0.00000E+00
 -1       323 5.19600E+00 4.41000E+01 0.00000E+00
 -1       324 5.19600E+00 3.52750E+01 0.00000E+00
 -1       325 5.19600E+00 3.23250E+01 0.00000E+00
 -1       326 5.19600E+00 2.93750E+01 0.00000E+00
 -1       327 5.19600E+00 2.64250E+01 0.00000E+00
 -1       328 5.19600E+00 2.34750E+01 0.00000E+00
 -1       329 5.19600E+00 2.05250E+01 0.00000E+00
 -1       330 5.19600E+00 1.76250E+01 0.00000E+00
 -1       331 5.19600E+00 1.46750E+01 0.00000E+00
 -1       332 5.19600E+00 1.17250E+01 0.00000E+00
 -1       333 5.19600E+00 8.77500E+00 0.00000E+00
 -1       334 5.19600E+00 5.82500E+00 0.00000E+00
 -1       335 5.53500E+00 4.00625E+00 0.00000E+00
 -1       336 8.53500E+00 4.00625E+00 0.00000E+00
 -1       337 9.15000E+00 4.48040E+01 0.00000E+00
 -1       338 1.21500E+01 4.48040E+01 0.00000E+00
 -1       339 1.51500E+01 4.48040E+01 0.00000E+00
 -1       340 1.81500E+01 4.48040E+01 0.00000E+00
 -1       341 2.11500E+01 4.48040E+01 0.00000E+00
 -1       342 2.41500E+01 4.48040E+01 0.00000E+00
 -1       343 2.71500E+01 4.48040E+01 0.00000E+00
 -1       344 3.01500E+01 4.48040E+01 0.00000E+00
 -1       345 3.31500E+01 4.48040E+01 0.00000E+00
 -1       346 3.61500E+01 4.48040E+01 0.00000E+00
 -1       347 3.91500E+01 4.48040E+01 0.00000E+00
 -1       348 4.21500E+01 4.48040E+01 0.00000E+00
 -1       349 4.51500E+01 4.48040E+01 0.00000E+00
 -1       350 4.81500E+01 4.48040E+01 0.00000E+00
 -1       351 5.11500E+01 4.48040E+01 0.00000E+00
 -1       352 5.41500E+01 4.48040E+01 0.00000E+00
 -1       353 5.71500E+01 4.48040E+01 0.00000E+00
 -1       354 6.01500E+01 4.48040E+01 0.00000E+00
 -1       355 6.31500E+01 4.48040E+01 0.00000E+00
 -1       356 6.61500E+01 4.48040E+01 0.00000E+00
 -1       357 6.91500E+01 4.48040E+01 0.00000E+00
 -1       358 7.21500E+01 4.48040E+01 0.00000E+00
 -1       359 7.51500E+01 4.48040E+01 0.00000E+00
 -1       360 7.81500E+01 4.48040E+01 0.00000E+00
 -1       361 8.11500E+01 4.48040E+01 0.00000E+00
 -1       362 8.41500E+01 4.48040E+01 0.00000E+00
 -1       363 8.71500E+01 4.48040E+01 0.00000E+00
 -1       364 9.01500E+01 4.48040E+01 0.00000E+00
 -1       365 9.31500E+01 4.48040E+01 0.00000E+00
 -1       366 9.61500E+01 4.48040E+01 0.00000E+00
 -1       367 9.91500E+01 4.48040E+01 0.00000E+00
 -1       368 1.02150E+02 4.48040E+01 0.00000E+00
 -1       369 1.05150E+02 4.48040E+01 0.00000E+00
 -1       370 1.08150E+02 4.48040E+01 0.00000E+00
 -1       371 1.11150E+02 4.48040E+01 0.00000E+00
 -1       372 1.14150E+02 4.48040E+01 0.00000E+00
 -1       373 1.17150E+02 4.48040E+01 0.00000E+00
 -1       374 1.20150E+02 4.48040E+01 0.00000E+00
 -1       375 1.23150E+02 4.48040E+01 0.00000E+00
 -1       376 1.26150E+02 4.48040E+01 0.00000E+00
 -1       377 1.29150E+02 4.48040E+01 0.00000E+00
 -1       378 1.32150E+02 4.48040E+01 0.00000E+00
 -1       379 1.35150E+02 4.48040E+01 0.00000E+00
 -1       380 1.38150E+02 4.48040E+01 0.00000E+00
 -1       381 1.41150E+02 4.48040E+01 0.00000E+00
 -1       382 1.43838E+02 4.49212E+01 0.00000E+00
 -1       383 1.15350E+01 4.00625E+00 0.00000E+00
 -1       384 1.45350E+01 4.00625E+00 0.00000E+00
 -1       385 1.75350E+01 4.00625E+00 0.00000E+00
 -1       386 2.05350E+01 4.00625E+00 0.00000E+00
 -1       387 2.35350E+01 4.00625E+00 0.00000E+00
 -1       388 2.65350E+01 4.00625E+00 0.00000E+00
 -1       389 2.95350E+01 4.00625E+00 0.00000E+00
 -1       390 3.25350E+01 4.00625E+00 0.00000E+00
 -1       391 3.55350E+01 4.00625E+00 0.00000E+00
 -1       392 3.85350E+01 4.00625E+00 0.00000E+00
 -1       393 4.15350E+01 4.00625E+00 0.00000E+00
 -1       394 4.45350E+01 4.00625E+00 0.00000E+00
 -1       395 4.75350E+01 4.00625E+00 0.00000E+00
 -1       396 5.05350E+01 4.00625E+00 0.00000E+00
 -1       397 5.35350E+01 4.00625E+00 0.00000E+00
 -1       398 5.65350E+01 4.00625E+00 0.00000E+00
 -1       399 5.95350E+01 4.00625E+00 0.00000E+00
 -1       400 6.25350E+01 4.00625E+00 0.00000E+00
 -1       401 6.55350E+01 4.00625E+00 0.00000E+00
 -1       402 6.85350E+01 4.00625E+00 0.00000E+00
 -1       403 7.15350E+01 4.00625E+00 0.00000E+00
 -1       404 7.45350E+01 4.00625E+00 0.00000E+00
 -1       405 7.75350E+01 4.00625E+00 0.00000E+00
 -1       406 8.05350E+01 4.00625E+00 0.00000E+00
 -1       407 8.35350E+01 4.00625E+00 0.00000E+00
 -1       408 8.65350E+01 4.00625E+00 0.00000E+00
 -1       409 8.95350E+01 4.00625E+00 0.00000E+00
 -1       410 9.25350E+01 4.00625E+00 0.00000E+00
 -1       411 9.55350E+01 4.00625E+00 0.00000E+00
 -1       412 9.85350E+01 4.00625E+00 0.00000E+00
 -1       413 1.01535E+02 4.00625E+00 0.00000E+00
 -1       414 1.04535E+02 4.00625E+00 0.00000E+00
 -1       415 1.07535E+02 4.00625E+00 0.00000E+00
 -1       416 1.10535E+02 4.00625E+00 0.00000E+00
 -1       417 1.13535E+02 4.00625E+00 0.00000E+00
 -1       418 1.16535E+02 4.00625E+00 0.00000E+00
 -1       419 1.19535E+02 4.00625E+00 0.00000E+00
 -1       420 1.22535E+02 4.00625E+00 0.00000E+00
 -1       421 1.25535E+02 4.00625E+00 0.00000E+00
 -1       422 1.28535E+02 4.00625E+00 0.00000E+00
 -1       423 1.31535E+02 4.00625E+00 0.00000E+00
 -1       424 1.34535E+02 4.00625E+00 0.00000E+00
 -1       425 1.37535E+02 4.00625E+00 0.00000E+00
 -1       426 1.40535E+02 4.00625E+00 0.00000E+00
 -1       427 1.43535E+02 4.00625E+00 0.00000E+00
 -1       428 1.45469E+02 4.21562E+00 0.00000E+00
 -1       429 1.44804E+02 1.18000E+01 0.00000E+00
 -1       430 1.44804E+02 8.85000E+00 0.00000E+00
 -1       431 1.45136E+02 6.53281E+00 0.00000E+00
 -1       432 1.44804E+02 1.47000E+01 0.00000E+00
 -1       433 1.44804E+02 1.76500E+01 0.00000E+00
 -1       434 1.44804E+02 2.06000E+01 0.00000E+00
 -1       435 1.44804E+02 2.35500E+01 0.00000E+00
 -1       436 1.44804E+02 2.65000E+01 0.00000E+00
 -1       437 1.44804E+02 2.94500E+01 0.00000E+00
 -1       438 1.44804E+02 3.23500E+01 0.00000E+00
 -1       439 1.44804E+02 3.53000E+01 0.00000E+00
 -1       440 1.44804E+02 3.82500E+01 0.00000E+00
 -1       441 1.44804E+02 4.12000E+01 0.00000E+00
 -1       442 5.91688E+01 2.46679E+01 0.00000E+00
 -1       443 6.01976E+01 2.86370E+01 0.00000E+00
 -1       444 6.01806E+01 2.65330E+01 0.00000E+00
 -1       445 5.84455E+01 2.29239E+01 0.00000E+00
 -1       446 5.68786E+01 2.14472E+01 0.00000E+00
 -1       447 5.19600E+00 3.82125E+01 0.00000E+00
 -1       448 5.34589E+01 1.90725E+01 0.00000E+00
 -1       449 5.14089E+01 1.91362E+01 0.00000E+00
 -1       450 4.94028E+01 1.90488E+01 0.00000E+00
 -1       451 4.70964E+01 1.92726E+01 0.00000E+00
 -1       452 4.55317E+01 2.01713E+01 0.00000E+00
 -1       453 4.36399E+01 2.18503E+01 0.00000E+00
 -1       454 4.25373E+01 2.32606E+01 0.00000E+00
 -1       455 4.12205E+01 2.52725E+01 0.00000E+00
 -1       456 4.11500E+01 2.72217E+01 0.00000E+00
 -1       457 4.08939E+01 2.91684E+01 0.00000E+00
 -1       458 4.11175E+01 3.11069E+01 0.00000E+00
 -1       459 4.19563E+01 3.28611E+01 0.00000E+00
 -1       460 4.28032E+01 3.45951E+01 0.00000E+00
 -1       461 4.42685E+01 3.62298E+01 0.00000E+00
 -1       462 4.60892E+01 3.69111E+01 0.00000E+00
 -1       463 4.76928E+01 3.77014E+01 0.00000E+00
 -1       464 4.99604E+01 3.84188E+01 0.00000E+00
 -1       465 5.17051E+01 3.82551E+01 0.00000E+00
 -1       466 5.39884E+01 3.77854E+01 0.00000E+00
 -1       467 5.56695E+01 3.66774E+01 0.00000E+00
 -1       468 5.72362E+01 3.56176E+01 0.00000E+00
 -1       469 5.83724E+01 3.40356E+01 0.00000E+00
 -1       470 5.93299E+01 3.24859E+01 0.00000E+00
 -1       471 6.00266E+01 3.03040E+01 0.00000E+00
 -1       472 5.54980E+01 2.01962E+01 0.00000E+00
 -1       473 1.00350E+01 6.60425E+00 0.00000E+00
 -1       474 7.79400E+00 3.08500E+01 0.00000E+00
 -1       475 7.79400E+00 3.38000E+01 0.00000E+00
 -1       476 7.79400E+00 2.49500E+01 0.00000E+00
 -1       477 7.79400E+00 2.20000E+01 0.00000E+00
 -1       478 7.79400E+00 1.91000E+01 0.00000E+00
 -1       479 7.79400E+00 1.61500E+01 0.00000E+00
 -1       480 7.79400E+00 1.32000E+01 0.00000E+00
 -1       481 7.79400E+00 1.02500E+01 0.00000E+00
 -1       482 1.30350E+01 6.60425E+00 0.00000E+00
 -1       483 1.06500E+01 4.22060E+01 0.00000E+00
 -1       484 5.73400E+01 1.95507E+01 0.00000E+00
 -1       485 1.36500E+01 4.22060E+01 0.00000E+00
 -1       486 1.66500E+01 4.22060E+01 0.00000E+00
 -1       487 1.96500E+01 4.22060E+01 0.00000E+00
 -1       488 2.26500E+01 4.22060E+01 0.00000E+00
 -1       489 2.56500E+01 4.22060E+01 0.00000E+00
 -1       490 2.86500E+01 4.22060E+01 0.00000E+00
 -1       491 3.16500E+01 4.22060E+01 0.00000E+00
 -1       492 3.46500E+01 4.22060E+01 0.00000E+00
 -1       493 3.76500E+01 4.22060E+01 0.00000E+00
 -1       494 4.06500E+01 4.22060E+01 0.00000E+00
 -1       495 4.36500E+01 4.22060E+01 0.00000E+00
 -1       496 4.66500E+01 4.22060E+01 0.00000E+00
 -1       497 4.96500E+01 4.22060E+01 0.00000E+00
 -1       498 5.26500E+01 4.22060E+01 0.00000E+00
 -1       499 5.56500E+01 4.22060E+01 0.00000E+00
 -1       500 5.86500E+01 4.22060E+01 0.00000E+00
 -1       501 6.16500E+01 4.22060E+01 0.00000E+00
 -1       502 6.46500E+01 4.22060E+01 0.00000E+00
 -1       503 6.76500E+01 4.22060E+01 0.00000E+00
 -1       504 7.06500E+01 4.22060E+01 0.00000E+00
 -1       505 7.36500E+01 4.22060E+01 0.00000E+00
 -1       506 7.66500E+01 4.22060E+01 0.00000E+00
 -1       507 7.96500E+01 4.22060E+01 0.00000E+00
 -1       508 8.26500E+01 4.22060E+01 0.00000E+00
 -1       509 8.56500E+01 4.22060E+01 0.00000E+00
 -1       510 8.86500E+01 4.22060E+01 0.00000E+00
 -1       511 9.16500E+01 4.22060E+01 0.00000E+00
 -1       512 9.46500E+01 4.22060E+01 0.00000E+00
 -1       513 9.76500E+01 4.22060E+01 0.00000E+00
 -1       514 1.00650E+02 4.22060E+01 0.00000E+00
 -1       515 1.03650E+02 4.22060E+01 0.00000E+00
 -1       516 1.06650E+02 4.22060E+01 0.00000E+00
 -1       517 1.09650E+02 4.22060E+01 0.00000E+00
 -1       518 1.12650E+02 4.22060E+01 0.00000E+00
 -1       519 1.15650E+02 4.22060E+01 0.00000E+00
 -1       520 1.18650E+02 4.22060E+01 0.00000E+00
 -1       521 1.21650E+02 4.22060E+01 0.00000E+00
 -1       522 1.24650E+02 4.22060E+01 0.00000E+00
 -1       523 1.27650E+02 4.22060E+01 0.00000E+00
 -1       524 1.30650E+02 4.22060E+01 0.00000E+00
 -1       525 1.33650E+02 4.22060E+01 0.00000E+00
 -1       526 1.36650E+02 4.22060E+01 0.00000E+00
 -1       527 1.39650E+02 4.22060E+01 0.00000E+00
 -1       528 1.90350E+01 6.60425E+00 0.00000E+00
 -1       529 2.20350E+01 6.60425E+00 0.00000E+00
 -1       530 2.50350E+01 6.60425E+00 0.00000E+00
 -1       531 2.80350E+01 6.60425E+00 0.00000E+00
 -1       532 3.10350E+01 6.60425E+00 0.00000E+00
 -1       533 3.40350E+01 6.60425E+00 0.00000E+00
 -1       534 3.70350E+01 6.60425E+00 0.00000E+00
 -1       535 4.00350E+01 6.60425E+00 0.00000E+00
 -1       536 4.30350E+01 6.60425E+00 0.00000E+00
 -1       537 4.60350E+01 6.60425E+00 0.00000E+00
 -1       538 4.90350E+01 6.60425E+00 0.00000E+00
 -1       539 5.20350E+01 6.60425E+00 0.00000E+00
 -1       540 5.50350E+01 6.60425E+00 0.00000E+00
 -1       541 5.80350E+01 6.60425E+00 0.00000E+00
 -1       542 6.10350E+01 6.60425E+00 0.00000E+00
 -1       543 6.40350E+01 6.60425E+00 0.00000E+00
 -1       544 6.70350E+01 6.60425E+00 0.00000E+00
 -1       545 7.00350E+01 6.60425E+00 0.00000E+00
 -1       546 7.30350E+01 6.60425E+00 0.00000E+00
 -1       547 7.60350E+01 6.60425E+00 0.00000E+00
 -1       548 7.90350E+01 6.60425E+00 0.00000E+00
 -1       549 8.20350E+01 6.60425E+00 0.00000E+00
 -1       550 8.50350E+01 6.60425E+00 0.00000E+00
 -1       551 8.80350E+01 6.60425E+00 0.00000E+00
 -1       552 9.10350E+01 6.60425E+00 0.00000E+00
 -1       553 9.40350E+01 6.60425E+00 0.00000E+00
 -1       554 9.70350E+01 6.60425E+00 0.00000E+00
 -1       555 1.00035E+02 6.60425E+00 0.00000E+00
 -1       556 1.03035E+02 6.60425E+00 0.00000E+00
 -1       557 1.06035E+02 6.60425E+00 0.00000E+00
 -1       558 1.09035E+02 6.60425E+00 0.00000E+00
 -1       559 1.12035E+02 6.60425E+00 0.00000E+00
 -1       560 1.15035E+02 6.60425E+00 0.00000E+00
 -1       561 1.18035E+02 6.60425E+00 0.00000E+00
 -1       562 1.21035E+02 6.60425E+00 0.00000E+00
 -1       563 1.24035E+02 6.60425E+00 0.00000E+00
 -1       564 1.27035E+02 6.60425E+00 0.00000E+00
 -1       565 1.30035E+02 6.60425E+00 0.00000E+00
 -1       566 1.33035E+02 6.60425E+00 0.00000E+00
 -1       567 1.36035E+02 6.60425E+00 0.00000E+00
 -1       568 1.39035E+02 6.60425E+00 0.00000E+00
 -1       569 1.42035E+02 6.60425E+00 0.00000E+00
 -1       570 1.42206E+02 1.61750E+01 0.00000E+00
 -1       571 1.42206E+02 1.91250E+01 0.00000E+00
 -1       572 1.42206E+02 1.03250E+01 0.00000E+00
 -1       573 1.42206E+02 1.32500E+01 0.00000E+00
 -1       574 1.42206E+02 2.20750E+01 0.00000E+00
 -1       575 1.42206E+02 2.50250E+01 0.00000E+00
 -1       576 1.42206E+02 2.79750E+01 0.00000E+00
 -1       577 1.42206E+02 3.08750E+01 0.00000E+00
 -1       578 1.42206E+02 3.38250E+01 0.00000E+00
 -1       579 1.42206E+02 3.67750E+01 0.00000E+00
 -1       580 1.42206E+02 3.97250E+01 0.00000E+00
 -1       581 6.19042E+01 2.75712E+01 0.00000E+00
 -1       582 6.02367E+01 2.32030E+01 0.00000E+00
 -1       583 1.60350E+01 6.60425E+00 0.00000E+00
 -1       584 5.53062E+01 1.81322E+01 0.00000E+00
 -1       585 6.12323E+01 3.18912E+01 0.00000E+00
 -1       586 6.12484E+01 2.50681E+01 0.00000E+00
 -1       587 6.17332E+01 2.92382E+01 0.00000E+00
 -1       588 4.83093E+01 3.96953E+01 0.00000E+00
 -1       589 4.80677E+01 1.72868E+01 0.00000E+00
 -1       590 7.79400E+00 2.79000E+01 0.00000E+00
 -1       591 5.04732E+01 1.75464E+01 0.00000E+00
 -1       592 3.94712E+01 2.61852E+01 0.00000E+00
 -1       593 5.25232E+01 1.74827E+01 0.00000E+00
 -1       594 4.52929E+01 1.79441E+01 0.00000E+00
 -1       595 4.34011E+01 1.96231E+01 0.00000E+00
 -1       596 4.18694E+01 2.16023E+01 0.00000E+00
 -1       597 5.56806E+01 3.85235E+01 0.00000E+00
 -1       598 4.04438E+01 2.33273E+01 0.00000E+00
 -1       599 3.92151E+01 2.81318E+01 0.00000E+00
 -1       600 3.93019E+01 3.03342E+01 0.00000E+00
 -1       601 3.98384E+01 3.27961E+01 0.00000E+00
 -1       602 4.06853E+01 3.45302E+01 0.00000E+00
 -1       603 4.20092E+01 3.67809E+01 0.00000E+00
 -1       604 4.45190E+01 3.83337E+01 0.00000E+00
 -1       605 4.64141E+01 3.90145E+01 0.00000E+00
 -1       606 5.10242E+01 4.03782E+01 0.00000E+00
 -1       607 5.33075E+01 3.99085E+01 0.00000E+00
 -1       608 5.72473E+01 3.74637E+01 0.00000E+00
 -1       609 5.91293E+01 3.57783E+01 0.00000E+00
 -1       610 6.00964E+01 3.40301E+01 0.00000E+00
 -1       611 7.92300E+00 4.16780E+01 0.00000E+00
 -1       612 7.61550E+00 6.21462E+00 0.00000E+00
 -1       613 5.89069E+01 2.10274E+01 0.00000E+00
 -1       614 7.79400E+00 3.67375E+01 0.00000E+00
 -1       615 5.43705E+01 1.65424E+01 0.00000E+00
 -1       616 1.41678E+02 4.22645E+01 0.00000E+00
 -1       617 3.86946E+01 2.42400E+01 0.00000E+00
 -1       618 1.03920E+01 2.05500E+01 0.00000E+00
 -1       619 1.03920E+01 2.35000E+01 0.00000E+00
 -1       620 1.03920E+01 1.46750E+01 0.00000E+00
 -1       621 1.03920E+01 1.17250E+01 0.00000E+00
 -1       622 1.15350E+01 9.20225E+00 0.00000E+00
 -1       623 5.95296E+01 1.87970E+01 0.00000E+00
 -1       624 4.61692E+01 1.54573E+01 0.00000E+00
 -1       625 1.51500E+01 3.96080E+01 0.00000E+00
 -1       626 1.81500E+01 3.96080E+01 0.00000E+00
 -1       627 2.11500E+01 3.96080E+01 0.00000E+00
 -1       628 2.41500E+01 3.96080E+01 0.00000E+00
 -1       629 2.71500E+01 3.96080E+01 0.00000E+00
 -1       630 3.01500E+01 3.96080E+01 0.00000E+00
 -1       631 3.31500E+01 3.96080E+01 0.00000E+00
 -1       632 3.61500E+01 3.96080E+01 0.00000E+00
 -1       633 3.91500E+01 3.96080E+01 0.00000E+00
 -1       634 5.71500E+01 3.99882E+01 0.00000E+00
 -1       635 6.01500E+01 3.99882E+01 0.00000E+00
 -1       636 6.31500E+01 3.99882E+01 0.00000E+00
 -1       637 6.61500E+01 3.99882E+01 0.00000E+00
 -1       638 6.91500E+01 3.99882E+01 0.00000E+00
 -1       639 7.21500E+01 3.99882E+01 0.00000E+00
 -1       640 7.51500E+01 3.99882E+01 0.00000E+00
 -1       641 7.81500E+01 3.99882E+01 0.00000E+00
 -1       642 8.11500E+01 3.99882E+01 0.00000E+00
 -1       643 8.41500E+01 3.99882E+01 0.00000E+00
 -1       644 8.71500E+01 3.99882E+01 0.00000E+00
 -1       645 9.01500E+01 3.99882E+01 0.00000E+00
 -1       646 9.31500E+01 3.99882E+01 0.00000E+00
 -1       647 9.61500E+01 3.99882E+01 0.00000E+00
 -1       648 9.91500E+01 3.99882E+01 0.00000E+00
 -1       649 1.02150E+02 3.99882E+01 0.00000E+00
 -1       650 1.05150E+02 3.99882E+01 0.00000E+00
 -1       651 1.08150E+02 3.99882E+01 0.00000E+00
 -1       652 1.11150E+02 3.99882E+01 0.00000E+00
 -1       653 1.14150E+02 3.99882E+01 0.00000E+00
 -1       654 1.17150E+02 3.99882E+01 0.00000E+00
 -1       655 1.20150E+02 3.99882E+01 0.00000E+00
 -1       656 1.23150E+02 3.99882E+01 0.00000E+00
 -1       657 1.26150E+02 3.99882E+01 0.00000E+00
 -1       658 1.29150E+02 3.99882E+01 0.00000E+00
 -1       659 1.32150E+02 3.99882E+01 0.00000E+00
 -1       660 1.35150E+02 3.99882E+01 0.00000E+00
 -1       661 1.38150E+02 3.99882E+01 0.00000E+00
 -1       662 2.35350E+01 9.20225E+00 0.00000E+00
 -1       663 3.95800E+01 3.66950E+01 0.00000E+00
 -1       664 2.05350E+01 9.20225E+00 0.00000E+00
 -1       665 2.95350E+01 9.20225E+00 0.00000E+00
 -1       666 3.25350E+01 9.20225E+00 0.00000E+00
 -1       667 3.55350E+01 9.20225E+00 0.00000E+00
 -1       668 3.85350E+01 9.20225E+00 0.00000E+00
 -1       669 4.15350E+01 9.20225E+00 0.00000E+00
 -1       670 4.45350E+01 9.20225E+00 0.00000E+00
 -1       671 4.75350E+01 9.20225E+00 0.00000E+00
 -1       672 5.05350E+01 9.20225E+00 0.00000E+00
 -1       673 5.35350E+01 9.20225E+00 0.00000E+00
 -1       674 5.65350E+01 9.20225E+00 0.00000E+00
 -1       675 5.95350E+01 9.20225E+00 0.00000E+00
 -1       676 6.25350E+01 9.20225E+00 0.00000E+00
 -1       677 6.55350E+01 9.20225E+00 0.00000E+00
 -1       678 6.85350E+01 9.20225E+00 0.00000E+00
 -1       679 7.15350E+01 9.20225E+00 0.00000E+00
 -1       680 7.45350E+01 9.20225E+00 0.00000E+00
 -1       681 7.75350E+01 9.20225E+00 0.00000E+00
 -1       682 8.05350E+01 9.20225E+00 0.00000E+00
 -1       683 8.35350E+01 9.20225E+00 0.00000E+00
 -1       684 8.65350E+01 9.20225E+00 0.00000E+00
 -1       685 8.95350E+01 9.20225E+00 0.00000E+00
 -1       686 9.25350E+01 9.20225E+00 0.00000E+00
 -1       687 9.55350E+01 9.20225E+00 0.00000E+00
 -1       688 9.85350E+01 9.20225E+00 0.00000E+00
 -1       689 1.01535E+02 9.20225E+00 0.00000E+00
 -1       690 1.04535E+02 9.20225E+00 0.00000E+00
 -1       691 1.07535E+02 9.20225E+00 0.00000E+00
 -1       692 1.10535E+02 9.20225E+00 0.00000E+00
 -1       693 1.13535E+02 9.20225E+00 0.00000E+00
 -1       694 1.16535E+02 9.20225E+00 0.00000E+00
 -1       695 1.19535E+02 9.20225E+00 0.00000E+00
 -1       696 1.22535E+02 9.20225E+00 0.00000E+00
 -1       697 1.25535E+02 9.20225E+00 0.00000E+00
 -1       698 1.28535E+02 9.20225E+00 0.00000E+00
 -1       699 1.31535E+02 9.20225E+00 0.00000E+00
 -1       700 1.34535E+02 9.20225E+00 0.00000E+00
 -1       701 1.37535E+02 9.20225E+00 0.00000E+00
 -1       702 1.39870E+02 9.76363E+00 0.00000E+00
 -1       703 6.13211E+01 2.10460E+01 0.00000E+00
 -1       704 1.39608E+02 2.35500E+01 0.00000E+00
 -1       705 6.12602E+01 3.58156E+01 0.00000E+00
 -1       706 1.39608E+02 1.76500E+01 0.00000E+00
 -1       707 1.39608E+02 2.65000E+01 0.00000E+00
 -1       708 1.39608E+02 2.06000E+01 0.00000E+00
 -1       709 1.39608E+02 2.94000E+01 0.00000E+00
 -1       710 1.39608E+02 3.23500E+01 0.00000E+00
 -1       711 1.39608E+02 3.53000E+01 0.00000E+00
 -1       712 6.30034E+01 3.08518E+01 0.00000E+00
 -1       713 6.38582E+01 2.86139E+01 0.00000E+00
 -1       714 6.32354E+01 2.58850E+01 0.00000E+00
 -1       715 3.73773E+01 2.93071E+01 0.00000E+00
 -1       716 5.14476E+01 1.58840E+01 0.00000E+00
 -1       717 6.23329E+01 2.29111E+01 0.00000E+00
 -1       718 1.75350E+01 9.20225E+00 0.00000E+00
 -1       719 2.65350E+01 9.20225E+00 0.00000E+00
 -1       720 1.21500E+01 3.96080E+01 0.00000E+00
 -1       721 1.45350E+01 9.20225E+00 0.00000E+00
 -1       722 6.23961E+01 3.36766E+01 0.00000E+00
 -1       723 1.03920E+01 1.76125E+01 0.00000E+00
 -1       724 1.03920E+01 3.23250E+01 0.00000E+00
 -1       725 4.90421E+01 1.56244E+01 0.00000E+00
 -1       726 1.40178E+02 3.96665E+01 0.00000E+00
 -1       727 5.74958E+01 1.73785E+01 0.00000E+00
 -1       728 4.30973E+01 1.73755E+01 0.00000E+00
 -1       729 5.93325E+01 3.78986E+01 0.00000E+00
 -1       730 3.74766E+01 2.69129E+01 0.00000E+00
 -1       731 4.20972E+01 3.94434E+01 0.00000E+00
 -1       732 3.87331E+01 3.49609E+01 0.00000E+00
 -1       733 3.75669E+01 3.20017E+01 0.00000E+00
 -1       734 3.97054E+01 2.12655E+01 0.00000E+00
 -1       735 4.12371E+01 1.92863E+01 0.00000E+00
 -1       736 1.03920E+01 3.52625E+01 0.00000E+00
 -1       737 1.03920E+01 2.64500E+01 0.00000E+00
 -1       738 5.65601E+01 1.57887E+01 0.00000E+00
 -1       739 4.39735E+01 1.48888E+01 0.00000E+00
 -1       740 1.39870E+02 1.26886E+01 0.00000E+00
 -1       741 1.05210E+01 3.87342E+01 0.00000E+00
 -1       742 5.32949E+01 1.49437E+01 0.00000E+00
 -1       743 1.38879E+02 3.76441E+01 0.00000E+00
 -1       744 1.39739E+02 1.51693E+01 0.00000E+00
 -1       745 1.03920E+01 2.93875E+01 0.00000E+00
 -1       746 3.79562E+01 2.21781E+01 0.00000E+00
 -1       747 1.29900E+01 1.32000E+01 0.00000E+00
 -1       748 6.18012E+01 3.82496E+01 0.00000E+00
 -1       749 1.96500E+01 3.70100E+01 0.00000E+00
 -1       750 2.26500E+01 3.70100E+01 0.00000E+00
 -1       751 2.56500E+01 3.70100E+01 0.00000E+00
 -1       752 2.86500E+01 3.70100E+01 0.00000E+00
 -1       753 3.16500E+01 3.70100E+01 0.00000E+00
 -1       754 3.46500E+01 3.70100E+01 0.00000E+00
 -1       755 3.71150E+01 3.68525E+01 0.00000E+00
 -1       756 3.53785E+01 2.80250E+01 0.00000E+00
 -1       757 1.36500E+01 3.70100E+01 0.00000E+00
 -1       758 6.48011E+01 3.82496E+01 0.00000E+00
 -1       759 6.76500E+01 3.73902E+01 0.00000E+00
 -1       760 7.06500E+01 3.73902E+01 0.00000E+00
 -1       761 7.36500E+01 3.73902E+01 0.00000E+00
 -1       762 7.66500E+01 3.73902E+01 0.00000E+00
 -1       763 7.96500E+01 3.73902E+01 0.00000E+00
 -1       764 8.26500E+01 3.73902E+01 0.00000E+00
 -1       765 8.56500E+01 3.73902E+01 0.00000E+00
 -1       766 8.86500E+01 3.73902E+01 0.00000E+00
 -1       767 9.16500E+01 3.73902E+01 0.00000E+00
 -1       768 9.46500E+01 3.73902E+01 0.00000E+00
 -1       769 9.76500E+01 3.73902E+01 0.00000E+00
 -1       770 1.00650E+02 3.73902E+01 0.00000E+00
 -1       771 1.03650E+02 3.73902E+01 0.00000E+00
 -1       772 1.06650E+02 3.73902E+01 0.00000E+00
 -1       773 1.09650E+02 3.73902E+01 0.00000E+00
 -1       774 1.12650E+02 3.73902E+01 0.00000E+00
 -1       775 1.15650E+02 3.73902E+01 0.00000E+00
 -1       776 1.18650E+02 3.73902E+01 0.00000E+00
 -1       777 1.21650E+02 3.73902E+01 0.00000E+00
 -1       778 1.24650E+02 3.73902E+01 0.00000E+00
 -1       779 1.27650E+02 3.73902E+01 0.00000E+00
 -1       780 1.30650E+02 3.73902E+01 0.00000E+00
 -1       781 1.33650E+02 3.73902E+01 0.00000E+00
 -1       782 1.36264E+02 3.75171E+01 0.00000E+00
 -1       783 3.40350E+01 1.18003E+01 0.00000E+00
 -1       784 3.10350E+01 1.18003E+01 0.00000E+00
 -1       785 4.00350E+01 1.18003E+01 0.00000E+00
 -1       786 4.30350E+01 1.18003E+01 0.00000E+00
 -1       787 4.60350E+01 1.18003E+01 0.00000E+00
 -1       788 4.90350E+01 1.18003E+01 0.00000E+00
 -1       789 5.20350E+01 1.18003E+01 0.00000E+00
 -1       790 5.50350E+01 1.18003E+01 0.00000E+00
 -1       791 5.80350E+01 1.18003E+01 0.00000E+00
 -1       792 6.10350E+01 1.18003E+01 0.00000E+00
 -1       793 6.40350E+01 1.18003E+01 0.00000E+00
 -1       794 6.70350E+01 1.18003E+01 0.00000E+00
 -1       795 7.00350E+01 1.18003E+01 0.00000E+00
 -1       796 7.30350E+01 1.18003E+01 0.00000E+00
 -1       797 7.60350E+01 1.18003E+01 0.00000E+00
 -1       798 7.90350E+01 1.18003E+01 0.00000E+00
 -1       799 8.20350E+01 1.18003E+01 0.00000E+00
 -1       800 8.50350E+01 1.18003E+01 0.00000E+00
 -1       801 8.80350E+01 1.18003E+01 0.00000E+00
 -1       802 9.10350E+01 1.18003E+01 0.00000E+00
 -1       803 9.40350E+01 1.18003E+01 0.00000E+00
 -1       804 9.70350E+01 1.18003E+01 0.00000E+00
 -1       805 1.00035E+02 1.18003E+01 0.00000E+00
 -1       806 1.03035E+02 1.18003E+01 0.00000E+00
 -1       807 1.06035E+02 1.18003E+01 0.00000E+00
 -1       808 1.09035E+02 1.18003E+01 0.00000E+00
 -1       809 1.12035E+02 1.18003E+01 0.00000E+00
 -1       810 1.15035E+02 1.18003E+01 0.00000E+00
 -1       811 1.18035E+02 1.18003E+01 0.00000E+00
 -1       812 1.21035E+02 1.18003E+01 0.00000E+00
 -1       813 1.24035E+02 1.18003E+01 0.00000E+00
 -1       814 1.27035E+02 1.18003E+01 0.00000E+00
 -1       815 1.30035E+02 1.18003E+01 0.00000E+00
 -1       816 1.33035E+02 1.18003E+01 0.00000E+00
 -1       817 1.36035E+02 1.18003E+01 0.00000E+00
 -1       818 1.37953E+02 1.22444E+01 0.00000E+00
 -1       819 1.37010E+02 2.79500E+01 0.00000E+00
 -1       820 1.37010E+02 2.50000E+01 0.00000E+00
 -1       821 6.39238E+01 2.08411E+01 0.00000E+00
 -1       822 1.37010E+02 3.38250E+01 0.00000E+00
 -1       823 6.48263E+01 2.38150E+01 0.00000E+00
 -1       824 6.57090E+01 2.67560E+01 0.00000E+00
 -1       825 1.37010E+02 3.08875E+01 0.00000E+00
 -1       826 3.70350E+01 1.18003E+01 0.00000E+00
 -1       827 2.20350E+01 1.18003E+01 0.00000E+00
 -1       828 6.43765E+01 3.26247E+01 0.00000E+00
 -1       829 6.21322E+01 1.85922E+01 0.00000E+00
 -1       830 1.90350E+01 1.18003E+01 0.00000E+00
 -1       831 3.87173E+01 1.89185E+01 0.00000E+00
 -1       832 1.37625E+01 1.12011E+01 0.00000E+00
 -1       833 3.52598E+01 3.08101E+01 0.00000E+00
 -1       834 3.62199E+01 2.47263E+01 0.00000E+00
 -1       835 1.66500E+01 3.70100E+01 0.00000E+00
 -1       836 1.20210E+01 3.61362E+01 0.00000E+00
 -1       837 6.36389E+01 3.57077E+01 0.00000E+00
 -1       838 6.52314E+01 3.03868E+01 0.00000E+00
 -1       839 3.59488E+01 3.38933E+01 0.00000E+00
 -1       840 4.05781E+01 1.67838E+01 0.00000E+00
 -1       841 1.29900E+01 2.20250E+01 0.00000E+00
 -1       842 5.97815E+01 1.62687E+01 0.00000E+00
 -1       843 1.29900E+01 2.49750E+01 0.00000E+00
 -1       844 5.54845E+01 1.41900E+01 0.00000E+00
 -1       845 3.69681E+01 1.98311E+01 0.00000E+00
 -1       846 1.29900E+01 1.90875E+01 0.00000E+00
 -1       847 5.17413E+01 1.38421E+01 0.00000E+00
 -1       848 1.29900E+01 1.61375E+01 0.00000E+00
 -1       849 2.50350E+01 1.18003E+01 0.00000E+00
 -1       850 2.80350E+01 1.18003E+01 0.00000E+00
 -1       851 5.88458E+01 1.46789E+01 0.00000E+00
 -1       852 1.37010E+02 1.91250E+01 0.00000E+00
 -1       853 1.29900E+01 3.08563E+01 0.00000E+00
 -1       854 1.37010E+02 2.20625E+01 0.00000E+00
 -1       855 6.70822E+01 2.85289E+01 0.00000E+00
 -1       856 1.37141E+02 1.66443E+01 0.00000E+00
 -1       857 1.63988E+01 1.15007E+01 0.00000E+00
 -1       858 1.36637E+02 3.56711E+01 0.00000E+00
 -1       859 1.25055E+01 3.34963E+01 0.00000E+00
 -1       860 3.31033E+01 2.93231E+01 0.00000E+00
 -1       861 2.41500E+01 3.44120E+01 0.00000E+00
 -1       862 2.71500E+01 3.44120E+01 0.00000E+00
 -1       863 3.01500E+01 3.44120E+01 0.00000E+00
 -1       864 3.31500E+01 3.44120E+01 0.00000E+00
 -1       865 5.41649E+01 1.33720E+01 0.00000E+00
 -1       866 1.29900E+01 2.79188E+01 0.00000E+00
 -1       867 7.21500E+01 3.47922E+01 0.00000E+00
 -1       868 7.51500E+01 3.47922E+01 0.00000E+00
 -1       869 7.81500E+01 3.47922E+01 0.00000E+00
 -1       870 8.11500E+01 3.47922E+01 0.00000E+00
 -1       871 8.41500E+01 3.47922E+01 0.00000E+00
 -1       872 8.71500E+01 3.47922E+01 0.00000E+00
 -1       873 9.01500E+01 3.47922E+01 0.00000E+00
 -1       874 9.31500E+01 3.47922E+01 0.00000E+00
 -1       875 9.61500E+01 3.47922E+01 0.00000E+00
 -1       876 9.91500E+01 3.47922E+01 0.00000E+00
 -1       877 1.02150E+02 3.47922E+01 0.00000E+00
 -1       878 1.05150E+02 3.47922E+01 0.00000E+00
 -1       879 1.08150E+02 3.47922E+01 0.00000E+00
 -1       880 1.11150E+02 3.47922E+01 0.00000E+00
 -1       881 1.14150E+02 3.47922E+01 0.00000E+00
 -1       882 1.17150E+02 3.47922E+01 0.00000E+00
 -1       883 1.20150E+02 3.47922E+01 0.00000E+00
 -1       884 1.23150E+02 3.47922E+01 0.00000E+00
 -1       885 1.26150E+02 3.47922E+01 0.00000E+00
 -1       886 1.29150E+02 3.47922E+01 0.00000E+00
 -1       887 1.32150E+02 3.47922E+01 0.00000E+00
 -1       888 3.25350E+01 1.43982E+01 0.00000E+00
 -1       889 1.41345E+01 3.43700E+01 0.00000E+00
 -1       890 6.25350E+01 1.43982E+01 0.00000E+00
 -1       891 6.55350E+01 1.43982E+01 0.00000E+00
 -1       892 6.85350E+01 1.43982E+01 0.00000E+00
 -1       893 7.15350E+01 1.43982E+01 0.00000E+00
 -1       894 7.45350E+01 1.43982E+01 0.00000E+00
 -1       895 7.75350E+01 1.43982E+01 0.00000E+00
 -1       896 8.05350E+01 1.43982E+01 0.00000E+00
 -1       897 8.35350E+01 1.43982E+01 0.00000E+00
 -1       898 8.65350E+01 1.43982E+01 0.00000E+00
 -1       899 8.95350E+01 1.43982E+01 0.00000E+00
 -1       900 9.25350E+01 1.43982E+01 0.00000E+00
 -1       901 9.55350E+01 1.43982E+01 0.00000E+00
 -1       902 9.85350E+01 1.43982E+01 0.00000E+00
 -1       903 1.01535E+02 1.43982E+01 0.00000E+00
 -1       904 1.04535E+02 1.43982E+01 0.00000E+00
 -1       905 1.07535E+02 1.43982E+01 0.00000E+00
 -1       906 1.10535E+02 1.43982E+01 0.00000E+00
 -1       907 1.13535E+02 1.43982E+01 0.00000E+00
 -1       908 1.16535E+02 1.43982E+01 0.00000E+00
 -1       909 1.19535E+02 1.43982E+01 0.00000E+00
 -1       910 1.22535E+02 1.43982E+01 0.00000E+00
 -1       911 1.25535E+02 1.43982E+01 0.00000E+00
 -1       912 1.28535E+02 1.43982E+01 0.00000E+00
 -1       913 1.31535E+02 1.43982E+01 0.00000E+00
 -1       914 1.34535E+02 1.43982E+01 0.00000E+00
 -1       915 4.03065E+01 1.42920E+01 0.00000E+00
 -1       916 1.34412E+02 2.64750E+01 0.00000E+00
 -1       917 6.63369E+01 2.17327E+01 0.00000E+00
 -1       918 6.50600E+01 1.80979E+01 0.00000E+00
 -1       919 2.05350E+01 1.43982E+01 0.00000E+00
 -1       920 3.36502E+01 2.58275E+01 0.00000E+00
 -1       921 3.52552E+01 2.22034E+01 0.00000E+00
 -1       922 6.91500E+01 3.47922E+01 0.00000E+00
 -1       923 6.61647E+01 3.46822E+01 0.00000E+00
 -1       924 2.11500E+01 3.44120E+01 0.00000E+00
 -1       925 1.81500E+01 3.44120E+01 0.00000E+00
 -1       926 1.37547E+02 1.44444E+01 0.00000E+00
 -1       927 3.76893E+01 1.61440E+01 0.00000E+00
 -1       928 6.72314E+01 2.46961E+01 0.00000E+00
 -1       929 6.70195E+01 3.24443E+01 0.00000E+00
 -1       930 3.28274E+01 3.20304E+01 0.00000E+00
 -1       931 1.34412E+02 2.35375E+01 0.00000E+00
 -1       932 1.55880E+01 1.46687E+01 0.00000E+00
 -1       933 2.95350E+01 1.43982E+01 0.00000E+00
 -1       934 3.55350E+01 1.43982E+01 0.00000E+00
 -1       935 1.34394E+02 3.52316E+01 0.00000E+00
 -1       936 1.34412E+02 2.94125E+01 0.00000E+00
 -1       937 1.55880E+01 2.93875E+01 0.00000E+00
 -1       938 1.34412E+02 2.06000E+01 0.00000E+00
 -1       939 1.55880E+01 2.05562E+01 0.00000E+00
 -1       940 2.35350E+01 1.43982E+01 0.00000E+00
 -1       941 1.48612E+01 3.18787E+01 0.00000E+00
 -1       942 1.55880E+01 2.35063E+01 0.00000E+00
 -1       943 6.86045E+01 2.64690E+01 0.00000E+00
 -1       944 1.34543E+02 1.81193E+01 0.00000E+00
 -1       945 6.88703E+01 3.05864E+01 0.00000E+00
 -1       946 1.78988E+01 1.40987E+01 0.00000E+00
 -1       947 3.26855E+01 2.33046E+01 0.00000E+00
 -1       948 1.34766E+02 3.33856E+01 0.00000E+00
 -1       949 1.55880E+01 2.64469E+01 0.00000E+00
 -1       950 2.86500E+01 3.18140E+01 0.00000E+00
 -1       951 7.36500E+01 3.21942E+01 0.00000E+00
 -1       952 7.66500E+01 3.21942E+01 0.00000E+00
 -1       953 7.96500E+01 3.21942E+01 0.00000E+00
 -1       954 8.26500E+01 3.21942E+01 0.00000E+00
 -1       955 8.56500E+01 3.21942E+01 0.00000E+00
 -1       956 8.86500E+01 3.21942E+01 0.00000E+00
 -1       957 9.16500E+01 3.21942E+01 0.00000E+00
 -1       958 9.46500E+01 3.21942E+01 0.00000E+00
 -1       959 9.76500E+01 3.21942E+01 0.00000E+00
 -1       960 1.00650E+02 3.21942E+01 0.00000E+00
 -1       961 1.03650E+02 3.21942E+01 0.00000E+00
 -1       962 1.06650E+02 3.21942E+01 0.00000E+00
 -1       963 1.09650E+02 3.21942E+01 0.00000E+00
 -1       964 1.12650E+02 3.21942E+01 0.00000E+00
 -1       965 1.15650E+02 3.21942E+01 0.00000E+00
 -1       966 1.18650E+02 3.21942E+01 0.00000E+00
 -1       967 1.21650E+02 3.21942E+01 0.00000E+00
 -1       968 1.24650E+02 3.21942E+01 0.00000E+00
 -1       969 1.27650E+02 3.21942E+01 0.00000E+00
 -1       970 1.30650E+02 3.21942E+01 0.00000E+00
 -1       971 2.65350E+01 1.43982E+01 0.00000E+00
 -1       972 1.55880E+01 1.76125E+01 0.00000E+00
 -1       973 7.30350E+01 1.69963E+01 0.00000E+00
 -1       974 7.60350E+01 1.69963E+01 0.00000E+00
 -1       975 7.90350E+01 1.69963E+01 0.00000E+00
 -1       976 8.20350E+01 1.69963E+01 0.00000E+00
 -1       977 8.50350E+01 1.69963E+01 0.00000E+00
 -1       978 8.80350E+01 1.69963E+01 0.00000E+00
 -1       979 9.10350E+01 1.69963E+01 0.00000E+00
 -1       980 9.40350E+01 1.69963E+01 0.00000E+00
 -1       981 9.70350E+01 1.69963E+01 0.00000E+00
 -1       982 1.00035E+02 1.69963E+01 0.00000E+00
 -1       983 1.03035E+02 1.69963E+01 0.00000E+00
 -1       984 1.06035E+02 1.69963E+01 0.00000E+00
 -1       985 1.09035E+02 1.69963E+01 0.00000E+00
 -1       986 1.12035E+02 1.69963E+01 0.00000E+00
 -1       987 1.15035E+02 1.69963E+01 0.00000E+00
 -1       988 1.18035E+02 1.69963E+01 0.00000E+00
 -1       989 1.21035E+02 1.69963E+01 0.00000E+00
 -1       990 1.24035E+02 1.69963E+01 0.00000E+00
 -1       991 1.27035E+02 1.69963E+01 0.00000E+00
 -1       992 1.30035E+02 1.69963E+01 0.00000E+00
 -1       993 3.57671E+01 1.84339E+01 0.00000E+00
 -1       994 6.89074E+01 2.25735E+01 0.00000E+00
 -1       995 3.08545E+01 2.71807E+01 0.00000E+00
 -1       996 6.80600E+01 1.80979E+01 0.00000E+00
 -1       997 1.96500E+01 3.18140E+01 0.00000E+00
 -1       998 2.26500E+01 3.18140E+01 0.00000E+00
 -1       999 3.05786E+01 2.98880E+01 0.00000E+00
 -1      1000 2.56500E+01 3.18140E+01 0.00000E+00
 -1      1001 3.40543E+01 2.08062E+01 0.00000E+00
 -1      1002 7.05475E+01 1.75471E+01 0.00000E+00
 -1      1003 7.05102E+01 3.26893E+01 0.00000E+00
 -1      1004 1.81860E+01 2.20313E+01 0.00000E+00
 -1      1005 1.31814E+02 2.50063E+01 0.00000E+00
 -1      1006 1.81860E+01 1.90875E+01 0.00000E+00
 -1      1007 6.97274E+01 2.00603E+01 0.00000E+00
 -1      1008 1.80424E+01 1.65931E+01 0.00000E+00
 -1      1009 7.02805E+01 2.43464E+01 0.00000E+00
 -1      1010 1.33035E+02 1.69963E+01 0.00000E+00
 -1      1011 1.31814E+02 2.79438E+01 0.00000E+00
 -1      1012 3.21233E+01 1.80402E+01 0.00000E+00
 -1      1013 1.81860E+01 2.79172E+01 0.00000E+00
 -1      1014 1.31814E+02 2.20688E+01 0.00000E+00
 -1      1015 2.98898E+01 2.46578E+01 0.00000E+00
 -1      1016 2.20350E+01 1.69963E+01 0.00000E+00
 -1      1017 1.31945E+02 1.95881E+01 0.00000E+00
 -1      1018 7.03927E+01 2.85265E+01 0.00000E+00
 -1      1019 7.81500E+01 2.95962E+01 0.00000E+00
 -1      1020 8.11500E+01 2.95962E+01 0.00000E+00
 -1      1021 8.41500E+01 2.95962E+01 0.00000E+00
 -1      1022 8.71500E+01 2.95962E+01 0.00000E+00
 -1      1023 9.01500E+01 2.95962E+01 0.00000E+00
 -1      1024 9.31500E+01 2.95962E+01 0.00000E+00
 -1      1025 9.61500E+01 2.95962E+01 0.00000E+00
 -1      1026 9.91500E+01 2.95962E+01 0.00000E+00
 -1      1027 1.02150E+02 2.95962E+01 0.00000E+00
 -1      1028 1.05150E+02 2.95962E+01 0.00000E+00
 -1      1029 1.08150E+02 2.95962E+01 0.00000E+00
 -1      1030 1.11150E+02 2.95962E+01 0.00000E+00
 -1      1031 1.14150E+02 2.95962E+01 0.00000E+00
 -1      1032 1.17150E+02 2.95962E+01 0.00000E+00
 -1      1033 1.20150E+02 2.95962E+01 0.00000E+00
 -1      1034 1.23150E+02 2.95962E+01 0.00000E+00
 -1      1035 1.26150E+02 2.95962E+01 0.00000E+00
 -1      1036 1.29150E+02 2.95962E+01 0.00000E+00
 -1      1037 2.91233E+01 1.80402E+01 0.00000E+00
 -1      1038 8.05350E+01 1.95942E+01 0.00000E+00
 -1      1039 7.75350E+01 1.95942E+01 0.00000E+00
 -1      1040 7.45350E+01 1.95942E+01 0.00000E+00
 -1      1041 8.35350E+01 1.95942E+01 0.00000E+00
 -1      1042 8.65350E+01 1.95942E+01 0.00000E+00
 -1      1043 8.95350E+01 1.95942E+01 0.00000E+00
 -1      1044 9.25350E+01 1.95942E+01 0.00000E+00
 -1      1045 9.55350E+01 1.95942E+01 0.00000E+00
 -1      1046 9.85350E+01 1.95942E+01 0.00000E+00
 -1      1047 1.01535E+02 1.95942E+01 0.00000E+00
 -1      1048 1.04535E+02 1.95942E+01 0.00000E+00
 -1      1049 1.07535E+02 1.95942E+01 0.00000E+00
 -1      1050 1.10535E+02 1.95942E+01 0.00000E+00
 -1      1051 1.13535E+02 1.95942E+01 0.00000E+00
 -1      1052 1.16535E+02 1.95942E+01 0.00000E+00
 -1      1053 1.19535E+02 1.95942E+01 0.00000E+00
 -1      1054 1.22535E+02 1.95942E+01 0.00000E+00
 -1      1055 1.25535E+02 1.95942E+01 0.00000E+00
 -1      1056 1.28535E+02 1.95942E+01 0.00000E+00
 -1      1057 7.20213E+01 3.03604E+01 0.00000E+00
 -1      1058 1.81860E+01 2.49766E+01 0.00000E+00
 -1      1059 2.50350E+01 1.69963E+01 0.00000E+00
 -1      1060 1.29216E+02 2.35375E+01 0.00000E+00
 -1      1061 3.09044E+01 2.06724E+01 0.00000E+00
 -1      1062 2.11860E+01 2.79172E+01 0.00000E+00
 -1      1063 2.77785E+01 2.90127E+01 0.00000E+00
 -1      1064 7.51500E+01 2.95962E+01 0.00000E+00
 -1      1065 7.11006E+01 2.18332E+01 0.00000E+00
 -1      1066 2.20350E+01 1.99400E+01 0.00000E+00
 -1      1067 2.16105E+01 2.39286E+01 0.00000E+00
 -1      1068 1.29216E+02 2.64750E+01 0.00000E+00
 -1      1069 7.20686E+01 2.64040E+01 0.00000E+00
 -1      1070 2.68138E+01 2.64898E+01 0.00000E+00
 -1      1071 2.41860E+01 2.79172E+01 0.00000E+00
 -1      1072 8.26500E+01 2.69982E+01 0.00000E+00
 -1      1073 8.56500E+01 2.69982E+01 0.00000E+00
 -1      1074 8.86500E+01 2.69982E+01 0.00000E+00
 -1      1075 9.16500E+01 2.69982E+01 0.00000E+00
 -1      1076 9.46500E+01 2.69982E+01 0.00000E+00
 -1      1077 9.76500E+01 2.69982E+01 0.00000E+00
 -1      1078 1.00650E+02 2.69982E+01 0.00000E+00
 -1      1079 1.03650E+02 2.69982E+01 0.00000E+00
 -1      1080 1.06650E+02 2.69982E+01 0.00000E+00
 -1      1081 1.09650E+02 2.69982E+01 0.00000E+00
 -1      1082 1.12650E+02 2.69982E+01 0.00000E+00
 -1      1083 1.15650E+02 2.69982E+01 0.00000E+00
 -1      1084 1.18650E+02 2.69982E+01 0.00000E+00
 -1      1085 1.21650E+02 2.69982E+01 0.00000E+00
 -1      1086 1.24650E+02 2.69982E+01 0.00000E+00
 -1      1087 7.90350E+01 2.21922E+01 0.00000E+00
 -1      1088 8.50350E+01 2.21922E+01 0.00000E+00
 -1      1089 2.78794E+01 2.20241E+01 0.00000E+00
 -1      1090 8.20350E+01 2.21922E+01 0.00000E+00
 -1      1091 7.60350E+01 2.21922E+01 0.00000E+00
 -1      1092 8.80350E+01 2.21922E+01 0.00000E+00
 -1      1093 9.10350E+01 2.21922E+01 0.00000E+00
 -1      1094 9.40350E+01 2.21922E+01 0.00000E+00
 -1      1095 9.70350E+01 2.21922E+01 0.00000E+00
 -1      1096 1.00035E+02 2.21922E+01 0.00000E+00
 -1      1097 1.03035E+02 2.21922E+01 0.00000E+00
 -1      1098 1.06035E+02 2.21922E+01 0.00000E+00
 -1      1099 1.09035E+02 2.21922E+01 0.00000E+00
 -1      1100 1.12035E+02 2.21922E+01 0.00000E+00
 -1      1101 1.15035E+02 2.21922E+01 0.00000E+00
 -1      1102 1.18035E+02 2.21922E+01 0.00000E+00
 -1      1103 1.21035E+02 2.21922E+01 0.00000E+00
 -1      1104 1.24035E+02 2.21922E+01 0.00000E+00
 -1      1105 1.26626E+02 2.28649E+01 0.00000E+00
 -1      1106 7.36093E+01 2.80001E+01 0.00000E+00
 -1      1107 7.28887E+01 2.38907E+01 0.00000E+00
 -1      1108 2.53546E+01 2.03225E+01 0.00000E+00
 -1      1109 7.96500E+01 2.69982E+01 0.00000E+00
 -1      1110 7.66500E+01 2.69982E+01 0.00000E+00
 -1      1111 1.27650E+02 2.69982E+01 0.00000E+00
 -1      1112 1.27138E+02 2.49315E+01 0.00000E+00
 -1      1113 8.65350E+01 2.47903E+01 0.00000E+00
 -1      1114 9.01500E+01 2.44002E+01 0.00000E+00
 -1      1115 7.75350E+01 2.47903E+01 0.00000E+00
 -1      1116 2.52848E+01 2.39968E+01 0.00000E+00
 -1      1117 7.44294E+01 2.54868E+01 0.00000E+00
 -1      1118 8.35350E+01 2.47903E+01 0.00000E+00
 -1      1119 0.00000E+00 4.85250E+01 0.00000E+00
 -1      1120 0.00000E+00 4.55750E+01 0.00000E+00
 -1      1121 0.00000E+00 4.26250E+01 0.00000E+00
 -1      1122 0.00000E+00 3.96750E+01 0.00000E+00
 -1      1123 0.00000E+00 3.67250E+01 0.00000E+00
 -1      1124 0.00000E+00 3.38000E+01 0.00000E+00
 -1      1125 0.00000E+00 3.08750E+01 0.00000E+00
 -1      1126 0.00000E+00 2.79250E+01 0.00000E+00
 -1      1127 0.00000E+00 2.49750E+01 0.00000E+00
 -1      1128 0.00000E+00 2.20250E+01 0.00000E+00
 -1      1129 0.00000E+00 1.90750E+01 0.00000E+00
 -1      1130 0.00000E+00 1.61500E+01 0.00000E+00
 -1      1131 0.00000E+00 1.32250E+01 0.00000E+00
 -1      1132 0.00000E+00 1.02750E+01 0.00000E+00
 -1      1133 0.00000E+00 7.32500E+00 0.00000E+00
 -1      1134 0.00000E+00 4.37500E+00 0.00000E+00
 -1      1135 0.00000E+00 1.45000E+00 0.00000E+00
 -1      1136 1.57500E+00 5.00000E+01 0.00000E+00
 -1      1137 4.65000E+00 5.00000E+01 0.00000E+00
 -1      1138 7.65000E+00 5.00000E+01 0.00000E+00
 -1      1139 1.06500E+01 5.00000E+01 0.00000E+00
 -1      1140 1.36500E+01 5.00000E+01 0.00000E+00
 -1      1141 1.66500E+01 5.00000E+01 0.00000E+00
 -1      1142 1.96500E+01 5.00000E+01 0.00000E+00
 -1      1143 2.26500E+01 5.00000E+01 0.00000E+00
 -1      1144 2.56500E+01 5.00000E+01 0.00000E+00
 -1      1145 2.86500E+01 5.00000E+01 0.00000E+00
 -1      1146 3.16500E+01 5.00000E+01 0.00000E+00
 -1      1147 3.46500E+01 5.00000E+01 0.00000E+00
 -1      1148 3.76500E+01 5.00000E+01 0.00000E+00
 -1      1149 4.06500E+01 5.00000E+01 0.00000E+00
 -1      1150 4.36500E+01 5.00000E+01 0.00000E+00
 -1      1151 4.66500E+01 5.00000E+01 0.00000E+00
 -1      1152 4.96500E+01 5.00000E+01 0.00000E+00
 -1      1153 5.26500E+01 5.00000E+01 0.00000E+00
 -1      1154 5.56500E+01 5.00000E+01 0.00000E+00
 -1      1155 5.86500E+01 5.00000E+01 0.00000E+00
 -1      1156 6.16500E+01 5.00000E+01 0.00000E+00
 -1      1157 6.46500E+01 5.00000E+01 0.00000E+00
 -1      1158 6.76500E+01 5.00000E+01 0.00000E+00
 -1      1159 7.06500E+01 5.00000E+01 0.00000E+00
 -1      1160 7.36500E+01 5.00000E+01 0.00000E+00
 -1      1161 7.66500E+01 5.00000E+01 0.00000E+00
 -1      1162 7.96500E+01 5.00000E+01 0.00000E+00
 -1      1163 8.26500E+01 5.00000E+01 0.00000E+00
 -1      1164 8.56500E+01 5.00000E+01 0.00000E+00
 -1      1165 8.86500E+01 5.00000E+01 0.00000E+00
 -1      1166 9.16500E+01 5.00000E+01 0.00000E+00
 -1      1167 9.46500E+01 5.00000E+01 0.00000E+00
 -1      1168 9.76500E+01 5.00000E+01 0.00000E+00
 -1      1169 1.00650E+02 5.00000E+01 0.00000E+00
 -1      1170 1.03650E+02 5.00000E+01 0.00000E+00
 -1      1171 1.06650E+02 5.00000E+01 0.00000E+00
 -1      1172 1.09650E+02 5.00000E+01 0.00000E+00
 -1      1173 1.12650E+02 5.00000E+01 0.00000E+00
 -1      1174 1.15650E+02 5.00000E+01 0.00000E+00
 -1      1175 1.18650E+02 5.00000E+01 0.00000E+00
 -1      1176 1.21650E+02 5.00000E+01 0.00000E+00
 -1      1177 1.24650E+02 5.00000E+01 0.00000E+00
 -1      1178 1.27650E+02 5.00000E+01 0.00000E+00
 -1      1179 1.30650E+02 5.00000E+01 0.00000E+00
 -1      1180 1.33650E+02 5.00000E+01 0.00000E+00
 -1      1181 1.36650E+02 5.00000E+01 0.00000E+00
 -1      1182 1.39650E+02 5.00000E+01 0.00000E+00
 -1      1183 1.42650E+02 5.00000E+01 0.00000E+00
 -1      1184 1.45650E+02 5.00000E+01 0.00000E+00
 -1      1185 1.48575E+02 5.00000E+01 0.00000E+00
 -1      1186 1.57500E+00 0.00000E+00 0.00000E+00
 -1      1187 4.65000E+00 0.00000E+00 0.00000E+00
 -1      1188 7.65000E+00 0.00000E+00 0.00000E+00
 -1      1189 1.06500E+01 0.00000E+00 0.00000E+00
 -1      1190 1.36500E+01 0.00000E+00 0.00000E+00
 -1      1191 1.66500E+01 0.00000E+00 0.00000E+00
 -1      1192 1.96500E+01 0.00000E+00 0.00000E+00
 -1      1193 2.26500E+01 0.00000E+00 0.00000E+00
 -1      1194 2.56500E+01 0.00000E+00 0.00000E+00
 -1      1195 2.86500E+01 0.00000E+00 0.00000E+00
 -1      1196 3.16500E+01 0.00000E+00 0.00000E+00
 -1      1197 3.46500E+01 0.00000E+00 0.00000E+00
 -1      1198 3.76500E+01 0.00000E+00 0.00000E+00
 -1      1199 4.06500E+01 0.00000E+00 0.00000E+00
 -1      1200 4.36500E+01 0.00000E+00 0.00000E+00
 -1      1201 4.66500E+01 0.00000E+00 0.00000E+00
 -1      1202 4.96500E+01 0.00000E+00 0.00000E+00
 -1      1203 5.26500E+01 0.00000E+00 0.00000E+00
 -1      1204 5.56500E+01 0.00000E+00 0.00000E+00
 -1      1205 5.86500E+01 0.00000E+00 0.00000E+00
 -1      1206 6.16500E+01 0.00000E+00 0.00000E+00
 -1      1207 6.46500E+01 0.00000E+00 0.00000E+00
 -1      1208 6.76500E+01 0.00000E+00 0.00000E+00
 -1      1209 7.06500E+01 0.00000E+00 0.00000E+00
 -1      1210 7.36500E+01 0.00000E+00 0.00000E+00
 -1      1211 7.66500E+01 0.00000E+00 0.00000E+00
 -1      1212 7.96500E+01 0.00000E+00 0.00000E+00
 -1      1213 8.26500E+01 0.00000E+00 0.00000E+00
 -1      1214 8.56500E+01 0.00000E+00 0.00000E+00
 -1      1215 8.86500E+01 0.00000E+00 0.00000E+00
 -1      1216 9.16500E+01 0.00000E+00 0.00000E+00
 -1      1217 9.46500E+01 0.00000E+00 0.00000E+00
 -1      1218 9.76500E+01 0.00000E+00 0.00000E+00
 -1      1219 1.00650E+02 0.00000E+00 0.00000E+00
 -1      1220 1.03650E+02 0.00000E+00 0.00000E+00
 -1      1221 1.06650E+02 0.00000E+00 0.00000E+00
 -1      1222 1.09650E+02 0.00000E+00 0.00000E+00
 -1      1223 1.12650E+02 0.00000E+00 0.00000E+00
 -1      1224 1.15650E+02 0.00000E+00 0.00000E+00
 -1      1225 1.18650E+02 0.00000E+00 0.00000E+00
 -1      1226 1.21650E+02 0.00000E+00 0.00000E+00
 -1      1227 1.24650E+02 0.00000E+00 0.00000E+00
 -1      1228 1.27650E+02 0.00000E+00 0.00000E+00
 -1      1229 1.30650E+02 0.00000E+00 0.00000E+00
 -1      1230 1.33650E+02 0.00000E+00 0.00000E+00
 -1      1231 1.36650E+02 0.00000E+00 0.00000E+00
 -1      1232 1.39650E+02 0.00000E+00 0.00000E+00
 -1      1233 1.42650E+02 0.00000E+00 0.00000E+00
 -1      1234 1.45650E+02 0.00000E+00 0.00000E+00
 -1      1235 1.48575E+02 0.00000E+00 0.00000E+00
 -1      1236 1.50000E+02 1.47500E+00 0.00000E+00
 -1      1237 1.50000E+02 4.42500E+00 0.00000E+00
 -1      1238 1.50000E+02 7.37500E+00 0.00000E+00
 -1      1239 1.50000E+02 1.03250E+01 0.00000E+00
 -1      1240 1.50000E+02 1.32750E+01 0.00000E+00
 -1      1241 1.50000E+02 1.62000E+01 0.00000E+00
 -1      1242 1.50000E+02 1.91250E+01 0.00000E+00
 -1      1243 1.50000E+02 2.20750E+01 0.00000E+00
 -1      1244 1.50000E+02 2.50250E+01 0.00000E+00
 -1      1245 1.50000E+02 2.79750E+01 0.00000E+00
 -1      1246 1.50000E+02 3.09250E+01 0.00000E+00
 -1      1247 1.50000E+02 3.38500E+01 0.00000E+00
 -1      1248 1.50000E+02 3.67750E+01 0.00000E+00
 -1      1249 1.50000E+02 3.97250E+01 0.00000E+00
 -1      1250 1.50000E+02 4.26750E+01 0.00000E+00
 -1      1251 1.50000E+02 4.56250E+01 0.00000E+00
 -1      1252 1.50000E+02 4.85500E+01 0.00000E+00
 -1      1253 5.75214E+01 2.78684E+01 0.00000E+00
 -1      1254 5.72081E+01 2.64126E+01 0.00000E+00
 -1      1255 5.66082E+01 2.50803E+01 0.00000E+00
 -1      1256 5.57527E+01 2.39102E+01 0.00000E+00
 -1      1257 5.46480E+01 2.29223E+01 0.00000E+00
 -1      1258 5.33528E+01 2.21859E+01 0.00000E+00
 -1      1259 5.19189E+01 2.17378E+01 0.00000E+00
 -1      1260 5.04418E+01 2.16057E+01 0.00000E+00
 -1      1261 4.89281E+01 2.17977E+01 0.00000E+00
 -1      1262 4.74438E+01 2.23367E+01 0.00000E+00
 -1      1263 4.61638E+01 2.31575E+01 0.00000E+00
 -1      1264 4.51253E+01 2.41932E+01 0.00000E+00
 -1      1265 4.43048E+01 2.54630E+01 0.00000E+00
 -1      1266 4.37765E+01 2.68778E+01 0.00000E+00
 -1      1267 4.35665E+01 2.83079E+01 0.00000E+00
 -1      1268 4.36489E+01 2.97157E+01 0.00000E+00
 -1      1269 4.40053E+01 3.10610E+01 0.00000E+00
 -1      1270 4.46298E+01 3.23236E+01 0.00000E+00
 -1      1271 4.55323E+01 3.34751E+01 0.00000E+00
 -1      1272 4.66459E+01 3.44080E+01 0.00000E+00
 -1      1273 4.78724E+01 3.50681E+01 0.00000E+00
 -1      1274 4.92906E+01 3.54886E+01 0.00000E+00
 -1      1275 5.07993E+01 3.56006E+01 0.00000E+00
 -1      1276 5.22614E+01 3.53949E+01 0.00000E+00
 -1      1277 5.36401E+01 3.48908E+01 0.00000E+00
 -1      1278 5.48503E+01 3.41360E+01 0.00000E+00
 -1      1279 5.58738E+01 3.31616E+01 0.00000E+00
 -1      1280 5.66825E+01 3.19985E+01 0.00000E+00
 -1      1281 5.72456E+01 3.06796E+01 0.00000E+00
 -1      1282 5.75261E+01 2.92944E+01 0.00000E+00
 -1      1283 1.57500E+00 4.85250E+01 0.00000E+00
 -1      1284 1.29900E+00 4.48375E+01 0.00000E+00
 -1      1285 1.29900E+00 4.63125E+01 0.00000E+00
 -1      1286 1.29900E+00 4.18875E+01 0.00000E+00
 -1      1287 1.29900E+00 4.33625E+01 0.00000E+00
 -1      1288 2.59800E+00 4.41000E+01 0.00000E+00
 -1      1289 1.29900E+00 3.89375E+01 0.00000E+00
 -1      1290 1.29900E+00 4.04125E+01 0.00000E+00
 -1      1291 2.59800E+00 4.11500E+01 0.00000E+00
 -1      1292 1.29900E+00 3.59875E+01 0.00000E+00
 -1      1293 1.29900E+00 3.74625E+01 0.00000E+00
 -1      1294 2.59800E+00 3.82000E+01 0.00000E+00
 -1      1295 1.29900E+00 3.30875E+01 0.00000E+00
 -1      1296 1.29900E+00 3.45375E+01 0.00000E+00
 -1      1297 2.59800E+00 3.52750E+01 0.00000E+00
 -1      1298 1.29900E+00 3.01375E+01 0.00000E+00
 -1      1299 1.29900E+00 3.16125E+01 0.00000E+00
 -1      1300 2.59800E+00 3.23500E+01 0.00000E+00
 -1      1301 1.29900E+00 2.71875E+01 0.00000E+00
 -1      1302 1.29900E+00 2.86625E+01 0.00000E+00
 -1      1303 2.59800E+00 2.94000E+01 0.00000E+00
 -1      1304 1.29900E+00 2.42375E+01 0.00000E+00
 -1      1305 1.29900E+00 2.57125E+01 0.00000E+00
 -1      1306 2.59800E+00 2.64500E+01 0.00000E+00
 -1      1307 1.29900E+00 2.12875E+01 0.00000E+00
 -1      1308 1.29900E+00 2.27625E+01 0.00000E+00
 -1      1309 2.59800E+00 2.35000E+01 0.00000E+00
 -1      1310 1.29900E+00 1.83375E+01 0.00000E+00
 -1      1311 1.29900E+00 1.98125E+01 0.00000E+00
 -1      1312 2.59800E+00 2.05500E+01 0.00000E+00
 -1      1313 1.29900E+00 1.54375E+01 0.00000E+00
 -1      1314 1.29900E+00 1.68875E+01 0.00000E+00
 -1      1315 2.59800E+00 1.76250E+01 0.00000E+00
 -1      1316 1.29900E+00 1.24875E+01 0.00000E+00
 -1      1317 1.29900E+00 1.39625E+01 0.00000E+00
 -1      1318 2.59800E+00 1.47000E+01 0.00000E+00
 -1      1319 1.29900E+00 9.53750E+00 0.00000E+00
 -1      1320 1.29900E+00 1.10125E+01 0.00000E+00
 -1      1321 2.59800E+00 1.17500E+01 0.00000E+00
 -1      1322 1.29900E+00 6.58750E+00 0.00000E+00
 -1      1323 1.29900E+00 8.06250E+00 0.00000E+00
 -1      1324 2.59800E+00 8.80000E+00 0.00000E+00
 -1      1325 1.29900E+00 3.63750E+00 0.00000E+00
 -1      1326 1.29900E+00 5.11250E+00 0.00000E+00
 -1      1327 2.59800E+00 5.85000E+00 0.00000E+00
 -1      1328 1.43700E+00 1.09375E+00 0.00000E+00
 -1      1329 1.43700E+00 2.54375E+00 0.00000E+00
 -1      1330 2.73600E+00 3.28125E+00 0.00000E+00
 -1      1331 3.01200E+00 1.09375E+00 0.00000E+00
 -1      1332 3.90000E+00 4.87010E+01 0.00000E+00
 -1      1333 5.40000E+00 4.87010E+01 0.00000E+00
 -1      1334 6.90000E+00 4.87010E+01 0.00000E+00
 -1      1335 8.40000E+00 4.87010E+01 0.00000E+00
 -1      1336 6.15000E+00 4.74020E+01 0.00000E+00
 -1      1337 9.90000E+00 4.87010E+01 0.00000E+00
 -1      1338 1.14000E+01 4.87010E+01 0.00000E+00
 -1      1339 9.15000E+00 4.74020E+01 0.00000E+00
 -1      1340 1.29000E+01 4.87010E+01 0.00000E+00
 -1      1341 1.44000E+01 4.87010E+01 0.00000E+00
 -1      1342 1.21500E+01 4.74020E+01 0.00000E+00
 -1      1343 1.59000E+01 4.87010E+01 0.00000E+00
 -1      1344 1.74000E+01 4.87010E+01 0.00000E+00
 -1      1345 1.51500E+01 4.74020E+01 0.00000E+00
 -1      1346 1.89000E+01 4.87010E+01 0.00000E+00
 -1      1347 2.04000E+01 4.87010E+01 0.00000E+00
 -1      1348 1.81500E+01 4.74020E+01 0.00000E+00
 -1      1349 2.19000E+01 4.87010E+01 0.00000E+00
 -1      1350 2.34000E+01 4.87010E+01 0.00000E+00
 -1      1351 2.11500E+01 4.74020E+01 0.00000E+00
 -1      1352 2.49000E+01 4.87010E+01 0.00000E+00
 -1      1353 2.64000E+01 4.87010E+01 0.00000E+00
 -1      1354 2.41500E+01 4.74020E+01 0.00000E+00
 -1      1355 2.79000E+01 4.87010E+01 0.00000E+00
 -1      1356 2.94000E+01 4.87010E+01 0.00000E+00
 -1      1357 2.71500E+01 4.74020E+01 0.00000E+00
 -1      1358 3.09000E+01 4.87010E+01 0.00000E+00
 -1      1359 3.24000E+01 4.87010E+01 0.00000E+00
 -1      1360 3.01500E+01 4.74020E+01 0.00000E+00
 -1      1361 3.39000E+01 4.87010E+01 0.00000E+00
 -1      1362 3.54000E+01 4.87010E+01 0.00000E+00
 -1      1363 3.31500E+01 4.74020E+01 0.00000E+00
 -1      1364 3.69000E+01 4.87010E+01 0.00000E+00
 -1      1365 3.84000E+01 4.87010E+01 0.00000E+00
 -1      1366 3.61500E+01 4.74020E+01 0.00000E+00
 -1      1367 3.99000E+01 4.87010E+01 0.00000E+00
 -1      1368 4.14000E+01 4.87010E+01 0.00000E+00
 -1      1369 3.91500E+01 4.74020E+01 0.00000E+00
 -1      1370 4.29000E+01 4.87010E+01 0.00000E+00
 -1      1371 4.44000E+01 4.87010E+01 0.00000E+00
 -1      1372 4.21500E+01 4.74020E+01 0.00000E+00
 -1      1373 4.59000E+01 4.87010E+01 0.00000E+00
 -1      1374 4.74000E+01 4.87010E+01 0.00000E+00
 -1      1375 4.51500E+01 4.74020E+01 0.00000E+00
 -1      1376 4.89000E+01 4.87010E+01 0.00000E+00
 -1      1377 5.04000E+01 4.87010E+01 0.00000E+00
 -1      1378 4.81500E+01 4.74020E+01 0.00000E+00
 -1      1379 5.19000E+01 4.87010E+01 0.00000E+00
 -1      1380 5.34000E+01 4.87010E+01 0.00000E+00
 -1      1381 5.11500E+01 4.74020E+01 0.00000E+00
 -1      1382 5.49000E+01 4.87010E+01 0.00000E+00
 -1      1383 5.64000E+01 4.87010E+01 0.00000E+00
 -1      1384 5.41500E+01 4.74020E+01 0.00000E+00
 -1      1385 5.79000E+01 4.87010E+01 0.00000E+00
 -1      1386 5.94000E+01 4.87010E+01 0.00000E+00
 -1      1387 5.71500E+01 4.74020E+01 0.00000E+00
 -1      1388 6.09000E+01 4.87010E+01 0.00000E+00
 -1      1389 6.24000E+01 4.87010E+01 0.00000E+00
 -1      1390 6.01500E+01 4.74020E+01 0.00000E+00
 -1      1391 6.39000E+01 4.87010E+01 0.00000E+00
 -1      1392 6.54000E+01 4.87010E+01 0.00000E+00
 -1      1393 6.31500E+01 4.74020E+01 0.00000E+00
 -1      1394 6.69000E+01 4.87010E+01 0.00000E+00
 -1      1395 6.84000E+01 4.87010E+01 0.00000E+00
 -1      1396 6.61500E+01 4.74020E+01 0.00000E+00
 -1      1397 6.99000E+01 4.87010E+01 0.00000E+00
 -1      1398 7.14000E+01 4.87010E+01 0.00000E+00
 -1      1399 6.91500E+01 4.74020E+01 0.00000E+00
 -1      1400 7.29000E+01 4.87010E+01 0.00000E+00
 -1      1401 7.44000E+01 4.87010E+01 0.00000E+00
 -1      1402 7.21500E+01 4.74020E+01 0.00000E+00
 -1      1403 7.59000E+01 4.87010E+01 0.00000E+00
 -1      1404 7.74000E+01 4.87010E+01 0.00000E+00
 -1      1405 7.51500E+01 4.74020E+01 0.00000E+00
 -1      1406 7.89000E+01 4.87010E+01 0.00000E+00
 -1      1407 8.04000E+01 4.87010E+01 0.00000E+00
 -1      1408 7.81500E+01 4.74020E+01 0.00000E+00
 -1      1409 8.19000E+01 4.87010E+01 0.00000E+00
 -1      1410 8.34000E+01 4.87010E+01 0.00000E+00
 -1      1411 8.11500E+01 4.74020E+01 0.00000E+00
 -1      1412 8.49000E+01 4.87010E+01 0.00000E+00
 -1      1413 8.64000E+01 4.87010E+01 0.00000E+00
 -1      1414 8.41500E+01 4.74020E+01 0.00000E+00
 -1      1415 8.79000E+01 4.87010E+01 0.00000E+00
 -1      1416 8.94000E+01 4.87010E+01 0.00000E+00
 -1      1417 8.71500E+01 4.74020E+01 0.00000E+00
 -1      1418 9.09000E+01 4.87010E+01 0.00000E+00
 -1      1419 9.24000E+01 4.87010E+01 0.00000E+00
 -1      1420 9.01500E+01 4.74020E+01 0.00000E+00
 -1      1421 9.39000E+01 4.87010E+01 0.00000E+00
 -1      1422 9.54000E+01 4.87010E+01 0.00000E+00
 -1      1423 9.31500E+01 4.74020E+01 0.00000E+00
 -1      1424 9.69000E+01 4.87010E+01 0.00000E+00
 -1      1425 9.84000E+01 4.87010E+01 0.00000E+00
 -1      1426 9.61500E+01 4.74020E+01 0.00000E+00
 -1      1427 9.99000E+01 4.87010E+01 0.00000E+00
 -1      1428 1.01400E+02 4.87010E+01 0.00000E+00
 -1      1429 9.91500E+01 4.74020E+01 0.00000E+00
 -1      1430 1.02900E+02 4.87010E+01 0.00000E+00
 -1      1431 1.04400E+02 4.87010E+01 0.00000E+00
 -1      1432 1.02150E+02 4.74020E+01 0.00000E+00
 -1      1433 1.05900E+02 4.87010E+01 0.00000E+00
 -1      1434 1.07400E+02 4.87010E+01 0.00000E+00
 -1      1435 1.05150E+02 4.74020E+01 0.00000E+00
 -1      1436 1.08900E+02 4.87010E+01 0.00000E+00
 -1      1437 1.10400E+02 4.87010E+01 0.00000E+00
 -1      1438 1.08150E+02 4.74020E+01 0.00000E+00
 -1      1439 1.11900E+02 4.87010E+01 0.00000E+00
 -1      1440 1.13400E+02 4.87010E+01 0.00000E+00
 -1      1441 1.11150E+02 4.74020E+01 0.00000E+00
 -1      1442 1.14900E+02 4.87010E+01 0.00000E+00
 -1      1443 1.16400E+02 4.87010E+01 0.00000E+00
 -1      1444 1.14150E+02 4.74020E+01 0.00000E+00
 -1      1445 1.17900E+02 4.87010E+01 0.00000E+00
 -1      1446 1.19400E+02 4.87010E+01 0.00000E+00
 -1      1447 1.17150E+02 4.74020E+01 0.00000E+00
 -1      1448 1.20900E+02 4.87010E+01 0.00000E+00
 -1      1449 1.22400E+02 4.87010E+01 0.00000E+00
 -1      1450 1.20150E+02 4.74020E+01 0.00000E+00
 -1      1451 1.23900E+02 4.87010E+01 0.00000E+00
 -1      1452 1.25400E+02 4.87010E+01 0.00000E+00
 -1      1453 1.23150E+02 4.74020E+01 0.00000E+00
 -1      1454 1.26900E+02 4.87010E+01 0.00000E+00
 -1      1455 1.28400E+02 4.87010E+01 0.00000E+00
 -1      1456 1.26150E+02 4.74020E+01 0.00000E+00
 -1      1457 1.29900E+02 4.87010E+01 0.00000E+00
 -1      1458 1.31400E+02 4.87010E+01 0.00000E+00
 -1      1459 1.29150E+02 4.74020E+01 0.00000E+00
 -1      1460 1.32900E+02 4.87010E+01 0.00000E+00
 -1      1461 1.34400E+02 4.87010E+01 0.00000E+00
 -1      1462 1.32150E+02 4.74020E+01 0.00000E+00
 -1      1463 1.35900E+02 4.87010E+01 0.00000E+00
 -1      1464 1.37400E+02 4.87010E+01 0.00000E+00
 -1      1465 1.35150E+02 4.74020E+01 0.00000E+00
 -1      1466 1.38900E+02 4.87010E+01 0.00000E+00
 -1      1467 1.40400E+02 4.87010E+01 0.00000E+00
 -1      1468 1.38150E+02 4.74020E+01 0.00000E+00
 -1      1469 1.41900E+02 4.87010E+01 0.00000E+00
 -1      1470 1.43400E+02 4.87010E+01 0.00000E+00
 -1      1471 1.41150E+02 4.74020E+01 0.00000E+00
 -1      1472 1.44900E+02 4.87010E+01 0.00000E+00
 -1      1473 1.46400E+02 4.87010E+01 0.00000E+00
 -1      1474 1.44150E+02 4.74020E+01 0.00000E+00
 -1      1475 1.48575E+02 4.85500E+01 0.00000E+00
 -1      1476 1.47825E+02 4.72510E+01 0.00000E+00
 -1      1477 6.01200E+00 1.09375E+00 0.00000E+00
 -1      1478 4.51200E+00 1.09375E+00 0.00000E+00
 -1      1479 4.37400E+00 2.18750E+00 0.00000E+00
 -1      1480 9.01200E+00 1.09375E+00 0.00000E+00
 -1      1481 7.51200E+00 1.09375E+00 0.00000E+00
 -1      1482 7.37400E+00 2.18750E+00 0.00000E+00
 -1      1483 1.20120E+01 1.09375E+00 0.00000E+00
 -1      1484 1.05120E+01 1.09375E+00 0.00000E+00
 -1      1485 1.03740E+01 2.18750E+00 0.00000E+00
 -1      1486 1.50120E+01 1.09375E+00 0.00000E+00
 -1      1487 1.35120E+01 1.09375E+00 0.00000E+00
 -1      1488 1.33740E+01 2.18750E+00 0.00000E+00
 -1      1489 1.80120E+01 1.09375E+00 0.00000E+00
 -1      1490 1.65120E+01 1.09375E+00 0.00000E+00
 -1      1491 1.63740E+01 2.18750E+00 0.00000E+00
 -1      1492 2.10120E+01 1.09375E+00 0.00000E+00
 -1      1493 1.95120E+01 1.09375E+00 0.00000E+00
 -1      1494 1.93740E+01 2.18750E+00 0.00000E+00
 -1      1495 2.40120E+01 1.09375E+00 0.00000E+00
 -1      1496 2.25120E+01 1.09375E+00 0.00000E+00
 -1      1497 2.23740E+01 2.18750E+00 0.00000E+00
 -1      1498 2.70120E+01 1.09375E+00 0.00000E+00
 -1      1499 2.55120E+01 1.09375E+00 0.00000E+00
 -1      1500 2.53740E+01 2.18750E+00 0.00000E+00
 -1      1501 3.00120E+01 1.09375E+00 0.00000E+00
 -1      1502 2.85120E+01 1.09375E+00 0.00000E+00
 -1      1503 2.83740E+01 2.18750E+00 0.00000E+00
 -1      1504 3.30120E+01 1.09375E+00 0.00000E+00
 -1      1505 3.15120E+01 1.09375E+00 0.00000E+00
 -1      1506 3.13740E+01 2.18750E+00 0.00000E+00
 -1      1507 3.60120E+01 1.09375E+00 0.00000E+00
 -1      1508 3.45120E+01 1.09375E+00 0.00000E+00
 -1      1509 3.43740E+01 2.18750E+00 0.00000E+00
 -1      1510 3.90120E+01 1.09375E+00 0.00000E+00
 -1      1511 3.75120E+01 1.09375E+00 0.00000E+00
 -1      1512 3.73740E+01 2.18750E+00 0.00000E+00
 -1      1513 4.20120E+01 1.09375E+00 0.00000E+00
 -1      1514 4.05120E+01 1.09375E+00 0.00000E+00
 -1      1515 4.03740E+01 2.18750E+00 0.00000E+00
 -1      1516 4.50120E+01 1.09375E+00 0.00000E+00
 -1      1517 4.35120E+01 1.09375E+00 0.00000E+00
 -1      1518 4.33740E+01 2.18750E+00 0.00000E+00
 -1      1519 4.80120E+01 1.09375E+00 0.00000E+00
 -1      1520 4.65120E+01 1.09375E+00 0.00000E+00
 -1      1521 4.63740E+01 2.18750E+00 0.00000E+00
 -1      1522 5.10120E+01 1.09375E+00 0.00000E+00
 -1      1523 4.95120E+01 1.09375E+00 0.00000E+00
 -1      1524 4.93740E+01 2.18750E+00 0.00000E+00
 -1      1525 5.40120E+01 1.09375E+00 0.00000E+00
 -1      1526 5.25120E+01 1.09375E+00 0.00000E+00
 -1      1527 5.23740E+01 2.18750E+00 0.00000E+00
 -1      1528 5.70120E+01 1.09375E+00 0.00000E+00
 -1      1529 5.55120E+01 1.09375E+00 0.00000E+00
 -1      1530 5.53740E+01 2.18750E+00 0.00000E+00
 -1      1531 6.00120E+01 1.09375E+00 0.00000E+00
 -1      1532 5.85120E+01 1.09375E+00 0.00000E+00
 -1      1533 5.83740E+01 2.18750E+00 0.00000E+00
 -1      1534 6.30120E+01 1.09375E+00 0.00000E+00
 -1      1535 6.15120E+01 1.09375E+00 0.00000E+00
 -1      1536 6.13740E+01 2.18750E+00 0.00000E+00
 -1      1537 6.60120E+01 1.09375E+00 0.00000E+00
 -1      1538 6.45120E+01 1.09375E+00 0.00000E+00
 -1      1539 6.43740E+01 2.18750E+00 0.00000E+00
 -1      1540 6.90120E+01 1.09375E+00 0.00000E+00
 -1      1541 6.75120E+01 1.09375E+00 0.00000E+00
 -1      1542 6.73740E+01 2.18750E+00 0.00000E+00
 -1      1543 7.20120E+01 1.09375E+00 0.00000E+00
 -1      1544 7.05120E+01 1.09375E+00 0.00000E+00
 -1      1545 7.03740E+01 2.18750E+00 0.00000E+00
 -1      1546 7.50120E+01 1.09375E+00 0.00000E+00
 -1      1547 7.35120E+01 1.09375E+00 0.00000E+00
 -1      1548 7.33740E+01 2.18750E+00 0.00000E+00
 -1      1549 7.80120E+01 1.09375E+00 0.00000E+00
 -1      1550 7.65120E+01 1.09375E+00 0.00000E+00
 -1      1551 7.63740E+01 2.18750E+00 0.00000E+00
 -1      1552 8.10120E+01 1.09375E+00 0.00000E+00
 -1      1553 7.95120E+01 1.09375E+00 0.00000E+00
 -1      1554 7.93740E+01 2.18750E+00 0.00000E+00
 -1      1555 8.40120E+01 1.09375E+00 0.00000E+00
 -1      1556 8.25120E+01 1.09375E+00 0.00000E+00
 -1      1557 8.23740E+01 2.18750E+00 0.00000E+00
 -1      1558 8.70120E+01 1.09375E+00 0.00000E+00
 -1      1559 8.55120E+01 1.09375E+00 0.00000E+00
 -1      1560 8.53740E+01 2.18750E+00 0.00000E+00
 -1      1561 9.00120E+01 1.09375E+00 0.00000E+00
 -1      1562 8.85120E+01 1.09375E+00 0.00000E+00
 -1      1563 8.83740E+01 2.18750E+00 0.00000E+00
 -1      1564 9.30120E+01 1.09375E+00 0.00000E+00
 -1      1565 9.15120E+01 1.09375E+00 0.00000E+00
 -1      1566 9.13740E+01 2.18750E+00 0.00000E+00
 -1      1567 9.60120E+01 1.09375E+00 0.00000E+00
 -1      1568 9.45120E+01 1.09375E+00 0.00000E+00
 -1      1569 9.43740E+01 2.18750E+00 0.00000E+00
 -1      1570 9.90120E+01 1.09375E+00 0.00000E+00
 -1      1571 9.75120E+01 1.09375E+00 0.00000E+00
 -1      1572 9.73740E+01 2.18750E+00 0.00000E+00
 -1      1573 1.02012E+02 1.09375E+00 0.00000E+00
 -1      1574 1.00512E+02 1.09375E+00 0.00000E+00
 -1      1575 1.00374E+02 2.18750E+00 0.00000E+00
 -1      1576 1.05012E+02 1.09375E+00 0.00000E+00
 -1      1577 1.03512E+02 1.09375E+00 0.00000E+00
 -1      1578 1.03374E+02 2.18750E+00 0.00000E+00
 -1      1579 1.08012E+02 1.09375E+00 0.00000E+00
 -1      1580 1.06512E+02 1.09375E+00 0.00000E+00
 -1      1581 1.06374E+02 2.18750E+00 0.00000E+00
 -1      1582 1.11012E+02 1.09375E+00 0.00000E+00
 -1      1583 1.09512E+02 1.09375E+00 0.00000E+00
 -1      1584 1.09374E+02 2.18750E+00 0.00000E+00
 -1      1585 1.14012E+02 1.09375E+00 0.00000E+00
 -1      1586 1.12512E+02 1.09375E+00 0.00000E+00
 -1      1587 1.12374E+02 2.18750E+00 0.00000E+00
 -1      1588 1.17012E+02 1.09375E+00 0.00000E+00
 -1      1589 1.15512E+02 1.09375E+00 0.00000E+00
 -1      1590 1.15374E+02 2.18750E+00 0.00000E+00
 -1      1591 1.20012E+02 1.09375E+00 0.00000E+00
 -1      1592 1.18512E+02 1.09375E+00 0.00000E+00
 -1      1593 1.18374E+02 2.18750E+00 0.00000E+00
 -1      1594 1.23012E+02 1.09375E+00 0.00000E+00
 -1      1595 1.21512E+02 1.09375E+00 0.00000E+00
 -1      1596 1.21374E+02 2.18750E+00 0.00000E+00
 -1      1597 1.26012E+02 1.09375E+00 0.00000E+00
 -1      1598 1.24512E+02 1.09375E+00 0.00000E+00
 -1      1599 1.24374E+02 2.18750E+00 0.00000E+00
 -1      1600 1.29012E+02 1.09375E+00 0.00000E+00
 -1      1601 1.27512E+02 1.09375E+00 0.00000E+00
 -1      1602 1.27374E+02 2.18750E+00 0.00000E+00
 -1      1603 1.32012E+02 1.09375E+00 0.00000E+00
 -1      1604 1.30512E+02 1.09375E+00 0.00000E+00
 -1      1605 1.30374E+02 2.18750E+00 0.00000E+00
 -1      1606 1.35012E+02 1.09375E+00 0.00000E+00
 -1      1607 1.33512E+02 1.09375E+00 0.00000E+00
 -1      1608 1.33374E+02 2.18750E+00 0.00000E+00
 -1      1609 1.38012E+02 1.09375E+00 0.00000E+00
 -1      1610 1.36512E+02 1.09375E+00 0.00000E+00
 -1      1611 1.36374E+02 2.18750E+00 0.00000E+00
 -1      1612 1.41012E+02 1.09375E+00 0.00000E+00
 -1      1613 1.39512E+02 1.09375E+00 0.00000E+00
 -1      1614 1.39374E+02 2.18750E+00 0.00000E+00
 -1      1615 1.44012E+02 1.09375E+00 0.00000E+00
 -1      1616 1.42512E+02 1.09375E+00 0.00000E+00
 -1      1617 1.42374E+02 2.18750E+00 0.00000E+00
 -1      1618 1.47012E+02 1.09375E+00 0.00000E+00
 -1      1619 1.45512E+02 1.09375E+00 0.00000E+00
 -1      1620 1.45374E+02 2.18750E+00 0.00000E+00
 -1      1621 1.48575E+02 1.47500E+00 0.00000E+00
 -1      1622 1.48701E+02 5.16250E+00 0.00000E+00
 -1      1623 1.48701E+02 3.68750E+00 0.00000E+00
 -1      1624 1.48701E+02 8.11250E+00 0.00000E+00
 -1      1625 1.48701E+02 6.63750E+00 0.00000E+00
 -1      1626 1.47402E+02 5.90000E+00 0.00000E+00
 -1      1627 1.48701E+02 1.10625E+01 0.00000E+00
 -1      1628 1.48701E+02 9.58750E+00 0.00000E+00
 -1      1629 1.47402E+02 8.85000E+00 0.00000E+00
 -1      1630 1.48701E+02 1.40125E+01 0.00000E+00
 -1      1631 1.48701E+02 1.25375E+01 0.00000E+00
 -1      1632 1.47402E+02 1.18000E+01 0.00000E+00
 -1      1633 1.48701E+02 1.69125E+01 0.00000E+00
 -1      1634 1.48701E+02 1.54625E+01 0.00000E+00
 -1      1635 1.47402E+02 1.47250E+01 0.00000E+00
 -1      1636 1.48701E+02 1.98625E+01 0.00000E+00
 -1      1637 1.48701E+02 1.83875E+01 0.00000E+00
 -1      1638 1.47402E+02 1.76500E+01 0.00000E+00
 -1      1639 1.48701E+02 2.28125E+01 0.00000E+00
 -1      1640 1.48701E+02 2.13375E+01 0.00000E+00
 -1      1641 1.47402E+02 2.06000E+01 0.00000E+00
 -1      1642 1.48701E+02 2.57625E+01 0.00000E+00
 -1      1643 1.48701E+02 2.42875E+01 0.00000E+00
 -1      1644 1.47402E+02 2.35500E+01 0.00000E+00
 -1      1645 1.48701E+02 2.87125E+01 0.00000E+00
 -1      1646 1.48701E+02 2.72375E+01 0.00000E+00
 -1      1647 1.47402E+02 2.65000E+01 0.00000E+00
 -1      1648 1.48701E+02 3.16625E+01 0.00000E+00
 -1      1649 1.48701E+02 3.01875E+01 0.00000E+00
 -1      1650 1.47402E+02 2.94500E+01 0.00000E+00
 -1      1651 1.48701E+02 3.45625E+01 0.00000E+00
 -1      1652 1.48701E+02 3.31125E+01 0.00000E+00
 -1      1653 1.47402E+02 3.23750E+01 0.00000E+00
 -1      1654 1.48701E+02 3.75125E+01 0.00000E+00
 -1      1655 1.48701E+02 3.60375E+01 0.00000E+00
 -1      1656 1.47402E+02 3.53000E+01 0.00000E+00
 -1      1657 1.48701E+02 4.04625E+01 0.00000E+00
 -1      1658 1.48701E+02 3.89875E+01 0.00000E+00
 -1      1659 1.47402E+02 3.82500E+01 0.00000E+00
 -1      1660 1.48701E+02 4.34125E+01 0.00000E+00
 -1      1661 1.48701E+02 4.19375E+01 0.00000E+00
 -1      1662 1.47402E+02 4.12000E+01 0.00000E+00
 -1      1663 1.48263E+02 4.60692E+01 0.00000E+00
 -1      1664 1.48263E+02 4.45942E+01 0.00000E+00
 -1      1665 1.46964E+02 4.38568E+01 0.00000E+00
 -1      1666 1.46088E+02 4.62202E+01 0.00000E+00
 -1      1667 5.80885E+01 2.74381E+01 0.00000E+00
 -1      1668 5.81660E+01 2.81704E+01 0.00000E+00
 -1      1669 5.76672E+01 2.58650E+01 0.00000E+00
 -1      1670 5.79029E+01 2.65798E+01 0.00000E+00
 -1      1671 5.69225E+01 2.44871E+01 0.00000E+00
 -1      1672 5.72792E+01 2.50992E+01 0.00000E+00
 -1      1673 5.59558E+01 2.32272E+01 0.00000E+00
 -1      1674 5.64527E+01 2.37768E+01 0.00000E+00
 -1      1675 5.46782E+01 2.22458E+01 0.00000E+00
 -1      1676 5.52798E+01 2.26785E+01 0.00000E+00
 -1      1677 5.32686E+01 2.14406E+01 0.00000E+00
 -1      1678 5.39553E+01 2.17394E+01 0.00000E+00
 -1      1679 5.16673E+01 2.10689E+01 0.00000E+00
 -1      1680 5.24063E+01 2.12151E+01 0.00000E+00
 -1      1681 5.00668E+01 2.10020E+01 0.00000E+00
 -1      1682 5.07963E+01 2.09897E+01 0.00000E+00
 -1      1683 4.83906E+01 2.12637E+01 0.00000E+00
 -1      1684 4.91650E+01 2.10780E+01 0.00000E+00
 -1      1685 4.68244E+01 2.19699E+01 0.00000E+00
 -1      1686 4.75253E+01 2.16214E+01 0.00000E+00
 -1      1687 4.54679E+01 2.28826E+01 0.00000E+00
 -1      1688 4.60420E+01 2.24192E+01 0.00000E+00
 -1      1689 4.44545E+01 2.41181E+01 0.00000E+00
 -1      1690 4.49138E+01 2.35522E+01 0.00000E+00
 -1      1691 4.35518E+01 2.55229E+01 0.00000E+00
 -1      1692 4.39032E+01 2.48232E+01 0.00000E+00
 -1      1693 4.31361E+01 2.70900E+01 0.00000E+00
 -1      1694 4.33155E+01 2.63852E+01 0.00000E+00
 -1      1695 4.29825E+01 2.86424E+01 0.00000E+00
 -1      1696 4.30130E+01 2.79250E+01 0.00000E+00
 -1      1697 4.31392E+01 3.01482E+01 0.00000E+00
 -1      1698 4.30294E+01 2.94648E+01 0.00000E+00
 -1      1699 4.35932E+01 3.15889E+01 0.00000E+00
 -1      1700 4.33477E+01 3.09339E+01 0.00000E+00
 -1      1701 4.43351E+01 3.29269E+01 0.00000E+00
 -1      1702 4.39583E+01 3.23261E+01 0.00000E+00
 -1      1703 4.53583E+01 3.41684E+01 0.00000E+00
 -1      1704 4.48338E+01 3.36269E+01 0.00000E+00
 -1      1705 4.66162E+01 3.50770E+01 0.00000E+00
 -1      1706 4.60368E+01 3.46862E+01 0.00000E+00
 -1      1707 4.79733E+01 3.57293E+01 0.00000E+00
 -1      1708 4.73325E+01 3.54628E+01 0.00000E+00
 -1      1709 4.95519E+01 3.62361E+01 0.00000E+00
 -1      1710 4.87798E+01 3.60937E+01 0.00000E+00
 -1      1711 5.11839E+01 3.61980E+01 0.00000E+00
 -1      1712 5.04565E+01 3.62229E+01 0.00000E+00
 -1      1713 5.27825E+01 3.59342E+01 0.00000E+00
 -1      1714 5.20562E+01 3.61162E+01 0.00000E+00
 -1      1715 5.42319E+01 3.52813E+01 0.00000E+00
 -1      1716 5.35860E+01 3.55977E+01 0.00000E+00
 -1      1717 5.54792E+01 3.43701E+01 0.00000E+00
 -1      1718 5.49205E+01 3.48034E+01 0.00000E+00
 -1      1719 5.65368E+01 3.32649E+01 0.00000E+00
 -1      1720 5.60770E+01 3.38010E+01 0.00000E+00
 -1      1721 5.73533E+01 3.19642E+01 0.00000E+00
 -1      1722 5.70089E+01 3.25855E+01 0.00000E+00
 -1      1723 5.79760E+01 3.05274E+01 0.00000E+00
 -1      1724 5.77615E+01 3.12186E+01 0.00000E+00
 -1      1725 5.81295E+01 2.90076E+01 0.00000E+00
 -1      1726 5.80615E+01 2.96939E+01 0.00000E+00
 -1      1727 5.60090E+01 2.25187E+01 0.00000E+00
 -1      1728 5.71548E+01 2.37776E+01 0.00000E+00
 -1      1729 1.48437E+02 2.56875E+00 0.00000E+00
 -1      1730 1.47138E+02 3.30625E+00 0.00000E+00
 -1      1731 5.85861E+01 2.68778E+01 0.00000E+00
 -1      1732 5.80126E+01 2.52537E+01 0.00000E+00
 -1      1733 5.87352E+01 2.85733E+01 0.00000E+00
 -1      1734 5.46101E+01 2.14637E+01 0.00000E+00
 -1      1735 5.30249E+01 2.07318E+01 0.00000E+00
 -1      1736 5.12916E+01 2.04270E+01 0.00000E+00
 -1      1737 4.95188E+01 2.04239E+01 0.00000E+00
 -1      1738 4.77516E+01 2.08576E+01 0.00000E+00
 -1      1739 4.61040E+01 2.16647E+01 0.00000E+00
 -1      1740 4.47676E+01 2.27835E+01 0.00000E+00
 -1      1741 4.36622E+01 2.41582E+01 0.00000E+00
 -1      1742 4.28746E+01 2.57257E+01 0.00000E+00
 -1      1743 4.25152E+01 2.74230E+01 0.00000E+00
 -1      1744 4.24389E+01 2.90804E+01 0.00000E+00
 -1      1745 4.26943E+01 3.06884E+01 0.00000E+00
 -1      1746 4.32680E+01 3.22114E+01 0.00000E+00
 -1      1747 4.41318E+01 3.36486E+01 0.00000E+00
 -1      1748 4.53090E+01 3.48664E+01 0.00000E+00
 -1      1749 4.67038E+01 3.57700E+01 0.00000E+00
 -1      1750 4.82266E+01 3.65202E+01 0.00000E+00
 -1      1751 4.99377E+01 3.68714E+01 0.00000E+00
 -1      1752 5.17147E+01 3.67763E+01 0.00000E+00
 -1      1753 5.33906E+01 3.63580E+01 0.00000E+00
 -1      1754 5.48827E+01 3.55436E+01 0.00000E+00
 -1      1755 5.61692E+01 3.44967E+01 0.00000E+00
 -1      1756 5.72392E+01 3.32482E+01 0.00000E+00
 -1      1757 5.81195E+01 3.18231E+01 0.00000E+00
 -1      1758 5.86133E+01 3.02440E+01 0.00000E+00
 -1      1759 2.87400E+00 4.77875E+01 0.00000E+00
 -1      1760 3.89700E+00 4.04125E+01 0.00000E+00
 -1      1761 3.89700E+00 4.18875E+01 0.00000E+00
 -1      1762 3.89700E+00 4.33625E+01 0.00000E+00
 -1      1763 3.89700E+00 4.48375E+01 0.00000E+00
 -1      1764 5.19600E+00 4.26250E+01 0.00000E+00
 -1      1765 3.89700E+00 3.45500E+01 0.00000E+00
 -1      1766 3.89700E+00 3.60000E+01 0.00000E+00
 -1      1767 3.89700E+00 3.16000E+01 0.00000E+00
 -1      1768 3.89700E+00 3.30750E+01 0.00000E+00
 -1      1769 5.19600E+00 3.38000E+01 0.00000E+00
 -1      1770 3.89700E+00 2.86500E+01 0.00000E+00
 -1      1771 3.89700E+00 3.01250E+01 0.00000E+00
 -1      1772 5.19600E+00 3.08500E+01 0.00000E+00
 -1      1773 3.89700E+00 2.57000E+01 0.00000E+00
 -1      1774 3.89700E+00 2.71750E+01 0.00000E+00
 -1      1775 5.19600E+00 2.79000E+01 0.00000E+00
 -1      1776 3.89700E+00 2.27500E+01 0.00000E+00
 -1      1777 3.89700E+00 2.42250E+01 0.00000E+00
 -1      1778 5.19600E+00 2.49500E+01 0.00000E+00
 -1      1779 3.89700E+00 1.98000E+01 0.00000E+00
 -1      1780 3.89700E+00 2.12750E+01 0.00000E+00
 -1      1781 5.19600E+00 2.20000E+01 0.00000E+00
 -1      1782 3.89700E+00 1.69000E+01 0.00000E+00
 -1      1783 3.89700E+00 1.83500E+01 0.00000E+00
 -1      1784 5.19600E+00 1.90750E+01 0.00000E+00
 -1      1785 3.89700E+00 1.39500E+01 0.00000E+00
 -1      1786 3.89700E+00 1.54250E+01 0.00000E+00
 -1      1787 5.19600E+00 1.61500E+01 0.00000E+00
 -1      1788 3.89700E+00 1.10000E+01 0.00000E+00
 -1      1789 3.89700E+00 1.24750E+01 0.00000E+00
 -1      1790 5.19600E+00 1.32000E+01 0.00000E+00
 -1      1791 3.89700E+00 8.05000E+00 0.00000E+00
 -1      1792 3.89700E+00 9.52500E+00 0.00000E+00
 -1      1793 5.19600E+00 1.02500E+01 0.00000E+00
 -1      1794 3.89700E+00 5.10000E+00 0.00000E+00
 -1      1795 3.89700E+00 6.57500E+00 0.00000E+00
 -1      1796 5.19600E+00 7.30000E+00 0.00000E+00
 -1      1797 4.20450E+00 3.09687E+00 0.00000E+00
 -1      1798 4.06650E+00 4.19063E+00 0.00000E+00
 -1      1799 5.36550E+00 4.91563E+00 0.00000E+00
 -1      1800 5.70450E+00 3.09687E+00 0.00000E+00
 -1      1801 3.62400E+00 4.64885E+01 0.00000E+00
 -1      1802 8.70450E+00 3.09687E+00 0.00000E+00
 -1      1803 7.20450E+00 3.09687E+00 0.00000E+00
 -1      1804 7.03500E+00 4.00625E+00 0.00000E+00
 -1      1805 4.92300E+00 4.57510E+01 0.00000E+00
 -1      1806 8.40000E+00 4.61030E+01 0.00000E+00
 -1      1807 9.90000E+00 4.61030E+01 0.00000E+00
 -1      1808 1.14000E+01 4.61030E+01 0.00000E+00
 -1      1809 1.29000E+01 4.61030E+01 0.00000E+00
 -1      1810 1.06500E+01 4.48040E+01 0.00000E+00
 -1      1811 1.44000E+01 4.61030E+01 0.00000E+00
 -1      1812 1.59000E+01 4.61030E+01 0.00000E+00
 -1      1813 1.36500E+01 4.48040E+01 0.00000E+00
 -1      1814 1.74000E+01 4.61030E+01 0.00000E+00
 -1      1815 1.89000E+01 4.61030E+01 0.00000E+00
 -1      1816 1.66500E+01 4.48040E+01 0.00000E+00
 -1      1817 2.04000E+01 4.61030E+01 0.00000E+00
 -1      1818 2.19000E+01 4.61030E+01 0.00000E+00
 -1      1819 1.96500E+01 4.48040E+01 0.00000E+00
 -1      1820 2.34000E+01 4.61030E+01 0.00000E+00
 -1      1821 2.49000E+01 4.61030E+01 0.00000E+00
 -1      1822 2.26500E+01 4.48040E+01 0.00000E+00
 -1      1823 2.64000E+01 4.61030E+01 0.00000E+00
 -1      1824 2.79000E+01 4.61030E+01 0.00000E+00
 -1      1825 2.56500E+01 4.48040E+01 0.00000E+00
 -1      1826 2.94000E+01 4.61030E+01 0.00000E+00
 -1      1827 3.09000E+01 4.61030E+01 0.00000E+00
 -1      1828 2.86500E+01 4.48040E+01 0.00000E+00
 -1      1829 3.24000E+01 4.61030E+01 0.00000E+00
 -1      1830 3.39000E+01 4.61030E+01 0.00000E+00
 -1      1831 3.16500E+01 4.48040E+01 0.00000E+00
 -1      1832 3.54000E+01 4.61030E+01 0.00000E+00
 -1      1833 3.69000E+01 4.61030E+01 0.00000E+00
 -1      1834 3.46500E+01 4.48040E+01 0.00000E+00
 -1      1835 3.84000E+01 4.61030E+01 0.00000E+00
 -1      1836 3.99000E+01 4.61030E+01 0.00000E+00
 -1      1837 3.76500E+01 4.48040E+01 0.00000E+00
 -1      1838 4.14000E+01 4.61030E+01 0.00000E+00
 -1      1839 4.29000E+01 4.61030E+01 0.00000E+00
 -1      1840 4.06500E+01 4.48040E+01 0.00000E+00
 -1      1841 4.44000E+01 4.61030E+01 0.00000E+00
 -1      1842 4.59000E+01 4.61030E+01 0.00000E+00
 -1      1843 4.36500E+01 4.48040E+01 0.00000E+00
 -1      1844 4.74000E+01 4.61030E+01 0.00000E+00
 -1      1845 4.89000E+01 4.61030E+01 0.00000E+00
 -1      1846 4.66500E+01 4.48040E+01 0.00000E+00
 -1      1847 5.04000E+01 4.61030E+01 0.00000E+00
 -1      1848 5.19000E+01 4.61030E+01 0.00000E+00
 -1      1849 4.96500E+01 4.48040E+01 0.00000E+00
 -1      1850 5.34000E+01 4.61030E+01 0.00000E+00
 -1      1851 5.49000E+01 4.61030E+01 0.00000E+00
 -1      1852 5.26500E+01 4.48040E+01 0.00000E+00
 -1      1853 5.64000E+01 4.61030E+01 0.00000E+00
 -1      1854 5.79000E+01 4.61030E+01 0.00000E+00
 -1      1855 5.56500E+01 4.48040E+01 0.00000E+00
 -1      1856 5.94000E+01 4.61030E+01 0.00000E+00
 -1      1857 6.09000E+01 4.61030E+01 0.00000E+00
 -1      1858 5.86500E+01 4.48040E+01 0.00000E+00
 -1      1859 6.24000E+01 4.61030E+01 0.00000E+00
 -1      1860 6.39000E+01 4.61030E+01 0.00000E+00
 -1      1861 6.16500E+01 4.48040E+01 0.00000E+00
 -1      1862 6.54000E+01 4.61030E+01 0.00000E+00
 -1      1863 6.69000E+01 4.61030E+01 0.00000E+00
 -1      1864 6.46500E+01 4.48040E+01 0.00000E+00
 -1      1865 6.84000E+01 4.61030E+01 0.00000E+00
 -1      1866 6.99000E+01 4.61030E+01 0.00000E+00
 -1      1867 6.76500E+01 4.48040E+01 0.00000E+00
 -1      1868 7.14000E+01 4.61030E+01 0.00000E+00
 -1      1869 7.29000E+01 4.61030E+01 0.00000E+00
 -1      1870 7.06500E+01 4.48040E+01 0.00000E+00
 -1      1871 7.44000E+01 4.61030E+01 0.00000E+00
 -1      1872 7.59000E+01 4.61030E+01 0.00000E+00
 -1      1873 7.36500E+01 4.48040E+01 0.00000E+00
 -1      1874 7.74000E+01 4.61030E+01 0.00000E+00
 -1      1875 7.89000E+01 4.61030E+01 0.00000E+00
 -1      1876 7.66500E+01 4.48040E+01 0.00000E+00
 -1      1877 8.04000E+01 4.61030E+01 0.00000E+00
 -1      1878 8.19000E+01 4.61030E+01 0.00000E+00
 -1      1879 7.96500E+01 4.48040E+01 0.00000E+00
 -1      1880 8.34000E+01 4.61030E+01 0.00000E+00
 -1      1881 8.49000E+01 4.61030E+01 0.00000E+00
 -1      1882 8.26500E+01 4.48040E+01 0.00000E+00
 -1      1883 8.64000E+01 4.61030E+01 0.00000E+00
 -1      1884 8.79000E+01 4.61030E+01 0.00000E+00
 -1      1885 8.56500E+01 4.48040E+01 0.00000E+00
 -1      1886 8.94000E+01 4.61030E+01 0.00000E+00
 -1      1887 9.09000E+01 4.61030E+01 0.00000E+00
 -1      1888 8.86500E+01 4.48040E+01 0.00000E+00
 -1      1889 9.24000E+01 4.61030E+01 0.00000E+00
 -1      1890 9.39000E+01 4.61030E+01 0.00000E+00
 -1      1891 9.16500E+01 4.48040E+01 0.00000E+00
 -1      1892 9.54000E+01 4.61030E+01 0.00000E+00
 -1      1893 9.69000E+01 4.61030E+01 0.00000E+00
 -1      1894 9.46500E+01 4.48040E+01 0.00000E+00
 -1      1895 9.84000E+01 4.61030E+01 0.00000E+00
 -1      1896 9.99000E+01 4.61030E+01 0.00000E+00
 -1      1897 9.76500E+01 4.48040E+01 0.00000E+00
 -1      1898 1.01400E+02 4.61030E+01 0.00000E+00
 -1      1899 1.02900E+02 4.61030E+01 0.00000E+00
 -1      1900 1.00650E+02 4.48040E+01 0.00000E+00
 -1      1901 1.04400E+02 4.61030E+01 0.00000E+00
 -1      1902 1.05900E+02 4.61030E+01 0.00000E+00
 -1      1903 1.03650E+02 4.48040E+01 0.00000E+00
 -1      1904 1.07400E+02 4.61030E+01 0.00000E+00
 -1      1905 1.08900E+02 4.61030E+01 0.00000E+00
 -1      1906 1.06650E+02 4.48040E+01 0.00000E+00
 -1      1907 1.10400E+02 4.61030E+01 0.00000E+00
 -1      1908 1.11900E+02 4.61030E+01 0.00000E+00
 -1      1909 1.09650E+02 4.48040E+01 0.00000E+00
 -1      1910 1.13400E+02 4.61030E+01 0.00000E+00
 -1      1911 1.14900E+02 4.61030E+01 0.00000E+00
 -1      1912 1.12650E+02 4.48040E+01 0.00000E+00
 -1      1913 1.16400E+02 4.61030E+01 0.00000E+00
 -1      1914 1.17900E+02 4.61030E+01 0.00000E+00
 -1      1915 1.15650E+02 4.48040E+01 0.00000E+00
 -1      1916 1.19400E+02 4.61030E+01 0.00000E+00
 -1      1917 1.20900E+02 4.61030E+01 0.00000E+00
 -1      1918 1.18650E+02 4.48040E+01 0.00000E+00
 -1      1919 1.22400E+02 4.61030E+01 0.00000E+00
 -1      1920 1.23900E+02 4.61030E+01 0.00000E+00
 -1      1921 1.21650E+02 4.48040E+01 0.00000E+00
 -1      1922 1.25400E+02 4.61030E+01 0.00000E+00
 -1      1923 1.26900E+02 4.61030E+01 0.00000E+00
 -1      1924 1.24650E+02 4.48040E+01 0.00000E+00
 -1      1925 1.28400E+02 4.61030E+01 0.00000E+00
 -1      1926 1.29900E+02 4.61030E+01 0.00000E+00
 -1      1927 1.27650E+02 4.48040E+01 0.00000E+00
 -1      1928 1.31400E+02 4.61030E+01 0.00000E+00
 -1      1929 1.32900E+02 4.61030E+01 0.00000E+00
 -1      1930 1.30650E+02 4.48040E+01 0.00000E+00
 -1      1931 1.34400E+02 4.61030E+01 0.00000E+00
 -1      1932 1.35900E+02 4.61030E+01 0.00000E+00
 -1      1933 1.33650E+02 4.48040E+01 0.00000E+00
 -1      1934 1.37400E+02 4.61030E+01 0.00000E+00
 -1      1935 1.38900E+02 4.61030E+01 0.00000E+00
 -1      1936 1.36650E+02 4.48040E+01 0.00000E+00
 -1      1937 1.40400E+02 4.61030E+01 0.00000E+00
 -1      1938 1.41900E+02 4.61030E+01 0.00000E+00
 -1      1939 1.39650E+02 4.48040E+01 0.00000E+00
 -1      1940 1.43244E+02 4.61616E+01 0.00000E+00
 -1      1941 1.44744E+02 4.61616E+01 0.00000E+00
 -1      1942 1.45182E+02 4.49799E+01 0.00000E+00
 -1      1943 1.42494E+02 4.48626E+01 0.00000E+00
 -1      1944 1.17045E+01 3.09687E+00 0.00000E+00
 -1      1945 1.02045E+01 3.09687E+00 0.00000E+00
 -1      1946 1.00350E+01 4.00625E+00 0.00000E+00
 -1      1947 1.47045E+01 3.09687E+00 0.00000E+00
 -1      1948 1.32045E+01 3.09687E+00 0.00000E+00
 -1      1949 1.30350E+01 4.00625E+00 0.00000E+00
 -1      1950 1.77045E+01 3.09687E+00 0.00000E+00
 -1      1951 1.62045E+01 3.09687E+00 0.00000E+00
 -1      1952 1.60350E+01 4.00625E+00 0.00000E+00
 -1      1953 2.07045E+01 3.09687E+00 0.00000E+00
 -1      1954 1.92045E+01 3.09687E+00 0.00000E+00
 -1      1955 1.90350E+01 4.00625E+00 0.00000E+00
 -1      1956 2.37045E+01 3.09687E+00 0.00000E+00
 -1      1957 2.22045E+01 3.09687E+00 0.00000E+00
 -1      1958 2.20350E+01 4.00625E+00 0.00000E+00
 -1      1959 2.67045E+01 3.09687E+00 0.00000E+00
 -1      1960 2.52045E+01 3.09687E+00 0.00000E+00
 -1      1961 2.50350E+01 4.00625E+00 0.00000E+00
 -1      1962 2.97045E+01 3.09687E+00 0.00000E+00
 -1      1963 2.82045E+01 3.09687E+00 0.00000E+00
 -1      1964 2.80350E+01 4.00625E+00 0.00000E+00
 -1      1965 3.27045E+01 3.09687E+00 0.00000E+00
 -1      1966 3.12045E+01 3.09687E+00 0.00000E+00
 -1      1967 3.10350E+01 4.00625E+00 0.00000E+00
 -1      1968 3.57045E+01 3.09687E+00 0.00000E+00
 -1      1969 3.42045E+01 3.09687E+00 0.00000E+00
 -1      1970 3.40350E+01 4.00625E+00 0.00000E+00
 -1      1971 3.87045E+01 3.09687E+00 0.00000E+00
 -1      1972 3.72045E+01 3.09687E+00 0.00000E+00
 -1      1973 3.70350E+01 4.00625E+00 0.00000E+00
 -1      1974 4.17045E+01 3.09687E+00 0.00000E+00
 -1      1975 4.02045E+01 3.09687E+00 0.00000E+00
 -1      1976 4.00350E+01 4.00625E+00 0.00000E+00
 -1      1977 4.47045E+01 3.09687E+00 0.00000E+00
 -1      1978 4.32045E+01 3.09687E+00 0.00000E+00
 -1      1979 4.30350E+01 4.00625E+00 0.00000E+00
 -1      1980 4.77045E+01 3.09687E+00 0.00000E+00
 -1      1981 4.62045E+01 3.09687E+00 0.00000E+00
 -1      1982 4.60350E+01 4.00625E+00 0.00000E+00
 -1      1983 5.07045E+01 3.09687E+00 0.00000E+00
 -1      1984 4.92045E+01 3.09687E+00 0.00000E+00
 -1      1985 4.90350E+01 4.00625E+00 0.00000E+00
 -1      1986 5.37045E+01 3.09687E+00 0.00000E+00
 -1      1987 5.22045E+01 3.09687E+00 0.00000E+00
 -1      1988 5.20350E+01 4.00625E+00 0.00000E+00
 -1      1989 5.67045E+01 3.09687E+00 0.00000E+00
 -1      1990 5.52045E+01 3.09687E+00 0.00000E+00
 -1      1991 5.50350E+01 4.00625E+00 0.00000E+00
 -1      1992 5.97045E+01 3.09687E+00 0.00000E+00
 -1      1993 5.82045E+01 3.09687E+00 0.00000E+00
 -1      1994 5.80350E+01 4.00625E+00 0.00000E+00
 -1      1995 6.27045E+01 3.09687E+00 0.00000E+00
 -1      1996 6.12045E+01 3.09687E+00 0.00000E+00
 -1      1997 6.10350E+01 4.00625E+00 0.00000E+00
 -1      1998 6.57045E+01 3.09687E+00 0.00000E+00
 -1      1999 6.42045E+01 3.09687E+00 0.00000E+00
 -1      2000 6.40350E+01 4.00625E+00 0.00000E+00
 -1      2001 6.87045E+01 3.09687E+00 0.00000E+00
 -1      2002 6.72045E+01 3.09687E+00 0.00000E+00
 -1      2003 6.70350E+01 4.00625E+00 0.00000E+00
 -1      2004 7.17045E+01 3.09687E+00 0.00000E+00
 -1      2005 7.02045E+01 3.09687E+00 0.00000E+00
 -1      2006 7.00350E+01 4.00625E+00 0.00000E+00
 -1      2007 7.47045E+01 3.09687E+00 0.00000E+00
 -1      2008 7.32045E+01 3.09687E+00 0.00000E+00
 -1      2009 7.30350E+01 4.00625E+00 0.00000E+00
 -1      2010 7.77045E+01 3.09687E+00 0.00000E+00
 -1      2011 7.62045E+01 3.09687E+00 0.00000E+00
 -1      2012 7.60350E+01 4.00625E+00 0.00000E+00
 -1      2013 8.07045E+01 3.09687E+00 0.00000E+00
 -1      2014 7.92045E+01 3.09687E+00 0.00000E+00
 -1      2015 7.90350E+01 4.00625E+00 0.00000E+00
 -1      2016 8.37045E+01 3.09687E+00 0.00000E+00
 -1      2017 8.22045E+01 3.09687E+00 0.00000E+00
 -1      2018 8.20350E+01 4.00625E+00 0.00000E+00
 -1      2019 8.67045E+01 3.09687E+00 0.00000E+00
 -1      2020 8.52045E+01 3.09687E+00 0.00000E+00
 -1      2021 8.50350E+01 4.00625E+00 0.00000E+00
 -1      2022 8.97045E+01 3.09687E+00 0.00000E+00
 -1      2023 8.82045E+01 3.09687E+00 0.00000E+00
 -1      2024 8.80350E+01 4.00625E+00 0.00000E+00
 -1      2025 9.27045E+01 3.09687E+00 0.00000E+00
 -1      2026 9.12045E+01 3.09687E+00 0.00000E+00
 -1      2027 9.10350E+01 4.00625E+00 0.00000E+00
 -1      2028 9.57045E+01 3.09687E+00 0.00000E+00
 -1      2029 9.42045E+01 3.09687E+00 0.00000E+00
 -1      2030 9.40350E+01 4.00625E+00 0.00000E+00
 -1      2031 9.87045E+01 3.09687E+00 0.00000E+00
 -1      2032 9.72045E+01 3.09687E+00 0.00000E+00
 -1      2033 9.70350E+01 4.00625E+00 0.00000E+00
 -1      2034 1.01704E+02 3.09687E+00 0.00000E+00
 -1      2035 1.00204E+02 3.09687E+00 0.00000E+00
 -1      2036 1.00035E+02 4.00625E+00 0.00000E+00
 -1      2037 1.04704E+02 3.09687E+00 0.00000E+00
 -1      2038 1.03204E+02 3.09687E+00 0.00000E+00
 -1      2039 1.03035E+02 4.00625E+00 0.00000E+00
 -1      2040 1.07704E+02 3.09687E+00 0.00000E+00
 -1      2041 1.06204E+02 3.09687E+00 0.00000E+00
 -1      2042 1.06035E+02 4.00625E+00 0.00000E+00
 -1      2043 1.10704E+02 3.09687E+00 0.00000E+00
 -1      2044 1.09204E+02 3.09687E+00 0.00000E+00
 -1      2045 1.09035E+02 4.00625E+00 0.00000E+00
 -1      2046 1.13704E+02 3.09687E+00 0.00000E+00
 -1      2047 1.12204E+02 3.09687E+00 0.00000E+00
 -1      2048 1.12035E+02 4.00625E+00 0.00000E+00
 -1      2049 1.16704E+02 3.09687E+00 0.00000E+00
 -1      2050 1.15204E+02 3.09687E+00 0.00000E+00
 -1      2051 1.15035E+02 4.00625E+00 0.00000E+00
 -1      2052 1.19704E+02 3.09687E+00 0.00000E+00
 -1      2053 1.18204E+02 3.09687E+00 0.00000E+00
 -1      2054 1.18035E+02 4.00625E+00 0.00000E+00
 -1      2055 1.22704E+02 3.09687E+00 0.00000E+00
 -1      2056 1.21204E+02 3.09687E+00 0.00000E+00
 -1      2057 1.21035E+02 4.00625E+00 0.00000E+00
 -1      2058 1.25704E+02 3.09687E+00 0.00000E+00
 -1      2059 1.24204E+02 3.09687E+00 0.00000E+00
 -1      2060 1.24035E+02 4.00625E+00 0.00000E+00
 -1      2061 1.28704E+02 3.09687E+00 0.00000E+00
 -1      2062 1.27204E+02 3.09687E+00 0.00000E+00
 -1      2063 1.27035E+02 4.00625E+00 0.00000E+00
 -1      2064 1.31704E+02 3.09687E+00 0.00000E+00
 -1      2065 1.30204E+02 3.09687E+00 0.00000E+00
 -1      2066 1.30035E+02 4.00625E+00 0.00000E+00
 -1      2067 1.34704E+02 3.09687E+00 0.00000E+00
 -1      2068 1.33204E+02 3.09687E+00 0.00000E+00
 -1      2069 1.33035E+02 4.00625E+00 0.00000E+00
 -1      2070 1.37704E+02 3.09687E+00 0.00000E+00
 -1      2071 1.36204E+02 3.09687E+00 0.00000E+00
 -1      2072 1.36035E+02 4.00625E+00 0.00000E+00
 -1      2073 1.40704E+02 3.09687E+00 0.00000E+00
 -1      2074 1.39204E+02 3.09687E+00 0.00000E+00
 -1      2075 1.39035E+02 4.00625E+00 0.00000E+00
 -1      2076 1.43704E+02 3.09687E+00 0.00000E+00
 -1      2077 1.42204E+02 3.09687E+00 0.00000E+00
 -1      2078 1.42035E+02 4.00625E+00 0.00000E+00
 -1      2079 1.46171E+02 3.20156E+00 0.00000E+00
 -1      2080 1.44671E+02 3.20156E+00 0.00000E+00
 -1      2081 1.44502E+02 4.11094E+00 0.00000E+00
 -1      2082 1.46435E+02 4.32031E+00 0.00000E+00
 -1      2083 1.46103E+02 1.25375E+01 0.00000E+00
 -1      2084 1.46103E+02 1.10625E+01 0.00000E+00
 -1      2085 1.46103E+02 9.58750E+00 0.00000E+00
 -1      2086 1.46103E+02 8.11250E+00 0.00000E+00
 -1      2087 1.44804E+02 1.03250E+01 0.00000E+00
 -1      2088 1.46269E+02 6.95391E+00 0.00000E+00
 -1      2089 1.46269E+02 5.47891E+00 0.00000E+00
 -1      2090 1.45302E+02 5.37422E+00 0.00000E+00
 -1      2091 1.44970E+02 7.69141E+00 0.00000E+00
 -1      2092 1.46103E+02 1.54375E+01 0.00000E+00
 -1      2093 1.46103E+02 1.39875E+01 0.00000E+00
 -1      2094 1.44804E+02 1.32500E+01 0.00000E+00
 -1      2095 1.46103E+02 1.83875E+01 0.00000E+00
 -1      2096 1.46103E+02 1.69125E+01 0.00000E+00
 -1      2097 1.44804E+02 1.61750E+01 0.00000E+00
 -1      2098 1.46103E+02 2.13375E+01 0.00000E+00
 -1      2099 1.46103E+02 1.98625E+01 0.00000E+00
 -1      2100 1.44804E+02 1.91250E+01 0.00000E+00
 -1      2101 1.46103E+02 2.42875E+01 0.00000E+00
 -1      2102 1.46103E+02 2.28125E+01 0.00000E+00
 -1      2103 1.44804E+02 2.20750E+01 0.00000E+00
 -1      2104 1.46103E+02 2.72375E+01 0.00000E+00
 -1      2105 1.46103E+02 2.57625E+01 0.00000E+00
 -1      2106 1.44804E+02 2.50250E+01 0.00000E+00
 -1      2107 1.46103E+02 3.01875E+01 0.00000E+00
 -1      2108 1.46103E+02 2.87125E+01 0.00000E+00
 -1      2109 1.44804E+02 2.79750E+01 0.00000E+00
 -1      2110 1.46103E+02 3.30875E+01 0.00000E+00
 -1      2111 1.46103E+02 3.16375E+01 0.00000E+00
 -1      2112 1.44804E+02 3.09000E+01 0.00000E+00
 -1      2113 1.46103E+02 3.60375E+01 0.00000E+00
 -1      2114 1.46103E+02 3.45625E+01 0.00000E+00
 -1      2115 1.44804E+02 3.38250E+01 0.00000E+00
 -1      2116 1.46103E+02 3.89875E+01 0.00000E+00
 -1      2117 1.46103E+02 3.75125E+01 0.00000E+00
 -1      2118 1.44804E+02 3.67750E+01 0.00000E+00
 -1      2119 1.46103E+02 4.19375E+01 0.00000E+00
 -1      2120 1.46103E+02 4.04625E+01 0.00000E+00
 -1      2121 1.44804E+02 3.97250E+01 0.00000E+00
 -1      2122 5.83967E+01 2.45779E+01 0.00000E+00
 -1      2123 5.87847E+01 2.53436E+01 0.00000E+00
 -1      2124 5.94847E+01 2.81866E+01 0.00000E+00
 -1      2125 5.94482E+01 2.90237E+01 0.00000E+00
 -1      2126 5.92906E+01 2.62762E+01 0.00000E+00
 -1      2127 5.94762E+01 2.71346E+01 0.00000E+00
 -1      2128 5.75653E+01 2.29956E+01 0.00000E+00
 -1      2129 5.80351E+01 2.37059E+01 0.00000E+00
 -1      2130 5.61058E+01 2.17086E+01 0.00000E+00
 -1      2131 5.67818E+01 2.22573E+01 0.00000E+00
 -1      2132 3.89700E+00 3.74688E+01 0.00000E+00
 -1      2133 3.89700E+00 3.89437E+01 0.00000E+00
 -1      2134 5.19600E+00 3.96813E+01 0.00000E+00
 -1      2135 5.19600E+00 3.67438E+01 0.00000E+00
 -1      2136 5.28107E+01 1.97893E+01 0.00000E+00
 -1      2137 5.36731E+01 2.00149E+01 0.00000E+00
 -1      2138 5.09147E+01 1.97420E+01 0.00000E+00
 -1      2139 5.17857E+01 1.98212E+01 0.00000E+00
 -1      2140 4.90099E+01 1.97743E+01 0.00000E+00
 -1      2141 4.99117E+01 1.96983E+01 0.00000E+00
 -1      2142 4.69914E+01 2.02440E+01 0.00000E+00
 -1      2143 4.78567E+01 1.98863E+01 0.00000E+00
 -1      2144 4.54266E+01 2.11426E+01 0.00000E+00
 -1      2145 4.62090E+01 2.06933E+01 0.00000E+00
 -1      2146 4.63140E+01 1.97219E+01 0.00000E+00
 -1      2147 4.39267E+01 2.26517E+01 0.00000E+00
 -1      2148 4.44807E+01 2.19822E+01 0.00000E+00
 -1      2149 4.28241E+01 2.40620E+01 0.00000E+00
 -1      2150 4.33754E+01 2.33569E+01 0.00000E+00
 -1      2151 4.30886E+01 2.25555E+01 0.00000E+00
 -1      2152 4.19294E+01 2.59303E+01 0.00000E+00
 -1      2153 4.21657E+01 2.50679E+01 0.00000E+00
 -1      2154 4.17710E+01 2.77399E+01 0.00000E+00
 -1      2155 4.18942E+01 2.69049E+01 0.00000E+00
 -1      2156 4.16898E+01 2.95356E+01 0.00000E+00
 -1      2157 4.16430E+01 2.87132E+01 0.00000E+00
 -1      2158 4.20102E+01 3.12905E+01 0.00000E+00
 -1      2159 4.18017E+01 3.05048E+01 0.00000E+00
 -1      2160 4.27947E+01 3.29048E+01 0.00000E+00
 -1      2161 4.24295E+01 3.21676E+01 0.00000E+00
 -1      2162 4.37168E+01 3.44718E+01 0.00000E+00
 -1      2163 4.32181E+01 3.37718E+01 0.00000E+00
 -1      2164 4.51280E+01 3.58070E+01 0.00000E+00
 -1      2165 4.44495E+01 3.52892E+01 0.00000E+00
 -1      2166 4.67546E+01 3.65335E+01 0.00000E+00
 -1      2167 4.60383E+01 3.61476E+01 0.00000E+00
 -1      2168 4.83630E+01 3.72930E+01 0.00000E+00
 -1      2169 4.75565E+01 3.69286E+01 0.00000E+00
 -1      2170 5.04013E+01 3.76385E+01 0.00000E+00
 -1      2171 4.94967E+01 3.76517E+01 0.00000E+00
 -1      2172 5.21461E+01 3.74748E+01 0.00000E+00
 -1      2173 5.12737E+01 3.75566E+01 0.00000E+00
 -1      2174 5.08327E+01 3.83369E+01 0.00000E+00
 -1      2175 5.40912E+01 3.69034E+01 0.00000E+00
 -1      2176 5.32877E+01 3.72400E+01 0.00000E+00
 -1      2177 5.56204E+01 3.58716E+01 0.00000E+00
 -1      2178 5.49318E+01 3.63494E+01 0.00000E+00
 -1      2179 5.70016E+01 3.47726E+01 0.00000E+00
 -1      2180 5.64038E+01 3.53417E+01 0.00000E+00
 -1      2181 5.80418E+01 3.33022E+01 0.00000E+00
 -1      2182 5.75697E+01 3.39816E+01 0.00000E+00
 -1      2183 5.89288E+01 3.17817E+01 0.00000E+00
 -1      2184 5.85206E+01 3.25273E+01 0.00000E+00
 -1      2185 5.93627E+01 2.98572E+01 0.00000E+00
 -1      2186 5.92772E+01 3.06908E+01 0.00000E+00
 -1      2187 6.01121E+01 2.94705E+01 0.00000E+00
 -1      2188 5.46926E+01 2.05767E+01 0.00000E+00
 -1      2189 5.54155E+01 2.10831E+01 0.00000E+00
 -1      2190 5.76621E+01 2.21856E+01 0.00000E+00
 -1      2191 6.42300E+00 4.57510E+01 0.00000E+00
 -1      2192 5.61883E+01 2.08217E+01 0.00000E+00
 -1      2193 5.44785E+01 1.96343E+01 0.00000E+00
 -1      2194 7.17300E+00 4.44520E+01 0.00000E+00
 -1      2195 5.96747E+01 2.56004E+01 0.00000E+00
 -1      2196 6.01891E+01 2.75850E+01 0.00000E+00
 -1      2197 1.45665E+02 4.31193E+01 0.00000E+00
 -1      2198 5.88072E+01 2.37959E+01 0.00000E+00
 -1      2199 5.96783E+01 3.13950E+01 0.00000E+00
 -1      2200 5.88512E+01 3.32607E+01 0.00000E+00
 -1      2201 5.78043E+01 3.48266E+01 0.00000E+00
 -1      2202 5.64528E+01 3.61475E+01 0.00000E+00
 -1      2203 5.28467E+01 3.80203E+01 0.00000E+00
 -1      2204 4.88266E+01 3.80601E+01 0.00000E+00
 -1      2205 4.68910E+01 3.73063E+01 0.00000E+00
 -1      2206 4.51788E+01 3.65705E+01 0.00000E+00
 -1      2207 4.35358E+01 3.54124E+01 0.00000E+00
 -1      2208 4.23797E+01 3.37281E+01 0.00000E+00
 -1      2209 4.15369E+01 3.19840E+01 0.00000E+00
 -1      2210 4.10057E+01 3.01376E+01 0.00000E+00
 -1      2211 4.10219E+01 2.81951E+01 0.00000E+00
 -1      2212 4.18789E+01 2.42666E+01 0.00000E+00
 -1      2213 4.45858E+01 2.10108E+01 0.00000E+00
 -1      2214 4.82496E+01 1.91607E+01 0.00000E+00
 -1      2215 5.24339E+01 1.91043E+01 0.00000E+00
 -1      2216 5.04059E+01 1.90925E+01 0.00000E+00
 -1      2217 4.11852E+01 2.62471E+01 0.00000E+00
 -1      2218 5.48289E+01 3.72314E+01 0.00000E+00
 -1      2219 1.07850E+01 5.30525E+00 0.00000E+00
 -1      2220 9.28500E+00 5.30525E+00 0.00000E+00
 -1      2221 6.49500E+00 3.01125E+01 0.00000E+00
 -1      2222 6.49500E+00 3.15875E+01 0.00000E+00
 -1      2223 6.49500E+00 3.30625E+01 0.00000E+00
 -1      2224 6.49500E+00 3.45375E+01 0.00000E+00
 -1      2225 7.79400E+00 3.23250E+01 0.00000E+00
 -1      2226 6.49500E+00 2.42125E+01 0.00000E+00
 -1      2227 6.49500E+00 2.56875E+01 0.00000E+00
 -1      2228 6.49500E+00 2.12625E+01 0.00000E+00
 -1      2229 6.49500E+00 2.27375E+01 0.00000E+00
 -1      2230 7.79400E+00 2.34750E+01 0.00000E+00
 -1      2231 6.49500E+00 1.83625E+01 0.00000E+00
 -1      2232 6.49500E+00 1.98125E+01 0.00000E+00
 -1      2233 7.79400E+00 2.05500E+01 0.00000E+00
 -1      2234 6.49500E+00 1.54125E+01 0.00000E+00
 -1      2235 6.49500E+00 1.68875E+01 0.00000E+00
 -1      2236 7.79400E+00 1.76250E+01 0.00000E+00
 -1      2237 6.49500E+00 1.24625E+01 0.00000E+00
 -1      2238 6.49500E+00 1.39375E+01 0.00000E+00
 -1      2239 7.79400E+00 1.46750E+01 0.00000E+00
 -1      2240 6.49500E+00 9.51250E+00 0.00000E+00
 -1      2241 6.49500E+00 1.09875E+01 0.00000E+00
 -1      2242 7.79400E+00 1.17250E+01 0.00000E+00
 -1      2243 1.37850E+01 5.30525E+00 0.00000E+00
 -1      2244 1.22850E+01 5.30525E+00 0.00000E+00
 -1      2245 1.15350E+01 6.60425E+00 0.00000E+00
 -1      2246 9.90000E+00 4.35050E+01 0.00000E+00
 -1      2247 1.14000E+01 4.35050E+01 0.00000E+00
 -1      2248 5.64190E+01 1.98735E+01 0.00000E+00
 -1      2249 5.71093E+01 2.04990E+01 0.00000E+00
 -1      2250 1.29000E+01 4.35050E+01 0.00000E+00
 -1      2251 1.44000E+01 4.35050E+01 0.00000E+00
 -1      2252 1.21500E+01 4.22060E+01 0.00000E+00
 -1      2253 1.59000E+01 4.35050E+01 0.00000E+00
 -1      2254 1.74000E+01 4.35050E+01 0.00000E+00
 -1      2255 1.51500E+01 4.22060E+01 0.00000E+00
 -1      2256 1.89000E+01 4.35050E+01 0.00000E+00
 -1      2257 2.04000E+01 4.35050E+01 0.00000E+00
 -1      2258 1.81500E+01 4.22060E+01 0.00000E+00
 -1      2259 2.19000E+01 4.35050E+01 0.00000E+00
 -1      2260 2.34000E+01 4.35050E+01 0.00000E+00
 -1      2261 2.11500E+01 4.22060E+01 0.00000E+00
 -1      2262 2.49000E+01 4.35050E+01 0.00000E+00
 -1      2263 2.64000E+01 4.35050E+01 0.00000E+00
 -1      2264 2.41500E+01 4.22060E+01 0.00000E+00
 -1      2265 2.79000E+01 4.35050E+01 0.00000E+00
 -1      2266 2.94000E+01 4.35050E+01 0.00000E+00
 -1      2267 2.71500E+01 4.22060E+01 0.00000E+00
 -1      2268 3.09000E+01 4.35050E+01 0.00000E+00
 -1      2269 3.24000E+01 4.35050E+01 0.00000E+00
 -1      2270 3.01500E+01 4.22060E+01 0.00000E+00
 -1      2271 3.39000E+01 4.35050E+01 0.00000E+00
 -1      2272 3.54000E+01 4.35050E+01 0.00000E+00
 -1      2273 3.31500E+01 4.22060E+01 0.00000E+00
 -1      2274 3.69000E+01 4.35050E+01 0.00000E+00
 -1      2275 3.84000E+01 4.35050E+01 0.00000E+00
 -1      2276 3.61500E+01 4.22060E+01 0.00000E+00
 -1      2277 3.99000E+01 4.35050E+01 0.00000E+00
 -1      2278 4.14000E+01 4.35050E+01 0.00000E+00
 -1      2279 3.91500E+01 4.22060E+01 0.00000E+00
 -1      2280 4.29000E+01 4.35050E+01 0.00000E+00
 -1      2281 4.44000E+01 4.35050E+01 0.00000E+00
 -1      2282 4.21500E+01 4.22060E+01 0.00000E+00
 -1      2283 4.59000E+01 4.35050E+01 0.00000E+00
 -1      2284 4.74000E+01 4.35050E+01 0.00000E+00
 -1      2285 4.51500E+01 4.22060E+01 0.00000E+00
 -1      2286 4.89000E+01 4.35050E+01 0.00000E+00
 -1      2287 5.04000E+01 4.35050E+01 0.00000E+00
 -1      2288 4.81500E+01 4.22060E+01 0.00000E+00
 -1      2289 5.19000E+01 4.35050E+01 0.00000E+00
 -1      2290 5.34000E+01 4.35050E+01 0.00000E+00
 -1      2291 5.11500E+01 4.22060E+01 0.00000E+00
 -1      2292 5.49000E+01 4.35050E+01 0.00000E+00
 -1      2293 5.64000E+01 4.35050E+01 0.00000E+00
 -1      2294 5.41500E+01 4.22060E+01 0.00000E+00
 -1      2295 5.79000E+01 4.35050E+01 0.00000E+00
 -1      2296 5.94000E+01 4.35050E+01 0.00000E+00
 -1      2297 5.71500E+01 4.22060E+01 0.00000E+00
 -1      2298 6.09000E+01 4.35050E+01 0.00000E+00
 -1      2299 6.24000E+01 4.35050E+01 0.00000E+00
 -1      2300 6.01500E+01 4.22060E+01 0.00000E+00
 -1      2301 6.39000E+01 4.35050E+01 0.00000E+00
 -1      2302 6.54000E+01 4.35050E+01 0.00000E+00
 -1      2303 6.31500E+01 4.22060E+01 0.00000E+00
 -1      2304 6.69000E+01 4.35050E+01 0.00000E+00
 -1      2305 6.84000E+01 4.35050E+01 0.00000E+00
 -1      2306 6.61500E+01 4.22060E+01 0.00000E+00
 -1      2307 6.99000E+01 4.35050E+01 0.00000E+00
 -1      2308 7.14000E+01 4.35050E+01 0.00000E+00
 -1      2309 6.91500E+01 4.22060E+01 0.00000E+00
 -1      2310 7.29000E+01 4.35050E+01 0.00000E+00
 -1      2311 7.44000E+01 4.35050E+01 0.00000E+00
 -1      2312 7.21500E+01 4.22060E+01 0.00000E+00
 -1      2313 7.59000E+01 4.35050E+01 0.00000E+00
 -1      2314 7.74000E+01 4.35050E+01 0.00000E+00
 -1      2315 7.51500E+01 4.22060E+01 0.00000E+00
 -1      2316 7.89000E+01 4.35050E+01 0.00000E+00
 -1      2317 8.04000E+01 4.35050E+01 0.00000E+00
 -1      2318 7.81500E+01 4.22060E+01 0.00000E+00
 -1      2319 8.19000E+01 4.35050E+01 0.00000E+00
 -1      2320 8.34000E+01 4.35050E+01 0.00000E+00
 -1      2321 8.11500E+01 4.22060E+01 0.00000E+00
 -1      2322 8.49000E+01 4.35050E+01 0.00000E+00
 -1      2323 8.64000E+01 4.35050E+01 0.00000E+00
 -1      2324 8.41500E+01 4.22060E+01 0.00000E+00
 -1      2325 8.79000E+01 4.35050E+01 0.00000E+00
 -1      2326 8.94000E+01 4.35050E+01 0.00000E+00
 -1      2327 8.71500E+01 4.22060E+01 0.00000E+00
 -1      2328 9.09000E+01 4.35050E+01 0.00000E+00
 -1      2329 9.24000E+01 4.35050E+01 0.00000E+00
 -1      2330 9.01500E+01 4.22060E+01 0.00000E+00
 -1      2331 9.39000E+01 4.35050E+01 0.00000E+00
 -1      2332 9.54000E+01 4.35050E+01 0.00000E+00
 -1      2333 9.31500E+01 4.22060E+01 0.00000E+00
 -1      2334 9.69000E+01 4.35050E+01 0.00000E+00
 -1      2335 9.84000E+01 4.35050E+01 0.00000E+00
 -1      2336 9.61500E+01 4.22060E+01 0.00000E+00
 -1      2337 9.99000E+01 4.35050E+01 0.00000E+00
 -1      2338 1.01400E+02 4.35050E+01 0.00000E+00
 -1      2339 9.91500E+01 4.22060E+01 0.00000E+00
 -1      2340 1.02900E+02 4.35050E+01 0.00000E+00
 -1      2341 1.04400E+02 4.35050E+01 0.00000E+00
 -1      2342 1.02150E+02 4.22060E+01 0.00000E+00
 -1      2343 1.05900E+02 4.35050E+01 0.00000E+00
 -1      2344 1.07400E+02 4.35050E+01 0.00000E+00
 -1      2345 1.05150E+02 4.22060E+01 0.00000E+00
 -1      2346 1.08900E+02 4.35050E+01 0.00000E+00
 -1      2347 1.10400E+02 4.35050E+01 0.00000E+00
 -1      2348 1.08150E+02 4.22060E+01 0.00000E+00
 -1      2349 1.11900E+02 4.35050E+01 0.00000E+00
 -1      2350 1.13400E+02 4.35050E+01 0.00000E+00
 -1      2351 1.11150E+02 4.22060E+01 0.00000E+00
 -1      2352 1.14900E+02 4.35050E+01 0.00000E+00
 -1      2353 1.16400E+02 4.35050E+01 0.00000E+00
 -1      2354 1.14150E+02 4.22060E+01 0.00000E+00
 -1      2355 1.17900E+02 4.35050E+01 0.00000E+00
 -1      2356 1.19400E+02 4.35050E+01 0.00000E+00
 -1      2357 1.17150E+02 4.22060E+01 0.00000E+00
 -1      2358 1.20900E+02 4.35050E+01 0.00000E+00
 -1      2359 1.22400E+02 4.35050E+01 0.00000E+00
 -1      2360 1.20150E+02 4.22060E+01 0.00000E+00
 -1      2361 1.23900E+02 4.35050E+01 0.00000E+00
 -1      2362 1.25400E+02 4.35050E+01 0.00000E+00
 -1      2363 1.23150E+02 4.22060E+01 0.00000E+00
 -1      2364 1.26900E+02 4.35050E+01 0.00000E+00
 -1      2365 1.28400E+02 4.35050E+01 0.00000E+00
 -1      2366 1.26150E+02 4.22060E+01 0.00000E+00
 -1      2367 1.29900E+02 4.35050E+01 0.00000E+00
 -1      2368 1.31400E+02 4.35050E+01 0.00000E+00
 -1      2369 1.29150E+02 4.22060E+01 0.00000E+00
 -1      2370 1.32900E+02 4.35050E+01 0.00000E+00
 -1      2371 1.34400E+02 4.35050E+01 0.00000E+00
 -1      2372 1.32150E+02 4.22060E+01 0.00000E+00
 -1      2373 1.35900E+02 4.35050E+01 0.00000E+00
 -1      2374 1.37400E+02 4.35050E+01 0.00000E+00
 -1      2375 1.35150E+02 4.22060E+01 0.00000E+00
 -1      2376 1.38900E+02 4.35050E+01 0.00000E+00
 -1      2377 1.40400E+02 4.35050E+01 0.00000E+00
 -1      2378 1.38150E+02 4.22060E+01 0.00000E+00
 -1      2379 1.97850E+01 5.30525E+00 0.00000E+00
 -1      2380 1.82850E+01 5.30525E+00 0.00000E+00
 -1      2381 2.27850E+01 5.30525E+00 0.00000E+00
 -1      2382 2.12850E+01 5.30525E+00 0.00000E+00
 -1      2383 2.05350E+01 6.60425E+00 0.00000E+00
 -1      2384 2.57850E+01 5.30525E+00 0.00000E+00
 -1      2385 2.42850E+01 5.30525E+00 0.00000E+00
 -1      2386 2.35350E+01 6.60425E+00 0.00000E+00
 -1      2387 2.87850E+01 5.30525E+00 0.00000E+00
 -1      2388 2.72850E+01 5.30525E+00 0.00000E+00
 -1      2389 2.65350E+01 6.60425E+00 0.00000E+00
 -1      2390 3.17850E+01 5.30525E+00 0.00000E+00
 -1      2391 3.02850E+01 5.30525E+00 0.00000E+00
 -1      2392 2.95350E+01 6.60425E+00 0.00000E+00
 -1      2393 3.47850E+01 5.30525E+00 0.00000E+00
 -1      2394 3.32850E+01 5.30525E+00 0.00000E+00
 -1      2395 3.25350E+01 6.60425E+00 0.00000E+00
 -1      2396 3.77850E+01 5.30525E+00 0.00000E+00
 -1      2397 3.62850E+01 5.30525E+00 0.00000E+00
 -1      2398 3.55350E+01 6.60425E+00 0.00000E+00
 -1      2399 4.07850E+01 5.30525E+00 0.00000E+00
 -1      2400 3.92850E+01 5.30525E+00 0.00000E+00
 -1      2401 3.85350E+01 6.60425E+00 0.00000E+00
 -1      2402 4.37850E+01 5.30525E+00 0.00000E+00
 -1      2403 4.22850E+01 5.30525E+00 0.00000E+00
 -1      2404 4.15350E+01 6.60425E+00 0.00000E+00
 -1      2405 4.67850E+01 5.30525E+00 0.00000E+00
 -1      2406 4.52850E+01 5.30525E+00 0.00000E+00
 -1      2407 4.45350E+01 6.60425E+00 0.00000E+00
 -1      2408 4.97850E+01 5.30525E+00 0.00000E+00
 -1      2409 4.82850E+01 5.30525E+00 0.00000E+00
 -1      2410 4.75350E+01 6.60425E+00 0.00000E+00
 -1      2411 5.27850E+01 5.30525E+00 0.00000E+00
 -1      2412 5.12850E+01 5.30525E+00 0.00000E+00
 -1      2413 5.05350E+01 6.60425E+00 0.00000E+00
 -1      2414 5.57850E+01 5.30525E+00 0.00000E+00
 -1      2415 5.42850E+01 5.30525E+00 0.00000E+00
 -1      2416 5.35350E+01 6.60425E+00 0.00000E+00
 -1      2417 5.87850E+01 5.30525E+00 0.00000E+00
 -1      2418 5.72850E+01 5.30525E+00 0.00000E+00
 -1      2419 5.65350E+01 6.60425E+00 0.00000E+00
 -1      2420 6.17850E+01 5.30525E+00 0.00000E+00
 -1      2421 6.02850E+01 5.30525E+00 0.00000E+00
 -1      2422 5.95350E+01 6.60425E+00 0.00000E+00
 -1      2423 6.47850E+01 5.30525E+00 0.00000E+00
 -1      2424 6.32850E+01 5.30525E+00 0.00000E+00
 -1      2425 6.25350E+01 6.60425E+00 0.00000E+00
 -1      2426 6.77850E+01 5.30525E+00 0.00000E+00
 -1      2427 6.62850E+01 5.30525E+00 0.00000E+00
 -1      2428 6.55350E+01 6.60425E+00 0.00000E+00
 -1      2429 7.07850E+01 5.30525E+00 0.00000E+00
 -1      2430 6.92850E+01 5.30525E+00 0.00000E+00
 -1      2431 6.85350E+01 6.60425E+00 0.00000E+00
 -1      2432 7.37850E+01 5.30525E+00 0.00000E+00
 -1      2433 7.22850E+01 5.30525E+00 0.00000E+00
 -1      2434 7.15350E+01 6.60425E+00 0.00000E+00
 -1      2435 7.67850E+01 5.30525E+00 0.00000E+00
 -1      2436 7.52850E+01 5.30525E+00 0.00000E+00
 -1      2437 7.45350E+01 6.60425E+00 0.00000E+00
 -1      2438 7.97850E+01 5.30525E+00 0.00000E+00
 -1      2439 7.82850E+01 5.30525E+00 0.00000E+00
 -1      2440 7.75350E+01 6.60425E+00 0.00000E+00
 -1      2441 8.27850E+01 5.30525E+00 0.00000E+00
 -1      2442 8.12850E+01 5.30525E+00 0.00000E+00
 -1      2443 8.05350E+01 6.60425E+00 0.00000E+00
 -1      2444 8.57850E+01 5.30525E+00 0.00000E+00
 -1      2445 8.42850E+01 5.30525E+00 0.00000E+00
 -1      2446 8.35350E+01 6.60425E+00 0.00000E+00
 -1      2447 8.87850E+01 5.30525E+00 0.00000E+00
 -1      2448 8.72850E+01 5.30525E+00 0.00000E+00
 -1      2449 8.65350E+01 6.60425E+00 0.00000E+00
 -1      2450 9.17850E+01 5.30525E+00 0.00000E+00
 -1      2451 9.02850E+01 5.30525E+00 0.00000E+00
 -1      2452 8.95350E+01 6.60425E+00 0.00000E+00
 -1      2453 9.47850E+01 5.30525E+00 0.00000E+00
 -1      2454 9.32850E+01 5.30525E+00 0.00000E+00
 -1      2455 9.25350E+01 6.60425E+00 0.00000E+00
 -1      2456 9.77850E+01 5.30525E+00 0.00000E+00
 -1      2457 9.62850E+01 5.30525E+00 0.00000E+00
 -1      2458 9.55350E+01 6.60425E+00 0.00000E+00
 -1      2459 1.00785E+02 5.30525E+00 0.00000E+00
 -1      2460 9.92850E+01 5.30525E+00 0.00000E+00
 -1      2461 9.85350E+01 6.60425E+00 0.00000E+00
 -1      2462 1.03785E+02 5.30525E+00 0.00000E+00
 -1      2463 1.02285E+02 5.30525E+00 0.00000E+00
 -1      2464 1.01535E+02 6.60425E+00 0.00000E+00
 -1      2465 1.06785E+02 5.30525E+00 0.00000E+00
 -1      2466 1.05285E+02 5.30525E+00 0.00000E+00
 -1      2467 1.04535E+02 6.60425E+00 0.00000E+00
 -1      2468 1.09785E+02 5.30525E+00 0.00000E+00
 -1      2469 1.08285E+02 5.30525E+00 0.00000E+00
 -1      2470 1.07535E+02 6.60425E+00 0.00000E+00
 -1      2471 1.12785E+02 5.30525E+00 0.00000E+00
 -1      2472 1.11285E+02 5.30525E+00 0.00000E+00
 -1      2473 1.10535E+02 6.60425E+00 0.00000E+00
 -1      2474 1.15785E+02 5.30525E+00 0.00000E+00
 -1      2475 1.14285E+02 5.30525E+00 0.00000E+00
 -1      2476 1.13535E+02 6.60425E+00 0.00000E+00
 -1      2477 1.18785E+02 5.30525E+00 0.00000E+00
 -1      2478 1.17285E+02 5.30525E+00 0.00000E+00
 -1      2479 1.16535E+02 6.60425E+00 0.00000E+00
 -1      2480 1.21785E+02 5.30525E+00 0.00000E+00
 -1      2481 1.20285E+02 5.30525E+00 0.00000E+00
 -1      2482 1.19535E+02 6.60425E+00 0.00000E+00
 -1      2483 1.24785E+02 5.30525E+00 0.00000E+00
 -1      2484 1.23285E+02 5.30525E+00 0.00000E+00
 -1      2485 1.22535E+02 6.60425E+00 0.00000E+00
 -1      2486 1.27785E+02 5.30525E+00 0.00000E+00
 -1      2487 1.26285E+02 5.30525E+00 0.00000E+00
 -1      2488 1.25535E+02 6.60425E+00 0.00000E+00
 -1      2489 1.30785E+02 5.30525E+00 0.00000E+00
 -1      2490 1.29285E+02 5.30525E+00 0.00000E+00
 -1      2491 1.28535E+02 6.60425E+00 0.00000E+00
 -1      2492 1.33785E+02 5.30525E+00 0.00000E+00
 -1      2493 1.32285E+02 5.30525E+00 0.00000E+00
 -1      2494 1.31535E+02 6.60425E+00 0.00000E+00
 -1      2495 1.36785E+02 5.30525E+00 0.00000E+00
 -1      2496 1.35285E+02 5.30525E+00 0.00000E+00
 -1      2497 1.34535E+02 6.60425E+00 0.00000E+00
 -1      2498 1.39785E+02 5.30525E+00 0.00000E+00
 -1      2499 1.38285E+02 5.30525E+00 0.00000E+00
 -1      2500 1.37535E+02 6.60425E+00 0.00000E+00
 -1      2501 1.42785E+02 5.30525E+00 0.00000E+00
 -1      2502 1.41285E+02 5.30525E+00 0.00000E+00
 -1      2503 1.40535E+02 6.60425E+00 0.00000E+00
 -1      2504 1.44336E+02 5.26953E+00 0.00000E+00
 -1      2505 1.43505E+02 1.69125E+01 0.00000E+00
 -1      2506 1.43505E+02 1.54375E+01 0.00000E+00
 -1      2507 1.43505E+02 1.98625E+01 0.00000E+00
 -1      2508 1.43505E+02 1.83875E+01 0.00000E+00
 -1      2509 1.42206E+02 1.76500E+01 0.00000E+00
 -1      2510 1.43505E+02 1.10625E+01 0.00000E+00
 -1      2511 1.43505E+02 9.58750E+00 0.00000E+00
 -1      2512 1.43505E+02 1.39750E+01 0.00000E+00
 -1      2513 1.43505E+02 1.25250E+01 0.00000E+00
 -1      2514 1.42206E+02 1.17875E+01 0.00000E+00
 -1      2515 1.42206E+02 1.47125E+01 0.00000E+00
 -1      2516 1.43505E+02 2.28125E+01 0.00000E+00
 -1      2517 1.43505E+02 2.13375E+01 0.00000E+00
 -1      2518 1.42206E+02 2.06000E+01 0.00000E+00
 -1      2519 1.43505E+02 2.57625E+01 0.00000E+00
 -1      2520 1.43505E+02 2.42875E+01 0.00000E+00
 -1      2521 1.42206E+02 2.35500E+01 0.00000E+00
 -1      2522 1.43505E+02 2.87125E+01 0.00000E+00
 -1      2523 1.43505E+02 2.72375E+01 0.00000E+00
 -1      2524 1.42206E+02 2.65000E+01 0.00000E+00
 -1      2525 1.43505E+02 3.16125E+01 0.00000E+00
 -1      2526 1.43505E+02 3.01625E+01 0.00000E+00
 -1      2527 1.42206E+02 2.94250E+01 0.00000E+00
 -1      2528 1.43505E+02 3.45625E+01 0.00000E+00
 -1      2529 1.43505E+02 3.30875E+01 0.00000E+00
 -1      2530 1.42206E+02 3.23500E+01 0.00000E+00
 -1      2531 1.43505E+02 3.75125E+01 0.00000E+00
 -1      2532 1.43505E+02 3.60375E+01 0.00000E+00
 -1      2533 1.42206E+02 3.53000E+01 0.00000E+00
 -1      2534 1.43505E+02 4.04625E+01 0.00000E+00
 -1      2535 1.43505E+02 3.89875E+01 0.00000E+00
 -1      2536 1.42206E+02 3.82500E+01 0.00000E+00
 -1      2537 6.10424E+01 2.70521E+01 0.00000E+00
 -1      2538 6.10509E+01 2.81041E+01 0.00000E+00
 -1      2539 5.93411E+01 2.30634E+01 0.00000E+00
 -1      2540 5.97028E+01 2.39354E+01 0.00000E+00
 -1      2541 1.67850E+01 5.30525E+00 0.00000E+00
 -1      2542 1.52850E+01 5.30525E+00 0.00000E+00
 -1      2543 1.75350E+01 6.60425E+00 0.00000E+00
 -1      2544 5.43826E+01 1.86023E+01 0.00000E+00
 -1      2545 5.54021E+01 1.91642E+01 0.00000E+00
 -1      2546 1.44321E+02 4.30606E+01 0.00000E+00
 -1      2547 6.06294E+01 3.10976E+01 0.00000E+00
 -1      2548 6.02811E+01 3.21885E+01 0.00000E+00
 -1      2549 6.02086E+01 2.48680E+01 0.00000E+00
 -1      2550 6.07145E+01 2.58006E+01 0.00000E+00
 -1      2551 6.07425E+01 2.41356E+01 0.00000E+00
 -1      2552 6.09654E+01 2.89376E+01 0.00000E+00
 -1      2553 6.08799E+01 2.97711E+01 0.00000E+00
 -1      2554 6.18187E+01 2.84047E+01 0.00000E+00
 -1      2555 4.91348E+01 3.90570E+01 0.00000E+00
 -1      2556 4.80010E+01 3.86983E+01 0.00000E+00
 -1      2557 4.75821E+01 1.82797E+01 0.00000E+00
 -1      2558 4.87353E+01 1.81678E+01 0.00000E+00
 -1      2559 6.49500E+00 2.71625E+01 0.00000E+00
 -1      2560 6.49500E+00 2.86375E+01 0.00000E+00
 -1      2561 7.79400E+00 2.93750E+01 0.00000E+00
 -1      2562 7.79400E+00 2.64250E+01 0.00000E+00
 -1      2563 4.99380E+01 1.82976E+01 0.00000E+00
 -1      2564 5.09411E+01 1.83413E+01 0.00000E+00
 -1      2565 4.03106E+01 2.67034E+01 0.00000E+00
 -1      2566 4.03459E+01 2.57288E+01 0.00000E+00
 -1      2567 5.19661E+01 1.83094E+01 0.00000E+00
 -1      2568 5.29911E+01 1.82776E+01 0.00000E+00
 -1      2569 5.14982E+01 1.75145E+01 0.00000E+00
 -1      2570 4.54123E+01 1.90577E+01 0.00000E+00
 -1      2571 4.61946E+01 1.86083E+01 0.00000E+00
 -1      2572 4.35205E+01 2.07367E+01 0.00000E+00
 -1      2573 4.44664E+01 1.98972E+01 0.00000E+00
 -1      2574 4.43470E+01 1.87836E+01 0.00000E+00
 -1      2575 4.22033E+01 2.24315E+01 0.00000E+00
 -1      2576 4.27546E+01 2.17263E+01 0.00000E+00
 -1      2577 5.56750E+01 3.76004E+01 0.00000E+00
 -1      2578 5.48345E+01 3.81545E+01 0.00000E+00
 -1      2579 4.08321E+01 2.42999E+01 0.00000E+00
 -1      2580 4.14905E+01 2.32940E+01 0.00000E+00
 -1      2581 4.00545E+01 2.86501E+01 0.00000E+00
 -1      2582 4.01826E+01 2.76768E+01 0.00000E+00
 -1      2583 3.93432E+01 2.71585E+01 0.00000E+00
 -1      2584 4.02097E+01 3.07205E+01 0.00000E+00
 -1      2585 4.00979E+01 2.97513E+01 0.00000E+00
 -1      2586 4.08974E+01 3.28286E+01 0.00000E+00
 -1      2587 4.04780E+01 3.19515E+01 0.00000E+00
 -1      2588 4.17442E+01 3.45626E+01 0.00000E+00
 -1      2589 4.13208E+01 3.36956E+01 0.00000E+00
 -1      2590 4.02619E+01 3.36631E+01 0.00000E+00
 -1      2591 4.31388E+01 3.65054E+01 0.00000E+00
 -1      2592 4.24062E+01 3.56880E+01 0.00000E+00
 -1      2593 4.53041E+01 3.76224E+01 0.00000E+00
 -1      2594 4.43937E+01 3.72817E+01 0.00000E+00
 -1      2595 4.70535E+01 3.83579E+01 0.00000E+00
 -1      2596 4.62516E+01 3.79628E+01 0.00000E+00
 -1      2597 4.54665E+01 3.86741E+01 0.00000E+00
 -1      2598 4.73617E+01 3.93549E+01 0.00000E+00
 -1      2599 5.13646E+01 3.93167E+01 0.00000E+00
 -1      2600 5.04923E+01 3.93985E+01 0.00000E+00
 -1      2601 5.36479E+01 3.88470E+01 0.00000E+00
 -1      2602 5.25063E+01 3.90818E+01 0.00000E+00
 -1      2603 5.21658E+01 4.01434E+01 0.00000E+00
 -1      2604 5.72417E+01 3.65407E+01 0.00000E+00
 -1      2605 5.64584E+01 3.70705E+01 0.00000E+00
 -1      2606 5.64639E+01 3.79936E+01 0.00000E+00
 -1      2607 5.87508E+01 3.49069E+01 0.00000E+00
 -1      2608 5.81827E+01 3.56979E+01 0.00000E+00
 -1      2609 5.97132E+01 3.32580E+01 0.00000E+00
 -1      2610 5.92344E+01 3.40329E+01 0.00000E+00
 -1      2611 6.55950E+00 4.28890E+01 0.00000E+00
 -1      2612 8.53650E+00 4.32410E+01 0.00000E+00
 -1      2613 9.28650E+00 4.19420E+01 0.00000E+00
 -1      2614 6.55950E+00 4.14140E+01 0.00000E+00
 -1      2615 8.07525E+00 5.11044E+00 0.00000E+00
 -1      2616 6.57525E+00 5.11044E+00 0.00000E+00
 -1      2617 6.40575E+00 6.01981E+00 0.00000E+00
 -1      2618 8.82525E+00 6.40944E+00 0.00000E+00
 -1      2619 5.78928E+01 2.12373E+01 0.00000E+00
 -1      2620 5.86762E+01 2.19756E+01 0.00000E+00
 -1      2621 5.81234E+01 2.02891E+01 0.00000E+00
 -1      2622 4.66803E+01 1.76154E+01 0.00000E+00
 -1      2623 7.79400E+00 3.52687E+01 0.00000E+00
 -1      2624 6.49500E+00 3.60062E+01 0.00000E+00
 -1      2625 6.49500E+00 3.74750E+01 0.00000E+00
 -1      2626 1.45350E+01 6.60425E+00 0.00000E+00
 -1      2627 6.40575E+00 7.49481E+00 0.00000E+00
 -1      2628 6.06643E+01 3.29606E+01 0.00000E+00
 -1      2629 1.43586E+02 6.56853E+00 0.00000E+00
 -1      2630 5.95718E+01 2.21152E+01 0.00000E+00
 -1      2631 1.43419E+02 7.72713E+00 0.00000E+00
 -1      2632 6.55950E+00 3.99453E+01 0.00000E+00
 -1      2633 4.96667E+01 4.00368E+01 0.00000E+00
 -1      2634 6.15763E+01 2.63196E+01 0.00000E+00
 -1      2635 6.14827E+01 3.05647E+01 0.00000E+00
 -1      2636 7.70475E+00 8.23231E+00 0.00000E+00
 -1      2637 5.39147E+01 1.78074E+01 0.00000E+00
 -1      2638 5.48384E+01 1.73373E+01 0.00000E+00
 -1      2639 5.34469E+01 1.70126E+01 0.00000E+00
 -1      2640 1.42758E+02 4.35929E+01 0.00000E+00
 -1      2641 1.43241E+02 4.17323E+01 0.00000E+00
 -1      2642 1.41942E+02 4.09948E+01 0.00000E+00
 -1      2643 1.41414E+02 4.35342E+01 0.00000E+00
 -1      2644 4.13472E+01 3.56556E+01 0.00000E+00
 -1      2645 3.92585E+01 2.92330E+01 0.00000E+00
 -1      2646 3.99575E+01 2.47562E+01 0.00000E+00
 -1      2647 3.95692E+01 2.37836E+01 0.00000E+00
 -1      2648 3.90829E+01 2.52126E+01 0.00000E+00
 -1      2649 4.92705E+01 1.74166E+01 0.00000E+00
 -1      2650 5.81883E+01 3.66210E+01 0.00000E+00
 -1      2651 4.26353E+01 2.06127E+01 0.00000E+00
 -1      2652 5.63231E+01 1.88415E+01 0.00000E+00
 -1      2653 4.11566E+01 2.24648E+01 0.00000E+00
 -1      2654 5.44940E+01 3.92160E+01 0.00000E+00
 -1      2655 3.95702E+01 3.15652E+01 0.00000E+00
 -1      2656 4.32641E+01 3.75573E+01 0.00000E+00
 -1      2657 1.42120E+02 8.46463E+00 0.00000E+00
 -1      2658 5.96129E+01 3.49042E+01 0.00000E+00
 -1      2659 1.40664E+02 4.22352E+01 0.00000E+00
 -1      2660 9.09300E+00 1.98250E+01 0.00000E+00
 -1      2661 9.09300E+00 2.12750E+01 0.00000E+00
 -1      2662 9.09300E+00 2.27500E+01 0.00000E+00
 -1      2663 9.09300E+00 2.42250E+01 0.00000E+00
 -1      2664 1.03920E+01 2.20250E+01 0.00000E+00
 -1      2665 9.09300E+00 1.39375E+01 0.00000E+00
 -1      2666 9.09300E+00 1.54125E+01 0.00000E+00
 -1      2667 9.09300E+00 1.09875E+01 0.00000E+00
 -1      2668 9.09300E+00 1.24625E+01 0.00000E+00
 -1      2669 1.03920E+01 1.32000E+01 0.00000E+00
 -1      2670 1.22850E+01 7.90325E+00 0.00000E+00
 -1      2671 1.07850E+01 7.90325E+00 0.00000E+00
 -1      2672 5.84348E+01 1.91739E+01 0.00000E+00
 -1      2673 5.92182E+01 1.99122E+01 0.00000E+00
 -1      2674 8.91450E+00 8.42712E+00 0.00000E+00
 -1      2675 4.57310E+01 1.67007E+01 0.00000E+00
 -1      2676 4.71185E+01 1.63721E+01 0.00000E+00
 -1      2677 1.44000E+01 4.09070E+01 0.00000E+00
 -1      2678 1.59000E+01 4.09070E+01 0.00000E+00
 -1      2679 1.74000E+01 4.09070E+01 0.00000E+00
 -1      2680 1.89000E+01 4.09070E+01 0.00000E+00
 -1      2681 1.66500E+01 3.96080E+01 0.00000E+00
 -1      2682 2.04000E+01 4.09070E+01 0.00000E+00
 -1      2683 2.19000E+01 4.09070E+01 0.00000E+00
 -1      2684 1.96500E+01 3.96080E+01 0.00000E+00
 -1      2685 2.34000E+01 4.09070E+01 0.00000E+00
 -1      2686 2.49000E+01 4.09070E+01 0.00000E+00
 -1      2687 2.26500E+01 3.96080E+01 0.00000E+00
 -1      2688 2.64000E+01 4.09070E+01 0.00000E+00
 -1      2689 2.79000E+01 4.09070E+01 0.00000E+00
 -1      2690 2.56500E+01 3.96080E+01 0.00000E+00
 -1      2691 2.94000E+01 4.09070E+01 0.00000E+00
 -1      2692 3.09000E+01 4.09070E+01 0.00000E+00
 -1      2693 2.86500E+01 3.96080E+01 0.00000E+00
 -1      2694 3.24000E+01 4.09070E+01 0.00000E+00
 -1      2695 3.39000E+01 4.09070E+01 0.00000E+00
 -1      2696 3.16500E+01 3.96080E+01 0.00000E+00
 -1      2697 3.54000E+01 4.09070E+01 0.00000E+00
 -1      2698 3.69000E+01 4.09070E+01 0.00000E+00
 -1      2699 3.46500E+01 3.96080E+01 0.00000E+00
 -1      2700 3.84000E+01 4.09070E+01 0.00000E+00
 -1      2701 3.99000E+01 4.09070E+01 0.00000E+00
 -1      2702 3.76500E+01 3.96080E+01 0.00000E+00
 -1      2703 5.03371E+01 4.12921E+01 0.00000E+00
 -1      2704 5.18371E+01 4.12921E+01 0.00000E+00
 -1      2705 5.29787E+01 4.10573E+01 0.00000E+00
 -1      2706 5.44787E+01 4.10573E+01 0.00000E+00
 -1      2707 5.64000E+01 4.10971E+01 0.00000E+00
 -1      2708 5.79000E+01 4.10971E+01 0.00000E+00
 -1      2709 5.94000E+01 4.10971E+01 0.00000E+00
 -1      2710 6.09000E+01 4.10971E+01 0.00000E+00
 -1      2711 5.86500E+01 3.99882E+01 0.00000E+00
 -1      2712 6.24000E+01 4.10971E+01 0.00000E+00
 -1      2713 6.39000E+01 4.10971E+01 0.00000E+00
 -1      2714 6.16500E+01 3.99882E+01 0.00000E+00
 -1      2715 6.54000E+01 4.10971E+01 0.00000E+00
 -1      2716 6.69000E+01 4.10971E+01 0.00000E+00
 -1      2717 6.46500E+01 3.99882E+01 0.00000E+00
 -1      2718 6.84000E+01 4.10971E+01 0.00000E+00
 -1      2719 6.99000E+01 4.10971E+01 0.00000E+00
 -1      2720 6.76500E+01 3.99882E+01 0.00000E+00
 -1      2721 7.14000E+01 4.10971E+01 0.00000E+00
 -1      2722 7.29000E+01 4.10971E+01 0.00000E+00
 -1      2723 7.06500E+01 3.99882E+01 0.00000E+00
 -1      2724 7.44000E+01 4.10971E+01 0.00000E+00
 -1      2725 7.59000E+01 4.10971E+01 0.00000E+00
 -1      2726 7.36500E+01 3.99882E+01 0.00000E+00
 -1      2727 7.74000E+01 4.10971E+01 0.00000E+00
 -1      2728 7.89000E+01 4.10971E+01 0.00000E+00
 -1      2729 7.66500E+01 3.99882E+01 0.00000E+00
 -1      2730 8.04000E+01 4.10971E+01 0.00000E+00
 -1      2731 8.19000E+01 4.10971E+01 0.00000E+00
 -1      2732 7.96500E+01 3.99882E+01 0.00000E+00
 -1      2733 8.34000E+01 4.10971E+01 0.00000E+00
 -1      2734 8.49000E+01 4.10971E+01 0.00000E+00
 -1      2735 8.26500E+01 3.99882E+01 0.00000E+00
 -1      2736 8.64000E+01 4.10971E+01 0.00000E+00
 -1      2737 8.79000E+01 4.10971E+01 0.00000E+00
 -1      2738 8.56500E+01 3.99882E+01 0.00000E+00
 -1      2739 8.94000E+01 4.10971E+01 0.00000E+00
 -1      2740 9.09000E+01 4.10971E+01 0.00000E+00
 -1      2741 8.86500E+01 3.99882E+01 0.00000E+00
 -1      2742 9.24000E+01 4.10971E+01 0.00000E+00
 -1      2743 9.39000E+01 4.10971E+01 0.00000E+00
 -1      2744 9.16500E+01 3.99882E+01 0.00000E+00
 -1      2745 9.54000E+01 4.10971E+01 0.00000E+00
 -1      2746 9.69000E+01 4.10971E+01 0.00000E+00
 -1      2747 9.46500E+01 3.99882E+01 0.00000E+00
 -1      2748 9.84000E+01 4.10971E+01 0.00000E+00
 -1      2749 9.99000E+01 4.10971E+01 0.00000E+00
 -1      2750 9.76500E+01 3.99882E+01 0.00000E+00
 -1      2751 1.01400E+02 4.10971E+01 0.00000E+00
 -1      2752 1.02900E+02 4.10971E+01 0.00000E+00
 -1      2753 1.00650E+02 3.99882E+01 0.00000E+00
 -1      2754 1.04400E+02 4.10971E+01 0.00000E+00
 -1      2755 1.05900E+02 4.10971E+01 0.00000E+00
 -1      2756 1.03650E+02 3.99882E+01 0.00000E+00
 -1      2757 1.07400E+02 4.10971E+01 0.00000E+00
 -1      2758 1.08900E+02 4.10971E+01 0.00000E+00
 -1      2759 1.06650E+02 3.99882E+01 0.00000E+00
 -1      2760 1.10400E+02 4.10971E+01 0.00000E+00
 -1      2761 1.11900E+02 4.10971E+01 0.00000E+00
 -1      2762 1.09650E+02 3.99882E+01 0.00000E+00
 -1      2763 1.13400E+02 4.10971E+01 0.00000E+00
 -1      2764 1.14900E+02 4.10971E+01 0.00000E+00
 -1      2765 1.12650E+02 3.99882E+01 0.00000E+00
 -1      2766 1.16400E+02 4.10971E+01 0.00000E+00
 -1      2767 1.17900E+02 4.10971E+01 0.00000E+00
 -1      2768 1.15650E+02 3.99882E+01 0.00000E+00
 -1      2769 1.19400E+02 4.10971E+01 0.00000E+00
 -1      2770 1.20900E+02 4.10971E+01 0.00000E+00
 -1      2771 1.18650E+02 3.99882E+01 0.00000E+00
 -1      2772 1.22400E+02 4.10971E+01 0.00000E+00
 -1      2773 1.23900E+02 4.10971E+01 0.00000E+00
 -1      2774 1.21650E+02 3.99882E+01 0.00000E+00
 -1      2775 1.25400E+02 4.10971E+01 0.00000E+00
 -1      2776 1.26900E+02 4.10971E+01 0.00000E+00
 -1      2777 1.24650E+02 3.99882E+01 0.00000E+00
 -1      2778 1.28400E+02 4.10971E+01 0.00000E+00
 -1      2779 1.29900E+02 4.10971E+01 0.00000E+00
 -1      2780 1.27650E+02 3.99882E+01 0.00000E+00
 -1      2781 1.31400E+02 4.10971E+01 0.00000E+00
 -1      2782 1.32900E+02 4.10971E+01 0.00000E+00
 -1      2783 1.30650E+02 3.99882E+01 0.00000E+00
 -1      2784 1.34400E+02 4.10971E+01 0.00000E+00
 -1      2785 1.35900E+02 4.10971E+01 0.00000E+00
 -1      2786 1.33650E+02 3.99882E+01 0.00000E+00
 -1      2787 1.37400E+02 4.10971E+01 0.00000E+00
 -1      2788 1.38900E+02 4.10971E+01 0.00000E+00
 -1      2789 1.36650E+02 3.99882E+01 0.00000E+00
 -1      2790 2.42850E+01 7.90325E+00 0.00000E+00
 -1      2791 2.27850E+01 7.90325E+00 0.00000E+00
 -1      2792 4.07946E+01 3.67380E+01 0.00000E+00
 -1      2793 4.01327E+01 3.56126E+01 0.00000E+00
 -1      2794 2.12850E+01 7.90325E+00 0.00000E+00
 -1      2795 1.97850E+01 7.90325E+00 0.00000E+00
 -1      2796 2.20350E+01 9.20225E+00 0.00000E+00
 -1      2797 3.02850E+01 7.90325E+00 0.00000E+00
 -1      2798 2.87850E+01 7.90325E+00 0.00000E+00
 -1      2799 3.32850E+01 7.90325E+00 0.00000E+00
 -1      2800 3.17850E+01 7.90325E+00 0.00000E+00
 -1      2801 3.10350E+01 9.20225E+00 0.00000E+00
 -1      2802 3.62850E+01 7.90325E+00 0.00000E+00
 -1      2803 3.47850E+01 7.90325E+00 0.00000E+00
 -1      2804 3.40350E+01 9.20225E+00 0.00000E+00
 -1      2805 3.92850E+01 7.90325E+00 0.00000E+00
 -1      2806 3.77850E+01 7.90325E+00 0.00000E+00
 -1      2807 3.70350E+01 9.20225E+00 0.00000E+00
 -1      2808 4.22850E+01 7.90325E+00 0.00000E+00
 -1      2809 4.07850E+01 7.90325E+00 0.00000E+00
 -1      2810 4.00350E+01 9.20225E+00 0.00000E+00
 -1      2811 4.52850E+01 7.90325E+00 0.00000E+00
 -1      2812 4.37850E+01 7.90325E+00 0.00000E+00
 -1      2813 4.30350E+01 9.20225E+00 0.00000E+00
 -1      2814 4.82850E+01 7.90325E+00 0.00000E+00
 -1      2815 4.67850E+01 7.90325E+00 0.00000E+00
 -1      2816 4.60350E+01 9.20225E+00 0.00000E+00
 -1      2817 5.12850E+01 7.90325E+00 0.00000E+00
 -1      2818 4.97850E+01 7.90325E+00 0.00000E+00
 -1      2819 4.90350E+01 9.20225E+00 0.00000E+00
 -1      2820 5.42850E+01 7.90325E+00 0.00000E+00
 -1      2821 5.27850E+01 7.90325E+00 0.00000E+00
 -1      2822 5.20350E+01 9.20225E+00 0.00000E+00
 -1      2823 5.72850E+01 7.90325E+00 0.00000E+00
 -1      2824 5.57850E+01 7.90325E+00 0.00000E+00
 -1      2825 5.50350E+01 9.20225E+00 0.00000E+00
 -1      2826 6.02850E+01 7.90325E+00 0.00000E+00
 -1      2827 5.87850E+01 7.90325E+00 0.00000E+00
 -1      2828 5.80350E+01 9.20225E+00 0.00000E+00
 -1      2829 6.32850E+01 7.90325E+00 0.00000E+00
 -1      2830 6.17850E+01 7.90325E+00 0.00000E+00
 -1      2831 6.10350E+01 9.20225E+00 0.00000E+00
 -1      2832 6.62850E+01 7.90325E+00 0.00000E+00
 -1      2833 6.47850E+01 7.90325E+00 0.00000E+00
 -1      2834 6.40350E+01 9.20225E+00 0.00000E+00
 -1      2835 6.92850E+01 7.90325E+00 0.00000E+00
 -1      2836 6.77850E+01 7.90325E+00 0.00000E+00
 -1      2837 6.70350E+01 9.20225E+00 0.00000E+00
 -1      2838 7.22850E+01 7.90325E+00 0.00000E+00
 -1      2839 7.07850E+01 7.90325E+00 0.00000E+00
 -1      2840 7.00350E+01 9.20225E+00 0.00000E+00
 -1      2841 7.52850E+01 7.90325E+00 0.00000E+00
 -1      2842 7.37850E+01 7.90325E+00 0.00000E+00
 -1      2843 7.30350E+01 9.20225E+00 0.00000E+00
 -1      2844 7.82850E+01 7.90325E+00 0.00000E+00
 -1      2845 7.67850E+01 7.90325E+00 0.00000E+00
 -1      2846 7.60350E+01 9.20225E+00 0.00000E+00
 -1      2847 8.12850E+01 7.90325E+00 0.00000E+00
 -1      2848 7.97850E+01 7.90325E+00 0.00000E+00
 -1      2849 7.90350E+01 9.20225E+00 0.00000E+00
 -1      2850 8.42850E+01 7.90325E+00 0.00000E+00
 -1      2851 8.27850E+01 7.90325E+00 0.00000E+00
 -1      2852 8.20350E+01 9.20225E+00 0.00000E+00
 -1      2853 8.72850E+01 7.90325E+00 0.00000E+00
 -1      2854 8.57850E+01 7.90325E+00 0.00000E+00
 -1      2855 8.50350E+01 9.20225E+00 0.00000E+00
 -1      2856 9.02850E+01 7.90325E+00 0.00000E+00
 -1      2857 8.87850E+01 7.90325E+00 0.00000E+00
 -1      2858 8.80350E+01 9.20225E+00 0.00000E+00
 -1      2859 9.32850E+01 7.90325E+00 0.00000E+00
 -1      2860 9.17850E+01 7.90325E+00 0.00000E+00
 -1      2861 9.10350E+01 9.20225E+00 0.00000E+00
 -1      2862 9.62850E+01 7.90325E+00 0.00000E+00
 -1      2863 9.47850E+01 7.90325E+00 0.00000E+00
 -1      2864 9.40350E+01 9.20225E+00 0.00000E+00
 -1      2865 9.92850E+01 7.90325E+00 0.00000E+00
 -1      2866 9.77850E+01 7.90325E+00 0.00000E+00
 -1      2867 9.70350E+01 9.20225E+00 0.00000E+00
 -1      2868 1.02285E+02 7.90325E+00 0.00000E+00
 -1      2869 1.00785E+02 7.90325E+00 0.00000E+00
 -1      2870 1.00035E+02 9.20225E+00 0.00000E+00
 -1      2871 1.05285E+02 7.90325E+00 0.00000E+00
 -1      2872 1.03785E+02 7.90325E+00 0.00000E+00
 -1      2873 1.03035E+02 9.20225E+00 0.00000E+00
 -1      2874 1.08285E+02 7.90325E+00 0.00000E+00
 -1      2875 1.06785E+02 7.90325E+00 0.00000E+00
 -1      2876 1.06035E+02 9.20225E+00 0.00000E+00
 -1      2877 1.11285E+02 7.90325E+00 0.00000E+00
 -1      2878 1.09785E+02 7.90325E+00 0.00000E+00
 -1      2879 1.09035E+02 9.20225E+00 0.00000E+00
 -1      2880 1.14285E+02 7.90325E+00 0.00000E+00
 -1      2881 1.12785E+02 7.90325E+00 0.00000E+00
 -1      2882 1.12035E+02 9.20225E+00 0.00000E+00
 -1      2883 1.17285E+02 7.90325E+00 0.00000E+00
 -1      2884 1.15785E+02 7.90325E+00 0.00000E+00
 -1      2885 1.15035E+02 9.20225E+00 0.00000E+00
 -1      2886 1.20285E+02 7.90325E+00 0.00000E+00
 -1      2887 1.18785E+02 7.90325E+00 0.00000E+00
 -1      2888 1.18035E+02 9.20225E+00 0.00000E+00
 -1      2889 1.23285E+02 7.90325E+00 0.00000E+00
 -1      2890 1.21785E+02 7.90325E+00 0.00000E+00
 -1      2891 1.21035E+02 9.20225E+00 0.00000E+00
 -1      2892 1.26285E+02 7.90325E+00 0.00000E+00
 -1      2893 1.24785E+02 7.90325E+00 0.00000E+00
 -1      2894 1.24035E+02 9.20225E+00 0.00000E+00
 -1      2895 1.29285E+02 7.90325E+00 0.00000E+00
 -1      2896 1.27785E+02 7.90325E+00 0.00000E+00
 -1      2897 1.27035E+02 9.20225E+00 0.00000E+00
 -1      2898 1.32285E+02 7.90325E+00 0.00000E+00
 -1      2899 1.30785E+02 7.90325E+00 0.00000E+00
 -1      2900 1.30035E+02 9.20225E+00 0.00000E+00
 -1      2901 1.35285E+02 7.90325E+00 0.00000E+00
 -1      2902 1.33785E+02 7.90325E+00 0.00000E+00
 -1      2903 1.33035E+02 9.20225E+00 0.00000E+00
 -1      2904 1.38285E+02 7.90325E+00 0.00000E+00
 -1      2905 1.36785E+02 7.90325E+00 0.00000E+00
 -1      2906 1.36035E+02 9.20225E+00 0.00000E+00
 -1      2907 1.40953E+02 8.18394E+00 0.00000E+00
 -1      2908 1.39453E+02 8.18394E+00 0.00000E+00
 -1      2909 1.38703E+02 9.48294E+00 0.00000E+00
 -1      2910 1.41038E+02 1.00443E+01 0.00000E+00
 -1      2911 6.01140E+01 2.10367E+01 0.00000E+00
 -1      2912 6.07789E+01 2.21245E+01 0.00000E+00
 -1      2913 1.40907E+02 2.42875E+01 0.00000E+00
 -1      2914 1.40907E+02 2.28125E+01 0.00000E+00
 -1      2915 6.06783E+01 3.49228E+01 0.00000E+00
 -1      2916 6.01948E+01 3.57969E+01 0.00000E+00
 -1      2917 1.40907E+02 1.83875E+01 0.00000E+00
 -1      2918 1.40907E+02 1.69125E+01 0.00000E+00
 -1      2919 1.40907E+02 2.72375E+01 0.00000E+00
 -1      2920 1.40907E+02 2.57625E+01 0.00000E+00
 -1      2921 1.39608E+02 2.50250E+01 0.00000E+00
 -1      2922 1.40907E+02 2.13375E+01 0.00000E+00
 -1      2923 1.40907E+02 1.98625E+01 0.00000E+00
 -1      2924 1.39608E+02 1.91250E+01 0.00000E+00
 -1      2925 1.39608E+02 2.20750E+01 0.00000E+00
 -1      2926 1.40907E+02 3.01375E+01 0.00000E+00
 -1      2927 1.40907E+02 2.86875E+01 0.00000E+00
 -1      2928 1.39608E+02 2.79500E+01 0.00000E+00
 -1      2929 1.40907E+02 3.30875E+01 0.00000E+00
 -1      2930 1.40907E+02 3.16125E+01 0.00000E+00
 -1      2931 1.39608E+02 3.08750E+01 0.00000E+00
 -1      2932 1.40907E+02 3.60375E+01 0.00000E+00
 -1      2933 1.40907E+02 3.45625E+01 0.00000E+00
 -1      2934 1.39608E+02 3.38250E+01 0.00000E+00
 -1      2935 7.85850E+00 3.92077E+01 0.00000E+00
 -1      2936 6.23683E+01 3.00450E+01 0.00000E+00
 -1      2937 6.21178E+01 3.13715E+01 0.00000E+00
 -1      2938 6.28812E+01 2.80925E+01 0.00000E+00
 -1      2939 6.27957E+01 2.89260E+01 0.00000E+00
 -1      2940 6.22419E+01 2.54766E+01 0.00000E+00
 -1      2941 6.25698E+01 2.67281E+01 0.00000E+00
 -1      2942 5.71987E+01 3.87260E+01 0.00000E+00
 -1      2943 5.64153E+01 3.92558E+01 0.00000E+00
 -1      2944 3.83396E+01 2.98207E+01 0.00000E+00
 -1      2945 3.82962E+01 2.87195E+01 0.00000E+00
 -1      2946 5.09604E+01 1.67152E+01 0.00000E+00
 -1      2947 5.19854E+01 1.66834E+01 0.00000E+00
 -1      2948 6.12848E+01 2.30570E+01 0.00000E+00
 -1      2949 6.17906E+01 2.39896E+01 0.00000E+00
 -1      2950 6.18270E+01 2.19785E+01 0.00000E+00
 -1      2951 1.82850E+01 7.90325E+00 0.00000E+00
 -1      2952 1.67850E+01 7.90325E+00 0.00000E+00
 -1      2953 1.90350E+01 9.20225E+00 0.00000E+00
 -1      2954 2.72850E+01 7.90325E+00 0.00000E+00
 -1      2955 2.57850E+01 7.90325E+00 0.00000E+00
 -1      2956 2.50350E+01 9.20225E+00 0.00000E+00
 -1      2957 2.80350E+01 9.20225E+00 0.00000E+00
 -1      2958 1.14000E+01 4.09070E+01 0.00000E+00
 -1      2959 1.29000E+01 4.09070E+01 0.00000E+00
 -1      2960 1.36500E+01 3.96080E+01 0.00000E+00
 -1      2961 1.52850E+01 7.90325E+00 0.00000E+00
 -1      2962 1.37850E+01 7.90325E+00 0.00000E+00
 -1      2963 1.30350E+01 9.20225E+00 0.00000E+00
 -1      2964 1.60350E+01 9.20225E+00 0.00000E+00
 -1      2965 6.18142E+01 3.27839E+01 0.00000E+00
 -1      2966 6.12463E+01 3.38534E+01 0.00000E+00
 -1      2967 6.18282E+01 3.47461E+01 0.00000E+00
 -1      2968 4.89796E+01 4.09506E+01 0.00000E+00
 -1      2969 9.09300E+00 1.68813E+01 0.00000E+00
 -1      2970 9.09300E+00 1.83563E+01 0.00000E+00
 -1      2971 1.03920E+01 1.90812E+01 0.00000E+00
 -1      2972 1.03920E+01 1.61437E+01 0.00000E+00
 -1      2973 9.09300E+00 3.15875E+01 0.00000E+00
 -1      2974 9.09300E+00 3.30625E+01 0.00000E+00
 -1      2975 4.85549E+01 1.64556E+01 0.00000E+00
 -1      2976 4.97576E+01 1.65854E+01 0.00000E+00
 -1      2977 5.02448E+01 1.57542E+01 0.00000E+00
 -1      2978 1.40928E+02 4.09655E+01 0.00000E+00
 -1      2979 1.41192E+02 3.96958E+01 0.00000E+00
 -1      2980 1.39914E+02 4.09362E+01 0.00000E+00
 -1      2981 5.64010E+01 1.77553E+01 0.00000E+00
 -1      2982 5.74179E+01 1.84646E+01 0.00000E+00
 -1      2983 5.85127E+01 1.80877E+01 0.00000E+00
 -1      2984 4.32492E+01 1.84993E+01 0.00000E+00
 -1      2985 4.41951E+01 1.76598E+01 0.00000E+00
 -1      2986 5.92309E+01 3.68384E+01 0.00000E+00
 -1      2987 5.82899E+01 3.76812E+01 0.00000E+00
 -1      2988 3.83459E+01 2.75223E+01 0.00000E+00
 -1      2989 3.84739E+01 2.65490E+01 0.00000E+00
 -1      2990 4.33081E+01 3.88885E+01 0.00000E+00
 -1      2991 4.20532E+01 3.81122E+01 0.00000E+00
 -1      2992 3.97092E+01 3.47455E+01 0.00000E+00
 -1      2993 3.92858E+01 3.38785E+01 0.00000E+00
 -1      2994 3.91566E+01 3.58280E+01 0.00000E+00
 -1      2995 3.87027E+01 3.23989E+01 0.00000E+00
 -1      2996 3.84344E+01 3.11679E+01 0.00000E+00
 -1      2997 4.00746E+01 2.22964E+01 0.00000E+00
 -1      2998 4.07874E+01 2.14339E+01 0.00000E+00
 -1      2999 4.15532E+01 2.04443E+01 0.00000E+00
 -1      3000 4.23191E+01 1.94547E+01 0.00000E+00
 -1      3001 4.04712E+01 2.02759E+01 0.00000E+00
 -1      3002 4.74796E+01 4.09506E+01 0.00000E+00
 -1      3003 4.65321E+01 4.06103E+01 0.00000E+00
 -1      3004 9.09300E+00 3.45313E+01 0.00000E+00
 -1      3005 9.09300E+00 3.60000E+01 0.00000E+00
 -1      3006 1.03920E+01 3.37938E+01 0.00000E+00
 -1      3007 1.03920E+01 2.49750E+01 0.00000E+00
 -1      3008 9.09300E+00 2.57000E+01 0.00000E+00
 -1      3009 9.09300E+00 2.71750E+01 0.00000E+00
 -1      3010 6.26997E+01 3.22642E+01 0.00000E+00
 -1      3011 6.04253E+01 1.99215E+01 0.00000E+00
 -1      3012 5.54653E+01 1.61656E+01 0.00000E+00
 -1      3013 5.59332E+01 1.69604E+01 0.00000E+00
 -1      3014 5.70280E+01 1.65836E+01 0.00000E+00
 -1      3015 9.66450E+00 9.72612E+00 0.00000E+00
 -1      3016 4.46332E+01 1.64164E+01 0.00000E+00
 -1      3017 4.50713E+01 1.51730E+01 0.00000E+00
 -1      3018 4.35354E+01 1.61321E+01 0.00000E+00
 -1      3019 4.06236E+01 3.95257E+01 0.00000E+00
 -1      3020 4.13736E+01 4.08247E+01 0.00000E+00
 -1      3021 6.02964E+01 3.68571E+01 0.00000E+00
 -1      3022 4.28736E+01 4.08247E+01 0.00000E+00
 -1      3023 4.50321E+01 4.06103E+01 0.00000E+00
 -1      3024 1.39164E+02 3.98273E+01 0.00000E+00
 -1      3025 3.74721E+01 3.06544E+01 0.00000E+00
 -1      3026 1.41038E+02 1.15068E+01 0.00000E+00
 -1      3027 1.39870E+02 1.12261E+01 0.00000E+00
 -1      3028 1.41038E+02 1.29693E+01 0.00000E+00
 -1      3029 9.15750E+00 3.77359E+01 0.00000E+00
 -1      3030 9.22200E+00 4.02061E+01 0.00000E+00
 -1      3031 1.05855E+01 4.04701E+01 0.00000E+00
 -1      3032 1.04565E+01 3.69984E+01 0.00000E+00
 -1      3033 6.35468E+01 2.72494E+01 0.00000E+00
 -1      3034 1.41192E+02 3.82207E+01 0.00000E+00
 -1      3035 5.82413E+01 3.89434E+01 0.00000E+00
 -1      3036 6.34308E+01 2.97328E+01 0.00000E+00
 -1      3037 5.29090E+01 1.62132E+01 0.00000E+00
 -1      3038 5.38327E+01 1.57431E+01 0.00000E+00
 -1      3039 5.23712E+01 1.54139E+01 0.00000E+00
 -1      3040 4.76056E+01 1.55409E+01 0.00000E+00
 -1      3041 1.39529E+02 3.86553E+01 0.00000E+00
 -1      3042 1.40542E+02 3.72095E+01 0.00000E+00
 -1      3043 1.39243E+02 3.64720E+01 0.00000E+00
 -1      3044 1.38514E+02 3.88161E+01 0.00000E+00
 -1      3045 3.74269E+01 2.81100E+01 0.00000E+00
 -1      3046 3.80856E+01 2.55764E+01 0.00000E+00
 -1      3047 4.08386E+01 3.80692E+01 0.00000E+00
 -1      3048 1.40973E+02 1.56722E+01 0.00000E+00
 -1      3049 1.40973E+02 1.42097E+01 0.00000E+00
 -1      3050 1.39805E+02 1.39290E+01 0.00000E+00
 -1      3051 1.39674E+02 1.64097E+01 0.00000E+00
 -1      3052 9.09300E+00 2.86437E+01 0.00000E+00
 -1      3053 9.09300E+00 3.01187E+01 0.00000E+00
 -1      3054 1.03920E+01 3.08563E+01 0.00000E+00
 -1      3055 1.03920E+01 2.79188E+01 0.00000E+00
 -1      3056 3.92000E+01 2.27527E+01 0.00000E+00
 -1      3057 3.88308E+01 2.17218E+01 0.00000E+00
 -1      3058 3.83254E+01 2.32090E+01 0.00000E+00
 -1      3059 1.09635E+01 1.04636E+01 0.00000E+00
 -1      3060 4.21672E+01 1.83309E+01 0.00000E+00
 -1      3061 3.81500E+01 3.34813E+01 0.00000E+00
 -1      3062 1.13355E+01 3.91711E+01 0.00000E+00
 -1      3063 1.16910E+01 1.24625E+01 0.00000E+00
 -1      3064 1.16910E+01 1.39375E+01 0.00000E+00
 -1      3065 3.93650E+01 3.81515E+01 0.00000E+00
 -1      3066 6.15307E+01 3.70326E+01 0.00000E+00
 -1      3067 6.05668E+01 3.80741E+01 0.00000E+00
 -1      3068 1.89000E+01 3.83090E+01 0.00000E+00
 -1      3069 2.04000E+01 3.83090E+01 0.00000E+00
 -1      3070 2.19000E+01 3.83090E+01 0.00000E+00
 -1      3071 2.34000E+01 3.83090E+01 0.00000E+00
 -1      3072 2.11500E+01 3.70100E+01 0.00000E+00
 -1      3073 2.49000E+01 3.83090E+01 0.00000E+00
 -1      3074 2.64000E+01 3.83090E+01 0.00000E+00
 -1      3075 2.41500E+01 3.70100E+01 0.00000E+00
 -1      3076 2.79000E+01 3.83090E+01 0.00000E+00
 -1      3077 2.94000E+01 3.83090E+01 0.00000E+00
 -1      3078 2.71500E+01 3.70100E+01 0.00000E+00
 -1      3079 3.09000E+01 3.83090E+01 0.00000E+00
 -1      3080 3.24000E+01 3.83090E+01 0.00000E+00
 -1      3081 3.01500E+01 3.70100E+01 0.00000E+00
 -1      3082 3.39000E+01 3.83090E+01 0.00000E+00
 -1      3083 3.54000E+01 3.83090E+01 0.00000E+00
 -1      3084 3.31500E+01 3.70100E+01 0.00000E+00
 -1      3085 3.66325E+01 3.82302E+01 0.00000E+00
 -1      3086 3.81325E+01 3.82302E+01 0.00000E+00
 -1      3087 3.83475E+01 3.67737E+01 0.00000E+00
 -1      3088 3.58825E+01 3.69312E+01 0.00000E+00
 -1      3089 3.63779E+01 2.86661E+01 0.00000E+00
 -1      3090 3.64275E+01 2.74690E+01 0.00000E+00
 -1      3091 5.56653E+01 4.03647E+01 0.00000E+00
 -1      3092 1.29000E+01 3.83090E+01 0.00000E+00
 -1      3093 1.44000E+01 3.83090E+01 0.00000E+00
 -1      3094 6.09756E+01 3.91189E+01 0.00000E+00
 -1      3095 6.24756E+01 3.91189E+01 0.00000E+00
 -1      3096 6.39756E+01 3.91189E+01 0.00000E+00
 -1      3097 6.54756E+01 3.91189E+01 0.00000E+00
 -1      3098 6.33012E+01 3.82496E+01 0.00000E+00
 -1      3099 6.69000E+01 3.86892E+01 0.00000E+00
 -1      3100 6.84000E+01 3.86892E+01 0.00000E+00
 -1      3101 6.99000E+01 3.86892E+01 0.00000E+00
 -1      3102 7.14000E+01 3.86892E+01 0.00000E+00
 -1      3103 6.91500E+01 3.73902E+01 0.00000E+00
 -1      3104 7.29000E+01 3.86892E+01 0.00000E+00
 -1      3105 7.44000E+01 3.86892E+01 0.00000E+00
 -1      3106 7.21500E+01 3.73902E+01 0.00000E+00
 -1      3107 7.59000E+01 3.86892E+01 0.00000E+00
 -1      3108 7.74000E+01 3.86892E+01 0.00000E+00
 -1      3109 7.51500E+01 3.73902E+01 0.00000E+00
 -1      3110 7.89000E+01 3.86892E+01 0.00000E+00
 -1      3111 8.04000E+01 3.86892E+01 0.00000E+00
 -1      3112 7.81500E+01 3.73902E+01 0.00000E+00
 -1      3113 8.19000E+01 3.86892E+01 0.00000E+00
 -1      3114 8.34000E+01 3.86892E+01 0.00000E+00
 -1      3115 8.11500E+01 3.73902E+01 0.00000E+00
 -1      3116 8.49000E+01 3.86892E+01 0.00000E+00
 -1      3117 8.64000E+01 3.86892E+01 0.00000E+00
 -1      3118 8.41500E+01 3.73902E+01 0.00000E+00
 -1      3119 8.79000E+01 3.86892E+01 0.00000E+00
 -1      3120 8.94000E+01 3.86892E+01 0.00000E+00
 -1      3121 8.71500E+01 3.73902E+01 0.00000E+00
 -1      3122 9.09000E+01 3.86892E+01 0.00000E+00
 -1      3123 9.24000E+01 3.86892E+01 0.00000E+00
 -1      3124 9.01500E+01 3.73902E+01 0.00000E+00
 -1      3125 9.39000E+01 3.86892E+01 0.00000E+00
 -1      3126 9.54000E+01 3.86892E+01 0.00000E+00
 -1      3127 9.31500E+01 3.73902E+01 0.00000E+00
 -1      3128 9.69000E+01 3.86892E+01 0.00000E+00
 -1      3129 9.84000E+01 3.86892E+01 0.00000E+00
 -1      3130 9.61500E+01 3.73902E+01 0.00000E+00
 -1      3131 9.99000E+01 3.86892E+01 0.00000E+00
 -1      3132 1.01400E+02 3.86892E+01 0.00000E+00
 -1      3133 9.91500E+01 3.73902E+01 0.00000E+00
 -1      3134 1.02900E+02 3.86892E+01 0.00000E+00
 -1      3135 1.04400E+02 3.86892E+01 0.00000E+00
 -1      3136 1.02150E+02 3.73902E+01 0.00000E+00
 -1      3137 1.05900E+02 3.86892E+01 0.00000E+00
 -1      3138 1.07400E+02 3.86892E+01 0.00000E+00
 -1      3139 1.05150E+02 3.73902E+01 0.00000E+00
 -1      3140 1.08900E+02 3.86892E+01 0.00000E+00
 -1      3141 1.10400E+02 3.86892E+01 0.00000E+00
 -1      3142 1.08150E+02 3.73902E+01 0.00000E+00
 -1      3143 1.11900E+02 3.86892E+01 0.00000E+00
 -1      3144 1.13400E+02 3.86892E+01 0.00000E+00
 -1      3145 1.11150E+02 3.73902E+01 0.00000E+00
 -1      3146 1.14900E+02 3.86892E+01 0.00000E+00
 -1      3147 1.16400E+02 3.86892E+01 0.00000E+00
 -1      3148 1.14150E+02 3.73902E+01 0.00000E+00
 -1      3149 1.17900E+02 3.86892E+01 0.00000E+00
 -1      3150 1.19400E+02 3.86892E+01 0.00000E+00
 -1      3151 1.17150E+02 3.73902E+01 0.00000E+00
 -1      3152 1.20900E+02 3.86892E+01 0.00000E+00
 -1      3153 1.22400E+02 3.86892E+01 0.00000E+00
 -1      3154 1.20150E+02 3.73902E+01 0.00000E+00
 -1      3155 1.23900E+02 3.86892E+01 0.00000E+00
 -1      3156 1.25400E+02 3.86892E+01 0.00000E+00
 -1      3157 1.23150E+02 3.73902E+01 0.00000E+00
 -1      3158 1.26900E+02 3.86892E+01 0.00000E+00
 -1      3159 1.28400E+02 3.86892E+01 0.00000E+00
 -1      3160 1.26150E+02 3.73902E+01 0.00000E+00
 -1      3161 1.29900E+02 3.86892E+01 0.00000E+00
 -1      3162 1.31400E+02 3.86892E+01 0.00000E+00
 -1      3163 1.29150E+02 3.73902E+01 0.00000E+00
 -1      3164 1.32900E+02 3.86892E+01 0.00000E+00
 -1      3165 1.34400E+02 3.86892E+01 0.00000E+00
 -1      3166 1.32150E+02 3.73902E+01 0.00000E+00
 -1      3167 1.35707E+02 3.87527E+01 0.00000E+00
 -1      3168 1.37207E+02 3.87527E+01 0.00000E+00
 -1      3169 1.37572E+02 3.75806E+01 0.00000E+00
 -1      3170 1.34957E+02 3.74537E+01 0.00000E+00
 -1      3171 3.47850E+01 1.05013E+01 0.00000E+00
 -1      3172 3.32850E+01 1.05013E+01 0.00000E+00
 -1      3173 3.17850E+01 1.05013E+01 0.00000E+00
 -1      3174 3.02850E+01 1.05013E+01 0.00000E+00
 -1      3175 3.25350E+01 1.18003E+01 0.00000E+00
 -1      3176 4.07850E+01 1.05013E+01 0.00000E+00
 -1      3177 3.92850E+01 1.05013E+01 0.00000E+00
 -1      3178 4.37850E+01 1.05013E+01 0.00000E+00
 -1      3179 4.22850E+01 1.05013E+01 0.00000E+00
 -1      3180 4.15350E+01 1.18003E+01 0.00000E+00
 -1      3181 4.67850E+01 1.05013E+01 0.00000E+00
 -1      3182 4.52850E+01 1.05013E+01 0.00000E+00
 -1      3183 4.45350E+01 1.18003E+01 0.00000E+00
 -1      3184 4.97850E+01 1.05013E+01 0.00000E+00
 -1      3185 4.82850E+01 1.05013E+01 0.00000E+00
 -1      3186 4.75350E+01 1.18003E+01 0.00000E+00
 -1      3187 5.27850E+01 1.05013E+01 0.00000E+00
 -1      3188 5.12850E+01 1.05013E+01 0.00000E+00
 -1      3189 5.05350E+01 1.18003E+01 0.00000E+00
 -1      3190 5.57850E+01 1.05013E+01 0.00000E+00
 -1      3191 5.42850E+01 1.05013E+01 0.00000E+00
 -1      3192 5.35350E+01 1.18003E+01 0.00000E+00
 -1      3193 5.87850E+01 1.05013E+01 0.00000E+00
 -1      3194 5.72850E+01 1.05013E+01 0.00000E+00
 -1      3195 5.65350E+01 1.18003E+01 0.00000E+00
 -1      3196 6.17850E+01 1.05013E+01 0.00000E+00
 -1      3197 6.02850E+01 1.05013E+01 0.00000E+00
 -1      3198 5.95350E+01 1.18003E+01 0.00000E+00
 -1      3199 6.47850E+01 1.05013E+01 0.00000E+00
 -1      3200 6.32850E+01 1.05013E+01 0.00000E+00
 -1      3201 6.25350E+01 1.18003E+01 0.00000E+00
 -1      3202 6.77850E+01 1.05013E+01 0.00000E+00
 -1      3203 6.62850E+01 1.05013E+01 0.00000E+00
 -1      3204 6.55350E+01 1.18003E+01 0.00000E+00
 -1      3205 7.07850E+01 1.05013E+01 0.00000E+00
 -1      3206 6.92850E+01 1.05013E+01 0.00000E+00
 -1      3207 6.85350E+01 1.18003E+01 0.00000E+00
 -1      3208 7.37850E+01 1.05013E+01 0.00000E+00
 -1      3209 7.22850E+01 1.05013E+01 0.00000E+00
 -1      3210 7.15350E+01 1.18003E+01 0.00000E+00
 -1      3211 7.67850E+01 1.05013E+01 0.00000E+00
 -1      3212 7.52850E+01 1.05013E+01 0.00000E+00
 -1      3213 7.45350E+01 1.18003E+01 0.00000E+00
 -1      3214 7.97850E+01 1.05013E+01 0.00000E+00
 -1      3215 7.82850E+01 1.05013E+01 0.00000E+00
 -1      3216 7.75350E+01 1.18003E+01 0.00000E+00
 -1      3217 8.27850E+01 1.05013E+01 0.00000E+00
 -1      3218 8.12850E+01 1.05013E+01 0.00000E+00
 -1      3219 8.05350E+01 1.18003E+01 0.00000E+00
 -1      3220 8.57850E+01 1.05013E+01 0.00000E+00
 -1      3221 8.42850E+01 1.05013E+01 0.00000E+00
 -1      3222 8.35350E+01 1.18003E+01 0.00000E+00
 -1      3223 8.87850E+01 1.05013E+01 0.00000E+00
 -1      3224 8.72850E+01 1.05013E+01 0.00000E+00
 -1      3225 8.65350E+01 1.18003E+01 0.00000E+00
 -1      3226 9.17850E+01 1.05013E+01 0.00000E+00
 -1      3227 9.02850E+01 1.05013E+01 0.00000E+00
 -1      3228 8.95350E+01 1.18003E+01 0.00000E+00
 -1      3229 9.47850E+01 1.05013E+01 0.00000E+00
 -1      3230 9.32850E+01 1.05013E+01 0.00000E+00
 -1      3231 9.25350E+01 1.18003E+01 0.00000E+00
 -1      3232 9.77850E+01 1.05013E+01 0.00000E+00
 -1      3233 9.62850E+01 1.05013E+01 0.00000E+00
 -1      3234 9.55350E+01 1.18003E+01 0.00000E+00
 -1      3235 1.00785E+02 1.05013E+01 0.00000E+00
 -1      3236 9.92850E+01 1.05013E+01 0.00000E+00
 -1      3237 9.85350E+01 1.18003E+01 0.00000E+00
 -1      3238 1.03785E+02 1.05013E+01 0.00000E+00
 -1      3239 1.02285E+02 1.05013E+01 0.00000E+00
 -1      3240 1.01535E+02 1.18003E+01 0.00000E+00
 -1      3241 1.06785E+02 1.05013E+01 0.00000E+00
 -1      3242 1.05285E+02 1.05013E+01 0.00000E+00
 -1      3243 1.04535E+02 1.18003E+01 0.00000E+00
 -1      3244 1.09785E+02 1.05013E+01 0.00000E+00
 -1      3245 1.08285E+02 1.05013E+01 0.00000E+00
 -1      3246 1.07535E+02 1.18003E+01 0.00000E+00
 -1      3247 1.12785E+02 1.05013E+01 0.00000E+00
 -1      3248 1.11285E+02 1.05013E+01 0.00000E+00
 -1      3249 1.10535E+02 1.18003E+01 0.00000E+00
 -1      3250 1.15785E+02 1.05013E+01 0.00000E+00
 -1      3251 1.14285E+02 1.05013E+01 0.00000E+00
 -1      3252 1.13535E+02 1.18003E+01 0.00000E+00
 -1      3253 1.18785E+02 1.05013E+01 0.00000E+00
 -1      3254 1.17285E+02 1.05013E+01 0.00000E+00
 -1      3255 1.16535E+02 1.18003E+01 0.00000E+00
 -1      3256 1.21785E+02 1.05013E+01 0.00000E+00
 -1      3257 1.20285E+02 1.05013E+01 0.00000E+00
 -1      3258 1.19535E+02 1.18003E+01 0.00000E+00
 -1      3259 1.24785E+02 1.05013E+01 0.00000E+00
 -1      3260 1.23285E+02 1.05013E+01 0.00000E+00
 -1      3261 1.22535E+02 1.18003E+01 0.00000E+00
 -1      3262 1.27785E+02 1.05013E+01 0.00000E+00
 -1      3263 1.26285E+02 1.05013E+01 0.00000E+00
 -1      3264 1.25535E+02 1.18003E+01 0.00000E+00
 -1      3265 1.30785E+02 1.05013E+01 0.00000E+00
 -1      3266 1.29285E+02 1.05013E+01 0.00000E+00
 -1      3267 1.28535E+02 1.18003E+01 0.00000E+00
 -1      3268 1.33785E+02 1.05013E+01 0.00000E+00
 -1      3269 1.32285E+02 1.05013E+01 0.00000E+00
 -1      3270 1.31535E+02 1.18003E+01 0.00000E+00
 -1      3271 1.36785E+02 1.05013E+01 0.00000E+00
 -1      3272 1.35285E+02 1.05013E+01 0.00000E+00
 -1      3273 1.34535E+02 1.18003E+01 0.00000E+00
 -1      3274 1.38912E+02 1.10040E+01 0.00000E+00
 -1      3275 1.37744E+02 1.07233E+01 0.00000E+00
 -1      3276 1.36994E+02 1.20223E+01 0.00000E+00
 -1      3277 1.38912E+02 1.24665E+01 0.00000E+00
 -1      3278 1.38309E+02 2.86750E+01 0.00000E+00
 -1      3279 1.38309E+02 2.72250E+01 0.00000E+00
 -1      3280 4.42557E+01 3.92289E+01 0.00000E+00
 -1      3281 1.38309E+02 2.57500E+01 0.00000E+00
 -1      3282 1.38309E+02 2.42750E+01 0.00000E+00
 -1      3283 1.37010E+02 2.64750E+01 0.00000E+00
 -1      3284 6.27841E+01 2.43980E+01 0.00000E+00
 -1      3285 6.26224E+01 2.09435E+01 0.00000E+00
 -1      3286 6.31283E+01 2.18761E+01 0.00000E+00
 -1      3287 5.97413E+01 3.89434E+01 0.00000E+00
 -1      3288 1.38309E+02 3.45625E+01 0.00000E+00
 -1      3289 1.38309E+02 3.30875E+01 0.00000E+00
 -1      3290 6.35796E+01 2.33631E+01 0.00000E+00
 -1      3291 6.40309E+01 2.48500E+01 0.00000E+00
 -1      3292 6.43750E+01 2.23281E+01 0.00000E+00
 -1      3293 6.44722E+01 2.63205E+01 0.00000E+00
 -1      3294 6.47836E+01 2.76849E+01 0.00000E+00
 -1      3295 1.38309E+02 3.16187E+01 0.00000E+00
 -1      3296 1.38309E+02 3.01437E+01 0.00000E+00
 -1      3297 1.37010E+02 2.94188E+01 0.00000E+00
 -1      3298 1.37010E+02 3.23563E+01 0.00000E+00
 -1      3299 4.76021E+01 1.36288E+01 0.00000E+00
 -1      3300 4.90385E+01 1.37123E+01 0.00000E+00
 -1      3301 3.77850E+01 1.05013E+01 0.00000E+00
 -1      3302 3.62850E+01 1.05013E+01 0.00000E+00
 -1      3303 3.55350E+01 1.18003E+01 0.00000E+00
 -1      3304 3.85350E+01 1.18003E+01 0.00000E+00
 -1      3305 2.27850E+01 1.05013E+01 0.00000E+00
 -1      3306 2.12850E+01 1.05013E+01 0.00000E+00
 -1      3307 6.36900E+01 3.17382E+01 0.00000E+00
 -1      3308 6.33863E+01 3.31507E+01 0.00000E+00
 -1      3309 6.08309E+01 1.86946E+01 0.00000E+00
 -1      3310 6.17267E+01 1.98191E+01 0.00000E+00
 -1      3311 6.30280E+01 1.97166E+01 0.00000E+00
 -1      3312 1.97850E+01 1.05013E+01 0.00000E+00
 -1      3313 1.82850E+01 1.05013E+01 0.00000E+00
 -1      3314 2.05350E+01 1.18003E+01 0.00000E+00
 -1      3315 3.92113E+01 2.00920E+01 0.00000E+00
 -1      3316 3.99772E+01 1.91024E+01 0.00000E+00
 -1      3317 1.26488E+01 1.02017E+01 0.00000E+00
 -1      3318 1.20772E+01 1.14631E+01 0.00000E+00
 -1      3319 1.33763E+01 1.22006E+01 0.00000E+00
 -1      3320 1.41488E+01 1.02017E+01 0.00000E+00
 -1      3321 3.79241E+01 3.59067E+01 0.00000E+00
 -1      3322 3.64133E+01 3.14059E+01 0.00000E+00
 -1      3323 3.63185E+01 3.00586E+01 0.00000E+00
 -1      3324 3.68483E+01 2.58196E+01 0.00000E+00
 -1      3325 3.74572E+01 2.44831E+01 0.00000E+00
 -1      3326 1.59000E+01 3.83090E+01 0.00000E+00
 -1      3327 1.74000E+01 3.83090E+01 0.00000E+00
 -1      3328 1.81500E+01 3.70100E+01 0.00000E+00
 -1      3329 1.12710E+01 3.74352E+01 0.00000E+00
 -1      3330 1.20855E+01 3.78721E+01 0.00000E+00
 -1      3331 1.12065E+01 3.56994E+01 0.00000E+00
 -1      3332 6.30175E+01 3.46922E+01 0.00000E+00
 -1      3333 6.24496E+01 3.57616E+01 0.00000E+00
 -1      3334 6.45448E+01 2.95003E+01 0.00000E+00
 -1      3335 6.41174E+01 3.06193E+01 0.00000E+00
 -1      3336 6.48040E+01 3.15057E+01 0.00000E+00
 -1      3337 3.73410E+01 3.44271E+01 0.00000E+00
 -1      3338 3.67579E+01 3.29475E+01 0.00000E+00
 -1      3339 3.65319E+01 3.53729E+01 0.00000E+00
 -1      3340 4.09076E+01 1.80350E+01 0.00000E+00
 -1      3341 4.18377E+01 1.70797E+01 0.00000E+00
 -1      3342 1.16910E+01 2.12875E+01 0.00000E+00
 -1      3343 1.16910E+01 2.27625E+01 0.00000E+00
 -1      3344 5.86387E+01 1.68236E+01 0.00000E+00
 -1      3345 5.96555E+01 1.75328E+01 0.00000E+00
 -1      3346 1.16910E+01 2.42375E+01 0.00000E+00
 -1      3347 1.16910E+01 2.57125E+01 0.00000E+00
 -1      3348 1.29900E+01 2.35000E+01 0.00000E+00
 -1      3349 4.50043E+01 1.33445E+01 0.00000E+00
 -1      3350 4.61021E+01 1.36288E+01 0.00000E+00
 -1      3351 3.53191E+01 2.94176E+01 0.00000E+00
 -1      3352 5.49275E+01 1.53662E+01 0.00000E+00
 -1      3353 5.60223E+01 1.49893E+01 0.00000E+00
 -1      3354 5.43897E+01 1.45669E+01 0.00000E+00
 -1      3355 4.22758E+01 1.58363E+01 0.00000E+00
 -1      3356 6.27200E+01 3.69787E+01 0.00000E+00
 -1      3357 3.74621E+01 2.10046E+01 0.00000E+00
 -1      3358 3.83367E+01 2.05483E+01 0.00000E+00
 -1      3359 3.78427E+01 1.93748E+01 0.00000E+00
 -1      3360 3.57992E+01 2.63757E+01 0.00000E+00
 -1      3361 1.16910E+01 1.83500E+01 0.00000E+00
 -1      3362 1.16910E+01 1.98188E+01 0.00000E+00
 -1      3363 1.29900E+01 2.05562E+01 0.00000E+00
 -1      3364 5.03881E+01 1.28212E+01 0.00000E+00
 -1      3365 5.03917E+01 1.47333E+01 0.00000E+00
 -1      3366 5.15944E+01 1.48631E+01 0.00000E+00
 -1      3367 5.18881E+01 1.28212E+01 0.00000E+00
 -1      3368 1.28355E+01 3.65731E+01 0.00000E+00
 -1      3369 3.96477E+01 1.78512E+01 0.00000E+00
 -1      3370 6.62256E+01 3.78199E+01 0.00000E+00
 -1      3371 1.29900E+01 1.46687E+01 0.00000E+00
 -1      3372 1.16910E+01 1.54063E+01 0.00000E+00
 -1      3373 1.16910E+01 1.68750E+01 0.00000E+00
 -1      3374 2.57850E+01 1.05013E+01 0.00000E+00
 -1      3375 2.42850E+01 1.05013E+01 0.00000E+00
 -1      3376 2.35350E+01 1.18003E+01 0.00000E+00
 -1      3377 2.95350E+01 1.18003E+01 0.00000E+00
 -1      3378 2.87850E+01 1.05013E+01 0.00000E+00
 -1      3379 2.72850E+01 1.05013E+01 0.00000E+00
 -1      3380 5.77030E+01 1.52338E+01 0.00000E+00
 -1      3381 5.81708E+01 1.60287E+01 0.00000E+00
 -1      3382 5.93136E+01 1.54738E+01 0.00000E+00
 -1      3383 1.38309E+02 1.98625E+01 0.00000E+00
 -1      3384 1.38309E+02 1.83875E+01 0.00000E+00
 -1      3385 1.16910E+01 3.01219E+01 0.00000E+00
 -1      3386 1.16910E+01 3.15906E+01 0.00000E+00
 -1      3387 1.38309E+02 2.28062E+01 0.00000E+00
 -1      3388 1.38309E+02 2.13312E+01 0.00000E+00
 -1      3389 1.37010E+02 2.05938E+01 0.00000E+00
 -1      3390 1.37010E+02 2.35313E+01 0.00000E+00
 -1      3391 6.52677E+01 2.52855E+01 0.00000E+00
 -1      3392 5.25181E+01 1.43929E+01 0.00000E+00
 -1      3393 3.70880E+01 2.34522E+01 0.00000E+00
 -1      3394 6.54702E+01 2.85714E+01 0.00000E+00
 -1      3395 6.61568E+01 2.94578E+01 0.00000E+00
 -1      3396 6.63956E+01 2.76424E+01 0.00000E+00
 -1      3397 1.37076E+02 1.78847E+01 0.00000E+00
 -1      3398 1.38375E+02 1.71472E+01 0.00000E+00
 -1      3399 1.38440E+02 1.59068E+01 0.00000E+00
 -1      3400 3.56043E+01 3.23517E+01 0.00000E+00
 -1      3401 6.40077E+01 3.41662E+01 0.00000E+00
 -1      3402 6.09568E+01 1.74304E+01 0.00000E+00
 -1      3403 1.69669E+01 1.03515E+01 0.00000E+00
 -1      3404 1.54669E+01 1.03515E+01 0.00000E+00
 -1      3405 1.50806E+01 1.13509E+01 0.00000E+00
 -1      3406 1.77169E+01 1.16505E+01 0.00000E+00
 -1      3407 1.51500E+01 3.70100E+01 0.00000E+00
 -1      3408 1.37758E+02 3.66576E+01 0.00000E+00
 -1      3409 1.38123E+02 3.54855E+01 0.00000E+00
 -1      3410 1.36824E+02 3.47480E+01 0.00000E+00
 -1      3411 1.36451E+02 3.65941E+01 0.00000E+00
 -1      3412 1.14487E+01 3.29106E+01 0.00000E+00
 -1      3413 1.14487E+01 3.43794E+01 0.00000E+00
 -1      3414 1.22633E+01 3.48162E+01 0.00000E+00
 -1      3415 1.27478E+01 3.21763E+01 0.00000E+00
 -1      3416 4.35043E+01 1.33445E+01 0.00000E+00
 -1      3417 3.41815E+01 3.00666E+01 0.00000E+00
 -1      3418 3.42409E+01 2.86741E+01 0.00000E+00
 -1      3419 2.34000E+01 3.57110E+01 0.00000E+00
 -1      3420 2.49000E+01 3.57110E+01 0.00000E+00
 -1      3421 2.64000E+01 3.57110E+01 0.00000E+00
 -1      3422 2.79000E+01 3.57110E+01 0.00000E+00
 -1      3423 2.56500E+01 3.44120E+01 0.00000E+00
 -1      3424 2.94000E+01 3.57110E+01 0.00000E+00
 -1      3425 3.09000E+01 3.57110E+01 0.00000E+00
 -1      3426 2.86500E+01 3.44120E+01 0.00000E+00
 -1      3427 3.24000E+01 3.57110E+01 0.00000E+00
 -1      3428 3.39000E+01 3.57110E+01 0.00000E+00
 -1      3429 3.16500E+01 3.44120E+01 0.00000E+00
 -1      3430 3.52994E+01 3.54516E+01 0.00000E+00
 -1      3431 5.31000E+01 1.25861E+01 0.00000E+00
 -1      3432 5.29531E+01 1.36071E+01 0.00000E+00
 -1      3433 5.37299E+01 1.41579E+01 0.00000E+00
 -1      3434 5.46000E+01 1.25861E+01 0.00000E+00
 -1      3435 1.16910E+01 2.86531E+01 0.00000E+00
 -1      3436 1.29900E+01 2.93875E+01 0.00000E+00
 -1      3437 1.16910E+01 2.71844E+01 0.00000E+00
 -1      3438 7.14000E+01 3.60912E+01 0.00000E+00
 -1      3439 7.29000E+01 3.60912E+01 0.00000E+00
 -1      3440 7.44000E+01 3.60912E+01 0.00000E+00
 -1      3441 7.59000E+01 3.60912E+01 0.00000E+00
 -1      3442 7.36500E+01 3.47922E+01 0.00000E+00
 -1      3443 7.74000E+01 3.60912E+01 0.00000E+00
 -1      3444 7.89000E+01 3.60912E+01 0.00000E+00
 -1      3445 7.66500E+01 3.47922E+01 0.00000E+00
 -1      3446 8.04000E+01 3.60912E+01 0.00000E+00
 -1      3447 8.19000E+01 3.60912E+01 0.00000E+00
 -1      3448 7.96500E+01 3.47922E+01 0.00000E+00
 -1      3449 8.34000E+01 3.60912E+01 0.00000E+00
 -1      3450 8.49000E+01 3.60912E+01 0.00000E+00
 -1      3451 8.26500E+01 3.47922E+01 0.00000E+00
 -1      3452 8.64000E+01 3.60912E+01 0.00000E+00
 -1      3453 8.79000E+01 3.60912E+01 0.00000E+00
 -1      3454 8.56500E+01 3.47922E+01 0.00000E+00
 -1      3455 8.94000E+01 3.60912E+01 0.00000E+00
 -1      3456 9.09000E+01 3.60912E+01 0.00000E+00
 -1      3457 8.86500E+01 3.47922E+01 0.00000E+00
 -1      3458 9.24000E+01 3.60912E+01 0.00000E+00
 -1      3459 9.39000E+01 3.60912E+01 0.00000E+00
 -1      3460 9.16500E+01 3.47922E+01 0.00000E+00
 -1      3461 9.54000E+01 3.60912E+01 0.00000E+00
 -1      3462 9.69000E+01 3.60912E+01 0.00000E+00
 -1      3463 9.46500E+01 3.47922E+01 0.00000E+00
 -1      3464 9.84000E+01 3.60912E+01 0.00000E+00
 -1      3465 9.99000E+01 3.60912E+01 0.00000E+00
 -1      3466 9.76500E+01 3.47922E+01 0.00000E+00
 -1      3467 1.01400E+02 3.60912E+01 0.00000E+00
 -1      3468 1.02900E+02 3.60912E+01 0.00000E+00
 -1      3469 1.00650E+02 3.47922E+01 0.00000E+00
 -1      3470 1.04400E+02 3.60912E+01 0.00000E+00
 -1      3471 1.05900E+02 3.60912E+01 0.00000E+00
 -1      3472 1.03650E+02 3.47922E+01 0.00000E+00
 -1      3473 1.07400E+02 3.60912E+01 0.00000E+00
 -1      3474 1.08900E+02 3.60912E+01 0.00000E+00
 -1      3475 1.06650E+02 3.47922E+01 0.00000E+00
 -1      3476 1.10400E+02 3.60912E+01 0.00000E+00
 -1      3477 1.11900E+02 3.60912E+01 0.00000E+00
 -1      3478 1.09650E+02 3.47922E+01 0.00000E+00
 -1      3479 1.13400E+02 3.60912E+01 0.00000E+00
 -1      3480 1.14900E+02 3.60912E+01 0.00000E+00
 -1      3481 1.12650E+02 3.47922E+01 0.00000E+00
 -1      3482 1.16400E+02 3.60912E+01 0.00000E+00
 -1      3483 1.17900E+02 3.60912E+01 0.00000E+00
 -1      3484 1.15650E+02 3.47922E+01 0.00000E+00
 -1      3485 1.19400E+02 3.60912E+01 0.00000E+00
 -1      3486 1.20900E+02 3.60912E+01 0.00000E+00
 -1      3487 1.18650E+02 3.47922E+01 0.00000E+00
 -1      3488 1.22400E+02 3.60912E+01 0.00000E+00
 -1      3489 1.23900E+02 3.60912E+01 0.00000E+00
 -1      3490 1.21650E+02 3.47922E+01 0.00000E+00
 -1      3491 1.25400E+02 3.60912E+01 0.00000E+00
 -1      3492 1.26900E+02 3.60912E+01 0.00000E+00
 -1      3493 1.24650E+02 3.47922E+01 0.00000E+00
 -1      3494 1.28400E+02 3.60912E+01 0.00000E+00
 -1      3495 1.29900E+02 3.60912E+01 0.00000E+00
 -1      3496 1.27650E+02 3.47922E+01 0.00000E+00
 -1      3497 1.31400E+02 3.60912E+01 0.00000E+00
 -1      3498 1.32900E+02 3.60912E+01 0.00000E+00
 -1      3499 1.30650E+02 3.47922E+01 0.00000E+00
 -1      3500 3.32850E+01 1.30992E+01 0.00000E+00
 -1      3501 3.17850E+01 1.30992E+01 0.00000E+00
 -1      3502 1.30778E+01 3.52531E+01 0.00000E+00
 -1      3503 1.38923E+01 3.56900E+01 0.00000E+00
 -1      3504 1.33200E+01 3.39331E+01 0.00000E+00
 -1      3505 5.99404E+01 1.32396E+01 0.00000E+00
 -1      3506 5.84404E+01 1.32396E+01 0.00000E+00
 -1      3507 6.32850E+01 1.30992E+01 0.00000E+00
 -1      3508 6.17850E+01 1.30992E+01 0.00000E+00
 -1      3509 6.62850E+01 1.30992E+01 0.00000E+00
 -1      3510 6.47850E+01 1.30992E+01 0.00000E+00
 -1      3511 6.40350E+01 1.43982E+01 0.00000E+00
 -1      3512 6.92850E+01 1.30992E+01 0.00000E+00
 -1      3513 6.77850E+01 1.30992E+01 0.00000E+00
 -1      3514 6.70350E+01 1.43982E+01 0.00000E+00
 -1      3515 7.22850E+01 1.30992E+01 0.00000E+00
 -1      3516 7.07850E+01 1.30992E+01 0.00000E+00
 -1      3517 7.00350E+01 1.43982E+01 0.00000E+00
 -1      3518 7.52850E+01 1.30992E+01 0.00000E+00
 -1      3519 7.37850E+01 1.30992E+01 0.00000E+00
 -1      3520 7.30350E+01 1.43982E+01 0.00000E+00
 -1      3521 7.82850E+01 1.30992E+01 0.00000E+00
 -1      3522 7.67850E+01 1.30992E+01 0.00000E+00
 -1      3523 7.60350E+01 1.43982E+01 0.00000E+00
 -1      3524 8.12850E+01 1.30992E+01 0.00000E+00
 -1      3525 7.97850E+01 1.30992E+01 0.00000E+00
 -1      3526 7.90350E+01 1.43982E+01 0.00000E+00
 -1      3527 8.42850E+01 1.30992E+01 0.00000E+00
 -1      3528 8.27850E+01 1.30992E+01 0.00000E+00
 -1      3529 8.20350E+01 1.43982E+01 0.00000E+00
 -1      3530 8.72850E+01 1.30992E+01 0.00000E+00
 -1      3531 8.57850E+01 1.30992E+01 0.00000E+00
 -1      3532 8.50350E+01 1.43982E+01 0.00000E+00
 -1      3533 9.02850E+01 1.30992E+01 0.00000E+00
 -1      3534 8.87850E+01 1.30992E+01 0.00000E+00
 -1      3535 8.80350E+01 1.43982E+01 0.00000E+00
 -1      3536 9.32850E+01 1.30992E+01 0.00000E+00
 -1      3537 9.17850E+01 1.30992E+01 0.00000E+00
 -1      3538 9.10350E+01 1.43982E+01 0.00000E+00
 -1      3539 9.62850E+01 1.30992E+01 0.00000E+00
 -1      3540 9.47850E+01 1.30992E+01 0.00000E+00
 -1      3541 9.40350E+01 1.43982E+01 0.00000E+00
 -1      3542 9.92850E+01 1.30992E+01 0.00000E+00
 -1      3543 9.77850E+01 1.30992E+01 0.00000E+00
 -1      3544 9.70350E+01 1.43982E+01 0.00000E+00
 -1      3545 1.02285E+02 1.30992E+01 0.00000E+00
 -1      3546 1.00785E+02 1.30992E+01 0.00000E+00
 -1      3547 1.00035E+02 1.43982E+01 0.00000E+00
 -1      3548 1.05285E+02 1.30992E+01 0.00000E+00
 -1      3549 1.03785E+02 1.30992E+01 0.00000E+00
 -1      3550 1.03035E+02 1.43982E+01 0.00000E+00
 -1      3551 1.08285E+02 1.30992E+01 0.00000E+00
 -1      3552 1.06785E+02 1.30992E+01 0.00000E+00
 -1      3553 1.06035E+02 1.43982E+01 0.00000E+00
 -1      3554 1.11285E+02 1.30992E+01 0.00000E+00
 -1      3555 1.09785E+02 1.30992E+01 0.00000E+00
 -1      3556 1.09035E+02 1.43982E+01 0.00000E+00
 -1      3557 1.14285E+02 1.30992E+01 0.00000E+00
 -1      3558 1.12785E+02 1.30992E+01 0.00000E+00
 -1      3559 1.12035E+02 1.43982E+01 0.00000E+00
 -1      3560 1.17285E+02 1.30992E+01 0.00000E+00
 -1      3561 1.15785E+02 1.30992E+01 0.00000E+00
 -1      3562 1.15035E+02 1.43982E+01 0.00000E+00
 -1      3563 1.20285E+02 1.30992E+01 0.00000E+00
 -1      3564 1.18785E+02 1.30992E+01 0.00000E+00
 -1      3565 1.18035E+02 1.43982E+01 0.00000E+00
 -1      3566 1.23285E+02 1.30992E+01 0.00000E+00
 -1      3567 1.21785E+02 1.30992E+01 0.00000E+00
 -1      3568 1.21035E+02 1.43982E+01 0.00000E+00
 -1      3569 1.26285E+02 1.30992E+01 0.00000E+00
 -1      3570 1.24785E+02 1.30992E+01 0.00000E+00
 -1      3571 1.24035E+02 1.43982E+01 0.00000E+00
 -1      3572 1.29285E+02 1.30992E+01 0.00000E+00
 -1      3573 1.27785E+02 1.30992E+01 0.00000E+00
 -1      3574 1.27035E+02 1.43982E+01 0.00000E+00
 -1      3575 1.32285E+02 1.30992E+01 0.00000E+00
 -1      3576 1.30785E+02 1.30992E+01 0.00000E+00
 -1      3577 1.30035E+02 1.43982E+01 0.00000E+00
 -1      3578 1.35285E+02 1.30992E+01 0.00000E+00
 -1      3579 1.33785E+02 1.30992E+01 0.00000E+00
 -1      3580 1.33035E+02 1.43982E+01 0.00000E+00
 -1      3581 4.21400E+01 1.45904E+01 0.00000E+00
 -1      3582 4.16708E+01 1.30461E+01 0.00000E+00
 -1      3583 4.01708E+01 1.30461E+01 0.00000E+00
 -1      3584 4.04423E+01 1.55379E+01 0.00000E+00
 -1      3585 1.35711E+02 2.72125E+01 0.00000E+00
 -1      3586 1.35711E+02 2.57375E+01 0.00000E+00
 -1      3587 6.51303E+01 2.12869E+01 0.00000E+00
 -1      3588 6.55816E+01 2.27738E+01 0.00000E+00
 -1      3589 6.35961E+01 1.83450E+01 0.00000E+00
 -1      3590 6.44919E+01 1.94695E+01 0.00000E+00
 -1      3591 2.12850E+01 1.30992E+01 0.00000E+00
 -1      3592 1.97850E+01 1.30992E+01 0.00000E+00
 -1      3593 3.45143E+01 2.69263E+01 0.00000E+00
 -1      3594 3.49350E+01 2.52769E+01 0.00000E+00
 -1      3595 3.57376E+01 2.34648E+01 0.00000E+00
 -1      3596 3.66057E+01 2.21907E+01 0.00000E+00
 -1      3597 1.53923E+01 3.56900E+01 0.00000E+00
 -1      3598 6.84000E+01 3.60912E+01 0.00000E+00
 -1      3599 6.99000E+01 3.60912E+01 0.00000E+00
 -1      3600 7.06500E+01 3.47922E+01 0.00000E+00
 -1      3601 6.52706E+01 3.36535E+01 0.00000E+00
 -1      3602 6.49018E+01 3.51950E+01 0.00000E+00
 -1      3603 6.42200E+01 3.69787E+01 0.00000E+00
 -1      3604 2.04000E+01 3.57110E+01 0.00000E+00
 -1      3605 2.19000E+01 3.57110E+01 0.00000E+00
 -1      3606 2.26500E+01 3.44120E+01 0.00000E+00
 -1      3607 1.74000E+01 3.57110E+01 0.00000E+00
 -1      3608 1.89000E+01 3.57110E+01 0.00000E+00
 -1      3609 1.96500E+01 3.44120E+01 0.00000E+00
 -1      3610 1.38643E+02 1.48068E+01 0.00000E+00
 -1      3611 1.38709E+02 1.35665E+01 0.00000E+00
 -1      3612 1.37750E+02 1.33444E+01 0.00000E+00
 -1      3613 1.37344E+02 1.55443E+01 0.00000E+00
 -1      3614 3.82033E+01 1.75313E+01 0.00000E+00
 -1      3615 3.91337E+01 1.64639E+01 0.00000E+00
 -1      3616 6.11582E+01 1.53335E+01 0.00000E+00
 -1      3617 6.23336E+01 1.64952E+01 0.00000E+00
 -1      3618 6.60288E+01 2.42556E+01 0.00000E+00
 -1      3619 6.64702E+01 2.57260E+01 0.00000E+00
 -1      3620 6.61254E+01 3.14156E+01 0.00000E+00
 -1      3621 6.56980E+01 3.25345E+01 0.00000E+00
 -1      3622 6.65921E+01 3.35633E+01 0.00000E+00
 -1      3623 6.54829E+01 3.64659E+01 0.00000E+00
 -1      3624 6.69073E+01 3.60362E+01 0.00000E+00
 -1      3625 3.45494E+01 3.41526E+01 0.00000E+00
 -1      3626 3.40436E+01 3.14202E+01 0.00000E+00
 -1      3627 3.29654E+01 3.06768E+01 0.00000E+00
 -1      3628 5.48247E+01 1.37810E+01 0.00000E+00
 -1      3629 3.61117E+01 2.10173E+01 0.00000E+00
 -1      3630 5.71651E+01 1.44345E+01 0.00000E+00
 -1      3631 1.29900E+01 1.76125E+01 0.00000E+00
 -1      3632 5.52597E+01 1.29951E+01 0.00000E+00
 -1      3633 1.29900E+01 2.64469E+01 0.00000E+00
 -1      3634 1.35711E+02 2.42687E+01 0.00000E+00
 -1      3635 1.35711E+02 2.28000E+01 0.00000E+00
 -1      3636 1.34412E+02 2.50063E+01 0.00000E+00
 -1      3637 3.43881E+01 3.29618E+01 0.00000E+00
 -1      3638 1.42890E+01 1.39344E+01 0.00000E+00
 -1      3639 1.42890E+01 1.54031E+01 0.00000E+00
 -1      3640 5.67597E+01 1.29951E+01 0.00000E+00
 -1      3641 3.10350E+01 1.43982E+01 0.00000E+00
 -1      3642 3.02850E+01 1.30992E+01 0.00000E+00
 -1      3643 2.87850E+01 1.30992E+01 0.00000E+00
 -1      3644 3.47850E+01 1.30992E+01 0.00000E+00
 -1      3645 3.40350E+01 1.43982E+01 0.00000E+00
 -1      3646 3.62850E+01 1.30992E+01 0.00000E+00
 -1      3647 1.34022E+02 3.63109E+01 0.00000E+00
 -1      3648 1.35329E+02 3.63744E+01 0.00000E+00
 -1      3649 1.35515E+02 3.54513E+01 0.00000E+00
 -1      3650 1.33272E+02 3.50119E+01 0.00000E+00
 -1      3651 2.65350E+01 1.18003E+01 0.00000E+00
 -1      3652 3.33767E+01 2.75753E+01 0.00000E+00
 -1      3653 1.35711E+02 2.86812E+01 0.00000E+00
 -1      3654 1.34412E+02 2.79438E+01 0.00000E+00
 -1      3655 1.35711E+02 3.01500E+01 0.00000E+00
 -1      3656 1.42890E+01 2.86531E+01 0.00000E+00
 -1      3657 1.42890E+01 3.01219E+01 0.00000E+00
 -1      3658 3.86708E+01 1.30461E+01 0.00000E+00
 -1      3659 3.89979E+01 1.52180E+01 0.00000E+00
 -1      3660 1.36791E+02 1.31223E+01 0.00000E+00
 -1      3661 6.56985E+01 1.99153E+01 0.00000E+00
 -1      3662 6.67841E+01 2.32144E+01 0.00000E+00
 -1      3663 1.35711E+02 2.13312E+01 0.00000E+00
 -1      3664 1.35711E+02 1.98625E+01 0.00000E+00
 -1      3665 1.34412E+02 2.20688E+01 0.00000E+00
 -1      3666 1.42890E+01 1.98219E+01 0.00000E+00
 -1      3667 1.42890E+01 2.12906E+01 0.00000E+00
 -1      3668 2.27850E+01 1.30992E+01 0.00000E+00
 -1      3669 2.20350E+01 1.43982E+01 0.00000E+00
 -1      3670 2.42850E+01 1.30992E+01 0.00000E+00
 -1      3671 1.39256E+01 3.13675E+01 0.00000E+00
 -1      3672 1.36834E+01 3.26875E+01 0.00000E+00
 -1      3673 1.44979E+01 3.31244E+01 0.00000E+00
 -1      3674 1.52246E+01 3.06331E+01 0.00000E+00
 -1      3675 1.55880E+01 2.20313E+01 0.00000E+00
 -1      3676 1.42890E+01 2.27656E+01 0.00000E+00
 -1      3677 1.42890E+01 2.42406E+01 0.00000E+00
 -1      3678 6.71568E+01 2.66125E+01 0.00000E+00
 -1      3679 6.78434E+01 2.74989E+01 0.00000E+00
 -1      3680 6.79179E+01 2.55825E+01 0.00000E+00
 -1      3681 1.35777E+02 1.86222E+01 0.00000E+00
 -1      3682 1.35842E+02 1.73818E+01 0.00000E+00
 -1      3683 1.34478E+02 1.93597E+01 0.00000E+00
 -1      3684 3.29887E+01 3.32212E+01 0.00000E+00
 -1      3685 6.70508E+01 3.04866E+01 0.00000E+00
 -1      3686 6.79449E+01 3.15154E+01 0.00000E+00
 -1      3687 6.79763E+01 2.95576E+01 0.00000E+00
 -1      3688 1.84669E+01 1.29495E+01 0.00000E+00
 -1      3689 1.71488E+01 1.27997E+01 0.00000E+00
 -1      3690 1.92169E+01 1.42485E+01 0.00000E+00
 -1      3691 1.36041E+02 1.44213E+01 0.00000E+00
 -1      3692 3.31678E+01 2.45660E+01 0.00000E+00
 -1      3693 3.44527E+01 2.40154E+01 0.00000E+00
 -1      3694 3.39704E+01 2.27540E+01 0.00000E+00
 -1      3695 1.61423E+01 3.43910E+01 0.00000E+00
 -1      3696 6.76573E+01 3.47372E+01 0.00000E+00
 -1      3697 6.37975E+01 1.62481E+01 0.00000E+00
 -1      3698 1.35702E+02 3.45283E+01 0.00000E+00
 -1      3699 1.35888E+02 3.36053E+01 0.00000E+00
 -1      3700 1.34580E+02 3.43086E+01 0.00000E+00
 -1      3701 1.35888E+02 3.21365E+01 0.00000E+00
 -1      3702 1.42890E+01 2.57109E+01 0.00000E+00
 -1      3703 1.42890E+01 2.71828E+01 0.00000E+00
 -1      3704 1.55880E+01 2.79172E+01 0.00000E+00
 -1      3705 1.55880E+01 2.49766E+01 0.00000E+00
 -1      3706 2.79000E+01 3.31130E+01 0.00000E+00
 -1      3707 2.94000E+01 3.31130E+01 0.00000E+00
 -1      3708 3.14887E+01 3.32212E+01 0.00000E+00
 -1      3709 7.29000E+01 3.34932E+01 0.00000E+00
 -1      3710 7.44000E+01 3.34932E+01 0.00000E+00
 -1      3711 1.46944E+01 1.23503E+01 0.00000E+00
 -1      3712 1.59934E+01 1.30847E+01 0.00000E+00
 -1      3713 7.59000E+01 3.34932E+01 0.00000E+00
 -1      3714 7.74000E+01 3.34932E+01 0.00000E+00
 -1      3715 7.51500E+01 3.21942E+01 0.00000E+00
 -1      3716 7.89000E+01 3.34932E+01 0.00000E+00
 -1      3717 8.04000E+01 3.34932E+01 0.00000E+00
 -1      3718 7.81500E+01 3.21942E+01 0.00000E+00
 -1      3719 8.19000E+01 3.34932E+01 0.00000E+00
 -1      3720 8.34000E+01 3.34932E+01 0.00000E+00
 -1      3721 8.11500E+01 3.21942E+01 0.00000E+00
 -1      3722 8.49000E+01 3.34932E+01 0.00000E+00
 -1      3723 8.64000E+01 3.34932E+01 0.00000E+00
 -1      3724 8.41500E+01 3.21942E+01 0.00000E+00
 -1      3725 8.79000E+01 3.34932E+01 0.00000E+00
 -1      3726 8.94000E+01 3.34932E+01 0.00000E+00
 -1      3727 8.71500E+01 3.21942E+01 0.00000E+00
 -1      3728 9.09000E+01 3.34932E+01 0.00000E+00
 -1      3729 9.24000E+01 3.34932E+01 0.00000E+00
 -1      3730 9.01500E+01 3.21942E+01 0.00000E+00
 -1      3731 9.39000E+01 3.34932E+01 0.00000E+00
 -1      3732 9.54000E+01 3.34932E+01 0.00000E+00
 -1      3733 9.31500E+01 3.21942E+01 0.00000E+00
 -1      3734 9.69000E+01 3.34932E+01 0.00000E+00
 -1      3735 9.84000E+01 3.34932E+01 0.00000E+00
 -1      3736 9.61500E+01 3.21942E+01 0.00000E+00
 -1      3737 9.99000E+01 3.34932E+01 0.00000E+00
 -1      3738 1.01400E+02 3.34932E+01 0.00000E+00
 -1      3739 9.91500E+01 3.21942E+01 0.00000E+00
 -1      3740 1.02900E+02 3.34932E+01 0.00000E+00
 -1      3741 1.04400E+02 3.34932E+01 0.00000E+00
 -1      3742 1.02150E+02 3.21942E+01 0.00000E+00
 -1      3743 1.05900E+02 3.34932E+01 0.00000E+00
 -1      3744 1.07400E+02 3.34932E+01 0.00000E+00
 -1      3745 1.05150E+02 3.21942E+01 0.00000E+00
 -1      3746 1.08900E+02 3.34932E+01 0.00000E+00
 -1      3747 1.10400E+02 3.34932E+01 0.00000E+00
 -1      3748 1.08150E+02 3.21942E+01 0.00000E+00
 -1      3749 1.11900E+02 3.34932E+01 0.00000E+00
 -1      3750 1.13400E+02 3.34932E+01 0.00000E+00
 -1      3751 1.11150E+02 3.21942E+01 0.00000E+00
 -1      3752 1.14900E+02 3.34932E+01 0.00000E+00
 -1      3753 1.16400E+02 3.34932E+01 0.00000E+00
 -1      3754 1.14150E+02 3.21942E+01 0.00000E+00
 -1      3755 1.17900E+02 3.34932E+01 0.00000E+00
 -1      3756 1.19400E+02 3.34932E+01 0.00000E+00
 -1      3757 1.17150E+02 3.21942E+01 0.00000E+00
 -1      3758 1.20900E+02 3.34932E+01 0.00000E+00
 -1      3759 1.22400E+02 3.34932E+01 0.00000E+00
 -1      3760 1.20150E+02 3.21942E+01 0.00000E+00
 -1      3761 1.23900E+02 3.34932E+01 0.00000E+00
 -1      3762 1.25400E+02 3.34932E+01 0.00000E+00
 -1      3763 1.23150E+02 3.21942E+01 0.00000E+00
 -1      3764 1.26900E+02 3.34932E+01 0.00000E+00
 -1      3765 1.28400E+02 3.34932E+01 0.00000E+00
 -1      3766 1.26150E+02 3.21942E+01 0.00000E+00
 -1      3767 1.29900E+02 3.34932E+01 0.00000E+00
 -1      3768 1.31400E+02 3.34932E+01 0.00000E+00
 -1      3769 1.29150E+02 3.21942E+01 0.00000E+00
 -1      3770 2.72850E+01 1.30992E+01 0.00000E+00
 -1      3771 2.57850E+01 1.30992E+01 0.00000E+00
 -1      3772 2.80350E+01 1.43982E+01 0.00000E+00
 -1      3773 1.42890E+01 1.68750E+01 0.00000E+00
 -1      3774 1.42890E+01 1.83500E+01 0.00000E+00
 -1      3775 1.55880E+01 1.90844E+01 0.00000E+00
 -1      3776 1.55880E+01 1.61406E+01 0.00000E+00
 -1      3777 6.06904E+01 1.45386E+01 0.00000E+00
 -1      3778 3.73621E+01 1.39721E+01 0.00000E+00
 -1      3779 3.66121E+01 1.52711E+01 0.00000E+00
 -1      3780 6.52975E+01 1.62481E+01 0.00000E+00
 -1      3781 7.37850E+01 1.56973E+01 0.00000E+00
 -1      3782 7.22850E+01 1.56973E+01 0.00000E+00
 -1      3783 7.67850E+01 1.56973E+01 0.00000E+00
 -1      3784 7.52850E+01 1.56973E+01 0.00000E+00
 -1      3785 7.45350E+01 1.69963E+01 0.00000E+00
 -1      3786 7.97850E+01 1.56973E+01 0.00000E+00
 -1      3787 7.82850E+01 1.56973E+01 0.00000E+00
 -1      3788 7.75350E+01 1.69963E+01 0.00000E+00
 -1      3789 8.27850E+01 1.56973E+01 0.00000E+00
 -1      3790 8.12850E+01 1.56973E+01 0.00000E+00
 -1      3791 8.05350E+01 1.69963E+01 0.00000E+00
 -1      3792 8.57850E+01 1.56973E+01 0.00000E+00
 -1      3793 8.42850E+01 1.56973E+01 0.00000E+00
 -1      3794 8.35350E+01 1.69963E+01 0.00000E+00
 -1      3795 8.87850E+01 1.56973E+01 0.00000E+00
 -1      3796 8.72850E+01 1.56973E+01 0.00000E+00
 -1      3797 8.65350E+01 1.69963E+01 0.00000E+00
 -1      3798 9.17850E+01 1.56973E+01 0.00000E+00
 -1      3799 9.02850E+01 1.56973E+01 0.00000E+00
 -1      3800 8.95350E+01 1.69963E+01 0.00000E+00
 -1      3801 9.47850E+01 1.56973E+01 0.00000E+00
 -1      3802 9.32850E+01 1.56973E+01 0.00000E+00
 -1      3803 9.25350E+01 1.69963E+01 0.00000E+00
 -1      3804 9.77850E+01 1.56973E+01 0.00000E+00
 -1      3805 9.62850E+01 1.56973E+01 0.00000E+00
 -1      3806 9.55350E+01 1.69963E+01 0.00000E+00
 -1      3807 1.00785E+02 1.56973E+01 0.00000E+00
 -1      3808 9.92850E+01 1.56973E+01 0.00000E+00
 -1      3809 9.85350E+01 1.69963E+01 0.00000E+00
 -1      3810 1.03785E+02 1.56973E+01 0.00000E+00
 -1      3811 1.02285E+02 1.56973E+01 0.00000E+00
 -1      3812 1.01535E+02 1.69963E+01 0.00000E+00
 -1      3813 1.06785E+02 1.56973E+01 0.00000E+00
 -1      3814 1.05285E+02 1.56973E+01 0.00000E+00
 -1      3815 1.04535E+02 1.69963E+01 0.00000E+00
 -1      3816 1.09785E+02 1.56973E+01 0.00000E+00
 -1      3817 1.08285E+02 1.56973E+01 0.00000E+00
 -1      3818 1.07535E+02 1.69963E+01 0.00000E+00
 -1      3819 1.12785E+02 1.56973E+01 0.00000E+00
 -1      3820 1.11285E+02 1.56973E+01 0.00000E+00
 -1      3821 1.10535E+02 1.69963E+01 0.00000E+00
 -1      3822 1.15785E+02 1.56973E+01 0.00000E+00
 -1      3823 1.14285E+02 1.56973E+01 0.00000E+00
 -1      3824 1.13535E+02 1.69963E+01 0.00000E+00
 -1      3825 1.18785E+02 1.56973E+01 0.00000E+00
 -1      3826 1.17285E+02 1.56973E+01 0.00000E+00
 -1      3827 1.16535E+02 1.69963E+01 0.00000E+00
 -1      3828 1.21785E+02 1.56973E+01 0.00000E+00
 -1      3829 1.20285E+02 1.56973E+01 0.00000E+00
 -1      3830 1.19535E+02 1.69963E+01 0.00000E+00
 -1      3831 1.24785E+02 1.56973E+01 0.00000E+00
 -1      3832 1.23285E+02 1.56973E+01 0.00000E+00
 -1      3833 1.22535E+02 1.69963E+01 0.00000E+00
 -1      3834 1.27785E+02 1.56973E+01 0.00000E+00
 -1      3835 1.26285E+02 1.56973E+01 0.00000E+00
 -1      3836 1.25535E+02 1.69963E+01 0.00000E+00
 -1      3837 1.30785E+02 1.56973E+01 0.00000E+00
 -1      3838 1.29285E+02 1.56973E+01 0.00000E+00
 -1      3839 1.28535E+02 1.69963E+01 0.00000E+00
 -1      3840 3.72422E+01 1.86762E+01 0.00000E+00
 -1      3841 3.67282E+01 1.72890E+01 0.00000E+00
 -1      3842 3.63676E+01 1.91325E+01 0.00000E+00
 -1      3843 6.76221E+01 2.21531E+01 0.00000E+00
 -1      3844 6.80694E+01 2.36348E+01 0.00000E+00
 -1      3845 3.19789E+01 2.82519E+01 0.00000E+00
 -1      3846 3.22523E+01 2.65041E+01 0.00000E+00
 -1      3847 1.34589E+02 3.13990E+01 0.00000E+00
 -1      3848 1.35838E+02 1.55213E+01 0.00000E+00
 -1      3849 1.65056E+01 3.31454E+01 0.00000E+00
 -1      3850 6.82975E+01 1.62481E+01 0.00000E+00
 -1      3851 6.67975E+01 1.62481E+01 0.00000E+00
 -1      3852 6.65600E+01 1.80979E+01 0.00000E+00
 -1      3853 6.71985E+01 1.99153E+01 0.00000E+00
 -1      3854 6.80848E+01 3.36183E+01 0.00000E+00
 -1      3855 1.89000E+01 3.31130E+01 0.00000E+00
 -1      3856 2.04000E+01 3.31130E+01 0.00000E+00
 -1      3857 2.19000E+01 3.31130E+01 0.00000E+00
 -1      3858 2.34000E+01 3.31130E+01 0.00000E+00
 -1      3859 2.11500E+01 3.18140E+01 0.00000E+00
 -1      3860 3.17030E+01 3.09592E+01 0.00000E+00
 -1      3861 3.18409E+01 2.96056E+01 0.00000E+00
 -1      3862 3.07165E+01 2.85344E+01 0.00000E+00
 -1      3863 2.49000E+01 3.31130E+01 0.00000E+00
 -1      3864 2.64000E+01 3.31130E+01 0.00000E+00
 -1      3865 2.71500E+01 3.18140E+01 0.00000E+00
 -1      3866 2.41500E+01 3.18140E+01 0.00000E+00
 -1      3867 3.46548E+01 2.15048E+01 0.00000E+00
 -1      3868 3.55112E+01 2.03187E+01 0.00000E+00
 -1      3869 3.49107E+01 1.96201E+01 0.00000E+00
 -1      3870 7.10413E+01 1.59727E+01 0.00000E+00
 -1      3871 6.95413E+01 1.59727E+01 0.00000E+00
 -1      3872 6.93038E+01 1.78225E+01 0.00000E+00
 -1      3873 7.17913E+01 1.72717E+01 0.00000E+00
 -1      3874 3.07387E+01 3.19222E+01 0.00000E+00
 -1      3875 1.67434E+01 1.43837E+01 0.00000E+00
 -1      3876 1.34539E+02 1.62588E+01 0.00000E+00
 -1      3877 3.56511E+01 1.64161E+01 0.00000E+00
 -1      3878 6.87648E+01 3.25668E+01 0.00000E+00
 -1      3879 6.98301E+01 3.37407E+01 0.00000E+00
 -1      3880 7.13301E+01 3.37407E+01 0.00000E+00
 -1      3881 6.96902E+01 3.16379E+01 0.00000E+00
 -1      3882 1.72556E+01 3.18464E+01 0.00000E+00
 -1      3883 7.20801E+01 3.24417E+01 0.00000E+00
 -1      3884 1.68870E+01 2.12938E+01 0.00000E+00
 -1      3885 1.68870E+01 2.27687E+01 0.00000E+00
 -1      3886 1.33113E+02 2.57406E+01 0.00000E+00
 -1      3887 1.33113E+02 2.42719E+01 0.00000E+00
 -1      3888 1.68870E+01 1.83500E+01 0.00000E+00
 -1      3889 1.68870E+01 1.98219E+01 0.00000E+00
 -1      3890 1.81860E+01 2.05594E+01 0.00000E+00
 -1      3891 6.88937E+01 1.90791E+01 0.00000E+00
 -1      3892 6.80322E+01 2.08965E+01 0.00000E+00
 -1      3893 6.93174E+01 2.13169E+01 0.00000E+00
 -1      3894 7.01375E+01 1.88037E+01 0.00000E+00
 -1      3895 1.33458E+02 3.40889E+01 0.00000E+00
 -1      3896 1.68152E+01 1.56309E+01 0.00000E+00
 -1      3897 1.68152E+01 1.71028E+01 0.00000E+00
 -1      3898 1.81142E+01 1.78403E+01 0.00000E+00
 -1      3899 1.79706E+01 1.53459E+01 0.00000E+00
 -1      3900 3.41511E+01 1.64161E+01 0.00000E+00
 -1      3901 3.33699E+01 2.20554E+01 0.00000E+00
 -1      3902 6.95939E+01 2.34600E+01 0.00000E+00
 -1      3903 6.87559E+01 2.45213E+01 0.00000E+00
 -1      3904 6.94425E+01 2.54077E+01 0.00000E+00
 -1      3905 1.33785E+02 1.56973E+01 0.00000E+00
 -1      3906 1.32285E+02 1.56973E+01 0.00000E+00
 -1      3907 1.33113E+02 2.86781E+01 0.00000E+00
 -1      3908 1.33113E+02 2.72094E+01 0.00000E+00
 -1      3909 1.31814E+02 2.64750E+01 0.00000E+00
 -1      3910 1.32708E+02 3.27899E+01 0.00000E+00
 -1      3911 3.39452E+01 1.82370E+01 0.00000E+00
 -1      3912 3.23291E+01 1.62192E+01 0.00000E+00
 -1      3913 1.32531E+02 3.08033E+01 0.00000E+00
 -1      3914 3.08291E+01 1.62192E+01 0.00000E+00
 -1      3915 3.30888E+01 1.94232E+01 0.00000E+00
 -1      3916 1.68870E+01 2.71820E+01 0.00000E+00
 -1      3917 1.68870E+01 2.86523E+01 0.00000E+00
 -1      3918 2.50350E+01 1.43982E+01 0.00000E+00
 -1      3919 1.33113E+02 2.28031E+01 0.00000E+00
 -1      3920 1.33113E+02 2.13344E+01 0.00000E+00
 -1      3921 1.31814E+02 2.35375E+01 0.00000E+00
 -1      3922 3.03721E+01 2.59193E+01 0.00000E+00
 -1      3923 3.17700E+01 2.52427E+01 0.00000E+00
 -1      3924 3.12876E+01 2.39812E+01 0.00000E+00
 -1      3925 2.27850E+01 1.56973E+01 0.00000E+00
 -1      3926 2.12850E+01 1.56973E+01 0.00000E+00
 -1      3927 1.76190E+01 3.06007E+01 0.00000E+00
 -1      3928 1.31535E+02 1.69963E+01 0.00000E+00
 -1      3929 1.33179E+02 2.00940E+01 0.00000E+00
 -1      3930 1.33244E+02 1.88537E+01 0.00000E+00
 -1      3931 1.31880E+02 2.08284E+01 0.00000E+00
 -1      3932 6.87374E+01 2.85277E+01 0.00000E+00
 -1      3933 6.96315E+01 2.95565E+01 0.00000E+00
 -1      3934 6.94986E+01 2.74978E+01 0.00000E+00
 -1      3935 1.92887E+01 1.54957E+01 0.00000E+00
 -1      3936 2.00387E+01 1.67947E+01 0.00000E+00
 -1      3937 2.96143E+01 3.08510E+01 0.00000E+00
 -1      3938 1.89180E+01 2.98656E+01 0.00000E+00
 -1      3939 7.74000E+01 3.08952E+01 0.00000E+00
 -1      3940 7.89000E+01 3.08952E+01 0.00000E+00
 -1      3941 8.04000E+01 3.08952E+01 0.00000E+00
 -1      3942 8.19000E+01 3.08952E+01 0.00000E+00
 -1      3943 7.96500E+01 2.95962E+01 0.00000E+00
 -1      3944 8.34000E+01 3.08952E+01 0.00000E+00
 -1      3945 8.49000E+01 3.08952E+01 0.00000E+00
 -1      3946 8.26500E+01 2.95962E+01 0.00000E+00
 -1      3947 8.64000E+01 3.08952E+01 0.00000E+00
 -1      3948 8.79000E+01 3.08952E+01 0.00000E+00
 -1      3949 8.56500E+01 2.95962E+01 0.00000E+00
 -1      3950 8.94000E+01 3.08952E+01 0.00000E+00
 -1      3951 9.09000E+01 3.08952E+01 0.00000E+00
 -1      3952 8.86500E+01 2.95962E+01 0.00000E+00
 -1      3953 9.24000E+01 3.08952E+01 0.00000E+00
 -1      3954 9.39000E+01 3.08952E+01 0.00000E+00
 -1      3955 9.16500E+01 2.95962E+01 0.00000E+00
 -1      3956 9.54000E+01 3.08952E+01 0.00000E+00
 -1      3957 9.69000E+01 3.08952E+01 0.00000E+00
 -1      3958 9.46500E+01 2.95962E+01 0.00000E+00
 -1      3959 9.84000E+01 3.08952E+01 0.00000E+00
 -1      3960 9.99000E+01 3.08952E+01 0.00000E+00
 -1      3961 9.76500E+01 2.95962E+01 0.00000E+00
 -1      3962 1.01400E+02 3.08952E+01 0.00000E+00
 -1      3963 1.02900E+02 3.08952E+01 0.00000E+00
 -1      3964 1.00650E+02 2.95962E+01 0.00000E+00
 -1      3965 1.04400E+02 3.08952E+01 0.00000E+00
 -1      3966 1.05900E+02 3.08952E+01 0.00000E+00
 -1      3967 1.03650E+02 2.95962E+01 0.00000E+00
 -1      3968 1.07400E+02 3.08952E+01 0.00000E+00
 -1      3969 1.08900E+02 3.08952E+01 0.00000E+00
 -1      3970 1.06650E+02 2.95962E+01 0.00000E+00
 -1      3971 1.10400E+02 3.08952E+01 0.00000E+00
 -1      3972 1.11900E+02 3.08952E+01 0.00000E+00
 -1      3973 1.09650E+02 2.95962E+01 0.00000E+00
 -1      3974 1.13400E+02 3.08952E+01 0.00000E+00
 -1      3975 1.14900E+02 3.08952E+01 0.00000E+00
 -1      3976 1.12650E+02 2.95962E+01 0.00000E+00
 -1      3977 1.16400E+02 3.08952E+01 0.00000E+00
 -1      3978 1.17900E+02 3.08952E+01 0.00000E+00
 -1      3979 1.15650E+02 2.95962E+01 0.00000E+00
 -1      3980 1.19400E+02 3.08952E+01 0.00000E+00
 -1      3981 1.20900E+02 3.08952E+01 0.00000E+00
 -1      3982 1.18650E+02 2.95962E+01 0.00000E+00
 -1      3983 1.22400E+02 3.08952E+01 0.00000E+00
 -1      3984 1.23900E+02 3.08952E+01 0.00000E+00
 -1      3985 1.21650E+02 2.95962E+01 0.00000E+00
 -1      3986 1.25400E+02 3.08952E+01 0.00000E+00
 -1      3987 1.26900E+02 3.08952E+01 0.00000E+00
 -1      3988 1.24650E+02 2.95962E+01 0.00000E+00
 -1      3989 1.28400E+02 3.08952E+01 0.00000E+00
 -1      3990 1.29900E+02 3.08952E+01 0.00000E+00
 -1      3991 1.27650E+02 2.95962E+01 0.00000E+00
 -1      3992 2.93291E+01 1.62192E+01 0.00000E+00
 -1      3993 2.78291E+01 1.62192E+01 0.00000E+00
 -1      3994 3.06233E+01 1.80402E+01 0.00000E+00
 -1      3995 2.01105E+01 1.80419E+01 0.00000E+00
 -1      3996 8.12850E+01 1.82952E+01 0.00000E+00
 -1      3997 7.97850E+01 1.82952E+01 0.00000E+00
 -1      3998 7.82850E+01 1.82952E+01 0.00000E+00
 -1      3999 7.67850E+01 1.82952E+01 0.00000E+00
 -1      4000 7.90350E+01 1.95942E+01 0.00000E+00
 -1      4001 7.52850E+01 1.82952E+01 0.00000E+00
 -1      4002 7.37850E+01 1.82952E+01 0.00000E+00
 -1      4003 7.60350E+01 1.95942E+01 0.00000E+00
 -1      4004 8.42850E+01 1.82952E+01 0.00000E+00
 -1      4005 8.27850E+01 1.82952E+01 0.00000E+00
 -1      4006 8.20350E+01 1.95942E+01 0.00000E+00
 -1      4007 8.72850E+01 1.82952E+01 0.00000E+00
 -1      4008 8.57850E+01 1.82952E+01 0.00000E+00
 -1      4009 8.50350E+01 1.95942E+01 0.00000E+00
 -1      4010 9.02850E+01 1.82952E+01 0.00000E+00
 -1      4011 8.87850E+01 1.82952E+01 0.00000E+00
 -1      4012 8.80350E+01 1.95942E+01 0.00000E+00
 -1      4013 9.32850E+01 1.82952E+01 0.00000E+00
 -1      4014 9.17850E+01 1.82952E+01 0.00000E+00
 -1      4015 9.10350E+01 1.95942E+01 0.00000E+00
 -1      4016 9.62850E+01 1.82952E+01 0.00000E+00
 -1      4017 9.47850E+01 1.82952E+01 0.00000E+00
 -1      4018 9.40350E+01 1.95942E+01 0.00000E+00
 -1      4019 9.92850E+01 1.82952E+01 0.00000E+00
 -1      4020 9.77850E+01 1.82952E+01 0.00000E+00
 -1      4021 9.70350E+01 1.95942E+01 0.00000E+00
 -1      4022 1.02285E+02 1.82952E+01 0.00000E+00
 -1      4023 1.00785E+02 1.82952E+01 0.00000E+00
 -1      4024 1.00035E+02 1.95942E+01 0.00000E+00
 -1      4025 1.05285E+02 1.82952E+01 0.00000E+00
 -1      4026 1.03785E+02 1.82952E+01 0.00000E+00
 -1      4027 1.03035E+02 1.95942E+01 0.00000E+00
 -1      4028 1.08285E+02 1.82952E+01 0.00000E+00
 -1      4029 1.06785E+02 1.82952E+01 0.00000E+00
 -1      4030 1.06035E+02 1.95942E+01 0.00000E+00
 -1      4031 1.11285E+02 1.82952E+01 0.00000E+00
 -1      4032 1.09785E+02 1.82952E+01 0.00000E+00
 -1      4033 1.09035E+02 1.95942E+01 0.00000E+00
 -1      4034 1.14285E+02 1.82952E+01 0.00000E+00
 -1      4035 1.12785E+02 1.82952E+01 0.00000E+00
 -1      4036 1.12035E+02 1.95942E+01 0.00000E+00
 -1      4037 1.17285E+02 1.82952E+01 0.00000E+00
 -1      4038 1.15785E+02 1.82952E+01 0.00000E+00
 -1      4039 1.15035E+02 1.95942E+01 0.00000E+00
 -1      4040 1.20285E+02 1.82952E+01 0.00000E+00
 -1      4041 1.18785E+02 1.82952E+01 0.00000E+00
 -1      4042 1.18035E+02 1.95942E+01 0.00000E+00
 -1      4043 1.23285E+02 1.82952E+01 0.00000E+00
 -1      4044 1.21785E+02 1.82952E+01 0.00000E+00
 -1      4045 1.21035E+02 1.95942E+01 0.00000E+00
 -1      4046 1.26285E+02 1.82952E+01 0.00000E+00
 -1      4047 1.24785E+02 1.82952E+01 0.00000E+00
 -1      4048 1.24035E+02 1.95942E+01 0.00000E+00
 -1      4049 1.29285E+02 1.82952E+01 0.00000E+00
 -1      4050 1.27785E+02 1.82952E+01 0.00000E+00
 -1      4051 1.27035E+02 1.95942E+01 0.00000E+00
 -1      4052 7.04458E+01 3.04734E+01 0.00000E+00
 -1      4053 7.12657E+01 3.15248E+01 0.00000E+00
 -1      4054 7.28357E+01 3.12773E+01 0.00000E+00
 -1      4055 7.12070E+01 2.94434E+01 0.00000E+00
 -1      4056 1.33789E+02 1.75578E+01 0.00000E+00
 -1      4057 1.68870E+01 2.57117E+01 0.00000E+00
 -1      4058 1.81860E+01 2.64469E+01 0.00000E+00
 -1      4059 1.68870E+01 2.42414E+01 0.00000E+00
 -1      4060 2.57850E+01 1.56973E+01 0.00000E+00
 -1      4061 2.42850E+01 1.56973E+01 0.00000E+00
 -1      4062 2.35350E+01 1.69963E+01 0.00000E+00
 -1      4063 1.30515E+02 2.42719E+01 0.00000E+00
 -1      4064 1.30515E+02 2.28031E+01 0.00000E+00
 -1      4065 1.31232E+02 3.00690E+01 0.00000E+00
 -1      4066 1.81860E+01 2.35039E+01 0.00000E+00
 -1      4067 1.32490E+02 1.82922E+01 0.00000E+00
 -1      4068 3.24793E+01 2.07393E+01 0.00000E+00
 -1      4069 3.15138E+01 1.93563E+01 0.00000E+00
 -1      4070 3.00138E+01 1.93563E+01 0.00000E+00
 -1      4071 3.17949E+01 2.19885E+01 0.00000E+00
 -1      4072 2.04180E+01 2.98656E+01 0.00000E+00
 -1      4073 2.19180E+01 2.98656E+01 0.00000E+00
 -1      4074 1.96860E+01 2.79172E+01 0.00000E+00
 -1      4075 2.82142E+01 3.04134E+01 0.00000E+00
 -1      4076 2.91785E+01 2.94503E+01 0.00000E+00
 -1      4077 7.44000E+01 3.08952E+01 0.00000E+00
 -1      4078 7.59000E+01 3.08952E+01 0.00000E+00
 -1      4079 7.66500E+01 2.95962E+01 0.00000E+00
 -1      4080 2.93165E+01 2.80967E+01 0.00000E+00
 -1      4081 1.30990E+02 1.82922E+01 0.00000E+00
 -1      4082 7.04140E+01 2.09467E+01 0.00000E+00
 -1      4083 7.00040E+01 2.22034E+01 0.00000E+00
 -1      4084 7.06905E+01 2.30898E+01 0.00000E+00
 -1      4085 3.03971E+01 2.26651E+01 0.00000E+00
 -1      4086 2.01105E+01 1.95138E+01 0.00000E+00
 -1      4087 2.01105E+01 2.09856E+01 0.00000E+00
 -1      4088 2.20350E+01 1.84681E+01 0.00000E+00
 -1      4089 1.30482E+02 2.87700E+01 0.00000E+00
 -1      4090 1.96860E+01 2.64469E+01 0.00000E+00
 -1      4091 1.98983E+01 2.29799E+01 0.00000E+00
 -1      4092 1.98983E+01 2.44526E+01 0.00000E+00
 -1      4093 2.13983E+01 2.59229E+01 0.00000E+00
 -1      4094 2.18228E+01 2.19343E+01 0.00000E+00
 -1      4095 2.67142E+01 3.04134E+01 0.00000E+00
 -1      4096 7.35857E+01 2.99783E+01 0.00000E+00
 -1      4097 1.30240E+02 1.95912E+01 0.00000E+00
 -1      4098 1.30515E+02 2.72094E+01 0.00000E+00
 -1      4099 1.30515E+02 2.57406E+01 0.00000E+00
 -1      4100 1.29216E+02 2.50063E+01 0.00000E+00
 -1      4101 7.11746E+01 2.53752E+01 0.00000E+00
 -1      4102 7.03366E+01 2.64365E+01 0.00000E+00
 -1      4103 7.12307E+01 2.74653E+01 0.00000E+00
 -1      4104 2.70791E+01 1.75182E+01 0.00000E+00
 -1      4105 2.35350E+01 1.84681E+01 0.00000E+00
 -1      4106 2.88341E+01 2.68353E+01 0.00000E+00
 -1      4107 2.83518E+01 2.55738E+01 0.00000E+00
 -1      4108 2.72961E+01 2.77513E+01 0.00000E+00
 -1      4109 1.30174E+02 2.08315E+01 0.00000E+00
 -1      4110 1.28876E+02 2.15659E+01 0.00000E+00
 -1      4111 2.26860E+01 2.79172E+01 0.00000E+00
 -1      4112 2.34180E+01 2.98656E+01 0.00000E+00
 -1      4113 2.49180E+01 2.98656E+01 0.00000E+00
 -1      4114 7.28178E+01 2.07137E+01 0.00000E+00
 -1      4115 7.20678E+01 1.94147E+01 0.00000E+00
 -1      4116 8.19000E+01 2.82972E+01 0.00000E+00
 -1      4117 8.34000E+01 2.82972E+01 0.00000E+00
 -1      4118 8.49000E+01 2.82972E+01 0.00000E+00
 -1      4119 8.64000E+01 2.82972E+01 0.00000E+00
 -1      4120 8.41500E+01 2.69982E+01 0.00000E+00
 -1      4121 8.79000E+01 2.82972E+01 0.00000E+00
 -1      4122 8.94000E+01 2.82972E+01 0.00000E+00
 -1      4123 8.71500E+01 2.69982E+01 0.00000E+00
 -1      4124 9.09000E+01 2.82972E+01 0.00000E+00
 -1      4125 9.24000E+01 2.82972E+01 0.00000E+00
 -1      4126 9.01500E+01 2.69982E+01 0.00000E+00
 -1      4127 9.39000E+01 2.82972E+01 0.00000E+00
 -1      4128 9.54000E+01 2.82972E+01 0.00000E+00
 -1      4129 9.31500E+01 2.69982E+01 0.00000E+00
 -1      4130 9.69000E+01 2.82972E+01 0.00000E+00
 -1      4131 9.84000E+01 2.82972E+01 0.00000E+00
 -1      4132 9.61500E+01 2.69982E+01 0.00000E+00
 -1      4133 9.99000E+01 2.82972E+01 0.00000E+00
 -1      4134 1.01400E+02 2.82972E+01 0.00000E+00
 -1      4135 9.91500E+01 2.69982E+01 0.00000E+00
 -1      4136 1.02900E+02 2.82972E+01 0.00000E+00
 -1      4137 1.04400E+02 2.82972E+01 0.00000E+00
 -1      4138 1.02150E+02 2.69982E+01 0.00000E+00
 -1      4139 1.05900E+02 2.82972E+01 0.00000E+00
 -1      4140 1.07400E+02 2.82972E+01 0.00000E+00
 -1      4141 1.05150E+02 2.69982E+01 0.00000E+00
 -1      4142 1.08900E+02 2.82972E+01 0.00000E+00
 -1      4143 1.10400E+02 2.82972E+01 0.00000E+00
 -1      4144 1.08150E+02 2.69982E+01 0.00000E+00
 -1      4145 1.11900E+02 2.82972E+01 0.00000E+00
 -1      4146 1.13400E+02 2.82972E+01 0.00000E+00
 -1      4147 1.11150E+02 2.69982E+01 0.00000E+00
 -1      4148 1.14900E+02 2.82972E+01 0.00000E+00
 -1      4149 1.16400E+02 2.82972E+01 0.00000E+00
 -1      4150 1.14150E+02 2.69982E+01 0.00000E+00
 -1      4151 1.17900E+02 2.82972E+01 0.00000E+00
 -1      4152 1.19400E+02 2.82972E+01 0.00000E+00
 -1      4153 1.17150E+02 2.69982E+01 0.00000E+00
 -1      4154 1.20900E+02 2.82972E+01 0.00000E+00
 -1      4155 1.22400E+02 2.82972E+01 0.00000E+00
 -1      4156 1.20150E+02 2.69982E+01 0.00000E+00
 -1      4157 1.23900E+02 2.82972E+01 0.00000E+00
 -1      4158 1.25400E+02 2.82972E+01 0.00000E+00
 -1      4159 1.23150E+02 2.69982E+01 0.00000E+00
 -1      4160 7.97850E+01 2.08932E+01 0.00000E+00
 -1      4161 7.82850E+01 2.08932E+01 0.00000E+00
 -1      4162 8.57850E+01 2.08932E+01 0.00000E+00
 -1      4163 8.42850E+01 2.08932E+01 0.00000E+00
 -1      4164 2.88846E+01 2.33410E+01 0.00000E+00
 -1      4165 2.93919E+01 2.13483E+01 0.00000E+00
 -1      4166 8.27850E+01 2.08932E+01 0.00000E+00
 -1      4167 8.12850E+01 2.08932E+01 0.00000E+00
 -1      4168 8.05350E+01 2.21922E+01 0.00000E+00
 -1      4169 8.35350E+01 2.21922E+01 0.00000E+00
 -1      4170 7.67850E+01 2.08932E+01 0.00000E+00
 -1      4171 7.52850E+01 2.08932E+01 0.00000E+00
 -1      4172 7.75350E+01 2.21922E+01 0.00000E+00
 -1      4173 8.87850E+01 2.08932E+01 0.00000E+00
 -1      4174 8.72850E+01 2.08932E+01 0.00000E+00
 -1      4175 8.65350E+01 2.21922E+01 0.00000E+00
 -1      4176 9.17850E+01 2.08932E+01 0.00000E+00
 -1      4177 9.02850E+01 2.08932E+01 0.00000E+00
 -1      4178 8.95350E+01 2.21922E+01 0.00000E+00
 -1      4179 9.47850E+01 2.08932E+01 0.00000E+00
 -1      4180 9.32850E+01 2.08932E+01 0.00000E+00
 -1      4181 9.25350E+01 2.21922E+01 0.00000E+00
 -1      4182 9.77850E+01 2.08932E+01 0.00000E+00
 -1      4183 9.62850E+01 2.08932E+01 0.00000E+00
 -1      4184 9.55350E+01 2.21922E+01 0.00000E+00
 -1      4185 1.00785E+02 2.08932E+01 0.00000E+00
 -1      4186 9.92850E+01 2.08932E+01 0.00000E+00
 -1      4187 9.85350E+01 2.21922E+01 0.00000E+00
 -1      4188 1.03785E+02 2.08932E+01 0.00000E+00
 -1      4189 1.02285E+02 2.08932E+01 0.00000E+00
 -1      4190 1.01535E+02 2.21922E+01 0.00000E+00
 -1      4191 1.06785E+02 2.08932E+01 0.00000E+00
 -1      4192 1.05285E+02 2.08932E+01 0.00000E+00
 -1      4193 1.04535E+02 2.21922E+01 0.00000E+00
 -1      4194 1.09785E+02 2.08932E+01 0.00000E+00
 -1      4195 1.08285E+02 2.08932E+01 0.00000E+00
 -1      4196 1.07535E+02 2.21922E+01 0.00000E+00
 -1      4197 1.12785E+02 2.08932E+01 0.00000E+00
 -1      4198 1.11285E+02 2.08932E+01 0.00000E+00
 -1      4199 1.10535E+02 2.21922E+01 0.00000E+00
 -1      4200 1.15785E+02 2.08932E+01 0.00000E+00
 -1      4201 1.14285E+02 2.08932E+01 0.00000E+00
 -1      4202 1.13535E+02 2.21922E+01 0.00000E+00
 -1      4203 1.18785E+02 2.08932E+01 0.00000E+00
 -1      4204 1.17285E+02 2.08932E+01 0.00000E+00
 -1      4205 1.16535E+02 2.21922E+01 0.00000E+00
 -1      4206 1.21785E+02 2.08932E+01 0.00000E+00
 -1      4207 1.20285E+02 2.08932E+01 0.00000E+00
 -1      4208 1.19535E+02 2.21922E+01 0.00000E+00
 -1      4209 1.24785E+02 2.08932E+01 0.00000E+00
 -1      4210 1.23285E+02 2.08932E+01 0.00000E+00
 -1      4211 1.22535E+02 2.21922E+01 0.00000E+00
 -1      4212 1.27580E+02 2.12296E+01 0.00000E+00
 -1      4213 1.26080E+02 2.12296E+01 0.00000E+00
 -1      4214 1.25330E+02 2.25286E+01 0.00000E+00
 -1      4215 1.27921E+02 2.32012E+01 0.00000E+00
 -1      4216 7.20010E+01 2.82633E+01 0.00000E+00
 -1      4217 7.28153E+01 2.91802E+01 0.00000E+00
 -1      4218 7.43797E+01 2.87981E+01 0.00000E+00
 -1      4219 7.28390E+01 2.72020E+01 0.00000E+00
 -1      4220 2.85013E+01 2.00322E+01 0.00000E+00
 -1      4221 7.19947E+01 2.28620E+01 0.00000E+00
 -1      4222 7.15846E+01 2.41186E+01 0.00000E+00
 -1      4223 7.24787E+01 2.51474E+01 0.00000E+00
 -1      4224 2.51948E+01 1.86594E+01 0.00000E+00
 -1      4225 2.36948E+01 2.01312E+01 0.00000E+00
 -1      4226 2.72389E+01 1.91813E+01 0.00000E+00
 -1      4227 1.29183E+02 2.80356E+01 0.00000E+00
 -1      4228 2.59822E+01 2.84649E+01 0.00000E+00
 -1      4229 7.89000E+01 2.82972E+01 0.00000E+00
 -1      4230 8.04000E+01 2.82972E+01 0.00000E+00
 -1      4231 8.11500E+01 2.69982E+01 0.00000E+00
 -1      4232 7.59000E+01 2.82972E+01 0.00000E+00
 -1      4233 7.74000E+01 2.82972E+01 0.00000E+00
 -1      4234 7.81500E+01 2.69982E+01 0.00000E+00
 -1      4235 7.37119E+01 2.17425E+01 0.00000E+00
 -1      4236 7.08241E+01 1.96901E+01 0.00000E+00
 -1      4237 2.73466E+01 2.42570E+01 0.00000E+00
 -1      4238 1.26900E+02 2.82972E+01 0.00000E+00
 -1      4239 1.28400E+02 2.82972E+01 0.00000E+00
 -1      4240 2.34825E+01 2.21255E+01 0.00000E+00
 -1      4241 7.44619E+01 2.30415E+01 0.00000E+00
 -1      4242 2.54999E+01 2.72035E+01 0.00000E+00
 -1      4243 1.28433E+02 2.67366E+01 0.00000E+00
 -1      4244 2.66170E+01 2.11733E+01 0.00000E+00
 -1      4245 7.51297E+01 2.74991E+01 0.00000E+00
 -1      4246 2.28983E+01 2.59229E+01 0.00000E+00
 -1      4247 1.28177E+02 2.57033E+01 0.00000E+00
 -1      4248 1.28177E+02 2.42345E+01 0.00000E+00
 -1      4249 1.26882E+02 2.38982E+01 0.00000E+00
 -1      4250 1.27394E+02 2.59649E+01 0.00000E+00
 -1      4251 1.26150E+02 2.69982E+01 0.00000E+00
 -1      4252 8.72850E+01 2.34912E+01 0.00000E+00
 -1      4253 8.57850E+01 2.34912E+01 0.00000E+00
 -1      4254 8.60925E+01 2.58942E+01 0.00000E+00
 -1      4255 8.75925E+01 2.58942E+01 0.00000E+00
 -1      4256 8.94000E+01 2.56992E+01 0.00000E+00
 -1      4257 9.09000E+01 2.56992E+01 0.00000E+00
 -1      4258 9.28425E+01 2.45952E+01 0.00000E+00
 -1      4259 9.43425E+01 2.45952E+01 0.00000E+00
 -1      4260 9.58425E+01 2.45952E+01 0.00000E+00
 -1      4261 9.73425E+01 2.45952E+01 0.00000E+00
 -1      4262 9.88425E+01 2.45952E+01 0.00000E+00
 -1      4263 1.00342E+02 2.45952E+01 0.00000E+00
 -1      4264 1.01842E+02 2.45952E+01 0.00000E+00
 -1      4265 1.03342E+02 2.45952E+01 0.00000E+00
 -1      4266 1.04842E+02 2.45952E+01 0.00000E+00
 -1      4267 1.06342E+02 2.45952E+01 0.00000E+00
 -1      4268 1.07842E+02 2.45952E+01 0.00000E+00
 -1      4269 1.09342E+02 2.45952E+01 0.00000E+00
 -1      4270 1.10842E+02 2.45952E+01 0.00000E+00
 -1      4271 1.12342E+02 2.45952E+01 0.00000E+00
 -1      4272 1.13842E+02 2.45952E+01 0.00000E+00
 -1      4273 1.15342E+02 2.45952E+01 0.00000E+00
 -1      4274 1.16842E+02 2.45952E+01 0.00000E+00
 -1      4275 1.18342E+02 2.45952E+01 0.00000E+00
 -1      4276 1.19842E+02 2.45952E+01 0.00000E+00
 -1      4277 1.21342E+02 2.45952E+01 0.00000E+00
 -1      4278 1.22842E+02 2.45952E+01 0.00000E+00
 -1      4279 1.24342E+02 2.45952E+01 0.00000E+00
 -1      4280 7.82850E+01 2.34912E+01 0.00000E+00
 -1      4281 7.67850E+01 2.34912E+01 0.00000E+00
 -1      4282 2.53197E+01 2.21596E+01 0.00000E+00
 -1      4283 2.34477E+01 2.39627E+01 0.00000E+00
 -1      4284 7.36591E+01 2.46888E+01 0.00000E+00
 -1      4285 7.32490E+01 2.59454E+01 0.00000E+00
 -1      4286 7.40194E+01 2.67435E+01 0.00000E+00
 -1      4287 1.25638E+02 2.49315E+01 0.00000E+00
 -1      4288 7.52322E+01 2.38395E+01 0.00000E+00
 -1      4289 2.65821E+01 2.30105E+01 0.00000E+00
 -1      4290 9.05925E+01 2.32962E+01 0.00000E+00
 -1      4291 8.90925E+01 2.32962E+01 0.00000E+00
 -1      4292 8.30925E+01 2.58942E+01 0.00000E+00
 -1      4293 8.45925E+01 2.58942E+01 0.00000E+00
 -1      4294 8.50350E+01 2.47903E+01 0.00000E+00
 -1      4295 8.08425E+01 2.45952E+01 0.00000E+00
 -1      4296 8.23425E+01 2.45952E+01 0.00000E+00
 -1      4297 7.55397E+01 2.62425E+01 0.00000E+00
 -1      4298 7.70925E+01 2.58942E+01 0.00000E+00
 -1      4299 7.85925E+01 2.58942E+01 0.00000E+00
 -1      4300 2.47354E+01 2.59570E+01 0.00000E+00
 -1      4301 2.60493E+01 2.52433E+01 0.00000E+00
 -1      4302 8.42850E+01 2.34912E+01 0.00000E+00
 -1      4303 8.83425E+01 2.45952E+01 0.00000E+00
 -1      4304 9.13425E+01 2.45952E+01 0.00000E+00
 -1      4305 1.25894E+02 2.59649E+01 0.00000E+00
 -1      4306 7.59822E+01 2.51385E+01 0.00000E+00
 -1      4307 7.93425E+01 2.45952E+01 0.00000E+00
 -1      4308 8.27850E+01 2.34912E+01 0.00000E+00
 -3
    3C                          2072                                     1
 -1       165    8    0    1
 -2         6         7        23      1119      1283      1136
 -1       166    8    0    1
 -2         7         8       165      1120      1284      1285
 -1       167    8    0    1
 -2         8         9       166      1121      1286      1287
 -1       168    8    0    1
 -2         8       166       165      1287      1288      1284
 -1       169    8    0    1
 -2         9        10       167      1122      1289      1290
 -1       170    8    0    1
 -2         9       167       166      1290      1291      1286
 -1       171    8    0    1
 -2        10        11       168      1123      1292      1293
 -1       172    8    0    1
 -2        10       168       167      1293      1294      1289
 -1       173    8    0    1
 -2        11        12       169      1124      1295      1296
 -1       174    8    0    1
 -2        11       169       168      1296      1297      1292
 -1       175    8    0    1
 -2        12        13       170      1125      1298      1299
 -1       176    8    0    1
 -2        12       170       169      1299      1300      1295
 -1       177    8    0    1
 -2        13        14       171      1126      1301      1302
 -1       178    8    0    1
 -2        13       171       170      1302      1303      1298
 -1       179    8    0    1
 -2        14        15       172      1127      1304      1305
 -1       180    8    0    1
 -2        14       172       171      1305      1306      1301
 -1       181    8    0    1
 -2        15        16       173      1128      1307      1308
 -1       182    8    0    1
 -2        15       173       172      1308      1309      1304
 -1       183    8    0    1
 -2        16        17       174      1129      1310      1311
 -1       184    8    0    1
 -2        16       174       173      1311      1312      1307
 -1       185    8    0    1
 -2        17        18       175      1130      1313      1314
 -1       186    8    0    1
 -2        17       175       174      1314      1315      1310
 -1       187    8    0    1
 -2        18        19       176      1131      1316      1317
 -1       188    8    0    1
 -2        18       176       175      1317      1318      1313
 -1       189    8    0    1
 -2        19        20       177      1132      1319      1320
 -1       190    8    0    1
 -2        19       177       176      1320      1321      1316
 -1       191    8    0    1
 -2        20        21       178      1133      1322      1323
 -1       192    8    0    1
 -2        20       178       177      1323      1324      1319
 -1       193    8    0    1
 -2        21        22       179      1134      1325      1326
 -1       194    8    0    1
 -2        21       179       178      1326      1327      1322
 -1       195    8    0    1
 -2        22         5       180      1135      1328      1329
 -1       196    8    0    1
 -2       179        22       180      1325      1329      1330
 -1       197    8    0    1
 -2         5        72       180      1186      1331      1328
 -1       198    8    0    1
 -2        24        23       181      1137      1332      1333
 -1       199    8    0    1
 -2        25        24       182      1138      1334      1335
 -1       200    8    0    1
 -2        24       181       182      1333      1336      1334
 -1       201    8    0    1
 -2        26        25       183      1139      1337      1338
 -1       202    8    0    1
 -2        25       182       183      1335      1339      1337
 -1       203    8    0    1
 -2        27        26       184      1140      1340      1341
 -1       204    8    0    1
 -2        26       183       184      1338      1342      1340
 -1       205    8    0    1
 -2        28        27       185      1141      1343      1344
 -1       206    8    0    1
 -2        27       184       185      1341      1345      1343
 -1       207    8    0    1
 -2        29        28       186      1142      1346      1347
 -1       208    8    0    1
 -2        28       185       186      1344      1348      1346
 -1       209    8    0    1
 -2        30        29       187      1143      1349      1350
 -1       210    8    0    1
 -2        29       186       187      1347      1351      1349
 -1       211    8    0    1
 -2        31        30       188      1144      1352      1353
 -1       212    8    0    1
 -2        30       187       188      1350      1354      1352
 -1       213    8    0    1
 -2        32        31       189      1145      1355      1356
 -1       214    8    0    1
 -2        31       188       189      1353      1357      1355
 -1       215    8    0    1
 -2        33        32       190      1146      1358      1359
 -1       216    8    0    1
 -2        32       189       190      1356      1360      1358
 -1       217    8    0    1
 -2        34        33       191      1147      1361      1362
 -1       218    8    0    1
 -2        33       190       191      1359      1363      1361
 -1       219    8    0    1
 -2        35        34       192      1148      1364      1365
 -1       220    8    0    1
 -2        34       191       192      1362      1366      1364
 -1       221    8    0    1
 -2        36        35       193      1149      1367      1368
 -1       222    8    0    1
 -2        35       192       193      1365      1369      1367
 -1       223    8    0    1
 -2        37        36       194      1150      1370      1371
 -1       224    8    0    1
 -2        36       193       194      1368      1372      1370
 -1       225    8    0    1
 -2        38        37       195      1151      1373      1374
 -1       226    8    0    1
 -2        37       194       195      1371      1375      1373
 -1       227    8    0    1
 -2        39        38       196      1152      1376      1377
 -1       228    8    0    1
 -2        38       195       196      1374      1378      1376
 -1       229    8    0    1
 -2        40        39       197      1153      1379      1380
 -1       230    8    0    1
 -2        39       196       197      1377      1381      1379
 -1       231    8    0    1
 -2        41        40       198      1154      1382      1383
 -1       232    8    0    1
 -2        40       197       198      1380      1384      1382
 -1       233    8    0    1
 -2        42        41       199      1155      1385      1386
 -1       234    8    0    1
 -2        41       198       199      1383      1387      1385
 -1       235    8    0    1
 -2        43        42       200      1156      1388      1389
 -1       236    8    0    1
 -2        42       199       200      1386      1390      1388
 -1       237    8    0    1
 -2        44        43       201      1157      1391      1392
 -1       238    8    0    1
 -2        43       200       201      1389      1393      1391
 -1       239    8    0    1
 -2        45        44       202      1158      1394      1395
 -1       240    8    0    1
 -2        44       201       202      1392      1396      1394
 -1       241    8    0    1
 -2        46        45       203      1159      1397      1398
 -1       242    8    0    1
 -2        45       202       203      1395      1399      1397
 -1       243    8    0    1
 -2        47        46       204      1160      1400      1401
 -1       244    8    0    1
 -2        46       203       204      1398      1402      1400
 -1       245    8    0    1
 -2        48        47       205      1161      1403      1404
 -1       246    8    0    1
 -2        47       204       205      1401      1405      1403
 -1       247    8    0    1
 -2        49        48       206      1162      1406      1407
 -1       248    8    0    1
 -2        48       205       206      1404      1408      1406
 -1       249    8    0    1
 -2        50        49       207      1163      1409      1410
 -1       250    8    0    1
 -2        49       206       207      1407      1411      1409
 -1       251    8    0    1
 -2        51        50       208      1164      1412      1413
 -1       252    8    0    1
 -2        50       207       208      1410      1414      1412
 -1       253    8    0    1
 -2        52        51       209      1165      1415      1416
 -1       254    8    0    1
 -2        51       208       209      1413      1417      1415
 -1       255    8    0    1
 -2        53        52       210      1166      1418      1419
 -1       256    8    0    1
 -2        52       209       210      1416      1420      1418
 -1       257    8    0    1
 -2        54        53       211      1167      1421      1422
 -1       258    8    0    1
 -2        53       210       211      1419      1423      1421
 -1       259    8    0    1
 -2        55        54       212      1168      1424      1425
 -1       260    8    0    1
 -2        54       211       212      1422      1426      1424
 -1       261    8    0    1
 -2        56        55       213      1169      1427      1428
 -1       262    8    0    1
 -2        55       212       213      1425      1429      1427
 -1       263    8    0    1
 -2        57        56       214      1170      1430      1431
 -1       264    8    0    1
 -2        56       213       214      1428      1432      1430
 -1       265    8    0    1
 -2        58        57       215      1171      1433      1434
 -1       266    8    0    1
 -2        57       214       215      1431      1435      1433
 -1       267    8    0    1
 -2        59        58       216      1172      1436      1437
 -1       268    8    0    1
 -2        58       215       216      1434      1438      1436
 -1       269    8    0    1
 -2        60        59       217      1173      1439      1440
 -1       270    8    0    1
 -2        59       216       217      1437      1441      1439
 -1       271    8    0    1
 -2        61        60       218      1174      1442      1443
 -1       272    8    0    1
 -2        60       217       218      1440      1444      1442
 -1       273    8    0    1
 -2        62        61       219      1175      1445      1446
 -1       274    8    0    1
 -2        61       218       219      1443      1447      1445
 -1       275    8    0    1
 -2        63        62       220      1176      1448      1449
 -1       276    8    0    1
 -2        62       219       220      1446      1450      1448
 -1       277    8    0    1
 -2        64        63       221      1177      1451      1452
 -1       278    8    0    1
 -2        63       220       221      1449      1453      1451
 -1       279    8    0    1
 -2        65        64       222      1178      1454      1455
 -1       280    8    0    1
 -2        64       221       222      1452      1456      1454
 -1       281    8    0    1
 -2        66        65       223      1179      1457      1458
 -1       282    8    0    1
 -2        65       222       223      1455      1459      1457
 -1       283    8    0    1
 -2        67        66       224      1180      1460      1461
 -1       284    8    0    1
 -2        66       223       224      1458      1462      1460
 -1       285    8    0    1
 -2        68        67       225      1181      1463      1464
 -1       286    8    0    1
 -2        67       224       225      1461      1465      1463
 -1       287    8    0    1
 -2        69        68       226      1182      1466      1467
 -1       288    8    0    1
 -2        68       225       226      1464      1468      1466
 -1       289    8    0    1
 -2        70        69       227      1183      1469      1470
 -1       290    8    0    1
 -2        69       226       227      1467      1471      1469
 -1       291    8    0    1
 -2        71        70       228      1184      1472      1473
 -1       292    8    0    1
 -2        70       227       228      1470      1474      1472
 -1       293    8    0    1
 -2         4        71       136      1185      1475      1252
 -1       294    8    0    1
 -2       136        71       228      1475      1473      1476
 -1       295    8    0    1
 -2        72        73       229      1187      1477      1478
 -1       296    8    0    1
 -2        72       229       180      1478      1479      1331
 -1       297    8    0    1
 -2        73        74       230      1188      1480      1481
 -1       298    8    0    1
 -2        73       230       229      1481      1482      1477
 -1       299    8    0    1
 -2        74        75       231      1189      1483      1484
 -1       300    8    0    1
 -2        74       231       230      1484      1485      1480
 -1       301    8    0    1
 -2        75        76       232      1190      1486      1487
 -1       302    8    0    1
 -2        75       232       231      1487      1488      1483
 -1       303    8    0    1
 -2        76        77       233      1191      1489      1490
 -1       304    8    0    1
 -2        76       233       232      1490      1491      1486
 -1       305    8    0    1
 -2        77        78       234      1192      1492      1493
 -1       306    8    0    1
 -2        77       234       233      1493      1494      1489
 -1       307    8    0    1
 -2        78        79       235      1193      1495      1496
 -1       308    8    0    1
 -2        78       235       234      1496      1497      1492
 -1       309    8    0    1
 -2        79        80       236      1194      1498      1499
 -1       310    8    0    1
 -2        79       236       235      1499      1500      1495
 -1       311    8    0    1
 -2        80        81       237      1195      1501      1502
 -1       312    8    0    1
 -2        80       237       236      1502      1503      1498
 -1       313    8    0    1
 -2        81        82       238      1196      1504      1505
 -1       314    8    0    1
 -2        81       238       237      1505      1506      1501
 -1       315    8    0    1
 -2        82        83       239      1197      1507      1508
 -1       316    8    0    1
 -2        82       239       238      1508      1509      1504
 -1       317    8    0    1
 -2        83        84       240      1198      1510      1511
 -1       318    8    0    1
 -2        83       240       239      1511      1512      1507
 -1       319    8    0    1
 -2        84        85       241      1199      1513      1514
 -1       320    8    0    1
 -2        84       241       240      1514      1515      1510
 -1       321    8    0    1
 -2        85        86       242      1200      1516      1517
 -1       322    8    0    1
 -2        85       242       241      1517      1518      1513
 -1       323    8    0    1
 -2        86        87       243      1201      1519      1520
 -1       324    8    0    1
 -2        86       243       242      1520      1521      1516
 -1       325    8    0    1
 -2        87        88       244      1202      1522      1523
 -1       326    8    0    1
 -2        87       244       243      1523      1524      1519
 -1       327    8    0    1
 -2        88        89       245      1203      1525      1526
 -1       328    8    0    1
 -2        88       245       244      1526      1527      1522
 -1       329    8    0    1
 -2        89        90       246      1204      1528      1529
 -1       330    8    0    1
 -2        89       246       245      1529      1530      1525
 -1       331    8    0    1
 -2        90        91       247      1205      1531      1532
 -1       332    8    0    1
 -2        90       247       246      1532      1533      1528
 -1       333    8    0    1
 -2        91        92       248      1206      1534      1535
 -1       334    8    0    1
 -2        91       248       247      1535      1536      1531
 -1       335    8    0    1
 -2        92        93       249      1207      1537      1538
 -1       336    8    0    1
 -2        92       249       248      1538      1539      1534
 -1       337    8    0    1
 -2        93        94       250      1208      1540      1541
 -1       338    8    0    1
 -2        93       250       249      1541      1542      1537
 -1       339    8    0    1
 -2        94        95       251      1209      1543      1544
 -1       340    8    0    1
 -2        94       251       250      1544      1545      1540
 -1       341    8    0    1
 -2        95        96       252      1210      1546      1547
 -1       342    8    0    1
 -2        95       252       251      1547      1548      1543
 -1       343    8    0    1
 -2        96        97       253      1211      1549      1550
 -1       344    8    0    1
 -2        96       253       252      1550      1551      1546
 -1       345    8    0    1
 -2        97        98       254      1212      1552      1553
 -1       346    8    0    1
 -2        97       254       253      1553      1554      1549
 -1       347    8    0    1
 -2        98        99       255      1213      1555      1556
 -1       348    8    0    1
 -2        98       255       254      1556      1557      1552
 -1       349    8    0    1
 -2        99       100       256      1214      1558      1559
 -1       350    8    0    1
 -2        99       256       255      1559      1560      1555
 -1       351    8    0    1
 -2       100       101       257      1215      1561      1562
 -1       352    8    0    1
 -2       100       257       256      1562      1563      1558
 -1       353    8    0    1
 -2       101       102       258      1216      1564      1565
 -1       354    8    0    1
 -2       101       258       257      1565      1566      1561
 -1       355    8    0    1
 -2       102       103       259      1217      1567      1568
 -1       356    8    0    1
 -2       102       259       258      1568      1569      1564
 -1       357    8    0    1
 -2       103       104       260      1218      1570      1571
 -1       358    8    0    1
 -2       103       260       259      1571      1572      1567
 -1       359    8    0    1
 -2       104       105       261      1219      1573      1574
 -1       360    8    0    1
 -2       104       261       260      1574      1575      1570
 -1       361    8    0    1
 -2       105       106       262      1220      1576      1577
 -1       362    8    0    1
 -2       105       262       261      1577      1578      1573
 -1       363    8    0    1
 -2       106       107       263      1221      1579      1580
 -1       364    8    0    1
 -2       106       263       262      1580      1581      1576
 -1       365    8    0    1
 -2       107       108       264      1222      1582      1583
 -1       366    8    0    1
 -2       107       264       263      1583      1584      1579
 -1       367    8    0    1
 -2       108       109       265      1223      1585      1586
 -1       368    8    0    1
 -2       108       265       264      1586      1587      1582
 -1       369    8    0    1
 -2       109       110       266      1224      1588      1589
 -1       370    8    0    1
 -2       109       266       265      1589      1590      1585
 -1       371    8    0    1
 -2       110       111       267      1225      1591      1592
 -1       372    8    0    1
 -2       110       267       266      1592      1593      1588
 -1       373    8    0    1
 -2       111       112       268      1226      1594      1595
 -1       374    8    0    1
 -2       111       268       267      1595      1596      1591
 -1       375    8    0    1
 -2       112       113       269      1227      1597      1598
 -1       376    8    0    1
 -2       112       269       268      1598      1599      1594
 -1       377    8    0    1
 -2       113       114       270      1228      1600      1601
 -1       378    8    0    1
 -2       113       270       269      1601      1602      1597
 -1       379    8    0    1
 -2       114       115       271      1229      1603      1604
 -1       380    8    0    1
 -2       114       271       270      1604      1605      1600
 -1       381    8    0    1
 -2       115       116       272      1230      1606      1607
 -1       382    8    0    1
 -2       115       272       271      1607      1608      1603
 -1       383    8    0    1
 -2       116       117       273      1231      1609      1610
 -1       384    8    0    1
 -2       116       273       272      1610      1611      1606
 -1       385    8    0    1
 -2       117       118       274      1232      1612      1613
 -1       386    8    0    1
 -2       117       274       273      1613      1614      1609
 -1       387    8    0    1
 -2       118       119       275      1233      1615      1616
 -1       388    8    0    1
 -2       118       275       274      1616      1617      1612
 -1       389    8    0    1
 -2       119       120       276      1234      1618      1619
 -1       390    8    0    1
 -2       119       276       275      1619      1620      1615
 -1       391    8    0    1
 -2       120         3       121      1235      1236      1621
 -1       392    8    0    1
 -2       121       122       277      1237      1622      1623
 -1       393    8    0    1
 -2       122       123       278      1238      1624      1625
 -1       394    8    0    1
 -2       122       278       277      1625      1626      1622
 -1       395    8    0    1
 -2       123       124       279      1239      1627      1628
 -1       396    8    0    1
 -2       123       279       278      1628      1629      1624
 -1       397    8    0    1
 -2       124       125       280      1240      1630      1631
 -1       398    8    0    1
 -2       124       280       279      1631      1632      1627
 -1       399    8    0    1
 -2       125       126       281      1241      1633      1634
 -1       400    8    0    1
 -2       125       281       280      1634      1635      1630
 -1       401    8    0    1
 -2       126       127       282      1242      1636      1637
 -1       402    8    0    1
 -2       126       282       281      1637      1638      1633
 -1       403    8    0    1
 -2       127       128       283      1243      1639      1640
 -1       404    8    0    1
 -2       127       283       282      1640      1641      1636
 -1       405    8    0    1
 -2       128       129       284      1244      1642      1643
 -1       406    8    0    1
 -2       128       284       283      1643      1644      1639
 -1       407    8    0    1
 -2       129       130       285      1245      1645      1646
 -1       408    8    0    1
 -2       129       285       284      1646      1647      1642
 -1       409    8    0    1
 -2       130       131       286      1246      1648      1649
 -1       410    8    0    1
 -2       130       286       285      1649      1650      1645
 -1       411    8    0    1
 -2       131       132       287      1247      1651      1652
 -1       412    8    0    1
 -2       131       287       286      1652      1653      1648
 -1       413    8    0    1
 -2       132       133       288      1248      1654      1655
 -1       414    8    0    1
 -2       132       288       287      1655      1656      1651
 -1       415    8    0    1
 -2       133       134       289      1249      1657      1658
 -1       416    8    0    1
 -2       133       289       288      1658      1659      1654
 -1       417    8    0    1
 -2       134       135       290      1250      1660      1661
 -1       418    8    0    1
 -2       134       290       289      1661      1662      1657
 -1       419    8    0    1
 -2       135       136       291      1251      1663      1664
 -1       420    8    0    1
 -2       290       135       291      1660      1664      1665
 -1       421    8    0    1
 -2       136       228       291      1476      1666      1663
 -1       422    8    0    1
 -2         2       137       292      1253      1667      1668
 -1       423    8    0    1
 -2       137       138       293      1254      1669      1670
 -1       424    8    0    1
 -2       138       139       294      1255      1671      1672
 -1       425    8    0    1
 -2       139       140       295      1256      1673      1674
 -1       426    8    0    1
 -2       140       141       296      1257      1675      1676
 -1       427    8    0    1
 -2       141       142       297      1258      1677      1678
 -1       428    8    0    1
 -2       142       143       298      1259      1679      1680
 -1       429    8    0    1
 -2       143       144       299      1260      1681      1682
 -1       430    8    0    1
 -2       144       145       300      1261      1683      1684
 -1       431    8    0    1
 -2       145       146       301      1262      1685      1686
 -1       432    8    0    1
 -2       146       147       302      1263      1687      1688
 -1       433    8    0    1
 -2       147       148       303      1264      1689      1690
 -1       434    8    0    1
 -2       148       149       304      1265      1691      1692
 -1       435    8    0    1
 -2       149         1       305      1266      1693      1694
 -1       436    8    0    1
 -2         1       150       306      1267      1695      1696
 -1       437    8    0    1
 -2       150       151       307      1268      1697      1698
 -1       438    8    0    1
 -2       151       152       308      1269      1699      1700
 -1       439    8    0    1
 -2       152       153       309      1270      1701      1702
 -1       440    8    0    1
 -2       153       154       310      1271      1703      1704
 -1       441    8    0    1
 -2       154       155       311      1272      1705      1706
 -1       442    8    0    1
 -2       155       156       312      1273      1707      1708
 -1       443    8    0    1
 -2       156       157       313      1274      1709      1710
 -1       444    8    0    1
 -2       157       158       314      1275      1711      1712
 -1       445    8    0    1
 -2       158       159       315      1276      1713      1714
 -1       446    8    0    1
 -2       159       160       316      1277      1715      1716
 -1       447    8    0    1
 -2       160       161       317      1278      1717      1718
 -1       448    8    0    1
 -2       161       162       318      1279      1719      1720
 -1       449    8    0    1
 -2       162       163       319      1280      1721      1722
 -1       450    8    0    1
 -2       163       164       320      1281      1723      1724
 -1       451    8    0    1
 -2       164         2       321      1282      1725      1726
 -1       452    8    0    1
 -2       295       140       296      1673      1676      1727
 -1       453    8    0    1
 -2       294       139       295      1671      1674      1728
 -1       454    8    0    1
 -2       120       121       276      1621      1729      1618
 -1       455    8    0    1
 -2       121       277       276      1623      1730      1729
 -1       456    8    0    1
 -2       292       137       293      1667      1670      1731
 -1       457    8    0    1
 -2       293       138       294      1669      1672      1732
 -1       458    8    0    1
 -2         2       292       321      1668      1733      1725
 -1       459    8    0    1
 -2       141       297       296      1678      1734      1675
 -1       460    8    0    1
 -2       142       298       297      1680      1735      1677
 -1       461    8    0    1
 -2       143       299       298      1682      1736      1679
 -1       462    8    0    1
 -2       144       300       299      1684      1737      1681
 -1       463    8    0    1
 -2       145       301       300      1686      1738      1683
 -1       464    8    0    1
 -2       146       302       301      1688      1739      1685
 -1       465    8    0    1
 -2       147       303       302      1690      1740      1687
 -1       466    8    0    1
 -2       148       304       303      1692      1741      1689
 -1       467    8    0    1
 -2       149       305       304      1694      1742      1691
 -1       468    8    0    1
 -2         1       306       305      1696      1743      1693
 -1       469    8    0    1
 -2       150       307       306      1698      1744      1695
 -1       470    8    0    1
 -2       151       308       307      1700      1745      1697
 -1       471    8    0    1
 -2       152       309       308      1702      1746      1699
 -1       472    8    0    1
 -2       153       310       309      1704      1747      1701
 -1       473    8    0    1
 -2       154       311       310      1706      1748      1703
 -1       474    8    0    1
 -2       155       312       311      1708      1749      1705
 -1       475    8    0    1
 -2       156       313       312      1710      1750      1707
 -1       476    8    0    1
 -2       157       314       313      1712      1751      1709
 -1       477    8    0    1
 -2       158       315       314      1714      1752      1711
 -1       478    8    0    1
 -2       159       316       315      1716      1753      1713
 -1       479    8    0    1
 -2       160       317       316      1718      1754      1715
 -1       480    8    0    1
 -2       161       318       317      1720      1755      1717
 -1       481    8    0    1
 -2       162       319       318      1722      1756      1719
 -1       482    8    0    1
 -2       163       320       319      1724      1757      1721
 -1       483    8    0    1
 -2       164       321       320      1726      1758      1723
 -1       484    8    0    1
 -2        23         7       165      1283      1285      1759
 -1       485    8    0    1
 -2       166       167       322      1291      1760      1761
 -1       486    8    0    1
 -2       165       166       323      1288      1762      1763
 -1       487    8    0    1
 -2       166       322       323      1761      1764      1762
 -1       488    8    0    1
 -2       168       169       324      1297      1765      1766
 -1       489    8    0    1
 -2       169       170       325      1300      1767      1768
 -1       490    8    0    1
 -2       169       325       324      1768      1769      1765
 -1       491    8    0    1
 -2       170       171       326      1303      1770      1771
 -1       492    8    0    1
 -2       170       326       325      1771      1772      1767
 -1       493    8    0    1
 -2       171       172       327      1306      1773      1774
 -1       494    8    0    1
 -2       171       327       326      1774      1775      1770
 -1       495    8    0    1
 -2       172       173       328      1309      1776      1777
 -1       496    8    0    1
 -2       172       328       327      1777      1778      1773
 -1       497    8    0    1
 -2       173       174       329      1312      1779      1780
 -1       498    8    0    1
 -2       173       329       328      1780      1781      1776
 -1       499    8    0    1
 -2       174       175       330      1315      1782      1783
 -1       500    8    0    1
 -2       174       330       329      1783      1784      1779
 -1       501    8    0    1
 -2       175       176       331      1318      1785      1786
 -1       502    8    0    1
 -2       175       331       330      1786      1787      1782
 -1       503    8    0    1
 -2       176       177       332      1321      1788      1789
 -1       504    8    0    1
 -2       176       332       331      1789      1790      1785
 -1       505    8    0    1
 -2       177       178       333      1324      1791      1792
 -1       506    8    0    1
 -2       177       333       332      1792      1793      1788
 -1       507    8    0    1
 -2       178       179       334      1327      1794      1795
 -1       508    8    0    1
 -2       178       334       333      1795      1796      1791
 -1       509    8    0    1
 -2       179       180       335      1330      1797      1798
 -1       510    8    0    1
 -2       334       179       335      1794      1798      1799
 -1       511    8    0    1
 -2       180       229       335      1479      1800      1797
 -1       512    8    0    1
 -2       181        23       165      1332      1759      1801
 -1       513    8    0    1
 -2       229       230       336      1482      1802      1803
 -1       514    8    0    1
 -2       229       336       335      1803      1804      1800
 -1       515    8    0    1
 -2       181       165       323      1801      1763      1805
 -1       516    8    0    1
 -2       183       182       337      1339      1806      1807
 -1       517    8    0    1
 -2       184       183       338      1342      1808      1809
 -1       518    8    0    1
 -2       183       337       338      1807      1810      1808
 -1       519    8    0    1
 -2       185       184       339      1345      1811      1812
 -1       520    8    0    1
 -2       184       338       339      1809      1813      1811
 -1       521    8    0    1
 -2       186       185       340      1348      1814      1815
 -1       522    8    0    1
 -2       185       339       340      1812      1816      1814
 -1       523    8    0    1
 -2       187       186       341      1351      1817      1818
 -1       524    8    0    1
 -2       186       340       341      1815      1819      1817
 -1       525    8    0    1
 -2       188       187       342      1354      1820      1821
 -1       526    8    0    1
 -2       187       341       342      1818      1822      1820
 -1       527    8    0    1
 -2       189       188       343      1357      1823      1824
 -1       528    8    0    1
 -2       188       342       343      1821      1825      1823
 -1       529    8    0    1
 -2       190       189       344      1360      1826      1827
 -1       530    8    0    1
 -2       189       343       344      1824      1828      1826
 -1       531    8    0    1
 -2       191       190       345      1363      1829      1830
 -1       532    8    0    1
 -2       190       344       345      1827      1831      1829
 -1       533    8    0    1
 -2       192       191       346      1366      1832      1833
 -1       534    8    0    1
 -2       191       345       346      1830      1834      1832
 -1       535    8    0    1
 -2       193       192       347      1369      1835      1836
 -1       536    8    0    1
 -2       192       346       347      1833      1837      1835
 -1       537    8    0    1
 -2       194       193       348      1372      1838      1839
 -1       538    8    0    1
 -2       193       347       348      1836      1840      1838
 -1       539    8    0    1
 -2       195       194       349      1375      1841      1842
 -1       540    8    0    1
 -2       194       348       349      1839      1843      1841
 -1       541    8    0    1
 -2       196       195       350      1378      1844      1845
 -1       542    8    0    1
 -2       195       349       350      1842      1846      1844
 -1       543    8    0    1
 -2       197       196       351      1381      1847      1848
 -1       544    8    0    1
 -2       196       350       351      1845      1849      1847
 -1       545    8    0    1
 -2       198       197       352      1384      1850      1851
 -1       546    8    0    1
 -2       197       351       352      1848      1852      1850
 -1       547    8    0    1
 -2       199       198       353      1387      1853      1854
 -1       548    8    0    1
 -2       198       352       353      1851      1855      1853
 -1       549    8    0    1
 -2       200       199       354      1390      1856      1857
 -1       550    8    0    1
 -2       199       353       354      1854      1858      1856
 -1       551    8    0    1
 -2       201       200       355      1393      1859      1860
 -1       552    8    0    1
 -2       200       354       355      1857      1861      1859
 -1       553    8    0    1
 -2       202       201       356      1396      1862      1863
 -1       554    8    0    1
 -2       201       355       356      1860      1864      1862
 -1       555    8    0    1
 -2       203       202       357      1399      1865      1866
 -1       556    8    0    1
 -2       202       356       357      1863      1867      1865
 -1       557    8    0    1
 -2       204       203       358      1402      1868      1869
 -1       558    8    0    1
 -2       203       357       358      1866      1870      1868
 -1       559    8    0    1
 -2       205       204       359      1405      1871      1872
 -1       560    8    0    1
 -2       204       358       359      1869      1873      1871
 -1       561    8    0    1
 -2       206       205       360      1408      1874      1875
 -1       562    8    0    1
 -2       205       359       360      1872      1876      1874
 -1       563    8    0    1
 -2       207       206       361      1411      1877      1878
 -1       564    8    0    1
 -2       206       360       361      1875      1879      1877
 -1       565    8    0    1
 -2       208       207       362      1414      1880      1881
 -1       566    8    0    1
 -2       207       361       362      1878      1882      1880
 -1       567    8    0    1
 -2       209       208       363      1417      1883      1884
 -1       568    8    0    1
 -2       208       362       363      1881      1885      1883
 -1       569    8    0    1
 -2       210       209       364      1420      1886      1887
 -1       570    8    0    1
 -2       209       363       364      1884      1888      1886
 -1       571    8    0    1
 -2       211       210       365      1423      1889      1890
 -1       572    8    0    1
 -2       210       364       365      1887      1891      1889
 -1       573    8    0    1
 -2       212       211       366      1426      1892      1893
 -1       574    8    0    1
 -2       211       365       366      1890      1894      1892
 -1       575    8    0    1
 -2       213       212       367      1429      1895      1896
 -1       576    8    0    1
 -2       212       366       367      1893      1897      1895
 -1       577    8    0    1
 -2       214       213       368      1432      1898      1899
 -1       578    8    0    1
 -2       213       367       368      1896      1900      1898
 -1       579    8    0    1
 -2       215       214       369      1435      1901      1902
 -1       580    8    0    1
 -2       214       368       369      1899      1903      1901
 -1       581    8    0    1
 -2       216       215       370      1438      1904      1905
 -1       582    8    0    1
 -2       215       369       370      1902      1906      1904
 -1       583    8    0    1
 -2       217       216       371      1441      1907      1908
 -1       584    8    0    1
 -2       216       370       371      1905      1909      1907
 -1       585    8    0    1
 -2       218       217       372      1444      1910      1911
 -1       586    8    0    1
 -2       217       371       372      1908      1912      1910
 -1       587    8    0    1
 -2       219       218       373      1447      1913      1914
 -1       588    8    0    1
 -2       218       372       373      1911      1915      1913
 -1       589    8    0    1
 -2       220       219       374      1450      1916      1917
 -1       590    8    0    1
 -2       219       373       374      1914      1918      1916
 -1       591    8    0    1
 -2       221       220       375      1453      1919      1920
 -1       592    8    0    1
 -2       220       374       375      1917      1921      1919
 -1       593    8    0    1
 -2       222       221       376      1456      1922      1923
 -1       594    8    0    1
 -2       221       375       376      1920      1924      1922
 -1       595    8    0    1
 -2       223       222       377      1459      1925      1926
 -1       596    8    0    1
 -2       222       376       377      1923      1927      1925
 -1       597    8    0    1
 -2       224       223       378      1462      1928      1929
 -1       598    8    0    1
 -2       223       377       378      1926      1930      1928
 -1       599    8    0    1
 -2       225       224       379      1465      1931      1932
 -1       600    8    0    1
 -2       224       378       379      1929      1933      1931
 -1       601    8    0    1
 -2       226       225       380      1468      1934      1935
 -1       602    8    0    1
 -2       225       379       380      1932      1936      1934
 -1       603    8    0    1
 -2       227       226       381      1471      1937      1938
 -1       604    8    0    1
 -2       226       380       381      1935      1939      1937
 -1       605    8    0    1
 -2       228       227       382      1474      1940      1941
 -1       606    8    0    1
 -2       291       228       382      1666      1941      1942
 -1       607    8    0    1
 -2       227       381       382      1938      1943      1940
 -1       608    8    0    1
 -2       230       231       383      1485      1944      1945
 -1       609    8    0    1
 -2       230       383       336      1945      1946      1802
 -1       610    8    0    1
 -2       231       232       384      1488      1947      1948
 -1       611    8    0    1
 -2       231       384       383      1948      1949      1944
 -1       612    8    0    1
 -2       232       233       385      1491      1950      1951
 -1       613    8    0    1
 -2       232       385       384      1951      1952      1947
 -1       614    8    0    1
 -2       233       234       386      1494      1953      1954
 -1       615    8    0    1
 -2       233       386       385      1954      1955      1950
 -1       616    8    0    1
 -2       234       235       387      1497      1956      1957
 -1       617    8    0    1
 -2       234       387       386      1957      1958      1953
 -1       618    8    0    1
 -2       235       236       388      1500      1959      1960
 -1       619    8    0    1
 -2       235       388       387      1960      1961      1956
 -1       620    8    0    1
 -2       236       237       389      1503      1962      1963
 -1       621    8    0    1
 -2       236       389       388      1963      1964      1959
 -1       622    8    0    1
 -2       237       238       390      1506      1965      1966
 -1       623    8    0    1
 -2       237       390       389      1966      1967      1962
 -1       624    8    0    1
 -2       238       239       391      1509      1968      1969
 -1       625    8    0    1
 -2       238       391       390      1969      1970      1965
 -1       626    8    0    1
 -2       239       240       392      1512      1971      1972
 -1       627    8    0    1
 -2       239       392       391      1972      1973      1968
 -1       628    8    0    1
 -2       240       241       393      1515      1974      1975
 -1       629    8    0    1
 -2       240       393       392      1975      1976      1971
 -1       630    8    0    1
 -2       241       242       394      1518      1977      1978
 -1       631    8    0    1
 -2       241       394       393      1978      1979      1974
 -1       632    8    0    1
 -2       242       243       395      1521      1980      1981
 -1       633    8    0    1
 -2       242       395       394      1981      1982      1977
 -1       634    8    0    1
 -2       243       244       396      1524      1983      1984
 -1       635    8    0    1
 -2       243       396       395      1984      1985      1980
 -1       636    8    0    1
 -2       244       245       397      1527      1986      1987
 -1       637    8    0    1
 -2       244       397       396      1987      1988      1983
 -1       638    8    0    1
 -2       245       246       398      1530      1989      1990
 -1       639    8    0    1
 -2       245       398       397      1990      1991      1986
 -1       640    8    0    1
 -2       246       247       399      1533      1992      1993
 -1       641    8    0    1
 -2       246       399       398      1993      1994      1989
 -1       642    8    0    1
 -2       247       248       400      1536      1995      1996
 -1       643    8    0    1
 -2       247       400       399      1996      1997      1992
 -1       644    8    0    1
 -2       248       249       401      1539      1998      1999
 -1       645    8    0    1
 -2       248       401       400      1999      2000      1995
 -1       646    8    0    1
 -2       249       250       402      1542      2001      2002
 -1       647    8    0    1
 -2       249       402       401      2002      2003      1998
 -1       648    8    0    1
 -2       250       251       403      1545      2004      2005
 -1       649    8    0    1
 -2       250       403       402      2005      2006      2001
 -1       650    8    0    1
 -2       251       252       404      1548      2007      2008
 -1       651    8    0    1
 -2       251       404       403      2008      2009      2004
 -1       652    8    0    1
 -2       252       253       405      1551      2010      2011
 -1       653    8    0    1
 -2       252       405       404      2011      2012      2007
 -1       654    8    0    1
 -2       253       254       406      1554      2013      2014
 -1       655    8    0    1
 -2       253       406       405      2014      2015      2010
 -1       656    8    0    1
 -2       254       255       407      1557      2016      2017
 -1       657    8    0    1
 -2       254       407       406      2017      2018      2013
 -1       658    8    0    1
 -2       255       256       408      1560      2019      2020
 -1       659    8    0    1
 -2       255       408       407      2020      2021      2016
 -1       660    8    0    1
 -2       256       257       409      1563      2022      2023
 -1       661    8    0    1
 -2       256       409       408      2023      2024      2019
 -1       662    8    0    1
 -2       257       258       410      1566      2025      2026
 -1       663    8    0    1
 -2       257       410       409      2026      2027      2022
 -1       664    8    0    1
 -2       258       259       411      1569      2028      2029
 -1       665    8    0    1
 -2       258       411       410      2029      2030      2025
 -1       666    8    0    1
 -2       259       260       412      1572      2031      2032
 -1       667    8    0    1
 -2       259       412       411      2032      2033      2028
 -1       668    8    0    1
 -2       260       261       413      1575      2034      2035
 -1       669    8    0    1
 -2       260       413       412      2035      2036      2031
 -1       670    8    0    1
 -2       261       262       414      1578      2037      2038
 -1       671    8    0    1
 -2       261       414       413      2038      2039      2034
 -1       672    8    0    1
 -2       262       263       415      1581      2040      2041
 -1       673    8    0    1
 -2       262       415       414      2041      2042      2037
 -1       674    8    0    1
 -2       263       264       416      1584      2043      2044
 -1       675    8    0    1
 -2       263       416       415      2044      2045      2040
 -1       676    8    0    1
 -2       264       265       417      1587      2046      2047
 -1       677    8    0    1
 -2       264       417       416      2047      2048      2043
 -1       678    8    0    1
 -2       265       266       418      1590      2049      2050
 -1       679    8    0    1
 -2       265       418       417      2050      2051      2046
 -1       680    8    0    1
 -2       266       267       419      1593      2052      2053
 -1       681    8    0    1
 -2       266       419       418      2053      2054      2049
 -1       682    8    0    1
 -2       267       268       420      1596      2055      2056
 -1       683    8    0    1
 -2       267       420       419      2056      2057      2052
 -1       684    8    0    1
 -2       268       269       421      1599      2058      2059
 -1       685    8    0    1
 -2       268       421       420      2059      2060      2055
 -1       686    8    0    1
 -2       269       270       422      1602      2061      2062
 -1       687    8    0    1
 -2       269       422       421      2062      2063      2058
 -1       688    8    0    1
 -2       270       271       423      1605      2064      2065
 -1       689    8    0    1
 -2       270       423       422      2065      2066      2061
 -1       690    8    0    1
 -2       271       272       424      1608      2067      2068
 -1       691    8    0    1
 -2       271       424       423      2068      2069      2064
 -1       692    8    0    1
 -2       272       273       425      1611      2070      2071
 -1       693    8    0    1
 -2       272       425       424      2071      2072      2067
 -1       694    8    0    1
 -2       273       274       426      1614      2073      2074
 -1       695    8    0    1
 -2       273       426       425      2074      2075      2070
 -1       696    8    0    1
 -2       274       275       427      1617      2076      2077
 -1       697    8    0    1
 -2       274       427       426      2077      2078      2073
 -1       698    8    0    1
 -2       275       276       428      1620      2079      2080
 -1       699    8    0    1
 -2       427       275       428      2076      2080      2081
 -1       700    8    0    1
 -2       276       277       428      1730      2082      2079
 -1       701    8    0    1
 -2       279       280       429      1632      2083      2084
 -1       702    8    0    1
 -2       278       279       430      1629      2085      2086
 -1       703    8    0    1
 -2       279       429       430      2084      2087      2085
 -1       704    8    0    1
 -2       277       278       431      1626      2088      2089
 -1       705    8    0    1
 -2       428       277       431      2082      2089      2090
 -1       706    8    0    1
 -2       278       430       431      2086      2091      2088
 -1       707    8    0    1
 -2       280       281       432      1635      2092      2093
 -1       708    8    0    1
 -2       280       432       429      2093      2094      2083
 -1       709    8    0    1
 -2       281       282       433      1638      2095      2096
 -1       710    8    0    1
 -2       281       433       432      2096      2097      2092
 -1       711    8    0    1
 -2       282       283       434      1641      2098      2099
 -1       712    8    0    1
 -2       282       434       433      2099      2100      2095
 -1       713    8    0    1
 -2       283       284       435      1644      2101      2102
 -1       714    8    0    1
 -2       283       435       434      2102      2103      2098
 -1       715    8    0    1
 -2       284       285       436      1647      2104      2105
 -1       716    8    0    1
 -2       284       436       435      2105      2106      2101
 -1       717    8    0    1
 -2       285       286       437      1650      2107      2108
 -1       718    8    0    1
 -2       285       437       436      2108      2109      2104
 -1       719    8    0    1
 -2       286       287       438      1653      2110      2111
 -1       720    8    0    1
 -2       286       438       437      2111      2112      2107
 -1       721    8    0    1
 -2       287       288       439      1656      2113      2114
 -1       722    8    0    1
 -2       287       439       438      2114      2115      2110
 -1       723    8    0    1
 -2       288       289       440      1659      2116      2117
 -1       724    8    0    1
 -2       288       440       439      2117      2118      2113
 -1       725    8    0    1
 -2       289       290       441      1662      2119      2120
 -1       726    8    0    1
 -2       289       441       440      2120      2121      2116
 -1       727    8    0    1
 -2       293       294       442      1732      2122      2123
 -1       728    8    0    1
 -2       321       292       443      1733      2124      2125
 -1       729    8    0    1
 -2       292       293       444      1731      2126      2127
 -1       730    8    0    1
 -2       294       295       445      1728      2128      2129
 -1       731    8    0    1
 -2       295       296       446      1727      2130      2131
 -1       732    8    0    1
 -2       167       168       447      1294      2132      2133
 -1       733    8    0    1
 -2       322       167       447      1760      2133      2134
 -1       734    8    0    1
 -2       168       324       447      1766      2135      2132
 -1       735    8    0    1
 -2       297       298       448      1735      2136      2137
 -1       736    8    0    1
 -2       298       299       449      1736      2138      2139
 -1       737    8    0    1
 -2       299       300       450      1737      2140      2141
 -1       738    8    0    1
 -2       300       301       451      1738      2142      2143
 -1       739    8    0    1
 -2       301       302       452      1739      2144      2145
 -1       740    8    0    1
 -2       301       452       451      2145      2146      2142
 -1       741    8    0    1
 -2       302       303       453      1740      2147      2148
 -1       742    8    0    1
 -2       303       304       454      1741      2149      2150
 -1       743    8    0    1
 -2       303       454       453      2150      2151      2147
 -1       744    8    0    1
 -2       304       305       455      1742      2152      2153
 -1       745    8    0    1
 -2       305       306       456      1743      2154      2155
 -1       746    8    0    1
 -2       306       307       457      1744      2156      2157
 -1       747    8    0    1
 -2       307       308       458      1745      2158      2159
 -1       748    8    0    1
 -2       308       309       459      1746      2160      2161
 -1       749    8    0    1
 -2       309       310       460      1747      2162      2163
 -1       750    8    0    1
 -2       310       311       461      1748      2164      2165
 -1       751    8    0    1
 -2       311       312       462      1749      2166      2167
 -1       752    8    0    1
 -2       312       313       463      1750      2168      2169
 -1       753    8    0    1
 -2       313       314       464      1751      2170      2171
 -1       754    8    0    1
 -2       314       315       465      1752      2172      2173
 -1       755    8    0    1
 -2       314       465       464      2173      2174      2170
 -1       756    8    0    1
 -2       315       316       466      1753      2175      2176
 -1       757    8    0    1
 -2       316       317       467      1754      2177      2178
 -1       758    8    0    1
 -2       317       318       468      1755      2179      2180
 -1       759    8    0    1
 -2       318       319       469      1756      2181      2182
 -1       760    8    0    1
 -2       319       320       470      1757      2183      2184
 -1       761    8    0    1
 -2       320       321       471      1758      2185      2186
 -1       762    8    0    1
 -2       321       443       471      2125      2187      2185
 -1       763    8    0    1
 -2       296       297       472      1734      2188      2189
 -1       764    8    0    1
 -2       445       295       446      2128      2131      2190
 -1       765    8    0    1
 -2       181       323       182      1805      2191      1336
 -1       766    8    0    1
 -2       446       296       472      2130      2189      2192
 -1       767    8    0    1
 -2       297       448       472      2137      2193      2188
 -1       768    8    0    1
 -2       337       182       323      1806      2191      2194
 -1       769    8    0    1
 -2       444       293       442      2126      2123      2195
 -1       770    8    0    1
 -2       443       292       444      2124      2127      2196
 -1       771    8    0    1
 -2       441       290       291      2119      1665      2197
 -1       772    8    0    1
 -2       442       294       445      2122      2129      2198
 -1       773    8    0    1
 -2       470       320       471      2183      2186      2199
 -1       774    8    0    1
 -2       469       319       470      2181      2184      2200
 -1       775    8    0    1
 -2       468       318       469      2179      2182      2201
 -1       776    8    0    1
 -2       467       317       468      2177      2180      2202
 -1       777    8    0    1
 -2       465       315       466      2172      2176      2203
 -1       778    8    0    1
 -2       463       313       464      2168      2171      2204
 -1       779    8    0    1
 -2       462       312       463      2166      2169      2205
 -1       780    8    0    1
 -2       461       311       462      2164      2167      2206
 -1       781    8    0    1
 -2       460       310       461      2162      2165      2207
 -1       782    8    0    1
 -2       459       309       460      2160      2163      2208
 -1       783    8    0    1
 -2       458       308       459      2158      2161      2209
 -1       784    8    0    1
 -2       457       307       458      2156      2159      2210
 -1       785    8    0    1
 -2       456       306       457      2154      2157      2211
 -1       786    8    0    1
 -2       454       304       455      2149      2153      2212
 -1       787    8    0    1
 -2       452       302       453      2144      2148      2213
 -1       788    8    0    1
 -2       450       300       451      2140      2143      2214
 -1       789    8    0    1
 -2       448       298       449      2136      2139      2215
 -1       790    8    0    1
 -2       449       299       450      2138      2141      2216
 -1       791    8    0    1
 -2       455       305       456      2152      2155      2217
 -1       792    8    0    1
 -2       466       316       467      2175      2178      2218
 -1       793    8    0    1
 -2       336       383       473      1946      2219      2220
 -1       794    8    0    1
 -2       325       326       474      1772      2221      2222
 -1       795    8    0    1
 -2       324       325       475      1769      2223      2224
 -1       796    8    0    1
 -2       325       474       475      2222      2225      2223
 -1       797    8    0    1
 -2       327       328       476      1778      2226      2227
 -1       798    8    0    1
 -2       328       329       477      1781      2228      2229
 -1       799    8    0    1
 -2       328       477       476      2229      2230      2226
 -1       800    8    0    1
 -2       329       330       478      1784      2231      2232
 -1       801    8    0    1
 -2       329       478       477      2232      2233      2228
 -1       802    8    0    1
 -2       330       331       479      1787      2234      2235
 -1       803    8    0    1
 -2       330       479       478      2235      2236      2231
 -1       804    8    0    1
 -2       331       332       480      1790      2237      2238
 -1       805    8    0    1
 -2       331       480       479      2238      2239      2234
 -1       806    8    0    1
 -2       332       333       481      1793      2240      2241
 -1       807    8    0    1
 -2       332       481       480      2241      2242      2237
 -1       808    8    0    1
 -2       383       384       482      1949      2243      2244
 -1       809    8    0    1
 -2       383       482       473      2244      2245      2219
 -1       810    8    0    1
 -2       338       337       483      1810      2246      2247
 -1       811    8    0    1
 -2       446       472       484      2192      2248      2249
 -1       812    8    0    1
 -2       339       338       485      1813      2250      2251
 -1       813    8    0    1
 -2       338       483       485      2247      2252      2250
 -1       814    8    0    1
 -2       340       339       486      1816      2253      2254
 -1       815    8    0    1
 -2       339       485       486      2251      2255      2253
 -1       816    8    0    1
 -2       341       340       487      1819      2256      2257
 -1       817    8    0    1
 -2       340       486       487      2254      2258      2256
 -1       818    8    0    1
 -2       342       341       488      1822      2259      2260
 -1       819    8    0    1
 -2       341       487       488      2257      2261      2259
 -1       820    8    0    1
 -2       343       342       489      1825      2262      2263
 -1       821    8    0    1
 -2       342       488       489      2260      2264      2262
 -1       822    8    0    1
 -2       344       343       490      1828      2265      2266
 -1       823    8    0    1
 -2       343       489       490      2263      2267      2265
 -1       824    8    0    1
 -2       345       344       491      1831      2268      2269
 -1       825    8    0    1
 -2       344       490       491      2266      2270      2268
 -1       826    8    0    1
 -2       346       345       492      1834      2271      2272
 -1       827    8    0    1
 -2       345       491       492      2269      2273      2271
 -1       828    8    0    1
 -2       347       346       493      1837      2274      2275
 -1       829    8    0    1
 -2       346       492       493      2272      2276      2274
 -1       830    8    0    1
 -2       348       347       494      1840      2277      2278
 -1       831    8    0    1
 -2       347       493       494      2275      2279      2277
 -1       832    8    0    1
 -2       349       348       495      1843      2280      2281
 -1       833    8    0    1
 -2       348       494       495      2278      2282      2280
 -1       834    8    0    1
 -2       350       349       496      1846      2283      2284
 -1       835    8    0    1
 -2       349       495       496      2281      2285      2283
 -1       836    8    0    1
 -2       351       350       497      1849      2286      2287
 -1       837    8    0    1
 -2       350       496       497      2284      2288      2286
 -1       838    8    0    1
 -2       352       351       498      1852      2289      2290
 -1       839    8    0    1
 -2       351       497       498      2287      2291      2289
 -1       840    8    0    1
 -2       353       352       499      1855      2292      2293
 -1       841    8    0    1
 -2       352       498       499      2290      2294      2292
 -1       842    8    0    1
 -2       354       353       500      1858      2295      2296
 -1       843    8    0    1
 -2       353       499       500      2293      2297      2295
 -1       844    8    0    1
 -2       355       354       501      1861      2298      2299
 -1       845    8    0    1
 -2       354       500       501      2296      2300      2298
 -1       846    8    0    1
 -2       356       355       502      1864      2301      2302
 -1       847    8    0    1
 -2       355       501       502      2299      2303      2301
 -1       848    8    0    1
 -2       357       356       503      1867      2304      2305
 -1       849    8    0    1
 -2       356       502       503      2302      2306      2304
 -1       850    8    0    1
 -2       358       357       504      1870      2307      2308
 -1       851    8    0    1
 -2       357       503       504      2305      2309      2307
 -1       852    8    0    1
 -2       359       358       505      1873      2310      2311
 -1       853    8    0    1
 -2       358       504       505      2308      2312      2310
 -1       854    8    0    1
 -2       360       359       506      1876      2313      2314
 -1       855    8    0    1
 -2       359       505       506      2311      2315      2313
 -1       856    8    0    1
 -2       361       360       507      1879      2316      2317
 -1       857    8    0    1
 -2       360       506       507      2314      2318      2316
 -1       858    8    0    1
 -2       362       361       508      1882      2319      2320
 -1       859    8    0    1
 -2       361       507       508      2317      2321      2319
 -1       860    8    0    1
 -2       363       362       509      1885      2322      2323
 -1       861    8    0    1
 -2       362       508       509      2320      2324      2322
 -1       862    8    0    1
 -2       364       363       510      1888      2325      2326
 -1       863    8    0    1
 -2       363       509       510      2323      2327      2325
 -1       864    8    0    1
 -2       365       364       511      1891      2328      2329
 -1       865    8    0    1
 -2       364       510       511      2326      2330      2328
 -1       866    8    0    1
 -2       366       365       512      1894      2331      2332
 -1       867    8    0    1
 -2       365       511       512      2329      2333      2331
 -1       868    8    0    1
 -2       367       366       513      1897      2334      2335
 -1       869    8    0    1
 -2       366       512       513      2332      2336      2334
 -1       870    8    0    1
 -2       368       367       514      1900      2337      2338
 -1       871    8    0    1
 -2       367       513       514      2335      2339      2337
 -1       872    8    0    1
 -2       369       368       515      1903      2340      2341
 -1       873    8    0    1
 -2       368       514       515      2338      2342      2340
 -1       874    8    0    1
 -2       370       369       516      1906      2343      2344
 -1       875    8    0    1
 -2       369       515       516      2341      2345      2343
 -1       876    8    0    1
 -2       371       370       517      1909      2346      2347
 -1       877    8    0    1
 -2       370       516       517      2344      2348      2346
 -1       878    8    0    1
 -2       372       371       518      1912      2349      2350
 -1       879    8    0    1
 -2       371       517       518      2347      2351      2349
 -1       880    8    0    1
 -2       373       372       519      1915      2352      2353
 -1       881    8    0    1
 -2       372       518       519      2350      2354      2352
 -1       882    8    0    1
 -2       374       373       520      1918      2355      2356
 -1       883    8    0    1
 -2       373       519       520      2353      2357      2355
 -1       884    8    0    1
 -2       375       374       521      1921      2358      2359
 -1       885    8    0    1
 -2       374       520       521      2356      2360      2358
 -1       886    8    0    1
 -2       376       375       522      1924      2361      2362
 -1       887    8    0    1
 -2       375       521       522      2359      2363      2361
 -1       888    8    0    1
 -2       377       376       523      1927      2364      2365
 -1       889    8    0    1
 -2       376       522       523      2362      2366      2364
 -1       890    8    0    1
 -2       378       377       524      1930      2367      2368
 -1       891    8    0    1
 -2       377       523       524      2365      2369      2367
 -1       892    8    0    1
 -2       379       378       525      1933      2370      2371
 -1       893    8    0    1
 -2       378       524       525      2368      2372      2370
 -1       894    8    0    1
 -2       380       379       526      1936      2373      2374
 -1       895    8    0    1
 -2       379       525       526      2371      2375      2373
 -1       896    8    0    1
 -2       381       380       527      1939      2376      2377
 -1       897    8    0    1
 -2       380       526       527      2374      2378      2376
 -1       898    8    0    1
 -2       385       386       528      1955      2379      2380
 -1       899    8    0    1
 -2       386       387       529      1958      2381      2382
 -1       900    8    0    1
 -2       386       529       528      2382      2383      2379
 -1       901    8    0    1
 -2       387       388       530      1961      2384      2385
 -1       902    8    0    1
 -2       387       530       529      2385      2386      2381
 -1       903    8    0    1
 -2       388       389       531      1964      2387      2388
 -1       904    8    0    1
 -2       388       531       530      2388      2389      2384
 -1       905    8    0    1
 -2       389       390       532      1967      2390      2391
 -1       906    8    0    1
 -2       389       532       531      2391      2392      2387
 -1       907    8    0    1
 -2       390       391       533      1970      2393      2394
 -1       908    8    0    1
 -2       390       533       532      2394      2395      2390
 -1       909    8    0    1
 -2       391       392       534      1973      2396      2397
 -1       910    8    0    1
 -2       391       534       533      2397      2398      2393
 -1       911    8    0    1
 -2       392       393       535      1976      2399      2400
 -1       912    8    0    1
 -2       392       535       534      2400      2401      2396
 -1       913    8    0    1
 -2       393       394       536      1979      2402      2403
 -1       914    8    0    1
 -2       393       536       535      2403      2404      2399
 -1       915    8    0    1
 -2       394       395       537      1982      2405      2406
 -1       916    8    0    1
 -2       394       537       536      2406      2407      2402
 -1       917    8    0    1
 -2       395       396       538      1985      2408      2409
 -1       918    8    0    1
 -2       395       538       537      2409      2410      2405
 -1       919    8    0    1
 -2       396       397       539      1988      2411      2412
 -1       920    8    0    1
 -2       396       539       538      2412      2413      2408
 -1       921    8    0    1
 -2       397       398       540      1991      2414      2415
 -1       922    8    0    1
 -2       397       540       539      2415      2416      2411
 -1       923    8    0    1
 -2       398       399       541      1994      2417      2418
 -1       924    8    0    1
 -2       398       541       540      2418      2419      2414
 -1       925    8    0    1
 -2       399       400       542      1997      2420      2421
 -1       926    8    0    1
 -2       399       542       541      2421      2422      2417
 -1       927    8    0    1
 -2       400       401       543      2000      2423      2424
 -1       928    8    0    1
 -2       400       543       542      2424      2425      2420
 -1       929    8    0    1
 -2       401       402       544      2003      2426      2427
 -1       930    8    0    1
 -2       401       544       543      2427      2428      2423
 -1       931    8    0    1
 -2       402       403       545      2006      2429      2430
 -1       932    8    0    1
 -2       402       545       544      2430      2431      2426
 -1       933    8    0    1
 -2       403       404       546      2009      2432      2433
 -1       934    8    0    1
 -2       403       546       545      2433      2434      2429
 -1       935    8    0    1
 -2       404       405       547      2012      2435      2436
 -1       936    8    0    1
 -2       404       547       546      2436      2437      2432
 -1       937    8    0    1
 -2       405       406       548      2015      2438      2439
 -1       938    8    0    1
 -2       405       548       547      2439      2440      2435
 -1       939    8    0    1
 -2       406       407       549      2018      2441      2442
 -1       940    8    0    1
 -2       406       549       548      2442      2443      2438
 -1       941    8    0    1
 -2       407       408       550      2021      2444      2445
 -1       942    8    0    1
 -2       407       550       549      2445      2446      2441
 -1       943    8    0    1
 -2       408       409       551      2024      2447      2448
 -1       944    8    0    1
 -2       408       551       550      2448      2449      2444
 -1       945    8    0    1
 -2       409       410       552      2027      2450      2451
 -1       946    8    0    1
 -2       409       552       551      2451      2452      2447
 -1       947    8    0    1
 -2       410       411       553      2030      2453      2454
 -1       948    8    0    1
 -2       410       553       552      2454      2455      2450
 -1       949    8    0    1
 -2       411       412       554      2033      2456      2457
 -1       950    8    0    1
 -2       411       554       553      2457      2458      2453
 -1       951    8    0    1
 -2       412       413       555      2036      2459      2460
 -1       952    8    0    1
 -2       412       555       554      2460      2461      2456
 -1       953    8    0    1
 -2       413       414       556      2039      2462      2463
 -1       954    8    0    1
 -2       413       556       555      2463      2464      2459
 -1       955    8    0    1
 -2       414       415       557      2042      2465      2466
 -1       956    8    0    1
 -2       414       557       556      2466      2467      2462
 -1       957    8    0    1
 -2       415       416       558      2045      2468      2469
 -1       958    8    0    1
 -2       415       558       557      2469      2470      2465
 -1       959    8    0    1
 -2       416       417       559      2048      2471      2472
 -1       960    8    0    1
 -2       416       559       558      2472      2473      2468
 -1       961    8    0    1
 -2       417       418       560      2051      2474      2475
 -1       962    8    0    1
 -2       417       560       559      2475      2476      2471
 -1       963    8    0    1
 -2       418       419       561      2054      2477      2478
 -1       964    8    0    1
 -2       418       561       560      2478      2479      2474
 -1       965    8    0    1
 -2       419       420       562      2057      2480      2481
 -1       966    8    0    1
 -2       419       562       561      2481      2482      2477
 -1       967    8    0    1
 -2       420       421       563      2060      2483      2484
 -1       968    8    0    1
 -2       420       563       562      2484      2485      2480
 -1       969    8    0    1
 -2       421       422       564      2063      2486      2487
 -1       970    8    0    1
 -2       421       564       563      2487      2488      2483
 -1       971    8    0    1
 -2       422       423       565      2066      2489      2490
 -1       972    8    0    1
 -2       422       565       564      2490      2491      2486
 -1       973    8    0    1
 -2       423       424       566      2069      2492      2493
 -1       974    8    0    1
 -2       423       566       565      2493      2494      2489
 -1       975    8    0    1
 -2       424       425       567      2072      2495      2496
 -1       976    8    0    1
 -2       424       567       566      2496      2497      2492
 -1       977    8    0    1
 -2       425       426       568      2075      2498      2499
 -1       978    8    0    1
 -2       425       568       567      2499      2500      2495
 -1       979    8    0    1
 -2       426       427       569      2078      2501      2502
 -1       980    8    0    1
 -2       426       569       568      2502      2503      2498
 -1       981    8    0    1
 -2       427       428       431      2081      2090      2504
 -1       982    8    0    1
 -2       432       433       570      2097      2505      2506
 -1       983    8    0    1
 -2       433       434       571      2100      2507      2508
 -1       984    8    0    1
 -2       433       571       570      2508      2509      2505
 -1       985    8    0    1
 -2       430       429       572      2087      2510      2511
 -1       986    8    0    1
 -2       429       432       573      2094      2512      2513
 -1       987    8    0    1
 -2       572       429       573      2510      2513      2514
 -1       988    8    0    1
 -2       432       570       573      2506      2515      2512
 -1       989    8    0    1
 -2       434       435       574      2103      2516      2517
 -1       990    8    0    1
 -2       434       574       571      2517      2518      2507
 -1       991    8    0    1
 -2       435       436       575      2106      2519      2520
 -1       992    8    0    1
 -2       435       575       574      2520      2521      2516
 -1       993    8    0    1
 -2       436       437       576      2109      2522      2523
 -1       994    8    0    1
 -2       436       576       575      2523      2524      2519
 -1       995    8    0    1
 -2       437       438       577      2112      2525      2526
 -1       996    8    0    1
 -2       437       577       576      2526      2527      2522
 -1       997    8    0    1
 -2       438       439       578      2115      2528      2529
 -1       998    8    0    1
 -2       438       578       577      2529      2530      2525
 -1       999    8    0    1
 -2       439       440       579      2118      2531      2532
 -1      1000    8    0    1
 -2       439       579       578      2532      2533      2528
 -1      1001    8    0    1
 -2       440       441       580      2121      2534      2535
 -1      1002    8    0    1
 -2       440       580       579      2535      2536      2531
 -1      1003    8    0    1
 -2       443       444       581      2196      2537      2538
 -1      1004    8    0    1
 -2       442       445       582      2198      2539      2540
 -1      1005    8    0    1
 -2       384       385       583      1952      2541      2542
 -1      1006    8    0    1
 -2       385       528       583      2380      2543      2541
 -1      1007    8    0    1
 -2       472       448       584      2193      2544      2545
 -1      1008    8    0    1
 -2       441       291       382      2197      1942      2546
 -1      1009    8    0    1
 -2       470       471       585      2199      2547      2548
 -1      1010    8    0    1
 -2       444       442       586      2195      2549      2550
 -1      1011    8    0    1
 -2       442       582       586      2540      2551      2549
 -1      1012    8    0    1
 -2       471       443       587      2187      2552      2553
 -1      1013    8    0    1
 -2       443       581       587      2538      2554      2552
 -1      1014    8    0    1
 -2       463       464       588      2204      2555      2556
 -1      1015    8    0    1
 -2       450       451       589      2214      2557      2558
 -1      1016    8    0    1
 -2       326       327       590      1775      2559      2560
 -1      1017    8    0    1
 -2       474       326       590      2221      2560      2561
 -1      1018    8    0    1
 -2       327       476       590      2227      2562      2559
 -1      1019    8    0    1
 -2       449       450       591      2216      2563      2564
 -1      1020    8    0    1
 -2       455       456       592      2217      2565      2566
 -1      1021    8    0    1
 -2       448       449       593      2215      2567      2568
 -1      1022    8    0    1
 -2       449       591       593      2564      2569      2567
 -1      1023    8    0    1
 -2       451       452       594      2146      2570      2571
 -1      1024    8    0    1
 -2       452       453       595      2213      2572      2573
 -1      1025    8    0    1
 -2       452       595       594      2573      2574      2570
 -1      1026    8    0    1
 -2       453       454       596      2151      2575      2576
 -1      1027    8    0    1
 -2       466       467       597      2218      2577      2578
 -1      1028    8    0    1
 -2       454       455       598      2212      2579      2580
 -1      1029    8    0    1
 -2       456       457       599      2211      2581      2582
 -1      1030    8    0    1
 -2       456       599       592      2582      2583      2565
 -1      1031    8    0    1
 -2       457       458       600      2210      2584      2585
 -1      1032    8    0    1
 -2       458       459       601      2209      2586      2587
 -1      1033    8    0    1
 -2       459       460       602      2208      2588      2589
 -1      1034    8    0    1
 -2       459       602       601      2589      2590      2586
 -1      1035    8    0    1
 -2       460       461       603      2207      2591      2592
 -1      1036    8    0    1
 -2       461       462       604      2206      2593      2594
 -1      1037    8    0    1
 -2       462       463       605      2205      2595      2596
 -1      1038    8    0    1
 -2       604       462       605      2593      2596      2597
 -1      1039    8    0    1
 -2       463       588       605      2556      2598      2595
 -1      1040    8    0    1
 -2       464       465       606      2174      2599      2600
 -1      1041    8    0    1
 -2       465       466       607      2203      2601      2602
 -1      1042    8    0    1
 -2       465       607       606      2602      2603      2599
 -1      1043    8    0    1
 -2       467       468       608      2202      2604      2605
 -1      1044    8    0    1
 -2       467       608       597      2605      2606      2577
 -1      1045    8    0    1
 -2       468       469       609      2201      2607      2608
 -1      1046    8    0    1
 -2       469       470       610      2200      2609      2610
 -1      1047    8    0    1
 -2       337       323       611      2194      2611      2612
 -1      1048    8    0    1
 -2       483       337       611      2246      2612      2613
 -1      1049    8    0    1
 -2       323       322       611      1764      2614      2611
 -1      1050    8    0    1
 -2       335       336       612      1804      2615      2616
 -1      1051    8    0    1
 -2       334       335       612      1799      2616      2617
 -1      1052    8    0    1
 -2       336       473       612      2220      2618      2615
 -1      1053    8    0    1
 -2       445       446       613      2190      2619      2620
 -1      1054    8    0    1
 -2       446       484       613      2249      2621      2619
 -1      1055    8    0    1
 -2       451       594       589      2571      2622      2557
 -1      1056    8    0    1
 -2       324       475       614      2224      2623      2624
 -1      1057    8    0    1
 -2       324       614       447      2624      2625      2135
 -1      1058    8    0    1
 -2       482       384       583      2243      2542      2626
 -1      1059    8    0    1
 -2       333       334       612      1796      2617      2627
 -1      1060    8    0    1
 -2       470       585       610      2548      2628      2609
 -1      1061    8    0    1
 -2       427       431       569      2504      2629      2501
 -1      1062    8    0    1
 -2       582       445       613      2539      2620      2630
 -1      1063    8    0    1
 -2       431       430       569      2091      2631      2629
 -1      1064    8    0    1
 -2       611       322       447      2614      2134      2632
 -1      1065    8    0    1
 -2       464       606       588      2600      2633      2555
 -1      1066    8    0    1
 -2       581       444       586      2537      2550      2634
 -1      1067    8    0    1
 -2       471       587       585      2553      2635      2547
 -1      1068    8    0    1
 -2       333       612       481      2627      2636      2240
 -1      1069    8    0    1
 -2       584       448       615      2544      2637      2638
 -1      1070    8    0    1
 -2       448       593       615      2568      2639      2637
 -1      1071    8    0    1
 -2       441       382       616      2546      2640      2641
 -1      1072    8    0    1
 -2       580       441       616      2534      2641      2642
 -1      1073    8    0    1
 -2       382       381       616      1943      2643      2640
 -1      1074    8    0    1
 -2       602       460       603      2588      2592      2644
 -1      1075    8    0    1
 -2       599       457       600      2581      2585      2645
 -1      1076    8    0    1
 -2       598       455       617      2579      2646      2647
 -1      1077    8    0    1
 -2       455       592       617      2566      2648      2646
 -1      1078    8    0    1
 -2       450       589       591      2558      2649      2563
 -1      1079    8    0    1
 -2       468       609       608      2608      2650      2604
 -1      1080    8    0    1
 -2       595       453       596      2572      2576      2651
 -1      1081    8    0    1
 -2       484       472       584      2248      2545      2652
 -1      1082    8    0    1
 -2       596       454       598      2575      2580      2653
 -1      1083    8    0    1
 -2       466       597       607      2578      2654      2601
 -1      1084    8    0    1
 -2       600       458       601      2584      2587      2655
 -1      1085    8    0    1
 -2       603       461       604      2591      2594      2656
 -1      1086    8    0    1
 -2       569       430       572      2631      2511      2657
 -1      1087    8    0    1
 -2       609       469       610      2607      2610      2658
 -1      1088    8    0    1
 -2       616       381       527      2643      2377      2659
 -1      1089    8    0    1
 -2       477       478       618      2233      2660      2661
 -1      1090    8    0    1
 -2       476       477       619      2230      2662      2663
 -1      1091    8    0    1
 -2       477       618       619      2661      2664      2662
 -1      1092    8    0    1
 -2       479       480       620      2239      2665      2666
 -1      1093    8    0    1
 -2       480       481       621      2242      2667      2668
 -1      1094    8    0    1
 -2       480       621       620      2668      2669      2665
 -1      1095    8    0    1
 -2       473       482       622      2245      2670      2671
 -1      1096    8    0    1
 -2       613       484       623      2621      2672      2673
 -1      1097    8    0    1
 -2       612       473       481      2618      2674      2636
 -1      1098    8    0    1
 -2       589       594       624      2622      2675      2676
 -1      1099    8    0    1
 -2       486       485       625      2255      2677      2678
 -1      1100    8    0    1
 -2       487       486       626      2258      2679      2680
 -1      1101    8    0    1
 -2       486       625       626      2678      2681      2679
 -1      1102    8    0    1
 -2       488       487       627      2261      2682      2683
 -1      1103    8    0    1
 -2       487       626       627      2680      2684      2682
 -1      1104    8    0    1
 -2       489       488       628      2264      2685      2686
 -1      1105    8    0    1
 -2       488       627       628      2683      2687      2685
 -1      1106    8    0    1
 -2       490       489       629      2267      2688      2689
 -1      1107    8    0    1
 -2       489       628       629      2686      2690      2688
 -1      1108    8    0    1
 -2       491       490       630      2270      2691      2692
 -1      1109    8    0    1
 -2       490       629       630      2689      2693      2691
 -1      1110    8    0    1
 -2       492       491       631      2273      2694      2695
 -1      1111    8    0    1
 -2       491       630       631      2692      2696      2694
 -1      1112    8    0    1
 -2       493       492       632      2276      2697      2698
 -1      1113    8    0    1
 -2       492       631       632      2695      2699      2697
 -1      1114    8    0    1
 -2       494       493       633      2279      2700      2701
 -1      1115    8    0    1
 -2       493       632       633      2698      2702      2700
 -1      1116    8    0    1
 -2       498       497       606      2291      2703      2704
 -1      1117    8    0    1
 -2       499       498       607      2294      2705      2706
 -1      1118    8    0    1
 -2       500       499       634      2297      2707      2708
 -1      1119    8    0    1
 -2       501       500       635      2300      2709      2710
 -1      1120    8    0    1
 -2       500       634       635      2708      2711      2709
 -1      1121    8    0    1
 -2       502       501       636      2303      2712      2713
 -1      1122    8    0    1
 -2       501       635       636      2710      2714      2712
 -1      1123    8    0    1
 -2       503       502       637      2306      2715      2716
 -1      1124    8    0    1
 -2       502       636       637      2713      2717      2715
 -1      1125    8    0    1
 -2       504       503       638      2309      2718      2719
 -1      1126    8    0    1
 -2       503       637       638      2716      2720      2718
 -1      1127    8    0    1
 -2       505       504       639      2312      2721      2722
 -1      1128    8    0    1
 -2       504       638       639      2719      2723      2721
 -1      1129    8    0    1
 -2       506       505       640      2315      2724      2725
 -1      1130    8    0    1
 -2       505       639       640      2722      2726      2724
 -1      1131    8    0    1
 -2       507       506       641      2318      2727      2728
 -1      1132    8    0    1
 -2       506       640       641      2725      2729      2727
 -1      1133    8    0    1
 -2       508       507       642      2321      2730      2731
 -1      1134    8    0    1
 -2       507       641       642      2728      2732      2730
 -1      1135    8    0    1
 -2       509       508       643      2324      2733      2734
 -1      1136    8    0    1
 -2       508       642       643      2731      2735      2733
 -1      1137    8    0    1
 -2       510       509       644      2327      2736      2737
 -1      1138    8    0    1
 -2       509       643       644      2734      2738      2736
 -1      1139    8    0    1
 -2       511       510       645      2330      2739      2740
 -1      1140    8    0    1
 -2       510       644       645      2737      2741      2739
 -1      1141    8    0    1
 -2       512       511       646      2333      2742      2743
 -1      1142    8    0    1
 -2       511       645       646      2740      2744      2742
 -1      1143    8    0    1
 -2       513       512       647      2336      2745      2746
 -1      1144    8    0    1
 -2       512       646       647      2743      2747      2745
 -1      1145    8    0    1
 -2       514       513       648      2339      2748      2749
 -1      1146    8    0    1
 -2       513       647       648      2746      2750      2748
 -1      1147    8    0    1
 -2       515       514       649      2342      2751      2752
 -1      1148    8    0    1
 -2       514       648       649      2749      2753      2751
 -1      1149    8    0    1
 -2       516       515       650      2345      2754      2755
 -1      1150    8    0    1
 -2       515       649       650      2752      2756      2754
 -1      1151    8    0    1
 -2       517       516       651      2348      2757      2758
 -1      1152    8    0    1
 -2       516       650       651      2755      2759      2757
 -1      1153    8    0    1
 -2       518       517       652      2351      2760      2761
 -1      1154    8    0    1
 -2       517       651       652      2758      2762      2760
 -1      1155    8    0    1
 -2       519       518       653      2354      2763      2764
 -1      1156    8    0    1
 -2       518       652       653      2761      2765      2763
 -1      1157    8    0    1
 -2       520       519       654      2357      2766      2767
 -1      1158    8    0    1
 -2       519       653       654      2764      2768      2766
 -1      1159    8    0    1
 -2       521       520       655      2360      2769      2770
 -1      1160    8    0    1
 -2       520       654       655      2767      2771      2769
 -1      1161    8    0    1
 -2       522       521       656      2363      2772      2773
 -1      1162    8    0    1
 -2       521       655       656      2770      2774      2772
 -1      1163    8    0    1
 -2       523       522       657      2366      2775      2776
 -1      1164    8    0    1
 -2       522       656       657      2773      2777      2775
 -1      1165    8    0    1
 -2       524       523       658      2369      2778      2779
 -1      1166    8    0    1
 -2       523       657       658      2776      2780      2778
 -1      1167    8    0    1
 -2       525       524       659      2372      2781      2782
 -1      1168    8    0    1
 -2       524       658       659      2779      2783      2781
 -1      1169    8    0    1
 -2       526       525       660      2375      2784      2785
 -1      1170    8    0    1
 -2       525       659       660      2782      2786      2784
 -1      1171    8    0    1
 -2       527       526       661      2378      2787      2788
 -1      1172    8    0    1
 -2       526       660       661      2785      2789      2787
 -1      1173    8    0    1
 -2       529       530       662      2386      2790      2791
 -1      1174    8    0    1
 -2       602       603       663      2644      2792      2793
 -1      1175    8    0    1
 -2       528       529       664      2383      2794      2795
 -1      1176    8    0    1
 -2       529       662       664      2791      2796      2794
 -1      1177    8    0    1
 -2       531       532       665      2392      2797      2798
 -1      1178    8    0    1
 -2       532       533       666      2395      2799      2800
 -1      1179    8    0    1
 -2       532       666       665      2800      2801      2797
 -1      1180    8    0    1
 -2       533       534       667      2398      2802      2803
 -1      1181    8    0    1
 -2       533       667       666      2803      2804      2799
 -1      1182    8    0    1
 -2       534       535       668      2401      2805      2806
 -1      1183    8    0    1
 -2       534       668       667      2806      2807      2802
 -1      1184    8    0    1
 -2       535       536       669      2404      2808      2809
 -1      1185    8    0    1
 -2       535       669       668      2809      2810      2805
 -1      1186    8    0    1
 -2       536       537       670      2407      2811      2812
 -1      1187    8    0    1
 -2       536       670       669      2812      2813      2808
 -1      1188    8    0    1
 -2       537       538       671      2410      2814      2815
 -1      1189    8    0    1
 -2       537       671       670      2815      2816      2811
 -1      1190    8    0    1
 -2       538       539       672      2413      2817      2818
 -1      1191    8    0    1
 -2       538       672       671      2818      2819      2814
 -1      1192    8    0    1
 -2       539       540       673      2416      2820      2821
 -1      1193    8    0    1
 -2       539       673       672      2821      2822      2817
 -1      1194    8    0    1
 -2       540       541       674      2419      2823      2824
 -1      1195    8    0    1
 -2       540       674       673      2824      2825      2820
 -1      1196    8    0    1
 -2       541       542       675      2422      2826      2827
 -1      1197    8    0    1
 -2       541       675       674      2827      2828      2823
 -1      1198    8    0    1
 -2       542       543       676      2425      2829      2830
 -1      1199    8    0    1
 -2       542       676       675      2830      2831      2826
 -1      1200    8    0    1
 -2       543       544       677      2428      2832      2833
 -1      1201    8    0    1
 -2       543       677       676      2833      2834      2829
 -1      1202    8    0    1
 -2       544       545       678      2431      2835      2836
 -1      1203    8    0    1
 -2       544       678       677      2836      2837      2832
 -1      1204    8    0    1
 -2       545       546       679      2434      2838      2839
 -1      1205    8    0    1
 -2       545       679       678      2839      2840      2835
 -1      1206    8    0    1
 -2       546       547       680      2437      2841      2842
 -1      1207    8    0    1
 -2       546       680       679      2842      2843      2838
 -1      1208    8    0    1
 -2       547       548       681      2440      2844      2845
 -1      1209    8    0    1
 -2       547       681       680      2845      2846      2841
 -1      1210    8    0    1
 -2       548       549       682      2443      2847      2848
 -1      1211    8    0    1
 -2       548       682       681      2848      2849      2844
 -1      1212    8    0    1
 -2       549       550       683      2446      2850      2851
 -1      1213    8    0    1
 -2       549       683       682      2851      2852      2847
 -1      1214    8    0    1
 -2       550       551       684      2449      2853      2854
 -1      1215    8    0    1
 -2       550       684       683      2854      2855      2850
 -1      1216    8    0    1
 -2       551       552       685      2452      2856      2857
 -1      1217    8    0    1
 -2       551       685       684      2857      2858      2853
 -1      1218    8    0    1
 -2       552       553       686      2455      2859      2860
 -1      1219    8    0    1
 -2       552       686       685      2860      2861      2856
 -1      1220    8    0    1
 -2       553       554       687      2458      2862      2863
 -1      1221    8    0    1
 -2       553       687       686      2863      2864      2859
 -1      1222    8    0    1
 -2       554       555       688      2461      2865      2866
 -1      1223    8    0    1
 -2       554       688       687      2866      2867      2862
 -1      1224    8    0    1
 -2       555       556       689      2464      2868      2869
 -1      1225    8    0    1
 -2       555       689       688      2869      2870      2865
 -1      1226    8    0    1
 -2       556       557       690      2467      2871      2872
 -1      1227    8    0    1
 -2       556       690       689      2872      2873      2868
 -1      1228    8    0    1
 -2       557       558       691      2470      2874      2875
 -1      1229    8    0    1
 -2       557       691       690      2875      2876      2871
 -1      1230    8    0    1
 -2       558       559       692      2473      2877      2878
 -1      1231    8    0    1
 -2       558       692       691      2878      2879      2874
 -1      1232    8    0    1
 -2       559       560       693      2476      2880      2881
 -1      1233    8    0    1
 -2       559       693       692      2881      2882      2877
 -1      1234    8    0    1
 -2       560       561       694      2479      2883      2884
 -1      1235    8    0    1
 -2       560       694       693      2884      2885      2880
 -1      1236    8    0    1
 -2       561       562       695      2482      2886      2887
 -1      1237    8    0    1
 -2       561       695       694      2887      2888      2883
 -1      1238    8    0    1
 -2       562       563       696      2485      2889      2890
 -1      1239    8    0    1
 -2       562       696       695      2890      2891      2886
 -1      1240    8    0    1
 -2       563       564       697      2488      2892      2893
 -1      1241    8    0    1
 -2       563       697       696      2893      2894      2889
 -1      1242    8    0    1
 -2       564       565       698      2491      2895      2896
 -1      1243    8    0    1
 -2       564       698       697      2896      2897      2892
 -1      1244    8    0    1
 -2       565       566       699      2494      2898      2899
 -1      1245    8    0    1
 -2       565       699       698      2899      2900      2895
 -1      1246    8    0    1
 -2       566       567       700      2497      2901      2902
 -1      1247    8    0    1
 -2       566       700       699      2902      2903      2898
 -1      1248    8    0    1
 -2       567       568       701      2500      2904      2905
 -1      1249    8    0    1
 -2       567       701       700      2905      2906      2901
 -1      1250    8    0    1
 -2       568       569       702      2503      2907      2908
 -1      1251    8    0    1
 -2       701       568       702      2904      2908      2909
 -1      1252    8    0    1
 -2       569       572       702      2657      2910      2907
 -1      1253    8    0    1
 -2       582       613       703      2630      2911      2912
 -1      1254    8    0    1
 -2       574       575       704      2521      2913      2914
 -1      1255    8    0    1
 -2       609       610       705      2658      2915      2916
 -1      1256    8    0    1
 -2       570       571       706      2509      2917      2918
 -1      1257    8    0    1
 -2       575       576       707      2524      2919      2920
 -1      1258    8    0    1
 -2       575       707       704      2920      2921      2913
 -1      1259    8    0    1
 -2       571       574       708      2518      2922      2923
 -1      1260    8    0    1
 -2       706       571       708      2917      2923      2924
 -1      1261    8    0    1
 -2       574       704       708      2914      2925      2922
 -1      1262    8    0    1
 -2       576       577       709      2527      2926      2927
 -1      1263    8    0    1
 -2       576       709       707      2927      2928      2919
 -1      1264    8    0    1
 -2       577       578       710      2530      2929      2930
 -1      1265    8    0    1
 -2       577       710       709      2930      2931      2926
 -1      1266    8    0    1
 -2       578       579       711      2533      2932      2933
 -1      1267    8    0    1
 -2       578       711       710      2933      2934      2929
 -1      1268    8    0    1
 -2       611       447       614      2632      2625      2935
 -1      1269    8    0    1
 -2       585       587       712      2635      2936      2937
 -1      1270    8    0    1
 -2       587       581       713      2554      2938      2939
 -1      1271    8    0    1
 -2       581       586       714      2634      2940      2941
 -1      1272    8    0    1
 -2       597       608       634      2606      2942      2943
 -1      1273    8    0    1
 -2       599       600       715      2645      2944      2945
 -1      1274    8    0    1
 -2       593       591       716      2569      2946      2947
 -1      1275    8    0    1
 -2       586       582       717      2551      2948      2949
 -1      1276    8    0    1
 -2       582       703       717      2912      2950      2948
 -1      1277    8    0    1
 -2       583       528       718      2543      2951      2952
 -1      1278    8    0    1
 -2       528       664       718      2795      2953      2951
 -1      1279    8    0    1
 -2       530       531       719      2389      2954      2955
 -1      1280    8    0    1
 -2       662       530       719      2790      2955      2956
 -1      1281    8    0    1
 -2       531       665       719      2798      2957      2954
 -1      1282    8    0    1
 -2       485       483       720      2252      2958      2959
 -1      1283    8    0    1
 -2       485       720       625      2959      2960      2677
 -1      1284    8    0    1
 -2       482       583       721      2626      2961      2962
 -1      1285    8    0    1
 -2       622       482       721      2670      2962      2963
 -1      1286    8    0    1
 -2       583       718       721      2952      2964      2961
 -1      1287    8    0    1
 -2       610       585       722      2628      2965      2966
 -1      1288    8    0    1
 -2       610       722       705      2966      2967      2915
 -1      1289    8    0    1
 -2       588       606       497      2633      2703      2968
 -1      1290    8    0    1
 -2       478       479       723      2236      2969      2970
 -1      1291    8    0    1
 -2       618       478       723      2660      2970      2971
 -1      1292    8    0    1
 -2       479       620       723      2666      2972      2969
 -1      1293    8    0    1
 -2       475       474       724      2225      2973      2974
 -1      1294    8    0    1
 -2       591       589       725      2649      2975      2976
 -1      1295    8    0    1
 -2       591       725       716      2976      2977      2946
 -1      1296    8    0    1
 -2       580       616       726      2642      2978      2979
 -1      1297    8    0    1
 -2       616       527       726      2659      2980      2978
 -1      1298    8    0    1
 -2       484       584       727      2652      2981      2982
 -1      1299    8    0    1
 -2       484       727       623      2982      2983      2672
 -1      1300    8    0    1
 -2       594       595       728      2574      2984      2985
 -1      1301    8    0    1
 -2       607       498       606      2705      2704      2603
 -1      1302    8    0    1
 -2       608       609       729      2650      2986      2987
 -1      1303    8    0    1
 -2       592       599       730      2583      2988      2989
 -1      1304    8    0    1
 -2       603       604       731      2656      2990      2991
 -1      1305    8    0    1
 -2       601       602       732      2590      2992      2993
 -1      1306    8    0    1
 -2       602       663       732      2793      2994      2992
 -1      1307    8    0    1
 -2       600       601       733      2655      2995      2996
 -1      1308    8    0    1
 -2       596       598       734      2653      2997      2998
 -1      1309    8    0    1
 -2       595       596       735      2651      2999      3000
 -1      1310    8    0    1
 -2       596       734       735      2998      3001      2999
 -1      1311    8    0    1
 -2       588       497       496      2968      2288      3002
 -1      1312    8    0    1
 -2       588       496       605      3002      3003      2598
 -1      1313    8    0    1
 -2       614       475       736      2623      3004      3005
 -1      1314    8    0    1
 -2       475       724       736      2974      3006      3004
 -1      1315    8    0    1
 -2       476       619       737      2663      3007      3008
 -1      1316    8    0    1
 -2       476       737       590      3008      3009      2562
 -1      1317    8    0    1
 -2       722       585       712      2965      2937      3010
 -1      1318    8    0    1
 -2       613       623       703      2673      3011      2911
 -1      1319    8    0    1
 -2       584       615       738      2638      3012      3013
 -1      1320    8    0    1
 -2       584       738       727      3013      3014      2981
 -1      1321    8    0    1
 -2       481       473       622      2674      2671      3015
 -1      1322    8    0    1
 -2       624       594       739      2675      3016      3017
 -1      1323    8    0    1
 -2       594       728       739      2985      3018      3016
 -1      1324    8    0    1
 -2       494       633       731      2701      3019      3020
 -1      1325    8    0    1
 -2       729       609       705      2986      2916      3021
 -1      1326    8    0    1
 -2       495       494       731      2282      3020      3022
 -1      1327    8    0    1
 -2       605       496       495      3003      2285      3023
 -1      1328    8    0    1
 -2       527       661       726      2788      3024      2980
 -1      1329    8    0    1
 -2       600       733       715      2996      3025      2944
 -1      1330    8    0    1
 -2       702       572       740      2910      3026      3027
 -1      1331    8    0    1
 -2       572       573       740      2514      3028      3026
 -1      1332    8    0    1
 -2       611       614       741      2935      3029      3030
 -1      1333    8    0    1
 -2       483       611       741      2613      3030      3031
 -1      1334    8    0    1
 -2       614       736       741      3005      3032      3029
 -1      1335    8    0    1
 -2       713       581       714      2938      2941      3033
 -1      1336    8    0    1
 -2       579       580       726      2536      2979      3034
 -1      1337    8    0    1
 -2       634       608       729      2942      2987      3035
 -1      1338    8    0    1
 -2       712       587       713      2936      2939      3036
 -1      1339    8    0    1
 -2       615       593       742      2639      3037      3038
 -1      1340    8    0    1
 -2       593       716       742      2947      3039      3037
 -1      1341    8    0    1
 -2       589       624       725      2676      3040      2975
 -1      1342    8    0    1
 -2       579       726       743      3034      3041      3042
 -1      1343    8    0    1
 -2       711       579       743      2932      3042      3043
 -1      1344    8    0    1
 -2       726       661       743      3024      3044      3041
 -1      1345    8    0    1
 -2       599       715       730      2945      3045      2988
 -1      1346    8    0    1
 -2       617       592       730      2648      2989      3046
 -1      1347    8    0    1
 -2       663       603       731      2792      2991      3047
 -1      1348    8    0    1
 -2       573       570       744      2515      3048      3049
 -1      1349    8    0    1
 -2       740       573       744      3028      3049      3050
 -1      1350    8    0    1
 -2       570       706       744      2918      3051      3048
 -1      1351    8    0    1
 -2       474       590       745      2561      3052      3053
 -1      1352    8    0    1
 -2       724       474       745      2973      3053      3054
 -1      1353    8    0    1
 -2       590       737       745      3009      3055      3052
 -1      1354    8    0    1
 -2       734       598       746      2997      3056      3057
 -1      1355    8    0    1
 -2       598       617       746      2647      3058      3056
 -1      1356    8    0    1
 -2       481       622       621      3015      3059      2667
 -1      1357    8    0    1
 -2       728       595       735      2984      3000      3060
 -1      1358    8    0    1
 -2       601       732       733      2993      3061      2995
 -1      1359    8    0    1
 -2       483       741       720      3031      3062      2958
 -1      1360    8    0    1
 -2       620       621       747      2669      3063      3064
 -1      1361    8    0    1
 -2       731       633       663      3019      3065      3047
 -1      1362    8    0    1
 -2       729       705       748      3021      3066      3067
 -1      1363    8    0    1
 -2       627       626       749      2684      3068      3069
 -1      1364    8    0    1
 -2       628       627       750      2687      3070      3071
 -1      1365    8    0    1
 -2       627       749       750      3069      3072      3070
 -1      1366    8    0    1
 -2       629       628       751      2690      3073      3074
 -1      1367    8    0    1
 -2       628       750       751      3071      3075      3073
 -1      1368    8    0    1
 -2       630       629       752      2693      3076      3077
 -1      1369    8    0    1
 -2       629       751       752      3074      3078      3076
 -1      1370    8    0    1
 -2       631       630       753      2696      3079      3080
 -1      1371    8    0    1
 -2       630       752       753      3077      3081      3079
 -1      1372    8    0    1
 -2       632       631       754      2699      3082      3083
 -1      1373    8    0    1
 -2       631       753       754      3080      3084      3082
 -1      1374    8    0    1
 -2       633       632       755      2702      3085      3086
 -1      1375    8    0    1
 -2       663       633       755      3065      3086      3087
 -1      1376    8    0    1
 -2       632       754       755      3083      3088      3085
 -1      1377    8    0    1
 -2       730       715       756      3045      3089      3090
 -1      1378    8    0    1
 -2       499       607       597      2706      2654      3091
 -1      1379    8    0    1
 -2       625       720       757      2960      3092      3093
 -1      1380    8    0    1
 -2       636       635       748      2714      3094      3095
 -1      1381    8    0    1
 -2       637       636       758      2717      3096      3097
 -1      1382    8    0    1
 -2       636       748       758      3095      3098      3096
 -1      1383    8    0    1
 -2       638       637       759      2720      3099      3100
 -1      1384    8    0    1
 -2       639       638       760      2723      3101      3102
 -1      1385    8    0    1
 -2       638       759       760      3100      3103      3101
 -1      1386    8    0    1
 -2       640       639       761      2726      3104      3105
 -1      1387    8    0    1
 -2       639       760       761      3102      3106      3104
 -1      1388    8    0    1
 -2       641       640       762      2729      3107      3108
 -1      1389    8    0    1
 -2       640       761       762      3105      3109      3107
 -1      1390    8    0    1
 -2       642       641       763      2732      3110      3111
 -1      1391    8    0    1
 -2       641       762       763      3108      3112      3110
 -1      1392    8    0    1
 -2       643       642       764      2735      3113      3114
 -1      1393    8    0    1
 -2       642       763       764      3111      3115      3113
 -1      1394    8    0    1
 -2       644       643       765      2738      3116      3117
 -1      1395    8    0    1
 -2       643       764       765      3114      3118      3116
 -1      1396    8    0    1
 -2       645       644       766      2741      3119      3120
 -1      1397    8    0    1
 -2       644       765       766      3117      3121      3119
 -1      1398    8    0    1
 -2       646       645       767      2744      3122      3123
 -1      1399    8    0    1
 -2       645       766       767      3120      3124      3122
 -1      1400    8    0    1
 -2       647       646       768      2747      3125      3126
 -1      1401    8    0    1
 -2       646       767       768      3123      3127      3125
 -1      1402    8    0    1
 -2       648       647       769      2750      3128      3129
 -1      1403    8    0    1
 -2       647       768       769      3126      3130      3128
 -1      1404    8    0    1
 -2       649       648       770      2753      3131      3132
 -1      1405    8    0    1
 -2       648       769       770      3129      3133      3131
 -1      1406    8    0    1
 -2       650       649       771      2756      3134      3135
 -1      1407    8    0    1
 -2       649       770       771      3132      3136      3134
 -1      1408    8    0    1
 -2       651       650       772      2759      3137      3138
 -1      1409    8    0    1
 -2       650       771       772      3135      3139      3137
 -1      1410    8    0    1
 -2       652       651       773      2762      3140      3141
 -1      1411    8    0    1
 -2       651       772       773      3138      3142      3140
 -1      1412    8    0    1
 -2       653       652       774      2765      3143      3144
 -1      1413    8    0    1
 -2       652       773       774      3141      3145      3143
 -1      1414    8    0    1
 -2       654       653       775      2768      3146      3147
 -1      1415    8    0    1
 -2       653       774       775      3144      3148      3146
 -1      1416    8    0    1
 -2       655       654       776      2771      3149      3150
 -1      1417    8    0    1
 -2       654       775       776      3147      3151      3149
 -1      1418    8    0    1
 -2       656       655       777      2774      3152      3153
 -1      1419    8    0    1
 -2       655       776       777      3150      3154      3152
 -1      1420    8    0    1
 -2       657       656       778      2777      3155      3156
 -1      1421    8    0    1
 -2       656       777       778      3153      3157      3155
 -1      1422    8    0    1
 -2       658       657       779      2780      3158      3159
 -1      1423    8    0    1
 -2       657       778       779      3156      3160      3158
 -1      1424    8    0    1
 -2       659       658       780      2783      3161      3162
 -1      1425    8    0    1
 -2       658       779       780      3159      3163      3161
 -1      1426    8    0    1
 -2       660       659       781      2786      3164      3165
 -1      1427    8    0    1
 -2       659       780       781      3162      3166      3164
 -1      1428    8    0    1
 -2       661       660       782      2789      3167      3168
 -1      1429    8    0    1
 -2       743       661       782      3044      3168      3169
 -1      1430    8    0    1
 -2       660       781       782      3165      3170      3167
 -1      1431    8    0    1
 -2       666       667       783      2804      3171      3172
 -1      1432    8    0    1
 -2       665       666       784      2801      3173      3174
 -1      1433    8    0    1
 -2       666       783       784      3172      3175      3173
 -1      1434    8    0    1
 -2       668       669       785      2810      3176      3177
 -1      1435    8    0    1
 -2       669       670       786      2813      3178      3179
 -1      1436    8    0    1
 -2       669       786       785      3179      3180      3176
 -1      1437    8    0    1
 -2       670       671       787      2816      3181      3182
 -1      1438    8    0    1
 -2       670       787       786      3182      3183      3178
 -1      1439    8    0    1
 -2       671       672       788      2819      3184      3185
 -1      1440    8    0    1
 -2       671       788       787      3185      3186      3181
 -1      1441    8    0    1
 -2       672       673       789      2822      3187      3188
 -1      1442    8    0    1
 -2       672       789       788      3188      3189      3184
 -1      1443    8    0    1
 -2       673       674       790      2825      3190      3191
 -1      1444    8    0    1
 -2       673       790       789      3191      3192      3187
 -1      1445    8    0    1
 -2       674       675       791      2828      3193      3194
 -1      1446    8    0    1
 -2       674       791       790      3194      3195      3190
 -1      1447    8    0    1
 -2       675       676       792      2831      3196      3197
 -1      1448    8    0    1
 -2       675       792       791      3197      3198      3193
 -1      1449    8    0    1
 -2       676       677       793      2834      3199      3200
 -1      1450    8    0    1
 -2       676       793       792      3200      3201      3196
 -1      1451    8    0    1
 -2       677       678       794      2837      3202      3203
 -1      1452    8    0    1
 -2       677       794       793      3203      3204      3199
 -1      1453    8    0    1
 -2       678       679       795      2840      3205      3206
 -1      1454    8    0    1
 -2       678       795       794      3206      3207      3202
 -1      1455    8    0    1
 -2       679       680       796      2843      3208      3209
 -1      1456    8    0    1
 -2       679       796       795      3209      3210      3205
 -1      1457    8    0    1
 -2       680       681       797      2846      3211      3212
 -1      1458    8    0    1
 -2       680       797       796      3212      3213      3208
 -1      1459    8    0    1
 -2       681       682       798      2849      3214      3215
 -1      1460    8    0    1
 -2       681       798       797      3215      3216      3211
 -1      1461    8    0    1
 -2       682       683       799      2852      3217      3218
 -1      1462    8    0    1
 -2       682       799       798      3218      3219      3214
 -1      1463    8    0    1
 -2       683       684       800      2855      3220      3221
 -1      1464    8    0    1
 -2       683       800       799      3221      3222      3217
 -1      1465    8    0    1
 -2       684       685       801      2858      3223      3224
 -1      1466    8    0    1
 -2       684       801       800      3224      3225      3220
 -1      1467    8    0    1
 -2       685       686       802      2861      3226      3227
 -1      1468    8    0    1
 -2       685       802       801      3227      3228      3223
 -1      1469    8    0    1
 -2       686       687       803      2864      3229      3230
 -1      1470    8    0    1
 -2       686       803       802      3230      3231      3226
 -1      1471    8    0    1
 -2       687       688       804      2867      3232      3233
 -1      1472    8    0    1
 -2       687       804       803      3233      3234      3229
 -1      1473    8    0    1
 -2       688       689       805      2870      3235      3236
 -1      1474    8    0    1
 -2       688       805       804      3236      3237      3232
 -1      1475    8    0    1
 -2       689       690       806      2873      3238      3239
 -1      1476    8    0    1
 -2       689       806       805      3239      3240      3235
 -1      1477    8    0    1
 -2       690       691       807      2876      3241      3242
 -1      1478    8    0    1
 -2       690       807       806      3242      3243      3238
 -1      1479    8    0    1
 -2       691       692       808      2879      3244      3245
 -1      1480    8    0    1
 -2       691       808       807      3245      3246      3241
 -1      1481    8    0    1
 -2       692       693       809      2882      3247      3248
 -1      1482    8    0    1
 -2       692       809       808      3248      3249      3244
 -1      1483    8    0    1
 -2       693       694       810      2885      3250      3251
 -1      1484    8    0    1
 -2       693       810       809      3251      3252      3247
 -1      1485    8    0    1
 -2       694       695       811      2888      3253      3254
 -1      1486    8    0    1
 -2       694       811       810      3254      3255      3250
 -1      1487    8    0    1
 -2       695       696       812      2891      3256      3257
 -1      1488    8    0    1
 -2       695       812       811      3257      3258      3253
 -1      1489    8    0    1
 -2       696       697       813      2894      3259      3260
 -1      1490    8    0    1
 -2       696       813       812      3260      3261      3256
 -1      1491    8    0    1
 -2       697       698       814      2897      3262      3263
 -1      1492    8    0    1
 -2       697       814       813      3263      3264      3259
 -1      1493    8    0    1
 -2       698       699       815      2900      3265      3266
 -1      1494    8    0    1
 -2       698       815       814      3266      3267      3262
 -1      1495    8    0    1
 -2       699       700       816      2903      3268      3269
 -1      1496    8    0    1
 -2       699       816       815      3269      3270      3265
 -1      1497    8    0    1
 -2       700       701       817      2906      3271      3272
 -1      1498    8    0    1
 -2       700       817       816      3272      3273      3268
 -1      1499    8    0    1
 -2       701       702       818      2909      3274      3275
 -1      1500    8    0    1
 -2       817       701       818      3271      3275      3276
 -1      1501    8    0    1
 -2       702       740       818      3027      3277      3274
 -1      1502    8    0    1
 -2       707       709       819      2928      3278      3279
 -1      1503    8    0    1
 -2       495       731       605      3022      3280      3023
 -1      1504    8    0    1
 -2       704       707       820      2921      3281      3282
 -1      1505    8    0    1
 -2       707       819       820      3279      3283      3281
 -1      1506    8    0    1
 -2       714       586       717      2940      2949      3284
 -1      1507    8    0    1
 -2       717       703       821      2950      3285      3286
 -1      1508    8    0    1
 -2       634       729       635      3035      3287      2711
 -1      1509    8    0    1
 -2       710       711       822      2934      3288      3289
 -1      1510    8    0    1
 -2       714       717       823      3284      3290      3291
 -1      1511    8    0    1
 -2       717       821       823      3286      3292      3290
 -1      1512    8    0    1
 -2       713       714       824      3033      3293      3294
 -1      1513    8    0    1
 -2       709       710       825      2931      3295      3296
 -1      1514    8    0    1
 -2       819       709       825      3278      3296      3297
 -1      1515    8    0    1
 -2       710       822       825      3289      3298      3295
 -1      1516    8    0    1
 -2       597       634       499      2943      2707      3091
 -1      1517    8    0    1
 -2       725       624       788      3040      3299      3300
 -1      1518    8    0    1
 -2       667       668       826      2807      3301      3302
 -1      1519    8    0    1
 -2       783       667       826      3171      3302      3303
 -1      1520    8    0    1
 -2       668       785       826      3177      3304      3301
 -1      1521    8    0    1
 -2       664       662       827      2796      3305      3306
 -1      1522    8    0    1
 -2       722       712       828      3010      3307      3308
 -1      1523    8    0    1
 -2       703       623       829      3011      3309      3310
 -1      1524    8    0    1
 -2       703       829       821      3310      3311      3285
 -1      1525    8    0    1
 -2       718       664       830      2953      3312      3313
 -1      1526    8    0    1
 -2       664       827       830      3306      3314      3312
 -1      1527    8    0    1
 -2       735       734       831      3001      3315      3316
 -1      1528    8    0    1
 -2       621       622       832      3059      3317      3318
 -1      1529    8    0    1
 -2       747       621       832      3063      3318      3319
 -1      1530    8    0    1
 -2       622       721       832      2963      3320      3317
 -1      1531    8    0    1
 -2       732       663       755      2994      3087      3321
 -1      1532    8    0    1
 -2       715       733       833      3025      3322      3323
 -1      1533    8    0    1
 -2       617       730       834      3046      3324      3325
 -1      1534    8    0    1
 -2       626       625       835      2681      3326      3327
 -1      1535    8    0    1
 -2       626       835       749      3327      3328      3068
 -1      1536    8    0    1
 -2       720       741       836      3062      3329      3330
 -1      1537    8    0    1
 -2       741       736       836      3032      3331      3329
 -1      1538    8    0    1
 -2       705       722       837      2967      3332      3333
 -1      1539    8    0    1
 -2       712       713       838      3036      3334      3335
 -1      1540    8    0    1
 -2       712       838       828      3335      3336      3307
 -1      1541    8    0    1
 -2       733       732       839      3061      3337      3338
 -1      1542    8    0    1
 -2       732       755       839      3321      3339      3337
 -1      1543    8    0    1
 -2       728       735       840      3060      3340      3341
 -1      1544    8    0    1
 -2       619       618       841      2664      3342      3343
 -1      1545    8    0    1
 -2       623       727       842      2983      3344      3345
 -1      1546    8    0    1
 -2       635       729       748      3287      3067      3094
 -1      1547    8    0    1
 -2       737       619       843      3007      3346      3347
 -1      1548    8    0    1
 -2       619       841       843      3343      3348      3346
 -1      1549    8    0    1
 -2       624       739       787      3017      3349      3350
 -1      1550    8    0    1
 -2       756       715       833      3089      3323      3351
 -1      1551    8    0    1
 -2       738       615       844      3012      3352      3353
 -1      1552    8    0    1
 -2       615       742       844      3038      3354      3352
 -1      1553    8    0    1
 -2       739       728       840      3018      3341      3355
 -1      1554    8    0    1
 -2       748       705       837      3066      3333      3356
 -1      1555    8    0    1
 -2       734       746       845      3057      3357      3358
 -1      1556    8    0    1
 -2       734       845       831      3358      3359      3315
 -1      1557    8    0    1
 -2       730       756       834      3090      3360      3324
 -1      1558    8    0    1
 -2       618       723       846      2971      3361      3362
 -1      1559    8    0    1
 -2       618       846       841      3362      3363      3342
 -1      1560    8    0    1
 -2       725       788       847      3300      3364      3365
 -1      1561    8    0    1
 -2       716       725       847      2977      3365      3366
 -1      1562    8    0    1
 -2       788       789       847      3189      3367      3364
 -1      1563    8    0    1
 -2       757       720       836      3092      3330      3368
 -1      1564    8    0    1
 -2       735       831       840      3316      3369      3340
 -1      1565    8    0    1
 -2       637       758       759      3097      3370      3099
 -1      1566    8    0    1
 -2       620       747       848      3064      3371      3372
 -1      1567    8    0    1
 -2       620       848       723      3372      3373      2972
 -1      1568    8    0    1
 -2       662       719       849      2956      3374      3375
 -1      1569    8    0    1
 -2       662       849       827      3375      3376      3305
 -1      1570    8    0    1
 -2       665       784       850      3174      3377      3378
 -1      1571    8    0    1
 -2       665       850       719      3378      3379      2957
 -1      1572    8    0    1
 -2       727       738       851      3014      3380      3381
 -1      1573    8    0    1
 -2       727       851       842      3381      3382      3344
 -1      1574    8    0    1
 -2       706       708       852      2924      3383      3384
 -1      1575    8    0    1
 -2       724       745       853      3054      3385      3386
 -1      1576    8    0    1
 -2       708       704       854      2925      3387      3388
 -1      1577    8    0    1
 -2       852       708       854      3383      3388      3389
 -1      1578    8    0    1
 -2       704       820       854      3282      3390      3387
 -1      1579    8    0    1
 -2       714       823       824      3291      3391      3293
 -1      1580    8    0    1
 -2       742       716       847      3039      3366      3392
 -1      1581    8    0    1
 -2       746       617       834      3058      3325      3393
 -1      1582    8    0    1
 -2       838       713       855      3334      3394      3395
 -1      1583    8    0    1
 -2       713       824       855      3294      3396      3394
 -1      1584    8    0    1
 -2       706       852       856      3384      3397      3398
 -1      1585    8    0    1
 -2       706       856       744      3398      3399      3051
 -1      1586    8    0    1
 -2       733       839       833      3338      3400      3322
 -1      1587    8    0    1
 -2       722       828       837      3308      3401      3332
 -1      1588    8    0    1
 -2       829       623       842      3309      3345      3402
 -1      1589    8    0    1
 -2       721       718       857      2964      3403      3404
 -1      1590    8    0    1
 -2       832       721       857      3320      3404      3405
 -1      1591    8    0    1
 -2       718       830       857      3313      3406      3403
 -1      1592    8    0    1
 -2       788       624       787      3299      3350      3186
 -1      1593    8    0    1
 -2       835       625       757      3326      3093      3407
 -1      1594    8    0    1
 -2       711       743       858      3043      3408      3409
 -1      1595    8    0    1
 -2       822       711       858      3288      3409      3410
 -1      1596    8    0    1
 -2       743       782       858      3169      3411      3408
 -1      1597    8    0    1
 -2       736       724       859      3006      3412      3413
 -1      1598    8    0    1
 -2       836       736       859      3331      3413      3414
 -1      1599    8    0    1
 -2       724       853       859      3386      3415      3412
 -1      1600    8    0    1
 -2       787       739       786      3349      3416      3183
 -1      1601    8    0    1
 -2       756       833       860      3351      3417      3418
 -1      1602    8    0    1
 -2       751       750       861      3075      3419      3420
 -1      1603    8    0    1
 -2       752       751       862      3078      3421      3422
 -1      1604    8    0    1
 -2       751       861       862      3420      3423      3421
 -1      1605    8    0    1
 -2       753       752       863      3081      3424      3425
 -1      1606    8    0    1
 -2       752       862       863      3422      3426      3424
 -1      1607    8    0    1
 -2       754       753       864      3084      3427      3428
 -1      1608    8    0    1
 -2       753       863       864      3425      3429      3427
 -1      1609    8    0    1
 -2       755       754       839      3088      3430      3339
 -1      1610    8    0    1
 -2       847       789       865      3367      3431      3432
 -1      1611    8    0    1
 -2       742       847       865      3392      3432      3433
 -1      1612    8    0    1
 -2       789       790       865      3192      3434      3431
 -1      1613    8    0    1
 -2       853       745       866      3385      3435      3436
 -1      1614    8    0    1
 -2       745       737       866      3055      3437      3435
 -1      1615    8    0    1
 -2       761       760       867      3106      3438      3439
 -1      1616    8    0    1
 -2       762       761       868      3109      3440      3441
 -1      1617    8    0    1
 -2       761       867       868      3439      3442      3440
 -1      1618    8    0    1
 -2       763       762       869      3112      3443      3444
 -1      1619    8    0    1
 -2       762       868       869      3441      3445      3443
 -1      1620    8    0    1
 -2       764       763       870      3115      3446      3447
 -1      1621    8    0    1
 -2       763       869       870      3444      3448      3446
 -1      1622    8    0    1
 -2       765       764       871      3118      3449      3450
 -1      1623    8    0    1
 -2       764       870       871      3447      3451      3449
 -1      1624    8    0    1
 -2       766       765       872      3121      3452      3453
 -1      1625    8    0    1
 -2       765       871       872      3450      3454      3452
 -1      1626    8    0    1
 -2       767       766       873      3124      3455      3456
 -1      1627    8    0    1
 -2       766       872       873      3453      3457      3455
 -1      1628    8    0    1
 -2       768       767       874      3127      3458      3459
 -1      1629    8    0    1
 -2       767       873       874      3456      3460      3458
 -1      1630    8    0    1
 -2       769       768       875      3130      3461      3462
 -1      1631    8    0    1
 -2       768       874       875      3459      3463      3461
 -1      1632    8    0    1
 -2       770       769       876      3133      3464      3465
 -1      1633    8    0    1
 -2       769       875       876      3462      3466      3464
 -1      1634    8    0    1
 -2       771       770       877      3136      3467      3468
 -1      1635    8    0    1
 -2       770       876       877      3465      3469      3467
 -1      1636    8    0    1
 -2       772       771       878      3139      3470      3471
 -1      1637    8    0    1
 -2       771       877       878      3468      3472      3470
 -1      1638    8    0    1
 -2       773       772       879      3142      3473      3474
 -1      1639    8    0    1
 -2       772       878       879      3471      3475      3473
 -1      1640    8    0    1
 -2       774       773       880      3145      3476      3477
 -1      1641    8    0    1
 -2       773       879       880      3474      3478      3476
 -1      1642    8    0    1
 -2       775       774       881      3148      3479      3480
 -1      1643    8    0    1
 -2       774       880       881      3477      3481      3479
 -1      1644    8    0    1
 -2       776       775       882      3151      3482      3483
 -1      1645    8    0    1
 -2       775       881       882      3480      3484      3482
 -1      1646    8    0    1
 -2       777       776       883      3154      3485      3486
 -1      1647    8    0    1
 -2       776       882       883      3483      3487      3485
 -1      1648    8    0    1
 -2       778       777       884      3157      3488      3489
 -1      1649    8    0    1
 -2       777       883       884      3486      3490      3488
 -1      1650    8    0    1
 -2       779       778       885      3160      3491      3492
 -1      1651    8    0    1
 -2       778       884       885      3489      3493      3491
 -1      1652    8    0    1
 -2       780       779       886      3163      3494      3495
 -1      1653    8    0    1
 -2       779       885       886      3492      3496      3494
 -1      1654    8    0    1
 -2       781       780       887      3166      3497      3498
 -1      1655    8    0    1
 -2       780       886       887      3495      3499      3497
 -1      1656    8    0    1
 -2       784       783       888      3175      3500      3501
 -1      1657    8    0    1
 -2       757       836       889      3368      3502      3503
 -1      1658    8    0    1
 -2       836       859       889      3414      3504      3502
 -1      1659    8    0    1
 -2       791       792       851      3198      3505      3506
 -1      1660    8    0    1
 -2       792       793       890      3201      3507      3508
 -1      1661    8    0    1
 -2       793       794       891      3204      3509      3510
 -1      1662    8    0    1
 -2       793       891       890      3510      3511      3507
 -1      1663    8    0    1
 -2       794       795       892      3207      3512      3513
 -1      1664    8    0    1
 -2       794       892       891      3513      3514      3509
 -1      1665    8    0    1
 -2       795       796       893      3210      3515      3516
 -1      1666    8    0    1
 -2       795       893       892      3516      3517      3512
 -1      1667    8    0    1
 -2       796       797       894      3213      3518      3519
 -1      1668    8    0    1
 -2       796       894       893      3519      3520      3515
 -1      1669    8    0    1
 -2       797       798       895      3216      3521      3522
 -1      1670    8    0    1
 -2       797       895       894      3522      3523      3518
 -1      1671    8    0    1
 -2       798       799       896      3219      3524      3525
 -1      1672    8    0    1
 -2       798       896       895      3525      3526      3521
 -1      1673    8    0    1
 -2       799       800       897      3222      3527      3528
 -1      1674    8    0    1
 -2       799       897       896      3528      3529      3524
 -1      1675    8    0    1
 -2       800       801       898      3225      3530      3531
 -1      1676    8    0    1
 -2       800       898       897      3531      3532      3527
 -1      1677    8    0    1
 -2       801       802       899      3228      3533      3534
 -1      1678    8    0    1
 -2       801       899       898      3534      3535      3530
 -1      1679    8    0    1
 -2       802       803       900      3231      3536      3537
 -1      1680    8    0    1
 -2       802       900       899      3537      3538      3533
 -1      1681    8    0    1
 -2       803       804       901      3234      3539      3540
 -1      1682    8    0    1
 -2       803       901       900      3540      3541      3536
 -1      1683    8    0    1
 -2       804       805       902      3237      3542      3543
 -1      1684    8    0    1
 -2       804       902       901      3543      3544      3539
 -1      1685    8    0    1
 -2       805       806       903      3240      3545      3546
 -1      1686    8    0    1
 -2       805       903       902      3546      3547      3542
 -1      1687    8    0    1
 -2       806       807       904      3243      3548      3549
 -1      1688    8    0    1
 -2       806       904       903      3549      3550      3545
 -1      1689    8    0    1
 -2       807       808       905      3246      3551      3552
 -1      1690    8    0    1
 -2       807       905       904      3552      3553      3548
 -1      1691    8    0    1
 -2       808       809       906      3249      3554      3555
 -1      1692    8    0    1
 -2       808       906       905      3555      3556      3551
 -1      1693    8    0    1
 -2       809       810       907      3252      3557      3558
 -1      1694    8    0    1
 -2       809       907       906      3558      3559      3554
 -1      1695    8    0    1
 -2       810       811       908      3255      3560      3561
 -1      1696    8    0    1
 -2       810       908       907      3561      3562      3557
 -1      1697    8    0    1
 -2       811       812       909      3258      3563      3564
 -1      1698    8    0    1
 -2       811       909       908      3564      3565      3560
 -1      1699    8    0    1
 -2       812       813       910      3261      3566      3567
 -1      1700    8    0    1
 -2       812       910       909      3567      3568      3563
 -1      1701    8    0    1
 -2       813       814       911      3264      3569      3570
 -1      1702    8    0    1
 -2       813       911       910      3570      3571      3566
 -1      1703    8    0    1
 -2       814       815       912      3267      3572      3573
 -1      1704    8    0    1
 -2       814       912       911      3573      3574      3569
 -1      1705    8    0    1
 -2       815       816       913      3270      3575      3576
 -1      1706    8    0    1
 -2       815       913       912      3576      3577      3572
 -1      1707    8    0    1
 -2       816       817       914      3273      3578      3579
 -1      1708    8    0    1
 -2       816       914       913      3579      3580      3575
 -1      1709    8    0    1
 -2       786       739       915      3416      3581      3582
 -1      1710    8    0    1
 -2       785       786       915      3180      3582      3583
 -1      1711    8    0    1
 -2       739       840       915      3355      3584      3581
 -1      1712    8    0    1
 -2       820       819       916      3283      3585      3586
 -1      1713    8    0    1
 -2       823       821       917      3292      3587      3588
 -1      1714    8    0    1
 -2       821       829       918      3311      3589      3590
 -1      1715    8    0    1
 -2       830       827       919      3314      3591      3592
 -1      1716    8    0    1
 -2       834       756       920      3360      3593      3594
 -1      1717    8    0    1
 -2       746       834       921      3393      3595      3596
 -1      1718    8    0    1
 -2       835       757       889      3407      3503      3597
 -1      1719    8    0    1
 -2       760       759       922      3103      3598      3599
 -1      1720    8    0    1
 -2       760       922       867      3599      3600      3438
 -1      1721    8    0    1
 -2       837       828       923      3401      3601      3602
 -1      1722    8    0    1
 -2       758       748       837      3098      3356      3603
 -1      1723    8    0    1
 -2       750       749       924      3072      3604      3605
 -1      1724    8    0    1
 -2       750       924       861      3605      3606      3419
 -1      1725    8    0    1
 -2       749       835       925      3328      3607      3608
 -1      1726    8    0    1
 -2       749       925       924      3608      3609      3604
 -1      1727    8    0    1
 -2       740       744       926      3050      3610      3611
 -1      1728    8    0    1
 -2       818       740       926      3277      3611      3612
 -1      1729    8    0    1
 -2       744       856       926      3399      3613      3610
 -1      1730    8    0    1
 -2       840       831       927      3369      3614      3615
 -1      1731    8    0    1
 -2       829       842       890      3402      3616      3617
 -1      1732    8    0    1
 -2       824       823       928      3391      3618      3619
 -1      1733    8    0    1
 -2       828       838       929      3336      3620      3621
 -1      1734    8    0    1
 -2       828       929       923      3621      3622      3601
 -1      1735    8    0    1
 -2       759       758       923      3370      3623      3624
 -1      1736    8    0    1
 -2       839       754       864      3430      3428      3625
 -1      1737    8    0    1
 -2       758       837       923      3603      3602      3623
 -1      1738    8    0    1
 -2       860       833       930      3417      3626      3627
 -1      1739    8    0    1
 -2       844       742       865      3354      3433      3628
 -1      1740    8    0    1
 -2       845       746       921      3357      3596      3629
 -1      1741    8    0    1
 -2       738       844       851      3353      3630      3380
 -1      1742    8    0    1
 -2       846       723       848      3361      3373      3631
 -1      1743    8    0    1
 -2       865       790       844      3434      3632      3628
 -1      1744    8    0    1
 -2       737       843       866      3347      3633      3437
 -1      1745    8    0    1
 -2       854       820       931      3390      3634      3635
 -1      1746    8    0    1
 -2       820       916       931      3586      3636      3634
 -1      1747    8    0    1
 -2       930       833       839      3626      3400      3637
 -1      1748    8    0    1
 -2       848       747       932      3371      3638      3639
 -1      1749    8    0    1
 -2       844       790       791      3632      3195      3640
 -1      1750    8    0    1
 -2       791       851       844      3506      3630      3640
 -1      1751    8    0    1
 -2       784       888       933      3501      3641      3642
 -1      1752    8    0    1
 -2       784       933       850      3642      3643      3377
 -1      1753    8    0    1
 -2       888       783       934      3500      3644      3645
 -1      1754    8    0    1
 -2       783       826       934      3303      3646      3644
 -1      1755    8    0    1
 -2       782       781       935      3170      3647      3648
 -1      1756    8    0    1
 -2       858       782       935      3411      3648      3649
 -1      1757    8    0    1
 -2       781       887       935      3498      3650      3647
 -1      1758    8    0    1
 -2       849       719       850      3374      3379      3651
 -1      1759    8    0    1
 -2       756       860       920      3418      3652      3593
 -1      1760    8    0    1
 -2       916       819       936      3585      3653      3654
 -1      1761    8    0    1
 -2       819       825       936      3297      3655      3653
 -1      1762    8    0    1
 -2       853       866       937      3436      3656      3657
 -1      1763    8    0    1
 -2       785       915       826      3583      3658      3304
 -1      1764    8    0    1
 -2       915       840       927      3584      3615      3659
 -1      1765    8    0    1
 -2       817       818       926      3276      3612      3660
 -1      1766    8    0    1
 -2       917       821       918      3587      3590      3661
 -1      1767    8    0    1
 -2       823       917       928      3588      3662      3618
 -1      1768    8    0    1
 -2       852       854       938      3389      3663      3664
 -1      1769    8    0    1
 -2       854       931       938      3635      3665      3663
 -1      1770    8    0    1
 -2       841       846       939      3363      3666      3667
 -1      1771    8    0    1
 -2       919       827       940      3591      3668      3669
 -1      1772    8    0    1
 -2       827       849       940      3376      3670      3668
 -1      1773    8    0    1
 -2       859       853       941      3415      3671      3672
 -1      1774    8    0    1
 -2       889       859       941      3504      3672      3673
 -1      1775    8    0    1
 -2       853       937       941      3657      3674      3671
 -1      1776    8    0    1
 -2       841       939       942      3667      3675      3676
 -1      1777    8    0    1
 -2       841       942       843      3676      3677      3348
 -1      1778    8    0    1
 -2       855       824       943      3396      3678      3679
 -1      1779    8    0    1
 -2       824       928       943      3619      3680      3678
 -1      1780    8    0    1
 -2       856       852       944      3397      3681      3682
 -1      1781    8    0    1
 -2       852       938       944      3664      3683      3681
 -1      1782    8    0    1
 -2       930       839       864      3637      3625      3684
 -1      1783    8    0    1
 -2       929       838       945      3620      3685      3686
 -1      1784    8    0    1
 -2       838       855       945      3395      3687      3685
 -1      1785    8    0    1
 -2       857       830       946      3406      3688      3689
 -1      1786    8    0    1
 -2       830       919       946      3592      3690      3688
 -1      1787    8    0    1
 -2       817       926       914      3660      3691      3578
 -1      1788    8    0    1
 -2       834       920       947      3594      3692      3693
 -1      1789    8    0    1
 -2       834       947       921      3693      3694      3595
 -1      1790    8    0    1
 -2       835       889       925      3597      3695      3607
 -1      1791    8    0    1
 -2       922       759       923      3598      3624      3696
 -1      1792    8    0    1
 -2       918       829       890      3589      3617      3697
 -1      1793    8    0    1
 -2       731       604       605      2990      2597      3280
 -1      1794    8    0    1
 -2       822       858       948      3410      3698      3699
 -1      1795    8    0    1
 -2       858       935       948      3649      3700      3698
 -1      1796    8    0    1
 -2       822       948       825      3699      3701      3298
 -1      1797    8    0    1
 -2       866       843       949      3633      3702      3703
 -1      1798    8    0    1
 -2       937       866       949      3656      3703      3704
 -1      1799    8    0    1
 -2       843       942       949      3677      3705      3702
 -1      1800    8    0    1
 -2       863       862       950      3426      3706      3707
 -1      1801    8    0    1
 -2       864       863       930      3429      3708      3684
 -1      1802    8    0    1
 -2       868       867       951      3442      3709      3710
 -1      1803    8    0    1
 -2       932       747       857      3638      3711      3712
 -1      1804    8    0    1
 -2       869       868       952      3445      3713      3714
 -1      1805    8    0    1
 -2       868       951       952      3710      3715      3713
 -1      1806    8    0    1
 -2       870       869       953      3448      3716      3717
 -1      1807    8    0    1
 -2       869       952       953      3714      3718      3716
 -1      1808    8    0    1
 -2       871       870       954      3451      3719      3720
 -1      1809    8    0    1
 -2       870       953       954      3717      3721      3719
 -1      1810    8    0    1
 -2       872       871       955      3454      3722      3723
 -1      1811    8    0    1
 -2       871       954       955      3720      3724      3722
 -1      1812    8    0    1
 -2       873       872       956      3457      3725      3726
 -1      1813    8    0    1
 -2       872       955       956      3723      3727      3725
 -1      1814    8    0    1
 -2       874       873       957      3460      3728      3729
 -1      1815    8    0    1
 -2       873       956       957      3726      3730      3728
 -1      1816    8    0    1
 -2       875       874       958      3463      3731      3732
 -1      1817    8    0    1
 -2       874       957       958      3729      3733      3731
 -1      1818    8    0    1
 -2       876       875       959      3466      3734      3735
 -1      1819    8    0    1
 -2       875       958       959      3732      3736      3734
 -1      1820    8    0    1
 -2       877       876       960      3469      3737      3738
 -1      1821    8    0    1
 -2       876       959       960      3735      3739      3737
 -1      1822    8    0    1
 -2       878       877       961      3472      3740      3741
 -1      1823    8    0    1
 -2       877       960       961      3738      3742      3740
 -1      1824    8    0    1
 -2       879       878       962      3475      3743      3744
 -1      1825    8    0    1
 -2       878       961       962      3741      3745      3743
 -1      1826    8    0    1
 -2       880       879       963      3478      3746      3747
 -1      1827    8    0    1
 -2       879       962       963      3744      3748      3746
 -1      1828    8    0    1
 -2       881       880       964      3481      3749      3750
 -1      1829    8    0    1
 -2       880       963       964      3747      3751      3749
 -1      1830    8    0    1
 -2       882       881       965      3484      3752      3753
 -1      1831    8    0    1
 -2       881       964       965      3750      3754      3752
 -1      1832    8    0    1
 -2       883       882       966      3487      3755      3756
 -1      1833    8    0    1
 -2       882       965       966      3753      3757      3755
 -1      1834    8    0    1
 -2       884       883       967      3490      3758      3759
 -1      1835    8    0    1
 -2       883       966       967      3756      3760      3758
 -1      1836    8    0    1
 -2       885       884       968      3493      3761      3762
 -1      1837    8    0    1
 -2       884       967       968      3759      3763      3761
 -1      1838    8    0    1
 -2       886       885       969      3496      3764      3765
 -1      1839    8    0    1
 -2       885       968       969      3762      3766      3764
 -1      1840    8    0    1
 -2       887       886       970      3499      3767      3768
 -1      1841    8    0    1
 -2       886       969       970      3765      3769      3767
 -1      1842    8    0    1
 -2       849       850       971      3651      3770      3771
 -1      1843    8    0    1
 -2       850       933       971      3643      3772      3770
 -1      1844    8    0    1
 -2       846       848       972      3631      3773      3774
 -1      1845    8    0    1
 -2       939       846       972      3666      3774      3775
 -1      1846    8    0    1
 -2       848       932       972      3639      3776      3773
 -1      1847    8    0    1
 -2       851       792       890      3505      3508      3777
 -1      1848    8    0    1
 -2       826       915       927      3658      3659      3778
 -1      1849    8    0    1
 -2       826       927       934      3778      3779      3646
 -1      1850    8    0    1
 -2       890       891       918      3511      3780      3697
 -1      1851    8    0    1
 -2       893       894       973      3520      3781      3782
 -1      1852    8    0    1
 -2       894       895       974      3523      3783      3784
 -1      1853    8    0    1
 -2       894       974       973      3784      3785      3781
 -1      1854    8    0    1
 -2       895       896       975      3526      3786      3787
 -1      1855    8    0    1
 -2       895       975       974      3787      3788      3783
 -1      1856    8    0    1
 -2       896       897       976      3529      3789      3790
 -1      1857    8    0    1
 -2       896       976       975      3790      3791      3786
 -1      1858    8    0    1
 -2       897       898       977      3532      3792      3793
 -1      1859    8    0    1
 -2       897       977       976      3793      3794      3789
 -1      1860    8    0    1
 -2       898       899       978      3535      3795      3796
 -1      1861    8    0    1
 -2       898       978       977      3796      3797      3792
 -1      1862    8    0    1
 -2       899       900       979      3538      3798      3799
 -1      1863    8    0    1
 -2       899       979       978      3799      3800      3795
 -1      1864    8    0    1
 -2       900       901       980      3541      3801      3802
 -1      1865    8    0    1
 -2       900       980       979      3802      3803      3798
 -1      1866    8    0    1
 -2       901       902       981      3544      3804      3805
 -1      1867    8    0    1
 -2       901       981       980      3805      3806      3801
 -1      1868    8    0    1
 -2       902       903       982      3547      3807      3808
 -1      1869    8    0    1
 -2       902       982       981      3808      3809      3804
 -1      1870    8    0    1
 -2       903       904       983      3550      3810      3811
 -1      1871    8    0    1
 -2       903       983       982      3811      3812      3807
 -1      1872    8    0    1
 -2       904       905       984      3553      3813      3814
 -1      1873    8    0    1
 -2       904       984       983      3814      3815      3810
 -1      1874    8    0    1
 -2       905       906       985      3556      3816      3817
 -1      1875    8    0    1
 -2       905       985       984      3817      3818      3813
 -1      1876    8    0    1
 -2       906       907       986      3559      3819      3820
 -1      1877    8    0    1
 -2       906       986       985      3820      3821      3816
 -1      1878    8    0    1
 -2       907       908       987      3562      3822      3823
 -1      1879    8    0    1
 -2       907       987       986      3823      3824      3819
 -1      1880    8    0    1
 -2       908       909       988      3565      3825      3826
 -1      1881    8    0    1
 -2       908       988       987      3826      3827      3822
 -1      1882    8    0    1
 -2       909       910       989      3568      3828      3829
 -1      1883    8    0    1
 -2       909       989       988      3829      3830      3825
 -1      1884    8    0    1
 -2       910       911       990      3571      3831      3832
 -1      1885    8    0    1
 -2       910       990       989      3832      3833      3828
 -1      1886    8    0    1
 -2       911       912       991      3574      3834      3835
 -1      1887    8    0    1
 -2       911       991       990      3835      3836      3831
 -1      1888    8    0    1
 -2       912       913       992      3577      3837      3838
 -1      1889    8    0    1
 -2       912       992       991      3838      3839      3834
 -1      1890    8    0    1
 -2       927       831       993      3614      3840      3841
 -1      1891    8    0    1
 -2       831       845       993      3359      3842      3840
 -1      1892    8    0    1
 -2       928       917       994      3662      3843      3844
 -1      1893    8    0    1
 -2       920       860       995      3652      3845      3846
 -1      1894    8    0    1
 -2       825       948       936      3701      3847      3655
 -1      1895    8    0    1
 -2       914       926       856      3691      3613      3848
 -1      1896    8    0    1
 -2       842       851       890      3382      3777      3616
 -1      1897    8    0    1
 -2       747       832       857      3319      3405      3711
 -1      1898    8    0    1
 -2       925       889       941      3695      3673      3849
 -1      1899    8    0    1
 -2       891       892       996      3514      3850      3851
 -1      1900    8    0    1
 -2       891       996       918      3851      3852      3780
 -1      1901    8    0    1
 -2       917       918       996      3661      3852      3853
 -1      1902    8    0    1
 -2       922       923       929      3696      3622      3854
 -1      1903    8    0    1
 -2       924       925       997      3609      3855      3856
 -1      1904    8    0    1
 -2       861       924       998      3606      3857      3858
 -1      1905    8    0    1
 -2       924       997       998      3856      3859      3857
 -1      1906    8    0    1
 -2       860       930       999      3627      3860      3861
 -1      1907    8    0    1
 -2       860       999       995      3861      3862      3845
 -1      1908    8    0    1
 -2       862       861      1000      3423      3863      3864
 -1      1909    8    0    1
 -2       950       862      1000      3706      3864      3865
 -1      1910    8    0    1
 -2       861       998      1000      3858      3866      3863
 -1      1911    8    0    1
 -2       845       921      1001      3629      3867      3868
 -1      1912    8    0    1
 -2       845      1001       993      3868      3869      3842
 -1      1913    8    0    1
 -2       892       893      1002      3517      3870      3871
 -1      1914    8    0    1
 -2       996       892      1002      3850      3871      3872
 -1      1915    8    0    1
 -2       893       973      1002      3782      3873      3870
 -1      1916    8    0    1
 -2       930       863       950      3708      3707      3874
 -1      1917    8    0    1
 -2       932       857       946      3712      3689      3875
 -1      1918    8    0    1
 -2       914       856       944      3848      3682      3876
 -1      1919    8    0    1
 -2       927       993       934      3841      3877      3779
 -1      1920    8    0    1
 -2       922       929      1003      3854      3878      3879
 -1      1921    8    0    1
 -2       867       922      1003      3600      3879      3880
 -1      1922    8    0    1
 -2       929       945      1003      3686      3881      3878
 -1      1923    8    0    1
 -2       925       941       997      3849      3882      3855
 -1      1924    8    0    1
 -2       951       867      1003      3709      3880      3883
 -1      1925    8    0    1
 -2       942       939      1004      3675      3884      3885
 -1      1926    8    0    1
 -2       931       916      1005      3636      3886      3887
 -1      1927    8    0    1
 -2       939       972      1006      3775      3888      3889
 -1      1928    8    0    1
 -2       939      1006      1004      3889      3890      3884
 -1      1929    8    0    1
 -2       917       996      1007      3853      3891      3892
 -1      1930    8    0    1
 -2       994       917      1007      3843      3892      3893
 -1      1931    8    0    1
 -2       996      1002      1007      3872      3894      3891
 -1      1932    8    0    1
 -2       935       887       948      3650      3895      3700
 -1      1933    8    0    1
 -2       972       932      1008      3776      3896      3897
 -1      1934    8    0    1
 -2      1006       972      1008      3888      3897      3898
 -1      1935    8    0    1
 -2       932       946      1008      3875      3899      3896
 -1      1936    8    0    1
 -2       888       934       993      3645      3877      3900
 -1      1937    8    0    1
 -2      1001       921       947      3867      3694      3901
 -1      1938    8    0    1
 -2       928       994      1009      3844      3902      3903
 -1      1939    8    0    1
 -2       928      1009       943      3903      3904      3680
 -1      1940    8    0    1
 -2       913       914      1010      3580      3905      3906
 -1      1941    8    0    1
 -2       916       936      1011      3654      3907      3908
 -1      1942    8    0    1
 -2       916      1011      1005      3908      3909      3886
 -1      1943    8    0    1
 -2       948       887       970      3895      3768      3910
 -1      1944    8    0    1
 -2       888       993      1012      3900      3911      3912
 -1      1945    8    0    1
 -2       948       970       936      3910      3913      3847
 -1      1946    8    0    1
 -2       888      1012       933      3912      3914      3641
 -1      1947    8    0    1
 -2      1012       993      1001      3911      3869      3915
 -1      1948    8    0    1
 -2       937       949      1013      3704      3916      3917
 -1      1949    8    0    1
 -2       940       849       971      3670      3771      3918
 -1      1950    8    0    1
 -2       938       931      1014      3665      3919      3920
 -1      1951    8    0    1
 -2       931      1005      1014      3887      3921      3919
 -1      1952    8    0    1
 -2       920       995      1015      3846      3922      3923
 -1      1953    8    0    1
 -2       920      1015       947      3923      3924      3692
 -1      1954    8    0    1
 -2       919       940      1016      3669      3925      3926
 -1      1955    8    0    1
 -2       941       937       997      3674      3927      3882
 -1      1956    8    0    1
 -2       913      1010       992      3906      3928      3837
 -1      1957    8    0    1
 -2       944       938      1017      3683      3929      3930
 -1      1958    8    0    1
 -2       938      1014      1017      3920      3931      3929
 -1      1959    8    0    1
 -2       945       855      1018      3687      3932      3933
 -1      1960    8    0    1
 -2       855       943      1018      3679      3934      3932
 -1      1961    8    0    1
 -2       946       919      1008      3690      3935      3899
 -1      1962    8    0    1
 -2       919      1016      1008      3926      3936      3935
 -1      1963    8    0    1
 -2       930       950       999      3874      3937      3860
 -1      1964    8    0    1
 -2       937      1013       997      3917      3938      3927
 -1      1965    8    0    1
 -2       953       952      1019      3718      3939      3940
 -1      1966    8    0    1
 -2       954       953      1020      3721      3941      3942
 -1      1967    8    0    1
 -2       953      1019      1020      3940      3943      3941
 -1      1968    8    0    1
 -2       955       954      1021      3724      3944      3945
 -1      1969    8    0    1
 -2       954      1020      1021      3942      3946      3944
 -1      1970    8    0    1
 -2       956       955      1022      3727      3947      3948
 -1      1971    8    0    1
 -2       955      1021      1022      3945      3949      3947
 -1      1972    8    0    1
 -2       957       956      1023      3730      3950      3951
 -1      1973    8    0    1
 -2       956      1022      1023      3948      3952      3950
 -1      1974    8    0    1
 -2       958       957      1024      3733      3953      3954
 -1      1975    8    0    1
 -2       957      1023      1024      3951      3955      3953
 -1      1976    8    0    1
 -2       959       958      1025      3736      3956      3957
 -1      1977    8    0    1
 -2       958      1024      1025      3954      3958      3956
 -1      1978    8    0    1
 -2       960       959      1026      3739      3959      3960
 -1      1979    8    0    1
 -2       959      1025      1026      3957      3961      3959
 -1      1980    8    0    1
 -2       961       960      1027      3742      3962      3963
 -1      1981    8    0    1
 -2       960      1026      1027      3960      3964      3962
 -1      1982    8    0    1
 -2       962       961      1028      3745      3965      3966
 -1      1983    8    0    1
 -2       961      1027      1028      3963      3967      3965
 -1      1984    8    0    1
 -2       963       962      1029      3748      3968      3969
 -1      1985    8    0    1
 -2       962      1028      1029      3966      3970      3968
 -1      1986    8    0    1
 -2       964       963      1030      3751      3971      3972
 -1      1987    8    0    1
 -2       963      1029      1030      3969      3973      3971
 -1      1988    8    0    1
 -2       965       964      1031      3754      3974      3975
 -1      1989    8    0    1
 -2       964      1030      1031      3972      3976      3974
 -1      1990    8    0    1
 -2       966       965      1032      3757      3977      3978
 -1      1991    8    0    1
 -2       965      1031      1032      3975      3979      3977
 -1      1992    8    0    1
 -2       967       966      1033      3760      3980      3981
 -1      1993    8    0    1
 -2       966      1032      1033      3978      3982      3980
 -1      1994    8    0    1
 -2       968       967      1034      3763      3983      3984
 -1      1995    8    0    1
 -2       967      1033      1034      3981      3985      3983
 -1      1996    8    0    1
 -2       969       968      1035      3766      3986      3987
 -1      1997    8    0    1
 -2       968      1034      1035      3984      3988      3986
 -1      1998    8    0    1
 -2       970       969      1036      3769      3989      3990
 -1      1999    8    0    1
 -2       969      1035      1036      3987      3991      3989
 -1      2000    8    0    1
 -2       971       933      1037      3772      3992      3993
 -1      2001    8    0    1
 -2       933      1012      1037      3914      3994      3992
 -1      2002    8    0    1
 -2      1008      1016      1006      3936      3995      3898
 -1      2003    8    0    1
 -2       975       976      1038      3791      3996      3997
 -1      2004    8    0    1
 -2       974       975      1039      3788      3998      3999
 -1      2005    8    0    1
 -2       975      1038      1039      3997      4000      3998
 -1      2006    8    0    1
 -2       973       974      1040      3785      4001      4002
 -1      2007    8    0    1
 -2       974      1039      1040      3999      4003      4001
 -1      2008    8    0    1
 -2       976       977      1041      3794      4004      4005
 -1      2009    8    0    1
 -2       976      1041      1038      4005      4006      3996
 -1      2010    8    0    1
 -2       977       978      1042      3797      4007      4008
 -1      2011    8    0    1
 -2       977      1042      1041      4008      4009      4004
 -1      2012    8    0    1
 -2       978       979      1043      3800      4010      4011
 -1      2013    8    0    1
 -2       978      1043      1042      4011      4012      4007
 -1      2014    8    0    1
 -2       979       980      1044      3803      4013      4014
 -1      2015    8    0    1
 -2       979      1044      1043      4014      4015      4010
 -1      2016    8    0    1
 -2       980       981      1045      3806      4016      4017
 -1      2017    8    0    1
 -2       980      1045      1044      4017      4018      4013
 -1      2018    8    0    1
 -2       981       982      1046      3809      4019      4020
 -1      2019    8    0    1
 -2       981      1046      1045      4020      4021      4016
 -1      2020    8    0    1
 -2       982       983      1047      3812      4022      4023
 -1      2021    8    0    1
 -2       982      1047      1046      4023      4024      4019
 -1      2022    8    0    1
 -2       983       984      1048      3815      4025      4026
 -1      2023    8    0    1
 -2       983      1048      1047      4026      4027      4022
 -1      2024    8    0    1
 -2       984       985      1049      3818      4028      4029
 -1      2025    8    0    1
 -2       984      1049      1048      4029      4030      4025
 -1      2026    8    0    1
 -2       985       986      1050      3821      4031      4032
 -1      2027    8    0    1
 -2       985      1050      1049      4032      4033      4028
 -1      2028    8    0    1
 -2       986       987      1051      3824      4034      4035
 -1      2029    8    0    1
 -2       986      1051      1050      4035      4036      4031
 -1      2030    8    0    1
 -2       987       988      1052      3827      4037      4038
 -1      2031    8    0    1
 -2       987      1052      1051      4038      4039      4034
 -1      2032    8    0    1
 -2       988       989      1053      3830      4040      4041
 -1      2033    8    0    1
 -2       988      1053      1052      4041      4042      4037
 -1      2034    8    0    1
 -2       989       990      1054      3833      4043      4044
 -1      2035    8    0    1
 -2       989      1054      1053      4044      4045      4040
 -1      2036    8    0    1
 -2       990       991      1055      3836      4046      4047
 -1      2037    8    0    1
 -2       990      1055      1054      4047      4048      4043
 -1      2038    8    0    1
 -2       991       992      1056      3839      4049      4050
 -1      2039    8    0    1
 -2       991      1056      1055      4050      4051      4046
 -1      2040    8    0    1
 -2      1003       945      1057      3881      4052      4053
 -1      2041    8    0    1
 -2       951      1003      1057      3883      4053      4054
 -1      2042    8    0    1
 -2       945      1018      1057      3933      4055      4052
 -1      2043    8    0    1
 -2      1010       914       944      3905      3876      4056
 -1      2044    8    0    1
 -2      1013       949      1058      3916      4057      4058
 -1      2045    8    0    1
 -2       949       942      1058      3705      4059      4057
 -1      2046    8    0    1
 -2       940       971      1059      3918      4060      4061
 -1      2047    8    0    1
 -2       940      1059      1016      4061      4062      3925
 -1      2048    8    0    1
 -2      1014      1005      1060      3921      4063      4064
 -1      2049    8    0    1
 -2       936       970      1011      3913      4065      3907
 -1      2050    8    0    1
 -2       942      1004      1058      3885      4066      4059
 -1      2051    8    0    1
 -2      1010       944      1017      4056      3930      4067
 -1      2052    8    0    1
 -2      1012      1001      1061      3915      4068      4069
 -1      2053    8    0    1
 -2      1037      1012      1061      3994      4069      4070
 -1      2054    8    0    1
 -2      1001       947      1061      3901      4071      4068
 -1      2055    8    0    1
 -2       998       997      1062      3859      4072      4073
 -1      2056    8    0    1
 -2       997      1013      1062      3938      4074      4072
 -1      2057    8    0    1
 -2       999       950      1063      3937      4075      4076
 -1      2058    8    0    1
 -2       952       951      1064      3715      4077      4078
 -1      2059    8    0    1
 -2       952      1064      1019      4078      4079      3939
 -1      2060    8    0    1
 -2       995       999      1063      3862      4076      4080
 -1      2061    8    0    1
 -2       992      1010      1017      3928      4067      4081
 -1      2062    8    0    1
 -2       994      1007      1065      3893      4082      4083
 -1      2063    8    0    1
 -2       994      1065      1009      4083      4084      3902
 -1      2064    8    0    1
 -2       947      1015      1061      3924      4085      4071
 -1      2065    8    0    1
 -2      1004      1006      1066      3890      4086      4087
 -1      2066    8    0    1
 -2      1006      1016      1066      3995      4088      4086
 -1      2067    8    0    1
 -2       970      1036      1011      3990      4089      4065
 -1      2068    8    0    1
 -2      1062      1013      1058      4074      4058      4090
 -1      2069    8    0    1
 -2      1058      1004      1067      4066      4091      4092
 -1      2070    8    0    1
 -2      1062      1058      1067      4090      4092      4093
 -1      2071    8    0    1
 -2      1004      1066      1067      4087      4094      4091
 -1      2072    8    0    1
 -2       950      1000      1063      3865      4095      4075
 -1      2073    8    0    1
 -2       951      1057      1064      4054      4096      4077
 -1      2074    8    0    1
 -2      1056       992      1017      4049      4081      4097
 -1      2075    8    0    1
 -2      1005      1011      1068      3909      4098      4099
 -1      2076    8    0    1
 -2      1005      1068      1060      4099      4100      4063
 -1      2077    8    0    1
 -2       943      1009      1069      3904      4101      4102
 -1      2078    8    0    1
 -2       943      1069      1018      4102      4103      3934
 -1      2079    8    0    1
 -2      1059       971      1037      4060      3993      4104
 -1      2080    8    0    1
 -2      1016      1059      1066      4062      4105      4088
 -1      2081    8    0    1
 -2      1015       995      1070      3922      4106      4107
 -1      2082    8    0    1
 -2       995      1063      1070      4080      4108      4106
 -1      2083    8    0    1
 -2      1017      1014      1056      3931      4109      4097
 -1      2084    8    0    1
 -2      1056      1014      1060      4109      4064      4110
 -1      2085    8    0    1
 -2       998      1062      1071      4073      4111      4112
 -1      2086    8    0    1
 -2       998      1071      1000      4112      4113      3866
 -1      2087    8    0    1
 -2       973      1040      1065      4002      4114      4115
 -1      2088    8    0    1
 -2      1021      1020      1072      3946      4116      4117
 -1      2089    8    0    1
 -2      1022      1021      1073      3949      4118      4119
 -1      2090    8    0    1
 -2      1021      1072      1073      4117      4120      4118
 -1      2091    8    0    1
 -2      1023      1022      1074      3952      4121      4122
 -1      2092    8    0    1
 -2      1022      1073      1074      4119      4123      4121
 -1      2093    8    0    1
 -2      1024      1023      1075      3955      4124      4125
 -1      2094    8    0    1
 -2      1023      1074      1075      4122      4126      4124
 -1      2095    8    0    1
 -2      1025      1024      1076      3958      4127      4128
 -1      2096    8    0    1
 -2      1024      1075      1076      4125      4129      4127
 -1      2097    8    0    1
 -2      1026      1025      1077      3961      4130      4131
 -1      2098    8    0    1
 -2      1025      1076      1077      4128      4132      4130
 -1      2099    8    0    1
 -2      1027      1026      1078      3964      4133      4134
 -1      2100    8    0    1
 -2      1026      1077      1078      4131      4135      4133
 -1      2101    8    0    1
 -2      1028      1027      1079      3967      4136      4137
 -1      2102    8    0    1
 -2      1027      1078      1079      4134      4138      4136
 -1      2103    8    0    1
 -2      1029      1028      1080      3970      4139      4140
 -1      2104    8    0    1
 -2      1028      1079      1080      4137      4141      4139
 -1      2105    8    0    1
 -2      1030      1029      1081      3973      4142      4143
 -1      2106    8    0    1
 -2      1029      1080      1081      4140      4144      4142
 -1      2107    8    0    1
 -2      1031      1030      1082      3976      4145      4146
 -1      2108    8    0    1
 -2      1030      1081      1082      4143      4147      4145
 -1      2109    8    0    1
 -2      1032      1031      1083      3979      4148      4149
 -1      2110    8    0    1
 -2      1031      1082      1083      4146      4150      4148
 -1      2111    8    0    1
 -2      1033      1032      1084      3982      4151      4152
 -1      2112    8    0    1
 -2      1032      1083      1084      4149      4153      4151
 -1      2113    8    0    1
 -2      1034      1033      1085      3985      4154      4155
 -1      2114    8    0    1
 -2      1033      1084      1085      4152      4156      4154
 -1      2115    8    0    1
 -2      1035      1034      1086      3988      4157      4158
 -1      2116    8    0    1
 -2      1034      1085      1086      4155      4159      4157
 -1      2117    8    0    1
 -2      1039      1038      1087      4000      4160      4161
 -1      2118    8    0    1
 -2      1041      1042      1088      4009      4162      4163
 -1      2119    8    0    1
 -2      1061      1015      1089      4085      4164      4165
 -1      2120    8    0    1
 -2      1038      1041      1090      4006      4166      4167
 -1      2121    8    0    1
 -2      1087      1038      1090      4160      4167      4168
 -1      2122    8    0    1
 -2      1041      1088      1090      4163      4169      4166
 -1      2123    8    0    1
 -2      1040      1039      1091      4003      4170      4171
 -1      2124    8    0    1
 -2      1039      1087      1091      4161      4172      4170
 -1      2125    8    0    1
 -2      1042      1043      1092      4012      4173      4174
 -1      2126    8    0    1
 -2      1042      1092      1088      4174      4175      4162
 -1      2127    8    0    1
 -2      1043      1044      1093      4015      4176      4177
 -1      2128    8    0    1
 -2      1043      1093      1092      4177      4178      4173
 -1      2129    8    0    1
 -2      1044      1045      1094      4018      4179      4180
 -1      2130    8    0    1
 -2      1044      1094      1093      4180      4181      4176
 -1      2131    8    0    1
 -2      1045      1046      1095      4021      4182      4183
 -1      2132    8    0    1
 -2      1045      1095      1094      4183      4184      4179
 -1      2133    8    0    1
 -2      1046      1047      1096      4024      4185      4186
 -1      2134    8    0    1
 -2      1046      1096      1095      4186      4187      4182
 -1      2135    8    0    1
 -2      1047      1048      1097      4027      4188      4189
 -1      2136    8    0    1
 -2      1047      1097      1096      4189      4190      4185
 -1      2137    8    0    1
 -2      1048      1049      1098      4030      4191      4192
 -1      2138    8    0    1
 -2      1048      1098      1097      4192      4193      4188
 -1      2139    8    0    1
 -2      1049      1050      1099      4033      4194      4195
 -1      2140    8    0    1
 -2      1049      1099      1098      4195      4196      4191
 -1      2141    8    0    1
 -2      1050      1051      1100      4036      4197      4198
 -1      2142    8    0    1
 -2      1050      1100      1099      4198      4199      4194
 -1      2143    8    0    1
 -2      1051      1052      1101      4039      4200      4201
 -1      2144    8    0    1
 -2      1051      1101      1100      4201      4202      4197
 -1      2145    8    0    1
 -2      1052      1053      1102      4042      4203      4204
 -1      2146    8    0    1
 -2      1052      1102      1101      4204      4205      4200
 -1      2147    8    0    1
 -2      1053      1054      1103      4045      4206      4207
 -1      2148    8    0    1
 -2      1053      1103      1102      4207      4208      4203
 -1      2149    8    0    1
 -2      1054      1055      1104      4048      4209      4210
 -1      2150    8    0    1
 -2      1054      1104      1103      4210      4211      4206
 -1      2151    8    0    1
 -2      1055      1056      1105      4051      4212      4213
 -1      2152    8    0    1
 -2      1104      1055      1105      4209      4213      4214
 -1      2153    8    0    1
 -2      1056      1060      1105      4110      4215      4212
 -1      2154    8    0    1
 -2      1057      1018      1106      4055      4216      4217
 -1      2155    8    0    1
 -2      1064      1057      1106      4096      4217      4218
 -1      2156    8    0    1
 -2      1018      1069      1106      4103      4219      4216
 -1      2157    8    0    1
 -2      1037      1061      1089      4070      4165      4220
 -1      2158    8    0    1
 -2      1009      1065      1107      4084      4221      4222
 -1      2159    8    0    1
 -2      1009      1107      1069      4222      4223      4101
 -1      2160    8    0    1
 -2      1066      1059      1108      4105      4224      4225
 -1      2161    8    0    1
 -2      1059      1037      1108      4104      4226      4224
 -1      2162    8    0    1
 -2      1011      1036      1068      4089      4227      4098
 -1      2163    8    0    1
 -2      1063      1000      1071      4095      4113      4228
 -1      2164    8    0    1
 -2      1020      1019      1109      3943      4229      4230
 -1      2165    8    0    1
 -2      1020      1109      1072      4230      4231      4116
 -1      2166    8    0    1
 -2      1019      1064      1110      4079      4232      4233
 -1      2167    8    0    1
 -2      1019      1110      1109      4233      4234      4229
 -1      2168    8    0    1
 -2      1065      1040      1107      4114      4235      4221
 -1      2169    8    0    1
 -2       973      1065      1002      4115      4236      3873
 -1      2170    8    0    1
 -2      1015      1070      1089      4107      4237      4164
 -1      2171    8    0    1
 -2      1036      1035      1111      3991      4238      4239
 -1      2172    8    0    1
 -2      1067      1066      1108      4094      4225      4240
 -1      2173    8    0    1
 -2      1040      1091      1107      4171      4241      4235
 -1      2174    8    0    1
 -2      1063      1071      1070      4228      4242      4108
 -1      2175    8    0    1
 -2      1068      1036      1111      4227      4239      4243
 -1      2176    8    0    1
 -2      1037      1089      1108      4220      4244      4226
 -1      2177    8    0    1
 -2      1064      1106      1110      4218      4245      4232
 -1      2178    8    0    1
 -2      1062      1067      1071      4093      4246      4111
 -1      2179    8    0    1
 -2      1060      1068      1112      4100      4247      4248
 -1      2180    8    0    1
 -2      1105      1060      1112      4215      4248      4249
 -1      2181    8    0    1
 -2      1068      1111      1112      4243      4250      4247
 -1      2182    8    0    1
 -2      1035      1086      1111      4158      4251      4238
 -1      2183    8    0    1
 -2      1088      1092      1113      4175      4252      4253
 -1      2184    8    0    1
 -2      1074      1073      1113      4123      4254      4255
 -1      2185    8    0    1
 -2      1075      1074      1114      4126      4256      4257
 -1      2186    8    0    1
 -2      1076      1075      1094      4129      4258      4259
 -1      2187    8    0    1
 -2      1077      1076      1095      4132      4260      4261
 -1      2188    8    0    1
 -2      1078      1077      1096      4135      4262      4263
 -1      2189    8    0    1
 -2      1079      1078      1097      4138      4264      4265
 -1      2190    8    0    1
 -2      1080      1079      1098      4141      4266      4267
 -1      2191    8    0    1
 -2      1081      1080      1099      4144      4268      4269
 -1      2192    8    0    1
 -2      1082      1081      1100      4147      4270      4271
 -1      2193    8    0    1
 -2      1083      1082      1101      4150      4272      4273
 -1      2194    8    0    1
 -2      1084      1083      1102      4153      4274      4275
 -1      2195    8    0    1
 -2      1085      1084      1103      4156      4276      4277
 -1      2196    8    0    1
 -2      1086      1085      1104      4159      4278      4279
 -1      2197    8    0    1
 -2      1091      1087      1115      4172      4280      4281
 -1      2198    8    0    1
 -2      1067      1108      1116      4240      4282      4283
 -1      2199    8    0    1
 -2      1099      1080      1098      4268      4267      4196
 -1      2200    8    0    1
 -2      1098      1079      1097      4266      4265      4193
 -1      2201    8    0    1
 -2      1069      1107      1117      4223      4284      4285
 -1      2202    8    0    1
 -2      1069      1117      1106      4285      4286      4219
 -1      2203    8    0    1
 -2      1094      1095      1076      4184      4260      4259
 -1      2204    8    0    1
 -2      1095      1096      1077      4187      4262      4261
 -1      2205    8    0    1
 -2      1096      1097      1078      4190      4264      4263
 -1      2206    8    0    1
 -2      1099      1100      1081      4199      4270      4269
 -1      2207    8    0    1
 -2      1100      1101      1082      4202      4272      4271
 -1      2208    8    0    1
 -2      1101      1102      1083      4205      4274      4273
 -1      2209    8    0    1
 -2      1102      1103      1084      4208      4276      4275
 -1      2210    8    0    1
 -2      1103      1104      1085      4211      4278      4277
 -1      2211    8    0    1
 -2      1104      1105      1086      4214      4287      4279
 -1      2212    8    0    1
 -2      1107      1091      1117      4241      4288      4284
 -1      2213    8    0    1
 -2      1108      1089      1116      4244      4289      4282
 -1      2214    8    0    1
 -2      1092      1093      1114      4178      4290      4291
 -1      2215    8    0    1
 -2      1073      1072      1118      4120      4292      4293
 -1      2216    8    0    1
 -2      1073      1118      1113      4293      4294      4254
 -1      2217    8    0    1
 -2      1072      1109      1090      4231      4295      4296
 -1      2218    8    0    1
 -2      1110      1106      1117      4245      4286      4297
 -1      2219    8    0    1
 -2      1109      1110      1115      4234      4298      4299
 -1      2220    8    0    1
 -2      1070      1071      1116      4242      4300      4301
 -1      2221    8    0    1
 -2      1071      1067      1116      4246      4283      4300
 -1      2222    8    0    1
 -2      1089      1070      1116      4237      4301      4289
 -1      2223    8    0    1
 -2      1088      1113      1118      4253      4294      4302
 -1      2224    8    0    1
 -2      1007      1002      1065      3894      4236      4082
 -1      2225    8    0    1
 -2      1074      1113      1114      4255      4303      4256
 -1      2226    8    0    1
 -2      1093      1094      1075      4181      4258      4304
 -1      2227    8    0    1
 -2      1092      1114      1113      4291      4303      4252
 -1      2228    8    0    1
 -2      1111      1086      1112      4251      4305      4250
 -1      2229    8    0    1
 -2      1110      1117      1115      4297      4306      4298
 -1      2230    8    0    1
 -2      1086      1105      1112      4287      4249      4305
 -1      2231    8    0    1
 -2      1117      1091      1115      4288      4281      4306
 -1      2232    8    0    1
 -2      1087      1090      1109      4168      4295      4307
 -1      2233    8    0    1
 -2      1109      1115      1087      4299      4280      4307
 -1      2234    8    0    1
 -2      1088      1118      1090      4302      4308      4169
 -1      2235    8    0    1
 -2      1093      1075      1114      4304      4257      4290
 -1      2236    8    0    1
 -2      1072      1090      1118      4296      4308      4292
 -3
    1PSTEP                         1           1           1          
  100CL  101 1.000000000        4308                     0    1           1
 -4  DISP        4    1
 -5  D1          1    2    1    0
 -5  D2          1    2    2    0
 -5  D3          1    2    3    0
 -5  ALL         1    2    0    0    1ALL
 -1         1 3.07416E-03-1.03658E-04-1.41137E-14
 -1         2 7.49021E-03-3.32981E-04-2.51593E-14
 -1         3 1.47849E-02-9.70327E-04-1.53812E-13
 -1         4 1.56358E-02-2.40111E-03-1.57322E-13
 -1         5 0.00000E+00 0.00000E+00 0.00000E+00
 -1         6 0.00000E+00 0.00000E+00 0.00000E+00
 -1         7 0.00000E+00 0.00000E+00 0.00000E+00
 -1         8 0.00000E+00 0.00000E+00 0.00000E+00
 -1         9 0.00000E+00 0.00000E+00 0.00000E+00
 -1        10 0.00000E+00 0.00000E+00 0.00000E+00
 -1        11 0.00000E+00 0.00000E+00 0.00000E+00
 -1        12 0.00000E+00 0.00000E+00 0.00000E+00
 -1        13 0.00000E+00 0.00000E+00 0.00000E+00
 -1        14 0.00000E+00 0.00000E+00 0.00000E+00
 -1        15 0.00000E+00 0.00000E+00 0.00000E+00
 -1        16 0.00000E+00 0.00000E+00 0.00000E+00
 -1        17 0.00000E+00 0.00000E+00 0.00000E+00
 -1        18 0.00000E+00 0.00000E+00 0.00000E+00
 -1        19 0.00000E+00 0.00000E+00 0.00000E+00
 -1        20 0.00000E+00 0.00000E+00 0.00000E+00
 -1        21 0.00000E+00 0.00000E+00 0.00000E+00
 -1        22 0.00000E+00 0.00000E+00 0.00000E+00
 -1        23 4.10185E-04-2.49959E-04 4.68545E-17
 -1        24 7.08161E-04-3.77114E-04-6.30667E-17
 -1        25 9.89946E-04-4.61662E-04-3.25071E-16
 -1        26 1.27157E-03-5.18927E-04-7.37129E-16
 -1        27 1.55858E-03-5.58894E-04-1.29913E-15
 -1        28 1.85465E-03-5.88297E-04-2.00833E-15
 -1        29 2.16274E-03-6.13044E-04-2.86193E-15
 -1        30 2.48541E-03-6.39218E-04-3.85744E-15
 -1        31 2.82461E-03-6.73705E-04-4.99407E-15
 -1        32 3.18095E-03-7.24456E-04-6.27214E-15
 -1        33 3.55231E-03-8.00004E-04-7.69162E-15
 -1        34 3.93208E-03-9.07553E-04-9.24912E-15
 -1        35 4.30776E-03-1.04884E-03-1.09546E-14
 -1        36 4.66226E-03-1.21408E-03-1.28174E-14
 -1        37 4.98021E-03-1.37741E-03-1.48400E-14
 -1        38 5.25859E-03-1.50073E-03-1.70328E-14
 -1        39 5.51391E-03-1.55003E-03-1.94014E-14
 -1        40 5.77629E-03-1.51589E-03-2.19521E-14
 -1        41 6.07203E-03-1.42001E-03-2.46749E-14
 -1        42 6.40956E-03-1.30102E-03-2.75521E-14
 -1        43 6.77957E-03-1.19366E-03-3.05770E-14
 -1        44 7.16494E-03-1.11741E-03-3.37410E-14
 -1        45 7.55018E-03-1.07704E-03-3.70375E-14
 -1        46 7.92547E-03-1.06858E-03-4.04581E-14
 -1        47 8.28646E-03-1.08477E-03-4.39995E-14
 -1        48 8.63251E-03-1.11836E-03-4.76463E-14
 -1        49 8.96497E-03-1.16340E-03-5.13813E-14
 -1        50 9.28594E-03-1.21546E-03-5.52137E-14
 -1        51 9.59765E-03-1.27149E-03-5.91389E-14
 -1        52 9.90212E-03-1.32946E-03-6.31618E-14
 -1        53 1.02011E-02-1.38806E-03-6.72658E-14
 -1        54 1.04959E-02-1.44653E-03-7.14437E-14
 -1        55 1.07877E-02-1.50442E-03-7.57009E-14
 -1        56 1.10772E-02-1.56151E-03-8.00324E-14
 -1        57 1.13653E-02-1.61773E-03-8.44334E-14
 -1        58 1.16522E-02-1.67310E-03-8.88958E-14
 -1        59 1.19385E-02-1.72769E-03-9.34300E-14
 -1        60 1.22242E-02-1.78157E-03-9.80114E-14
 -1        61 1.25097E-02-1.83485E-03-1.02652E-13
 -1        62 1.27951E-02-1.88763E-03-1.07366E-13
 -1        63 1.30804E-02-1.94000E-03-1.12159E-13
 -1        64 1.33657E-02-1.99205E-03-1.17013E-13
 -1        65 1.36510E-02-2.04384E-03-1.21949E-13
 -1        66 1.39364E-02-2.09544E-03-1.26949E-13
 -1        67 1.42218E-02-2.14690E-03-1.32005E-13
 -1        68 1.45074E-02-2.19828E-03-1.37084E-13
 -1        69 1.47930E-02-2.24962E-03-1.42171E-13
 -1        70 1.50786E-02-2.30095E-03-1.47271E-13
 -1        71 1.53643E-02-2.35230E-03-1.52409E-13
 -1        72 4.12755E-04 2.51858E-04 7.19402E-17
 -1        73 7.08042E-04 3.82588E-04 3.79810E-18
 -1        74 9.89471E-04 4.68261E-04-2.01607E-16
 -1        75 1.26931E-03 5.27988E-04-5.47692E-16
 -1        76 1.55272E-03 5.71095E-04-1.03558E-15
 -1        77 1.84236E-03 6.04113E-04-1.66692E-15
 -1        78 2.13964E-03 6.32355E-04-2.44096E-15
 -1        79 2.44497E-03 6.60549E-04-3.35675E-15
 -1        80 2.75763E-03 6.92966E-04-4.41640E-15
 -1        81 3.07556E-03 7.33159E-04-5.61991E-15
 -1        82 3.39511E-03 7.83286E-04-6.96888E-15
 -1        83 3.71107E-03 8.43053E-04-8.45795E-15
 -1        84 4.01737E-03 9.08555E-04-1.00947E-14
 -1        85 4.30863E-03 9.71619E-04-1.18837E-14
 -1        86 4.58233E-03 1.02051E-03-1.38267E-14
 -1        87 4.84078E-03 1.04266E-03-1.59318E-14
 -1        88 5.09138E-03 1.02872E-03-1.81933E-14
 -1        89 5.34454E-03 9.76320E-04-2.06151E-14
 -1        90 5.60993E-03 8.91014E-04-2.31952E-14
 -1        91 5.89320E-03 7.84102E-04-2.59372E-14
 -1        92 6.19477E-03 6.68523E-04-2.88408E-14
 -1        93 6.51096E-03 5.55187E-04-3.18926E-14
 -1        94 6.83609E-03 4.51105E-04-3.50916E-14
 -1        95 7.16452E-03 3.59350E-04-3.84258E-14
 -1        96 7.49184E-03 2.80049E-04-4.18863E-14
 -1        97 7.81519E-03 2.11611E-04-4.54657E-14
 -1        98 8.13310E-03 1.51744E-04-4.91597E-14
 -1        99 8.44519E-03 9.81037E-05-5.29591E-14
 -1       100 8.75172E-03 4.86320E-05-5.68604E-14
 -1       101 9.05333E-03 1.68738E-06-6.08597E-14
 -1       102 9.35080E-03-4.39517E-05-6.49501E-14
 -1       103 9.64492E-03-8.91387E-05-6.91318E-14
 -1       104 9.93642E-03-1.34432E-04-7.33866E-14
 -1       105 1.02259E-02-1.80166E-04-7.77169E-14
 -1       106 1.05140E-02-2.26516E-04-8.21388E-14
 -1       107 1.08010E-02-2.73545E-04-8.66478E-14
 -1       108 1.10873E-02-3.21250E-04-9.12280E-14
 -1       109 1.13732E-02-3.69579E-04-9.58765E-14
 -1       110 1.16587E-02-4.18464E-04-1.00586E-13
 -1       111 1.19441E-02-4.67823E-04-1.05334E-13
 -1       112 1.22294E-02-5.17576E-04-1.10109E-13
 -1       113 1.25147E-02-5.67647E-04-1.14899E-13
 -1       114 1.28001E-02-6.17966E-04-1.19722E-13
 -1       115 1.30855E-02-6.68472E-04-1.24573E-13
 -1       116 1.33709E-02-7.19111E-04-1.29431E-13
 -1       117 1.36565E-02-7.69836E-04-1.34302E-13
 -1       118 1.39421E-02-8.20604E-04-1.39217E-13
 -1       119 1.42277E-02-8.71379E-04-1.44157E-13
 -1       120 1.45135E-02-9.22134E-04-1.49113E-13
 -1       121 1.48348E-02-1.05461E-03-1.54041E-13
 -1       122 1.48846E-02-1.13891E-03-1.54274E-13
 -1       123 1.49344E-02-1.22324E-03-1.54495E-13
 -1       124 1.49843E-02-1.30763E-03-1.54710E-13
 -1       125 1.50341E-02-1.39207E-03-1.54939E-13
 -1       126 1.50832E-02-1.47511E-03-1.55202E-13
 -1       127 1.51332E-02-1.55963E-03-1.55505E-13
 -1       128 1.51834E-02-1.64416E-03-1.55793E-13
 -1       129 1.52336E-02-1.72870E-03-1.56067E-13
 -1       130 1.52839E-02-1.81324E-03-1.56322E-13
 -1       131 1.53342E-02-1.89775E-03-1.56548E-13
 -1       132 1.53839E-02-1.98080E-03-1.56756E-13
 -1       133 1.54344E-02-2.06524E-03-1.56928E-13
 -1       134 1.54850E-02-2.14962E-03-1.57065E-13
 -1       135 1.55355E-02-2.23396E-03-1.57180E-13
 -1       136 1.55861E-02-2.31826E-03-1.57255E-13
 -1       137 7.42182E-03-1.60502E-04-2.49965E-14
 -1       138 7.25634E-03 1.03082E-05-2.45542E-14
 -1       139 7.01896E-03 1.60564E-04-2.39009E-14
 -1       140 6.69634E-03 2.99952E-04-2.30097E-14
 -1       141 6.31029E-03 4.14872E-04-2.19648E-14
 -1       142 5.87508E-03 5.00372E-04-2.08127E-14
 -1       143 5.40819E-03 5.49459E-04-1.96115E-14
 -1       144 4.94965E-03 5.58922E-04-1.84654E-14
 -1       145 4.46649E-03 5.25816E-04-1.72928E-14
 -1       146 4.03040E-03 4.51837E-04-1.62711E-14
 -1       147 3.67586E-03 3.48762E-04-1.54590E-14
 -1       148 3.39355E-03 2.20373E-04-1.48233E-14
 -1       149 3.18007E-03 6.05819E-05-1.43467E-14
 -1       150 3.06159E-03-2.73789E-04-1.40819E-14
 -1       151 3.13692E-03-4.40299E-04-1.42389E-14
 -1       152 3.29802E-03-6.05951E-04-1.45809E-14
 -1       153 3.54319E-03-7.65356E-04-1.51074E-14
 -1       154 3.88400E-03-9.17699E-04-1.58547E-14
 -1       155 4.26146E-03-1.03567E-03-1.67008E-14
 -1       156 4.68113E-03-1.12255E-03-1.76624E-14
 -1       157 5.18287E-03-1.17656E-03-1.88568E-14
 -1       158 5.65629E-03-1.17954E-03-2.00147E-14
 -1       159 6.12202E-03-1.13584E-03-2.12059E-14
 -1       160 6.53048E-03-1.05448E-03-2.22929E-14
 -1       161 6.87649E-03-9.43774E-04-2.32527E-14
 -1       162 7.15335E-03-8.10119E-04-2.40608E-14
 -1       163 7.35249E-03-6.58808E-04-2.46777E-14
 -1       164 7.46722E-03-4.95431E-04-2.50564E-14
 -1       165 2.45018E-04-1.14505E-04-2.59294E-17
 -1       166 2.29316E-04-8.19203E-05-4.82673E-17
 -1       167 2.21710E-04-5.96015E-05-6.06272E-17
 -1       168 2.16607E-04-4.28343E-05-6.75187E-17
 -1       169 2.12937E-04-2.98367E-05-7.12219E-17
 -1       170 2.10337E-04-1.89805E-05-7.29058E-17
 -1       171 2.08859E-04-9.55595E-06-7.34039E-17
 -1       172 2.08498E-04-7.08033E-07-7.29329E-17
 -1       173 2.09217E-04 8.35192E-06-7.16319E-17
 -1       174 2.10939E-04 1.83614E-05-6.94025E-17
 -1       175 2.13541E-04 2.98244E-05-6.55705E-17
 -1       176 2.17130E-04 4.39090E-05-5.95735E-17
 -1       177 2.21971E-04 6.14892E-05-5.02392E-17
 -1       178 2.29272E-04 8.44574E-05-3.48740E-17
 -1       179 2.43636E-04 1.17691E-04-9.06664E-18
 -1       180 3.01282E-04 1.75894E-04 1.88956E-17
 -1       181 4.76714E-04-2.44342E-04-7.17945E-17
 -1       182 7.83751E-04-3.48817E-04-2.89340E-16
 -1       183 1.08028E-03-4.18268E-04-6.49678E-16
 -1       184 1.37493E-03-4.65085E-04-1.15490E-15
 -1       185 1.67233E-03-4.97239E-04-1.80424E-15
 -1       186 1.97578E-03-5.21063E-04-2.59621E-15
 -1       187 2.28781E-03-5.42568E-04-3.52845E-15
 -1       188 2.61031E-03-5.68317E-04-4.59974E-15
 -1       189 2.94445E-03-6.05986E-04-5.80927E-15
 -1       190 3.29023E-03-6.64450E-04-7.15739E-15
 -1       191 3.64576E-03-7.52825E-04-8.64326E-15
 -1       192 4.00645E-03-8.77532E-04-1.02692E-14
 -1       193 4.36466E-03-1.03664E-03-1.20459E-14
 -1       194 4.71106E-03-1.21271E-03-1.39787E-14
 -1       195 5.03897E-03-1.37006E-03-1.60773E-14
 -1       196 5.35035E-03-1.46505E-03-1.83510E-14
 -1       197 5.65742E-03-1.47004E-03-2.08050E-14
 -1       198 5.97572E-03-1.39285E-03-2.34364E-14
 -1       199 6.31365E-03-1.27120E-03-2.62347E-14
 -1       200 6.66905E-03-1.14815E-03-2.91812E-14
 -1       201 7.03348E-03-1.05260E-03-3.22725E-14
 -1       202 7.39802E-03-9.95264E-04-3.54964E-14
 -1       203 7.75632E-03-9.74355E-04-3.88471E-14
 -1       204 8.10503E-03-9.82577E-04-4.23188E-14
 -1       205 8.44310E-03-1.01171E-03-4.59019E-14
 -1       206 8.77094E-03-1.05473E-03-4.95836E-14
 -1       207 9.08968E-03-1.10632E-03-5.33595E-14
 -1       208 9.40073E-03-1.16277E-03-5.72323E-14
 -1       209 9.70551E-03-1.22162E-03-6.11996E-14
 -1       210 1.00053E-02-1.28131E-03-6.52570E-14
 -1       211 1.03012E-02-1.34088E-03-6.93935E-14
 -1       212 1.05941E-02-1.39981E-03-7.36056E-14
 -1       213 1.08848E-02-1.45784E-03-7.78965E-14
 -1       214 1.11738E-02-1.51488E-03-8.22561E-14
 -1       215 1.14617E-02-1.57093E-03-8.66837E-14
 -1       216 1.17487E-02-1.62608E-03-9.11841E-14
 -1       217 1.20350E-02-1.68042E-03-9.57403E-14
 -1       218 1.23211E-02-1.73407E-03-1.00353E-13
 -1       219 1.26068E-02-1.78713E-03-1.05031E-13
 -1       220 1.28924E-02-1.83971E-03-1.09782E-13
 -1       221 1.31779E-02-1.89192E-03-1.14595E-13
 -1       222 1.34634E-02-1.94382E-03-1.19476E-13
 -1       223 1.37490E-02-1.99550E-03-1.24424E-13
 -1       224 1.40345E-02-2.04701E-03-1.29436E-13
 -1       225 1.43200E-02-2.09841E-03-1.34488E-13
 -1       226 1.46057E-02-2.14975E-03-1.39564E-13
 -1       227 1.48913E-02-2.20107E-03-1.44656E-13
 -1       228 1.51770E-02-2.25240E-03-1.49775E-13
 -1       229 6.14394E-04 3.09197E-04-7.27601E-17
 -1       230 9.12909E-04 3.99116E-04-2.93629E-16
 -1       231 1.20470E-03 4.60833E-04-6.50416E-16
 -1       232 1.49574E-03 5.04455E-04-1.14509E-15
 -1       233 1.78941E-03 5.36975E-04-1.78015E-15
 -1       234 2.08760E-03 5.64001E-04-2.55656E-15
 -1       235 2.39116E-03 5.90510E-04-3.47423E-15
 -1       236 2.69997E-03 6.21059E-04-4.53163E-15
 -1       237 3.01290E-03 6.59577E-04-5.72981E-15
 -1       238 3.32770E-03 7.08710E-04-7.07144E-15
 -1       239 3.64109E-03 7.68722E-04-8.55498E-15
 -1       240 3.94919E-03 8.36182E-04-1.01846E-14
 -1       241 4.24843E-03 9.03046E-04-1.19646E-14
 -1       242 4.53693E-03 9.57104E-04-1.38974E-14
 -1       243 4.81575E-03 9.84637E-04-1.59882E-14
 -1       244 5.08924E-03 9.74919E-04-1.82379E-14
 -1       245 5.36383E-03 9.24518E-04-2.06480E-14
 -1       246 5.64573E-03 8.38821E-04-2.32175E-14
 -1       247 5.93869E-03 7.29764E-04-2.59460E-14
 -1       248 6.24318E-03 6.11293E-04-2.88360E-14
 -1       249 6.55696E-03 4.95201E-04-3.18784E-14
 -1       250 6.87644E-03 3.89030E-04-3.50654E-14
 -1       251 7.19791E-03 2.96019E-04-3.83814E-14
 -1       252 7.51835E-03 2.16221E-04-4.18262E-14
 -1       253 7.83571E-03 1.47867E-04-4.53947E-14
 -1       254 8.14890E-03 8.84626E-05-4.90751E-14
 -1       255 8.45753E-03 3.54908E-05-5.28608E-14
 -1       256 8.76172E-03-1.32342E-05-5.67466E-14
 -1       257 9.06189E-03-5.94407E-05-6.07317E-14
 -1       258 9.35861E-03-1.04402E-04-6.48115E-14
 -1       259 9.65246E-03-1.48996E-04-6.89801E-14
 -1       260 9.94402E-03-1.93792E-04-7.32267E-14
 -1       261 1.02338E-02-2.39120E-04-7.75528E-14
 -1       262 1.05222E-02-2.85147E-04-8.19641E-14
 -1       263 1.08096E-02-3.31927E-04-8.64580E-14
 -1       264 1.10963E-02-3.79443E-04-9.10213E-14
 -1       265 1.13825E-02-4.27634E-04-9.56485E-14
 -1       266 1.16684E-02-4.76419E-04-1.00335E-13
 -1       267 1.19540E-02-5.25709E-04-1.05069E-13
 -1       268 1.22396E-02-5.75417E-04-1.09839E-13
 -1       269 1.25251E-02-6.25460E-04-1.14631E-13
 -1       270 1.28106E-02-6.75765E-04-1.19450E-13
 -1       271 1.30961E-02-7.26266E-04-1.24294E-13
 -1       272 1.33816E-02-7.76907E-04-1.29151E-13
 -1       273 1.36672E-02-8.27638E-04-1.34024E-13
 -1       274 1.39528E-02-8.78416E-04-1.38933E-13
 -1       275 1.42385E-02-9.29202E-04-1.43870E-13
 -1       276 1.45242E-02-9.79966E-04-1.48821E-13
 -1       277 1.46123E-02-1.05283E-03-1.49864E-13
 -1       278 1.46621E-02-1.13715E-03-1.50090E-13
 -1       279 1.47119E-02-1.22150E-03-1.50318E-13
 -1       280 1.47617E-02-1.30588E-03-1.50553E-13
 -1       281 1.48108E-02-1.38886E-03-1.50798E-13
 -1       282 1.48607E-02-1.47330E-03-1.51054E-13
 -1       283 1.49108E-02-1.55776E-03-1.51313E-13
 -1       284 1.49610E-02-1.64222E-03-1.51564E-13
 -1       285 1.50112E-02-1.72669E-03-1.51799E-13
 -1       286 1.50616E-02-1.81114E-03-1.52017E-13
 -1       287 1.51111E-02-1.89415E-03-1.52212E-13
 -1       288 1.51617E-02-1.97856E-03-1.52387E-13
 -1       289 1.52122E-02-2.06294E-03-1.52533E-13
 -1       290 1.52628E-02-2.14729E-03-1.52648E-13
 -1       291 1.52199E-02-2.19985E-03-1.51216E-13
 -1       292 7.48895E-03-3.02593E-04-2.63753E-14
 -1       293 7.32855E-03-1.97332E-04-2.59884E-14
 -1       294 7.06411E-03-5.73715E-05-2.52280E-14
 -1       295 6.72036E-03 9.98779E-05-2.43376E-14
 -1       296 6.34156E-03 2.87957E-04-2.31026E-14
 -1       297 5.93136E-03 4.58267E-04-2.18320E-14
 -1       298 5.54954E-03 5.85763E-04-2.03869E-14
 -1       299 5.17571E-03 6.36480E-04-1.89940E-14
 -1       300 4.79663E-03 6.02245E-04-1.76218E-14
 -1       301 4.39138E-03 4.81921E-04-1.63734E-14
 -1       302 4.00861E-03 3.19938E-04-1.52987E-14
 -1       303 3.64035E-03 1.66512E-04-1.45628E-14
 -1       304 3.33368E-03 8.86928E-06-1.38643E-14
 -1       305 3.11465E-03-1.01090E-04-1.35659E-14
 -1       306 3.02927E-03-1.97466E-04-1.34195E-14
 -1       307 3.07329E-03-2.90235E-04-1.34857E-14
 -1       308 3.23623E-03-3.99247E-04-1.37551E-14
 -1       309 3.50238E-03-5.40241E-04-1.42298E-14
 -1       310 3.86023E-03-7.13408E-04-1.48958E-14
 -1       311 4.24168E-03-9.12119E-04-1.58268E-14
 -1       312 4.62259E-03-1.08373E-03-1.68543E-14
 -1       313 5.03068E-03-1.22100E-03-1.80629E-14
 -1       314 5.41398E-03-1.26354E-03-1.94794E-14
 -1       315 5.79040E-03-1.21595E-03-2.09120E-14
 -1       316 6.17674E-03-1.08678E-03-2.22818E-14
 -1       317 6.55591E-03-9.25499E-04-2.34917E-14
 -1       318 6.90317E-03-7.59036E-04-2.45735E-14
 -1       319 7.19974E-03-6.10247E-04-2.54415E-14
 -1       320 7.41332E-03-4.80989E-04-2.62051E-14
 -1       321 7.51358E-03-3.91042E-04-2.63319E-14
 -1       322 4.62008E-04-1.39444E-04-2.07906E-16
 -1       323 4.84360E-04-1.88657E-04-1.70813E-16
 -1       324 4.36653E-04-7.30092E-05-2.43820E-16
 -1       325 4.29043E-04-4.91618E-05-2.51244E-16
 -1       326 4.24196E-04-2.88408E-05-2.54682E-16
 -1       327 4.22073E-04-1.03568E-05-2.54672E-16
 -1       328 4.22604E-04 7.82681E-06-2.52141E-16
 -1       329 4.25636E-04 2.71333E-05-2.46720E-16
 -1       330 4.30871E-04 4.85194E-05-2.37827E-16
 -1       331 4.38426E-04 7.40834E-05-2.24254E-16
 -1       332 4.48557E-04 1.05124E-04-2.04321E-16
 -1       333 4.62636E-04 1.44033E-04-1.74496E-16
 -1       334 4.85333E-04 1.95188E-04-1.29643E-16
 -1       335 5.42535E-04 2.48047E-04-1.09071E-16
 -1       336 8.43379E-04 3.39390E-04-3.38295E-16
 -1       337 8.84966E-04-3.14687E-04-5.44154E-16
 -1       338 1.18251E-03-3.70043E-04-9.97534E-16
 -1       339 1.47970E-03-4.07384E-04-1.59140E-15
 -1       340 1.77882E-03-4.33054E-04-2.32479E-15
 -1       341 2.08191E-03-4.52864E-04-3.19679E-15
 -1       342 2.39082E-03-4.72848E-04-4.20496E-15
 -1       343 2.70727E-03-4.99895E-04-5.34887E-15
 -1       344 3.03296E-03-5.42180E-04-6.62876E-15
 -1       345 3.36954E-03-6.09097E-04-8.04426E-15
 -1       346 3.71800E-03-7.10014E-04-9.59555E-15
 -1       347 4.07733E-03-8.50690E-04-1.12879E-14
 -1       348 4.44217E-03-1.02604E-03-1.31315E-14
 -1       349 4.80267E-03-1.21047E-03-1.51329E-14
 -1       350 5.15021E-03-1.35597E-03-1.73073E-14
 -1       351 5.48732E-03-1.41170E-03-1.96635E-14
 -1       352 5.82790E-03-1.36251E-03-2.22037E-14
 -1       353 6.18234E-03-1.24246E-03-2.49199E-14
 -1       354 6.54772E-03-1.10580E-03-2.77943E-14
 -1       355 6.91370E-03-9.92671E-04-3.08127E-14
 -1       356 7.27199E-03-9.19529E-04-3.39671E-14
 -1       357 7.61927E-03-8.86377E-04-3.72477E-14
 -1       358 7.95557E-03-8.85979E-04-4.06524E-14
 -1       359 8.28218E-03-9.09560E-04-4.41702E-14
 -1       360 8.60063E-03-9.49370E-04-4.77947E-14
 -1       361 8.91229E-03-9.99426E-04-5.15171E-14
 -1       362 9.21833E-03-1.05546E-03-5.53355E-14
 -1       363 9.51977E-03-1.11457E-03-5.92530E-14
 -1       364 9.81748E-03-1.17490E-03-6.32580E-14
 -1       365 1.01122E-02-1.23530E-03-6.73484E-14
 -1       366 1.04046E-02-1.29511E-03-7.15164E-14
 -1       367 1.06951E-02-1.35398E-03-7.57656E-14
 -1       368 1.09842E-02-1.41179E-03-8.00884E-14
 -1       369 1.12722E-02-1.46852E-03-8.44776E-14
 -1       370 1.15595E-02-1.52425E-03-8.89390E-14
 -1       371 1.18462E-02-1.57906E-03-9.34689E-14
 -1       372 1.21325E-02-1.63310E-03-9.80562E-14
 -1       373 1.24185E-02-1.68647E-03-1.02702E-13
 -1       374 1.27044E-02-1.73930E-03-1.07412E-13
 -1       375 1.29901E-02-1.79169E-03-1.12185E-13
 -1       376 1.32757E-02-1.84373E-03-1.17024E-13
 -1       377 1.35614E-02-1.89550E-03-1.21926E-13
 -1       378 1.38470E-02-1.94708E-03-1.26890E-13
 -1       379 1.41326E-02-1.99852E-03-1.31907E-13
 -1       380 1.44183E-02-2.04988E-03-1.36955E-13
 -1       381 1.47039E-02-2.10119E-03-1.42034E-13
 -1       382 1.49619E-02-2.15051E-03-1.46612E-13
 -1       383 1.13974E-03 4.02960E-04-6.99263E-16
 -1       384 1.43434E-03 4.47593E-04-1.19559E-15
 -1       385 1.72990E-03 4.80222E-04-1.82992E-15
 -1       386 2.02830E-03 5.06553E-04-2.60350E-15
 -1       387 2.33067E-03 5.31686E-04-3.51673E-15
 -1       388 2.63743E-03 5.60351E-04-4.56802E-15
 -1       389 2.94825E-03 5.96755E-04-5.75771E-15
 -1       390 3.26197E-03 6.44003E-04-7.08911E-15
 -1       391 3.57647E-03 7.03032E-04-8.56179E-15
 -1       392 3.88884E-03 7.71196E-04-1.01780E-14
 -1       393 4.19588E-03 8.41039E-04-1.19450E-14
 -1       394 4.49522E-03 9.00265E-04-1.38622E-14
 -1       395 4.78672E-03 9.34066E-04-1.59365E-14
 -1       396 5.07332E-03 9.29953E-04-1.81701E-14
 -1       397 5.36019E-03 8.82969E-04-2.05653E-14
 -1       398 5.65256E-03 7.98029E-04-2.31188E-14
 -1       399 5.95342E-03 6.87713E-04-2.58336E-14
 -1       400 6.26275E-03 5.67052E-04-2.87088E-14
 -1       401 6.57828E-03 4.48746E-04-3.17373E-14
 -1       402 6.89687E-03 3.40824E-04-3.49076E-14
 -1       403 7.21565E-03 2.46663E-04-3.82087E-14
 -1       404 7.53247E-03 1.66267E-04-4.16367E-14
 -1       405 7.84602E-03 9.77421E-05-4.51897E-14
 -1       406 8.15568E-03 3.84658E-05-4.88549E-14
 -1       407 8.46134E-03-1.41907E-05-5.26270E-14
 -1       408 8.76321E-03-6.25007E-05-5.64983E-14
 -1       409 9.06167E-03-1.08256E-04-6.04708E-14
 -1       410 9.35721E-03-1.52772E-04-6.45372E-14
 -1       411 9.65032E-03-1.96954E-04-6.86926E-14
 -1       412 9.94145E-03-2.41384E-04-7.29276E-14
 -1       413 1.02310E-02-2.86399E-04-7.72441E-14
 -1       414 1.05194E-02-3.32167E-04-8.16448E-14
 -1       415 1.08069E-02-3.78736E-04-8.61266E-14
 -1       416 1.10937E-02-4.26085E-04-9.06760E-14
 -1       417 1.13801E-02-4.74146E-04-9.52843E-14
 -1       418 1.16661E-02-5.22833E-04-9.99530E-14
 -1       419 1.19519E-02-5.72050E-04-1.04676E-13
 -1       420 1.22376E-02-6.21706E-04-1.09439E-13
 -1       421 1.25232E-02-6.71713E-04-1.14230E-13
 -1       422 1.28088E-02-7.21994E-04-1.19043E-13
 -1       423 1.30944E-02-7.72482E-04-1.23882E-13
 -1       424 1.33800E-02-8.23118E-04-1.28738E-13
 -1       425 1.36656E-02-8.73849E-04-1.33613E-13
 -1       426 1.39512E-02-9.24632E-04-1.38515E-13
 -1       427 1.42369E-02-9.75427E-04-1.43448E-13
 -1       428 1.44246E-02-1.01414E-03-1.46655E-13
 -1       429 1.44894E-02-1.21969E-03-1.46151E-13
 -1       430 1.44395E-02-1.13534E-03-1.45914E-13
 -1       431 1.44321E-02-1.07474E-03-1.46282E-13
 -1       432 1.45384E-02-1.30262E-03-1.46388E-13
 -1       433 1.45883E-02-1.38701E-03-1.46625E-13
 -1       434 1.46383E-02-1.47140E-03-1.46857E-13
 -1       435 1.46884E-02-1.55580E-03-1.47082E-13
 -1       436 1.47386E-02-1.64021E-03-1.47303E-13
 -1       437 1.47889E-02-1.72462E-03-1.47512E-13
 -1       438 1.48384E-02-1.80758E-03-1.47702E-13
 -1       439 1.48889E-02-1.89197E-03-1.47871E-13
 -1       440 1.49395E-02-1.97633E-03-1.48017E-13
 -1       441 1.49901E-02-2.06067E-03-1.48143E-13
 -1       442 7.17710E-03-1.96870E-04-2.67296E-14
 -1       443 7.53674E-03-3.62441E-04-2.78318E-14
 -1       444 7.43153E-03-3.06940E-04-2.77712E-14
 -1       445 6.85620E-03-6.72129E-05-2.59963E-14
 -1       446 6.44544E-03 1.45524E-04-2.44948E-14
 -1       447 4.47186E-04-1.02211E-04-2.30234E-16
 -1       448 5.65888E-03 5.46438E-04-2.14322E-14
 -1       449 5.33558E-03 6.49377E-04-1.97518E-14
 -1       450 5.00656E-03 6.60688E-04-1.81905E-14
 -1       451 4.63190E-03 5.58098E-04-1.65073E-14
 -1       452 4.31880E-03 4.14621E-04-1.54390E-14
 -1       453 3.84995E-03 1.84159E-04-1.42142E-14
 -1       454 3.53267E-03 3.85215E-05-1.35339E-14
 -1       455 3.19366E-03-1.03706E-04-1.27590E-14
 -1       456 3.04203E-03-1.67402E-04-1.27189E-14
 -1       457 3.01700E-03-2.18873E-04-1.25797E-14
 -1       458 3.13882E-03-2.79169E-04-1.27177E-14
 -1       459 3.38648E-03-3.86631E-04-1.32193E-14
 -1       460 3.72198E-03-5.34203E-04-1.37460E-14
 -1       461 4.15081E-03-7.60834E-04-1.46871E-14
 -1       462 4.51248E-03-9.81924E-04-1.59185E-14
 -1       463 4.85661E-03-1.15814E-03-1.70672E-14
 -1       464 5.26916E-03-1.29260E-03-1.87926E-14
 -1       465 5.55323E-03-1.28982E-03-2.01965E-14
 -1       466 5.94755E-03-1.16535E-03-2.21359E-14
 -1       467 6.31710E-03-9.82580E-04-2.36271E-14
 -1       468 6.67252E-03-7.91536E-04-2.50730E-14
 -1       469 7.02310E-03-6.22516E-04-2.61376E-14
 -1       470 7.29442E-03-5.00499E-04-2.70487E-14
 -1       471 7.50317E-03-4.06759E-04-2.76971E-14
 -1       472 6.07836E-03 3.36861E-04-2.32211E-14
 -1       473 9.51351E-04 3.04213E-04-6.01861E-16
 -1       474 6.47190E-04-5.77645E-05-5.39038E-16
 -1       475 6.57831E-04-8.97213E-05-5.28891E-16
 -1       476 6.40062E-04-2.27972E-06-5.39912E-16
 -1       477 6.43289E-04 2.54426E-05-5.32160E-16
 -1       478 6.50473E-04 5.51518E-05-5.18682E-16
 -1       479 6.61565E-04 8.96151E-05-4.97937E-16
 -1       480 6.76503E-04 1.30152E-04-4.67921E-16
 -1       481 6.96165E-04 1.78820E-04-4.25634E-16
 -1       482 1.24619E-03 3.54495E-04-1.05586E-15
 -1       483 9.94826E-04-2.78366E-04-8.29737E-16
 -1       484 6.26916E-03 2.04716E-04-2.48720E-14
 -1       485 1.28775E-03-3.20561E-04-1.37046E-15
 -1       486 1.58134E-03-3.49398E-04-2.04820E-15
 -1       487 1.87610E-03-3.69697E-04-2.86265E-15
 -1       488 2.17309E-03-3.86610E-04-3.81063E-15
 -1       489 2.47378E-03-4.05863E-04-4.89174E-15
 -1       490 2.78038E-03-4.34179E-04-6.10614E-15
 -1       491 3.09620E-03-4.79702E-04-7.45266E-15
 -1       492 3.42591E-03-5.52203E-04-8.93315E-15
 -1       493 3.77473E-03-6.62421E-04-1.05468E-14
 -1       494 4.14521E-03-8.18591E-04-1.23010E-14
 -1       495 4.53059E-03-1.01538E-03-1.42061E-14
 -1       496 4.91612E-03-1.21462E-03-1.62758E-14
 -1       497 5.28779E-03-1.34250E-03-1.85290E-14
 -1       498 5.65422E-03-1.33779E-03-2.09741E-14
 -1       499 6.03290E-03-1.21866E-03-2.36067E-14
 -1       500 6.42084E-03-1.06117E-03-2.64106E-14
 -1       501 6.80298E-03-9.27923E-04-2.93633E-14
 -1       502 7.16600E-03-8.41349E-04-3.24496E-14
 -1       503 7.50804E-03-7.99619E-04-3.56625E-14
 -1       504 7.83327E-03-7.93243E-04-3.89996E-14
 -1       505 8.14683E-03-8.12399E-04-4.24502E-14
 -1       506 8.45275E-03-8.48992E-04-4.60140E-14
 -1       507 8.75363E-03-8.96887E-04-4.96825E-14
 -1       508 9.05103E-03-9.51648E-04-5.34488E-14
 -1       509 9.34588E-03-1.01019E-03-5.73127E-14
 -1       510 9.63876E-03-1.07044E-03-6.12696E-14
 -1       511 9.93005E-03-1.13108E-03-6.53099E-14
 -1       512 1.02201E-02-1.19132E-03-6.94350E-14
 -1       513 1.05090E-02-1.25072E-03-7.36400E-14
 -1       514 1.07971E-02-1.30906E-03-7.79232E-14
 -1       515 1.10846E-02-1.36631E-03-8.22774E-14
 -1       516 1.13716E-02-1.42250E-03-8.67002E-14
 -1       517 1.16581E-02-1.47773E-03-9.11930E-14
 -1       518 1.19444E-02-1.53212E-03-9.57500E-14
 -1       519 1.22305E-02-1.58578E-03-1.00371E-13
 -1       520 1.25164E-02-1.63884E-03-1.05047E-13
 -1       521 1.28023E-02-1.69141E-03-1.09780E-13
 -1       522 1.30880E-02-1.74359E-03-1.14579E-13
 -1       523 1.33737E-02-1.79547E-03-1.19439E-13
 -1       524 1.36594E-02-1.84713E-03-1.24357E-13
 -1       525 1.39451E-02-1.89862E-03-1.29331E-13
 -1       526 1.42308E-02-1.94999E-03-1.34352E-13
 -1       527 1.45165E-02-2.00131E-03-1.39410E-13
 -1       528 1.83814E-03 4.17458E-04-2.36747E-15
 -1       529 2.13741E-03 4.40500E-04-3.22790E-15
 -1       530 2.44035E-03 4.64424E-04-4.22441E-15
 -1       531 2.74780E-03 4.93845E-04-5.35652E-15
 -1       532 3.06014E-03 5.32884E-04-6.62738E-15
 -1       533 3.37705E-03 5.84428E-04-8.03687E-15
 -1       534 3.69699E-03 6.48824E-04-9.58630E-15
 -1       535 4.01702E-03 7.22058E-04-1.12806E-14
 -1       536 4.33322E-03 7.94174E-04-1.31241E-14
 -1       537 4.64240E-03 8.49428E-04-1.51208E-14
 -1       538 4.94457E-03 8.70234E-04-1.72760E-14
 -1       539 5.24385E-03 8.44698E-04-1.95942E-14
 -1       540 5.54632E-03 7.72723E-04-2.20731E-14
 -1       541 5.85617E-03 6.66284E-04-2.47150E-14
 -1       542 6.17345E-03 5.43062E-04-2.75168E-14
 -1       543 6.49508E-03 4.19104E-04-3.04743E-14
 -1       544 6.81715E-03 3.04882E-04-3.35785E-14
 -1       545 7.13668E-03 2.05074E-04-3.68168E-14
 -1       546 7.45207E-03 1.20169E-04-4.01812E-14
 -1       547 7.76285E-03 4.83400E-05-4.36707E-14
 -1       548 8.06918E-03-1.31537E-05-4.72783E-14
 -1       549 8.37154E-03-6.71285E-05-5.09959E-14
 -1       550 8.67048E-03-1.16062E-04-5.48141E-14
 -1       551 8.96656E-03-1.61936E-04-5.87340E-14
 -1       552 9.26027E-03-2.06233E-04-6.27534E-14
 -1       553 9.55207E-03-2.49991E-04-6.68604E-14
 -1       554 9.84234E-03-2.93892E-04-7.10524E-14
 -1       555 1.01314E-02-3.38345E-04-7.53245E-14
 -1       556 1.04195E-02-3.83563E-04-7.96831E-14
 -1       557 1.07069E-02-4.29627E-04-8.41206E-14
 -1       558 1.09937E-02-4.76528E-04-8.86312E-14
 -1       559 1.12802E-02-5.24207E-04-9.31981E-14
 -1       560 1.15664E-02-5.72575E-04-9.78240E-14
 -1       561 1.18523E-02-6.21534E-04-1.02513E-13
 -1       562 1.21381E-02-6.70984E-04-1.07253E-13
 -1       563 1.24239E-02-7.20833E-04-1.12026E-13
 -1       564 1.27096E-02-7.70996E-04-1.16824E-13
 -1       565 1.29952E-02-8.21400E-04-1.21653E-13
 -1       566 1.32809E-02-8.71980E-04-1.26502E-13
 -1       567 1.35666E-02-9.22682E-04-1.31370E-13
 -1       568 1.38522E-02-9.73456E-04-1.36258E-13
 -1       569 1.41379E-02-1.02426E-03-1.41179E-13
 -1       570 1.43159E-02-1.30074E-03-1.42211E-13
 -1       571 1.43658E-02-1.38509E-03-1.42426E-13
 -1       572 1.42170E-02-1.13350E-03-1.41750E-13
 -1       573 1.42664E-02-1.21711E-03-1.41984E-13
 -1       574 1.44159E-02-1.46944E-03-1.42634E-13
 -1       575 1.44660E-02-1.55380E-03-1.42837E-13
 -1       576 1.45163E-02-1.63815E-03-1.43034E-13
 -1       577 1.45658E-02-1.72108E-03-1.43214E-13
 -1       578 1.46162E-02-1.80542E-03-1.43379E-13
 -1       579 1.46667E-02-1.88977E-03-1.43530E-13
 -1       580 1.47173E-02-1.97410E-03-1.43659E-13
 -1       581 7.54268E-03-3.60611E-04-2.95434E-14
 -1       582 7.05580E-03-1.86196E-04-2.77464E-14
 -1       583 1.54147E-03 3.90471E-04-1.64359E-15
 -1       584 5.86593E-03 4.35179E-04-2.29969E-14
 -1       585 7.44608E-03-4.40526E-04-2.89571E-14
 -1       586 7.33799E-03-2.92578E-04-2.88091E-14
 -1       587 7.56897E-03-3.84923E-04-2.94099E-14
 -1       588 5.05931E-03-1.24768E-03-1.75260E-14
 -1       589 4.84739E-03 6.50225E-04-1.71626E-14
 -1       590 6.41290E-04-2.93420E-05-5.42521E-16
 -1       591 5.17093E-03 6.84315E-04-1.89782E-14
 -1       592 3.04758E-03-1.47727E-04-1.17733E-14
 -1       593 5.44852E-03 6.30394E-04-2.06134E-14
 -1       594 4.44491E-03 4.91240E-04-1.52400E-14
 -1       595 4.06887E-03 2.91326E-04-1.40407E-14
 -1       596 3.67568E-03 9.39721E-05-1.31227E-14
 -1       597 6.15804E-03-1.06925E-03-2.36587E-14
 -1       598 3.34707E-03-4.17903E-05-1.23021E-14
 -1       599 2.97442E-03-1.83158E-04-1.16397E-14
 -1       600 3.02552E-03-2.19772E-04-1.16916E-14
 -1       601 3.24498E-03-2.95786E-04-1.19912E-14
 -1       602 3.50550E-03-4.00429E-04-1.24745E-14
 -1       603 3.92108E-03-6.03929E-04-1.32562E-14
 -1       604 4.42498E-03-8.99706E-04-1.48521E-14
 -1       605 4.75344E-03-1.09661E-03-1.61490E-14
 -1       606 5.44491E-03-1.32960E-03-1.96441E-14
 -1       607 5.75997E-03-1.26514E-03-2.15568E-14
 -1       608 6.46598E-03-8.96803E-04-2.51095E-14
 -1       609 6.88284E-03-6.77083E-04-2.69115E-14
 -1       610 7.17396E-03-5.43234E-04-2.78474E-14
 -1       611 7.24345E-04-2.13909E-04-4.66573E-16
 -1       612 7.18441E-04 2.58707E-04-3.21239E-16
 -1       613 6.63948E-03 3.85054E-06-2.63900E-14
 -1       614 6.73224E-04-1.27366E-04-5.10669E-16
 -1       615 5.66164E-03 5.48374E-04-2.21319E-14
 -1       616 1.47106E-02-2.03765E-03-1.42850E-13
 -1       617 3.13775E-03-9.41572E-05-1.13255E-14
 -1       618 8.71480E-04 5.08688E-05-9.06332E-16
 -1       619 8.63420E-04 1.36660E-05-9.23161E-16
 -1       620 9.04044E-04 1.39040E-04-8.41788E-16
 -1       621 9.28255E-04 1.93906E-04-7.88872E-16
 -1       622 1.06415E-03 2.65967E-04-9.01284E-16
 -1       623 6.49041E-03 9.30759E-05-2.69054E-14
 -1       624 4.63354E-03 6.17904E-04-1.57597E-14
 -1       625 1.39110E-03-2.71523E-04-1.76962E-15
 -1       626 1.67750E-03-2.93259E-04-2.52747E-15
 -1       627 1.96381E-03-3.09282E-04-3.41718E-15
 -1       628 2.25045E-03-3.23946E-04-4.43805E-15
 -1       629 2.53878E-03-3.42227E-04-5.58879E-15
 -1       630 2.83166E-03-3.70062E-04-6.87077E-15
 -1       631 3.13434E-03-4.15106E-04-8.28215E-15
 -1       632 3.45508E-03-4.87986E-04-9.82263E-15
 -1       633 3.80457E-03-6.04074E-04-1.14944E-14
 -1       634 6.29467E-03-1.03879E-03-2.50181E-14
 -1       635 6.69870E-03-8.75393E-04-2.79092E-14
 -1       636 7.07133E-03-7.72725E-04-3.09358E-14
 -1       637 7.41110E-03-7.24422E-04-3.40846E-14
 -1       638 7.72702E-03-7.14580E-04-3.73542E-14
 -1       639 8.02810E-03-7.30902E-04-4.07418E-14
 -1       640 8.32131E-03-7.64757E-04-4.42424E-14
 -1       641 8.61072E-03-8.10206E-04-4.78547E-14
 -1       642 8.89848E-03-8.63018E-04-5.15672E-14
 -1       643 9.18558E-03-9.20178E-04-5.53782E-14
 -1       644 9.47246E-03-9.79576E-04-5.92851E-14
 -1       645 9.75922E-03-1.03979E-03-6.32808E-14
 -1       646 1.00459E-02-1.09991E-03-6.73598E-14
 -1       647 1.03325E-02-1.15939E-03-7.15202E-14
 -1       648 1.06189E-02-1.21795E-03-7.57628E-14
 -1       649 1.09052E-02-1.27547E-03-8.00833E-14
 -1       650 1.11914E-02-1.33195E-03-8.44696E-14
 -1       651 1.14775E-02-1.38747E-03-8.89240E-14
 -1       652 1.17635E-02-1.44211E-03-9.34468E-14
 -1       653 1.20495E-02-1.49600E-03-9.80370E-14
 -1       654 1.23353E-02-1.54926E-03-1.02683E-13
 -1       655 1.26211E-02-1.60199E-03-1.07384E-13
 -1       656 1.29069E-02-1.65431E-03-1.12149E-13
 -1       657 1.31927E-02-1.70629E-03-1.16971E-13
 -1       658 1.34784E-02-1.75802E-03-1.21847E-13
 -1       659 1.37641E-02-1.80956E-03-1.26781E-13
 -1       660 1.40498E-02-1.86096E-03-1.31769E-13
 -1       661 1.43356E-02-1.91229E-03-1.36801E-13
 -1       662 2.24190E-03 3.72733E-04-3.87390E-15
 -1       663 3.62211E-03-4.66622E-04-1.18082E-14
 -1       664 1.94365E-03 3.53221E-04-2.93015E-15
 -1       665 2.85350E-03 4.24064E-04-6.16226E-15
 -1       666 3.16973E-03 4.64738E-04-7.51084E-15
 -1       667 3.49378E-03 5.20131E-04-8.99515E-15
 -1       668 3.82407E-03 5.90769E-04-1.06194E-14
 -1       669 4.15634E-03 6.71486E-04-1.23875E-14
 -1       670 4.48429E-03 7.48703E-04-1.43072E-14
 -1       671 4.80321E-03 8.00268E-04-1.63835E-14
 -1       672 5.11468E-03 8.03726E-04-1.86204E-14
 -1       673 5.42612E-03 7.49310E-04-2.10244E-14
 -1       674 5.74515E-03 6.46638E-04-2.35935E-14
 -1       675 6.07326E-03 5.18289E-04-2.63250E-14
 -1       676 6.40588E-03 3.86456E-04-2.92138E-14
 -1       677 6.73681E-03 2.65297E-04-3.22522E-14
 -1       678 7.06167E-03 1.60565E-04-3.54283E-14
 -1       679 7.37879E-03 7.24714E-05-3.87323E-14
 -1       680 7.68851E-03-1.37242E-06-4.21588E-14
 -1       681 7.99204E-03-6.41339E-05-4.57095E-14
 -1       682 8.29078E-03-1.18875E-04-4.93719E-14
 -1       683 8.58596E-03-1.68211E-04-5.31372E-14
 -1       684 8.87854E-03-2.14214E-04-5.70032E-14
 -1       685 9.16926E-03-2.58434E-04-6.09733E-14
 -1       686 9.45861E-03-3.01971E-04-6.50379E-14
 -1       687 9.74698E-03-3.45558E-04-6.91853E-14
 -1       688 1.00346E-02-3.89650E-04-7.34139E-14
 -1       689 1.03217E-02-4.34494E-04-7.77264E-14
 -1       690 1.06084E-02-4.80194E-04-8.21218E-14
 -1       691 1.08948E-02-5.26759E-04-8.65894E-14
 -1       692 1.11810E-02-5.74137E-04-9.11205E-14
 -1       693 1.14671E-02-6.22246E-04-9.57069E-14
 -1       694 1.17530E-02-6.70987E-04-1.00358E-13
 -1       695 1.20388E-02-7.20258E-04-1.05068E-13
 -1       696 1.23246E-02-7.69963E-04-1.09821E-13
 -1       697 1.26104E-02-8.20015E-04-1.14603E-13
 -1       698 1.28961E-02-8.70336E-04-1.19418E-13
 -1       699 1.31818E-02-9.20858E-04-1.24259E-13
 -1       700 1.34675E-02-9.71525E-04-1.29123E-13
 -1       701 1.37532E-02-1.02229E-03-1.34006E-13
 -1       702 1.39851E-02-1.07788E-03-1.37869E-13
 -1       703 6.91512E-03-1.22068E-04-2.87465E-14
 -1       704 1.41934E-02-1.46743E-03-1.38407E-13
 -1       705 7.11421E-03-6.02997E-04-2.90356E-14
 -1       706 1.40934E-02-1.29881E-03-1.38026E-13
 -1       707 1.42436E-02-1.55174E-03-1.38589E-13
 -1       708 1.41433E-02-1.38312E-03-1.38222E-13
 -1       709 1.42931E-02-1.63461E-03-1.38759E-13
 -1       710 1.43435E-02-1.71892E-03-1.38921E-13
 -1       711 1.43940E-02-1.80323E-03-1.39067E-13
 -1       712 7.57991E-03-4.18467E-04-3.07536E-14
 -1       713 7.63550E-03-3.93509E-04-3.15893E-14
 -1       714 7.50447E-03-3.46100E-04-3.08617E-14
 -1       715 2.92058E-03-1.83941E-04-1.06406E-14
 -1       716 5.27772E-03 6.85180E-04-1.96931E-14
 -1       717 7.19736E-03-2.41346E-04-2.98335E-14
 -1       718 1.64853E-03 3.31803E-04-2.12070E-15
 -1       719 2.54467E-03 3.94835E-04-4.95009E-15
 -1       720 1.10501E-03-2.40268E-04-1.14586E-15
 -1       721 1.35552E-03 3.04110E-04-1.44467E-15
 -1       722 7.38726E-03-4.92198E-04-3.01750E-14
 -1       723 8.85176E-04 9.20066E-05-8.79932E-16
 -1       724 8.78797E-04-9.45897E-05-9.20820E-16
 -1       725 4.98446E-03 6.97487E-04-1.78298E-14
 -1       726 1.45232E-02-1.93777E-03-1.40216E-13
 -1       727 6.11781E-03 3.03148E-04-2.49368E-14
 -1       728 4.17371E-03 3.93467E-04-1.37914E-14
 -1       729 6.71612E-03-7.94320E-04-2.71207E-14
 -1       730 2.93477E-03-1.51970E-04-1.06863E-14
 -1       731 4.17234E-03-7.67090E-04-1.32739E-14
 -1       732 3.37245E-03-3.52259E-04-1.13492E-14
 -1       733 3.04482E-03-2.32099E-04-1.07340E-14
 -1       734 3.47329E-03 4.43863E-05-1.18458E-14
 -1       735 3.81229E-03 2.01870E-04-1.26991E-14
 -1       736 8.97691E-04-1.37702E-04-8.99918E-16
 -1       737 8.61695E-04-2.14702E-05-9.31299E-16
 -1       738 5.91426E-03 4.33319E-04-2.40185E-14
 -1       739 4.36936E-03 5.44378E-04-1.42621E-14
 -1       740 1.40345E-02-1.16147E-03-1.38099E-13
 -1       741 9.40828E-04-2.00591E-04-8.78858E-16
 -1       742 5.48406E-03 6.37232E-04-2.11596E-14
 -1       743 1.43648E-02-1.85777E-03-1.37942E-13
 -1       744 1.40639E-02-1.23014E-03-1.38069E-13
 -1       745 8.66763E-04-5.66827E-05-9.30737E-16
 -1       746 3.23244E-03-1.96753E-05-1.08849E-14
 -1       747 1.15817E-03 1.93551E-04-1.26351E-15
 -1       748 7.00055E-03-7.18891E-04-2.95796E-14
 -1       749 1.76825E-03-2.40263E-04-3.02634E-15
 -1       750 2.04329E-03-2.53105E-04-3.98822E-15
 -1       751 2.31612E-03-2.65918E-04-5.07896E-15
 -1       752 2.58763E-03-2.82487E-04-6.29780E-15
 -1       753 2.86062E-03-3.07339E-04-7.64419E-15
 -1       754 3.14106E-03-3.47189E-04-9.11574E-15
 -1       755 3.37360E-03-3.92871E-04-1.04200E-14
 -1       756 2.81917E-03-1.50963E-04-9.58863E-15
 -1       757 1.21316E-03-2.01365E-04-1.49218E-15
 -1       758 7.33664E-03-6.63856E-04-3.26751E-14
 -1       759 7.65721E-03-6.22793E-04-3.57299E-14
 -1       760 7.93658E-03-6.41427E-04-3.90498E-14
 -1       761 8.21013E-03-6.75284E-04-4.24869E-14
 -1       762 8.48269E-03-7.19231E-04-4.60390E-14
 -1       763 8.75649E-03-7.69959E-04-4.96966E-14
 -1       764 9.03234E-03-8.25055E-04-5.34549E-14
 -1       765 9.31032E-03-8.82706E-04-5.73100E-14
 -1       766 9.59018E-03-9.41583E-04-6.12576E-14
 -1       767 9.87160E-03-1.00076E-03-6.52889E-14
 -1       768 1.01542E-02-1.05962E-03-6.94047E-14
 -1       769 1.04378E-02-1.11780E-03-7.36030E-14
 -1       770 1.07220E-02-1.17513E-03-7.78862E-14
 -1       771 1.10067E-02-1.23155E-03-8.22399E-14
 -1       772 1.12917E-02-1.28706E-03-8.66582E-14
 -1       773 1.15770E-02-1.34176E-03-9.11475E-14
 -1       774 1.18625E-02-1.39572E-03-9.57008E-14
 -1       775 1.21481E-02-1.44906E-03-1.00316E-13
 -1       776 1.24337E-02-1.50187E-03-1.04986E-13
 -1       777 1.27194E-02-1.55425E-03-1.09717E-13
 -1       778 1.30051E-02-1.60630E-03-1.14506E-13
 -1       779 1.32909E-02-1.65807E-03-1.19342E-13
 -1       780 1.35766E-02-1.70965E-03-1.24232E-13
 -1       781 1.38624E-02-1.76108E-03-1.29183E-13
 -1       782 1.41136E-02-1.80945E-03-1.33545E-13
 -1       783 3.27508E-03 3.89718E-04-8.40710E-15
 -1       784 2.95353E-03 3.48711E-04-6.98503E-15
 -1       785 3.95375E-03 5.29429E-04-1.16588E-14
 -1       786 4.30213E-03 6.23412E-04-1.34982E-14
 -1       787 4.64406E-03 7.10710E-04-1.54932E-14
 -1       788 4.97310E-03 7.55866E-04-1.76491E-14
 -1       789 5.29648E-03 7.30838E-04-1.99724E-14
 -1       790 5.62571E-03 6.34771E-04-2.24675E-14
 -1       791 5.96723E-03 4.96611E-04-2.51291E-14
 -1       792 6.31500E-03 3.51014E-04-2.79523E-14
 -1       793 6.65915E-03 2.19975E-04-3.09281E-14
 -1       794 6.99275E-03 1.10288E-04-3.40429E-14
 -1       795 7.31365E-03 2.05819E-05-3.72862E-14
 -1       796 7.62318E-03-5.32863E-05-4.06552E-14
 -1       797 7.92396E-03-1.15600E-04-4.41447E-14
 -1       798 8.21859E-03-1.69901E-04-4.77521E-14
 -1       799 8.50920E-03-2.18937E-04-5.14666E-14
 -1       800 8.79732E-03-2.64762E-04-5.52834E-14
 -1       801 9.08400E-03-3.08873E-04-5.92001E-14
 -1       802 9.36992E-03-3.52320E-04-6.32163E-14
 -1       803 9.65547E-03-3.95808E-04-6.73229E-14
 -1       804 9.94089E-03-4.39781E-04-7.15111E-14
 -1       805 1.02263E-02-4.84487E-04-7.57803E-14
 -1       806 1.05117E-02-5.30038E-04-8.01276E-14
 -1       807 1.07972E-02-5.76448E-04-8.45539E-14
 -1       808 1.10828E-02-6.23675E-04-8.90485E-14
 -1       809 1.13684E-02-6.71642E-04-9.36007E-14
 -1       810 1.16541E-02-7.20253E-04-9.82132E-14
 -1       811 1.19398E-02-7.69411E-04-1.02890E-13
 -1       812 1.22255E-02-8.19020E-04-1.07612E-13
 -1       813 1.25112E-02-8.68993E-04-1.12375E-13
 -1       814 1.27970E-02-9.19251E-04-1.17173E-13
 -1       815 1.30827E-02-9.69728E-04-1.22004E-13
 -1       816 1.33684E-02-1.02036E-03-1.26869E-13
 -1       817 1.36542E-02-1.07111E-03-1.31752E-13
 -1       818 1.38443E-02-1.11628E-03-1.34920E-13
 -1       819 1.40209E-02-1.54891E-03-1.34344E-13
 -1       820 1.39706E-02-1.46465E-03-1.34182E-13
 -1       821 7.15985E-03-1.91601E-04-3.13717E-14
 -1       822 1.41213E-02-1.71672E-03-1.34636E-13
 -1       823 7.46208E-03-3.14325E-04-3.24385E-14
 -1       824 7.67414E-03-3.84993E-04-3.34786E-14
 -1       825 1.40710E-02-1.63281E-03-1.34496E-13
 -1       826 3.60883E-03 4.49212E-04-9.96312E-15
 -1       827 2.04556E-03 2.87352E-04-3.51820E-15
 -1       828 7.58420E-03-4.64148E-04-3.22152E-14
 -1       829 6.79159E-03-2.46663E-05-2.94461E-14
 -1       830 1.75370E-03 2.71781E-04-2.62579E-15
 -1       831 3.53453E-03 1.47247E-04-1.12244E-14
 -1       832 1.25435E-03 2.46256E-04-1.35897E-15
 -1       833 2.85738E-03-1.89021E-04-9.52472E-15
 -1       834 2.94747E-03-9.99457E-05-9.99808E-15
 -1       835 1.49121E-03-2.23988E-04-2.19389E-15
 -1       836 1.05338E-03-1.69257E-04-1.17890E-15
 -1       837 7.35623E-03-5.64473E-04-3.14715E-14
 -1       838 7.69590E-03-4.29030E-04-3.30742E-14
 -1       839 3.05795E-03-2.62937E-04-9.85072E-15
 -1       840 3.87520E-03 3.14708E-04-1.22255E-14
 -1       841 1.09298E-03 3.65447E-05-1.39820E-15
 -1       842 6.34983E-03 2.13637E-04-2.70277E-14
 -1       843 1.08578E-03-6.23494E-06-1.41610E-15
 -1       844 5.72831E-03 5.49109E-04-2.29904E-14
 -1       845 3.28921E-03 7.63038E-05-1.02893E-14
 -1       846 1.10812E-03 8.28091E-05-1.36829E-15
 -1       847 5.28677E-03 7.03933E-04-1.98441E-14
 -1       848 1.13021E-03 1.34825E-04-1.32422E-15
 -1       849 2.34138E-03 3.02485E-04-4.54111E-15
 -1       850 2.64317E-03 3.21371E-04-5.69615E-15
 -1       851 6.15666E-03 3.40847E-04-2.60553E-14
 -1       852 1.38709E-02-1.29686E-03-1.33838E-13
 -1       853 1.09883E-03-9.00958E-05-1.41541E-15
 -1       854 1.39207E-02-1.38076E-03-1.34016E-13
 -1       855 7.79238E-03-4.22363E-04-3.50017E-14
 -1       856 1.38414E-02-1.22823E-03-1.33896E-13
 -1       857 1.50372E-03 2.62299E-04-1.93981E-15
 -1       858 1.41174E-02-1.76308E-03-1.34092E-13
 -1       859 1.07370E-03-1.28144E-04-1.30034E-15
 -1       860 2.69698E-03-1.52448E-04-8.45209E-15
 -1       861 2.11774E-03-2.02143E-04-4.57507E-15
 -1       862 2.37377E-03-2.13792E-04-5.73359E-15
 -1       863 2.62328E-03-2.28611E-04-7.01776E-15
 -1       864 2.86708E-03-2.49112E-04-8.42447E-15
 -1       865 5.55539E-03 6.32774E-04-2.18152E-14
 -1       866 1.08758E-03-4.75612E-05-1.42186E-15
 -1       867 8.11371E-03-5.93000E-04-4.07437E-14
 -1       868 8.36565E-03-6.35796E-04-4.42326E-14
 -1       869 8.62329E-03-6.84111E-04-4.78313E-14
 -1       870 8.88639E-03-7.36427E-04-5.15356E-14
 -1       871 9.15432E-03-7.91445E-04-5.53405E-14
 -1       872 9.42629E-03-8.48067E-04-5.92410E-14
 -1       873 9.70156E-03-9.05429E-04-6.32257E-14
 -1       874 9.97946E-03-9.62901E-04-6.72939E-14
 -1       875 1.02594E-02-1.02006E-03-7.14470E-14
 -1       876 1.05409E-02-1.07665E-03-7.56856E-14
 -1       877 1.08236E-02-1.13255E-03-8.00055E-14
 -1       878 1.11072E-02-1.18772E-03-8.43949E-14
 -1       879 1.13915E-02-1.24219E-03-8.88487E-14
 -1       880 1.16762E-02-1.29601E-03-9.33699E-14
 -1       881 1.19613E-02-1.34926E-03-9.79529E-14
 -1       882 1.22466E-02-1.40203E-03-1.02590E-13
 -1       883 1.25321E-02-1.45439E-03-1.07285E-13
 -1       884 1.28178E-02-1.50643E-03-1.12042E-13
 -1       885 1.31034E-02-1.55821E-03-1.16846E-13
 -1       886 1.33892E-02-1.60979E-03-1.21702E-13
 -1       887 1.36749E-02-1.66123E-03-1.26613E-13
 -1       888 3.04352E-03 2.65919E-04-7.82136E-15
 -1       889 1.22771E-03-1.54887E-04-1.63421E-15
 -1       890 6.59186E-03 1.68111E-04-2.96053E-14
 -1       891 6.93616E-03 5.22163E-05-3.26638E-14
 -1       892 7.26094E-03-3.76124E-05-3.58493E-14
 -1       893 7.56925E-03-1.08991E-04-3.91581E-14
 -1       894 7.86591E-03-1.68526E-04-4.25894E-14
 -1       895 8.15511E-03-2.20668E-04-4.61394E-14
 -1       896 8.43990E-03-2.68301E-04-4.98025E-14
 -1       897 8.72242E-03-3.13364E-04-5.35696E-14
 -1       898 9.00407E-03-3.57156E-04-5.74371E-14
 -1       899 9.28564E-03-4.00552E-04-6.14010E-14
 -1       900 9.56757E-03-4.44126E-04-6.54635E-14
 -1       901 9.85006E-03-4.88237E-04-6.96134E-14
 -1       902 1.01332E-02-5.33084E-04-7.38413E-14
 -1       903 1.04168E-02-5.78752E-04-7.81457E-14
 -1       904 1.07010E-02-6.25250E-04-8.25266E-14
 -1       905 1.09856E-02-6.72535E-04-8.69817E-14
 -1       906 1.12705E-02-7.20531E-04-9.15031E-14
 -1       907 1.15557E-02-7.69152E-04-9.60806E-14
 -1       908 1.18411E-02-8.18305E-04-1.00716E-13
 -1       909 1.21266E-02-8.67899E-04-1.05410E-13
 -1       910 1.24123E-02-9.17853E-04-1.10145E-13
 -1       911 1.26979E-02-9.68091E-04-1.14923E-13
 -1       912 1.29837E-02-1.01855E-03-1.19740E-13
 -1       913 1.32694E-02-1.06918E-03-1.24596E-13
 -1       914 1.35551E-02-1.11992E-03-1.29479E-13
 -1       915 3.93081E-03 4.29146E-04-1.19560E-14
 -1       916 1.37483E-02-1.46253E-03-1.29978E-13
 -1       917 7.44319E-03-2.70414E-04-3.39390E-14
 -1       918 7.08351E-03-9.88405E-05-3.24044E-14
 -1       919 1.85583E-03 2.10297E-04-3.15901E-15
 -1       920 2.74607E-03-1.02906E-04-8.70376E-15
 -1       921 2.99764E-03-2.28644E-05-9.45160E-15
 -1       922 7.86667E-03-5.57673E-04-3.73713E-14
 -1       923 7.62776E-03-5.30432E-04-3.41285E-14
 -1       924 1.85580E-03-1.91213E-04-3.54418E-15
 -1       925 1.58922E-03-1.78656E-04-2.64077E-15
 -1       926 1.38428E-02-1.17226E-03-1.34413E-13
 -1       927 3.55350E-03 2.66182E-04-1.05477E-14
 -1       928 7.67984E-03-3.61021E-04-3.50277E-14
 -1       929 7.76373E-03-4.82629E-04-3.50211E-14
 -1       930 2.74387E-03-1.94810E-04-8.30228E-15
 -1       931 1.36983E-02-1.37871E-03-1.29820E-13
 -1       932 1.38550E-03 1.81482E-04-1.84740E-15
 -1       933 2.73320E-03 2.42680E-04-6.45995E-15
 -1       934 3.36986E-03 3.05551E-04-9.31329E-15
 -1       935 1.38962E-02-1.71217E-03-1.30337E-13
 -1       936 1.37984E-02-1.54637E-03-1.30120E-13
 -1       937 1.31770E-03-7.88202E-05-2.00848E-15
 -1       938 1.36484E-02-1.29487E-03-1.29658E-13
 -1       939 1.32964E-03 6.43752E-05-1.96068E-15
 -1       940 2.14277E-03 2.19512E-04-4.13001E-15
 -1       941 1.27000E-03-1.16172E-04-1.82236E-15
 -1       942 1.31438E-03 1.42153E-05-1.99205E-15
 -1       943 7.83870E-03-4.06668E-04-3.65866E-14
 -1       944 1.36189E-02-1.22629E-03-1.29723E-13
 -1       945 7.91015E-03-4.71149E-04-3.69999E-14
 -1       946 1.61029E-03 2.07126E-04-2.40263E-15
 -1       947 2.74624E-03-4.17202E-05-8.19783E-15
 -1       948 1.39000E-02-1.66584E-03-1.30881E-13
 -1       949 1.31002E-03-3.25854E-05-2.00778E-15
 -1       950 2.43048E-03-1.69276E-04-6.39947E-15
 -1       951 8.25305E-03-5.61065E-04-4.24334E-14
 -1       952 8.49334E-03-6.06085E-04-4.59728E-14
 -1       953 8.74335E-03-6.54742E-04-4.96207E-14
 -1       954 9.00109E-03-7.06239E-04-5.33735E-14
 -1       955 9.26504E-03-7.59730E-04-5.72232E-14
 -1       956 9.53398E-03-8.14447E-04-6.11634E-14
 -1       957 9.80689E-03-8.69763E-04-6.51889E-14
 -1       958 1.00829E-02-9.25214E-04-6.92972E-14
 -1       959 1.03615E-02-9.80481E-04-7.34943E-14
 -1       960 1.06419E-02-1.03537E-03-7.77741E-14
 -1       961 1.09238E-02-1.08978E-03-8.21294E-14
 -1       962 1.12068E-02-1.14368E-03-8.65542E-14
 -1       963 1.14906E-02-1.19710E-03-9.10409E-14
 -1       964 1.17751E-02-1.25005E-03-9.55920E-14
 -1       965 1.20600E-02-1.30261E-03-1.00200E-13
 -1       966 1.23452E-02-1.35483E-03-1.04859E-13
 -1       967 1.26306E-02-1.40678E-03-1.09580E-13
 -1       968 1.29162E-02-1.45849E-03-1.14355E-13
 -1       969 1.32018E-02-1.51003E-03-1.19177E-13
 -1       970 1.34876E-02-1.56144E-03-1.24057E-13
 -1       971 2.43423E-03 2.29045E-04-5.22948E-15
 -1       972 1.35397E-03 1.19662E-04-1.91333E-15
 -1       973 7.82021E-03-2.23250E-04-4.10429E-14
 -1       974 8.10106E-03-2.71189E-04-4.45354E-14
 -1       975 8.37789E-03-3.16137E-04-4.81455E-14
 -1       976 8.65329E-03-3.59731E-04-5.18617E-14
 -1       977 8.92874E-03-4.02909E-04-5.56797E-14
 -1       978 9.20509E-03-4.46241E-04-5.95946E-14
 -1       979 9.48269E-03-4.90065E-04-6.36063E-14
 -1       980 9.76168E-03-5.34576E-04-6.77132E-14
 -1       981 1.00420E-02-5.79867E-04-7.19043E-14
 -1       982 1.03235E-02-6.25962E-04-7.61703E-14
 -1       983 1.06060E-02-6.72837E-04-8.05088E-14
 -1       984 1.08894E-02-7.20435E-04-8.49228E-14
 -1       985 1.11734E-02-7.68682E-04-8.94090E-14
 -1       986 1.14579E-02-8.17494E-04-9.39529E-14
 -1       987 1.17429E-02-8.66788E-04-9.85565E-14
 -1       988 1.20281E-02-9.16483E-04-1.03214E-13
 -1       989 1.23135E-02-9.66506E-04-1.07922E-13
 -1       990 1.25991E-02-1.01679E-03-1.12673E-13
 -1       991 1.28847E-02-1.06728E-03-1.17472E-13
 -1       992 1.31704E-02-1.11792E-03-1.22313E-13
 -1       993 3.23708E-03 1.28168E-04-9.60725E-15
 -1       994 7.70226E-03-3.27668E-04-3.67523E-14
 -1       995 2.54269E-03-1.05206E-04-7.38775E-15
 -1       996 7.39144E-03-1.69895E-04-3.55833E-14
 -1       997 1.68827E-03-1.35804E-04-3.10794E-15
 -1       998 1.94449E-03-1.46487E-04-4.07866E-15
 -1       999 2.53763E-03-1.46237E-04-7.26406E-15
 -1      1000 2.19278E-03-1.57148E-04-5.17671E-15
 -1      1001 2.95777E-03 2.72029E-05-8.80862E-15
 -1      1002 7.60632E-03-1.97829E-04-3.82757E-14
 -1      1003 8.00962E-03-5.27825E-04-3.88602E-14
 -1      1004 1.54878E-03 3.85386E-05-2.65524E-15
 -1      1005 1.34758E-02-1.37641E-03-1.25635E-13
 -1      1006 1.57459E-03 9.59868E-05-2.60753E-15
 -1      1007 7.64851E-03-2.66300E-04-3.75217E-14
 -1      1008 1.59037E-03 1.49343E-04-2.51213E-15
 -1      1009 7.88400E-03-3.83722E-04-3.83511E-14
 -1      1010 1.34562E-02-1.16868E-03-1.27190E-13
 -1      1011 1.35258E-02-1.46015E-03-1.25778E-13
 -1      1012 2.88269E-03 1.24372E-04-7.78297E-15
 -1      1013 1.53599E-03-6.34257E-05-2.69515E-15
 -1      1014 1.34259E-02-1.29266E-03-1.25481E-13
 -1      1015 2.49953E-03-5.35381E-05-6.93011E-15
 -1      1016 1.95427E-03 1.47436E-04-3.71773E-15
 -1      1017 1.33963E-02-1.22416E-03-1.25563E-13
 -1      1018 7.99965E-03-4.57343E-04-3.86325E-14
 -1      1019 8.59712E-03-5.79671E-04-4.77129E-14
 -1      1020 8.84608E-03-6.26831E-04-5.14116E-14
 -1      1021 9.10303E-03-6.76468E-04-5.52103E-14
 -1      1022 9.36633E-03-7.27847E-04-5.91010E-14
 -1      1023 9.63469E-03-7.80351E-04-6.30798E-14
 -1      1024 9.90709E-03-8.33481E-04-6.71486E-14
 -1      1025 1.01827E-02-8.86870E-04-7.13065E-14
 -1      1026 1.04609E-02-9.40258E-04-7.55448E-14
 -1      1027 1.07410E-02-9.93487E-04-7.98646E-14
 -1      1028 1.10227E-02-1.04647E-03-8.42585E-14
 -1      1029 1.13055E-02-1.09918E-03-8.87144E-14
 -1      1030 1.15892E-02-1.15160E-03-9.32309E-14
 -1      1031 1.18736E-02-1.20376E-03-9.78095E-14
 -1      1032 1.21585E-02-1.25569E-03-1.02440E-13
 -1      1033 1.24437E-02-1.30742E-03-1.07125E-13
 -1      1034 1.27291E-02-1.35898E-03-1.11866E-13
 -1      1035 1.30147E-02-1.41042E-03-1.16663E-13
 -1      1036 1.33003E-02-1.46175E-03-1.21506E-13
 -1      1037 2.59399E-03 1.20599E-04-6.43376E-15
 -1      1038 8.58898E-03-4.03320E-04-5.01631E-14
 -1      1039 8.32278E-03-3.61757E-04-4.64969E-14
 -1      1040 8.05688E-03-3.20507E-04-4.29430E-14
 -1      1041 8.85695E-03-4.45674E-04-5.39338E-14
 -1      1042 9.12722E-03-4.88974E-04-5.77962E-14
 -1      1043 9.39994E-03-5.33235E-04-6.17594E-14
 -1      1044 9.67500E-03-5.78427E-04-6.58184E-14
 -1      1045 9.95221E-03-6.24490E-04-6.99680E-14
 -1      1046 1.02313E-02-6.71348E-04-7.41962E-14
 -1      1047 1.05119E-02-7.18921E-04-7.85023E-14
 -1      1048 1.07939E-02-7.67126E-04-8.28764E-14
 -1      1049 1.10768E-02-8.15879E-04-8.73222E-14
 -1      1050 1.13606E-02-8.65101E-04-9.18351E-14
 -1      1051 1.16450E-02-9.14715E-04-9.64062E-14
 -1      1052 1.19298E-02-9.64655E-04-1.01031E-13
 -1      1053 1.22150E-02-1.01486E-03-1.05706E-13
 -1      1054 1.25004E-02-1.06528E-03-1.10432E-13
 -1      1055 1.27859E-02-1.11586E-03-1.15206E-13
 -1      1056 1.30716E-02-1.16657E-03-1.20025E-13
 -1      1057 8.12847E-03-5.06366E-04-4.05200E-14
 -1      1058 1.53506E-03-1.39056E-05-2.68431E-15
 -1      1059 2.23402E-03 1.49612E-04-4.76385E-15
 -1      1060 1.32034E-02-1.29038E-03-1.21328E-13
 -1      1061 2.68077E-03 3.83694E-05-7.30360E-15
 -1      1062 1.79019E-03-7.27962E-05-3.60506E-15
 -1      1063 2.32421E-03-1.17663E-04-6.04901E-15
 -1      1064 8.35854E-03-5.35653E-04-4.41250E-14
 -1      1065 7.84831E-03-3.34583E-04-3.91453E-14
 -1      1066 1.90986E-03 7.78921E-05-3.79477E-15
 -1      1067 1.83253E-03-2.82316E-06-3.72000E-15
 -1      1068 1.32534E-02-1.37401E-03-1.21475E-13
 -1      1069 8.07741E-03-4.41628E-04-4.04491E-14
 -1      1070 2.24586E-03-7.00240E-05-5.64819E-15
 -1      1071 2.03718E-03-8.34353E-05-4.64270E-15
 -1      1072 8.93606E-03-5.97400E-04-5.32018E-14
 -1      1073 9.19554E-03-6.45045E-04-5.70438E-14
 -1      1074 9.46057E-03-6.94333E-04-6.09741E-14
 -1      1075 9.73016E-03-7.44711E-04-6.49983E-14
 -1      1076 1.00034E-02-7.95805E-04-6.91191E-14
 -1      1077 1.02796E-02-8.47275E-04-7.33197E-14
 -1      1078 1.05582E-02-8.98941E-04-7.76021E-14
 -1      1079 1.08387E-02-9.50669E-04-8.19567E-14
 -1      1080 1.11206E-02-1.00238E-03-8.63822E-14
 -1      1081 1.14036E-02-1.05402E-03-9.08715E-14
 -1      1082 1.16875E-02-1.10558E-03-9.54156E-14
 -1      1083 1.19720E-02-1.15705E-03-1.00019E-13
 -1      1084 1.22569E-02-1.20843E-03-1.04676E-13
 -1      1085 1.25421E-02-1.25974E-03-1.09387E-13
 -1      1086 1.28276E-02-1.31099E-03-1.14149E-13
 -1      1087 8.52781E-03-4.43202E-04-4.84697E-14
 -1      1088 9.05048E-03-5.28337E-04-5.60081E-14
 -1      1089 2.38543E-03 1.46217E-05-6.02178E-15
 -1      1090 8.78690E-03-4.84897E-04-5.21919E-14
 -1      1091 8.27294E-03-4.03720E-04-4.48565E-14
 -1      1092 9.31794E-03-5.73319E-04-5.99194E-14
 -1      1093 9.58895E-03-6.19503E-04-6.39283E-14
 -1      1094 9.86293E-03-6.66699E-04-6.80349E-14
 -1      1095 1.01395E-02-7.14679E-04-7.22229E-14
 -1      1096 1.04183E-02-7.63293E-04-7.64901E-14
 -1      1097 1.06987E-02-8.12418E-04-8.08303E-14
 -1      1098 1.09806E-02-8.61955E-04-8.52423E-14
 -1      1099 1.12636E-02-9.11825E-04-8.97195E-14
 -1      1100 1.15474E-02-9.61961E-04-9.42589E-14
 -1      1101 1.18318E-02-1.01231E-03-9.88523E-14
 -1      1102 1.21167E-02-1.06283E-03-1.03496E-13
 -1      1103 1.24019E-02-1.11348E-03-1.08194E-13
 -1      1104 1.26873E-02-1.16424E-03-1.12945E-13
 -1      1105 1.29453E-02-1.22725E-03-1.17118E-13
 -1      1106 8.22182E-03-4.87439E-04-4.22742E-14
 -1      1107 8.06881E-03-4.02613E-04-4.12771E-14
 -1      1108 2.19873E-03 6.35569E-05-4.98176E-15
 -1      1109 8.68375E-03-5.51890E-04-4.94563E-14
 -1      1110 8.43996E-03-5.09399E-04-4.58155E-14
 -1      1111 1.31132E-02-1.36219E-03-1.18964E-13
 -1      1112 1.30292E-02-1.29470E-03-1.18043E-13
 -1      1113 9.23485E-03-6.10073E-04-5.80900E-14
 -1      1114 9.55013E-03-6.58378E-04-6.28513E-14
 -1      1115 8.46597E-03-4.78445E-04-4.67824E-14
 -1      1116 2.14010E-03-1.64516E-05-5.02458E-15
 -1      1117 8.23394E-03-4.52410E-04-4.31305E-14
 -1      1118 8.97262E-03-5.63955E-04-5.42262E-14
 -1      1119 0.00000E+00 0.00000E+00 0.00000E+00
 -1      1120 0.00000E+00 0.00000E+00 0.00000E+00
 -1      1121 0.00000E+00 0.00000E+00 0.00000E+00
 -1      1122 0.00000E+00 0.00000E+00 0.00000E+00
 -1      1123 0.00000E+00 0.00000E+00 0.00000E+00
 -1      1124 0.00000E+00 0.00000E+00 0.00000E+00
 -1      1125 0.00000E+00 0.00000E+00 0.00000E+00
 -1      1126 0.00000E+00 0.00000E+00 0.00000E+00
 -1      1127 0.00000E+00 0.00000E+00 0.00000E+00
 -1      1128 0.00000E+00 0.00000E+00 0.00000E+00
 -1      1129 0.00000E+00 0.00000E+00 0.00000E+00
 -1      1130 0.00000E+00 0.00000E+00 0.00000E+00
 -1      1131 0.00000E+00 0.00000E+00 0.00000E+00
 -1      1132 0.00000E+00 0.00000E+00 0.00000E+00
 -1      1133 0.00000E+00 0.00000E+00 0.00000E+00
 -1      1134 0.00000E+00 0.00000E+00 0.00000E+00
 -1      1135 0.00000E+00 0.00000E+00 0.00000E+00
 -1      1136 2.10501E-04-1.44023E-04 2.06676E-17
 -1      1137 5.53652E-04-3.20527E-04-2.88940E-17
 -1      1138 8.44687E-04-4.28331E-04-2.12029E-16
 -1      1139 1.12883E-03-4.97327E-04-5.50124E-16
 -1      1140 1.41465E-03-5.43604E-04-1.03835E-15
 -1      1141 1.70701E-03-5.75985E-04-1.67467E-15
 -1      1142 2.00952E-03-6.00766E-04-2.45630E-15
 -1      1143 2.32509E-03-6.23777E-04-3.38001E-15
 -1      1144 2.65600E-03-6.51437E-04-4.44581E-15
 -1      1145 3.00353E-03-6.91318E-04-5.65329E-15
 -1      1146 3.36699E-03-7.52196E-04-7.00286E-15
 -1      1147 3.74222E-03-8.43014E-04-8.49246E-15
 -1      1148 4.12000E-03-9.69780E-04-1.01242E-14
 -1      1149 4.48570E-03-1.12972E-03-1.19095E-14
 -1      1150 4.82273E-03-1.30456E-03-1.38538E-14
 -1      1151 5.12100E-03-1.45901E-03-1.59611E-14
 -1      1152 5.38677E-03-1.55176E-03-1.82412E-14
 -1      1153 5.64414E-03-1.55751E-03-2.06995E-14
 -1      1154 5.92258E-03-1.48340E-03-2.33349E-14
 -1      1155 6.23973E-03-1.36435E-03-2.61363E-14
 -1      1156 6.59433E-03-1.24182E-03-2.90892E-14
 -1      1157 6.97241E-03-1.14501E-03-3.21816E-14
 -1      1158 7.35756E-03-1.08557E-03-3.54088E-14
 -1      1159 7.73742E-03-1.06239E-03-3.87650E-14
 -1      1160 8.10519E-03-1.06841E-03-4.22463E-14
 -1      1161 8.45850E-03-1.09554E-03-4.58388E-14
 -1      1162 8.79769E-03-1.13675E-03-4.95281E-14
 -1      1163 9.12446E-03-1.18676E-03-5.33114E-14
 -1      1164 9.44092E-03-1.24186E-03-5.71923E-14
 -1      1165 9.74915E-03-1.29959E-03-6.11648E-14
 -1      1166 1.00510E-02-1.35836E-03-6.52276E-14
 -1      1167 1.03480E-02-1.41720E-03-6.93675E-14
 -1      1168 1.06414E-02-1.47556E-03-7.35813E-14
 -1      1169 1.09322E-02-1.53315E-03-7.78740E-14
 -1      1170 1.12211E-02-1.58986E-03-8.22426E-14
 -1      1171 1.15086E-02-1.64567E-03-8.66751E-14
 -1      1172 1.17952E-02-1.70063E-03-9.11729E-14
 -1      1173 1.20813E-02-1.75485E-03-9.57330E-14
 -1      1174 1.23669E-02-1.80840E-03-1.00343E-13
 -1      1175 1.26524E-02-1.86141E-03-1.05016E-13
 -1      1176 1.29377E-02-1.91395E-03-1.09767E-13
 -1      1177 1.32230E-02-1.96613E-03-1.14594E-13
 -1      1178 1.35083E-02-2.01803E-03-1.19492E-13
 -1      1179 1.37937E-02-2.06970E-03-1.24460E-13
 -1      1180 1.40791E-02-2.12121E-03-1.29488E-13
 -1      1181 1.43646E-02-2.17262E-03-1.34549E-13
 -1      1182 1.46502E-02-2.22397E-03-1.39629E-13
 -1      1183 1.49358E-02-2.27529E-03-1.44724E-13
 -1      1184 1.52215E-02-2.32662E-03-1.49845E-13
 -1      1185 1.55001E-02-2.37670E-03-1.54874E-13
 -1      1186 2.27221E-04 1.56646E-04 3.67273E-17
 -1      1187 5.55873E-04 3.26882E-04 2.21855E-17
 -1      1188 8.44958E-04 4.34172E-04-1.15291E-16
 -1      1189 1.12743E-03 5.05024E-04-3.92630E-16
 -1      1190 1.41027E-03 5.54206E-04-8.11010E-16
 -1      1191 1.69745E-03 5.90228E-04-1.37207E-15
 -1      1192 1.99122E-03 6.19059E-04-2.07533E-15
 -1      1193 2.29261E-03 6.45698E-04-2.91930E-15
 -1      1194 2.60154E-03 6.74706E-04-3.90690E-15
 -1      1195 2.91669E-03 7.10178E-04-5.03891E-15
 -1      1196 3.23526E-03 7.55256E-04-6.31648E-15
 -1      1197 3.55288E-03 8.11200E-04-7.73538E-15
 -1      1198 3.86397E-03 8.76132E-04-9.29737E-15
 -1      1199 4.16283E-03 9.43908E-04-1.10119E-14
 -1      1200 4.44544E-03 1.00396E-03-1.28772E-14
 -1      1201 4.71161E-03 1.04304E-03-1.49028E-14
 -1      1202 4.96615E-03 1.04899E-03-1.70861E-14
 -1      1203 5.21802E-03 1.01525E-03-1.94266E-14
 -1      1204 5.47734E-03 9.43596E-04-2.19285E-14
 -1      1205 5.75179E-03 8.43421E-04-2.45918E-14
 -1      1206 6.04433E-03 7.28073E-04-2.74144E-14
 -1      1207 6.35324E-03 6.10397E-04-3.03892E-14
 -1      1208 6.67382E-03 4.99727E-04-3.35110E-14
 -1      1209 7.00043E-03 4.01019E-04-3.67772E-14
 -1      1210 7.32811E-03 3.15548E-04-4.01754E-14
 -1      1211 7.65326E-03 2.42224E-04-4.36934E-14
 -1      1212 7.97376E-03 1.78817E-04-4.73274E-14
 -1      1213 8.28869E-03 1.22820E-04-5.10745E-14
 -1      1214 8.59799E-03 7.19318E-05-5.49246E-14
 -1      1215 8.90208E-03 2.42631E-05-5.88760E-14
 -1      1216 9.20166E-03-2.16213E-05-6.29189E-14
 -1      1217 9.49751E-03-6.67445E-05-6.70555E-14
 -1      1218 9.79039E-03-1.11791E-04-7.12730E-14
 -1      1219 1.00810E-02-1.57184E-04-7.55616E-14
 -1      1220 1.03698E-02-2.03160E-04-7.99355E-14
 -1      1221 1.06574E-02-2.49822E-04-8.43997E-14
 -1      1222 1.09441E-02-2.97185E-04-8.89430E-14
 -1      1223 1.12302E-02-3.45214E-04-9.35616E-14
 -1      1224 1.15159E-02-3.93842E-04-9.82407E-14
 -1      1225 1.18014E-02-4.42988E-04-1.02968E-13
 -1      1226 1.20868E-02-4.92570E-04-1.07727E-13
 -1      1227 1.23721E-02-5.42507E-04-1.12509E-13
 -1      1228 1.26574E-02-5.92725E-04-1.17312E-13
 -1      1229 1.29428E-02-6.43158E-04-1.22151E-13
 -1      1230 1.32282E-02-6.93750E-04-1.27007E-13
 -1      1231 1.35137E-02-7.44448E-04-1.31869E-13
 -1      1232 1.37993E-02-7.95208E-04-1.36762E-13
 -1      1233 1.40849E-02-8.45991E-04-1.41693E-13
 -1      1234 1.43706E-02-8.96764E-04-1.46638E-13
 -1      1235 1.46492E-02-9.46237E-04-1.51466E-13
 -1      1236 1.48098E-02-1.01247E-03-1.53925E-13
 -1      1237 1.48597E-02-1.09676E-03-1.54163E-13
 -1      1238 1.49095E-02-1.18108E-03-1.54391E-13
 -1      1239 1.49593E-02-1.26544E-03-1.54604E-13
 -1      1240 1.50092E-02-1.34985E-03-1.54816E-13
 -1      1241 1.50587E-02-1.43359E-03-1.55057E-13
 -1      1242 1.51082E-02-1.51737E-03-1.55349E-13
 -1      1243 1.51583E-02-1.60190E-03-1.55652E-13
 -1      1244 1.52084E-02-1.68643E-03-1.55933E-13
 -1      1245 1.52587E-02-1.77097E-03-1.56195E-13
 -1      1246 1.53090E-02-1.85549E-03-1.56429E-13
 -1      1247 1.53590E-02-1.93928E-03-1.56651E-13
 -1      1248 1.54091E-02-2.02302E-03-1.56843E-13
 -1      1249 1.54597E-02-2.10743E-03-1.56993E-13
 -1      1250 1.55102E-02-2.19179E-03-1.57122E-13
 -1      1251 1.55608E-02-2.27611E-03-1.57222E-13
 -1      1252 1.56109E-02-2.35968E-03-1.57295E-13
 -1      1253 7.50695E-03-2.60087E-04-2.51207E-14
 -1      1254 7.37370E-03-1.08643E-04-2.48274E-14
 -1      1255 7.14580E-03 4.48154E-05-2.42847E-14
 -1      1256 6.84084E-03 1.98698E-04-2.35202E-14
 -1      1257 6.46986E-03 3.48028E-04-2.25575E-14
 -1      1258 6.05765E-03 4.74664E-04-2.14642E-14
 -1      1259 5.62037E-03 5.63904E-04-2.02877E-14
 -1      1260 5.18060E-03 6.00116E-04-1.91059E-14
 -1      1261 4.73172E-03 5.78109E-04-1.79318E-14
 -1      1262 4.28346E-03 5.00262E-04-1.68194E-14
 -1      1263 3.88328E-03 3.84215E-04-1.58892E-14
 -1      1264 3.54498E-03 2.49607E-04-1.51505E-14
 -1      1265 3.26841E-03 1.01061E-04-1.45739E-14
 -1      1266 3.08524E-03-4.94290E-05-1.42125E-14
 -1      1267 3.01446E-03-1.93926E-04-1.40798E-14
 -1      1268 3.05055E-03-3.37653E-04-1.41475E-14
 -1      1269 3.18603E-03-4.85901E-04-1.44051E-14
 -1      1270 3.41457E-03-6.43644E-04-1.48509E-14
 -1      1271 3.73248E-03-8.11090E-04-1.55021E-14
 -1      1272 4.10848E-03-9.70136E-04-1.63201E-14
 -1      1273 4.50699E-03-1.09949E-03-1.72398E-14
 -1      1274 4.95200E-03-1.19150E-03-1.83275E-14
 -1      1275 5.41582E-03-1.22635E-03-1.95115E-14
 -1      1276 5.86364E-03-1.19401E-03-2.06860E-14
 -1      1277 6.28998E-03-1.10672E-03-2.18210E-14
 -1      1278 6.67235E-03-9.83817E-04-2.28354E-14
 -1      1279 7.00282E-03-8.41534E-04-2.37046E-14
 -1      1280 7.26683E-03-6.92879E-04-2.44105E-14
 -1      1281 7.44786E-03-5.44946E-04-2.49105E-14
 -1      1282 7.53003E-03-4.02737E-04-2.51475E-14
 -1      1283 1.68072E-04-1.05769E-04-1.65341E-18
 -1      1284 1.14850E-04-5.13676E-05-2.87585E-17
 -1      1285 1.19790E-04-6.26672E-05-2.13452E-17
 -1      1286 1.10263E-04-3.67469E-05-4.09422E-17
 -1      1287 1.12413E-04-4.32531E-05-3.72559E-17
 -1      1288 2.31147E-04-9.55475E-05-8.75900E-17
 -1      1289 1.07768E-04-2.65553E-05-4.76778E-17
 -1      1290 1.09096E-04-3.12727E-05-4.57669E-17
 -1      1291 2.22481E-04-6.89499E-05-1.09532E-16
 -1      1292 1.05945E-04-1.88435E-05-5.18520E-17
 -1      1293 1.06902E-04-2.24871E-05-5.07949E-17
 -1      1294 2.17078E-04-4.98130E-05-1.22556E-16
 -1      1295 1.04597E-04-1.28471E-05-5.41017E-17
 -1      1296 1.05285E-04-1.57188E-05-5.36545E-17
 -1      1297 2.13153E-04-3.52543E-05-1.30389E-16
 -1      1298 1.03644E-04-7.84252E-06-5.53892E-17
 -1      1299 1.04100E-04-1.02873E-05-5.51859E-17
 -1      1300 2.10252E-04-2.36168E-05-1.34834E-16
 -1      1301 1.03146E-04-3.47040E-06-5.57280E-17
 -1      1302 1.03354E-04-5.66265E-06-5.57144E-17
 -1      1303 2.08337E-04-1.38041E-05-1.36908E-16
 -1      1304 1.03111E-04 7.06483E-07-5.53079E-17
 -1      1305 1.03073E-04-1.44274E-06-5.54840E-17
 -1      1306 2.07472E-04-5.00813E-06-1.37138E-16
 -1      1307 1.03520E-04 5.09638E-06-5.43456E-17
 -1      1308 1.03248E-04 2.79534E-06-5.45896E-17
 -1      1309 2.07647E-04 3.61261E-06-1.35674E-16
 -1      1310 1.04335E-04 1.00801E-05-5.26922E-17
 -1      1311 1.03849E-04 7.44401E-06-5.32885E-17
 -1      1312 2.08805E-04 1.28399E-05-1.32896E-16
 -1      1313 1.05496E-04 1.59143E-05-4.97242E-17
 -1      1314 1.04821E-04 1.28228E-05-5.06729E-17
 -1      1315 2.10835E-04 2.33128E-05-1.27922E-16
 -1      1316 1.07045E-04 2.31954E-05-4.54010E-17
 -1      1317 1.06135E-04 1.93301E-05-4.68782E-17
 -1      1318 2.13676E-04 3.58291E-05-1.20197E-16
 -1      1319 1.09094E-04 3.23868E-05-3.87873E-17
 -1      1320 1.07833E-04 2.74905E-05-4.13759E-17
 -1      1321 2.17415E-04 5.13952E-05-1.08895E-16
 -1      1322 1.12231E-04 4.45905E-05-2.84196E-17
 -1      1323 1.10157E-04 3.79953E-05-3.28649E-17
 -1      1324 2.22466E-04 7.12808E-05-9.21843E-17
 -1      1325 1.18918E-04 6.32438E-05-1.17500E-17
 -1      1326 1.14308E-04 5.27211E-05-1.98409E-17
 -1      1327 2.30753E-04 9.85293E-05-6.70986E-17
 -1      1328 1.58411E-04 1.06260E-04 1.42302E-17
 -1      1329 1.37624E-04 8.18811E-05-1.76183E-18
 -1      1330 2.60633E-04 1.42507E-04-3.68900E-17
 -1      1331 3.37668E-04 2.11570E-04 6.32903E-18
 -1      1332 4.26251E-04-2.47355E-04-4.86400E-17
 -1      1333 5.82954E-04-3.15213E-04-1.09369E-16
 -1      1334 7.34790E-04-3.68677E-04-2.10552E-16
 -1      1335 8.83686E-04-4.11026E-04-3.48815E-16
 -1      1336 6.25186E-04-3.04470E-04-2.02041E-16
 -1      1337 1.03063E-03-4.45423E-04-5.23344E-16
 -1      1338 1.17666E-03-4.73121E-04-7.34981E-16
 -1      1339 9.29358E-04-3.90837E-04-4.90940E-16
 -1      1340 1.32273E-03-4.95995E-04-9.82924E-16
 -1      1341 1.46948E-03-5.14703E-04-1.26807E-15
 -1      1342 1.22687E-03-4.47059E-04-9.23944E-16
 -1      1343 1.61752E-03-5.30381E-04-1.58936E-15
 -1      1344 1.76728E-03-5.43633E-04-1.94693E-15
 -1      1345 1.52396E-03-4.84422E-04-1.50131E-15
 -1      1346 1.91921E-03-5.55279E-04-2.34001E-15
 -1      1347 2.07360E-03-5.65998E-04-2.76839E-15
 -1      1348 1.82497E-03-5.10275E-04-2.22195E-15
 -1      1349 2.23081E-03-5.76569E-04-3.23220E-15
 -1      1350 2.39105E-03-5.87778E-04-3.73153E-15
 -1      1351 2.13302E-03-5.30674E-04-3.08350E-15
 -1      1352 2.55455E-03-6.00530E-04-4.26604E-15
 -1      1353 2.72142E-03-6.15735E-04-4.83496E-15
 -1      1354 2.45039E-03-5.51805E-04-4.08519E-15
 -1      1355 2.89174E-03-6.34532E-04-5.43940E-15
 -1      1356 3.06540E-03-6.57936E-04-6.07878E-15
 -1      1357 2.77858E-03-5.80807E-04-5.22560E-15
 -1      1358 3.24224E-03-6.87322E-04-6.75222E-15
 -1      1359 3.42180E-03-7.23684E-04-7.46201E-15
 -1      1360 3.11814E-03-6.26236E-04-6.50403E-15
 -1      1361 3.60356E-03-7.68411E-04-8.20623E-15
 -1      1362 3.78658E-03-8.22139E-04-8.98527E-15
 -1      1363 3.46818E-03-6.97818E-04-7.92136E-15
 -1      1364 3.96988E-03-8.85641E-04-9.80084E-15
 -1      1365 4.15203E-03-9.58541E-04-1.06530E-14
 -1      1366 3.82572E-03-8.04643E-04-9.47876E-15
 -1      1367 4.33170E-03-1.03994E-03-1.15438E-14
 -1      1368 4.50725E-03-1.12750E-03-1.24742E-14
 -1      1369 4.18506E-03-9.50673E-04-1.11816E-14
 -1      1370 4.67745E-03-1.21771E-03-1.34441E-14
 -1      1371 4.84128E-03-1.30598E-03-1.44549E-14
 -1      1372 4.53790E-03-1.12721E-03-1.30374E-14
 -1      1373 4.99840E-03-1.38651E-03-1.55069E-14
 -1      1374 5.14938E-03-1.45371E-03-1.66012E-14
 -1      1375 4.87577E-03-1.30614E-03-1.50534E-14
 -1      1376 5.29535E-03-1.50213E-03-1.77396E-14
 -1      1377 5.43880E-03-1.52824E-03-1.89228E-14
 -1      1378 5.19541E-03-1.44283E-03-1.72393E-14
 -1      1379 5.58190E-03-1.53050E-03-2.01508E-14
 -1      1380 5.72775E-03-1.50992E-03-2.14231E-14
 -1      1381 5.50376E-03-1.49568E-03-1.96028E-14
 -1      1382 5.87824E-03-1.46999E-03-2.27397E-14
 -1      1383 6.03512E-03-1.41555E-03-2.40980E-14
 -1      1384 5.81583E-03-1.45292E-03-2.21451E-14
 -1      1385 6.19894E-03-1.35265E-03-2.54963E-14
 -1      1386 6.36949E-03-1.28684E-03-2.69339E-14
 -1      1387 6.14432E-03-1.34137E-03-2.48592E-14
 -1      1388 6.54600E-03-1.22322E-03-2.84084E-14
 -1      1389 6.72705E-03-1.16553E-03-2.99201E-14
 -1      1390 6.49175E-03-1.20756E-03-2.77310E-14
 -1      1391 6.91130E-03-1.11619E-03-3.14644E-14
 -1      1392 7.09716E-03-1.07668E-03-3.30422E-14
 -1      1393 6.85195E-03-1.09113E-03-3.07488E-14
 -1      1394 7.28341E-03-1.04712E-03-3.46556E-14
 -1      1395 7.46883E-03-1.02746E-03-3.63002E-14
 -1      1396 7.21610E-03-1.01214E-03-3.39050E-14
 -1      1397 7.65264E-03-1.01663E-03-3.79771E-14
 -1      1398 7.83414E-03-1.01388E-03-3.96846E-14
 -1      1399 7.57689E-03-9.73542E-04-3.71913E-14
 -1      1400 8.01295E-03-1.01787E-03-4.14204E-14
 -1      1401 8.18881E-03-1.02772E-03-4.31883E-14
 -1      1402 7.92984E-03-9.69152E-04-4.06012E-14
 -1      1403 8.36165E-03-1.04228E-03-4.49819E-14
 -1      1404 8.53147E-03-1.06072E-03-4.67987E-14
 -1      1405 8.27290E-03-9.90116E-04-4.41261E-14
 -1      1406 8.69840E-03-1.08221E-03-4.86415E-14
 -1      1407 8.86257E-03-1.10611E-03-5.05080E-14
 -1      1408 8.60576E-03-1.02826E-03-4.77584E-14
 -1      1409 9.02418E-03-1.13187E-03-5.23969E-14
 -1      1410 9.18344E-03-1.15899E-03-5.43117E-14
 -1      1411 8.92911E-03-1.07721E-03-5.14863E-14
 -1      1412 9.34056E-03-1.18715E-03-5.62509E-14
 -1      1413 9.49576E-03-1.21599E-03-5.82119E-14
 -1      1414 9.24415E-03-1.13245E-03-5.53108E-14
 -1      1415 9.64924E-03-1.24534E-03-6.01971E-14
 -1      1416 9.80119E-03-1.27493E-03-6.22048E-14
 -1      1417 9.55223E-03-1.19097E-03-5.92306E-14
 -1      1418 9.95180E-03-1.30468E-03-6.42337E-14
 -1      1419 1.01012E-02-1.33442E-03-6.62836E-14
 -1      1420 9.85468E-03-1.25083E-03-6.32430E-14
 -1      1421 1.02496E-02-1.36412E-03-6.83526E-14
 -1      1422 1.03971E-02-1.39366E-03-7.04389E-14
 -1      1423 1.01527E-02-1.31084E-03-6.73378E-14
 -1      1424 1.05438E-02-1.42304E-03-7.25464E-14
 -1      1425 1.06898E-02-1.45220E-03-7.46718E-14
 -1      1426 1.04472E-02-1.37033E-03-7.15111E-14
 -1      1427 1.08353E-02-1.48114E-03-7.68171E-14
 -1      1428 1.09803E-02-1.50983E-03-7.89824E-14
 -1      1429 1.07391E-02-1.42895E-03-7.57628E-14
 -1      1430 1.11248E-02-1.53829E-03-8.11645E-14
 -1      1431 1.12690E-02-1.56649E-03-8.33623E-14
 -1      1432 1.10291E-02-1.48656E-03-8.00886E-14
 -1      1433 1.14130E-02-1.59447E-03-8.55781E-14
 -1      1434 1.15566E-02-1.62221E-03-8.78099E-14
 -1      1435 1.13176E-02-1.54314E-03-8.44820E-14
 -1      1436 1.17001E-02-1.64974E-03-9.00577E-14
 -1      1437 1.18433E-02-1.67707E-03-9.23217E-14
 -1      1438 1.16050E-02-1.59874E-03-8.89439E-14
 -1      1439 1.19865E-02-1.70421E-03-9.45998E-14
 -1      1440 1.21295E-02-1.73116E-03-9.68952E-14
 -1      1441 1.18918E-02-1.65347E-03-9.34713E-14
 -1      1442 1.22725E-02-1.75796E-03-9.92035E-14
 -1      1443 1.24153E-02-1.78460E-03-1.01522E-13
 -1      1444 1.21780E-02-1.70744E-03-9.80571E-14
 -1      1445 1.25581E-02-1.81112E-03-1.03860E-13
 -1      1446 1.27009E-02-1.83750E-03-1.06217E-13
 -1      1447 1.24639E-02-1.76077E-03-1.02704E-13
 -1      1448 1.28437E-02-1.86378E-03-1.08591E-13
 -1      1449 1.29864E-02-1.88996E-03-1.10984E-13
 -1      1450 1.27496E-02-1.81357E-03-1.07415E-13
 -1      1451 1.31291E-02-1.91605E-03-1.13394E-13
 -1      1452 1.32718E-02-1.94206E-03-1.15821E-13
 -1      1453 1.30352E-02-1.86593E-03-1.12196E-13
 -1      1454 1.34145E-02-1.96801E-03-1.18267E-13
 -1      1455 1.35572E-02-1.99389E-03-1.20730E-13
 -1      1456 1.33207E-02-1.91796E-03-1.17045E-13
 -1      1457 1.37000E-02-2.01972E-03-1.23209E-13
 -1      1458 1.38427E-02-2.04551E-03-1.25702E-13
 -1      1459 1.36062E-02-1.96973E-03-1.21962E-13
 -1      1460 1.39854E-02-2.07126E-03-1.28208E-13
 -1      1461 1.41282E-02-2.09699E-03-1.30728E-13
 -1      1462 1.38917E-02-2.02131E-03-1.26938E-13
 -1      1463 1.42710E-02-2.12269E-03-1.33257E-13
 -1      1464 1.44137E-02-2.14837E-03-1.35788E-13
 -1      1465 1.41773E-02-2.07275E-03-1.31966E-13
 -1      1466 1.45565E-02-2.17403E-03-1.38327E-13
 -1      1467 1.46993E-02-2.19969E-03-1.40870E-13
 -1      1468 1.44629E-02-2.12410E-03-1.37027E-13
 -1      1469 1.48422E-02-2.22535E-03-1.43420E-13
 -1      1470 1.49850E-02-2.25101E-03-1.45972E-13
 -1      1471 1.47485E-02-2.17542E-03-1.42112E-13
 -1      1472 1.51278E-02-2.27667E-03-1.48532E-13
 -1      1473 1.52707E-02-2.30235E-03-1.51103E-13
 -1      1474 1.50342E-02-2.22673E-03-1.47220E-13
 -1      1475 1.54752E-02-2.33527E-03-1.54838E-13
 -1      1476 1.53815E-02-2.28531E-03-1.53516E-13
 -1      1477 6.51901E-04 3.50399E-04-7.14896E-17
 -1      1478 4.98182E-04 2.88304E-04-1.53008E-17
 -1      1479 4.51900E-04 2.50293E-04-4.72170E-17
 -1      1480 9.47589E-04 4.38685E-04-2.87029E-16
 -1      1481 8.01189E-04 3.98857E-04-1.62170E-16
 -1      1482 7.59772E-04 3.62539E-04-2.01662E-16
 -1      1483 1.23655E-03 4.98241E-04-6.39164E-16
 -1      1484 1.09234E-03 4.71211E-04-4.45661E-16
 -1      1485 1.05704E-03 4.36648E-04-4.91442E-16
 -1      1486 1.52542E-03 5.40225E-04-1.13173E-15
 -1      1487 1.38065E-03 5.20967E-04-8.67755E-16
 -1      1488 1.34977E-03 4.87266E-04-9.17967E-16
 -1      1489 1.81788E-03 5.71712E-04-1.76619E-15
 -1      1490 1.67100E-03 5.56939E-04-1.43097E-15
 -1      1491 1.64277E-03 5.23421E-04-1.48370E-15
 -1      1492 2.11588E-03 5.98208E-04-2.54075E-15
 -1      1493 1.96609E-03 5.85288E-04-2.13599E-15
 -1      1494 1.93898E-03 5.51465E-04-2.18998E-15
 -1      1495 2.42014E-03 6.24598E-04-3.45648E-15
 -1      1496 2.26721E-03 6.11153E-04-2.98110E-15
 -1      1497 2.23991E-03 5.76688E-04-3.03647E-15
 -1      1498 2.73025E-03 6.55390E-04-4.51535E-15
 -1      1499 2.57452E-03 6.39228E-04-3.96799E-15
 -1      1500 2.54598E-03 6.03918E-04-4.02341E-15
 -1      1501 3.04463E-03 6.94486E-04-5.71742E-15
 -1      1502 2.88704E-03 6.73773E-04-5.09885E-15
 -1      1503 2.85662E-03 6.37563E-04-5.15180E-15
 -1      1504 3.36040E-03 7.44487E-04-7.06327E-15
 -1      1505 3.20256E-03 7.18147E-04-6.37228E-15
 -1      1506 3.17018E-03 6.81184E-04-6.42284E-15
 -1      1507 3.67359E-03 8.05547E-04-8.54938E-15
 -1      1508 3.51761E-03 7.73878E-04-7.78841E-15
 -1      1509 3.48397E-03 7.36561E-04-7.83561E-15
 -1      1510 3.97962E-03 8.74018E-04-1.01839E-14
 -1      1511 3.82781E-03 8.39366E-04-9.34776E-15
 -1      1512 3.79450E-03 8.02375E-04-9.39170E-15
 -1      1513 4.27450E-03 9.41531E-04-1.19688E-14
 -1      1514 4.12868E-03 9.08642E-04-1.10573E-14
 -1      1515 4.09812E-03 8.72864E-04-1.10969E-14
 -1      1516 4.55638E-03 9.95559E-04-1.39073E-14
 -1      1517 4.41709E-03 9.71071E-04-1.29184E-14
 -1      1518 4.39212E-03 9.37385E-04-1.29526E-14
 -1      1519 4.82690E-03 1.02222E-03-1.60068E-14
 -1      1520 4.69282E-03 1.01298E-03-1.49370E-14
 -1      1521 4.67601E-03 9.81925E-04-1.49654E-14
 -1      1522 5.09142E-03 1.01088E-03-1.82618E-14
 -1      1523 4.95944E-03 1.02154E-03-1.71148E-14
 -1      1524 4.95245E-03 9.93006E-04-1.71361E-14
 -1      1525 5.35756E-03 9.58448E-04-2.06776E-14
 -1      1526 5.22376E-03 9.89494E-04-1.94494E-14
 -1      1527 5.22678E-03 9.62706E-04-1.94657E-14
 -1      1528 5.63254E-03 8.70727E-04-2.32530E-14
 -1      1529 5.49354E-03 9.18251E-04-2.19457E-14
 -1      1530 5.50530E-03 8.92067E-04-2.19560E-14
 -1      1531 5.92077E-03 7.60010E-04-2.59921E-14
 -1      1532 5.77484E-03 8.17330E-04-2.46022E-14
 -1      1533 5.79296E-03 7.90681E-04-2.46071E-14
 -1      1534 6.22289E-03 6.40445E-04-2.88840E-14
 -1      1535 6.07017E-03 7.00538E-04-2.74183E-14
 -1      1536 6.09178E-03 6.72753E-04-2.74164E-14
 -1      1537 6.53640E-03 5.23849E-04-3.19286E-14
 -1      1538 6.37846E-03 5.81253E-04-3.03876E-14
 -1      1539 6.40084E-03 5.52135E-04-3.03807E-14
 -1      1540 6.85714E-03 4.17638E-04-3.51151E-14
 -1      1541 6.69616E-03 4.69210E-04-3.35048E-14
 -1      1542 6.71723E-03 4.38914E-04-3.34921E-14
 -1      1543 7.18079E-03 3.24872E-04-3.84404E-14
 -1      1544 7.01887E-03 3.69557E-04-3.67621E-14
 -1      1545 7.03739E-03 3.38421E-04-3.67420E-14
 -1      1546 7.50376E-03 2.45429E-04-4.18948E-14
 -1      1547 7.34256E-03 2.83594E-04-4.01521E-14
 -1      1548 7.35804E-03 2.51990E-04-4.01237E-14
 -1      1549 7.82361E-03 1.77414E-04-4.54612E-14
 -1      1550 7.66420E-03 2.10153E-04-4.36637E-14
 -1      1551 7.67670E-03 1.78403E-04-4.36291E-14
 -1      1552 8.13898E-03 1.18265E-04-4.91498E-14
 -1      1553 7.98192E-03 1.46895E-04-4.72920E-14
 -1      1554 7.99182E-03 1.15236E-04-4.72521E-14
 -1      1555 8.44939E-03 6.54429E-05-5.29386E-14
 -1      1556 8.29482E-03 9.12065E-05-5.10313E-14
 -1      1557 8.30266E-03 5.97913E-05-5.09844E-14
 -1      1558 8.75493E-03 1.67696E-05-5.68343E-14
 -1      1559 8.60275E-03 4.07021E-05-5.48735E-14
 -1      1560 8.60906E-03 9.61002E-06-5.48196E-14
 -1      1561 9.05607E-03-2.94628E-05-6.08246E-14
 -1      1562 8.90602E-03-6.56670E-06-5.88177E-14
 -1      1563 8.91129E-03-3.73095E-05-5.87563E-14
 -1      1564 9.35343E-03-7.45028E-05-6.49081E-14
 -1      1565 9.20518E-03-5.20724E-05-6.28544E-14
 -1      1566 9.20980E-03-8.24753E-05-6.27874E-14
 -1      1567 9.64767E-03-1.19208E-04-6.90802E-14
 -1      1568 9.50090E-03-9.68581E-05-6.69836E-14
 -1      1569 9.50515E-03-1.26952E-04-6.69098E-14
 -1      1570 9.93943E-03-1.64126E-04-7.33297E-14
 -1      1571 9.79382E-03-1.41617E-04-7.11962E-14
 -1      1572 9.79793E-03-1.71441E-04-7.11165E-14
 -1      1573 1.02293E-02-2.09579E-04-7.76582E-14
 -1      1574 1.00846E-02-1.86773E-04-7.54837E-14
 -1      1575 1.00887E-02-2.16373E-04-7.54009E-14
 -1      1576 1.05177E-02-2.55723E-04-8.20737E-14
 -1      1577 1.03736E-02-2.32559E-04-7.98545E-14
 -1      1578 1.03778E-02-2.61976E-04-7.97688E-14
 -1      1579 1.08050E-02-3.02608E-04-8.65679E-14
 -1      1580 1.06614E-02-2.79073E-04-8.43116E-14
 -1      1581 1.06658E-02-3.08345E-04-8.42194E-14
 -1      1582 1.10916E-02-3.50214E-04-9.11420E-14
 -1      1583 1.09484E-02-3.26324E-04-8.88459E-14
 -1      1584 1.09529E-02-3.55484E-04-8.87467E-14
 -1      1585 1.13777E-02-3.98481E-04-9.57809E-14
 -1      1586 1.12347E-02-3.74270E-04-9.34539E-14
 -1      1587 1.12393E-02-4.03345E-04-9.33446E-14
 -1      1588 1.16635E-02-4.47328E-04-1.00475E-13
 -1      1589 1.15206E-02-4.22838E-04-9.81217E-14
 -1      1590 1.15254E-02-4.51851E-04-9.80010E-14
 -1      1591 1.19490E-02-4.96668E-04-1.05211E-13
 -1      1592 1.18063E-02-4.71942E-04-1.02840E-13
 -1      1593 1.18112E-02-5.00911E-04-1.02710E-13
 -1      1594 1.22345E-02-5.46415E-04-1.09983E-13
 -1      1595 1.20918E-02-5.21496E-04-1.07593E-13
 -1      1596 1.20968E-02-5.50434E-04-1.07460E-13
 -1      1597 1.25199E-02-5.96487E-04-1.14772E-13
 -1      1598 1.23772E-02-5.71415E-04-1.12375E-13
 -1      1599 1.23823E-02-6.00334E-04-1.12240E-13
 -1      1600 1.28053E-02-6.46814E-04-1.19593E-13
 -1      1601 1.26626E-02-6.21623E-04-1.17178E-13
 -1      1602 1.26678E-02-6.50530E-04-1.17043E-13
 -1      1603 1.30908E-02-6.97332E-04-1.24437E-13
 -1      1604 1.29481E-02-6.72053E-04-1.22013E-13
 -1      1605 1.29533E-02-7.00953E-04-1.21875E-13
 -1      1606 1.33763E-02-7.47984E-04-1.29297E-13
 -1      1607 1.32335E-02-7.22644E-04-1.26867E-13
 -1      1608 1.32388E-02-7.51543E-04-1.26726E-13
 -1      1609 1.36619E-02-7.98723E-04-1.34173E-13
 -1      1610 1.35191E-02-7.73345E-04-1.31732E-13
 -1      1611 1.35244E-02-8.02245E-04-1.31592E-13
 -1      1612 1.39475E-02-8.49505E-04-1.39085E-13
 -1      1613 1.38046E-02-8.24111E-04-1.36624E-13
 -1      1614 1.38100E-02-8.53014E-04-1.36485E-13
 -1      1615 1.42331E-02-9.00292E-04-1.44020E-13
 -1      1616 1.40903E-02-8.74899E-04-1.41548E-13
 -1      1617 1.40956E-02-9.03808E-04-1.41405E-13
 -1      1618 1.45188E-02-9.51055E-04-1.48967E-13
 -1      1619 1.43760E-02-9.25677E-04-1.46494E-13
 -1      1620 1.43813E-02-9.54591E-04-1.46347E-13
 -1      1621 1.46741E-02-9.88381E-04-1.51576E-13
 -1      1622 1.47484E-02-1.09588E-03-1.52070E-13
 -1      1623 1.47235E-02-1.05373E-03-1.51955E-13
 -1      1624 1.47983E-02-1.18021E-03-1.52295E-13
 -1      1625 1.47733E-02-1.13804E-03-1.52184E-13
 -1      1626 1.46372E-02-1.09500E-03-1.49979E-13
 -1      1627 1.48481E-02-1.26458E-03-1.52515E-13
 -1      1628 1.48232E-02-1.22239E-03-1.52405E-13
 -1      1629 1.46870E-02-1.17933E-03-1.50204E-13
 -1      1630 1.48979E-02-1.34898E-03-1.52745E-13
 -1      1631 1.48730E-02-1.30678E-03-1.52629E-13
 -1      1632 1.47368E-02-1.26369E-03-1.50432E-13
 -1      1633 1.49470E-02-1.43199E-03-1.52991E-13
 -1      1634 1.49224E-02-1.39048E-03-1.52863E-13
 -1      1635 1.47862E-02-1.34738E-03-1.50668E-13
 -1      1636 1.49970E-02-1.51646E-03-1.53271E-13
 -1      1637 1.49720E-02-1.47422E-03-1.53128E-13
 -1      1638 1.48357E-02-1.43108E-03-1.50917E-13
 -1      1639 1.50470E-02-1.60095E-03-1.53546E-13
 -1      1640 1.50220E-02-1.55871E-03-1.53410E-13
 -1      1641 1.48857E-02-1.51553E-03-1.51177E-13
 -1      1642 1.50972E-02-1.68545E-03-1.53808E-13
 -1      1643 1.50721E-02-1.64320E-03-1.53680E-13
 -1      1644 1.49358E-02-1.59999E-03-1.51432E-13
 -1      1645 1.51475E-02-1.76995E-03-1.54052E-13
 -1      1646 1.51223E-02-1.72770E-03-1.53935E-13
 -1      1647 1.49860E-02-1.68445E-03-1.51678E-13
 -1      1648 1.51979E-02-1.85443E-03-1.54277E-13
 -1      1649 1.51727E-02-1.81219E-03-1.54166E-13
 -1      1650 1.50363E-02-1.76891E-03-1.51908E-13
 -1      1651 1.52475E-02-1.93746E-03-1.54475E-13
 -1      1652 1.52227E-02-1.89595E-03-1.54379E-13
 -1      1653 1.50863E-02-1.85264E-03-1.52115E-13
 -1      1654 1.52980E-02-2.02188E-03-1.54652E-13
 -1      1655 1.52727E-02-1.97967E-03-1.54568E-13
 -1      1656 1.51364E-02-1.93635E-03-1.52300E-13
 -1      1657 1.53486E-02-2.10627E-03-1.54793E-13
 -1      1658 1.53233E-02-2.06408E-03-1.54726E-13
 -1      1659 1.51869E-02-2.02075E-03-1.52460E-13
 -1      1660 1.53992E-02-2.19061E-03-1.54911E-13
 -1      1661 1.53739E-02-2.14844E-03-1.54855E-13
 -1      1662 1.52375E-02-2.10511E-03-1.52593E-13
 -1      1663 1.54030E-02-2.25904E-03-1.54238E-13
 -1      1664 1.53777E-02-2.21689E-03-1.54195E-13
 -1      1665 1.52414E-02-2.17357E-03-1.51937E-13
 -1      1666 1.51985E-02-2.22612E-03-1.50505E-13
 -1      1667 7.49511E-03-2.70123E-04-2.56965E-14
 -1      1668 7.53796E-03-3.15720E-04-2.57793E-14
 -1      1669 7.30618E-03-1.52881E-04-2.52905E-14
 -1      1670 7.40911E-03-2.10032E-04-2.55134E-14
 -1      1671 7.02506E-03-6.52876E-06-2.45941E-14
 -1      1672 7.16422E-03-7.49104E-05-2.49247E-14
 -1      1673 6.66523E-03 1.60480E-04-2.37133E-14
 -1      1674 6.83779E-03 7.75926E-05-2.41617E-14
 -1      1675 6.27679E-03 3.46575E-04-2.25863E-14
 -1      1676 6.46091E-03 2.62718E-04-2.31111E-14
 -1      1677 5.86533E-03 5.07882E-04-2.13862E-14
 -1      1678 6.04844E-03 4.36029E-04-2.19642E-14
 -1      1679 5.47353E-03 6.17917E-04-2.00693E-14
 -1      1680 5.65407E-03 5.75755E-04-2.06712E-14
 -1      1681 5.09452E-03 6.47255E-04-1.87998E-14
 -1      1682 5.26618E-03 6.44362E-04-1.93728E-14
 -1      1683 4.69640E-03 5.90342E-04-1.75224E-14
 -1      1684 4.88350E-03 6.28904E-04-1.81060E-14
 -1      1685 4.28123E-03 4.58376E-04-1.63778E-14
 -1      1686 4.46966E-03 5.25998E-04-1.68851E-14
 -1      1687 3.89869E-03 2.93184E-04-1.54246E-14
 -1      1688 4.07229E-03 3.69697E-04-1.58253E-14
 -1      1689 3.53826E-03 1.40297E-04-1.47255E-14
 -1      1690 3.69407E-03 2.12553E-04-1.50403E-14
 -1      1691 3.24265E-03-1.39525E-05-1.41254E-14
 -1      1692 3.37345E-03 5.08362E-05-1.43605E-14
 -1      1693 3.05279E-03-1.24028E-04-1.38504E-14
 -1      1694 3.12271E-03-7.40100E-05-1.39648E-14
 -1      1695 2.99683E-03-2.22780E-04-1.37597E-14
 -1      1696 3.00648E-03-1.78310E-04-1.37749E-14
 -1      1697 3.06841E-03-3.22304E-04-1.38737E-14
 -1      1698 3.02022E-03-2.75515E-04-1.37961E-14
 -1      1699 3.25624E-03-4.42023E-04-1.41861E-14
 -1      1700 3.15562E-03-3.83411E-04-1.40169E-14
 -1      1701 3.54282E-03-5.93826E-04-1.46968E-14
 -1      1702 3.39928E-03-5.19395E-04-1.44360E-14
 -1      1703 3.91841E-03-7.78380E-04-1.54175E-14
 -1      1704 3.73766E-03-6.86725E-04-1.50460E-14
 -1      1705 4.30366E-03-9.71885E-04-1.63200E-14
 -1      1706 4.12519E-03-8.86264E-04-1.58992E-14
 -1      1707 4.68889E-03-1.13437E-03-1.73264E-14
 -1      1708 4.51187E-03-1.06394E-03-1.68466E-14
 -1      1709 5.10772E-03-1.25297E-03-1.85340E-14
 -1      1710 4.91852E-03-1.20731E-03-1.79380E-14
 -1      1711 5.49854E-03-1.27272E-03-1.98223E-14
 -1      1712 5.32235E-03-1.27464E-03-1.92435E-14
 -1      1713 5.88882E-03-1.20174E-03-2.11291E-14
 -1      1714 5.70819E-03-1.24650E-03-2.05305E-14
 -1      1715 6.28195E-03-1.06229E-03-2.23476E-14
 -1      1716 6.10501E-03-1.13232E-03-2.18013E-14
 -1      1717 6.66166E-03-8.96768E-04-2.34186E-14
 -1      1718 6.49153E-03-9.75766E-04-2.29369E-14
 -1      1719 7.00403E-03-7.30400E-04-2.43426E-14
 -1      1720 6.85110E-03-8.05965E-04-2.39403E-14
 -1      1721 7.28662E-03-5.84600E-04-2.50750E-14
 -1      1722 7.16524E-03-6.48814E-04-2.47645E-14
 -1      1723 7.47758E-03-4.59549E-04-2.56439E-14
 -1      1724 7.40086E-03-5.09846E-04-2.54530E-14
 -1      1725 7.55078E-03-3.66499E-04-2.57564E-14
 -1      1726 7.53285E-03-4.09276E-04-2.57055E-14
 -1      1727 6.50025E-03 1.68094E-04-2.37626E-14
 -1      1728 6.88351E-03-2.15523E-05-2.48180E-14
 -1      1729 1.46795E-02-1.01730E-03-1.51434E-13
 -1      1730 1.45682E-02-1.01640E-03-1.49343E-13
 -1      1731 7.45213E-03-2.77122E-04-2.61975E-14
 -1      1732 7.21619E-03-1.71003E-04-2.56329E-14
 -1      1733 7.55382E-03-3.46991E-04-2.63654E-14
 -1      1734 6.09309E-03 3.73147E-04-2.25219E-14
 -1      1735 5.70851E-03 5.50194E-04-2.11696E-14
 -1      1736 5.35104E-03 6.55599E-04-1.97532E-14
 -1      1737 5.00039E-03 6.62247E-04-1.83660E-14
 -1      1738 4.63195E-03 5.65251E-04-1.70483E-14
 -1      1739 4.23916E-03 3.95117E-04-1.58775E-14
 -1      1740 3.85210E-03 2.10864E-04-1.49644E-14
 -1      1741 3.48660E-03 4.22691E-05-1.42335E-14
 -1      1742 3.19466E-03-8.48059E-05-1.37276E-14
 -1      1743 3.02333E-03-1.68790E-04-1.35002E-14
 -1      1744 2.99947E-03-2.36035E-04-1.34616E-14
 -1      1745 3.11507E-03-3.12666E-04-1.36344E-14
 -1      1746 3.35259E-03-4.24026E-04-1.40145E-14
 -1      1747 3.69250E-03-5.83443E-04-1.45960E-14
 -1      1748 4.08471E-03-7.88328E-04-1.54055E-14
 -1      1749 4.47483E-03-1.00177E-03-1.63971E-14
 -1      1750 4.86486E-03-1.18292E-03-1.75225E-14
 -1      1751 5.22785E-03-1.29050E-03-1.88364E-14
 -1      1752 5.58578E-03-1.28432E-03-2.02582E-14
 -1      1753 5.94436E-03-1.17358E-03-2.16527E-14
 -1      1754 6.32407E-03-9.99521E-04-2.29329E-14
 -1      1755 6.70142E-03-8.10033E-04-2.40633E-14
 -1      1756 7.04841E-03-6.38680E-04-2.50240E-14
 -1      1757 7.33060E-03-5.00818E-04-2.58344E-14
 -1      1758 7.50863E-03-4.12840E-04-2.62807E-14
 -1      1759 2.89661E-04-1.65901E-04-4.68511E-17
 -1      1760 3.36531E-04-9.69280E-05-1.75288E-16
 -1      1761 3.42251E-04-1.13459E-04-1.63105E-16
 -1      1762 3.49420E-04-1.33163E-04-1.48251E-16
 -1      1763 3.59667E-04-1.56281E-04-1.27787E-16
 -1      1764 4.67487E-04-1.62585E-04-2.36559E-16
 -1      1765 3.21554E-04-4.92823E-05-2.01648E-16
 -1      1766 3.24454E-04-5.89560E-05-1.97420E-16
 -1      1767 3.16997E-04-3.22635E-05-2.07340E-16
 -1      1768 3.19059E-04-4.03451E-05-2.04874E-16
 -1      1769 4.30455E-04-6.00747E-05-3.00500E-16
 -1      1770 3.14224E-04-1.77214E-05-2.09509E-16
 -1      1771 3.15391E-04-2.47479E-05-2.08709E-16
 -1      1772 4.24440E-04-3.83185E-05-3.06965E-16
 -1      1773 3.13238E-04-4.34222E-06-2.09102E-16
 -1      1774 3.13510E-04-1.09480E-05-2.09563E-16
 -1      1775 4.21066E-04-1.92864E-05-3.09052E-16
 -1      1776 3.13993E-04 9.07585E-06-2.06419E-16
 -1      1777 3.13404E-04 2.30536E-06-2.08113E-16
 -1      1778 4.20312E-04-1.33184E-06-3.07737E-16
 -1      1779 3.16371E-04 2.36499E-05-2.01404E-16
 -1      1780 3.14985E-04 1.61683E-05-2.04209E-16
 -1      1781 4.22069E-04 1.70583E-05-3.03035E-16
 -1      1782 3.20161E-04 4.01428E-05-1.93042E-16
 -1      1783 3.18086E-04 3.15869E-05-1.97840E-16
 -1      1784 4.26108E-04 3.71140E-05-2.94645E-16
 -1      1785 3.25443E-04 6.02414E-05-1.80587E-16
 -1      1786 3.22604E-04 4.97365E-05-1.87608E-16
 -1      1787 4.32259E-04 6.03361E-05-2.81825E-16
 -1      1788 3.32427E-04 8.51401E-05-1.62359E-16
 -1      1789 3.28668E-04 7.20483E-05-1.72673E-16
 -1      1790 4.40623E-04 8.84646E-05-2.62878E-16
 -1      1791 3.42278E-04 1.17242E-04-1.35173E-16
 -1      1792 3.36812E-04 1.00218E-04-1.50365E-16
 -1      1793 4.51736E-04 1.23338E-04-2.35340E-16
 -1      1794 3.59549E-04 1.61660E-04-9.46237E-17
 -1      1795 3.49530E-04 1.37701E-04-1.17243E-16
 -1      1796 4.68009E-04 1.68349E-04-1.94845E-16
 -1      1797 4.15241E-04 2.18091E-04-6.54858E-17
 -1      1798 3.85753E-04 1.86720E-04-8.44322E-17
 -1      1799 5.06538E-04 2.21828E-04-1.58253E-16
 -1      1800 5.69743E-04 2.80445E-04-1.27977E-16
 -1      1801 3.47279E-04-1.75970E-04-8.90130E-17
 -1      1802 8.73807E-04 3.72704E-04-3.55036E-16
 -1      1803 7.22542E-04 3.31014E-04-2.24986E-16
 -1      1804 6.88536E-04 3.00306E-04-2.44311E-16
 -1      1805 4.69643E-04-2.14811E-04-1.64961E-16
 -1      1806 8.28532E-04-3.35436E-04-4.53413E-16
 -1      1807 9.79621E-04-3.69527E-04-6.39733E-16
 -1      1808 1.12913E-03-3.97406E-04-8.61114E-16
 -1      1809 1.27849E-03-4.19844E-04-1.11819E-15
 -1      1810 1.03188E-03-3.47456E-04-7.94788E-16
 -1      1811 1.42762E-03-4.38319E-04-1.41072E-15
 -1      1812 1.57733E-03-4.53279E-04-1.73902E-15
 -1      1813 1.33043E-03-3.92231E-04-1.31782E-15
 -1      1814 1.72776E-03-4.65831E-04-2.10236E-15
 -1      1815 1.87942E-03-4.76452E-04-2.50074E-15
 -1      1816 1.62930E-03-4.21943E-04-1.98086E-15
 -1      1817 2.03248E-03-4.86097E-04-2.93367E-15
 -1      1818 2.18731E-03-4.95338E-04-3.40132E-15
 -1      1819 1.93078E-03-4.42713E-04-2.78309E-15
 -1      1820 2.34403E-03-5.05165E-04-3.90412E-15
 -1      1821 2.50293E-03-5.16285E-04-4.44110E-15
 -1      1822 2.23692E-03-4.60418E-04-3.72268E-15
 -1      1823 2.66415E-03-5.29842E-04-5.01193E-15
 -1      1824 2.82777E-03-5.46733E-04-5.61739E-15
 -1      1825 2.54950E-03-4.81493E-04-4.79887E-15
 -1      1826 2.99407E-03-5.68284E-04-6.25715E-15
 -1      1827 3.16275E-03-5.95603E-04-6.93052E-15
 -1      1828 2.87027E-03-5.13570E-04-6.01051E-15
 -1      1829 3.33439E-03-6.30066E-04-7.63915E-15
 -1      1830 3.50802E-03-6.72893E-04-8.38179E-15
 -1      1831 3.20101E-03-5.65803E-04-7.35876E-15
 -1      1832 3.68463E-03-7.25092E-04-9.15896E-15
 -1      1833 3.86228E-03-7.87571E-04-9.97225E-15
 -1      1834 3.54337E-03-6.48412E-04-8.84233E-15
 -1      1835 4.04230E-03-8.60180E-04-1.08220E-14
 -1      1836 4.22175E-03-9.42525E-04-1.17090E-14
 -1      1837 3.89794E-03-7.70450E-04-1.04655E-14
 -1      1838 4.40175E-03-1.03235E-03-1.26336E-14
 -1      1839 4.57908E-03-1.12627E-03-1.35985E-14
 -1      1840 4.26208E-03-9.34333E-04-1.22341E-14
 -1      1841 4.75391E-03-1.21942E-03-1.46042E-14
 -1      1842 4.92500E-03-1.30537E-03-1.56511E-14
 -1      1843 4.62731E-03-1.12561E-03-1.41576E-14
 -1      1844 5.09106E-03-1.37791E-03-1.67419E-14
 -1      1845 5.25504E-03-1.43004E-03-1.78764E-14
 -1      1846 4.98178E-03-1.30457E-03-1.62466E-14
 -1      1847 5.41469E-03-1.45779E-03-1.90572E-14
 -1      1848 5.57664E-03-1.45893E-03-2.02826E-14
 -1      1849 5.32043E-03-1.41437E-03-1.85125E-14
 -1      1850 5.73834E-03-1.43461E-03-2.15524E-14
 -1      1851 5.90543E-03-1.38966E-03-2.28664E-14
 -1      1852 5.65410E-03-1.41503E-03-2.09607E-14
 -1      1853 6.07592E-03-1.32943E-03-2.42227E-14
 -1      1854 6.25084E-03-1.26138E-03-2.56198E-14
 -1      1855 5.99960E-03-1.31798E-03-2.35874E-14
 -1      1856 6.42950E-03-1.19154E-03-2.70546E-14
 -1      1857 6.60955E-03-1.12524E-03-2.85285E-14
 -1      1858 6.36124E-03-1.17581E-03-2.63813E-14
 -1      1859 6.79161E-03-1.06634E-03-3.00372E-14
 -1      1860 6.97242E-03-1.01687E-03-3.15796E-14
 -1      1861 6.72949E-03-1.04162E-03-2.93257E-14
 -1      1862 7.15327E-03-9.78157E-04-3.31569E-14
 -1      1863 7.33161E-03-9.49958E-04-3.47668E-14
 -1      1864 7.09309E-03-9.44587E-04-3.24117E-14
 -1      1865 7.50866E-03-9.31907E-04-3.64082E-14
 -1      1866 7.68291E-03-9.22947E-04-3.80810E-14
 -1      1867 7.44612E-03-8.91254E-04-3.56280E-14
 -1      1868 7.85518E-03-9.21956E-04-3.97836E-14
 -1      1869 8.02480E-03-9.27817E-04-4.15146E-14
 -1      1870 7.78756E-03-8.76086E-04-3.89692E-14
 -1      1871 8.19218E-03-9.39297E-04-4.32757E-14
 -1      1872 8.35723E-03-9.55484E-04-4.50633E-14
 -1      1873 8.11858E-03-8.89848E-04-4.24282E-14
 -1      1874 8.52007E-03-9.75342E-04-4.68766E-14
 -1      1875 8.68089E-03-9.98195E-04-4.87144E-14
 -1      1876 8.44080E-03-9.23635E-04-4.59977E-14
 -1      1877 8.83969E-03-1.02328E-03-5.05789E-14
 -1      1878 8.99680E-03-1.05013E-03-5.24648E-14
 -1      1879 8.75570E-03-9.70321E-04-4.96715E-14
 -1      1880 9.15215E-03-1.07823E-03-5.43745E-14
 -1      1881 9.30609E-03-1.10726E-03-5.63106E-14
 -1      1882 9.06452E-03-1.02472E-03-5.34426E-14
 -1      1883 9.45857E-03-1.13689E-03-5.82686E-14
 -1      1884 9.60990E-03-1.16690E-03-6.02502E-14
 -1      1885 9.36832E-03-1.08329E-03-5.73092E-14
 -1      1886 9.76004E-03-1.19712E-03-6.22545E-14
 -1      1887 9.90925E-03-1.22738E-03-6.42789E-14
 -1      1888 9.66798E-03-1.14372E-03-6.12689E-14
 -1      1889 1.00575E-02-1.25761E-03-6.63248E-14
 -1      1890 1.02051E-02-1.28770E-03-6.83916E-14
 -1      1891 9.96430E-03-1.20457E-03-6.53144E-14
 -1      1892 1.03519E-02-1.31761E-03-7.04786E-14
 -1      1893 1.04981E-02-1.34728E-03-7.25836E-14
 -1      1894 1.02579E-02-1.26499E-03-6.94462E-14
 -1      1895 1.06438E-02-1.37672E-03-7.47070E-14
 -1      1896 1.07890E-02-1.40588E-03-7.68507E-14
 -1      1897 1.05495E-02-1.32453E-03-7.36536E-14
 -1      1898 1.09339E-02-1.43477E-03-7.90117E-14
 -1      1899 1.10784E-02-1.46338E-03-8.11905E-14
 -1      1900 1.08394E-02-1.38299E-03-7.79374E-14
 -1      1901 1.12226E-02-1.49174E-03-8.33876E-14
 -1      1902 1.13665E-02-1.51982E-03-8.56010E-14
 -1      1903 1.11280E-02-1.44032E-03-8.22936E-14
 -1      1904 1.15102E-02-1.54767E-03-8.78315E-14
 -1      1905 1.16538E-02-1.57528E-03-9.00792E-14
 -1      1906 1.14157E-02-1.49658E-03-8.67197E-14
 -1      1907 1.17972E-02-1.60268E-03-9.23420E-14
 -1      1908 1.19404E-02-1.62987E-03-9.46199E-14
 -1      1909 1.17027E-02-1.55185E-03-9.12137E-14
 -1      1910 1.20836E-02-1.65687E-03-9.69123E-14
 -1      1911 1.22267E-02-1.68370E-03-9.92215E-14
 -1      1912 1.19893E-02-1.60627E-03-9.57690E-14
 -1      1913 1.23697E-02-1.71038E-03-1.01547E-13
 -1      1914 1.25126E-02-1.73691E-03-1.03885E-13
 -1      1915 1.22755E-02-1.65995E-03-1.00387E-13
 -1      1916 1.26555E-02-1.76331E-03-1.06240E-13
 -1      1917 1.27984E-02-1.78960E-03-1.08611E-13
 -1      1918 1.25614E-02-1.71303E-03-1.05066E-13
 -1      1919 1.29412E-02-1.81578E-03-1.11001E-13
 -1      1920 1.30840E-02-1.84188E-03-1.13406E-13
 -1      1921 1.28472E-02-1.76561E-03-1.09807E-13
 -1      1922 1.32268E-02-1.86789E-03-1.15827E-13
 -1      1923 1.33696E-02-1.89384E-03-1.18266E-13
 -1      1924 1.31329E-02-1.81781E-03-1.14613E-13
 -1      1925 1.35124E-02-1.91972E-03-1.20720E-13
 -1      1926 1.36552E-02-1.94555E-03-1.23190E-13
 -1      1927 1.34185E-02-1.86969E-03-1.19482E-13
 -1      1928 1.37980E-02-1.97133E-03-1.25677E-13
 -1      1929 1.39408E-02-1.99708E-03-1.28173E-13
 -1      1930 1.37042E-02-1.92135E-03-1.24414E-13
 -1      1931 1.40835E-02-2.02280E-03-1.30682E-13
 -1      1932 1.42264E-02-2.04849E-03-1.33201E-13
 -1      1933 1.39898E-02-1.97284E-03-1.29403E-13
 -1      1934 1.43692E-02-2.07417E-03-1.35731E-13
 -1      1935 1.45120E-02-2.09983E-03-1.38264E-13
 -1      1936 1.42754E-02-2.02423E-03-1.34434E-13
 -1      1937 1.46548E-02-2.12548E-03-1.40806E-13
 -1      1938 1.47976E-02-2.15113E-03-1.43355E-13
 -1      1939 1.45611E-02-2.07555E-03-1.39500E-13
 -1      1940 1.49266E-02-2.17579E-03-1.45641E-13
 -1      1941 1.50695E-02-2.20145E-03-1.48202E-13
 -1      1942 1.50909E-02-2.17518E-03-1.48916E-13
 -1      1943 1.48329E-02-2.12585E-03-1.44328E-13
 -1      1944 1.17083E-03 4.34914E-04-7.14679E-16
 -1      1945 1.02268E-03 4.06798E-04-5.17896E-16
 -1      1946 9.89283E-04 3.76960E-04-5.39797E-16
 -1      1947 1.46528E-03 4.78079E-04-1.21107E-15
 -1      1948 1.31801E-03 4.58426E-04-9.45533E-16
 -1      1949 1.28613E-03 4.29521E-04-9.68924E-16
 -1      1950 1.76074E-03 5.09617E-04-1.84661E-15
 -1      1951 1.61267E-03 4.94973E-04-1.51116E-15
 -1      1952 1.58193E-03 4.66506E-04-1.53463E-15
 -1      1953 2.05938E-03 5.35325E-04-2.62122E-15
 -1      1954 1.90955E-03 5.22919E-04-2.21631E-15
 -1      1955 1.87924E-03 4.94400E-04-2.23869E-15
 -1      1956 2.36233E-03 5.60315E-04-3.53577E-15
 -1      1957 2.21028E-03 5.47655E-04-3.06107E-15
 -1      1958 2.17972E-03 5.18665E-04-3.08156E-15
 -1      1959 2.66979E-03 5.89333E-04-4.59006E-15
 -1      1960 2.51553E-03 5.74097E-04-4.04556E-15
 -1      1961 2.48423E-03 5.44295E-04-4.06355E-15
 -1      1962 2.98105E-03 6.26594E-04-5.78544E-15
 -1      1963 2.82506E-03 6.06771E-04-5.16971E-15
 -1      1964 2.79288E-03 5.75920E-04-5.18445E-15
 -1      1965 3.29451E-03 6.75147E-04-7.12221E-15
 -1      1966 3.13771E-03 6.49415E-04-6.43592E-15
 -1      1967 3.10498E-03 6.17456E-04-6.44527E-15
 -1      1968 3.60761E-03 7.35732E-04-8.60031E-15
 -1      1969 3.45139E-03 7.04085E-04-7.84371E-15
 -1      1970 3.41899E-03 6.71252E-04-7.84778E-15
 -1      1971 3.91721E-03 8.05328E-04-1.02250E-14
 -1      1972 3.76317E-03 7.69821E-04-9.39437E-15
 -1      1973 3.73249E-03 7.36751E-04-9.39286E-15
 -1      1974 4.22014E-03 8.75954E-04-1.19978E-14
 -1      1975 4.06976E-03 8.41204E-04-1.10923E-14
 -1      1976 4.04242E-03 8.08950E-04-1.10842E-14
 -1      1977 4.51444E-03 9.34873E-04-1.39236E-14
 -1      1978 4.36844E-03 9.07727E-04-1.29413E-14
 -1      1979 4.34588E-03 8.77526E-04-1.29255E-14
 -1      1980 4.80054E-03 9.67194E-04-1.60077E-14
 -1      1981 4.65830E-03 9.55101E-04-1.49461E-14
 -1      1982 4.64140E-03 9.27907E-04-1.49221E-14
 -1      1983 5.08186E-03 9.60787E-04-1.82498E-14
 -1      1984 4.94133E-03 9.69160E-04-1.71087E-14
 -1      1985 4.93026E-03 9.45132E-04-1.70766E-14
 -1      1986 5.36382E-03 9.11290E-04-2.06515E-14
 -1      1987 5.22221E-03 9.41176E-04-1.94306E-14
 -1      1988 5.21666E-03 9.19549E-04-1.93912E-14
 -1      1989 5.65177E-03 8.24109E-04-2.32142E-14
 -1      1990 5.50662E-03 8.71686E-04-2.19127E-14
 -1      1991 5.50608E-03 8.51144E-04-2.18654E-14
 -1      1992 5.94887E-03 7.12041E-04-2.59383E-14
 -1      1993 5.79901E-03 7.70282E-04-2.45558E-14
 -1      1994 5.80279E-03 7.49593E-04-2.45010E-14
 -1      1995 6.25535E-03 5.90174E-04-2.88177E-14
 -1      1996 6.10102E-03 6.51553E-04-2.73586E-14
 -1      1997 6.10815E-03 6.29977E-04-2.72959E-14
 -1      1998 6.56917E-03 4.71179E-04-3.18494E-14
 -1      1999 6.41158E-03 5.29821E-04-3.03150E-14
 -1      2000 6.42080E-03 5.07151E-04-3.02459E-14
 -1      2001 6.88724E-03 3.63004E-04-3.50232E-14
 -1      2002 6.72795E-03 4.15531E-04-3.34196E-14
 -1      2003 6.73793E-03 3.91901E-04-3.33430E-14
 -1      2004 7.20648E-03 2.68916E-04-3.83321E-14
 -1      2005 7.04696E-03 3.14204E-04-3.66620E-14
 -1      2006 7.05651E-03 2.89879E-04-3.65788E-14
 -1      2007 7.52445E-03 1.88786E-04-4.17703E-14
 -1      2008 7.36581E-03 2.27228E-04-4.00343E-14
 -1      2009 7.37411E-03 2.02482E-04-3.99433E-14
 -1      2010 7.83950E-03 1.20600E-04-4.53241E-14
 -1      2011 7.68245E-03 1.53363E-04-4.35327E-14
 -1      2012 7.68909E-03 1.28423E-04-4.34330E-14
 -1      2013 8.15076E-03 6.16496E-05-4.89983E-14
 -1      2014 7.99566E-03 9.01307E-05-4.71474E-14
 -1      2015 8.00053E-03 6.51667E-05-4.70406E-14
 -1      2016 8.45790E-03 9.25587E-06-5.27725E-14
 -1      2017 8.30486E-03 3.47692E-05-5.08723E-14
 -1      2018 8.30810E-03 9.89769E-06-5.07580E-14
 -1      2019 8.76105E-03-3.88729E-05-5.66537E-14
 -1      2020 8.60996E-03-1.52363E-05-5.47006E-14
 -1      2021 8.61183E-03-3.99433E-05-5.45794E-14
 -1      2022 9.06054E-03-8.45261E-05-6.06305E-14
 -1      2023 8.91122E-03-6.19330E-05-5.86293E-14
 -1      2024 8.91200E-03-8.64384E-05-5.85010E-14
 -1      2025 9.35687E-03-1.29006E-04-6.47013E-14
 -1      2026 9.20906E-03-1.06862E-04-6.26545E-14
 -1      2027 9.20904E-03-1.31154E-04-6.25196E-14
 -1      2028 9.65054E-03-1.73202E-04-6.88604E-14
 -1      2029 9.50399E-03-1.51108E-04-6.67701E-14
 -1      2030 9.50341E-03-1.75193E-04-6.66287E-14
 -1      2031 9.94206E-03-2.17679E-04-7.31007E-14
 -1      2032 9.79653E-03-1.95387E-04-7.09716E-14
 -1      2033 9.79559E-03-2.19283E-04-7.08243E-14
 -1      2034 1.02319E-02-2.62760E-04-7.74222E-14
 -1      2035 1.00872E-02-2.40135E-04-7.52508E-14
 -1      2036 1.00860E-02-2.63864E-04-7.50984E-14
 -1      2037 1.05204E-02-3.08601E-04-8.18279E-14
 -1      2038 1.03763E-02-2.85584E-04-7.96152E-14
 -1      2039 1.03750E-02-3.09169E-04-7.94582E-14
 -1      2040 1.08080E-02-3.55245E-04-8.63090E-14
 -1      2041 1.06643E-02-3.31825E-04-8.40592E-14
 -1      2042 1.06630E-02-3.55293E-04-8.38969E-14
 -1      2043 1.10948E-02-4.02664E-04-9.08649E-14
 -1      2044 1.09515E-02-3.78862E-04-8.85780E-14
 -1      2045 1.09502E-02-4.02234E-04-8.84091E-14
 -1      2046 1.13812E-02-4.50788E-04-9.54834E-14
 -1      2047 1.12380E-02-4.26643E-04-9.31664E-14
 -1      2048 1.12368E-02-4.49940E-04-9.29876E-14
 -1      2049 1.16672E-02-4.99530E-04-1.00159E-13
 -1      2050 1.15242E-02-4.75088E-04-9.78139E-14
 -1      2051 1.15230E-02-4.98326E-04-9.76268E-14
 -1      2052 1.19529E-02-5.48794E-04-1.04884E-13
 -1      2053 1.18101E-02-5.24102E-04-1.02517E-13
 -1      2054 1.18090E-02-5.47297E-04-1.02323E-13
 -1      2055 1.22386E-02-5.98488E-04-1.09647E-13
 -1      2056 1.20958E-02-5.73593E-04-1.07262E-13
 -1      2057 1.20948E-02-5.96754E-04-1.07064E-13
 -1      2058 1.25241E-02-6.48526E-04-1.14437E-13
 -1      2059 1.23814E-02-6.23469E-04-1.12039E-13
 -1      2060 1.23804E-02-6.46607E-04-1.11838E-13
 -1      2061 1.28097E-02-6.98832E-04-1.19254E-13
 -1      2062 1.26669E-02-6.73649E-04-1.16841E-13
 -1      2063 1.26660E-02-6.96772E-04-1.16637E-13
 -1      2064 1.30952E-02-7.49338E-04-1.24092E-13
 -1      2065 1.29525E-02-7.24063E-04-1.21672E-13
 -1      2066 1.29516E-02-7.47176E-04-1.21467E-13
 -1      2067 1.33808E-02-7.99988E-04-1.28951E-13
 -1      2068 1.32380E-02-7.74648E-04-1.26520E-13
 -1      2069 1.32372E-02-7.97756E-04-1.26313E-13
 -1      2070 1.36664E-02-8.50729E-04-1.33828E-13
 -1      2071 1.35236E-02-8.25349E-04-1.31386E-13
 -1      2072 1.35228E-02-8.48455E-04-1.31180E-13
 -1      2073 1.39520E-02-9.01517E-04-1.38736E-13
 -1      2074 1.38092E-02-8.76119E-04-1.36280E-13
 -1      2075 1.38084E-02-8.99226E-04-1.36071E-13
 -1      2076 1.42377E-02-9.52314E-04-1.43666E-13
 -1      2077 1.40949E-02-9.26916E-04-1.41199E-13
 -1      2078 1.40941E-02-9.50026E-04-1.40990E-13
 -1      2079 1.44744E-02-9.97056E-04-1.47740E-13
 -1      2080 1.43315E-02-9.71671E-04-1.45265E-13
 -1      2081 1.43307E-02-9.94785E-04-1.45058E-13
 -1      2082 1.45184E-02-1.03349E-03-1.48261E-13
 -1      2083 1.46255E-02-1.26279E-03-1.48354E-13
 -1      2084 1.46006E-02-1.22061E-03-1.48236E-13
 -1      2085 1.45757E-02-1.17843E-03-1.48119E-13
 -1      2086 1.45508E-02-1.13626E-03-1.48006E-13
 -1      2087 1.44644E-02-1.17752E-03-1.46037E-13
 -1      2088 1.45471E-02-1.10595E-03-1.48190E-13
 -1      2089 1.45222E-02-1.06379E-03-1.48076E-13
 -1      2090 1.44283E-02-1.04444E-03-1.46472E-13
 -1      2091 1.44358E-02-1.10504E-03-1.46104E-13
 -1      2092 1.46746E-02-1.34575E-03-1.48587E-13
 -1      2093 1.46500E-02-1.30427E-03-1.48470E-13
 -1      2094 1.45138E-02-1.26116E-03-1.46270E-13
 -1      2095 1.47245E-02-1.43015E-03-1.48833E-13
 -1      2096 1.46995E-02-1.38795E-03-1.48708E-13
 -1      2097 1.45633E-02-1.34482E-03-1.46503E-13
 -1      2098 1.47745E-02-1.51457E-03-1.49078E-13
 -1      2099 1.47495E-02-1.47236E-03-1.48957E-13
 -1      2100 1.46133E-02-1.42920E-03-1.46739E-13
 -1      2101 1.48246E-02-1.59901E-03-1.49319E-13
 -1      2102 1.47996E-02-1.55679E-03-1.49200E-13
 -1      2103 1.46633E-02-1.51360E-03-1.46972E-13
 -1      2104 1.48749E-02-1.68344E-03-1.49549E-13
 -1      2105 1.48497E-02-1.64122E-03-1.49434E-13
 -1      2106 1.47135E-02-1.59801E-03-1.47198E-13
 -1      2107 1.49252E-02-1.76787E-03-1.49762E-13
 -1      2108 1.49000E-02-1.72565E-03-1.49657E-13
 -1      2109 1.47637E-02-1.68241E-03-1.47412E-13
 -1      2110 1.49748E-02-1.85085E-03-1.49953E-13
 -1      2111 1.49500E-02-1.80936E-03-1.49860E-13
 -1      2112 1.48136E-02-1.76610E-03-1.47611E-13
 -1      2113 1.50253E-02-1.93525E-03-1.50127E-13
 -1      2114 1.50000E-02-1.89305E-03-1.50044E-13
 -1      2115 1.48637E-02-1.84977E-03-1.47792E-13
 -1      2116 1.50758E-02-2.01962E-03-1.50273E-13
 -1      2117 1.50506E-02-1.97744E-03-1.50202E-13
 -1      2118 1.49142E-02-1.93415E-03-1.47951E-13
 -1      2119 1.51264E-02-2.10397E-03-1.50394E-13
 -1      2120 1.51011E-02-2.06180E-03-1.50336E-13
 -1      2121 1.49648E-02-2.01850E-03-1.48086E-13
 -1      2122 7.12016E-03-1.80556E-04-2.60063E-14
 -1      2123 7.26519E-03-2.37032E-04-2.63886E-14
 -1      2124 7.55153E-03-3.47800E-04-2.71190E-14
 -1      2125 7.56383E-03-3.63551E-04-2.70988E-14
 -1      2126 7.40367E-03-2.95092E-04-2.69001E-14
 -1      2127 7.49216E-03-3.22236E-04-2.70948E-14
 -1      2128 6.76252E-03-3.24483E-05-2.52003E-14
 -1      2129 6.94072E-03-1.12108E-04-2.56515E-14
 -1      2130 6.35021E-03 1.91593E-04-2.38448E-14
 -1      2131 6.53858E-03 8.59068E-05-2.44644E-14
 -1      2132 3.27790E-04-7.00584E-05-1.91836E-16
 -1      2133 3.31772E-04-8.25045E-05-1.84314E-16
 -1      2134 4.50804E-04-1.19410E-04-2.68570E-16
 -1      2135 4.39082E-04-8.63552E-05-2.88384E-16
 -1      2136 5.57972E-03 5.96795E-04-2.09716E-14
 -1      2137 5.73737E-03 5.18389E-04-2.16968E-14
 -1      2138 5.26188E-03 6.84325E-04-1.94385E-14
 -1      2139 5.41023E-03 6.54264E-04-2.01355E-14
 -1      2140 4.93909E-03 6.64975E-04-1.79689E-14
 -1      2141 5.08995E-03 6.89463E-04-1.86551E-14
 -1      2142 4.57455E-03 5.29051E-04-1.64971E-14
 -1      2143 4.74225E-03 6.05087E-04-1.71166E-14
 -1      2144 4.22384E-03 3.49332E-04-1.54178E-14
 -1      2145 4.40191E-03 4.46305E-04-1.59524E-14
 -1      2146 4.51439E-03 4.94567E-04-1.60169E-14
 -1      2147 3.78500E-03 1.31873E-04-1.44262E-14
 -1      2148 3.96672E-03 2.19099E-04-1.47892E-14
 -1      2149 3.44209E-03-2.30684E-05-1.37265E-14
 -1      2150 3.60799E-03 5.05865E-05-1.40735E-14
 -1      2151 3.70729E-03 7.37233E-05-1.39030E-14
 -1      2152 3.13545E-03-1.38555E-04-1.31811E-14
 -1      2153 3.25401E-03-1.00915E-04-1.33268E-14
 -1      2154 2.99815E-03-1.89945E-04-1.30824E-14
 -1      2155 3.04683E-03-1.68893E-04-1.31540E-14
 -1      2156 3.00833E-03-2.31536E-04-1.30464E-14
 -1      2157 2.98409E-03-2.14357E-04-1.30134E-14
 -1      2158 3.16696E-03-2.91492E-04-1.32539E-14
 -1      2159 3.07635E-03-2.60890E-04-1.31211E-14
 -1      2160 3.44797E-03-4.07008E-04-1.37493E-14
 -1      2161 3.30321E-03-3.48825E-04-1.35145E-14
 -1      2162 3.82010E-03-5.74714E-04-1.43542E-14
 -1      2163 3.63593E-03-4.86132E-04-1.40257E-14
 -1      2164 4.24490E-03-8.11919E-04-1.53035E-14
 -1      2165 4.05823E-03-7.00390E-04-1.48418E-14
 -1      2166 4.61052E-03-1.04021E-03-1.64437E-14
 -1      2167 4.43747E-03-9.36982E-04-1.59315E-14
 -1      2168 4.96570E-03-1.22082E-03-1.76292E-14
 -1      2169 4.79527E-03-1.13845E-03-1.70283E-14
 -1      2170 5.33061E-03-1.32200E-03-1.92051E-14
 -1      2171 5.18074E-03-1.29539E-03-1.84954E-14
 -1      2172 5.63073E-03-1.28813E-03-2.06201E-14
 -1      2173 5.48157E-03-1.31911E-03-1.99054E-14
 -1      2174 5.40606E-03-1.33347E-03-1.95509E-14
 -1      2175 6.00133E-03-1.13468E-03-2.22694E-14
 -1      2176 5.83904E-03-1.21508E-03-2.15807E-14
 -1      2177 6.37732E-03-9.33851E-04-2.36099E-14
 -1      2178 6.20270E-03-1.03154E-03-2.30014E-14
 -1      2179 6.74483E-03-7.31991E-04-2.48584E-14
 -1      2180 6.57133E-03-8.25028E-04-2.43175E-14
 -1      2181 7.09929E-03-5.66829E-04-2.58112E-14
 -1      2182 6.94114E-03-6.38953E-04-2.53762E-14
 -1      2183 7.37003E-03-4.52437E-04-2.66452E-14
 -1      2184 7.24966E-03-5.00499E-04-2.62597E-14
 -1      2185 7.54270E-03-3.84730E-04-2.70302E-14
 -1      2186 7.48769E-03-4.05744E-04-2.69650E-14
 -1      2187 7.56275E-03-3.73713E-04-2.77838E-14
 -1      2188 5.96418E-03 4.00638E-04-2.25810E-14
 -1      2189 6.14758E-03 2.97755E-04-2.32202E-14
 -1      2190 6.63200E-03 3.84164E-06-2.52817E-14
 -1      2191 6.22695E-04-2.68733E-04-2.71986E-16
 -1      2192 6.22288E-03 2.27849E-04-2.39051E-14
 -1      2193 5.82875E-03 4.57256E-04-2.23738E-14
 -1      2194 6.79674E-04-2.58306E-04-3.72722E-16
 -1      2195 7.33568E-03-2.89595E-04-2.72755E-14
 -1      2196 7.53105E-03-3.47025E-04-2.78248E-14
 -1      2197 1.51050E-02-2.13026E-03-1.49685E-13
 -1      2198 7.01880E-03-1.73728E-04-2.63958E-14
 -1      2199 7.43768E-03-4.18849E-04-2.73911E-14
 -1      2200 7.16666E-03-5.17164E-04-2.66123E-14
 -1      2201 6.83036E-03-6.68583E-04-2.56316E-14
 -1      2202 6.46109E-03-8.67185E-04-2.43846E-14
 -1      2203 5.72467E-03-1.26432E-03-2.12123E-14
 -1      2204 5.08877E-03-1.26808E-03-1.79795E-14
 -1      2205 4.72399E-03-1.08526E-03-1.65456E-14
 -1      2206 4.36670E-03-8.60287E-04-1.53452E-14
 -1      2207 3.95891E-03-6.14429E-04-1.42528E-14
 -1      2208 3.55347E-03-4.17358E-04-1.35132E-14
 -1      2209 3.23573E-03-2.93786E-04-1.29911E-14
 -1      2210 3.03437E-03-2.30163E-04-1.26679E-14
 -1      2211 2.98124E-03-1.99870E-04-1.26652E-14
 -1      2212 3.34486E-03-7.73104E-05-1.31663E-14
 -1      2213 4.11915E-03 2.82417E-04-1.48590E-14
 -1      2214 4.84175E-03 6.43292E-04-1.73920E-14
 -1      2215 5.48076E-03 6.33584E-04-2.06436E-14
 -1      2216 5.17164E-03 6.98135E-04-1.90237E-14
 -1      2217 3.08297E-03-1.61752E-04-1.27578E-14
 -1      2218 6.09037E-03-1.08170E-03-2.29262E-14
 -1      2219 1.04232E-03 3.55398E-04-6.91843E-16
 -1      2220 8.93062E-04 3.24676E-04-5.04100E-16
 -1      2221 5.32739E-04-4.19258E-05-4.37001E-16
 -1      2222 5.35910E-04-5.44466E-05-4.34196E-16
 -1      2223 5.40017E-04-6.79492E-05-4.30008E-16
 -1      2224 5.44991E-04-8.25994E-05-4.23977E-16
 -1      2225 6.49754E-04-7.29032E-05-5.85822E-16
 -1      2226 5.28966E-04 3.87696E-06-4.35605E-16
 -1      2227 5.28587E-04-7.37212E-06-4.37665E-16
 -1      2228 5.32214E-04 2.73592E-05-4.27853E-16
 -1      2229 5.30193E-04 1.54072E-05-4.32366E-16
 -1      2230 6.39133E-04 1.13018E-05-5.88017E-16
 -1      2231 5.38422E-04 5.30099E-05-4.15331E-16
 -1      2232 5.34973E-04 3.97899E-05-4.22392E-16
 -1      2233 6.44345E-04 3.97065E-05-5.76660E-16
 -1      2234 5.47604E-04 8.33282E-05-3.96167E-16
 -1      2235 5.42676E-04 6.75606E-05-4.06644E-16
 -1      2236 6.53369E-04 7.15412E-05-5.58391E-16
 -1      2237 5.59836E-04 1.19714E-04-3.68534E-16
 -1      2238 5.53340E-04 1.00675E-04-3.83618E-16
 -1      2239 6.66118E-04 1.08922E-04-5.31489E-16
 -1      2240 5.76174E-04 1.64555E-04-3.29028E-16
 -1      2241 5.67449E-04 1.40942E-04-3.50780E-16
 -1      2242 6.82855E-04 1.53568E-04-4.93380E-16
 -1      2243 1.33915E-03 4.02597E-04-1.16710E-15
 -1      2244 1.19082E-03 3.81236E-04-9.12532E-16
 -1      2245 1.09671E-03 3.33260E-04-8.51885E-16
 -1      2246 9.37085E-04-2.98714E-04-7.25372E-16
 -1      2247 1.08573E-03-3.25114E-04-9.56795E-16
 -1      2248 6.14040E-03 2.58531E-04-2.40939E-14
 -1      2249 6.31225E-03 1.55035E-04-2.47368E-14
 -1      2250 1.23400E-03-3.46861E-04-1.22251E-15
 -1      2251 1.38247E-03-3.64467E-04-1.52306E-15
 -1      2252 1.13955E-03-3.02551E-04-1.12550E-15
 -1      2253 1.53091E-03-3.78941E-04-1.85796E-15
 -1      2254 1.67979E-03-3.90702E-04-2.22779E-15
 -1      2255 1.43366E-03-3.36894E-04-1.73396E-15
 -1      2256 1.82908E-03-4.00690E-04-2.63143E-15
 -1      2257 1.97916E-03-4.09371E-04-3.06923E-15
 -1      2258 1.72832E-03-3.59928E-04-2.47912E-15
 -1      2259 2.13008E-03-4.17667E-04-3.54113E-15
 -1      2260 2.28217E-03-4.26159E-04-4.04696E-15
 -1      2261 2.02437E-03-3.76732E-04-3.35955E-15
 -1      2262 2.43557E-03-4.35828E-04-4.58582E-15
 -1      2263 2.59058E-03-4.47459E-04-5.15873E-15
 -1      2264 2.32312E-03-3.92739E-04-4.37369E-15
 -1      2265 2.74750E-03-4.62124E-04-5.76529E-15
 -1      2266 2.90657E-03-4.80922E-04-6.40545E-15
 -1      2267 2.62643E-03-4.14164E-04-5.52115E-15
 -1      2268 3.06843E-03-5.04962E-04-7.07901E-15
 -1      2269 3.23307E-03-5.35777E-04-7.78679E-15
 -1      2270 2.93718E-03-4.48507E-04-6.80181E-15
 -1      2271 3.40166E-03-5.74309E-04-8.52744E-15
 -1      2272 3.57361E-03-6.22495E-04-9.30243E-15
 -1      2273 3.25969E-03-5.05004E-04-8.21522E-15
 -1      2274 3.75066E-03-6.80721E-04-1.01124E-14
 -1      2275 3.93099E-03-7.50752E-04-1.09576E-14
 -1      2276 3.59969E-03-5.94684E-04-9.76302E-15
 -1      2277 4.11651E-03-8.31764E-04-1.18390E-14
 -1      2278 4.30358E-03-9.23568E-04-1.27577E-14
 -1      2279 3.96218E-03-7.28926E-04-1.14482E-14
 -1      2280 4.49337E-03-1.02322E-03-1.37149E-14
 -1      2281 4.68088E-03-1.12473E-03-1.47136E-14
 -1      2282 4.34585E-03-9.13205E-04-1.32786E-14
 -1      2283 4.86540E-03-1.22270E-03-1.57554E-14
 -1      2284 5.04590E-03-1.30587E-03-1.68398E-14
 -1      2285 4.73572E-03-1.12742E-03-1.52672E-14
 -1      2286 5.21933E-03-1.36802E-03-1.79708E-14
 -1      2287 5.39254E-03-1.39910E-03-1.91475E-14
 -1      2288 5.11058E-03-1.31061E-03-1.74311E-14
 -1      2289 5.56246E-03-1.39736E-03-2.03703E-14
 -1      2290 5.73802E-03-1.36566E-03-2.16395E-14
 -1      2291 5.46859E-03-1.37833E-03-1.97809E-14
 -1      2292 5.91642E-03-1.30794E-03-2.29517E-14
 -1      2293 6.10088E-03-1.23689E-03-2.43089E-14
 -1      2294 5.83233E-03-1.30257E-03-2.23170E-14
 -1      2295 6.28917E-03-1.15886E-03-2.57065E-14
 -1      2296 6.47818E-03-1.08314E-03-2.71431E-14
 -1      2297 6.21587E-03-1.14448E-03-2.50317E-14
 -1      2298 6.66788E-03-1.01430E-03-2.86162E-14
 -1      2299 6.85359E-03-9.55602E-04-3.01251E-14
 -1      2300 6.60659E-03-9.86160E-04-2.79078E-14
 -1      2301 7.03687E-03-9.09104E-04-3.16692E-14
 -1      2302 7.21490E-03-8.73782E-04-3.32438E-14
 -1      2303 6.98370E-03-8.71602E-04-3.09275E-14
 -1      2304 7.38956E-03-8.50037E-04-3.48515E-14
 -1      2305 7.55967E-03-8.35881E-04-3.64903E-14
 -1      2306 7.33812E-03-8.07641E-04-3.40775E-14
 -1      2307 7.72670E-03-8.30780E-04-3.81583E-14
 -1      2308 7.89039E-03-8.32978E-04-3.98557E-14
 -1      2309 7.67195E-03-7.85514E-04-3.73507E-14
 -1      2310 8.05161E-03-8.41580E-04-4.15837E-14
 -1      2311 8.21053E-03-8.55321E-04-4.33386E-14
 -1      2312 7.99088E-03-7.94218E-04-4.07417E-14
 -1      2313 8.36754E-03-8.73287E-04-4.51221E-14
 -1      2314 8.52295E-03-8.94646E-04-4.69312E-14
 -1      2315 8.30008E-03-8.24235E-04-4.42480E-14
 -1      2316 8.67686E-03-9.18628E-04-4.87662E-14
 -1      2317 8.82959E-03-9.44696E-04-5.06271E-14
 -1      2318 8.60307E-03-8.68274E-04-4.78648E-14
 -1      2319 8.98113E-03-9.72274E-04-5.25112E-14
 -1      2320 9.13177E-03-1.00102E-03-5.44186E-14
 -1      2321 8.90198E-03-9.21022E-04-5.15802E-14
 -1      2322 9.28144E-03-1.03053E-03-5.63512E-14
 -1      2323 9.43039E-03-1.06059E-03-5.83072E-14
 -1      2324 9.19800E-03-9.78748E-04-5.53945E-14
 -1      2325 9.57855E-03-1.09094E-03-6.02849E-14
 -1      2326 9.72614E-03-1.12145E-03-6.22853E-14
 -1      2327 9.49184E-03-1.03893E-03-5.93029E-14
 -1      2328 9.87307E-03-1.15197E-03-6.43086E-14
 -1      2329 1.00195E-02-1.18240E-03-6.63512E-14
 -1      2330 9.78395E-03-1.09994E-03-6.33021E-14
 -1      2331 1.01655E-02-1.21267E-03-6.84133E-14
 -1      2332 1.03111E-02-1.24273E-03-7.04982E-14
 -1      2333 1.00746E-02-1.16076E-03-6.73856E-14
 -1      2334 1.04562E-02-1.27254E-03-7.26026E-14
 -1      2335 1.06011E-02-1.30207E-03-7.47239E-14
 -1      2336 1.03642E-02-1.22084E-03-7.15498E-14
 -1      2337 1.07456E-02-1.33133E-03-7.68644E-14
 -1      2338 1.08900E-02-1.36029E-03-7.90236E-14
 -1      2339 1.06528E-02-1.27987E-03-7.57929E-14
 -1      2340 1.10340E-02-1.38898E-03-8.12021E-14
 -1      2341 1.11779E-02-1.41738E-03-8.33974E-14
 -1      2342 1.09406E-02-1.33777E-03-8.01110E-14
 -1      2343 1.13216E-02-1.44552E-03-8.56088E-14
 -1      2344 1.14652E-02-1.47339E-03-8.78380E-14
 -1      2345 1.12279E-02-1.39454E-03-8.44992E-14
 -1      2346 1.16086E-02-1.50104E-03-9.00853E-14
 -1      2347 1.17519E-02-1.52845E-03-9.23469E-14
 -1      2348 1.15147E-02-1.45027E-03-8.89565E-14
 -1      2349 1.18951E-02-1.55566E-03-9.46243E-14
 -1      2350 1.20383E-02-1.58268E-03-9.69189E-14
 -1      2351 1.18012E-02-1.50508E-03-9.34800E-14
 -1      2352 1.21814E-02-1.60952E-03-9.92269E-14
 -1      2353 1.23244E-02-1.63620E-03-1.01552E-13
 -1      2354 1.20874E-02-1.55910E-03-9.80672E-14
 -1      2355 1.24674E-02-1.66273E-03-1.03892E-13
 -1      2356 1.26103E-02-1.68914E-03-1.06245E-13
 -1      2357 1.23734E-02-1.61244E-03-1.02714E-13
 -1      2358 1.27532E-02-1.71543E-03-1.08613E-13
 -1      2359 1.28961E-02-1.74161E-03-1.10999E-13
 -1      2360 1.26593E-02-1.66524E-03-1.07421E-13
 -1      2361 1.30390E-02-1.76771E-03-1.13400E-13
 -1      2362 1.31819E-02-1.79372E-03-1.15816E-13
 -1      2363 1.29451E-02-1.71760E-03-1.12187E-13
 -1      2364 1.33247E-02-1.81966E-03-1.18249E-13
 -1      2365 1.34675E-02-1.84553E-03-1.20696E-13
 -1      2366 1.32308E-02-1.76961E-03-1.17018E-13
 -1      2367 1.36104E-02-1.87136E-03-1.23156E-13
 -1      2368 1.37532E-02-1.89714E-03-1.25634E-13
 -1      2369 1.35166E-02-1.82136E-03-1.21904E-13
 -1      2370 1.38960E-02-1.92288E-03-1.28127E-13
 -1      2371 1.40389E-02-1.94860E-03-1.30626E-13
 -1      2372 1.38023E-02-1.87292E-03-1.26849E-13
 -1      2373 1.41817E-02-1.97428E-03-1.33137E-13
 -1      2374 1.43245E-02-1.99995E-03-1.35661E-13
 -1      2375 1.40879E-02-1.92434E-03-1.31846E-13
 -1      2376 1.44674E-02-2.02561E-03-1.38192E-13
 -1      2377 1.46102E-02-2.05126E-03-1.40731E-13
 -1      2378 1.43736E-02-1.97567E-03-1.36885E-13
 -1      2379 1.93381E-03 4.61879E-04-2.52658E-15
 -1      2380 1.78447E-03 4.49689E-04-2.13523E-15
 -1      2381 2.23483E-03 4.85122E-04-3.41247E-15
 -1      2382 2.08391E-03 4.73544E-04-2.95234E-15
 -1      2383 1.98744E-03 4.29081E-04-2.82027E-15
 -1      2384 2.53968E-03 5.10777E-04-4.43573E-15
 -1      2385 2.38679E-03 4.97384E-04-3.90680E-15
 -1      2386 2.28861E-03 4.51302E-04-3.74840E-15
 -1      2387 2.84871E-03 5.43437E-04-5.59756E-15
 -1      2388 2.69375E-03 5.25989E-04-4.99941E-15
 -1      2389 2.59379E-03 4.76912E-04-4.81246E-15
 -1      2390 3.16167E-03 5.86932E-04-6.89817E-15
 -1      2391 3.00486E-03 5.63653E-04-6.23008E-15
 -1      2392 2.90370E-03 5.10468E-04-6.01407E-15
 -1      2393 3.47743E-03 6.43377E-04-8.33945E-15
 -1      2394 3.31945E-03 6.13506E-04-7.60152E-15
 -1      2395 3.21848E-03 5.55767E-04-7.35428E-15
 -1      2396 3.79382E-03 7.11683E-04-9.92362E-15
 -1      2397 3.63586E-03 6.76271E-04-9.11329E-15
 -1      2398 3.53734E-03 6.14790E-04-8.83420E-15
 -1      2399 4.10773E-03 7.85898E-04-1.16537E-14
 -1      2400 3.95141E-03 7.48646E-04-1.07702E-14
 -1      2401 3.85806E-03 6.86043E-04-1.04558E-14
 -1      2402 4.41585E-03 8.54257E-04-1.35345E-14
 -1      2403 4.26268E-03 8.21756E-04-1.25751E-14
 -1      2404 4.17697E-03 7.62564E-04-1.22248E-14
 -1      2405 4.71639E-03 9.00655E-04-1.55719E-14
 -1      2406 4.56691E-03 8.81288E-04-1.45334E-14
 -1      2407 4.48997E-03 8.30856E-04-1.41451E-14
 -1      2408 5.01086E-03 9.09430E-04-1.77667E-14
 -1      2409 4.86388E-03 9.10514E-04-1.66491E-14
 -1      2410 4.79499E-03 8.72775E-04-1.62216E-14
 -1      2411 5.30403E-03 8.72144E-04-2.01236E-14
 -1      2412 5.15695E-03 8.96638E-04-1.89253E-14
 -1      2413 5.09427E-03 8.71939E-04-1.84585E-14
 -1      2414 5.60156E-03 7.91679E-04-2.26407E-14
 -1      2415 5.45174E-03 8.36659E-04-2.13619E-14
 -1      2416 5.39368E-03 8.21613E-04-2.08579E-14
 -1      2417 5.90688E-03 6.80933E-04-2.53195E-14
 -1      2418 5.75311E-03 7.39046E-04-2.39595E-14
 -1      2419 5.69919E-03 7.28449E-04-2.34185E-14
 -1      2420 6.21982E-03 5.56743E-04-2.81564E-14
 -1      2421 6.06257E-03 6.19507E-04-2.67183E-14
 -1      2422 6.01306E-03 6.08927E-04-2.61405E-14
 -1      2423 6.53768E-03 4.33793E-04-3.11466E-14
 -1      2424 6.37846E-03 4.94412E-04-2.96332E-14
 -1      2425 6.33327E-03 4.81338E-04-2.90196E-14
 -1      2426 6.85714E-03 3.21462E-04-3.42798E-14
 -1      2427 6.69754E-03 3.75951E-04-3.26958E-14
 -1      2428 6.65583E-03 3.59598E-04-3.20494E-14
 -1      2429 7.17546E-03 2.23778E-04-3.75494E-14
 -1      2430 7.01668E-03 2.70713E-04-3.58978E-14
 -1      2431 6.97705E-03 2.51265E-04-3.52193E-14
 -1      2432 7.49091E-03 1.40886E-04-4.09453E-14
 -1      2433 7.33369E-03 1.80566E-04-3.92312E-14
 -1      2434 7.29463E-03 1.58585E-04-3.85205E-14
 -1      2435 7.80266E-03 7.07933E-05-4.44617E-14
 -1      2436 7.64732E-03 1.04393E-04-4.26888E-14
 -1      2437 7.60764E-03 8.05006E-05-4.19458E-14
 -1      2438 8.11049E-03 1.06842E-05-4.80984E-14
 -1      2439 7.95709E-03 3.96564E-05-4.62658E-14
 -1      2440 7.91605E-03 1.44210E-05-4.54937E-14
 -1      2441 8.41450E-03-4.22707E-05-5.18387E-14
 -1      2442 8.26296E-03-1.65374E-05-4.99556E-14
 -1      2443 8.22026E-03-4.26378E-05-4.91547E-14
 -1      2444 8.71505E-03-9.05207E-05-5.56856E-14
 -1      2445 8.56518E-03-6.68609E-05-5.37496E-14
 -1      2446 8.52080E-03-9.34433E-05-5.29226E-14
 -1      2447 9.01253E-03-1.35997E-04-5.96310E-14
 -1      2448 8.86413E-03-1.13512E-04-5.76464E-14
 -1      2449 8.81825E-03-1.40286E-04-5.67916E-14
 -1      2450 9.30739E-03-1.80119E-04-6.36699E-14
 -1      2451 9.16025E-03-1.58160E-04-6.16377E-14
 -1      2452 9.11312E-03-1.84920E-04-6.07595E-14
 -1      2453 9.60009E-03-2.23864E-04-6.77982E-14
 -1      2454 9.45398E-03-2.01992E-04-6.57232E-14
 -1      2455 9.40588E-03-2.28603E-04-6.48202E-14
 -1      2456 9.89101E-03-2.67859E-04-7.20125E-14
 -1      2457 9.74574E-03-2.45800E-04-6.98956E-14
 -1      2458 9.69694E-03-2.72182E-04-6.89694E-14
 -1      2459 1.01805E-02-3.12472E-04-7.63082E-14
 -1      2460 1.00359E-02-2.90071E-04-7.41504E-14
 -1      2461 9.98663E-03-3.16186E-04-7.32033E-14
 -1      2462 1.04689E-02-3.57882E-04-8.06864E-14
 -1      2463 1.03248E-02-3.35068E-04-7.84865E-14
 -1      2464 1.02752E-02-3.60911E-04-7.75177E-14
 -1      2465 1.07565E-02-4.04147E-04-8.51405E-14
 -1      2466 1.06128E-02-3.80905E-04-8.29044E-14
 -1      2467 1.05630E-02-4.06487E-04-8.19127E-14
 -1      2468 1.10435E-02-4.51241E-04-8.96667E-14
 -1      2469 1.09000E-02-4.27591E-04-8.73954E-14
 -1      2470 1.08502E-02-4.52936E-04-8.63841E-14
 -1      2471 1.13299E-02-4.99097E-04-9.42543E-14
 -1      2472 1.11867E-02-4.75077E-04-9.19531E-14
 -1      2473 1.11369E-02-5.00215E-04-9.09210E-14
 -1      2474 1.16161E-02-5.47621E-04-9.89036E-14
 -1      2475 1.14731E-02-5.23280E-04-9.65729E-14
 -1      2476 1.14232E-02-5.48241E-04-9.55197E-14
 -1      2477 1.19020E-02-5.96713E-04-1.03607E-13
 -1      2478 1.17591E-02-5.72101E-04-1.01248E-13
 -1      2479 1.17093E-02-5.96917E-04-1.00177E-13
 -1      2480 1.21878E-02-6.46274E-04-1.08353E-13
 -1      2481 1.20450E-02-6.21440E-04-1.05974E-13
 -1      2482 1.19952E-02-6.46138E-04-1.04888E-13
 -1      2483 1.24735E-02-6.96212E-04-1.13133E-13
 -1      2484 1.23307E-02-6.71200E-04-1.10740E-13
 -1      2485 1.22810E-02-6.95806E-04-1.09642E-13
 -1      2486 1.27592E-02-7.46446E-04-1.17941E-13
 -1      2487 1.26164E-02-7.21296E-04-1.15533E-13
 -1      2488 1.25667E-02-7.45831E-04-1.14428E-13
 -1      2489 1.30448E-02-7.96903E-04-1.22772E-13
 -1      2490 1.29020E-02-7.71650E-04-1.20354E-13
 -1      2491 1.28524E-02-7.96133E-04-1.19240E-13
 -1      2492 1.33305E-02-8.47521E-04-1.27626E-13
 -1      2493 1.31876E-02-8.22195E-04-1.25196E-13
 -1      2494 1.31381E-02-8.46641E-04-1.24079E-13
 -1      2495 1.36161E-02-8.98247E-04-1.32499E-13
 -1      2496 1.34733E-02-8.72873E-04-1.30060E-13
 -1      2497 1.34237E-02-8.97297E-04-1.28939E-13
 -1      2498 1.39018E-02-9.49035E-04-1.37400E-13
 -1      2499 1.37589E-02-9.23636E-04-1.34946E-13
 -1      2500 1.37094E-02-9.48049E-04-1.33821E-13
 -1      2501 1.41874E-02-9.99843E-04-1.42322E-13
 -1      2502 1.40446E-02-9.74439E-04-1.39858E-13
 -1      2503 1.39951E-02-9.98851E-04-1.38728E-13
 -1      2504 1.43345E-02-1.02508E-03-1.44872E-13
 -1      2505 1.44520E-02-1.34387E-03-1.44412E-13
 -1      2506 1.44271E-02-1.30169E-03-1.44299E-13
 -1      2507 1.45020E-02-1.42824E-03-1.44638E-13
 -1      2508 1.44770E-02-1.38605E-03-1.44526E-13
 -1      2509 1.43408E-02-1.34291E-03-1.42321E-13
 -1      2510 1.43532E-02-1.17659E-03-1.43954E-13
 -1      2511 1.43283E-02-1.13443E-03-1.43837E-13
 -1      2512 1.44024E-02-1.25987E-03-1.44185E-13
 -1      2513 1.43779E-02-1.21841E-03-1.44071E-13
 -1      2514 1.42417E-02-1.17530E-03-1.41873E-13
 -1      2515 1.42911E-02-1.25892E-03-1.42101E-13
 -1      2516 1.45521E-02-1.51262E-03-1.44860E-13
 -1      2517 1.45270E-02-1.47043E-03-1.44750E-13
 -1      2518 1.43908E-02-1.42726E-03-1.42535E-13
 -1      2519 1.46023E-02-1.59700E-03-1.45074E-13
 -1      2520 1.45772E-02-1.55481E-03-1.44967E-13
 -1      2521 1.44409E-02-1.51162E-03-1.42745E-13
 -1      2522 1.46526E-02-1.68138E-03-1.45272E-13
 -1      2523 1.46274E-02-1.63919E-03-1.45172E-13
 -1      2524 1.44911E-02-1.59597E-03-1.42943E-13
 -1      2525 1.47021E-02-1.76432E-03-1.45457E-13
 -1      2526 1.46773E-02-1.72285E-03-1.45366E-13
 -1      2527 1.45410E-02-1.67961E-03-1.43129E-13
 -1      2528 1.47526E-02-1.84869E-03-1.45628E-13
 -1      2529 1.47273E-02-1.80651E-03-1.45545E-13
 -1      2530 1.45910E-02-1.76325E-03-1.43304E-13
 -1      2531 1.48031E-02-1.93304E-03-1.45773E-13
 -1      2532 1.47778E-02-1.89087E-03-1.45702E-13
 -1      2533 1.46415E-02-1.84760E-03-1.43462E-13
 -1      2534 1.48537E-02-2.01738E-03-1.45898E-13
 -1      2535 1.48284E-02-1.97521E-03-1.45838E-13
 -1      2536 1.46920E-02-1.93194E-03-1.43600E-13
 -1      2537 7.51618E-03-3.54451E-04-2.86789E-14
 -1      2538 7.56831E-03-3.63960E-04-2.87098E-14
 -1      2539 6.95064E-03-1.68488E-04-2.69028E-14
 -1      2540 7.11191E-03-2.29549E-04-2.72740E-14
 -1      2541 1.63571E-03 4.36119E-04-1.77850E-15
 -1      2542 1.48732E-03 4.20757E-04-1.45555E-15
 -1      2543 1.68923E-03 4.05411E-04-2.02854E-15
 -1      2544 5.73680E-03 5.03247E-04-2.22649E-14
 -1      2545 5.92410E-03 3.88290E-04-2.31663E-14
 -1      2546 1.49760E-02-2.10560E-03-1.47384E-13
 -1      2547 7.49701E-03-4.01005E-04-2.83476E-14
 -1      2548 7.38720E-03-4.30866E-04-2.80194E-14
 -1      2549 7.26987E-03-2.86016E-04-2.77946E-14
 -1      2550 7.40250E-03-3.24543E-04-2.83215E-14
 -1      2551 7.21333E-03-2.73349E-04-2.83112E-14
 -1      2552 7.58133E-03-3.72323E-04-2.86397E-14
 -1      2553 7.56809E-03-3.78392E-04-2.85710E-14
 -1      2554 7.59037E-03-3.74248E-04-2.95007E-14
 -1      2555 5.16993E-03-1.30330E-03-1.82159E-14
 -1      2556 4.99622E-03-1.22818E-03-1.73593E-14
 -1      2557 4.77857E-03 6.26373E-04-1.68883E-14
 -1      2558 4.93894E-03 6.82657E-04-1.77312E-14
 -1      2559 5.29078E-04-1.86255E-05-4.38695E-16
 -1      2560 5.30451E-04-3.00409E-05-4.38614E-16
 -1      2561 6.41595E-04-4.30607E-05-5.93140E-16
 -1      2562 6.38098E-04-1.57093E-05-5.93668E-16
 -1      2563 5.10463E-03 7.05752E-04-1.86437E-14
 -1      2564 5.24081E-03 7.00282E-04-1.94253E-14
 -1      2565 3.02384E-03-1.75644E-04-1.22651E-14
 -1      2566 3.09757E-03-1.57300E-04-1.22843E-14
 -1      2567 5.38360E-03 6.69461E-04-2.02428E-14
 -1      2568 5.52263E-03 6.13690E-04-2.10814E-14
 -1      2569 5.30317E-03 6.91797E-04-1.98436E-14
 -1      2570 4.42890E-03 4.52800E-04-1.53898E-14
 -1      2571 4.56762E-03 5.31297E-04-1.59167E-14
 -1      2572 4.00344E-03 2.14400E-04-1.41703E-14
 -1      2573 4.22481E-03 3.37925E-04-1.47736E-14
 -1      2574 4.29038E-03 3.90256E-04-1.46758E-14
 -1      2575 3.62586E-03 3.00937E-05-1.33625E-14
 -1      2576 3.78472E-03 1.03622E-04-1.36979E-14
 -1      2577 6.18940E-03-1.02285E-03-2.36954E-14
 -1      2578 6.02294E-03-1.12476E-03-2.29444E-14
 -1      2579 3.26605E-03-1.05634E-04-1.25586E-14
 -1      2580 3.44332E-03-4.52928E-05-1.29401E-14
 -1      2581 2.96525E-03-1.97005E-04-1.21272E-14
 -1      2582 2.97840E-03-1.90463E-04-1.21952E-14
 -1      2583 2.97606E-03-1.78250E-04-1.17295E-14
 -1      2584 3.05589E-03-2.23546E-04-1.22237E-14
 -1      2585 2.99358E-03-2.10356E-04-1.21559E-14
 -1      2586 3.30820E-03-2.99138E-04-1.26278E-14
 -1      2587 3.17848E-03-2.58736E-04-1.23812E-14
 -1      2588 3.62085E-03-4.23829E-04-1.31371E-14
 -1      2589 3.45473E-03-3.54809E-04-1.28796E-14
 -1      2590 3.36375E-03-3.14982E-04-1.22621E-14
 -1      2591 4.06170E-03-6.51553E-04-1.40063E-14
 -1      2592 3.85394E-03-5.35948E-04-1.35438E-14
 -1      2593 4.50813E-03-9.33866E-04-1.54349E-14
 -1      2594 4.33338E-03-8.18489E-04-1.48212E-14
 -1      2595 4.83496E-03-1.14139E-03-1.66646E-14
 -1      2596 4.68429E-03-1.04585E-03-1.60913E-14
 -1      2597 4.61792E-03-1.00258E-03-1.55430E-14
 -1      2598 4.93163E-03-1.19610E-03-1.68841E-14
 -1      2599 5.48213E-03-1.34213E-03-1.99836E-14
 -1      2600 5.36606E-03-1.34473E-03-1.92784E-14
 -1      2601 5.81304E-03-1.23633E-03-2.19045E-14
 -1      2602 5.64511E-03-1.30655E-03-2.09310E-14
 -1      2603 5.58846E-03-1.33398E-03-2.06420E-14
 -1      2604 6.52839E-03-8.21586E-04-2.51329E-14
 -1      2605 6.35577E-03-9.23770E-04-2.44085E-14
 -1      2606 6.28092E-03-9.78149E-04-2.44237E-14
 -1      2607 6.92864E-03-6.11971E-04-2.65532E-14
 -1      2608 6.75567E-03-6.97998E-04-2.60182E-14
 -1      2609 7.23415E-03-4.84283E-04-2.74715E-14
 -1      2610 7.09289E-03-5.38735E-04-2.70113E-14
 -1      2611 6.00794E-04-2.06033E-04-3.46199E-16
 -1      2612 7.98894E-04-2.63494E-04-5.52198E-16
 -1      2613 8.56206E-04-2.48596E-04-6.79009E-16
 -1      2614 5.88417E-04-1.77918E-04-3.70011E-16
 -1      2615 7.75500E-04 3.00451E-04-3.70756E-16
 -1      2616 6.25050E-04 2.57373E-04-2.42699E-16
 -1      2617 5.97228E-04 2.30622E-04-2.53378E-16
 -1      2618 8.31611E-04 2.85158E-04-4.89707E-16
 -1      2619 6.51562E-03 4.19501E-05-2.54804E-14
 -1      2620 6.72067E-03-6.54497E-05-2.62370E-14
 -1      2621 6.42983E-03 8.40997E-05-2.56729E-14
 -1      2622 4.67166E-03 5.93565E-04-1.62315E-14
 -1      2623 6.62573E-04-1.07468E-04-5.70697E-16
 -1      2624 5.50939E-04-9.87409E-05-4.16076E-16
 -1      2625 5.57728E-04-1.16614E-04-4.05790E-16
 -1      2626 1.39275E-03 3.75269E-04-1.37286E-15
 -1      2627 5.83030E-04 1.99507E-04-2.85863E-16
 -1      2628 7.33309E-03-4.55033E-04-2.84234E-14
 -1      2629 1.42850E-02-1.04950E-03-1.43736E-13
 -1      2630 6.84200E-03-1.25586E-04-2.71049E-14
 -1      2631 1.42887E-02-1.07980E-03-1.43553E-13
 -1      2632 5.77925E-04-1.53268E-04-3.88958E-16
 -1      2633 5.26389E-03-1.33323E-03-1.86226E-14
 -1      2634 7.47941E-03-3.48526E-04-2.92059E-14
 -1      2635 7.55280E-03-3.92915E-04-2.92059E-14
 -1      2636 7.01490E-04 2.17207E-04-4.19302E-16
 -1      2637 5.62944E-03 5.61588E-04-2.18417E-14
 -1      2638 5.73415E-03 5.05099E-04-2.26167E-14
 -1      2639 5.54055E-03 6.09012E-04-2.14210E-14
 -1      2640 1.48363E-02-2.09408E-03-1.44735E-13
 -1      2641 1.48503E-02-2.04916E-03-1.45495E-13
 -1      2642 1.47140E-02-2.00588E-03-1.43258E-13
 -1      2643 1.47073E-02-2.06943E-03-1.42449E-13
 -1      2644 3.72048E-03-4.69359E-04-1.28984E-14
 -1      2645 2.95920E-03-1.95693E-04-1.16892E-14
 -1      2646 3.16342E-03-1.31586E-04-1.20619E-14
 -1      2647 3.23024E-03-9.78766E-05-1.18376E-14
 -1      2648 3.07654E-03-1.42311E-04-1.15766E-14
 -1      2649 5.01663E-03 7.02873E-04-1.81115E-14
 -1      2650 6.65443E-03-7.60616E-04-2.60378E-14
 -1      2651 3.89547E-03 1.69233E-04-1.36144E-14
 -1      2652 6.03385E-03 3.20892E-04-2.39767E-14
 -1      2653 3.51128E-03-8.98724E-06-1.27400E-14
 -1      2654 5.92577E-03-1.19037E-03-2.26462E-14
 -1      2655 3.10052E-03-2.32278E-04-1.18679E-14
 -1      2656 4.19418E-03-7.34027E-04-1.40824E-14
 -1      2657 1.41775E-02-1.07887E-03-1.41473E-13
 -1      2658 7.02405E-03-5.74979E-04-2.74044E-14
 -1      2659 1.46136E-02-2.01949E-03-1.41135E-13
 -1      2660 7.58735E-04 5.41410E-05-7.48384E-16
 -1      2661 7.54306E-04 3.71105E-05-7.57464E-16
 -1      2662 7.50979E-04 2.06084E-05-7.64525E-16
 -1      2663 7.48958E-04 4.72866E-06-7.69892E-16
 -1      2664 8.64555E-04 3.17632E-05-9.64330E-16
 -1      2665 7.88001E-04 1.36474E-04-6.86829E-16
 -1      2666 7.79054E-04 1.13416E-04-7.06697E-16
 -1      2667 8.09737E-04 1.88985E-04-6.36616E-16
 -1      2668 7.98257E-04 1.61593E-04-6.63830E-16
 -1      2669 9.13131E-04 1.65645E-04-8.61683E-16
 -1      2670 1.15227E-03 3.10675E-04-1.02059E-15
 -1      2671 1.00512E-03 2.86929E-04-7.87510E-16
 -1      2672 6.35845E-03 1.30850E-04-2.59296E-14
 -1      2673 6.53615E-03 2.98496E-05-2.66961E-14
 -1      2674 8.16757E-04 2.39264E-04-5.57104E-16
 -1      2675 4.57083E-03 5.68327E-04-1.55476E-14
 -1      2676 4.75467E-03 6.47895E-04-1.65052E-14
 -1      2677 1.33859E-03-2.96401E-04-1.60920E-15
 -1      2678 1.48406E-03-3.09724E-04-1.95114E-15
 -1      2679 1.62946E-03-3.20750E-04-2.32639E-15
 -1      2680 1.77506E-03-3.29845E-04-2.73529E-15
 -1      2681 1.53317E-03-2.83078E-04-2.17359E-15
 -1      2682 1.92071E-03-3.37788E-04-3.17759E-15
 -1      2683 2.06673E-03-3.45012E-04-3.65323E-15
 -1      2684 1.81977E-03-3.00620E-04-2.99637E-15
 -1      2685 2.21308E-03-3.52325E-04-4.16212E-15
 -1      2686 2.36015E-03-3.60302E-04-4.70331E-15
 -1      2687 2.10619E-03-3.14332E-04-3.95074E-15
 -1      2688 2.50806E-03-3.69775E-04-5.27798E-15
 -1      2689 2.65732E-03-3.81592E-04-5.88567E-15
 -1      2690 2.39334E-03-3.28851E-04-5.03630E-15
 -1      2691 2.80835E-03-3.96570E-04-6.52657E-15
 -1      2692 2.96180E-03-4.16047E-04-7.19993E-15
 -1      2693 2.68336E-03-3.49545E-04-6.25296E-15
 -1      2694 3.11859E-03-4.40719E-04-7.90550E-15
 -1      2695 3.27942E-03-4.72795E-04-8.64447E-15
 -1      2696 2.98053E-03-3.83043E-04-7.59928E-15
 -1      2697 3.44597E-03-5.12624E-04-9.41658E-15
 -1      2698 3.61838E-03-5.63671E-04-1.02226E-14
 -1      2699 3.29235E-03-4.38402E-04-9.07495E-15
 -1      2700 3.79933E-03-6.25736E-04-1.10618E-14
 -1      2701 3.98671E-03-7.02819E-04-1.19366E-14
 -1      2702 3.62978E-03-5.29003E-04-1.06813E-14
 -1      2703 5.36262E-03-1.36354E-03-1.91401E-14
 -1      2704 5.54784E-03-1.35983E-03-2.03596E-14
 -1      2705 5.68791E-03-1.32356E-03-2.13219E-14
 -1      2706 5.88261E-03-1.25413E-03-2.26233E-14
 -1      2707 6.13761E-03-1.13886E-03-2.43552E-14
 -1      2708 6.34046E-03-1.04805E-03-2.57566E-14
 -1      2709 6.54394E-03-9.64550E-04-2.71954E-14
 -1      2710 6.73991E-03-8.94397E-04-2.86726E-14
 -1      2711 6.48462E-03-9.45019E-04-2.64860E-14
 -1      2712 6.93066E-03-8.39970E-04-3.01831E-14
 -1      2713 7.11247E-03-7.98734E-04-3.17266E-14
 -1      2714 6.88200E-03-8.06474E-04-2.94423E-14
 -1      2715 7.28778E-03-7.71291E-04-3.33015E-14
 -1      2716 7.45599E-03-7.54057E-04-3.49074E-14
 -1      2717 7.24264E-03-7.32933E-04-3.25287E-14
 -1      2718 7.61910E-03-7.46749E-04-3.65434E-14
 -1      2719 7.77761E-03-7.46825E-04-3.82075E-14
 -1      2720 7.57152E-03-7.07120E-04-3.57387E-14
 -1      2721 7.93276E-03-7.53689E-04-3.99021E-14
 -1      2722 8.08528E-03-7.65670E-04-4.16249E-14
 -1      2723 7.87953E-03-7.13409E-04-3.90665E-14
 -1      2724 8.23583E-03-7.82110E-04-4.33759E-14
 -1      2725 8.38497E-03-8.02017E-04-4.51563E-14
 -1      2726 8.17592E-03-7.40892E-04-4.25090E-14
 -1      2727 8.53295E-03-8.24762E-04-4.69627E-14
 -1      2728 8.68020E-03-8.49740E-04-4.87947E-14
 -1      2729 8.46658E-03-7.82408E-04-4.60649E-14
 -1      2730 8.82676E-03-8.76426E-04-5.06518E-14
 -1      2731 8.97292E-03-9.04446E-04-5.25336E-14
 -1      2732 8.75470E-03-8.32986E-04-4.97266E-14
 -1      2733 9.11863E-03-9.33401E-04-5.44398E-14
 -1      2734 9.26409E-03-9.63058E-04-5.63697E-14
 -1      2735 9.04186E-03-8.89081E-04-5.34878E-14
 -1      2736 9.40922E-03-9.93136E-04-5.83239E-14
 -1      2737 9.55418E-03-1.02349E-03-6.02992E-14
 -1      2738 9.32871E-03-9.48191E-04-5.73462E-14
 -1      2739 9.69888E-03-1.05394E-03-6.22981E-14
 -1      2740 9.84343E-03-1.08438E-03-6.43188E-14
 -1      2741 9.61547E-03-1.00861E-03-6.12978E-14
 -1      2742 9.98777E-03-1.11473E-03-6.63577E-14
 -1      2743 1.01320E-02-1.14491E-03-6.84171E-14
 -1      2744 9.90220E-03-1.06921E-03-6.53326E-14
 -1      2745 1.02760E-02-1.17488E-03-7.04993E-14
 -1      2746 1.04199E-02-1.20460E-03-7.26021E-14
 -1      2747 1.01888E-02-1.12930E-03-6.94516E-14
 -1      2748 1.05637E-02-1.23406E-03-7.47238E-14
 -1      2749 1.07074E-02-1.26323E-03-7.68621E-14
 -1      2750 1.04754E-02-1.18852E-03-7.36537E-14
 -1      2751 1.08510E-02-1.29213E-03-7.90197E-14
 -1      2752 1.09944E-02-1.32074E-03-8.11979E-14
 -1      2753 1.07618E-02-1.24669E-03-7.79334E-14
 -1      2754 1.11378E-02-1.34909E-03-8.33929E-14
 -1      2755 1.12811E-02-1.37716E-03-8.56034E-14
 -1      2756 1.10481E-02-1.30377E-03-8.22866E-14
 -1      2757 1.14244E-02-1.40500E-03-8.78317E-14
 -1      2758 1.15676E-02-1.43259E-03-9.00760E-14
 -1      2759 1.13343E-02-1.35981E-03-8.67082E-14
 -1      2760 1.17107E-02-1.45997E-03-9.23371E-14
 -1      2761 1.18538E-02-1.48713E-03-9.46147E-14
 -1      2762 1.16204E-02-1.41491E-03-9.11958E-14
 -1      2763 1.19968E-02-1.51412E-03-9.69073E-14
 -1      2764 1.21398E-02-1.54093E-03-9.92161E-14
 -1      2765 1.19064E-02-1.46918E-03-9.57492E-14
 -1      2766 1.22828E-02-1.56758E-03-1.01540E-13
 -1      2767 1.24258E-02-1.59409E-03-1.03878E-13
 -1      2768 1.21923E-02-1.52275E-03-1.00366E-13
 -1      2769 1.25687E-02-1.62048E-03-1.06232E-13
 -1      2770 1.27116E-02-1.64675E-03-1.08598E-13
 -1      2771 1.24782E-02-1.57573E-03-1.05041E-13
 -1      2772 1.28545E-02-1.67292E-03-1.10979E-13
 -1      2773 1.29974E-02-1.69899E-03-1.13378E-13
 -1      2774 1.27640E-02-1.62824E-03-1.09774E-13
 -1      2775 1.31403E-02-1.72499E-03-1.15791E-13
 -1      2776 1.32832E-02-1.75092E-03-1.18218E-13
 -1      2777 1.30497E-02-1.68037E-03-1.14567E-13
 -1      2778 1.34260E-02-1.77679E-03-1.20661E-13
 -1      2779 1.35689E-02-1.80260E-03-1.23114E-13
 -1      2780 1.33355E-02-1.73221E-03-1.19416E-13
 -1      2781 1.37117E-02-1.82838E-03-1.25583E-13
 -1      2782 1.38546E-02-1.85411E-03-1.28068E-13
 -1      2783 1.36212E-02-1.78383E-03-1.24322E-13
 -1      2784 1.39975E-02-1.87982E-03-1.30565E-13
 -1      2785 1.41403E-02-1.90550E-03-1.33070E-13
 -1      2786 1.39070E-02-1.83529E-03-1.29283E-13
 -1      2787 1.42832E-02-1.93116E-03-1.35587E-13
 -1      2788 1.44260E-02-1.95681E-03-1.38117E-13
 -1      2789 1.41927E-02-1.88665E-03-1.34293E-13
 -1      2790 2.34116E-03 4.16938E-04-4.08873E-15
 -1      2791 2.19021E-03 4.06188E-04-3.58748E-15
 -1      2792 3.77859E-03-5.06580E-04-1.25598E-14
 -1      2793 3.57827E-03-4.07789E-04-1.21784E-14
 -1      2794 2.04020E-03 3.95875E-04-3.12008E-15
 -1      2795 1.89102E-03 3.85496E-04-2.68599E-15
 -1      2796 2.09196E-03 3.62309E-04-3.42521E-15
 -1      2797 2.95777E-03 4.76372E-04-6.43471E-15
 -1      2798 2.80153E-03 4.57926E-04-5.79693E-15
 -1      2799 3.27516E-03 5.23175E-04-7.81324E-15
 -1      2800 3.11581E-03 4.97965E-04-7.10648E-15
 -1      2801 3.01115E-03 4.41031E-04-6.85910E-15
 -1      2802 3.59827E-03 5.84734E-04-9.33098E-15
 -1      2803 3.43627E-03 5.52075E-04-8.55479E-15
 -1      2804 3.33193E-03 4.89165E-04-8.27535E-15
 -1      2805 3.92460E-03 6.59296E-04-1.09906E-14
 -1      2806 3.76143E-03 6.20687E-04-1.01431E-14
 -1      2807 3.66032E-03 5.53481E-04-9.83016E-15
 -1      2808 4.24963E-03 7.39013E-04-1.27971E-14
 -1      2809 4.08777E-03 6.99412E-04-1.18755E-14
 -1      2810 3.99327E-03 6.32283E-04-1.15272E-14
 -1      2811 4.56789E-03 8.08150E-04-1.47568E-14
 -1      2812 4.40981E-03 7.76355E-04-1.37572E-14
 -1      2813 4.32476E-03 7.16437E-04-1.33710E-14
 -1      2814 4.87702E-03 8.45554E-04-1.68737E-14
 -1      2815 4.72327E-03 8.32286E-04-1.57956E-14
 -1      2816 4.64799E-03 7.86838E-04-1.53693E-14
 -1      2817 5.18046E-03 8.33763E-04-1.91524E-14
 -1      2818 5.02862E-03 8.46510E-04-1.79926E-14
 -1      2819 4.96076E-03 8.18414E-04-1.75272E-14
 -1      2820 5.48591E-03 7.68389E-04-2.15949E-14
 -1      2821 5.33208E-03 8.07272E-04-2.03532E-14
 -1      2822 5.26868E-03 7.93012E-04-1.98479E-14
 -1      2823 5.79970E-03 6.61193E-04-2.41999E-14
 -1      2824 5.64142E-03 7.18589E-04-2.28768E-14
 -1      2825 5.58148E-03 7.10219E-04-2.23345E-14
 -1      2826 6.12235E-03 5.33072E-04-2.69661E-14
 -1      2827 5.96017E-03 5.98302E-04-2.55631E-14
 -1      2828 5.90483E-03 5.88683E-04-2.49845E-14
 -1      2829 6.44954E-03 4.03325E-04-2.98866E-14
 -1      2830 6.28586E-03 4.67400E-04-2.84072E-14
 -1      2831 6.23652E-03 4.53354E-04-2.77943E-14
 -1      2832 6.77602E-03 2.84307E-04-3.29547E-14
 -1      2833 6.61332E-03 3.42020E-04-3.14029E-14
 -1      2834 6.56992E-03 3.23508E-04-3.07565E-14
 -1      2835 7.09809E-03 1.81214E-04-3.61581E-14
 -1      2836 6.93789E-03 2.30712E-04-3.45398E-14
 -1      2837 6.89901E-03 2.08995E-04-3.38623E-14
 -1      2838 7.41417E-03 9.43069E-05-3.94935E-14
 -1      2839 7.25700E-03 1.35878E-04-3.78105E-14
 -1      2840 7.22060E-03 1.12237E-04-3.71007E-14
 -1      2841 7.72426E-03 2.13763E-05-4.29488E-14
 -1      2842 7.56998E-03 5.63000E-05-4.12063E-14
 -1      2843 7.53417E-03 3.15789E-05-4.04673E-14
 -1      2844 8.02910E-03-4.06286E-05-4.65259E-14
 -1      2845 7.87731E-03-1.07873E-05-4.47222E-14
 -1      2846 7.84071E-03-3.61264E-05-4.39536E-14
 -1      2847 8.32964E-03-9.47371E-05-5.02124E-14
 -1      2848 8.17986E-03-6.84939E-05-4.83559E-14
 -1      2849 8.14168E-03-9.41983E-05-4.75580E-14
 -1      2850 8.62677E-03-1.43568E-04-5.40047E-14
 -1      2851 8.47858E-03-1.19673E-04-5.20955E-14
 -1      2852 8.43846E-03-1.45585E-04-5.12716E-14
 -1      2853 8.92122E-03-1.89199E-04-5.78983E-14
 -1      2854 8.77428E-03-1.66679E-04-5.59387E-14
 -1      2855 8.73221E-03-1.92686E-04-5.50875E-14
 -1      2856 9.21359E-03-2.33176E-04-6.18889E-14
 -1      2857 9.06762E-03-2.11321E-04-5.98817E-14
 -1      2858 9.02377E-03-2.37330E-04-5.90044E-14
 -1      2859 9.50434E-03-2.76584E-04-6.59720E-14
 -1      2860 9.35913E-03-2.54902E-04-6.39200E-14
 -1      2861 9.31375E-03-2.80843E-04-6.30204E-14
 -1      2862 9.79382E-03-3.20134E-04-7.01408E-14
 -1      2863 9.64921E-03-2.98310E-04-6.80459E-14
 -1      2864 9.60259E-03-3.24132E-04-6.71247E-14
 -1      2865 1.00823E-02-3.64256E-04-7.43949E-14
 -1      2866 9.93817E-03-3.42105E-04-7.22577E-14
 -1      2867 9.89059E-03-3.67777E-04-7.13142E-14
 -1      2868 1.03701E-02-4.09176E-04-7.87272E-14
 -1      2869 1.02263E-02-3.86608E-04-7.65505E-14
 -1      2870 1.01780E-02-4.12112E-04-7.55847E-14
 -1      2871 1.06572E-02-4.54979E-04-8.31397E-14
 -1      2872 1.05137E-02-4.31965E-04-8.09244E-14
 -1      2873 1.04649E-02-4.57299E-04-7.99372E-14
 -1      2874 1.09440E-02-5.01659E-04-8.76247E-14
 -1      2875 1.08006E-02-4.78211E-04-8.53738E-14
 -1      2876 1.07515E-02-5.03382E-04-8.43653E-14
 -1      2877 1.12304E-02-5.49154E-04-9.21721E-14
 -1      2878 1.10872E-02-5.25308E-04-8.98906E-14
 -1      2879 1.10378E-02-5.50329E-04-8.88629E-14
 -1      2880 1.15165E-02-5.97373E-04-9.67822E-14
 -1      2881 1.13735E-02-5.73178E-04-9.44696E-14
 -1      2882 1.13239E-02-5.98066E-04-9.34222E-14
 -1      2883 1.18025E-02-6.46213E-04-1.01449E-13
 -1      2884 1.16596E-02-6.21721E-04-9.91075E-14
 -1      2885 1.16099E-02-6.46495E-04-9.80410E-14
 -1      2886 1.20884E-02-6.95572E-04-1.06168E-13
 -1      2887 1.19455E-02-6.70833E-04-1.03803E-13
 -1      2888 1.18958E-02-6.95511E-04-1.02719E-13
 -1      2889 1.23742E-02-7.45351E-04-1.10928E-13
 -1      2890 1.22313E-02-7.20414E-04-1.08543E-13
 -1      2891 1.21817E-02-7.45013E-04-1.07446E-13
 -1      2892 1.26599E-02-7.95464E-04-1.15720E-13
 -1      2893 1.25171E-02-7.70371E-04-1.13320E-13
 -1      2894 1.24674E-02-7.94908E-04-1.12212E-13
 -1      2895 1.29456E-02-8.45834E-04-1.20540E-13
 -1      2896 1.28028E-02-8.20621E-04-1.18127E-13
 -1      2897 1.27532E-02-8.45110E-04-1.17011E-13
 -1      2898 1.32313E-02-8.96393E-04-1.25385E-13
 -1      2899 1.30885E-02-8.71093E-04-1.22958E-13
 -1      2900 1.30389E-02-8.95546E-04-1.21838E-13
 -1      2901 1.35170E-02-9.47084E-04-1.30253E-13
 -1      2902 1.33742E-02-9.21725E-04-1.27818E-13
 -1      2903 1.33246E-02-9.46154E-04-1.26694E-13
 -1      2904 1.38027E-02-9.97860E-04-1.35143E-13
 -1      2905 1.36599E-02-9.72464E-04-1.32694E-13
 -1      2906 1.36103E-02-9.96881E-04-1.31569E-13
 -1      2907 1.40615E-02-1.05107E-03-1.39532E-13
 -1      2908 1.39187E-02-1.02566E-03-1.37074E-13
 -1      2909 1.38691E-02-1.05007E-03-1.35943E-13
 -1      2910 1.41010E-02-1.10568E-03-1.39815E-13
 -1      2911 6.76863E-03-8.95942E-05-2.75989E-14
 -1      2912 6.97095E-03-1.81603E-04-2.82871E-14
 -1      2913 1.43297E-02-1.51061E-03-1.40626E-13
 -1      2914 1.43046E-02-1.46844E-03-1.40529E-13
 -1      2915 7.13357E-03-5.43601E-04-2.84681E-14
 -1      2916 6.99178E-03-6.07563E-04-2.79948E-14
 -1      2917 1.42296E-02-1.34194E-03-1.40225E-13
 -1      2918 1.42046E-02-1.29978E-03-1.40120E-13
 -1      2919 1.43799E-02-1.59494E-03-1.40814E-13
 -1      2920 1.43548E-02-1.55277E-03-1.40723E-13
 -1      2921 1.42185E-02-1.50958E-03-1.38508E-13
 -1      2922 1.42796E-02-1.42627E-03-1.40430E-13
 -1      2923 1.42546E-02-1.38411E-03-1.40328E-13
 -1      2924 1.41183E-02-1.34097E-03-1.38128E-13
 -1      2925 1.41684E-02-1.42527E-03-1.38323E-13
 -1      2926 1.44294E-02-1.67784E-03-1.40988E-13
 -1      2927 1.44047E-02-1.63639E-03-1.40901E-13
 -1      2928 1.42683E-02-1.59318E-03-1.38684E-13
 -1      2929 1.44798E-02-1.76217E-03-1.41152E-13
 -1      2930 1.44546E-02-1.72001E-03-1.41071E-13
 -1      2931 1.43183E-02-1.67677E-03-1.38847E-13
 -1      2932 1.45304E-02-1.84650E-03-1.41298E-13
 -1      2933 1.45051E-02-1.80434E-03-1.41227E-13
 -1      2934 1.43687E-02-1.76108E-03-1.38999E-13
 -1      2935 6.93340E-04-1.66940E-04-5.41315E-16
 -1      2936 7.59931E-03-3.92741E-04-3.01030E-14
 -1      2937 7.53610E-03-4.07411E-04-2.98743E-14
 -1      2938 7.61230E-03-3.82168E-04-3.05873E-14
 -1      2939 7.62328E-03-3.85824E-04-3.05179E-14
 -1      2940 7.44016E-03-3.41874E-04-2.98607E-14
 -1      2941 7.54470E-03-3.64716E-04-3.02300E-14
 -1      2942 6.34218E-03-9.63077E-04-2.51114E-14
 -1      2943 6.20053E-03-1.05206E-03-2.43836E-14
 -1      2944 2.94909E-03-1.91684E-04-1.11876E-14
 -1      2945 2.92397E-03-1.84155E-04-1.11616E-14
 -1      2946 5.22536E-03 7.10011E-04-1.93926E-14
 -1      2947 5.34818E-03 6.83084E-04-2.02082E-14
 -1      2948 7.12712E-03-2.44059E-04-2.88211E-14
 -1      2949 7.27228E-03-2.92037E-04-2.93592E-14
 -1      2950 7.05877E-03-2.06639E-04-2.93268E-14
 -1      2951 1.74249E-03 3.74337E-04-2.28534E-15
 -1      2952 1.59445E-03 3.61947E-04-1.91890E-15
 -1      2953 1.79513E-03 3.42998E-04-2.54930E-15
 -1      2954 2.64664E-03 4.42252E-04-5.19367E-15
 -1      2955 2.49331E-03 4.28773E-04-4.62430E-15
 -1      2956 2.39250E-03 3.81996E-04-4.43487E-15
 -1      2957 2.69836E-03 4.06692E-04-5.57894E-15
 -1      2958 1.04810E-03-2.60329E-04-1.02778E-15
 -1      2959 1.19335E-03-2.80045E-04-1.30167E-15
 -1      2960 1.24636E-03-2.57562E-04-1.48448E-15
 -1      2961 1.44684E-03 3.47554E-04-1.58631E-15
 -1      2962 1.29938E-03 3.30734E-04-1.28676E-15
 -1      2963 1.20795E-03 2.87513E-04-1.19784E-15
 -1      2964 1.50074E-03 3.19544E-04-1.80682E-15
 -1      2965 7.42537E-03-4.41714E-04-2.95895E-14
 -1      2966 7.28863E-03-4.83030E-04-2.90277E-14
 -1      2967 7.26013E-03-5.18271E-04-2.96308E-14
 -1      2968 5.19316E-03-1.32325E-03-1.80830E-14
 -1      2969 7.71165E-04 9.22080E-05-7.22960E-16
 -1      2970 7.64408E-04 7.24894E-05-7.36851E-16
 -1      2971 8.75500E-04 7.06725E-05-9.41846E-16
 -1      2972 8.91767E-04 1.14637E-04-9.08494E-16
 -1      2973 7.59724E-04-7.51147E-05-7.68117E-16
 -1      2974 7.66177E-04-9.32675E-05-7.61395E-16
 -1      2975 4.93289E-03 6.96724E-04-1.75482E-14
 -1      2976 5.07721E-03 7.16480E-04-1.84562E-14
 -1      2977 5.13116E-03 7.21800E-04-1.88002E-14
 -1      2978 1.46169E-02-1.98771E-03-1.41537E-13
 -1      2979 1.46202E-02-1.95594E-03-1.41938E-13
 -1      2980 1.45198E-02-1.96955E-03-1.39821E-13
 -1      2981 5.96976E-03 3.67303E-04-2.40097E-14
 -1      2982 6.15886E-03 2.48250E-04-2.49594E-14
 -1      2983 6.28348E-03 1.89458E-04-2.59598E-14
 -1      2984 4.15453E-03 3.34661E-04-1.39609E-14
 -1      2985 4.33021E-03 4.38948E-04-1.45497E-14
 -1      2986 6.77399E-03-7.13264E-04-2.70514E-14
 -1      2987 6.57075E-03-8.24665E-04-2.61453E-14
 -1      2988 2.93348E-03-1.73568E-04-1.11847E-14
 -1      2989 2.97051E-03-1.65335E-04-1.12504E-14
 -1      2990 4.31924E-03-8.21574E-04-1.40990E-14
 -1      2991 4.07605E-03-6.71072E-04-1.33108E-14
 -1      2992 3.43984E-03-3.47360E-04-1.19404E-14
 -1      2993 3.30751E-03-2.98240E-04-1.17037E-14
 -1      2994 3.49680E-03-3.85665E-04-1.16133E-14
 -1      2995 3.12707E-03-2.38355E-04-1.13846E-14
 -1      2996 3.01890E-03-2.10810E-04-1.12390E-14
 -1      2997 3.41926E-03-2.45807E-05-1.21083E-14
 -1      2998 3.58359E-03 3.91288E-05-1.25113E-14
 -1      2999 3.77136E-03 1.26189E-04-1.29506E-14
 -1      3000 3.95909E-03 2.26465E-04-1.33998E-14
 -1      3001 3.65188E-03 1.00571E-04-1.23046E-14
 -1      3002 5.00081E-03-1.24762E-03-1.69559E-14
 -1      3003 4.86715E-03-1.17067E-03-1.62719E-14
 -1      3004 7.74104E-04-1.12807E-04-7.52287E-16
 -1      3005 7.83391E-04-1.34084E-04-7.40104E-16
 -1      3006 8.85166E-04-1.15184E-04-9.60102E-16
 -1      3007 8.59582E-04-4.03804E-06-9.77205E-16
 -1      3008 7.48272E-04-1.08283E-05-7.73280E-16
 -1      3009 7.48979E-04-2.63007E-05-7.75055E-16
 -1      3010 7.51287E-03-4.31233E-04-3.04909E-14
 -1      3011 6.69149E-03-3.65618E-05-2.78622E-14
 -1      3012 5.77157E-03 4.99010E-04-2.31171E-14
 -1      3013 5.86348E-03 4.36623E-04-2.35617E-14
 -1      3014 5.99279E-03 3.71964E-04-2.45269E-14
 -1      3015 8.75842E-04 2.24640E-04-6.83928E-16
 -1      3016 4.43433E-03 5.19496E-04-1.47995E-14
 -1      3017 4.51518E-03 5.88258E-04-1.50462E-14
 -1      3018 4.29696E-03 4.72810E-04-1.40715E-14
 -1      3019 3.99539E-03-6.67132E-04-1.24090E-14
 -1      3020 4.17605E-03-7.87053E-04-1.28337E-14
 -1      3021 6.90897E-03-6.70576E-04-2.81035E-14
 -1      3022 4.37723E-03-8.93637E-04-1.37808E-14
 -1      3023 4.66345E-03-1.05437E-03-1.52222E-14
 -1      3024 1.44294E-02-1.92504E-03-1.38514E-13
 -1      3025 2.94993E-03-1.95728E-04-1.07189E-14
 -1      3026 1.41257E-02-1.14748E-03-1.39929E-13
 -1      3027 1.40098E-02-1.11967E-03-1.37988E-13
 -1      3028 1.41504E-02-1.18929E-03-1.40043E-13
 -1      3029 8.02267E-04-1.62897E-04-7.31240E-16
 -1      3030 8.30658E-04-2.10004E-04-7.04162E-16
 -1      3031 9.64156E-04-2.38256E-04-9.02802E-16
 -1      3032 9.15638E-04-1.67527E-04-9.39082E-16
 -1      3033 7.60609E-03-3.79194E-04-3.12542E-14
 -1      3034 1.45949E-02-1.91378E-03-1.41880E-13
 -1      3035 6.48051E-03-9.07559E-04-2.60997E-14
 -1      3036 7.63998E-03-3.98045E-04-3.11966E-14
 -1      3037 5.45239E-03 6.50854E-04-2.09460E-14
 -1      3038 5.55411E-03 6.10771E-04-2.16967E-14
 -1      3039 5.37496E-03 6.82864E-04-2.04733E-14
 -1      3040 4.82069E-03 6.81465E-04-1.68245E-14
 -1      3041 1.44440E-02-1.89777E-03-1.39083E-13
 -1      3042 1.45157E-02-1.87378E-03-1.40738E-13
 -1      3043 1.43794E-02-1.83051E-03-1.38511E-13
 -1      3044 1.43501E-02-1.88504E-03-1.37382E-13
 -1      3045 2.89465E-03-1.71108E-04-1.06930E-14
 -1      3046 3.00225E-03-1.44332E-04-1.10335E-14
 -1      3047 3.90875E-03-5.92836E-04-1.25673E-14
 -1      3048 1.41899E-02-1.26544E-03-1.40136E-13
 -1      3049 1.41651E-02-1.22363E-03-1.40029E-13
 -1      3050 1.40492E-02-1.19580E-03-1.38084E-13
 -1      3051 1.40786E-02-1.26448E-03-1.38048E-13
 -1      3052 7.51117E-04-4.19416E-05-7.74920E-16
 -1      3053 7.54686E-04-5.81452E-05-7.72440E-16
 -1      3054 8.69721E-04-7.49627E-05-9.76012E-16
 -1      3055 8.61201E-04-3.87982E-05-9.81257E-16
 -1      3056 3.29467E-03-5.75214E-05-1.16176E-14
 -1      3057 3.34902E-03-1.08857E-05-1.13937E-14
 -1      3058 3.18115E-03-7.77418E-05-1.11375E-14
 -1      3059 9.92681E-04 2.29276E-04-8.88937E-16
 -1      3060 4.01477E-03 2.87515E-04-1.32788E-14
 -1      3061 3.18389E-03-2.64650E-04-1.10735E-14
 -1      3062 1.02029E-03-2.20837E-04-1.05348E-15
 -1      3063 1.04134E-03 1.95681E-04-1.05576E-15
 -1      3064 1.02761E-03 1.65964E-04-1.08756E-15
 -1      3065 3.73006E-03-5.20976E-04-1.16942E-14
 -1      3066 7.04412E-03-6.41874E-04-2.93404E-14
 -1      3067 6.85002E-03-7.34686E-04-2.83733E-14
 -1      3068 1.72218E-03-2.65430E-04-2.81494E-15
 -1      3069 1.86287E-03-2.72438E-04-3.26138E-15
 -1      3070 2.00314E-03-2.78811E-04-3.74071E-15
 -1      3071 2.14326E-03-2.84893E-04-4.25231E-15
 -1      3072 1.90437E-03-2.45361E-04-3.53144E-15
 -1      3073 2.28309E-03-2.91344E-04-4.79578E-15
 -1      3074 2.42311E-03-2.98630E-04-5.37217E-15
 -1      3075 2.17803E-03-2.56739E-04-4.55702E-15
 -1      3076 2.56332E-03-3.07367E-04-5.98116E-15
 -1      3077 2.70456E-03-3.18352E-04-6.62265E-15
 -1      3078 2.44958E-03-2.69580E-04-5.71139E-15
 -1      3079 2.84708E-03-3.32072E-04-7.29499E-15
 -1      3080 2.99229E-03-3.50016E-04-7.99942E-15
 -1      3081 2.72092E-03-2.87776E-04-6.99347E-15
 -1      3082 3.14084E-03-3.72416E-04-8.73646E-15
 -1      3083 3.29506E-03-4.02535E-04-9.50525E-15
 -1      3084 2.99674E-03-3.16360E-04-8.40179E-15
 -1      3085 3.42136E-03-4.28927E-04-1.01626E-14
 -1      3086 3.58968E-03-4.77302E-04-1.09893E-14
 -1      3087 3.49761E-03-4.08433E-04-1.11407E-14
 -1      3088 3.25433E-03-3.55201E-04-9.79508E-15
 -1      3089 2.85178E-03-1.66477E-04-1.01385E-14
 -1      3090 2.85862E-03-1.56804E-04-1.01606E-14
 -1      3091 6.05465E-03-1.15431E-03-2.36917E-14
 -1      3092 1.15748E-03-2.21035E-04-1.36010E-15
 -1      3093 1.29881E-03-2.35361E-04-1.67413E-15
 -1      3094 6.84041E-03-7.81597E-04-2.87744E-14
 -1      3095 7.02721E-03-7.33547E-04-3.02891E-14
 -1      3096 7.20387E-03-7.02855E-04-3.18357E-14
 -1      3097 7.37079E-03-6.84005E-04-3.34121E-14
 -1      3098 7.16993E-03-6.71106E-04-3.11451E-14
 -1      3099 7.53815E-03-6.59680E-04-3.49396E-14
 -1      3100 7.68950E-03-6.60295E-04-3.65725E-14
 -1      3101 7.83656E-03-6.67652E-04-3.82370E-14
 -1      3102 7.98098E-03-6.79464E-04-3.99272E-14
 -1      3103 7.80033E-03-6.21957E-04-3.74078E-14
 -1      3104 8.12333E-03-6.95485E-04-4.16474E-14
 -1      3105 8.26470E-03-7.14613E-04-4.33958E-14
 -1      3106 8.07574E-03-6.51248E-04-4.07875E-14
 -1      3107 8.40527E-03-7.36444E-04-4.51709E-14
 -1      3108 8.54569E-03-7.60401E-04-4.69742E-14
 -1      3109 8.34784E-03-6.92123E-04-4.42811E-14
 -1      3110 8.68594E-03-7.86060E-04-4.88034E-14
 -1      3111 8.82641E-03-8.13101E-04-5.06591E-14
 -1      3112 8.62032E-03-7.40872E-04-4.78834E-14
 -1      3113 8.96698E-03-8.41149E-04-5.25385E-14
 -1      3114 9.10787E-03-8.70012E-04-5.44429E-14
 -1      3115 8.89468E-03-7.94844E-04-5.15905E-14
 -1      3116 9.24894E-03-8.99395E-04-5.63697E-14
 -1      3117 9.39033E-03-9.29181E-04-5.83210E-14
 -1      3118 9.17130E-03-8.52022E-04-5.53958E-14
 -1      3119 9.53189E-03-9.59154E-04-6.02966E-14
 -1      3120 9.67373E-03-9.89242E-04-6.22935E-14
 -1      3121 9.45006E-03-9.10891E-04-5.92964E-14
 -1      3122 9.81570E-03-1.01930E-03-6.43088E-14
 -1      3123 9.95788E-03-1.04929E-03-6.63451E-14
 -1      3124 9.73063E-03-9.70363E-04-6.32857E-14
 -1      3125 1.01002E-02-1.07912E-03-6.84051E-14
 -1      3126 1.02426E-02-1.10877E-03-7.04845E-14
 -1      3127 1.00126E-02-1.02970E-03-6.73597E-14
 -1      3128 1.03851E-02-1.13819E-03-7.25853E-14
 -1      3129 1.05277E-02-1.16738E-03-7.47062E-14
 -1      3130 1.02957E-02-1.08845E-03-7.15174E-14
 -1      3131 1.06704E-02-1.19630E-03-7.68435E-14
 -1      3132 1.08131E-02-1.22497E-03-7.90017E-14
 -1      3133 1.05796E-02-1.14636E-03-7.57553E-14
 -1      3134 1.09559E-02-1.25338E-03-8.11789E-14
 -1      3135 1.10987E-02-1.28154E-03-8.33731E-14
 -1      3136 1.08641E-02-1.20333E-03-8.00722E-14
 -1      3137 1.12415E-02-1.30946E-03-8.55845E-14
 -1      3138 1.13843E-02-1.33714E-03-8.78112E-14
 -1      3139 1.11490E-02-1.25935E-03-8.44594E-14
 -1      3140 1.15272E-02-1.36461E-03-9.00541E-14
 -1      3141 1.16700E-02-1.39187E-03-9.23145E-14
 -1      3142 1.14342E-02-1.31449E-03-8.89130E-14
 -1      3143 1.18129E-02-1.41894E-03-9.45929E-14
 -1      3144 1.19558E-02-1.44584E-03-9.68837E-14
 -1      3145 1.17196E-02-1.36884E-03-9.34342E-14
 -1      3146 1.20987E-02-1.47257E-03-9.91911E-14
 -1      3147 1.22415E-02-1.49916E-03-1.01514E-13
 -1      3148 1.20052E-02-1.42249E-03-9.80186E-14
 -1      3149 1.23844E-02-1.52561E-03-1.03849E-13
 -1      3150 1.25273E-02-1.55195E-03-1.06200E-13
 -1      3151 1.22908E-02-1.47556E-03-1.02659E-13
 -1      3152 1.26702E-02-1.57817E-03-1.08567E-13
 -1      3153 1.28131E-02-1.60430E-03-1.10947E-13
 -1      3154 1.25765E-02-1.52814E-03-1.07358E-13
 -1      3155 1.29560E-02-1.63035E-03-1.13341E-13
 -1      3156 1.30988E-02-1.65632E-03-1.15750E-13
 -1      3157 1.28622E-02-1.58035E-03-1.12117E-13
 -1      3158 1.32417E-02-1.68222E-03-1.18173E-13
 -1      3159 1.33846E-02-1.70807E-03-1.20608E-13
 -1      3160 1.31480E-02-1.63224E-03-1.16930E-13
 -1      3161 1.35275E-02-1.73387E-03-1.23059E-13
 -1      3162 1.36703E-02-1.75962E-03-1.25522E-13
 -1      3163 1.34337E-02-1.68391E-03-1.21796E-13
 -1      3164 1.38132E-02-1.78534E-03-1.27999E-13
 -1      3165 1.39561E-02-1.81104E-03-1.30491E-13
 -1      3166 1.37195E-02-1.73540E-03-1.26720E-13
 -1      3167 1.40817E-02-1.83522E-03-1.32672E-13
 -1      3168 1.42245E-02-1.86088E-03-1.35183E-13
 -1      3169 1.42391E-02-1.83362E-03-1.35748E-13
 -1      3170 1.39879E-02-1.78529E-03-1.31375E-13
 -1      3171 3.38784E-03 4.53046E-04-8.74030E-15
 -1      3172 3.22434E-03 4.26252E-04-7.99638E-15
 -1      3173 3.06316E-03 4.03894E-04-7.28681E-15
 -1      3174 2.90477E-03 3.85192E-04-6.61099E-15
 -1      3175 3.11374E-03 3.64833E-04-7.71827E-15
 -1      3176 4.06323E-03 6.04369E-04-1.20639E-14
 -1      3177 3.89275E-03 5.60661E-04-1.11795E-14
 -1      3178 4.40230E-03 6.95007E-04-1.39454E-14
 -1      3179 4.23376E-03 6.50513E-04-1.29862E-14
 -1      3180 4.13379E-03 5.77575E-04-1.26025E-14
 -1      3181 4.73096E-03 7.67820E-04-1.59822E-14
 -1      3182 4.56817E-03 7.35916E-04-1.49436E-14
 -1      3183 4.48069E-03 6.76604E-04-1.45200E-14
 -1      3184 5.04714E-03 7.92556E-04-1.81804E-14
 -1      3185 4.88965E-03 7.88114E-04-1.70609E-14
 -1      3186 4.81453E-03 7.51963E-04-1.65956E-14
 -1      3187 5.35993E-03 7.50118E-04-2.05461E-14
 -1      3188 5.20246E-03 7.79980E-04-1.93425E-14
 -1      3189 5.13469E-03 7.65931E-04-1.88358E-14
 -1      3190 5.68141E-03 6.46783E-04-2.30775E-14
 -1      3191 5.51875E-03 7.04245E-04-2.17914E-14
 -1      3192 5.45544E-03 7.01168E-04-2.12465E-14
 -1      3193 6.01550E-03 5.10124E-04-2.57738E-14
 -1      3194 5.84707E-03 5.80183E-04-2.44054E-14
 -1      3195 5.78863E-03 5.74868E-04-2.38250E-14
 -1      3196 6.35643E-03 3.69353E-04-2.86278E-14
 -1      3197 6.18598E-03 4.38745E-04-2.71816E-14
 -1      3198 6.13481E-03 4.25091E-04-2.65677E-14
 -1      3199 6.69493E-03 2.41821E-04-3.16313E-14
 -1      3200 6.52670E-03 3.03313E-04-3.01110E-14
 -1      3201 6.48381E-03 2.82276E-04-2.94661E-14
 -1      3202 7.02494E-03 1.33823E-04-3.47717E-14
 -1      3203 6.86140E-03 1.85417E-04-3.31852E-14
 -1      3204 6.82509E-03 1.60062E-04-3.25094E-14
 -1      3205 7.34447E-03 4.45481E-05-3.80464E-14
 -1      3206 7.18611E-03 8.71220E-05-3.63927E-14
 -1      3207 7.15360E-03 6.03207E-05-3.56873E-14
 -1      3208 7.65441E-03-2.94181E-05-4.14428E-14
 -1      3209 7.50059E-03 5.95966E-06-3.97297E-14
 -1      3210 7.46927E-03-2.08181E-05-3.89929E-14
 -1      3211 7.95674E-03-9.18833E-05-4.49607E-14
 -1      3212 7.80642E-03-6.18262E-05-4.31868E-14
 -1      3213 7.77444E-03-8.80922E-05-4.24208E-14
 -1      3214 8.25352E-03-1.46211E-04-4.85917E-14
 -1      3215 8.10571E-03-1.19859E-04-4.67619E-14
 -1      3216 8.07195E-03-1.45615E-04-4.59681E-14
 -1      3217 8.54649E-03-1.95141E-04-5.23309E-14
 -1      3218 8.40039E-03-1.71199E-04-5.04489E-14
 -1      3219 8.36433E-03-1.96587E-04-4.96273E-14
 -1      3220 8.83692E-03-2.40778E-04-5.61725E-14
 -1      3221 8.69195E-03-2.18262E-04-5.42378E-14
 -1      3222 8.65348E-03-2.43433E-04-5.33919E-14
 -1      3223 9.12571E-03-2.84675E-04-6.01145E-14
 -1      3224 8.98147E-03-2.62868E-04-5.81314E-14
 -1      3225 8.94072E-03-2.87928E-04-5.72585E-14
 -1      3226 9.41345E-03-3.27925E-04-6.41523E-14
 -1      3227 9.26967E-03-3.06331E-04-6.21218E-14
 -1      3228 9.22690E-03-3.31336E-04-6.12252E-14
 -1      3229 9.70052E-03-3.71258E-04-6.82760E-14
 -1      3230 9.55704E-03-3.49550E-04-6.62032E-14
 -1      3231 9.51257E-03-3.74523E-04-6.52836E-14
 -1      3232 9.98715E-03-4.15122E-04-7.24865E-14
 -1      3233 9.84387E-03-3.93106E-04-7.03705E-14
 -1      3234 9.79802E-03-4.18049E-04-6.94297E-14
 -1      3235 1.02735E-02-4.59765E-04-7.67757E-14
 -1      3236 1.01304E-02-4.37338E-04-7.46217E-14
 -1      3237 1.00834E-02-4.62244E-04-7.36586E-14
 -1      3238 1.05597E-02-5.05290E-04-8.11454E-14
 -1      3239 1.04166E-02-4.82416E-04-7.89506E-14
 -1      3240 1.03688E-02-5.07275E-04-7.79666E-14
 -1      3241 1.08457E-02-5.51704E-04-8.55882E-14
 -1      3242 1.07027E-02-5.28388E-04-8.33577E-14
 -1      3243 1.06543E-02-5.53195E-04-8.23518E-14
 -1      3244 1.11317E-02-5.98956E-04-9.00977E-14
 -1      3245 1.09887E-02-5.75230E-04-8.78355E-14
 -1      3246 1.09399E-02-5.99979E-04-8.68102E-14
 -1      3247 1.14176E-02-6.46958E-04-9.46702E-14
 -1      3248 1.12746E-02-6.22869E-04-9.23761E-14
 -1      3249 1.12255E-02-6.47560E-04-9.13330E-14
 -1      3250 1.17034E-02-6.95612E-04-9.93010E-14
 -1      3251 1.15605E-02-6.71210E-04-9.69780E-14
 -1      3252 1.15112E-02-6.95846E-04-9.59158E-14
 -1      3253 1.19892E-02-7.44814E-04-1.03987E-13
 -1      3254 1.18463E-02-7.20150E-04-1.01636E-13
 -1      3255 1.17969E-02-7.44735E-04-1.00557E-13
 -1      3256 1.22750E-02-7.94465E-04-1.08722E-13
 -1      3257 1.21321E-02-7.69589E-04-1.06351E-13
 -1      3258 1.20826E-02-7.94128E-04-1.05254E-13
 -1      3259 1.25607E-02-8.44477E-04-1.13497E-13
 -1      3260 1.24179E-02-8.19431E-04-1.11105E-13
 -1      3261 1.23683E-02-8.43931E-04-1.09996E-13
 -1      3262 1.28465E-02-8.94768E-04-1.18302E-13
 -1      3263 1.27036E-02-8.69591E-04-1.15894E-13
 -1      3264 1.26541E-02-8.94059E-04-1.14777E-13
 -1      3265 1.31322E-02-9.45271E-04-1.23137E-13
 -1      3266 1.29894E-02-9.19997E-04-1.20715E-13
 -1      3267 1.29398E-02-9.44439E-04-1.19589E-13
 -1      3268 1.34179E-02-9.95928E-04-1.28001E-13
 -1      3269 1.32751E-02-9.70583E-04-1.25564E-13
 -1      3270 1.32255E-02-9.95008E-04-1.24436E-13
 -1      3271 1.37037E-02-1.04669E-03-1.32886E-13
 -1      3272 1.35608E-02-1.02130E-03-1.30441E-13
 -1      3273 1.35113E-02-1.04571E-03-1.29310E-13
 -1      3274 1.39147E-02-1.09707E-03-1.36400E-13
 -1      3275 1.37987E-02-1.06927E-03-1.34468E-13
 -1      3276 1.37492E-02-1.09368E-03-1.33336E-13
 -1      3277 1.39394E-02-1.13887E-03-1.36509E-13
 -1      3278 1.41570E-02-1.59176E-03-1.36557E-13
 -1      3279 1.41322E-02-1.55033E-03-1.36477E-13
 -1      3280 4.47749E-03-9.22921E-04-1.47178E-14
 -1      3281 1.41071E-02-1.50819E-03-1.36392E-13
 -1      3282 1.40820E-02-1.46605E-03-1.36305E-13
 -1      3283 1.39957E-02-1.50678E-03-1.34280E-13
 -1      3284 7.37722E-03-3.19141E-04-3.03811E-14
 -1      3285 7.03691E-03-1.78306E-04-3.00860E-14
 -1      3286 7.17350E-03-2.34244E-04-3.06391E-14
 -1      3287 6.68698E-03-8.22934E-04-2.75532E-14
 -1      3288 1.42576E-02-1.75998E-03-1.36854E-13
 -1      3289 1.42324E-02-1.71783E-03-1.36784E-13
 -1      3290 7.34229E-03-2.99152E-04-3.11605E-14
 -1      3291 7.49194E-03-3.44553E-04-3.16804E-14
 -1      3292 7.32190E-03-2.72896E-04-3.19398E-14
 -1      3293 7.60530E-03-3.75432E-04-3.21900E-14
 -1      3294 7.67353E-03-3.92159E-04-3.25583E-14
 -1      3295 1.42072E-02-1.67587E-03-1.36712E-13
 -1      3296 1.41820E-02-1.63372E-03-1.36636E-13
 -1      3297 1.40459E-02-1.59086E-03-1.34436E-13
 -1      3298 1.40961E-02-1.67477E-03-1.34581E-13
 -1      3299 4.82664E-03 7.15698E-04-1.67398E-14
 -1      3300 4.98673E-03 7.40288E-04-1.77982E-14
 -1      3301 3.72248E-03 5.20421E-04-1.03311E-14
 -1      3302 3.55428E-03 4.84300E-04-9.51813E-15
 -1      3303 3.44286E-03 4.14964E-04-9.20748E-15
 -1      3304 3.78464E-03 4.85992E-04-1.08337E-14
 -1      3305 2.14267E-03 3.28235E-04-3.73598E-15
 -1      3306 1.99447E-03 3.19929E-04-3.26144E-15
 -1      3307 7.59508E-03-4.27036E-04-3.15074E-14
 -1      3308 7.50147E-03-4.56538E-04-3.12147E-14
 -1      3309 6.63271E-03 1.59787E-05-2.82077E-14
 -1      3310 6.83757E-03-8.91746E-05-2.91401E-14
 -1      3311 6.97559E-03-1.27187E-04-3.04422E-14
 -1      3312 1.84715E-03 3.11325E-04-2.81960E-15
 -1      3313 1.70050E-03 3.01947E-04-2.41045E-15
 -1      3314 1.89828E-03 2.79294E-04-3.09610E-15
 -1      3315 3.51825E-03 7.97213E-05-1.15725E-14
 -1      3316 3.68128E-03 1.55478E-04-1.19873E-14
 -1      3317 1.15772E-03 2.58065E-04-1.16141E-15
 -1      3318 1.08834E-03 2.21777E-04-1.09740E-15
 -1      3319 1.20378E-03 2.19526E-04-1.35523E-15
 -1      3320 1.30286E-03 2.75203E-04-1.44501E-15
 -1      3321 3.37761E-03-3.54760E-04-1.09194E-14
 -1      3322 2.93283E-03-1.98130E-04-1.01527E-14
 -1      3323 2.87396E-03-1.80668E-04-1.01074E-14
 -1      3324 2.92435E-03-1.37359E-04-1.03711E-14
 -1      3325 3.02960E-03-1.15423E-04-1.06823E-14
 -1      3326 1.44005E-03-2.47310E-04-2.02113E-15
 -1      3327 1.58130E-03-2.57141E-04-2.40167E-15
 -1      3328 1.62831E-03-2.31967E-04-2.63500E-15
 -1      3329 9.95130E-04-1.85315E-04-1.07088E-15
 -1      3330 1.07583E-03-2.03229E-04-1.21128E-15
 -1      3331 9.72823E-04-1.53263E-04-1.08205E-15
 -1      3332 7.37149E-03-5.08253E-04-3.08493E-14
 -1      3333 7.23813E-03-5.58809E-04-3.02723E-14
 -1      3334 7.68658E-03-4.07790E-04-3.23560E-14
 -1      3335 7.65327E-03-4.13754E-04-3.19321E-14
 -1      3336 7.66279E-03-4.34017E-04-3.26712E-14
 -1      3337 3.20097E-03-2.83408E-04-1.06210E-14
 -1      3338 3.04421E-03-2.32587E-04-1.03235E-14
 -1      3339 3.20371E-03-3.06467E-04-1.01715E-14
 -1      3340 3.86573E-03 2.49001E-04-1.25043E-14
 -1      3341 4.03769E-03 3.44305E-04-1.30372E-14
 -1      3342 9.80022E-04 4.46664E-05-1.18670E-15
 -1      3343 9.75192E-04 2.42589E-05-1.19722E-15
 -1      3344 6.21874E-03 2.50449E-04-2.60219E-14
 -1      3345 6.39721E-03 1.46801E-04-2.70167E-14
 -1      3346 9.72146E-04 4.59105E-06-1.20490E-15
 -1      3347 9.71024E-04-1.46298E-05-1.20998E-15
 -1      3348 1.08607E-03 1.47330E-05-1.45539E-15
 -1      3349 4.52654E-03 6.43218E-04-1.49173E-14
 -1      3350 4.65400E-03 6.74022E-04-1.56814E-14
 -1      3351 2.81154E-03-1.66727E-04-9.59053E-15
 -1      3352 5.67864E-03 5.57288E-04-2.26143E-14
 -1      3353 5.80354E-03 5.00749E-04-2.35524E-14
 -1      3354 5.59589E-03 6.07105E-04-2.21162E-14
 -1      3355 4.14086E-03 4.28950E-04-1.32619E-14
 -1      3356 7.18204E-03-6.17021E-04-3.05515E-14
 -1      3357 3.26556E-03 1.30988E-05-1.06228E-14
 -1      3358 3.38868E-03 4.18486E-05-1.10925E-14
 -1      3359 3.41272E-03 9.66845E-05-1.07874E-14
 -1      3360 2.85091E-03-1.36004E-04-9.82666E-15
 -1      3361 9.94619E-04 8.85547E-05-1.15722E-15
 -1      3362 9.86556E-04 6.59898E-05-1.17358E-15
 -1      3363 1.09745E-03 5.89274E-05-1.43104E-15
 -1      3364 5.12637E-03 7.52002E-04-1.87785E-14
 -1      3365 5.14302E-03 7.29797E-04-1.88722E-14
 -1      3366 5.27829E-03 7.12114E-04-1.98239E-14
 -1      3367 5.28869E-03 7.30531E-04-1.99598E-14
 -1      3368 1.13078E-03-1.85209E-04-1.37681E-15
 -1      3369 3.71551E-03 2.18427E-04-1.17575E-14
 -1      3370 7.50329E-03-6.27109E-04-3.42217E-14
 -1      3371 1.14146E-03 1.63305E-04-1.33998E-15
 -1      3372 1.01521E-03 1.38405E-04-1.11423E-15
 -1      3373 1.00426E-03 1.12694E-04-1.13742E-15
 -1      3374 2.44249E-03 3.46222E-04-4.78578E-15
 -1      3375 2.29194E-03 3.36804E-04-4.24401E-15
 -1      3376 2.19217E-03 2.93590E-04-4.05301E-15
 -1      3377 2.79722E-03 3.31510E-04-6.36340E-15
 -1      3378 2.74858E-03 3.69835E-04-5.96933E-15
 -1      3379 2.59466E-03 3.56992E-04-5.36089E-15
 -1      3380 6.02279E-03 3.86890E-04-2.50771E-14
 -1      3381 6.11622E-03 3.19907E-04-2.55485E-14
 -1      3382 6.23825E-03 2.76407E-04-2.65876E-14
 -1      3383 1.40071E-02-1.33998E-03-1.36032E-13
 -1      3384 1.39821E-02-1.29784E-03-1.35935E-13
 -1      3385 9.79743E-04-7.25599E-05-1.20931E-15
 -1      3386 9.86731E-04-9.31288E-05-1.20337E-15
 -1      3387 1.40570E-02-1.42409E-03-1.36216E-13
 -1      3388 1.40320E-02-1.38194E-03-1.36125E-13
 -1      3389 1.38957E-02-1.33881E-03-1.33935E-13
 -1      3390 1.39456E-02-1.42271E-03-1.34111E-13
 -1      3391 7.59259E-03-3.63173E-04-3.29894E-14
 -1      3392 5.37638E-03 6.90381E-04-2.05474E-14
 -1      3393 3.06896E-03-8.18680E-05-1.04703E-14
 -1      3394 7.72335E-03-4.07212E-04-3.33089E-14
 -1      3395 7.76230E-03-4.22228E-04-3.40622E-14
 -1      3396 7.75059E-03-4.06025E-04-3.42667E-14
 -1      3397 1.38561E-02-1.26254E-03-1.33872E-13
 -1      3398 1.39673E-02-1.26351E-03-1.35960E-13
 -1      3399 1.39526E-02-1.22918E-03-1.35983E-13
 -1      3400 2.93380E-03-2.11321E-04-9.72344E-15
 -1      3401 7.48650E-03-4.91693E-04-3.18730E-14
 -1      3402 6.55849E-03 8.22476E-05-2.82694E-14
 -1      3403 1.57440E-03 2.96583E-04-2.07262E-15
 -1      3404 1.42857E-03 2.84195E-04-1.72659E-15
 -1      3405 1.37743E-03 2.55507E-04-1.67821E-15
 -1      3406 1.62741E-03 2.67614E-04-2.31103E-15
 -1      3407 1.35045E-03-2.13359E-04-1.86998E-15
 -1      3408 1.42411E-02-1.81043E-03-1.36026E-13
 -1      3409 1.42557E-02-1.78317E-03-1.36586E-13
 -1      3410 1.41193E-02-1.73991E-03-1.34379E-13
 -1      3411 1.41155E-02-1.78628E-03-1.33835E-13
 -1      3412 9.73308E-04-1.10813E-04-1.15069E-15
 -1      3413 9.83804E-04-1.33664E-04-1.13887E-15
 -1      3414 1.06088E-03-1.48078E-04-1.28696E-15
 -1      3415 1.08337E-03-1.08618E-04-1.40553E-15
 -1      3416 4.34835E-03 5.87998E-04-1.39290E-14
 -1      3417 2.76245E-03-1.66418E-04-9.01448E-15
 -1      3418 2.74536E-03-1.51081E-04-9.04507E-15
 -1      3419 2.07856E-03-2.24876E-04-4.31966E-15
 -1      3420 2.21127E-03-2.30129E-04-4.86544E-15
 -1      3421 2.34274E-03-2.35861E-04-5.44322E-15
 -1      3422 2.47349E-03-2.42245E-04-6.05382E-15
 -1      3423 2.24331E-03-2.05114E-04-5.17758E-15
 -1      3424 2.60309E-03-2.49760E-04-6.69418E-15
 -1      3425 2.73273E-03-2.58834E-04-7.36633E-15
 -1      3426 2.49509E-03-2.16561E-04-6.39739E-15
 -1      3427 2.86189E-03-2.70049E-04-8.06992E-15
 -1      3428 2.99289E-03-2.84300E-04-8.80447E-15
 -1      3429 2.74011E-03-2.31434E-04-7.74152E-15
 -1      3430 3.09939E-03-2.91745E-04-9.52167E-15
 -1      3431 5.41736E-03 7.00188E-04-2.09323E-14
 -1      3432 5.41523E-03 6.87510E-04-2.08652E-14
 -1      3433 5.51081E-03 6.47543E-04-2.15390E-14
 -1      3434 5.58372E-03 6.43406E-04-2.21901E-14
 -1      3435 9.74775E-04-5.28583E-05-1.21231E-15
 -1      3436 1.08975E-03-6.83353E-05-1.46731E-15
 -1      3437 9.71890E-04-3.36673E-05-1.21246E-15
 -1      3438 8.03271E-03-6.08938E-04-3.99305E-14
 -1      3439 8.16309E-03-6.28383E-04-4.16476E-14
 -1      3440 8.29356E-03-6.49843E-04-4.33921E-14
 -1      3441 8.42499E-03-6.73060E-04-4.51639E-14
 -1      3442 8.24207E-03-6.09571E-04-4.25052E-14
 -1      3443 8.55709E-03-6.97666E-04-4.69654E-14
 -1      3444 8.69028E-03-7.23549E-04-4.87921E-14
 -1      3445 8.49586E-03-6.56449E-04-4.60485E-14
 -1      3446 8.82433E-03-7.50352E-04-5.06444E-14
 -1      3447 8.95941E-03-7.78019E-04-5.25228E-14
 -1      3448 8.75557E-03-7.07702E-04-4.97001E-14
 -1      3449 9.09530E-03-8.06237E-04-5.44253E-14
 -1      3450 9.23211E-03-8.34971E-04-5.63503E-14
 -1      3451 9.02065E-03-7.62080E-04-5.34543E-14
 -1      3452 9.36962E-03-8.63974E-04-5.82983E-14
 -1      3453 9.50788E-03-8.93221E-04-6.02713E-14
 -1      3454 9.29033E-03-8.18449E-04-5.73032E-14
 -1      3455 9.64671E-03-9.22531E-04-6.22665E-14
 -1      3456 9.78615E-03-9.51890E-04-6.42790E-14
 -1      3457 9.56380E-03-8.75860E-04-6.12457E-14
 -1      3458 9.92604E-03-9.81172E-04-6.63146E-14
 -1      3459 1.00664E-02-1.01037E-03-6.83720E-14
 -1      3460 9.84030E-03-9.33591E-04-6.52729E-14
 -1      3461 1.02071E-02-1.03941E-03-7.04511E-14
 -1      3462 1.03482E-02-1.06829E-03-7.25503E-14
 -1      3463 1.01192E-02-9.91135E-04-6.93846E-14
 -1      3464 1.04895E-02-1.09697E-03-7.46694E-14
 -1      3465 1.06311E-02-1.12544E-03-7.68054E-14
 -1      3466 1.03999E-02-1.04817E-03-7.35818E-14
 -1      3467 1.07728E-02-1.15370E-03-7.89643E-14
 -1      3468 1.09148E-02-1.18174E-03-8.11414E-14
 -1      3469 1.06820E-02-1.10453E-03-7.78582E-14
 -1      3470 1.10569E-02-1.20957E-03-8.33337E-14
 -1      3471 1.11992E-02-1.23719E-03-8.55450E-14
 -1      3472 1.09652E-02-1.16013E-03-8.22106E-14
 -1      3473 1.13415E-02-1.26461E-03-8.77728E-14
 -1      3474 1.14840E-02-1.29184E-03-9.00159E-14
 -1      3475 1.12492E-02-1.21499E-03-8.66313E-14
 -1      3476 1.16265E-02-1.31890E-03-9.22761E-14
 -1      3477 1.17692E-02-1.34579E-03-9.45530E-14
 -1      3478 1.15337E-02-1.26916E-03-9.11194E-14
 -1      3479 1.19118E-02-1.37252E-03-9.68447E-14
 -1      3480 1.20545E-02-1.39912E-03-9.91503E-14
 -1      3481 1.18186E-02-1.32271E-03-9.56716E-14
 -1      3482 1.21973E-02-1.42558E-03-1.01470E-13
 -1      3483 1.23401E-02-1.45193E-03-1.03802E-13
 -1      3484 1.21039E-02-1.37572E-03-1.00281E-13
 -1      3485 1.24829E-02-1.47817E-03-1.06151E-13
 -1      3486 1.26257E-02-1.50432E-03-1.08516E-13
 -1      3487 1.23893E-02-1.42828E-03-1.04945E-13
 -1      3488 1.27685E-02-1.53038E-03-1.10893E-13
 -1      3489 1.29114E-02-1.55637E-03-1.13284E-13
 -1      3490 1.26749E-02-1.48047E-03-1.09670E-13
 -1      3491 1.30542E-02-1.58229E-03-1.15690E-13
 -1      3492 1.31971E-02-1.60815E-03-1.18107E-13
 -1      3493 1.29606E-02-1.53237E-03-1.14449E-13
 -1      3494 1.33400E-02-1.63397E-03-1.20539E-13
 -1      3495 1.34829E-02-1.65973E-03-1.22984E-13
 -1      3496 1.32463E-02-1.58404E-03-1.19282E-13
 -1      3497 1.36257E-02-1.68546E-03-1.25440E-13
 -1      3498 1.37686E-02-1.71116E-03-1.27912E-13
 -1      3499 1.35320E-02-1.63554E-03-1.24165E-13
 -1      3500 3.16146E-03 3.23460E-04-8.15269E-15
 -1      3501 3.00073E-03 3.05446E-04-7.44027E-15
 -1      3502 1.13888E-03-1.62644E-04-1.44372E-15
 -1      3503 1.21787E-03-1.77351E-04-1.60928E-15
 -1      3504 1.14814E-03-1.41170E-04-1.50882E-15
 -1      3505 6.22695E-03 3.44657E-04-2.70491E-14
 -1      3506 6.04661E-03 4.24666E-04-2.56423E-14
 -1      3507 6.61884E-03 1.92085E-04-3.03096E-14
 -1      3508 6.44293E-03 2.59319E-04-2.88200E-14
 -1      3509 6.96006E-03 7.87366E-05-3.33917E-14
 -1      3510 6.79193E-03 1.32208E-04-3.18342E-14
 -1      3511 6.76212E-03 1.01975E-04-3.11588E-14
 -1      3512 7.28447E-03-1.10455E-05-3.66051E-14
 -1      3513 7.12443E-03 3.14709E-05-3.49826E-14
 -1      3514 7.09890E-03 2.22540E-07-3.42795E-14
 -1      3515 7.59443E-03-8.35613E-05-3.99439E-14
 -1      3516 7.44107E-03-4.89540E-05-3.82596E-14
 -1      3517 7.41626E-03-7.87453E-05-3.75278E-14
 -1      3518 7.89377E-03-1.44280E-04-4.34021E-14
 -1      3519 7.74521E-03-1.15022E-04-4.16573E-14
 -1      3520 7.71890E-03-1.42858E-04-4.08972E-14
 -1      3521 8.18599E-03-1.97250E-04-4.69780E-14
 -1      3522 8.04057E-03-1.71494E-04-4.51763E-14
 -1      3523 8.01165E-03-1.97653E-04-4.43858E-14
 -1      3524 8.47383E-03-2.45309E-04-5.06651E-14
 -1      3525 8.33031E-03-2.21732E-04-4.88078E-14
 -1      3526 8.29833E-03-2.46719E-04-4.79909E-14
 -1      3527 8.75923E-03-2.90476E-04-5.44557E-14
 -1      3528 8.61673E-03-2.68149E-04-5.25478E-14
 -1      3529 8.58168E-03-2.92444E-04-5.17048E-14
 -1      3530 9.04344E-03-3.34164E-04-5.83472E-14
 -1      3531 8.90141E-03-3.12436E-04-5.63881E-14
 -1      3532 8.86352E-03-3.36395E-04-5.55210E-14
 -1      3533 9.32722E-03-3.77345E-04-6.23361E-14
 -1      3534 9.18534E-03-3.55774E-04-6.03304E-14
 -1      3535 9.14494E-03-3.79625E-04-5.94358E-14
 -1      3536 9.61101E-03-4.20668E-04-6.64171E-14
 -1      3537 9.46909E-03-3.98963E-04-6.43657E-14
 -1      3538 9.42657E-03-4.22837E-04-6.34477E-14
 -1      3539 9.89501E-03-4.64534E-04-7.05835E-14
 -1      3540 9.75297E-03-4.42519E-04-6.84885E-14
 -1      3541 9.70870E-03-4.66479E-04-6.75510E-14
 -1      3542 1.01793E-02-5.09167E-04-7.48323E-14
 -1      3543 1.00371E-02-4.86749E-04-7.26987E-14
 -1      3544 9.99145E-03-5.10814E-04-7.17386E-14
 -1      3545 1.04639E-02-5.54663E-04-7.91572E-14
 -1      3546 1.03216E-02-5.31807E-04-7.69853E-14
 -1      3547 1.02748E-02-5.55973E-04-7.60047E-14
 -1      3548 1.07488E-02-6.01030E-04-8.35588E-14
 -1      3549 1.06063E-02-5.77741E-04-8.13499E-14
 -1      3550 1.05588E-02-6.01991E-04-8.03485E-14
 -1      3551 1.10340E-02-6.48220E-04-8.80304E-14
 -1      3552 1.08914E-02-6.24527E-04-8.57860E-14
 -1      3553 1.08432E-02-6.48843E-04-8.47648E-14
 -1      3554 1.13193E-02-6.96154E-04-9.25676E-14
 -1      3555 1.11766E-02-6.72100E-04-9.02916E-14
 -1      3556 1.11279E-02-6.96462E-04-8.92517E-14
 -1      3557 1.16048E-02-7.44737E-04-9.71624E-14
 -1      3558 1.14620E-02-7.20371E-04-9.48573E-14
 -1      3559 1.14130E-02-7.44762E-04-9.38012E-14
 -1      3560 1.18903E-02-7.93870E-04-1.01813E-13
 -1      3561 1.17475E-02-7.69241E-04-9.94817E-14
 -1      3562 1.16983E-02-7.93649E-04-9.84069E-14
 -1      3563 1.21760E-02-8.43458E-04-1.06520E-13
 -1      3564 1.20331E-02-8.18612E-04-1.04162E-13
 -1      3565 1.19838E-02-8.43027E-04-1.03070E-13
 -1      3566 1.24617E-02-8.93413E-04-1.11269E-13
 -1      3567 1.23188E-02-8.68394E-04-1.08889E-13
 -1      3568 1.22694E-02-8.92810E-04-1.07784E-13
 -1      3569 1.27474E-02-9.43658E-04-1.16056E-13
 -1      3570 1.26045E-02-9.18503E-04-1.13658E-13
 -1      3571 1.25551E-02-9.42915E-04-1.12540E-13
 -1      3572 1.30331E-02-9.94125E-04-1.20881E-13
 -1      3573 1.28903E-02-9.68867E-04-1.18465E-13
 -1      3574 1.28408E-02-9.93275E-04-1.17337E-13
 -1      3575 1.33189E-02-1.04476E-03-1.25736E-13
 -1      3576 1.31760E-02-1.01942E-03-1.23304E-13
 -1      3577 1.31265E-02-1.04383E-03-1.22173E-13
 -1      3578 1.36046E-02-1.09551E-03-1.30622E-13
 -1      3579 1.34618E-02-1.07012E-03-1.28175E-13
 -1      3580 1.34123E-02-1.09452E-03-1.27039E-13
 -1      3581 4.15860E-03 4.82241E-04-1.31238E-14
 -1      3582 4.13121E-03 5.31044E-04-1.27565E-14
 -1      3583 3.95196E-03 4.79718E-04-1.18513E-14
 -1      3584 3.91813E-03 3.69500E-04-1.21342E-14
 -1      3585 1.38845E-02-1.50572E-03-1.32166E-13
 -1      3586 1.38594E-02-1.46360E-03-1.32087E-13
 -1      3587 7.30852E-03-2.46292E-04-3.26817E-14
 -1      3588 7.45442E-03-3.04138E-04-3.32215E-14
 -1      3589 6.93556E-03-7.55976E-05-3.09511E-14
 -1      3590 7.11410E-03-1.56045E-04-3.19279E-14
 -1      3591 1.94849E-03 2.46886E-04-3.37921E-15
 -1      3592 1.80397E-03 2.40689E-04-2.92993E-15
 -1      3593 2.76802E-03-1.31266E-04-9.17549E-15
 -1      3594 2.83318E-03-1.10090E-04-9.37314E-15
 -1      3595 2.96535E-03-7.38508E-05-9.75816E-15
 -1      3596 3.10958E-03-3.72335E-05-1.01896E-14
 -1      3597 1.35502E-03-1.88085E-04-1.94973E-15
 -1      3598 7.77127E-03-5.77811E-04-3.65821E-14
 -1      3599 7.90266E-03-5.91832E-04-3.82423E-14
 -1      3600 7.99400E-03-5.68334E-04-3.90752E-14
 -1      3601 7.60933E-03-4.83699E-04-3.31960E-14
 -1      3602 7.50269E-03-5.28470E-04-3.28181E-14
 -1      3603 7.34133E-03-5.99915E-04-3.21048E-14
 -1      3604 1.81023E-03-2.14003E-04-3.32327E-15
 -1      3605 1.94495E-03-2.19554E-04-3.80566E-15
 -1      3606 1.98486E-03-1.95050E-04-4.08354E-15
 -1      3607 1.53843E-03-2.00443E-04-2.45664E-15
 -1      3608 1.67475E-03-2.07674E-04-2.87388E-15
 -1      3609 1.72077E-03-1.84293E-04-3.11772E-15
 -1      3610 1.39533E-02-1.20119E-03-1.36238E-13
 -1      3611 1.39386E-02-1.16686E-03-1.36257E-13
 -1      3612 1.38435E-02-1.14426E-03-1.34668E-13
 -1      3613 1.38421E-02-1.20024E-03-1.34157E-13
 -1      3614 3.55714E-03 1.98893E-04-1.09256E-14
 -1      3615 3.71971E-03 2.79618E-04-1.14103E-14
 -1      3616 6.46185E-03 1.83312E-04-2.83506E-14
 -1      3617 6.67006E-03 6.71061E-05-2.95769E-14
 -1      3618 7.58221E-03-3.48290E-04-3.37559E-14
 -1      3619 7.68763E-03-3.79748E-04-3.42816E-14
 -1      3620 7.74095E-03-4.47655E-04-3.40719E-14
 -1      3621 7.68318E-03-4.61576E-04-3.36351E-14
 -1      3622 7.70914E-03-4.94022E-04-3.46046E-14
 -1      3623 7.49183E-03-5.76553E-04-3.34365E-14
 -1      3624 7.64145E-03-5.65445E-04-3.49578E-14
 -1      3625 2.95772E-03-2.45039E-04-9.16021E-15
 -1      3626 2.79336E-03-1.85179E-04-8.93770E-15
 -1      3627 2.70365E-03-1.68577E-04-8.41363E-15
 -1      3628 5.63069E-03 6.03605E-04-2.24479E-14
 -1      3629 3.13504E-03 9.86644E-06-9.90165E-15
 -1      3630 5.92894E-03 4.51860E-04-2.45458E-14
 -1      3631 1.11626E-03 1.07892E-04-1.39331E-15
 -1      3632 5.66550E-03 6.02326E-04-2.27800E-14
 -1      3633 1.08325E-03-2.68780E-05-1.46745E-15
 -1      3634 1.38344E-02-1.42167E-03-1.32008E-13
 -1      3635 1.38095E-02-1.37974E-03-1.31923E-13
 -1      3636 1.37232E-02-1.42062E-03-1.29905E-13
 -1      3637 2.88296E-03-2.15075E-04-9.09566E-15
 -1      3638 1.27033E-03 1.88829E-04-1.58500E-15
 -1      3639 1.25466E-03 1.57649E-04-1.61947E-15
 -1      3640 5.83987E-03 5.25847E-04-2.40996E-14
 -1      3641 2.88671E-03 2.49591E-04-7.16323E-15
 -1      3642 2.84337E-03 2.91498E-04-6.76107E-15
 -1      3643 2.68918E-03 2.80379E-04-6.11558E-15
 -1      3644 3.32657E-03 3.45744E-04-8.89764E-15
 -1      3645 3.20612E-03 2.79468E-04-8.58932E-15
 -1      3646 3.49553E-03 3.74174E-04-9.67656E-15
 -1      3647 1.38792E-02-1.73664E-03-1.29778E-13
 -1      3648 1.40048E-02-1.76082E-03-1.31952E-13
 -1      3649 1.40068E-02-1.73764E-03-1.32226E-13
 -1      3650 1.37855E-02-1.68672E-03-1.28486E-13
 -1      3651 2.49099E-03 3.09492E-04-5.14194E-15
 -1      3652 2.69642E-03-1.30552E-04-8.61611E-15
 -1      3653 1.39096E-02-1.54765E-03-1.32243E-13
 -1      3654 1.37733E-02-1.50445E-03-1.30057E-13
 -1      3655 1.39347E-02-1.58959E-03-1.32314E-13
 -1      3656 1.19978E-03-6.25214E-05-1.74937E-15
 -1      3657 1.20609E-03-8.48965E-05-1.74586E-15
 -1      3658 3.77432E-03 4.34669E-04-1.09830E-14
 -1      3659 3.75002E-03 3.40317E-04-1.12788E-14
 -1      3660 1.37485E-02-1.12167E-03-1.33082E-13
 -1      3661 7.26687E-03-2.00995E-04-3.32096E-14
 -1      3662 7.57524E-03-3.28580E-04-3.45181E-14
 -1      3663 1.37845E-02-1.33780E-03-1.31839E-13
 -1      3664 1.37596E-02-1.29587E-03-1.31752E-13
 -1      3665 1.36733E-02-1.33679E-03-1.29745E-13
 -1      3666 1.21694E-03 7.43926E-05-1.69665E-15
 -1      3667 1.20814E-03 4.97025E-05-1.71407E-15
 -1      3668 2.09382E-03 2.52605E-04-3.86107E-15
 -1      3669 1.99757E-03 2.14046E-04-3.66875E-15
 -1      3670 2.24026E-03 2.58323E-04-4.37539E-15
 -1      3671 1.18172E-03-1.02650E-04-1.65887E-15
 -1      3672 1.16995E-03-1.22624E-04-1.59708E-15
 -1      3673 1.24609E-03-1.34949E-04-1.77351E-15
 -1      3674 1.29070E-03-9.70976E-05-1.96071E-15
 -1      3675 1.31847E-03 3.85155E-05-2.02269E-15
 -1      3676 1.20145E-03 2.60808E-05-1.72819E-15
 -1      3677 1.19714E-03 3.32813E-06-1.73867E-15
 -1      3678 7.76340E-03-3.99127E-04-3.50503E-14
 -1      3679 7.82857E-03-4.16354E-04-3.58234E-14
 -1      3680 7.77219E-03-3.89175E-04-3.58372E-14
 -1      3681 1.37448E-02-1.26156E-03-1.31785E-13
 -1      3682 1.37301E-02-1.22726E-03-1.31814E-13
 -1      3683 1.36336E-02-1.26058E-03-1.29697E-13
 -1      3684 2.79301E-03-2.13012E-04-8.39963E-15
 -1      3685 7.80830E-03-4.44597E-04-3.50470E-14
 -1      3686 7.85113E-03-4.70087E-04-3.60373E-14
 -1      3687 7.86386E-03-4.43835E-04-3.60278E-14
 -1      3688 1.67986E-03 2.38340E-04-2.55675E-15
 -1      3689 1.55586E-03 2.34806E-04-2.20928E-15
 -1      3690 1.73154E-03 2.08702E-04-2.80915E-15
 -1      3691 1.36990E-02-1.14607E-03-1.31945E-13
 -1      3692 2.73624E-03-7.93373E-05-8.48606E-15
 -1      3693 2.84593E-03-7.88851E-05-9.11179E-15
 -1      3694 2.86186E-03-4.23017E-05-8.84836E-15
 -1      3695 1.40667E-03-1.67389E-04-2.15179E-15
 -1      3696 7.75223E-03-5.33243E-04-3.57659E-14
 -1      3697 6.82916E-03 2.26629E-05-3.10358E-14
 -1      3698 1.40087E-02-1.71447E-03-1.32498E-13
 -1      3699 1.40106E-02-1.69129E-03-1.32767E-13
 -1      3700 1.38981E-02-1.68902E-03-1.30625E-13
 -1      3701 1.39855E-02-1.64934E-03-1.32703E-13
 -1      3702 1.19534E-03-1.87451E-05-1.74565E-15
 -1      3703 1.19620E-03-4.06089E-05-1.74933E-15
 -1      3704 1.30992E-03-5.54804E-05-2.05497E-15
 -1      3705 1.30836E-03-9.51700E-06-2.04649E-15
 -1      3706 2.39699E-03-1.87605E-04-6.10308E-15
 -1      3707 2.51615E-03-1.93406E-04-6.74402E-15
 -1      3708 2.68046E-03-2.05130E-04-7.68571E-15
 -1      3709 8.19187E-03-5.71843E-04-4.16217E-14
 -1      3710 8.31266E-03-5.94198E-04-4.33628E-14
 -1      3711 1.32751E-03 2.28035E-04-1.62722E-15
 -1      3712 1.44180E-03 2.20464E-04-1.93929E-15
 -1      3713 8.43547E-03-6.17442E-04-4.51328E-14
 -1      3714 8.56058E-03-6.41846E-04-4.69308E-14
 -1      3715 8.37527E-03-5.80674E-04-4.42206E-14
 -1      3716 8.68750E-03-6.66990E-04-4.87558E-14
 -1      3717 8.81631E-03-6.93029E-04-5.06072E-14
 -1      3718 8.61957E-03-6.28222E-04-4.78129E-14
 -1      3719 8.94665E-03-7.19615E-04-5.24834E-14
 -1      3720 9.07853E-03-7.46826E-04-5.43843E-14
 -1      3721 8.87287E-03-6.78844E-04-5.15136E-14
 -1      3722 9.21169E-03-7.74379E-04-5.63086E-14
 -1      3723 9.34608E-03-8.02316E-04-5.82554E-14
 -1      3724 9.13334E-03-7.31772E-04-5.53131E-14
 -1      3725 9.48150E-03-8.30420E-04-6.02244E-14
 -1      3726 9.61790E-03-8.58711E-04-6.22174E-14
 -1      3727 9.39955E-03-7.86224E-04-5.92060E-14
 -1      3728 9.75513E-03-8.87030E-04-6.42297E-14
 -1      3729 9.89313E-03-9.15393E-04-6.62630E-14
 -1      3730 9.67034E-03-8.41513E-04-6.31862E-14
 -1      3731 1.00318E-02-9.43689E-04-6.83192E-14
 -1      3732 1.01710E-02-9.71931E-04-7.03976E-14
 -1      3733 9.94474E-03-8.97104E-04-6.72547E-14
 -1      3734 1.03108E-02-1.00004E-03-7.24955E-14
 -1      3735 1.04510E-02-1.02804E-03-7.46135E-14
 -1      3736 1.02220E-02-9.52616E-04-7.14096E-14
 -1      3737 1.05916E-02-1.05589E-03-7.67528E-14
 -1      3738 1.07325E-02-1.08358E-03-7.89105E-14
 -1      3739 1.05015E-02-1.00780E-03-7.56473E-14
 -1      3740 1.08738E-02-1.11111E-03-8.10856E-14
 -1      3741 1.10153E-02-1.13848E-03-8.32802E-14
 -1      3742 1.07826E-02-1.06253E-03-7.99629E-14
 -1      3743 1.11570E-02-1.16569E-03-8.54901E-14
 -1      3744 1.12989E-02-1.19275E-03-8.77182E-14
 -1      3745 1.10651E-02-1.11673E-03-8.43503E-14
 -1      3746 1.14410E-02-1.21966E-03-8.99623E-14
 -1      3747 1.15833E-02-1.24643E-03-9.22219E-14
 -1      3748 1.13485E-02-1.17042E-03-8.88044E-14
 -1      3749 1.17256E-02-1.27306E-03-9.44972E-14
 -1      3750 1.18681E-02-1.29958E-03-9.67881E-14
 -1      3751 1.16327E-02-1.22362E-03-9.33233E-14
 -1      3752 1.20106E-02-1.32598E-03-9.90917E-14
 -1      3753 1.21532E-02-1.35227E-03-1.01408E-13
 -1      3754 1.19174E-02-1.27638E-03-9.79028E-14
 -1      3755 1.22959E-02-1.37847E-03-1.03741E-13
 -1      3756 1.24386E-02-1.40459E-03-1.06088E-13
 -1      3757 1.22025E-02-1.32877E-03-1.02536E-13
 -1      3758 1.25813E-02-1.43062E-03-1.08449E-13
 -1      3759 1.27241E-02-1.45659E-03-1.10823E-13
 -1      3760 1.24878E-02-1.38085E-03-1.07229E-13
 -1      3761 1.28669E-02-1.48250E-03-1.13210E-13
 -1      3762 1.30098E-02-1.50835E-03-1.15612E-13
 -1      3763 1.27733E-02-1.43268E-03-1.11975E-13
 -1      3764 1.31526E-02-1.53415E-03-1.18028E-13
 -1      3765 1.32955E-02-1.55992E-03-1.20456E-13
 -1      3766 1.30590E-02-1.48430E-03-1.16774E-13
 -1      3767 1.34383E-02-1.58564E-03-1.22895E-13
 -1      3768 1.35812E-02-1.61134E-03-1.25348E-13
 -1      3769 1.33447E-02-1.53576E-03-1.21626E-13
 -1      3770 2.53753E-03 2.71696E-04-5.50268E-15
 -1      3771 2.38804E-03 2.64462E-04-4.92225E-15
 -1      3772 2.58186E-03 2.32620E-04-5.86765E-15
 -1      3773 1.24038E-03 1.28253E-04-1.64964E-15
 -1      3774 1.22778E-03 1.00498E-04-1.67561E-15
 -1      3775 1.33867E-03 9.09752E-05-1.98333E-15
 -1      3776 1.36703E-03 1.49491E-04-1.92617E-15
 -1      3777 6.36843E-03 2.46742E-04-2.78490E-14
 -1      3778 3.59516E-03 3.57742E-04-1.03036E-14
 -1      3779 3.46613E-03 2.80820E-04-9.96154E-15
 -1      3780 6.99925E-03-2.86538E-05-3.25787E-14
 -1      3781 7.84194E-03-1.98621E-04-4.18526E-14
 -1      3782 7.69620E-03-1.71412E-04-4.01380E-14
 -1      3783 8.12756E-03-2.48174E-04-4.53720E-14
 -1      3784 7.98551E-03-2.23931E-04-4.35981E-14
 -1      3785 7.96228E-03-2.50498E-04-4.28124E-14
 -1      3786 8.40862E-03-2.94072E-04-4.90051E-14
 -1      3787 8.26845E-03-2.71421E-04-4.71743E-14
 -1      3788 8.24071E-03-2.95903E-04-4.63603E-14
 -1      3789 8.68766E-03-3.38067E-04-5.27460E-14
 -1      3790 8.54825E-03-3.16217E-04-5.08627E-14
 -1      3791 8.51643E-03-3.39489E-04-5.00225E-14
 -1      3792 8.96621E-03-3.81267E-04-5.65867E-14
 -1      3793 8.82691E-03-3.59715E-04-5.46546E-14
 -1      3794 8.79152E-03-3.82391E-04-5.37897E-14
 -1      3795 9.24514E-03-4.24385E-04-6.05261E-14
 -1      3796 9.10558E-03-4.02807E-04-5.85441E-14
 -1      3797 9.06717E-03-4.25299E-04-5.76543E-14
 -1      3798 9.52489E-03-4.67875E-04-6.45616E-14
 -1      3799 9.38488E-03-4.46069E-04-6.25331E-14
 -1      3800 9.34397E-03-4.68626E-04-6.16176E-14
 -1      3801 9.80561E-03-5.12009E-04-6.86857E-14
 -1      3802 9.66511E-03-4.89856E-04-6.66129E-14
 -1      3803 9.62214E-03-5.12613E-04-6.56762E-14
 -1      3804 1.00873E-02-5.56932E-04-7.28937E-14
 -1      3805 9.94634E-03-5.34372E-04-7.07783E-14
 -1      3806 9.90172E-03-5.57385E-04-6.98213E-14
 -1      3807 1.03699E-02-6.02695E-04-7.71777E-14
 -1      3808 1.02285E-02-5.79711E-04-7.50258E-14
 -1      3809 1.01826E-02-6.02988E-04-7.40476E-14
 -1      3810 1.06533E-02-6.49287E-04-8.15386E-14
 -1      3811 1.05115E-02-6.25893E-04-7.93492E-14
 -1      3812 1.04646E-02-6.49412E-04-7.83522E-14
 -1      3813 1.09373E-02-6.96655E-04-8.59709E-14
 -1      3814 1.07952E-02-6.72880E-04-8.37466E-14
 -1      3815 1.07475E-02-6.96610E-04-8.27295E-14
 -1      3816 1.12218E-02-7.44721E-04-9.04723E-14
 -1      3817 1.10795E-02-7.20607E-04-8.82125E-14
 -1      3818 1.10312E-02-7.44511E-04-8.71777E-14
 -1      3819 1.15067E-02-7.93396E-04-9.50335E-14
 -1      3820 1.13642E-02-7.68989E-04-9.27459E-14
 -1      3821 1.13155E-02-7.93029E-04-9.16918E-14
 -1      3822 1.17919E-02-8.42590E-04-9.96496E-14
 -1      3823 1.16493E-02-8.17934E-04-9.73343E-14
 -1      3824 1.16003E-02-8.42080E-04-9.62639E-14
 -1      3825 1.20773E-02-8.92214E-04-1.04324E-13
 -1      3826 1.19346E-02-8.67354E-04-1.01980E-13
 -1      3827 1.18854E-02-8.91576E-04-1.00892E-13
 -1      3828 1.23628E-02-9.42189E-04-1.09045E-13
 -1      3829 1.22200E-02-9.17162E-04-1.06679E-13
 -1      3830 1.21707E-02-9.41440E-04-1.05576E-13
 -1      3831 1.26485E-02-9.92442E-04-1.13810E-13
 -1      3832 1.25056E-02-9.67284E-04-1.11424E-13
 -1      3833 1.24562E-02-9.91601E-04-1.10306E-13
 -1      3834 1.29342E-02-1.04291E-03-1.18618E-13
 -1      3835 1.27913E-02-1.01765E-03-1.16208E-13
 -1      3836 1.27419E-02-1.04199E-03-1.15081E-13
 -1      3837 1.32199E-02-1.09354E-03-1.23463E-13
 -1      3838 1.30770E-02-1.06821E-03-1.21036E-13
 -1      3839 1.30276E-02-1.09257E-03-1.19899E-13
 -1      3840 3.38684E-03 1.23856E-04-1.04373E-14
 -1      3841 3.39770E-03 1.85604E-04-1.01100E-14
 -1      3842 3.26620E-03 9.27051E-05-9.98310E-15
 -1      3843 7.58018E-03-3.08468E-04-3.53696E-14
 -1      3844 7.69496E-03-3.51213E-04-3.59204E-14
 -1      3845 2.60859E-03-1.28977E-04-7.94764E-15
 -1      3846 2.63463E-03-1.06493E-04-8.06812E-15
 -1      3847 1.38492E-02-1.60610E-03-1.30515E-13
 -1      3848 1.36982E-02-1.17405E-03-1.31688E-13
 -1      3849 1.42490E-03-1.46139E-04-2.25849E-15
 -1      3850 7.32055E-03-1.08873E-04-3.57589E-14
 -1      3851 7.16282E-03-7.11995E-05-3.41531E-14
 -1      3852 7.23932E-03-1.44314E-04-3.40162E-14
 -1      3853 7.41102E-03-2.28540E-04-3.47992E-14
 -1      3854 7.81860E-03-5.11518E-04-3.62211E-14
 -1      3855 1.63596E-03-1.56263E-04-2.91371E-15
 -1      3856 1.76717E-03-1.61835E-04-3.36586E-15
 -1      3857 1.89690E-03-1.67087E-04-3.84955E-15
 -1      3858 2.02511E-03-1.71962E-04-4.36569E-15
 -1      3859 1.81433E-03-1.40348E-04-3.61810E-15
 -1      3860 2.62717E-03-1.65720E-04-7.81079E-15
 -1      3861 2.61048E-03-1.46948E-04-7.88233E-15
 -1      3862 2.52644E-03-1.25145E-04-7.36419E-15
 -1      3863 2.15126E-03-1.76946E-04-4.91341E-15
 -1      3864 2.27546E-03-1.81973E-04-5.49284E-15
 -1      3865 2.30842E-03-1.60782E-04-5.81016E-15
 -1      3866 2.06624E-03-1.50328E-04-4.65131E-15
 -1      3867 2.97571E-03-6.81990E-06-9.16297E-15
 -1      3868 3.11621E-03 3.69976E-05-9.57035E-15
 -1      3869 3.09207E-03 6.46442E-05-9.24120E-15
 -1      3870 7.58533E-03-1.57067E-04-3.87559E-14
 -1      3871 7.43492E-03-1.25930E-04-3.70941E-14
 -1      3872 7.49982E-03-1.89393E-04-3.69554E-14
 -1      3873 7.71418E-03-2.14471E-04-3.96852E-14
 -1      3874 2.58346E-03-1.77123E-04-7.35693E-15
 -1      3875 1.49576E-03 1.94247E-04-2.15840E-15
 -1      3876 1.35870E-02-1.17310E-03-1.29610E-13
 -1      3877 3.31330E-03 2.11665E-04-9.50520E-15
 -1      3878 7.89072E-03-4.98306E-04-3.69524E-14
 -1      3879 7.94821E-03-5.35131E-04-3.81480E-14
 -1      3880 8.06535E-03-5.54881E-04-3.98325E-14
 -1      3881 7.96733E-03-4.94423E-04-3.79601E-14
 -1      3882 1.47773E-03-1.26353E-04-2.46728E-15
 -1      3883 8.13559E-03-5.40171E-04-4.06645E-14
 -1      3884 1.43725E-03 5.18787E-05-2.33919E-15
 -1      3885 1.42836E-03 2.56681E-05-2.35676E-15
 -1      3886 1.36120E-02-1.41946E-03-1.27812E-13
 -1      3887 1.35870E-02-1.37757E-03-1.27736E-13
 -1      3888 1.46264E-03 1.08352E-04-2.29085E-15
 -1      3889 1.44880E-03 7.93248E-05-2.31735E-15
 -1      3890 1.55803E-03 6.59925E-05-2.67677E-15
 -1      3891 7.52424E-03-2.26463E-04-3.65834E-14
 -1      3892 7.54429E-03-2.75128E-04-3.57487E-14
 -1      3893 7.67785E-03-3.03662E-04-3.71715E-14
 -1      3894 7.62786E-03-2.37159E-04-3.79337E-14
 -1      3895 1.37875E-02-1.66356E-03-1.28758E-13
 -1      3896 1.48666E-03 1.66078E-04-2.21054E-15
 -1      3897 1.46942E-03 1.33994E-04-2.24626E-15
 -1      3898 1.57985E-03 1.21600E-04-2.60416E-15
 -1      3899 1.59822E-03 1.77291E-04-2.50144E-15
 -1      3900 3.14994E-03 1.94247E-04-8.74008E-15
 -1      3901 2.84105E-03-1.81472E-05-8.53797E-15
 -1      3902 7.80162E-03-3.61643E-04-3.75831E-14
 -1      3903 7.78603E-03-3.76732E-04-3.67082E-14
 -1      3904 7.86851E-03-3.99074E-04-3.75002E-14
 -1      3905 1.35056E-02-1.14430E-03-1.28344E-13
 -1      3906 1.33628E-02-1.11891E-03-1.25900E-13
 -1      3907 1.36621E-02-1.50326E-03-1.27957E-13
 -1      3908 1.36370E-02-1.46136E-03-1.27884E-13
 -1      3909 1.35008E-02-1.41828E-03-1.25722E-13
 -1      3910 1.36938E-02-1.61365E-03-1.27471E-13
 -1      3911 3.05719E-03 1.17178E-04-8.70940E-15
 -1      3912 2.96524E-03 1.89061E-04-7.84634E-15
 -1      3913 1.36429E-02-1.55395E-03-1.27096E-13
 -1      3914 2.81231E-03 1.81266E-04-7.15262E-15
 -1      3915 2.92309E-03 6.97597E-05-8.32942E-15
 -1      3916 1.42021E-03-4.74566E-05-2.38385E-15
 -1      3917 1.42433E-03-7.13262E-05-2.38434E-15
 -1      3918 2.28671E-03 2.22316E-04-4.70319E-15
 -1      3919 1.35620E-02-1.33567E-03-1.27657E-13
 -1      3920 1.35371E-02-1.29377E-03-1.27576E-13
 -1      3921 1.34508E-02-1.33453E-03-1.25572E-13
 -1      3922 2.51149E-03-8.22788E-05-7.19558E-15
 -1      3923 2.62088E-03-8.12002E-05-7.82883E-15
 -1      3924 2.61353E-03-5.25188E-05-7.58731E-15
 -1      3925 2.04547E-03 1.80889E-04-3.96409E-15
 -1      3926 1.90394E-03 1.78084E-04-3.47575E-15
 -1      3927 1.49877E-03-1.06228E-04-2.57402E-15
 -1      3928 1.33133E-02-1.14328E-03-1.24758E-13
 -1      3929 1.35223E-02-1.25950E-03-1.27614E-13
 -1      3930 1.35075E-02-1.22522E-03-1.27651E-13
 -1      3931 1.34110E-02-1.25841E-03-1.25535E-13
 -1      3932 7.90131E-03-4.38727E-04-3.68312E-14
 -1      3933 7.96674E-03-4.62261E-04-3.78468E-14
 -1      3934 7.93099E-03-4.32861E-04-3.76383E-14
 -1      3935 1.71963E-03 1.78123E-04-2.86984E-15
 -1      3936 1.77051E-03 1.48729E-04-3.12729E-15
 -1      3937 2.47740E-03-1.54669E-04-6.86343E-15
 -1      3938 1.60518E-03-9.83315E-05-2.94464E-15
 -1      3939 8.55052E-03-5.91311E-04-4.68742E-14
 -1      3940 8.67330E-03-6.15216E-04-4.86970E-14
 -1      3941 8.79839E-03-6.39677E-04-5.05460E-14
 -1      3942 8.92560E-03-6.64906E-04-5.24208E-14
 -1      3943 8.72263E-03-6.02048E-04-4.95803E-14
 -1      3944 9.05463E-03-6.90562E-04-5.43185E-14
 -1      3945 9.18533E-03-7.16760E-04-5.62415E-14
 -1      3946 8.97511E-03-6.50703E-04-5.33259E-14
 -1      3947 9.31747E-03-7.43243E-04-5.81881E-14
 -1      3948 9.45094E-03-7.70065E-04-6.01546E-14
 -1      3949 9.23491E-03-7.01439E-04-5.71696E-14
 -1      3950 9.58556E-03-7.97037E-04-6.21457E-14
 -1      3951 9.72123E-03-8.24193E-04-6.41571E-14
 -1      3952 9.50054E-03-7.53579E-04-6.11041E-14
 -1      3953 9.85781E-03-8.51395E-04-6.61909E-14
 -1      3954 9.99523E-03-8.78669E-04-6.82479E-14
 -1      3955 9.77080E-03-8.06557E-04-6.51286E-14
 -1      3956 1.01334E-02-9.05913E-04-7.03248E-14
 -1      3957 1.02721E-02-9.33150E-04-7.24232E-14
 -1      3958 1.00447E-02-8.59942E-04-6.92406E-14
 -1      3959 1.04115E-02-9.60311E-04-7.45438E-14
 -1      3960 1.05513E-02-9.87414E-04-7.66838E-14
 -1      3961 1.03216E-02-9.13423E-04-7.34397E-14
 -1      3962 1.06916E-02-1.01442E-03-7.88407E-14
 -1      3963 1.08323E-02-1.04134E-03-8.10161E-14
 -1      3964 1.06007E-02-9.66796E-04-7.77185E-14
 -1      3965 1.09733E-02-1.06814E-03-8.32109E-14
 -1      3966 1.11146E-02-1.09486E-03-8.54212E-14
 -1      3967 1.08816E-02-1.01995E-03-8.20705E-14
 -1      3968 1.12562E-02-1.12147E-03-8.76486E-14
 -1      3969 1.13980E-02-1.14798E-03-8.98931E-14
 -1      3970 1.11639E-02-1.07282E-03-8.64928E-14
 -1      3971 1.15399E-02-1.17439E-03-9.21512E-14
 -1      3972 1.16820E-02-1.20072E-03-9.44259E-14
 -1      3973 1.14472E-02-1.12540E-03-9.09792E-14
 -1      3974 1.18243E-02-1.22695E-03-9.67142E-14
 -1      3975 1.19667E-02-1.25311E-03-9.90160E-14
 -1      3976 1.17313E-02-1.17771E-03-9.55249E-14
 -1      3977 1.21092E-02-1.27920E-03-1.01333E-13
 -1      3978 1.22517E-02-1.30521E-03-1.03664E-13
 -1      3979 1.20159E-02-1.22975E-03-1.00130E-13
 -1      3980 1.23944E-02-1.33117E-03-1.06010E-13
 -1      3981 1.25371E-02-1.35707E-03-1.08368E-13
 -1      3982 1.23010E-02-1.28158E-03-1.04790E-13
 -1      3983 1.26798E-02-1.38292E-03-1.10740E-13
 -1      3984 1.28226E-02-1.40872E-03-1.13123E-13
 -1      3985 1.25863E-02-1.33323E-03-1.09505E-13
 -1      3986 1.29654E-02-1.43449E-03-1.15522E-13
 -1      3987 1.31082E-02-1.46022E-03-1.17936E-13
 -1      3988 1.28718E-02-1.38472E-03-1.14274E-13
 -1      3989 1.32510E-02-1.48592E-03-1.20360E-13
 -1      3990 1.33939E-02-1.51159E-03-1.22797E-13
 -1      3991 1.31574E-02-1.43610E-03-1.19094E-13
 -1      3992 2.66291E-03 1.76585E-04-6.49109E-15
 -1      3993 2.51630E-03 1.73207E-04-5.86210E-15
 -1      3994 2.73551E-03 1.17391E-04-7.13092E-15
 -1      3995 1.75959E-03 1.19851E-04-3.18194E-15
 -1      3996 8.62154E-03-3.83142E-04-5.10431E-14
 -1      3997 8.48605E-03-3.62063E-04-4.91845E-14
 -1      3998 8.35073E-03-3.41011E-04-4.73528E-14
 -1      3999 8.21512E-03-3.19845E-04-4.55499E-14
 -1      4000 8.45707E-03-3.83920E-04-4.83487E-14
 -1      4001 8.07925E-03-2.98531E-04-4.37743E-14
 -1      4002 7.94242E-03-2.76802E-04-4.20285E-14
 -1      4003 8.19165E-03-3.43302E-04-4.47406E-14
 -1      4004 8.89317E-03-4.25567E-04-5.48353E-14
 -1      4005 8.75716E-03-4.04294E-04-5.29278E-14
 -1      4006 8.72372E-03-4.25403E-04-5.20666E-14
 -1      4007 9.16636E-03-4.68618E-04-5.87240E-14
 -1      4008 9.02952E-03-4.47009E-04-5.67674E-14
 -1      4009 8.99251E-03-4.67910E-04-5.58830E-14
 -1      4010 9.44141E-03-5.12450E-04-6.27110E-14
 -1      4011 9.30363E-03-4.90439E-04-6.07045E-14
 -1      4012 9.26377E-03-5.11479E-04-5.97951E-14
 -1      4013 9.71835E-03-5.57132E-04-6.67911E-14
 -1      4014 9.57964E-03-5.34692E-04-6.47402E-14
 -1      4015 9.53750E-03-5.56060E-04-6.38045E-14
 -1      4016 9.99704E-03-6.02668E-04-7.09571E-14
 -1      4017 9.85748E-03-5.79802E-04-6.88646E-14
 -1      4018 9.81353E-03-6.01590E-04-6.79085E-14
 -1      4019 1.02773E-02-6.49030E-04-7.52034E-14
 -1      4020 1.01370E-02-6.25754E-04-7.30703E-14
 -1      4021 1.00916E-02-6.47981E-04-7.20950E-14
 -1      4022 1.05589E-02-6.96161E-04-7.95246E-14
 -1      4023 1.04179E-02-6.72508E-04-7.73536E-14
 -1      4024 1.03714E-02-6.95151E-04-7.63580E-14
 -1      4025 1.08415E-02-7.43988E-04-8.39192E-14
 -1      4026 1.07000E-02-7.19996E-04-8.17135E-14
 -1      4027 1.06527E-02-7.43010E-04-8.06978E-14
 -1      4028 1.11250E-02-7.92430E-04-8.83833E-14
 -1      4029 1.09831E-02-7.68140E-04-8.61440E-14
 -1      4030 1.09352E-02-7.91472E-04-8.51098E-14
 -1      4031 1.14092E-02-8.41402E-04-9.29100E-14
 -1      4032 1.12670E-02-8.16856E-04-9.06379E-14
 -1      4033 1.12186E-02-8.40450E-04-8.95890E-14
 -1      4034 1.16938E-02-8.90822E-04-9.74945E-14
 -1      4035 1.15514E-02-8.66062E-04-9.51961E-14
 -1      4036 1.15027E-02-8.89864E-04-9.41278E-14
 -1      4037 1.19789E-02-9.40615E-04-1.02136E-13
 -1      4038 1.18363E-02-9.15677E-04-9.98083E-14
 -1      4039 1.17873E-02-9.39642E-04-9.87262E-14
 -1      4040 1.22642E-02-9.90711E-04-1.06826E-13
 -1      4041 1.21215E-02-9.65629E-04-1.04476E-13
 -1      4042 1.20723E-02-9.89718E-04-1.03376E-13
 -1      4043 1.25497E-02-1.04105E-03-1.11567E-13
 -1      4044 1.24069E-02-1.01585E-03-1.09190E-13
 -1      4045 1.23576E-02-1.04003E-03-1.08077E-13
 -1      4046 1.28353E-02-1.09158E-03-1.16351E-13
 -1      4047 1.26925E-02-1.06629E-03-1.13954E-13
 -1      4048 1.26431E-02-1.09054E-03-1.12827E-13
 -1      4049 1.31210E-02-1.14225E-03-1.21182E-13
 -1      4050 1.29781E-02-1.11690E-03-1.18763E-13
 -1      4051 1.29287E-02-1.14119E-03-1.17626E-13
 -1      4052 8.02395E-03-4.85541E-04-3.87769E-14
 -1      4053 8.07954E-03-5.13053E-04-3.97231E-14
 -1      4054 8.19569E-03-5.30565E-04-4.15063E-14
 -1      4055 8.07177E-03-4.79942E-04-3.96056E-14
 -1      4056 1.35375E-02-1.19747E-03-1.28465E-13
 -1      4057 1.41962E-03-2.36685E-05-2.37908E-15
 -1      4058 1.53089E-03-3.87674E-05-2.73533E-15
 -1      4059 1.42238E-03 6.09436E-07-2.36997E-15
 -1      4060 2.33131E-03 1.85720E-04-5.03592E-15
 -1      4061 2.18774E-03 1.83250E-04-4.48370E-15
 -1      4062 2.09200E-03 1.47383E-04-4.26470E-15
 -1      4063 1.33396E-02-1.33338E-03-1.23494E-13
 -1      4064 1.33146E-02-1.29153E-03-1.23417E-13
 -1      4065 1.35067E-02-1.51081E-03-1.24935E-13
 -1      4066 1.53777E-03 1.15089E-05-2.71529E-15
 -1      4067 1.34262E-02-1.19642E-03-1.26388E-13
 -1      4068 2.81522E-03 2.59456E-05-8.07573E-15
 -1      4069 2.77665E-03 7.34052E-05-7.58180E-15
 -1      4070 2.63709E-03 7.56659E-05-6.90351E-15
 -1      4071 2.71092E-03-7.46748E-06-7.78402E-15
 -1      4072 1.73287E-03-1.03481E-04-3.39869E-15
 -1      4073 1.85890E-03-1.08381E-04-3.88443E-15
 -1      4074 1.66081E-03-6.77286E-05-3.17675E-15
 -1      4075 2.36687E-03-1.41247E-04-6.26284E-15
 -1      4076 2.42548E-03-1.30327E-04-6.67972E-15
 -1      4077 8.31334E-03-5.46130E-04-4.33109E-14
 -1      4078 8.43047E-03-5.68405E-04-4.50782E-14
 -1      4079 8.47956E-03-5.56195E-04-4.59373E-14
 -1      4080 2.42675E-03-1.10721E-04-6.74034E-15
 -1      4081 1.32833E-02-1.17101E-03-1.23945E-13
 -1      4082 7.75372E-03-3.06470E-04-3.83653E-14
 -1      4083 7.77783E-03-3.35739E-04-3.79761E-14
 -1      4084 7.87133E-03-3.64132E-04-3.87848E-14
 -1      4085 2.57631E-03-1.62130E-05-7.15895E-15
 -1      4086 1.74065E-03 8.73449E-05-3.21565E-15
 -1      4087 1.72434E-03 5.66201E-05-3.24382E-15
 -1      4088 1.92882E-03 1.10627E-04-3.79969E-15
 -1      4089 1.34130E-02-1.46097E-03-1.23654E-13
 -1      4090 1.65860E-03-4.27139E-05-3.17327E-15
 -1      4091 1.68893E-03 1.82738E-05-3.20899E-15
 -1      4092 1.68093E-03-8.63851E-06-3.22466E-15
 -1      4093 1.80343E-03-3.87516E-05-3.70915E-15
 -1      4094 1.86445E-03 3.48205E-05-3.80361E-15
 -1      4095 2.25206E-03-1.35227E-04-5.64574E-15
 -1      4096 8.24692E-03-5.19142E-04-4.23402E-14
 -1      4097 1.32339E-02-1.19534E-03-1.22801E-13
 -1      4098 1.33896E-02-1.41707E-03-1.23637E-13
 -1      4099 1.33646E-02-1.37522E-03-1.23566E-13
 -1      4100 1.32284E-02-1.33219E-03-1.21423E-13
 -1      4101 7.99002E-03-4.15429E-04-3.94302E-14
 -1      4102 7.96174E-03-4.25097E-04-3.85316E-14
 -1      4103 8.04668E-03-4.50290E-04-3.95716E-14
 -1      4104 2.41276E-03 1.33342E-04-5.60770E-15
 -1      4105 2.06551E-03 1.09939E-04-4.30922E-15
 -1      4106 2.39240E-03-8.77028E-05-6.52683E-15
 -1      4107 2.36486E-03-6.33158E-05-6.31178E-15
 -1      4108 2.27666E-03-9.41314E-05-5.88627E-15
 -1      4109 1.32487E-02-1.22957E-03-1.22760E-13
 -1      4110 1.31374E-02-1.22846E-03-1.20696E-13
 -1      4111 1.91120E-03-7.76674E-05-4.14875E-15
 -1      4112 1.98284E-03-1.13681E-04-4.40163E-15
 -1      4113 2.10434E-03-1.18942E-04-4.95085E-15
 -1      4114 7.95149E-03-3.30195E-04-4.10642E-14
 -1      4115 7.83208E-03-2.84376E-04-4.01352E-14
 -1      4116 8.89400E-03-6.11938E-04-5.23345E-14
 -1      4117 9.02179E-03-6.36101E-04-5.42311E-14
 -1      4118 9.15131E-03-6.60655E-04-5.61527E-14
 -1      4119 9.28240E-03-6.85707E-04-5.80963E-14
 -1      4120 9.06628E-03-6.20771E-04-5.51366E-14
 -1      4121 9.41487E-03-7.11038E-04-6.00637E-14
 -1      4122 9.54858E-03-7.36701E-04-6.20527E-14
 -1      4123 9.32824E-03-6.69347E-04-5.90237E-14
 -1      4124 9.68339E-03-7.62534E-04-6.40654E-14
 -1      4125 9.81921E-03-7.88558E-04-6.61001E-14
 -1      4126 9.59537E-03-7.19274E-04-6.30022E-14
 -1      4127 9.95590E-03-8.14671E-04-6.81556E-14
 -1      4128 1.00934E-02-8.40892E-04-7.02343E-14
 -1      4129 9.86668E-03-7.70087E-04-6.70727E-14
 -1      4130 1.02316E-02-8.67127E-04-7.23347E-14
 -1      4131 1.03704E-02-8.93407E-04-7.44560E-14
 -1      4132 1.01413E-02-8.21419E-04-7.12308E-14
 -1      4133 1.05098E-02-9.19667E-04-7.65959E-14
 -1      4134 1.06497E-02-9.45930E-04-7.87525E-14
 -1      4135 1.04187E-02-8.73032E-04-7.54713E-14
 -1      4136 1.07900E-02-9.72151E-04-8.09295E-14
 -1      4137 1.09307E-02-9.98350E-04-8.31233E-14
 -1      4138 1.06983E-02-9.24761E-04-7.97878E-14
 -1      4139 1.10717E-02-1.02450E-03-8.53351E-14
 -1      4140 1.12130E-02-1.05061E-03-8.75630E-14
 -1      4141 1.09795E-02-9.76501E-04-8.41769E-14
 -1      4142 1.13546E-02-1.07667E-03-8.98064E-14
 -1      4143 1.14964E-02-1.10268E-03-9.20642E-14
 -1      4144 1.12619E-02-1.02819E-03-8.86327E-14
 -1      4145 1.16383E-02-1.12865E-03-9.43392E-14
 -1      4146 1.17805E-02-1.15458E-03-9.66249E-14
 -1      4147 1.15454E-02-1.07980E-03-9.31492E-14
 -1      4148 1.19227E-02-1.18046E-03-9.89266E-14
 -1      4149 1.20651E-02-1.20630E-03-1.01243E-13
 -1      4150 1.18296E-02-1.13132E-03-9.77249E-14
 -1      4151 1.22076E-02-1.23211E-03-1.03572E-13
 -1      4152 1.23502E-02-1.25788E-03-1.05916E-13
 -1      4153 1.21143E-02-1.18275E-03-1.02355E-13
 -1      4154 1.24928E-02-1.28362E-03-1.08271E-13
 -1      4155 1.26355E-02-1.30933E-03-1.10639E-13
 -1      4156 1.23994E-02-1.23410E-03-1.07038E-13
 -1      4157 1.27783E-02-1.33502E-03-1.13024E-13
 -1      4158 1.29211E-02-1.36068E-03-1.15419E-13
 -1      4159 1.26848E-02-1.28538E-03-1.11775E-13
 -1      4160 8.55967E-03-4.24925E-04-4.93475E-14
 -1      4161 8.42915E-03-4.04739E-04-4.75149E-14
 -1      4162 9.08959E-03-5.09610E-04-5.69314E-14
 -1      4163 8.95583E-03-4.87897E-04-5.49999E-14
 -1      4164 2.43851E-03-2.27034E-05-6.50795E-15
 -1      4165 2.52617E-03 2.15622E-05-6.68581E-15
 -1      4166 8.82295E-03-4.66523E-04-5.30906E-14
 -1      4167 8.69083E-03-4.45552E-04-5.12057E-14
 -1      4168 8.65835E-03-4.64638E-04-5.03485E-14
 -1      4169 8.91930E-03-5.06951E-04-5.41169E-14
 -1      4170 8.29945E-03-3.85007E-04-4.57100E-14
 -1      4171 8.17023E-03-3.65716E-04-4.39341E-14
 -1      4172 8.40200E-03-4.24546E-04-4.66833E-14
 -1      4173 9.35946E-03-5.54024E-04-6.08664E-14
 -1      4174 9.22412E-03-5.31684E-04-5.88861E-14
 -1      4175 9.18451E-03-5.51012E-04-5.79799E-14
 -1      4176 9.63230E-03-5.99564E-04-6.49007E-14
 -1      4177 9.49552E-03-5.76669E-04-6.28720E-14
 -1      4178 9.45354E-03-5.96513E-04-6.19402E-14
 -1      4179 9.90776E-03-6.46068E-04-6.90245E-14
 -1      4180 9.76971E-03-6.22714E-04-6.69514E-14
 -1      4181 9.72590E-03-6.43145E-04-6.59962E-14
 -1      4182 1.01855E-02-6.93385E-04-7.32301E-14
 -1      4183 1.00464E-02-6.69637E-04-7.11173E-14
 -1      4184 1.00011E-02-6.90701E-04-7.01407E-14
 -1      4185 1.04651E-02-7.41396E-04-7.75124E-14
 -1      4186 1.03251E-02-7.17314E-04-7.53625E-14
 -1      4187 1.02787E-02-7.38979E-04-7.43661E-14
 -1      4188 1.07463E-02-7.89994E-04-8.18710E-14
 -1      4189 1.06055E-02-7.65631E-04-7.96817E-14
 -1      4190 1.05583E-02-7.87837E-04-7.86674E-14
 -1      4191 1.10287E-02-8.39085E-04-8.62996E-14
 -1      4192 1.08873E-02-8.14485E-04-8.40764E-14
 -1      4193 1.08395E-02-8.37163E-04-8.30432E-14
 -1      4194 1.13120E-02-8.88587E-04-9.07908E-14
 -1      4195 1.11702E-02-8.63791E-04-8.85379E-14
 -1      4196 1.11219E-02-8.86864E-04-8.74869E-14
 -1      4197 1.15961E-02-9.38429E-04-9.53448E-14
 -1      4198 1.14540E-02-9.13470E-04-9.30612E-14
 -1      4199 1.14053E-02-9.36867E-04-9.19942E-14
 -1      4200 1.18807E-02-9.88547E-04-9.99545E-14
 -1      4201 1.17384E-02-9.63457E-04-9.76435E-14
 -1      4202 1.16894E-02-9.87111E-04-9.65611E-14
 -1      4203 1.21658E-02-1.03889E-03-1.04616E-13
 -1      4204 1.20232E-02-1.01369E-03-1.02280E-13
 -1      4205 1.19741E-02-1.03755E-03-1.01182E-13
 -1      4206 1.24511E-02-1.08941E-03-1.09326E-13
 -1      4207 1.23084E-02-1.06413E-03-1.06963E-13
 -1      4208 1.22592E-02-1.08814E-03-1.05853E-13
 -1      4209 1.27366E-02-1.14007E-03-1.14088E-13
 -1      4210 1.25938E-02-1.11473E-03-1.11701E-13
 -1      4211 1.25445E-02-1.13885E-03-1.10577E-13
 -1      4212 1.30084E-02-1.19694E-03-1.18586E-13
 -1      4213 1.28656E-02-1.17154E-03-1.16177E-13
 -1      4214 1.28162E-02-1.19573E-03-1.15041E-13
 -1      4215 1.30743E-02-1.25880E-03-1.19238E-13
 -1      4216 8.11418E-03-4.71551E-04-4.04700E-14
 -1      4217 8.18343E-03-4.95954E-04-4.14293E-14
 -1      4218 8.29507E-03-5.10423E-04-4.32290E-14
 -1      4219 8.15605E-03-4.64681E-04-4.13912E-14
 -1      4220 2.48164E-03 6.02248E-05-6.27055E-15
 -1      4221 7.96572E-03-3.72963E-04-4.02409E-14
 -1      4222 7.97958E-03-3.95610E-04-3.98370E-14
 -1      4223 8.07988E-03-4.24791E-04-4.08980E-14
 -1      4224 2.21321E-03 1.03433E-04-4.91576E-15
 -1      4225 2.05223E-03 6.99396E-05-4.40826E-15
 -1      4226 2.38835E-03 8.62358E-05-5.72594E-15
 -1      4227 1.32768E-02-1.41788E-03-1.21509E-13
 -1      4228 2.17767E-03-9.97930E-05-5.36206E-15
 -1      4229 8.64449E-03-5.65621E-04-4.86161E-14
 -1      4230 8.76815E-03-5.88499E-04-5.04631E-14
 -1      4231 8.81079E-03-5.74173E-04-5.13443E-14
 -1      4232 8.40496E-03-5.22386E-04-4.50026E-14
 -1      4233 8.52329E-03-5.43669E-04-4.67964E-14
 -1      4234 8.56324E-03-5.30195E-04-4.76541E-14
 -1      4235 8.06609E-03-3.66492E-04-4.21484E-14
 -1      4236 7.73220E-03-2.74953E-04-3.87511E-14
 -1      4237 2.30125E-03-3.27147E-05-5.87865E-15
 -1      4238 1.30639E-02-1.38633E-03-1.17829E-13
 -1      4239 1.32067E-02-1.41196E-03-1.20252E-13
 -1      4240 2.00589E-03 2.66113E-05-4.37390E-15
 -1      4241 8.17159E-03-4.04977E-04-4.30867E-14
 -1      4242 2.13680E-03-7.67128E-05-5.17286E-15
 -1      4243 1.31832E-02-1.36811E-03-1.20235E-13
 -1      4244 2.29049E-03 3.72954E-05-5.52902E-15
 -1      4245 8.33328E-03-4.98111E-04-4.40649E-14
 -1      4246 1.92826E-03-4.37399E-05-4.21432E-15
 -1      4247 1.31413E-02-1.33434E-03-1.19772E-13
 -1      4248 1.31163E-02-1.29255E-03-1.19703E-13
 -1      4249 1.29872E-02-1.26097E-03-1.17597E-13
 -1      4250 1.30712E-02-1.32844E-03-1.18521E-13
 -1      4251 1.29703E-02-1.33660E-03-1.16565E-13
 -1      4252 9.27741E-03-5.92291E-04-5.90309E-14
 -1      4253 9.14459E-03-5.69435E-04-5.70763E-14
 -1      4254 9.21664E-03-6.27729E-04-5.75933E-14
 -1      4255 9.34883E-03-6.51785E-04-5.95556E-14
 -1      4256 9.50636E-03-6.76637E-04-6.19424E-14
 -1      4257 9.64109E-03-7.01265E-04-6.39548E-14
 -1      4258 9.79781E-03-7.06667E-04-6.65421E-14
 -1      4259 9.93472E-03-7.31292E-04-6.86072E-14
 -1      4260 1.00724E-02-7.56037E-04-7.06932E-14
 -1      4261 1.02107E-02-7.80952E-04-7.28013E-14
 -1      4262 1.03496E-02-8.05947E-04-7.49267E-14
 -1      4263 1.04890E-02-8.31061E-04-7.70720E-14
 -1      4264 1.06289E-02-8.56228E-04-7.92360E-14
 -1      4265 1.07692E-02-8.81476E-04-8.14185E-14
 -1      4266 1.09099E-02-9.06759E-04-8.36199E-14
 -1      4267 1.10509E-02-9.32099E-04-8.58360E-14
 -1      4268 1.11922E-02-9.57460E-04-8.80688E-14
 -1      4269 1.13338E-02-9.82860E-04-9.03167E-14
 -1      4270 1.14755E-02-1.00828E-03-9.25794E-14
 -1      4271 1.16175E-02-1.03372E-03-9.48580E-14
 -1      4272 1.17596E-02-1.05917E-03-9.71488E-14
 -1      4273 1.19019E-02-1.08463E-03-9.94538E-14
 -1      4274 1.20443E-02-1.11011E-03-1.01774E-13
 -1      4275 1.21867E-02-1.13560E-03-1.04106E-13
 -1      4276 1.23293E-02-1.16109E-03-1.06450E-13
 -1      4277 1.24719E-02-1.18659E-03-1.08808E-13
 -1      4278 1.26146E-02-1.21209E-03-1.11179E-13
 -1      4279 1.27574E-02-1.23760E-03-1.13564E-13
 -1      4280 8.49955E-03-4.62341E-04-4.76585E-14
 -1      4281 8.37487E-03-4.42954E-04-4.58515E-14
 -1      4282 2.16269E-03 2.00476E-05-5.04669E-15
 -1      4283 1.98415E-03-9.95586E-06-4.38850E-15
 -1      4284 8.15696E-03-4.29371E-04-4.22344E-14
 -1      4285 8.15897E-03-4.47909E-04-4.18152E-14
 -1      4286 8.23460E-03-4.70933E-04-4.27380E-14
 -1      4287 1.28864E-02-1.26917E-03-1.15649E-13
 -1      4288 8.25769E-03-4.30827E-04-4.40286E-14
 -1      4289 2.25608E-03-3.59973E-06-5.55178E-15
 -1      4290 9.57022E-03-6.39293E-04-6.34211E-14
 -1      4291 9.43512E-03-6.15788E-04-6.14117E-14
 -1      4292 8.95636E-03-5.80925E-04-5.37412E-14
 -1      4293 9.08576E-03-6.04115E-04-5.56557E-14
 -1      4294 9.10411E-03-5.86920E-04-5.61730E-14
 -1      4295 8.73962E-03-5.20479E-04-5.08556E-14
 -1      4296 8.86737E-03-5.42210E-04-5.27325E-14
 -1      4297 8.34114E-03-4.81092E-04-4.44994E-14
 -1      4298 8.45694E-03-4.94718E-04-4.63329E-14
 -1      4299 8.57865E-03-5.15176E-04-4.81459E-14
 -1      4300 2.07848E-03-5.17392E-05-4.87640E-15
 -1      4301 2.18773E-03-4.46745E-05-5.37205E-15
 -1      4302 9.01294E-03-5.46935E-04-5.51446E-14
 -1      4303 9.39235E-03-6.34165E-04-6.04840E-14
 -1      4304 9.66169E-03-6.82293E-04-6.44988E-14
 -1      4305 1.29283E-02-1.30288E-03-1.16108E-13
 -1      4306 8.35145E-03-4.65963E-04-4.49748E-14
 -1      4307 8.61344E-03-4.99537E-04-4.90036E-14
 -1      4308 8.88249E-03-5.24956E-04-5.32357E-14
 -3
    1PSTEP                         2           1           1          
  100CL  101 1.000000000        4308                     0    1           1
 -4  STRESS      6    1
 -5  SXX         1    4    1    1
 -5  SYY         1    4    2    2
 -5  SZZ         1    4    3    3
 -5  SXY         1    4    1    2
 -5  SYZ         1    4    2    3
 -5  SZX         1    4    3    1
 -1         1-1.03458E+00-2.25597E+01-3.25414E+00 2.97211E+00 1.07483E-12-1.61857E-13
 -1         2-6.84988E-01-2.47488E+01-3.36693E+00-5.16834E-02 6.41195E-13-3.22659E-15
 -1         3 2.00000E+01 1.72455E-04-1.52744E-04 1.68125E-04-4.64755E-13-5.83109E-13
 -1         4 1.99999E+01 1.50217E-04-1.74292E-04-1.49364E-04 4.08559E-13-1.49213E-13
 -1         5 3.25120E+01 6.10524E+00 2.63752E+00 6.11723E+00-4.60534E-14 3.30011E-12
 -1         6 3.53033E+01 1.20700E+01 4.92967E+00-8.45287E+00-1.81286E-13 3.06899E-12
 -1         7 2.11673E+01 6.18837E+00-7.92756E-02-4.47001E+00-2.59515E-14 6.32595E-13
 -1         8 2.00356E+01 6.03675E+00 7.45202E-02-2.90667E+00-3.34108E-14-1.34170E-13
 -1         9 1.94112E+01 5.84964E+00 5.93943E-02-2.09594E+00-3.02883E-14-5.52806E-13
 -1        10 1.90132E+01 5.72470E+00 4.99513E-02-1.51480E+00-2.14551E-14-7.58036E-13
 -1        11 1.87196E+01 5.63323E+00 4.02985E-02-1.06691E+00-1.35031E-14-8.66272E-13
 -1        12 1.85049E+01 5.56673E+00 3.22192E-02-7.15286E-01-7.90774E-15-9.11137E-13
 -1        13 1.83606E+01 5.52242E+00 2.66955E-02-4.17740E-01-6.21291E-15-9.24548E-13
 -1        14 1.82939E+01 5.50203E+00 2.45488E-02-1.52280E-01-1.38323E-15-9.20360E-13
 -1        15 1.83050E+01 5.50544E+00 2.57566E-02 1.07769E-01 5.25513E-15-8.96957E-13
 -1        16 1.83899E+01 5.53147E+00 2.99830E-02 3.87274E-01 1.17918E-14-8.79302E-13
 -1        17 1.85419E+01 5.57805E+00 3.66570E-02 7.09575E-01 1.63472E-14-8.21734E-13
 -1        18 1.87509E+01 5.64301E+00 4.47739E-02 1.08961E+00 2.27630E-14-7.29054E-13
 -1        19 1.90281E+01 5.72984E+00 5.30807E-02 1.56577E+00 3.47743E-14-5.85192E-13
 -1        20 1.94031E+01 5.84914E+00 5.93313E-02 2.16803E+00 4.00617E-14-3.10591E-13
 -1        21 2.00031E+01 6.04310E+00 6.72757E-02 2.97696E+00 4.50681E-14 1.87044E-13
 -1        22 2.14734E+01 6.44629E+00 1.63006E-01 4.29787E+00 6.14786E-15 1.16935E-12
 -1        23 2.32347E+01-1.39907E+00-9.51669E-01-6.39592E-01-1.19720E-13 2.43547E-12
 -1        24 2.00053E+01-1.00652E-01-3.03736E-01 7.24340E-02-2.99804E-14 1.88581E-12
 -1        25 1.96849E+01-5.94930E-02-6.93881E-02 6.48374E-02-1.59907E-14 1.37161E-12
 -1        26 1.98864E+01-2.77463E-02-1.33548E-02 3.86447E-02 2.78878E-15 9.61864E-13
 -1        27 2.03922E+01-1.92191E-02-9.36370E-03 3.17988E-02-2.85603E-14 6.84506E-13
 -1        28 2.11276E+01-1.45064E-02-1.18657E-02 3.07881E-02-2.07451E-15 5.08914E-13
 -1        29 2.20580E+01-1.06696E-02-1.27089E-02 3.36334E-02 5.27660E-15 4.36307E-13
 -1        30 2.31513E+01-5.51035E-03-9.35517E-03 3.87957E-02 2.41436E-15 3.37340E-13
 -1        31 2.43436E+01 2.94046E-03 1.64012E-03 4.37500E-02-4.37720E-15 1.72565E-13
 -1        32 2.54997E+01 1.60881E-02 2.48393E-02 4.31908E-02-2.94072E-14 4.50959E-14
 -1        33 2.63717E+01 3.32131E-02 6.23138E-02 2.75181E-02 2.41311E-14-2.18159E-14
 -1        34 2.65866E+01 4.87638E-02 1.05313E-01-1.56921E-02 1.36536E-14 4.11979E-14
 -1        35 2.57377E+01 5.11870E-02 1.25167E-01-9.13921E-02-2.00946E-14-1.48492E-13
 -1        36 2.36587E+01 2.78919E-02 7.84473E-02-1.75880E-01 9.08475E-15-1.63217E-13
 -1        37 2.08140E+01-2.03917E-02-4.78836E-02-2.08046E-01-1.17924E-14-1.15727E-13
 -1        38 1.84102E+01-6.85905E-02-1.89175E-01-1.29325E-01-2.56674E-14-3.06595E-13
 -1        39 1.77842E+01-8.26143E-02-2.32457E-01 3.66555E-02-3.29311E-14-5.85738E-13
 -1        40 1.93431E+01-5.13959E-02-1.37607E-01 1.77593E-01 1.02852E-14-9.38180E-13
 -1        41 2.21929E+01 1.01029E-03 1.06349E-02 2.07993E-01 5.18990E-14-1.24865E-12
 -1        42 2.49253E+01 4.05958E-02 1.06894E-01 1.45349E-01-8.94684E-15-1.26147E-12
 -1        43 2.66108E+01 5.22809E-02 1.21455E-01 5.92672E-02-8.33968E-16-9.53286E-13
 -1        44 2.70895E+01 4.27131E-02 8.69528E-02-3.08681E-03-3.17801E-15-7.40368E-13
 -1        45 2.66750E+01 2.55299E-02 4.37539E-02-3.26267E-02 1.84763E-14-7.31227E-13
 -1        46 2.57828E+01 1.00312E-02 1.17770E-02-3.93134E-02 9.11337E-15-9.50089E-13
 -1        47 2.47366E+01-4.26612E-04-5.89688E-03-3.49138E-02 6.06348E-14-8.34187E-13
 -1        48 2.37289E+01-6.08052E-03-1.31262E-02-2.70671E-02 4.46138E-15-6.95100E-13
 -1        49 2.28496E+01-8.35499E-03-1.44959E-02-1.94208E-02-9.58082E-15-6.86859E-13
 -1        50 2.21254E+01-8.63868E-03-1.32017E-02-1.32278E-02 1.62408E-15-6.52185E-13
 -1        51 2.15512E+01-7.92127E-03-1.10145E-02-8.63536E-03-2.38848E-14-4.99106E-13
 -1        52 2.11078E+01-6.80381E-03-8.76602E-03-5.39577E-03 1.24161E-14-6.78029E-13
 -1        53 2.07725E+01-5.61209E-03-6.78142E-03-3.18386E-03 9.46543E-14-5.13948E-13
 -1        54 2.05235E+01-4.50314E-03-5.14659E-03-1.71207E-03-5.79178E-15-5.33201E-13
 -1        55 2.03420E+01-3.53970E-03-3.84796E-03-7.57890E-04-4.59705E-14-7.66258E-13
 -1        56 2.02120E+01-2.73586E-03-2.83813E-03-1.59233E-04 6.06735E-14-7.87607E-13
 -1        57 2.01211E+01-2.08280E-03-2.06404E-03 1.98514E-04-5.11196E-14-5.83610E-13
 -1        58 2.00592E+01-1.56246E-03-1.47743E-03 3.95343E-04 1.84789E-14-8.88712E-13
 -1        59 2.00185E+01-1.15438E-03-1.03782E-03 4.86791E-04 3.36045E-14-5.48544E-13
 -1        60 1.99932E+01-8.38853E-04-7.12356E-04 5.11307E-04-3.13807E-14-8.20558E-14
 -1        61 1.99788E+01-5.98212E-04-4.74808E-04 4.95410E-04-1.54066E-14 5.86000E-15
 -1        62 1.99719E+01-4.17184E-04-3.04360E-04 4.57254E-04 4.55327E-14-5.26698E-13
 -1        63 1.99701E+01-2.82837E-04-1.84517E-04 4.09106E-04-1.22708E-13-1.04915E-12
 -1        64 1.99715E+01-1.84322E-04-1.02135E-04 3.59055E-04-2.13773E-14-1.46014E-12
 -1        65 1.99749E+01-1.12539E-04-4.65638E-05 3.12174E-04 9.77671E-15-1.26313E-12
 -1        66 1.99795E+01-5.97701E-05-8.67860E-06 2.71230E-04-4.79536E-14-1.30026E-12
 -1        67 1.99845E+01-1.93286E-05 2.03817E-05 2.36896E-04 1.24444E-13-8.17987E-13
 -1        68 1.99895E+01 1.47078E-05 5.09530E-05 2.07107E-04 2.55240E-14-8.18372E-14
 -1        69 1.99941E+01 4.63287E-05 9.44771E-05 1.73695E-04 7.85565E-14-1.80094E-13
 -1        70 1.99978E+01 6.38939E-05 1.41624E-04 1.05232E-04 3.29378E-14-7.65139E-14
 -1        71 1.99998E+01-1.28720E-05 9.07012E-05-9.17984E-06-2.10349E-13-3.15795E-13
 -1        72 2.12751E+01-4.04426E-01-9.86021E-01-3.30803E-01 4.59875E-14 3.02887E-12
 -1        73 1.99274E+01-6.57791E-02-2.85030E-01-5.92677E-02 2.42922E-14 2.34123E-12
 -1        74 1.95910E+01-2.14620E-02-6.29385E-02-2.31594E-02 1.21616E-14 1.84514E-12
 -1        75 1.97016E+01-1.11009E-02-1.15490E-02-1.83624E-02 6.93336E-15 1.50709E-12
 -1        76 2.00572E+01-5.90888E-03-2.66582E-03-1.69854E-02 1.11372E-14 1.23845E-12
 -1        77 2.05497E+01-2.03228E-03-4.94300E-04-1.75099E-02-9.56792E-15 1.11330E-12
 -1        78 2.11061E+01 1.73386E-03 3.12121E-03-1.91915E-02-9.05076E-15 1.12020E-12
 -1        79 2.16548E+01 5.83113E-03 9.56798E-03-2.10036E-02 3.34057E-14 1.00837E-12
 -1        80 2.21090E+01 1.00967E-02 1.88080E-02-2.13747E-02-9.77739E-15 7.50616E-13
 -1        81 2.23628E+01 1.36400E-02 2.96352E-02-1.79837E-02 3.26780E-14 6.94073E-13
 -1        82 2.23006E+01 1.48334E-02 3.87722E-02-8.12482E-03-3.67988E-14 6.89967E-13
 -1        83 2.18297E+01 1.17980E-02 4.05720E-02 9.83371E-03 4.03226E-14 7.26169E-13
 -1        84 2.09360E+01 3.62739E-03 2.88330E-02 3.39126E-02 2.71645E-14 4.64333E-13
 -1        85 1.97435E+01-8.07487E-03 1.25085E-03 5.64465E-02-2.58584E-14 4.95989E-13
 -1        86 1.85364E+01-1.89006E-02-3.52682E-02 6.55570E-02 4.40126E-14 1.89522E-13
 -1        87 1.76896E+01-2.38667E-02-6.48935E-02 5.23006E-02-5.97788E-14 1.70556E-13
 -1        88 1.75106E+01-2.06390E-02-7.20507E-02 1.88728E-02 1.71384E-14 8.10654E-14
 -1        89 1.80794E+01-1.11401E-02-5.26669E-02-2.07499E-02 4.19825E-15-3.06108E-13
 -1        90 1.92046E+01 5.64212E-05-1.76526E-02-4.96576E-02-7.84231E-15-3.73451E-13
 -1        91 2.05300E+01 8.76613E-03 1.56580E-02-5.90805E-02-5.33162E-14-2.40974E-13
 -1        92 2.17098E+01 1.30417E-02 3.54322E-02-5.14408E-02 7.78435E-15 1.63758E-14
 -1        93 2.25318E+01 1.31816E-02 3.97221E-02-3.51142E-02 8.93383E-16-3.43163E-14
 -1        94 2.29404E+01 1.06963E-02 3.33336E-02-1.80300E-02 6.08352E-14-3.48258E-13
 -1        95 2.29917E+01 7.21623E-03 2.26348E-02-4.66281E-03 2.00400E-14-5.50969E-13
 -1        96 2.27912E+01 3.88433E-03 1.22290E-02 3.80979E-03 9.61546E-15-3.18825E-13
 -1        97 2.24462E+01 1.26090E-03 4.26182E-03 8.08421E-03 1.43573E-14-3.17337E-13
 -1        98 2.20428E+01-5.23393E-04-8.88343E-04 9.44986E-03-5.70622E-14-3.83293E-13
 -1        99 2.16397E+01-1.56849E-03-3.69681E-03 9.10051E-03-5.87934E-14-3.51563E-13
 -1       100 2.12715E+01-2.05649E-03-4.86445E-03 7.90845E-03-4.75435E-15-1.47148E-13
 -1       101 2.09548E+01-2.16946E-03-5.01753E-03 6.42658E-03 8.39461E-15 1.47710E-14
 -1       102 2.06943E+01-2.05580E-03-4.61772E-03 4.96538E-03 2.18443E-14-1.39268E-14
 -1       103 2.04875E+01-1.82318E-03-3.96863E-03 3.67513E-03-1.39548E-13 1.93089E-13
 -1       104 2.03284E+01-1.54339E-03-3.25287E-03 2.61014E-03-3.71847E-14 6.64230E-13
 -1       105 2.02096E+01-1.26064E-03-2.57052E-03 1.77234E-03 6.52873E-14 3.87392E-13
 -1       106 2.01236E+01-9.99634E-04-1.96953E-03 1.13839E-03-5.50332E-14 1.77278E-14
 -1       107 2.00633E+01-7.72207E-04-1.46685E-03 6.75283E-04 1.60418E-14-4.14988E-13
 -1       108 2.00227E+01-5.82077E-04-1.06220E-03 3.48746E-04 2.83385E-14-8.17646E-13
 -1       109 1.99968E+01-4.28219E-04-7.46550E-04 1.27358E-04 2.62704E-14-6.96337E-13
 -1       110 1.99817E+01-3.07068E-04-5.07168E-04-1.57707E-05-5.81571E-14-6.58767E-13
 -1       111 1.99741E+01-2.13913E-04-3.30484E-04-1.02637E-04 7.24953E-14-7.27410E-13
 -1       112 1.99716E+01-1.43734E-04-2.03609E-04-1.50674E-04-1.46669E-13-5.93202E-13
 -1       113 1.99726E+01-9.16460E-05-1.14977E-04-1.73374E-04 1.42206E-14-1.18286E-13
 -1       114 1.99757E+01-5.30934E-05-5.44338E-05-1.80979E-04-1.36954E-14-6.84029E-13
 -1       115 1.99800E+01-2.38739E-05-1.28134E-05-1.81117E-04-6.53531E-14-7.25533E-13
 -1       116 1.99849E+01-1.44855E-07 1.91608E-05-1.79142E-04-8.11446E-14-1.27473E-13
 -1       117 1.99898E+01 2.15958E-05 5.25464E-05-1.77875E-04 6.39473E-14-5.99113E-13
 -1       118 1.99943E+01 4.30141E-05 9.89496E-05-1.75551E-04 5.54780E-14-1.06251E-12
 -1       119 1.99979E+01 5.93687E-05 1.51522E-04-1.51711E-04-1.00600E-13-1.06598E-12
 -1       120 1.99997E+01-4.53839E-05 6.71756E-05-3.37124E-05 2.74585E-13-1.01443E-12
 -1       121 1.99998E+01-1.73223E-04 6.10223E-05-2.69718E-06-9.51277E-13-4.45117E-14
 -1       122 1.99999E+01-2.02707E-03 1.18117E-04-1.16285E-04 7.36279E-14 2.52460E-13
 -1       123 1.99998E+01-5.27232E-03 4.15653E-05-1.54657E-04 1.02343E-12 1.43520E-13
 -1       124 1.99998E+01-8.92070E-03-2.15052E-05-1.46744E-04 1.17385E-12-1.09234E-14
 -1       125 1.99998E+01-1.23412E-02-5.81999E-05-1.19219E-04-7.30370E-14-3.11099E-13
 -1       126 1.99998E+01-1.51112E-02-7.76742E-05-8.73042E-05-2.37060E-12-3.60321E-13
 -1       127 1.99997E+01-1.70942E-02-8.62175E-05-5.25494E-05-2.87406E-12 2.01750E-13
 -1       128 1.99997E+01-1.81210E-02-8.98175E-05-1.79875E-05-2.06673E-12 1.22486E-13
 -1       129 1.99997E+01-1.81391E-02-9.03919E-05 1.65171E-05-1.82743E-12-1.89531E-14
 -1       130 1.99997E+01-1.71425E-02-8.78288E-05 5.15482E-05-1.33323E-12 7.37982E-14
 -1       131 1.99998E+01-1.51742E-02-7.91837E-05 8.84076E-05-1.57590E-12-1.70399E-13
 -1       132 1.99998E+01-1.23989E-02-6.05704E-05 1.20654E-04-1.38235E-12 3.35728E-13
 -1       133 1.99998E+01-8.95105E-03-2.25921E-05 1.48644E-04-8.03610E-13-8.62327E-14
 -1       134 1.99998E+01-5.26055E-03 4.74394E-05 1.66386E-04-9.63585E-13-1.55619E-13
 -1       135 1.99999E+01-2.05940E-03 1.02298E-04 1.63656E-04-4.56525E-13-9.10022E-14
 -1       136 1.99999E+01-2.30147E-04 5.42662E-05-4.61682E-05 2.14673E-13 1.33980E-13
 -1       137-1.37951E+00-1.96464E+01-3.04073E+00-3.69957E+00 2.81064E-12 7.17305E-13
 -1       138-1.38406E+00-8.00547E+00-2.19933E+00-2.76299E+00 3.80457E-12 1.64488E-12
 -1       139 2.96994E+00 3.64572E+00-1.03103E+00 3.56163E+00 3.35099E-12 2.39070E-12
 -1       140 1.49965E+01 1.05755E+01 3.50182E-01 1.25204E+01 2.55956E-12 2.95597E-12
 -1       141 3.37597E+01 1.02654E+01 1.74945E+00 1.80668E+01 1.72315E-12 2.91656E-12
 -1       142 5.28785E+01 5.51848E+00 2.83582E+00 1.58145E+01 6.09679E-13 1.52772E-12
 -1       143 6.47925E+01 1.31250E+00 3.43294E+00 5.46938E+00 7.54535E-14-6.51382E-13
 -1       144 6.37071E+01 1.80099E+00 3.40203E+00-7.57326E+00 3.55171E-13-2.57028E-12
 -1       145 4.93709E+01 6.66417E+00 2.68823E+00-1.70428E+01 1.41528E-12-3.76016E-12
 -1       146 2.85362E+01 1.10043E+01 1.42331E+00-1.73580E+01 2.68663E-12-4.14380E-12
 -1       147 1.13280E+01 9.41243E+00 2.68234E-02-1.02835E+01 3.66529E-12-3.69144E-12
 -1       148 1.23793E+00 7.00791E-01-1.38800E+00-1.49211E+00 4.13963E-12-2.66531E-12
 -1       149-1.81542E+00-1.24592E+01-2.56637E+00 3.92142E+00 3.04906E-12-1.27369E-12
 -1       150-7.42151E-01-2.48186E+01-3.41755E+00-1.37800E+00-8.35956E-13-1.00288E-13
 -1       151-1.67303E+00-1.87491E+01-3.07624E+00-4.43879E+00-2.55407E-12-7.70460E-13
 -1       152-1.52111E+00-7.38114E+00-2.27188E+00-2.81873E+00-3.52629E-12-1.76625E-12
 -1       153 3.66630E+00 4.10029E+00-1.06232E+00 4.15469E+00-3.75971E-12-2.98028E-12
 -1       154 1.73188E+01 1.06116E+01 4.38529E-01 1.34358E+01-3.01831E-12-3.59118E-12
 -1       155 3.62246E+01 9.94454E+00 1.88105E+00 1.84829E+01-1.84550E-12-3.33511E-12
 -1       156 5.53539E+01 5.27956E+00 3.11155E+00 1.56290E+01-6.73711E-13-1.94600E-12
 -1       157 6.73840E+01 1.36065E+00 3.80376E+00 4.70469E+00-1.74999E-14 4.01443E-13
 -1       158 6.49680E+01 2.11965E+00 3.65671E+00-8.68299E+00-3.54050E-13 2.42797E-12
 -1       159 4.97460E+01 6.76337E+00 2.75578E+00-1.72095E+01-1.47041E-12 3.83021E-12
 -1       160 2.94537E+01 1.05836E+01 1.39295E+00-1.72616E+01-2.71100E-12 4.24916E-12
 -1       161 1.18492E+01 9.16709E+00-9.30476E-02-1.04387E+01-3.58863E-12 3.85308E-12
 -1       162 1.43180E+00 1.11447E+00-1.45054E+00-1.69384E+00-2.81170E-12 2.13135E-12
 -1       163-1.85391E+00-1.08923E+01-2.53379E+00 3.73753E+00-1.54005E-12 6.96110E-13
 -1       164-1.40813E+00-2.11308E+01-3.18530E+00 3.89807E+00-4.95048E-13 2.21489E-14
 -1       165 2.14637E+01 3.65552E+00-5.22719E-02-3.23707E+00-4.36545E-13 2.16556E-13
 -1       166 2.03660E+01 4.22931E+00-4.23753E-02-2.38310E+00-4.12252E-13-2.58103E-13
 -1       167 1.97080E+01 4.54793E+00-2.97706E-02-1.75165E+00-3.36230E-13-5.30204E-13
 -1       168 1.92549E+01 4.72392E+00-2.19495E-02-1.26277E+00-2.44815E-13-6.74689E-13
 -1       169 1.89247E+01 4.83197E+00-1.72663E-02-8.79224E-01-1.65245E-13-7.33065E-13
 -1       170 1.86898E+01 4.89785E+00-1.48114E-02-5.60378E-01-9.68088E-14-7.69252E-13
 -1       171 1.85563E+01 4.92948E+00-1.35742E-02-2.84943E-01-1.69681E-14-7.67135E-13
 -1       172 1.85242E+01 4.93224E+00-1.32694E-02-2.64013E-02 5.35566E-14-7.60936E-13
 -1       173 1.85900E+01 4.90929E+00-1.38146E-02 2.39876E-01 1.30205E-13-7.40353E-13
 -1       174 1.87465E+01 4.86147E+00-1.52701E-02 5.36583E-01 1.83786E-13-7.10965E-13
 -1       175 1.89818E+01 4.78770E+00-1.79504E-02 8.78440E-01 2.52654E-13-6.38061E-13
 -1       176 1.93040E+01 4.67604E+00-2.26919E-02 1.29829E+00 3.45627E-13-5.22198E-13
 -1       177 1.97336E+01 4.50163E+00-3.14843E-02 1.81662E+00 4.23953E-13-3.38528E-13
 -1       178 2.03670E+01 4.19123E+00-4.46694E-02 2.46324E+00 4.62041E-13-8.43076E-15
 -1       179 2.15397E+01 3.43250E+00-5.59460E-02 3.21301E+00 4.36595E-13 5.95898E-13
 -1       180 2.27782E+01 1.10600E+00-3.30766E-01 2.77671E+00 3.21722E-13 1.37647E-12
 -1       181 2.24745E+01 8.34454E-01 1.83399E-03-1.67720E+00-3.67383E-13 7.85337E-13
 -1       182 2.11982E+01 1.93579E-01-8.08247E-03-4.75703E-01-3.09907E-13 5.82423E-13
 -1       183 2.07214E+01 1.22476E-01 1.50675E-02 3.79939E-02-2.38175E-13 4.37399E-13
 -1       184 2.07375E+01 8.02190E-02 1.13902E-02 3.25647E-01-1.82042E-13 2.97120E-13
 -1       185 2.10403E+01 6.44081E-02 6.50224E-03 5.27996E-01-1.09892E-13 2.12309E-13
 -1       186 2.15490E+01 5.53191E-02 3.40130E-03 6.90540E-01-5.44458E-14 1.71748E-13
 -1       187 2.22116E+01 4.25603E-02 1.12999E-03 8.19986E-01-6.00811E-14 1.02419E-13
 -1       188 2.29788E+01 1.56470E-02-1.15901E-03 8.96504E-01-4.49122E-14 9.62329E-14
 -1       189 2.37821E+01-3.79127E-02-3.59832E-03 8.72519E-01-6.16961E-14 1.29197E-13
 -1       190 2.45150E+01-1.28684E-01-5.52587E-03 6.73671E-01-3.29866E-14 1.61540E-13
 -1       191 2.50230E+01-2.51254E-01-5.73219E-03 2.19956E-01-9.20878E-15 6.81777E-14
 -1       192 2.51176E+01-3.57894E-01-3.55458E-03-5.07761E-01-2.84607E-14 1.02884E-13
 -1       193 2.46426E+01-3.40578E-01-1.51965E-04-1.34909E+00 3.23994E-14 1.61409E-13
 -1       194 2.36207E+01-9.17774E-02-1.66447E-03-1.88386E+00-4.06117E-14 2.02071E-13
 -1       195 2.24168E+01 3.39360E-01-9.88127E-03-1.60776E+00-2.18788E-13 1.37942E-13
 -1       196 2.16874E+01 6.56783E-01-1.67573E-02-4.16754E-01-2.29225E-13-1.60066E-13
 -1       197 2.19307E+01 5.66933E-01-1.44901E-02 1.05442E+00-2.78619E-13-4.92584E-13
 -1       198 2.30041E+01 1.57135E-01-6.05711E-03 1.91053E+00-1.62663E-13-6.29417E-13
 -1       199 2.42712E+01-2.23616E-01-7.18372E-04 1.80976E+00-4.62868E-14-7.42843E-13
 -1       200 2.51623E+01-3.68979E-01-1.49691E-03 1.08846E+00 1.83037E-13-7.93361E-13
 -1       201 2.54676E+01-3.18493E-01-4.70828E-03 2.64335E-01 1.37936E-13-6.13273E-13
 -1       202 2.52603E+01-1.95144E-01-5.97705E-03-3.49140E-01 1.48111E-14-5.48272E-13
 -1       203 2.47219E+01-8.29403E-02-4.99903E-03-6.82335E-01 5.40160E-14-4.52450E-13
 -1       204 2.40281E+01-9.12053E-03-2.92189E-03-7.93308E-01 5.88087E-14-3.40086E-13
 -1       205 2.33071E+01 2.94271E-02-8.79543E-04-7.68289E-01 2.97067E-14-3.24854E-13
 -1       206 2.26351E+01 4.44116E-02 5.70510E-04-6.76987E-01-1.36401E-14-3.92817E-13
 -1       207 2.20491E+01 4.63200E-02 1.37008E-03-5.63628E-01 1.67412E-15-4.25898E-13
 -1       208 2.15601E+01 4.20890E-02 1.67353E-03-4.52018E-01 1.30340E-13-4.48374E-13
 -1       209 2.11649E+01 3.56436E-02 1.67010E-03-3.52919E-01-7.55304E-14-2.52035E-13
 -1       210 2.08531E+01 2.89558E-02 1.50894E-03-2.69815E-01-1.57028E-13-3.52000E-13
 -1       211 2.06121E+01 2.28908E-02 1.28614E-03-2.02560E-01-3.16813E-14-4.99561E-13
 -1       212 2.04289E+01 1.77423E-02 1.05560E-03-1.49446E-01-1.03431E-13-4.35068E-13
 -1       213 2.02922E+01 1.35334E-02 8.43626E-04-1.08270E-01 2.54067E-14-4.48695E-13
 -1       214 2.01919E+01 1.01742E-02 6.60618E-04-7.68441E-02 9.30305E-14-5.04522E-13
 -1       215 2.01198E+01 7.53912E-03 5.08569E-04-5.32061E-02-2.83721E-14-4.45611E-13
 -1       216 2.00691E+01 5.50088E-03 3.85484E-04-3.56853E-02 4.52146E-14-4.46406E-13
 -1       217 2.00345E+01 3.94474E-03 2.87760E-04-2.29018E-02 1.46050E-13-7.22185E-13
 -1       218 2.00118E+01 2.77225E-03 2.11394E-04-1.37384E-02 8.72507E-14-4.03990E-13
 -1       219 1.99977E+01 1.90122E-03 1.52543E-04-7.30388E-03-2.29537E-13-1.25428E-13
 -1       220 1.99897E+01 1.26399E-03 1.07750E-04-2.89752E-03-4.00791E-13-2.52794E-13
 -1       221 1.99860E+01 8.05186E-04 7.40003E-05 2.37399E-05-2.47987E-13-4.82754E-13
 -1       222 1.99851E+01 4.79391E-04 4.87098E-05 1.87257E-03 1.48144E-13-5.31069E-13
 -1       223 1.99862E+01 2.48828E-04 2.96823E-05 2.95349E-03 1.47509E-13-2.43155E-13
 -1       224 1.99883E+01 8.09349E-05 1.51796E-05 3.47962E-03 4.00999E-13 4.33872E-14
 -1       225 1.99910E+01-5.43264E-05 4.12759E-06 3.58375E-03 2.37459E-13-1.11077E-13
 -1       226 1.99938E+01-1.88559E-04-3.10996E-06 3.32386E-03-1.78946E-13-3.91964E-13
 -1       227 1.99963E+01-3.58700E-04-6.51631E-06 2.68642E-03 1.82478E-13-4.81315E-13
 -1       228 1.99983E+01-5.81174E-04-2.89510E-06 1.63595E-03 3.27211E-15-2.02336E-14
 -1       229 2.15106E+01 2.68613E-01-4.84609E-02 9.53428E-01 3.42722E-13 1.19018E-12
 -1       230 2.06507E+01 1.28010E-01 9.24644E-03 2.38255E-01 2.40784E-13 9.36483E-13
 -1       231 2.03990E+01 6.45778E-02 1.27519E-02-6.82061E-02 1.81065E-13 7.18803E-13
 -1       232 2.04683E+01 3.58110E-02 7.29595E-03-2.29639E-01 1.24336E-13 5.93358E-13
 -1       233 2.07204E+01 1.86278E-02 3.27205E-03-3.18316E-01 5.43740E-14 5.38093E-13
 -1       234 2.10678E+01 3.21436E-03 1.15072E-03-3.54335E-01 1.11646E-14 4.93722E-13
 -1       235 2.14403E+01-1.47258E-02 1.34393E-04-3.37734E-01 8.82367E-14 4.59361E-13
 -1       236 2.17681E+01-3.69181E-02-1.81591E-04-2.59623E-01 8.99797E-14 4.31104E-13
 -1       237 2.19763E+01-6.21634E-02 1.15128E-04-1.10484E-01 3.28125E-14 3.53514E-13
 -1       238 2.19897E+01-8.47861E-02 8.88527E-04 1.08906E-01-3.21848E-14 4.35344E-13
 -1       239 2.17501E+01-9.36646E-02 1.73137E-03 3.73118E-01 6.67166E-14 4.49413E-13
 -1       240 2.12472E+01-7.48717E-02 1.92565E-03 6.20287E-01 1.10342E-13 4.37508E-13
 -1       241 2.05515E+01-2.02202E-02 7.58783E-04 7.56519E-01 2.16252E-14 2.70881E-13
 -1       242 1.98276E+01 6.04156E-02-1.60167E-03 6.90729E-01 1.25227E-13 1.45300E-13
 -1       243 1.92999E+01 1.34571E-01-3.70436E-03 3.95462E-01 3.14956E-14 1.42665E-13
 -1       244 1.91613E+01 1.64029E-01-3.86775E-03-5.04381E-02 1.29076E-13-1.44342E-14
 -1       245 1.94749E+01 1.32248E-01-1.69448E-03-4.87105E-01 1.89238E-13-1.11281E-13
 -1       246 2.01388E+01 5.80033E-02 1.29529E-03-7.60426E-01 5.97864E-14-3.20033E-13
 -1       247 2.09430E+01-1.99794E-02 3.08172E-03-8.05380E-01-1.42432E-13-2.39293E-13
 -1       248 2.16739E+01-7.15173E-02 2.95372E-03-6.60025E-01-5.79955E-14-2.25289E-13
 -1       249 2.21919E+01-8.84802E-02 1.55919E-03-4.17000E-01 1.22974E-13-2.86520E-13
 -1       250 2.24507E+01-7.93939E-02-2.60920E-05-1.65832E-01 1.46014E-13-3.52382E-13
 -1       251 2.24748E+01-5.78269E-02-1.07868E-03 3.77441E-02 3.83144E-14-3.77151E-13
 -1       252 2.23243E+01-3.45606E-02-1.44249E-03 1.73905E-01-1.61147E-13-3.59565E-13
 -1       253 2.20662E+01-1.53175E-02-1.30051E-03 2.46716E-01-2.11208E-14-1.45547E-13
 -1       254 2.17583E+01-1.81911E-03-9.14381E-04 2.70856E-01-2.99621E-15-3.01478E-14
 -1       255 2.14428E+01 6.38386E-03-4.86554E-04 2.62723E-01-5.56925E-14 9.62029E-14
 -1       256 2.11471E+01 1.05379E-02-1.27279E-04 2.36185E-01-1.32198E-13 1.03580E-13
 -1       257 2.08860E+01 1.19500E-02 1.26112E-04 2.01353E-01-7.18171E-14 1.09651E-13
 -1       258 2.06654E+01 1.16914E-02 2.77862E-04 1.64829E-01-9.16686E-14 2.46226E-13
 -1       259 2.04856E+01 1.05350E-02 3.49374E-04 1.30480E-01-1.86275E-13 4.80105E-13
 -1       260 2.03435E+01 8.99152E-03 3.65097E-04 1.00257E-01-5.73200E-14 3.19332E-13
 -1       261 2.02341E+01 7.37327E-03 3.46170E-04 7.48720E-02 2.45532E-13 3.00417E-13
 -1       262 2.01522E+01 5.85488E-03 3.08521E-04 5.43008E-02 9.60843E-14 1.71559E-13
 -1       263 2.00925E+01 4.52141E-03 2.63082E-04 3.81189E-02 2.13789E-13-1.00530E-13
 -1       264 2.00504E+01 3.40269E-03 2.16768E-04 2.57225E-02 7.12824E-14-2.87800E-13
 -1       265 2.00218E+01 2.49653E-03 1.73571E-04 1.64619E-02-1.60810E-13-1.73592E-13
 -1       266 2.00032E+01 1.78371E-03 1.35478E-04 9.71636E-03 3.50543E-15 4.77050E-14
 -1       267 1.99921E+01 1.23740E-03 1.03178E-04 4.93374E-03 8.90526E-14-1.11748E-13
 -1       268 1.99863E+01 8.28691E-04 7.65603E-05 1.64571E-03-1.00514E-13-8.24707E-14
 -1       269 1.99841E+01 5.29583E-04 5.50592E-05-5.29507E-04-6.77468E-15-5.13677E-13
 -1       270 1.99844E+01 3.14312E-04 3.78867E-05-1.89147E-03 1.29999E-14-3.05157E-13
 -1       271 1.99862E+01 1.59514E-04 2.42469E-05-2.66440E-03 7.89678E-14-1.51038E-13
 -1       272 1.99888E+01 4.34072E-05 1.37046E-05-3.00362E-03-1.43197E-13-3.33423E-13
 -1       273 1.99918E+01-5.56292E-05 7.02546E-06-2.99931E-03 1.51034E-13-3.76828E-14
 -1       274 1.99948E+01-1.59878E-04 6.70848E-06-2.67796E-03 2.14882E-13-1.09821E-13
 -1       275 1.99972E+01-3.05321E-04 8.04192E-06-2.00303E-03-8.19123E-15-3.75914E-13
 -1       276 1.99990E+01-4.49441E-04 3.78153E-06-9.55337E-04 2.45699E-14-3.78961E-13
 -1       277 1.99993E+01-1.55408E-03-5.00785E-06-1.61530E-03-4.74071E-14 6.92844E-13
 -1       278 1.99996E+01-3.43559E-03-3.19490E-06-2.44385E-03 2.82327E-13 4.75829E-13
 -1       279 1.99998E+01-5.65195E-03-1.76333E-06-2.72535E-03-5.67975E-14 1.03910E-13
 -1       280 1.99999E+01-7.88966E-03 2.00312E-06-2.56632E-03-3.57346E-13-6.64696E-13
 -1       281 2.00000E+01-9.84445E-03 6.41489E-06-2.12381E-03-6.96143E-13-1.27773E-12
 -1       282 2.00001E+01-1.13917E-02 9.79539E-06-1.49927E-03-6.80203E-13-4.21418E-13
 -1       283 2.00001E+01-1.23683E-02 1.18886E-05-7.78217E-04-7.98823E-13 4.11197E-13
 -1       284 2.00001E+01-1.27098E-02 1.26055E-05-1.41053E-05-6.08355E-13 2.39859E-13
 -1       285 2.00001E+01-1.23932E-02 1.19776E-05 7.54411E-04-5.50272E-13-5.06178E-14
 -1       286 2.00001E+01-1.14344E-02 9.89605E-06 1.48772E-03-7.82577E-13-1.30964E-13
 -1       287 2.00000E+01-9.92499E-03 6.31968E-06 2.11934E-03-5.99416E-13 1.27014E-13
 -1       288 1.99999E+01-7.93135E-03 2.03099E-06 2.58428E-03-5.12692E-13 2.87217E-13
 -1       289 1.99998E+01-5.67927E-03-2.57672E-06 2.75141E-03-1.65579E-13 1.71871E-13
 -1       290 1.99995E+01-3.43691E-03-6.95452E-06 2.42721E-03-3.71212E-14 1.11075E-13
 -1       291 1.99990E+01-1.86980E-03-1.10229E-05 2.35834E-03-2.03903E-14 3.27876E-13
 -1       292-7.59559E-01-1.03317E+01-8.91207E-01 1.48752E+00 6.24362E-13 1.14936E-12
 -1       293 2.90159E+00-8.29423E+00-7.40279E-01 3.75271E+00 1.01785E-12 9.34863E-13
 -1       294 9.18569E+00-4.77684E+00-4.92176E-01 5.60739E+00 1.45423E-12 8.05744E-13
 -1       295 1.84563E+01-1.18671E+00-1.05305E-01 7.19753E+00 1.22088E-12 9.67643E-13
 -1       296 2.83742E+01 2.61307E+00 3.13207E-01 7.81912E+00 1.10603E-12 9.42690E-13
 -1       297 3.74380E+01 4.68296E+00 5.71292E-01 5.56557E+00 1.06657E-12 1.45106E-13
 -1       298 4.40265E+01 6.40923E+00 8.57182E-01 3.26681E+00 1.00205E-12-3.79891E-13
 -1       299 4.60679E+01 6.84725E+00 9.33749E-01-3.28153E-01 9.89292E-13-8.60704E-13
 -1       300 4.26017E+01 6.31825E+00 7.71358E-01-3.61576E+00 1.01878E-12-1.32558E-12
 -1       301 3.58417E+01 4.27132E+00 5.60551E-01-6.55727E+00 1.29614E-12-1.65901E-12
 -1       302 2.62915E+01 9.96427E-01 1.79857E-01-7.24831E+00 1.41545E-12-1.67991E-12
 -1       303 1.56893E+01-1.92870E+00-2.09478E-01-6.93547E+00 1.66250E-12-1.61979E-12
 -1       304 7.69537E+00-6.16758E+00-5.11555E-01-5.50730E+00 1.10886E-12-1.36901E-12
 -1       305 1.15375E+00-9.62558E+00-8.83734E-01-2.77458E+00 8.38940E-13-1.29531E-12
 -1       306-1.25564E+00-1.13836E+01-1.03179E+00-6.55507E-01 9.74498E-14-9.91790E-13
 -1       307-4.65987E-01-1.08292E+01-9.92229E-01 1.39506E+00-5.84727E-13-1.05589E-12
 -1       308 3.36944E+00-8.51192E+00-8.27638E-01 3.49387E+00-1.09732E-12-1.15657E-12
 -1       309 1.02272E+01-4.94726E+00-5.16656E-01 5.59201E+00-1.37595E-12-1.34208E-12
 -1       310 2.02221E+01-1.39360E+00-9.89767E-02 7.05163E+00-1.36552E-12-1.22222E-12
 -1       311 3.03483E+01 2.35798E+00 3.42031E-01 7.39096E+00-1.36163E-12-1.18139E-12
 -1       312 3.96445E+01 4.78362E+00 7.54318E-01 6.15034E+00-1.19013E-12-7.20285E-13
 -1       313 4.41160E+01 6.63500E+00 7.97833E-01 2.28688E+00-1.21178E-12 1.95954E-14
 -1       314 4.70995E+01 6.89474E+00 1.00755E+00-4.47484E-01-1.07647E-12 6.33014E-13
 -1       315 4.33257E+01 6.01151E+00 8.13495E-01-3.21228E+00-1.12915E-12 1.14900E-12
 -1       316 3.66565E+01 3.76004E+00 5.67330E-01-6.02918E+00-1.23982E-12 1.64913E-12
 -1       317 2.67693E+01 1.24482E+00 1.84455E-01-7.37278E+00-1.42014E-12 1.71602E-12
 -1       318 1.65755E+01-2.20850E+00-2.48519E-01-6.65280E+00-9.72139E-13 1.85477E-12
 -1       319 7.89848E+00-5.99245E+00-6.19922E-01-4.85385E+00-6.81705E-13 1.49869E-12
 -1       320 2.30323E+00-8.64531E+00-7.30354E-01-3.28447E+00-2.43222E-13 8.83196E-13
 -1       321-1.00007E+00-1.10480E+01-9.79548E-01-7.00116E-01 2.27797E-13 5.03653E-13
 -1       322 2.04520E+01 3.10049E+00-1.78753E-02-1.60731E+00-4.29610E-13-2.58013E-13
 -1       323 2.12496E+01 2.21491E+00-1.62728E-02-1.90967E+00-4.68521E-13 2.59636E-14
 -1       324 1.93959E+01 3.94682E+00-1.34185E-02-8.91919E-01-2.55691E-13-5.34965E-13
 -1       325 1.90550E+01 4.16520E+00-1.11664E-02-6.07106E-01-1.61643E-13-5.83662E-13
 -1       326 1.88367E+01 4.29076E+00-9.77318E-03-3.65835E-01-6.75615E-14-5.89009E-13
 -1       327 1.87423E+01 4.33790E+00-9.18794E-03-1.47023E-01 3.13646E-14-5.79778E-13
 -1       328 1.87691E+01 4.31508E+00-9.33807E-03 7.19493E-02 1.16722E-13-5.74079E-13
 -1       329 1.89092E+01 4.22692E+00-1.01920E-02 3.11854E-01 1.91072E-13-5.66467E-13
 -1       330 1.91474E+01 4.07615E+00-1.18182E-02 5.84683E-01 2.66284E-13-4.97672E-13
 -1       331 1.94842E+01 3.84714E+00-1.44350E-02 9.10693E-01 3.66103E-13-3.97156E-13
 -1       332 1.99215E+01 3.50971E+00-1.82908E-02 1.28631E+00 4.56343E-13-2.83984E-13
 -1       333 2.04947E+01 2.99049E+00-2.22658E-02 1.68409E+00 5.03849E-13-9.02004E-14
 -1       334 2.12046E+01 2.11818E+00-2.94282E-02 1.93359E+00 5.07461E-13 3.10202E-13
 -1       335 2.16078E+01 1.16861E+00-2.30133E-02 1.60062E+00 4.45515E-13 6.56457E-13
 -1       336 2.10648E+01 4.95715E-01 8.98848E-03 5.93816E-01 3.50321E-13 5.16283E-13
 -1       337 2.11707E+01 7.40719E-01 1.34782E-02-5.14591E-01-3.49874E-13 8.00465E-14
 -1       338 2.09619E+01 4.47632E-01 8.44155E-03 1.54586E-01-2.76883E-13 4.56397E-14
 -1       339 2.09692E+01 3.23317E-01 5.56276E-03 6.02827E-01-2.15603E-13 2.43950E-14
 -1       340 2.11504E+01 2.59800E-01 3.39771E-03 9.41571E-01-9.10591E-14-1.19398E-14
 -1       341 2.14721E+01 2.07991E-01 1.94424E-03 1.21068E+00-7.01508E-14-3.64249E-15
 -1       342 2.19098E+01 1.29829E-01 3.96259E-04 1.40908E+00-6.36428E-14-1.09875E-14
 -1       343 2.24471E+01-1.53093E-02-1.79039E-03 1.49853E+00-2.67657E-14-2.35909E-14
 -1       344 2.30725E+01-2.68782E-01-4.75744E-03 1.40172E+00-4.56655E-15-5.34100E-15
 -1       345 2.37686E+01-6.46787E-01-7.98201E-03 1.00891E+00 1.91058E-15 1.98503E-14
 -1       346 2.44832E+01-1.07699E+00-1.04412E-02 2.17683E-01 6.77318E-14 1.42282E-13
 -1       347 2.50730E+01-1.30671E+00-1.18963E-02-9.53707E-01 6.82223E-15 2.37830E-13
 -1       348 2.52866E+01-9.13074E-01-1.21022E-02-2.15958E+00 3.80193E-14 3.13985E-13
 -1       349 2.49370E+01 3.23358E-01-2.40449E-02-2.62982E+00-1.88926E-13 2.50390E-13
 -1       350 2.43022E+01 1.82848E+00-3.87818E-02-1.63365E+00-5.02485E-13 9.74982E-14
 -1       351 2.41058E+01 2.29928E+00-4.00405E-02 5.26553E-01-5.39912E-13-2.62708E-13
 -1       352 2.46060E+01 1.26900E+00-3.24071E-02 2.34981E+00-2.97918E-13-4.02174E-13
 -1       353 2.52470E+01-2.68373E-01-1.95339E-02 2.70761E+00-1.72312E-13-4.81715E-13
 -1       354 2.54083E+01-1.16811E+00-1.16833E-02 1.82754E+00 7.59228E-14-4.54377E-13
 -1       355 2.50550E+01-1.25171E+00-1.10200E-02 5.72065E-01 2.62036E-13-3.36189E-13
 -1       356 2.44354E+01-8.93961E-01-9.48320E-03-4.52023E-01 1.29866E-13-2.95138E-13
 -1       357 2.37629E+01-4.67663E-01-6.66388E-03-1.06316E+00 2.00480E-13-1.32150E-13
 -1       358 2.31326E+01-1.42941E-01-3.49684E-03-1.31593E+00 7.45995E-14-1.09046E-13
 -1       359 2.25718E+01 5.15781E-02-9.35629E-04-1.33035E+00 2.96474E-14-1.99902E-13
 -1       360 2.20830E+01 1.44981E-01 6.59652E-04-1.21438E+00-4.84018E-14-3.15406E-13
 -1       361 2.16630E+01 1.75164E-01 1.44634E-03-1.04267E+00-2.81722E-14-2.02295E-13
 -1       362 2.13077E+01 1.71399E-01 1.69506E-03-8.59634E-01 4.75854E-14-2.01216E-13
 -1       363 2.10122E+01 1.52217E-01 1.64213E-03-6.88416E-01 1.27637E-13-4.22349E-13
 -1       364 2.07709E+01 1.28003E-01 1.44917E-03-5.39045E-01-4.70924E-14-4.14215E-13
 -1       365 2.05771E+01 1.03988E-01 1.21121E-03-4.14205E-01-4.63057E-14-2.85417E-13
 -1       366 2.04242E+01 8.24723E-02 9.77414E-04-3.12859E-01-6.74547E-14-2.78987E-13
 -1       367 2.03055E+01 6.42134E-02 7.69465E-04-2.32340E-01-7.10239E-14-1.22975E-13
 -1       368 2.02148E+01 4.92215E-02 5.94301E-04-1.69473E-01 5.68434E-14-2.02068E-13
 -1       369 2.01468E+01 3.71845E-02 4.51608E-04-1.21138E-01 9.21364E-14-2.06310E-13
 -1       370 2.00967E+01 2.76831E-02 3.37994E-04-8.45164E-02-2.60749E-14-2.68540E-13
 -1       371 2.00605E+01 2.02909E-02 2.49096E-04-5.71786E-02-1.72951E-13-3.43300E-13
 -1       372 2.00351E+01 1.46171E-02 1.80558E-04-3.70915E-02 3.30104E-13-3.70145E-13
 -1       373 2.00177E+01 1.03212E-02 1.28441E-04-2.25886E-02 1.79728E-13-2.96918E-13
 -1       374 2.00064E+01 7.11430E-03 8.93383E-05-1.23273E-02-2.08308E-13-6.13820E-14
 -1       375 1.99994E+01 4.75491E-03 6.03747E-05-5.24281E-03-3.25405E-13 3.36234E-13
 -1       376 1.99956E+01 3.04246E-03 3.91360E-05-5.06088E-04-9.91578E-14 5.48177E-13
 -1       377 1.99939E+01 1.80995E-03 2.36288E-05 2.51416E-03 3.10279E-13 2.48118E-13
 -1       378 1.99936E+01 9.16484E-04 1.21386E-05 4.28275E-03 3.21763E-13 2.62729E-13
 -1       379 1.99943E+01 2.39419E-04 3.31276E-06 5.12340E-03 4.98170E-14-8.46931E-14
 -1       380 1.99954E+01-3.31389E-04-3.37055E-06 5.23819E-03-1.32080E-13-7.17128E-14
 -1       381 1.99967E+01-9.03462E-04-1.08108E-05 4.73743E-03-8.78577E-14 3.59507E-13
 -1       382 1.99979E+01-1.39311E-03-1.60153E-05 3.75268E-03 3.41528E-13 3.03593E-13
 -1       383 2.07586E+01 2.50122E-01 1.09812E-02 3.68774E-02 2.85710E-13 4.09647E-13
 -1       384 2.06942E+01 1.41272E-01 6.27704E-03-2.78785E-01 1.61278E-13 3.20065E-13
 -1       385 2.08074E+01 7.47993E-02 2.65653E-03-4.59544E-01 7.93848E-14 2.77105E-13
 -1       386 2.10305E+01 1.83436E-02 5.16419E-04-5.44235E-01 4.11632E-14 2.33543E-13
 -1       387 2.13076E+01-4.34362E-02-9.68544E-04-5.39586E-01 5.61837E-14 2.06322E-13
 -1       388 2.15866E+01-1.16737E-01-2.20285E-03-4.36437E-01 1.32291E-13 2.65661E-13
 -1       389 2.18128E+01-1.98200E-01-3.16473E-03-2.22655E-01 2.71124E-14 2.74962E-13
 -1       390 2.19291E+01-2.70645E-01-3.60865E-03 1.00995E-01-5.23581E-14 3.03976E-13
 -1       391 2.18815E+01-3.00348E-01-3.33530E-03 4.99830E-01 3.39761E-14 2.92880E-13
 -1       392 2.16380E+01-2.44349E-01-2.00664E-03 8.86287E-01 1.28652E-13 3.20334E-13
 -1       393 2.12164E+01-7.56034E-02 5.43158E-05 1.12146E+00 1.71252E-13 2.55430E-13
 -1       394 2.07136E+01 1.79248E-01 2.25291E-03 1.06048E+00 1.73685E-13 1.68749E-13
 -1       395 2.03014E+01 4.20941E-01 4.04480E-03 6.44162E-01 9.88992E-14 5.16022E-14
 -1       396 2.01549E+01 5.25977E-01 5.09063E-03-2.25203E-02 1.76643E-13-2.70358E-14
 -1       397 2.03507E+01 4.34598E-01 5.18986E-03-6.97884E-01 2.97243E-13-1.32198E-13
 -1       398 2.08144E+01 1.99940E-01 4.00878E-03-1.13440E+00 1.55993E-13-1.82796E-13
 -1       399 2.13704E+01-5.43365E-02 1.54985E-03-1.21992E+00-1.24551E-13-2.54678E-13
 -1       400 2.18484E+01-2.27536E-01-1.21135E-03-1.00692E+00-3.35344E-14-3.37433E-13
 -1       401 2.21512E+01-2.89086E-01-3.22417E-03-6.36894E-01 1.23184E-13-3.55963E-13
 -1       402 2.22597E+01-2.63931E-01-4.00634E-03-2.48571E-01 1.87008E-13-3.04353E-13
 -1       403 2.22040E+01-1.95367E-01-3.68222E-03 7.03668E-02 2.64652E-14-2.82911E-13
 -1       404 2.20332E+01-1.19020E-01-2.75084E-03 2.87169E-01-1.39657E-13-2.09930E-13
 -1       405 2.17952E+01-5.45321E-02-1.67541E-03 4.06031E-01-1.16210E-13-2.59202E-13
 -1       406 2.15293E+01-8.41156E-03-7.34250E-04 4.48126E-01-8.41911E-14-7.80598E-14
 -1       407 2.12634E+01 2.02319E-02-4.05291E-05 4.38098E-01-4.50942E-14 2.39336E-13
 -1       408 2.10157E+01 3.52038E-02 3.99055E-04 3.97381E-01-2.24298E-14 2.24761E-13
 -1       409 2.07963E+01 4.07235E-02 6.29991E-04 3.42019E-01-4.21593E-14 1.63117E-13
 -1       410 2.06093E+01 4.03539E-02 7.11959E-04 2.82787E-01-1.81815E-13 3.26367E-13
 -1       411 2.04548E+01 3.67256E-02 6.99195E-04 2.26219E-01-5.83508E-14 2.86501E-13
 -1       412 2.03308E+01 3.16135E-02 6.33472E-04 1.75783E-01 6.63779E-14 1.77111E-13
 -1       413 2.02337E+01 2.61264E-02 5.43735E-04 1.32907E-01 1.34431E-13-1.35866E-15
 -1       414 2.01594E+01 2.09011E-02 4.48359E-04 9.77591E-02 1.34295E-13 2.80993E-13
 -1       415 2.01040E+01 1.62608E-02 3.57971E-04 6.97937E-02 3.80641E-13 3.18041E-13
 -1       416 2.00637E+01 1.23317E-02 2.77953E-04 4.81200E-02 1.38631E-13 2.49797E-13
 -1       417 2.00353E+01 9.12238E-03 2.10358E-04 3.17287E-02-1.73478E-13 1.84854E-13
 -1       418 2.00160E+01 6.57764E-03 1.55248E-04 1.96280E-02-5.58595E-15-3.32833E-14
 -1       419 2.00035E+01 4.61151E-03 1.11593E-04 1.09173E-02-1.42390E-14 9.50266E-14
 -1       420 1.99961E+01 3.12781E-03 7.78302E-05 4.82063E-03-3.01489E-14 5.88255E-14
 -1       421 1.99921E+01 2.03148E-03 5.22126E-05 6.96476E-04 1.01214E-13 1.37990E-13
 -1       422 1.99907E+01 1.23401E-03 3.29871E-05-1.96542E-03 6.74269E-14 3.08971E-14
 -1       423 1.99909E+01 6.54873E-04 1.85131E-05-3.55344E-03 7.89039E-14-8.87952E-14
 -1       424 1.99921E+01 2.20304E-04 7.35439E-06-4.34518E-03-1.33675E-13 1.11247E-13
 -1       425 1.99938E+01-1.40564E-04-1.02909E-06-4.51724E-03-1.19705E-13 1.93782E-13
 -1       426 1.99957E+01-4.91125E-04-6.44623E-06-4.15362E-03 2.74956E-13 3.02850E-13
 -1       427 1.99974E+01-8.91615E-04-8.37253E-06-3.27284E-03 1.18940E-13 7.20207E-13
 -1       428 1.99984E+01-1.24635E-03-9.80344E-06-2.53508E-03 1.63071E-13 6.65190E-13
 -1       429 2.00001E+01-4.83564E-03 6.04654E-07-4.26615E-03-3.92306E-13-4.53831E-13
 -1       430 1.99994E+01-3.41754E-03-8.53012E-06-4.25391E-03 1.17240E-14-1.36676E-13
 -1       431 1.99989E+01-2.35759E-03-1.37561E-05-3.61755E-03 1.33185E-13 8.09960E-13
 -1       432 2.00005E+01-6.07370E-03 6.14709E-06-3.75499E-03-5.03258E-13-1.24764E-12
 -1       433 2.00008E+01-7.09239E-03 9.39979E-06-2.88929E-03-1.75719E-13-6.10163E-13
 -1       434 2.00009E+01-7.80485E-03 1.15000E-05-1.81539E-03 1.31680E-13 8.63566E-14
 -1       435 2.00010E+01-8.17631E-03 1.25966E-05-6.34179E-04-1.10950E-13 3.18852E-13
 -1       436 2.00010E+01-8.19018E-03 1.26398E-05 5.84477E-04-2.05361E-13-1.28895E-14
 -1       437 2.00009E+01-7.84303E-03 1.16773E-05 1.78025E-03-4.40186E-13-2.72510E-13
 -1       438 2.00008E+01-7.16087E-03 9.46455E-06 2.86157E-03-3.77010E-13 5.95628E-14
 -1       439 2.00005E+01-6.15189E-03 5.87599E-06 3.75948E-03-1.65267E-13 5.68390E-13
 -1       440 2.00001E+01-4.88150E-03 5.34367E-07 4.30450E-03 2.39872E-15 4.23692E-13
 -1       441 1.99994E+01-3.46449E-03-9.33085E-06 4.33901E-03 9.15569E-14 4.12486E-14
 -1       442 1.02194E+01-5.57284E+00-6.30800E-02 6.96325E+00 2.07084E-13 3.80265E-13
 -1       443 1.27693E+00-4.26542E+00-2.36944E-02 3.45598E-01 1.92337E-14 9.73888E-13
 -1       444 4.24688E+00-4.28122E+00 1.63445E-02 4.78348E+00-9.65200E-14 1.00618E-12
 -1       445 1.85617E+01-5.36369E+00-1.87237E-02 6.87735E+00 2.10387E-13 1.63758E-15
 -1       446 2.64256E+01-2.98607E+00 1.24254E-02 4.70348E+00 3.93172E-13 5.43871E-14
 -1       447 1.98531E+01 3.61391E+00-1.91019E-02-1.23612E+00-3.52996E-13-4.46246E-13
 -1       448 3.35394E+01 5.00797E+00-4.89805E-02-5.38757E-01 9.60385E-13-7.26530E-13
 -1       449 3.63173E+01 7.86750E+00 8.72011E-02-7.25323E-02 1.01594E-12-4.89227E-13
 -1       450 3.56796E+01 7.67119E+00 5.50730E-02 9.16604E-02 1.08891E-12-3.91638E-13
 -1       451 3.32118E+01 3.89899E+00-4.15528E-02 1.65403E-01 7.91783E-13-3.37133E-13
 -1       452 3.13818E+01-4.28236E-02 2.07265E-02-1.82630E+00 6.45293E-13-4.15570E-13
 -1       453 2.42288E+01-4.27767E+00-2.75541E-02-5.47744E+00 4.34916E-13-6.70408E-13
 -1       454 1.70312E+01-5.56455E+00-3.42815E-03-7.14850E+00 2.61055E-13-8.77375E-13
 -1       455 8.39425E+00-4.95129E+00 3.70540E-02-6.68973E+00-7.02771E-14-1.12306E-12
 -1       456 2.29031E+00-4.87324E+00-7.41550E-02-3.38345E+00 1.30410E-13-1.33363E-12
 -1       457 1.52600E+00-4.24220E+00-1.77300E-02 1.02480E+00 2.53721E-14-1.26790E-12
 -1       458 5.14408E+00-4.74190E+00-3.06711E-04 5.02702E+00 7.24143E-14-1.05793E-12
 -1       459 1.16811E+01-5.86624E+00-3.34840E-02 6.89140E+00-1.14492E-13-7.48054E-13
 -1       460 2.03185E+01-5.84909E+00-1.64290E-02 6.37118E+00-1.18697E-13-3.88460E-13
 -1       461 2.83184E+01-3.70764E+00-1.79715E-02 3.36006E+00-4.80956E-13 3.27099E-14
 -1       462 3.33448E+01 8.53069E-01 7.62420E-02 1.58189E+00-8.85432E-13 8.59868E-14
 -1       463 3.60010E+01 4.70711E+00 8.57380E-02-5.05787E-02-1.14107E-12 1.86032E-13
 -1       464 3.57135E+01 7.81147E+00 2.77046E-02-2.58760E-01-1.36718E-12 8.94840E-14
 -1       465 3.61150E+01 7.32630E+00 4.20571E-02 6.41449E-01-1.21064E-12 3.97460E-14
 -1       466 3.45585E+01 3.31664E+00-2.60465E-03 5.43164E-01-9.13616E-13 5.28605E-14
 -1       467 3.15164E+01-9.87012E-01 8.55407E-03-2.09009E+00-6.04600E-13 5.23498E-13
 -1       468 2.56665E+01-4.44814E+00-1.18693E-02-4.58278E+00-8.67917E-14 7.52259E-13
 -1       469 1.73232E+01-5.80978E+00-5.18958E-02-6.63946E+00 9.57845E-14 1.22364E-12
 -1       470 9.68648E+00-5.70936E+00-4.75362E-02-6.49289E+00 5.83561E-14 1.09390E-12
 -1       471 2.75144E+00-4.75156E+00-7.23609E-02-3.35429E+00-2.50633E-14 8.38843E-13
 -1       472 3.13591E+01 2.69784E-01-7.90734E-03 1.80147E+00 6.93711E-13-5.69184E-13
 -1       473 2.09526E+01 8.82187E-01 4.07823E-03 4.84674E-01 3.50004E-13 1.15089E-13
 -1       474 1.91068E+01 3.61036E+00-4.19636E-03-3.46103E-01-1.07482E-13-5.19350E-13
 -1       475 1.94177E+01 3.36714E+00-4.92497E-03-5.08188E-01-1.94494E-13-4.86819E-13
 -1       476 1.89049E+01 3.74729E+00-3.68719E-03-6.50699E-02 6.91431E-14-5.03316E-13
 -1       477 1.90097E+01 3.66236E+00-3.89551E-03 9.05996E-02 1.48802E-13-5.19796E-13
 -1       478 1.92302E+01 3.48756E+00-4.43074E-03 2.73586E-01 2.24827E-13-4.83714E-13
 -1       479 1.95565E+01 3.21510E+00-5.27279E-03 4.94978E-01 3.15645E-13-3.80792E-13
 -1       480 1.99688E+01 2.83202E+00-6.19668E-03 7.41241E-01 3.73277E-13-2.87638E-13
 -1       481 2.04645E+01 2.29606E+00-5.63261E-03 9.81073E-01 4.18213E-13-1.71236E-13
 -1       482 2.08301E+01 5.20823E-01 5.21369E-03-8.16038E-02 2.60038E-13 9.03534E-14
 -1       483 2.08541E+01 1.17126E+00 3.88227E-03-2.52483E-01-3.16594E-13-1.47367E-13
 -1       484 2.82929E+01-3.12840E+00-5.61078E-02 1.38190E+00 2.34255E-13-6.69374E-13
 -1       485 2.07935E+01 8.11323E-01 2.63617E-03 3.77706E-01-2.42094E-13-1.43772E-13
 -1       486 2.07867E+01 6.27761E-01 1.75389E-03 8.70448E-01-1.60774E-13-1.00064E-13
 -1       487 2.08589E+01 5.10195E-01 1.13617E-03 1.26986E+00-8.46277E-14-1.05438E-13
 -1       488 2.10179E+01 3.87690E-01 6.13468E-04 1.59745E+00-6.62227E-14-1.06900E-13
 -1       489 2.12806E+01 1.91592E-01-1.55921E-04 1.84579E+00-5.86080E-14-9.64565E-14
 -1       490 2.16900E+01-1.54883E-01-1.26201E-03 1.97339E+00-2.99778E-15-1.01281E-13
 -1       491 2.23220E+01-7.22018E-01-2.65715E-03 1.89480E+00 4.10083E-14-3.93668E-14
 -1       492 2.32687E+01-1.51022E+00-3.90655E-03 1.47377E+00 1.02229E-13 5.45469E-14
 -1       493 2.45608E+01-2.30882E+00-6.60615E-03 5.41025E-01 1.58494E-13 2.15042E-13
 -1       494 2.60033E+01-2.49616E+00-1.75323E-02-9.64929E-01 1.07728E-13 4.24560E-13
 -1       495 2.69276E+01-1.15829E+00-4.05605E-02-2.48811E+00-1.19312E-13 3.92128E-13
 -1       496 2.68871E+01 1.89406E+00-1.22336E-01-2.82369E+00-5.54633E-13 1.66641E-13
 -1       497 2.66389E+01 4.42151E+00-1.35545E-01-8.18101E-01-8.88602E-13-1.66250E-13
 -1       498 2.67738E+01 3.66573E+00-1.23544E-01 2.00952E+00-6.68667E-13-5.31637E-13
 -1       499 2.71166E+01 6.02417E-01-7.78781E-02 3.16266E+00-2.16480E-13-7.09609E-13
 -1       500 2.67294E+01-1.91057E+00-2.75964E-02 2.07863E+00 5.86538E-14-5.42869E-13
 -1       501 2.54890E+01-2.53053E+00-1.04523E-02 4.34140E-01 4.14123E-13-4.02833E-13
 -1       502 2.40962E+01-1.98790E+00-4.19886E-03-8.33867E-01 3.54601E-13-2.32693E-13
 -1       503 2.29591E+01-1.14609E+00-2.82344E-03-1.52798E+00 2.67489E-13-7.93514E-14
 -1       504 2.21645E+01-4.46998E-01-1.86484E-03-1.78607E+00 9.39895E-14-1.09001E-13
 -1       505 2.16381E+01 3.98530E-03-6.44758E-04-1.77521E+00-8.74619E-14-2.85579E-13
 -1       506 2.12825E+01 2.43078E-01 1.84127E-04-1.62278E+00-3.68972E-15-2.25765E-13
 -1       507 2.10260E+01 3.40323E-01 6.09859E-04-1.40866E+00-4.24292E-14-3.12264E-13
 -1       508 2.08271E+01 3.55343E-01 7.58095E-04-1.17984E+00-1.04817E-14-3.20003E-13
 -1       509 2.06648E+01 3.28704E-01 7.49804E-04-9.62070E-01-6.07243E-15-2.34730E-13
 -1       510 2.05291E+01 2.84791E-01 6.68156E-04-7.67811E-01-1.59243E-14-1.93480E-13
 -1       511 2.04154E+01 2.36936E-01 5.61578E-04-6.01611E-01-7.32570E-14-2.15835E-13
 -1       512 2.03209E+01 1.91738E-01 4.54989E-04-4.63553E-01 8.50420E-14-1.53383E-13
 -1       513 2.02436E+01 1.51986E-01 3.59288E-04-3.51425E-01-5.21641E-14-3.02344E-14
 -1       514 2.01814E+01 1.18455E-01 2.78259E-04-2.62021E-01 1.07264E-13 1.05860E-13
 -1       515 2.01323E+01 9.09381E-02 2.12021E-04-1.91878E-01-2.18541E-15 2.83430E-13
 -1       516 2.00942E+01 6.88065E-02 1.59144E-04-1.37669E-01-1.84115E-14 4.99675E-14
 -1       517 2.00653E+01 5.12935E-02 1.17663E-04-9.63910E-02-1.00304E-13-3.20658E-14
 -1       518 2.00437E+01 3.76346E-02 8.55992E-05-6.54312E-02-3.24113E-14 2.29753E-13
 -1       519 2.00280E+01 2.71281E-02 6.11534E-05-4.25823E-02 8.85221E-14-1.75317E-13
 -1       520 2.00168E+01 1.91582E-02 4.27673E-05-2.60174E-02 5.03591E-14-1.27118E-13
 -1       521 2.00091E+01 1.31971E-02 2.91248E-05-1.42524E-02-5.94452E-14 9.60287E-14
 -1       522 2.00041E+01 8.79943E-03 1.91260E-05-6.10361E-03 3.13006E-14 4.53396E-13
 -1       523 2.00009E+01 5.59107E-03 1.18218E-05-6.45666E-04-5.01465E-14 7.76494E-13
 -1       524 1.99991E+01 3.25753E-03 6.54687E-06 2.82639E-03 1.26493E-13 4.60902E-13
 -1       525 1.99983E+01 1.53208E-03 2.55574E-06 4.83167E-03 6.13011E-15 2.37924E-13
 -1       526 1.99981E+01 1.82601E-04-4.15781E-07 5.73195E-03-4.01374E-14 1.52488E-13
 -1       527 1.99983E+01-9.92507E-04-4.20141E-06 5.76223E-03 1.30989E-13 1.30217E-13
 -1       528 2.08985E+01 1.48056E-01 8.22471E-04-6.65837E-01 9.80239E-14 3.26427E-14
 -1       529 2.10699E+01-1.96508E-03-2.50402E-04-7.61691E-01 7.29234E-14 1.02557E-15
 -1       530 2.13058E+01-1.69840E-01-1.12170E-03-7.31710E-01 6.05429E-14 1.94921E-15
 -1       531 2.15823E+01-3.61492E-01-1.88053E-03-5.60777E-01 2.90786E-14 9.75255E-14
 -1       532 2.18667E+01-5.56518E-01-2.40661E-03-2.34485E-01-4.49316E-14 1.45090E-13
 -1       533 2.21097E+01-6.97598E-01-2.50575E-03 2.38515E-01 1.93004E-14 1.25585E-13
 -1       534 2.22421E+01-6.89982E-01-2.39303E-03 7.94404E-01 7.28089E-14 1.36867E-13
 -1       535 2.21942E+01-4.35462E-01-1.05513E-03 1.28634E+00 1.57507E-13 2.13995E-13
 -1       536 2.19432E+01 8.95168E-02 7.56355E-04 1.49392E+00 2.01568E-13 2.21255E-13
 -1       537 2.15817E+01 7.36600E-01 2.07373E-03 1.21474E+00 1.98920E-13 1.71857E-13
 -1       538 2.13176E+01 1.19362E+00 1.97106E-03 4.44959E-01 2.13045E-13 1.04087E-13
 -1       539 2.13288E+01 1.20369E+00 2.40914E-03-5.38860E-01 2.99256E-13 8.66023E-15
 -1       540 2.16211E+01 7.54889E-01 2.02997E-03-1.32007E+00 2.70597E-13 1.01551E-13
 -1       541 2.20115E+01 1.16368E-01 1.04557E-03-1.61560E+00 8.63240E-14 8.45027E-15
 -1       542 2.22961E+01-4.06794E-01-5.30362E-04-1.43000E+00-3.72200E-14-1.61996E-13
 -1       543 2.23804E+01-6.65002E-01-2.01957E-03-9.57222E-01 1.31467E-13-3.04431E-13
 -1       544 2.22823E+01-6.78526E-01-2.85985E-03-4.14949E-01 6.80646E-14-3.38059E-13
 -1       545 2.20687E+01-5.45441E-01-2.74504E-03 5.14007E-02 9.46578E-14-1.69983E-13
 -1       546 2.18047E+01-3.63230E-01-2.09984E-03 3.81806E-01-8.85023E-14-1.41001E-13
 -1       547 2.15329E+01-1.93696E-01-1.33105E-03 5.74570E-01-4.96852E-14-1.20431E-13
 -1       548 2.12763E+01-6.33229E-02-6.46373E-04 6.55390E-01-1.19133E-13-1.38879E-13
 -1       549 2.10447E+01 2.38741E-02-1.29997E-04 6.56993E-01-2.14873E-13-5.03613E-14
 -1       550 2.08416E+01 7.43930E-02 2.06389E-04 6.09180E-01-3.52075E-14-1.33037E-13
 -1       551 2.06674E+01 9.78495E-02 3.91399E-04 5.35217E-01-6.37510E-14-9.88216E-14
 -1       552 2.05206E+01 1.03317E-01 4.66154E-04 4.51480E-01-1.76710E-13-3.10308E-14
 -1       553 2.03992E+01 9.79871E-02 4.69338E-04 3.68487E-01-1.86101E-13 6.47230E-14
 -1       554 2.03005E+01 8.70027E-02 4.31355E-04 2.92315E-01 4.53202E-14 3.34809E-14
 -1       555 2.02216E+01 7.37655E-02 3.73643E-04 2.25930E-01 5.21568E-14 2.35376E-13
 -1       556 2.01597E+01 6.03642E-02 3.10032E-04 1.70262E-01 3.46824E-14 3.23782E-13
 -1       557 2.01121E+01 4.79694E-02 2.48637E-04 1.25005E-01 1.93090E-13 2.28518E-13
 -1       558 2.00762E+01 3.71452E-02 1.93693E-04 8.91755E-02 2.23377E-13 3.92792E-13
 -1       559 2.00496E+01 2.80747E-02 1.46951E-04 6.14826E-02 1.66501E-13 4.66561E-13
 -1       560 2.00304E+01 2.07162E-02 1.08661E-04 4.05631E-02 1.57774E-13 8.96979E-14
 -1       561 2.00170E+01 1.49075E-02 7.82356E-05 2.51193E-02-1.45260E-14-4.30119E-14
 -1       562 2.00080E+01 1.04311E-02 5.46766E-05 1.39927E-02-2.39284E-15-1.72486E-13
 -1       563 2.00022E+01 7.05490E-03 3.68309E-05 6.19576E-03 4.57070E-14-1.39401E-13
 -1       564 1.99988E+01 4.55327E-03 2.35333E-05 9.18879E-04 9.76989E-14-1.46607E-13
 -1       565 1.99971E+01 2.71753E-03 1.36704E-05-2.47702E-03 8.27148E-14-1.19412E-13
 -1       566 1.99965E+01 1.35840E-03 6.21399E-06-4.47444E-03-2.65339E-13 3.34685E-13
 -1       567 1.99966E+01 3.04757E-04 4.86080E-07-5.41632E-03 2.21558E-14 2.46092E-13
 -1       568 1.99972E+01-6.04451E-04-6.12469E-06-5.53807E-03-9.09396E-16 2.39355E-13
 -1       569 1.99980E+01-1.49009E-03-9.33150E-06-4.95742E-03-1.49487E-13 7.55410E-13
 -1       570 2.00015E+01-3.72508E-03 3.69490E-06-3.96896E-03-1.34109E-13-5.41237E-13
 -1       571 2.00019E+01-4.03030E-03 4.59438E-06-2.78635E-03 4.37096E-13 1.99857E-13
 -1       572 1.99998E+01-2.62627E-03-3.01266E-06-5.30978E-03-2.86483E-13-5.61928E-13
 -1       573 2.00008E+01-3.26735E-03 1.25466E-06-4.86060E-03-6.42868E-13-9.80003E-13
 -1       574 2.00021E+01-4.20757E-03 5.36909E-06-1.44866E-03 3.62033E-13 1.13433E-14
 -1       575 2.00022E+01-4.27653E-03 5.64452E-06-4.00193E-05-6.68227E-14-8.31046E-14
 -1       576 2.00021E+01-4.24365E-03 5.33018E-06 1.37942E-03-1.99931E-13-1.74436E-13
 -1       577 2.00020E+01-4.09874E-03 4.65234E-06 2.72473E-03-5.94387E-14-5.18907E-14
 -1       578 2.00016E+01-3.81013E-03 3.37976E-06 3.95120E-03-1.12552E-13 2.92078E-13
 -1       579 2.00009E+01-3.32740E-03 1.97188E-06 4.90018E-03-2.82337E-13 3.71628E-13
 -1       580 1.99998E+01-2.65270E-03-2.55757E-06 5.34282E-03-7.50341E-14 4.52750E-13
 -1       581 5.38564E+00-1.32551E+00 1.75764E-01 2.48334E+00-4.79981E-13 1.07339E-12
 -1       582 1.64250E+01-5.14047E+00 8.15581E-02 7.01876E+00-1.87475E-13-1.89954E-13
 -1       583 2.08130E+01 3.05725E-01 2.52160E-03-4.46365E-01 1.49891E-13 3.69244E-14
 -1       584 2.98330E+01 1.22329E+00-1.21556E-01-1.39568E+00 7.00745E-13-7.81819E-13
 -1       585 8.98304E+00-3.12395E+00 1.45928E-01-5.55821E+00 1.52031E-13 8.00984E-13
 -1       586 1.00290E+01-3.27821E+00 1.41995E-01 6.36735E+00-4.53533E-13 5.14783E-13
 -1       587 4.69975E+00-1.41517E+00 1.85206E-01-9.86686E-01-2.72657E-13 5.97064E-13
 -1       588 3.08507E+01 5.26815E+00-1.64974E-01-1.87786E+00-1.11677E-12 4.09811E-14
 -1       589 2.95087E+01 5.42663E+00-1.67366E-01 1.65475E+00 7.64125E-13 1.10995E-13
 -1       590 1.89349E+01 3.73298E+00-3.77517E-03-2.04328E-01-2.00990E-14-5.09744E-13
 -1       591 3.04407E+01 7.59557E+00-1.63731E-01 2.95548E-02 9.56304E-13-1.51957E-13
 -1       592 7.51528E+00-2.23000E+00 1.57764E-01-4.82569E+00-2.16285E-13-1.03483E-12
 -1       593 2.99345E+01 6.18259E+00-1.77229E-01-1.35103E+00 8.05939E-13-2.78708E-13
 -1       594 2.93185E+01 2.69256E-01-1.30166E-01 1.36566E+00 3.45696E-13 1.14728E-13
 -1       595 2.78921E+01-3.70690E+00-3.96632E-02-1.82784E+00 9.33108E-15-4.84821E-14
 -1       596 2.24509E+01-5.62279E+00 2.87606E-02-5.55515E+00-1.84769E-13-2.94396E-13
 -1       597 3.10198E+01-4.24253E-01-1.08316E-01 1.50985E+00-3.13118E-13-4.33237E-13
 -1       598 1.58943E+01-4.82750E+00 1.02487E-01-6.98122E+00-3.67241E-13-6.59157E-13
 -1       599 5.06910E+00-1.22378E+00 1.94342E-01-1.25895E+00 3.07220E-14-1.14808E-12
 -1       600 6.24018E+00-1.66532E+00 1.77982E-01 3.19071E+00 3.01294E-13-1.03359E-12
 -1       601 1.21509E+01-3.61686E+00 1.49654E-01 6.36307E+00 4.50653E-13-6.57405E-13
 -1       602 1.82521E+01-5.34814E+00 9.07124E-02 6.38332E+00 3.41741E-13-2.26036E-13
 -1       603 2.54739E+01-5.60894E+00-1.15679E-02 3.42717E+00 2.02605E-13 2.08979E-13
 -1       604 3.02153E+01-2.41236E+00-9.06259E-02-3.36161E-01-4.79261E-13 3.52163E-13
 -1       605 3.12213E+01 1.62586E+00-1.10907E-01-2.16245E+00-8.37552E-13 2.91454E-13
 -1       606 2.94567E+01 6.27650E+00-2.16913E-01 5.95238E-01-1.08379E-12-4.15227E-13
 -1       607 3.03275E+01 4.27047E+00-1.63576E-01 2.39757E+00-7.78308E-13-5.49900E-13
 -1       608 2.90715E+01-3.78298E+00-3.27427E-02-1.12108E+00 1.31093E-14-1.48083E-13
 -1       609 2.31365E+01-5.85859E+00 2.07368E-02-4.82698E+00 4.97387E-13 5.66148E-13
 -1       610 1.63919E+01-5.32591E+00 9.08862E-02-6.63112E+00 4.57190E-13 9.72375E-13
 -1       611 2.07783E+01 1.91028E+00-5.55146E-03-9.53566E-01-4.00884E-13-1.89419E-13
 -1       612 2.10999E+01 1.32284E+00-1.00818E-03 1.11536E+00 4.42347E-13 1.91070E-13
 -1       613 2.41211E+01-5.27215E+00 2.93522E-02 4.61385E+00-5.50185E-14-3.07889E-13
 -1       614 1.98490E+01 2.99645E+00-6.35778E-03-7.00995E-01-2.84705E-13-4.25426E-13
 -1       615 2.79836E+01 3.11074E+00-1.32408E-01-2.20779E+00 6.01331E-13-3.67931E-13
 -1       616 1.99985E+01-1.76265E-03-5.91286E-06 5.35849E-03 1.34356E-13 3.68572E-13
 -1       617 1.31550E+01-2.78782E+00 1.31544E-01-6.10336E+00-4.15227E-13-7.84060E-13
 -1       618 1.92329E+01 2.99802E+00-1.23801E-03 1.52763E-03 1.67747E-13-4.34386E-13
 -1       619 1.90375E+01 3.16467E+00-1.11439E-03-7.78051E-02 8.94356E-14-4.60547E-13
 -1       620 1.99261E+01 2.35657E+00-1.42225E-03 2.56980E-01 2.82414E-13-2.81205E-13
 -1       621 2.03505E+01 1.87279E+00-1.99437E-03 3.84312E-01 3.19301E-13-2.14952E-13
 -1       622 2.07066E+01 1.16383E+00 2.71720E-03 2.23729E-01 3.19340E-13-8.54014E-14
 -1       623 2.58693E+01-4.37225E+00-8.79529E-03 1.89411E+00-1.04762E-13-5.90274E-13
 -1       624 2.66514E+01 2.40294E+00-1.05143E-01 2.23590E+00 4.91641E-13 2.02323E-13
 -1       625 2.04031E+01 1.14570E+00 5.46101E-04 6.03516E-01-1.86442E-13-2.32724E-13
 -1       626 2.03311E+01 9.33012E-01 4.08569E-04 1.07917E+00-1.34346E-13-2.04295E-13
 -1       627 2.02751E+01 7.66859E-01 3.34565E-04 1.49337E+00-6.31429E-14-2.08927E-13
 -1       628 2.02670E+01 5.63691E-01 2.27459E-04 1.86162E+00-4.80946E-14-1.88398E-13
 -1       629 2.03614E+01 2.28544E-01-3.78031E-06 2.18815E+00 9.63616E-15-1.59219E-13
 -1       630 2.06629E+01-3.51167E-01 3.62177E-04 2.45359E+00 1.13980E-13-4.08239E-14
 -1       631 2.13506E+01-1.28060E+00 2.68442E-03 2.58378E+00 1.70016E-13 9.70081E-14
 -1       632 2.26560E+01-2.54400E+00 8.49071E-03 2.40614E+00 2.72526E-13 2.17425E-13
 -1       633 2.47818E+01-3.76437E+00 1.41295E-02 1.59012E+00 3.24717E-13 3.02175E-13
 -1       634 2.86701E+01-1.99741E+00-8.67387E-02 1.81002E+00-2.15244E-14-6.32955E-13
 -1       635 2.63540E+01-3.73593E+00-7.94212E-03-1.47493E-01 4.41284E-13-4.38307E-13
 -1       636 2.39925E+01-3.19274E+00 5.36838E-03-1.59802E+00 4.98492E-13-2.26828E-13
 -1       637 2.22840E+01-1.93516E+00 8.42702E-03-2.20326E+00 3.74845E-13-1.73620E-13
 -1       638 2.12422E+01-8.45258E-01-3.40702E-04-2.29155E+00 1.39750E-13-1.69227E-13
 -1       639 2.06973E+01-1.11395E-01-3.54249E-05-2.14483E+00-8.87368E-14-2.04014E-13
 -1       640 2.04372E+01 2.98291E-01 1.77093E-04-1.90785E+00 1.02382E-15-1.76259E-13
 -1       641 2.03210E+01 4.84614E-01 3.37763E-04-1.64302E+00-8.61001E-14-3.67780E-13
 -1       642 2.02679E+01 5.35419E-01 3.90455E-04-1.38112E+00-4.31121E-14-3.60197E-13
 -1       643 2.02374E+01 5.12842E-01 3.74682E-04-1.13772E+00 8.10940E-14-4.67728E-13
 -1       644 2.02122E+01 4.55956E-01 3.28691E-04-9.20513E-01 4.73409E-14-3.17882E-13
 -1       645 2.01867E+01 3.87360E-01 2.74398E-04-7.32519E-01-4.02586E-14-2.54672E-13
 -1       646 2.01601E+01 3.19116E-01 2.22407E-04-5.73776E-01 5.83018E-15-6.38794E-14
 -1       647 2.01338E+01 2.57003E-01 1.75983E-04-4.42492E-01-5.91021E-14-1.24227E-13
 -1       648 2.01089E+01 2.03253E-01 1.36663E-04-3.35866E-01 1.07900E-13-9.39806E-14
 -1       649 2.00865E+01 1.58225E-01 1.04430E-04-2.50685E-01 1.88144E-13-2.31029E-13
 -1       650 2.00672E+01 1.21369E-01 7.86670E-05-1.83683E-01-1.48903E-13-7.16773E-14
 -1       651 2.00510E+01 9.17462E-02 5.84075E-05-1.31770E-01 3.53010E-14-7.05798E-14
 -1       652 2.00379E+01 6.83080E-02 4.26996E-05-9.21521E-02 1.23215E-13 2.00827E-13
 -1       653 2.00275E+01 5.00293E-02 3.06817E-05-6.23870E-02-1.47448E-13 1.88681E-13
 -1       654 2.00194E+01 3.59737E-02 2.16087E-05-4.03953E-02 8.54235E-16-8.27852E-15
 -1       655 2.00133E+01 2.53169E-02 1.48504E-05-2.44451E-02 5.24117E-14 1.48089E-14
 -1       656 2.00088E+01 1.73490E-02 9.87517E-06-1.31229E-02 2.93110E-13 2.52087E-13
 -1       657 2.00055E+01 1.14666E-02 6.23239E-06-5.29762E-03 1.53708E-13 3.17371E-13
 -1       658 2.00032E+01 7.15974E-03 3.43700E-06-8.46134E-05-1.40888E-13 4.97524E-13
 -1       659 2.00017E+01 3.99641E-03 1.70628E-06 3.18787E-03-1.58633E-13 1.88908E-13
 -1       660 2.00007E+01 1.61206E-03 1.74084E-06 5.01761E-03-1.45318E-13 1.34924E-13
 -1       661 2.00001E+01-3.16781E-04-1.57785E-07 5.73634E-03 4.97461E-15 3.17905E-13
 -1       662 2.09988E+01-8.20676E-02-2.49247E-04-9.63482E-01 5.28473E-14-6.67314E-14
 -1       663 2.23369E+01-4.84345E+00 2.79809E-02 4.26394E+00 4.36580E-13 1.01440E-13
 -1       664 2.08168E+01 1.87247E-01 7.46604E-05-8.60754E-01 6.98022E-14-1.17009E-13
 -1       665 2.16532E+01-7.36166E-01-6.48380E-04-7.23447E-01-3.18924E-14 8.76359E-15
 -1       666 2.21089E+01-1.06555E+00-6.66392E-04-3.26113E-01-3.33986E-14-3.44783E-14
 -1       667 2.25847E+01-1.25860E+00-6.94112E-04 2.66553E-01 3.70980E-14 5.26596E-14
 -1       668 2.29464E+01-1.11706E+00-3.38924E-03 9.74732E-01 1.73854E-14 1.23591E-13
 -1       669 2.30608E+01-4.83512E-01-3.43085E-03 1.57771E+00 1.24615E-13 2.57027E-13
 -1       670 2.28461E+01 6.28436E-01-3.43254E-03 1.72669E+00 2.16579E-13 2.79296E-13
 -1       671 2.24742E+01 1.76665E+00-7.02976E-03 1.12975E+00 2.13483E-13 2.01263E-13
 -1       672 2.22905E+01 2.26807E+00-7.58471E-03-4.96039E-02 3.58565E-13 9.07910E-14
 -1       673 2.24861E+01 1.78790E+00-5.28375E-03-1.24868E+00 2.51322E-13 3.49495E-14
 -1       674 2.28639E+01 6.64331E-01-4.98513E-03-1.85500E+00 2.18572E-13 7.32539E-14
 -1       675 2.30912E+01-4.30941E-01-1.99479E-03-1.73322E+00 1.74375E-13-3.26059E-14
 -1       676 2.29972E+01-1.07291E+00-7.54050E-04-1.14967E+00 1.20879E-13-1.60128E-13
 -1       677 2.26427E+01-1.22316E+00-1.30275E-03-4.55023E-01 7.31959E-14-1.30106E-14
 -1       678 2.21741E+01-1.04655E+00-1.31765E-03 1.32901E-01 1.44844E-13-1.00983E-13
 -1       679 2.17133E+01-7.37641E-01-9.42339E-04 5.36812E-01 8.69777E-14-9.31050E-14
 -1       680 2.13205E+01-4.27201E-01-5.96899E-04 7.64808E-01-1.16263E-13-1.22543E-13
 -1       681 2.10099E+01-1.76494E-01-3.27387E-04 8.56264E-01-9.63141E-14-8.57002E-14
 -1       682 2.07726E+01-5.40570E-04-1.18150E-04 8.53714E-01-2.55236E-13-9.51459E-14
 -1       683 2.05932E+01 1.07935E-01 2.37393E-05 7.92968E-01 4.28360E-15-9.94856E-14
 -1       684 2.04571E+01 1.64291E-01 1.08010E-04 7.01087E-01-1.02046E-13 6.01463E-14
 -1       685 2.03527E+01 1.84408E-01 1.48521E-04 5.96986E-01-1.24480E-13-3.55661E-14
 -1       686 2.02716E+01 1.81570E-01 1.59243E-04 4.92988E-01-2.14326E-13-1.62445E-13
 -1       687 2.02080E+01 1.65713E-01 1.51745E-04 3.96455E-01-8.48394E-14-2.59588E-13
 -1       688 2.01580E+01 1.43694E-01 1.34680E-04 3.11214E-01 1.50063E-15-1.91671E-13
 -1       689 2.01186E+01 1.19933E-01 1.13878E-04 2.38709E-01-7.64235E-14-4.16245E-14
 -1       690 2.00878E+01 9.70674E-02 9.28028E-05 1.78872E-01 6.88030E-14 1.58044E-13
 -1       691 2.00640E+01 7.65107E-02 7.33481E-05 1.30748E-01 2.03422E-13 4.40897E-13
 -1       692 2.00456E+01 5.88739E-02 5.64278E-05 9.29287E-02 2.57351E-13 3.44144E-13
 -1       693 2.00318E+01 4.42695E-02 4.23237E-05 6.38469E-02 2.16976E-13 2.14808E-13
 -1       694 2.00214E+01 3.25207E-02 3.09500E-05 4.19559E-02 1.01303E-13 2.57500E-13
 -1       695 2.00139E+01 2.33019E-02 2.20292E-05 2.58354E-02 1.65460E-14 3.57122E-13
 -1       696 2.00085E+01 1.62265E-02 1.51913E-05 1.42446E-02 1.11985E-13 3.13353E-13
 -1       697 2.00048E+01 1.08994E-02 1.00491E-05 6.14059E-03 2.10005E-13 7.22614E-14
 -1       698 2.00023E+01 6.94497E-03 6.22054E-06 6.77679E-04 1.93336E-13-1.28870E-13
 -1       699 2.00008E+01 4.01974E-03 3.31594E-06-2.80582E-03-1.98837E-13-4.33598E-13
 -1       700 1.99999E+01 1.81521E-03 1.38687E-06-4.80495E-03-1.09498E-13-6.09908E-13
 -1       701 1.99994E+01 5.41412E-05 1.65696E-06-5.67312E-03-1.85807E-13-4.07790E-13
 -1       702 1.99997E+01-1.22027E-03-5.13747E-07-5.71322E-03-3.36003E-13-5.47996E-13
 -1       703 2.11514E+01-4.87165E+00 4.40301E-02 5.08563E+00-2.23356E-13-3.63170E-13
 -1       704 2.00034E+01-4.05570E-04 1.71414E-06-7.57217E-04 3.80149E-13-3.59686E-13
 -1       705 2.07152E+01-4.91857E+00 5.48945E-02-5.02379E+00 5.51170E-13 4.70109E-13
 -1       706 2.00028E+01-7.47971E-04 8.31682E-07-3.43180E-03 2.97506E-13 2.76996E-13
 -1       707 2.00034E+01-4.31278E-04 1.80071E-06 6.41671E-04 1.00851E-13-3.88050E-13
 -1       708 2.00032E+01-5.25700E-04 1.54232E-06-2.12919E-03 3.44600E-13 1.18441E-13
 -1       709 2.00033E+01-5.94940E-04 6.78158E-07 2.01941E-03-1.52357E-13-1.15018E-13
 -1       710 2.00029E+01-8.42484E-04 1.01536E-07 3.37630E-03-5.44286E-14 7.27582E-14
 -1       711 2.00022E+01-1.07986E-03 6.38971E-07 4.58960E-03-7.06277E-14 5.61468E-13
 -1       712 8.70520E+00-8.51673E-01 1.47908E-01-3.31415E+00-7.36390E-14 4.55802E-13
 -1       713 8.26479E+00 2.34516E-01 1.49945E-01 3.27140E-01-2.46763E-13 5.47271E-13
 -1       714 9.87908E+00-1.07496E+00 1.37042E-01 4.40394E+00-5.07129E-13 9.24913E-13
 -1       715 8.35390E+00 7.31846E-02 1.50928E-01 8.95846E-01 1.92113E-13-8.90371E-13
 -1       716 2.71520E+01 6.03253E+00-1.73390E-01-7.50478E-01 7.73513E-13-2.09062E-13
 -1       717 1.63344E+01-3.59259E+00 1.02356E-01 6.15542E+00-4.23883E-13 4.63206E-14
 -1       718 2.07193E+01 4.46819E-01 6.32380E-04-6.31970E-01 1.16125E-13-1.06593E-13
 -1       719 2.12765E+01-3.90486E-01-5.07823E-04-9.26603E-01-1.54307E-14-7.83148E-15
 -1       720 2.04548E+01 1.50103E+00 9.03080E-04 4.70901E-02-2.63233E-13-2.38319E-13
 -1       721 2.06898E+01 7.46440E-01 1.20116E-03-2.76247E-01 2.32055E-13-9.94370E-14
 -1       722 1.47126E+01-3.08425E+00 1.19072E-01-5.72616E+00 3.62634E-13 7.09502E-13
 -1       723 1.95398E+01 2.72775E+00-1.40284E-03 1.16794E-01 2.44501E-13-3.68710E-13
 -1       724 1.93360E+01 2.93463E+00-1.57293E-03-1.89591E-01-1.33174E-13-4.29279E-13
 -1       725 2.68154E+01 5.62533E+00-1.23225E-01 1.10334E+00 7.32060E-13 8.07653E-14
 -1       726 2.00000E+01-1.50105E-03-3.58105E-06 5.68395E-03 4.50076E-13 7.31480E-13
 -1       727 2.76478E+01-1.85065E+00-6.02111E-02-8.26081E-01 3.09636E-13-6.45570E-13
 -1       728 2.73490E+01-2.42318E+00-5.52175E-02 3.62939E-01-4.65582E-14 1.45101E-13
 -1       729 2.64040E+01-4.99112E+00-6.81796E-03-1.90093E+00 5.09218E-13-1.60507E-13
 -1       730 8.99220E+00-3.15277E-01 1.48047E-01-2.87570E+00-8.54655E-14-8.86881E-13
 -1       731 2.74120E+01-4.00356E+00-3.89650E-02-5.16014E-02 5.65299E-14 4.70193E-13
 -1       732 1.80865E+01-3.79663E+00 9.04359E-02 5.58039E+00 5.26339E-13-1.64188E-13
 -1       733 1.15060E+01-1.17388E+00 1.24600E-01 4.42877E+00 4.57264E-13-6.50792E-13
 -1       734 2.07689E+01-4.84999E+00 5.12854E-02-5.33903E+00-3.99455E-13-2.50077E-13
 -1       735 2.52814E+01-4.80913E+00-8.12084E-03-2.73242E+00-2.94232E-13-3.28244E-14
 -1       736 1.97245E+01 2.58810E+00-2.31046E-03-2.38815E-01-2.10015E-13-4.06074E-13
 -1       737 1.89819E+01 3.21663E+00-1.08409E-03-1.25495E-01 2.43573E-14-4.41947E-13
 -1       738 2.68361E+01 1.22356E-01-6.93806E-02-1.96836E+00 4.19588E-13-4.51382E-13
 -1       739 2.62457E+01-3.19706E-01-2.97156E-02 1.95041E+00 9.00165E-14 3.16648E-13
 -1       740 2.00012E+01-1.30057E-03 2.22479E-08-5.21010E-03-6.28105E-13-1.13045E-12
 -1       741 2.03068E+01 1.96478E+00-9.05369E-04-2.78152E-01-2.88070E-13-2.94346E-13
 -1       742 2.60702E+01 4.09436E+00-1.09748E-01-1.85007E+00 5.28275E-13-2.70964E-13
 -1       743 2.00014E+01-6.09713E-04-2.38321E-06 5.29813E-03 2.26329E-13 8.17380E-13
 -1       744 2.00022E+01-1.08754E-03 7.13211E-07-4.42045E-03-2.04253E-13-1.75961E-13
 -1       745 1.90813E+01 3.14325E+00-1.14466E-03-1.56771E-01-4.91371E-14-4.29765E-13
 -1       746 1.77861E+01-3.41135E+00 7.19771E-02-5.53301E+00-4.44084E-13-4.61896E-13
 -1       747 2.02224E+01 1.58391E+00 7.58130E-04-8.41669E-02 2.22196E-13-2.08076E-13
 -1       748 2.38717E+01-4.28560E+00 2.51629E-02-2.66381E+00 6.24066E-13-1.64552E-13
 -1       749 1.96922E+01 1.21012E+00 1.99378E-04 1.17662E+00-1.02988E-13-2.65210E-13
 -1       750 1.94691E+01 1.01164E+00 7.07543E-05 1.57876E+00-5.08471E-14-2.49389E-13
 -1       751 1.92456E+01 7.48142E-01 1.32075E-04 1.98555E+00-8.41888E-15-2.29422E-13
 -1       752 1.90883E+01 3.07891E-01 1.00273E-04 2.43504E+00 1.24309E-13-2.15283E-13
 -1       753 1.91372E+01-4.57984E-01 3.30193E-03 2.96439E+00 2.69010E-13-1.78617E-13
 -1       754 1.96576E+01-1.71868E+00 7.98110E-03 3.57396E+00 3.21997E-13-8.80012E-14
 -1       755 2.05726E+01-3.17552E+00 2.74444E-02 4.07376E+00 3.51262E-13 1.58294E-15
 -1       756 1.09036E+01 6.93636E-01 7.46298E-02-8.70170E-01 8.84339E-15-6.97272E-13
 -1       757 1.99960E+01 1.75686E+00 2.72839E-05 2.79350E-01-1.88625E-13-2.77842E-13
 -1       758 2.15781E+01-2.69570E+00 2.20678E-02-3.06102E+00 4.69099E-13-3.91015E-14
 -1       759 1.95970E+01-1.18169E+00 2.34733E-03-3.07112E+00 2.44516E-13 3.27047E-14
 -1       760 1.92177E+01-1.61906E-01 1.83101E-03-2.56491E+00-8.85574E-14-1.97684E-13
 -1       761 1.91811E+01 4.04684E-01 4.44816E-04-2.12899E+00 1.05410E-14 2.32404E-14
 -1       762 1.92940E+01 6.72860E-01 1.96894E-04-1.76852E+00-9.86398E-14-2.42349E-15
 -1       763 1.94498E+01 7.58414E-01 1.50172E-04-1.46732E+00-1.56125E-13-5.32320E-14
 -1       764 1.95995E+01 7.41060E-01 1.23661E-04-1.21048E+00 3.30290E-14 4.97130E-14
 -1       765 1.97242E+01 6.71777E-01 9.68136E-05-9.89138E-01 8.43909E-14-1.15538E-13
 -1       766 1.98200E+01 5.81339E-01 7.45841E-05-7.98620E-01 2.25404E-14-1.39280E-13
 -1       767 1.98895E+01 4.87276E-01 5.99304E-05-6.36161E-01 2.87186E-14-4.23655E-14
 -1       768 1.99377E+01 3.98838E-01 4.73650E-05-4.99495E-01 4.85416E-14-1.36345E-13
 -1       769 1.99696E+01 3.20280E-01 3.65955E-05-3.86260E-01 6.04486E-14 1.32670E-13
 -1       770 1.99899E+01 2.52991E-01 2.75289E-05-2.93911E-01-1.15307E-13 1.72352E-14
 -1       771 2.00020E+01 1.96830E-01 2.05255E-05-2.19784E-01 6.92247E-14-2.00907E-13
 -1       772 2.00087E+01 1.50902E-01 1.51698E-05-1.61216E-01-5.13970E-14 1.34645E-13
 -1       773 2.00117E+01 1.13981E-01 1.10817E-05-1.15661E-01 1.43550E-13 1.22629E-14
 -1       774 2.00126E+01 8.47553E-02 7.97261E-06-8.07872E-02 1.32584E-13 2.61441E-14
 -1       775 2.00121E+01 6.19582E-02 5.62743E-06-5.45261E-02-1.22518E-13 3.63235E-13
 -1       776 2.00109E+01 4.44296E-02 3.87554E-06-3.50957E-02-9.98135E-14 3.19238E-13
 -1       777 2.00094E+01 3.11426E-02 2.57285E-06-2.09971E-02 2.07303E-13 1.62110E-13
 -1       778 2.00078E+01 2.12070E-02 1.58601E-06-1.09977E-02 1.69944E-13-6.91896E-14
 -1       779 2.00062E+01 1.38610E-02 7.04162E-07-4.10663E-03-8.64958E-14-3.28915E-13
 -1       780 2.00047E+01 8.45391E-03 1.42385E-07 4.54906E-04-6.88667E-14-5.57944E-14
 -1       781 2.00034E+01 4.43642E-03 1.80675E-06 3.25809E-03 7.18728E-14 5.23780E-13
 -1       782 2.00023E+01 1.64682E-03 3.91606E-08 4.68142E-03 4.39466E-14 8.74097E-13
 -1       783 2.24719E+01-1.70180E+00 1.69456E-03-5.94003E-01-6.16354E-14-1.70092E-15
 -1       784 2.17466E+01-1.21611E+00 6.53204E-04-1.02762E+00-3.73771E-14-2.39919E-14
 -1       785 2.39303E+01-1.50187E+00-4.31627E-03 1.06238E+00-5.12637E-14 2.46096E-13
 -1       786 2.42486E+01-2.70901E-01-1.14236E-02 1.86179E+00 1.17056E-13 3.40340E-13
 -1       787 2.39881E+01 1.72721E+00-2.88765E-02 1.90371E+00 2.85520E-13 3.94424E-13
 -1       788 2.34765E+01 3.38894E+00-5.09284E-02 8.08843E-01 4.53326E-13 1.78170E-13
 -1       789 2.35916E+01 3.31725E+00-3.75267E-02-8.88099E-01 4.47877E-13-1.60092E-14
 -1       790 2.39374E+01 1.77027E+00-2.94995E-02-2.00200E+00 3.17814E-13-2.64306E-13
 -1       791 2.41817E+01-1.88735E-01-1.49619E-02-1.98977E+00 2.28954E-13-3.10130E-13
 -1       792 2.39442E+01-1.48865E+00-3.43848E-03-1.21976E+00 5.52323E-14-2.37117E-13
 -1       793 2.32670E+01-1.88790E+00-1.73389E-03-3.08568E-01-5.90919E-14-5.99412E-15
 -1       794 2.24356E+01-1.67482E+00-1.01712E-03 4.12142E-01 1.56528E-14 1.31063E-14
 -1       795 2.16929E+01-1.21406E+00-3.12285E-04 8.49419E-01 5.55484E-14 5.76897E-14
 -1       796 2.11177E+01-7.30723E-01-8.12867E-05 1.05505E+00 4.57804E-14 1.79506E-13
 -1       797 2.07137E+01-3.32501E-01-3.70379E-05 1.10473E+00-5.60159E-14 1.49720E-13
 -1       798 2.04471E+01-4.64730E-02 5.34486E-06 1.06044E+00-1.58007E-13 2.29572E-13
 -1       799 2.02794E+01 1.35864E-01 2.28216E-05 9.63809E-01-7.94862E-14-2.07308E-14
 -1       800 2.01775E+01 2.36357E-01 3.94615E-05 8.42742E-01-1.73322E-13-1.71511E-14
 -1       801 2.01171E+01 2.78453E-01 4.89035E-05 7.14932E-01-1.41787E-13 3.05228E-14
 -1       802 2.00815E+01 2.82281E-01 5.09747E-05 5.91275E-01 1.03270E-13-1.34260E-13
 -1       803 2.00604E+01 2.63295E-01 4.74324E-05 4.78067E-01-1.42942E-13-4.09167E-13
 -1       804 2.00472E+01 2.32505E-01 4.12075E-05 3.78473E-01-1.92879E-13-3.30682E-13
 -1       805 2.00384E+01 1.97248E-01 3.44123E-05 2.93560E-01-1.74140E-13-1.11309E-13
 -1       806 2.00320E+01 1.62101E-01 2.78938E-05 2.23047E-01-1.15628E-13-1.74496E-14
 -1       807 2.00268E+01 1.29688E-01 2.19873E-05 1.65835E-01 1.14760E-13-1.26504E-13
 -1       808 2.00224E+01 1.01298E-01 1.69074E-05 1.20387E-01 1.06403E-13-8.39071E-14
 -1       809 2.00186E+01 7.73647E-02 1.26987E-05 8.50001E-02 1.17445E-13 2.91025E-13
 -1       810 2.00152E+01 5.77918E-02 9.31262E-06 5.79818E-02 4.34655E-14 7.10001E-13
 -1       811 2.00123E+01 4.21919E-02 6.65472E-06 3.77599E-02 2.45996E-14 5.92122E-13
 -1       812 2.00097E+01 3.00371E-02 4.61589E-06 2.29419E-02 1.99302E-13 4.67850E-14
 -1       813 2.00075E+01 2.07550E-02 3.05328E-06 1.23387E-02 2.35536E-13 1.07492E-13
 -1       814 2.00056E+01 1.37837E-02 1.87529E-06 4.96733E-03 2.62490E-13 1.68332E-13
 -1       815 2.00041E+01 8.60006E-03 9.20344E-07 4.11043E-05 2.72314E-13 7.28581E-14
 -1       816 2.00028E+01 4.73493E-03 3.17878E-07-3.04933E-03 2.00927E-13-3.48850E-13
 -1       817 2.00018E+01 1.77748E-03 1.33386E-06-4.73686E-03 6.73345E-14-9.45178E-13
 -1       818 2.00015E+01 2.52209E-04-4.09350E-06-5.15099E-03-3.31195E-13-1.20366E-12
 -1       819 2.00045E+01 3.58594E-03 6.46869E-07 1.06610E-03 1.62022E-13-3.95252E-13
 -1       820 2.00046E+01 3.82861E-03 5.88906E-07-9.51188E-05 3.44919E-13-5.36280E-13
 -1       821 1.94661E+01-3.35280E+00 3.04344E-02 4.58759E+00-3.51580E-13-3.50853E-13
 -1       822 2.00037E+01 2.14940E-03 6.16648E-06 3.48912E-03 1.94204E-13 3.22218E-13
 -1       823 1.44923E+01-1.45573E+00 6.23965E-02 4.72443E+00-4.54055E-13 3.30066E-13
 -1       824 1.14051E+01 3.84488E-01 7.06392E-02 2.30791E+00-3.40363E-13 6.91568E-13
 -1       825 2.00043E+01 2.98081E-03-4.68740E-07 2.26056E-03 8.04738E-14 3.24774E-13
 -1       826 2.32831E+01-1.93117E+00-2.07387E-03 1.40465E-01-8.26867E-14 1.41835E-13
 -1       827 2.06102E+01 1.82363E-01-6.49196E-05-1.07773E+00 1.96180E-14-1.12716E-13
 -1       828 1.30820E+01-1.04223E+00 8.11522E-02-4.17640E+00 1.21703E-13 4.66894E-13
 -1       829 2.33927E+01-4.22670E+00 4.90751E-03 2.80123E+00-1.75748E-13-4.63071E-13
 -1       830 2.04952E+01 5.41478E-01 4.46410E-05-8.35915E-01 9.44204E-14-1.33637E-13
 -1       831 2.29595E+01-4.25104E+00 2.23178E-03-3.24806E+00-3.15692E-13-3.46975E-14
 -1       832 2.04866E+01 1.14392E+00-2.36640E-04-1.72852E-01 2.49670E-13-1.30007E-13
 -1       833 1.19958E+01 4.14810E-01 7.07116E-02 2.20890E+00 2.65696E-13-5.91261E-13
 -1       834 1.32882E+01-9.07281E-01 8.26706E-02-4.31563E+00-2.67395E-13-6.59766E-13
 -1       835 1.98779E+01 1.42897E+00-3.02653E-04 7.48226E-01-1.55836E-13-2.52750E-13
 -1       836 1.98772E+01 2.15003E+00-3.22317E-04 4.12279E-03-2.10830E-13-3.47735E-13
 -1       837 1.88085E+01-3.07374E+00 4.89715E-02-4.63052E+00 5.07856E-13 3.64442E-13
 -1       838 1.09184E+01 3.87170E-01 8.63876E-02-1.83572E+00-6.93863E-14 1.70749E-13
 -1       839 1.55978E+01-1.29872E+00 5.47055E-02 4.38095E+00 4.49159E-13-4.22395E-13
 -1       840 2.54957E+01-3.61837E+00-2.14357E-02-7.07918E-01-2.53171E-13 1.13610E-13
 -1       841 1.91460E+01 2.59400E+00-2.15756E-04-2.03399E-01 6.99150E-14-3.79309E-13
 -1       842 2.58338E+01-2.95332E+00-8.48385E-03-9.05145E-02 2.91175E-14-3.53057E-13
 -1       843 1.89839E+01 2.73201E+00-2.24216E-04-1.60327E-01 3.13921E-14-4.22180E-13
 -1       844 2.56576E+01 1.59355E+00-4.47376E-02-2.30966E+00 3.59213E-13-3.51585E-13
 -1       845 2.07629E+01-3.43798E+00 2.66674E-02-4.02084E+00-3.66500E-13-2.13353E-13
 -1       846 1.94373E+01 2.34487E+00-2.70317E-04-1.97874E-01 1.63160E-13-3.36050E-13
 -1       847 2.48620E+01 4.63402E+00-9.80388E-02-8.82113E-01 6.02057E-13-1.35462E-13
 -1       848 1.98149E+01 2.00239E+00-2.05174E-04-1.49478E-01 1.83275E-13-3.34980E-13
 -1       849 2.08314E+01-2.18350E-01-2.04157E-04-1.21033E+00-2.20782E-14-8.25306E-14
 -1       850 2.11983E+01-6.87973E-01-5.93144E-05-1.21118E+00-8.46085E-14-7.45734E-14
 -1       851 2.55681E+01-1.62777E+00-3.60638E-02-1.40982E+00 1.86992E-13-4.81381E-13
 -1       852 2.00042E+01 3.07124E-03-1.79544E-08-2.38146E-03 1.83260E-13 2.40711E-13
 -1       853 1.91635E+01 2.59994E+00-5.57629E-04 1.76106E-02-8.87039E-14-3.62500E-13
 -1       854 2.00045E+01 3.64549E-03 2.00058E-07-1.23024E-03 2.53347E-13-8.20376E-14
 -1       855 1.21544E+01 9.52746E-01 4.04602E-02 2.94677E-01-1.35426E-13 3.55265E-13
 -1       856 2.00036E+01 2.21222E-03-3.24277E-07-3.40033E-03 1.89796E-13 5.00740E-13
 -1       857 2.04833E+01 8.21970E-01-7.11189E-05-5.39945E-01 1.57841E-13-1.17294E-13
 -1       858 2.00032E+01 1.92236E-03 1.43204E-06 4.12152E-03 1.03783E-13 5.32112E-13
 -1       859 1.94748E+01 2.42811E+00-6.66087E-04 4.03704E-02-1.58278E-13-3.74184E-13
 -1       860 1.31649E+01 1.06552E+00 2.87347E-02 4.70083E-01 3.70923E-14-5.08692E-13
 -1       861 1.84951E+01 1.24042E+00-3.09488E-04 1.46767E+00-6.07966E-16-2.35959E-13
 -1       862 1.79593E+01 9.68743E-01-1.21699E-04 1.88730E+00 6.86961E-14-1.94703E-13
 -1       863 1.73706E+01 5.16107E-01-5.15885E-04 2.44689E+00 1.87150E-13-2.37673E-13
 -1       864 1.68407E+01-3.11005E-01 2.16681E-02 3.28216E+00 2.77055E-13-3.54577E-13
 -1       865 2.48661E+01 2.75704E+00-6.31190E-02-1.94989E+00 4.52003E-13-2.11418E-13
 -1       866 1.89864E+01 2.73799E+00-1.26936E-04-8.00142E-02-4.76379E-15-3.71579E-13
 -1       867 1.75956E+01 6.07554E-01 1.53136E-03-2.14323E+00-4.28936E-14 1.61520E-13
 -1       868 1.80770E+01 8.94071E-01 2.37688E-04-1.69122E+00-3.88484E-14 9.57537E-14
 -1       869 1.85086E+01 9.87182E-01 3.38313E-05-1.37016E+00-1.94076E-13 3.01562E-15
 -1       870 1.88707E+01 9.67183E-01 3.67928E-05-1.12620E+00-1.71862E-14 9.26968E-14
 -1       871 1.91616E+01 8.86824E-01 1.75793E-05-9.28326E-01-7.53908E-14 9.55245E-14
 -1       872 1.93889E+01 7.78809E-01 4.49414E-06-7.61136E-01-1.07718E-14 2.60866E-14
 -1       873 1.95625E+01 6.63062E-01 9.68976E-06-6.17639E-01 2.03524E-14-1.39479E-13
 -1       874 1.96928E+01 5.51191E-01 1.06907E-05-4.94631E-01 7.60907E-14-2.31792E-14
 -1       875 1.97888E+01 4.49327E-01 8.72429E-06-3.90232E-01 1.30597E-13-1.62692E-14
 -1       876 1.98586E+01 3.60092E-01 4.71361E-06-3.02912E-01-7.56747E-15 4.42868E-15
 -1       877 1.99086E+01 2.84083E-01 2.28106E-06-2.31103E-01-8.36196E-14 1.97266E-13
 -1       878 1.99437E+01 2.20777E-01 1.07490E-06-1.73068E-01 1.36304E-13 1.58863E-13
 -1       879 1.99678E+01 1.69036E-01 4.73667E-07-1.26962E-01 6.76629E-14 9.85433E-14
 -1       880 1.99840E+01 1.27450E-01 1.49154E-07-9.09535E-02 8.06578E-14 9.83076E-14
 -1       881 1.99945E+01 9.45417E-02-3.22378E-08-6.33115E-02 1.81562E-13 2.20973E-13
 -1       882 2.00009E+01 6.88884E-02-1.28187E-07-4.24654E-02-9.47137E-14 6.29608E-13
 -1       883 2.00045E+01 4.91830E-02-1.85036E-07-2.70383E-02-9.06712E-14 5.99925E-13
 -1       884 2.00062E+01 3.42621E-02-2.33539E-07-1.58579E-02 1.52987E-14 2.10243E-13
 -1       885 2.00066E+01 2.31098E-02-2.97378E-07-7.95191E-03-1.38984E-13 1.83355E-13
 -1       886 2.00062E+01 1.48537E-02 6.16925E-07-2.54317E-03 6.94690E-14 2.74857E-13
 -1       887 2.00053E+01 8.66688E-03-1.60378E-05 1.01756E-03 3.44407E-13 3.42100E-13
 -1       888 2.17706E+01-1.76642E+00-8.13678E-04-1.55049E+00-1.06115E-13-9.14222E-14
 -1       889 1.95540E+01 2.07605E+00 3.06080E-04 2.63665E-01-1.53078E-13-3.46638E-13
 -1       890 2.41494E+01-2.75289E+00-5.25141E-03 1.03979E-01-1.90761E-13-4.25053E-13
 -1       891 2.27644E+01-2.43862E+00 7.19849E-04 1.00268E+00-8.93302E-14-2.78417E-13
 -1       892 2.16257E+01-1.76014E+00 9.54503E-04 1.40943E+00 2.05982E-14-8.70986E-14
 -1       893 2.08256E+01-1.05828E+00 4.08075E-04 1.50515E+00-1.82134E-14 3.62014E-14
 -1       894 2.03231E+01-4.93032E-01 6.68209E-04 1.44048E+00-1.78957E-13 2.11409E-13
 -1       895 2.00318E+01-8.75749E-02 2.25892E-04 1.30101E+00-8.69997E-14 6.77657E-14
 -1       896 1.98849E+01 1.72817E-01 7.65574E-05 1.13276E+00-7.24792E-14 9.22925E-14
 -1       897 1.98263E+01 3.19869E-01 2.95802E-05 9.62608E-01-1.45061E-13 2.08161E-13
 -1       898 1.98181E+01 3.85744E-01 2.29838E-05 8.02109E-01-1.47281E-13 5.22828E-14
 -1       899 1.98358E+01 3.97466E-01 2.04967E-05 6.56792E-01 9.67028E-14-1.08401E-13
 -1       900 1.98643E+01 3.75928E-01 1.39162E-05 5.28928E-01 2.45265E-13 1.92362E-13
 -1       901 1.98951E+01 3.36262E-01 7.84464E-06 4.19014E-01-1.77397E-13-9.85418E-14
 -1       902 1.99235E+01 2.88824E-01 4.57166E-06 3.26430E-01-2.89044E-13-2.84703E-13
 -1       903 1.99475E+01 2.40262E-01 2.95587E-06 2.49912E-01-2.14815E-13-1.53459E-13
 -1       904 1.99665E+01 1.94568E-01 1.95085E-06 1.87815E-01-2.00347E-14-5.71658E-14
 -1       905 1.99809E+01 1.53873E-01 1.32242E-06 1.38297E-01 1.01800E-13 1.25862E-13
 -1       906 1.99912E+01 1.19048E-01 9.18019E-07 9.94852E-02-1.37044E-13 1.71457E-13
 -1       907 1.99982E+01 9.01683E-02 6.46731E-07 6.95846E-02-2.26315E-13 1.84016E-13
 -1       908 2.00026E+01 6.68414E-02 4.63483E-07 4.69539E-02 1.37433E-14 1.46273E-13
 -1       909 2.00050E+01 4.84272E-02 3.30670E-07 3.01440E-02 2.22571E-13 2.46928E-13
 -1       910 2.00061E+01 3.41873E-02 2.12188E-07 1.79136E-02 1.90563E-13 4.64599E-13
 -1       911 2.00062E+01 2.33724E-02 5.79756E-08 9.22635E-03 1.54624E-13 1.73067E-13
 -1       912 2.00057E+01 1.52706E-02 8.17207E-08 3.23974E-03 2.92225E-13 4.43902E-13
 -1       913 2.00049E+01 9.23391E-03 1.66872E-07-7.02934E-04 3.08898E-13 3.11486E-13
 -1       914 2.00038E+01 4.70756E-03 1.80043E-06-3.11752E-03 4.51253E-13 2.82127E-13
 -1       915 2.48744E+01-2.40070E+00-7.08375E-04 4.93413E-01-1.38470E-13 1.53793E-13
 -1       916 2.00054E+01 8.71854E-03 1.00437E-06 1.91714E-04 3.29225E-13-5.47020E-13
 -1       917 1.75544E+01-1.76091E+00 1.96831E-02 4.05439E+00-3.57517E-13-1.70562E-13
 -1       918 2.16757E+01-3.10602E+00 1.31936E-02 2.86363E+00-2.58720E-13-3.44674E-13
 -1       919 2.01565E+01 6.02776E-01-1.67933E-04-1.05080E+00 5.14051E-14-2.17284E-13
 -1       920 1.37104E+01 4.36945E-01 2.76396E-02-2.37995E+00-1.12261E-13-5.29410E-13
 -1       921 1.71424E+01-1.79051E+00 2.35335E-02-4.33878E+00-3.49268E-13-4.16544E-13
 -1       922 1.71496E+01 1.75120E-04 9.17023E-03-2.82366E+00-1.26256E-13 1.84655E-13
 -1       923 1.67496E+01-1.13041E+00 2.66818E-02-3.84119E+00 3.27980E-13 3.71928E-13
 -1       924 1.89397E+01 1.44172E+00-1.68589E-05 1.11010E+00-5.46558E-14-2.72639E-13
 -1       925 1.92835E+01 1.64946E+00-2.13715E-04 7.58146E-01-1.23138E-13-2.61602E-13
 -1       926 2.00027E+01 1.14328E-03 1.21177E-06-4.34911E-03-8.66192E-15 6.17219E-14
 -1       927 2.36455E+01-3.30187E+00 4.27693E-03-1.46949E+00-2.51457E-13 3.49950E-14
 -1       928 1.43233E+01-8.10562E-02 2.89428E-02 3.14146E+00-4.09529E-13 4.72532E-13
 -1       929 1.42851E+01 1.67944E-01 3.57747E-02-2.80502E+00 5.18032E-16 8.21721E-14
 -1       930 1.47427E+01 6.08272E-01 2.25508E-02 2.29673E+00 1.55032E-13-3.92573E-13
 -1       931 2.00053E+01 8.75641E-03 2.19825E-07-4.31120E-04 1.62149E-13-9.28735E-14
 -1       932 2.00575E+01 1.35107E+00-3.20399E-04-4.72942E-01 1.65770E-13-2.61787E-13
 -1       933 2.10044E+01-1.02769E+00-1.92830E-03-1.63845E+00-9.82741E-14-1.79833E-13
 -1       934 2.28121E+01-2.46322E+00-1.30009E-02-1.16068E+00-1.69328E-13 2.76341E-15
 -1       935 2.00042E+01 4.97184E-03 7.26746E-06 2.84712E-03 1.19993E-13 3.22352E-13
 -1       936 2.00054E+01 7.94496E-03-2.09786E-06 9.42997E-04 2.81943E-13-3.76737E-14
 -1       937 1.89073E+01 2.32567E+00 1.19730E-04 7.94665E-02-4.80392E-14-3.09825E-13
 -1       938 2.00052E+01 8.05066E-03-4.34461E-07-1.08376E-03 1.67300E-13 1.42144E-13
 -1       939 1.92446E+01 2.03742E+00-5.58762E-05-4.39603E-01 9.27581E-14-2.93258E-13
 -1       940 2.02702E+01 1.57547E-01 1.58524E-04-1.33203E+00-2.64454E-14-2.22719E-13
 -1       941 1.91898E+01 2.24737E+00 6.17375E-04 2.11595E-01-8.41260E-14-3.18034E-13
 -1       942 1.89596E+01 2.26456E+00 1.64137E-04-3.23294E-01 4.02728E-14-3.88879E-13
 -1       943 1.38864E+01 7.83549E-01 2.09187E-02 1.65118E+00-3.73422E-13 4.16375E-13
 -1       944 2.00049E+01 6.75201E-03-1.45359E-06-1.82924E-03 4.06144E-13 2.84801E-13
 -1       945 1.40403E+01 1.00457E+00 1.71854E-02-1.19830E+00-1.31934E-13 8.59430E-14
 -1       946 2.01616E+01 9.38577E-01 6.85848E-05-7.54146E-01 1.28620E-13-2.34783E-13
 -1       947 1.62702E+01-3.00250E-01 5.69137E-03-3.12490E+00-2.15048E-13-3.59311E-13
 -1       948 2.00047E+01 5.42214E-03 5.15259E-06 2.39816E-03 2.52864E-13 3.67056E-13
 -1       949 1.88348E+01 2.36855E+00-1.81946E-04-1.39760E-01-2.53034E-14-3.81454E-13
 -1       950 1.65051E+01 1.20474E+00-9.95953E-04 1.39131E+00 8.50973E-14-2.94799E-13
 -1       951 1.67304E+01 1.13317E+00-2.80520E-04-1.28492E+00-1.43590E-13 9.92243E-14
 -1       952 1.75176E+01 1.19515E+00 1.90040E-04-1.02809E+00-1.61746E-13-8.51082E-14
 -1       953 1.81182E+01 1.16162E+00-1.37969E-05-8.51857E-01-3.94467E-14 9.08863E-14
 -1       954 1.85820E+01 1.07235E+00-2.82614E-05-7.17497E-01 3.02419E-14 1.54175E-13
 -1       955 1.89401E+01 9.54081E-01-6.32533E-05-6.04832E-01-1.06499E-13 4.45148E-13
 -1       956 1.92158E+01 8.24781E-01-1.38246E-05-5.05415E-01-2.23012E-13 3.60360E-13
 -1       957 1.94268E+01 6.96457E-01 7.61769E-07-4.16512E-01-3.22155E-14 2.03005E-13
 -1       958 1.95869E+01 5.76580E-01 2.83225E-06-3.37584E-01 8.12749E-14-4.57960E-14
 -1       959 1.97074E+01 4.68992E-01-6.39055E-06-2.68654E-01 3.78170E-14 1.56150E-14
 -1       960 1.97971E+01 3.75249E-01-8.95936E-06-2.09801E-01 9.17539E-14 1.64267E-13
 -1       961 1.98630E+01 2.95596E-01-8.42435E-06-1.60683E-01 2.05913E-13 4.13138E-13
 -1       962 1.99108E+01 2.29325E-01-6.97089E-06-1.20541E-01 8.12218E-15 3.47510E-13
 -1       963 1.99447E+01 1.75191E-01-5.47099E-06-8.83946E-02 7.75854E-14 2.69446E-13
 -1       964 1.99683E+01 1.31712E-01-4.17147E-06-6.31550E-02 1.41394E-13 2.73404E-13
 -1       965 1.99842E+01 9.73438E-02-3.09567E-06-4.37197E-02 2.96589E-14 7.89821E-14
 -1       966 1.99945E+01 7.05951E-02-2.21999E-06-2.90450E-02-5.42475E-14-6.36939E-14
 -1       967 2.00008E+01 5.00872E-02-1.50482E-06-1.81926E-02-1.39887E-13 2.05704E-13
 -1       968 2.00043E+01 3.45898E-02-9.47615E-07-1.03480E-02-1.44013E-13 1.63963E-13
 -1       969 2.00058E+01 2.30128E-02 8.72279E-08-4.82922E-03 5.26370E-14 1.41369E-13
 -1       970 2.00060E+01 1.44264E-02 5.23013E-06-1.03724E-03 2.42841E-13 4.63257E-13
 -1       971 2.05245E+01-3.72980E-01-2.06163E-03-1.53444E+00-8.46741E-14-1.83318E-13
 -1       972 1.96339E+01 1.72124E+00-2.04252E-04-4.83500E-01 1.17698E-13-3.24687E-13
 -1       973 1.97267E+01-6.11270E-01-2.83885E-03 1.89520E+00-1.31674E-13-8.26090E-14
 -1       974 1.94517E+01-7.68441E-02 1.63370E-04 1.57704E+00-2.84171E-14-3.75780E-14
 -1       975 1.93745E+01 2.46257E-01 1.73940E-04 1.29485E+00-9.97406E-14-2.06466E-13
 -1       976 1.93901E+01 4.29204E-01-1.64798E-05 1.05397E+00-1.45178E-13-2.65533E-13
 -1       977 1.94548E+01 5.12044E-01-4.84649E-06 8.50907E-01-6.52043E-14-2.00257E-13
 -1       978 1.95397E+01 5.27527E-01 1.97429E-05 6.81503E-01-7.05354E-14-3.11577E-14
 -1       979 1.96276E+01 5.01209E-01 4.69037E-06 5.40890E-01-4.96840E-14 1.27210E-13
 -1       980 1.97095E+01 4.51258E-01-1.82252E-05 4.24843E-01 1.66105E-13 2.83921E-13
 -1       981 1.97808E+01 3.90697E-01-2.28498E-05 3.29785E-01 4.88283E-14 2.11029E-13
 -1       982 1.98400E+01 3.27861E-01-2.00679E-05 2.52599E-01-3.17245E-13 2.16741E-14
 -1       983 1.98874E+01 2.67998E-01-1.63548E-05 1.90625E-01-2.89502E-13-4.10022E-14
 -1       984 1.99241E+01 2.14055E-01-1.27475E-05 1.41455E-01-1.03178E-13 3.27685E-13
 -1       985 1.99516E+01 1.67367E-01-9.58782E-06 1.02944E-01-1.88295E-13 3.78410E-13
 -1       986 1.99715E+01 1.28217E-01-6.98985E-06 7.31964E-02-1.22579E-13 5.47851E-13
 -1       987 1.99854E+01 9.62450E-02-4.92656E-06 5.05564E-02-2.88405E-14 5.54030E-13
 -1       988 1.99947E+01 7.07275E-02-3.30983E-06 3.35999E-02 3.84739E-14 3.77307E-13
 -1       989 2.00006E+01 5.07769E-02-1.94925E-06 2.11255E-02 9.40232E-14 2.70550E-13
 -1       990 2.00039E+01 3.54707E-02-1.59713E-06 1.21375E-02 2.40622E-13 5.79306E-13
 -1       991 2.00054E+01 2.39005E-02-1.51281E-06 5.81593E-03 2.08614E-13 6.71394E-13
 -1       992 2.00056E+01 1.52455E-02-1.83852E-06 1.50889E-03 3.76628E-13 4.19386E-13
 -1       993 2.13967E+01-2.97482E+00 1.96696E-02-3.11334E+00-2.83715E-13-8.75345E-14
 -1       994 1.66878E+01-4.51479E-01 6.40809E-03 3.03121E+00-3.70049E-13 4.78185E-14
 -1       995 1.48736E+01 1.13126E+00 7.81498E-03-8.68991E-01-7.11537E-14-4.37765E-13
 -1       996 2.02807E+01-1.92196E+00-4.70571E-03 2.69047E+00-1.99826E-13-2.88153E-13
 -1       997 1.86746E+01 1.79359E+00-3.76202E-04 5.94590E-01-8.27576E-14-2.40455E-13
 -1       998 1.81444E+01 1.61056E+00 6.65612E-04 8.24457E-01-2.66688E-14-2.41060E-13
 -1       999 1.50426E+01 1.24909E+00 1.13869E-02 6.97986E-01 7.16957E-14-3.78955E-13
 -1      1000 1.74392E+01 1.43343E+00 7.64426E-04 1.06797E+00 2.99864E-14-2.86899E-13
 -1      1001 1.85915E+01-1.74886E+00 1.48373E-02-3.71639E+00-3.18210E-13-3.27241E-13
 -1      1002 1.99104E+01-1.15749E+00 3.50576E-03 2.27385E+00-1.58148E-13-2.03921E-13
 -1      1003 1.59417E+01 7.99865E-01 5.97349E-03-1.92165E+00-1.17068E-13 1.05427E-13
 -1      1004 1.89398E+01 1.79676E+00 3.01723E-04-6.05059E-01 5.66103E-14-3.20874E-13
 -1      1005 2.00055E+01 1.50799E-02-7.03630E-07-1.63048E-04-1.11978E-14-1.94475E-13
 -1      1006 1.93681E+01 1.48600E+00 7.54592E-05-7.56159E-01 5.56340E-14-2.90825E-13
 -1      1007 1.86234E+01-9.49460E-01 5.15781E-03 2.78024E+00-2.42192E-13-1.05015E-13
 -1      1008 1.97750E+01 1.21279E+00 3.86312E-05-7.84242E-01 7.72791E-14-2.70349E-13
 -1      1009 1.57864E+01 4.25211E-01 7.81870E-03 2.19074E+00-3.73420E-13 4.70136E-13
 -1      1010 2.00051E+01 8.79829E-03-3.33466E-06-1.24705E-03 4.41945E-13 3.99852E-13
 -1      1011 2.00057E+01 1.44992E-02-2.84246E-06-3.38694E-04 6.31794E-14-4.86330E-13
 -1      1012 2.02389E+01-1.55474E+00 3.47527E-03-2.63975E+00-2.29384E-13-1.72562E-13
 -1      1013 1.85919E+01 2.07122E+00 1.53327E-03-1.03283E-02-4.37703E-14-3.19469E-13
 -1      1014 2.00055E+01 1.45185E-02-1.67982E-06 1.58809E-05 2.77474E-13 1.19469E-13
 -1      1015 1.62308E+01 7.28053E-01 1.51513E-03-1.85032E+00-1.57250E-13-3.36394E-13
 -1      1016 1.96825E+01 6.63786E-01-1.29447E-04-1.25580E+00 1.61625E-14-2.33589E-13
 -1      1017 2.00056E+01 1.29283E-02 1.07782E-05-8.08599E-05 2.85227E-13-8.33690E-14
 -1      1018 1.45386E+01 1.20153E+00 8.03852E-03 1.44735E-01-5.76031E-14 1.23988E-13
 -1      1019 1.74519E+01 1.27364E+00 3.57403E-04-3.57611E-01-2.72644E-14 2.29751E-13
 -1      1020 1.80672E+01 1.18776E+00-2.84407E-05-3.44487E-01 3.79096E-14 2.33953E-13
 -1      1021 1.85341E+01 1.07628E+00-2.87343E-04-3.23050E-01 8.81585E-15 8.55268E-14
 -1      1022 1.88963E+01 9.47063E-01-2.27477E-05-2.94754E-01-2.78171E-13 4.54897E-14
 -1      1023 1.91749E+01 8.14790E-01 2.46755E-05-2.60675E-01-2.24310E-13-9.87345E-15
 -1      1024 1.93905E+01 6.85835E-01-3.03725E-05-2.23696E-01-5.20905E-14 7.33288E-14
 -1      1025 1.95557E+01 5.67212E-01-8.22718E-05-1.86226E-01 1.32175E-13-4.46729E-14
 -1      1026 1.96821E+01 4.60609E-01-6.79373E-05-1.51043E-01 1.78744E-13-8.46228E-15
 -1      1027 1.97772E+01 3.67914E-01-5.78061E-05-1.19566E-01 1.62142E-13 8.95070E-14
 -1      1028 1.98479E+01 2.89229E-01-4.68888E-05-9.23695E-02 9.15105E-14 1.51333E-15
 -1      1029 1.98997E+01 2.23799E-01-3.71262E-05-6.96128E-02 9.38685E-14 1.24248E-13
 -1      1030 1.99369E+01 1.70401E-01-2.89091E-05-5.11004E-02 3.63827E-14 1.57990E-13
 -1      1031 1.99630E+01 1.27578E-01-2.21444E-05-3.64173E-02-1.80477E-13-1.82967E-13
 -1      1032 1.99808E+01 9.38037E-02-1.66490E-05-2.50426E-02-1.19423E-14-3.62522E-13
 -1      1033 1.99925E+01 6.75876E-02-1.24725E-05-1.64286E-02 1.16334E-14-2.90315E-13
 -1      1034 1.99997E+01 4.75382E-02-8.06085E-06-1.00599E-02-9.36783E-14 1.61127E-14
 -1      1035 2.00037E+01 3.24590E-02-1.32559E-06-5.47215E-03 1.95910E-15 4.31306E-14
 -1      1036 2.00055E+01 2.12137E-02-2.40073E-06-2.29055E-03 1.82334E-13 1.23790E-13
 -1      1037 1.96797E+01-6.20827E-01 3.71698E-04-2.24245E+00-1.70060E-13-2.56513E-13
 -1      1038 1.88522E+01 5.81359E-01-3.68190E-04 1.09132E+00-4.72951E-14-3.93770E-14
 -1      1039 1.87009E+01 3.88317E-01-7.53253E-04 1.41771E+00-2.69224E-14 9.10301E-15
 -1      1040 1.86562E+01 2.76809E-02 2.82897E-03 1.84716E+00-2.19803E-13-7.71988E-14
 -1      1041 1.90258E+01 6.65212E-01-8.73325E-05 8.43745E-01-1.69359E-13-9.33299E-14
 -1      1042 1.92002E+01 6.73580E-01 5.03998E-05 6.52353E-01-1.85223E-13 5.46314E-14
 -1      1043 1.93600E+01 6.37107E-01 4.12899E-05 5.04199E-01-1.96100E-13 6.91086E-14
 -1      1044 1.95008E+01 5.73531E-01-8.35194E-05 3.87790E-01 6.12141E-15 4.73892E-14
 -1      1045 1.96199E+01 4.98366E-01-1.11580E-04 2.96688E-01 9.56274E-14 1.93576E-13
 -1      1046 1.97179E+01 4.20409E-01-8.95735E-05 2.25088E-01-1.93406E-14 2.79155E-13
 -1      1047 1.97962E+01 3.45875E-01-7.31628E-05 1.69057E-01-2.13918E-13 1.43157E-13
 -1      1048 1.98572E+01 2.78318E-01-5.91040E-05 1.25390E-01-3.46624E-13-1.31067E-14
 -1      1049 1.99036E+01 2.19424E-01-4.68579E-05 9.15869E-02-2.14733E-13 2.62527E-13
 -1      1050 1.99380E+01 1.69643E-01-3.64353E-05 6.56525E-02-3.60308E-13 4.55025E-13
 -1      1051 1.99628E+01 1.28640E-01-2.77713E-05 4.59672E-02-7.16164E-14 5.45667E-13
 -1      1052 1.99801E+01 9.56258E-02-2.07081E-05 3.12101E-02 1.57247E-13 4.10479E-13
 -1      1053 1.99916E+01 6.95827E-02-1.52583E-05 2.03024E-02 2.91965E-13 2.87586E-13
 -1      1054 1.99989E+01 4.94042E-02-1.02970E-05 1.23699E-02 3.28088E-14 2.77216E-13
 -1      1055 2.00031E+01 3.41034E-02-5.18560E-06 6.76221E-03 9.83219E-14 1.51836E-13
 -1      1056 2.00051E+01 2.25440E-02-1.58369E-06 2.80502E-03 5.66871E-13 1.06111E-13
 -1      1057 1.55924E+01 1.23464E+00 2.07442E-03-7.52451E-01-5.84054E-14 1.99332E-13
 -1      1058 1.86546E+01 2.00677E+00-1.06328E-05-3.55465E-01 2.65884E-15-3.41537E-13
 -1      1059 1.97446E+01 1.51466E-01 4.52894E-05-1.62628E+00-6.43174E-14-2.41746E-13
 -1      1060 2.00047E+01 2.29309E-02-9.80799E-06 5.83458E-04 1.15768E-14-5.52411E-13
 -1      1061 1.84050E+01-6.04193E-01 4.23896E-03-2.81849E+00-2.15186E-13-2.93474E-13
 -1      1062 1.81040E+01 1.82814E+00 5.89999E-04-2.56700E-02-3.73280E-14-2.44674E-13
 -1      1063 1.62572E+01 1.45403E+00 3.16598E-04 2.27825E-01 2.91425E-14-2.99630E-13
 -1      1064 1.66316E+01 1.30433E+00-1.22550E-03-3.70591E-01-1.74955E-13 1.55203E-13
 -1      1065 1.74836E+01-1.70138E-01 7.64741E-04 2.48800E+00-2.17436E-13-4.99899E-15
 -1      1066 1.90336E+01 1.03722E+00 1.07532E-03-1.18308E+00 1.85686E-14-2.97776E-13
 -1      1067 1.83037E+01 1.57404E+00-4.23424E-04-7.36080E-01 3.47243E-16-3.02300E-13
 -1      1068 2.00049E+01 2.28657E-02-4.36534E-06-9.96446E-04 5.71366E-14-2.88828E-13
 -1      1069 1.56290E+01 1.05237E+00 1.74253E-03 1.01749E+00-8.04285E-14 1.81523E-13
 -1      1070 1.67428E+01 1.37375E+00-2.53533E-05-6.91642E-01-2.33850E-14-3.24369E-13
 -1      1071 1.74050E+01 1.64430E+00-8.98129E-04-8.61074E-02-4.12132E-14-2.62967E-13
 -1      1072 1.82487E+01 1.11059E+00 1.68854E-03 7.80466E-02-7.93949E-14 2.94222E-13
 -1      1073 1.86604E+01 1.00134E+00-8.28641E-05 3.45665E-03-2.67130E-13 2.18352E-13
 -1      1074 1.89800E+01 8.83780E-01 1.52851E-04-3.29275E-02-3.32620E-13 1.38309E-13
 -1      1075 1.92234E+01 7.65370E-01 2.86252E-04-4.83367E-02-4.37778E-14 1.30173E-13
 -1      1076 1.94233E+01 6.43439E-01-2.68056E-05-5.33758E-02 1.80288E-13 1.06507E-13
 -1      1077 1.95780E+01 5.31076E-01-7.77102E-05-5.27696E-02 1.01024E-13 8.75720E-14
 -1      1078 1.96968E+01 4.30787E-01-5.39081E-05-4.73981E-02 1.01438E-13 3.84996E-14
 -1      1079 1.97871E+01 3.43478E-01-3.26290E-05-4.00276E-02 8.72751E-14-7.02481E-14
 -1      1080 1.98547E+01 2.69308E-01-1.79026E-05-3.22655E-02 6.42185E-14-3.56079E-13
 -1      1081 1.99044E+01 2.07660E-01-8.14208E-06-2.50023E-02 3.77307E-14-6.97196E-13
 -1      1082 1.99402E+01 1.57426E-01-1.87627E-06-1.86715E-02-1.25664E-13-7.64353E-13
 -1      1083 1.99653E+01 1.17238E-01 1.88724E-06-1.34227E-02-1.50374E-13-5.22591E-13
 -1      1084 1.99824E+01 8.56389E-02 3.72335E-06-9.24096E-03-2.12137E-14-4.08610E-13
 -1      1085 1.99936E+01 6.11981E-02 4.37236E-06-6.02710E-03 2.16117E-13-5.38796E-13
 -1      1086 2.00004E+01 4.25566E-02 2.44640E-05-3.60916E-03-3.35611E-14-4.40909E-13
 -1      1087 1.82060E+01 7.91108E-01 1.53275E-03 1.03472E+00-1.09704E-13 1.75854E-14
 -1      1088 1.88307E+01 8.33450E-01 1.39814E-04 5.50390E-01-1.73224E-13 1.82998E-13
 -1      1089 1.78434E+01 4.55135E-01-7.07056E-04-1.99326E+00-1.49123E-13-2.79999E-13
 -1      1090 1.85258E+01 8.52847E-01 4.78133E-04 7.58094E-01-1.57825E-13 5.16458E-15
 -1      1091 1.78572E+01 6.19489E-01 1.54229E-03 1.41702E+00-6.70916E-14 2.26338E-15
 -1      1092 1.90777E+01 7.78437E-01 1.75783E-04 4.04428E-01-2.55873E-13 2.29339E-13
 -1      1093 1.92833E+01 6.99329E-01 7.53245E-04 2.99779E-01 2.24951E-14 2.03985E-13
 -1      1094 1.94497E+01 6.07957E-01-5.61529E-05 2.23022E-01 1.52367E-14 2.78867E-13
 -1      1095 1.95887E+01 5.14342E-01 4.70927E-05 1.64725E-01 2.57892E-15 3.20009E-13
 -1      1096 1.96992E+01 4.24951E-01 5.69211E-05 1.21035E-01-3.61830E-14 4.00149E-14
 -1      1097 1.97854E+01 3.43824E-01 4.79056E-05 8.82839E-02-1.93505E-13-1.41490E-13
 -1      1098 1.98513E+01 2.72827E-01 3.65474E-05 6.37723E-02-3.63756E-13-4.11946E-13
 -1      1099 1.99007E+01 2.12493E-01 2.69129E-05 4.54745E-02-4.27404E-13-3.77921E-13
 -1      1100 1.99368E+01 1.62483E-01 1.94556E-05 3.18735E-02-1.98030E-13-4.89538E-13
 -1      1101 1.99626E+01 1.21934E-01 1.38129E-05 2.18279E-02 2.83518E-13-6.81929E-13
 -1      1102 1.99803E+01 8.97067E-02 9.64825E-06 1.44747E-02 3.12671E-13-5.05113E-13
 -1      1103 1.99921E+01 6.45747E-02 8.03479E-06 9.16091E-03 8.53744E-14-4.05267E-13
 -1      1104 1.99993E+01 4.53092E-02 2.32363E-07 5.34412E-03 7.58135E-14-5.68129E-13
 -1      1105 2.00029E+01 3.28337E-02 2.52823E-05 2.31238E-03 6.86527E-14-8.38106E-13
 -1      1106 1.60337E+01 1.25665E+00-1.07012E-03 2.30580E-01-1.68369E-13 2.06586E-13
 -1      1107 1.67254E+01 6.33573E-01 2.07392E-03 1.69475E+00-2.17265E-13 3.80643E-13
 -1      1108 1.87140E+01 5.92350E-01 1.66883E-03-1.65161E+00-6.28336E-14-3.03070E-13
 -1      1109 1.77078E+01 1.19168E+00 4.21775E-04 1.90508E-01-3.70507E-14 2.64443E-13
 -1      1110 1.70444E+01 1.21462E+00-7.11267E-05 3.43167E-01-7.25058E-14 2.82610E-13
 -1      1111 2.00040E+01 2.84514E-02 6.11159E-06-1.88800E-03-2.99779E-14-4.55650E-13
 -1      1112 2.00031E+01 3.11169E-02-3.05293E-05-1.75867E-04 6.09959E-14-3.29572E-13
 -1      1113 1.88045E+01 9.16790E-01 4.00625E-05 2.28137E-01-3.39966E-13 1.45039E-13
 -1      1114 1.91327E+01 7.83551E-01-2.23421E-03 1.66530E-01-1.69163E-13 2.61158E-13
 -1      1115 1.74899E+01 1.02594E+00-4.50917E-03 7.80791E-01-9.87390E-14 2.63805E-13
 -1      1116 1.76603E+01 1.17369E+00-1.29058E-03-1.15230E+00-8.42051E-14-2.28801E-13
 -1      1117 1.66408E+01 1.02523E+00 1.24653E-03 9.89659E-01-5.22901E-14 2.06253E-13
 -1      1118 1.84488E+01 9.93792E-01-3.23024E-03 3.45781E-01-1.76971E-13 2.03256E-13
 -1      1119 2.79494E+01 9.06768E+00 2.27600E+00-6.49115E+00-4.89608E-14 1.81768E-12
 -1      1120 2.08876E+01 6.33841E+00 2.40352E-01-3.58722E+00-2.82274E-14 3.29049E-13
 -1      1121 1.97572E+01 5.95592E+00 9.58398E-02-2.48494E+00-2.01367E-14-3.26905E-13
 -1      1122 1.92243E+01 5.78733E+00 6.67780E-02-1.79814E+00-1.39819E-14-6.37230E-13
 -1      1123 1.88725E+01 5.67739E+00 5.21412E-02-1.28581E+00-9.61731E-15-7.95087E-13
 -1      1124 1.86160E+01 5.59711E+00 4.09878E-02-8.87483E-01-5.53724E-15-8.73820E-13
 -1      1125 1.84354E+01 5.54051E+00 3.29564E-02-5.64251E-01-3.10516E-15-9.03563E-13
 -1      1126 1.83292E+01 5.50727E+00 2.83583E-02-2.84104E-01-1.79197E-15-9.05715E-13
 -1      1127 1.83011E+01 5.49865E+00 2.76800E-02-2.26490E-02 2.08167E-16-8.91958E-13
 -1      1128 1.83492E+01 5.51399E+00 3.07204E-02 2.45932E-01 4.09742E-15-8.71160E-13
 -1      1129 1.84682E+01 5.55155E+00 3.69957E-02 5.45694E-01 6.42542E-15-8.34188E-13
 -1      1130 1.86505E+01 5.60893E+00 4.59642E-02 8.96038E-01 9.45771E-15-7.57948E-13
 -1      1131 1.88957E+01 5.68561E+00 5.63290E-02 1.32296E+00 1.24969E-14-6.36591E-13
 -1      1132 1.92273E+01 5.78863E+00 6.81212E-02 1.86057E+00 1.76456E-14-4.33452E-13
 -1      1133 1.97329E+01 5.94650E+00 8.86844E-02 2.56147E+00 2.40225E-14-4.27158E-14
 -1      1134 2.07676E+01 6.28502E+00 1.82359E-01 3.59703E+00 2.46192E-14 6.84754E-13
 -1      1135 2.52918E+01 8.01078E+00 1.41070E+00 5.66359E+00 4.87943E-14 2.15292E-12
 -1      1136 2.86722E+01 3.50519E+00 1.16574E+00-4.08109E+00-2.08555E-13 2.77373E-12
 -1      1137 2.06447E+01-1.84089E-01-6.21998E-01-7.93730E-02-6.96943E-14 2.28478E-12
 -1      1138 1.96530E+01-1.00807E-01-2.35467E-01 6.93022E-02-2.33320E-14 1.62772E-12
 -1      1139 1.96944E+01-5.62944E-02-6.79273E-02 4.59386E-02-1.22905E-14 1.18113E-12
 -1      1140 2.00810E+01-3.64501E-02-3.07417E-02 3.47447E-02-1.55713E-14 8.24174E-13
 -1      1141 2.07154E+01-2.74931E-02-2.54268E-02 3.14189E-02-2.28537E-14 5.98008E-13
 -1      1142 2.15565E+01-2.18696E-02-2.42087E-02 3.25719E-02-1.07163E-15 4.80137E-13
 -1      1143 2.25784E+01-1.56703E-02-1.96821E-02 3.65449E-02-6.63250E-15 3.96176E-13
 -1      1144 2.37401E+01-5.37457E-03-6.81971E-03 4.13312E-02-2.83280E-15 2.67314E-13
 -1      1145 2.49493E+01 1.26286E-02 2.05617E-02 4.30453E-02-7.40553E-15 1.41998E-13
 -1      1146 2.60194E+01 4.07980E-02 6.73908E-02 3.43814E-02-1.48145E-15-4.43222E-14
 -1      1147 2.66335E+01 7.65670E-02 1.29002E-01 4.62722E-03 4.61523E-15 1.90438E-14
 -1      1148 2.63706E+01 1.05617E-01 1.78193E-01-5.47936E-02-3.46771E-15-3.28210E-14
 -1      1149 2.48842E+01 9.87024E-02 1.60847E-01-1.34917E-01-1.28682E-14-2.16605E-13
 -1      1150 2.22739E+01 2.65943E-02 3.07200E-02-1.93864E-01-4.15011E-15-1.25150E-13
 -1      1151 1.94151E+01-9.56838E-02-1.77044E-01-1.71042E-01-2.95250E-15-1.91652E-13
 -1      1152 1.77361E+01-1.84915E-01-3.23165E-01-4.70891E-02-3.58220E-15-4.08978E-13
 -1      1153 1.82486E+01-1.59576E-01-2.82139E-01 1.08847E-01 6.28317E-15-7.49886E-13
 -1      1154 2.06681E+01-4.41380E-02-9.08432E-02 1.95221E-01 1.00696E-14-1.14780E-12
 -1      1155 2.36722E+01 6.41139E-02 9.69491E-02 1.78342E-01 1.36289E-14-1.25852E-12
 -1      1156 2.59754E+01 1.07502E-01 1.78454E-01 1.03582E-01 5.35336E-15-1.16740E-12
 -1      1157 2.70398E+01 9.51782E-02 1.60719E-01 2.94832E-02-8.87051E-15-8.22863E-13
 -1      1158 2.70049E+01 6.06119E-02 1.00915E-01-1.65563E-02 5.61530E-15-6.90982E-13
 -1      1159 2.62850E+01 2.73219E-02 4.35475E-02-3.51213E-02 1.20962E-14-8.68278E-13
 -1      1160 2.52695E+01 4.13305E-03 5.19909E-03-3.68254E-02 3.10611E-14-9.54091E-13
 -1      1161 2.42169E+01-8.85155E-03-1.46713E-02-3.11368E-02 1.23383E-14-7.98972E-13
 -1      1162 2.32626E+01-1.45140E-02-2.21126E-02-2.36333E-02 2.77463E-14-6.33653E-13
 -1      1163 2.24586E+01-1.57938E-02-2.27878E-02-1.67999E-02-5.27937E-14-7.03264E-13
 -1      1164 2.18115E+01-1.48157E-02-2.04248E-02-1.13965E-02 2.52368E-14-5.14172E-13
 -1      1165 2.13064E+01-1.28810E-02-1.70707E-02-7.42280E-03 9.26125E-16-6.97163E-13
 -1      1166 2.09212E+01-1.07025E-02-1.37033E-02-4.62411E-03 5.57711E-14-6.07870E-13
 -1      1167 2.06329E+01-8.62969E-03-1.07190E-02-2.71091E-03 9.38919E-15-4.83062E-13
 -1      1168 2.04210E+01-6.80864E-03-8.23010E-03-1.43554E-03-5.49799E-16-6.67905E-13
 -1      1169 2.02680E+01-5.27943E-03-6.22396E-03-6.07866E-04 2.70508E-17-7.95416E-13
 -1      1170 2.01597E+01-4.03175E-03-4.64130E-03-8.91562E-05 4.30061E-14-6.78122E-13
 -1      1171 2.00850E+01-3.03435E-03-3.41181E-03 2.19305E-04-2.05718E-14-6.49254E-13
 -1      1172 2.00351E+01-2.24984E-03-2.46887E-03 3.86958E-04 5.47193E-14-8.54407E-13
 -1      1173 2.00032E+01-1.64151E-03-1.75455E-03 4.62381E-04-2.16256E-14-2.61709E-13
 -1      1174 1.99841E+01-1.17620E-03-1.22037E-03 4.79424E-04 1.89242E-14 8.67113E-14
 -1      1175 1.99740E+01-8.25146E-04-8.26590E-04 4.61541E-04 7.46103E-15-3.11088E-13
 -1      1176 1.99701E+01-5.64015E-04-5.40939E-04 4.24828E-04-5.98939E-14-8.56188E-13
 -1      1177 1.99702E+01-3.72438E-04-3.37283E-04 3.80146E-04-4.04186E-14-1.15004E-12
 -1      1178 1.99729E+01-2.33430E-04-1.94336E-04 3.34589E-04 3.76515E-14-1.50368E-12
 -1      1179 1.99770E+01-1.32749E-04-9.43643E-05 2.92447E-04-5.27704E-14-1.21422E-12
 -1      1180 1.99819E+01-5.82176E-05-2.16664E-05 2.55685E-04 1.27237E-14-1.08581E-12
 -1      1181 1.99870E+01 8.62925E-07 3.92818E-05 2.23756E-04 1.16423E-13-3.83150E-13
 -1      1182 1.99919E+01 5.39277E-05 1.04966E-04 1.91953E-04 4.09631E-14-1.50175E-13
 -1      1183 1.99962E+01 1.06550E-04 1.83209E-04 1.44238E-04 6.84288E-14-1.27066E-15
 -1      1184 1.99991E+01 1.64798E-04 2.29663E-04 4.71741E-05-4.68732E-14-2.72535E-13
 -1      1185 1.99999E+01-3.71368E-05-5.03315E-05-4.94600E-05 6.22647E-15-2.22086E-13
 -1      1186 2.76997E+01 5.16539E-01 3.03679E-01 1.92896E+00-3.68386E-14 3.34843E-12
 -1      1187 2.04992E+01-6.94911E-02-5.74398E-01 1.18466E-01 1.95434E-14 2.71597E-12
 -1      1188 1.96525E+01-4.40476E-02-1.91777E-01 1.56124E-02 1.86951E-14 2.11098E-12
 -1      1189 1.95800E+01-2.55632E-02-5.38770E-02-3.13619E-04 1.18026E-14 1.70802E-12
 -1      1190 1.98357E+01-1.64002E-02-1.93123E-02-6.13024E-03 5.55892E-15 1.38797E-12
 -1      1191 2.02732E+01-9.83100E-03-1.01331E-02-9.49407E-03 1.24963E-14 1.16184E-12
 -1      1192 2.08091E+01-3.27173E-03-3.62664E-03-1.29046E-02-1.16481E-14 1.15020E-12
 -1      1193 2.13748E+01 4.51098E-03 5.73113E-03-1.67638E-02-4.66711E-15 1.12108E-12
 -1      1194 2.18934E+01 1.38774E-02 1.90785E-02-2.04715E-02 2.50774E-14 8.68808E-13
 -1      1195 2.22689E+01 2.39838E-02 3.57144E-02-2.24777E-02 3.23786E-15 7.53557E-13
 -1      1196 2.23881E+01 3.22510E-02 5.23720E-02-2.02638E-02 2.29543E-14 6.46409E-13
 -1      1197 2.21401E+01 3.44106E-02 6.23497E-02-1.09711E-02-8.35009E-15 7.61564E-13
 -1      1198 2.14612E+01 2.60211E-02 5.66754E-02 6.81416E-03 2.44232E-14 5.95739E-13
 -1      1199 2.03968E+01 5.79587E-03 2.87673E-02 3.04224E-02-2.12666E-14 4.51229E-13
 -1      1200 1.91502E+01-2.08683E-02-1.82655E-02 5.16647E-02 1.51633E-14 3.86018E-13
 -1      1201 1.80651E+01-4.26292E-02-6.78542E-02 5.95035E-02 8.57777E-15 1.08302E-13
 -1      1202 1.75072E+01-4.90707E-02-9.70234E-02 4.70666E-02-2.46634E-14 1.54186E-13
 -1      1203 1.76902E+01-3.80609E-02-9.13358E-02 1.77462E-02 7.42982E-15-1.38056E-13
 -1      1204 1.85604E+01-1.70666E-02-5.53844E-02-1.59512E-02-2.93385E-15-2.71061E-13
 -1      1205 1.98277E+01 3.27327E-03-8.84884E-03-4.05016E-02-1.32368E-14-3.75720E-13
 -1      1206 2.11207E+01 1.62245E-02 2.81696E-02-4.93358E-02-5.58147E-15-1.31173E-13
 -1      1207 2.21477E+01 2.06865E-02 4.61712E-02-4.43512E-02-2.14924E-14 3.95378E-14
 -1      1208 2.27728E+01 1.90343E-02 4.67899E-02-3.18690E-02 2.68943E-14-1.39069E-13
 -1      1209 2.30008E+01 1.44140E-02 3.71424E-02-1.80377E-02 4.00179E-14-4.79540E-13
 -1      1210 2.29185E+01 9.20795E-03 2.42851E-02-6.58455E-03 1.67305E-14-5.08000E-13
 -1      1211 2.26367E+01 4.70412E-03 1.26491E-02 1.22475E-03 1.78026E-16-2.81563E-13
 -1      1212 2.22546E+01 1.35865E-03 4.01928E-03 5.64752E-03-8.12647E-15-3.78244E-13
 -1      1213 2.18453E+01-8.40428E-04-1.49004E-03 7.54019E-03-3.48688E-14-3.81042E-13
 -1      1214 2.14557E+01-2.10382E-03-4.49214E-03 7.80439E-03-1.43646E-15-2.82000E-13
 -1      1215 2.11108E+01-2.68693E-03-5.75009E-03 7.15983E-03-3.28228E-14-1.20215E-13
 -1      1216 2.08209E+01-2.81847E-03-5.92076E-03 6.10208E-03 1.78601E-14-2.78319E-14
 -1      1217 2.05868E+01-2.67684E-03-5.48626E-03 4.93690E-03-1.86844E-14 2.10344E-14
 -1      1218 2.04040E+01-2.38962E-03-4.76729E-03 3.83334E-03-7.32896E-14 4.20148E-13
 -1      1219 2.02654E+01-2.04204E-03-3.96121E-03 2.87138E-03-3.24447E-14 5.55896E-13
 -1      1220 2.01635E+01-1.68742E-03-3.18010E-03 2.07751E-03-9.60332E-17 2.17316E-13
 -1      1221 2.00908E+01-1.35649E-03-2.48081E-03 1.44862E-03-3.33851E-14-1.94600E-13
 -1      1222 2.00408E+01-1.06474E-03-1.88631E-03 9.67050E-04 7.10886E-14-6.75061E-13
 -1      1223 2.00081E+01-8.17870E-04-1.39981E-03 6.09487E-04 1.16349E-14-6.87373E-13
 -1      1224 1.99879E+01-6.15590E-04-1.01381E-03 3.51917E-04 7.19273E-15-7.49811E-13
 -1      1225 1.99768E+01-4.54232E-04-7.15767E-04 1.72174E-04 2.02461E-16-6.28326E-13
 -1      1226 1.99721E+01-3.28411E-04-4.91338E-04 5.10275E-05 2.19295E-14-8.86327E-13
 -1      1227 1.99715E+01-2.32025E-04-3.26236E-04-2.75692E-05-1.09773E-13-8.04659E-14
 -1      1228 1.99737E+01-1.58781E-04-2.07011E-04-7.66711E-05 2.56491E-14-4.97212E-13
 -1      1229 1.99776E+01-1.02346E-04-1.21072E-04-1.06746E-04-2.02873E-14-7.37305E-13
 -1      1230 1.99822E+01-5.62029E-05-5.59070E-05-1.26087E-04-7.43749E-14-3.92442E-13
 -1      1231 1.99872E+01-1.34259E-05 2.43769E-06-1.40924E-04 1.93934E-14-2.54566E-13
 -1      1232 1.99920E+01 3.36180E-05 7.01691E-05-1.54705E-04 1.49455E-14-9.27875E-13
 -1      1233 1.99962E+01 8.86261E-05 1.55929E-04-1.62039E-04-2.31635E-14-1.11979E-12
 -1      1234 1.99991E+01 1.23347E-04 2.05517E-04-1.26385E-04 7.29312E-14-1.05161E-12
 -1      1235 1.99999E+01-3.67974E-05-5.33814E-05 4.00619E-05 4.16806E-14-8.26080E-13
 -1      1236 1.99998E+01 1.05842E-04-5.38069E-05 2.96735E-05-8.42537E-13-1.52129E-13
 -1      1237 1.99999E+01-7.81255E-04 1.90042E-04-4.01433E-05-5.43025E-13 2.54140E-14
 -1      1238 1.99999E+01-3.50400E-03 1.21371E-04-1.36332E-04 6.21146E-13 1.07101E-13
 -1      1239 1.99998E+01-7.08333E-03 1.24700E-05-1.51241E-04 1.26751E-12-3.50425E-14
 -1      1240 1.99998E+01-1.07134E-02-6.58564E-05-1.33826E-04 6.10531E-13-1.26467E-13
 -1      1241 1.99997E+01-1.38665E-02-1.12371E-04-1.03023E-04-1.23851E-12-2.59812E-13
 -1      1242 1.99997E+01-1.62766E-02-1.35933E-04-7.07267E-05-2.90101E-12-1.10958E-14
 -1      1243 1.99997E+01-1.77991E-02-1.47638E-04-3.56859E-05-2.39342E-12-5.44373E-14
 -1      1244 1.99997E+01-1.83274E-02-1.51576E-04-7.18476E-07-1.87087E-12 1.57366E-14
 -1      1245 1.99997E+01-1.78344E-02-1.49373E-04 3.45540E-05-1.77768E-12 2.42366E-14
 -1      1246 1.99997E+01-1.63358E-02-1.38688E-04 7.03563E-05-1.35728E-12-5.92750E-14
 -1      1247 1.99997E+01-1.39284E-02-1.14900E-04 1.05537E-04-1.50855E-12 1.63732E-14
 -1      1248 1.99998E+01-1.07598E-02-6.84664E-05 1.35572E-04-1.05336E-12 6.21345E-15
 -1      1249 1.99998E+01-7.09259E-03 1.39801E-05 1.55514E-04-8.65046E-13-4.98207E-14
 -1      1250 1.99999E+01-3.42990E-03 1.43969E-04 1.63876E-04-8.57439E-13-1.20005E-13
 -1      1251 2.00000E+01-8.10668E-04 1.93508E-04 2.81469E-05 1.44443E-13-9.08478E-14
 -1      1252 1.99997E+01 1.11204E-04-6.51700E-05-2.68033E-05 3.44186E-13 1.20145E-13
 -1      1253-1.10305E+00-2.38955E+01-3.67913E+00-2.15586E+00 1.78135E-12 3.73590E-13
 -1      1254-1.71348E+00-1.49155E+01-3.00128E+00-3.88385E+00 3.49432E-12 1.24101E-12
 -1      1255 2.69529E-01-2.37745E+00-1.80847E+00-1.55728E-01 3.69815E-12 2.16593E-12
 -1      1256 8.53344E+00 7.61649E+00-3.15768E-01 7.97493E+00 2.99050E-12 2.71050E-12
 -1      1257 2.46062E+01 1.12447E+01 1.34949E+00 1.59262E+01 2.25442E-12 3.06222E-12
 -1      1258 4.45121E+01 8.61293E+00 2.82904E+00 1.77353E+01 1.16873E-12 2.48512E-12
 -1      1259 6.10898E+01 3.64637E+00 3.82012E+00 1.12917E+01 2.79943E-13 4.98601E-13
 -1      1260 6.68299E+01 1.69205E+00 4.17732E+00-1.10091E+00 1.61586E-13-1.67558E-12
 -1      1261 5.86651E+01 4.56373E+00 3.71644E+00-1.30279E+01 8.73884E-13-3.28515E-12
 -1      1262 3.99524E+01 9.55922E+00 2.53483E+00-1.81687E+01 2.08078E-12-4.11382E-12
 -1      1263 1.99236E+01 1.10517E+01 9.68884E-01-1.41837E+01 3.24829E-12-4.00280E-12
 -1      1264 5.74870E+00 5.47483E+00-7.07263E-01-5.69634E+00 4.05898E-12-3.32423E-12
 -1      1265-8.31832E-01-6.31716E+00-2.23179E+00 1.84243E+00 3.81561E-12-2.08467E-12
 -1      1266-1.57051E+00-1.88840E+01-3.31659E+00 4.05696E+00 2.04348E-12-6.94611E-13
 -1      1267-8.95234E-01-2.54099E+01-3.80139E+00 9.08536E-01 1.33948E-13-1.38840E-13
 -1      1268-1.32880E+00-2.33370E+01-3.70538E+00-3.28658E+00-1.76170E-12-4.44762E-13
 -1      1269-1.96129E+00-1.40399E+01-3.03603E+00-4.27374E+00-3.18190E-12-1.32899E-12
 -1      1270 5.12459E-01-1.79491E+00-1.85145E+00 1.13146E-01-3.74034E-12-2.43860E-12
 -1      1271 1.00381E+01 7.92802E+00-2.71235E-01 8.79112E+00-3.52429E-12-3.46168E-12
 -1      1272 2.70115E+01 1.10272E+01 1.43439E+00 1.65565E+01-2.44793E-12-3.59313E-12
 -1      1273 4.72093E+01 8.26180E+00 3.09074E+00 1.79886E+01-1.29030E-12-2.78533E-12
 -1      1274 6.36893E+01 3.73092E+00 4.20469E+00 1.07576E+01-3.37827E-13-8.73412E-13
 -1      1275 6.91716E+01 1.84742E+00 4.60013E+00-2.13524E+00-1.21292E-13 1.47563E-12
 -1      1276 5.94527E+01 4.91108E+00 3.91773E+00-1.36996E+01-9.24205E-13 3.24873E-12
 -1      1277 4.06183E+01 9.44734E+00 2.58472E+00-1.80848E+01-2.11164E-12 4.20575E-12
 -1      1278 2.06253E+01 1.06338E+01 8.62232E-01-1.42747E+01-3.30669E-12 4.19287E-12
 -1      1279 6.11978E+00 5.49369E+00-8.10033E-01-5.87062E+00-3.37819E-12 3.14238E-12
 -1      1280-7.81446E-01-5.37503E+00-2.28163E+00 1.68474E+00-2.14229E-12 1.35603E-12
 -1      1281-1.98684E+00-1.71865E+01-3.27164E+00 4.39180E+00-1.02007E-12 3.68788E-13
 -1      1282-1.07983E+00-2.47734E+01-3.79092E+00 2.19290E+00-1.97065E-14 3.17871E-14
 -1      1283 2.25235E+01 1.85670E+00-7.11772E-01-2.62546E+00-7.57172E-14 1.50718E-12
 -1      1284 2.07535E+01 4.71143E+00-4.05868E-02-2.95014E+00-2.23085E-13 2.02199E-14
 -1      1285 2.12600E+01 4.81696E+00-9.51282E-02-3.83735E+00-2.86271E-13 3.63085E-13
 -1      1286 1.98480E+01 5.03440E+00-1.74570E-02-2.23045E+00-2.27540E-13-4.63879E-13
 -1      1287 2.02032E+01 5.14557E+00 1.32375E-02-2.64626E+00-2.57419E-13-2.54081E-13
 -1      1288 2.09400E+01 3.95639E+00-1.97148E-02-2.68088E+00-3.96780E-13 1.95122E-14
 -1      1289 1.93359E+01 5.13133E+00-6.35660E-03-1.63301E+00-1.84842E-13-7.07011E-13
 -1      1290 1.95752E+01 5.21222E+00 1.82043E-02-1.92596E+00-2.11733E-13-5.98389E-13
 -1      1291 2.00435E+01 4.41848E+00-2.01657E-02-2.05329E+00-3.56699E-13-3.83117E-13
 -1      1292 1.89705E+01 5.17472E+00-2.41975E-03-1.16479E+00-1.31617E-13-8.31816E-13
 -1      1293 1.91454E+01 5.23299E+00 1.57829E-02-1.39052E+00-1.52649E-13-7.74193E-13
 -1      1294 1.94864E+01 4.64811E+00-1.72372E-02-1.50173E+00-2.75453E-13-5.96322E-13
 -1      1295 1.87036E+01 5.19767E+00-6.98160E-04-7.97092E-01-8.70692E-14-8.89811E-13
 -1      1296 1.88304E+01 5.23903E+00 1.23133E-02-9.74895E-01-1.04406E-13-8.60095E-13
 -1      1297 1.90932E+01 4.78360E+00-1.41009E-02-1.06704E+00-1.96711E-13-6.90913E-13
 -1      1298 1.85185E+01 5.21031E+00 3.99917E-04-4.88285E-01-4.78272E-14-9.09849E-13
 -1      1299 1.86025E+01 5.23723E+00 8.54985E-03-6.39447E-01-6.09374E-14-9.04060E-13
 -1      1300 1.88090E+01 4.86769E+00-1.21499E-02-7.17283E-01-1.25109E-13-7.52613E-13
 -1      1301 1.84224E+01 5.21765E+00 2.04866E-03-2.17351E-01-3.73226E-15-9.10685E-13
 -1      1302 1.84604E+01 5.22973E+00 5.26775E-03-3.52838E-01-1.69162E-14-9.10719E-13
 -1      1303 1.86240E+01 4.91460E+00-1.12299E-02-4.21396E-01-5.38699E-14-7.57951E-13
 -1      1304 1.84153E+01 5.22198E+00 4.35044E-03 4.22575E-02 3.59669E-14-8.93381E-13
 -1      1305 1.84078E+01 5.21953E+00 2.91508E-03-9.06074E-02 2.15804E-14-9.05854E-13
 -1      1306 1.85408E+01 4.93087E+00-1.09249E-02-1.55526E-01 1.60861E-14-7.60055E-13
 -1      1307 1.84934E+01 5.22432E+00 7.23472E-03 3.15281E-01 8.30100E-14-8.73426E-13
 -1      1308 1.84429E+01 5.20811E+00 1.51026E-03 1.72889E-01 6.62794E-14-8.83908E-13
 -1      1309 1.85576E+01 4.92068E+00-1.11050E-02 1.05852E-01 8.41397E-14-7.43241E-13
 -1      1310 1.86498E+01 5.22421E+00 1.04200E-02 6.24707E-01 1.13822E-13-8.30338E-13
 -1      1311 1.85601E+01 5.19542E+00 8.59230E-04 4.61378E-01 1.00787E-13-8.60860E-13
 -1      1312 1.86690E+01 4.88610E+00-1.17547E-02 3.86383E-01 1.53022E-13-7.18758E-13
 -1      1313 1.88742E+01 5.22076E+00 1.36875E-02 9.85619E-01 1.56281E-13-7.44653E-13
 -1      1314 1.87501E+01 5.17978E+00 4.17079E-04 7.93954E-01 1.39069E-13-7.94089E-13
 -1      1315 1.88661E+01 4.82708E+00-1.28329E-02 7.04881E-01 2.06830E-13-6.69576E-13
 -1      1316 1.91769E+01 5.21096E+00 1.63905E-02 1.43368E+00 2.15977E-13-6.09075E-13
 -1      1317 1.90107E+01 5.15512E+00-9.57029E-04 1.19396E+00 1.90344E-13-6.88205E-13
 -1      1318 1.91458E+01 4.73753E+00-1.49341E-02 1.08453E+00 2.82699E-13-5.70981E-13
 -1      1319 1.95827E+01 5.18992E+00 1.70099E-02 1.99420E+00 2.60840E-13-3.80081E-13
 -1      1320 1.93562E+01 5.11128E+00-5.66937E-03 1.69019E+00 2.38667E-13-5.21458E-13
 -1      1321 1.95240E+01 4.60091E+00-1.82575E-02 1.55182E+00 3.67890E-13-4.21514E-13
 -1      1322 2.02020E+01 5.14333E+00 1.68449E-02 2.72388E+00 2.90656E-13 3.61586E-14
 -1      1323 1.98440E+01 5.01809E+00-1.78205E-02 2.31030E+00 2.63733E-13-2.14578E-13
 -1      1324 2.00577E+01 4.37621E+00-2.15052E-02 2.13011E+00 4.24997E-13-1.64049E-13
 -1      1325 2.14456E+01 4.90971E+00 1.85932E-02 3.77580E+00 2.45137E-13 8.15931E-13
 -1      1326 2.06994E+01 4.75115E+00-4.03517E-02 3.09393E+00 2.43500E-13 3.44162E-13
 -1      1327 2.09483E+01 3.91286E+00-1.68801E-02 2.82394E+00 4.29441E-13 3.06366E-13
 -1      1328 2.72773E+01 3.16742E+00 8.88057E-01 4.41067E+00 1.15796E-13 2.25164E-12
 -1      1329 2.23195E+01 3.51879E+00-1.74080E-01 3.66000E+00 1.21042E-13 1.25916E-12
 -1      1330 2.24928E+01 2.53817E+00-2.58704E-02 3.16778E+00 3.97743E-13 1.01003E-12
 -1      1331 2.17358E+01 3.45449E-01-7.57133E-01 1.04802E+00 2.13760E-13 2.17359E-12
 -1      1332 2.23942E+01 1.21339E-01-3.96299E-01-1.11648E+00-2.28303E-13 1.58315E-12
 -1      1333 2.12567E+01 2.96713E-01-1.56855E-01-6.60848E-01-2.13420E-13 1.32014E-12
 -1      1334 2.07781E+01 1.54999E-01-7.02189E-02-2.54676E-01-1.61753E-13 1.20528E-12
 -1      1335 2.04923E+01 9.53941E-02-1.15541E-02-1.83341E-01-1.60059E-13 9.71018E-13
 -1      1336 2.15933E+01 3.60223E-01-1.03291E-01-9.88976E-01-3.63834E-13 6.98771E-13
 -1      1337 2.02864E+01 7.34633E-02 4.09049E-03 2.64575E-02-1.32888E-13 8.84369E-13
 -1      1338 2.03355E+01 5.24994E-02 1.45945E-02 4.96932E-02-1.20513E-13 6.96204E-13
 -1      1339 2.08113E+01 1.41669E-01-3.76019E-02-1.99930E-01-2.74777E-13 5.25026E-13
 -1      1340 2.03563E+01 4.65722E-02 1.27429E-02 1.68297E-01-9.13896E-14 6.13370E-13
 -1      1341 2.05836E+01 3.55785E-02 1.14774E-02 1.86186E-01-1.02834E-13 4.83290E-13
 -1      1342 2.06576E+01 7.66067E-02-1.22909E-02 1.87387E-01-2.16055E-13 3.83629E-13
 -1      1343 2.07480E+01 3.57686E-02 7.27894E-03 2.69503E-01-7.12442E-14 4.37563E-13
 -1      1344 2.10974E+01 2.85179E-02 6.14798E-03 2.84972E-01-5.24320E-14 3.60652E-13
 -1      1345 2.08394E+01 5.44727E-02-8.69319E-03 4.29201E-01-1.51666E-13 2.54151E-13
 -1      1346 2.13647E+01 3.03710E-02 2.18028E-03 3.52068E-01-2.92531E-14 3.35499E-13
 -1      1347 2.18122E+01 2.33748E-02 2.50530E-03 3.66076E-01-2.09312E-14 2.90337E-13
 -1      1348 2.12581E+01 4.56314E-02-8.37482E-03 6.10988E-01-8.72124E-14 2.09041E-13
 -1      1349 2.21573E+01 2.47301E-02-1.08379E-03 4.19550E-01-2.72438E-14 2.57697E-13
 -1      1350 2.26825E+01 1.54135E-02 1.29232E-04 4.31057E-01-3.76194E-14 2.08698E-13
 -1      1351 2.18537E+01 3.75832E-02-7.78029E-03 7.57439E-01-5.25244E-14 1.36367E-13
 -1      1352 2.30810E+01 1.38980E-02-2.75508E-03 4.62321E-01-2.05865E-14 2.14852E-13
 -1      1353 2.36485E+01-2.85223E-04-1.06587E-03 4.67775E-01-4.05374E-14 1.41716E-13
 -1      1354 2.25805E+01 2.15409E-02-5.99931E-03 8.62041E-01-5.10330E-14 9.43612E-14
 -1      1355 2.40656E+01-7.95282E-03-2.14001E-03 4.56510E-01-3.19579E-14 1.43496E-13
 -1      1356 2.46065E+01-2.90426E-02-9.80518E-05 4.48977E-01-5.49664E-14 1.06172E-13
 -1      1357 2.33837E+01-1.22767E-02-1.92925E-03 8.91299E-01-5.25172E-14 1.06670E-13
 -1      1358 2.49861E+01-4.65033E-02 2.49296E-03 3.63573E-01-4.66667E-14 9.23289E-14
 -1      1359 2.53808E+01-7.37607E-02 4.60646E-03 3.32705E-01-1.09296E-14 5.71158E-14
 -1      1360 2.41788E+01-7.36662E-02 5.99872E-03 7.84025E-01-6.37320E-14 1.64696E-13
 -1      1361 2.56401E+01-1.02079E-01 1.25359E-02 1.39495E-01 1.83690E-14 3.58377E-14
 -1      1362 2.57184E+01-1.27341E-01 1.33666E-02 7.51196E-02 2.38004E-15 5.25482E-14
 -1      1363 2.48346E+01-1.64359E-01 1.88531E-02 4.61259E-01-7.13318E-15 1.09003E-13
 -1      1364 2.57548E+01-1.58438E-01 2.56376E-02-2.32878E-01-1.04274E-14 7.78093E-14
 -1      1365 2.53445E+01-1.61471E-01 2.20081E-02-3.29328E-01-5.17555E-14-1.94289E-16
 -1      1366 2.51706E+01-2.59964E-01 3.46538E-02-1.31483E-01-1.47122E-14 6.72999E-14
 -1      1367 2.50719E+01-1.71274E-01 3.20959E-02-6.82085E-01 1.43531E-14 1.17545E-14
 -1      1368 2.41220E+01-1.25870E-01 1.91785E-02-7.78576E-01 1.17666E-14-2.74780E-15
 -1      1369 2.49926E+01-2.92008E-01 4.45153E-02-9.31209E-01-2.23432E-15 1.52650E-13
 -1      1370 2.35522E+01-8.60139E-02 1.63930E-02-9.98315E-01-4.17852E-15 2.61319E-14
 -1      1371 2.22904E+01 1.25435E-02-5.80979E-03-1.02898E+00-6.06224E-14 2.29816E-14
 -1      1372 2.42039E+01-1.70658E-01 3.15719E-02-1.64881E+00-4.68809E-15 1.71651E-13
 -1      1373 2.16227E+01 9.82741E-02-2.32185E-02-9.07194E-01-8.69530E-14 3.60822E-16
 -1      1374 2.05770E+01 2.02631E-01-4.51410E-02-8.15687E-01-1.36167E-13-1.09607E-13
 -1      1375 2.29894E+01 1.17242E-01-1.58934E-02-1.80260E+00-1.29388E-13 1.93571E-13
 -1      1376 2.01727E+01 2.70054E-01-6.06445E-02-3.15339E-01-1.17927E-13-2.40287E-13
 -1      1377 1.99047E+01 3.01242E-01-6.70780E-02-1.31517E-01-1.37713E-13-3.76586E-13
 -1      1378 2.19078E+01 4.20459E-01-7.52062E-02-1.05468E+00-2.24754E-13-5.18162E-15
 -1      1379 2.00377E+01 2.82021E-01-6.25920E-02 4.83989E-01-1.53322E-13-5.35409E-13
 -1      1380 2.07158E+01 2.12823E-01-4.80428E-02 6.41469E-01-1.25459E-13-6.92460E-13
 -1      1381 2.16299E+01 5.12026E-01-9.33324E-02 3.30897E-01-2.50452E-13-3.22329E-13
 -1      1382 2.13075E+01 1.27730E-01-2.92907E-02 1.00385E+00-1.05685E-13-8.06480E-13
 -1      1383 2.25606E+01 1.61889E-02-5.28230E-03 1.04314E+00-5.88644E-14-9.20819E-13
 -1      1384 2.23654E+01 3.11625E-01-5.27831E-02 1.53702E+00-2.36550E-13-6.24948E-13
 -1      1385 2.32613E+01-5.53304E-02 6.74523E-03 1.00714E+00 1.42976E-14-1.00482E-12
 -1      1386 2.44903E+01-1.34802E-01 2.58487E-02 9.40567E-01-1.31509E-14-1.03101E-12
 -1      1387 2.36552E+01-1.41543E-02 6.61712E-03 1.91003E+00-1.04866E-13-6.88040E-13
 -1      1388 2.49868E+01-1.51206E-01 2.21078E-02 6.40860E-01 8.26249E-14-1.02884E-12
 -1      1389 2.57728E+01-1.74113E-01 3.10946E-02 5.38525E-01 9.47836E-14-9.15608E-13
 -1      1390 2.48127E+01-2.41851E-01 4.02248E-02 1.46813E+00 5.65086E-14-7.68656E-13
 -1      1391 2.59509E+01-1.51162E-01 1.86231E-02 1.91447E-01 7.03188E-14-7.40040E-13
 -1      1392 2.61974E+01-1.36042E-01 2.01560E-02 1.07317E-01 7.63747E-14-6.72672E-13
 -1      1393 2.54262E+01-2.90328E-01 4.17583E-02 6.70919E-01 1.74572E-13-7.30782E-13
 -1      1394 2.60983E+01-1.03642E-01 8.84003E-03-1.52980E-01 1.27988E-14-6.17319E-13
 -1      1395 2.59266E+01-7.63219E-02 7.44888E-03-2.01768E-01 1.85988E-14-6.33164E-13
 -1      1396 2.54503E+01-2.20361E-01 2.78201E-02-5.67560E-02 6.77115E-14-5.74654E-13
 -1      1397 2.56497E+01-5.16598E-02 1.34696E-03-3.43974E-01 1.72939E-14-5.99767E-13
 -1      1398 2.52421E+01-2.72813E-02-5.75854E-04-3.62864E-01 1.42017E-14-6.73468E-13
 -1      1399 2.50411E+01-1.20851E-01 1.26937E-02-5.28938E-01 5.24598E-14-4.95756E-13
 -1      1400 2.48829E+01-1.37732E-02-1.98058E-03-4.10858E-01 2.61440E-14-6.14373E-13
 -1      1401 2.43903E+01 3.04291E-03-3.70955E-03-4.11169E-01 5.30561E-14-5.58369E-13
 -1      1402 2.43935E+01-4.14057E-02 2.05840E-03-7.46732E-01 3.53693E-14-4.16197E-13
 -1      1403 2.40173E+01 8.00734E-03-2.39769E-03-4.01381E-01 5.01664E-14-5.94906E-13
 -1      1404 2.35340E+01 1.78721E-02-3.91960E-03-3.92570E-01 2.03874E-14-5.27698E-13
 -1      1405 2.36649E+01 6.67525E-03-3.69592E-03-7.85733E-01 4.77464E-14-3.60296E-13
 -1      1406 2.31876E+01 1.78805E-02-1.57977E-03-3.54602E-01-1.73798E-15-5.69945E-13
 -1      1407 2.27603E+01 2.28726E-02-2.98548E-03-3.42610E-01 3.33414E-15-5.92328E-13
 -1      1408 2.29568E+01 2.95089E-02-6.05331E-03-7.24869E-01 2.47133E-15-3.31530E-13
 -1      1409 2.24593E+01 2.06075E-02-5.82536E-04-2.95255E-01-1.37043E-16-5.54411E-13
 -1      1410 2.21041E+01 2.26356E-02-1.88762E-03-2.83202E-01-1.46660E-14-5.35683E-13
 -1      1411 2.23229E+01 3.66765E-02-6.50079E-03-6.20981E-01-1.63064E-15-4.02301E-13
 -1      1412 2.18539E+01 1.96688E-02 1.69270E-04-2.36555E-01 7.89277E-14-5.24685E-13
 -1      1413 2.15701E+01 2.00659E-02-1.00392E-03-2.25818E-01 2.81598E-14-4.40452E-13
 -1      1414 2.17847E+01 3.57039E-02-6.03757E-03-5.07708E-01 8.68507E-14-4.67822E-13
 -1      1415 2.13685E+01 1.71752E-02 6.05674E-04-1.84429E-01-8.49004E-14-4.06530E-13
 -1      1416 2.11481E+01 1.67601E-02-4.02630E-04-1.75446E-01-4.59945E-14-4.95452E-13
 -1      1417 2.13442E+01 3.12520E-02-5.22466E-03-4.02012E-01-6.30225E-15-3.50906E-13
 -1      1418 2.09896E+01 1.42601E-02 7.93188E-04-1.40776E-01-4.36385E-14-4.96846E-13
 -1      1419 2.08221E+01 1.34979E-02-3.67404E-05-1.33535E-01-7.70044E-15-4.73004E-13
 -1      1420 2.09931E+01 2.58214E-02-4.34199E-03-3.10806E-01-9.56466E-14-2.99563E-13
 -1      1421 2.06999E+01 1.14669E-02 8.21687E-04-1.05514E-01 4.22004E-14-4.66040E-13
 -1      1422 2.05749E+01 1.06056E-02 1.63485E-04-9.98205E-02-3.50171E-14-4.77420E-13
 -1      1423 2.07193E+01 2.05934E-02-3.51512E-03-2.35636E-01-8.65729E-14-4.75663E-13
 -1      1424 2.04824E+01 9.01653E-03 7.63482E-04-7.77196E-02-4.46818E-14-4.86688E-13
 -1      1425 2.03909E+01 8.18012E-03 2.57503E-04-7.33240E-02-8.19260E-14-5.96743E-13
 -1      1426 2.05097E+01 1.60353E-02-2.79189E-03-1.75509E-01-7.68934E-14-4.52480E-13
 -1      1427 2.03220E+01 6.96753E-03 6.66465E-04-5.62132E-02 2.44986E-15-6.01911E-13
 -1      1428 2.02561E+01 6.21203E-03 2.87828E-04-5.28703E-02 4.75907E-14-6.35673E-13
 -1      1429 2.03520E+01 1.22626E-02-2.18316E-03-1.28438E-01-5.04919E-14-4.57885E-13
 -1      1430 2.02058E+01 5.30390E-03 5.58785E-04-3.98281E-02 9.95259E-14-6.12127E-13
 -1      1431 2.01595E+01 4.64947E-03 2.82350E-04-3.73213E-02 3.44527E-14-5.83390E-13
 -1      1432 2.02354E+01 9.23501E-03-1.68332E-03-9.22096E-02 5.38150E-14-4.69537E-13
 -1      1433 2.01234E+01 3.98021E-03 4.55338E-04-2.75238E-02-7.04564E-14-5.08354E-13
 -1      1434 2.00916E+01 3.42884E-03 2.58426E-04-2.56706E-02-3.52594E-14-6.32451E-13
 -1      1435 2.01507E+01 6.85452E-03-1.28026E-03-6.47437E-02 3.92731E-14-4.79473E-13
 -1      1436 2.00664E+01 2.94341E-03 3.62983E-04-1.84183E-02 5.84782E-14-6.89312E-13
 -1      1437 2.00453E+01 2.48833E-03 2.26452E-04-1.70694E-02 8.16199E-14-5.18459E-13
 -1      1438 2.00906E+01 5.01144E-03-9.60038E-04-4.42213E-02-5.52135E-15-4.92678E-13
 -1      1439 2.00282E+01 2.14239E-03 2.84054E-04-1.17853E-02 9.18084E-14-6.34785E-13
 -1      1440 2.00149E+01 1.77305E-03 1.92426E-04-1.08207E-02 3.10991E-14-4.77382E-13
 -1      1441 2.00489E+01 3.60328E-03-7.09071E-04-2.91171E-02 1.03775E-13-5.49669E-13
 -1      1442 2.00037E+01 1.53170E-03 2.18515E-04-7.03868E-03 3.33658E-14-1.69688E-13
 -1      1443 1.99960E+01 1.23630E-03 1.59640E-04-6.36295E-03 3.69437E-14-1.29460E-13
 -1      1444 2.00210E+01 2.54125E-03-5.14974E-04-1.81831E-02 1.00239E-13-5.82030E-13
 -1      1445 1.99891E+01 1.07247E-03 1.65187E-04-3.71185E-03-1.71693E-13-9.29541E-14
 -1      1446 1.99852E+01 8.39269E-04 1.29736E-04-3.25029E-03-1.76678E-13-3.63531E-13
 -1      1447 2.00032E+01 1.75114E-03-3.66883E-04-1.04161E-02-2.45962E-14-2.51996E-13
 -1      1448 1.99814E+01 7.32126E-04 1.22429E-04-1.43852E-03-1.22877E-13-3.83719E-13
 -1      1449 1.99801E+01 5.50079E-04 1.03361E-04-1.13322E-03-2.97183E-13-6.58513E-13
 -1      1450 1.99926E+01 1.17208E-03-2.55482E-04-5.02125E-03-2.98287E-13-2.27046E-13
 -1      1451 1.99785E+01 4.83667E-04 8.84978E-05 6.48345E-05-1.84530E-13-7.67820E-13
 -1      1452 1.99789E+01 3.42674E-04 8.05723E-05 2.57987E-04-1.38418E-13-1.00254E-12
 -1      1453 1.99871E+01 7.54533E-04-1.72897E-04-1.37747E-03-3.76011E-13-3.52358E-13
 -1      1454 1.99786E+01 3.04750E-04 6.17454E-05 1.01358E-03 2.08655E-14-1.03498E-12
 -1      1455 1.99801E+01 1.95681E-04 6.11108E-05 1.12747E-03 7.19248E-14-9.38684E-13
 -1      1456 1.99851E+01 4.58262E-04-1.12522E-04 9.92243E-04-7.82309E-14-5.45730E-13
 -1      1457 1.99807E+01 1.76712E-04 4.07472E-05 1.56677E-03 2.29436E-14-7.75487E-13
 -1      1458 1.99828E+01 9.13000E-05 4.46643E-05 1.62494E-03 2.53650E-14-8.23607E-13
 -1      1459 1.99853E+01 2.50227E-04-6.88063E-05 2.44583E-03 1.83185E-13-4.25614E-13
 -1      1460 1.99840E+01 8.35232E-05 2.45477E-05 1.83602E-03 1.36249E-13-6.31346E-13
 -1      1461 1.99864E+01 1.41682E-05 3.12943E-05 1.85395E-03 2.17205E-13-4.30076E-13
 -1      1462 1.99871E+01 1.02474E-04-3.70117E-05 3.24163E-03 2.84201E-13-9.27194E-14
 -1      1463 1.99878E+01 1.06233E-05 1.31570E-05 1.89134E-03 2.10702E-13-4.40690E-13
 -1      1464 1.99902E+01-4.98731E-05 2.21274E-05 1.87702E-03 1.22923E-13-1.17899E-13
 -1      1465 1.99896E+01-1.00309E-05-1.28080E-05 3.55233E-03 3.30114E-13-1.08691E-14
 -1      1466 1.99916E+01-5.64594E-05 8.51579E-06 1.76372E-03-8.49345E-14-2.32277E-13
 -1      1467 1.99938E+01-1.14790E-04 1.99990E-05 1.71685E-03-3.78236E-14-3.07876E-13
 -1      1468 1.99924E+01-1.12367E-04 8.06630E-06 3.47355E-03-5.94088E-15-2.38233E-13
 -1      1469 1.99951E+01-1.33237E-04 1.42179E-05 1.44622E-03 1.10938E-13-3.13270E-13
 -1      1470 1.99969E+01-1.93252E-04 2.33163E-05 1.35574E-03 1.01046E-13-2.18330E-13
 -1      1471 1.99951E+01-2.32693E-04 2.84981E-05 3.02559E-03-1.01791E-14-5.17581E-13
 -1      1472 1.99979E+01-2.40422E-04 2.48089E-05 8.97125E-04 1.05493E-14-1.19005E-13
 -1      1473 1.99989E+01-2.62946E-04 1.85890E-05 7.63412E-04-8.14794E-14-1.87886E-13
 -1      1474 1.99974E+01-4.05662E-04 4.62250E-05 2.18043E-03 1.53952E-13-1.98025E-13
 -1      1475 1.99997E+01-1.54753E-04 3.00540E-05 5.32398E-05-2.24984E-14-1.55781E-14
 -1      1476 1.99993E+01-5.44008E-04 3.59443E-05 7.79505E-04 3.03318E-14 2.52402E-14
 -1      1477 2.08329E+01 7.30198E-02-1.46104E-01 3.73842E-01 1.95826E-13 1.74329E-12
 -1      1478 2.19321E+01 2.16331E-01-2.27519E-01 6.03568E-01 1.74707E-13 2.04159E-12
 -1      1479 2.21575E+01 8.53070E-01-9.00458E-02 1.84248E+00 3.36571E-13 1.36782E-12
 -1      1480 2.01752E+01 3.33574E-02-1.90162E-02 8.00910E-02 1.36575E-13 1.37405E-12
 -1      1481 2.04446E+01 1.15171E-01-5.90828E-02 1.32623E-01 1.32061E-13 1.59152E-12
 -1      1482 2.09597E+01 1.80518E-01-5.62939E-02 5.80459E-01 2.88283E-13 1.08399E-12
 -1      1483 2.00781E+01 1.76490E-02 5.73557E-03-5.95308E-02 9.44999E-14 1.11091E-12
 -1      1484 2.00622E+01 5.60976E-02 2.67181E-03-2.97957E-02 9.20436E-14 1.25155E-12
 -1      1485 2.04600E+01 7.31681E-02-1.39486E-02 8.90275E-02 2.11074E-13 8.44665E-13
 -1      1486 2.02793E+01 9.84076E-03 6.22974E-03-1.33881E-01 6.92198E-14 9.06539E-13
 -1      1487 2.01252E+01 3.16944E-02 1.15369E-02-1.14808E-01 6.21634E-14 1.01933E-12
 -1      1488 2.03911E+01 3.59379E-02-4.87416E-03-1.44583E-01 1.45517E-13 6.69874E-13
 -1      1489 2.06446E+01 4.57240E-03 4.15685E-03-1.74483E-01 2.74464E-14 8.01595E-13
 -1      1490 2.04166E+01 1.88726E-02 8.46272E-03-1.61950E-01 3.96501E-14 8.66963E-13
 -1      1491 2.05655E+01 1.81168E-02-4.02606E-03-2.70848E-01 9.69541E-14 5.76213E-13
 -1      1492 2.10905E+01-7.64434E-04 3.59660E-03-1.89528E-01 6.51508E-15 7.90841E-13
 -1      1493 2.08286E+01 8.80736E-03 5.18941E-03-1.82828E-01-4.73661E-15 8.05536E-13
 -1      1494 2.08757E+01 5.53656E-03-3.29505E-03-3.34644E-01 2.69212E-14 5.29016E-13
 -1      1495 2.15445E+01-7.31142E-03 4.67155E-03-1.77709E-01 5.40572E-14 7.29663E-13
 -1      1496 2.12858E+01-2.05228E-03 3.41856E-03-1.77982E-01 2.11991E-14 7.62550E-13
 -1      1497 2.12460E+01-7.39510E-03-1.29159E-03-3.46102E-01 3.52151E-14 4.81284E-13
 -1      1498 2.19278E+01-1.53641E-02 7.10353E-03-1.33531E-01 4.05730E-14 5.75290E-13
 -1      1499 2.17150E+01-1.53330E-02 2.84953E-03-1.42962E-01 7.42323E-14 6.87877E-13
 -1      1500 2.16080E+01-2.31177E-02 2.10834E-03-3.00859E-01 1.10283E-13 4.62032E-13
 -1      1501 2.21506E+01-2.41065E-02 1.04350E-02-5.15105E-02 2.90041E-14 5.36811E-13
 -1      1502 2.20343E+01-3.09741E-02 3.16915E-03-7.23955E-02 1.17857E-14 5.54105E-13
 -1      1503 2.18900E+01-4.19134E-02 6.77761E-03-1.89550E-01 5.41078E-14 3.96318E-13
 -1      1504 2.21193E+01-3.10586E-02 1.35115E-02 6.79294E-02-2.43195E-14 5.56551E-13
 -1      1505 2.21531E+01-4.64933E-02 4.04265E-03 3.48612E-02 7.80018E-15 5.52984E-13
 -1      1506 2.20156E+01-6.11149E-02 1.20551E-02-7.23415E-03 5.54331E-15 3.80052E-13
 -1      1507 2.17619E+01-3.19757E-02 1.41560E-02 2.10603E-01 8.02071E-14 5.64052E-13
 -1      1508 2.19869E+01-5.62835E-02 4.76821E-03 1.68625E-01 7.13579E-15 5.84902E-13
 -1      1509 2.19143E+01-7.39795E-02 1.63143E-02 2.33962E-01 1.60288E-15 4.70156E-13
 -1      1510 2.10695E+01-2.22238E-02 9.69237E-03 3.42262E-01 7.92201E-14 4.43430E-13
 -1      1511 2.14893E+01-5.24836E-02 4.15278E-03 3.00786E-01 7.25730E-14 5.44741E-13
 -1      1512 2.15466E+01-6.99365E-02 1.71530E-02 4.91457E-01 9.45841E-14 4.43572E-13
 -1      1513 2.01408E+01-2.50607E-04-1.34710E-03 4.11539E-01-1.41640E-14 3.70488E-13
 -1      1514 2.06948E+01-2.89002E-02 9.24657E-04 3.85482E-01 8.88677E-15 3.78801E-13
 -1      1515 2.09373E+01-3.91115E-02 1.23260E-02 6.87584E-01 7.02281E-14 3.73731E-13
 -1      1516 1.91965E+01 2.83996E-02-1.65510E-02 3.69740E-01 8.15363E-14 1.85057E-13
 -1      1517 1.97527E+01 1.25240E-02-5.06080E-03 3.73784E-01 6.74478E-14 3.12868E-13
 -1      1518 2.02032E+01 1.91197E-02 1.88874E-03 7.28364E-01 7.07455E-14 1.96407E-13
 -1      1519 1.85280E+01 5.11985E-02-2.90125E-02 2.04105E-01-2.32869E-14 1.66724E-13
 -1      1520 1.89154E+01 5.76754E-02-1.15792E-02 2.43005E-01 3.62939E-14 1.62488E-13
 -1      1521 1.95462E+01 8.76524E-02-1.04486E-02 5.51497E-01 7.97765E-14 1.41422E-13
 -1      1522 1.83769E+01 5.59974E-02-3.13157E-02-3.99695E-02 8.03628E-14 1.88217E-14
 -1      1523 1.84564E+01 8.57868E-02-1.47809E-02 2.24226E-02 3.39277E-14 6.62734E-14
 -1      1524 1.91869E+01 1.34909E-01-1.90285E-02 1.80550E-01 7.18852E-14 5.13552E-14
 -1      1525 1.88117E+01 4.01380E-02-2.11900E-02-2.74438E-01 8.83182E-14-2.07927E-13
 -1      1526 1.85475E+01 8.29829E-02-1.20148E-02-2.11573E-01 1.03243E-13-2.07716E-14
 -1      1527 1.92637E+01 1.34424E-01-2.00990E-02-2.64473E-01 1.59176E-13-6.31726E-14
 -1      1528 1.96900E+01 1.27256E-02-3.92682E-03-4.16752E-01 4.32770E-15-3.42157E-13
 -1      1529 1.91688E+01 5.24048E-02-4.22338E-03-3.75060E-01 2.22296E-14-3.16178E-13
 -1      1530 1.97590E+01 8.51050E-02-1.44654E-02-6.23640E-01 1.31127E-13-2.09903E-13
 -1      1531 2.07369E+01-1.27044E-02 1.16962E-02-4.34414E-01-9.69752E-14-2.68431E-13
 -1      1532 2.01205E+01 1.12327E-02 4.48525E-03-4.22768E-01-6.02060E-14-3.48395E-13
 -1      1533 2.05106E+01 1.31822E-02-6.30002E-03-7.84981E-01-3.44396E-14-2.90198E-13
 -1      1534 2.16792E+01-2.74343E-02 1.98989E-02-3.50878E-01-6.17215E-15-1.27936E-13
 -1      1535 2.11267E+01-2.24857E-02 1.00902E-02-3.64269E-01-5.67506E-14-1.74208E-13
 -1      1536 2.12979E+01-4.78475E-02 5.54770E-04-7.34878E-01-1.08054E-13-1.76567E-13
 -1      1537 2.23433E+01-3.04755E-02 2.02084E-02-2.17730E-01 9.26542E-14-1.78763E-13
 -1      1538 2.19546E+01-3.98926E-02 1.12034E-02-2.44292E-01 4.72287E-14-8.38982E-14
 -1      1539 2.19378E+01-7.91254E-02 4.42518E-03-5.39858E-01 1.43384E-14-2.58358E-13
 -1      1540 2.26772E+01-2.56625E-02 1.55741E-02-8.31600E-02 8.38852E-14-3.35593E-13
 -1      1541 2.24808E+01-4.19470E-02 8.93604E-03-1.11696E-01 5.64652E-14-2.09277E-13
 -1      1542 2.23351E+01-8.10763E-02 5.54763E-03-2.91993E-01 1.62429E-13-3.24994E-13
 -1      1543 2.27186E+01-1.76789E-02 9.46225E-03 2.39172E-02 3.82069E-14-4.45562E-13
 -1      1544 2.26908E+01-3.45063E-02 5.33631E-03 2.71485E-04 7.59527E-14-3.73461E-13
 -1      1545 2.24794E+01-6.48513E-02 4.98082E-03-6.42366E-02 1.08612E-13-3.30532E-13
 -1      1546 2.25479E+01-9.84177E-03 4.13308E-03 9.41160E-02-9.86559E-14-3.35921E-13
 -1      1547 2.26408E+01-2.35944E-02 2.03969E-03 7.78358E-02-7.29299E-14-4.58006E-13
 -1      1548 2.24149E+01-4.24824E-02 3.73508E-03 1.05725E-01-4.54927E-14-4.11663E-13
 -1      1549 2.22509E+01-3.70704E-03 4.41674E-04 1.30558E-01-1.63394E-14-1.99232E-13
 -1      1550 2.24144E+01-1.31830E-02-2.15110E-04 1.21297E-01-2.93103E-15-2.23669E-13
 -1      1551 2.22072E+01-2.18926E-02 2.43611E-03 2.10200E-01-1.06058E-13-2.60623E-13
 -1      1552 2.18986E+01 4.05534E-04-1.65835E-03 1.41591E-01-6.53339E-14-1.81213E-13
 -1      1553 2.20919E+01-5.05906E-03-1.38505E-03 1.37780E-01-1.58822E-14-1.94045E-13
 -1      1554 2.19202E+01-6.44215E-03 1.36442E-03 2.58675E-01-8.01898E-15-6.55782E-14
 -1      1555 2.15417E+01 2.78029E-03-2.57536E-03 1.36115E-01-7.24832E-14-1.10118E-13
 -1      1556 2.17363E+01 4.42426E-04-1.75182E-03 1.35982E-01-3.99588E-14-1.76231E-13
 -1      1557 2.16049E+01 3.50228E-03 5.87339E-04 2.66716E-01-2.38110E-15 1.07280E-14
 -1      1558 2.12112E+01 3.88353E-03-2.75077E-03 1.21461E-01-7.17124E-14-5.08187E-15
 -1      1559 2.13900E+01 3.68833E-03-1.64866E-03 1.23505E-01-1.10613E-13-1.14307E-13
 -1      1560 2.12966E+01 8.93295E-03 7.32397E-05 2.49443E-01-1.19153E-13 1.09603E-13
 -1      1561 2.09229E+01 4.15661E-03-2.52817E-03 1.02869E-01-4.14841E-14 9.71146E-14
 -1      1562 2.10776E+01 5.26148E-03-1.33485E-03 1.05986E-01-5.18377E-14 3.68247E-14
 -1      1563 2.10162E+01 1.11728E-02-2.38776E-04 2.18826E-01-1.06074E-13 1.01993E-13
 -1      1564 2.06826E+01 3.94330E-03-2.13399E-03 8.36937E-02-4.29949E-14 1.22164E-13
 -1      1565 2.08105E+01 5.71868E-03-9.71439E-04 8.71523E-02-2.31375E-14 1.25607E-13
 -1      1566 2.07742E+01 1.13998E-02-4.07335E-04 1.83205E-01-6.84834E-14 8.85431E-14
 -1      1567 2.04892E+01 3.48326E-03-1.70050E-03 6.58564E-02-1.75133E-13 3.42741E-13
 -1      1568 2.05911E+01 5.50184E-03-6.40896E-04 6.92166E-02-7.05991E-14 2.69267E-13
 -1      1569 2.05734E+01 1.04998E-02-4.79356E-04 1.47807E-01-1.14378E-13 3.54852E-13
 -1      1570 2.03383E+01 2.93029E-03-1.29610E-03 5.02930E-02-4.43807E-14 4.95880E-13
 -1      1571 2.04171E+01 4.92643E-03-3.75320E-04 5.33193E-02-1.05741E-13 3.17442E-13
 -1      1572 2.04122E+01 9.07271E-03-4.89562E-04 1.15541E-01-1.29367E-13 3.91950E-13
 -1      1573 2.02239E+01 2.37560E-03-9.50209E-04 3.73136E-02 1.63492E-13 3.19496E-13
 -1      1574 2.02830E+01 4.20070E-03-1.79249E-04 3.99048E-02 8.22212E-14 4.72968E-13
 -1      1575 2.02864E+01 7.49214E-03-4.62625E-04 8.77415E-02 7.96253E-14 2.60752E-13
 -1      1576 2.01396E+01 1.86814E-03-6.70475E-04 2.68620E-02 4.40579E-14 1.20451E-13
 -1      1577 2.01826E+01 3.45260E-03-4.45210E-05 2.89990E-02 9.28006E-14 2.55147E-13
 -1      1578 2.01910E+01 5.97133E-03-4.15594E-04 6.47569E-02 1.52526E-13 2.55428E-13
 -1      1579 2.00792E+01 1.43003E-03-4.53473E-04 1.86900E-02 9.75516E-14-2.14986E-13
 -1      1580 2.01096E+01 2.75421E-03 4.12813E-05 2.04002E-02 9.16687E-14 1.26227E-14
 -1      1581 2.01205E+01 4.61787E-03-3.59915E-04 4.63662E-02 1.82205E-13 7.31104E-14
 -1      1582 2.00376E+01 1.06715E-03-2.90941E-04 1.24674E-02 7.30817E-14-5.44608E-13
 -1      1583 2.00582E+01 2.14092E-03 9.06224E-05 1.38011E-02 8.49743E-14-3.79077E-13
 -1      1584 2.00699E+01 3.47390E-03-3.02979E-04 3.20589E-02 1.48837E-13-2.60448E-13
 -1      1585 2.00101E+01 7.76274E-04-1.73175E-04 7.84781E-03-6.99540E-14-4.12074E-13
 -1      1586 2.00234E+01 1.62511E-03 1.14252E-04 8.86402E-03-1.03378E-13-4.65266E-13
 -1      1587 2.00348E+01 2.54337E-03-2.49276E-04 2.12109E-02-5.81247E-14-2.14418E-13
 -1      1588 1.99931E+01 5.49532E-04-9.07664E-05 4.50586E-03-8.45839E-14-2.64738E-13
 -1      1589 2.00010E+01 1.20562E-03 1.20705E-04 5.26317E-03-1.23716E-15-2.81894E-13
 -1      1590 2.00114E+01 1.80978E-03-2.01266E-04 1.31886E-02-2.83287E-14-2.49482E-14
 -1      1591 1.99835E+01 3.77195E-04-3.53860E-05 2.15479E-03 1.06198E-13-3.72460E-13
 -1      1592 1.99876E+01 8.73941E-04 1.16387E-04 2.70702E-03 5.87292E-14-3.29094E-13
 -1      1593 1.99968E+01 1.24714E-03-1.60025E-04 7.40695E-03 5.42611E-14-9.33313E-14
 -1      1594 1.99793E+01 2.49247E-04-5.68741E-08 5.53484E-04-1.14683E-13-4.21030E-13
 -1      1595 1.99808E+01 6.18097E-04 1.05887E-04 9.47318E-04 3.49870E-14-4.63429E-13
 -1      1596 1.99885E+01 8.26528E-04-1.25712E-04 3.35604E-03 3.16060E-14-1.02629E-13
 -1      1597 1.99786E+01 1.56206E-04 2.08675E-05-4.93245E-04 1.86599E-14-2.38841E-13
 -1      1598 1.99783E+01 4.25009E-04 9.23379E-05-2.18997E-04-1.46124E-13-4.11000E-13
 -1      1599 1.99847E+01 5.19715E-04-9.78949E-05 6.11024E-04-1.53062E-13-3.38022E-13
 -1      1600 1.99802E+01 8.94379E-05 3.18888E-05-1.13749E-03 6.42726E-15-4.92937E-13
 -1      1601 1.99788E+01 2.81705E-04 7.77735E-05-9.51925E-04 4.22084E-14-3.25431E-13
 -1      1602 1.99839E+01 3.00854E-04-7.57483E-05-1.16895E-03 7.47652E-14-4.20030E-13
 -1      1603 1.99832E+01 4.11184E-05 3.67235E-05-1.49215E-03 4.49963E-15-4.31906E-13
 -1      1604 1.99812E+01 1.75782E-04 6.34717E-05-1.37200E-03 5.65048E-14-3.98853E-13
 -1      1605 1.99850E+01 1.46966E-04-5.81146E-05-2.24619E-03 3.51531E-14-1.48539E-13
 -1      1606 1.99869E+01 3.88160E-06 3.90007E-05-1.63421E-03-1.40788E-13-1.82333E-13
 -1      1607 1.99846E+01 9.52077E-05 5.04068E-05-1.56383E-03-1.33420E-13-5.29001E-13
 -1      1608 1.99873E+01 3.75133E-05-4.33537E-05-2.81122E-03-2.40644E-14-3.04039E-13
 -1      1609 1.99908E+01-2.95491E-05 4.33525E-05-1.60650E-03 1.70846E-13-2.27610E-13
 -1      1610 1.99885E+01 2.76603E-05 4.00398E-05-1.57832E-03 3.64958E-14-1.66678E-13
 -1      1611 1.99902E+01-4.66967E-05-2.88032E-05-2.98785E-03-5.48579E-14-2.04682E-13
 -1      1612 1.99945E+01-6.69848E-05 5.46250E-05-1.41749E-03 8.52864E-14-5.85564E-13
 -1      1613 1.99924E+01-4.02522E-05 3.49987E-05-1.43335E-03 1.08320E-13-4.52830E-13
 -1      1614 1.99932E+01-1.25486E-04-1.05067E-05-2.83582E-03 2.24470E-13-5.08674E-15
 -1      1615 1.99975E+01-1.17012E-04 6.77030E-05-1.03829E-03-1.15409E-13-7.26824E-13
 -1      1616 1.99958E+01-1.24016E-04 3.64041E-05-1.11516E-03 2.88928E-14-6.91755E-13
 -1      1617 1.99960E+01-2.22293E-04 1.37405E-05-2.35247E-03 1.18446E-13-2.21291E-13
 -1      1618 1.99993E+01-1.84551E-04 2.61353E-05-4.63183E-04 6.22482E-14-6.59556E-13
 -1      1619 1.99984E+01-2.17449E-04 3.46835E-05-5.98627E-04 3.55549E-14-6.93992E-13
 -1      1620 1.99982E+01-3.57758E-04 3.58619E-05-1.49687E-03 5.76147E-14-3.71405E-13
 -1      1621 1.99997E+01-1.74232E-04 1.93059E-05-7.99221E-05-3.52339E-13-4.49584E-13
 -1      1622 1.99996E+01-1.87067E-03 2.98140E-05-8.93709E-04-1.22170E-14 4.93256E-13
 -1      1623 1.99996E+01-9.44036E-04 5.93103E-06-7.40057E-04-4.67641E-13 2.17839E-13
 -1      1624 1.99997E+01-4.36979E-03 6.73781E-06-1.30484E-03 5.95197E-13 2.55033E-13
 -1      1625 1.99997E+01-2.85294E-03 1.82151E-05-1.24830E-03 2.21919E-13 4.15448E-13
 -1      1626 1.99995E+01-2.39541E-03 3.17936E-05-2.05322E-03 1.47796E-13 6.17770E-13
 -1      1627 1.99998E+01-7.24289E-03-6.91312E-06-1.42255E-03 5.62536E-13-1.21727E-13
 -1      1628 1.99998E+01-5.52807E-03 5.65567E-06-1.42332E-03 4.76227E-13 2.17369E-13
 -1      1629 1.99997E+01-4.50476E-03 1.19755E-05-2.61151E-03 1.44615E-13 3.55129E-13
 -1      1630 1.99999E+01-1.00373E-02-1.09659E-05-1.31940E-03-2.20757E-13-5.64318E-13
 -1      1631 1.99998E+01-8.41465E-03-1.81883E-06-1.35721E-03 3.20233E-13-2.79614E-13
 -1      1632 1.99999E+01-6.79432E-03-1.02172E-05-2.66550E-03-1.56898E-13-4.27383E-13
 -1      1633 1.99999E+01-1.23808E-02-9.98706E-06-1.07652E-03-1.41602E-12-7.75473E-13
 -1      1634 1.99999E+01-1.10573E-02-3.02395E-06-1.13401E-03-3.87529E-13-7.30852E-13
 -1      1635 2.00000E+01-8.94193E-03-2.55530E-05-2.35655E-03-5.30275E-13-9.97243E-13
 -1      1636 1.99999E+01-1.41406E-02-7.39493E-06-7.44432E-04-1.75979E-12-1.84109E-14
 -1      1637 1.99999E+01-1.31889E-02-3.03745E-06-8.14640E-04-1.47944E-12-3.96364E-13
 -1      1638 2.00000E+01-1.07269E-02-3.35299E-05-1.81914E-03-7.17021E-13-8.65739E-13
 -1      1639 1.99999E+01-1.51431E-02-4.80191E-06-3.66456E-04-1.40813E-12 2.33351E-13
 -1      1640 1.99999E+01-1.46493E-02-2.56978E-06-4.42064E-04-1.79172E-12 3.01774E-13
 -1      1641 2.00000E+01-1.20083E-02-3.79751E-05-1.14261E-03-8.40130E-13 9.20911E-14
 -1      1642 1.99999E+01-1.53292E-02-3.16016E-06 3.14564E-05-1.10364E-12 5.93313E-14
 -1      1643 1.99999E+01-1.53209E-02-3.15752E-06-4.60465E-05-1.35515E-12 2.46952E-13
 -1      1644 2.00000E+01-1.26767E-02-3.98561E-05-3.97489E-04-7.60791E-13 2.88464E-13
 -1      1645 1.99999E+01-1.46843E-02-2.64282E-06 4.30233E-04-9.77597E-13 1.16736E-13
 -1      1646 1.99999E+01-1.51644E-02-4.94956E-06 3.53716E-04-1.21047E-12-2.20983E-14
 -1      1647 2.00001E+01-1.26900E-02-4.01271E-05 3.71078E-04-5.93002E-13-5.09960E-14
 -1      1648 1.99999E+01-1.32398E-02-3.03928E-06 8.09300E-04-1.13464E-12-1.53319E-13
 -1      1649 1.99999E+01-1.41849E-02-7.88707E-06 7.37669E-04-9.97775E-13 1.02605E-14
 -1      1650 2.00000E+01-1.20444E-02-3.86275E-05 1.12466E-03-7.16011E-13 8.30199E-14
 -1      1651 1.99999E+01-1.11273E-02-3.72146E-06 1.13352E-03-9.46867E-13 2.04015E-13
 -1      1652 1.99999E+01-1.24522E-02-1.05951E-05 1.07471E-03-1.00090E-12-1.05484E-13
 -1      1653 2.00000E+01-1.07892E-02-3.46719E-05 1.81062E-03-6.79819E-13-1.23898E-13
 -1      1654 1.99998E+01-8.44967E-03-1.99735E-06 1.36726E-03-6.99360E-13 1.48473E-14
 -1      1655 1.99999E+01-1.00851E-02-1.15540E-05 1.32818E-03-9.46890E-13 3.85126E-13
 -1      1656 2.00000E+01-9.00553E-03-2.61713E-05 2.36443E-03-5.88483E-13 3.65413E-13
 -1      1657 1.99998E+01-5.54358E-03 4.36454E-06 1.44135E-03-6.31121E-13-1.54311E-14
 -1      1658 1.99998E+01-7.27054E-03-7.21459E-06 1.43618E-03-5.79832E-13 1.04943E-13
 -1      1659 1.99999E+01-6.82958E-03-1.07741E-05 2.68714E-03-3.74727E-13 1.89376E-13
 -1      1660 1.99997E+01-2.89202E-03 2.81986E-06 1.25352E-03-3.45071E-13 9.55745E-14
 -1      1661 1.99997E+01-4.38212E-03 4.89595E-06 1.31009E-03-5.15688E-13-2.90711E-14
 -1      1662 1.99997E+01-4.51445E-03 1.04979E-05 2.63391E-03-1.40773E-13-2.91309E-14
 -1      1663 1.99994E+01-1.17190E-03-1.68466E-05 1.04991E-03 1.85286E-14 1.64093E-13
 -1      1664 1.99995E+01-2.09867E-03 3.51752E-06 1.27947E-03-1.74006E-13 1.81346E-13
 -1      1665 1.99994E+01-2.53753E-03 4.93921E-05 2.39270E-03 5.35334E-14 3.52803E-13
 -1      1666 1.99987E+01-1.15518E-03 1.35991E-05 2.00011E-03-4.39801E-14 7.67599E-14
 -1      1667-5.44550E-01-1.44648E+01-1.62889E+00-7.56669E-01 1.65457E-12 8.64336E-13
 -1      1668-5.62755E-01-1.67315E+01-1.84119E+00 4.64688E-01 6.70602E-13 6.07014E-13
 -1      1669 1.41705E+00-7.96719E+00-1.17933E+00 6.04945E-01 2.36722E-12 1.19596E-12
 -1      1670 6.56112E-01-1.30803E+01-1.68238E+00 1.20036E-02 1.83353E-12 8.43582E-13
 -1      1671 6.49373E+00-4.80585E-01-5.65941E-01 4.39049E+00 2.41851E-12 1.53000E-12
 -1      1672 3.66832E+00-5.85073E+00-1.29019E+00 1.67940E+00 2.56239E-12 1.28764E-12
 -1      1673 1.67749E+01 4.69487E+00 1.92066E-01 9.42323E+00 1.88916E-12 1.89948E-12
 -1      1674 1.06360E+01 1.19283E+00-6.56029E-01 5.79656E+00 2.20868E-12 1.62015E-12
 -1      1675 3.03353E+01 6.62524E+00 9.11224E-01 1.26225E+01 1.44507E-12 1.83253E-12
 -1      1676 2.14941E+01 6.14330E+00 9.27174E-02 1.04318E+01 1.74749E-12 1.95866E-12
 -1      1677 4.39839E+01 5.18546E+00 1.41728E+00 1.05725E+01 8.97601E-13 8.17235E-13
 -1      1678 3.54473E+01 6.53819E+00 7.85665E-01 1.16839E+01 1.27748E-12 1.47704E-12
 -1      1679 5.32522E+01 3.75030E+00 1.77373E+00 4.62095E+00 5.58276E-13-4.25326E-13
 -1      1680 4.78330E+01 5.16012E+00 1.38783E+00 9.09133E+00 7.57255E-13 4.60076E-13
 -1      1681 5.38692E+01 3.80729E+00 1.70047E+00-3.44327E+00 6.30523E-13-1.64871E-12
 -1      1682 5.43867E+01 3.65236E+00 1.73865E+00 2.12072E+00 5.45952E-13-8.35387E-13
 -1      1683 4.55172E+01 5.57304E+00 1.27348E+00-9.86711E+00 1.14328E-12-2.47269E-12
 -1      1684 5.19029E+01 3.97417E+00 1.70134E+00-5.79221E+00 7.27696E-13-1.96221E-12
 -1      1685 3.19335E+01 6.89344E+00 6.45548E-01-1.19962E+01 1.90253E-12-2.87548E-12
 -1      1686 4.14978E+01 5.69998E+00 1.40058E+00-1.16961E+01 1.41895E-12-2.67086E-12
 -1      1687 1.88329E+01 4.67290E+00-1.02705E-01-9.09064E+00 2.42384E-12-2.65887E-12
 -1      1688 2.69302E+01 6.01025E+00 7.24440E-01-1.17955E+01 2.08156E-12-2.81664E-12
 -1      1689 8.19014E+00-3.66109E-01-8.51099E-01-4.56395E+00 2.81020E-12-2.15261E-12
 -1      1690 1.35193E+01 3.85663E+00-7.13681E-03-8.23684E+00 2.68385E-12-2.58060E-12
 -1      1691 2.78867E+00-8.62312E+00-1.42275E+00-1.06492E+00 2.05125E-12-1.38312E-12
 -1      1692 5.12758E+00-2.76981E+00-7.08371E-01-3.39336E+00 2.58127E-12-1.89504E-12
 -1      1693-1.95677E-02-1.53091E+01-1.87109E+00 2.32522E-01 9.67448E-13-7.23949E-13
 -1      1694 2.82035E-01-1.07428E+01-1.41821E+00 3.91389E-01 1.88294E-12-1.19405E-12
 -1      1695-7.37648E-01-1.73882E+01-1.92932E+00-6.91035E-01-3.36960E-13-5.32296E-13
 -1      1696-7.37978E-01-1.64041E+01-1.83729E+00 8.37663E-01 5.74818E-13-5.58220E-13
 -1      1697-5.08473E-01-1.43376E+01-1.70916E+00-1.22472E+00-1.51767E-12-8.59923E-13
 -1      1698-5.01388E-01-1.70375E+01-1.94421E+00-2.25855E-01-7.22200E-13-5.93331E-13
 -1      1699 1.57631E+00-7.75262E+00-1.25884E+00 4.01154E-01-2.29539E-12-1.38184E-12
 -1      1700 7.08869E-01-1.28447E+01-1.78185E+00-4.60540E-01-1.79168E-12-9.76594E-13
 -1      1701 7.35778E+00-3.30002E-01-5.87875E-01 4.64274E+00-2.56373E-12-2.06024E-12
 -1      1702 4.10209E+00-5.68625E+00-1.36224E+00 1.66425E+00-2.38742E-12-1.57185E-12
 -1      1703 1.87449E+01 4.68589E+00 2.43751E-01 9.81534E+00-2.23577E-12-2.32470E-12
 -1      1704 1.18319E+01 1.28092E+00-6.90452E-01 6.03829E+00-2.46581E-12-2.11120E-12
 -1      1705 3.26748E+01 6.32416E+00 1.02068E+00 1.25857E+01-1.63025E-12-2.21667E-12
 -1      1706 2.37000E+01 5.94126E+00 1.33265E-01 1.06297E+01-2.07245E-12-2.34435E-12
 -1      1707 4.62090E+01 5.07773E+00 1.59534E+00 1.08186E+01-9.73166E-13-1.33205E-12
 -1      1708 3.76162E+01 6.58582E+00 9.51899E-01 1.21970E+01-1.44268E-12-1.96687E-12
 -1      1709 5.42709E+01 3.85438E+00 1.83007E+00 3.81070E+00-6.58890E-13 1.46883E-13
 -1      1710 4.90932E+01 5.15016E+00 1.48433E+00 8.43219E+00-9.17474E-13-8.24008E-13
 -1      1711 5.50102E+01 3.95852E+00 1.84440E+00-4.07888E+00-6.70214E-13 1.44568E-12
 -1      1712 5.60363E+01 3.67979E+00 1.90293E+00 1.62741E+00-5.33240E-13 5.90375E-13
 -1      1713 4.60365E+01 5.47164E+00 1.32118E+00-9.78564E+00-1.21439E-12 2.38609E-12
 -1      1714 5.27454E+01 3.98363E+00 1.81367E+00-6.11378E+00-7.84539E-13 1.81677E-12
 -1      1715 3.28921E+01 6.35619E+00 6.39236E-01-1.16390E+01-1.86162E-12 2.90878E-12
 -1      1716 4.20363E+01 5.35300E+00 1.38317E+00-1.14287E+01-1.40760E-12 2.71205E-12
 -1      1717 1.91775E+01 4.80722E+00-1.63539E-01-9.20324E+00-2.39275E-12 2.74669E-12
 -1      1718 2.76003E+01 6.04621E+00 7.22175E-01-1.19269E+01-2.11287E-12 2.91744E-12
 -1      1719 8.84141E+00-4.13281E-01-9.03336E-01-4.57346E+00-1.87583E-12 2.02838E-12
 -1      1720 1.43400E+01 3.56286E+00-5.54269E-02-8.18538E+00-2.27640E-12 2.76223E-12
 -1      1721 2.84894E+00-7.75737E+00-1.45802E+00-7.86207E-01-1.10956E-12 1.08646E-12
 -1      1722 5.19399E+00-2.31079E+00-7.95025E-01-3.15141E+00-1.70686E-12 1.77713E-12
 -1      1723 4.24597E-01-1.39409E+01-1.70693E+00 2.45486E-01-3.46723E-13 4.92592E-13
 -1      1724 9.46370E-01-9.52324E+00-1.30564E+00-1.43343E-02-8.70748E-13 8.20136E-13
 -1      1725-6.76603E-01-1.71114E+01-1.88716E+00-9.27203E-02 4.12587E-13 2.46303E-13
 -1      1726-7.61020E-01-1.55069E+01-1.76021E+00 1.30444E+00-1.57097E-13 2.67036E-13
 -1      1727 2.35993E+01 9.12658E-01 2.26465E-01 7.54949E+00 1.17828E-12 1.09068E-12
 -1      1728 1.37615E+01-3.04141E+00-3.32251E-01 6.45394E+00 1.40288E-12 8.61311E-13
 -1      1729 1.99995E+01-4.05949E-04 4.42345E-05-4.68507E-04-4.27038E-13-2.55101E-13
 -1      1730 1.99991E+01-9.54447E-04 2.44000E-05-1.27483E-03-7.32275E-14 1.04597E-13
 -1      1731 5.87660E-01-1.01122E+01-1.16022E+00 2.56484E+00 8.30835E-13 1.05044E-12
 -1      1732 5.69967E+00-7.11785E+00-8.55134E-01 4.53544E+00 1.32017E-12 9.65616E-13
 -1      1733-1.39324E+00-1.16638E+01-1.33620E+00 3.85228E-01 4.88290E-13 8.87845E-13
 -1      1734 3.38517E+01 4.15334E+00 8.36383E-01 6.95708E+00 1.07778E-12 6.27609E-13
 -1      1735 4.17509E+01 6.24457E+00 1.19675E+00 4.52815E+00 1.08272E-12-1.14686E-13
 -1      1736 4.64718E+01 7.28009E+00 1.46786E+00 1.56059E+00 1.00414E-12-5.81368E-13
 -1      1737 4.56675E+01 7.28796E+00 1.41634E+00-2.08727E+00 9.93650E-13-1.12249E-12
 -1      1738 4.04140E+01 5.94842E+00 1.16876E+00-5.27054E+00 1.17957E-12-1.56142E-12
 -1      1739 3.16016E+01 3.03941E+00 6.45759E-01-6.96477E+00 1.37529E-12-1.74083E-12
 -1      1740 2.12898E+01-2.30853E-01 1.27290E-01-7.31419E+00 1.61049E-12-1.74571E-12
 -1      1741 1.14538E+01-4.43024E+00-5.06343E-01-6.05048E+00 1.45239E-12-1.51529E-12
 -1      1742 4.03518E+00-8.35819E+00-9.31624E-01-4.13474E+00 1.03462E-12-1.45772E-12
 -1      1743-5.18305E-01-1.14383E+01-1.32907E+00-1.62949E+00 4.92051E-13-1.14986E-12
 -1      1744-1.36334E+00-1.20630E+01-1.40655E+00 3.31555E-01-2.81997E-13-1.06548E-12
 -1      1745 9.73285E-01-1.04764E+01-1.25904E+00 2.34386E+00-8.71803E-13-1.12563E-12
 -1      1746 6.43210E+00-7.23160E+00-9.00786E-01 4.41847E+00-1.32150E-12-1.29939E-12
 -1      1747 1.51710E+01-3.21920E+00-3.32134E-01 6.37815E+00-1.42375E-12-1.38950E-12
 -1      1748 2.54983E+01 6.95481E-01 2.49216E-01 7.24716E+00-1.42442E-12-1.26343E-12
 -1      1749 3.57254E+01 4.06254E+00 8.90329E-01 6.99401E+00-1.28825E-12-1.03695E-12
 -1      1750 4.32718E+01 6.28710E+00 1.30943E+00 4.36281E+00-1.21414E-12-3.24851E-13
 -1      1751 4.69952E+01 7.59976E+00 1.52195E+00 9.87081E-01-1.16779E-12 2.69423E-13
 -1      1752 4.66506E+01 7.21654E+00 1.52412E+00-1.90459E+00-1.10034E-12 9.60287E-13
 -1      1753 4.11661E+01 5.51216E+00 1.19194E+00-4.77380E+00-1.21456E-12 1.44362E-12
 -1      1754 3.24347E+01 2.94493E+00 6.98681E-01-6.94543E+00-1.38606E-12 1.77636E-12
 -1      1755 2.18145E+01-3.38515E-01 5.50424E-02-7.07030E+00-1.23657E-12 1.83131E-12
 -1      1756 1.20182E+01-4.32179E+00-5.48432E-01-5.70662E+00-8.38218E-13 1.76814E-12
 -1      1757 4.71072E+00-8.03786E+00-9.63786E-01-3.89986E+00-4.75620E-13 1.19351E-12
 -1      1758 1.63748E-01-1.05874E+01-1.19428E+00-1.94871E+00-3.76921E-14 6.97775E-13
 -1      1759 2.31969E+01 1.95488E+00-2.65974E-02-2.48370E+00-2.81150E-13 1.23002E-12
 -1      1760 2.00708E+01 3.78725E+00-3.76299E-02-1.68305E+00-3.76594E-13-3.47944E-13
 -1      1761 2.04063E+01 3.61753E+00-3.56026E-02-1.97996E+00-4.26064E-13-2.16060E-13
 -1      1762 2.07897E+01 3.19045E+00-4.64804E-02-2.15092E+00-4.26348E-13-5.12507E-14
 -1      1763 2.10710E+01 2.79858E+00-1.33983E-01-2.44406E+00-4.48310E-13 1.73681E-13
 -1      1764 2.08332E+01 2.74153E+00-1.52790E-03-1.74635E+00-4.43137E-13-1.04538E-13
 -1      1765 1.91494E+01 4.38105E+00-2.10156E-02-8.89367E-01-2.11956E-13-5.71574E-13
 -1      1766 1.93338E+01 4.33310E+00-1.31315E-02-1.07696E+00-2.54534E-13-5.45635E-13
 -1      1767 1.88655E+01 4.52644E+00-1.63772E-02-5.86158E-01-1.29134E-13-6.14923E-13
 -1      1768 1.89960E+01 4.49817E+00-1.06298E-02-7.43243E-01-1.64545E-13-5.99581E-13
 -1      1769 1.92307E+01 4.07025E+00-6.05009E-03-7.47142E-01-2.08243E-13-5.64021E-13
 -1      1770 1.86933E+01 4.60758E+00-1.30583E-02-3.26637E-01-4.39592E-14-6.14052E-13
 -1      1771 1.87667E+01 4.59422E+00-1.00857E-02-4.63186E-01-8.31889E-14-6.17872E-13
 -1      1772 1.89498E+01 4.23772E+00-5.73214E-03-4.84993E-01-1.09605E-13-5.83782E-13
 -1      1773 1.86335E+01 4.63448E+00-1.08002E-02-8.70237E-02 4.59570E-14-6.06105E-13
 -1      1774 1.86498E+01 4.63306E+00-1.06591E-02-2.15697E-01 3.99897E-15-6.08982E-13
 -1      1775 1.87926E+01 4.32169E+00-5.58639E-03-2.55968E-01-2.49034E-14-5.86222E-13
 -1      1776 1.86826E+01 4.61293E+00-9.54822E-03 1.56271E-01 1.25286E-13-5.92906E-13
 -1      1777 1.86442E+01 4.62205E+00-1.20329E-02 2.36065E-02 8.69585E-14-6.04253E-13
 -1      1778 1.87583E+01 4.33276E+00-5.80973E-03-3.80584E-02 7.34008E-14-5.82383E-13
 -1      1779 1.88332E+01 4.54539E+00-9.43657E-03 4.24923E-01 1.89905E-13-5.72958E-13
 -1      1780 1.87444E+01 4.56523E+00-1.41026E-02 2.77401E-01 1.63679E-13-5.92075E-13
 -1      1781 1.88416E+01 4.27743E+00-6.38559E-03 1.90542E-01 1.51488E-13-5.70069E-13
 -1      1782 1.90714E+01 4.43258E+00-1.06478E-02 7.32134E-01 2.62533E-13-5.09103E-13
 -1      1783 1.89392E+01 4.46395E+00-1.70534E-02 5.63067E-01 2.23116E-13-5.42880E-13
 -1      1784 1.90317E+01 4.15955E+00-7.04594E-03 4.46322E-01 2.22168E-13-5.32177E-13
 -1      1785 1.94017E+01 4.25930E+00-1.40292E-02 1.10438E+00 3.60083E-13-4.02067E-13
 -1      1786 1.92223E+01 4.31008E+00-2.14204E-02 8.98083E-01 3.06827E-13-4.57707E-13
 -1      1787 1.93199E+01 3.97396E+00-7.86194E-03 7.45223E-01 3.10740E-13-4.48461E-13
 -1      1788 1.98329E+01 3.99336E+00-2.22307E-02 1.54897E+00 4.45145E-13-2.62131E-13
 -1      1789 1.95993E+01 4.08020E+00-2.84038E-02 1.29758E+00 3.98431E-13-3.48284E-13
 -1      1790 1.97097E+01 3.69993E+00-7.96326E-03 1.09603E+00 4.05057E-13-3.38630E-13
 -1      1791 2.04144E+01 3.54454E+00-4.19695E-02 2.05906E+00 4.90533E-13-3.21618E-15
 -1      1792 2.00935E+01 3.71851E+00-4.08695E-02 1.75836E+00 4.56923E-13-1.60535E-13
 -1      1793 2.02180E+01 3.29133E+00-4.98804E-03 1.48496E+00 4.70030E-13-1.84578E-13
 -1      1794 2.13540E+01 2.66270E+00-5.41982E-02 2.50285E+00 4.72603E-13 4.86548E-13
 -1      1795 2.08134E+01 3.09167E+00-5.01830E-02 2.23124E+00 4.70799E-13 1.96537E-13
 -1      1796 2.09013E+01 2.62314E+00 3.34769E-03 1.82752E+00 4.97553E-13 1.08257E-13
 -1      1797 2.21670E+01 1.19035E+00-1.19225E-01 2.05539E+00 3.92894E-13 1.05425E-12
 -1      1798 2.17195E+01 2.23504E+00-4.89982E-04 2.42032E+00 4.33664E-13 6.82870E-13
 -1      1799 2.14263E+01 1.67274E+00-1.93946E-02 1.78279E+00 4.81139E-13 4.87652E-13
 -1      1800 2.14890E+01 7.66089E-01-5.76037E-02 1.25296E+00 3.98612E-13 9.31697E-13
 -1      1801 2.22548E+01 2.41853E+00 8.70162E-02-2.71273E+00-3.80579E-13 5.61315E-13
 -1      1802 2.08353E+01 3.03328E-01-5.73785E-03 3.85180E-01 2.99153E-13 7.32824E-13
 -1      1803 2.12684E+01 4.39395E-01-1.06359E-02 7.65239E-01 3.34566E-13 8.51125E-13
 -1      1804 2.13282E+01 8.36263E-01 2.29303E-04 1.08942E+00 3.95069E-13 5.98948E-13
 -1      1805 2.20035E+01 1.73175E+00 7.78325E-02-1.96192E+00-4.07136E-13 4.00839E-13
 -1      1806 2.12584E+01 5.31978E-01 3.34298E-02-5.25369E-01-3.16261E-13 3.27844E-13
 -1      1807 2.09804E+01 4.02079E-01 1.39364E-02-2.10586E-01-2.80671E-13 2.46454E-13
 -1      1808 2.08877E+01 3.20625E-01 2.80246E-02 7.44466E-02-2.53592E-13 2.35537E-13
 -1      1809 2.08780E+01 2.56582E-01 1.67143E-02 2.53565E-01-2.26129E-13 1.71074E-13
 -1      1810 2.10079E+01 5.67035E-01-8.97793E-03-1.63366E-01-3.14162E-13 6.27111E-14
 -1      1811 2.08840E+01 2.21290E-01 1.73759E-02 4.49775E-01-1.91646E-13 1.48348E-13
 -1      1812 2.10254E+01 1.93202E-01 1.36319E-02 5.75547E-01-1.47551E-13 1.05281E-13
 -1      1813 2.09191E+01 3.68201E-01-8.40986E-03 3.84819E-01-2.58607E-13 3.42304E-14
 -1      1814 2.11163E+01 1.74415E-01 9.61327E-03 7.24707E-01-1.07317E-13 9.94821E-14
 -1      1815 2.13649E+01 1.58058E-01 1.05706E-02 8.23863E-01-7.14333E-14 8.52853E-14
 -1      1816 2.10248E+01 2.78308E-01-7.54250E-03 7.75566E-01-1.52065E-13 1.32804E-14
 -1      1817 2.15256E+01 1.41957E-01 5.15595E-03 9.43065E-01-6.30915E-14 8.81402E-14
 -1      1818 2.18518E+01 1.22949E-01 7.22611E-03 1.02078E+00-6.04222E-14 5.59552E-14
 -1      1819 2.12848E+01 2.23601E-01-6.75857E-03 1.07881E+00-8.33754E-14-9.24174E-15
 -1      1820 2.20714E+01 9.85145E-02 2.60067E-03 1.10881E+00-6.37328E-14 4.66771E-14
 -1      1821 2.24474E+01 6.32148E-02 2.17395E-03 1.15505E+00-4.46830E-14 3.19085E-14
 -1      1822 2.16713E+01 1.60997E-01-6.24050E-03 1.31351E+00-7.32110E-14 1.33379E-15
 -1      1823 2.27197E+01 1.84020E-02 1.26146E-03 1.19354E+00-3.20285E-14 3.92455E-14
 -1      1824 2.31080E+01-4.83736E-02-5.76197E-03 1.18310E+00-3.43141E-14 3.84276E-14
 -1      1825 2.21647E+01 5.16044E-02-6.30528E-03 1.46014E+00-4.79790E-14-1.44411E-14
 -1      1826 2.34297E+01-1.26047E-01 1.07487E-03 1.13528E+00-2.60243E-14 7.69619E-14
 -1      1827 2.37744E+01-2.36575E-01-1.67459E-02 1.02882E+00-2.35489E-15 7.87209E-14
 -1      1828 2.27516E+01-1.45329E-01-6.94225E-03 1.46110E+00-2.08084E-14-1.09140E-14
 -1      1829 2.41383E+01-3.52070E-01 1.90289E-03 8.42638E-01-2.55265E-15 8.27411E-14
 -1      1830 2.43625E+01-5.00037E-01-2.86180E-02 5.97998E-01-1.33886E-14 6.07578E-14
 -1      1831 2.34184E+01-4.58484E-01-7.39180E-03 1.22231E+00-9.49154E-15-1.64257E-14
 -1      1832 2.47406E+01-6.31089E-01 1.99988E-03 2.25869E-01 1.68546E-14 1.02456E-13
 -1      1833 2.47580E+01-7.61854E-01-3.52636E-02-1.68111E-01 3.92898E-14 1.11703E-13
 -1      1834 2.41330E+01-8.59365E-01-5.59913E-03 6.34938E-01 2.51856E-14 8.85648E-14
 -1      1835 2.50690E+01-8.30273E-01-3.49302E-03-7.13182E-01 1.05749E-14 1.53496E-13
 -1      1836 2.48241E+01-8.18296E-01-2.67029E-02-1.17581E+00-6.24500E-17 1.75093E-13
 -1      1837 2.48027E+01-1.18303E+00 1.10020E-03-3.51141E-01 5.14736E-14 1.89143E-13
 -1      1838 2.49226E+01-6.90699E-01-1.79678E-02-1.72380E+00 4.97614E-14 1.70645E-13
 -1      1839 2.44527E+01-4.06378E-01-1.65251E-03-2.03097E+00 7.11540E-15 2.42447E-13
 -1      1840 2.52260E+01-1.08653E+00 1.13951E-02-1.56793E+00-2.91477E-15 2.80682E-13
 -1      1841 2.42409E+01-1.78633E-02-3.90537E-02-2.22704E+00-8.83477E-14 2.31593E-13
 -1      1842 2.37245E+01 4.87687E-01 1.80470E-02-2.09685E+00-2.21659E-13 2.25720E-13
 -1      1843 2.51624E+01-2.66394E-01 6.03730E-03-2.45894E+00-6.59785E-14 2.98708E-13
 -1      1844 2.33572E+01 9.61225E-01-4.20252E-02-1.62376E+00-3.65430E-13 1.30222E-13
 -1      1845 2.30571E+01 1.33753E+00 6.73161E-03-9.77031E-01-3.54466E-13-6.23156E-15
 -1      1846 2.46329E+01 1.07930E+00-3.15604E-02-2.22320E+00-3.62269E-13 1.76737E-13
 -1      1847 2.29422E+01 1.48604E+00-1.24041E-02 1.28181E-02-3.94906E-13-2.00467E-13
 -1      1848 2.30458E+01 1.37930E+00-2.58616E-02 8.19632E-01-4.12045E-13-3.47151E-13
 -1      1849 2.41652E+01 2.03973E+00-6.68258E-02-5.82988E-01-5.15726E-13-9.03828E-14
 -1      1850 2.33310E+01 1.05371E+00 1.57939E-02 1.66073E+00-3.17940E-13-4.59056E-13
 -1      1851 2.37858E+01 5.70226E-01-4.38834E-02 2.11607E+00-1.98341E-13-4.78527E-13
 -1      1852 2.43343E+01 1.76746E+00-5.51544E-02 1.50178E+00-4.23231E-13-3.41939E-13
 -1      1853 2.41538E+01 8.76826E-02 1.17846E-02 2.30088E+00-1.67564E-13-5.04477E-13
 -1      1854 2.47154E+01-3.54997E-01-3.15288E-02 2.22529E+00-1.09251E-13-5.75057E-13
 -1      1855 2.49601E+01 5.15776E-01-1.42061E-02 2.61847E+00-2.25500E-13-4.48155E-13
 -1      1856 2.48232E+01-6.40845E-01-1.39926E-02 1.83653E+00-2.41508E-14-5.54249E-13
 -1      1857 2.52503E+01-8.02702E-01-1.04983E-02 1.43293E+00 1.13949E-13-5.95426E-13
 -1      1858 2.53819E+01-6.87647E-01 1.16605E-02 2.30761E+00-5.40974E-14-5.04344E-13
 -1      1859 2.50687E+01-8.32168E-01-3.27628E-02 8.55120E-01 1.99825E-13-5.40372E-13
 -1      1860 2.52411E+01-7.65813E-01 3.10439E-04 4.05891E-01 1.98645E-13-5.13557E-13
 -1      1861 2.52710E+01-1.19406E+00 8.00213E-03 1.19676E+00 1.50533E-13-3.99757E-13
 -1      1862 2.49118E+01-6.57432E-01-3.40703E-02-7.31236E-02 1.30040E-13-4.46959E-13
 -1      1863 2.48395E+01-5.08211E-01 2.69121E-03-4.04669E-01 6.90299E-14-4.22369E-13
 -1      1864 2.47620E+01-1.06627E+00-1.69511E-03 3.96264E-02 2.24304E-13-3.32671E-13
 -1      1865 2.44837E+01-3.78146E-01-2.44484E-02-6.92762E-01 6.65171E-14-3.49123E-13
 -1      1866 2.42410E+01-2.42893E-01 1.74212E-03-8.72668E-01 1.40485E-13-2.98922E-13
 -1      1867 2.41027E+01-6.79202E-01-6.36555E-03-7.77580E-01 1.35961E-13-1.92651E-13
 -1      1868 2.39128E+01-1.43691E-01-1.26869E-02-9.92876E-01 7.01262E-14-2.93645E-13
 -1      1869 2.35832E+01-5.38881E-02 8.20952E-04-1.05235E+00 9.04324E-14-2.95804E-13
 -1      1870 2.34446E+01-3.06505E-01-6.80607E-03-1.20371E+00 1.21466E-13-1.09483E-13
 -1      1871 2.32963E+01 5.78039E-03-3.22580E-03-1.06094E+00 7.36984E-14-3.23534E-13
 -1      1872 2.29447E+01 5.33372E-02 6.69314E-04-1.04589E+00 4.14185E-14-2.65819E-13
 -1      1873 2.28452E+01-4.87473E-02-5.62197E-03-1.33140E+00 6.86974E-14-1.67482E-13
 -1      1874 2.26984E+01 8.24240E-02 2.76971E-03-9.93808E-01-4.48615E-14-3.02921E-13
 -1      1875 2.23656E+01 1.01161E-01 9.49085E-04-9.41747E-01-5.69727E-14-3.15440E-13
 -1      1876 2.23177E+01 9.38658E-02-4.44263E-03-1.27635E+00-4.33648E-15-2.94563E-13
 -1      1877 2.21563E+01 1.11169E-01 5.80176E-03-8.64009E-01-2.02501E-14-3.14974E-13
 -1      1878 2.18630E+01 1.13459E-01 1.29419E-03-7.99156E-01-1.54295E-14-3.22040E-13
 -1      1879 2.18615E+01 1.54926E-01-3.65592E-03-1.12989E+00-4.37868E-14-2.86700E-13
 -1      1880 2.16871E+01 1.13198E-01 6.82165E-03-7.16378E-01 1.50344E-14-3.42397E-13
 -1      1881 2.14406E+01 1.07489E-01 1.51878E-03-6.52074E-01 9.60657E-14-3.57205E-13
 -1      1882 2.14732E+01 1.67960E-01-3.16161E-03-9.51079E-01 1.48993E-14-1.36859E-13
 -1      1883 2.12950E+01 1.02505E-01 6.67480E-03-5.74852E-01 1.72815E-13-4.54151E-13
 -1      1884 2.10947E+01 9.37504E-02 1.58617E-03-5.17323E-01 9.65131E-14-3.31240E-13
 -1      1885 2.11481E+01 1.56721E-01-2.80593E-03-7.73273E-01 8.07338E-14-3.70343E-13
 -1      1886 2.09760E+01 8.71406E-02 5.95748E-03-4.50157E-01-5.13359E-14-3.21498E-13
 -1      1887 2.08173E+01 7.79348E-02 1.52769E-03-4.01560E-01-1.61058E-13-3.00821E-13
 -1      1888 2.08806E+01 1.35506E-01-2.49335E-03-6.12733E-01 6.32495E-14-4.19050E-13
 -1      1889 2.07222E+01 7.12638E-02 5.03459E-03-3.45589E-01-1.16244E-13-3.12603E-13
 -1      1890 2.05991E+01 6.28053E-02 1.39030E-03-3.05990E-01-1.67583E-14-3.61203E-13
 -1      1891 2.06643E+01 1.11991E-01-2.18636E-03-4.75607E-01-4.68947E-14-3.47309E-13
 -1      1892 2.05240E+01 5.67704E-02 4.10462E-03-2.60676E-01-5.14888E-14-4.17411E-13
 -1      1893 2.04302E+01 4.95055E-02 1.21442E-03-2.29203E-01-9.08030E-14-3.42205E-13
 -1      1894 2.04924E+01 8.98496E-02-1.88071E-03-3.62600E-01-6.87666E-14-2.45527E-13
 -1      1895 2.03720E+01 4.43482E-02 3.26177E-03-1.93292E-01-1.08072E-13-3.24130E-13
 -1      1896 2.03018E+01 3.83490E-02 1.02838E-03-1.68746E-01-3.96813E-14-3.06180E-13
 -1      1897 2.03580E+01 7.05566E-02-1.58502E-03-2.71794E-01-1.01499E-13-2.18920E-13
 -1      1898 2.02574E+01 3.40893E-02 2.54095E-03-1.40775E-01-2.50407E-15-3.13994E-13
 -1      1899 2.02057E+01 2.92602E-02 8.49714E-04-1.21934E-01 3.23602E-14-3.57764E-13
 -1      1900 2.02545E+01 5.44664E-02-1.30958E-03-2.00234E-01-9.55675E-15-1.37903E-13
 -1      1901 2.01724E+01 2.58213E-02 1.94631E-03-1.00476E-01 8.69368E-14-3.41098E-13
 -1      1902 2.01351E+01 2.20055E-02 6.87957E-04-8.62243E-02 6.46407E-14-3.58329E-13
 -1      1903 2.01763E+01 4.14159E-02-1.06200E-03-1.44757E-01 1.02156E-13-2.41496E-13
 -1      1904 2.01106E+01 1.92764E-02 1.46769E-03-7.00016E-02 3.83233E-15-3.71670E-13
 -1      1905 2.00843E+01 1.63066E-02 5.47286E-04-5.93784E-02-1.81196E-14-3.01453E-13
 -1      1906 2.01182E+01 3.10377E-02-8.46263E-04-1.02388E-01 4.65063E-14-2.93002E-13
 -1      1907 2.00666E+01 1.41720E-02 1.08953E-03-4.72949E-02-6.95624E-14-3.89672E-13
 -1      1908 2.00486E+01 1.18922E-02 4.28552E-04-3.94981E-02-1.89091E-14-4.34206E-13
 -1      1909 2.00759E+01 2.29131E-02-6.63180E-04-7.05012E-02-1.15697E-13-3.15172E-13
 -1      1910 2.00361E+01 1.02448E-02 7.95319E-04-3.06397E-02 2.60327E-13-6.06861E-13
 -1      1911 2.00242E+01 8.51835E-03 3.30671E-04-2.50148E-02 2.29685E-13-4.21587E-13
 -1      1912 2.00457E+01 1.66407E-02-5.11279E-04-4.68658E-02 4.93021E-14-3.83781E-13
 -1      1913 2.00157E+01 7.26382E-03 5.69594E-04-1.86347E-02 1.69378E-13-3.98198E-13
 -1      1914 2.00083E+01 5.97495E-03 2.51529E-04-1.46561E-02 8.66931E-14-2.00053E-13
 -1      1915 2.00249E+01 1.18632E-02-3.87706E-04-2.96335E-02 2.51793E-13-2.91312E-13
 -1      1916 2.00027E+01 5.03261E-03 3.98739E-04-1.01544E-02-1.35984E-13-7.08318E-14
 -1      1917 1.99984E+01 4.08485E-03 1.88532E-04-7.40640E-03-3.08449E-13-7.70781E-14
 -1      1918 2.00109E+01 8.27420E-03-2.88918E-04-1.73017E-02 1.65202E-14-2.52149E-13
 -1      1919 1.99951E+01 3.38674E-03 2.71166E-04-4.30844E-03-4.14840E-13 4.54420E-14
 -1      1920 1.99930E+01 2.70052E-03 1.38915E-04-2.46713E-03-2.96501E-13 5.57040E-15
 -1      1921 2.00021E+01 5.61648E-03-2.11176E-04-8.66840E-03-2.83747E-13 1.27699E-13
 -1      1922 1.99911E+01 2.18979E-03 1.77217E-04-4.04038E-04-1.38632E-13 1.54622E-13
 -1      1923 1.99905E+01 1.69954E-03 9.99078E-05 7.77958E-04 5.27990E-14 9.35262E-14
 -1      1924 1.99969E+01 3.67622E-03-1.50845E-04-2.78843E-03-1.95445E-13 4.32104E-13
 -1      1925 1.99897E+01 1.32848E-03 1.08988E-04 2.08642E-03 2.68102E-13-1.08593E-13
 -1      1926 1.99901E+01 9.79749E-04 6.88149E-05 2.79273E-03 3.07446E-13 6.08307E-14
 -1      1927 1.99943E+01 2.27599E-03-1.04576E-04 1.06704E-03 2.39101E-14 3.61907E-13
 -1      1928 1.99900E+01 7.07783E-04 6.00999E-05 3.55237E-03 2.75168E-13 1.92566E-13
 -1      1929 1.99910E+01 4.54207E-04 4.30805E-05 3.91269E-03 4.15309E-13 2.80167E-13
 -1      1930 1.99935E+01 1.26740E-03-6.93961E-05 3.44490E-03 3.78076E-13 2.54958E-13
 -1      1931 1.99914E+01 2.45626E-04 2.56926E-05 4.26606E-03 2.70813E-13 9.32723E-14
 -1      1932 1.99926E+01 4.61132E-05 2.05139E-05 4.36310E-03 2.05942E-13 3.06701E-14
 -1      1933 1.99938E+01 5.23203E-04-4.28769E-05 4.73854E-03 1.52320E-13 5.50292E-14
 -1      1934 1.99932E+01-1.31683E-04 2.46442E-06 4.39835E-03 2.58530E-14-1.58180E-13
 -1      1935 1.99946E+01-3.13381E-04 1.30197E-06 4.27203E-03-1.69893E-13-1.62992E-13
 -1      1936 1.99948E+01-6.88148E-05-2.27678E-05 5.21066E-03 3.75866E-15-1.36405E-13
 -1      1937 1.99952E+01-4.98136E-04-1.25271E-05 4.03801E-03-1.51120E-13-1.07270E-13
 -1      1938 1.99965E+01-6.91000E-04-1.44413E-05 3.68677E-03 6.93846E-14-7.80531E-14
 -1      1939 1.99960E+01-6.05220E-04-8.06059E-06 5.01410E-03-1.51790E-13 1.54775E-13
 -1      1940 1.99971E+01-8.50168E-04-1.54955E-05 3.22326E-03 3.19415E-13-8.74439E-14
 -1      1941 1.99980E+01-1.06285E-03-2.89720E-05 2.65586E-03 2.43033E-13 1.60001E-13
 -1      1942 1.99985E+01-1.58186E-03 2.45234E-06 3.07566E-03 1.87422E-13 2.85903E-13
 -1      1943 1.99973E+01-1.14545E-03 2.63331E-06 4.25757E-03 1.59861E-13 3.48762E-13
 -1      1944 2.05766E+01 1.57253E-01 9.73571E-03-3.28673E-02 2.46428E-13 5.63568E-13
 -1      1945 2.07202E+01 2.16387E-01 1.74306E-02 1.51998E-01 2.55927E-13 6.73413E-13
 -1      1946 2.08675E+01 3.61953E-01-3.41228E-03 3.08348E-01 3.19267E-13 4.68164E-13
 -1      1947 2.05847E+01 8.92077E-02 8.00200E-03-2.65382E-01 1.47345E-13 4.50795E-13
 -1      1948 2.05602E+01 1.19646E-01 1.48043E-02-1.60930E-01 1.65817E-13 5.13378E-13
 -1      1949 2.06858E+01 1.86465E-01-3.82336E-03-1.23499E-01 2.21046E-13 3.74704E-13
 -1      1950 2.07676E+01 4.66460E-02 4.57758E-03-3.96168E-01 6.48409E-14 4.04347E-13
 -1      1951 2.06483E+01 6.70013E-02 8.60915E-03-3.35084E-01 9.77898E-14 4.34109E-13
 -1      1952 2.07227E+01 1.00006E-01-4.54422E-03-3.70689E-01 1.24299E-13 3.03816E-13
 -1      1953 2.10508E+01 9.19448E-03 1.70312E-03-4.53281E-01 2.79614E-14 3.60191E-13
 -1      1954 2.08831E+01 2.71952E-02 4.01363E-03-4.24635E-01 3.91406E-14 4.00932E-13
 -1      1955 2.09011E+01 4.08262E-02-4.32012E-03-5.03525E-01 6.03132E-14 2.69285E-13
 -1      1956 2.13720E+01-3.25627E-02-9.20333E-04-4.39269E-01 7.47236E-14 3.47240E-13
 -1      1957 2.11921E+01-1.34089E-02 8.12247E-04-4.43390E-01 2.54142E-14 3.55914E-13
 -1      1958 2.11603E+01-1.56203E-02-3.28293E-03-5.44513E-01 4.27862E-14 2.17670E-13
 -1      1959 2.16705E+01-8.20926E-02-3.41688E-03-3.44701E-01 9.69689E-14 3.61508E-13
 -1      1960 2.15136E+01-6.10149E-02-1.72305E-03-3.87218E-01 1.19162E-13 3.72798E-13
 -1      1961 2.14473E+01-7.99877E-02-1.67808E-03-4.92092E-01 1.09118E-13 2.33006E-13
 -1      1962 2.18828E+01-1.36270E-01-5.37170E-03-1.58790E-01 3.08564E-14 3.01422E-13
 -1      1963 2.17854E+01-1.15727E-01-3.87924E-03-2.45828E-01 4.85410E-14 3.47091E-13
 -1      1964 2.17093E+01-1.53543E-01 5.11720E-04-3.35160E-01 6.83338E-14 2.80553E-13
 -1      1965 2.19445E+01-1.82497E-01-5.99572E-03 1.16993E-01-5.29334E-14 3.62330E-13
 -1      1966 2.19415E+01-1.69266E-01-5.54674E-03-1.45687E-02-1.35274E-14 3.19942E-13
 -1      1967 2.18900E+01-2.26171E-01 3.30658E-03-6.71719E-02-7.91034E-16 3.00267E-13
 -1      1968 2.18019E+01-1.97465E-01-4.59396E-03 4.51077E-01 3.93774E-14 3.77757E-13
 -1      1969 2.19188E+01-2.02348E-01-6.41342E-03 2.89935E-01-5.79745E-15 3.66316E-13
 -1      1970 2.19319E+01-2.73089E-01 6.34352E-03 2.95432E-01-9.75869E-15 3.12041E-13
 -1      1971 2.14349E+01-1.53202E-01-1.18281E-03 7.66746E-01 1.34862E-13 4.10021E-13
 -1      1972 2.16741E+01-1.86826E-01-5.90112E-03 6.13248E-01 9.51305E-14 4.02873E-13
 -1      1973 2.17889E+01-2.57850E-01 8.53641E-03 6.92609E-01 6.96613E-14 3.12637E-13
 -1      1974 2.08859E+01-3.51074E-02 2.54730E-03 9.46235E-01 1.06549E-13 2.70140E-13
 -1      1975 2.12138E+01-9.87391E-02-3.58558E-03 8.57324E-01 1.28989E-13 3.61700E-13
 -1      1976 2.14505E+01-1.47599E-01 8.35501E-03 1.01079E+00 1.68387E-13 2.85839E-13
 -1      1977 2.02802E+01 1.33888E-01 3.93315E-03 8.72739E-01 1.52566E-13 1.59159E-13
 -1      1978 2.06227E+01 5.79781E-02 5.98045E-04 9.03695E-01 9.84685E-14 2.19694E-13
 -1      1979 2.09725E+01 5.57013E-02 4.19394E-03 1.10488E+00 1.54397E-13 2.28235E-13
 -1      1980 1.98109E+01 2.85501E-01 1.83858E-03 5.07321E-01 5.80517E-14 7.70794E-14
 -1      1981 2.00674E+01 2.31907E-01 5.90099E-03 6.74239E-01 9.94916E-14 1.07864E-13
 -1      1982 2.04938E+01 2.90987E-01-2.86397E-03 8.67247E-01 1.49073E-13 1.10445E-13
 -1      1983 1.96624E+01 3.41826E-01-1.77131E-03-5.36629E-02 1.34028E-13 5.68989E-16
 -1      1984 1.97427E+01 3.40884E-01 1.04270E-02 2.01715E-01 9.88688E-14 5.49979E-14
 -1      1985 2.01981E+01 4.54473E-01-8.39319E-03 3.18371E-01 1.30698E-13 1.97737E-15
 -1      1986 1.99108E+01 2.71430E-01-3.32236E-03-6.07832E-01 2.04794E-13-1.38417E-13
 -1      1987 1.97782E+01 3.25821E-01 1.18851E-02-3.57570E-01 1.76638E-13-3.32763E-14
 -1      1988 2.02196E+01 4.61139E-01-8.50613E-03-3.64346E-01 2.34732E-13-6.63298E-14
 -1      1989 2.04735E+01 1.15248E-01-1.28017E-03-9.56896E-01 1.32476E-13-2.48107E-13
 -1      1990 2.01661E+01 1.96233E-01 9.14911E-03-7.99050E-01 2.00936E-13-1.77282E-13
 -1      1991 2.05595E+01 3.07506E-01-3.55057E-03-9.28475E-01 2.35131E-13-1.65083E-13
 -1      1992 2.11580E+01-4.64598E-02 2.45334E-03-1.01566E+00-1.55282E-13-2.36314E-13
 -1      1993 2.07696E+01 2.31621E-02 3.35168E-03-9.84753E-01-2.58803E-14-2.69337E-13
 -1      1994 2.10844E+01 7.39538E-02 1.68898E-03-1.18965E+00 1.78384E-14-2.17234E-13
 -1      1995 2.17680E+01-1.52438E-01 5.16244E-03-8.31502E-01-6.01559E-14-2.69984E-13
 -1      1996 2.14025E+01-1.16320E-01-2.76130E-03-9.05194E-01-1.10240E-13-2.52766E-13
 -1      1997 2.16136E+01-1.33553E-01 3.79234E-03-1.12057E+00-7.75222E-14-2.98730E-13
 -1      1998 2.21815E+01-1.86843E-01 5.61692E-03-5.22128E-01 8.66390E-14-3.52998E-13
 -1      1999 2.19126E+01-1.84479E-01-6.93153E-03-6.49749E-01 2.70704E-14-3.40495E-13
 -1      2000 2.20104E+01-2.49942E-01 3.03230E-03-8.22988E-01 5.69648E-14-3.26184E-13
 -1      2001 2.23650E+01-1.67527E-01 4.30778E-03-2.01476E-01 1.92311E-13-3.38370E-13
 -1      2002 2.22219E+01-1.86554E-01-8.43670E-03-3.34983E-01 1.64874E-13-3.08649E-13
 -1      2003 2.22179E+01-2.69944E-01 1.30446E-03-4.39900E-01 1.49375E-13-2.99932E-13
 -1      2004 2.23467E+01-1.22335E-01 2.38641E-03 5.93311E-02 2.48959E-14-3.13860E-13
 -1      2005 2.23220E+01-1.48960E-01-7.77139E-03-5.01781E-02 1.15940E-13-3.06669E-13
 -1      2006 2.22433E+01-2.25479E-01-1.09890E-05-8.48959E-02 1.14230E-13-3.12995E-13
 -1      2007 2.21829E+01-7.34152E-02 7.10064E-04 2.34638E-01-1.51022E-13-2.85361E-13
 -1      2008 2.22487E+01-9.82613E-02-5.90328E-03 1.60104E-01-9.33303E-14-3.16627E-13
 -1      2009 2.21277E+01-1.54990E-01-5.76299E-04 1.82664E-01-6.88590E-14-2.77867E-13
 -1      2010 2.19322E+01-3.26514E-02-3.74950E-04 3.29086E-01-8.10738E-14-2.03665E-13
 -1      2011 2.20554E+01-5.15281E-02-3.70975E-03 2.87948E-01-1.45389E-13-2.81513E-13
 -1      2012 2.19204E+01-8.59472E-02-6.48868E-04 3.49493E-01-1.29091E-13-2.15694E-13
 -1      2013 2.16433E+01-3.76998E-03-8.87707E-04 3.60927E-01-3.25335E-14-5.10997E-14
 -1      2014 2.17945E+01-1.60260E-02-1.73758E-03 3.45891E-01-2.57626E-14-1.24314E-13
 -1      2015 2.16657E+01-3.15481E-02-5.40921E-04 4.28901E-01-6.66072E-14-1.89524E-13
 -1      2016 2.13516E+01 1.40037E-02-9.99591E-04 3.50840E-01-6.27245E-14 2.10428E-13
 -1      2017 2.15087E+01 7.31784E-03-2.28511E-04 3.53490E-01-1.36618E-15 1.01688E-13
 -1      2018 2.13973E+01 5.25460E-03-4.30266E-04 4.44069E-01-6.38682E-14 9.40463E-14
 -1      2019 2.10795E+01 2.31674E-02-8.90204E-04 3.16512E-01-8.11794E-14 1.61000E-13
 -1      2020 2.12281E+01 2.05113E-02 7.77762E-04 3.29567E-01-5.66488E-14 1.55748E-13
 -1      2021 2.11387E+01 2.67138E-02-3.72791E-04 4.18096E-01-3.57692E-14 2.12140E-13
 -1      2022 2.08392E+01 2.64159E-02-6.90667E-04 2.70984E-01-6.18710E-14 1.43083E-13
 -1      2023 2.09713E+01 2.63566E-02 1.34869E-03 2.89027E-01-7.63737E-14 1.42972E-13
 -1      2024 2.09039E+01 3.67793E-02-3.62687E-04 3.69687E-01-6.25757E-14 1.84554E-13
 -1      2025 2.06356E+01 2.60003E-02-4.79022E-04 2.22889E-01-1.52674E-13 3.13953E-13
 -1      2026 2.07477E+01 2.74238E-02 1.59120E-03 2.42291E-01-1.14048E-13 1.75898E-13
 -1      2027 2.06999E+01 3.92974E-02-3.75572E-04 3.12191E-01-9.71533E-14 2.32501E-13
 -1      2028 2.04688E+01 2.35729E-02-2.93618E-04 1.77363E-01-1.54841E-13 3.69096E-13
 -1      2029 2.05605E+01 2.57022E-02 1.61175E-03 1.95935E-01-1.07270E-13 2.75232E-13
 -1      2030 2.05289E+01 3.73290E-02-3.90012E-04 2.54206E-01-1.09643E-13 2.50655E-13
 -1      2031 2.03360E+01 2.02439E-02-1.48178E-04 1.37063E-01 1.45236E-14 2.42271E-13
 -1      2032 2.04087E+01 2.25812E-02 1.49832E-03 1.53642E-01-5.59713E-14 3.26123E-13
 -1      2033 2.03897E+01 3.30470E-02-3.93788E-04 2.00689E-01 1.84396E-14 2.90239E-13
 -1      2034 2.02330E+01 1.67043E-02-4.31664E-05 1.03019E-01 2.13160E-13 1.77269E-13
 -1      2035 2.02891E+01 1.89576E-02 1.31585E-03 1.17126E-01 5.52088E-14 1.60368E-13
 -1      2036 2.02793E+01 2.78689E-02-3.82906E-04 1.54055E-01 8.95631E-14 1.29274E-14
 -1      2037 2.01552E+01 1.33494E-02 2.69443E-05 7.52719E-02 7.78124E-14 1.85037E-13
 -1      2038 2.01973E+01 1.53662E-02 1.10829E-03 8.68462E-02 1.96259E-13 3.10639E-13
 -1      2039 2.01939E+01 2.26490E-02-3.58604E-04 1.15083E-01 1.55383E-13 1.79004E-13
 -1      2040 2.00979E+01 1.03783E-02 6.95587E-05 5.33186E-02 2.91452E-13 1.02476E-13
 -1      2041 2.01286E+01 1.20957E-02 9.02980E-04 6.25364E-02 2.15681E-13 1.91624E-13
 -1      2042 2.01295E+01 1.78538E-02-3.24597E-04 8.35705E-02 2.21949E-13 2.55629E-13
 -1      2043 2.00568E+01 7.86692E-03 9.19015E-05 3.63995E-02 3.60682E-14-5.14763E-14
 -1      2044 2.00786E+01 9.27582E-03 7.15285E-04 4.35521E-02 1.64580E-13-2.49252E-14
 -1      2045 2.00820E+01 1.36989E-02-2.85156E-04 5.87943E-02 3.19991E-13 2.42400E-13
 -1      2046 2.00284E+01 5.81813E-03 1.00152E-04 2.36783E-02-1.82069E-13-5.79323E-14
 -1      2047 2.00433E+01 6.93934E-03 5.52431E-04 2.90963E-02-4.26475E-14-1.32008E-13
 -1      2048 2.00480E+01 1.02465E-02-2.44044E-04 3.98004E-02-7.49956E-15 2.05382E-13
 -1      2049 2.00096E+01 4.19498E-03 9.91937E-05 1.43458E-02 1.87747E-14 4.78790E-14
 -1      2050 2.00192E+01 5.06388E-03 4.16474E-04 1.83545E-02-1.03226E-13-4.22949E-14
 -1      2051 2.00245E+01 7.47082E-03-2.04112E-04 2.55870E-02-1.58287E-13 1.15018E-13
 -1      2052 1.99978E+01 2.94165E-03 9.26550E-05 7.67480E-03-4.36884E-14-4.45675E-14
 -1      2053 2.00037E+01 3.59875E-03 3.06389E-04 1.05700E-02 5.88056E-14-5.51488E-14
 -1      2054 2.00089E+01 5.30076E-03-1.67251E-04 1.52077E-02 4.91348E-14 5.25540E-15
 -1      2055 1.99912E+01 1.99616E-03 8.30625E-05 3.04402E-03-5.11640E-14 6.57188E-14
 -1      2056 1.99943E+01 2.48167E-03 2.19490E-04 5.08056E-03-1.62390E-14 1.23119E-14
 -1      2057 1.99991E+01 3.64601E-03-1.34517E-04 7.82460E-03-7.48320E-14 6.67421E-14
 -1      2058 1.99882E+01 1.29738E-03 7.20184E-05-5.66256E-05 1.58354E-14-2.39422E-13
 -1      2059 1.99894E+01 1.64840E-03 1.52342E-04 1.33197E-03-1.81337E-14-4.86024E-14
 -1      2060 1.99936E+01 2.41250E-03-1.06321E-04 2.72970E-03 8.07184E-14 1.07952E-14
 -1      2061 1.99876E+01 7.88354E-04 6.03659E-05-2.03000E-03 4.83399E-14-1.90943E-13
 -1      2062 1.99875E+01 1.03781E-03 1.01310E-04-1.12205E-03 6.48976E-14-2.41147E-13
 -1      2063 1.99910E+01 1.51042E-03-8.26089E-05-6.52225E-04 4.29811E-14 1.58444E-13
 -1      2064 1.99886E+01 4.17073E-04 4.83545E-05-3.18015E-03 7.90009E-14-1.53365E-13
 -1      2065 1.99877E+01 5.93786E-04 6.28919E-05-2.62634E-03 3.07250E-14-1.33968E-13
 -1      2066 1.99905E+01 8.57466E-04-6.30180E-05-2.76993E-03 7.95883E-14-3.38204E-14
 -1      2067 1.99905E+01 1.35373E-04 3.58755E-05-3.72112E-03-6.63155E-14-1.98184E-13
 -1      2068 1.99892E+01 2.64938E-04 3.39556E-05-3.43306E-03 3.14087E-14-6.98714E-14
 -1      2069 1.99913E+01 3.78819E-04-4.69533E-05-3.95605E-03 5.32444E-14-2.94962E-14
 -1      2070 1.99929E+01-1.03041E-04 2.34633E-05-3.78366E-03-1.92474E-14 1.97137E-14
 -1      2071 1.99914E+01 2.67752E-06 1.21783E-05-3.70974E-03-1.72450E-13-4.88559E-14
 -1      2072 1.99928E+01 4.80150E-06-3.34641E-05-4.43779E-03-2.02777E-13 2.04623E-13
 -1      2073 1.99952E+01-3.42499E-04 1.23836E-05-3.42133E-03 2.38168E-13 1.56140E-13
 -1      2074 1.99938E+01-2.39071E-04-3.03834E-06-3.54568E-03 2.04855E-13 1.38285E-13
 -1      2075 1.99947E+01-3.29754E-04-2.05083E-05-4.34417E-03 1.28014E-13 1.72675E-13
 -1      2076 1.99973E+01-6.25549E-04-5.39846E-07-2.61894E-03 3.62758E-14 1.72310E-13
 -1      2077 1.99961E+01-5.00247E-04-9.42991E-06-2.96786E-03 1.64937E-13 2.64659E-13
 -1      2078 1.99965E+01-6.87845E-04-8.58340E-06-3.73394E-03 1.61925E-13 4.35091E-13
 -1      2079 1.99987E+01-8.96226E-04-1.53477E-05-1.70897E-03 5.27204E-14 1.09194E-13
 -1      2080 1.99978E+01-7.63401E-04-1.06546E-05-2.26617E-03 8.24470E-14 7.62811E-14
 -1      2081 1.99980E+01-1.03201E-03 5.07159E-06-2.90531E-03 1.60221E-13 7.85896E-13
 -1      2082 1.99989E+01-1.38648E-03 7.17284E-06-2.07305E-03 6.03668E-14 7.24432E-13
 -1      2083 2.00001E+01-6.33657E-03 7.19896E-06-3.40201E-03-3.23199E-13-6.01052E-13
 -1      2084 1.99999E+01-5.25271E-03-2.17804E-06-3.49306E-03-3.06225E-13-1.13935E-13
 -1      2085 1.99997E+01-4.51712E-03 2.71419E-06-3.49151E-03-3.96619E-14-4.00877E-14
 -1      2086 1.99994E+01-3.45470E-03-1.40677E-05-3.32959E-03 1.55991E-13 2.14049E-13
 -1      2087 1.99997E+01-4.13065E-03-6.90890E-06-4.29907E-03-2.45038E-13-3.12694E-13
 -1      2088 1.99993E+01-2.90955E-03-8.33232E-07-3.02542E-03 1.97953E-13 5.83106E-13
 -1      2089 1.99990E+01-1.98310E-03-1.86446E-05-2.57805E-03 9.08039E-14 8.00905E-13
 -1      2090 1.99986E+01-1.81327E-03-1.58794E-05-3.06573E-03 2.04811E-13 7.86108E-13
 -1      2091 1.99992E+01-2.90113E-03-5.46745E-06-3.95143E-03 3.30436E-14 3.69980E-13
 -1      2092 2.00003E+01-7.92152E-03 1.33558E-05-2.91854E-03-6.04892E-13-1.28039E-12
 -1      2093 2.00002E+01-6.96422E-03 1.42217E-05-3.16988E-03-4.57762E-13-7.69640E-13
 -1      2094 2.00003E+01-5.48551E-03-9.78811E-06-4.02915E-03-4.38430E-13-8.87088E-13
 -1      2095 2.00005E+01-9.19548E-03 1.96171E-05-2.16896E-03-4.38844E-13-5.51405E-13
 -1      2096 2.00004E+01-8.43534E-03 2.43064E-05-2.52598E-03-4.87626E-13-9.11394E-13
 -1      2097 2.00006E+01-6.63533E-03-1.30350E-05-3.33469E-03-2.82577E-13-1.02574E-12
 -1      2098 2.00005E+01-1.00344E-02 2.50769E-05-1.26901E-03-2.99335E-13 2.78623E-13
 -1      2099 2.00005E+01-9.55228E-03 2.97234E-05-1.68229E-03-2.70629E-13-1.44519E-13
 -1      2100 2.00008E+01-7.51487E-03-1.52978E-05-2.35926E-03-6.57547E-14-3.63167E-13
 -1      2101 2.00006E+01-1.03886E-02 2.93178E-05-2.95300E-04-4.03881E-13 2.82055E-13
 -1      2102 2.00006E+01-1.02200E-02 3.08571E-05-7.34031E-04-3.92666E-13 2.46534E-13
 -1      2103 2.00009E+01-8.06464E-03-1.61806E-05-1.22791E-03 4.32443E-14 1.36391E-13
 -1      2104 2.00006E+01-1.02385E-02 3.15351E-05 6.97798E-04-3.60921E-13-1.99297E-13
 -1      2105 2.00006E+01-1.03959E-02 2.89353E-05 2.56494E-04-3.59423E-13 1.52199E-13
 -1      2106 2.00010E+01-8.26019E-03-1.65378E-05-2.51987E-05-2.30952E-13 3.04321E-13
 -1      2107 2.00005E+01-9.59174E-03 3.06296E-05 1.65946E-03-6.58418E-13-1.18325E-13
 -1      2108 2.00005E+01-1.00658E-02 2.49120E-05 1.23930E-03-5.17128E-13-1.45217E-13
 -1      2109 2.00009E+01-8.09196E-03-1.65186E-05 1.18495E-03-3.20401E-13-2.93005E-13
 -1      2110 2.00004E+01-8.50762E-03 2.49508E-05 2.50986E-03-4.89016E-13 1.70844E-13
 -1      2111 2.00005E+01-9.25095E-03 1.97609E-05 2.14958E-03-6.30761E-13-2.59562E-14
 -1      2112 2.00008E+01-7.56900E-03-1.58998E-05 2.32724E-03-4.80265E-13-6.17097E-14
 -1      2113 2.00002E+01-7.02540E-03 1.38118E-05 3.18223E-03-2.76608E-13 4.87367E-13
 -1      2114 2.00003E+01-7.99904E-03 1.38401E-05 2.91743E-03-4.64338E-13 4.93449E-13
 -1      2115 2.00006E+01-6.71062E-03-1.41905E-05 3.32264E-03-3.00606E-13 2.84528E-13
 -1      2116 1.99999E+01-5.28764E-03-2.70647E-06 3.52281E-03 4.02835E-14 3.48062E-13
 -1      2117 2.00001E+01-6.37903E-03 7.99693E-06 3.42838E-03-1.61211E-13 3.74407E-13
 -1      2118 2.00003E+01-5.55006E-03-1.10315E-05 4.05283E-03-3.76113E-15 5.85678E-13
 -1      2119 1.99994E+01-3.46186E-03-1.66191E-05 3.39381E-03 8.79656E-14 5.06246E-14
 -1      2120 1.99997E+01-4.54713E-03 8.21935E-06 3.52567E-03 1.08468E-14 9.93433E-14
 -1      2121 1.99998E+01-4.16907E-03-3.52270E-06 4.33472E-03-6.05948E-14 1.20159E-13
 -1      2122 9.90269E+00-5.12696E+00-1.82320E-01 6.37779E+00 8.10019E-13 5.29063E-13
 -1      2123 6.48664E+00-6.66790E+00-3.89446E-01 5.30231E+00 6.04294E-13 6.76084E-13
 -1      2124 3.37669E-01-6.94694E+00-3.36528E-01 1.10460E+00 3.55355E-13 1.01219E-12
 -1      2125 2.61408E-01-7.38101E+00-4.01621E-01-4.12204E-01 1.55084E-13 6.96498E-13
 -1      2126 3.81550E+00-6.10803E+00-2.30217E-01 4.53324E+00 4.79783E-13 8.76021E-13
 -1      2127 1.79892E+00-6.89951E+00-3.52178E-01 3.02484E+00 2.46331E-13 1.04372E-12
 -1      2128 1.85681E+01-3.31277E+00 1.81578E-03 7.05057E+00 7.41240E-13 4.45699E-13
 -1      2129 1.39720E+01-5.10063E+00-3.03634E-01 6.31334E+00 7.45737E-13 3.74756E-13
 -1      2130 2.72295E+01-2.23053E-01 1.54210E-01 6.18888E+00 8.05855E-13 4.92051E-13
 -1      2131 2.23270E+01-2.21190E+00-1.70701E-01 5.90275E+00 7.47291E-13 5.56777E-13
 -1      2132 1.95398E+01 4.15249E+00-2.85946E-02-1.25344E+00-2.94703E-13-5.00162E-13
 -1      2133 1.97854E+01 4.06914E+00-2.06444E-02-1.48987E+00-3.50752E-13-4.23845E-13
 -1      2134 2.01542E+01 3.37772E+00-1.36709E-02-1.42218E+00-3.83696E-13-3.55306E-13
 -1      2135 1.96371E+01 3.80134E+00-4.95393E-03-1.06044E+00-2.92263E-13-4.88909E-13
 -1      2136 3.82460E+01 5.71873E+00 3.00579E-01 1.51188E+00 9.98035E-13-5.82479E-13
 -1      2137 3.52991E+01 4.52922E+00 7.09376E-02 2.13633E+00 1.01275E-12-3.66596E-13
 -1      2138 4.07773E+01 7.23949E+00 3.70928E-01 9.33489E-02 1.00475E-12-6.39974E-13
 -1      2139 3.97448E+01 6.87778E+00 2.72669E-01 1.33262E+00 9.81937E-13-4.57134E-13
 -1      2140 3.87015E+01 6.72266E+00 2.03122E-01-1.44801E+00 1.03123E-12-7.89147E-13
 -1      2141 4.04916E+01 7.18323E+00 3.87200E-01-4.30309E-01 1.05760E-12-5.94386E-13
 -1      2142 3.44084E+01 3.61937E+00 5.76491E-02-2.81983E+00 9.87099E-13-9.62452E-13
 -1      2143 3.73039E+01 5.09751E+00 2.43510E-01-1.85181E+00 9.45077E-13-8.26228E-13
 -1      2144 2.88606E+01 2.56445E-01-3.37713E-02-4.39890E+00 9.87849E-13-1.02673E-12
 -1      2145 3.32672E+01 2.04573E+00 2.27835E-01-4.15351E+00 9.86128E-13-9.81215E-13
 -1      2146 3.27759E+01 2.17008E+00 1.93907E-01-8.17861E-01 6.95805E-13-4.09228E-13
 -1      2147 2.00280E+01-3.30999E+00-2.08995E-01-6.20086E+00 9.88098E-13-1.13998E-12
 -1      2148 2.50040E+01-1.63115E+00 6.33455E-02-6.36372E+00 9.56457E-13-1.16246E-12
 -1      2149 1.22799E+01-5.69201E+00-2.86332E-01-6.31147E+00 6.45983E-13-1.10961E-12
 -1      2150 1.65693E+01-3.80842E+00-2.61106E-02-7.07901E+00 9.74998E-13-1.22818E-12
 -1      2151 2.07522E+01-4.92858E+00 2.26207E-02-6.34710E+00 3.93297E-13-8.04329E-13
 -1      2152 4.80574E+00-6.96430E+00-3.76502E-01-4.72572E+00 3.47167E-13-1.24256E-12
 -1      2153 8.17586E+00-5.47385E+00-1.21271E-01-6.27806E+00 5.20362E-13-1.20390E-12
 -1      2154 5.31542E-01-7.76784E+00-4.64484E-01-1.83977E+00 1.07109E-13-1.13576E-12
 -1      2155 1.89522E+00-7.02035E+00-3.54851E-01-3.27931E+00 4.82225E-13-1.25377E-12
 -1      2156 6.88019E-01-7.15818E+00-3.56931E-01 1.44936E+00-2.86549E-13-1.13348E-12
 -1      2157 2.22592E-01-7.41439E+00-4.02683E-01-3.82154E-02 5.32838E-14-1.12094E-12
 -1      2158 4.55284E+00-6.41121E+00-2.49635E-01 4.52268E+00-4.99434E-13-1.07703E-12
 -1      2159 2.36385E+00-7.33358E+00-4.01833E-01 3.15756E+00-2.31037E-13-1.04861E-12
 -1      2160 1.11801E+01-5.35077E+00-1.55695E-01 6.34202E+00-7.50955E-13-9.75948E-13
 -1      2161 7.45331E+00-6.93686E+00-4.24319E-01 5.20069E+00-5.74540E-13-9.63396E-13
 -1      2162 2.02770E+01-3.68031E+00-1.09820E-02 6.70542E+00-7.46680E-13-7.39242E-13
 -1      2163 1.53265E+01-5.45094E+00-3.31363E-01 6.04516E+00-6.65690E-13-8.57925E-13
 -1      2164 2.92785E+01-7.59194E-01 1.94378E-01 5.26491E+00-9.59066E-13-5.11757E-13
 -1      2165 2.43955E+01-2.81811E+00-1.75133E-01 5.15061E+00-8.65974E-13-5.63993E-13
 -1      2166 3.60877E+01 2.83650E+00 3.54281E-01 3.96706E+00-1.06975E-12-3.23852E-13
 -1      2167 3.16673E+01 1.30265E+00 3.09846E-02 4.39243E+00-1.09501E-12-5.51337E-13
 -1      2168 3.95125E+01 5.52968E+00 2.73550E-01 1.33435E+00-1.16129E-12 6.67244E-14
 -1      2169 3.77952E+01 4.43029E+00 3.11602E-01 2.71576E+00-1.13964E-12-2.42806E-13
 -1      2170 4.09218E+01 7.18576E+00 3.66475E-01 1.49042E-02-1.24201E-12 3.19578E-13
 -1      2171 3.95614E+01 7.01202E+00 2.44244E-01 6.70450E-01-1.26416E-12 1.91513E-14
 -1      2172 3.93823E+01 6.45134E+00 2.38278E-01-9.49177E-01-1.13004E-12 6.05516E-13
 -1      2173 4.10736E+01 6.92799E+00 3.53434E-01-1.86537E-01-1.14531E-12 3.75949E-13
 -1      2174 3.64802E+01 8.00080E+00 3.28521E-01 1.95983E-01-1.29996E-12 6.37858E-14
 -1      2175 3.54899E+01 3.17416E+00 1.19679E-01-2.41164E+00-1.00592E-12 8.07132E-13
 -1      2176 3.83531E+01 4.59048E+00 2.70439E-01-1.51216E+00-1.03961E-12 5.87308E-13
 -1      2177 2.90694E+01-1.91350E-01-5.92068E-02-4.57278E+00-9.84018E-13 1.09257E-12
 -1      2178 3.36461E+01 1.35713E+00 2.06345E-01-4.06104E+00-9.54056E-13 1.04394E-12
 -1      2179 2.12037E+01-3.55344E+00-2.37533E-01-5.62169E+00-4.60243E-13 1.28120E-12
 -1      2180 2.61521E+01-1.70468E+00 1.03947E-01-5.88973E+00-7.50067E-13 1.15707E-12
 -1      2181 1.25717E+01-5.82442E+00-3.80219E-01-5.78407E+00-2.80220E-13 1.34459E-12
 -1      2182 1.70601E+01-3.99863E+00-6.96965E-02-6.66427E+00-4.37872E-13 1.51024E-12
 -1      2183 5.97168E+00-6.92294E+00-3.65156E-01-4.81497E+00-1.11855E-13 9.49546E-13
 -1      2184 9.11349E+00-5.82956E+00-2.20450E-01-5.82942E+00-3.24851E-13 1.27844E-12
 -1      2185 9.71937E-01-7.58432E+00-4.52329E-01-1.87797E+00 1.38251E-13 6.27609E-13
 -1      2186 2.64228E+00-6.50828E+00-2.97215E-01-3.46597E+00-1.45717E-13 7.92422E-13
 -1      2187 1.82068E+00-4.84964E+00-1.94916E-01-1.54528E+00 1.20459E-14 8.97005E-13
 -1      2188 3.38277E+01 2.42108E+00 1.56951E-01 3.68634E+00 8.92198E-13-1.90292E-13
 -1      2189 2.99100E+01 9.96901E-01-2.36899E-03 4.57563E+00 8.92147E-13 1.89626E-13
 -1      2190 2.26397E+01-4.27649E+00 3.56860E-02 5.79666E+00 3.32734E-13 1.04222E-13
 -1      2191 2.13552E+01 1.11593E+00-1.68953E-02-1.23275E+00-3.90715E-13 2.94377E-13
 -1      2192 2.93447E+01-1.15248E+00 1.75528E-01 3.32540E+00 5.95704E-13-1.87184E-13
 -1      2193 3.31740E+01 2.90484E+00 1.92535E-01 6.83181E-01 8.34957E-13-6.71962E-13
 -1      2194 2.12085E+01 1.36406E+00-2.16153E-02-1.19555E+00-4.17588E-13 7.66817E-14
 -1      2195 7.03325E+00-5.32059E+00-1.37778E-01 5.86609E+00 4.20219E-14 7.18564E-13
 -1      2196 2.46567E+00-4.58520E+00-1.40377E-01 2.61266E+00 2.42306E-14 1.05949E-12
 -1      2197 1.99992E+01-2.71205E-03-1.59577E-05 3.36573E-03 1.32661E-13 1.79131E-13
 -1      2198 1.44359E+01-5.53931E+00-5.90162E-02 7.03789E+00 2.27818E-13 1.95222E-13
 -1      2199 6.01017E+00-5.53829E+00-1.44559E-01-4.98260E+00-1.75415E-14 9.65894E-13
 -1      2200 1.34455E+01-5.96224E+00-1.10605E-01-6.55677E+00 6.68909E-14 1.19990E-12
 -1      2201 2.16818E+01-5.16601E+00 6.06515E-03-5.73212E+00 1.63203E-14 1.08508E-12
 -1      2202 2.88741E+01-2.60767E+00 1.23773E-01-3.30728E+00-3.85220E-13 6.64024E-13
 -1      2203 3.60421E+01 5.68325E+00 2.69870E-01 6.37553E-01-1.05638E-12 9.76996E-14
 -1      2204 3.66215E+01 6.57755E+00 2.82650E-01-1.42491E-01-1.28486E-12 1.40388E-13
 -1      2205 3.53067E+01 3.09671E+00 3.39464E-01 7.80647E-01-1.00833E-12 1.28952E-13
 -1      2206 3.09891E+01-1.31397E+00 1.32306E-01 2.37252E+00-7.09821E-13 2.14273E-14
 -1      2207 2.46375E+01-4.85575E+00 4.78473E-02 4.96212E+00-3.32123E-13-2.59098E-13
 -1      2208 1.60211E+01-5.95138E+00-3.85510E-02 6.74863E+00-1.58318E-13-6.05686E-13
 -1      2209 8.22449E+00-5.66191E+00-1.35415E-01 5.93486E+00-2.84772E-14-9.61814E-13
 -1      2210 3.09017E+00-4.86935E+00-1.57232E-01 3.05111E+00 1.81521E-14-1.18400E-12
 -1      2211 1.59605E+00-4.98489E+00-2.13924E-01-1.17341E+00 5.51920E-14-1.33227E-12
 -1      2212 1.25030E+01-5.66825E+00-8.43265E-02-6.96849E+00 9.02611E-14-1.01465E-12
 -1      2213 2.82896E+01-2.11891E+00 1.14495E-01-3.76645E+00 5.90972E-13-6.23612E-13
 -1      2214 3.50117E+01 6.13918E+00 2.36778E-01 1.46159E-01 9.60232E-13-4.09311E-13
 -1      2215 3.53468E+01 6.80166E+00 2.22299E-01-2.91513E-01 1.00203E-12-5.86031E-13
 -1      2216 3.66915E+01 8.16459E+00 3.41639E-01-3.44427E-03 1.06481E-12-4.32442E-13
 -1      2217 5.12526E+00-5.08180E+00-1.14275E-01-5.11514E+00 8.74856E-14-1.27820E-12
 -1      2218 3.36614E+01 1.38775E+00 2.16534E-01-8.61656E-01-7.77607E-13 3.44780E-13
 -1      2219 2.08739E+01 5.44821E-01 5.98014E-03 2.50749E-01 3.16077E-13 2.59161E-13
 -1      2220 2.10438E+01 7.28349E-01 2.07604E-02 5.59996E-01 3.48100E-13 3.08879E-13
 -1      2221 1.89669E+01 3.94308E+00-1.08408E-02-3.59400E-01-8.26484E-14-5.56212E-13
 -1      2222 1.90828E+01 3.88232E+00-8.01475E-03-4.74018E-01-1.38124E-13-5.54385E-13
 -1      2223 1.92287E+01 3.75552E+00-1.37225E-02-5.62346E-01-1.72133E-13-5.37066E-13
 -1      2224 1.94090E+01 3.64845E+00-9.64559E-03-6.96450E-01-2.33046E-13-5.12851E-13
 -1      2225 1.92692E+01 3.50692E+00 2.84869E-03-4.25825E-01-1.44945E-13-5.00806E-13
 -1      2226 1.88379E+01 4.02767E+00-7.13284E-03 1.74798E-03 9.72051E-14-5.41402E-13
 -1      2227 1.88210E+01 4.03744E+00-8.63567E-03-1.03627E-01 4.66085E-14-5.44085E-13
 -1      2228 1.89623E+01 3.94168E+00-6.63941E-03 1.99846E-01 1.74884E-13-5.44925E-13
 -1      2229 1.88846E+01 3.98272E+00-9.88165E-03 8.39795E-02 1.28220E-13-5.48235E-13
 -1      2230 1.89619E+01 3.71650E+00 1.38576E-03 1.16389E-02 1.10450E-13-5.14837E-13
 -1      2231 1.91923E+01 3.77807E+00-7.31918E-03 4.27383E-01 2.49898E-13-4.92809E-13
 -1      2232 1.90634E+01 3.84964E+00-1.15842E-02 2.95785E-01 2.06025E-13-5.31196E-13
 -1      2233 1.91250E+01 3.58702E+00 1.05885E-03 1.80512E-01 1.85826E-13-5.06279E-13
 -1      2234 1.95225E+01 3.52395E+00-9.79254E-03 6.99759E-01 3.46453E-13-3.89595E-13
 -1      2235 1.93445E+01 3.63603E+00-1.38093E-02 5.43778E-01 2.86772E-13-4.42093E-13
 -1      2236 1.93986E+01 3.36640E+00 1.01491E-03 3.82602E-01 2.65955E-13-4.31499E-13
 -1      2237 1.99413E+01 3.15511E+00-1.53439E-02 1.00737E+00 4.23396E-13-2.85921E-13
 -1      2238 1.97200E+01 3.32590E+00-1.65470E-02 8.31433E-01 3.65911E-13-3.44137E-13
 -1      2239 1.97701E+01 3.04462E+00 2.00888E-03 6.17279E-01 3.34601E-13-3.34706E-13
 -1      2240 2.04487E+01 2.61772E+00-2.59597E-02 1.31415E+00 4.70944E-13-1.39243E-13
 -1      2241 2.01845E+01 2.88529E+00-1.87501E-02 1.13635E+00 4.32366E-13-2.30829E-13
 -1      2242 2.02206E+01 2.60008E+00 5.30761E-03 8.57875E-01 3.96078E-13-2.24960E-13
 -1      2243 2.07781E+01 3.15468E-01 6.52351E-03-1.89084E-01 2.09187E-13 2.08789E-13
 -1      2244 2.08270E+01 4.12838E-01 2.03164E-02-1.07507E-02 2.68869E-13 2.53411E-13
 -1      2245 2.08538E+01 6.90954E-01-4.43884E-03 1.88549E-01 3.12862E-13 1.08725E-13
 -1      2246 2.10184E+01 9.82879E-01 1.36196E-02-4.02761E-01-3.25601E-13-3.38085E-14
 -1      2247 2.09141E+01 7.87038E-01 1.38019E-03-3.87155E-02-2.89448E-13-5.40765E-14
 -1      2248 2.94626E+01-1.59292E+00-1.33369E-01 1.67038E+00 4.59733E-13-6.78624E-13
 -1      2249 2.74741E+01-3.05414E+00-2.08413E-02 2.88197E+00 2.88047E-13-3.69760E-13
 -1      2250 2.09001E+01 6.55339E-01 1.54359E-02 2.52285E-01-2.56453E-13-3.85586E-14
 -1      2251 2.08935E+01 5.57854E-01 5.76184E-03 4.97321E-01-2.33303E-13-4.61607E-14
 -1      2252 2.08030E+01 9.74420E-01-3.71299E-03 7.21256E-02-2.86235E-13-1.50132E-13
 -1      2253 2.08964E+01 4.92638E-01 1.00269E-02 7.26685E-01-2.01240E-13-1.45409E-14
 -1      2254 2.09797E+01 4.39427E-01 6.51520E-03 9.11365E-01-1.23245E-13-4.81155E-14
 -1      2255 2.07674E+01 7.10125E-01-5.00518E-03 6.29253E-01-2.04404E-13-1.11353E-13
 -1      2256 2.10187E+01 3.97455E-01 6.03726E-03 1.09825E+00-8.54089E-14-5.06803E-14
 -1      2257 2.11747E+01 3.55486E-01 6.00378E-03 1.24416E+00-7.19932E-14-5.37703E-14
 -1      2258 2.08034E+01 5.61495E-01-5.09402E-03 1.07348E+00-1.23932E-13-1.03789E-13
 -1      2259 2.12569E+01 3.10135E-01 4.26977E-03 1.39786E+00-6.62307E-14-6.12770E-14
 -1      2260 2.14710E+01 2.51883E-01 4.20007E-03 1.50582E+00-5.26051E-14-6.19419E-14
 -1      2261 2.09216E+01 4.42838E-01-5.21273E-03 1.43664E+00-8.71759E-14-1.06343E-13
 -1      2262 2.16080E+01 1.77699E-01 4.66357E-03 1.62108E+00-5.93322E-14-4.56951E-14
 -1      2263 2.18691E+01 7.35206E-02 4.89296E-04 1.67372E+00-3.70261E-14-5.30860E-14
 -1      2264 2.11317E+01 2.83751E-01-6.53878E-03 1.72562E+00-6.20869E-14-9.47063E-14
 -1      2265 2.20860E+01-5.77725E-02 7.54560E-03 1.72753E+00 5.02799E-15-5.93583E-14
 -1      2266 2.23847E+01-2.39201E-01-5.84649E-03 1.68889E+00 1.42620E-14-5.37873E-14
 -1      2267 2.14613E+01 1.05406E-02-1.01399E-02 1.91630E+00-2.87598E-14-1.11659E-13
 -1      2268 2.27230E+01-4.52342E-01 1.30415E-02 1.63544E+00-1.43310E-15-2.55568E-14
 -1      2269 2.30464E+01-7.28149E-01-1.51405E-02 1.45401E+00 1.01516E-14-8.20698E-15
 -1      2270 2.19675E+01-4.51599E-01-1.65577E-02 1.94589E+00 1.35409E-14-6.53733E-14
 -1      2271 2.35525E+01-1.01871E+00 1.95521E-02 1.22280E+00 6.81516E-14 5.21250E-14
 -1      2272 2.38715E+01-1.35007E+00-2.63762E-02 8.49178E-01 1.00335E-13 1.05671E-13
 -1      2273 2.27356E+01-1.13838E+00-2.46352E-02 1.70396E+00 7.02815E-14-1.02067E-15
 -1      2274 2.45522E+01-1.63076E+00 1.99541E-02 3.60484E-01 1.21929E-13 1.75095E-13
 -1      2275 2.48018E+01-1.84965E+00-3.53079E-02-2.03872E-01 9.61644E-14 2.34662E-13
 -1      2276 2.38389E+01-1.94352E+00-3.03370E-02 1.03676E+00 1.30666E-13 1.16318E-13
 -1      2277 2.55299E+01-1.88363E+00-1.84934E-03-9.56147E-01 7.36960E-14 3.33660E-13
 -1      2278 2.56299E+01-1.65087E+00-2.33805E-02-1.56770E+00 3.43759E-14 3.86712E-13
 -1      2279 2.52169E+01-2.44538E+00-3.02520E-02-1.78083E-01 1.37032E-13 3.30015E-13
 -1      2280 2.60521E+01-1.11225E+00-5.70580E-02-2.28164E+00-3.86037E-14 3.50880E-13
 -1      2281 2.59667E+01-2.07683E-01-4.25866E-03-2.55381E+00-1.74413E-13 3.02932E-13
 -1      2282 2.64661E+01-1.78244E+00-2.35011E-02-1.76870E+00-2.47996E-14 4.32605E-13
 -1      2283 2.58800E+01 8.92185E-01-1.17056E-01-2.65471E+00-3.83055E-13 2.17326E-13
 -1      2284 2.56613E+01 2.08165E+00-2.63510E-02-2.19561E+00-5.61093E-13 1.19200E-13
 -1      2285 2.70635E+01 3.03539E-01-3.85305E-02-2.76693E+00-3.31311E-13 3.04583E-13
 -1      2286 2.54101E+01 2.99098E+00-1.11685E-01-1.19594E+00-6.80053E-13-4.60834E-14
 -1      2287 2.53550E+01 3.37041E+00-7.37650E-02-1.17964E-01-6.92502E-13-2.02270E-13
 -1      2288 2.69137E+01 3.25741E+00-8.40698E-02-1.92323E+00-7.25170E-13-4.21607E-14
 -1      2289 2.54318E+01 3.10358E+00-5.23595E-02 1.24111E+00-5.87808E-13-3.89746E-13
 -1      2290 2.56283E+01 2.27988E+00-1.15320E-01 2.14505E+00-4.61381E-13-4.50227E-13
 -1      2291 2.67970E+01 4.16501E+00-1.08120E-01 6.22400E-01-7.84955E-13-3.14929E-13
 -1      2292 2.58938E+01 1.14481E+00-1.11909E-02 2.68685E+00-2.86847E-13-5.71770E-13
 -1      2293 2.60921E+01-3.37941E-02-1.00942E-01 2.82021E+00-1.74968E-13-5.53314E-13
 -1      2294 2.70898E+01 2.11315E+00-6.20127E-02 2.65712E+00-4.55150E-13-6.50729E-13
 -1      2295 2.59902E+01-9.58019E-01-1.41449E-02 2.40618E+00-9.90284E-14-5.02409E-13
 -1      2296 2.60312E+01-1.58684E+00-3.00548E-02 1.93146E+00 9.51851E-14-4.74649E-13
 -1      2297 2.69496E+01-6.89343E-01-4.86948E-02 2.67820E+00-9.97258E-14-6.18998E-13
 -1      2298 2.54456E+01-1.85277E+00-3.08431E-02 1.14040E+00 2.37224E-13-4.10475E-13
 -1      2299 2.52894E+01-1.85538E+00 8.52066E-03 5.16091E-01 3.44499E-13-3.76917E-13
 -1      2300 2.61045E+01-2.24213E+00-1.29791E-02 1.24403E+00 2.29302E-13-4.78629E-13
 -1      2301 2.45748E+01-1.67389E+00-3.06429E-02-1.29260E-01 3.27716E-13-2.42289E-13
 -1      2302 2.43014E+01-1.38142E+00 2.00281E-02-6.21861E-01 2.37798E-13-2.57522E-13
 -1      2303 2.47408E+01-2.28358E+00-1.98958E-02-2.29109E-01 3.98986E-13-3.32105E-13
 -1      2304 2.36995E+01-1.07405E+00-2.14298E-02-9.91256E-01 1.58365E-13-1.72050E-13
 -1      2305 2.33933E+01-7.57284E-01 1.65858E-02-1.27970E+00 2.37580E-13-7.67845E-14
 -1      2306 2.34692E+01-1.58811E+00-2.23872E-02-1.20586E+00 3.17733E-13-1.63856E-13
 -1      2307 2.29666E+01-4.94959E-01-1.13979E-02-1.42612E+00 1.81354E-13-1.05377E-13
 -1      2308 2.26701E+01-2.62028E-01 1.00586E-02-1.54156E+00 8.70476E-14-9.05799E-14
 -1      2309 2.25198E+01-8.11061E-01-1.77516E-02-1.67232E+00 1.66102E-13-4.52238E-14
 -1      2310 2.23883E+01-9.06673E-02-3.55355E-03-1.54703E+00-1.99725E-14-1.43989E-13
 -1      2311 2.21177E+01 4.63273E-02 5.12588E-03-1.54782E+00-5.35806E-14-1.62873E-13
 -1      2312 2.18761E+01-2.28778E-01-1.10139E-02-1.78903E+00 2.71845E-14-2.16627E-13
 -1      2313 2.19303E+01 1.38018E-01 1.40616E-03-1.47844E+00-5.23522E-14-1.79237E-13
 -1      2314 2.16901E+01 2.02914E-01 2.18413E-03-1.41599E+00-2.90916E-14-2.17581E-13
 -1      2315 2.14465E+01 1.19508E-01-6.02415E-03-1.70306E+00-6.83756E-14-3.10416E-13
 -1      2316 2.15583E+01 2.40784E-01 4.07929E-03-1.31396E+00-1.95987E-14-2.90626E-13
 -1      2317 2.13490E+01 2.60875E-01 7.06223E-04-1.22413E+00-2.83668E-14-2.29908E-13
 -1      2318 2.11462E+01 2.89056E-01-3.17137E-03-1.51725E+00-2.87290E-14-2.57052E-13
 -1      2319 2.12495E+01 2.67541E-01 5.20603E-03-1.11411E+00-2.30862E-14-2.04129E-13
 -1      2320 2.10707E+01 2.63411E-01 8.42258E-05-1.01862E+00 1.21884E-14-1.56751E-13
 -1      2321 2.09210E+01 3.45636E-01-1.80737E-03-1.29434E+00-2.18521E-16-3.55180E-13
 -1      2322 2.09911E+01 2.54322E-01 5.37666E-03-9.13865E-01 3.39883E-14-2.68447E-13
 -1      2323 2.08412E+01 2.39038E-01-1.06323E-04-8.24276E-01 3.62147E-14-2.99612E-13
 -1      2324 2.07412E+01 3.39935E-01-1.25493E-03-1.07030E+00-3.61750E-14-2.89637E-13
 -1      2325 2.07756E+01 2.23438E-01 5.01758E-03-7.31053E-01 3.65745E-14-2.86940E-13
 -1      2326 2.06524E+01 2.04432E-01-1.11230E-04-6.52534E-01 2.00000E-14-3.47474E-13
 -1      2327 2.05925E+01 3.04711E-01-1.06532E-03-8.63962E-01 7.86551E-15-1.43280E-13
 -1      2328 2.05978E+01 1.87329E-01 4.41024E-03-5.73033E-01-5.45357E-14-3.80619E-13
 -1      2329 2.04985E+01 1.68434E-01-5.54501E-05-5.07079E-01-5.40048E-14-3.25401E-13
 -1      2330 2.04680E+01 2.58922E-01-9.98987E-04-6.83647E-01-4.68488E-14-2.23658E-13
 -1      2331 2.04532E+01 1.52280E-01 3.72578E-03-4.41264E-01-2.76719E-14-2.82665E-13
 -1      2332 2.03745E+01 1.35239E-01 5.41786E-06-3.87455E-01 3.06439E-15-1.46725E-13
 -1      2333 2.03641E+01 2.12551E-01-9.50229E-04-5.31561E-01-1.54293E-15-2.14673E-13
 -1      2334 2.03376E+01 1.21054E-01 3.05939E-03-3.34177E-01-3.18352E-14-1.20345E-13
 -1      2335 2.02762E+01 1.06482E-01 5.12528E-05-2.91222E-01-4.01065E-14 2.39631E-14
 -1      2336 2.02786E+01 1.70273E-01-8.84203E-04-4.06573E-01 3.34373E-14-8.67601E-14
 -1      2337 2.02466E+01 9.45415E-02 2.45787E-03-2.48871E-01 2.11120E-14 7.80779E-14
 -1      2338 2.01996E+01 8.24857E-02 7.85799E-05-2.15182E-01 7.47641E-14 4.82895E-14
 -1      2339 2.02093E+01 1.33849E-01-7.97166E-04-3.05934E-01 2.61723E-14 5.36727E-14
 -1      2340 2.01762E+01 7.27062E-02 1.93923E-03-1.82051E-01 3.59226E-14 3.23679E-14
 -1      2341 2.01407E+01 6.29572E-02 9.03803E-05-1.56037E-01 4.19147E-14 4.42257E-14
 -1      2342 2.01541E+01 1.03544E-01-6.96523E-04-2.26288E-01 8.19020E-15 1.85696E-13
 -1      2343 2.01226E+01 5.51058E-02 1.50561E-03-1.30502E-01 2.30140E-14-4.63513E-14
 -1      2344 2.00964E+01 4.73593E-02 9.12735E-05-1.10708E-01 4.30569E-15-1.26285E-13
 -1      2345 2.01110E+01 7.89248E-02-5.91679E-04-1.64231E-01 2.80373E-14 1.50190E-13
 -1      2346 2.00827E+01 4.11563E-02 1.15121E-03-9.13156E-02-8.91830E-14-1.56409E-13
 -1      2347 2.00637E+01 3.50926E-02 8.54740E-05-7.64775E-02-1.65410E-13-1.07659E-13
 -1      2348 2.00779E+01 5.92865E-02-4.90328E-04-1.16593E-01-5.60606E-14-4.71559E-14
 -1      2349 2.00534E+01 3.02614E-02 8.66761E-04-6.19706E-02-1.34727E-13-2.83353E-14
 -1      2350 2.00400E+01 2.55806E-02 7.61864E-05-5.10202E-02 9.09494E-14-4.25472E-14
 -1      2351 2.00530E+01 4.38600E-02-3.97496E-04-8.05645E-02-6.00252E-14 1.62304E-13
 -1      2352 2.00326E+01 2.18690E-02 6.42017E-04-4.03428E-02 2.15157E-13-2.37890E-13
 -1      2353 2.00233E+01 1.83052E-02 6.55735E-05-3.23997E-02 1.24978E-13-2.61061E-13
 -1      2354 2.00347E+01 3.19118E-02-3.15822E-04-5.37358E-02-1.98545E-17-4.46223E-14
 -1      2355 2.00180E+01 1.54928E-02 4.67001E-04-2.46811E-02 1.51554E-13-2.55930E-13
 -1      2356 2.00119E+01 1.28176E-02 5.49239E-05-1.90318E-02-4.00987E-14-6.91237E-14
 -1      2357 2.00215E+01 2.27844E-02-2.46173E-04-3.40910E-02 1.24374E-13-2.26996E-13
 -1      2358 2.00083E+01 1.07164E-02 3.32639E-04-1.35673E-02-1.64620E-13-1.80601E-14
 -1      2359 2.00045E+01 8.73666E-03 4.48530E-05-9.64350E-03-1.62408E-13 1.77533E-13
 -1      2360 2.00123E+01 1.59085E-02-1.88250E-04-1.99761E-02-6.32483E-14 9.36116E-14
 -1      2361 2.00022E+01 7.18809E-03 2.30999E-04-5.87255E-03-1.54304E-13 3.48373E-13
 -1      2362 2.00000E+01 5.74234E-03 3.54682E-05-3.22977E-03-2.22742E-14 4.09003E-13
 -1      2363 2.00061E+01 1.08005E-02-1.41067E-04-1.00589E-02-1.92475E-14 2.12876E-13
 -1      2364 1.99985E+01 4.61359E-03 1.55329E-04-7.15484E-04-7.92095E-14 5.53271E-13
 -1      2365 1.99975E+01 3.56666E-03 2.65325E-05 9.86147E-04 6.81066E-14 5.12016E-13
 -1      2366 2.00021E+01 7.05344E-03-1.03319E-04-3.28615E-03 2.78311E-14 5.96644E-13
 -1      2367 1.99967E+01 2.74595E-03 1.00097E-04 2.57569E-03 2.33769E-13 3.08816E-13
 -1      2368 1.99964E+01 1.98403E-03 1.76501E-05 3.58775E-03 2.52199E-13 1.83553E-13
 -1      2369 1.99998E+01 4.32598E-03-7.35944E-05 1.15588E-03-1.63324E-14 6.98213E-13
 -1      2370 1.99961E+01 1.37611E-03 6.07451E-05 4.49602E-03 9.51681E-14 1.35164E-13
 -1      2371 1.99963E+01 8.01347E-04 8.19981E-06 4.99557E-03-2.94273E-14-2.19083E-14
 -1      2372 1.99985E+01 2.33041E-03-5.04585E-05 3.87799E-03 9.04773E-14 2.96344E-13
 -1      2373 1.99963E+01 3.22156E-04 3.36807E-05 5.39096E-03-4.88364E-14-2.14077E-14
 -1      2374 1.99968E+01-1.47863E-04-4.04794E-07 5.49027E-03-5.40909E-14-2.10522E-14
 -1      2375 1.99981E+01 8.18428E-04-3.32318E-05 5.32071E-03 8.35906E-15 3.02095E-13
 -1      2376 1.99969E+01-5.83774E-04 1.27022E-05 5.48455E-03-1.41189E-14 3.59267E-14
 -1      2377 1.99975E+01-1.00130E-03-6.32557E-06 5.23919E-03 2.05962E-14 2.82784E-13
 -1      2378 1.99981E+01-4.10687E-04-1.87611E-05 5.78211E-03 3.37137E-14 4.89998E-14
 -1      2379 2.09677E+01 7.30885E-02 9.97896E-04-6.08665E-01 6.47710E-14 1.21753E-13
 -1      2380 2.08671E+01 1.26725E-01 7.73367E-03-5.57723E-01 8.66534E-14 1.63765E-13
 -1      2381 2.11865E+01-3.47748E-02-2.30975E-03-6.51181E-01 5.44209E-14 7.58177E-14
 -1      2382 2.10584E+01 2.23471E-02 4.77777E-03-6.49419E-01 5.65290E-14 9.61457E-14
 -1      2383 2.09690E+01 6.71755E-02-5.07330E-03-7.18985E-01 9.01247E-14 1.68506E-14
 -1      2384 2.14386E+01-1.58316E-01-6.04043E-03-5.81152E-01 1.05746E-13 1.15853E-13
 -1      2385 2.13101E+01-9.20525E-02 3.07125E-03-6.32930E-01 6.53338E-14 9.17595E-14
 -1      2386 2.11784E+01-8.96061E-02-4.16877E-03-7.52460E-01 6.76928E-14 1.85268E-15
 -1      2387 2.16853E+01-2.96893E-01-9.76401E-03-3.85048E-01 3.32971E-14 1.87526E-13
 -1      2388 2.15834E+01-2.23960E-01 1.88353E-03-4.96425E-01 9.26707E-14 1.81724E-13
 -1      2389 2.14401E+01-2.67333E-01-3.02132E-03-6.52910E-01 4.94218E-14 4.89569E-14
 -1      2390 2.18824E+01-4.28858E-01-1.23526E-02-5.66364E-02-4.96426E-14 2.05337E-13
 -1      2391 2.18342E+01-3.63627E-01 5.67247E-04-2.27099E-01-1.08346E-14 2.03979E-13
 -1      2392 2.17264E+01-4.58273E-01-1.20858E-03-4.04804E-01 3.26887E-15 1.18111E-13
 -1      2393 2.19805E+01-5.05120E-01-1.20648E-02 3.81275E-01 2.90462E-14 2.17841E-13
 -1      2394 2.20090E+01-4.76595E-01-1.56675E-03 1.69712E-01-1.81695E-14 2.21881E-13
 -1      2395 2.19974E+01-6.23257E-01 1.73018E-03-4.06045E-03-2.12009E-14 1.42903E-13
 -1      2396 2.19312E+01-4.55130E-01-7.12927E-03 8.51109E-01 9.19746E-14 2.23684E-13
 -1      2397 2.20469E+01-5.01030E-01-5.15455E-03 6.44191E-01 6.37966E-14 2.19001E-13
 -1      2398 2.21933E+01-6.85469E-01 5.82087E-03 5.14971E-01 5.64783E-14 1.19817E-13
 -1      2399 2.17095E+01-2.19953E-01 2.77158E-03 1.20840E+00 1.84159E-13 2.28200E-13
 -1      2400 2.18992E+01-3.65239E-01-8.99609E-03 1.07969E+00 1.42018E-13 2.31737E-13
 -1      2401 2.22417E+01-5.51243E-01 9.28847E-03 1.04779E+00 1.04007E-13 1.73892E-13
 -1      2402 2.13492E+01 1.85952E-01 1.36415E-02 1.27067E+00 1.80817E-13 1.87787E-13
 -1      2403 2.15670E+01-3.67346E-02-1.09224E-02 1.29873E+00 1.87208E-13 2.36272E-13
 -1      2404 2.20900E+01-1.60803E-01 9.98656E-03 1.40936E+00 1.87893E-13 2.58093E-13
 -1      2405 2.09731E+01 6.22346E-01 1.82338E-02 9.12501E-01 1.83415E-13 1.15613E-13
 -1      2406 2.11475E+01 4.11140E-01-7.45815E-03 1.13166E+00 2.05879E-13 1.63200E-13
 -1      2407 2.17673E+01 4.17222E-01 3.39635E-03 1.38120E+00 1.94809E-13 1.88384E-13
 -1      2408 2.07646E+01 8.70360E-01 1.28568E-02 1.93127E-01 2.06322E-13 5.30663E-16
 -1      2409 2.08273E+01 7.81814E-01 2.19488E-03 5.46125E-01 1.79533E-13 6.92150E-14
 -1      2410 2.14312E+01 9.54189E-01-8.30104E-03 8.49608E-01 2.17947E-13 1.55692E-13
 -1      2411 2.08514E+01 7.89041E-01 1.77299E-03-6.27443E-01 3.14953E-13-7.93090E-14
 -1      2412 2.07724E+01 8.74954E-01 1.35144E-02-2.72035E-01 2.41670E-13-9.37114E-15
 -1      2413 2.12938E+01 1.18023E+00-1.40338E-02-4.64005E-02 2.34447E-13 3.86097E-14
 -1      2414 2.12096E+01 4.25771E-01-7.18185E-03-1.22379E+00 1.89957E-13-2.53595E-14
 -1      2415 2.10147E+01 6.34207E-01 1.84790E-02-9.99904E-01 3.23401E-13-8.02223E-15
 -1      2416 2.14568E+01 9.68700E-01-7.92845E-03-9.49600E-01 2.98708E-13 5.57308E-14
 -1      2417 2.16700E+01-1.51292E-02-9.62447E-03-1.40783E+00-9.14291E-15-1.28582E-13
 -1      2418 2.14265E+01 2.03274E-01 1.34729E-02-1.37073E+00 1.17925E-13-7.67138E-14
 -1      2419 2.18209E+01 4.38728E-01 3.10043E-03-1.49415E+00 1.70233E-13 2.89065E-14
 -1      2420 2.20485E+01-3.42186E-01-7.12969E-03-1.20906E+00-3.46030E-14-2.81116E-13
 -1      2421 2.18279E+01-1.99534E-01 2.69116E-03-1.32599E+00-7.91676E-14-2.29041E-13
 -1      2422 2.21741E+01-1.33640E-01 9.93436E-03-1.54190E+00 1.70246E-14-1.00428E-13
 -1      2423 2.22460E+01-4.80666E-01-3.35595E-03-7.91475E-01 1.14278E-13-3.68265E-13
 -1      2424 2.20962E+01-4.35192E-01-7.07899E-03-9.86133E-01 5.00368E-14-3.31527E-13
 -1      2425 2.23611E+01-5.24277E-01 9.57375E-03-1.20102E+00 5.14911E-14-2.07188E-13
 -1      2426 2.22576E+01-4.61264E-01-5.65888E-04-3.29754E-01 1.03204E-13-3.73768E-13
 -1      2427 2.21944E+01-4.87979E-01-1.21438E-02-5.30900E-01 1.34874E-13-3.92543E-13
 -1      2428 2.23486E+01-6.63882E-01 5.52068E-03-6.84708E-01 1.29779E-13-3.39942E-13
 -1      2429 2.21290E+01-3.55375E-01 8.71891E-04 6.08227E-02 5.64037E-14-2.32093E-13
 -1      2430 2.21442E+01-4.16467E-01-1.25314E-02-1.03080E-01 1.38378E-13-2.64489E-13
 -1      2431 2.21854E+01-6.07958E-01 1.51274E-03-1.76104E-01 7.68522E-14-2.63974E-13
 -1      2432 2.19161E+01-2.26663E-01 1.32044E-03 3.33612E-01-1.23981E-13-1.93937E-13
 -1      2433 2.19897E+01-2.92557E-01-1.00900E-02 2.22655E-01-4.78129E-14-1.94485E-13
 -1      2434 2.19409E+01-4.52864E-01-8.39992E-04 2.23113E-01 1.28949E-14-1.50034E-13
 -1      2435 2.16645E+01-1.12722E-01 1.28699E-03 4.89239E-01-1.01930E-13-2.04001E-13
 -1      2436 2.17742E+01-1.67727E-01-6.71201E-03 4.28654E-01-8.74331E-14-1.38054E-13
 -1      2437 2.16694E+01-2.78523E-01-1.80232E-03 4.83801E-01-9.83287E-14-1.30117E-13
 -1      2438 2.14051E+01-2.80194E-02 1.11703E-03 5.50708E-01-1.11258E-13-1.46032E-13
 -1      2439 2.15318E+01-6.72038E-02-3.54151E-03 5.29620E-01-7.74031E-14-2.34110E-13
 -1      2440 2.14030E+01-1.29465E-01-1.99258E-03 6.19137E-01-5.16764E-14-1.48069E-13
 -1      2441 2.11575E+01 2.68387E-02 9.54250E-04 5.46531E-01-1.42980E-13 1.98196E-14
 -1      2442 2.12867E+01 2.52716E-03-1.06288E-03 5.52382E-01-1.75218E-13-6.35515E-14
 -1      2443 2.11574E+01-2.12352E-02-1.88154E-03 6.58927E-01-1.75550E-13-6.27322E-14
 -1      2444 2.09326E+01 5.72991E-02 8.29913E-04 5.02291E-01-1.38732E-14 6.46398E-14
 -1      2445 2.10547E+01 4.46272E-02 6.31587E-04 5.24113E-01-2.98864E-14 1.96122E-14
 -1      2446 2.09392E+01 4.72981E-02-1.69617E-03 6.34665E-01-1.17589E-13-1.19001E-13
 -1      2447 2.07358E+01 7.02482E-02 7.36075E-04 4.37652E-01-8.94355E-14 6.67034E-14
 -1      2448 2.08451E+01 6.56699E-02 1.63789E-03 4.67179E-01-5.25621E-14 9.54249E-14
 -1      2449 2.07501E+01 8.41343E-02-1.51971E-03 5.72935E-01-3.72853E-14-1.67726E-13
 -1      2450 2.05687E+01 7.18522E-02 6.58306E-04 3.66203E-01-1.95471E-13 1.84619E-13
 -1      2451 2.06626E+01 7.23602E-02 2.11938E-03 3.97832E-01-9.93962E-14 8.07163E-14
 -1      2452 2.05894E+01 9.85816E-02-1.36535E-03 4.93523E-01-1.19185E-13-4.39453E-14
 -1      2453 2.04303E+01 6.68538E-02 5.86596E-04 2.96479E-01-9.93715E-14 1.75431E-13
 -1      2454 2.05085E+01 7.02062E-02 2.24014E-03 3.26774E-01-1.64587E-13 1.95926E-13
 -1      2455 2.04555E+01 9.87394E-02-1.22480E-03 4.09816E-01-1.83500E-13 3.89109E-14
 -1      2456 2.03185E+01 5.85682E-02 5.16503E-04 2.33251E-01 7.34473E-14 1.48156E-13
 -1      2457 2.03816E+01 6.32339E-02 2.13661E-03 2.60360E-01 2.65781E-14 1.68209E-13
 -1      2458 2.03457E+01 9.07423E-02-1.08930E-03 3.30050E-01-9.76543E-14 6.15500E-15
 -1      2459 2.02300E+01 4.91430E-02 4.47459E-04 1.78709E-01 7.15000E-14 1.05728E-13
 -1      2460 2.02797E+01 5.41518E-02 1.91058E-03 2.01847E-01 7.70171E-14 1.68615E-13
 -1      2461 2.02573E+01 7.88328E-02-9.55168E-04 2.58694E-01 9.08834E-14 1.40716E-13
 -1      2462 2.01615E+01 3.98661E-02 3.80812E-04 1.33396E-01 8.17051E-14 3.18909E-13
 -1      2463 2.01997E+01 4.46514E-02 1.63197E-03 1.52444E-01 7.14550E-14 1.53151E-13
 -1      2464 2.01874E+01 6.57317E-02-8.23072E-04 1.97657E-01-2.21999E-15 2.71339E-13
 -1      2465 2.01096E+01 3.14352E-02 3.18382E-04 9.68796E-02 2.28949E-13 3.10953E-13
 -1      2466 2.01383E+01 3.57032E-02 1.34535E-03 1.12102E-01 1.45230E-13 2.92039E-13
 -1      2467 2.01332E+01 5.30505E-02-6.96017E-04 1.47222E-01 1.30704E-13 3.27513E-13
 -1      2468 2.00711E+01 2.41645E-02 2.61690E-04 6.82176E-02 1.93350E-13 4.72640E-13
 -1      2469 2.00921E+01 2.77961E-02 1.07674E-03 8.00716E-02 2.92583E-13 4.50235E-13
 -1      2470 2.00919E+01 4.16439E-02-5.77490E-04 1.06727E-01 1.97764E-13 1.84966E-13
 -1      2471 2.00434E+01 1.81320E-02 2.11672E-04 4.62566E-02-1.72998E-14 4.20707E-13
 -1      2472 2.00582E+01 2.11134E-02 8.39438E-04 5.52679E-02 1.59069E-13 4.78219E-13
 -1      2473 2.00610E+01 3.18782E-02-4.70261E-04 7.50209E-02 2.06122E-13 4.99019E-13
 -1      2474 2.00239E+01 1.32793E-02 1.68650E-04 2.98175E-02 6.49944E-14-1.32701E-14
 -1      2475 2.00341E+01 1.56561E-02 6.38467E-04 3.65083E-02-4.37531E-14 2.34042E-13
 -1      2476 2.00386E+01 2.38209E-02-3.75965E-04 5.07699E-02 1.58166E-13 3.10735E-13
 -1      2477 2.00108E+01 9.47741E-03 1.32428E-04 1.78006E-02-2.81822E-14 7.64240E-14
 -1      2478 2.00174E+01 1.13244E-02 4.73767E-04 2.26489E-02 2.66740E-14-8.01983E-14
 -1      2479 2.00226E+01 1.73695E-02-2.95122E-04 3.26390E-02 8.56229E-14 5.85938E-14
 -1      2480 2.00024E+01 6.56806E-03 1.02398E-04 9.23922E-03-6.73049E-14-5.95582E-14
 -1      2481 2.00064E+01 7.97068E-03 3.42439E-04 1.26592E-02-3.34072E-14 1.46241E-14
 -1      2482 2.00117E+01 1.23355E-02-2.27355E-04 1.93981E-02-2.69381E-14-1.66324E-13
 -1      2483 1.99974E+01 4.38764E-03 7.76505E-05 3.31982E-03 8.26046E-14 2.37291E-14
 -1      2484 1.99996E+01 5.43141E-03 2.40214E-04 5.65590E-03 5.14183E-16-7.03960E-14
 -1      2485 2.00045E+01 8.49665E-03-1.71667E-04 9.97343E-03 1.90404E-15-1.69527E-13
 -1      2486 1.99949E+01 2.77999E-03 5.70545E-05-6.16115E-04 8.38019E-14-4.35866E-14
 -1      2487 1.99958E+01 3.54516E-03 1.62387E-04 9.11309E-04 1.04357E-13 4.43005E-14
 -1      2488 2.00000E+01 5.62688E-03-1.26692E-04 3.46639E-03 5.91963E-14-9.71176E-14
 -1      2489 1.99940E+01 1.60162E-03 3.93369E-05-3.08068E-03 6.55313E-14-7.92315E-14
 -1      2490 1.99941E+01 2.16133E-03 1.04371E-04-2.15132E-03 1.03274E-13 2.75357E-15
 -1      2491 1.99976E+01 3.51224E-03-9.09222E-05-8.46923E-04 1.07307E-13-1.79218E-13
 -1      2492 1.99943E+01 7.22136E-04 2.32002E-05-4.45220E-03-1.86694E-13 3.01126E-13
 -1      2493 1.99938E+01 1.14270E-03 6.20349E-05-3.96934E-03-9.93825E-14 1.34292E-13
 -1      2494 1.99965E+01 1.95669E-03-6.29136E-05-3.52666E-03-1.00274E-13 5.18085E-14
 -1      2495 1.99952E+01 2.33778E-05 8.85381E-06-4.98855E-03-6.41975E-14 2.24564E-13
 -1      2496 1.99944E+01 3.64117E-04 3.17894E-05-4.85466E-03-2.01459E-13 2.47722E-13
 -1      2497 1.99964E+01 7.83082E-04-4.12057E-05-4.98516E-03-1.30328E-13 3.57639E-13
 -1      2498 1.99964E+01-6.09933E-04-4.53458E-06-4.84480E-03 1.91657E-13 2.96393E-13
 -1      2499 1.99955E+01-2.95751E-04 9.30112E-06-5.01196E-03-9.88383E-16 2.15437E-13
 -1      2500 1.99968E+01-1.61610E-04-2.30903E-05-5.50642E-03 1.28405E-14 1.61492E-13
 -1      2501 1.99977E+01-1.24995E-03-1.82692E-05-4.09683E-03-9.67180E-14 6.72043E-13
 -1      2502 1.99968E+01-9.17180E-04-3.44491E-07-4.53324E-03 1.35535E-14 5.00684E-13
 -1      2503 1.99975E+01-1.05984E-03-9.59332E-06-5.27508E-03-6.36328E-14 5.17543E-13
 -1      2504 1.99981E+01-1.56832E-03-6.45695E-06-3.44790E-03 1.92147E-13 7.80286E-13
 -1      2505 2.00012E+01-5.38605E-03 1.17936E-05-3.41634E-03-1.12933E-13-5.72973E-13
 -1      2506 2.00010E+01-4.89104E-03 1.06543E-05-3.86309E-03-2.94376E-13-9.94887E-13
 -1      2507 2.00014E+01-5.89575E-03 1.33522E-05-2.28821E-03 2.58053E-13 1.14630E-13
 -1      2508 2.00013E+01-5.54746E-03 1.55025E-05-2.84393E-03 1.07052E-13-2.07211E-13
 -1      2509 2.00017E+01-3.89380E-03-3.90885E-06-3.38707E-03 1.60317E-13-1.56768E-13
 -1      2510 2.00000E+01-3.70446E-03 1.22943E-05-4.76748E-03-3.65082E-13-4.76870E-13
 -1      2511 1.99995E+01-3.02257E-03-1.78636E-05-4.78025E-03-1.15836E-13-3.66564E-13
 -1      2512 2.00007E+01-4.64573E-03 1.06197E-05-4.29501E-03-6.18398E-13-1.07873E-12
 -1      2513 2.00004E+01-4.04604E-03 8.34022E-07-4.55677E-03-5.09378E-13-6.93792E-13
 -1      2514 2.00003E+01-2.95098E-03-4.95303E-06-5.09179E-03-4.99782E-13-7.93972E-13
 -1      2515 2.00012E+01-3.50708E-03-4.17198E-06-4.42704E-03-4.05839E-13-7.81750E-13
 -1      2516 2.00016E+01-6.16992E-03 1.55248E-05-1.02942E-03 1.58505E-13 2.03208E-13
 -1      2517 2.00015E+01-5.98763E-03 1.73556E-05-1.64099E-03 2.22520E-13 8.85810E-14
 -1      2518 2.00020E+01-4.13449E-03-2.16071E-06-2.12240E-03 3.67254E-13 1.15007E-13
 -1      2519 2.00016E+01-6.21163E-03 1.76703E-05 2.83357E-04-1.94480E-13 3.03425E-14
 -1      2520 2.00016E+01-6.20569E-03 1.67678E-05-3.47739E-04-1.21336E-13 2.19674E-13
 -1      2521 2.00021E+01-4.25721E-03-1.10038E-06-7.46040E-04 2.00290E-13-1.43699E-14
 -1      2522 2.00015E+01-6.02354E-03 1.85141E-05 1.58943E-03-2.89228E-13-3.14970E-13
 -1      2523 2.00016E+01-6.19531E-03 1.48291E-05 9.70138E-04-2.41875E-13-1.48929E-13
 -1      2524 2.00021E+01-4.27580E-03-1.34933E-06 6.70508E-04-1.37575E-13-1.35037E-13
 -1      2525 2.00014E+01-5.61431E-03 1.62514E-05 2.79961E-03-2.25804E-13-5.15009E-14
 -1      2526 2.00015E+01-5.94917E-03 1.31491E-05 2.23992E-03-1.94322E-13-2.12367E-13
 -1      2527 2.00020E+01-4.18736E-03-2.66506E-06 2.05576E-03-1.03118E-13-1.64171E-13
 -1      2528 2.00010E+01-4.97380E-03 9.56883E-06 3.85647E-03-1.68274E-13 4.61198E-13
 -1      2529 2.00012E+01-5.46100E-03 1.25586E-05 3.39159E-03-1.89731E-13 6.07021E-14
 -1      2530 2.00018E+01-3.97136E-03-4.40352E-06 3.34656E-03-9.96053E-14-2.08039E-14
 -1      2531 2.00004E+01-4.12186E-03-3.14366E-06 4.59057E-03-1.67219E-13 4.53075E-13
 -1      2532 2.00008E+01-4.72026E-03 1.37323E-05 4.30853E-03-1.38793E-13 5.78970E-13
 -1      2533 2.00012E+01-3.58483E-03-2.18574E-06 4.44223E-03-1.89631E-13 5.67905E-13
 -1      2534 1.99996E+01-3.07353E-03-1.43925E-05 4.80801E-03-3.45909E-14 2.33581E-13
 -1      2535 2.00000E+01-3.75372E-03 1.05980E-05 4.81387E-03-1.78223E-13 3.98676E-13
 -1      2536 2.00004E+01-3.01914E-03-6.45534E-06 5.13649E-03-2.24163E-13 3.60757E-13
 -1      2537 4.70783E+00-2.73962E+00 8.63997E-02 3.66078E+00-2.71810E-13 1.01752E-12
 -1      2538 3.43775E+00-2.69804E+00 9.87717E-02 1.35829E+00-2.68834E-13 1.02646E-12
 -1      2539 1.72145E+01-5.30607E+00-3.28972E-02 7.02026E+00 1.64313E-14-1.40502E-13
 -1      2540 1.34862E+01-5.24870E+00 4.32329E-02 6.89968E+00-1.06581E-14 5.56361E-14
 -1      2541 2.08193E+01 1.79642E-01 3.96826E-03-4.59353E-01 1.15807E-13 1.57640E-13
 -1      2542 2.07757E+01 2.42814E-01 1.28751E-02-3.55205E-01 1.51134E-13 1.89657E-13
 -1      2543 2.08342E+01 2.18471E-01-5.65771E-03-5.61580E-01 1.25860E-13 3.86796E-14
 -1      2544 3.13726E+01 3.01113E+00-1.68391E-01-9.02709E-01 8.30558E-13-7.68940E-13
 -1      2545 3.07223E+01 8.17677E-01-5.09924E-02 2.05238E-02 6.85133E-13-7.73326E-13
 -1      2546 1.99987E+01-2.36354E-03-2.12403E-06 4.08029E-03 2.34584E-13 2.58002E-13
 -1      2547 5.95928E+00-3.77869E+00 7.76997E-02-4.42912E+00 4.67404E-14 8.47211E-13
 -1      2548 9.21830E+00-4.46179E+00 1.66781E-02-6.10484E+00 8.83738E-14 8.79768E-13
 -1      2549 1.00511E+01-4.49593E+00 1.95600E-02 6.75270E+00-1.19849E-13 4.00124E-13
 -1      2550 7.22478E+00-3.66527E+00 1.04767E-01 5.51936E+00-3.16608E-13 7.65693E-13
 -1      2551 1.32787E+01-4.26834E+00 1.34375E-01 6.69382E+00-3.37119E-13 1.36488E-13
 -1      2552 3.14681E+00-2.74149E+00 1.12568E-01-2.12130E-01-1.32444E-13 8.07465E-13
 -1      2553 3.63275E+00-2.99071E+00 5.20932E-02-2.22335E+00-1.53905E-13 7.15095E-13
 -1      2554 5.14792E+00-1.50380E+00 1.58774E-01 7.73431E-01-3.25785E-13 8.75189E-13
 -1      2555 3.29759E+01 6.44164E+00-1.79182E-01-1.00077E+00-1.23368E-12 5.06678E-14
 -1      2556 3.33596E+01 4.96556E+00-7.33749E-02-1.17211E+00-1.12188E-12 1.71085E-13
 -1      2557 3.12782E+01 4.74028E+00-1.33744E-01 1.02484E+00 7.79071E-13-6.69187E-14
 -1      2558 3.23386E+01 6.42177E+00-1.19099E-01 7.51730E-01 9.26148E-13-2.00534E-13
 -1      2559 1.88368E+01 4.03033E+00-8.60406E-03-1.78071E-01 5.38056E-15-5.51844E-13
 -1      2560 1.88857E+01 4.00706E+00-7.90231E-03-2.82742E-01-4.84234E-14-5.56791E-13
 -1      2561 1.90267E+01 3.68624E+00 2.33040E-03-2.74648E-01-5.92148E-14-5.14629E-13
 -1      2562 1.89250E+01 3.75265E+00 1.86292E-03-1.35013E-01 1.76332E-14-5.06694E-13
 -1      2563 3.28109E+01 7.59246E+00-1.31226E-01 1.78434E-01 1.02623E-12-2.95736E-13
 -1      2564 3.32037E+01 7.64767E+00-9.93356E-02-1.78701E-01 9.83547E-13-3.32449E-13
 -1      2565 5.07190E+00-3.49979E+00 6.01536E-02-4.05556E+00-6.91669E-14-1.20176E-12
 -1      2566 7.77995E+00-3.52680E+00 7.61767E-02-5.69196E+00-1.70364E-13-1.04566E-12
 -1      2567 3.30176E+01 6.97251E+00-6.08434E-02-5.81065E-01 9.29812E-13-4.17943E-13
 -1      2568 3.16318E+01 5.64121E+00-1.44972E-01-9.62453E-01 8.89067E-13-4.97824E-13
 -1      2569 3.04888E+01 7.06064E+00-7.09023E-02-6.93107E-01 8.65086E-13-2.20858E-13
 -1      2570 3.03117E+01 1.50090E-01-5.87309E-02-8.11148E-03 4.61180E-13-1.33171E-13
 -1      2571 3.09158E+01 1.86213E+00-1.94247E-01 6.45732E-01 5.76275E-13-9.75053E-14
 -1      2572 2.63177E+01-3.91179E+00 4.39969E-03-3.51482E+00 1.99646E-13-3.42310E-13
 -1      2573 2.92112E+01-2.07816E+00-1.27429E-01-1.87363E+00 3.44006E-13-2.06113E-13
 -1      2574 2.89061E+01-1.65258E+00-8.91283E-03-2.54572E-01 1.83746E-13 1.85407E-14
 -1      2575 1.98110E+01-5.48213E+00 2.11355E-02-6.23574E+00 4.08840E-14-5.51531E-13
 -1      2576 2.30639E+01-5.06135E+00-7.40145E-02-5.60392E+00 1.38056E-13-4.37844E-13
 -1      2577 3.13452E+01-7.10276E-01-4.82180E-02-2.04555E-01-4.11518E-13 3.77476E-14
 -1      2578 3.23589E+01 1.25771E+00-1.89962E-01 8.78294E-01-6.52811E-13-1.97065E-13
 -1      2579 1.22382E+01-4.74057E+00 9.63836E-02-6.86605E+00-1.89598E-13-8.77270E-13
 -1      2580 1.63351E+01-5.27256E+00 4.08968E-02-7.17541E+00-5.38458E-14-7.31915E-13
 -1      2581 3.31856E+00-2.62294E+00 1.04778E-01-7.15642E-02 4.63570E-14-1.20726E-12
 -1      2582 3.67963E+00-2.96683E+00 7.08598E-02-2.38919E+00 7.01383E-14-1.23596E-12
 -1      2583 6.31981E+00-1.84929E+00 1.71909E-01-3.08674E+00-9.71306E-14-1.12862E-12
 -1      2584 5.61936E+00-3.17780E+00 7.37624E-02 4.15985E+00 1.76553E-13-1.00714E-12
 -1      2585 3.96373E+00-2.84739E+00 9.92882E-02 2.02976E+00 1.95177E-13-1.14192E-12
 -1      2586 1.18889E+01-4.76143E+00 5.22771E-02 6.68803E+00 1.79745E-13-6.87922E-13
 -1      2587 8.74853E+00-4.06171E+00 9.37680E-02 5.66957E+00 2.74974E-13-8.44297E-13
 -1      2588 1.89937E+01-5.68747E+00-2.58079E-02 6.44975E+00 1.16740E-13-2.89182E-13
 -1      2589 1.51076E+01-5.52193E+00 4.42214E-02 6.54955E+00 1.44745E-13-4.71644E-13
 -1      2590 1.52961E+01-4.51131E+00 1.49648E-01 6.33226E+00 3.93685E-13-4.84029E-13
 -1      2591 2.65589E+01-4.88314E+00-1.20634E-01 3.50711E+00-1.42220E-13 1.15685E-13
 -1      2592 2.31457E+01-5.60407E+00 3.52804E-02 4.77844E+00 5.46230E-14-7.78128E-14
 -1      2593 3.15722E+01-8.32568E-01-3.96094E-02 6.45190E-01-6.85623E-13 2.19935E-13
 -1      2594 2.93002E+01-2.86281E+00-4.95345E-02 1.34228E+00-4.54914E-13 2.62540E-13
 -1      2595 3.32027E+01 3.01921E+00-1.59734E-01-9.33678E-01-9.62203E-13 2.24959E-13
 -1      2596 3.23390E+01 1.22466E+00-8.78173E-02-4.49191E-01-8.12683E-13 2.35811E-13
 -1      2597 3.08883E+01-7.71181E-02 3.45135E-02-1.28356E+00-7.02785E-13 2.98483E-13
 -1      2598 3.14461E+01 3.63998E+00-1.09114E-02-2.02966E+00-9.86350E-13 1.65118E-13
 -1      2599 3.24797E+01 6.71537E+00-1.54236E-01 7.74130E-01-1.13631E-12-2.38476E-13
 -1      2600 3.22649E+01 6.96214E+00-1.71833E-01 1.14034E-02-1.20653E-12-1.61426E-13
 -1      2601 3.24526E+01 3.88055E+00-8.35104E-02 1.71078E+00-8.54927E-13-2.93099E-13
 -1      2602 3.28452E+01 5.63275E+00-1.76637E-01 1.40124E+00-1.01419E-12-3.02952E-13
 -1      2603 3.01512E+01 5.44196E+00-9.11115E-02 1.48784E+00-9.37889E-13-4.93182E-13
 -1      2604 2.74515E+01-4.01687E+00-9.84951E-03-2.75019E+00-5.52336E-14 3.11751E-13
 -1      2605 2.99852E+01-2.52128E+00-9.21231E-02-1.71214E+00-2.99538E-13 1.70919E-13
 -1      2606 3.04065E+01-1.97921E+00 6.83720E-02 2.19181E-01-1.26862E-13-2.73392E-13
 -1      2607 2.04155E+01-5.75948E+00 9.16487E-03-5.64601E+00 2.98372E-13 9.10882E-13
 -1      2608 2.41134E+01-5.29812E+00-7.66928E-02-4.78745E+00 1.82104E-13 6.59056E-13
 -1      2609 1.31337E+01-5.39542E+00 3.98629E-02-6.47710E+00 2.86493E-13 1.03510E-12
 -1      2610 1.67379E+01-5.63965E+00-1.75386E-02-6.68127E+00 2.56350E-13 1.06428E-12
 -1      2611 2.09978E+01 2.03010E+00-1.05521E-02-1.38392E+00-4.30244E-13-9.26620E-14
 -1      2612 2.09662E+01 1.31967E+00-3.40441E-03-7.30861E-01-3.84806E-13-5.66920E-14
 -1      2613 2.08147E+01 1.53846E+00 1.04248E-03-5.98099E-01-3.52903E-13-1.47384E-13
 -1      2614 2.06302E+01 2.49686E+00-5.89914E-03-1.29733E+00-4.15333E-13-2.09457E-13
 -1      2615 2.10896E+01 8.89710E-01-4.28785E-03 8.42759E-01 3.96200E-13 3.55219E-13
 -1      2616 2.13577E+01 1.25763E+00-5.01458E-03 1.35373E+00 4.35027E-13 4.16852E-13
 -1      2617 2.11288E+01 1.71949E+00-1.59919E-02 1.51227E+00 4.74717E-13 2.50387E-13
 -1      2618 2.09940E+01 1.09113E+00-1.02394E-02 7.82684E-01 4.05075E-13 1.59999E-13
 -1      2619 2.50134E+01-4.31615E+00-5.29971E-02 4.70611E+00 1.40665E-13-1.59678E-13
 -1      2620 2.14983E+01-5.20003E+00 3.80900E-02 5.64219E+00 4.89331E-14-1.63120E-13
 -1      2621 2.64237E+01-4.20620E+00 4.68383E-02 2.99416E+00 1.04056E-13-4.05842E-13
 -1      2622 2.96964E+01 2.93229E+00-8.33870E-02 1.61183E+00 5.64215E-13 1.16823E-13
 -1      2623 1.96445E+01 3.20259E+00 4.43859E-03-6.00675E-01-2.35522E-13-4.57939E-13
 -1      2624 1.96141E+01 3.45046E+00-1.75760E-02-7.99101E-01-2.60386E-13-4.82674E-13
 -1      2625 1.98524E+01 3.29556E+00-1.33216E-02-9.60039E-01-3.29031E-13-4.44870E-13
 -1      2626 2.07937E+01 4.01648E-01-5.35925E-03-2.71171E-01 2.07783E-13 7.29087E-14
 -1      2627 2.08333E+01 2.14201E+00-1.27450E-02 1.43416E+00 4.71078E-13 4.46310E-14
 -1      2628 1.26947E+01-4.34506E+00 1.25273E-01-6.17761E+00 3.20466E-13 8.77687E-13
 -1      2629 1.99984E+01-1.89741E-03-1.34026E-05-4.29824E-03-5.82690E-14 8.42897E-13
 -1      2630 2.04091E+01-5.29901E+00 7.52985E-02 5.97575E+00-8.91509E-14-2.23647E-13
 -1      2631 1.99988E+01-2.39002E-03 7.60997E-06-4.59350E-03-9.15878E-15 3.55727E-13
 -1      2632 2.03265E+01 2.77696E+00-1.34559E-02-1.13310E+00-3.71162E-13-3.21399E-13
 -1      2633 3.04672E+01 6.03039E+00-9.79838E-02-6.43743E-01-1.12074E-12-2.07275E-13
 -1      2634 7.56681E+00-2.35812E+00 1.62306E-01 4.49761E+00-4.45213E-13 8.85098E-13
 -1      2635 6.57146E+00-2.28260E+00 1.53532E-01-3.35384E+00-7.63001E-14 7.64361E-13
 -1      2636 2.08118E+01 1.86836E+00 1.19045E-02 1.08093E+00 4.28512E-13 4.62911E-15
 -1      2637 3.05569E+01 3.96068E+00-1.04977E-01-1.45010E+00 7.69107E-13-5.65714E-13
 -1      2638 2.89801E+01 2.31763E+00-7.50810E-02-1.75667E+00 6.58709E-13-5.32990E-13
 -1      2639 2.89033E+01 4.60203E+00-1.68142E-01-1.85689E+00 6.94167E-13-2.98442E-13
 -1      2640 1.99981E+01-1.62441E-03-1.89127E-05 4.54505E-03 1.88467E-13 3.28985E-13
 -1      2641 1.99990E+01-2.58420E-03 5.97255E-07 4.87345E-03 1.31223E-13 3.11452E-13
 -1      2642 1.99992E+01-2.17443E-03 3.62398E-06 5.35984E-03 1.32271E-13 3.93649E-13
 -1      2643 1.99976E+01-1.29470E-03-5.81417E-06 5.02974E-03-1.29044E-14 3.76137E-13
 -1      2644 2.20377E+01-5.53201E+00 7.83330E-02 5.10839E+00 2.66925E-13-4.01519E-14
 -1      2645 5.57056E+00-1.52446E+00 1.73769E-01 9.67883E-01 1.67102E-13-1.12077E-12
 -1      2646 1.11324E+01-3.79849E+00 1.22499E-01-6.38387E+00-2.61291E-13-9.48075E-13
 -1      2647 1.43955E+01-3.82868E+00 7.60780E-02-6.42728E+00-4.13933E-13-7.26100E-13
 -1      2648 1.03814E+01-2.50275E+00 1.44492E-01-5.57702E+00-2.90656E-13-8.74856E-13
 -1      2649 3.02029E+01 6.68770E+00-7.75978E-02 8.56850E-01 8.78159E-13-6.33660E-14
 -1      2650 2.63498E+01-4.94091E+00 4.05260E-02-3.02743E+00 2.80082E-13 2.53159E-13
 -1      2651 2.54914E+01-4.69231E+00 5.73986E-02-3.74991E+00-7.73548E-14-2.08250E-13
 -1      2652 2.94277E+01-8.61296E-01-1.83663E-03-3.97063E-02 4.97456E-13-7.92449E-13
 -1      2653 1.91750E+01-5.35541E+00 7.37902E-02-6.34711E+00-2.69007E-13-5.02076E-13
 -1      2654 3.11187E+01 2.07463E+00-2.39640E-02 2.04902E+00-5.61357E-13-4.46920E-13
 -1      2655 9.12097E+00-2.73016E+00 1.60970E-01 4.89677E+00 3.52385E-13-8.53484E-13
 -1      2656 2.81308E+01-4.16494E+00-1.19572E-02 1.41486E+00-1.28272E-13 2.95014E-13
 -1      2657 1.99989E+01-2.05005E-03-7.02253E-06-5.18169E-03-1.06499E-13 7.37699E-14
 -1      2658 1.99269E+01-5.61348E+00 9.08077E-02-5.79104E+00 4.41536E-13 8.27274E-13
 -1      2659 1.99984E+01-1.39413E-03-1.23492E-05 5.55986E-03 1.22566E-13 2.61367E-13
 -1      2660 1.92335E+01 3.23735E+00-3.64116E-03 1.35129E-01 1.98425E-13-4.62008E-13
 -1      2661 1.91146E+01 3.32120E+00-7.34490E-03 5.00064E-02 1.55089E-13-4.80971E-13
 -1      2662 1.90248E+01 3.40819E+00-3.74003E-03 3.75651E-03 1.23317E-13-4.89896E-13
 -1      2663 1.89658E+01 3.44756E+00-6.59672E-03-6.76644E-02 7.90768E-14-4.82599E-13
 -1      2664 1.91410E+01 3.09603E+00 5.04226E-03-3.98268E-02 1.28703E-13-4.52967E-13
 -1      2665 1.99422E+01 2.58215E+00-7.68894E-03 4.93409E-01 3.31366E-13-2.84870E-13
 -1      2666 1.97366E+01 2.77451E+00-8.10800E-03 3.81071E-01 2.96755E-13-3.33486E-13
 -1      2667 2.03942E+01 2.06559E+00-9.02234E-03 6.67424E-01 3.70113E-13-1.97140E-13
 -1      2668 2.01628E+01 2.34222E+00-6.51975E-03 5.72297E-01 3.45286E-13-2.52910E-13
 -1      2669 2.01467E+01 2.13732E+00 5.50365E-03 3.23374E-01 3.02886E-13-2.45320E-13
 -1      2670 2.07697E+01 8.25103E-01-1.36956E-03 6.52578E-02 2.90159E-13 9.08887E-16
 -1      2671 2.08417E+01 1.04076E+00 9.79695E-03 3.60493E-01 3.25369E-13 2.05806E-14
 -1      2672 2.67799E+01-3.90346E+00-1.24347E-01 1.73862E+00 7.56686E-14-5.58484E-13
 -1      2673 2.51715E+01-4.66318E+00 7.22795E-02 3.11167E+00-7.61682E-14-4.35929E-13
 -1      2674 2.07414E+01 1.57941E+00-1.18002E-03 7.57068E-01 3.78219E-13-2.51921E-14
 -1      2675 2.80238E+01 1.44959E+00-1.00496E-01 1.82528E+00 4.39732E-13 1.83881E-13
 -1      2676 2.79766E+01 3.65885E+00-1.93871E-01 1.84552E+00 6.37448E-13 1.63716E-13
 -1      2677 2.06080E+01 9.93344E-01 6.07608E-03 4.84266E-01-2.07170E-13-2.01507E-13
 -1      2678 2.05981E+01 8.78627E-01 9.33579E-04 7.39175E-01-1.59475E-13-1.82434E-13
 -1      2679 2.05681E+01 7.91693E-01 4.09580E-03 9.69613E-01-1.41078E-13-1.64046E-13
 -1      2680 2.05996E+01 7.16491E-01 2.78945E-03 1.17642E+00-1.00487E-13-1.64971E-13
 -1      2681 2.03607E+01 1.03661E+00-1.10602E-03 8.44738E-01-1.68511E-13-2.11529E-13
 -1      2682 2.05753E+01 6.47577E-01 2.59664E-03 1.37737E+00-7.70406E-14-1.62919E-13
 -1      2683 2.06523E+01 5.73254E-01 4.00840E-03 1.54703E+00-6.91725E-14-1.60086E-13
 -1      2684 2.02964E+01 8.47760E-01-1.80494E-03 1.28862E+00-1.03877E-13-2.02780E-13
 -1      2685 2.06522E+01 4.85456E-01 2.66517E-03 1.72508E+00-5.43688E-14-1.37333E-13
 -1      2686 2.07823E+01 3.72477E-01 4.74300E-03 1.85592E+00-5.04387E-14-1.37860E-13
 -1      2687 2.02622E+01 6.62911E-01-3.15792E-03 1.67928E+00-5.78136E-14-2.13517E-13
 -1      2688 2.08372E+01 2.25194E-01 5.23232E-03 2.00996E+00-3.12730E-14-1.18380E-13
 -1      2689 2.10401E+01 2.73056E-02 4.96074E-03 2.08544E+00-1.15358E-14-1.25186E-13
 -1      2690 2.02972E+01 3.91740E-01-6.67163E-03 2.02673E+00-2.56419E-14-1.62625E-13
 -1      2691 2.12066E+01-2.25153E-01 1.20260E-02 2.19973E+00 3.92122E-14-5.73569E-14
 -1      2692 2.15163E+01-5.56366E-01 3.93624E-03 2.18439E+00 9.35745E-14-2.63821E-14
 -1      2693 2.04752E+01-7.19723E-02-1.39936E-02 2.32401E+00 6.09365E-14-1.25250E-13
 -1      2694 2.18876E+01-9.49729E-01 2.46105E-02 2.21312E+00 1.21561E-13 2.03953E-14
 -1      2695 2.23447E+01-1.43216E+00 9.20491E-04 2.04743E+00 1.22146E-13 5.28407E-14
 -1      2696 2.09314E+01-8.39313E-01-2.56626E-02 2.52732E+00 1.43283E-13 4.86802E-14
 -1      2697 2.30359E+01-1.94679E+00 4.05759E-02 1.89665E+00 1.83350E-13 1.31135E-13
 -1      2698 2.36510E+01-2.49436E+00-9.13100E-03 1.50213E+00 2.16769E-13 1.90832E-13
 -1      2699 2.18677E+01-1.95489E+00-4.01622E-02 2.51198E+00 2.18692E-13 1.61031E-13
 -1      2700 2.47440E+01-2.92598E+00 5.11383E-02 1.00508E+00 2.52453E-13 2.97418E-13
 -1      2701 2.54229E+01-3.19509E+00-2.55992E-02 3.46803E-01 2.27755E-13 3.81673E-13
 -1      2702 2.35084E+01-3.24986E+00-5.80891E-02 2.04809E+00 2.90270E-13 2.54522E-13
 -1      2703 2.79678E+01 5.35364E+00-1.93798E-01-7.23324E-02-9.88210E-13-2.87249E-13
 -1      2704 2.80157E+01 4.93302E+00-1.89387E-01 1.23944E+00-8.75522E-13-4.56919E-13
 -1      2705 2.84533E+01 4.03863E+00-1.31672E-01 2.26060E+00-7.18536E-13-5.77316E-13
 -1      2706 2.83660E+01 2.15317E+00-2.26945E-01 2.73362E+00-4.55899E-13-5.96037E-13
 -1      2707 2.81285E+01-4.83807E-01 8.63759E-04 2.51762E+00-1.40353E-13-7.02521E-13
 -1      2708 2.77315E+01-2.02745E+00-3.80829E-02 1.92832E+00 5.64965E-14-6.26540E-13
 -1      2709 2.65678E+01-2.82735E+00-3.26534E-02 9.36251E-01 2.32448E-13-5.28768E-13
 -1      2710 2.59683E+01-3.08009E+00 1.97588E-02 1.64711E-01 4.33915E-13-4.45706E-13
 -1      2711 2.74220E+01-3.01053E+00-7.24865E-02 8.25842E-01 2.08819E-13-5.28161E-13
 -1      2712 2.47636E+01-2.92844E+00-2.52486E-02-6.09950E-01 4.80950E-13-3.26871E-13
 -1      2713 2.41217E+01-2.50192E+00 4.16740E-02-1.17613E+00 4.19046E-13-2.73177E-13
 -1      2714 2.50641E+01-3.53058E+00-2.89217E-02-9.20674E-01 4.81467E-13-3.18049E-13
 -1      2715 2.31986E+01-2.01644E+00-1.29952E-02-1.53717E+00 3.67098E-13-1.95758E-13
 -1      2716 2.26811E+01-1.47198E+00 3.45438E-02-1.82731E+00 3.63293E-13-1.85053E-13
 -1      2717 2.30207E+01-2.59409E+00-2.81221E-02-1.93199E+00 4.24064E-13-1.50079E-13
 -1      2718 2.21124E+01-1.02790E+00-4.75458E-03-1.92460E+00 2.09458E-13-1.43971E-13
 -1      2719 2.17360E+01-6.03862E-01 1.73811E-02-2.01986E+00 8.06392E-14-1.41085E-13
 -1      2720 2.16838E+01-1.43279E+00-2.98114E-02-2.26127E+00 2.70010E-13-2.12693E-13
 -1      2721 2.14412E+01-2.93921E-01 1.03785E-03-1.97064E+00 2.48699E-14-1.97297E-13
 -1      2722 2.11832E+01-3.24284E-02 7.45289E-03-1.94993E+00-1.88454E-14-2.83920E-13
 -1      2723 2.09224E+01-4.92304E-01-1.79101E-02-2.22253E+00 9.19056E-15-1.57199E-13
 -1      2724 2.10447E+01 1.44716E-01 3.04422E-03-1.84195E+00-5.05890E-14-3.33737E-13
 -1      2725 2.08656E+01 2.79992E-01 2.05071E-03-1.75992E+00 5.18694E-14-3.04794E-13
 -1      2726 2.05468E+01 8.79483E-02-8.32571E-03-2.02816E+00-4.29965E-14-1.89434E-13
 -1      2727 2.08067E+01 3.62161E-01 3.85739E-03-1.63155E+00-2.31693E-14-3.59052E-13
 -1      2728 2.06743E+01 4.15192E-01-6.12615E-04-1.52277E+00-9.50040E-14-3.42501E-13
 -1      2729 2.03725E+01 3.90329E-01-2.93795E-03-1.77586E+00-2.44158E-14-3.29142E-13
 -1      2730 2.06509E+01 4.39005E-01 4.09247E-03-1.39329E+00-3.43601E-14-3.16411E-13
 -1      2731 2.05461E+01 4.44682E-01-1.74804E-03-1.27849E+00 1.83214E-15-4.03304E-13
 -1      2732 2.02938E+01 5.10509E-01-3.91214E-04-1.51176E+00-8.83834E-14-3.20470E-13
 -1      2733 2.05357E+01 4.36875E-01 4.01968E-03-1.15756E+00 1.56408E-14-4.35675E-13
 -1      2734 2.04490E+01 4.18460E-01-2.07391E-03-1.04840E+00 1.63803E-14-3.73274E-13
 -1      2735 2.02539E+01 5.24963E-01 5.49610E-04-1.25869E+00 1.49050E-14-4.73801E-13
 -1      2736 2.04418E+01 3.95961E-01 3.75919E-03-9.40593E-01 2.80445E-14-2.16212E-13
 -1      2737 2.03686E+01 3.67459E-01-2.00115E-03-8.42921E-01 2.76195E-15-2.06399E-13
 -1      2738 2.02261E+01 4.85056E-01 7.09366E-04-1.02815E+00 9.16536E-14-3.78752E-13
 -1      2739 2.03610E+01 3.39999E-01 3.38568E-03-7.49931E-01-5.22121E-14-2.52258E-13
 -1      2740 2.02992E+01 3.09179E-01-1.75734E-03-6.65992E-01-2.48729E-14-2.03943E-13
 -1      2741 2.02002E+01 4.22003E-01 5.57999E-04-8.25467E-01-2.07427E-14-2.88275E-13
 -1      2742 2.02906E+01 2.81876E-01 2.95647E-03-5.87798E-01-5.35252E-14-9.69879E-14
 -1      2743 2.02391E+01 2.52678E-01-1.46271E-03-5.17734E-01 5.34720E-14-9.57564E-14
 -1      2744 2.01735E+01 3.53298E-01 3.30202E-04-6.52110E-01-5.27763E-16-1.72643E-13
 -1      2745 2.02299E+01 2.27927E-01 2.51552E-03-4.53340E-01 5.66080E-14-1.42086E-13
 -1      2746 2.01876E+01 2.02080E-01-1.17706E-03-3.96163E-01-5.05497E-14-1.37905E-13
 -1      2747 2.01465E+01 2.87910E-01 1.24777E-04-5.07168E-01-1.53203E-14-6.64258E-14
 -1      2748 2.01785E+01 1.80771E-01 2.09366E-03-3.44075E-01 2.99506E-14-9.01889E-14
 -1      2749 2.01443E+01 1.58806E-01-9.25436E-04-2.98278E-01 1.72862E-13-2.76705E-14
 -1      2750 2.01206E+01 2.29851E-01-2.62867E-05-3.88317E-01 1.98814E-14-1.27734E-13
 -1      2751 2.01359E+01 1.41049E-01 1.70941E-03-2.56821E-01 1.59035E-13-7.64189E-14
 -1      2752 2.01088E+01 1.22885E-01-7.14942E-04-2.20737E-01 1.08104E-13 8.73925E-14
 -1      2753 2.00968E+01 1.80402E-01-1.21436E-04-2.92529E-01 1.23411E-13-1.62555E-13
 -1      2754 2.01013E+01 1.08425E-01 1.37167E-03-1.88241E-01-3.69116E-14 1.34205E-13
 -1      2755 2.00803E+01 9.37086E-02-5.44169E-04-1.60240E-01-6.31000E-14-2.30429E-14
 -1      2756 2.00759E+01 1.39446E-01-1.71197E-04-2.16554E-01 1.97454E-14-1.13719E-13
 -1      2757 2.00739E+01 8.21416E-02 1.08296E-03-1.35144E-01-4.91618E-14-4.88152E-14
 -1      2758 2.00578E+01 7.04165E-02-4.08462E-04-1.13738E-01-3.68507E-14-4.30998E-14
 -1      2759 2.00582E+01 1.06223E-01-1.88668E-04-1.57206E-01-7.08047E-14-1.32839E-13
 -1      2760 2.00526E+01 6.13051E-02 8.41700E-04-9.46464E-02 1.37158E-14 7.87400E-14
 -1      2761 2.00406E+01 5.21009E-02-3.02265E-04-7.85280E-02 6.06990E-14 2.30169E-13
 -1      2762 2.00436E+01 7.97264E-02-1.85297E-04-1.11538E-01 1.04829E-13 1.48734E-13
 -1      2763 2.00364E+01 4.50252E-02 6.43964E-04-6.42296E-02-5.55164E-14 1.85790E-13
 -1      2764 2.00276E+01 3.79013E-02-2.20223E-04-5.22861E-02-4.54195E-14 7.71660E-14
 -1      2765 2.00319E+01 5.89087E-02-1.69824E-04-7.69316E-02-1.64298E-14 1.66057E-13
 -1      2766 2.00243E+01 3.24827E-02 4.84672E-04-4.17558E-02 8.05049E-14-4.82481E-15
 -1      2767 2.00180E+01 2.70456E-02-1.57631E-04-3.30602E-02 3.65693E-14-9.92278E-14
 -1      2768 2.00228E+01 4.27840E-02-1.48394E-04-5.11254E-02-1.09485E-13 1.00671E-13
 -1      2769 2.00155E+01 2.29540E-02 3.58419E-04-2.54490E-02-7.11333E-14-7.58497E-14
 -1      2770 2.00112E+01 1.88622E-02-1.10568E-04-1.92442E-02-3.22258E-14 4.43607E-14
 -1      2771 2.00159E+01 3.04681E-02-1.25042E-04-3.22143E-02 1.88883E-14-3.51569E-14
 -1      2772 2.00093E+01 1.58159E-02 2.59973E-04-1.38618E-02 1.25884E-13 1.93444E-13
 -1      2773 2.00064E+01 1.27778E-02-7.58804E-05-9.54115E-03 1.89290E-13 3.65969E-13
 -1      2774 2.00106E+01 2.11920E-02-1.02242E-04-1.86267E-02 1.54587E-13 1.20537E-13
 -1      2775 2.00051E+01 1.05388E-02 1.84559E-04-5.83739E-03 1.26714E-13 4.86701E-13
 -1      2776 2.00032E+01 8.30748E-03-5.11316E-05-2.92470E-03 5.34388E-14 5.78002E-13
 -1      2777 2.00069E+01 1.42985E-02-8.13883E-05-9.09152E-03 2.52247E-13 2.85599E-13
 -1      2778 2.00023E+01 6.67549E-03 1.27927E-04-4.70800E-04-9.04518E-14 6.08590E-13
 -1      2779 2.00012E+01 5.04246E-03-3.44093E-05 1.39845E-03-1.03182E-14 6.08162E-13
 -1      2780 2.00042E+01 9.23059E-03-6.32300E-05-2.60231E-03-3.13682E-14 3.70048E-13
 -1      2781 2.00005E+01 3.84822E-03 8.66742E-05 2.92702E-03-3.98345E-15 3.91738E-13
 -1      2782 2.00000E+01 2.63754E-03-2.36760E-05 4.02233E-03-1.60395E-14 2.51095E-13
 -1      2783 2.00023E+01 5.51770E-03-4.79027E-05 1.61831E-03-1.36370E-13 4.11656E-13
 -1      2784 1.99996E+01 1.73776E-03 5.74571E-05 4.86463E-03-2.86963E-14 1.74475E-13
 -1      2785 1.99994E+01 7.97323E-04-1.78915E-05 5.37814E-03-3.51401E-14 2.04390E-13
 -1      2786 2.00011E+01 2.76475E-03-3.51531E-05 4.15140E-03-1.41353E-13 1.06002E-13
 -1      2787 1.99991E+01 5.12449E-05 3.41898E-05 5.69260E-03-6.99310E-14 1.75243E-13
 -1      2788 1.99992E+01-7.04229E-04-7.06621E-06 5.73756E-03 5.50043E-14 2.42977E-13
 -1      2789 2.00003E+01 6.09163E-04-2.92942E-05 5.42536E-03-1.14680E-13 2.27898E-13
 -1      2790 2.11531E+01-1.40904E-01-3.53479E-03-8.48317E-01 4.98586E-14-2.09557E-14
 -1      2791 2.10473E+01-2.31238E-02 7.13211E-03-8.56212E-01 6.73001E-14-9.07981E-15
 -1      2792 2.35066E+01-5.44300E+00-1.35758E-01 3.98939E+00 3.32290E-13 1.32411E-13
 -1      2793 2.04849E+01-4.91805E+00 1.26350E-01 5.21601E+00 3.94601E-13-3.70797E-14
 -1      2794 2.09463E+01 8.01213E-02-1.49415E-03-8.12855E-01 7.59342E-14-4.17294E-14
 -1      2795 2.08715E+01 1.85903E-01 7.56686E-03-7.56316E-01 8.92604E-14-4.05157E-14
 -1      2796 2.08908E+01 4.60188E-02-6.24635E-03-9.17759E-01 6.53923E-14-9.16278E-14
 -1      2797 2.17549E+01-6.67327E-01-9.45700E-03-4.77888E-01-2.91898E-14 6.14636E-14
 -1      2798 2.16302E+01-5.25751E-01 8.36898E-03-6.35954E-01-7.52144E-15 5.86434E-14
 -1      2799 2.21010E+01-9.00545E-01-1.16035E-02-4.15117E-02-1.00740E-14 3.69934E-14
 -1      2800 2.19977E+01-7.89446E-01 7.97035E-03-2.75310E-01-5.02974E-14 7.02947E-14
 -1      2801 2.18651E+01-9.08272E-01-6.00454E-03-5.34048E-01-3.36531E-14-3.08485E-14
 -1      2802 2.24031E+01-9.79044E-01-1.04384E-02 5.34380E-01 5.97471E-14 7.53031E-14
 -1      2803 2.23486E+01-9.65309E-01 4.29237E-03 2.53480E-01 4.17253E-14 8.63750E-14
 -1      2804 2.23374E+01-1.16605E+00-2.22762E-03-3.91785E-02 1.07983E-14 2.53682E-15
 -1      2805 2.25657E+01-7.55634E-01-4.12014E-03 1.13393E+00 7.03115E-14 1.67996E-13
 -1      2806 2.25837E+01-9.15252E-01-5.31561E-03 8.77207E-01 3.39161E-14 1.51843E-13
 -1      2807 2.27734E+01-1.18381E+00 4.30397E-03 6.19941E-01 2.90895E-14 1.00259E-13
 -1      2808 2.25074E+01-1.39339E-01 9.10531E-03 1.53708E+00 1.85146E-13 2.35413E-13
 -1      2809 2.26022E+01-5.03824E-01-1.64140E-02 1.41574E+00 1.49410E-13 2.39680E-13
 -1      2810 2.30297E+01-7.94769E-01 7.90035E-03 1.28616E+00 6.92703E-14 1.72999E-13
 -1      2811 2.22346E+01 7.57842E-01 2.04957E-02 1.46308E+00 1.79853E-13 1.92045E-13
 -1      2812 2.23621E+01 2.83787E-01-2.47580E-02 1.59036E+00 1.95465E-13 2.21419E-13
 -1      2813 2.29883E+01 9.26588E-02 1.26467E-02 1.68372E+00 1.77458E-13 2.76763E-13
 -1      2814 2.19182E+01 1.52501E+00 1.49700E-02 7.73102E-01 2.03530E-13 1.78799E-13
 -1      2815 2.20057E+01 1.18270E+00-2.16750E-02 1.16328E+00 1.88970E-13 1.76257E-13
 -1      2816 2.26800E+01 1.21288E+00 8.74497E-04 1.46961E+00 2.17309E-13 2.24449E-13
 -1      2817 2.18139E+01 1.71772E+00-3.03207E-03-3.02058E-01 3.36056E-13 4.68631E-14
 -1      2818 2.18086E+01 1.70937E+00-4.14353E-03 2.04315E-01 2.74475E-13 1.23693E-13
 -1      2819 2.23842E+01 2.00894E+00-1.52752E-02 5.60783E-01 2.79287E-13 1.70451E-13
 -1      2820 2.20319E+01 1.20328E+00-2.03160E-02-1.27505E+00 2.60831E-13 6.50365E-14
 -1      2821 2.19287E+01 1.54202E+00 1.58503E-02-8.80438E-01 2.99712E-13 2.64021E-14
 -1      2822 2.23882E+01 2.02632E+00-1.37018E-02-6.70280E-01 3.07375E-13 2.33843E-14
 -1      2823 2.24055E+01 3.16840E-01-2.46603E-02-1.71500E+00 1.40937E-13 5.25569E-14
 -1      2824 2.22631E+01 7.83755E-01 1.93648E-02-1.57952E+00 2.52218E-13 8.04508E-14
 -1      2825 2.26938E+01 1.23436E+00-9.53944E-04-1.59188E+00 2.42959E-13 6.61970E-14
 -1      2826 2.26672E+01-4.64291E-01-1.57303E-02-1.56431E+00 7.68454E-14-7.69246E-14
 -1      2827 2.25576E+01-1.00026E-01 9.80744E-03-1.67410E+00 1.21688E-13 4.41314E-15
 -1      2828 2.30113E+01 1.33298E-01 1.08064E-02-1.82573E+00 1.71562E-13 7.14402E-15
 -1      2829 2.26773E+01-8.80656E-01-3.90246E-03-1.04622E+00 1.03166E-13-1.96127E-13
 -1      2830 2.26406E+01-7.18163E-01-3.02766E-03-1.29387E+00 5.36009E-14-1.47361E-13
 -1      2831 2.30722E+01-7.37520E-01 1.32389E-02-1.45320E+00 1.73610E-13-1.08940E-13
 -1      2832 2.24638E+01-9.39541E-01 3.94983E-03-4.35464E-01 4.69285E-14-8.53356E-14
 -1      2833 2.25011E+01-9.49076E-01-1.08266E-02-7.10369E-01 1.29435E-13-1.48412E-13
 -1      2834 2.28297E+01-1.14441E+00 5.54164E-03-8.00204E-01 8.66285E-14-1.38973E-13
 -1      2835 2.21294E+01-7.75487E-01 7.21442E-03 8.80055E-02 9.86839E-14-1.50263E-13
 -1      2836 2.22188E+01-8.80207E-01-1.23967E-02-1.43722E-01 8.49867E-14-1.81098E-13
 -1      2837 2.24022E+01-1.13932E+00-2.24540E-03-1.52704E-01 1.24294E-13-3.41881E-14
 -1      2838 2.17686E+01-5.29894E-01 7.27635E-03 4.54436E-01-1.76465E-14-1.60280E-13
 -1      2839 2.18847E+01-6.61090E-01-1.00962E-02 2.92524E-01 7.28115E-14-1.78212E-13
 -1      2840 2.19302E+01-8.98567E-01-5.66858E-03 3.43630E-01 1.15911E-13-1.41637E-13
 -1      2841 2.14352E+01-2.93880E-01 5.81148E-03 6.65467E-01-8.93564E-14-1.36347E-13
 -1      2842 2.15592E+01-4.11560E-01-6.76293E-03 5.72439E-01-9.98240E-14-1.45379E-13
 -1      2843 2.15029E+01-5.88458E-01-6.09753E-03 6.57912E-01-3.58669E-14-8.52993E-14
 -1      2844 2.11496E+01-1.08129E-01 4.04033E-03 7.52579E-01-1.41172E-13-7.88383E-14
 -1      2845 2.12701E+01-1.96770E-01-3.72824E-03 7.15040E-01-4.30577E-14-1.07736E-13
 -1      2846 2.11535E+01-3.06578E-01-5.16205E-03 8.15563E-01-8.84740E-14-1.28886E-13
 -1      2847 2.09133E+01 1.91990E-02 2.52229E-03 7.52964E-01-2.48145E-13-1.16303E-14
 -1      2848 2.10246E+01-3.92333E-02-1.39984E-03 7.54616E-01-2.05814E-13-4.02729E-14
 -1      2849 2.08824E+01-9.20277E-02-3.92780E-03 8.58244E-01-1.79298E-13-8.80074E-14
 -1      2850 2.07207E+01 9.54280E-02 1.40729E-03 6.99326E-01 1.97321E-15-8.36813E-14
 -1      2851 2.08201E+01 6.21112E-02 2.13740E-04 7.25421E-01-5.52065E-14-2.90502E-14
 -1      2852 2.06764E+01 5.11253E-02-2.83514E-03 8.25217E-01-1.25152E-13-1.23981E-13
 -1      2853 2.05645E+01 1.33045E-01 6.68719E-04 6.16847E-01-4.25928E-14-3.24905E-14
 -1      2854 2.06512E+01 1.18087E-01 1.21776E-03 6.55872E-01-3.84908E-14-2.62457E-15
 -1      2855 2.05203E+01 1.34165E-01-2.02637E-03 7.47917E-01-3.69394E-14-4.73029E-14
 -1      2856 2.04383E+01 1.44356E-01 2.20479E-04 5.23230E-01-1.42194E-13-6.81349E-14
 -1      2857 2.05123E+01 1.41554E-01 1.75510E-03 5.67043E-01-7.71211E-14-5.96283E-14
 -1      2858 2.04011E+01 1.72798E-01-1.47976E-03 6.49265E-01-1.08068E-13 1.84894E-14
 -1      2859 2.03366E+01 1.39392E-01-2.64325E-05 4.29944E-01-2.24425E-13-2.54607E-14
 -1      2860 2.03985E+01 1.43872E-01 1.96076E-03 4.73280E-01-1.95712E-13-6.11184E-14
 -1      2861 2.03090E+01 1.81694E-01-1.12453E-03 5.44803E-01-1.63031E-13-6.68902E-14
 -1      2862 2.02552E+01 1.25510E-01-1.44231E-04 3.43745E-01-5.55956E-14-1.37105E-13
 -1      2863 2.03060E+01 1.33784E-01 1.94731E-03 3.83538E-01-1.28626E-13-7.70058E-14
 -1      2864 2.02371E+01 1.72528E-01-8.92355E-04 4.44307E-01-1.41638E-13-2.20788E-13
 -1      2865 2.01906E+01 1.07693E-01-1.84958E-04 2.68050E-01 5.75426E-14 1.45388E-14
 -1      2866 2.02315E+01 1.17448E-01 1.80182E-03 3.02787E-01 3.82321E-14-3.07596E-14
 -1      2867 2.01806E+01 1.53735E-01-7.32979E-04 3.53314E-01-6.62857E-14-2.70451E-13
 -1      2868 2.01398E+01 8.90919E-02-1.83251E-04 2.04059E-01-3.58731E-14 1.10978E-13
 -1      2869 2.01722E+01 9.88975E-02 1.58755E-03 2.33256E-01-1.70714E-14 1.38560E-13
 -1      2870 2.01363E+01 1.30973E-01-6.14295E-04 2.74416E-01-2.18383E-14-5.93755E-14
 -1      2871 2.01005E+01 7.15362E-02-1.60858E-04 1.51593E-01 1.45622E-13 1.93892E-13
 -1      2872 2.01256E+01 8.05876E-02 1.34762E-03 1.75393E-01 5.77813E-14 2.25493E-13
 -1      2873 2.01015E+01 1.07778E-01-5.18243E-04 2.08270E-01-2.33427E-14 1.41176E-14
 -1      2874 2.00705E+01 5.59669E-02-1.30714E-04 1.09684E-01 1.93774E-13 2.66330E-13
 -1      2875 2.00896E+01 6.38739E-02 1.10967E-03 1.28583E-01 2.32651E-13 2.89902E-13
 -1      2876 2.00744E+01 8.61779E-02-4.35973E-04 1.54342E-01 1.61142E-13 3.44594E-13
 -1      2877 2.00479E+01 4.27506E-02-1.00021E-04 7.69848E-02 2.18148E-13 2.82440E-13
 -1      2878 2.00622E+01 4.93865E-02 8.90014E-04 9.16403E-02 2.44567E-13 3.07043E-13
 -1      2879 2.00535E+01 6.71833E-02-3.63551E-04 1.11435E-01 2.10491E-13 4.05936E-13
 -1      2880 2.00314E+01 3.19042E-02-7.24198E-05 5.20320E-02 2.14628E-13 1.05121E-13
 -1      2881 2.00417E+01 3.72996E-02 6.96933E-04 6.31433E-02 2.38350E-13 2.37732E-13
 -1      2882 2.00376E+01 5.11549E-02-2.99428E-04 7.80516E-02 2.58163E-13 2.74158E-13
 -1      2883 2.00195E+01 2.32482E-02-4.94316E-05 3.34042E-02 7.80295E-14 1.62098E-13
 -1      2884 2.00267E+01 2.75190E-02 5.33351E-04 4.16405E-02 1.58293E-13 1.88737E-13
 -1      2885 2.00257E+01 3.80596E-02-2.43053E-04 5.26286E-02 1.24527E-13 2.39998E-13
 -1      2886 2.00111E+01 1.65063E-02-3.14101E-05 1.98132E-02 5.52568E-14 3.73831E-14
 -1      2887 2.00161E+01 1.98081E-02 3.98837E-04 2.57745E-02 4.04204E-14 9.08559E-14
 -1      2888 2.00170E+01 2.76462E-02-1.94141E-04 3.36793E-02 8.30576E-14 2.77897E-13
 -1      2889 2.00055E+01 1.13676E-02-1.81439E-05 1.01458E-02 4.33112E-14 8.23404E-14
 -1      2890 2.00087E+01 1.38669E-02 2.91046E-04 1.43456E-02 4.80566E-14 1.01203E-13
 -1      2891 2.00107E+01 1.95586E-02-1.52364E-04 1.98720E-02 3.85894E-14 3.63388E-13
 -1      2892 2.00019E+01 7.52207E-03-9.22188E-06 3.47683E-03 1.57162E-13-8.66616E-14
 -1      2893 2.00039E+01 9.38110E-03 2.06732E-04 6.33795E-03 1.81147E-13-2.92128E-14
 -1      2894 2.00063E+01 1.34069E-02-1.17267E-04 1.00645E-02 1.46312E-13 1.98460E-13
 -1      2895 1.99998E+01 4.67876E-03-4.20706E-06-9.35096E-04 8.49707E-14-1.40528E-13
 -1      2896 2.00008E+01 6.04754E-03 1.42379E-04 9.22324E-04 8.41722E-14-1.94730E-13
 -1      2897 2.00033E+01 8.80659E-03-8.82706E-05 3.31276E-03 1.88498E-13-1.16702E-13
 -1      2898 1.99987E+01 2.57296E-03-2.78146E-06-3.66128E-03-2.41083E-13-1.62563E-13
 -1      2899 1.99991E+01 3.58700E-03 9.45763E-05-2.55313E-03-5.00375E-14-2.06305E-13
 -1      2900 2.00013E+01 5.39957E-03-6.47281E-05-1.13614E-03 4.90394E-14-2.20187E-13
 -1      2901 1.99983E+01 9.69097E-04-3.58761E-06-5.11961E-03 4.49740E-14-1.79986E-13
 -1      2902 1.99983E+01 1.74679E-03 6.00980E-05-4.57887E-03-2.10642E-13-9.34702E-14
 -1      2903 2.00002E+01 2.86082E-03-4.59538E-05-3.86053E-03-1.67260E-13-5.82384E-13
 -1      2904 1.99983E+01-3.28247E-04-4.67197E-07-5.58595E-03-1.11749E-13-7.17469E-14
 -1      2905 1.99981E+01 2.88178E-04 3.12292E-05-5.50490E-03-1.44151E-15-2.84099E-14
 -1      2906 1.99995E+01 9.12732E-04-2.72742E-05-5.28630E-03-1.47976E-13-5.38998E-13
 -1      2907 1.99988E+01-1.43204E-03-1.00464E-05-5.35031E-03-1.42031E-13 1.02509E-13
 -1      2908 1.99984E+01-8.50320E-04 4.72508E-06-5.62173E-03-1.21350E-13-5.50801E-14
 -1      2909 1.99996E+01-5.97347E-04-1.13050E-05-5.70739E-03-2.44489E-13-4.12771E-13
 -1      2910 1.99998E+01-1.92806E-03 4.19335E-06-5.52346E-03-3.37327E-13-5.71087E-13
 -1      2911 2.23119E+01-5.24975E+00-6.87740E-02 4.93750E+00-1.30937E-13-3.36748E-13
 -1      2912 1.89899E+01-4.86886E+00 1.11507E-01 5.98126E+00-2.16605E-13-2.74475E-13
 -1      2913 2.00028E+01-2.34753E-03 1.69461E-06-4.02478E-04 1.52967E-13-2.29552E-13
 -1      2914 2.00027E+01-2.31400E-03 2.92263E-06-1.09781E-03 4.19654E-13-1.39087E-13
 -1      2915 1.87551E+01-4.99293E+00 1.26123E-01-5.71101E+00 4.88193E-13 7.25649E-13
 -1      2916 2.15963E+01-5.52654E+00-7.30707E-02-5.01012E+00 5.25649E-13 4.86956E-13
 -1      2917 2.00024E+01-2.38702E-03 2.02730E-09-3.11143E-03 3.96786E-13 1.82378E-13
 -1      2918 2.00021E+01-2.24213E-03 6.36170E-06-3.69661E-03 9.23586E-14-8.98616E-14
 -1      2919 2.00028E+01-2.34370E-03 4.15983E-06 1.00640E-03-3.98093E-14-2.58134E-13
 -1      2920 2.00028E+01-2.36140E-03 5.16082E-07 3.05364E-04 6.18213E-15-2.05209E-13
 -1      2921 2.00034E+01-3.75073E-04 1.62345E-05-5.85518E-05 1.89777E-13-3.35615E-13
 -1      2922 2.00027E+01-2.37185E-03-9.20252E-09-1.79144E-03 3.73231E-13 4.75984E-14
 -1      2923 2.00026E+01-2.28459E-03 4.77464E-06-2.45291E-03 4.04323E-13 1.99731E-13
 -1      2924 2.00030E+01-6.05365E-04 9.52052E-06-2.78661E-03 2.93064E-13 2.06942E-13
 -1      2925 2.00033E+01-4.25427E-04 1.47073E-05-1.44512E-03 4.18461E-13-1.20493E-13
 -1      2926 2.00026E+01-2.35208E-03 5.27060E-06 2.36771E-03-1.27194E-13-4.19610E-14
 -1      2927 2.00027E+01-2.42532E-03-1.16849E-06 1.70216E-03-1.91269E-13-1.25696E-13
 -1      2928 2.00034E+01-4.73367E-04 1.42952E-05 1.33086E-03-2.42453E-16-2.56395E-13
 -1      2929 2.00022E+01-2.33495E-03 3.48347E-06 3.65771E-03-3.89509E-14 3.98114E-14
 -1      2930 2.00025E+01-2.47031E-03 1.83594E-07 3.04922E-03-1.04472E-13 3.39282E-14
 -1      2931 2.00031E+01-6.89195E-04 7.97549E-06 2.70224E-03-1.33859E-13-6.77340E-14
 -1      2932 2.00015E+01-2.23885E-03-4.27657E-06 4.73016E-03-1.75492E-13 4.43001E-13
 -1      2933 2.00019E+01-2.44137E-03 1.74579E-06 4.25873E-03-6.75363E-14 4.95458E-13
 -1      2934 2.00026E+01-9.34715E-04 7.42596E-06 3.99510E-03-1.86275E-14 3.29561E-13
 -1      2935 2.03105E+01 2.51143E+00 1.26648E-03-8.40294E-01-3.42693E-13-3.12967E-13
 -1      2936 6.67134E+00-1.11191E+00 1.58609E-01-2.14161E+00-1.94435E-13 5.25718E-13
 -1      2937 8.65949E+00-2.03323E+00 8.82130E-02-4.45965E+00 3.52218E-14 6.50618E-13
 -1      2938 6.80467E+00-5.12925E-01 1.45933E-01 1.38289E+00-3.47462E-13 7.91311E-13
 -1      2939 6.61124E+00-5.47561E-01 1.77470E-01-3.60266E-01-2.62252E-13 4.88221E-13
 -1      2940 9.80223E+00-2.24594E+00 7.92208E-02 5.40530E+00-4.70970E-13 7.42628E-13
 -1      2941 7.64888E+00-1.17419E+00 1.56070E-01 3.42308E+00-5.11327E-13 1.03234E-12
 -1      2942 2.89466E+01-2.68641E+00-2.69616E-02 5.72812E-01-2.13024E-15-4.21038E-13
 -1      2943 2.95132E+01-1.31743E+00-1.91166E-01 1.59070E+00-1.78677E-13-5.39582E-13
 -1      2944 7.20020E+00-8.28572E-01 1.13087E-01 2.04077E+00 2.33855E-13-9.57123E-13
 -1      2945 6.72520E+00-5.76510E-01 1.59831E-01-1.89654E-01 1.18740E-13-9.81354E-13
 -1      2946 2.87406E+01 6.78731E+00-1.73646E-01-2.74680E-01 8.44852E-13-1.35459E-13
 -1      2947 2.85055E+01 6.14932E+00-1.80328E-01-1.09778E+00 7.74852E-13-2.39538E-13
 -1      2948 1.62475E+01-4.42233E+00 2.99206E-02 6.61493E+00-3.23852E-13-4.10366E-14
 -1      2949 1.33471E+01-3.35197E+00 1.48662E-01 6.24827E+00-4.91232E-13 2.19894E-13
 -1      2950 1.88891E+01-4.24588E+00 1.08085E-01 5.59158E+00-2.89921E-13-1.65840E-13
 -1      2951 2.08140E+01 2.84381E-01-3.77976E-04-6.51756E-01 9.99645E-14-3.91832E-14
 -1      2952 2.07812E+01 3.95110E-01 9.02505E-03-5.31511E-01 1.27748E-13-3.81290E-14
 -1      2953 2.07520E+01 3.09569E-01-5.36696E-03-7.51576E-01 9.49285E-14-1.13994E-13
 -1      2954 2.14276E+01-3.94505E-01-6.37810E-03-7.43612E-01 7.56459E-15 3.85166E-14
 -1      2955 2.13040E+01-2.59169E-01 7.62278E-03-8.22876E-01 3.76735E-14 9.74253E-15
 -1      2956 2.11200E+01-2.43196E-01-6.88996E-03-9.51578E-01 2.38772E-14-4.26623E-14
 -1      2957 2.14468E+01-5.70943E-01-7.19517E-03-8.33162E-01-2.65896E-14 1.56318E-14
 -1      2958 2.06572E+01 1.34416E+00 3.98168E-03-1.06583E-01-2.90114E-13-2.03983E-13
 -1      2959 2.06248E+01 1.14286E+00-1.15610E-03 2.13950E-01-2.50257E-13-2.04947E-13
 -1      2960 2.04248E+01 1.31530E+00-4.01463E-04 3.30257E-01-2.27262E-13-2.31444E-13
 -1      2961 2.07580E+01 5.10715E-01-1.31484E-04-3.64376E-01 1.88223E-13-2.84540E-14
 -1      2962 2.07751E+01 6.54677E-01 1.10772E-02-1.69810E-01 2.32649E-13-6.05603E-15
 -1      2963 2.06852E+01 9.49739E-01-1.19486E-03-3.42397E-02 2.79854E-13-9.78275E-14
 -1      2964 2.06899E+01 5.89363E-01-3.84689E-03-4.59111E-01 1.79234E-13-9.95576E-14
 -1      2965 1.20516E+01-3.00705E+00 1.78372E-01-5.59714E+00 2.57100E-13 6.83009E-13
 -1      2966 1.52976E+01-4.29675E+00 2.48905E-02-6.21618E+00 3.97460E-13 7.92061E-13
 -1      2967 1.78407E+01-4.02725E+00 1.27695E-01-5.42369E+00 4.54498E-13 6.59001E-13
 -1      2968 2.86491E+01 4.94773E+00-1.48390E-01-1.39557E+00-1.00495E-12-6.34839E-14
 -1      2969 1.95483E+01 2.96392E+00-4.86936E-03 3.02396E-01 2.89247E-13-3.81148E-13
 -1      2970 1.93781E+01 3.09788E+00-7.94984E-03 1.99561E-01 2.31240E-13-4.22580E-13
 -1      2971 1.93921E+01 2.87801E+00 4.71806E-03 5.75220E-02 2.02921E-13-4.00085E-13
 -1      2972 1.97395E+01 2.55984E+00 5.11583E-03 1.86079E-01 2.60617E-13-3.28661E-13
 -1      2973 1.92162E+01 3.26099E+00-7.93147E-03-2.73707E-01-1.15796E-13-4.75813E-13
 -1      2974 1.93763E+01 3.14088E+00-5.86064E-03-3.45297E-01-1.66260E-13-4.57669E-13
 -1      2975 2.80845E+01 5.58490E+00-1.44545E-01 1.43218E+00 7.62418E-13 1.16879E-13
 -1      2976 2.85311E+01 6.51598E+00-1.75088E-01 5.11538E-01 8.53956E-13-2.08514E-14
 -1      2977 2.71378E+01 6.02205E+00-8.15155E-02 1.86773E-01 7.60086E-13-7.79585E-14
 -1      2978 1.99993E+01-1.67736E-03-4.26940E-06 5.52286E-03 3.13592E-13 5.11617E-13
 -1      2979 1.99999E+01-2.06944E-03-8.53746E-06 5.52599E-03 2.06060E-13 5.47489E-13
 -1      2980 1.99992E+01-1.20408E-03 9.94809E-06 5.70999E-03 2.72494E-13 5.05947E-13
 -1      2981 2.85355E+01-4.46702E-01-1.57500E-01-1.06501E+00 5.23179E-13-7.12722E-13
 -1      2982 2.80884E+01-2.34359E+00-1.22889E-02 1.68774E-01 2.89990E-13-6.95347E-13
 -1      2983 2.69606E+01-3.12520E+00 8.92434E-03 4.81998E-01 1.05383E-13-6.42750E-13
 -1      2984 2.77796E+01-2.92138E+00 2.02206E-02-5.98940E-01-2.69437E-14 3.44447E-14
 -1      2985 2.81438E+01-1.14153E+00-1.30123E-01 8.28219E-01 1.45300E-13 1.29868E-13
 -1      2986 2.49777E+01-5.23327E+00 8.87474E-02-3.23399E+00 5.33934E-13 1.91375E-13
 -1      2987 2.74577E+01-4.62290E+00-1.37496E-01-1.58346E+00 2.42986E-13-1.67949E-13
 -1      2988 7.08847E+00-7.65719E-01 1.53947E-01-2.04473E+00-4.38191E-14-9.97091E-13
 -1      2989 8.23863E+00-1.26053E+00 1.49492E-01-3.87427E+00-1.23429E-13-9.56180E-13
 -1      2990 2.85090E+01-3.61747E+00-2.07410E-01-1.56517E-01-1.89855E-13 3.61933E-13
 -1      2991 2.67581E+01-4.41554E+00 1.18317E-01 1.52242E+00 1.10915E-13 3.40686E-13
 -1      2992 1.80233E+01-4.62324E+00 1.99162E-02 5.97468E+00 4.00860E-13-1.74485E-13
 -1      2993 1.52996E+01-3.65049E+00 1.46864E-01 5.91838E+00 5.05401E-13-4.20108E-13
 -1      2994 2.03471E+01-4.26110E+00 1.09117E-01 4.87807E+00 4.67085E-13-1.50609E-14
 -1      2995 1.15980E+01-2.49702E+00 5.33559E-02 5.41350E+00 4.30239E-13-6.30163E-13
 -1      2996 9.03232E+00-1.35188E+00 1.79874E-01 3.77876E+00 3.73292E-13-8.22509E-13
 -1      2997 1.84259E+01-4.75626E+00 9.44105E-02-6.13903E+00-3.87010E-13-4.55441E-13
 -1      2998 2.13977E+01-5.33444E+00-1.76337E-02-5.53622E+00-2.96360E-13-2.83232E-13
 -1      2999 2.41024E+01-5.07023E+00 7.35889E-02-4.03727E+00-2.44485E-13-1.44496E-13
 -1      3000 2.62448E+01-4.45091E+00-1.39808E-01-2.37707E+00-1.32075E-13-2.49245E-14
 -1      3001 2.31868E+01-4.90387E+00 5.53205E-02-4.10919E+00-3.39069E-13-1.67609E-13
 -1      3002 2.85656E+01 3.33850E+00-2.33425E-01-2.25522E+00-8.07243E-13 7.43780E-14
 -1      3003 2.89289E+01 1.97033E+00-1.04544E-01-2.54564E+00-6.95000E-13 2.35700E-13
 -1      3004 1.95666E+01 2.96126E+00-9.42044E-03-3.79997E-01-1.98084E-13-4.42765E-13
 -1      3005 1.97822E+01 2.77315E+00-9.20699E-03-4.64051E-01-2.50653E-13-4.10969E-13
 -1      3006 1.95384E+01 2.78063E+00 6.02851E-03-2.12792E-01-1.70754E-13-4.17722E-13
 -1      3007 1.90161E+01 3.20620E+00 5.67936E-03-1.02774E-01 5.69296E-14-4.45543E-13
 -1      3008 1.89425E+01 3.47546E+00-4.71368E-03-9.84860E-02 4.61230E-14-4.67073E-13
 -1      3009 1.89550E+01 3.46669E+00-5.88883E-03-1.61187E-01-5.52745E-15-4.68374E-13
 -1      3010 1.16381E+01-1.95169E+00 1.53745E-01-4.67437E+00 1.32755E-13 5.74346E-13
 -1      3011 2.36898E+01-4.72712E+00 4.45593E-02 3.58632E+00-1.70433E-13-4.34916E-13
 -1      3012 2.73650E+01 1.57635E+00-1.18935E-01-2.14998E+00 5.00933E-13-3.86455E-13
 -1      3013 2.83190E+01 5.98006E-01-8.01948E-02-1.69324E+00 5.13728E-13-5.44245E-13
 -1      3014 2.72999E+01-8.10463E-01-4.45762E-02-1.34000E+00 3.54619E-13-5.29021E-13
 -1      3015 2.05900E+01 1.70494E+00-3.20914E-03 6.01367E-01 3.69869E-13-1.07565E-13
 -1      3016 2.76793E+01-1.09670E-01-8.87110E-02 1.63987E+00 2.11407E-13 2.17291E-13
 -1      3017 2.64579E+01 1.09787E+00-3.08129E-02 2.13354E+00 2.99136E-13 2.47594E-13
 -1      3018 2.69162E+01-1.20697E+00 2.29641E-02 1.21059E+00 2.55906E-14 2.71040E-13
 -1      3019 2.58620E+01-4.00509E+00-9.20841E-02 9.09409E-01 2.06599E-13 3.65356E-13
 -1      3020 2.67717E+01-3.17020E+00-4.41928E-03-5.54441E-01 9.51166E-14 4.85657E-13
 -1      3021 2.37344E+01-4.99703E+00 7.72468E-02-3.51076E+00 5.65298E-13 1.40297E-13
 -1      3022 2.72156E+01-2.40525E+00-1.67353E-02-1.33499E+00-7.77989E-14 4.88947E-13
 -1      3023 2.88193E+01-1.75331E-01-1.31573E-01-2.33881E+00-4.37185E-13 3.47347E-13
 -1      3024 2.00000E+01-9.40883E-04-1.91961E-05 5.72395E-03 2.83924E-13 6.37717E-13
 -1      3025 9.93164E+00-4.97141E-01 1.79180E-01 2.71829E+00 3.19716E-13-8.03094E-13
 -1      3026 2.00005E+01-1.99778E-03 6.32213E-07-5.24826E-03-4.83921E-13-8.66737E-13
 -1      3027 2.00004E+01-1.23881E-03-2.40251E-06-5.46270E-03-5.50882E-13-8.94378E-13
 -1      3028 2.00010E+01-2.29445E-03 5.44974E-07-5.03918E-03-6.28488E-13-1.09213E-12
 -1      3029 2.00854E+01 2.47078E+00-4.41550E-03-5.05801E-01-2.84106E-13-3.59009E-13
 -1      3030 2.05281E+01 1.93370E+00-6.68397E-03-5.95205E-01-3.43057E-13-2.52515E-13
 -1      3031 2.05795E+01 1.58350E+00 2.70362E-03-2.66900E-01-3.05774E-13-2.21050E-13
 -1      3032 2.00261E+01 2.29885E+00 6.45183E-03-2.61247E-01-2.54128E-13-3.43949E-13
 -1      3033 8.94400E+00-3.71581E-01 1.68350E-01 2.34986E+00-3.65798E-13 8.15459E-13
 -1      3034 2.00006E+01-2.31899E-03 1.65024E-05 5.27590E-03 3.72544E-14 3.69185E-13
 -1      3035 2.77766E+01-3.53717E+00-2.64930E-02 1.85115E-02 2.26749E-13-4.11587E-13
 -1      3036 8.41520E+00-3.02649E-01 1.55660E-01-1.41882E+00-1.50255E-13 4.69902E-13
 -1      3037 2.79154E+01 4.98368E+00-1.59380E-01-1.63819E+00 6.42597E-13-2.38524E-13
 -1      3038 2.70607E+01 3.70162E+00-9.77717E-02-1.97486E+00 5.58595E-13-3.15130E-13
 -1      3039 2.66083E+01 5.09381E+00-1.27543E-01-1.37917E+00 6.38864E-13-2.43531E-13
 -1      3040 2.68865E+01 4.09389E+00-5.57614E-02 1.81477E+00 6.05196E-13 1.49311E-13
 -1      3041 2.00007E+01-1.08342E-03-6.62745E-06 5.47191E-03 3.83648E-13 6.73598E-13
 -1      3042 2.00012E+01-1.95269E-03-6.50512E-06 5.13299E-03-7.85565E-14 4.55558E-13
 -1      3043 2.00018E+01-7.64519E-04 2.34653E-05 4.94459E-03 1.18648E-14 6.60892E-13
 -1      3044 2.00008E+01-3.65854E-04 3.03886E-05 5.48265E-03 1.92265E-13 5.39911E-13
 -1      3045 8.71920E+00-1.02677E-01 1.87928E-01-1.00534E+00 4.81134E-14-9.03139E-13
 -1      3046 1.09285E+01-1.56148E+00 1.57879E-01-4.54022E+00-2.49023E-13-8.39509E-13
 -1      3047 2.52039E+01-4.46373E+00 5.94351E-02 2.24143E+00 2.55816E-13 2.42237E-13
 -1      3048 2.00019E+01-2.41002E-03 1.16120E-07-4.19593E-03-2.05635E-13-4.15224E-13
 -1      3049 2.00015E+01-2.19724E-03 5.46898E-06-4.63615E-03-4.18602E-13-7.35526E-13
 -1      3050 2.00017E+01-1.17679E-03-2.08465E-07-4.81730E-03-4.03117E-13-6.86350E-13
 -1      3051 2.00025E+01-8.97904E-04 3.20757E-06-3.93139E-03 6.42893E-14 8.65972E-14
 -1      3052 1.90047E+01 3.42950E+00-6.21580E-03-1.84659E-01-2.87288E-14-4.66247E-13
 -1      3053 1.90925E+01 3.36841E+00-5.46954E-03-2.47540E-01-8.36331E-14-4.73794E-13
 -1      3054 1.92166E+01 3.05731E+00 6.47158E-03-1.72562E-01-9.32363E-14-4.33281E-13
 -1      3055 1.90388E+01 3.19704E+00 6.32662E-03-1.41465E-01-1.26484E-14-4.40306E-13
 -1      3056 1.70039E+01-4.14354E+00 9.19491E-02-6.20547E+00-4.11421E-13-5.70669E-13
 -1      3057 1.92224E+01-4.11593E+00 6.02481E-02-5.36276E+00-4.38469E-13-3.55424E-13
 -1      3058 1.54739E+01-3.08811E+00 8.92098E-02-5.84158E+00-4.14030E-13-6.12024E-13
 -1      3059 2.05292E+01 1.52676E+00 2.15631E-03 3.09294E-01 3.23241E-13-1.54241E-13
 -1      3060 2.65251E+01-3.73022E+00-1.70442E-02-1.19293E+00-1.79634E-13 3.76227E-14
 -1      3061 1.47496E+01-2.52359E+00 1.26858E-01 5.17248E+00 5.12632E-13-4.56052E-13
 -1      3062 2.03755E+01 1.73785E+00-5.42720E-05-1.22036E-01-2.75198E-13-2.49477E-13
 -1      3063 2.02788E+01 1.72110E+00-4.60303E-03 1.43715E-01 2.64507E-13-2.15722E-13
 -1      3064 2.00732E+01 1.96438E+00-2.38124E-03 9.18534E-02 2.45244E-13-2.45551E-13
 -1      3065 2.38357E+01-4.18687E+00 1.03249E-01 2.84648E+00 3.59494E-13 1.91188E-13
 -1      3066 2.25193E+01-4.47983E+00 1.07660E-01-3.74588E+00 5.82798E-13 1.24555E-13
 -1      3067 2.48562E+01-4.75947E+00-7.75584E-02-2.35610E+00 5.62994E-13-1.44699E-13
 -1      3068 2.00132E+01 1.07658E+00-6.17494E-05 1.12702E+00-1.26233E-13-2.20055E-13
 -1      3069 1.99834E+01 9.85152E-01 1.63026E-03 1.33414E+00-8.90652E-14-2.31088E-13
 -1      3070 1.98738E+01 8.91548E-01-1.22687E-03 1.53547E+00-5.34487E-14-2.15030E-13
 -1      3071 1.98715E+01 7.87713E-01 4.48158E-03 1.72004E+00-5.20074E-14-2.17815E-13
 -1      3072 1.95865E+01 1.11390E+00 2.25805E-03 1.37831E+00-8.22806E-14-2.61853E-13
 -1      3073 1.97611E+01 6.56801E-01-1.22402E-03 1.92218E+00-2.57627E-14-1.82710E-13
 -1      3074 1.98143E+01 4.92197E-01 8.52138E-03 2.08903E+00 9.93804E-15-1.91066E-13
 -1      3075 1.93602E+01 8.82310E-01 5.38565E-04 1.78124E+00-2.91073E-14-2.30673E-13
 -1      3076 1.97395E+01 2.70940E-01 1.25125E-03 2.30674E+00 7.16092E-14-2.02523E-13
 -1      3077 1.99008E+01-1.51319E-02 1.45871E-02 2.45247E+00 1.19771E-13-1.55156E-13
 -1      3078 1.91593E+01 5.28137E-01-3.53799E-03 2.20725E+00 5.03736E-14-2.33390E-13
 -1      3079 1.99378E+01-3.91072E-01 1.07596E-02 2.69441E+00 1.82587E-13-1.08771E-13
 -1      3080 2.02963E+01-8.65247E-01 2.50189E-02 2.79322E+00 2.21529E-13-5.32014E-14
 -1      3081 1.90776E+01-8.44561E-02-1.25994E-02 2.69615E+00 1.89239E-13-1.88911E-13
 -1      3082 2.05837E+01-1.46263E+00 3.01532E-02 3.03939E+00 2.46547E-13 1.49095E-14
 -1      3083 2.12699E+01-2.14031E+00 4.17959E-02 3.01279E+00 2.94906E-13 6.30448E-14
 -1      3084 1.92990E+01-1.09632E+00-2.20023E-02 3.26549E+00 2.92990E-13-1.47741E-13
 -1      3085 2.17736E+01-2.78758E+00 6.70255E-02 3.17884E+00 2.95639E-13 1.13559E-13
 -1      3086 2.28503E+01-3.50802E+00 6.07072E-02 2.88008E+00 3.27634E-13 1.24981E-13
 -1      3087 2.11110E+01-4.09816E+00-8.76729E-02 4.22319E+00 3.75047E-13 4.65530E-14
 -1      3088 1.99672E+01-2.54130E+00-5.04226E-02 3.84128E+00 3.26121E-13-2.75769E-14
 -1      3089 9.58648E+00 3.31168E-01 6.48721E-02 2.21626E-04 9.16264E-14-7.90895E-13
 -1      3090 9.94367E+00 1.62230E-01 8.94386E-02-1.85563E+00-2.62585E-14-7.91589E-13
 -1      3091 2.90073E+01 2.23357E-01-9.62119E-02 2.51881E+00-2.56378E-13-6.36768E-13
 -1      3092 2.02254E+01 1.63405E+00 7.88720E-04 1.64036E-01-2.27845E-13-2.63862E-13
 -1      3093 2.01956E+01 1.44439E+00-2.18518E-03 4.40077E-01-1.93939E-13-2.52838E-13
 -1      3094 2.51593E+01-4.09589E+00-7.01112E-03-1.43585E+00 5.71081E-13-2.52407E-13
 -1      3095 2.40005E+01-3.60828E+00 6.89599E-02-2.05919E+00 5.80922E-13-1.83420E-13
 -1      3096 2.27675E+01-3.00375E+00-5.82002E-03-2.34520E+00 4.72396E-13-9.47445E-14
 -1      3097 2.20272E+01-2.20593E+00 7.02736E-02-2.56838E+00 3.94591E-13-9.32522E-14
 -1      3098 2.24878E+01-3.55589E+00-4.74132E-02-2.90151E+00 5.39594E-13-9.95835E-14
 -1      3099 2.09544E+01-1.60343E+00 2.57374E-03-2.68431E+00 3.00626E-13-7.54631E-14
 -1      3100 2.04787E+01-9.70260E-01 2.25674E-02-2.65341E+00 2.24811E-13-1.21038E-13
 -1      3101 2.02667E+01-5.02873E-01 1.64337E-02-2.44194E+00 3.65675E-14-1.45779E-13
 -1      3102 1.99837E+01-1.28874E-01 6.41809E-03-2.34614E+00-1.25504E-13-1.92941E-13
 -1      3103 1.93432E+01-6.86756E-01-2.22487E-02-2.80974E+00 5.62523E-14-8.63979E-14
 -1      3104 1.99567E+01 1.50872E-01 1.10240E-02-2.14284E+00-7.93356E-14-4.60171E-14
 -1      3105 1.98178E+01 3.50421E-01-3.50178E-04-2.01746E+00 1.20957E-14-3.01729E-14
 -1      3106 1.91773E+01 1.16325E-01-8.38870E-03-2.34298E+00-2.56472E-14-1.01689E-13
 -1      3107 1.98720E+01 4.89574E-01 6.98307E-03-1.84007E+00-6.04404E-14-3.68731E-14
 -1      3108 1.98079E+01 5.74716E-01-2.87720E-03-1.70780E+00-5.91523E-14-1.45853E-13
 -1      3109 1.92364E+01 5.40591E-01-1.28974E-03-1.94577E+00-5.91781E-14-2.13699E-14
 -1      3110 1.98866E+01 6.24830E-01 4.55601E-03-1.55543E+00-1.10630E-13-1.47361E-13
 -1      3111 1.98560E+01 6.42055E-01-3.60201E-03-1.42709E+00-1.13773E-13-1.80917E-13
 -1      3112 1.93789E+01 7.19404E-01 1.80709E-03-1.61589E+00-1.03193E-13-2.32319E-14
 -1      3113 1.99331E+01 6.41289E-01 3.25768E-03-1.29563E+00-4.12352E-14-1.73048E-13
 -1      3114 1.99149E+01 6.22007E-01-3.56244E-03-1.17686E+00 4.80204E-14-1.75871E-13
 -1      3115 1.95336E+01 7.53686E-01 2.80258E-03-1.33739E+00-8.18679E-14-4.75340E-14
 -1      3116 1.99800E+01 5.95367E-01 2.58516E-03-1.06333E+00 9.82610E-14-2.41848E-13
 -1      3117 1.99649E+01 5.59162E-01-3.20522E-03-9.57150E-01 7.19763E-14-2.67792E-13
 -1      3118 1.96701E+01 7.09804E-01 2.76899E-03-1.09855E+00 6.35712E-14 3.48604E-14
 -1      3119 2.00157E+01 5.21766E-01 2.21206E-03-8.59696E-01 7.61378E-15-2.80444E-13
 -1      3120 2.00007E+01 4.80045E-01-2.73740E-03-7.67387E-01-4.00739E-14-1.69256E-13
 -1      3121 1.97788E+01 6.29174E-01 2.32353E-03-8.92730E-01 6.42474E-14-1.94323E-13
 -1      3122 2.00382E+01 4.40420E-01 1.95719E-03-6.84683E-01-3.11253E-14-1.53636E-13
 -1      3123 2.00228E+01 3.99375E-01-2.25860E-03-6.06327E-01 3.58188E-14-9.28947E-14
 -1      3124 1.98596E+01 5.36192E-01 1.78362E-03-7.16316E-01-3.78250E-15-9.08225E-15
 -1      3125 2.00495E+01 3.61947E-01 1.73622E-03-5.37125E-01 3.17757E-14-1.19626E-13
 -1      3126 2.00343E+01 3.24613E-01-1.81968E-03-4.71974E-01-1.03877E-14-1.07777E-13
 -1      3127 1.99169E+01 4.44332E-01 1.28500E-03-5.66832E-01 4.50532E-14-1.63767E-13
 -1      3128 2.00525E+01 2.91382E-01 1.52086E-03-4.14939E-01-2.04981E-14 6.60617E-15
 -1      3129 2.00383E+01 2.58962E-01-1.44012E-03-3.61754E-01 8.38899E-14-2.53484E-15
 -1      3130 1.99558E+01 3.60370E-01 8.76712E-04-4.41974E-01 5.81856E-14-7.96764E-15
 -1      3131 2.00504E+01 2.30570E-01 1.30781E-03-3.15465E-01-3.00132E-15-8.95332E-15
 -1      3132 2.00375E+01 2.03274E-01-1.12319E-03-2.72773E-01 7.52826E-14-1.35975E-13
 -1      3133 1.99810E+01 2.87114E-01 5.67288E-04-3.39284E-01-1.66897E-14 9.20142E-14
 -1      3134 2.00453E+01 1.79654E-01 1.10210E-03-2.35782E-01 1.46144E-13-2.79673E-13
 -1      3135 2.00342E+01 1.57189E-01-8.64264E-04-2.02052E-01-3.65342E-14-1.75298E-13
 -1      3136 1.99966E+01 2.25162E-01 3.45488E-04-2.56153E-01-1.11069E-14-1.41345E-13
 -1      3137 2.00389E+01 1.37938E-01 9.10390E-04-1.72944E-01-1.36460E-13-2.24726E-14
 -1      3138 2.00296E+01 1.19784E-01-6.56366E-04-1.46701E-01-4.47962E-15 1.26403E-14
 -1      3139 2.00056E+01 1.73969E-01 1.92972E-04-1.89912E-01-1.17835E-14-4.78611E-14
 -1      3140 2.00322E+01 1.04358E-01 7.37815E-04-1.24146E-01 1.58788E-13-3.52061E-14
 -1      3141 2.00247E+01 8.99213E-02-4.91841E-04-1.04037E-01 1.90040E-13 6.15243E-14
 -1      3142 2.00102E+01 1.32453E-01 9.22867E-05-1.37951E-01 5.17294E-14 1.36551E-13
 -1      3143 2.00260E+01 7.77473E-02 5.87109E-04-8.68321E-02 1.18845E-13 6.90261E-14
 -1      3144 2.00199E+01 6.64348E-02-3.63291E-04-7.16644E-02 7.56228E-15 1.17598E-13
 -1      3145 2.00121E+01 9.93266E-02 2.88386E-05-9.78270E-02 1.31637E-13-3.16629E-14
 -1      3146 2.00204E+01 5.69651E-02 4.58892E-04-5.87544E-02-1.54691E-13 2.23173E-13
 -1      3147 2.00157E+01 4.82270E-02-2.64078E-04-4.75025E-02-1.10134E-13 1.85785E-13
 -1      3148 2.00122E+01 7.32888E-02-8.77175E-06-6.73386E-02 2.26473E-14 1.99885E-13
 -1      3149 2.00157E+01 4.09648E-02 3.52295E-04-3.79848E-02-6.30476E-14 1.58918E-13
 -1      3150 2.00121E+01 3.43109E-02-1.88498E-04-2.97893E-02 2.71076E-14 1.72270E-13
 -1      3151 2.00113E+01 5.31162E-02-2.90176E-05-4.45605E-02-1.49249E-13 4.32539E-13
 -1      3152 2.00118E+01 2.88198E-02 2.65523E-04-2.29094E-02 1.82956E-13 8.89887E-14
 -1      3153 2.00091E+01 2.38236E-02-1.31803E-04-1.70648E-02 2.48708E-13 1.13384E-13
 -1      3154 2.00100E+01 3.77089E-02-3.79744E-05-2.78523E-02 7.85469E-14 2.07106E-13
 -1      3155 2.00086E+01 1.97275E-02 1.96323E-04-1.22054E-02 2.65439E-13 6.78762E-14
 -1      3156 2.00067E+01 1.60236E-02-9.00967E-05-8.14457E-03 1.85062E-13 4.81863E-14
 -1      3157 2.00084E+01 2.61041E-02-3.99428E-05-1.58491E-02 1.65825E-13 6.97427E-14
 -1      3158 2.00061E+01 1.30017E-02 1.42294E-04-4.81174E-03 6.44312E-14 2.31215E-14
 -1      3159 2.00047E+01 1.02797E-02-6.04061E-05-2.08894E-03-1.06159E-13 2.40328E-14
 -1      3160 2.00068E+01 1.74727E-02-3.78673E-05-7.44036E-03 3.62738E-14-1.45772E-13
 -1      3161 2.00042E+01 8.05887E-03 1.00859E-04 1.03115E-04-1.67763E-13 2.50865E-13
 -1      3162 2.00032E+01 6.05525E-03-3.93102E-05 1.82784E-03-1.59595E-13 8.48053E-14
 -1      3163 2.00053E+01 1.11079E-02-3.36306E-05-1.74216E-03-4.74825E-14-1.95448E-13
 -1      3164 2.00027E+01 4.40245E-03 6.94651E-05 3.16889E-03-5.33748E-14 3.14370E-13
 -1      3165 2.00021E+01 2.90849E-03-2.11255E-05 4.14320E-03-6.11576E-14 3.61827E-13
 -1      3166 2.00040E+01 6.41444E-03-2.63567E-05 1.92032E-03-1.80679E-14 1.65989E-13
 -1      3167 2.00016E+01 1.76910E-03 4.93193E-05 4.80440E-03-5.98873E-14 5.09163E-13
 -1      3168 2.00012E+01 5.83171E-04-1.22258E-05 5.22390E-03 8.44029E-14 6.05378E-13
 -1      3169 2.00018E+01 4.49533E-04-3.38704E-05 5.01899E-03 1.52937E-13 9.76802E-13
 -1      3170 2.00028E+01 2.97973E-03-4.00920E-05 4.01077E-03 3.92279E-14 7.25759E-13
 -1      3171 2.25250E+01-1.50151E+00-9.93299E-03-1.66667E-01-3.27208E-14 2.76763E-14
 -1      3172 2.23101E+01-1.34917E+00 1.58132E-02-4.48304E-01-4.57701E-14-9.17029E-15
 -1      3173 2.19288E+01-1.16538E+00-8.05122E-03-6.80714E-01-3.06656E-14-8.40311E-15
 -1      3174 2.17233E+01-9.44074E-01 1.48033E-02-8.63085E-01-4.05545E-14 3.47964E-15
 -1      3175 2.20684E+01-1.47806E+00-1.28757E-02-8.24863E-01-3.97074E-14-2.21091E-14
 -1      3176 2.34857E+01-9.74966E-01-1.13461E-02 1.31236E+00 2.20171E-14 2.51885E-13
 -1      3177 2.34275E+01-1.33489E+00-1.04006E-02 1.01180E+00-1.04135E-14 1.54824E-13
 -1      3178 2.35287E+01 2.76530E-01 6.14515E-03 1.78964E+00 1.95445E-13 3.48618E-13
 -1      3179 2.36190E+01-4.36120E-01-2.35923E-02 1.69129E+00 9.49783E-14 3.20228E-13
 -1      3180 2.41140E+01-9.29964E-01-1.10438E-02 1.45935E+00 2.15106E-14 3.01834E-13
 -1      3181 2.32413E+01 1.85762E+00 1.38764E-02 1.51257E+00 2.41722E-13 2.85224E-13
 -1      3182 2.33662E+01 1.06073E+00-4.72442E-02 1.77583E+00 2.53713E-13 3.52341E-13
 -1      3183 2.41688E+01 7.85091E-01 8.67277E-03 1.92150E+00 2.23898E-13 3.85188E-13
 -1      3184 2.29161E+01 2.79622E+00-2.15645E-02 3.61090E-01 3.93373E-13 1.38193E-13
 -1      3185 2.29576E+01 2.43797E+00-5.91871E-02 9.23366E-01 3.14119E-13 1.80656E-13
 -1      3186 2.38099E+01 2.67469E+00-1.79647E-03 1.42460E+00 3.61704E-13 2.79145E-13
 -1      3187 2.29976E+01 2.47245E+00-4.02755E-02-1.05204E+00 3.36963E-13 1.60325E-14
 -1      3188 2.29355E+01 2.82252E+00-8.54496E-03-4.71168E-01 4.04815E-13 4.61627E-14
 -1      3189 2.36170E+01 3.40827E+00-2.14077E-02-5.58508E-02 4.62824E-13 6.82813E-14
 -1      3190 2.33550E+01 1.10491E+00-4.86702E-02-1.90357E+00 2.57761E-13-7.83835E-14
 -1      3191 2.32273E+01 1.88649E+00 1.22326E-02-1.61746E+00 2.81037E-13-6.45968E-14
 -1      3192 2.38005E+01 2.61441E+00-1.84044E-02-1.48473E+00 3.69687E-13-1.48777E-13
 -1      3193 2.35980E+01-3.74558E-01-3.28021E-02-1.83683E+00 1.84194E-13-1.66892E-13
 -1      3194 2.35431E+01 3.36191E-01 1.01540E-02-1.91804E+00 2.26489E-13-1.29249E-13
 -1      3195 2.41222E+01 7.51288E-01-1.10108E-02-2.03318E+00 2.77815E-13-2.82867E-13
 -1      3196 2.34531E+01-1.29012E+00-7.58027E-03-1.17625E+00 1.03112E-13-1.71861E-13
 -1      3197 2.35180E+01-9.17806E-01-2.27606E-03-1.48426E+00 1.40522E-13-1.36907E-13
 -1      3198 2.41124E+01-8.19914E-01 1.26985E-02-1.64121E+00 1.28893E-13-3.06541E-13
 -1      3199 2.29628E+01-1.53127E+00 9.32286E-03-3.86688E-01-1.49348E-14-5.41149E-14
 -1      3200 2.31211E+01-1.48236E+00-1.19141E-02-7.33130E-01 4.07573E-14-8.39840E-14
 -1      3201 2.36021E+01-1.67695E+00 2.59367E-03-7.62483E-01 8.17011E-15-1.05764E-13
 -1      3202 2.23255E+01-1.32800E+00 1.42941E-02 2.61331E-01 1.11240E-13-2.91258E-14
 -1      3203 2.25339E+01-1.47277E+00-1.33359E-02-1.88350E-02 7.88625E-14 1.80494E-14
 -1      3204 2.28198E+01-1.80034E+00-1.10721E-02 6.93872E-02-1.69699E-14-2.12495E-14
 -1      3205 2.17240E+01-9.46497E-01 1.32546E-02 6.81977E-01 8.49820E-14 3.33916E-14
 -1      3206 2.19345E+01-1.15354E+00-8.76214E-03 4.94955E-01 1.02672E-13 1.86064E-14
 -1      3207 2.20263E+01-1.46258E+00-1.38342E-02 6.43055E-01 4.71183E-14 2.96529E-15
 -1      3208 2.12361E+01-5.57205E-01 9.98378E-03 9.01334E-01-5.97330E-14 6.90978E-14
 -1      3209 2.14194E+01-7.51524E-01-4.50029E-03 7.99384E-01 7.37442E-14 1.01701E-13
 -1      3210 2.13712E+01-9.86182E-01-1.25973E-02 9.60583E-01 5.64113E-14 7.71785E-14
 -1      3211 2.08738E+01-2.40053E-01 6.55410E-03 9.74709E-01-7.34901E-14-2.25245E-14
 -1      3212 2.10214E+01-3.91059E-01-1.64275E-03 9.37331E-01-7.50144E-14-2.74409E-14
 -1      3213 2.08903E+01-5.41240E-01-9.72431E-03 1.08502E+00-1.58731E-14 1.70614E-13
 -1      3214 2.06175E+01-1.47392E-02 3.79571E-03 9.53435E-01-2.16536E-13 1.38344E-16
 -1      3215 2.07322E+01-1.18040E-01 2.30022E-05 9.60152E-01-1.04985E-13 7.07365E-14
 -1      3216 2.05634E+01-1.96014E-01-6.83464E-03 1.08559E+00-9.67376E-14 2.27633E-13
 -1      3217 2.04408E+01 1.26582E-01 1.84140E-03 8.76239E-01-7.79625E-14-5.84933E-14
 -1      3218 2.05291E+01 6.44733E-02 9.76580E-04 9.09983E-01-1.30946E-13-5.02879E-14
 -1      3219 2.03527E+01 4.07598E-02-4.41352E-03 1.01366E+00-1.09760E-13 7.31509E-14
 -1      3220 2.03197E+01 2.02270E-01 5.82877E-04 7.70711E-01-1.65803E-13-2.89414E-14
 -1      3221 2.03879E+01 1.71241E-01 1.47283E-03 8.18746E-01-9.78173E-14-5.40257E-14
 -1      3222 2.02222E+01 1.83827E-01-2.69215E-03 9.03884E-01-1.30392E-13-5.44988E-14
 -1      3223 2.02360E+01 2.31649E-01-1.60655E-04 6.55319E-01-1.17058E-13-6.68566E-14
 -1      3224 2.02892E+01 2.21950E-01 1.69358E-03 7.08741E-01-1.25991E-13-3.37759E-14
 -1      3225 2.01438E+01 2.56116E-01-1.56923E-03 7.78863E-01-1.64894E-13-2.74134E-15
 -1      3226 2.01769E+01 2.31133E-01-5.51369E-04 5.41808E-01-3.38159E-14-2.02797E-13
 -1      3227 2.02190E+01 2.34819E-01 1.74068E-03 5.94797E-01-2.17857E-14-1.18984E-13
 -1      3228 2.00973E+01 2.79636E-01-8.86867E-04 6.52779E-01-2.11629E-14-5.48593E-15
 -1      3229 2.01342E+01 2.13190E-01-7.14510E-04 4.37105E-01-1.11792E-13-3.28400E-13
 -1      3230 2.01677E+01 2.24382E-01 1.67585E-03 4.86167E-01-1.26746E-13-2.89233E-13
 -1      3231 2.00698E+01 2.72349E-01-4.97814E-04 5.34153E-01 2.12870E-14-2.80279E-13
 -1      3232 2.01025E+01 1.86584E-01-7.39758E-04 3.44769E-01-7.53695E-14-2.99937E-13
 -1      3233 2.01292E+01 2.01234E-01 1.54146E-03 3.88081E-01-8.85099E-14-2.67585E-13
 -1      3234 2.00530E+01 2.47605E-01-2.89253E-04 4.27667E-01-1.81689E-13-4.29940E-13
 -1      3235 2.00783E+01 1.57073E-01-6.88222E-04 2.66096E-01-1.34671E-13-8.24961E-14
 -1      3236 2.00997E+01 1.72573E-01 1.36871E-03 3.02973E-01-1.06177E-13-1.67209E-13
 -1      3237 2.00422E+01 2.14646E-01-1.84612E-04 3.35400E-01-2.03824E-13-3.00355E-13
 -1      3238 2.00597E+01 1.28179E-01-5.99595E-04 2.00934E-01-3.98555E-15 1.00779E-14
 -1      3239 2.00766E+01 1.42973E-01 1.18013E-03 2.31420E-01-6.60722E-14-9.16215E-14
 -1      3240 2.00347E+01 1.79474E-01-1.34977E-04 2.57718E-01-1.48081E-13 9.63577E-15
 -1      3241 2.00452E+01 1.01864E-01-4.98558E-04 1.48268E-01 1.32365E-13 1.38280E-13
 -1      3242 2.00585E+01 1.15117E-01 9.91611E-04 1.72841E-01 1.04934E-13 2.46477E-14
 -1      3243 2.00289E+01 1.45708E-01-1.12600E-04 1.93912E-01 1.91614E-14-6.28147E-14
 -1      3244 2.00339E+01 7.90412E-02-3.99536E-04 1.06633E-01 2.16133E-13 2.43303E-13
 -1      3245 2.00442E+01 9.03995E-02 8.14052E-04 1.25995E-01 2.13522E-13 2.63818E-13
 -1      3246 2.00242E+01 1.15318E-01-1.02020E-04 1.42652E-01 1.16325E-13-1.34666E-13
 -1      3247 2.00251E+01 5.99599E-02-3.10189E-04 7.43976E-02 1.84578E-13 3.78090E-13
 -1      3248 2.00329E+01 6.93680E-02 6.54038E-04 8.93301E-02 2.21916E-13 4.27973E-13
 -1      3249 2.00201E+01 8.91691E-02-9.52169E-05 1.02307E-01 9.79036E-14 5.61612E-14
 -1      3250 2.00183E+01 4.44711E-02-2.33862E-04 4.99424E-02 5.78601E-14 4.52723E-13
 -1      3251 2.00242E+01 5.20483E-02 5.14761E-04 6.12200E-02 1.08870E-13 5.04234E-13
 -1      3252 2.00165E+01 6.74306E-02-8.85715E-05 7.11733E-02 7.70184E-14 5.49335E-13
 -1      3253 2.00131E+01 3.22115E-02-1.71298E-04 3.17722E-02-6.44830E-14 4.72157E-13
 -1      3254 2.00174E+01 3.81677E-02 3.96987E-04 4.01080E-02 1.21694E-14 3.82341E-13
 -1      3255 2.00134E+01 4.98610E-02-8.08446E-05 4.76158E-02 2.82025E-14 6.99355E-13
 -1      3256 2.00091E+01 2.27217E-02-1.21796E-04 1.85701E-02 1.94721E-13 1.61745E-13
 -1      3257 2.00122E+01 2.73035E-02 2.99889E-04 2.45892E-02 8.13732E-14 2.37401E-13
 -1      3258 2.00107E+01 3.60015E-02-7.19473E-05 3.01503E-02 8.02497E-14 3.09833E-13
 -1      3259 2.00062E+01 1.55184E-02-8.39750E-05 9.21978E-03 1.80893E-13 1.67305E-13
 -1      3260 2.00084E+01 1.89770E-02 2.21701E-04 1.34492E-02 2.38501E-13 1.47830E-13
 -1      3261 2.00083E+01 2.53010E-02-6.23308E-05 1.74853E-02 2.48703E-13 2.19678E-14
 -1      3262 2.00040E+01 1.01343E-02-5.62289E-05 2.80666E-03 2.70540E-13 1.38934E-13
 -1      3263 2.00055E+01 1.27085E-02 1.60254E-04 5.67537E-03 2.28667E-13 1.83525E-13
 -1      3264 2.00064E+01 1.71916E-02-5.25986E-05 8.53514E-03 2.22802E-13 1.28576E-13
 -1      3265 2.00024E+01 6.13901E-03-3.68719E-05-1.39362E-03 7.28202E-14-1.44094E-13
 -1      3266 2.00034E+01 8.04606E-03 1.13213E-04 4.51099E-04 3.54257E-13 3.22653E-14
 -1      3267 2.00047E+01 1.11300E-02-4.32773E-05 2.41542E-03 2.98288E-13 1.09252E-13
 -1      3268 2.00014E+01 3.14681E-03-2.40362E-05-3.93467E-03 5.70629E-15-5.29017E-13
 -1      3269 2.00019E+01 4.58026E-03 7.82265E-05-2.85966E-03-6.47398E-14-4.02156E-13
 -1      3270 2.00033E+01 6.62031E-03-3.47186E-05-1.57092E-03 2.20658E-13-1.29887E-13
 -1      3271 2.00006E+01 8.44940E-04-5.48282E-06-5.20540E-03-1.13770E-13-7.44422E-13
 -1      3272 2.00009E+01 1.93099E-03 4.86748E-05-4.73002E-03-8.13995E-14-7.31351E-13
 -1      3273 2.00022E+01 3.22021E-03-2.59836E-05-3.95630E-03 1.27485E-13-6.08274E-13
 -1      3274 2.00006E+01-5.11195E-04 3.41840E-06-5.41769E-03-4.19403E-13-9.31351E-13
 -1      3275 2.00005E+01 2.06367E-04 1.11124E-05-5.40390E-03-2.54838E-13-9.05837E-13
 -1      3276 2.00016E+01 1.02385E-03-1.25861E-05-4.95048E-03-1.10110E-13-1.13498E-12
 -1      3277 2.00014E+01-5.41763E-04-5.41310E-06-5.17876E-03-5.04687E-13-1.08395E-12
 -1      3278 2.00039E+01 1.46696E-03-4.41251E-06 1.52520E-03-3.26928E-14-2.04793E-13
 -1      3279 2.00040E+01 1.54057E-03-1.44302E-05 8.72659E-04 1.65537E-13-3.86434E-13
 -1      3280 2.92071E+01-1.59307E+00-8.92296E-02-1.20241E+00-3.85358E-13 3.88772E-13
 -1      3281 2.00040E+01 1.66461E-03-8.85484E-06 2.53745E-04 1.77633E-13-4.71028E-13
 -1      3282 2.00040E+01 1.67564E-03-1.04768E-05-4.06198E-04 3.67167E-13-4.59483E-13
 -1      3283 2.00046E+01 3.81005E-03 3.67227E-05 4.82612E-04 2.38573E-13-4.80807E-13
 -1      3284 1.30630E+01-2.33657E+00 1.47387E-01 5.45245E+00-4.88401E-13 4.53609E-13
 -1      3285 2.00256E+01-4.17655E+00-5.30414E-02 4.86342E+00-2.91545E-13-3.36550E-13
 -1      3286 1.81004E+01-3.37201E+00 1.22884E-01 5.25396E+00-3.90257E-13-1.69871E-13
 -1      3287 2.64990E+01-4.22662E+00 5.11671E-02-9.20579E-01 4.93463E-13-3.13777E-13
 -1      3288 2.00029E+01 4.68674E-04-2.30090E-06 4.04178E-03 4.00881E-14 4.78025E-13
 -1      3289 2.00033E+01 6.16705E-04-1.02587E-05 3.44171E-03 7.77014E-14 2.69918E-13
 -1      3290 1.51304E+01-2.61672E+00-4.81169E-03 5.46758E+00-4.25916E-13 1.85851E-13
 -1      3291 1.23177E+01-1.23070E+00 1.17247E-01 4.55712E+00-5.24546E-13 5.71904E-13
 -1      3292 1.70250E+01-2.43498E+00 6.18604E-02 4.77358E+00-3.79238E-13-6.54928E-14
 -1      3293 1.05607E+01-3.22136E-01 7.73417E-02 3.32704E+00-3.87024E-13 8.27102E-13
 -1      3294 9.79000E+00 2.93271E-01 8.41481E-02 1.37661E+00-3.00997E-13 6.88435E-13
 -1      3295 2.00036E+01 1.03123E-03-3.91492E-06 2.81301E-03 2.85391E-14 1.80333E-13
 -1      3296 2.00038E+01 1.15559E-03-1.47745E-05 2.15840E-03-2.89218E-14 1.12097E-13
 -1      3297 2.00045E+01 3.36916E-03 3.07795E-05 1.66113E-03 5.84601E-14-2.35825E-14
 -1      3298 2.00040E+01 2.59647E-03 2.01058E-06 2.89348E-03 1.45378E-13 2.34689E-13
 -1      3299 2.50260E+01 3.10121E+00-7.24184E-02 1.53787E+00 4.74162E-13 1.95450E-13
 -1      3300 2.49646E+01 4.26926E+00-1.59699E-01 9.41686E-01 5.69995E-13 1.34179E-13
 -1      3301 2.31211E+01-1.52700E+00-7.58719E-03 5.44380E-01-2.35850E-14 1.20323E-13
 -1      3302 2.29325E+01-1.57347E+00 6.11167E-03 1.95848E-01-3.52357E-14 1.04550E-13
 -1      3303 2.28219E+01-1.82813E+00-1.50696E-02-2.39726E-01-8.85871E-14 7.98782E-14
 -1      3304 2.36307E+01-1.76178E+00 5.43988E-03 5.91176E-01-5.52622E-14 1.86371E-13
 -1      3305 2.08093E+01 3.84153E-02-1.04123E-03-1.02327E+00 3.65439E-14-9.63392E-14
 -1      3306 2.07276E+01 2.02329E-01 7.32070E-03-9.62345E-01 4.40687E-14-1.07201E-13
 -1      3307 1.10064E+01-9.12363E-01 1.37973E-01-3.75096E+00 2.20102E-14 4.33070E-13
 -1      3308 1.36299E+01-2.16562E+00 8.84911E-03-4.98033E+00 2.21392E-13 6.23931E-13
 -1      3309 2.43136E+01-4.48228E+00-1.17876E-01 2.44390E+00-1.45564E-13-5.58094E-13
 -1      3310 2.24254E+01-4.40612E+00 8.80798E-02 3.88328E+00-1.78524E-13-4.27218E-13
 -1      3311 2.15728E+01-3.80629E+00 6.86802E-02 3.73688E+00-2.46331E-13-3.66654E-13
 -1      3312 2.06593E+01 3.53226E-01-9.93261E-04-8.51252E-01 7.87068E-14-1.31448E-13
 -1      3313 2.06182E+01 5.08949E-01 5.96567E-03-7.27929E-01 1.10707E-13-1.19205E-13
 -1      3314 2.05368E+01 3.55395E-01-5.59048E-03-9.61632E-01 6.24207E-14-1.22509E-13
 -1      3315 2.19949E+01-4.46033E+00 6.14177E-02-4.24204E+00-3.32574E-13-1.11699E-13
 -1      3316 2.38831E+01-4.63751E+00-7.61938E-02-3.06822E+00-2.99531E-13-3.07220E-14
 -1      3317 2.05929E+01 1.15706E+00 4.44105E-04 2.55633E-02 2.82234E-13-1.28375E-13
 -1      3318 2.04223E+01 1.50917E+00 2.23159E-03 1.06092E-01 2.82346E-13-1.70355E-13
 -1      3319 2.03589E+01 1.36938E+00 3.46112E-03-1.25643E-01 2.41076E-13-1.65150E-13
 -1      3320 2.05834E+01 9.41704E-01-2.65164E-03-2.27073E-01 2.45876E-13-1.19969E-13
 -1      3321 1.94963E+01-3.38056E+00 1.19263E-01 4.68870E+00 4.46986E-13-7.28549E-14
 -1      3322 1.15400E+01-4.63091E-01 7.86573E-03 3.30408E+00 3.63300E-13-6.27998E-13
 -1      3323 1.02904E+01 2.65242E-01 1.28241E-01 1.55301E+00 2.35862E-13-7.50372E-13
 -1      3324 1.10620E+01-6.36852E-01 8.18360E-02-3.63922E+00-1.75023E-13-7.37188E-13
 -1      3325 1.31158E+01-1.84045E+00 9.41056E-02-5.20778E+00-3.28654E-13-7.30818E-13
 -1      3326 2.01434E+01 1.29501E+00 1.06683E-03 6.74880E-01-1.71421E-13-2.35224E-13
 -1      3327 2.01017E+01 1.17556E+00-1.00519E-03 9.12809E-01-1.35994E-13-2.29727E-13
 -1      3328 1.97912E+01 1.32499E+00 3.33172E-03 9.64911E-01-1.25259E-13-2.47883E-13
 -1      3329 2.00850E+01 2.05465E+00-4.06653E-03-1.31232E-01-2.49056E-13-3.22671E-13
 -1      3330 2.01658E+01 1.83843E+00 2.05465E-03 2.62902E-02-2.39064E-13-2.88887E-13
 -1      3331 1.97980E+01 2.36458E+00-3.35456E-03-1.23503E-01-2.08072E-13-3.80967E-13
 -1      3332 1.70078E+01-2.96190E+00 1.57570E-01-5.08636E+00 4.33251E-13 5.88050E-13
 -1      3333 1.94658E+01-4.11362E+00-5.90211E-02-4.86928E+00 4.96103E-13 4.25687E-13
 -1      3334 9.48017E+00 2.57584E-01 7.36132E-02-8.26349E-01-1.58054E-13 3.81917E-13
 -1      3335 9.85294E+00-1.87635E-01 1.26531E-01-2.55237E+00-7.41768E-14 2.82024E-13
 -1      3336 1.20044E+01-2.80529E-01 1.23245E-01-2.97034E+00 2.93168E-14 2.98622E-13
 -1      3337 1.65183E+01-2.62448E+00-9.71547E-03 5.02300E+00 4.86437E-13-3.05228E-13
 -1      3338 1.37483E+01-1.16434E+00 1.46425E-01 4.36261E+00 4.85122E-13-5.18668E-13
 -1      3339 1.81272E+01-2.26492E+00 6.31470E-02 4.33631E+00 4.00468E-13-2.29414E-13
 -1      3340 2.55378E+01-3.98628E+00 7.59021E-02-1.61267E+00-2.95806E-13 2.96430E-14
 -1      3341 2.62433E+01-3.24097E+00-1.34317E-01-2.40835E-01-1.66245E-13 1.28585E-13
 -1      3342 1.91918E+01 2.79049E+00-1.80596E-03-1.03605E-01 1.25779E-13-4.03905E-13
 -1      3343 1.90836E+01 2.86925E+00-6.06358E-03-1.35903E-01 7.61023E-14-4.25095E-13
 -1      3344 2.65526E+01-2.50186E+00-9.17530E-02-4.11789E-01 1.58460E-13-4.91118E-13
 -1      3345 2.59990E+01-3.49669E+00 5.79857E-02 7.62432E-01-1.35022E-14-5.48277E-13
 -1      3346 1.90119E+01 2.94184E+00-2.47327E-03-1.22225E-01 6.02910E-14-4.31895E-13
 -1      3347 1.89763E+01 2.96430E+00-5.67738E-03-1.38035E-01 2.89525E-14-4.30394E-13
 -1      3348 1.90716E+01 2.67899E+00 6.77685E-03-1.84015E-01 4.85705E-14-3.99114E-13
 -1      3349 2.50222E+01 8.35344E-01-4.98514E-02 1.89780E+00 2.05832E-13 3.55137E-13
 -1      3350 2.52279E+01 1.97007E+00-1.01297E-01 2.04859E+00 3.66471E-13 2.77386E-13
 -1      3351 1.15047E+01 6.09821E-01 1.19116E-01 7.00437E-01 1.25296E-13-6.55892E-13
 -1      3352 2.67817E+01 2.22625E+00-1.16126E-01-2.21588E+00 4.53082E-13-3.40172E-13
 -1      3353 2.63294E+01 9.89598E-01-1.22534E-02-2.14921E+00 4.04551E-13-4.49953E-13
 -1      3354 2.58536E+01 2.81689E+00-9.06443E-02-2.11238E+00 4.63740E-13-2.89158E-13
 -1      3355 2.60180E+01-2.12014E+00-4.54730E-02 6.67764E-01-9.00777E-14 2.30961E-13
 -1      3356 2.14971E+01-3.73690E+00 7.17802E-02-3.68140E+00 5.63535E-13 8.03762E-14
 -1      3357 1.93189E+01-3.38467E+00 4.79021E-02-4.74791E+00-3.98327E-13-3.31405E-13
 -1      3358 2.07855E+01-4.16664E+00 2.42144E-02-4.64994E+00-3.75949E-13-2.38323E-13
 -1      3359 2.18675E+01-3.84652E+00 2.22489E-02-3.60892E+00-3.41045E-13-1.34161E-13
 -1      3360 1.19530E+01-7.26064E-03 1.10533E-01-2.64002E+00-1.24307E-13-6.77215E-13
 -1      3361 1.94898E+01 2.53030E+00-2.17476E-03-4.34363E-02 2.07211E-13-3.57068E-13
 -1      3362 1.93273E+01 2.66148E+00-5.90331E-03-9.37092E-02 1.61607E-13-3.85370E-13
 -1      3363 1.92976E+01 2.48383E+00 5.79977E-03-2.02933E-01 1.16751E-13-3.56936E-13
 -1      3364 2.41699E+01 4.13723E+00-3.50409E-02 5.07650E-02 5.41248E-13 4.73215E-14
 -1      3365 2.57750E+01 5.21649E+00-1.23448E-01 2.33864E-02 6.70117E-13-3.62540E-14
 -1      3366 2.59573E+01 5.16385E+00-1.84801E-01-8.58692E-01 6.82149E-13-1.81792E-13
 -1      3367 2.41933E+01 3.84208E+00-1.04440E-01-8.52590E-01 5.22603E-13-8.02388E-14
 -1      3368 1.99322E+01 1.94966E+00-2.49004E-03 1.37917E-01-1.95221E-13-3.06392E-13
 -1      3369 2.43661E+01-3.96486E+00 2.00079E-02-2.02567E+00-2.95269E-13 1.20962E-14
 -1      3370 2.04302E+01-2.01634E+00-4.61062E-02-3.10275E+00 3.54990E-13 3.88994E-14
 -1      3371 2.00233E+01 1.80825E+00 4.66093E-03-1.16573E-01 2.06806E-13-2.61636E-13
 -1      3372 1.98680E+01 2.17154E+00-3.50462E-03 4.95787E-02 2.36553E-13-3.15211E-13
 -1      3373 1.96718E+01 2.35548E+00-4.99999E-03-1.18574E-02 2.11050E-13-3.58109E-13
 -1      3374 2.10592E+01-3.18523E-01-2.05974E-03-1.07177E+00-2.51883E-14-5.62467E-14
 -1      3375 2.09318E+01-1.29304E-01 8.93343E-03-1.07883E+00 2.11558E-14-7.37403E-14
 -1      3376 2.06984E+01-2.64230E-02-8.36646E-03-1.14929E+00-2.87205E-15-9.28365E-14
 -1      3377 2.14354E+01-9.67807E-01-1.31846E-02-1.12907E+00-6.50725E-14-5.09052E-14
 -1      3378 2.14306E+01-7.31714E-01-4.44993E-03-9.71108E-01-6.57791E-14-1.88596E-14
 -1      3379 2.12580E+01-5.13285E-01 1.16527E-02-1.05842E+00-6.48891E-14-4.48145E-14
 -1      3380 2.61061E+01-8.86514E-01-1.14401E-01-1.66892E+00 3.38396E-13-4.40144E-13
 -1      3381 2.65818E+01-1.69963E+00-3.40555E-02-1.13868E+00 2.18686E-13-4.70540E-13
 -1      3382 2.56693E+01-2.19866E+00-4.76841E-03-7.04741E-01 8.17341E-14-3.73333E-13
 -1      3383 2.00037E+01 1.24661E-03-1.37807E-05-2.27394E-03 2.27716E-13 1.67334E-13
 -1      3384 2.00035E+01 1.14078E-03 1.22049E-06-2.89598E-03 2.08403E-13 3.28956E-13
 -1      3385 1.91185E+01 2.86156E+00-4.97904E-03-7.65209E-02-6.48299E-14-3.94400E-13
 -1      3386 1.92497E+01 2.76014E+00-3.27477E-03-8.17673E-02-1.15326E-13-4.00294E-13
 -1      3387 2.00039E+01 1.58462E-03-1.32726E-05-1.01316E-03 3.20650E-13-2.35878E-13
 -1      3388 2.00038E+01 1.52977E-03-4.91476E-06-1.66180E-03 2.96571E-13 2.51545E-14
 -1      3389 2.00043E+01 3.44960E-03 2.96388E-05-1.80539E-03 2.38422E-13 1.10197E-13
 -1      3390 2.00046E+01 3.83934E-03 3.63946E-05-6.62740E-04 3.38471E-13-2.92181E-13
 -1      3391 1.29289E+01-4.77014E-01 1.08885E-01 3.55697E+00-4.14682E-13 5.04277E-13
 -1      3392 2.55552E+01 4.48147E+00-5.68893E-02-1.33193E+00 5.59913E-13-2.11097E-13
 -1      3393 1.54700E+01-2.20216E+00 8.94241E-02-5.01294E+00-3.73285E-13-5.84852E-13
 -1      3394 1.04607E+01 6.07416E-01 1.23682E-01 3.36624E-01-1.71391E-13 4.87069E-13
 -1      3395 1.14617E+01 6.91331E-01 4.90922E-02-6.75814E-01-9.49232E-14 2.81192E-13
 -1      3396 1.17233E+01 6.56415E-01 3.75903E-02 1.20914E+00-2.42963E-13 5.59490E-13
 -1      3397 2.00039E+01 2.70816E-03 2.28336E-05-2.88793E-03 1.88962E-13 3.30909E-13
 -1      3398 2.00032E+01 7.04598E-04-1.22912E-05-3.42631E-03 2.27168E-13 4.10525E-13
 -1      3399 2.00029E+01 5.41272E-04 2.38619E-06-3.90914E-03-5.29470E-15 3.05889E-13
 -1      3400 1.37700E+01-4.26861E-01 8.33561E-02 3.37352E+00 3.75592E-13-5.09953E-13
 -1      3401 1.59344E+01-2.05521E+00 8.17119E-02-4.55420E+00 3.13943E-13 5.06581E-13
 -1      3402 2.48315E+01-3.63526E+00 3.90358E-02 1.29643E+00-9.30887E-14-4.16181E-13
 -1      3403 2.06018E+01 6.28748E-01-1.17229E-03-5.86821E-01 1.40637E-13-1.21289E-13
 -1      3404 2.05927E+01 7.98989E-01 4.90408E-03-4.02054E-01 1.94102E-13-1.10798E-13
 -1      3405 2.04771E+01 9.77694E-01-3.33058E-03-3.59486E-01 2.02931E-13-1.13880E-13
 -1      3406 2.04781E+01 6.80615E-01-3.52071E-03-6.90990E-01 1.26142E-13-1.24987E-13
 -1      3407 1.99424E+01 1.58997E+00 1.49647E-03 5.17139E-01-1.77547E-13-2.63146E-13
 -1      3408 2.00023E+01 5.81386E-04-1.05036E-05 4.70754E-03 1.21568E-13 6.96232E-13
 -1      3409 2.00026E+01 3.80328E-04-1.88601E-05 4.39516E-03-8.50298E-15 5.44232E-13
 -1      3410 2.00035E+01 2.10639E-03 3.10786E-05 3.78559E-03 1.72929E-13 5.03799E-13
 -1      3411 2.00028E+01 1.90910E-03 5.26368E-05 4.36321E-03 1.31065E-14 6.80224E-13
 -1      3412 1.93994E+01 2.67006E+00-6.12008E-03-7.99564E-02-1.39151E-13-3.99833E-13
 -1      3413 1.95969E+01 2.50300E+00-3.63272E-03-9.40104E-02-1.82859E-13-4.01525E-13
 -1      3414 1.96821E+01 2.30307E+00 5.55064E-03 2.36824E-02-1.87970E-13-3.64885E-13
 -1      3415 1.93270E+01 2.53010E+00 6.46197E-03 3.17533E-02-1.25502E-13-3.71866E-13
 -1      3416 2.51716E+01-2.56738E-01-2.00469E-02 1.89736E+00 9.23133E-14 3.11152E-13
 -1      3417 1.24652E+01 6.82256E-01-7.15580E-03 1.31676E+00 1.40618E-13-5.31644E-13
 -1      3418 1.21020E+01 8.76698E-01 5.79536E-02-1.74615E-01 2.79119E-14-6.04836E-13
 -1      3419 1.89736E+01 1.11846E+00-6.70669E-03 1.52738E+00-3.44242E-14-2.51942E-13
 -1      3420 1.88684E+01 1.00030E+00 4.88332E-03 1.72353E+00-1.20651E-14-2.43269E-13
 -1      3421 1.85950E+01 8.43750E-01-8.98152E-03 1.94106E+00 2.95562E-14-2.30290E-13
 -1      3422 1.85300E+01 6.53457E-01 1.13511E-02 2.16059E+00 1.03143E-13-2.09991E-13
 -1      3423 1.82530E+01 1.11507E+00 8.01185E-03 1.67265E+00 3.00071E-14-2.02145E-13
 -1      3424 1.82239E+01 3.96717E-01-7.73583E-03 2.44630E+00 1.55624E-13-2.00973E-13
 -1      3425 1.82643E+01 5.74014E-02 2.27369E-02 2.72100E+00 2.38375E-13-2.06734E-13
 -1      3426 1.76847E+01 7.51125E-01 7.01323E-03 2.15861E+00 1.27613E-13-2.10432E-13
 -1      3427 1.79878E+01-4.00588E-01 7.80677E-04 3.10868E+00 2.89700E-13-2.56245E-13
 -1      3428 1.82652E+01-9.53078E-01 4.82515E-02 3.44071E+00 3.17011E-13-2.44279E-13
 -1      3429 1.70727E+01 7.19468E-02-1.39024E-02 2.86694E+00 2.27493E-13-3.04728E-13
 -1      3430 1.77596E+01-1.53573E+00 3.32266E-02 3.99754E+00 3.67418E-13-2.58845E-13
 -1      3431 2.42364E+01 3.17353E+00-2.39855E-02-1.42470E+00 4.62221E-13-1.31132E-13
 -1      3432 2.49398E+01 3.74805E+00-4.92604E-02-1.48131E+00 5.29604E-13-1.87347E-13
 -1      3433 2.54685E+01 3.30700E+00-1.14024E-01-1.89192E+00 4.92967E-13-2.31586E-13
 -1      3434 2.43433E+01 2.19392E+00-8.02602E-02-1.94878E+00 3.90105E-13-2.79620E-13
 -1      3435 1.90294E+01 2.93103E+00-4.91050E-03-1.13613E-01-3.05913E-14-4.02076E-13
 -1      3436 1.90833E+01 2.68743E+00 7.90845E-03-3.20281E-02-5.03123E-14-3.60758E-13
 -1      3437 1.89826E+01 2.96897E+00-3.72038E-03-1.06796E-01 1.67911E-14-4.15585E-13
 -1      3438 1.84205E+01 2.44991E-01 1.87579E-02-2.36151E+00 3.57386E-15-1.65803E-14
 -1      3439 1.83840E+01 4.88487E-01-8.00176E-03-2.14229E+00 4.30111E-14 1.21244E-13
 -1      3440 1.86324E+01 6.63571E-01 9.99584E-03-1.90876E+00-2.33709E-14 3.88842E-14
 -1      3441 1.86757E+01 7.68834E-01-8.66198E-03-1.73552E+00-7.16912E-14 6.71247E-14
 -1      3442 1.78567E+01 7.58561E-01 5.94831E-03-1.90955E+00-3.25511E-14 1.15220E-13
 -1      3443 1.88990E+01 8.37512E-01 5.00103E-03-1.56620E+00-1.40683E-13 1.96588E-14
 -1      3444 1.89690E+01 8.61915E-01-7.30121E-03-1.42398E+00-1.70329E-13 1.58021E-14
 -1      3445 1.83162E+01 9.50430E-01 7.30638E-03-1.52664E+00-1.19724E-13 8.05766E-14
 -1      3446 1.91560E+01 8.66813E-01 2.57184E-03-1.29346E+00-1.06863E-13 3.93940E-14
 -1      3447 1.92259E+01 8.46007E-01-5.93229E-03-1.17276E+00 1.71366E-14 8.12336E-14
 -1      3448 1.87106E+01 9.85466E-01 6.72733E-03-1.24585E+00-1.01784E-13 4.34815E-14
 -1      3449 1.93764E+01 8.16426E-01 1.47325E-03-1.06658E+00 2.57542E-14 4.51657E-14
 -1      3450 1.94353E+01 7.72934E-01-4.82034E-03-9.62273E-01-1.50270E-15 9.09553E-15
 -1      3451 1.90333E+01 9.33692E-01 5.69431E-03-1.02585E+00-3.99616E-14 9.22375E-14
 -1      3452 1.95532E+01 7.27284E-01 1.04853E-03-8.72978E-01 4.48680E-14-1.12979E-13
 -1      3453 1.95984E+01 6.74844E-01-3.92337E-03-7.82627E-01 8.50133E-14-1.43194E-13
 -1      3454 1.92887E+01 8.38023E-01 4.58337E-03-8.43707E-01-9.29709E-14 8.80677E-14
 -1      3455 1.96889E+01 6.24125E-01 9.20234E-04-7.06612E-01 4.16936E-14-1.43570E-13
 -1      3456 1.97213E+01 5.70765E-01-3.17878E-03-6.28991E-01 5.48611E-14-4.44947E-14
 -1      3457 1.94860E+01 7.24892E-01 3.58190E-03-6.88520E-01 1.64922E-14-7.30438E-14
 -1      3458 1.97896E+01 5.21189E-01 8.87079E-04-5.64411E-01 4.57492E-14 2.95330E-14
 -1      3459 1.98116E+01 4.71279E-01-2.56139E-03-4.98625E-01 1.79945E-14-1.57898E-14
 -1      3460 1.96353E+01 6.10053E-01 2.72891E-03-5.55344E-01 7.62180E-14-7.39135E-14
 -1      3461 1.98624E+01 4.26035E-01 8.61971E-04-4.44286E-01 8.77855E-14-3.34186E-14
 -1      3462 1.98765E+01 3.81641E-01-2.04953E-03-3.89398E-01 1.13261E-13 5.05731E-14
 -1      3463 1.97463E+01 5.02377E-01 2.03133E-03-4.41698E-01 6.66209E-14-5.76235E-14
 -1      3464 1.99138E+01 3.42068E-01 8.16835E-04-3.44298E-01-3.97752E-15 1.47258E-13
 -1      3465 1.99222E+01 3.03886E-01-1.62658E-03-2.99252E-01-9.92550E-14 8.00845E-15
 -1      3466 1.98277E+01 4.06213E-01 1.48243E-03-3.45894E-01 7.48471E-14-1.54508E-14
 -1      3467 1.99492E+01 2.70283E-01 7.47924E-04-2.62411E-01-1.80619E-13 8.90854E-14
 -1      3468 1.99538E+01 2.38256E-01-1.27693E-03-2.26051E-01-2.98865E-14 8.40717E-14
 -1      3469 1.98863E+01 3.23138E-01 1.06476E-03-2.66395E-01-4.86894E-14 4.70902E-14
 -1      3470 1.99730E+01 2.10366E-01 6.62150E-04-1.96449E-01 7.68962E-14 3.51752E-14
 -1      3471 1.99750E+01 1.84043E-01-9.90408E-04-1.67574E-01 6.59365E-14 8.03350E-14
 -1      3472 1.99280E+01 2.53147E-01 7.51665E-04-2.01548E-01 4.56338E-15 2.12802E-13
 -1      3473 1.99885E+01 1.61325E-01 5.68994E-04-1.44180E-01 3.85512E-14 1.53251E-13
 -1      3474 1.99890E+01 1.40063E-01-7.58428E-04-1.21615E-01 5.47315E-14 1.22064E-13
 -1      3475 1.99570E+01 1.95383E-01 5.20931E-04-1.49554E-01 1.39064E-13 9.40112E-14
 -1      3476 1.99982E+01 1.21861E-01 4.76143E-04-1.03432E-01 6.18811E-14 7.84444E-14
 -1      3477 1.99977E+01 1.04957E-01-5.72902E-04-8.60791E-02 1.25939E-13 4.38209E-14
 -1      3478 1.99767E+01 1.48550E-01 3.53515E-04-1.08572E-01 6.32378E-14 9.51649E-14
 -1      3479 2.00039E+01 9.05946E-02 3.88993E-04-7.21834E-02 1.60930E-13 8.61344E-14
 -1      3480 2.00029E+01 7.73552E-02-4.26351E-04-5.90594E-02 5.45542E-14 2.77828E-13
 -1      3481 1.99897E+01 1.11184E-01 2.33789E-04-7.68163E-02 1.40458E-13 6.36978E-14
 -1      3482 2.00068E+01 6.61887E-02 3.10832E-04-4.86258E-02-1.12644E-13 4.16876E-13
 -1      3483 2.00057E+01 5.59707E-02-3.12094E-04-3.88726E-02-1.26862E-13 4.85241E-13
 -1      3484 1.99980E+01 8.18231E-02 1.49455E-04-5.26341E-02 6.58079E-14 4.01178E-13
 -1      3485 2.00080E+01 4.74138E-02 2.43219E-04-3.11854E-02-7.57198E-14 4.32259E-13
 -1      3486 2.00068E+01 3.96412E-02-2.24254E-04-2.40759E-02 7.46299E-14 3.47638E-13
 -1      3487 2.00028E+01 5.90904E-02 9.10806E-05-3.45509E-02-1.26600E-13 7.45371E-13
 -1      3488 2.00080E+01 3.31763E-02 1.86481E-04-1.85304E-02 9.22227E-14 2.63000E-13
 -1      3489 2.00069E+01 2.73449E-02-1.57850E-04-1.34628E-02 4.70007E-14 6.97445E-14
 -1      3490 2.00054E+01 4.17434E-02 5.15937E-05-2.12921E-02-3.14198E-14 3.42215E-13
 -1      3491 2.00074E+01 2.25225E-02 1.40193E-04-9.56141E-03-5.08818E-14 7.01221E-14
 -1      3492 2.00063E+01 1.81978E-02-1.08821E-04-6.04929E-03-2.08271E-13-7.80685E-14
 -1      3493 2.00064E+01 2.86862E-02 2.54340E-05-1.17855E-02-5.96967E-14 1.42435E-13
 -1      3494 2.00063E+01 1.46334E-02 1.03254E-04-3.39349E-03 4.91184E-14-4.74726E-14
 -1      3495 2.00054E+01 1.14511E-02-7.02021E-05-1.05520E-03 1.26615E-13 1.01145E-13
 -1      3496 2.00064E+01 1.89700E-02 9.05872E-06-5.15451E-03-5.65229E-14 2.73813E-13
 -1      3497 2.00051E+01 8.77706E-03 6.45604E-05 6.85782E-04 1.52381E-13 5.12591E-14
 -1      3498 2.00044E+01 6.44633E-03-3.08180E-05 2.11115E-03 2.18037E-13 4.13068E-13
 -1      3499 2.00057E+01 1.18001E-02 1.81714E-06-6.91440E-04 1.99494E-13 2.60656E-13
 -1      3500 2.21232E+01-1.76135E+00-3.55914E-03-1.09301E+00-6.75675E-14-4.56800E-14
 -1      3501 2.17860E+01-1.44367E+00 2.40402E-02-1.27775E+00-7.07991E-14-5.66372E-14
 -1      3502 1.97160E+01 2.11311E+00-5.11354E-06 1.38022E-01-1.82736E-13-3.53454E-13
 -1      3503 1.97737E+01 1.93010E+00 3.59262E-03 2.72311E-01-1.67744E-13-3.20480E-13
 -1      3504 1.95054E+01 2.23993E+00-6.59765E-03 1.50052E-01-1.54864E-13-3.59553E-13
 -1      3505 2.47120E+01-1.61008E+00-3.24162E-02-1.26939E+00 7.32123E-14-4.09344E-13
 -1      3506 2.48974E+01-7.72729E-01-1.11285E-03-1.71764E+00 2.35818E-13-4.43809E-13
 -1      3507 2.37105E+01-2.24185E+00 2.21300E-02-1.22291E-01-1.23169E-13-1.60507E-13
 -1      3508 2.40242E+01-2.08197E+00-4.82759E-03-5.52176E-01-7.33966E-14-2.86937E-13
 -1      3509 2.26256E+01-1.98355E+00 2.88823E-02 6.77967E-01-7.27933E-14-8.62112E-14
 -1      3510 2.29957E+01-2.19297E+00-1.68235E-02 3.66359E-01-6.95934E-14-1.18075E-13
 -1      3511 2.32992E+01-2.68442E+00-6.40613E-02 6.07918E-01-1.12122E-13-4.00988E-13
 -1      3512 2.16848E+01-1.44299E+00 1.91308E-02 1.11111E+00 3.78135E-14-5.46451E-14
 -1      3513 2.20388E+01-1.74651E+00-6.73128E-03 9.25389E-01 2.27414E-14-5.06663E-14
 -1      3514 2.20871E+01-2.16129E+00-4.05297E-02 1.22836E+00-2.06410E-14-1.69583E-13
 -1      3515 2.09949E+01-8.69078E-01 1.27823E-02 1.26857E+00 3.34858E-14 7.34387E-14
 -1      3516 2.12754E+01-1.15276E+00 5.03808E-04 1.18755E+00-8.03621E-15 4.89161E-14
 -1      3517 2.11498E+01-1.43503E+00-2.48712E-02 1.46742E+00-1.51282E-14-2.10292E-14
 -1      3518 2.05354E+01-3.97298E-01 8.29747E-03 1.26421E+00-1.45387E-13 2.16906E-13
 -1      3519 2.07330E+01-6.18977E-01 2.76562E-03 1.25394E+00-6.01939E-14 2.08525E-13
 -1      3520 2.05290E+01-7.87097E-01-1.49045E-02 1.47659E+00-7.09897E-14 9.45513E-14
 -1      3521 2.02498E+01-5.90092E-02 4.30689E-03 1.17581E+00-1.25418E-13 2.12444E-13
 -1      3522 2.03819E+01-2.13396E-01 2.96675E-03 1.20711E+00-5.88403E-14 2.03080E-13
 -1      3523 2.01513E+01-3.00135E-01-9.80941E-03 1.37305E+00-1.46219E-13 1.43817E-13
 -1      3524 2.00876E+01 1.57731E-01 1.71064E-03 1.04581E+00-7.38036E-14 6.96325E-14
 -1      3525 2.01723E+01 6.27370E-02 2.96693E-03 1.09909E+00-8.65592E-14 1.89257E-13
 -1      3526 1.99436E+01 3.75469E-02-5.88140E-03 1.21724E+00-7.35793E-14 4.13631E-14
 -1      3527 2.00042E+01 2.78801E-01 1.77639E-04 9.01626E-01-1.77595E-13 1.56049E-13
 -1      3528 2.00569E+01 2.28801E-01 2.58782E-03 9.64602E-01-1.13482E-13 1.07381E-13
 -1      3529 1.98482E+01 2.43832E-01-3.22874E-03 1.04744E+00-9.27236E-14 1.44382E-13
 -1      3530 1.99681E+01 3.31239E-01-6.64960E-04 7.58277E-01-1.98532E-13 1.45006E-13
 -1      3531 2.00004E+01 3.12691E-01 2.20737E-03 8.23188E-01-1.91815E-13 9.51690E-14
 -1      3532 1.98191E+01 3.51837E-01-1.54159E-03 8.81810E-01-1.54717E-13 1.02815E-13
 -1      3533 1.99582E+01 3.38195E-01-1.07534E-03 6.24201E-01 1.42156E-13 3.40396E-15
 -1      3534 1.99782E+01 3.39956E-01 1.88034E-03 6.86294E-01-2.23310E-15 4.62501E-14
 -1      3535 1.98262E+01 3.91482E-01-5.35924E-04 7.28760E-01-4.26504E-14-4.90597E-14
 -1      3536 1.99614E+01 3.17572E-01-1.22102E-03 5.03846E-01 1.42467E-14-5.18184E-14
 -1      3537 1.99742E+01 3.31247E-01 1.60780E-03 5.60387E-01 1.51335E-13 2.34749E-14
 -1      3538 1.98505E+01 3.86965E-01-1.35945E-06 5.92119E-01 1.57106E-13-1.49692E-14
 -1      3539 1.99701E+01 2.82269E-01-1.20740E-03 3.99139E-01-2.59593E-13-2.21766E-13
 -1      3540 1.99787E+01 3.01923E-01 1.37718E-03 4.48770E-01-1.86709E-13-2.68660E-13
 -1      3541 1.98807E+01 3.56515E-01 2.52843E-04 4.73233E-01 6.48236E-14 8.20030E-14
 -1      3542 1.99799E+01 2.41018E-01-1.10545E-03 3.10371E-01-2.25758E-13-1.59150E-13
 -1      3543 1.99862E+01 2.62710E-01 1.17679E-03 3.52670E-01-2.76617E-13-2.03738E-13
 -1      3544 1.99103E+01 3.12974E-01 3.40711E-04 3.72025E-01-2.53116E-13-2.50742E-13
 -1      3545 1.99888E+01 1.99356E-01-9.61438E-04 2.36804E-01-2.05369E-13-8.50303E-15
 -1      3546 1.99937E+01 2.20636E-01 9.98845E-04 2.71956E-01-1.71315E-13-4.49649E-14
 -1      3547 1.99364E+01 2.64923E-01 3.41784E-04 2.87534E-01-2.42283E-13-2.52028E-13
 -1      3548 1.99959E+01 1.60541E-01-8.04655E-04 1.77088E-01 5.22210E-14-1.65854E-14
 -1      3549 1.99999E+01 1.80011E-01 8.38126E-04 2.05651E-01-7.27367E-14-4.95283E-14
 -1      3550 1.99577E+01 2.17718E-01 2.99623E-04 2.18299E-01-1.14608E-13-1.40045E-13
 -1      3551 2.00011E+01 1.26249E-01-6.52720E-04 1.29545E-01 9.76836E-14-3.79318E-14
 -1      3552 2.00044E+01 1.43233E-01 6.93623E-04 1.52281E-01 1.40105E-13-2.83169E-14
 -1      3553 1.99743E+01 1.74443E-01 2.41151E-04 1.62570E-01 2.51934E-14 8.55140E-14
 -1      3554 2.00045E+01 9.71095E-02-5.15314E-04 9.23927E-02-8.16567E-14 9.02954E-14
 -1      3555 2.00073E+01 1.11402E-01 5.65442E-04 1.10139E-01-8.74638E-14-9.31160E-14
 -1      3556 1.99864E+01 1.36612E-01 1.81699E-04 1.18482E-01 1.34883E-14 9.42152E-14
 -1      3557 2.00064E+01 7.31007E-02-3.96822E-04 6.38896E-02-1.51118E-13 3.65306E-13
 -1      3558 2.00088E+01 8.47839E-02 4.53648E-04 7.74779E-02-1.32885E-13 1.91687E-13
 -1      3559 1.99949E+01 1.04702E-01 1.28841E-04 8.41975E-02-2.02544E-13 2.27336E-13
 -1      3560 2.00072E+01 5.38261E-02-2.98319E-04 4.24293E-02 1.09431E-13 3.43247E-13
 -1      3561 2.00093E+01 6.31417E-02 3.57955E-04 5.26323E-02 4.59310E-14 4.75708E-13
 -1      3562 2.00005E+01 7.85551E-02 8.55269E-05 5.79966E-02-1.13808E-13 2.14547E-13
 -1      3563 2.00072E+01 3.87002E-02-2.18883E-04 2.65899E-02 1.93358E-13 2.17366E-13
 -1      3564 2.00090E+01 4.59663E-02 2.77608E-04 3.40939E-02 1.88796E-13 3.72555E-13
 -1      3565 2.00038E+01 5.76534E-02 5.21440E-05 3.83327E-02 1.37857E-13 1.01560E-13
 -1      3566 2.00067E+01 2.70685E-02-1.56606E-04 1.51548E-02 1.79495E-13 3.14851E-13
 -1      3567 2.00082E+01 3.26256E-02 2.11445E-04 2.05471E-02 1.89982E-13 2.57245E-13
 -1      3568 2.00055E+01 4.13060E-02 2.78700E-05 2.38602E-02 2.00318E-13 4.51421E-13
 -1      3569 2.00059E+01 1.82778E-02-1.09141E-04 7.11333E-03 1.81216E-13 1.77272E-13
 -1      3570 2.00071E+01 2.24586E-02 1.58071E-04 1.08807E-02 2.05753E-13 1.39626E-13
 -1      3571 2.00061E+01 2.87660E-02 1.09854E-05 1.34406E-02 2.10192E-13 3.27994E-13
 -1      3572 2.00049E+01 1.17131E-02-7.41411E-05 1.64946E-03 2.38988E-13 2.83917E-13
 -1      3573 2.00059E+01 1.48267E-02 1.16052E-04 4.18302E-03 2.97410E-13 2.64541E-13
 -1      3574 2.00059E+01 1.93023E-02 3.52329E-07 6.13529E-03 1.83765E-13 2.73347E-13
 -1      3575 2.00038E+01 6.82243E-03-4.82262E-05-1.87191E-03 3.38330E-13 2.19473E-14
 -1      3576 2.00046E+01 9.14190E-03 8.35761E-05-2.68704E-04 2.38431E-13 1.78513E-13
 -1      3577 2.00052E+01 1.22327E-02-5.24607E-06 1.19462E-03 2.98325E-13 3.94121E-13
 -1      3578 2.00028E+01 3.12043E-03-2.43709E-05-3.93567E-03 3.26332E-13-3.52999E-13
 -1      3579 2.00034E+01 4.87683E-03 5.74061E-05-3.03747E-03 3.94369E-13-5.30515E-14
 -1      3580 2.00043E+01 6.94974E-03-7.87787E-06-1.96619E-03 3.90129E-13 3.36142E-13
 -1      3581 2.54922E+01-1.52091E+00-5.04736E-02 1.18972E+00-3.63824E-14 2.33518E-13
 -1      3582 2.45762E+01-1.37536E+00-3.12716E-02 1.19649E+00-1.30074E-14 2.17124E-13
 -1      3583 2.43674E+01-1.88533E+00-1.44874E-03 7.85087E-01-9.13540E-14 2.02134E-13
 -1      3584 2.53063E+01-2.87970E+00 5.38154E-02-4.33484E-02-1.86349E-13 1.74250E-13
 -1      3585 2.00050E+01 6.09563E-03-1.31988E-05 5.93115E-04 3.23218E-13-4.20665E-13
 -1      3586 2.00049E+01 6.20516E-03-2.58566E-05 8.59674E-05 3.20456E-13-5.25042E-13
 -1      3587 1.82510E+01-2.68111E+00-6.98831E-02 4.37543E+00-3.18497E-13-2.83249E-13
 -1      3588 1.61800E+01-1.52756E+00 9.54155E-02 4.34758E+00-3.74202E-13 6.59750E-14
 -1      3589 2.22704E+01-3.78904E+00-8.95792E-02 2.88713E+00-2.09584E-13-3.45630E-13
 -1      3590 2.07498E+01-3.11064E+00 9.59812E-02 3.64060E+00-2.95151E-13-3.26382E-13
 -1      3591 2.03893E+01 3.85840E-01 6.87436E-04-1.06734E+00 2.87579E-14-1.58523E-13
 -1      3592 2.03361E+01 5.82764E-01 4.25527E-03-9.39002E-01 7.31018E-14-1.75381E-13
 -1      3593 1.22345E+01 5.35526E-01 2.43890E-02-1.67687E+00-6.17184E-14-5.97994E-13
 -1      3594 1.34218E+01-2.34015E-01 3.17346E-02-3.29066E+00-1.78316E-13-5.86670E-13
 -1      3595 1.52932E+01-1.38498E+00 4.48003E-02-4.37266E+00-3.09523E-13-5.52652E-13
 -1      3596 1.73795E+01-2.60049E+00 3.26009E-02-4.94615E+00-3.84550E-13-4.56420E-13
 -1      3597 1.97061E+01 1.74124E+00-4.27169E-03 4.97052E-01-1.56559E-13-3.03371E-13
 -1      3598 1.84320E+01-5.60371E-01 4.03902E-02-2.96188E+00 5.03173E-14 9.75301E-14
 -1      3599 1.81997E+01-9.62665E-02 2.63246E-03-2.69369E+00-1.06872E-13 4.27111E-14
 -1      3600 1.73744E+01 2.99624E-01 2.23349E-03-2.47180E+00-9.13889E-14 2.05478E-13
 -1      3601 1.50695E+01-1.02818E+00 9.16526E-02-3.97774E+00 2.25660E-13 3.98084E-13
 -1      3602 1.74979E+01-2.20261E+00-5.74411E-02-4.28550E+00 4.21597E-13 3.51268E-13
 -1      3603 2.04304E+01-2.79639E+00 1.08523E-01-3.77069E+00 5.19178E-13 1.20037E-13
 -1      3604 1.93094E+01 1.32430E+00-3.91039E-03 1.14664E+00-7.21941E-14-2.84250E-13
 -1      3605 1.91986E+01 1.22598E+00 8.01734E-04 1.34052E+00-5.08645E-14-2.81542E-13
 -1      3606 1.87398E+01 1.35061E+00 7.72655E-03 1.28741E+00-2.73351E-14-2.56385E-13
 -1      3607 1.95785E+01 1.54428E+00-7.76718E-04 7.57855E-01-1.40623E-13-2.72796E-13
 -1      3608 1.94780E+01 1.42543E+00-2.53668E-03 9.64164E-01-1.02854E-13-2.76613E-13
 -1      3609 1.91290E+01 1.55953E+00 8.20236E-03 9.35852E-01-9.30772E-14-2.57331E-13
 -1      3610 2.00024E+01 3.34601E-06-5.72474E-06-4.37815E-03-1.20974E-13 3.42920E-14
 -1      3611 2.00019E+01-1.10613E-04 4.33493E-06-4.76603E-03-3.45520E-13-5.79420E-13
 -1      3612 2.00021E+01 6.86388E-04-4.85925E-06-4.73245E-03-1.57918E-13-5.28201E-13
 -1      3613 2.00031E+01 1.67531E-03-6.42426E-06-3.89055E-03 8.46772E-14 3.37002E-13
 -1      3614 2.34208E+01-3.67834E+00 5.07314E-02-2.30670E+00-3.05359E-13 4.43135E-15
 -1      3615 2.43358E+01-3.56489E+00-8.29544E-02-1.19430E+00-2.47912E-13 6.22668E-14
 -1      3616 2.48348E+01-2.98443E+00-7.24011E-02 4.75796E-02-1.20081E-13-3.83620E-13
 -1      3617 2.39882E+01-3.33730E+00 5.92014E-02 1.32865E+00-1.83440E-13-4.34741E-13
 -1      3618 1.42572E+01-7.85296E-01 2.27119E-03 3.91240E+00-4.22837E-13 4.37178E-13
 -1      3619 1.28838E+01 1.24983E-01 4.39278E-02 2.75558E+00-3.87801E-13 5.09620E-13
 -1      3620 1.25693E+01 2.34150E-01 3.26895E-02-2.37766E+00-3.40682E-14 1.46209E-13
 -1      3621 1.36400E+01-4.22716E-01 3.90825E-02-3.46617E+00 5.94143E-14 2.54574E-13
 -1      3622 1.55780E+01-4.42371E-01 7.07196E-02-3.30167E+00 1.25802E-13 2.43075E-13
 -1      3623 1.92126E+01-1.95189E+00 3.89825E-02-3.57307E+00 4.34791E-13 1.63054E-13
 -1      3624 1.82961E+01-1.11925E+00 4.63183E-02-3.45033E+00 3.25680E-13 2.27806E-13
 -1      3625 1.62775E+01-7.79896E-01 4.30385E-02 3.75441E+00 3.50026E-13-3.84311E-13
 -1      3626 1.35089E+01 5.68462E-01 9.05921E-02 2.24164E+00 2.15558E-13-4.74100E-13
 -1      3627 1.39646E+01 8.11719E-01 2.97003E-02 1.45152E+00 9.13419E-14-4.42134E-13
 -1      3628 2.52983E+01 2.24187E+00-3.29934E-02-2.10789E+00 4.02400E-13-2.42684E-13
 -1      3629 1.89624E+01-2.66133E+00 3.06507E-02-4.24571E+00-3.57530E-13-3.14018E-13
 -1      3630 2.57289E+01-5.33933E-02-3.18423E-02-1.92382E+00 3.35065E-13-4.80838E-13
 -1      3631 1.96314E+01 2.18747E+00 5.04780E-03-1.75237E-01 1.74340E-13-3.41357E-13
 -1      3632 2.47770E+01 1.77577E+00-1.59390E-02-2.14091E+00 3.49953E-13-2.98796E-13
 -1      3633 1.89928E+01 2.75309E+00 7.79189E-03-1.21301E-01 1.76297E-14-4.02016E-13
 -1      3634 2.00049E+01 6.22600E-03-2.39619E-05-2.99124E-04 2.86715E-13-2.69961E-13
 -1      3635 2.00049E+01 6.14028E-03-1.73126E-05-7.96757E-04 1.92912E-13-1.47859E-13
 -1      3636 2.00054E+01 8.91064E-03 6.36075E-05-1.19443E-04 1.65480E-13-3.03477E-13
 -1      3637 1.49629E+01-3.17742E-01 6.50198E-03 3.27700E+00 3.09958E-13-4.17055E-13
 -1      3638 2.01388E+01 1.46336E+00-1.31348E-03-2.81458E-01 1.97530E-13-2.30432E-13
 -1      3639 1.99319E+01 1.67069E+00-2.42325E-03-3.07094E-01 1.66337E-13-2.77963E-13
 -1      3640 2.48352E+01 5.42250E-01-7.26078E-02-2.11281E+00 2.97269E-13-3.35060E-13
 -1      3641 2.12899E+01-1.43236E+00-3.43093E-02-1.60446E+00-1.00609E-13-1.57090E-13
 -1      3642 2.13786E+01-1.13832E+00-1.52775E-03-1.34795E+00-7.03773E-14-1.28828E-13
 -1      3643 2.11234E+01-8.23704E-01 1.57244E-02-1.41456E+00-9.92815E-14-1.11997E-13
 -1      3644 2.27089E+01-2.04271E+00 2.72108E-02-8.63045E-01-1.25043E-13 4.66418E-15
 -1      3645 2.22181E+01-2.11331E+00-2.16155E-02-1.36640E+00-1.31309E-13-3.00177E-14
 -1      3646 2.31414E+01-2.18617E+00 1.34963E-02-4.82438E-01-1.49489E-13 5.76285E-14
 -1      3647 2.00039E+01 4.81645E-03 4.79771E-05 3.00121E-03 1.03613E-13 4.48841E-13
 -1      3648 2.00033E+01 3.20923E-03-1.29260E-05 3.77206E-03 4.19860E-14 5.21082E-13
 -1      3649 2.00036E+01 3.35208E-03-3.39333E-05 3.51895E-03 1.25180E-13 3.93212E-13
 -1      3650 2.00047E+01 6.78722E-03-1.80273E-05 1.92713E-03 2.17218E-13 3.48053E-13
 -1      3651 2.09847E+01-4.65195E-01-1.13843E-02-1.21697E+00-4.43158E-14-9.83208E-14
 -1      3652 1.33525E+01 8.35091E-01 5.86064E-02-9.60555E-01-4.39482E-14-5.40380E-13
 -1      3653 2.00049E+01 5.70283E-03-3.19870E-05 1.02549E-03 2.26831E-13-2.87323E-13
 -1      3654 2.00055E+01 8.51196E-03 6.90369E-05 5.57687E-04 3.14546E-13-3.49882E-13
 -1      3655 2.00048E+01 5.45462E-03-2.51623E-07 1.54579E-03 2.18089E-13 1.95430E-13
 -1      3656 1.89441E+01 2.52344E+00-3.52224E-03-4.50786E-03-2.21865E-14-3.38332E-13
 -1      3657 1.90345E+01 2.45915E+00-2.14862E-03 5.69107E-02-6.74165E-14-3.38119E-13
 -1      3658 2.39575E+01-2.22898E+00-3.57197E-02 2.69963E-01-9.82873E-14 1.32921E-13
 -1      3659 2.43565E+01-2.90099E+00 1.85198E-02-4.97236E-01-2.02402E-13 8.81985E-14
 -1      3660 2.00023E+01 1.55966E-03 2.31221E-05-4.51218E-03 9.17810E-14-4.57103E-13
 -1      3661 1.96745E+01-2.46154E+00 3.46149E-02 3.55815E+00-3.11981E-13-2.68963E-13
 -1      3662 1.59277E+01-8.76282E-01 5.62509E-02 3.65883E+00-3.69902E-13 2.02869E-13
 -1      3663 2.00048E+01 5.78462E-03-2.87811E-05-1.19775E-03 2.56399E-13 5.29620E-14
 -1      3664 2.00047E+01 5.51061E-03-6.44533E-06-1.71286E-03 1.86117E-13 1.50419E-13
 -1      3665 2.00053E+01 8.56695E-03 5.57895E-05-7.55082E-04 2.11955E-13 4.91287E-14
 -1      3666 1.93456E+01 2.18749E+00-2.56921E-04-3.20498E-01 1.33305E-13-3.05936E-13
 -1      3667 1.91851E+01 2.30530E+00-6.00228E-03-3.16548E-01 7.58776E-14-3.34921E-13
 -1      3668 2.04550E+01 1.83909E-01 6.55886E-03-1.19741E+00-8.21122E-15-1.57029E-13
 -1      3669 2.01977E+01 3.74496E-01-5.74354E-03-1.19370E+00 8.01862E-15-2.18269E-13
 -1      3670 2.05607E+01-3.92298E-02 1.53743E-03-1.27612E+00-2.80377E-14-1.36993E-13
 -1      3671 1.91645E+01 2.40803E+00-8.13378E-03 1.14863E-01-8.12060E-14-3.36965E-13
 -1      3672 1.93326E+01 2.34092E+00 6.46582E-04 1.31412E-01-1.31485E-13-3.42300E-13
 -1      3673 1.93700E+01 2.17902E+00 5.08162E-03 2.41842E-01-1.25542E-13-3.28999E-13
 -1      3674 1.90570E+01 2.29842E+00 6.13632E-03 1.54990E-01-6.01277E-14-3.14006E-13
 -1      3675 1.91083E+01 2.16451E+00 6.20104E-03-3.84927E-01 6.08633E-14-3.44445E-13
 -1      3676 1.90570E+01 2.42436E+00-6.56837E-04-2.65803E-01 5.21460E-14-3.79500E-13
 -1      3677 1.89621E+01 2.48707E+00-6.21952E-03-2.36604E-01 3.11617E-14-4.07696E-13
 -1      3678 1.27978E+01 6.01180E-01 7.29572E-02 1.97178E+00-3.53384E-13 5.46167E-13
 -1      3679 1.29399E+01 8.26483E-01 3.60973E-03 1.03045E+00-2.68171E-13 3.89536E-13
 -1      3680 1.40829E+01 3.69256E-01 2.89174E-02 2.33572E+00-3.93912E-13 4.13619E-13
 -1      3681 2.00045E+01 4.83098E-03-3.13438E-05-2.13636E-03 2.71827E-13 1.40286E-13
 -1      3682 2.00042E+01 4.45198E-03-1.08891E-06-2.60814E-03 3.27122E-13 3.80565E-13
 -1      3683 2.00051E+01 7.51146E-03 4.09094E-05-1.44135E-03 2.06657E-13 5.09421E-14
 -1      3684 1.57273E+01 1.42936E-01 1.31141E-02 2.83318E+00 2.03322E-13-3.71871E-13
 -1      3685 1.26611E+01 7.33099E-01 7.95050E-02-1.49400E+00-1.10417E-13 1.31728E-13
 -1      3686 1.41224E+01 6.27717E-01 3.42641E-02-1.94398E+00-4.66216E-14 9.82756E-14
 -1      3687 1.30213E+01 9.40113E-01-5.71488E-04-5.26213E-01-1.58594E-13 2.28324E-13
 -1      3688 2.03328E+01 7.35791E-01 3.67647E-04-7.94205E-01 1.09347E-13-1.87195E-13
 -1      3689 2.03289E+01 8.86757E-01 1.75579E-03-6.43493E-01 1.45200E-13-1.79728E-13
 -1      3690 2.01537E+01 7.68621E-01-1.85124E-03-9.04071E-01 8.92149E-14-2.23402E-13
 -1      3691 2.00032E+01 2.90801E-03-5.75157E-06-3.77151E-03 2.43098E-13 1.21579E-13
 -1      3692 1.50792E+01 4.77583E-02 2.49442E-02-2.83434E+00-1.46551E-13-4.44785E-13
 -1      3693 1.49923E+01-5.89562E-01 5.58291E-02-3.63796E+00-2.40467E-13-5.05061E-13
 -1      3694 1.65790E+01-1.03487E+00-1.89489E-02-3.69552E+00-2.92047E-13-3.81761E-13
 -1      3695 1.94365E+01 1.85431E+00 2.92871E-03 5.11054E-01-1.39076E-13-3.01847E-13
 -1      3696 1.68720E+01-5.80193E-01-1.73589E-02-3.31056E+00 1.10339E-13 2.52314E-13
 -1      3697 2.31234E+01-2.96204E+00 3.65244E-02 1.47213E+00-1.93847E-13-3.62335E-13
 -1      3698 2.00039E+01 3.61673E-03-1.01216E-05 3.24408E-03 2.26202E-13 4.62031E-13
 -1      3699 2.00042E+01 3.75892E-03-1.08453E-05 2.95184E-03 2.63599E-13 3.10273E-13
 -1      3700 2.00045E+01 5.31873E-03 3.84434E-05 2.60520E-03 1.99857E-13 3.65365E-13
 -1      3701 2.00045E+01 4.19466E-03-2.08966E-05 2.32412E-03 1.54751E-13 3.70445E-13
 -1      3702 1.89110E+01 2.54327E+00-2.11859E-03-1.54097E-01 1.10718E-14-4.03721E-13
 -1      3703 1.89043E+01 2.54276E+00-5.40936E-03-1.04503E-01-1.39364E-14-3.75934E-13
 -1      3704 1.88801E+01 2.36640E+00 8.83212E-03-3.15473E-02-4.01773E-14-3.41725E-13
 -1      3705 1.89054E+01 2.33311E+00 7.88402E-03-2.34338E-01 1.28432E-14-3.80378E-13
 -1      3706 1.71915E+01 1.05842E+00-1.90774E-02 1.65827E+00 6.68710E-14-2.32976E-13
 -1      3707 1.69365E+01 8.85528E-01 1.24108E-02 1.91041E+00 1.27628E-13-2.65537E-13
 -1      3708 1.61029E+01 5.56181E-01 3.70850E-03 2.37136E+00 1.75538E-13-3.06389E-13
 -1      3709 1.71555E+01 8.92799E-01 1.13632E-02-1.71063E+00-1.49280E-13 1.49188E-13
 -1      3710 1.73767E+01 9.88399E-01-1.56739E-02-1.50793E+00-9.03214E-14 5.73092E-14
 -1      3711 2.03517E+01 1.19403E+00 4.29344E-04-3.14398E-01 1.97183E-13-1.51222E-13
 -1      3712 2.02763E+01 1.08758E+00 1.50642E-03-5.05871E-01 1.71078E-13-1.84710E-13
 -1      3713 1.77843E+01 1.05368E+00 2.91477E-03-1.35193E+00-1.39193E-13-3.73901E-14
 -1      3714 1.79918E+01 1.07424E+00-1.15260E-02-1.20932E+00-1.89929E-13-8.67335E-14
 -1      3715 1.71699E+01 1.18143E+00 1.45996E-02-1.15221E+00-1.59735E-13-1.93695E-14
 -1      3716 1.83016E+01 1.07721E+00 1.04316E-04-1.10441E+00-1.45630E-13 1.31777E-15
 -1      3717 1.84789E+01 1.05340E+00-8.15255E-03-9.96397E-01-2.73285E-14 5.68909E-14
 -1      3718 1.78554E+01 1.19203E+00 1.23304E-02-9.37905E-01-9.57553E-14 1.94669E-15
 -1      3719 1.87168E+01 1.02029E+00-6.58001E-04-9.16580E-01-2.90740E-15 3.07890E-14
 -1      3720 1.88601E+01 9.72107E-01-5.99104E-03-8.28412E-01-2.95920E-14 1.21399E-13
 -1      3721 1.83780E+01 1.12744E+00 9.31246E-03-7.83566E-01-5.68106E-15 7.12451E-14
 -1      3722 1.90434E+01 9.20277E-01-7.82750E-04-7.62525E-01-9.14984E-14 2.80003E-13
 -1      3723 1.91555E+01 8.60906E-01-4.59747E-03-6.87145E-01-9.00589E-14 3.11391E-13
 -1      3724 1.87818E+01 1.02101E+00 7.00353E-03-6.60594E-01-2.80091E-14 3.06007E-13
 -1      3725 1.92968E+01 8.01699E-01-5.91358E-04-6.30236E-01-1.50541E-13 2.21968E-13
 -1      3726 1.93823E+01 7.39533E-01-3.59786E-03-5.64675E-01-1.04365E-13 1.56754E-13
 -1      3727 1.90936E+01 8.95422E-01 5.38548E-03-5.54695E-01-2.05248E-13 4.10632E-13
 -1      3728 1.94906E+01 6.79980E-01-3.32264E-04-5.14876E-01 1.37535E-15 4.16971E-14
 -1      3729 1.95545E+01 6.20201E-01-2.86769E-03-4.57960E-01 9.34834E-14 8.59931E-14
 -1      3730 1.93330E+01 7.65100E-01 4.12315E-03-4.60565E-01-1.19739E-13 2.93033E-13
 -1      3731 1.96370E+01 5.64421E-01-1.03415E-04-4.14562E-01 8.35353E-14-9.60072E-14
 -1      3732 1.96839E+01 5.09894E-01-2.30466E-03-3.65706E-01 8.55678E-14-1.60327E-14
 -1      3733 1.95156E+01 6.39891E-01 3.14487E-03-3.76649E-01 5.18987E-14 7.39201E-14
 -1      3734 1.97462E+01 4.59933E-01 6.71546E-05-3.28394E-01 7.39813E-14-3.33226E-14
 -1      3735 1.97800E+01 4.11936E-01-1.85788E-03-2.87139E-01 6.24829E-14-3.30302E-14
 -1      3736 1.96536E+01 5.25277E-01 2.36603E-03-3.02708E-01 5.21530E-14 6.70893E-15
 -1      3737 1.98267E+01 3.68582E-01 1.76484E-04-2.55665E-01 5.91839E-14 5.28615E-14
 -1      3738 1.98505E+01 3.27467E-01-1.48580E-03-2.21468E-01 5.38364E-14 1.63304E-13
 -1      3739 1.97570E+01 4.23972E-01 1.77633E-03-2.38811E-01 9.26383E-14 1.01726E-13
 -1      3740 1.98851E+01 2.90785E-01 2.32803E-04-1.95459E-01 4.19681E-14 2.62639E-13
 -1      3741 1.99016E+01 2.56358E-01-1.17477E-03-1.67627E-01 1.35038E-13 3.55856E-13
 -1      3742 1.98335E+01 3.36771E-01 1.31894E-03-1.84849E-01 1.44495E-13 2.79651E-13
 -1      3743 1.99268E+01 2.25961E-01 2.52188E-04-1.46549E-01 9.23721E-14 3.37857E-13
 -1      3744 1.99380E+01 1.97683E-01-9.17370E-04-1.24302E-01 5.53583E-14 2.56392E-13
 -1      3745 1.98894E+01 2.63430E-01 9.68969E-04-1.40255E-01 1.03855E-13 3.94915E-13
 -1      3746 1.99560E+01 1.72945E-01 2.46375E-04-1.07543E-01 5.29506E-14 1.71368E-13
 -1      3747 1.99634E+01 1.50113E-01-7.06778E-04-9.00716E-02 6.18613E-14 1.91514E-13
 -1      3748 1.99295E+01 2.02945E-01 7.03521E-04-1.04155E-01 4.96311E-14 2.96319E-13
 -1      3749 1.99761E+01 1.30310E-01 2.25201E-04-7.69978E-02 4.33668E-14 2.22776E-13
 -1      3750 1.99807E+01 1.12169E-01-5.36584E-04-6.35158E-02 1.40897E-13 2.86055E-13
 -1      3751 1.99577E+01 1.53930E-01 5.03720E-04-7.55088E-02 6.07263E-14 1.98885E-13
 -1      3752 1.99894E+01 9.65615E-02 1.96273E-04-5.35078E-02 8.67417E-14 2.53062E-13
 -1      3753 1.99921E+01 8.23694E-02-4.00883E-04-4.32895E-02 1.32019E-14 3.36569E-13
 -1      3754 1.99770E+01 1.14853E-01 3.54685E-04-5.32167E-02 1.00630E-13 1.90268E-13
 -1      3755 1.99978E+01 7.02533E-02 1.64910E-04-3.57758E-02-8.25758E-14 3.31750E-13
 -1      3756 1.99992E+01 5.93160E-02-2.94341E-04-2.81758E-02-7.21356E-14 3.38324E-13
 -1      3757 1.99899E+01 8.41842E-02 2.44692E-04-3.62036E-02 1.54367E-14-6.10524E-14
 -1      3758 2.00028E+01 5.00484E-02 1.34456E-04-2.26506E-02-1.37133E-13 3.93450E-13
 -1      3759 2.00033E+01 4.17423E-02-2.11828E-04-1.71143E-02-6.14857E-14 2.82774E-13
 -1      3760 1.99980E+01 6.04772E-02 1.64470E-04-2.34767E-02-9.15679E-14 7.57768E-14
 -1      3761 2.00053E+01 3.47530E-02 1.06874E-04-1.31435E-02-5.96190E-14 2.28252E-13
 -1      3762 2.00053E+01 2.85280E-02-1.49258E-04-9.20648E-03-8.08681E-14 1.17272E-13
 -1      3763 2.00028E+01 4.24210E-02 1.07414E-04-1.41602E-02-1.32457E-13 2.32152E-13
 -1      3764 2.00063E+01 2.33178E-02 8.37167E-05-6.43069E-03-7.80932E-15 1.64905E-13
 -1      3765 2.00059E+01 1.86978E-02-1.01409E-04-3.71714E-03-3.23395E-14 2.30932E-13
 -1      3766 2.00051E+01 2.88450E-02 6.60159E-05-7.50283E-03-6.84410E-14 7.00749E-14
 -1      3767 2.00062E+01 1.48292E-02 6.24143E-05-1.85246E-03 1.47498E-13 3.92725E-13
 -1      3768 2.00056E+01 1.14246E-02-3.34655E-05-2.92777E-05 3.53292E-13 4.41030E-13
 -1      3769 2.00059E+01 1.87321E-02 3.28852E-05-2.89774E-03 1.48840E-13 3.00846E-13
 -1      3770 2.08730E+01-5.38906E-01 2.12420E-03-1.38618E+00-7.24233E-14-1.31370E-13
 -1      3771 2.06964E+01-2.73068E-01 1.00479E-02-1.36571E+00-4.72265E-14-1.24396E-13
 -1      3772 2.07063E+01-7.26255E-01-2.40684E-02-1.59351E+00-9.90150E-14-1.63688E-13
 -1      3773 1.97265E+01 1.85794E+00-8.59198E-04-3.18486E-01 1.51818E-13-3.38397E-13
 -1      3774 1.95271E+01 2.02440E+00-4.73710E-03-3.36605E-01 1.36682E-13-3.27536E-13
 -1      3775 1.94423E+01 1.88989E+00 3.94617E-03-4.64776E-01 1.03199E-13-3.00628E-13
 -1      3776 1.98501E+01 1.54487E+00 3.10883E-03-4.79440E-01 1.48166E-13-2.94521E-13
 -1      3777 2.48061E+01-2.24266E+00-1.60446E-02-6.15125E-01-7.34421E-14-4.70405E-13
 -1      3778 2.35015E+01-2.53048E+00 1.37843E-02-6.05572E-01-1.54541E-13 8.94953E-14
 -1      3779 2.31527E+01-2.91282E+00-3.70290E-02-1.31644E+00-1.90036E-13 4.23706E-15
 -1      3780 2.24007E+01-2.69471E+00 6.20986E-02 1.85729E+00-1.71560E-13-3.38420E-13
 -1      3781 2.00443E+01-5.37451E-01 8.07177E-03 1.65172E+00-1.17689E-13 1.03611E-13
 -1      3782 2.03190E+01-8.20615E-01 1.75627E-02 1.69819E+00-3.55906E-14-3.25976E-15
 -1      3783 1.97550E+01-7.94349E-02 3.25889E-03 1.43349E+00-4.33860E-14-2.75675E-15
 -1      3784 1.99057E+01-2.82945E-01 8.04506E-03 1.51551E+00-7.31479E-14 8.02939E-14
 -1      3785 1.95540E+01-3.44254E-01-9.35360E-03 1.73633E+00-6.92081E-14-6.63714E-14
 -1      3786 1.96346E+01 2.09158E-01 3.78628E-04 1.21172E+00-1.29865E-13-1.22278E-13
 -1      3787 1.97133E+01 8.42434E-02 6.15704E-03 1.30153E+00-1.01290E-13-1.09710E-13
 -1      3788 1.93990E+01 7.96319E-02-5.99544E-03 1.43338E+00-6.27431E-14-1.14674E-13
 -1      3789 1.96093E+01 3.72327E-01-1.03394E-03 1.00786E+00-1.15433E-13-6.83672E-14
 -1      3790 1.96432E+01 3.05387E-01 4.31720E-03 1.09520E+00-7.01873E-14-1.18226E-13
 -1      3791 1.93760E+01 3.35880E-01-2.93865E-03 1.17273E+00-1.28357E-13-2.60813E-13
 -1      3792 1.96356E+01 4.45896E-01-1.63826E-03 8.26957E-01-8.29896E-14-9.04660E-14
 -1      3793 1.96436E+01 4.19678E-01 3.09499E-03 9.07522E-01-1.10910E-13-1.07689E-14
 -1      3794 1.94213E+01 4.70562E-01-9.72349E-04 9.50936E-01-1.07889E-13-2.21514E-13
 -1      3795 1.96860E+01 4.59318E-01-1.82872E-03 6.69984E-01-5.57693E-15-6.66660E-14
 -1      3796 1.96804E+01 4.59776E-01 2.25260E-03 7.41978E-01-6.88466E-14-5.00579E-15
 -1      3797 1.94988E+01 5.20624E-01 1.83712E-04 7.64898E-01-7.87053E-14-1.50066E-13
 -1      3798 1.97439E+01 4.35469E-01-1.82212E-03 5.35861E-01 8.98664E-14 1.46850E-13
 -1      3799 1.97324E+01 4.51994E-01 1.66179E-03 5.98755E-01-1.86229E-14 1.64216E-15
 -1      3800 1.95864E+01 5.15538E-01 7.31927E-04 6.10110E-01-5.96391E-14 7.64172E-14
 -1      3801 1.98002E+01 3.90907E-01-1.69673E-03 4.22857E-01 1.32738E-14 1.31680E-13
 -1      3802 1.97872E+01 4.15902E-01 1.25826E-03 4.76700E-01 2.32374E-13 2.55949E-13
 -1      3803 1.96716E+01 4.77483E-01 9.31544E-04 4.81917E-01 7.62154E-14 1.59305E-13
 -1      3804 1.98502E+01 3.37209E-01-1.50481E-03 3.28937E-01-1.54291E-13-1.01345E-13
 -1      3805 1.98380E+01 3.65481E-01 9.77438E-04 3.74215E-01-4.25761E-14 5.42591E-14
 -1      3806 1.97480E+01 4.22146E-01 9.46559E-04 3.76517E-01 1.24096E-13 2.32289E-13
 -1      3807 1.98921E+01 2.81842E-01-1.28757E-03 2.51959E-01-3.08841E-13-1.33032E-13
 -1      3808 1.98818E+01 3.10091E-01 7.80713E-04 2.89368E-01-2.97256E-13-1.96722E-13
 -1      3809 1.98129E+01 3.60304E-01 8.77645E-04 2.90506E-01-1.29088E-13 1.05067E-13
 -1      3810 1.99256E+01 2.29400E-01-1.07046E-03 1.89792E-01-1.24802E-13-5.62999E-14
 -1      3811 1.99175E+01 2.55644E-01 6.31962E-04 2.20173E-01-2.08565E-13-1.09430E-13
 -1      3812 1.98658E+01 2.98774E-01 7.59964E-04 2.21031E-01-3.16531E-13-2.25526E-14
 -1      3813 1.99514E+01 1.82399E-01-8.68239E-04 1.40326E-01-1.51346E-14 2.44660E-13
 -1      3814 1.99454E+01 2.05609E-01 5.14735E-04 1.64589E-01-6.58228E-14 1.18477E-13
 -1      3815 1.99074E+01 2.41693E-01 6.26211E-04 1.65553E-01-2.26988E-13 1.60511E-13
 -1      3816 1.99705E+01 1.41933E-01-6.88671E-04 1.01558E-01-1.47136E-13 3.35290E-13
 -1      3817 1.99663E+01 1.61716E-01 4.19213E-04 1.20615E-01-8.39129E-14 2.33488E-13
 -1      3818 1.99391E+01 1.91218E-01 4.96370E-04 1.21796E-01-1.31500E-13 2.99819E-13
 -1      3819 1.99842E+01 1.08175E-01-5.34808E-04 7.16449E-02-9.75992E-14 3.94289E-13
 -1      3820 1.99815E+01 1.24545E-01 3.39581E-04 8.63642E-02-5.57554E-14 4.76735E-13
 -1      3821 1.99624E+01 1.48166E-01 3.80445E-04 8.77403E-02-1.48567E-13 4.83134E-13
 -1      3822 1.99935E+01 8.07437E-02-4.06752E-04 4.89386E-02-4.88901E-14 3.10960E-13
 -1      3823 1.99919E+01 9.39540E-02 2.72574E-04 6.01126E-02-7.63214E-14 4.20799E-13
 -1      3824 1.99791E+01 1.12496E-01 2.82515E-04 6.16105E-02-1.12011E-13 5.65353E-13
 -1      3825 1.99996E+01 5.89601E-02-3.02976E-04 3.20003E-02 1.01049E-13 1.95144E-13
 -1      3826 1.99988E+01 6.93873E-02 2.16287E-04 4.03291E-02 1.00365E-15 2.02655E-13
 -1      3827 1.99905E+01 8.36671E-02 2.03177E-04 4.18670E-02 3.97565E-14 4.82202E-13
 -1      3828 2.00031E+01 4.20138E-02-2.20678E-04 1.96066E-02 1.55203E-13 3.14168E-13
 -1      3829 2.00029E+01 5.00810E-02 1.69409E-04 2.56904E-02 1.53598E-13 2.61747E-13
 -1      3830 1.99979E+01 6.08692E-02 1.41017E-04 2.71971E-02 6.84617E-14 3.35032E-13
 -1      3831 2.00049E+01 2.90711E-02-1.57502E-04 1.07378E-02 2.44517E-13 3.99422E-13
 -1      3832 2.00051E+01 3.52032E-02 1.30766E-04 1.50789E-02 2.92623E-13 4.50615E-13
 -1      3833 2.00024E+01 4.31943E-02 9.41853E-05 1.65041E-02 1.51781E-13 3.56276E-13
 -1      3834 2.00054E+01 1.93333E-02-1.08408E-04 4.56496E-03 1.87459E-13 4.80598E-13
 -1      3835 2.00059E+01 2.39288E-02 9.95322E-05 7.57002E-03 1.56889E-13 4.19486E-13
 -1      3836 2.00047E+01 2.97204E-02 5.65805E-05 8.87479E-03 2.14823E-13 7.13729E-13
 -1      3837 2.00052E+01 1.20577E-02-7.09608E-05 4.32584E-04 3.17071E-13 3.62221E-13
 -1      3838 2.00058E+01 1.54789E-02 7.15250E-05 2.41683E-03 3.65677E-13 4.10009E-13
 -1      3839 2.00055E+01 1.96081E-02 3.59483E-05 3.58729E-03 2.86422E-13 4.97493E-13
 -1      3840 2.19871E+01-3.63307E+00-3.05421E-02-3.23678E+00-3.11754E-13-9.00321E-14
 -1      3841 2.26339E+01-3.15975E+00 4.24238E-02-2.32283E+00-2.70724E-13-1.98348E-14
 -1      3842 2.10694E+01-3.10350E+00 5.82911E-02-3.54155E+00-3.29656E-13-1.46746E-13
 -1      3843 1.69962E+01-1.08392E+00-6.42424E-03 3.51476E+00-3.83030E-13-2.45186E-14
 -1      3844 1.55676E+01-2.74896E-01 2.53333E-02 3.10831E+00-3.75907E-13 2.95319E-13
 -1      3845 1.39623E+01 1.08742E+00 7.11370E-04-2.52265E-01-1.03664E-14-4.83034E-13
 -1      3846 1.42569E+01 7.88366E-01 8.52562E-03-1.57964E+00-9.49778E-14-4.94462E-13
 -1      3847 2.00051E+01 6.77612E-03 2.56520E-05 1.66202E-03 2.38602E-13 2.14052E-13
 -1      3848 2.00037E+01 3.49428E-03-1.52004E-06-3.26575E-03 2.94098E-13 3.62588E-13
 -1      3849 1.92235E+01 1.93178E+00-6.82857E-03 4.70061E-01-1.02910E-13-2.85386E-13
 -1      3850 2.10699E+01-1.81804E+00 3.05619E-02 2.03980E+00-7.74155E-14-1.91801E-13
 -1      3851 2.16618E+01-2.20802E+00 3.30155E-02 1.89044E+00-1.12165E-13-2.51946E-13
 -1      3852 2.07645E+01-2.61542E+00-7.82607E-02 2.82124E+00-2.29703E-13-3.03039E-13
 -1      3853 1.90684E+01-1.81807E+00 3.15109E-02 3.33588E+00-3.10694E-13-2.26897E-13
 -1      3854 1.57361E+01 5.08844E-02 6.65154E-03-2.82589E+00-5.70516E-14 8.68437E-14
 -1      3855 1.89784E+01 1.72413E+00-1.29536E-03 6.85140E-01-1.00435E-13-2.45295E-13
 -1      3856 1.87943E+01 1.60924E+00-5.20787E-03 8.44824E-01-7.28092E-14-2.42471E-13
 -1      3857 1.85304E+01 1.51323E+00-9.00161E-03 9.73912E-01-4.95810E-14-2.46776E-13
 -1      3858 1.83117E+01 1.42241E+00-1.58121E-03 1.13520E+00-6.10547E-15-2.58362E-13
 -1      3859 1.84544E+01 1.72488E+00 1.79024E-02 7.13575E-01-6.71208E-14-2.09130E-13
 -1      3860 1.48347E+01 9.23707E-01 4.51237E-03 1.45569E+00 1.08525E-13-3.82317E-13
 -1      3861 1.41964E+01 1.17472E+00 4.15491E-02 5.73838E-01 6.24947E-14-4.38886E-13
 -1      3862 1.49506E+01 1.20374E+00 2.19543E-02-6.09759E-02 1.02160E-14-4.22246E-13
 -1      3863 1.79414E+01 1.31466E+00-1.53971E-02 1.28271E+00 2.79333E-14-2.51900E-13
 -1      3864 1.76891E+01 1.20545E+00 2.47685E-03 1.47033E+00 4.38156E-14-2.35947E-13
 -1      3865 1.70337E+01 1.33266E+00 1.96695E-02 1.22804E+00 4.81577E-14-2.88533E-13
 -1      3866 1.78457E+01 1.55056E+00 2.22394E-02 9.43291E-01 1.00173E-14-2.65999E-13
 -1      3867 1.79517E+01-1.72426E+00 5.57315E-02-3.99873E+00-3.42628E-13-3.46091E-13
 -1      3868 1.94904E+01-2.63041E+00-2.12648E-02-3.91302E+00-3.29754E-13-2.58512E-13
 -1      3869 1.99778E+01-2.39054E+00 1.90737E-02-3.48777E+00-3.00938E-13-2.13719E-13
 -1      3870 2.04082E+01-1.10239E+00 1.01009E-02 1.86441E+00-8.87150E-14-5.56452E-14
 -1      3871 2.08316E+01-1.45177E+00 2.35028E-02 1.84507E+00-1.09909E-13-1.33189E-13
 -1      3872 1.99866E+01-1.56463E+00-3.66468E-02 2.48722E+00-1.76864E-13-3.08747E-13
 -1      3873 1.97816E+01-9.17657E-01-2.21632E-02 2.08035E+00-1.24764E-13-1.31660E-13
 -1      3874 1.57174E+01 9.10550E-01 1.75065E-02 1.81065E+00 1.23096E-13-3.44322E-13
 -1      3875 2.01038E+01 1.14506E+00-1.45036E-03-6.13151E-01 1.49579E-13-2.47999E-13
 -1      3876 2.00044E+01 5.82484E-03 1.45998E-05-2.45412E-03 4.72475E-13 4.25099E-13
 -1      3877 2.22229E+01-2.74253E+00 5.82006E-03-2.10159E+00-1.98757E-13-2.26219E-14
 -1      3878 1.51868E+01 4.97970E-01 3.12250E-02-2.33753E+00-5.44293E-14 3.74319E-14
 -1      3879 1.65594E+01 4.31688E-01 2.70084E-02-2.35378E+00-1.19479E-13 1.63196E-13
 -1      3880 1.67353E+01 6.69103E-01-1.69068E-02-2.03612E+00-1.14197E-13 1.39693E-13
 -1      3881 1.49261E+01 8.48498E-01-2.02757E-02-1.59165E+00-1.22785E-13 4.67699E-14
 -1      3882 1.89696E+01 2.00496E+00 3.74066E-03 3.99538E-01-8.38411E-14-2.91047E-13
 -1      3883 1.63645E+01 9.82252E-01 1.34504E-02-1.59398E+00-1.32436E-13 1.71327E-13
 -1      3884 1.91023E+01 1.91768E+00 2.57436E-03-5.23027E-01 7.85123E-14-3.06943E-13
 -1      3885 1.89378E+01 2.01714E+00-7.11513E-03-4.58224E-01 4.79327E-14-3.58162E-13
 -1      3886 2.00054E+01 1.17969E-02-3.29860E-05-3.82532E-05 1.53152E-13-3.22742E-13
 -1      3887 2.00054E+01 1.18185E-02-3.31695E-05-2.39115E-04 1.22524E-13-1.61913E-13
 -1      3888 1.95100E+01 1.60427E+00 1.79507E-03-6.19512E-01 7.86605E-14-2.99952E-13
 -1      3889 1.92938E+01 1.75105E+00-6.44277E-03-5.95642E-01 7.19252E-14-2.98455E-13
 -1      3890 1.91492E+01 1.64783E+00 1.22058E-03-6.90325E-01 6.08558E-14-3.07022E-13
 -1      3891 1.94837E+01-1.38386E+00 2.79374E-02 2.70010E+00-2.69799E-13-2.28809E-13
 -1      3892 1.81241E+01-1.34356E+00 4.73731E-03 3.35789E+00-3.08380E-13-1.41576E-13
 -1      3893 1.76190E+01-7.23944E-01-1.58630E-02 2.94574E+00-2.78737E-13-5.32092E-14
 -1      3894 1.93077E+01-1.03127E+00 2.65171E-02 2.52147E+00-2.08322E-13-1.54079E-13
 -1      3895 2.00050E+01 7.03586E-03-1.12559E-05 1.72109E-03 2.63042E-13 3.71678E-13
 -1      3896 1.99210E+01 1.28337E+00 3.02629E-04-6.28321E-01 1.27787E-13-2.81583E-13
 -1      3897 1.96968E+01 1.46248E+00-3.42517E-03-6.31238E-01 1.02135E-13-2.88847E-13
 -1      3898 1.95685E+01 1.35392E+00 5.89802E-04-7.73207E-01 6.03137E-14-2.68138E-13
 -1      3899 1.99694E+01 1.07875E+00 1.21514E-03-7.70274E-01 1.01032E-13-2.56879E-13
 -1      3900 2.16811E+01-2.32721E+00 2.31952E-02-2.22592E+00-1.91533E-13-8.05146E-14
 -1      3901 1.74473E+01-1.00398E+00 3.76705E-02-3.44348E+00-2.77683E-13-3.58585E-13
 -1      3902 1.62329E+01-9.06029E-03 1.20271E-02 2.58997E+00-3.69464E-13 2.37105E-13
 -1      3903 1.51315E+01 1.87784E-01 3.03435E-02 2.64703E+00-3.85743E-13 4.12030E-13
 -1      3904 1.47996E+01 5.64588E-01-9.84520E-03 1.94765E+00-3.48613E-13 4.31521E-13
 -1      3905 2.00045E+01 6.66960E-03-2.37571E-05-2.14435E-03 4.73602E-13 4.18702E-13
 -1      3906 2.00051E+01 9.16997E-03 4.71101E-05-9.49700E-04 4.00055E-13 3.56963E-13
 -1      3907 2.00055E+01 1.10918E-02-2.98855E-05 2.57617E-04 1.50924E-13-2.68354E-13
 -1      3908 2.00055E+01 1.14537E-02-5.32969E-05-2.87292E-05 2.62730E-13-6.08678E-13
 -1      3909 2.00057E+01 1.50094E-02 8.81033E-05-2.69385E-04 1.52611E-14-3.19497E-13
 -1      3910 2.00054E+01 9.71041E-03 2.60278E-06 7.37763E-04 2.27835E-13 3.67702E-13
 -1      3911 2.06682E+01-2.29345E+00-3.11706E-02-2.87803E+00-2.54606E-13-1.28812E-13
 -1      3912 2.10903E+01-1.68891E+00 1.09152E-02-2.11490E+00-1.61069E-13-1.46414E-13
 -1      3913 2.00057E+01 1.11423E-02-2.84790E-05 1.00230E-04 2.18061E-13 2.17175E-13
 -1      3914 2.07149E+01-1.24818E+00 2.78980E-02-2.10407E+00-1.42191E-13-1.84900E-13
 -1      3915 1.94749E+01-1.61344E+00 2.42416E-02-3.13540E+00-2.79286E-13-2.47821E-13
 -1      3916 1.87146E+01 2.20831E+00-3.07184E-03-7.41913E-02-3.58865E-14-3.59622E-13
 -1      3917 1.87384E+01 2.18246E+00-7.23644E-03 3.19991E-02-4.86857E-14-3.13652E-13
 -1      3918 2.03638E+01-1.19491E-01-1.21292E-02-1.43757E+00-4.55962E-14-1.96094E-13
 -1      3919 2.00054E+01 1.15423E-02-4.44615E-05-2.53733E-04 2.07999E-13-4.53410E-14
 -1      3920 2.00053E+01 1.12116E-02-2.01982E-05-4.73576E-04 2.05516E-13 1.32250E-13
 -1      3921 2.00057E+01 1.50649E-02 9.85226E-05-6.53116E-05 1.14344E-13-1.39011E-13
 -1      3922 1.56075E+01 9.26731E-01 1.66730E-02-1.40711E+00-1.07007E-13-3.90738E-13
 -1      3923 1.51327E+01 6.02872E-01 3.64168E-02-2.07087E+00-1.32794E-13-4.17814E-13
 -1      3924 1.61370E+01 1.68454E-01-3.79493E-02-2.46730E+00-1.91595E-13-3.22768E-13
 -1      3925 1.99889E+01 4.10288E-01 4.26459E-03-1.29348E+00-1.28514E-14-2.37436E-13
 -1      3926 1.99288E+01 6.35867E-01 1.17890E-03-1.15125E+00 3.33727E-14-2.45977E-13
 -1      3927 1.87954E+01 2.04733E+00-1.88556E-03 3.20789E-01-6.29904E-14-2.74823E-13
 -1      3928 2.00054E+01 1.20512E-02 2.15454E-05 7.88579E-05 3.85551E-13 3.78897E-13
 -1      3929 2.00053E+01 1.03606E-02-4.32655E-05-6.10292E-04 2.27200E-13 7.70474E-14
 -1      3930 2.00052E+01 9.76653E-03 5.42498E-06-9.32450E-04 2.85244E-13 9.39636E-14
 -1      3931 2.00056E+01 1.38507E-02 4.35201E-05-1.90136E-05 3.46863E-13 7.40564E-14
 -1      3932 1.34731E+01 1.11635E+00 6.05859E-02 2.08437E-01-1.39074E-13 2.06184E-13
 -1      3933 1.42344E+01 1.09532E+00 3.89840E-03-4.87721E-01-9.78393E-14 1.16985E-13
 -1      3934 1.41480E+01 9.90537E-01 1.42236E-03 8.47908E-01-2.58841E-13 2.81358E-13
 -1      3935 1.99638E+01 9.06271E-01 7.43081E-04-9.16363E-01 5.99374E-14-2.46992E-13
 -1      3936 1.97302E+01 9.40915E-01 7.69630E-04-1.01883E+00 4.61250E-14-2.57093E-13
 -1      3937 1.57201E+01 1.20432E+00-2.11629E-02 1.04861E+00 8.16478E-14-3.29938E-13
 -1      3938 1.85965E+01 1.94442E+00-2.98973E-03 2.83446E-01-6.05089E-14-2.79730E-13
 -1      3939 1.74626E+01 1.23168E+00-4.29606E-03-6.81971E-01-9.53525E-14 5.66630E-14
 -1      3940 1.77624E+01 1.20621E+00-9.29629E-03-6.15474E-01-1.54682E-14 1.45729E-13
 -1      3941 1.80755E+01 1.17105E+00-4.22948E-03-5.89733E-01 7.11963E-15 1.43666E-13
 -1      3942 1.83087E+01 1.12361E+00-6.38440E-03-5.38158E-01 4.93705E-14 2.01604E-13
 -1      3943 1.77981E+01 1.24500E+00 1.31473E-02-3.50943E-01 5.84282E-15 2.33355E-13
 -1      3944 1.85459E+01 1.07039E+00-3.44536E-03-5.14237E-01 3.68307E-14 1.51972E-13
 -1      3945 1.87261E+01 1.01024E+00-4.74973E-03-4.69321E-01-2.10725E-14 2.30396E-13
 -1      3946 1.83277E+01 1.14188E+00 8.91264E-03-3.34756E-01 1.89274E-14 1.54001E-13
 -1      3947 1.89090E+01 9.47691E-01-2.51724E-03-4.45218E-01-2.05676E-13 2.68119E-13
 -1      3948 1.90476E+01 8.82367E-01-3.54608E-03-4.04104E-01-2.50989E-13 2.27882E-13
 -1      3949 1.87358E+01 1.01920E+00 6.86117E-03-3.09065E-01-1.43830E-13 8.56379E-14
 -1      3950 1.91888E+01 8.17590E-01-1.79813E-03-3.79696E-01-2.14640E-13 2.03843E-13
 -1      3951 1.92945E+01 7.52565E-01-2.80285E-03-3.41613E-01-1.46587E-13 1.51831E-13
 -1      3952 1.90508E+01 8.86648E-01 5.30813E-03-2.78030E-01-2.72458E-13 2.20475E-14
 -1      3953 1.94037E+01 6.89903E-01-1.25707E-03-3.17586E-01-9.35975E-14 1.49202E-13
 -1      3954 1.94838E+01 6.28797E-01-2.26812E-03-2.82910E-01 1.15856E-14-4.34714E-14
 -1      3955 1.92942E+01 7.54859E-01 4.12065E-03-2.42090E-01-1.24847E-13 8.10914E-14
 -1      3956 1.95678E+01 5.71170E-01-8.63690E-04-2.60118E-01 1.24426E-13-7.53379E-14
 -1      3957 1.96278E+01 5.15895E-01-1.87218E-03-2.29203E-01 9.49377E-14-3.94633E-14
 -1      3958 1.94816E+01 6.29897E-01 3.03062E-03-2.05027E-01 4.51520E-14-4.36680E-15
 -1      3959 1.96923E+01 4.64570E-01-5.48267E-04-2.08550E-01 8.78377E-14-5.01572E-15
 -1      3960 1.97367E+01 4.16025E-01-1.52793E-03-1.81768E-01 1.29788E-13 2.66514E-14
 -1      3961 1.96255E+01 5.16456E-01 2.33896E-03-1.68511E-01 1.36540E-13-1.73419E-14
 -1      3962 1.97854E+01 3.71643E-01-3.33283E-04-1.63770E-01 9.77047E-14 1.58493E-13
 -1      3963 1.98179E+01 3.30138E-01-1.23144E-03-1.41141E-01 2.36040E-13 2.33932E-13
 -1      3964 1.97346E+01 4.16165E-01 1.77681E-03-1.35149E-01 1.68819E-13 8.45319E-14
 -1      3965 1.98543E+01 2.92653E-01-1.81464E-04-1.25896E-01 1.94825E-13 2.15395E-13
 -1      3966 1.98776E+01 2.57924E-01-9.79856E-04-1.07218E-01 9.82564E-14 1.81641E-13
 -1      3967 1.98162E+01 3.29988E-01 1.33854E-03-1.05792E-01 1.25739E-13-3.62272E-14
 -1      3968 1.99044E+01 2.26894E-01-8.16891E-05-9.46525E-02 4.60229E-14 1.81193E-13
 -1      3969 1.99209E+01 1.98384E-01-7.68693E-04-7.95689E-02 1.41895E-13 2.67506E-13
 -1      3970 1.98765E+01 2.57554E-01 9.98748E-04-8.08150E-02 8.22762E-14 5.62715E-14
 -1      3971 1.99402E+01 1.73158E-01-2.00635E-05-6.94705E-02 5.13755E-14 2.22563E-13
 -1      3972 1.99516E+01 1.50162E-01-5.93721E-04-5.75406E-02 5.98510E-14 2.31034E-13
 -1      3973 1.99202E+01 1.97852E-01 7.36032E-04-6.01929E-02 1.07702E-13 1.57307E-13
 -1      3974 1.99653E+01 1.29998E-01 1.52487E-05-4.96128E-02 3.15684E-14 6.89351E-14
 -1      3975 1.99729E+01 1.11755E-01-4.50922E-04-4.03651E-02-7.83010E-14-5.93250E-14
 -1      3976 1.99513E+01 1.49524E-01 5.34406E-04-4.36146E-02-1.12040E-13 2.48724E-14
 -1      3977 1.99823E+01 9.58951E-02 3.32081E-05-3.42793E-02 5.00040E-14-1.76902E-13
 -1      3978 1.99872E+01 8.16523E-02-3.36240E-04-2.72526E-02 4.81998E-15-2.14907E-13
 -1      3979 1.99729E+01 1.11063E-01 3.81288E-04-3.06079E-02-8.05053E-14-2.82148E-13
 -1      3980 1.99934E+01 6.93709E-02 4.02893E-05-2.26832E-02-5.32169E-14-1.57803E-13
 -1      3981 1.99963E+01 5.84205E-02-2.46241E-04-1.74537E-02-4.31336E-14-7.61164E-14
 -1      3982 1.99873E+01 8.09472E-02 2.66333E-04-2.06358E-02-2.47775E-14-3.09098E-13
 -1      3983 2.00002E+01 4.90499E-02 4.09775E-05-1.41042E-02-1.73673E-13-7.22854E-15
 -1      3984 2.00018E+01 4.07565E-02-1.75265E-04-1.03015E-02-1.29106E-13 3.95723E-14
 -1      3985 1.99965E+01 5.77272E-02 1.80518E-04-1.31620E-02-6.26300E-14-1.43548E-13
 -1      3986 2.00040E+01 3.37117E-02 3.91790E-05-7.90772E-03 3.75376E-15 1.01425E-13
 -1      3987 2.00046E+01 2.75005E-02-1.20937E-04-5.20950E-03 1.06076E-13 1.55478E-13
 -1      3988 2.00020E+01 4.01020E-02 1.23616E-04-7.71169E-03-1.43757E-15 1.50538E-14
 -1      3989 2.00057E+01 2.22577E-02 4.11968E-05-3.55097E-03 1.70495E-13 2.21171E-13
 -1      3990 2.00057E+01 1.76615E-02-7.83919E-05-1.72321E-03 2.09159E-13 3.64067E-13
 -1      3991 2.00047E+01 2.68495E-02 6.65815E-05-3.83232E-03 7.59989E-14 7.98835E-14
 -1      3992 2.04144E+01-8.43770E-01 9.49020E-03-1.94661E+00-1.27644E-13-2.20665E-13
 -1      3993 2.01648E+01-4.80666E-01 1.05467E-02-1.86175E+00-1.40661E-13-2.22655E-13
 -1      3994 1.98663E+01-1.12544E+00-3.36403E-02-2.43761E+00-1.94232E-13-2.04875E-13
 -1      3995 1.95073E+01 1.07390E+00-2.92790E-03-1.00355E+00 3.62592E-14-2.66201E-13
 -1      3996 1.91189E+01 4.98375E-01-3.58439E-03 1.07399E+00-1.50948E-13-1.71760E-13
 -1      3997 1.91194E+01 4.23121E-01 6.09920E-03 1.19487E+00-5.05399E-14-6.99402E-14
 -1      3998 1.90397E+01 3.09409E-01-3.21829E-03 1.35505E+00-4.53486E-14-5.13697E-14
 -1      3999 1.90858E+01 1.65329E-01 7.40344E-03 1.49988E+00-7.65572E-14 7.08738E-14
 -1      4000 1.87767E+01 4.86100E-01-1.18375E-03 1.24964E+00-4.73307E-15-1.33914E-14
 -1      4001 1.90447E+01-2.70264E-02-2.00586E-03 1.69403E+00-1.04203E-13-5.41962E-14
 -1      4002 1.91774E+01-2.75421E-01 2.70205E-03 1.86731E+00-1.56684E-13-6.86399E-14
 -1      4003 1.86748E+01 2.12899E-01 2.44478E-03 1.62627E+00-1.45224E-13 2.40650E-15
 -1      4004 1.92370E+01 5.82118E-01-3.33458E-03 8.48949E-01-1.50059E-13-1.26425E-13
 -1      4005 1.92107E+01 5.53390E-01 3.90086E-03 9.49131E-01-2.28409E-13-1.79926E-13
 -1      4006 1.89434E+01 6.26039E-01 8.61080E-04 9.65129E-01-1.30095E-13-1.60232E-13
 -1      4007 1.93661E+01 5.95225E-01-2.94539E-03 6.68785E-01-1.40572E-13-2.23500E-14
 -1      4008 1.93282E+01 5.97493E-01 2.57853E-03 7.51286E-01-1.14965E-13-9.25113E-14
 -1      4009 1.91190E+01 6.71840E-01 1.65159E-03 7.45801E-01-1.87006E-13 1.32178E-14
 -1      4010 1.94901E+01 5.64551E-01-2.60478E-03 5.24241E-01-1.30485E-13 1.57304E-13
 -1      4011 1.94497E+01 5.85529E-01 1.68592E-03 5.92217E-01-1.72014E-13 4.24286E-14
 -1      4012 1.92863E+01 6.57734E-01 1.93887E-03 5.76881E-01-2.05767E-13 5.35197E-14
 -1      4013 1.96017E+01 5.08647E-01-2.30724E-03 4.07892E-01 6.74381E-14 2.17114E-13
 -1      4014 1.95636E+01 5.39982E-01 1.09503E-03 4.63665E-01-2.16683E-15 9.97529E-14
 -1      4015 1.94361E+01 6.07498E-01 1.81881E-03 4.44629E-01-5.15637E-14 7.27602E-14
 -1      4016 1.96974E+01 4.41356E-01-1.96805E-03 3.14564E-01 5.08716E-14 2.33386E-13
 -1      4017 1.96640E+01 4.76739E-01 7.04052E-04 3.60125E-01 1.12181E-13 2.22817E-13
 -1      4018 1.95654E+01 5.38037E-01 1.64234E-03 3.41329E-01 6.29852E-14 6.19541E-14
 -1      4019 1.97765E+01 3.71510E-01-1.63366E-03 2.39947E-01-1.48497E-13 1.68155E-13
 -1      4020 1.97486E+01 4.07102E-01 4.87042E-04 2.76871E-01 2.57585E-14 2.71897E-13
 -1      4021 1.96732E+01 4.61186E-01 1.46915E-03 2.60109E-01 4.56164E-14 2.86936E-13
 -1      4022 1.98398E+01 3.04796E-01-1.33172E-03 1.80730E-01-3.14656E-13 5.47864E-14
 -1      4023 1.98175E+01 3.38128E-01 3.48405E-04 2.10371E-01-2.75060E-13 1.02922E-13
 -1      4024 1.97606E+01 3.84607E-01 1.24448E-03 1.96454E-01-1.22870E-13 1.87920E-13
 -1      4025 1.98890E+01 2.44460E-01-1.06789E-03 1.34122E-01-2.54616E-13 1.59662E-13
 -1      4026 1.98718E+01 2.74197E-01 2.61522E-04 1.57659E-01-3.76651E-13-2.49283E-14
 -1      4027 1.98295E+01 3.13260E-01 1.01674E-03 1.46730E-01-2.99316E-13 7.46628E-14
 -1      4028 1.99263E+01 1.92018E-01-8.42479E-04 9.78037E-02-1.93302E-13 3.08043E-13
 -1      4029 1.99135E+01 2.17601E-01 2.04575E-04 1.16269E-01-1.32997E-13 2.51653E-13
 -1      4030 1.98826E+01 2.49773E-01 8.07691E-04 1.08095E-01-2.46430E-13 8.23937E-14
 -1      4031 1.99538E+01 1.47846E-01-6.53644E-04 6.98293E-02-2.89693E-13 4.88942E-13
 -1      4032 1.99445E+01 1.69218E-01 1.64649E-04 8.41252E-02-2.60548E-13 4.48407E-13
 -1      4033 1.99224E+01 1.95214E-01 6.25472E-04 7.83070E-02-3.24378E-13 3.85445E-13
 -1      4034 1.99734E+01 1.11600E-01-4.98407E-04 4.85596E-02-6.03024E-14 5.53572E-13
 -1      4035 1.99670E+01 1.29016E-01 1.34641E-04 5.94710E-02-1.25010E-13 5.59486E-13
 -1      4036 1.99516E+01 1.49642E-01 4.72538E-04 5.55628E-02-2.07102E-13 4.63323E-13
 -1      4037 1.99869E+01 8.25324E-02-3.73003E-04 3.26189E-02 5.71579E-14 4.71533E-13
 -1      4038 1.99827E+01 9.64139E-02 1.10719E-04 4.08189E-02 2.13255E-14 4.91359E-13
 -1      4039 1.99723E+01 1.12492E-01 3.48204E-04 3.83951E-02 3.97213E-14 4.50740E-13
 -1      4040 1.99957E+01 5.96931E-02-2.73868E-04 2.08629E-02 1.83308E-13 3.39058E-13
 -1      4041 1.99932E+01 7.05410E-02 9.09886E-05 2.69201E-02 1.86717E-13 4.03862E-13
 -1      4042 1.99864E+01 8.28539E-02 2.49863E-04 2.56067E-02 2.37719E-13 3.62771E-13
 -1      4043 2.00011E+01 4.20723E-02-1.99033E-04 1.23560E-02 1.02132E-13 4.22277E-13
 -1      4044 1.99998E+01 5.04017E-02 7.49216E-05 1.67416E-02 9.84610E-14 2.63224E-13
 -1      4045 1.99957E+01 5.96621E-02 1.73143E-04 1.62211E-02 1.95119E-13 2.45520E-13
 -1      4046 2.00040E+01 2.87190E-02-1.45661E-04 6.33647E-03 1.48562E-13 4.51580E-13
 -1      4047 2.00035E+01 3.50296E-02 6.94143E-05 9.45780E-03 9.80011E-14 4.30022E-13
 -1      4048 2.00013E+01 4.18273E-02 1.19036E-04 9.48201E-03 1.68590E-15 1.63304E-13
 -1      4049 2.00053E+01 1.87089E-02-7.63689E-05 2.18790E-03 4.49526E-13 2.35155E-13
 -1      4050 2.00053E+01 2.34144E-02 5.74747E-05 4.34484E-03 4.30062E-13 3.57793E-13
 -1      4051 2.00042E+01 2.83661E-02 6.55311E-05 4.73580E-03 3.30637E-13 1.82031E-13
 -1      4052 1.48875E+01 1.14001E+00 3.21774E-02-9.67706E-01-9.80109E-14 1.46199E-13
 -1      4053 1.57470E+01 1.04016E+00 1.33256E-02-1.32249E+00-1.02669E-13 1.53195E-13
 -1      4054 1.61184E+01 1.15074E+00-2.13065E-02-1.02620E+00-9.12673E-14 1.90876E-13
 -1      4055 1.50067E+01 1.18229E+00-1.98909E-02-3.29192E-01-3.26783E-14 1.60513E-13
 -1      4056 2.00050E+01 7.72779E-03-2.65401E-05-1.52078E-03 4.52662E-13 4.33785E-13
 -1      4057 1.87344E+01 2.17934E+00-5.64351E-03-2.40692E-01-2.19289E-14-3.66057E-13
 -1      4058 1.86221E+01 2.05438E+00 5.63512E-03-1.77044E-01-2.09431E-14-3.40629E-13
 -1      4059 1.88148E+01 2.12931E+00-2.56074E-04-3.40590E-01 2.28418E-14-3.61315E-13
 -1      4060 2.01675E+01-1.13736E-01 7.27120E-03-1.57288E+00-8.21314E-14-2.23814E-13
 -1      4061 2.00229E+01 1.58133E-01 2.92915E-03-1.47036E+00-4.16282E-14-2.37295E-13
 -1      4062 1.97088E+01 4.18942E-01 2.21945E-03-1.43930E+00-1.27586E-14-2.14528E-13
 -1      4063 2.00051E+01 1.88356E-02-5.45008E-05 1.46376E-04-2.44392E-14-3.39914E-13
 -1      4064 2.00052E+01 1.85576E-02-4.48556E-05 3.56073E-04 1.69838E-13-1.71500E-13
 -1      4065 2.00059E+01 1.48031E-02 5.55824E-05-6.92063E-04 9.50258E-14 3.51358E-14
 -1      4066 1.88191E+01 1.91105E+00 9.17423E-03-4.83546E-01 2.99160E-14-3.25907E-13
 -1      4067 2.00053E+01 1.08333E-02-1.96487E-05-6.54368E-04 2.71216E-13 6.85569E-14
 -1      4068 1.84348E+01-1.21221E+00-2.70753E-02-3.24746E+00-2.64244E-13-3.24861E-13
 -1      4069 1.93784E+01-1.07580E+00 2.52727E-02-2.72803E+00-2.44786E-13-2.35002E-13
 -1      4070 1.91204E+01-5.86120E-01 2.77693E-02-2.49793E+00-2.01300E-13-2.55134E-13
 -1      4071 1.73900E+01-4.40743E-01 2.20424E-02-2.97586E+00-2.08173E-13-3.30696E-13
 -1      4072 1.83434E+01 1.81504E+00-9.90842E-03 3.02139E-01-6.35251E-14-2.46547E-13
 -1      4073 1.80658E+01 1.71136E+00-1.38552E-02 3.93411E-01-3.28934E-14-2.46852E-13
 -1      4074 1.83807E+01 1.95589E+00 1.00892E-02-1.75478E-02-4.36876E-14-2.71476E-13
 -1      4075 1.63556E+01 1.34280E+00 5.46677E-03 7.97120E-01 6.55987E-14-3.23451E-13
 -1      4076 1.56754E+01 1.34229E+00 7.21022E-03 4.67750E-01 4.23216E-14-3.46780E-13
 -1      4077 1.66679E+01 1.22921E+00 2.62712E-03-8.12820E-01-1.42514E-13 1.32065E-13
 -1      4078 1.70413E+01 1.23257E+00-1.38581E-02-7.21370E-01-1.45949E-13 1.20589E-13
 -1      4079 1.70894E+01 1.30926E+00 1.62438E-02-3.65501E-01-1.23133E-13 2.02724E-13
 -1      4080 1.55510E+01 1.28688E+00-6.28458E-03-2.79266E-01-2.82925E-14-3.60992E-13
 -1      4081 2.00056E+01 1.41843E-02 1.61374E-05 7.28690E-04 3.36963E-13 1.40644E-13
 -1      4082 1.79701E+01-5.91988E-01-2.17260E-02 2.65734E+00-2.20373E-13-3.72642E-14
 -1      4083 1.71440E+01-2.65617E-01 3.29680E-02 2.74098E+00-2.82034E-13-3.39485E-15
 -1      4084 1.65724E+01 1.13986E-01-1.32059E-02 2.34308E+00-2.95351E-13 2.51564E-13
 -1      4085 1.72884E+01 9.06414E-02 2.03534E-02-2.39650E+00-1.82587E-13-3.14181E-13
 -1      4086 1.92267E+01 1.26543E+00 6.86798E-03-9.59877E-01 4.37723E-14-3.00978E-13
 -1      4087 1.89589E+01 1.40565E+00-9.28485E-03-8.91202E-01 3.21818E-14-3.17168E-13
 -1      4088 1.93456E+01 8.41213E-01-5.79506E-03-1.22461E+00 1.36353E-14-2.66717E-13
 -1      4089 2.00055E+01 1.78123E-02-2.50208E-05-1.19508E-03 9.47000E-14-1.41927E-13
 -1      4090 1.83731E+01 1.90096E+00-7.35226E-03-2.04243E-01-6.10086E-15-3.02098E-13
 -1      4091 1.86542E+01 1.68350E+00 5.18278E-03-6.62982E-01 3.09681E-14-3.06525E-13
 -1      4092 1.84915E+01 1.78041E+00-1.77680E-03-5.36511E-01 4.29203E-15-3.14783E-13
 -1      4093 1.81935E+01 1.70884E+00 1.27065E-03-3.85186E-01-1.57898E-14-2.80576E-13
 -1      4094 1.86383E+01 1.29892E+00-7.55350E-03-9.76241E-01 1.24638E-14-3.01208E-13
 -1      4095 1.67954E+01 1.42117E+00-2.05081E-02 6.66653E-01 3.42859E-14-3.05438E-13
 -1      4096 1.61626E+01 1.28529E+00 1.56436E-02-5.54309E-01-1.25787E-13 1.88237E-13
 -1      4097 2.00054E+01 1.76321E-02 1.83961E-05 1.29140E-03 4.47005E-13-5.29052E-14
 -1      4098 2.00053E+01 1.85193E-02-3.88527E-05-7.03327E-04 2.11856E-16-3.30270E-13
 -1      4099 2.00052E+01 1.87980E-02-6.01603E-05-4.96124E-04-6.88181E-14-2.21294E-13
 -1      4100 2.00049E+01 2.31832E-02 9.17462E-05-2.11591E-04-1.20597E-14-3.47583E-13
 -1      4101 1.56642E+01 7.52474E-01 1.32875E-03 1.57344E+00-2.50973E-13 3.59606E-13
 -1      4102 1.48508E+01 9.48911E-01 3.59955E-02 1.31668E+00-2.38891E-13 3.05778E-13
 -1      4103 1.50500E+01 1.10816E+00-8.70418E-03 6.10637E-01-5.77598E-14 1.80975E-13
 -1      4104 1.97114E+01-2.16132E-01 2.46970E-03-1.90996E+00-1.27838E-13-2.57123E-13
 -1      4105 1.93648E+01 6.02757E-01 5.05270E-04-1.41254E+00-2.43283E-14-2.64351E-13
 -1      4106 1.59229E+01 1.26137E+00 2.23699E-02-7.54198E-01-5.36539E-14-3.67466E-13
 -1      4107 1.64035E+01 1.02461E+00-2.99749E-02-1.24165E+00-8.95451E-14-3.46989E-13
 -1      4108 1.65490E+01 1.40421E+00 1.01489E-02-2.58242E-01 9.73267E-15-2.96730E-13
 -1      4109 2.00053E+01 1.84783E-02-2.99530E-05 1.22778E-03 4.95584E-13 1.44477E-13
 -1      4110 2.00049E+01 2.30806E-02 5.84586E-05 1.72639E-03 3.23432E-13-1.88782E-13
 -1      4111 1.78156E+01 1.75324E+00 1.99234E-02-5.21956E-02-4.45283E-14-2.34319E-13
 -1      4112 1.77209E+01 1.61320E+00-1.57493E-02 3.95844E-01-1.62006E-14-2.54298E-13
 -1      4113 1.73766E+01 1.54057E+00-6.01896E-03 4.80743E-01 1.29725E-15-2.77084E-13
 -1      4114 1.81447E+01-6.39967E-02 1.41887E-02 2.14744E+00-2.18751E-13-3.46984E-14
 -1      4115 1.86867E+01-4.26435E-01 1.07265E-04 2.21747E+00-2.09768E-13-1.04124E-13
 -1      4116 1.81372E+01 1.13965E+00-7.67438E-03-1.26799E-01-5.01609E-14 2.57989E-13
 -1      4117 1.83807E+01 1.09144E+00-3.23700E-03-1.29104E-01-6.80723E-14 1.88327E-13
 -1      4118 1.85839E+01 1.03176E+00-5.17598E-03-1.53091E-01-1.28246E-13 1.09628E-13
 -1      4119 1.87685E+01 9.72815E-01-2.83985E-03-1.49239E-01-2.73610E-13 9.98913E-14
 -1      4120 1.84807E+01 1.06114E+00 7.61800E-03 3.67725E-02-1.63374E-13 2.56899E-13
 -1      4121 1.89289E+01 9.10311E-01-3.33615E-03-1.59320E-01-3.05170E-13 1.18065E-14
 -1      4122 1.90698E+01 8.47450E-01-2.37854E-03-1.50409E-01-2.87529E-13-6.71148E-16
 -1      4123 1.88357E+01 9.49348E-01 5.73190E-03-1.61240E-02-3.40484E-13 2.22200E-13
 -1      4124 1.91968E+01 7.84011E-01-2.33913E-03-1.52803E-01-1.62797E-13-6.19968E-14
 -1      4125 1.93047E+01 7.21201E-01-2.27416E-03-1.40982E-01-1.78124E-14 3.27073E-14
 -1      4126 1.91197E+01 8.28115E-01 5.38374E-03-4.18962E-02-1.97739E-13 1.65356E-13
 -1      4127 1.94032E+01 6.61226E-01-2.13102E-03-1.37322E-01 8.18800E-14 7.79258E-14
 -1      4128 1.94878E+01 6.03040E-01-1.58616E-03-1.23278E-01 1.51086E-13 7.43554E-14
 -1      4129 1.93380E+01 7.09010E-01 4.86142E-03-5.09625E-02 8.55402E-14 3.54771E-14
 -1      4130 1.95643E+01 5.46429E-01-1.69786E-03-1.18285E-01 7.11584E-14 1.20935E-15
 -1      4131 1.96288E+01 4.93729E-01-1.35058E-03-1.04324E-01 1.21058E-13 4.08516E-14
 -1      4132 1.95138E+01 5.91732E-01 4.52692E-03-5.35832E-02 1.41203E-13 4.33140E-14
 -1      4133 1.96876E+01 4.43745E-01-1.21094E-03-9.83131E-02 1.78248E-13 5.09509E-14
 -1      4134 1.97361E+01 3.97470E-01-1.11281E-03-8.52645E-02 1.58757E-13 8.48433E-14
 -1      4135 1.96478E+01 4.84624E-01 3.64404E-03-5.03700E-02 9.27481E-14 9.48880E-14
 -1      4136 1.97809E+01 3.54333E-01-8.55348E-04-7.91417E-02 7.83595E-14 1.27488E-14
 -1      4137 1.98168E+01 3.14740E-01-8.99080E-04-6.75118E-02 4.52648E-14-9.67230E-14
 -1      4138 1.97499E+01 3.89973E-01 2.85621E-03-4.38963E-02 8.80012E-14 3.96436E-14
 -1      4139 1.98504E+01 2.78337E-01-5.98321E-04-6.18616E-02 5.71780E-14-1.28531E-13
 -1      4140 1.98766E+01 2.45210E-01-7.11859E-04-5.18967E-02 8.11189E-14-1.26271E-13
 -1      4141 1.98269E+01 3.08519E-01 2.19744E-03-3.62695E-02 9.51136E-14-1.69634E-13
 -1      4142 1.99014E+01 2.15107E-01-4.13372E-04-4.70030E-02 8.55443E-14-1.84543E-13
 -1      4143 1.99202E+01 1.87942E-01-5.51904E-04-3.87392E-02 9.24542E-14-2.35358E-13
 -1      4144 1.98840E+01 2.40038E-01 1.66010E-03-2.87207E-02 5.55480E-14-5.43697E-13
 -1      4145 1.99381E+01 1.63510E-01-2.81165E-04-3.46929E-02-7.62231E-14-2.40919E-13
 -1      4146 1.99512E+01 1.41642E-01-4.18724E-04-2.80293E-02-2.18421E-13-4.02974E-13
 -1      4147 1.99255E+01 1.83650E-01 1.23028E-03-2.19017E-02-4.08221E-14-7.52387E-13
 -1      4148 1.99638E+01 1.22156E-01-1.87481E-04-2.48066E-02-1.71497E-13-3.32751E-13
 -1      4149 1.99728E+01 1.04858E-01-3.10647E-04-1.95664E-02-1.13866E-13-4.16370E-13
 -1      4150 1.99551E+01 1.38097E-01 8.92653E-04-1.60980E-02-1.55821E-13-5.39295E-13
 -1      4151 1.99814E+01 8.95744E-02-1.21738E-04-1.70822E-02-4.91417E-14-4.07587E-13
 -1      4152 1.99873E+01 7.61148E-02-2.25131E-04-1.30564E-02 1.96107E-14-3.75164E-13
 -1      4153 1.99755E+01 1.01946E-01 6.31616E-04-1.13734E-02-1.07814E-13-4.46323E-13
 -1      4154 1.99929E+01 6.43221E-02-7.57292E-05-1.11972E-02 1.23294E-13-3.87984E-13
 -1      4155 1.99965E+01 5.40121E-02-1.55185E-04-8.17346E-03 1.04431E-13-2.23228E-13
 -1      4156 1.99891E+01 7.37348E-02 4.29741E-04-7.66911E-03 9.65764E-14-4.37988E-13
 -1      4157 1.99999E+01 4.50100E-02-5.37300E-05-6.81043E-03-3.30361E-14-1.22741E-13
 -1      4158 2.00019E+01 3.72652E-02-9.10587E-05-4.61769E-03-1.03624E-13-2.26519E-13
 -1      4159 1.99976E+01 5.20337E-02 2.51887E-04-4.86307E-03 8.46912E-14-4.83358E-13
 -1      4160 1.85160E+01 6.71486E-01-9.20294E-03 1.06334E+00-5.66208E-14-2.56663E-14
 -1      4161 1.84558E+01 6.02561E-01 6.09784E-03 1.22370E+00-5.02874E-14-6.79336E-14
 -1      4162 1.90086E+01 7.45829E-01-4.31169E-03 6.04599E-01-1.98624E-13 8.21640E-14
 -1      4163 1.89265E+01 7.55270E-01 2.34139E-03 6.95304E-01-1.11959E-13 5.49938E-14
 -1      4164 1.70913E+01 6.10160E-01 2.15601E-02-1.92836E+00-1.52765E-13-3.17380E-13
 -1      4165 1.80245E+01-1.24941E-01-3.79477E-02-2.41403E+00-1.77254E-13-2.75931E-13
 -1      4166 1.87768E+01 7.43665E-01-5.77681E-03 7.99516E-01-1.43092E-13-3.84661E-14
 -1      4167 1.86979E+01 7.21449E-01 3.98593E-03 9.16776E-01-1.20964E-13-4.01101E-14
 -1      4168 1.83811E+01 8.24676E-01 4.14440E-03 8.92311E-01-1.34933E-13-1.69051E-14
 -1      4169 1.87033E+01 8.46303E-01 5.95128E-03 6.48817E-01-1.59276E-13 6.42965E-14
 -1      4170 1.82542E+01 4.88267E-01-1.16595E-02 1.41395E+00-4.99843E-14-7.78083E-14
 -1      4171 1.82157E+01 3.26354E-01-4.06464E-03 1.64161E+00-1.70414E-13-2.55954E-14
 -1      4172 1.80513E+01 7.10047E-01 6.55455E-03 1.21681E+00-8.25528E-14-3.74917E-14
 -1      4173 1.92128E+01 7.01071E-01-3.59014E-03 4.57398E-01-1.92028E-13 1.22726E-13
 -1      4174 1.91366E+01 7.29382E-01 1.30371E-03 5.27055E-01-2.07825E-13 1.85752E-13
 -1      4175 1.89640E+01 8.10890E-01 3.70782E-03 4.75903E-01-2.44482E-13 2.32187E-13
 -1      4176 1.93857E+01 6.30879E-01-3.52530E-03 3.46344E-01 1.87061E-14 5.97828E-14
 -1      4177 1.93209E+01 6.70767E-01 1.19757E-03 4.01109E-01-4.73378E-14 1.10275E-13
 -1      4178 1.91924E+01 7.41015E-01 3.56884E-03 3.49518E-01-7.09385E-14 2.06650E-13
 -1      4179 1.95319E+01 5.48023E-01-2.92398E-03 2.60678E-01 9.31850E-14 1.32031E-13
 -1      4180 1.94764E+01 5.91876E-01 5.75550E-04 3.02900E-01 3.77718E-14 6.95735E-14
 -1      4181 1.93758E+01 6.57209E-01 3.56623E-03 2.60182E-01-1.28643E-14 2.07881E-13
 -1      4182 1.96511E+01 4.62961E-01-2.33863E-03 1.95349E-01 3.56040E-15 2.74635E-13
 -1      4183 1.96052E+01 5.06752E-01 2.61138E-04 2.28281E-01 6.95655E-14 3.17135E-13
 -1      4184 1.95313E+01 5.65908E-01 4.37182E-03 1.92969E-01 1.16036E-14 3.60407E-13
 -1      4185 1.97460E+01 3.81850E-01-1.84759E-03 1.45342E-01-9.58846E-14 1.21054E-13
 -1      4186 1.97092E+01 4.22809E-01 1.31738E-04 1.71092E-01-7.10970E-14 2.16230E-13
 -1      4187 1.96542E+01 4.73604E-01 3.79488E-03 1.42234E-01-1.06360E-14 1.51929E-13
 -1      4188 1.98199E+01 3.08248E-01-1.44689E-03 1.07041E-01-2.33827E-13-3.45950E-14
 -1      4189 1.97912E+01 3.44880E-01 6.68641E-05 1.27141E-01-1.44689E-13 4.40345E-14
 -1      4190 1.97504E+01 3.87534E-01 3.07052E-03 1.04140E-01-1.00931E-13-4.92703E-14
 -1      4191 1.98764E+01 2.43916E-01-1.12161E-03 7.78106E-02-3.15133E-13-4.85143E-14
 -1      4192 1.98546E+01 2.75576E-01 3.65564E-05 9.34212E-02-3.39099E-13-1.68836E-13
 -1      4193 1.98246E+01 3.10751E-01 2.40944E-03 7.55985E-02-2.55462E-13-3.08582E-13
 -1      4194 1.99185E+01 1.89360E-01-8.58940E-04 5.56366E-02-3.30324E-13 6.33913E-14
 -1      4195 1.99024E+01 2.15966E-01 2.58226E-05 6.76696E-02-2.70556E-13 5.24652E-14
 -1      4196 1.98807E+01 2.44485E-01 1.84821E-03 5.42635E-02-4.01679E-13-3.60761E-13
 -1      4197 1.99491E+01 1.44258E-01-6.48754E-04 3.89500E-02-1.52634E-13 1.17755E-13
 -1      4198 1.99376E+01 1.66086E-01 2.46619E-05 4.81377E-02-2.68539E-13 5.81970E-14
 -1      4199 1.99223E+01 1.88828E-01 1.38754E-03 3.83710E-02-3.38584E-13-4.52313E-13
 -1      4200 1.99708E+01 1.07799E-01-4.82561E-04 2.65183E-02 2.33819E-13-7.44933E-14
 -1      4201 1.99628E+01 1.25327E-01 2.69650E-05 3.34547E-02 5.81050E-14 3.99916E-14
 -1      4202 1.99522E+01 1.43167E-01 1.01856E-03 2.65959E-02 7.39333E-14-5.60317E-13
 -1      4203 1.99856E+01 7.89194E-02-3.52954E-04 1.73684E-02 3.18248E-13-6.29233E-14
 -1      4204 1.99803E+01 9.27202E-02 2.94428E-05 2.25374E-02 2.90550E-13 1.94115E-14
 -1      4205 1.99732E+01 1.06485E-01 7.29292E-04 1.79381E-02 2.78099E-13-5.47813E-13
 -1      4206 1.99952E+01 5.64695E-02-2.48996E-04 1.07284E-02 8.46862E-14-5.67328E-14
 -1      4207 1.99919E+01 6.71419E-02 3.10447E-05 1.45242E-02 2.51607E-13-6.18954E-14
 -1      4208 1.99874E+01 7.75804E-02 5.06131E-04 1.16398E-02 2.29928E-13-4.34590E-13
 -1      4209 2.00010E+01 3.92847E-02-1.89285E-04 6.00711E-03 1.09705E-13-2.83481E-13
 -1      4210 1.99992E+01 4.73977E-02 2.45893E-05 8.70154E-03 1.29224E-14-9.59119E-14
 -1      4211 1.99964E+01 5.52043E-02 3.22916E-04 7.10870E-03 4.03099E-14-4.87856E-13
 -1      4212 2.00039E+01 2.74855E-02-8.49715E-05 2.68611E-03 2.96087E-13-2.68769E-13
 -1      4213 2.00031E+01 3.37034E-02 6.77496E-05 4.48944E-03 1.40383E-13-3.45413E-13
 -1      4214 2.00014E+01 3.92958E-02 1.65236E-04 3.64006E-03 7.22275E-14-7.66644E-13
 -1      4215 2.00039E+01 2.78200E-02 3.31633E-05 1.37084E-03 5.46576E-14-7.72747E-13
 -1      4216 1.53617E+01 1.24519E+00 2.36844E-02 1.92182E-01-9.74142E-14 1.65257E-13
 -1      4217 1.58011E+01 1.25393E+00 3.17781E-03-2.39882E-01-1.18011E-13 1.50001E-13
 -1      4218 1.62933E+01 1.25938E+00-1.81772E-02-7.63805E-02-1.92244E-13 1.57324E-13
 -1      4219 1.57844E+01 1.13434E+00-1.71714E-02 6.06596E-01-8.55921E-14 1.99927E-13
 -1      4220 1.87589E+01-1.04458E-01-3.74895E-04-2.16069E+00-1.57752E-13-2.71002E-13
 -1      4221 1.70259E+01 2.60255E-01-6.93654E-03 2.07146E+00-2.32505E-13 2.42368E-13
 -1      4222 1.63217E+01 5.73466E-01 3.58674E-02 1.92787E+00-3.12776E-13 4.99681E-13
 -1      4223 1.61371E+01 8.18581E-01-1.12416E-02 1.36894E+00-1.62248E-13 2.90871E-13
 -1      4224 1.91984E+01 3.43485E-01-1.70035E-02-1.65502E+00-7.61528E-14-2.68985E-13
 -1      4225 1.89104E+01 8.44033E-01 1.80675E-02-1.40464E+00-1.07721E-14-2.83970E-13
 -1      4226 1.91269E+01-1.82316E-02-1.04963E-02-1.95906E+00-1.27743E-13-2.81733E-13
 -1      4227 2.00052E+01 2.22722E-02 5.86309E-05-1.68962E-03 1.39656E-13-1.60580E-13
 -1      4228 1.69028E+01 1.56190E+00 1.82503E-02 7.32737E-02 3.10944E-15-2.56932E-13
 -1      4229 1.75683E+01 1.21663E+00-7.51422E-03-7.87200E-02-2.35130E-14 2.87958E-13
 -1      4230 1.78776E+01 1.18102E+00-5.57807E-03-9.34415E-02-1.28222E-14 2.92075E-13
 -1      4231 1.80067E+01 1.15763E+00 8.48505E-03 1.32373E-01-6.97362E-14 2.56692E-13
 -1      4232 1.68229E+01 1.25469E+00-3.99288E-03 5.32556E-03-9.89433E-14 1.88712E-13
 -1      4233 1.72202E+01 1.23807E+00-7.46777E-03-2.14065E-02 2.42146E-15 3.20262E-13
 -1      4234 1.74279E+01 1.21681E+00 1.55041E-02 2.55503E-01-3.16784E-14 2.72541E-13
 -1      4235 1.77030E+01 2.91703E-01-8.08644E-03 1.81508E+00-2.43831E-13 7.72949E-14
 -1      4236 1.87152E+01-6.79642E-01 7.97784E-03 2.42755E+00-1.75240E-13-1.18464E-13
 -1      4237 1.72414E+01 9.60912E-01 1.15599E-02-1.36422E+00-9.07536E-14-2.97392E-13
 -1      4238 2.00038E+01 3.05186E-02-1.07890E-05-3.65674E-03-7.62521E-14-2.55055E-13
 -1      4239 2.00047E+01 2.47380E-02-6.09701E-05-2.17463E-03 9.48546E-14-2.06308E-13
 -1      4240 1.84648E+01 1.08595E+00-5.52649E-03-1.17838E+00-1.88042E-14-3.07887E-13
 -1      4241 1.73627E+01 6.38740E-01 1.90895E-02 1.55255E+00-1.46945E-13 1.99384E-13
 -1      4242 1.70663E+01 1.48703E+00-1.21869E-02-3.79746E-01-2.80728E-14-2.99869E-13
 -1      4243 2.00044E+01 2.55608E-02-4.14740E-05-1.41589E-03 5.46199E-14-4.01755E-13
 -1      4244 1.83660E+01 5.60880E-01 3.05228E-02-1.80571E+00-1.08366E-13-2.99328E-13
 -1      4245 1.65851E+01 1.25105E+00 1.42961E-02 2.87224E-01-1.29477E-13 2.44166E-13
 -1      4246 1.78379E+01 1.58838E+00-1.22838E-02-4.56971E-01-3.87188E-14-2.90814E-13
 -1      4247 2.00040E+01 2.69365E-02-2.68270E-05-6.99650E-04 9.62447E-14-2.03110E-13
 -1      4248 2.00038E+01 2.68445E-02-1.03888E-04 2.42872E-04 6.16747E-15-4.26661E-13
 -1      4249 2.00029E+01 3.20327E-02-2.35997E-05 1.15255E-03 4.09360E-14-6.45508E-13
 -1      4250 2.00037E+01 2.99036E-02 5.41778E-05-1.09425E-03 2.37829E-14-3.30465E-13
 -1      4251 2.00025E+01 3.53588E-02 9.48279E-05-2.72524E-03-4.75430E-14-5.59730E-13
 -1      4252 1.89337E+01 8.41317E-01-3.59662E-03 3.21373E-01-3.38609E-13 2.04257E-13
 -1      4253 1.88115E+01 8.78744E-01 5.28320E-04 3.87545E-01-2.57551E-13 2.13900E-13
 -1      4254 1.87242E+01 9.52417E-01-3.92713E-03 1.19687E-01-3.08566E-13 1.97785E-13
 -1      4255 1.88873E+01 9.00441E-01-1.35631E-03 9.36888E-02-3.52425E-13 1.56627E-13
 -1      4256 1.90525E+01 8.29414E-01-3.24017E-03 7.23038E-02-2.61675E-13 2.59013E-13
 -1      4257 1.91750E+01 7.77703E-01-2.62620E-04 5.65770E-02-1.20712E-13 2.53868E-13
 -1      4258 1.93229E+01 6.83411E-01-3.54316E-03 9.68951E-02-3.14922E-14 2.98255E-13
 -1      4259 1.94226E+01 6.27799E-01-1.93124E-03 8.52991E-02 7.44395E-14 2.56703E-13
 -1      4260 1.94929E+01 5.75089E-01-3.87010E-03 6.10855E-02 7.08486E-14 2.47658E-13
 -1      4261 1.95711E+01 5.24310E-01-1.95454E-03 5.60974E-02 6.86600E-14 1.49803E-13
 -1      4262 1.96277E+01 4.75204E-01-3.21831E-03 3.82528E-02 7.32752E-14 1.15461E-13
 -1      4263 1.96882E+01 4.29189E-01-1.65133E-03 3.68322E-02 1.75775E-14-5.63435E-14
 -1      4264 1.97326E+01 3.85213E-01-2.54541E-03 2.36257E-02-1.01564E-13-5.80424E-14
 -1      4265 1.97787E+01 3.44763E-01-1.32224E-03 2.41038E-02-5.78907E-14-1.70797E-13
 -1      4266 1.98127E+01 3.06606E-01-1.97020E-03 1.43298E-02-9.27662E-14-2.95447E-13
 -1      4267 1.98473E+01 2.72008E-01-1.02637E-03 1.57273E-02-1.51782E-13-3.99629E-13
 -1      4268 1.98728E+01 2.39767E-01-1.49956E-03 8.49196E-03-2.51574E-13-4.60135E-13
 -1      4269 1.98983E+01 2.10872E-01-7.75419E-04 1.02247E-02-2.53034E-13-6.66856E-13
 -1      4270 1.99171E+01 1.84248E-01-1.12221E-03 4.87399E-03-1.03628E-13-7.67683E-13
 -1      4271 1.99355E+01 1.60622E-01-5.69994E-04 6.60861E-03-6.04453E-14-8.63735E-13
 -1      4272 1.99489E+01 1.39089E-01-8.24442E-04 2.66368E-03 1.46389E-13-9.04350E-13
 -1      4273 1.99618E+01 1.20141E-01-4.06551E-04 4.22700E-03 7.94719E-14-7.34146E-13
 -1      4274 1.99711E+01 1.03053E-01-5.92696E-04 1.33565E-03 5.36216E-14-6.21836E-13
 -1      4275 1.99800E+01 8.81294E-02-2.78955E-04 2.65316E-03 1.06925E-13-4.97251E-13
 -1      4276 1.99861E+01 7.48141E-02-4.12223E-04 5.57196E-04 2.27131E-14-3.40839E-13
 -1      4277 1.99919E+01 6.32572E-02-1.75610E-04 1.61322E-03 9.84075E-14-4.72962E-13
 -1      4278 1.99958E+01 5.30863E-02-2.55813E-04 1.27447E-04 1.51222E-13-5.23571E-13
 -1      4279 1.99994E+01 4.43161E-02-6.21349E-05 8.64539E-04 5.67294E-14-4.54594E-13
 -1      4280 1.78350E+01 8.98040E-01-6.78277E-03 9.11772E-01-1.25523E-13 1.91746E-13
 -1      4281 1.76558E+01 8.27971E-01-1.73722E-03 1.09392E+00-8.21212E-14 1.06602E-13
 -1      4282 1.81609E+01 8.62313E-01-1.31181E-02-1.43227E+00-7.31511E-14-2.69053E-13
 -1      4283 1.80342E+01 1.40611E+00 2.02237E-02-9.30813E-01-3.81365E-14-2.51294E-13
 -1      4284 1.66245E+01 8.17107E-01-1.66196E-02 1.32807E+00-1.03002E-13 3.12809E-13
 -1      4285 1.61957E+01 1.05996E+00 2.52125E-02 1.00329E+00-5.36245E-14 1.83676E-13
 -1      4286 1.63276E+01 1.13407E+00-6.63036E-05 6.20567E-01-1.12818E-13 1.95633E-13
 -1      4287 2.00012E+01 3.76948E-02-1.34064E-04-4.68904E-04 5.83066E-14-5.21261E-13
 -1      4288 1.72442E+01 8.04585E-01-5.66406E-03 1.23380E+00-6.72093E-14 1.66458E-13
 -1      4289 1.76885E+01 8.04252E-01-2.05164E-02-1.56700E+00-1.22105E-13-2.51389E-13
 -1      4290 1.92028E+01 7.37528E-01-2.75619E-03 2.34065E-01-4.31323E-14 2.69667E-13
 -1      4291 1.91032E+01 7.83630E-01-7.76817E-04 2.80758E-01-2.07251E-13 2.08567E-13
 -1      4292 1.83447E+01 1.04598E+00-2.33955E-03 2.16073E-01-8.14950E-14 2.44398E-13
 -1      4293 1.85545E+01 1.00018E+00-1.37017E-03 1.66393E-01-2.03297E-13 2.38316E-13
 -1      4294 1.86439E+01 9.63931E-01 4.47696E-03 2.83952E-01-2.60432E-13 2.16633E-13
 -1      4295 1.80916E+01 1.01378E+00-6.65473E-03 5.10060E-01-8.16782E-14 1.79765E-13
 -1      4296 1.83478E+01 9.88786E-01-2.41307E-03 4.24960E-01-5.81934E-14 1.76680E-13
 -1      4297 1.68153E+01 1.10963E+00-1.08514E-02 6.50058E-01-1.17961E-13 1.82072E-13
 -1      4298 1.72611E+01 1.11014E+00-7.07435E-03 5.77999E-01-1.02616E-13 2.81898E-13
 -1      4299 1.75854E+01 1.11186E+00-3.87451E-03 4.78229E-01-5.20096E-14 2.43709E-13
 -1      4300 1.75187E+01 1.43229E+00 5.58738E-03-6.13395E-01-6.60212E-14-2.65306E-13
 -1      4301 1.72027E+01 1.27109E+00 2.10663E-03-9.32383E-01-5.54256E-14-2.85982E-13
 -1      4302 1.86304E+01 9.05538E-01-6.66473E-03 4.55202E-01-2.10008E-13 2.00017E-13
 -1      4303 1.89846E+01 8.54986E-01 3.40212E-03 1.95555E-01-2.64461E-13 1.88138E-13
 -1      4304 1.92344E+01 7.36248E-01-1.52847E-03 1.26823E-01-3.07272E-14 2.79331E-13
 -1      4305 2.00019E+01 3.68202E-02 4.30457E-05-1.72567E-03 3.42437E-14-4.94064E-13
 -1      4306 1.71102E+01 1.04225E+00 1.12328E-02 8.78862E-01-7.27920E-14 2.13337E-13
 -1      4307 1.79112E+01 1.00441E+00-3.86883E-04 6.26577E-01-8.52112E-14 1.82507E-13
 -1      4308 1.84790E+01 9.33550E-01 1.24126E-03 5.49235E-01-1.52860E-13 3.51183E-14
 -3
    1PSTEP                         3           1           1          
  100CL  101 1.000000000        4308                     0    1           1
 -4  TOSTRAIN    6    1
 -5  EXX         1    4    1    1
 -5  EYY         1    4    2    2
 -5  EZZ         1    4    3    3
 -5  EXY         1    4    1    2
 -5  EYZ         1    4    2    3
 -5  EZX         1    4    3    1
 -1         1 3.19503E-05-1.01300E-04 1.82101E-05 1.83988E-05 6.65408E-18-1.00194E-18
 -1         2 3.69035E-05-1.12063E-04 2.03010E-05-3.19945E-07 3.96922E-18-1.98523E-20
 -1         3 9.52379E-05-2.85703E-05-2.85723E-05 1.04077E-09-2.87706E-18-3.60972E-18
 -1         4 9.52379E-05-2.85704E-05-2.85724E-05-9.24633E-10 2.52917E-18-9.23699E-19
 -1         5 1.42329E-04-2.11410E-05-4.26078E-05 3.78686E-05-2.85185E-19 2.04295E-17
 -1         6 1.43826E-04 2.59344E-10-4.42015E-05-5.23273E-05-1.12211E-18 1.89985E-17
 -1         7 9.20693E-05-6.57296E-07-3.94570E-05-2.76715E-05-1.60195E-19 3.91610E-18
 -1         8 8.66774E-05 1.76324E-08-3.68914E-05-1.79937E-05-2.06755E-19-8.30599E-19
 -1         9 8.39929E-05 4.02475E-08-3.58041E-05-1.29748E-05-1.87485E-19-3.42213E-18
 -1        10 8.22895E-05 2.74146E-08-3.51020E-05-9.37732E-06-1.32839E-19-4.69260E-18
 -1        11 8.10359E-05 2.50545E-08-3.45979E-05-6.60471E-06-8.36048E-20-5.36263E-18
 -1        12 8.01200E-05 2.66613E-08-3.42346E-05-4.42796E-06-4.89294E-20-5.64037E-18
 -1        13 7.95040E-05 2.97221E-08-3.39914E-05-2.58601E-06-3.84573E-20-5.72339E-18
 -1        14 7.92189E-05 3.08639E-08-3.38773E-05-9.42686E-07-8.56049E-21-5.69747E-18
 -1        15 7.92651E-05 2.95510E-08-3.38923E-05 6.67140E-07 3.25380E-20-5.55260E-18
 -1        16 7.96259E-05 2.62459E-08-3.40306E-05 2.39741E-06 7.30003E-20-5.44331E-18
 -1        17 8.02736E-05 2.14119E-08-3.42825E-05 4.39261E-06 1.01174E-19-5.08693E-18
 -1        18 8.11646E-05 2.05265E-08-3.46352E-05 6.74520E-06 1.40938E-19-4.51317E-18
 -1        19 8.23489E-05 2.60782E-08-3.51158E-05 9.69284E-06 2.15279E-19-3.62262E-18
 -1        20 8.39551E-05 4.95449E-08-3.57921E-05 1.34211E-05 2.48101E-19-1.92269E-18
 -1        21 8.65238E-05 1.04703E-07-3.68885E-05 1.84288E-05 2.79071E-19 1.15787E-18
 -1        22 9.28123E-05-2.12501E-07-3.91090E-05 2.66059E-05 3.81165E-20 7.23879E-18
 -1        23 1.14000E-04-3.84951E-05-3.57255E-05-3.95938E-06-7.41048E-19 1.50763E-17
 -1        24 9.58409E-05-2.86243E-05-2.98815E-05 4.48401E-07-1.85623E-19 1.16740E-17
 -1        25 9.39218E-05-2.83055E-05-2.83667E-05 4.01374E-07-9.90086E-20 8.49091E-18
 -1        26 9.47557E-05-2.85221E-05-2.84331E-05 2.39229E-07 1.72641E-20 5.95443E-18
 -1        27 9.71468E-05-2.92099E-05-2.91489E-05 1.96850E-07-1.76797E-19 4.23743E-18
 -1        28 1.00645E-04-3.02344E-05-3.02181E-05 1.90593E-07-1.28420E-20 3.15046E-18
 -1        29 1.05072E-04-3.15441E-05-3.15567E-05 2.08207E-07 3.26621E-20 2.70092E-18
 -1        30 1.10265E-04-3.30861E-05-3.31099E-05 2.40164E-07 1.49465E-20 2.08831E-18
 -1        31 1.15915E-04-3.47649E-05-3.47729E-05 2.70833E-07-2.70971E-20 1.06832E-18
 -1        32 1.21369E-04-3.63871E-05-3.63329E-05 2.67371E-07-1.82043E-19 2.79177E-19
 -1        33 1.25443E-04-3.76047E-05-3.74246E-05 1.70350E-07 1.49389E-19-1.35069E-19
 -1        34 1.26383E-04-3.78992E-05-3.75491E-05-9.71417E-08 8.45279E-20 2.55056E-19
 -1        35 1.22308E-04-3.67032E-05-3.62452E-05-5.65761E-07-1.24401E-19-9.19295E-19
 -1        36 1.12508E-04-3.37773E-05-3.34644E-05-1.08878E-06 5.62516E-20-1.01030E-18
 -1        37 9.92120E-05-2.97631E-05-2.99332E-05-1.28790E-06-7.29962E-20-7.16537E-19
 -1        38 8.80357E-05-2.63566E-05-2.71031E-05-8.00586E-07-1.58898E-19-1.89794E-18
 -1        39 8.51367E-05-2.54673E-05-2.63949E-05 2.26915E-07-2.03850E-19-3.62601E-18
 -1        40 9.23799E-05-2.76811E-05-2.82148E-05 1.09938E-06 6.36664E-20-5.80768E-18
 -1        41 1.05664E-04-3.17145E-05-3.16549E-05 1.28757E-06 3.21274E-19-7.72981E-18
 -1        42 1.18481E-04-3.55670E-05-3.51565E-05 8.99780E-07-5.53880E-20-7.80917E-18
 -1        43 1.26470E-04-3.79399E-05-3.75117E-05 3.66892E-07-5.16822E-21-5.90136E-18
 -1        44 1.28812E-04-3.86201E-05-3.83463E-05-1.91088E-08-1.96737E-20-4.58324E-18
 -1        45 1.26925E-04-3.80480E-05-3.79352E-05-2.01975E-07 1.14378E-19-4.52662E-18
 -1        46 1.22744E-04-3.68016E-05-3.67908E-05-2.43369E-07 5.64145E-20-5.88151E-18
 -1        47 1.17802E-04-3.53316E-05-3.53655E-05-2.16133E-07 3.75358E-19-5.16396E-18
 -1        48 1.13022E-04-3.39087E-05-3.39523E-05-1.67558E-07 2.76194E-20-4.30299E-18
 -1        49 1.08840E-04-3.26613E-05-3.26993E-05-1.20224E-07-5.93072E-20-4.25199E-18
 -1        50 1.05390E-04-3.16300E-05-3.16583E-05-8.18864E-08 1.00560E-20-4.03732E-18
 -1        51 1.02652E-04-3.08094E-05-3.08285E-05-5.34570E-08-1.47859E-19-3.08971E-18
 -1        52 1.00535E-04-3.01738E-05-3.01860E-05-3.34024E-08 7.68587E-20-4.19732E-18
 -1        53 9.89342E-05-2.96920E-05-2.96992E-05-1.97096E-08 5.85957E-19-3.18158E-18
 -1        54 9.77449E-05-2.93334E-05-2.93374E-05-1.05986E-08-3.58546E-20-3.30077E-18
 -1        55 9.68770E-05-2.90713E-05-2.90732E-05-4.69170E-09-2.84579E-19-4.74350E-18
 -1        56 9.62557E-05-2.88833E-05-2.88839E-05-9.85726E-10 3.75598E-19-4.87566E-18
 -1        57 9.58206E-05-2.87514E-05-2.87513E-05 1.22890E-09-3.16454E-19-3.61282E-18
 -1        58 9.55242E-05-2.86613E-05-2.86608E-05 2.44736E-09 1.14393E-19-5.50155E-18
 -1        59 9.53295E-05-2.86019E-05-2.86012E-05 3.01347E-09 2.08027E-19-3.39575E-18
 -1        60 9.52081E-05-2.85648E-05-2.85640E-05 3.16523E-09-1.94261E-19-5.07964E-19
 -1        61 9.51388E-05-2.85433E-05-2.85426E-05 3.06682E-09-9.53740E-20 3.62757E-20
 -1        62 9.51054E-05-2.85329E-05-2.85322E-05 2.83062E-09 2.81869E-19-3.26051E-18
 -1        63 9.50962E-05-2.85297E-05-2.85291E-05 2.53256E-09-7.59618E-19-6.49476E-18
 -1        64 9.51027E-05-2.85314E-05-2.85309E-05 2.22272E-09-1.32336E-19-9.03898E-18
 -1        65 9.51189E-05-2.85361E-05-2.85357E-05 1.93251E-09 6.05225E-20-7.81938E-18
 -1        66 9.51404E-05-2.85424E-05-2.85421E-05 1.67905E-09-2.96855E-19-8.04923E-18
 -1        67 9.51643E-05-2.85494E-05-2.85492E-05 1.46650E-09 7.70367E-19-5.06373E-18
 -1        68 9.51881E-05-2.85565E-05-2.85562E-05 1.28209E-09 1.58006E-19-5.06611E-19
 -1        69 9.52099E-05-2.85629E-05-2.85626E-05 1.07526E-09 4.86302E-19-1.11487E-18
 -1        70 9.52271E-05-2.85681E-05-2.85676E-05 6.51437E-10 2.03901E-19-4.73658E-19
 -1        71 9.52368E-05-2.85713E-05-2.85706E-05-5.68276E-11-1.30216E-18-1.95492E-18
 -1        72 1.03296E-04-3.09103E-05-3.45106E-05-2.04783E-06 2.84762E-19 1.87501E-17
 -1        73 9.53933E-05-2.83737E-05-2.97310E-05-3.66895E-07 1.50368E-19 1.44933E-17
 -1        74 9.34108E-05-2.79994E-05-2.82561E-05-1.43368E-07 7.52900E-20 1.14223E-17
 -1        75 9.38497E-05-2.81816E-05-2.81843E-05-1.13672E-07 4.29232E-20 9.32958E-18
 -1        76 9.55226E-05-2.86774E-05-2.86574E-05-1.05147E-07 6.89472E-20 7.66656E-18
 -1        77 9.78591E-05-2.93656E-05-2.93561E-05-1.08395E-07-5.92313E-20 6.89188E-18
 -1        78 1.00498E-04-3.01478E-05-3.01392E-05-1.18805E-07-5.60276E-20 6.93458E-18
 -1        79 1.03096E-04-3.09213E-05-3.08981E-05-1.30023E-07 2.06796E-19 6.24227E-18
 -1        80 1.05240E-04-3.15631E-05-3.15092E-05-1.32320E-07-6.05252E-20 4.64666E-18
 -1        81 1.06428E-04-3.19242E-05-3.18252E-05-1.11327E-07 2.02294E-19 4.29665E-18
 -1        82 1.06117E-04-3.18427E-05-3.16945E-05-5.02965E-08-2.27804E-19 4.27123E-18
 -1        83 1.03876E-04-3.11871E-05-3.10090E-05 6.08754E-08 2.49609E-19 4.49536E-18
 -1        84 9.96487E-05-2.99324E-05-2.97764E-05 2.09935E-07 1.68160E-19 2.87451E-18
 -1        85 9.40263E-05-2.82452E-05-2.81875E-05 3.49431E-07-1.60076E-19 3.07038E-18
 -1        86 8.83458E-05-2.65201E-05-2.66215E-05 4.05829E-07 2.72467E-19 1.17322E-18
 -1        87 8.43631E-05-2.52918E-05-2.55458E-05 3.23766E-07-3.70049E-19 1.05583E-18
 -1        88 8.35163E-05-2.50105E-05-2.53288E-05 1.16831E-07 1.06094E-19 5.01834E-19
 -1        89 8.61838E-05-2.58056E-05-2.60627E-05-1.28452E-07 2.59875E-20-1.89501E-18
 -1        90 9.14755E-05-2.74096E-05-2.75193E-05-3.07404E-07-4.85468E-20-2.31170E-18
 -1        91 9.77268E-05-2.93091E-05-2.92665E-05-3.65737E-07-3.30051E-19-1.49168E-18
 -1        92 1.03311E-04-3.10026E-05-3.08639E-05-3.18443E-07 4.81899E-20 1.01353E-19
 -1        93 1.07219E-04-3.21822E-05-3.20179E-05-2.17374E-07 5.53632E-21-2.12427E-19
 -1        94 1.09177E-04-3.27686E-05-3.26285E-05-1.11614E-07 3.76604E-19-2.15588E-18
 -1        95 1.09442E-04-3.28433E-05-3.27479E-05-2.88650E-08 1.24059E-19-3.41076E-18
 -1        96 1.08507E-04-3.25579E-05-3.25062E-05 2.35844E-08 5.95241E-20-1.97368E-18
 -1        97 1.06879E-04-3.20661E-05-3.20475E-05 5.00451E-08 8.88789E-20-1.96447E-18
 -1        98 1.04968E-04-3.14909E-05-3.14932E-05 5.84992E-08-3.53242E-19-2.37276E-18
 -1        99 1.03054E-04-3.09161E-05-3.09293E-05 5.63365E-08-3.63959E-19-2.17635E-18
 -1       100 1.01303E-04-3.03908E-05-3.04081E-05 4.89571E-08-2.94320E-20-9.10921E-19
 -1       101 9.97952E-05-2.99386E-05-2.99563E-05 3.97836E-08 5.19673E-20 9.14365E-20
 -1       102 9.85536E-05-2.95664E-05-2.95823E-05 3.07381E-08 1.35227E-19-8.62104E-20
 -1       103 9.75676E-05-2.92708E-05-2.92841E-05 2.27508E-08-8.63870E-19 1.19531E-18
 -1       104 9.68088E-05-2.90433E-05-2.90539E-05 1.61580E-08-2.30191E-19 4.11190E-18
 -1       105 9.62418E-05-2.88732E-05-2.88813E-05 1.09716E-08 4.04159E-19 2.39814E-18
 -1       106 9.58309E-05-2.87499E-05-2.87559E-05 7.04718E-09-3.40682E-19 1.09743E-19
 -1       107 9.55427E-05-2.86634E-05-2.86677E-05 4.18032E-09 9.93062E-20-2.56897E-18
 -1       108 9.53486E-05-2.86051E-05-2.86081E-05 2.15891E-09 1.75429E-19-5.06162E-18
 -1       109 9.52248E-05-2.85679E-05-2.85699E-05 7.88405E-10 1.62626E-19-4.31066E-18
 -1       110 9.51520E-05-2.85460E-05-2.85472E-05-9.76279E-11-3.60020E-19-4.07808E-18
 -1       111 9.51153E-05-2.85349E-05-2.85356E-05-6.35370E-10 4.48780E-19-4.50301E-18
 -1       112 9.51034E-05-2.85313E-05-2.85316E-05-9.32745E-10-9.07951E-19-3.67220E-18
 -1       113 9.51079E-05-2.85325E-05-2.85327E-05-1.07327E-09 8.80323E-20-7.32249E-19
 -1       114 9.51225E-05-2.85369E-05-2.85369E-05-1.12035E-09-8.47808E-20-4.23447E-18
 -1       115 9.51430E-05-2.85430E-05-2.85429E-05-1.12120E-09-4.04567E-19-4.49140E-18
 -1       116 9.51661E-05-2.85499E-05-2.85497E-05-1.10898E-09-5.02324E-19-7.89119E-19
 -1       117 9.51894E-05-2.85568E-05-2.85566E-05-1.10113E-09 3.95864E-19-3.70880E-18
 -1       118 9.52108E-05-2.85632E-05-2.85629E-05-1.08674E-09 3.43435E-19-6.57747E-18
 -1       119 9.52277E-05-2.85683E-05-2.85678E-05-9.39166E-10-6.22764E-19-6.59891E-18
 -1       120 9.52368E-05-2.85714E-05-2.85707E-05-2.08696E-10 1.69981E-18-6.27980E-18
 -1       121 9.52374E-05-2.85721E-05-2.85706E-05-1.66969E-11-5.88886E-18-2.75548E-19
 -1       122 9.52402E-05-2.85810E-05-2.85678E-05-7.19860E-10 4.55792E-19 1.56285E-18
 -1       123 9.52447E-05-2.85963E-05-2.85634E-05-9.57400E-10 6.33552E-18 8.88460E-19
 -1       124 9.52499E-05-2.86136E-05-2.85585E-05-9.08415E-10 7.26669E-18-6.76213E-20
 -1       125 9.52547E-05-2.86298E-05-2.85537E-05-7.38023E-10-4.52134E-19-1.92585E-18
 -1       126 9.52586E-05-2.86429E-05-2.85499E-05-5.40454E-10-1.46751E-17-2.23056E-18
 -1       127 9.52614E-05-2.86523E-05-2.85471E-05-3.25306E-10-1.77918E-17 1.24893E-18
 -1       128 9.52629E-05-2.86572E-05-2.85456E-05-1.11351E-10-1.27941E-17 7.58249E-19
 -1       129 9.52629E-05-2.86573E-05-2.85456E-05 1.02249E-10-1.13127E-17-1.17329E-19
 -1       130 9.52615E-05-2.86526E-05-2.85470E-05 3.19108E-10-8.25335E-18 4.56846E-19
 -1       131 9.52587E-05-2.86432E-05-2.85498E-05 5.47285E-10-9.75558E-18-1.05485E-18
 -1       132 9.52548E-05-2.86300E-05-2.85537E-05 7.46904E-10-8.55737E-18 2.07832E-18
 -1       133 9.52499E-05-2.86137E-05-2.85584E-05 9.20175E-10-4.97473E-18-5.33822E-19
 -1       134 9.52447E-05-2.85963E-05-2.85634E-05 1.03001E-09-5.96505E-18-9.63354E-19
 -1       135 9.52402E-05-2.85812E-05-2.85678E-05 1.01311E-09-2.82611E-18-5.63347E-19
 -1       136 9.52377E-05-2.85724E-05-2.85706E-05-2.85803E-10 1.32893E-18 8.29401E-19
 -1       137 2.58411E-05-8.72396E-05 1.55573E-05-2.29021E-05 1.73998E-17 4.44060E-18
 -1       138 7.98753E-06-3.30021E-05 2.94060E-06-1.71042E-05 2.35513E-17 1.01820E-17
 -1       139 1.04073E-05 1.45907E-05-1.43606E-05 2.20482E-05 2.07438E-17 1.47998E-17
 -1       140 5.58040E-05 2.84358E-05-3.48640E-05 7.75073E-05 1.58454E-17 1.82959E-17
 -1       141 1.43597E-04-1.84462E-06-5.45623E-05 1.11842E-04 1.06684E-17 1.80558E-17
 -1       142 2.39868E-04-5.33135E-05-6.99204E-05 9.78995E-05 3.77417E-18 9.45712E-18
 -1       143 3.01756E-04-9.12148E-05-7.80883E-05 3.38581E-05 4.66940E-19-4.03219E-18
 -1       144 2.95934E-04-8.72940E-05-7.73828E-05-4.68821E-05 2.19858E-18-1.59109E-17
 -1       145 2.21739E-04-4.26360E-05-6.72490E-05-1.05503E-04 8.76107E-18-2.32769E-17
 -1       146 1.18133E-04 9.60202E-06-4.97087E-05-1.07454E-04 1.66309E-17-2.56545E-17
 -1       147 4.04580E-05 2.86000E-05-2.95014E-05-6.36595E-05 2.26912E-17-2.28517E-17
 -1       148 6.87665E-06 3.55149E-06-9.37914E-06-9.23689E-06 2.56278E-17-1.64994E-17
 -1       149 1.28202E-05-5.30699E-05 8.17152E-06 2.42755E-05 1.88753E-17-7.88450E-18
 -1       150 3.68033E-05-1.12242E-04 2.02414E-05-8.53045E-06-5.17495E-18-6.20769E-19
 -1       151 2.32123E-05-8.24969E-05 1.45258E-05-2.74782E-05-1.58111E-17-4.76932E-18
 -1       152 6.54665E-06-2.97297E-05 1.89903E-06-1.74493E-05-2.18302E-17-1.09341E-17
 -1       153 1.31186E-05 1.58052E-05-1.61538E-05 2.57195E-05-2.32714E-17-1.84505E-17
 -1       154 6.66845E-05 2.51640E-05-3.78124E-05 8.31740E-05-1.86860E-17-2.22304E-17
 -1       155 1.55604E-04-7.08164E-06-5.69985E-05 1.14418E-04-1.14252E-17-2.06456E-17
 -1       156 2.51603E-04-5.83814E-05-7.18023E-05 9.67507E-05-4.17068E-18-1.20465E-17
 -1       157 3.13498E-04-9.52175E-05-8.00935E-05 2.91243E-05-1.08261E-19 2.48477E-18
 -1       158 3.01119E-04-8.79417E-05-7.84266E-05-5.37518E-05-2.19165E-18 1.50308E-17
 -1       159 2.23287E-04-4.27960E-05-6.76049E-05-1.06535E-04-9.10359E-18 2.37114E-17
 -1       160 1.23146E-04 6.33167E-06-5.05631E-05-1.06857E-04-1.67833E-17 2.63046E-17
 -1       161 4.34620E-05 2.68583E-05-3.04664E-05-6.46206E-05-2.22177E-17 2.38550E-17
 -1       162 7.29817E-06 5.33378E-06-1.05448E-05-1.04857E-05-1.74078E-17 1.31938E-17
 -1       163 1.03520E-05-4.56000E-05 6.14323E-06 2.31371E-05-9.53378E-18 4.30928E-18
 -1       164 2.80319E-05-9.40609E-05 1.70304E-05 2.41309E-05-3.06372E-18 1.37113E-19
 -1       165 9.70606E-05-1.31805E-05-3.61335E-05-2.00390E-05-2.70246E-18 1.34059E-18
 -1       166 9.09994E-05-8.89410E-06-3.53379E-05-1.47525E-05-2.55207E-18-1.59778E-18
 -1       167 8.73930E-05-6.45491E-06-3.47931E-05-1.08435E-05-2.08143E-18-3.28221E-18
 -1       168 8.49729E-05-4.98079E-06-3.43600E-05-7.81712E-06-1.51551E-18-4.17663E-18
 -1       169 8.32395E-05-4.00125E-06-3.40203E-05-5.44282E-06-1.02295E-18-4.53801E-18
 -1       170 8.20231E-05-3.35541E-06-3.37671E-05-3.46901E-06-5.99298E-19-4.76205E-18
 -1       171 8.13405E-05-3.01585E-06-3.36157E-05-1.76393E-06-1.05041E-19-4.74892E-18
 -1       172 8.11835E-05-2.95735E-06-3.35724E-05-1.63436E-07 3.31541E-19-4.71057E-18
 -1       173 8.15302E-05-3.15981E-06-3.36362E-05 1.48495E-06 8.06034E-19-4.58314E-18
 -1       174 8.23460E-05-3.60907E-06-3.37984E-05 3.32170E-06 1.13772E-18-4.40121E-18
 -1       175 8.35755E-05-4.29258E-06-3.40419E-05 5.43796E-06 1.56404E-18-3.94989E-18
 -1       176 8.52764E-05-5.27795E-06-3.43653E-05 8.03701E-06 2.13959E-18-3.23265E-18
 -1       177 8.75837E-05-6.70958E-06-3.47717E-05 1.12457E-05 2.62446E-18-2.09565E-18
 -1       178 9.10619E-05-9.07363E-06-3.52959E-05 1.52486E-05 2.86027E-18-5.21852E-20
 -1       179 9.77461E-05-1.43458E-05-3.59409E-05 1.98901E-05 2.70275E-18 3.68904E-18
 -1       180 1.07360E-04-2.68010E-05-3.56953E-05 1.71892E-05 1.99161E-18 8.52083E-18
 -1       181 1.05827E-04-2.81354E-05-3.32897E-05-1.03827E-05-2.27428E-18 4.86165E-18
 -1       182 1.00679E-04-2.93499E-05-3.05982E-05-2.94483E-06-1.91848E-18 3.60547E-18
 -1       183 9.84770E-05-2.90403E-05-2.97053E-05 2.35201E-07-1.47442E-18 2.70773E-18
 -1       184 9.86192E-05-2.92593E-05-2.96854E-05 2.01591E-06-1.12692E-18 1.83930E-18
 -1       185 1.00091E-04-2.97601E-05-3.01186E-05 3.26854E-06-6.80280E-19 1.31429E-18
 -1       186 1.02531E-04-3.05258E-05-3.08471E-05 4.27477E-06-3.37041E-19 1.06320E-18
 -1       187 1.05707E-04-3.15299E-05-3.17863E-05 5.07610E-06-3.71932E-19 6.34024E-19
 -1       188 1.09402E-04-3.27508E-05-3.28548E-05 5.54978E-06-2.78027E-19 5.95717E-19
 -1       189 1.13307E-04-3.41498E-05-3.39374E-05 5.40131E-06-3.81927E-19 7.99781E-19
 -1       190 1.16930E-04-3.56263E-05-3.48639E-05 4.17035E-06-2.04223E-19 9.99995E-19
 -1       191 1.19524E-04-3.69355E-05-3.54156E-05 1.36163E-06-5.70126E-20 4.22056E-19
 -1       192 1.20124E-04-3.75814E-05-3.53879E-05-3.14328E-06-1.76163E-19 6.36906E-19
 -1       193 1.17832E-04-3.68253E-05-3.47179E-05-8.35150E-06 2.00568E-19 9.99181E-19
 -1       194 1.12613E-04-3.41786E-05-3.36207E-05-1.16620E-05-2.51404E-19 1.25090E-18
 -1       195 1.06276E-04-3.03938E-05-3.25558E-05-9.95280E-06-1.35439E-18 8.53915E-19
 -1       196 1.02359E-04-2.78305E-05-3.20001E-05-2.57991E-06-1.41903E-18-9.90880E-19
 -1       197 1.03643E-04-2.86092E-05-3.22085E-05 6.52735E-06-1.72478E-18-3.04935E-18
 -1       198 1.09327E-04-3.21061E-05-3.31163E-05 1.18271E-05-1.00697E-18-3.89640E-18
 -1       199 1.15898E-04-3.57369E-05-3.43571E-05 1.12033E-05-2.86535E-19-4.59857E-18
 -1       200 1.20350E-04-3.77011E-05-3.54262E-05 6.73810E-06 1.13309E-18-4.91127E-18
 -1       201 1.21736E-04-3.78922E-05-3.59497E-05 1.63636E-06 8.53889E-19-3.79646E-18
 -1       202 1.20574E-04-3.70069E-05-3.58358E-05-2.16134E-06 9.16814E-20-3.39406E-18
 -1       203 1.17849E-04-3.57047E-05-3.52223E-05-4.22398E-06 3.34383E-19-2.80088E-18
 -1       204 1.14437E-04-3.43652E-05-3.43268E-05-4.91095E-06 3.64053E-19-2.10531E-18
 -1       205 1.10945E-04-3.31544E-05-3.33420E-05-4.75608E-06 1.83898E-19-2.01101E-18
 -1       206 1.07722E-04-3.21252E-05-3.23966E-05-4.19087E-06-8.44386E-20-2.43173E-18
 -1       207 1.04927E-04-3.12801E-05-3.15583E-05-3.48913E-06 1.03654E-20-2.63651E-18
 -1       208 1.02605E-04-3.06021E-05-3.08523E-05-2.79821E-06 8.06865E-19-2.77565E-18
 -1       209 1.00732E-04-3.00682E-05-3.02786E-05-2.18474E-06-4.67568E-19-1.56022E-18
 -1       210 9.92571E-05-2.96545E-05-2.98244E-05-1.67028E-06-9.72077E-19-2.17905E-18
 -1       211 9.81181E-05-2.93386E-05-2.94724E-05-1.25394E-06-1.96122E-19-3.09252E-18
 -1       212 9.72538E-05-2.91012E-05-2.92045E-05-9.25140E-07-6.40288E-19-2.69328E-18
 -1       213 9.66090E-05-2.89256E-05-2.90042E-05-6.70242E-07 1.57278E-19-2.77763E-18
 -1       214 9.61365E-05-2.87981E-05-2.88570E-05-4.75702E-07 5.75903E-19-3.12323E-18
 -1       215 9.57970E-05-2.87074E-05-2.87509E-05-3.29371E-07-1.75637E-19-2.75854E-18
 -1       216 9.55588E-05-2.86445E-05-2.86762E-05-2.20909E-07 2.79900E-19-2.76346E-18
 -1       217 9.53963E-05-2.86023E-05-2.86250E-05-1.41773E-07 9.04117E-19-4.47067E-18
 -1       218 9.52899E-05-2.85753E-05-2.85912E-05-8.50470E-08 5.40124E-19-2.50089E-18
 -1       219 9.52240E-05-2.85592E-05-2.85701E-05-4.52145E-08-1.42095E-18-7.76457E-19
 -1       220 9.51870E-05-2.85508E-05-2.85580E-05-1.79370E-08-2.48109E-18-1.56491E-18
 -1       221 9.51700E-05-2.85477E-05-2.85522E-05 1.46961E-10-1.53515E-18-2.98848E-18
 -1       222 9.51666E-05-2.85480E-05-2.85507E-05 1.15921E-08 9.17079E-19-3.28757E-18
 -1       223 9.51718E-05-2.85505E-05-2.85519E-05 1.82835E-08 9.13154E-19-1.50525E-18
 -1       224 9.51822E-05-2.85543E-05-2.85548E-05 2.15405E-08 2.48237E-18 2.68588E-19
 -1       225 9.51952E-05-2.85588E-05-2.85584E-05 2.21851E-08 1.46998E-18-6.87621E-19
 -1       226 9.52086E-05-2.85634E-05-2.85622E-05 2.05763E-08-1.10776E-18-2.42644E-18
 -1       227 9.52209E-05-2.85678E-05-2.85656E-05 1.66302E-08 1.12963E-18-2.97957E-18
 -1       228 9.52309E-05-2.85718E-05-2.85682E-05 1.01273E-08 2.02559E-20-1.25256E-19
 -1       229 1.02117E-04-2.93811E-05-3.13440E-05 5.90218E-06 2.12162E-18 7.36779E-18
 -1       230 9.81407E-05-2.89047E-05-2.96399E-05 1.47491E-06 1.49058E-18 5.79727E-18
 -1       231 9.70277E-05-2.88521E-05-2.91730E-05-4.22228E-07 1.12088E-18 4.44974E-18
 -1       232 9.74068E-05-2.90804E-05-2.92569E-05-1.42158E-06 7.69700E-19 3.67316E-18
 -1       233 9.86374E-05-2.95166E-05-2.96116E-05-1.97053E-06 3.36602E-19 3.33105E-18
 -1       234 1.00317E-04-3.00832E-05-3.00960E-05-2.19351E-06 6.91136E-20 3.05637E-18
 -1       235 1.02117E-04-3.06993E-05-3.06073E-05-2.09073E-06 5.46227E-19 2.84366E-18
 -1       236 1.03711E-04-3.12728E-05-3.10454E-05-1.60719E-06 5.57018E-19 2.66874E-18
 -1       237 1.04738E-04-3.16910E-05-3.13054E-05-6.83947E-07 2.03121E-19 2.18842E-18
 -1       238 1.04833E-04-3.18188E-05-3.12885E-05 6.74180E-07-1.99238E-19 2.69499E-18
 -1       239 1.03703E-04-3.15201E-05-3.09295E-05 2.30978E-06 4.13020E-19 2.78208E-18
 -1       240 1.01281E-04-3.07125E-05-3.02370E-05 3.83987E-06 6.83064E-19 2.70837E-18
 -1       241 9.78919E-05-2.94566E-05-2.93267E-05 4.68321E-06 1.33871E-19 1.67689E-18
 -1       242 9.43332E-05-2.80352E-05-2.84191E-05 4.27594E-06 7.75215E-19 8.99476E-19
 -1       243 9.17175E-05-2.69252E-05-2.77812E-05 2.44810E-06 1.94970E-19 8.83163E-19
 -1       244 9.10153E-05-2.65866E-05-2.76260E-05-3.12236E-07 7.99053E-19-8.93554E-20
 -1       245 9.25511E-05-2.71891E-05-2.80183E-05-3.01541E-06 1.17146E-18-6.88873E-19
 -1       246 9.58145E-05-2.84954E-05-2.88465E-05-4.70740E-06 3.70110E-19-1.98115E-18
 -1       247 9.97528E-05-3.00182E-05-2.98754E-05-4.98569E-06-8.81723E-19-1.48134E-18
 -1       248 1.03307E-04-3.13075E-05-3.08465E-05-4.08587E-06-3.59016E-19-1.39466E-18
 -1       249 1.05800E-04-3.21263E-05-3.15689E-05-2.58143E-06 7.61271E-19-1.77369E-18
 -1       250 1.07022E-04-3.24505E-05-3.19592E-05-1.02658E-06 9.03900E-19-2.18141E-18
 -1       251 1.07107E-04-3.23807E-05-3.20294E-05 2.33654E-07 2.37176E-19-2.33474E-18
 -1       252 1.06358E-04-3.20544E-05-3.18494E-05 1.07655E-06-9.97574E-19-2.22588E-18
 -1       253 1.05101E-04-3.15943E-05-3.15075E-05 1.52729E-06-1.30747E-19-9.01004E-19
 -1       254 1.03615E-04-3.10906E-05-3.10850E-05 1.67673E-06-1.85475E-20-1.86630E-19
 -1       255 1.02100E-04-3.06015E-05-3.06440E-05 1.62638E-06-3.44763E-19 5.95543E-19
 -1       256 1.00686E-04-3.01598E-05-3.02258E-05 1.46210E-06-8.18371E-19 6.41208E-19
 -1       257 9.94398E-05-2.97804E-05-2.98536E-05 1.24647E-06-4.44582E-19 6.78791E-19
 -1       258 9.83897E-05-2.94668E-05-2.95374E-05 1.02037E-06-5.67472E-19 1.52426E-18
 -1       259 9.75351E-05-2.92155E-05-2.92786E-05 8.07734E-07-1.15313E-18 2.97208E-18
 -1       260 9.68603E-05-2.90198E-05-2.90732E-05 6.20636E-07-3.54838E-19 1.97682E-18
 -1       261 9.63418E-05-2.88712E-05-2.89147E-05 4.63493E-07 1.51996E-18 1.85972E-18
 -1       262 9.59540E-05-2.87614E-05-2.87958E-05 3.36148E-07 5.94807E-19 1.06203E-18
 -1       263 9.56719E-05-2.86825E-05-2.87088E-05 2.35974E-07 1.32346E-18-6.22327E-19
 -1       264 9.54730E-05-2.86276E-05-2.86473E-05 1.59235E-07 4.41272E-19-1.78162E-18
 -1       265 9.53380E-05-2.85909E-05-2.86053E-05 1.01907E-07-9.95491E-19-1.07462E-18
 -1       266 9.52508E-05-2.85678E-05-2.85780E-05 6.01489E-08 2.17002E-20 2.95317E-19
 -1       267 9.51986E-05-2.85544E-05-2.85614E-05 3.05422E-08 5.51278E-19-6.91776E-19
 -1       268 9.51715E-05-2.85480E-05-2.85526E-05 1.01877E-08-6.22228E-19-5.10533E-19
 -1       269 9.51616E-05-2.85463E-05-2.85492E-05-3.27790E-09-4.19385E-20-3.17990E-18
 -1       270 9.51632E-05-2.85477E-05-2.85494E-05-1.17091E-08 8.04753E-20-1.88907E-18
 -1       271 9.51720E-05-2.85510E-05-2.85518E-05-1.64939E-08 4.88849E-19-9.34994E-19
 -1       272 9.51849E-05-2.85553E-05-2.85555E-05-1.85938E-08-8.86459E-19-2.06405E-18
 -1       273 9.51993E-05-2.85601E-05-2.85597E-05-1.85671E-08 9.34973E-19-2.33275E-19
 -1       274 9.52134E-05-2.85647E-05-2.85637E-05-1.65778E-08 1.33022E-18-6.79841E-19
 -1       275 9.52253E-05-2.85689E-05-2.85670E-05-1.23997E-08-5.07076E-20-2.32709E-18
 -1       276 9.52338E-05-2.85721E-05-2.85693E-05-5.91399E-09 1.52099E-19-2.34595E-18
 -1       277 9.52369E-05-2.85778E-05-2.85682E-05-9.99947E-09-2.93472E-19 4.28903E-18
 -1       278 9.52409E-05-2.85872E-05-2.85659E-05-1.51286E-08 1.74774E-18 2.94561E-18
 -1       279 9.52452E-05-2.85980E-05-2.85631E-05-1.68712E-08-3.51604E-19 6.43255E-19
 -1       280 9.52491E-05-2.86089E-05-2.85601E-05-1.58868E-08-2.21214E-18-4.11478E-18
 -1       281 9.52523E-05-2.86184E-05-2.85574E-05-1.31474E-08-4.30946E-18-7.90975E-18
 -1       282 9.52547E-05-2.86258E-05-2.85552E-05-9.28119E-09-4.21078E-18-2.60878E-18
 -1       283 9.52562E-05-2.86305E-05-2.85539E-05-4.81754E-09-4.94509E-18 2.54550E-18
 -1       284 9.52568E-05-2.86321E-05-2.85534E-05-8.73184E-11-3.76601E-18 1.48484E-18
 -1       285 9.52563E-05-2.86306E-05-2.85538E-05 4.67016E-09-3.40644E-18-3.13348E-19
 -1       286 9.52548E-05-2.86260E-05-2.85552E-05 9.20970E-09-4.84452E-18-8.10731E-19
 -1       287 9.52524E-05-2.86188E-05-2.85573E-05 1.31197E-08-3.71067E-18 7.86276E-19
 -1       288 9.52492E-05-2.86091E-05-2.85600E-05 1.59979E-08-3.17381E-18 1.77801E-18
 -1       289 9.52452E-05-2.85982E-05-2.85630E-05 1.70325E-08-1.02501E-18 1.06396E-18
 -1       290 9.52408E-05-2.85871E-05-2.85659E-05 1.50256E-08-2.29798E-19 6.87608E-19
 -1       291 9.52362E-05-2.85790E-05-2.85674E-05 1.45993E-08-1.26226E-19 2.02971E-18
 -1       292 1.24158E-05-4.68405E-05 1.16009E-05 9.20848E-06 3.86522E-18 7.11561E-18
 -1       293 2.67235E-05-4.25839E-05 4.17863E-06 2.32311E-05 6.30087E-18 5.78735E-18
 -1       294 5.12685E-05-3.51662E-05-8.64205E-06 3.47124E-05 9.00269E-18 4.98807E-18
 -1       295 8.97327E-05-3.18667E-05-2.51722E-05 4.45561E-05 7.55850E-18 5.98979E-18
 -1       296 1.30935E-04-2.85389E-05-4.27761E-05 4.84041E-05 6.84657E-18 5.83542E-18
 -1       297 1.70770E-04-3.19992E-05-5.74524E-05 3.44535E-05 6.60249E-18 8.98278E-19
 -1       298 1.99269E-04-3.35994E-05-6.79692E-05 2.02231E-05 6.20325E-18-2.35126E-18
 -1       299 2.08255E-04-3.45393E-05-7.11467E-05-2.03143E-06 6.12447E-18-5.32814E-18
 -1       300 1.92737E-04-3.18746E-05-6.62125E-05-2.23833E-05 6.30711E-18-8.20627E-18
 -1       301 1.63772E-04-3.16636E-05-5.46350E-05-4.05926E-05 8.02360E-18-1.02692E-17
 -1       302 1.23517E-04-3.30713E-05-3.81263E-05-4.48705E-05 8.76234E-18-1.03986E-17
 -1       303 7.77655E-05-3.12983E-05-2.06555E-05-4.29339E-05 1.02919E-17-1.00270E-17
 -1       304 4.61862E-05-3.96320E-05-4.61854E-06-3.40928E-05 6.86541E-18-8.47463E-18
 -1       305 2.05074E-05-4.62219E-05 7.89436E-06-1.71760E-05 5.19379E-18-8.01860E-18
 -1       306 1.17571E-05-5.09399E-05 1.31428E-05-4.05790E-06 6.03405E-19-6.13951E-18
 -1       307 1.46688E-05-4.94846E-05 1.14111E-05 8.63608E-06-3.62011E-18-6.53645E-18
 -1       308 2.93872E-05-4.41641E-05 3.40526E-06 2.16287E-05-6.79320E-18-7.15968E-18
 -1       309 5.65065E-05-3.74306E-05-1.00030E-05 3.46172E-05-8.51840E-18-8.30812E-18
 -1       310 9.84279E-05-3.53835E-05-2.73692E-05 4.36530E-05-8.45360E-18-7.56655E-18
 -1       311 1.40658E-04-3.26148E-05-4.50945E-05 4.57536E-05-8.42946E-18-7.31455E-18
 -1       312 1.80872E-04-3.49334E-05-5.98767E-05 3.80735E-05-7.36749E-18-4.45751E-18
 -1       313 1.99458E-04-3.25674E-05-6.87022E-05 1.41569E-05-7.50175E-18 1.21443E-19
 -1       314 2.12994E-04-3.58923E-05-7.23367E-05-2.77014E-06-6.66361E-18 3.91851E-18
 -1       315 1.96563E-04-3.44298E-05-6.66080E-05-1.98855E-05-6.98982E-18 7.11317E-18
 -1       316 1.68373E-04-3.52719E-05-5.50363E-05-3.73235E-05-7.67489E-18 1.02093E-17
 -1       317 1.25431E-04-3.25777E-05-3.91419E-05-4.56410E-05-8.79135E-18 1.06222E-17
 -1       318 8.24411E-05-3.38409E-05-2.17077E-05-4.11840E-05-6.01796E-18 1.14822E-17
 -1       319 4.70581E-05-3.89334E-05-5.67492E-06-3.00476E-05-4.22055E-18 9.27734E-18
 -1       320 2.43616E-05-4.34151E-05 5.58224E-06-2.03324E-05-1.50539E-18 5.46739E-18
 -1       321 1.24199E-05-4.97815E-05 1.25470E-05-4.33405E-06 1.40983E-18 3.11761E-18
 -1       322 9.29869E-05-1.44274E-05-3.37316E-05-9.95003E-06-2.65949E-18-1.59719E-18
 -1       323 9.80477E-05-1.97861E-05-3.35982E-05-1.18218E-05-2.90037E-18 1.60725E-19
 -1       324 8.67421E-05-8.89483E-06-3.34106E-05-5.52140E-06-1.58285E-18-3.31169E-18
 -1       325 8.48037E-05-7.37119E-06-3.32249E-05-3.75828E-06-1.00064E-18-3.61315E-18
 -1       326 8.35831E-05-6.46346E-06-3.30858E-05-2.26469E-06-4.18239E-19-3.64625E-18
 -1       327 8.30653E-05-6.10493E-06-3.30155E-05-9.10141E-07 1.94162E-19-3.58911E-18
 -1       328 8.32254E-05-6.25161E-06-3.30218E-05 4.45400E-07 7.22566E-19-3.55383E-18
 -1       329 8.40201E-05-6.87044E-06-3.31002E-05 1.93052E-06 1.18282E-18-3.50670E-18
 -1       330 8.53718E-05-7.92628E-06-3.32327E-05 3.61946E-06 1.64842E-18-3.08083E-18
 -1       331 8.73067E-05-9.49424E-06-3.33992E-05 5.63762E-06 2.26635E-18-2.45858E-18
 -1       332 8.98767E-05-1.17203E-05-3.35603E-05 7.96286E-06 2.82498E-18-1.75798E-18
 -1       333 9.33536E-05-1.50059E-05-3.36563E-05 1.04253E-05 3.11907E-18-5.58380E-19
 -1       334 9.79902E-05-2.01636E-05-3.34584E-05 1.19699E-05 3.14143E-18 1.92027E-18
 -1       335 1.01258E-04-2.52706E-05-3.26473E-05 9.90863E-06 2.75793E-18 4.06379E-18
 -1       336 9.95877E-05-2.77449E-05-3.07580E-05 3.67600E-06 2.16865E-18 3.19604E-18
 -1       337 9.97356E-05-2.67359E-05-3.12379E-05-3.18556E-06-2.16590E-18 4.95523E-19
 -1       338 9.91669E-05-2.78260E-05-3.05448E-05 9.56960E-07-1.71404E-18 2.82533E-19
 -1       339 9.93836E-05-2.84244E-05-3.03914E-05 3.73179E-06-1.33469E-18 1.51015E-19
 -1       340 1.00340E-04-2.89825E-05-3.05698E-05 5.82878E-06-5.63700E-19-7.39119E-20
 -1       341 1.01948E-04-2.96868E-05-3.09624E-05 7.49467E-06-4.34265E-19-2.25492E-20
 -1       342 1.04146E-04-3.06821E-05-3.14833E-05 8.72289E-06-3.93980E-19-6.80191E-20
 -1       343 1.06915E-04-3.21376E-05-3.20539E-05 9.27662E-06-1.65692E-19-1.46038E-19
 -1       344 1.10260E-04-3.42338E-05-3.25994E-05 8.67731E-06-2.82706E-20-3.30608E-20
 -1       345 1.14119E-04-3.70237E-05-3.30692E-05 6.24562E-06 1.18303E-20 1.22886E-19
 -1       346 1.18140E-04-4.00897E-05-3.34872E-05 1.34756E-06 4.19295E-19 8.80794E-19
 -1       347 1.21279E-04-4.20240E-05-3.40084E-05-5.90390E-06 4.22441E-20 1.47228E-18
 -1       348 1.21734E-04-4.04544E-05-3.48770E-05-1.33688E-05 2.35358E-19 1.94372E-18
 -1       349 1.18320E-04-3.40502E-05-3.62008E-05-1.62798E-05-1.16957E-18 1.55003E-18
 -1       350 1.13168E-04-2.59549E-05-3.75142E-05-1.01131E-05-3.11058E-18 6.03563E-19
 -1       351 1.11562E-04-2.34308E-05-3.79122E-05 3.25962E-06-3.34234E-18-1.62629E-18
 -1       352 1.15405E-04-2.90623E-05-3.71186E-05 1.45464E-05-1.84424E-18-2.48964E-18
 -1       353 1.20635E-04-3.73172E-05-3.57767E-05 1.67614E-05-1.06670E-18-2.98205E-18
 -1       354 1.22677E-04-4.18433E-05-3.46845E-05 1.13134E-05 4.69999E-19-2.81281E-18
 -1       355 1.21114E-04-4.17377E-05-3.40572E-05 3.54135E-06 1.62212E-18-2.08117E-18
 -1       356 1.17650E-04-3.91511E-05-3.36758E-05-2.79824E-06 8.03932E-19-1.82705E-18
 -1       357 1.13834E-04-3.61644E-05-3.33106E-05-6.58144E-06 1.24107E-18-8.18073E-19
 -1       358 1.10364E-04-3.37222E-05-3.28590E-05-8.14620E-06 4.61808E-19-6.75046E-19
 -1       359 1.07412E-04-3.19985E-05-3.23236E-05-8.23549E-06 1.83531E-19-1.23749E-18
 -1       360 1.04949E-04-3.08577E-05-3.17511E-05-7.51760E-06-2.99631E-19-1.95251E-18
 -1       361 1.02905E-04-3.01151E-05-3.11905E-05-6.45463E-06-1.74399E-19-1.25230E-18
 -1       362 1.01218E-04-2.96258E-05-3.06763E-05-5.32154E-06 2.94576E-19-1.24563E-18
 -1       363 9.98383E-05-2.92949E-05-3.02271E-05-4.26162E-06 7.90132E-19-2.61454E-18
 -1       364 9.87239E-05-2.90652E-05-2.98486E-05-3.33695E-06-2.91525E-19-2.56419E-18
 -1       365 9.78360E-05-2.89024E-05-2.95387E-05-2.56412E-06-2.86654E-19-1.76687E-18
 -1       366 9.71388E-05-2.87861E-05-2.92906E-05-1.93675E-06-4.17576E-19-1.72706E-18
 -1       367 9.65998E-05-2.87031E-05-2.90959E-05-1.43830E-06-4.39672E-19-7.61276E-19
 -1       368 9.61899E-05-2.86448E-05-2.89458E-05-1.04912E-06 3.51888E-19-1.25090E-18
 -1       369 9.58833E-05-2.86047E-05-2.88321E-05-7.49904E-07 5.70368E-19-1.27716E-18
 -1       370 9.56584E-05-2.85782E-05-2.87475E-05-5.23197E-07-1.61416E-19-1.66239E-18
 -1       371 9.54970E-05-2.85616E-05-2.86857E-05-3.53963E-07-1.07065E-18-2.12519E-18
 -1       372 9.53840E-05-2.85522E-05-2.86416E-05-2.29614E-07 2.04350E-18-2.29137E-18
 -1       373 9.53076E-05-2.85478E-05-2.86109E-05-1.39834E-07 1.11260E-18-1.83806E-18
 -1       374 9.52582E-05-2.85468E-05-2.85903E-05-7.63117E-08-1.28952E-18-3.79984E-19
 -1       375 9.52284E-05-2.85480E-05-2.85771E-05-3.24555E-08-2.01441E-18 2.08145E-18
 -1       376 9.52125E-05-2.85507E-05-2.85692E-05-3.13293E-09-6.13834E-19 3.39348E-18
 -1       377 9.52063E-05-2.85541E-05-2.85651E-05 1.55638E-08 1.92078E-18 1.53597E-18
 -1       378 9.52063E-05-2.85580E-05-2.85636E-05 2.65123E-08 1.99187E-18 1.62642E-18
 -1       379 9.52104E-05-2.85621E-05-2.85635E-05 3.17163E-08 3.08391E-19-5.24290E-19
 -1       380 9.52166E-05-2.85664E-05-2.85644E-05 3.24269E-08-8.17641E-19-4.43936E-19
 -1       381 9.52238E-05-2.85710E-05-2.85655E-05 2.93269E-08-5.43881E-19 2.22552E-18
 -1       382 9.52299E-05-2.85750E-05-2.85665E-05 2.32309E-08 2.11422E-18 1.87939E-18
 -1       383 9.84777E-05-2.84798E-05-2.99602E-05 2.28289E-07 1.76867E-18 2.53590E-18
 -1       384 9.83329E-05-2.88994E-05-2.97350E-05-1.72581E-06 9.98387E-19 1.98136E-18
 -1       385 9.89720E-05-2.93724E-05-2.98190E-05-2.84480E-06 4.91430E-19 1.71541E-18
 -1       386 1.00118E-04-2.99569E-05-3.00673E-05-3.36907E-06 2.54820E-19 1.44574E-18
 -1       387 1.01528E-04-3.06450E-05-3.03821E-05-3.34029E-06 3.47803E-19 1.27723E-18
 -1       388 1.02963E-04-3.13907E-05-3.06817E-05-2.70175E-06 8.18944E-19 1.64457E-18
 -1       389 1.04158E-04-3.21005E-05-3.08931E-05-1.37834E-06 1.67838E-19 1.70215E-18
 -1       390 1.04816E-04-3.26109E-05-3.09578E-05 6.25206E-07-3.24121E-19 1.88176E-18
 -1       391 1.04632E-04-3.26848E-05-3.08461E-05 3.09419E-06 2.10324E-19 1.81306E-18
 -1       392 1.03390E-04-3.20721E-05-3.05719E-05 5.48654E-06 7.96418E-19 1.98302E-18
 -1       393 1.01138E-04-3.06692E-05-3.02008E-05 6.94239E-06 1.06013E-18 1.58123E-18
 -1       394 9.83768E-05-2.87405E-05-2.98362E-05 6.56489E-06 1.07519E-18 1.04464E-18
 -1       395 9.60661E-05-2.70033E-05-2.95840E-05 3.98767E-06 6.12239E-19 3.19446E-19
 -1       396 9.52172E-05-2.62954E-05-2.95199E-05-1.39412E-07 1.09351E-18-1.67363E-19
 -1       397 9.62797E-05-2.70103E-05-2.96685E-05-4.32024E-06 1.84007E-18-8.18371E-19
 -1       398 9.88248E-05-2.87885E-05-3.00014E-05-7.02248E-06 9.65670E-19-1.13160E-18
 -1       399 1.01839E-04-3.07901E-05-3.04441E-05-7.55189E-06-7.71027E-19-1.57658E-18
 -1       400 1.04367E-04-3.22938E-05-3.08927E-05-6.23333E-06-2.07595E-19-2.08888E-18
 -1       401 1.05899E-04-3.30165E-05-3.12469E-05-3.94267E-06 7.62568E-19-2.20358E-18
 -1       402 1.06381E-04-3.30506E-05-3.14416E-05-1.53877E-06 1.15766E-18-1.88409E-18
 -1       403 1.06018E-04-3.26451E-05-3.14585E-05 4.35604E-07 1.63831E-19-1.75136E-18
 -1       404 1.05094E-04-3.20388E-05-3.13190E-05 1.77771E-06-8.64544E-19-1.29957E-18
 -1       405 1.03867E-04-3.13933E-05-3.10661E-05 2.51353E-06-7.19392E-19-1.60458E-18
 -1       406 1.02533E-04-3.07951E-05-3.07476E-05 2.77412E-06-5.21183E-19-4.83229E-19
 -1       407 1.01226E-04-3.02799E-05-3.04054E-05 2.71204E-06-2.79155E-19 1.48161E-18
 -1       408 1.00024E-04-2.98554E-05-3.00709E-05 2.45998E-06-1.38851E-19 1.39138E-18
 -1       409 9.89709E-05-2.95160E-05-2.97642E-05 2.11726E-06-2.60985E-19 1.00977E-18
 -1       410 9.80807E-05-2.92507E-05-2.94961E-05 1.75058E-06-1.12552E-18 2.02037E-18
 -1       411 9.73505E-05-2.90473E-05-2.92703E-05 1.40040E-06-3.61219E-19 1.77357E-18
 -1       412 9.67672E-05-2.88944E-05-2.90861E-05 1.08818E-06 4.10911E-19 1.09640E-18
 -1       413 9.63126E-05-2.87816E-05-2.89400E-05 8.22761E-07 8.32192E-19-8.41082E-21
 -1       414 9.59666E-05-2.87002E-05-2.88268E-05 6.05176E-07 8.31352E-19 1.73948E-18
 -1       415 9.57095E-05-2.86431E-05-2.87415E-05 4.32057E-07 2.35635E-18 1.96883E-18
 -1       416 9.55235E-05-2.86041E-05-2.86788E-05 2.97886E-07 8.58190E-19 1.54636E-18
 -1       417 9.53930E-05-2.85788E-05-2.86339E-05 1.96415E-07-1.07391E-18 1.14434E-18
 -1       418 9.53048E-05-2.85632E-05-2.86030E-05 1.21507E-07-3.45799E-20-2.06039E-19
 -1       419 9.52482E-05-2.85547E-05-2.85825E-05 6.75833E-08-8.81465E-20 5.88260E-19
 -1       420 9.52148E-05-2.85510E-05-2.85699E-05 2.98420E-08-1.86636E-19 3.64158E-19
 -1       421 9.51977E-05-2.85506E-05-2.85629E-05 4.31152E-09 6.26564E-19 8.54226E-19
 -1       422 9.51919E-05-2.85523E-05-2.85597E-05-1.21669E-08 4.17404E-19 1.91268E-19
 -1       423 9.51937E-05-2.85553E-05-2.85592E-05-2.19975E-08 4.88453E-19-5.49685E-19
 -1       424 9.52000E-05-2.85590E-05-2.85604E-05-2.68987E-08-8.27511E-19 6.88673E-19
 -1       425 9.52087E-05-2.85632E-05-2.85623E-05-2.79639E-08-7.41032E-19 1.19960E-18
 -1       426 9.52181E-05-2.85675E-05-2.85645E-05-2.57129E-08 1.70211E-18 1.87479E-18
 -1       427 9.52271E-05-2.85720E-05-2.85665E-05-2.02604E-08 7.36298E-19 4.45842E-18
 -1       428 9.52325E-05-2.85751E-05-2.85675E-05-1.56934E-08 1.00949E-18 4.11784E-18
 -1       429 9.52454E-05-2.85946E-05-2.85646E-05-2.64095E-08-2.42856E-18-2.80943E-18
 -1       430 9.52402E-05-2.85869E-05-2.85658E-05-2.63337E-08 7.25771E-20-8.46086E-19
 -1       431 9.52361E-05-2.85810E-05-2.85665E-05-2.23944E-08 8.24476E-19 5.01404E-18
 -1       432 9.52492E-05-2.86011E-05-2.85634E-05-2.32452E-08-3.11541E-18-7.72348E-18
 -1       433 9.52519E-05-2.86063E-05-2.85624E-05-1.78861E-08-1.08778E-18-3.77720E-18
 -1       434 9.52536E-05-2.86099E-05-2.85615E-05-1.12382E-08 8.15161E-19 5.34589E-19
 -1       435 9.52545E-05-2.86118E-05-2.85611E-05-3.92587E-09-6.86832E-19 1.97385E-18
 -1       436 9.52545E-05-2.86119E-05-2.85611E-05 3.61819E-09-1.27128E-18-7.97921E-20
 -1       437 9.52538E-05-2.86101E-05-2.85615E-05 1.10206E-08-2.72496E-18-1.68697E-18
 -1       438 9.52521E-05-2.86067E-05-2.85623E-05 1.77145E-08-2.33387E-18 3.68722E-19
 -1       439 9.52494E-05-2.86015E-05-2.85634E-05 2.32730E-08-1.02308E-18 3.51861E-18
 -1       440 9.52455E-05-2.85948E-05-2.85646E-05 2.66469E-08 1.48492E-20 2.62286E-18
 -1       441 9.52402E-05-2.85871E-05-2.85657E-05 2.68605E-08 5.66781E-19 2.55349E-19
 -1       442 5.67149E-05-4.10463E-05-6.93827E-06 4.31058E-05 1.28198E-18 2.35396E-18
 -1       443 1.22079E-05-2.21019E-05 4.15644E-06 2.13942E-06 1.19041E-19 6.02844E-18
 -1       444 2.63159E-05-2.64771E-05 1.26880E-07 2.96120E-05-5.97423E-19 6.22908E-18
 -1       445 9.60782E-05-5.20313E-05-1.89435E-05 4.25741E-05 1.30252E-18 1.01644E-20
 -1       446 1.30084E-04-5.19880E-05-3.34258E-05 2.91168E-05 2.43411E-18 3.37013E-19
 -1       447 8.94030E-05-1.11251E-05-3.36152E-05-7.65216E-06-2.18521E-18-2.76249E-18
 -1       448 1.52627E-04-2.39960E-05-5.53009E-05-3.33517E-06 5.94554E-18-4.49785E-18
 -1       449 1.61576E-04-1.45422E-05-6.27059E-05-4.49010E-07 6.28911E-18-3.02841E-18
 -1       450 1.58865E-04-1.45200E-05-6.16674E-05 5.67421E-07 6.74090E-18-2.42437E-18
 -1       451 1.52641E-04-2.88195E-05-5.32133E-05 1.02392E-06 4.90136E-18-2.08677E-18
 -1       452 1.49469E-04-4.50647E-05-4.46713E-05-1.13057E-05 3.99466E-18-2.57233E-18
 -1       453 1.21525E-04-5.49430E-05-2.86328E-05-3.39080E-05 2.69272E-18-4.15014E-18
 -1       454 8.90553E-05-5.08233E-05-1.63973E-05-4.42526E-05 1.61624E-18-5.43141E-18
 -1       455 4.69930E-05-3.56223E-05-4.74207E-06-4.14126E-05-4.34951E-19-6.95213E-18
 -1       456 1.79740E-05-2.63719E-05 3.33678E-06-2.09452E-05 8.07434E-19-8.25603E-18
 -1       457 1.33523E-05-2.23557E-05 3.79586E-06 6.34401E-06 1.57058E-19-7.84924E-18
 -1       458 3.12702E-05-2.99287E-05-5.76005E-07 3.11197E-05 4.48398E-19-6.54936E-18
 -1       459 6.40524E-05-4.45739E-05-8.46637E-06 4.26610E-05-7.09284E-19-4.63076E-18
 -1       460 1.05134E-04-5.68558E-05-2.07488E-05 3.94407E-05-7.34695E-19-2.40475E-18
 -1       461 1.40172E-04-5.80846E-05-3.52437E-05 2.08004E-05-2.97737E-18 2.02759E-19
 -1       462 1.57457E-04-4.36822E-05-4.84911E-05 9.79265E-06-5.48130E-18 5.33207E-19
 -1       463 1.64586E-04-2.91377E-05-5.77462E-05-3.13106E-07-7.06362E-18 1.15196E-18
 -1       464 1.58866E-04-1.38614E-05-6.20466E-05-1.60185E-06-8.46398E-18 5.53933E-19
 -1       465 1.61450E-04-1.67658E-05-6.18587E-05 3.97088E-06-7.49465E-18 2.46169E-19
 -1       466 1.59830E-04-3.35720E-05-5.41197E-05 3.36245E-06-5.65585E-18 3.27378E-19
 -1       467 1.51476E-04-4.97358E-05-4.35727E-05-1.29387E-05-3.74272E-18 3.24085E-18
 -1       468 1.28593E-04-5.78311E-05-3.03685E-05-2.83696E-05-5.36913E-19 4.65678E-18
 -1       469 9.08653E-05-5.23389E-05-1.66949E-05-4.11014E-05 5.93029E-19 7.57488E-18
 -1       470 5.43502E-05-4.09573E-05-5.90797E-06-4.01940E-05 3.61789E-19 6.77171E-18
 -1       471 1.99934E-05-2.64537E-05 2.51274E-06-2.07646E-05-1.55007E-19 5.19284E-18
 -1       472 1.48955E-04-4.35028E-05-4.52218E-05 1.11520E-05 4.29448E-18-3.52355E-18
 -1       473 9.85080E-05-2.57372E-05-3.11731E-05 3.00036E-06 2.16669E-18 7.12457E-19
 -1       474 8.58332E-05-1.00973E-05-3.24731E-05-2.14254E-06-6.65364E-19-3.21503E-18
 -1       475 8.76622E-05-1.16985E-05-3.25733E-05-3.14593E-06-1.20401E-18-3.01364E-18
 -1       476 8.46751E-05-9.15743E-06-3.23778E-05-4.02814E-07 4.28029E-19-3.11576E-18
 -1       477 8.52961E-05-9.71134E-06-3.24072E-05 5.60855E-07 9.21154E-19-3.21778E-18
 -1       478 8.65967E-05-1.08580E-05-3.24751E-05 1.69363E-06 1.39179E-18-2.99442E-18
 -1       479 8.85407E-05-1.26203E-05-3.25560E-05 3.06415E-06 1.95399E-18-2.35728E-18
 -1       480 9.10525E-05-1.50322E-05-3.26021E-05 4.58863E-06 2.31077E-18-1.78062E-18
 -1       481 9.41779E-05-1.82933E-05-3.25419E-05 6.07331E-06 2.58894E-18-1.06004E-18
 -1       482 9.84394E-05-2.72846E-05-3.04765E-05-5.05166E-07 1.60976E-18 5.59330E-19
 -1       483 9.76266E-05-2.42197E-05-3.14464E-05-1.56299E-06-1.95987E-18-9.12274E-19
 -1       484 1.39277E-04-5.52355E-05-3.62165E-05 8.55462E-06 1.45011E-18-4.14374E-18
 -1       485 9.78538E-05-2.58453E-05-3.08514E-05 2.33818E-06-1.49868E-18-8.90017E-19
 -1       486 9.80850E-05-2.67085E-05-3.05837E-05 5.38849E-06-9.95266E-19-6.19444E-19
 -1       487 9.85977E-05-2.73706E-05-3.05219E-05 7.86101E-06-5.23885E-19-6.52712E-19
 -1       488 9.95303E-05-2.81802E-05-3.05764E-05 9.88895E-06-4.09951E-19-6.61765E-19
 -1       489 1.01063E-04-2.94883E-05-3.06753E-05 1.14263E-05-3.62812E-19-5.97111E-19
 -1       490 1.03509E-04-3.17215E-05-3.07705E-05 1.22162E-05-1.85566E-20-6.26975E-19
 -1       491 1.07330E-04-3.53229E-05-3.08697E-05 1.17297E-05 2.53862E-19-2.43701E-19
 -1       492 1.12966E-04-4.04269E-05-3.11021E-05 9.12334E-06 6.32847E-19 3.37672E-19
 -1       493 1.20264E-04-4.60718E-05-3.18200E-05 3.34920E-06 9.81156E-19 1.33121E-18
 -1       494 1.27416E-04-4.90090E-05-3.36651E-05-5.97337E-06 6.66891E-19 2.62824E-18
 -1       495 1.29939E-04-4.39258E-05-3.70064E-05-1.54026E-05-7.38596E-19 2.42747E-18
 -1       496 1.25503E-04-2.92161E-05-4.16985E-05-1.74800E-05-3.43347E-18 1.03161E-18
 -1       497 1.20729E-04-1.68072E-05-4.50175E-05-5.06444E-06-5.50095E-18-1.02916E-18
 -1       498 1.22434E-04-2.06159E-05-4.40733E-05 1.24399E-05-4.13948E-18-3.29111E-18
 -1       499 1.28377E-04-3.57581E-05-3.99694E-05 1.95784E-05-1.33998E-18-4.39283E-18
 -1       500 1.30052E-04-4.72434E-05-3.55869E-05 1.28677E-05 3.63093E-19-3.36061E-18
 -1       501 1.25006E-04-4.84481E-05-3.28476E-05 2.68753E-06 2.56362E-18-2.49373E-18
 -1       502 1.17590E-04-4.38833E-05-3.16033E-05-5.16203E-06 2.19515E-18-1.44048E-18
 -1       503 1.10970E-04-3.82523E-05-3.11749E-05-9.45890E-06 1.65589E-18-4.91224E-19
 -1       504 1.06187E-04-3.37895E-05-3.10339E-05-1.10567E-05 5.81840E-19-6.74771E-19
 -1       505 1.03034E-04-3.08917E-05-3.09203E-05-1.09894E-05-5.41431E-19-1.76787E-18
 -1       506 1.00998E-04-2.92463E-05-3.07499E-05-1.00458E-05-2.28415E-20-1.39759E-18
 -1       507 9.96367E-05-2.84174E-05-3.05204E-05-8.72026E-06-2.62657E-19-1.93307E-18
 -1       508 9.86680E-05-2.80620E-05-3.02570E-05-7.30378E-06-6.48863E-20-1.98097E-18
 -1       509 9.79330E-05-2.79569E-05-2.99871E-05-5.95567E-06-3.75912E-20-1.45309E-18
 -1       510 9.73498E-05-2.79721E-05-2.97309E-05-4.75311E-06-9.85791E-20-1.19773E-18
 -1       511 9.68767E-05-2.80373E-05-2.95006E-05-3.72426E-06-4.53496E-19-1.33612E-18
 -1       512 9.64916E-05-2.81175E-05-2.93016E-05-2.86961E-06 5.26451E-19-9.49516E-19
 -1       513 9.61804E-05-2.81962E-05-2.91348E-05-2.17549E-06-3.22921E-19-1.87166E-19
 -1       514 9.59323E-05-2.82669E-05-2.89985E-05-1.62203E-06 6.64017E-19 6.55321E-19
 -1       515 9.57378E-05-2.83277E-05-2.88893E-05-1.18781E-06-1.35287E-20 1.75457E-18
 -1       516 9.55882E-05-2.83786E-05-2.88036E-05-8.52239E-07-1.13976E-19 3.09322E-19
 -1       517 9.54754E-05-2.84206E-05-2.87374E-05-5.96706E-07-6.20932E-19-1.98503E-19
 -1       518 9.53922E-05-2.84547E-05-2.86872E-05-4.05050E-07-2.00642E-19 1.42228E-18
 -1       519 9.53324E-05-2.84823E-05-2.86498E-05-2.63605E-07 5.47994E-19-1.08530E-18
 -1       520 9.52907E-05-2.85043E-05-2.86226E-05-1.61060E-07 3.11747E-19-7.86920E-19
 -1       521 9.52627E-05-2.85217E-05-2.86032E-05-8.82293E-08-3.67994E-19 5.94463E-19
 -1       522 9.52448E-05-2.85354E-05-2.85897E-05-3.77843E-08 1.93765E-19 2.80673E-18
 -1       523 9.52344E-05-2.85461E-05-2.85807E-05-3.99698E-09-3.10431E-19 4.80686E-18
 -1       524 9.52292E-05-2.85547E-05-2.85748E-05 1.74967E-08 7.83049E-19 2.85320E-18
 -1       525 9.52277E-05-2.85617E-05-2.85712E-05 2.99103E-08 3.79483E-20 1.47286E-18
 -1       526 9.52287E-05-2.85678E-05-2.85689E-05 3.54835E-08-2.48470E-19 9.43972E-19
 -1       527 9.52313E-05-2.85737E-05-2.85676E-05 3.56710E-08 8.10884E-19 8.06104E-19
 -1       528 9.93041E-05-2.91512E-05-3.00626E-05-4.12185E-06 6.06815E-19 2.02074E-19
 -1       529 1.00336E-04-3.01089E-05-3.00982E-05-4.71523E-06 4.51431E-19 6.34799E-21
 -1       530 1.01701E-04-3.12441E-05-3.01996E-05-4.52963E-06 3.74790E-19 1.20669E-20
 -1       531 1.03292E-04-3.25506E-05-3.03244E-05-3.47148E-06 1.80011E-19 6.03729E-19
 -1       532 1.04925E-04-3.38847E-05-3.04545E-05-1.45157E-06-2.78149E-19 8.98176E-19
 -1       533 1.06284E-04-3.49036E-05-3.06006E-05 1.47652E-06 1.19476E-19 7.77431E-19
 -1       534 1.06904E-04-3.50566E-05-3.08001E-05 4.91774E-06 4.50723E-19 8.47271E-19
 -1       535 1.06310E-04-3.37782E-05-3.10890E-05 7.96304E-06 9.75045E-19 1.32473E-18
 -1       536 1.04362E-04-3.09222E-05-3.14717E-05 9.24809E-06 1.24780E-18 1.36967E-18
 -1       537 1.01715E-04-2.73264E-05-3.18734E-05 7.51983E-06 1.23141E-18 1.06388E-18
 -1       538 9.98044E-05-2.47726E-05-3.21495E-05 2.75451E-06 1.31884E-18 6.44349E-19
 -1       539 9.98426E-05-2.47413E-05-3.21778E-05-3.33580E-06 1.85254E-18 5.36108E-20
 -1       540 1.01876E-04-2.72955E-05-3.19560E-05-8.17185E-06 1.67512E-18 6.28655E-19
 -1       541 1.04649E-04-3.08923E-05-3.16062E-05-1.00013E-05 5.34386E-19 5.23117E-20
 -1       542 1.06754E-04-3.37879E-05-3.12729E-05-8.85240E-06-2.30411E-19-1.00283E-18
 -1       543 1.07526E-04-3.51357E-05-3.10316E-05-5.92566E-06 8.13842E-19-1.88457E-18
 -1       544 1.07079E-04-3.50588E-05-3.08761E-05-2.56873E-06 4.21351E-19-2.09275E-18
 -1       545 1.05872E-04-3.41202E-05-3.07606E-05 3.18195E-07 5.85976E-19-1.05227E-18
 -1       546 1.04354E-04-3.28762E-05-3.06406E-05 2.36356E-06-5.47870E-19-8.72865E-19
 -1       547 1.02816E-04-3.16818E-05-3.04910E-05 3.55686E-06-3.07575E-19-7.45526E-19
 -1       548 1.01407E-04-3.06953E-05-3.03073E-05 4.05718E-06-7.37487E-19-8.59729E-19
 -1       549 1.00179E-04-2.99500E-05-3.00986E-05 4.06710E-06-1.33017E-18-3.11760E-19
 -1       550 9.91393E-05-2.94198E-05-2.98791E-05 3.77111E-06-2.17951E-19-8.23561E-19
 -1       551 9.82758E-05-2.90595E-05-2.96628E-05 3.31325E-06-3.94648E-19-6.11753E-19
 -1       552 9.75690E-05-2.88239E-05-2.94606E-05 2.79488E-06-1.09392E-18-1.92095E-19
 -1       553 9.69984E-05-2.86758E-05-2.92795E-05 2.28111E-06-1.15205E-18 4.00666E-19
 -1       554 9.65440E-05-2.85870E-05-2.91229E-05 1.80957E-06 2.80554E-19 2.07263E-19
 -1       555 9.61875E-05-2.85373E-05-2.89916E-05 1.39862E-06 3.22876E-19 1.45709E-18
 -1       556 9.59121E-05-2.85126E-05-2.88844E-05 1.05400E-06 2.14701E-19 2.00436E-18
 -1       557 9.57031E-05-2.85035E-05-2.87989E-05 7.73841E-07 1.19532E-18 1.41464E-18
 -1       558 9.55474E-05-2.85036E-05-2.87324E-05 5.52039E-07 1.38281E-18 2.43157E-18
 -1       559 9.54340E-05-2.85088E-05-2.86817E-05 3.80607E-07 1.03072E-18 2.88823E-18
 -1       560 9.53533E-05-2.85164E-05-2.86440E-05 2.51105E-07 9.76694E-19 5.55273E-19
 -1       561 9.52978E-05-2.85249E-05-2.86167E-05 1.55500E-07-8.99229E-20-2.66264E-19
 -1       562 9.52612E-05-2.85333E-05-2.85975E-05 8.66213E-08-1.48129E-20-1.06777E-18
 -1       563 9.52385E-05-2.85411E-05-2.85845E-05 3.83547E-08 2.82948E-19-8.62961E-19
 -1       564 9.52258E-05-2.85481E-05-2.85761E-05 5.68830E-09 6.04803E-19-9.07570E-19
 -1       565 9.52202E-05-2.85543E-05-2.85710E-05-1.53339E-08 5.12044E-19-7.39219E-19
 -1       566 9.52193E-05-2.85599E-05-2.85683E-05-2.76989E-08-1.64257E-18 2.07186E-18
 -1       567 9.52214E-05-2.85651E-05-2.85670E-05-3.35296E-08 1.37155E-19 1.52342E-18
 -1       568 9.52254E-05-2.85702E-05-2.85665E-05-3.42833E-08-5.62959E-21 1.48172E-18
 -1       569 9.52306E-05-2.85756E-05-2.85665E-05-3.06888E-08-9.25395E-19 4.67635E-18
 -1       570 9.52506E-05-2.85913E-05-2.85683E-05-2.45698E-08-8.30198E-19-3.35051E-18
 -1       571 9.52529E-05-2.85934E-05-2.85684E-05-1.72488E-08 2.70583E-18 1.23721E-18
 -1       572 9.52410E-05-2.85837E-05-2.85674E-05-3.28701E-08-1.77347E-18-3.47860E-18
 -1       573 9.52468E-05-2.85882E-05-2.85680E-05-3.00894E-08-3.97966E-18-6.06669E-18
 -1       574 9.52541E-05-2.85945E-05-2.85684E-05-8.96792E-09 2.24116E-18 7.02204E-20
 -1       575 9.52545E-05-2.85949E-05-2.85684E-05-2.47739E-10-4.13665E-19-5.14457E-19
 -1       576 9.52543E-05-2.85947E-05-2.85684E-05 8.53924E-09-1.23767E-18-1.07984E-18
 -1       577 9.52533E-05-2.85938E-05-2.85684E-05 1.68674E-08-3.67954E-19-3.21228E-19
 -1       578 9.52511E-05-2.85918E-05-2.85682E-05 2.44598E-08-6.96749E-19 1.80810E-18
 -1       579 9.52472E-05-2.85886E-05-2.85680E-05 3.03344E-08-1.74780E-18 2.30055E-18
 -1       580 9.52411E-05-2.85838E-05-2.85674E-05 3.30746E-08-4.64497E-19 2.80274E-18
 -1       581 2.72884E-05-1.42568E-05-4.96322E-06 1.53730E-05-2.97134E-18 6.64508E-18
 -1       582 8.54415E-05-4.80593E-05-1.57324E-05 4.34494E-05-1.16070E-18-1.17589E-18
 -1       583 9.86692E-05-2.82806E-05-3.01576E-05-2.76321E-06 9.27896E-19 2.28579E-19
 -1       584 1.40488E-04-3.66198E-05-4.49450E-05-8.63993E-06 4.33797E-18-4.83989E-18
 -1       585 4.70307E-05-2.79173E-05-7.67524E-06-3.44080E-05 9.41001E-19 4.95858E-18
 -1       586 5.22372E-05-3.01405E-05-8.96775E-06 3.94169E-05-2.80754E-18 3.18691E-18
 -1       587 2.41369E-05-1.37174E-05-3.81033E-06-6.10805E-06-1.68788E-18 3.69582E-18
 -1       588 1.39618E-04-1.87504E-05-5.23840E-05-1.16249E-05-6.91338E-18 2.53660E-19
 -1       589 1.33005E-04-1.60751E-05-5.07046E-05 1.02437E-05 4.73031E-18 6.87050E-19
 -1       590 8.48389E-05-9.26841E-06-3.24007E-05-1.26489E-06-1.24422E-19-3.15556E-18
 -1       591 1.34339E-04-7.08340E-06-5.51172E-05 1.82958E-07 5.91991E-18-9.40700E-19
 -1       592 3.87474E-05-2.15805E-05-6.79914E-06-2.98733E-05-1.33889E-18-6.40579E-18
 -1       593 1.33966E-04-1.30695E-05-5.24398E-05-8.36350E-06 4.98902E-18-1.72527E-18
 -1       594 1.39413E-04-4.04154E-05-4.28880E-05 8.45408E-06 2.14011E-18 7.10237E-19
 -1       595 1.38172E-04-5.74411E-05-3.47392E-05-1.13152E-05 5.77637E-20-3.00114E-19
 -1       596 1.14901E-04-5.88890E-05-2.39032E-05-3.43890E-05-1.14402E-18-1.82250E-18
 -1       597 1.48474E-04-4.61795E-05-4.42237E-05 9.34671E-06-1.93828E-18-2.68197E-18
 -1       598 8.24371E-05-4.58406E-05-1.53217E-05-4.32171E-05-2.27349E-18-4.08050E-18
 -1       599 2.56092E-05-1.33467E-05-4.56789E-06-7.79349E-06 1.90185E-19-7.10692E-18
 -1       600 3.18399E-05-1.70989E-05-5.68798E-06 1.97520E-05 1.86517E-18-6.39849E-18
 -1       601 6.28144E-05-3.47953E-05-1.14788E-05 3.93905E-05 2.78976E-18-4.06957E-18
 -1       602 9.44253E-05-5.16713E-05-1.80022E-05 3.95158E-05 2.11536E-18-1.39923E-18
 -1       603 1.29334E-04-6.30840E-05-2.84336E-05 2.12158E-05 1.25422E-18 1.29374E-18
 -1       604 1.47458E-04-5.45228E-05-4.01501E-05-2.08100E-06-2.96683E-18 2.18021E-18
 -1       605 1.46508E-04-3.67012E-05-4.74526E-05-1.33866E-05-5.18485E-18 1.80413E-18
 -1       606 1.31613E-04-1.18830E-05-5.20803E-05 3.68481E-06-6.70914E-18-2.57045E-18
 -1       607 1.38550E-04-2.27557E-05-5.02046E-05 1.48421E-05-4.81808E-18-3.40420E-18
 -1       608 1.43887E-04-5.94981E-05-3.62824E-05-6.94004E-06 8.11563E-20-9.16754E-19
 -1       609 1.18514E-04-6.09799E-05-2.45840E-05-2.98813E-05 3.07896E-18 3.50470E-18
 -1       610 8.55351E-05-4.89083E-05-1.53757E-05-4.10498E-05 2.83025E-18 6.01939E-18
 -1       611 9.62232E-05-2.05788E-05-3.24387E-05-5.90303E-06-2.48166E-18-1.17259E-18
 -1       612 9.85873E-05-2.38420E-05-3.20373E-05 6.90462E-06 2.73833E-18 1.18281E-18
 -1       613 1.22352E-04-5.96061E-05-2.67873E-05 2.85619E-05-3.40507E-19-1.90585E-18
 -1       614 9.02474E-05-1.40778E-05-3.26666E-05-4.33949E-06-1.76246E-18-2.63360E-18
 -1       615 1.29000E-04-2.49743E-05-4.50510E-05-1.36672E-05 3.72260E-18-2.27770E-18
 -1       616 9.52336E-05-2.85777E-05-2.85668E-05 3.31716E-08 8.31727E-19 2.28164E-18
 -1       617 6.64374E-05-3.22561E-05-1.41838E-05-3.77827E-05-2.57048E-18-4.85374E-18
 -1       618 8.73041E-05-1.31975E-05-3.17643E-05 9.45677E-09 1.03843E-18-2.68906E-18
 -1       619 8.61356E-05-1.21250E-05-3.17227E-05-4.81650E-07 5.53649E-19-2.85100E-18
 -1       620 9.15219E-05-1.72421E-05-3.18392E-05 1.59083E-06 1.74827E-18-1.74080E-18
 -1       621 9.42348E-05-2.01513E-05-3.17571E-05 2.37907E-06 1.97663E-18-1.33065E-18
 -1       622 9.69363E-05-2.40427E-05-3.12305E-05 1.38499E-06 1.97687E-18-5.28677E-19
 -1       623 1.29446E-04-5.77638E-05-3.07519E-05 1.17254E-05-6.48510E-19-3.65410E-18
 -1       624 1.23629E-04-2.64806E-05-4.20068E-05 1.38413E-05 3.04350E-18 1.25243E-18
 -1       625 9.55201E-05-2.36924E-05-3.07814E-05 3.73605E-06-1.15416E-18-1.44067E-18
 -1       626 9.54814E-05-2.46021E-05-3.03754E-05 6.68056E-06-8.31666E-19-1.26468E-18
 -1       627 9.54521E-05-2.53132E-05-3.00584E-05 9.24465E-06-3.90885E-19-1.29336E-18
 -1       628 9.57040E-05-2.62690E-05-2.97571E-05 1.15243E-05-2.97728E-19-1.16627E-18
 -1       629 9.66327E-05-2.79994E-05-2.94143E-05 1.35457E-05 5.96528E-20-9.85639E-19
 -1       630 9.88957E-05-3.11911E-05-2.90150E-05 1.51889E-05 7.05592E-19-2.52718E-19
 -1       631 1.03495E-04-3.66028E-05-2.86586E-05 1.59948E-05 1.05248E-18 6.00535E-19
 -1       632 1.11508E-04-4.44921E-05-2.86910E-05 1.48952E-05 1.68706E-18 1.34597E-18
 -1       633 1.23366E-04-5.33484E-05-2.99576E-05 9.84360E-06 2.01016E-18 1.87061E-18
 -1       634 1.39502E-04-5.03449E-05-3.85170E-05 1.12049E-05-1.33236E-19-3.91819E-18
 -1       635 1.30843E-04-5.54273E-05-3.23493E-05-9.13055E-07 2.73176E-18-2.71334E-18
 -1       636 1.18803E-04-4.94862E-05-2.96883E-05-9.89248E-06 3.08590E-18-1.40418E-18
 -1       637 1.08867E-04-4.10614E-05-2.90297E-05-1.36392E-05 2.32047E-18-1.07479E-18
 -1       638 1.02361E-04-3.43706E-05-2.91402E-05-1.41858E-05 8.65125E-19-1.04760E-18
 -1       639 9.87177E-05-3.00980E-05-2.94086E-05-1.32775E-05-5.49324E-19-1.26295E-18
 -1       640 9.68938E-05-2.77759E-05-2.96213E-05-1.18105E-05 6.33761E-21-1.09112E-18
 -1       641 9.60740E-05-2.67228E-05-2.97207E-05-1.01711E-05-5.33001E-19-2.27673E-18
 -1       642 9.57482E-05-2.64050E-05-2.97171E-05-8.54981E-06-2.66884E-19-2.22979E-18
 -1       643 9.56353E-05-2.64690E-05-2.96414E-05-7.04303E-06 5.02011E-19-2.89546E-18
 -1       644 9.55967E-05-2.67038E-05-2.95244E-05-5.69842E-06 2.93063E-19-1.96784E-18
 -1       645 9.55732E-05-2.69939E-05-2.93901E-05-4.53464E-06-2.49220E-19-1.57654E-18
 -1       646 9.55445E-05-2.72809E-05-2.92550E-05-3.55195E-06 3.60917E-20-3.95444E-19
 -1       647 9.55078E-05-2.75390E-05-2.91289E-05-2.73923E-06-3.65870E-19-7.69025E-19
 -1       648 9.54662E-05-2.77594E-05-2.90167E-05-2.07917E-06 6.67955E-19-5.81785E-19
 -1       649 9.54240E-05-2.79418E-05-2.89206E-05-1.55186E-06 1.16470E-18-1.43018E-18
 -1       650 9.53846E-05-2.80896E-05-2.88404E-05-1.13708E-06-9.21778E-19-4.43717E-19
 -1       651 9.53499E-05-2.82075E-05-2.87751E-05-8.15719E-07 2.18530E-19-4.36922E-19
 -1       652 9.53208E-05-2.83003E-05-2.87229E-05-5.70465E-07 7.62762E-19 1.24321E-18
 -1       653 9.52973E-05-2.83725E-05-2.86820E-05-3.86205E-07-9.12775E-19 1.16802E-18
 -1       654 9.52790E-05-2.84279E-05-2.86504E-05-2.50066E-07 5.28811E-21-5.12480E-20
 -1       655 9.52652E-05-2.84699E-05-2.86265E-05-1.51327E-07 3.24453E-19 9.16744E-20
 -1       656 9.52551E-05-2.85014E-05-2.86087E-05-8.12370E-08 1.81449E-18 1.56054E-18
 -1       657 9.52480E-05-2.85247E-05-2.85957E-05-3.27948E-08 9.51528E-19 1.96468E-18
 -1       658 9.52433E-05-2.85420E-05-2.85863E-05-5.23797E-10-8.72162E-19 3.07991E-18
 -1       659 9.52404E-05-2.85548E-05-2.85795E-05 1.97344E-08-9.82012E-19 1.16943E-18
 -1       660 9.52390E-05-2.85647E-05-2.85747E-05 3.10614E-08-8.99587E-19 8.35243E-19
 -1       661 9.52389E-05-2.85730E-05-2.85711E-05 3.55107E-08 3.07952E-20 1.96799E-18
 -1       662 1.00112E-04-3.03887E-05-2.98822E-05-5.96441E-06 3.27150E-19-4.13100E-19
 -1       663 1.13245E-04-5.50138E-05-2.48574E-05 2.63958E-05 2.70262E-18 6.27946E-19
 -1       664 9.88599E-05-2.88467E-05-3.00054E-05-5.32848E-06 4.32109E-19-7.24339E-19
 -1       665 1.04163E-04-3.44378E-05-2.98846E-05-4.47848E-06-1.97429E-19 5.42507E-20
 -1       666 1.06804E-04-3.66572E-05-3.00651E-05-2.01880E-06-2.06753E-19-2.13437E-19
 -1       667 1.09345E-04-3.82563E-05-3.04692E-05 1.65009E-06 2.29655E-19 3.25987E-19
 -1       668 1.10869E-04-3.80950E-05-3.12009E-05 6.03405E-06 1.07624E-19 7.65092E-19
 -1       669 1.10509E-04-3.52416E-05-3.22696E-05 9.76681E-06 7.71429E-19 1.59112E-18
 -1       670 1.07898E-04-2.96398E-05-3.35514E-05 1.06891E-05 1.34072E-18 1.72897E-18
 -1       671 1.04506E-04-2.36833E-05-3.46632E-05 6.99367E-06 1.32156E-18 1.24592E-18
 -1       672 1.02916E-04-2.10323E-05-3.51197E-05-3.07072E-07 2.21969E-18 5.62039E-19
 -1       673 1.04530E-04-2.36016E-05-3.47023E-05-7.72991E-06 1.55581E-18 2.16354E-19
 -1       674 1.07934E-04-2.94921E-05-3.36355E-05-1.14834E-05 1.35307E-18 4.53474E-19
 -1       675 1.10577E-04-3.50367E-05-3.23813E-05-1.07294E-05 1.07946E-18-2.01842E-19
 -1       676 1.11044E-04-3.79611E-05-3.13239E-05-7.11699E-06 7.48297E-19-9.91270E-19
 -1       677 1.09572E-04-3.81694E-05-3.06055E-05-2.81681E-06 4.53119E-19-8.05417E-20
 -1       678 1.07088E-04-3.66589E-05-3.01884E-05 8.22719E-07 8.96651E-19-6.25135E-19
 -1       679 1.04452E-04-3.45302E-05-2.99697E-05 3.32312E-06 5.38435E-19-5.76364E-19
 -1       680 1.02137E-04-3.24913E-05-2.98504E-05 4.73453E-06-7.19725E-19-7.58598E-19
 -1       681 1.00300E-04-3.08541E-05-2.97635E-05 5.30068E-06-5.96230E-19-5.30525E-19
 -1       682 9.89180E-05-2.96775E-05-2.96749E-05 5.28489E-06-1.58003E-18-5.88998E-19
 -1       683 9.79088E-05-2.89050E-05-2.95730E-05 4.90885E-06 2.65178E-20-6.15863E-19
 -1       684 9.71800E-05-2.84423E-05-2.94586E-05 4.34006E-06-6.31715E-19 3.72334E-19
 -1       685 9.66538E-05-2.81973E-05-2.93380E-05 3.69563E-06-7.70590E-19-2.20171E-19
 -1       686 9.62716E-05-2.80950E-05-2.92180E-05 3.05183E-06-1.32678E-18-1.00561E-18
 -1       687 9.59916E-05-2.80797E-05-2.91046E-05 2.45425E-06-5.25196E-19-1.60697E-18
 -1       688 9.57849E-05-2.81130E-05-2.90017E-05 1.92656E-06 9.28963E-21-1.18653E-18
 -1       689 9.56315E-05-2.81700E-05-2.89117E-05 1.47772E-06-4.73098E-19-2.57675E-19
 -1       690 9.55176E-05-2.82348E-05-2.88351E-05 1.10730E-06 4.25923E-19 9.78370E-19
 -1       691 9.54332E-05-2.82986E-05-2.87717E-05 8.09391E-07 1.25928E-18 2.72936E-18
 -1       692 9.53712E-05-2.83563E-05-2.87204E-05 5.75273E-07 1.59312E-18 2.13042E-18
 -1       693 9.53260E-05-2.84060E-05-2.86798E-05 3.95243E-07 1.34319E-18 1.32976E-18
 -1       694 9.52937E-05-2.84472E-05-2.86484E-05 2.59727E-07 6.27116E-19 1.59405E-18
 -1       695 9.52710E-05-2.84804E-05-2.86245E-05 1.59934E-07 1.02427E-19 2.21076E-18
 -1       696 9.52555E-05-2.85064E-05-2.86067E-05 8.81807E-08 6.93242E-19 1.93981E-18
 -1       697 9.52455E-05-2.85264E-05-2.85938E-05 3.80132E-08 1.30003E-18 4.47332E-19
 -1       698 9.52393E-05-2.85417E-05-2.85847E-05 4.19515E-09 1.19684E-18-7.97768E-19
 -1       699 9.52361E-05-2.85534E-05-2.85783E-05-1.73693E-08-1.23090E-18-2.68418E-18
 -1       700 9.52349E-05-2.85626E-05-2.85738E-05-2.97449E-08-6.77843E-19-3.77562E-18
 -1       701 9.52353E-05-2.85704E-05-2.85707E-05-3.51193E-08-1.15023E-18-2.52441E-18
 -1       702 9.52383E-05-2.85768E-05-2.85692E-05-3.53676E-08-2.08002E-18-3.39235E-18
 -1       703 1.07617E-04-5.34775E-05-2.30471E-05 3.14825E-05-1.38268E-18-2.24818E-18
 -1       704 9.52549E-05-2.85782E-05-2.85757E-05-4.68753E-09 2.35330E-18-2.22663E-18
 -1       705 1.05592E-04-5.30934E-05-2.23053E-05-3.10997E-05 3.41203E-18 2.91019E-18
 -1       706 9.52526E-05-2.85790E-05-2.85744E-05-2.12445E-08 1.84170E-18 1.71474E-18
 -1       707 9.52550E-05-2.85784E-05-2.85757E-05 3.97225E-09 6.24316E-19-2.40221E-18
 -1       708 9.52542E-05-2.85785E-05-2.85753E-05-1.31807E-08 2.13324E-18 7.33206E-19
 -1       709 9.52546E-05-2.85790E-05-2.85753E-05 1.25011E-08-9.43162E-19-7.12016E-19
 -1       710 9.52532E-05-2.85796E-05-2.85744E-05 2.09009E-08-3.36939E-19 4.50408E-19
 -1       711 9.52500E-05-2.85797E-05-2.85730E-05 2.84118E-08-4.37219E-19 3.47576E-18
 -1       712 4.24587E-05-1.67029E-05-1.05150E-05-2.05162E-05-4.55902E-19 2.82157E-18
 -1       713 3.88069E-05-1.09043E-05-1.14278E-05 2.02515E-06-1.52758E-18 3.38792E-18
 -1       714 4.83831E-05-1.94276E-05-1.19247E-05 2.72625E-05-3.13938E-18 5.72563E-18
 -1       715 3.94603E-05-1.18013E-05-1.13200E-05 5.54571E-06 1.18927E-18-5.51175E-18
 -1       716 1.20925E-04-9.81451E-06-4.82321E-05-4.64581E-06 4.78865E-18-1.29420E-18
 -1       717 8.27691E-05-4.05887E-05-1.77152E-05 3.81050E-05-2.62400E-18 2.86787E-19
 -1       718 9.80241E-05-2.74722E-05-3.02343E-05-3.91219E-06 7.18870E-19-6.59863E-19
 -1       719 1.01875E-04-3.22537E-05-2.98396E-05-5.73612E-06-9.55241E-20-4.84814E-20
 -1       720 9.52581E-05-2.20747E-05-3.13612E-05 2.91510E-07-1.62954E-18-1.47531E-18
 -1       721 9.74546E-05-2.60040E-05-3.06174E-05-1.71010E-06 1.43653E-18-6.15562E-19
 -1       722 7.42959E-05-3.58750E-05-1.60449E-05-3.54476E-05 2.24488E-18 4.39213E-18
 -1       723 8.91517E-05-1.49226E-05-3.18174E-05 7.23010E-07 1.51358E-18-2.28249E-18
 -1       724 8.78863E-05-1.36462E-05-3.18227E-05-1.17366E-06-8.24412E-19-2.65744E-18
 -1       725 1.19832E-04-1.13444E-05-4.69307E-05 6.83019E-06 4.53194E-18 4.99988E-19
 -1       726 9.52404E-05-2.85786E-05-2.85694E-05 3.51863E-08 2.78619E-18 4.52821E-18
 -1       727 1.34386E-04-4.82235E-05-3.71398E-05-5.11384E-06 1.91677E-18-3.99643E-18
 -1       728 1.33774E-04-5.05300E-05-3.58712E-05 2.24676E-06-2.88229E-19 8.98292E-19
 -1       729 1.32873E-04-6.14775E-05-3.06223E-05-1.17677E-05 3.15226E-18-9.93596E-19
 -1       730 4.30589E-05-1.45588E-05-1.16906E-05-1.78020E-05-5.29058E-19-5.49026E-18
 -1       731 1.36308E-04-5.81689E-05-3.36261E-05-3.19437E-07 3.49930E-19 2.91070E-18
 -1       732 9.14208E-05-4.40463E-05-1.99835E-05 3.45453E-05 3.25835E-18-1.01637E-18
 -1       733 5.62895E-05-2.22051E-05-1.41668E-05 2.74162E-05 2.83066E-18-4.02870E-18
 -1       734 1.05755E-04-5.28383E-05-2.24971E-05-3.30511E-05-2.47273E-18-1.54807E-18
 -1       735 1.27269E-04-5.90053E-05-2.92848E-05-1.69150E-05-1.82142E-18-2.03208E-19
 -1       736 9.02324E-05-1.58503E-05-3.18862E-05-1.47838E-06-1.30009E-18-2.51379E-18
 -1       737 8.57966E-05-1.17982E-05-3.17174E-05-7.76876E-07 1.50784E-19-2.73586E-18
 -1       738 1.27715E-04-3.76555E-05-3.88425E-05-1.21851E-05 2.59744E-18-2.79426E-18
 -1       739 1.25479E-04-3.89738E-05-3.71787E-05 1.20740E-05 5.57248E-19 1.96019E-18
 -1       740 9.52457E-05-2.85793E-05-2.85713E-05-3.22530E-08-3.88827E-18-6.99799E-18
 -1       741 9.38937E-05-1.96524E-05-3.18209E-05-1.72189E-06-1.78329E-18-1.82214E-18
 -1       742 1.18451E-04-1.75894E-05-4.36148E-05-1.14528E-05 3.27034E-18-1.67741E-18
 -1       743 9.52457E-05-2.85764E-05-2.85726E-05 3.27979E-08 1.40109E-18 5.05997E-18
 -1       744 9.52500E-05-2.85797E-05-2.85730E-05-2.73647E-08-1.26442E-18-1.08928E-18
 -1       745 8.63747E-05-1.22895E-05-3.17548E-05-9.70489E-07-3.04182E-19-2.66045E-18
 -1       746 8.94664E-05-4.17561E-05-2.01926E-05-3.42520E-05-2.74907E-18-2.85936E-18
 -1       747 9.40332E-05-2.13478E-05-3.11482E-05-5.21033E-07 1.37550E-18-1.28809E-18
 -1       748 1.19761E-04-5.45460E-05-2.78603E-05-1.64902E-05 3.86326E-18-1.01864E-18
 -1       749 9.20436E-05-2.23696E-05-2.98596E-05 7.28384E-06-6.37548E-19-1.64178E-18
 -1       750 9.12647E-05-2.29958E-05-2.92578E-05 9.77329E-06-3.14768E-19-1.54384E-18
 -1       751 9.05768E-05-2.39313E-05-2.85619E-05 1.22915E-05-5.21170E-20-1.42023E-18
 -1       752 9.04567E-05-2.58030E-05-2.77084E-05 1.50741E-05 7.69530E-19-1.33270E-18
 -1       753 9.17790E-05-2.95244E-05-2.66689E-05 1.83510E-05 1.66530E-18-1.10572E-18
 -1       754 9.60514E-05-3.62779E-05-2.55890E-05 2.21245E-05 1.99331E-18-5.44755E-19
 -1       755 1.02462E-04-4.45501E-05-2.47223E-05 2.52185E-05 2.17447E-18 9.78886E-21
 -1       756 5.08242E-05-1.23801E-05-1.62120E-05-5.38677E-06 5.47519E-20-4.31648E-18
 -1       757 9.27094E-05-2.01998E-05-3.10754E-05 1.72931E-06-1.16768E-18-1.71997E-18
 -1       758 1.06573E-04-4.36941E-05-2.68699E-05-1.89492E-05 2.90394E-18-2.42058E-19
 -1       759 9.50038E-05-3.36261E-05-2.62964E-05-1.90117E-05 1.51367E-18 2.02444E-19
 -1       760 9.17415E-05-2.82275E-05-2.72138E-05-1.58780E-05-5.48213E-19-1.22376E-18
 -1       761 9.07597E-05-2.54751E-05-2.79775E-05-1.31795E-05 6.52532E-20 1.43869E-19
 -1       762 9.09145E-05-2.43590E-05-2.85231E-05-1.09480E-05-6.10627E-19-1.50028E-20
 -1       763 9.15343E-05-2.41741E-05-2.88681E-05-9.08340E-06-9.66489E-19-3.29531E-19
 -1       764 9.22721E-05-2.44706E-05-2.90574E-05-7.49342E-06 2.04465E-19 3.07747E-19
 -1       765 9.29652E-05-2.49787E-05-2.91367E-05-6.12323E-06 5.22420E-19-7.15238E-19
 -1       766 9.35505E-05-2.55462E-05-2.91445E-05-4.94384E-06 1.39536E-19-8.62207E-19
 -1       767 9.40158E-05-2.60933E-05-2.91094E-05-3.93814E-06 1.77782E-19-2.62262E-19
 -1       768 9.43715E-05-2.65832E-05-2.90519E-05-3.09211E-06 3.00496E-19-8.44041E-19
 -1       769 9.46359E-05-2.70030E-05-2.89854E-05-2.39113E-06 3.74206E-19 8.21289E-19
 -1       770 9.48285E-05-2.73523E-05-2.89183E-05-1.81945E-06-7.13807E-19 1.06694E-19
 -1       771 9.49665E-05-2.76371E-05-2.88554E-05-1.36057E-06 4.28534E-19-1.24371E-18
 -1       772 9.50637E-05-2.78652E-05-2.87993E-05-9.98005E-07-3.18172E-19 8.33516E-19
 -1       773 9.51312E-05-2.80455E-05-2.87510E-05-7.15999E-07 8.88643E-19 7.59134E-20
 -1       774 9.51770E-05-2.81858E-05-2.87105E-05-5.00112E-07 8.20757E-19 1.61845E-19
 -1       775 9.52073E-05-2.82937E-05-2.86772E-05-3.37542E-07-7.58445E-19 2.24860E-18
 -1       776 9.52267E-05-2.83755E-05-2.86505E-05-2.17259E-07-6.17893E-19 1.97624E-18
 -1       777 9.52384E-05-2.84366E-05-2.86294E-05-1.29982E-07 1.28331E-18 1.00354E-18
 -1       778 9.52449E-05-2.84816E-05-2.86128E-05-6.80812E-08 1.05203E-18-4.28317E-19
 -1       779 9.52478E-05-2.85143E-05-2.86001E-05-2.54220E-08-5.35450E-19-2.03614E-18
 -1       780 9.52485E-05-2.85379E-05-2.85903E-05 2.81608E-09-4.26317E-19-3.45394E-19
 -1       781 9.52480E-05-2.85552E-05-2.85826E-05 2.01691E-08 4.44927E-19 3.24245E-18
 -1       782 9.52468E-05-2.85669E-05-2.85771E-05 2.89802E-08 2.72050E-19 5.41108E-18
 -1       783 1.09438E-04-4.02089E-05-2.96635E-05-3.67716E-06-3.81553E-19-1.05300E-20
 -1       784 1.05292E-04-3.68585E-05-2.93262E-05-6.36145E-06-2.31382E-19-1.48520E-19
 -1       785 1.16106E-04-4.13318E-05-3.20612E-05 6.57665E-06-3.17349E-19 1.52345E-18
 -1       786 1.15873E-04-3.59145E-05-3.43082E-05 1.15254E-05 7.24630E-19 2.10687E-18
 -1       787 1.11803E-04-2.60026E-05-3.68737E-05 1.17849E-05 1.76751E-18 2.44168E-18
 -1       788 1.07024E-04-1.73272E-05-3.86217E-05 5.00713E-06 2.80628E-18 1.10297E-18
 -1       789 1.07656E-04-1.78523E-05-3.86199E-05-5.49776E-06 2.77255E-18-9.91020E-20
 -1       790 1.11501E-04-2.57243E-05-3.68657E-05-1.23933E-05 1.96742E-18-1.63618E-18
 -1       791 1.15442E-04-3.54226E-05-3.43469E-05-1.23176E-05 1.41732E-18-1.91985E-18
 -1       792 1.16152E-04-4.12899E-05-3.20958E-05-7.55088E-06 3.41918E-19-1.46787E-18
 -1       793 1.13495E-04-4.22261E-05-3.05498E-05-1.91018E-06-3.65807E-19-3.71032E-20
 -1       794 1.09230E-04-4.00248E-05-2.96632E-05 2.55135E-06 9.68968E-20 8.11340E-20
 -1       795 1.05034E-04-3.67706E-05-2.92569E-05 5.25831E-06 3.43871E-19 3.57126E-19
 -1       796 1.01605E-04-3.36477E-05-2.91247E-05 6.53126E-06 2.83402E-19 1.11123E-18
 -1       797 9.91117E-05-3.11743E-05-2.91162E-05 6.83878E-06-3.46766E-19 9.26838E-19
 -1       798 9.74337E-05-2.94315E-05-2.91438E-05 6.56464E-06-9.78140E-19 1.42116E-18
 -1       799 9.63744E-05-2.83236E-05-2.91646E-05 5.96644E-06-4.92057E-19-1.28334E-19
 -1       800 9.57457E-05-2.76996E-05-2.91625E-05 5.21697E-06-1.07295E-18-1.06173E-19
 -1       801 9.53977E-05-2.74128E-05-2.91362E-05 4.42577E-06-8.77731E-19 1.88951E-19
 -1       802 9.52229E-05-2.73438E-05-2.90909E-05 3.66028E-06 6.39289E-19-8.31134E-19
 -1       803 9.51493E-05-2.74039E-05-2.90336E-05 2.95946E-06-8.84877E-19-2.53294E-18
 -1       804 9.51307E-05-2.75318E-05-2.89708E-05 2.34293E-06-1.19401E-18-2.04708E-18
 -1       805 9.51392E-05-2.76871E-05-2.89079E-05 1.81728E-06-1.07801E-18-6.89055E-19
 -1       806 9.51587E-05-2.78452E-05-2.88485E-05 1.38077E-06-7.15792E-19-1.08022E-19
 -1       807 9.51805E-05-2.79922E-05-2.87949E-05 1.02659E-06 7.10422E-19-7.83119E-19
 -1       808 9.52002E-05-2.81211E-05-2.87481E-05 7.45253E-07 6.58682E-19-5.19425E-19
 -1       809 9.52161E-05-2.82296E-05-2.87085E-05 5.26191E-07 7.27043E-19 1.80158E-18
 -1       810 9.52280E-05-2.83180E-05-2.86757E-05 3.58935E-07 2.69072E-19 4.39524E-18
 -1       811 9.52362E-05-2.83880E-05-2.86492E-05 2.33752E-07 1.52283E-19 3.66552E-18
 -1       812 9.52414E-05-2.84423E-05-2.86282E-05 1.42021E-07 1.23377E-18 2.89621E-19
 -1       813 9.52441E-05-2.84833E-05-2.86118E-05 7.63825E-08 1.45808E-18 6.65426E-19
 -1       814 9.52453E-05-2.85139E-05-2.85992E-05 3.07501E-08 1.62494E-18 1.04205E-18
 -1       815 9.52453E-05-2.85363E-05-2.85896E-05 2.54455E-10 1.68575E-18 4.51026E-19
 -1       816 9.52448E-05-2.85529E-05-2.85822E-05-1.88768E-08 1.24383E-18-2.15955E-18
 -1       817 9.52442E-05-2.85655E-05-2.85765E-05-2.93234E-08 4.16833E-19-5.85110E-18
 -1       818 9.52449E-05-2.85724E-05-2.85740E-05-3.18871E-08-2.05025E-18-7.45123E-18
 -1       819 9.52546E-05-2.85608E-05-2.85830E-05 6.59967E-09 1.00299E-18-2.44680E-18
 -1       820 9.52544E-05-2.85597E-05-2.85834E-05-5.88830E-10 2.13522E-18-3.31983E-18
 -1       821 9.74419E-05-4.38179E-05-2.28741E-05 2.83994E-05-2.17644E-18-2.17195E-18
 -1       822 9.52525E-05-2.85665E-05-2.85797E-05 2.15993E-08 1.20221E-18 1.99468E-18
 -1       823 7.10017E-05-2.77245E-05-1.83266E-05 2.92465E-05-2.81082E-18 2.04323E-18
 -1       824 5.36597E-05-1.45630E-05-1.65059E-05 1.42871E-05-2.10702E-18 4.28118E-18
 -1       825 9.52544E-05-2.85634E-05-2.85819E-05 1.39939E-08 4.98171E-19 2.01050E-18
 -1       826 1.13634E-04-4.24547E-05-3.05127E-05 8.69547E-07-5.11875E-19 8.78019E-19
 -1       827 9.78833E-05-2.85746E-05-2.97040E-05-6.67165E-06 1.21445E-19-6.97764E-19
 -1       828 6.36683E-05-2.37675E-05-1.68132E-05-2.58539E-05 7.53409E-19 2.89029E-18
 -1       829 1.17425E-04-5.35523E-05-2.73566E-05 1.73409E-05-1.08797E-18-2.86664E-18
 -1       830 9.68225E-05-2.67004E-05-3.00522E-05-5.17471E-06 5.84508E-19-8.27279E-19
 -1       831 1.15401E-04-5.30455E-05-2.67157E-05-2.01070E-05-1.95428E-18-2.14782E-19
 -1       832 9.59212E-05-2.38190E-05-3.09018E-05-1.07003E-06 1.54557E-18-8.04803E-19
 -1       833 5.64291E-05-1.52625E-05-1.73927E-05 1.36742E-05 1.64478E-18-3.66017E-18
 -1       834 6.44551E-05-2.34216E-05-1.72933E-05-2.67158E-05-1.65528E-18-4.08425E-18
 -1       835 9.26159E-05-2.15920E-05-3.04399E-05 4.63187E-06-9.64701E-19-1.56464E-18
 -1       836 9.15824E-05-1.81573E-05-3.14690E-05 2.55220E-08-1.30514E-18-2.15265E-18
 -1       837 9.38853E-05-4.15761E-05-2.22450E-05-2.86652E-05 3.14390E-18 2.25611E-18
 -1       838 5.13156E-05-1.38774E-05-1.57394E-05-1.13640E-05-4.29542E-19 1.05704E-18
 -1       839 7.60524E-05-2.85451E-05-2.01668E-05 2.71202E-05 2.78048E-18-2.61483E-18
 -1       840 1.26608E-04-5.36222E-05-3.13555E-05-4.38235E-06-1.56725E-18 7.03289E-19
 -1       841 8.74659E-05-1.49987E-05-3.10581E-05-1.25913E-06 4.32807E-19-2.34810E-18
 -1       842 1.27249E-04-5.09568E-05-3.27269E-05-5.60328E-07 1.80242E-19-2.18561E-18
 -1       843 8.64969E-05-1.41100E-05-3.10238E-05-9.92500E-07 1.94332E-19-2.61350E-18
 -1       844 1.19966E-04-2.90014E-05-3.91432E-05-1.42979E-05 2.22365E-18-2.17650E-18
 -1       845 1.03744E-04-4.60707E-05-2.46228E-05-2.48909E-05-2.26880E-18-1.32075E-18
 -1       846 8.92094E-05-1.66012E-05-3.11187E-05-1.22493E-06 1.01004E-18-2.08031E-18
 -1       847 1.11911E-04-1.33103E-05-4.26040E-05-5.46070E-06 3.72705E-18-8.38556E-19
 -1       848 9.14964E-05-1.87715E-05-3.11685E-05-9.25339E-07 1.13456E-18-2.07369E-18
 -1       849 9.95093E-05-3.07986E-05-2.94482E-05-7.49251E-06-1.36674E-19-5.10904E-19
 -1       850 1.01927E-04-3.35592E-05-2.93007E-05-7.49780E-06-5.23767E-19-4.61645E-19
 -1       851 1.24130E-04-4.42256E-05-3.43721E-05-8.72746E-06 1.15758E-18-2.98000E-18
 -1       852 9.52535E-05-2.85627E-05-2.85818E-05-1.47424E-08 1.13447E-18 1.49011E-18
 -1       853 8.75415E-05-1.49950E-05-3.10933E-05 1.09018E-07-5.49119E-19-2.24405E-18
 -1       854 9.52541E-05-2.85604E-05-2.85830E-05-7.61576E-09 1.56834E-18-5.07852E-19
 -1       855 5.64593E-05-1.28844E-05-1.85319E-05 1.82419E-06-8.38371E-19 2.19925E-18
 -1       856 9.52521E-05-2.85660E-05-2.85797E-05-2.10496E-08 1.17493E-18 3.09982E-18
 -1       857 9.63652E-05-2.53476E-05-3.04364E-05-3.34252E-06 9.77110E-19-7.26103E-19
 -1       858 9.52504E-05-2.85668E-05-2.85787E-05 2.55142E-08 6.42466E-19 3.29403E-18
 -1       859 8.92696E-05-1.62578E-05-3.12931E-05 2.49912E-07-9.79816E-19-2.31638E-18
 -1       860 6.11266E-05-1.37741E-05-2.01923E-05 2.91004E-06 2.29625E-19-3.14904E-18
 -1       861 8.63002E-05-2.05143E-05-2.81951E-05 9.08560E-06-3.76383E-21-1.46070E-18
 -1       862 8.41369E-05-2.10430E-05-2.70407E-05 1.16833E-05 4.25260E-19-1.20531E-18
 -1       863 8.19806E-05-2.23568E-05-2.55549E-05 1.51474E-05 1.15855E-18-1.47131E-18
 -1       864 8.06073E-05-2.55701E-05-2.35107E-05 2.03182E-05 1.71511E-18-2.19500E-18
 -1       865 1.14561E-04-2.23040E-05-3.97621E-05-1.20708E-05 2.79812E-18-1.30877E-18
 -1       866 8.65003E-05-1.40852E-05-3.10355E-05-4.95326E-07-2.94904E-20-2.30025E-18
 -1       867 8.29184E-05-2.22456E-05-2.59972E-05-1.32676E-05-2.65532E-19 9.99883E-19
 -1       868 8.48036E-05-2.15672E-05-2.71005E-05-1.04695E-05-2.40490E-19 5.92761E-19
 -1       869 8.67260E-05-2.17401E-05-2.78510E-05-8.48197E-06-1.20142E-18 1.86673E-20
 -1       870 8.84786E-05-2.23525E-05-2.83396E-05-6.97169E-06-1.06389E-19 5.73837E-19
 -1       871 8.99788E-05-2.31508E-05-2.86405E-05-5.74678E-06-4.66705E-19 5.91342E-19
 -1       872 9.12154E-05-2.39898E-05-2.88110E-05-4.71179E-06-6.66831E-20 1.61488E-19
 -1       873 9.22077E-05-2.47891E-05-2.88937E-05-3.82348E-06 1.25991E-19-8.63444E-19
 -1       874 9.29877E-05-2.55078E-05-2.89199E-05-3.06200E-06 4.71038E-19-1.43490E-19
 -1       875 9.35907E-05-2.61301E-05-2.89116E-05-2.41572E-06 8.08461E-19-1.00714E-19
 -1       876 9.40505E-05-2.66548E-05-2.88839E-05-1.87517E-06-4.68463E-20 2.74156E-20
 -1       877 9.43969E-05-2.70880E-05-2.88466E-05-1.43064E-06-5.17645E-19 1.22117E-18
 -1       878 9.46544E-05-2.74396E-05-2.88063E-05-1.07137E-06 8.43784E-19 9.83435E-19
 -1       879 9.48434E-05-2.77205E-05-2.87669E-05-7.85955E-07 4.18865E-19 6.10030E-19
 -1       880 9.49799E-05-2.79417E-05-2.87307E-05-5.63046E-07 4.99310E-19 6.08571E-19
 -1       881 9.50768E-05-2.81134E-05-2.86986E-05-3.91928E-07 1.12395E-18 1.36793E-18
 -1       882 9.51440E-05-2.82447E-05-2.86711E-05-2.62881E-07-5.86323E-19 3.89757E-18
 -1       883 9.51894E-05-2.83437E-05-2.86481E-05-1.67380E-07-5.61298E-19 3.71382E-18
 -1       884 9.52187E-05-2.84171E-05-2.86292E-05-9.81678E-08 9.47059E-20 1.30151E-18
 -1       885 9.52365E-05-2.84708E-05-2.86139E-05-4.92261E-08-8.60374E-19 1.13505E-18
 -1       886 9.52463E-05-2.85095E-05-2.86015E-05-1.57434E-08 4.30046E-19 1.70150E-18
 -1       887 9.52509E-05-2.85377E-05-2.85914E-05 6.29915E-09 2.13204E-18 2.11776E-18
 -1       888 1.06194E-04-3.95113E-05-2.85813E-05-9.59829E-06-6.56901E-19-5.65945E-19
 -1       889 9.01479E-05-1.80487E-05-3.08986E-05 1.63221E-06-9.47628E-19-2.14585E-18
 -1       890 1.18937E-04-4.76006E-05-3.05914E-05 6.43678E-07-1.18090E-18-2.63128E-18
 -1       891 1.11884E-04-4.41340E-05-2.90333E-05 6.20708E-06-5.52988E-19-1.72353E-18
 -1       892 1.05493E-04-3.92769E-05-2.83749E-05 8.72502E-06 1.27514E-19-5.39184E-19
 -1       893 1.00681E-04-3.47908E-05-2.82371E-05 9.31763E-06-1.12750E-19 2.24102E-19
 -1       894 9.74802E-05-3.13818E-05-2.83255E-05 8.91726E-06-1.10783E-18 1.30872E-18
 -1       895 9.55142E-05-2.90342E-05-2.84907E-05 8.05390E-06-5.38570E-19 4.19503E-19
 -1       896 9.44429E-05-2.75841E-05-2.86535E-05 7.01234E-06-4.48681E-19 5.71334E-19
 -1       897 9.39538E-05-2.68001E-05-2.87801E-05 5.95900E-06-8.97995E-19 1.28862E-18
 -1       898 9.38207E-05-2.64747E-05-2.88625E-05 4.96544E-06-9.11741E-19 3.23656E-19
 -1       899 9.38882E-05-2.64442E-05-2.89045E-05 4.06585E-06 5.98636E-19-6.71056E-19
 -1       900 9.40550E-05-2.65875E-05-2.89146E-05 3.27431E-06 1.51831E-18 1.19081E-18
 -1       901 9.42582E-05-2.68203E-05-2.89019E-05 2.59389E-06-1.09817E-18-6.10021E-19
 -1       902 9.44611E-05-2.70868E-05-2.88747E-05 2.02076E-06-1.78932E-18-1.76245E-18
 -1       903 9.46447E-05-2.73523E-05-2.88396E-05 1.54708E-06-1.32981E-18-9.49985E-19
 -1       904 9.48008E-05-2.75971E-05-2.88016E-05 1.16266E-06-1.24024E-19-3.53884E-19
 -1       905 9.49273E-05-2.78114E-05-2.87639E-05 8.56127E-07 6.30191E-19 7.79143E-19
 -1       906 9.50261E-05-2.79920E-05-2.87289E-05 6.15861E-07-8.48368E-19 1.06140E-18
 -1       907 9.51005E-05-2.81394E-05-2.86976E-05 4.30762E-07-1.40100E-18 1.13915E-18
 -1       908 9.51548E-05-2.82568E-05-2.86706E-05 2.90667E-07 8.50778E-20 9.05502E-19
 -1       909 9.51928E-05-2.83480E-05-2.86478E-05 1.86606E-07 1.37782E-18 1.52860E-18
 -1       910 9.52183E-05-2.84173E-05-2.86290E-05 1.10894E-07 1.17967E-18 2.87609E-18
 -1       911 9.52344E-05-2.84690E-05-2.86137E-05 5.71155E-08 9.57195E-19 1.07137E-18
 -1       912 9.52436E-05-2.85069E-05-2.86014E-05 2.00555E-08 1.80901E-18 2.74796E-18
 -1       913 9.52480E-05-2.85344E-05-2.85916E-05-4.35149E-09 1.91223E-18 1.92825E-18
 -1       914 9.52495E-05-2.85545E-05-2.85836E-05-1.92989E-08 2.79347E-18 1.74650E-18
 -1       915 1.21880E-04-4.69657E-05-3.21087E-05 3.05446E-06-8.57197E-19 9.52050E-19
 -1       916 9.52513E-05-2.85376E-05-2.85916E-05 1.18680E-09 2.03806E-18-3.38632E-18
 -1       917 8.60801E-05-3.34912E-05-2.24685E-05 2.50986E-05-2.21320E-18-1.05586E-18
 -1       918 1.07636E-04-4.57748E-05-2.64653E-05 1.77272E-05-1.60158E-18-2.13371E-18
 -1       919 9.51225E-05-2.59244E-05-2.96569E-05-6.50496E-06 3.18222E-19-1.34509E-18
 -1       920 6.46237E-05-1.75450E-05-2.00788E-05-1.47330E-05-6.94949E-19-3.27728E-18
 -1       921 8.41549E-05-3.30491E-05-2.18193E-05-2.68591E-05-2.16212E-18-2.57863E-18
 -1       922 8.16514E-05-2.45117E-05-2.44560E-05-1.74798E-05-7.81580E-19 1.14309E-18
 -1       923 8.13366E-05-2.93490E-05-2.21860E-05-2.37788E-05 2.03033E-18 2.30242E-18
 -1       924 8.81294E-05-2.01913E-05-2.91164E-05 6.87203E-06-3.38345E-19-1.68777E-18
 -1       925 8.94700E-05-1.96929E-05-2.99052E-05 4.69329E-06-7.62281E-19-1.61944E-18
 -1       926 9.52494E-05-2.85699E-05-2.85769E-05-2.69231E-08-5.36214E-20 3.82088E-19
 -1       927 1.17308E-04-4.95085E-05-2.90419E-05-9.09683E-06-1.55664E-18 2.16627E-19
 -1       928 6.82809E-05-2.08893E-05-2.02083E-05 1.94471E-05-2.53517E-18 2.92522E-18
 -1       929 6.77335E-05-1.96587E-05-2.04769E-05-1.73644E-05 3.20615E-21 5.08696E-19
 -1       930 6.93019E-05-1.81966E-05-2.18225E-05 1.42179E-05 9.59714E-19-2.43021E-18
 -1       931 9.52510E-05-2.85373E-05-2.85916E-05-2.66884E-09 1.00378E-18-5.74931E-19
 -1       932 9.35825E-05-2.22195E-05-3.05853E-05-2.92774E-06 1.02619E-18-1.62059E-18
 -1       933 1.01492E-04-3.48973E-05-2.85473E-05-1.01428E-05-6.08360E-19-1.11326E-18
 -1       934 1.12167E-04-4.42998E-05-2.91318E-05-7.18514E-06-1.04822E-18 1.71061E-20
 -1       935 9.52511E-05-2.85538E-05-2.85845E-05 1.76251E-08 7.42811E-19 1.99551E-18
 -1       936 9.52523E-05-2.85413E-05-2.85905E-05 5.83760E-09 1.74536E-18-2.33218E-19
 -1       937 8.67123E-05-1.59360E-05-3.03323E-05 4.91935E-07-2.97386E-19-1.91797E-18
 -1       938 9.52513E-05-2.85405E-05-2.85903E-05-6.70897E-09 1.03566E-18 8.79936E-19
 -1       939 8.87304E-05-1.77902E-05-3.04031E-05-2.72135E-06 5.74217E-19-1.81540E-18
 -1       940 9.62993E-05-2.82074E-05-2.91817E-05-8.24592E-06-1.63709E-19-1.37874E-18
 -1       941 8.81688E-05-1.67132E-05-3.06216E-05 1.30988E-06-5.20781E-19-1.96878E-18
 -1       942 8.70487E-05-1.63018E-05-3.03195E-05-2.00134E-06 2.49307E-19-2.40735E-18
 -1       943 6.49765E-05-1.61364E-05-2.08575E-05 1.02216E-05-2.31165E-18 2.57755E-18
 -1       944 9.52516E-05-2.85462E-05-2.85880E-05-1.13239E-08 2.51423E-18 1.76305E-18
 -1       945 6.53989E-05-1.52985E-05-2.14108E-05-7.41805E-06-8.16737E-19 5.32021E-19
 -1       946 9.46666E-05-2.43329E-05-3.01428E-05-4.66852E-06 7.96217E-19-1.45342E-18
 -1       947 7.78979E-05-2.46810E-05-2.27871E-05-1.93446E-05-1.33125E-18-2.22431E-18
 -1       948 9.52530E-05-2.85524E-05-2.85859E-05 1.48458E-08 1.56535E-18 2.27225E-18
 -1       949 8.63061E-05-1.56277E-05-3.02913E-05-8.65182E-07-1.56640E-19-2.36138E-18
 -1       950 7.68759E-05-1.78404E-05-2.53045E-05 8.61289E-06 5.26794E-19-1.82494E-18
 -1       951 7.80503E-05-1.85041E-05-2.55208E-05-7.95425E-06-8.88895E-19 6.14246E-19
 -1       952 8.17094E-05-1.93342E-05-2.67316E-05-6.36438E-06-1.00128E-18-5.26859E-19
 -1       953 8.46175E-05-2.03516E-05-2.75426E-05-5.27340E-06-2.44195E-19 5.62630E-19
 -1       954 8.69538E-05-2.14392E-05-2.80778E-05-4.44165E-06 1.87212E-19 9.54417E-19
 -1       955 8.88279E-05-2.25139E-05-2.84205E-05-3.74420E-06-6.59278E-19 2.75568E-18
 -1       956 9.03256E-05-2.35236E-05-2.86295E-05-3.12876E-06-1.38055E-18 2.23080E-18
 -1       957 9.15136E-05-2.44361E-05-2.87475E-05-2.57841E-06-1.99429E-19 1.25670E-18
 -1       958 9.24475E-05-2.52357E-05-2.88050E-05-2.08981E-06 5.03130E-19-2.83499E-19
 -1       959 9.31749E-05-2.59202E-05-2.88235E-05-1.66310E-06 2.34105E-19 9.66641E-20
 -1       960 9.37360E-05-2.64947E-05-2.88177E-05-1.29877E-06 5.68000E-19 1.01689E-18
 -1       961 9.41637E-05-2.69682E-05-2.87981E-05-9.94702E-07 1.27470E-18 2.55752E-18
 -1       962 9.44855E-05-2.73519E-05-2.87716E-05-7.46204E-07 5.02802E-20 2.15125E-18
 -1       963 9.47243E-05-2.76581E-05-2.87427E-05-5.47205E-07 4.80290E-19 1.66800E-18
 -1       964 9.48988E-05-2.78989E-05-2.87143E-05-3.90960E-07 8.75293E-19 1.69250E-18
 -1       965 9.50237E-05-2.80853E-05-2.86879E-05-2.70646E-07 1.83603E-19 4.88937E-19
 -1       966 9.51112E-05-2.82274E-05-2.86645E-05-1.79802E-07-3.35818E-19-3.94295E-19
 -1       967 9.51705E-05-2.83341E-05-2.86442E-05-1.12621E-07-8.65966E-19 1.27341E-18
 -1       968 9.52091E-05-2.84128E-05-2.86270E-05-6.40591E-08-8.91508E-19 1.01501E-18
 -1       969 9.52328E-05-2.84701E-05-2.86126E-05-2.98952E-08 3.25848E-19 8.75139E-19
 -1       970 9.52461E-05-2.85113E-05-2.86006E-05-6.42103E-09 1.50330E-18 2.86778E-18
 -1       971 9.82714E-05-3.10938E-05-2.87977E-05-9.49889E-06-5.24173E-19-1.13483E-18
 -1       972 9.10360E-05-1.98517E-05-3.05083E-05-2.99310E-06 7.28608E-19-2.00997E-18
 -1       973 9.48139E-05-3.10877E-05-2.73213E-05 1.17322E-05-8.15130E-19-5.11391E-19
 -1       974 9.27368E-05-2.81543E-05-2.76776E-05 9.76266E-06-1.75915E-19-2.32626E-19
 -1       975 9.19077E-05-2.65055E-05-2.80289E-05 8.01572E-06-6.17442E-19-1.27812E-18
 -1       976 9.17206E-05-2.56563E-05-2.83133E-05 6.52459E-06-8.98719E-19-1.64378E-18
 -1       977 9.19105E-05-2.53543E-05-2.85241E-05 5.26752E-06-4.03646E-19-1.23969E-18
 -1       978 9.22927E-05-2.54019E-05-2.86674E-05 4.21883E-06-4.36648E-19-1.92881E-19
 -1       979 9.27489E-05-2.56528E-05-2.87555E-05 3.34837E-06-3.07567E-19 7.87491E-19
 -1       980 9.32101E-05-2.60075E-05-2.88012E-05 2.62998E-06 1.02827E-18 1.75760E-18
 -1       981 9.36360E-05-2.63977E-05-2.88165E-05 2.04153E-06 3.02271E-19 1.30637E-18
 -1       982 9.40079E-05-2.67816E-05-2.88113E-05 1.56371E-06-1.96390E-18 1.34173E-19
 -1       983 9.43191E-05-2.71344E-05-2.87935E-05 1.18006E-06-1.79216E-18-2.53823E-19
 -1       984 9.45708E-05-2.74436E-05-2.87688E-05 8.75674E-07-6.38720E-19 2.02852E-18
 -1       985 9.47683E-05-2.77052E-05-2.87414E-05 6.37274E-07-1.16563E-18 2.34254E-18
 -1       986 9.49192E-05-2.79201E-05-2.87139E-05 4.53121E-07-7.58825E-19 3.39146E-18
 -1       987 9.50312E-05-2.80923E-05-2.86881E-05 3.12968E-07-1.78536E-19 3.42971E-18
 -1       988 9.51120E-05-2.82271E-05-2.86650E-05 2.07999E-07 2.38172E-19 2.33571E-18
 -1       989 9.51683E-05-2.83305E-05-2.86448E-05 1.30777E-07 5.82048E-19 1.67483E-18
 -1       990 9.52059E-05-2.84081E-05-2.86276E-05 7.51366E-08 1.48957E-18 3.58618E-18
 -1       991 9.52296E-05-2.84653E-05-2.86133E-05 3.60034E-08 1.29142E-18 4.15625E-18
 -1       992 9.52432E-05-2.85069E-05-2.86013E-05 9.34077E-09 2.33151E-18 2.59620E-18
 -1       993 1.06111E-04-4.47607E-05-2.62233E-05-1.92731E-05-1.75633E-18-5.41883E-19
 -1       994 8.01014E-05-2.59987E-05-2.31642E-05 1.87646E-05-2.29078E-18 2.96021E-19
 -1       995 6.91994E-05-1.58722E-05-2.28269E-05-5.37947E-06-4.40474E-19-2.70998E-18
 -1       996 9.93271E-05-3.81179E-05-2.62491E-05 1.66553E-05-1.23703E-18-1.78380E-18
 -1       997 8.63649E-05-1.81366E-05-2.92421E-05 3.68079E-06-5.12310E-19-1.48853E-18
 -1       998 8.41000E-05-1.82521E-05-2.82181E-05 5.10378E-06-1.65089E-19-1.49228E-18
 -1       999 6.98309E-05-1.55577E-05-2.32197E-05 4.32086E-06 4.43834E-19-2.34592E-18
 -1      1000 8.09951E-05-1.80884E-05-2.69573E-05 6.61123E-06 1.85628E-19-1.77604E-18
 -1      1001 9.10083E-05-3.49084E-05-2.39903E-05-2.30062E-05-1.96987E-18-2.02577E-18
 -1      1002 9.64599E-05-3.39603E-05-2.67732E-05 1.40762E-05-9.79008E-19-1.26236E-18
 -1      1003 7.47617E-05-1.89735E-05-2.38881E-05-1.18959E-05-7.24707E-19 6.52644E-19
 -1      1004 8.76224E-05-1.85013E-05-2.96222E-05-3.74561E-06 3.50445E-19-1.98636E-18
 -1      1005 9.52430E-05-2.85075E-05-2.86009E-05-1.00934E-09-6.93195E-20-1.20389E-18
 -1      1006 9.01060E-05-2.05926E-05-2.97912E-05-4.68098E-06 3.44401E-19-1.80035E-18
 -1      1007 9.00320E-05-3.11335E-05-2.52240E-05 1.72110E-05-1.49929E-18-6.50101E-19
 -1      1008 9.24341E-05-2.24749E-05-2.99824E-05-4.85483E-06 4.78394E-19-1.67359E-18
 -1      1009 7.45547E-05-2.05384E-05-2.31222E-05 1.35617E-05-2.31164E-18 2.91036E-18
 -1      1010 9.52499E-05-2.85368E-05-2.85913E-05-7.71982E-09 2.73585E-18 2.47528E-18
 -1      1011 9.52445E-05-2.85105E-05-2.86003E-05-2.09668E-09 3.91110E-19-3.01062E-18
 -1      1012 9.85920E-05-3.63213E-05-2.66752E-05-1.63413E-05-1.42000E-18-1.06824E-18
 -1      1013 8.55718E-05-1.66991E-05-2.95115E-05-6.39371E-08-2.70959E-19-1.97766E-18
 -1      1014 9.52438E-05-2.85102E-05-2.86001E-05 9.83100E-11 1.71770E-18 7.39572E-19
 -1      1015 7.62474E-05-1.97221E-05-2.42198E-05-1.14543E-05-9.73459E-19-2.08244E-18
 -1      1016 9.27783E-05-2.49569E-05-2.90668E-05-7.77401E-06 1.00055E-19-1.44603E-18
 -1      1017 9.52461E-05-2.85178E-05-2.85978E-05-5.00561E-10 1.76569E-18-5.16094E-19
 -1      1018 6.75034E-05-1.50593E-05-2.24476E-05 8.95977E-07-3.56593E-19 7.67543E-19
 -1      1019 8.12844E-05-1.88668E-05-2.67491E-05-2.21378E-06-1.68780E-19 1.42227E-18
 -1      1020 8.43377E-05-2.01543E-05-2.75073E-05-2.13254E-06 2.34678E-19 1.44828E-18
 -1      1021 8.67207E-05-2.13518E-05-2.80163E-05-1.99984E-06 5.45743E-20 5.29452E-19
 -1      1022 8.86293E-05-2.24848E-05-2.83477E-05-1.82467E-06-1.72201E-18 2.81603E-19
 -1      1023 9.01451E-05-2.35128E-05-2.85566E-05-1.61370E-06-1.38859E-18-6.11214E-20
 -1      1024 9.13562E-05-2.44348E-05-2.86807E-05-1.38479E-06-3.22465E-19 4.53941E-19
 -1      1025 9.23124E-05-2.52357E-05-2.87475E-05-1.15283E-06 8.18227E-19-2.76546E-19
 -1      1026 9.30664E-05-2.59238E-05-2.87756E-05-9.35028E-07 1.10651E-18-5.23855E-20
 -1      1027 9.36518E-05-2.65011E-05-2.87791E-05-7.40169E-07 1.00373E-18 5.54091E-19
 -1      1028 9.41008E-05-2.69768E-05-2.87676E-05-5.71811E-07 5.66494E-19 9.36835E-21
 -1      1029 9.44408E-05-2.73624E-05-2.87480E-05-4.30937E-07 5.81091E-19 7.69154E-19
 -1      1030 9.46942E-05-2.76698E-05-2.87248E-05-3.16336E-07 2.25226E-19 9.78033E-19
 -1      1031 9.48797E-05-2.79110E-05-2.87009E-05-2.25440E-07-1.11724E-18-1.13266E-18
 -1      1032 9.50128E-05-2.80973E-05-2.86781E-05-1.55026E-07-7.39286E-20-2.24419E-18
 -1      1033 9.51058E-05-2.82388E-05-2.86573E-05-1.01701E-07 7.20161E-20-1.79719E-18
 -1      1034 9.51688E-05-2.83446E-05-2.86390E-05-6.22756E-08-5.79913E-19 9.97451E-20
 -1      1035 9.52093E-05-2.84221E-05-2.86231E-05-3.38752E-08 1.21278E-20 2.66999E-19
 -1      1036 9.52339E-05-2.84782E-05-2.86096E-05-1.41796E-08 1.12873E-18 7.66317E-19
 -1      1037 9.45990E-05-3.10707E-05-2.72251E-05-1.38819E-05-1.05275E-18-1.58794E-18
 -1      1038 8.89423E-05-2.41628E-05-2.77640E-05 6.75580E-06-2.92779E-19-2.43762E-19
 -1      1039 8.84980E-05-2.48653E-05-2.72738E-05 8.77627E-06-1.66662E-19 5.63521E-20
 -1      1040 8.87957E-05-2.65240E-05-2.66779E-05 1.14348E-05-1.36069E-18-4.77899E-19
 -1      1041 8.96489E-05-2.40119E-05-2.81304E-05 5.22319E-06-1.04841E-18-5.77756E-19
 -1      1042 9.04673E-05-2.42214E-05-2.83909E-05 4.03838E-06-1.14662E-18 3.38194E-19
 -1      1043 9.12801E-05-2.46233E-05-2.85671E-05 3.12123E-06-1.21395E-18 4.27815E-19
 -1      1044 9.20420E-05-2.51271E-05-2.86781E-05 2.40060E-06 3.78944E-20 2.93362E-19
 -1      1045 9.27161E-05-2.56550E-05-2.87409E-05 1.83664E-06 5.91979E-19 1.19833E-18
 -1      1046 9.32942E-05-2.61663E-05-2.87694E-05 1.39340E-06-1.19728E-19 1.72810E-18
 -1      1047 9.37736E-05-2.66331E-05-2.87747E-05 1.04654E-06-1.32425E-18 8.86211E-19
 -1      1048 9.41606E-05-2.70420E-05-2.87653E-05 7.76222E-07-2.14577E-18-8.11364E-20
 -1      1049 9.44656E-05-2.73888E-05-2.87474E-05 5.66967E-07-1.32930E-18 1.62517E-18
 -1      1050 9.47005E-05-2.76750E-05-2.87254E-05 4.06420E-07-2.23048E-18 2.81682E-18
 -1      1051 9.48771E-05-2.79056E-05-2.87022E-05 2.84559E-07-4.43340E-19 3.37794E-18
 -1      1052 9.50066E-05-2.80876E-05-2.86797E-05 1.93206E-07 9.73431E-19 2.54106E-18
 -1      1053 9.50989E-05-2.82281E-05-2.86590E-05 1.25682E-07 1.80741E-18 1.78029E-18
 -1      1054 9.51625E-05-2.83346E-05-2.86405E-05 7.65757E-08 2.03102E-19 1.71610E-18
 -1      1055 9.52041E-05-2.84134E-05-2.86246E-05 4.18613E-08 6.08660E-19 9.39939E-19
 -1      1056 9.52303E-05-2.84714E-05-2.86109E-05 1.73644E-08 3.50920E-18 6.56879E-19
 -1      1057 7.24826E-05-1.63985E-05-2.40287E-05-4.65803E-06-3.61556E-19 1.23396E-18
 -1      1058 8.59647E-05-1.70934E-05-2.95163E-05-2.20050E-06 1.64586E-20-2.11428E-18
 -1      1059 9.38055E-05-2.74854E-05-2.84227E-05-1.00674E-05-3.98154E-19-1.49652E-18
 -1      1060 9.52280E-05-2.84690E-05-2.86110E-05 3.61188E-09 7.16657E-20-3.41969E-18
 -1      1061 8.84997E-05-2.91760E-05-2.54095E-05-1.74478E-05-1.33210E-18-1.81674E-18
 -1      1062 8.35969E-05-1.71582E-05-2.84716E-05-1.58909E-07-2.31079E-19-1.51465E-18
 -1      1063 7.53375E-05-1.63011E-05-2.53002E-05 1.41035E-06 1.80408E-19-1.85485E-18
 -1      1064 7.73365E-05-1.75466E-05-2.56286E-05-2.29414E-06-1.08305E-18 9.60779E-19
 -1      1065 8.34974E-05-2.57879E-05-2.47299E-05 1.54019E-05-1.34603E-18-3.09446E-20
 -1      1066 8.91527E-05-2.22532E-05-2.86674E-05-7.32383E-06 1.14946E-19-1.84338E-18
 -1      1067 8.49126E-05-1.86522E-05-2.83988E-05-4.55669E-06 2.14860E-21-1.87138E-18
 -1      1068 9.52288E-05-2.84695E-05-2.86111E-05-6.16847E-09 3.53702E-19-1.78798E-18
 -1      1069 7.29179E-05-1.73183E-05-2.38222E-05 6.29876E-06-4.97889E-19 1.12371E-18
 -1      1070 7.77649E-05-1.73765E-05-2.58808E-05-4.28159E-06-1.44760E-19-2.00799E-18
 -1      1071 8.05330E-05-1.70330E-05-2.72175E-05-5.33046E-07-2.55129E-19-1.62789E-18
 -1      1072 8.53098E-05-2.07835E-05-2.76481E-05 4.83145E-07-4.91493E-19 1.82138E-18
 -1      1073 8.74287E-05-2.18893E-05-2.80886E-05 2.13983E-08-1.65366E-18 1.35170E-18
 -1      1074 8.91180E-05-2.29060E-05-2.83760E-05-2.03837E-07-2.05908E-18 8.56200E-19
 -1      1075 9.04461E-05-2.38178E-05-2.85540E-05-2.99227E-07-2.71005E-19 8.05833E-19
 -1      1076 9.15726E-05-2.46835E-05-2.86668E-05-3.30421E-07 1.11607E-18 6.59330E-19
 -1      1077 9.24699E-05-2.54395E-05-2.87276E-05-3.26669E-07 6.25388E-19 5.42112E-19
 -1      1078 9.31789E-05-2.60868E-05-2.87539E-05-2.93417E-07 6.27948E-19 2.38331E-19
 -1      1079 9.37335E-05-2.66316E-05-2.87581E-05-2.47790E-07 5.40274E-19-4.34869E-19
 -1      1080 9.41613E-05-2.70813E-05-2.87486E-05-1.99739E-07 3.97543E-19-2.20430E-18
 -1      1081 9.44860E-05-2.74459E-05-2.87315E-05-1.54776E-07 2.33571E-19-4.31597E-18
 -1      1082 9.47283E-05-2.77363E-05-2.87109E-05-1.15585E-07-7.77923E-19-4.73171E-18
 -1      1083 9.49055E-05-2.79636E-05-2.86894E-05-8.30928E-08-9.30886E-19-3.23509E-18
 -1      1084 9.50321E-05-2.81385E-05-2.86687E-05-5.72060E-08-1.31323E-19-2.52949E-18
 -1      1085 9.51200E-05-2.82708E-05-2.86496E-05-3.73106E-08 1.33787E-18-3.33540E-18
 -1      1086 9.51792E-05-2.83694E-05-2.86327E-05-2.23424E-08-2.07759E-19-2.72943E-18
 -1      1087 8.55631E-05-2.22436E-05-2.71315E-05 6.40539E-06-6.79124E-19 1.08861E-19
 -1      1088 8.84793E-05-2.29324E-05-2.80910E-05 3.40717E-06-1.07234E-18 1.13284E-18
 -1      1089 8.43194E-05-2.33223E-05-2.61441E-05-1.23392E-05-9.23141E-19-1.73333E-18
 -1      1090 8.69993E-05-2.24050E-05-2.76816E-05 4.69297E-06-9.77012E-19 3.19712E-20
 -1      1091 8.41473E-05-2.25626E-05-2.63880E-05 8.77202E-06-4.15329E-19 1.40100E-20
 -1      1092 8.97337E-05-2.35472E-05-2.83650E-05 2.50360E-06-1.58398E-18 1.41972E-18
 -1      1093 9.08253E-05-2.42186E-05-2.85431E-05 1.85577E-06 1.39255E-19 1.26277E-18
 -1      1094 9.17490E-05-2.48901E-05-2.86540E-05 1.38061E-06 9.43228E-20 1.72632E-18
 -1      1095 9.25447E-05-2.55347E-05-2.87184E-05 1.01973E-06 1.59647E-20 1.98101E-18
 -1      1096 9.31987E-05-2.61183E-05-2.87486E-05 7.49264E-07-2.23990E-19 2.47711E-19
 -1      1097 9.37250E-05-2.66277E-05-2.87558E-05 5.46520E-07-1.19789E-18-8.75888E-19
 -1      1098 9.41403E-05-2.70599E-05-2.87486E-05 3.94781E-07-2.25182E-18-2.55014E-18
 -1      1099 9.44616E-05-2.74177E-05-2.87330E-05 2.81509E-07-2.64584E-18-2.33951E-18
 -1      1100 9.47051E-05-2.77075E-05-2.87132E-05 1.97312E-07-1.22590E-18-3.03047E-18
 -1      1101 9.48857E-05-2.79374E-05-2.86921E-05 1.35125E-07 1.75511E-18-4.22146E-18
 -1      1102 9.50163E-05-2.81162E-05-2.86714E-05 8.96054E-08 1.93558E-18-3.12689E-18
 -1      1103 9.51080E-05-2.82526E-05-2.86523E-05 5.67104E-08 5.28508E-19-2.50880E-18
 -1      1104 9.51700E-05-2.83547E-05-2.86351E-05 3.30827E-08 4.69321E-19-3.51699E-18
 -1      1105 9.52051E-05-2.84193E-05-2.86224E-05 1.43147E-08 4.24993E-19-5.18828E-18
 -1      1106 7.45573E-05-1.69197E-05-2.47056E-05 1.42740E-06-1.04229E-18 1.27887E-18
 -1      1107 7.87367E-05-2.08794E-05-2.47886E-05 1.04913E-05-1.34497E-18 2.35636E-18
 -1      1108 8.82655E-05-2.39159E-05-2.75725E-05-1.02243E-05-3.88969E-19-1.87615E-18
 -1      1109 8.26199E-05-1.96228E-05-2.69973E-05 1.17934E-06-2.29360E-19 1.63703E-18
 -1      1110 7.94286E-05-1.85651E-05-2.60846E-05 2.12437E-06-4.48846E-19 1.74949E-18
 -1      1111 9.52167E-05-2.84417E-05-2.86178E-05-1.16876E-08-1.85577E-19-2.82069E-18
 -1      1112 9.52084E-05-2.84276E-05-2.86205E-05-1.08870E-09 3.77594E-19-2.04021E-18
 -1      1113 8.82356E-05-2.24980E-05-2.81731E-05 1.41228E-06-2.10455E-18 8.97859E-19
 -1      1114 8.99920E-05-2.35981E-05-2.84625E-05 1.03090E-06-1.04720E-18 1.61669E-18
 -1      1115 8.18259E-05-2.00936E-05-2.64726E-05 4.83347E-06-6.11241E-19 1.63307E-18
 -1      1116 8.24219E-05-1.96382E-05-2.69119E-05-7.13328E-06-5.21270E-19-1.41639E-18
 -1      1117 7.77756E-05-1.88923E-05-2.52313E-05 6.12646E-06-3.23701E-19 1.27680E-18
 -1      1118 8.64365E-05-2.16185E-05-2.77906E-05 2.14055E-06-1.09553E-18 1.25825E-18
 -1      1119 1.16887E-04 2.59344E-10-4.20435E-05-4.01833E-05-3.03238E-19 1.12524E-17
 -1      1120 9.00666E-05 7.66070E-11-3.77498E-05-2.22066E-05-1.74806E-19 2.03696E-18
 -1      1121 8.54366E-05 4.41093E-11-3.62767E-05-1.53829E-05-1.24567E-19-2.02369E-18
 -1      1122 8.31813E-05 3.19825E-11-3.54129E-05-1.11314E-05-8.65562E-20-3.94476E-18
 -1      1123 8.16838E-05 2.47022E-11-3.48229E-05-7.95979E-06-5.95041E-20-4.92198E-18
 -1      1124 8.05934E-05 1.98043E-11-3.43950E-05-5.49394E-06-3.43048E-20-5.40935E-18
 -1      1125 7.98255E-05 1.65748E-11-3.40943E-05-3.49298E-06-1.92171E-20-5.59348E-18
 -1      1126 7.93738E-05 1.48627E-11-3.39170E-05-1.75874E-06-1.10908E-20-5.60681E-18
 -1      1127 7.92535E-05 1.45710E-11-3.38679E-05-1.40208E-07 1.30033E-21-5.52166E-18
 -1      1128 7.94563E-05 1.56003E-11-3.39441E-05 1.52244E-06 2.53713E-20-5.39290E-18
 -1      1129 7.99600E-05 1.78717E-11-3.41377E-05 3.37811E-06 3.97576E-20-5.16402E-18
 -1      1130 8.07333E-05 2.13210E-11-3.44374E-05 5.54690E-06 5.85512E-20-4.69207E-18
 -1      1131 8.17766E-05 2.62055E-11-3.48479E-05 8.18974E-06 7.73447E-20-3.94080E-18
 -1      1132 8.31917E-05 3.31954E-11-3.54126E-05 1.15178E-05 1.09320E-19-2.68327E-18
 -1      1133 8.53447E-05 4.47134E-11-3.62626E-05 1.58567E-05 1.48760E-19-2.64420E-19
 -1      1134 8.96545E-05 7.13404E-11-3.77783E-05 2.22673E-05 1.52572E-19 4.23892E-18
 -1      1135 1.06978E-04 1.68129E-10-4.08575E-05 3.50603E-05 3.02391E-19 1.33277E-17
 -1      1136 1.29861E-04-2.59342E-05-4.04166E-05-2.52639E-05-1.29098E-18 1.71706E-17
 -1      1137 9.94597E-05-2.94805E-05-3.21914E-05-4.91357E-07-4.31352E-19 1.41438E-17
 -1      1138 9.40662E-05-2.82194E-05-2.90530E-05 4.29014E-07-1.44432E-19 1.00763E-17
 -1      1139 9.39603E-05-2.83059E-05-2.83779E-05 2.84382E-07-7.60808E-20 7.31175E-18
 -1      1140 9.57199E-05-2.88168E-05-2.87815E-05 2.15086E-07-9.63897E-20 5.10208E-18
 -1      1141 9.87205E-05-2.96881E-05-2.96753E-05 1.94498E-07-1.41476E-19 3.70196E-18
 -1      1142 1.02716E-04-3.08645E-05-3.08790E-05 2.01636E-07-6.63233E-21 2.97234E-18
 -1      1143 1.07567E-04-3.23013E-05-3.23262E-05 2.26231E-07-4.10571E-20 2.45253E-18
 -1      1144 1.13065E-04-3.39302E-05-3.39392E-05 2.55860E-07-1.75362E-20 1.65478E-18
 -1      1145 1.18759E-04-3.56111E-05-3.55620E-05 2.66471E-07-4.58448E-20 8.79061E-19
 -1      1146 1.23747E-04-3.70725E-05-3.69079E-05 2.12837E-07-9.16847E-21-2.74386E-19
 -1      1147 1.26533E-04-3.78676E-05-3.75430E-05 2.86447E-08 2.85874E-20 1.17910E-19
 -1      1148 1.25169E-04-3.74239E-05-3.69746E-05-3.39199E-07-2.14670E-20-2.03235E-19
 -1      1149 1.18125E-04-3.53086E-05-3.49239E-05-8.35199E-07-7.96674E-20-1.34085E-18
 -1      1150 1.05984E-04-3.17371E-05-3.17115E-05-1.20011E-06-2.56922E-20-7.74612E-19
 -1      1151 9.28426E-05-2.79386E-05-2.84423E-05-1.05883E-06-1.82641E-20-1.18648E-18
 -1      1152 8.51833E-05-2.57561E-05-2.66120E-05-2.91504E-07-2.21552E-20-2.53168E-18
 -1      1153 8.75292E-05-2.64263E-05-2.71850E-05 6.73812E-07 3.88709E-20-4.64227E-18
 -1      1154 9.86124E-05-2.96063E-05-2.98954E-05 1.20851E-06 6.23330E-20-7.10555E-18
 -1      1155 1.12495E-04-3.36506E-05-3.34473E-05 1.10402E-06 8.43625E-20-7.79101E-18
 -1      1156 1.23284E-04-3.68507E-05-3.64115E-05 6.41224E-07 3.31468E-20-7.22699E-18
 -1      1157 1.28395E-04-3.84047E-05-3.79990E-05 1.82515E-07-5.49248E-20-5.09387E-18
 -1      1158 1.28364E-04-3.84340E-05-3.81845E-05-1.02491E-07 3.47581E-20-4.27751E-18
 -1      1159 1.25065E-04-3.74821E-05-3.73817E-05-2.17418E-07 7.48797E-20-5.37503E-18
 -1      1160 1.20317E-04-3.60870E-05-3.60804E-05-2.27967E-07 1.92283E-19-5.90631E-18
 -1      1161 1.15352E-04-3.46168E-05-3.46528E-05-1.92751E-07 7.63806E-20-4.94601E-18
 -1      1162 1.10826E-04-3.32698E-05-3.33168E-05-1.46301E-07 1.71763E-19-3.92261E-18
 -1      1163 1.07001E-04-3.21264E-05-3.21697E-05-1.03999E-07-3.26815E-19-4.35352E-18
 -1      1164 1.03915E-04-3.12006E-05-3.12354E-05-7.05496E-08 1.56229E-19-3.18295E-18
 -1      1165 1.01502E-04-3.04747E-05-3.05007E-05-4.59507E-08 5.73071E-21-4.31577E-18
 -1      1166 9.96597E-05-2.99188E-05-2.99374E-05-2.86255E-08 3.45249E-19-3.76299E-18
 -1      1167 9.82797E-05-2.95014E-05-2.95143E-05-1.67818E-08 5.81243E-20-2.99039E-18
 -1      1168 9.72643E-05-2.91935E-05-2.92023E-05-8.88669E-09-3.40343E-21-4.13465E-18
 -1      1169 9.65306E-05-2.89705E-05-2.89763E-05-3.76298E-09 1.67090E-22-4.92400E-18
 -1      1170 9.60111E-05-2.88122E-05-2.88160E-05-5.51920E-10 2.66229E-19-4.19790E-18
 -1      1171 9.56523E-05-2.87025E-05-2.87048E-05 1.35761E-09-1.27349E-19-4.01919E-18
 -1      1172 9.54121E-05-2.86288E-05-2.86301E-05 2.39545E-09 3.38739E-19-5.28918E-18
 -1      1173 9.52582E-05-2.85813E-05-2.85820E-05 2.86236E-09-1.33873E-19-1.62011E-18
 -1      1174 9.51659E-05-2.85526E-05-2.85529E-05 2.96786E-09 1.17150E-19 5.36784E-19
 -1      1175 9.51169E-05-2.85371E-05-2.85371E-05 2.85716E-09 4.61873E-20-1.92578E-18
 -1      1176 9.50973E-05-2.85306E-05-2.85305E-05 2.62989E-09-3.70772E-19-5.30021E-18
 -1      1177 9.50972E-05-2.85302E-05-2.85299E-05 2.35328E-09-2.50210E-19-7.11932E-18
 -1      1178 9.51095E-05-2.85335E-05-2.85332E-05 2.07126E-09 2.33081E-19-9.30848E-18
 -1      1179 9.51289E-05-2.85391E-05-2.85388E-05 1.81038E-09-3.26674E-19-7.51662E-18
 -1      1180 9.51521E-05-2.85458E-05-2.85456E-05 1.58281E-09 7.87658E-20-6.72168E-18
 -1      1181 9.51763E-05-2.85530E-05-2.85527E-05 1.38516E-09 7.20715E-19-2.37188E-18
 -1      1182 9.51995E-05-2.85598E-05-2.85595E-05 1.18828E-09 2.53581E-19-9.29652E-19
 -1      1183 9.52194E-05-2.85657E-05-2.85652E-05 8.92905E-10 4.23607E-19-7.86618E-21
 -1      1184 9.52331E-05-2.85696E-05-2.85692E-05 2.92030E-10-2.90168E-19-1.68712E-18
 -1      1185 9.52379E-05-2.85714E-05-2.85715E-05-3.06181E-10 3.85448E-20-1.37482E-18
 -1      1186 1.30732E-04-3.75451E-05-3.88628E-05 1.19412E-05-2.28090E-19 2.07286E-17
 -1      1187 9.85351E-05-2.87949E-05-3.19206E-05 7.33363E-07 1.21020E-19 1.68133E-17
 -1      1188 9.39204E-05-2.80108E-05-2.89253E-05 9.66480E-08 1.15739E-19 1.30679E-17
 -1      1189 9.33514E-05-2.80161E-05-2.81914E-05-1.94145E-09 7.30698E-20 1.05734E-17
 -1      1190 9.45067E-05-2.83872E-05-2.84052E-05-3.79491E-08 3.44173E-20 8.59225E-18
 -1      1191 9.65676E-05-2.89941E-05-2.89959E-05-5.87728E-08 7.73571E-20 7.19239E-18
 -1      1192 9.91007E-05-2.97376E-05-2.97398E-05-7.98859E-08-7.21078E-20 7.12029E-18
 -1      1193 1.01770E-04-3.05221E-05-3.05146E-05-1.03776E-07-2.88915E-20 6.93998E-18
 -1      1194 1.04207E-04-3.12374E-05-3.12052E-05-1.26729E-07 1.55240E-19 5.37834E-18
 -1      1195 1.05957E-04-3.17495E-05-3.16769E-05-1.39148E-07 2.00459E-20 4.66488E-18
 -1      1196 1.06489E-04-3.19042E-05-3.17796E-05-1.25442E-07 1.42096E-19 4.00159E-18
 -1      1197 1.05291E-04-3.15539E-05-3.13810E-05-6.79164E-08-5.16955E-20 4.71448E-18
 -1      1198 1.02078E-04-3.06159E-05-3.04262E-05 4.21829E-08 1.51189E-19 3.68788E-18
 -1      1199 9.70782E-05-2.91518E-05-2.90096E-05 1.88329E-07-1.31651E-19 2.79341E-18
 -1      1200 9.12473E-05-2.74307E-05-2.74146E-05 3.19829E-07 9.38701E-20 2.38959E-18
 -1      1201 8.61819E-05-2.59133E-05-2.60694E-05 3.68355E-07 5.31116E-20 6.70480E-19
 -1      1202 8.35761E-05-2.51053E-05-2.54021E-05 2.91365E-07-1.52664E-19 9.54474E-19
 -1      1203 8.44240E-05-2.53225E-05-2.56523E-05 1.09858E-07 4.59912E-20-8.54630E-19
 -1      1204 8.84863E-05-2.65170E-05-2.67542E-05-9.87457E-08-1.81649E-20-1.67808E-18
 -1      1205 9.44258E-05-2.82971E-05-2.83722E-05-2.50724E-07-8.19426E-20-2.32574E-18
 -1      1206 1.00512E-04-3.01355E-05-3.00615E-05-3.05412E-07-3.45522E-20-8.12040E-19
 -1      1207 1.05370E-04-3.16070E-05-3.14493E-05-2.74555E-07-1.33050E-19 2.44740E-19
 -1      1208 1.08348E-04-3.25087E-05-3.23369E-05-1.97285E-07 1.66495E-19-8.60916E-19
 -1      1209 1.09454E-04-3.28427E-05-3.27020E-05-1.11662E-07 2.47729E-19-2.96859E-18
 -1      1210 1.09088E-04-3.27316E-05-3.26383E-05-4.07615E-08 1.03570E-19-3.14475E-18
 -1      1211 1.07769E-04-3.23338E-05-3.22847E-05 7.58177E-09 1.10263E-21-1.74302E-18
 -1      1212 1.05966E-04-3.17915E-05-3.17750E-05 3.49609E-08-5.03064E-20-2.34149E-18
 -1      1213 1.04029E-04-3.12095E-05-3.12135E-05 4.66774E-08-2.15854E-19-2.35883E-18
 -1      1214 1.02179E-04-3.06546E-05-3.06693E-05 4.83129E-08-8.89219E-21-1.74571E-18
 -1      1215 1.00540E-04-3.01629E-05-3.01818E-05 4.43228E-08-2.03188E-19-7.44191E-19
 -1      1216 9.91598E-05-2.97492E-05-2.97684E-05 3.77748E-08 1.10563E-19-1.72298E-19
 -1      1217 9.80442E-05-2.94147E-05-2.94320E-05 3.05618E-08-1.15665E-19 1.30211E-19
 -1      1218 9.71719E-05-2.91531E-05-2.91678E-05 2.37302E-08-4.53697E-19 2.60092E-18
 -1      1219 9.65104E-05-2.89546E-05-2.89665E-05 1.77752E-08-2.00848E-19 3.44126E-18
 -1      1220 9.60234E-05-2.88084E-05-2.88177E-05 1.28608E-08-5.94329E-22 1.34529E-18
 -1      1221 9.56759E-05-2.87040E-05-2.87110E-05 8.96763E-09-2.06670E-19-1.20466E-18
 -1      1222 9.54368E-05-2.86321E-05-2.86372E-05 5.98650E-09 4.40072E-19-4.17895E-18
 -1      1223 9.52796E-05-2.85848E-05-2.85884E-05 3.77301E-09 7.20255E-20-4.25517E-18
 -1      1224 9.51829E-05-2.85557E-05-2.85581E-05 2.17853E-09 4.45264E-20-4.64169E-18
 -1      1225 9.51295E-05-2.85395E-05-2.85411E-05 1.06584E-09 1.25328E-21-3.88964E-18
 -1      1226 9.51062E-05-2.85324E-05-2.85334E-05 3.15884E-10 1.35754E-19-5.48679E-18
 -1      1227 9.51033E-05-2.85314E-05-2.85320E-05-1.70666E-10-6.79549E-19-4.98121E-19
 -1      1228 9.51135E-05-2.85344E-05-2.85347E-05-4.74630E-10 1.58780E-19-3.07798E-18
 -1      1229 9.51315E-05-2.85397E-05-2.85398E-05-6.60809E-10-1.25588E-19-4.56427E-18
 -1      1230 9.51537E-05-2.85462E-05-2.85462E-05-7.80540E-10-4.60416E-19-2.42940E-18
 -1      1231 9.51772E-05-2.85532E-05-2.85531E-05-8.72385E-10 1.20054E-19-1.57588E-18
 -1      1232 9.51999E-05-2.85600E-05-2.85597E-05-9.57697E-10 9.25196E-20-5.74399E-18
 -1      1233 9.52195E-05-2.85658E-05-2.85654E-05-1.00310E-09-1.43393E-19-6.93204E-18
 -1      1234 9.52332E-05-2.85698E-05-2.85693E-05-7.82381E-10 4.51479E-19-6.50996E-18
 -1      1235 9.52378E-05-2.85714E-05-2.85715E-05 2.48002E-10 2.58022E-19-5.11383E-18
 -1      1236 9.52369E-05-2.85705E-05-2.85715E-05 1.83693E-10-5.21571E-18-9.41749E-19
 -1      1237 9.52386E-05-2.85753E-05-2.85693E-05-2.48506E-10-3.36158E-18 1.57325E-19
 -1      1238 9.52423E-05-2.85881E-05-2.85657E-05-8.43958E-10 3.84519E-18 6.63007E-19
 -1      1239 9.52473E-05-2.86049E-05-2.85610E-05-9.36257E-10 7.84647E-18-2.16930E-19
 -1      1240 9.52523E-05-2.86220E-05-2.85561E-05-8.28446E-10 3.77948E-18-7.82888E-19
 -1      1241 9.52567E-05-2.86369E-05-2.85518E-05-6.37760E-10-7.66699E-18-1.60836E-18
 -1      1242 9.52601E-05-2.86483E-05-2.85484E-05-4.37832E-10-1.79586E-17-6.86881E-20
 -1      1243 9.52623E-05-2.86555E-05-2.85463E-05-2.20913E-10-1.48164E-17-3.36993E-19
 -1      1244 9.52630E-05-2.86580E-05-2.85455E-05-4.44771E-12-1.15816E-17 9.74173E-20
 -1      1245 9.52623E-05-2.86557E-05-2.85462E-05 2.13906E-10-1.10047E-17 1.50036E-19
 -1      1246 9.52602E-05-2.86486E-05-2.85483E-05 4.35539E-10-8.40222E-18-3.66941E-19
 -1      1247 9.52568E-05-2.86372E-05-2.85517E-05 6.53326E-10-9.33867E-18 1.01358E-19
 -1      1248 9.52524E-05-2.86222E-05-2.85560E-05 8.39257E-10-6.52080E-18 3.84642E-20
 -1      1249 9.52473E-05-2.86049E-05-2.85610E-05 9.62708E-10-5.35505E-18-3.08414E-19
 -1      1250 9.52423E-05-2.85878E-05-2.85657E-05 1.01447E-09-5.30795E-18-7.42888E-19
 -1      1251 9.52388E-05-2.85755E-05-2.85693E-05 1.74242E-10 8.94173E-19-5.62391E-19
 -1      1252 9.52368E-05-2.85704E-05-2.85715E-05-1.65925E-10 2.13068E-18 7.43753E-19
 -1      1253 3.41397E-05-1.06956E-04 1.81926E-05-1.33458E-05 1.10271E-17 2.31280E-18
 -1      1254 1.74360E-05-6.42909E-05 9.46393E-06-2.40429E-05 2.16298E-17 7.68217E-18
 -1      1255 7.26337E-06-9.12272E-06-5.60045E-06-9.64029E-07 2.28936E-17 1.34085E-17
 -1      1256 3.02058E-05 2.45294E-05-2.45750E-05 4.93686E-05 1.85144E-17 1.67780E-17
 -1      1257 9.91804E-05 1.64669E-05-4.47894E-05 9.85910E-05 1.39557E-17 1.89549E-17
 -1      1258 1.95617E-04-2.66163E-05-6.24213E-05 1.09790E-04 7.23578E-18 1.53830E-17
 -1      1259 2.80237E-04-7.53648E-05-7.42892E-05 6.99008E-05 1.73303E-18 3.08659E-18
 -1      1260 3.09853E-04-9.33815E-05-7.79966E-05-6.81513E-06 1.00013E-18-1.03728E-17
 -1      1261 2.67529E-04-6.73845E-05-7.26296E-05-8.06487E-05 5.40947E-18-2.03356E-17
 -1      1262 1.72972E-04-1.51759E-05-5.86602E-05-1.12473E-04 1.28808E-17-2.54669E-17
 -1      1263 7.77020E-05 2.27807E-05-3.96366E-05-8.78041E-05 2.01069E-17-2.47808E-17
 -1      1264 2.05640E-05 1.88686E-05-1.94015E-05-3.52631E-05 2.51281E-17-2.05787E-17
 -1      1265 8.25167E-06-2.57051E-05-4.14706E-07 1.14055E-05 2.36204E-17-1.29045E-17
 -1      1266 2.42366E-05-8.29424E-05 1.34275E-05 2.51145E-05 1.26513E-17-4.29996E-18
 -1      1267 3.74674E-05-1.14290E-04 1.94769E-05 5.62427E-06 8.29245E-19-8.59474E-19
 -1      1268 3.23044E-05-1.03937E-04 1.75922E-05-2.03455E-05-1.09064E-17-2.75317E-18
 -1      1269 1.50547E-05-5.97176E-05 8.40157E-06-2.64565E-05-1.96961E-17-8.22723E-18
 -1      1270 7.64937E-06-6.63436E-06-6.98434E-06 7.00426E-07-2.31528E-17-1.50967E-17
 -1      1271 3.68623E-05 2.37998E-05-2.69575E-05 5.44212E-05-2.18179E-17-2.14299E-17
 -1      1272 1.10824E-04 1.18737E-05-4.75106E-05 1.02493E-04-1.51560E-17-2.22431E-17
 -1      1273 2.08588E-04-3.25153E-05-6.45265E-05 1.11358E-04-7.98879E-18-1.72422E-17
 -1      1274 2.91946E-04-7.92251E-05-7.62922E-05 6.65947E-05-2.09111E-18-5.40576E-18
 -1      1275 3.20178E-04-9.65909E-05-7.95503E-05-1.32182E-05-7.50789E-19 9.13440E-18
 -1      1276 2.70496E-04-6.71432E-05-7.32924E-05-8.48072E-05-5.72128E-18 2.01120E-17
 -1      1277 1.76232E-04-1.67313E-05-5.92142E-05-1.11953E-04-1.30723E-17 2.60344E-17
 -1      1278 8.17929E-05 1.99408E-05-4.05501E-05-8.83670E-05-2.04711E-17 2.59565E-17
 -1      1279 2.24509E-05 1.85751E-05-2.04480E-05-3.63419E-05-2.09149E-17 1.94530E-17
 -1      1280 7.21692E-06-2.12196E-05-2.06993E-06 1.04294E-05-1.32628E-17 8.39410E-18
 -1      1281 1.97648E-05-7.43285E-05 1.18113E-05 2.71873E-05-6.31378E-18 2.28297E-18
 -1      1282 3.56642E-05-1.11011E-04 1.88813E-05 1.35751E-05-1.21973E-19 1.96816E-19
 -1      1283 1.05619E-04-2.23182E-05-3.82183E-05-1.62528E-05-4.68409E-19 9.33007E-18
 -1      1284 9.21537E-05-7.15454E-06-3.65718E-05-1.82627E-05-1.38093E-18 1.25096E-19
 -1      1285 9.44928E-05-7.29765E-06-3.77058E-05-2.37550E-05-1.77199E-18 2.24765E-18
 -1      1286 8.73471E-05-4.35600E-06-3.56294E-05-1.38075E-05-1.40851E-18-2.87168E-18
 -1      1287 8.88361E-05-4.37798E-06-3.61495E-05-1.63816E-05-1.59359E-18-1.57286E-18
 -1      1288 9.40906E-05-1.10462E-05-3.56602E-05-1.65959E-05-2.45629E-18 1.20755E-19
 -1      1289 8.47542E-05-3.17870E-06-3.49834E-05-1.01091E-05-1.14424E-18-4.37673E-18
 -1      1290 8.57432E-05-3.17048E-06-3.53239E-05-1.19226E-05-1.31078E-18-3.70431E-18
 -1      1291 8.91621E-05-7.56443E-06-3.50418E-05-1.27108E-05-2.20814E-18-2.37169E-18
 -1      1292 8.29466E-05-2.45571E-06-3.45047E-05-7.21058E-06-8.14793E-19-5.14933E-18
 -1      1293 8.36701E-05-2.45407E-06-3.47511E-05-8.60796E-06-9.44998E-19-4.79262E-18
 -1      1294 8.61769E-05-5.67925E-06-3.45600E-05-9.29644E-06-1.70520E-18-3.69150E-18
 -1      1295 8.16406E-05-1.96763E-06-3.41480E-05-4.93438E-06-5.39004E-19-5.50833E-18
 -1      1296 8.21668E-05-1.97045E-06-3.43263E-05-6.03506E-06-6.46339E-19-5.32437E-18
 -1      1297 8.41064E-05-4.47679E-06-3.41768E-05-6.60548E-06-1.21772E-18-4.27705E-18
 -1      1298 8.07396E-05-1.64464E-06-3.38964E-05-3.02272E-06-2.96078E-19-5.63240E-18
 -1      1299 8.10892E-05-1.64797E-06-3.40160E-05-3.95848E-06-3.77221E-19-5.59657E-18
 -1      1300 8.26303E-05-3.67323E-06-3.38817E-05-4.44033E-06-7.74493E-19-4.65901E-18
 -1      1301 8.02691E-05-1.47473E-06-3.37618E-05-1.34550E-06-2.31048E-20-5.63756E-18
 -1      1302 8.04282E-05-1.47610E-06-3.38180E-05-2.18423E-06-1.04708E-19-5.63778E-18
 -1      1303 8.16811E-05-3.18685E-06-3.36801E-05-2.60864E-06-3.33483E-19-4.69209E-18
 -1      1304 8.02256E-05-1.44719E-06-3.37468E-05 2.61594E-07 2.22654E-19-5.53046E-18
 -1      1305 8.01957E-05-1.44617E-06-3.37395E-05-5.60903E-07 1.33596E-19-5.60768E-18
 -1      1306 8.12612E-05-2.99098E-06-3.35830E-05-9.62781E-07 9.95801E-20-4.70510E-18
 -1      1307 8.05899E-05-1.55168E-06-3.38480E-05 1.95174E-06 5.13878E-19-5.40692E-18
 -1      1308 8.03812E-05-1.54868E-06-3.37800E-05 1.07027E-06 4.10301E-19-5.47183E-18
 -1      1309 8.13561E-05-3.06323E-06-3.35934E-05 6.55275E-07 5.20864E-19-4.60102E-18
 -1      1310 8.13306E-05-1.78030E-06-3.40561E-05 3.86723E-06 7.04599E-19-5.14018E-18
 -1      1311 8.09583E-05-1.77562E-06-3.39324E-05 2.85615E-06 6.23919E-19-5.32912E-18
 -1      1312 8.19368E-05-3.38610E-06-3.37062E-05 2.39190E-06 9.47281E-19-4.44946E-18
 -1      1313 8.23996E-05-2.12202E-06-3.43563E-05 6.10145E-06 9.67431E-19-4.60975E-18
 -1      1314 8.18859E-05-2.12082E-06-3.41836E-05 4.91496E-06 8.60890E-19-4.91578E-18
 -1      1315 8.29612E-05-3.94717E-06-3.39086E-05 4.36355E-06 1.28037E-18-4.14500E-18
 -1      1316 8.38509E-05-2.60487E-06-3.47617E-05 8.87519E-06 1.33699E-18-3.77049E-18
 -1      1317 8.31641E-05-2.60859E-06-3.45272E-05 7.39120E-06 1.17833E-18-4.26031E-18
 -1      1318 8.44239E-05-4.77011E-06-3.41901E-05 6.71376E-06 1.75004E-18-3.53462E-18
 -1      1319 8.58125E-05-3.28570E-06-3.53085E-05 1.23450E-05 1.61482E-18-2.35287E-18
 -1      1320 8.48788E-05-3.30424E-06-3.49806E-05 1.04631E-05 1.47749E-18-3.22807E-18
 -1      1321 8.64250E-05-5.95631E-06-3.45512E-05 9.60649E-06 2.27741E-18-2.60936E-18
 -1      1322 8.88285E-05-4.39206E-06-3.61275E-05 1.68621E-05 1.79936E-18 2.23855E-19
 -1      1323 8.73520E-05-4.42747E-06-3.56021E-05 1.43018E-05 1.63266E-18-1.32831E-18
 -1      1324 8.92917E-05-7.78402E-06-3.50079E-05 1.31864E-05 2.63094E-18-1.01559E-18
 -1      1325 9.50815E-05-7.28357E-06-3.75619E-05 2.33740E-05 1.51725E-18 5.05107E-18
 -1      1326 9.18387E-05-6.88834E-06-3.65500E-05 1.91529E-05 1.50735E-18 2.13061E-18
 -1      1327 9.41883E-05-1.12694E-05-3.55964E-05 1.74815E-05 2.65847E-18 1.89656E-18
 -1      1328 1.24098E-04-2.51533E-05-3.92636E-05 2.73042E-05 7.16908E-19 1.39388E-17
 -1      1329 1.01505E-04-1.48802E-05-3.77408E-05 2.26572E-05 7.49412E-19 7.79461E-18
 -1      1330 1.03520E-04-2.00091E-05-3.58817E-05 1.96101E-05 2.46219E-18 6.25237E-18
 -1      1331 1.04092E-04-2.83245E-05-3.51500E-05 6.48773E-06 1.32325E-18 1.34555E-17
 -1      1332 1.07032E-04-3.08477E-05-3.40522E-05-6.91155E-06-1.41317E-18 9.80038E-18
 -1      1333 1.01022E-04-2.87297E-05-3.15375E-05-4.09097E-06-1.32116E-18 8.17228E-18
 -1      1334 9.88225E-05-2.88447E-05-3.02389E-05-1.57657E-06-1.00135E-18 7.46126E-18
 -1      1335 9.74624E-05-2.88039E-05-2.94660E-05-1.13497E-06-9.90896E-19 6.01108E-18
 -1      1336 1.02458E-04-2.89847E-05-3.18541E-05-6.12223E-06-2.25231E-18 4.32577E-18
 -1      1337 9.64912E-05-2.86366E-05-2.90661E-05 1.63784E-07-8.22641E-19 5.47469E-18
 -1      1338 9.67399E-05-2.88216E-05-2.90562E-05 3.07625E-07-7.46031E-19 4.30984E-18
 -1      1339 9.89527E-05-2.90021E-05-3.01118E-05-1.23766E-06-1.70095E-18 3.25018E-18
 -1      1340 9.68498E-05-2.88768E-05-2.90862E-05 1.04184E-06-5.65742E-19 3.79709E-18
 -1      1341 9.79497E-05-2.92521E-05-2.94013E-05 1.15258E-06-6.36592E-19 2.99177E-18
 -1      1342 9.82777E-05-2.91285E-05-2.96788E-05 1.16001E-06-1.33748E-18 2.37484E-18
 -1      1343 9.87386E-05-2.94801E-05-2.96565E-05 1.66835E-06-4.41033E-19 2.70872E-18
 -1      1344 1.00414E-04-3.00122E-05-3.01507E-05 1.76411E-06-3.24572E-19 2.23262E-18
 -1      1345 9.91699E-05-2.94988E-05-2.98898E-05 2.65696E-06-9.38876E-19 1.57332E-18
 -1      1346 1.01690E-04-3.03795E-05-3.05541E-05 2.17947E-06-1.81090E-19 2.07692E-18
 -1      1347 1.03831E-04-3.10526E-05-3.11818E-05 2.26619E-06-1.29570E-19 1.79730E-18
 -1      1348 1.01176E-04-3.01394E-05-3.04737E-05 3.78231E-06-5.39881E-19 1.29406E-18
 -1      1349 1.05477E-04-3.15340E-05-3.16938E-05 2.59721E-06-1.68652E-19 1.59524E-18
 -1      1350 1.07989E-04-3.23303E-05-3.24249E-05 2.66845E-06-2.32881E-19 1.29191E-18
 -1      1351 1.04022E-04-3.10294E-05-3.13103E-05 4.68891E-06-3.25148E-19 8.44171E-19
 -1      1352 1.09894E-04-3.29028E-05-3.30059E-05 2.86199E-06-1.27440E-19 1.33003E-18
 -1      1353 1.12614E-04-3.37834E-05-3.37883E-05 2.89575E-06-2.50946E-19 8.77314E-19
 -1      1354 1.07504E-04-3.21467E-05-3.23171E-05 5.33645E-06-3.15918E-19 5.84135E-19
 -1      1355 1.14612E-04-3.44142E-05-3.43782E-05 2.82601E-06-1.97832E-19 8.88326E-19
 -1      1356 1.17215E-04-3.52903E-05-3.51111E-05 2.77938E-06-3.40267E-19 6.57218E-19
 -1      1357 1.11371E-04-3.34610E-05-3.33969E-05 5.51757E-06-3.25105E-19 6.60335E-19
 -1      1358 1.19044E-04-3.59194E-05-3.56161E-05 2.25069E-06-2.88904E-19 5.71562E-19
 -1      1359 1.20960E-04-3.66161E-05-3.61310E-05 2.05960E-06-6.76568E-20 3.53557E-19
 -1      1360 1.15234E-04-3.49005E-05-3.44073E-05 4.85349E-06-3.94532E-19 1.01954E-18
 -1      1361 1.22224E-04-3.71327E-05-3.64232E-05 8.63539E-07 1.13727E-19 2.21843E-19
 -1      1362 1.22631E-04-3.73660E-05-3.64950E-05 4.65026E-07 1.47701E-20 3.25314E-19
 -1      1363 1.18468E-04-3.62876E-05-3.51534E-05 2.85541E-06-4.41648E-20 6.74774E-19
 -1      1364 1.22832E-04-3.75837E-05-3.64442E-05-1.44162E-06-6.45598E-20 4.81684E-19
 -1      1365 1.20887E-04-3.70068E-05-3.58709E-05-2.03869E-06-3.20377E-19-1.16467E-21
 -1      1366 1.20182E-04-3.72454E-05-3.54216E-05-8.13939E-07-9.10825E-20 4.16619E-19
 -1      1367 1.19589E-04-3.66785E-05-3.54195E-05-4.22243E-06 8.88591E-20 7.26860E-20
 -1      1368 1.15019E-04-3.50868E-05-3.41889E-05-4.81975E-06 7.28448E-20-1.70465E-20
 -1      1369 1.19366E-04-3.71578E-05-3.50745E-05-5.76463E-06-1.38172E-20 9.44998E-19
 -1      1370 1.12253E-04-3.40790E-05-3.34451E-05-6.18005E-06-2.58593E-20 1.61889E-19
 -1      1371 1.06135E-04-3.17754E-05-3.18890E-05-6.36989E-06-3.75279E-19 1.41878E-19
 -1      1372 1.15455E-04-3.54348E-05-3.41829E-05-1.02069E-05-2.90241E-20 1.06258E-18
 -1      1373 1.02858E-04-3.03885E-05-3.11406E-05-5.61596E-06-5.38276E-19 2.11758E-21
 -1      1374 9.77608E-05-2.83663E-05-2.99002E-05-5.04949E-06-8.42943E-19-6.78526E-19
 -1      1375 1.09329E-04-3.22610E-05-3.30852E-05-1.11590E-05-8.00969E-19 1.19834E-18
 -1      1376 9.57615E-05-2.74456E-05-2.94928E-05-1.95210E-06-7.30037E-19-1.48750E-18
 -1      1377 9.44498E-05-2.69050E-05-2.91850E-05-8.14150E-07-8.52486E-19-2.33125E-18
 -1      1378 1.03830E-04-2.91873E-05-3.22557E-05-6.52897E-06-1.39138E-18-3.20814E-20
 -1      1379 9.51041E-05-2.71929E-05-2.93262E-05 2.99612E-06-9.49153E-19-3.31444E-18
 -1      1380 9.84115E-05-2.85120E-05-3.01269E-05 3.97100E-06-7.76650E-19-4.28662E-18
 -1      1381 1.02401E-04-2.83283E-05-3.20758E-05 2.04841E-06-1.55036E-18-1.99537E-18
 -1      1382 1.01324E-04-2.97892E-05-3.07612E-05 6.21428E-06-6.54240E-19-4.99241E-18
 -1      1383 1.07416E-04-3.21447E-05-3.22776E-05 6.45754E-06-3.64409E-19-5.70032E-18
 -1      1384 1.06132E-04-3.03913E-05-3.26472E-05 9.51488E-06-1.46439E-18-3.86872E-18
 -1      1385 1.10837E-04-3.35035E-05-3.31192E-05 6.23466E-06 8.85017E-20-6.22040E-18
 -1      1386 1.16776E-04-3.56650E-05-3.46705E-05 5.82256E-06-8.14210E-20-6.38239E-18
 -1      1387 1.12654E-04-3.38699E-05-3.37414E-05 1.18240E-05-6.49171E-19-4.25928E-18
 -1      1388 1.19169E-04-3.64471E-05-3.53742E-05 3.96723E-06 5.11489E-19-6.36895E-18
 -1      1389 1.22932E-04-3.76919E-05-3.64215E-05 3.33372E-06 5.86782E-19-5.66808E-18
 -1      1390 1.18444E-04-3.66558E-05-3.49097E-05 9.08842E-06 3.49825E-19-4.75837E-18
 -1      1391 1.23765E-04-3.78192E-05-3.67681E-05 1.18515E-06 4.35296E-19-4.58118E-18
 -1      1392 1.24915E-04-3.81015E-05-3.71346E-05 6.64342E-07 4.72777E-19-4.16417E-18
 -1      1393 1.21432E-04-3.77653E-05-3.57095E-05 4.15331E-06 1.08066E-18-4.52389E-18
 -1      1394 1.24413E-04-3.77894E-05-3.70931E-05-9.47017E-07 7.92108E-20-3.82150E-18
 -1      1395 1.23558E-04-3.74120E-05-3.68934E-05-1.24904E-06 1.15130E-19-3.91957E-18
 -1      1396 1.21467E-04-3.74467E-05-3.59103E-05-3.51347E-07 4.19149E-19-3.55738E-18
 -1      1397 1.22213E-04-3.68903E-05-3.65622E-05-2.12936E-06 1.07054E-19-3.71284E-18
 -1      1398 1.20240E-04-3.61892E-05-3.60239E-05-2.24630E-06 8.79128E-20-4.16907E-18
 -1      1399 1.19398E-04-3.63666E-05-3.55399E-05-3.27438E-06 3.24731E-19-3.06897E-18
 -1      1400 1.18513E-04-3.56098E-05-3.55368E-05-2.54341E-06 1.61844E-19-3.80328E-18
 -1      1401 1.16145E-04-3.48234E-05-3.48653E-05-2.54533E-06 3.28442E-19-3.45656E-18
 -1      1402 1.16216E-04-3.50480E-05-3.47789E-05-4.62263E-06 2.18948E-19-2.57646E-18
 -1      1403 1.14360E-04-3.42689E-05-3.43333E-05-2.48474E-06 3.10554E-19-3.68274E-18
 -1      1404 1.12047E-04-3.35293E-05-3.36642E-05-2.43020E-06 1.26210E-19-3.26669E-18
 -1      1405 1.12686E-04-3.37700E-05-3.38342E-05-4.86406E-06 2.95573E-19-2.23041E-18
 -1      1406 1.10394E-04-3.30377E-05-3.31582E-05-2.19516E-06-1.07583E-20-3.52822E-18
 -1      1407 1.08354E-04-3.24016E-05-3.25616E-05-2.12092E-06 2.06415E-20-3.66682E-18
 -1      1408 1.09284E-04-3.26462E-05-3.28664E-05-4.48729E-06 1.52979E-20-2.05233E-18
 -1      1409 1.06920E-04-3.19857E-05-3.21169E-05-1.82777E-06-8.47033E-22-3.43207E-18
 -1      1410 1.05228E-04-3.14668E-05-3.16186E-05-1.75315E-06-9.07864E-20-3.31612E-18
 -1      1411 1.06257E-04-3.17060E-05-3.19732E-05-3.84417E-06-1.00916E-20-2.49043E-18
 -1      1412 1.04038E-04-3.11264E-05-3.12471E-05-1.46439E-06 4.88602E-19-3.24805E-18
 -1      1413 1.02687E-04-3.07174E-05-3.08478E-05-1.39792E-06 1.74322E-19-2.72661E-18
 -1      1414 1.03695E-04-3.09424E-05-3.12008E-05-3.14295E-06 5.37651E-19-2.89604E-18
 -1      1415 1.01730E-04-3.04456E-05-3.05481E-05-1.14170E-06-5.25571E-19-2.51662E-18
 -1      1416 1.00682E-04-3.01312E-05-3.02374E-05-1.08609E-06-2.84727E-19-3.06708E-18
 -1      1417 1.01602E-04-3.03354E-05-3.05612E-05-2.48865E-06-3.90181E-20-2.17227E-18
 -1      1418 9.99291E-05-2.99184E-05-3.00018E-05-8.71470E-07-2.70144E-19-3.07571E-18
 -1      1419 9.91335E-05-2.96815E-05-2.97653E-05-8.26648E-07-4.76688E-20-2.92812E-18
 -1      1420 9.99365E-05-2.98610E-05-3.00477E-05-1.92404E-06-5.92098E-19-1.85444E-18
 -1      1421 9.85535E-05-2.95179E-05-2.95838E-05-6.53180E-07 2.61241E-19-2.88501E-18
 -1      1422 9.79605E-05-2.93425E-05-2.94071E-05-6.17937E-07-2.16773E-19-2.95545E-18
 -1      1423 9.86391E-05-2.94960E-05-2.96452E-05-1.45870E-06-5.35929E-19-2.94458E-18
 -1      1424 9.75215E-05-2.92188E-05-2.92699E-05-4.81122E-07-2.76601E-19-3.01283E-18
 -1      1425 9.70872E-05-2.90912E-05-2.91403E-05-4.53911E-07-5.07161E-19-3.69412E-18
 -1      1426 9.76465E-05-2.92193E-05-2.93358E-05-1.08649E-06-4.76008E-19-2.80106E-18
 -1      1427 9.67606E-05-2.89992E-05-2.90382E-05-3.47987E-07 1.51655E-20-3.72611E-18
 -1      1428 9.64485E-05-2.89082E-05-2.89449E-05-3.27292E-07 2.94609E-19-3.93512E-18
 -1      1429 9.69001E-05-2.90128E-05-2.91023E-05-7.95089E-07-3.12570E-19-2.83453E-18
 -1      1430 9.62098E-05-2.88410E-05-2.88704E-05-2.46555E-07 6.16113E-19-3.78936E-18
 -1      1431 9.59904E-05-2.87775E-05-2.88045E-05-2.31036E-07 2.13279E-19-3.61146E-18
 -1      1432 9.63483E-05-2.88614E-05-2.89289E-05-5.70821E-07 3.33139E-19-2.90666E-18
 -1      1433 9.58193E-05-2.87294E-05-2.87512E-05-1.70386E-07-4.36158E-19-3.14695E-18
 -1      1434 9.56691E-05-2.86863E-05-2.87060E-05-1.58913E-07-2.18273E-19-3.91518E-18
 -1      1435 9.59480E-05-2.87523E-05-2.88027E-05-4.00794E-07 2.43119E-19-2.96816E-18
 -1      1436 9.55494E-05-2.86527E-05-2.86687E-05-1.14018E-07 3.62008E-19-4.26717E-18
 -1      1437 9.54501E-05-2.86247E-05-2.86387E-05-1.05668E-07 5.05266E-19-3.20951E-18
 -1      1438 9.56637E-05-2.86756E-05-2.87126E-05-2.73751E-07-3.41799E-20-3.04991E-18
 -1      1439 9.53688E-05-2.86019E-05-2.86134E-05-7.29567E-08 5.68337E-19-3.92962E-18
 -1      1440 9.53063E-05-2.85846E-05-2.85944E-05-6.69851E-08 1.92519E-19-2.95522E-18
 -1      1441 9.54669E-05-2.86232E-05-2.86498E-05-1.80249E-07 6.42415E-19-3.40271E-18
 -1      1442 9.52534E-05-2.85698E-05-2.85779E-05-4.35728E-08 2.06550E-19-1.05045E-18
 -1      1443 9.52170E-05-2.85601E-05-2.85667E-05-3.93897E-08 2.28699E-19-8.01418E-19
 -1      1444 9.53353E-05-2.85886E-05-2.86075E-05-1.12562E-07 6.20525E-19-3.60305E-18
 -1      1445 9.51845E-05-2.85510E-05-2.85566E-05-2.29781E-08-1.06286E-18-5.75431E-19
 -1      1446 9.51664E-05-2.85465E-05-2.85509E-05-2.01208E-08-1.09372E-18-2.25043E-18
 -1      1447 9.52513E-05-2.85671E-05-2.85802E-05-6.44809E-08-1.52262E-19-1.55997E-18
 -1      1448 9.51484E-05-2.85416E-05-2.85454E-05-8.90510E-09-7.60670E-19-2.37540E-18
 -1      1449 9.51426E-05-2.85406E-05-2.85434E-05-7.01520E-09-1.83970E-18-4.07651E-18
 -1      1450 9.52015E-05-2.85549E-05-2.85637E-05-3.10839E-08-1.84654E-18-1.40552E-18
 -1      1451 9.51347E-05-2.85385E-05-2.85409E-05 4.01356E-10-1.14233E-18-4.75317E-18
 -1      1452 9.51369E-05-2.85397E-05-2.85414E-05 1.59706E-09-8.56876E-19-6.20621E-18
 -1      1453 9.51758E-05-2.85491E-05-2.85549E-05-8.52718E-09-2.32769E-18-2.18127E-18
 -1      1454 9.51357E-05-2.85395E-05-2.85410E-05 6.27453E-09 1.29167E-19-6.40703E-18
 -1      1455 9.51430E-05-2.85422E-05-2.85430E-05 6.97957E-09 4.45249E-19-5.81090E-18
 -1      1456 9.51665E-05-2.85478E-05-2.85513E-05 6.14246E-09-4.84286E-19-3.37833E-18
 -1      1457 9.51461E-05-2.85431E-05-2.85440E-05 9.69906E-09 1.42032E-19-4.80063E-18
 -1      1458 9.51561E-05-2.85465E-05-2.85468E-05 1.00591E-08 1.57022E-19-5.09852E-18
 -1      1459 9.51681E-05-2.85492E-05-2.85512E-05 1.51408E-08 1.13400E-18-2.63475E-18
 -1      1460 9.51618E-05-2.85482E-05-2.85486E-05 1.13659E-08 8.43449E-19-3.90833E-18
 -1      1461 9.51731E-05-2.85519E-05-2.85518E-05 1.14768E-08 1.34460E-18-2.66238E-18
 -1      1462 9.51764E-05-2.85524E-05-2.85533E-05 2.00672E-08 1.75934E-18-5.73977E-19
 -1      1463 9.51799E-05-2.85540E-05-2.85539E-05 1.17083E-08 1.30434E-18-2.72808E-18
 -1      1464 9.51913E-05-2.85577E-05-2.85572E-05 1.16197E-08 7.60955E-19-7.29852E-19
 -1      1465 9.51885E-05-2.85566E-05-2.85566E-05 2.19906E-08 2.04356E-18-6.72850E-20
 -1      1466 9.51984E-05-2.85598E-05-2.85594E-05 1.09183E-08-5.25785E-19-1.43791E-18
 -1      1467 9.52088E-05-2.85632E-05-2.85623E-05 1.06281E-08-2.34146E-19-1.90590E-18
 -1      1468 9.52019E-05-2.85611E-05-2.85603E-05 2.15029E-08-3.67769E-20-1.47477E-18
 -1      1469 9.52151E-05-2.85651E-05-2.85642E-05 8.95278E-09 6.86762E-19-1.93929E-18
 -1      1470 9.52234E-05-2.85679E-05-2.85666E-05 8.39266E-09 6.25521E-19-1.35157E-18
 -1      1471 9.52151E-05-2.85656E-05-2.85640E-05 1.87298E-08-6.30134E-20-3.20407E-18
 -1      1472 9.52284E-05-2.85696E-05-2.85680E-05 5.55363E-09 6.53053E-20-7.36697E-19
 -1      1473 9.52333E-05-2.85712E-05-2.85694E-05 4.72589E-09-5.04397E-19-1.16311E-18
 -1      1474 9.52263E-05-2.85697E-05-2.85669E-05 1.34979E-08 9.53037E-19-1.22587E-18
 -1      1475 9.52369E-05-2.85718E-05-2.85706E-05 3.29580E-10-1.39276E-19-9.64361E-20
 -1      1476 9.52353E-05-2.85730E-05-2.85694E-05 4.82551E-09 1.87769E-19 1.56249E-19
 -1      1477 9.93086E-05-2.92048E-05-3.05613E-05 2.31426E-06 1.21226E-18 1.07918E-17
 -1      1478 1.04454E-04-2.99763E-05-3.27240E-05 3.73637E-06 1.08145E-18 1.26385E-17
 -1      1479 1.04422E-04-2.74627E-05-3.33010E-05 1.14058E-05 2.08349E-18 8.46758E-18
 -1      1480 9.60519E-05-2.86357E-05-2.89599E-05 4.95801E-07 8.45471E-19 8.50601E-18
 -1      1481 9.72751E-05-2.85737E-05-2.96524E-05 8.20998E-07 8.17532E-19 9.85222E-18
 -1      1482 9.96307E-05-2.90024E-05-3.04684E-05 3.59332E-06 1.78467E-18 6.71045E-18
 -1      1483 9.55768E-05-2.86072E-05-2.86810E-05-3.68524E-07 5.85002E-19 6.87703E-18
 -1      1484 9.54501E-05-2.83969E-05-2.87276E-05-1.84450E-07 5.69802E-19 7.74773E-18
 -1      1485 9.73438E-05-2.88602E-05-2.93995E-05 5.51122E-07 1.30665E-18 5.22888E-18
 -1      1486 9.65449E-05-2.89324E-05-2.89548E-05-8.28786E-07 4.28506E-19 5.61191E-18
 -1      1487 9.57725E-05-2.86158E-05-2.87406E-05-7.10713E-07 3.84824E-19 6.31013E-18
 -1      1488 9.70563E-05-2.89521E-05-2.92047E-05-8.95036E-07 9.00820E-19 4.14682E-18
 -1      1489 9.82949E-05-2.94764E-05-2.94790E-05-1.08013E-06 1.69908E-19 4.96221E-18
 -1      1490 9.71827E-05-2.90887E-05-2.91532E-05-1.00255E-06 2.45454E-19 5.36691E-18
 -1      1491 9.79107E-05-2.92872E-05-2.94243E-05-1.67668E-06 6.00189E-19 3.56703E-18
 -1      1492 1.00427E-04-3.01380E-05-3.01110E-05-1.17327E-06 4.03317E-20 4.89568E-18
 -1      1493 9.91640E-05-2.97207E-05-2.97431E-05-1.13179E-06-2.93223E-20 4.98666E-18
 -1      1494 9.94051E-05-2.97914E-05-2.98461E-05-2.07160E-06 1.66655E-19 3.27485E-18
 -1      1495 1.02596E-04-3.08193E-05-3.07451E-05-1.10010E-06 3.34639E-19 4.51696E-18
 -1      1496 1.01359E-04-3.04229E-05-3.03890E-05-1.10179E-06 1.31232E-19 4.72057E-18
 -1      1497 1.01184E-04-3.03848E-05-3.03470E-05-2.14254E-06 2.17998E-19 2.97937E-18
 -1      1498 1.04430E-04-3.14088E-05-3.12697E-05-8.26623E-07 2.51167E-19 3.56130E-18
 -1      1499 1.03422E-04-3.10985E-05-3.09859E-05-8.85005E-07 4.59535E-19 4.25830E-18
 -1      1500 1.02925E-04-3.09817E-05-3.08256E-05-1.86246E-06 6.82705E-19 2.86020E-18
 -1      1501 1.05498E-04-3.17734E-05-3.15596E-05-3.18874E-07 1.79551E-19 3.32312E-18
 -1      1502 1.04965E-04-3.16296E-05-3.14182E-05-4.48163E-07 7.29573E-20 3.43018E-18
 -1      1503 1.04289E-04-3.14808E-05-3.11793E-05-1.17340E-06 3.34955E-19 2.45340E-18
 -1      1504 1.05355E-04-3.17662E-05-3.14902E-05 4.20515E-07-1.50547E-19 3.44533E-18
 -1      1505 1.05551E-04-3.18744E-05-3.15616E-05 2.15807E-07 4.82875E-20 3.42323E-18
 -1      1506 1.04906E-04-3.17591E-05-3.13061E-05-4.47828E-08 3.43181E-20 2.35270E-18
 -1      1507 1.03653E-04-3.12609E-05-3.09753E-05 1.30373E-06 4.96520E-19 3.49181E-18
 -1      1508 1.04773E-04-3.16847E-05-3.13068E-05 1.04387E-06 4.41781E-20 3.62083E-18
 -1      1509 1.04436E-04-3.16818E-05-3.11228E-05 1.44834E-06 9.92617E-21 2.91049E-18
 -1      1510 1.00349E-04-3.02190E-05-3.00214E-05 2.11876E-06 4.90406E-19 2.74502E-18
 -1      1511 1.02399E-04-3.09548E-05-3.06042E-05 1.86201E-06 4.49258E-19 3.37220E-18
 -1      1512 1.02678E-04-3.11384E-05-3.05993E-05 3.04235E-06 5.85525E-19 2.74593E-18
 -1      1513 9.59108E-05-2.87718E-05-2.87786E-05 2.54762E-06-8.76828E-20 2.29347E-18
 -1      1514 9.85866E-05-2.97029E-05-2.95183E-05 2.38632E-06 5.50141E-20 2.34501E-18
 -1      1515 9.97395E-05-3.01142E-05-2.97958E-05 4.25647E-06 4.34746E-19 2.31355E-18
 -1      1516 9.13950E-05-2.72647E-05-2.75430E-05 2.28886E-06 5.04752E-19 1.14561E-18
 -1      1517 9.40500E-05-2.81513E-05-2.82602E-05 2.31390E-06 4.17534E-19 1.93674E-18
 -1      1518 9.61759E-05-2.87734E-05-2.88801E-05 4.50892E-06 4.37949E-19 1.21586E-18
 -1      1519 8.81970E-05-2.61834E-05-2.66799E-05 1.26351E-06-1.44141E-19 1.03212E-18
 -1      1520 9.00073E-05-2.67307E-05-2.71595E-05 1.50432E-06 2.24675E-19 1.00585E-18
 -1      1521 9.29666E-05-2.74908E-05-2.80981E-05 3.41403E-06 4.93867E-19 8.75461E-19
 -1      1522 8.74737E-05-2.59413E-05-2.64818E-05-2.47430E-07 4.97480E-19 1.16517E-19
 -1      1523 8.77863E-05-2.59367E-05-2.65593E-05 1.38807E-07 2.10044E-19 4.10255E-19
 -1      1524 9.12005E-05-2.67402E-05-2.76932E-05 1.11769E-06 4.45010E-19 3.17915E-19
 -1      1525 8.95525E-05-2.66525E-05-2.70321E-05-1.69890E-06 5.46727E-19-1.28715E-18
 -1      1526 8.82202E-05-2.60842E-05-2.66722E-05-1.30974E-06 6.39119E-19-1.28590E-19
 -1      1527 9.15684E-05-2.68507E-05-2.78073E-05-1.63721E-06 9.85377E-19-3.91065E-19
 -1      1528 9.37495E-05-2.80624E-05-2.81655E-05-2.57989E-06 2.67940E-20-2.11806E-18
 -1      1529 9.12113E-05-2.71284E-05-2.74790E-05-2.32180E-06 1.37613E-19-1.95731E-18
 -1      1530 9.39898E-05-2.78013E-05-2.84177E-05-3.86063E-06 8.11735E-19-1.29940E-18
 -1      1531 9.87485E-05-2.97013E-05-2.95503E-05-2.68923E-06-6.00323E-19-1.66161E-18
 -1      1532 9.57896E-05-2.86965E-05-2.87383E-05-2.61714E-06-3.72705E-19-2.15668E-18
 -1      1533 9.76598E-05-2.92291E-05-2.93497E-05-4.85940E-06-2.13195E-19-1.79644E-18
 -1      1534 1.03245E-04-3.11294E-05-3.08364E-05-2.17210E-06-3.82025E-20-7.91976E-19
 -1      1535 1.00621E-04-3.03025E-05-3.01009E-05-2.25500E-06-3.51310E-19-1.07846E-18
 -1      1536 1.01486E-04-3.06541E-05-3.03545E-05-4.54925E-06-6.68905E-19-1.09307E-18
 -1      1537 1.06412E-04-3.20930E-05-3.17793E-05-1.34785E-06 5.73574E-19-1.10664E-18
 -1      1538 1.04587E-04-3.15697E-05-3.12534E-05-1.51228E-06 2.92365E-19-5.19416E-19
 -1      1539 1.04573E-04-3.17229E-05-3.12057E-05-3.34198E-06 8.87598E-20-1.59936E-18
 -1      1540 1.08001E-04-3.25405E-05-3.22852E-05-5.14800E-07 5.19291E-19-2.07747E-18
 -1      1541 1.07099E-04-3.23279E-05-3.20129E-05-6.91454E-07 3.49547E-19-1.29554E-18
 -1      1542 1.06466E-04-3.23014E-05-3.17651E-05-1.80758E-06 1.00552E-18-2.01187E-18
 -1      1543 1.08196E-04-3.25529E-05-3.23849E-05 1.48059E-07 2.36517E-19-2.75824E-18
 -1      1544 1.08093E-04-3.25873E-05-3.23407E-05 1.68062E-09 4.70189E-19-2.31190E-18
 -1      1545 1.07130E-04-3.24294E-05-3.19971E-05-3.97655E-07 6.72346E-19-2.04615E-18
 -1      1546 1.07379E-04-3.22641E-05-3.21776E-05 5.82623E-07-6.10726E-19-2.07950E-18
 -1      1547 1.07844E-04-3.24593E-05-3.23006E-05 4.81841E-07-4.51467E-19-2.83527E-18
 -1      1548 1.06793E-04-3.22289E-05-3.19428E-05 6.54486E-07-2.81619E-19-2.54839E-18
 -1      1549 1.05961E-04-3.18052E-05-3.17795E-05 8.08217E-07-1.01149E-19-1.23334E-18
 -1      1550 1.06754E-04-3.20830E-05-3.20027E-05 7.50884E-07-1.81434E-20-1.38462E-18
 -1      1551 1.05776E-04-3.18322E-05-3.16816E-05 1.30124E-06-6.56546E-19-1.61338E-18
 -1      1552 1.04281E-04-3.12795E-05-3.12922E-05 8.76517E-07-4.04448E-19-1.12179E-18
 -1      1553 1.05209E-04-3.15820E-05-3.15592E-05 8.52922E-07-9.83177E-20-1.20122E-18
 -1      1554 1.04389E-04-3.13472E-05-3.12989E-05 1.60132E-06-4.96399E-20-4.05960E-19
 -1      1555 1.02579E-04-3.07570E-05-3.07901E-05 8.42614E-07-4.48706E-19-6.81689E-19
 -1      1556 1.03508E-04-3.10473E-05-3.10608E-05 8.41793E-07-2.47364E-19-1.09095E-18
 -1      1557 1.02875E-04-3.08483E-05-3.08664E-05 1.65110E-06-1.47399E-20 6.64110E-20
 -1      1558 1.01004E-04-3.02792E-05-3.03203E-05 7.51903E-07-4.43935E-19-3.14626E-20
 -1      1559 1.01854E-04-3.05373E-05-3.05703E-05 7.64552E-07-6.84750E-19-7.07610E-19
 -1      1560 1.01399E-04-3.03812E-05-3.04361E-05 1.54417E-06-7.37610E-19 6.78493E-19
 -1      1561 9.96307E-05-2.98665E-05-2.99079E-05 6.36809E-07-2.56806E-19 6.01182E-19
 -1      1562 1.00364E-04-3.00839E-05-3.01248E-05 6.56101E-07-3.20901E-19 2.27964E-19
 -1      1563 1.00062E-04-2.99696E-05-3.00403E-05 1.35464E-06-6.56648E-19 6.31385E-19
 -1      1564 9.84858E-05-2.95247E-05-2.95623E-05 5.18104E-07-2.66158E-19 7.56256E-19
 -1      1565 9.90906E-05-2.97006E-05-2.97420E-05 5.39514E-07-1.43232E-19 7.77560E-19
 -1      1566 9.89090E-05-2.96226E-05-2.96956E-05 1.13412E-06-4.23947E-19 5.48125E-19
 -1      1567 9.75649E-05-2.92512E-05-2.92833E-05 4.07682E-07-1.08416E-18 2.12173E-18
 -1      1568 9.80461E-05-2.93888E-05-2.94268E-05 4.28484E-07-4.37043E-19 1.66689E-18
 -1      1569 9.79542E-05-2.93399E-05-2.94078E-05 9.14994E-07-7.08050E-19 2.19670E-18
 -1      1570 9.68466E-05-2.90389E-05-2.90650E-05 3.11338E-07-2.74738E-19 3.06973E-18
 -1      1571 9.72177E-05-2.91433E-05-2.91761E-05 3.30072E-07-6.54588E-19 1.96512E-18
 -1      1572 9.71886E-05-2.91164E-05-2.91755E-05 7.15252E-07-8.00845E-19 2.42636E-18
 -1      1573 9.63021E-05-2.88786E-05-2.88992E-05 2.30989E-07 1.01209E-18 1.97783E-18
 -1      1574 9.65800E-05-2.89555E-05-2.89826E-05 2.47029E-07 5.08989E-19 2.92790E-18
 -1      1575 9.65920E-05-2.89443E-05-2.89935E-05 5.43162E-07 4.92919E-19 1.61418E-18
 -1      1576 9.59009E-05-2.87609E-05-2.87766E-05 1.66289E-07 2.72740E-19 7.45647E-19
 -1      1577 9.61028E-05-2.88158E-05-2.88375E-05 1.79518E-07 5.74479E-19 1.57948E-18
 -1      1578 9.61396E-05-2.88152E-05-2.88548E-05 4.00876E-07 9.44208E-19 1.58122E-18
 -1      1579 9.56141E-05-2.86772E-05-2.86888E-05 1.15700E-07 6.03891E-19-1.33087E-18
 -1      1580 9.57561E-05-2.87150E-05-2.87318E-05 1.26287E-07 5.67472E-19 7.81408E-20
 -1      1581 9.58057E-05-2.87210E-05-2.87518E-05 2.87029E-07 1.12794E-18 4.52588E-19
 -1      1582 9.54161E-05-2.86197E-05-2.86281E-05 7.71790E-08 4.52411E-19-3.37138E-18
 -1      1583 9.55121E-05-2.86445E-05-2.86572E-05 8.54356E-08 5.26031E-19-2.34667E-18
 -1      1584 9.55663E-05-2.86543E-05-2.86776E-05 1.98460E-07 9.21369E-19-1.61230E-18
 -1      1585 9.52854E-05-2.85819E-05-2.85878E-05 4.85817E-08-4.33049E-19-2.55094E-18
 -1      1586 9.53470E-05-2.85973E-05-2.86066E-05 5.48725E-08-6.39961E-19-2.88022E-18
 -1      1587 9.54003E-05-2.86086E-05-2.86259E-05 1.31305E-07-3.59819E-19-1.32735E-18
 -1      1588 9.52044E-05-2.85588E-05-2.85627E-05 2.78934E-08-5.23615E-19-1.63885E-18
 -1      1589 9.52409E-05-2.85673E-05-2.85740E-05 3.25815E-08-7.65845E-21-1.74506E-18
 -1      1590 9.52902E-05-2.85789E-05-2.85913E-05 8.16440E-08-1.75368E-19-1.54441E-19
 -1      1591 9.51591E-05-2.85460E-05-2.85486E-05 1.33392E-08 6.57418E-19-2.30571E-18
 -1      1592 9.51778E-05-2.85498E-05-2.85545E-05 1.67577E-08 3.63562E-19-2.03725E-18
 -1      1593 9.52214E-05-2.85607E-05-2.85694E-05 4.58526E-08 3.35902E-19-5.77765E-19
 -1      1594 9.51390E-05-2.85406E-05-2.85422E-05 3.42633E-09-7.09940E-19-2.60638E-18
 -1      1595 9.51454E-05-2.85412E-05-2.85443E-05 5.86435E-09 2.16586E-19-2.86885E-18
 -1      1596 9.51825E-05-2.85509E-05-2.85568E-05 2.07755E-08 1.95656E-19-6.35325E-19
 -1      1597 9.51358E-05-2.85401E-05-2.85409E-05-3.05342E-09 1.15514E-19-1.47854E-18
 -1      1598 9.51341E-05-2.85386E-05-2.85406E-05-1.35569E-09-9.04576E-19-2.54428E-18
 -1      1599 9.51646E-05-2.85469E-05-2.85508E-05 3.78253E-09-9.47525E-19-2.09252E-18
 -1      1600 9.51436E-05-2.85427E-05-2.85431E-05-7.04163E-09 3.97879E-20-3.05152E-18
 -1      1601 9.51368E-05-2.85400E-05-2.85412E-05-5.89287E-09 2.61290E-19-2.01457E-18
 -1      1602 9.51609E-05-2.85468E-05-2.85492E-05-7.23634E-09 4.62832E-19-2.60018E-18
 -1      1603 9.51579E-05-2.85473E-05-2.85473E-05-9.23711E-09 2.78548E-20-2.67370E-18
 -1      1604 9.51483E-05-2.85438E-05-2.85445E-05-8.49332E-09 3.49792E-19-2.46909E-18
 -1      1605 9.51665E-05-2.85492E-05-2.85505E-05-1.39050E-08 2.17614E-19-9.19525E-19
 -1      1606 9.51757E-05-2.85528E-05-2.85525E-05-1.01165E-08-8.71544E-19-1.12873E-18
 -1      1607 9.51647E-05-2.85491E-05-2.85494E-05-9.68084E-09-8.25932E-19-3.27477E-18
 -1      1608 9.51777E-05-2.85531E-05-2.85536E-05-1.74028E-08-1.48970E-19-1.88215E-18
 -1      1609 9.51944E-05-2.85585E-05-2.85581E-05-9.94500E-09 1.05762E-18-1.40901E-18
 -1      1610 9.51833E-05-2.85549E-05-2.85549E-05-9.77052E-09 2.25926E-19-1.03181E-18
 -1      1611 9.51916E-05-2.85576E-05-2.85575E-05-1.84962E-08-3.39596E-19-1.26708E-18
 -1      1612 9.52120E-05-2.85640E-05-2.85632E-05-8.77492E-09 5.27963E-19-3.62492E-18
 -1      1613 9.52018E-05-2.85608E-05-2.85603E-05-8.87314E-09 6.70549E-19-2.80323E-18
 -1      1614 9.52061E-05-2.85624E-05-2.85616E-05-1.75551E-08 1.38958E-18-3.14894E-20
 -1      1615 9.52262E-05-2.85685E-05-2.85673E-05-6.42751E-09-7.14435E-19-4.49939E-18
 -1      1616 9.52182E-05-2.85661E-05-2.85651E-05-6.90336E-09 1.78860E-19-4.28229E-18
 -1      1617 9.52194E-05-2.85668E-05-2.85653E-05-1.45629E-08 7.33235E-19-1.36990E-18
 -1      1618 9.52348E-05-2.85713E-05-2.85700E-05-2.86732E-09 3.85346E-19-4.08297E-18
 -1      1619 9.52306E-05-2.85702E-05-2.85686E-05-3.70578E-09 2.20102E-19-4.29614E-18
 -1      1620 9.52299E-05-2.85706E-05-2.85682E-05-9.26633E-09 3.56662E-19-2.29917E-18
 -1      1621 9.52368E-05-2.85718E-05-2.85706E-05-4.94756E-10-2.18115E-18-2.78314E-18
 -1      1622 9.52389E-05-2.85798E-05-2.85681E-05-5.53248E-09-7.56287E-20 3.05349E-18
 -1      1623 9.52373E-05-2.85753E-05-2.85694E-05-4.58130E-09-2.89492E-18 1.34853E-18
 -1      1624 9.52430E-05-2.85919E-05-2.85648E-05-8.07757E-09 3.68455E-18 1.57877E-18
 -1      1625 9.52405E-05-2.85846E-05-2.85668E-05-7.72758E-09 1.37379E-18 2.57182E-18
 -1      1626 9.52389E-05-2.85821E-05-2.85671E-05-1.27104E-08 9.14927E-19 3.82429E-18
 -1      1627 9.52476E-05-2.86057E-05-2.85609E-05-8.80628E-09 3.48237E-18-7.53551E-19
 -1      1628 9.52449E-05-2.85974E-05-2.85632E-05-8.81102E-09 2.94807E-18 1.34562E-18
 -1      1629 9.52431E-05-2.85925E-05-2.85645E-05-1.61665E-08 8.95237E-19 2.19842E-18
 -1      1630 9.52519E-05-2.86190E-05-2.85570E-05-8.16774E-09-1.36659E-18-3.49339E-18
 -1      1631 9.52494E-05-2.86113E-05-2.85592E-05-8.40179E-09 1.98239E-18-1.73095E-18
 -1      1632 9.52471E-05-2.86036E-05-2.85616E-05-1.65007E-08-9.71275E-19-2.64570E-18
 -1      1633 9.52554E-05-2.86303E-05-2.85537E-05-6.66418E-09-8.76583E-18-4.80055E-18
 -1      1634 9.52534E-05-2.86239E-05-2.85555E-05-7.02006E-09-2.39899E-18-4.52432E-18
 -1      1635 9.52507E-05-2.86139E-05-2.85587E-05-1.45882E-08-3.28265E-18-6.17341E-18
 -1      1636 9.52580E-05-2.86387E-05-2.85512E-05-4.60839E-09-1.08939E-17-1.13973E-19
 -1      1637 9.52566E-05-2.86341E-05-2.85525E-05-5.04301E-09-9.15845E-18-2.45368E-18
 -1      1638 9.52535E-05-2.86225E-05-2.85563E-05-1.12614E-08-4.43870E-18-5.35934E-18
 -1      1639 9.52595E-05-2.86435E-05-2.85497E-05-2.26854E-09-8.71702E-18 1.44455E-18
 -1      1640 9.52587E-05-2.86411E-05-2.85504E-05-2.73659E-09-1.10916E-17 1.86813E-18
 -1      1641 9.52555E-05-2.86286E-05-2.85545E-05-7.07329E-09-5.20080E-18 5.70088E-19
 -1      1642 9.52597E-05-2.86443E-05-2.85495E-05 1.94730E-10-6.83204E-18 3.67289E-19
 -1      1643 9.52597E-05-2.86443E-05-2.85495E-05-2.85050E-10-8.38899E-18 1.52875E-18
 -1      1644 9.52565E-05-2.86318E-05-2.85536E-05-2.46065E-09-4.70966E-18 1.78573E-18
 -1      1645 9.52588E-05-2.86413E-05-2.85504E-05 2.66335E-09-6.05179E-18 7.22654E-19
 -1      1646 9.52595E-05-2.86436E-05-2.85497E-05 2.18967E-09-7.49341E-18-1.36799E-19
 -1      1647 9.52565E-05-2.86319E-05-2.85536E-05 2.29715E-09-3.67097E-18-3.15689E-19
 -1      1648 9.52567E-05-2.86344E-05-2.85524E-05 5.00996E-09-7.02394E-18-9.49119E-19
 -1      1649 9.52581E-05-2.86389E-05-2.85511E-05 4.56652E-09-6.17670E-18 6.35172E-20
 -1      1650 9.52556E-05-2.86288E-05-2.85545E-05 6.96218E-09-4.43245E-18 5.13933E-19
 -1      1651 9.52535E-05-2.86243E-05-2.85554E-05 7.01702E-09-5.86156E-18 1.26295E-18
 -1      1652 9.52555E-05-2.86306E-05-2.85536E-05 6.65300E-09-6.19608E-18-6.52995E-19
 -1      1653 9.52536E-05-2.86228E-05-2.85562E-05 1.12086E-08-4.20840E-18-7.66988E-19
 -1      1654 9.52494E-05-2.86114E-05-2.85591E-05 8.46401E-09-4.32937E-18 9.19116E-20
 -1      1655 9.52520E-05-2.86193E-05-2.85569E-05 8.22207E-09-5.86170E-18 2.38412E-18
 -1      1656 9.52508E-05-2.86142E-05-2.85586E-05 1.46369E-08-3.64299E-18 2.26208E-18
 -1      1657 9.52449E-05-2.85975E-05-2.85632E-05 8.92265E-09-3.90694E-18-9.55260E-20
 -1      1658 9.52477E-05-2.86058E-05-2.85608E-05 8.89067E-09-3.58944E-18 6.49648E-19
 -1      1659 9.52472E-05-2.86037E-05-2.85615E-05 1.66346E-08-2.31974E-18 1.17233E-18
 -1      1660 9.52406E-05-2.85847E-05-2.85668E-05 7.75991E-09-2.13615E-18 5.91652E-19
 -1      1661 9.52430E-05-2.85919E-05-2.85648E-05 8.11011E-09-3.19235E-18-1.79964E-19
 -1      1662 9.52430E-05-2.85925E-05-2.85645E-05 1.63051E-08-8.71454E-19-1.80334E-19
 -1      1663 9.52371E-05-2.85762E-05-2.85690E-05 6.49942E-09 1.14701E-19 1.01581E-18
 -1      1664 9.52386E-05-2.85807E-05-2.85677E-05 7.92051E-09-1.07718E-18 1.12262E-18
 -1      1665 9.52387E-05-2.85827E-05-2.85667E-05 1.48119E-08 3.31397E-19 2.18402E-18
 -1      1666 9.52335E-05-2.85751E-05-2.85678E-05 1.23816E-08-2.72258E-19 4.75180E-19
 -1      1667 2.03979E-05-6.57750E-05 1.36853E-05-4.68414E-06 1.02436E-17 5.35071E-18
 -1      1668 2.38526E-05-7.62394E-05 1.59384E-05 2.87664E-06 4.15152E-18 3.75829E-18
 -1      1669 1.98143E-05-3.82786E-05 3.74149E-06 3.74490E-06 1.46537E-17 7.40339E-18
 -1      1670 2.42139E-05-6.08210E-05 9.73750E-06 7.43078E-08 1.13519E-17 5.22233E-18
 -1      1671 3.24176E-05-1.07568E-05-1.12852E-05 2.71792E-05 1.49722E-17 9.47152E-18
 -1      1672 2.76695E-05-3.12579E-05-3.02601E-06 1.03963E-05 1.58624E-17 7.97058E-18
 -1      1673 7.28990E-05-1.88194E-06-2.97565E-05 5.83343E-05 1.16958E-17 1.17568E-17
 -1      1674 4.98806E-05-8.57688E-06-2.00222E-05 3.58835E-05 1.36745E-17 1.00289E-17
 -1      1675 1.33687E-04-1.30891E-05-4.84616E-05 7.81394E-05 8.94551E-18 1.13443E-17
 -1      1676 9.34443E-05-1.58452E-06-3.90405E-05 6.45778E-05 1.08175E-17 1.21236E-17
 -1      1677 2.00015E-04-4.01661E-05-6.34930E-05 6.54487E-05 5.55654E-18 5.05848E-18
 -1      1678 1.58334E-04-2.06272E-05-5.62380E-05 7.23292E-05 7.90875E-18 9.14541E-18
 -1      1679 2.45690E-04-6.07499E-05-7.29858E-05 2.86059E-05 3.45611E-18-2.63258E-18
 -1      1680 2.18422E-04-4.57434E-05-6.90957E-05 5.62796E-05 4.68790E-18 2.84688E-18
 -1      1681 2.48652E-04-6.12553E-05-7.42975E-05-2.13155E-05 3.90355E-18-1.02063E-17
 -1      1682 2.51283E-04-6.27869E-05-7.46336E-05 1.31283E-05 3.38008E-18-5.17135E-18
 -1      1683 2.06968E-04-4.03056E-05-6.69219E-05-6.10821E-05 7.07749E-18-1.53076E-17
 -1      1684 2.39049E-04-5.76529E-05-7.17228E-05-3.58565E-05 4.50473E-18-1.21473E-17
 -1      1685 1.41294E-04-1.37156E-05-5.23930E-05-7.42623E-05 1.17780E-17-1.78004E-17
 -1      1686 1.87465E-04-3.41406E-05-6.07559E-05-7.24047E-05 8.78416E-18-1.65341E-17
 -1      1687 8.31516E-05-4.50553E-06-3.40688E-05-5.62754E-05 1.50060E-17-1.64604E-17
 -1      1688 1.18618E-04-1.08863E-05-4.36080E-05-7.30198E-05 1.28859E-17-1.74370E-17
 -1      1689 4.07395E-05-1.22277E-05-1.52300E-05-2.82530E-05 1.73981E-17-1.33272E-17
 -1      1690 5.88783E-05-9.38194E-07-2.48567E-05-5.09900E-05 1.66154E-17-1.59759E-17
 -1      1691 2.76306E-05-4.30138E-05 1.55990E-06-6.59238E-06 1.26979E-17-8.56139E-18
 -1      1692 2.93859E-05-1.95027E-05-6.74143E-06-2.10065E-05 1.59801E-17-1.17314E-17
 -1      1693 2.44500E-05-7.01996E-05 1.29882E-05 1.43942E-06 5.98979E-18-4.48165E-18
 -1      1694 1.87159E-05-4.95329E-05 8.19050E-06 2.42289E-06 1.16569E-17-7.39174E-18
 -1      1695 2.40839E-05-7.89912E-05 1.67069E-05-4.27784E-06-2.08590E-18-3.29517E-18
 -1      1696 2.25449E-05-7.44356E-05 1.57396E-05 5.18553E-06 3.55839E-18-3.45505E-18
 -1      1697 2.05027E-05-6.51063E-05 1.30698E-05-7.58158E-06-9.39614E-18-5.32328E-18
 -1      1698 2.47291E-05-7.76371E-05 1.57974E-05-1.39815E-06-4.47106E-18-3.67316E-18
 -1      1699 2.03798E-05-3.73708E-05 2.82880E-06 2.48334E-06-1.42107E-17-8.55440E-18
 -1      1700 2.42707E-05-5.96325E-05 8.85195E-06-2.85096E-06-1.10910E-17-6.04549E-18
 -1      1701 3.63483E-05-1.12427E-05-1.28391E-05 2.87408E-05-1.58692E-17-1.27546E-17
 -1      1702 2.96030E-05-3.09915E-05-4.22376E-06 1.03025E-05-1.47807E-17-9.73156E-18
 -1      1703 8.22189E-05-4.81285E-06-3.23118E-05 6.07616E-05-1.38414E-17-1.43911E-17
 -1      1704 5.54989E-05-9.81677E-06-2.20205E-05 3.73799E-05-1.52652E-17-1.30706E-17
 -1      1705 1.45102E-04-1.80213E-05-5.08524E-05 7.79117E-05-1.00924E-17-1.37219E-17
 -1      1706 1.04179E-04-5.75575E-06-4.17100E-05 6.58031E-05-1.28309E-17-1.45131E-17
 -1      1707 2.10510E-04-4.41122E-05-6.56699E-05 6.69723E-05-6.02431E-18-8.24671E-18
 -1      1708 1.68357E-04-2.37362E-05-5.86129E-05 7.55054E-05-8.93112E-18-1.21761E-17
 -1      1709 2.50312E-04-6.17901E-05-7.43215E-05 2.35901E-05-4.07910E-18 9.09290E-19
 -1      1710 2.24299E-04-4.77291E-05-7.04223E-05 5.21993E-05-5.67999E-18-5.09999E-18
 -1      1711 2.53664E-04-6.23708E-05-7.54582E-05-2.52502E-05-4.14919E-18 8.94933E-18
 -1      1712 2.58864E-04-6.52475E-05-7.62471E-05 1.00745E-05-3.30046E-18 3.65452E-18
 -1      1713 2.09517E-04-4.15983E-05-6.72917E-05-6.05778E-05-7.51774E-18 1.47723E-17
 -1      1714 2.42887E-04-5.89718E-05-7.24049E-05-3.78472E-05-4.85657E-18 1.12465E-17
 -1      1715 1.46636E-04-1.76344E-05-5.30251E-05-7.20511E-05-1.15247E-17 1.80054E-17
 -1      1716 1.90550E-04-3.65373E-05-6.11125E-05-7.07493E-05-8.71406E-18 1.67882E-17
 -1      1717 8.46877E-05-4.27132E-06-3.50427E-05-5.69724E-05-1.48138E-17 1.70033E-17
 -1      1718 1.21761E-04-1.16691E-05-4.46274E-05-7.38330E-05-1.30816E-17 1.80579E-17
 -1      1719 4.39828E-05-1.33081E-05-1.63418E-05-2.83119E-05-1.16120E-17 1.25564E-17
 -1      1720 6.32751E-05-3.44052E-06-2.58395E-05-5.06714E-05-1.40912E-17 1.71007E-17
 -1      1721 2.67312E-05-3.89269E-05 6.90832E-08-4.86700E-06-6.86859E-18 6.72629E-18
 -1      1722 2.91702E-05-1.72880E-05-7.90470E-06-1.95087E-05-1.05676E-17 1.10013E-17
 -1      1723 2.43759E-05-6.45531E-05 1.11807E-05 1.51968E-06-2.14638E-18 3.04942E-18
 -1      1724 1.99763E-05-4.48355E-05 6.03536E-06-8.87360E-08-5.39052E-18 5.07749E-18
 -1      1725 2.39189E-05-7.78206E-05 1.64250E-05-5.73983E-07 2.55402E-18 1.52466E-18
 -1      1726 2.10434E-05-7.02405E-05 1.48579E-05 8.07510E-06-9.72394E-19 1.65277E-18
 -1      1727 1.10750E-04-2.96908E-05-3.39387E-05 4.67349E-05 7.29338E-18 6.75085E-18
 -1      1728 7.03506E-05-3.36676E-05-1.68966E-05 3.99529E-05 8.68463E-18 5.33250E-18
 -1      1729 9.52362E-05-2.85727E-05-2.85699E-05-2.90028E-09-2.64357E-18-1.57920E-18
 -1      1730 9.52354E-05-2.85748E-05-2.85687E-05-7.89182E-09-4.53313E-19 6.47508E-19
 -1      1731 1.89018E-05-4.73353E-05 8.08160E-06 1.58776E-05 5.14361E-18 6.50310E-18
 -1      1732 3.85312E-05-4.08153E-05-2.04609E-06 2.80765E-05 8.17302E-18 5.97762E-18
 -1      1733 1.19369E-05-5.16426E-05 1.22900E-05 2.38475E-06 3.02253E-18 5.49682E-18
 -1      1734 1.54070E-04-2.97766E-05-5.03101E-05 4.30676E-05 6.67208E-18 3.88449E-18
 -1      1735 1.88183E-04-3.16177E-05-6.28661E-05 2.80314E-05 6.70236E-18-7.10237E-19
 -1      1736 2.08797E-04-3.38181E-05-6.97986E-05 9.66081E-06 6.21637E-18-3.59883E-18
 -1      1737 2.05029E-04-3.25580E-05-6.89061E-05-1.29212E-05 6.15200E-18-6.94863E-18
 -1      1738 1.82280E-04-3.10781E-05-6.06665E-05-3.26272E-05 7.30217E-18-9.66634E-18
 -1      1739 1.45219E-04-3.15942E-05-4.64121E-05-4.31152E-05 8.51416E-18-1.07760E-17
 -1      1740 1.01528E-04-3.16951E-05-2.94780E-05-4.52783E-05 9.96958E-18-1.08073E-17
 -1      1741 6.15940E-05-3.67355E-05-1.24448E-05-3.74554E-05 8.99210E-18-9.38047E-18
 -1      1742 3.24863E-05-4.42346E-05 1.73942E-06-2.55960E-05 6.40442E-18-9.02402E-18
 -1      1743 1.57711E-05-5.18292E-05 1.07520E-05-1.00873E-05 3.04635E-18-7.11804E-18
 -1      1744 1.27501E-05-5.34858E-05 1.24826E-05 2.05249E-06-1.74616E-18-6.59627E-18
 -1      1745 2.13996E-05-4.94795E-05 7.58050E-06 1.45096E-05-5.39687E-18-6.96790E-18
 -1      1746 4.22467E-05-4.23380E-05-3.14732E-06 2.73524E-05-8.17980E-18-8.04406E-18
 -1      1747 7.73161E-05-3.65279E-05-1.86555E-05 3.94838E-05-8.81422E-18-8.60204E-18
 -1      1748 1.20071E-04-3.34704E-05-3.62330E-05 4.48634E-05-8.81761E-18-7.82150E-18
 -1      1749 1.63045E-04-3.29627E-05-5.26002E-05 4.32962E-05-7.97482E-18-6.41797E-18
 -1      1750 1.95204E-04-3.37489E-05-6.45631E-05 2.70079E-05-7.51636E-18-2.01001E-18
 -1      1751 2.10756E-04-3.31209E-05-7.07454E-05 6.11050E-06-7.22943E-18 1.66781E-18
 -1      1752 2.09659E-04-3.44565E-05-6.96953E-05-1.17903E-05-6.81142E-18 5.94448E-18
 -1      1753 1.86452E-04-3.42631E-05-6.10073E-05-2.95521E-05-7.51858E-18 8.93789E-18
 -1      1754 1.49246E-04-3.33100E-05-4.72153E-05-4.29955E-05-8.58044E-18 1.09962E-17
 -1      1755 1.04283E-04-3.28541E-05-3.04178E-05-4.37685E-05-7.65633E-18 1.13375E-17
 -1      1756 6.41870E-05-3.69653E-05-1.36064E-05-3.53267E-05-5.18808E-18 1.09454E-17
 -1      1757 3.52915E-05-4.36283E-05 1.63594E-07-2.41420E-05-2.94429E-18 7.38817E-18
 -1      1758 1.76107E-05-4.89441E-05 9.20390E-06-1.20634E-05-2.33358E-19 4.31987E-18
 -1      1759 1.07707E-04-2.37914E-05-3.60577E-05-1.53753E-05-1.74041E-18 7.61398E-18
 -1      1760 9.02189E-05-1.05844E-05-3.42622E-05-1.04189E-05-2.33129E-18-2.15390E-18
 -1      1761 9.20559E-05-1.18747E-05-3.44893E-05-1.22569E-05-2.63754E-18-1.33754E-18
 -1      1762 9.45071E-05-1.44405E-05-3.44787E-05-1.33152E-05-2.63931E-18-3.17346E-19
 -1      1763 9.65317E-05-1.65835E-05-3.47375E-05-1.51299E-05-2.77528E-18 1.07510E-18
 -1      1764 9.52913E-05-1.67046E-05-3.36854E-05-1.08107E-05-2.74323E-18-6.47133E-19
 -1      1765 8.49590E-05-6.46411E-06-3.37150E-05-5.50561E-06-1.31211E-18-3.53832E-18
 -1      1766 8.58941E-05-6.96707E-06-3.38723E-05-6.66693E-06-1.57568E-18-3.37774E-18
 -1      1767 8.33926E-05-5.37280E-06-3.34950E-05-3.62860E-06-7.99399E-19-3.80666E-18
 -1      1768 8.40464E-05-5.70210E-06-3.36137E-05-4.60103E-06-1.01860E-18-3.71170E-18
 -1      1769 8.57687E-05-8.08162E-06-3.33159E-05-4.62517E-06-1.28912E-18-3.49155E-18
 -1      1770 8.24522E-05-4.74523E-06-3.33492E-05-2.02204E-06-2.72128E-19-3.80126E-18
 -1      1771 8.28165E-05-4.91792E-06-3.34208E-05-2.86734E-06-5.14978E-19-3.82492E-18
 -1      1772 8.41915E-05-6.88336E-06-3.31523E-05-3.00233E-06-6.78510E-19-3.61390E-18
 -1      1773 8.21255E-05-4.53484E-06-3.32913E-05-5.38718E-07 2.84495E-19-3.75209E-18
 -1      1774 8.22051E-05-4.56513E-06-3.33120E-05-1.33527E-06 2.47559E-20-3.76989E-18
 -1      1775 8.33228E-05-6.25916E-06-3.30470E-05-1.58457E-06-1.54163E-19-3.62901E-18
 -1      1776 8.23885E-05-4.70946E-06-3.33248E-05 9.67394E-07 7.75580E-19-3.67037E-18
 -1      1777 8.21962E-05-4.60762E-06-3.32948E-05 1.46136E-07 5.38316E-19-3.74060E-18
 -1      1778 8.31440E-05-6.15714E-06-3.30149E-05-2.35600E-07 4.54386E-19-3.60524E-18
 -1      1779 8.32018E-05-5.24634E-06-3.34429E-05 2.63047E-06 1.17560E-18-3.54687E-18
 -1      1780 8.27574E-05-5.01834E-06-3.33666E-05 1.71724E-06 1.01325E-18-3.66523E-18
 -1      1781 8.36205E-05-6.53875E-06-3.30576E-05 1.17954E-06 9.37785E-19-3.52900E-18
 -1      1782 8.44992E-05-6.12217E-06-3.36278E-05 4.53226E-06 1.62520E-18-3.15157E-18
 -1      1783 8.38342E-05-5.77479E-06-3.35143E-05 3.48565E-06 1.38119E-18-3.36068E-18
 -1      1784 8.46950E-05-7.37070E-06-3.31639E-05 2.76295E-06 1.37533E-18-3.29442E-18
 -1      1785 8.63244E-05-7.41430E-06-3.38682E-05 6.83663E-06 2.22908E-18-2.48899E-18
 -1      1786 8.54083E-05-6.90568E-06-3.37197E-05 5.55956E-06 1.89940E-18-2.83342E-18
 -1      1787 8.63339E-05-8.66507E-06-3.33144E-05 4.61329E-06 1.92363E-18-2.77619E-18
 -1      1788 8.87695E-05-9.28498E-06-3.41434E-05 9.58883E-06 2.75566E-18-1.62268E-18
 -1      1789 8.75415E-05-8.52886E-06-3.39630E-05 8.03263E-06 2.46647E-18-2.15604E-18
 -1      1790 8.85813E-05-1.05266E-05-3.34802E-05 6.78495E-06 2.50750E-18-2.09627E-18
 -1      1791 9.22078E-05-1.22247E-05-3.44269E-05 1.27466E-05 3.03664E-18-1.99582E-20
 -1      1792 9.04296E-05-1.09394E-05-3.42118E-05 1.08851E-05 2.82856E-18-9.93834E-19
 -1      1793 9.15814E-05-1.32027E-05-3.36085E-05 9.19263E-06 2.90971E-18-1.14261E-18
 -1      1794 9.79593E-05-1.77488E-05-3.45677E-05 1.54938E-05 2.92565E-18 3.01194E-18
 -1      1795 9.47664E-05-1.49395E-05-3.43890E-05 1.38124E-05 2.91447E-18 1.21660E-18
 -1      1796 9.57779E-05-1.73726E-05-3.35904E-05 1.13132E-05 3.08009E-18 6.70188E-19
 -1      1797 1.04027E-04-2.58285E-05-3.39353E-05 1.27238E-05 2.43220E-18 6.52639E-18
 -1      1798 1.00234E-04-2.03841E-05-3.42231E-05 1.49829E-05 2.68459E-18 4.22733E-18
 -1      1799 9.96679E-05-2.26158E-05-3.30909E-05 1.10363E-05 2.97849E-18 3.01875E-18
 -1      1800 1.01316E-04-2.69682E-05-3.20673E-05 7.75642E-06 2.46762E-18 5.76762E-18
 -1      1801 1.02396E-04-2.04000E-05-3.48332E-05-1.67931E-05-2.35601E-18 3.47485E-18
 -1      1802 9.87906E-05-2.83121E-05-3.02254E-05 2.38445E-06 1.85192E-18 4.53655E-18
 -1      1803 1.00666E-04-2.82759E-05-3.10618E-05 4.73719E-06 2.07121E-18 5.26887E-18
 -1      1804 1.00368E-04-2.64870E-05-3.16625E-05 6.74403E-06 2.44565E-18 3.70778E-18
 -1      1805 1.02194E-04-2.32984E-05-3.35369E-05-1.21452E-05-2.52040E-18 2.48144E-18
 -1      1806 1.00423E-04-2.78837E-05-3.09700E-05-3.25229E-06-1.95776E-18 2.02950E-18
 -1      1807 9.93124E-05-2.80772E-05-3.04800E-05-1.30363E-06-1.73750E-18 1.52566E-18
 -1      1808 9.89670E-05-2.83528E-05-3.01641E-05 4.60860E-07-1.56986E-18 1.45809E-18
 -1      1809 9.90286E-05-2.86278E-05-3.01126E-05 1.56969E-06-1.39983E-18 1.05903E-18
 -1      1810 9.92404E-05-2.72983E-05-3.08641E-05-1.01131E-06-1.94482E-18 3.88212E-19
 -1      1811 9.91067E-05-2.88054E-05-3.00677E-05 2.78432E-06-1.18637E-18 9.18356E-19
 -1      1812 9.98253E-05-2.91357E-05-3.02473E-05 3.56291E-06-9.13406E-19 6.51732E-19
 -1      1813 9.91008E-05-2.81191E-05-3.04505E-05 2.38222E-06-1.60090E-18 2.11904E-19
 -1      1814 1.00291E-04-2.93494E-05-3.03696E-05 4.48628E-06-6.64345E-19 6.15839E-19
 -1      1815 1.01497E-04-2.97837E-05-3.06967E-05 5.10011E-06-4.42211E-19 5.27958E-19
 -1      1816 9.97311E-05-2.86993E-05-3.04689E-05 4.80112E-06-9.41351E-19 8.22151E-20
 -1      1817 1.02293E-04-3.00823E-05-3.09292E-05 5.83802E-06-3.90567E-19 5.45627E-19
 -1      1818 1.03870E-04-3.06417E-05-3.13581E-05 6.31913E-06-3.74044E-19 3.46387E-19
 -1      1819 1.01047E-04-2.93325E-05-3.07585E-05 6.67833E-06-5.16131E-19-5.72128E-20
 -1      1820 1.04958E-04-3.10652E-05-3.16590E-05 6.86408E-06-3.94536E-19 2.88954E-19
 -1      1821 1.06799E-04-3.17698E-05-3.21476E-05 7.15034E-06-2.76609E-19 1.97527E-19
 -1      1822 1.02976E-04-3.01835E-05-3.12187E-05 8.13126E-06-4.53211E-19 8.25692E-21
 -1      1823 1.08161E-04-3.23709E-05-3.24771E-05 7.38858E-06-1.98274E-19 2.42943E-19
 -1      1824 1.10115E-04-3.32335E-05-3.29697E-05 7.32397E-06-2.12422E-19 2.37884E-19
 -1      1825 1.05481E-04-3.14091E-05-3.17675E-05 9.03896E-06-2.97013E-19-8.93967E-20
 -1      1826 1.11748E-04-3.40727E-05-3.32857E-05 7.02792E-06-1.61105E-19 4.76430E-19
 -1      1827 1.13573E-04-3.50660E-05-3.37052E-05 6.36891E-06-1.45915E-20 4.87319E-19
 -1      1828 1.08558E-04-3.31843E-05-3.23277E-05 9.04490E-06-1.28815E-19-6.75641E-20
 -1      1829 1.15445E-04-3.61625E-05-3.39713E-05 5.21633E-06-1.58157E-20 5.12203E-19
 -1      1830 1.16767E-04-3.71438E-05-3.42255E-05 3.70190E-06-8.29033E-20 3.76119E-19
 -1      1831 1.12182E-04-3.56276E-05-3.28351E-05 7.56667E-06-5.87563E-20-1.01684E-19
 -1      1832 1.18711E-04-3.83517E-05-3.44326E-05 1.39824E-06 1.04324E-19 6.34252E-19
 -1      1833 1.19034E-04-3.89461E-05-3.44481E-05-1.04068E-06 2.43231E-19 6.91495E-19
 -1      1834 1.16155E-04-3.85600E-05-3.32748E-05 3.93057E-06 1.55920E-19 5.48259E-19
 -1      1835 1.20567E-04-3.97616E-05-3.46434E-05-4.41493E-06 6.54796E-20 9.50215E-19
 -1      1836 1.19417E-04-3.93215E-05-3.44211E-05-7.27884E-06-3.83812E-22 1.08393E-18
 -1      1837 1.19797E-04-4.10675E-05-3.37372E-05-2.17373E-06 3.18656E-19 1.17088E-18
 -1      1838 1.19691E-04-3.88671E-05-3.47026E-05-1.06711E-05 3.08042E-19 1.05638E-18
 -1      1839 1.17024E-04-3.68652E-05-3.43598E-05-1.25727E-05 4.40457E-20 1.50082E-18
 -1      1840 1.21660E-04-4.12274E-05-3.44308E-05-9.70626E-06-1.80458E-20 1.73755E-18
 -1      1841 1.15514E-04-3.46592E-05-3.47904E-05-1.37864E-05-5.46919E-19 1.43364E-18
 -1      1842 1.12252E-04-3.15957E-05-3.45030E-05-1.29805E-05-1.37217E-18 1.39734E-18
 -1      1843 1.20193E-04-3.72235E-05-3.55370E-05-1.52220E-05-4.08455E-19 1.84915E-18
 -1      1844 1.09911E-04-2.87301E-05-3.49407E-05-1.00519E-05-2.26221E-18 8.06137E-19
 -1      1845 1.07875E-04-2.65791E-05-3.48174E-05-6.04828E-06-2.19434E-18-3.85731E-20
 -1      1846 1.15803E-04-3.00053E-05-3.68820E-05-1.37627E-05-2.24255E-18 1.09408E-18
 -1      1847 1.07144E-04-2.56805E-05-3.49566E-05 7.93501E-08-2.44475E-18-1.24098E-18
 -1      1848 1.07809E-04-2.63176E-05-3.50162E-05 5.07391E-06-2.55073E-18-2.14904E-18
 -1      1849 1.12254E-04-2.47132E-05-3.77538E-05-3.60897E-06-3.19257E-18-5.59512E-19
 -1      1850 1.09572E-04-2.83349E-05-3.47601E-05 1.02807E-05-1.96819E-18-2.84178E-18
 -1      1851 1.12514E-04-3.12017E-05-3.50033E-05 1.30995E-05-1.22785E-18-2.96231E-18
 -1      1852 1.13431E-04-2.62680E-05-3.75508E-05 9.29671E-06-2.61998E-18-2.11676E-18
 -1      1853 1.14876E-04-3.41047E-05-3.45746E-05 1.42436E-05-1.03730E-18-3.12293E-18
 -1      1854 1.18244E-04-3.69531E-05-3.49507E-05 1.37756E-05-6.76309E-19-3.55988E-18
 -1      1855 1.18141E-04-3.31809E-05-3.64618E-05 1.62096E-05-1.39594E-18-2.77429E-18
 -1      1856 1.19141E-04-3.84934E-05-3.46129E-05 1.13690E-05-1.49501E-19-3.43108E-18
 -1      1857 1.21401E-04-3.98793E-05-3.49752E-05 8.87049E-06 7.05406E-19-3.68596E-18
 -1      1858 1.21832E-04-3.95511E-05-3.52220E-05 1.42852E-05-3.34882E-19-3.12213E-18
 -1      1859 1.20611E-04-3.97284E-05-3.47797E-05 5.29360E-06 1.23701E-18-3.34515E-18
 -1      1860 1.21289E-04-3.97059E-05-3.49632E-05 2.51266E-06 1.22970E-18-3.17917E-18
 -1      1861 1.22033E-04-4.17989E-05-3.43576E-05 7.40850E-06 9.31888E-19-2.47469E-18
 -1      1862 1.19616E-04-3.86703E-05-3.48114E-05-4.52670E-07 8.04999E-19-2.76689E-18
 -1      1863 1.19005E-04-3.79088E-05-3.47461E-05-2.50509E-06 4.27341E-19-2.61466E-18
 -1      1864 1.19440E-04-4.04493E-05-3.38591E-05 2.45306E-07 1.38855E-18-2.05939E-18
 -1      1865 1.17164E-04-3.67425E-05-3.45530E-05-4.28852E-06 4.11777E-19-2.16124E-18
 -1      1866 1.15778E-04-3.57891E-05-3.42747E-05-5.40223E-06 8.69665E-19-1.85048E-18
 -1      1867 1.15754E-04-3.76576E-05-3.34924E-05-4.81359E-06 8.41666E-19-1.19260E-18
 -1      1868 1.14094E-04-3.48273E-05-3.40163E-05-6.14638E-06 4.34114E-19-1.81779E-18
 -1      1869 1.12377E-04-3.39480E-05-3.36093E-05-6.51454E-06 5.59819E-19-1.83117E-18
 -1      1870 1.12089E-04-3.49421E-05-3.30869E-05-7.45156E-06 7.51934E-19-6.77749E-19
 -1      1871 1.10931E-04-3.32483E-05-3.33041E-05-6.56772E-06 4.56228E-19-2.00283E-18
 -1      1872 1.09183E-04-3.25251E-05-3.28512E-05-6.47457E-06 2.56400E-19-1.64555E-18
 -1      1873 1.08864E-04-3.28600E-05-3.25931E-05-8.24199E-06 4.25270E-19-1.03680E-18
 -1      1874 1.07966E-04-3.20378E-05-3.25309E-05-6.15214E-06-2.77713E-19-1.87523E-18
 -1      1875 1.06357E-04-3.14705E-05-3.20909E-05-5.82986E-06-3.52688E-19-1.95273E-18
 -1      1876 1.06147E-04-3.14290E-05-3.20376E-05-7.90124E-06-2.68453E-20-1.82348E-18
 -1      1877 1.05339E-04-3.11307E-05-3.17830E-05-5.34863E-06-1.25356E-19-1.94984E-18
 -1      1878 1.03946E-04-3.06944E-05-3.13888E-05-4.94716E-06-9.55129E-20-1.99358E-18
 -1      1879 1.03887E-04-3.04878E-05-3.14695E-05-6.99454E-06-2.71063E-19-1.77481E-18
 -1      1880 1.03100E-04-3.04523E-05-3.11108E-05-4.43472E-06 9.30711E-20-2.11960E-18
 -1      1881 1.01942E-04-3.01198E-05-3.07758E-05-4.03665E-06 5.94693E-19-2.21127E-18
 -1      1882 1.02018E-04-2.98717E-05-3.09311E-05-5.88763E-06 9.22339E-20-8.47224E-19
 -1      1883 1.01249E-04-2.99428E-05-3.05361E-05-3.55861E-06 1.06980E-18-2.81141E-18
 -1      1884 1.00315E-04-2.96911E-05-3.02616E-05-3.20248E-06 5.97459E-19-2.05053E-18
 -1      1885 1.00485E-04-2.94613E-05-3.04489E-05-4.78693E-06 4.99779E-19-2.29260E-18
 -1      1886 9.97527E-05-2.95593E-05-3.00618E-05-2.78669E-06-3.17791E-19-1.99023E-18
 -1      1887 9.90165E-05-2.93701E-05-2.98431E-05-2.48585E-06-9.97024E-19-1.86222E-18
 -1      1888 9.92415E-05-2.91806E-05-3.00349E-05-3.79311E-06 3.91543E-19-2.59412E-18
 -1      1889 9.85681E-05-2.92710E-05-2.96809E-05-2.13936E-06-7.19611E-19-1.93516E-18
 -1      1890 9.79990E-05-2.91301E-05-2.95103E-05-1.89422E-06-1.03743E-19-2.23602E-18
 -1      1891 9.82448E-05-2.89841E-05-2.96909E-05-2.94423E-06-2.90300E-19-2.15001E-18
 -1      1892 9.76465E-05-2.90556E-05-2.93816E-05-1.61371E-06-3.18741E-19-2.58398E-18
 -1      1893 9.72144E-05-2.89520E-05-2.92510E-05-1.41887E-06-5.62113E-19-2.11841E-18
 -1      1894 9.74572E-05-2.88443E-05-2.94122E-05-2.24467E-06-4.25697E-19-1.51993E-18
 -1      1895 9.69416E-05-2.88964E-05-2.91507E-05-1.19657E-06-6.69014E-19-2.00652E-18
 -1      1896 9.66189E-05-2.88214E-05-2.90524E-05-1.04462E-06-2.45646E-19-1.89540E-18
 -1      1897 9.68441E-05-2.87445E-05-2.91911E-05-1.68253E-06-6.28326E-19-1.35522E-18
 -1      1898 9.64113E-05-2.87804E-05-2.89757E-05-8.71463E-07-1.55010E-20-1.94377E-18
 -1      1899 9.61746E-05-2.87272E-05-2.89030E-05-7.54828E-07 2.00324E-19-2.21473E-18
 -1      1900 9.63742E-05-2.86738E-05-2.90191E-05-1.23954E-06-5.91608E-20-8.53687E-19
 -1      1901 9.60193E-05-2.86975E-05-2.88453E-05-6.21993E-07 5.38179E-19-2.11156E-18
 -1      1902 9.58490E-05-2.86606E-05-2.87926E-05-5.33769E-07 4.00156E-19-2.21822E-18
 -1      1903 9.60201E-05-2.86246E-05-2.88875E-05-8.96118E-07 6.32396E-19-1.49497E-18
 -1      1904 9.57350E-05-2.86397E-05-2.87499E-05-4.33344E-07 2.37240E-20-2.30081E-18
 -1      1905 9.56153E-05-2.86150E-05-2.87125E-05-3.67581E-07-1.12169E-19-1.86614E-18
 -1      1906 9.57579E-05-2.85913E-05-2.87887E-05-6.33832E-07 2.87896E-19-1.81383E-18
 -1      1907 9.55334E-05-2.86006E-05-2.86816E-05-2.92778E-07-4.30624E-19-2.41226E-18
 -1      1908 9.54517E-05-2.85848E-05-2.86557E-05-2.44512E-07-1.17056E-19-2.68794E-18
 -1      1909 9.55676E-05-2.85698E-05-2.87157E-05-4.36436E-07-7.16221E-19-1.95106E-18
 -1      1910 9.53943E-05-2.85754E-05-2.86339E-05-1.89674E-07 1.61155E-18-3.75676E-18
 -1      1911 9.53407E-05-2.85659E-05-2.86166E-05-1.54853E-07 1.42186E-18-2.60982E-18
 -1      1912 9.54328E-05-2.85568E-05-2.86630E-05-2.90122E-07 3.05203E-19-2.37579E-18
 -1      1913 9.53018E-05-2.85601E-05-2.86016E-05-1.15358E-07 1.04853E-18-2.46504E-18
 -1      1914 9.52685E-05-2.85551E-05-2.85906E-05-9.07283E-08 5.36672E-19-1.23842E-18
 -1      1915 9.53400E-05-2.85499E-05-2.86257E-05-1.83446E-07 1.55872E-18-1.80336E-18
 -1      1916 9.52433E-05-2.85519E-05-2.85806E-05-6.28606E-08-8.41804E-19-4.38483E-19
 -1      1917 9.52245E-05-2.85500E-05-2.85741E-05-4.58492E-08-1.90945E-18-4.77150E-19
 -1      1918 9.52786E-05-2.85472E-05-2.86002E-05-1.07106E-07 1.02268E-19-1.56092E-18
 -1      1919 9.52093E-05-2.85486E-05-2.85679E-05-2.66713E-08-2.56806E-18 2.81307E-19
 -1      1920 9.52006E-05-2.85487E-05-2.85646E-05-1.52727E-08-1.83548E-18 3.44835E-20
 -1      1921 9.52402E-05-2.85473E-05-2.85834E-05-5.36615E-08-1.75653E-18 7.90519E-19
 -1      1922 9.51924E-05-2.85486E-05-2.85610E-05-2.50119E-09-8.58199E-19 9.57185E-19
 -1      1923 9.51905E-05-2.85500E-05-2.85599E-05 4.81593E-09 3.26851E-19 5.78972E-19
 -1      1924 9.52183E-05-2.85493E-05-2.85730E-05-1.72617E-08-1.20990E-18 2.67493E-18
 -1      1925 9.51872E-05-2.85506E-05-2.85581E-05 1.29160E-08 1.65968E-18-6.72243E-19
 -1      1926 9.51896E-05-2.85528E-05-2.85584E-05 1.72883E-08 1.90324E-18 3.76571E-19
 -1      1927 9.52079E-05-2.85523E-05-2.85671E-05 6.60551E-09 1.48015E-19 2.24038E-18
 -1      1928 9.51895E-05-2.85539E-05-2.85579E-05 2.19909E-08 1.70342E-18 1.19208E-18
 -1      1929 9.51946E-05-2.85565E-05-2.85590E-05 2.42214E-08 2.57096E-18 1.73437E-18
 -1      1930 9.52053E-05-2.85560E-05-2.85643E-05 2.13256E-08 2.34047E-18 1.57831E-18
 -1      1931 9.51966E-05-2.85579E-05-2.85593E-05 2.64089E-08 1.67646E-18 5.77400E-19
 -1      1932 9.52029E-05-2.85607E-05-2.85609E-05 2.70097E-08 1.27488E-18 1.89862E-19
 -1      1933 9.52078E-05-2.85600E-05-2.85635E-05 2.93338E-08 9.42931E-19 3.40657E-19
 -1      1934 9.52060E-05-2.85624E-05-2.85615E-05 2.72279E-08 1.60042E-19-9.79212E-19
 -1      1935 9.52126E-05-2.85652E-05-2.85632E-05 2.64459E-08-1.05172E-18-1.00900E-18
 -1      1936 9.52132E-05-2.85642E-05-2.85639E-05 3.22565E-08 2.32679E-20-8.44410E-19
 -1      1937 9.52162E-05-2.85670E-05-2.85640E-05 2.49972E-08-9.35502E-19-6.64052E-19
 -1      1938 9.52223E-05-2.85697E-05-2.85655E-05 2.28229E-08 4.29524E-19-4.83186E-19
 -1      1939 9.52201E-05-2.85687E-05-2.85650E-05 3.10397E-08-9.39650E-19 9.58128E-19
 -1      1940 9.52253E-05-2.85713E-05-2.85661E-05 1.99535E-08 1.97733E-18-5.41319E-19
 -1      1941 9.52303E-05-2.85737E-05-2.85673E-05 1.64410E-08 1.50449E-18 9.90480E-19
 -1      1942 9.52330E-05-2.85768E-05-2.85670E-05 1.90398E-08 1.16023E-18 1.76987E-18
 -1      1943 9.52270E-05-2.85731E-05-2.85660E-05 2.63564E-08 9.89614E-19 2.15900E-18
 -1      1944 9.77451E-05-2.86602E-05-2.95734E-05-2.03464E-07 1.52549E-18 3.48876E-18
 -1      1945 9.83336E-05-2.85948E-05-2.98264E-05 9.40939E-07 1.58431E-18 4.16874E-18
 -1      1946 9.88569E-05-2.80823E-05-3.03441E-05 1.90882E-06 1.97643E-18 2.89816E-18
 -1      1947 9.78836E-05-2.89934E-05-2.94961E-05-1.64284E-06 9.12142E-19 2.79064E-18
 -1      1948 9.77138E-05-2.88232E-05-2.94722E-05-9.96232E-07 1.02650E-18 3.17805E-18
 -1      1949 9.82429E-05-2.86578E-05-2.98357E-05-7.64518E-07 1.36838E-18 2.31961E-18
 -1      1950 9.88202E-05-2.94524E-05-2.97129E-05-2.45247E-06 4.01394E-19 2.50310E-18
 -1      1951 9.82174E-05-2.91909E-05-2.95523E-05-2.07433E-06 6.05362E-19 2.68735E-18
 -1      1952 9.85431E-05-2.91211E-05-2.97683E-05-2.29474E-06 7.69470E-19 1.88076E-18
 -1      1953 1.00226E-04-3.00313E-05-3.00776E-05-2.80602E-06 1.73094E-19 2.22976E-18
 -1      1954 9.93985E-05-2.97092E-05-2.98527E-05-2.62869E-06 2.42296E-19 2.48196E-18
 -1      1955 9.94767E-05-2.96581E-05-2.99375E-05-3.11706E-06 3.73369E-19 1.66700E-18
 -1      1956 1.01819E-04-3.06851E-05-3.04893E-05-2.71929E-06 4.62574E-19 2.14958E-18
 -1      1957 1.00933E-04-3.03394E-05-3.02514E-05-2.74480E-06 1.57326E-19 2.20327E-18
 -1      1958 1.00790E-04-3.02986E-05-3.02223E-05-3.37080E-06 2.64867E-19 1.34748E-18
 -1      1959 1.03315E-04-3.13439E-05-3.08569E-05-2.13386E-06 6.00282E-19 2.23791E-18
 -1      1960 1.02535E-04-3.10218E-05-3.06548E-05-2.39706E-06 7.37666E-19 2.30779E-18
 -1      1961 1.02247E-04-3.10175E-05-3.05327E-05-3.04629E-06 6.75494E-19 1.44242E-18
 -1      1962 1.04406E-04-3.19024E-05-3.10921E-05-9.82988E-07 1.91009E-19 1.86595E-18
 -1      1963 1.03911E-04-3.16675E-05-3.09751E-05-1.52179E-06 3.00492E-19 2.14866E-18
 -1      1964 1.03596E-04-3.17452E-05-3.07915E-05-2.07480E-06 4.23017E-19 1.73676E-18
 -1      1965 1.04767E-04-3.22097E-05-3.11171E-05 7.24241E-07-3.27686E-19 2.24299E-18
 -1      1966 1.04733E-04-3.21432E-05-3.11297E-05-9.01870E-08-8.37371E-20 1.98060E-18
 -1      1967 1.04556E-04-3.23531E-05-3.09325E-05-4.15826E-07-4.90022E-21 1.85880E-18
 -1      1968 1.04107E-04-3.20793E-05-3.08853E-05 2.79238E-06 2.43767E-19 2.33849E-18
 -1      1969 1.04673E-04-3.22669E-05-3.10540E-05 1.79483E-06-3.58864E-20 2.26767E-18
 -1      1970 1.04819E-04-3.26408E-05-3.09110E-05 1.82886E-06-6.04173E-20 1.93168E-18
 -1      1971 1.02292E-04-3.13491E-05-3.04081E-05 4.74652E-06 8.34857E-19 2.53823E-18
 -1      1972 1.03486E-04-3.18443E-05-3.07243E-05 3.79629E-06 5.88900E-19 2.49398E-18
 -1      1973 1.04113E-04-3.23671E-05-3.07181E-05 4.28758E-06 4.31226E-19 1.93537E-18
 -1      1974 9.95033E-05-3.00079E-05-2.97748E-05 5.85765E-06 6.59589E-19 1.67229E-18
 -1      1975 1.01164E-04-3.07706E-05-3.01815E-05 5.30724E-06 7.98501E-19 2.23911E-18
 -1      1976 1.02344E-04-3.13583E-05-3.03929E-05 6.25729E-06 1.04240E-18 1.76948E-18
 -1      1977 9.63757E-05-2.83398E-05-2.91443E-05 5.40267E-06 9.44462E-19 9.85271E-19
 -1      1978 9.81199E-05-2.91858E-05-2.95410E-05 5.59430E-06 6.09569E-19 1.36002E-18
 -1      1979 9.97837E-05-2.97015E-05-3.00204E-05 6.83974E-06 9.55787E-19 1.41289E-18
 -1      1980 9.39271E-05-2.69444E-05-2.87004E-05 3.14056E-06 3.59367E-19 4.77161E-19
 -1      1981 9.52191E-05-2.75718E-05-2.89708E-05 4.17386E-06 6.15899E-19 6.67733E-19
 -1      1982 9.71779E-05-2.78871E-05-2.97062E-05 5.36867E-06 9.22836E-19 6.83708E-19
 -1      1983 9.31448E-05-2.64589E-05-2.85859E-05-3.32199E-07 8.29695E-19 3.52048E-21
 -1      1984 9.35112E-05-2.65956E-05-2.86412E-05 1.24871E-06 6.12034E-19 3.40463E-19
 -1      1985 9.55443E-05-2.66783E-05-2.95437E-05 1.97087E-06 8.09089E-19 1.22423E-20
 -1      1986 9.44302E-05-2.71467E-05-2.88475E-05-3.76277E-06 1.26778E-18-8.56866E-19
 -1      1987 9.36997E-05-2.67201E-05-2.86635E-05-2.21353E-06 1.09349E-18-2.05994E-19
 -1      1988 9.56372E-05-2.66771E-05-2.95844E-05-2.25548E-06 1.45311E-18-4.10614E-19
 -1      1989 9.73302E-05-2.86973E-05-2.94186E-05-5.92364E-06 8.20090E-19-1.53590E-18
 -1      1990 9.57358E-05-2.78874E-05-2.90455E-05-4.94650E-06 1.24388E-18-1.09745E-18
 -1      1991 9.74682E-05-2.79013E-05-2.98269E-05-5.74770E-06 1.45559E-18-1.02195E-18
 -1      1992 1.00815E-04-3.04504E-05-3.01476E-05-6.28741E-06-9.61273E-19-1.46291E-18
 -1      1993 9.88649E-05-2.95653E-05-2.96879E-05-6.09609E-06-1.60212E-19-1.66731E-18
 -1      1994 1.00294E-04-2.97709E-05-3.02182E-05-7.36448E-06 1.10429E-19-1.34480E-18
 -1      1995 1.03868E-04-3.18304E-05-3.08548E-05-5.14739E-06-3.72397E-19-1.67133E-18
 -1      1996 1.02087E-04-3.11249E-05-3.04219E-05-5.60358E-06-6.82447E-19-1.56475E-18
 -1      1997 1.03107E-04-3.15180E-05-3.06677E-05-6.93687E-06-4.79899E-19-1.84928E-18
 -1      1998 1.05885E-04-3.25857E-05-3.13942E-05-3.23222E-06 5.36337E-19-2.18523E-18
 -1      1999 1.04619E-04-3.21723E-05-3.10732E-05-4.02226E-06 1.67574E-19-2.10783E-18
 -1      2000 1.05164E-04-3.26380E-05-3.10720E-05-5.09469E-06 3.52634E-19-2.01924E-18
 -1      2001 1.06733E-04-3.27539E-05-3.16901E-05-1.24723E-06 1.19050E-18-2.09467E-18
 -1      2002 1.06097E-04-3.26218E-05-3.15192E-05-2.07370E-06 1.02065E-18-1.91068E-18
 -1      2003 1.06183E-04-3.30271E-05-3.13480E-05-2.72319E-06 9.24695E-19-1.85672E-18
 -1      2004 1.06584E-04-3.25099E-05-3.17378E-05 3.67288E-07 1.54114E-19-1.94294E-18
 -1      2005 1.06519E-04-3.25867E-05-3.17127E-05-3.10626E-07 7.17728E-19-1.89843E-18
 -1      2006 1.06243E-04-3.28499E-05-3.14541E-05-5.25546E-07 7.07140E-19-1.93759E-18
 -1      2007 1.05737E-04-3.20405E-05-3.15816E-05 1.45252E-06-9.34894E-19-1.76652E-18
 -1      2008 1.06095E-04-3.22433E-05-3.16716E-05 9.91117E-07-5.77759E-19-1.96007E-18
 -1      2009 1.05592E-04-3.23483E-05-3.13924E-05 1.13078E-06-4.26276E-19-1.72013E-18
 -1      2010 1.04486E-04-3.14866E-05-3.12868E-05 2.03720E-06-5.01883E-19-1.26079E-18
 -1      2011 1.05104E-04-3.17477E-05-3.14517E-05 1.78254E-06-9.00029E-19-1.74270E-18
 -1      2012 1.04507E-04-3.17233E-05-3.11952E-05 2.16353E-06-7.99133E-19-1.33525E-18
 -1      2013 1.03070E-04-3.09357E-05-3.09178E-05 2.23431E-06-2.01398E-19-3.16329E-19
 -1      2014 1.03809E-04-3.12089E-05-3.11204E-05 2.14123E-06-1.59482E-19-7.69561E-19
 -1      2015 1.03216E-04-3.11004E-05-3.09085E-05 2.65510E-06-4.12331E-19-1.17324E-18
 -1      2016 1.01656E-04-3.04342E-05-3.05270E-05 2.17187E-06-3.88295E-19 1.30265E-18
 -1      2017 1.02412E-04-3.06916E-05-3.07383E-05 2.18827E-06-8.45730E-21 6.29501E-19
 -1      2018 1.01885E-04-3.05420E-05-3.05772E-05 2.74900E-06-3.95375E-19 5.82190E-19
 -1      2019 1.00347E-04-3.00019E-05-3.01509E-05 1.95936E-06-5.02538E-19 9.96666E-19
 -1      2020 1.01056E-04-3.02293E-05-3.03515E-05 2.04018E-06-3.50684E-19 9.64152E-19
 -1      2021 1.00623E-04-3.00704E-05-3.02381E-05 2.58821E-06-2.21429E-19 1.31325E-18
 -1      2022 9.91974E-05-2.96435E-05-2.98113E-05 1.67752E-06-3.83009E-19 8.85752E-19
 -1      2023 9.98235E-05-2.98354E-05-2.99902E-05 1.78921E-06-4.72788E-19 8.85066E-19
 -1      2024 9.94904E-05-2.96871E-05-2.99170E-05 2.28854E-06-3.87373E-19 1.14248E-18
 -1      2025 9.82282E-05-2.93549E-05-2.95188E-05 1.37979E-06-9.45124E-19 1.94352E-18
 -1      2026 9.87570E-05-2.95112E-05-2.96711E-05 1.49990E-06-7.06014E-19 1.08889E-18
 -1      2027 9.85156E-05-2.93837E-05-2.96293E-05 1.93261E-06-6.01426E-19 1.43929E-18
 -1      2028 9.74371E-05-2.91284E-05-2.92762E-05 1.09796E-06-9.58538E-19 2.28488E-18
 -1      2029 9.78680E-05-2.92520E-05-2.94012E-05 1.21293E-06-6.64049E-19 1.70382E-18
 -1      2030 9.77040E-05-2.91487E-05-2.93822E-05 1.57366E-06-6.78743E-19 1.55167E-18
 -1      2031 9.68094E-05-2.89548E-05-2.90811E-05 8.48485E-07 8.99087E-20 1.49977E-18
 -1      2032 9.71500E-05-2.90499E-05-2.91805E-05 9.51119E-07-3.46489E-19 2.01886E-18
 -1      2033 9.70472E-05-2.89702E-05-2.91772E-05 1.24236E-06 1.14150E-19 1.79671E-18
 -1      2034 9.63240E-05-2.88247E-05-2.89284E-05 6.37735E-07 1.31956E-18 1.09738E-18
 -1      2035 9.65860E-05-2.88961E-05-2.90053E-05 7.25064E-07 3.41768E-19 9.92755E-19
 -1      2036 9.65290E-05-2.88372E-05-2.90121E-05 9.53675E-07 5.54438E-19 8.00266E-20
 -1      2037 9.59580E-05-2.87296E-05-2.88121E-05 4.65969E-07 4.81695E-19 1.14547E-18
 -1      2038 9.61542E-05-2.87817E-05-2.88700E-05 5.37619E-07 1.21494E-18 1.92300E-18
 -1      2039 9.61298E-05-2.87401E-05-2.88826E-05 7.12416E-07 9.61891E-19 1.10812E-18
 -1      2040 9.56892E-05-2.86619E-05-2.87257E-05 3.30068E-07 1.80423E-18 6.34378E-19
 -1      2041 9.58321E-05-2.86989E-05-2.87682E-05 3.87130E-07 1.33517E-18 1.18624E-18
 -1      2042 9.58296E-05-2.86709E-05-2.87834E-05 5.17341E-07 1.37397E-18 1.58247E-18
 -1      2043 9.54973E-05-2.86153E-05-2.86634E-05 2.25330E-07 2.23279E-19-3.18663E-19
 -1      2044 9.55982E-05-2.86406E-05-2.86936E-05 2.69608E-07 1.01883E-18-1.54299E-19
 -1      2045 9.56095E-05-2.86229E-05-2.87095E-05 3.63965E-07 1.98090E-18 1.50057E-18
 -1      2046 9.53650E-05-2.85845E-05-2.86199E-05 1.46580E-07-1.12709E-18-3.58628E-19
 -1      2047 9.54335E-05-2.86010E-05-2.86406E-05 1.80120E-07-2.64008E-19-8.17192E-19
 -1      2048 9.54525E-05-2.85909E-05-2.86558E-05 2.46384E-07-4.64259E-20 1.27141E-18
 -1      2049 9.52776E-05-2.85653E-05-2.85906E-05 8.88070E-08 1.16224E-19 2.96394E-19
 -1      2050 9.53219E-05-2.85754E-05-2.86042E-05 1.13623E-07-6.39021E-19-2.61826E-19
 -1      2051 9.53443E-05-2.85705E-05-2.86181E-05 1.58396E-07-9.79874E-19 7.12014E-19
 -1      2052 9.52234E-05-2.85545E-05-2.85721E-05 4.75107E-08-2.70452E-19-2.75894E-19
 -1      2053 9.52500E-05-2.85600E-05-2.85804E-05 6.54333E-08 3.64034E-19-3.41397E-19
 -1      2054 9.52730E-05-2.85586E-05-2.85925E-05 9.41427E-08 3.04168E-19 3.25333E-20
 -1      2055 9.51932E-05-2.85495E-05-2.85613E-05 1.88439E-08-3.16729E-19 4.06831E-19
 -1      2056 9.52072E-05-2.85518E-05-2.85658E-05 3.14511E-08-1.00527E-19 7.62166E-20
 -1      2057 9.52288E-05-2.85526E-05-2.85760E-05 4.84380E-08-4.63246E-19 4.13165E-19
 -1      2058 9.51798E-05-2.85485E-05-2.85560E-05-3.50539E-10 9.80286E-20-1.48214E-18
 -1      2059 9.51850E-05-2.85486E-05-2.85579E-05 8.24550E-09-1.12256E-19-3.00872E-19
 -1      2060 9.52042E-05-2.85506E-05-2.85662E-05 1.68981E-08 4.99685E-19 6.68277E-20
 -1      2061 9.51778E-05-2.85500E-05-2.85545E-05-1.25667E-08 2.99247E-19-1.18203E-18
 -1      2062 9.51771E-05-2.85488E-05-2.85546E-05-6.94605E-09 4.01747E-19-1.49281E-18
 -1      2063 9.51933E-05-2.85513E-05-2.85612E-05-4.03758E-09 2.66073E-19 9.80846E-19
 -1      2064 9.51831E-05-2.85532E-05-2.85555E-05-1.96866E-08 4.89053E-19-9.49402E-19
 -1      2065 9.51788E-05-2.85512E-05-2.85545E-05-1.62583E-08 1.90202E-19-8.29323E-19
 -1      2066 9.51918E-05-2.85537E-05-2.85594E-05-1.71472E-08 4.92689E-19-2.09364E-19
 -1      2067 9.51926E-05-2.85573E-05-2.85579E-05-2.30355E-08-4.10525E-19-1.22686E-18
 -1      2068 9.51863E-05-2.85548E-05-2.85562E-05-2.12523E-08 1.94435E-19-4.32537E-19
 -1      2069 9.51961E-05-2.85571E-05-2.85597E-05-2.44898E-08 3.29608E-19-1.82596E-19
 -1      2070 9.52042E-05-2.85617E-05-2.85610E-05-2.34227E-08-1.19151E-19 1.22037E-19
 -1      2071 9.51970E-05-2.85591E-05-2.85590E-05-2.29651E-08-1.06755E-18-3.02441E-19
 -1      2072 9.52039E-05-2.85611E-05-2.85613E-05-2.74720E-08-1.25529E-18 1.26671E-18
 -1      2073 9.52159E-05-2.85663E-05-2.85641E-05-2.11797E-08 1.47437E-18 9.66584E-19
 -1      2074 9.52089E-05-2.85637E-05-2.85622E-05-2.19495E-08 1.26815E-18 8.56051E-19
 -1      2075 9.52132E-05-2.85653E-05-2.85634E-05-2.68925E-08 7.92465E-19 1.06894E-18
 -1      2076 9.52262E-05-2.85706E-05-2.85667E-05-1.62125E-08 2.24564E-19 1.06668E-18
 -1      2077 9.52203E-05-2.85682E-05-2.85652E-05-1.83725E-08 1.02104E-18 1.63837E-18
 -1      2078 9.52226E-05-2.85697E-05-2.85655E-05-2.31149E-08 1.00239E-18 2.69342E-18
 -1      2079 9.52331E-05-2.85738E-05-2.85683E-05-1.05793E-08 3.26365E-19 6.75960E-19
 -1      2080 9.52287E-05-2.85719E-05-2.85672E-05-1.40286E-08 5.10386E-19 4.72216E-19
 -1      2081 9.52298E-05-2.85734E-05-2.85670E-05-1.79852E-08 9.91846E-19 4.86507E-18
 -1      2082 9.52347E-05-2.85764E-05-2.85678E-05-1.28331E-08 3.73699E-19 4.48458E-18
 -1      2083 9.52474E-05-2.86017E-05-2.85624E-05-2.10600E-08-2.00075E-18-3.72080E-18
 -1      2084 9.52450E-05-2.85963E-05-2.85638E-05-2.16237E-08-1.89568E-18-7.05310E-19
 -1      2085 9.52429E-05-2.85925E-05-2.85645E-05-2.16141E-08-2.45526E-19-2.48162E-19
 -1      2086 9.52403E-05-2.85870E-05-2.85657E-05-2.06117E-08 9.65658E-19 1.32506E-18
 -1      2087 9.52428E-05-2.85907E-05-2.85652E-05-2.66133E-08-1.51690E-18-1.93572E-18
 -1      2088 9.52387E-05-2.85842E-05-2.85662E-05-1.87288E-08 1.22542E-18 3.60971E-18
 -1      2089 9.52362E-05-2.85794E-05-2.85673E-05-1.59594E-08 5.62119E-19 4.95798E-18
 -1      2090 9.52342E-05-2.85781E-05-2.85670E-05-1.89783E-08 1.26788E-18 4.86638E-18
 -1      2091 9.52383E-05-2.85841E-05-2.85661E-05-2.44612E-08 2.04555E-19 2.29035E-18
 -1      2092 9.52508E-05-2.86096E-05-2.85605E-05-1.80672E-08-3.74457E-18-7.92622E-18
 -1      2093 9.52490E-05-2.86049E-05-2.85617E-05-1.96231E-08-2.83377E-18-4.76444E-18
 -1      2094 9.52473E-05-2.85979E-05-2.85640E-05-2.49423E-08-2.71409E-18-5.49150E-18
 -1      2095 9.52534E-05-2.86159E-05-2.85589E-05-1.34269E-08-2.71666E-18-3.41346E-18
 -1      2096 9.52520E-05-2.86122E-05-2.85598E-05-1.56370E-08-3.01864E-18-5.64196E-18
 -1      2097 9.52505E-05-2.86039E-05-2.85629E-05-2.06433E-08-1.74928E-18-6.34979E-18
 -1      2098 9.52550E-05-2.86200E-05-2.85577E-05-7.85575E-09-1.85303E-18 1.72481E-18
 -1      2099 9.52541E-05-2.86177E-05-2.85584E-05-1.04142E-08-1.67532E-18-8.94643E-19
 -1      2100 9.52527E-05-2.86084E-05-2.85619E-05-1.46050E-08-4.07053E-19-2.24818E-18
 -1      2101 9.52556E-05-2.86218E-05-2.85573E-05-1.82805E-09-2.50022E-18 1.74606E-18
 -1      2102 9.52553E-05-2.86209E-05-2.85575E-05-4.54400E-09-2.43079E-18 1.52616E-18
 -1      2103 9.52540E-05-2.86111E-05-2.85613E-05-7.60136E-09 2.67703E-19 8.44328E-19
 -1      2104 9.52554E-05-2.86210E-05-2.85575E-05 4.31970E-09-2.23427E-18-1.23374E-18
 -1      2105 9.52556E-05-2.86218E-05-2.85573E-05 1.58782E-09-2.22500E-18 9.42185E-19
 -1      2106 9.52545E-05-2.86121E-05-2.85611E-05-1.55992E-10-1.42970E-18 1.88389E-18
 -1      2107 9.52542E-05-2.86179E-05-2.85583E-05 1.02728E-08-4.07592E-18-7.32489E-19
 -1      2108 9.52550E-05-2.86202E-05-2.85577E-05 7.67187E-09-3.20127E-18-8.98960E-19
 -1      2109 9.52541E-05-2.86113E-05-2.85613E-05 7.33539E-09-1.98344E-18-1.81384E-18
 -1      2110 9.52522E-05-2.86126E-05-2.85597E-05 1.55373E-08-3.02724E-18 1.05760E-18
 -1      2111 9.52535E-05-2.86162E-05-2.85588E-05 1.33069E-08-3.90471E-18-1.60682E-19
 -1      2112 9.52529E-05-2.86086E-05-2.85619E-05 1.44067E-08-2.97307E-18-3.82012E-19
 -1      2113 9.52491E-05-2.86052E-05-2.85616E-05 1.96995E-08-1.71234E-18 3.01704E-18
 -1      2114 9.52511E-05-2.86100E-05-2.85604E-05 1.80603E-08-2.87447E-18 3.05468E-18
 -1      2115 9.52508E-05-2.86043E-05-2.85628E-05 2.05687E-08-1.86090E-18 1.76137E-18
 -1      2116 9.52451E-05-2.85964E-05-2.85637E-05 2.18079E-08 2.49374E-19 2.15467E-18
 -1      2117 9.52475E-05-2.86019E-05-2.85624E-05 2.12233E-08-9.97976E-19 2.31776E-18
 -1      2118 9.52474E-05-2.85983E-05-2.85640E-05 2.50889E-08-2.32832E-20 3.62563E-18
 -1      2119 9.52401E-05-2.85870E-05-2.85657E-05 2.10093E-08 5.44549E-19 3.13390E-19
 -1      2120 9.52431E-05-2.85926E-05-2.85644E-05 2.18256E-08 6.71468E-20 6.14982E-19
 -1      2121 9.52429E-05-2.85909E-05-2.85651E-05 2.68340E-08-3.75110E-19 7.43838E-19
 -1      2122 5.47404E-05-3.83003E-05-7.69067E-06 3.94816E-05 5.01486E-18 3.27511E-18
 -1      2123 4.09707E-05-4.04622E-05-1.59557E-06 3.28238E-05 3.74050E-18 4.18540E-18
 -1      2124 1.20129E-05-3.30823E-05 7.83931E-06 6.83803E-06 2.19996E-18 6.26550E-18
 -1      2125 1.23628E-05-3.49474E-05 8.25838E-06-2.55174E-06 9.59900E-19 4.31224E-18
 -1      2126 2.72237E-05-3.42077E-05 2.17878E-06 2.80629E-05 2.97054E-18 5.42292E-18
 -1      2127 1.89258E-05-3.49216E-05 5.60953E-06 1.87252E-05 1.52508E-18 6.46117E-18
 -1      2128 9.31493E-05-4.23035E-05-2.17846E-05 4.36464E-05 4.58880E-18 2.75963E-18
 -1      2129 7.42538E-05-4.38150E-05-1.41193E-05 3.90826E-05 4.61633E-18 2.32002E-18
 -1      2130 1.29763E-04-4.01818E-05-3.78463E-05 3.83121E-05 4.98860E-18 3.04551E-18
 -1      2131 1.09723E-04-4.21847E-05-2.95487E-05 3.65408E-05 4.62649E-18 3.44658E-18
 -1      2132 8.71555E-05-8.09943E-06-3.39823E-05-7.75939E-06-1.82435E-18-3.09625E-18
 -1      2133 8.84325E-05-8.85848E-06-3.41762E-05-9.22301E-06-2.17133E-18-2.62379E-18
 -1      2134 9.11668E-05-1.26879E-05-3.36822E-05-8.80398E-06-2.37526E-18-2.19951E-18
 -1      2135 8.80864E-05-9.94423E-06-3.35070E-05-6.56464E-06-1.80924E-18-3.02658E-18
 -1      2136 1.73525E-04-2.78345E-05-6.13755E-05 9.35927E-06 6.17826E-18-3.60561E-18
 -1      2137 1.61519E-04-2.89609E-05-5.65598E-05 1.32249E-05 6.26953E-18-2.26920E-18
 -1      2138 1.83305E-04-2.43093E-05-6.68290E-05 5.77874E-07 6.22019E-18-3.96165E-18
 -1      2139 1.79046E-04-2.44165E-05-6.53053E-05 8.24958E-06 6.07873E-18-2.82951E-18
 -1      2140 1.74399E-04-2.35654E-05-6.39244E-05-8.96385E-06 6.38366E-18-4.88484E-18
 -1      2141 1.82002E-04-2.41924E-05-6.62630E-05-2.66382E-06 6.54672E-18-3.67946E-18
 -1      2142 1.58597E-04-3.20021E-05-5.40509E-05-1.74561E-05 6.11060E-18-5.95718E-18
 -1      2143 1.70007E-04-2.93653E-05-5.94138E-05-1.14636E-05 5.85024E-18-5.11438E-18
 -1      2144 1.37113E-04-3.99600E-05-4.17566E-05-2.72313E-05 6.11526E-18-6.35529E-18
 -1      2145 1.55167E-04-3.81084E-05-4.93620E-05-2.57122E-05 6.10457E-18-6.07407E-18
 -1      2146 1.52699E-04-3.67661E-05-4.89995E-05-5.06295E-06 4.30737E-18-2.53263E-18
 -1      2147 1.00399E-04-4.40748E-05-2.48781E-05-3.83863E-05 6.11770E-18-7.05706E-18
 -1      2148 1.21306E-04-4.35779E-05-3.30882E-05-3.93944E-05 5.91991E-18-7.19639E-18
 -1      2149 6.70162E-05-4.42385E-05-1.07747E-05-3.90710E-05 4.00011E-18-6.86907E-18
 -1      2150 8.43792E-05-4.17684E-05-1.83541E-05-4.38224E-05 6.03680E-18-7.60297E-18
 -1      2151 1.05828E-04-5.31477E-05-2.24974E-05-3.92916E-05 2.43522E-18-4.97907E-18
 -1      2152 3.33713E-05-3.94908E-05 1.29079E-06-2.92545E-05 2.14892E-18-7.69191E-18
 -1      2153 4.69257E-05-3.75725E-05-4.43750E-06-3.88642E-05 3.22211E-18-7.45262E-18
 -1      2154 1.42916E-05-3.70855E-05 8.12574E-06-1.13891E-05 6.63227E-19-7.03080E-18
 -1      2155 1.95608E-05-3.56307E-05 5.63185E-06-2.03005E-05 2.98537E-18-7.76136E-18
 -1      2156 1.40122E-05-3.45596E-05 7.54342E-06 8.97223E-06-1.77369E-18-7.01767E-18
 -1      2157 1.22272E-05-3.50494E-05 8.35646E-06-2.36571E-07 3.29866E-19-6.93974E-18
 -1      2158 3.11957E-05-3.66770E-05 1.46608E-06 2.79976E-05-3.09125E-18-6.66721E-18
 -1      2159 2.23070E-05-3.77247E-05 5.18612E-06 1.95468E-05-1.43043E-18-6.49081E-18
 -1      2160 6.11049E-05-4.12290E-05-9.06900E-06 3.92601E-05-4.65021E-18-6.04167E-18
 -1      2161 4.60079E-05-4.30741E-05-2.75835E-06 3.21947E-05-3.55711E-18-5.96375E-18
 -1      2162 1.01831E-04-4.64768E-05-2.37619E-05 4.15097E-05-4.62226E-18-4.57567E-18
 -1      2163 8.12439E-05-4.73785E-05-1.56859E-05 3.74224E-05-4.12209E-18-5.31111E-18
 -1      2164 1.40229E-04-4.57194E-05-3.98163E-05 3.25923E-05-5.93728E-18-3.16790E-18
 -1      2165 1.20445E-04-4.80201E-05-3.16588E-05 3.18847E-05-5.36045E-18-3.49147E-18
 -1      2166 1.67288E-04-3.85527E-05-5.39189E-05 2.45580E-05-6.62234E-18-2.00408E-18
 -1      2167 1.48891E-04-3.90801E-05-4.69523E-05 2.71913E-05-6.77880E-18-3.41185E-18
 -1      2168 1.79864E-04-3.05054E-05-6.30433E-05 8.26024E-06-7.18877E-18 4.13352E-19
 -1      2169 1.73203E-04-3.33416E-05-5.88383E-05 1.68119E-05-7.05473E-18-1.50348E-18
 -1      2170 1.84077E-04-2.47654E-05-6.69800E-05 9.22639E-08-7.68894E-18 1.97826E-18
 -1      2171 1.78022E-04-2.34747E-05-6.53705E-05 4.15041E-06-7.82531E-18 1.18796E-19
 -1      2172 1.77978E-04-2.58802E-05-6.43420E-05-5.87586E-06-6.99565E-18 3.74812E-18
 -1      2173 1.85186E-04-2.61910E-05-6.68906E-05-1.15475E-06-7.09009E-18 2.32722E-18
 -1      2174 1.61816E-04-1.44849E-05-6.19800E-05 1.21323E-06-8.04724E-18 3.94982E-19
 -1      2175 1.64294E-04-3.57558E-05-5.46645E-05-1.49292E-05-6.22707E-18 4.99622E-18
 -1      2176 1.75690E-04-3.33171E-05-6.00602E-05-9.36100E-06-6.43576E-18 3.63589E-18
 -1      2177 1.38784E-04-4.23543E-05-4.15363E-05-2.83077E-05-6.09123E-18 6.76313E-18
 -1      2178 1.57986E-04-4.18981E-05-4.90220E-05-2.51398E-05-5.90583E-18 6.46286E-18
 -1      2179 1.06386E-04-4.68729E-05-2.63458E-05-3.48009E-05-2.84942E-18 7.93162E-18
 -1      2180 1.26821E-04-4.56262E-05-3.44299E-05-3.64602E-05-4.64301E-18 7.16293E-18
 -1      2181 6.87292E-05-4.51518E-05-1.14496E-05-3.58061E-05-1.73430E-18 8.32358E-18
 -1      2182 8.70502E-05-4.33131E-05-1.89911E-05-4.12550E-05-2.71093E-18 9.34870E-18
 -1      2183 3.88482E-05-4.09757E-05-3.79892E-07-2.98069E-05-6.92026E-19 5.87820E-18
 -1      2184 5.20404E-05-4.04641E-05-5.74109E-06-3.60869E-05-2.01043E-18 7.91407E-18
 -1      2185 1.61092E-05-3.68581E-05 7.29231E-06-1.16255E-05 8.55927E-19 3.88576E-18
 -1      2186 2.23044E-05-3.43419E-05 4.10754E-06-2.14560E-05-9.02514E-19 4.90559E-18
 -1      2187 1.58764E-05-2.54160E-05 3.39892E-06-9.56599E-06 7.45389E-20 5.55315E-18
 -1      2188 1.57401E-04-3.70206E-05-5.10366E-05 2.28202E-05 5.52322E-18-1.17865E-18
 -1      2189 1.41008E-04-3.79780E-05-4.41639E-05 2.83254E-05 5.52287E-18 1.17356E-18
 -1      2190 1.13866E-04-5.27577E-05-2.60632E-05 3.58841E-05 2.06020E-18 6.45227E-19
 -1      2191 1.00121E-04-2.51693E-05-3.21820E-05-7.63133E-06-2.41868E-18 1.82236E-18
 -1      2192 1.41132E-04-4.76598E-05-3.94388E-05 2.05858E-05 3.68777E-18-1.15832E-18
 -1      2193 1.53546E-04-3.38338E-05-5.06243E-05 4.22921E-06 5.16891E-18-4.15936E-18
 -1      2194 9.90752E-05-2.37715E-05-3.23495E-05-7.40105E-06-2.58507E-18 4.74709E-19
 -1      2195 4.12893E-05-3.51868E-05-3.10276E-06 3.63139E-05 2.60039E-19 4.44862E-18
 -1      2196 1.84921E-05-2.51561E-05 2.35945E-06 1.61736E-05 1.50031E-19 6.55815E-18
 -1      2197 9.52380E-05-2.85831E-05-2.85664E-05 2.08355E-08 8.21232E-19 1.10890E-18
 -1      2198 7.67401E-05-4.69161E-05-1.29905E-05 4.35679E-05 1.40989E-18 1.20852E-18
 -1      2199 3.67382E-05-3.47522E-05-1.36249E-06-3.08447E-05-1.08420E-19 5.97899E-18
 -1      2200 7.27018E-05-4.74415E-05-1.12171E-05-4.05895E-05 4.15046E-19 7.42790E-18
 -1      2201 1.10618E-04-5.55827E-05-2.35651E-05-3.54845E-05 1.00797E-19 6.71676E-18
 -1      2202 1.41044E-04-5.38430E-05-3.69341E-05-2.04736E-05-2.38440E-18 4.11023E-18
 -1      2203 1.63125E-04-2.48112E-05-5.83226E-05 3.94676E-06-6.53952E-18 6.05205E-19
 -1      2204 1.64588E-04-2.13985E-05-6.03669E-05-8.82088E-07-7.95364E-18 8.69479E-19
 -1      2205 1.63218E-04-3.61769E-05-5.32455E-05 4.83258E-06-6.24210E-18 7.98752E-19
 -1      2206 1.49255E-04-5.07162E-05-4.17630E-05 1.46870E-05-4.39409E-18 1.32984E-19
 -1      2207 1.24190E-04-5.83874E-05-2.80318E-05 3.07179E-05-2.05617E-18-1.60386E-18
 -1      2208 8.48480E-05-5.11721E-05-1.45689E-05 4.17772E-05-9.80441E-19-3.74950E-18
 -1      2209 4.74461E-05-3.85173E-05-4.30566E-06 3.67396E-05-1.75336E-19-5.95422E-18
 -1      2210 2.18959E-05-2.73773E-05 1.79295E-06 1.88878E-05 1.12232E-19-7.33022E-18
 -1      2211 1.50271E-05-2.57120E-05 3.82251E-06-7.26396E-06 3.41831E-19-8.24798E-18
 -1      2212 6.77560E-05-4.47326E-05-1.01655E-05-4.31383E-05 5.58618E-19-6.28107E-18
 -1      2213 1.37576E-04-5.06674E-05-3.68415E-05-2.33161E-05 3.65834E-18-3.86078E-18
 -1      2214 1.57614E-04-2.11208E-05-5.76595E-05 9.04795E-07 5.94448E-18-2.53369E-18
 -1      2215 1.58284E-04-1.84241E-05-5.91535E-05-1.80461E-06 6.20282E-18-3.62784E-18
 -1      2216 1.62569E-04-1.40254E-05-6.24532E-05-2.13217E-08 6.59161E-18-2.67686E-18
 -1      2217 3.18290E-05-3.13576E-05-6.06252E-07-3.16652E-05 5.41678E-19-7.91256E-18
 -1      2218 1.58001E-04-4.17887E-05-4.90391E-05-5.33406E-06-4.81390E-18 2.13495E-18
 -1      2219 9.86128E-05-2.72340E-05-3.05697E-05 1.55225E-06 1.95667E-18 1.60433E-18
 -1      2220 9.91384E-05-2.66239E-05-3.10042E-05 3.46664E-06 2.15490E-18 1.91211E-18
 -1      2221 8.47010E-05-8.30347E-06-3.27801E-05-2.22486E-06-5.11634E-19-3.44321E-18
 -1      2222 8.53358E-05-8.76247E-06-3.28455E-05-2.93440E-06-8.55054E-19-3.43191E-18
 -1      2223 8.62198E-05-9.56654E-06-3.28999E-05-3.48119E-06-1.06558E-18-3.32470E-18
 -1      2224 8.72253E-05-1.03397E-05-3.29851E-05-4.31136E-06-1.44267E-18-3.17479E-18
 -1      2225 8.67444E-05-1.08320E-05-3.25238E-05-2.63606E-06-8.97281E-19-3.10023E-18
 -1      2226 8.39607E-05-7.72173E-06-3.26991E-05 1.08208E-08 6.01746E-19-3.35154E-18
 -1      2227 8.38686E-05-7.64898E-06-3.26961E-05-6.41498E-07 2.88529E-19-3.36815E-18
 -1      2228 8.46752E-05-8.30962E-06-3.27516E-05 1.23714E-06 1.08261E-18-3.37335E-18
 -1      2229 8.42511E-05-7.99855E-06-3.27146E-05 5.19873E-07 7.93740E-19-3.39384E-18
 -1      2230 8.49837E-05-9.39283E-06-3.23912E-05 7.20503E-08 6.83738E-19-3.18709E-18
 -1      2231 8.60053E-05-9.41634E-06-3.28497E-05 2.64571E-06 1.54698E-18-3.05072E-18
 -1      2232 8.52951E-05-8.88524E-06-3.27881E-05 1.83105E-06 1.27539E-18-3.28835E-18
 -1      2233 8.59457E-05-1.02419E-05-3.24407E-05 1.11745E-06 1.15035E-18-3.13410E-18
 -1      2234 8.79441E-05-1.10946E-05-3.29701E-05 4.33184E-06 2.14471E-18-2.41178E-18
 -1      2235 8.69419E-05-1.03008E-05-3.28950E-05 3.36625E-06 1.77526E-18-2.73677E-18
 -1      2236 8.75639E-05-1.16833E-05-3.25167E-05 2.36849E-06 1.64639E-18-2.67118E-18
 -1      2237 9.04733E-05-1.34413E-05-3.30680E-05 6.23613E-06 2.62102E-18-1.76998E-18
 -1      2238 8.91772E-05-1.23102E-05-3.30016E-05 5.14696E-06 2.26517E-18-2.13036E-18
 -1      2239 8.97912E-05-1.37477E-05-3.25829E-05 3.82125E-06 2.07134E-18-2.07198E-18
 -1      2240 9.36722E-05-1.67100E-05-3.30756E-05 8.13523E-06 2.91537E-18-8.61988E-19
 -1      2241 9.20218E-05-1.50688E-05-3.30462E-05 7.03454E-06 2.67655E-18-1.42893E-18
 -1      2242 9.25664E-05-1.65128E-05-3.25756E-05 5.31065E-06 2.45191E-18-1.39261E-18
 -1      2243 9.84835E-05-2.81901E-05-3.01027E-05-1.17052E-06 1.29496E-18 1.29250E-18
 -1      2244 9.85575E-05-2.78160E-05-3.02459E-05-6.65517E-08 1.66443E-18 1.56874E-18
 -1      2245 9.83230E-05-2.64945E-05-3.07993E-05 1.16721E-06 1.93676E-18 6.73064E-19
 -1      2246 9.86642E-05-2.53654E-05-3.13656E-05-2.49328E-06-2.01562E-18-2.09290E-19
 -1      2247 9.84645E-05-2.61314E-05-3.09950E-05-2.39668E-07-1.79182E-18-3.34762E-19
 -1      2248 1.42764E-04-4.94843E-05-4.04489E-05 1.03404E-05 2.84592E-18-4.20128E-18
 -1      2249 1.35222E-04-5.37624E-05-3.49849E-05 1.78408E-05 1.78322E-18-2.28889E-18
 -1      2250 9.85662E-05-2.67587E-05-3.07200E-05 1.56177E-06-1.58756E-18-2.38695E-19
 -1      2251 9.86876E-05-2.71996E-05-3.06173E-05 3.07865E-06-1.44425E-18-2.85757E-19
 -1      2252 9.76751E-05-2.50732E-05-3.11283E-05 4.46492E-07-1.77193E-18-9.29389E-19
 -1      2253 9.87886E-05-2.75204E-05-3.05080E-05 4.49852E-06-1.24577E-18-9.00150E-20
 -1      2254 9.92662E-05-2.78878E-05-3.05677E-05 5.64178E-06-7.62948E-19-2.97857E-19
 -1      2255 9.78851E-05-2.62790E-05-3.07060E-05 3.89538E-06-1.26535E-18-6.89328E-19
 -1      2256 9.95128E-05-2.81428E-05-3.05658E-05 6.79870E-06-5.28722E-19-3.13735E-19
 -1      2257 1.00316E-04-2.85654E-05-3.07289E-05 7.70193E-06-4.45672E-19-3.32863E-19
 -1      2258 9.82690E-05-2.70381E-05-3.05456E-05 6.64536E-06-7.67200E-19-6.42503E-19
 -1      2259 1.00774E-04-2.88963E-05-3.07897E-05 8.65345E-06-4.09999E-19-3.79333E-19
 -1      2260 1.01877E-04-2.94793E-05-3.10126E-05 9.32176E-06-3.25650E-19-3.83451E-19
 -1      2261 9.90014E-05-2.77718E-05-3.05454E-05 8.89349E-06-5.39660E-19-6.58314E-19
 -1      2262 1.02634E-04-3.00290E-05-3.11002E-05 1.00353E-05-3.67294E-19-2.82874E-19
 -1      2263 1.04033E-04-3.08922E-05-3.13443E-05 1.03611E-05-2.29210E-19-3.28626E-19
 -1      2264 1.00231E-04-2.88276E-05-3.06246E-05 1.06824E-05-3.84348E-19-5.86277E-19
 -1      2265 1.05243E-04-3.18373E-05-3.14329E-05 1.06942E-05 3.11260E-20-3.67456E-19
 -1      2266 1.06944E-04-3.31089E-05-3.16643E-05 1.04550E-05 8.82899E-20-3.32967E-19
 -1      2267 1.02196E-04-3.05943E-05-3.07223E-05 1.18628E-05-1.78036E-19-6.91223E-19
 -1      2268 1.08833E-04-3.46341E-05-3.17532E-05 1.01241E-05-8.86903E-21-1.58207E-19
 -1      2269 1.10806E-04-3.63691E-05-3.19553E-05 9.00102E-06 6.28359E-20-5.08005E-20
 -1      2270 1.05276E-04-3.35090E-05-3.08159E-05 1.20460E-05 8.38273E-20-4.04693E-19
 -1      2271 1.13582E-04-3.85254E-05-3.20980E-05 7.56970E-06 4.21894E-19 3.22683E-19
 -1      2272 1.15640E-04-4.04934E-05-3.22991E-05 5.25682E-06 6.21127E-19 6.54158E-19
 -1      2273 1.09926E-04-3.78651E-05-3.09705E-05 1.05483E-05 4.35077E-19-6.32131E-21
 -1      2274 1.19216E-04-4.28686E-05-3.26499E-05 2.23157E-06 7.54802E-19 1.08393E-18
 -1      2275 1.20797E-04-4.41886E-05-3.29569E-05-1.26206E-06 5.95312E-19 1.45266E-18
 -1      2276 1.16338E-04-4.32671E-05-3.14236E-05 6.41801E-06 8.08900E-19 7.20066E-19
 -1      2277 1.24265E-04-4.54384E-05-3.37893E-05-5.91901E-06 4.56212E-19 2.06552E-18
 -1      2278 1.24439E-04-4.44420E-05-3.43671E-05-9.70482E-06 2.12810E-19 2.39394E-18
 -1      2279 1.23617E-04-4.76256E-05-3.26748E-05-1.10242E-06 8.48290E-19 2.04296E-18
 -1      2280 1.25728E-04-4.24322E-05-3.59001E-05-1.41245E-05-2.38976E-19 2.17211E-18
 -1      2281 1.23954E-04-3.80782E-05-3.68189E-05-1.58093E-05-1.07973E-18 1.87530E-18
 -1      2282 1.28609E-04-4.62630E-05-3.53743E-05-1.09491E-05-1.53538E-19 2.67804E-18
 -1      2283 1.22131E-04-3.25557E-05-3.88034E-05-1.64339E-05-2.37135E-18 1.34535E-18
 -1      2284 1.19261E-04-2.67088E-05-3.97583E-05-1.35919E-05-3.47326E-18 7.37925E-19
 -1      2285 1.28495E-04-3.71616E-05-3.92792E-05-1.71286E-05-2.05093E-18 1.88555E-18
 -1      2286 1.16887E-04-2.18978E-05-4.11047E-05-7.40346E-06-4.20986E-18-2.85268E-19
 -1      2287 1.16029E-04-2.00665E-05-4.13876E-05-7.30254E-07-4.28694E-18-1.25215E-18
 -1      2288 1.23627E-04-2.28165E-05-4.35019E-05-1.19057E-05-4.48896E-18-2.60939E-19
 -1      2289 1.16745E-04-2.14775E-05-4.10142E-05 7.68305E-06-3.63885E-18-2.41271E-18
 -1      2290 1.18947E-04-2.55906E-05-4.04180E-05 1.32789E-05-2.85620E-18-2.78712E-18
 -1      2291 1.21809E-04-1.82936E-05-4.47463E-05 3.85295E-06-4.85943E-18-1.94955E-18
 -1      2292 1.21684E-04-3.15237E-05-3.86798E-05 1.66329E-05-1.77565E-18-3.53953E-18
 -1      2293 1.24440E-04-3.72911E-05-3.77068E-05 1.74585E-05-1.08312E-18-3.42528E-18
 -1      2294 1.26069E-04-2.85485E-05-4.20138E-05 1.64488E-05-2.81766E-18-4.02828E-18
 -1      2295 1.25151E-04-4.16706E-05-3.58276E-05 1.48954E-05-6.13053E-19-3.11013E-18
 -1      2296 1.26268E-04-4.47009E-05-3.50637E-05 1.19566E-05 5.89239E-19-2.93829E-18
 -1      2297 1.29386E-04-4.17125E-05-3.77466E-05 1.65793E-05-6.17328E-19-3.83195E-18
 -1      2298 1.23861E-04-4.51296E-05-3.38510E-05 7.05962E-06 1.46853E-18-2.54104E-18
 -1      2299 1.23064E-04-4.49750E-05-3.34365E-05 3.19485E-06 2.13262E-18-2.33330E-18
 -1      2300 1.27529E-04-4.79504E-05-3.41509E-05 7.70115E-06 1.41948E-18-2.96294E-18
 -1      2301 1.19458E-04-4.30339E-05-3.28615E-05-8.00182E-07 2.02871E-18-1.49989E-18
 -1      2302 1.17666E-04-4.13230E-05-3.26474E-05-3.84962E-06 1.47208E-18-1.59419E-18
 -1      2303 1.21104E-04-4.61898E-05-3.21765E-05-1.41829E-06 2.46992E-18-2.05589E-18
 -1      2304 1.14420E-04-3.89403E-05-3.24241E-05-6.13635E-06 9.80355E-19-1.06508E-18
 -1      2305 1.12455E-04-3.70488E-05-3.22581E-05-7.92194E-06 1.47073E-18-4.75333E-19
 -1      2306 1.14059E-04-4.10579E-05-3.13653E-05-7.46484E-06 1.96692E-18-1.01435E-18
 -1      2307 1.10088E-04-3.51501E-05-3.21567E-05-8.82834E-06 1.12267E-18-6.52338E-19
 -1      2308 1.08313E-04-3.36480E-05-3.19636E-05-9.54298E-06 5.38867E-19-5.60731E-19
 -1      2309 1.08421E-04-3.60080E-05-3.10970E-05-1.03525E-05 1.02825E-18-2.79957E-19
 -1      2310 1.06745E-04-3.24099E-05-3.18706E-05-9.57684E-06-1.23640E-19-8.91360E-19
 -1      2311 1.05249E-04-3.13834E-05-3.16385E-05-9.58172E-06-3.31689E-19-1.00826E-18
 -1      2312 1.04515E-04-3.23253E-05-3.09772E-05-1.10750E-05 1.68285E-19-1.34103E-18
 -1      2313 1.04231E-04-3.06738E-05-3.15195E-05-9.15223E-06-3.24085E-19-1.10956E-18
 -1      2314 1.02993E-04-3.00227E-05-3.12653E-05-8.76562E-06-1.80091E-19-1.34693E-18
 -1      2315 1.01964E-04-3.00602E-05-3.08373E-05-1.05428E-05-4.23278E-19-1.92162E-18
 -1      2316 1.02309E-04-2.96568E-05-3.11221E-05-8.13404E-06-1.21324E-19-1.79911E-18
 -1      2317 1.01288E-04-2.92574E-05-3.08679E-05-7.57794E-06-1.75604E-19-1.42324E-18
 -1      2318 1.00288E-04-2.88279E-05-3.06370E-05-9.39249E-06-1.77847E-19-1.59127E-18
 -1      2319 1.00798E-04-2.90899E-05-3.07138E-05-6.89688E-06-1.42914E-19-1.26366E-18
 -1      2320 9.99602E-05-2.88468E-05-3.04769E-05-6.30573E-06 7.54513E-20-9.70366E-19
 -1      2321 9.91325E-05-2.82386E-05-3.03895E-05-8.01260E-06-1.35285E-21-2.19873E-18
 -1      2322 9.95865E-05-2.87839E-05-3.03250E-05-5.65726E-06 2.10405E-19-1.66182E-18
 -1      2323 9.89027E-05-2.86348E-05-3.01152E-05-5.10266E-06 2.24186E-19-1.85474E-18
 -1      2324 9.82838E-05-2.80098E-05-3.01219E-05-6.62569E-06-2.23941E-19-1.79299E-18
 -1      2325 9.86049E-05-2.86226E-05-2.99747E-05-4.52556E-06 2.26413E-19-1.77630E-18
 -1      2326 9.80530E-05-2.85298E-05-2.97961E-05-4.03949E-06 1.23809E-19-2.15103E-18
 -1      2327 9.76256E-05-2.79653E-05-2.98582E-05-5.34834E-06 4.86916E-20-8.86970E-19
 -1      2328 9.78108E-05-2.85397E-05-2.96720E-05-3.54735E-06-3.37601E-19-2.35621E-18
 -1      2329 9.73712E-05-2.84814E-05-2.95244E-05-3.13906E-06-3.34316E-19-2.01439E-18
 -1      2330 9.70980E-05-2.80056E-05-2.96146E-05-4.23210E-06-2.90017E-19-1.38455E-18
 -1      2331 9.71735E-05-2.84991E-05-2.94187E-05-2.73163E-06-1.71302E-19-1.74983E-18
 -1      2332 9.68283E-05-2.84625E-05-2.92996E-05-2.39853E-06 1.89706E-20-9.08296E-19
 -1      2333 9.66698E-05-2.80781E-05-2.93998E-05-3.29062E-06-9.55083E-21-1.32893E-18
 -1      2334 9.66684E-05-2.84816E-05-2.92121E-05-2.06871E-06-1.97075E-19-7.44996E-19
 -1      2335 9.64013E-05-2.84591E-05-2.91179E-05-1.80280E-06-2.48279E-19 1.48343E-19
 -1      2336 9.63229E-05-2.81574E-05-2.92169E-05-2.51688E-06 2.06993E-19-5.37086E-19
 -1      2337 9.62737E-05-2.84770E-05-2.90470E-05-1.54063E-06 1.30693E-19 4.83339E-19
 -1      2338 9.60704E-05-2.84638E-05-2.89740E-05-1.33208E-06 4.62826E-19 2.98935E-19
 -1      2339 9.60447E-05-2.82319E-05-2.90655E-05-1.89388E-06 1.62019E-19 3.32260E-19
 -1      2340 9.59703E-05-2.84796E-05-2.89177E-05-1.12698E-06 2.22378E-19 2.00373E-19
 -1      2341 9.58182E-05-2.84728E-05-2.88620E-05-9.65940E-07 2.59472E-19 2.73778E-19
 -1      2342 9.58251E-05-2.82975E-05-2.89428E-05-1.40083E-06 5.07012E-20 1.14955E-18
 -1      2343 9.57412E-05-2.84864E-05-2.88182E-05-8.07869E-07 1.42467E-19-2.86937E-19
 -1      2344 9.56294E-05-2.84838E-05-2.87764E-05-6.85338E-07 2.66542E-20-7.81764E-19
 -1      2345 9.56547E-05-2.83533E-05-2.88455E-05-1.01667E-06 1.73564E-19 9.29745E-19
 -1      2346 9.55713E-05-2.84952E-05-2.87428E-05-5.65287E-07-5.52085E-19-9.68249E-19
 -1      2347 9.54910E-05-2.84954E-05-2.87121E-05-4.73432E-07-1.02397E-18-6.66460E-19
 -1      2348 9.55250E-05-2.83997E-05-2.87697E-05-7.21768E-07-3.47042E-19-2.91917E-19
 -1      2349 9.54481E-05-2.85049E-05-2.86869E-05-3.83627E-07-8.34023E-19-1.75409E-19
 -1      2350 9.53919E-05-2.85069E-05-2.86647E-05-3.15840E-07 5.63020E-19-2.63387E-19
 -1      2351 9.54284E-05-2.84377E-05-2.87117E-05-4.98733E-07-3.71585E-19 1.00474E-18
 -1      2352 9.53609E-05-2.85147E-05-2.86461E-05-2.49741E-07 1.33192E-18-1.47265E-18
 -1      2353 9.53229E-05-2.85177E-05-2.86306E-05-2.00570E-07 7.73676E-19-1.61609E-18
 -1      2354 9.53580E-05-2.84685E-05-2.86680E-05-3.32650E-07-1.22862E-22-2.76233E-19
 -1      2355 9.53012E-05-2.85241E-05-2.86171E-05-1.52788E-07 9.38189E-19-1.58433E-18
 -1      2356 9.52766E-05-2.85275E-05-2.86065E-05-1.17816E-07-2.48230E-19-4.27909E-19
 -1      2357 9.53082E-05-2.84933E-05-2.86359E-05-2.11039E-07 7.69932E-19-1.40521E-18
 -1      2358 9.52620E-05-2.85328E-05-2.85971E-05-8.39881E-08-1.01908E-18-1.11801E-19
 -1      2359 9.52471E-05-2.85364E-05-2.85902E-05-5.96978E-08-1.00538E-18 1.09901E-18
 -1      2360 9.52742E-05-2.85130E-05-2.86126E-05-1.23662E-07-3.91537E-19 5.79500E-19
 -1      2361 9.52378E-05-2.85406E-05-2.85837E-05-3.63539E-08-9.55215E-19 2.15659E-18
 -1      2362 9.52298E-05-2.85441E-05-2.85795E-05-1.99938E-08-1.37888E-19 2.53192E-18
 -1      2363 9.52519E-05-2.85285E-05-2.85962E-05-6.22692E-08-1.19151E-19 1.31780E-18
 -1      2364 9.52243E-05-2.85476E-05-2.85752E-05-4.42918E-09-4.90344E-19 3.42501E-18
 -1      2365 9.52211E-05-2.85509E-05-2.85728E-05 6.10472E-09 4.21612E-19 3.16962E-18
 -1      2366 9.52383E-05-2.85407E-05-2.85850E-05-2.03428E-08 1.72288E-19 3.69351E-18
 -1      2367 9.52183E-05-2.85538E-05-2.85702E-05 1.59447E-08 1.44714E-18 1.91172E-18
 -1      2368 9.52183E-05-2.85569E-05-2.85691E-05 2.22099E-08 1.56123E-18 1.13628E-18
 -1      2369 9.52309E-05-2.85504E-05-2.85776E-05 7.15547E-09-1.01106E-19 4.32227E-18
 -1      2370 9.52174E-05-2.85594E-05-2.85675E-05 2.78325E-08 5.89136E-19 8.36730E-19
 -1      2371 9.52194E-05-2.85624E-05-2.85673E-05 3.09249E-08-1.82169E-19-1.35623E-19
 -1      2372 9.52278E-05-2.85582E-05-2.85729E-05 2.40066E-08 5.60097E-19 1.83451E-18
 -1      2373 9.52198E-05-2.85646E-05-2.85664E-05 3.33726E-08-3.02321E-19-1.32524E-19
 -1      2374 9.52229E-05-2.85675E-05-2.85666E-05 3.39874E-08-3.34849E-19-1.30323E-19
 -1      2375 9.52278E-05-2.85647E-05-2.85700E-05 3.29377E-08 5.17466E-20 1.87011E-18
 -1      2376 9.52241E-05-2.85698E-05-2.85661E-05 3.39520E-08-8.74027E-20 2.22403E-19
 -1      2377 9.52276E-05-2.85726E-05-2.85665E-05 3.24331E-08 1.27500E-19 1.75057E-18
 -1      2378 9.52297E-05-2.85707E-05-2.85682E-05 3.57940E-08 2.08704E-19 3.03332E-19
 -1      2379 9.97405E-05-2.96073E-05-3.00536E-05-3.76793E-06 4.00964E-19 7.53710E-19
 -1      2380 9.91753E-05-2.92178E-05-2.99544E-05-3.45257E-06 5.36426E-19 1.01378E-18
 -1      2381 1.00941E-04-3.04287E-05-3.02277E-05-4.03112E-06 3.36892E-19 4.69346E-19
 -1      2382 1.00239E-04-2.99838E-05-3.00926E-05-4.02022E-06 3.49941E-19 5.95190E-19
 -1      2383 9.97638E-05-2.96286E-05-3.00759E-05-4.45086E-06 5.57915E-19 1.04313E-19
 -1      2384 1.02324E-04-3.13719E-05-3.04292E-05-3.59761E-06 6.54618E-19 7.17186E-19
 -1      2385 1.01604E-04-3.08857E-05-3.02968E-05-3.91814E-06 4.04448E-19 5.68036E-19
 -1      2386 1.00984E-04-3.06756E-05-3.01467E-05-4.65809E-06 4.19050E-19 1.14689E-20
 -1      2387 1.03701E-04-3.23788E-05-3.06013E-05-2.38363E-06 2.06127E-19 1.16087E-18
 -1      2388 1.03095E-04-3.19025E-05-3.05044E-05-3.07310E-06 5.73676E-19 1.12496E-18
 -1      2389 1.02482E-04-3.18973E-05-3.02611E-05-4.04182E-06 3.05946E-19 3.03067E-19
 -1      2390 1.04832E-04-3.32851E-05-3.07068E-05-3.50606E-07-3.07311E-19 1.27113E-18
 -1      2391 1.04491E-04-3.29240E-05-3.06695E-05-1.40585E-06-6.70777E-20 1.26272E-18
 -1      2392 1.04116E-04-3.32183E-05-3.03888E-05-2.50593E-06 2.02345E-20 7.31164E-19
 -1      2393 1.05408E-04-3.37888E-05-3.07365E-05 2.36028E-06 1.79813E-19 1.34854E-18
 -1      2394 1.05488E-04-3.37087E-05-3.07680E-05 1.05060E-06-1.12473E-19 1.37355E-18
 -1      2395 1.05637E-04-3.43952E-05-3.05262E-05-2.51361E-08-1.31247E-19 8.84638E-19
 -1      2396 1.05095E-04-3.34874E-05-3.07141E-05 5.26877E-06 5.69365E-19 1.38471E-18
 -1      2397 1.05708E-04-3.38741E-05-3.08044E-05 3.98785E-06 3.94926E-19 1.35572E-18
 -1      2398 1.06654E-04-3.49772E-05-3.06978E-05 3.18791E-06 3.49628E-19 7.41726E-19
 -1      2399 1.03689E-04-3.20649E-05-3.06862E-05 7.48057E-06 1.14003E-18 1.41266E-18
 -1      2400 1.04817E-04-3.30110E-05-3.08057E-05 6.68377E-06 8.79161E-19 1.43457E-18
 -1      2401 1.06687E-04-3.44120E-05-3.09421E-05 6.48633E-06 6.43857E-19 1.07647E-18
 -1      2402 1.01378E-04-2.96329E-05-3.06996E-05 7.86608E-06 1.11934E-18 1.16249E-18
 -1      2403 1.02768E-04-3.09693E-05-3.08096E-05 8.03979E-06 1.15891E-18 1.46263E-18
 -1      2404 1.05406E-04-3.23371E-05-3.12799E-05 8.72458E-06 1.16315E-18 1.59772E-18
 -1      2405 9.89569E-05-2.70241E-05-3.07639E-05 5.64882E-06 1.13543E-18 7.15700E-19
 -1      2406 1.00126E-04-2.82422E-05-3.08335E-05 7.00551E-06 1.27449E-18 1.01028E-18
 -1      2407 1.03053E-04-2.91142E-05-3.16760E-05 8.55027E-06 1.20596E-18 1.16619E-18
 -1      2408 9.76175E-05-2.55376E-05-3.08459E-05 1.19555E-06 1.27723E-18 3.28432E-21
 -1      2409 9.80575E-05-2.60335E-05-3.08597E-05 3.38078E-06 1.11140E-18 4.28478E-19
 -1      2410 1.00702E-04-2.60604E-05-3.20187E-05 5.25948E-06 1.34919E-18 9.63806E-19
 -1      2411 9.81625E-05-2.60329E-05-3.09064E-05-3.88417E-06 1.94970E-18-4.90965E-19
 -1      2412 9.76469E-05-2.55277E-05-3.08604E-05-1.68402E-06 1.49605E-18-5.80098E-20
 -1      2413 9.97329E-05-2.47795E-05-3.21725E-05-2.87241E-07 1.45133E-18 2.39012E-19
 -1      2414 1.00400E-04-2.82617E-05-3.09419E-05-7.57584E-06 1.17592E-18-1.56986E-19
 -1      2415 9.91377E-05-2.70274E-05-3.08391E-05-6.18988E-06 2.00200E-18-4.96639E-20
 -1      2416 1.00803E-04-2.60284E-05-3.20742E-05-5.87848E-06 1.84915E-18 3.45002E-19
 -1      2417 1.03226E-04-3.10154E-05-3.09813E-05-8.71513E-06-5.65998E-20-7.95989E-19
 -1      2418 1.01721E-04-2.96605E-05-3.08355E-05-8.48549E-06 7.30017E-19-4.74901E-19
 -1      2419 1.03278E-04-2.90880E-05-3.17847E-05-9.24949E-06 1.05381E-18 1.78945E-19
 -1      2420 1.05492E-04-3.31172E-05-3.10430E-05-7.48467E-06-2.14207E-19-1.74024E-18
 -1      2421 1.04224E-04-3.21368E-05-3.08849E-05-8.20852E-06-4.90085E-19-1.41787E-18
 -1      2422 1.05768E-04-3.23278E-05-3.14390E-05-9.54512E-06 1.05392E-19-6.21699E-19
 -1      2423 1.06625E-04-3.40642E-05-3.11094E-05-4.89960E-06 7.07431E-19-2.27973E-18
 -1      2424 1.05852E-04-3.36282E-05-3.09780E-05-6.10463E-06 3.09749E-19-2.05231E-18
 -1      2425 1.07217E-04-3.44546E-05-3.11498E-05-7.43488E-06 3.18751E-19-1.28260E-18
 -1      2426 1.06648E-04-3.39923E-05-3.11403E-05-2.04133E-06 6.38881E-19-2.31380E-18
 -1      2427 1.06402E-04-3.40127E-05-3.10670E-05-3.28652E-06 8.34936E-19-2.43003E-18
 -1      2428 1.07362E-04-3.50958E-05-3.09518E-05-4.23867E-06 8.03396E-19-2.10441E-18
 -1      2429 1.05883E-04-3.33064E-05-3.11010E-05 3.76522E-07 3.49166E-19-1.43676E-18
 -1      2430 1.06061E-04-3.35998E-05-3.10993E-05-6.38116E-07 8.56622E-19-1.63731E-18
 -1      2431 1.06511E-04-3.45906E-05-3.08177E-05-1.09017E-06 4.75751E-19-1.63413E-18
 -1      2432 1.04684E-04-3.23900E-05-3.09787E-05 2.06522E-06-7.67500E-19-1.20056E-18
 -1      2433 1.05145E-04-3.27926E-05-3.10440E-05 1.37834E-06-2.95985E-19-1.20396E-18
 -1      2434 1.05129E-04-3.34994E-05-3.07012E-05 1.38118E-06 7.98262E-20-9.28784E-19
 -1      2435 1.03323E-04-3.14878E-05-3.07821E-05 3.02863E-06-6.31000E-19-1.26286E-18
 -1      2436 1.03936E-04-3.18951E-05-3.08983E-05 2.65357E-06-5.41251E-19-8.54617E-19
 -1      2437 1.03588E-04-3.22800E-05-3.05669E-05 2.99496E-06-6.08701E-19-8.05483E-19
 -1      2438 1.01968E-04-3.07138E-05-3.05334E-05 3.40914E-06-6.88741E-19-9.04011E-19
 -1      2439 1.02634E-04-3.10747E-05-3.06806E-05 3.27860E-06-4.79163E-19-1.44925E-18
 -1      2440 1.02107E-04-3.11893E-05-3.04002E-05 3.83275E-06-3.19901E-19-9.16618E-19
 -1      2441 1.00710E-04-3.00986E-05-3.02588E-05 3.38329E-06-8.85115E-19 1.22692E-19
 -1      2442 1.01363E-04-3.03961E-05-3.04183E-05 3.41951E-06-1.08469E-18-3.93414E-19
 -1      2443 1.00783E-04-3.03234E-05-3.02036E-05 4.07907E-06-1.08674E-18-3.88342E-19
 -1      2444 9.95961E-05-2.96321E-05-2.99817E-05 3.10942E-06-8.58824E-20 4.00151E-19
 -1      2445 1.00196E-04-2.98665E-05-3.01389E-05 3.24451E-06-1.85011E-19 1.21409E-19
 -1      2446 9.96455E-05-2.96856E-05-2.99889E-05 3.92888E-06-7.27929E-19-7.36675E-19
 -1      2447 9.86406E-05-2.92891E-05-2.97194E-05 2.70927E-06-5.53647E-19 4.12926E-19
 -1      2448 9.91663E-05-2.94684E-05-2.98648E-05 2.89206E-06-3.25386E-19 5.90726E-19
 -1      2449 9.86920E-05-2.92402E-05-2.97704E-05 3.54674E-06-2.30814E-19-1.03831E-18
 -1      2450 9.78425E-05-2.90426E-05-2.94833E-05 2.26697E-06-1.21006E-18 1.14288E-18
 -1      2451 9.82871E-05-2.91765E-05-2.96113E-05 2.46277E-06-6.15309E-19 4.99673E-19
 -1      2452 9.79061E-05-2.89421E-05-2.95608E-05 3.05514E-06-7.37815E-19-2.72042E-19
 -1      2453 9.71910E-05-2.88687E-05-2.92789E-05 1.83535E-06-6.15156E-19 1.08600E-18
 -1      2454 9.75559E-05-2.89667E-05-2.93874E-05 2.02289E-06-1.01887E-18 1.21288E-18
 -1      2455 9.72676E-05-2.87501E-05-2.93690E-05 2.53696E-06-1.13595E-18 2.40877E-19
 -1      2456 9.66704E-05-2.87483E-05-2.91076E-05 1.44393E-06 4.54674E-19 9.17155E-19
 -1      2457 9.69620E-05-2.88185E-05-2.91968E-05 1.61175E-06 1.64531E-19 1.04130E-18
 -1      2458 9.67560E-05-2.86316E-05-2.92001E-05 2.04317E-06-6.04526E-19 3.81022E-20
 -1      2459 9.62626E-05-2.86667E-05-2.89681E-05 1.10629E-06 4.42619E-19 6.54508E-19
 -1      2460 9.64901E-05-2.87159E-05-2.90393E-05 1.24953E-06 4.76773E-19 1.04381E-18
 -1      2461 9.63520E-05-2.85622E-05-2.90562E-05 1.60144E-06 5.62612E-19 8.71098E-19
 -1      2462 9.59497E-05-2.86129E-05-2.88573E-05 8.25784E-07 5.05793E-19 1.97420E-18
 -1      2463 9.61230E-05-2.86465E-05-2.89128E-05 9.43699E-07 4.42341E-19 9.48080E-19
 -1      2464 9.60378E-05-2.85250E-05-2.89370E-05 1.22359E-06-1.37428E-20 1.67972E-18
 -1      2465 9.57146E-05-2.85788E-05-2.87714E-05 5.99731E-07 1.41730E-18 1.92495E-18
 -1      2466 9.58435E-05-2.86008E-05-2.88135E-05 6.93966E-07 8.99043E-19 1.80786E-18
 -1      2467 9.57974E-05-2.85080E-05-2.88408E-05 9.11376E-07 8.09117E-19 2.02746E-18
 -1      2468 9.55420E-05-2.85584E-05-2.87063E-05 4.22299E-07 1.19693E-18 2.92587E-18
 -1      2469 9.56353E-05-2.85722E-05-2.87376E-05 4.95681E-07 1.81123E-18 2.78717E-18
 -1      2470 9.56168E-05-2.85035E-05-2.87649E-05 6.60690E-07 1.22425E-18 1.14503E-18
 -1      2471 9.54184E-05-2.85473E-05-2.86583E-05 2.86351E-07-1.07094E-19 2.60437E-18
 -1      2472 9.54841E-05-2.85553E-05-2.86808E-05 3.42135E-07 9.84712E-19 2.96040E-18
 -1      2473 9.54838E-05-2.85061E-05-2.87064E-05 4.64415E-07 1.27599E-18 3.08916E-18
 -1      2474 9.53328E-05-2.85426E-05-2.86238E-05 1.84585E-07 4.02346E-19-8.21485E-20
 -1      2475 9.53772E-05-2.85465E-05-2.86395E-05 2.26004E-07-2.70853E-19 1.44883E-18
 -1      2476 9.53882E-05-2.85125E-05-2.86623E-05 3.14290E-07 9.79120E-19 1.92360E-18
 -1      2477 9.52757E-05-2.85419E-05-2.85997E-05 1.10194E-07-1.74461E-19 4.73101E-19
 -1      2478 9.53043E-05-2.85431E-05-2.86103E-05 1.40207E-07 1.65125E-19-4.96466E-19
 -1      2479 9.53214E-05-2.85206E-05-2.86299E-05 2.02051E-07 5.30047E-19 3.62723E-19
 -1      2480 9.52399E-05-2.85437E-05-2.85837E-05 5.71952E-08-4.16649E-19-3.68694E-19
 -1      2481 9.52569E-05-2.85432E-05-2.85904E-05 7.83666E-08-2.06807E-19 9.05301E-20
 -1      2482 9.52763E-05-2.85290E-05-2.86068E-05 1.20084E-07-1.66760E-19-1.02962E-18
 -1      2483 9.52194E-05-2.85469E-05-2.85736E-05 2.05512E-08 5.11362E-19 1.46894E-19
 -1      2484 9.52282E-05-2.85454E-05-2.85775E-05 3.50127E-08 3.18302E-21-4.35785E-19
 -1      2485 9.52475E-05-2.85371E-05-2.85908E-05 6.17403E-08 1.17869E-20-1.04945E-18
 -1      2486 9.52097E-05-2.85510E-05-2.85678E-05-3.81405E-09 5.18774E-19-2.69822E-19
 -1      2487 9.52128E-05-2.85488E-05-2.85697E-05 5.64144E-09 6.46017E-19 2.74241E-19
 -1      2488 9.52304E-05-2.85445E-05-2.85801E-05 2.14586E-08 3.66454E-19-6.01204E-19
 -1      2489 9.52074E-05-2.85554E-05-2.85650E-05-1.90709E-08 4.05670E-19-4.90481E-19
 -1      2490 9.52067E-05-2.85528E-05-2.85656E-05-1.33177E-08 6.39315E-19 1.70459E-20
 -1      2491 9.52218E-05-2.85511E-05-2.85734E-05-5.24286E-09 6.64281E-19-1.10944E-18
 -1      2492 9.52098E-05-2.85599E-05-2.85642E-05-2.75612E-08-1.15573E-18 1.86411E-18
 -1      2493 9.52068E-05-2.85572E-05-2.85639E-05-2.45721E-08-6.15225E-19 8.31330E-19
 -1      2494 9.52189E-05-2.85571E-05-2.85696E-05-2.18317E-08-6.20745E-19 3.20720E-19
 -1      2495 9.52151E-05-2.85644E-05-2.85645E-05-3.08815E-08-3.97413E-19 1.39016E-18
 -1      2496 9.52108E-05-2.85617E-05-2.85638E-05-3.00527E-08-1.24712E-18 1.53352E-18
 -1      2497 9.52198E-05-2.85625E-05-2.85676E-05-3.08605E-08-8.06795E-19 2.21396E-18
 -1      2498 9.52218E-05-2.85692E-05-2.85654E-05-2.99916E-08 1.18645E-18 1.83481E-18
 -1      2499 9.52170E-05-2.85664E-05-2.85645E-05-3.10264E-08-6.11856E-21 1.33366E-18
 -1      2500 9.52231E-05-2.85676E-05-2.85667E-05-3.40873E-08 7.94891E-20 9.99710E-19
 -1      2501 9.52287E-05-2.85740E-05-2.85664E-05-2.53613E-08-5.98730E-19 4.16027E-18
 -1      2502 9.52242E-05-2.85712E-05-2.85656E-05-2.80629E-08 8.39024E-20 3.09947E-18
 -1      2503 9.52280E-05-2.85730E-05-2.85665E-05-3.26553E-08-3.93917E-19 3.20384E-18
 -1      2504 9.52315E-05-2.85762E-05-2.85666E-05-2.13441E-08 1.18948E-18 4.83034E-18
 -1      2505 9.52514E-05-2.85988E-05-2.85654E-05-2.11488E-08-6.99111E-19-3.54697E-18
 -1      2506 9.52498E-05-2.85961E-05-2.85658E-05-2.39144E-08-1.82233E-18-6.15882E-18
 -1      2507 9.52533E-05-2.86016E-05-2.85650E-05-1.41651E-08 1.59747E-18 7.09612E-19
 -1      2508 9.52523E-05-2.85998E-05-2.85653E-05-1.76053E-08 6.62701E-19-1.28273E-18
 -1      2509 9.52518E-05-2.85924E-05-2.85683E-05-2.09676E-08 9.92439E-19-9.70466E-19
 -1      2510 9.52435E-05-2.85891E-05-2.85661E-05-2.95130E-08-2.26003E-18-2.95205E-18
 -1      2511 9.52403E-05-2.85852E-05-2.85666E-05-2.95920E-08-7.17078E-19-2.26920E-18
 -1      2512 9.52482E-05-2.85946E-05-2.85658E-05-2.65882E-08-3.82818E-18-6.67785E-18
 -1      2513 9.52458E-05-2.85913E-05-2.85662E-05-2.82086E-08-3.15329E-18-4.29490E-18
 -1      2514 9.52439E-05-2.85860E-05-2.85677E-05-3.15206E-08-3.09389E-18-4.91507E-18
 -1      2515 9.52487E-05-2.85898E-05-2.85681E-05-2.74055E-08-2.51234E-18-4.83941E-18
 -1      2516 9.52543E-05-2.86031E-05-2.85648E-05-6.37263E-09 9.81218E-19 1.25795E-18
 -1      2517 9.52538E-05-2.86021E-05-2.85650E-05-1.01585E-08 1.37751E-18 5.48358E-19
 -1      2518 9.52535E-05-2.85940E-05-2.85684E-05-1.31387E-08 2.27348E-18 7.11951E-19
 -1      2519 9.52545E-05-2.86033E-05-2.85647E-05 1.75412E-09-1.20393E-18 1.87834E-19
 -1      2520 9.52545E-05-2.86033E-05-2.85647E-05-2.15267E-09-7.51129E-19 1.35989E-18
 -1      2521 9.52543E-05-2.85947E-05-2.85684E-05-4.61834E-09 1.23989E-18-8.89567E-20
 -1      2522 9.52540E-05-2.86023E-05-2.85649E-05 9.83934E-09-1.79046E-18-1.94982E-18
 -1      2523 9.52544E-05-2.86032E-05-2.85648E-05 6.00562E-09-1.49732E-18-9.21942E-19
 -1      2524 9.52544E-05-2.85949E-05-2.85684E-05 4.15076E-09-8.51657E-19-8.35946E-19
 -1      2525 9.52526E-05-2.86001E-05-2.85653E-05 1.73309E-08-1.39784E-18-3.18815E-19
 -1      2526 9.52536E-05-2.86019E-05-2.85650E-05 1.38662E-08-1.20295E-18-1.31466E-18
 -1      2527 9.52538E-05-2.85943E-05-2.85684E-05 1.27261E-08-6.38352E-19-1.01630E-18
 -1      2528 9.52501E-05-2.85966E-05-2.85657E-05 2.38734E-08-1.04169E-18 2.85503E-18
 -1      2529 9.52517E-05-2.85992E-05-2.85653E-05 2.09956E-08-1.17452E-18 3.75775E-19
 -1      2530 9.52522E-05-2.85929E-05-2.85683E-05 2.07168E-08-6.16604E-19-1.28786E-19
 -1      2531 9.52461E-05-2.85917E-05-2.85662E-05 2.84178E-08-1.03516E-18 2.80475E-18
 -1      2532 9.52485E-05-2.85950E-05-2.85657E-05 2.66719E-08-8.59192E-19 3.58410E-18
 -1      2533 9.52491E-05-2.85903E-05-2.85681E-05 2.74995E-08-1.17390E-18 3.51560E-18
 -1      2534 9.52404E-05-2.85854E-05-2.85665E-05 2.97639E-08-2.14134E-19 1.44598E-18
 -1      2535 9.52436E-05-2.85894E-05-2.85661E-05 2.98001E-08-1.10329E-18 2.46799E-18
 -1      2536 9.52443E-05-2.85864E-05-2.85677E-05 3.17973E-08-1.38768E-18 2.23326E-18
 -1      2537 2.62085E-05-1.98947E-05-2.40030E-06 2.26619E-05-1.68242E-18 6.29938E-18
 -1      2538 2.00835E-05-1.79000E-05-5.86391E-07 8.40848E-06-1.66426E-18 6.35381E-18
 -1      2539 8.96010E-05-4.98122E-05-1.71687E-05 4.34587E-05 1.02279E-19-8.69770E-19
 -1      2540 7.16563E-05-4.43216E-05-1.15620E-05 4.27123E-05-6.64921E-20 3.44372E-19
 -1      2541 9.88774E-05-2.88922E-05-2.99797E-05-2.84361E-06 7.16901E-19 9.75868E-19
 -1      2542 9.85665E-05-2.85417E-05-2.99651E-05-2.19889E-06 9.35594E-19 1.17407E-18
 -1      2543 9.89065E-05-2.87147E-05-3.01022E-05-3.47645E-06 7.79136E-19 2.39446E-19
 -1      2544 1.45332E-04-3.02387E-05-4.99214E-05-5.58820E-06 5.14149E-18-4.76054E-18
 -1      2545 1.45201E-04-3.99224E-05-4.52999E-05 1.27052E-07 4.24141E-18-4.78658E-18
 -1      2546 9.52352E-05-2.85808E-05-2.85662E-05 2.52589E-08 1.45218E-18 1.59715E-18
 -1      2547 3.36647E-05-2.66180E-05-2.74513E-06-2.74184E-05 2.89156E-19 5.24462E-18
 -1      2548 5.02468E-05-3.44395E-05-6.71559E-06-3.77919E-05 5.47607E-19 5.44621E-18
 -1      2549 5.42573E-05-3.57959E-05-7.84283E-06 4.18024E-05-7.42424E-19 2.47694E-18
 -1      2550 3.94901E-05-2.79244E-05-4.58612E-06 3.41675E-05-1.96025E-18 4.74042E-18
 -1      2551 6.91374E-05-3.94869E-05-1.22320E-05 4.14379E-05-2.08688E-18 8.44915E-19
 -1      2552 1.87404E-05-1.77109E-05-4.29970E-08-1.31318E-06-8.19882E-19 4.99876E-18
 -1      2553 2.14968E-05-1.95055E-05-6.69142E-07-1.37636E-05-9.52806E-19 4.42659E-18
 -1      2554 2.64354E-05-1.47419E-05-4.44981E-06 4.78791E-06-2.01680E-18 5.41783E-18
 -1      2555 1.48082E-04-1.61780E-05-5.71640E-05-6.19525E-06-7.63727E-18 3.13614E-19
 -1      2556 1.51866E-04-2.39062E-05-5.50996E-05-7.25595E-06-6.94482E-18 1.05921E-18
 -1      2557 1.42363E-04-2.19193E-05-5.20918E-05 6.34426E-06 4.82258E-18-4.13987E-19
 -1      2558 1.44990E-04-1.54481E-05-5.59392E-05 4.65357E-06 5.73314E-18-1.24133E-18
 -1      2559 8.39537E-05-7.70538E-06-3.27083E-05-1.10234E-06 3.33081E-20-3.41617E-18
 -1      2560 8.42190E-05-7.88710E-06-3.27416E-05-1.75031E-06-2.99764E-19-3.44681E-18
 -1      2561 8.53340E-05-9.63083E-06-3.24360E-05-1.70020E-06-3.66568E-19-3.18580E-18
 -1      2562 8.47554E-05-9.16860E-06-3.23877E-05-8.35793E-07 1.09158E-19-3.13668E-18
 -1      2563 1.45584E-04-1.05307E-05-5.83440E-05 1.10459E-06 6.35275E-18-1.83076E-18
 -1      2564 1.47329E-04-1.08745E-05-5.88321E-05-1.10625E-06 6.08932E-18-2.05797E-18
 -1      2565 2.90657E-05-2.39972E-05-1.95943E-06-2.51058E-05-4.27963E-19-7.43991E-18
 -1      2566 4.19768E-05-2.80173E-05-5.71318E-06-3.52360E-05-1.05434E-18-6.47345E-18
 -1      2567 1.47353E-04-1.38786E-05-5.74184E-05-3.59707E-06 5.75622E-18-2.58726E-18
 -1      2568 1.42776E-04-1.81183E-05-5.39375E-05-5.95804E-06 5.50381E-18-3.08193E-18
 -1      2569 1.35199E-04-9.83204E-06-5.39797E-05-4.29066E-06 5.35558E-18-1.36722E-18
 -1      2570 1.44211E-04-4.25038E-05-4.37965E-05-5.02139E-08 2.85492E-18-8.24587E-19
 -1      2571 1.44836E-04-3.50207E-05-4.77506E-05 3.99739E-06 3.56749E-18-6.03087E-19
 -1      2572 1.30904E-04-5.62305E-05-3.19874E-05-2.17584E-05 1.23593E-18-2.11906E-18
 -1      2573 1.42252E-04-5.14443E-05-3.93683E-05-1.15987E-05 2.12957E-18-1.27563E-18
 -1      2574 1.40022E-04-4.91512E-05-3.89761E-05-1.57592E-06 1.13741E-18 1.14773E-19
 -1      2575 1.02140E-04-5.44370E-05-2.03692E-05-3.86022E-05 2.53263E-19-3.41413E-18
 -1      2576 1.17164E-04-5.69444E-05-2.60704E-05-3.46910E-05 8.54868E-19-2.71051E-18
 -1      2577 1.50346E-04-4.80922E-05-4.39938E-05-1.26630E-06-2.54750E-18 2.34628E-19
 -1      2578 1.52565E-04-3.99665E-05-4.89283E-05 5.43706E-06-4.04130E-18-1.21973E-18
 -1      2579 6.49116E-05-4.01949E-05-1.02519E-05-4.25041E-05-1.17378E-18-5.43075E-18
 -1      2580 8.52601E-05-4.85017E-05-1.56089E-05-4.44192E-05-3.33731E-19-4.53099E-18
 -1      2581 1.94001E-05-1.73807E-05-4.94803E-07-4.43017E-07 2.86985E-19-7.47337E-18
 -1      2582 2.16592E-05-1.94856E-05-6.80866E-07-1.47902E-05 4.34316E-19-7.65167E-18
 -1      2583 3.24906E-05-1.80800E-05-5.56784E-06-1.91084E-05-6.01182E-19-6.98633E-18
 -1      2584 3.11932E-05-2.32654E-05-3.13668E-06 2.57515E-05 1.09288E-18-6.23480E-18
 -1      2585 2.28007E-05-1.93633E-05-1.12196E-06 1.25652E-05 1.20819E-18-7.06849E-18
 -1      2586 6.33410E-05-3.97322E-05-9.93310E-06 4.14021E-05 1.11258E-18-4.25856E-18
 -1      2587 4.73281E-05-3.19733E-05-6.24894E-06 3.50973E-05 1.70211E-18-5.22662E-18
 -1      2588 9.86081E-05-5.41802E-05-1.91318E-05 3.99270E-05 7.22519E-19-1.79014E-18
 -1      2589 7.97661E-05-4.79403E-05-1.34832E-05 4.05448E-05 8.95737E-19-2.91962E-18
 -1      2590 7.90694E-05-4.35477E-05-1.46942E-05 3.91997E-05 2.43713E-18-2.99627E-18
 -1      2591 1.33619E-04-6.10220E-05-3.15398E-05 2.17107E-05-8.80385E-19 7.16484E-19
 -1      2592 1.18173E-04-5.98016E-05-2.48914E-05 2.95808E-05 3.37754E-19-4.81644E-19
 -1      2593 1.51590E-04-4.90112E-05-4.41024E-05 3.99404E-06-4.24439E-18 1.36203E-18
 -1      2594 1.43685E-04-5.54191E-05-3.80035E-05 8.30934E-06-2.81607E-18 1.62567E-18
 -1      2595 1.54023E-04-3.28271E-05-5.25063E-05-5.77991E-06-5.95634E-18 1.39252E-18
 -1      2596 1.52371E-04-4.02415E-05-4.83663E-05-2.78071E-06-5.03085E-18 1.45986E-18
 -1      2597 1.47148E-04-4.45427E-05-4.38517E-05-7.94582E-06-4.35052E-18 1.84759E-18
 -1      2598 1.44559E-04-2.75741E-05-5.01749E-05-1.25646E-05-6.10584E-18 1.02195E-18
 -1      2599 1.45292E-04-1.42013E-05-5.67274E-05 4.79223E-06-7.03376E-18-1.47627E-18
 -1      2600 1.43942E-04-1.26942E-05-5.68568E-05 7.05925E-08-7.46914E-18-9.99287E-19
 -1      2601 1.49112E-04-2.77627E-05-5.23021E-05 1.05905E-05-5.29247E-18-1.81456E-18
 -1      2602 1.48611E-04-1.98467E-05-5.58096E-05 8.67437E-06-6.27884E-18-1.87554E-18
 -1      2603 1.35933E-04-1.70288E-05-5.12812E-05 9.21042E-06-5.80599E-18-3.05313E-18
 -1      2604 1.36474E-04-5.83303E-05-3.35249E-05-1.70250E-05-3.41566E-19 1.92996E-18
 -1      2605 1.46520E-04-5.47105E-05-3.96729E-05-1.05990E-05-1.85421E-18 1.05773E-18
 -1      2606 1.47522E-04-5.29603E-05-4.02848E-05 1.35683E-06-7.85292E-19-1.69216E-18
 -1      2607 1.05431E-04-5.66042E-05-2.08935E-05-3.49515E-05 1.84696E-18 5.63891E-18
 -1      2608 1.22504E-04-5.95673E-05-2.72442E-05-2.96366E-05 1.12740E-18 4.07984E-18
 -1      2609 7.01924E-05-4.45119E-05-1.08649E-05-4.00963E-05 1.77348E-18 6.40759E-18
 -1      2610 8.77858E-05-5.07416E-05-1.59381E-05-4.13602E-05 1.58734E-18 6.58837E-18
 -1      2611 9.71044E-05-2.03146E-05-3.29472E-05-8.56709E-06-2.66342E-18-5.73600E-19
 -1      2612 9.79586E-05-2.36627E-05-3.18532E-05-4.52438E-06-2.38213E-18-3.50947E-19
 -1      2613 9.69182E-05-2.24108E-05-3.19281E-05-3.70252E-06-2.18464E-18-9.12375E-19
 -1      2614 9.46804E-05-1.75734E-05-3.30667E-05-8.03110E-06-2.57111E-18-1.29661E-18
 -1      2615 9.91617E-05-2.58852E-05-3.14194E-05 5.21708E-06 2.45266E-18 2.19898E-18
 -1      2616 9.99138E-05-2.45151E-05-3.23315E-05 8.38025E-06 2.69301E-18 2.58053E-18
 -1      2617 9.81796E-05-2.19730E-05-3.27165E-05 9.36165E-06 2.93872E-18 1.54999E-18
 -1      2618 9.84272E-05-2.47809E-05-3.15989E-05 4.84519E-06 2.50761E-18 9.90470E-19
 -1      2619 1.25353E-04-5.62108E-05-2.98199E-05 2.91331E-05 8.71173E-19-9.88276E-19
 -1      2620 1.09747E-04-5.55284E-05-2.31019E-05 3.49279E-05 3.02814E-19-1.00977E-18
 -1      2621 1.31769E-04-5.78446E-05-3.15163E-05 1.85353E-05 6.44169E-19-2.51241E-18
 -1      2622 1.37341E-04-2.83410E-05-4.70094E-05 9.97801E-06 3.49263E-18 7.23154E-19
 -1      2623 8.89639E-05-1.28195E-05-3.26176E-05-3.71846E-06-1.45799E-18-2.83486E-18
 -1      2624 8.84966E-05-1.15644E-05-3.30331E-05-4.94682E-06-1.61191E-18-2.98798E-18
 -1      2625 8.98466E-05-1.26485E-05-3.31320E-05-5.94310E-06-2.03686E-18-2.75396E-18
 -1      2626 9.84517E-05-2.77851E-05-3.03047E-05-1.67868E-06 1.28628E-18 4.51335E-19
 -1      2627 9.61643E-05-1.95436E-05-3.28825E-05 8.87816E-06 2.91619E-18 2.76292E-19
 -1      2628 6.64793E-05-3.90050E-05-1.13315E-05-3.82423E-05 1.98375E-18 5.43329E-18
 -1      2629 9.52332E-05-2.85782E-05-2.85665E-05-2.66081E-08-3.60713E-19 5.21793E-18
 -1      2630 1.04649E-04-5.44968E-05-2.12273E-05 3.69928E-05-5.52054E-19-1.38450E-18
 -1      2631 9.52359E-05-2.85811E-05-2.85663E-05-2.84360E-08-5.66972E-20 2.20212E-18
 -1      2632 9.28452E-05-1.57951E-05-3.30691E-05-7.01446E-06-2.29766E-18-1.98962E-18
 -1      2633 1.36607E-04-1.46685E-05-5.26060E-05-3.98508E-06-6.93805E-18-1.28320E-18
 -1      2634 3.91693E-05-2.22708E-05-6.66810E-06 2.78423E-05-2.75582E-18 5.47967E-18
 -1      2635 3.43342E-05-2.04767E-05-5.39583E-06-2.07618E-05-4.72539E-19 4.73174E-18
 -1      2636 9.64179E-05-2.08512E-05-3.23436E-05 6.69148E-06 2.65269E-18 2.86403E-20
 -1      2637 1.40001E-04-2.46423E-05-4.98106E-05-8.97679E-06 4.76128E-18-3.50195E-18
 -1      2638 1.34797E-04-3.02566E-05-4.50686E-05-1.08746E-05 4.07783E-18-3.29941E-18
 -1      2639 1.31301E-04-1.91358E-05-4.86654E-05-1.14951E-05 4.29721E-18-1.84748E-18
 -1      2640 9.52316E-05-2.85765E-05-2.85665E-05 2.81360E-08 1.16670E-18 2.03657E-18
 -1      2641 9.52372E-05-2.85824E-05-2.85664E-05 3.01690E-08 8.12336E-19 1.92804E-18
 -1      2642 9.52374E-05-2.85806E-05-2.85672E-05 3.31799E-08 8.18823E-19 2.43687E-18
 -1      2643 9.52285E-05-2.85742E-05-2.85662E-05 3.11365E-08-7.98841E-20 2.32847E-18
 -1      2644 1.12733E-04-5.79373E-05-2.32066E-05 3.16234E-05 1.65224E-18-2.48578E-19
 -1      2645 2.84560E-05-1.54655E-05-4.95266E-06 5.99166E-06 1.03436E-18-6.93805E-18
 -1      2646 5.82627E-05-3.41664E-05-9.89365E-06-3.95192E-05-1.61741E-18-5.86888E-18
 -1      2647 7.39110E-05-3.89055E-05-1.47332E-05-3.97879E-05-2.56249E-18-4.49499E-18
 -1      2648 5.28041E-05-2.69548E-05-1.05671E-05-3.45244E-05-1.79931E-18-5.41593E-18
 -1      2649 1.34380E-04-1.11900E-05-5.30704E-05 5.30431E-06 5.43605E-18-3.92335E-19
 -1      2650 1.32476E-04-6.12286E-05-3.03911E-05-1.87412E-05 1.73377E-18 1.56722E-18
 -1      2651 1.28009E-04-5.88427E-05-2.94397E-05-2.32137E-05-4.78785E-19-1.28908E-18
 -1      2652 1.41365E-04-4.61384E-05-4.08179E-05-2.45801E-07 3.07944E-18-4.90538E-18
 -1      2653 9.88545E-05-5.30002E-05-1.93908E-05-3.92916E-05-1.66527E-18-3.10808E-18
 -1      2654 1.45255E-04-3.45419E-05-4.75332E-05 1.26844E-05-3.47506E-18-2.76662E-18
 -1      2655 4.71035E-05-2.62607E-05-8.36320E-06 3.03133E-05 2.18132E-18-5.28316E-18
 -1      2656 1.39923E-04-6.00028E-05-3.42939E-05 8.75868E-06-7.94146E-19 1.82620E-18
 -1      2657 9.52359E-05-2.85796E-05-2.85670E-05-3.20772E-08-6.59279E-19 4.56671E-19
 -1      2658 1.02780E-04-5.53276E-05-2.00153E-05-3.58493E-05 2.73316E-18 5.12122E-18
 -1      2659 9.52324E-05-2.85757E-05-2.85672E-05 3.44182E-08 7.58741E-19 1.61798E-18
 -1      2660 8.69686E-05-1.20553E-05-3.21186E-05 8.36513E-07 1.22835E-18-2.86005E-18
 -1      2661 8.62876E-05-1.14808E-05-3.20860E-05 3.09563E-07 9.60078E-19-2.97744E-18
 -1      2662 8.57308E-05-1.09435E-05-3.20650E-05 2.32546E-08 7.63393E-19-3.03269E-18
 -1      2663 8.53976E-05-1.06676E-05-3.20505E-05-4.18875E-07 4.89523E-19-2.98752E-18
 -1      2664 8.67175E-05-1.26085E-05-3.17432E-05-2.46547E-07 7.96731E-19-2.80408E-18
 -1      2665 9.12850E-05-1.61819E-05-3.22142E-05 3.05444E-06 2.05131E-18-1.76348E-18
 -1      2666 9.00320E-05-1.49716E-05-3.21974E-05 2.35901E-06 1.83706E-18-2.06444E-18
 -1      2667 9.41775E-05-1.92856E-05-3.21284E-05 4.13167E-06 2.29117E-18-1.22040E-18
 -1      2668 9.26766E-05-1.76412E-05-3.21811E-05 3.54279E-06 2.13748E-18-1.56563E-18
 -1      2669 9.28754E-05-1.86111E-05-3.18081E-05 2.00184E-06 1.87501E-18-1.51865E-18
 -1      2670 9.77267E-05-2.57400E-05-3.08563E-05 4.03977E-07 1.79622E-18 5.62524E-21
 -1      2671 9.77453E-05-2.48318E-05-3.12140E-05 2.23162E-06 2.01418E-18 1.27403E-19
 -1      2672 1.33277E-04-5.66673E-05-3.32728E-05 1.07629E-05 4.68436E-19-3.45727E-18
 -1      2673 1.26423E-04-5.82681E-05-2.89534E-05 1.92627E-05-4.71374E-19-2.69854E-18
 -1      2674 9.65140E-05-2.21079E-05-3.18925E-05 4.68661E-06 2.34136E-18-1.55947E-19
 -1      2675 1.31520E-04-3.29877E-05-4.25835E-05 1.12993E-05 2.72215E-18 1.13820E-18
 -1      2676 1.28272E-04-2.22665E-05-4.61167E-05 1.14246E-05 3.94611E-18 1.01347E-18
 -1      2677 9.67056E-05-2.47185E-05-3.08301E-05 2.99784E-06-1.28248E-18-1.24742E-18
 -1      2678 9.68297E-05-2.52433E-05-3.06766E-05 4.57585E-06-9.87224E-19-1.12935E-18
 -1      2679 9.68065E-05-2.56189E-05-3.04945E-05 6.00236E-06-8.73338E-19-1.01553E-18
 -1      2680 9.70657E-05-2.60201E-05-3.04383E-05 7.28260E-06-6.22062E-19-1.02125E-18
 -1      2681 9.54764E-05-2.41489E-05-3.05729E-05 5.22933E-06-1.04316E-18-1.30947E-18
 -1      2682 9.70489E-05-2.63133E-05-3.03060E-05 8.52656E-06-4.76918E-19-1.00855E-18
 -1      2683 9.75194E-05-2.67792E-05-3.03031E-05 9.57685E-06-4.28211E-19-9.91008E-19
 -1      2684 9.54409E-05-2.49553E-05-3.02145E-05 7.97717E-06-6.43048E-19-1.25530E-18
 -1      2685 9.76467E-05-2.71953E-05-3.01840E-05 1.06791E-05-3.36568E-19-8.50156E-19
 -1      2686 9.84245E-05-2.79221E-05-3.01985E-05 1.14890E-05-3.12240E-19-8.53422E-19
 -1      2687 9.55443E-05-2.57848E-05-2.99081E-05 1.03955E-05-3.57893E-19-1.32177E-18
 -1      2688 9.88958E-05-2.87026E-05-3.00643E-05 1.24426E-05-1.93595E-19-7.32831E-19
 -1      2689 1.00145E-04-2.99344E-05-3.00727E-05 1.29099E-05-7.14113E-20-7.74964E-19
 -1      2690 9.61031E-05-2.71210E-05-2.95874E-05 1.25464E-05-1.58735E-19-1.00673E-18
 -1      2691 1.01288E-04-3.13845E-05-2.99162E-05 1.36173E-05 2.42742E-19-3.55067E-19
 -1      2692 1.03248E-04-3.33926E-05-2.99241E-05 1.35224E-05 5.79271E-19-1.63317E-19
 -1      2693 9.76236E-05-2.95730E-05-2.92141E-05 1.43867E-05 3.77227E-19-7.75359E-19
 -1      2694 1.05548E-04-3.58256E-05-2.97940E-05 1.37003E-05 7.52520E-19 1.26252E-19
 -1      2695 1.08448E-04-3.87422E-05-2.98707E-05 1.26746E-05 7.56142E-19 3.27116E-19
 -1      2696 1.00909E-04-3.38621E-05-2.88252E-05 1.56453E-05 8.86989E-19 3.01358E-19
 -1      2697 1.12418E-04-4.22368E-05-2.99340E-05 1.17412E-05 1.13503E-18 8.11788E-19
 -1      2698 1.16200E-04-4.56520E-05-3.02672E-05 9.29889E-06 1.34191E-18 1.18132E-18
 -1      2699 1.06982E-04-4.04912E-05-2.86381E-05 1.55504E-05 1.35381E-18 9.96872E-19
 -1      2700 1.21936E-04-4.93549E-05-3.09251E-05 6.22194E-06 1.56281E-18 1.84115E-18
 -1      2701 1.25663E-04-5.14966E-05-3.18760E-05 2.14688E-06 1.40991E-18 2.36273E-18
 -1      2702 1.16670E-04-4.89760E-05-2.92174E-05 1.26787E-05 1.79690E-18 1.57561E-18
 -1      2703 1.25809E-04-1.41836E-05-4.85249E-05-4.47772E-07-6.11748E-18-1.77821E-18
 -1      2704 1.26632E-04-1.62614E-05-4.79715E-05 7.67275E-06-5.41953E-18-2.82853E-18
 -1      2705 1.29911E-04-2.12279E-05-4.70441E-05 1.39942E-05-4.44819E-18-3.57395E-18
 -1      2706 1.32325E-04-2.99455E-05-4.46795E-05 1.69224E-05-2.82210E-18-3.68968E-18
 -1      2707 1.34635E-04-4.24887E-05-3.94884E-05 1.55852E-05-8.68791E-19-4.34898E-18
 -1      2708 1.35005E-04-4.92165E-05-3.69014E-05 1.19372E-05 3.49742E-19-3.87851E-18
 -1      2709 1.30599E-04-5.13709E-05-3.40704E-05 5.79584E-06 1.43896E-18-3.27332E-18
 -1      2710 1.28031E-04-5.17929E-05-3.26034E-05 1.01964E-06 2.68614E-18-2.75914E-18
 -1      2711 1.34985E-04-5.34066E-05-3.52188E-05 5.11235E-06 1.29269E-18-3.26955E-18
 -1      2712 1.22141E-04-4.92854E-05-3.13133E-05-3.77588E-06 2.97732E-18-2.02350E-18
 -1      2713 1.18380E-04-4.64329E-05-3.06869E-05-7.28083E-06 2.59410E-18-1.69110E-18
 -1      2714 1.24438E-04-5.25768E-05-3.08999E-05-5.69941E-06 2.98050E-18-1.96889E-18
 -1      2715 1.13369E-04-4.27244E-05-3.03221E-05-9.51579E-06 2.27252E-18-1.21184E-18
 -1      2716 1.10059E-04-3.94603E-05-3.01342E-05-1.13119E-05 2.24895E-18-1.14557E-18
 -1      2717 1.13368E-04-4.51993E-05-2.93148E-05-1.19599E-05 2.62517E-18-9.29063E-19
 -1      2718 1.06772E-04-3.64771E-05-3.01434E-05-1.19142E-05 1.29665E-18-8.91248E-19
 -1      2719 1.04343E-04-3.39518E-05-3.01060E-05-1.25039E-05 4.99195E-19-8.73379E-19
 -1      2720 1.05346E-04-3.77572E-05-2.90720E-05-1.39984E-05 1.67150E-18-1.31667E-18
 -1      2721 1.02519E-04-3.20313E-05-3.02054E-05-1.21992E-05 1.53955E-19-1.22136E-18
 -1      2722 1.00908E-04-3.04268E-05-3.01799E-05-1.20710E-05-1.16662E-19-1.75760E-18
 -1      2723 1.00359E-04-3.22079E-05-2.92712E-05-1.37585E-05 5.68922E-20-9.73135E-19
 -1      2724 1.00002E-04-2.93790E-05-3.02560E-05-1.14025E-05-3.13170E-19-2.06599E-18
 -1      2725 9.89573E-05-2.84777E-05-3.01983E-05-1.08947E-05 3.21096E-19-1.88682E-18
 -1      2726 9.77281E-05-2.89219E-05-2.95178E-05-1.25553E-05-2.66169E-19-1.17269E-18
 -1      2727 9.85567E-05-2.80048E-05-3.02229E-05-1.01000E-05-1.43430E-19-2.22270E-18
 -1      2728 9.78568E-05-2.75567E-05-3.01308E-05-9.42668E-06-5.88120E-19-2.12025E-18
 -1      2729 9.64584E-05-2.72406E-05-2.96751E-05-1.09934E-05-1.51146E-19-2.03755E-18
 -1      2730 9.77044E-05-2.74166E-05-3.01089E-05-8.62513E-06-2.12705E-19-1.95874E-18
 -1      2731 9.72058E-05-2.72315E-05-2.99951E-05-7.91449E-06 1.13419E-20-2.49664E-18
 -1      2732 9.59084E-05-2.65596E-05-2.97223E-05-9.35852E-06-5.47136E-19-1.98386E-18
 -1      2733 9.71594E-05-2.72622E-05-2.99417E-05-7.16583E-06 9.68240E-20-2.69703E-18
 -1      2734 9.67813E-05-2.72172E-05-2.98205E-05-6.49010E-06 1.01402E-19-2.31074E-18
 -1      2735 9.56963E-05-2.64351E-05-2.96814E-05-7.79186E-06 9.22692E-20-2.93305E-18
 -1      2736 9.67708E-05-2.73224E-05-2.97503E-05-5.82272E-06 1.73609E-19-1.33846E-18
 -1      2737 9.64711E-05-2.73453E-05-2.96324E-05-5.21808E-06 1.70982E-20-1.27771E-18
 -1      2738 9.56208E-05-2.65856E-05-2.95840E-05-6.36476E-06 5.67380E-19-2.34466E-18
 -1      2739 9.64665E-05-2.74729E-05-2.95567E-05-4.64243E-06-3.23218E-19-1.56160E-18
 -1      2740 9.62238E-05-2.75241E-05-2.94489E-05-4.12280E-06-1.53975E-19-1.26251E-18
 -1      2741 9.55876E-05-2.68486E-05-2.94576E-05-5.11003E-06-1.28407E-19-1.78456E-18
 -1      2742 9.62151E-05-2.76485E-05-2.93752E-05-3.63875E-06-3.31346E-19-6.00401E-19
 -1      2743 9.60177E-05-2.77077E-05-2.92809E-05-3.20502E-06 3.31017E-19-5.92778E-19
 -1      2744 9.55590E-05-2.71373E-05-2.93224E-05-4.03687E-06-3.26695E-21-1.06874E-18
 -1      2745 9.60036E-05-2.78181E-05-2.92135E-05-2.80639E-06 3.50431E-19-8.79581E-19
 -1      2746 9.58443E-05-2.78754E-05-2.91337E-05-2.45244E-06-3.12927E-19-8.53695E-19
 -1      2747 9.55243E-05-2.74099E-05-2.91914E-05-3.13961E-06-9.48399E-20-4.11207E-19
 -1      2748 9.58268E-05-2.79686E-05-2.90747E-05-2.12999E-06 1.85409E-19-5.58312E-19
 -1      2749 9.56999E-05-2.80201E-05-2.90089E-05-1.84648E-06 1.07010E-18-1.71293E-19
 -1      2750 9.54839E-05-2.76491E-05-2.90722E-05-2.40387E-06 1.23075E-19-7.90735E-19
 -1      2751 9.56812E-05-2.80963E-05-2.89589E-05-1.58985E-06 9.84501E-19-4.73069E-19
 -1      2752 9.55818E-05-2.81407E-05-2.89058E-05-1.36646E-06 6.69214E-19 5.41001E-19
 -1      2753 9.54415E-05-2.78505E-05-2.89680E-05-1.81090E-06 7.63974E-19-1.00629E-18
 -1      2754 9.55637E-05-2.82018E-05-2.88645E-05-1.16530E-06-2.28501E-19 8.30794E-19
 -1      2755 9.54873E-05-2.82391E-05-2.88226E-05-9.91960E-07-3.90619E-19-1.42647E-19
 -1      2756 9.54006E-05-2.80156E-05-2.88799E-05-1.34057E-06 1.22233E-19-7.03975E-19
 -1      2757 9.54711E-05-2.82874E-05-2.87892E-05-8.36607E-07-3.04335E-19-3.02189E-19
 -1      2758 9.54135E-05-2.83182E-05-2.87566E-05-7.04091E-07-2.28124E-19-2.66808E-19
 -1      2759 9.53637E-05-2.81485E-05-2.88072E-05-9.73177E-07-4.38315E-19-8.22338E-19
 -1      2760 9.53998E-05-2.83558E-05-2.87301E-05-5.85906E-07 8.49073E-20 4.87438E-19
 -1      2761 9.53573E-05-2.83809E-05-2.87053E-05-4.86126E-07 3.75756E-19 1.42485E-18
 -1      2762 9.53322E-05-2.82538E-05-2.87485E-05-6.90473E-07 6.48943E-19 9.20735E-19
 -1      2763 9.53461E-05-2.84099E-05-2.86847E-05-3.97612E-07-3.43673E-19 1.15013E-18
 -1      2764 9.53156E-05-2.84300E-05-2.86660E-05-3.23676E-07-2.81168E-19 4.77695E-19
 -1      2765 9.53063E-05-2.83363E-05-2.87020E-05-4.76244E-07-1.01708E-19 1.02797E-18
 -1      2766 9.53068E-05-2.84522E-05-2.86503E-05-2.58488E-07 4.98364E-19-2.98679E-20
 -1      2767 9.52854E-05-2.84681E-05-2.86365E-05-2.04658E-07 2.26381E-19-6.14267E-19
 -1      2768 9.52859E-05-2.84001E-05-2.86659E-05-3.16490E-07-6.77763E-19 6.23204E-19
 -1      2769 9.52787E-05-2.84848E-05-2.86247E-05-1.57541E-07-4.40349E-19-4.69546E-19
 -1      2770 9.52644E-05-2.84974E-05-2.86148E-05-1.19131E-07-1.99493E-19 2.74614E-19
 -1      2771 9.52702E-05-2.84488E-05-2.86382E-05-1.99422E-07 1.16927E-19-2.17638E-19
 -1      2772 9.52595E-05-2.85098E-05-2.86061E-05-8.58109E-08 7.79281E-19 1.19751E-18
 -1      2773 9.52504E-05-2.85196E-05-2.85992E-05-5.90643E-08 1.17179E-18 2.26552E-18
 -1      2774 9.52587E-05-2.84856E-05-2.86174E-05-1.15308E-07 9.56966E-19 7.46184E-19
 -1      2775 9.52469E-05-2.85287E-05-2.85928E-05-3.61362E-08 7.84423E-19 3.01291E-18
 -1      2776 9.52415E-05-2.85364E-05-2.85881E-05-1.81053E-08 3.30812E-19 3.57811E-18
 -1      2777 9.52504E-05-2.85130E-05-2.86020E-05-5.62808E-08 1.56153E-18 1.76800E-18
 -1      2778 9.52391E-05-2.85431E-05-2.85836E-05-2.91447E-09-5.59940E-19 3.76746E-18
 -1      2779 9.52365E-05-2.85490E-05-2.85805E-05 8.65705E-09-6.38743E-20 3.76481E-18
 -1      2780 9.52448E-05-2.85333E-05-2.85909E-05-1.61095E-08-1.94184E-19 2.29078E-18
 -1      2781 9.52350E-05-2.85540E-05-2.85773E-05 1.81197E-08-2.46595E-20 2.42504E-18
 -1      2782 9.52343E-05-2.85588E-05-2.85753E-05 2.49001E-08-9.92920E-20 1.55440E-18
 -1      2783 9.52412E-05-2.85484E-05-2.85828E-05 1.00181E-08-8.44196E-19 2.54834E-18
 -1      2784 9.52335E-05-2.85626E-05-2.85730E-05 3.01143E-08-1.77644E-19 1.08008E-18
 -1      2785 9.52340E-05-2.85667E-05-2.85718E-05 3.32932E-08-2.17534E-19 1.26527E-18
 -1      2786 9.52393E-05-2.85597E-05-2.85771E-05 2.56991E-08-8.75039E-19 6.56200E-19
 -1      2787 9.52339E-05-2.85700E-05-2.85701E-05 3.52399E-08-4.32906E-19 1.08484E-18
 -1      2788 9.52351E-05-2.85736E-05-2.85693E-05 3.55182E-08 3.40503E-19 1.50414E-18
 -1      2789 9.52386E-05-2.85689E-05-2.85728E-05 3.35856E-08-7.09926E-19 1.41080E-18
 -1      2790 1.00936E-04-3.08847E-05-3.00343E-05-5.25149E-06 3.08648E-19-1.29725E-19
 -1      2791 1.00248E-04-3.01879E-05-3.00006E-05-5.30036E-06 4.16620E-19-5.62082E-20
 -1      2792 1.19906E-04-5.93059E-05-2.64516E-05 2.46962E-05 2.05702E-18 8.19650E-19
 -1      2793 1.04392E-04-5.28639E-05-2.16367E-05 3.22896E-05 2.44263E-18-2.29546E-19
 -1      2794 9.96320E-05-2.95396E-05-3.00449E-05-5.03196E-06 4.70069E-19-2.58325E-19
 -1      2795 9.91119E-05-2.89420E-05-3.00460E-05-4.68196E-06 5.52565E-19-2.50811E-19
 -1      2796 9.94231E-05-2.96159E-05-2.99394E-05-5.68136E-06 4.04810E-19-5.67219E-19
 -1      2797 1.04561E-04-3.42426E-05-3.01701E-05-2.95835E-06-1.80699E-19 3.80490E-19
 -1      2798 1.03740E-04-3.34158E-05-3.01093E-05-3.93686E-06-4.65603E-20 3.63030E-19
 -1      2799 1.06546E-04-3.58446E-05-3.03416E-05-2.56977E-07-6.23661E-20 2.29005E-19
 -1      2800 1.05867E-04-3.51960E-05-3.02596E-05-1.70430E-06-3.11365E-19 4.35159E-19
 -1      2801 1.05426E-04-3.55524E-05-2.99669E-05-3.30601E-06-2.08329E-19-1.90967E-19
 -1      2802 1.08095E-04-3.66516E-05-3.06554E-05 3.30806E-06 3.69869E-19 4.66162E-19
 -1      2803 1.07795E-04-3.65294E-05-3.05271E-05 1.56916E-06 2.58297E-19 5.34703E-19
 -1      2804 1.08038E-04-3.74601E-05-3.02555E-05-2.42534E-07 6.68478E-20 1.57038E-20
 -1      2805 1.08541E-04-3.58290E-05-3.11768E-05 7.01960E-06 4.35262E-19 1.03997E-18
 -1      2806 1.08857E-04-3.66132E-05-3.09803E-05 5.43033E-06 2.09957E-19 9.39981E-19
 -1      2807 1.10130E-04-3.81767E-05-3.08217E-05 3.83773E-06 1.80078E-19 6.20652E-19
 -1      2808 1.07364E-04-3.28299E-05-3.19109E-05 9.51527E-06 1.14614E-18 1.45732E-18
 -1      2809 1.08373E-04-3.46646E-05-3.16473E-05 8.76411E-06 9.24920E-19 1.48374E-18
 -1      2810 1.10789E-04-3.66954E-05-3.17265E-05 7.96196E-06 4.28817E-19 1.07094E-18
 -1      2811 1.04767E-04-2.81842E-05-3.27487E-05 9.05714E-06 1.11338E-18 1.18885E-18
 -1      2812 1.06116E-04-3.05591E-05-3.24692E-05 9.84509E-06 1.21002E-18 1.37069E-18
 -1      2813 1.09318E-04-3.24173E-05-3.29126E-05 1.04230E-05 1.09855E-18 1.71329E-18
 -1      2814 1.02173E-04-2.40712E-05-3.34191E-05 4.78587E-06 1.25995E-18 1.10685E-18
 -1      2815 1.03130E-04-2.57738E-05-3.32295E-05 7.20123E-06 1.16982E-18 1.09111E-18
 -1      2816 1.06266E-04-2.66256E-05-3.41285E-05 9.09758E-06 1.34524E-18 1.38945E-18
 -1      2817 1.01426E-04-2.29788E-05-3.36311E-05-1.86988E-06 2.08034E-18 2.90101E-19
 -1      2818 1.01414E-04-2.30093E-05-3.36168E-05 1.26480E-06 1.69913E-18 7.65717E-19
 -1      2819 1.03744E-04-2.23893E-05-3.49201E-05 3.47151E-06 1.72891E-18 1.05517E-18
 -1      2820 1.03224E-04-2.57151E-05-3.32898E-05-7.89317E-06 1.61467E-18 4.02607E-19
 -1      2821 1.02197E-04-2.40063E-05-3.34541E-05-5.45033E-06 1.85536E-18 1.63441E-19
 -1      2822 1.03735E-04-2.23145E-05-3.49432E-05-4.14935E-06 1.90280E-18 1.44760E-19
 -1      2823 1.06276E-04-3.04639E-05-3.25779E-05-1.06167E-05 8.72468E-19 3.25353E-19
 -1      2824 1.04867E-04-2.80999E-05-3.28318E-05-9.77796E-06 1.56134E-18 4.98032E-19
 -1      2825 1.06304E-04-2.65405E-05-3.41877E-05-9.85449E-06 1.50403E-18 4.09789E-19
 -1      2826 1.08625E-04-3.45701E-05-3.17933E-05-9.68383E-06 4.75712E-19-4.76200E-19
 -1      2827 1.07546E-04-3.27155E-05-3.20356E-05-1.03635E-05 7.53307E-19 2.73243E-20
 -1      2828 1.09372E-04-3.22540E-05-3.30123E-05-1.13021E-05 1.06205E-18 4.42260E-20
 -1      2829 1.09251E-04-3.65842E-05-3.11567E-05-6.47660E-06 6.38645E-19-1.21412E-18
 -1      2830 1.08843E-04-3.57592E-05-3.13322E-05-8.00967E-06 3.31815E-19-9.12234E-19
 -1      2831 1.10902E-04-3.64912E-05-3.18437E-05-8.99599E-06 1.07473E-18-6.74394E-19
 -1      2832 1.08307E-04-3.65709E-05-3.07302E-05-2.69573E-06 2.90511E-19-5.28267E-19
 -1      2833 1.08519E-04-3.66483E-05-3.08401E-05-4.39752E-06 8.01265E-19-9.18740E-19
 -1      2834 1.10340E-04-3.80713E-05-3.09526E-05-4.95365E-06 5.36271E-19-8.60307E-19
 -1      2835 1.06476E-04-3.53165E-05-3.04713E-05 5.44796E-07 6.10899E-19-9.30203E-19
 -1      2836 1.07079E-04-3.59149E-05-3.05427E-05-8.89705E-07 5.26110E-19-1.12108E-18
 -1      2837 1.08308E-04-3.74253E-05-3.03862E-05-9.45307E-07 7.69439E-19-2.11641E-19
 -1      2838 1.04406E-04-3.36316E-05-3.03063E-05 2.81318E-06-1.09241E-19-9.92214E-19
 -1      2839 1.05172E-04-3.43975E-05-3.03676E-05 1.81086E-06 4.50739E-19-1.10322E-18
 -1      2840 1.05722E-04-3.55997E-05-3.00723E-05 2.12724E-06 7.17543E-19-8.76798E-19
 -1      2841 1.02484E-04-3.20295E-05-3.01742E-05 4.11956E-06-5.53159E-19-8.44055E-19
 -1      2842 1.03260E-04-3.27490E-05-3.02431E-05 3.54367E-06-6.17958E-19-8.99964E-19
 -1      2843 1.03244E-04-3.35118E-05-2.99068E-05 4.07279E-06-2.22033E-19-5.28044E-19
 -1      2844 1.00861E-04-3.07344E-05-3.00400E-05 4.65882E-06-8.73920E-19-4.88047E-19
 -1      2845 1.01573E-04-3.13176E-05-3.01225E-05 4.42644E-06-2.66548E-19-6.66937E-19
 -1      2846 1.01176E-04-3.16719E-05-2.98060E-05 5.04872E-06-5.47696E-19-7.97867E-19
 -1      2847 9.95562E-05-2.97884E-05-2.98916E-05 4.66121E-06-1.53614E-18-7.19973E-20
 -1      2848 1.00175E-04-3.02200E-05-2.99858E-05 4.67143E-06-1.27408E-18-2.49308E-19
 -1      2849 9.95772E-05-3.02646E-05-2.97193E-05 5.31294E-06-1.10994E-18-5.44808E-19
 -1      2850 9.85317E-05-2.91486E-05-2.97306E-05 4.32916E-06 1.22152E-20-5.18027E-19
 -1      2851 9.90545E-05-2.94476E-05-2.98308E-05 4.49070E-06-3.41754E-19-1.79834E-19
 -1      2852 9.83902E-05-2.92903E-05-2.96243E-05 5.10849E-06-7.74753E-19-7.67500E-19
 -1      2853 9.77354E-05-2.87453E-05-2.95648E-05 3.81858E-06-2.63670E-19-2.01132E-19
 -1      2854 9.81687E-05-2.89412E-05-2.96647E-05 4.06016E-06-2.38277E-19-1.62472E-20
 -1      2855 9.75271E-05-2.86730E-05-2.95161E-05 4.62996E-06-2.28672E-19-2.92827E-19
 -1      2856 9.71187E-05-2.85105E-05-2.94027E-05 3.23904E-06-8.80251E-19-4.21787E-19
 -1      2857 9.74728E-05-2.86317E-05-2.94971E-05 3.51026E-06-4.77416E-19-3.69127E-19
 -1      2858 9.69033E-05-2.83195E-05-2.93983E-05 4.01926E-06-6.68990E-19 1.14458E-19
 -1      2859 9.66419E-05-2.83885E-05-2.92516E-05 2.66156E-06-1.38930E-18-1.57614E-19
 -1      2860 9.69274E-05-2.84584E-05-2.93369E-05 2.92983E-06-1.21155E-18-3.78352E-19
 -1      2861 9.64515E-05-2.81460E-05-2.92777E-05 3.37259E-06-1.00924E-18-4.14082E-19
 -1      2862 9.62742E-05-2.83381E-05-2.91160E-05 2.12794E-06-3.44163E-19-8.48747E-19
 -1      2863 9.65013E-05-2.83743E-05-2.91904E-05 2.37428E-06-7.96258E-19-4.76703E-19
 -1      2864 9.61219E-05-2.80873E-05-2.91609E-05 2.75047E-06-8.76805E-19-1.36678E-18
 -1      2865 9.59919E-05-2.83306E-05-2.89984E-05 1.65936E-06 3.56216E-19 9.00019E-20
 -1      2866 9.61701E-05-2.83454E-05-2.90613E-05 1.87440E-06 2.36675E-19-1.90417E-19
 -1      2867 9.58797E-05-2.80964E-05-2.90526E-05 2.18718E-06-4.10340E-19-1.67422E-18
 -1      2868 9.57768E-05-2.83467E-05-2.88993E-05 1.26323E-06-2.22072E-19 6.87005E-19
 -1      2869 9.59144E-05-2.83487E-05-2.89511E-05 1.44397E-06-1.05680E-19 8.57753E-19
 -1      2870 9.57007E-05-2.81415E-05-2.89561E-05 1.69877E-06-1.35190E-19-3.67563E-19
 -1      2871 9.56147E-05-2.83741E-05-2.88179E-05 9.38432E-07 9.01472E-19 1.20028E-18
 -1      2872 9.57191E-05-2.83690E-05-2.88595E-05 1.08577E-06 3.57694E-19 1.39591E-18
 -1      2873 9.55680E-05-2.82024E-05-2.88728E-05 1.28929E-06-1.44502E-19 8.73949E-20
 -1      2874 9.54939E-05-2.84054E-05-2.87527E-05 6.78994E-07 1.19955E-18 1.64871E-18
 -1      2875 9.55717E-05-2.83968E-05-2.87853E-05 7.95988E-07 1.44022E-18 1.79463E-18
 -1      2876 9.54698E-05-2.82667E-05-2.88029E-05 9.55452E-07 9.97543E-19 2.13320E-18
 -1      2877 9.54055E-05-2.84362E-05-2.87015E-05 4.76572E-07 1.35044E-18 1.74844E-18
 -1      2878 9.54622E-05-2.84263E-05-2.87265E-05 5.67297E-07 1.51399E-18 1.90074E-18
 -1      2879 9.53975E-05-2.83274E-05-2.87456E-05 6.89836E-07 1.30304E-18 2.51294E-18
 -1      2880 9.53420E-05-2.84642E-05-2.86622E-05 3.22103E-07 1.32865E-18 6.50749E-19
 -1      2881 9.53824E-05-2.84544E-05-2.86810E-05 3.90887E-07 1.47550E-18 1.47167E-18
 -1      2882 9.53447E-05-2.83812E-05-2.86997E-05 4.83177E-07 1.59815E-18 1.69717E-18
 -1      2883 9.52976E-05-2.84884E-05-2.86327E-05 2.06788E-07 4.83040E-19 1.00346E-18
 -1      2884 9.53254E-05-2.84794E-05-2.86464E-05 2.57775E-07 9.79912E-19 1.16837E-18
 -1      2885 9.53066E-05-2.84266E-05-2.86637E-05 3.25796E-07 7.70881E-19 1.48570E-18
 -1      2886 9.52675E-05-2.85087E-05-2.86110E-05 1.22653E-07 3.42066E-19 2.31419E-19
 -1      2887 9.52859E-05-2.85007E-05-2.86208E-05 1.59556E-07 2.50221E-19 5.62441E-19
 -1      2888 9.52798E-05-2.84638E-05-2.86361E-05 2.08491E-07 5.14166E-19 1.72032E-18
 -1      2889 9.52481E-05-2.85251E-05-2.85956E-05 6.28073E-08 2.68117E-19 5.09726E-19
 -1      2890 9.52595E-05-2.85183E-05-2.86023E-05 8.88063E-08 2.97493E-19 6.26493E-19
 -1      2891 9.52613E-05-2.84933E-05-2.86154E-05 1.23017E-07 2.38887E-19 2.24954E-18
 -1      2892 9.52364E-05-2.85383E-05-2.85849E-05 2.15232E-08 9.72905E-19-5.36476E-19
 -1      2893 9.52428E-05-2.85326E-05-2.85894E-05 3.92349E-08 1.12138E-18-1.80841E-19
 -1      2894 9.52490E-05-2.85164E-05-2.86001E-05 6.23040E-08 9.05742E-19 1.22856E-18
 -1      2895 9.52303E-05-2.85488E-05-2.85778E-05-5.78869E-09 5.26009E-19-8.69937E-19
 -1      2896 9.52332E-05-2.85440E-05-2.85806E-05 5.70963E-09 5.21066E-19-1.20547E-18
 -1      2897 9.52413E-05-2.85341E-05-2.85891E-05 2.05075E-08 1.16689E-18-7.22440E-19
 -1      2898 9.52280E-05-2.85573E-05-2.85732E-05-2.26651E-08-1.49242E-18-1.00634E-18
 -1      2899 9.52285E-05-2.85532E-05-2.85748E-05-1.58051E-08-3.09756E-19-1.27713E-18
 -1      2900 9.52369E-05-2.85475E-05-2.85814E-05-7.03323E-09 3.03577E-19-1.36306E-18
 -1      2901 9.52284E-05-2.85643E-05-2.85703E-05-3.16928E-08 2.78410E-19-1.11420E-18
 -1      2902 9.52274E-05-2.85607E-05-2.85712E-05-2.83454E-08-1.30398E-18-5.78625E-19
 -1      2903 9.52349E-05-2.85580E-05-2.85760E-05-2.38985E-08-1.03542E-18-3.60524E-18
 -1      2904 9.52305E-05-2.85706E-05-2.85685E-05-3.45797E-08-6.91779E-19-4.44147E-19
 -1      2905 9.52285E-05-2.85674E-05-2.85690E-05-3.40780E-08-8.92362E-21-1.75871E-19
 -1      2906 9.52347E-05-2.85664E-05-2.85722E-05-3.27247E-08-9.16044E-19-3.33666E-18
 -1      2907 9.52343E-05-2.85765E-05-2.85677E-05-3.31210E-08-8.79239E-19 6.34582E-19
 -1      2908 9.52319E-05-2.85733E-05-2.85680E-05-3.48012E-08-7.51214E-19-3.40972E-19
 -1      2909 9.52368E-05-2.85736E-05-2.85700E-05-3.53314E-08-1.51350E-18-2.55525E-18
 -1      2910 9.52398E-05-2.85803E-05-2.85683E-05-3.41928E-08-2.08822E-18-3.53530E-18
 -1      2911 1.13845E-04-5.67747E-05-2.47020E-05 3.05655E-05-8.10505E-19-2.08460E-18
 -1      2912 9.72244E-05-5.04728E-05-1.96420E-05 3.70269E-05-1.34085E-18-1.69916E-18
 -1      2913 9.52547E-05-2.85866E-05-2.85720E-05-2.49153E-09 9.46939E-19-1.42103E-18
 -1      2914 9.52545E-05-2.85864E-05-2.85720E-05-6.79597E-09 2.59786E-18-8.61016E-19
 -1      2915 9.62625E-05-5.07490E-05-1.90596E-05-3.53539E-05 3.02179E-18 4.49208E-18
 -1      2916 1.10839E-04-5.70644E-05-2.33048E-05-3.10150E-05 3.25388E-18 3.01448E-18
 -1      2917 9.52528E-05-2.85862E-05-2.85714E-05-1.92613E-08 2.45630E-18 1.12901E-18
 -1      2918 9.52515E-05-2.85852E-05-2.85713E-05-2.28838E-08 5.71744E-19-5.56286E-19
 -1      2919 9.52547E-05-2.85866E-05-2.85720E-05 6.23009E-09-2.46439E-19-1.59798E-18
 -1      2920 9.52548E-05-2.85867E-05-2.85720E-05 1.89035E-09 3.82703E-20-1.27034E-18
 -1      2921 9.52550E-05-2.85781E-05-2.85757E-05-3.62464E-10 1.17481E-18-2.07761E-18
 -1      2922 9.52542E-05-2.85865E-05-2.85719E-05-1.10899E-08 2.31048E-18 2.94657E-19
 -1      2923 9.52535E-05-2.85860E-05-2.85718E-05-1.51847E-08 2.50295E-18 1.23643E-18
 -1      2924 9.52534E-05-2.85787E-05-2.85749E-05-1.72505E-08 1.81420E-18 1.28107E-18
 -1      2925 9.52545E-05-2.85782E-05-2.85755E-05-8.94601E-09 2.59047E-18-7.45912E-19
 -1      2926 9.52539E-05-2.85864E-05-2.85718E-05 1.46573E-08-7.87389E-19-2.59758E-19
 -1      2927 9.52545E-05-2.85869E-05-2.85719E-05 1.05372E-08-1.18405E-18-7.78116E-19
 -1      2928 9.52548E-05-2.85785E-05-2.85755E-05 8.23863E-09-1.50090E-21-1.58721E-18
 -1      2929 9.52520E-05-2.85857E-05-2.85713E-05 2.26429E-08-2.41124E-19 2.46451E-19
 -1      2930 9.52533E-05-2.85867E-05-2.85714E-05 1.88761E-08-6.46732E-19 2.10032E-19
 -1      2931 9.52539E-05-2.85792E-05-2.85749E-05 1.67282E-08-8.28654E-19-4.19306E-19
 -1      2932 9.52485E-05-2.85842E-05-2.85704E-05 2.92820E-08-1.08638E-18 2.74238E-18
 -1      2933 9.52507E-05-2.85858E-05-2.85707E-05 2.63636E-08-4.18082E-19 3.06712E-18
 -1      2934 9.52517E-05-2.85796E-05-2.85737E-05 2.47316E-08-1.15313E-19 2.04014E-18
 -1      2935 9.31270E-05-1.70576E-05-3.25967E-05-5.20182E-06-2.12143E-18-1.93741E-18
 -1      2936 3.31301E-05-1.50519E-05-7.18676E-06-1.32576E-05-1.20361E-18 3.25430E-18
 -1      2937 4.40143E-05-2.21788E-05-9.04603E-06-2.76073E-05 2.18005E-19 4.02785E-18
 -1      2938 3.29275E-05-1.23719E-05-8.29329E-06 8.56073E-06-2.15096E-18 4.89882E-18
 -1      2939 3.20108E-05-1.23056E-05-7.81730E-06-2.23022E-06-1.62344E-18 3.02221E-18
 -1      2940 4.97726E-05-2.48113E-05-1.04175E-05 3.34614E-05-2.91549E-18 4.59748E-18
 -1      2941 3.78777E-05-1.67413E-05-8.50638E-06 2.11905E-05-3.16536E-18 6.39086E-18
 -1      2942 1.41717E-04-5.41063E-05-3.76430E-05 3.54598E-06-1.32084E-20-2.60632E-18
 -1      2943 1.42694E-04-4.81621E-05-4.11900E-05 9.84720E-06-1.10617E-18-3.34017E-18
 -1      2944 3.53088E-05-1.43931E-05-8.56382E-06 1.26333E-05 1.44763E-18-5.92500E-18
 -1      2945 3.26200E-05-1.25810E-05-8.02274E-06-1.17405E-06 7.35053E-19-6.07492E-18
 -1      2946 1.27412E-04-8.48941E-06-5.15810E-05-1.70040E-06 5.23043E-18-8.38553E-19
 -1      2947 1.27213E-04-1.11821E-05-5.03656E-05-6.79580E-06 4.79696E-18-1.48289E-18
 -1      2948 8.36440E-05-4.43122E-05-1.67506E-05 4.09496E-05-2.00472E-18-2.54057E-19
 -1      2949 6.81338E-05-3.52414E-05-1.35709E-05 3.86798E-05-3.04106E-18 1.36150E-18
 -1      2950 9.58592E-05-4.73573E-05-2.04042E-05 3.46145E-05-1.79470E-18-1.02666E-18
 -1      2951 9.87085E-05-2.83795E-05-3.01423E-05-4.03468E-06 6.18829E-19-2.42563E-19
 -1      2952 9.83810E-05-2.78189E-05-3.02090E-05-3.29031E-06 7.90818E-19-2.36036E-19
 -1      2953 9.83844E-05-2.81639E-05-3.01135E-05-4.65261E-06 5.87652E-19-7.05676E-19
 -1      2954 1.02609E-04-3.24803E-05-3.00776E-05-4.60331E-06 4.68300E-20 2.38436E-19
 -1      2955 1.01807E-04-3.16792E-05-3.00277E-05-5.09400E-06 2.33217E-19 6.03110E-20
 -1      2956 1.00929E-04-3.13197E-05-2.98569E-05-5.89072E-06 1.47810E-19-2.64100E-19
 -1      2957 1.02953E-04-3.33467E-05-2.98569E-05-5.15767E-06-1.64603E-19 9.67679E-20
 -1      2958 9.64415E-05-2.31152E-05-3.14115E-05-6.59799E-07-1.79594E-18-1.26275E-18
 -1      2959 9.65823E-05-2.40201E-05-3.11022E-05 1.32445E-06-1.54921E-18-1.26872E-18
 -1      2960 9.53825E-05-2.29144E-05-3.10592E-05 2.04445E-06-1.40686E-18-1.43275E-18
 -1      2961 9.81184E-05-2.72222E-05-3.03846E-05-2.25566E-06 1.16519E-18-1.76144E-19
 -1      2962 9.79781E-05-2.65771E-05-3.05613E-05-1.05120E-06 1.44021E-18-3.74907E-20
 -1      2963 9.71457E-05-2.50259E-05-3.09127E-05-2.11960E-07 1.73243E-18-6.05599E-19
 -1      2964 9.76867E-05-2.67450E-05-3.04172E-05-2.84212E-06 1.10955E-18-6.16308E-19
 -1      2965 6.14297E-05-3.17907E-05-1.20714E-05-3.46490E-05 1.59147E-18 4.22796E-18
 -1      2966 7.89484E-05-4.23500E-05-1.55970E-05-3.84811E-05 2.46063E-18 4.90316E-18
 -1      2967 9.05267E-05-4.48466E-05-1.91255E-05-3.35752E-05 2.81363E-18 4.07952E-18
 -1      2968 1.29568E-04-1.71546E-05-4.87021E-05-8.63925E-06-6.22125E-18-3.93023E-19
 -1      2969 8.88599E-05-1.38052E-05-3.21835E-05 1.87197E-06 1.79058E-18-2.35948E-18
 -1      2970 8.78624E-05-1.29198E-05-3.21464E-05 1.23538E-06 1.43148E-18-2.61597E-18
 -1      2971 8.82251E-05-1.40049E-05-3.17920E-05 3.56088E-07 1.25618E-18-2.47672E-18
 -1      2972 9.03333E-05-1.60168E-05-3.18318E-05 1.15192E-06 1.61335E-18-2.03457E-18
 -1      2973 8.68584E-05-1.19118E-05-3.21480E-05-1.69437E-06-7.16831E-19-2.94551E-18
 -1      2974 8.77894E-05-1.27155E-05-3.21953E-05-2.13755E-06-1.02923E-18-2.83319E-18
 -1      2975 1.25964E-04-1.33195E-05-4.87875E-05 8.86586E-06 4.71988E-18 7.23525E-19
 -1      2976 1.26804E-04-9.48007E-06-5.09009E-05 3.16667E-06 5.28633E-18-1.29120E-19
 -1      2977 1.20741E-04-9.97542E-06-4.77594E-05 1.15621E-06 4.70537E-18-4.82584E-19
 -1      2978 9.52370E-05-2.85784E-05-2.85680E-05 3.41892E-08 1.94128E-18 3.16715E-18
 -1      2979 9.52406E-05-2.85811E-05-2.85684E-05 3.42085E-08 1.27561E-18 3.38922E-18
 -1      2980 9.52359E-05-2.85760E-05-2.85685E-05 3.53475E-08 1.68687E-18 3.13205E-18
 -1      2981 1.36747E-04-4.26672E-05-4.08769E-05-6.59290E-06 3.23863E-18-4.41230E-18
 -1      2982 1.37120E-04-5.12687E-05-3.68368E-05 1.04479E-06 1.79518E-18-4.30452E-18
 -1      2983 1.32836E-04-5.34098E-05-3.40081E-05 2.98380E-06 6.52374E-19-3.97883E-18
 -1      2984 1.36428E-04-5.36254E-05-3.54155E-05-3.70772E-06-1.66813E-19 2.13241E-19
 -1      2985 1.35835E-04-4.54555E-05-3.91943E-05 5.12707E-06 8.99496E-19 8.03940E-19
 -1      2986 1.26291E-04-6.07295E-05-2.77837E-05-2.00199E-05 3.30518E-18 1.18468E-18
 -1      2987 1.37551E-04-6.10426E-05-3.32759E-05-9.80235E-06 1.50412E-18-1.03973E-18
 -1      2988 3.46286E-05-1.39926E-05-8.29942E-06-1.26579E-05-2.71209E-19-6.17233E-18
 -1      2989 4.08188E-05-1.79856E-05-9.25684E-06-2.39836E-05-7.64130E-19-5.91907E-18
 -1      2990 1.41221E-04-5.76569E-05-3.65470E-05-9.68915E-07-1.17531E-18 2.24061E-18
 -1      2991 1.33558E-04-5.94212E-05-3.13545E-05 9.42452E-06 6.86653E-19 2.10901E-18
 -1      2992 9.24016E-05-4.77915E-05-1.90482E-05 3.69861E-05 2.48159E-18-1.08013E-18
 -1      2993 7.78605E-05-3.94497E-05-1.59423E-05 3.66376E-05 3.12873E-18-2.60071E-18
 -1      2994 1.02823E-04-4.95142E-05-2.24605E-05 3.01976E-05 2.89151E-18-9.32530E-20
 -1      2995 5.87196E-05-2.85354E-05-1.27474E-05 3.35121E-05 2.66350E-18-3.90101E-18
 -1      2996 4.46853E-05-1.95978E-05-1.01155E-05 2.33923E-05 2.31081E-18-5.09152E-18
 -1      2997 9.44023E-05-4.91065E-05-1.90785E-05-3.80035E-05-2.39583E-18-2.81930E-18
 -1      2998 1.09540E-04-5.59450E-05-2.30315E-05-3.42718E-05-1.83467E-18-1.75331E-18
 -1      2999 1.21912E-04-5.86811E-05-2.68385E-05-2.49926E-05-1.51344E-18-8.94467E-19
 -1      3000 1.31533E-04-5.84876E-05-3.17998E-05-1.47152E-05-8.17599E-19-1.54319E-19
 -1      3001 1.17340E-04-5.65547E-05-2.58550E-05-2.54379E-05-2.09900E-18-1.03759E-18
 -1      3002 1.31591E-04-2.45770E-05-4.66889E-05-1.39609E-05-4.99728E-18 4.60574E-19
 -1      3003 1.35091E-04-3.17952E-05-4.46396E-05-1.57587E-05-4.30261E-18 1.45912E-18
 -1      3004 8.89574E-05-1.38376E-05-3.22275E-05-2.35236E-06-1.22623E-18-2.74093E-18
 -1      3005 9.02527E-05-1.50417E-05-3.22658E-05-2.87270E-06-1.55166E-18-2.54409E-18
 -1      3006 8.90591E-05-1.46795E-05-3.18556E-05-1.31729E-06-1.05705E-18-2.58590E-18
 -1      3007 8.59645E-05-1.19064E-05-3.17191E-05-6.36217E-07 3.52422E-19-2.75812E-18
 -1      3008 8.52444E-05-1.05042E-05-3.20482E-05-6.09675E-07 2.85523E-19-2.89140E-18
 -1      3009 8.53177E-05-1.05621E-05-3.20590E-05-9.97822E-07-3.42172E-20-2.89946E-18
 -1      3010 5.79882E-05-2.61393E-05-1.31057E-05-2.89366E-05 8.21834E-19 3.55542E-18
 -1      3011 1.19498E-04-5.64163E-05-2.68774E-05 2.22010E-05-1.05514E-18-2.69235E-18
 -1      3012 1.28228E-04-3.14166E-05-4.19112E-05-1.33094E-05 3.10109E-18-2.39234E-18
 -1      3013 1.34113E-04-3.74935E-05-4.16919E-05-1.04820E-05 3.18019E-18-3.36918E-18
 -1      3014 1.31221E-04-4.27955E-05-3.80543E-05-8.29525E-06 2.19524E-18-3.27489E-18
 -1      3015 9.56164E-05-2.12909E-05-3.18652E-05 3.72275E-06 2.28967E-18-6.65874E-19
 -1      3016 1.32089E-04-3.99373E-05-3.98076E-05 1.01516E-05 1.30872E-18 1.34514E-18
 -1      3017 1.24466E-04-3.25250E-05-3.95121E-05 1.32076E-05 1.85177E-18 1.53271E-18
 -1      3018 1.29864E-04-4.42321E-05-3.66182E-05 7.49414E-06 1.58475E-19 1.67781E-18
 -1      3019 1.29006E-04-5.58861E-05-3.16627E-05 5.62967E-06 1.27895E-18 2.26172E-18
 -1      3020 1.32019E-04-5.33351E-05-3.37374E-05-3.43225E-06 5.88820E-19 3.00646E-18
 -1      3021 1.20049E-04-5.78121E-05-2.63999E-05-2.17333E-05 3.49941E-18 8.68553E-19
 -1      3022 1.33058E-04-5.03091E-05-3.55231E-05-8.26419E-06-4.81644E-19 3.02682E-18
 -1      3023 1.37673E-04-4.18174E-05-4.15465E-05-1.44783E-05-2.70648E-18 2.15040E-18
 -1      3024 9.52396E-05-2.85759E-05-2.85702E-05 3.54340E-08 1.75763E-18 3.94777E-18
 -1      3025 4.77477E-05-1.68114E-05-1.26246E-05 1.68275E-05 1.97912E-18-4.97134E-18
 -1      3026 9.52433E-05-2.85816E-05-2.85693E-05-3.24892E-08-2.99570E-18-5.36552E-18
 -1      3027 9.52419E-05-2.85779E-05-2.85703E-05-3.38167E-08-3.41022E-18-5.53662E-18
 -1      3028 9.52464E-05-2.85839E-05-2.85696E-05-3.11949E-08-3.89064E-18-6.76079E-18
 -1      3029 9.21213E-05-1.69215E-05-3.22441E-05-3.13115E-06-1.75875E-18-2.22244E-18
 -1      3030 9.50001E-05-2.01082E-05-3.21201E-05-3.68460E-06-2.12369E-18-1.56319E-18
 -1      3031 9.57316E-05-2.18627E-05-3.16485E-05-1.65224E-06-1.89288E-18-1.36841E-18
 -1      3032 9.20692E-05-1.76711E-05-3.18621E-05-1.61725E-06-1.57318E-18-2.12921E-18
 -1      3033 4.28808E-05-1.47871E-05-1.14446E-05 1.45467E-05-2.26449E-18 5.04810E-18
 -1      3034 9.52440E-05-2.85833E-05-2.85688E-05 3.26603E-08 2.30623E-19 2.28543E-18
 -1      3035 1.37360E-04-5.64866E-05-3.47539E-05 1.14595E-07 1.40373E-18-2.54782E-18
 -1      3036 4.02824E-05-1.36853E-05-1.08481E-05-8.78315E-06-9.30161E-19 2.90913E-18
 -1      3037 1.26038E-04-1.59196E-05-4.77576E-05-1.01412E-05 3.97788E-18-1.47648E-18
 -1      3038 1.23712E-04-2.08917E-05-4.44117E-05-1.22253E-05 3.45801E-18-1.95074E-18
 -1      3039 1.19612E-04-1.35734E-05-4.58961E-05-8.53771E-06 3.95501E-18-1.50761E-18
 -1      3040 1.22262E-04-1.88349E-05-4.45232E-05 1.12343E-05 3.74643E-18 9.24325E-19
 -1      3041 9.52432E-05-2.85776E-05-2.85710E-05 3.38737E-08 2.37496E-18 4.16989E-18
 -1      3042 9.52465E-05-2.85824E-05-2.85703E-05 3.17757E-08-4.86302E-19 2.82012E-18
 -1      3043 9.52479E-05-2.85777E-05-2.85728E-05 3.06093E-08 7.34489E-20 4.09124E-18
 -1      3044 9.52424E-05-2.85743E-05-2.85719E-05 3.39402E-08 1.19021E-18 3.34231E-18
 -1      3045 4.13982E-05-1.32134E-05-1.14144E-05-6.22355E-06 2.97851E-19-5.59074E-18
 -1      3046 5.40458E-05-2.32733E-05-1.26297E-05-2.81061E-05-1.54160E-18-5.19697E-18
 -1      3047 1.26310E-04-5.73464E-05-2.93458E-05 1.38755E-05 1.58358E-18 1.49954E-18
 -1      3048 9.52504E-05-2.85856E-05-2.85706E-05-2.59748E-08-1.27298E-18-2.57043E-18
 -1      3049 9.52483E-05-2.85840E-05-2.85704E-05-2.87000E-08-2.59135E-18-4.55326E-18
 -1      3050 9.52478E-05-2.85794E-05-2.85722E-05-2.98214E-08-2.49549E-18-4.24883E-18
 -1      3051 9.52512E-05-2.85793E-05-2.85737E-05-2.43372E-08 3.97981E-19 5.36078E-19
 -1      3052 8.56082E-05-1.08097E-05-3.20785E-05-1.14313E-06-1.77845E-19-2.88629E-18
 -1      3053 8.61125E-05-1.12272E-05-3.21131E-05-1.53239E-06-5.17728E-19-2.93301E-18
 -1      3054 8.71307E-05-1.29029E-05-3.17890E-05-1.06824E-06-5.77177E-19-2.68222E-18
 -1      3055 8.60847E-05-1.19833E-05-3.17354E-05-8.75734E-07-7.82998E-20-2.72570E-18
 -1      3056 8.67588E-05-4.41537E-05-1.79340E-05-3.84148E-05-2.54682E-18-3.53276E-18
 -1      3057 9.73290E-05-4.71463E-05-2.12938E-05-3.31981E-05-2.71426E-18-2.20025E-18
 -1      3058 7.79696E-05-3.69383E-05-1.72692E-05-3.61622E-05-2.56296E-18-3.78862E-18
 -1      3059 9.55739E-05-2.20602E-05-3.14982E-05 1.91468E-06 2.00101E-18-9.54826E-19
 -1      3060 1.31663E-04-5.56316E-05-3.26453E-05-7.38482E-06-1.11201E-18 2.32934E-19
 -1      3061 7.36601E-05-3.32692E-05-1.68616E-05 3.20201E-05 3.17351E-18-2.82327E-18
 -1      3062 9.45437E-05-2.08323E-05-3.15908E-05-7.55458E-07-1.70360E-18-1.54438E-18
 -1      3063 9.41137E-05-2.07675E-05-3.14504E-05 8.89663E-07 1.63743E-18-1.33542E-18
 -1      3064 9.27837E-05-1.93184E-05-3.14936E-05 5.68616E-07 1.51818E-18-1.52008E-18
 -1      3065 1.19337E-04-5.41360E-05-2.75781E-05 1.76211E-05 2.22539E-18 1.18355E-18
 -1      3066 1.13481E-04-5.36568E-05-2.52581E-05-2.31888E-05 3.60780E-18 7.71058E-19
 -1      3067 1.25273E-04-5.80622E-05-2.90789E-05-1.45854E-05 3.48517E-18-8.95724E-19
 -1      3068 9.37631E-05-2.34636E-05-3.01286E-05 6.97676E-06-7.81443E-19-1.36225E-18
 -1      3069 9.37495E-05-2.38589E-05-2.99474E-05 8.25895E-06-5.51356E-19-1.43055E-18
 -1      3070 9.33651E-05-2.41439E-05-2.96706E-05 9.50528E-06-3.30872E-19-1.33114E-18
 -1      3071 9.34946E-05-2.46433E-05-2.94919E-05 1.06479E-05-3.21951E-19-1.34838E-18
 -1      3072 9.16747E-05-2.26797E-05-2.95613E-05 8.53238E-06-5.09355E-19-1.62100E-18
 -1      3073 9.31638E-05-2.51007E-05-2.91742E-05 1.18992E-05-1.59483E-19-1.13106E-18
 -1      3074 9.36385E-05-2.59745E-05-2.89687E-05 1.29321E-05 6.15210E-20-1.18279E-18
 -1      3075 9.09300E-05-2.34567E-05-2.89152E-05 1.10267E-05-1.80188E-19-1.42798E-18
 -1      3076 9.36089E-05-2.69109E-05-2.85804E-05 1.42798E-05 4.43296E-19-1.25371E-18
 -1      3077 9.47663E-05-2.85225E-05-2.83386E-05 1.51819E-05 7.41439E-19-9.60490E-19
 -1      3078 9.04854E-05-2.48504E-05-2.81418E-05 1.36640E-05 3.11835E-19-1.44479E-18
 -1      3079 9.54850E-05-3.03601E-05-2.78726E-05 1.66797E-05 1.13030E-18-6.73342E-19
 -1      3080 9.78494E-05-3.31507E-05-2.76395E-05 1.72914E-05 1.37137E-18-3.29342E-19
 -1      3081 9.09844E-05-2.76379E-05-2.71931E-05 1.66904E-05 1.17148E-18-1.16945E-18
 -1      3082 1.00064E-04-3.64133E-05-2.71723E-05 1.88153E-05 1.52625E-18 9.23051E-20
 -1      3083 1.04283E-04-4.06372E-05-2.71289E-05 1.86506E-05 1.82562E-18 3.90289E-19
 -1      3084 9.34975E-05-3.27591E-05-2.61086E-05 2.02149E-05 1.81375E-18-9.14590E-19
 -1      3085 1.07570E-04-4.44751E-05-2.68037E-05 1.96785E-05 1.83012E-18 7.02979E-19
 -1      3086 1.13735E-04-4.94348E-05-2.73427E-05 1.78291E-05 2.02817E-18 7.73705E-19
 -1      3087 1.06508E-04-4.95483E-05-2.47215E-05 2.61436E-05 2.32169E-18 2.88203E-19
 -1      3088 9.87841E-05-4.05539E-05-2.51342E-05 2.37794E-05 2.01885E-18-1.70704E-19
 -1      3089 4.50841E-05-1.22107E-05-1.38592E-05 1.37197E-09 5.67228E-19-4.89585E-18
 -1      3090 4.69913E-05-1.35605E-05-1.40111E-05-1.14872E-05-1.62551E-19-4.90040E-18
 -1      3091 1.37948E-04-4.02379E-05-4.22162E-05 1.55926E-05-1.58692E-18-3.94188E-18
 -1      3092 9.39758E-05-2.11133E-05-3.12240E-05 1.01546E-06-1.41047E-18-1.63343E-18
 -1      3093 9.41091E-05-2.19697E-05-3.09246E-05 2.72429E-06-1.20057E-18-1.56519E-18
 -1      3094 1.25668E-04-5.54362E-05-3.01240E-05-8.88858E-06 3.53525E-18-1.56252E-18
 -1      3095 1.19344E-04-5.15673E-05-2.88034E-05-1.27473E-05 3.59618E-18-1.13545E-18
 -1      3096 1.12716E-04-4.68202E-05-2.82616E-05-1.45179E-05 2.92435E-18-5.86524E-19
 -1      3097 1.07943E-04-4.20723E-05-2.79815E-05-1.58995E-05 2.44271E-18-5.77276E-19
 -1      3098 1.12232E-04-4.89905E-05-2.72714E-05-1.79617E-05 3.34034E-18-6.16481E-19
 -1      3099 1.02070E-04-3.75739E-05-2.76319E-05-1.66171E-05 1.86101E-18-4.67155E-19
 -1      3100 9.88716E-05-3.39078E-05-2.77618E-05-1.64259E-05 1.39170E-18-7.49282E-19
 -1      3101 9.72032E-05-3.13706E-05-2.81558E-05-1.51168E-05 2.26370E-19-9.02444E-19
 -1      3102 9.53353E-05-2.91709E-05-2.83334E-05-1.45237E-05-7.76928E-19-1.19439E-18
 -1      3103 9.31231E-05-3.08716E-05-2.67580E-05-1.73936E-05 3.48230E-19-5.34855E-19
 -1      3104 9.48007E-05-2.78069E-05-2.86726E-05-1.32652E-05-4.91126E-19-2.84868E-19
 -1      3105 9.38702E-05-2.66419E-05-2.88134E-05-1.24891E-05 7.48780E-20-1.86785E-19
 -1      3106 9.11662E-05-2.68302E-05-2.76023E-05-1.45041E-05-1.58771E-19-6.29501E-19
 -1      3107 9.39193E-05-2.60673E-05-2.90547E-05-1.13909E-05-3.74155E-19-2.28262E-19
 -1      3108 9.35064E-05-2.55561E-05-2.91317E-05-1.05721E-05-3.66181E-19-9.02897E-19
 -1      3109 9.08316E-05-2.49045E-05-2.82590E-05-1.20453E-05-3.66340E-19-1.32290E-19
 -1      3110 9.37990E-05-2.54406E-05-2.92804E-05-9.62887E-06-6.84850E-19-9.12238E-19
 -1      3111 9.36405E-05-2.53032E-05-2.93001E-05-8.83436E-06-7.04310E-19-1.11996E-18
 -1      3112 9.12501E-05-2.42610E-05-2.87032E-05-1.00031E-05-6.38816E-19-1.43817E-19
 -1      3113 9.39987E-05-2.54267E-05-2.93765E-05-8.02056E-06-2.55265E-19-1.07125E-18
 -1      3114 9.39493E-05-2.54828E-05-2.93554E-05-7.28535E-06 2.97270E-19-1.08872E-18
 -1      3115 9.19365E-05-2.43202E-05-2.89685E-05-8.27910E-06-5.06802E-19-2.94258E-19
 -1      3116 9.42887E-05-2.57115E-05-2.93811E-05-6.58254E-06 6.08282E-19-1.49716E-18
 -1      3117 9.42768E-05-2.58541E-05-2.93354E-05-5.92522E-06 4.45568E-19-1.65776E-18
 -1      3118 9.26494E-05-2.47241E-05-2.91010E-05-6.80053E-06 3.93536E-19 2.15802E-19
 -1      3119 9.45644E-05-2.61125E-05-2.93287E-05-5.32193E-06 4.71334E-20-1.73608E-18
 -1      3120 9.45593E-05-2.62825E-05-2.92712E-05-4.75049E-06-2.48077E-19-1.04777E-18
 -1      3121 9.32824E-05-2.52626E-05-2.91431E-05-5.52643E-06 3.97722E-19-1.20295E-18
 -1      3122 9.47881E-05-2.65316E-05-2.92459E-05-4.23852E-06-1.92680E-19-9.51078E-19
 -1      3123 9.47793E-05-2.66990E-05-2.91853E-05-3.75345E-06 2.21735E-19-5.75062E-19
 -1      3124 9.38012E-05-2.58202E-05-2.91284E-05-4.43434E-06-2.34155E-20-5.62234E-20
 -1      3125 9.49541E-05-2.69210E-05-2.91509E-05-3.32506E-06 1.96707E-19-7.40544E-19
 -1      3126 9.49401E-05-2.70720E-05-2.90928E-05-2.92175E-06-6.43045E-20-6.67190E-19
 -1      3127 9.42060E-05-2.63387E-05-2.90814E-05-3.50896E-06 2.78901E-19-1.01380E-18
 -1      3128 9.50698E-05-2.72611E-05-2.90555E-05-2.56867E-06-1.26893E-19 4.08953E-20
 -1      3129 9.50524E-05-2.73909E-05-2.90029E-05-2.23943E-06 5.19319E-19-1.56918E-20
 -1      3130 9.45115E-05-2.67935E-05-2.90189E-05-2.73603E-06 3.60196E-19-4.93235E-20
 -1      3131 9.51466E-05-2.75473E-05-2.89665E-05-1.95288E-06-1.85796E-20-5.54254E-20
 -1      3132 9.51281E-05-2.76555E-05-2.89208E-05-1.68859E-06 4.66035E-19-8.41749E-19
 -1      3133 9.47368E-05-2.71779E-05-2.89518E-05-2.10033E-06-1.03317E-19 5.69612E-19
 -1      3134 9.51954E-05-2.77822E-05-2.88875E-05-1.45960E-06 9.04703E-19-1.73131E-18
 -1      3135 9.51775E-05-2.78705E-05-2.88489E-05-1.25080E-06-2.26164E-19-1.08518E-18
 -1      3136 9.48999E-05-2.74949E-05-2.88866E-05-1.58571E-06-6.87568E-20-8.74992E-19
 -1      3137 9.52248E-05-2.79714E-05-2.88197E-05-1.07061E-06-8.44751E-19-1.39116E-19
 -1      3138 9.52087E-05-2.80423E-05-2.87879E-05-9.08148E-07-2.77310E-20 7.82497E-20
 -1      3139 9.50160E-05-2.77513E-05-2.88271E-05-1.17565E-06-7.29452E-20-2.96283E-19
 -1      3140 9.52414E-05-2.81216E-05-2.87630E-05-7.68520E-07 9.82972E-19-2.17942E-19
 -1      3141 9.52277E-05-2.81777E-05-2.87374E-05-6.44039E-07 1.17644E-18 3.80865E-19
 -1      3142 9.50975E-05-2.79554E-05-2.87748E-05-8.53982E-07 3.20230E-19 8.45315E-19
 -1      3143 9.52498E-05-2.82391E-05-2.87168E-05-5.37532E-07 7.35707E-19 4.27304E-19
 -1      3144 9.52387E-05-2.82830E-05-2.86966E-05-4.43637E-07 4.68141E-20 7.27990E-19
 -1      3145 9.51536E-05-2.81157E-05-2.87304E-05-6.05596E-07 8.14897E-19-1.96009E-19
 -1      3146 9.52532E-05-2.83300E-05-2.86798E-05-3.63718E-07-9.57612E-19 1.38155E-18
 -1      3147 9.52445E-05-2.83639E-05-2.86640E-05-2.94063E-07-6.81783E-19 1.15010E-18
 -1      3148 9.51914E-05-2.82398E-05-2.86936E-05-4.16858E-07 1.40198E-19 1.23738E-18
 -1      3149 9.52537E-05-2.83992E-05-2.86507E-05-2.35144E-07-3.90295E-19 9.83779E-19
 -1      3150 9.52470E-05-2.84251E-05-2.86386E-05-1.84410E-07 1.67809E-19 1.06643E-18
 -1      3151 9.52162E-05-2.83346E-05-2.86636E-05-2.75851E-07-9.23923E-19 2.67762E-18
 -1      3152 9.52525E-05-2.84514E-05-2.86281E-05-1.41820E-07 1.13258E-18 5.50883E-19
 -1      3153 9.52476E-05-2.84708E-05-2.86191E-05-1.05639E-07 1.53962E-18 7.01901E-19
 -1      3154 9.52317E-05-2.84060E-05-2.86397E-05-1.72419E-07 4.86242E-19 1.28208E-18
 -1      3155 9.52506E-05-2.84901E-05-2.86110E-05-7.55575E-08 1.64320E-18 4.20186E-19
 -1      3156 9.52471E-05-2.85045E-05-2.86043E-05-5.04188E-08 1.14562E-18 2.98296E-19
 -1      3157 9.52409E-05-2.84591E-05-2.86209E-05-9.81137E-08 1.02653E-18 4.31740E-19
 -1      3158 9.52484E-05-2.85184E-05-2.85981E-05-2.97870E-08 3.98860E-19 1.43133E-19
 -1      3159 9.52461E-05-2.85292E-05-2.85932E-05-1.29315E-08-6.57173E-19 1.48775E-19
 -1      3160 9.52457E-05-2.84979E-05-2.86063E-05-4.60594E-08 2.24552E-19-9.02398E-19
 -1      3161 9.52463E-05-2.85392E-05-2.85884E-05 6.38333E-10-1.03853E-18 1.55298E-18
 -1      3162 9.52449E-05-2.85471E-05-2.85849E-05 1.13152E-08-9.87970E-19 5.24985E-19
 -1      3163 9.52476E-05-2.85261E-05-2.85951E-05-1.07848E-08-2.93939E-19-1.20992E-18
 -1      3164 9.52445E-05-2.85544E-05-2.85812E-05 1.96169E-08-3.30415E-19 1.94610E-18
 -1      3165 9.52438E-05-2.85605E-05-2.85786E-05 2.56484E-08-3.78594E-19 2.23988E-18
 -1      3166 9.52478E-05-2.85465E-05-2.85864E-05 1.18877E-08-1.11849E-19 1.02755E-18
 -1      3167 9.52431E-05-2.85653E-05-2.85760E-05 2.97415E-08-3.70731E-19 3.15196E-18
 -1      3168 9.52429E-05-2.85703E-05-2.85740E-05 3.23384E-08 5.22494E-19 3.74758E-18
 -1      3169 9.52460E-05-2.85718E-05-2.85748E-05 3.10700E-08 9.46752E-19 6.04687E-18
 -1      3170 9.52470E-05-2.85611E-05-2.85798E-05 2.48286E-08 2.42840E-19 4.49279E-18
 -1      3171 1.09421E-04-3.93143E-05-3.00808E-05-1.03175E-06-2.02558E-19 1.71328E-19
 -1      3172 1.08143E-04-3.83188E-05-2.98689E-05-2.77521E-06-2.83338E-19-5.67686E-20
 -1      3173 1.06099E-04-3.68648E-05-2.97004E-05-4.21394E-06-1.89831E-19-5.20179E-20
 -1      3174 1.04772E-04-3.55500E-05-2.96141E-05-5.34291E-06-2.51053E-19 2.15400E-20
 -1      3175 1.07217E-04-3.85463E-05-2.94761E-05-5.10630E-06-2.45807E-19-1.36864E-19
 -1      3176 1.13245E-04-3.81774E-05-3.22122E-05 8.12411E-06 1.36293E-19 1.55929E-18
 -1      3177 1.13482E-04-3.98097E-05-3.16104E-05 6.26350E-06-6.44605E-20 9.58434E-19
 -1      3178 1.11637E-04-3.23043E-05-3.39781E-05 1.10787E-05 1.20989E-18 2.15810E-18
 -1      3179 1.13128E-04-3.57844E-05-3.32307E-05 1.04699E-05 5.87963E-19 1.98236E-18
 -1      3180 1.16173E-04-3.88613E-05-3.31727E-05 9.03410E-06 1.33166E-19 1.86849E-18
 -1      3181 1.07999E-04-2.43758E-05-3.57895E-05 9.36355E-06 1.49638E-18 1.76567E-18
 -1      3182 1.09820E-04-2.82616E-05-3.51205E-05 1.09932E-05 1.57060E-18 2.18116E-18
 -1      3183 1.13956E-04-3.08008E-05-3.56072E-05 1.18950E-05 1.38602E-18 2.38453E-18
 -1      3184 1.05161E-04-1.93912E-05-3.68346E-05 2.23532E-06 2.43515E-18 8.55483E-19
 -1      3185 1.05923E-04-2.11026E-05-3.65612E-05 5.71607E-06 1.94454E-18 1.11835E-18
 -1      3186 1.09562E-04-2.12750E-05-3.78437E-05 8.81898E-06 2.23913E-18 1.72803E-18
 -1      3187 1.06038E-04-2.10227E-05-3.65776E-05-6.51264E-06 2.08596E-18 9.92517E-20
 -1      3188 1.05197E-04-1.93122E-05-3.68379E-05-2.91676E-06 2.50601E-18 2.85771E-19
 -1      3189 1.07624E-04-1.74781E-05-3.87095E-05-3.45743E-07 2.86514E-18 4.22694E-19
 -1      3190 1.09705E-04-2.80333E-05-3.51745E-05-1.17840E-05 1.59567E-18-4.85236E-19
 -1      3191 1.07894E-04-2.42160E-05-3.58186E-05-1.00128E-05 1.73977E-18-3.99886E-19
 -1      3192 1.09627E-04-2.15249E-05-3.78233E-05-9.19120E-06 2.28851E-18-9.21003E-19
 -1      3193 1.12953E-04-3.54482E-05-3.33325E-05-1.13709E-05 1.14025E-18-1.03314E-18
 -1      3194 1.11615E-04-3.20466E-05-3.40649E-05-1.18736E-05 1.40208E-18-8.00105E-19
 -1      3195 1.13810E-04-3.08669E-05-3.55859E-05-1.25863E-05 1.71980E-18-1.75108E-18
 -1      3196 1.13535E-04-3.96370E-05-3.16975E-05-7.28158E-06 6.38312E-19-1.06390E-18
 -1      3197 1.13305E-04-3.79644E-05-3.22968E-05-9.18829E-06 8.69899E-19-8.47516E-19
 -1      3198 1.15974E-04-3.83687E-05-3.32145E-05-1.01599E-05 7.97925E-19-1.89765E-18
 -1      3199 1.11521E-04-4.01090E-05-3.05720E-05-2.39378E-06-9.24531E-20-3.34997E-19
 -1      3200 1.12235E-04-4.00720E-05-3.09693E-05-4.53842E-06 2.52306E-19-5.19900E-19
 -1      3201 1.14783E-04-4.17065E-05-3.13093E-05-4.72014E-06 5.05788E-20-6.54728E-19
 -1      3202 1.08189E-04-3.82378E-05-2.99283E-05 1.61777E-06 6.88628E-19-1.80302E-19
 -1      3203 1.09427E-04-3.91855E-05-3.01509E-05-1.16598E-07 4.88199E-19 1.11733E-19
 -1      3204 1.11253E-04-4.11569E-05-3.00805E-05 4.29540E-07-1.05054E-19-1.31546E-19
 -1      3205 1.04781E-04-3.55603E-05-2.96190E-05 4.22176E-06 5.26081E-19 2.06712E-19
 -1      3206 1.06111E-04-3.68156E-05-2.97288E-05 3.06401E-06 6.35591E-19 1.15182E-19
 -1      3207 1.06997E-04-3.84111E-05-2.94427E-05 3.98082E-06 2.91685E-19 1.83568E-20
 -1      3208 1.01906E-04-3.30048E-05-2.94937E-05 5.57968E-06-3.69775E-19 4.27749E-19
 -1      3209 1.03077E-04-3.41714E-05-2.95470E-05 4.94857E-06 4.56512E-19 6.29580E-19
 -1      3210 1.03195E-04-3.52084E-05-2.91815E-05 5.94647E-06 3.49213E-19 4.77771E-19
 -1      3211 9.97327E-05-3.09722E-05-2.94456E-05 6.03391E-06-4.54938E-19-1.39438E-19
 -1      3212 1.00663E-04-3.18904E-05-2.94798E-05 5.80252E-06-4.64375E-19-1.69872E-19
 -1      3213 1.00265E-04-3.24068E-05-2.91164E-05 6.71676E-06-9.82633E-20 1.05618E-18
 -1      3214 9.81943E-05-2.95292E-05-2.94145E-05 5.90222E-06-1.34046E-18 8.56235E-22
 -1      3215 9.88936E-05-3.01796E-05-2.94488E-05 5.94380E-06-6.49907E-19 4.37892E-19
 -1      3216 9.82109E-05-3.03000E-05-2.91289E-05 6.72032E-06-5.98852E-19 1.40915E-18
 -1      3217 9.71537E-05-2.86010E-05-2.93732E-05 5.42433E-06-4.82625E-19-3.62101E-19
 -1      3218 9.76639E-05-2.90216E-05-2.94147E-05 5.63323E-06-8.10620E-19-3.11306E-19
 -1      3219 9.68655E-05-2.88748E-05-2.91545E-05 6.27504E-06-6.79464E-19 4.52839E-19
 -1      3220 9.64708E-05-2.80658E-05-2.93144E-05 4.77107E-06-1.02640E-18-1.79161E-19
 -1      3221 9.68384E-05-2.83122E-05-2.93632E-05 5.06843E-06-6.05536E-19-3.34444E-19
 -1      3222 9.60376E-05-2.80097E-05-2.91643E-05 5.59547E-06-8.07190E-19-3.37374E-19
 -1      3223 9.60312E-05-2.78052E-05-2.92402E-05 4.05674E-06-7.24646E-19-4.13874E-19
 -1      3224 9.62960E-05-2.79301E-05-2.92936E-05 4.38745E-06-7.79945E-19-2.09089E-19
 -1      3225 9.55591E-05-2.75550E-05-2.91502E-05 4.82154E-06-1.02077E-18-1.69703E-20
 -1      3226 9.57512E-05-2.77228E-05-2.91570E-05 3.35405E-06-2.09336E-19-1.25541E-18
 -1      3227 9.59431E-05-2.77686E-05-2.92115E-05 3.68208E-06-1.34864E-19-7.36566E-19
 -1      3228 9.53033E-05-2.73776E-05-2.91142E-05 4.04101E-06-1.31008E-19-3.39606E-20
 -1      3229 9.55736E-05-2.77469E-05-2.90711E-05 2.70589E-06-6.92045E-19-2.03295E-18
 -1      3230 9.57138E-05-2.77449E-05-2.91236E-05 3.00960E-06-7.84616E-19-1.79049E-18
 -1      3231 9.51820E-05-2.73735E-05-2.90626E-05 3.30666E-06 1.31777E-19-1.73506E-18
 -1      3232 9.54605E-05-2.78282E-05-2.89879E-05 2.13428E-06-4.66573E-19-1.85675E-18
 -1      3233 9.55637E-05-2.78000E-05-2.90362E-05 2.40241E-06-5.47918E-19-1.65648E-18
 -1      3234 9.51373E-05-2.74677E-05-2.90023E-05 2.64746E-06-1.12474E-18-2.66154E-18
 -1      3235 9.53877E-05-2.79344E-05-2.89110E-05 1.64726E-06-8.33675E-19-5.10690E-19
 -1      3236 9.54642E-05-2.78940E-05-2.89538E-05 1.87555E-06-6.57286E-19-1.03510E-18
 -1      3237 9.51328E-05-2.76094E-05-2.89393E-05 2.07628E-06-1.26177E-18-1.85934E-18
 -1      3238 9.53403E-05-2.80455E-05-2.88427E-05 1.24387E-06-2.46724E-20 6.23873E-20
 -1      3239 9.53970E-05-2.80017E-05-2.88795E-05 1.43260E-06-4.09018E-19-5.67181E-19
 -1      3240 9.51471E-05-2.77662E-05-2.88780E-05 1.59539E-06-9.16694E-19 5.96500E-20
 -1      3241 9.53087E-05-2.81503E-05-2.87840E-05 9.17848E-07 8.19405E-19 8.56021E-19
 -1      3242 9.53507E-05-2.81082E-05-2.88147E-05 1.06997E-06 6.49591E-19 1.52581E-19
 -1      3243 9.51678E-05-2.79187E-05-2.88214E-05 1.20041E-06 1.18618E-19-3.88853E-19
 -1      3244 9.52873E-05-2.82429E-05-2.87347E-05 6.60111E-07 1.33797E-18 1.50616E-18
 -1      3245 9.53182E-05-2.82052E-05-2.87598E-05 7.79969E-07 1.32180E-18 1.63316E-18
 -1      3246 9.51886E-05-2.80567E-05-2.87712E-05 8.83081E-07 7.20109E-19-8.33645E-19
 -1      3247 9.52725E-05-2.83213E-05-2.86944E-05 4.60556E-07 1.14263E-18 2.34056E-18
 -1      3248 9.52949E-05-2.82891E-05-2.87145E-05 5.52996E-07 1.37377E-18 2.64936E-18
 -1      3249 9.52066E-05-2.81754E-05-2.87280E-05 6.33327E-07 6.06070E-19 3.47664E-19
 -1      3250 9.52620E-05-2.83855E-05-2.86622E-05 3.09167E-07 3.58182E-19 2.80257E-18
 -1      3251 9.52781E-05-2.83588E-05-2.86779E-05 3.78981E-07 6.73955E-19 3.12145E-18
 -1      3252 9.52206E-05-2.82738E-05-2.86918E-05 4.40597E-07 4.76781E-19 3.40065E-18
 -1      3253 9.52546E-05-2.84365E-05-2.86369E-05 1.96685E-07-3.99180E-19 2.92288E-18
 -1      3254 9.52659E-05-2.84151E-05-2.86489E-05 2.48288E-07 7.53346E-20 2.36687E-18
 -1      3255 9.52308E-05-2.83530E-05-2.86622E-05 2.94765E-07 1.74587E-19 4.32934E-18
 -1      3256 9.52492E-05-2.84761E-05-2.86175E-05 1.14958E-07 1.20542E-18 1.00128E-18
 -1      3257 9.52569E-05-2.84593E-05-2.86265E-05 1.52219E-07 5.03739E-19 1.46963E-18
 -1      3258 9.52376E-05-2.84152E-05-2.86385E-05 1.86644E-07 4.96784E-19 1.91802E-18
 -1      3259 9.52454E-05-2.85062E-05-2.86028E-05 5.70748E-08 1.11981E-18 1.03570E-18
 -1      3260 9.52505E-05-2.84933E-05-2.86094E-05 8.32570E-08 1.47643E-18 9.15141E-19
 -1      3261 9.52418E-05-2.84628E-05-2.86198E-05 1.08242E-07 1.53959E-18 1.35991E-19
 -1      3262 9.52428E-05-2.85288E-05-2.85919E-05 1.73746E-08 1.67477E-18 8.60071E-19
 -1      3263 9.52459E-05-2.85190E-05-2.85967E-05 3.51333E-08 1.41556E-18 1.13611E-18
 -1      3264 9.52439E-05-2.84986E-05-2.86053E-05 5.28366E-08 1.37925E-18 7.95946E-19
 -1      3265 9.52410E-05-2.85456E-05-2.85839E-05-8.62719E-09 4.50792E-19-8.92010E-19
 -1      3266 9.52427E-05-2.85382E-05-2.85873E-05 2.79252E-09 2.19302E-18 1.99738E-19
 -1      3267 9.52446E-05-2.85251E-05-2.85942E-05 1.49526E-08 1.84654E-18 6.76325E-19
 -1      3268 9.52401E-05-2.85583E-05-2.85780E-05-2.43575E-08 3.53246E-20-3.27487E-18
 -1      3269 9.52407E-05-2.85525E-05-2.85804E-05-1.77027E-08-4.00770E-19-2.48954E-18
 -1      3270 9.52445E-05-2.85446E-05-2.85858E-05-9.72472E-09 1.36598E-18-8.04061E-19
 -1      3271 9.52398E-05-2.85683E-05-2.85735E-05-3.22239E-08-7.04293E-19-4.60833E-18
 -1      3272 9.52397E-05-2.85636E-05-2.85753E-05-2.92811E-08-5.03902E-19-4.52741E-18
 -1      3273 9.52441E-05-2.85592E-05-2.85793E-05-2.44914E-08 7.89195E-19-3.76551E-18
 -1      3274 9.52416E-05-2.85747E-05-2.85715E-05-3.35381E-08-2.59631E-18-5.76551E-18
 -1      3275 9.52402E-05-2.85712E-05-2.85724E-05-3.34527E-08-1.57757E-18-5.60756E-18
 -1      3276 9.52444E-05-2.85689E-05-2.85753E-05-3.06459E-08-6.81633E-19-7.02609E-18
 -1      3277 9.52454E-05-2.85759E-05-2.85726E-05-3.20590E-08-3.12425E-18-6.71019E-18
 -1      3278 9.52546E-05-2.85700E-05-2.85791E-05 9.44170E-09-2.02384E-19-1.26776E-18
 -1      3279 9.52548E-05-2.85697E-05-2.85794E-05 5.40217E-09 1.02475E-18-2.39221E-18
 -1      3280 1.41485E-04-4.91829E-05-3.98735E-05-7.44351E-06-2.38556E-18 2.40642E-18
 -1      3281 9.52547E-05-2.85692E-05-2.85795E-05 1.57081E-09 1.09963E-18-2.91588E-18
 -1      3282 9.52546E-05-2.85691E-05-2.85795E-05-2.51456E-09 2.27294E-18-2.84442E-18
 -1      3283 9.52545E-05-2.85599E-05-2.85833E-05 2.98760E-09 1.47688E-18-2.97643E-18
 -1      3284 6.53321E-05-2.99985E-05-1.46216E-05 3.37533E-05-3.02338E-18 2.80823E-18
 -1      3285 1.01402E-04-4.84205E-05-2.28940E-05 3.01069E-05-1.80484E-18-2.08344E-18
 -1      3286 9.08339E-05-4.20904E-05-2.04554E-05 3.25245E-05-2.41582E-18-1.05159E-18
 -1      3287 1.32151E-04-5.80556E-05-3.15741E-05-5.69882E-06 3.05478E-18-1.94251E-18
 -1      3288 9.52513E-05-2.85734E-05-2.85763E-05 2.50205E-08 2.48164E-19 2.95920E-18
 -1      3289 9.52530E-05-2.85732E-05-2.85771E-05 2.13058E-08 4.81008E-19 1.67092E-18
 -1      3290 7.57946E-05-3.40686E-05-1.78996E-05 3.38469E-05-2.63665E-18 1.15054E-18
 -1      3291 6.02462E-05-2.36246E-05-1.52802E-05 2.82108E-05-3.24723E-18 3.54039E-18
 -1      3292 8.44617E-05-3.60050E-05-2.05483E-05 2.95507E-05-2.34763E-18-4.05385E-19
 -1      3293 5.06387E-05-1.67312E-05-1.42582E-05 2.05960E-05-2.39586E-18 5.12010E-18
 -1      3294 4.60799E-05-1.27094E-05-1.40040E-05 8.52187E-06-1.86333E-18 4.26174E-18
 -1      3295 9.52538E-05-2.85717E-05-2.85781E-05 1.74138E-08 1.76670E-19 1.11635E-18
 -1      3296 9.52545E-05-2.85713E-05-2.85786E-05 1.33615E-08-1.79040E-19 6.93932E-19
 -1      3297 9.52545E-05-2.85618E-05-2.85825E-05 1.02832E-08 3.61896E-19-1.45987E-19
 -1      3298 9.52534E-05-2.85648E-05-2.85808E-05 1.79120E-08 8.99959E-19 1.45283E-18
 -1      3299 1.14845E-04-2.08803E-05-4.05266E-05 9.52016E-06 2.93529E-18 1.20992E-18
 -1      3300 1.13008E-04-1.51058E-05-4.25232E-05 5.82949E-06 3.52858E-18 8.30661E-19
 -1      3301 1.12293E-04-4.02908E-05-3.08849E-05 3.36997E-06-1.46002E-19 7.44860E-19
 -1      3302 1.11442E-04-4.02622E-05-3.04838E-05 1.21239E-06-2.18125E-19 6.47215E-19
 -1      3303 1.11309E-04-4.12865E-05-3.00628E-05-1.48402E-06-5.48399E-19 4.94482E-19
 -1      3304 1.15036E-04-4.21553E-05-3.12154E-05 3.65966E-06-3.42109E-19 1.15373E-18
 -1      3305 9.90385E-05-2.95432E-05-2.97874E-05-6.33450E-06 2.26224E-19-5.96385E-19
 -1      3306 9.84032E-05-2.86578E-05-2.98650E-05-5.95737E-06 2.72806E-19-6.63624E-19
 -1      3307 5.35177E-05-2.02651E-05-1.37630E-05-2.32202E-05 1.36240E-19 2.68086E-18
 -1      3308 6.79854E-05-2.97964E-05-1.63354E-05-3.08306E-05 1.37050E-18 3.86247E-18
 -1      3309 1.22351E-04-5.59095E-05-2.88917E-05 1.51289E-05-9.01111E-19-3.45490E-18
 -1      3310 1.12956E-04-5.31436E-05-2.53223E-05 2.40393E-05-1.10514E-18-2.64468E-18
 -1      3311 1.08067E-04-4.90416E-05-2.50536E-05 2.31331E-05-1.52492E-18-2.26977E-18
 -1      3312 9.78745E-05-2.78299E-05-3.00226E-05-5.26966E-06 4.87233E-19-8.13727E-19
 -1      3313 9.74462E-05-2.70395E-05-3.01532E-05-4.50623E-06 6.85328E-19-7.37936E-19
 -1      3314 9.72945E-05-2.76379E-05-2.98726E-05-5.95296E-06 3.86414E-19-7.58386E-19
 -1      3315 1.11022E-04-5.27487E-05-2.47569E-05-2.62602E-05-2.05871E-18-6.91470E-19
 -1      3316 1.20463E-04-5.60932E-05-2.78565E-05-1.89937E-05-1.85423E-18-1.90182E-19
 -1      3317 9.64081E-05-2.39093E-05-3.10693E-05 1.58249E-07 1.74717E-18-7.94701E-19
 -1      3318 9.50897E-05-2.19913E-05-3.13200E-05 6.56760E-07 1.74786E-18-1.05458E-18
 -1      3319 9.49860E-05-2.25683E-05-3.10239E-05-7.77787E-07 1.49237E-18-1.02236E-18
 -1      3320 9.66747E-05-2.49168E-05-3.07628E-05-1.40569E-06 1.52209E-18-7.42666E-19
 -1      3321 9.74984E-05-4.41201E-05-2.24545E-05 2.90253E-05 2.76704E-18-4.51005E-19
 -1      3322 5.56025E-05-1.87021E-05-1.57866E-05 2.04538E-05 2.24903E-18-3.88756E-18
 -1      3323 4.84398E-05-1.36207E-05-1.44688E-05 9.61385E-06 1.46008E-18-4.64523E-18
 -1      3324 5.34693E-05-1.89525E-05-1.45034E-05-2.25285E-05-1.08346E-18-4.56350E-18
 -1      3325 6.49512E-05-2.76354E-05-1.56596E-05-3.22386E-05-2.03457E-18-4.52416E-18
 -1      3326 9.40692E-05-2.26110E-05-3.06212E-05 4.17783E-06-1.06118E-18-1.45615E-18
 -1      3327 9.40446E-05-2.31174E-05-3.04009E-05 5.65072E-06-8.41871E-19-1.42212E-18
 -1      3328 9.23461E-05-2.19684E-05-3.01501E-05 5.97326E-06-7.75413E-19-1.53451E-18
 -1      3329 9.27133E-05-1.89030E-05-3.16474E-05-8.12389E-07-1.54177E-18-1.99749E-18
 -1      3330 9.33983E-05-2.00568E-05-3.14248E-05 1.62749E-07-1.47992E-18-1.78835E-18
 -1      3331 9.09031E-05-1.70182E-05-3.16768E-05-7.64541E-07-1.28806E-18-2.35837E-18
 -1      3332 8.49955E-05-3.86262E-05-1.93152E-05-3.14870E-05 2.68202E-18 3.64039E-18
 -1      3333 9.86550E-05-4.73126E-05-2.22127E-05-3.01432E-05 3.07118E-18 2.63523E-18
 -1      3334 4.46705E-05-1.24217E-05-1.35605E-05-5.11549E-06-9.78402E-19 2.36428E-18
 -1      3335 4.70061E-05-1.51499E-05-1.32050E-05-1.58004E-05-4.59224E-19 1.74595E-18
 -1      3336 5.73886E-05-1.86611E-05-1.61615E-05-1.83878E-05 1.81464E-19 1.84860E-18
 -1      3337 8.24216E-05-3.60812E-05-1.98945E-05 3.10948E-05 3.01128E-18-1.88947E-18
 -1      3338 6.69221E-05-2.53941E-05-1.72798E-05 2.70067E-05 3.00313E-18-3.21084E-18
 -1      3339 8.94654E-05-3.67715E-05-2.23597E-05 2.68438E-05 2.47905E-18-1.42018E-18
 -1      3340 1.27195E-04-5.55733E-05-3.04264E-05-9.98320E-06-1.83118E-18 1.83489E-19
 -1      3341 1.29790E-04-5.27318E-05-3.35001E-05-1.49089E-06-1.02914E-18 7.96012E-19
 -1      3342 8.74056E-05-1.41262E-05-3.14119E-05-6.41365E-07 7.78629E-19-2.50037E-18
 -1      3343 8.67843E-05-1.35906E-05-3.13902E-05-8.41303E-07 4.71109E-19-2.63154E-18
 -1      3344 1.30146E-04-4.97148E-05-3.47951E-05-2.54917E-06 9.80944E-19-3.04021E-18
 -1      3345 1.28717E-04-5.38751E-05-3.18700E-05 4.71981E-06-8.35750E-20-3.39411E-18
 -1      3346 8.63337E-05-1.31475E-05-3.13742E-05-7.56628E-07 3.73230E-19-2.67364E-18
 -1      3347 8.61367E-05-1.29852E-05-3.13708E-05-8.54499E-07 1.79230E-19-2.66434E-18
 -1      3348 8.69803E-05-1.44977E-05-3.10400E-05-1.13914E-06 3.00674E-19-2.47071E-18
 -1      3349 1.18031E-04-3.16970E-05-3.71768E-05 1.17483E-05 1.27423E-18 2.19849E-18
 -1      3350 1.17463E-04-2.65138E-05-3.93366E-05 1.26817E-05 2.26865E-18 1.71716E-18
 -1      3351 5.37432E-05-1.37016E-05-1.67393E-05 4.33604E-06 7.75644E-19-4.06025E-18
 -1      3352 1.24517E-04-2.74924E-05-4.19929E-05-1.37173E-05 2.80479E-18-2.10583E-18
 -1      3353 1.23982E-04-3.28836E-05-3.90855E-05-1.33046E-05 2.50436E-18-2.78541E-18
 -1      3354 1.19218E-04-2.33905E-05-4.13895E-05-1.30766E-05 2.87070E-18-1.79002E-18
 -1      3355 1.26989E-04-4.71995E-05-3.43563E-05 4.13377E-06-5.57641E-19 1.42974E-18
 -1      3356 1.07603E-04-4.86075E-05-2.50299E-05-2.27896E-05 3.48856E-18 4.97549E-19
 -1      3357 9.67614E-05-4.37843E-05-2.25350E-05-2.93918E-05-2.46583E-18-2.05154E-18
 -1      3358 1.04896E-04-4.95692E-05-2.36259E-05-2.87853E-05-2.32722E-18-1.47533E-18
 -1      3359 1.09594E-04-4.95878E-05-2.56383E-05-2.23409E-05-2.11120E-18-8.30522E-19
 -1      3360 5.67716E-05-1.72682E-05-1.65390E-05-1.63430E-05-7.69516E-19-4.19239E-18
 -1      3361 8.91970E-05-1.57904E-05-3.14677E-05-2.68892E-07 1.28273E-18-2.21042E-18
 -1      3362 8.82410E-05-1.49283E-05-3.14406E-05-5.80105E-07 1.00042E-18-2.38562E-18
 -1      3363 8.83365E-05-1.57484E-05-3.10886E-05-1.25625E-06 7.22748E-19-2.20960E-18
 -1      3364 1.09235E-04-1.47773E-05-4.06056E-05 3.14260E-07 3.35060E-18 2.92968E-19
 -1      3365 1.15462E-04-1.18046E-05-4.48614E-05 1.44773E-07 4.14845E-18-2.24384E-19
 -1      3366 1.16493E-04-1.22281E-05-4.53388E-05-5.31571E-06 4.22288E-18-1.12534E-18
 -1      3367 1.09867E-04-1.61170E-05-4.05478E-05-5.27794E-06 3.23508E-18-4.96709E-19
 -1      3368 9.21336E-05-1.91869E-05-3.12717E-05 8.53772E-07-1.20851E-18-1.89671E-18
 -1      3369 1.21664E-04-5.37176E-05-2.90493E-05-1.25399E-05-1.82784E-18 7.48962E-20
 -1      3370 1.00233E-04-3.87217E-05-2.65250E-05-1.92075E-05 2.19757E-18 2.40796E-19
 -1      3371 9.27593E-05-2.00007E-05-3.11658E-05-7.21640E-07 1.28023E-18-1.61965E-18
 -1      3372 9.15125E-05-1.80372E-05-3.15018E-05 3.06916E-07 1.46437E-18-1.95131E-18
 -1      3373 9.03172E-05-1.68788E-05-3.14913E-05-7.34030E-08 1.30650E-18-2.21686E-18
 -1      3374 1.00740E-04-3.15984E-05-2.96393E-05-6.63476E-06-1.55928E-19-3.48195E-19
 -1      3375 9.98473E-05-3.05311E-05-2.96753E-05-6.67848E-06 1.30965E-19-4.56488E-19
 -1      3376 9.86134E-05-2.96830E-05-2.95712E-05-7.11466E-06-1.77780E-20-5.74702E-19
 -1      3377 1.03475E-04-3.52118E-05-2.93022E-05-6.98946E-06-4.02829E-19-3.15129E-19
 -1      3378 1.03102E-04-3.40931E-05-2.95910E-05-6.01162E-06-4.07204E-19-1.16751E-19
 -1      3379 1.01945E-04-3.28294E-05-2.95798E-05-6.55212E-06-4.01695E-19-2.77424E-19
 -1      3380 1.25744E-04-4.13525E-05-3.65727E-05-1.03314E-05 2.09484E-18-2.72469E-18
 -1      3381 1.29057E-04-4.60188E-05-3.57081E-05-7.04894E-06 1.35372E-18-2.91284E-18
 -1      3382 1.25383E-04-4.71334E-05-3.35522E-05-4.36268E-06 5.05973E-19-2.31110E-18
 -1      3383 9.52539E-05-2.85707E-05-2.85785E-05-1.40768E-08 1.40967E-18 1.03588E-18
 -1      3384 9.52530E-05-2.85710E-05-2.85780E-05-1.79275E-08 1.29011E-18 2.03640E-18
 -1      3385 8.69595E-05-1.36785E-05-3.14237E-05-4.73701E-07-4.01328E-19-2.44153E-18
 -1      3386 8.77271E-05-1.43514E-05-3.14583E-05-5.06178E-07-7.13921E-19-2.47801E-18
 -1      3387 9.52545E-05-2.85695E-05-2.85794E-05-6.27193E-09 1.98498E-18-1.46020E-18
 -1      3388 9.52541E-05-2.85696E-05-2.85791E-05-1.02873E-08 1.83591E-18 1.55718E-19
 -1      3389 9.52538E-05-2.85613E-05-2.85824E-05-1.11762E-08 1.47595E-18 6.82169E-19
 -1      3390 9.52543E-05-2.85597E-05-2.85833E-05-4.10268E-09 2.09530E-18-1.80874E-18
 -1      3391 6.20922E-05-2.08969E-05-1.72699E-05 2.20193E-05-2.56707E-18 3.12169E-18
 -1      3392 1.15370E-04-1.50858E-05-4.31804E-05-8.24530E-06 3.46627E-18-1.30680E-18
 -1      3393 7.66847E-05-3.27142E-05-1.85282E-05-3.10325E-05-2.31079E-18-3.62043E-18
 -1      3394 4.87686E-05-1.22282E-05-1.52227E-05 2.08386E-06-1.06100E-18 3.01523E-18
 -1      3395 5.35218E-05-1.31519E-05-1.71277E-05-4.18361E-06-5.87629E-19 1.74076E-18
 -1      3396 5.48339E-05-1.36755E-05-1.75063E-05 7.48514E-06-1.50406E-18 3.46346E-18
 -1      3397 9.52528E-05-2.85641E-05-2.85808E-05-1.78777E-08 1.16977E-18 2.04848E-18
 -1      3398 9.52524E-05-2.85726E-05-2.85771E-05-2.12105E-08 1.40628E-18 2.54135E-18
 -1      3399 9.52510E-05-2.85730E-05-2.85763E-05-2.41994E-08-3.27767E-20 1.89360E-18
 -1      3400 6.60620E-05-2.18231E-05-1.86646E-05 2.08837E-05 2.32508E-18-3.15684E-18
 -1      3401 7.86976E-05-3.26669E-05-1.94384E-05-2.81927E-05 1.94352E-18 3.13598E-18
 -1      3402 1.23382E-04-5.28400E-05-3.00944E-05 8.02552E-06-5.76287E-19-2.57636E-18
 -1      3403 9.72073E-05-2.64354E-05-3.03349E-05-3.63270E-06 8.70608E-19-7.50839E-19
 -1      3404 9.69119E-05-2.56204E-05-3.05362E-05-2.48891E-06 1.20159E-18-6.85893E-19
 -1      3405 9.61180E-05-2.45925E-05-3.06656E-05-2.22539E-06 1.25624E-18-7.04971E-19
 -1      3406 9.65473E-05-2.60083E-05-3.02434E-05-4.27756E-06 7.80878E-19-7.73732E-19
 -1      3407 9.26902E-05-2.09200E-05-3.07534E-05 3.20134E-06-1.09910E-18-1.62900E-18
 -1      3408 9.52481E-05-2.85719E-05-2.85756E-05 2.91419E-08 7.52563E-19 4.31000E-18
 -1      3409 9.52501E-05-2.85734E-05-2.85758E-05 2.72081E-08-5.26375E-20 3.36905E-18
 -1      3410 9.52515E-05-2.85664E-05-2.85792E-05 2.34346E-08 1.07052E-18 3.11876E-18
 -1      3411 9.52487E-05-2.85664E-05-2.85779E-05 2.70103E-08 8.11356E-20 4.21091E-18
 -1      3412 8.85725E-05-1.49901E-05-3.15569E-05-4.94968E-07-8.61414E-19-2.47516E-18
 -1      3413 8.97480E-05-1.60713E-05-3.15886E-05-5.81969E-07-1.13199E-18-2.48563E-18
 -1      3414 9.04260E-05-1.71581E-05-3.13809E-05 1.46605E-07-1.16363E-18-2.25881E-18
 -1      3415 8.84095E-05-1.55711E-05-3.11936E-05 1.96568E-07-7.76919E-19-2.30203E-18
 -1      3416 1.20260E-04-3.71533E-05-3.56881E-05 1.17456E-05 5.71463E-19 1.92619E-18
 -1      3417 5.83937E-05-1.45484E-05-1.88162E-05 8.15136E-06 8.70492E-19-3.29115E-18
 -1      3418 5.62934E-05-1.31966E-05-1.82650E-05-1.08095E-06 1.72788E-19-3.74420E-18
 -1      3419 8.87624E-05-2.17696E-05-2.87349E-05 9.45524E-06-2.13103E-19-1.55964E-18
 -1      3420 8.84136E-05-2.21985E-05-2.83606E-05 1.06694E-05-7.46894E-20-1.50595E-18
 -1      3421 8.73551E-05-2.25336E-05-2.78124E-05 1.20161E-05 1.82967E-19-1.42560E-18
 -1      3422 8.72883E-05-2.33759E-05-2.73509E-05 1.33751E-05 6.38507E-19-1.29995E-18
 -1      3423 8.53147E-05-2.07773E-05-2.76305E-05 1.03545E-05 1.85759E-19-1.25137E-18
 -1      3424 8.62248E-05-2.41340E-05-2.66377E-05 1.51438E-05 9.63389E-19-1.24412E-18
 -1      3425 8.68586E-05-2.58511E-05-2.60656E-05 1.68443E-05 1.47566E-18-1.27979E-18
 -1      3426 8.31296E-05-2.16970E-05-2.63034E-05 1.33628E-05 7.89982E-19-1.30267E-18
 -1      3427 8.62273E-05-2.76055E-05-2.51208E-05 1.92442E-05 1.79339E-18-1.58628E-18
 -1      3428 8.82696E-05-3.07005E-05-2.45018E-05 2.12997E-05 1.96245E-18-1.51220E-18
 -1      3429 8.12155E-05-2.40271E-05-2.45585E-05 1.77477E-05 1.40830E-18-1.88641E-18
 -1      3430 8.67159E-05-3.27313E-05-2.30187E-05 2.47467E-05 2.27448E-18-1.60236E-18
 -1      3431 1.10912E-04-1.94771E-05-3.92712E-05-8.81960E-06 2.86133E-18-8.11762E-19
 -1      3432 1.13477E-04-1.77101E-05-4.12173E-05-9.17002E-06 3.27855E-18-1.15975E-18
 -1      3433 1.16717E-04-2.04730E-05-4.16508E-05-1.17119E-05 3.05175E-18-1.43360E-18
 -1      3434 1.12901E-04-2.42143E-05-3.82926E-05-1.20639E-05 2.41494E-18-1.73096E-18
 -1      3435 8.64359E-05-1.32205E-05-3.13954E-05-7.03316E-07-1.89375E-19-2.48904E-18
 -1      3436 8.70225E-05-1.44759E-05-3.10634E-05-1.98269E-07-3.11457E-19-2.23326E-18
 -1      3437 8.61573E-05-1.29747E-05-3.13771E-05-6.61117E-07 1.03945E-19-2.57267E-18
 -1      3438 8.73396E-05-2.51751E-05-2.65756E-05-1.46189E-05 2.21263E-20-1.02639E-19
 -1      3439 8.68564E-05-2.39253E-05-2.69988E-05-1.32618E-05 2.66259E-19 7.50556E-19
 -1      3440 8.77636E-05-2.34722E-05-2.75181E-05-1.18161E-05-1.44678E-19 2.40713E-19
 -1      3441 8.78457E-05-2.30060E-05-2.78191E-05-1.07437E-05-4.43802E-19 4.15533E-19
 -1      3442 8.39395E-05-2.19058E-05-2.65648E-05-1.18210E-05-2.01507E-19 7.13267E-19
 -1      3443 8.87915E-05-2.30175E-05-2.81712E-05-9.69550E-06-8.70894E-19 1.21697E-19
 -1      3444 8.91077E-05-2.29838E-05-2.83647E-05-8.81513E-06-1.05442E-18 9.78230E-20
 -1      3445 8.58518E-05-2.16506E-05-2.74890E-05-9.45060E-06-7.41148E-19 4.98807E-19
 -1      3446 8.99772E-05-2.32418E-05-2.85918E-05-8.00711E-06-6.61535E-19 2.43868E-19
 -1      3447 9.03520E-05-2.34286E-05-2.87025E-05-7.25995E-06 1.06083E-19 5.02875E-19
 -1      3448 8.76806E-05-2.20463E-05-2.81052E-05-7.71243E-06-6.30092E-19 2.69171E-19
 -1      3449 9.11002E-05-2.37950E-05-2.88399E-05-6.60263E-06 1.59431E-19 2.79597E-19
 -1      3450 9.14518E-05-2.40772E-05-2.88919E-05-5.95693E-06-9.30268E-21 5.63049E-20
 -1      3451 8.92927E-05-2.27524E-05-2.84971E-05-6.35049E-06-2.47381E-19 5.70993E-19
 -1      3452 9.20701E-05-2.44714E-05-2.89672E-05-5.40415E-06 2.77754E-19-6.99396E-19
 -1      3453 9.23670E-05-2.47785E-05-2.89804E-05-4.84484E-06 5.26273E-19-8.86439E-19
 -1      3454 9.06472E-05-2.35712E-05-2.87306E-05-5.22295E-06-5.75535E-19 5.45181E-19
 -1      3455 9.28638E-05-2.51563E-05-2.90142E-05-4.37426E-06 2.58104E-19-8.88767E-19
 -1      3456 9.31000E-05-2.54508E-05-2.90038E-05-3.89375E-06 3.39616E-19-2.75443E-19
 -1      3457 9.17496E-05-2.43903E-05-2.88556E-05-4.26226E-06 1.02094E-19-4.52176E-19
 -1      3458 9.34906E-05-2.57903E-05-2.90112E-05-3.49398E-06 2.83209E-19 1.82823E-19
 -1      3459 9.36712E-05-2.60544E-05-2.89877E-05-3.08673E-06 1.11395E-19-9.77466E-20
 -1      3460 9.26258E-05-2.51493E-05-2.89089E-05-3.43784E-06 4.71826E-19-4.57560E-19
 -1      3461 9.39732E-05-2.63474E-05-2.89794E-05-2.75034E-06 5.43434E-19-2.06877E-19
 -1      3462 9.41076E-05-2.65747E-05-2.89499E-05-2.41056E-06 7.01138E-19 3.13072E-19
 -1      3463 9.33095E-05-2.58197E-05-2.89170E-05-2.73432E-06 4.12415E-19-3.56717E-19
 -1      3464 9.43378E-05-2.68206E-05-2.89331E-05-2.13137E-06-2.46229E-20 9.11598E-19
 -1      3465 9.44358E-05-2.70109E-05-2.89021E-05-1.85251E-06-6.14436E-19 4.95762E-20
 -1      3466 9.38350E-05-2.63930E-05-2.88985E-05-2.14125E-06 4.63339E-19-9.56478E-20
 -1      3467 9.46091E-05-2.72129E-05-2.88814E-05-1.62445E-06-1.11812E-18 5.51481E-19
 -1      3468 9.46794E-05-2.73690E-05-2.88518E-05-1.39936E-06-1.85012E-19 5.20444E-19
 -1      3469 9.42336E-05-2.68718E-05-2.88656E-05-1.64911E-06-3.01411E-19 2.91511E-19
 -1      3470 9.48082E-05-2.75321E-05-2.88303E-05-1.21612E-06 4.76024E-19 2.17751E-19
 -1      3471 9.48577E-05-2.76580E-05-2.88034E-05-1.03736E-06 4.08178E-19 4.97312E-19
 -1      3472 9.45323E-05-2.72641E-05-2.88266E-05-1.24768E-06 2.82495E-20 1.31735E-18
 -1      3473 9.49522E-05-2.77876E-05-2.87828E-05-8.92546E-07 2.38651E-19 9.48695E-19
 -1      3474 9.49866E-05-2.78876E-05-2.87594E-05-7.52853E-07 3.38814E-19 7.55634E-19
 -1      3475 9.47533E-05-2.75803E-05-2.87866E-05-9.25813E-07 8.60872E-19 5.81974E-19
 -1      3476 9.50548E-05-2.79893E-05-2.87407E-05-6.40291E-07 3.83073E-19 4.85608E-19
 -1      3477 9.50782E-05-2.80676E-05-2.87209E-05-5.32871E-07 7.79622E-19 2.71272E-19
 -1      3478 9.49144E-05-2.78313E-05-2.87487E-05-6.72113E-07 3.91472E-19 5.89116E-19
 -1      3479 9.51265E-05-2.81461E-05-2.87045E-05-4.46850E-07 9.96235E-19 5.33213E-19
 -1      3480 9.51421E-05-2.82066E-05-2.86881E-05-3.65606E-07 3.37717E-19 1.71989E-18
 -1      3481 9.50300E-05-2.80276E-05-2.87145E-05-4.75529E-07 8.69505E-19 3.94320E-19
 -1      3482 9.51756E-05-2.82664E-05-2.86743E-05-3.01017E-07-6.97320E-19 2.58066E-18
 -1      3483 9.51855E-05-2.83125E-05-2.86610E-05-2.40640E-07-7.85334E-19 3.00387E-18
 -1      3484 9.51113E-05-2.81791E-05-2.86847E-05-3.25830E-07 4.07382E-19 2.48348E-18
 -1      3485 9.52081E-05-2.83574E-05-2.86494E-05-1.93052E-07-4.68742E-19 2.67589E-18
 -1      3486 9.52141E-05-2.83920E-05-2.86388E-05-1.49041E-07 4.61995E-19 2.15205E-18
 -1      3487 9.51671E-05-2.82942E-05-2.86595E-05-2.13887E-07-7.83715E-19 4.61420E-18
 -1      3488 9.52287E-05-2.84252E-05-2.86294E-05-1.14712E-07 5.70902E-19 1.62809E-18
 -1      3489 9.52320E-05-2.84508E-05-2.86211E-05-8.33414E-08 2.90957E-19 4.31752E-19
 -1      3490 9.52041E-05-2.83804E-05-2.86385E-05-1.31808E-07-1.94503E-19 2.11848E-18
 -1      3491 9.52409E-05-2.84749E-05-2.86135E-05-5.91897E-08-3.14983E-19 4.34089E-19
 -1      3492 9.52424E-05-2.84937E-05-2.86070E-05-3.74480E-08-1.28929E-18-4.83282E-19
 -1      3493 9.52275E-05-2.84440E-05-2.86214E-05-7.29580E-08-3.69551E-19 8.81738E-19
 -1      3494 9.52472E-05-2.85109E-05-2.86009E-05-2.10073E-08 3.04066E-19-2.93878E-19
 -1      3495 9.52476E-05-2.85245E-05-2.85959E-05-6.53220E-09 7.83805E-19 6.26138E-19
 -1      3496 9.52412E-05-2.84902E-05-2.86076E-05-3.19089E-08-3.49904E-19 1.69503E-18
 -1      3497 9.52498E-05-2.85370E-05-2.85910E-05 4.24532E-09 9.43310E-19 3.17318E-19
 -1      3498 9.52497E-05-2.85469E-05-2.85870E-05 1.30690E-08 1.34975E-18 2.55709E-18
 -1      3499 9.52483E-05-2.85233E-05-2.85964E-05-4.28034E-09 1.23496E-18 1.61358E-18
 -1      3500 1.07870E-04-3.99869E-05-2.91053E-05-6.76628E-06-4.18275E-19-2.82780E-19
 -1      3501 1.05771E-04-3.80317E-05-2.89459E-05-7.90985E-06-4.38278E-19-3.50610E-19
 -1      3502 9.08671E-05-1.81033E-05-3.11845E-05 8.54420E-07-1.13122E-18-2.18805E-18
 -1      3503 9.13980E-05-1.90623E-05-3.09883E-05 1.68574E-06-1.03841E-18-1.98392E-18
 -1      3504 8.96926E-05-1.71891E-05-3.10962E-05 9.28895E-07-9.58680E-19-2.22581E-18
 -1      3505 1.20023E-04-4.29236E-05-3.31571E-05-7.85813E-06 4.53227E-19-2.53403E-18
 -1      3506 1.19664E-04-3.92457E-05-3.44691E-05-1.06330E-05 1.45980E-18-2.74740E-18
 -1      3507 1.16078E-04-4.45793E-05-3.05641E-05-7.57041E-07-7.62470E-19-9.93613E-19
 -1      3508 1.17382E-04-4.42275E-05-3.13691E-05-3.41823E-06-4.54360E-19-1.77628E-18
 -1      3509 1.10533E-04-4.18090E-05-2.93511E-05 4.19694E-06-4.50628E-19-5.33690E-19
 -1      3510 1.12660E-04-4.32697E-05-2.97983E-05 2.26794E-06-4.30816E-19-7.30932E-19
 -1      3511 1.14875E-04-4.59760E-05-2.97547E-05 3.76330E-06-6.94074E-19-2.48231E-18
 -1      3512 1.05295E-04-3.78770E-05-2.88258E-05 6.87831E-06 2.34083E-19-3.38279E-19
 -1      3513 1.07451E-04-3.97911E-05-2.90211E-05 5.72860E-06 1.40780E-19-3.13651E-19
 -1      3514 1.08322E-04-4.17870E-05-2.86584E-05 7.60414E-06-1.27779E-19-1.04980E-18
 -1      3515 1.01199E-04-3.41494E-05-2.86903E-05 7.85302E-06 2.07294E-19 4.54621E-19
 -1      3516 1.02958E-04-3.58835E-05-2.87443E-05 7.35153E-06-4.97466E-20 3.02815E-19
 -1      3517 1.02799E-04-3.70120E-05-2.82824E-05 9.08400E-06-9.36517E-20-1.30178E-19
 -1      3518 9.83431E-05-3.12400E-05-2.87291E-05 7.82605E-06-9.00014E-19 1.34275E-18
 -1      3519 9.96088E-05-3.25700E-05-2.87211E-05 7.76248E-06-3.72629E-19 1.29087E-18
 -1      3520 9.89029E-05-3.30540E-05-2.82737E-05 9.14082E-06-4.39460E-19 5.85318E-19
 -1      3521 9.65060E-05-2.92155E-05-2.88235E-05 7.27881E-06-7.76399E-19 1.31513E-18
 -1      3522 9.73573E-05-3.01374E-05-2.87980E-05 7.47256E-06-3.64249E-19 1.25716E-18
 -1      3523 9.64015E-05-3.02028E-05-2.84056E-05 8.49985E-06-9.05168E-19 8.90296E-19
 -1      3524 9.54274E-05-2.79479E-05-2.89137E-05 6.47407E-06-4.56879E-19 4.31058E-19
 -1      3525 9.59649E-05-2.85231E-05-2.88931E-05 6.80390E-06-5.35843E-19 1.17159E-18
 -1      3526 9.49244E-05-2.83037E-05-2.85725E-05 7.53528E-06-4.55491E-19 2.56057E-19
 -1      3527 9.48596E-05-2.72501E-05-2.89749E-05 5.58150E-06-1.09940E-18 9.66019E-19
 -1      3528 9.51785E-05-2.75669E-05-2.89672E-05 5.97135E-06-7.02507E-19 6.64737E-19
 -1      3529 9.41714E-05-2.71888E-05-2.87182E-05 6.48417E-06-5.74004E-19 8.93795E-19
 -1      3530 9.46138E-05-2.69475E-05-2.90022E-05 4.69410E-06-1.22901E-18 8.97658E-19
 -1      3531 9.47902E-05-2.70862E-05-2.90082E-05 5.09593E-06-1.18743E-18 5.89141E-19
 -1      3532 9.38762E-05-2.66354E-05-2.88229E-05 5.45882E-06-9.57772E-19 6.36476E-19
 -1      3533 9.45573E-05-2.68997E-05-2.89999E-05 3.86410E-06 8.80012E-19 2.10721E-20
 -1      3534 9.46458E-05-2.69241E-05-2.90169E-05 4.24849E-06-1.38240E-20 2.86310E-19
 -1      3535 9.38521E-05-2.64582E-05-2.88850E-05 4.51137E-06-2.64026E-19-3.03703E-19
 -1      3536 9.46025E-05-2.70023E-05-2.89758E-05 3.11905E-06 8.81938E-20-3.20781E-19
 -1      3537 9.46396E-05-2.69595E-05-2.90001E-05 3.46906E-06 9.36833E-19 1.45321E-19
 -1      3538 9.39736E-05-2.65152E-05-2.89107E-05 3.66550E-06 9.72562E-19-9.26663E-20
 -1      3539 9.46942E-05-2.71829E-05-2.89377E-05 2.47086E-06-1.60701E-18-1.37284E-18
 -1      3540 9.47034E-05-2.71052E-05-2.89658E-05 2.77810E-06-1.15582E-18-1.66313E-18
 -1      3541 9.41602E-05-2.67036E-05-2.89091E-05 2.92954E-06 4.01289E-19 5.07638E-19
 -1      3542 9.47999E-05-2.73935E-05-2.88924E-05 1.92134E-06-1.39755E-18-9.85216E-19
 -1      3543 9.47953E-05-2.73024E-05-2.89214E-05 2.18319E-06-1.71239E-18-1.26124E-18
 -1      3544 9.43634E-05-2.69534E-05-2.88888E-05 2.30301E-06-1.56691E-18-1.55221E-18
 -1      3545 9.49015E-05-2.76048E-05-2.88449E-05 1.46593E-06-1.27133E-18-5.26378E-20
 -1      3546 9.48914E-05-2.75132E-05-2.88728E-05 1.68354E-06-1.06052E-18-2.78354E-19
 -1      3547 9.45563E-05-2.72195E-05-2.88574E-05 1.77997E-06-1.49984E-18-1.56017E-18
 -1      3548 9.49906E-05-2.78000E-05-2.87988E-05 1.09626E-06 3.23273E-19-1.02671E-19
 -1      3549 9.49793E-05-2.77153E-05-2.88245E-05 1.27308E-06-4.50275E-19-3.06604E-19
 -1      3550 9.47254E-05-2.74747E-05-2.88207E-05 1.35137E-06-7.09479E-19-8.66944E-19
 -1      3551 9.50639E-05-2.79709E-05-2.87565E-05 8.01946E-07 6.04708E-19-2.34816E-19
 -1      3552 9.50537E-05-2.78967E-05-2.87791E-05 9.42692E-07 8.67317E-19-1.75295E-19
 -1      3553 9.48660E-05-2.77043E-05-2.87827E-05 1.00638E-06 1.55959E-19 5.29372E-19
 -1      3554 9.51213E-05-2.81146E-05-2.87190E-05 5.71955E-07-5.05494E-19 5.58972E-19
 -1      3555 9.51131E-05-2.80522E-05-2.87384E-05 6.81814E-07-5.41443E-19-5.76432E-19
 -1      3556 9.49780E-05-2.79017E-05-2.87463E-05 7.33459E-07 8.34987E-20 5.83237E-19
 -1      3557 9.51646E-05-2.82319E-05-2.86869E-05 3.95507E-07-9.35495E-19 2.26142E-18
 -1      3558 9.51584E-05-2.81810E-05-2.87030E-05 4.79625E-07-8.22624E-19 1.18664E-18
 -1      3559 9.50641E-05-2.80657E-05-2.87131E-05 5.21223E-07-1.25384E-18 1.40732E-18
 -1      3560 9.51958E-05-2.83250E-05-2.86600E-05 2.62657E-07 6.77433E-19 2.12486E-18
 -1      3561 9.51916E-05-2.82845E-05-2.86732E-05 3.25819E-07 2.84335E-19 2.94486E-18
 -1      3562 9.51280E-05-2.81982E-05-2.86839E-05 3.59027E-07-7.04526E-19 1.32815E-18
 -1      3563 9.52174E-05-2.83971E-05-2.86380E-05 1.64604E-07 1.19698E-18 1.34560E-18
 -1      3564 9.52147E-05-2.83658E-05-2.86486E-05 2.11057E-07 1.16873E-18 2.30629E-18
 -1      3565 9.51739E-05-2.83024E-05-2.86590E-05 2.37297E-07 8.53398E-19 6.28707E-19
 -1      3566 9.52315E-05-2.84519E-05-2.86204E-05 9.38157E-08 1.11116E-18 1.94908E-18
 -1      3567 9.52301E-05-2.84280E-05-2.86287E-05 1.27196E-07 1.17608E-18 1.59247E-18
 -1      3568 9.52055E-05-2.83827E-05-2.86382E-05 1.47706E-07 1.24006E-18 2.79451E-18
 -1      3569 9.52401E-05-2.84926E-05-2.86064E-05 4.40349E-08 1.12181E-18 1.09740E-18
 -1      3570 9.52395E-05-2.84748E-05-2.86129E-05 6.73568E-08 1.27371E-18 8.64350E-19
 -1      3571 9.52261E-05-2.84432E-05-2.86212E-05 8.32035E-08 1.30119E-18 2.03044E-18
 -1      3572 9.52447E-05-2.85225E-05-2.85955E-05 1.02109E-08 1.47945E-18 1.75758E-18
 -1      3573 9.52446E-05-2.85094E-05-2.86004E-05 2.58949E-08 1.84111E-18 1.63764E-18
 -1      3574 9.52387E-05-2.84880E-05-2.86075E-05 3.79804E-08 1.13759E-18 1.69215E-18
 -1      3575 9.52466E-05-2.85443E-05-2.85869E-05-1.15880E-08 2.09442E-18 1.35864E-19
 -1      3576 9.52469E-05-2.85346E-05-2.85907E-05-1.66340E-09 1.47600E-18 1.10508E-18
 -1      3577 9.52455E-05-2.85206E-05-2.85964E-05 7.39528E-09 1.84677E-18 2.43980E-18
 -1      3578 9.52470E-05-2.85605E-05-2.85800E-05-2.43637E-08 2.02015E-18-2.18523E-18
 -1      3579 9.52473E-05-2.85532E-05-2.85830E-05-1.88034E-08 2.44133E-18-3.28414E-19
 -1      3580 9.52485E-05-2.85444E-05-2.85875E-05-1.21717E-08 2.41508E-18 2.08088E-18
 -1      3581 1.23636E-04-4.35878E-05-3.44851E-05 7.36496E-06-2.25205E-19 1.44558E-18
 -1      3582 1.19039E-04-4.16134E-05-3.32929E-05 7.40682E-06-8.05227E-20 1.34410E-18
 -1      3583 1.18731E-04-4.37863E-05-3.21242E-05 4.86006E-06-5.65514E-19 1.25130E-18
 -1      3584 1.24543E-04-4.99415E-05-3.17817E-05-2.68347E-07-1.15358E-18 1.07868E-18
 -1      3585 9.52530E-05-2.85495E-05-2.85873E-05 3.67166E-09 2.00088E-18-2.60412E-18
 -1      3586 9.52528E-05-2.85489E-05-2.85875E-05 5.32179E-10 1.98378E-18-3.25026E-18
 -1      3587 9.08394E-05-3.87402E-05-2.25755E-05 2.70860E-05-1.97163E-18-1.75341E-18
 -1      3588 7.90934E-05-3.05247E-05-2.04776E-05 2.69136E-05-2.31650E-18 4.08429E-19
 -1      3589 1.11591E-04-4.97300E-05-2.68285E-05 1.78727E-05-1.29742E-18-2.13961E-18
 -1      3590 1.03115E-04-4.45923E-05-2.47418E-05 2.25371E-05-1.82712E-18-2.02048E-18
 -1      3591 9.65396E-05-2.72912E-05-2.96755E-05-6.60734E-06 1.78025E-19-9.81332E-19
 -1      3592 9.60000E-05-2.62826E-05-2.98638E-05-5.81287E-06 4.52535E-19-1.08569E-18
 -1      3593 5.74598E-05-1.49626E-05-1.81268E-05-1.03806E-05-3.82065E-19-3.70185E-18
 -1      3594 6.42024E-05-2.03337E-05-1.86886E-05-2.03708E-05-1.10386E-18-3.63176E-18
 -1      3595 7.47393E-05-2.85066E-05-1.96556E-05-2.70689E-05-1.91604E-18-3.42119E-18
 -1      3596 8.64281E-05-3.72578E-05-2.09577E-05-3.06190E-05-2.38059E-18-2.82544E-18
 -1      3597 9.13570E-05-1.98538E-05-3.06593E-05 3.07699E-06-9.69173E-19-1.87801E-18
 -1      3598 8.85141E-05-2.90575E-05-2.53385E-05-1.83354E-05 3.11491E-19 6.03753E-19
 -1      3599 8.67988E-05-2.64617E-05-2.58495E-05-1.66752E-05-6.61589E-19 2.64393E-19
 -1      3600 8.23039E-05-2.33969E-05-2.52379E-05-1.53016E-05-5.65739E-19 1.27201E-18
 -1      3601 7.30973E-05-2.65548E-05-1.96226E-05-2.46241E-05 1.39696E-18 2.46434E-18
 -1      3602 8.65519E-05-3.54035E-05-2.21239E-05-2.65293E-05 2.60987E-18 2.17460E-18
 -1      3603 1.01128E-04-4.26575E-05-2.46747E-05-2.33424E-05 3.21396E-18 7.43099E-19
 -1      3604 9.00634E-05-2.12731E-05-2.94954E-05 7.09823E-06-4.46917E-19-1.75964E-18
 -1      3605 8.96692E-05-2.15897E-05-2.91741E-05 8.29846E-06-3.14875E-19-1.74288E-18
 -1      3606 8.72967E-05-2.03507E-05-2.86638E-05 7.96966E-06-1.69217E-19-1.58714E-18
 -1      3607 9.10259E-05-2.06144E-05-3.01791E-05 4.69148E-06-8.70523E-19-1.68874E-18
 -1      3608 9.07196E-05-2.10343E-05-2.98741E-05 5.96863E-06-6.36713E-19-1.71237E-18
 -1      3609 8.88509E-05-1.99125E-05-2.95160E-05 5.79337E-06-5.76192E-19-1.59300E-18
 -1      3610 9.52497E-05-2.85749E-05-2.85749E-05-2.71028E-08-7.48887E-19 2.12284E-19
 -1      3611 9.52475E-05-2.85747E-05-2.85740E-05-2.95040E-08-2.13893E-18-3.58688E-18
 -1      3612 9.52472E-05-2.85712E-05-2.85755E-05-2.92961E-08-9.77586E-19-3.26981E-18
 -1      3613 9.52507E-05-2.85679E-05-2.85783E-05-2.40844E-08 5.24192E-19 2.08620E-18
 -1      3614 1.16710E-04-5.10466E-05-2.79619E-05-1.42796E-05-1.89032E-18 2.74459E-20
 -1      3615 1.21096E-04-5.16225E-05-3.00677E-05-7.39331E-06-1.53469E-18 3.85465E-19
 -1      3616 1.22628E-04-4.95864E-05-3.15596E-05 2.94540E-07-7.43381E-19-2.37479E-18
 -1      3617 1.18912E-04-5.02453E-05-2.92193E-05 8.22498E-06-1.13559E-18-2.69124E-18
 -1      3618 6.90101E-05-2.41102E-05-1.92348E-05 2.42196E-05-2.61754E-18 2.70632E-18
 -1      3619 6.11100E-05-1.78730E-05-1.83747E-05 1.70584E-05-2.40068E-18 3.15485E-18
 -1      3620 5.94726E-05-1.68878E-05-1.81350E-05-1.47188E-05-2.10924E-19 9.05108E-19
 -1      3621 6.55006E-05-2.15545E-05-1.86958E-05-2.14573E-05 3.67798E-19 1.57601E-18
 -1      3622 7.47120E-05-2.44619E-05-2.12856E-05-2.04389E-05 7.78781E-19 1.50475E-18
 -1      3623 9.42211E-05-3.67969E-05-2.44725E-05-2.21190E-05 2.69155E-18 1.00938E-18
 -1      3624 8.86570E-05-3.15332E-05-2.43178E-05-2.13592E-05 2.01611E-18 1.41022E-18
 -1      3625 7.85644E-05-2.70288E-05-2.19345E-05 2.32416E-05 2.16680E-18-2.37906E-18
 -1      3626 6.33865E-05-1.67209E-05-1.96791E-05 1.38768E-05 1.33439E-18-2.93486E-18
 -1      3627 6.52962E-05-1.61266E-05-2.09676E-05 8.98561E-06 5.65461E-19-2.73700E-18
 -1      3628 1.17313E-04-2.54178E-05-3.95003E-05-1.30489E-05 2.49110E-18-1.50233E-18
 -1      3629 9.40553E-05-3.98059E-05-2.31413E-05-2.62829E-05-2.21327E-18-1.94391E-18
 -1      3630 1.22641E-04-3.69644E-05-3.68310E-05-1.19094E-05 2.07420E-18-2.97658E-18
 -1      3631 9.03506E-05-1.76355E-05-3.11458E-05-1.08480E-06 1.07925E-18-2.11316E-18
 -1      3632 1.15472E-04-2.69169E-05-3.80084E-05-1.32533E-05 2.16634E-18-1.84971E-18
 -1      3633 8.64976E-05-1.40337E-05-3.10284E-05-7.50910E-07 1.09136E-19-2.48867E-18
 -1      3634 9.52527E-05-2.85488E-05-2.85875E-05-1.85172E-09 1.77490E-18-1.67119E-18
 -1      3635 9.52526E-05-2.85491E-05-2.85872E-05-4.93231E-09 1.19422E-18-9.15316E-19
 -1      3636 9.52512E-05-2.85369E-05-2.85916E-05-7.39409E-10 1.02440E-18-1.87866E-18
 -1      3637 7.16965E-05-2.28979E-05-2.08907E-05 2.02862E-05 1.91877E-18-2.58173E-18
 -1      3638 9.38104E-05-2.17994E-05-3.08665E-05-1.74236E-06 1.22281E-18-1.42649E-18
 -1      3639 9.25306E-05-2.05150E-05-3.08724E-05-1.90106E-06 1.02971E-18-1.72073E-18
 -1      3640 1.17592E-04-3.27929E-05-3.65992E-05-1.30793E-05 1.84022E-18-2.07417E-18
 -1      3641 1.03476E-04-3.71859E-05-2.85313E-05-9.93237E-06-6.22816E-19-9.72462E-19
 -1      3642 1.03431E-04-3.59593E-05-2.89220E-05-8.34446E-06-4.35666E-19-7.97506E-19
 -1      3643 1.01742E-04-3.41212E-05-2.89248E-05-8.75681E-06-6.14600E-19-6.93316E-19
 -1      3644 1.11017E-04-4.22073E-05-2.93936E-05-5.34266E-06-7.74073E-19 2.88744E-20
 -1      3645 1.08851E-04-4.17727E-05-2.88241E-05-8.45865E-06-8.12869E-19-1.85824E-19
 -1      3646 1.13301E-04-4.34888E-05-2.98718E-05-2.98652E-06-9.25412E-19 3.56748E-19
 -1      3647 9.52497E-05-2.85541E-05-2.85836E-05 1.85789E-08 6.41416E-19 2.77854E-18
 -1      3648 9.52491E-05-2.85608E-05-2.85807E-05 2.33508E-08 2.59914E-19 3.22575E-18
 -1      3649 9.52506E-05-2.85606E-05-2.85816E-05 2.17840E-08 7.74921E-19 2.43417E-18
 -1      3650 9.52509E-05-2.85458E-05-2.85879E-05 1.19298E-08 1.34469E-18 2.15461E-18
 -1      3651 1.00608E-04-3.21771E-05-2.93678E-05-7.53361E-06-2.74335E-19-6.08653E-19
 -1      3652 6.23068E-05-1.51821E-05-1.99890E-05-5.94629E-06-2.72061E-19-3.34521E-18
 -1      3653 9.52533E-05-2.85512E-05-2.85867E-05 6.34829E-09 1.40419E-18-1.77867E-18
 -1      3654 9.52518E-05-2.85388E-05-2.85911E-05 3.45235E-09 1.94719E-18-2.16594E-18
 -1      3655 9.52533E-05-2.85523E-05-2.85861E-05 9.56915E-09 1.35008E-18 1.20981E-18
 -1      3656 8.66103E-05-1.50416E-05-3.06848E-05-2.79058E-08-1.37345E-19-2.09443E-18
 -1      3657 8.71307E-05-1.54789E-05-3.07155E-05 3.52304E-07-4.17341E-19-2.09312E-18
 -1      3658 1.17319E-04-4.47882E-05-3.12109E-05 1.67120E-06-6.08451E-19 8.22836E-19
 -1      3659 1.20101E-04-4.86357E-05-3.05625E-05-3.07813E-06-1.25297E-18 5.45979E-19
 -1      3660 9.52468E-05-2.85673E-05-2.85768E-05-2.79326E-08 5.68168E-19-2.82969E-18
 -1      3661 9.71550E-05-3.98775E-05-2.44251E-05 2.20267E-05-1.93129E-18-1.66500E-18
 -1      3662 7.70175E-05-2.70069E-05-2.12341E-05 2.26499E-05-2.28987E-18 1.25585E-18
 -1      3663 9.52527E-05-2.85507E-05-2.85867E-05-7.41466E-09 1.58723E-18 3.27860E-19
 -1      3664 9.52525E-05-2.85519E-05-2.85860E-05-1.06034E-08 1.15215E-18 9.31163E-19
 -1      3665 9.52511E-05-2.85383E-05-2.85910E-05-4.67431E-09 1.31210E-18 3.04130E-19
 -1      3666 8.89970E-05-1.72195E-05-3.07627E-05-1.98404E-06 8.25222E-19-1.89389E-18
 -1      3667 8.80729E-05-1.64211E-05-3.07291E-05-1.95958E-06 4.69718E-19-2.07332E-18
 -1      3668 9.71325E-05-2.83550E-05-2.94529E-05-7.41252E-06-5.08308E-20-9.72084E-19
 -1      3669 9.56528E-05-2.70624E-05-2.94162E-05-7.38958E-06 4.96393E-20-1.35119E-18
 -1      3670 9.79620E-05-2.95614E-05-2.93091E-05-7.89980E-06-1.73566E-19-8.48051E-19
 -1      3671 8.78309E-05-1.58994E-05-3.08566E-05 7.11054E-07-5.02704E-19-2.08598E-18
 -1      3672 8.87149E-05-1.64717E-05-3.09591E-05 8.13500E-07-8.13956E-19-2.11900E-18
 -1      3673 8.91179E-05-1.73024E-05-3.07601E-05 1.49712E-06-7.77163E-19-2.03666E-18
 -1      3674 8.74555E-05-1.62883E-05-3.04786E-05 9.59462E-07-3.72219E-19-1.94385E-18
 -1      3675 8.78910E-05-1.69993E-05-3.03602E-05-2.38288E-06 3.76772E-19-2.13228E-18
 -1      3676 8.72853E-05-1.56788E-05-3.06908E-05-1.64545E-06 3.22808E-19-2.34928E-18
 -1      3677 8.67517E-05-1.52367E-05-3.06713E-05-1.46469E-06 1.92905E-19-2.52383E-18
 -1      3678 5.99788E-05-1.55240E-05-1.87940E-05 1.22063E-05-2.18761E-18 3.38101E-18
 -1      3679 6.04327E-05-1.45551E-05-1.96491E-05 6.37896E-06-1.66011E-18 2.41136E-18
 -1      3680 6.64926E-05-1.84014E-05-2.05082E-05 1.44592E-05-2.43850E-18 2.56051E-18
 -1      3681 9.52526E-05-2.85548E-05-2.85849E-05-1.32251E-08 1.68274E-18 8.68438E-19
 -1      3682 9.52519E-05-2.85563E-05-2.85838E-05-1.61456E-08 2.02504E-18 2.35588E-18
 -1      3683 9.52515E-05-2.85430E-05-2.85892E-05-8.92264E-09 1.27931E-18 3.15356E-19
 -1      3684 7.46692E-05-2.18057E-05-2.26094E-05 1.75388E-05 1.25867E-18-2.30205E-18
 -1      3685 5.91301E-05-1.47099E-05-1.87560E-05-9.24860E-06-6.83536E-19 8.15455E-19
 -1      3686 6.63041E-05-1.72347E-05-2.09085E-05-1.20342E-05-2.88610E-19 6.08368E-19
 -1      3687 6.06642E-05-1.41244E-05-1.99477E-05-3.25751E-06-9.81784E-19 1.41346E-18
 -1      3688 9.57710E-05-2.55436E-05-3.00962E-05-4.91651E-06 6.76908E-19-1.15883E-18
 -1      3689 9.55348E-05-2.48211E-05-3.02997E-05-3.98353E-06 8.98856E-19-1.11260E-18
 -1      3690 9.48746E-05-2.51282E-05-2.98978E-05-5.59663E-06 5.52282E-19-1.38296E-18
 -1      3691 9.52493E-05-2.85622E-05-2.85802E-05-2.33474E-08 1.50489E-18 7.52630E-19
 -1      3692 7.17020E-05-2.13500E-05-2.14912E-05-1.75459E-05-9.07225E-19-2.75341E-18
 -1      3693 7.21543E-05-2.43048E-05-2.03095E-05-2.25207E-05-1.48860E-18-3.12658E-18
 -1      3694 8.04531E-05-2.85851E-05-2.22961E-05-2.28770E-05-1.80792E-18-2.36329E-18
 -1      3695 8.99013E-05-1.89405E-05-3.04014E-05 3.16367E-06-8.60944E-19-1.86858E-18
 -1      3696 8.11967E-05-2.68409E-05-2.33567E-05-2.04940E-05 6.83053E-19 1.56193E-18
 -1      3697 1.14291E-04-4.71905E-05-2.86280E-05 9.11322E-06-1.19999E-18-2.24303E-18
 -1      3698 9.52517E-05-2.85598E-05-2.85823E-05 2.00824E-08 1.40030E-18 2.86019E-18
 -1      3699 9.52526E-05-2.85595E-05-2.85828E-05 1.82733E-08 1.63180E-18 1.92074E-18
 -1      3700 9.52518E-05-2.85526E-05-2.85853E-05 1.61274E-08 1.23721E-18 2.26178E-18
 -1      3701 9.52538E-05-2.85579E-05-2.85840E-05 1.43874E-08 9.57981E-19 2.29323E-18
 -1      3702 8.64221E-05-1.49019E-05-3.06590E-05-9.53934E-07 6.85398E-20-2.49923E-18
 -1      3703 8.63956E-05-1.48900E-05-3.06644E-05-6.46925E-07-8.62731E-20-2.32721E-18
 -1      3704 8.65120E-05-1.57156E-05-3.03101E-05-1.95293E-07-2.48717E-19-2.11544E-18
 -1      3705 8.66816E-05-1.59090E-05-3.03032E-05-1.45066E-06 7.95057E-20-2.35472E-18
 -1      3706 8.03795E-05-1.94919E-05-2.61622E-05 1.02655E-05 4.13966E-19-1.44223E-18
 -1      3707 7.93672E-05-1.99959E-05-2.54009E-05 1.18264E-05 7.90072E-19-1.64380E-18
 -1      3708 7.58807E-05-2.03610E-05-2.37811E-05 1.46798E-05 1.08666E-18-1.89669E-18
 -1      3709 8.04013E-05-2.02727E-05-2.57292E-05-1.05896E-05-9.24115E-19 9.23543E-19
 -1      3710 8.13568E-05-2.00949E-05-2.63105E-05-9.33481E-06-5.59132E-19 3.54772E-19
 -1      3711 9.52063E-05-2.33885E-05-3.07775E-05-1.94627E-06 1.22066E-18-9.36138E-19
 -1      3712 9.49979E-05-2.37893E-05-3.05126E-05-3.13158E-06 1.05906E-18-1.14344E-18
 -1      3713 8.31777E-05-2.03928E-05-2.68975E-05-8.36907E-06-8.61673E-19-2.31461E-19
 -1      3714 8.41570E-05-2.05707E-05-2.72921E-05-7.48629E-06-1.17575E-18-5.36923E-19
 -1      3715 8.00527E-05-1.89234E-05-2.61466E-05-7.13276E-06-9.88839E-19-1.19906E-19
 -1      3716 8.56115E-05-2.10157E-05-2.76836E-05-6.83682E-06-9.01518E-19 8.15641E-21
 -1      3717 8.65014E-05-2.13705E-05-2.79420E-05-6.16817E-06-1.69174E-19 3.52181E-19
 -1      3718 8.33052E-05-1.98490E-05-2.71519E-05-5.80608E-06-5.92773E-19 1.20504E-20
 -1      3719 8.76708E-05-2.18788E-05-2.81989E-05-5.67407E-06-1.79978E-20 1.90598E-19
 -1      3720 8.84297E-05-2.23053E-05-2.83602E-05-5.12826E-06-1.83189E-19 7.51520E-19
 -1      3721 8.58904E-05-2.08989E-05-2.78206E-05-4.85065E-06-3.51682E-20 4.41040E-19
 -1      3722 8.93692E-05-2.28214E-05-2.85232E-05-4.72040E-06-5.66420E-19 1.73335E-18
 -1      3723 8.99936E-05-2.32589E-05-2.86168E-05-4.25375E-06-5.57508E-19 1.92766E-18
 -1      3724 8.79687E-05-2.19792E-05-2.82564E-05-4.08939E-06-1.73390E-19 1.89433E-18
 -1      3725 9.07449E-05-2.37483E-05-2.87149E-05-3.90146E-06-9.31921E-19 1.37408E-18
 -1      3726 9.12455E-05-2.41623E-05-2.87627E-05-3.49561E-06-6.46069E-19 9.70380E-19
 -1      3727 8.96349E-05-2.30203E-05-2.85301E-05-3.43383E-06-1.27058E-18 2.54201E-18
 -1      3728 9.18416E-05-2.46053E-05-2.88167E-05-3.18733E-06 8.51427E-21 2.58125E-19
 -1      3729 9.22349E-05-2.49776E-05-2.88347E-05-2.83499E-06 5.78707E-19 5.32338E-19
 -1      3730 9.09631E-05-2.39811E-05-2.86919E-05-2.85111E-06-7.41241E-19 1.81401E-18
 -1      3731 9.27035E-05-2.53650E-05-2.88597E-05-2.56634E-06 5.17123E-19-5.94330E-19
 -1      3732 9.30076E-05-2.56885E-05-2.88592E-05-2.26389E-06 5.29705E-19-9.92500E-20
 -1      3733 9.20127E-05-2.48368E-05-2.87786E-05-2.33164E-06 3.21278E-19 4.57601E-19
 -1      3734 9.33725E-05-2.60188E-05-2.88656E-05-2.03292E-06 4.57980E-19-2.06283E-19
 -1      3735 9.36044E-05-2.62928E-05-2.88544E-05-1.77753E-06 3.86799E-19-2.04473E-19
 -1      3736 9.28349E-05-2.55787E-05-2.88157E-05-1.87391E-06 3.22852E-19 4.15313E-20
 -1      3737 9.38859E-05-2.65689E-05-2.88495E-05-1.58269E-06 3.66376E-19 3.27238E-19
 -1      3738 9.40606E-05-2.67964E-05-2.88328E-05-1.37099E-06 3.33273E-19 1.01093E-18
 -1      3739 9.34729E-05-2.62079E-05-2.88215E-05-1.47835E-06 5.73475E-19 6.29734E-19
 -1      3740 9.42750E-05-2.70229E-05-2.88215E-05-1.20998E-06 2.59803E-19 1.62586E-18
 -1      3741 9.44050E-05-2.72084E-05-2.88027E-05-1.03769E-06 8.35947E-19 2.20292E-18
 -1      3742 9.39624E-05-2.67318E-05-2.88085E-05-1.14430E-06 8.94495E-19 1.73117E-18
 -1      3743 9.45663E-05-2.73912E-05-2.87884E-05-9.07207E-07 5.71827E-19 2.09150E-18
 -1      3744 9.46616E-05-2.75402E-05-2.87696E-05-7.69486E-07 3.42694E-19 1.58719E-18
 -1      3745 9.43336E-05-2.71603E-05-2.87851E-05-8.68248E-07 6.42911E-19 2.44471E-18
 -1      3746 9.47813E-05-2.76854E-05-2.87545E-05-6.65745E-07 3.27790E-19 1.06085E-18
 -1      3747 9.48503E-05-2.78033E-05-2.87369E-05-5.57586E-07 3.82951E-19 1.18556E-18
 -1      3748 9.46112E-05-2.75052E-05-2.87572E-05-6.44770E-07 3.07240E-19 1.83436E-18
 -1      3749 9.49377E-05-2.79170E-05-2.87223E-05-4.76653E-07 2.68461E-19 1.37909E-18
 -1      3750 9.49866E-05-2.80089E-05-2.87066E-05-3.93193E-07 8.72217E-19 1.77082E-18
 -1      3751 9.48159E-05-2.77787E-05-2.87285E-05-4.67435E-07 3.75925E-19 1.23120E-18
 -1      3752 9.50492E-05-2.80967E-05-2.86932E-05-3.31239E-07 5.36973E-19 1.56658E-18
 -1      3753 9.50832E-05-2.81673E-05-2.86797E-05-2.67983E-07 8.17262E-20 2.08352E-18
 -1      3754 9.49641E-05-2.79922E-05-2.87010E-05-3.29437E-07 6.22950E-19 1.17785E-18
 -1      3755 9.51269E-05-2.82340E-05-2.86678E-05-2.21469E-07-5.11184E-19 2.05369E-18
 -1      3756 9.51499E-05-2.82874E-05-2.86564E-05-1.74422E-07-4.46554E-19 2.09439E-18
 -1      3757 9.50693E-05-2.81565E-05-2.86761E-05-2.24117E-07 9.55606E-20-3.77943E-19
 -1      3758 9.51796E-05-2.83372E-05-2.86462E-05-1.40218E-07-8.48916E-19 2.43564E-18
 -1      3759 9.51944E-05-2.83770E-05-2.86368E-05-1.05946E-07-3.80626E-19 1.75051E-18
 -1      3760 9.51420E-05-2.82808E-05-2.86542E-05-1.45332E-07-5.66849E-19 4.69094E-19
 -1      3761 9.52137E-05-2.84137E-05-2.86282E-05-8.13643E-08-3.69070E-19 1.41299E-18
 -1      3762 9.52227E-05-2.84429E-05-2.86205E-05-5.69925E-08-5.00612E-19 7.25967E-19
 -1      3763 9.51905E-05-2.83735E-05-2.86355E-05-8.76582E-08-8.19971E-19 1.43713E-18
 -1      3764 9.52346E-05-2.84695E-05-2.86133E-05-3.98090E-08-4.83434E-20 1.02084E-18
 -1      3765 9.52396E-05-2.84907E-05-2.86070E-05-2.30108E-08-2.00197E-19 1.42958E-18
 -1      3766 9.52213E-05-2.84415E-05-2.86197E-05-4.64461E-08-4.23683E-19 4.33797E-19
 -1      3767 9.52462E-05-2.85097E-05-2.86011E-05-1.14676E-08 9.13080E-19 2.43115E-18
 -1      3768 9.52487E-05-2.85250E-05-2.85960E-05-1.81243E-10 2.18705E-18 2.73018E-18
 -1      3769 9.52395E-05-2.84907E-05-2.86065E-05-1.79384E-08 9.21390E-19 1.86238E-18
 -1      3770 1.00162E-04-3.23878E-05-2.90386E-05-8.58113E-06-4.48335E-19-8.13244E-19
 -1      3771 9.89300E-05-3.08810E-05-2.91283E-05-8.45441E-06-2.92354E-19-7.70070E-19
 -1      3772 9.96732E-05-3.30044E-05-2.86575E-05-9.86459E-06-6.12951E-19-1.01331E-18
 -1      3773 9.12828E-05-1.93322E-05-3.08390E-05-1.97158E-06 9.39828E-19-2.09484E-18
 -1      3774 9.01010E-05-1.82491E-05-3.08104E-05-2.08374E-06 8.46129E-19-2.02761E-18
 -1      3775 8.98769E-05-1.87809E-05-3.04558E-05-2.87718E-06 6.38852E-19-1.86103E-18
 -1      3776 9.23128E-05-2.10052E-05-3.05494E-05-2.96796E-06 9.17219E-19-1.82323E-18
 -1      3777 1.21351E-04-4.60938E-05-3.23099E-05-3.80792E-06-4.54632E-19-2.91203E-18
 -1      3778 1.15507E-04-4.56432E-05-2.98930E-05-3.74878E-06-9.56671E-19 5.54005E-19
 -1      3779 1.14465E-04-4.68930E-05-2.90905E-05-8.14938E-06-1.17641E-18 2.62233E-20
 -1      3780 1.10431E-04-4.49216E-05-2.78557E-05 1.14975E-05-1.06202E-18-2.09499E-18
 -1      3781 9.62055E-05-3.12056E-05-2.78285E-05 1.02249E-05-7.28549E-19 6.41403E-19
 -1      3782 9.79046E-05-3.29600E-05-2.77713E-05 1.05126E-05-2.20325E-19-2.01811E-20
 -1      3783 9.41805E-05-2.86044E-05-2.80925E-05 8.87396E-06-2.68580E-19-1.70651E-20
 -1      3784 9.51818E-05-2.97956E-05-2.79942E-05 9.38172E-06-4.52819E-19 4.97058E-19
 -1      3785 9.36192E-05-2.95602E-05-2.74870E-05 1.07487E-05-4.28432E-19-4.10871E-19
 -1      3786 9.31986E-05-2.70539E-05-2.83464E-05 7.50113E-06-8.03926E-19-7.56959E-19
 -1      3787 9.37437E-05-2.77695E-05-2.82529E-05 8.05708E-06-6.27033E-19-6.79159E-19
 -1      3788 9.22710E-05-2.73251E-05-2.78552E-05 8.87330E-06-3.88410E-19-7.09886E-19
 -1      3789 9.28474E-05-2.62389E-05-2.85502E-05 6.23916E-06-7.14588E-19-4.23226E-19
 -1      3790 9.30966E-05-2.66137E-05-2.84774E-05 6.77978E-06-4.34493E-19-7.31875E-19
 -1      3791 9.17912E-05-2.60764E-05-2.81739E-05 7.25977E-06-7.94589E-19-1.61455E-18
 -1      3792 9.28684E-05-2.59253E-05-2.86957E-05 5.11926E-06-5.13745E-19-5.60028E-19
 -1      3793 9.29371E-05-2.60683E-05-2.86471E-05 5.61799E-06-6.86587E-19-6.66649E-20
 -1      3794 9.18118E-05-2.55026E-05-2.84216E-05 5.88675E-06-6.67885E-19-1.37128E-18
 -1      3795 9.30893E-05-2.59330E-05-2.87877E-05 4.14752E-06-3.45238E-20-4.12694E-19
 -1      3796 9.30563E-05-2.59287E-05-2.87610E-05 4.59320E-06-4.26193E-19-3.09884E-20
 -1      3797 9.21076E-05-2.53766E-05-2.85984E-05 4.73508E-06-4.87223E-19-9.28982E-19
 -1      3798 9.33991E-05-2.61293E-05-2.88364E-05 3.31723E-06 5.56316E-19 9.09074E-19
 -1      3799 9.33157E-05-2.60391E-05-2.88269E-05 3.70658E-06-1.15285E-19 1.01655E-20
 -1      3800 9.25309E-05-2.55266E-05-2.87135E-05 3.77687E-06-3.69194E-19 4.73059E-19
 -1      3801 9.37307E-05-2.64221E-05-2.88525E-05 2.61769E-06 8.21710E-20 8.15161E-19
 -1      3802 9.36288E-05-2.62887E-05-2.88556E-05 2.95100E-06 1.43850E-18 1.58444E-18
 -1      3803 9.29906E-05-2.58298E-05-2.87799E-05 2.98330E-06 4.71809E-19 9.86171E-19
 -1      3804 9.40453E-05-2.67496E-05-2.88464E-05 2.03628E-06-9.55138E-19-6.27372E-19
 -1      3805 9.39433E-05-2.66011E-05-2.88575E-05 2.31657E-06-2.63566E-19 3.35890E-19
 -1      3806 9.34336E-05-2.62025E-05-2.88100E-05 2.33082E-06 7.68215E-19 1.43798E-18
 -1      3807 9.43236E-05-2.70734E-05-2.88261E-05 1.55975E-06-1.91187E-18-8.23532E-19
 -1      3808 9.42311E-05-2.69271E-05-2.88418E-05 1.79132E-06-1.84016E-18-1.21780E-18
 -1      3809 9.38312E-05-2.65897E-05-2.88147E-05 1.79837E-06-7.99114E-19 6.50412E-19
 -1      3810 9.45577E-05-2.73713E-05-2.87980E-05 1.17490E-06-7.72583E-19-3.48523E-19
 -1      3811 9.44791E-05-2.72371E-05-2.88158E-05 1.36297E-06-1.29111E-18-6.77426E-19
 -1      3812 9.41711E-05-2.69580E-05-2.88029E-05 1.36828E-06-1.95947E-18-1.39612E-19
 -1      3813 9.47474E-05-2.76322E-05-2.87667E-05 8.68684E-07-9.36906E-20 1.51456E-18
 -1      3814 9.46836E-05-2.75151E-05-2.87847E-05 1.01888E-06-4.07475E-19 7.33430E-19
 -1      3815 9.44509E-05-2.72891E-05-2.87814E-05 1.02485E-06-1.40517E-18 9.93640E-19
 -1      3816 9.48960E-05-2.78525E-05-2.87354E-05 6.28690E-07-9.10844E-19 2.07560E-18
 -1      3817 9.48462E-05-2.77539E-05-2.87524E-05 7.46664E-07-5.19461E-19 1.44540E-18
 -1      3818 9.46740E-05-2.75745E-05-2.87552E-05 7.53974E-07-8.14048E-19 1.85602E-18
 -1      3819 9.50091E-05-2.80330E-05-2.87059E-05 4.43516E-07-6.04185E-19 2.44084E-18
 -1      3820 9.49715E-05-2.79524E-05-2.87213E-05 5.34636E-07-3.45152E-19 2.95122E-18
 -1      3821 9.48470E-05-2.78128E-05-2.87276E-05 5.43154E-07-9.19699E-19 2.99083E-18
 -1      3822 9.50925E-05-2.81771E-05-2.86795E-05 3.02953E-07-3.02653E-19 1.92499E-18
 -1      3823 9.50651E-05-2.81129E-05-2.86928E-05 3.72126E-07-4.72466E-19 2.60495E-18
 -1      3824 9.49775E-05-2.80063E-05-2.87010E-05 3.81398E-07-6.93402E-19 3.49980E-18
 -1      3825 9.51522E-05-2.82896E-05-2.86565E-05 1.98097E-07 6.25541E-19 1.20804E-18
 -1      3826 9.51329E-05-2.82396E-05-2.86678E-05 2.49656E-07 6.21305E-21 1.25453E-18
 -1      3827 9.50732E-05-2.81598E-05-2.86765E-05 2.59177E-07 2.46112E-19 2.98506E-18
 -1      3828 9.51932E-05-2.83755E-05-2.86369E-05 1.21374E-07 9.60781E-19 1.94485E-18
 -1      3829 9.51803E-05-2.83374E-05-2.86464E-05 1.59036E-07 9.50844E-19 1.62034E-18
 -1      3830 9.51411E-05-2.82788E-05-2.86548E-05 1.68363E-07 4.23811E-19 2.07401E-18
 -1      3831 9.52201E-05-2.84398E-05-2.86207E-05 6.64720E-08 1.51368E-18 2.47261E-18
 -1      3832 9.52120E-05-2.84113E-05-2.86284E-05 9.33458E-08 1.81148E-18 2.78952E-18
 -1      3833 9.51877E-05-2.83693E-05-2.86361E-05 1.02168E-07 9.39595E-19 2.20552E-18
 -1      3834 9.52366E-05-2.84870E-05-2.86073E-05 2.82593E-08 1.16046E-18 2.97513E-18
 -1      3835 9.52319E-05-2.84661E-05-2.86136E-05 4.68620E-08 9.71220E-19 2.59682E-18
 -1      3836 9.52180E-05-2.84367E-05-2.86203E-05 5.49392E-08 1.32986E-18 4.41832E-18
 -1      3837 9.52457E-05-2.85213E-05-2.85964E-05 2.67790E-09 1.96282E-18 2.24232E-18
 -1      3838 9.52434E-05-2.85061E-05-2.86015E-05 1.49613E-08 2.26372E-18 2.53815E-18
 -1      3839 9.52364E-05-2.84860E-05-2.86072E-05 2.22070E-08 1.77309E-18 3.07972E-18
 -1      3840 1.09934E-04-4.86668E-05-2.63655E-05-2.00372E-05-1.92992E-18-5.57348E-19
 -1      3841 1.12234E-04-4.74412E-05-2.76182E-05-1.43794E-05-1.67591E-18-1.22780E-19
 -1      3842 1.04681E-04-4.49610E-05-2.53881E-05-2.19239E-05-2.04073E-18-9.08436E-19
 -1      3843 8.24919E-05-2.94326E-05-2.27624E-05 2.17581E-05-2.37114E-18-1.51804E-19
 -1      3844 7.44880E-05-2.35846E-05-2.17261E-05 1.92419E-05-2.32704E-18 1.82818E-18
 -1      3845 6.49326E-05-1.47690E-05-2.14962E-05-1.56164E-06-6.41735E-20-2.99021E-18
 -1      3846 6.67514E-05-1.66250E-05-2.14526E-05-9.77875E-06-5.87951E-19-3.06098E-18
 -1      3847 9.52528E-05-2.85465E-05-2.85883E-05 1.02887E-08 1.47706E-18 1.32508E-18
 -1      3848 9.52509E-05-2.85601E-05-2.85818E-05-2.02166E-08 1.82061E-18 2.24460E-18
 -1      3849 8.87903E-05-1.82534E-05-3.02543E-05 2.90990E-06-6.37061E-19-1.76667E-18
 -1      3850 1.02886E-04-3.88009E-05-2.73571E-05 1.26273E-05-4.79239E-19-1.18734E-18
 -1      3851 1.06258E-04-4.15069E-05-2.76339E-05 1.17027E-05-6.94362E-19-1.55967E-18
 -1      3852 1.02727E-04-4.20061E-05-2.62999E-05 1.74648E-05-1.42196E-18-1.87597E-18
 -1      3853 9.33542E-05-3.59431E-05-2.44933E-05 2.06507E-05-1.92334E-18-1.40460E-18
 -1      3854 7.48517E-05-2.22474E-05-2.25212E-05-1.74936E-05-3.53183E-19 5.37601E-19
 -1      3855 8.79120E-05-1.88999E-05-2.95812E-05 4.24134E-06-6.21741E-19-1.51849E-18
 -1      3856 8.72051E-05-1.91785E-05-2.91727E-05 5.22986E-06-4.50724E-19-1.50101E-18
 -1      3857 8.60913E-05-1.92533E-05-2.86767E-05 6.02898E-06-3.06930E-19-1.52766E-18
 -1      3858 8.51687E-05-1.93839E-05-2.81991E-05 7.02741E-06-3.77939E-20-1.59938E-18
 -1      3859 8.53883E-05-1.81753E-05-2.87423E-05 4.41737E-06-4.15512E-19-1.29461E-18
 -1      3860 6.93156E-05-1.68003E-05-2.24906E-05 9.01140E-06 6.71823E-19-2.36672E-18
 -1      3861 6.58644E-05-1.47460E-05-2.17609E-05 3.55233E-06 3.86876E-19-2.71691E-18
 -1      3862 6.94421E-05-1.56572E-05-2.29730E-05-3.77470E-07 6.32404E-20-2.61390E-18
 -1      3863 8.35790E-05-1.93482E-05-2.75819E-05 7.94062E-06 1.72920E-19-1.55938E-18
 -1      3864 8.25081E-05-1.95334E-05-2.69804E-05 9.10207E-06 2.71239E-19-1.46062E-18
 -1      3865 7.91809E-05-1.80160E-05-2.61440E-05 7.60213E-06 2.98118E-19-1.78616E-18
 -1      3866 8.27326E-05-1.81420E-05-2.76030E-05 5.83942E-06 6.20154E-20-1.64666E-18
 -1      3867 8.78679E-05-3.39356E-05-2.29167E-05-2.47540E-05-2.12102E-18-2.14248E-18
 -1      3868 9.65996E-05-4.03388E-05-2.41870E-05-2.42235E-05-2.04134E-18-1.60030E-18
 -1      3869 9.85203E-05-3.99505E-05-2.50339E-05-2.15910E-05-1.86294E-18-1.32302E-18
 -1      3870 9.87424E-05-3.44185E-05-2.75316E-05 1.15416E-05-5.49189E-19-3.44471E-19
 -1      3871 1.01238E-04-3.67062E-05-2.75735E-05 1.14219E-05-6.80384E-19-8.24504E-19
 -1      3872 9.74618E-05-3.59506E-05-2.64916E-05 1.53971E-05-1.09487E-18-1.91129E-18
 -1      3873 9.55408E-05-3.25976E-05-2.70540E-05 1.28784E-05-7.72355E-19-8.15038E-19
 -1      3874 7.35189E-05-1.81425E-05-2.36708E-05 1.12088E-05 7.62027E-19-2.13151E-18
 -1      3875 9.40988E-05-2.32650E-05-3.03625E-05-3.79570E-06 9.25963E-19-1.53523E-18
 -1      3876 9.52506E-05-2.85500E-05-2.85859E-05-1.51921E-08 2.92484E-18 2.63157E-18
 -1      3877 1.09733E-04-4.48149E-05-2.78014E-05-1.30098E-05-1.23040E-18-1.40047E-19
 -1      3878 7.15619E-05-1.93687E-05-2.22581E-05-1.44704E-05-3.36944E-19 2.31716E-19
 -1      3879 7.81992E-05-2.16393E-05-2.41444E-05-1.45710E-05-7.39630E-19 1.01026E-18
 -1      3880 7.87601E-05-2.06972E-05-2.49439E-05-1.26046E-05-7.06933E-19 8.64771E-19
 -1      3881 6.98934E-05-1.72536E-05-2.26317E-05-9.85305E-06-7.60096E-19 2.89533E-19
 -1      3882 8.74620E-05-1.75574E-05-2.99459E-05 2.47333E-06-5.19018E-19-1.80172E-18
 -1      3883 7.65038E-05-1.87197E-05-2.47170E-05-9.86747E-06-8.19844E-19 1.06060E-18
 -1      3884 8.82202E-05-1.81609E-05-3.00163E-05-3.23778E-06 4.86029E-19-1.90013E-18
 -1      3885 8.73088E-05-1.74385E-05-2.99696E-05-2.83663E-06 2.96726E-19-2.21719E-18
 -1      3886 9.52472E-05-2.85230E-05-2.85962E-05-2.36806E-10 9.48085E-19-1.99793E-18
 -1      3887 9.52470E-05-2.85228E-05-2.85962E-05-1.48024E-09 7.58481E-19-1.00232E-18
 -1      3888 9.06102E-05-2.02346E-05-3.01546E-05-3.83507E-06 4.86946E-19-1.85684E-18
 -1      3889 8.93831E-05-1.92151E-05-3.00948E-05-3.68731E-06 4.45251E-19-1.84758E-18
 -1      3890 8.88308E-05-1.95109E-05-2.97042E-05-4.27344E-06 3.76727E-19-1.90061E-18
 -1      3891 9.47168E-05-3.44636E-05-2.57239E-05 1.67149E-05-1.67018E-18-1.41644E-18
 -1      3892 8.82177E-05-3.22962E-05-2.39496E-05 2.07870E-05-1.90902E-18-8.76424E-19
 -1      3893 8.49570E-05-2.85947E-05-2.42114E-05 1.82355E-05-1.72552E-18-3.29383E-19
 -1      3894 9.33770E-05-3.25312E-05-2.59830E-05 1.56091E-05-1.28961E-18-9.53825E-19
 -1      3895 9.52518E-05-2.85450E-05-2.85887E-05 1.06544E-08 1.62836E-18 2.30087E-18
 -1      3896 9.30281E-05-2.23477E-05-3.02905E-05-3.88961E-06 7.91064E-19-1.74313E-18
 -1      3897 9.17099E-05-2.11692E-05-3.02439E-05-3.90766E-06 6.32266E-19-1.78810E-18
 -1      3898 9.12482E-05-2.15086E-05-2.98863E-05-4.78652E-06 3.73371E-19-1.65990E-18
 -1      3899 9.35497E-05-2.33926E-05-3.00630E-05-4.76836E-06 6.25433E-19-1.59020E-18
 -1      3900 1.06535E-04-4.20882E-05-2.75380E-05-1.37795E-05-1.18568E-18-4.98423E-19
 -1      3901 8.44630E-05-2.97594E-05-2.33111E-05-2.13168E-05-1.71899E-18-2.21981E-18
 -1      3902 7.72955E-05-2.32502E-05-2.31197E-05 1.60331E-05-2.28717E-18 1.46778E-18
 -1      3903 7.17431E-05-2.07656E-05-2.17402E-05 1.63864E-05-2.38792E-18 2.55065E-18
 -1      3904 6.96819E-05-1.84397E-05-2.19957E-05 1.20569E-05-2.15808E-18 2.67132E-18
 -1      3905 9.52498E-05-2.85460E-05-2.85874E-05-1.32746E-08 2.93182E-18 2.59196E-18
 -1      3906 9.52490E-05-2.85350E-05-2.85915E-05-5.87910E-09 2.47653E-18 2.20977E-18
 -1      3907 9.52487E-05-2.85265E-05-2.85953E-05 1.59477E-09 9.34290E-19-1.66124E-18
 -1      3908 9.52479E-05-2.85246E-05-2.85959E-05-1.77847E-10 1.62643E-18-3.76801E-18
 -1      3909 9.52438E-05-2.85083E-05-2.86006E-05-1.66762E-09 9.44737E-20-1.97784E-18
 -1      3910 9.52500E-05-2.85329E-05-2.85930E-05 4.56710E-09 1.41041E-18 2.27625E-18
 -1      3911 1.01741E-04-4.04027E-05-2.63981E-05-1.78163E-05-1.57613E-18-7.97402E-19
 -1      3912 1.02827E-04-3.81870E-05-2.76643E-05-1.30922E-05-9.97093E-19-9.06373E-19
 -1      3913 9.52492E-05-2.85264E-05-2.85956E-05 6.20471E-10 1.34990E-18 1.34442E-18
 -1      3914 1.00386E-04-3.55763E-05-2.76768E-05-1.30252E-05-8.80229E-19-1.14463E-18
 -1      3915 9.50080E-05-3.55390E-05-2.54010E-05-1.94096E-05-1.72892E-18-1.53413E-18
 -1      3916 8.59666E-05-1.62149E-05-2.99044E-05-4.59279E-07-2.22155E-19-2.22623E-18
 -1      3917 8.61231E-05-1.63662E-05-2.99214E-05 1.98090E-07-3.01388E-19-1.94165E-18
 -1      3918 9.71587E-05-2.96429E-05-2.89782E-05-8.89924E-06-2.82262E-19-1.21392E-18
 -1      3919 9.52473E-05-2.85241E-05-2.85958E-05-1.57073E-09 1.28761E-18-2.80682E-19
 -1      3920 9.52475E-05-2.85256E-05-2.85952E-05-2.93166E-09 1.27224E-18 8.18688E-19
 -1      3921 9.52434E-05-2.85079E-05-2.86006E-05-4.04310E-10 7.07842E-19-8.60545E-19
 -1      3922 7.29739E-05-1.79073E-05-2.35410E-05-8.71070E-06-6.62426E-19-2.41885E-18
 -1      3923 7.11474E-05-1.87994E-05-2.23060E-05-1.28197E-05-8.22062E-19-2.58648E-18
 -1      3924 7.66563E-05-2.21964E-05-2.34742E-05-1.52738E-05-1.18607E-18-1.99808E-18
 -1      3925 9.45929E-05-2.66079E-05-2.91214E-05-8.00723E-06-7.95553E-20-1.46984E-18
 -1      3926 9.39890E-05-2.54435E-05-2.93725E-05-7.12679E-06 2.06593E-19-1.52272E-18
 -1      3927 8.65797E-05-1.70986E-05-2.97843E-05 1.98583E-06-3.89941E-19-1.70129E-18
 -1      3928 9.52465E-05-2.85218E-05-2.85962E-05 4.88168E-10 2.38675E-18 2.34555E-18
 -1      3929 9.52487E-05-2.85296E-05-2.85940E-05-3.77800E-09 1.40647E-18 4.76960E-19
 -1      3930 9.52491E-05-2.85324E-05-2.85928E-05-5.77231E-09 1.76579E-18 5.81680E-19
 -1      3931 9.52448E-05-2.85135E-05-2.85990E-05-1.17703E-10 2.14725E-18 4.58444E-19
 -1      3932 6.24761E-05-1.40178E-05-2.05535E-05 1.29033E-06-8.60944E-19 1.27637E-18
 -1      3933 6.62126E-05-1.51246E-05-2.18811E-05-3.01923E-06-6.05672E-19 7.24180E-19
 -1      3934 6.59544E-05-1.54966E-05-2.16197E-05 5.24896E-06-1.60236E-18 1.74173E-18
 -1      3935 9.37701E-05-2.42052E-05-2.98109E-05-5.67272E-06 3.71041E-19-1.52900E-18
 -1      3936 9.26082E-05-2.37066E-05-2.95265E-05-6.30701E-06 2.85536E-19-1.59153E-18
 -1      3937 7.31673E-05-1.66922E-05-2.42785E-05 6.49138E-06 5.05442E-19-2.04247E-18
 -1      3938 8.57815E-05-1.73031E-05-2.93585E-05 1.75467E-06-3.74580E-19-1.73166E-18
 -1      3939 8.14019E-05-1.90753E-05-2.67266E-05-4.22173E-06-5.90278E-19 3.50771E-19
 -1      3940 8.28728E-05-1.96177E-05-2.71422E-05-3.81008E-06-9.57569E-20 9.02130E-19
 -1      3941 8.44071E-05-2.02397E-05-2.75153E-05-3.65073E-06 4.40747E-20 8.89360E-19
 -1      3942 8.55883E-05-2.07957E-05-2.77909E-05-3.33145E-06 3.05629E-19 1.24802E-18
 -1      3943 8.29557E-05-1.95161E-05-2.71419E-05-2.17250E-06 3.61697E-20 1.44458E-18
 -1      3944 8.67896E-05-2.13921E-05-2.80397E-05-3.18337E-06 2.28000E-19 9.40779E-19
 -1      3945 8.77353E-05-2.19341E-05-2.82173E-05-2.90532E-06-1.30449E-19 1.42626E-18
 -1      3946 8.56310E-05-2.07577E-05-2.77713E-05-2.07230E-06 1.17169E-19 9.53336E-19
 -1      3947 8.86927E-05-2.24965E-05-2.83787E-05-2.75611E-06-1.27323E-18 1.65978E-18
 -1      3948 8.94472E-05-2.30040E-05-2.84882E-05-2.50160E-06-1.55374E-18 1.41070E-18
 -1      3949 8.77523E-05-2.19219E-05-2.81888E-05-1.91326E-06-8.90377E-19 5.30140E-19
 -1      3950 9.02096E-05-2.35166E-05-2.85890E-05-2.35050E-06-1.32873E-18 1.26188E-18
 -1      3951 9.08074E-05-2.39759E-05-2.86520E-05-2.11475E-06-9.07442E-19 9.39903E-19
 -1      3952 8.94441E-05-2.30009E-05-2.84569E-05-1.72114E-06-1.68664E-18 1.36484E-19
 -1      3953 9.14150E-05-2.44326E-05-2.87112E-05-1.96601E-06-5.79413E-19 9.23631E-19
 -1      3954 9.18848E-05-2.48364E-05-2.87430E-05-1.75135E-06 7.17206E-20-2.69108E-19
 -1      3955 9.07929E-05-2.39745E-05-2.86219E-05-1.49865E-06-7.72863E-19 5.01995E-19
 -1      3956 9.23655E-05-2.52330E-05-2.87741E-05-1.61025E-06 7.70259E-19-4.66377E-19
 -1      3957 9.27316E-05-2.55805E-05-2.87857E-05-1.41887E-06 5.87710E-19-2.44297E-19
 -1      3958 9.18655E-05-2.48357E-05-2.87163E-05-1.26922E-06 2.79513E-19-2.70325E-20
 -1      3959 9.31098E-05-2.59188E-05-2.87981E-05-1.29102E-06 5.43757E-19-3.10499E-20
 -1      3960 9.33922E-05-2.62120E-05-2.87969E-05-1.12523E-06 8.03452E-19 1.64985E-19
 -1      3961 9.27136E-05-2.55804E-05-2.87631E-05-1.04316E-06 8.45247E-19-1.07355E-19
 -1      3962 9.36858E-05-2.64947E-05-2.87974E-05-1.01381E-06 6.04839E-19 9.81145E-19
 -1      3963 9.39011E-05-2.67374E-05-2.87888E-05-8.73731E-07 1.46120E-18 1.44815E-18
 -1      3964 9.33771E-05-2.62131E-05-2.87783E-05-8.36638E-07 1.04507E-18 5.23292E-19
 -1      3965 9.41263E-05-2.69694E-05-2.87822E-05-7.79356E-07 1.20606E-18 1.33340E-18
 -1      3966 9.42884E-05-2.71670E-05-2.87698E-05-6.63728E-07 6.08254E-19 1.12444E-18
 -1      3967 9.38896E-05-2.67394E-05-2.87739E-05-6.54903E-07 7.78385E-19-2.24263E-19
 -1      3968 9.44589E-05-2.73543E-05-2.87594E-05-5.85944E-07 2.84904E-19 1.12167E-18
 -1      3969 9.45791E-05-2.75127E-05-2.87455E-05-4.92569E-07 8.78398E-19 1.65599E-18
 -1      3970 9.42805E-05-2.71699E-05-2.87581E-05-5.00283E-07 5.09329E-19 3.48347E-19
 -1      3971 9.47062E-05-2.76615E-05-2.87335E-05-4.30055E-07 3.18039E-19 1.37777E-18
 -1      3972 9.47941E-05-2.77864E-05-2.87197E-05-3.56204E-07 3.70506E-19 1.43021E-18
 -1      3973 9.45744E-05-2.75163E-05-2.87366E-05-3.72623E-07 6.66728E-19 9.73807E-19
 -1      3974 9.48871E-05-2.79028E-05-2.87075E-05-3.07127E-07 1.95424E-19 4.26741E-19
 -1      3975 9.49501E-05-2.79999E-05-2.86945E-05-2.49879E-07-4.84720E-19-3.67250E-19
 -1      3976 9.47918E-05-2.77906E-05-2.87129E-05-2.69995E-07-6.93578E-19 1.53972E-19
 -1      3977 9.50168E-05-2.80896E-05-2.86830E-05-2.12205E-07 3.09548E-19-1.09511E-18
 -1      3978 9.50609E-05-2.81638E-05-2.86714E-05-1.68707E-07 2.98380E-20-1.33037E-18
 -1      3979 9.49496E-05-2.80043E-05-2.86895E-05-1.89477E-07-4.98366E-19-1.74663E-18
 -1      3980 9.51075E-05-2.82317E-05-2.86609E-05-1.40420E-07-3.29438E-19-9.76874E-19
 -1      3981 9.51375E-05-2.82876E-05-2.86508E-05-1.08046E-07-2.67017E-19-4.71197E-19
 -1      3982 9.50616E-05-2.81682E-05-2.86676E-05-1.27745E-07-1.53385E-19-1.91347E-18
 -1      3983 9.51690E-05-2.83382E-05-2.86416E-05-8.73119E-08-1.07512E-18-4.47481E-20
 -1      3984 9.51885E-05-2.83796E-05-2.86330E-05-6.37711E-08-7.99228E-19 2.44972E-19
 -1      3985 9.51387E-05-2.82918E-05-2.86480E-05-8.14792E-08-3.87710E-19-8.88631E-19
 -1      3986 9.52089E-05-2.84166E-05-2.86251E-05-4.89526E-08 2.32376E-20 6.27869E-19
 -1      3987 9.52209E-05-2.84469E-05-2.86179E-05-3.22493E-08 6.56658E-19 9.62480E-19
 -1      3988 9.51900E-05-2.83834E-05-2.86309E-05-4.77390E-08-8.89922E-21 9.31903E-20
 -1      3989 9.52332E-05-2.84736E-05-2.86111E-05-2.19822E-08 1.05545E-18 1.36915E-18
 -1      3990 9.52399E-05-2.84953E-05-2.86051E-05-1.06675E-08 1.29480E-18 2.25375E-18
 -1      3991 9.52221E-05-2.84504E-05-2.86162E-05-2.37239E-08 4.70469E-19 4.94517E-19
 -1      3992 9.84031E-05-3.31949E-05-2.79128E-05-1.20505E-05-7.90174E-19-1.36602E-18
 -1      3993 9.66944E-05-3.11108E-05-2.80699E-05-1.15251E-05-8.70758E-19-1.37834E-18
 -1      3994 9.62572E-05-3.36916E-05-2.69328E-05-1.50900E-05-1.20239E-18-1.26827E-18
 -1      3995 9.13619E-05-2.27496E-05-2.94156E-05-6.21248E-06 2.24462E-19-1.64791E-18
 -1      3996 9.03355E-05-2.49344E-05-2.80417E-05 6.64849E-06-9.34442E-19-1.06328E-18
 -1      3997 9.04316E-05-2.53073E-05-2.78889E-05 7.39681E-06-3.12866E-19-4.32962E-19
 -1      3998 9.02280E-05-2.57216E-05-2.76569E-05 8.38841E-06-2.80730E-19-3.18002E-19
 -1      3999 9.06381E-05-2.64888E-05-2.74664E-05 9.28498E-06-4.73925E-19 4.38744E-19
 -1      4000 8.87203E-05-2.45075E-05-2.75240E-05 7.73584E-06-2.93000E-20-8.28990E-20
 -1      4001 9.07303E-05-2.73325E-05-2.71776E-05 1.04869E-05-6.45066E-19-3.35499E-19
 -1      4002 9.17105E-05-2.87116E-05-2.69899E-05 1.15595E-05-9.69949E-19-4.24913E-19
 -1      4003 8.86198E-05-2.56679E-05-2.69707E-05 1.00674E-05-8.99006E-19 1.48967E-20
 -1      4004 9.07781E-05-2.47047E-05-2.83290E-05 5.25540E-06-9.28937E-19-7.82633E-19
 -1      4005 9.06836E-05-2.48143E-05-2.82159E-05 5.87557E-06-1.41396E-18-1.11383E-18
 -1      4006 8.93109E-05-2.40820E-05-2.79522E-05 5.97461E-06-8.05348E-19-9.91915E-19
 -1      4007 9.13735E-05-2.48273E-05-2.85302E-05 4.14010E-06-8.70207E-19-1.38357E-19
 -1      4008 9.11817E-05-2.47702E-05-2.84530E-05 4.65082E-06-7.11686E-19-5.72689E-19
 -1      4009 9.00807E-05-2.41160E-05-2.82648E-05 4.61686E-06-1.15766E-18 8.18245E-20
 -1      4010 9.20074E-05-2.51510E-05-2.86620E-05 3.24530E-06-8.07762E-19 9.73787E-19
 -1      4011 9.17788E-05-2.49995E-05-2.86137E-05 3.66610E-06-1.06485E-18 2.62653E-19
 -1      4012 9.08971E-05-2.44226E-05-2.84822E-05 3.57117E-06-1.27379E-18 3.31312E-19
 -1      4013 9.26183E-05-2.55771E-05-2.87401E-05 2.52505E-06 4.17474E-19 1.34404E-18
 -1      4014 9.23870E-05-2.53782E-05-2.87142E-05 2.87031E-06-1.34137E-20 6.17518E-19
 -1      4015 9.16824E-05-2.48756E-05-2.86251E-05 2.75247E-06-3.19204E-19 4.50420E-19
 -1      4016 9.31695E-05-2.60346E-05-2.87790E-05 1.94730E-06 3.14919E-19 1.44477E-18
 -1      4017 9.29559E-05-2.58222E-05-2.87691E-05 2.22935E-06 6.94452E-19 1.37934E-18
 -1      4018 9.23974E-05-2.53908E-05-2.87113E-05 2.11299E-06 3.89908E-19 3.83525E-19
 -1      4019 9.36454E-05-2.64807E-05-2.87906E-05 1.48539E-06-9.19270E-19 1.04096E-18
 -1      4020 9.34588E-05-2.62744E-05-2.87916E-05 1.71396E-06 1.59458E-19 1.68317E-18
 -1      4021 9.30211E-05-2.59106E-05-2.87565E-05 1.61020E-06 2.82388E-19 1.77627E-18
 -1      4022 9.40417E-05-2.68893E-05-2.87843E-05 1.11880E-06-1.94787E-18 3.39154E-19
 -1      4023 9.38855E-05-2.67011E-05-2.87921E-05 1.30230E-06-1.70275E-18 6.37136E-19
 -1      4024 9.35469E-05-2.63998E-05-2.87730E-05 1.21614E-06-7.60621E-19 1.16332E-18
 -1      4025 9.43620E-05-2.72473E-05-2.87672E-05 8.30278E-07-1.57619E-18 9.88385E-19
 -1      4026 9.42356E-05-2.70830E-05-2.87788E-05 9.75982E-07-2.33165E-18-1.54318E-19
 -1      4027 9.39774E-05-2.68376E-05-2.87706E-05 9.08332E-07-1.85291E-18 4.62198E-19
 -1      4028 9.46142E-05-2.75506E-05-2.87445E-05 6.05451E-07-1.19663E-18 1.90693E-18
 -1      4029 9.45149E-05-2.74119E-05-2.87577E-05 7.19757E-07-8.23316E-19 1.55785E-18
 -1      4030 9.43211E-05-2.72155E-05-2.87567E-05 6.69160E-07-1.52552E-18 5.10056E-19
 -1      4031 9.48078E-05-2.78005E-05-2.87197E-05 4.32277E-07-1.79333E-18 3.02679E-18
 -1      4032 9.47320E-05-2.76866E-05-2.87331E-05 5.20775E-07-1.61292E-18 2.77585E-18
 -1      4033 9.45890E-05-2.75319E-05-2.87365E-05 4.84757E-07-2.00806E-18 2.38609E-18
 -1      4034 9.49527E-05-2.80013E-05-2.86952E-05 3.00607E-07-3.73300E-19 3.42687E-18
 -1      4035 9.48964E-05-2.79101E-05-2.87079E-05 3.68154E-07-7.73872E-19 3.46349E-18
 -1      4036 9.47932E-05-2.77904E-05-2.87138E-05 3.43960E-07-1.28206E-18 2.86819E-18
 -1      4037 9.50583E-05-2.81592E-05-2.86724E-05 2.01926E-07 3.53835E-19 2.91901E-18
 -1      4038 9.50177E-05-2.80877E-05-2.86839E-05 2.52689E-07 1.32015E-19 3.04174E-18
 -1      4039 9.49449E-05-2.79967E-05-2.86909E-05 2.37684E-07 2.45894E-19 2.79029E-18
 -1      4040 9.51329E-05-2.82807E-05-2.86519E-05 1.29151E-07 1.13476E-18 2.09893E-18
 -1      4041 9.51046E-05-2.82259E-05-2.86620E-05 1.66648E-07 1.15587E-18 2.50010E-18
 -1      4042 9.50548E-05-2.81579E-05-2.86692E-05 1.58517E-07 1.47159E-18 2.24572E-18
 -1      4043 9.51837E-05-2.83724E-05-2.86341E-05 7.64893E-08 6.32248E-19 2.61410E-18
 -1      4044 9.51648E-05-2.83312E-05-2.86427E-05 1.03639E-07 6.09520E-19 1.62948E-18
 -1      4045 9.51320E-05-2.82814E-05-2.86497E-05 1.00416E-07 1.20788E-18 1.51989E-18
 -1      4046 9.52166E-05-2.84402E-05-2.86189E-05 3.92258E-08 9.19670E-19 2.79550E-18
 -1      4047 9.52047E-05-2.84098E-05-2.86262E-05 5.85483E-08 6.06674E-19 2.66204E-18
 -1      4048 9.51843E-05-2.83743E-05-2.86325E-05 5.86982E-08 1.04365E-20 1.01093E-18
 -1      4049 9.52367E-05-2.84898E-05-2.86061E-05 1.35441E-08 2.78278E-18 1.45572E-18
 -1      4050 9.52297E-05-2.84676E-05-2.86122E-05 2.68966E-08 2.66229E-18 2.21491E-18
 -1      4051 9.52176E-05-2.84425E-05-2.86177E-05 2.93168E-08 2.04680E-18 1.12686E-18
 -1      4052 6.92185E-05-1.58853E-05-2.27433E-05-5.99056E-06-6.06730E-19 9.05048E-19
 -1      4053 7.34808E-05-1.75616E-05-2.39182E-05-8.18687E-06-6.35568E-19 9.48346E-19
 -1      4054 7.51409E-05-1.75162E-05-2.47717E-05-6.35265E-06-5.64989E-19 1.18161E-18
 -1      4055 6.97997E-05-1.57797E-05-2.32218E-05-2.03786E-06-2.02292E-19 9.93642E-19
 -1      4056 9.52508E-05-2.85417E-05-2.85897E-05-9.41436E-09 2.80219E-18 2.68533E-18
 -1      4057 8.61062E-05-1.63776E-05-2.99037E-05-1.49000E-06-1.35750E-19-2.26607E-18
 -1      4058 8.57336E-05-1.68282E-05-2.95109E-05-1.09599E-06-1.29648E-19-2.10866E-18
 -1      4059 8.65527E-05-1.67383E-05-2.99214E-05-2.10841E-06 1.41401E-19-2.23671E-18
 -1      4060 9.61877E-05-2.93627E-05-2.86136E-05-9.73686E-06-5.08432E-19-1.38552E-18
 -1      4061 9.51168E-05-2.78552E-05-2.88160E-05-9.10220E-06-2.57698E-19-1.46897E-18
 -1      4062 9.32496E-05-2.61636E-05-2.87433E-05-8.90997E-06-7.89817E-20-1.32803E-18
 -1      4063 9.52356E-05-2.84890E-05-2.86059E-05 9.06136E-10-1.51290E-19-2.10423E-18
 -1      4064 9.52362E-05-2.84904E-05-2.86055E-05 2.20426E-09 1.05138E-18-1.06166E-18
 -1      4065 9.52448E-05-2.85094E-05-2.86007E-05-4.28420E-09 5.88255E-19 2.17508E-19
 -1      4066 8.68715E-05-1.77973E-05-2.95708E-05-2.99338E-06 1.85193E-19-2.01752E-18
 -1      4067 9.52479E-05-2.85274E-05-2.85946E-05-4.05085E-09 1.67896E-18 4.24400E-19
 -1      4068 8.95553E-05-3.20692E-05-2.47327E-05-2.01033E-05-1.63579E-18-2.01104E-18
 -1      4069 9.37788E-05-3.28424E-05-2.60262E-05-1.68878E-05-1.51534E-18-1.45477E-18
 -1      4070 9.18471E-05-3.01455E-05-2.63453E-05-1.54634E-05-1.24614E-18-1.57940E-18
 -1      4071 8.34078E-05-2.69731E-05-2.41083E-05-1.84220E-05-1.28869E-18-2.04717E-18
 -1      4072 8.47708E-05-1.75477E-05-2.88450E-05 1.87038E-06-3.93252E-19-1.52624E-18
 -1      4073 8.36025E-05-1.76391E-05-2.83190E-05 2.43540E-06-2.03629E-19-1.52813E-18
 -1      4074 8.47184E-05-1.69587E-05-2.90042E-05-1.08629E-07-2.70446E-19-1.68057E-18
 -1      4075 7.59576E-05-1.69786E-05-2.52573E-05 4.93455E-06 4.06087E-19-2.00231E-18
 -1      4076 7.27169E-05-1.60119E-05-2.42766E-05 2.89559E-06 2.61990E-19-2.14673E-18
 -1      4077 7.76111E-05-1.79616E-05-2.55548E-05-5.03174E-06-8.82232E-19 8.17548E-19
 -1      4078 7.94081E-05-1.84556E-05-2.61715E-05-4.46562E-06-9.03490E-19 7.46506E-19
 -1      4079 7.94844E-05-1.82021E-05-2.62064E-05-2.26262E-06-7.62252E-19 1.25496E-18
 -1      4080 7.22228E-05-1.60787E-05-2.40840E-05-1.72879E-06-1.75144E-19-2.23471E-18
 -1      4081 9.52445E-05-2.85119E-05-2.85996E-05 4.51094E-09 2.08596E-18 8.70655E-19
 -1      4082 8.64488E-05-2.84596E-05-2.49294E-05 1.64502E-05-1.36421E-18-2.30684E-19
 -1      4083 8.19704E-05-2.58034E-05-2.39550E-05 1.69680E-05-1.74593E-18-2.10104E-20
 -1      4084 7.87723E-05-2.31132E-05-2.39006E-05 1.45048E-05-1.82836E-18 1.55730E-18
 -1      4085 8.21671E-05-2.42951E-05-2.47303E-05-1.48355E-05-1.13030E-18-1.94493E-18
 -1      4086 8.97382E-05-2.14507E-05-2.92418E-05-5.94210E-06 2.70972E-19-1.86320E-18
 -1      4087 8.82855E-05-2.03772E-05-2.91364E-05-5.51696E-06 1.99220E-19-1.96342E-18
 -1      4088 9.09285E-05-2.36225E-05-2.88659E-05-7.58092E-06 8.44105E-20-1.65110E-18
 -1      4089 9.52391E-05-2.84945E-05-2.86049E-05-7.39810E-09 5.86238E-19-8.78598E-19
 -1      4090 8.47856E-05-1.71846E-05-2.89979E-05-1.26436E-06-3.77662E-20-1.87013E-18
 -1      4091 8.64173E-05-1.86397E-05-2.90292E-05-4.10418E-06 1.91707E-19-1.89753E-18
 -1      4092 8.55141E-05-1.79358E-05-2.89684E-05-3.32126E-06 2.65690E-20-1.94866E-18
 -1      4093 8.41926E-05-1.78552E-05-2.84258E-05-2.38449E-06-9.77455E-20-1.73690E-18
 -1      4094 8.69090E-05-2.04300E-05-2.85177E-05-6.04339E-06 7.71553E-20-1.86462E-18
 -1      4095 7.79771E-05-1.71966E-05-2.61213E-05 4.12690E-06 2.12246E-19-1.89080E-18
 -1      4096 7.51062E-05-1.69913E-05-2.48510E-05-3.43143E-06-7.78681E-19 1.16528E-18
 -1      4097 9.52386E-05-2.84952E-05-2.86042E-05 7.99436E-09 2.76717E-18-3.27508E-19
 -1      4098 9.52369E-05-2.84907E-05-2.86056E-05-4.35393E-09 1.31149E-21-2.04453E-18
 -1      4099 9.52359E-05-2.84892E-05-2.86060E-05-3.07124E-09-4.26017E-19-1.36992E-18
 -1      4100 9.52282E-05-2.84682E-05-2.86111E-05-1.30985E-09-7.46550E-20-2.15170E-18
 -1      4101 7.35148E-05-1.87962E-05-2.34461E-05 9.74037E-06-1.55364E-18 2.22613E-18
 -1      4102 6.93113E-05-1.67483E-05-2.23997E-05 8.15089E-06-1.47885E-18 1.89291E-18
 -1      4103 7.00960E-05-1.62106E-05-2.31245E-05 3.78013E-06-3.57560E-19 1.12033E-18
 -1      4104 9.41688E-05-2.91918E-05-2.78386E-05-1.18236E-05-7.91377E-19-1.59171E-18
 -1      4105 9.13515E-05-2.47944E-05-2.85227E-05-8.74429E-06-1.50607E-19-1.63646E-18
 -1      4106 7.39894E-05-1.67724E-05-2.44424E-05-4.66884E-06-3.32138E-19-2.27479E-18
 -1      4107 7.66912E-05-1.85117E-05-2.50401E-05-7.68639E-06-5.54324E-19-2.14802E-18
 -1      4108 7.67841E-05-1.69692E-05-2.55991E-05-1.59864E-06 6.02551E-20-1.83690E-18
 -1      4109 9.52369E-05-2.84909E-05-2.86055E-05 7.60056E-09 3.06790E-18 8.94382E-19
 -1      4110 9.52286E-05-2.84687E-05-2.86112E-05 1.06872E-08 2.00220E-18-1.16865E-18
 -1      4111 8.23030E-05-1.71305E-05-2.78606E-05-3.23116E-07-2.75653E-19-1.45055E-18
 -1      4112 8.21031E-05-1.76111E-05-2.76951E-05 2.45046E-06-1.00286E-19-1.57422E-18
 -1      4113 8.05537E-05-1.74791E-05-2.70532E-05 2.97603E-06 8.03110E-21-1.71528E-18
 -1      4114 8.64746E-05-2.62461E-05-2.57620E-05 1.32937E-05-1.35418E-18-2.14802E-19
 -1      4115 8.95934E-05-2.87261E-05-2.60856E-05 1.37272E-05-1.29856E-18-6.44580E-19
 -1      4116 8.47506E-05-2.04724E-05-2.75749E-05-7.84948E-07-3.10519E-19 1.59707E-18
 -1      4117 8.59724E-05-2.10561E-05-2.78327E-05-7.99213E-07-4.21401E-19 1.16583E-18
 -1      4118 8.70283E-05-2.16279E-05-2.80471E-05-9.47705E-07-7.93901E-19 6.78648E-19
 -1      4119 8.79879E-05-2.21756E-05-2.82153E-05-9.23862E-07-1.69378E-18 6.18375E-19
 -1      4120 8.64764E-05-2.13588E-05-2.78806E-05 2.27639E-07-1.01136E-18 1.59033E-18
 -1      4121 8.88420E-05-2.27017E-05-2.83576E-05-9.86265E-07-1.88915E-18 7.30878E-20
 -1      4122 8.96014E-05-2.32037E-05-2.84646E-05-9.31102E-07-1.77994E-18-4.15462E-21
 -1      4123 8.83293E-05-2.23956E-05-2.82370E-05-9.98153E-08-2.10776E-18 1.37552E-18
 -1      4124 9.02966E-05-2.36873E-05-2.85551E-05-9.45922E-07-1.00779E-18-3.83790E-19
 -1      4125 9.08999E-05-2.41406E-05-2.86192E-05-8.72747E-07-1.10267E-19 2.02474E-19
 -1      4126 8.98556E-05-2.33782E-05-2.84713E-05-2.59357E-07-1.22410E-18 1.02363E-18
 -1      4127 9.14548E-05-2.45672E-05-2.86737E-05-8.50089E-07 5.06876E-19 4.82398E-19
 -1      4128 9.19397E-05-2.49658E-05-2.87087E-05-7.63147E-07 9.35296E-19 4.60295E-19
 -1      4129 9.10657E-05-2.42564E-05-2.86154E-05-3.15482E-07 5.29535E-19 2.19620E-19
 -1      4130 9.23849E-05-2.53445E-05-2.87376E-05-7.32242E-07 4.40504E-19 7.48645E-21
 -1      4131 9.27672E-05-2.56882E-05-2.87529E-05-6.45813E-07 7.49406E-19 2.52891E-19
 -1      4132 9.20713E-05-2.50656E-05-2.87007E-05-3.31705E-07 8.74112E-19 2.68135E-19
 -1      4133 9.31185E-05-2.60104E-05-2.87649E-05-6.08605E-07 1.10344E-18 3.15410E-19
 -1      4134 9.34151E-05-2.63001E-05-2.87675E-05-5.27828E-07 9.82782E-19 5.25221E-19
 -1      4135 9.28632E-05-2.57657E-05-2.87432E-05-3.11815E-07 5.74155E-19 5.87402E-19
 -1      4136 9.36897E-05-2.65699E-05-2.87687E-05-4.89925E-07 4.85082E-19 7.89211E-20
 -1      4137 9.39172E-05-2.68096E-05-2.87636E-05-4.17930E-07 2.80211E-19-5.98761E-19
 -1      4138 9.34860E-05-2.63612E-05-2.87577E-05-2.71739E-07 5.44769E-19 2.45412E-19
 -1      4139 9.41288E-05-2.70314E-05-2.87582E-05-3.82953E-07 3.53959E-19-7.95667E-19
 -1      4140 9.43012E-05-2.72264E-05-2.87488E-05-3.21265E-07 5.02165E-19-7.81680E-19
 -1      4141 9.39699E-05-2.68581E-05-2.87544E-05-2.24526E-07 5.88799E-19-1.05012E-18
 -1      4142 9.44617E-05-2.74056E-05-2.87398E-05-2.90971E-07 5.29560E-19-1.14241E-18
 -1      4143 9.45903E-05-2.75616E-05-2.87285E-05-2.39814E-07 5.72335E-19-1.45698E-18
 -1      4144 9.43403E-05-2.72650E-05-2.87407E-05-1.77795E-07 3.43868E-19-3.36574E-18
 -1      4145 9.47100E-05-2.77039E-05-2.87179E-05-2.14766E-07-4.71857E-19-1.49141E-18
 -1      4146 9.48042E-05-2.78267E-05-2.87061E-05-1.73515E-07-1.35213E-18-2.49460E-18
 -1      4147 9.46193E-05-2.75923E-05-2.87215E-05-1.35582E-07-2.52708E-19-4.65763E-18
 -1      4148 9.48917E-05-2.79378E-05-2.86952E-05-1.53565E-07-1.06165E-18-2.05989E-18
 -1      4149 9.49593E-05-2.80328E-05-2.86839E-05-1.21125E-07-7.04885E-19-2.57753E-18
 -1      4150 9.48256E-05-2.78509E-05-2.87003E-05-9.96542E-08-9.64604E-19-3.33849E-18
 -1      4151 9.50217E-05-2.81181E-05-2.86734E-05-1.05747E-07-3.04211E-19-2.52316E-18
 -1      4152 9.50690E-05-2.81905E-05-2.86630E-05-8.08254E-08 1.21399E-19-2.32244E-18
 -1      4153 9.49748E-05-2.80519E-05-2.86790E-05-7.04067E-08-6.67417E-19-2.76295E-18
 -1      4154 9.51123E-05-2.82548E-05-2.86535E-05-6.93161E-08 7.63246E-19-2.40181E-18
 -1      4155 9.51444E-05-2.83090E-05-2.86443E-05-5.05976E-08 6.46475E-19-1.38189E-18
 -1      4156 9.50801E-05-2.82053E-05-2.86591E-05-4.74754E-08 5.97854E-19-2.71135E-18
 -1      4157 9.51734E-05-2.83569E-05-2.86358E-05-4.21598E-08-2.04509E-19-7.59822E-19
 -1      4158 9.51943E-05-2.83966E-05-2.86279E-05-2.85857E-08-6.41480E-19-1.40226E-18
 -1      4159 9.51518E-05-2.83205E-05-2.86411E-05-3.01047E-08 5.24279E-19-2.99222E-18
 -1      4160 8.72255E-05-2.32408E-05-2.74546E-05 6.58257E-06-3.50509E-19-1.58887E-19
 -1      4161 8.70154E-05-2.35049E-05-2.71972E-05 7.57530E-06-3.11302E-19-4.20543E-19
 -1      4162 8.94577E-05-2.35974E-05-2.82411E-05 3.74275E-06-1.22958E-18 5.08634E-19
 -1      4163 8.90440E-05-2.34447E-05-2.81057E-05 4.30426E-06-6.93077E-19 3.40438E-19
 -1      4164 8.04847E-05-2.15414E-05-2.51851E-05-1.19374E-05-9.45683E-19-1.96474E-18
 -1      4165 8.60634E-05-2.62900E-05-2.57514E-05-1.49440E-05-1.09728E-18-1.70814E-18
 -1      4166 8.83594E-05-2.32746E-05-2.79140E-05 4.94939E-06-8.85808E-19-2.38123E-19
 -1      4167 8.80011E-05-2.32815E-05-2.77229E-05 5.67528E-06-7.48826E-19-2.48300E-19
 -1      4168 8.63448E-05-2.23375E-05-2.74170E-05 5.52383E-06-8.35297E-19-1.04650E-19
 -1      4169 8.78457E-05-2.26974E-05-2.78996E-05 4.01649E-06-9.85992E-19 3.98026E-19
 -1      4170 8.62438E-05-2.37357E-05-2.68305E-05 8.75302E-06-3.09426E-19-4.81669E-19
 -1      4171 8.62808E-05-2.44625E-05-2.65079E-05 1.01623E-05-1.05495E-18-1.58451E-19
 -1      4172 8.49349E-05-2.24158E-05-2.67707E-05 7.53261E-06-5.11041E-19-2.32094E-19
 -1      4173 9.04933E-05-2.41033E-05-2.84655E-05 2.83151E-06-1.18875E-18 7.59734E-19
 -1      4174 9.00827E-05-2.38666E-05-2.83737E-05 3.26272E-06-1.28654E-18 1.14989E-18
 -1      4175 8.91412E-05-2.32354E-05-2.82322E-05 2.94606E-06-1.51346E-18 1.43735E-18
 -1      4176 9.14168E-05-2.46847E-05-2.86120E-05 2.14403E-06 1.15800E-19 3.70084E-19
 -1      4177 9.10443E-05-2.44089E-05-2.85538E-05 2.48306E-06-2.93043E-19 6.82654E-19
 -1      4178 9.03286E-05-2.38941E-05-2.84593E-05 2.16368E-06-4.39143E-19 1.27926E-18
 -1      4179 9.22303E-05-2.52889E-05-2.86995E-05 1.61372E-06 5.76860E-19 8.17336E-19
 -1      4180 9.18985E-05-2.50058E-05-2.86663E-05 1.87509E-06 2.33825E-19 4.30693E-19
 -1      4181 9.13218E-05-2.45553E-05-2.86016E-05 1.61065E-06-7.96358E-20 1.28688E-18
 -1      4182 9.29188E-05-2.58651E-05-2.87456E-05 1.20931E-06 2.20406E-20 1.70012E-18
 -1      4183 9.26336E-05-2.55946E-05-2.87301E-05 1.41317E-06 4.30644E-19 1.96322E-18
 -1      4184 9.21916E-05-2.52133E-05-2.86895E-05 1.19457E-06 7.18320E-20 2.23109E-18
 -1      4185 9.34857E-05-2.63876E-05-2.87629E-05 8.99737E-07-5.93571E-19 7.49380E-19
 -1      4186 9.32491E-05-2.61428E-05-2.87594E-05 1.05914E-06-4.40124E-19 1.33857E-18
 -1      4187 9.29093E-05-2.58276E-05-2.87359E-05 8.80496E-07-6.58415E-20 9.40513E-19
 -1      4188 9.39424E-05-2.68443E-05-2.87615E-05 6.62634E-07-1.44750E-18-2.14160E-19
 -1      4189 9.37513E-05-2.66310E-05-2.87656E-05 7.87063E-07-8.95692E-19 2.72594E-19
 -1      4190 9.34916E-05-2.63739E-05-2.87539E-05 6.44675E-07-6.24810E-19-3.05006E-19
 -1      4191 9.43026E-05-2.72317E-05-2.87486E-05 4.81685E-07-1.95082E-18-3.00326E-19
 -1      4192 9.41519E-05-2.70515E-05-2.87572E-05 5.78322E-07-2.09918E-18-1.04517E-18
 -1      4193 9.39556E-05-2.68446E-05-2.87534E-05 4.67991E-07-1.58143E-18-1.91027E-18
 -1      4194 9.45806E-05-2.75520E-05-2.87296E-05 3.44417E-07-2.04487E-18 3.92423E-19
 -1      4195 9.44646E-05-2.74036E-05-2.87404E-05 4.18907E-07-1.67487E-18 3.24784E-19
 -1      4196 9.43183E-05-2.72395E-05-2.87415E-05 3.35917E-07-2.48658E-18-2.23328E-18
 -1      4197 9.47907E-05-2.78109E-05-2.87079E-05 2.41119E-07-9.44875E-19 7.28960E-19
 -1      4198 9.47035E-05-2.76914E-05-2.87194E-05 2.97995E-07-1.66239E-18 3.60267E-19
 -1      4199 9.45961E-05-2.75632E-05-2.87235E-05 2.37535E-07-2.09600E-18-2.80003E-18
 -1      4200 9.49458E-05-2.80157E-05-2.86860E-05 1.64161E-07 1.44745E-18-4.61149E-19
 -1      4201 9.48819E-05-2.79215E-05-2.86972E-05 2.07100E-07 3.59698E-19 2.47567E-19
 -1      4202 9.48046E-05-2.78229E-05-2.87028E-05 1.64641E-07 4.57682E-19-3.46863E-18
 -1      4203 9.50572E-05-2.81745E-05-2.86653E-05 1.07518E-07 1.97011E-18-3.89525E-19
 -1      4204 9.50118E-05-2.81018E-05-2.86756E-05 1.39517E-07 1.79865E-18 1.20167E-19
 -1      4205 9.49574E-05-2.80271E-05-2.86818E-05 1.11046E-07 1.72157E-18-3.39122E-18
 -1      4206 9.51349E-05-2.82953E-05-2.86464E-05 6.64141E-08 5.24248E-19-3.51203E-19
 -1      4207 9.51036E-05-2.82402E-05-2.86557E-05 8.99117E-08 1.55757E-18-3.83162E-19
 -1      4208 9.50665E-05-2.81847E-05-2.86618E-05 7.20560E-08 1.42337E-18-2.69032E-18
 -1      4209 9.51869E-05-2.83855E-05-2.86299E-05 3.71869E-08 6.79124E-19-1.75488E-18
 -1      4210 9.51664E-05-2.83446E-05-2.86378E-05 5.38666E-08 7.99960E-20-5.93741E-19
 -1      4211 9.51417E-05-2.83039E-05-2.86436E-05 4.40062E-08 2.49538E-19-3.02006E-18
 -1      4212 9.52177E-05-2.84461E-05-2.86167E-05 1.66283E-08 1.83292E-18-1.66381E-18
 -1      4213 9.52044E-05-2.84154E-05-2.86236E-05 2.77918E-08 8.69036E-19-2.13827E-18
 -1      4214 9.51882E-05-2.83865E-05-2.86287E-05 2.25337E-08 4.47123E-19-4.74589E-18
 -1      4215 9.52170E-05-2.84446E-05-2.86166E-05 8.48613E-09 3.38357E-19-4.78367E-18
 -1      4216 7.13385E-05-1.60497E-05-2.36114E-05 1.18970E-06-6.03038E-19 1.02302E-18
 -1      4217 7.34476E-05-1.66065E-05-2.43492E-05-1.48498E-06-7.30544E-19 9.28575E-19
 -1      4218 7.58140E-05-1.72531E-05-2.51618E-05-4.72832E-07-1.19008E-18 9.73911E-19
 -1      4219 7.35677E-05-1.71229E-05-2.42514E-05 3.75512E-06-5.29856E-19 1.23765E-18
 -1      4220 8.94780E-05-2.72954E-05-2.66510E-05-1.33757E-05-9.76556E-19-1.67763E-18
 -1      4221 8.07138E-05-2.30735E-05-2.47275E-05 1.28233E-05-1.43932E-18 1.50037E-18
 -1      4222 7.68517E-05-2.06371E-05-2.39651E-05 1.19344E-05-1.93622E-18 3.09327E-18
 -1      4223 7.56902E-05-1.91390E-05-2.42760E-05 8.47437E-06-1.00439E-18 1.80063E-18
 -1      4224 9.09545E-05-2.57663E-05-2.79979E-05-1.02454E-05-4.71423E-19-1.66514E-18
 -1      4225 8.88180E-05-2.30215E-05-2.81346E-05-8.69540E-06-6.66890E-20-1.75791E-18
 -1      4226 9.11216E-05-2.73960E-05-2.73481E-05-1.21275E-05-7.90790E-19-1.74406E-18
 -1      4227 9.52311E-05-2.84729E-05-2.86104E-05-1.04596E-08 8.64536E-19-9.94067E-19
 -1      4228 7.82324E-05-1.67354E-05-2.62913E-05 4.53599E-07 1.92518E-20-1.59053E-18
 -1      4229 8.19315E-05-1.92934E-05-2.68715E-05-4.87314E-07-1.45556E-19 1.78259E-18
 -1      4230 8.34524E-05-1.99076E-05-2.72532E-05-5.78448E-07-7.93763E-20 1.80808E-18
 -1      4231 8.40804E-05-2.02235E-05-2.73372E-05 8.19450E-07-4.31700E-19 1.58905E-18
 -1      4232 7.83223E-05-1.80523E-05-2.58441E-05 3.29678E-08-6.12507E-19 1.16822E-18
 -1      4233 8.02431E-05-1.86941E-05-2.64046E-05-1.32516E-07 1.49902E-20 1.98257E-18
 -1      4234 8.12297E-05-1.91249E-05-2.65615E-05 1.58169E-06-1.96102E-19 1.68716E-18
 -1      4235 8.38947E-05-2.38893E-05-2.57452E-05 1.12362E-05-1.50943E-18 4.78491E-19
 -1      4236 9.00796E-05-2.99838E-05-2.57271E-05 1.50277E-05-1.08482E-18-7.33344E-19
 -1      4237 8.07126E-05-2.00713E-05-2.59482E-05-8.44520E-06-5.61807E-19-1.84100E-18
 -1      4238 9.52126E-05-2.84315E-05-2.86205E-05-2.26370E-08-4.72037E-19-1.57891E-18
 -1      4239 9.52251E-05-2.84602E-05-2.86137E-05-1.34620E-08 5.87195E-19-1.27715E-18
 -1      4240 8.63842E-05-2.11992E-05-2.79560E-05-7.29473E-06-1.16406E-19-1.90597E-18
 -1      4241 8.17399E-05-2.17895E-05-2.56255E-05 9.61101E-06-9.09658E-19 1.23428E-18
 -1      4242 7.91614E-05-1.72820E-05-2.65629E-05-2.35081E-06-1.73782E-19-1.85633E-18
 -1      4243 9.52227E-05-2.84560E-05-2.86145E-05-8.76501E-09 3.38123E-19-2.48705E-18
 -1      4244 8.66121E-05-2.36098E-05-2.68930E-05-1.11782E-05-6.70841E-19-1.85298E-18
 -1      4245 7.71691E-05-1.77561E-05-2.54122E-05 1.77805E-06-8.01524E-19 1.51151E-18
 -1      4246 8.26910E-05-1.79015E-05-2.78104E-05-2.82887E-06-2.39691E-19-1.80028E-18
 -1      4247 9.52188E-05-2.84489E-05-2.86158E-05-4.33117E-09 5.95800E-19-1.25735E-18
 -1      4248 9.52179E-05-2.84489E-05-2.86157E-05 1.50349E-09 3.81796E-20-2.64123E-18
 -1      4249 9.52061E-05-2.84230E-05-2.86214E-05 7.13482E-09 2.53413E-19-3.99600E-18
 -1      4250 9.52128E-05-2.84344E-05-2.86192E-05-6.77395E-09 1.47227E-19-2.04573E-18
 -1      4251 9.51995E-05-2.84068E-05-2.86251E-05-1.68706E-08-2.94314E-19-3.46500E-18
 -1      4252 8.89639E-05-2.30368E-05-2.82672E-05 1.98945E-06-2.09615E-18 1.26445E-18
 -1      4253 8.83226E-05-2.26899E-05-2.81264E-05 2.39909E-06-1.59436E-18 1.32414E-18
 -1      4254 8.78077E-05-2.22079E-05-2.81281E-05 7.40922E-07-1.91017E-18 1.22438E-18
 -1      4255 8.86550E-05-2.26921E-05-2.82746E-05 5.79978E-07-2.18168E-18 9.69597E-19
 -1      4256 8.95458E-05-2.32636E-05-2.84181E-05 4.47595E-07-1.61989E-18 1.60341E-18
 -1      4257 9.01990E-05-2.36892E-05-2.85051E-05 3.50238E-07-7.47262E-19 1.57156E-18
 -1      4258 9.10426E-05-2.43448E-05-2.85973E-05 5.99827E-07-1.94952E-19 1.84634E-18
 -1      4259 9.15943E-05-2.47542E-05-2.86526E-05 5.28042E-07 4.60816E-19 1.58911E-18
 -1      4260 9.20073E-05-2.51030E-05-2.86870E-05 3.78149E-07 4.38587E-19 1.53312E-18
 -1      4261 9.24496E-05-2.54592E-05-2.87171E-05 3.47270E-07 4.25039E-19 9.27353E-19
 -1      4262 9.27909E-05-2.57721E-05-2.87338E-05 2.36803E-07 4.53609E-19 7.14755E-19
 -1      4263 9.31427E-05-2.60799E-05-2.87470E-05 2.28009E-07 1.08814E-19-3.48793E-19
 -1      4264 9.34179E-05-2.63514E-05-2.87518E-05 1.46254E-07-6.28732E-19-3.59310E-19
 -1      4265 9.36937E-05-2.66117E-05-2.87541E-05 1.49214E-07-3.58371E-19-1.05732E-18
 -1      4266 9.39109E-05-2.68410E-05-2.87512E-05 8.87082E-08-5.74267E-19-1.82896E-18
 -1      4267 9.41239E-05-2.70566E-05-2.87468E-05 9.73595E-08-9.39600E-19-2.47390E-18
 -1      4268 9.42921E-05-2.72459E-05-2.87394E-05 5.25692E-08-1.55736E-18-2.84845E-18
 -1      4269 9.44539E-05-2.74209E-05-2.87311E-05 6.32959E-08-1.56640E-18-4.12815E-18
 -1      4270 9.45816E-05-2.75740E-05-2.87215E-05 3.01723E-08-6.41505E-19-4.75233E-18
 -1      4271 9.47023E-05-2.77136E-05-2.87114E-05 4.09104E-08-3.74185E-19-5.34693E-18
 -1      4272 9.47971E-05-2.78349E-05-2.87010E-05 1.64895E-08 9.06219E-19-5.59835E-18
 -1      4273 9.48854E-05-2.79442E-05-2.86905E-05 2.61671E-08 4.91969E-19-4.54471E-18
 -1      4274 9.49542E-05-2.80386E-05-2.86802E-05 8.26828E-09 3.31943E-19-3.84946E-18
 -1      4275 9.50172E-05-2.81227E-05-2.86700E-05 1.64243E-08 6.61918E-19-3.07822E-18
 -1      4276 9.50658E-05-2.81948E-05-2.86605E-05 3.44931E-09 1.40605E-19-2.10996E-18
 -1      4277 9.51095E-05-2.82584E-05-2.86511E-05 9.98659E-09 6.09189E-19-2.92786E-18
 -1      4278 9.51426E-05-2.83123E-05-2.86425E-05 7.88956E-10 9.36134E-19-3.24115E-18
 -1      4279 9.51718E-05-2.83594E-05-2.86341E-05 5.35191E-09 3.51182E-19-2.81415E-18
 -1      4280 8.36552E-05-2.11924E-05-2.67937E-05 5.64430E-06-7.77047E-19 1.18700E-18
 -1      4281 8.28947E-05-2.12773E-05-2.64136E-05 6.77186E-06-5.08370E-19 6.59917E-19
 -1      4282 8.52674E-05-2.18192E-05-2.72385E-05-8.86645E-06-4.52838E-19-1.66557E-18
 -1      4283 8.38393E-05-1.90962E-05-2.76755E-05-5.76218E-06-2.36083E-19-1.55563E-18
 -1      4284 7.80206E-05-1.98345E-05-2.49957E-05 8.22141E-06-6.37629E-19 1.93644E-18
 -1      4285 7.55720E-05-1.81253E-05-2.45308E-05 6.21083E-06-3.31963E-19 1.13704E-18
 -1      4286 7.61307E-05-1.79248E-05-2.49456E-05 3.84160E-06-6.98399E-19 1.21106E-18
 -1      4287 9.51902E-05-2.83935E-05-2.86276E-05-2.90274E-09 3.60945E-19-3.22685E-18
 -1      4288 8.09741E-05-2.07952E-05-2.58110E-05 7.63780E-06-4.16062E-19 1.03045E-18
 -1      4289 8.31114E-05-2.14102E-05-2.65159E-05-9.70048E-06-7.55887E-19-1.55622E-18
 -1      4290 9.03921E-05-2.39165E-05-2.84993E-05 1.44897E-06-2.67010E-19 1.66937E-18
 -1      4291 8.98492E-05-2.35576E-05-2.84134E-05 1.73802E-06-1.28298E-18 1.29113E-18
 -1      4292 8.58648E-05-2.12225E-05-2.77121E-05 1.33759E-06-5.04492E-19 1.51294E-18
 -1      4293 8.69277E-05-2.17417E-05-2.79417E-05 1.03005E-06-1.25851E-18 1.47529E-18
 -1      4294 8.73972E-05-2.20504E-05-2.79899E-05 1.75780E-06-1.61220E-18 1.34107E-18
 -1      4295 8.47118E-05-2.10081E-05-2.73251E-05 3.15751E-06-5.05625E-19 1.11283E-18
 -1      4296 8.59613E-05-2.14992E-05-2.76352E-05 2.63070E-06-3.60245E-19 1.09374E-18
 -1      4297 7.85033E-05-1.87224E-05-2.56588E-05 4.02417E-06-7.30235E-19 1.12711E-18
 -1      4298 8.06198E-05-1.93622E-05-2.62783E-05 3.57809E-06-6.35240E-19 1.74509E-18
 -1      4299 8.21571E-05-1.98219E-05-2.67288E-05 2.96047E-06-3.21963E-19 1.50867E-18
 -1      4300 8.13681E-05-1.82142E-05-2.70462E-05-3.79721E-06-4.08703E-19-1.64237E-18
 -1      4301 8.00987E-05-1.85255E-05-2.63811E-05-5.77190E-06-3.43111E-19-1.77036E-18
 -1      4302 8.74322E-05-2.22933E-05-2.79403E-05 2.81792E-06-1.30005E-18 1.23820E-18
 -1      4303 8.91764E-05-2.30543E-05-2.83260E-05 1.21058E-06-1.63714E-18 1.16466E-18
 -1      4304 9.05428E-05-2.39696E-05-2.85368E-05 7.85096E-07-1.90216E-19 1.72919E-18
 -1      4305 9.51944E-05-2.83988E-05-2.86265E-05-1.06827E-08 2.11985E-19-3.05849E-18
 -1      4306 7.99723E-05-1.94961E-05-2.58786E-05 5.44058E-06-4.50617E-19 1.32066E-18
 -1      4307 8.38572E-05-2.08040E-05-2.70242E-05 3.87881E-06-5.27499E-19 1.12981E-18
 -1      4308 8.66598E-05-2.19549E-05-2.77263E-05 3.40003E-06-9.46273E-19 2.17398E-19
 -3
    1PSTEP                         4           1           1          
  100CL  101 1.000000000        4308                     0    1           1
 -4  ERROR       1    1
 -5  STR(%)      1    1    0    0
 -1         1 2.43739E+01
 -1         2 2.45393E+01
 -1         3 5.49532E-04
 -1         4 5.82863E-04
 -1         5 1.36107E+01
 -1         6 1.26635E+01
 -1         7 1.26635E+01
 -1         8 3.52189E+00
 -1         9 1.87612E+00
 -1        10 1.36361E+00
 -1        11 1.07758E+00
 -1        12 8.69013E-01
 -1        13 7.11433E-01
 -1        14 5.97380E-01
 -1        15 6.32961E-01
 -1        16 7.55459E-01
 -1        17 9.02372E-01
 -1        18 1.10852E+00
 -1        19 1.39112E+00
 -1        20 1.88190E+00
 -1        21 3.38874E+00
 -1        22 8.26600E+00
 -1        23 1.26635E+01
 -1        24 4.12830E+00
 -1        25 2.97177E+00
 -1        26 1.86894E+00
 -1        27 1.35679E+00
 -1        28 1.02187E+00
 -1        29 1.10225E+00
 -1        30 1.24876E+00
 -1        31 1.68431E+00
 -1        32 1.99204E+00
 -1        33 1.99204E+00
 -1        34 1.98414E+00
 -1        35 1.97907E+00
 -1        36 2.75173E+00
 -1        37 5.15100E+00
 -1        38 5.85769E+00
 -1        39 5.88080E+00
 -1        40 5.88080E+00
 -1        41 4.28620E+00
 -1        42 2.46576E+00
 -1        43 2.04280E+00
 -1        44 2.06895E+00
 -1        45 2.06895E+00
 -1        46 1.95084E+00
 -1        47 1.63197E+00
 -1        48 1.29026E+00
 -1        49 1.01535E+00
 -1        50 7.65136E-01
 -1        51 6.38110E-01
 -1        52 5.13470E-01
 -1        53 4.01745E-01
 -1        54 3.07009E-01
 -1        55 2.29654E-01
 -1        56 1.68228E-01
 -1        57 1.21419E-01
 -1        58 1.00252E-01
 -1        59 8.11254E-02
 -1        60 6.44324E-02
 -1        61 5.02342E-02
 -1        62 3.83963E-02
 -1        63 2.86773E-02
 -1        64 2.19285E-02
 -1        65 1.79013E-02
 -1        66 1.40964E-02
 -1        67 1.05478E-02
 -1        68 7.23134E-03
 -1        69 5.23278E-03
 -1        70 4.40443E-03
 -1        71 3.00025E-03
 -1        72 1.36107E+01
 -1        73 3.30173E+00
 -1        74 2.22155E+00
 -1        75 1.49114E+00
 -1        76 1.20183E+00
 -1        77 9.30643E-01
 -1        78 6.59273E-01
 -1        79 5.65725E-01
 -1        80 5.80609E-01
 -1        81 6.56456E-01
 -1        82 8.87351E-01
 -1        83 9.76948E-01
 -1        84 1.26341E+00
 -1        85 1.52710E+00
 -1        86 2.26263E+00
 -1        87 2.56770E+00
 -1        88 2.92595E+00
 -1        89 2.92595E+00
 -1        90 2.78594E+00
 -1        91 2.07961E+00
 -1        92 1.26222E+00
 -1        93 8.92406E-01
 -1        94 7.16146E-01
 -1        95 8.22385E-01
 -1        96 8.29835E-01
 -1        97 8.29835E-01
 -1        98 7.53260E-01
 -1        99 6.36258E-01
 -1       100 5.33455E-01
 -1       101 4.26420E-01
 -1       102 3.26319E-01
 -1       103 2.47593E-01
 -1       104 1.96123E-01
 -1       105 1.50528E-01
 -1       106 1.12062E-01
 -1       107 8.08253E-02
 -1       108 5.62573E-02
 -1       109 4.23779E-02
 -1       110 3.54466E-02
 -1       111 2.88570E-02
 -1       112 2.28847E-02
 -1       113 1.82021E-02
 -1       114 1.61691E-02
 -1       115 1.37476E-02
 -1       116 1.11273E-02
 -1       117 8.38696E-03
 -1       118 5.91876E-03
 -1       119 4.28082E-03
 -1       120 2.53217E-03
 -1       121 1.18169E-03
 -1       122 1.01961E-03
 -1       123 5.27222E-04
 -1       124 3.30470E-04
 -1       125 5.16331E-04
 -1       126 6.17704E-04
 -1       127 6.63580E-04
 -1       128 6.75265E-04
 -1       129 6.75265E-04
 -1       130 6.70848E-04
 -1       131 6.25321E-04
 -1       132 5.31058E-04
 -1       133 3.41728E-04
 -1       134 5.50129E-04
 -1       135 1.36580E-03
 -1       136 1.90063E-03
 -1       137 2.47116E+01
 -1       138 4.77749E+01
 -1       139 4.77749E+01
 -1       140 2.07374E+01
 -1       141 1.23352E+01
 -1       142 1.23919E+01
 -1       143 1.23919E+01
 -1       144 1.27800E+01
 -1       145 1.27800E+01
 -1       146 1.22160E+01
 -1       147 2.70482E+01
 -1       148 2.91709E+01
 -1       149 2.91709E+01
 -1       150 2.39768E+01
 -1       151 2.41270E+01
 -1       152 4.70991E+01
 -1       153 4.70991E+01
 -1       154 1.98479E+01
 -1       155 1.21261E+01
 -1       156 1.33162E+01
 -1       157 1.33162E+01
 -1       158 1.29830E+01
 -1       159 1.29830E+01
 -1       160 1.23959E+01
 -1       161 2.59756E+01
 -1       162 2.98454E+01
 -1       163 2.98454E+01
 -1       164 2.52663E+01
 -1       165 5.79585E+00
 -1       166 2.35429E+00
 -1       167 1.60873E+00
 -1       168 1.22080E+00
 -1       169 9.69827E-01
 -1       170 7.87109E-01
 -1       171 6.50980E-01
 -1       172 5.84714E-01
 -1       173 6.90495E-01
 -1       174 8.25563E-01
 -1       175 1.00758E+00
 -1       176 1.25182E+00
 -1       177 1.63180E+00
 -1       178 2.34275E+00
 -1       179 3.79902E+00
 -1       180 1.36107E+01
 -1       181 4.12830E+00
 -1       182 2.97177E+00
 -1       183 1.86894E+00
 -1       184 1.35679E+00
 -1       185 9.80534E-01
 -1       186 1.02187E+00
 -1       187 1.10225E+00
 -1       188 1.30134E+00
 -1       189 1.68431E+00
 -1       190 1.99204E+00
 -1       191 1.98414E+00
 -1       192 1.97907E+00
 -1       193 1.90701E+00
 -1       194 3.05617E+00
 -1       195 5.15100E+00
 -1       196 5.85769E+00
 -1       197 5.88080E+00
 -1       198 4.28620E+00
 -1       199 2.46576E+00
 -1       200 1.88226E+00
 -1       201 2.04280E+00
 -1       202 2.06895E+00
 -1       203 1.95084E+00
 -1       204 1.63197E+00
 -1       205 1.36272E+00
 -1       206 1.18649E+00
 -1       207 9.75525E-01
 -1       208 7.65591E-01
 -1       209 5.78707E-01
 -1       210 4.23342E-01
 -1       211 3.09955E-01
 -1       212 2.38924E-01
 -1       213 1.80599E-01
 -1       214 1.33924E-01
 -1       215 1.00252E-01
 -1       216 8.11254E-02
 -1       217 6.44324E-02
 -1       218 5.02342E-02
 -1       219 3.83963E-02
 -1       220 2.88870E-02
 -1       221 2.21468E-02
 -1       222 1.79013E-02
 -1       223 1.40964E-02
 -1       224 1.05478E-02
 -1       225 7.63533E-03
 -1       226 5.25415E-03
 -1       227 4.40443E-03
 -1       228 3.00025E-03
 -1       229 3.30173E+00
 -1       230 2.22155E+00
 -1       231 1.49114E+00
 -1       232 1.20183E+00
 -1       233 9.30643E-01
 -1       234 6.59273E-01
 -1       235 5.65725E-01
 -1       236 5.06629E-01
 -1       237 5.80609E-01
 -1       238 6.56456E-01
 -1       239 8.87351E-01
 -1       240 9.76948E-01
 -1       241 1.26341E+00
 -1       242 1.67778E+00
 -1       243 2.26263E+00
 -1       244 2.56770E+00
 -1       245 2.92595E+00
 -1       246 2.78594E+00
 -1       247 2.07961E+00
 -1       248 1.26222E+00
 -1       249 8.92406E-01
 -1       250 6.93958E-01
 -1       251 7.16146E-01
 -1       252 8.22385E-01
 -1       253 8.29835E-01
 -1       254 7.53260E-01
 -1       255 6.36258E-01
 -1       256 5.33455E-01
 -1       257 4.39380E-01
 -1       258 3.47126E-01
 -1       259 2.63446E-01
 -1       260 1.96123E-01
 -1       261 1.50528E-01
 -1       262 1.12062E-01
 -1       263 8.22101E-02
 -1       264 5.90934E-02
 -1       265 4.23779E-02
 -1       266 3.54466E-02
 -1       267 2.88570E-02
 -1       268 2.28847E-02
 -1       269 1.82021E-02
 -1       270 1.61691E-02
 -1       271 1.37476E-02
 -1       272 1.11273E-02
 -1       273 8.38696E-03
 -1       274 5.91876E-03
 -1       275 4.28082E-03
 -1       276 2.53217E-03
 -1       277 1.07322E-03
 -1       278 9.72241E-04
 -1       279 6.01915E-04
 -1       280 8.59269E-04
 -1       281 1.06339E-03
 -1       282 1.16230E-03
 -1       283 1.19999E-03
 -1       284 1.20252E-03
 -1       285 1.20252E-03
 -1       286 1.17582E-03
 -1       287 1.09029E-03
 -1       288 8.96587E-04
 -1       289 6.64313E-04
 -1       290 6.64313E-04
 -1       291 1.80499E-03
 -1       292 3.04087E+01
 -1       293 2.89597E+01
 -1       294 4.77749E+01
 -1       295 2.26401E+01
 -1       296 1.14308E+01
 -1       297 1.23352E+01
 -1       298 1.23919E+01
 -1       299 1.19398E+01
 -1       300 1.27800E+01
 -1       301 1.20387E+01
 -1       302 1.22160E+01
 -1       303 2.79912E+01
 -1       304 3.39093E+01
 -1       305 3.39093E+01
 -1       306 3.01869E+01
 -1       307 3.01869E+01
 -1       308 2.85094E+01
 -1       309 4.70991E+01
 -1       310 2.14176E+01
 -1       311 1.08274E+01
 -1       312 1.21261E+01
 -1       313 1.33162E+01
 -1       314 1.24028E+01
 -1       315 1.29830E+01
 -1       316 1.19445E+01
 -1       317 1.23959E+01
 -1       318 2.78379E+01
 -1       319 3.14809E+01
 -1       320 3.14809E+01
 -1       321 3.04087E+01
 -1       322 1.17562E+00
 -1       323 2.39843E+00
 -1       324 8.51909E-01
 -1       325 6.97580E-01
 -1       326 5.76891E-01
 -1       327 4.78334E-01
 -1       328 5.17446E-01
 -1       329 6.16026E-01
 -1       330 7.37006E-01
 -1       331 8.73277E-01
 -1       332 1.03413E+00
 -1       333 1.25918E+00
 -1       334 1.37894E+00
 -1       335 1.94638E+00
 -1       336 1.59450E+00
 -1       337 1.32531E+00
 -1       338 7.76666E-01
 -1       339 5.93021E-01
 -1       340 6.74348E-01
 -1       341 9.02999E-01
 -1       342 1.11289E+00
 -1       343 1.26984E+00
 -1       344 1.47179E+00
 -1       345 1.54230E+00
 -1       346 1.47739E+00
 -1       347 1.83472E+00
 -1       348 2.04275E+00
 -1       349 2.71059E+00
 -1       350 3.68463E+00
 -1       351 3.85853E+00
 -1       352 3.21062E+00
 -1       353 2.40512E+00
 -1       354 1.75354E+00
 -1       355 1.67181E+00
 -1       356 1.63109E+00
 -1       357 1.64158E+00
 -1       358 1.55345E+00
 -1       359 1.39608E+00
 -1       360 1.26331E+00
 -1       361 1.08412E+00
 -1       362 8.86440E-01
 -1       363 6.98471E-01
 -1       364 5.34093E-01
 -1       365 3.97882E-01
 -1       366 2.89209E-01
 -1       367 2.04969E-01
 -1       368 1.41208E-01
 -1       369 9.73379E-02
 -1       370 6.92992E-02
 -1       371 5.04176E-02
 -1       372 3.99138E-02
 -1       373 3.25162E-02
 -1       374 2.58559E-02
 -1       375 2.00180E-02
 -1       376 1.49962E-02
 -1       377 1.19827E-02
 -1       378 9.66428E-03
 -1       379 7.30259E-03
 -1       380 5.25415E-03
 -1       381 3.56178E-03
 -1       382 2.65682E-03
 -1       383 9.20557E-01
 -1       384 6.31682E-01
 -1       385 5.56258E-01
 -1       386 4.39217E-01
 -1       387 4.16728E-01
 -1       388 4.03950E-01
 -1       389 3.40808E-01
 -1       390 3.14441E-01
 -1       391 5.72637E-01
 -1       392 9.48295E-01
 -1       393 1.36833E+00
 -1       394 1.60090E+00
 -1       395 1.60090E+00
 -1       396 1.57147E+00
 -1       397 1.72042E+00
 -1       398 1.80433E+00
 -1       399 1.51099E+00
 -1       400 1.04905E+00
 -1       401 6.58418E-01
 -1       402 4.11364E-01
 -1       403 5.01641E-01
 -1       404 5.69651E-01
 -1       405 6.11099E-01
 -1       406 5.96400E-01
 -1       407 5.36196E-01
 -1       408 4.79012E-01
 -1       409 4.06227E-01
 -1       410 3.29311E-01
 -1       411 2.56642E-01
 -1       412 1.92756E-01
 -1       413 1.45550E-01
 -1       414 1.10959E-01
 -1       415 8.22101E-02
 -1       416 5.90934E-02
 -1       417 4.10266E-02
 -1       418 2.72688E-02
 -1       419 2.27619E-02
 -1       420 1.90349E-02
 -1       421 1.53687E-02
 -1       422 1.19334E-02
 -1       423 9.05363E-03
 -1       424 7.78882E-03
 -1       425 6.22461E-03
 -1       426 4.83594E-03
 -1       427 3.47874E-03
 -1       428 2.43742E-03
 -1       429 1.17421E-03
 -1       430 1.89958E-03
 -1       431 1.89958E-03
 -1       432 1.37903E-03
 -1       433 1.47587E-03
 -1       434 1.50308E-03
 -1       435 1.50308E-03
 -1       436 1.51074E-03
 -1       437 1.51074E-03
 -1       438 1.50720E-03
 -1       439 1.42619E-03
 -1       440 1.21538E-03
 -1       441 2.13412E-03
 -1       442 2.89597E+01
 -1       443 3.58171E+01
 -1       444 3.09668E+01
 -1       445 1.68065E+01
 -1       446 9.76373E+00
 -1       447 1.11183E+00
 -1       448 1.00705E+01
 -1       449 1.00455E+01
 -1       450 1.03496E+01
 -1       451 9.49451E+00
 -1       452 7.17947E+00
 -1       453 1.10794E+01
 -1       454 1.96253E+01
 -1       455 3.39093E+01
 -1       456 3.64664E+01
 -1       457 3.64664E+01
 -1       458 2.77157E+01
 -1       459 2.85094E+01
 -1       460 1.64296E+01
 -1       461 9.05741E+00
 -1       462 7.02833E+00
 -1       463 8.65675E+00
 -1       464 1.10396E+01
 -1       465 1.06349E+01
 -1       466 8.92786E+00
 -1       467 6.87256E+00
 -1       468 1.11678E+01
 -1       469 1.93474E+01
 -1       470 3.14809E+01
 -1       471 3.58171E+01
 -1       472 7.13069E+00
 -1       473 7.55338E-01
 -1       474 4.82930E-01
 -1       475 5.69481E-01
 -1       476 3.50876E-01
 -1       477 4.38485E-01
 -1       478 5.29149E-01
 -1       479 6.01629E-01
 -1       480 6.33928E-01
 -1       481 8.89190E-01
 -1       482 4.53374E-01
 -1       483 7.55856E-01
 -1       484 5.31146E+00
 -1       485 5.49525E-01
 -1       486 6.24533E-01
 -1       487 8.30491E-01
 -1       488 1.06445E+00
 -1       489 1.28929E+00
 -1       490 1.48379E+00
 -1       491 1.87048E+00
 -1       492 2.28149E+00
 -1       493 2.59922E+00
 -1       494 3.24801E+00
 -1       495 3.75240E+00
 -1       496 5.42318E+00
 -1       497 6.22679E+00
 -1       498 5.35763E+00
 -1       499 4.69380E+00
 -1       500 3.00354E+00
 -1       501 2.80148E+00
 -1       502 2.27593E+00
 -1       503 1.94751E+00
 -1       504 1.64158E+00
 -1       505 1.51328E+00
 -1       506 1.33287E+00
 -1       507 1.11957E+00
 -1       508 9.03594E-01
 -1       509 7.12683E-01
 -1       510 5.51632E-01
 -1       511 4.18228E-01
 -1       512 3.10768E-01
 -1       513 2.26176E-01
 -1       514 1.62410E-01
 -1       515 1.15136E-01
 -1       516 7.95604E-02
 -1       517 5.32525E-02
 -1       518 3.58556E-02
 -1       519 2.48005E-02
 -1       520 1.90101E-02
 -1       521 1.62469E-02
 -1       522 1.33562E-02
 -1       523 1.05395E-02
 -1       524 7.91736E-03
 -1       525 6.27239E-03
 -1       526 4.81148E-03
 -1       527 3.46831E-03
 -1       528 3.10121E-01
 -1       529 3.64782E-01
 -1       530 4.04149E-01
 -1       531 4.65751E-01
 -1       532 5.70135E-01
 -1       533 6.33721E-01
 -1       534 8.96040E-01
 -1       535 1.17889E+00
 -1       536 1.39317E+00
 -1       537 1.60090E+00
 -1       538 1.57030E+00
 -1       539 1.57680E+00
 -1       540 1.60356E+00
 -1       541 1.38042E+00
 -1       542 1.14326E+00
 -1       543 8.19100E-01
 -1       544 6.28539E-01
 -1       545 5.65754E-01
 -1       546 5.59790E-01
 -1       547 5.85252E-01
 -1       548 5.61766E-01
 -1       549 5.25156E-01
 -1       550 4.70853E-01
 -1       551 4.11938E-01
 -1       552 3.44313E-01
 -1       553 2.76945E-01
 -1       554 2.15251E-01
 -1       555 1.61939E-01
 -1       556 1.17868E-01
 -1       557 8.27440E-02
 -1       558 5.56474E-02
 -1       559 3.89514E-02
 -1       560 2.74331E-02
 -1       561 2.27619E-02
 -1       562 1.90349E-02
 -1       563 1.53687E-02
 -1       564 1.19334E-02
 -1       565 9.02533E-03
 -1       566 7.44093E-03
 -1       567 5.69447E-03
 -1       568 4.11441E-03
 -1       569 2.85476E-03
 -1       570 1.75142E-03
 -1       571 1.70565E-03
 -1       572 2.54269E-03
 -1       573 1.86077E-03
 -1       574 1.68165E-03
 -1       575 1.62577E-03
 -1       576 1.70131E-03
 -1       577 1.76998E-03
 -1       578 1.76998E-03
 -1       579 1.72951E-03
 -1       580 1.72172E-03
 -1       581 3.09668E+01
 -1       582 1.28191E+01
 -1       583 3.23216E-01
 -1       584 4.59593E+00
 -1       585 2.37087E+01
 -1       586 1.92709E+01
 -1       587 3.58171E+01
 -1       588 7.29483E+00
 -1       589 7.35367E+00
 -1       590 3.88913E-01
 -1       591 8.18426E+00
 -1       592 2.24686E+01
 -1       593 7.46557E+00
 -1       594 4.42224E+00
 -1       595 6.68116E+00
 -1       596 8.57920E+00
 -1       597 4.69380E+00
 -1       598 1.52727E+01
 -1       599 3.64664E+01
 -1       600 2.77157E+01
 -1       601 1.89402E+01
 -1       602 1.22220E+01
 -1       603 9.01716E+00
 -1       604 5.43621E+00
 -1       605 5.42318E+00
 -1       606 8.81036E+00
 -1       607 7.14278E+00
 -1       608 6.82048E+00
 -1       609 9.28322E+00
 -1       610 1.40112E+01
 -1       611 1.11183E+00
 -1       612 1.09699E+00
 -1       613 9.82977E+00
 -1       614 1.11183E+00
 -1       615 5.56724E+00
 -1       616 2.24100E-03
 -1       617 1.43256E+01
 -1       618 3.85444E-01
 -1       619 2.96362E-01
 -1       620 5.31401E-01
 -1       621 5.75028E-01
 -1       622 5.76737E-01
 -1       623 5.91904E+00
 -1       624 4.37461E+00
 -1       625 6.38442E-01
 -1       626 7.42916E-01
 -1       627 9.62897E-01
 -1       628 1.26949E+00
 -1       629 1.65594E+00
 -1       630 2.10830E+00
 -1       631 2.61098E+00
 -1       632 3.44973E+00
 -1       633 5.13886E+00
 -1       634 3.83576E+00
 -1       635 3.53880E+00
 -1       636 3.16277E+00
 -1       637 3.31165E+00
 -1       638 2.40728E+00
 -1       639 1.98419E+00
 -1       640 1.61142E+00
 -1       641 1.28656E+00
 -1       642 1.01910E+00
 -1       643 7.97519E-01
 -1       644 6.19878E-01
 -1       645 4.76888E-01
 -1       646 3.62585E-01
 -1       647 2.72032E-01
 -1       648 2.01050E-01
 -1       649 1.46065E-01
 -1       650 1.04030E-01
 -1       651 7.23536E-02
 -1       652 4.88629E-02
 -1       653 3.17563E-02
 -1       654 1.95639E-02
 -1       655 1.20737E-02
 -1       656 8.78710E-03
 -1       657 7.74001E-03
 -1       658 6.43845E-03
 -1       659 5.05424E-03
 -1       660 4.14036E-03
 -1       661 3.23475E-03
 -1       662 5.22397E-01
 -1       663 6.35143E+00
 -1       664 4.50688E-01
 -1       665 6.76245E-01
 -1       666 9.06003E-01
 -1       667 1.02920E+00
 -1       668 1.22224E+00
 -1       669 1.48494E+00
 -1       670 1.57487E+00
 -1       671 2.14713E+00
 -1       672 2.05740E+00
 -1       673 2.03705E+00
 -1       674 1.56438E+00
 -1       675 1.38124E+00
 -1       676 1.21035E+00
 -1       677 1.09442E+00
 -1       678 9.13523E-01
 -1       679 7.56648E-01
 -1       680 7.26849E-01
 -1       681 6.55773E-01
 -1       682 5.72100E-01
 -1       683 5.08805E-01
 -1       684 4.45093E-01
 -1       685 3.74640E-01
 -1       686 3.05308E-01
 -1       687 2.41807E-01
 -1       688 1.86501E-01
 -1       689 1.40157E-01
 -1       690 1.02538E-01
 -1       691 7.28417E-02
 -1       692 5.00035E-02
 -1       693 3.28879E-02
 -1       694 2.04077E-02
 -1       695 1.34806E-02
 -1       696 1.13492E-02
 -1       697 9.88220E-03
 -1       698 8.15389E-03
 -1       699 6.35458E-03
 -1       700 4.75583E-03
 -1       701 3.63320E-03
 -1       702 3.16249E-03
 -1       703 7.45044E+00
 -1       704 1.62577E-03
 -1       705 8.55605E+00
 -1       706 1.88925E-03
 -1       707 1.61774E-03
 -1       708 1.75542E-03
 -1       709 1.81164E-03
 -1       710 2.03372E-03
 -1       711 2.10944E-03
 -1       712 1.80842E+01
 -1       713 1.29740E+01
 -1       714 1.60102E+01
 -1       715 1.29915E+01
 -1       716 5.50100E+00
 -1       717 1.14655E+01
 -1       718 3.48416E-01
 -1       719 5.91711E-01
 -1       720 7.30584E-01
 -1       721 3.40976E-01
 -1       722 1.27753E+01
 -1       723 4.75393E-01
 -1       724 4.64564E-01
 -1       725 5.55664E+00
 -1       726 2.24216E-03
 -1       727 3.11957E+00
 -1       728 3.62853E+00
 -1       729 6.75132E+00
 -1       730 1.41099E+01
 -1       731 6.33958E+00
 -1       732 1.05520E+01
 -1       733 1.43777E+01
 -1       734 7.84925E+00
 -1       735 5.52489E+00
 -1       736 7.04072E-01
 -1       737 2.21013E-01
 -1       738 3.17830E+00
 -1       739 2.90116E+00
 -1       740 2.39825E-03
 -1       741 1.01671E+00
 -1       742 4.38625E+00
 -1       743 2.56267E-03
 -1       744 2.00944E-03
 -1       745 3.16823E-01
 -1       746 8.22108E+00
 -1       747 5.26970E-01
 -1       748 6.11576E+00
 -1       749 9.36507E-01
 -1       750 1.20149E+00
 -1       751 1.60167E+00
 -1       752 2.24278E+00
 -1       753 3.39779E+00
 -1       754 5.26895E+00
 -1       755 6.83031E+00
 -1       756 9.69505E+00
 -1       757 6.76218E-01
 -1       758 6.28826E+00
 -1       759 4.40814E+00
 -1       760 2.83707E+00
 -1       761 2.01235E+00
 -1       762 1.51992E+00
 -1       763 1.19013E+00
 -1       764 9.41235E-01
 -1       765 7.29577E-01
 -1       766 5.56139E-01
 -1       767 4.17436E-01
 -1       768 3.08463E-01
 -1       769 2.24176E-01
 -1       770 1.59882E-01
 -1       771 1.12909E-01
 -1       772 7.88093E-02
 -1       773 5.38859E-02
 -1       774 3.70090E-02
 -1       775 2.45969E-02
 -1       776 1.56591E-02
 -1       777 9.38752E-03
 -1       778 5.61661E-03
 -1       779 5.32985E-03
 -1       780 4.90190E-03
 -1       781 4.14036E-03
 -1       782 3.23475E-03
 -1       783 1.36796E+00
 -1       784 1.04779E+00
 -1       785 1.48494E+00
 -1       786 2.23389E+00
 -1       787 2.86285E+00
 -1       788 4.37461E+00
 -1       789 2.15250E+00
 -1       790 2.12195E+00
 -1       791 1.63462E+00
 -1       792 1.87502E+00
 -1       793 1.79866E+00
 -1       794 1.37026E+00
 -1       795 1.12300E+00
 -1       796 9.91524E-01
 -1       797 8.23655E-01
 -1       798 6.74269E-01
 -1       799 5.83853E-01
 -1       800 4.93247E-01
 -1       801 4.05252E-01
 -1       802 3.23918E-01
 -1       803 2.54315E-01
 -1       804 1.96564E-01
 -1       805 1.49130E-01
 -1       806 1.10949E-01
 -1       807 8.08020E-02
 -1       808 5.74435E-02
 -1       809 3.96909E-02
 -1       810 2.64749E-02
 -1       811 1.68622E-02
 -1       812 1.00603E-02
 -1       813 6.26780E-03
 -1       814 5.94089E-03
 -1       815 5.36670E-03
 -1       816 4.47298E-03
 -1       817 3.41471E-03
 -1       818 2.86435E-03
 -1       819 1.61349E-03
 -1       820 1.53054E-03
 -1       821 7.13905E+00
 -1       822 2.09154E-03
 -1       823 9.55364E+00
 -1       824 8.72302E+00
 -1       825 1.81164E-03
 -1       826 1.99320E+00
 -1       827 5.89589E-01
 -1       828 1.06402E+01
 -1       829 4.89225E+00
 -1       830 4.84907E-01
 -1       831 3.94500E+00
 -1       832 4.07834E-01
 -1       833 9.69505E+00
 -1       834 1.04320E+01
 -1       835 7.55781E-01
 -1       836 7.30584E-01
 -1       837 8.81310E+00
 -1       838 8.67339E+00
 -1       839 8.32170E+00
 -1       840 3.43218E+00
 -1       841 3.83021E-01
 -1       842 3.72645E+00
 -1       843 2.77521E-01
 -1       844 2.67672E+00
 -1       845 4.48464E+00
 -1       846 4.68049E-01
 -1       847 3.94336E+00
 -1       848 4.93167E-01
 -1       849 7.31861E-01
 -1       850 8.76701E-01
 -1       851 2.15831E+00
 -1       852 1.75542E-03
 -1       853 4.03192E-01
 -1       854 1.61543E-03
 -1       855 8.67339E+00
 -1       856 1.88925E-03
 -1       857 5.33914E-01
 -1       858 2.55193E-03
 -1       859 4.91213E-01
 -1       860 6.29136E+00
 -1       861 1.60167E+00
 -1       862 2.19684E+00
 -1       863 3.65336E+00
 -1       864 4.38639E+00
 -1       865 2.15250E+00
 -1       866 3.63671E-01
 -1       867 2.59245E+00
 -1       868 2.01235E+00
 -1       869 1.51992E+00
 -1       870 1.15039E+00
 -1       871 8.72775E-01
 -1       872 6.62105E-01
 -1       873 5.00590E-01
 -1       874 3.75814E-01
 -1       875 2.79483E-01
 -1       876 2.05319E-01
 -1       877 1.48550E-01
 -1       878 1.05469E-01
 -1       879 7.31668E-02
 -1       880 5.05061E-02
 -1       881 3.38811E-02
 -1       882 2.18166E-02
 -1       883 1.32995E-02
 -1       884 7.49378E-03
 -1       885 3.83805E-03
 -1       886 3.04028E-03
 -1       887 3.18708E-03
 -1       888 2.10621E+00
 -1       889 6.30562E-01
 -1       890 3.51146E+00
 -1       891 3.12633E+00
 -1       892 2.17692E+00
 -1       893 1.49867E+00
 -1       894 1.07897E+00
 -1       895 8.85497E-01
 -1       896 7.08537E-01
 -1       897 5.62628E-01
 -1       898 4.43403E-01
 -1       899 3.57507E-01
 -1       900 2.91264E-01
 -1       901 2.31254E-01
 -1       902 1.78698E-01
 -1       903 1.34507E-01
 -1       904 9.85190E-02
 -1       905 7.00387E-02
 -1       906 4.90397E-02
 -1       907 3.33296E-02
 -1       908 2.16586E-02
 -1       909 1.32455E-02
 -1       910 7.44898E-03
 -1       911 4.13375E-03
 -1       912 3.36971E-03
 -1       913 3.46656E-03
 -1       914 3.11576E-03
 -1       915 2.23389E+00
 -1       916 1.42929E-03
 -1       917 5.30884E+00
 -1       918 5.30884E+00
 -1       919 6.46662E-01
 -1       920 6.29136E+00
 -1       921 6.84028E+00
 -1       922 3.97168E+00
 -1       923 6.47962E+00
 -1       924 1.17371E+00
 -1       925 8.63487E-01
 -1       926 2.37892E-03
 -1       927 2.96218E+00
 -1       928 6.14433E+00
 -1       929 6.39672E+00
 -1       930 5.56028E+00
 -1       931 1.40978E-03
 -1       932 5.33914E-01
 -1       933 1.78233E+00
 -1       934 2.20869E+00
 -1       935 3.02997E-03
 -1       936 1.90712E-03
 -1       937 6.32059E-01
 -1       938 1.65177E-03
 -1       939 5.07810E-01
 -1       940 7.73827E-01
 -1       941 6.36624E-01
 -1       942 4.48518E-01
 -1       943 4.89953E+00
 -1       944 1.98856E-03
 -1       945 5.66296E+00
 -1       946 5.33914E-01
 -1       947 4.55670E+00
 -1       948 2.49425E-03
 -1       949 4.53726E-01
 -1       950 3.65336E+00
 -1       951 2.41077E+00
 -1       952 1.83499E+00
 -1       953 1.28521E+00
 -1       954 9.41498E-01
 -1       955 7.03767E-01
 -1       956 5.32211E-01
 -1       957 4.03220E-01
 -1       958 3.04671E-01
 -1       959 2.28497E-01
 -1       960 1.69466E-01
 -1       961 1.23791E-01
 -1       962 8.88212E-02
 -1       963 6.23443E-02
 -1       964 4.26387E-02
 -1       965 2.90555E-02
 -1       966 1.90767E-02
 -1       967 1.18981E-02
 -1       968 6.86078E-03
 -1       969 3.54335E-03
 -1       970 2.13401E-03
 -1       971 1.05663E+00
 -1       972 5.21998E-01
 -1       973 2.59857E+00
 -1       974 1.28020E+00
 -1       975 8.79501E-01
 -1       976 6.81706E-01
 -1       977 5.36983E-01
 -1       978 4.43403E-01
 -1       979 3.57507E-01
 -1       980 2.82509E-01
 -1       981 2.18981E-01
 -1       982 1.66531E-01
 -1       983 1.24059E-01
 -1       984 9.03991E-02
 -1       985 6.42414E-02
 -1       986 4.43071E-02
 -1       987 3.02352E-02
 -1       988 1.99388E-02
 -1       989 1.24742E-02
 -1       990 7.20513E-03
 -1       991 3.65450E-03
 -1       992 2.06797E-03
 -1       993 3.56765E+00
 -1       994 4.06020E+00
 -1       995 4.13489E+00
 -1       996 3.60944E+00
 -1       997 1.05968E+00
 -1       998 1.44973E+00
 -1       999 3.69320E+00
 -1      1000 2.11783E+00
 -1      1001 3.64915E+00
 -1      1002 3.18093E+00
 -1      1003 3.97168E+00
 -1      1004 8.70495E-01
 -1      1005 2.00509E-03
 -1      1006 6.67427E-01
 -1      1007 3.18093E+00
 -1      1008 5.31545E-01
 -1      1009 3.34655E+00
 -1      1010 2.26526E-03
 -1      1011 1.91817E-03
 -1      1012 2.79959E+00
 -1      1013 6.90076E-01
 -1      1014 2.00509E-03
 -1      1015 4.13489E+00
 -1      1016 9.88096E-01
 -1      1017 1.46986E-03
 -1      1018 4.46371E+00
 -1      1019 1.24421E+00
 -1      1020 8.75406E-01
 -1      1021 6.49549E-01
 -1      1022 4.85462E-01
 -1      1023 3.71835E-01
 -1      1024 2.87740E-01
 -1      1025 2.20693E-01
 -1      1026 1.67747E-01
 -1      1027 1.25505E-01
 -1      1028 9.24812E-02
 -1      1029 6.68474E-02
 -1      1030 4.72017E-02
 -1      1031 3.23811E-02
 -1      1032 2.20361E-02
 -1      1033 1.46013E-02
 -1      1034 9.32250E-03
 -1      1035 5.57352E-03
 -1      1036 2.91553E-03
 -1      1037 2.56214E+00
 -1      1038 8.79110E-01
 -1      1039 1.16973E+00
 -1      1040 2.78661E+00
 -1      1041 6.81706E-01
 -1      1042 5.36445E-01
 -1      1043 4.17480E-01
 -1      1044 3.23786E-01
 -1      1045 2.48223E-01
 -1      1046 1.87994E-01
 -1      1047 1.40273E-01
 -1      1048 1.03066E-01
 -1      1049 7.43458E-02
 -1      1050 5.24405E-02
 -1      1051 3.59741E-02
 -1      1052 2.42389E-02
 -1      1053 1.60263E-02
 -1      1054 1.00910E-02
 -1      1055 6.01366E-03
 -1      1056 3.47727E-03
 -1      1057 3.12961E+00
 -1      1058 8.70495E-01
 -1      1059 1.41382E+00
 -1      1060 3.00388E-03
 -1      1061 3.70015E+00
 -1      1062 1.10673E+00
 -1      1063 3.02155E+00
 -1      1064 1.81750E+00
 -1      1065 3.18093E+00
 -1      1066 1.18928E+00
 -1      1067 1.41198E+00
 -1      1068 3.00388E-03
 -1      1069 2.95356E+00
 -1      1070 3.02155E+00
 -1      1071 1.82287E+00
 -1      1072 9.98811E-01
 -1      1073 5.62553E-01
 -1      1074 4.32949E-01
 -1      1075 3.57913E-01
 -1      1076 2.75048E-01
 -1      1077 2.05809E-01
 -1      1078 1.51924E-01
 -1      1079 1.10817E-01
 -1      1080 7.99556E-02
 -1      1081 5.77728E-02
 -1      1082 4.08294E-02
 -1      1083 2.80549E-02
 -1      1084 1.93742E-02
 -1      1085 1.28569E-02
 -1      1086 7.98418E-03
 -1      1087 1.26929E+00
 -1      1088 6.07223E-01
 -1      1089 2.65194E+00
 -1      1090 1.26929E+00
 -1      1091 2.20272E+00
 -1      1092 4.62363E-01
 -1      1093 3.57913E-01
 -1      1094 3.57913E-01
 -1      1095 2.75048E-01
 -1      1096 2.05809E-01
 -1      1097 1.51924E-01
 -1      1098 1.10817E-01
 -1      1099 7.96903E-02
 -1      1100 5.62793E-02
 -1      1101 3.91510E-02
 -1      1102 2.69507E-02
 -1      1103 1.78939E-02
 -1      1104 1.10745E-02
 -1      1105 5.50801E-03
 -1      1106 2.62789E+00
 -1      1107 2.78661E+00
 -1      1108 1.77649E+00
 -1      1109 1.26929E+00
 -1      1110 1.69931E+00
 -1      1111 4.55095E-03
 -1      1112 4.55095E-03
 -1      1113 4.74919E-01
 -1      1114 4.31288E-01
 -1      1115 1.58169E+00
 -1      1116 1.77649E+00
 -1      1117 2.07018E+00
 -1      1118 5.66913E-01
 -1      1119 1.26635E+01
 -1      1120 8.09269E+00
 -1      1121 2.69901E+00
 -1      1122 1.61987E+00
 -1      1123 1.22060E+00
 -1      1124 9.73298E-01
 -1      1125 7.90223E-01
 -1      1126 6.54406E-01
 -1      1127 6.15171E-01
 -1      1128 6.94210E-01
 -1      1129 8.28916E-01
 -1      1130 1.00545E+00
 -1      1131 1.24982E+00
 -1      1132 1.63651E+00
 -1      1133 2.63532E+00
 -1      1134 5.82737E+00
 -1      1135 1.09383E+01
 -1      1136 1.26635E+01
 -1      1137 8.39590E+00
 -1      1138 3.55004E+00
 -1      1139 2.42036E+00
 -1      1140 1.61286E+00
 -1      1141 1.18933E+00
 -1      1142 1.06206E+00
 -1      1143 1.17550E+00
 -1      1144 1.46653E+00
 -1      1145 1.83817E+00
 -1      1146 1.99204E+00
 -1      1147 1.98809E+00
 -1      1148 1.98160E+00
 -1      1149 2.36540E+00
 -1      1150 3.95136E+00
 -1      1151 5.50434E+00
 -1      1152 5.86925E+00
 -1      1153 5.88080E+00
 -1      1154 5.08350E+00
 -1      1155 3.37598E+00
 -1      1156 2.25428E+00
 -1      1157 2.05587E+00
 -1      1158 2.06895E+00
 -1      1159 2.00989E+00
 -1      1160 1.79140E+00
 -1      1161 1.46112E+00
 -1      1162 1.15280E+00
 -1      1163 8.90241E-01
 -1      1164 7.01623E-01
 -1      1165 5.75790E-01
 -1      1166 4.57608E-01
 -1      1167 3.54377E-01
 -1      1168 2.68331E-01
 -1      1169 1.98941E-01
 -1      1170 1.44824E-01
 -1      1171 1.10836E-01
 -1      1172 9.06888E-02
 -1      1173 7.27789E-02
 -1      1174 5.73333E-02
 -1      1175 4.43152E-02
 -1      1176 3.35368E-02
 -1      1177 2.53029E-02
 -1      1178 1.99149E-02
 -1      1179 1.59988E-02
 -1      1180 1.23221E-02
 -1      1181 8.88955E-03
 -1      1182 6.23206E-03
 -1      1183 4.81861E-03
 -1      1184 3.70234E-03
 -1      1185 1.79156E-03
 -1      1186 1.36107E+01
 -1      1187 8.45622E+00
 -1      1188 2.76164E+00
 -1      1189 1.85634E+00
 -1      1190 1.34648E+00
 -1      1191 1.06624E+00
 -1      1192 7.94958E-01
 -1      1193 6.12499E-01
 -1      1194 5.73167E-01
 -1      1195 6.18532E-01
 -1      1196 7.71903E-01
 -1      1197 9.32150E-01
 -1      1198 1.12018E+00
 -1      1199 1.39526E+00
 -1      1200 1.89487E+00
 -1      1201 2.41517E+00
 -1      1202 2.74683E+00
 -1      1203 2.92595E+00
 -1      1204 2.85595E+00
 -1      1205 2.43277E+00
 -1      1206 1.67091E+00
 -1      1207 1.07731E+00
 -1      1208 8.04276E-01
 -1      1209 7.69266E-01
 -1      1210 8.26110E-01
 -1      1211 8.29835E-01
 -1      1212 7.91548E-01
 -1      1213 6.94759E-01
 -1      1214 5.84857E-01
 -1      1215 4.79938E-01
 -1      1216 3.76369E-01
 -1      1217 2.86956E-01
 -1      1218 2.21858E-01
 -1      1219 1.73326E-01
 -1      1220 1.31295E-01
 -1      1221 9.64439E-02
 -1      1222 6.85413E-02
 -1      1223 4.93176E-02
 -1      1224 3.89123E-02
 -1      1225 3.21518E-02
 -1      1226 2.58709E-02
 -1      1227 2.05434E-02
 -1      1228 1.71856E-02
 -1      1229 1.49583E-02
 -1      1230 1.24374E-02
 -1      1231 9.75713E-03
 -1      1232 7.15286E-03
 -1      1233 5.09979E-03
 -1      1234 3.40649E-03
 -1      1235 1.54085E-03
 -1      1236 8.65611E-04
 -1      1237 1.10065E-03
 -1      1238 7.73414E-04
 -1      1239 4.28846E-04
 -1      1240 4.23401E-04
 -1      1241 5.67018E-04
 -1      1242 6.40642E-04
 -1      1243 6.69422E-04
 -1      1244 6.75265E-04
 -1      1245 6.73056E-04
 -1      1246 6.48085E-04
 -1      1247 5.78189E-04
 -1      1248 4.36393E-04
 -1      1249 4.45929E-04
 -1      1250 9.57964E-04
 -1      1251 1.63321E-03
 -1      1252 1.24175E-03
 -1      1253 2.46255E+01
 -1      1254 3.62433E+01
 -1      1255 4.77749E+01
 -1      1256 3.42561E+01
 -1      1257 1.65363E+01
 -1      1258 1.23635E+01
 -1      1259 1.23919E+01
 -1      1260 1.25860E+01
 -1      1261 1.27800E+01
 -1      1262 1.24980E+01
 -1      1263 1.96321E+01
 -1      1264 2.81095E+01
 -1      1265 2.91709E+01
 -1      1266 2.67724E+01
 -1      1267 2.41754E+01
 -1      1268 2.40519E+01
 -1      1269 3.56130E+01
 -1      1270 4.70991E+01
 -1      1271 3.34735E+01
 -1      1272 1.59870E+01
 -1      1273 1.27212E+01
 -1      1274 1.33162E+01
 -1      1275 1.31496E+01
 -1      1276 1.29830E+01
 -1      1277 1.26894E+01
 -1      1278 1.91857E+01
 -1      1279 2.79105E+01
 -1      1280 2.98454E+01
 -1      1281 2.75559E+01
 -1      1282 2.49028E+01
 -1      1283 1.26635E+01
 -1      1284 4.65887E+00
 -1      1285 9.22967E+00
 -1      1286 2.11521E+00
 -1      1287 2.93809E+00
 -1      1288 4.07507E+00
 -1      1289 1.48617E+00
 -1      1290 1.74242E+00
 -1      1291 1.98151E+00
 -1      1292 1.14919E+00
 -1      1293 1.29221E+00
 -1      1294 1.41476E+00
 -1      1295 9.19420E-01
 -1      1296 1.02370E+00
 -1      1297 1.09531E+00
 -1      1298 7.49271E-01
 -1      1299 8.28061E-01
 -1      1300 8.78468E-01
 -1      1301 6.24180E-01
 -1      1302 6.81206E-01
 -1      1303 7.19044E-01
 -1      1304 6.08838E-01
 -1      1305 5.91047E-01
 -1      1306 6.17847E-01
 -1      1307 7.22977E-01
 -1      1308 6.61728E-01
 -1      1309 6.37604E-01
 -1      1310 8.63968E-01
 -1      1311 7.90511E-01
 -1      1312 7.58029E-01
 -1      1313 1.05805E+00
 -1      1314 9.54978E-01
 -1      1315 9.16573E-01
 -1      1316 1.32147E+00
 -1      1317 1.18017E+00
 -1      1318 1.12970E+00
 -1      1319 1.75685E+00
 -1      1320 1.51146E+00
 -1      1321 1.44181E+00
 -1      1322 2.86574E+00
 -1      1323 2.11232E+00
 -1      1324 1.98728E+00
 -1      1325 6.03251E+00
 -1      1326 3.59388E+00
 -1      1327 3.07088E+00
 -1      1328 1.36107E+01
 -1      1329 1.09383E+01
 -1      1330 8.70486E+00
 -1      1331 1.36107E+01
 -1      1332 8.39590E+00
 -1      1333 4.12830E+00
 -1      1334 3.55004E+00
 -1      1335 2.97177E+00
 -1      1336 3.55004E+00
 -1      1337 2.42036E+00
 -1      1338 1.86894E+00
 -1      1339 2.42036E+00
 -1      1340 1.61286E+00
 -1      1341 1.35679E+00
 -1      1342 1.61286E+00
 -1      1343 1.16866E+00
 -1      1344 1.00120E+00
 -1      1345 1.16866E+00
 -1      1346 1.02187E+00
 -1      1347 1.06206E+00
 -1      1348 1.00120E+00
 -1      1349 1.10225E+00
 -1      1350 1.17550E+00
 -1      1351 1.06206E+00
 -1      1352 1.27505E+00
 -1      1353 1.49282E+00
 -1      1354 1.20179E+00
 -1      1355 1.68431E+00
 -1      1356 1.83817E+00
 -1      1357 1.49282E+00
 -1      1358 1.99204E+00
 -1      1359 1.99204E+00
 -1      1360 1.83817E+00
 -1      1361 1.98809E+00
 -1      1362 1.98414E+00
 -1      1363 1.98809E+00
 -1      1364 1.98160E+00
 -1      1365 1.97907E+00
 -1      1366 1.98160E+00
 -1      1367 1.94304E+00
 -1      1368 2.32937E+00
 -1      1369 1.94304E+00
 -1      1370 2.90395E+00
 -1      1371 4.10358E+00
 -1      1372 2.48159E+00
 -1      1373 5.15100E+00
 -1      1374 5.50434E+00
 -1      1375 4.10358E+00
 -1      1376 5.85769E+00
 -1      1377 5.86925E+00
 -1      1378 5.50434E+00
 -1      1379 5.88080E+00
 -1      1380 5.88080E+00
 -1      1381 5.86925E+00
 -1      1382 5.08350E+00
 -1      1383 4.28620E+00
 -1      1384 5.08350E+00
 -1      1385 3.37598E+00
 -1      1386 2.46576E+00
 -1      1387 3.37598E+00
 -1      1388 2.17401E+00
 -1      1389 1.96253E+00
 -1      1390 2.17401E+00
 -1      1391 2.04280E+00
 -1      1392 2.05587E+00
 -1      1393 1.96253E+00
 -1      1394 2.06895E+00
 -1      1395 2.06895E+00
 -1      1396 2.05587E+00
 -1      1397 2.00989E+00
 -1      1398 1.95084E+00
 -1      1399 2.00989E+00
 -1      1400 1.79140E+00
 -1      1401 1.63197E+00
 -1      1402 1.79140E+00
 -1      1403 1.49735E+00
 -1      1404 1.32649E+00
 -1      1405 1.49735E+00
 -1      1406 1.23837E+00
 -1      1407 1.10092E+00
 -1      1408 1.27461E+00
 -1      1409 9.95436E-01
 -1      1410 8.70331E-01
 -1      1411 1.08101E+00
 -1      1412 7.65363E-01
 -1      1413 7.01850E-01
 -1      1414 8.70558E-01
 -1      1415 6.08408E-01
 -1      1416 5.46088E-01
 -1      1417 6.72149E-01
 -1      1418 4.68406E-01
 -1      1419 4.12544E-01
 -1      1420 5.01024E-01
 -1      1421 3.55850E-01
 -1      1422 3.08482E-01
 -1      1423 3.66649E-01
 -1      1424 2.72966E-01
 -1      1425 2.34289E-01
 -1      1426 2.74440E-01
 -1      1427 2.05127E-01
 -1      1428 1.74414E-01
 -1      1429 2.09762E-01
 -1      1430 1.51076E-01
 -1      1431 1.27671E-01
 -1      1432 1.57261E-01
 -1      1433 1.10836E-01
 -1      1434 1.00252E-01
 -1      1435 1.17088E-01
 -1      1436 9.06888E-02
 -1      1437 8.11254E-02
 -1      1438 9.06888E-02
 -1      1439 7.27789E-02
 -1      1440 6.44324E-02
 -1      1441 7.27789E-02
 -1      1442 5.73333E-02
 -1      1443 5.02342E-02
 -1      1444 5.73333E-02
 -1      1445 4.43152E-02
 -1      1446 3.83963E-02
 -1      1447 4.43152E-02
 -1      1448 3.36416E-02
 -1      1449 2.87821E-02
 -1      1450 3.36416E-02
 -1      1451 2.54120E-02
 -1      1452 2.20376E-02
 -1      1453 2.55169E-02
 -1      1454 1.99149E-02
 -1      1455 1.79013E-02
 -1      1456 2.00240E-02
 -1      1457 1.59988E-02
 -1      1458 1.40964E-02
 -1      1459 1.59988E-02
 -1      1460 1.23221E-02
 -1      1461 1.05478E-02
 -1      1462 1.23221E-02
 -1      1463 9.09154E-03
 -1      1464 7.43334E-03
 -1      1465 9.09154E-03
 -1      1466 6.24274E-03
 -1      1467 5.24346E-03
 -1      1468 6.44474E-03
 -1      1469 4.81861E-03
 -1      1470 4.40443E-03
 -1      1471 4.82929E-03
 -1      1472 3.70234E-03
 -1      1473 3.00025E-03
 -1      1474 3.70234E-03
 -1      1475 2.45044E-03
 -1      1476 2.45044E-03
 -1      1477 3.30173E+00
 -1      1478 8.45622E+00
 -1      1479 8.45622E+00
 -1      1480 2.22155E+00
 -1      1481 2.76164E+00
 -1      1482 2.76164E+00
 -1      1483 1.49114E+00
 -1      1484 1.85634E+00
 -1      1485 1.85634E+00
 -1      1486 1.20183E+00
 -1      1487 1.34648E+00
 -1      1488 1.34648E+00
 -1      1489 9.30643E-01
 -1      1490 1.06624E+00
 -1      1491 1.06624E+00
 -1      1492 6.59273E-01
 -1      1493 7.94958E-01
 -1      1494 7.94958E-01
 -1      1495 5.65725E-01
 -1      1496 6.12499E-01
 -1      1497 6.12499E-01
 -1      1498 5.43619E-01
 -1      1499 5.36177E-01
 -1      1500 5.36177E-01
 -1      1501 6.18532E-01
 -1      1502 5.80609E-01
 -1      1503 5.43619E-01
 -1      1504 7.71903E-01
 -1      1505 6.56456E-01
 -1      1506 6.18532E-01
 -1      1507 9.32150E-01
 -1      1508 8.87351E-01
 -1      1509 7.71903E-01
 -1      1510 1.12018E+00
 -1      1511 9.76948E-01
 -1      1512 9.32150E-01
 -1      1513 1.39526E+00
 -1      1514 1.26341E+00
 -1      1515 1.12018E+00
 -1      1516 1.97021E+00
 -1      1517 1.60244E+00
 -1      1518 1.47059E+00
 -1      1519 2.41517E+00
 -1      1520 2.26263E+00
 -1      1521 1.97021E+00
 -1      1522 2.74683E+00
 -1      1523 2.56770E+00
 -1      1524 2.41517E+00
 -1      1525 2.92595E+00
 -1      1526 2.92595E+00
 -1      1527 2.74683E+00
 -1      1528 2.78594E+00
 -1      1529 2.85595E+00
 -1      1530 2.85595E+00
 -1      1531 2.07961E+00
 -1      1532 2.43277E+00
 -1      1533 2.43277E+00
 -1      1534 1.26222E+00
 -1      1535 1.67091E+00
 -1      1536 1.67091E+00
 -1      1537 8.92406E-01
 -1      1538 1.07731E+00
 -1      1539 1.07731E+00
 -1      1540 7.05052E-01
 -1      1541 7.93182E-01
 -1      1542 7.93182E-01
 -1      1543 7.69266E-01
 -1      1544 7.16146E-01
 -1      1545 7.05052E-01
 -1      1546 8.26110E-01
 -1      1547 8.22385E-01
 -1      1548 7.69266E-01
 -1      1549 8.29835E-01
 -1      1550 8.29835E-01
 -1      1551 8.26110E-01
 -1      1552 7.53260E-01
 -1      1553 7.91548E-01
 -1      1554 7.91548E-01
 -1      1555 6.36258E-01
 -1      1556 6.94759E-01
 -1      1557 6.94759E-01
 -1      1558 5.33455E-01
 -1      1559 5.84857E-01
 -1      1560 5.84857E-01
 -1      1561 4.32900E-01
 -1      1562 4.86417E-01
 -1      1563 4.86417E-01
 -1      1564 3.36722E-01
 -1      1565 3.86773E-01
 -1      1566 3.93253E-01
 -1      1567 2.55520E-01
 -1      1568 2.94882E-01
 -1      1569 3.05286E-01
 -1      1570 1.96123E-01
 -1      1571 2.21858E-01
 -1      1572 2.29784E-01
 -1      1573 1.50528E-01
 -1      1574 1.73326E-01
 -1      1575 1.73326E-01
 -1      1576 1.12062E-01
 -1      1577 1.31295E-01
 -1      1578 1.31295E-01
 -1      1579 8.15177E-02
 -1      1580 9.71363E-02
 -1      1581 9.71363E-02
 -1      1582 5.76753E-02
 -1      1583 6.99593E-02
 -1      1584 7.06517E-02
 -1      1585 4.23779E-02
 -1      1586 4.93176E-02
 -1      1587 5.07356E-02
 -1      1588 3.54466E-02
 -1      1589 3.89123E-02
 -1      1590 3.89123E-02
 -1      1591 2.88570E-02
 -1      1592 3.21518E-02
 -1      1593 3.21518E-02
 -1      1594 2.28847E-02
 -1      1595 2.58709E-02
 -1      1596 2.58709E-02
 -1      1597 1.82021E-02
 -1      1598 2.05434E-02
 -1      1599 2.05434E-02
 -1      1600 1.61691E-02
 -1      1601 1.71856E-02
 -1      1602 1.71856E-02
 -1      1603 1.37476E-02
 -1      1604 1.49583E-02
 -1      1605 1.49583E-02
 -1      1606 1.11273E-02
 -1      1607 1.24374E-02
 -1      1608 1.24374E-02
 -1      1609 8.38696E-03
 -1      1610 9.75713E-03
 -1      1611 9.75713E-03
 -1      1612 5.91876E-03
 -1      1613 7.15286E-03
 -1      1614 7.15286E-03
 -1      1615 4.28082E-03
 -1      1616 5.09979E-03
 -1      1617 5.09979E-03
 -1      1618 2.53217E-03
 -1      1619 3.40649E-03
 -1      1620 3.40649E-03
 -1      1621 1.85693E-03
 -1      1622 1.04641E-03
 -1      1623 1.12746E-03
 -1      1624 7.49732E-04
 -1      1625 9.95923E-04
 -1      1626 1.02273E-03
 -1      1627 4.66192E-04
 -1      1628 5.64568E-04
 -1      1629 7.87078E-04
 -1      1630 6.87800E-04
 -1      1631 5.94869E-04
 -1      1632 7.30592E-04
 -1      1633 8.40549E-04
 -1      1634 7.89862E-04
 -1      1635 9.61331E-04
 -1      1636 9.12939E-04
 -1      1637 8.90001E-04
 -1      1638 1.11285E-03
 -1      1639 9.37627E-04
 -1      1640 9.31785E-04
 -1      1641 1.18114E-03
 -1      1642 9.38892E-04
 -1      1643 9.38892E-04
 -1      1644 1.20125E-03
 -1      1645 9.36684E-04
 -1      1646 9.38892E-04
 -1      1647 1.20252E-03
 -1      1648 9.00569E-04
 -1      1649 9.23333E-04
 -1      1650 1.18917E-03
 -1      1651 8.10674E-04
 -1      1652 8.57806E-04
 -1      1653 1.13305E-03
 -1      1654 6.19158E-04
 -1      1655 7.13822E-04
 -1      1656 9.93439E-04
 -1      1657 6.07221E-04
 -1      1658 5.03021E-04
 -1      1659 7.80450E-04
 -1      1660 1.01506E-03
 -1      1661 6.07221E-04
 -1      1662 6.64313E-04
 -1      1663 1.85281E-03
 -1      1664 1.58540E-03
 -1      1665 1.23465E-03
 -1      1666 2.40262E-03
 -1      1667 2.75602E+01
 -1      1668 2.74740E+01
 -1      1669 3.83673E+01
 -1      1670 2.68357E+01
 -1      1671 4.77749E+01
 -1      1672 4.77749E+01
 -1      1673 2.16888E+01
 -1      1674 3.52075E+01
 -1      1675 1.18830E+01
 -1      1676 1.60841E+01
 -1      1677 1.23635E+01
 -1      1678 1.23352E+01
 -1      1679 1.23919E+01
 -1      1680 1.23919E+01
 -1      1681 1.23599E+01
 -1      1682 1.21659E+01
 -1      1683 1.27800E+01
 -1      1684 1.27800E+01
 -1      1685 1.21274E+01
 -1      1686 1.24094E+01
 -1      1687 1.96321E+01
 -1      1688 1.22160E+01
 -1      1689 2.85810E+01
 -1      1690 2.75197E+01
 -1      1691 3.15401E+01
 -1      1692 3.15401E+01
 -1      1693 2.91416E+01
 -1      1694 3.15401E+01
 -1      1695 2.70819E+01
 -1      1696 2.72804E+01
 -1      1697 2.71570E+01
 -1      1698 2.70819E+01
 -1      1699 3.78042E+01
 -1      1700 2.63182E+01
 -1      1701 4.70991E+01
 -1      1702 4.70991E+01
 -1      1703 2.06328E+01
 -1      1704 3.42584E+01
 -1      1705 1.14767E+01
 -1      1706 1.53376E+01
 -1      1707 1.27212E+01
 -1      1708 1.21261E+01
 -1      1709 1.33162E+01
 -1      1710 1.33162E+01
 -1      1711 1.26929E+01
 -1      1712 1.28595E+01
 -1      1713 1.29830E+01
 -1      1714 1.29830E+01
 -1      1715 1.21702E+01
 -1      1716 1.24638E+01
 -1      1717 1.91857E+01
 -1      1718 1.23959E+01
 -1      1719 2.88416E+01
 -1      1720 2.69067E+01
 -1      1721 3.06631E+01
 -1      1722 3.06631E+01
 -1      1723 2.83736E+01
 -1      1724 3.06631E+01
 -1      1725 2.74740E+01
 -1      1726 2.78375E+01
 -1      1727 1.70355E+01
 -1      1728 3.52075E+01
 -1      1729 1.85693E-03
 -1      1730 1.80270E-03
 -1      1731 2.96842E+01
 -1      1732 3.83673E+01
 -1      1733 3.04087E+01
 -1      1734 1.18830E+01
 -1      1735 1.23635E+01
 -1      1736 1.21659E+01
 -1      1737 1.23599E+01
 -1      1738 1.24094E+01
 -1      1739 1.21274E+01
 -1      1740 2.01036E+01
 -1      1741 3.09502E+01
 -1      1742 3.39093E+01
 -1      1743 3.20481E+01
 -1      1744 3.01869E+01
 -1      1745 2.93481E+01
 -1      1746 3.78042E+01
 -1      1747 3.42584E+01
 -1      1748 1.61225E+01
 -1      1749 1.14767E+01
 -1      1750 1.27212E+01
 -1      1751 1.28595E+01
 -1      1752 1.26929E+01
 -1      1753 1.24638E+01
 -1      1754 1.21702E+01
 -1      1755 2.01169E+01
 -1      1756 2.96594E+01
 -1      1757 3.14809E+01
 -1      1758 3.09448E+01
 -1      1759 9.22967E+00
 -1      1760 1.39217E+00
 -1      1761 1.76496E+00
 -1      1762 2.37636E+00
 -1      1763 4.09714E+00
 -1      1764 1.78703E+00
 -1      1765 9.10868E-01
 -1      1766 1.03635E+00
 -1      1767 7.42344E-01
 -1      1768 8.33703E-01
 -1      1769 7.74745E-01
 -1      1770 6.13935E-01
 -1      1771 6.82000E-01
 -1      1772 6.37236E-01
 -1      1773 5.31524E-01
 -1      1774 5.64657E-01
 -1      1775 5.27613E-01
 -1      1776 6.03970E-01
 -1      1777 5.51080E-01
 -1      1778 4.97890E-01
 -1      1779 7.20794E-01
 -1      1780 6.53260E-01
 -1      1781 5.66736E-01
 -1      1782 8.72295E-01
 -1      1783 7.81285E-01
 -1      1784 6.76516E-01
 -1      1785 1.06255E+00
 -1      1786 9.40430E-01
 -1      1787 8.05142E-01
 -1      1788 1.33297E+00
 -1      1789 1.14298E+00
 -1      1790 9.53706E-01
 -1      1791 1.80097E+00
 -1      1792 1.44549E+00
 -1      1793 1.14666E+00
 -1      1794 2.58898E+00
 -1      1795 1.86084E+00
 -1      1796 1.31906E+00
 -1      1797 7.77854E+00
 -1      1798 2.87270E+00
 -1      1799 1.66266E+00
 -1      1800 2.62406E+00
 -1      1801 4.96207E+00
 -1      1802 1.90803E+00
 -1      1803 2.44812E+00
 -1      1804 1.77044E+00
 -1      1805 3.26337E+00
 -1      1806 2.14854E+00
 -1      1807 1.59713E+00
 -1      1808 1.32280E+00
 -1      1809 1.06673E+00
 -1      1810 1.05099E+00
 -1      1811 9.74905E-01
 -1      1812 7.86778E-01
 -1      1813 6.84844E-01
 -1      1814 8.27441E-01
 -1      1815 8.48109E-01
 -1      1816 6.33684E-01
 -1      1817 9.62435E-01
 -1      1818 1.00262E+00
 -1      1819 7.88673E-01
 -1      1820 1.10757E+00
 -1      1821 1.20711E+00
 -1      1822 1.00794E+00
 -1      1823 1.28559E+00
 -1      1824 1.47708E+00
 -1      1825 1.19137E+00
 -1      1826 1.57805E+00
 -1      1827 1.73191E+00
 -1      1828 1.37082E+00
 -1      1829 1.76717E+00
 -1      1830 1.76322E+00
 -1      1831 1.50705E+00
 -1      1832 1.73077E+00
 -1      1833 1.72823E+00
 -1      1834 1.50985E+00
 -1      1835 1.90689E+00
 -1      1836 1.87086E+00
 -1      1837 1.65605E+00
 -1      1838 1.97488E+00
 -1      1839 2.54946E+00
 -1      1840 1.93873E+00
 -1      1841 2.88338E+00
 -1      1842 3.93079E+00
 -1      1843 2.37667E+00
 -1      1844 4.41781E+00
 -1      1845 4.77116E+00
 -1      1846 3.19761E+00
 -1      1847 4.85811E+00
 -1      1848 4.86967E+00
 -1      1849 3.77158E+00
 -1      1850 4.54571E+00
 -1      1851 3.74841E+00
 -1      1852 3.53458E+00
 -1      1853 3.34566E+00
 -1      1854 2.43544E+00
 -1      1855 2.80787E+00
 -1      1856 2.10965E+00
 -1      1857 1.81790E+00
 -1      1858 2.07933E+00
 -1      1859 1.77703E+00
 -1      1860 1.85730E+00
 -1      1861 1.71268E+00
 -1      1862 1.83694E+00
 -1      1863 1.85002E+00
 -1      1864 1.65145E+00
 -1      1865 1.85527E+00
 -1      1866 1.79621E+00
 -1      1867 1.63633E+00
 -1      1868 1.75214E+00
 -1      1869 1.59271E+00
 -1      1870 1.59751E+00
 -1      1871 1.51403E+00
 -1      1872 1.37940E+00
 -1      1873 1.47476E+00
 -1      1874 1.31302E+00
 -1      1875 1.22490E+00
 -1      1876 1.32969E+00
 -1      1877 1.13530E+00
 -1      1878 1.02982E+00
 -1      1879 1.17371E+00
 -1      1880 9.30983E-01
 -1      1881 8.26015E-01
 -1      1882 9.85278E-01
 -1      1883 7.32031E-01
 -1      1884 6.38589E-01
 -1      1885 7.92456E-01
 -1      1886 5.56400E-01
 -1      1887 4.78717E-01
 -1      1888 6.16282E-01
 -1      1889 4.10612E-01
 -1      1890 3.53919E-01
 -1      1891 4.65987E-01
 -1      1892 2.99582E-01
 -1      1893 2.64067E-01
 -1      1894 3.43545E-01
 -1      1895 2.21947E-01
 -1      1896 1.92784E-01
 -1      1897 2.47089E-01
 -1      1898 1.60903E-01
 -1      1899 1.37566E-01
 -1      1900 1.73088E-01
 -1      1901 1.15631E-01
 -1      1902 9.87950E-02
 -1      1903 1.19273E-01
 -1      1904 8.47757E-02
 -1      1905 7.52123E-02
 -1      1906 8.33185E-02
 -1      1907 6.57715E-02
 -1      1908 5.74250E-02
 -1      1909 5.98584E-02
 -1      1910 5.21731E-02
 -1      1911 4.50740E-02
 -1      1912 4.51657E-02
 -1      1913 4.13752E-02
 -1      1914 3.54562E-02
 -1      1915 3.62150E-02
 -1      1916 3.21261E-02
 -1      1917 2.73714E-02
 -1      1918 2.91860E-02
 -1      1919 2.44525E-02
 -1      1920 2.10824E-02
 -1      1921 2.29369E-02
 -1      1922 1.85715E-02
 -1      1923 1.64487E-02
 -1      1924 1.75071E-02
 -1      1925 1.49420E-02
 -1      1926 1.30396E-02
 -1      1927 1.34895E-02
 -1      1928 1.18804E-02
 -1      1929 1.01060E-02
 -1      1930 1.08235E-02
 -1      1931 8.92517E-03
 -1      1932 7.46896E-03
 -1      1933 8.48344E-03
 -1      1934 6.44474E-03
 -1      1935 5.25415E-03
 -1      1936 6.27837E-03
 -1      1937 4.40796E-03
 -1      1938 3.98310E-03
 -1      1939 4.40796E-03
 -1      1940 3.53063E-03
 -1      1941 2.82854E-03
 -1      1942 2.23091E-03
 -1      1943 3.10930E-03
 -1      1944 1.20585E+00
 -1      1945 1.57106E+00
 -1      1946 1.25753E+00
 -1      1947 9.16757E-01
 -1      1948 1.06141E+00
 -1      1949 7.76120E-01
 -1      1950 7.43450E-01
 -1      1951 8.79044E-01
 -1      1952 5.93970E-01
 -1      1953 5.49245E-01
 -1      1954 6.84930E-01
 -1      1955 4.97737E-01
 -1      1956 4.91227E-01
 -1      1957 5.38001E-01
 -1      1958 4.27972E-01
 -1      1959 4.55290E-01
 -1      1960 4.84838E-01
 -1      1961 4.10339E-01
 -1      1962 4.60708E-01
 -1      1963 4.23719E-01
 -1      1964 3.72379E-01
 -1      1965 4.85448E-01
 -1      1966 4.47525E-01
 -1      1967 3.27625E-01
 -1      1968 7.29994E-01
 -1      1969 6.14546E-01
 -1      1970 4.43539E-01
 -1      1971 9.62622E-01
 -1      1972 9.17823E-01
 -1      1973 7.60466E-01
 -1      1974 1.31587E+00
 -1      1975 1.17264E+00
 -1      1976 1.15831E+00
 -1      1977 1.63934E+00
 -1      1978 1.43215E+00
 -1      1979 1.48461E+00
 -1      1980 1.93177E+00
 -1      1981 1.63934E+00
 -1      1982 1.60090E+00
 -1      1983 2.06959E+00
 -1      1984 1.91705E+00
 -1      1985 1.58618E+00
 -1      1986 2.32319E+00
 -1      1987 2.14406E+00
 -1      1988 1.64595E+00
 -1      1989 2.29513E+00
 -1      1990 2.36514E+00
 -1      1991 1.76238E+00
 -1      1992 1.79530E+00
 -1      1993 2.14846E+00
 -1      1994 1.65766E+00
 -1      1995 1.15564E+00
 -1      1996 1.56433E+00
 -1      1997 1.28002E+00
 -1      1998 7.75412E-01
 -1      1999 9.60319E-01
 -1      2000 8.53735E-01
 -1      2001 5.52661E-01
 -1      2002 6.51885E-01
 -1      2003 5.34891E-01
 -1      2004 6.08894E-01
 -1      2005 5.97799E-01
 -1      2006 4.56502E-01
 -1      2007 6.96018E-01
 -1      2008 6.42899E-01
 -1      2009 5.35646E-01
 -1      2010 7.20467E-01
 -1      2011 7.16742E-01
 -1      2012 5.90375E-01
 -1      2013 6.74830E-01
 -1      2014 7.13118E-01
 -1      2015 6.03750E-01
 -1      2016 5.86227E-01
 -1      2017 6.44728E-01
 -1      2018 5.66298E-01
 -1      2019 5.06234E-01
 -1      2020 5.57635E-01
 -1      2021 5.07604E-01
 -1      2022 4.22804E-01
 -1      2023 4.69841E-01
 -1      2024 4.42620E-01
 -1      2025 3.38218E-01
 -1      2026 3.84345E-01
 -1      2027 3.67769E-01
 -1      2028 2.60044E-01
 -1      2029 3.01884E-01
 -1      2030 2.92976E-01
 -1      2031 1.94439E-01
 -1      2032 2.28101E-01
 -1      2033 2.24699E-01
 -1      2034 1.48039E-01
 -1      2035 1.70836E-01
 -1      2036 1.69153E-01
 -1      2037 1.11510E-01
 -1      2038 1.30744E-01
 -1      2039 1.28254E-01
 -1      2040 8.22101E-02
 -1      2041 9.71363E-02
 -1      2042 9.65843E-02
 -1      2043 5.90934E-02
 -1      2044 7.06517E-02
 -1      2045 7.06517E-02
 -1      2046 4.17022E-02
 -1      2047 5.00600E-02
 -1      2048 5.00600E-02
 -1      2049 3.13577E-02
 -1      2050 3.48233E-02
 -1      2051 3.41477E-02
 -1      2052 2.58095E-02
 -1      2053 2.91043E-02
 -1      2054 2.50153E-02
 -1      2055 2.09598E-02
 -1      2056 2.39459E-02
 -1      2057 2.08984E-02
 -1      2058 1.67854E-02
 -1      2059 1.91267E-02
 -1      2060 1.72018E-02
 -1      2061 1.40513E-02
 -1      2062 1.50677E-02
 -1      2063 1.36510E-02
 -1      2064 1.14006E-02
 -1      2065 1.26114E-02
 -1      2066 1.04935E-02
 -1      2067 9.45806E-03
 -1      2068 1.07682E-02
 -1      2069 8.42122E-03
 -1      2070 7.30579E-03
 -1      2071 8.67595E-03
 -1      2072 7.00671E-03
 -1      2073 5.37735E-03
 -1      2074 6.61145E-03
 -1      2075 5.53027E-03
 -1      2076 3.87978E-03
 -1      2077 4.69875E-03
 -1      2078 4.15734E-03
 -1      2079 2.48479E-03
 -1      2080 3.35912E-03
 -1      2081 2.95808E-03
 -1      2082 1.75532E-03
 -1      2083 1.01674E-03
 -1      2084 8.88062E-04
 -1      2085 1.25075E-03
 -1      2086 1.43591E-03
 -1      2087 1.53689E-03
 -1      2088 1.43591E-03
 -1      2089 1.48640E-03
 -1      2090 2.16850E-03
 -1      2091 1.89958E-03
 -1      2092 1.22121E-03
 -1      2093 1.11915E-03
 -1      2094 1.27662E-03
 -1      2095 1.31908E-03
 -1      2096 1.26963E-03
 -1      2097 1.42745E-03
 -1      2098 1.35154E-03
 -1      2099 1.33269E-03
 -1      2100 1.48948E-03
 -1      2101 1.35280E-03
 -1      2102 1.35154E-03
 -1      2103 1.50308E-03
 -1      2104 1.35663E-03
 -1      2105 1.35663E-03
 -1      2106 1.50691E-03
 -1      2107 1.34328E-03
 -1      2108 1.35663E-03
 -1      2109 1.51074E-03
 -1      2110 1.29875E-03
 -1      2111 1.34151E-03
 -1      2112 1.50897E-03
 -1      2113 1.16139E-03
 -1      2114 1.25824E-03
 -1      2115 1.46670E-03
 -1      2116 9.39847E-04
 -1      2117 1.05598E-03
 -1      2118 1.32078E-03
 -1      2119 1.39921E-03
 -1      2120 1.39921E-03
 -1      2121 1.67475E-03
 -1      2122 3.83673E+01
 -1      2123 2.89597E+01
 -1      2124 3.31129E+01
 -1      2125 3.31129E+01
 -1      2126 2.99632E+01
 -1      2127 3.06877E+01
 -1      2128 1.97233E+01
 -1      2129 3.22907E+01
 -1      2130 1.05973E+01
 -1      2131 1.62019E+01
 -1      2132 1.16631E+00
 -1      2133 1.36028E+00
 -1      2134 1.14373E+00
 -1      2135 9.81868E-01
 -1      2136 1.12312E+01
 -1      2137 1.12028E+01
 -1      2138 1.09927E+01
 -1      2139 1.12187E+01
 -1      2140 1.15648E+01
 -1      2141 1.11447E+01
 -1      2142 1.07666E+01
 -1      2143 1.11372E+01
 -1      2144 9.69773E+00
 -1      2145 9.60910E+00
 -1      2146 8.33699E+00
 -1      2147 1.95353E+01
 -1      2148 1.16477E+01
 -1      2149 2.67673E+01
 -1      2150 2.38082E+01
 -1      2151 1.53523E+01
 -1      2152 3.39093E+01
 -1      2153 3.39093E+01
 -1      2154 3.33266E+01
 -1      2155 3.51878E+01
 -1      2156 3.33266E+01
 -1      2157 3.33266E+01
 -1      2158 2.81125E+01
 -1      2159 2.89513E+01
 -1      2160 3.78042E+01
 -1      2161 2.85094E+01
 -1      2162 1.89236E+01
 -1      2163 3.17644E+01
 -1      2164 9.94238E+00
 -1      2165 1.52375E+01
 -1      2166 9.57721E+00
 -1      2167 8.92784E+00
 -1      2168 1.09865E+01
 -1      2169 1.03914E+01
 -1      2170 1.17212E+01
 -1      2171 1.21779E+01
 -1      2172 1.18090E+01
 -1      2173 1.15188E+01
 -1      2174 1.08372E+01
 -1      2175 1.04362E+01
 -1      2176 1.09554E+01
 -1      2177 9.63421E+00
 -1      2178 9.40853E+00
 -1      2179 1.95029E+01
 -1      2180 1.17818E+01
 -1      2181 2.54141E+01
 -1      2182 2.35926E+01
 -1      2183 3.14809E+01
 -1      2184 3.14809E+01
 -1      2185 3.31129E+01
 -1      2186 3.36490E+01
 -1      2187 3.58171E+01
 -1      2188 9.73293E+00
 -1      2189 9.28076E+00
 -1      2190 1.32851E+01
 -1      2191 2.68510E+00
 -1      2192 8.44721E+00
 -1      2193 8.60058E+00
 -1      2194 1.86187E+00
 -1      2195 2.99632E+01
 -1      2196 3.33919E+01
 -1      2197 1.96955E-03
 -1      2198 2.28831E+01
 -1      2199 3.36490E+01
 -1      2200 2.54141E+01
 -1      2201 1.52576E+01
 -1      2202 9.02020E+00
 -1      2203 9.78138E+00
 -1      2204 9.84816E+00
 -1      2205 7.84254E+00
 -1      2206 8.04287E+00
 -1      2207 1.27435E+01
 -1      2208 2.24695E+01
 -1      2209 2.81125E+01
 -1      2210 3.20910E+01
 -1      2211 3.64664E+01
 -1      2212 2.67673E+01
 -1      2213 9.12941E+00
 -1      2214 9.92206E+00
 -1      2215 1.00580E+01
 -1      2216 1.01975E+01
 -1      2217 3.51878E+01
 -1      2218 7.90021E+00
 -1      2219 8.37947E-01
 -1      2220 1.17492E+00
 -1      2221 5.29911E-01
 -1      2222 5.90255E-01
 -1      2223 6.33531E-01
 -1      2224 7.10695E-01
 -1      2225 5.26206E-01
 -1      2226 4.34161E-01
 -1      2227 4.14605E-01
 -1      2228 5.27255E-01
 -1      2229 4.77965E-01
 -1      2230 3.94680E-01
 -1      2231 6.33078E-01
 -1      2232 5.72587E-01
 -1      2233 4.83817E-01
 -1      2234 7.37453E-01
 -1      2235 6.69318E-01
 -1      2236 5.65389E-01
 -1      2237 8.34031E-01
 -1      2238 7.53602E-01
 -1      2239 6.17778E-01
 -1      2240 1.07419E+00
 -1      2241 9.61662E-01
 -1      2242 7.61559E-01
 -1      2243 5.42528E-01
 -1      2244 6.86966E-01
 -1      2245 6.04356E-01
 -1      2246 1.04059E+00
 -1      2247 7.66261E-01
 -1      2248 6.22108E+00
 -1      2249 7.53760E+00
 -1      2250 6.63095E-01
 -1      2251 5.71273E-01
 -1      2252 6.52690E-01
 -1      2253 6.08777E-01
 -1      2254 6.49440E-01
 -1      2255 5.87029E-01
 -1      2256 7.52419E-01
 -1      2257 8.66745E-01
 -1      2258 7.27512E-01
 -1      2259 9.83723E-01
 -1      2260 1.08867E+00
 -1      2261 9.47469E-01
 -1      2262 1.20109E+00
 -1      2263 1.27957E+00
 -1      2264 1.17687E+00
 -1      2265 1.37681E+00
 -1      2266 1.47779E+00
 -1      2267 1.38654E+00
 -1      2268 1.67113E+00
 -1      2269 1.70639E+00
 -1      2270 1.67713E+00
 -1      2271 1.91190E+00
 -1      2272 1.87944E+00
 -1      2273 2.07598E+00
 -1      2274 2.03831E+00
 -1      2275 2.21697E+00
 -1      2276 2.44035E+00
 -1      2277 2.54136E+00
 -1      2278 2.64538E+00
 -1      2279 2.92362E+00
 -1      2280 2.89757E+00
 -1      2281 3.23149E+00
 -1      2282 3.50020E+00
 -1      2283 4.06688E+00
 -1      2284 4.55391E+00
 -1      2285 4.58779E+00
 -1      2286 4.95571E+00
 -1      2287 5.04266E+00
 -1      2288 5.82498E+00
 -1      2289 4.60808E+00
 -1      2290 4.28413E+00
 -1      2291 5.79221E+00
 -1      2292 3.95221E+00
 -1      2293 3.54946E+00
 -1      2294 5.02571E+00
 -1      2295 2.70433E+00
 -1      2296 2.37854E+00
 -1      2297 3.84867E+00
 -1      2298 2.27751E+00
 -1      2299 2.23664E+00
 -1      2300 2.90251E+00
 -1      2301 1.97387E+00
 -1      2302 1.95351E+00
 -1      2303 2.53870E+00
 -1      2304 1.78930E+00
 -1      2305 1.79454E+00
 -1      2306 2.11172E+00
 -1      2307 1.64158E+00
 -1      2308 1.59751E+00
 -1      2309 1.79454E+00
 -1      2310 1.53336E+00
 -1      2311 1.45468E+00
 -1      2312 1.57743E+00
 -1      2313 1.36448E+00
 -1      2314 1.29809E+00
 -1      2315 1.42308E+00
 -1      2316 1.19144E+00
 -1      2317 1.10184E+00
 -1      2318 1.22622E+00
 -1      2319 9.93855E-01
 -1      2320 8.95017E-01
 -1      2321 1.01158E+00
 -1      2322 7.99561E-01
 -1      2323 7.05577E-01
 -1      2324 8.08138E-01
 -1      2325 6.25051E-01
 -1      2326 5.42862E-01
 -1      2327 6.32157E-01
 -1      2328 4.76160E-01
 -1      2329 4.08055E-01
 -1      2330 4.84930E-01
 -1      2331 3.54325E-01
 -1      2332 2.99988E-01
 -1      2333 3.64498E-01
 -1      2334 2.57693E-01
 -1      2335 2.15573E-01
 -1      2336 2.68472E-01
 -1      2337 1.83689E-01
 -1      2338 1.51809E-01
 -1      2339 1.94293E-01
 -1      2340 1.28172E-01
 -1      2341 1.06237E-01
 -1      2342 1.38773E-01
 -1      2343 8.84492E-02
 -1      2344 7.44298E-02
 -1      2345 9.73484E-02
 -1      2346 6.12758E-02
 -1      2347 5.18351E-02
 -1      2348 6.64065E-02
 -1      2349 4.31366E-02
 -1      2350 3.78847E-02
 -1      2351 4.45540E-02
 -1      2352 3.23571E-02
 -1      2353 2.86584E-02
 -1      2354 3.03280E-02
 -1      2355 2.57632E-02
 -1      2356 2.24330E-02
 -1      2357 2.19053E-02
 -1      2358 2.10514E-02
 -1      2359 1.81324E-02
 -1      2360 1.76285E-02
 -1      2361 1.66871E-02
 -1      2362 1.41762E-02
 -1      2363 1.48015E-02
 -1      2364 1.27679E-02
 -1      2365 1.12611E-02
 -1      2366 1.19479E-02
 -1      2367 9.95003E-03
 -1      2368 8.79082E-03
 -1      2369 9.22844E-03
 -1      2370 7.96834E-03
 -1      2371 6.78749E-03
 -1      2372 7.09487E-03
 -1      2373 6.05703E-03
 -1      2374 5.03281E-03
 -1      2375 5.54193E-03
 -1      2376 4.36123E-03
 -1      2377 3.51504E-03
 -1      2378 4.13989E-03
 -1      2379 3.74669E-01
 -1      2380 4.33190E-01
 -1      2381 3.90755E-01
 -1      2382 4.01999E-01
 -1      2383 3.37451E-01
 -1      2384 4.04049E-01
 -1      2385 4.10439E-01
 -1      2386 3.84465E-01
 -1      2387 4.03280E-01
 -1      2388 4.34851E-01
 -1      2389 4.34950E-01
 -1      2390 4.42288E-01
 -1      2391 4.55471E-01
 -1      2392 5.17943E-01
 -1      2393 6.03179E-01
 -1      2394 4.74081E-01
 -1      2395 6.01928E-01
 -1      2396 9.22168E-01
 -1      2397 7.34339E-01
 -1      2398 7.64880E-01
 -1      2399 1.27361E+00
 -1      2400 1.06359E+00
 -1      2401 1.03746E+00
 -1      2402 1.49704E+00
 -1      2403 1.38075E+00
 -1      2404 1.28603E+00
 -1      2405 1.60090E+00
 -1      2406 1.60090E+00
 -1      2407 1.49704E+00
 -1      2408 1.57088E+00
 -1      2409 1.58560E+00
 -1      2410 1.58560E+00
 -1      2411 1.64861E+00
 -1      2412 1.57414E+00
 -1      2413 1.57355E+00
 -1      2414 1.70394E+00
 -1      2415 1.66199E+00
 -1      2416 1.59018E+00
 -1      2417 1.44570E+00
 -1      2418 1.59238E+00
 -1      2419 1.49199E+00
 -1      2420 1.09616E+00
 -1      2421 1.32712E+00
 -1      2422 1.26184E+00
 -1      2423 7.38759E-01
 -1      2424 9.34076E-01
 -1      2425 9.81180E-01
 -1      2426 5.19952E-01
 -1      2427 6.43479E-01
 -1      2428 7.23820E-01
 -1      2429 5.33698E-01
 -1      2430 4.88559E-01
 -1      2431 5.97147E-01
 -1      2432 5.64721E-01
 -1      2433 5.30716E-01
 -1      2434 5.62772E-01
 -1      2435 5.98176E-01
 -1      2436 5.77451E-01
 -1      2437 5.72521E-01
 -1      2438 5.79083E-01
 -1      2439 5.86433E-01
 -1      2440 5.73509E-01
 -1      2441 5.30676E-01
 -1      2442 5.60778E-01
 -1      2443 5.43461E-01
 -1      2444 4.74933E-01
 -1      2445 5.03524E-01
 -1      2446 4.98005E-01
 -1      2447 4.09083E-01
 -1      2448 4.45475E-01
 -1      2449 4.41395E-01
 -1      2450 3.36812E-01
 -1      2451 3.75270E-01
 -1      2452 3.78126E-01
 -1      2453 2.66793E-01
 -1      2454 3.03128E-01
 -1      2455 3.10629E-01
 -1      2456 2.04003E-01
 -1      2457 2.35946E-01
 -1      2458 2.46098E-01
 -1      2459 1.53745E-01
 -1      2460 1.77348E-01
 -1      2461 1.88595E-01
 -1      2462 1.14413E-01
 -1      2463 1.31709E-01
 -1      2464 1.39904E-01
 -1      2465 8.24771E-02
 -1      2466 9.68513E-02
 -1      2467 1.00306E-01
 -1      2468 5.73704E-02
 -1      2469 6.89287E-02
 -1      2470 6.91957E-02
 -1      2471 3.99890E-02
 -1      2472 4.90224E-02
 -1      2473 4.72994E-02
 -1      2474 2.73509E-02
 -1      2475 3.42298E-02
 -1      2476 3.31923E-02
 -1      2477 2.27619E-02
 -1      2478 2.50153E-02
 -1      2479 2.50975E-02
 -1      2480 1.90349E-02
 -1      2481 2.08984E-02
 -1      2482 2.08984E-02
 -1      2483 1.53687E-02
 -1      2484 1.72018E-02
 -1      2485 1.72018E-02
 -1      2486 1.19334E-02
 -1      2487 1.36510E-02
 -1      2488 1.36510E-02
 -1      2489 9.03948E-03
 -1      2490 1.04794E-02
 -1      2491 1.04794E-02
 -1      2492 7.61488E-03
 -1      2493 8.24728E-03
 -1      2494 8.23313E-03
 -1      2495 5.95954E-03
 -1      2496 6.74164E-03
 -1      2497 6.56770E-03
 -1      2498 4.47517E-03
 -1      2499 5.16951E-03
 -1      2500 4.90444E-03
 -1      2501 3.16675E-03
 -1      2502 3.84535E-03
 -1      2503 3.48458E-03
 -1      2504 2.68916E-03
 -1      2505 1.61364E-03
 -1      2506 1.56522E-03
 -1      2507 1.60437E-03
 -1      2508 1.59076E-03
 -1      2509 1.72853E-03
 -1      2510 1.85845E-03
 -1      2511 2.22113E-03
 -1      2512 1.61990E-03
 -1      2513 1.51749E-03
 -1      2514 2.20173E-03
 -1      2515 1.80609E-03
 -1      2516 1.59236E-03
 -1      2517 1.59236E-03
 -1      2518 1.69365E-03
 -1      2519 1.56825E-03
 -1      2520 1.56443E-03
 -1      2521 1.65371E-03
 -1      2522 1.60602E-03
 -1      2523 1.60602E-03
 -1      2524 1.66354E-03
 -1      2525 1.63859E-03
 -1      2526 1.64036E-03
 -1      2527 1.73565E-03
 -1      2528 1.59808E-03
 -1      2529 1.63859E-03
 -1      2530 1.76998E-03
 -1      2531 1.47244E-03
 -1      2532 1.57785E-03
 -1      2533 1.74974E-03
 -1      2534 1.92792E-03
 -1      2535 1.46855E-03
 -1      2536 1.72562E-03
 -1      2537 3.09668E+01
 -1      2538 3.33919E+01
 -1      2539 1.48128E+01
 -1      2540 2.08894E+01
 -1      2541 4.39737E-01
 -1      2542 4.77449E-01
 -1      2543 3.16669E-01
 -1      2544 7.33320E+00
 -1      2545 5.86331E+00
 -1      2546 2.39547E-03
 -1      2547 2.97629E+01
 -1      2548 2.75948E+01
 -1      2549 2.41153E+01
 -1      2550 2.51188E+01
 -1      2551 1.60450E+01
 -1      2552 3.58171E+01
 -1      2553 3.58171E+01
 -1      2554 3.33919E+01
 -1      2555 9.16719E+00
 -1      2556 7.97579E+00
 -1      2557 8.42409E+00
 -1      2558 8.85164E+00
 -1      2559 4.33624E-01
 -1      2560 4.82902E-01
 -1      2561 4.35922E-01
 -1      2562 3.69895E-01
 -1      2563 9.26693E+00
 -1      2564 9.11487E+00
 -1      2565 2.94675E+01
 -1      2566 2.81890E+01
 -1      2567 8.75553E+00
 -1      2568 8.76802E+00
 -1      2569 7.82491E+00
 -1      2570 5.80085E+00
 -1      2571 6.95837E+00
 -1      2572 8.88026E+00
 -1      2573 6.93031E+00
 -1      2574 5.55170E+00
 -1      2575 1.41023E+01
 -1      2576 9.82928E+00
 -1      2577 5.78318E+00
 -1      2578 6.81083E+00
 -1      2579 2.45910E+01
 -1      2580 1.74490E+01
 -1      2581 3.64664E+01
 -1      2582 3.64664E+01
 -1      2583 2.94675E+01
 -1      2584 2.77157E+01
 -1      2585 3.20910E+01
 -1      2586 2.37248E+01
 -1      2587 2.33280E+01
 -1      2588 1.43258E+01
 -1      2589 2.03657E+01
 -1      2590 1.55811E+01
 -1      2591 9.03728E+00
 -1      2592 1.27234E+01
 -1      2593 6.23227E+00
 -1      2594 7.24681E+00
 -1      2595 7.03996E+00
 -1      2596 6.22575E+00
 -1      2597 5.42970E+00
 -1      2598 6.35900E+00
 -1      2599 9.72263E+00
 -1      2600 9.92496E+00
 -1      2601 8.03532E+00
 -1      2602 8.88885E+00
 -1      2603 7.97657E+00
 -1      2604 8.99416E+00
 -1      2605 6.84652E+00
 -1      2606 5.75714E+00
 -1      2607 1.43153E+01
 -1      2608 1.02255E+01
 -1      2609 2.27461E+01
 -1      2610 1.66793E+01
 -1      2611 1.75513E+00
 -1      2612 1.21857E+00
 -1      2613 9.33842E-01
 -1      2614 1.14373E+00
 -1      2615 1.34575E+00
 -1      2616 1.52169E+00
 -1      2617 1.23797E+00
 -1      2618 9.26165E-01
 -1      2619 9.79675E+00
 -1      2620 1.33181E+01
 -1      2621 7.57062E+00
 -1      2622 5.88795E+00
 -1      2623 8.40654E-01
 -1      2624 9.81868E-01
 -1      2625 1.11183E+00
 -1      2626 3.88295E-01
 -1      2627 1.17809E+00
 -1      2628 1.88600E+01
 -1      2629 2.37717E-03
 -1      2630 1.13244E+01
 -1      2631 2.37717E-03
 -1      2632 1.11183E+00
 -1      2633 8.05259E+00
 -1      2634 2.51188E+01
 -1      2635 2.97629E+01
 -1      2636 9.93091E-01
 -1      2637 7.81885E+00
 -1      2638 5.08159E+00
 -1      2639 6.51641E+00
 -1      2640 2.44891E-03
 -1      2641 2.18756E-03
 -1      2642 1.98136E-03
 -1      2643 2.90139E-03
 -1      2644 1.06196E+01
 -1      2645 3.20910E+01
 -1      2646 2.41174E+01
 -1      2647 1.47991E+01
 -1      2648 1.83971E+01
 -1      2649 7.76897E+00
 -1      2650 8.05185E+00
 -1      2651 7.63018E+00
 -1      2652 4.95370E+00
 -1      2653 1.19259E+01
 -1      2654 5.91829E+00
 -1      2655 2.33280E+01
 -1      2656 7.22669E+00
 -1      2657 2.69872E-03
 -1      2658 1.16472E+01
 -1      2659 2.85465E-03
 -1      2660 4.57296E-01
 -1      2661 4.11964E-01
 -1      2662 3.67424E-01
 -1      2663 3.23619E-01
 -1      2664 3.40903E-01
 -1      2665 5.82664E-01
 -1      2666 5.66515E-01
 -1      2667 7.32109E-01
 -1      2668 6.04478E-01
 -1      2669 5.53214E-01
 -1      2670 5.15056E-01
 -1      2671 6.66037E-01
 -1      2672 5.61525E+00
 -1      2673 7.87441E+00
 -1      2674 8.22264E-01
 -1      2675 4.39842E+00
 -1      2676 5.86414E+00
 -1      2677 5.93983E-01
 -1      2678 6.31488E-01
 -1      2679 6.83725E-01
 -1      2680 7.86704E-01
 -1      2681 6.90679E-01
 -1      2682 8.96694E-01
 -1      2683 1.01367E+00
 -1      2684 8.52907E-01
 -1      2685 1.16697E+00
 -1      2686 1.27939E+00
 -1      2687 1.11620E+00
 -1      2688 1.47261E+00
 -1      2689 1.56986E+00
 -1      2690 1.46271E+00
 -1      2691 1.79604E+00
 -1      2692 1.98939E+00
 -1      2693 1.88212E+00
 -1      2694 2.24073E+00
 -1      2695 2.44624E+00
 -1      2696 2.35964E+00
 -1      2697 2.86561E+00
 -1      2698 3.02448E+00
 -1      2699 3.03036E+00
 -1      2700 3.86904E+00
 -1      2701 4.19343E+00
 -1      2702 4.29430E+00
 -1      2703 7.51857E+00
 -1      2704 7.08399E+00
 -1      2705 6.25021E+00
 -1      2706 5.91829E+00
 -1      2707 4.26478E+00
 -1      2708 3.41965E+00
 -1      2709 3.27117E+00
 -1      2710 3.17014E+00
 -1      2711 3.68728E+00
 -1      2712 2.98212E+00
 -1      2713 2.71935E+00
 -1      2714 3.35079E+00
 -1      2715 2.79379E+00
 -1      2716 2.62958E+00
 -1      2717 3.23721E+00
 -1      2718 2.17739E+00
 -1      2719 2.02443E+00
 -1      2720 2.85946E+00
 -1      2721 1.81289E+00
 -1      2722 1.74873E+00
 -1      2723 2.19573E+00
 -1      2724 1.56235E+00
 -1      2725 1.47215E+00
 -1      2726 1.79780E+00
 -1      2727 1.30972E+00
 -1      2728 1.20307E+00
 -1      2729 1.44899E+00
 -1      2730 1.06933E+00
 -1      2731 9.61348E-01
 -1      2732 1.15283E+00
 -1      2733 8.50556E-01
 -1      2734 7.55101E-01
 -1      2735 9.08311E-01
 -1      2736 6.66281E-01
 -1      2737 5.85755E-01
 -1      2738 7.08699E-01
 -1      2739 5.14260E-01
 -1      2740 4.47558E-01
 -1      2741 5.48383E-01
 -1      2742 3.90407E-01
 -1      2743 3.36676E-01
 -1      2744 4.19737E-01
 -1      2745 2.91400E-01
 -1      2746 2.49104E-01
 -1      2747 3.17309E-01
 -1      2748 2.13613E-01
 -1      2749 1.81730E-01
 -1      2750 2.36541E-01
 -1      2751 1.54238E-01
 -1      2752 1.30601E-01
 -1      2753 1.73557E-01
 -1      2754 1.09583E-01
 -1      2755 9.17951E-02
 -1      2756 1.25048E-01
 -1      2757 7.59570E-02
 -1      2758 6.28031E-02
 -1      2759 8.81917E-02
 -1      2760 5.10577E-02
 -1      2761 4.23592E-02
 -1      2762 6.06083E-02
 -1      2763 3.38060E-02
 -1      2764 2.82784E-02
 -1      2765 4.03096E-02
 -1      2766 2.21822E-02
 -1      2767 1.92870E-02
 -1      2768 2.56601E-02
 -1      2769 1.55419E-02
 -1      2770 1.41603E-02
 -1      2771 1.58188E-02
 -1      2772 1.25170E-02
 -1      2773 1.10717E-02
 -1      2774 1.04304E-02
 -1      2775 1.05481E-02
 -1      2776 9.13976E-03
 -1      2777 8.26355E-03
 -1      2778 8.48898E-03
 -1      2779 7.17791E-03
 -1      2780 7.08923E-03
 -1      2781 6.48580E-03
 -1      2782 5.66332E-03
 -1      2783 5.74635E-03
 -1      2784 5.20637E-03
 -1      2785 4.47592E-03
 -1      2786 4.59730E-03
 -1      2787 4.02311E-03
 -1      2788 3.35153E-03
 -1      2789 3.68755E-03
 -1      2790 4.63273E-01
 -1      2791 4.43589E-01
 -1      2792 7.68429E+00
 -1      2793 9.28669E+00
 -1      2794 4.07735E-01
 -1      2795 3.80405E-01
 -1      2796 4.86542E-01
 -1      2797 6.23190E-01
 -1      2798 5.70998E-01
 -1      2799 7.69862E-01
 -1      2800 7.38069E-01
 -1      2801 7.91124E-01
 -1      2802 9.62619E-01
 -1      2803 8.31459E-01
 -1      2804 9.67601E-01
 -1      2805 1.20056E+00
 -1      2806 1.05914E+00
 -1      2807 1.12572E+00
 -1      2808 1.43906E+00
 -1      2809 1.33191E+00
 -1      2810 1.35359E+00
 -1      2811 1.58789E+00
 -1      2812 1.48402E+00
 -1      2813 1.52991E+00
 -1      2814 1.85871E+00
 -1      2815 1.87401E+00
 -1      2816 1.86100E+00
 -1      2817 1.81710E+00
 -1      2818 1.81385E+00
 -1      2819 2.10226E+00
 -1      2820 1.82031E+00
 -1      2821 1.80693E+00
 -1      2822 2.04723E+00
 -1      2823 1.47240E+00
 -1      2824 1.58397E+00
 -1      2825 1.80072E+00
 -1      2826 1.26225E+00
 -1      2827 1.38083E+00
 -1      2828 1.47281E+00
 -1      2829 1.01472E+00
 -1      2830 1.17680E+00
 -1      2831 1.29579E+00
 -1      2832 8.61480E-01
 -1      2833 9.56760E-01
 -1      2834 1.15238E+00
 -1      2835 7.39638E-01
 -1      2836 7.71031E-01
 -1      2837 1.00397E+00
 -1      2838 6.58219E-01
 -1      2839 6.61201E-01
 -1      2840 8.35086E-01
 -1      2841 6.56051E-01
 -1      2842 6.43320E-01
 -1      2843 7.41749E-01
 -1      2844 6.08769E-01
 -1      2845 6.20512E-01
 -1      2846 6.91311E-01
 -1      2847 5.48628E-01
 -1      2848 5.66933E-01
 -1      2849 6.13936E-01
 -1      2850 4.89829E-01
 -1      2851 5.16981E-01
 -1      2852 5.40453E-01
 -1      2853 4.28516E-01
 -1      2854 4.57973E-01
 -1      2855 4.76949E-01
 -1      2856 3.59477E-01
 -1      2857 3.93289E-01
 -1      2858 4.09867E-01
 -1      2859 2.91127E-01
 -1      2860 3.24811E-01
 -1      2861 3.39974E-01
 -1      2862 2.28529E-01
 -1      2863 2.59376E-01
 -1      2864 2.73558E-01
 -1      2865 1.74220E-01
 -1      2866 2.00876E-01
 -1      2867 2.14154E-01
 -1      2868 1.29013E-01
 -1      2869 1.51048E-01
 -1      2870 1.63329E-01
 -1      2871 9.26409E-02
 -1      2872 1.10203E-01
 -1      2873 1.21348E-01
 -1      2874 6.42445E-02
 -1      2875 7.77928E-02
 -1      2876 8.76898E-02
 -1      2877 4.44775E-02
 -1      2878 5.28254E-02
 -1      2879 6.14226E-02
 -1      2880 3.01605E-02
 -1      2881 3.59197E-02
 -1      2882 4.14457E-02
 -1      2883 2.15848E-02
 -1      2884 2.39204E-02
 -1      2885 2.66478E-02
 -1      2886 1.62577E-02
 -1      2887 1.81213E-02
 -1      2888 1.69442E-02
 -1      2889 1.33589E-02
 -1      2890 1.51920E-02
 -1      2891 1.24149E-02
 -1      2892 1.09078E-02
 -1      2893 1.26254E-02
 -1      2894 1.06157E-02
 -1      2895 8.58961E-03
 -1      2896 1.00436E-02
 -1      2897 9.01804E-03
 -1      2898 6.89775E-03
 -1      2899 7.68995E-03
 -1      2900 7.25423E-03
 -1      2901 5.22515E-03
 -1      2902 6.09838E-03
 -1      2903 5.55521E-03
 -1      2904 3.87380E-03
 -1      2905 4.66383E-03
 -1      2906 4.19451E-03
 -1      2907 3.00862E-03
 -1      2908 3.63845E-03
 -1      2909 3.39784E-03
 -1      2910 2.85259E-03
 -1      2911 8.64010E+00
 -1      2912 1.01348E+01
 -1      2913 1.62577E-03
 -1      2914 1.65371E-03
 -1      2915 1.12836E+01
 -1      2916 8.91964E+00
 -1      2917 1.79745E-03
 -1      2918 1.82033E-03
 -1      2919 1.65952E-03
 -1      2920 1.62175E-03
 -1      2921 1.62175E-03
 -1      2922 1.71853E-03
 -1      2923 1.73054E-03
 -1      2924 1.82233E-03
 -1      2925 1.69060E-03
 -1      2926 1.79081E-03
 -1      2927 1.75648E-03
 -1      2928 1.71469E-03
 -1      2929 1.90185E-03
 -1      2930 1.90185E-03
 -1      2931 1.92268E-03
 -1      2932 1.91947E-03
 -1      2933 1.93971E-03
 -1      2934 2.07158E-03
 -1      2935 1.11183E+00
 -1      2936 2.69506E+01
 -1      2937 2.08965E+01
 -1      2938 2.19704E+01
 -1      2939 2.43955E+01
 -1      2940 1.76406E+01
 -1      2941 2.34885E+01
 -1      2942 5.32812E+00
 -1      2943 4.26478E+00
 -1      2944 2.03536E+01
 -1      2945 2.47289E+01
 -1      2946 6.84263E+00
 -1      2947 6.48328E+00
 -1      2948 1.21423E+01
 -1      2949 1.53682E+01
 -1      2950 9.45798E+00
 -1      2951 3.29268E-01
 -1      2952 3.35816E-01
 -1      2953 3.99552E-01
 -1      2954 5.28731E-01
 -1      2955 4.97930E-01
 -1      2956 5.57054E-01
 -1      2957 6.33978E-01
 -1      2958 7.43220E-01
 -1      2959 6.40054E-01
 -1      2960 6.84513E-01
 -1      2961 3.32096E-01
 -1      2962 3.97175E-01
 -1      2963 4.58857E-01
 -1      2964 3.44696E-01
 -1      2965 1.82420E+01
 -1      2966 1.33933E+01
 -1      2967 1.06657E+01
 -1      2968 6.76081E+00
 -1      2969 5.38511E-01
 -1      2970 5.02271E-01
 -1      2971 4.30419E-01
 -1      2972 5.03397E-01
 -1      2973 4.73747E-01
 -1      2974 5.17022E-01
 -1      2975 6.45515E+00
 -1      2976 6.87045E+00
 -1      2977 5.52882E+00
 -1      2978 2.24158E-03
 -1      2979 1.98194E-03
 -1      2980 2.85523E-03
 -1      2981 3.85775E+00
 -1      2982 4.21552E+00
 -1      2983 4.51931E+00
 -1      2984 5.15484E+00
 -1      2985 4.02538E+00
 -1      2986 8.01727E+00
 -1      2987 6.78590E+00
 -1      2988 2.52881E+01
 -1      2989 1.82893E+01
 -1      2990 5.88789E+00
 -1      2991 7.67837E+00
 -1      2992 1.13870E+01
 -1      2993 1.47461E+01
 -1      2994 8.45173E+00
 -1      2995 1.66590E+01
 -1      2996 2.10467E+01
 -1      2997 1.15610E+01
 -1      2998 8.21422E+00
 -1      2999 7.05204E+00
 -1      3000 6.10303E+00
 -1      3001 6.68707E+00
 -1      3002 6.35900E+00
 -1      3003 5.42318E+00
 -1      3004 6.36777E-01
 -1      3005 9.07949E-01
 -1      3006 5.84318E-01
 -1      3007 2.58688E-01
 -1      3008 2.85944E-01
 -1      3009 3.04963E-01
 -1      3010 1.54298E+01
 -1      3011 6.68474E+00
 -1      3012 4.37277E+00
 -1      3013 3.88712E+00
 -1      3014 3.14894E+00
 -1      3015 7.32964E-01
 -1      3016 3.66170E+00
 -1      3017 3.63789E+00
 -1      3018 3.26485E+00
 -1      3019 5.73922E+00
 -1      3020 4.79379E+00
 -1      3021 7.65368E+00
 -1      3022 5.04599E+00
 -1      3023 4.58779E+00
 -1      3024 2.73845E-03
 -1      3025 1.36846E+01
 -1      3026 2.47047E-03
 -1      3027 2.78037E-03
 -1      3028 2.12951E-03
 -1      3029 1.06427E+00
 -1      3030 1.06427E+00
 -1      3031 8.86284E-01
 -1      3032 8.60392E-01
 -1      3033 1.44921E+01
 -1      3034 1.98583E-03
 -1      3035 5.29354E+00
 -1      3036 1.55291E+01
 -1      3037 5.92591E+00
 -1      3038 4.97675E+00
 -1      3039 4.94362E+00
 -1      3040 4.96562E+00
 -1      3041 2.40242E-03
 -1      3042 2.14609E-03
 -1      3043 2.33606E-03
 -1      3044 2.89871E-03
 -1      3045 1.35507E+01
 -1      3046 1.42177E+01
 -1      3047 6.34550E+00
 -1      3048 1.88043E-03
 -1      3049 1.93510E-03
 -1      3050 2.20384E-03
 -1      3051 1.94934E-03
 -1      3052 3.52868E-01
 -1      3053 3.99876E-01
 -1      3054 3.90693E-01
 -1      3055 2.68918E-01
 -1      3056 1.17469E+01
 -1      3057 8.03517E+00
 -1      3058 1.12733E+01
 -1      3059 5.75883E-01
 -1      3060 4.57671E+00
 -1      3061 1.24649E+01
 -1      3062 8.73648E-01
 -1      3063 5.50999E-01
 -1      3064 5.29185E-01
 -1      3065 5.74514E+00
 -1      3066 7.33591E+00
 -1      3067 6.43354E+00
 -1      3068 8.39712E-01
 -1      3069 9.49702E-01
 -1      3070 1.08219E+00
 -1      3071 1.23549E+00
 -1      3072 1.06900E+00
 -1      3073 1.43558E+00
 -1      3074 1.62880E+00
 -1      3075 1.40158E+00
 -1      3076 1.94936E+00
 -1      3077 2.17554E+00
 -1      3078 1.92222E+00
 -1      3079 2.75305E+00
 -1      3080 3.00439E+00
 -1      3081 2.82029E+00
 -1      3082 3.93997E+00
 -1      3083 4.35934E+00
 -1      3084 4.33337E+00
 -1      3085 5.14002E+00
 -1      3086 5.98458E+00
 -1      3087 6.59087E+00
 -1      3088 6.04963E+00
 -1      3089 1.13433E+01
 -1      3090 1.19025E+01
 -1      3091 4.69380E+00
 -1      3092 7.03401E-01
 -1      3093 6.57330E-01
 -1      3094 4.82728E+00
 -1      3095 4.63926E+00
 -1      3096 4.72551E+00
 -1      3097 4.79995E+00
 -1      3098 6.20201E+00
 -1      3099 3.85990E+00
 -1      3100 3.40771E+00
 -1      3101 2.62217E+00
 -1      3102 2.41063E+00
 -1      3103 3.62261E+00
 -1      3104 1.99827E+00
 -1      3105 1.81188E+00
 -1      3106 2.42471E+00
 -1      3107 1.56567E+00
 -1      3108 1.40324E+00
 -1      3109 1.76613E+00
 -1      3110 1.23835E+00
 -1      3111 1.10462E+00
 -1      3112 1.35502E+00
 -1      3113 9.80169E-01
 -1      3114 8.69377E-01
 -1      3115 1.06568E+00
 -1      3116 7.63548E-01
 -1      3117 6.74728E-01
 -1      3118 8.35406E-01
 -1      3119 5.88009E-01
 -1      3120 5.16513E-01
 -1      3121 6.42858E-01
 -1      3122 4.47162E-01
 -1      3123 3.90010E-01
 -1      3124 4.86787E-01
 -1      3125 3.35524E-01
 -1      3126 2.90247E-01
 -1      3127 3.62949E-01
 -1      3128 2.48104E-01
 -1      3129 2.12613E-01
 -1      3130 2.66320E-01
 -1      3131 1.80466E-01
 -1      3132 1.52974E-01
 -1      3133 1.92029E-01
 -1      3134 1.29487E-01
 -1      3135 1.08469E-01
 -1      3136 1.36395E-01
 -1      3137 9.14195E-02
 -1      3138 7.55815E-02
 -1      3139 9.58591E-02
 -1      3140 6.31198E-02
 -1      3141 5.13744E-02
 -1      3142 6.63476E-02
 -1      3143 4.29359E-02
 -1      3144 3.43827E-02
 -1      3145 4.54475E-02
 -1      3146 2.81766E-02
 -1      3147 2.20804E-02
 -1      3148 3.08030E-02
 -1      3149 1.76115E-02
 -1      3150 1.38664E-02
 -1      3151 2.01280E-02
 -1      3152 1.07306E-02
 -1      3153 9.08731E-03
 -1      3154 1.25233E-02
 -1      3155 7.20186E-03
 -1      3156 6.67831E-03
 -1      3157 7.50207E-03
 -1      3158 6.53493E-03
 -1      3159 5.88415E-03
 -1      3160 5.47323E-03
 -1      3161 5.67018E-03
 -1      3162 4.97807E-03
 -1      3163 5.11587E-03
 -1      3164 4.59730E-03
 -1      3165 4.14036E-03
 -1      3166 4.52113E-03
 -1      3167 3.68755E-03
 -1      3168 3.23475E-03
 -1      3169 2.89871E-03
 -1      3170 3.68755E-03
 -1      3171 1.19858E+00
 -1      3172 1.13698E+00
 -1      3173 9.76898E-01
 -1      3174 8.62019E-01
 -1      3175 1.20787E+00
 -1      3176 1.48494E+00
 -1      3177 1.35359E+00
 -1      3178 1.90438E+00
 -1      3179 1.85942E+00
 -1      3180 1.85942E+00
 -1      3181 2.50499E+00
 -1      3182 2.21886E+00
 -1      3183 2.54837E+00
 -1      3184 3.21600E+00
 -1      3185 3.26087E+00
 -1      3186 3.61873E+00
 -1      3187 2.09478E+00
 -1      3188 2.10495E+00
 -1      3189 3.26356E+00
 -1      3190 1.84317E+00
 -1      3191 2.07950E+00
 -1      3192 2.13723E+00
 -1      3193 1.50793E+00
 -1      3194 1.59950E+00
 -1      3195 1.87828E+00
 -1      3196 1.54268E+00
 -1      3197 1.62813E+00
 -1      3198 1.75482E+00
 -1      3199 1.44654E+00
 -1      3200 1.50451E+00
 -1      3201 1.83684E+00
 -1      3202 1.14189E+00
 -1      3203 1.23234E+00
 -1      3204 1.58446E+00
 -1      3205 9.39823E-01
 -1      3206 1.01826E+00
 -1      3207 1.24663E+00
 -1      3208 8.59187E-01
 -1      3209 8.74086E-01
 -1      3210 1.05726E+00
 -1      3211 7.39714E-01
 -1      3212 7.75252E-01
 -1      3213 9.07590E-01
 -1      3214 6.23184E-01
 -1      3215 6.65021E-01
 -1      3216 7.48962E-01
 -1      3217 5.46329E-01
 -1      3218 5.77976E-01
 -1      3219 6.29061E-01
 -1      3220 4.69170E-01
 -1      3221 5.01026E-01
 -1      3222 5.38550E-01
 -1      3223 3.89946E-01
 -1      3224 4.25173E-01
 -1      3225 4.49249E-01
 -1      3226 3.14613E-01
 -1      3227 3.49279E-01
 -1      3228 3.64585E-01
 -1      3229 2.48061E-01
 -1      3230 2.79812E-01
 -1      3231 2.89117E-01
 -1      3232 1.91533E-01
 -1      3233 2.19186E-01
 -1      3234 2.25440E-01
 -1      3235 1.44643E-01
 -1      3236 1.67815E-01
 -1      3237 1.72847E-01
 -1      3238 1.06743E-01
 -1      3239 1.25553E-01
 -1      3240 1.30039E-01
 -1      3241 7.68218E-02
 -1      3242 9.16699E-02
 -1      3243 9.58755E-02
 -1      3244 5.37235E-02
 -1      3245 6.51426E-02
 -1      3246 6.91227E-02
 -1      3247 3.62894E-02
 -1      3248 4.48472E-02
 -1      3249 4.85672E-02
 -1      3250 2.34413E-02
 -1      3251 2.96814E-02
 -1      3252 3.30829E-02
 -1      3253 1.51714E-02
 -1      3254 1.86350E-02
 -1      3255 2.16686E-02
 -1      3256 1.07047E-02
 -1      3257 1.17705E-02
 -1      3258 1.34613E-02
 -1      3259 8.07500E-03
 -1      3260 8.80849E-03
 -1      3261 8.16406E-03
 -1      3262 7.04739E-03
 -1      3263 7.91154E-03
 -1      3264 6.10434E-03
 -1      3265 5.86064E-03
 -1      3266 6.76029E-03
 -1      3267 5.65379E-03
 -1      3268 4.61441E-03
 -1      3269 5.41378E-03
 -1      3270 4.91984E-03
 -1      3271 3.52395E-03
 -1      3272 4.08527E-03
 -1      3273 3.94384E-03
 -1      3274 3.01342E-03
 -1      3275 3.24877E-03
 -1      3276 3.13953E-03
 -1      3277 2.63130E-03
 -1      3278 1.71257E-03
 -1      3279 1.61561E-03
 -1      3280 5.88138E+00
 -1      3281 1.57414E-03
 -1      3282 1.57816E-03
 -1      3283 1.57201E-03
 -1      3284 1.37379E+01
 -1      3285 7.29474E+00
 -1      3286 9.30228E+00
 -1      3287 5.14506E+00
 -1      3288 2.10049E-03
 -1      3289 2.06263E-03
 -1      3290 1.05096E+01
 -1      3291 1.27819E+01
 -1      3292 8.34634E+00
 -1      3293 1.23666E+01
 -1      3294 1.08485E+01
 -1      3295 1.92268E-03
 -1      3296 1.81164E-03
 -1      3297 1.71257E-03
 -1      3298 1.95159E-03
 -1      3299 4.37461E+00
 -1      3300 4.96562E+00
 -1      3301 1.60772E+00
 -1      3302 1.51120E+00
 -1      3303 1.68058E+00
 -1      3304 1.73907E+00
 -1      3305 5.55993E-01
 -1      3306 5.20139E-01
 -1      3307 1.43622E+01
 -1      3308 1.17078E+01
 -1      3309 5.40564E+00
 -1      3310 6.17134E+00
 -1      3311 6.01565E+00
 -1      3312 4.67797E-01
 -1      3313 4.16661E-01
 -1      3314 5.37248E-01
 -1      3315 5.89713E+00
 -1      3316 4.73495E+00
 -1      3317 4.92286E-01
 -1      3318 4.91431E-01
 -1      3319 4.67402E-01
 -1      3320 3.74405E-01
 -1      3321 8.69118E+00
 -1      3322 1.20364E+01
 -1      3323 1.13433E+01
 -1      3324 1.22709E+01
 -1      3325 1.23788E+01
 -1      3326 6.97111E-01
 -1      3327 7.49349E-01
 -1      3328 8.46144E-01
 -1      3329 8.73648E-01
 -1      3330 7.30584E-01
 -1      3331 7.17328E-01
 -1      3332 1.07942E+01
 -1      3333 8.68458E+00
 -1      3334 1.08237E+01
 -1      3335 1.33788E+01
 -1      3336 9.65679E+00
 -1      3337 9.43687E+00
 -1      3338 1.13497E+01
 -1      3339 7.57601E+00
 -1      3340 4.47854E+00
 -1      3341 3.53035E+00
 -1      3342 3.84233E-01
 -1      3343 3.39692E-01
 -1      3344 3.42301E+00
 -1      3345 4.82274E+00
 -1      3346 2.86942E-01
 -1      3347 2.49267E-01
 -1      3348 3.30271E-01
 -1      3349 2.88201E+00
 -1      3350 3.61873E+00
 -1      3351 9.69505E+00
 -1      3352 4.12198E+00
 -1      3353 2.92751E+00
 -1      3354 3.53148E+00
 -1      3355 3.16667E+00
 -1      3356 7.46443E+00
 -1      3357 6.35286E+00
 -1      3358 6.16695E+00
 -1      3359 4.21482E+00
 -1      3360 1.00635E+01
 -1      3361 4.71721E-01
 -1      3362 4.26746E-01
 -1      3363 4.25535E-01
 -1      3364 4.15899E+00
 -1      3365 4.75000E+00
 -1      3366 4.72218E+00
 -1      3367 3.04793E+00
 -1      3368 7.03401E-01
 -1      3369 3.68859E+00
 -1      3370 5.34820E+00
 -1      3371 5.10068E-01
 -1      3372 5.12284E-01
 -1      3373 4.84280E-01
 -1      3374 6.61786E-01
 -1      3375 6.27129E-01
 -1      3376 6.60725E-01
 -1      3377 9.62247E-01
 -1      3378 7.76473E-01
 -1      3379 7.34206E-01
 -1      3380 2.66831E+00
 -1      3381 2.63894E+00
 -1      3382 2.94238E+00
 -1      3383 1.75542E-03
 -1      3384 1.82233E-03
 -1      3385 3.60007E-01
 -1      3386 4.33878E-01
 -1      3387 1.62060E-03
 -1      3388 1.68542E-03
 -1      3389 1.68542E-03
 -1      3390 1.57299E-03
 -1      3391 9.13833E+00
 -1      3392 4.16481E+00
 -1      3393 9.32652E+00
 -1      3394 1.08237E+01
 -1      3395 8.67339E+00
 -1      3396 8.69820E+00
 -1      3397 1.82233E-03
 -1      3398 1.88925E-03
 -1      3399 1.94934E-03
 -1      3400 9.00837E+00
 -1      3401 9.72664E+00
 -1      3402 4.30935E+00
 -1      3403 4.41165E-01
 -1      3404 4.37445E-01
 -1      3405 4.70874E-01
 -1      3406 5.09410E-01
 -1      3407 7.15999E-01
 -1      3408 2.55730E-03
 -1      3409 2.33068E-03
 -1      3410 2.32173E-03
 -1      3411 2.89334E-03
 -1      3412 4.77888E-01
 -1      3413 5.97642E-01
 -1      3414 6.10898E-01
 -1      3415 4.47202E-01
 -1      3416 2.56753E+00
 -1      3417 7.99320E+00
 -1      3418 7.99320E+00
 -1      3419 1.40158E+00
 -1      3420 1.60167E+00
 -1      3421 1.89925E+00
 -1      3422 2.21981E+00
 -1      3423 1.89925E+00
 -1      3424 2.94807E+00
 -1      3425 3.52558E+00
 -1      3426 2.92510E+00
 -1      3427 3.89209E+00
 -1      3428 4.82767E+00
 -1      3429 4.01988E+00
 -1      3430 6.79532E+00
 -1      3431 2.15250E+00
 -1      3432 3.04793E+00
 -1      3433 3.26938E+00
 -1      3434 2.13723E+00
 -1      3435 3.40247E-01
 -1      3436 3.83432E-01
 -1      3437 2.92342E-01
 -1      3438 2.71476E+00
 -1      3439 2.30240E+00
 -1      3440 2.01235E+00
 -1      3441 1.76613E+00
 -1      3442 2.30240E+00
 -1      3443 1.51992E+00
 -1      3444 1.35502E+00
 -1      3445 1.76613E+00
 -1      3446 1.17026E+00
 -1      3447 1.04581E+00
 -1      3448 1.33515E+00
 -1      3449 9.07005E-01
 -1      3450 8.01176E-01
 -1      3451 1.01158E+00
 -1      3452 6.95841E-01
 -1      3453 6.09122E-01
 -1      3454 7.67440E-01
 -1      3455 5.28364E-01
 -1      3456 4.59013E-01
 -1      3457 5.81348E-01
 -1      3458 3.96625E-01
 -1      3459 3.42138E-01
 -1      3460 4.38202E-01
 -1      3461 2.93973E-01
 -1      3462 2.51830E-01
 -1      3463 3.27648E-01
 -1      3464 2.14748E-01
 -1      3465 1.82600E-01
 -1      3466 2.42401E-01
 -1      3467 1.54216E-01
 -1      3468 1.30730E-01
 -1      3469 1.76934E-01
 -1      3470 1.09189E-01
 -1      3471 9.21389E-02
 -1      3472 1.27009E-01
 -1      3473 7.59881E-02
 -1      3474 6.35264E-02
 -1      3475 8.93177E-02
 -1      3476 5.21960E-02
 -1      3477 4.37576E-02
 -1      3478 6.18365E-02
 -1      3479 3.54450E-02
 -1      3480 2.92390E-02
 -1      3481 4.21936E-02
 -1      3482 2.32067E-02
 -1      3483 1.87378E-02
 -1      3484 2.78488E-02
 -1      3485 1.44793E-02
 -1      3486 1.13435E-02
 -1      3487 1.75580E-02
 -1      3488 8.44065E-03
 -1      3489 6.55520E-03
 -1      3490 1.03967E-02
 -1      3491 4.72733E-03
 -1      3492 4.58395E-03
 -1      3493 5.66592E-03
 -1      3494 4.18506E-03
 -1      3495 3.97109E-03
 -1      3496 3.43916E-03
 -1      3497 4.04449E-03
 -1      3498 3.66372E-03
 -1      3499 3.11368E-03
 -1      3500 1.73708E+00
 -1      3501 1.57700E+00
 -1      3502 6.80573E-01
 -1      3503 6.53390E-01
 -1      3504 5.60887E-01
 -1      3505 2.01667E+00
 -1      3506 1.89646E+00
 -1      3507 2.65506E+00
 -1      3508 2.69324E+00
 -1      3509 2.24829E+00
 -1      3510 2.46249E+00
 -1      3511 3.31889E+00
 -1      3512 1.64996E+00
 -1      3513 1.77359E+00
 -1      3514 2.65162E+00
 -1      3515 1.24510E+00
 -1      3516 1.31084E+00
 -1      3517 1.83780E+00
 -1      3518 9.51313E-01
 -1      3519 1.03525E+00
 -1      3520 1.28882E+00
 -1      3521 7.79883E-01
 -1      3522 8.54576E-01
 -1      3523 9.82234E-01
 -1      3524 6.46195E-01
 -1      3525 6.91403E-01
 -1      3526 7.97017E-01
 -1      3527 5.27937E-01
 -1      3528 5.73240E-01
 -1      3529 6.35582E-01
 -1      3530 4.24328E-01
 -1      3531 4.68325E-01
 -1      3532 5.03015E-01
 -1      3533 3.40713E-01
 -1      3534 3.81380E-01
 -1      3535 4.00455E-01
 -1      3536 2.72789E-01
 -1      3537 3.07591E-01
 -1      3538 3.24385E-01
 -1      3539 2.13909E-01
 -1      3540 2.42784E-01
 -1      3541 2.61259E-01
 -1      3542 1.63914E-01
 -1      3543 1.87631E-01
 -1      3544 2.04976E-01
 -1      3545 1.22728E-01
 -1      3546 1.41818E-01
 -1      3547 1.56602E-01
 -1      3548 8.96605E-02
 -1      3549 1.04734E-01
 -1      3550 1.16513E-01
 -1      3551 6.37411E-02
 -1      3552 7.54203E-02
 -1      3553 8.42789E-02
 -1      3554 4.43653E-02
 -1      3555 5.32416E-02
 -1      3556 5.95392E-02
 -1      3557 2.99023E-02
 -1      3558 3.65102E-02
 -1      3559 4.11846E-02
 -1      3560 1.92604E-02
 -1      3561 2.40668E-02
 -1      3562 2.74941E-02
 -1      3563 1.16529E-02
 -1      3564 1.50539E-02
 -1      3565 1.74521E-02
 -1      3566 6.85839E-03
 -1      3567 8.75465E-03
 -1      3568 1.03472E-02
 -1      3569 5.03732E-03
 -1      3570 5.20077E-03
 -1      3571 5.79137E-03
 -1      3572 4.36820E-03
 -1      3573 4.65530E-03
 -1      3574 3.75173E-03
 -1      3575 3.96977E-03
 -1      3576 4.41663E-03
 -1      3577 3.41813E-03
 -1      3578 3.26524E-03
 -1      3579 3.79437E-03
 -1      3580 3.29116E-03
 -1      3581 2.56753E+00
 -1      3582 2.23389E+00
 -1      3583 1.85942E+00
 -1      3584 2.83304E+00
 -1      3585 1.52139E-03
 -1      3586 1.47992E-03
 -1      3587 6.22395E+00
 -1      3588 7.43124E+00
 -1      3589 5.10055E+00
 -1      3590 6.22395E+00
 -1      3591 6.18125E-01
 -1      3592 5.65784E-01
 -1      3593 7.99320E+00
 -1      3594 8.36166E+00
 -1      3595 8.63612E+00
 -1      3596 7.53068E+00
 -1      3597 6.93171E-01
 -1      3598 4.18991E+00
 -1      3599 3.40438E+00
 -1      3600 3.28207E+00
 -1      3601 8.55990E+00
 -1      3602 7.64636E+00
 -1      3603 7.55068E+00
 -1      3604 1.05511E+00
 -1      3605 1.18760E+00
 -1      3606 1.38769E+00
 -1      3607 8.09634E-01
 -1      3608 8.99997E-01
 -1      3609 1.01860E+00
 -1      3610 2.19418E-03
 -1      3611 2.38858E-03
 -1      3612 2.62163E-03
 -1      3613 2.13408E-03
 -1      3614 3.45359E+00
 -1      3615 3.19718E+00
 -1      3616 3.61895E+00
 -1      3617 4.20185E+00
 -1      3618 7.84898E+00
 -1      3619 7.43367E+00
 -1      3620 7.53505E+00
 -1      3621 8.51845E+00
 -1      3622 6.43817E+00
 -1      3623 6.38394E+00
 -1      3624 5.44388E+00
 -1      3625 6.35405E+00
 -1      3626 7.62766E+00
 -1      3627 5.92582E+00
 -1      3628 2.41461E+00
 -1      3629 5.66246E+00
 -1      3630 2.41751E+00
 -1      3631 4.80608E-01
 -1      3632 2.39933E+00
 -1      3633 3.20596E-01
 -1      3634 1.47016E-03
 -1      3635 1.51260E-03
 -1      3636 1.41953E-03
 -1      3637 6.94099E+00
 -1      3638 5.30442E-01
 -1      3639 5.13540E-01
 -1      3640 2.15567E+00
 -1      3641 1.94427E+00
 -1      3642 1.41506E+00
 -1      3643 1.32952E+00
 -1      3644 1.78832E+00
 -1      3645 2.15745E+00
 -1      3646 2.10095E+00
 -1      3647 3.58516E-03
 -1      3648 3.13236E-03
 -1      3649 2.79095E-03
 -1      3650 3.10852E-03
 -1      3651 8.04281E-01
 -1      3652 6.29136E+00
 -1      3653 1.76030E-03
 -1      3654 1.66821E-03
 -1      3655 1.85938E-03
 -1      3656 4.97865E-01
 -1      3657 5.17626E-01
 -1      3658 2.11355E+00
 -1      3659 2.59804E+00
 -1      3660 2.89681E-03
 -1      3661 5.30884E+00
 -1      3662 5.72659E+00
 -1      3663 1.63360E-03
 -1      3664 1.70359E-03
 -1      3665 1.53077E-03
 -1      3666 4.87929E-01
 -1      3667 4.45416E-01
 -1      3668 6.81708E-01
 -1      3669 7.10244E-01
 -1      3670 7.52844E-01
 -1      3671 5.19908E-01
 -1      3672 5.63918E-01
 -1      3673 6.33593E-01
 -1      3674 6.34341E-01
 -1      3675 4.78164E-01
 -1      3676 4.15770E-01
 -1      3677 3.63019E-01
 -1      3678 6.81127E+00
 -1      3679 6.78646E+00
 -1      3680 5.52193E+00
 -1      3681 1.87199E-03
 -1      3682 1.93890E-03
 -1      3683 1.82016E-03
 -1      3684 4.97333E+00
 -1      3685 7.16818E+00
 -1      3686 6.02984E+00
 -1      3687 7.16818E+00
 -1      3688 5.09410E-01
 -1      3689 5.33914E-01
 -1      3690 5.90288E-01
 -1      3691 2.74734E-03
 -1      3692 5.42403E+00
 -1      3693 7.49433E+00
 -1      3694 5.69849E+00
 -1      3695 7.47025E-01
 -1      3696 5.22565E+00
 -1      3697 4.41015E+00
 -1      3698 2.52309E-03
 -1      3699 2.29289E-03
 -1      3700 2.76211E-03
 -1      3701 2.15295E-03
 -1      3702 3.65623E-01
 -1      3703 4.08699E-01
 -1      3704 5.42893E-01
 -1      3705 4.51122E-01
 -1      3706 2.92510E+00
 -1      3707 3.65336E+00
 -1      3708 4.60682E+00
 -1      3709 2.50161E+00
 -1      3710 2.21156E+00
 -1      3711 5.30442E-01
 -1      3712 5.33914E-01
 -1      3713 1.92367E+00
 -1      3714 1.67745E+00
 -1      3715 2.12288E+00
 -1      3716 1.40256E+00
 -1      3717 1.21780E+00
 -1      3718 1.56010E+00
 -1      3719 1.04595E+00
 -1      3720 9.07137E-01
 -1      3721 1.11336E+00
 -1      3722 7.88271E-01
 -1      3723 6.82936E-01
 -1      3724 8.22633E-01
 -1      3725 5.97158E-01
 -1      3726 5.16400E-01
 -1      3727 6.17989E-01
 -1      3728 4.51905E-01
 -1      3729 3.89517E-01
 -1      3730 4.67715E-01
 -1      3731 3.40243E-01
 -1      3732 2.92077E-01
 -1      3733 3.53945E-01
 -1      3734 2.53990E-01
 -1      3735 2.16908E-01
 -1      3736 2.66584E-01
 -1      3737 1.87392E-01
 -1      3738 1.59008E-01
 -1      3739 1.98982E-01
 -1      3740 1.36170E-01
 -1      3741 1.14630E-01
 -1      3742 1.46628E-01
 -1      3743 9.71449E-02
 -1      3744 8.09940E-02
 -1      3745 1.06306E-01
 -1      3746 6.77556E-02
 -1      3747 5.64252E-02
 -1      3748 7.55828E-02
 -1      3749 4.65724E-02
 -1      3750 3.82599E-02
 -1      3751 5.24915E-02
 -1      3752 3.14683E-02
 -1      3753 2.54360E-02
 -1      3754 3.58471E-02
 -1      3755 2.04466E-02
 -1      3756 1.61881E-02
 -1      3757 2.40661E-02
 -1      3758 1.25988E-02
 -1      3759 9.69594E-03
 -1      3760 1.54874E-02
 -1      3761 7.17728E-03
 -1      3762 5.34942E-03
 -1      3763 9.37944E-03
 -1      3764 3.69070E-03
 -1      3765 3.29181E-03
 -1      3766 5.20206E-03
 -1      3767 2.58715E-03
 -1      3768 2.66055E-03
 -1      3769 2.83868E-03
 -1      3770 9.66667E-01
 -1      3771 8.94247E-01
 -1      3772 1.41948E+00
 -1      3773 5.07582E-01
 -1      3774 4.95024E-01
 -1      3775 5.14904E-01
 -1      3776 5.27956E-01
 -1      3777 2.83489E+00
 -1      3778 2.47769E+00
 -1      3779 2.58544E+00
 -1      3780 4.21759E+00
 -1      3781 1.83877E+00
 -1      3782 2.04862E+00
 -1      3783 1.08285E+00
 -1      3784 1.17959E+00
 -1      3785 1.93939E+00
 -1      3786 7.94019E-01
 -1      3787 8.82499E-01
 -1      3788 1.07985E+00
 -1      3789 6.22167E-01
 -1      3790 6.95121E-01
 -1      3791 7.80603E-01
 -1      3792 4.90193E-01
 -1      3793 5.49806E-01
 -1      3794 6.09345E-01
 -1      3795 4.00455E-01
 -1      3796 4.43403E-01
 -1      3797 4.90193E-01
 -1      3798 3.24385E-01
 -1      3799 3.57507E-01
 -1      3800 4.00455E-01
 -1      3801 2.56881E-01
 -1      3802 2.86886E-01
 -1      3803 3.20008E-01
 -1      3804 1.98839E-01
 -1      3805 2.25117E-01
 -1      3806 2.50745E-01
 -1      3807 1.50519E-01
 -1      3808 1.72614E-01
 -1      3809 1.92756E-01
 -1      3810 1.11289E-01
 -1      3811 1.29283E-01
 -1      3812 1.45295E-01
 -1      3813 8.02189E-02
 -1      3814 9.44591E-02
 -1      3815 1.07229E-01
 -1      3816 5.66405E-02
 -1      3817 6.71400E-02
 -1      3818 7.73202E-02
 -1      3819 3.88183E-02
 -1      3820 4.66734E-02
 -1      3821 5.42742E-02
 -1      3822 2.59469E-02
 -1      3823 3.17824E-02
 -1      3824 3.72711E-02
 -1      3825 1.65921E-02
 -1      3826 2.07987E-02
 -1      3827 2.50870E-02
 -1      3828 9.96158E-03
 -1      3829 1.28598E-02
 -1      3830 1.62065E-02
 -1      3831 5.66944E-03
 -1      3832 7.32706E-03
 -1      3833 9.83965E-03
 -1      3834 3.51210E-03
 -1      3835 3.89413E-03
 -1      3836 5.42982E-03
 -1      3837 2.76726E-03
 -1      3838 2.71884E-03
 -1      3839 2.86123E-03
 -1      3840 3.75633E+00
 -1      3841 3.26491E+00
 -1      3842 4.02615E+00
 -1      3843 4.68452E+00
 -1      3844 5.10227E+00
 -1      3845 5.21312E+00
 -1      3846 5.21312E+00
 -1      3847 2.20068E-03
 -1      3848 2.50250E-03
 -1      3849 7.50056E-01
 -1      3850 2.89318E+00
 -1      3851 3.36788E+00
 -1      3852 4.45914E+00
 -1      3853 4.45914E+00
 -1      3854 5.18420E+00
 -1      3855 9.61585E-01
 -1      3856 1.11670E+00
 -1      3857 1.31172E+00
 -1      3858 1.52570E+00
 -1      3859 1.25471E+00
 -1      3860 4.62674E+00
 -1      3861 4.99228E+00
 -1      3862 3.91404E+00
 -1      3863 1.85975E+00
 -1      3864 2.15733E+00
 -1      3865 2.88560E+00
 -1      3866 1.78378E+00
 -1      3867 5.24472E+00
 -1      3868 4.06690E+00
 -1      3869 3.60840E+00
 -1      3870 2.33980E+00
 -1      3871 2.67892E+00
 -1      3872 3.39518E+00
 -1      3873 2.88975E+00
 -1      3874 4.60682E+00
 -1      3875 5.33914E-01
 -1      3876 2.55216E-03
 -1      3877 2.88817E+00
 -1      3878 5.18420E+00
 -1      3879 3.97168E+00
 -1      3880 3.28207E+00
 -1      3881 4.81732E+00
 -1      3882 8.48153E-01
 -1      3883 3.19122E+00
 -1      3884 6.89153E-01
 -1      3885 6.59507E-01
 -1      3886 1.71719E-03
 -1      3887 1.70743E-03
 -1      3888 5.94713E-01
 -1      3889 5.87619E-01
 -1      3890 7.68961E-01
 -1      3891 3.39518E+00
 -1      3892 4.24489E+00
 -1      3893 3.62057E+00
 -1      3894 3.18093E+00
 -1      3895 2.84066E-03
 -1      3896 5.32730E-01
 -1      3897 5.26772E-01
 -1      3898 5.99486E-01
 -1      3899 5.32730E-01
 -1      3900 2.83693E+00
 -1      3901 4.10292E+00
 -1      3902 3.70338E+00
 -1      3903 4.74544E+00
 -1      3904 4.12304E+00
 -1      3905 2.69051E-03
 -1      3906 2.86591E-03
 -1      3907 1.91264E-03
 -1      3908 1.67373E-03
 -1      3909 1.96163E-03
 -1      3910 2.31413E-03
 -1      3911 3.18362E+00
 -1      3912 2.45290E+00
 -1      3913 2.02057E-03
 -1      3914 2.29096E+00
 -1      3915 3.22437E+00
 -1      3916 5.71901E-01
 -1      3917 6.61067E-01
 -1      3918 9.15230E-01
 -1      3919 1.70743E-03
 -1      3920 1.82843E-03
 -1      3921 2.00509E-03
 -1      3922 4.13489E+00
 -1      3923 5.21312E+00
 -1      3924 4.34579E+00
 -1      3925 8.80962E-01
 -1      3926 8.17379E-01
 -1      3927 8.45871E-01
 -1      3928 2.16662E-03
 -1      3929 1.56081E-03
 -1      3930 1.72921E-03
 -1      3931 1.73747E-03
 -1      3932 6.56855E+00
 -1      3933 5.06334E+00
 -1      3934 4.68162E+00
 -1      3935 5.89103E-01
 -1      3936 7.59821E-01
 -1      3937 3.67328E+00
 -1      3938 8.74879E-01
 -1      3939 1.53960E+00
 -1      3940 1.26471E+00
 -1      3941 1.08031E+00
 -1      3942 9.08452E-01
 -1      3943 1.05981E+00
 -1      3944 7.95523E-01
 -1      3945 6.76658E-01
 -1      3946 7.62478E-01
 -1      3947 5.94615E-01
 -1      3948 5.08837E-01
 -1      3949 5.67506E-01
 -1      3950 4.52023E-01
 -1      3951 3.87527E-01
 -1      3952 4.28649E-01
 -1      3953 3.45480E-01
 -1      3954 2.96205E-01
 -1      3955 3.29787E-01
 -1      3956 2.62682E-01
 -1      3957 2.24595E-01
 -1      3958 2.54216E-01
 -1      3959 1.98122E-01
 -1      3960 1.68607E-01
 -1      3961 1.94220E-01
 -1      3962 1.47486E-01
 -1      3963 1.24648E-01
 -1      3964 1.46626E-01
 -1      3965 1.08136E-01
 -1      3966 9.06512E-02
 -1      3967 1.08993E-01
 -1      3968 7.78343E-02
 -1      3969 6.45959E-02
 -1      3970 7.96643E-02
 -1      3971 5.47730E-02
 -1      3972 4.49202E-02
 -1      3973 5.70245E-02
 -1      3974 3.75099E-02
 -1      3975 3.07183E-02
 -1      3976 3.97914E-02
 -1      3977 2.55458E-02
 -1      3978 2.05564E-02
 -1      3979 2.72086E-02
 -1      3980 1.68390E-02
 -1      3981 1.32497E-02
 -1      3982 1.83187E-02
 -1      3983 1.06103E-02
 -1      3984 8.09164E-03
 -1      3985 1.19619E-02
 -1      3986 6.21715E-03
 -1      3987 4.55843E-03
 -1      3988 7.44801E-03
 -1      3989 3.22944E-03
 -1      3990 2.52477E-03
 -1      3991 4.24453E-03
 -1      3992 2.17224E+00
 -1      3993 1.80939E+00
 -1      3994 2.68087E+00
 -1      3995 8.27762E-01
 -1      3996 7.80408E-01
 -1      3997 8.79305E-01
 -1      3998 1.02462E+00
 -1      3999 1.22497E+00
 -1      4000 1.02442E+00
 -1      4001 2.03341E+00
 -1      4002 2.69259E+00
 -1      4003 1.97817E+00
 -1      4004 6.09345E-01
 -1      4005 6.81706E-01
 -1      4006 7.80408E-01
 -1      4007 4.89924E-01
 -1      4008 5.36714E-01
 -1      4009 6.09076E-01
 -1      4010 3.87494E-01
 -1      4011 4.30442E-01
 -1      4012 4.76963E-01
 -1      4013 3.03148E-01
 -1      4014 3.40647E-01
 -1      4015 3.70633E-01
 -1      4016 2.33602E-01
 -1      4017 2.65366E-01
 -1      4018 2.86005E-01
 -1      4019 1.77262E-01
 -1      4020 2.03488E-01
 -1      4021 2.18109E-01
 -1      4022 1.32166E-01
 -1      4023 1.53402E-01
 -1      4024 1.64134E-01
 -1      4025 9.67327E-02
 -1      4026 1.13563E-01
 -1      4027 1.21670E-01
 -1      4028 6.92936E-02
 -1      4029 8.23725E-02
 -1      4030 8.87060E-02
 -1      4031 4.83738E-02
 -1      4032 5.83409E-02
 -1      4033 6.33932E-02
 -1      4034 3.31047E-02
 -1      4035 4.01406E-02
 -1      4036 4.42073E-02
 -1      4037 2.20888E-02
 -1      4038 2.72370E-02
 -1      4039 3.01065E-02
 -1      4040 1.42502E-02
 -1      4041 1.79826E-02
 -1      4042 2.01326E-02
 -1      4043 8.64804E-03
 -1      4044 1.12826E-02
 -1      4045 1.30586E-02
 -1      4046 4.83408E-03
 -1      4047 6.60940E-03
 -1      4048 8.05231E-03
 -1      4049 2.77262E-03
 -1      4050 3.56589E-03
 -1      4051 4.74547E-03
 -1      4052 4.39629E+00
 -1      4053 3.55064E+00
 -1      4054 2.77019E+00
 -1      4055 3.79666E+00
 -1      4056 2.12691E-03
 -1      4057 6.62111E-01
 -1      4058 7.80286E-01
 -1      4059 6.59507E-01
 -1      4060 1.23523E+00
 -1      4061 1.09382E+00
 -1      4062 1.20096E+00
 -1      4063 2.50448E-03
 -1      4064 2.50448E-03
 -1      4065 2.02609E-03
 -1      4066 8.70495E-01
 -1      4067 1.86756E-03
 -1      4068 3.67465E+00
 -1      4069 3.24987E+00
 -1      4070 3.13115E+00
 -1      4071 4.12842E+00
 -1      4072 1.08321E+00
 -1      4073 1.27823E+00
 -1      4074 8.98402E-01
 -1      4075 3.33745E+00
 -1      4076 3.35737E+00
 -1      4077 2.11413E+00
 -1      4078 1.82624E+00
 -1      4079 1.53085E+00
 -1      4080 3.57822E+00
 -1      4081 1.76891E-03
 -1      4082 3.18093E+00
 -1      4083 3.62057E+00
 -1      4084 3.26374E+00
 -1      4085 3.91752E+00
 -1      4086 9.28353E-01
 -1      4087 1.02989E+00
 -1      4088 1.08869E+00
 -1      4089 2.41685E-03
 -1      4090 9.88612E-01
 -1      4091 1.14124E+00
 -1      4092 1.14124E+00
 -1      4093 1.25935E+00
 -1      4094 1.30063E+00
 -1      4095 2.56969E+00
 -1      4096 2.47355E+00
 -1      4097 2.47357E-03
 -1      4098 2.46102E-03
 -1      4099 2.50448E-03
 -1      4100 3.00388E-03
 -1      4101 3.15006E+00
 -1      4102 3.92655E+00
 -1      4103 3.70864E+00
 -1      4104 1.98798E+00
 -1      4105 1.30155E+00
 -1      4106 3.57822E+00
 -1      4107 3.57822E+00
 -1      4108 3.02155E+00
 -1      4109 2.74118E-03
 -1      4110 3.24058E-03
 -1      4111 1.46480E+00
 -1      4112 1.63630E+00
 -1      4113 1.97035E+00
 -1      4114 2.98377E+00
 -1      4115 2.88975E+00
 -1      4116 9.37108E-01
 -1      4117 8.24180E-01
 -1      4118 6.06051E-01
 -1      4119 5.24008E-01
 -1      4120 7.80682E-01
 -1      4121 4.59206E-01
 -1      4122 4.02392E-01
 -1      4123 4.97751E-01
 -1      4124 3.64874E-01
 -1      4125 3.22826E-01
 -1      4126 3.95431E-01
 -1      4127 2.81394E-01
 -1      4128 2.47870E-01
 -1      4129 3.16480E-01
 -1      4130 2.13251E-01
 -1      4131 1.86778E-01
 -1      4132 2.40428E-01
 -1      4133 1.59835E-01
 -1      4134 1.38715E-01
 -1      4135 1.78867E-01
 -1      4136 1.18161E-01
 -1      4137 1.01649E-01
 -1      4138 1.31370E-01
 -1      4139 8.62184E-02
 -1      4140 7.34015E-02
 -1      4141 9.53863E-02
 -1      4142 6.23101E-02
 -1      4143 5.24872E-02
 -1      4144 6.88642E-02
 -1      4145 4.40156E-02
 -1      4146 3.66053E-02
 -1      4147 4.93011E-02
 -1      4148 3.02180E-02
 -1      4149 2.50455E-02
 -1      4150 3.44422E-02
 -1      4151 2.07052E-02
 -1      4152 1.69878E-02
 -1      4153 2.37146E-02
 -1      4154 1.37291E-02
 -1      4155 1.10897E-02
 -1      4156 1.61156E-02
 -1      4157 8.65334E-03
 -1      4158 6.77885E-03
 -1      4159 1.04205E-02
 -1      4160 1.07420E+00
 -1      4161 1.21951E+00
 -1      4162 5.71834E-01
 -1      4163 6.44465E-01
 -1      4164 3.39341E+00
 -1      4165 3.17604E+00
 -1      4166 9.75496E-01
 -1      4167 1.07420E+00
 -1      4168 1.26929E+00
 -1      4169 9.38255E-01
 -1      4170 1.68622E+00
 -1      4171 2.49466E+00
 -1      4172 1.73600E+00
 -1      4173 4.39921E-01
 -1      4174 4.99404E-01
 -1      4175 5.34793E-01
 -1      4176 3.40849E-01
 -1      4177 3.87696E-01
 -1      4178 4.10138E-01
 -1      4179 3.03068E-01
 -1      4180 3.40849E-01
 -1      4181 3.57913E-01
 -1      4182 2.31521E-01
 -1      4183 2.61635E-01
 -1      4184 3.16480E-01
 -1      4185 1.73041E-01
 -1      4186 1.96902E-01
 -1      4187 2.40428E-01
 -1      4188 1.27495E-01
 -1      4189 1.46098E-01
 -1      4190 1.78867E-01
 -1      4191 9.25814E-02
 -1      4192 1.06942E-01
 -1      4193 1.31370E-01
 -1      4194 6.60654E-02
 -1      4195 7.70181E-02
 -1      4196 9.52536E-02
 -1      4197 4.61267E-02
 -1      4198 5.43599E-02
 -1      4199 6.79848E-02
 -1      4200 3.16949E-02
 -1      4201 3.75626E-02
 -1      4202 4.77151E-02
 -1      4203 2.14885E-02
 -1      4204 2.55948E-02
 -1      4205 3.30508E-02
 -1      4206 1.39924E-02
 -1      4207 1.69601E-02
 -1      4208 2.24223E-02
 -1      4209 8.54410E-03
 -1      4210 1.05827E-02
 -1      4211 1.44842E-02
 -1      4212 4.49264E-03
 -1      4213 5.76084E-03
 -1      4214 8.29127E-03
 -1      4215 4.25595E-03
 -1      4216 3.54580E+00
 -1      4217 2.87875E+00
 -1      4218 2.22269E+00
 -1      4219 2.79072E+00
 -1      4220 2.60704E+00
 -1      4221 2.98377E+00
 -1      4222 3.06658E+00
 -1      4223 2.87009E+00
 -1      4224 1.59515E+00
 -1      4225 1.48288E+00
 -1      4226 2.16932E+00
 -1      4227 2.95971E-03
 -1      4228 2.42221E+00
 -1      4229 1.25675E+00
 -1      4230 1.07235E+00
 -1      4231 1.13405E+00
 -1      4232 1.75840E+00
 -1      4233 1.47176E+00
 -1      4234 1.48430E+00
 -1      4235 2.78661E+00
 -1      4236 3.18093E+00
 -1      4237 2.83674E+00
 -1      4238 5.06224E-03
 -1      4239 3.73324E-03
 -1      4240 1.59424E+00
 -1      4241 2.49466E+00
 -1      4242 2.42221E+00
 -1      4243 3.77742E-03
 -1      4244 2.21422E+00
 -1      4245 2.16360E+00
 -1      4246 1.61742E+00
 -1      4247 3.77742E-03
 -1      4248 3.77742E-03
 -1      4249 5.02948E-03
 -1      4250 4.55095E-03
 -1      4251 6.26757E-03
 -1      4252 4.68641E-01
 -1      4253 5.41071E-01
 -1      4254 5.18736E-01
 -1      4255 4.53934E-01
 -1      4256 4.32118E-01
 -1      4257 3.94600E-01
 -1      4258 3.57913E-01
 -1      4259 3.16480E-01
 -1      4260 2.75048E-01
 -1      4261 2.40428E-01
 -1      4262 2.05809E-01
 -1      4263 1.78867E-01
 -1      4264 1.51924E-01
 -1      4265 1.31370E-01
 -1      4266 1.10817E-01
 -1      4267 9.53863E-02
 -1      4268 7.98230E-02
 -1      4269 6.87316E-02
 -1      4270 5.70260E-02
 -1      4271 4.85544E-02
 -1      4272 3.99902E-02
 -1      4273 3.36029E-02
 -1      4274 2.75028E-02
 -1      4275 2.31625E-02
 -1      4276 1.86341E-02
 -1      4277 1.53754E-02
 -1      4278 1.19657E-02
 -1      4279 9.52935E-03
 -1      4280 1.42549E+00
 -1      4281 1.89220E+00
 -1      4282 1.77649E+00
 -1      4283 1.59424E+00
 -1      4284 2.42839E+00
 -1      4285 2.51187E+00
 -1      4286 2.34903E+00
 -1      4287 6.74610E-03
 -1      4288 2.13645E+00
 -1      4289 2.21422E+00
 -1      4290 3.94600E-01
 -1      4291 4.46825E-01
 -1      4292 7.82862E-01
 -1      4293 5.64733E-01
 -1      4294 5.20916E-01
 -1      4295 1.26929E+00
 -1      4296 1.13405E+00
 -1      4297 1.88474E+00
 -1      4298 1.64050E+00
 -1      4299 1.42549E+00
 -1      4300 1.79968E+00
 -1      4301 2.39902E+00
 -1      4302 5.87068E-01
 -1      4303 4.53104E-01
 -1      4304 3.57913E-01
 -1      4305 6.26757E-03
 -1      4306 1.82593E+00
 -1      4307 1.26929E+00
 -1      4308 9.18099E-01
 -3
 9999
