    1C
    1UUSER                                                              
    1UDATE              27.october.2022                                 
    1UTIME              00:37:48                                        
    1UHOST                                                              
    1UPGM               CalculiX                                        
    1UVERSION           Version 2.17                             
    1UCOMPILETIME       Thu Jul 23 21:43:50 CEST 2020                    
    1UDIR                                                               
    1UDBN                                                               
    1UMAT    1SOLIDMATERIAL                                             
    2C                          4308                                     1
 -1         1 5.72727E+01 3.78187E+01 0.00000E+00
 -1         2 6.91635E+01 3.28106E+01 0.00000E+00
 -1         3 1.50000E+02 0.00000E+00 0.00000E+00
 -1         4 1.50000E+02 5.00000E+01 0.00000E+00
 -1         5 0.00000E+00 0.00000E+00 0.00000E+00
 -1         6 0.00000E+00 5.00000E+01 0.00000E+00
 -1         7 0.00000E+00 4.70500E+01 0.00000E+00
 -1         8 0.00000E+00 4.41000E+01 0.00000E+00
 -1         9 0.00000E+00 4.11500E+01 0.00000E+00
 -1        10 0.00000E+00 3.82000E+01 0.00000E+00
 -1        11 0.00000E+00 3.52500E+01 0.00000E+00
 -1        12 0.00000E+00 3.23500E+01 0.00000E+00
 -1        13 0.00000E+00 2.94000E+01 0.00000E+00
 -1        14 0.00000E+00 2.64500E+01 0.00000E+00
 -1        15 0.00000E+00 2.35000E+01 0.00000E+00
 -1        16 0.00000E+00 2.05500E+01 0.00000E+00
 -1        17 0.00000E+00 1.76000E+01 0.00000E+00
 -1        18 0.00000E+00 1.47000E+01 0.00000E+00
 -1        19 0.00000E+00 1.17500E+01 0.00000E+00
 -1        20 0.00000E+00 8.80000E+00 0.00000E+00
 -1        21 0.00000E+00 5.85000E+00 0.00000E+00
 -1        22 0.00000E+00 2.90000E+00 0.00000E+00
 -1        23 3.15000E+00 5.00000E+01 0.00000E+00
 -1        24 6.15000E+00 5.00000E+01 0.00000E+00
 -1        25 9.15000E+00 5.00000E+01 0.00000E+00
 -1        26 1.21500E+01 5.00000E+01 0.00000E+00
 -1        27 1.51500E+01 5.00000E+01 0.00000E+00
 -1        28 1.81500E+01 5.00000E+01 0.00000E+00
 -1        29 2.11500E+01 5.00000E+01 0.00000E+00
 -1        30 2.41500E+01 5.00000E+01 0.00000E+00
 -1        31 2.71500E+01 5.00000E+01 0.00000E+00
 -1        32 3.01500E+01 5.00000E+01 0.00000E+00
 -1        33 3.31500E+01 5.00000E+01 0.00000E+00
 -1        34 3.61500E+01 5.00000E+01 0.00000E+00
 -1        35 3.91500E+01 5.00000E+01 0.00000E+00
 -1        36 4.23000E+01 5.00000E+01 0.00000E+00
 -1        37 4.53000E+01 5.00000E+01 0.00000E+00
 -1        38 4.83000E+01 5.00000E+01 0.00000E+00
 -1        39 5.13000E+01 5.00000E+01 0.00000E+00
 -1        40 5.43000E+01 5.00000E+01 0.00000E+00
 -1        41 5.73000E+01 5.00000E+01 0.00000E+00
 -1        42 6.03000E+01 5.00000E+01 0.00000E+00
 -1        43 6.30000E+01 5.00000E+01 0.00000E+00
 -1        44 6.57000E+01 5.00000E+01 0.00000E+00
 -1        45 6.87000E+01 5.00000E+01 0.00000E+00
 -1        46 7.18500E+01 5.00000E+01 0.00000E+00
 -1        47 7.48500E+01 5.00000E+01 0.00000E+00
 -1        48 7.78500E+01 5.00000E+01 0.00000E+00
 -1        49 8.08500E+01 5.00000E+01 0.00000E+00
 -1        50 8.38500E+01 5.00000E+01 0.00000E+00
 -1        51 8.68500E+01 5.00000E+01 0.00000E+00
 -1        52 8.98500E+01 5.00000E+01 0.00000E+00
 -1        53 9.28500E+01 5.00000E+01 0.00000E+00
 -1        54 9.58500E+01 5.00000E+01 0.00000E+00
 -1        55 9.88500E+01 5.00000E+01 0.00000E+00
 -1        56 1.01850E+02 5.00000E+01 0.00000E+00
 -1        57 1.04850E+02 5.00000E+01 0.00000E+00
 -1        58 1.07850E+02 5.00000E+01 0.00000E+00
 -1        59 1.11000E+02 5.00000E+01 0.00000E+00
 -1        60 1.14000E+02 5.00000E+01 0.00000E+00
 -1        61 1.17000E+02 5.00000E+01 0.00000E+00
 -1        62 1.20000E+02 5.00000E+01 0.00000E+00
 -1        63 1.23000E+02 5.00000E+01 0.00000E+00
 -1        64 1.26000E+02 5.00000E+01 0.00000E+00
 -1        65 1.29000E+02 5.00000E+01 0.00000E+00
 -1        66 1.32000E+02 5.00000E+01 0.00000E+00
 -1        67 1.35000E+02 5.00000E+01 0.00000E+00
 -1        68 1.38000E+02 5.00000E+01 0.00000E+00
 -1        69 1.41000E+02 5.00000E+01 0.00000E+00
 -1        70 1.44000E+02 5.00000E+01 0.00000E+00
 -1        71 1.47000E+02 5.00000E+01 0.00000E+00
 -1        72 3.15000E+00 0.00000E+00 0.00000E+00
 -1        73 6.15000E+00 0.00000E+00 0.00000E+00
 -1        74 9.15000E+00 0.00000E+00 0.00000E+00
 -1        75 1.21500E+01 0.00000E+00 0.00000E+00
 -1        76 1.51500E+01 0.00000E+00 0.00000E+00
 -1        77 1.81500E+01 0.00000E+00 0.00000E+00
 -1        78 2.11500E+01 0.00000E+00 0.00000E+00
 -1        79 2.41500E+01 0.00000E+00 0.00000E+00
 -1        80 2.71500E+01 0.00000E+00 0.00000E+00
 -1        81 3.01500E+01 0.00000E+00 0.00000E+00
 -1        82 3.31500E+01 0.00000E+00 0.00000E+00
 -1        83 3.61500E+01 0.00000E+00 0.00000E+00
 -1        84 3.91500E+01 0.00000E+00 0.00000E+00
 -1        85 4.21500E+01 0.00000E+00 0.00000E+00
 -1        86 4.51500E+01 0.00000E+00 0.00000E+00
 -1        87 4.81500E+01 0.00000E+00 0.00000E+00
 -1        88 5.11500E+01 0.00000E+00 0.00000E+00
 -1        89 5.41500E+01 0.00000E+00 0.00000E+00
 -1        90 5.71500E+01 0.00000E+00 0.00000E+00
 -1        91 6.01500E+01 0.00000E+00 0.00000E+00
 -1        92 6.31500E+01 0.00000E+00 0.00000E+00
 -1        93 6.61500E+01 0.00000E+00 0.00000E+00
 -1        94 6.91500E+01 0.00000E+00 0.00000E+00
 -1        95 7.21500E+01 0.00000E+00 0.00000E+00
 -1        96 7.51500E+01 0.00000E+00 0.00000E+00
 -1        97 7.81500E+01 0.00000E+00 0.00000E+00
 -1        98 8.11500E+01 0.00000E+00 0.00000E+00
 -1        99 8.41500E+01 0.00000E+00 0.00000E+00
 -1       100 8.71500E+01 0.00000E+00 0.00000E+00
 -1       101 9.01500E+01 0.00000E+00 0.00000E+00
 -1       102 9.31500E+01 0.00000E+00 0.00000E+00
 -1       103 9.61500E+01 0.00000E+00 0.00000E+00
 -1       104 9.91500E+01 0.00000E+00 0.00000E+00
 -1       105 1.02150E+02 0.00000E+00 0.00000E+00
 -1       106 1.05150E+02 0.00000E+00 0.00000E+00
 -1       107 1.08150E+02 0.00000E+00 0.00000E+00
 -1       108 1.11150E+02 0.00000E+00 0.00000E+00
 -1       109 1.14150E+02 0.00000E+00 0.00000E+00
 -1       110 1.17150E+02 0.00000E+00 0.00000E+00
 -1       111 1.20150E+02 0.00000E+00 0.00000E+00
 -1       112 1.23150E+02 0.00000E+00 0.00000E+00
 -1       113 1.26150E+02 0.00000E+00 0.00000E+00
 -1       114 1.29150E+02 0.00000E+00 0.00000E+00
 -1       115 1.32150E+02 0.00000E+00 0.00000E+00
 -1       116 1.35150E+02 0.00000E+00 0.00000E+00
 -1       117 1.38150E+02 0.00000E+00 0.00000E+00
 -1       118 1.41150E+02 0.00000E+00 0.00000E+00
 -1       119 1.44150E+02 0.00000E+00 0.00000E+00
 -1       120 1.47150E+02 0.00000E+00 0.00000E+00
 -1       121 1.50000E+02 2.95000E+00 0.00000E+00
 -1       122 1.50000E+02 5.90000E+00 0.00000E+00
 -1       123 1.50000E+02 8.85000E+00 0.00000E+00
 -1       124 1.50000E+02 1.18000E+01 0.00000E+00
 -1       125 1.50000E+02 1.47500E+01 0.00000E+00
 -1       126 1.50000E+02 1.76500E+01 0.00000E+00
 -1       127 1.50000E+02 2.06000E+01 0.00000E+00
 -1       128 1.50000E+02 2.35500E+01 0.00000E+00
 -1       129 1.50000E+02 2.65000E+01 0.00000E+00
 -1       130 1.50000E+02 2.94500E+01 0.00000E+00
 -1       131 1.50000E+02 3.24000E+01 0.00000E+00
 -1       132 1.50000E+02 3.53000E+01 0.00000E+00
 -1       133 1.50000E+02 3.82500E+01 0.00000E+00
 -1       134 1.50000E+02 4.12000E+01 0.00000E+00
 -1       135 1.50000E+02 4.41500E+01 0.00000E+00
 -1       136 1.50000E+02 4.71000E+01 0.00000E+00
 -1       137 6.90117E+01 3.13609E+01 0.00000E+00
 -1       138 6.85907E+01 3.00375E+01 0.00000E+00
 -1       139 6.78999E+01 2.87990E+01 0.00000E+00
 -1       140 6.69739E+01 2.77253E+01 0.00000E+00
 -1       141 6.58408E+01 2.68544E+01 0.00000E+00
 -1       142 6.45759E+01 2.62395E+01 0.00000E+00
 -1       143 6.31988E+01 2.58876E+01 0.00000E+00
 -1       144 6.17040E+01 2.58257E+01 0.00000E+00
 -1       145 6.02807E+01 2.60686E+01 0.00000E+00
 -1       146 5.88044E+01 2.66692E+01 0.00000E+00
 -1       147 5.75860E+01 2.75147E+01 0.00000E+00
 -1       148 5.66006E+01 2.85615E+01 0.00000E+00
 -1       149 5.58742E+01 2.97373E+01 0.00000E+00
 -1       150 5.53704E+01 3.11213E+01 0.00000E+00
 -1       151 5.51677E+01 3.25681E+01 0.00000E+00
 -1       152 5.52565E+01 3.39480E+01 0.00000E+00
 -1       153 5.56318E+01 3.53279E+01 0.00000E+00
 -1       154 5.63973E+01 3.67794E+01 0.00000E+00
 -1       155 5.84250E+01 3.87287E+01 0.00000E+00
 -1       156 5.97116E+01 3.93672E+01 0.00000E+00
 -1       157 6.11509E+01 3.97370E+01 0.00000E+00
 -1       158 6.25830E+01 3.97980E+01 0.00000E+00
 -1       159 6.41601E+01 3.95198E+01 0.00000E+00
 -1       160 6.56197E+01 3.88979E+01 0.00000E+00
 -1       161 6.68308E+01 3.80275E+01 0.00000E+00
 -1       162 6.78154E+01 3.69405E+01 0.00000E+00
 -1       163 6.85472E+01 3.56825E+01 0.00000E+00
 -1       164 6.90139E+01 3.42501E+01 0.00000E+00
 -1       165 2.59800E+00 4.55750E+01 0.00000E+00
 -1       166 2.59800E+00 4.26250E+01 0.00000E+00
 -1       167 2.59800E+00 3.96750E+01 0.00000E+00
 -1       168 2.59800E+00 3.67250E+01 0.00000E+00
 -1       169 2.59800E+00 3.38250E+01 0.00000E+00
 -1       170 2.59800E+00 3.08750E+01 0.00000E+00
 -1       171 2.59800E+00 2.79250E+01 0.00000E+00
 -1       172 2.59800E+00 2.49750E+01 0.00000E+00
 -1       173 2.59800E+00 2.20250E+01 0.00000E+00
 -1       174 2.59800E+00 1.90750E+01 0.00000E+00
 -1       175 2.59800E+00 1.61750E+01 0.00000E+00
 -1       176 2.59800E+00 1.32250E+01 0.00000E+00
 -1       177 2.59800E+00 1.02750E+01 0.00000E+00
 -1       178 2.59800E+00 7.32500E+00 0.00000E+00
 -1       179 2.59800E+00 4.37500E+00 0.00000E+00
 -1       180 2.87400E+00 2.18750E+00 0.00000E+00
 -1       181 4.65000E+00 4.74020E+01 0.00000E+00
 -1       182 7.65000E+00 4.74020E+01 0.00000E+00
 -1       183 1.06500E+01 4.74020E+01 0.00000E+00
 -1       184 1.36500E+01 4.74020E+01 0.00000E+00
 -1       185 1.66500E+01 4.74020E+01 0.00000E+00
 -1       186 1.96500E+01 4.74020E+01 0.00000E+00
 -1       187 2.26500E+01 4.74020E+01 0.00000E+00
 -1       188 2.56500E+01 4.74020E+01 0.00000E+00
 -1       189 2.86500E+01 4.74020E+01 0.00000E+00
 -1       190 3.16500E+01 4.74020E+01 0.00000E+00
 -1       191 3.46500E+01 4.74020E+01 0.00000E+00
 -1       192 3.76500E+01 4.74020E+01 0.00000E+00
 -1       193 4.08000E+01 4.74020E+01 0.00000E+00
 -1       194 4.38000E+01 4.74020E+01 0.00000E+00
 -1       195 4.68000E+01 4.74020E+01 0.00000E+00
 -1       196 4.98000E+01 4.74020E+01 0.00000E+00
 -1       197 5.28000E+01 4.74020E+01 0.00000E+00
 -1       198 5.58000E+01 4.74020E+01 0.00000E+00
 -1       199 5.88000E+01 4.74020E+01 0.00000E+00
 -1       200 6.15000E+01 4.74020E+01 0.00000E+00
 -1       201 6.42000E+01 4.74020E+01 0.00000E+00
 -1       202 6.72000E+01 4.74020E+01 0.00000E+00
 -1       203 7.03500E+01 4.74020E+01 0.00000E+00
 -1       204 7.33500E+01 4.74020E+01 0.00000E+00
 -1       205 7.63500E+01 4.74020E+01 0.00000E+00
 -1       206 7.93500E+01 4.74020E+01 0.00000E+00
 -1       207 8.23500E+01 4.74020E+01 0.00000E+00
 -1       208 8.53500E+01 4.74020E+01 0.00000E+00
 -1       209 8.83500E+01 4.74020E+01 0.00000E+00
 -1       210 9.13500E+01 4.74020E+01 0.00000E+00
 -1       211 9.43500E+01 4.74020E+01 0.00000E+00
 -1       212 9.73500E+01 4.74020E+01 0.00000E+00
 -1       213 1.00350E+02 4.74020E+01 0.00000E+00
 -1       214 1.03350E+02 4.74020E+01 0.00000E+00
 -1       215 1.06350E+02 4.74020E+01 0.00000E+00
 -1       216 1.09500E+02 4.74020E+01 0.00000E+00
 -1       217 1.12500E+02 4.74020E+01 0.00000E+00
 -1       218 1.15500E+02 4.74020E+01 0.00000E+00
 -1       219 1.18500E+02 4.74020E+01 0.00000E+00
 -1       220 1.21500E+02 4.74020E+01 0.00000E+00
 -1       221 1.24500E+02 4.74020E+01 0.00000E+00
 -1       222 1.27500E+02 4.74020E+01 0.00000E+00
 -1       223 1.30500E+02 4.74020E+01 0.00000E+00
 -1       224 1.33500E+02 4.74020E+01 0.00000E+00
 -1       225 1.36500E+02 4.74020E+01 0.00000E+00
 -1       226 1.39500E+02 4.74020E+01 0.00000E+00
 -1       227 1.42500E+02 4.74020E+01 0.00000E+00
 -1       228 1.45500E+02 4.74020E+01 0.00000E+00
 -1       229 1.47750E+02 4.72510E+01 0.00000E+00
 -1       230 5.87400E+00 2.18750E+00 0.00000E+00
 -1       231 8.87400E+00 2.18750E+00 0.00000E+00
 -1       232 1.18740E+01 2.18750E+00 0.00000E+00
 -1       233 1.48740E+01 2.18750E+00 0.00000E+00
 -1       234 1.78740E+01 2.18750E+00 0.00000E+00
 -1       235 2.08740E+01 2.18750E+00 0.00000E+00
 -1       236 2.38740E+01 2.18750E+00 0.00000E+00
 -1       237 2.68740E+01 2.18750E+00 0.00000E+00
 -1       238 2.98740E+01 2.18750E+00 0.00000E+00
 -1       239 3.28740E+01 2.18750E+00 0.00000E+00
 -1       240 3.58740E+01 2.18750E+00 0.00000E+00
 -1       241 3.88740E+01 2.18750E+00 0.00000E+00
 -1       242 4.18740E+01 2.18750E+00 0.00000E+00
 -1       243 4.48740E+01 2.18750E+00 0.00000E+00
 -1       244 4.78740E+01 2.18750E+00 0.00000E+00
 -1       245 5.08740E+01 2.18750E+00 0.00000E+00
 -1       246 5.38740E+01 2.18750E+00 0.00000E+00
 -1       247 5.68740E+01 2.18750E+00 0.00000E+00
 -1       248 5.98740E+01 2.18750E+00 0.00000E+00
 -1       249 6.28740E+01 2.18750E+00 0.00000E+00
 -1       250 6.58740E+01 2.18750E+00 0.00000E+00
 -1       251 6.88740E+01 2.18750E+00 0.00000E+00
 -1       252 7.18740E+01 2.18750E+00 0.00000E+00
 -1       253 7.48740E+01 2.18750E+00 0.00000E+00
 -1       254 7.78740E+01 2.18750E+00 0.00000E+00
 -1       255 8.08740E+01 2.18750E+00 0.00000E+00
 -1       256 8.38740E+01 2.18750E+00 0.00000E+00
 -1       257 8.68740E+01 2.18750E+00 0.00000E+00
 -1       258 8.98740E+01 2.18750E+00 0.00000E+00
 -1       259 9.28740E+01 2.18750E+00 0.00000E+00
 -1       260 9.58740E+01 2.18750E+00 0.00000E+00
 -1       261 9.88740E+01 2.18750E+00 0.00000E+00
 -1       262 1.01874E+02 2.18750E+00 0.00000E+00
 -1       263 1.04874E+02 2.18750E+00 0.00000E+00
 -1       264 1.07874E+02 2.18750E+00 0.00000E+00
 -1       265 1.10874E+02 2.18750E+00 0.00000E+00
 -1       266 1.13874E+02 2.18750E+00 0.00000E+00
 -1       267 1.16874E+02 2.18750E+00 0.00000E+00
 -1       268 1.19874E+02 2.18750E+00 0.00000E+00
 -1       269 1.22874E+02 2.18750E+00 0.00000E+00
 -1       270 1.25874E+02 2.18750E+00 0.00000E+00
 -1       271 1.28874E+02 2.18750E+00 0.00000E+00
 -1       272 1.31874E+02 2.18750E+00 0.00000E+00
 -1       273 1.34874E+02 2.18750E+00 0.00000E+00
 -1       274 1.37874E+02 2.18750E+00 0.00000E+00
 -1       275 1.40874E+02 2.18750E+00 0.00000E+00
 -1       276 1.43874E+02 2.18750E+00 0.00000E+00
 -1       277 1.46874E+02 2.18750E+00 0.00000E+00
 -1       278 1.47402E+02 4.42500E+00 0.00000E+00
 -1       279 1.47402E+02 7.37500E+00 0.00000E+00
 -1       280 1.47402E+02 1.03250E+01 0.00000E+00
 -1       281 1.47402E+02 1.32750E+01 0.00000E+00
 -1       282 1.47402E+02 1.61750E+01 0.00000E+00
 -1       283 1.47402E+02 1.91250E+01 0.00000E+00
 -1       284 1.47402E+02 2.20750E+01 0.00000E+00
 -1       285 1.47402E+02 2.50250E+01 0.00000E+00
 -1       286 1.47402E+02 2.79750E+01 0.00000E+00
 -1       287 1.47402E+02 3.09250E+01 0.00000E+00
 -1       288 1.47402E+02 3.38250E+01 0.00000E+00
 -1       289 1.47402E+02 3.67750E+01 0.00000E+00
 -1       290 1.47402E+02 3.97250E+01 0.00000E+00
 -1       291 1.47402E+02 4.26750E+01 0.00000E+00
 -1       292 1.47576E+02 4.49630E+01 0.00000E+00
 -1       293 7.03767E+01 3.19508E+01 0.00000E+00
 -1       294 6.99566E+01 3.03316E+01 0.00000E+00
 -1       295 6.93041E+01 2.88276E+01 0.00000E+00
 -1       296 6.83549E+01 2.74703E+01 0.00000E+00
 -1       297 6.71462E+01 2.63286E+01 0.00000E+00
 -1       298 6.57384E+01 2.54565E+01 0.00000E+00
 -1       299 6.41875E+01 2.48889E+01 0.00000E+00
 -1       300 6.25050E+01 2.45616E+01 0.00000E+00
 -1       301 6.07884E+01 2.47520E+01 0.00000E+00
 -1       302 5.89593E+01 2.49355E+01 0.00000E+00
 -1       303 5.74085E+01 2.59582E+01 0.00000E+00
 -1       304 5.62105E+01 2.72071E+01 0.00000E+00
 -1       305 5.52060E+01 2.85122E+01 0.00000E+00
 -1       306 5.44043E+01 2.99859E+01 0.00000E+00
 -1       307 5.39854E+01 3.16648E+01 0.00000E+00
 -1       308 5.40022E+01 3.33359E+01 0.00000E+00
 -1       309 5.42742E+01 3.49561E+01 0.00000E+00
 -1       310 5.46457E+01 3.67756E+01 0.00000E+00
 -1       311 5.59078E+01 3.80801E+01 0.00000E+00
 -1       312 5.70974E+01 3.92252E+01 0.00000E+00
 -1       313 5.85294E+01 4.01340E+01 0.00000E+00
 -1       314 6.01295E+01 4.07263E+01 0.00000E+00
 -1       315 6.18153E+01 4.09788E+01 0.00000E+00
 -1       316 6.36404E+01 4.11829E+01 0.00000E+00
 -1       317 6.53980E+01 4.04013E+01 0.00000E+00
 -1       318 6.69328E+01 3.94472E+01 0.00000E+00
 -1       319 6.82217E+01 3.82979E+01 0.00000E+00
 -1       320 6.92293E+01 3.69212E+01 0.00000E+00
 -1       321 7.00130E+01 3.53678E+01 0.00000E+00
 -1       322 7.02946E+01 3.36557E+01 0.00000E+00
 -1       323 5.19600E+00 4.11500E+01 0.00000E+00
 -1       324 5.19600E+00 4.41000E+01 0.00000E+00
 -1       325 5.19600E+00 3.52750E+01 0.00000E+00
 -1       326 5.19600E+00 3.23250E+01 0.00000E+00
 -1       327 5.19600E+00 2.93750E+01 0.00000E+00
 -1       328 5.19600E+00 2.64250E+01 0.00000E+00
 -1       329 5.19600E+00 2.34750E+01 0.00000E+00
 -1       330 5.19600E+00 2.05250E+01 0.00000E+00
 -1       331 5.19600E+00 1.76250E+01 0.00000E+00
 -1       332 5.19600E+00 1.46750E+01 0.00000E+00
 -1       333 5.19600E+00 1.17250E+01 0.00000E+00
 -1       334 5.19600E+00 8.77500E+00 0.00000E+00
 -1       335 5.19600E+00 5.82500E+00 0.00000E+00
 -1       336 5.53500E+00 4.00625E+00 0.00000E+00
 -1       337 8.53500E+00 4.00625E+00 0.00000E+00
 -1       338 9.15000E+00 4.48040E+01 0.00000E+00
 -1       339 1.21500E+01 4.48040E+01 0.00000E+00
 -1       340 1.51500E+01 4.48040E+01 0.00000E+00
 -1       341 1.81500E+01 4.48040E+01 0.00000E+00
 -1       342 2.11500E+01 4.48040E+01 0.00000E+00
 -1       343 2.41500E+01 4.48040E+01 0.00000E+00
 -1       344 2.71500E+01 4.48040E+01 0.00000E+00
 -1       345 3.01500E+01 4.48040E+01 0.00000E+00
 -1       346 3.31500E+01 4.48040E+01 0.00000E+00
 -1       347 3.61500E+01 4.48040E+01 0.00000E+00
 -1       348 3.93000E+01 4.48040E+01 0.00000E+00
 -1       349 4.23000E+01 4.48040E+01 0.00000E+00
 -1       350 4.53000E+01 4.48040E+01 0.00000E+00
 -1       351 4.83000E+01 4.48040E+01 0.00000E+00
 -1       352 5.13000E+01 4.48040E+01 0.00000E+00
 -1       353 5.43000E+01 4.48040E+01 0.00000E+00
 -1       354 5.73000E+01 4.48040E+01 0.00000E+00
 -1       355 6.00000E+01 4.48040E+01 0.00000E+00
 -1       356 6.27000E+01 4.48040E+01 0.00000E+00
 -1       357 6.57000E+01 4.48040E+01 0.00000E+00
 -1       358 6.88500E+01 4.48040E+01 0.00000E+00
 -1       359 7.18500E+01 4.48040E+01 0.00000E+00
 -1       360 7.48500E+01 4.48040E+01 0.00000E+00
 -1       361 7.78500E+01 4.48040E+01 0.00000E+00
 -1       362 8.08500E+01 4.48040E+01 0.00000E+00
 -1       363 8.38500E+01 4.48040E+01 0.00000E+00
 -1       364 8.68500E+01 4.48040E+01 0.00000E+00
 -1       365 8.98500E+01 4.48040E+01 0.00000E+00
 -1       366 9.28500E+01 4.48040E+01 0.00000E+00
 -1       367 9.58500E+01 4.48040E+01 0.00000E+00
 -1       368 9.88500E+01 4.48040E+01 0.00000E+00
 -1       369 1.01850E+02 4.48040E+01 0.00000E+00
 -1       370 1.04850E+02 4.48040E+01 0.00000E+00
 -1       371 1.08000E+02 4.48040E+01 0.00000E+00
 -1       372 1.11000E+02 4.48040E+01 0.00000E+00
 -1       373 1.14000E+02 4.48040E+01 0.00000E+00
 -1       374 1.17000E+02 4.48040E+01 0.00000E+00
 -1       375 1.20000E+02 4.48040E+01 0.00000E+00
 -1       376 1.23000E+02 4.48040E+01 0.00000E+00
 -1       377 1.26000E+02 4.48040E+01 0.00000E+00
 -1       378 1.29000E+02 4.48040E+01 0.00000E+00
 -1       379 1.32000E+02 4.48040E+01 0.00000E+00
 -1       380 1.35000E+02 4.48040E+01 0.00000E+00
 -1       381 1.38000E+02 4.48040E+01 0.00000E+00
 -1       382 1.41000E+02 4.48040E+01 0.00000E+00
 -1       383 1.44000E+02 4.48040E+01 0.00000E+00
 -1       384 1.33740E+01 4.78550E+00 0.00000E+00
 -1       385 1.63740E+01 4.78550E+00 0.00000E+00
 -1       386 1.93740E+01 4.78550E+00 0.00000E+00
 -1       387 2.23740E+01 4.78550E+00 0.00000E+00
 -1       388 2.53740E+01 4.78550E+00 0.00000E+00
 -1       389 2.83740E+01 4.78550E+00 0.00000E+00
 -1       390 3.13740E+01 4.78550E+00 0.00000E+00
 -1       391 3.43740E+01 4.78550E+00 0.00000E+00
 -1       392 3.73740E+01 4.78550E+00 0.00000E+00
 -1       393 4.03740E+01 4.78550E+00 0.00000E+00
 -1       394 4.33740E+01 4.78550E+00 0.00000E+00
 -1       395 4.63740E+01 4.78550E+00 0.00000E+00
 -1       396 4.93740E+01 4.78550E+00 0.00000E+00
 -1       397 5.23740E+01 4.78550E+00 0.00000E+00
 -1       398 5.53740E+01 4.78550E+00 0.00000E+00
 -1       399 5.83740E+01 4.78550E+00 0.00000E+00
 -1       400 6.13740E+01 4.78550E+00 0.00000E+00
 -1       401 6.43740E+01 4.78550E+00 0.00000E+00
 -1       402 6.73740E+01 4.78550E+00 0.00000E+00
 -1       403 7.03740E+01 4.78550E+00 0.00000E+00
 -1       404 7.33740E+01 4.78550E+00 0.00000E+00
 -1       405 7.63740E+01 4.78550E+00 0.00000E+00
 -1       406 7.93740E+01 4.78550E+00 0.00000E+00
 -1       407 8.23740E+01 4.78550E+00 0.00000E+00
 -1       408 8.53740E+01 4.78550E+00 0.00000E+00
 -1       409 8.83740E+01 4.78550E+00 0.00000E+00
 -1       410 9.13740E+01 4.78550E+00 0.00000E+00
 -1       411 9.43740E+01 4.78550E+00 0.00000E+00
 -1       412 9.73740E+01 4.78550E+00 0.00000E+00
 -1       413 1.00374E+02 4.78550E+00 0.00000E+00
 -1       414 1.03374E+02 4.78550E+00 0.00000E+00
 -1       415 1.06374E+02 4.78550E+00 0.00000E+00
 -1       416 1.09374E+02 4.78550E+00 0.00000E+00
 -1       417 1.12374E+02 4.78550E+00 0.00000E+00
 -1       418 1.15374E+02 4.78550E+00 0.00000E+00
 -1       419 1.18374E+02 4.78550E+00 0.00000E+00
 -1       420 1.21374E+02 4.78550E+00 0.00000E+00
 -1       421 1.24374E+02 4.78550E+00 0.00000E+00
 -1       422 1.27374E+02 4.78550E+00 0.00000E+00
 -1       423 1.30374E+02 4.78550E+00 0.00000E+00
 -1       424 1.33374E+02 4.78550E+00 0.00000E+00
 -1       425 1.36374E+02 4.78550E+00 0.00000E+00
 -1       426 1.39374E+02 4.78550E+00 0.00000E+00
 -1       427 1.42374E+02 4.78550E+00 0.00000E+00
 -1       428 1.44888E+02 4.60525E+00 0.00000E+00
 -1       429 1.44804E+02 1.18000E+01 0.00000E+00
 -1       430 1.44804E+02 8.85000E+00 0.00000E+00
 -1       431 1.44804E+02 1.47000E+01 0.00000E+00
 -1       432 1.44804E+02 1.76500E+01 0.00000E+00
 -1       433 1.44804E+02 2.06000E+01 0.00000E+00
 -1       434 1.44804E+02 2.35500E+01 0.00000E+00
 -1       435 1.44804E+02 2.65000E+01 0.00000E+00
 -1       436 1.44804E+02 2.94500E+01 0.00000E+00
 -1       437 1.44804E+02 3.23500E+01 0.00000E+00
 -1       438 1.44804E+02 3.53000E+01 0.00000E+00
 -1       439 1.44804E+02 3.82500E+01 0.00000E+00
 -1       440 1.44804E+02 4.12000E+01 0.00000E+00
 -1       441 1.09545E+01 4.39587E+00 0.00000E+00
 -1       442 7.08963E+01 2.90305E+01 0.00000E+00
 -1       443 6.86982E+01 2.58962E+01 0.00000E+00
 -1       444 7.19651E+01 3.28818E+01 0.00000E+00
 -1       445 7.00978E+01 2.72621E+01 0.00000E+00
 -1       446 5.19600E+00 3.82125E+01 0.00000E+00
 -1       447 6.72573E+01 2.45770E+01 0.00000E+00
 -1       448 6.54373E+01 2.38768E+01 0.00000E+00
 -1       449 6.35938E+01 2.34529E+01 0.00000E+00
 -1       450 6.14853E+01 2.32020E+01 0.00000E+00
 -1       451 5.96562E+01 2.33854E+01 0.00000E+00
 -1       452 5.74242E+01 2.42948E+01 0.00000E+00
 -1       453 5.58136E+01 2.56274E+01 0.00000E+00
 -1       454 5.44819E+01 2.69157E+01 0.00000E+00
 -1       455 5.36665E+01 2.86296E+01 0.00000E+00
 -1       456 5.27746E+01 3.04710E+01 0.00000E+00
 -1       457 5.26977E+01 3.25134E+01 0.00000E+00
 -1       458 5.27773E+01 3.43745E+01 0.00000E+00
 -1       459 5.31488E+01 3.61940E+01 0.00000E+00
 -1       460 5.41645E+01 3.85039E+01 0.00000E+00
 -1       461 5.53542E+01 3.96489E+01 0.00000E+00
 -1       462 5.70739E+01 4.08447E+01 0.00000E+00
 -1       463 5.88504E+01 4.17243E+01 0.00000E+00
 -1       464 6.07680E+01 4.22173E+01 0.00000E+00
 -1       465 6.25931E+01 4.24215E+01 0.00000E+00
 -1       466 6.52842E+01 4.25124E+01 0.00000E+00
 -1       467 6.68190E+01 4.15583E+01 0.00000E+00
 -1       468 6.86072E+01 4.00276E+01 0.00000E+00
 -1       469 6.97038E+01 3.83256E+01 0.00000E+00
 -1       470 7.07784E+01 3.67284E+01 0.00000E+00
 -1       471 7.16835E+01 3.45939E+01 0.00000E+00
 -1       472 7.14213E+01 3.08156E+01 0.00000E+00
 -1       473 5.26675E+01 3.79223E+01 0.00000E+00
 -1       474 5.81211E+01 2.27448E+01 0.00000E+00
 -1       475 7.79400E+00 3.08500E+01 0.00000E+00
 -1       476 7.79400E+00 3.38000E+01 0.00000E+00
 -1       477 7.79400E+00 2.49500E+01 0.00000E+00
 -1       478 7.79400E+00 2.20000E+01 0.00000E+00
 -1       479 7.79400E+00 1.91000E+01 0.00000E+00
 -1       480 7.79400E+00 1.61500E+01 0.00000E+00
 -1       481 7.79400E+00 1.32000E+01 0.00000E+00
 -1       482 7.79400E+00 1.02500E+01 0.00000E+00
 -1       483 7.79400E+00 7.30000E+00 0.00000E+00
 -1       484 8.16450E+00 5.65312E+00 0.00000E+00
 -1       485 1.06500E+01 4.22060E+01 0.00000E+00
 -1       486 7.20602E+01 2.74404E+01 0.00000E+00
 -1       487 7.07129E+01 2.52318E+01 0.00000E+00
 -1       488 1.36500E+01 4.22060E+01 0.00000E+00
 -1       489 1.66500E+01 4.22060E+01 0.00000E+00
 -1       490 1.96500E+01 4.22060E+01 0.00000E+00
 -1       491 2.26500E+01 4.22060E+01 0.00000E+00
 -1       492 2.56500E+01 4.22060E+01 0.00000E+00
 -1       493 2.86500E+01 4.22060E+01 0.00000E+00
 -1       494 3.16500E+01 4.22060E+01 0.00000E+00
 -1       495 3.46500E+01 4.22060E+01 0.00000E+00
 -1       496 3.78000E+01 4.22060E+01 0.00000E+00
 -1       497 4.08000E+01 4.22060E+01 0.00000E+00
 -1       498 4.38000E+01 4.22060E+01 0.00000E+00
 -1       499 4.68000E+01 4.22060E+01 0.00000E+00
 -1       500 4.98000E+01 4.22060E+01 0.00000E+00
 -1       501 5.28000E+01 4.22060E+01 0.00000E+00
 -1       502 7.03500E+01 4.25862E+01 0.00000E+00
 -1       503 7.33500E+01 4.25862E+01 0.00000E+00
 -1       504 7.63500E+01 4.25862E+01 0.00000E+00
 -1       505 7.93500E+01 4.25862E+01 0.00000E+00
 -1       506 8.23500E+01 4.25862E+01 0.00000E+00
 -1       507 8.53500E+01 4.25862E+01 0.00000E+00
 -1       508 8.83500E+01 4.25862E+01 0.00000E+00
 -1       509 9.13500E+01 4.25862E+01 0.00000E+00
 -1       510 9.43500E+01 4.25862E+01 0.00000E+00
 -1       511 9.73500E+01 4.25862E+01 0.00000E+00
 -1       512 1.00350E+02 4.25862E+01 0.00000E+00
 -1       513 1.03350E+02 4.25862E+01 0.00000E+00
 -1       514 1.06500E+02 4.25862E+01 0.00000E+00
 -1       515 1.09500E+02 4.25862E+01 0.00000E+00
 -1       516 1.12500E+02 4.25862E+01 0.00000E+00
 -1       517 1.15500E+02 4.25862E+01 0.00000E+00
 -1       518 1.18500E+02 4.25862E+01 0.00000E+00
 -1       519 1.21500E+02 4.25862E+01 0.00000E+00
 -1       520 1.24500E+02 4.25862E+01 0.00000E+00
 -1       521 1.27500E+02 4.25862E+01 0.00000E+00
 -1       522 1.30500E+02 4.25862E+01 0.00000E+00
 -1       523 1.33500E+02 4.25862E+01 0.00000E+00
 -1       524 1.36500E+02 4.25862E+01 0.00000E+00
 -1       525 1.39500E+02 4.25862E+01 0.00000E+00
 -1       526 1.42152E+02 4.18931E+01 0.00000E+00
 -1       527 2.08740E+01 7.38350E+00 0.00000E+00
 -1       528 1.78740E+01 7.38350E+00 0.00000E+00
 -1       529 1.48740E+01 7.38350E+00 0.00000E+00
 -1       530 2.38740E+01 7.38350E+00 0.00000E+00
 -1       531 2.68740E+01 7.38350E+00 0.00000E+00
 -1       532 2.98740E+01 7.38350E+00 0.00000E+00
 -1       533 3.28740E+01 7.38350E+00 0.00000E+00
 -1       534 3.58740E+01 7.38350E+00 0.00000E+00
 -1       535 3.88740E+01 7.38350E+00 0.00000E+00
 -1       536 4.18740E+01 7.38350E+00 0.00000E+00
 -1       537 4.48740E+01 7.38350E+00 0.00000E+00
 -1       538 4.78740E+01 7.38350E+00 0.00000E+00
 -1       539 5.08740E+01 7.38350E+00 0.00000E+00
 -1       540 5.38740E+01 7.38350E+00 0.00000E+00
 -1       541 5.68740E+01 7.38350E+00 0.00000E+00
 -1       542 5.98740E+01 7.38350E+00 0.00000E+00
 -1       543 6.28740E+01 7.38350E+00 0.00000E+00
 -1       544 6.58740E+01 7.38350E+00 0.00000E+00
 -1       545 6.88740E+01 7.38350E+00 0.00000E+00
 -1       546 7.18740E+01 7.38350E+00 0.00000E+00
 -1       547 7.48740E+01 7.38350E+00 0.00000E+00
 -1       548 7.78740E+01 7.38350E+00 0.00000E+00
 -1       549 8.08740E+01 7.38350E+00 0.00000E+00
 -1       550 8.38740E+01 7.38350E+00 0.00000E+00
 -1       551 8.68740E+01 7.38350E+00 0.00000E+00
 -1       552 8.98740E+01 7.38350E+00 0.00000E+00
 -1       553 9.28740E+01 7.38350E+00 0.00000E+00
 -1       554 9.58740E+01 7.38350E+00 0.00000E+00
 -1       555 9.88740E+01 7.38350E+00 0.00000E+00
 -1       556 1.01874E+02 7.38350E+00 0.00000E+00
 -1       557 1.04874E+02 7.38350E+00 0.00000E+00
 -1       558 1.07874E+02 7.38350E+00 0.00000E+00
 -1       559 1.10874E+02 7.38350E+00 0.00000E+00
 -1       560 1.13874E+02 7.38350E+00 0.00000E+00
 -1       561 1.16874E+02 7.38350E+00 0.00000E+00
 -1       562 1.19874E+02 7.38350E+00 0.00000E+00
 -1       563 1.22874E+02 7.38350E+00 0.00000E+00
 -1       564 1.25874E+02 7.38350E+00 0.00000E+00
 -1       565 1.28874E+02 7.38350E+00 0.00000E+00
 -1       566 1.31874E+02 7.38350E+00 0.00000E+00
 -1       567 1.34874E+02 7.38350E+00 0.00000E+00
 -1       568 1.37874E+02 7.38350E+00 0.00000E+00
 -1       569 1.40874E+02 7.38350E+00 0.00000E+00
 -1       570 1.42206E+02 1.61750E+01 0.00000E+00
 -1       571 1.42206E+02 1.32750E+01 0.00000E+00
 -1       572 1.42206E+02 1.03250E+01 0.00000E+00
 -1       573 7.30277E+01 3.14974E+01 0.00000E+00
 -1       574 1.42206E+02 1.91250E+01 0.00000E+00
 -1       575 1.42206E+02 2.20750E+01 0.00000E+00
 -1       576 1.42206E+02 2.50250E+01 0.00000E+00
 -1       577 1.42206E+02 2.79750E+01 0.00000E+00
 -1       578 1.42206E+02 3.08750E+01 0.00000E+00
 -1       579 1.42206E+02 3.38250E+01 0.00000E+00
 -1       580 1.42206E+02 3.67750E+01 0.00000E+00
 -1       581 1.42179E+02 3.93340E+01 0.00000E+00
 -1       582 7.26556E+01 3.62653E+01 0.00000E+00
 -1       583 7.92300E+00 4.16780E+01 0.00000E+00
 -1       584 6.92720E+01 2.39125E+01 0.00000E+00
 -1       585 7.35166E+01 3.40162E+01 0.00000E+00
 -1       586 5.94239E+01 4.34696E+01 0.00000E+00
 -1       587 5.11076E+01 3.35137E+01 0.00000E+00
 -1       588 6.27323E+01 2.17075E+01 0.00000E+00
 -1       589 7.79400E+00 2.79000E+01 0.00000E+00
 -1       590 6.48436E+01 2.22383E+01 0.00000E+00
 -1       591 5.56324E+01 2.37688E+01 0.00000E+00
 -1       592 6.70233E+01 2.24698E+01 0.00000E+00
 -1       593 6.03996E+01 2.15871E+01 0.00000E+00
 -1       594 5.72011E+01 4.28215E+01 0.00000E+00
 -1       595 5.40717E+01 2.51593E+01 0.00000E+00
 -1       596 5.25254E+01 2.70359E+01 0.00000E+00
 -1       597 5.16335E+01 2.88772E+01 0.00000E+00
 -1       598 5.11846E+01 3.14713E+01 0.00000E+00
 -1       599 5.14467E+01 3.55938E+01 0.00000E+00
 -1       600 5.36862E+01 4.01914E+01 0.00000E+00
 -1       601 7.05973E+01 4.01055E+01 0.00000E+00
 -1       602 5.52349E+01 4.16550E+01 0.00000E+00
 -1       603 6.88284E+01 4.20959E+01 0.00000E+00
 -1       604 7.16718E+01 3.85083E+01 0.00000E+00
 -1       605 7.26435E+01 2.94865E+01 0.00000E+00
 -1       606 7.79400E+00 3.67375E+01 0.00000E+00
 -1       607 1.05840E+01 6.04275E+00 0.00000E+00
 -1       608 5.58000E+01 4.25862E+01 0.00000E+00
 -1       609 6.13500E+01 4.30889E+01 0.00000E+00
 -1       610 1.27290E+01 6.71313E+00 0.00000E+00
 -1       611 5.21892E+01 3.96098E+01 0.00000E+00
 -1       612 5.63293E+01 2.22187E+01 0.00000E+00
 -1       613 5.09655E+01 3.73221E+01 0.00000E+00
 -1       614 6.71340E+01 4.37766E+01 0.00000E+00
 -1       615 6.43599E+01 4.35359E+01 0.00000E+00
 -1       616 1.03920E+01 2.05500E+01 0.00000E+00
 -1       617 1.03920E+01 2.35000E+01 0.00000E+00
 -1       618 1.03920E+01 1.46750E+01 0.00000E+00
 -1       619 1.03920E+01 1.17250E+01 0.00000E+00
 -1       620 1.02135E+01 7.68962E+00 0.00000E+00
 -1       621 6.90738E+01 2.17476E+01 0.00000E+00
 -1       622 7.43235E+01 2.79013E+01 0.00000E+00
 -1       623 1.51500E+01 3.96080E+01 0.00000E+00
 -1       624 1.81500E+01 3.96080E+01 0.00000E+00
 -1       625 2.11500E+01 3.96080E+01 0.00000E+00
 -1       626 2.41500E+01 3.96080E+01 0.00000E+00
 -1       627 2.71500E+01 3.96080E+01 0.00000E+00
 -1       628 3.01500E+01 3.96080E+01 0.00000E+00
 -1       629 3.31500E+01 3.96080E+01 0.00000E+00
 -1       630 3.63000E+01 3.96080E+01 0.00000E+00
 -1       631 3.93000E+01 3.96080E+01 0.00000E+00
 -1       632 4.23000E+01 3.96080E+01 0.00000E+00
 -1       633 4.53000E+01 3.96080E+01 0.00000E+00
 -1       634 4.83000E+01 3.96080E+01 0.00000E+00
 -1       635 7.51203E+01 3.23980E+01 0.00000E+00
 -1       636 7.48500E+01 3.99882E+01 0.00000E+00
 -1       637 7.78500E+01 3.99882E+01 0.00000E+00
 -1       638 8.08500E+01 3.99882E+01 0.00000E+00
 -1       639 8.38500E+01 3.99882E+01 0.00000E+00
 -1       640 8.68500E+01 3.99882E+01 0.00000E+00
 -1       641 8.98500E+01 3.99882E+01 0.00000E+00
 -1       642 9.28500E+01 3.99882E+01 0.00000E+00
 -1       643 9.58500E+01 3.99882E+01 0.00000E+00
 -1       644 9.88500E+01 3.99882E+01 0.00000E+00
 -1       645 1.01850E+02 3.99882E+01 0.00000E+00
 -1       646 1.05000E+02 3.99882E+01 0.00000E+00
 -1       647 1.08000E+02 3.99882E+01 0.00000E+00
 -1       648 1.11000E+02 3.99882E+01 0.00000E+00
 -1       649 1.14000E+02 3.99882E+01 0.00000E+00
 -1       650 1.17000E+02 3.99882E+01 0.00000E+00
 -1       651 1.20000E+02 3.99882E+01 0.00000E+00
 -1       652 1.23000E+02 3.99882E+01 0.00000E+00
 -1       653 1.26000E+02 3.99882E+01 0.00000E+00
 -1       654 1.29000E+02 3.99882E+01 0.00000E+00
 -1       655 1.32000E+02 3.99882E+01 0.00000E+00
 -1       656 1.35000E+02 3.99882E+01 0.00000E+00
 -1       657 1.38000E+02 3.99882E+01 0.00000E+00
 -1       658 1.40089E+02 3.96611E+01 0.00000E+00
 -1       659 1.93740E+01 9.98150E+00 0.00000E+00
 -1       660 2.23740E+01 9.98150E+00 0.00000E+00
 -1       661 1.63740E+01 9.98150E+00 0.00000E+00
 -1       662 2.83740E+01 9.98150E+00 0.00000E+00
 -1       663 3.13740E+01 9.98150E+00 0.00000E+00
 -1       664 3.43740E+01 9.98150E+00 0.00000E+00
 -1       665 3.73740E+01 9.98150E+00 0.00000E+00
 -1       666 4.03740E+01 9.98150E+00 0.00000E+00
 -1       667 4.33740E+01 9.98150E+00 0.00000E+00
 -1       668 4.63740E+01 9.98150E+00 0.00000E+00
 -1       669 4.93740E+01 9.98150E+00 0.00000E+00
 -1       670 5.23740E+01 9.98150E+00 0.00000E+00
 -1       671 5.53740E+01 9.98150E+00 0.00000E+00
 -1       672 5.83740E+01 9.98150E+00 0.00000E+00
 -1       673 6.13740E+01 9.98150E+00 0.00000E+00
 -1       674 6.43740E+01 9.98150E+00 0.00000E+00
 -1       675 6.73740E+01 9.98150E+00 0.00000E+00
 -1       676 7.03740E+01 9.98150E+00 0.00000E+00
 -1       677 7.33740E+01 9.98150E+00 0.00000E+00
 -1       678 7.63740E+01 9.98150E+00 0.00000E+00
 -1       679 7.93740E+01 9.98150E+00 0.00000E+00
 -1       680 8.23740E+01 9.98150E+00 0.00000E+00
 -1       681 8.53740E+01 9.98150E+00 0.00000E+00
 -1       682 8.83740E+01 9.98150E+00 0.00000E+00
 -1       683 9.13740E+01 9.98150E+00 0.00000E+00
 -1       684 9.43740E+01 9.98150E+00 0.00000E+00
 -1       685 9.73740E+01 9.98150E+00 0.00000E+00
 -1       686 1.00374E+02 9.98150E+00 0.00000E+00
 -1       687 1.03374E+02 9.98150E+00 0.00000E+00
 -1       688 1.06374E+02 9.98150E+00 0.00000E+00
 -1       689 1.09374E+02 9.98150E+00 0.00000E+00
 -1       690 1.12374E+02 9.98150E+00 0.00000E+00
 -1       691 1.15374E+02 9.98150E+00 0.00000E+00
 -1       692 1.18374E+02 9.98150E+00 0.00000E+00
 -1       693 1.21374E+02 9.98150E+00 0.00000E+00
 -1       694 1.24374E+02 9.98150E+00 0.00000E+00
 -1       695 1.27374E+02 9.98150E+00 0.00000E+00
 -1       696 1.30374E+02 9.98150E+00 0.00000E+00
 -1       697 1.33374E+02 9.98150E+00 0.00000E+00
 -1       698 1.36374E+02 9.98150E+00 0.00000E+00
 -1       699 1.39290E+02 1.01532E+01 0.00000E+00
 -1       700 1.39608E+02 1.47250E+01 0.00000E+00
 -1       701 1.39608E+02 2.06000E+01 0.00000E+00
 -1       702 1.39449E+02 1.24391E+01 0.00000E+00
 -1       703 1.39608E+02 1.76625E+01 0.00000E+00
 -1       704 1.39608E+02 2.65000E+01 0.00000E+00
 -1       705 1.39608E+02 2.94000E+01 0.00000E+00
 -1       706 1.39608E+02 3.23500E+01 0.00000E+00
 -1       707 1.39608E+02 3.53000E+01 0.00000E+00
 -1       708 7.28507E+01 2.54429E+01 0.00000E+00
 -1       709 9.78035E+00 3.93914E+01 0.00000E+00
 -1       710 7.48444E+01 3.58138E+01 0.00000E+00
 -1       711 7.47219E+01 3.01497E+01 0.00000E+00
 -1       712 5.15870E+01 2.46872E+01 0.00000E+00
 -1       713 1.39608E+02 2.35500E+01 0.00000E+00
 -1       714 7.13770E+01 2.30600E+01 0.00000E+00
 -1       715 1.24652E+01 3.94997E+01 0.00000E+00
 -1       716 5.31476E+01 2.32967E+01 0.00000E+00
 -1       717 1.03920E+01 1.76125E+01 0.00000E+00
 -1       718 6.42878E+01 1.99845E+01 0.00000E+00
 -1       719 4.96671E+01 3.48162E+01 0.00000E+00
 -1       720 5.05359E+01 2.72089E+01 0.00000E+00
 -1       721 4.95997E+01 3.24342E+01 0.00000E+00
 -1       722 5.84076E+01 2.04875E+01 0.00000E+00
 -1       723 1.03920E+01 3.23250E+01 0.00000E+00
 -1       724 4.97191E+01 2.98818E+01 0.00000E+00
 -1       725 6.64676E+01 2.02160E+01 0.00000E+00
 -1       726 6.16544E+01 1.99345E+01 0.00000E+00
 -1       727 7.36576E+01 3.80421E+01 0.00000E+00
 -1       728 2.53740E+01 9.98150E+00 0.00000E+00
 -1       729 1.03920E+01 2.64500E+01 0.00000E+00
 -1       730 7.64481E+01 3.41957E+01 0.00000E+00
 -1       731 1.03920E+01 3.52625E+01 0.00000E+00
 -1       732 5.38445E+01 2.17466E+01 0.00000E+00
 -1       733 1.39849E+02 3.74806E+01 0.00000E+00
 -1       734 1.33741E+01 9.98153E+00 0.00000E+00
 -1       735 1.03920E+01 2.93875E+01 0.00000E+00
 -1       736 4.91859E+01 3.65445E+01 0.00000E+00
 -1       737 5.96623E+01 1.88349E+01 0.00000E+00
 -1       738 1.29900E+01 1.32000E+01 0.00000E+00
 -1       739 6.87246E+01 1.93587E+01 0.00000E+00
 -1       740 1.96500E+01 3.70100E+01 0.00000E+00
 -1       741 2.26500E+01 3.70100E+01 0.00000E+00
 -1       742 2.56500E+01 3.70100E+01 0.00000E+00
 -1       743 2.86500E+01 3.70100E+01 0.00000E+00
 -1       744 3.16500E+01 3.70100E+01 0.00000E+00
 -1       745 3.48000E+01 3.70100E+01 0.00000E+00
 -1       746 3.78000E+01 3.70100E+01 0.00000E+00
 -1       747 4.08000E+01 3.70100E+01 0.00000E+00
 -1       748 4.38000E+01 3.70100E+01 0.00000E+00
 -1       749 3.58740E+01 1.25795E+01 0.00000E+00
 -1       750 7.13234E+01 2.04769E+01 0.00000E+00
 -1       751 7.93500E+01 3.73902E+01 0.00000E+00
 -1       752 8.23500E+01 3.73902E+01 0.00000E+00
 -1       753 8.53500E+01 3.73902E+01 0.00000E+00
 -1       754 8.83500E+01 3.73902E+01 0.00000E+00
 -1       755 9.13500E+01 3.73902E+01 0.00000E+00
 -1       756 9.43500E+01 3.73902E+01 0.00000E+00
 -1       757 9.73500E+01 3.73902E+01 0.00000E+00
 -1       758 1.00350E+02 3.73902E+01 0.00000E+00
 -1       759 1.03500E+02 3.73902E+01 0.00000E+00
 -1       760 1.06500E+02 3.73902E+01 0.00000E+00
 -1       761 1.09500E+02 3.73902E+01 0.00000E+00
 -1       762 1.12500E+02 3.73902E+01 0.00000E+00
 -1       763 1.15500E+02 3.73902E+01 0.00000E+00
 -1       764 1.18500E+02 3.73902E+01 0.00000E+00
 -1       765 1.21500E+02 3.73902E+01 0.00000E+00
 -1       766 1.24500E+02 3.73902E+01 0.00000E+00
 -1       767 1.27500E+02 3.73902E+01 0.00000E+00
 -1       768 1.30500E+02 3.73902E+01 0.00000E+00
 -1       769 1.33500E+02 3.73902E+01 0.00000E+00
 -1       770 1.36500E+02 3.73902E+01 0.00000E+00
 -1       771 2.08740E+01 1.25795E+01 0.00000E+00
 -1       772 1.78740E+01 1.25795E+01 0.00000E+00
 -1       773 3.28740E+01 1.25795E+01 0.00000E+00
 -1       774 2.98740E+01 1.25795E+01 0.00000E+00
 -1       775 3.88740E+01 1.25795E+01 0.00000E+00
 -1       776 4.18740E+01 1.25795E+01 0.00000E+00
 -1       777 4.48740E+01 1.25795E+01 0.00000E+00
 -1       778 4.78740E+01 1.25795E+01 0.00000E+00
 -1       779 5.08740E+01 1.25795E+01 0.00000E+00
 -1       780 5.38740E+01 1.25795E+01 0.00000E+00
 -1       781 5.68740E+01 1.25795E+01 0.00000E+00
 -1       782 5.98740E+01 1.25795E+01 0.00000E+00
 -1       783 6.28740E+01 1.25795E+01 0.00000E+00
 -1       784 6.58740E+01 1.25795E+01 0.00000E+00
 -1       785 6.88740E+01 1.25795E+01 0.00000E+00
 -1       786 7.18740E+01 1.25795E+01 0.00000E+00
 -1       787 7.48740E+01 1.25795E+01 0.00000E+00
 -1       788 7.78740E+01 1.25795E+01 0.00000E+00
 -1       789 8.08740E+01 1.25795E+01 0.00000E+00
 -1       790 8.38740E+01 1.25795E+01 0.00000E+00
 -1       791 8.68740E+01 1.25795E+01 0.00000E+00
 -1       792 8.98740E+01 1.25795E+01 0.00000E+00
 -1       793 9.28740E+01 1.25795E+01 0.00000E+00
 -1       794 9.58740E+01 1.25795E+01 0.00000E+00
 -1       795 9.88740E+01 1.25795E+01 0.00000E+00
 -1       796 1.01874E+02 1.25795E+01 0.00000E+00
 -1       797 1.04874E+02 1.25795E+01 0.00000E+00
 -1       798 1.07874E+02 1.25795E+01 0.00000E+00
 -1       799 1.10874E+02 1.25795E+01 0.00000E+00
 -1       800 1.13874E+02 1.25795E+01 0.00000E+00
 -1       801 1.16874E+02 1.25795E+01 0.00000E+00
 -1       802 1.19874E+02 1.25795E+01 0.00000E+00
 -1       803 1.22874E+02 1.25795E+01 0.00000E+00
 -1       804 1.25874E+02 1.25795E+01 0.00000E+00
 -1       805 1.28874E+02 1.25795E+01 0.00000E+00
 -1       806 1.31874E+02 1.25795E+01 0.00000E+00
 -1       807 1.34874E+02 1.25795E+01 0.00000E+00
 -1       808 1.37161E+02 1.25093E+01 0.00000E+00
 -1       809 1.37010E+02 3.08750E+01 0.00000E+00
 -1       810 1.37010E+02 3.38250E+01 0.00000E+00
 -1       811 1.37010E+02 2.79750E+01 0.00000E+00
 -1       812 5.60562E+01 1.97778E+01 0.00000E+00
 -1       813 1.37010E+02 2.20750E+01 0.00000E+00
 -1       814 7.54896E+01 2.55323E+01 0.00000E+00
 -1       815 7.40159E+01 2.31494E+01 0.00000E+00
 -1       816 1.37010E+02 2.50250E+01 0.00000E+00
 -1       817 1.66500E+01 3.70100E+01 0.00000E+00
 -1       818 5.08919E+01 2.23361E+01 0.00000E+00
 -1       819 4.88597E+01 2.50303E+01 0.00000E+00
 -1       820 4.79461E+01 3.10778E+01 0.00000E+00
 -1       821 6.30069E+01 1.80772E+01 0.00000E+00
 -1       822 4.79190E+01 3.36738E+01 0.00000E+00
 -1       823 1.29900E+01 2.20250E+01 0.00000E+00
 -1       824 6.55765E+01 1.82281E+01 0.00000E+00
 -1       825 4.80428E+01 2.77032E+01 0.00000E+00
 -1       826 7.60368E+01 3.77599E+01 0.00000E+00
 -1       827 7.67460E+01 2.76223E+01 0.00000E+00
 -1       828 6.78335E+01 1.73708E+01 0.00000E+00
 -1       829 2.68740E+01 1.25795E+01 0.00000E+00
 -1       830 1.37320E+02 1.47952E+01 0.00000E+00
 -1       831 7.74334E+01 3.20788E+01 0.00000E+00
 -1       832 5.15888E+01 2.07860E+01 0.00000E+00
 -1       833 4.68000E+01 3.72226E+01 0.00000E+00
 -1       834 7.39623E+01 2.05663E+01 0.00000E+00
 -1       835 1.29900E+01 1.90875E+01 0.00000E+00
 -1       836 2.38740E+01 1.25795E+01 0.00000E+00
 -1       837 1.29900E+01 2.49750E+01 0.00000E+00
 -1       838 1.37010E+02 1.91375E+01 0.00000E+00
 -1       839 1.29900E+01 3.37938E+01 0.00000E+00
 -1       840 1.29900E+01 1.61437E+01 0.00000E+00
 -1       841 5.73109E+01 1.81252E+01 0.00000E+00
 -1       842 1.48741E+01 1.25795E+01 0.00000E+00
 -1       843 4.74378E+01 3.54021E+01 0.00000E+00
 -1       844 7.78990E+01 3.57929E+01 0.00000E+00
 -1       845 6.10148E+01 1.69775E+01 0.00000E+00
 -1       846 1.39652E+01 3.69017E+01 0.00000E+00
 -1       847 1.29900E+01 3.08563E+01 0.00000E+00
 -1       848 2.41500E+01 3.44120E+01 0.00000E+00
 -1       849 2.71500E+01 3.44120E+01 0.00000E+00
 -1       850 3.01500E+01 3.44120E+01 0.00000E+00
 -1       851 3.33000E+01 3.44120E+01 0.00000E+00
 -1       852 3.63000E+01 3.44120E+01 0.00000E+00
 -1       853 3.93000E+01 3.44120E+01 0.00000E+00
 -1       854 4.23000E+01 3.44120E+01 0.00000E+00
 -1       855 4.03740E+01 1.51775E+01 0.00000E+00
 -1       856 3.73740E+01 1.51775E+01 0.00000E+00
 -1       857 8.38500E+01 3.47922E+01 0.00000E+00
 -1       858 8.68500E+01 3.47922E+01 0.00000E+00
 -1       859 8.98500E+01 3.47922E+01 0.00000E+00
 -1       860 9.28500E+01 3.47922E+01 0.00000E+00
 -1       861 9.58500E+01 3.47922E+01 0.00000E+00
 -1       862 9.88500E+01 3.47922E+01 0.00000E+00
 -1       863 1.02000E+02 3.47922E+01 0.00000E+00
 -1       864 1.05000E+02 3.47922E+01 0.00000E+00
 -1       865 1.08000E+02 3.47922E+01 0.00000E+00
 -1       866 1.11000E+02 3.47922E+01 0.00000E+00
 -1       867 1.14000E+02 3.47922E+01 0.00000E+00
 -1       868 1.17000E+02 3.47922E+01 0.00000E+00
 -1       869 1.20000E+02 3.47922E+01 0.00000E+00
 -1       870 1.23000E+02 3.47922E+01 0.00000E+00
 -1       871 1.26000E+02 3.47922E+01 0.00000E+00
 -1       872 1.29000E+02 3.47922E+01 0.00000E+00
 -1       873 1.32000E+02 3.47922E+01 0.00000E+00
 -1       874 1.34505E+02 3.43086E+01 0.00000E+00
 -1       875 4.78376E+01 2.21458E+01 0.00000E+00
 -1       876 3.43740E+01 1.51775E+01 0.00000E+00
 -1       877 3.13740E+01 1.51775E+01 0.00000E+00
 -1       878 4.33740E+01 1.51775E+01 0.00000E+00
 -1       879 4.63740E+01 1.51775E+01 0.00000E+00
 -1       880 4.93740E+01 1.51775E+01 0.00000E+00
 -1       881 5.23740E+01 1.51775E+01 0.00000E+00
 -1       882 5.53740E+01 1.51775E+01 0.00000E+00
 -1       883 5.83740E+01 1.51775E+01 0.00000E+00
 -1       884 6.73740E+01 1.51775E+01 0.00000E+00
 -1       885 7.03740E+01 1.51775E+01 0.00000E+00
 -1       886 7.33740E+01 1.51775E+01 0.00000E+00
 -1       887 7.63740E+01 1.51775E+01 0.00000E+00
 -1       888 7.93740E+01 1.51775E+01 0.00000E+00
 -1       889 8.23740E+01 1.51775E+01 0.00000E+00
 -1       890 8.53740E+01 1.51775E+01 0.00000E+00
 -1       891 8.83740E+01 1.51775E+01 0.00000E+00
 -1       892 9.13740E+01 1.51775E+01 0.00000E+00
 -1       893 9.43740E+01 1.51775E+01 0.00000E+00
 -1       894 9.73740E+01 1.51775E+01 0.00000E+00
 -1       895 1.00374E+02 1.51775E+01 0.00000E+00
 -1       896 1.03374E+02 1.51775E+01 0.00000E+00
 -1       897 1.06374E+02 1.51775E+01 0.00000E+00
 -1       898 1.09374E+02 1.51775E+01 0.00000E+00
 -1       899 1.12374E+02 1.51775E+01 0.00000E+00
 -1       900 1.15374E+02 1.51775E+01 0.00000E+00
 -1       901 1.18374E+02 1.51775E+01 0.00000E+00
 -1       902 1.21374E+02 1.51775E+01 0.00000E+00
 -1       903 1.24374E+02 1.51775E+01 0.00000E+00
 -1       904 1.27374E+02 1.51775E+01 0.00000E+00
 -1       905 1.30374E+02 1.51775E+01 0.00000E+00
 -1       906 1.33374E+02 1.51775E+01 0.00000E+00
 -1       907 7.78750E+01 2.55210E+01 0.00000E+00
 -1       908 7.88844E+01 3.36760E+01 0.00000E+00
 -1       909 1.34505E+02 3.13586E+01 0.00000E+00
 -1       910 7.09006E+01 1.78805E+01 0.00000E+00
 -1       911 4.57776E+01 2.93270E+01 0.00000E+00
 -1       912 1.81500E+01 3.44120E+01 0.00000E+00
 -1       913 4.58824E+01 3.23543E+01 0.00000E+00
 -1       914 7.64013E+01 2.31381E+01 0.00000E+00
 -1       915 1.34505E+02 2.84586E+01 0.00000E+00
 -1       916 1.29900E+01 2.79188E+01 0.00000E+00
 -1       917 1.93740E+01 1.51775E+01 0.00000E+00
 -1       918 1.63741E+01 1.51775E+01 0.00000E+00
 -1       919 5.38005E+01 1.88172E+01 0.00000E+00
 -1       920 6.44316E+01 1.57714E+01 0.00000E+00
 -1       921 1.46820E+01 1.56606E+01 0.00000E+00
 -1       922 2.11500E+01 3.44120E+01 0.00000E+00
 -1       923 8.08745E+01 3.52926E+01 0.00000E+00
 -1       924 4.64905E+01 2.57676E+01 0.00000E+00
 -1       925 7.94472E+01 2.94869E+01 0.00000E+00
 -1       926 2.83740E+01 1.51775E+01 0.00000E+00
 -1       927 7.35395E+01 1.79699E+01 0.00000E+00
 -1       928 4.85345E+01 2.05958E+01 0.00000E+00
 -1       929 7.63477E+01 2.05549E+01 0.00000E+00
 -1       930 1.34412E+02 2.06063E+01 0.00000E+00
 -1       931 1.55880E+01 2.35000E+01 0.00000E+00
 -1       932 8.05762E+01 2.73856E+01 0.00000E+00
 -1       933 1.34505E+02 2.55086E+01 0.00000E+00
 -1       934 8.08982E+01 3.10842E+01 0.00000E+00
 -1       935 1.34458E+02 2.30574E+01 0.00000E+00
 -1       936 1.55880E+01 2.05625E+01 0.00000E+00
 -1       937 1.56748E+01 3.39021E+01 0.00000E+00
 -1       938 2.23740E+01 1.51775E+01 0.00000E+00
 -1       939 1.56748E+01 3.09646E+01 0.00000E+00
 -1       940 8.53500E+01 3.21942E+01 0.00000E+00
 -1       941 4.47290E+01 2.30510E+01 0.00000E+00
 -1       942 2.86500E+01 3.18140E+01 0.00000E+00
 -1       943 3.18000E+01 3.18140E+01 0.00000E+00
 -1       944 3.48000E+01 3.18140E+01 0.00000E+00
 -1       945 3.78000E+01 3.18140E+01 0.00000E+00
 -1       946 4.08000E+01 3.18140E+01 0.00000E+00
 -1       947 4.48740E+01 1.77755E+01 0.00000E+00
 -1       948 5.50506E+01 1.77117E+01 0.00000E+00
 -1       949 4.32888E+01 3.05705E+01 0.00000E+00
 -1       950 2.56500E+01 3.18140E+01 0.00000E+00
 -1       951 8.83500E+01 3.21942E+01 0.00000E+00
 -1       952 9.13500E+01 3.21942E+01 0.00000E+00
 -1       953 9.43500E+01 3.21942E+01 0.00000E+00
 -1       954 9.73500E+01 3.21942E+01 0.00000E+00
 -1       955 1.00500E+02 3.21942E+01 0.00000E+00
 -1       956 1.03500E+02 3.21942E+01 0.00000E+00
 -1       957 1.06500E+02 3.21942E+01 0.00000E+00
 -1       958 1.09500E+02 3.21942E+01 0.00000E+00
 -1       959 1.12500E+02 3.21942E+01 0.00000E+00
 -1       960 1.15500E+02 3.21942E+01 0.00000E+00
 -1       961 1.18500E+02 3.21942E+01 0.00000E+00
 -1       962 1.21500E+02 3.21942E+01 0.00000E+00
 -1       963 1.24500E+02 3.21942E+01 0.00000E+00
 -1       964 1.27500E+02 3.21942E+01 0.00000E+00
 -1       965 1.30500E+02 3.21942E+01 0.00000E+00
 -1       966 1.32503E+02 3.17764E+01 0.00000E+00
 -1       967 3.58740E+01 1.77755E+01 0.00000E+00
 -1       968 1.55880E+01 2.64438E+01 0.00000E+00
 -1       969 4.18740E+01 1.77755E+01 0.00000E+00
 -1       970 3.28740E+01 1.77755E+01 0.00000E+00
 -1       971 4.78740E+01 1.77755E+01 0.00000E+00
 -1       972 7.78740E+01 1.77755E+01 0.00000E+00
 -1       973 8.08740E+01 1.77755E+01 0.00000E+00
 -1       974 8.38740E+01 1.77755E+01 0.00000E+00
 -1       975 8.68740E+01 1.77755E+01 0.00000E+00
 -1       976 8.98740E+01 1.77755E+01 0.00000E+00
 -1       977 9.28740E+01 1.77755E+01 0.00000E+00
 -1       978 9.58740E+01 1.77755E+01 0.00000E+00
 -1       979 9.88740E+01 1.77755E+01 0.00000E+00
 -1       980 1.01874E+02 1.77755E+01 0.00000E+00
 -1       981 1.04874E+02 1.77755E+01 0.00000E+00
 -1       982 1.07874E+02 1.77755E+01 0.00000E+00
 -1       983 1.10874E+02 1.77755E+01 0.00000E+00
 -1       984 1.13874E+02 1.77755E+01 0.00000E+00
 -1       985 1.16874E+02 1.77755E+01 0.00000E+00
 -1       986 1.19874E+02 1.77755E+01 0.00000E+00
 -1       987 1.22874E+02 1.77755E+01 0.00000E+00
 -1       988 1.25874E+02 1.77755E+01 0.00000E+00
 -1       989 1.28874E+02 1.77755E+01 0.00000E+00
 -1       990 1.31874E+02 1.77755E+01 0.00000E+00
 -1       991 7.93477E+01 2.29630E+01 0.00000E+00
 -1       992 1.78740E+01 1.77755E+01 0.00000E+00
 -1       993 1.32503E+02 2.88764E+01 0.00000E+00
 -1       994 1.56314E+01 2.87042E+01 0.00000E+00
 -1       995 2.53740E+01 1.51775E+01 0.00000E+00
 -1       996 2.26500E+01 3.18140E+01 0.00000E+00
 -1       997 5.09971E+01 1.78948E+01 0.00000E+00
 -1       998 1.81500E+01 3.14745E+01 0.00000E+00
 -1       999 4.39594E+01 2.71117E+01 0.00000E+00
 -1      1000 1.51350E+01 1.81116E+01 0.00000E+00
 -1      1001 2.04000E+01 3.16443E+01 0.00000E+00
 -1      1002 3.88740E+01 1.77755E+01 0.00000E+00
 -1      1003 2.98740E+01 1.77755E+01 0.00000E+00
 -1      1004 4.55570E+01 2.01040E+01 0.00000E+00
 -1      1005 8.20489E+01 2.48276E+01 0.00000E+00
 -1      1006 2.08740E+01 1.77755E+01 0.00000E+00
 -1      1007 1.81860E+01 2.49719E+01 0.00000E+00
 -1      1008 8.20272E+01 2.89828E+01 0.00000E+00
 -1      1009 1.32503E+02 2.59264E+01 0.00000E+00
 -1      1010 1.31209E+02 2.09252E+01 0.00000E+00
 -1      1011 1.81860E+01 2.20344E+01 0.00000E+00
 -1      1012 4.26418E+01 2.08748E+01 0.00000E+00
 -1      1013 2.71500E+01 2.92160E+01 0.00000E+00
 -1      1014 4.17917E+01 2.45976E+01 0.00000E+00
 -1      1015 3.33000E+01 2.92160E+01 0.00000E+00
 -1      1016 3.63000E+01 2.92160E+01 0.00000E+00
 -1      1017 3.93000E+01 2.92160E+01 0.00000E+00
 -1      1018 8.68500E+01 2.95962E+01 0.00000E+00
 -1      1019 8.98500E+01 2.95962E+01 0.00000E+00
 -1      1020 9.28500E+01 2.95962E+01 0.00000E+00
 -1      1021 9.58500E+01 2.95962E+01 0.00000E+00
 -1      1022 9.90000E+01 2.95962E+01 0.00000E+00
 -1      1023 1.02000E+02 2.95962E+01 0.00000E+00
 -1      1024 1.05000E+02 2.95962E+01 0.00000E+00
 -1      1025 1.08000E+02 2.95962E+01 0.00000E+00
 -1      1026 1.11000E+02 2.95962E+01 0.00000E+00
 -1      1027 1.14000E+02 2.95962E+01 0.00000E+00
 -1      1028 1.17000E+02 2.95962E+01 0.00000E+00
 -1      1029 1.20000E+02 2.95962E+01 0.00000E+00
 -1      1030 1.23000E+02 2.95962E+01 0.00000E+00
 -1      1031 1.26000E+02 2.95962E+01 0.00000E+00
 -1      1032 1.29000E+02 2.95962E+01 0.00000E+00
 -1      1033 1.30751E+02 2.92363E+01 0.00000E+00
 -1      1034 3.43740E+01 2.03735E+01 0.00000E+00
 -1      1035 8.53740E+01 2.03735E+01 0.00000E+00
 -1      1036 8.23740E+01 2.03735E+01 0.00000E+00
 -1      1037 8.83740E+01 2.03735E+01 0.00000E+00
 -1      1038 9.13740E+01 2.03735E+01 0.00000E+00
 -1      1039 9.43740E+01 2.03735E+01 0.00000E+00
 -1      1040 9.73740E+01 2.03735E+01 0.00000E+00
 -1      1041 1.00374E+02 2.03735E+01 0.00000E+00
 -1      1042 1.03374E+02 2.03735E+01 0.00000E+00
 -1      1043 1.06374E+02 2.03735E+01 0.00000E+00
 -1      1044 1.09374E+02 2.03735E+01 0.00000E+00
 -1      1045 1.12374E+02 2.03735E+01 0.00000E+00
 -1      1046 1.15374E+02 2.03735E+01 0.00000E+00
 -1      1047 1.18374E+02 2.03735E+01 0.00000E+00
 -1      1048 1.21374E+02 2.03735E+01 0.00000E+00
 -1      1049 1.24374E+02 2.03735E+01 0.00000E+00
 -1      1050 1.27374E+02 2.03735E+01 0.00000E+00
 -1      1051 1.31255E+02 2.33764E+01 0.00000E+00
 -1      1052 3.96418E+01 2.08748E+01 0.00000E+00
 -1      1053 1.81066E+01 2.92141E+01 0.00000E+00
 -1      1054 4.16297E+01 2.81639E+01 0.00000E+00
 -1      1055 2.41500E+01 2.92160E+01 0.00000E+00
 -1      1056 3.02250E+01 2.92160E+01 0.00000E+00
 -1      1057 3.70079E+01 2.06242E+01 0.00000E+00
 -1      1058 8.01109E+01 2.03692E+01 0.00000E+00
 -1      1059 3.13740E+01 2.03735E+01 0.00000E+00
 -1      1060 2.68740E+01 1.77755E+01 0.00000E+00
 -1      1061 2.07840E+01 2.35031E+01 0.00000E+00
 -1      1062 1.30751E+02 2.62863E+01 0.00000E+00
 -1      1063 2.38740E+01 1.77755E+01 0.00000E+00
 -1      1064 8.34999E+01 2.64248E+01 0.00000E+00
 -1      1065 1.27421E+02 2.28247E+01 0.00000E+00
 -1      1066 2.03566E+01 2.93838E+01 0.00000E+00
 -1      1067 8.22115E+01 2.26005E+01 0.00000E+00
 -1      1068 1.81463E+01 2.70930E+01 0.00000E+00
 -1      1069 2.07443E+01 2.56242E+01 0.00000E+00
 -1      1070 2.22533E+01 2.92999E+01 0.00000E+00
 -1      1071 2.08290E+01 2.06393E+01 0.00000E+00
 -1      1072 3.78000E+01 2.66180E+01 0.00000E+00
 -1      1073 8.83500E+01 2.69982E+01 0.00000E+00
 -1      1074 9.13500E+01 2.69982E+01 0.00000E+00
 -1      1075 9.43500E+01 2.69982E+01 0.00000E+00
 -1      1076 9.75000E+01 2.69982E+01 0.00000E+00
 -1      1077 1.00500E+02 2.69982E+01 0.00000E+00
 -1      1078 1.03500E+02 2.69982E+01 0.00000E+00
 -1      1079 1.06500E+02 2.69982E+01 0.00000E+00
 -1      1080 1.09500E+02 2.69982E+01 0.00000E+00
 -1      1081 1.12500E+02 2.69982E+01 0.00000E+00
 -1      1082 1.15500E+02 2.69982E+01 0.00000E+00
 -1      1083 1.18500E+02 2.69982E+01 0.00000E+00
 -1      1084 1.21500E+02 2.69982E+01 0.00000E+00
 -1      1085 1.24500E+02 2.69982E+01 0.00000E+00
 -1      1086 1.27500E+02 2.69982E+01 0.00000E+00
 -1      1087 1.29126E+02 2.66422E+01 0.00000E+00
 -1      1088 8.52115E+01 2.26005E+01 0.00000E+00
 -1      1089 8.98740E+01 2.29715E+01 0.00000E+00
 -1      1090 8.75427E+01 2.27860E+01 0.00000E+00
 -1      1091 9.28740E+01 2.29715E+01 0.00000E+00
 -1      1092 9.58740E+01 2.29715E+01 0.00000E+00
 -1      1093 9.88740E+01 2.29715E+01 0.00000E+00
 -1      1094 1.01874E+02 2.29715E+01 0.00000E+00
 -1      1095 1.04874E+02 2.29715E+01 0.00000E+00
 -1      1096 1.07874E+02 2.29715E+01 0.00000E+00
 -1      1097 1.10874E+02 2.29715E+01 0.00000E+00
 -1      1098 1.13874E+02 2.29715E+01 0.00000E+00
 -1      1099 1.16874E+02 2.29715E+01 0.00000E+00
 -1      1100 1.19874E+02 2.29715E+01 0.00000E+00
 -1      1101 1.22874E+02 2.29715E+01 0.00000E+00
 -1      1102 1.25147E+02 2.28981E+01 0.00000E+00
 -1      1103 3.48000E+01 2.66180E+01 0.00000E+00
 -1      1104 3.97958E+01 2.56078E+01 0.00000E+00
 -1      1105 2.56500E+01 2.66180E+01 0.00000E+00
 -1      1106 3.84019E+01 2.31160E+01 0.00000E+00
 -1      1107 2.83740E+01 2.03735E+01 0.00000E+00
 -1      1108 3.57680E+01 2.28653E+01 0.00000E+00
 -1      1109 2.38290E+01 2.06393E+01 0.00000E+00
 -1      1110 2.87250E+01 2.66180E+01 0.00000E+00
 -1      1111 3.27680E+01 2.28653E+01 0.00000E+00
 -1      1112 2.37533E+01 2.67019E+01 0.00000E+00
 -1      1113 8.43557E+01 2.45127E+01 0.00000E+00
 -1      1114 2.33617E+01 2.46123E+01 0.00000E+00
 -1      1115 3.17625E+01 2.66180E+01 0.00000E+00
 -1      1116 2.71875E+01 2.40200E+01 0.00000E+00
 -1      1117 2.97680E+01 2.28653E+01 0.00000E+00
 -1      1118 2.52746E+01 2.43162E+01 0.00000E+00
 -1      1119 0.00000E+00 4.85250E+01 0.00000E+00
 -1      1120 0.00000E+00 4.55750E+01 0.00000E+00
 -1      1121 0.00000E+00 4.26250E+01 0.00000E+00
 -1      1122 0.00000E+00 3.96750E+01 0.00000E+00
 -1      1123 0.00000E+00 3.67250E+01 0.00000E+00
 -1      1124 0.00000E+00 3.38000E+01 0.00000E+00
 -1      1125 0.00000E+00 3.08750E+01 0.00000E+00
 -1      1126 0.00000E+00 2.79250E+01 0.00000E+00
 -1      1127 0.00000E+00 2.49750E+01 0.00000E+00
 -1      1128 0.00000E+00 2.20250E+01 0.00000E+00
 -1      1129 0.00000E+00 1.90750E+01 0.00000E+00
 -1      1130 0.00000E+00 1.61500E+01 0.00000E+00
 -1      1131 0.00000E+00 1.32250E+01 0.00000E+00
 -1      1132 0.00000E+00 1.02750E+01 0.00000E+00
 -1      1133 0.00000E+00 7.32500E+00 0.00000E+00
 -1      1134 0.00000E+00 4.37500E+00 0.00000E+00
 -1      1135 0.00000E+00 1.45000E+00 0.00000E+00
 -1      1136 1.57500E+00 5.00000E+01 0.00000E+00
 -1      1137 4.65000E+00 5.00000E+01 0.00000E+00
 -1      1138 7.65000E+00 5.00000E+01 0.00000E+00
 -1      1139 1.06500E+01 5.00000E+01 0.00000E+00
 -1      1140 1.36500E+01 5.00000E+01 0.00000E+00
 -1      1141 1.66500E+01 5.00000E+01 0.00000E+00
 -1      1142 1.96500E+01 5.00000E+01 0.00000E+00
 -1      1143 2.26500E+01 5.00000E+01 0.00000E+00
 -1      1144 2.56500E+01 5.00000E+01 0.00000E+00
 -1      1145 2.86500E+01 5.00000E+01 0.00000E+00
 -1      1146 3.16500E+01 5.00000E+01 0.00000E+00
 -1      1147 3.46500E+01 5.00000E+01 0.00000E+00
 -1      1148 3.76500E+01 5.00000E+01 0.00000E+00
 -1      1149 4.07250E+01 5.00000E+01 0.00000E+00
 -1      1150 4.38000E+01 5.00000E+01 0.00000E+00
 -1      1151 4.68000E+01 5.00000E+01 0.00000E+00
 -1      1152 4.98000E+01 5.00000E+01 0.00000E+00
 -1      1153 5.28000E+01 5.00000E+01 0.00000E+00
 -1      1154 5.58000E+01 5.00000E+01 0.00000E+00
 -1      1155 5.88000E+01 5.00000E+01 0.00000E+00
 -1      1156 6.16500E+01 5.00000E+01 0.00000E+00
 -1      1157 6.43500E+01 5.00000E+01 0.00000E+00
 -1      1158 6.72000E+01 5.00000E+01 0.00000E+00
 -1      1159 7.02750E+01 5.00000E+01 0.00000E+00
 -1      1160 7.33500E+01 5.00000E+01 0.00000E+00
 -1      1161 7.63500E+01 5.00000E+01 0.00000E+00
 -1      1162 7.93500E+01 5.00000E+01 0.00000E+00
 -1      1163 8.23500E+01 5.00000E+01 0.00000E+00
 -1      1164 8.53500E+01 5.00000E+01 0.00000E+00
 -1      1165 8.83500E+01 5.00000E+01 0.00000E+00
 -1      1166 9.13500E+01 5.00000E+01 0.00000E+00
 -1      1167 9.43500E+01 5.00000E+01 0.00000E+00
 -1      1168 9.73500E+01 5.00000E+01 0.00000E+00
 -1      1169 1.00350E+02 5.00000E+01 0.00000E+00
 -1      1170 1.03350E+02 5.00000E+01 0.00000E+00
 -1      1171 1.06350E+02 5.00000E+01 0.00000E+00
 -1      1172 1.09425E+02 5.00000E+01 0.00000E+00
 -1      1173 1.12500E+02 5.00000E+01 0.00000E+00
 -1      1174 1.15500E+02 5.00000E+01 0.00000E+00
 -1      1175 1.18500E+02 5.00000E+01 0.00000E+00
 -1      1176 1.21500E+02 5.00000E+01 0.00000E+00
 -1      1177 1.24500E+02 5.00000E+01 0.00000E+00
 -1      1178 1.27500E+02 5.00000E+01 0.00000E+00
 -1      1179 1.30500E+02 5.00000E+01 0.00000E+00
 -1      1180 1.33500E+02 5.00000E+01 0.00000E+00
 -1      1181 1.36500E+02 5.00000E+01 0.00000E+00
 -1      1182 1.39500E+02 5.00000E+01 0.00000E+00
 -1      1183 1.42500E+02 5.00000E+01 0.00000E+00
 -1      1184 1.45500E+02 5.00000E+01 0.00000E+00
 -1      1185 1.48500E+02 5.00000E+01 0.00000E+00
 -1      1186 1.57500E+00 0.00000E+00 0.00000E+00
 -1      1187 4.65000E+00 0.00000E+00 0.00000E+00
 -1      1188 7.65000E+00 0.00000E+00 0.00000E+00
 -1      1189 1.06500E+01 0.00000E+00 0.00000E+00
 -1      1190 1.36500E+01 0.00000E+00 0.00000E+00
 -1      1191 1.66500E+01 0.00000E+00 0.00000E+00
 -1      1192 1.96500E+01 0.00000E+00 0.00000E+00
 -1      1193 2.26500E+01 0.00000E+00 0.00000E+00
 -1      1194 2.56500E+01 0.00000E+00 0.00000E+00
 -1      1195 2.86500E+01 0.00000E+00 0.00000E+00
 -1      1196 3.16500E+01 0.00000E+00 0.00000E+00
 -1      1197 3.46500E+01 0.00000E+00 0.00000E+00
 -1      1198 3.76500E+01 0.00000E+00 0.00000E+00
 -1      1199 4.06500E+01 0.00000E+00 0.00000E+00
 -1      1200 4.36500E+01 0.00000E+00 0.00000E+00
 -1      1201 4.66500E+01 0.00000E+00 0.00000E+00
 -1      1202 4.96500E+01 0.00000E+00 0.00000E+00
 -1      1203 5.26500E+01 0.00000E+00 0.00000E+00
 -1      1204 5.56500E+01 0.00000E+00 0.00000E+00
 -1      1205 5.86500E+01 0.00000E+00 0.00000E+00
 -1      1206 6.16500E+01 0.00000E+00 0.00000E+00
 -1      1207 6.46500E+01 0.00000E+00 0.00000E+00
 -1      1208 6.76500E+01 0.00000E+00 0.00000E+00
 -1      1209 7.06500E+01 0.00000E+00 0.00000E+00
 -1      1210 7.36500E+01 0.00000E+00 0.00000E+00
 -1      1211 7.66500E+01 0.00000E+00 0.00000E+00
 -1      1212 7.96500E+01 0.00000E+00 0.00000E+00
 -1      1213 8.26500E+01 0.00000E+00 0.00000E+00
 -1      1214 8.56500E+01 0.00000E+00 0.00000E+00
 -1      1215 8.86500E+01 0.00000E+00 0.00000E+00
 -1      1216 9.16500E+01 0.00000E+00 0.00000E+00
 -1      1217 9.46500E+01 0.00000E+00 0.00000E+00
 -1      1218 9.76500E+01 0.00000E+00 0.00000E+00
 -1      1219 1.00650E+02 0.00000E+00 0.00000E+00
 -1      1220 1.03650E+02 0.00000E+00 0.00000E+00
 -1      1221 1.06650E+02 0.00000E+00 0.00000E+00
 -1      1222 1.09650E+02 0.00000E+00 0.00000E+00
 -1      1223 1.12650E+02 0.00000E+00 0.00000E+00
 -1      1224 1.15650E+02 0.00000E+00 0.00000E+00
 -1      1225 1.18650E+02 0.00000E+00 0.00000E+00
 -1      1226 1.21650E+02 0.00000E+00 0.00000E+00
 -1      1227 1.24650E+02 0.00000E+00 0.00000E+00
 -1      1228 1.27650E+02 0.00000E+00 0.00000E+00
 -1      1229 1.30650E+02 0.00000E+00 0.00000E+00
 -1      1230 1.33650E+02 0.00000E+00 0.00000E+00
 -1      1231 1.36650E+02 0.00000E+00 0.00000E+00
 -1      1232 1.39650E+02 0.00000E+00 0.00000E+00
 -1      1233 1.42650E+02 0.00000E+00 0.00000E+00
 -1      1234 1.45650E+02 0.00000E+00 0.00000E+00
 -1      1235 1.48575E+02 0.00000E+00 0.00000E+00
 -1      1236 1.50000E+02 1.47500E+00 0.00000E+00
 -1      1237 1.50000E+02 4.42500E+00 0.00000E+00
 -1      1238 1.50000E+02 7.37500E+00 0.00000E+00
 -1      1239 1.50000E+02 1.03250E+01 0.00000E+00
 -1      1240 1.50000E+02 1.32750E+01 0.00000E+00
 -1      1241 1.50000E+02 1.62000E+01 0.00000E+00
 -1      1242 1.50000E+02 1.91250E+01 0.00000E+00
 -1      1243 1.50000E+02 2.20750E+01 0.00000E+00
 -1      1244 1.50000E+02 2.50250E+01 0.00000E+00
 -1      1245 1.50000E+02 2.79750E+01 0.00000E+00
 -1      1246 1.50000E+02 3.09250E+01 0.00000E+00
 -1      1247 1.50000E+02 3.38500E+01 0.00000E+00
 -1      1248 1.50000E+02 3.67750E+01 0.00000E+00
 -1      1249 1.50000E+02 3.97250E+01 0.00000E+00
 -1      1250 1.50000E+02 4.26750E+01 0.00000E+00
 -1      1251 1.50000E+02 4.56250E+01 0.00000E+00
 -1      1252 1.50000E+02 4.85500E+01 0.00000E+00
 -1      1253 6.91254E+01 3.20818E+01 0.00000E+00
 -1      1254 6.88341E+01 3.06887E+01 0.00000E+00
 -1      1255 6.82767E+01 2.94007E+01 0.00000E+00
 -1      1256 6.74641E+01 2.82386E+01 0.00000E+00
 -1      1257 6.64296E+01 2.72609E+01 0.00000E+00
 -1      1258 6.52239E+01 2.65151E+01 0.00000E+00
 -1      1259 6.38963E+01 2.60285E+01 0.00000E+00
 -1      1260 6.24531E+01 2.58166E+01 0.00000E+00
 -1      1261 6.09861E+01 2.59104E+01 0.00000E+00
 -1      1262 5.95254E+01 2.63268E+01 0.00000E+00
 -1      1263 5.81727E+01 2.70596E+01 0.00000E+00
 -1      1264 5.70664E+01 2.80128E+01 0.00000E+00
 -1      1265 5.62083E+01 2.91314E+01 0.00000E+00
 -1      1266 5.55858E+01 3.04160E+01 0.00000E+00
 -1      1267 5.52312E+01 3.18394E+01 0.00000E+00
 -1      1268 5.51779E+01 3.32603E+01 0.00000E+00
 -1      1269 5.54088E+01 3.46476E+01 0.00000E+00
 -1      1270 5.59718E+01 3.60762E+01 0.00000E+00
 -1      1271 5.68097E+01 3.73203E+01 0.00000E+00
 -1      1272 5.78249E+01 3.83040E+01 0.00000E+00
 -1      1273 5.90519E+01 3.90810E+01 0.00000E+00
 -1      1274 6.04214E+01 3.95904E+01 0.00000E+00
 -1      1275 6.18654E+01 3.98043E+01 0.00000E+00
 -1      1276 6.33795E+01 3.97042E+01 0.00000E+00
 -1      1277 6.49076E+01 3.92503E+01 0.00000E+00
 -1      1278 6.62485E+01 3.84950E+01 0.00000E+00
 -1      1279 6.73516E+01 3.75099E+01 0.00000E+00
 -1      1280 6.82141E+01 3.63306E+01 0.00000E+00
 -1      1281 6.88192E+01 3.49789E+01 0.00000E+00
 -1      1282 6.91260E+01 3.35342E+01 0.00000E+00
 -1      1283 1.57500E+00 4.85250E+01 0.00000E+00
 -1      1284 1.29900E+00 4.48375E+01 0.00000E+00
 -1      1285 1.29900E+00 4.63125E+01 0.00000E+00
 -1      1286 1.29900E+00 4.18875E+01 0.00000E+00
 -1      1287 1.29900E+00 4.33625E+01 0.00000E+00
 -1      1288 2.59800E+00 4.41000E+01 0.00000E+00
 -1      1289 1.29900E+00 3.89375E+01 0.00000E+00
 -1      1290 1.29900E+00 4.04125E+01 0.00000E+00
 -1      1291 2.59800E+00 4.11500E+01 0.00000E+00
 -1      1292 1.29900E+00 3.59875E+01 0.00000E+00
 -1      1293 1.29900E+00 3.74625E+01 0.00000E+00
 -1      1294 2.59800E+00 3.82000E+01 0.00000E+00
 -1      1295 1.29900E+00 3.30875E+01 0.00000E+00
 -1      1296 1.29900E+00 3.45375E+01 0.00000E+00
 -1      1297 2.59800E+00 3.52750E+01 0.00000E+00
 -1      1298 1.29900E+00 3.01375E+01 0.00000E+00
 -1      1299 1.29900E+00 3.16125E+01 0.00000E+00
 -1      1300 2.59800E+00 3.23500E+01 0.00000E+00
 -1      1301 1.29900E+00 2.71875E+01 0.00000E+00
 -1      1302 1.29900E+00 2.86625E+01 0.00000E+00
 -1      1303 2.59800E+00 2.94000E+01 0.00000E+00
 -1      1304 1.29900E+00 2.42375E+01 0.00000E+00
 -1      1305 1.29900E+00 2.57125E+01 0.00000E+00
 -1      1306 2.59800E+00 2.64500E+01 0.00000E+00
 -1      1307 1.29900E+00 2.12875E+01 0.00000E+00
 -1      1308 1.29900E+00 2.27625E+01 0.00000E+00
 -1      1309 2.59800E+00 2.35000E+01 0.00000E+00
 -1      1310 1.29900E+00 1.83375E+01 0.00000E+00
 -1      1311 1.29900E+00 1.98125E+01 0.00000E+00
 -1      1312 2.59800E+00 2.05500E+01 0.00000E+00
 -1      1313 1.29900E+00 1.54375E+01 0.00000E+00
 -1      1314 1.29900E+00 1.68875E+01 0.00000E+00
 -1      1315 2.59800E+00 1.76250E+01 0.00000E+00
 -1      1316 1.29900E+00 1.24875E+01 0.00000E+00
 -1      1317 1.29900E+00 1.39625E+01 0.00000E+00
 -1      1318 2.59800E+00 1.47000E+01 0.00000E+00
 -1      1319 1.29900E+00 9.53750E+00 0.00000E+00
 -1      1320 1.29900E+00 1.10125E+01 0.00000E+00
 -1      1321 2.59800E+00 1.17500E+01 0.00000E+00
 -1      1322 1.29900E+00 6.58750E+00 0.00000E+00
 -1      1323 1.29900E+00 8.06250E+00 0.00000E+00
 -1      1324 2.59800E+00 8.80000E+00 0.00000E+00
 -1      1325 1.29900E+00 3.63750E+00 0.00000E+00
 -1      1326 1.29900E+00 5.11250E+00 0.00000E+00
 -1      1327 2.59800E+00 5.85000E+00 0.00000E+00
 -1      1328 1.43700E+00 1.09375E+00 0.00000E+00
 -1      1329 1.43700E+00 2.54375E+00 0.00000E+00
 -1      1330 2.73600E+00 3.28125E+00 0.00000E+00
 -1      1331 3.01200E+00 1.09375E+00 0.00000E+00
 -1      1332 3.90000E+00 4.87010E+01 0.00000E+00
 -1      1333 5.40000E+00 4.87010E+01 0.00000E+00
 -1      1334 6.90000E+00 4.87010E+01 0.00000E+00
 -1      1335 8.40000E+00 4.87010E+01 0.00000E+00
 -1      1336 6.15000E+00 4.74020E+01 0.00000E+00
 -1      1337 9.90000E+00 4.87010E+01 0.00000E+00
 -1      1338 1.14000E+01 4.87010E+01 0.00000E+00
 -1      1339 9.15000E+00 4.74020E+01 0.00000E+00
 -1      1340 1.29000E+01 4.87010E+01 0.00000E+00
 -1      1341 1.44000E+01 4.87010E+01 0.00000E+00
 -1      1342 1.21500E+01 4.74020E+01 0.00000E+00
 -1      1343 1.59000E+01 4.87010E+01 0.00000E+00
 -1      1344 1.74000E+01 4.87010E+01 0.00000E+00
 -1      1345 1.51500E+01 4.74020E+01 0.00000E+00
 -1      1346 1.89000E+01 4.87010E+01 0.00000E+00
 -1      1347 2.04000E+01 4.87010E+01 0.00000E+00
 -1      1348 1.81500E+01 4.74020E+01 0.00000E+00
 -1      1349 2.19000E+01 4.87010E+01 0.00000E+00
 -1      1350 2.34000E+01 4.87010E+01 0.00000E+00
 -1      1351 2.11500E+01 4.74020E+01 0.00000E+00
 -1      1352 2.49000E+01 4.87010E+01 0.00000E+00
 -1      1353 2.64000E+01 4.87010E+01 0.00000E+00
 -1      1354 2.41500E+01 4.74020E+01 0.00000E+00
 -1      1355 2.79000E+01 4.87010E+01 0.00000E+00
 -1      1356 2.94000E+01 4.87010E+01 0.00000E+00
 -1      1357 2.71500E+01 4.74020E+01 0.00000E+00
 -1      1358 3.09000E+01 4.87010E+01 0.00000E+00
 -1      1359 3.24000E+01 4.87010E+01 0.00000E+00
 -1      1360 3.01500E+01 4.74020E+01 0.00000E+00
 -1      1361 3.39000E+01 4.87010E+01 0.00000E+00
 -1      1362 3.54000E+01 4.87010E+01 0.00000E+00
 -1      1363 3.31500E+01 4.74020E+01 0.00000E+00
 -1      1364 3.69000E+01 4.87010E+01 0.00000E+00
 -1      1365 3.84000E+01 4.87010E+01 0.00000E+00
 -1      1366 3.61500E+01 4.74020E+01 0.00000E+00
 -1      1367 3.99750E+01 4.87010E+01 0.00000E+00
 -1      1368 4.15500E+01 4.87010E+01 0.00000E+00
 -1      1369 3.92250E+01 4.74020E+01 0.00000E+00
 -1      1370 4.30500E+01 4.87010E+01 0.00000E+00
 -1      1371 4.45500E+01 4.87010E+01 0.00000E+00
 -1      1372 4.23000E+01 4.74020E+01 0.00000E+00
 -1      1373 4.60500E+01 4.87010E+01 0.00000E+00
 -1      1374 4.75500E+01 4.87010E+01 0.00000E+00
 -1      1375 4.53000E+01 4.74020E+01 0.00000E+00
 -1      1376 4.90500E+01 4.87010E+01 0.00000E+00
 -1      1377 5.05500E+01 4.87010E+01 0.00000E+00
 -1      1378 4.83000E+01 4.74020E+01 0.00000E+00
 -1      1379 5.20500E+01 4.87010E+01 0.00000E+00
 -1      1380 5.35500E+01 4.87010E+01 0.00000E+00
 -1      1381 5.13000E+01 4.74020E+01 0.00000E+00
 -1      1382 5.50500E+01 4.87010E+01 0.00000E+00
 -1      1383 5.65500E+01 4.87010E+01 0.00000E+00
 -1      1384 5.43000E+01 4.74020E+01 0.00000E+00
 -1      1385 5.80500E+01 4.87010E+01 0.00000E+00
 -1      1386 5.95500E+01 4.87010E+01 0.00000E+00
 -1      1387 5.73000E+01 4.74020E+01 0.00000E+00
 -1      1388 6.09000E+01 4.87010E+01 0.00000E+00
 -1      1389 6.22500E+01 4.87010E+01 0.00000E+00
 -1      1390 6.01500E+01 4.74020E+01 0.00000E+00
 -1      1391 6.36000E+01 4.87010E+01 0.00000E+00
 -1      1392 6.49500E+01 4.87010E+01 0.00000E+00
 -1      1393 6.28500E+01 4.74020E+01 0.00000E+00
 -1      1394 6.64500E+01 4.87010E+01 0.00000E+00
 -1      1395 6.79500E+01 4.87010E+01 0.00000E+00
 -1      1396 6.57000E+01 4.74020E+01 0.00000E+00
 -1      1397 6.95250E+01 4.87010E+01 0.00000E+00
 -1      1398 7.11000E+01 4.87010E+01 0.00000E+00
 -1      1399 6.87750E+01 4.74020E+01 0.00000E+00
 -1      1400 7.26000E+01 4.87010E+01 0.00000E+00
 -1      1401 7.41000E+01 4.87010E+01 0.00000E+00
 -1      1402 7.18500E+01 4.74020E+01 0.00000E+00
 -1      1403 7.56000E+01 4.87010E+01 0.00000E+00
 -1      1404 7.71000E+01 4.87010E+01 0.00000E+00
 -1      1405 7.48500E+01 4.74020E+01 0.00000E+00
 -1      1406 7.86000E+01 4.87010E+01 0.00000E+00
 -1      1407 8.01000E+01 4.87010E+01 0.00000E+00
 -1      1408 7.78500E+01 4.74020E+01 0.00000E+00
 -1      1409 8.16000E+01 4.87010E+01 0.00000E+00
 -1      1410 8.31000E+01 4.87010E+01 0.00000E+00
 -1      1411 8.08500E+01 4.74020E+01 0.00000E+00
 -1      1412 8.46000E+01 4.87010E+01 0.00000E+00
 -1      1413 8.61000E+01 4.87010E+01 0.00000E+00
 -1      1414 8.38500E+01 4.74020E+01 0.00000E+00
 -1      1415 8.76000E+01 4.87010E+01 0.00000E+00
 -1      1416 8.91000E+01 4.87010E+01 0.00000E+00
 -1      1417 8.68500E+01 4.74020E+01 0.00000E+00
 -1      1418 9.06000E+01 4.87010E+01 0.00000E+00
 -1      1419 9.21000E+01 4.87010E+01 0.00000E+00
 -1      1420 8.98500E+01 4.74020E+01 0.00000E+00
 -1      1421 9.36000E+01 4.87010E+01 0.00000E+00
 -1      1422 9.51000E+01 4.87010E+01 0.00000E+00
 -1      1423 9.28500E+01 4.74020E+01 0.00000E+00
 -1      1424 9.66000E+01 4.87010E+01 0.00000E+00
 -1      1425 9.81000E+01 4.87010E+01 0.00000E+00
 -1      1426 9.58500E+01 4.74020E+01 0.00000E+00
 -1      1427 9.96000E+01 4.87010E+01 0.00000E+00
 -1      1428 1.01100E+02 4.87010E+01 0.00000E+00
 -1      1429 9.88500E+01 4.74020E+01 0.00000E+00
 -1      1430 1.02600E+02 4.87010E+01 0.00000E+00
 -1      1431 1.04100E+02 4.87010E+01 0.00000E+00
 -1      1432 1.01850E+02 4.74020E+01 0.00000E+00
 -1      1433 1.05600E+02 4.87010E+01 0.00000E+00
 -1      1434 1.07100E+02 4.87010E+01 0.00000E+00
 -1      1435 1.04850E+02 4.74020E+01 0.00000E+00
 -1      1436 1.08675E+02 4.87010E+01 0.00000E+00
 -1      1437 1.10250E+02 4.87010E+01 0.00000E+00
 -1      1438 1.07925E+02 4.74020E+01 0.00000E+00
 -1      1439 1.11750E+02 4.87010E+01 0.00000E+00
 -1      1440 1.13250E+02 4.87010E+01 0.00000E+00
 -1      1441 1.11000E+02 4.74020E+01 0.00000E+00
 -1      1442 1.14750E+02 4.87010E+01 0.00000E+00
 -1      1443 1.16250E+02 4.87010E+01 0.00000E+00
 -1      1444 1.14000E+02 4.74020E+01 0.00000E+00
 -1      1445 1.17750E+02 4.87010E+01 0.00000E+00
 -1      1446 1.19250E+02 4.87010E+01 0.00000E+00
 -1      1447 1.17000E+02 4.74020E+01 0.00000E+00
 -1      1448 1.20750E+02 4.87010E+01 0.00000E+00
 -1      1449 1.22250E+02 4.87010E+01 0.00000E+00
 -1      1450 1.20000E+02 4.74020E+01 0.00000E+00
 -1      1451 1.23750E+02 4.87010E+01 0.00000E+00
 -1      1452 1.25250E+02 4.87010E+01 0.00000E+00
 -1      1453 1.23000E+02 4.74020E+01 0.00000E+00
 -1      1454 1.26750E+02 4.87010E+01 0.00000E+00
 -1      1455 1.28250E+02 4.87010E+01 0.00000E+00
 -1      1456 1.26000E+02 4.74020E+01 0.00000E+00
 -1      1457 1.29750E+02 4.87010E+01 0.00000E+00
 -1      1458 1.31250E+02 4.87010E+01 0.00000E+00
 -1      1459 1.29000E+02 4.74020E+01 0.00000E+00
 -1      1460 1.32750E+02 4.87010E+01 0.00000E+00
 -1      1461 1.34250E+02 4.87010E+01 0.00000E+00
 -1      1462 1.32000E+02 4.74020E+01 0.00000E+00
 -1      1463 1.35750E+02 4.87010E+01 0.00000E+00
 -1      1464 1.37250E+02 4.87010E+01 0.00000E+00
 -1      1465 1.35000E+02 4.74020E+01 0.00000E+00
 -1      1466 1.38750E+02 4.87010E+01 0.00000E+00
 -1      1467 1.40250E+02 4.87010E+01 0.00000E+00
 -1      1468 1.38000E+02 4.74020E+01 0.00000E+00
 -1      1469 1.41750E+02 4.87010E+01 0.00000E+00
 -1      1470 1.43250E+02 4.87010E+01 0.00000E+00
 -1      1471 1.41000E+02 4.74020E+01 0.00000E+00
 -1      1472 1.44750E+02 4.87010E+01 0.00000E+00
 -1      1473 1.46250E+02 4.87010E+01 0.00000E+00
 -1      1474 1.44000E+02 4.74020E+01 0.00000E+00
 -1      1475 1.47375E+02 4.86255E+01 0.00000E+00
 -1      1476 1.48875E+02 4.86255E+01 0.00000E+00
 -1      1477 1.48875E+02 4.71755E+01 0.00000E+00
 -1      1478 1.46625E+02 4.73265E+01 0.00000E+00
 -1      1479 6.01200E+00 1.09375E+00 0.00000E+00
 -1      1480 4.51200E+00 1.09375E+00 0.00000E+00
 -1      1481 4.37400E+00 2.18750E+00 0.00000E+00
 -1      1482 9.01200E+00 1.09375E+00 0.00000E+00
 -1      1483 7.51200E+00 1.09375E+00 0.00000E+00
 -1      1484 7.37400E+00 2.18750E+00 0.00000E+00
 -1      1485 1.20120E+01 1.09375E+00 0.00000E+00
 -1      1486 1.05120E+01 1.09375E+00 0.00000E+00
 -1      1487 1.03740E+01 2.18750E+00 0.00000E+00
 -1      1488 1.50120E+01 1.09375E+00 0.00000E+00
 -1      1489 1.35120E+01 1.09375E+00 0.00000E+00
 -1      1490 1.33740E+01 2.18750E+00 0.00000E+00
 -1      1491 1.80120E+01 1.09375E+00 0.00000E+00
 -1      1492 1.65120E+01 1.09375E+00 0.00000E+00
 -1      1493 1.63740E+01 2.18750E+00 0.00000E+00
 -1      1494 2.10120E+01 1.09375E+00 0.00000E+00
 -1      1495 1.95120E+01 1.09375E+00 0.00000E+00
 -1      1496 1.93740E+01 2.18750E+00 0.00000E+00
 -1      1497 2.40120E+01 1.09375E+00 0.00000E+00
 -1      1498 2.25120E+01 1.09375E+00 0.00000E+00
 -1      1499 2.23740E+01 2.18750E+00 0.00000E+00
 -1      1500 2.70120E+01 1.09375E+00 0.00000E+00
 -1      1501 2.55120E+01 1.09375E+00 0.00000E+00
 -1      1502 2.53740E+01 2.18750E+00 0.00000E+00
 -1      1503 3.00120E+01 1.09375E+00 0.00000E+00
 -1      1504 2.85120E+01 1.09375E+00 0.00000E+00
 -1      1505 2.83740E+01 2.18750E+00 0.00000E+00
 -1      1506 3.30120E+01 1.09375E+00 0.00000E+00
 -1      1507 3.15120E+01 1.09375E+00 0.00000E+00
 -1      1508 3.13740E+01 2.18750E+00 0.00000E+00
 -1      1509 3.60120E+01 1.09375E+00 0.00000E+00
 -1      1510 3.45120E+01 1.09375E+00 0.00000E+00
 -1      1511 3.43740E+01 2.18750E+00 0.00000E+00
 -1      1512 3.90120E+01 1.09375E+00 0.00000E+00
 -1      1513 3.75120E+01 1.09375E+00 0.00000E+00
 -1      1514 3.73740E+01 2.18750E+00 0.00000E+00
 -1      1515 4.20120E+01 1.09375E+00 0.00000E+00
 -1      1516 4.05120E+01 1.09375E+00 0.00000E+00
 -1      1517 4.03740E+01 2.18750E+00 0.00000E+00
 -1      1518 4.50120E+01 1.09375E+00 0.00000E+00
 -1      1519 4.35120E+01 1.09375E+00 0.00000E+00
 -1      1520 4.33740E+01 2.18750E+00 0.00000E+00
 -1      1521 4.80120E+01 1.09375E+00 0.00000E+00
 -1      1522 4.65120E+01 1.09375E+00 0.00000E+00
 -1      1523 4.63740E+01 2.18750E+00 0.00000E+00
 -1      1524 5.10120E+01 1.09375E+00 0.00000E+00
 -1      1525 4.95120E+01 1.09375E+00 0.00000E+00
 -1      1526 4.93740E+01 2.18750E+00 0.00000E+00
 -1      1527 5.40120E+01 1.09375E+00 0.00000E+00
 -1      1528 5.25120E+01 1.09375E+00 0.00000E+00
 -1      1529 5.23740E+01 2.18750E+00 0.00000E+00
 -1      1530 5.70120E+01 1.09375E+00 0.00000E+00
 -1      1531 5.55120E+01 1.09375E+00 0.00000E+00
 -1      1532 5.53740E+01 2.18750E+00 0.00000E+00
 -1      1533 6.00120E+01 1.09375E+00 0.00000E+00
 -1      1534 5.85120E+01 1.09375E+00 0.00000E+00
 -1      1535 5.83740E+01 2.18750E+00 0.00000E+00
 -1      1536 6.30120E+01 1.09375E+00 0.00000E+00
 -1      1537 6.15120E+01 1.09375E+00 0.00000E+00
 -1      1538 6.13740E+01 2.18750E+00 0.00000E+00
 -1      1539 6.60120E+01 1.09375E+00 0.00000E+00
 -1      1540 6.45120E+01 1.09375E+00 0.00000E+00
 -1      1541 6.43740E+01 2.18750E+00 0.00000E+00
 -1      1542 6.90120E+01 1.09375E+00 0.00000E+00
 -1      1543 6.75120E+01 1.09375E+00 0.00000E+00
 -1      1544 6.73740E+01 2.18750E+00 0.00000E+00
 -1      1545 7.20120E+01 1.09375E+00 0.00000E+00
 -1      1546 7.05120E+01 1.09375E+00 0.00000E+00
 -1      1547 7.03740E+01 2.18750E+00 0.00000E+00
 -1      1548 7.50120E+01 1.09375E+00 0.00000E+00
 -1      1549 7.35120E+01 1.09375E+00 0.00000E+00
 -1      1550 7.33740E+01 2.18750E+00 0.00000E+00
 -1      1551 7.80120E+01 1.09375E+00 0.00000E+00
 -1      1552 7.65120E+01 1.09375E+00 0.00000E+00
 -1      1553 7.63740E+01 2.18750E+00 0.00000E+00
 -1      1554 8.10120E+01 1.09375E+00 0.00000E+00
 -1      1555 7.95120E+01 1.09375E+00 0.00000E+00
 -1      1556 7.93740E+01 2.18750E+00 0.00000E+00
 -1      1557 8.40120E+01 1.09375E+00 0.00000E+00
 -1      1558 8.25120E+01 1.09375E+00 0.00000E+00
 -1      1559 8.23740E+01 2.18750E+00 0.00000E+00
 -1      1560 8.70120E+01 1.09375E+00 0.00000E+00
 -1      1561 8.55120E+01 1.09375E+00 0.00000E+00
 -1      1562 8.53740E+01 2.18750E+00 0.00000E+00
 -1      1563 9.00120E+01 1.09375E+00 0.00000E+00
 -1      1564 8.85120E+01 1.09375E+00 0.00000E+00
 -1      1565 8.83740E+01 2.18750E+00 0.00000E+00
 -1      1566 9.30120E+01 1.09375E+00 0.00000E+00
 -1      1567 9.15120E+01 1.09375E+00 0.00000E+00
 -1      1568 9.13740E+01 2.18750E+00 0.00000E+00
 -1      1569 9.60120E+01 1.09375E+00 0.00000E+00
 -1      1570 9.45120E+01 1.09375E+00 0.00000E+00
 -1      1571 9.43740E+01 2.18750E+00 0.00000E+00
 -1      1572 9.90120E+01 1.09375E+00 0.00000E+00
 -1      1573 9.75120E+01 1.09375E+00 0.00000E+00
 -1      1574 9.73740E+01 2.18750E+00 0.00000E+00
 -1      1575 1.02012E+02 1.09375E+00 0.00000E+00
 -1      1576 1.00512E+02 1.09375E+00 0.00000E+00
 -1      1577 1.00374E+02 2.18750E+00 0.00000E+00
 -1      1578 1.05012E+02 1.09375E+00 0.00000E+00
 -1      1579 1.03512E+02 1.09375E+00 0.00000E+00
 -1      1580 1.03374E+02 2.18750E+00 0.00000E+00
 -1      1581 1.08012E+02 1.09375E+00 0.00000E+00
 -1      1582 1.06512E+02 1.09375E+00 0.00000E+00
 -1      1583 1.06374E+02 2.18750E+00 0.00000E+00
 -1      1584 1.11012E+02 1.09375E+00 0.00000E+00
 -1      1585 1.09512E+02 1.09375E+00 0.00000E+00
 -1      1586 1.09374E+02 2.18750E+00 0.00000E+00
 -1      1587 1.14012E+02 1.09375E+00 0.00000E+00
 -1      1588 1.12512E+02 1.09375E+00 0.00000E+00
 -1      1589 1.12374E+02 2.18750E+00 0.00000E+00
 -1      1590 1.17012E+02 1.09375E+00 0.00000E+00
 -1      1591 1.15512E+02 1.09375E+00 0.00000E+00
 -1      1592 1.15374E+02 2.18750E+00 0.00000E+00
 -1      1593 1.20012E+02 1.09375E+00 0.00000E+00
 -1      1594 1.18512E+02 1.09375E+00 0.00000E+00
 -1      1595 1.18374E+02 2.18750E+00 0.00000E+00
 -1      1596 1.23012E+02 1.09375E+00 0.00000E+00
 -1      1597 1.21512E+02 1.09375E+00 0.00000E+00
 -1      1598 1.21374E+02 2.18750E+00 0.00000E+00
 -1      1599 1.26012E+02 1.09375E+00 0.00000E+00
 -1      1600 1.24512E+02 1.09375E+00 0.00000E+00
 -1      1601 1.24374E+02 2.18750E+00 0.00000E+00
 -1      1602 1.29012E+02 1.09375E+00 0.00000E+00
 -1      1603 1.27512E+02 1.09375E+00 0.00000E+00
 -1      1604 1.27374E+02 2.18750E+00 0.00000E+00
 -1      1605 1.32012E+02 1.09375E+00 0.00000E+00
 -1      1606 1.30512E+02 1.09375E+00 0.00000E+00
 -1      1607 1.30374E+02 2.18750E+00 0.00000E+00
 -1      1608 1.35012E+02 1.09375E+00 0.00000E+00
 -1      1609 1.33512E+02 1.09375E+00 0.00000E+00
 -1      1610 1.33374E+02 2.18750E+00 0.00000E+00
 -1      1611 1.38012E+02 1.09375E+00 0.00000E+00
 -1      1612 1.36512E+02 1.09375E+00 0.00000E+00
 -1      1613 1.36374E+02 2.18750E+00 0.00000E+00
 -1      1614 1.41012E+02 1.09375E+00 0.00000E+00
 -1      1615 1.39512E+02 1.09375E+00 0.00000E+00
 -1      1616 1.39374E+02 2.18750E+00 0.00000E+00
 -1      1617 1.44012E+02 1.09375E+00 0.00000E+00
 -1      1618 1.42512E+02 1.09375E+00 0.00000E+00
 -1      1619 1.42374E+02 2.18750E+00 0.00000E+00
 -1      1620 1.47012E+02 1.09375E+00 0.00000E+00
 -1      1621 1.45512E+02 1.09375E+00 0.00000E+00
 -1      1622 1.45374E+02 2.18750E+00 0.00000E+00
 -1      1623 1.48575E+02 1.47500E+00 0.00000E+00
 -1      1624 1.48701E+02 5.16250E+00 0.00000E+00
 -1      1625 1.48701E+02 3.68750E+00 0.00000E+00
 -1      1626 1.48701E+02 8.11250E+00 0.00000E+00
 -1      1627 1.48701E+02 6.63750E+00 0.00000E+00
 -1      1628 1.47402E+02 5.90000E+00 0.00000E+00
 -1      1629 1.48701E+02 1.10625E+01 0.00000E+00
 -1      1630 1.48701E+02 9.58750E+00 0.00000E+00
 -1      1631 1.47402E+02 8.85000E+00 0.00000E+00
 -1      1632 1.48701E+02 1.40125E+01 0.00000E+00
 -1      1633 1.48701E+02 1.25375E+01 0.00000E+00
 -1      1634 1.47402E+02 1.18000E+01 0.00000E+00
 -1      1635 1.48701E+02 1.69125E+01 0.00000E+00
 -1      1636 1.48701E+02 1.54625E+01 0.00000E+00
 -1      1637 1.47402E+02 1.47250E+01 0.00000E+00
 -1      1638 1.48701E+02 1.98625E+01 0.00000E+00
 -1      1639 1.48701E+02 1.83875E+01 0.00000E+00
 -1      1640 1.47402E+02 1.76500E+01 0.00000E+00
 -1      1641 1.48701E+02 2.28125E+01 0.00000E+00
 -1      1642 1.48701E+02 2.13375E+01 0.00000E+00
 -1      1643 1.47402E+02 2.06000E+01 0.00000E+00
 -1      1644 1.48701E+02 2.57625E+01 0.00000E+00
 -1      1645 1.48701E+02 2.42875E+01 0.00000E+00
 -1      1646 1.47402E+02 2.35500E+01 0.00000E+00
 -1      1647 1.48701E+02 2.87125E+01 0.00000E+00
 -1      1648 1.48701E+02 2.72375E+01 0.00000E+00
 -1      1649 1.47402E+02 2.65000E+01 0.00000E+00
 -1      1650 1.48701E+02 3.16625E+01 0.00000E+00
 -1      1651 1.48701E+02 3.01875E+01 0.00000E+00
 -1      1652 1.47402E+02 2.94500E+01 0.00000E+00
 -1      1653 1.48701E+02 3.45625E+01 0.00000E+00
 -1      1654 1.48701E+02 3.31125E+01 0.00000E+00
 -1      1655 1.47402E+02 3.23750E+01 0.00000E+00
 -1      1656 1.48701E+02 3.75125E+01 0.00000E+00
 -1      1657 1.48701E+02 3.60375E+01 0.00000E+00
 -1      1658 1.47402E+02 3.53000E+01 0.00000E+00
 -1      1659 1.48701E+02 4.04625E+01 0.00000E+00
 -1      1660 1.48701E+02 3.89875E+01 0.00000E+00
 -1      1661 1.47402E+02 3.82500E+01 0.00000E+00
 -1      1662 1.48701E+02 4.34125E+01 0.00000E+00
 -1      1663 1.48701E+02 4.19375E+01 0.00000E+00
 -1      1664 1.47402E+02 4.12000E+01 0.00000E+00
 -1      1665 1.48788E+02 4.60315E+01 0.00000E+00
 -1      1666 1.48788E+02 4.45565E+01 0.00000E+00
 -1      1667 1.47489E+02 4.38190E+01 0.00000E+00
 -1      1668 1.47663E+02 4.61070E+01 0.00000E+00
 -1      1669 6.96942E+01 3.16558E+01 0.00000E+00
 -1      1670 6.97701E+01 3.23807E+01 0.00000E+00
 -1      1671 6.92736E+01 3.01846E+01 0.00000E+00
 -1      1672 6.94841E+01 3.08463E+01 0.00000E+00
 -1      1673 6.86020E+01 2.88133E+01 0.00000E+00
 -1      1674 6.89474E+01 2.94325E+01 0.00000E+00
 -1      1675 6.76644E+01 2.75978E+01 0.00000E+00
 -1      1676 6.81274E+01 2.81346E+01 0.00000E+00
 -1      1677 6.64935E+01 2.65915E+01 0.00000E+00
 -1      1678 6.70601E+01 2.70270E+01 0.00000E+00
 -1      1679 6.51572E+01 2.58480E+01 0.00000E+00
 -1      1680 6.57896E+01 2.61554E+01 0.00000E+00
 -1      1681 6.36931E+01 2.53882E+01 0.00000E+00
 -1      1682 6.43817E+01 2.55642E+01 0.00000E+00
 -1      1683 6.21045E+01 2.51937E+01 0.00000E+00
 -1      1684 6.28519E+01 2.52246E+01 0.00000E+00
 -1      1685 6.05346E+01 2.54103E+01 0.00000E+00
 -1      1686 6.12462E+01 2.52889E+01 0.00000E+00
 -1      1687 5.88819E+01 2.58024E+01 0.00000E+00
 -1      1688 5.96200E+01 2.55020E+01 0.00000E+00
 -1      1689 5.74972E+01 2.67365E+01 0.00000E+00
 -1      1690 5.81064E+01 2.63137E+01 0.00000E+00
 -1      1691 5.64056E+01 2.78843E+01 0.00000E+00
 -1      1692 5.68982E+01 2.73609E+01 0.00000E+00
 -1      1693 5.55401E+01 2.91247E+01 0.00000E+00
 -1      1694 5.59033E+01 2.85368E+01 0.00000E+00
 -1      1695 5.48873E+01 3.05536E+01 0.00000E+00
 -1      1696 5.51393E+01 2.98616E+01 0.00000E+00
 -1      1697 5.45765E+01 3.21165E+01 0.00000E+00
 -1      1698 5.46779E+01 3.13931E+01 0.00000E+00
 -1      1699 5.46293E+01 3.36420E+01 0.00000E+00
 -1      1700 5.45849E+01 3.29520E+01 0.00000E+00
 -1      1701 5.49530E+01 3.51420E+01 0.00000E+00
 -1      1702 5.47653E+01 3.44521E+01 0.00000E+00
 -1      1703 5.55215E+01 3.67775E+01 0.00000E+00
 -1      1704 5.51387E+01 3.60518E+01 0.00000E+00
 -1      1705 5.65902E+01 3.79494E+01 0.00000E+00
 -1      1706 5.61525E+01 3.74298E+01 0.00000E+00
 -1      1707 5.77612E+01 3.89770E+01 0.00000E+00
 -1      1708 5.71851E+01 3.85219E+01 0.00000E+00
 -1      1709 5.91205E+01 3.97506E+01 0.00000E+00
 -1      1710 5.84772E+01 3.94314E+01 0.00000E+00
 -1      1711 6.06402E+01 4.02317E+01 0.00000E+00
 -1      1712 5.99206E+01 4.00468E+01 0.00000E+00
 -1      1713 6.21991E+01 4.03884E+01 0.00000E+00
 -1      1714 6.14831E+01 4.03579E+01 0.00000E+00
 -1      1715 6.39002E+01 4.03514E+01 0.00000E+00
 -1      1716 6.31117E+01 4.04905E+01 0.00000E+00
 -1      1717 6.55089E+01 3.96496E+01 0.00000E+00
 -1      1718 6.47791E+01 3.99606E+01 0.00000E+00
 -1      1719 6.68818E+01 3.87374E+01 0.00000E+00
 -1      1720 6.62763E+01 3.91725E+01 0.00000E+00
 -1      1721 6.80185E+01 3.76192E+01 0.00000E+00
 -1      1722 6.75263E+01 3.81627E+01 0.00000E+00
 -1      1723 6.88882E+01 3.63019E+01 0.00000E+00
 -1      1724 6.85223E+01 3.69308E+01 0.00000E+00
 -1      1725 6.95134E+01 3.48090E+01 0.00000E+00
 -1      1726 6.92801E+01 3.55252E+01 0.00000E+00
 -1      1727 6.97290E+01 3.32332E+01 0.00000E+00
 -1      1728 6.96542E+01 3.39529E+01 0.00000E+00
 -1      1729 6.88295E+01 2.81489E+01 0.00000E+00
 -1      1730 7.03356E+01 3.28032E+01 0.00000E+00
 -1      1731 1.48437E+02 2.56875E+00 0.00000E+00
 -1      1732 1.47138E+02 3.30625E+00 0.00000E+00
 -1      1733 7.01666E+01 3.11412E+01 0.00000E+00
 -1      1734 6.96303E+01 2.95796E+01 0.00000E+00
 -1      1735 6.77506E+01 2.68995E+01 0.00000E+00
 -1      1736 6.64423E+01 2.58926E+01 0.00000E+00
 -1      1737 6.49630E+01 2.51727E+01 0.00000E+00
 -1      1738 6.33463E+01 2.47252E+01 0.00000E+00
 -1      1739 6.16467E+01 2.46568E+01 0.00000E+00
 -1      1740 5.98739E+01 2.48437E+01 0.00000E+00
 -1      1741 5.81839E+01 2.54469E+01 0.00000E+00
 -1      1742 5.68095E+01 2.65827E+01 0.00000E+00
 -1      1743 5.57082E+01 2.78597E+01 0.00000E+00
 -1      1744 5.48052E+01 2.92490E+01 0.00000E+00
 -1      1745 5.41948E+01 3.08254E+01 0.00000E+00
 -1      1746 5.39938E+01 3.25004E+01 0.00000E+00
 -1      1747 5.41382E+01 3.41460E+01 0.00000E+00
 -1      1748 5.44599E+01 3.58659E+01 0.00000E+00
 -1      1749 5.52767E+01 3.74279E+01 0.00000E+00
 -1      1750 5.65026E+01 3.86526E+01 0.00000E+00
 -1      1751 5.78134E+01 3.96796E+01 0.00000E+00
 -1      1752 5.93295E+01 4.04302E+01 0.00000E+00
 -1      1753 6.09724E+01 4.08526E+01 0.00000E+00
 -1      1754 6.27278E+01 4.10809E+01 0.00000E+00
 -1      1755 6.45192E+01 4.07921E+01 0.00000E+00
 -1      1756 6.61654E+01 3.99242E+01 0.00000E+00
 -1      1757 6.75772E+01 3.88726E+01 0.00000E+00
 -1      1758 6.87255E+01 3.76095E+01 0.00000E+00
 -1      1759 6.96211E+01 3.61445E+01 0.00000E+00
 -1      1760 7.01538E+01 3.45118E+01 0.00000E+00
 -1      1761 2.87400E+00 4.77875E+01 0.00000E+00
 -1      1762 3.89700E+00 4.04125E+01 0.00000E+00
 -1      1763 3.89700E+00 4.18875E+01 0.00000E+00
 -1      1764 3.89700E+00 4.33625E+01 0.00000E+00
 -1      1765 3.89700E+00 4.48375E+01 0.00000E+00
 -1      1766 5.19600E+00 4.26250E+01 0.00000E+00
 -1      1767 3.89700E+00 3.45500E+01 0.00000E+00
 -1      1768 3.89700E+00 3.60000E+01 0.00000E+00
 -1      1769 3.89700E+00 3.16000E+01 0.00000E+00
 -1      1770 3.89700E+00 3.30750E+01 0.00000E+00
 -1      1771 5.19600E+00 3.38000E+01 0.00000E+00
 -1      1772 3.89700E+00 2.86500E+01 0.00000E+00
 -1      1773 3.89700E+00 3.01250E+01 0.00000E+00
 -1      1774 5.19600E+00 3.08500E+01 0.00000E+00
 -1      1775 3.89700E+00 2.57000E+01 0.00000E+00
 -1      1776 3.89700E+00 2.71750E+01 0.00000E+00
 -1      1777 5.19600E+00 2.79000E+01 0.00000E+00
 -1      1778 3.89700E+00 2.27500E+01 0.00000E+00
 -1      1779 3.89700E+00 2.42250E+01 0.00000E+00
 -1      1780 5.19600E+00 2.49500E+01 0.00000E+00
 -1      1781 3.89700E+00 1.98000E+01 0.00000E+00
 -1      1782 3.89700E+00 2.12750E+01 0.00000E+00
 -1      1783 5.19600E+00 2.20000E+01 0.00000E+00
 -1      1784 3.89700E+00 1.69000E+01 0.00000E+00
 -1      1785 3.89700E+00 1.83500E+01 0.00000E+00
 -1      1786 5.19600E+00 1.90750E+01 0.00000E+00
 -1      1787 3.89700E+00 1.39500E+01 0.00000E+00
 -1      1788 3.89700E+00 1.54250E+01 0.00000E+00
 -1      1789 5.19600E+00 1.61500E+01 0.00000E+00
 -1      1790 3.89700E+00 1.10000E+01 0.00000E+00
 -1      1791 3.89700E+00 1.24750E+01 0.00000E+00
 -1      1792 5.19600E+00 1.32000E+01 0.00000E+00
 -1      1793 3.89700E+00 8.05000E+00 0.00000E+00
 -1      1794 3.89700E+00 9.52500E+00 0.00000E+00
 -1      1795 5.19600E+00 1.02500E+01 0.00000E+00
 -1      1796 3.89700E+00 5.10000E+00 0.00000E+00
 -1      1797 3.89700E+00 6.57500E+00 0.00000E+00
 -1      1798 5.19600E+00 7.30000E+00 0.00000E+00
 -1      1799 4.20450E+00 3.09687E+00 0.00000E+00
 -1      1800 4.06650E+00 4.19063E+00 0.00000E+00
 -1      1801 5.36550E+00 4.91563E+00 0.00000E+00
 -1      1802 5.70450E+00 3.09687E+00 0.00000E+00
 -1      1803 3.62400E+00 4.64885E+01 0.00000E+00
 -1      1804 8.70450E+00 3.09687E+00 0.00000E+00
 -1      1805 7.20450E+00 3.09687E+00 0.00000E+00
 -1      1806 7.03500E+00 4.00625E+00 0.00000E+00
 -1      1807 4.92300E+00 4.57510E+01 0.00000E+00
 -1      1808 8.40000E+00 4.61030E+01 0.00000E+00
 -1      1809 9.90000E+00 4.61030E+01 0.00000E+00
 -1      1810 1.14000E+01 4.61030E+01 0.00000E+00
 -1      1811 1.29000E+01 4.61030E+01 0.00000E+00
 -1      1812 1.06500E+01 4.48040E+01 0.00000E+00
 -1      1813 1.44000E+01 4.61030E+01 0.00000E+00
 -1      1814 1.59000E+01 4.61030E+01 0.00000E+00
 -1      1815 1.36500E+01 4.48040E+01 0.00000E+00
 -1      1816 1.74000E+01 4.61030E+01 0.00000E+00
 -1      1817 1.89000E+01 4.61030E+01 0.00000E+00
 -1      1818 1.66500E+01 4.48040E+01 0.00000E+00
 -1      1819 2.04000E+01 4.61030E+01 0.00000E+00
 -1      1820 2.19000E+01 4.61030E+01 0.00000E+00
 -1      1821 1.96500E+01 4.48040E+01 0.00000E+00
 -1      1822 2.34000E+01 4.61030E+01 0.00000E+00
 -1      1823 2.49000E+01 4.61030E+01 0.00000E+00
 -1      1824 2.26500E+01 4.48040E+01 0.00000E+00
 -1      1825 2.64000E+01 4.61030E+01 0.00000E+00
 -1      1826 2.79000E+01 4.61030E+01 0.00000E+00
 -1      1827 2.56500E+01 4.48040E+01 0.00000E+00
 -1      1828 2.94000E+01 4.61030E+01 0.00000E+00
 -1      1829 3.09000E+01 4.61030E+01 0.00000E+00
 -1      1830 2.86500E+01 4.48040E+01 0.00000E+00
 -1      1831 3.24000E+01 4.61030E+01 0.00000E+00
 -1      1832 3.39000E+01 4.61030E+01 0.00000E+00
 -1      1833 3.16500E+01 4.48040E+01 0.00000E+00
 -1      1834 3.54000E+01 4.61030E+01 0.00000E+00
 -1      1835 3.69000E+01 4.61030E+01 0.00000E+00
 -1      1836 3.46500E+01 4.48040E+01 0.00000E+00
 -1      1837 3.84750E+01 4.61030E+01 0.00000E+00
 -1      1838 4.00500E+01 4.61030E+01 0.00000E+00
 -1      1839 3.77250E+01 4.48040E+01 0.00000E+00
 -1      1840 4.15500E+01 4.61030E+01 0.00000E+00
 -1      1841 4.30500E+01 4.61030E+01 0.00000E+00
 -1      1842 4.08000E+01 4.48040E+01 0.00000E+00
 -1      1843 4.45500E+01 4.61030E+01 0.00000E+00
 -1      1844 4.60500E+01 4.61030E+01 0.00000E+00
 -1      1845 4.38000E+01 4.48040E+01 0.00000E+00
 -1      1846 4.75500E+01 4.61030E+01 0.00000E+00
 -1      1847 4.90500E+01 4.61030E+01 0.00000E+00
 -1      1848 4.68000E+01 4.48040E+01 0.00000E+00
 -1      1849 5.05500E+01 4.61030E+01 0.00000E+00
 -1      1850 5.20500E+01 4.61030E+01 0.00000E+00
 -1      1851 4.98000E+01 4.48040E+01 0.00000E+00
 -1      1852 5.35500E+01 4.61030E+01 0.00000E+00
 -1      1853 5.50500E+01 4.61030E+01 0.00000E+00
 -1      1854 5.28000E+01 4.48040E+01 0.00000E+00
 -1      1855 5.65500E+01 4.61030E+01 0.00000E+00
 -1      1856 5.80500E+01 4.61030E+01 0.00000E+00
 -1      1857 5.58000E+01 4.48040E+01 0.00000E+00
 -1      1858 5.94000E+01 4.61030E+01 0.00000E+00
 -1      1859 6.07500E+01 4.61030E+01 0.00000E+00
 -1      1860 5.86500E+01 4.48040E+01 0.00000E+00
 -1      1861 6.21000E+01 4.61030E+01 0.00000E+00
 -1      1862 6.34500E+01 4.61030E+01 0.00000E+00
 -1      1863 6.13500E+01 4.48040E+01 0.00000E+00
 -1      1864 6.49500E+01 4.61030E+01 0.00000E+00
 -1      1865 6.64500E+01 4.61030E+01 0.00000E+00
 -1      1866 6.42000E+01 4.48040E+01 0.00000E+00
 -1      1867 6.80250E+01 4.61030E+01 0.00000E+00
 -1      1868 6.96000E+01 4.61030E+01 0.00000E+00
 -1      1869 6.72750E+01 4.48040E+01 0.00000E+00
 -1      1870 7.11000E+01 4.61030E+01 0.00000E+00
 -1      1871 7.26000E+01 4.61030E+01 0.00000E+00
 -1      1872 7.03500E+01 4.48040E+01 0.00000E+00
 -1      1873 7.41000E+01 4.61030E+01 0.00000E+00
 -1      1874 7.56000E+01 4.61030E+01 0.00000E+00
 -1      1875 7.33500E+01 4.48040E+01 0.00000E+00
 -1      1876 7.71000E+01 4.61030E+01 0.00000E+00
 -1      1877 7.86000E+01 4.61030E+01 0.00000E+00
 -1      1878 7.63500E+01 4.48040E+01 0.00000E+00
 -1      1879 8.01000E+01 4.61030E+01 0.00000E+00
 -1      1880 8.16000E+01 4.61030E+01 0.00000E+00
 -1      1881 7.93500E+01 4.48040E+01 0.00000E+00
 -1      1882 8.31000E+01 4.61030E+01 0.00000E+00
 -1      1883 8.46000E+01 4.61030E+01 0.00000E+00
 -1      1884 8.23500E+01 4.48040E+01 0.00000E+00
 -1      1885 8.61000E+01 4.61030E+01 0.00000E+00
 -1      1886 8.76000E+01 4.61030E+01 0.00000E+00
 -1      1887 8.53500E+01 4.48040E+01 0.00000E+00
 -1      1888 8.91000E+01 4.61030E+01 0.00000E+00
 -1      1889 9.06000E+01 4.61030E+01 0.00000E+00
 -1      1890 8.83500E+01 4.48040E+01 0.00000E+00
 -1      1891 9.21000E+01 4.61030E+01 0.00000E+00
 -1      1892 9.36000E+01 4.61030E+01 0.00000E+00
 -1      1893 9.13500E+01 4.48040E+01 0.00000E+00
 -1      1894 9.51000E+01 4.61030E+01 0.00000E+00
 -1      1895 9.66000E+01 4.61030E+01 0.00000E+00
 -1      1896 9.43500E+01 4.48040E+01 0.00000E+00
 -1      1897 9.81000E+01 4.61030E+01 0.00000E+00
 -1      1898 9.96000E+01 4.61030E+01 0.00000E+00
 -1      1899 9.73500E+01 4.48040E+01 0.00000E+00
 -1      1900 1.01100E+02 4.61030E+01 0.00000E+00
 -1      1901 1.02600E+02 4.61030E+01 0.00000E+00
 -1      1902 1.00350E+02 4.48040E+01 0.00000E+00
 -1      1903 1.04100E+02 4.61030E+01 0.00000E+00
 -1      1904 1.05600E+02 4.61030E+01 0.00000E+00
 -1      1905 1.03350E+02 4.48040E+01 0.00000E+00
 -1      1906 1.07175E+02 4.61030E+01 0.00000E+00
 -1      1907 1.08750E+02 4.61030E+01 0.00000E+00
 -1      1908 1.06425E+02 4.48040E+01 0.00000E+00
 -1      1909 1.10250E+02 4.61030E+01 0.00000E+00
 -1      1910 1.11750E+02 4.61030E+01 0.00000E+00
 -1      1911 1.09500E+02 4.48040E+01 0.00000E+00
 -1      1912 1.13250E+02 4.61030E+01 0.00000E+00
 -1      1913 1.14750E+02 4.61030E+01 0.00000E+00
 -1      1914 1.12500E+02 4.48040E+01 0.00000E+00
 -1      1915 1.16250E+02 4.61030E+01 0.00000E+00
 -1      1916 1.17750E+02 4.61030E+01 0.00000E+00
 -1      1917 1.15500E+02 4.48040E+01 0.00000E+00
 -1      1918 1.19250E+02 4.61030E+01 0.00000E+00
 -1      1919 1.20750E+02 4.61030E+01 0.00000E+00
 -1      1920 1.18500E+02 4.48040E+01 0.00000E+00
 -1      1921 1.22250E+02 4.61030E+01 0.00000E+00
 -1      1922 1.23750E+02 4.61030E+01 0.00000E+00
 -1      1923 1.21500E+02 4.48040E+01 0.00000E+00
 -1      1924 1.25250E+02 4.61030E+01 0.00000E+00
 -1      1925 1.26750E+02 4.61030E+01 0.00000E+00
 -1      1926 1.24500E+02 4.48040E+01 0.00000E+00
 -1      1927 1.28250E+02 4.61030E+01 0.00000E+00
 -1      1928 1.29750E+02 4.61030E+01 0.00000E+00
 -1      1929 1.27500E+02 4.48040E+01 0.00000E+00
 -1      1930 1.31250E+02 4.61030E+01 0.00000E+00
 -1      1931 1.32750E+02 4.61030E+01 0.00000E+00
 -1      1932 1.30500E+02 4.48040E+01 0.00000E+00
 -1      1933 1.34250E+02 4.61030E+01 0.00000E+00
 -1      1934 1.35750E+02 4.61030E+01 0.00000E+00
 -1      1935 1.33500E+02 4.48040E+01 0.00000E+00
 -1      1936 1.37250E+02 4.61030E+01 0.00000E+00
 -1      1937 1.38750E+02 4.61030E+01 0.00000E+00
 -1      1938 1.36500E+02 4.48040E+01 0.00000E+00
 -1      1939 1.40250E+02 4.61030E+01 0.00000E+00
 -1      1940 1.41750E+02 4.61030E+01 0.00000E+00
 -1      1941 1.39500E+02 4.48040E+01 0.00000E+00
 -1      1942 1.43250E+02 4.61030E+01 0.00000E+00
 -1      1943 1.44750E+02 4.61030E+01 0.00000E+00
 -1      1944 1.42500E+02 4.48040E+01 0.00000E+00
 -1      1945 1.46538E+02 4.61825E+01 0.00000E+00
 -1      1946 1.41240E+01 3.48650E+00 0.00000E+00
 -1      1947 1.26240E+01 3.48650E+00 0.00000E+00
 -1      1948 1.71240E+01 3.48650E+00 0.00000E+00
 -1      1949 1.56240E+01 3.48650E+00 0.00000E+00
 -1      1950 1.48740E+01 4.78550E+00 0.00000E+00
 -1      1951 2.01240E+01 3.48650E+00 0.00000E+00
 -1      1952 1.86240E+01 3.48650E+00 0.00000E+00
 -1      1953 1.78740E+01 4.78550E+00 0.00000E+00
 -1      1954 2.31240E+01 3.48650E+00 0.00000E+00
 -1      1955 2.16240E+01 3.48650E+00 0.00000E+00
 -1      1956 2.08740E+01 4.78550E+00 0.00000E+00
 -1      1957 2.61240E+01 3.48650E+00 0.00000E+00
 -1      1958 2.46240E+01 3.48650E+00 0.00000E+00
 -1      1959 2.38740E+01 4.78550E+00 0.00000E+00
 -1      1960 2.91240E+01 3.48650E+00 0.00000E+00
 -1      1961 2.76240E+01 3.48650E+00 0.00000E+00
 -1      1962 2.68740E+01 4.78550E+00 0.00000E+00
 -1      1963 3.21240E+01 3.48650E+00 0.00000E+00
 -1      1964 3.06240E+01 3.48650E+00 0.00000E+00
 -1      1965 2.98740E+01 4.78550E+00 0.00000E+00
 -1      1966 3.51240E+01 3.48650E+00 0.00000E+00
 -1      1967 3.36240E+01 3.48650E+00 0.00000E+00
 -1      1968 3.28740E+01 4.78550E+00 0.00000E+00
 -1      1969 3.81240E+01 3.48650E+00 0.00000E+00
 -1      1970 3.66240E+01 3.48650E+00 0.00000E+00
 -1      1971 3.58740E+01 4.78550E+00 0.00000E+00
 -1      1972 4.11240E+01 3.48650E+00 0.00000E+00
 -1      1973 3.96240E+01 3.48650E+00 0.00000E+00
 -1      1974 3.88740E+01 4.78550E+00 0.00000E+00
 -1      1975 4.41240E+01 3.48650E+00 0.00000E+00
 -1      1976 4.26240E+01 3.48650E+00 0.00000E+00
 -1      1977 4.18740E+01 4.78550E+00 0.00000E+00
 -1      1978 4.71240E+01 3.48650E+00 0.00000E+00
 -1      1979 4.56240E+01 3.48650E+00 0.00000E+00
 -1      1980 4.48740E+01 4.78550E+00 0.00000E+00
 -1      1981 5.01240E+01 3.48650E+00 0.00000E+00
 -1      1982 4.86240E+01 3.48650E+00 0.00000E+00
 -1      1983 4.78740E+01 4.78550E+00 0.00000E+00
 -1      1984 5.31240E+01 3.48650E+00 0.00000E+00
 -1      1985 5.16240E+01 3.48650E+00 0.00000E+00
 -1      1986 5.08740E+01 4.78550E+00 0.00000E+00
 -1      1987 5.61240E+01 3.48650E+00 0.00000E+00
 -1      1988 5.46240E+01 3.48650E+00 0.00000E+00
 -1      1989 5.38740E+01 4.78550E+00 0.00000E+00
 -1      1990 5.91240E+01 3.48650E+00 0.00000E+00
 -1      1991 5.76240E+01 3.48650E+00 0.00000E+00
 -1      1992 5.68740E+01 4.78550E+00 0.00000E+00
 -1      1993 6.21240E+01 3.48650E+00 0.00000E+00
 -1      1994 6.06240E+01 3.48650E+00 0.00000E+00
 -1      1995 5.98740E+01 4.78550E+00 0.00000E+00
 -1      1996 6.51240E+01 3.48650E+00 0.00000E+00
 -1      1997 6.36240E+01 3.48650E+00 0.00000E+00
 -1      1998 6.28740E+01 4.78550E+00 0.00000E+00
 -1      1999 6.81240E+01 3.48650E+00 0.00000E+00
 -1      2000 6.66240E+01 3.48650E+00 0.00000E+00
 -1      2001 6.58740E+01 4.78550E+00 0.00000E+00
 -1      2002 7.11240E+01 3.48650E+00 0.00000E+00
 -1      2003 6.96240E+01 3.48650E+00 0.00000E+00
 -1      2004 6.88740E+01 4.78550E+00 0.00000E+00
 -1      2005 7.41240E+01 3.48650E+00 0.00000E+00
 -1      2006 7.26240E+01 3.48650E+00 0.00000E+00
 -1      2007 7.18740E+01 4.78550E+00 0.00000E+00
 -1      2008 7.71240E+01 3.48650E+00 0.00000E+00
 -1      2009 7.56240E+01 3.48650E+00 0.00000E+00
 -1      2010 7.48740E+01 4.78550E+00 0.00000E+00
 -1      2011 8.01240E+01 3.48650E+00 0.00000E+00
 -1      2012 7.86240E+01 3.48650E+00 0.00000E+00
 -1      2013 7.78740E+01 4.78550E+00 0.00000E+00
 -1      2014 8.31240E+01 3.48650E+00 0.00000E+00
 -1      2015 8.16240E+01 3.48650E+00 0.00000E+00
 -1      2016 8.08740E+01 4.78550E+00 0.00000E+00
 -1      2017 8.61240E+01 3.48650E+00 0.00000E+00
 -1      2018 8.46240E+01 3.48650E+00 0.00000E+00
 -1      2019 8.38740E+01 4.78550E+00 0.00000E+00
 -1      2020 8.91240E+01 3.48650E+00 0.00000E+00
 -1      2021 8.76240E+01 3.48650E+00 0.00000E+00
 -1      2022 8.68740E+01 4.78550E+00 0.00000E+00
 -1      2023 9.21240E+01 3.48650E+00 0.00000E+00
 -1      2024 9.06240E+01 3.48650E+00 0.00000E+00
 -1      2025 8.98740E+01 4.78550E+00 0.00000E+00
 -1      2026 9.51240E+01 3.48650E+00 0.00000E+00
 -1      2027 9.36240E+01 3.48650E+00 0.00000E+00
 -1      2028 9.28740E+01 4.78550E+00 0.00000E+00
 -1      2029 9.81240E+01 3.48650E+00 0.00000E+00
 -1      2030 9.66240E+01 3.48650E+00 0.00000E+00
 -1      2031 9.58740E+01 4.78550E+00 0.00000E+00
 -1      2032 1.01124E+02 3.48650E+00 0.00000E+00
 -1      2033 9.96240E+01 3.48650E+00 0.00000E+00
 -1      2034 9.88740E+01 4.78550E+00 0.00000E+00
 -1      2035 1.04124E+02 3.48650E+00 0.00000E+00
 -1      2036 1.02624E+02 3.48650E+00 0.00000E+00
 -1      2037 1.01874E+02 4.78550E+00 0.00000E+00
 -1      2038 1.07124E+02 3.48650E+00 0.00000E+00
 -1      2039 1.05624E+02 3.48650E+00 0.00000E+00
 -1      2040 1.04874E+02 4.78550E+00 0.00000E+00
 -1      2041 1.10124E+02 3.48650E+00 0.00000E+00
 -1      2042 1.08624E+02 3.48650E+00 0.00000E+00
 -1      2043 1.07874E+02 4.78550E+00 0.00000E+00
 -1      2044 1.13124E+02 3.48650E+00 0.00000E+00
 -1      2045 1.11624E+02 3.48650E+00 0.00000E+00
 -1      2046 1.10874E+02 4.78550E+00 0.00000E+00
 -1      2047 1.16124E+02 3.48650E+00 0.00000E+00
 -1      2048 1.14624E+02 3.48650E+00 0.00000E+00
 -1      2049 1.13874E+02 4.78550E+00 0.00000E+00
 -1      2050 1.19124E+02 3.48650E+00 0.00000E+00
 -1      2051 1.17624E+02 3.48650E+00 0.00000E+00
 -1      2052 1.16874E+02 4.78550E+00 0.00000E+00
 -1      2053 1.22124E+02 3.48650E+00 0.00000E+00
 -1      2054 1.20624E+02 3.48650E+00 0.00000E+00
 -1      2055 1.19874E+02 4.78550E+00 0.00000E+00
 -1      2056 1.25124E+02 3.48650E+00 0.00000E+00
 -1      2057 1.23624E+02 3.48650E+00 0.00000E+00
 -1      2058 1.22874E+02 4.78550E+00 0.00000E+00
 -1      2059 1.28124E+02 3.48650E+00 0.00000E+00
 -1      2060 1.26624E+02 3.48650E+00 0.00000E+00
 -1      2061 1.25874E+02 4.78550E+00 0.00000E+00
 -1      2062 1.31124E+02 3.48650E+00 0.00000E+00
 -1      2063 1.29624E+02 3.48650E+00 0.00000E+00
 -1      2064 1.28874E+02 4.78550E+00 0.00000E+00
 -1      2065 1.34124E+02 3.48650E+00 0.00000E+00
 -1      2066 1.32624E+02 3.48650E+00 0.00000E+00
 -1      2067 1.31874E+02 4.78550E+00 0.00000E+00
 -1      2068 1.37124E+02 3.48650E+00 0.00000E+00
 -1      2069 1.35624E+02 3.48650E+00 0.00000E+00
 -1      2070 1.34874E+02 4.78550E+00 0.00000E+00
 -1      2071 1.40124E+02 3.48650E+00 0.00000E+00
 -1      2072 1.38624E+02 3.48650E+00 0.00000E+00
 -1      2073 1.37874E+02 4.78550E+00 0.00000E+00
 -1      2074 1.43124E+02 3.48650E+00 0.00000E+00
 -1      2075 1.41624E+02 3.48650E+00 0.00000E+00
 -1      2076 1.40874E+02 4.78550E+00 0.00000E+00
 -1      2077 1.45881E+02 3.39637E+00 0.00000E+00
 -1      2078 1.44381E+02 3.39637E+00 0.00000E+00
 -1      2079 1.43631E+02 4.69537E+00 0.00000E+00
 -1      2080 1.46145E+02 4.51512E+00 0.00000E+00
 -1      2081 1.46103E+02 1.25375E+01 0.00000E+00
 -1      2082 1.46103E+02 1.10625E+01 0.00000E+00
 -1      2083 1.46103E+02 9.58750E+00 0.00000E+00
 -1      2084 1.46103E+02 8.11250E+00 0.00000E+00
 -1      2085 1.44804E+02 1.03250E+01 0.00000E+00
 -1      2086 1.46145E+02 5.99013E+00 0.00000E+00
 -1      2087 1.46103E+02 1.54375E+01 0.00000E+00
 -1      2088 1.46103E+02 1.39875E+01 0.00000E+00
 -1      2089 1.44804E+02 1.32500E+01 0.00000E+00
 -1      2090 1.46103E+02 1.83875E+01 0.00000E+00
 -1      2091 1.46103E+02 1.69125E+01 0.00000E+00
 -1      2092 1.44804E+02 1.61750E+01 0.00000E+00
 -1      2093 1.46103E+02 2.13375E+01 0.00000E+00
 -1      2094 1.46103E+02 1.98625E+01 0.00000E+00
 -1      2095 1.44804E+02 1.91250E+01 0.00000E+00
 -1      2096 1.46103E+02 2.42875E+01 0.00000E+00
 -1      2097 1.46103E+02 2.28125E+01 0.00000E+00
 -1      2098 1.44804E+02 2.20750E+01 0.00000E+00
 -1      2099 1.46103E+02 2.72375E+01 0.00000E+00
 -1      2100 1.46103E+02 2.57625E+01 0.00000E+00
 -1      2101 1.44804E+02 2.50250E+01 0.00000E+00
 -1      2102 1.46103E+02 3.01875E+01 0.00000E+00
 -1      2103 1.46103E+02 2.87125E+01 0.00000E+00
 -1      2104 1.44804E+02 2.79750E+01 0.00000E+00
 -1      2105 1.46103E+02 3.30875E+01 0.00000E+00
 -1      2106 1.46103E+02 3.16375E+01 0.00000E+00
 -1      2107 1.44804E+02 3.09000E+01 0.00000E+00
 -1      2108 1.46103E+02 3.60375E+01 0.00000E+00
 -1      2109 1.46103E+02 3.45625E+01 0.00000E+00
 -1      2110 1.44804E+02 3.38250E+01 0.00000E+00
 -1      2111 1.46103E+02 3.89875E+01 0.00000E+00
 -1      2112 1.46103E+02 3.75125E+01 0.00000E+00
 -1      2113 1.44804E+02 3.67750E+01 0.00000E+00
 -1      2114 1.46103E+02 4.19375E+01 0.00000E+00
 -1      2115 1.46103E+02 4.04625E+01 0.00000E+00
 -1      2116 1.44804E+02 3.97250E+01 0.00000E+00
 -1      2117 1.14143E+01 3.29169E+00 0.00000E+00
 -1      2118 9.91425E+00 3.29169E+00 0.00000E+00
 -1      2119 9.74475E+00 4.20106E+00 0.00000E+00
 -1      2120 1.21643E+01 4.59069E+00 0.00000E+00
 -1      2121 7.01002E+01 2.89290E+01 0.00000E+00
 -1      2122 7.04264E+01 2.96811E+01 0.00000E+00
 -1      2123 6.79222E+01 2.61124E+01 0.00000E+00
 -1      2124 6.85266E+01 2.66833E+01 0.00000E+00
 -1      2125 7.11709E+01 3.24163E+01 0.00000E+00
 -1      2126 7.11298E+01 3.32687E+01 0.00000E+00
 -1      2127 6.92264E+01 2.73662E+01 0.00000E+00
 -1      2128 6.97009E+01 2.80448E+01 0.00000E+00
 -1      2129 3.89700E+00 3.74688E+01 0.00000E+00
 -1      2130 3.89700E+00 3.89437E+01 0.00000E+00
 -1      2131 5.19600E+00 3.96813E+01 0.00000E+00
 -1      2132 5.19600E+00 3.67438E+01 0.00000E+00
 -1      2133 6.64979E+01 2.50168E+01 0.00000E+00
 -1      2134 6.72018E+01 2.54528E+01 0.00000E+00
 -1      2135 6.48124E+01 2.43828E+01 0.00000E+00
 -1      2136 6.55879E+01 2.46667E+01 0.00000E+00
 -1      2137 6.30494E+01 2.40072E+01 0.00000E+00
 -1      2138 6.38906E+01 2.41709E+01 0.00000E+00
 -1      2139 6.11369E+01 2.39770E+01 0.00000E+00
 -1      2140 6.19952E+01 2.38818E+01 0.00000E+00
 -1      2141 5.93078E+01 2.41604E+01 0.00000E+00
 -1      2142 6.02223E+01 2.40687E+01 0.00000E+00
 -1      2143 6.05708E+01 2.32937E+01 0.00000E+00
 -1      2144 5.74163E+01 2.51265E+01 0.00000E+00
 -1      2145 5.81917E+01 2.46152E+01 0.00000E+00
 -1      2146 5.60120E+01 2.64173E+01 0.00000E+00
 -1      2147 5.66110E+01 2.57928E+01 0.00000E+00
 -1      2148 5.48439E+01 2.77140E+01 0.00000E+00
 -1      2149 5.53462E+01 2.70614E+01 0.00000E+00
 -1      2150 5.40354E+01 2.93078E+01 0.00000E+00
 -1      2151 5.44363E+01 2.85709E+01 0.00000E+00
 -1      2152 5.33800E+01 3.10679E+01 0.00000E+00
 -1      2153 5.35895E+01 3.02284E+01 0.00000E+00
 -1      2154 5.33499E+01 3.29247E+01 0.00000E+00
 -1      2155 5.33415E+01 3.20891E+01 0.00000E+00
 -1      2156 5.35257E+01 3.46653E+01 0.00000E+00
 -1      2157 5.33897E+01 3.38552E+01 0.00000E+00
 -1      2158 5.38972E+01 3.64848E+01 0.00000E+00
 -1      2159 5.37115E+01 3.55751E+01 0.00000E+00
 -1      2160 5.29630E+01 3.52843E+01 0.00000E+00
 -1      2161 5.50361E+01 3.82920E+01 0.00000E+00
 -1      2162 5.44051E+01 3.76398E+01 0.00000E+00
 -1      2163 5.62258E+01 3.94371E+01 0.00000E+00
 -1      2164 5.56310E+01 3.88645E+01 0.00000E+00
 -1      2165 5.47593E+01 3.90764E+01 0.00000E+00
 -1      2166 5.78017E+01 4.04894E+01 0.00000E+00
 -1      2167 5.70857E+01 4.00349E+01 0.00000E+00
 -1      2168 5.94900E+01 4.12253E+01 0.00000E+00
 -1      2169 5.86899E+01 4.09292E+01 0.00000E+00
 -1      2170 6.12917E+01 4.15981E+01 0.00000E+00
 -1      2171 6.04488E+01 4.14718E+01 0.00000E+00
 -1      2172 6.31167E+01 4.18022E+01 0.00000E+00
 -1      2173 6.22042E+01 4.17001E+01 0.00000E+00
 -1      2174 6.16806E+01 4.23194E+01 0.00000E+00
 -1      2175 6.53411E+01 4.14568E+01 0.00000E+00
 -1      2176 6.44623E+01 4.18477E+01 0.00000E+00
 -1      2177 6.68759E+01 4.05028E+01 0.00000E+00
 -1      2178 6.61085E+01 4.09798E+01 0.00000E+00
 -1      2179 6.60516E+01 4.20353E+01 0.00000E+00
 -1      2180 6.84144E+01 3.91628E+01 0.00000E+00
 -1      2181 6.77700E+01 3.97374E+01 0.00000E+00
 -1      2182 6.94666E+01 3.76234E+01 0.00000E+00
 -1      2183 6.89628E+01 3.83117E+01 0.00000E+00
 -1      2184 7.03957E+01 3.60481E+01 0.00000E+00
 -1      2185 7.00038E+01 3.68248E+01 0.00000E+00
 -1      2186 7.09890E+01 3.41248E+01 0.00000E+00
 -1      2187 7.08482E+01 3.49809E+01 0.00000E+00
 -1      2188 7.18243E+01 3.37378E+01 0.00000E+00
 -1      2189 7.06889E+01 3.05736E+01 0.00000E+00
 -1      2190 7.08990E+01 3.13832E+01 0.00000E+00
 -1      2191 1.45788E+02 4.48835E+01 0.00000E+00
 -1      2192 6.93980E+01 2.65792E+01 0.00000E+00
 -1      2193 6.42300E+00 4.57510E+01 0.00000E+00
 -1      2194 7.04970E+01 2.81463E+01 0.00000E+00
 -1      2195 6.79777E+01 2.52366E+01 0.00000E+00
 -1      2196 7.17300E+00 4.44520E+01 0.00000E+00
 -1      2197 1.44846E+02 6.72762E+00 0.00000E+00
 -1      2198 7.16932E+01 3.18487E+01 0.00000E+00
 -1      2199 1.45701E+02 4.37395E+01 0.00000E+00
 -1      2200 7.11588E+01 2.99231E+01 0.00000E+00
 -1      2201 1.44402E+02 4.30020E+01 0.00000E+00
 -1      2202 7.12309E+01 3.56611E+01 0.00000E+00
 -1      2203 7.02411E+01 3.75270E+01 0.00000E+00
 -1      2204 6.77131E+01 4.07929E+01 0.00000E+00
 -1      2205 6.39387E+01 4.24669E+01 0.00000E+00
 -1      2206 5.98092E+01 4.19708E+01 0.00000E+00
 -1      2207 5.62141E+01 4.02468E+01 0.00000E+00
 -1      2208 5.36566E+01 3.73490E+01 0.00000E+00
 -1      2209 5.29081E+01 3.70582E+01 0.00000E+00
 -1      2210 5.34160E+01 3.82131E+01 0.00000E+00
 -1      2211 5.27375E+01 3.34440E+01 0.00000E+00
 -1      2212 5.27361E+01 3.14922E+01 0.00000E+00
 -1      2213 5.32206E+01 2.95503E+01 0.00000E+00
 -1      2214 5.40742E+01 2.77727E+01 0.00000E+00
 -1      2215 5.51477E+01 2.62716E+01 0.00000E+00
 -1      2216 5.85402E+01 2.38401E+01 0.00000E+00
 -1      2217 5.88887E+01 2.30651E+01 0.00000E+00
 -1      2218 5.77726E+01 2.35198E+01 0.00000E+00
 -1      2219 6.25396E+01 2.33274E+01 0.00000E+00
 -1      2220 6.63473E+01 2.42269E+01 0.00000E+00
 -1      2221 6.45155E+01 2.36649E+01 0.00000E+00
 -1      2222 5.66189E+01 2.49611E+01 0.00000E+00
 -1      2223 5.79622E+01 4.12845E+01 0.00000E+00
 -1      2224 6.91555E+01 3.91766E+01 0.00000E+00
 -1      2225 6.49500E+00 3.01125E+01 0.00000E+00
 -1      2226 6.49500E+00 3.15875E+01 0.00000E+00
 -1      2227 6.49500E+00 3.30625E+01 0.00000E+00
 -1      2228 6.49500E+00 3.45375E+01 0.00000E+00
 -1      2229 7.79400E+00 3.23250E+01 0.00000E+00
 -1      2230 6.49500E+00 2.42125E+01 0.00000E+00
 -1      2231 6.49500E+00 2.56875E+01 0.00000E+00
 -1      2232 6.49500E+00 2.12625E+01 0.00000E+00
 -1      2233 6.49500E+00 2.27375E+01 0.00000E+00
 -1      2234 7.79400E+00 2.34750E+01 0.00000E+00
 -1      2235 6.49500E+00 1.83625E+01 0.00000E+00
 -1      2236 6.49500E+00 1.98125E+01 0.00000E+00
 -1      2237 7.79400E+00 2.05500E+01 0.00000E+00
 -1      2238 6.49500E+00 1.54125E+01 0.00000E+00
 -1      2239 6.49500E+00 1.68875E+01 0.00000E+00
 -1      2240 7.79400E+00 1.76250E+01 0.00000E+00
 -1      2241 6.49500E+00 1.24625E+01 0.00000E+00
 -1      2242 6.49500E+00 1.39375E+01 0.00000E+00
 -1      2243 7.79400E+00 1.46750E+01 0.00000E+00
 -1      2244 6.49500E+00 9.51250E+00 0.00000E+00
 -1      2245 6.49500E+00 1.09875E+01 0.00000E+00
 -1      2246 7.79400E+00 1.17250E+01 0.00000E+00
 -1      2247 6.49500E+00 6.56250E+00 0.00000E+00
 -1      2248 6.49500E+00 8.03750E+00 0.00000E+00
 -1      2249 7.79400E+00 8.77500E+00 0.00000E+00
 -1      2250 6.84975E+00 4.82969E+00 0.00000E+00
 -1      2251 6.68025E+00 5.73906E+00 0.00000E+00
 -1      2252 7.97925E+00 6.47656E+00 0.00000E+00
 -1      2253 8.34975E+00 4.82969E+00 0.00000E+00
 -1      2254 9.90000E+00 4.35050E+01 0.00000E+00
 -1      2255 1.14000E+01 4.35050E+01 0.00000E+00
 -1      2256 7.10790E+01 2.73512E+01 0.00000E+00
 -1      2257 7.14782E+01 2.82354E+01 0.00000E+00
 -1      2258 6.97055E+01 2.55640E+01 0.00000E+00
 -1      2259 7.04053E+01 2.62469E+01 0.00000E+00
 -1      2260 1.29000E+01 4.35050E+01 0.00000E+00
 -1      2261 1.44000E+01 4.35050E+01 0.00000E+00
 -1      2262 1.21500E+01 4.22060E+01 0.00000E+00
 -1      2263 1.59000E+01 4.35050E+01 0.00000E+00
 -1      2264 1.74000E+01 4.35050E+01 0.00000E+00
 -1      2265 1.51500E+01 4.22060E+01 0.00000E+00
 -1      2266 1.89000E+01 4.35050E+01 0.00000E+00
 -1      2267 2.04000E+01 4.35050E+01 0.00000E+00
 -1      2268 1.81500E+01 4.22060E+01 0.00000E+00
 -1      2269 2.19000E+01 4.35050E+01 0.00000E+00
 -1      2270 2.34000E+01 4.35050E+01 0.00000E+00
 -1      2271 2.11500E+01 4.22060E+01 0.00000E+00
 -1      2272 2.49000E+01 4.35050E+01 0.00000E+00
 -1      2273 2.64000E+01 4.35050E+01 0.00000E+00
 -1      2274 2.41500E+01 4.22060E+01 0.00000E+00
 -1      2275 2.79000E+01 4.35050E+01 0.00000E+00
 -1      2276 2.94000E+01 4.35050E+01 0.00000E+00
 -1      2277 2.71500E+01 4.22060E+01 0.00000E+00
 -1      2278 3.09000E+01 4.35050E+01 0.00000E+00
 -1      2279 3.24000E+01 4.35050E+01 0.00000E+00
 -1      2280 3.01500E+01 4.22060E+01 0.00000E+00
 -1      2281 3.39000E+01 4.35050E+01 0.00000E+00
 -1      2282 3.54000E+01 4.35050E+01 0.00000E+00
 -1      2283 3.31500E+01 4.22060E+01 0.00000E+00
 -1      2284 3.69750E+01 4.35050E+01 0.00000E+00
 -1      2285 3.85500E+01 4.35050E+01 0.00000E+00
 -1      2286 3.62250E+01 4.22060E+01 0.00000E+00
 -1      2287 4.00500E+01 4.35050E+01 0.00000E+00
 -1      2288 4.15500E+01 4.35050E+01 0.00000E+00
 -1      2289 3.93000E+01 4.22060E+01 0.00000E+00
 -1      2290 4.30500E+01 4.35050E+01 0.00000E+00
 -1      2291 4.45500E+01 4.35050E+01 0.00000E+00
 -1      2292 4.23000E+01 4.22060E+01 0.00000E+00
 -1      2293 4.60500E+01 4.35050E+01 0.00000E+00
 -1      2294 4.75500E+01 4.35050E+01 0.00000E+00
 -1      2295 4.53000E+01 4.22060E+01 0.00000E+00
 -1      2296 4.90500E+01 4.35050E+01 0.00000E+00
 -1      2297 5.05500E+01 4.35050E+01 0.00000E+00
 -1      2298 4.83000E+01 4.22060E+01 0.00000E+00
 -1      2299 5.20500E+01 4.35050E+01 0.00000E+00
 -1      2300 5.35500E+01 4.35050E+01 0.00000E+00
 -1      2301 5.13000E+01 4.22060E+01 0.00000E+00
 -1      2302 6.96000E+01 4.36951E+01 0.00000E+00
 -1      2303 7.11000E+01 4.36951E+01 0.00000E+00
 -1      2304 7.26000E+01 4.36951E+01 0.00000E+00
 -1      2305 7.41000E+01 4.36951E+01 0.00000E+00
 -1      2306 7.18500E+01 4.25862E+01 0.00000E+00
 -1      2307 7.56000E+01 4.36951E+01 0.00000E+00
 -1      2308 7.71000E+01 4.36951E+01 0.00000E+00
 -1      2309 7.48500E+01 4.25862E+01 0.00000E+00
 -1      2310 7.86000E+01 4.36951E+01 0.00000E+00
 -1      2311 8.01000E+01 4.36951E+01 0.00000E+00
 -1      2312 7.78500E+01 4.25862E+01 0.00000E+00
 -1      2313 8.16000E+01 4.36951E+01 0.00000E+00
 -1      2314 8.31000E+01 4.36951E+01 0.00000E+00
 -1      2315 8.08500E+01 4.25862E+01 0.00000E+00
 -1      2316 8.46000E+01 4.36951E+01 0.00000E+00
 -1      2317 8.61000E+01 4.36951E+01 0.00000E+00
 -1      2318 8.38500E+01 4.25862E+01 0.00000E+00
 -1      2319 8.76000E+01 4.36951E+01 0.00000E+00
 -1      2320 8.91000E+01 4.36951E+01 0.00000E+00
 -1      2321 8.68500E+01 4.25862E+01 0.00000E+00
 -1      2322 9.06000E+01 4.36951E+01 0.00000E+00
 -1      2323 9.21000E+01 4.36951E+01 0.00000E+00
 -1      2324 8.98500E+01 4.25862E+01 0.00000E+00
 -1      2325 9.36000E+01 4.36951E+01 0.00000E+00
 -1      2326 9.51000E+01 4.36951E+01 0.00000E+00
 -1      2327 9.28500E+01 4.25862E+01 0.00000E+00
 -1      2328 9.66000E+01 4.36951E+01 0.00000E+00
 -1      2329 9.81000E+01 4.36951E+01 0.00000E+00
 -1      2330 9.58500E+01 4.25862E+01 0.00000E+00
 -1      2331 9.96000E+01 4.36951E+01 0.00000E+00
 -1      2332 1.01100E+02 4.36951E+01 0.00000E+00
 -1      2333 9.88500E+01 4.25862E+01 0.00000E+00
 -1      2334 1.02600E+02 4.36951E+01 0.00000E+00
 -1      2335 1.04100E+02 4.36951E+01 0.00000E+00
 -1      2336 1.01850E+02 4.25862E+01 0.00000E+00
 -1      2337 1.05675E+02 4.36951E+01 0.00000E+00
 -1      2338 1.07250E+02 4.36951E+01 0.00000E+00
 -1      2339 1.04925E+02 4.25862E+01 0.00000E+00
 -1      2340 1.08750E+02 4.36951E+01 0.00000E+00
 -1      2341 1.10250E+02 4.36951E+01 0.00000E+00
 -1      2342 1.08000E+02 4.25862E+01 0.00000E+00
 -1      2343 1.11750E+02 4.36951E+01 0.00000E+00
 -1      2344 1.13250E+02 4.36951E+01 0.00000E+00
 -1      2345 1.11000E+02 4.25862E+01 0.00000E+00
 -1      2346 1.14750E+02 4.36951E+01 0.00000E+00
 -1      2347 1.16250E+02 4.36951E+01 0.00000E+00
 -1      2348 1.14000E+02 4.25862E+01 0.00000E+00
 -1      2349 1.17750E+02 4.36951E+01 0.00000E+00
 -1      2350 1.19250E+02 4.36951E+01 0.00000E+00
 -1      2351 1.17000E+02 4.25862E+01 0.00000E+00
 -1      2352 1.20750E+02 4.36951E+01 0.00000E+00
 -1      2353 1.22250E+02 4.36951E+01 0.00000E+00
 -1      2354 1.20000E+02 4.25862E+01 0.00000E+00
 -1      2355 1.23750E+02 4.36951E+01 0.00000E+00
 -1      2356 1.25250E+02 4.36951E+01 0.00000E+00
 -1      2357 1.23000E+02 4.25862E+01 0.00000E+00
 -1      2358 1.26750E+02 4.36951E+01 0.00000E+00
 -1      2359 1.28250E+02 4.36951E+01 0.00000E+00
 -1      2360 1.26000E+02 4.25862E+01 0.00000E+00
 -1      2361 1.29750E+02 4.36951E+01 0.00000E+00
 -1      2362 1.31250E+02 4.36951E+01 0.00000E+00
 -1      2363 1.29000E+02 4.25862E+01 0.00000E+00
 -1      2364 1.32750E+02 4.36951E+01 0.00000E+00
 -1      2365 1.34250E+02 4.36951E+01 0.00000E+00
 -1      2366 1.32000E+02 4.25862E+01 0.00000E+00
 -1      2367 1.35750E+02 4.36951E+01 0.00000E+00
 -1      2368 1.37250E+02 4.36951E+01 0.00000E+00
 -1      2369 1.35000E+02 4.25862E+01 0.00000E+00
 -1      2370 1.38750E+02 4.36951E+01 0.00000E+00
 -1      2371 1.40250E+02 4.36951E+01 0.00000E+00
 -1      2372 1.38000E+02 4.25862E+01 0.00000E+00
 -1      2373 1.41576E+02 4.33485E+01 0.00000E+00
 -1      2374 1.43076E+02 4.33485E+01 0.00000E+00
 -1      2375 1.43478E+02 4.15465E+01 0.00000E+00
 -1      2376 1.40826E+02 4.22396E+01 0.00000E+00
 -1      2377 2.16240E+01 6.08450E+00 0.00000E+00
 -1      2378 2.01240E+01 6.08450E+00 0.00000E+00
 -1      2379 1.86240E+01 6.08450E+00 0.00000E+00
 -1      2380 1.71240E+01 6.08450E+00 0.00000E+00
 -1      2381 1.93740E+01 7.38350E+00 0.00000E+00
 -1      2382 1.56240E+01 6.08450E+00 0.00000E+00
 -1      2383 1.41240E+01 6.08450E+00 0.00000E+00
 -1      2384 1.63740E+01 7.38350E+00 0.00000E+00
 -1      2385 2.46240E+01 6.08450E+00 0.00000E+00
 -1      2386 2.31240E+01 6.08450E+00 0.00000E+00
 -1      2387 2.23740E+01 7.38350E+00 0.00000E+00
 -1      2388 2.76240E+01 6.08450E+00 0.00000E+00
 -1      2389 2.61240E+01 6.08450E+00 0.00000E+00
 -1      2390 2.53740E+01 7.38350E+00 0.00000E+00
 -1      2391 3.06240E+01 6.08450E+00 0.00000E+00
 -1      2392 2.91240E+01 6.08450E+00 0.00000E+00
 -1      2393 2.83740E+01 7.38350E+00 0.00000E+00
 -1      2394 3.36240E+01 6.08450E+00 0.00000E+00
 -1      2395 3.21240E+01 6.08450E+00 0.00000E+00
 -1      2396 3.13740E+01 7.38350E+00 0.00000E+00
 -1      2397 3.66240E+01 6.08450E+00 0.00000E+00
 -1      2398 3.51240E+01 6.08450E+00 0.00000E+00
 -1      2399 3.43740E+01 7.38350E+00 0.00000E+00
 -1      2400 3.96240E+01 6.08450E+00 0.00000E+00
 -1      2401 3.81240E+01 6.08450E+00 0.00000E+00
 -1      2402 3.73740E+01 7.38350E+00 0.00000E+00
 -1      2403 4.26240E+01 6.08450E+00 0.00000E+00
 -1      2404 4.11240E+01 6.08450E+00 0.00000E+00
 -1      2405 4.03740E+01 7.38350E+00 0.00000E+00
 -1      2406 4.56240E+01 6.08450E+00 0.00000E+00
 -1      2407 4.41240E+01 6.08450E+00 0.00000E+00
 -1      2408 4.33740E+01 7.38350E+00 0.00000E+00
 -1      2409 4.86240E+01 6.08450E+00 0.00000E+00
 -1      2410 4.71240E+01 6.08450E+00 0.00000E+00
 -1      2411 4.63740E+01 7.38350E+00 0.00000E+00
 -1      2412 5.16240E+01 6.08450E+00 0.00000E+00
 -1      2413 5.01240E+01 6.08450E+00 0.00000E+00
 -1      2414 4.93740E+01 7.38350E+00 0.00000E+00
 -1      2415 5.46240E+01 6.08450E+00 0.00000E+00
 -1      2416 5.31240E+01 6.08450E+00 0.00000E+00
 -1      2417 5.23740E+01 7.38350E+00 0.00000E+00
 -1      2418 5.76240E+01 6.08450E+00 0.00000E+00
 -1      2419 5.61240E+01 6.08450E+00 0.00000E+00
 -1      2420 5.53740E+01 7.38350E+00 0.00000E+00
 -1      2421 6.06240E+01 6.08450E+00 0.00000E+00
 -1      2422 5.91240E+01 6.08450E+00 0.00000E+00
 -1      2423 5.83740E+01 7.38350E+00 0.00000E+00
 -1      2424 6.36240E+01 6.08450E+00 0.00000E+00
 -1      2425 6.21240E+01 6.08450E+00 0.00000E+00
 -1      2426 6.13740E+01 7.38350E+00 0.00000E+00
 -1      2427 6.66240E+01 6.08450E+00 0.00000E+00
 -1      2428 6.51240E+01 6.08450E+00 0.00000E+00
 -1      2429 6.43740E+01 7.38350E+00 0.00000E+00
 -1      2430 6.96240E+01 6.08450E+00 0.00000E+00
 -1      2431 6.81240E+01 6.08450E+00 0.00000E+00
 -1      2432 6.73740E+01 7.38350E+00 0.00000E+00
 -1      2433 7.26240E+01 6.08450E+00 0.00000E+00
 -1      2434 7.11240E+01 6.08450E+00 0.00000E+00
 -1      2435 7.03740E+01 7.38350E+00 0.00000E+00
 -1      2436 7.56240E+01 6.08450E+00 0.00000E+00
 -1      2437 7.41240E+01 6.08450E+00 0.00000E+00
 -1      2438 7.33740E+01 7.38350E+00 0.00000E+00
 -1      2439 7.86240E+01 6.08450E+00 0.00000E+00
 -1      2440 7.71240E+01 6.08450E+00 0.00000E+00
 -1      2441 7.63740E+01 7.38350E+00 0.00000E+00
 -1      2442 8.16240E+01 6.08450E+00 0.00000E+00
 -1      2443 8.01240E+01 6.08450E+00 0.00000E+00
 -1      2444 7.93740E+01 7.38350E+00 0.00000E+00
 -1      2445 8.46240E+01 6.08450E+00 0.00000E+00
 -1      2446 8.31240E+01 6.08450E+00 0.00000E+00
 -1      2447 8.23740E+01 7.38350E+00 0.00000E+00
 -1      2448 8.76240E+01 6.08450E+00 0.00000E+00
 -1      2449 8.61240E+01 6.08450E+00 0.00000E+00
 -1      2450 8.53740E+01 7.38350E+00 0.00000E+00
 -1      2451 9.06240E+01 6.08450E+00 0.00000E+00
 -1      2452 8.91240E+01 6.08450E+00 0.00000E+00
 -1      2453 8.83740E+01 7.38350E+00 0.00000E+00
 -1      2454 9.36240E+01 6.08450E+00 0.00000E+00
 -1      2455 9.21240E+01 6.08450E+00 0.00000E+00
 -1      2456 9.13740E+01 7.38350E+00 0.00000E+00
 -1      2457 9.66240E+01 6.08450E+00 0.00000E+00
 -1      2458 9.51240E+01 6.08450E+00 0.00000E+00
 -1      2459 9.43740E+01 7.38350E+00 0.00000E+00
 -1      2460 9.96240E+01 6.08450E+00 0.00000E+00
 -1      2461 9.81240E+01 6.08450E+00 0.00000E+00
 -1      2462 9.73740E+01 7.38350E+00 0.00000E+00
 -1      2463 1.02624E+02 6.08450E+00 0.00000E+00
 -1      2464 1.01124E+02 6.08450E+00 0.00000E+00
 -1      2465 1.00374E+02 7.38350E+00 0.00000E+00
 -1      2466 1.05624E+02 6.08450E+00 0.00000E+00
 -1      2467 1.04124E+02 6.08450E+00 0.00000E+00
 -1      2468 1.03374E+02 7.38350E+00 0.00000E+00
 -1      2469 1.08624E+02 6.08450E+00 0.00000E+00
 -1      2470 1.07124E+02 6.08450E+00 0.00000E+00
 -1      2471 1.06374E+02 7.38350E+00 0.00000E+00
 -1      2472 1.11624E+02 6.08450E+00 0.00000E+00
 -1      2473 1.10124E+02 6.08450E+00 0.00000E+00
 -1      2474 1.09374E+02 7.38350E+00 0.00000E+00
 -1      2475 1.14624E+02 6.08450E+00 0.00000E+00
 -1      2476 1.13124E+02 6.08450E+00 0.00000E+00
 -1      2477 1.12374E+02 7.38350E+00 0.00000E+00
 -1      2478 1.17624E+02 6.08450E+00 0.00000E+00
 -1      2479 1.16124E+02 6.08450E+00 0.00000E+00
 -1      2480 1.15374E+02 7.38350E+00 0.00000E+00
 -1      2481 1.20624E+02 6.08450E+00 0.00000E+00
 -1      2482 1.19124E+02 6.08450E+00 0.00000E+00
 -1      2483 1.18374E+02 7.38350E+00 0.00000E+00
 -1      2484 1.23624E+02 6.08450E+00 0.00000E+00
 -1      2485 1.22124E+02 6.08450E+00 0.00000E+00
 -1      2486 1.21374E+02 7.38350E+00 0.00000E+00
 -1      2487 1.26624E+02 6.08450E+00 0.00000E+00
 -1      2488 1.25124E+02 6.08450E+00 0.00000E+00
 -1      2489 1.24374E+02 7.38350E+00 0.00000E+00
 -1      2490 1.29624E+02 6.08450E+00 0.00000E+00
 -1      2491 1.28124E+02 6.08450E+00 0.00000E+00
 -1      2492 1.27374E+02 7.38350E+00 0.00000E+00
 -1      2493 1.32624E+02 6.08450E+00 0.00000E+00
 -1      2494 1.31124E+02 6.08450E+00 0.00000E+00
 -1      2495 1.30374E+02 7.38350E+00 0.00000E+00
 -1      2496 1.35624E+02 6.08450E+00 0.00000E+00
 -1      2497 1.34124E+02 6.08450E+00 0.00000E+00
 -1      2498 1.33374E+02 7.38350E+00 0.00000E+00
 -1      2499 1.38624E+02 6.08450E+00 0.00000E+00
 -1      2500 1.37124E+02 6.08450E+00 0.00000E+00
 -1      2501 1.36374E+02 7.38350E+00 0.00000E+00
 -1      2502 1.41624E+02 6.08450E+00 0.00000E+00
 -1      2503 1.40124E+02 6.08450E+00 0.00000E+00
 -1      2504 1.39374E+02 7.38350E+00 0.00000E+00
 -1      2505 1.43589E+02 6.81775E+00 0.00000E+00
 -1      2506 1.43505E+02 1.69125E+01 0.00000E+00
 -1      2507 1.43505E+02 1.54375E+01 0.00000E+00
 -1      2508 1.43505E+02 1.39875E+01 0.00000E+00
 -1      2509 1.43505E+02 1.25375E+01 0.00000E+00
 -1      2510 1.42206E+02 1.47250E+01 0.00000E+00
 -1      2511 1.43505E+02 1.10625E+01 0.00000E+00
 -1      2512 1.43505E+02 9.58750E+00 0.00000E+00
 -1      2513 1.42206E+02 1.18000E+01 0.00000E+00
 -1      2514 7.22245E+01 3.11565E+01 0.00000E+00
 -1      2515 7.24964E+01 3.21896E+01 0.00000E+00
 -1      2516 1.43505E+02 1.98625E+01 0.00000E+00
 -1      2517 1.43505E+02 1.83875E+01 0.00000E+00
 -1      2518 1.42206E+02 1.76500E+01 0.00000E+00
 -1      2519 1.43505E+02 2.28125E+01 0.00000E+00
 -1      2520 1.43505E+02 2.13375E+01 0.00000E+00
 -1      2521 1.42206E+02 2.06000E+01 0.00000E+00
 -1      2522 1.43505E+02 2.57625E+01 0.00000E+00
 -1      2523 1.43505E+02 2.42875E+01 0.00000E+00
 -1      2524 1.42206E+02 2.35500E+01 0.00000E+00
 -1      2525 1.43505E+02 2.87125E+01 0.00000E+00
 -1      2526 1.43505E+02 2.72375E+01 0.00000E+00
 -1      2527 1.42206E+02 2.65000E+01 0.00000E+00
 -1      2528 1.43505E+02 3.16125E+01 0.00000E+00
 -1      2529 1.43505E+02 3.01625E+01 0.00000E+00
 -1      2530 1.42206E+02 2.94250E+01 0.00000E+00
 -1      2531 1.43505E+02 3.45625E+01 0.00000E+00
 -1      2532 1.43505E+02 3.30875E+01 0.00000E+00
 -1      2533 1.42206E+02 3.23500E+01 0.00000E+00
 -1      2534 1.43505E+02 3.75125E+01 0.00000E+00
 -1      2535 1.43505E+02 3.60375E+01 0.00000E+00
 -1      2536 1.42206E+02 3.53000E+01 0.00000E+00
 -1      2537 1.43492E+02 4.02670E+01 0.00000E+00
 -1      2538 1.43492E+02 3.87920E+01 0.00000E+00
 -1      2539 1.42193E+02 3.80545E+01 0.00000E+00
 -1      2540 1.42165E+02 4.06136E+01 0.00000E+00
 -1      2541 7.21696E+01 3.54296E+01 0.00000E+00
 -1      2542 7.17170E+01 3.64968E+01 0.00000E+00
 -1      2543 6.55950E+00 4.28890E+01 0.00000E+00
 -1      2544 8.53650E+00 4.32410E+01 0.00000E+00
 -1      2545 9.28650E+00 4.19420E+01 0.00000E+00
 -1      2546 6.55950E+00 4.14140E+01 0.00000E+00
 -1      2547 6.82647E+01 2.42448E+01 0.00000E+00
 -1      2548 6.89851E+01 2.49044E+01 0.00000E+00
 -1      2549 6.99924E+01 2.45722E+01 0.00000E+00
 -1      2550 7.27409E+01 3.34490E+01 0.00000E+00
 -1      2551 7.26001E+01 3.43050E+01 0.00000E+00
 -1      2552 6.00959E+01 4.28435E+01 0.00000E+00
 -1      2553 5.91371E+01 4.25970E+01 0.00000E+00
 -1      2554 5.19424E+01 3.39441E+01 0.00000E+00
 -1      2555 5.19026E+01 3.30136E+01 0.00000E+00
 -1      2556 6.21088E+01 2.24548E+01 0.00000E+00
 -1      2557 6.31631E+01 2.25802E+01 0.00000E+00
 -1      2558 6.49500E+00 2.71625E+01 0.00000E+00
 -1      2559 6.49500E+00 2.86375E+01 0.00000E+00
 -1      2560 7.79400E+00 2.93750E+01 0.00000E+00
 -1      2561 7.79400E+00 2.64250E+01 0.00000E+00
 -1      2562 6.42187E+01 2.28456E+01 0.00000E+00
 -1      2563 6.51404E+01 2.30576E+01 0.00000E+00
 -1      2564 5.57230E+01 2.46981E+01 0.00000E+00
 -1      2565 5.65283E+01 2.40318E+01 0.00000E+00
 -1      2566 6.62303E+01 2.31733E+01 0.00000E+00
 -1      2567 6.71403E+01 2.35234E+01 0.00000E+00
 -1      2568 6.00279E+01 2.24863E+01 0.00000E+00
 -1      2569 6.09425E+01 2.23946E+01 0.00000E+00
 -1      2570 5.80258E+01 4.22729E+01 0.00000E+00
 -1      2571 5.71375E+01 4.18331E+01 0.00000E+00
 -1      2572 5.42768E+01 2.60375E+01 0.00000E+00
 -1      2573 5.49427E+01 2.53934E+01 0.00000E+00
 -1      2574 5.30960E+01 2.78328E+01 0.00000E+00
 -1      2575 5.35037E+01 2.69758E+01 0.00000E+00
 -1      2576 5.22041E+01 2.96741E+01 0.00000E+00
 -1      2577 5.26500E+01 2.87534E+01 0.00000E+00
 -1      2578 5.20795E+01 2.79566E+01 0.00000E+00
 -1      2579 5.19411E+01 3.19923E+01 0.00000E+00
 -1      2580 5.19796E+01 3.09711E+01 0.00000E+00
 -1      2581 5.11461E+01 3.24925E+01 0.00000E+00
 -1      2582 5.22977E+01 3.58939E+01 0.00000E+00
 -1      2583 5.21120E+01 3.49842E+01 0.00000E+00
 -1      2584 5.45202E+01 3.99202E+01 0.00000E+00
 -1      2585 5.39253E+01 3.93477E+01 0.00000E+00
 -1      2586 7.01506E+01 3.92156E+01 0.00000E+00
 -1      2587 6.96022E+01 4.00666E+01 0.00000E+00
 -1      2588 5.61544E+01 4.12499E+01 0.00000E+00
 -1      2589 5.52946E+01 4.06520E+01 0.00000E+00
 -1      2590 6.87178E+01 4.10617E+01 0.00000E+00
 -1      2591 6.78237E+01 4.18271E+01 0.00000E+00
 -1      2592 7.12251E+01 3.76183E+01 0.00000E+00
 -1      2593 7.06878E+01 3.84170E+01 0.00000E+00
 -1      2594 7.11345E+01 3.93069E+01 0.00000E+00
 -1      2595 7.17699E+01 2.92585E+01 0.00000E+00
 -1      2596 7.20324E+01 3.01511E+01 0.00000E+00
 -1      2597 1.42839E+02 8.11675E+00 0.00000E+00
 -1      2598 7.79400E+00 3.52687E+01 0.00000E+00
 -1      2599 6.49500E+00 3.60062E+01 0.00000E+00
 -1      2600 6.49500E+00 3.74750E+01 0.00000E+00
 -1      2601 6.81477E+01 2.31912E+01 0.00000E+00
 -1      2602 9.55950E+00 5.02450E+00 0.00000E+00
 -1      2603 9.37425E+00 5.84794E+00 0.00000E+00
 -1      2604 1.07692E+01 5.21931E+00 0.00000E+00
 -1      2605 7.13865E+01 2.63361E+01 0.00000E+00
 -1      2606 7.23518E+01 2.84634E+01 0.00000E+00
 -1      2607 7.21637E+01 3.73868E+01 0.00000E+00
 -1      2608 6.88392E+01 4.34499E+01 0.00000E+00
 -1      2609 6.95892E+01 4.23410E+01 0.00000E+00
 -1      2610 5.50500E+01 4.36951E+01 0.00000E+00
 -1      2611 5.65500E+01 4.36951E+01 0.00000E+00
 -1      2612 5.83619E+01 4.41368E+01 0.00000E+00
 -1      2613 5.97119E+01 4.41368E+01 0.00000E+00
 -1      2614 6.06750E+01 4.39464E+01 0.00000E+00
 -1      2615 6.20250E+01 4.39464E+01 0.00000E+00
 -1      2616 7.32722E+01 3.27568E+01 0.00000E+00
 -1      2617 7.28356E+01 3.04920E+01 0.00000E+00
 -1      2618 7.30862E+01 3.51407E+01 0.00000E+00
 -1      2619 6.55950E+00 3.99453E+01 0.00000E+00
 -1      2620 1.30515E+01 5.74931E+00 0.00000E+00
 -1      2621 1.18418E+01 5.55450E+00 0.00000E+00
 -1      2622 1.16565E+01 6.37794E+00 0.00000E+00
 -1      2623 1.38015E+01 7.04831E+00 0.00000E+00
 -1      2624 6.97128E+01 4.11007E+01 0.00000E+00
 -1      2625 1.41540E+02 8.85425E+00 0.00000E+00
 -1      2626 5.83125E+01 4.31456E+01 0.00000E+00
 -1      2627 5.44606E+01 4.09232E+01 0.00000E+00
 -1      2628 5.14091E+01 3.01743E+01 0.00000E+00
 -1      2629 5.32986E+01 2.60976E+01 0.00000E+00
 -1      2630 5.12772E+01 3.45538E+01 0.00000E+00
 -1      2631 5.31769E+01 3.90569E+01 0.00000E+00
 -1      2632 5.24284E+01 3.87661E+01 0.00000E+00
 -1      2633 5.29377E+01 3.99006E+01 0.00000E+00
 -1      2634 5.92603E+01 2.21660E+01 0.00000E+00
 -1      2635 6.37879E+01 2.19729E+01 0.00000E+00
 -1      2636 6.59334E+01 2.23540E+01 0.00000E+00
 -1      2637 6.15660E+01 2.16473E+01 0.00000E+00
 -1      2638 5.68767E+01 2.32568E+01 0.00000E+00
 -1      2639 5.72252E+01 2.24818E+01 0.00000E+00
 -1      2640 5.59808E+01 2.29938E+01 0.00000E+00
 -1      2641 5.48520E+01 2.44641E+01 0.00000E+00
 -1      2642 5.20571E+01 3.67581E+01 0.00000E+00
 -1      2643 5.12061E+01 3.64580E+01 0.00000E+00
 -1      2644 5.18165E+01 3.76222E+01 0.00000E+00
 -1      2645 6.19715E+01 4.27552E+01 0.00000E+00
 -1      2646 6.10590E+01 4.26531E+01 0.00000E+00
 -1      2647 6.69765E+01 4.26674E+01 0.00000E+00
 -1      2648 6.62091E+01 4.31445E+01 0.00000E+00
 -1      2649 5.43000E+01 4.23961E+01 0.00000E+00
 -1      2650 6.03869E+01 4.32793E+01 0.00000E+00
 -1      2651 6.26465E+01 4.36127E+01 0.00000E+00
 -1      2652 6.79812E+01 4.29362E+01 0.00000E+00
 -1      2653 6.34765E+01 4.29787E+01 0.00000E+00
 -1      2654 6.35300E+01 4.41699E+01 0.00000E+00
 -1      2655 6.50300E+01 4.41699E+01 0.00000E+00
 -1      2656 9.09300E+00 1.98250E+01 0.00000E+00
 -1      2657 9.09300E+00 2.12750E+01 0.00000E+00
 -1      2658 9.09300E+00 2.27500E+01 0.00000E+00
 -1      2659 9.09300E+00 2.42250E+01 0.00000E+00
 -1      2660 1.03920E+01 2.20250E+01 0.00000E+00
 -1      2661 9.09300E+00 1.39375E+01 0.00000E+00
 -1      2662 9.09300E+00 1.54125E+01 0.00000E+00
 -1      2663 9.09300E+00 1.09875E+01 0.00000E+00
 -1      2664 9.09300E+00 1.24625E+01 0.00000E+00
 -1      2665 1.03920E+01 1.32000E+01 0.00000E+00
 -1      2666 9.18900E+00 6.67137E+00 0.00000E+00
 -1      2667 9.00375E+00 7.49481E+00 0.00000E+00
 -1      2668 1.03988E+01 6.86619E+00 0.00000E+00
 -1      2669 5.72506E+01 4.38128E+01 0.00000E+00
 -1      2670 6.80486E+01 2.21087E+01 0.00000E+00
 -1      2671 6.91729E+01 2.28301E+01 0.00000E+00
 -1      2672 6.48221E+01 4.30241E+01 0.00000E+00
 -1      2673 7.31918E+01 2.76709E+01 0.00000E+00
 -1      2674 7.34835E+01 2.86939E+01 0.00000E+00
 -1      2675 1.44000E+01 4.09070E+01 0.00000E+00
 -1      2676 1.59000E+01 4.09070E+01 0.00000E+00
 -1      2677 1.74000E+01 4.09070E+01 0.00000E+00
 -1      2678 1.89000E+01 4.09070E+01 0.00000E+00
 -1      2679 1.66500E+01 3.96080E+01 0.00000E+00
 -1      2680 2.04000E+01 4.09070E+01 0.00000E+00
 -1      2681 2.19000E+01 4.09070E+01 0.00000E+00
 -1      2682 1.96500E+01 3.96080E+01 0.00000E+00
 -1      2683 2.34000E+01 4.09070E+01 0.00000E+00
 -1      2684 2.49000E+01 4.09070E+01 0.00000E+00
 -1      2685 2.26500E+01 3.96080E+01 0.00000E+00
 -1      2686 2.64000E+01 4.09070E+01 0.00000E+00
 -1      2687 2.79000E+01 4.09070E+01 0.00000E+00
 -1      2688 2.56500E+01 3.96080E+01 0.00000E+00
 -1      2689 2.94000E+01 4.09070E+01 0.00000E+00
 -1      2690 3.09000E+01 4.09070E+01 0.00000E+00
 -1      2691 2.86500E+01 3.96080E+01 0.00000E+00
 -1      2692 3.24000E+01 4.09070E+01 0.00000E+00
 -1      2693 3.39000E+01 4.09070E+01 0.00000E+00
 -1      2694 3.16500E+01 3.96080E+01 0.00000E+00
 -1      2695 3.54750E+01 4.09070E+01 0.00000E+00
 -1      2696 3.70500E+01 4.09070E+01 0.00000E+00
 -1      2697 3.47250E+01 3.96080E+01 0.00000E+00
 -1      2698 3.85500E+01 4.09070E+01 0.00000E+00
 -1      2699 4.00500E+01 4.09070E+01 0.00000E+00
 -1      2700 3.78000E+01 3.96080E+01 0.00000E+00
 -1      2701 4.15500E+01 4.09070E+01 0.00000E+00
 -1      2702 4.30500E+01 4.09070E+01 0.00000E+00
 -1      2703 4.08000E+01 3.96080E+01 0.00000E+00
 -1      2704 4.45500E+01 4.09070E+01 0.00000E+00
 -1      2705 4.60500E+01 4.09070E+01 0.00000E+00
 -1      2706 4.38000E+01 3.96080E+01 0.00000E+00
 -1      2707 4.75500E+01 4.09070E+01 0.00000E+00
 -1      2708 4.90500E+01 4.09070E+01 0.00000E+00
 -1      2709 4.68000E+01 3.96080E+01 0.00000E+00
 -1      2710 5.65006E+01 4.27038E+01 0.00000E+00
 -1      2711 6.54921E+01 4.36582E+01 0.00000E+00
 -1      2712 7.40740E+01 3.19477E+01 0.00000E+00
 -1      2713 7.43185E+01 3.32071E+01 0.00000E+00
 -1      2714 6.64170E+01 4.42903E+01 0.00000E+00
 -1      2715 6.79920E+01 4.42903E+01 0.00000E+00
 -1      2716 7.04736E+01 4.13459E+01 0.00000E+00
 -1      2717 7.41000E+01 4.12872E+01 0.00000E+00
 -1      2718 7.56000E+01 4.12872E+01 0.00000E+00
 -1      2719 7.71000E+01 4.12872E+01 0.00000E+00
 -1      2720 7.86000E+01 4.12872E+01 0.00000E+00
 -1      2721 7.63500E+01 3.99882E+01 0.00000E+00
 -1      2722 8.01000E+01 4.12872E+01 0.00000E+00
 -1      2723 8.16000E+01 4.12872E+01 0.00000E+00
 -1      2724 7.93500E+01 3.99882E+01 0.00000E+00
 -1      2725 8.31000E+01 4.12872E+01 0.00000E+00
 -1      2726 8.46000E+01 4.12872E+01 0.00000E+00
 -1      2727 8.23500E+01 3.99882E+01 0.00000E+00
 -1      2728 8.61000E+01 4.12872E+01 0.00000E+00
 -1      2729 8.76000E+01 4.12872E+01 0.00000E+00
 -1      2730 8.53500E+01 3.99882E+01 0.00000E+00
 -1      2731 8.91000E+01 4.12872E+01 0.00000E+00
 -1      2732 9.06000E+01 4.12872E+01 0.00000E+00
 -1      2733 8.83500E+01 3.99882E+01 0.00000E+00
 -1      2734 9.21000E+01 4.12872E+01 0.00000E+00
 -1      2735 9.36000E+01 4.12872E+01 0.00000E+00
 -1      2736 9.13500E+01 3.99882E+01 0.00000E+00
 -1      2737 9.51000E+01 4.12872E+01 0.00000E+00
 -1      2738 9.66000E+01 4.12872E+01 0.00000E+00
 -1      2739 9.43500E+01 3.99882E+01 0.00000E+00
 -1      2740 9.81000E+01 4.12872E+01 0.00000E+00
 -1      2741 9.96000E+01 4.12872E+01 0.00000E+00
 -1      2742 9.73500E+01 3.99882E+01 0.00000E+00
 -1      2743 1.01100E+02 4.12872E+01 0.00000E+00
 -1      2744 1.02600E+02 4.12872E+01 0.00000E+00
 -1      2745 1.00350E+02 3.99882E+01 0.00000E+00
 -1      2746 1.04175E+02 4.12872E+01 0.00000E+00
 -1      2747 1.05750E+02 4.12872E+01 0.00000E+00
 -1      2748 1.03425E+02 3.99882E+01 0.00000E+00
 -1      2749 1.07250E+02 4.12872E+01 0.00000E+00
 -1      2750 1.08750E+02 4.12872E+01 0.00000E+00
 -1      2751 1.06500E+02 3.99882E+01 0.00000E+00
 -1      2752 1.10250E+02 4.12872E+01 0.00000E+00
 -1      2753 1.11750E+02 4.12872E+01 0.00000E+00
 -1      2754 1.09500E+02 3.99882E+01 0.00000E+00
 -1      2755 1.13250E+02 4.12872E+01 0.00000E+00
 -1      2756 1.14750E+02 4.12872E+01 0.00000E+00
 -1      2757 1.12500E+02 3.99882E+01 0.00000E+00
 -1      2758 1.16250E+02 4.12872E+01 0.00000E+00
 -1      2759 1.17750E+02 4.12872E+01 0.00000E+00
 -1      2760 1.15500E+02 3.99882E+01 0.00000E+00
 -1      2761 1.19250E+02 4.12872E+01 0.00000E+00
 -1      2762 1.20750E+02 4.12872E+01 0.00000E+00
 -1      2763 1.18500E+02 3.99882E+01 0.00000E+00
 -1      2764 1.22250E+02 4.12872E+01 0.00000E+00
 -1      2765 1.23750E+02 4.12872E+01 0.00000E+00
 -1      2766 1.21500E+02 3.99882E+01 0.00000E+00
 -1      2767 1.25250E+02 4.12872E+01 0.00000E+00
 -1      2768 1.26750E+02 4.12872E+01 0.00000E+00
 -1      2769 1.24500E+02 3.99882E+01 0.00000E+00
 -1      2770 1.28250E+02 4.12872E+01 0.00000E+00
 -1      2771 1.29750E+02 4.12872E+01 0.00000E+00
 -1      2772 1.27500E+02 3.99882E+01 0.00000E+00
 -1      2773 1.31250E+02 4.12872E+01 0.00000E+00
 -1      2774 1.32750E+02 4.12872E+01 0.00000E+00
 -1      2775 1.30500E+02 3.99882E+01 0.00000E+00
 -1      2776 1.34250E+02 4.12872E+01 0.00000E+00
 -1      2777 1.35750E+02 4.12872E+01 0.00000E+00
 -1      2778 1.33500E+02 3.99882E+01 0.00000E+00
 -1      2779 1.37250E+02 4.12872E+01 0.00000E+00
 -1      2780 1.38750E+02 4.12872E+01 0.00000E+00
 -1      2781 1.36500E+02 3.99882E+01 0.00000E+00
 -1      2782 1.39795E+02 4.11236E+01 0.00000E+00
 -1      2783 1.41121E+02 4.07771E+01 0.00000E+00
 -1      2784 1.41134E+02 3.94976E+01 0.00000E+00
 -1      2785 1.39045E+02 3.98246E+01 0.00000E+00
 -1      2786 2.01240E+01 8.68250E+00 0.00000E+00
 -1      2787 1.86240E+01 8.68250E+00 0.00000E+00
 -1      2788 2.31240E+01 8.68250E+00 0.00000E+00
 -1      2789 2.16240E+01 8.68250E+00 0.00000E+00
 -1      2790 2.08740E+01 9.98150E+00 0.00000E+00
 -1      2791 1.71240E+01 8.68250E+00 0.00000E+00
 -1      2792 1.56240E+01 8.68250E+00 0.00000E+00
 -1      2793 1.78740E+01 9.98150E+00 0.00000E+00
 -1      2794 2.91240E+01 8.68250E+00 0.00000E+00
 -1      2795 2.76240E+01 8.68250E+00 0.00000E+00
 -1      2796 3.21240E+01 8.68250E+00 0.00000E+00
 -1      2797 3.06240E+01 8.68250E+00 0.00000E+00
 -1      2798 2.98740E+01 9.98150E+00 0.00000E+00
 -1      2799 3.51240E+01 8.68250E+00 0.00000E+00
 -1      2800 3.36240E+01 8.68250E+00 0.00000E+00
 -1      2801 3.28740E+01 9.98150E+00 0.00000E+00
 -1      2802 3.81240E+01 8.68250E+00 0.00000E+00
 -1      2803 3.66240E+01 8.68250E+00 0.00000E+00
 -1      2804 3.58740E+01 9.98150E+00 0.00000E+00
 -1      2805 4.11240E+01 8.68250E+00 0.00000E+00
 -1      2806 3.96240E+01 8.68250E+00 0.00000E+00
 -1      2807 3.88740E+01 9.98150E+00 0.00000E+00
 -1      2808 4.41240E+01 8.68250E+00 0.00000E+00
 -1      2809 4.26240E+01 8.68250E+00 0.00000E+00
 -1      2810 4.18740E+01 9.98150E+00 0.00000E+00
 -1      2811 4.71240E+01 8.68250E+00 0.00000E+00
 -1      2812 4.56240E+01 8.68250E+00 0.00000E+00
 -1      2813 4.48740E+01 9.98150E+00 0.00000E+00
 -1      2814 5.01240E+01 8.68250E+00 0.00000E+00
 -1      2815 4.86240E+01 8.68250E+00 0.00000E+00
 -1      2816 4.78740E+01 9.98150E+00 0.00000E+00
 -1      2817 5.31240E+01 8.68250E+00 0.00000E+00
 -1      2818 5.16240E+01 8.68250E+00 0.00000E+00
 -1      2819 5.08740E+01 9.98150E+00 0.00000E+00
 -1      2820 5.61240E+01 8.68250E+00 0.00000E+00
 -1      2821 5.46240E+01 8.68250E+00 0.00000E+00
 -1      2822 5.38740E+01 9.98150E+00 0.00000E+00
 -1      2823 5.91240E+01 8.68250E+00 0.00000E+00
 -1      2824 5.76240E+01 8.68250E+00 0.00000E+00
 -1      2825 5.68740E+01 9.98150E+00 0.00000E+00
 -1      2826 6.21240E+01 8.68250E+00 0.00000E+00
 -1      2827 6.06240E+01 8.68250E+00 0.00000E+00
 -1      2828 5.98740E+01 9.98150E+00 0.00000E+00
 -1      2829 6.51240E+01 8.68250E+00 0.00000E+00
 -1      2830 6.36240E+01 8.68250E+00 0.00000E+00
 -1      2831 6.28740E+01 9.98150E+00 0.00000E+00
 -1      2832 6.81240E+01 8.68250E+00 0.00000E+00
 -1      2833 6.66240E+01 8.68250E+00 0.00000E+00
 -1      2834 6.58740E+01 9.98150E+00 0.00000E+00
 -1      2835 7.11240E+01 8.68250E+00 0.00000E+00
 -1      2836 6.96240E+01 8.68250E+00 0.00000E+00
 -1      2837 6.88740E+01 9.98150E+00 0.00000E+00
 -1      2838 7.41240E+01 8.68250E+00 0.00000E+00
 -1      2839 7.26240E+01 8.68250E+00 0.00000E+00
 -1      2840 7.18740E+01 9.98150E+00 0.00000E+00
 -1      2841 7.71240E+01 8.68250E+00 0.00000E+00
 -1      2842 7.56240E+01 8.68250E+00 0.00000E+00
 -1      2843 7.48740E+01 9.98150E+00 0.00000E+00
 -1      2844 8.01240E+01 8.68250E+00 0.00000E+00
 -1      2845 7.86240E+01 8.68250E+00 0.00000E+00
 -1      2846 7.78740E+01 9.98150E+00 0.00000E+00
 -1      2847 8.31240E+01 8.68250E+00 0.00000E+00
 -1      2848 8.16240E+01 8.68250E+00 0.00000E+00
 -1      2849 8.08740E+01 9.98150E+00 0.00000E+00
 -1      2850 8.61240E+01 8.68250E+00 0.00000E+00
 -1      2851 8.46240E+01 8.68250E+00 0.00000E+00
 -1      2852 8.38740E+01 9.98150E+00 0.00000E+00
 -1      2853 8.91240E+01 8.68250E+00 0.00000E+00
 -1      2854 8.76240E+01 8.68250E+00 0.00000E+00
 -1      2855 8.68740E+01 9.98150E+00 0.00000E+00
 -1      2856 9.21240E+01 8.68250E+00 0.00000E+00
 -1      2857 9.06240E+01 8.68250E+00 0.00000E+00
 -1      2858 8.98740E+01 9.98150E+00 0.00000E+00
 -1      2859 9.51240E+01 8.68250E+00 0.00000E+00
 -1      2860 9.36240E+01 8.68250E+00 0.00000E+00
 -1      2861 9.28740E+01 9.98150E+00 0.00000E+00
 -1      2862 9.81240E+01 8.68250E+00 0.00000E+00
 -1      2863 9.66240E+01 8.68250E+00 0.00000E+00
 -1      2864 9.58740E+01 9.98150E+00 0.00000E+00
 -1      2865 1.01124E+02 8.68250E+00 0.00000E+00
 -1      2866 9.96240E+01 8.68250E+00 0.00000E+00
 -1      2867 9.88740E+01 9.98150E+00 0.00000E+00
 -1      2868 1.04124E+02 8.68250E+00 0.00000E+00
 -1      2869 1.02624E+02 8.68250E+00 0.00000E+00
 -1      2870 1.01874E+02 9.98150E+00 0.00000E+00
 -1      2871 1.07124E+02 8.68250E+00 0.00000E+00
 -1      2872 1.05624E+02 8.68250E+00 0.00000E+00
 -1      2873 1.04874E+02 9.98150E+00 0.00000E+00
 -1      2874 1.10124E+02 8.68250E+00 0.00000E+00
 -1      2875 1.08624E+02 8.68250E+00 0.00000E+00
 -1      2876 1.07874E+02 9.98150E+00 0.00000E+00
 -1      2877 1.13124E+02 8.68250E+00 0.00000E+00
 -1      2878 1.11624E+02 8.68250E+00 0.00000E+00
 -1      2879 1.10874E+02 9.98150E+00 0.00000E+00
 -1      2880 1.16124E+02 8.68250E+00 0.00000E+00
 -1      2881 1.14624E+02 8.68250E+00 0.00000E+00
 -1      2882 1.13874E+02 9.98150E+00 0.00000E+00
 -1      2883 1.19124E+02 8.68250E+00 0.00000E+00
 -1      2884 1.17624E+02 8.68250E+00 0.00000E+00
 -1      2885 1.16874E+02 9.98150E+00 0.00000E+00
 -1      2886 1.22124E+02 8.68250E+00 0.00000E+00
 -1      2887 1.20624E+02 8.68250E+00 0.00000E+00
 -1      2888 1.19874E+02 9.98150E+00 0.00000E+00
 -1      2889 1.25124E+02 8.68250E+00 0.00000E+00
 -1      2890 1.23624E+02 8.68250E+00 0.00000E+00
 -1      2891 1.22874E+02 9.98150E+00 0.00000E+00
 -1      2892 1.28124E+02 8.68250E+00 0.00000E+00
 -1      2893 1.26624E+02 8.68250E+00 0.00000E+00
 -1      2894 1.25874E+02 9.98150E+00 0.00000E+00
 -1      2895 1.31124E+02 8.68250E+00 0.00000E+00
 -1      2896 1.29624E+02 8.68250E+00 0.00000E+00
 -1      2897 1.28874E+02 9.98150E+00 0.00000E+00
 -1      2898 1.34124E+02 8.68250E+00 0.00000E+00
 -1      2899 1.32624E+02 8.68250E+00 0.00000E+00
 -1      2900 1.31874E+02 9.98150E+00 0.00000E+00
 -1      2901 1.37124E+02 8.68250E+00 0.00000E+00
 -1      2902 1.35624E+02 8.68250E+00 0.00000E+00
 -1      2903 1.34874E+02 9.98150E+00 0.00000E+00
 -1      2904 1.40082E+02 8.76838E+00 0.00000E+00
 -1      2905 1.38582E+02 8.76838E+00 0.00000E+00
 -1      2906 1.37832E+02 1.00674E+01 0.00000E+00
 -1      2907 1.40748E+02 1.02391E+01 0.00000E+00
 -1      2908 1.40907E+02 1.54500E+01 0.00000E+00
 -1      2909 1.40907E+02 1.40000E+01 0.00000E+00
 -1      2910 1.40907E+02 2.13375E+01 0.00000E+00
 -1      2911 1.40907E+02 1.98625E+01 0.00000E+00
 -1      2912 1.40827E+02 1.28571E+01 0.00000E+00
 -1      2913 1.40827E+02 1.13821E+01 0.00000E+00
 -1      2914 1.39370E+02 1.12962E+01 0.00000E+00
 -1      2915 1.39529E+02 1.35821E+01 0.00000E+00
 -1      2916 1.40907E+02 1.83937E+01 0.00000E+00
 -1      2917 1.40907E+02 1.69188E+01 0.00000E+00
 -1      2918 1.39608E+02 1.61938E+01 0.00000E+00
 -1      2919 1.39608E+02 1.91313E+01 0.00000E+00
 -1      2920 1.40907E+02 2.72375E+01 0.00000E+00
 -1      2921 1.40907E+02 2.57625E+01 0.00000E+00
 -1      2922 1.40907E+02 3.01375E+01 0.00000E+00
 -1      2923 1.40907E+02 2.86875E+01 0.00000E+00
 -1      2924 1.39608E+02 2.79500E+01 0.00000E+00
 -1      2925 1.40907E+02 3.30875E+01 0.00000E+00
 -1      2926 1.40907E+02 3.16125E+01 0.00000E+00
 -1      2927 1.39608E+02 3.08750E+01 0.00000E+00
 -1      2928 1.40907E+02 3.60375E+01 0.00000E+00
 -1      2929 1.40907E+02 3.45625E+01 0.00000E+00
 -1      2930 1.39608E+02 3.38250E+01 0.00000E+00
 -1      2931 7.17818E+01 2.53373E+01 0.00000E+00
 -1      2932 7.24554E+01 2.64416E+01 0.00000E+00
 -1      2933 8.85168E+00 4.05347E+01 0.00000E+00
 -1      2934 1.02152E+01 4.07987E+01 0.00000E+00
 -1      2935 5.62180E+01 4.22383E+01 0.00000E+00
 -1      2936 7.41805E+01 3.49150E+01 0.00000E+00
 -1      2937 7.37500E+01 3.60396E+01 0.00000E+00
 -1      2938 7.36827E+01 2.98181E+01 0.00000E+00
 -1      2939 7.38748E+01 3.08236E+01 0.00000E+00
 -1      2940 7.49211E+01 3.12738E+01 0.00000E+00
 -1      2941 7.45227E+01 2.90255E+01 0.00000E+00
 -1      2942 5.20562E+01 2.58616E+01 0.00000E+00
 -1      2943 5.28293E+01 2.49233E+01 0.00000E+00
 -1      2944 1.40907E+02 2.42875E+01 0.00000E+00
 -1      2945 1.40907E+02 2.28125E+01 0.00000E+00
 -1      2946 1.39608E+02 2.50250E+01 0.00000E+00
 -1      2947 7.19736E+01 4.13459E+01 0.00000E+00
 -1      2948 7.03245E+01 2.34863E+01 0.00000E+00
 -1      2949 7.10449E+01 2.41459E+01 0.00000E+00
 -1      2950 1.15576E+01 4.08528E+01 0.00000E+00
 -1      2951 1.30576E+01 4.08528E+01 0.00000E+00
 -1      2952 1.38076E+01 3.95538E+01 0.00000E+00
 -1      2953 1.11228E+01 3.94455E+01 0.00000E+00
 -1      2954 7.48818E+00 3.88019E+01 0.00000E+00
 -1      2955 5.36097E+01 2.42280E+01 0.00000E+00
 -1      2956 5.43900E+01 2.35327E+01 0.00000E+00
 -1      2957 5.23673E+01 2.39920E+01 0.00000E+00
 -1      2958 7.27236E+01 4.00469E+01 0.00000E+00
 -1      2959 9.09300E+00 1.68813E+01 0.00000E+00
 -1      2960 9.09300E+00 1.83563E+01 0.00000E+00
 -1      2961 1.03920E+01 1.90812E+01 0.00000E+00
 -1      2962 1.03920E+01 1.61437E+01 0.00000E+00
 -1      2963 6.35101E+01 2.08460E+01 0.00000E+00
 -1      2964 6.45657E+01 2.11114E+01 0.00000E+00
 -1      2965 5.05569E+01 3.52050E+01 0.00000E+00
 -1      2966 5.03874E+01 3.41650E+01 0.00000E+00
 -1      2967 5.10847E+01 2.80431E+01 0.00000E+00
 -1      2968 5.15307E+01 2.71224E+01 0.00000E+00
 -1      2969 5.03536E+01 3.29739E+01 0.00000E+00
 -1      2970 5.03921E+01 3.19527E+01 0.00000E+00
 -1      2971 5.82643E+01 2.16161E+01 0.00000E+00
 -1      2972 5.94036E+01 2.10373E+01 0.00000E+00
 -1      2973 9.09300E+00 3.15875E+01 0.00000E+00
 -1      2974 9.09300E+00 3.30625E+01 0.00000E+00
 -1      2975 5.04518E+01 3.06765E+01 0.00000E+00
 -1      2976 5.06763E+01 2.93795E+01 0.00000E+00
 -1      2977 6.56556E+01 2.12272E+01 0.00000E+00
 -1      2978 6.67454E+01 2.13429E+01 0.00000E+00
 -1      2979 6.53777E+01 2.01003E+01 0.00000E+00
 -1      2980 6.10270E+01 2.07608E+01 0.00000E+00
 -1      2981 6.21934E+01 2.08210E+01 0.00000E+00
 -1      2982 7.31566E+01 3.71537E+01 0.00000E+00
 -1      2983 7.26647E+01 3.82752E+01 0.00000E+00
 -1      2984 2.61240E+01 8.68250E+00 0.00000E+00
 -1      2985 2.46240E+01 8.68250E+00 0.00000E+00
 -1      2986 2.38740E+01 9.98150E+00 0.00000E+00
 -1      2987 2.68740E+01 9.98150E+00 0.00000E+00
 -1      2988 1.03920E+01 2.49750E+01 0.00000E+00
 -1      2989 9.09300E+00 2.57000E+01 0.00000E+00
 -1      2990 9.09300E+00 2.71750E+01 0.00000E+00
 -1      2991 9.00375E+00 8.96981E+00 0.00000E+00
 -1      2992 6.77707E+01 2.09818E+01 0.00000E+00
 -1      2993 7.57842E+01 3.32968E+01 0.00000E+00
 -1      2994 7.49824E+01 3.41059E+01 0.00000E+00
 -1      2995 7.56462E+01 3.50047E+01 0.00000E+00
 -1      2996 7.35871E+01 2.66721E+01 0.00000E+00
 -1      2997 5.02446E+01 3.96089E+01 0.00000E+00
 -1      2998 5.09946E+01 4.09079E+01 0.00000E+00
 -1      2999 5.24946E+01 4.09079E+01 0.00000E+00
 -1      3000 5.73684E+01 2.13531E+01 0.00000E+00
 -1      3001 5.10614E+01 2.59481E+01 0.00000E+00
 -1      3002 4.96334E+01 3.36252E+01 0.00000E+00
 -1      3003 6.29711E+01 1.99595E+01 0.00000E+00
 -1      3004 7.21138E+01 2.42514E+01 0.00000E+00
 -1      3005 1.39608E+02 2.20750E+01 0.00000E+00
 -1      3006 9.09300E+00 3.45313E+01 0.00000E+00
 -1      3007 9.09300E+00 3.60000E+01 0.00000E+00
 -1      3008 1.03920E+01 3.37938E+01 0.00000E+00
 -1      3009 8.78718E+00 3.80644E+01 0.00000E+00
 -1      3010 5.34961E+01 2.25217E+01 0.00000E+00
 -1      3011 5.47384E+01 2.27577E+01 0.00000E+00
 -1      3012 5.50869E+01 2.19827E+01 0.00000E+00
 -1      3013 1.41014E+02 3.84073E+01 0.00000E+00
 -1      3014 1.41027E+02 3.71278E+01 0.00000E+00
 -1      3015 1.39728E+02 3.63903E+01 0.00000E+00
 -1      3016 1.39969E+02 3.85708E+01 0.00000E+00
 -1      3017 1.48740E+01 9.98151E+00 0.00000E+00
 -1      3018 1.41240E+01 8.68251E+00 0.00000E+00
 -1      3019 1.30515E+01 8.34733E+00 0.00000E+00
 -1      3020 5.32431E+01 4.11987E+01 0.00000E+00
 -1      3021 5.40175E+01 4.19305E+01 0.00000E+00
 -1      3022 1.03027E+01 9.70731E+00 0.00000E+00
 -1      3023 5.15774E+01 3.84660E+01 0.00000E+00
 -1      3024 9.09300E+00 2.86437E+01 0.00000E+00
 -1      3025 9.09300E+00 3.01187E+01 0.00000E+00
 -1      3026 1.03920E+01 3.08563E+01 0.00000E+00
 -1      3027 1.03920E+01 2.79188E+01 0.00000E+00
 -1      3028 7.02254E+01 2.24038E+01 0.00000E+00
 -1      3029 7.42510E+01 3.69280E+01 0.00000E+00
 -1      3030 4.96594E+01 3.11580E+01 0.00000E+00
 -1      3031 5.03163E+01 3.60692E+01 0.00000E+00
 -1      3032 4.94265E+01 3.56804E+01 0.00000E+00
 -1      3033 5.00757E+01 3.69333E+01 0.00000E+00
 -1      3034 5.90350E+01 1.96612E+01 0.00000E+00
 -1      3035 6.00310E+01 2.02110E+01 0.00000E+00
 -1      3036 6.06584E+01 1.93847E+01 0.00000E+00
 -1      3037 5.01275E+01 2.85453E+01 0.00000E+00
 -1      3038 1.16910E+01 1.24625E+01 0.00000E+00
 -1      3039 1.16910E+01 1.39375E+01 0.00000E+00
 -1      3040 1.14712E+01 7.20138E+00 0.00000E+00
 -1      3041 6.75961E+01 1.97873E+01 0.00000E+00
 -1      3042 6.88992E+01 2.05531E+01 0.00000E+00
 -1      3043 4.96328E+01 3.84651E+01 0.00000E+00
 -1      3044 1.89000E+01 3.83090E+01 0.00000E+00
 -1      3045 2.04000E+01 3.83090E+01 0.00000E+00
 -1      3046 2.19000E+01 3.83090E+01 0.00000E+00
 -1      3047 2.34000E+01 3.83090E+01 0.00000E+00
 -1      3048 2.11500E+01 3.70100E+01 0.00000E+00
 -1      3049 2.49000E+01 3.83090E+01 0.00000E+00
 -1      3050 2.64000E+01 3.83090E+01 0.00000E+00
 -1      3051 2.41500E+01 3.70100E+01 0.00000E+00
 -1      3052 2.79000E+01 3.83090E+01 0.00000E+00
 -1      3053 2.94000E+01 3.83090E+01 0.00000E+00
 -1      3054 2.71500E+01 3.70100E+01 0.00000E+00
 -1      3055 3.09000E+01 3.83090E+01 0.00000E+00
 -1      3056 3.24000E+01 3.83090E+01 0.00000E+00
 -1      3057 3.01500E+01 3.70100E+01 0.00000E+00
 -1      3058 3.39750E+01 3.83090E+01 0.00000E+00
 -1      3059 3.55500E+01 3.83090E+01 0.00000E+00
 -1      3060 3.32250E+01 3.70100E+01 0.00000E+00
 -1      3061 3.70500E+01 3.83090E+01 0.00000E+00
 -1      3062 3.85500E+01 3.83090E+01 0.00000E+00
 -1      3063 3.63000E+01 3.70100E+01 0.00000E+00
 -1      3064 4.00500E+01 3.83090E+01 0.00000E+00
 -1      3065 4.15500E+01 3.83090E+01 0.00000E+00
 -1      3066 3.93000E+01 3.70100E+01 0.00000E+00
 -1      3067 4.30500E+01 3.83090E+01 0.00000E+00
 -1      3068 4.45500E+01 3.83090E+01 0.00000E+00
 -1      3069 4.23000E+01 3.70100E+01 0.00000E+00
 -1      3070 3.66240E+01 1.12805E+01 0.00000E+00
 -1      3071 3.51240E+01 1.12805E+01 0.00000E+00
 -1      3072 7.01986E+01 2.11122E+01 0.00000E+00
 -1      3073 7.13502E+01 2.17684E+01 0.00000E+00
 -1      3074 7.86000E+01 3.86892E+01 0.00000E+00
 -1      3075 8.01000E+01 3.86892E+01 0.00000E+00
 -1      3076 8.16000E+01 3.86892E+01 0.00000E+00
 -1      3077 8.31000E+01 3.86892E+01 0.00000E+00
 -1      3078 8.08500E+01 3.73902E+01 0.00000E+00
 -1      3079 8.46000E+01 3.86892E+01 0.00000E+00
 -1      3080 8.61000E+01 3.86892E+01 0.00000E+00
 -1      3081 8.38500E+01 3.73902E+01 0.00000E+00
 -1      3082 8.76000E+01 3.86892E+01 0.00000E+00
 -1      3083 8.91000E+01 3.86892E+01 0.00000E+00
 -1      3084 8.68500E+01 3.73902E+01 0.00000E+00
 -1      3085 9.06000E+01 3.86892E+01 0.00000E+00
 -1      3086 9.21000E+01 3.86892E+01 0.00000E+00
 -1      3087 8.98500E+01 3.73902E+01 0.00000E+00
 -1      3088 9.36000E+01 3.86892E+01 0.00000E+00
 -1      3089 9.51000E+01 3.86892E+01 0.00000E+00
 -1      3090 9.28500E+01 3.73902E+01 0.00000E+00
 -1      3091 9.66000E+01 3.86892E+01 0.00000E+00
 -1      3092 9.81000E+01 3.86892E+01 0.00000E+00
 -1      3093 9.58500E+01 3.73902E+01 0.00000E+00
 -1      3094 9.96000E+01 3.86892E+01 0.00000E+00
 -1      3095 1.01100E+02 3.86892E+01 0.00000E+00
 -1      3096 9.88500E+01 3.73902E+01 0.00000E+00
 -1      3097 1.02675E+02 3.86892E+01 0.00000E+00
 -1      3098 1.04250E+02 3.86892E+01 0.00000E+00
 -1      3099 1.01925E+02 3.73902E+01 0.00000E+00
 -1      3100 1.05750E+02 3.86892E+01 0.00000E+00
 -1      3101 1.07250E+02 3.86892E+01 0.00000E+00
 -1      3102 1.05000E+02 3.73902E+01 0.00000E+00
 -1      3103 1.08750E+02 3.86892E+01 0.00000E+00
 -1      3104 1.10250E+02 3.86892E+01 0.00000E+00
 -1      3105 1.08000E+02 3.73902E+01 0.00000E+00
 -1      3106 1.11750E+02 3.86892E+01 0.00000E+00
 -1      3107 1.13250E+02 3.86892E+01 0.00000E+00
 -1      3108 1.11000E+02 3.73902E+01 0.00000E+00
 -1      3109 1.14750E+02 3.86892E+01 0.00000E+00
 -1      3110 1.16250E+02 3.86892E+01 0.00000E+00
 -1      3111 1.14000E+02 3.73902E+01 0.00000E+00
 -1      3112 1.17750E+02 3.86892E+01 0.00000E+00
 -1      3113 1.19250E+02 3.86892E+01 0.00000E+00
 -1      3114 1.17000E+02 3.73902E+01 0.00000E+00
 -1      3115 1.20750E+02 3.86892E+01 0.00000E+00
 -1      3116 1.22250E+02 3.86892E+01 0.00000E+00
 -1      3117 1.20000E+02 3.73902E+01 0.00000E+00
 -1      3118 1.23750E+02 3.86892E+01 0.00000E+00
 -1      3119 1.25250E+02 3.86892E+01 0.00000E+00
 -1      3120 1.23000E+02 3.73902E+01 0.00000E+00
 -1      3121 1.26750E+02 3.86892E+01 0.00000E+00
 -1      3122 1.28250E+02 3.86892E+01 0.00000E+00
 -1      3123 1.26000E+02 3.73902E+01 0.00000E+00
 -1      3124 1.29750E+02 3.86892E+01 0.00000E+00
 -1      3125 1.31250E+02 3.86892E+01 0.00000E+00
 -1      3126 1.29000E+02 3.73902E+01 0.00000E+00
 -1      3127 1.32750E+02 3.86892E+01 0.00000E+00
 -1      3128 1.34250E+02 3.86892E+01 0.00000E+00
 -1      3129 1.32000E+02 3.73902E+01 0.00000E+00
 -1      3130 1.35750E+02 3.86892E+01 0.00000E+00
 -1      3131 1.37250E+02 3.86892E+01 0.00000E+00
 -1      3132 1.35000E+02 3.73902E+01 0.00000E+00
 -1      3133 2.16240E+01 1.12805E+01 0.00000E+00
 -1      3134 2.01240E+01 1.12805E+01 0.00000E+00
 -1      3135 1.86240E+01 1.12805E+01 0.00000E+00
 -1      3136 1.71240E+01 1.12805E+01 0.00000E+00
 -1      3137 1.93740E+01 1.25795E+01 0.00000E+00
 -1      3138 3.36240E+01 1.12805E+01 0.00000E+00
 -1      3139 3.21240E+01 1.12805E+01 0.00000E+00
 -1      3140 3.43740E+01 1.25795E+01 0.00000E+00
 -1      3141 3.06240E+01 1.12805E+01 0.00000E+00
 -1      3142 2.91240E+01 1.12805E+01 0.00000E+00
 -1      3143 3.13740E+01 1.25795E+01 0.00000E+00
 -1      3144 3.96240E+01 1.12805E+01 0.00000E+00
 -1      3145 3.81240E+01 1.12805E+01 0.00000E+00
 -1      3146 3.73740E+01 1.25795E+01 0.00000E+00
 -1      3147 4.26240E+01 1.12805E+01 0.00000E+00
 -1      3148 4.11240E+01 1.12805E+01 0.00000E+00
 -1      3149 4.03740E+01 1.25795E+01 0.00000E+00
 -1      3150 4.56240E+01 1.12805E+01 0.00000E+00
 -1      3151 4.41240E+01 1.12805E+01 0.00000E+00
 -1      3152 4.33740E+01 1.25795E+01 0.00000E+00
 -1      3153 4.86240E+01 1.12805E+01 0.00000E+00
 -1      3154 4.71240E+01 1.12805E+01 0.00000E+00
 -1      3155 4.63740E+01 1.25795E+01 0.00000E+00
 -1      3156 5.16240E+01 1.12805E+01 0.00000E+00
 -1      3157 5.01240E+01 1.12805E+01 0.00000E+00
 -1      3158 4.93740E+01 1.25795E+01 0.00000E+00
 -1      3159 5.46240E+01 1.12805E+01 0.00000E+00
 -1      3160 5.31240E+01 1.12805E+01 0.00000E+00
 -1      3161 5.23740E+01 1.25795E+01 0.00000E+00
 -1      3162 5.76240E+01 1.12805E+01 0.00000E+00
 -1      3163 5.61240E+01 1.12805E+01 0.00000E+00
 -1      3164 5.53740E+01 1.25795E+01 0.00000E+00
 -1      3165 6.06240E+01 1.12805E+01 0.00000E+00
 -1      3166 5.91240E+01 1.12805E+01 0.00000E+00
 -1      3167 5.83740E+01 1.25795E+01 0.00000E+00
 -1      3168 6.36240E+01 1.12805E+01 0.00000E+00
 -1      3169 6.21240E+01 1.12805E+01 0.00000E+00
 -1      3170 6.13740E+01 1.25795E+01 0.00000E+00
 -1      3171 6.66240E+01 1.12805E+01 0.00000E+00
 -1      3172 6.51240E+01 1.12805E+01 0.00000E+00
 -1      3173 6.43740E+01 1.25795E+01 0.00000E+00
 -1      3174 6.96240E+01 1.12805E+01 0.00000E+00
 -1      3175 6.81240E+01 1.12805E+01 0.00000E+00
 -1      3176 6.73740E+01 1.25795E+01 0.00000E+00
 -1      3177 7.26240E+01 1.12805E+01 0.00000E+00
 -1      3178 7.11240E+01 1.12805E+01 0.00000E+00
 -1      3179 7.03740E+01 1.25795E+01 0.00000E+00
 -1      3180 7.56240E+01 1.12805E+01 0.00000E+00
 -1      3181 7.41240E+01 1.12805E+01 0.00000E+00
 -1      3182 7.33740E+01 1.25795E+01 0.00000E+00
 -1      3183 7.86240E+01 1.12805E+01 0.00000E+00
 -1      3184 7.71240E+01 1.12805E+01 0.00000E+00
 -1      3185 7.63740E+01 1.25795E+01 0.00000E+00
 -1      3186 8.16240E+01 1.12805E+01 0.00000E+00
 -1      3187 8.01240E+01 1.12805E+01 0.00000E+00
 -1      3188 7.93740E+01 1.25795E+01 0.00000E+00
 -1      3189 8.46240E+01 1.12805E+01 0.00000E+00
 -1      3190 8.31240E+01 1.12805E+01 0.00000E+00
 -1      3191 8.23740E+01 1.25795E+01 0.00000E+00
 -1      3192 8.76240E+01 1.12805E+01 0.00000E+00
 -1      3193 8.61240E+01 1.12805E+01 0.00000E+00
 -1      3194 8.53740E+01 1.25795E+01 0.00000E+00
 -1      3195 9.06240E+01 1.12805E+01 0.00000E+00
 -1      3196 8.91240E+01 1.12805E+01 0.00000E+00
 -1      3197 8.83740E+01 1.25795E+01 0.00000E+00
 -1      3198 9.36240E+01 1.12805E+01 0.00000E+00
 -1      3199 9.21240E+01 1.12805E+01 0.00000E+00
 -1      3200 9.13740E+01 1.25795E+01 0.00000E+00
 -1      3201 9.66240E+01 1.12805E+01 0.00000E+00
 -1      3202 9.51240E+01 1.12805E+01 0.00000E+00
 -1      3203 9.43740E+01 1.25795E+01 0.00000E+00
 -1      3204 9.96240E+01 1.12805E+01 0.00000E+00
 -1      3205 9.81240E+01 1.12805E+01 0.00000E+00
 -1      3206 9.73740E+01 1.25795E+01 0.00000E+00
 -1      3207 1.02624E+02 1.12805E+01 0.00000E+00
 -1      3208 1.01124E+02 1.12805E+01 0.00000E+00
 -1      3209 1.00374E+02 1.25795E+01 0.00000E+00
 -1      3210 1.05624E+02 1.12805E+01 0.00000E+00
 -1      3211 1.04124E+02 1.12805E+01 0.00000E+00
 -1      3212 1.03374E+02 1.25795E+01 0.00000E+00
 -1      3213 1.08624E+02 1.12805E+01 0.00000E+00
 -1      3214 1.07124E+02 1.12805E+01 0.00000E+00
 -1      3215 1.06374E+02 1.25795E+01 0.00000E+00
 -1      3216 1.11624E+02 1.12805E+01 0.00000E+00
 -1      3217 1.10124E+02 1.12805E+01 0.00000E+00
 -1      3218 1.09374E+02 1.25795E+01 0.00000E+00
 -1      3219 1.14624E+02 1.12805E+01 0.00000E+00
 -1      3220 1.13124E+02 1.12805E+01 0.00000E+00
 -1      3221 1.12374E+02 1.25795E+01 0.00000E+00
 -1      3222 1.17624E+02 1.12805E+01 0.00000E+00
 -1      3223 1.16124E+02 1.12805E+01 0.00000E+00
 -1      3224 1.15374E+02 1.25795E+01 0.00000E+00
 -1      3225 1.20624E+02 1.12805E+01 0.00000E+00
 -1      3226 1.19124E+02 1.12805E+01 0.00000E+00
 -1      3227 1.18374E+02 1.25795E+01 0.00000E+00
 -1      3228 1.23624E+02 1.12805E+01 0.00000E+00
 -1      3229 1.22124E+02 1.12805E+01 0.00000E+00
 -1      3230 1.21374E+02 1.25795E+01 0.00000E+00
 -1      3231 1.26624E+02 1.12805E+01 0.00000E+00
 -1      3232 1.25124E+02 1.12805E+01 0.00000E+00
 -1      3233 1.24374E+02 1.25795E+01 0.00000E+00
 -1      3234 1.29624E+02 1.12805E+01 0.00000E+00
 -1      3235 1.28124E+02 1.12805E+01 0.00000E+00
 -1      3236 1.27374E+02 1.25795E+01 0.00000E+00
 -1      3237 1.32624E+02 1.12805E+01 0.00000E+00
 -1      3238 1.31124E+02 1.12805E+01 0.00000E+00
 -1      3239 1.30374E+02 1.25795E+01 0.00000E+00
 -1      3240 1.35624E+02 1.12805E+01 0.00000E+00
 -1      3241 1.34124E+02 1.12805E+01 0.00000E+00
 -1      3242 1.33374E+02 1.25795E+01 0.00000E+00
 -1      3243 1.38226E+02 1.13313E+01 0.00000E+00
 -1      3244 1.36768E+02 1.12454E+01 0.00000E+00
 -1      3245 1.36018E+02 1.25444E+01 0.00000E+00
 -1      3246 1.38305E+02 1.24742E+01 0.00000E+00
 -1      3247 1.38309E+02 3.16125E+01 0.00000E+00
 -1      3248 1.38309E+02 3.01375E+01 0.00000E+00
 -1      3249 1.38309E+02 3.45625E+01 0.00000E+00
 -1      3250 1.38309E+02 3.30875E+01 0.00000E+00
 -1      3251 1.37010E+02 3.23500E+01 0.00000E+00
 -1      3252 1.17938E+01 8.83558E+00 0.00000E+00
 -1      3253 1.18830E+01 1.08533E+01 0.00000E+00
 -1      3254 1.38309E+02 2.86875E+01 0.00000E+00
 -1      3255 1.38309E+02 2.72375E+01 0.00000E+00
 -1      3256 1.37010E+02 2.94250E+01 0.00000E+00
 -1      3257 5.61927E+01 2.09983E+01 0.00000E+00
 -1      3258 5.72319E+01 2.01327E+01 0.00000E+00
 -1      3259 1.38309E+02 2.28125E+01 0.00000E+00
 -1      3260 1.38309E+02 2.13375E+01 0.00000E+00
 -1      3261 7.41702E+01 2.54876E+01 0.00000E+00
 -1      3262 7.49066E+01 2.67168E+01 0.00000E+00
 -1      3263 7.26964E+01 2.31047E+01 0.00000E+00
 -1      3264 7.34333E+01 2.42962E+01 0.00000E+00
 -1      3265 7.47528E+01 2.43409E+01 0.00000E+00
 -1      3266 1.38309E+02 2.57625E+01 0.00000E+00
 -1      3267 1.38309E+02 2.42875E+01 0.00000E+00
 -1      3268 1.37010E+02 2.35500E+01 0.00000E+00
 -1      3269 1.37010E+02 2.65000E+01 0.00000E+00
 -1      3270 1.59000E+01 3.83090E+01 0.00000E+00
 -1      3271 1.74000E+01 3.83090E+01 0.00000E+00
 -1      3272 1.81500E+01 3.70100E+01 0.00000E+00
 -1      3273 5.12394E+01 2.35117E+01 0.00000E+00
 -1      3274 5.20197E+01 2.28164E+01 0.00000E+00
 -1      3275 4.96978E+01 2.61196E+01 0.00000E+00
 -1      3276 5.02233E+01 2.48588E+01 0.00000E+00
 -1      3277 4.87729E+01 3.17560E+01 0.00000E+00
 -1      3278 4.88326E+01 3.04798E+01 0.00000E+00
 -1      3279 6.23306E+01 1.90058E+01 0.00000E+00
 -1      3280 6.36474E+01 1.90309E+01 0.00000E+00
 -1      3281 4.87930E+01 3.42450E+01 0.00000E+00
 -1      3282 4.87593E+01 3.30540E+01 0.00000E+00
 -1      3283 1.00862E+01 3.73269E+01 0.00000E+00
 -1      3284 1.16910E+01 2.12875E+01 0.00000E+00
 -1      3285 1.16910E+01 2.27625E+01 0.00000E+00
 -1      3286 6.49322E+01 1.91063E+01 0.00000E+00
 -1      3287 6.60221E+01 1.92221E+01 0.00000E+00
 -1      3288 4.88809E+01 2.87925E+01 0.00000E+00
 -1      3289 4.92894E+01 2.74561E+01 0.00000E+00
 -1      3290 4.84512E+01 2.63668E+01 0.00000E+00
 -1      3291 7.42538E+01 3.90151E+01 0.00000E+00
 -1      3292 7.32609E+01 3.92483E+01 0.00000E+00
 -1      3293 7.54406E+01 3.67869E+01 0.00000E+00
 -1      3294 7.48472E+01 3.79010E+01 0.00000E+00
 -1      3295 7.54434E+01 3.88740E+01 0.00000E+00
 -1      3296 4.87430E+01 3.80763E+01 0.00000E+00
 -1      3297 1.31820E+01 1.15908E+01 0.00000E+00
 -1      3298 7.61178E+01 2.65773E+01 0.00000E+00
 -1      3299 7.55348E+01 2.77618E+01 0.00000E+00
 -1      3300 6.71506E+01 1.87934E+01 0.00000E+00
 -1      3301 6.82791E+01 1.83647E+01 0.00000E+00
 -1      3302 6.67050E+01 1.77994E+01 0.00000E+00
 -1      3303 2.76240E+01 1.12805E+01 0.00000E+00
 -1      3304 2.61240E+01 1.12805E+01 0.00000E+00
 -1      3305 2.83740E+01 1.25795E+01 0.00000E+00
 -1      3306 1.38464E+02 1.47601E+01 0.00000E+00
 -1      3307 1.38385E+02 1.36172E+01 0.00000E+00
 -1      3308 1.37241E+02 1.36523E+01 0.00000E+00
 -1      3309 7.62769E+01 3.22384E+01 0.00000E+00
 -1      3310 7.69408E+01 3.31372E+01 0.00000E+00
 -1      3311 5.12403E+01 2.15611E+01 0.00000E+00
 -1      3312 5.23682E+01 2.20414E+01 0.00000E+00
 -1      3313 5.27167E+01 2.12663E+01 0.00000E+00
 -1      3314 5.55175E+01 4.21206E+01 0.00000E+00
 -1      3315 7.69434E+01 3.88740E+01 0.00000E+00
 -1      3316 4.60500E+01 3.84153E+01 0.00000E+00
 -1      3317 4.75500E+01 3.84153E+01 0.00000E+00
 -1      3318 7.26429E+01 2.05216E+01 0.00000E+00
 -1      3319 7.26697E+01 2.18131E+01 0.00000E+00
 -1      3320 7.39891E+01 2.18578E+01 0.00000E+00
 -1      3321 1.16910E+01 1.83500E+01 0.00000E+00
 -1      3322 1.16910E+01 1.98188E+01 0.00000E+00
 -1      3323 1.29900E+01 2.05562E+01 0.00000E+00
 -1      3324 2.31240E+01 1.12805E+01 0.00000E+00
 -1      3325 2.23740E+01 1.25795E+01 0.00000E+00
 -1      3326 2.46240E+01 1.12805E+01 0.00000E+00
 -1      3327 1.38924E+02 3.87344E+01 0.00000E+00
 -1      3328 1.16910E+01 2.42375E+01 0.00000E+00
 -1      3329 1.16910E+01 2.57125E+01 0.00000E+00
 -1      3330 1.29900E+01 2.35000E+01 0.00000E+00
 -1      3331 1.38054E+02 3.63451E+01 0.00000E+00
 -1      3332 1.36755E+02 3.56076E+01 0.00000E+00
 -1      3333 1.38309E+02 1.98687E+01 0.00000E+00
 -1      3334 1.38309E+02 1.84000E+01 0.00000E+00
 -1      3335 1.37010E+02 2.06063E+01 0.00000E+00
 -1      3336 1.16910E+01 3.30594E+01 0.00000E+00
 -1      3337 1.16910E+01 3.45281E+01 0.00000E+00
 -1      3338 4.79945E+01 2.93905E+01 0.00000E+00
 -1      3339 4.53000E+01 3.71163E+01 0.00000E+00
 -1      3340 1.16910E+01 1.54094E+01 0.00000E+00
 -1      3341 1.16910E+01 1.68781E+01 0.00000E+00
 -1      3342 1.29900E+01 1.76156E+01 0.00000E+00
 -1      3343 1.29900E+01 1.46719E+01 0.00000E+00
 -1      3344 5.66836E+01 1.89515E+01 0.00000E+00
 -1      3345 5.78593E+01 1.93063E+01 0.00000E+00
 -1      3346 5.84866E+01 1.84800E+01 0.00000E+00
 -1      3347 5.49503E+01 2.07622E+01 0.00000E+00
 -1      3348 1.56240E+01 1.12805E+01 0.00000E+00
 -1      3349 1.41241E+01 1.12805E+01 0.00000E+00
 -1      3350 4.79326E+01 3.23758E+01 0.00000E+00
 -1      3351 6.42917E+01 1.81526E+01 0.00000E+00
 -1      3352 4.85524E+01 3.51091E+01 0.00000E+00
 -1      3353 4.76784E+01 3.45379E+01 0.00000E+00
 -1      3354 4.83118E+01 3.59733E+01 0.00000E+00
 -1      3355 1.39320E+01 1.28898E+01 0.00000E+00
 -1      3356 7.76934E+01 3.75750E+01 0.00000E+00
 -1      3357 7.60777E+01 3.11142E+01 0.00000E+00
 -1      3358 7.63717E+01 3.58034E+01 0.00000E+00
 -1      3359 7.69679E+01 3.67764E+01 0.00000E+00
 -1      3360 7.86245E+01 3.65916E+01 0.00000E+00
 -1      3361 7.71736E+01 3.49943E+01 0.00000E+00
 -1      3362 6.13346E+01 1.84560E+01 0.00000E+00
 -1      3363 6.20109E+01 1.75274E+01 0.00000E+00
 -1      3364 6.03386E+01 1.79062E+01 0.00000E+00
 -1      3365 1.45576E+01 3.82548E+01 0.00000E+00
 -1      3366 1.53076E+01 3.69558E+01 0.00000E+00
 -1      3367 1.32152E+01 3.82007E+01 0.00000E+00
 -1      3368 1.38174E+02 3.74354E+01 0.00000E+00
 -1      3369 4.98758E+01 2.36832E+01 0.00000E+00
 -1      3370 1.14286E+01 3.73811E+01 0.00000E+00
 -1      3371 1.16910E+01 3.01219E+01 0.00000E+00
 -1      3372 1.16910E+01 3.15906E+01 0.00000E+00
 -1      3373 1.29900E+01 3.23250E+01 0.00000E+00
 -1      3374 7.00240E+01 1.99178E+01 0.00000E+00
 -1      3375 7.57340E+01 2.88860E+01 0.00000E+00
 -1      3376 1.38464E+02 1.62288E+01 0.00000E+00
 -1      3377 1.63740E+01 1.25795E+01 0.00000E+00
 -1      3378 2.34000E+01 3.57110E+01 0.00000E+00
 -1      3379 2.49000E+01 3.57110E+01 0.00000E+00
 -1      3380 2.64000E+01 3.57110E+01 0.00000E+00
 -1      3381 2.79000E+01 3.57110E+01 0.00000E+00
 -1      3382 2.56500E+01 3.44120E+01 0.00000E+00
 -1      3383 2.94000E+01 3.57110E+01 0.00000E+00
 -1      3384 3.09000E+01 3.57110E+01 0.00000E+00
 -1      3385 2.86500E+01 3.44120E+01 0.00000E+00
 -1      3386 3.24750E+01 3.57110E+01 0.00000E+00
 -1      3387 3.40500E+01 3.57110E+01 0.00000E+00
 -1      3388 3.17250E+01 3.44120E+01 0.00000E+00
 -1      3389 3.55500E+01 3.57110E+01 0.00000E+00
 -1      3390 3.70500E+01 3.57110E+01 0.00000E+00
 -1      3391 3.48000E+01 3.44120E+01 0.00000E+00
 -1      3392 3.85500E+01 3.57110E+01 0.00000E+00
 -1      3393 4.00500E+01 3.57110E+01 0.00000E+00
 -1      3394 3.78000E+01 3.44120E+01 0.00000E+00
 -1      3395 4.15500E+01 3.57110E+01 0.00000E+00
 -1      3396 4.30500E+01 3.57110E+01 0.00000E+00
 -1      3397 4.08000E+01 3.44120E+01 0.00000E+00
 -1      3398 4.11240E+01 1.38785E+01 0.00000E+00
 -1      3399 3.96240E+01 1.38785E+01 0.00000E+00
 -1      3400 3.81240E+01 1.38785E+01 0.00000E+00
 -1      3401 3.66240E+01 1.38785E+01 0.00000E+00
 -1      3402 3.88740E+01 1.51775E+01 0.00000E+00
 -1      3403 8.31000E+01 3.60912E+01 0.00000E+00
 -1      3404 8.46000E+01 3.60912E+01 0.00000E+00
 -1      3405 8.61000E+01 3.60912E+01 0.00000E+00
 -1      3406 8.76000E+01 3.60912E+01 0.00000E+00
 -1      3407 8.53500E+01 3.47922E+01 0.00000E+00
 -1      3408 8.91000E+01 3.60912E+01 0.00000E+00
 -1      3409 9.06000E+01 3.60912E+01 0.00000E+00
 -1      3410 8.83500E+01 3.47922E+01 0.00000E+00
 -1      3411 9.21000E+01 3.60912E+01 0.00000E+00
 -1      3412 9.36000E+01 3.60912E+01 0.00000E+00
 -1      3413 9.13500E+01 3.47922E+01 0.00000E+00
 -1      3414 9.51000E+01 3.60912E+01 0.00000E+00
 -1      3415 9.66000E+01 3.60912E+01 0.00000E+00
 -1      3416 9.43500E+01 3.47922E+01 0.00000E+00
 -1      3417 9.81000E+01 3.60912E+01 0.00000E+00
 -1      3418 9.96000E+01 3.60912E+01 0.00000E+00
 -1      3419 9.73500E+01 3.47922E+01 0.00000E+00
 -1      3420 1.01175E+02 3.60912E+01 0.00000E+00
 -1      3421 1.02750E+02 3.60912E+01 0.00000E+00
 -1      3422 1.00425E+02 3.47922E+01 0.00000E+00
 -1      3423 1.04250E+02 3.60912E+01 0.00000E+00
 -1      3424 1.05750E+02 3.60912E+01 0.00000E+00
 -1      3425 1.03500E+02 3.47922E+01 0.00000E+00
 -1      3426 1.07250E+02 3.60912E+01 0.00000E+00
 -1      3427 1.08750E+02 3.60912E+01 0.00000E+00
 -1      3428 1.06500E+02 3.47922E+01 0.00000E+00
 -1      3429 1.10250E+02 3.60912E+01 0.00000E+00
 -1      3430 1.11750E+02 3.60912E+01 0.00000E+00
 -1      3431 1.09500E+02 3.47922E+01 0.00000E+00
 -1      3432 1.13250E+02 3.60912E+01 0.00000E+00
 -1      3433 1.14750E+02 3.60912E+01 0.00000E+00
 -1      3434 1.12500E+02 3.47922E+01 0.00000E+00
 -1      3435 1.16250E+02 3.60912E+01 0.00000E+00
 -1      3436 1.17750E+02 3.60912E+01 0.00000E+00
 -1      3437 1.15500E+02 3.47922E+01 0.00000E+00
 -1      3438 1.19250E+02 3.60912E+01 0.00000E+00
 -1      3439 1.20750E+02 3.60912E+01 0.00000E+00
 -1      3440 1.18500E+02 3.47922E+01 0.00000E+00
 -1      3441 1.22250E+02 3.60912E+01 0.00000E+00
 -1      3442 1.23750E+02 3.60912E+01 0.00000E+00
 -1      3443 1.21500E+02 3.47922E+01 0.00000E+00
 -1      3444 1.25250E+02 3.60912E+01 0.00000E+00
 -1      3445 1.26750E+02 3.60912E+01 0.00000E+00
 -1      3446 1.24500E+02 3.47922E+01 0.00000E+00
 -1      3447 1.28250E+02 3.60912E+01 0.00000E+00
 -1      3448 1.29750E+02 3.60912E+01 0.00000E+00
 -1      3449 1.27500E+02 3.47922E+01 0.00000E+00
 -1      3450 1.31250E+02 3.60912E+01 0.00000E+00
 -1      3451 1.32750E+02 3.60912E+01 0.00000E+00
 -1      3452 1.30500E+02 3.47922E+01 0.00000E+00
 -1      3453 1.34003E+02 3.58494E+01 0.00000E+00
 -1      3454 1.35503E+02 3.58494E+01 0.00000E+00
 -1      3455 1.35758E+02 3.40668E+01 0.00000E+00
 -1      3456 1.33253E+02 3.45504E+01 0.00000E+00
 -1      3457 4.83486E+01 2.35881E+01 0.00000E+00
 -1      3458 4.93647E+01 2.22410E+01 0.00000E+00
 -1      3459 3.51240E+01 1.38785E+01 0.00000E+00
 -1      3460 3.36240E+01 1.38785E+01 0.00000E+00
 -1      3461 3.58740E+01 1.51775E+01 0.00000E+00
 -1      3462 3.21240E+01 1.38785E+01 0.00000E+00
 -1      3463 3.06240E+01 1.38785E+01 0.00000E+00
 -1      3464 3.28740E+01 1.51775E+01 0.00000E+00
 -1      3465 4.41240E+01 1.38785E+01 0.00000E+00
 -1      3466 4.26240E+01 1.38785E+01 0.00000E+00
 -1      3467 4.18740E+01 1.51775E+01 0.00000E+00
 -1      3468 4.71240E+01 1.38785E+01 0.00000E+00
 -1      3469 4.56240E+01 1.38785E+01 0.00000E+00
 -1      3470 4.48740E+01 1.51775E+01 0.00000E+00
 -1      3471 5.01240E+01 1.38785E+01 0.00000E+00
 -1      3472 4.86240E+01 1.38785E+01 0.00000E+00
 -1      3473 4.78740E+01 1.51775E+01 0.00000E+00
 -1      3474 5.31240E+01 1.38785E+01 0.00000E+00
 -1      3475 5.16240E+01 1.38785E+01 0.00000E+00
 -1      3476 5.08740E+01 1.51775E+01 0.00000E+00
 -1      3477 5.61240E+01 1.38785E+01 0.00000E+00
 -1      3478 5.46240E+01 1.38785E+01 0.00000E+00
 -1      3479 5.38740E+01 1.51775E+01 0.00000E+00
 -1      3480 5.91240E+01 1.38785E+01 0.00000E+00
 -1      3481 5.76240E+01 1.38785E+01 0.00000E+00
 -1      3482 5.68740E+01 1.51775E+01 0.00000E+00
 -1      3483 6.19444E+01 1.47785E+01 0.00000E+00
 -1      3484 6.04444E+01 1.47785E+01 0.00000E+00
 -1      3485 6.81240E+01 1.38785E+01 0.00000E+00
 -1      3486 6.66240E+01 1.38785E+01 0.00000E+00
 -1      3487 7.11240E+01 1.38785E+01 0.00000E+00
 -1      3488 6.96240E+01 1.38785E+01 0.00000E+00
 -1      3489 6.88740E+01 1.51775E+01 0.00000E+00
 -1      3490 7.41240E+01 1.38785E+01 0.00000E+00
 -1      3491 7.26240E+01 1.38785E+01 0.00000E+00
 -1      3492 7.18740E+01 1.51775E+01 0.00000E+00
 -1      3493 7.71240E+01 1.38785E+01 0.00000E+00
 -1      3494 7.56240E+01 1.38785E+01 0.00000E+00
 -1      3495 7.48740E+01 1.51775E+01 0.00000E+00
 -1      3496 8.01240E+01 1.38785E+01 0.00000E+00
 -1      3497 7.86240E+01 1.38785E+01 0.00000E+00
 -1      3498 7.78740E+01 1.51775E+01 0.00000E+00
 -1      3499 8.31240E+01 1.38785E+01 0.00000E+00
 -1      3500 8.16240E+01 1.38785E+01 0.00000E+00
 -1      3501 8.08740E+01 1.51775E+01 0.00000E+00
 -1      3502 8.61240E+01 1.38785E+01 0.00000E+00
 -1      3503 8.46240E+01 1.38785E+01 0.00000E+00
 -1      3504 8.38740E+01 1.51775E+01 0.00000E+00
 -1      3505 8.91240E+01 1.38785E+01 0.00000E+00
 -1      3506 8.76240E+01 1.38785E+01 0.00000E+00
 -1      3507 8.68740E+01 1.51775E+01 0.00000E+00
 -1      3508 9.21240E+01 1.38785E+01 0.00000E+00
 -1      3509 9.06240E+01 1.38785E+01 0.00000E+00
 -1      3510 8.98740E+01 1.51775E+01 0.00000E+00
 -1      3511 9.51240E+01 1.38785E+01 0.00000E+00
 -1      3512 9.36240E+01 1.38785E+01 0.00000E+00
 -1      3513 9.28740E+01 1.51775E+01 0.00000E+00
 -1      3514 9.81240E+01 1.38785E+01 0.00000E+00
 -1      3515 9.66240E+01 1.38785E+01 0.00000E+00
 -1      3516 9.58740E+01 1.51775E+01 0.00000E+00
 -1      3517 1.01124E+02 1.38785E+01 0.00000E+00
 -1      3518 9.96240E+01 1.38785E+01 0.00000E+00
 -1      3519 9.88740E+01 1.51775E+01 0.00000E+00
 -1      3520 1.04124E+02 1.38785E+01 0.00000E+00
 -1      3521 1.02624E+02 1.38785E+01 0.00000E+00
 -1      3522 1.01874E+02 1.51775E+01 0.00000E+00
 -1      3523 1.07124E+02 1.38785E+01 0.00000E+00
 -1      3524 1.05624E+02 1.38785E+01 0.00000E+00
 -1      3525 1.04874E+02 1.51775E+01 0.00000E+00
 -1      3526 1.10124E+02 1.38785E+01 0.00000E+00
 -1      3527 1.08624E+02 1.38785E+01 0.00000E+00
 -1      3528 1.07874E+02 1.51775E+01 0.00000E+00
 -1      3529 1.13124E+02 1.38785E+01 0.00000E+00
 -1      3530 1.11624E+02 1.38785E+01 0.00000E+00
 -1      3531 1.10874E+02 1.51775E+01 0.00000E+00
 -1      3532 1.16124E+02 1.38785E+01 0.00000E+00
 -1      3533 1.14624E+02 1.38785E+01 0.00000E+00
 -1      3534 1.13874E+02 1.51775E+01 0.00000E+00
 -1      3535 1.19124E+02 1.38785E+01 0.00000E+00
 -1      3536 1.17624E+02 1.38785E+01 0.00000E+00
 -1      3537 1.16874E+02 1.51775E+01 0.00000E+00
 -1      3538 1.22124E+02 1.38785E+01 0.00000E+00
 -1      3539 1.20624E+02 1.38785E+01 0.00000E+00
 -1      3540 1.19874E+02 1.51775E+01 0.00000E+00
 -1      3541 1.25124E+02 1.38785E+01 0.00000E+00
 -1      3542 1.23624E+02 1.38785E+01 0.00000E+00
 -1      3543 1.22874E+02 1.51775E+01 0.00000E+00
 -1      3544 1.28124E+02 1.38785E+01 0.00000E+00
 -1      3545 1.26624E+02 1.38785E+01 0.00000E+00
 -1      3546 1.25874E+02 1.51775E+01 0.00000E+00
 -1      3547 1.31124E+02 1.38785E+01 0.00000E+00
 -1      3548 1.29624E+02 1.38785E+01 0.00000E+00
 -1      3549 1.28874E+02 1.51775E+01 0.00000E+00
 -1      3550 1.34124E+02 1.38785E+01 0.00000E+00
 -1      3551 1.32624E+02 1.38785E+01 0.00000E+00
 -1      3552 1.31874E+02 1.51775E+01 0.00000E+00
 -1      3553 7.66823E+01 2.55266E+01 0.00000E+00
 -1      3554 7.73105E+01 2.65716E+01 0.00000E+00
 -1      3555 7.81589E+01 3.28774E+01 0.00000E+00
 -1      3556 7.76662E+01 3.39358E+01 0.00000E+00
 -1      3557 7.83917E+01 3.47345E+01 0.00000E+00
 -1      3558 1.35758E+02 3.25918E+01 0.00000E+00
 -1      3559 1.35758E+02 3.11168E+01 0.00000E+00
 -1      3560 1.34505E+02 3.28336E+01 0.00000E+00
 -1      3561 6.98126E+01 1.86196E+01 0.00000E+00
 -1      3562 7.11120E+01 1.91787E+01 0.00000E+00
 -1      3563 4.68619E+01 3.02024E+01 0.00000E+00
 -1      3564 4.69102E+01 2.85151E+01 0.00000E+00
 -1      3565 1.74000E+01 3.57110E+01 0.00000E+00
 -1      3566 1.89000E+01 3.57110E+01 0.00000E+00
 -1      3567 1.34776E+01 3.53477E+01 0.00000E+00
 -1      3568 1.21786E+01 3.60821E+01 0.00000E+00
 -1      3569 4.69007E+01 3.30140E+01 0.00000E+00
 -1      3570 4.69143E+01 3.17161E+01 0.00000E+00
 -1      3571 7.52086E+01 2.31437E+01 0.00000E+00
 -1      3572 7.59455E+01 2.43352E+01 0.00000E+00
 -1      3573 7.71381E+01 2.43295E+01 0.00000E+00
 -1      3574 1.35758E+02 2.96668E+01 0.00000E+00
 -1      3575 1.35758E+02 2.82168E+01 0.00000E+00
 -1      3576 1.34505E+02 2.99086E+01 0.00000E+00
 -1      3577 1.16910E+01 2.71844E+01 0.00000E+00
 -1      3578 1.16910E+01 2.86531E+01 0.00000E+00
 -1      3579 1.29900E+01 2.93875E+01 0.00000E+00
 -1      3580 2.01240E+01 1.38785E+01 0.00000E+00
 -1      3581 1.86240E+01 1.38785E+01 0.00000E+00
 -1      3582 1.71240E+01 1.38785E+01 0.00000E+00
 -1      3583 1.56241E+01 1.38785E+01 0.00000E+00
 -1      3584 1.78740E+01 1.51775E+01 0.00000E+00
 -1      3585 7.70897E+01 2.98505E+01 0.00000E+00
 -1      3586 5.38225E+01 2.02819E+01 0.00000E+00
 -1      3587 5.49283E+01 1.92975E+01 0.00000E+00
 -1      3588 5.26946E+01 1.98016E+01 0.00000E+00
 -1      3589 6.37192E+01 1.69243E+01 0.00000E+00
 -1      3590 6.50041E+01 1.69997E+01 0.00000E+00
 -1      3591 1.47780E+01 1.41201E+01 0.00000E+00
 -1      3592 1.38360E+01 1.44303E+01 0.00000E+00
 -1      3593 1.38360E+01 1.59022E+01 0.00000E+00
 -1      3594 1.55280E+01 1.54191E+01 0.00000E+00
 -1      3595 2.04000E+01 3.57110E+01 0.00000E+00
 -1      3596 2.19000E+01 3.57110E+01 0.00000E+00
 -1      3597 2.26500E+01 3.44120E+01 0.00000E+00
 -1      3598 8.01123E+01 3.63414E+01 0.00000E+00
 -1      3599 8.16123E+01 3.63414E+01 0.00000E+00
 -1      3600 8.23623E+01 3.50424E+01 0.00000E+00
 -1      3601 7.93868E+01 3.55427E+01 0.00000E+00
 -1      3602 4.72667E+01 2.67354E+01 0.00000E+00
 -1      3603 4.76751E+01 2.53990E+01 0.00000E+00
 -1      3604 4.79930E+01 3.68836E+01 0.00000E+00
 -1      3605 1.37165E+02 1.69663E+01 0.00000E+00
 -1      3606 7.80966E+01 2.85546E+01 0.00000E+00
 -1      3607 7.84403E+01 3.07828E+01 0.00000E+00
 -1      3608 4.71189E+01 3.63123E+01 0.00000E+00
 -1      3609 6.93670E+01 1.76256E+01 0.00000E+00
 -1      3610 2.91240E+01 1.38785E+01 0.00000E+00
 -1      3611 2.76240E+01 1.38785E+01 0.00000E+00
 -1      3612 2.98740E+01 1.51775E+01 0.00000E+00
 -1      3613 6.61325E+01 1.65711E+01 0.00000E+00
 -1      3614 4.71640E+01 2.39567E+01 0.00000E+00
 -1      3615 7.24315E+01 1.92234E+01 0.00000E+00
 -1      3616 7.37509E+01 1.92681E+01 0.00000E+00
 -1      3617 7.22200E+01 1.79252E+01 0.00000E+00
 -1      3618 1.36097E+02 1.36873E+01 0.00000E+00
 -1      3619 4.81861E+01 2.13708E+01 0.00000E+00
 -1      3620 4.97132E+01 2.14659E+01 0.00000E+00
 -1      3621 5.00616E+01 2.06909E+01 0.00000E+00
 -1      3622 7.51550E+01 2.05606E+01 0.00000E+00
 -1      3623 7.51818E+01 2.18522E+01 0.00000E+00
 -1      3624 7.63745E+01 2.18465E+01 0.00000E+00
 -1      3625 2.53740E+01 1.25795E+01 0.00000E+00
 -1      3626 4.61340E+01 2.75473E+01 0.00000E+00
 -1      3627 1.35347E+02 1.49863E+01 0.00000E+00
 -1      3628 1.35711E+02 2.13406E+01 0.00000E+00
 -1      3629 1.35711E+02 1.98719E+01 0.00000E+00
 -1      3630 1.42890E+01 2.27625E+01 0.00000E+00
 -1      3631 1.42890E+01 2.42375E+01 0.00000E+00
 -1      3632 4.40912E+01 3.33832E+01 0.00000E+00
 -1      3633 4.48412E+01 3.46822E+01 0.00000E+00
 -1      3634 5.96944E+01 1.60775E+01 0.00000E+00
 -1      3635 6.51528E+01 1.41754E+01 0.00000E+00
 -1      3636 6.36528E+01 1.41754E+01 0.00000E+00
 -1      3637 7.92256E+01 2.64533E+01 0.00000E+00
 -1      3638 7.86611E+01 2.75039E+01 0.00000E+00
 -1      3639 8.00117E+01 2.84362E+01 0.00000E+00
 -1      3640 1.34505E+02 2.69836E+01 0.00000E+00
 -1      3641 1.35758E+02 2.67418E+01 0.00000E+00
 -1      3642 1.35758E+02 2.52668E+01 0.00000E+00
 -1      3643 8.01727E+01 3.02855E+01 0.00000E+00
 -1      3644 7.91658E+01 3.15815E+01 0.00000E+00
 -1      3645 7.98913E+01 3.23801E+01 0.00000E+00
 -1      3646 1.35192E+02 1.71575E+01 0.00000E+00
 -1      3647 1.96500E+01 3.44120E+01 0.00000E+00
 -1      3648 1.29900E+01 2.64469E+01 0.00000E+00
 -1      3649 1.35734E+02 2.40412E+01 0.00000E+00
 -1      3650 1.35734E+02 2.25662E+01 0.00000E+00
 -1      3651 1.34435E+02 2.18318E+01 0.00000E+00
 -1      3652 1.34482E+02 2.42830E+01 0.00000E+00
 -1      3653 4.58300E+01 3.08407E+01 0.00000E+00
 -1      3654 1.42890E+01 1.98250E+01 0.00000E+00
 -1      3655 1.42890E+01 2.12938E+01 0.00000E+00
 -1      3656 1.55880E+01 2.20313E+01 0.00000E+00
 -1      3657 1.43324E+01 3.38479E+01 0.00000E+00
 -1      3658 1.48200E+01 3.54019E+01 0.00000E+00
 -1      3659 1.61624E+01 3.54560E+01 0.00000E+00
 -1      3660 2.16240E+01 1.38785E+01 0.00000E+00
 -1      3661 2.08740E+01 1.51775E+01 0.00000E+00
 -1      3662 2.31240E+01 1.38785E+01 0.00000E+00
 -1      3663 1.69124E+01 3.41570E+01 0.00000E+00
 -1      3664 5.90182E+01 1.70062E+01 0.00000E+00
 -1      3665 4.63412E+01 3.47885E+01 0.00000E+00
 -1      3666 6.27232E+01 1.63744E+01 0.00000E+00
 -1      3667 1.43324E+01 3.09104E+01 0.00000E+00
 -1      3668 1.43324E+01 3.23792E+01 0.00000E+00
 -1      3669 1.56748E+01 3.24333E+01 0.00000E+00
 -1      3670 5.78425E+01 1.66513E+01 0.00000E+00
 -1      3671 8.46000E+01 3.34932E+01 0.00000E+00
 -1      3672 8.61000E+01 3.34932E+01 0.00000E+00
 -1      3673 4.56098E+01 2.44093E+01 0.00000E+00
 -1      3674 4.62833E+01 2.25984E+01 0.00000E+00
 -1      3675 2.79000E+01 3.31130E+01 0.00000E+00
 -1      3676 2.94000E+01 3.31130E+01 0.00000E+00
 -1      3677 3.09750E+01 3.31130E+01 0.00000E+00
 -1      3678 3.25500E+01 3.31130E+01 0.00000E+00
 -1      3679 3.02250E+01 3.18140E+01 0.00000E+00
 -1      3680 3.40500E+01 3.31130E+01 0.00000E+00
 -1      3681 3.55500E+01 3.31130E+01 0.00000E+00
 -1      3682 3.33000E+01 3.18140E+01 0.00000E+00
 -1      3683 3.70500E+01 3.31130E+01 0.00000E+00
 -1      3684 3.85500E+01 3.31130E+01 0.00000E+00
 -1      3685 3.63000E+01 3.18140E+01 0.00000E+00
 -1      3686 4.00500E+01 3.31130E+01 0.00000E+00
 -1      3687 4.15500E+01 3.31130E+01 0.00000E+00
 -1      3688 3.93000E+01 3.18140E+01 0.00000E+00
 -1      3689 4.56240E+01 1.64765E+01 0.00000E+00
 -1      3690 4.41240E+01 1.64765E+01 0.00000E+00
 -1      3691 5.55534E+01 1.87448E+01 0.00000E+00
 -1      3692 5.61808E+01 1.79184E+01 0.00000E+00
 -1      3693 4.27944E+01 3.24913E+01 0.00000E+00
 -1      3694 4.45856E+01 3.14624E+01 0.00000E+00
 -1      3695 4.45332E+01 2.99488E+01 0.00000E+00
 -1      3696 4.20444E+01 3.11923E+01 0.00000E+00
 -1      3697 2.49000E+01 3.31130E+01 0.00000E+00
 -1      3698 2.64000E+01 3.31130E+01 0.00000E+00
 -1      3699 2.71500E+01 3.18140E+01 0.00000E+00
 -1      3700 8.76000E+01 3.34932E+01 0.00000E+00
 -1      3701 8.91000E+01 3.34932E+01 0.00000E+00
 -1      3702 8.68500E+01 3.21942E+01 0.00000E+00
 -1      3703 9.06000E+01 3.34932E+01 0.00000E+00
 -1      3704 9.21000E+01 3.34932E+01 0.00000E+00
 -1      3705 8.98500E+01 3.21942E+01 0.00000E+00
 -1      3706 9.36000E+01 3.34932E+01 0.00000E+00
 -1      3707 9.51000E+01 3.34932E+01 0.00000E+00
 -1      3708 9.28500E+01 3.21942E+01 0.00000E+00
 -1      3709 9.66000E+01 3.34932E+01 0.00000E+00
 -1      3710 9.81000E+01 3.34932E+01 0.00000E+00
 -1      3711 9.58500E+01 3.21942E+01 0.00000E+00
 -1      3712 9.96750E+01 3.34932E+01 0.00000E+00
 -1      3713 1.01250E+02 3.34932E+01 0.00000E+00
 -1      3714 9.89250E+01 3.21942E+01 0.00000E+00
 -1      3715 1.02750E+02 3.34932E+01 0.00000E+00
 -1      3716 1.04250E+02 3.34932E+01 0.00000E+00
 -1      3717 1.02000E+02 3.21942E+01 0.00000E+00
 -1      3718 1.05750E+02 3.34932E+01 0.00000E+00
 -1      3719 1.07250E+02 3.34932E+01 0.00000E+00
 -1      3720 1.05000E+02 3.21942E+01 0.00000E+00
 -1      3721 1.08750E+02 3.34932E+01 0.00000E+00
 -1      3722 1.10250E+02 3.34932E+01 0.00000E+00
 -1      3723 1.08000E+02 3.21942E+01 0.00000E+00
 -1      3724 1.11750E+02 3.34932E+01 0.00000E+00
 -1      3725 1.13250E+02 3.34932E+01 0.00000E+00
 -1      3726 1.11000E+02 3.21942E+01 0.00000E+00
 -1      3727 1.14750E+02 3.34932E+01 0.00000E+00
 -1      3728 1.16250E+02 3.34932E+01 0.00000E+00
 -1      3729 1.14000E+02 3.21942E+01 0.00000E+00
 -1      3730 1.17750E+02 3.34932E+01 0.00000E+00
 -1      3731 1.19250E+02 3.34932E+01 0.00000E+00
 -1      3732 1.17000E+02 3.21942E+01 0.00000E+00
 -1      3733 1.20750E+02 3.34932E+01 0.00000E+00
 -1      3734 1.22250E+02 3.34932E+01 0.00000E+00
 -1      3735 1.20000E+02 3.21942E+01 0.00000E+00
 -1      3736 1.23750E+02 3.34932E+01 0.00000E+00
 -1      3737 1.25250E+02 3.34932E+01 0.00000E+00
 -1      3738 1.23000E+02 3.21942E+01 0.00000E+00
 -1      3739 1.26750E+02 3.34932E+01 0.00000E+00
 -1      3740 1.28250E+02 3.34932E+01 0.00000E+00
 -1      3741 1.26000E+02 3.21942E+01 0.00000E+00
 -1      3742 1.29750E+02 3.34932E+01 0.00000E+00
 -1      3743 1.31250E+02 3.34932E+01 0.00000E+00
 -1      3744 1.29000E+02 3.21942E+01 0.00000E+00
 -1      3745 1.32251E+02 3.32843E+01 0.00000E+00
 -1      3746 1.33504E+02 3.30425E+01 0.00000E+00
 -1      3747 1.33504E+02 3.15675E+01 0.00000E+00
 -1      3748 1.31501E+02 3.19853E+01 0.00000E+00
 -1      3749 3.66240E+01 1.64765E+01 0.00000E+00
 -1      3750 3.51240E+01 1.64765E+01 0.00000E+00
 -1      3751 1.55880E+01 2.49719E+01 0.00000E+00
 -1      3752 1.42890E+01 2.57094E+01 0.00000E+00
 -1      3753 1.42890E+01 2.71812E+01 0.00000E+00
 -1      3754 4.26240E+01 1.64765E+01 0.00000E+00
 -1      3755 4.11240E+01 1.64765E+01 0.00000E+00
 -1      3756 4.33740E+01 1.77755E+01 0.00000E+00
 -1      3757 3.36240E+01 1.64765E+01 0.00000E+00
 -1      3758 3.21240E+01 1.64765E+01 0.00000E+00
 -1      3759 3.43740E+01 1.77755E+01 0.00000E+00
 -1      3760 4.86240E+01 1.64765E+01 0.00000E+00
 -1      3761 4.71240E+01 1.64765E+01 0.00000E+00
 -1      3762 4.63740E+01 1.77755E+01 0.00000E+00
 -1      3763 5.52123E+01 1.64446E+01 0.00000E+00
 -1      3764 5.37123E+01 1.64446E+01 0.00000E+00
 -1      3765 5.63425E+01 1.66513E+01 0.00000E+00
 -1      3766 6.59028E+01 1.54744E+01 0.00000E+00
 -1      3767 7.86240E+01 1.64765E+01 0.00000E+00
 -1      3768 7.71240E+01 1.64765E+01 0.00000E+00
 -1      3769 8.16240E+01 1.64765E+01 0.00000E+00
 -1      3770 8.01240E+01 1.64765E+01 0.00000E+00
 -1      3771 7.93740E+01 1.77755E+01 0.00000E+00
 -1      3772 8.46240E+01 1.64765E+01 0.00000E+00
 -1      3773 8.31240E+01 1.64765E+01 0.00000E+00
 -1      3774 8.23740E+01 1.77755E+01 0.00000E+00
 -1      3775 8.76240E+01 1.64765E+01 0.00000E+00
 -1      3776 8.61240E+01 1.64765E+01 0.00000E+00
 -1      3777 8.53740E+01 1.77755E+01 0.00000E+00
 -1      3778 9.06240E+01 1.64765E+01 0.00000E+00
 -1      3779 8.91240E+01 1.64765E+01 0.00000E+00
 -1      3780 8.83740E+01 1.77755E+01 0.00000E+00
 -1      3781 9.36240E+01 1.64765E+01 0.00000E+00
 -1      3782 9.21240E+01 1.64765E+01 0.00000E+00
 -1      3783 9.13740E+01 1.77755E+01 0.00000E+00
 -1      3784 9.66240E+01 1.64765E+01 0.00000E+00
 -1      3785 9.51240E+01 1.64765E+01 0.00000E+00
 -1      3786 9.43740E+01 1.77755E+01 0.00000E+00
 -1      3787 9.96240E+01 1.64765E+01 0.00000E+00
 -1      3788 9.81240E+01 1.64765E+01 0.00000E+00
 -1      3789 9.73740E+01 1.77755E+01 0.00000E+00
 -1      3790 1.02624E+02 1.64765E+01 0.00000E+00
 -1      3791 1.01124E+02 1.64765E+01 0.00000E+00
 -1      3792 1.00374E+02 1.77755E+01 0.00000E+00
 -1      3793 1.05624E+02 1.64765E+01 0.00000E+00
 -1      3794 1.04124E+02 1.64765E+01 0.00000E+00
 -1      3795 1.03374E+02 1.77755E+01 0.00000E+00
 -1      3796 1.08624E+02 1.64765E+01 0.00000E+00
 -1      3797 1.07124E+02 1.64765E+01 0.00000E+00
 -1      3798 1.06374E+02 1.77755E+01 0.00000E+00
 -1      3799 1.11624E+02 1.64765E+01 0.00000E+00
 -1      3800 1.10124E+02 1.64765E+01 0.00000E+00
 -1      3801 1.09374E+02 1.77755E+01 0.00000E+00
 -1      3802 1.14624E+02 1.64765E+01 0.00000E+00
 -1      3803 1.13124E+02 1.64765E+01 0.00000E+00
 -1      3804 1.12374E+02 1.77755E+01 0.00000E+00
 -1      3805 1.17624E+02 1.64765E+01 0.00000E+00
 -1      3806 1.16124E+02 1.64765E+01 0.00000E+00
 -1      3807 1.15374E+02 1.77755E+01 0.00000E+00
 -1      3808 1.20624E+02 1.64765E+01 0.00000E+00
 -1      3809 1.19124E+02 1.64765E+01 0.00000E+00
 -1      3810 1.18374E+02 1.77755E+01 0.00000E+00
 -1      3811 1.23624E+02 1.64765E+01 0.00000E+00
 -1      3812 1.22124E+02 1.64765E+01 0.00000E+00
 -1      3813 1.21374E+02 1.77755E+01 0.00000E+00
 -1      3814 1.26624E+02 1.64765E+01 0.00000E+00
 -1      3815 1.25124E+02 1.64765E+01 0.00000E+00
 -1      3816 1.24374E+02 1.77755E+01 0.00000E+00
 -1      3817 1.29624E+02 1.64765E+01 0.00000E+00
 -1      3818 1.28124E+02 1.64765E+01 0.00000E+00
 -1      3819 1.27374E+02 1.77755E+01 0.00000E+00
 -1      3820 1.32624E+02 1.64765E+01 0.00000E+00
 -1      3821 1.31124E+02 1.64765E+01 0.00000E+00
 -1      3822 1.30374E+02 1.77755E+01 0.00000E+00
 -1      3823 7.98794E+01 3.44843E+01 0.00000E+00
 -1      3824 7.78745E+01 2.30505E+01 0.00000E+00
 -1      3825 7.86114E+01 2.42420E+01 0.00000E+00
 -1      3826 6.91038E+01 1.62741E+01 0.00000E+00
 -1      3827 7.06373E+01 1.65290E+01 0.00000E+00
 -1      3828 1.86240E+01 1.64765E+01 0.00000E+00
 -1      3829 1.71241E+01 1.64765E+01 0.00000E+00
 -1      3830 1.33504E+02 3.01175E+01 0.00000E+00
 -1      3831 1.33504E+02 2.86675E+01 0.00000E+00
 -1      3832 1.32503E+02 3.03264E+01 0.00000E+00
 -1      3833 1.43107E+01 2.83115E+01 0.00000E+00
 -1      3834 1.43107E+01 2.97802E+01 0.00000E+00
 -1      3835 1.56531E+01 2.98344E+01 0.00000E+00
 -1      3836 1.56097E+01 2.75740E+01 0.00000E+00
 -1      3837 2.61240E+01 1.38785E+01 0.00000E+00
 -1      3838 2.46240E+01 1.38785E+01 0.00000E+00
 -1      3839 2.38740E+01 1.51775E+01 0.00000E+00
 -1      3840 2.68740E+01 1.51775E+01 0.00000E+00
 -1      3841 4.66601E+01 3.38782E+01 0.00000E+00
 -1      3842 2.19000E+01 3.31130E+01 0.00000E+00
 -1      3843 2.34000E+01 3.31130E+01 0.00000E+00
 -1      3844 2.41500E+01 3.18140E+01 0.00000E+00
 -1      3845 5.44255E+01 1.82645E+01 0.00000E+00
 -1      3846 1.34442E+02 1.84565E+01 0.00000E+00
 -1      3847 5.12930E+01 1.93404E+01 0.00000E+00
 -1      3848 5.23988E+01 1.83560E+01 0.00000E+00
 -1      3849 7.49567E+01 1.65737E+01 0.00000E+00
 -1      3850 7.34567E+01 1.65737E+01 0.00000E+00
 -1      3851 1.69124E+01 3.26883E+01 0.00000E+00
 -1      3852 1.81500E+01 3.29432E+01 0.00000E+00
 -1      3853 1.69124E+01 3.12195E+01 0.00000E+00
 -1      3854 4.48685E+01 2.82194E+01 0.00000E+00
 -1      3855 4.52250E+01 2.64397E+01 0.00000E+00
 -1      3856 7.21373E+01 1.65290E+01 0.00000E+00
 -1      3857 1.40625E+01 1.71277E+01 0.00000E+00
 -1      3858 1.40625E+01 1.85995E+01 0.00000E+00
 -1      3859 1.53615E+01 1.93370E+01 0.00000E+00
 -1      3860 1.49085E+01 1.68861E+01 0.00000E+00
 -1      3861 1.92750E+01 3.30281E+01 0.00000E+00
 -1      3862 2.07750E+01 3.30281E+01 0.00000E+00
 -1      3863 2.15250E+01 3.17291E+01 0.00000E+00
 -1      3864 1.92750E+01 3.15594E+01 0.00000E+00
 -1      3865 3.96240E+01 1.64765E+01 0.00000E+00
 -1      3866 3.81240E+01 1.64765E+01 0.00000E+00
 -1      3867 4.03740E+01 1.77755E+01 0.00000E+00
 -1      3868 3.06240E+01 1.64765E+01 0.00000E+00
 -1      3869 2.91240E+01 1.64765E+01 0.00000E+00
 -1      3870 3.13740E+01 1.77755E+01 0.00000E+00
 -1      3871 4.51430E+01 2.15775E+01 0.00000E+00
 -1      3872 4.66973E+01 2.11249E+01 0.00000E+00
 -1      3873 4.70457E+01 2.03499E+01 0.00000E+00
 -1      3874 7.49436E+01 1.92624E+01 0.00000E+00
 -1      3875 5.30239E+01 1.78032E+01 0.00000E+00
 -1      3876 5.16856E+01 1.65361E+01 0.00000E+00
 -1      3877 6.76038E+01 1.62741E+01 0.00000E+00
 -1      3878 7.99620E+01 2.51743E+01 0.00000E+00
 -1      3879 8.13126E+01 2.61066E+01 0.00000E+00
 -1      3880 8.06983E+01 2.38953E+01 0.00000E+00
 -1      3881 4.36241E+01 2.88411E+01 0.00000E+00
 -1      3882 2.01240E+01 1.64765E+01 0.00000E+00
 -1      3883 1.93740E+01 1.77755E+01 0.00000E+00
 -1      3884 2.16240E+01 1.64765E+01 0.00000E+00
 -1      3885 1.68870E+01 2.42359E+01 0.00000E+00
 -1      3886 1.68870E+01 2.57078E+01 0.00000E+00
 -1      3887 8.23741E+01 3.29382E+01 0.00000E+00
 -1      3888 8.31241E+01 3.16392E+01 0.00000E+00
 -1      3889 5.01856E+01 1.65361E+01 0.00000E+00
 -1      3890 4.94356E+01 1.78351E+01 0.00000E+00
 -1      3891 4.43442E+01 2.50814E+01 0.00000E+00
 -1      3892 7.57067E+01 1.78727E+01 0.00000E+00
 -1      3893 8.13017E+01 2.81842E+01 0.00000E+00
 -1      3894 8.07372E+01 2.92349E+01 0.00000E+00
 -1      3895 8.14627E+01 3.00335E+01 0.00000E+00
 -1      3896 8.08864E+01 3.31884E+01 0.00000E+00
 -1      3897 1.33504E+02 2.71925E+01 0.00000E+00
 -1      3898 1.33504E+02 2.57175E+01 0.00000E+00
 -1      3899 1.32503E+02 2.74014E+01 0.00000E+00
 -1      3900 1.33143E+02 1.91909E+01 0.00000E+00
 -1      3901 4.97658E+01 1.92453E+01 0.00000E+00
 -1      3902 7.78477E+01 2.17590E+01 0.00000E+00
 -1      3903 3.73740E+01 1.77755E+01 0.00000E+00
 -1      3904 1.32810E+02 2.07657E+01 0.00000E+00
 -1      3905 1.31541E+02 1.93503E+01 0.00000E+00
 -1      3906 1.32834E+02 2.19913E+01 0.00000E+00
 -1      3907 1.68870E+01 2.12984E+01 0.00000E+00
 -1      3908 1.68870E+01 2.27672E+01 0.00000E+00
 -1      3909 1.81860E+01 2.35031E+01 0.00000E+00
 -1      3910 4.36854E+01 2.19629E+01 0.00000E+00
 -1      3911 4.40994E+01 2.04894E+01 0.00000E+00
 -1      3912 4.67155E+01 1.89398E+01 0.00000E+00
 -1      3913 4.82043E+01 1.91856E+01 0.00000E+00
 -1      3914 2.64000E+01 3.05150E+01 0.00000E+00
 -1      3915 2.79000E+01 3.05150E+01 0.00000E+00
 -1      3916 4.28755E+01 2.58547E+01 0.00000E+00
 -1      3917 4.32603E+01 2.38243E+01 0.00000E+00
 -1      3918 7.71109E+01 1.91652E+01 0.00000E+00
 -1      3919 3.25500E+01 3.05150E+01 0.00000E+00
 -1      3920 3.40500E+01 3.05150E+01 0.00000E+00
 -1      3921 3.55500E+01 3.05150E+01 0.00000E+00
 -1      3922 3.70500E+01 3.05150E+01 0.00000E+00
 -1      3923 3.48000E+01 2.92160E+01 0.00000E+00
 -1      3924 3.85500E+01 3.05150E+01 0.00000E+00
 -1      3925 4.00500E+01 3.05150E+01 0.00000E+00
 -1      3926 3.78000E+01 2.92160E+01 0.00000E+00
 -1      3927 1.30041E+02 1.93503E+01 0.00000E+00
 -1      3928 4.52155E+01 1.89398E+01 0.00000E+00
 -1      3929 8.61000E+01 3.08952E+01 0.00000E+00
 -1      3930 8.76000E+01 3.08952E+01 0.00000E+00
 -1      3931 8.91000E+01 3.08952E+01 0.00000E+00
 -1      3932 9.06000E+01 3.08952E+01 0.00000E+00
 -1      3933 8.83500E+01 2.95962E+01 0.00000E+00
 -1      3934 9.21000E+01 3.08952E+01 0.00000E+00
 -1      3935 9.36000E+01 3.08952E+01 0.00000E+00
 -1      3936 9.13500E+01 2.95962E+01 0.00000E+00
 -1      3937 9.51000E+01 3.08952E+01 0.00000E+00
 -1      3938 9.66000E+01 3.08952E+01 0.00000E+00
 -1      3939 9.43500E+01 2.95962E+01 0.00000E+00
 -1      3940 9.81750E+01 3.08952E+01 0.00000E+00
 -1      3941 9.97500E+01 3.08952E+01 0.00000E+00
 -1      3942 9.74250E+01 2.95962E+01 0.00000E+00
 -1      3943 1.01250E+02 3.08952E+01 0.00000E+00
 -1      3944 1.02750E+02 3.08952E+01 0.00000E+00
 -1      3945 1.00500E+02 2.95962E+01 0.00000E+00
 -1      3946 1.04250E+02 3.08952E+01 0.00000E+00
 -1      3947 1.05750E+02 3.08952E+01 0.00000E+00
 -1      3948 1.03500E+02 2.95962E+01 0.00000E+00
 -1      3949 1.07250E+02 3.08952E+01 0.00000E+00
 -1      3950 1.08750E+02 3.08952E+01 0.00000E+00
 -1      3951 1.06500E+02 2.95962E+01 0.00000E+00
 -1      3952 1.10250E+02 3.08952E+01 0.00000E+00
 -1      3953 1.11750E+02 3.08952E+01 0.00000E+00
 -1      3954 1.09500E+02 2.95962E+01 0.00000E+00
 -1      3955 1.13250E+02 3.08952E+01 0.00000E+00
 -1      3956 1.14750E+02 3.08952E+01 0.00000E+00
 -1      3957 1.12500E+02 2.95962E+01 0.00000E+00
 -1      3958 1.16250E+02 3.08952E+01 0.00000E+00
 -1      3959 1.17750E+02 3.08952E+01 0.00000E+00
 -1      3960 1.15500E+02 2.95962E+01 0.00000E+00
 -1      3961 1.19250E+02 3.08952E+01 0.00000E+00
 -1      3962 1.20750E+02 3.08952E+01 0.00000E+00
 -1      3963 1.18500E+02 2.95962E+01 0.00000E+00
 -1      3964 1.22250E+02 3.08952E+01 0.00000E+00
 -1      3965 1.23750E+02 3.08952E+01 0.00000E+00
 -1      3966 1.21500E+02 2.95962E+01 0.00000E+00
 -1      3967 1.25250E+02 3.08952E+01 0.00000E+00
 -1      3968 1.26750E+02 3.08952E+01 0.00000E+00
 -1      3969 1.24500E+02 2.95962E+01 0.00000E+00
 -1      3970 1.28250E+02 3.08952E+01 0.00000E+00
 -1      3971 1.29750E+02 3.08952E+01 0.00000E+00
 -1      3972 1.27500E+02 2.95962E+01 0.00000E+00
 -1      3973 1.30626E+02 3.07152E+01 0.00000E+00
 -1      3974 1.31627E+02 3.05063E+01 0.00000E+00
 -1      3975 1.31627E+02 2.90563E+01 0.00000E+00
 -1      3976 1.29876E+02 2.94162E+01 0.00000E+00
 -1      3977 4.37579E+01 1.93252E+01 0.00000E+00
 -1      3978 4.22579E+01 1.93252E+01 0.00000E+00
 -1      3979 3.51240E+01 1.90745E+01 0.00000E+00
 -1      3980 3.36240E+01 1.90745E+01 0.00000E+00
 -1      3981 8.61240E+01 1.90745E+01 0.00000E+00
 -1      3982 8.46240E+01 1.90745E+01 0.00000E+00
 -1      3983 8.31240E+01 1.90745E+01 0.00000E+00
 -1      3984 8.16240E+01 1.90745E+01 0.00000E+00
 -1      3985 8.38740E+01 2.03735E+01 0.00000E+00
 -1      3986 8.91240E+01 1.90745E+01 0.00000E+00
 -1      3987 8.76240E+01 1.90745E+01 0.00000E+00
 -1      3988 8.68740E+01 2.03735E+01 0.00000E+00
 -1      3989 9.21240E+01 1.90745E+01 0.00000E+00
 -1      3990 9.06240E+01 1.90745E+01 0.00000E+00
 -1      3991 8.98740E+01 2.03735E+01 0.00000E+00
 -1      3992 9.51240E+01 1.90745E+01 0.00000E+00
 -1      3993 9.36240E+01 1.90745E+01 0.00000E+00
 -1      3994 9.28740E+01 2.03735E+01 0.00000E+00
 -1      3995 9.81240E+01 1.90745E+01 0.00000E+00
 -1      3996 9.66240E+01 1.90745E+01 0.00000E+00
 -1      3997 9.58740E+01 2.03735E+01 0.00000E+00
 -1      3998 1.01124E+02 1.90745E+01 0.00000E+00
 -1      3999 9.96240E+01 1.90745E+01 0.00000E+00
 -1      4000 9.88740E+01 2.03735E+01 0.00000E+00
 -1      4001 1.04124E+02 1.90745E+01 0.00000E+00
 -1      4002 1.02624E+02 1.90745E+01 0.00000E+00
 -1      4003 1.01874E+02 2.03735E+01 0.00000E+00
 -1      4004 1.07124E+02 1.90745E+01 0.00000E+00
 -1      4005 1.05624E+02 1.90745E+01 0.00000E+00
 -1      4006 1.04874E+02 2.03735E+01 0.00000E+00
 -1      4007 1.10124E+02 1.90745E+01 0.00000E+00
 -1      4008 1.08624E+02 1.90745E+01 0.00000E+00
 -1      4009 1.07874E+02 2.03735E+01 0.00000E+00
 -1      4010 1.13124E+02 1.90745E+01 0.00000E+00
 -1      4011 1.11624E+02 1.90745E+01 0.00000E+00
 -1      4012 1.10874E+02 2.03735E+01 0.00000E+00
 -1      4013 1.16124E+02 1.90745E+01 0.00000E+00
 -1      4014 1.14624E+02 1.90745E+01 0.00000E+00
 -1      4015 1.13874E+02 2.03735E+01 0.00000E+00
 -1      4016 1.19124E+02 1.90745E+01 0.00000E+00
 -1      4017 1.17624E+02 1.90745E+01 0.00000E+00
 -1      4018 1.16874E+02 2.03735E+01 0.00000E+00
 -1      4019 1.22124E+02 1.90745E+01 0.00000E+00
 -1      4020 1.20624E+02 1.90745E+01 0.00000E+00
 -1      4021 1.19874E+02 2.03735E+01 0.00000E+00
 -1      4022 1.25124E+02 1.90745E+01 0.00000E+00
 -1      4023 1.23624E+02 1.90745E+01 0.00000E+00
 -1      4024 1.22874E+02 2.03735E+01 0.00000E+00
 -1      4025 1.28124E+02 1.90745E+01 0.00000E+00
 -1      4026 1.26624E+02 1.90745E+01 0.00000E+00
 -1      4027 1.25874E+02 2.03735E+01 0.00000E+00
 -1      4028 1.32880E+02 2.44425E+01 0.00000E+00
 -1      4029 1.32857E+02 2.32169E+01 0.00000E+00
 -1      4030 1.31232E+02 2.21508E+01 0.00000E+00
 -1      4031 1.57545E+01 1.66445E+01 0.00000E+00
 -1      4032 1.65045E+01 1.79435E+01 0.00000E+00
 -1      4033 1.67310E+01 1.91690E+01 0.00000E+00
 -1      4034 4.07579E+01 1.93252E+01 0.00000E+00
 -1      4035 3.92579E+01 1.93252E+01 0.00000E+00
 -1      4036 4.11418E+01 2.08748E+01 0.00000E+00
 -1      4037 1.68907E+01 3.00893E+01 0.00000E+00
 -1      4038 1.81283E+01 3.03443E+01 0.00000E+00
 -1      4039 1.68690E+01 2.89591E+01 0.00000E+00
 -1      4040 4.12149E+01 2.99889E+01 0.00000E+00
 -1      4041 4.24592E+01 2.93672E+01 0.00000E+00
 -1      4042 4.27946E+01 2.76378E+01 0.00000E+00
 -1      4043 4.04649E+01 2.86899E+01 0.00000E+00
 -1      4044 2.34000E+01 3.05150E+01 0.00000E+00
 -1      4045 2.49000E+01 3.05150E+01 0.00000E+00
 -1      4046 2.56500E+01 2.92160E+01 0.00000E+00
 -1      4047 1.80300E+01 1.99049E+01 0.00000E+00
 -1      4048 2.94375E+01 3.05150E+01 0.00000E+00
 -1      4049 3.10125E+01 3.05150E+01 0.00000E+00
 -1      4050 3.17625E+01 2.92160E+01 0.00000E+00
 -1      4051 2.86875E+01 2.92160E+01 0.00000E+00
 -1      4052 3.79410E+01 1.91998E+01 0.00000E+00
 -1      4053 3.64410E+01 1.91998E+01 0.00000E+00
 -1      4054 3.56910E+01 2.04988E+01 0.00000E+00
 -1      4055 3.83249E+01 2.07495E+01 0.00000E+00
 -1      4056 7.89924E+01 1.90724E+01 0.00000E+00
 -1      4057 7.82293E+01 2.04621E+01 0.00000E+00
 -1      4058 7.97293E+01 2.16661E+01 0.00000E+00
 -1      4059 8.04924E+01 1.90724E+01 0.00000E+00
 -1      4060 1.29291E+02 2.06493E+01 0.00000E+00
 -1      4061 3.28740E+01 2.03735E+01 0.00000E+00
 -1      4062 3.21240E+01 1.90745E+01 0.00000E+00
 -1      4063 3.06240E+01 1.90745E+01 0.00000E+00
 -1      4064 2.83740E+01 1.77755E+01 0.00000E+00
 -1      4065 2.76240E+01 1.64765E+01 0.00000E+00
 -1      4066 2.61240E+01 1.64765E+01 0.00000E+00
 -1      4067 4.22168E+01 2.27362E+01 0.00000E+00
 -1      4068 1.94850E+01 2.27687E+01 0.00000E+00
 -1      4069 1.94850E+01 2.42375E+01 0.00000E+00
 -1      4070 8.36886E+01 3.05885E+01 0.00000E+00
 -1      4071 8.44386E+01 2.92895E+01 0.00000E+00
 -1      4072 1.30751E+02 2.77613E+01 0.00000E+00
 -1      4073 1.31627E+02 2.75813E+01 0.00000E+00
 -1      4074 1.31627E+02 2.61063E+01 0.00000E+00
 -1      4075 2.46240E+01 1.64765E+01 0.00000E+00
 -1      4076 2.31240E+01 1.64765E+01 0.00000E+00
 -1      4077 2.23740E+01 1.77755E+01 0.00000E+00
 -1      4078 2.53740E+01 1.77755E+01 0.00000E+00
 -1      4079 8.12424E+01 2.03714E+01 0.00000E+00
 -1      4080 4.17107E+01 2.63807E+01 0.00000E+00
 -1      4081 8.20380E+01 2.69052E+01 0.00000E+00
 -1      4082 8.27635E+01 2.77038E+01 0.00000E+00
 -1      4083 8.27744E+01 2.56262E+01 0.00000E+00
 -1      4084 1.29315E+02 2.18749E+01 0.00000E+00
 -1      4085 1.27397E+02 2.15991E+01 0.00000E+00
 -1      4086 1.29338E+02 2.31005E+01 0.00000E+00
 -1      4087 1.92316E+01 2.92990E+01 0.00000E+00
 -1      4088 1.92533E+01 3.04292E+01 0.00000E+00
 -1      4089 2.03783E+01 3.05140E+01 0.00000E+00
 -1      4090 8.11612E+01 2.14849E+01 0.00000E+00
 -1      4091 8.07796E+01 2.27818E+01 0.00000E+00
 -1      4092 8.21302E+01 2.37141E+01 0.00000E+00
 -1      4093 8.22927E+01 2.14870E+01 0.00000E+00
 -1      4094 1.68671E+01 2.67684E+01 0.00000E+00
 -1      4095 1.68889E+01 2.78986E+01 0.00000E+00
 -1      4096 1.81264E+01 2.81535E+01 0.00000E+00
 -1      4097 1.81661E+01 2.60324E+01 0.00000E+00
 -1      4098 2.07641E+01 2.45637E+01 0.00000E+00
 -1      4099 1.94651E+01 2.52981E+01 0.00000E+00
 -1      4100 1.94453E+01 2.63586E+01 0.00000E+00
 -1      4101 2.13266E+01 3.04721E+01 0.00000E+00
 -1      4102 2.24516E+01 3.05570E+01 0.00000E+00
 -1      4103 2.32016E+01 2.92580E+01 0.00000E+00
 -1      4104 2.13049E+01 2.93419E+01 0.00000E+00
 -1      4105 1.93515E+01 1.92074E+01 0.00000E+00
 -1      4106 1.95075E+01 2.13368E+01 0.00000E+00
 -1      4107 2.08065E+01 2.20712E+01 0.00000E+00
 -1      4108 2.08515E+01 1.92074E+01 0.00000E+00
 -1      4109 3.70500E+01 2.79170E+01 0.00000E+00
 -1      4110 3.85500E+01 2.79170E+01 0.00000E+00
 -1      4111 8.51749E+01 2.80105E+01 0.00000E+00
 -1      4112 8.76000E+01 2.82972E+01 0.00000E+00
 -1      4113 8.91000E+01 2.82972E+01 0.00000E+00
 -1      4114 1.31879E+02 2.46514E+01 0.00000E+00
 -1      4115 9.06000E+01 2.82972E+01 0.00000E+00
 -1      4116 9.21000E+01 2.82972E+01 0.00000E+00
 -1      4117 8.98500E+01 2.69982E+01 0.00000E+00
 -1      4118 9.36000E+01 2.82972E+01 0.00000E+00
 -1      4119 9.51000E+01 2.82972E+01 0.00000E+00
 -1      4120 9.28500E+01 2.69982E+01 0.00000E+00
 -1      4121 9.66750E+01 2.82972E+01 0.00000E+00
 -1      4122 9.82500E+01 2.82972E+01 0.00000E+00
 -1      4123 9.59250E+01 2.69982E+01 0.00000E+00
 -1      4124 9.97500E+01 2.82972E+01 0.00000E+00
 -1      4125 1.01250E+02 2.82972E+01 0.00000E+00
 -1      4126 9.90000E+01 2.69982E+01 0.00000E+00
 -1      4127 1.02750E+02 2.82972E+01 0.00000E+00
 -1      4128 1.04250E+02 2.82972E+01 0.00000E+00
 -1      4129 1.02000E+02 2.69982E+01 0.00000E+00
 -1      4130 1.05750E+02 2.82972E+01 0.00000E+00
 -1      4131 1.07250E+02 2.82972E+01 0.00000E+00
 -1      4132 1.05000E+02 2.69982E+01 0.00000E+00
 -1      4133 1.08750E+02 2.82972E+01 0.00000E+00
 -1      4134 1.10250E+02 2.82972E+01 0.00000E+00
 -1      4135 1.08000E+02 2.69982E+01 0.00000E+00
 -1      4136 1.11750E+02 2.82972E+01 0.00000E+00
 -1      4137 1.13250E+02 2.82972E+01 0.00000E+00
 -1      4138 1.11000E+02 2.69982E+01 0.00000E+00
 -1      4139 1.14750E+02 2.82972E+01 0.00000E+00
 -1      4140 1.16250E+02 2.82972E+01 0.00000E+00
 -1      4141 1.14000E+02 2.69982E+01 0.00000E+00
 -1      4142 1.17750E+02 2.82972E+01 0.00000E+00
 -1      4143 1.19250E+02 2.82972E+01 0.00000E+00
 -1      4144 1.17000E+02 2.69982E+01 0.00000E+00
 -1      4145 1.20750E+02 2.82972E+01 0.00000E+00
 -1      4146 1.22250E+02 2.82972E+01 0.00000E+00
 -1      4147 1.20000E+02 2.69982E+01 0.00000E+00
 -1      4148 1.23750E+02 2.82972E+01 0.00000E+00
 -1      4149 1.25250E+02 2.82972E+01 0.00000E+00
 -1      4150 1.23000E+02 2.69982E+01 0.00000E+00
 -1      4151 1.26750E+02 2.82972E+01 0.00000E+00
 -1      4152 1.28250E+02 2.82972E+01 0.00000E+00
 -1      4153 1.26000E+02 2.69982E+01 0.00000E+00
 -1      4154 1.29063E+02 2.81192E+01 0.00000E+00
 -1      4155 1.29938E+02 2.79393E+01 0.00000E+00
 -1      4156 1.29938E+02 2.64643E+01 0.00000E+00
 -1      4157 1.28313E+02 2.68202E+01 0.00000E+00
 -1      4158 8.52927E+01 2.14870E+01 0.00000E+00
 -1      4159 8.37927E+01 2.14870E+01 0.00000E+00
 -1      4160 8.37115E+01 2.26005E+01 0.00000E+00
 -1      4161 9.06240E+01 2.16725E+01 0.00000E+00
 -1      4162 8.91240E+01 2.16725E+01 0.00000E+00
 -1      4163 8.79584E+01 2.15798E+01 0.00000E+00
 -1      4164 8.64584E+01 2.15798E+01 0.00000E+00
 -1      4165 8.63771E+01 2.26933E+01 0.00000E+00
 -1      4166 8.87084E+01 2.28788E+01 0.00000E+00
 -1      4167 9.36240E+01 2.16725E+01 0.00000E+00
 -1      4168 9.21240E+01 2.16725E+01 0.00000E+00
 -1      4169 9.13740E+01 2.29715E+01 0.00000E+00
 -1      4170 9.66240E+01 2.16725E+01 0.00000E+00
 -1      4171 9.51240E+01 2.16725E+01 0.00000E+00
 -1      4172 9.43740E+01 2.29715E+01 0.00000E+00
 -1      4173 9.96240E+01 2.16725E+01 0.00000E+00
 -1      4174 9.81240E+01 2.16725E+01 0.00000E+00
 -1      4175 9.73740E+01 2.29715E+01 0.00000E+00
 -1      4176 1.02624E+02 2.16725E+01 0.00000E+00
 -1      4177 1.01124E+02 2.16725E+01 0.00000E+00
 -1      4178 1.00374E+02 2.29715E+01 0.00000E+00
 -1      4179 1.05624E+02 2.16725E+01 0.00000E+00
 -1      4180 1.04124E+02 2.16725E+01 0.00000E+00
 -1      4181 1.03374E+02 2.29715E+01 0.00000E+00
 -1      4182 1.08624E+02 2.16725E+01 0.00000E+00
 -1      4183 1.07124E+02 2.16725E+01 0.00000E+00
 -1      4184 1.06374E+02 2.29715E+01 0.00000E+00
 -1      4185 1.11624E+02 2.16725E+01 0.00000E+00
 -1      4186 1.10124E+02 2.16725E+01 0.00000E+00
 -1      4187 1.09374E+02 2.29715E+01 0.00000E+00
 -1      4188 1.14624E+02 2.16725E+01 0.00000E+00
 -1      4189 1.13124E+02 2.16725E+01 0.00000E+00
 -1      4190 1.12374E+02 2.29715E+01 0.00000E+00
 -1      4191 1.17624E+02 2.16725E+01 0.00000E+00
 -1      4192 1.16124E+02 2.16725E+01 0.00000E+00
 -1      4193 1.15374E+02 2.29715E+01 0.00000E+00
 -1      4194 1.20624E+02 2.16725E+01 0.00000E+00
 -1      4195 1.19124E+02 2.16725E+01 0.00000E+00
 -1      4196 1.18374E+02 2.29715E+01 0.00000E+00
 -1      4197 1.23624E+02 2.16725E+01 0.00000E+00
 -1      4198 1.22124E+02 2.16725E+01 0.00000E+00
 -1      4199 1.21374E+02 2.29715E+01 0.00000E+00
 -1      4200 1.26261E+02 2.16358E+01 0.00000E+00
 -1      4201 1.24761E+02 2.16358E+01 0.00000E+00
 -1      4202 1.24011E+02 2.29348E+01 0.00000E+00
 -1      4203 1.26284E+02 2.28614E+01 0.00000E+00
 -1      4204 3.40500E+01 2.79170E+01 0.00000E+00
 -1      4205 3.55500E+01 2.79170E+01 0.00000E+00
 -1      4206 3.63000E+01 2.66180E+01 0.00000E+00
 -1      4207 4.07168E+01 2.27362E+01 0.00000E+00
 -1      4208 1.92514E+01 2.82384E+01 0.00000E+00
 -1      4209 3.95479E+01 2.74119E+01 0.00000E+00
 -1      4210 4.07128E+01 2.68858E+01 0.00000E+00
 -1      4211 4.07937E+01 2.51027E+01 0.00000E+00
 -1      4212 3.87979E+01 2.61129E+01 0.00000E+00
 -1      4213 2.49000E+01 2.79170E+01 0.00000E+00
 -1      4214 2.64000E+01 2.79170E+01 0.00000E+00
 -1      4215 1.31003E+02 2.48313E+01 0.00000E+00
 -1      4216 4.00968E+01 2.38568E+01 0.00000E+00
 -1      4217 3.90219E+01 2.19954E+01 0.00000E+00
 -1      4218 3.77049E+01 2.18701E+01 0.00000E+00
 -1      4219 3.90989E+01 2.43619E+01 0.00000E+00
 -1      4220 2.91240E+01 1.90745E+01 0.00000E+00
 -1      4221 2.76240E+01 1.90745E+01 0.00000E+00
 -1      4222 2.98740E+01 2.03735E+01 0.00000E+00
 -1      4223 3.63879E+01 2.17447E+01 0.00000E+00
 -1      4224 3.50710E+01 2.16194E+01 0.00000E+00
 -1      4225 3.70849E+01 2.29906E+01 0.00000E+00
 -1      4226 2.38515E+01 1.92074E+01 0.00000E+00
 -1      4227 2.23515E+01 1.92074E+01 0.00000E+00
 -1      4228 2.23290E+01 2.06393E+01 0.00000E+00
 -1      4229 2.71875E+01 2.66180E+01 0.00000E+00
 -1      4230 2.79375E+01 2.79170E+01 0.00000E+00
 -1      4231 2.94750E+01 2.79170E+01 0.00000E+00
 -1      4232 3.35710E+01 2.16194E+01 0.00000E+00
 -1      4233 3.20710E+01 2.16194E+01 0.00000E+00
 -1      4234 3.42680E+01 2.28653E+01 0.00000E+00
 -1      4235 8.59249E+01 2.67115E+01 0.00000E+00
 -1      4236 2.30033E+01 2.80009E+01 0.00000E+00
 -1      4237 2.39516E+01 2.79590E+01 0.00000E+00
 -1      4238 2.47016E+01 2.66600E+01 0.00000E+00
 -1      4239 1.29086E+02 2.45555E+01 0.00000E+00
 -1      4240 8.32836E+01 2.35566E+01 0.00000E+00
 -1      4241 8.32023E+01 2.46701E+01 0.00000E+00
 -1      4242 8.39278E+01 2.54688E+01 0.00000E+00
 -1      4243 8.47836E+01 2.35566E+01 0.00000E+00
 -1      4244 2.20728E+01 2.40577E+01 0.00000E+00
 -1      4245 2.20530E+01 2.51183E+01 0.00000E+00
 -1      4246 3.09937E+01 2.79170E+01 0.00000E+00
 -1      4247 3.25313E+01 2.79170E+01 0.00000E+00
 -1      4248 3.32813E+01 2.66180E+01 0.00000E+00
 -1      4249 3.02437E+01 2.66180E+01 0.00000E+00
 -1      4250 2.23065E+01 2.20712E+01 0.00000E+00
 -1      4251 2.05504E+01 2.75040E+01 0.00000E+00
 -1      4252 2.35953E+01 2.26258E+01 0.00000E+00
 -1      4253 2.53515E+01 1.92074E+01 0.00000E+00
 -1      4254 8.91120E+01 2.49848E+01 0.00000E+00
 -1      4255 9.06120E+01 2.49848E+01 0.00000E+00
 -1      4256 9.21120E+01 2.49848E+01 0.00000E+00
 -1      4257 9.36120E+01 2.49848E+01 0.00000E+00
 -1      4258 9.51120E+01 2.49848E+01 0.00000E+00
 -1      4259 9.66870E+01 2.49848E+01 0.00000E+00
 -1      4260 9.81870E+01 2.49848E+01 0.00000E+00
 -1      4261 9.96870E+01 2.49848E+01 0.00000E+00
 -1      4262 1.01187E+02 2.49848E+01 0.00000E+00
 -1      4263 1.02687E+02 2.49848E+01 0.00000E+00
 -1      4264 1.04187E+02 2.49848E+01 0.00000E+00
 -1      4265 1.05687E+02 2.49848E+01 0.00000E+00
 -1      4266 1.07187E+02 2.49848E+01 0.00000E+00
 -1      4267 1.08687E+02 2.49848E+01 0.00000E+00
 -1      4268 1.10187E+02 2.49848E+01 0.00000E+00
 -1      4269 1.11687E+02 2.49848E+01 0.00000E+00
 -1      4270 1.13187E+02 2.49848E+01 0.00000E+00
 -1      4271 1.14687E+02 2.49848E+01 0.00000E+00
 -1      4272 1.16187E+02 2.49848E+01 0.00000E+00
 -1      4273 1.17687E+02 2.49848E+01 0.00000E+00
 -1      4274 1.19187E+02 2.49848E+01 0.00000E+00
 -1      4275 1.20687E+02 2.49848E+01 0.00000E+00
 -1      4276 1.22187E+02 2.49848E+01 0.00000E+00
 -1      4277 1.23687E+02 2.49848E+01 0.00000E+00
 -1      4278 1.24824E+02 2.49481E+01 0.00000E+00
 -1      4279 1.26324E+02 2.49481E+01 0.00000E+00
 -1      4280 2.61015E+01 2.05064E+01 0.00000E+00
 -1      4281 3.52840E+01 2.47417E+01 0.00000E+00
 -1      4282 3.67840E+01 2.47417E+01 0.00000E+00
 -1      4283 2.35575E+01 2.56571E+01 0.00000E+00
 -1      4284 2.22488E+01 2.61631E+01 0.00000E+00
 -1      4285 3.81009E+01 2.48670E+01 0.00000E+00
 -1      4286 3.37840E+01 2.47417E+01 0.00000E+00
 -1      4287 8.79464E+01 2.48921E+01 0.00000E+00
 -1      4288 2.64188E+01 2.53190E+01 0.00000E+00
 -1      4289 2.79562E+01 2.53190E+01 0.00000E+00
 -1      4290 3.05710E+01 2.16194E+01 0.00000E+00
 -1      4291 2.90710E+01 2.16194E+01 0.00000E+00
 -1      4292 3.12680E+01 2.28653E+01 0.00000E+00
 -1      4293 2.45139E+01 2.55090E+01 0.00000E+00
 -1      4294 2.54623E+01 2.54671E+01 0.00000E+00
 -1      4295 2.62310E+01 2.41681E+01 0.00000E+00
 -1      4296 2.43181E+01 2.44642E+01 0.00000E+00
 -1      4297 2.20549E+01 2.80429E+01 0.00000E+00
 -1      4298 3.22652E+01 2.47417E+01 0.00000E+00
 -1      4299 8.55213E+01 2.46054E+01 0.00000E+00
 -1      4300 2.45518E+01 2.24777E+01 0.00000E+00
 -1      4301 2.68243E+01 2.23448E+01 0.00000E+00
 -1      4302 1.27460E+02 2.49114E+01 0.00000E+00
 -1      4303 8.59492E+01 2.36494E+01 0.00000E+00
 -1      4304 2.84777E+01 2.34427E+01 0.00000E+00
 -1      4305 2.92465E+01 2.47417E+01 0.00000E+00
 -1      4306 3.07652E+01 2.47417E+01 0.00000E+00
 -1      4307 1.28273E+02 2.47334E+01 0.00000E+00
 -1      4308 2.77808E+01 2.21968E+01 0.00000E+00
 -3
    3C                          2072                                     1
 -1       165    8    0    1
 -2         6         7        23      1119      1283      1136
 -1       166    8    0    1
 -2         7         8       165      1120      1284      1285
 -1       167    8    0    1
 -2         8         9       166      1121      1286      1287
 -1       168    8    0    1
 -2         8       166       165      1287      1288      1284
 -1       169    8    0    1
 -2         9        10       167      1122      1289      1290
 -1       170    8    0    1
 -2         9       167       166      1290      1291      1286
 -1       171    8    0    1
 -2        10        11       168      1123      1292      1293
 -1       172    8    0    1
 -2        10       168       167      1293      1294      1289
 -1       173    8    0    1
 -2        11        12       169      1124      1295      1296
 -1       174    8    0    1
 -2        11       169       168      1296      1297      1292
 -1       175    8    0    1
 -2        12        13       170      1125      1298      1299
 -1       176    8    0    1
 -2        12       170       169      1299      1300      1295
 -1       177    8    0    1
 -2        13        14       171      1126      1301      1302
 -1       178    8    0    1
 -2        13       171       170      1302      1303      1298
 -1       179    8    0    1
 -2        14        15       172      1127      1304      1305
 -1       180    8    0    1
 -2        14       172       171      1305      1306      1301
 -1       181    8    0    1
 -2        15        16       173      1128      1307      1308
 -1       182    8    0    1
 -2        15       173       172      1308      1309      1304
 -1       183    8    0    1
 -2        16        17       174      1129      1310      1311
 -1       184    8    0    1
 -2        16       174       173      1311      1312      1307
 -1       185    8    0    1
 -2        17        18       175      1130      1313      1314
 -1       186    8    0    1
 -2        17       175       174      1314      1315      1310
 -1       187    8    0    1
 -2        18        19       176      1131      1316      1317
 -1       188    8    0    1
 -2        18       176       175      1317      1318      1313
 -1       189    8    0    1
 -2        19        20       177      1132      1319      1320
 -1       190    8    0    1
 -2        19       177       176      1320      1321      1316
 -1       191    8    0    1
 -2        20        21       178      1133      1322      1323
 -1       192    8    0    1
 -2        20       178       177      1323      1324      1319
 -1       193    8    0    1
 -2        21        22       179      1134      1325      1326
 -1       194    8    0    1
 -2        21       179       178      1326      1327      1322
 -1       195    8    0    1
 -2        22         5       180      1135      1328      1329
 -1       196    8    0    1
 -2       179        22       180      1325      1329      1330
 -1       197    8    0    1
 -2         5        72       180      1186      1331      1328
 -1       198    8    0    1
 -2        24        23       181      1137      1332      1333
 -1       199    8    0    1
 -2        25        24       182      1138      1334      1335
 -1       200    8    0    1
 -2        24       181       182      1333      1336      1334
 -1       201    8    0    1
 -2        26        25       183      1139      1337      1338
 -1       202    8    0    1
 -2        25       182       183      1335      1339      1337
 -1       203    8    0    1
 -2        27        26       184      1140      1340      1341
 -1       204    8    0    1
 -2        26       183       184      1338      1342      1340
 -1       205    8    0    1
 -2        28        27       185      1141      1343      1344
 -1       206    8    0    1
 -2        27       184       185      1341      1345      1343
 -1       207    8    0    1
 -2        29        28       186      1142      1346      1347
 -1       208    8    0    1
 -2        28       185       186      1344      1348      1346
 -1       209    8    0    1
 -2        30        29       187      1143      1349      1350
 -1       210    8    0    1
 -2        29       186       187      1347      1351      1349
 -1       211    8    0    1
 -2        31        30       188      1144      1352      1353
 -1       212    8    0    1
 -2        30       187       188      1350      1354      1352
 -1       213    8    0    1
 -2        32        31       189      1145      1355      1356
 -1       214    8    0    1
 -2        31       188       189      1353      1357      1355
 -1       215    8    0    1
 -2        33        32       190      1146      1358      1359
 -1       216    8    0    1
 -2        32       189       190      1356      1360      1358
 -1       217    8    0    1
 -2        34        33       191      1147      1361      1362
 -1       218    8    0    1
 -2        33       190       191      1359      1363      1361
 -1       219    8    0    1
 -2        35        34       192      1148      1364      1365
 -1       220    8    0    1
 -2        34       191       192      1362      1366      1364
 -1       221    8    0    1
 -2        36        35       193      1149      1367      1368
 -1       222    8    0    1
 -2        35       192       193      1365      1369      1367
 -1       223    8    0    1
 -2        37        36       194      1150      1370      1371
 -1       224    8    0    1
 -2        36       193       194      1368      1372      1370
 -1       225    8    0    1
 -2        38        37       195      1151      1373      1374
 -1       226    8    0    1
 -2        37       194       195      1371      1375      1373
 -1       227    8    0    1
 -2        39        38       196      1152      1376      1377
 -1       228    8    0    1
 -2        38       195       196      1374      1378      1376
 -1       229    8    0    1
 -2        40        39       197      1153      1379      1380
 -1       230    8    0    1
 -2        39       196       197      1377      1381      1379
 -1       231    8    0    1
 -2        41        40       198      1154      1382      1383
 -1       232    8    0    1
 -2        40       197       198      1380      1384      1382
 -1       233    8    0    1
 -2        42        41       199      1155      1385      1386
 -1       234    8    0    1
 -2        41       198       199      1383      1387      1385
 -1       235    8    0    1
 -2        43        42       200      1156      1388      1389
 -1       236    8    0    1
 -2        42       199       200      1386      1390      1388
 -1       237    8    0    1
 -2        44        43       201      1157      1391      1392
 -1       238    8    0    1
 -2        43       200       201      1389      1393      1391
 -1       239    8    0    1
 -2        45        44       202      1158      1394      1395
 -1       240    8    0    1
 -2        44       201       202      1392      1396      1394
 -1       241    8    0    1
 -2        46        45       203      1159      1397      1398
 -1       242    8    0    1
 -2        45       202       203      1395      1399      1397
 -1       243    8    0    1
 -2        47        46       204      1160      1400      1401
 -1       244    8    0    1
 -2        46       203       204      1398      1402      1400
 -1       245    8    0    1
 -2        48        47       205      1161      1403      1404
 -1       246    8    0    1
 -2        47       204       205      1401      1405      1403
 -1       247    8    0    1
 -2        49        48       206      1162      1406      1407
 -1       248    8    0    1
 -2        48       205       206      1404      1408      1406
 -1       249    8    0    1
 -2        50        49       207      1163      1409      1410
 -1       250    8    0    1
 -2        49       206       207      1407      1411      1409
 -1       251    8    0    1
 -2        51        50       208      1164      1412      1413
 -1       252    8    0    1
 -2        50       207       208      1410      1414      1412
 -1       253    8    0    1
 -2        52        51       209      1165      1415      1416
 -1       254    8    0    1
 -2        51       208       209      1413      1417      1415
 -1       255    8    0    1
 -2        53        52       210      1166      1418      1419
 -1       256    8    0    1
 -2        52       209       210      1416      1420      1418
 -1       257    8    0    1
 -2        54        53       211      1167      1421      1422
 -1       258    8    0    1
 -2        53       210       211      1419      1423      1421
 -1       259    8    0    1
 -2        55        54       212      1168      1424      1425
 -1       260    8    0    1
 -2        54       211       212      1422      1426      1424
 -1       261    8    0    1
 -2        56        55       213      1169      1427      1428
 -1       262    8    0    1
 -2        55       212       213      1425      1429      1427
 -1       263    8    0    1
 -2        57        56       214      1170      1430      1431
 -1       264    8    0    1
 -2        56       213       214      1428      1432      1430
 -1       265    8    0    1
 -2        58        57       215      1171      1433      1434
 -1       266    8    0    1
 -2        57       214       215      1431      1435      1433
 -1       267    8    0    1
 -2        59        58       216      1172      1436      1437
 -1       268    8    0    1
 -2        58       215       216      1434      1438      1436
 -1       269    8    0    1
 -2        60        59       217      1173      1439      1440
 -1       270    8    0    1
 -2        59       216       217      1437      1441      1439
 -1       271    8    0    1
 -2        61        60       218      1174      1442      1443
 -1       272    8    0    1
 -2        60       217       218      1440      1444      1442
 -1       273    8    0    1
 -2        62        61       219      1175      1445      1446
 -1       274    8    0    1
 -2        61       218       219      1443      1447      1445
 -1       275    8    0    1
 -2        63        62       220      1176      1448      1449
 -1       276    8    0    1
 -2        62       219       220      1446      1450      1448
 -1       277    8    0    1
 -2        64        63       221      1177      1451      1452
 -1       278    8    0    1
 -2        63       220       221      1449      1453      1451
 -1       279    8    0    1
 -2        65        64       222      1178      1454      1455
 -1       280    8    0    1
 -2        64       221       222      1452      1456      1454
 -1       281    8    0    1
 -2        66        65       223      1179      1457      1458
 -1       282    8    0    1
 -2        65       222       223      1455      1459      1457
 -1       283    8    0    1
 -2        67        66       224      1180      1460      1461
 -1       284    8    0    1
 -2        66       223       224      1458      1462      1460
 -1       285    8    0    1
 -2        68        67       225      1181      1463      1464
 -1       286    8    0    1
 -2        67       224       225      1461      1465      1463
 -1       287    8    0    1
 -2        69        68       226      1182      1466      1467
 -1       288    8    0    1
 -2        68       225       226      1464      1468      1466
 -1       289    8    0    1
 -2        70        69       227      1183      1469      1470
 -1       290    8    0    1
 -2        69       226       227      1467      1471      1469
 -1       291    8    0    1
 -2        71        70       228      1184      1472      1473
 -1       292    8    0    1
 -2        70       227       228      1470      1474      1472
 -1       293    8    0    1
 -2         4        71       229      1185      1475      1476
 -1       294    8    0    1
 -2       136         4       229      1252      1476      1477
 -1       295    8    0    1
 -2        71       228       229      1473      1478      1475
 -1       296    8    0    1
 -2        72        73       230      1187      1479      1480
 -1       297    8    0    1
 -2        72       230       180      1480      1481      1331
 -1       298    8    0    1
 -2        73        74       231      1188      1482      1483
 -1       299    8    0    1
 -2        73       231       230      1483      1484      1479
 -1       300    8    0    1
 -2        74        75       232      1189      1485      1486
 -1       301    8    0    1
 -2        74       232       231      1486      1487      1482
 -1       302    8    0    1
 -2        75        76       233      1190      1488      1489
 -1       303    8    0    1
 -2        75       233       232      1489      1490      1485
 -1       304    8    0    1
 -2        76        77       234      1191      1491      1492
 -1       305    8    0    1
 -2        76       234       233      1492      1493      1488
 -1       306    8    0    1
 -2        77        78       235      1192      1494      1495
 -1       307    8    0    1
 -2        77       235       234      1495      1496      1491
 -1       308    8    0    1
 -2        78        79       236      1193      1497      1498
 -1       309    8    0    1
 -2        78       236       235      1498      1499      1494
 -1       310    8    0    1
 -2        79        80       237      1194      1500      1501
 -1       311    8    0    1
 -2        79       237       236      1501      1502      1497
 -1       312    8    0    1
 -2        80        81       238      1195      1503      1504
 -1       313    8    0    1
 -2        80       238       237      1504      1505      1500
 -1       314    8    0    1
 -2        81        82       239      1196      1506      1507
 -1       315    8    0    1
 -2        81       239       238      1507      1508      1503
 -1       316    8    0    1
 -2        82        83       240      1197      1509      1510
 -1       317    8    0    1
 -2        82       240       239      1510      1511      1506
 -1       318    8    0    1
 -2        83        84       241      1198      1512      1513
 -1       319    8    0    1
 -2        83       241       240      1513      1514      1509
 -1       320    8    0    1
 -2        84        85       242      1199      1515      1516
 -1       321    8    0    1
 -2        84       242       241      1516      1517      1512
 -1       322    8    0    1
 -2        85        86       243      1200      1518      1519
 -1       323    8    0    1
 -2        85       243       242      1519      1520      1515
 -1       324    8    0    1
 -2        86        87       244      1201      1521      1522
 -1       325    8    0    1
 -2        86       244       243      1522      1523      1518
 -1       326    8    0    1
 -2        87        88       245      1202      1524      1525
 -1       327    8    0    1
 -2        87       245       244      1525      1526      1521
 -1       328    8    0    1
 -2        88        89       246      1203      1527      1528
 -1       329    8    0    1
 -2        88       246       245      1528      1529      1524
 -1       330    8    0    1
 -2        89        90       247      1204      1530      1531
 -1       331    8    0    1
 -2        89       247       246      1531      1532      1527
 -1       332    8    0    1
 -2        90        91       248      1205      1533      1534
 -1       333    8    0    1
 -2        90       248       247      1534      1535      1530
 -1       334    8    0    1
 -2        91        92       249      1206      1536      1537
 -1       335    8    0    1
 -2        91       249       248      1537      1538      1533
 -1       336    8    0    1
 -2        92        93       250      1207      1539      1540
 -1       337    8    0    1
 -2        92       250       249      1540      1541      1536
 -1       338    8    0    1
 -2        93        94       251      1208      1542      1543
 -1       339    8    0    1
 -2        93       251       250      1543      1544      1539
 -1       340    8    0    1
 -2        94        95       252      1209      1545      1546
 -1       341    8    0    1
 -2        94       252       251      1546      1547      1542
 -1       342    8    0    1
 -2        95        96       253      1210      1548      1549
 -1       343    8    0    1
 -2        95       253       252      1549      1550      1545
 -1       344    8    0    1
 -2        96        97       254      1211      1551      1552
 -1       345    8    0    1
 -2        96       254       253      1552      1553      1548
 -1       346    8    0    1
 -2        97        98       255      1212      1554      1555
 -1       347    8    0    1
 -2        97       255       254      1555      1556      1551
 -1       348    8    0    1
 -2        98        99       256      1213      1557      1558
 -1       349    8    0    1
 -2        98       256       255      1558      1559      1554
 -1       350    8    0    1
 -2        99       100       257      1214      1560      1561
 -1       351    8    0    1
 -2        99       257       256      1561      1562      1557
 -1       352    8    0    1
 -2       100       101       258      1215      1563      1564
 -1       353    8    0    1
 -2       100       258       257      1564      1565      1560
 -1       354    8    0    1
 -2       101       102       259      1216      1566      1567
 -1       355    8    0    1
 -2       101       259       258      1567      1568      1563
 -1       356    8    0    1
 -2       102       103       260      1217      1569      1570
 -1       357    8    0    1
 -2       102       260       259      1570      1571      1566
 -1       358    8    0    1
 -2       103       104       261      1218      1572      1573
 -1       359    8    0    1
 -2       103       261       260      1573      1574      1569
 -1       360    8    0    1
 -2       104       105       262      1219      1575      1576
 -1       361    8    0    1
 -2       104       262       261      1576      1577      1572
 -1       362    8    0    1
 -2       105       106       263      1220      1578      1579
 -1       363    8    0    1
 -2       105       263       262      1579      1580      1575
 -1       364    8    0    1
 -2       106       107       264      1221      1581      1582
 -1       365    8    0    1
 -2       106       264       263      1582      1583      1578
 -1       366    8    0    1
 -2       107       108       265      1222      1584      1585
 -1       367    8    0    1
 -2       107       265       264      1585      1586      1581
 -1       368    8    0    1
 -2       108       109       266      1223      1587      1588
 -1       369    8    0    1
 -2       108       266       265      1588      1589      1584
 -1       370    8    0    1
 -2       109       110       267      1224      1590      1591
 -1       371    8    0    1
 -2       109       267       266      1591      1592      1587
 -1       372    8    0    1
 -2       110       111       268      1225      1593      1594
 -1       373    8    0    1
 -2       110       268       267      1594      1595      1590
 -1       374    8    0    1
 -2       111       112       269      1226      1596      1597
 -1       375    8    0    1
 -2       111       269       268      1597      1598      1593
 -1       376    8    0    1
 -2       112       113       270      1227      1599      1600
 -1       377    8    0    1
 -2       112       270       269      1600      1601      1596
 -1       378    8    0    1
 -2       113       114       271      1228      1602      1603
 -1       379    8    0    1
 -2       113       271       270      1603      1604      1599
 -1       380    8    0    1
 -2       114       115       272      1229      1605      1606
 -1       381    8    0    1
 -2       114       272       271      1606      1607      1602
 -1       382    8    0    1
 -2       115       116       273      1230      1608      1609
 -1       383    8    0    1
 -2       115       273       272      1609      1610      1605
 -1       384    8    0    1
 -2       116       117       274      1231      1611      1612
 -1       385    8    0    1
 -2       116       274       273      1612      1613      1608
 -1       386    8    0    1
 -2       117       118       275      1232      1614      1615
 -1       387    8    0    1
 -2       117       275       274      1615      1616      1611
 -1       388    8    0    1
 -2       118       119       276      1233      1617      1618
 -1       389    8    0    1
 -2       118       276       275      1618      1619      1614
 -1       390    8    0    1
 -2       119       120       277      1234      1620      1621
 -1       391    8    0    1
 -2       119       277       276      1621      1622      1617
 -1       392    8    0    1
 -2       120         3       121      1235      1236      1623
 -1       393    8    0    1
 -2       121       122       278      1237      1624      1625
 -1       394    8    0    1
 -2       122       123       279      1238      1626      1627
 -1       395    8    0    1
 -2       122       279       278      1627      1628      1624
 -1       396    8    0    1
 -2       123       124       280      1239      1629      1630
 -1       397    8    0    1
 -2       123       280       279      1630      1631      1626
 -1       398    8    0    1
 -2       124       125       281      1240      1632      1633
 -1       399    8    0    1
 -2       124       281       280      1633      1634      1629
 -1       400    8    0    1
 -2       125       126       282      1241      1635      1636
 -1       401    8    0    1
 -2       125       282       281      1636      1637      1632
 -1       402    8    0    1
 -2       126       127       283      1242      1638      1639
 -1       403    8    0    1
 -2       126       283       282      1639      1640      1635
 -1       404    8    0    1
 -2       127       128       284      1243      1641      1642
 -1       405    8    0    1
 -2       127       284       283      1642      1643      1638
 -1       406    8    0    1
 -2       128       129       285      1244      1644      1645
 -1       407    8    0    1
 -2       128       285       284      1645      1646      1641
 -1       408    8    0    1
 -2       129       130       286      1245      1647      1648
 -1       409    8    0    1
 -2       129       286       285      1648      1649      1644
 -1       410    8    0    1
 -2       130       131       287      1246      1650      1651
 -1       411    8    0    1
 -2       130       287       286      1651      1652      1647
 -1       412    8    0    1
 -2       131       132       288      1247      1653      1654
 -1       413    8    0    1
 -2       131       288       287      1654      1655      1650
 -1       414    8    0    1
 -2       132       133       289      1248      1656      1657
 -1       415    8    0    1
 -2       132       289       288      1657      1658      1653
 -1       416    8    0    1
 -2       133       134       290      1249      1659      1660
 -1       417    8    0    1
 -2       133       290       289      1660      1661      1656
 -1       418    8    0    1
 -2       134       135       291      1250      1662      1663
 -1       419    8    0    1
 -2       134       291       290      1663      1664      1659
 -1       420    8    0    1
 -2       135       136       292      1251      1665      1666
 -1       421    8    0    1
 -2       291       135       292      1662      1666      1667
 -1       422    8    0    1
 -2       136       229       292      1477      1668      1665
 -1       423    8    0    1
 -2         2       137       293      1253      1669      1670
 -1       424    8    0    1
 -2       137       138       294      1254      1671      1672
 -1       425    8    0    1
 -2       138       139       295      1255      1673      1674
 -1       426    8    0    1
 -2       139       140       296      1256      1675      1676
 -1       427    8    0    1
 -2       140       141       297      1257      1677      1678
 -1       428    8    0    1
 -2       141       142       298      1258      1679      1680
 -1       429    8    0    1
 -2       142       143       299      1259      1681      1682
 -1       430    8    0    1
 -2       143       144       300      1260      1683      1684
 -1       431    8    0    1
 -2       144       145       301      1261      1685      1686
 -1       432    8    0    1
 -2       145       146       302      1262      1687      1688
 -1       433    8    0    1
 -2       146       147       303      1263      1689      1690
 -1       434    8    0    1
 -2       147       148       304      1264      1691      1692
 -1       435    8    0    1
 -2       148       149       305      1265      1693      1694
 -1       436    8    0    1
 -2       149       150       306      1266      1695      1696
 -1       437    8    0    1
 -2       150       151       307      1267      1697      1698
 -1       438    8    0    1
 -2       151       152       308      1268      1699      1700
 -1       439    8    0    1
 -2       152       153       309      1269      1701      1702
 -1       440    8    0    1
 -2       153       154       310      1270      1703      1704
 -1       441    8    0    1
 -2       154         1       311      1271      1705      1706
 -1       442    8    0    1
 -2         1       155       312      1272      1707      1708
 -1       443    8    0    1
 -2       155       156       313      1273      1709      1710
 -1       444    8    0    1
 -2       156       157       314      1274      1711      1712
 -1       445    8    0    1
 -2       157       158       315      1275      1713      1714
 -1       446    8    0    1
 -2       158       159       316      1276      1715      1716
 -1       447    8    0    1
 -2       159       160       317      1277      1717      1718
 -1       448    8    0    1
 -2       160       161       318      1278      1719      1720
 -1       449    8    0    1
 -2       161       162       319      1279      1721      1722
 -1       450    8    0    1
 -2       162       163       320      1280      1723      1724
 -1       451    8    0    1
 -2       163       164       321      1281      1725      1726
 -1       452    8    0    1
 -2       164         2       322      1282      1727      1728
 -1       453    8    0    1
 -2       295       139       296      1673      1676      1729
 -1       454    8    0    1
 -2         2       293       322      1670      1730      1727
 -1       455    8    0    1
 -2       120       121       277      1623      1731      1620
 -1       456    8    0    1
 -2       121       278       277      1625      1732      1731
 -1       457    8    0    1
 -2       293       137       294      1669      1672      1733
 -1       458    8    0    1
 -2       294       138       295      1671      1674      1734
 -1       459    8    0    1
 -2       140       297       296      1678      1735      1675
 -1       460    8    0    1
 -2       141       298       297      1680      1736      1677
 -1       461    8    0    1
 -2       142       299       298      1682      1737      1679
 -1       462    8    0    1
 -2       143       300       299      1684      1738      1681
 -1       463    8    0    1
 -2       144       301       300      1686      1739      1683
 -1       464    8    0    1
 -2       145       302       301      1688      1740      1685
 -1       465    8    0    1
 -2       146       303       302      1690      1741      1687
 -1       466    8    0    1
 -2       147       304       303      1692      1742      1689
 -1       467    8    0    1
 -2       148       305       304      1694      1743      1691
 -1       468    8    0    1
 -2       149       306       305      1696      1744      1693
 -1       469    8    0    1
 -2       150       307       306      1698      1745      1695
 -1       470    8    0    1
 -2       151       308       307      1700      1746      1697
 -1       471    8    0    1
 -2       152       309       308      1702      1747      1699
 -1       472    8    0    1
 -2       153       310       309      1704      1748      1701
 -1       473    8    0    1
 -2       154       311       310      1706      1749      1703
 -1       474    8    0    1
 -2         1       312       311      1708      1750      1705
 -1       475    8    0    1
 -2       155       313       312      1710      1751      1707
 -1       476    8    0    1
 -2       156       314       313      1712      1752      1709
 -1       477    8    0    1
 -2       157       315       314      1714      1753      1711
 -1       478    8    0    1
 -2       158       316       315      1716      1754      1713
 -1       479    8    0    1
 -2       159       317       316      1718      1755      1715
 -1       480    8    0    1
 -2       160       318       317      1720      1756      1717
 -1       481    8    0    1
 -2       161       319       318      1722      1757      1719
 -1       482    8    0    1
 -2       162       320       319      1724      1758      1721
 -1       483    8    0    1
 -2       163       321       320      1726      1759      1723
 -1       484    8    0    1
 -2       164       322       321      1728      1760      1725
 -1       485    8    0    1
 -2        23         7       165      1283      1285      1761
 -1       486    8    0    1
 -2       166       167       323      1291      1762      1763
 -1       487    8    0    1
 -2       165       166       324      1288      1764      1765
 -1       488    8    0    1
 -2       166       323       324      1763      1766      1764
 -1       489    8    0    1
 -2       168       169       325      1297      1767      1768
 -1       490    8    0    1
 -2       169       170       326      1300      1769      1770
 -1       491    8    0    1
 -2       169       326       325      1770      1771      1767
 -1       492    8    0    1
 -2       170       171       327      1303      1772      1773
 -1       493    8    0    1
 -2       170       327       326      1773      1774      1769
 -1       494    8    0    1
 -2       171       172       328      1306      1775      1776
 -1       495    8    0    1
 -2       171       328       327      1776      1777      1772
 -1       496    8    0    1
 -2       172       173       329      1309      1778      1779
 -1       497    8    0    1
 -2       172       329       328      1779      1780      1775
 -1       498    8    0    1
 -2       173       174       330      1312      1781      1782
 -1       499    8    0    1
 -2       173       330       329      1782      1783      1778
 -1       500    8    0    1
 -2       174       175       331      1315      1784      1785
 -1       501    8    0    1
 -2       174       331       330      1785      1786      1781
 -1       502    8    0    1
 -2       175       176       332      1318      1787      1788
 -1       503    8    0    1
 -2       175       332       331      1788      1789      1784
 -1       504    8    0    1
 -2       176       177       333      1321      1790      1791
 -1       505    8    0    1
 -2       176       333       332      1791      1792      1787
 -1       506    8    0    1
 -2       177       178       334      1324      1793      1794
 -1       507    8    0    1
 -2       177       334       333      1794      1795      1790
 -1       508    8    0    1
 -2       178       179       335      1327      1796      1797
 -1       509    8    0    1
 -2       178       335       334      1797      1798      1793
 -1       510    8    0    1
 -2       179       180       336      1330      1799      1800
 -1       511    8    0    1
 -2       335       179       336      1796      1800      1801
 -1       512    8    0    1
 -2       180       230       336      1481      1802      1799
 -1       513    8    0    1
 -2       181        23       165      1332      1761      1803
 -1       514    8    0    1
 -2       230       231       337      1484      1804      1805
 -1       515    8    0    1
 -2       230       337       336      1805      1806      1802
 -1       516    8    0    1
 -2       181       165       324      1803      1765      1807
 -1       517    8    0    1
 -2       183       182       338      1339      1808      1809
 -1       518    8    0    1
 -2       184       183       339      1342      1810      1811
 -1       519    8    0    1
 -2       183       338       339      1809      1812      1810
 -1       520    8    0    1
 -2       185       184       340      1345      1813      1814
 -1       521    8    0    1
 -2       184       339       340      1811      1815      1813
 -1       522    8    0    1
 -2       186       185       341      1348      1816      1817
 -1       523    8    0    1
 -2       185       340       341      1814      1818      1816
 -1       524    8    0    1
 -2       187       186       342      1351      1819      1820
 -1       525    8    0    1
 -2       186       341       342      1817      1821      1819
 -1       526    8    0    1
 -2       188       187       343      1354      1822      1823
 -1       527    8    0    1
 -2       187       342       343      1820      1824      1822
 -1       528    8    0    1
 -2       189       188       344      1357      1825      1826
 -1       529    8    0    1
 -2       188       343       344      1823      1827      1825
 -1       530    8    0    1
 -2       190       189       345      1360      1828      1829
 -1       531    8    0    1
 -2       189       344       345      1826      1830      1828
 -1       532    8    0    1
 -2       191       190       346      1363      1831      1832
 -1       533    8    0    1
 -2       190       345       346      1829      1833      1831
 -1       534    8    0    1
 -2       192       191       347      1366      1834      1835
 -1       535    8    0    1
 -2       191       346       347      1832      1836      1834
 -1       536    8    0    1
 -2       193       192       348      1369      1837      1838
 -1       537    8    0    1
 -2       192       347       348      1835      1839      1837
 -1       538    8    0    1
 -2       194       193       349      1372      1840      1841
 -1       539    8    0    1
 -2       193       348       349      1838      1842      1840
 -1       540    8    0    1
 -2       195       194       350      1375      1843      1844
 -1       541    8    0    1
 -2       194       349       350      1841      1845      1843
 -1       542    8    0    1
 -2       196       195       351      1378      1846      1847
 -1       543    8    0    1
 -2       195       350       351      1844      1848      1846
 -1       544    8    0    1
 -2       197       196       352      1381      1849      1850
 -1       545    8    0    1
 -2       196       351       352      1847      1851      1849
 -1       546    8    0    1
 -2       198       197       353      1384      1852      1853
 -1       547    8    0    1
 -2       197       352       353      1850      1854      1852
 -1       548    8    0    1
 -2       199       198       354      1387      1855      1856
 -1       549    8    0    1
 -2       198       353       354      1853      1857      1855
 -1       550    8    0    1
 -2       200       199       355      1390      1858      1859
 -1       551    8    0    1
 -2       199       354       355      1856      1860      1858
 -1       552    8    0    1
 -2       201       200       356      1393      1861      1862
 -1       553    8    0    1
 -2       200       355       356      1859      1863      1861
 -1       554    8    0    1
 -2       202       201       357      1396      1864      1865
 -1       555    8    0    1
 -2       201       356       357      1862      1866      1864
 -1       556    8    0    1
 -2       203       202       358      1399      1867      1868
 -1       557    8    0    1
 -2       202       357       358      1865      1869      1867
 -1       558    8    0    1
 -2       204       203       359      1402      1870      1871
 -1       559    8    0    1
 -2       203       358       359      1868      1872      1870
 -1       560    8    0    1
 -2       205       204       360      1405      1873      1874
 -1       561    8    0    1
 -2       204       359       360      1871      1875      1873
 -1       562    8    0    1
 -2       206       205       361      1408      1876      1877
 -1       563    8    0    1
 -2       205       360       361      1874      1878      1876
 -1       564    8    0    1
 -2       207       206       362      1411      1879      1880
 -1       565    8    0    1
 -2       206       361       362      1877      1881      1879
 -1       566    8    0    1
 -2       208       207       363      1414      1882      1883
 -1       567    8    0    1
 -2       207       362       363      1880      1884      1882
 -1       568    8    0    1
 -2       209       208       364      1417      1885      1886
 -1       569    8    0    1
 -2       208       363       364      1883      1887      1885
 -1       570    8    0    1
 -2       210       209       365      1420      1888      1889
 -1       571    8    0    1
 -2       209       364       365      1886      1890      1888
 -1       572    8    0    1
 -2       211       210       366      1423      1891      1892
 -1       573    8    0    1
 -2       210       365       366      1889      1893      1891
 -1       574    8    0    1
 -2       212       211       367      1426      1894      1895
 -1       575    8    0    1
 -2       211       366       367      1892      1896      1894
 -1       576    8    0    1
 -2       213       212       368      1429      1897      1898
 -1       577    8    0    1
 -2       212       367       368      1895      1899      1897
 -1       578    8    0    1
 -2       214       213       369      1432      1900      1901
 -1       579    8    0    1
 -2       213       368       369      1898      1902      1900
 -1       580    8    0    1
 -2       215       214       370      1435      1903      1904
 -1       581    8    0    1
 -2       214       369       370      1901      1905      1903
 -1       582    8    0    1
 -2       216       215       371      1438      1906      1907
 -1       583    8    0    1
 -2       215       370       371      1904      1908      1906
 -1       584    8    0    1
 -2       217       216       372      1441      1909      1910
 -1       585    8    0    1
 -2       216       371       372      1907      1911      1909
 -1       586    8    0    1
 -2       218       217       373      1444      1912      1913
 -1       587    8    0    1
 -2       217       372       373      1910      1914      1912
 -1       588    8    0    1
 -2       219       218       374      1447      1915      1916
 -1       589    8    0    1
 -2       218       373       374      1913      1917      1915
 -1       590    8    0    1
 -2       220       219       375      1450      1918      1919
 -1       591    8    0    1
 -2       219       374       375      1916      1920      1918
 -1       592    8    0    1
 -2       221       220       376      1453      1921      1922
 -1       593    8    0    1
 -2       220       375       376      1919      1923      1921
 -1       594    8    0    1
 -2       222       221       377      1456      1924      1925
 -1       595    8    0    1
 -2       221       376       377      1922      1926      1924
 -1       596    8    0    1
 -2       223       222       378      1459      1927      1928
 -1       597    8    0    1
 -2       222       377       378      1925      1929      1927
 -1       598    8    0    1
 -2       224       223       379      1462      1930      1931
 -1       599    8    0    1
 -2       223       378       379      1928      1932      1930
 -1       600    8    0    1
 -2       225       224       380      1465      1933      1934
 -1       601    8    0    1
 -2       224       379       380      1931      1935      1933
 -1       602    8    0    1
 -2       226       225       381      1468      1936      1937
 -1       603    8    0    1
 -2       225       380       381      1934      1938      1936
 -1       604    8    0    1
 -2       227       226       382      1471      1939      1940
 -1       605    8    0    1
 -2       226       381       382      1937      1941      1939
 -1       606    8    0    1
 -2       228       227       383      1474      1942      1943
 -1       607    8    0    1
 -2       227       382       383      1940      1944      1942
 -1       608    8    0    1
 -2       229       228       292      1478      1945      1668
 -1       609    8    0    1
 -2       232       233       384      1490      1946      1947
 -1       610    8    0    1
 -2       233       234       385      1493      1948      1949
 -1       611    8    0    1
 -2       233       385       384      1949      1950      1946
 -1       612    8    0    1
 -2       234       235       386      1496      1951      1952
 -1       613    8    0    1
 -2       234       386       385      1952      1953      1948
 -1       614    8    0    1
 -2       235       236       387      1499      1954      1955
 -1       615    8    0    1
 -2       235       387       386      1955      1956      1951
 -1       616    8    0    1
 -2       236       237       388      1502      1957      1958
 -1       617    8    0    1
 -2       236       388       387      1958      1959      1954
 -1       618    8    0    1
 -2       237       238       389      1505      1960      1961
 -1       619    8    0    1
 -2       237       389       388      1961      1962      1957
 -1       620    8    0    1
 -2       238       239       390      1508      1963      1964
 -1       621    8    0    1
 -2       238       390       389      1964      1965      1960
 -1       622    8    0    1
 -2       239       240       391      1511      1966      1967
 -1       623    8    0    1
 -2       239       391       390      1967      1968      1963
 -1       624    8    0    1
 -2       240       241       392      1514      1969      1970
 -1       625    8    0    1
 -2       240       392       391      1970      1971      1966
 -1       626    8    0    1
 -2       241       242       393      1517      1972      1973
 -1       627    8    0    1
 -2       241       393       392      1973      1974      1969
 -1       628    8    0    1
 -2       242       243       394      1520      1975      1976
 -1       629    8    0    1
 -2       242       394       393      1976      1977      1972
 -1       630    8    0    1
 -2       243       244       395      1523      1978      1979
 -1       631    8    0    1
 -2       243       395       394      1979      1980      1975
 -1       632    8    0    1
 -2       244       245       396      1526      1981      1982
 -1       633    8    0    1
 -2       244       396       395      1982      1983      1978
 -1       634    8    0    1
 -2       245       246       397      1529      1984      1985
 -1       635    8    0    1
 -2       245       397       396      1985      1986      1981
 -1       636    8    0    1
 -2       246       247       398      1532      1987      1988
 -1       637    8    0    1
 -2       246       398       397      1988      1989      1984
 -1       638    8    0    1
 -2       247       248       399      1535      1990      1991
 -1       639    8    0    1
 -2       247       399       398      1991      1992      1987
 -1       640    8    0    1
 -2       248       249       400      1538      1993      1994
 -1       641    8    0    1
 -2       248       400       399      1994      1995      1990
 -1       642    8    0    1
 -2       249       250       401      1541      1996      1997
 -1       643    8    0    1
 -2       249       401       400      1997      1998      1993
 -1       644    8    0    1
 -2       250       251       402      1544      1999      2000
 -1       645    8    0    1
 -2       250       402       401      2000      2001      1996
 -1       646    8    0    1
 -2       251       252       403      1547      2002      2003
 -1       647    8    0    1
 -2       251       403       402      2003      2004      1999
 -1       648    8    0    1
 -2       252       253       404      1550      2005      2006
 -1       649    8    0    1
 -2       252       404       403      2006      2007      2002
 -1       650    8    0    1
 -2       253       254       405      1553      2008      2009
 -1       651    8    0    1
 -2       253       405       404      2009      2010      2005
 -1       652    8    0    1
 -2       254       255       406      1556      2011      2012
 -1       653    8    0    1
 -2       254       406       405      2012      2013      2008
 -1       654    8    0    1
 -2       255       256       407      1559      2014      2015
 -1       655    8    0    1
 -2       255       407       406      2015      2016      2011
 -1       656    8    0    1
 -2       256       257       408      1562      2017      2018
 -1       657    8    0    1
 -2       256       408       407      2018      2019      2014
 -1       658    8    0    1
 -2       257       258       409      1565      2020      2021
 -1       659    8    0    1
 -2       257       409       408      2021      2022      2017
 -1       660    8    0    1
 -2       258       259       410      1568      2023      2024
 -1       661    8    0    1
 -2       258       410       409      2024      2025      2020
 -1       662    8    0    1
 -2       259       260       411      1571      2026      2027
 -1       663    8    0    1
 -2       259       411       410      2027      2028      2023
 -1       664    8    0    1
 -2       260       261       412      1574      2029      2030
 -1       665    8    0    1
 -2       260       412       411      2030      2031      2026
 -1       666    8    0    1
 -2       261       262       413      1577      2032      2033
 -1       667    8    0    1
 -2       261       413       412      2033      2034      2029
 -1       668    8    0    1
 -2       262       263       414      1580      2035      2036
 -1       669    8    0    1
 -2       262       414       413      2036      2037      2032
 -1       670    8    0    1
 -2       263       264       415      1583      2038      2039
 -1       671    8    0    1
 -2       263       415       414      2039      2040      2035
 -1       672    8    0    1
 -2       264       265       416      1586      2041      2042
 -1       673    8    0    1
 -2       264       416       415      2042      2043      2038
 -1       674    8    0    1
 -2       265       266       417      1589      2044      2045
 -1       675    8    0    1
 -2       265       417       416      2045      2046      2041
 -1       676    8    0    1
 -2       266       267       418      1592      2047      2048
 -1       677    8    0    1
 -2       266       418       417      2048      2049      2044
 -1       678    8    0    1
 -2       267       268       419      1595      2050      2051
 -1       679    8    0    1
 -2       267       419       418      2051      2052      2047
 -1       680    8    0    1
 -2       268       269       420      1598      2053      2054
 -1       681    8    0    1
 -2       268       420       419      2054      2055      2050
 -1       682    8    0    1
 -2       269       270       421      1601      2056      2057
 -1       683    8    0    1
 -2       269       421       420      2057      2058      2053
 -1       684    8    0    1
 -2       270       271       422      1604      2059      2060
 -1       685    8    0    1
 -2       270       422       421      2060      2061      2056
 -1       686    8    0    1
 -2       271       272       423      1607      2062      2063
 -1       687    8    0    1
 -2       271       423       422      2063      2064      2059
 -1       688    8    0    1
 -2       272       273       424      1610      2065      2066
 -1       689    8    0    1
 -2       272       424       423      2066      2067      2062
 -1       690    8    0    1
 -2       273       274       425      1613      2068      2069
 -1       691    8    0    1
 -2       273       425       424      2069      2070      2065
 -1       692    8    0    1
 -2       274       275       426      1616      2071      2072
 -1       693    8    0    1
 -2       274       426       425      2072      2073      2068
 -1       694    8    0    1
 -2       275       276       427      1619      2074      2075
 -1       695    8    0    1
 -2       275       427       426      2075      2076      2071
 -1       696    8    0    1
 -2       276       277       428      1622      2077      2078
 -1       697    8    0    1
 -2       427       276       428      2074      2078      2079
 -1       698    8    0    1
 -2       277       278       428      1732      2080      2077
 -1       699    8    0    1
 -2       280       281       429      1634      2081      2082
 -1       700    8    0    1
 -2       279       280       430      1631      2083      2084
 -1       701    8    0    1
 -2       280       429       430      2082      2085      2083
 -1       702    8    0    1
 -2       278       279       428      1628      2086      2080
 -1       703    8    0    1
 -2       281       282       431      1637      2087      2088
 -1       704    8    0    1
 -2       281       431       429      2088      2089      2081
 -1       705    8    0    1
 -2       282       283       432      1640      2090      2091
 -1       706    8    0    1
 -2       282       432       431      2091      2092      2087
 -1       707    8    0    1
 -2       283       284       433      1643      2093      2094
 -1       708    8    0    1
 -2       283       433       432      2094      2095      2090
 -1       709    8    0    1
 -2       284       285       434      1646      2096      2097
 -1       710    8    0    1
 -2       284       434       433      2097      2098      2093
 -1       711    8    0    1
 -2       285       286       435      1649      2099      2100
 -1       712    8    0    1
 -2       285       435       434      2100      2101      2096
 -1       713    8    0    1
 -2       286       287       436      1652      2102      2103
 -1       714    8    0    1
 -2       286       436       435      2103      2104      2099
 -1       715    8    0    1
 -2       287       288       437      1655      2105      2106
 -1       716    8    0    1
 -2       287       437       436      2106      2107      2102
 -1       717    8    0    1
 -2       288       289       438      1658      2108      2109
 -1       718    8    0    1
 -2       288       438       437      2109      2110      2105
 -1       719    8    0    1
 -2       289       290       439      1661      2111      2112
 -1       720    8    0    1
 -2       289       439       438      2112      2113      2108
 -1       721    8    0    1
 -2       290       291       440      1664      2114      2115
 -1       722    8    0    1
 -2       290       440       439      2115      2116      2111
 -1       723    8    0    1
 -2       231       232       441      1487      2117      2118
 -1       724    8    0    1
 -2       337       231       441      1804      2118      2119
 -1       725    8    0    1
 -2       232       384       441      1947      2120      2117
 -1       726    8    0    1
 -2       294       295       442      1734      2121      2122
 -1       727    8    0    1
 -2       296       297       443      1735      2123      2124
 -1       728    8    0    1
 -2       322       293       444      1730      2125      2126
 -1       729    8    0    1
 -2       295       296       445      1729      2127      2128
 -1       730    8    0    1
 -2       167       168       446      1294      2129      2130
 -1       731    8    0    1
 -2       323       167       446      1762      2130      2131
 -1       732    8    0    1
 -2       168       325       446      1768      2132      2129
 -1       733    8    0    1
 -2       297       298       447      1736      2133      2134
 -1       734    8    0    1
 -2       298       299       448      1737      2135      2136
 -1       735    8    0    1
 -2       299       300       449      1738      2137      2138
 -1       736    8    0    1
 -2       300       301       450      1739      2139      2140
 -1       737    8    0    1
 -2       301       302       451      1740      2141      2142
 -1       738    8    0    1
 -2       301       451       450      2142      2143      2139
 -1       739    8    0    1
 -2       302       303       452      1741      2144      2145
 -1       740    8    0    1
 -2       303       304       453      1742      2146      2147
 -1       741    8    0    1
 -2       304       305       454      1743      2148      2149
 -1       742    8    0    1
 -2       305       306       455      1744      2150      2151
 -1       743    8    0    1
 -2       306       307       456      1745      2152      2153
 -1       744    8    0    1
 -2       307       308       457      1746      2154      2155
 -1       745    8    0    1
 -2       308       309       458      1747      2156      2157
 -1       746    8    0    1
 -2       309       310       459      1748      2158      2159
 -1       747    8    0    1
 -2       309       459       458      2159      2160      2156
 -1       748    8    0    1
 -2       310       311       460      1749      2161      2162
 -1       749    8    0    1
 -2       311       312       461      1750      2163      2164
 -1       750    8    0    1
 -2       311       461       460      2164      2165      2161
 -1       751    8    0    1
 -2       312       313       462      1751      2166      2167
 -1       752    8    0    1
 -2       313       314       463      1752      2168      2169
 -1       753    8    0    1
 -2       314       315       464      1753      2170      2171
 -1       754    8    0    1
 -2       315       316       465      1754      2172      2173
 -1       755    8    0    1
 -2       315       465       464      2173      2174      2170
 -1       756    8    0    1
 -2       316       317       466      1755      2175      2176
 -1       757    8    0    1
 -2       317       318       467      1756      2177      2178
 -1       758    8    0    1
 -2       317       467       466      2178      2179      2175
 -1       759    8    0    1
 -2       318       319       468      1757      2180      2181
 -1       760    8    0    1
 -2       319       320       469      1758      2182      2183
 -1       761    8    0    1
 -2       320       321       470      1759      2184      2185
 -1       762    8    0    1
 -2       321       322       471      1760      2186      2187
 -1       763    8    0    1
 -2       322       444       471      2126      2188      2186
 -1       764    8    0    1
 -2       293       294       472      1733      2189      2190
 -1       765    8    0    1
 -2       292       228       383      1945      1943      2191
 -1       766    8    0    1
 -2       445       296       443      2127      2124      2192
 -1       767    8    0    1
 -2       181       324       182      1807      2193      1336
 -1       768    8    0    1
 -2       442       295       445      2121      2128      2194
 -1       769    8    0    1
 -2       297       447       443      2134      2195      2123
 -1       770    8    0    1
 -2       338       182       324      1808      2193      2196
 -1       771    8    0    1
 -2       428       279       430      2086      2084      2197
 -1       772    8    0    1
 -2       444       293       472      2125      2190      2198
 -1       773    8    0    1
 -2       291       292       383      1667      2191      2199
 -1       774    8    0    1
 -2       294       442       472      2122      2200      2189
 -1       775    8    0    1
 -2       291       383       440      2199      2201      2114
 -1       776    8    0    1
 -2       470       321       471      2184      2187      2202
 -1       777    8    0    1
 -2       469       320       470      2182      2185      2203
 -1       778    8    0    1
 -2       467       318       468      2177      2181      2204
 -1       779    8    0    1
 -2       465       316       466      2172      2176      2205
 -1       780    8    0    1
 -2       463       314       464      2168      2171      2206
 -1       781    8    0    1
 -2       461       312       462      2163      2167      2207
 -1       782    8    0    1
 -2       459       310       473      2158      2208      2209
 -1       783    8    0    1
 -2       310       460       473      2162      2210      2208
 -1       784    8    0    1
 -2       457       308       458      2154      2157      2211
 -1       785    8    0    1
 -2       456       307       457      2152      2155      2212
 -1       786    8    0    1
 -2       455       306       456      2150      2153      2213
 -1       787    8    0    1
 -2       454       305       455      2148      2151      2214
 -1       788    8    0    1
 -2       453       304       454      2146      2149      2215
 -1       789    8    0    1
 -2       451       302       474      2141      2216      2217
 -1       790    8    0    1
 -2       302       452       474      2145      2218      2216
 -1       791    8    0    1
 -2       449       300       450      2137      2140      2219
 -1       792    8    0    1
 -2       447       298       448      2133      2136      2220
 -1       793    8    0    1
 -2       448       299       449      2135      2138      2221
 -1       794    8    0    1
 -2       452       303       453      2144      2147      2222
 -1       795    8    0    1
 -2       462       313       463      2166      2169      2223
 -1       796    8    0    1
 -2       468       319       469      2180      2183      2224
 -1       797    8    0    1
 -2       326       327       475      1774      2225      2226
 -1       798    8    0    1
 -2       325       326       476      1771      2227      2228
 -1       799    8    0    1
 -2       326       475       476      2226      2229      2227
 -1       800    8    0    1
 -2       328       329       477      1780      2230      2231
 -1       801    8    0    1
 -2       329       330       478      1783      2232      2233
 -1       802    8    0    1
 -2       329       478       477      2233      2234      2230
 -1       803    8    0    1
 -2       330       331       479      1786      2235      2236
 -1       804    8    0    1
 -2       330       479       478      2236      2237      2232
 -1       805    8    0    1
 -2       331       332       480      1789      2238      2239
 -1       806    8    0    1
 -2       331       480       479      2239      2240      2235
 -1       807    8    0    1
 -2       332       333       481      1792      2241      2242
 -1       808    8    0    1
 -2       332       481       480      2242      2243      2238
 -1       809    8    0    1
 -2       333       334       482      1795      2244      2245
 -1       810    8    0    1
 -2       333       482       481      2245      2246      2241
 -1       811    8    0    1
 -2       334       335       483      1798      2247      2248
 -1       812    8    0    1
 -2       334       483       482      2248      2249      2244
 -1       813    8    0    1
 -2       335       336       484      1801      2250      2251
 -1       814    8    0    1
 -2       483       335       484      2247      2251      2252
 -1       815    8    0    1
 -2       336       337       484      1806      2253      2250
 -1       816    8    0    1
 -2       339       338       485      1812      2254      2255
 -1       817    8    0    1
 -2       442       445       486      2194      2256      2257
 -1       818    8    0    1
 -2       445       443       487      2192      2258      2259
 -1       819    8    0    1
 -2       340       339       488      1815      2260      2261
 -1       820    8    0    1
 -2       339       485       488      2255      2262      2260
 -1       821    8    0    1
 -2       341       340       489      1818      2263      2264
 -1       822    8    0    1
 -2       340       488       489      2261      2265      2263
 -1       823    8    0    1
 -2       342       341       490      1821      2266      2267
 -1       824    8    0    1
 -2       341       489       490      2264      2268      2266
 -1       825    8    0    1
 -2       343       342       491      1824      2269      2270
 -1       826    8    0    1
 -2       342       490       491      2267      2271      2269
 -1       827    8    0    1
 -2       344       343       492      1827      2272      2273
 -1       828    8    0    1
 -2       343       491       492      2270      2274      2272
 -1       829    8    0    1
 -2       345       344       493      1830      2275      2276
 -1       830    8    0    1
 -2       344       492       493      2273      2277      2275
 -1       831    8    0    1
 -2       346       345       494      1833      2278      2279
 -1       832    8    0    1
 -2       345       493       494      2276      2280      2278
 -1       833    8    0    1
 -2       347       346       495      1836      2281      2282
 -1       834    8    0    1
 -2       346       494       495      2279      2283      2281
 -1       835    8    0    1
 -2       348       347       496      1839      2284      2285
 -1       836    8    0    1
 -2       347       495       496      2282      2286      2284
 -1       837    8    0    1
 -2       349       348       497      1842      2287      2288
 -1       838    8    0    1
 -2       348       496       497      2285      2289      2287
 -1       839    8    0    1
 -2       350       349       498      1845      2290      2291
 -1       840    8    0    1
 -2       349       497       498      2288      2292      2290
 -1       841    8    0    1
 -2       351       350       499      1848      2293      2294
 -1       842    8    0    1
 -2       350       498       499      2291      2295      2293
 -1       843    8    0    1
 -2       352       351       500      1851      2296      2297
 -1       844    8    0    1
 -2       351       499       500      2294      2298      2296
 -1       845    8    0    1
 -2       353       352       501      1854      2299      2300
 -1       846    8    0    1
 -2       352       500       501      2297      2301      2299
 -1       847    8    0    1
 -2       359       358       502      1872      2302      2303
 -1       848    8    0    1
 -2       360       359       503      1875      2304      2305
 -1       849    8    0    1
 -2       359       502       503      2303      2306      2304
 -1       850    8    0    1
 -2       361       360       504      1878      2307      2308
 -1       851    8    0    1
 -2       360       503       504      2305      2309      2307
 -1       852    8    0    1
 -2       362       361       505      1881      2310      2311
 -1       853    8    0    1
 -2       361       504       505      2308      2312      2310
 -1       854    8    0    1
 -2       363       362       506      1884      2313      2314
 -1       855    8    0    1
 -2       362       505       506      2311      2315      2313
 -1       856    8    0    1
 -2       364       363       507      1887      2316      2317
 -1       857    8    0    1
 -2       363       506       507      2314      2318      2316
 -1       858    8    0    1
 -2       365       364       508      1890      2319      2320
 -1       859    8    0    1
 -2       364       507       508      2317      2321      2319
 -1       860    8    0    1
 -2       366       365       509      1893      2322      2323
 -1       861    8    0    1
 -2       365       508       509      2320      2324      2322
 -1       862    8    0    1
 -2       367       366       510      1896      2325      2326
 -1       863    8    0    1
 -2       366       509       510      2323      2327      2325
 -1       864    8    0    1
 -2       368       367       511      1899      2328      2329
 -1       865    8    0    1
 -2       367       510       511      2326      2330      2328
 -1       866    8    0    1
 -2       369       368       512      1902      2331      2332
 -1       867    8    0    1
 -2       368       511       512      2329      2333      2331
 -1       868    8    0    1
 -2       370       369       513      1905      2334      2335
 -1       869    8    0    1
 -2       369       512       513      2332      2336      2334
 -1       870    8    0    1
 -2       371       370       514      1908      2337      2338
 -1       871    8    0    1
 -2       370       513       514      2335      2339      2337
 -1       872    8    0    1
 -2       372       371       515      1911      2340      2341
 -1       873    8    0    1
 -2       371       514       515      2338      2342      2340
 -1       874    8    0    1
 -2       373       372       516      1914      2343      2344
 -1       875    8    0    1
 -2       372       515       516      2341      2345      2343
 -1       876    8    0    1
 -2       374       373       517      1917      2346      2347
 -1       877    8    0    1
 -2       373       516       517      2344      2348      2346
 -1       878    8    0    1
 -2       375       374       518      1920      2349      2350
 -1       879    8    0    1
 -2       374       517       518      2347      2351      2349
 -1       880    8    0    1
 -2       376       375       519      1923      2352      2353
 -1       881    8    0    1
 -2       375       518       519      2350      2354      2352
 -1       882    8    0    1
 -2       377       376       520      1926      2355      2356
 -1       883    8    0    1
 -2       376       519       520      2353      2357      2355
 -1       884    8    0    1
 -2       378       377       521      1929      2358      2359
 -1       885    8    0    1
 -2       377       520       521      2356      2360      2358
 -1       886    8    0    1
 -2       379       378       522      1932      2361      2362
 -1       887    8    0    1
 -2       378       521       522      2359      2363      2361
 -1       888    8    0    1
 -2       380       379       523      1935      2364      2365
 -1       889    8    0    1
 -2       379       522       523      2362      2366      2364
 -1       890    8    0    1
 -2       381       380       524      1938      2367      2368
 -1       891    8    0    1
 -2       380       523       524      2365      2369      2367
 -1       892    8    0    1
 -2       382       381       525      1941      2370      2371
 -1       893    8    0    1
 -2       381       524       525      2368      2372      2370
 -1       894    8    0    1
 -2       383       382       526      1944      2373      2374
 -1       895    8    0    1
 -2       440       383       526      2201      2374      2375
 -1       896    8    0    1
 -2       382       525       526      2371      2376      2373
 -1       897    8    0    1
 -2       386       387       527      1956      2377      2378
 -1       898    8    0    1
 -2       385       386       528      1953      2379      2380
 -1       899    8    0    1
 -2       386       527       528      2378      2381      2379
 -1       900    8    0    1
 -2       384       385       529      1950      2382      2383
 -1       901    8    0    1
 -2       385       528       529      2380      2384      2382
 -1       902    8    0    1
 -2       387       388       530      1959      2385      2386
 -1       903    8    0    1
 -2       387       530       527      2386      2387      2377
 -1       904    8    0    1
 -2       388       389       531      1962      2388      2389
 -1       905    8    0    1
 -2       388       531       530      2389      2390      2385
 -1       906    8    0    1
 -2       389       390       532      1965      2391      2392
 -1       907    8    0    1
 -2       389       532       531      2392      2393      2388
 -1       908    8    0    1
 -2       390       391       533      1968      2394      2395
 -1       909    8    0    1
 -2       390       533       532      2395      2396      2391
 -1       910    8    0    1
 -2       391       392       534      1971      2397      2398
 -1       911    8    0    1
 -2       391       534       533      2398      2399      2394
 -1       912    8    0    1
 -2       392       393       535      1974      2400      2401
 -1       913    8    0    1
 -2       392       535       534      2401      2402      2397
 -1       914    8    0    1
 -2       393       394       536      1977      2403      2404
 -1       915    8    0    1
 -2       393       536       535      2404      2405      2400
 -1       916    8    0    1
 -2       394       395       537      1980      2406      2407
 -1       917    8    0    1
 -2       394       537       536      2407      2408      2403
 -1       918    8    0    1
 -2       395       396       538      1983      2409      2410
 -1       919    8    0    1
 -2       395       538       537      2410      2411      2406
 -1       920    8    0    1
 -2       396       397       539      1986      2412      2413
 -1       921    8    0    1
 -2       396       539       538      2413      2414      2409
 -1       922    8    0    1
 -2       397       398       540      1989      2415      2416
 -1       923    8    0    1
 -2       397       540       539      2416      2417      2412
 -1       924    8    0    1
 -2       398       399       541      1992      2418      2419
 -1       925    8    0    1
 -2       398       541       540      2419      2420      2415
 -1       926    8    0    1
 -2       399       400       542      1995      2421      2422
 -1       927    8    0    1
 -2       399       542       541      2422      2423      2418
 -1       928    8    0    1
 -2       400       401       543      1998      2424      2425
 -1       929    8    0    1
 -2       400       543       542      2425      2426      2421
 -1       930    8    0    1
 -2       401       402       544      2001      2427      2428
 -1       931    8    0    1
 -2       401       544       543      2428      2429      2424
 -1       932    8    0    1
 -2       402       403       545      2004      2430      2431
 -1       933    8    0    1
 -2       402       545       544      2431      2432      2427
 -1       934    8    0    1
 -2       403       404       546      2007      2433      2434
 -1       935    8    0    1
 -2       403       546       545      2434      2435      2430
 -1       936    8    0    1
 -2       404       405       547      2010      2436      2437
 -1       937    8    0    1
 -2       404       547       546      2437      2438      2433
 -1       938    8    0    1
 -2       405       406       548      2013      2439      2440
 -1       939    8    0    1
 -2       405       548       547      2440      2441      2436
 -1       940    8    0    1
 -2       406       407       549      2016      2442      2443
 -1       941    8    0    1
 -2       406       549       548      2443      2444      2439
 -1       942    8    0    1
 -2       407       408       550      2019      2445      2446
 -1       943    8    0    1
 -2       407       550       549      2446      2447      2442
 -1       944    8    0    1
 -2       408       409       551      2022      2448      2449
 -1       945    8    0    1
 -2       408       551       550      2449      2450      2445
 -1       946    8    0    1
 -2       409       410       552      2025      2451      2452
 -1       947    8    0    1
 -2       409       552       551      2452      2453      2448
 -1       948    8    0    1
 -2       410       411       553      2028      2454      2455
 -1       949    8    0    1
 -2       410       553       552      2455      2456      2451
 -1       950    8    0    1
 -2       411       412       554      2031      2457      2458
 -1       951    8    0    1
 -2       411       554       553      2458      2459      2454
 -1       952    8    0    1
 -2       412       413       555      2034      2460      2461
 -1       953    8    0    1
 -2       412       555       554      2461      2462      2457
 -1       954    8    0    1
 -2       413       414       556      2037      2463      2464
 -1       955    8    0    1
 -2       413       556       555      2464      2465      2460
 -1       956    8    0    1
 -2       414       415       557      2040      2466      2467
 -1       957    8    0    1
 -2       414       557       556      2467      2468      2463
 -1       958    8    0    1
 -2       415       416       558      2043      2469      2470
 -1       959    8    0    1
 -2       415       558       557      2470      2471      2466
 -1       960    8    0    1
 -2       416       417       559      2046      2472      2473
 -1       961    8    0    1
 -2       416       559       558      2473      2474      2469
 -1       962    8    0    1
 -2       417       418       560      2049      2475      2476
 -1       963    8    0    1
 -2       417       560       559      2476      2477      2472
 -1       964    8    0    1
 -2       418       419       561      2052      2478      2479
 -1       965    8    0    1
 -2       418       561       560      2479      2480      2475
 -1       966    8    0    1
 -2       419       420       562      2055      2481      2482
 -1       967    8    0    1
 -2       419       562       561      2482      2483      2478
 -1       968    8    0    1
 -2       420       421       563      2058      2484      2485
 -1       969    8    0    1
 -2       420       563       562      2485      2486      2481
 -1       970    8    0    1
 -2       421       422       564      2061      2487      2488
 -1       971    8    0    1
 -2       421       564       563      2488      2489      2484
 -1       972    8    0    1
 -2       422       423       565      2064      2490      2491
 -1       973    8    0    1
 -2       422       565       564      2491      2492      2487
 -1       974    8    0    1
 -2       423       424       566      2067      2493      2494
 -1       975    8    0    1
 -2       423       566       565      2494      2495      2490
 -1       976    8    0    1
 -2       424       425       567      2070      2496      2497
 -1       977    8    0    1
 -2       424       567       566      2497      2498      2493
 -1       978    8    0    1
 -2       425       426       568      2073      2499      2500
 -1       979    8    0    1
 -2       425       568       567      2500      2501      2496
 -1       980    8    0    1
 -2       426       427       569      2076      2502      2503
 -1       981    8    0    1
 -2       426       569       568      2503      2504      2499
 -1       982    8    0    1
 -2       427       428       430      2079      2197      2505
 -1       983    8    0    1
 -2       431       432       570      2092      2506      2507
 -1       984    8    0    1
 -2       429       431       571      2089      2508      2509
 -1       985    8    0    1
 -2       431       570       571      2507      2510      2508
 -1       986    8    0    1
 -2       430       429       572      2085      2511      2512
 -1       987    8    0    1
 -2       429       571       572      2509      2513      2511
 -1       988    8    0    1
 -2       444       472       573      2198      2514      2515
 -1       989    8    0    1
 -2       432       433       574      2095      2516      2517
 -1       990    8    0    1
 -2       432       574       570      2517      2518      2506
 -1       991    8    0    1
 -2       433       434       575      2098      2519      2520
 -1       992    8    0    1
 -2       433       575       574      2520      2521      2516
 -1       993    8    0    1
 -2       434       435       576      2101      2522      2523
 -1       994    8    0    1
 -2       434       576       575      2523      2524      2519
 -1       995    8    0    1
 -2       435       436       577      2104      2525      2526
 -1       996    8    0    1
 -2       435       577       576      2526      2527      2522
 -1       997    8    0    1
 -2       436       437       578      2107      2528      2529
 -1       998    8    0    1
 -2       436       578       577      2529      2530      2525
 -1       999    8    0    1
 -2       437       438       579      2110      2531      2532
 -1      1000    8    0    1
 -2       437       579       578      2532      2533      2528
 -1      1001    8    0    1
 -2       438       439       580      2113      2534      2535
 -1      1002    8    0    1
 -2       438       580       579      2535      2536      2531
 -1      1003    8    0    1
 -2       439       440       581      2116      2537      2538
 -1      1004    8    0    1
 -2       580       439       581      2534      2538      2539
 -1      1005    8    0    1
 -2       440       526       581      2375      2540      2537
 -1      1006    8    0    1
 -2       470       471       582      2202      2541      2542
 -1      1007    8    0    1
 -2       338       324       583      2196      2543      2544
 -1      1008    8    0    1
 -2       485       338       583      2254      2544      2545
 -1      1009    8    0    1
 -2       324       323       583      1766      2546      2543
 -1      1010    8    0    1
 -2       443       447       584      2195      2547      2548
 -1      1011    8    0    1
 -2       443       584       487      2548      2549      2258
 -1      1012    8    0    1
 -2       471       444       585      2188      2550      2551
 -1      1013    8    0    1
 -2       463       464       586      2206      2552      2553
 -1      1014    8    0    1
 -2       457       458       587      2211      2554      2555
 -1      1015    8    0    1
 -2       449       450       588      2219      2556      2557
 -1      1016    8    0    1
 -2       327       328       589      1777      2558      2559
 -1      1017    8    0    1
 -2       475       327       589      2225      2559      2560
 -1      1018    8    0    1
 -2       328       477       589      2231      2561      2558
 -1      1019    8    0    1
 -2       448       449       590      2221      2562      2563
 -1      1020    8    0    1
 -2       452       453       591      2222      2564      2565
 -1      1021    8    0    1
 -2       447       448       592      2220      2566      2567
 -1      1022    8    0    1
 -2       450       451       593      2143      2568      2569
 -1      1023    8    0    1
 -2       462       463       594      2223      2570      2571
 -1      1024    8    0    1
 -2       453       454       595      2215      2572      2573
 -1      1025    8    0    1
 -2       454       455       596      2214      2574      2575
 -1      1026    8    0    1
 -2       455       456       597      2213      2576      2577
 -1      1027    8    0    1
 -2       455       597       596      2577      2578      2574
 -1      1028    8    0    1
 -2       456       457       598      2212      2579      2580
 -1      1029    8    0    1
 -2       457       587       598      2555      2581      2579
 -1      1030    8    0    1
 -2       458       459       599      2160      2582      2583
 -1      1031    8    0    1
 -2       460       461       600      2165      2584      2585
 -1      1032    8    0    1
 -2       468       469       601      2224      2586      2587
 -1      1033    8    0    1
 -2       461       462       602      2207      2588      2589
 -1      1034    8    0    1
 -2       467       468       603      2204      2590      2591
 -1      1035    8    0    1
 -2       469       470       604      2203      2592      2593
 -1      1036    8    0    1
 -2       469       604       601      2593      2594      2586
 -1      1037    8    0    1
 -2       472       442       605      2200      2595      2596
 -1      1038    8    0    1
 -2       427       430       569      2505      2597      2502
 -1      1039    8    0    1
 -2       325       476       606      2228      2598      2599
 -1      1040    8    0    1
 -2       325       606       446      2599      2600      2132
 -1      1041    8    0    1
 -2       584       447       592      2547      2567      2601
 -1      1042    8    0    1
 -2       484       337       607      2253      2602      2603
 -1      1043    8    0    1
 -2       337       441       607      2119      2604      2602
 -1      1044    8    0    1
 -2       486       445       487      2256      2259      2605
 -1      1045    8    0    1
 -2       442       486       605      2257      2606      2595
 -1      1046    8    0    1
 -2       470       582       604      2542      2607      2592
 -1      1047    8    0    1
 -2       502       358       603      2302      2608      2609
 -1      1048    8    0    1
 -2       354       353       608      1857      2610      2611
 -1      1049    8    0    1
 -2       355       354       586      1860      2612      2613
 -1      1050    8    0    1
 -2       356       355       609      1863      2614      2615
 -1      1051    8    0    1
 -2       444       573       585      2515      2616      2550
 -1      1052    8    0    1
 -2       573       472       605      2514      2596      2617
 -1      1053    8    0    1
 -2       582       471       585      2541      2551      2618
 -1      1054    8    0    1
 -2       583       323       446      2546      2131      2619
 -1      1055    8    0    1
 -2       441       384       610      2120      2620      2621
 -1      1056    8    0    1
 -2       607       441       610      2604      2621      2622
 -1      1057    8    0    1
 -2       384       529       610      2383      2623      2620
 -1      1058    8    0    1
 -2       603       468       601      2590      2587      2624
 -1      1059    8    0    1
 -2       430       572       569      2512      2625      2597
 -1      1060    8    0    1
 -2       463       586       594      2553      2626      2570
 -1      1061    8    0    1
 -2       600       461       602      2584      2589      2627
 -1      1062    8    0    1
 -2       597       456       598      2576      2580      2628
 -1      1063    8    0    1
 -2       595       454       596      2572      2575      2629
 -1      1064    8    0    1
 -2       458       599       587      2583      2630      2554
 -1      1065    8    0    1
 -2       473       460       611      2210      2631      2632
 -1      1066    8    0    1
 -2       460       600       611      2585      2633      2631
 -1      1067    8    0    1
 -2       593       451       474      2568      2217      2634
 -1      1068    8    0    1
 -2       449       588       590      2557      2635      2562
 -1      1069    8    0    1
 -2       592       448       590      2566      2563      2636
 -1      1070    8    0    1
 -2       588       450       593      2556      2569      2637
 -1      1071    8    0    1
 -2       474       452       612      2218      2638      2639
 -1      1072    8    0    1
 -2       452       591       612      2565      2640      2638
 -1      1073    8    0    1
 -2       591       453       595      2564      2573      2641
 -1      1074    8    0    1
 -2       599       459       613      2582      2642      2643
 -1      1075    8    0    1
 -2       459       473       613      2209      2644      2642
 -1      1076    8    0    1
 -2       464       465       609      2174      2645      2646
 -1      1077    8    0    1
 -2       466       467       614      2179      2647      2648
 -1      1078    8    0    1
 -2       353       501       608      2300      2649      2610
 -1      1079    8    0    1
 -2       609       355       586      2614      2613      2650
 -1      1080    8    0    1
 -2       356       609       465      2615      2645      2651
 -1      1081    8    0    1
 -2       614       467       603      2647      2591      2652
 -1      1082    8    0    1
 -2       464       609       586      2646      2650      2552
 -1      1083    8    0    1
 -2       356       465       615      2651      2653      2654
 -1      1084    8    0    1
 -2       356       615       357      2654      2655      1866
 -1      1085    8    0    1
 -2       478       479       616      2237      2656      2657
 -1      1086    8    0    1
 -2       477       478       617      2234      2658      2659
 -1      1087    8    0    1
 -2       478       616       617      2657      2660      2658
 -1      1088    8    0    1
 -2       480       481       618      2243      2661      2662
 -1      1089    8    0    1
 -2       481       482       619      2246      2663      2664
 -1      1090    8    0    1
 -2       481       619       618      2664      2665      2661
 -1      1091    8    0    1
 -2       483       484       620      2252      2666      2667
 -1      1092    8    0    1
 -2       484       607       620      2603      2668      2666
 -1      1093    8    0    1
 -2       586       354       594      2612      2669      2626
 -1      1094    8    0    1
 -2       584       592       621      2601      2670      2671
 -1      1095    8    0    1
 -2       615       465       466      2653      2205      2672
 -1      1096    8    0    1
 -2       605       486       622      2606      2673      2674
 -1      1097    8    0    1
 -2       489       488       623      2265      2675      2676
 -1      1098    8    0    1
 -2       490       489       624      2268      2677      2678
 -1      1099    8    0    1
 -2       489       623       624      2676      2679      2677
 -1      1100    8    0    1
 -2       491       490       625      2271      2680      2681
 -1      1101    8    0    1
 -2       490       624       625      2678      2682      2680
 -1      1102    8    0    1
 -2       492       491       626      2274      2683      2684
 -1      1103    8    0    1
 -2       491       625       626      2681      2685      2683
 -1      1104    8    0    1
 -2       493       492       627      2277      2686      2687
 -1      1105    8    0    1
 -2       492       626       627      2684      2688      2686
 -1      1106    8    0    1
 -2       494       493       628      2280      2689      2690
 -1      1107    8    0    1
 -2       493       627       628      2687      2691      2689
 -1      1108    8    0    1
 -2       495       494       629      2283      2692      2693
 -1      1109    8    0    1
 -2       494       628       629      2690      2694      2692
 -1      1110    8    0    1
 -2       496       495       630      2286      2695      2696
 -1      1111    8    0    1
 -2       495       629       630      2693      2697      2695
 -1      1112    8    0    1
 -2       497       496       631      2289      2698      2699
 -1      1113    8    0    1
 -2       496       630       631      2696      2700      2698
 -1      1114    8    0    1
 -2       498       497       632      2292      2701      2702
 -1      1115    8    0    1
 -2       497       631       632      2699      2703      2701
 -1      1116    8    0    1
 -2       499       498       633      2295      2704      2705
 -1      1117    8    0    1
 -2       498       632       633      2702      2706      2704
 -1      1118    8    0    1
 -2       500       499       634      2298      2707      2708
 -1      1119    8    0    1
 -2       499       633       634      2705      2709      2707
 -1      1120    8    0    1
 -2       354       608       594      2611      2710      2669
 -1      1121    8    0    1
 -2       357       615       466      2655      2672      2711
 -1      1122    8    0    1
 -2       585       573       635      2616      2712      2713
 -1      1123    8    0    1
 -2       358       357       614      1869      2714      2715
 -1      1124    8    0    1
 -2       603       601       502      2624      2716      2609
 -1      1125    8    0    1
 -2       504       503       636      2309      2717      2718
 -1      1126    8    0    1
 -2       505       504       637      2312      2719      2720
 -1      1127    8    0    1
 -2       504       636       637      2718      2721      2719
 -1      1128    8    0    1
 -2       506       505       638      2315      2722      2723
 -1      1129    8    0    1
 -2       505       637       638      2720      2724      2722
 -1      1130    8    0    1
 -2       507       506       639      2318      2725      2726
 -1      1131    8    0    1
 -2       506       638       639      2723      2727      2725
 -1      1132    8    0    1
 -2       508       507       640      2321      2728      2729
 -1      1133    8    0    1
 -2       507       639       640      2726      2730      2728
 -1      1134    8    0    1
 -2       509       508       641      2324      2731      2732
 -1      1135    8    0    1
 -2       508       640       641      2729      2733      2731
 -1      1136    8    0    1
 -2       510       509       642      2327      2734      2735
 -1      1137    8    0    1
 -2       509       641       642      2732      2736      2734
 -1      1138    8    0    1
 -2       511       510       643      2330      2737      2738
 -1      1139    8    0    1
 -2       510       642       643      2735      2739      2737
 -1      1140    8    0    1
 -2       512       511       644      2333      2740      2741
 -1      1141    8    0    1
 -2       511       643       644      2738      2742      2740
 -1      1142    8    0    1
 -2       513       512       645      2336      2743      2744
 -1      1143    8    0    1
 -2       512       644       645      2741      2745      2743
 -1      1144    8    0    1
 -2       514       513       646      2339      2746      2747
 -1      1145    8    0    1
 -2       513       645       646      2744      2748      2746
 -1      1146    8    0    1
 -2       515       514       647      2342      2749      2750
 -1      1147    8    0    1
 -2       514       646       647      2747      2751      2749
 -1      1148    8    0    1
 -2       516       515       648      2345      2752      2753
 -1      1149    8    0    1
 -2       515       647       648      2750      2754      2752
 -1      1150    8    0    1
 -2       517       516       649      2348      2755      2756
 -1      1151    8    0    1
 -2       516       648       649      2753      2757      2755
 -1      1152    8    0    1
 -2       518       517       650      2351      2758      2759
 -1      1153    8    0    1
 -2       517       649       650      2756      2760      2758
 -1      1154    8    0    1
 -2       519       518       651      2354      2761      2762
 -1      1155    8    0    1
 -2       518       650       651      2759      2763      2761
 -1      1156    8    0    1
 -2       520       519       652      2357      2764      2765
 -1      1157    8    0    1
 -2       519       651       652      2762      2766      2764
 -1      1158    8    0    1
 -2       521       520       653      2360      2767      2768
 -1      1159    8    0    1
 -2       520       652       653      2765      2769      2767
 -1      1160    8    0    1
 -2       522       521       654      2363      2770      2771
 -1      1161    8    0    1
 -2       521       653       654      2768      2772      2770
 -1      1162    8    0    1
 -2       523       522       655      2366      2773      2774
 -1      1163    8    0    1
 -2       522       654       655      2771      2775      2773
 -1      1164    8    0    1
 -2       524       523       656      2369      2776      2777
 -1      1165    8    0    1
 -2       523       655       656      2774      2778      2776
 -1      1166    8    0    1
 -2       525       524       657      2372      2779      2780
 -1      1167    8    0    1
 -2       524       656       657      2777      2781      2779
 -1      1168    8    0    1
 -2       526       525       658      2376      2782      2783
 -1      1169    8    0    1
 -2       581       526       658      2540      2783      2784
 -1      1170    8    0    1
 -2       525       657       658      2780      2785      2782
 -1      1171    8    0    1
 -2       528       527       659      2381      2786      2787
 -1      1172    8    0    1
 -2       527       530       660      2387      2788      2789
 -1      1173    8    0    1
 -2       527       660       659      2789      2790      2786
 -1      1174    8    0    1
 -2       529       528       661      2384      2791      2792
 -1      1175    8    0    1
 -2       528       659       661      2787      2793      2791
 -1      1176    8    0    1
 -2       531       532       662      2393      2794      2795
 -1      1177    8    0    1
 -2       532       533       663      2396      2796      2797
 -1      1178    8    0    1
 -2       532       663       662      2797      2798      2794
 -1      1179    8    0    1
 -2       533       534       664      2399      2799      2800
 -1      1180    8    0    1
 -2       533       664       663      2800      2801      2796
 -1      1181    8    0    1
 -2       534       535       665      2402      2802      2803
 -1      1182    8    0    1
 -2       534       665       664      2803      2804      2799
 -1      1183    8    0    1
 -2       535       536       666      2405      2805      2806
 -1      1184    8    0    1
 -2       535       666       665      2806      2807      2802
 -1      1185    8    0    1
 -2       536       537       667      2408      2808      2809
 -1      1186    8    0    1
 -2       536       667       666      2809      2810      2805
 -1      1187    8    0    1
 -2       537       538       668      2411      2811      2812
 -1      1188    8    0    1
 -2       537       668       667      2812      2813      2808
 -1      1189    8    0    1
 -2       538       539       669      2414      2814      2815
 -1      1190    8    0    1
 -2       538       669       668      2815      2816      2811
 -1      1191    8    0    1
 -2       539       540       670      2417      2817      2818
 -1      1192    8    0    1
 -2       539       670       669      2818      2819      2814
 -1      1193    8    0    1
 -2       540       541       671      2420      2820      2821
 -1      1194    8    0    1
 -2       540       671       670      2821      2822      2817
 -1      1195    8    0    1
 -2       541       542       672      2423      2823      2824
 -1      1196    8    0    1
 -2       541       672       671      2824      2825      2820
 -1      1197    8    0    1
 -2       542       543       673      2426      2826      2827
 -1      1198    8    0    1
 -2       542       673       672      2827      2828      2823
 -1      1199    8    0    1
 -2       543       544       674      2429      2829      2830
 -1      1200    8    0    1
 -2       543       674       673      2830      2831      2826
 -1      1201    8    0    1
 -2       544       545       675      2432      2832      2833
 -1      1202    8    0    1
 -2       544       675       674      2833      2834      2829
 -1      1203    8    0    1
 -2       545       546       676      2435      2835      2836
 -1      1204    8    0    1
 -2       545       676       675      2836      2837      2832
 -1      1205    8    0    1
 -2       546       547       677      2438      2838      2839
 -1      1206    8    0    1
 -2       546       677       676      2839      2840      2835
 -1      1207    8    0    1
 -2       547       548       678      2441      2841      2842
 -1      1208    8    0    1
 -2       547       678       677      2842      2843      2838
 -1      1209    8    0    1
 -2       548       549       679      2444      2844      2845
 -1      1210    8    0    1
 -2       548       679       678      2845      2846      2841
 -1      1211    8    0    1
 -2       549       550       680      2447      2847      2848
 -1      1212    8    0    1
 -2       549       680       679      2848      2849      2844
 -1      1213    8    0    1
 -2       550       551       681      2450      2850      2851
 -1      1214    8    0    1
 -2       550       681       680      2851      2852      2847
 -1      1215    8    0    1
 -2       551       552       682      2453      2853      2854
 -1      1216    8    0    1
 -2       551       682       681      2854      2855      2850
 -1      1217    8    0    1
 -2       552       553       683      2456      2856      2857
 -1      1218    8    0    1
 -2       552       683       682      2857      2858      2853
 -1      1219    8    0    1
 -2       553       554       684      2459      2859      2860
 -1      1220    8    0    1
 -2       553       684       683      2860      2861      2856
 -1      1221    8    0    1
 -2       554       555       685      2462      2862      2863
 -1      1222    8    0    1
 -2       554       685       684      2863      2864      2859
 -1      1223    8    0    1
 -2       555       556       686      2465      2865      2866
 -1      1224    8    0    1
 -2       555       686       685      2866      2867      2862
 -1      1225    8    0    1
 -2       556       557       687      2468      2868      2869
 -1      1226    8    0    1
 -2       556       687       686      2869      2870      2865
 -1      1227    8    0    1
 -2       557       558       688      2471      2871      2872
 -1      1228    8    0    1
 -2       557       688       687      2872      2873      2868
 -1      1229    8    0    1
 -2       558       559       689      2474      2874      2875
 -1      1230    8    0    1
 -2       558       689       688      2875      2876      2871
 -1      1231    8    0    1
 -2       559       560       690      2477      2877      2878
 -1      1232    8    0    1
 -2       559       690       689      2878      2879      2874
 -1      1233    8    0    1
 -2       560       561       691      2480      2880      2881
 -1      1234    8    0    1
 -2       560       691       690      2881      2882      2877
 -1      1235    8    0    1
 -2       561       562       692      2483      2883      2884
 -1      1236    8    0    1
 -2       561       692       691      2884      2885      2880
 -1      1237    8    0    1
 -2       562       563       693      2486      2886      2887
 -1      1238    8    0    1
 -2       562       693       692      2887      2888      2883
 -1      1239    8    0    1
 -2       563       564       694      2489      2889      2890
 -1      1240    8    0    1
 -2       563       694       693      2890      2891      2886
 -1      1241    8    0    1
 -2       564       565       695      2492      2892      2893
 -1      1242    8    0    1
 -2       564       695       694      2893      2894      2889
 -1      1243    8    0    1
 -2       565       566       696      2495      2895      2896
 -1      1244    8    0    1
 -2       565       696       695      2896      2897      2892
 -1      1245    8    0    1
 -2       566       567       697      2498      2898      2899
 -1      1246    8    0    1
 -2       566       697       696      2899      2900      2895
 -1      1247    8    0    1
 -2       567       568       698      2501      2901      2902
 -1      1248    8    0    1
 -2       567       698       697      2902      2903      2898
 -1      1249    8    0    1
 -2       568       569       699      2504      2904      2905
 -1      1250    8    0    1
 -2       698       568       699      2901      2905      2906
 -1      1251    8    0    1
 -2       569       572       699      2625      2907      2904
 -1      1252    8    0    1
 -2       571       570       700      2510      2908      2909
 -1      1253    8    0    1
 -2       574       575       701      2521      2910      2911
 -1      1254    8    0    1
 -2       572       571       702      2513      2912      2913
 -1      1255    8    0    1
 -2       699       572       702      2907      2913      2914
 -1      1256    8    0    1
 -2       571       700       702      2909      2915      2912
 -1      1257    8    0    1
 -2       570       574       703      2518      2916      2917
 -1      1258    8    0    1
 -2       700       570       703      2908      2917      2918
 -1      1259    8    0    1
 -2       574       701       703      2911      2919      2916
 -1      1260    8    0    1
 -2       576       577       704      2527      2920      2921
 -1      1261    8    0    1
 -2       577       578       705      2530      2922      2923
 -1      1262    8    0    1
 -2       577       705       704      2923      2924      2920
 -1      1263    8    0    1
 -2       578       579       706      2533      2925      2926
 -1      1264    8    0    1
 -2       578       706       705      2926      2927      2922
 -1      1265    8    0    1
 -2       579       580       707      2536      2928      2929
 -1      1266    8    0    1
 -2       579       707       706      2929      2930      2925
 -1      1267    8    0    1
 -2       486       487       708      2605      2931      2932
 -1      1268    8    0    1
 -2       485       583       709      2545      2933      2934
 -1      1269    8    0    1
 -2       602       462       594      2588      2571      2935
 -1      1270    8    0    1
 -2       582       585       710      2618      2936      2937
 -1      1271    8    0    1
 -2       573       605       711      2617      2938      2939
 -1      1272    8    0    1
 -2       635       573       711      2712      2939      2940
 -1      1273    8    0    1
 -2       605       622       711      2674      2941      2938
 -1      1274    8    0    1
 -2       595       596       712      2629      2942      2943
 -1      1275    8    0    1
 -2       575       576       713      2524      2944      2945
 -1      1276    8    0    1
 -2       576       704       713      2921      2946      2944
 -1      1277    8    0    1
 -2       503       502       601      2306      2716      2947
 -1      1278    8    0    1
 -2       487       584       714      2549      2948      2949
 -1      1279    8    0    1
 -2       488       485       715      2262      2950      2951
 -1      1280    8    0    1
 -2       623       488       715      2675      2951      2952
 -1      1281    8    0    1
 -2       485       709       715      2934      2953      2950
 -1      1282    8    0    1
 -2       583       446       709      2619      2954      2933
 -1      1283    8    0    1
 -2       591       595       716      2641      2955      2956
 -1      1284    8    0    1
 -2       595       712       716      2943      2957      2955
 -1      1285    8    0    1
 -2       357       466       614      2711      2648      2714
 -1      1286    8    0    1
 -2       358       614       603      2715      2652      2608
 -1      1287    8    0    1
 -2       503       601       636      2947      2958      2717
 -1      1288    8    0    1
 -2       479       480       717      2240      2959      2960
 -1      1289    8    0    1
 -2       616       479       717      2656      2960      2961
 -1      1290    8    0    1
 -2       480       618       717      2662      2962      2959
 -1      1291    8    0    1
 -2       590       588       718      2635      2963      2964
 -1      1292    8    0    1
 -2       587       599       719      2630      2965      2966
 -1      1293    8    0    1
 -2       596       597       720      2578      2967      2968
 -1      1294    8    0    1
 -2       598       587       721      2581      2969      2970
 -1      1295    8    0    1
 -2       593       474       722      2634      2971      2972
 -1      1296    8    0    1
 -2       476       475       723      2229      2973      2974
 -1      1297    8    0    1
 -2       597       598       724      2628      2975      2976
 -1      1298    8    0    1
 -2       592       590       725      2636      2977      2978
 -1      1299    8    0    1
 -2       590       718       725      2964      2979      2977
 -1      1300    8    0    1
 -2       588       593       726      2637      2980      2981
 -1      1301    8    0    1
 -2       604       582       727      2607      2982      2983
 -1      1302    8    0    1
 -2       530       531       728      2390      2984      2985
 -1      1303    8    0    1
 -2       660       530       728      2788      2985      2986
 -1      1304    8    0    1
 -2       531       662       728      2795      2987      2984
 -1      1305    8    0    1
 -2       477       617       729      2659      2988      2989
 -1      1306    8    0    1
 -2       477       729       589      2989      2990      2561
 -1      1307    8    0    1
 -2       483       620       482      2667      2991      2249
 -1      1308    8    0    1
 -2       621       592       725      2670      2978      2992
 -1      1309    8    0    1
 -2       585       635       730      2713      2993      2994
 -1      1310    8    0    1
 -2       585       730       710      2994      2995      2936
 -1      1311    8    0    1
 -2       622       486       708      2673      2932      2996
 -1      1312    8    0    1
 -2       500       634       611      2708      2997      2998
 -1      1313    8    0    1
 -2       501       500       611      2301      2998      2999
 -1      1314    8    0    1
 -2       722       474       612      2971      2639      3000
 -1      1315    8    0    1
 -2       712       596       720      2942      2968      3001
 -1      1316    8    0    1
 -2       721       587       719      2969      2966      3002
 -1      1317    8    0    1
 -2       588       726       718      2981      3003      2963
 -1      1318    8    0    1
 -2       487       714       708      2949      3004      2931
 -1      1319    8    0    1
 -2       701       575       713      2910      2945      3005
 -1      1320    8    0    1
 -2       606       476       731      2598      3006      3007
 -1      1321    8    0    1
 -2       476       723       731      2974      3008      3006
 -1      1322    8    0    1
 -2       446       606       709      2600      3009      2954
 -1      1323    8    0    1
 -2       591       716       732      2956      3010      3011
 -1      1324    8    0    1
 -2       591       732       612      3011      3012      2640
 -1      1325    8    0    1
 -2       580       581       733      2539      3013      3014
 -1      1326    8    0    1
 -2       707       580       733      2928      3014      3015
 -1      1327    8    0    1
 -2       581       658       733      2784      3016      3013
 -1      1328    8    0    1
 -2       529       661       734      2792      3017      3018
 -1      1329    8    0    1
 -2       610       529       734      2623      3018      3019
 -1      1330    8    0    1
 -2       611       600       501      2633      3020      2999
 -1      1331    8    0    1
 -2       600       602       501      2627      3021      3020
 -1      1332    8    0    1
 -2       482       620       619      2991      3022      2663
 -1      1333    8    0    1
 -2       473       611       613      2632      3023      2644
 -1      1334    8    0    1
 -2       475       589       735      2560      3024      3025
 -1      1335    8    0    1
 -2       723       475       735      2973      3025      3026
 -1      1336    8    0    1
 -2       589       729       735      2990      3027      3024
 -1      1337    8    0    1
 -2       714       584       621      2948      2671      3028
 -1      1338    8    0    1
 -2       727       582       710      2982      2937      3029
 -1      1339    8    0    1
 -2       724       598       721      2975      2970      3030
 -1      1340    8    0    1
 -2       719       599       736      2965      3031      3032
 -1      1341    8    0    1
 -2       599       613       736      2643      3033      3031
 -1      1342    8    0    1
 -2       593       722       737      2972      3034      3035
 -1      1343    8    0    1
 -2       593       737       726      3035      3036      2980
 -1      1344    8    0    1
 -2       720       597       724      2967      2976      3037
 -1      1345    8    0    1
 -2       618       619       738      2665      3038      3039
 -1      1346    8    0    1
 -2       620       607       610      2668      2622      3040
 -1      1347    8    0    1
 -2       621       725       739      2992      3041      3042
 -1      1348    8    0    1
 -2       611       634       613      2997      3043      3023
 -1      1349    8    0    1
 -2       625       624       740      2682      3044      3045
 -1      1350    8    0    1
 -2       626       625       741      2685      3046      3047
 -1      1351    8    0    1
 -2       625       740       741      3045      3048      3046
 -1      1352    8    0    1
 -2       627       626       742      2688      3049      3050
 -1      1353    8    0    1
 -2       626       741       742      3047      3051      3049
 -1      1354    8    0    1
 -2       628       627       743      2691      3052      3053
 -1      1355    8    0    1
 -2       627       742       743      3050      3054      3052
 -1      1356    8    0    1
 -2       629       628       744      2694      3055      3056
 -1      1357    8    0    1
 -2       628       743       744      3053      3057      3055
 -1      1358    8    0    1
 -2       630       629       745      2697      3058      3059
 -1      1359    8    0    1
 -2       629       744       745      3056      3060      3058
 -1      1360    8    0    1
 -2       631       630       746      2700      3061      3062
 -1      1361    8    0    1
 -2       630       745       746      3059      3063      3061
 -1      1362    8    0    1
 -2       632       631       747      2703      3064      3065
 -1      1363    8    0    1
 -2       631       746       747      3062      3066      3064
 -1      1364    8    0    1
 -2       633       632       748      2706      3067      3068
 -1      1365    8    0    1
 -2       632       747       748      3065      3069      3067
 -1      1366    8    0    1
 -2       664       665       749      2804      3070      3071
 -1      1367    8    0    1
 -2       714       621       750      3028      3072      3073
 -1      1368    8    0    1
 -2       638       637       751      2724      3074      3075
 -1      1369    8    0    1
 -2       639       638       752      2727      3076      3077
 -1      1370    8    0    1
 -2       638       751       752      3075      3078      3076
 -1      1371    8    0    1
 -2       640       639       753      2730      3079      3080
 -1      1372    8    0    1
 -2       639       752       753      3077      3081      3079
 -1      1373    8    0    1
 -2       641       640       754      2733      3082      3083
 -1      1374    8    0    1
 -2       640       753       754      3080      3084      3082
 -1      1375    8    0    1
 -2       642       641       755      2736      3085      3086
 -1      1376    8    0    1
 -2       641       754       755      3083      3087      3085
 -1      1377    8    0    1
 -2       643       642       756      2739      3088      3089
 -1      1378    8    0    1
 -2       642       755       756      3086      3090      3088
 -1      1379    8    0    1
 -2       644       643       757      2742      3091      3092
 -1      1380    8    0    1
 -2       643       756       757      3089      3093      3091
 -1      1381    8    0    1
 -2       645       644       758      2745      3094      3095
 -1      1382    8    0    1
 -2       644       757       758      3092      3096      3094
 -1      1383    8    0    1
 -2       646       645       759      2748      3097      3098
 -1      1384    8    0    1
 -2       645       758       759      3095      3099      3097
 -1      1385    8    0    1
 -2       647       646       760      2751      3100      3101
 -1      1386    8    0    1
 -2       646       759       760      3098      3102      3100
 -1      1387    8    0    1
 -2       648       647       761      2754      3103      3104
 -1      1388    8    0    1
 -2       647       760       761      3101      3105      3103
 -1      1389    8    0    1
 -2       649       648       762      2757      3106      3107
 -1      1390    8    0    1
 -2       648       761       762      3104      3108      3106
 -1      1391    8    0    1
 -2       650       649       763      2760      3109      3110
 -1      1392    8    0    1
 -2       649       762       763      3107      3111      3109
 -1      1393    8    0    1
 -2       651       650       764      2763      3112      3113
 -1      1394    8    0    1
 -2       650       763       764      3110      3114      3112
 -1      1395    8    0    1
 -2       652       651       765      2766      3115      3116
 -1      1396    8    0    1
 -2       651       764       765      3113      3117      3115
 -1      1397    8    0    1
 -2       653       652       766      2769      3118      3119
 -1      1398    8    0    1
 -2       652       765       766      3116      3120      3118
 -1      1399    8    0    1
 -2       654       653       767      2772      3121      3122
 -1      1400    8    0    1
 -2       653       766       767      3119      3123      3121
 -1      1401    8    0    1
 -2       655       654       768      2775      3124      3125
 -1      1402    8    0    1
 -2       654       767       768      3122      3126      3124
 -1      1403    8    0    1
 -2       656       655       769      2778      3127      3128
 -1      1404    8    0    1
 -2       655       768       769      3125      3129      3127
 -1      1405    8    0    1
 -2       657       656       770      2781      3130      3131
 -1      1406    8    0    1
 -2       656       769       770      3128      3132      3130
 -1      1407    8    0    1
 -2       659       660       771      2790      3133      3134
 -1      1408    8    0    1
 -2       661       659       772      2793      3135      3136
 -1      1409    8    0    1
 -2       659       771       772      3134      3137      3135
 -1      1410    8    0    1
 -2       663       664       773      2801      3138      3139
 -1      1411    8    0    1
 -2       664       749       773      3071      3140      3138
 -1      1412    8    0    1
 -2       662       663       774      2798      3141      3142
 -1      1413    8    0    1
 -2       663       773       774      3139      3143      3141
 -1      1414    8    0    1
 -2       665       666       775      2807      3144      3145
 -1      1415    8    0    1
 -2       665       775       749      3145      3146      3070
 -1      1416    8    0    1
 -2       666       667       776      2810      3147      3148
 -1      1417    8    0    1
 -2       666       776       775      3148      3149      3144
 -1      1418    8    0    1
 -2       667       668       777      2813      3150      3151
 -1      1419    8    0    1
 -2       667       777       776      3151      3152      3147
 -1      1420    8    0    1
 -2       668       669       778      2816      3153      3154
 -1      1421    8    0    1
 -2       668       778       777      3154      3155      3150
 -1      1422    8    0    1
 -2       669       670       779      2819      3156      3157
 -1      1423    8    0    1
 -2       669       779       778      3157      3158      3153
 -1      1424    8    0    1
 -2       670       671       780      2822      3159      3160
 -1      1425    8    0    1
 -2       670       780       779      3160      3161      3156
 -1      1426    8    0    1
 -2       671       672       781      2825      3162      3163
 -1      1427    8    0    1
 -2       671       781       780      3163      3164      3159
 -1      1428    8    0    1
 -2       672       673       782      2828      3165      3166
 -1      1429    8    0    1
 -2       672       782       781      3166      3167      3162
 -1      1430    8    0    1
 -2       673       674       783      2831      3168      3169
 -1      1431    8    0    1
 -2       673       783       782      3169      3170      3165
 -1      1432    8    0    1
 -2       674       675       784      2834      3171      3172
 -1      1433    8    0    1
 -2       674       784       783      3172      3173      3168
 -1      1434    8    0    1
 -2       675       676       785      2837      3174      3175
 -1      1435    8    0    1
 -2       675       785       784      3175      3176      3171
 -1      1436    8    0    1
 -2       676       677       786      2840      3177      3178
 -1      1437    8    0    1
 -2       676       786       785      3178      3179      3174
 -1      1438    8    0    1
 -2       677       678       787      2843      3180      3181
 -1      1439    8    0    1
 -2       677       787       786      3181      3182      3177
 -1      1440    8    0    1
 -2       678       679       788      2846      3183      3184
 -1      1441    8    0    1
 -2       678       788       787      3184      3185      3180
 -1      1442    8    0    1
 -2       679       680       789      2849      3186      3187
 -1      1443    8    0    1
 -2       679       789       788      3187      3188      3183
 -1      1444    8    0    1
 -2       680       681       790      2852      3189      3190
 -1      1445    8    0    1
 -2       680       790       789      3190      3191      3186
 -1      1446    8    0    1
 -2       681       682       791      2855      3192      3193
 -1      1447    8    0    1
 -2       681       791       790      3193      3194      3189
 -1      1448    8    0    1
 -2       682       683       792      2858      3195      3196
 -1      1449    8    0    1
 -2       682       792       791      3196      3197      3192
 -1      1450    8    0    1
 -2       683       684       793      2861      3198      3199
 -1      1451    8    0    1
 -2       683       793       792      3199      3200      3195
 -1      1452    8    0    1
 -2       684       685       794      2864      3201      3202
 -1      1453    8    0    1
 -2       684       794       793      3202      3203      3198
 -1      1454    8    0    1
 -2       685       686       795      2867      3204      3205
 -1      1455    8    0    1
 -2       685       795       794      3205      3206      3201
 -1      1456    8    0    1
 -2       686       687       796      2870      3207      3208
 -1      1457    8    0    1
 -2       686       796       795      3208      3209      3204
 -1      1458    8    0    1
 -2       687       688       797      2873      3210      3211
 -1      1459    8    0    1
 -2       687       797       796      3211      3212      3207
 -1      1460    8    0    1
 -2       688       689       798      2876      3213      3214
 -1      1461    8    0    1
 -2       688       798       797      3214      3215      3210
 -1      1462    8    0    1
 -2       689       690       799      2879      3216      3217
 -1      1463    8    0    1
 -2       689       799       798      3217      3218      3213
 -1      1464    8    0    1
 -2       690       691       800      2882      3219      3220
 -1      1465    8    0    1
 -2       690       800       799      3220      3221      3216
 -1      1466    8    0    1
 -2       691       692       801      2885      3222      3223
 -1      1467    8    0    1
 -2       691       801       800      3223      3224      3219
 -1      1468    8    0    1
 -2       692       693       802      2888      3225      3226
 -1      1469    8    0    1
 -2       692       802       801      3226      3227      3222
 -1      1470    8    0    1
 -2       693       694       803      2891      3228      3229
 -1      1471    8    0    1
 -2       693       803       802      3229      3230      3225
 -1      1472    8    0    1
 -2       694       695       804      2894      3231      3232
 -1      1473    8    0    1
 -2       694       804       803      3232      3233      3228
 -1      1474    8    0    1
 -2       695       696       805      2897      3234      3235
 -1      1475    8    0    1
 -2       695       805       804      3235      3236      3231
 -1      1476    8    0    1
 -2       696       697       806      2900      3237      3238
 -1      1477    8    0    1
 -2       696       806       805      3238      3239      3234
 -1      1478    8    0    1
 -2       697       698       807      2903      3240      3241
 -1      1479    8    0    1
 -2       697       807       806      3241      3242      3237
 -1      1480    8    0    1
 -2       698       699       808      2906      3243      3244
 -1      1481    8    0    1
 -2       807       698       808      3240      3244      3245
 -1      1482    8    0    1
 -2       699       702       808      2914      3246      3243
 -1      1483    8    0    1
 -2       705       706       809      2927      3247      3248
 -1      1484    8    0    1
 -2       706       707       810      2930      3249      3250
 -1      1485    8    0    1
 -2       706       810       809      3250      3251      3247
 -1      1486    8    0    1
 -2       619       620       734      3022      3252      3253
 -1      1487    8    0    1
 -2       704       705       811      2924      3254      3255
 -1      1488    8    0    1
 -2       705       809       811      3248      3256      3254
 -1      1489    8    0    1
 -2       722       612       812      3000      3257      3258
 -1      1490    8    0    1
 -2       701       713       813      3005      3259      3260
 -1      1491    8    0    1
 -2       610       734       620      3019      3252      3040
 -1      1492    8    0    1
 -2       622       708       814      2996      3261      3262
 -1      1493    8    0    1
 -2       708       714       815      3004      3263      3264
 -1      1494    8    0    1
 -2       708       815       814      3264      3265      3261
 -1      1495    8    0    1
 -2       713       704       816      2946      3266      3267
 -1      1496    8    0    1
 -2       813       713       816      3259      3267      3268
 -1      1497    8    0    1
 -2       704       811       816      3255      3269      3266
 -1      1498    8    0    1
 -2       624       623       817      2679      3270      3271
 -1      1499    8    0    1
 -2       624       817       740      3271      3272      3044
 -1      1500    8    0    1
 -2       716       712       818      2957      3273      3274
 -1      1501    8    0    1
 -2       712       720       819      3001      3275      3276
 -1      1502    8    0    1
 -2       724       721       820      3030      3277      3278
 -1      1503    8    0    1
 -2       718       726       821      3003      3279      3280
 -1      1504    8    0    1
 -2       721       719       822      3002      3281      3282
 -1      1505    8    0    1
 -2       709       606       731      3009      3007      3283
 -1      1506    8    0    1
 -2       617       616       823      2660      3284      3285
 -1      1507    8    0    1
 -2       725       718       824      2979      3286      3287
 -1      1508    8    0    1
 -2       720       724       825      3037      3288      3289
 -1      1509    8    0    1
 -2       720       825       819      3289      3290      3275
 -1      1510    8    0    1
 -2       604       727       636      2983      3291      3292
 -1      1511    8    0    1
 -2       601       604       636      2594      3292      2958
 -1      1512    8    0    1
 -2       727       710       826      3029      3293      3294
 -1      1513    8    0    1
 -2       727       826       636      3294      3295      3291
 -1      1514    8    0    1
 -2       613       634       736      3043      3296      3033
 -1      1515    8    0    1
 -2       619       734       738      3253      3297      3038
 -1      1516    8    0    1
 -2       622       814       827      3262      3298      3299
 -1      1517    8    0    1
 -2       739       725       828      3041      3300      3301
 -1      1518    8    0    1
 -2       725       824       828      3287      3302      3300
 -1      1519    8    0    1
 -2       728       662       829      2987      3303      3304
 -1      1520    8    0    1
 -2       662       774       829      3142      3305      3303
 -1      1521    8    0    1
 -2       702       700       830      2915      3306      3307
 -1      1522    8    0    1
 -2       702       830       808      3307      3308      3246
 -1      1523    8    0    1
 -2       730       635       831      2993      3309      3310
 -1      1524    8    0    1
 -2       716       818       832      3274      3311      3312
 -1      1525    8    0    1
 -2       716       832       732      3312      3313      3010
 -1      1526    8    0    1
 -2       594       608       602      2710      3314      2935
 -1      1527    8    0    1
 -2       636       826       637      3295      3315      2721
 -1      1528    8    0    1
 -2       501       602       608      3021      3314      2649
 -1      1529    8    0    1
 -2       634       633       833      2709      3316      3317
 -1      1530    8    0    1
 -2       714       750       834      3073      3318      3319
 -1      1531    8    0    1
 -2       714       834       815      3319      3320      3263
 -1      1532    8    0    1
 -2       616       717       835      2961      3321      3322
 -1      1533    8    0    1
 -2       616       835       823      3322      3323      3284
 -1      1534    8    0    1
 -2       771       660       836      3133      3324      3325
 -1      1535    8    0    1
 -2       660       728       836      2986      3326      3324
 -1      1536    8    0    1
 -2       658       657       733      2785      3327      3016
 -1      1537    8    0    1
 -2       729       617       837      2988      3328      3329
 -1      1538    8    0    1
 -2       617       823       837      3285      3330      3328
 -1      1539    8    0    1
 -2       810       707       770      3249      3331      3332
 -1      1540    8    0    1
 -2       703       701       838      2919      3333      3334
 -1      1541    8    0    1
 -2       701       813       838      3260      3335      3333
 -1      1542    8    0    1
 -2       731       723       839      3008      3336      3337
 -1      1543    8    0    1
 -2       825       724       820      3288      3278      3338
 -1      1544    8    0    1
 -2       833       633       748      3316      3068      3339
 -1      1545    8    0    1
 -2       717       618       840      2962      3340      3341
 -1      1546    8    0    1
 -2       835       717       840      3321      3341      3342
 -1      1547    8    0    1
 -2       618       738       840      3039      3343      3340
 -1      1548    8    0    1
 -2       722       812       841      3258      3344      3345
 -1      1549    8    0    1
 -2       722       841       737      3345      3346      3034
 -1      1550    8    0    1
 -2       812       612       732      3257      3012      3347
 -1      1551    8    0    1
 -2       734       661       842      3017      3348      3349
 -1      1552    8    0    1
 -2       820       721       822      3277      3282      3350
 -1      1553    8    0    1
 -2       824       718       821      3286      3280      3351
 -1      1554    8    0    1
 -2       822       719       843      3281      3352      3353
 -1      1555    8    0    1
 -2       719       736       843      3032      3354      3352
 -1      1556    8    0    1
 -2       734       842       738      3349      3355      3297
 -1      1557    8    0    1
 -2       637       826       751      3315      3356      3074
 -1      1558    8    0    1
 -2       635       711       831      2940      3357      3309
 -1      1559    8    0    1
 -2       826       710       844      3293      3358      3359
 -1      1560    8    0    1
 -2       751       826       844      3356      3359      3360
 -1      1561    8    0    1
 -2       710       730       844      2995      3361      3358
 -1      1562    8    0    1
 -2       821       726       845      3279      3362      3363
 -1      1563    8    0    1
 -2       726       737       845      3036      3364      3362
 -1      1564    8    0    1
 -2       817       623       846      3270      3365      3366
 -1      1565    8    0    1
 -2       623       715       846      2952      3367      3365
 -1      1566    8    0    1
 -2       707       733       770      3015      3368      3331
 -1      1567    8    0    1
 -2       818       712       819      3273      3276      3369
 -1      1568    8    0    1
 -2       715       709       731      2953      3283      3370
 -1      1569    8    0    1
 -2       723       735       847      3026      3371      3372
 -1      1570    8    0    1
 -2       723       847       839      3372      3373      3336
 -1      1571    8    0    1
 -2       621       739       750      3042      3374      3072
 -1      1572    8    0    1
 -2       622       827       711      3299      3375      2941
 -1      1573    8    0    1
 -2       700       703       830      2918      3376      3306
 -1      1574    8    0    1
 -2       733       657       770      3327      3131      3368
 -1      1575    8    0    1
 -2       842       661       772      3348      3136      3377
 -1      1576    8    0    1
 -2       742       741       848      3051      3378      3379
 -1      1577    8    0    1
 -2       743       742       849      3054      3380      3381
 -1      1578    8    0    1
 -2       742       848       849      3379      3382      3380
 -1      1579    8    0    1
 -2       744       743       850      3057      3383      3384
 -1      1580    8    0    1
 -2       743       849       850      3381      3385      3383
 -1      1581    8    0    1
 -2       745       744       851      3060      3386      3387
 -1      1582    8    0    1
 -2       744       850       851      3384      3388      3386
 -1      1583    8    0    1
 -2       746       745       852      3063      3389      3390
 -1      1584    8    0    1
 -2       745       851       852      3387      3391      3389
 -1      1585    8    0    1
 -2       747       746       853      3066      3392      3393
 -1      1586    8    0    1
 -2       746       852       853      3390      3394      3392
 -1      1587    8    0    1
 -2       748       747       854      3069      3395      3396
 -1      1588    8    0    1
 -2       747       853       854      3393      3397      3395
 -1      1589    8    0    1
 -2       775       776       855      3149      3398      3399
 -1      1590    8    0    1
 -2       749       775       856      3146      3400      3401
 -1      1591    8    0    1
 -2       775       855       856      3399      3402      3400
 -1      1592    8    0    1
 -2       753       752       857      3081      3403      3404
 -1      1593    8    0    1
 -2       754       753       858      3084      3405      3406
 -1      1594    8    0    1
 -2       753       857       858      3404      3407      3405
 -1      1595    8    0    1
 -2       755       754       859      3087      3408      3409
 -1      1596    8    0    1
 -2       754       858       859      3406      3410      3408
 -1      1597    8    0    1
 -2       756       755       860      3090      3411      3412
 -1      1598    8    0    1
 -2       755       859       860      3409      3413      3411
 -1      1599    8    0    1
 -2       757       756       861      3093      3414      3415
 -1      1600    8    0    1
 -2       756       860       861      3412      3416      3414
 -1      1601    8    0    1
 -2       758       757       862      3096      3417      3418
 -1      1602    8    0    1
 -2       757       861       862      3415      3419      3417
 -1      1603    8    0    1
 -2       759       758       863      3099      3420      3421
 -1      1604    8    0    1
 -2       758       862       863      3418      3422      3420
 -1      1605    8    0    1
 -2       760       759       864      3102      3423      3424
 -1      1606    8    0    1
 -2       759       863       864      3421      3425      3423
 -1      1607    8    0    1
 -2       761       760       865      3105      3426      3427
 -1      1608    8    0    1
 -2       760       864       865      3424      3428      3426
 -1      1609    8    0    1
 -2       762       761       866      3108      3429      3430
 -1      1610    8    0    1
 -2       761       865       866      3427      3431      3429
 -1      1611    8    0    1
 -2       763       762       867      3111      3432      3433
 -1      1612    8    0    1
 -2       762       866       867      3430      3434      3432
 -1      1613    8    0    1
 -2       764       763       868      3114      3435      3436
 -1      1614    8    0    1
 -2       763       867       868      3433      3437      3435
 -1      1615    8    0    1
 -2       765       764       869      3117      3438      3439
 -1      1616    8    0    1
 -2       764       868       869      3436      3440      3438
 -1      1617    8    0    1
 -2       766       765       870      3120      3441      3442
 -1      1618    8    0    1
 -2       765       869       870      3439      3443      3441
 -1      1619    8    0    1
 -2       767       766       871      3123      3444      3445
 -1      1620    8    0    1
 -2       766       870       871      3442      3446      3444
 -1      1621    8    0    1
 -2       768       767       872      3126      3447      3448
 -1      1622    8    0    1
 -2       767       871       872      3445      3449      3447
 -1      1623    8    0    1
 -2       769       768       873      3129      3450      3451
 -1      1624    8    0    1
 -2       768       872       873      3448      3452      3450
 -1      1625    8    0    1
 -2       770       769       874      3132      3453      3454
 -1      1626    8    0    1
 -2       810       770       874      3332      3454      3455
 -1      1627    8    0    1
 -2       769       873       874      3451      3456      3453
 -1      1628    8    0    1
 -2       818       819       875      3369      3457      3458
 -1      1629    8    0    1
 -2       773       749       876      3140      3459      3460
 -1      1630    8    0    1
 -2       749       856       876      3401      3461      3459
 -1      1631    8    0    1
 -2       774       773       877      3143      3462      3463
 -1      1632    8    0    1
 -2       773       876       877      3460      3464      3462
 -1      1633    8    0    1
 -2       776       777       878      3152      3465      3466
 -1      1634    8    0    1
 -2       776       878       855      3466      3467      3398
 -1      1635    8    0    1
 -2       777       778       879      3155      3468      3469
 -1      1636    8    0    1
 -2       777       879       878      3469      3470      3465
 -1      1637    8    0    1
 -2       778       779       880      3158      3471      3472
 -1      1638    8    0    1
 -2       778       880       879      3472      3473      3468
 -1      1639    8    0    1
 -2       779       780       881      3161      3474      3475
 -1      1640    8    0    1
 -2       779       881       880      3475      3476      3471
 -1      1641    8    0    1
 -2       780       781       882      3164      3477      3478
 -1      1642    8    0    1
 -2       780       882       881      3478      3479      3474
 -1      1643    8    0    1
 -2       781       782       883      3167      3480      3481
 -1      1644    8    0    1
 -2       781       883       882      3481      3482      3477
 -1      1645    8    0    1
 -2       782       783       845      3170      3483      3484
 -1      1646    8    0    1
 -2       784       785       884      3176      3485      3486
 -1      1647    8    0    1
 -2       785       786       885      3179      3487      3488
 -1      1648    8    0    1
 -2       785       885       884      3488      3489      3485
 -1      1649    8    0    1
 -2       786       787       886      3182      3490      3491
 -1      1650    8    0    1
 -2       786       886       885      3491      3492      3487
 -1      1651    8    0    1
 -2       787       788       887      3185      3493      3494
 -1      1652    8    0    1
 -2       787       887       886      3494      3495      3490
 -1      1653    8    0    1
 -2       788       789       888      3188      3496      3497
 -1      1654    8    0    1
 -2       788       888       887      3497      3498      3493
 -1      1655    8    0    1
 -2       789       790       889      3191      3499      3500
 -1      1656    8    0    1
 -2       789       889       888      3500      3501      3496
 -1      1657    8    0    1
 -2       790       791       890      3194      3502      3503
 -1      1658    8    0    1
 -2       790       890       889      3503      3504      3499
 -1      1659    8    0    1
 -2       791       792       891      3197      3505      3506
 -1      1660    8    0    1
 -2       791       891       890      3506      3507      3502
 -1      1661    8    0    1
 -2       792       793       892      3200      3508      3509
 -1      1662    8    0    1
 -2       792       892       891      3509      3510      3505
 -1      1663    8    0    1
 -2       793       794       893      3203      3511      3512
 -1      1664    8    0    1
 -2       793       893       892      3512      3513      3508
 -1      1665    8    0    1
 -2       794       795       894      3206      3514      3515
 -1      1666    8    0    1
 -2       794       894       893      3515      3516      3511
 -1      1667    8    0    1
 -2       795       796       895      3209      3517      3518
 -1      1668    8    0    1
 -2       795       895       894      3518      3519      3514
 -1      1669    8    0    1
 -2       796       797       896      3212      3520      3521
 -1      1670    8    0    1
 -2       796       896       895      3521      3522      3517
 -1      1671    8    0    1
 -2       797       798       897      3215      3523      3524
 -1      1672    8    0    1
 -2       797       897       896      3524      3525      3520
 -1      1673    8    0    1
 -2       798       799       898      3218      3526      3527
 -1      1674    8    0    1
 -2       798       898       897      3527      3528      3523
 -1      1675    8    0    1
 -2       799       800       899      3221      3529      3530
 -1      1676    8    0    1
 -2       799       899       898      3530      3531      3526
 -1      1677    8    0    1
 -2       800       801       900      3224      3532      3533
 -1      1678    8    0    1
 -2       800       900       899      3533      3534      3529
 -1      1679    8    0    1
 -2       801       802       901      3227      3535      3536
 -1      1680    8    0    1
 -2       801       901       900      3536      3537      3532
 -1      1681    8    0    1
 -2       802       803       902      3230      3538      3539
 -1      1682    8    0    1
 -2       802       902       901      3539      3540      3535
 -1      1683    8    0    1
 -2       803       804       903      3233      3541      3542
 -1      1684    8    0    1
 -2       803       903       902      3542      3543      3538
 -1      1685    8    0    1
 -2       804       805       904      3236      3544      3545
 -1      1686    8    0    1
 -2       804       904       903      3545      3546      3541
 -1      1687    8    0    1
 -2       805       806       905      3239      3547      3548
 -1      1688    8    0    1
 -2       805       905       904      3548      3549      3544
 -1      1689    8    0    1
 -2       806       807       906      3242      3550      3551
 -1      1690    8    0    1
 -2       806       906       905      3551      3552      3547
 -1      1691    8    0    1
 -2       827       814       907      3298      3553      3554
 -1      1692    8    0    1
 -2       730       831       908      3310      3555      3556
 -1      1693    8    0    1
 -2       730       908       844      3556      3557      3361
 -1      1694    8    0    1
 -2       809       810       909      3251      3558      3559
 -1      1695    8    0    1
 -2       810       874       909      3455      3560      3558
 -1      1696    8    0    1
 -2       750       739       910      3374      3561      3562
 -1      1697    8    0    1
 -2       825       820       911      3338      3563      3564
 -1      1698    8    0    1
 -2       740       817       912      3272      3565      3566
 -1      1699    8    0    1
 -2       731       839       846      3337      3567      3568
 -1      1700    8    0    1
 -2       820       822       913      3350      3569      3570
 -1      1701    8    0    1
 -2       814       815       914      3265      3571      3572
 -1      1702    8    0    1
 -2       814       914       907      3572      3573      3553
 -1      1703    8    0    1
 -2       811       809       915      3256      3574      3575
 -1      1704    8    0    1
 -2       809       909       915      3559      3576      3574
 -1      1705    8    0    1
 -2       735       729       916      3027      3577      3578
 -1      1706    8    0    1
 -2       735       916       847      3578      3579      3371
 -1      1707    8    0    1
 -2       772       771       917      3137      3580      3581
 -1      1708    8    0    1
 -2       842       772       918      3377      3582      3583
 -1      1709    8    0    1
 -2       772       917       918      3581      3584      3582
 -1      1710    8    0    1
 -2       715       731       846      3370      3568      3367
 -1      1711    8    0    1
 -2       711       827       831      3375      3585      3357
 -1      1712    8    0    1
 -2       812       732       919      3347      3586      3587
 -1      1713    8    0    1
 -2       732       832       919      3313      3588      3586
 -1      1714    8    0    1
 -2       824       821       920      3351      3589      3590
 -1      1715    8    0    1
 -2       738       842       921      3355      3591      3592
 -1      1716    8    0    1
 -2       840       738       921      3343      3592      3593
 -1      1717    8    0    1
 -2       842       918       921      3583      3594      3591
 -1      1718    8    0    1
 -2       741       740       922      3048      3595      3596
 -1      1719    8    0    1
 -2       741       922       848      3596      3597      3378
 -1      1720    8    0    1
 -2       752       751       923      3078      3598      3599
 -1      1721    8    0    1
 -2       857       752       923      3403      3599      3600
 -1      1722    8    0    1
 -2       751       844       923      3360      3601      3598
 -1      1723    8    0    1
 -2       819       825       924      3290      3602      3603
 -1      1724    8    0    1
 -2       634       833       736      3317      3604      3296
 -1      1725    8    0    1
 -2       830       703       838      3376      3334      3605
 -1      1726    8    0    1
 -2       831       827       925      3585      3606      3607
 -1      1727    8    0    1
 -2       736       833       843      3604      3608      3354
 -1      1728    8    0    1
 -2       739       828       910      3301      3609      3561
 -1      1729    8    0    1
 -2       829       774       926      3305      3610      3611
 -1      1730    8    0    1
 -2       774       877       926      3463      3612      3610
 -1      1731    8    0    1
 -2       828       824       920      3302      3590      3613
 -1      1732    8    0    1
 -2       819       924       875      3603      3614      3457
 -1      1733    8    0    1
 -2       834       750       927      3318      3615      3616
 -1      1734    8    0    1
 -2       750       910       927      3562      3617      3615
 -1      1735    8    0    1
 -2       808       830       807      3308      3618      3245
 -1      1736    8    0    1
 -2       818       875       928      3458      3619      3620
 -1      1737    8    0    1
 -2       818       928       832      3620      3621      3311
 -1      1738    8    0    1
 -2       815       834       929      3320      3622      3623
 -1      1739    8    0    1
 -2       815       929       914      3623      3624      3571
 -1      1740    8    0    1
 -2       836       728       829      3326      3304      3625
 -1      1741    8    0    1
 -2       924       825       911      3602      3564      3626
 -1      1742    8    0    1
 -2       807       830       906      3618      3627      3550
 -1      1743    8    0    1
 -2       838       813       930      3335      3628      3629
 -1      1744    8    0    1
 -2       837       823       931      3330      3630      3631
 -1      1745    8    0    1
 -2       748       854       913      3396      3632      3633
 -1      1746    8    0    1
 -2       782       845       883      3484      3634      3480
 -1      1747    8    0    1
 -2       783       784       920      3173      3635      3636
 -1      1748    8    0    1
 -2       827       907       932      3554      3637      3638
 -1      1749    8    0    1
 -2       827       932       925      3638      3639      3606
 -1      1750    8    0    1
 -2       811       915       933      3575      3640      3641
 -1      1751    8    0    1
 -2       811       933       816      3641      3642      3269
 -1      1752    8    0    1
 -2       831       925       934      3607      3643      3644
 -1      1753    8    0    1
 -2       831       934       908      3644      3645      3555
 -1      1754    8    0    1
 -2       906       830       838      3627      3605      3646
 -1      1755    8    0    1
 -2       740       912       922      3566      3647      3595
 -1      1756    8    0    1
 -2       729       837       916      3329      3648      3577
 -1      1757    8    0    1
 -2       813       816       935      3268      3649      3650
 -1      1758    8    0    1
 -2       930       813       935      3628      3650      3651
 -1      1759    8    0    1
 -2       816       933       935      3642      3652      3649
 -1      1760    8    0    1
 -2       820       913       911      3570      3653      3563
 -1      1761    8    0    1
 -2       823       835       936      3323      3654      3655
 -1      1762    8    0    1
 -2       823       936       931      3655      3656      3630
 -1      1763    8    0    1
 -2       846       839       937      3567      3657      3658
 -1      1764    8    0    1
 -2       846       937       817      3658      3659      3366
 -1      1765    8    0    1
 -2       917       771       938      3580      3660      3661
 -1      1766    8    0    1
 -2       771       836       938      3325      3662      3660
 -1      1767    8    0    1
 -2       912       817       937      3565      3659      3663
 -1      1768    8    0    1
 -2       845       737       883      3364      3664      3634
 -1      1769    8    0    1
 -2       833       748       913      3339      3633      3665
 -1      1770    8    0    1
 -2       920       821       845      3589      3363      3666
 -1      1771    8    0    1
 -2       839       847       939      3373      3667      3668
 -1      1772    8    0    1
 -2       839       939       937      3668      3669      3657
 -1      1773    8    0    1
 -2       737       841       883      3346      3670      3664
 -1      1774    8    0    1
 -2       783       920       845      3636      3666      3483
 -1      1775    8    0    1
 -2       858       857       940      3407      3671      3672
 -1      1776    8    0    1
 -2       875       924       941      3614      3673      3674
 -1      1777    8    0    1
 -2       850       849       942      3385      3675      3676
 -1      1778    8    0    1
 -2       851       850       943      3388      3677      3678
 -1      1779    8    0    1
 -2       850       942       943      3676      3679      3677
 -1      1780    8    0    1
 -2       852       851       944      3391      3680      3681
 -1      1781    8    0    1
 -2       851       943       944      3678      3682      3680
 -1      1782    8    0    1
 -2       853       852       945      3394      3683      3684
 -1      1783    8    0    1
 -2       852       944       945      3681      3685      3683
 -1      1784    8    0    1
 -2       854       853       946      3397      3686      3687
 -1      1785    8    0    1
 -2       853       945       946      3684      3688      3686
 -1      1786    8    0    1
 -2       878       879       947      3470      3689      3690
 -1      1787    8    0    1
 -2       841       812       948      3344      3691      3692
 -1      1788    8    0    1
 -2       913       854       949      3632      3693      3694
 -1      1789    8    0    1
 -2       911       913       949      3653      3694      3695
 -1      1790    8    0    1
 -2       854       946       949      3687      3696      3693
 -1      1791    8    0    1
 -2       849       848       950      3382      3697      3698
 -1      1792    8    0    1
 -2       849       950       942      3698      3699      3675
 -1      1793    8    0    1
 -2       859       858       951      3410      3700      3701
 -1      1794    8    0    1
 -2       858       940       951      3672      3702      3700
 -1      1795    8    0    1
 -2       860       859       952      3413      3703      3704
 -1      1796    8    0    1
 -2       859       951       952      3701      3705      3703
 -1      1797    8    0    1
 -2       861       860       953      3416      3706      3707
 -1      1798    8    0    1
 -2       860       952       953      3704      3708      3706
 -1      1799    8    0    1
 -2       862       861       954      3419      3709      3710
 -1      1800    8    0    1
 -2       861       953       954      3707      3711      3709
 -1      1801    8    0    1
 -2       863       862       955      3422      3712      3713
 -1      1802    8    0    1
 -2       862       954       955      3710      3714      3712
 -1      1803    8    0    1
 -2       864       863       956      3425      3715      3716
 -1      1804    8    0    1
 -2       863       955       956      3713      3717      3715
 -1      1805    8    0    1
 -2       865       864       957      3428      3718      3719
 -1      1806    8    0    1
 -2       864       956       957      3716      3720      3718
 -1      1807    8    0    1
 -2       866       865       958      3431      3721      3722
 -1      1808    8    0    1
 -2       865       957       958      3719      3723      3721
 -1      1809    8    0    1
 -2       867       866       959      3434      3724      3725
 -1      1810    8    0    1
 -2       866       958       959      3722      3726      3724
 -1      1811    8    0    1
 -2       868       867       960      3437      3727      3728
 -1      1812    8    0    1
 -2       867       959       960      3725      3729      3727
 -1      1813    8    0    1
 -2       869       868       961      3440      3730      3731
 -1      1814    8    0    1
 -2       868       960       961      3728      3732      3730
 -1      1815    8    0    1
 -2       870       869       962      3443      3733      3734
 -1      1816    8    0    1
 -2       869       961       962      3731      3735      3733
 -1      1817    8    0    1
 -2       871       870       963      3446      3736      3737
 -1      1818    8    0    1
 -2       870       962       963      3734      3738      3736
 -1      1819    8    0    1
 -2       872       871       964      3449      3739      3740
 -1      1820    8    0    1
 -2       871       963       964      3737      3741      3739
 -1      1821    8    0    1
 -2       873       872       965      3452      3742      3743
 -1      1822    8    0    1
 -2       872       964       965      3740      3744      3742
 -1      1823    8    0    1
 -2       874       873       966      3456      3745      3746
 -1      1824    8    0    1
 -2       909       874       966      3560      3746      3747
 -1      1825    8    0    1
 -2       873       965       966      3743      3748      3745
 -1      1826    8    0    1
 -2       876       856       967      3461      3749      3750
 -1      1827    8    0    1
 -2       837       931       968      3631      3751      3752
 -1      1828    8    0    1
 -2       837       968       916      3752      3753      3648
 -1      1829    8    0    1
 -2       855       878       969      3467      3754      3755
 -1      1830    8    0    1
 -2       878       947       969      3690      3756      3754
 -1      1831    8    0    1
 -2       877       876       970      3464      3757      3758
 -1      1832    8    0    1
 -2       876       967       970      3750      3759      3757
 -1      1833    8    0    1
 -2       879       880       971      3473      3760      3761
 -1      1834    8    0    1
 -2       879       971       947      3761      3762      3689
 -1      1835    8    0    1
 -2       881       882       948      3479      3763      3764
 -1      1836    8    0    1
 -2       882       883       841      3482      3670      3765
 -1      1837    8    0    1
 -2       920       784       884      3635      3486      3766
 -1      1838    8    0    1
 -2       887       888       972      3498      3767      3768
 -1      1839    8    0    1
 -2       888       889       973      3501      3769      3770
 -1      1840    8    0    1
 -2       888       973       972      3770      3771      3767
 -1      1841    8    0    1
 -2       889       890       974      3504      3772      3773
 -1      1842    8    0    1
 -2       889       974       973      3773      3774      3769
 -1      1843    8    0    1
 -2       890       891       975      3507      3775      3776
 -1      1844    8    0    1
 -2       890       975       974      3776      3777      3772
 -1      1845    8    0    1
 -2       891       892       976      3510      3778      3779
 -1      1846    8    0    1
 -2       891       976       975      3779      3780      3775
 -1      1847    8    0    1
 -2       892       893       977      3513      3781      3782
 -1      1848    8    0    1
 -2       892       977       976      3782      3783      3778
 -1      1849    8    0    1
 -2       893       894       978      3516      3784      3785
 -1      1850    8    0    1
 -2       893       978       977      3785      3786      3781
 -1      1851    8    0    1
 -2       894       895       979      3519      3787      3788
 -1      1852    8    0    1
 -2       894       979       978      3788      3789      3784
 -1      1853    8    0    1
 -2       895       896       980      3522      3790      3791
 -1      1854    8    0    1
 -2       895       980       979      3791      3792      3787
 -1      1855    8    0    1
 -2       896       897       981      3525      3793      3794
 -1      1856    8    0    1
 -2       896       981       980      3794      3795      3790
 -1      1857    8    0    1
 -2       897       898       982      3528      3796      3797
 -1      1858    8    0    1
 -2       897       982       981      3797      3798      3793
 -1      1859    8    0    1
 -2       898       899       983      3531      3799      3800
 -1      1860    8    0    1
 -2       898       983       982      3800      3801      3796
 -1      1861    8    0    1
 -2       899       900       984      3534      3802      3803
 -1      1862    8    0    1
 -2       899       984       983      3803      3804      3799
 -1      1863    8    0    1
 -2       900       901       985      3537      3805      3806
 -1      1864    8    0    1
 -2       900       985       984      3806      3807      3802
 -1      1865    8    0    1
 -2       901       902       986      3540      3808      3809
 -1      1866    8    0    1
 -2       901       986       985      3809      3810      3805
 -1      1867    8    0    1
 -2       902       903       987      3543      3811      3812
 -1      1868    8    0    1
 -2       902       987       986      3812      3813      3808
 -1      1869    8    0    1
 -2       903       904       988      3546      3814      3815
 -1      1870    8    0    1
 -2       903       988       987      3815      3816      3811
 -1      1871    8    0    1
 -2       904       905       989      3549      3817      3818
 -1      1872    8    0    1
 -2       904       989       988      3818      3819      3814
 -1      1873    8    0    1
 -2       905       906       990      3552      3820      3821
 -1      1874    8    0    1
 -2       905       990       989      3821      3822      3817
 -1      1875    8    0    1
 -2       844       908       923      3557      3823      3601
 -1      1876    8    0    1
 -2       907       914       991      3573      3824      3825
 -1      1877    8    0    1
 -2       910       828       885      3609      3826      3827
 -1      1878    8    0    1
 -2       918       917       992      3584      3828      3829
 -1      1879    8    0    1
 -2       915       909       993      3576      3830      3831
 -1      1880    8    0    1
 -2       909       966       993      3747      3832      3830
 -1      1881    8    0    1
 -2       847       916       994      3579      3833      3834
 -1      1882    8    0    1
 -2       939       847       994      3667      3834      3835
 -1      1883    8    0    1
 -2       916       968       994      3753      3836      3833
 -1      1884    8    0    1
 -2       836       829       995      3625      3837      3838
 -1      1885    8    0    1
 -2       938       836       995      3662      3838      3839
 -1      1886    8    0    1
 -2       829       926       995      3611      3840      3837
 -1      1887    8    0    1
 -2       913       822       843      3569      3353      3841
 -1      1888    8    0    1
 -2       848       922       996      3597      3842      3843
 -1      1889    8    0    1
 -2       848       996       950      3843      3844      3697
 -1      1890    8    0    1
 -2       812       919       948      3587      3845      3691
 -1      1891    8    0    1
 -2       906       838       990      3646      3846      3820
 -1      1892    8    0    1
 -2       919       832       997      3588      3847      3848
 -1      1893    8    0    1
 -2       886       887       927      3495      3849      3850
 -1      1894    8    0    1
 -2       912       937       998      3663      3851      3852
 -1      1895    8    0    1
 -2       937       939       998      3669      3853      3851
 -1      1896    8    0    1
 -2       924       911       999      3626      3854      3855
 -1      1897    8    0    1
 -2       885       886       910      3492      3856      3827
 -1      1898    8    0    1
 -2       835       840      1000      3342      3857      3858
 -1      1899    8    0    1
 -2       936       835      1000      3654      3858      3859
 -1      1900    8    0    1
 -2       840       921      1000      3593      3860      3857
 -1      1901    8    0    1
 -2       922       912      1001      3647      3861      3862
 -1      1902    8    0    1
 -2       996       922      1001      3842      3862      3863
 -1      1903    8    0    1
 -2       912       998      1001      3852      3864      3861
 -1      1904    8    0    1
 -2       856       855      1002      3402      3865      3866
 -1      1905    8    0    1
 -2       855       969      1002      3755      3867      3865
 -1      1906    8    0    1
 -2       841       948       882      3692      3763      3765
 -1      1907    8    0    1
 -2       910       886       927      3856      3850      3617
 -1      1908    8    0    1
 -2       926       877      1003      3612      3868      3869
 -1      1909    8    0    1
 -2       877       970      1003      3758      3870      3868
 -1      1910    8    0    1
 -2       875       941      1004      3674      3871      3872
 -1      1911    8    0    1
 -2       928       875      1004      3619      3872      3873
 -1      1912    8    0    1
 -2       929       834       927      3622      3616      3874
 -1      1913    8    0    1
 -2       881       948       997      3764      3875      3876
 -1      1914    8    0    1
 -2       828       920       884      3613      3766      3877
 -1      1915    8    0    1
 -2       932       907      1005      3637      3878      3879
 -1      1916    8    0    1
 -2       907       991      1005      3825      3880      3878
 -1      1917    8    0    1
 -2       911       949       999      3695      3881      3854
 -1      1918    8    0    1
 -2       992       917      1006      3828      3882      3883
 -1      1919    8    0    1
 -2       917       938      1006      3661      3884      3882
 -1      1920    8    0    1
 -2       968       931      1007      3751      3885      3886
 -1      1921    8    0    1
 -2       940       857       934      3671      3887      3888
 -1      1922    8    0    1
 -2       971       880       997      3760      3889      3890
 -1      1923    8    0    1
 -2       880       881       997      3476      3876      3889
 -1      1924    8    0    1
 -2       941       924       999      3673      3855      3891
 -1      1925    8    0    1
 -2       887       972       927      3768      3892      3849
 -1      1926    8    0    1
 -2       925       932      1008      3639      3893      3894
 -1      1927    8    0    1
 -2       925      1008       934      3894      3895      3643
 -1      1928    8    0    1
 -2       884       885       828      3489      3826      3877
 -1      1929    8    0    1
 -2       923       908       934      3823      3645      3896
 -1      1930    8    0    1
 -2       933       915      1009      3640      3897      3898
 -1      1931    8    0    1
 -2       915       993      1009      3831      3899      3897
 -1      1932    8    0    1
 -2       838       930       990      3629      3900      3846
 -1      1933    8    0    1
 -2       832       928       997      3621      3901      3847
 -1      1934    8    0    1
 -2       991       914       929      3824      3624      3902
 -1      1935    8    0    1
 -2       967       856      1002      3749      3866      3903
 -1      1936    8    0    1
 -2       857       923       934      3600      3896      3887
 -1      1937    8    0    1
 -2       990       930      1010      3900      3904      3905
 -1      1938    8    0    1
 -2       930       935      1010      3651      3906      3904
 -1      1939    8    0    1
 -2       931       936      1011      3656      3907      3908
 -1      1940    8    0    1
 -2       931      1011      1007      3908      3909      3885
 -1      1941    8    0    1
 -2      1004       941      1012      3871      3910      3911
 -1      1942    8    0    1
 -2       928      1004       971      3873      3912      3913
 -1      1943    8    0    1
 -2       942       950      1013      3699      3914      3915
 -1      1944    8    0    1
 -2       941       999      1014      3891      3916      3917
 -1      1945    8    0    1
 -2       929       927       972      3874      3892      3918
 -1      1946    8    0    1
 -2       944       943      1015      3682      3919      3920
 -1      1947    8    0    1
 -2       945       944      1016      3685      3921      3922
 -1      1948    8    0    1
 -2       944      1015      1016      3920      3923      3921
 -1      1949    8    0    1
 -2       946       945      1017      3688      3924      3925
 -1      1950    8    0    1
 -2       945      1016      1017      3922      3926      3924
 -1      1951    8    0    1
 -2       990      1010       989      3905      3927      3822
 -1      1952    8    0    1
 -2       947       971      1004      3762      3912      3928
 -1      1953    8    0    1
 -2       951       940      1018      3702      3929      3930
 -1      1954    8    0    1
 -2       952       951      1019      3705      3931      3932
 -1      1955    8    0    1
 -2       951      1018      1019      3930      3933      3931
 -1      1956    8    0    1
 -2       953       952      1020      3708      3934      3935
 -1      1957    8    0    1
 -2       952      1019      1020      3932      3936      3934
 -1      1958    8    0    1
 -2       954       953      1021      3711      3937      3938
 -1      1959    8    0    1
 -2       953      1020      1021      3935      3939      3937
 -1      1960    8    0    1
 -2       955       954      1022      3714      3940      3941
 -1      1961    8    0    1
 -2       954      1021      1022      3938      3942      3940
 -1      1962    8    0    1
 -2       956       955      1023      3717      3943      3944
 -1      1963    8    0    1
 -2       955      1022      1023      3941      3945      3943
 -1      1964    8    0    1
 -2       957       956      1024      3720      3946      3947
 -1      1965    8    0    1
 -2       956      1023      1024      3944      3948      3946
 -1      1966    8    0    1
 -2       958       957      1025      3723      3949      3950
 -1      1967    8    0    1
 -2       957      1024      1025      3947      3951      3949
 -1      1968    8    0    1
 -2       959       958      1026      3726      3952      3953
 -1      1969    8    0    1
 -2       958      1025      1026      3950      3954      3952
 -1      1970    8    0    1
 -2       960       959      1027      3729      3955      3956
 -1      1971    8    0    1
 -2       959      1026      1027      3953      3957      3955
 -1      1972    8    0    1
 -2       961       960      1028      3732      3958      3959
 -1      1973    8    0    1
 -2       960      1027      1028      3956      3960      3958
 -1      1974    8    0    1
 -2       962       961      1029      3735      3961      3962
 -1      1975    8    0    1
 -2       961      1028      1029      3959      3963      3961
 -1      1976    8    0    1
 -2       963       962      1030      3738      3964      3965
 -1      1977    8    0    1
 -2       962      1029      1030      3962      3966      3964
 -1      1978    8    0    1
 -2       964       963      1031      3741      3967      3968
 -1      1979    8    0    1
 -2       963      1030      1031      3965      3969      3967
 -1      1980    8    0    1
 -2       965       964      1032      3744      3970      3971
 -1      1981    8    0    1
 -2       964      1031      1032      3968      3972      3970
 -1      1982    8    0    1
 -2       966       965      1033      3748      3973      3974
 -1      1983    8    0    1
 -2       993       966      1033      3832      3974      3975
 -1      1984    8    0    1
 -2       965      1032      1033      3971      3976      3973
 -1      1985    8    0    1
 -2       969       947      1012      3756      3977      3978
 -1      1986    8    0    1
 -2       971       997       928      3890      3901      3913
 -1      1987    8    0    1
 -2       970       967      1034      3759      3979      3980
 -1      1988    8    0    1
 -2       974       975      1035      3777      3981      3982
 -1      1989    8    0    1
 -2       973       974      1036      3774      3983      3984
 -1      1990    8    0    1
 -2       974      1035      1036      3982      3985      3983
 -1      1991    8    0    1
 -2       975       976      1037      3780      3986      3987
 -1      1992    8    0    1
 -2       975      1037      1035      3987      3988      3981
 -1      1993    8    0    1
 -2       976       977      1038      3783      3989      3990
 -1      1994    8    0    1
 -2       976      1038      1037      3990      3991      3986
 -1      1995    8    0    1
 -2       977       978      1039      3786      3992      3993
 -1      1996    8    0    1
 -2       977      1039      1038      3993      3994      3989
 -1      1997    8    0    1
 -2       978       979      1040      3789      3995      3996
 -1      1998    8    0    1
 -2       978      1040      1039      3996      3997      3992
 -1      1999    8    0    1
 -2       979       980      1041      3792      3998      3999
 -1      2000    8    0    1
 -2       979      1041      1040      3999      4000      3995
 -1      2001    8    0    1
 -2       980       981      1042      3795      4001      4002
 -1      2002    8    0    1
 -2       980      1042      1041      4002      4003      3998
 -1      2003    8    0    1
 -2       981       982      1043      3798      4004      4005
 -1      2004    8    0    1
 -2       981      1043      1042      4005      4006      4001
 -1      2005    8    0    1
 -2       982       983      1044      3801      4007      4008
 -1      2006    8    0    1
 -2       982      1044      1043      4008      4009      4004
 -1      2007    8    0    1
 -2       983       984      1045      3804      4010      4011
 -1      2008    8    0    1
 -2       983      1045      1044      4011      4012      4007
 -1      2009    8    0    1
 -2       984       985      1046      3807      4013      4014
 -1      2010    8    0    1
 -2       984      1046      1045      4014      4015      4010
 -1      2011    8    0    1
 -2       985       986      1047      3810      4016      4017
 -1      2012    8    0    1
 -2       985      1047      1046      4017      4018      4013
 -1      2013    8    0    1
 -2       986       987      1048      3813      4019      4020
 -1      2014    8    0    1
 -2       986      1048      1047      4020      4021      4016
 -1      2015    8    0    1
 -2       987       988      1049      3816      4022      4023
 -1      2016    8    0    1
 -2       987      1049      1048      4023      4024      4019
 -1      2017    8    0    1
 -2       988       989      1050      3819      4025      4026
 -1      2018    8    0    1
 -2       988      1050      1049      4026      4027      4022
 -1      2019    8    0    1
 -2       947      1004      1012      3928      3911      3977
 -1      2020    8    0    1
 -2       935       933      1051      3652      4028      4029
 -1      2021    8    0    1
 -2       935      1051      1010      4029      4030      3906
 -1      2022    8    0    1
 -2       921       918      1000      3594      4031      3860
 -1      2023    8    0    1
 -2       936      1000       992      3859      4032      4033
 -1      2024    8    0    1
 -2       918       992      1000      3829      4032      4031
 -1      2025    8    0    1
 -2      1002       969      1052      3867      4034      4035
 -1      2026    8    0    1
 -2       969      1012      1052      3978      4036      4034
 -1      2027    8    0    1
 -2       998       939      1053      3853      4037      4038
 -1      2028    8    0    1
 -2       939       994      1053      3835      4039      4037
 -1      2029    8    0    1
 -2       949       946      1054      3696      4040      4041
 -1      2030    8    0    1
 -2       999       949      1054      3881      4041      4042
 -1      2031    8    0    1
 -2       946      1017      1054      3925      4043      4040
 -1      2032    8    0    1
 -2       950       996      1055      3844      4044      4045
 -1      2033    8    0    1
 -2       950      1055      1013      4045      4046      3914
 -1      2034    8    0    1
 -2       936       992      1011      4033      4047      3907
 -1      2035    8    0    1
 -2       943       942      1056      3679      4048      4049
 -1      2036    8    0    1
 -2      1015       943      1056      3919      4049      4050
 -1      2037    8    0    1
 -2       942      1013      1056      3915      4051      4048
 -1      2038    8    0    1
 -2       967      1002      1057      3903      4052      4053
 -1      2039    8    0    1
 -2      1034       967      1057      3979      4053      4054
 -1      2040    8    0    1
 -2      1002      1052      1057      4035      4055      4052
 -1      2041    8    0    1
 -2       929       972      1058      3918      4056      4057
 -1      2042    8    0    1
 -2       991       929      1058      3902      4057      4058
 -1      2043    8    0    1
 -2       972       973      1058      3771      4059      4056
 -1      2044    8    0    1
 -2       989      1010      1050      3927      4060      4025
 -1      2045    8    0    1
 -2       970      1034      1059      3980      4061      4062
 -1      2046    8    0    1
 -2       970      1059      1003      4062      4063      3870
 -1      2047    8    0    1
 -2       926      1003      1060      3869      4064      4065
 -1      2048    8    0    1
 -2       926      1060       995      4065      4066      3840
 -1      2049    8    0    1
 -2       941      1014      1012      3917      4067      3910
 -1      2050    8    0    1
 -2      1007      1011      1061      3909      4068      4069
 -1      2051    8    0    1
 -2      1018       940      1008      3929      4070      4071
 -1      2052    8    0    1
 -2       993      1033      1062      3975      4072      4073
 -1      2053    8    0    1
 -2       993      1062      1009      4073      4074      3899
 -1      2054    8    0    1
 -2       940       934      1008      3888      3895      4070
 -1      2055    8    0    1
 -2       938       995      1063      3839      4075      4076
 -1      2056    8    0    1
 -2      1006       938      1063      3884      4076      4077
 -1      2057    8    0    1
 -2       995      1060      1063      4066      4078      4075
 -1      2058    8    0    1
 -2       833       913       843      3665      3841      3608
 -1      2059    8    0    1
 -2       973      1036      1058      3984      4079      4059
 -1      2060    8    0    1
 -2       999      1054      1014      4042      4080      3916
 -1      2061    8    0    1
 -2      1008       932      1064      3893      4081      4082
 -1      2062    8    0    1
 -2       932      1005      1064      3879      4083      4081
 -1      2063    8    0    1
 -2      1050      1010      1065      4060      4084      4085
 -1      2064    8    0    1
 -2      1010      1051      1065      4030      4086      4084
 -1      2065    8    0    1
 -2       998      1053      1066      4038      4087      4088
 -1      2066    8    0    1
 -2       998      1066      1001      4088      4089      3864
 -1      2067    8    0    1
 -2       991      1058      1067      4058      4090      4091
 -1      2068    8    0    1
 -2      1005       991      1067      3880      4091      4092
 -1      2069    8    0    1
 -2      1058      1036      1067      4079      4093      4090
 -1      2070    8    0    1
 -2       994       968      1068      3836      4094      4095
 -1      2071    8    0    1
 -2      1053       994      1068      4039      4095      4096
 -1      2072    8    0    1
 -2       968      1007      1068      3886      4097      4094
 -1      2073    8    0    1
 -2      1007      1061      1069      4069      4098      4099
 -1      2074    8    0    1
 -2      1007      1069      1068      4099      4100      4097
 -1      2075    8    0    1
 -2       996      1001      1070      3863      4101      4102
 -1      2076    8    0    1
 -2      1055       996      1070      4044      4102      4103
 -1      2077    8    0    1
 -2      1001      1066      1070      4089      4104      4101
 -1      2078    8    0    1
 -2      1011       992      1071      4047      4105      4106
 -1      2079    8    0    1
 -2      1061      1011      1071      4068      4106      4107
 -1      2080    8    0    1
 -2       992      1006      1071      3883      4108      4105
 -1      2081    8    0    1
 -2       948       919       997      3845      3848      3875
 -1      2082    8    0    1
 -2      1017      1016      1072      3926      4109      4110
 -1      2083    8    0    1
 -2      1018      1008      1064      4071      4082      4111
 -1      2084    8    0    1
 -2      1019      1018      1073      3933      4112      4113
 -1      2085    8    0    1
 -2      1051       933      1009      4028      3898      4114
 -1      2086    8    0    1
 -2      1020      1019      1074      3936      4115      4116
 -1      2087    8    0    1
 -2      1019      1073      1074      4113      4117      4115
 -1      2088    8    0    1
 -2      1021      1020      1075      3939      4118      4119
 -1      2089    8    0    1
 -2      1020      1074      1075      4116      4120      4118
 -1      2090    8    0    1
 -2      1022      1021      1076      3942      4121      4122
 -1      2091    8    0    1
 -2      1021      1075      1076      4119      4123      4121
 -1      2092    8    0    1
 -2      1023      1022      1077      3945      4124      4125
 -1      2093    8    0    1
 -2      1022      1076      1077      4122      4126      4124
 -1      2094    8    0    1
 -2      1024      1023      1078      3948      4127      4128
 -1      2095    8    0    1
 -2      1023      1077      1078      4125      4129      4127
 -1      2096    8    0    1
 -2      1025      1024      1079      3951      4130      4131
 -1      2097    8    0    1
 -2      1024      1078      1079      4128      4132      4130
 -1      2098    8    0    1
 -2      1026      1025      1080      3954      4133      4134
 -1      2099    8    0    1
 -2      1025      1079      1080      4131      4135      4133
 -1      2100    8    0    1
 -2      1027      1026      1081      3957      4136      4137
 -1      2101    8    0    1
 -2      1026      1080      1081      4134      4138      4136
 -1      2102    8    0    1
 -2      1028      1027      1082      3960      4139      4140
 -1      2103    8    0    1
 -2      1027      1081      1082      4137      4141      4139
 -1      2104    8    0    1
 -2      1029      1028      1083      3963      4142      4143
 -1      2105    8    0    1
 -2      1028      1082      1083      4140      4144      4142
 -1      2106    8    0    1
 -2      1030      1029      1084      3966      4145      4146
 -1      2107    8    0    1
 -2      1029      1083      1084      4143      4147      4145
 -1      2108    8    0    1
 -2      1031      1030      1085      3969      4148      4149
 -1      2109    8    0    1
 -2      1030      1084      1085      4146      4150      4148
 -1      2110    8    0    1
 -2      1032      1031      1086      3972      4151      4152
 -1      2111    8    0    1
 -2      1031      1085      1086      4149      4153      4151
 -1      2112    8    0    1
 -2      1033      1032      1087      3976      4154      4155
 -1      2113    8    0    1
 -2      1062      1033      1087      4072      4155      4156
 -1      2114    8    0    1
 -2      1032      1086      1087      4152      4157      4154
 -1      2115    8    0    1
 -2      1036      1035      1088      3985      4158      4159
 -1      2116    8    0    1
 -2      1036      1088      1067      4159      4160      4093
 -1      2117    8    0    1
 -2      1037      1038      1089      3991      4161      4162
 -1      2118    8    0    1
 -2      1035      1037      1090      3988      4163      4164
 -1      2119    8    0    1
 -2      1088      1035      1090      4158      4164      4165
 -1      2120    8    0    1
 -2      1037      1089      1090      4162      4166      4163
 -1      2121    8    0    1
 -2      1038      1039      1091      3994      4167      4168
 -1      2122    8    0    1
 -2      1038      1091      1089      4168      4169      4161
 -1      2123    8    0    1
 -2      1039      1040      1092      3997      4170      4171
 -1      2124    8    0    1
 -2      1039      1092      1091      4171      4172      4167
 -1      2125    8    0    1
 -2      1040      1041      1093      4000      4173      4174
 -1      2126    8    0    1
 -2      1040      1093      1092      4174      4175      4170
 -1      2127    8    0    1
 -2      1041      1042      1094      4003      4176      4177
 -1      2128    8    0    1
 -2      1041      1094      1093      4177      4178      4173
 -1      2129    8    0    1
 -2      1042      1043      1095      4006      4179      4180
 -1      2130    8    0    1
 -2      1042      1095      1094      4180      4181      4176
 -1      2131    8    0    1
 -2      1043      1044      1096      4009      4182      4183
 -1      2132    8    0    1
 -2      1043      1096      1095      4183      4184      4179
 -1      2133    8    0    1
 -2      1044      1045      1097      4012      4185      4186
 -1      2134    8    0    1
 -2      1044      1097      1096      4186      4187      4182
 -1      2135    8    0    1
 -2      1045      1046      1098      4015      4188      4189
 -1      2136    8    0    1
 -2      1045      1098      1097      4189      4190      4185
 -1      2137    8    0    1
 -2      1046      1047      1099      4018      4191      4192
 -1      2138    8    0    1
 -2      1046      1099      1098      4192      4193      4188
 -1      2139    8    0    1
 -2      1047      1048      1100      4021      4194      4195
 -1      2140    8    0    1
 -2      1047      1100      1099      4195      4196      4191
 -1      2141    8    0    1
 -2      1048      1049      1101      4024      4197      4198
 -1      2142    8    0    1
 -2      1048      1101      1100      4198      4199      4194
 -1      2143    8    0    1
 -2      1049      1050      1102      4027      4200      4201
 -1      2144    8    0    1
 -2      1101      1049      1102      4197      4201      4202
 -1      2145    8    0    1
 -2      1050      1065      1102      4085      4203      4200
 -1      2146    8    0    1
 -2      1016      1015      1103      3923      4204      4205
 -1      2147    8    0    1
 -2      1016      1103      1072      4205      4206      4109
 -1      2148    8    0    1
 -2      1052      1012      1014      4036      4067      4207
 -1      2149    8    0    1
 -2      1053      1068      1066      4096      4208      4087
 -1      2150    8    0    1
 -2      1054      1017      1104      4043      4209      4210
 -1      2151    8    0    1
 -2      1014      1054      1104      4080      4210      4211
 -1      2152    8    0    1
 -2      1017      1072      1104      4110      4212      4209
 -1      2153    8    0    1
 -2      1013      1055      1105      4046      4213      4214
 -1      2154    8    0    1
 -2      1051      1009      1062      4114      4074      4215
 -1      2155    8    0    1
 -2      1052      1014      1106      4207      4216      4217
 -1      2156    8    0    1
 -2      1057      1052      1106      4055      4217      4218
 -1      2157    8    0    1
 -2      1014      1104      1106      4211      4219      4216
 -1      2158    8    0    1
 -2      1060      1003      1107      4064      4220      4221
 -1      2159    8    0    1
 -2      1003      1059      1107      4063      4222      4220
 -1      2160    8    0    1
 -2      1034      1057      1108      4054      4223      4224
 -1      2161    8    0    1
 -2      1057      1106      1108      4218      4225      4223
 -1      2162    8    0    1
 -2      1006      1063      1109      4077      4226      4227
 -1      2163    8    0    1
 -2      1006      1109      1071      4227      4228      4108
 -1      2164    8    0    1
 -2      1013      1105      1110      4214      4229      4230
 -1      2165    8    0    1
 -2      1013      1110      1056      4230      4231      4051
 -1      2166    8    0    1
 -2      1059      1034      1111      4061      4232      4233
 -1      2167    8    0    1
 -2      1034      1108      1111      4224      4234      4232
 -1      2168    8    0    1
 -2      1018      1064      1073      4111      4235      4112
 -1      2169    8    0    1
 -2      1055      1070      1112      4103      4236      4237
 -1      2170    8    0    1
 -2      1055      1112      1105      4237      4238      4213
 -1      2171    8    0    1
 -2      1065      1051      1062      4086      4215      4239
 -1      2172    8    0    1
 -2      1005      1067      1113      4092      4240      4241
 -1      2173    8    0    1
 -2      1064      1005      1113      4083      4241      4242
 -1      2174    8    0    1
 -2      1067      1088      1113      4160      4243      4240
 -1      2175    8    0    1
 -2      1069      1061      1114      4098      4244      4245
 -1      2176    8    0    1
 -2      1015      1056      1115      4050      4246      4247
 -1      2177    8    0    1
 -2      1103      1015      1115      4204      4247      4248
 -1      2178    8    0    1
 -2      1056      1110      1115      4231      4249      4246
 -1      2179    8    0    1
 -2      1061      1071      1109      4107      4228      4250
 -1      2180    8    0    1
 -2      1066      1068      1069      4208      4100      4251
 -1      2181    8    0    1
 -2      1061      1109      1114      4250      4252      4244
 -1      2182    8    0    1
 -2      1109      1063      1060      4226      4078      4253
 -1      2183    8    0    1
 -2      1074      1073      1089      4117      4254      4255
 -1      2184    8    0    1
 -2      1075      1074      1091      4120      4256      4257
 -1      2185    8    0    1
 -2      1076      1075      1092      4123      4258      4259
 -1      2186    8    0    1
 -2      1077      1076      1093      4126      4260      4261
 -1      2187    8    0    1
 -2      1078      1077      1094      4129      4262      4263
 -1      2188    8    0    1
 -2      1079      1078      1095      4132      4264      4265
 -1      2189    8    0    1
 -2      1080      1079      1096      4135      4266      4267
 -1      2190    8    0    1
 -2      1081      1080      1097      4138      4268      4269
 -1      2191    8    0    1
 -2      1082      1081      1098      4141      4270      4271
 -1      2192    8    0    1
 -2      1083      1082      1099      4144      4272      4273
 -1      2193    8    0    1
 -2      1084      1083      1100      4147      4274      4275
 -1      2194    8    0    1
 -2      1085      1084      1101      4150      4276      4277
 -1      2195    8    0    1
 -2      1086      1085      1102      4153      4278      4279
 -1      2196    8    0    1
 -2      1091      1092      1075      4172      4258      4257
 -1      2197    8    0    1
 -2      1093      1094      1077      4178      4262      4261
 -1      2198    8    0    1
 -2      1109      1060      1107      4253      4221      4280
 -1      2199    8    0    1
 -2      1094      1095      1078      4181      4264      4263
 -1      2200    8    0    1
 -2      1095      1096      1079      4184      4266      4265
 -1      2201    8    0    1
 -2      1096      1097      1080      4187      4268      4267
 -1      2202    8    0    1
 -2      1097      1098      1081      4190      4270      4269
 -1      2203    8    0    1
 -2      1098      1099      1082      4193      4272      4271
 -1      2204    8    0    1
 -2      1099      1100      1083      4196      4274      4273
 -1      2205    8    0    1
 -2      1100      1101      1084      4199      4276      4275
 -1      2206    8    0    1
 -2      1089      1091      1074      4169      4256      4255
 -1      2207    8    0    1
 -2      1072      1103      1108      4206      4281      4282
 -1      2208    8    0    1
 -2      1069      1114      1112      4245      4283      4284
 -1      2209    8    0    1
 -2      1104      1072      1106      4212      4285      4219
 -1      2210    8    0    1
 -2      1072      1108      1106      4282      4225      4285
 -1      2211    8    0    1
 -2      1092      1093      1076      4175      4260      4259
 -1      2212    8    0    1
 -2      1108      1103      1111      4281      4286      4234
 -1      2213    8    0    1
 -2      1089      1073      1090      4254      4287      4166
 -1      2214    8    0    1
 -2      1085      1101      1102      4277      4202      4278
 -1      2215    8    0    1
 -2      1110      1105      1116      4229      4288      4289
 -1      2216    8    0    1
 -2      1107      1059      1117      4222      4290      4291
 -1      2217    8    0    1
 -2      1059      1111      1117      4233      4292      4290
 -1      2218    8    0    1
 -2      1105      1112      1118      4238      4293      4294
 -1      2219    8    0    1
 -2      1116      1105      1118      4288      4294      4295
 -1      2220    8    0    1
 -2      1112      1114      1118      4283      4296      4293
 -1      2221    8    0    1
 -2      1066      1069      1112      4251      4284      4297
 -1      2222    8    0    1
 -2      1111      1103      1115      4286      4248      4298
 -1      2223    8    0    1
 -2      1073      1064      1090      4235      4299      4287
 -1      2224    8    0    1
 -2      1114      1109      1118      4252      4300      4296
 -1      2225    8    0    1
 -2      1118      1109      1107      4300      4280      4301
 -1      2226    8    0    1
 -2      1086      1102      1065      4279      4203      4302
 -1      2227    8    0    1
 -2      1088      1090      1113      4165      4303      4243
 -1      2228    8    0    1
 -2      1110      1116      1117      4289      4304      4305
 -1      2229    8    0    1
 -2      1115      1110      1117      4249      4305      4306
 -1      2230    8    0    1
 -2      1111      1115      1117      4298      4306      4292
 -1      2231    8    0    1
 -2      1086      1065      1087      4302      4307      4157
 -1      2232    8    0    1
 -2      1070      1066      1112      4104      4297      4236
 -1      2233    8    0    1
 -2      1065      1062      1087      4239      4156      4307
 -1      2234    8    0    1
 -2      1107      1117      1116      4291      4304      4308
 -1      2235    8    0    1
 -2      1118      1107      1116      4301      4308      4295
 -1      2236    8    0    1
 -2      1090      1064      1113      4299      4242      4303
 -3
    1PSTEP                         1           1           1          
  100CL  101 1.000000000        4308                     0    1           1
 -4  DISP        4    1
 -5  D1          1    2    1    0
 -5  D2          1    2    2    0
 -5  D3          1    2    3    0
 -5  ALL         1    2    0    0    1ALL
 -1         1 4.94706E-03-1.19161E-03-1.83868E-14
 -1         2 8.81673E-03-7.29078E-04-2.71777E-14
 -1         3 1.42853E-02-2.65118E-03-1.13063E-13
 -1         4 1.62051E-02-4.08198E-03-1.13362E-13
 -1         5 0.00000E+00 0.00000E+00 0.00000E+00
 -1         6 0.00000E+00 0.00000E+00 0.00000E+00
 -1         7 0.00000E+00 0.00000E+00 0.00000E+00
 -1         8 0.00000E+00 0.00000E+00 0.00000E+00
 -1         9 0.00000E+00 0.00000E+00 0.00000E+00
 -1        10 0.00000E+00 0.00000E+00 0.00000E+00
 -1        11 0.00000E+00 0.00000E+00 0.00000E+00
 -1        12 0.00000E+00 0.00000E+00 0.00000E+00
 -1        13 0.00000E+00 0.00000E+00 0.00000E+00
 -1        14 0.00000E+00 0.00000E+00 0.00000E+00
 -1        15 0.00000E+00 0.00000E+00 0.00000E+00
 -1        16 0.00000E+00 0.00000E+00 0.00000E+00
 -1        17 0.00000E+00 0.00000E+00 0.00000E+00
 -1        18 0.00000E+00 0.00000E+00 0.00000E+00
 -1        19 0.00000E+00 0.00000E+00 0.00000E+00
 -1        20 0.00000E+00 0.00000E+00 0.00000E+00
 -1        21 0.00000E+00 0.00000E+00 0.00000E+00
 -1        22 0.00000E+00 0.00000E+00 0.00000E+00
 -1        23 4.08970E-04-2.57085E-04 3.99359E-17
 -1        24 7.00516E-04-3.92948E-04-3.57414E-17
 -1        25 9.71485E-04-4.85333E-04-2.25480E-16
 -1        26 1.23815E-03-5.48526E-04-5.27786E-16
 -1        27 1.50541E-03-5.91606E-04-9.40776E-16
 -1        28 1.77592E-03-6.19929E-04-1.46444E-15
 -1        29 2.05146E-03-6.37279E-04-2.09736E-15
 -1        30 2.33359E-03-6.46616E-04-2.84121E-15
 -1        31 2.62400E-03-6.50548E-04-3.69589E-15
 -1        32 2.92482E-03-6.51737E-04-4.65904E-15
 -1        33 3.23886E-03-6.53373E-04-5.72807E-15
 -1        34 3.56976E-03-6.59828E-04-6.89820E-15
 -1        35 3.92199E-03-6.77575E-04-8.16476E-15
 -1        36 4.31985E-03-7.18968E-04-9.60632E-15
 -1        37 4.72854E-03-7.94612E-04-1.10816E-14
 -1        38 5.16331E-03-9.23161E-04-1.26584E-14
 -1        39 5.60917E-03-1.11921E-03-1.43393E-14
 -1        40 6.03496E-03-1.37961E-03-1.61340E-14
 -1        41 6.40185E-03-1.66245E-03-1.80433E-14
 -1        42 6.69293E-03-1.88293E-03-2.00757E-14
 -1        43 6.91731E-03-1.95867E-03-2.20214E-14
 -1        44 7.15876E-03-1.90472E-03-2.40721E-14
 -1        45 7.49303E-03-1.74960E-03-2.64641E-14
 -1        46 7.92062E-03-1.57724E-03-2.90871E-14
 -1        47 8.36530E-03-1.46781E-03-3.16751E-14
 -1        48 8.80948E-03-1.42839E-03-3.43429E-14
 -1        49 9.23221E-03-1.44886E-03-3.70761E-14
 -1        50 9.62688E-03-1.51191E-03-3.98710E-14
 -1        51 9.99501E-03-1.60220E-03-4.27313E-14
 -1        52 1.03412E-02-1.70867E-03-4.56462E-14
 -1        53 1.06703E-02-1.82417E-03-4.86117E-14
 -1        54 1.09868E-02-1.94429E-03-5.16391E-14
 -1        55 1.12940E-02-2.06646E-03-5.47277E-14
 -1        56 1.15945E-02-2.18917E-03-5.78675E-14
 -1        57 1.18902E-02-2.31164E-03-6.10664E-14
 -1        58 1.21826E-02-2.43345E-03-6.43278E-14
 -1        59 1.24871E-02-2.56045E-03-6.78080E-14
 -1        60 1.27753E-02-2.68051E-03-7.11568E-14
 -1        61 1.30625E-02-2.79975E-03-7.45618E-14
 -1        62 1.33489E-02-2.91825E-03-7.80126E-14
 -1        63 1.36349E-02-3.03609E-03-8.15036E-14
 -1        64 1.39206E-02-3.15338E-03-8.50050E-14
 -1        65 1.42061E-02-3.27021E-03-8.84961E-14
 -1        66 1.44915E-02-3.38668E-03-9.20084E-14
 -1        67 1.47770E-02-3.50286E-03-9.55374E-14
 -1        68 1.50625E-02-3.61884E-03-9.90762E-14
 -1        69 1.53481E-02-3.73468E-03-1.02628E-13
 -1        70 1.56337E-02-3.85045E-03-1.06195E-13
 -1        71 1.59194E-02-3.96620E-03-1.09787E-13
 -1        72 4.11667E-04 2.58042E-04 5.08423E-17
 -1        73 7.00891E-04 3.96323E-04-7.31836E-18
 -1        74 9.72729E-04 4.88462E-04-1.71151E-16
 -1        75 1.23975E-03 5.52630E-04-4.42578E-16
 -1        76 1.50698E-03 5.97346E-04-8.24119E-16
 -1        77 1.77689E-03 6.28100E-04-1.31445E-15
 -1        78 2.05082E-03 6.48908E-04-1.91389E-15
 -1        79 2.32954E-03 6.62967E-04-2.61976E-15
 -1        80 2.61342E-03 6.73007E-04-3.43370E-15
 -1        81 2.90248E-03 6.81488E-04-4.35305E-15
 -1        82 3.19635E-03 6.90666E-04-5.37827E-15
 -1        83 3.49413E-03 7.02549E-04-6.50594E-15
 -1        84 3.79423E-03 7.18705E-04-7.73484E-15
 -1        85 4.09428E-03 7.39914E-04-9.06634E-15
 -1        86 4.39116E-03 7.65668E-04-1.05049E-14
 -1        87 4.68126E-03 7.93625E-04-1.20529E-14
 -1        88 4.96121E-03 8.19251E-04-1.37089E-14
 -1        89 5.22878E-03 8.35944E-04-1.54668E-14
 -1        90 5.48399E-03 8.35939E-04-1.73284E-14
 -1        91 5.72962E-03 8.11984E-04-1.92998E-14
 -1        92 5.97100E-03 7.59327E-04-2.13817E-14
 -1        93 6.21466E-03 6.77199E-04-2.35836E-14
 -1        94 6.46658E-03 5.69068E-04-2.59013E-14
 -1        95 6.73059E-03 4.41530E-04-2.83197E-14
 -1        96 7.00775E-03 3.02420E-04-3.08338E-14
 -1        97 7.29663E-03 1.58963E-04-3.34430E-14
 -1        98 7.59434E-03 1.65963E-05-3.61500E-14
 -1        99 7.89744E-03-1.21389E-04-3.89464E-14
 -1       100 8.20285E-03-2.53599E-04-4.18239E-14
 -1       101 8.50818E-03-3.79997E-04-4.47819E-14
 -1       102 8.81185E-03-5.01338E-04-4.78106E-14
 -1       103 9.11303E-03-6.18718E-04-5.09184E-14
 -1       104 9.41141E-03-7.33270E-04-5.40959E-14
 -1       105 9.70707E-03-8.45999E-04-5.73280E-14
 -1       106 1.00003E-02-9.57712E-04-6.06112E-14
 -1       107 1.02914E-02-1.06901E-03-6.39476E-14
 -1       108 1.05809E-02-1.18030E-03-6.73314E-14
 -1       109 1.08691E-02-1.29184E-03-7.07514E-14
 -1       110 1.11564E-02-1.40377E-03-7.42127E-14
 -1       111 1.14429E-02-1.51616E-03-7.77002E-14
 -1       112 1.17290E-02-1.62901E-03-8.12133E-14
 -1       113 1.20148E-02-1.74228E-03-8.47343E-14
 -1       114 1.23004E-02-1.85594E-03-8.82730E-14
 -1       115 1.25859E-02-1.96991E-03-9.18422E-14
 -1       116 1.28714E-02-2.08413E-03-9.54291E-14
 -1       117 1.31570E-02-2.19854E-03-9.90185E-14
 -1       118 1.34425E-02-2.31308E-03-1.02593E-13
 -1       119 1.37282E-02-2.42769E-03-1.06146E-13
 -1       120 1.40139E-02-2.54231E-03-1.09698E-13
 -1       121 1.43980E-02-2.73547E-03-1.13123E-13
 -1       122 1.45106E-02-2.81978E-03-1.13193E-13
 -1       123 1.46233E-02-2.90414E-03-1.13267E-13
 -1       124 1.47360E-02-2.98855E-03-1.13362E-13
 -1       125 1.48488E-02-3.07299E-03-1.13445E-13
 -1       126 1.49598E-02-3.15603E-03-1.13529E-13
 -1       127 1.50728E-02-3.24052E-03-1.13609E-13
 -1       128 1.51860E-02-3.32501E-03-1.13663E-13
 -1       129 1.52992E-02-3.40952E-03-1.13704E-13
 -1       130 1.54126E-02-3.49402E-03-1.13721E-13
 -1       131 1.55261E-02-3.57852E-03-1.13698E-13
 -1       132 1.56378E-02-3.66157E-03-1.13679E-13
 -1       133 1.57515E-02-3.74603E-03-1.13656E-13
 -1       134 1.58654E-02-3.83045E-03-1.13604E-13
 -1       135 1.59793E-02-3.91481E-03-1.13546E-13
 -1       136 1.60931E-02-3.99913E-03-1.13454E-13
 -1       137 8.72120E-03-5.52261E-04-2.70553E-14
 -1       138 8.54558E-03-3.87445E-04-2.67162E-14
 -1       139 8.28858E-03-2.28636E-04-2.61666E-14
 -1       140 7.96357E-03-8.44684E-05-2.54494E-14
 -1       141 7.57986E-03 4.04950E-05-2.45875E-14
 -1       142 7.16186E-03 1.38198E-04-2.36406E-14
 -1       143 6.71439E-03 2.06831E-04-2.26298E-14
 -1       144 6.23682E-03 2.42788E-04-2.15541E-14
 -1       145 5.78499E-03 2.40730E-04-2.05517E-14
 -1       146 5.32518E-03 1.95698E-04-1.95354E-14
 -1       147 4.94702E-03 1.17807E-04-1.87130E-14
 -1       148 4.64390E-03 1.19254E-05-1.80571E-14
 -1       149 4.42336E-03-1.14068E-04-1.75786E-14
 -1       150 4.27381E-03-2.69080E-04-1.72437E-14
 -1       151 4.21923E-03-4.39602E-04-1.71022E-14
 -1       152 4.25676E-03-6.13013E-04-1.71438E-14
 -1       153 4.38692E-03-8.00339E-04-1.73632E-14
 -1       154 4.64806E-03-1.01577E-03-1.78327E-14
 -1       155 5.34543E-03-1.36585E-03-1.91397E-14
 -1       156 5.79515E-03-1.50712E-03-2.00082E-14
 -1       157 6.30174E-03-1.60665E-03-2.10120E-14
 -1       158 6.80624E-03-1.64532E-03-2.20380E-14
 -1       159 7.34636E-03-1.61800E-03-2.32056E-14
 -1       160 7.83432E-03-1.52790E-03-2.43217E-14
 -1       161 8.21964E-03-1.40076E-03-2.52706E-14
 -1       162 8.51360E-03-1.25010E-03-2.60615E-14
 -1       163 8.71258E-03-1.08514E-03-2.66624E-14
 -1       164 8.81638E-03-9.06020E-04-2.70524E-14
 -1       165 2.40763E-04-1.22525E-04-1.65815E-17
 -1       166 2.25967E-04-9.13031E-05-3.43048E-17
 -1       167 2.20123E-04-6.93495E-05-4.44591E-17
 -1       168 2.17032E-04-5.18768E-05-5.01681E-17
 -1       169 2.15181E-04-3.72571E-05-5.32716E-17
 -1       170 2.14018E-04-2.40112E-05-5.50571E-17
 -1       171 2.13380E-04-1.17337E-05-5.55179E-17
 -1       172 2.13188E-04 1.11347E-07-5.56636E-17
 -1       173 2.13415E-04 1.20054E-05-5.49860E-17
 -1       174 2.14075E-04 2.44211E-05-5.34037E-17
 -1       175 2.15218E-04 3.76362E-05-5.07136E-17
 -1       176 2.17090E-04 5.27478E-05-4.64581E-17
 -1       177 2.20211E-04 7.05292E-05-3.97665E-17
 -1       178 2.26057E-04 9.28764E-05-2.84705E-17
 -1       179 2.39692E-04 1.24755E-04-9.42578E-18
 -1       180 2.97404E-04 1.82481E-04 1.10385E-17
 -1       181 4.68552E-04-2.57742E-04-4.70849E-17
 -1       182 7.67530E-04-3.71390E-04-2.04775E-16
 -1       183 1.05321E-03-4.48712E-04-4.69642E-16
 -1       184 1.33369E-03-5.01253E-04-8.42530E-16
 -1       185 1.61300E-03-5.35931E-04-1.32327E-15
 -1       186 1.89379E-03-5.57386E-04-1.91226E-15
 -1       187 2.17794E-03-5.69004E-04-2.60925E-15
 -1       188 2.46710E-03-5.73516E-04-3.41449E-15
 -1       189 2.76288E-03-5.73435E-04-4.32678E-15
 -1       190 3.06711E-03-5.71497E-04-5.34510E-15
 -1       191 3.38194E-03-5.71225E-04-6.46560E-15
 -1       192 3.70988E-03-5.77742E-04-7.68368E-15
 -1       193 4.07125E-03-6.00476E-04-9.06980E-15
 -1       194 4.43417E-03-6.49793E-04-1.04925E-14
 -1       195 4.81641E-03-7.43149E-04-1.20142E-14
 -1       196 5.21575E-03-8.99887E-04-1.36384E-14
 -1       197 5.62410E-03-1.13193E-03-1.53687E-14
 -1       198 6.02614E-03-1.42269E-03-1.72126E-14
 -1       199 6.40495E-03-1.70403E-03-1.91769E-14
 -1       200 6.72342E-03-1.86126E-03-2.10563E-14
 -1       201 7.03693E-03-1.87304E-03-2.30452E-14
 -1       202 7.40382E-03-1.74113E-03-2.53774E-14
 -1       203 7.81857E-03-1.54660E-03-2.79438E-14
 -1       204 8.22802E-03-1.40067E-03-3.04863E-14
 -1       205 8.63396E-03-1.32893E-03-3.31104E-14
 -1       206 9.02557E-03-1.32737E-03-3.58050E-14
 -1       207 9.39881E-03-1.37777E-03-3.85645E-14
 -1       208 9.75387E-03-1.46190E-03-4.13879E-14
 -1       209 1.00929E-02-1.56612E-03-4.42722E-14
 -1       210 1.04188E-02-1.68149E-03-4.72090E-14
 -1       211 1.07343E-02-1.80249E-03-5.02005E-14
 -1       212 1.10418E-02-1.92594E-03-5.32553E-14
 -1       213 1.13432E-02-2.05003E-03-5.63629E-14
 -1       214 1.16401E-02-2.17379E-03-5.95258E-14
 -1       215 1.19336E-02-2.29675E-03-6.27502E-14
 -1       216 1.22393E-02-2.42479E-03-6.61980E-14
 -1       217 1.25285E-02-2.54568E-03-6.95313E-14
 -1       218 1.28165E-02-2.66560E-03-7.29084E-14
 -1       219 1.31037E-02-2.78464E-03-7.63297E-14
 -1       220 1.33902E-02-2.90291E-03-7.97963E-14
 -1       221 1.36764E-02-3.02054E-03-8.32867E-14
 -1       222 1.39623E-02-3.13763E-03-8.67821E-14
 -1       223 1.42480E-02-3.25429E-03-9.02886E-14
 -1       224 1.45337E-02-3.37061E-03-9.38121E-14
 -1       225 1.48193E-02-3.48668E-03-9.73469E-14
 -1       226 1.51049E-02-3.60257E-03-1.00900E-13
 -1       227 1.53906E-02-3.71836E-03-1.04467E-13
 -1       228 1.56762E-02-3.83410E-03-1.08052E-13
 -1       229 1.58847E-02-3.91660E-03-1.10753E-13
 -1       230 6.04562E-04 3.23923E-04-6.41577E-17
 -1       231 8.94822E-04 4.21064E-04-2.39172E-16
 -1       232 1.17584E-03 4.88058E-04-5.17764E-16
 -1       233 1.45349E-03 5.34261E-04-9.04221E-16
 -1       234 1.73095E-03 5.65631E-04-1.39734E-15
 -1       235 2.01014E-03 5.86462E-04-1.99784E-15
 -1       236 2.29217E-03 6.00117E-04-2.70370E-15
 -1       237 2.57766E-03 6.09441E-04-3.51540E-15
 -1       238 2.86686E-03 6.16992E-04-4.43179E-15
 -1       239 3.15964E-03 6.25135E-04-5.45274E-15
 -1       240 3.45544E-03 6.36020E-04-6.57579E-15
 -1       241 3.75320E-03 6.51413E-04-7.79972E-15
 -1       242 4.05133E-03 6.72339E-04-9.12541E-15
 -1       243 4.34770E-03 6.98569E-04-1.05571E-14
 -1       244 4.63990E-03 7.28009E-04-1.20949E-14
 -1       245 4.92559E-03 7.56234E-04-1.37395E-14
 -1       246 5.20321E-03 7.76505E-04-1.54886E-14
 -1       247 5.47260E-03 7.80605E-04-1.73418E-14
 -1       248 5.73546E-03 7.60584E-04-1.93032E-14
 -1       249 5.99517E-03 7.10954E-04-2.13783E-14
 -1       250 6.25605E-03 6.30448E-04-2.35697E-14
 -1       251 6.52212E-03 5.22448E-04-2.58739E-14
 -1       252 6.79609E-03 3.93861E-04-2.82803E-14
 -1       253 7.07883E-03 2.53044E-04-3.07832E-14
 -1       254 7.36956E-03 1.07741E-04-3.33822E-14
 -1       255 7.66638E-03-3.62319E-05-3.60781E-14
 -1       256 7.96701E-03-1.75392E-04-3.88631E-14
 -1       257 8.26931E-03-3.08305E-04-4.17293E-14
 -1       258 8.57154E-03-4.34993E-04-4.46737E-14
 -1       259 8.87254E-03-5.56310E-04-4.76917E-14
 -1       260 9.17162E-03-6.73458E-04-5.07824E-14
 -1       261 9.46850E-03-7.87661E-04-5.39433E-14
 -1       262 9.76320E-03-8.99996E-04-5.71634E-14
 -1       263 1.00559E-02-1.01132E-03-6.04359E-14
 -1       264 1.03468E-02-1.12225E-03-6.37586E-14
 -1       265 1.06363E-02-1.23323E-03-6.71230E-14
 -1       266 1.09247E-02-1.34450E-03-7.05323E-14
 -1       267 1.12122E-02-1.45623E-03-7.39779E-14
 -1       268 1.14990E-02-1.56845E-03-7.74537E-14
 -1       269 1.17853E-02-1.68117E-03-8.09555E-14
 -1       270 1.20714E-02-1.79436E-03-8.44730E-14
 -1       271 1.23572E-02-1.90795E-03-8.80113E-14
 -1       272 1.26429E-02-2.02188E-03-9.15703E-14
 -1       273 1.29285E-02-2.13608E-03-9.51445E-14
 -1       274 1.32142E-02-2.25048E-03-9.87231E-14
 -1       275 1.34998E-02-2.36502E-03-1.02299E-13
 -1       276 1.37854E-02-2.47963E-03-1.05864E-13
 -1       277 1.40711E-02-2.59426E-03-1.09417E-13
 -1       278 1.42069E-02-2.67838E-03-1.10091E-13
 -1       279 1.43195E-02-2.76270E-03-1.10157E-13
 -1       280 1.44322E-02-2.84704E-03-1.10229E-13
 -1       281 1.45449E-02-2.93140E-03-1.10304E-13
 -1       282 1.46559E-02-3.01435E-03-1.10377E-13
 -1       283 1.47688E-02-3.09873E-03-1.10446E-13
 -1       284 1.48819E-02-3.18312E-03-1.10505E-13
 -1       285 1.49951E-02-3.26752E-03-1.10550E-13
 -1       286 1.51084E-02-3.35191E-03-1.10574E-13
 -1       287 1.52219E-02-3.43631E-03-1.10579E-13
 -1       288 1.53335E-02-3.51927E-03-1.10567E-13
 -1       289 1.54472E-02-3.60366E-03-1.10535E-13
 -1       290 1.55610E-02-3.68803E-03-1.10488E-13
 -1       291 1.56749E-02-3.77238E-03-1.10437E-13
 -1       292 1.57798E-02-3.84450E-03-1.10600E-13
 -1       293 8.80025E-03-7.17190E-04-2.82121E-14
 -1       294 8.61815E-03-6.03999E-04-2.78588E-14
 -1       295 8.33855E-03-4.67315E-04-2.73193E-14
 -1       296 7.98628E-03-2.98572E-04-2.65492E-14
 -1       297 7.59641E-03-1.10381E-04-2.55934E-14
 -1       298 7.20129E-03 7.11238E-05-2.45069E-14
 -1       299 6.81703E-03 2.16806E-04-2.33421E-14
 -1       300 6.43246E-03 3.06660E-04-2.21145E-14
 -1       301 6.05869E-03 3.11037E-04-2.09033E-14
 -1       302 5.68688E-03 2.43327E-04-1.96568E-14
 -1       303 5.28700E-03 1.06944E-04-1.86341E-14
 -1       304 4.91365E-03-3.49208E-05-1.78605E-14
 -1       305 4.60277E-03-1.71180E-04-1.72263E-14
 -1       306 4.35919E-03-2.94139E-04-1.67275E-14
 -1       307 4.21373E-03-3.93880E-04-1.64597E-14
 -1       308 4.20115E-03-4.86575E-04-1.64473E-14
 -1       309 4.31692E-03-5.93365E-04-1.65879E-14
 -1       310 4.59009E-03-7.19070E-04-1.67928E-14
 -1       311 4.93542E-03-9.46828E-04-1.75410E-14
 -1       312 5.33071E-03-1.17085E-03-1.82780E-14
 -1       313 5.75952E-03-1.40675E-03-1.92020E-14
 -1       314 6.18567E-03-1.60463E-03-2.02794E-14
 -1       315 6.59659E-03-1.71465E-03-2.14635E-14
 -1       316 7.00777E-03-1.72048E-03-2.27943E-14
 -1       317 7.44915E-03-1.58475E-03-2.41403E-14
 -1       318 7.87495E-03-1.39849E-03-2.53549E-14
 -1       319 8.25125E-03-1.20901E-03-2.64048E-14
 -1       320 8.56027E-03-1.04493E-03-2.72438E-14
 -1       321 8.77273E-03-9.10360E-04-2.79048E-14
 -1       322 8.85572E-03-8.09353E-04-2.81434E-14
 -1       323 4.56818E-04-1.57686E-04-1.52246E-16
 -1       324 4.75671E-04-2.06002E-04-1.22352E-16
 -1       325 4.40392E-04-8.80887E-05-1.82458E-16
 -1       326 4.36556E-04-6.03949E-05-1.89068E-16
 -1       327 4.34266E-04-3.52081E-05-1.92429E-16
 -1       328 4.33221E-04-1.13649E-05-1.93605E-16
 -1       329 4.33298E-04 1.21236E-05-1.92507E-16
 -1       330 4.34477E-04 3.61804E-05-1.89024E-16
 -1       331 4.36803E-04 6.13084E-05-1.82902E-16
 -1       332 4.40666E-04 8.94724E-05-1.73449E-16
 -1       333 4.46825E-04 1.21767E-04-1.59252E-16
 -1       334 4.57277E-04 1.60601E-04-1.37711E-16
 -1       335 4.77163E-04 2.10462E-04-1.04717E-16
 -1       336 5.32921E-04 2.63149E-04-9.05106E-17
 -1       337 8.26609E-04 3.62114E-04-2.71311E-16
 -1       338 8.66325E-04-3.43604E-04-3.96635E-16
 -1       339 1.15484E-03-4.06336E-04-7.32504E-16
 -1       340 1.44077E-03-4.48676E-04-1.17346E-15
 -1       341 1.72594E-03-4.75680E-04-1.72005E-15
 -1       342 2.01189E-03-4.91128E-04-2.37242E-15
 -1       343 2.29987E-03-4.97988E-04-3.13053E-15
 -1       344 2.59096E-03-4.98805E-04-3.99386E-15
 -1       345 2.88620E-03-4.96085E-04-4.96273E-15
 -1       346 3.18661E-03-4.92751E-04-6.03385E-15
 -1       347 3.49336E-03-4.92761E-04-7.20440E-15
 -1       348 3.82389E-03-5.02776E-04-8.53798E-15
 -1       349 4.14899E-03-5.31219E-04-9.90991E-15
 -1       350 4.48770E-03-5.91642E-04-1.13802E-14
 -1       351 4.84557E-03-7.02379E-04-1.29486E-14
 -1       352 5.22926E-03-8.84162E-04-1.46168E-14
 -1       353 5.64107E-03-1.14835E-03-1.63924E-14
 -1       354 6.06997E-03-1.46747E-03-1.82849E-14
 -1       355 6.45199E-03-1.71596E-03-2.00961E-14
 -1       356 6.82493E-03-1.82113E-03-2.20187E-14
 -1       357 7.24359E-03-1.73185E-03-2.42870E-14
 -1       358 7.69475E-03-1.51901E-03-2.68020E-14
 -1       359 8.11605E-03-1.33972E-03-2.93029E-14
 -1       360 8.51188E-03-1.23960E-03-3.18848E-14
 -1       361 8.88026E-03-1.21765E-03-3.45400E-14
 -1       362 9.22729E-03-1.25437E-03-3.72635E-14
 -1       363 9.55932E-03-1.33002E-03-4.00499E-14
 -1       364 9.88068E-03-1.42953E-03-4.28988E-14
 -1       365 1.01940E-02-1.54269E-03-4.58069E-14
 -1       366 1.05012E-02-1.66307E-03-4.87697E-14
 -1       367 1.08033E-02-1.78676E-03-5.17914E-14
 -1       368 1.11015E-02-1.91155E-03-5.48663E-14
 -1       369 1.13966E-02-2.03619E-03-5.79962E-14
 -1       370 1.16892E-02-2.16006E-03-6.11818E-14
 -1       371 1.19944E-02-2.28900E-03-6.45941E-14
 -1       372 1.22837E-02-2.41065E-03-6.79011E-14
 -1       373 1.25718E-02-2.53123E-03-7.12573E-14
 -1       374 1.28592E-02-2.65082E-03-7.46567E-14
 -1       375 1.31460E-02-2.76955E-03-7.80973E-14
 -1       376 1.34324E-02-2.88755E-03-8.15749E-14
 -1       377 1.37185E-02-3.00493E-03-8.50672E-14
 -1       378 1.40044E-02-3.12181E-03-8.85679E-14
 -1       379 1.42902E-02-3.23829E-03-9.20859E-14
 -1       380 1.45760E-02-3.35448E-03-9.56179E-14
 -1       381 1.48617E-02-3.47044E-03-9.91704E-14
 -1       382 1.51474E-02-3.58626E-03-1.02732E-13
 -1       383 1.54331E-02-3.70200E-03-1.06314E-13
 -1       384 1.27745E-03 4.41733E-04-8.08049E-16
 -1       385 1.56165E-03 4.79432E-04-1.26406E-15
 -1       386 1.84546E-03 5.04465E-04-1.82461E-15
 -1       387 2.13015E-03 5.20558E-04-2.48994E-15
 -1       388 2.41662E-03 5.30806E-04-3.25952E-15
 -1       389 2.70544E-03 5.37928E-04-4.13257E-15
 -1       390 2.99691E-03 5.44431E-04-5.10941E-15
 -1       391 3.29109E-03 5.52659E-04-6.18761E-15
 -1       392 3.58771E-03 5.64722E-04-7.36622E-15
 -1       393 3.88613E-03 5.82250E-04-8.64607E-15
 -1       394 4.18529E-03 6.05950E-04-1.00284E-14
 -1       395 4.48365E-03 6.34985E-04-1.15158E-14
 -1       396 4.77934E-03 6.66296E-04-1.31068E-14
 -1       397 5.07050E-03 6.94168E-04-1.48031E-14
 -1       398 5.35588E-03 7.10493E-04-1.66039E-14
 -1       399 5.63554E-03 7.06098E-04-1.85123E-14
 -1       400 5.91123E-03 6.73095E-04-2.05313E-14
 -1       401 6.18608E-03 6.07438E-04-2.26642E-14
 -1       402 6.46357E-03 5.10394E-04-2.49125E-14
 -1       403 6.74629E-03 3.88068E-04-2.72672E-14
 -1       404 7.03524E-03 2.49278E-04-2.97207E-14
 -1       405 7.32984E-03 1.02969E-04-3.22714E-14
 -1       406 7.62853E-03-4.36982E-05-3.49184E-14
 -1       407 7.92949E-03-1.86128E-04-3.76574E-14
 -1       408 8.23106E-03-3.22145E-04-4.04801E-14
 -1       409 8.53201E-03-4.51379E-04-4.33812E-14
 -1       410 8.83154E-03-5.74547E-04-4.63571E-14
 -1       411 9.12926E-03-6.92878E-04-4.94031E-14
 -1       412 9.42503E-03-8.07701E-04-5.25194E-14
 -1       413 9.71891E-03-9.20228E-04-5.57018E-14
 -1       414 1.00111E-02-1.03144E-03-5.89401E-14
 -1       415 1.03017E-02-1.14209E-03-6.22256E-14
 -1       416 1.05912E-02-1.25268E-03-6.55571E-14
 -1       417 1.08796E-02-1.36353E-03-6.89349E-14
 -1       418 1.11672E-02-1.47484E-03-7.23519E-14
 -1       419 1.14542E-02-1.58668E-03-7.58026E-14
 -1       420 1.17408E-02-1.69907E-03-7.92825E-14
 -1       421 1.20270E-02-1.81197E-03-8.27861E-14
 -1       422 1.23131E-02-1.92533E-03-8.63096E-14
 -1       423 1.25989E-02-2.03908E-03-8.98559E-14
 -1       424 1.28847E-02-2.15315E-03-9.34147E-14
 -1       425 1.31704E-02-2.26746E-03-9.69849E-14
 -1       426 1.34561E-02-2.38195E-03-1.00560E-13
 -1       427 1.37418E-02-2.49654E-03-1.04134E-13
 -1       428 1.39743E-02-2.58746E-03-1.07117E-13
 -1       429 1.42411E-02-2.78986E-03-1.07174E-13
 -1       430 1.41284E-02-2.70555E-03-1.07109E-13
 -1       431 1.43520E-02-2.87274E-03-1.07237E-13
 -1       432 1.44649E-02-2.95704E-03-1.07297E-13
 -1       433 1.45779E-02-3.04133E-03-1.07352E-13
 -1       434 1.46910E-02-3.12562E-03-1.07396E-13
 -1       435 1.48043E-02-3.20991E-03-1.07431E-13
 -1       436 1.49177E-02-3.29421E-03-1.07452E-13
 -1       437 1.50293E-02-3.37708E-03-1.07455E-13
 -1       438 1.51429E-02-3.46139E-03-1.07430E-13
 -1       439 1.52566E-02-3.54571E-03-1.07389E-13
 -1       440 1.53705E-02-3.63002E-03-1.07342E-13
 -1       441 1.05269E-03 4.09413E-04-5.03771E-16
 -1       442 8.45920E-03-6.29614E-04-2.86454E-14
 -1       443 7.70361E-03-2.77625E-04-2.68218E-14
 -1       444 8.86786E-03-7.98965E-04-2.95688E-14
 -1       445 8.10074E-03-4.85628E-04-2.79705E-14
 -1       446 4.46508E-04-1.19611E-04-1.70979E-16
 -1       447 7.29165E-03-5.92734E-05-2.56702E-14
 -1       448 6.92089E-03 1.47639E-04-2.42655E-14
 -1       449 6.58096E-03 2.90809E-04-2.28915E-14
 -1       450 6.22185E-03 3.53994E-04-2.13804E-14
 -1       451 5.92212E-03 3.18090E-04-2.01230E-14
 -1       452 5.50763E-03 1.69099E-04-1.86549E-14
 -1       453 5.12481E-03-4.32068E-06-1.76387E-14
 -1       454 4.79233E-03-1.55228E-04-1.68243E-14
 -1       455 4.49191E-03-2.75378E-04-1.63289E-14
 -1       456 4.26090E-03-3.66590E-04-1.57982E-14
 -1       457 4.17422E-03-4.26735E-04-1.57288E-14
 -1       458 4.23558E-03-4.82060E-04-1.57489E-14
 -1       459 4.42955E-03-5.62795E-04-1.59355E-14
 -1       460 4.85992E-03-7.54430E-04-1.64906E-14
 -1       461 5.19499E-03-9.51171E-04-1.71869E-14
 -1       462 5.64726E-03-1.24386E-03-1.82434E-14
 -1       463 6.06625E-03-1.51124E-03-1.93918E-14
 -1       464 6.44974E-03-1.70416E-03-2.06975E-14
 -1       465 6.78118E-03-1.77225E-03-2.19991E-14
 -1       466 7.24093E-03-1.67658E-03-2.40193E-14
 -1       467 7.55970E-03-1.50972E-03-2.52409E-14
 -1       468 8.01046E-03-1.25741E-03-2.67098E-14
 -1       469 8.38246E-03-1.07149E-03-2.76366E-14
 -1       470 8.66741E-03-9.34692E-04-2.85517E-14
 -1       471 8.85801E-03-8.40349E-04-2.93289E-14
 -1       472 8.71745E-03-7.24744E-04-2.90971E-14
 -1       473 4.63672E-03-6.07041E-04-1.56305E-14
 -1       474 5.71528E-03 2.65520E-04-1.91005E-14
 -1       475 6.63001E-04-6.97442E-05-4.07047E-16
 -1       476 6.68357E-04-1.07943E-04-3.97672E-16
 -1       477 6.59240E-04 3.94760E-07-4.11123E-16
 -1       478 6.60402E-04 3.50806E-05-4.06339E-16
 -1       479 6.63519E-04 7.05845E-05-3.97177E-16
 -1       480 6.68968E-04 1.09460E-04-3.83015E-16
 -1       481 6.77439E-04 1.52705E-04-3.62435E-16
 -1       482 6.90552E-04 2.02372E-04-3.31928E-16
 -1       483 7.12054E-04 2.61275E-04-2.88445E-16
 -1       484 7.65911E-04 3.09544E-04-2.84461E-16
 -1       485 9.79955E-04-3.11987E-04-6.12906E-16
 -1       486 8.30417E-03-6.30815E-04-2.96092E-14
 -1       487 7.84935E-03-4.25481E-04-2.84528E-14
 -1       488 1.26748E-03-3.60593E-04-1.01589E-15
 -1       489 1.55461E-03-3.93207E-04-1.52203E-15
 -1       490 1.84146E-03-4.13233E-04-2.13167E-15
 -1       491 2.12844E-03-4.23643E-04-2.84472E-15
 -1       492 2.41593E-03-4.27011E-04-3.66122E-15
 -1       493 2.70419E-03-4.25735E-04-4.58139E-15
 -1       494 2.99336E-03-4.22353E-04-5.60343E-15
 -1       495 3.28349E-03-4.19945E-04-6.72633E-15
 -1       496 3.58934E-03-4.23015E-04-8.01071E-15
 -1       497 3.88268E-03-4.37507E-04-9.33365E-15
 -1       498 4.18069E-03-4.72129E-04-1.07535E-14
 -1       499 4.48980E-03-5.39786E-04-1.22698E-14
 -1       500 4.82272E-03-6.59795E-04-1.38810E-14
 -1       501 5.19740E-03-8.58966E-04-1.55900E-14
 -1       502 8.01960E-03-1.29368E-03-2.81052E-14
 -1       503 8.41927E-03-1.16534E-03-3.06519E-14
 -1       504 8.77312E-03-1.12745E-03-3.32686E-14
 -1       505 9.09668E-03-1.15321E-03-3.59539E-14
 -1       506 9.40447E-03-1.22032E-03-3.87080E-14
 -1       507 9.70486E-03-1.31345E-03-4.15223E-14
 -1       508 1.00018E-02-1.42226E-03-4.43973E-14
 -1       509 1.02968E-02-1.53997E-03-4.73308E-14
 -1       510 1.05904E-02-1.66227E-03-5.03224E-14
 -1       511 1.08827E-02-1.78651E-03-5.33687E-14
 -1       512 1.11739E-02-1.91114E-03-5.64666E-14
 -1       513 1.14639E-02-2.03530E-03-5.96225E-14
 -1       514 1.17675E-02-2.16470E-03-6.29961E-14
 -1       515 1.20558E-02-2.28685E-03-6.62729E-14
 -1       516 1.23434E-02-2.40791E-03-6.96039E-14
 -1       517 1.26305E-02-2.52794E-03-7.29816E-14
 -1       518 1.29172E-02-2.64706E-03-7.64025E-14
 -1       519 1.32035E-02-2.76539E-03-7.98582E-14
 -1       520 1.34897E-02-2.88304E-03-8.33463E-14
 -1       521 1.37757E-02-3.00014E-03-8.68445E-14
 -1       522 1.40615E-02-3.11679E-03-9.03539E-14
 -1       523 1.43473E-02-3.23310E-03-9.38819E-14
 -1       524 1.46331E-02-3.34915E-03-9.74290E-14
 -1       525 1.49188E-02-3.46502E-03-1.00991E-13
 -1       526 1.51447E-02-3.54755E-03-1.04161E-13
 -1       527 1.96333E-03 4.40409E-04-2.26715E-15
 -1       528 1.67643E-03 4.21287E-04-1.64188E-15
 -1       529 1.38960E-03 3.91763E-04-1.11915E-15
 -1       530 2.25094E-03 4.52232E-04-2.99545E-15
 -1       531 2.53989E-03 4.59510E-04-3.82712E-15
 -1       532 2.83075E-03 4.64769E-04-4.76154E-15
 -1       533 3.12398E-03 4.70409E-04-5.79603E-15
 -1       534 3.41996E-03 4.78722E-04-6.93084E-15
 -1       535 3.71889E-03 4.91778E-04-8.16457E-15
 -1       536 4.02061E-03 5.11138E-04-9.50134E-15
 -1       537 4.32447E-03 5.37317E-04-1.09385E-14
 -1       538 4.62906E-03 5.69018E-04-1.24767E-14
 -1       539 4.93229E-03 6.02264E-04-1.41210E-14
 -1       540 5.23180E-03 6.29854E-04-1.58687E-14
 -1       541 5.52590E-03 6.41837E-04-1.77247E-14
 -1       542 5.81474E-03 6.27607E-04-1.96896E-14
 -1       543 6.10075E-03 5.79337E-04-2.17655E-14
 -1       544 6.38775E-03 4.95167E-04-2.39563E-14
 -1       545 6.67911E-03 3.80014E-04-2.62594E-14
 -1       546 6.97622E-03 2.43448E-04-2.86635E-14
 -1       547 7.27828E-03 9.61407E-05-3.11664E-14
 -1       548 7.58319E-03-5.30455E-05-3.37655E-14
 -1       549 7.88864E-03-1.98332E-04-3.64573E-14
 -1       550 8.19290E-03-3.36914E-04-3.92375E-14
 -1       551 8.49496E-03-4.68172E-04-4.20970E-14
 -1       552 8.79445E-03-5.92787E-04-4.50306E-14
 -1       553 9.09140E-03-7.12040E-04-4.80372E-14
 -1       554 9.38605E-03-8.27359E-04-5.11116E-14
 -1       555 9.67875E-03-9.40053E-04-5.42528E-14
 -1       556 9.96983E-03-1.05120E-03-5.74525E-14
 -1       557 1.02596E-02-1.16163E-03-6.07033E-14
 -1       558 1.05483E-02-1.27190E-03-6.40012E-14
 -1       559 1.08363E-02-1.38241E-03-6.73467E-14
 -1       560 1.11236E-02-1.49336E-03-7.07328E-14
 -1       561 1.14104E-02-1.60487E-03-7.41591E-14
 -1       562 1.16969E-02-1.71696E-03-7.76181E-14
 -1       563 1.19831E-02-1.82960E-03-8.11060E-14
 -1       564 1.22691E-02-1.94274E-03-8.46125E-14
 -1       565 1.25551E-02-2.05631E-03-8.81463E-14
 -1       566 1.28409E-02-2.17025E-03-9.16941E-14
 -1       567 1.31266E-02-2.28446E-03-9.52544E-14
 -1       568 1.34124E-02-2.39888E-03-9.88218E-14
 -1       569 1.36981E-02-2.51345E-03-1.02401E-13
 -1       570 1.41610E-02-2.81543E-03-1.04153E-13
 -1       571 1.40501E-02-2.73263E-03-1.04102E-13
 -1       572 1.39373E-02-2.64837E-03-1.04046E-13
 -1       573 8.81948E-03-7.96199E-04-3.04736E-14
 -1       574 1.42740E-02-2.89964E-03-1.04203E-13
 -1       575 1.43870E-02-2.98383E-03-1.04247E-13
 -1       576 1.45002E-02-3.06802E-03-1.04286E-13
 -1       577 1.46136E-02-3.15220E-03-1.04317E-13
 -1       578 1.47251E-02-3.23497E-03-1.04331E-13
 -1       579 1.48386E-02-3.31918E-03-1.04323E-13
 -1       580 1.49523E-02-3.40343E-03-1.04297E-13
 -1       581 1.50484E-02-3.47548E-03-1.04235E-13
 -1       582 8.80461E-03-8.86089E-04-3.01577E-14
 -1       583 7.15031E-04-2.40177E-04-3.43679E-16
 -1       584 7.49255E-03-2.28755E-04-2.72562E-14
 -1       585 8.91392E-03-8.44488E-04-3.09052E-14
 -1       586 6.30292E-03-1.63127E-03-1.97402E-14
 -1       587 4.15923E-03-4.16062E-04-1.48331E-14
 -1       588 6.38317E-03 3.47551E-04-2.22462E-14
 -1       589 6.60067E-04-3.41123E-05-4.11170E-16
 -1       590 6.70141E-03 2.33366E-04-2.37982E-14
 -1       591 5.29216E-03 8.05710E-05-1.75290E-14
 -1       592 7.02883E-03 4.78055E-05-2.54570E-14
 -1       593 6.06319E-03 3.66345E-04-2.06113E-14
 -1       594 5.90644E-03-1.36426E-03-1.82816E-14
 -1       595 4.95654E-03-7.82193E-05-1.65887E-14
 -1       596 4.58787E-03-2.32278E-04-1.56875E-14
 -1       597 4.33990E-03-3.20132E-04-1.51752E-14
 -1       598 4.16219E-03-3.84488E-04-1.49023E-14
 -1       599 4.29313E-03-4.65651E-04-1.49869E-14
 -1       600 5.06925E-03-8.10762E-04-1.61729E-14
 -1       601 8.26083E-03-1.12293E-03-2.83652E-14
 -1       602 5.47743E-03-1.06347E-03-1.70707E-14
 -1       603 7.83066E-03-1.36857E-03-2.68558E-14
 -1       604 8.54271E-03-9.90208E-04-2.92966E-14
 -1       605 8.61362E-03-7.36056E-04-3.01281E-14
 -1       606 6.76787E-04-1.50268E-04-3.81951E-16
 -1       607 9.94135E-04 3.58015E-04-5.15013E-16
 -1       608 5.66724E-03-1.18589E-03-1.73962E-14
 -1       609 6.58771E-03-1.75614E-03-2.10892E-14
 -1       610 1.19174E-03 3.79801E-04-7.88303E-16
 -1       611 4.81824E-03-6.62421E-04-1.53158E-14
 -1       612 5.48287E-03 1.92082E-04-1.79514E-14
 -1       613 4.43778E-03-4.99221E-04-1.46824E-14
 -1       614 7.47898E-03-1.59349E-03-2.54448E-14
 -1       615 7.06406E-03-1.76043E-03-2.32906E-14
 -1       616 8.94533E-04 6.71170E-05-6.92432E-16
 -1       617 8.91255E-04 2.19633E-05-7.03227E-16
 -1       618 9.10749E-04 1.65799E-04-6.48848E-16
 -1       619 9.25353E-04 2.22842E-04-6.11504E-16
 -1       620 9.39871E-04 3.09211E-04-5.17249E-16
 -1       621 7.25568E-03-1.01071E-04-2.70523E-14
 -1       622 8.53983E-03-7.41057E-04-3.15484E-14
 -1       623 1.38569E-03-3.12250E-04-1.32023E-15
 -1       624 1.67184E-03-3.36242E-04-1.88808E-15
 -1       625 1.95761E-03-3.50405E-04-2.55752E-15
 -1       626 2.24252E-03-3.57116E-04-3.32903E-15
 -1       627 2.52609E-03-3.58650E-04-4.20155E-15
 -1       628 2.80771E-03-3.57304E-04-5.17532E-15
 -1       629 3.08653E-03-3.55613E-04-6.24952E-15
 -1       630 3.37516E-03-3.56803E-04-7.48438E-15
 -1       631 3.64517E-03-3.64801E-04-8.76020E-15
 -1       632 3.91025E-03-3.84595E-04-1.01319E-14
 -1       633 4.17238E-03-4.23041E-04-1.15990E-14
 -1       634 4.43890E-03-4.91234E-04-1.31588E-14
 -1       635 8.93429E-03-8.54508E-04-3.22912E-14
 -1       636 8.73391E-03-1.02168E-03-3.20091E-14
 -1       637 9.01522E-03-1.04701E-03-3.46586E-14
 -1       638 9.28469E-03-1.11086E-03-3.73744E-14
 -1       639 9.55314E-03-1.19864E-03-4.01559E-14
 -1       640 9.82486E-03-1.30187E-03-4.29993E-14
 -1       641 1.01007E-02-1.41488E-03-4.59012E-14
 -1       642 1.03801E-02-1.53371E-03-4.88614E-14
 -1       643 1.06621E-02-1.65563E-03-5.18808E-14
 -1       644 1.09459E-02-1.77884E-03-5.49519E-14
 -1       645 1.12309E-02-1.90223E-03-5.80759E-14
 -1       646 1.15307E-02-2.03129E-03-6.14159E-14
 -1       647 1.18166E-02-2.15338E-03-6.46600E-14
 -1       648 1.21027E-02-2.27453E-03-6.79619E-14
 -1       649 1.23887E-02-2.39474E-03-7.13142E-14
 -1       650 1.26748E-02-2.51406E-03-7.47126E-14
 -1       651 1.29607E-02-2.63259E-03-7.81470E-14
 -1       652 1.32466E-02-2.75043E-03-8.16219E-14
 -1       653 1.35325E-02-2.86769E-03-8.51165E-14
 -1       654 1.38183E-02-2.98448E-03-8.86247E-14
 -1       655 1.41041E-02-3.10089E-03-9.21476E-14
 -1       656 1.43899E-02-3.21701E-03-9.56888E-14
 -1       657 1.46757E-02-3.33293E-03-9.92498E-14
 -1       658 1.48620E-02-3.40423E-03-1.01738E-13
 -1       659 1.79542E-03 3.60709E-04-2.03821E-15
 -1       660 2.08344E-03 3.74281E-04-2.72599E-15
 -1       661 1.50790E-03 3.38846E-04-1.45180E-15
 -1       662 2.66233E-03 3.86513E-04-4.40798E-15
 -1       663 2.95437E-03 3.89808E-04-5.40093E-15
 -1       664 3.24913E-03 3.94236E-04-6.49295E-15
 -1       665 3.54747E-03 4.02053E-04-7.68367E-15
 -1       666 3.85013E-03 4.15417E-04-8.97292E-15
 -1       667 4.15746E-03 4.36072E-04-1.03619E-14
 -1       668 4.46900E-03 4.64706E-04-1.18511E-14
 -1       669 4.78301E-03 4.99870E-04-1.34428E-14
 -1       670 5.09639E-03 5.36592E-04-1.51389E-14
 -1       671 5.40550E-03 5.65415E-04-1.69412E-14
 -1       672 5.70803E-03 5.73190E-04-1.88515E-14
 -1       673 6.00485E-03 5.46874E-04-2.08727E-14
 -1       674 6.30025E-03 4.79098E-04-2.30070E-14
 -1       675 6.59941E-03 3.72268E-04-2.52549E-14
 -1       676 6.90519E-03 2.37049E-04-2.76097E-14
 -1       677 7.21678E-03 8.71759E-05-3.00653E-14
 -1       678 7.53100E-03-6.56522E-05-3.26187E-14
 -1       679 7.84431E-03-2.14039E-04-3.52635E-14
 -1       680 8.15422E-03-3.54701E-04-3.79995E-14
 -1       681 8.45962E-03-4.87130E-04-4.08204E-14
 -1       682 8.76050E-03-6.12288E-04-4.37155E-14
 -1       683 9.05742E-03-7.31707E-04-4.66797E-14
 -1       684 9.35116E-03-8.46980E-04-4.97142E-14
 -1       685 9.64250E-03-9.59511E-04-5.28152E-14
 -1       686 9.93210E-03-1.07043E-03-5.59764E-14
 -1       687 1.02205E-02-1.18060E-03-5.91917E-14
 -1       688 1.05080E-02-1.29060E-03-6.24573E-14
 -1       689 1.07949E-02-1.40083E-03-6.57697E-14
 -1       690 1.10814E-02-1.51152E-03-6.91262E-14
 -1       691 1.13677E-02-1.62277E-03-7.25232E-14
 -1       692 1.16538E-02-1.73464E-03-7.59627E-14
 -1       693 1.19397E-02-1.84708E-03-7.94328E-14
 -1       694 1.22256E-02-1.96005E-03-8.29265E-14
 -1       695 1.25114E-02-2.07348E-03-8.64398E-14
 -1       696 1.27972E-02-2.18730E-03-8.99753E-14
 -1       697 1.30830E-02-2.30143E-03-9.35247E-14
 -1       698 1.33687E-02-2.41580E-03-9.70856E-14
 -1       699 1.36530E-02-2.53203E-03-1.00564E-13
 -1       700 1.38581E-02-2.67465E-03-1.01023E-13
 -1       701 1.40831E-02-2.84217E-03-1.01113E-13
 -1       702 1.37555E-02-2.60335E-03-1.00795E-13
 -1       703 1.39705E-02-2.75843E-03-1.01068E-13
 -1       704 1.43095E-02-3.01029E-03-1.01186E-13
 -1       705 1.44209E-02-3.09294E-03-1.01208E-13
 -1       706 1.45344E-02-3.17704E-03-1.01218E-13
 -1       707 1.46480E-02-3.26118E-03-1.01207E-13
 -1       708 8.11979E-03-5.72588E-04-3.02433E-14
 -1       709 8.74145E-04-2.32947E-04-5.60038E-16
 -1       710 8.93418E-03-8.94131E-04-3.20509E-14
 -1       711 8.78054E-03-8.12843E-04-3.19247E-14
 -1       712 4.70176E-03-1.24519E-04-1.51490E-14
 -1       713 1.41962E-02-2.92623E-03-1.01152E-13
 -1       714 7.67907E-03-3.49483E-04-2.89558E-14
 -1       715 1.12904E-03-2.77921E-04-9.00027E-16
 -1       716 4.99098E-03-5.73160E-06-1.60342E-14
 -1       717 9.00872E-04 1.14505E-04-6.74631E-16
 -1       718 6.53175E-03 3.00403E-04-2.33449E-14
 -1       719 4.16724E-03-4.03708E-04-1.40236E-14
 -1       720 4.39759E-03-2.56146E-04-1.45716E-14
 -1       721 4.09930E-03-3.72545E-04-1.40253E-14
 -1       722 5.80651E-03 3.37070E-04-1.92619E-14
 -1       723 8.99710E-04-1.13132E-04-6.94235E-16
 -1       724 4.16788E-03-3.33546E-04-1.41154E-14
 -1       725 6.81433E-03 1.62004E-04-2.49829E-14
 -1       726 6.20962E-03 3.82619E-04-2.14533E-14
 -1       727 8.74878E-03-9.45016E-04-3.10053E-14
 -1       728 2.37224E-03 3.82095E-04-3.51542E-15
 -1       729 8.90951E-04-2.21993E-05-7.07171E-16
 -1       730 9.02814E-03-9.00912E-04-3.34608E-14
 -1       731 9.09513E-04-1.63277E-04-6.75627E-16
 -1       732 5.16647E-03 1.04336E-04-1.64260E-14
 -1       733 1.47550E-02-3.33269E-03-1.01479E-13
 -1       734 1.22093E-03 3.06034E-04-9.66275E-16
 -1       735 8.93687E-04-6.66545E-05-7.04338E-16
 -1       736 4.25511E-03-4.25407E-04-1.37248E-14
 -1       737 5.95962E-03 3.93834E-04-2.00629E-14
 -1       738 1.16121E-03 2.26395E-04-9.74711E-16
 -1       739 7.05845E-03 2.62020E-05-2.67106E-14
 -1       740 1.79082E-03-2.78759E-04-2.27053E-15
 -1       741 2.07379E-03-2.88576E-04-2.99693E-15
 -1       742 2.35461E-03-2.93262E-04-3.82350E-15
 -1       743 2.63208E-03-2.94898E-04-4.75008E-15
 -1       744 2.90475E-03-2.95701E-04-5.77615E-15
 -1       745 3.18395E-03-2.98354E-04-6.96096E-15
 -1       746 3.44080E-03-3.05510E-04-8.18949E-15
 -1       747 3.68621E-03-3.20335E-04-9.51373E-15
 -1       748 3.91816E-03-3.45956E-04-1.09342E-14
 -1       749 3.37228E-03 3.15006E-04-7.19943E-15
 -1       750 7.45713E-03-2.08835E-04-2.88397E-14
 -1       751 9.19200E-03-1.01590E-03-3.60382E-14
 -1       752 9.42116E-03-1.09868E-03-3.87845E-14
 -1       753 9.66369E-03-1.19494E-03-4.15943E-14
 -1       754 9.91765E-03-1.30117E-03-4.44682E-14
 -1       755 1.01806E-02-1.41430E-03-4.73989E-14
 -1       756 1.04504E-02-1.53184E-03-5.03884E-14
 -1       757 1.07251E-02-1.65191E-03-5.34310E-14
 -1       758 1.10034E-02-1.77315E-03-5.65265E-14
 -1       759 1.12983E-02-1.90075E-03-5.98370E-14
 -1       760 1.15808E-02-2.02199E-03-6.30510E-14
 -1       761 1.18644E-02-2.14265E-03-6.63235E-14
 -1       762 1.21488E-02-2.26260E-03-6.96499E-14
 -1       763 1.24337E-02-2.38181E-03-7.30212E-14
 -1       764 1.27189E-02-2.50031E-03-7.64374E-14
 -1       765 1.30043E-02-2.61818E-03-7.98920E-14
 -1       766 1.32898E-02-2.73549E-03-8.33783E-14
 -1       767 1.35755E-02-2.85233E-03-8.68815E-14
 -1       768 1.38611E-02-2.96879E-03-9.03976E-14
 -1       769 1.41468E-02-3.08495E-03-9.39367E-14
 -1       770 1.44326E-02-3.20088E-03-9.74934E-14
 -1       771 1.91707E-03 2.98071E-04-2.45313E-15
 -1       772 1.62993E-03 2.83233E-04-1.80537E-15
 -1       773 3.07631E-03 3.12609E-04-6.05125E-15
 -1       774 2.78385E-03 3.11770E-04-5.00146E-15
 -1       775 3.67322E-03 3.21287E-04-8.44415E-15
 -1       776 3.98057E-03 3.33968E-04-9.78670E-15
 -1       777 4.29529E-03 3.55471E-04-1.12272E-14
 -1       778 4.61700E-03 3.87287E-04-1.27685E-14
 -1       779 4.94313E-03 4.28249E-04-1.44128E-14
 -1       780 5.26879E-03 4.71878E-04-1.61605E-14
 -1       781 5.58830E-03 5.04584E-04-1.80165E-14
 -1       782 5.89896E-03 5.07158E-04-1.99830E-14
 -1       783 6.20388E-03 4.63143E-04-2.20620E-14
 -1       784 6.51070E-03 3.68206E-04-2.42552E-14
 -1       785 6.82535E-03 2.33363E-04-2.65584E-14
 -1       786 7.14809E-03 7.76791E-05-2.89672E-14
 -1       787 7.47431E-03-8.17339E-05-3.14738E-14
 -1       788 7.79836E-03-2.34673E-04-3.40767E-14
 -1       789 8.11635E-03-3.77364E-04-3.67687E-14
 -1       790 8.42682E-03-5.10012E-04-3.95486E-14
 -1       791 8.73010E-03-6.34443E-04-4.24076E-14
 -1       792 9.02745E-03-7.52825E-04-4.53349E-14
 -1       793 9.32032E-03-8.67098E-04-4.83291E-14
 -1       794 9.61009E-03-9.78810E-04-5.13888E-14
 -1       795 9.89782E-03-1.08911E-03-5.45107E-14
 -1       796 1.01843E-02-1.19883E-03-5.76909E-14
 -1       797 1.04701E-02-1.30851E-03-6.09232E-14
 -1       798 1.07556E-02-1.41851E-03-6.42026E-14
 -1       799 1.10409E-02-1.52902E-03-6.75292E-14
 -1       800 1.13263E-02-1.64014E-03-7.08981E-14
 -1       801 1.16116E-02-1.75188E-03-7.43140E-14
 -1       802 1.18971E-02-1.86423E-03-7.77641E-14
 -1       803 1.21826E-02-1.97711E-03-8.12436E-14
 -1       804 1.24682E-02-2.09047E-03-8.47429E-14
 -1       805 1.27538E-02-2.20423E-03-8.82606E-14
 -1       806 1.30395E-02-2.31831E-03-9.17990E-14
 -1       807 1.33252E-02-2.43265E-03-9.53485E-14
 -1       808 1.35403E-02-2.51796E-03-9.80667E-14
 -1       809 1.42303E-02-3.03495E-03-9.81165E-14
 -1       810 1.43438E-02-3.11896E-03-9.81212E-14
 -1       811 1.41188E-02-2.95243E-03-9.80985E-14
 -1       812 5.51336E-03 2.77045E-04-1.77429E-14
 -1       813 1.38923E-02-2.78459E-03-9.80348E-14
 -1       814 8.39375E-03-6.88262E-04-3.25088E-14
 -1       815 8.00838E-03-5.11697E-04-3.11761E-14
 -1       816 1.40055E-02-2.86851E-03-9.80707E-14
 -1       817 1.50682E-03-2.61809E-04-1.64412E-15
 -1       818 4.76460E-03-8.14349E-06-1.47298E-14
 -1       819 4.39022E-03-1.59700E-04-1.36477E-14
 -1       820 4.04066E-03-3.25908E-04-1.31565E-14
 -1       821 6.33098E-03 3.72231E-04-2.23675E-14
 -1       822 4.04846E-03-3.56721E-04-1.31073E-14
 -1       823 1.12907E-03 5.20366E-05-1.06596E-15
 -1       824 6.62930E-03 2.61752E-04-2.42554E-14
 -1       825 4.16986E-03-2.54412E-04-1.32235E-14
 -1       826 8.94125E-03-9.55952E-04-3.30797E-14
 -1       827 8.69273E-03-7.99801E-04-3.36542E-14
 -1       828 6.86378E-03 1.51164E-04-2.59479E-14
 -1       829 2.49369E-03 3.10379E-04-4.05063E-15
 -1       830 1.36429E-02-2.58920E-03-9.82935E-14
 -1       831 9.02601E-03-8.99023E-04-3.43224E-14
 -1       832 4.91581E-03 8.75604E-05-1.50953E-14
 -1       833 4.14476E-03-3.92047E-04-1.24421E-14
 -1       834 7.78953E-03-3.76529E-04-3.10478E-14
 -1       835 1.13553E-03 1.06406E-04-1.04643E-15
 -1       836 2.20494E-03 3.06461E-04-3.20156E-15
 -1       837 1.12653E-03-6.90343E-07-1.07621E-15
 -1       838 1.37797E-02-2.70100E-03-9.79919E-14
 -1       839 1.14397E-03-1.62254E-04-1.05018E-15
 -1       840 1.14607E-03 1.64130E-04-1.01672E-15
 -1       841 5.67850E-03 3.66001E-04-1.85007E-14
 -1       842 1.34380E-03 2.59962E-04-1.25737E-15
 -1       843 4.08697E-03-3.70218E-04-1.28206E-14
 -1       844 9.10706E-03-9.53911E-04-3.47433E-14
 -1       845 6.08979E-03 4.21489E-04-2.09349E-14
 -1       846 1.25216E-03-2.36612E-04-1.16956E-15
 -1       847 1.13373E-03-1.06174E-04-1.06910E-15
 -1       848 2.19082E-03-2.28658E-04-3.44908E-15
 -1       849 2.46673E-03-2.33122E-04-4.32892E-15
 -1       850 2.73742E-03-2.36803E-04-5.30745E-15
 -1       851 3.01380E-03-2.42189E-04-6.44173E-15
 -1       852 3.26688E-03-2.51211E-04-7.62274E-15
 -1       853 3.50665E-03-2.66571E-04-8.90015E-15
 -1       854 3.72840E-03-2.90977E-04-1.02734E-14
 -1       855 3.79509E-03 2.35210E-04-9.21139E-15
 -1       856 3.49206E-03 2.31896E-04-7.91436E-15
 -1       857 9.50536E-03-1.10184E-03-4.01873E-14
 -1       858 9.73839E-03-1.19943E-03-4.30319E-14
 -1       859 9.98548E-03-1.30483E-03-4.59364E-14
 -1       860 1.02431E-02-1.41609E-03-4.88955E-14
 -1       861 1.05086E-02-1.53133E-03-5.19092E-14
 -1       862 1.07798E-02-1.64899E-03-5.49768E-14
 -1       863 1.10690E-02-1.77393E-03-5.82577E-14
 -1       864 1.13476E-02-1.89341E-03-6.14438E-14
 -1       865 1.16283E-02-2.01287E-03-6.46855E-14
 -1       866 1.19106E-02-2.13202E-03-6.79846E-14
 -1       867 1.21939E-02-2.25070E-03-7.13371E-14
 -1       868 1.24780E-02-2.36886E-03-7.47277E-14
 -1       869 1.27627E-02-2.48652E-03-7.81622E-14
 -1       870 1.30477E-02-2.60370E-03-8.16344E-14
 -1       871 1.33330E-02-2.72047E-03-8.51277E-14
 -1       872 1.36184E-02-2.83689E-03-8.86416E-14
 -1       873 1.39040E-02-2.95303E-03-9.21756E-14
 -1       874 1.41239E-02-3.03607E-03-9.51440E-14
 -1       875 4.42337E-03-2.87401E-05-1.30630E-14
 -1       876 3.19575E-03 2.32741E-04-6.71235E-15
 -1       877 2.90393E-03 2.35174E-04-5.60729E-15
 -1       878 4.10731E-03 2.45992E-04-1.06063E-14
 -1       879 4.43054E-03 2.68134E-04-1.20988E-14
 -1       880 4.76472E-03 3.04972E-04-1.36910E-14
 -1       881 5.10585E-03 3.56202E-04-1.53851E-14
 -1       882 5.44660E-03 4.12719E-04-1.71858E-14
 -1       883 5.77792E-03 4.52071E-04-1.90962E-14
 -1       884 6.73924E-03 2.37503E-04-2.55107E-14
 -1       885 7.07552E-03 7.10721E-05-2.78715E-14
 -1       886 7.41691E-03-1.00425E-04-3.03340E-14
 -1       887 7.75465E-03-2.61229E-04-3.28934E-14
 -1       888 8.08267E-03-4.06458E-04-3.55448E-14
 -1       889 8.39915E-03-5.38383E-04-3.82833E-14
 -1       890 8.70503E-03-6.60514E-04-4.11052E-14
 -1       891 9.00253E-03-7.76267E-04-4.39962E-14
 -1       892 9.29406E-03-8.88230E-04-4.69536E-14
 -1       893 9.58168E-03-9.98175E-04-4.99755E-14
 -1       894 9.86698E-03-1.10725E-03-5.30554E-14
 -1       895 1.01511E-02-1.21619E-03-5.61966E-14
 -1       896 1.04347E-02-1.32543E-03-5.93951E-14
 -1       897 1.07182E-02-1.43520E-03-6.26431E-14
 -1       898 1.10020E-02-1.54562E-03-6.59378E-14
 -1       899 1.12861E-02-1.65672E-03-6.92813E-14
 -1       900 1.15705E-02-1.76848E-03-7.26681E-14
 -1       901 1.18552E-02-1.88085E-03-7.61019E-14
 -1       902 1.21402E-02-1.99377E-03-7.95645E-14
 -1       903 1.24254E-02-2.10716E-03-8.30471E-14
 -1       904 1.27107E-02-2.22093E-03-8.65529E-14
 -1       905 1.29962E-02-2.33503E-03-9.00753E-14
 -1       906 1.32818E-02-2.44938E-03-9.36168E-14
 -1       907 8.61119E-03-7.63613E-04-3.46042E-14
 -1       908 9.15028E-03-9.49845E-04-3.56258E-14
 -1       909 1.40104E-02-2.95219E-03-9.51432E-14
 -1       910 7.25256E-03-6.32075E-05-2.84050E-14
 -1       911 3.95083E-03-2.60657E-04-1.20442E-14
 -1       912 1.63010E-03-2.09751E-04-1.98618E-15
 -1       913 3.92510E-03-3.08974E-04-1.20703E-14
 -1       914 8.26963E-03-6.17451E-04-3.32366E-14
 -1       915 1.38990E-02-2.86981E-03-9.51292E-14
 -1       916 1.12803E-03-5.29060E-05-1.07744E-15
 -1       917 1.75439E-03 2.25029E-04-2.17982E-15
 -1       918 1.46942E-03 2.10088E-04-1.57186E-15
 -1       919 5.24401E-03 2.42116E-04-1.63417E-14
 -1       920 6.43474E-03 3.58176E-04-2.33247E-14
 -1       921 1.30696E-03 1.87638E-04-1.27984E-15
 -1       922 1.91141E-03-2.21469E-04-2.66844E-15
 -1       923 9.29989E-03-1.02267E-03-3.74322E-14
 -1       924 4.13231E-03-1.74260E-04-1.24053E-14
 -1       925 9.01636E-03-9.06201E-04-3.60944E-14
 -1       926 2.61481E-03 2.37199E-04-4.59993E-15
 -1       927 7.57380E-03-2.28398E-04-3.05921E-14
 -1       928 4.55836E-03 4.89091E-05-1.34025E-14
 -1       929 8.06566E-03-4.96701E-04-3.30993E-14
 -1       930 1.35887E-02-2.64331E-03-9.49323E-14
 -1       931 1.36653E-03 2.78537E-05-1.51498E-15
 -1       932 8.97001E-03-8.89676E-04-3.70801E-14
 -1       933 1.37857E-02-2.78605E-03-9.51025E-14
 -1       934 9.19175E-03-9.66677E-04-3.74321E-14
 -1       935 1.36872E-02-2.71469E-03-9.50217E-14
 -1       936 1.37231E-03 8.77334E-05-1.49586E-15
 -1       937 1.39495E-03-1.84369E-04-1.50372E-15
 -1       938 2.04044E-03 2.33591E-04-2.88701E-15
 -1       939 1.38234E-03-1.22222E-04-1.52764E-15
 -1       940 9.55007E-03-1.10781E-03-4.15888E-14
 -1       941 4.06943E-03-6.22126E-05-1.14829E-14
 -1       942 2.58214E-03-1.76815E-04-4.84421E-15
 -1       943 2.86022E-03-1.84561E-04-5.92811E-15
 -1       944 3.11607E-03-1.95594E-04-7.06068E-15
 -1       945 3.36031E-03-2.12455E-04-8.29089E-15
 -1       946 3.58907E-03-2.37338E-04-9.61546E-15
 -1       947 4.22502E-03 1.50363E-04-1.14327E-14
 -1       948 5.40879E-03 3.21103E-04-1.70699E-14
 -1       949 3.76522E-03-2.46108E-04-1.08003E-14
 -1       950 2.31067E-03-1.70952E-04-3.91259E-15
 -1       951 9.78570E-03-1.20417E-03-4.44672E-14
 -1       952 1.00340E-02-1.30787E-03-4.74009E-14
 -1       953 1.02919E-02-1.41702E-03-5.03869E-14
 -1       954 1.05569E-02-1.52997E-03-5.34268E-14
 -1       955 1.08411E-02-1.65117E-03-5.66794E-14
 -1       956 1.11158E-02-1.76803E-03-5.98370E-14
 -1       957 1.13935E-02-1.88558E-03-6.30494E-14
 -1       958 1.16735E-02-2.00334E-03-6.63215E-14
 -1       959 1.19551E-02-2.12104E-03-6.96485E-14
 -1       960 1.22380E-02-2.23851E-03-7.30236E-14
 -1       961 1.25217E-02-2.35568E-03-7.64412E-14
 -1       962 1.28060E-02-2.47252E-03-7.98900E-14
 -1       963 1.30909E-02-2.58905E-03-8.33716E-14
 -1       964 1.33760E-02-2.70531E-03-8.68754E-14
 -1       965 1.36614E-02-2.82133E-03-9.04064E-14
 -1       966 1.38359E-02-2.88681E-03-9.27719E-14
 -1       967 3.31100E-03 1.50053E-04-7.38301E-15
 -1       968 1.36561E-03-3.08404E-05-1.52260E-15
 -1       969 3.90905E-03 1.42932E-04-9.98708E-15
 -1       970 3.02156E-03 1.56822E-04-6.22472E-15
 -1       971 4.55677E-03 1.73206E-04-1.29742E-14
 -1       972 8.05913E-03-4.43172E-04-3.43267E-14
 -1       973 8.38137E-03-5.73534E-04-3.70263E-14
 -1       974 8.68855E-03-6.91404E-04-3.98088E-14
 -1       975 8.98471E-03-8.02580E-04-4.26650E-14
 -1       976 9.27347E-03-9.10633E-04-4.55860E-14
 -1       977 9.55776E-03-1.01766E-03-4.85691E-14
 -1       978 9.83968E-03-1.12477E-03-5.16120E-14
 -1       979 1.01206E-02-1.23251E-03-5.47139E-14
 -1       980 1.04014E-02-1.34111E-03-5.78751E-14
 -1       981 1.06826E-02-1.45064E-03-6.10902E-14
 -1       982 1.09644E-02-1.56104E-03-6.43550E-14
 -1       983 1.12470E-02-1.67226E-03-6.76713E-14
 -1       984 1.15301E-02-1.78420E-03-7.10316E-14
 -1       985 1.18139E-02-1.89677E-03-7.44371E-14
 -1       986 1.20982E-02-2.00986E-03-7.78838E-14
 -1       987 1.23829E-02-2.12340E-03-8.13559E-14
 -1       988 1.26679E-02-2.23730E-03-8.48449E-14
 -1       989 1.29532E-02-2.35150E-03-8.83543E-14
 -1       990 1.32386E-02-2.46593E-03-9.18881E-14
 -1       991 8.55487E-03-7.17003E-04-3.58452E-14
 -1       992 1.59715E-03 1.56593E-04-1.90803E-15
 -1       993 1.37245E-02-2.80457E-03-9.27595E-14
 -1       994 1.37239E-03-7.60726E-05-1.52898E-15
 -1       995 2.32720E-03 2.37171E-04-3.69359E-15
 -1       996 2.03467E-03-1.64695E-04-3.07936E-15
 -1       997 4.91831E-03 2.15305E-04-1.46875E-14
 -1       998 1.61462E-03-1.43488E-04-2.01699E-15
 -1       999 3.87382E-03-1.84611E-04-1.11374E-14
 -1      1000 1.33833E-03 1.37399E-04-1.38988E-15
 -1      1001 1.82496E-03-1.54854E-04-2.52055E-15
 -1      1002 3.60572E-03 1.44406E-04-8.63708E-15
 -1      1003 2.73499E-03 1.62791E-04-5.16290E-15
 -1      1004 4.24416E-03 5.50662E-05-1.18396E-14
 -1      1005 8.93043E-03-8.61849E-04-3.83664E-14
 -1      1006 1.88072E-03 1.64475E-04-2.57381E-15
 -1      1007 1.60623E-03-3.06772E-06-2.03825E-15
 -1      1008 9.17172E-03-9.60422E-04-3.84404E-14
 -1      1009 1.36112E-02-2.72098E-03-9.27367E-14
 -1      1010 1.32961E-02-2.52976E-03-9.11512E-14
 -1      1011 1.61063E-03 6.09179E-05-2.02172E-15
 -1      1012 3.92312E-03 2.72016E-05-1.04288E-14
 -1      1013 2.43607E-03-1.14989E-04-4.38645E-15
 -1      1014 3.75227E-03-9.13551E-05-1.00848E-14
 -1      1015 2.98008E-03-1.35672E-04-6.50466E-15
 -1      1016 3.23362E-03-1.52769E-04-7.68623E-15
 -1      1017 3.47655E-03-1.76909E-04-8.96268E-15
 -1      1018 9.57089E-03-1.10850E-03-4.29934E-14
 -1      1019 9.81588E-03-1.20477E-03-4.59020E-14
 -1      1020 1.00700E-02-1.30756E-03-4.88646E-14
 -1      1021 1.03313E-02-1.41529E-03-5.18765E-14
 -1      1022 1.06118E-02-1.53214E-03-5.51024E-14
 -1      1023 1.08836E-02-1.64578E-03-5.82327E-14
 -1      1024 1.11588E-02-1.76086E-03-6.14214E-14
 -1      1025 1.14367E-02-1.87674E-03-6.46644E-14
 -1      1026 1.17168E-02-1.99302E-03-6.79648E-14
 -1      1027 1.19983E-02-2.10943E-03-7.13193E-14
 -1      1028 1.22811E-02-2.22581E-03-7.47221E-14
 -1      1029 1.25648E-02-2.34208E-03-7.81601E-14
 -1      1030 1.28491E-02-2.45819E-03-8.16215E-14
 -1      1031 1.31338E-02-2.57414E-03-8.51093E-14
 -1      1032 1.34190E-02-2.68994E-03-8.86276E-14
 -1      1033 1.35717E-02-2.74729E-03-9.06895E-14
 -1      1034 3.13545E-03 7.72521E-05-6.85163E-15
 -1      1035 8.97695E-03-8.31757E-04-4.13359E-14
 -1      1036 8.68565E-03-7.27472E-04-3.85153E-14
 -1      1037 9.26012E-03-9.34049E-04-4.42231E-14
 -1      1038 9.53898E-03-1.03694E-03-4.71704E-14
 -1      1039 9.81602E-03-1.14133E-03-5.01760E-14
 -1      1040 1.00928E-02-1.24746E-03-5.32399E-14
 -1      1041 1.03701E-02-1.35527E-03-5.63655E-14
 -1      1042 1.06484E-02-1.46455E-03-5.95421E-14
 -1      1043 1.09280E-02-1.57505E-03-6.27789E-14
 -1      1044 1.12087E-02-1.68655E-03-6.60657E-14
 -1      1045 1.14905E-02-1.79885E-03-6.93996E-14
 -1      1046 1.17732E-02-1.91179E-03-7.27796E-14
 -1      1047 1.20567E-02-2.02523E-03-7.62065E-14
 -1      1048 1.23408E-02-2.13908E-03-7.96625E-14
 -1      1049 1.26254E-02-2.25323E-03-8.31378E-14
 -1      1050 1.29104E-02-2.36763E-03-8.66387E-14
 -1      1051 1.33946E-02-2.60091E-03-9.12376E-14
 -1      1052 3.62872E-03 3.92474E-05-9.05065E-15
 -1      1053 1.60301E-03-9.40737E-05-2.02046E-15
 -1      1054 3.66914E-03-1.80215E-04-1.00237E-14
 -1      1055 2.16238E-03-1.08305E-04-3.50303E-15
 -1      1056 2.71152E-03-1.23572E-04-5.39368E-15
 -1      1057 3.38118E-03 5.89827E-05-7.91405E-15
 -1      1058 8.45706E-03-6.44370E-04-3.64405E-14
 -1      1059 2.85356E-03 8.77113E-05-5.73788E-15
 -1      1060 2.44976E-03 1.66688E-04-4.20020E-15
 -1      1061 1.84978E-03 2.81527E-05-2.62084E-15
 -1      1062 1.34584E-02-2.66386E-03-9.06726E-14
 -1      1063 2.16507E-03 1.67550E-04-3.33789E-15
 -1      1064 9.14865E-03-9.45077E-04-3.97579E-14
 -1      1065 1.30089E-02-2.43843E-03-8.67222E-14
 -1      1066 1.81238E-03-1.03687E-04-2.52530E-15
 -1      1067 8.80560E-03-7.98001E-04-3.84473E-14
 -1      1068 1.60297E-03-4.85874E-05-2.03302E-15
 -1      1069 1.84364E-03-2.00760E-05-2.62151E-15
 -1      1070 1.98782E-03-1.06150E-04-2.99463E-15
 -1      1071 1.86258E-03 9.49692E-05-2.60511E-15
 -1      1072 3.37378E-03-1.07933E-04-8.31578E-15
 -1      1073 9.58182E-03-1.10235E-03-4.43983E-14
 -1      1074 9.83767E-03-1.20000E-03-4.73340E-14
 -1      1075 1.00990E-02-1.30308E-03-5.03220E-14
 -1      1076 1.03785E-02-1.41571E-03-5.35212E-14
 -1      1077 1.06489E-02-1.52602E-03-5.66280E-14
 -1      1078 1.09227E-02-1.63836E-03-5.97910E-14
 -1      1079 1.11993E-02-1.75206E-03-6.30125E-14
 -1      1080 1.14781E-02-1.86661E-03-6.62894E-14
 -1      1081 1.17587E-02-1.98167E-03-6.96203E-14
 -1      1082 1.20406E-02-2.09700E-03-7.30024E-14
 -1      1083 1.23236E-02-2.21247E-03-7.64261E-14
 -1      1084 1.26075E-02-2.32797E-03-7.98765E-14
 -1      1085 1.28919E-02-2.44346E-03-8.33484E-14
 -1      1086 1.31767E-02-2.55892E-03-8.68495E-14
 -1      1087 1.33175E-02-2.61142E-03-8.87571E-14
 -1      1088 9.08426E-03-8.93849E-04-4.12622E-14
 -1      1089 9.52583E-03-1.05515E-03-4.57783E-14
 -1      1090 9.30631E-03-9.73705E-04-4.35043E-14
 -1      1091 9.79587E-03-1.15625E-03-4.87474E-14
 -1      1092 1.00671E-02-1.26053E-03-5.17737E-14
 -1      1093 1.03401E-02-1.36751E-03-5.48610E-14
 -1      1094 1.06151E-02-1.47663E-03-5.80046E-14
 -1      1095 1.08921E-02-1.58739E-03-6.12029E-14
 -1      1096 1.11708E-02-1.69938E-03-6.44588E-14
 -1      1097 1.14511E-02-1.81226E-03-6.77672E-14
 -1      1098 1.17327E-02-1.92578E-03-7.11218E-14
 -1      1099 1.20154E-02-2.03977E-03-7.45290E-14
 -1      1100 1.22989E-02-2.15408E-03-7.79689E-14
 -1      1101 1.25831E-02-2.26864E-03-8.14328E-14
 -1      1102 1.27959E-02-2.35351E-03-8.40710E-14
 -1      1103 3.11586E-03-8.67136E-05-7.08674E-15
 -1      1104 3.55764E-03-1.00674E-04-9.18084E-15
 -1      1105 2.29663E-03-5.16100E-05-3.93634E-15
 -1      1106 3.47370E-03-2.19709E-05-8.54545E-15
 -1      1107 2.57228E-03 9.55669E-05-4.72103E-15
 -1      1108 3.23595E-03 1.25453E-06-7.44338E-15
 -1      1109 2.14430E-03 9.49795E-05-3.37407E-15
 -1      1110 2.57665E-03-5.97172E-05-4.89304E-15
 -1      1111 2.96127E-03 1.62873E-05-6.28179E-15
 -1      1112 2.12222E-03-4.96269E-05-3.39778E-15
 -1      1113 9.11450E-03-9.20969E-04-4.05113E-14
 -1      1114 2.08752E-03-2.97946E-07-3.28506E-15
 -1      1115 2.84888E-03-7.09483E-05-5.93983E-15
 -1      1116 2.44260E-03 6.46798E-06-4.39005E-15
 -1      1117 2.68569E-03 2.77056E-05-5.21692E-15
 -1      1118 2.26526E-03 3.54751E-06-3.81764E-15
 -1      1119 0.00000E+00 0.00000E+00 0.00000E+00
 -1      1120 0.00000E+00 0.00000E+00 0.00000E+00
 -1      1121 0.00000E+00 0.00000E+00 0.00000E+00
 -1      1122 0.00000E+00 0.00000E+00 0.00000E+00
 -1      1123 0.00000E+00 0.00000E+00 0.00000E+00
 -1      1124 0.00000E+00 0.00000E+00 0.00000E+00
 -1      1125 0.00000E+00 0.00000E+00 0.00000E+00
 -1      1126 0.00000E+00 0.00000E+00 0.00000E+00
 -1      1127 0.00000E+00 0.00000E+00 0.00000E+00
 -1      1128 0.00000E+00 0.00000E+00 0.00000E+00
 -1      1129 0.00000E+00 0.00000E+00 0.00000E+00
 -1      1130 0.00000E+00 0.00000E+00 0.00000E+00
 -1      1131 0.00000E+00 0.00000E+00 0.00000E+00
 -1      1132 0.00000E+00 0.00000E+00 0.00000E+00
 -1      1133 0.00000E+00 0.00000E+00 0.00000E+00
 -1      1134 0.00000E+00 0.00000E+00 0.00000E+00
 -1      1135 0.00000E+00 0.00000E+00 0.00000E+00
 -1      1136 2.10343E-04-1.46828E-04 1.78622E-17
 -1      1137 5.49086E-04-3.32007E-04-1.32679E-17
 -1      1138 8.31223E-04-4.48686E-04-1.44104E-16
 -1      1139 1.10238E-03-5.25037E-04-3.91261E-16
 -1      1140 1.37081E-03-5.76373E-04-7.49523E-16
 -1      1141 1.64050E-03-6.10500E-04-1.21830E-15
 -1      1142 1.91400E-03-6.32047E-04-1.79692E-15
 -1      1143 2.19317E-03-6.44250E-04-2.48471E-15
 -1      1144 2.47972E-03-6.49743E-04-3.28395E-15
 -1      1145 2.77562E-03-6.50994E-04-4.19249E-15
 -1      1146 3.08331E-03-6.50725E-04-5.20761E-15
 -1      1147 3.40597E-03-6.52456E-04-6.32772E-15
 -1      1148 3.74756E-03-6.61318E-04-7.54694E-15
 -1      1149 4.12197E-03-6.86105E-04-8.89929E-15
 -1      1150 4.52495E-03-7.39806E-04-1.03599E-14
 -1      1151 4.94599E-03-8.37720E-04-1.18856E-14
 -1      1152 5.38654E-03-1.00029E-03-1.35154E-14
 -1      1153 5.82451E-03-1.23805E-03-1.52522E-14
 -1      1154 6.22405E-03-1.53051E-03-1.71054E-14
 -1      1155 6.55332E-03-1.80736E-03-1.90762E-14
 -1      1156 6.80607E-03-1.96540E-03-2.10687E-14
 -1      1157 7.03476E-03-1.97060E-03-2.30662E-14
 -1      1158 7.31954E-03-1.84765E-03-2.52834E-14
 -1      1159 7.70240E-03-1.65892E-03-2.77901E-14
 -1      1160 8.14217E-03-1.50372E-03-3.03940E-14
 -1      1161 8.58750E-03-1.42604E-03-3.30200E-14
 -1      1162 9.02048E-03-1.41953E-03-3.57185E-14
 -1      1163 9.42847E-03-1.46622E-03-3.84845E-14
 -1      1164 9.80945E-03-1.54749E-03-4.13113E-14
 -1      1165 1.01665E-02-1.64937E-03-4.41936E-14
 -1      1166 1.05043E-02-1.76278E-03-4.71369E-14
 -1      1167 1.08273E-02-1.88216E-03-5.01355E-14
 -1      1168 1.11394E-02-2.00430E-03-5.31954E-14
 -1      1169 1.14435E-02-2.12734E-03-5.63060E-14
 -1      1170 1.17418E-02-2.25028E-03-5.94786E-14
 -1      1171 1.20360E-02-2.37261E-03-6.27058E-14
 -1      1172 1.23346E-02-2.49713E-03-6.60702E-14
 -1      1173 1.26310E-02-2.62070E-03-6.94882E-14
 -1      1174 1.29187E-02-2.74037E-03-7.28653E-14
 -1      1175 1.32056E-02-2.85922E-03-7.62924E-14
 -1      1176 1.34918E-02-2.97737E-03-7.97650E-14
 -1      1177 1.37777E-02-3.09491E-03-8.32566E-14
 -1      1178 1.40633E-02-3.21194E-03-8.67504E-14
 -1      1179 1.43488E-02-3.32856E-03-9.02555E-14
 -1      1180 1.46343E-02-3.44486E-03-9.37766E-14
 -1      1181 1.49197E-02-3.56091E-03-9.73091E-14
 -1      1182 1.52053E-02-3.67680E-03-1.00855E-13
 -1      1183 1.54909E-02-3.79258E-03-1.04411E-13
 -1      1184 1.57765E-02-3.90833E-03-1.07984E-13
 -1      1185 1.60622E-02-4.02409E-03-1.11572E-13
 -1      1186 2.27126E-04 1.59195E-04 2.61293E-17
 -1      1187 5.51649E-04 3.36981E-04 9.43256E-18
 -1      1188 8.32742E-04 4.51773E-04-1.02444E-16
 -1      1189 1.10395E-03 5.28462E-04-3.21466E-16
 -1      1190 1.37229E-03 5.81046E-04-6.48624E-16
 -1      1191 1.64155E-03 6.17176E-04-1.08447E-15
 -1      1192 1.91385E-03 6.41648E-04-1.62939E-15
 -1      1193 2.19038E-03 6.57980E-04-2.28134E-15
 -1      1194 2.47177E-03 6.69066E-04-3.04157E-15
 -1      1195 2.75826E-03 6.77468E-04-3.90863E-15
 -1      1196 3.04968E-03 6.85551E-04-4.88127E-15
 -1      1197 3.34541E-03 6.95501E-04-5.95648E-15
 -1      1198 3.64420E-03 7.09206E-04-7.13554E-15
 -1      1199 3.94412E-03 7.27982E-04-8.41636E-15
 -1      1200 4.24244E-03 7.52125E-04-9.80107E-15
 -1      1201 4.53583E-03 7.80327E-04-1.12947E-14
 -1      1202 4.82083E-03 8.09145E-04-1.28973E-14
 -1      1203 5.09464E-03 8.32800E-04-1.46034E-14
 -1      1204 5.35614E-03 8.43669E-04-1.64126E-14
 -1      1205 5.60669E-03 8.33658E-04-1.83315E-14
 -1      1206 5.85032E-03 7.96228E-04-2.03590E-14
 -1      1207 6.09296E-03 7.28358E-04-2.24988E-14
 -1      1208 6.34088E-03 6.31532E-04-2.47566E-14
 -1      1209 6.59896E-03 5.11250E-04-2.71244E-14
 -1      1210 6.86962E-03 3.75324E-04-2.95903E-14
 -1      1211 7.15266E-03 2.31782E-04-3.21538E-14
 -1      1212 7.44590E-03 8.72348E-05-3.48103E-14
 -1      1213 7.74619E-03-5.39022E-05-3.75602E-14
 -1      1214 8.05030E-03-1.89390E-04-4.03974E-14
 -1      1215 8.35553E-03-3.18681E-04-4.33146E-14
 -1      1216 8.65992E-03-4.42305E-04-4.63067E-14
 -1      1217 8.96227E-03-5.61318E-04-4.93752E-14
 -1      1218 9.26201E-03-6.76924E-04-5.25175E-14
 -1      1219 9.55901E-03-7.90244E-04-5.57195E-14
 -1      1220 9.85346E-03-9.02206E-04-5.89759E-14
 -1      1221 1.01457E-02-1.01351E-03-6.22854E-14
 -1      1222 1.04360E-02-1.12467E-03-6.56425E-14
 -1      1223 1.07249E-02-1.23600E-03-6.90455E-14
 -1      1224 1.10126E-02-1.34768E-03-7.24856E-14
 -1      1225 1.12996E-02-1.45982E-03-7.59589E-14
 -1      1226 1.15859E-02-1.57244E-03-7.94601E-14
 -1      1227 1.18719E-02-1.68551E-03-8.29795E-14
 -1      1228 1.21576E-02-1.79899E-03-8.65047E-14
 -1      1229 1.24432E-02-1.91282E-03-9.00598E-14
 -1      1230 1.27287E-02-2.02694E-03-9.36347E-14
 -1      1231 1.30142E-02-2.14128E-03-9.72243E-14
 -1      1232 1.32998E-02-2.25577E-03-1.00811E-13
 -1      1233 1.35854E-02-2.37037E-03-1.04371E-13
 -1      1234 1.38710E-02-2.48500E-03-1.07916E-13
 -1      1235 1.41496E-02-2.59675E-03-1.11380E-13
 -1      1236 1.43416E-02-2.69333E-03-1.13091E-13
 -1      1237 1.44543E-02-2.77762E-03-1.13158E-13
 -1      1238 1.45669E-02-2.86196E-03-1.13226E-13
 -1      1239 1.46796E-02-2.94635E-03-1.13315E-13
 -1      1240 1.47924E-02-3.03077E-03-1.13405E-13
 -1      1241 1.49043E-02-3.11451E-03-1.13484E-13
 -1      1242 1.50163E-02-3.19828E-03-1.13570E-13
 -1      1243 1.51293E-02-3.28277E-03-1.13637E-13
 -1      1244 1.52425E-02-3.36727E-03-1.13687E-13
 -1      1245 1.53559E-02-3.45177E-03-1.13716E-13
 -1      1246 1.54693E-02-3.53627E-03-1.13706E-13
 -1      1247 1.55819E-02-3.62004E-03-1.13681E-13
 -1      1248 1.56946E-02-3.70380E-03-1.13667E-13
 -1      1249 1.58084E-02-3.78824E-03-1.13627E-13
 -1      1250 1.59223E-02-3.87263E-03-1.13584E-13
 -1      1251 1.60362E-02-3.95697E-03-1.13509E-13
 -1      1252 1.61491E-02-4.04055E-03-1.13399E-13
 -1      1253 8.82161E-03-6.55049E-04-2.71506E-14
 -1      1254 8.66829E-03-5.04256E-04-2.69198E-14
 -1      1255 8.42671E-03-3.49591E-04-2.64759E-14
 -1      1256 8.10958E-03-1.90251E-04-2.58466E-14
 -1      1257 7.73766E-03-3.52005E-05-2.50656E-14
 -1      1258 7.33286E-03 1.02144E-04-2.41640E-14
 -1      1259 6.91107E-03 2.07833E-04-2.31860E-14
 -1      1260 6.47016E-03 2.71113E-04-2.21379E-14
 -1      1261 6.02975E-03 2.83147E-04-2.10927E-14
 -1      1262 5.58892E-03 2.39529E-04-2.00721E-14
 -1      1263 5.17078E-03 1.50602E-04-1.91409E-14
 -1      1264 4.81537E-03 3.57544E-05-1.83887E-14
 -1      1265 4.52963E-03-9.13285E-05-1.78113E-14
 -1      1266 4.31717E-03-2.27134E-04-1.73945E-14
 -1      1267 4.19562E-03-3.71323E-04-1.71511E-14
 -1      1268 4.18267E-03-5.17844E-04-1.71041E-14
 -1      1269 4.27661E-03-6.74150E-04-1.72374E-14
 -1      1270 4.49486E-03-8.62206E-04-1.75842E-14
 -1      1271 4.80741E-03-1.06303E-03-1.81164E-14
 -1      1272 5.17645E-03-1.25991E-03-1.87788E-14
 -1      1273 5.60852E-03-1.44898E-03-1.96038E-14
 -1      1274 6.07637E-03-1.59947E-03-2.05526E-14
 -1      1275 6.55904E-03-1.68322E-03-2.15743E-14
 -1      1276 7.05710E-03-1.68125E-03-2.26731E-14
 -1      1277 7.55666E-03-1.59542E-03-2.38188E-14
 -1      1278 7.99566E-03-1.45263E-03-2.48446E-14
 -1      1279 8.35493E-03-1.28858E-03-2.57009E-14
 -1      1280 8.62875E-03-1.12275E-03-2.63915E-14
 -1      1281 8.80621E-03-9.60860E-04-2.68901E-14
 -1      1282 8.87164E-03-8.05670E-04-2.71470E-14
 -1      1283 1.66239E-04-1.08992E-04 1.01644E-18
 -1      1284 1.12801E-04-5.56261E-05-2.01391E-17
 -1      1285 1.17721E-04-6.63549E-05-1.43792E-17
 -1      1286 1.08784E-04-4.18866E-05-2.99240E-17
 -1      1287 1.10616E-04-4.80923E-05-2.68747E-17
 -1      1288 2.27007E-04-1.04589E-04-6.29244E-17
 -1      1289 1.07150E-04-3.19061E-05-3.54941E-17
 -1      1290 1.08034E-04-3.66368E-05-3.38949E-17
 -1      1291 2.19851E-04-7.90951E-05-8.06782E-17
 -1      1292 1.06240E-04-2.37398E-05-3.87331E-17
 -1      1293 1.06743E-04-2.76894E-05-3.78793E-17
 -1      1294 2.16406E-04-5.98868E-05-9.13711E-17
 -1      1295 1.05686E-04-1.67596E-05-4.06305E-17
 -1      1296 1.05993E-04-2.01623E-05-4.01426E-17
 -1      1297 2.14414E-04-4.41238E-05-9.76053E-17
 -1      1298 1.05333E-04-1.03458E-05-4.19586E-17
 -1      1299 1.05519E-04-1.34981E-05-4.17147E-17
 -1      1300 2.13152E-04-3.03515E-05-1.01536E-16
 -1      1301 1.05152E-04-4.33203E-06-4.21484E-17
 -1      1302 1.05238E-04-7.31542E-06-4.21484E-17
 -1      1303 2.12381E-04-1.77149E-05-1.03528E-16
 -1      1304 1.05124E-04 1.53152E-06-4.22703E-17
 -1      1305 1.05121E-04-1.40594E-06-4.22703E-17
 -1      1306 2.12021E-04-5.76041E-06-1.04138E-16
 -1      1307 1.05246E-04 7.47795E-06-4.16740E-17
 -1      1308 1.05155E-04 4.47018E-06-4.18638E-17
 -1      1309 2.12034E-04 6.00854E-06-1.03745E-16
 -1      1310 1.05526E-04 1.37407E-05-4.04136E-17
 -1      1311 1.05340E-04 1.05435E-05-4.07931E-17
 -1      1312 2.12416E-04 1.80594E-05-1.01725E-16
 -1      1313 1.05989E-04 2.04535E-05-3.82994E-17
 -1      1314 1.05685E-04 1.69963E-05-3.89229E-17
 -1      1315 2.13185E-04 3.07589E-05-9.81203E-17
 -1      1316 1.06744E-04 2.81687E-05-3.51824E-17
 -1      1317 1.06240E-04 2.41513E-05-3.62801E-17
 -1      1318 2.14437E-04 4.47481E-05-9.26722E-17
 -1      1319 1.08030E-04 3.72867E-05-3.05203E-17
 -1      1320 1.07142E-04 3.24720E-05-3.23634E-17
 -1      1321 2.16443E-04 6.09208E-05-8.47575E-17
 -1      1322 1.10560E-04 4.89007E-05-2.28767E-17
 -1      1323 1.08748E-04 4.26297E-05-2.61564E-17
 -1      1324 2.19874E-04 8.04988E-05-7.26551E-17
 -1      1325 1.17036E-04 6.64440E-05-1.05032E-17
 -1      1326 1.12420E-04 5.64737E-05-1.64663E-17
 -1      1327 2.26919E-04 1.06550E-04-5.41152E-17
 -1      1328 1.57103E-04 1.08680E-04 9.02598E-18
 -1      1329 1.35625E-04 8.48796E-05-3.13063E-18
 -1      1330 2.56269E-04 1.49351E-04-3.18213E-17
 -1      1331 3.34246E-04 2.17775E-04 5.28549E-19
 -1      1332 4.20581E-04-2.57366E-04-3.01544E-17
 -1      1333 5.73729E-04-3.30087E-04-7.28990E-17
 -1      1334 7.21235E-04-3.88213E-04-1.45690E-16
 -1      1335 8.64990E-04-4.34905E-04-2.46697E-16
 -1      1336 6.12575E-04-3.22846E-04-1.41976E-16
 -1      1337 1.00590E-03-4.73232E-04-3.74402E-16
 -1      1338 1.14497E-03-5.04338E-04-5.29714E-16
 -1      1339 9.07188E-04-4.18214E-04-3.53084E-16
 -1      1340 1.28305E-03-5.30050E-04-7.12307E-16
 -1      1341 1.42070E-03-5.50861E-04-9.22615E-16
 -1      1342 1.19213E-03-4.81693E-04-6.72165E-16
 -1      1343 1.55844E-03-5.67790E-04-1.16039E-15
 -1      1344 1.69659E-03-5.81203E-04-1.42503E-15
 -1      1345 1.47303E-03-5.23781E-04-1.09945E-15
 -1      1346 1.83550E-03-5.91683E-04-1.71663E-15
 -1      1347 1.97538E-03-5.99583E-04-2.03551E-15
 -1      1348 1.75364E-03-5.50546E-04-1.63446E-15
 -1      1349 2.11650E-03-6.05264E-04-2.38163E-15
 -1      1350 2.25905E-03-6.09081E-04-2.75555E-15
 -1      1351 2.03648E-03-5.65942E-04-2.27701E-15
 -1      1352 2.40327E-03-6.11284E-04-3.15668E-15
 -1      1353 2.54938E-03-6.12251E-04-3.58464E-15
 -1      1354 2.32344E-03-5.72915E-04-3.02801E-15
 -1      1355 2.69763E-03-6.12191E-04-4.03995E-15
 -1      1356 2.84829E-03-6.11542E-04-4.52172E-15
 -1      1357 2.61620E-03-5.73952E-04-3.88643E-15
 -1      1358 3.00166E-03-6.10539E-04-5.02968E-15
 -1      1359 3.15808E-03-6.09740E-04-5.56380E-15
 -1      1360 2.91653E-03-5.71506E-04-4.85151E-15
 -1      1361 3.31791E-03-6.09507E-04-6.12311E-15
 -1      1362 3.48153E-03-6.10592E-04-6.70823E-15
 -1      1363 3.22637E-03-5.68489E-04-5.92010E-15
 -1      1364 3.64937E-03-6.13641E-04-7.31826E-15
 -1      1365 3.82183E-03-6.19703E-04-7.95223E-15
 -1      1366 3.54799E-03-5.68949E-04-7.08942E-15
 -1      1367 4.00833E-03-6.30601E-04-8.64501E-15
 -1      1368 4.20074E-03-6.47854E-04-9.36576E-15
 -1      1369 3.89244E-03-5.79548E-04-8.39120E-15
 -1      1370 4.38973E-03-6.72232E-04-1.00779E-14
 -1      1371 4.58429E-03-7.06463E-04-1.08150E-14
 -1      1372 4.25440E-03-6.10964E-04-9.79781E-15
 -1      1373 4.78424E-03-7.53375E-04-1.15773E-14
 -1      1374 4.98876E-03-8.15322E-04-1.23647E-14
 -1      1375 4.62605E-03-6.77113E-04-1.12708E-14
 -1      1376 5.19693E-03-8.95252E-04-1.31782E-14
 -1      1377 5.40663E-03-9.94729E-04-1.40187E-14
 -1      1378 5.01577E-03-7.98798E-04-1.28439E-14
 -1      1379 5.61596E-03-1.11450E-03-1.48859E-14
 -1      1380 5.82136E-03-1.25243E-03-1.57811E-14
 -1      1381 5.41954E-03-9.96201E-04-1.45215E-14
 -1      1382 6.02040E-03-1.40333E-03-1.67048E-14
 -1      1383 6.20946E-03-1.55801E-03-1.76588E-14
 -1      1384 5.82676E-03-1.27242E-03-1.63080E-14
 -1      1385 6.38719E-03-1.70391E-03-1.86447E-14
 -1      1386 6.55367E-03-1.82614E-03-1.96607E-14
 -1      1387 6.21980E-03-1.58530E-03-1.82124E-14
 -1      1388 6.69513E-03-1.90533E-03-2.06044E-14
 -1      1389 6.83365E-03-1.94701E-03-2.15742E-14
 -1      1390 6.56705E-03-1.82583E-03-2.01387E-14
 -1      1391 6.97135E-03-1.95005E-03-2.25691E-14
 -1      1392 7.11460E-03-1.91674E-03-2.35908E-14
 -1      1393 6.87913E-03-1.91541E-03-2.20720E-14
 -1      1394 7.28235E-03-1.84658E-03-2.47553E-14
 -1      1395 7.46201E-03-1.75522E-03-2.59490E-14
 -1      1396 7.21588E-03-1.84147E-03-2.42271E-14
 -1      1397 7.66322E-03-1.65192E-03-2.72313E-14
 -1      1398 7.87422E-03-1.55479E-03-2.85412E-14
 -1      1399 7.60801E-03-1.64879E-03-2.66739E-14
 -1      1400 8.08184E-03-1.47725E-03-2.98120E-14
 -1      1401 8.29214E-03-1.41889E-03-3.11022E-14
 -1      1402 8.02326E-03-1.45779E-03-2.92297E-14
 -1      1403 8.50288E-03-1.38072E-03-3.24137E-14
 -1      1404 8.71137E-03-1.36218E-03-3.37446E-14
 -1      1405 8.43158E-03-1.34196E-03-3.18106E-14
 -1      1406 8.91631E-03-1.36078E-03-3.50922E-14
 -1      1407 9.11647E-03-1.37427E-03-3.64565E-14
 -1      1408 8.82953E-03-1.30687E-03-3.44676E-14
 -1      1409 9.31144E-03-1.39964E-03-3.78374E-14
 -1      1410 9.50096E-03-1.43468E-03-3.92363E-14
 -1      1411 9.21091E-03-1.33609E-03-3.71942E-14
 -1      1412 9.68519E-03-1.47708E-03-4.06492E-14
 -1      1413 9.86435E-03-1.52518E-03-4.20742E-14
 -1      1414 9.57447E-03-1.40833E-03-3.99845E-14
 -1      1415 1.00388E-02-1.57755E-03-4.35157E-14
 -1      1416 1.02091E-02-1.63302E-03-4.49712E-14
 -1      1417 9.92142E-03-1.50649E-03-4.28375E-14
 -1      1418 1.03755E-02-1.69083E-03-4.64399E-14
 -1      1419 1.05385E-02-1.75018E-03-4.79246E-14
 -1      1420 1.02541E-02-1.61913E-03-4.57468E-14
 -1      1421 1.06986E-02-1.81071E-03-4.94229E-14
 -1      1422 1.08561E-02-1.87189E-03-5.09383E-14
 -1      1423 1.05751E-02-1.73923E-03-4.87129E-14
 -1      1424 1.10113E-02-1.93357E-03-5.24666E-14
 -1      1425 1.11646E-02-1.99541E-03-5.40067E-14
 -1      1426 1.08869E-02-1.86268E-03-5.17378E-14
 -1      1427 1.13163E-02-2.05738E-03-5.55617E-14
 -1      1428 1.14665E-02-2.11925E-03-5.71302E-14
 -1      1429 1.11916E-02-1.98721E-03-5.48193E-14
 -1      1430 1.16155E-02-2.18105E-03-5.87147E-14
 -1      1431 1.17635E-02-2.24263E-03-6.03157E-14
 -1      1432 1.14910E-02-2.11159E-03-5.79555E-14
 -1      1433 1.19106E-02-2.30402E-03-6.19288E-14
 -1      1434 1.20570E-02-2.36516E-03-6.35531E-14
 -1      1435 1.17864E-02-2.23523E-03-6.11488E-14
 -1      1436 1.22100E-02-2.42911E-03-6.52751E-14
 -1      1437 1.23624E-02-2.49276E-03-6.70125E-14
 -1      1438 1.20861E-02-2.36089E-03-6.44821E-14
 -1      1439 1.25071E-02-2.55314E-03-6.86797E-14
 -1      1440 1.26514E-02-2.61327E-03-7.03578E-14
 -1      1441 1.23836E-02-2.48542E-03-6.78728E-14
 -1      1442 1.27954E-02-2.67317E-03-7.20464E-14
 -1      1443 1.29392E-02-2.73285E-03-7.37459E-14
 -1      1444 1.26723E-02-2.60585E-03-7.12264E-14
 -1      1445 1.30827E-02-2.79233E-03-7.54592E-14
 -1      1446 1.32261E-02-2.85161E-03-7.71848E-14
 -1      1447 1.29600E-02-2.72533E-03-7.46275E-14
 -1      1448 1.33693E-02-2.91072E-03-7.89178E-14
 -1      1449 1.35124E-02-2.96965E-03-8.06556E-14
 -1      1450 1.32469E-02-2.84398E-03-7.80709E-14
 -1      1451 1.36554E-02-3.02844E-03-8.23979E-14
 -1      1452 1.37984E-02-3.08709E-03-8.41452E-14
 -1      1453 1.35332E-02-2.96191E-03-8.15453E-14
 -1      1454 1.39413E-02-3.14562E-03-8.58942E-14
 -1      1455 1.40841E-02-3.20403E-03-8.76434E-14
 -1      1456 1.38193E-02-3.07924E-03-8.50366E-14
 -1      1457 1.42270E-02-3.26234E-03-8.93978E-14
 -1      1458 1.43698E-02-3.32057E-03-9.11565E-14
 -1      1459 1.41051E-02-3.19609E-03-8.85385E-14
 -1      1460 1.45126E-02-3.37872E-03-9.29167E-14
 -1      1461 1.46553E-02-3.43680E-03-9.46778E-14
 -1      1462 1.43908E-02-3.31255E-03-9.20542E-14
 -1      1463 1.47981E-02-3.49483E-03-9.64465E-14
 -1      1464 1.49409E-02-3.55280E-03-9.82186E-14
 -1      1465 1.46765E-02-3.42872E-03-9.55838E-14
 -1      1466 1.50837E-02-3.61074E-03-9.99916E-14
 -1      1467 1.52265E-02-3.66865E-03-1.01770E-13
 -1      1468 1.49621E-02-3.54468E-03-9.91280E-14
 -1      1469 1.53693E-02-3.72654E-03-1.03553E-13
 -1      1470 1.55121E-02-3.78441E-03-1.05336E-13
 -1      1471 1.52477E-02-3.66049E-03-1.02688E-13
 -1      1472 1.56550E-02-3.84228E-03-1.07126E-13
 -1      1473 1.57978E-02-3.90015E-03-1.08917E-13
 -1      1474 1.55334E-02-3.77624E-03-1.06263E-13
 -1      1475 1.59020E-02-3.94140E-03-1.10263E-13
 -1      1476 1.60449E-02-3.99929E-03-1.12055E-13
 -1      1477 1.59889E-02-3.95786E-03-1.12101E-13
 -1      1478 1.57805E-02-3.87535E-03-1.09401E-13
 -1      1479 6.42337E-04 3.64896E-04-6.46184E-17
 -1      1480 4.92035E-04 2.98704E-04-1.86347E-17
 -1      1481 4.44816E-04 2.61044E-04-4.25685E-17
 -1      1482 9.29069E-04 4.60385E-04-2.35814E-16
 -1      1483 7.87512E-04 4.17164E-04-1.36989E-16
 -1      1484 7.45460E-04 3.81461E-04-1.66262E-16
 -1      1485 1.20620E-03 5.25073E-04-5.12028E-16
 -1      1486 1.06827E-03 4.95765E-04-3.60213E-16
 -1      1487 1.03317E-03 4.62183E-04-3.93836E-16
 -1      1488 1.48026E-03 5.69437E-04-8.95565E-16
 -1      1489 1.34328E-03 5.49385E-04-6.90312E-16
 -1      1490 1.31382E-03 5.17082E-04-7.26592E-16
 -1      1491 1.75482E-03 5.99536E-04-1.38739E-15
 -1      1492 1.61729E-03 5.86001E-04-1.12787E-15
 -1      1493 1.59206E-03 5.54384E-04-1.16643E-15
 -1      1494 2.03184E-03 6.19535E-04-1.98671E-15
 -1      1495 1.89292E-03 6.10590E-04-1.67383E-15
 -1      1496 1.87073E-03 5.79239E-04-1.71304E-15
 -1      1497 2.31244E-03 6.32676E-04-2.69211E-15
 -1      1498 2.17164E-03 6.26786E-04-2.32617E-15
 -1      1499 2.15151E-03 5.95415E-04-2.36588E-15
 -1      1500 2.59717E-03 6.41725E-04-3.50516E-15
 -1      1501 2.45426E-03 6.37555E-04-3.08522E-15
 -1      1502 2.43534E-03 6.05961E-04-3.12460E-15
 -1      1503 2.88618E-03 6.49189E-04-4.42322E-15
 -1      1504 2.74114E-03 6.45515E-04-3.95100E-15
 -1      1505 2.72269E-03 6.13552E-04-3.98866E-15
 -1      1506 3.17919E-03 6.57404E-04-5.44542E-15
 -1      1507 3.03221E-03 6.53083E-04-4.92148E-15
 -1      1508 3.01361E-03 6.20657E-04-4.95730E-15
 -1      1509 3.47546E-03 6.68503E-04-6.57020E-15
 -1      1510 3.32697E-03 6.62505E-04-5.99522E-15
 -1      1511 3.30777E-03 6.29580E-04-6.02894E-15
 -1      1512 3.77365E-03 6.84234E-04-7.79760E-15
 -1      1513 3.62441E-03 6.75754E-04-7.17063E-15
 -1      1514 3.60437E-03 6.42370E-04-7.20263E-15
 -1      1515 4.07184E-03 7.05600E-04-9.12703E-15
 -1      1516 3.92289E-03 6.94259E-04-8.44946E-15
 -1      1517 3.90208E-03 6.60559E-04-8.47791E-15
 -1      1518 4.36750E-03 7.32315E-04-1.05624E-14
 -1      1519 4.22016E-03 7.18448E-04-9.83168E-15
 -1      1520 4.19910E-03 6.84703E-04-9.85690E-15
 -1      1521 4.65782E-03 7.62189E-04-1.21055E-14
 -1      1522 4.51351E-03 7.47151E-04-1.13199E-14
 -1      1523 4.49319E-03 7.13769E-04-1.13422E-14
 -1      1524 4.94019E-03 7.90659E-04-1.37550E-14
 -1      1525 4.80015E-03 7.77024E-04-1.29174E-14
 -1      1526 4.78204E-03 7.44519E-04-1.29332E-14
 -1      1527 5.21295E-03 8.10836E-04-1.55080E-14
 -1      1528 5.07784E-03 8.02287E-04-1.46190E-14
 -1      1529 5.06371E-03 7.71198E-04-1.46301E-14
 -1      1530 5.47611E-03 8.14392E-04-1.73675E-14
 -1      1531 5.34567E-03 8.15170E-04-1.64243E-14
 -1      1532 5.33736E-03 7.85920E-04-1.64320E-14
 -1      1533 5.73180E-03 7.93369E-04-1.93366E-14
 -1      1534 5.60469E-03 8.07277E-04-1.83379E-14
 -1      1535 5.60370E-03 7.80023E-04-1.83409E-14
 -1      1536 5.98405E-03 7.42391E-04-2.14148E-14
 -1      1537 5.85805E-03 7.71689E-04-2.03614E-14
 -1      1538 5.86526E-03 7.46232E-04-2.03592E-14
 -1      1539 6.23786E-03 6.60394E-04-2.36098E-14
 -1      1540 6.11043E-03 7.05045E-04-2.24973E-14
 -1      1541 6.12583E-03 6.80862E-04-2.24910E-14
 -1      1542 6.49786E-03 5.50979E-04-2.59161E-14
 -1      1543 6.36683E-03 6.08667E-04-2.47498E-14
 -1      1544 6.38957E-03 5.85061E-04-2.47380E-14
 -1      1545 6.76715E-03 4.21232E-04-2.83283E-14
 -1      1546 6.63121E-03 4.88108E-04-2.71098E-14
 -1      1547 6.65979E-03 4.64412E-04-2.70918E-14
 -1      1548 7.04674E-03 2.79600E-04-3.08370E-14
 -1      1549 6.90566E-03 3.51401E-04-2.95707E-14
 -1      1550 6.93825E-03 3.27134E-04-2.95467E-14
 -1      1551 7.33576E-03 1.33838E-04-3.34420E-14
 -1      1552 7.19018E-03 2.06861E-04-3.21271E-14
 -1      1553 7.22496E-03 1.81790E-04-3.20984E-14
 -1      1554 7.63205E-03-1.02980E-05-3.61408E-14
 -1      1555 7.48315E-03 6.13453E-05-3.47802E-14
 -1      1556 7.51860E-03 3.54583E-05-3.47454E-14
 -1      1557 7.93299E-03-1.49418E-04-3.89281E-14
 -1      1558 7.78211E-03-8.05728E-05-3.75241E-14
 -1      1559 7.81714E-03-1.07142E-04-3.74855E-14
 -1      1560 8.23609E-03-2.82184E-04-4.18007E-14
 -1      1561 8.08441E-03-2.16589E-04-4.03541E-14
 -1      1562 8.11838E-03-2.43638E-04-4.03094E-14
 -1      1563 8.53934E-03-4.08696E-04-4.47488E-14
 -1      1564 8.38780E-03-3.46163E-04-4.32652E-14
 -1      1565 8.42045E-03-3.73485E-04-4.32132E-14
 -1      1566 8.84137E-03-5.29859E-04-4.77729E-14
 -1      1567 8.69058E-03-4.69866E-04-4.62518E-14
 -1      1568 8.72192E-03-4.97283E-04-4.61944E-14
 -1      1569 9.14136E-03-6.46900E-04-5.08717E-14
 -1      1570 8.99166E-03-5.88815E-04-4.93133E-14
 -1      1571 9.02186E-03-6.16196E-04-4.92488E-14
 -1      1572 9.43900E-03-7.61051E-04-5.40380E-14
 -1      1573 9.29049E-03-7.04268E-04-5.24469E-14
 -1      1574 9.31980E-03-7.31527E-04-5.23748E-14
 -1      1575 9.73425E-03-8.73382E-04-5.72598E-14
 -1      1576 9.58692E-03-8.17391E-04-5.56416E-14
 -1      1577 9.61558E-03-8.44481E-04-5.55628E-14
 -1      1578 1.00273E-02-9.84737E-04-6.05378E-14
 -1      1579 9.88104E-03-9.29143E-04-5.88917E-14
 -1      1580 9.90928E-03-9.56048E-04-5.88064E-14
 -1      1581 1.03185E-02-1.09573E-03-6.38632E-14
 -1      1582 1.01731E-02-1.04025E-03-6.21947E-14
 -1      1583 1.02011E-02-1.06698E-03-6.21023E-14
 -1      1584 1.06081E-02-1.20678E-03-6.72378E-14
 -1      1585 1.04635E-02-1.15123E-03-6.55456E-14
 -1      1586 1.04914E-02-1.17779E-03-6.54459E-14
 -1      1587 1.08965E-02-1.31813E-03-7.06514E-14
 -1      1588 1.07525E-02-1.26241E-03-6.89397E-14
 -1      1589 1.07804E-02-1.28882E-03-6.88330E-14
 -1      1590 1.11840E-02-1.42993E-03-7.41024E-14
 -1      1591 1.10404E-02-1.37397E-03-7.23720E-14
 -1      1592 1.10683E-02-1.40027E-03-7.22589E-14
 -1      1593 1.14708E-02-1.54222E-03-7.75836E-14
 -1      1594 1.13274E-02-1.48601E-03-7.58405E-14
 -1      1595 1.13555E-02-1.51221E-03-7.57191E-14
 -1      1596 1.17570E-02-1.65500E-03-8.10903E-14
 -1      1597 1.16139E-02-1.59855E-03-7.93345E-14
 -1      1598 1.16421E-02-1.62468E-03-7.92096E-14
 -1      1599 1.20430E-02-1.76824E-03-8.46103E-14
 -1      1600 1.19000E-02-1.71157E-03-8.28491E-14
 -1      1601 1.19283E-02-1.73764E-03-8.27199E-14
 -1      1602 1.23287E-02-1.88187E-03-8.81479E-14
 -1      1603 1.21859E-02-1.82501E-03-8.63754E-14
 -1      1604 1.22142E-02-1.85104E-03-8.62446E-14
 -1      1605 1.26144E-02-1.99583E-03-9.17096E-14
 -1      1606 1.24716E-02-1.93881E-03-8.99270E-14
 -1      1607 1.25000E-02-1.96482E-03-8.97933E-14
 -1      1608 1.29000E-02-2.11006E-03-9.52888E-14
 -1      1609 1.27572E-02-2.05291E-03-9.34992E-14
 -1      1610 1.27857E-02-2.07890E-03-9.33607E-14
 -1      1611 1.31856E-02-2.22448E-03-9.88714E-14
 -1      1612 1.30428E-02-2.16725E-03-9.70786E-14
 -1      1613 1.30713E-02-2.19322E-03-9.69372E-14
 -1      1614 1.34712E-02-2.33903E-03-1.02447E-13
 -1      1615 1.33284E-02-2.28174E-03-1.00660E-13
 -1      1616 1.33570E-02-2.30771E-03-1.00514E-13
 -1      1617 1.37568E-02-2.45365E-03-1.06001E-13
 -1      1618 1.36140E-02-2.39634E-03-1.04226E-13
 -1      1619 1.36426E-02-2.42231E-03-1.04080E-13
 -1      1620 1.40425E-02-2.56829E-03-1.09550E-13
 -1      1621 1.38997E-02-2.51097E-03-1.07776E-13
 -1      1622 1.39283E-02-2.53695E-03-1.07636E-13
 -1      1623 1.42059E-02-2.63889E-03-1.11408E-13
 -1      1624 1.43587E-02-2.74909E-03-1.11639E-13
 -1      1625 1.43024E-02-2.70693E-03-1.11605E-13
 -1      1626 1.44714E-02-2.83343E-03-1.11710E-13
 -1      1627 1.44151E-02-2.79125E-03-1.11673E-13
 -1      1628 1.42632E-02-2.72054E-03-1.10118E-13
 -1      1629 1.45841E-02-2.91780E-03-1.11792E-13
 -1      1630 1.45277E-02-2.87561E-03-1.11750E-13
 -1      1631 1.43758E-02-2.80487E-03-1.10189E-13
 -1      1632 1.46969E-02-3.00220E-03-1.11873E-13
 -1      1633 1.46405E-02-2.95999E-03-1.11835E-13
 -1      1634 1.44885E-02-2.88922E-03-1.10266E-13
 -1      1635 1.48078E-02-3.08518E-03-1.11948E-13
 -1      1636 1.47523E-02-3.04369E-03-1.11910E-13
 -1      1637 1.46004E-02-2.97288E-03-1.10340E-13
 -1      1638 1.49208E-02-3.16962E-03-1.12024E-13
 -1      1639 1.48643E-02-3.12740E-03-1.11988E-13
 -1      1640 1.47123E-02-3.05654E-03-1.10410E-13
 -1      1641 1.50339E-02-3.25406E-03-1.12079E-13
 -1      1642 1.49773E-02-3.21184E-03-1.12053E-13
 -1      1643 1.48253E-02-3.14093E-03-1.10473E-13
 -1      1644 1.51471E-02-3.33850E-03-1.12122E-13
 -1      1645 1.50905E-02-3.29628E-03-1.12103E-13
 -1      1646 1.49385E-02-3.22532E-03-1.10522E-13
 -1      1647 1.52605E-02-3.42295E-03-1.12144E-13
 -1      1648 1.52038E-02-3.38073E-03-1.12138E-13
 -1      1649 1.50517E-02-3.30972E-03-1.10559E-13
 -1      1650 1.53740E-02-3.50740E-03-1.12136E-13
 -1      1651 1.53172E-02-3.46518E-03-1.12142E-13
 -1      1652 1.51651E-02-3.39411E-03-1.10575E-13
 -1      1653 1.54856E-02-3.59040E-03-1.12113E-13
 -1      1654 1.54298E-02-3.54890E-03-1.12126E-13
 -1      1655 1.52776E-02-3.47779E-03-1.10567E-13
 -1      1656 1.55993E-02-3.67483E-03-1.12092E-13
 -1      1657 1.55425E-02-3.63262E-03-1.12105E-13
 -1      1658 1.53903E-02-3.56147E-03-1.10548E-13
 -1      1659 1.57132E-02-3.75922E-03-1.12047E-13
 -1      1660 1.56562E-02-3.71703E-03-1.12073E-13
 -1      1661 1.55041E-02-3.64585E-03-1.10516E-13
 -1      1662 1.58270E-02-3.84358E-03-1.11999E-13
 -1      1663 1.57701E-02-3.80141E-03-1.12021E-13
 -1      1664 1.56179E-02-3.73021E-03-1.10470E-13
 -1      1665 1.59365E-02-3.92180E-03-1.12034E-13
 -1      1666 1.58795E-02-3.87964E-03-1.12078E-13
 -1      1667 1.57273E-02-3.80844E-03-1.10524E-13
 -1      1668 1.58322E-02-3.88055E-03-1.10678E-13
 -1      1669 8.80181E-03-6.74921E-04-2.76374E-14
 -1      1670 8.85864E-03-7.22312E-04-2.76978E-14
 -1      1671 8.59792E-03-5.54342E-04-2.72953E-14
 -1      1672 8.70468E-03-6.10839E-04-2.74672E-14
 -1      1673 8.29835E-03-4.07596E-04-2.67545E-14
 -1      1674 8.44787E-03-4.79491E-04-2.70311E-14
 -1      1675 7.93405E-03-2.32874E-04-2.60200E-14
 -1      1676 8.10841E-03-3.16468E-04-2.63788E-14
 -1      1677 7.53714E-03-4.51696E-05-2.51206E-14
 -1      1678 7.72308E-03-1.32532E-04-2.55528E-14
 -1      1679 7.13932E-03 1.27412E-04-2.41119E-14
 -1      1680 7.32152E-03 5.10397E-05-2.45863E-14
 -1      1681 6.75023E-03 2.58372E-04-2.30312E-14
 -1      1682 6.92864E-03 2.04375E-04-2.35363E-14
 -1      1683 6.35708E-03 3.27092E-04-2.18792E-14
 -1      1684 6.53723E-03 3.05407E-04-2.24175E-14
 -1      1685 5.97518E-03 3.12946E-04-2.07751E-14
 -1      1686 6.14899E-03 3.28215E-04-2.12719E-14
 -1      1687 5.58502E-03 2.23018E-04-1.96389E-14
 -1      1688 5.77195E-03 2.77240E-04-2.01433E-14
 -1      1689 5.18283E-03 8.14707E-05-1.87080E-14
 -1      1690 5.35847E-03 1.49764E-04-1.91156E-14
 -1      1691 4.81436E-03-6.20530E-05-1.79824E-14
 -1      1692 4.97466E-03 6.31480E-06-1.83081E-14
 -1      1693 4.51499E-03-1.96841E-04-1.74168E-14
 -1      1694 4.64480E-03-1.37192E-04-1.76540E-14
 -1      1695 4.28627E-03-3.19324E-04-1.69953E-14
 -1      1696 4.38256E-03-2.66555E-04-1.71607E-14
 -1      1697 4.16718E-03-4.22088E-04-1.67847E-14
 -1      1698 4.20623E-03-3.76734E-04-1.68559E-14
 -1      1699 4.18106E-03-5.20756E-04-1.67990E-14
 -1      1700 4.15899E-03-4.74992E-04-1.67785E-14
 -1      1701 4.32364E-03-6.39738E-04-1.69831E-14
 -1      1702 4.24132E-03-5.81233E-04-1.68741E-14
 -1      1703 4.62921E-03-7.93715E-04-1.73272E-14
 -1      1704 4.47026E-03-7.06261E-04-1.70956E-14
 -1      1705 4.97880E-03-1.01749E-03-1.79882E-14
 -1      1706 4.81210E-03-9.23745E-04-1.77125E-14
 -1      1707 5.39177E-03-1.25041E-03-1.87403E-14
 -1      1708 5.19245E-03-1.13837E-03-1.83661E-14
 -1      1709 5.82488E-03-1.47914E-03-1.96477E-14
 -1      1710 5.62561E-03-1.37678E-03-1.92129E-14
 -1      1711 6.26053E-03-1.65995E-03-2.06953E-14
 -1      1712 6.05895E-03-1.58480E-03-2.01955E-14
 -1      1713 6.67703E-03-1.74269E-03-2.18012E-14
 -1      1714 6.48821E-03-1.71874E-03-2.12891E-14
 -1      1715 7.10606E-03-1.71023E-03-2.30494E-14
 -1      1716 6.90619E-03-1.74616E-03-2.24644E-14
 -1      1717 7.56464E-03-1.55622E-03-2.42760E-14
 -1      1718 7.35920E-03-1.63640E-03-2.37161E-14
 -1      1719 7.98856E-03-1.36233E-03-2.53440E-14
 -1      1720 7.80094E-03-1.45409E-03-2.48720E-14
 -1      1721 8.35695E-03-1.17264E-03-2.62463E-14
 -1      1722 8.19407E-03-1.25815E-03-2.58544E-14
 -1      1723 8.64822E-03-1.01202E-03-2.69583E-14
 -1      1724 8.52485E-03-1.08213E-03-2.66561E-14
 -1      1725 8.83549E-03-8.79565E-04-2.74822E-14
 -1      1726 8.76285E-03-9.35252E-04-2.72865E-14
 -1      1727 8.88797E-03-7.75512E-04-2.76620E-14
 -1      1728 8.88130E-03-8.22047E-04-2.75989E-14
 -1      1729 8.15485E-03-4.27044E-04-2.69496E-14
 -1      1730 8.88315E-03-7.63366E-04-2.81802E-14
 -1      1731 1.42346E-02-2.66488E-03-1.11268E-13
 -1      1732 1.41390E-02-2.63632E-03-1.09747E-13
 -1      1733 8.75296E-03-6.89362E-04-2.80411E-14
 -1      1734 8.49879E-03-5.79438E-04-2.76000E-14
 -1      1735 7.76050E-03-2.33365E-04-2.60948E-14
 -1      1736 7.35668E-03-2.34900E-05-2.50815E-14
 -1      1737 6.97172E-03 1.66914E-04-2.39622E-14
 -1      1738 6.60474E-03 3.03325E-04-2.27685E-14
 -1      1739 6.25562E-03 3.54176E-04-2.15493E-14
 -1      1740 5.89812E-03 3.10853E-04-2.03163E-14
 -1      1741 5.53159E-03 1.79561E-04-1.91777E-14
 -1      1742 5.13644E-03 1.18525E-05-1.82724E-14
 -1      1743 4.77145E-03-1.45229E-04-1.75588E-14
 -1      1744 4.46602E-03-2.78432E-04-1.69863E-14
 -1      1745 4.24552E-03-3.75946E-04-1.65996E-14
 -1      1746 4.15329E-03-4.45626E-04-1.64571E-14
 -1      1747 4.20762E-03-5.18433E-04-1.65236E-14
 -1      1748 4.41864E-03-6.15299E-04-1.67034E-14
 -1      1749 4.75941E-03-7.80029E-04-1.71840E-14
 -1      1750 5.15889E-03-1.02178E-03-1.79350E-14
 -1      1751 5.58693E-03-1.28048E-03-1.87721E-14
 -1      1752 6.01259E-03-1.53178E-03-1.97812E-14
 -1      1753 6.41156E-03-1.71221E-03-2.09159E-14
 -1      1754 6.80080E-03-1.77593E-03-2.21715E-14
 -1      1755 7.18694E-03-1.68907E-03-2.35085E-14
 -1      1756 7.61843E-03-1.49191E-03-2.47817E-14
 -1      1757 8.03431E-03-1.27105E-03-2.59009E-14
 -1      1758 8.40380E-03-1.07768E-03-2.68328E-14
 -1      1759 8.69389E-03-9.30316E-04-2.75780E-14
 -1      1760 8.86379E-03-8.34132E-04-2.80274E-14
 -1      1761 2.85016E-04-1.73306E-04-3.07642E-17
 -1      1762 3.33257E-04-1.11565E-04-1.29359E-16
 -1      1763 3.37513E-04-1.27878E-04-1.19276E-16
 -1      1764 3.43390E-04-1.47016E-04-1.07295E-16
 -1      1765 3.52745E-04-1.69230E-04-9.11001E-17
 -1      1766 4.60014E-04-1.81046E-04-1.72551E-16
 -1      1767 3.24581E-04-6.10631E-05-1.51178E-16
 -1      1768 3.26027E-04-7.19545E-05-1.47573E-16
 -1      1769 3.22524E-04-4.06965E-05-1.56234E-16
 -1      1770 3.23445E-04-5.05735E-05-1.53862E-16
 -1      1771 4.36102E-04-7.39283E-05-2.25636E-16
 -1      1772 3.21330E-04-2.20226E-05-1.58497E-16
 -1      1773 3.21839E-04-3.11831E-05-1.57670E-16
 -1      1774 4.33317E-04-4.75962E-05-2.31531E-16
 -1      1775 3.20862E-04-4.18934E-06-1.59174E-16
 -1      1776 3.21013E-04-1.30318E-05-1.59012E-16
 -1      1777 4.31784E-04-2.31869E-05-2.34310E-16
 -1      1778 3.21067E-04 1.35428E-05-1.57751E-16
 -1      1779 3.20880E-04 4.66128E-06-1.58741E-16
 -1      1780 4.31338E-04 3.76843E-07-2.34405E-16
 -1      1781 3.21947E-04 3.18810E-05-1.54350E-16
 -1      1782 3.21414E-04 2.26098E-05-1.56396E-16
 -1      1783 4.31919E-04 2.40504E-05-2.31545E-16
 -1      1784 3.23545E-04 5.12267E-05-1.48387E-16
 -1      1785 3.22634E-04 4.13669E-05-1.51748E-16
 -1      1786 4.33534E-04 4.85531E-05-2.25853E-16
 -1      1787 3.26144E-04 7.31525E-05-1.39645E-16
 -1      1788 3.24677E-04 6.18820E-05-1.44605E-16
 -1      1789 4.36334E-04 7.50877E-05-2.16922E-16
 -1      1790 3.30324E-04 9.86827E-05-1.26743E-16
 -1      1791 3.27944E-04 8.54354E-05-1.33994E-16
 -1      1792 4.40789E-04 1.05201E-04-2.03640E-16
 -1      1793 3.37681E-04 1.30256E-04-1.06984E-16
 -1      1794 3.33415E-04 1.13637E-04-1.18178E-16
 -1      1795 4.47984E-04 1.40630E-04-1.83894E-16
 -1      1796 3.53155E-04 1.73055E-04-7.71410E-17
 -1      1797 3.43839E-04 1.50012E-04-9.38919E-17
 -1      1798 4.60782E-04 1.84819E-04-1.54675E-16
 -1      1799 4.08073E-04 2.28987E-04-5.60126E-17
 -1      1800 3.78817E-04 1.98030E-04-6.98497E-17
 -1      1801 4.97176E-04 2.37423E-04-1.28234E-16
 -1      1802 5.59290E-04 2.95644E-04-1.06387E-16
 -1      1803 3.40491E-04-1.86777E-04-6.17860E-17
 -1      1804 8.55593E-04 3.95635E-04-2.85443E-16
 -1      1805 7.08450E-04 3.50225E-04-1.83122E-16
 -1      1806 6.75087E-04 3.19807E-04-1.97054E-16
 -1      1807 4.60041E-04-2.30491E-04-1.17162E-16
 -1      1808 8.09615E-04-3.61909E-04-3.28066E-16
 -1      1809 9.55844E-04-4.00241E-04-4.65285E-16
 -1      1810 1.09990E-03-4.31900E-04-6.28769E-16
 -1      1811 1.24308E-03-4.57586E-04-8.19006E-16
 -1      1812 1.00828E-03-3.81180E-04-5.82582E-16
 -1      1813 1.38532E-03-4.78642E-04-1.03583E-15
 -1      1814 1.52726E-03-4.95376E-04-1.27991E-15
 -1      1815 1.29668E-03-4.32645E-04-9.70429E-16
 -1      1816 1.66909E-03-5.08666E-04-1.55052E-15
 -1      1817 1.81115E-03-5.18778E-04-1.84721E-15
 -1      1818 1.58297E-03-4.66196E-04-1.46422E-15
 -1      1819 1.95364E-03-5.26285E-04-2.17068E-15
 -1      1820 2.09679E-03-5.31441E-04-2.52123E-15
 -1      1821 1.86901E-03-4.86358E-04-2.06339E-15
 -1      1822 2.24076E-03-5.34651E-04-2.89878E-15
 -1      1823 2.38580E-03-5.36173E-04-3.30257E-15
 -1      1824 2.15632E-03-4.96483E-04-2.76839E-15
 -1      1825 2.53196E-03-5.36332E-04-3.73275E-15
 -1      1826 2.67958E-03-5.35411E-04-4.18985E-15
 -1      1827 2.44614E-03-4.99240E-04-3.57899E-15
 -1      1828 2.82865E-03-5.33737E-04-4.67306E-15
 -1      1829 2.97958E-03-5.31649E-04-5.18219E-15
 -1      1830 2.73955E-03-4.97033E-04-4.49436E-15
 -1      1831 3.13229E-03-5.29571E-04-5.71726E-15
 -1      1832 3.28733E-03-5.27952E-04-6.27655E-15
 -1      1833 3.03756E-03-4.92410E-04-5.51402E-15
 -1      1834 3.44452E-03-5.27443E-04-6.86117E-15
 -1      1835 3.60453E-03-5.28686E-04-7.47118E-15
 -1      1836 3.34123E-03-4.88601E-04-6.63433E-15
 -1      1837 3.77537E-03-5.33037E-04-8.13752E-15
 -1      1838 3.94988E-03-5.41683E-04-8.83150E-15
 -1      1839 3.65962E-03-4.90426E-04-7.88506E-15
 -1      1840 4.11943E-03-5.55616E-04-9.51814E-15
 -1      1841 4.29275E-03-5.76819E-04-1.02293E-14
 -1      1842 3.98703E-03-5.05782E-04-9.23981E-15
 -1      1843 4.47034E-03-6.07565E-04-1.09647E-14
 -1      1844 4.65195E-03-6.50470E-04-1.17255E-14
 -1      1845 4.31801E-03-5.45291E-04-1.06610E-14
 -1      1846 4.83928E-03-7.08017E-04-1.25115E-14
 -1      1847 5.03042E-03-7.83785E-04-1.33222E-14
 -1      1848 4.66534E-03-6.25740E-04-1.21810E-14
 -1      1849 5.22879E-03-8.79072E-04-1.41594E-14
 -1      1850 5.42961E-03-9.96895E-04-1.50232E-14
 -1      1851 5.03657E-03-7.69121E-04-1.38007E-14
 -1      1852 5.63751E-03-1.13465E-03-1.59138E-14
 -1      1853 5.84406E-03-1.28987E-03-1.68326E-14
 -1      1854 5.43879E-03-9.96878E-04-1.55228E-14
 -1      1855 6.05184E-03-1.45334E-03-1.77828E-14
 -1      1856 6.25416E-03-1.61010E-03-1.87643E-14
 -1      1857 5.86699E-03-1.30837E-03-1.73571E-14
 -1      1858 6.42908E-03-1.73467E-03-1.96752E-14
 -1      1859 6.60215E-03-1.82503E-03-2.06126E-14
 -1      1860 6.27453E-03-1.62292E-03-1.92135E-14
 -1      1861 6.76632E-03-1.87564E-03-2.15779E-14
 -1      1862 6.93635E-03-1.87989E-03-2.25678E-14
 -1      1863 6.64243E-03-1.82245E-03-2.10822E-14
 -1      1864 7.12400E-03-1.83448E-03-2.36994E-14
 -1      1865 7.32178E-03-1.75272E-03-2.48638E-14
 -1      1866 7.02465E-03-1.82677E-03-2.31731E-14
 -1      1867 7.53508E-03-1.64290E-03-2.61170E-14
 -1      1868 7.75224E-03-1.53153E-03-2.74005E-14
 -1      1869 7.45584E-03-1.64001E-03-2.55599E-14
 -1      1870 7.96218E-03-1.43684E-03-2.86462E-14
 -1      1871 8.16656E-03-1.35927E-03-2.99168E-14
 -1      1872 7.89887E-03-1.41530E-03-2.80652E-14
 -1      1873 8.36966E-03-1.30404E-03-3.12075E-14
 -1      1874 8.56543E-03-1.26950E-03-3.25164E-14
 -1      1875 8.31365E-03-1.26604E-03-3.06040E-14
 -1      1876 8.75783E-03-1.25546E-03-3.38448E-14
 -1      1877 8.94395E-03-1.25821E-03-3.51901E-14
 -1      1878 8.69749E-03-1.20558E-03-3.32223E-14
 -1      1879 9.12616E-03-1.27553E-03-3.65508E-14
 -1      1880 9.30374E-03-1.30433E-03-3.79290E-14
 -1      1881 9.05461E-03-1.21758E-03-3.59100E-14
 -1      1882 9.47760E-03-1.34220E-03-3.93243E-14
 -1      1883 9.64801E-03-1.38718E-03-4.07348E-14
 -1      1884 9.39312E-03-1.27884E-03-3.86638E-14
 -1      1885 9.81509E-03-1.43740E-03-4.21599E-14
 -1      1886 9.97951E-03-1.49167E-03-4.35989E-14
 -1      1887 9.71915E-03-1.37066E-03-4.14828E-14
 -1      1888 1.01411E-02-1.54876E-03-4.50530E-14
 -1      1889 1.03006E-02-1.60797E-03-4.65207E-14
 -1      1890 1.00363E-02-1.48016E-03-4.43600E-14
 -1      1891 1.04577E-02-1.66857E-03-4.80021E-14
 -1      1892 1.06132E-02-1.73013E-03-4.94999E-14
 -1      1893 1.03465E-02-1.59914E-03-4.72940E-14
 -1      1894 1.07668E-02-1.79227E-03-5.10116E-14
 -1      1895 1.09191E-02-1.85472E-03-5.25372E-14
 -1      1896 1.06513E-02-1.72266E-03-5.02861E-14
 -1      1897 1.10700E-02-1.91729E-03-5.40780E-14
 -1      1898 1.12198E-02-1.97982E-03-5.56291E-14
 -1      1899 1.09516E-02-1.84787E-03-5.33359E-14
 -1      1900 1.13685E-02-2.04225E-03-5.71970E-14
 -1      1901 1.15165E-02-2.10446E-03-5.87777E-14
 -1      1902 1.12484E-02-1.97320E-03-5.64402E-14
 -1      1903 1.16636E-02-2.16645E-03-6.03740E-14
 -1      1904 1.18101E-02-2.22815E-03-6.19839E-14
 -1      1905 1.15424E-02-2.09784E-03-5.96003E-14
 -1      1906 1.19632E-02-2.29265E-03-6.36908E-14
 -1      1907 1.21159E-02-2.35682E-03-6.54102E-14
 -1      1908 1.18415E-02-2.22449E-03-6.28988E-14
 -1      1909 1.22608E-02-2.41765E-03-6.70628E-14
 -1      1910 1.24054E-02-2.47819E-03-6.87299E-14
 -1      1911 1.21388E-02-2.34990E-03-6.62564E-14
 -1      1912 1.25497E-02-2.53847E-03-7.04073E-14
 -1      1913 1.26937E-02-2.59849E-03-7.20965E-14
 -1      1914 1.24275E-02-2.47108E-03-6.95873E-14
 -1      1915 1.28375E-02-2.65827E-03-7.37959E-14
 -1      1916 1.29811E-02-2.71783E-03-7.55068E-14
 -1      1917 1.27153E-02-2.59120E-03-7.29657E-14
 -1      1918 1.31246E-02-2.77718E-03-7.72266E-14
 -1      1919 1.32679E-02-2.83634E-03-7.89565E-14
 -1      1920 1.30025E-02-2.71036E-03-7.63845E-14
 -1      1921 1.34111E-02-2.89532E-03-8.06923E-14
 -1      1922 1.35542E-02-2.95414E-03-8.24322E-14
 -1      1923 1.32891E-02-2.82871E-03-7.98393E-14
 -1      1924 1.36973E-02-3.01282E-03-8.41789E-14
 -1      1925 1.38403E-02-3.07137E-03-8.59264E-14
 -1      1926 1.35754E-02-2.94638E-03-8.33226E-14
 -1      1927 1.39832E-02-3.12980E-03-8.76782E-14
 -1      1928 1.41262E-02-3.18813E-03-8.94343E-14
 -1      1929 1.38614E-02-3.06349E-03-8.68178E-14
 -1      1930 1.42691E-02-3.24636E-03-9.11926E-14
 -1      1931 1.44119E-02-3.30452E-03-9.29534E-14
 -1      1932 1.41473E-02-3.18015E-03-9.03290E-14
 -1      1933 1.45548E-02-3.36260E-03-9.47196E-14
 -1      1934 1.46976E-02-3.42063E-03-9.64896E-14
 -1      1935 1.44331E-02-3.29647E-03-9.38546E-14
 -1      1936 1.48405E-02-3.47860E-03-9.82632E-14
 -1      1937 1.49833E-02-3.53654E-03-1.00039E-13
 -1      1938 1.47188E-02-3.41252E-03-9.73972E-14
 -1      1939 1.51261E-02-3.59444E-03-1.01822E-13
 -1      1940 1.52690E-02-3.65233E-03-1.03608E-13
 -1      1941 1.50045E-02-3.52839E-03-1.00955E-13
 -1      1942 1.54118E-02-3.71019E-03-1.05396E-13
 -1      1943 1.55547E-02-3.76806E-03-1.07188E-13
 -1      1944 1.52902E-02-3.64415E-03-1.04526E-13
 -1      1945 1.57280E-02-3.83930E-03-1.09329E-13
 -1      1946 1.36506E-03 4.91591E-04-8.87298E-16
 -1      1947 1.22346E-03 4.69082E-04-6.89851E-16
 -1      1948 1.64694E-03 5.25316E-04-1.36161E-15
 -1      1949 1.50609E-03 5.10231E-04-1.11120E-15
 -1      1950 1.41873E-03 4.65187E-04-1.05267E-15
 -1      1951 1.92897E-03 5.47459E-04-1.94130E-15
 -1      1952 1.78784E-03 5.37635E-04-1.63801E-15
 -1      1953 1.70324E-03 4.95420E-04-1.56052E-15
 -1      1954 2.21256E-03 5.61603E-04-2.62637E-15
 -1      1955 2.07051E-03 5.55362E-04-2.27071E-15
 -1      1956 1.98778E-03 5.14962E-04-2.17282E-15
 -1      1957 2.49857E-03 5.70731E-04-3.41682E-15
 -1      1958 2.35524E-03 5.66644E-04-3.00867E-15
 -1      1959 2.27351E-03 5.27214E-04-2.89018E-15
 -1      1960 2.78746E-03 5.77492E-04-4.31163E-15
 -1      1961 2.64266E-03 5.74269E-04-3.85122E-15
 -1      1962 2.56122E-03 5.35067E-04-3.71193E-15
 -1      1963 3.07934E-03 5.84356E-04-5.30912E-15
 -1      1964 2.93305E-03 5.80782E-04-4.79743E-15
 -1      1965 2.85136E-03 5.41133E-04-4.63644E-15
 -1      1966 3.37396E-03 5.93627E-04-6.40984E-15
 -1      1967 3.22637E-03 5.88574E-04-5.84680E-15
 -1      1968 3.14413E-03 5.47865E-04-5.66372E-15
 -1      1969 3.67070E-03 6.07325E-04-7.61107E-15
 -1      1970 3.52216E-03 5.99832E-04-6.99771E-15
 -1      1971 3.43942E-03 5.57556E-04-6.79216E-15
 -1      1972 3.96847E-03 6.26878E-04-8.91480E-15
 -1      1973 3.81960E-03 6.16329E-04-8.25013E-15
 -1      1974 3.73683E-03 5.72186E-04-8.02158E-15
 -1      1975 4.26577E-03 6.52607E-04-1.03222E-14
 -1      1976 4.11736E-03 6.39013E-04-9.60535E-15
 -1      1977 4.03553E-03 5.93068E-04-9.35366E-15
 -1      1978 4.56072E-03 6.83071E-04-1.18340E-14
 -1      1979 4.41374E-03 6.67413E-04-1.10651E-14
 -1      1980 4.33427E-03 6.20289E-04-1.07881E-14
 -1      1981 4.85136E-03 7.14439E-04-1.34521E-14
 -1      1982 4.70676E-03 6.98959E-04-1.26300E-14
 -1      1983 4.63136E-03 6.52001E-04-1.23277E-14
 -1      1984 5.13605E-03 7.40252E-04-1.51744E-14
 -1      1985 4.99454E-03 7.28499E-04-1.43001E-14
 -1      1986 4.92493E-03 6.83774E-04-1.39711E-14
 -1      1987 5.41412E-03 7.52003E-04-1.70036E-14
 -1      1988 5.27587E-03 7.48418E-04-1.60755E-14
 -1      1989 5.21336E-03 7.08426E-04-1.57199E-14
 -1      1990 5.68637E-03 7.40771E-04-1.89398E-14
 -1      1991 5.55077E-03 7.49735E-04-1.79576E-14
 -1      1992 5.49594E-03 7.16804E-04-1.75762E-14
 -1      1993 5.95520E-03 6.99640E-04-2.09876E-14
 -1      1994 5.82088E-03 7.24215E-04-1.99499E-14
 -1      1995 5.77353E-03 6.99746E-04-1.95403E-14
 -1      1996 6.22408E-03 6.25929E-04-2.31492E-14
 -1      1997 6.08927E-03 6.66829E-04-2.20541E-14
 -1      1998 6.04864E-03 6.50789E-04-2.16175E-14
 -1      1999 6.49652E-03 5.22145E-04-2.54215E-14
 -1      2000 6.35956E-03 5.77480E-04-2.42716E-14
 -1      2001 6.32467E-03 5.68420E-04-2.38068E-14
 -1      2002 6.77501E-03 3.95089E-04-2.78007E-14
 -1      2003 6.63486E-03 4.61029E-04-2.65979E-14
 -1      2004 6.60477E-03 4.56643E-04-2.61061E-14
 -1      2005 7.06047E-03 2.53655E-04-3.02786E-14
 -1      2006 6.91687E-03 3.25639E-04-2.90270E-14
 -1      2007 6.89073E-03 3.23508E-04-2.85091E-14
 -1      2008 7.35235E-03 1.06433E-04-3.28541E-14
 -1      2009 7.20572E-03 1.80324E-04-3.15549E-14
 -1      2010 7.18267E-03 1.78493E-04-3.10118E-14
 -1      2011 7.64916E-03-3.99530E-05-3.55234E-14
 -1      2012 7.50031E-03 3.28350E-05-3.41761E-14
 -1      2013 7.47945E-03 3.00494E-05-3.36093E-14
 -1      2014 7.94902E-03-1.81432E-04-3.82831E-14
 -1      2015 7.79888E-03-1.11463E-04-3.68937E-14
 -1      2016 7.77931E-03-1.15796E-04-3.63020E-14
 -1      2017 8.25017E-03-3.16243E-04-4.11268E-14
 -1      2018 8.09958E-03-2.49717E-04-3.96948E-14
 -1      2019 8.08052E-03-2.55701E-04-3.90829E-14
 -1      2020 8.55120E-03-4.44293E-04-4.40469E-14
 -1      2021 8.40081E-03-3.81088E-04-4.25770E-14
 -1      2022 8.38168E-03-3.88537E-04-4.19432E-14
 -1      2023 8.85113E-03-5.66458E-04-4.70441E-14
 -1      2024 8.70137E-03-5.06049E-04-4.55365E-14
 -1      2025 8.68181E-03-5.14641E-04-4.48807E-14
 -1      2026 9.14937E-03-6.84030E-04-5.01116E-14
 -1      2027 9.00049E-03-6.25745E-04-4.85683E-14
 -1      2028 8.98033E-03-6.35131E-04-4.78923E-14
 -1      2029 9.44569E-03-7.98345E-04-5.32481E-14
 -1      2030 9.29778E-03-7.41526E-04-5.16710E-14
 -1      2031 9.27700E-03-7.51388E-04-5.09725E-14
 -1      2032 9.74006E-03-9.10583E-04-5.64469E-14
 -1      2033 9.59311E-03-8.54665E-04-5.48409E-14
 -1      2034 9.57179E-03-8.64749E-04-5.41203E-14
 -1      2035 1.00326E-02-1.02168E-03-5.96995E-14
 -1      2036 9.88654E-03-9.66231E-04-5.80661E-14
 -1      2037 9.86479E-03-9.76347E-04-5.73298E-14
 -1      2038 1.03236E-02-1.13234E-03-6.30007E-14
 -1      2039 1.01783E-02-1.07704E-03-6.13449E-14
 -1      2040 1.01562E-02-1.08706E-03-6.05887E-14
 -1      2041 1.06132E-02-1.24302E-03-6.63501E-14
 -1      2042 1.04685E-02-1.18766E-03-6.46693E-14
 -1      2043 1.04463E-02-1.19751E-03-6.38968E-14
 -1      2044 1.09017E-02-1.35402E-03-6.97416E-14
 -1      2045 1.07576E-02-1.29847E-03-6.80412E-14
 -1      2046 1.07352E-02-1.30812E-03-6.72511E-14
 -1      2047 1.11894E-02-1.46549E-03-7.31712E-14
 -1      2048 1.10456E-02-1.40969E-03-7.14524E-14
 -1      2049 1.10233E-02-1.41913E-03-7.06476E-14
 -1      2050 1.14764E-02-1.57750E-03-7.66344E-14
 -1      2051 1.13329E-02-1.52142E-03-7.48982E-14
 -1      2052 1.13106E-02-1.53066E-03-7.40811E-14
 -1      2053 1.17629E-02-1.69004E-03-8.01246E-14
 -1      2054 1.16197E-02-1.63370E-03-7.83759E-14
 -1      2055 1.15974E-02-1.64276E-03-7.75453E-14
 -1      2056 1.20491E-02-1.80309E-03-8.36355E-14
 -1      2057 1.19060E-02-1.74651E-03-8.18786E-14
 -1      2058 1.18839E-02-1.75540E-03-8.10395E-14
 -1      2059 1.23351E-02-1.91657E-03-8.71653E-14
 -1      2060 1.21921E-02-1.85978E-03-8.53976E-14
 -1      2061 1.21700E-02-1.86854E-03-8.45505E-14
 -1      2062 1.26209E-02-2.03042E-03-9.07143E-14
 -1      2063 1.24780E-02-1.97345E-03-8.89374E-14
 -1      2064 1.24560E-02-1.98211E-03-8.80842E-14
 -1      2065 1.29066E-02-2.14456E-03-9.42825E-14
 -1      2066 1.27637E-02-2.08746E-03-9.24974E-14
 -1      2067 1.27418E-02-2.09603E-03-9.16363E-14
 -1      2068 1.31923E-02-2.25893E-03-9.78560E-14
 -1      2069 1.30494E-02-2.20173E-03-9.60706E-14
 -1      2070 1.30275E-02-2.21024E-03-9.52030E-14
 -1      2071 1.34779E-02-2.37346E-03-1.01430E-13
 -1      2072 1.33351E-02-2.31618E-03-9.96428E-14
 -1      2073 1.33132E-02-2.32466E-03-9.87748E-14
 -1      2074 1.37636E-02-2.48808E-03-1.04995E-13
 -1      2075 1.36208E-02-2.43076E-03-1.03214E-13
 -1      2076 1.35989E-02-2.43922E-03-1.02347E-13
 -1      2077 1.40227E-02-2.59086E-03-1.08262E-13
 -1      2078 1.38799E-02-2.53354E-03-1.06484E-13
 -1      2079 1.38581E-02-2.54199E-03-1.05622E-13
 -1      2080 1.40906E-02-2.63292E-03-1.08599E-13
 -1      2081 1.43930E-02-2.86063E-03-1.08739E-13
 -1      2082 1.43366E-02-2.81846E-03-1.08703E-13
 -1      2083 1.42803E-02-2.77629E-03-1.08665E-13
 -1      2084 1.42239E-02-2.73413E-03-1.08632E-13
 -1      2085 1.41847E-02-2.74770E-03-1.07139E-13
 -1      2086 1.41469E-02-2.67507E-03-1.08633E-13
 -1      2087 1.45039E-02-2.94353E-03-1.08801E-13
 -1      2088 1.44484E-02-2.90208E-03-1.08770E-13
 -1      2089 1.42965E-02-2.83130E-03-1.07203E-13
 -1      2090 1.46168E-02-3.02788E-03-1.08869E-13
 -1      2091 1.45604E-02-2.98571E-03-1.08835E-13
 -1      2092 1.44084E-02-2.91489E-03-1.07262E-13
 -1      2093 1.47299E-02-3.11222E-03-1.08923E-13
 -1      2094 1.46733E-02-3.07005E-03-1.08899E-13
 -1      2095 1.45214E-02-2.99919E-03-1.07321E-13
 -1      2096 1.48430E-02-3.19656E-03-1.08968E-13
 -1      2097 1.47864E-02-3.15439E-03-1.08947E-13
 -1      2098 1.46344E-02-3.08348E-03-1.07372E-13
 -1      2099 1.49563E-02-3.28090E-03-1.09001E-13
 -1      2100 1.48997E-02-3.23873E-03-1.08986E-13
 -1      2101 1.47476E-02-3.16777E-03-1.07413E-13
 -1      2102 1.50697E-02-3.36525E-03-1.09011E-13
 -1      2103 1.50130E-02-3.32307E-03-1.09008E-13
 -1      2104 1.48609E-02-3.25206E-03-1.07440E-13
 -1      2105 1.51814E-02-3.44817E-03-1.09003E-13
 -1      2106 1.51255E-02-3.40671E-03-1.09010E-13
 -1      2107 1.49734E-02-3.33564E-03-1.07449E-13
 -1      2108 1.52950E-02-3.53251E-03-1.08981E-13
 -1      2109 1.52382E-02-3.49034E-03-1.08993E-13
 -1      2110 1.50860E-02-3.41923E-03-1.07440E-13
 -1      2111 1.54088E-02-3.61686E-03-1.08944E-13
 -1      2112 1.53519E-02-3.57469E-03-1.08964E-13
 -1      2113 1.51997E-02-3.50355E-03-1.07413E-13
 -1      2114 1.55227E-02-3.70120E-03-1.08895E-13
 -1      2115 1.54657E-02-3.65903E-03-1.08921E-13
 -1      2116 1.53135E-02-3.58787E-03-1.07374E-13
 -1      2117 1.11195E-03 4.52736E-04-5.42196E-16
 -1      2118 9.68471E-04 4.20820E-04-3.93010E-16
 -1      2119 9.36537E-04 3.91496E-04-4.07863E-16
 -1      2120 1.16320E-03 4.30502E-04-6.76474E-16
 -1      2121 8.39984E-03-6.03418E-04-2.79944E-14
 -1      2122 8.55162E-03-6.58588E-04-2.82666E-14
 -1      2123 7.60753E-03-2.22842E-04-2.62344E-14
 -1      2124 7.80117E-03-3.28045E-04-2.67134E-14
 -1      2125 8.87408E-03-7.75195E-04-2.88943E-14
 -1      2126 8.90177E-03-7.89925E-04-2.88599E-14
 -1      2127 8.01727E-03-4.43170E-04-2.72780E-14
 -1      2128 8.20152E-03-5.27092E-04-2.76654E-14
 -1      2129 3.27796E-04-8.39626E-05-1.42925E-16
 -1      2130 3.30135E-04-9.69700E-05-1.36786E-16
 -1      2131 4.47598E-04-1.38059E-04-1.98734E-16
 -1      2132 4.40511E-04-1.03435E-04-2.15350E-16
 -1      2133 7.20053E-03 4.81578E-06-2.51200E-14
 -1      2134 7.38195E-03-1.02958E-04-2.56657E-14
 -1      2135 6.83839E-03 2.08428E-04-2.38429E-14
 -1      2136 7.00216E-03 1.19997E-04-2.44248E-14
 -1      2137 6.50434E-03 3.39262E-04-2.25439E-14
 -1      2138 6.65887E-03 2.87103E-04-2.31595E-14
 -1      2139 6.17099E-03 3.72021E-04-2.11852E-14
 -1      2140 6.31653E-03 3.72619E-04-2.17878E-14
 -1      2141 5.85461E-03 3.01394E-04-1.99306E-14
 -1      2142 6.01000E-03 3.48701E-04-2.05525E-14
 -1      2143 6.08934E-03 3.72154E-04-2.07857E-14
 -1      2144 5.45759E-03 1.27499E-04-1.86801E-14
 -1      2145 5.63621E-03 2.13964E-04-1.91882E-14
 -1      2146 5.06815E-03-5.65784E-05-1.77779E-14
 -1      2147 5.24786E-03 2.85960E-05-1.81619E-14
 -1      2148 4.72214E-03-2.13263E-04-1.70462E-14
 -1      2149 4.88412E-03-1.42805E-04-1.73607E-14
 -1      2150 4.41765E-03-3.28488E-04-1.65430E-14
 -1      2151 4.55228E-03-2.78113E-04-1.67893E-14
 -1      2152 4.20640E-03-4.03726E-04-1.61379E-14
 -1      2153 4.28887E-03-3.77097E-04-1.62713E-14
 -1      2154 4.14636E-03-4.49565E-04-1.60949E-14
 -1      2155 4.15444E-03-4.31379E-04-1.61014E-14
 -1      2156 4.24226E-03-5.01219E-04-1.61777E-14
 -1      2157 4.17821E-03-4.75428E-04-1.61071E-14
 -1      2158 4.49526E-03-5.87972E-04-1.63776E-14
 -1      2159 4.34950E-03-5.41948E-04-1.62761E-14
 -1      2160 4.29369E-03-4.91831E-04-1.58562E-14
 -1      2161 4.92185E-03-7.92582E-04-1.70368E-14
 -1      2162 4.73217E-03-6.87250E-04-1.66648E-14
 -1      2163 5.30377E-03-1.02193E-03-1.77579E-14
 -1      2164 5.10512E-03-9.01510E-04-1.73937E-14
 -1      2165 5.04212E-03-8.10136E-04-1.68618E-14
 -1      2166 5.75122E-03-1.32096E-03-1.87574E-14
 -1      2167 5.54968E-03-1.18424E-03-1.82967E-14
 -1      2168 6.15945E-03-1.58714E-03-1.98780E-14
 -1      2169 5.97650E-03-1.46902E-03-1.93393E-14
 -1      2170 6.52636E-03-1.75960E-03-2.11256E-14
 -1      2171 6.36330E-03-1.69369E-03-2.05357E-14
 -1      2172 6.86430E-03-1.79285E-03-2.24430E-14
 -1      2173 6.70126E-03-1.79540E-03-2.17785E-14
 -1      2174 6.62450E-03-1.79173E-03-2.13871E-14
 -1      2175 7.27752E-03-1.64919E-03-2.41243E-14
 -1      2176 7.10212E-03-1.73524E-03-2.34466E-14
 -1      2177 7.64583E-03-1.43925E-03-2.53348E-14
 -1      2178 7.45657E-03-1.55309E-03-2.47273E-14
 -1      2179 7.36013E-03-1.60949E-03-2.46635E-14
 -1      2180 8.08510E-03-1.18884E-03-2.65796E-14
 -1      2181 7.89819E-03-1.29575E-03-2.60572E-14
 -1      2182 8.46051E-03-1.00640E-03-2.74509E-14
 -1      2183 8.29471E-03-1.08671E-03-2.70327E-14
 -1      2184 8.73881E-03-8.81792E-04-2.82350E-14
 -1      2185 8.61844E-03-9.31646E-04-2.79013E-14
 -1      2186 8.89395E-03-8.10588E-04-2.87388E-14
 -1      2187 8.84787E-03-8.32619E-04-2.86202E-14
 -1      2188 8.90851E-03-8.07448E-04-2.94556E-14
 -1      2189 8.69338E-03-7.07162E-04-2.84871E-14
 -1      2190 8.79360E-03-7.39504E-04-2.86625E-14
 -1      2191 1.56064E-02-3.77325E-03-1.08459E-13
 -1      2192 7.88324E-03-4.18316E-04-2.74178E-14
 -1      2193 6.09491E-04-2.89395E-04-1.95129E-16
 -1      2194 8.28426E-03-6.00387E-04-2.83260E-14
 -1      2195 7.45918E-03-1.84559E-04-2.62734E-14
 -1      2196 6.65952E-04-2.82229E-04-2.70820E-16
 -1      2197 1.40513E-02-2.64650E-03-1.07108E-13
 -1      2198 8.84274E-03-7.78882E-04-2.93423E-14
 -1      2199 1.55539E-02-3.73720E-03-1.08377E-13
 -1      2200 8.61772E-03-7.12832E-04-2.88843E-14
 -1      2201 1.54018E-02-3.66602E-03-1.06836E-13
 -1      2202 8.80604E-03-8.48238E-04-2.89460E-14
 -1      2203 8.53573E-03-9.53560E-04-2.81037E-14
 -1      2204 7.74703E-03-1.36949E-03-2.59999E-14
 -1      2205 6.99702E-03-1.77980E-03-2.30384E-14
 -1      2206 6.28879E-03-1.64694E-03-2.00799E-14
 -1      2207 5.45293E-03-1.07299E-03-1.77411E-14
 -1      2208 4.62266E-03-6.06848E-04-1.62304E-14
 -1      2209 4.52401E-03-5.46535E-04-1.58033E-14
 -1      2210 4.74734E-03-6.34154E-04-1.60795E-14
 -1      2211 4.15516E-03-4.47033E-04-1.57499E-14
 -1      2212 4.17103E-03-4.14197E-04-1.57743E-14
 -1      2213 4.34889E-03-3.61030E-04-1.60755E-14
 -1      2214 4.64439E-03-2.57672E-04-1.65945E-14
 -1      2215 4.98250E-03-1.12947E-04-1.72530E-14
 -1      2216 5.75430E-03 2.65754E-04-1.94174E-14
 -1      2217 5.84415E-03 3.09507E-04-1.96442E-14
 -1      2218 5.65678E-03 2.24764E-04-1.89123E-14
 -1      2219 6.39398E-03 3.66972E-04-2.21689E-14
 -1      2220 7.06818E-03 5.31627E-05-2.49964E-14
 -1      2221 6.72322E-03 2.50682E-04-2.36120E-14
 -1      2222 5.35628E-03 7.17257E-05-1.81732E-14
 -1      2223 5.89800E-03-1.38587E-03-1.88494E-14
 -1      2224 8.17730E-03-1.12351E-03-2.71910E-14
 -1      2225 5.45684E-04-5.13025E-05-3.30221E-16
 -1      2226 5.47175E-04-6.68574E-05-3.27361E-16
 -1      2227 5.49145E-04-8.31303E-05-3.23458E-16
 -1      2228 5.51611E-04-1.00207E-04-3.18254E-16
 -1      2229 6.63199E-04-8.86615E-05-4.41446E-16
 -1      2230 5.43670E-04 7.68446E-06-3.31779E-16
 -1      2231 5.43613E-04-6.84728E-06-3.32837E-16
 -1      2232 5.44867E-04 3.72403E-05-3.26982E-16
 -1      2233 5.44089E-04 2.23578E-05-3.29936E-16
 -1      2234 6.57627E-04 1.76922E-05-4.48101E-16
 -1      2235 5.47523E-04 6.78160E-05-3.18471E-16
 -1      2236 5.46007E-04 5.22899E-05-3.23377E-16
 -1      2237 6.59685E-04 5.27254E-05-4.40837E-16
 -1      2238 5.51999E-04 1.01730E-04-3.05230E-16
 -1      2239 5.49518E-04 8.43604E-05-3.12454E-16
 -1      2240 6.63747E-04 8.98576E-05-4.28382E-16
 -1      2241 5.58986E-04 1.40111E-04-2.85796E-16
 -1      2242 5.55132E-04 1.20282E-04-2.96584E-16
 -1      2243 6.70302E-04 1.30906E-04-4.09950E-16
 -1      2244 5.70230E-04 1.85325E-04-2.57444E-16
 -1      2245 5.63945E-04 1.61739E-04-2.73083E-16
 -1      2246 6.80365E-04 1.77431E-04-3.83076E-16
 -1      2247 5.89989E-04 2.41045E-04-2.16420E-16
 -1      2248 5.78783E-04 2.11680E-04-2.38918E-16
 -1      2249 6.96414E-04 2.31983E-04-3.44532E-16
 -1      2250 6.44023E-04 2.92496E-04-2.04833E-16
 -1      2251 6.16401E-04 2.65146E-04-2.13222E-16
 -1      2252 7.34101E-04 2.87060E-04-3.18105E-16
 -1      2253 7.91150E-04 3.38533E-04-3.08550E-16
 -1      2254 9.19044E-04-3.31069E-04-5.33549E-16
 -1      2255 1.06410E-03-3.61355E-04-7.05233E-16
 -1      2256 8.19701E-03-6.01475E-04-2.88059E-14
 -1      2257 8.37730E-03-6.68237E-04-2.91458E-14
 -1      2258 7.74815E-03-3.86089E-04-2.76615E-14
 -1      2259 7.94634E-03-4.90454E-04-2.82395E-14
 -1      2260 1.20847E-03-3.86507E-04-9.02788E-16
 -1      2261 1.35261E-03-4.06925E-04-1.12658E-15
 -1      2262 1.12168E-03-3.40724E-04-8.33480E-16
 -1      2263 1.49632E-03-4.23443E-04-1.37648E-15
 -1      2264 1.63992E-03-4.36345E-04-1.65287E-15
 -1      2265 1.40993E-03-3.80675E-04-1.28757E-15
 -1      2266 1.78342E-03-4.46280E-04-1.95479E-15
 -1      2267 1.92704E-03-4.53481E-04-2.28279E-15
 -1      2268 1.69754E-03-4.06156E-04-1.84500E-15
 -1      2269 2.07081E-03-4.58438E-04-2.63702E-15
 -1      2270 2.21494E-03-4.61366E-04-3.01790E-15
 -1      2271 1.98489E-03-4.20486E-04-2.50550E-15
 -1      2272 2.35941E-03-4.62662E-04-3.42472E-15
 -1      2273 2.50443E-03-4.62536E-04-3.85751E-15
 -1      2274 2.27244E-03-4.26429E-04-3.27005E-15
 -1      2275 2.64993E-03-4.61363E-04-4.31617E-15
 -1      2276 2.79617E-03-4.59371E-04-4.80060E-15
 -1      2277 2.56055E-03-4.26405E-04-4.13817E-15
 -1      2278 2.94298E-03-4.56983E-04-5.31094E-15
 -1      2279 3.09070E-03-4.54481E-04-5.84682E-15
 -1      2280 2.84940E-03-4.22778E-04-5.10853E-15
 -1      2281 3.23908E-03-4.52434E-04-6.40740E-15
 -1      2282 3.38855E-03-4.51230E-04-6.99262E-15
 -1      2283 3.13903E-03-4.18212E-04-6.18074E-15
 -1      2284 3.54636E-03-4.51771E-04-7.63341E-15
 -1      2285 3.70571E-03-4.54902E-04-8.30145E-15
 -1      2286 3.43674E-03-4.16151E-04-7.38233E-15
 -1      2287 3.85867E-03-4.61502E-04-8.96283E-15
 -1      2288 4.01360E-03-4.72792E-04-9.64901E-15
 -1      2289 3.73569E-03-4.21951E-04-8.68695E-15
 -1      2290 4.17066E-03-4.90272E-04-1.03593E-14
 -1      2291 4.33087E-03-5.16061E-04-1.10938E-14
 -1      2292 4.03019E-03-4.42446E-04-1.00588E-14
 -1      2293 4.49535E-03-5.51731E-04-1.18526E-14
 -1      2294 4.66512E-03-6.01193E-04-1.26368E-14
 -1      2295 4.33228E-03-4.88220E-04-1.15273E-14
 -1      2296 4.84316E-03-6.65577E-04-1.34445E-14
 -1      2297 5.02922E-03-7.51157E-04-1.42773E-14
 -1      2298 4.65262E-03-5.75318E-04-1.30916E-14
 -1      2299 5.22911E-03-8.56703E-04-1.51360E-14
 -1      2300 5.43766E-03-9.90643E-04-1.60202E-14
 -1      2301 5.01045E-03-7.28716E-04-1.47531E-14
 -1      2302 7.83402E-03-1.39949E-03-2.74751E-14
 -1      2303 8.05116E-03-1.30337E-03-2.87232E-14
 -1      2304 8.26136E-03-1.23422E-03-2.99939E-14
 -1      2305 8.45692E-03-1.18681E-03-3.12842E-14
 -1      2306 8.21525E-03-1.19995E-03-2.93856E-14
 -1      2307 8.64387E-03-1.16315E-03-3.25951E-14
 -1      2308 8.82093E-03-1.15741E-03-3.39218E-14
 -1      2309 8.59917E-03-1.11964E-03-3.19673E-14
 -1      2310 8.99164E-03-1.16832E-03-3.52641E-14
 -1      2311 9.15691E-03-1.19119E-03-3.66227E-14
 -1      2312 8.93817E-03-1.11974E-03-3.46194E-14
 -1      2313 9.31837E-03-1.22440E-03-3.79998E-14
 -1      2314 9.47704E-03-1.26536E-03-3.93940E-14
 -1      2315 9.25244E-03-1.17200E-03-3.73381E-14
 -1      2316 9.63340E-03-1.31245E-03-4.08024E-14
 -1      2317 9.78827E-03-1.36424E-03-4.22246E-14
 -1      2318 9.55523E-03-1.25660E-03-4.01220E-14
 -1      2319 9.94158E-03-1.41946E-03-4.36624E-14
 -1      2320 1.00940E-02-1.47734E-03-4.51157E-14
 -1      2321 9.85307E-03-1.36088E-03-4.29671E-14
 -1      2322 1.02452E-02-1.53700E-03-4.65820E-14
 -1      2323 1.03957E-02-1.59800E-03-4.80629E-14
 -1      2324 1.01487E-02-1.47652E-03-4.58712E-14
 -1      2325 1.05452E-02-1.65981E-03-4.95592E-14
 -1      2326 1.06942E-02-1.72217E-03-5.10698E-14
 -1      2327 1.04428E-02-1.59819E-03-4.88334E-14
 -1      2328 1.08423E-02-1.78479E-03-5.25923E-14
 -1      2329 1.09900E-02-1.84752E-03-5.41299E-14
 -1      2330 1.07358E-02-1.72259E-03-5.18520E-14
 -1      2331 1.11370E-02-1.91019E-03-5.56831E-14
 -1      2332 1.12836E-02-1.97272E-03-5.72483E-14
 -1      2333 1.10277E-02-1.84777E-03-5.49264E-14
 -1      2334 1.14297E-02-2.03505E-03-5.88259E-14
 -1      2335 1.15753E-02-2.09712E-03-6.04193E-14
 -1      2336 1.13184E-02-1.97266E-03-5.80554E-14
 -1      2337 1.17279E-02-2.16200E-03-6.21064E-14
 -1      2338 1.18801E-02-2.22655E-03-6.38108E-14
 -1      2339 1.16153E-02-2.09977E-03-6.13183E-14
 -1      2340 1.20247E-02-2.28773E-03-6.54506E-14
 -1      2341 1.21690E-02-2.34861E-03-6.71007E-14
 -1      2342 1.19113E-02-2.22572E-03-6.46446E-14
 -1      2343 1.23132E-02-2.40921E-03-6.87665E-14
 -1      2344 1.24571E-02-2.46953E-03-7.04443E-14
 -1      2345 1.21993E-02-2.34743E-03-6.79492E-14
 -1      2346 1.26009E-02-2.52959E-03-7.21320E-14
 -1      2347 1.27445E-02-2.58940E-03-7.38318E-14
 -1      2348 1.24867E-02-2.46803E-03-7.13015E-14
 -1      2349 1.28879E-02-2.64898E-03-7.55404E-14
 -1      2350 1.30313E-02-2.70835E-03-7.72588E-14
 -1      2351 1.27737E-02-2.58763E-03-7.46979E-14
 -1      2352 1.31746E-02-2.76753E-03-7.89879E-14
 -1      2353 1.33178E-02-2.82653E-03-8.07222E-14
 -1      2354 1.30602E-02-2.70636E-03-7.81341E-14
 -1      2355 1.34609E-02-2.88536E-03-8.24625E-14
 -1      2356 1.36040E-02-2.94405E-03-8.42078E-14
 -1      2357 1.33465E-02-2.82434E-03-8.16050E-14
 -1      2358 1.37470E-02-3.00260E-03-8.59572E-14
 -1      2359 1.38900E-02-3.06103E-03-8.77100E-14
 -1      2360 1.36326E-02-2.94170E-03-8.50953E-14
 -1      2361 1.40329E-02-3.11936E-03-8.94637E-14
 -1      2362 1.41758E-02-3.17760E-03-9.12226E-14
 -1      2363 1.39186E-02-3.05856E-03-8.86000E-14
 -1      2364 1.43187E-02-3.23575E-03-9.29867E-14
 -1      2365 1.44616E-02-3.29383E-03-9.47556E-14
 -1      2366 1.42044E-02-3.17503E-03-9.21187E-14
 -1      2367 1.46045E-02-3.35185E-03-9.65263E-14
 -1      2368 1.47474E-02-3.40983E-03-9.83023E-14
 -1      2369 1.44902E-02-3.29119E-03-9.56554E-14
 -1      2370 1.48902E-02-3.46776E-03-1.00081E-13
 -1      2371 1.50331E-02-3.52566E-03-1.01865E-13
 -1      2372 1.47760E-02-3.40713E-03-9.92091E-14
 -1      2373 1.51460E-02-3.56692E-03-1.03452E-13
 -1      2374 1.52888E-02-3.62478E-03-1.05241E-13
 -1      2375 1.52575E-02-3.58879E-03-1.05756E-13
 -1      2376 1.50317E-02-3.50631E-03-1.02576E-13
 -1      2377 2.04712E-03 4.81770E-04-2.40876E-15
 -1      2378 1.90390E-03 4.74286E-04-2.07336E-15
 -1      2379 1.76082E-03 4.64710E-04-1.76382E-15
 -1      2380 1.61777E-03 4.52793E-04-1.48051E-15
 -1      2381 1.81935E-03 4.33449E-04-1.97173E-15
 -1      2382 1.47463E-03 4.37884E-04-1.22276E-15
 -1      2383 1.33119E-03 4.19714E-04-9.91083E-16
 -1      2384 1.53205E-03 4.09967E-04-1.39802E-15
 -1      2385 2.33442E-03 4.92254E-04-3.15766E-15
 -1      2386 2.19061E-03 4.87681E-04-2.77008E-15
 -1      2387 2.10686E-03 4.48099E-04-2.64834E-15
 -1      2388 2.62341E-03 4.98936E-04-4.01000E-15
 -1      2389 2.47868E-03 4.95927E-04-3.57082E-15
 -1      2390 2.39528E-03 4.56878E-04-3.42811E-15
 -1      2391 2.91457E-03 5.04371E-04-4.96394E-15
 -1      2392 2.76872E-03 5.01672E-04-4.47419E-15
 -1      2393 2.68523E-03 4.62431E-04-4.31041E-15
 -1      2394 3.20821E-03 5.10985E-04-6.02032E-15
 -1      2395 3.06110E-03 5.07396E-04-5.47940E-15
 -1      2396 2.97727E-03 4.67238E-04-5.29432E-15
 -1      2397 3.50442E-03 5.21052E-04-7.17628E-15
 -1      2398 3.35604E-03 5.15463E-04-6.58585E-15
 -1      2399 3.27183E-03 4.73685E-04-6.37871E-15
 -1      2400 3.80303E-03 5.36518E-04-8.43402E-15
 -1      2401 3.65351E-03 5.28014E-04-7.79243E-15
 -1      2402 3.56925E-03 4.84031E-04-7.56330E-15
 -1      2403 4.10346E-03 5.58613E-04-9.79403E-15
 -1      2404 3.95314E-03 5.46700E-04-9.10096E-15
 -1      2405 3.86961E-03 5.00212E-04-8.84865E-15
 -1      2406 4.40465E-03 5.87238E-04-1.12550E-14
 -1      2407 4.25413E-03 5.72180E-04-1.05118E-14
 -1      2408 4.17255E-03 5.23424E-04-1.02351E-14
 -1      2409 4.70495E-03 6.20188E-04-1.28214E-14
 -1      2410 4.55511E-03 6.03405E-04-1.20255E-14
 -1      2411 4.47709E-03 5.53446E-04-1.17235E-14
 -1      2412 5.00236E-03 6.52440E-04-1.44906E-14
 -1      2413 4.85419E-03 6.36829E-04-1.36429E-14
 -1      2414 4.78144E-03 5.87748E-04-1.33156E-14
 -1      2415 5.29500E-03 6.76014E-04-1.62662E-14
 -1      2416 5.14935E-03 6.65911E-04-1.53648E-14
 -1      2417 5.08323E-03 6.20666E-04-1.50114E-14
 -1      2418 5.58204E-03 6.80959E-04-1.81497E-14
 -1      2419 5.43913E-03 6.81467E-04-1.71948E-14
 -1      2420 5.38019E-03 6.43247E-04-1.68139E-14
 -1      2421 5.86444E-03 6.57731E-04-2.01431E-14
 -1      2422 5.72353E-03 6.73361E-04-1.91323E-14
 -1      2423 5.67134E-03 6.44514E-04-1.87254E-14
 -1      2424 6.14503E-03 6.00365E-04-2.22471E-14
 -1      2425 6.00457E-03 6.33475E-04-2.11807E-14
 -1      2426 5.95801E-03 6.14485E-04-2.07456E-14
 -1      2427 6.42745E-03 5.08739E-04-2.44648E-14
 -1      2428 6.28565E-03 5.58586E-04-2.33429E-14
 -1      2429 6.24365E-03 5.47874E-04-2.28789E-14
 -1      2430 6.71460E-03 3.88644E-04-2.67910E-14
 -1      2431 6.57023E-03 4.51700E-04-2.56151E-14
 -1      2432 6.53225E-03 4.46348E-04-2.51252E-14
 -1      2433 7.00758E-03 2.49529E-04-2.92196E-14
 -1      2434 6.86036E-03 3.20812E-04-2.79931E-14
 -1      2435 6.82640E-03 3.17791E-04-2.74780E-14
 -1      2436 7.30563E-03 1.01404E-04-3.17465E-14
 -1      2437 7.15611E-03 1.76028E-04-3.04702E-14
 -1      2438 7.12630E-03 1.73100E-04-2.99308E-14
 -1      2439 7.60699E-03-4.76035E-05-3.43669E-14
 -1      2440 7.45610E-03 2.66232E-05-3.30453E-14
 -1      2441 7.43024E-03 2.25948E-05-3.24819E-14
 -1      2442 7.90967E-03-1.92255E-04-3.70819E-14
 -1      2443 7.75835E-03-1.20677E-04-3.57131E-14
 -1      2444 7.73582E-03-1.26184E-04-3.51265E-14
 -1      2445 8.21207E-03-3.30066E-04-3.98815E-14
 -1      2446 8.06105E-03-2.62077E-04-3.84708E-14
 -1      2447 8.04091E-03-2.68981E-04-3.78609E-14
 -1      2448 8.51316E-03-4.60576E-04-4.27603E-14
 -1      2449 8.36288E-03-3.96205E-04-4.13119E-14
 -1      2450 8.34415E-03-4.04238E-04-4.06811E-14
 -1      2451 8.81237E-03-5.84545E-04-4.57145E-14
 -1      2452 8.66305E-03-5.23307E-04-4.42276E-14
 -1      2453 8.64490E-03-5.32165E-04-4.35778E-14
 -1      2454 9.10953E-03-7.03291E-04-4.87397E-14
 -1      2455 8.96123E-03-6.44487E-04-4.72180E-14
 -1      2456 8.94304E-03-6.53894E-04-4.65465E-14
 -1      2457 9.40468E-03-8.18246E-04-5.18336E-14
 -1      2458 9.25736E-03-7.61162E-04-5.02783E-14
 -1      2459 9.23876E-03-7.70892E-04-4.95861E-14
 -1      2460 9.69798E-03-9.30711E-04-5.49919E-14
 -1      2461 9.55155E-03-8.74722E-04-5.34046E-14
 -1      2462 9.53236E-03-8.84597E-04-5.26931E-14
 -1      2463 9.98967E-03-1.04175E-03-5.82081E-14
 -1      2464 9.84401E-03-9.86355E-04-5.65939E-14
 -1      2465 9.82419E-03-9.96245E-04-5.58613E-14
 -1      2466 1.02800E-02-1.15215E-03-6.14742E-14
 -1      2467 1.01350E-02-1.09699E-03-5.98346E-14
 -1      2468 1.01146E-02-1.10680E-03-5.90844E-14
 -1      2469 1.05692E-02-1.26247E-03-6.47892E-14
 -1      2470 1.04247E-02-1.20730E-03-6.31259E-14
 -1      2471 1.04038E-02-1.21698E-03-6.23581E-14
 -1      2472 1.08575E-02-1.37307E-03-6.81500E-14
 -1      2473 1.07134E-02-1.31772E-03-6.64640E-14
 -1      2474 1.06922E-02-1.32724E-03-6.56799E-14
 -1      2475 1.11450E-02-1.48414E-03-7.15505E-14
 -1      2476 1.10013E-02-1.42854E-03-6.98452E-14
 -1      2477 1.09798E-02-1.43788E-03-6.90452E-14
 -1      2478 1.14320E-02-1.59577E-03-7.49884E-14
 -1      2479 1.12886E-02-1.53988E-03-7.32657E-14
 -1      2480 1.12669E-02-1.54906E-03-7.24518E-14
 -1      2481 1.17186E-02-1.70798E-03-7.84565E-14
 -1      2482 1.15754E-02-1.65181E-03-7.67182E-14
 -1      2483 1.15536E-02-1.66083E-03-7.58935E-14
 -1      2484 1.20049E-02-1.82074E-03-8.19523E-14
 -1      2485 1.18618E-02-1.76430E-03-8.02017E-14
 -1      2486 1.18399E-02-1.77318E-03-7.93669E-14
 -1      2487 1.22910E-02-1.93399E-03-8.54678E-14
 -1      2488 1.21480E-02-1.87731E-03-8.37071E-14
 -1      2489 1.21261E-02-1.88607E-03-8.28641E-14
 -1      2490 1.25769E-02-2.04765E-03-8.90020E-14
 -1      2491 1.24340E-02-1.99077E-03-8.72331E-14
 -1      2492 1.24121E-02-1.99943E-03-8.63823E-14
 -1      2493 1.28627E-02-2.16166E-03-9.25578E-14
 -1      2494 1.27198E-02-2.10462E-03-9.07781E-14
 -1      2495 1.26979E-02-2.11320E-03-8.99213E-14
 -1      2496 1.31485E-02-2.27593E-03-9.61216E-14
 -1      2497 1.30056E-02-2.21876E-03-9.43377E-14
 -1      2498 1.29837E-02-2.22729E-03-9.34750E-14
 -1      2499 1.34342E-02-2.39039E-03-9.96935E-14
 -1      2500 1.32914E-02-2.33314E-03-9.79075E-14
 -1      2501 1.32695E-02-2.34162E-03-9.70388E-14
 -1      2502 1.37199E-02-2.50498E-03-1.03264E-13
 -1      2503 1.35771E-02-2.44767E-03-1.01479E-13
 -1      2504 1.35552E-02-2.45613E-03-1.00610E-13
 -1      2505 1.39351E-02-2.60103E-03-1.05617E-13
 -1      2506 1.43129E-02-2.88622E-03-1.05721E-13
 -1      2507 1.42565E-02-2.84409E-03-1.05694E-13
 -1      2508 1.42010E-02-2.80267E-03-1.05664E-13
 -1      2509 1.41456E-02-2.76124E-03-1.05639E-13
 -1      2510 1.41055E-02-2.77403E-03-1.04127E-13
 -1      2511 1.40892E-02-2.71910E-03-1.05609E-13
 -1      2512 1.40328E-02-2.67696E-03-1.05576E-13
 -1      2513 1.39936E-02-2.69050E-03-1.04072E-13
 -1      2514 8.79677E-03-7.84401E-04-2.97954E-14
 -1      2515 8.87795E-03-8.01777E-04-3.00311E-14
 -1      2516 1.44259E-02-2.97047E-03-1.05776E-13
 -1      2517 1.43694E-02-2.92835E-03-1.05749E-13
 -1      2518 1.42174E-02-2.85754E-03-1.04179E-13
 -1      2519 1.45390E-02-3.05471E-03-1.05822E-13
 -1      2520 1.44824E-02-3.01259E-03-1.05801E-13
 -1      2521 1.43305E-02-2.94174E-03-1.04230E-13
 -1      2522 1.46522E-02-3.13895E-03-1.05858E-13
 -1      2523 1.45956E-02-3.09683E-03-1.05840E-13
 -1      2524 1.44436E-02-3.02592E-03-1.04271E-13
 -1      2525 1.47656E-02-3.22319E-03-1.05881E-13
 -1      2526 1.47089E-02-3.18107E-03-1.05871E-13
 -1      2527 1.45568E-02-3.11011E-03-1.04303E-13
 -1      2528 1.48771E-02-3.30602E-03-1.05887E-13
 -1      2529 1.48213E-02-3.26460E-03-1.05887E-13
 -1      2530 1.46693E-02-3.19358E-03-1.04322E-13
 -1      2531 1.49907E-02-3.39028E-03-1.05875E-13
 -1      2532 1.49339E-02-3.34815E-03-1.05883E-13
 -1      2533 1.47818E-02-3.27708E-03-1.04326E-13
 -1      2534 1.51044E-02-3.47456E-03-1.05848E-13
 -1      2535 1.50476E-02-3.43242E-03-1.05862E-13
 -1      2536 1.48954E-02-3.36131E-03-1.04312E-13
 -1      2537 1.52094E-02-3.55275E-03-1.05790E-13
 -1      2538 1.51525E-02-3.51060E-03-1.05811E-13
 -1      2539 1.50003E-02-3.43946E-03-1.04266E-13
 -1      2540 1.50965E-02-3.51152E-03-1.04199E-13
 -1      2541 8.85754E-03-8.39139E-04-2.97496E-14
 -1      2542 8.75350E-03-8.67074E-04-2.93582E-14
 -1      2543 5.90687E-04-2.28741E-04-2.53215E-16
 -1      2544 7.84413E-04-2.92082E-04-4.05451E-16
 -1      2545 8.43922E-04-2.79548E-04-5.01552E-16
 -1      2546 5.81010E-04-2.00949E-04-2.72623E-16
 -1      2547 7.35849E-03-1.59337E-04-2.64904E-14
 -1      2548 7.55206E-03-2.76012E-04-2.70727E-14
 -1      2549 7.64767E-03-3.48026E-04-2.78817E-14
 -1      2550 8.92284E-03-8.19159E-04-3.02435E-14
 -1      2551 8.91525E-03-8.22963E-04-3.01221E-14
 -1      2552 6.39234E-03-1.70201E-03-2.02568E-14
 -1      2553 6.22648E-03-1.59550E-03-1.96059E-14
 -1      2554 4.16475E-03-4.32032E-04-1.53021E-14
 -1      2555 4.13360E-03-4.24127E-04-1.52921E-14
 -1      2556 6.31265E-03 3.85830E-04-2.18516E-14
 -1      2557 6.46087E-03 3.52213E-04-2.26079E-14
 -1      2558 5.43923E-04-2.14489E-05-3.32809E-16
 -1      2559 5.44603E-04-3.61915E-05-3.31874E-16
 -1      2560 6.59254E-04-5.18126E-05-4.48562E-16
 -1      2561 6.57461E-04-1.68234E-05-4.50676E-16
 -1      2562 6.62516E-03 2.89839E-04-2.33818E-14
 -1      2563 6.77134E-03 2.11544E-04-2.40688E-14
 -1      2564 5.25435E-03 1.98086E-05-1.76162E-14
 -1      2565 5.43349E-03 1.15610E-04-1.81194E-14
 -1      2566 6.94214E-03 1.06561E-04-2.48942E-14
 -1      2567 7.10996E-03-4.73276E-06-2.55978E-14
 -1      2568 6.02330E-03 3.69006E-04-2.04060E-14
 -1      2569 6.14921E-03 3.91082E-04-2.10328E-14
 -1      2570 6.01826E-03-1.44721E-03-1.88718E-14
 -1      2571 5.82771E-03-1.30175E-03-1.83007E-14
 -1      2572 4.90449E-03-1.49577E-04-1.67333E-14
 -1      2573 5.07009E-03-7.15080E-05-1.71368E-14
 -1      2574 4.54963E-03-2.93441E-04-1.60281E-14
 -1      2575 4.69969E-03-2.36481E-04-1.62725E-14
 -1      2576 4.28569E-03-3.72392E-04-1.55020E-14
 -1      2577 4.40756E-03-3.41049E-04-1.57643E-14
 -1      2578 4.45250E-03-3.10443E-04-1.54504E-14
 -1      2579 4.13802E-03-4.12935E-04-1.53269E-14
 -1      2580 4.18171E-03-4.01347E-04-1.53609E-14
 -1      2581 4.11876E-03-4.04301E-04-1.48829E-14
 -1      2582 4.33860E-03-4.77694E-04-1.54737E-14
 -1      2583 4.23876E-03-4.53155E-04-1.53821E-14
 -1      2584 5.15539E-03-8.42219E-04-1.67043E-14
 -1      2585 4.98541E-03-7.44796E-04-1.63590E-14
 -1      2586 8.29506E-03-1.05572E-03-2.80165E-14
 -1      2587 8.11510E-03-1.15126E-03-2.75521E-14
 -1      2588 5.59759E-03-1.13455E-03-1.76867E-14
 -1      2589 5.37793E-03-9.81196E-04-1.71625E-14
 -1      2590 7.87592E-03-1.29097E-03-2.68107E-14
 -1      2591 7.66498E-03-1.42809E-03-2.60736E-14
 -1      2592 8.60438E-03-9.21783E-04-2.89337E-14
 -1      2593 8.45543E-03-9.81146E-04-2.84750E-14
 -1      2594 8.39916E-03-1.01896E-03-2.88430E-14
 -1      2595 8.55027E-03-7.22505E-04-2.93993E-14
 -1      2596 8.68382E-03-7.57287E-04-2.96270E-14
 -1      2597 1.39132E-02-2.60948E-03-1.04752E-13
 -1      2598 6.69691E-04-1.28888E-04-4.28151E-16
 -1      2599 5.54703E-04-1.18367E-04-3.11478E-16
 -1      2600 5.58510E-04-1.37794E-04-3.02818E-16
 -1      2601 7.22724E-03-9.07473E-05-2.63809E-14
 -1      2602 9.05865E-04 3.64804E-04-4.15466E-16
 -1      2603 8.76716E-04 3.38628E-04-4.21009E-16
 -1      2604 1.02027E-03 3.86615E-04-5.40190E-16
 -1      2605 8.07198E-03-5.62328E-04-2.90530E-14
 -1      2606 8.47404E-03-7.16233E-04-2.98865E-14
 -1      2607 8.69796E-03-8.98829E-04-2.97364E-14
 -1      2608 7.73013E-03-1.44082E-03-2.68600E-14
 -1      2609 7.90480E-03-1.31343E-03-2.74999E-14
 -1      2610 5.67633E-03-1.15952E-03-1.69284E-14
 -1      2611 5.90099E-03-1.33402E-03-1.78723E-14
 -1      2612 6.20060E-03-1.56924E-03-1.90418E-14
 -1      2613 6.39651E-03-1.70226E-03-1.99560E-14
 -1      2614 6.52392E-03-1.77120E-03-2.06317E-14
 -1      2615 6.71660E-03-1.82969E-03-2.15929E-14
 -1      2616 8.91553E-03-8.23333E-04-3.07013E-14
 -1      2617 8.74974E-03-7.88293E-04-3.03159E-14
 -1      2618 8.90129E-03-8.41495E-04-3.05402E-14
 -1      2619 5.73423E-04-1.76194E-04-2.88167E-16
 -1      2620 1.23261E-03 4.13364E-04-8.29875E-16
 -1      2621 1.11892E-03 3.98411E-04-6.71067E-16
 -1      2622 1.09060E-03 3.72921E-04-6.74604E-16
 -1      2623 1.28903E-03 3.89174E-04-9.77110E-16
 -1      2624 8.02447E-03-1.21839E-03-2.76282E-14
 -1      2625 1.38177E-02-2.58090E-03-1.03220E-13
 -1      2626 6.13210E-03-1.52186E-03-1.90383E-14
 -1      2627 5.29235E-03-9.09330E-04-1.66479E-14
 -1      2628 4.21288E-03-3.77886E-04-1.50556E-14
 -1      2629 4.77997E-03-1.89298E-04-1.61590E-14
 -1      2630 4.18571E-03-4.23766E-04-1.49259E-14
 -1      2631 4.85463E-03-6.65382E-04-1.59255E-14
 -1      2632 4.73209E-03-6.00509E-04-1.54984E-14
 -1      2633 4.94866E-03-7.01750E-04-1.57677E-14
 -1      2634 5.91979E-03 3.46281E-04-1.98833E-14
 -1      2635 6.52534E-03 3.25262E-04-2.30518E-14
 -1      2636 6.83971E-03 1.59403E-04-2.46546E-14
 -1      2637 6.22680E-03 3.95307E-04-2.14566E-14
 -1      2638 5.53968E-03 1.77030E-04-1.83371E-14
 -1      2639 5.62566E-03 2.33528E-04-1.85537E-14
 -1      2640 5.42273E-03 1.33748E-04-1.77724E-14
 -1      2641 5.15147E-03-1.73983E-05-1.70843E-14
 -1      2642 4.42941E-03-4.93695E-04-1.53246E-14
 -1      2643 4.34676E-03-4.56178E-04-1.48537E-14
 -1      2644 4.52524E-03-5.15697E-04-1.51734E-14
 -1      2645 6.68107E-03-1.80907E-03-2.15861E-14
 -1      2646 6.53642E-03-1.76835E-03-2.09365E-14
 -1      2647 7.47543E-03-1.55593E-03-2.53801E-14
 -1      2648 7.33585E-03-1.64906E-03-2.47644E-14
 -1      2649 5.44408E-03-9.96428E-04-1.65113E-14
 -1      2650 6.45653E-03-1.73487E-03-2.04477E-14
 -1      2651 6.79740E-03-1.83425E-03-2.20551E-14
 -1      2652 7.62318E-03-1.48214E-03-2.61764E-14
 -1      2653 6.91851E-03-1.80934E-03-2.26819E-14
 -1      2654 6.92646E-03-1.83121E-03-2.26901E-14
 -1      2655 7.14010E-03-1.77123E-03-2.38229E-14
 -1      2656 7.76525E-04 7.05806E-05-5.72174E-16
 -1      2657 7.74635E-04 5.02282E-05-5.78273E-16
 -1      2658 7.73310E-04 2.99849E-05-5.82854E-16
 -1      2659 7.72597E-04 1.00880E-05-5.85984E-16
 -1      2660 8.90598E-04 4.44784E-05-7.35347E-16
 -1      2661 7.91388E-04 1.61959E-04-5.30310E-16
 -1      2662 7.86434E-04 1.37367E-04-5.43944E-16
 -1      2663 8.04987E-04 2.16112E-04-4.94599E-16
 -1      2664 7.97560E-04 1.88141E-04-5.14156E-16
 -1      2665 9.15012E-04 1.94441E-04-6.65768E-16
 -1      2666 8.48886E-04 3.13436E-04-4.24397E-16
 -1      2667 8.22513E-04 2.89122E-04-4.25617E-16
 -1      2668 9.63651E-04 3.35714E-04-5.47712E-16
 -1      2669 6.01677E-03-1.42520E-03-1.83207E-14
 -1      2670 7.11863E-03-2.78221E-05-2.62818E-14
 -1      2671 7.33822E-03-1.70317E-04-2.71887E-14
 -1      2672 7.12295E-03-1.74679E-03-2.36935E-14
 -1      2673 8.43012E-03-7.17134E-04-3.05916E-14
 -1      2674 8.58102E-03-7.63078E-04-3.08548E-14
 -1      2675 1.32464E-03-3.38502E-04-1.19735E-15
 -1      2676 1.46846E-03-3.53970E-04-1.45317E-15
 -1      2677 1.61212E-03-3.66311E-04-1.73438E-15
 -1      2678 1.75574E-03-3.75752E-04-2.04109E-15
 -1      2679 1.52766E-03-3.26905E-04-1.62316E-15
 -1      2680 1.89918E-03-3.82777E-04-2.37341E-15
 -1      2681 2.04257E-03-3.87579E-04-2.73144E-15
 -1      2682 1.81415E-03-3.45323E-04-2.24095E-15
 -1      2683 2.18578E-03-3.90586E-04-3.11545E-15
 -1      2684 2.32894E-03-3.91970E-04-3.52522E-15
 -1      2685 2.09987E-03-3.54993E-04-2.96083E-15
 -1      2686 2.47189E-03-3.92135E-04-3.96012E-15
 -1      2687 2.61475E-03-3.91242E-04-4.42052E-15
 -1      2688 2.38437E-03-3.58243E-04-3.78217E-15
 -1      2689 2.75731E-03-3.89723E-04-4.90704E-15
 -1      2690 2.89971E-03-3.87745E-04-5.41816E-15
 -1      2691 2.66710E-03-3.57310E-04-4.70551E-15
 -1      2692 3.04165E-03-3.85829E-04-5.95444E-15
 -1      2693 3.18333E-03-3.84170E-04-6.51596E-15
 -1      2694 2.94729E-03-3.54529E-04-5.72917E-15
 -1      2695 3.33141E-03-3.83442E-04-7.13194E-15
 -1      2696 3.47913E-03-3.84091E-04-7.77507E-15
 -1      2697 3.23079E-03-3.52568E-04-6.88211E-15
 -1      2698 3.61904E-03-3.86911E-04-8.41211E-15
 -1      2699 3.75881E-03-3.92374E-04-9.07374E-15
 -1      2700 3.50937E-03-3.55054E-04-8.13822E-15
 -1      2701 3.89804E-03-4.01558E-04-9.75981E-15
 -1      2702 4.03792E-03-4.15389E-04-1.04697E-14
 -1      2703 3.77566E-03-3.66108E-04-9.46159E-15
 -1      2704 4.17833E-03-4.34951E-04-1.12037E-14
 -1      2705 4.32164E-03-4.62531E-04-1.19611E-14
 -1      2706 4.03731E-03-3.91081E-04-1.08812E-14
 -1      2707 4.46845E-03-4.98942E-04-1.27409E-14
 -1      2708 4.62251E-03-5.48984E-04-1.35455E-14
 -1      2709 4.29928E-03-4.37795E-04-1.23941E-14
 -1      2710 5.81243E-03-1.27245E-03-1.78709E-14
 -1      2711 7.21281E-03-1.72438E-03-2.41927E-14
 -1      2712 8.90067E-03-8.33715E-04-3.13926E-14
 -1      2713 8.95443E-03-8.44090E-04-3.16090E-14
 -1      2714 7.33957E-03-1.68090E-03-2.48966E-14
 -1      2715 7.57112E-03-1.55890E-03-2.61510E-14
 -1      2716 8.11283E-03-1.18582E-03-2.82540E-14
 -1      2717 8.58101E-03-1.06508E-03-3.13452E-14
 -1      2718 8.74683E-03-1.05608E-03-3.26549E-14
 -1      2719 8.90291E-03-1.06552E-03-3.39815E-14
 -1      2720 9.05299E-03-1.08591E-03-3.53220E-14
 -1      2721 8.88137E-03-1.01064E-03-3.33397E-14
 -1      2722 9.19856E-03-1.11664E-03-3.66807E-14
 -1      2723 9.34232E-03-1.15460E-03-3.80565E-14
 -1      2724 9.15469E-03-1.06346E-03-3.60234E-14
 -1      2725 9.48453E-03-1.19873E-03-3.94469E-14
 -1      2726 9.62669E-03-1.24764E-03-4.08539E-14
 -1      2727 9.42147E-03-1.14418E-03-3.87724E-14
 -1      2728 9.76853E-03-1.30022E-03-4.22753E-14
 -1      2729 9.91091E-03-1.35580E-03-4.37125E-14
 -1      2730 9.69007E-03-1.24291E-03-4.15832E-14
 -1      2731 1.00534E-02-1.41346E-03-4.51650E-14
 -1      2732 1.01964E-02-1.47287E-03-4.66301E-14
 -1      2733 9.96296E-03-1.35333E-03-4.44571E-14
 -1      2734 1.03395E-02-1.53337E-03-4.81112E-14
 -1      2735 1.04831E-02-1.59476E-03-4.96073E-14
 -1      2736 1.02401E-02-1.47090E-03-4.73882E-14
 -1      2737 1.06267E-02-1.65661E-03-5.11143E-14
 -1      2738 1.07706E-02-1.71882E-03-5.26365E-14
 -1      2739 1.05206E-02-1.59244E-03-5.03774E-14
 -1      2740 1.09144E-02-1.78113E-03-5.41729E-14
 -1      2741 1.10584E-02-1.84346E-03-5.57245E-14
 -1      2742 1.08035E-02-1.71582E-03-5.34213E-14
 -1      2743 1.12022E-02-1.90569E-03-5.72894E-14
 -1      2744 1.13462E-02-1.96776E-03-5.88648E-14
 -1      2745 1.10879E-02-1.83969E-03-5.65211E-14
 -1      2746 1.14972E-02-2.03269E-03-6.05361E-14
 -1      2747 1.16481E-02-2.09736E-03-6.22229E-14
 -1      2748 1.13804E-02-1.96630E-03-5.97538E-14
 -1      2749 1.17918E-02-2.15868E-03-6.38455E-14
 -1      2750 1.19354E-02-2.21972E-03-6.54838E-14
 -1      2751 1.16733E-02-2.09211E-03-6.30480E-14
 -1      2752 1.20790E-02-2.28049E-03-6.71333E-14
 -1      2753 1.22224E-02-2.34099E-03-6.87972E-14
 -1      2754 1.19594E-02-2.21389E-03-6.63200E-14
 -1      2755 1.23658E-02-2.40123E-03-7.04732E-14
 -1      2756 1.25092E-02-2.46122E-03-7.21610E-14
 -1      2757 1.22455E-02-2.33466E-03-6.96461E-14
 -1      2758 1.26524E-02-2.52098E-03-7.38590E-14
 -1      2759 1.27956E-02-2.58051E-03-7.55661E-14
 -1      2760 1.25316E-02-2.45448E-03-7.30184E-14
 -1      2761 1.29388E-02-2.63984E-03-7.72850E-14
 -1      2762 1.30819E-02-2.69898E-03-7.90126E-14
 -1      2763 1.28176E-02-2.57342E-03-7.64350E-14
 -1      2764 1.32250E-02-2.75794E-03-8.07451E-14
 -1      2765 1.33680E-02-2.81675E-03-8.24858E-14
 -1      2766 1.31036E-02-2.69161E-03-7.98863E-14
 -1      2767 1.35110E-02-2.87541E-03-8.42323E-14
 -1      2768 1.36540E-02-2.93394E-03-8.59836E-14
 -1      2769 1.33895E-02-2.80916E-03-8.33684E-14
 -1      2770 1.37969E-02-2.99236E-03-8.77363E-14
 -1      2771 1.39399E-02-3.05067E-03-8.94913E-14
 -1      2772 1.36754E-02-2.92617E-03-8.68694E-14
 -1      2773 1.40828E-02-3.10889E-03-9.12515E-14
 -1      2774 1.42257E-02-3.16702E-03-9.30183E-14
 -1      2775 1.39612E-02-3.04276E-03-9.03837E-14
 -1      2776 1.43686E-02-3.22509E-03-9.47873E-14
 -1      2777 1.45115E-02-3.28310E-03-9.65607E-14
 -1      2778 1.42470E-02-3.15901E-03-9.39162E-14
 -1      2779 1.46543E-02-3.34107E-03-9.83392E-14
 -1      2780 1.47972E-02-3.39899E-03-1.00120E-13
 -1      2781 1.45328E-02-3.27501E-03-9.74664E-14
 -1      2782 1.48904E-02-3.43464E-03-1.01365E-13
 -1      2783 1.50033E-02-3.47590E-03-1.02952E-13
 -1      2784 1.49552E-02-3.43987E-03-1.02983E-13
 -1      2785 1.47688E-02-3.36860E-03-1.00492E-13
 -1      2786 1.87875E-03 4.01624E-04-2.18381E-15
 -1      2787 1.73478E-03 3.92721E-04-1.86822E-15
 -1      2788 2.16699E-03 4.13937E-04-2.89155E-15
 -1      2789 2.02279E-03 4.08620E-04-2.52494E-15
 -1      2790 1.93873E-03 3.69363E-04-2.40027E-15
 -1      2791 1.59086E-03 3.81408E-04-1.57812E-15
 -1      2792 1.44688E-03 3.67439E-04-1.31354E-15
 -1      2793 1.65059E-03 3.52296E-04-1.76339E-15
 -1      2794 2.74676E-03 4.25477E-04-4.61365E-15
 -1      2795 2.60123E-03 4.23468E-04-4.14511E-15
 -1      2796 3.03952E-03 4.29588E-04-5.62708E-15
 -1      2797 2.89285E-03 4.27432E-04-5.10769E-15
 -1      2798 2.80799E-03 3.88103E-04-4.92045E-15
 -1      2799 3.33504E-03 4.35729E-04-6.74019E-15
 -1      2800 3.18692E-03 4.32261E-04-6.17120E-15
 -1      2801 3.10138E-03 3.91397E-04-5.96256E-15
 -1      2802 3.63390E-03 4.46158E-04-7.95207E-15
 -1      2803 3.48406E-03 4.40267E-04-7.33337E-15
 -1      2804 3.39792E-03 3.97046E-04-7.10349E-15
 -1      2805 3.93646E-03 4.62850E-04-9.26532E-15
 -1      2806 3.78477E-03 4.53605E-04-8.59638E-15
 -1      2807 3.69848E-03 4.07337E-04-8.34340E-15
 -1      2808 4.24258E-03 4.87053E-04-1.06780E-14
 -1      2809 4.08919E-03 4.73964E-04-9.95913E-15
 -1      2810 4.00371E-03 4.24359E-04-9.68324E-15
 -1      2811 4.55127E-03 5.18533E-04-1.21928E-14
 -1      2812 4.39679E-03 5.01974E-04-1.14226E-14
 -1      2813 4.31364E-03 4.49533E-04-1.11223E-14
 -1      2814 4.86046E-03 5.54512E-04-1.38107E-14
 -1      2815 4.70605E-03 5.36279E-04-1.29887E-14
 -1      2816 4.62719E-03 4.82733E-04-1.26630E-14
 -1      2817 5.16719E-03 5.88609E-04-1.55337E-14
 -1      2818 5.01437E-03 5.72394E-04-1.46594E-14
 -1      2819 4.94179E-03 5.20941E-04-1.43076E-14
 -1      2820 5.46861E-03 6.10626E-04-1.73633E-14
 -1      2821 5.31866E-03 6.01954E-04-1.64347E-14
 -1      2822 5.25368E-03 5.56850E-04-1.60571E-14
 -1      2823 5.76362E-03 6.08196E-04-1.93023E-14
 -1      2824 5.61675E-03 6.13308E-04-1.83188E-14
 -1      2825 5.55937E-03 5.78561E-04-1.79140E-14
 -1      2826 6.05411E-03 5.70620E-04-2.13508E-14
 -1      2827 5.90899E-03 5.94272E-04-2.03130E-14
 -1      2828 5.85787E-03 5.71811E-04-1.98803E-14
 -1      2829 6.34456E-03 4.93631E-04-2.35136E-14
 -1      2830 6.19884E-03 5.36982E-04-2.24181E-14
 -1      2831 6.15211E-03 5.25351E-04-2.19582E-14
 -1      2832 6.63939E-03 3.81212E-04-2.57865E-14
 -1      2833 6.49109E-03 4.41229E-04-2.46364E-14
 -1      2834 6.44777E-03 4.36465E-04-2.41489E-14
 -1      2835 6.94073E-03 2.43843E-04-2.81647E-14
 -1      2836 6.78922E-03 3.14784E-04-2.69624E-14
 -1      2837 6.74956E-03 3.12318E-04-2.64488E-14
 -1      2838 7.24756E-03 9.39590E-05-3.06448E-14
 -1      2839 7.09364E-03 1.69700E-04-2.93930E-14
 -1      2840 7.05854E-03 1.66355E-04-2.88542E-14
 -1      2841 7.55709E-03-5.81142E-05-3.32183E-14
 -1      2842 7.40225E-03 1.76768E-05-3.19193E-14
 -1      2843 7.37227E-03 1.22056E-05-3.13590E-14
 -1      2844 7.86638E-03-2.05765E-04-3.58855E-14
 -1      2845 7.71201E-03-1.32744E-04-3.45405E-14
 -1      2846 7.68690E-03-1.40257E-04-3.39558E-14
 -1      2847 8.17332E-03-3.45966E-04-3.86426E-14
 -1      2848 8.02030E-03-2.76858E-04-3.72546E-14
 -1      2849 7.99915E-03-2.85769E-04-3.66472E-14
 -1      2850 8.47689E-03-4.78170E-04-4.14803E-14
 -1      2851 8.32561E-03-4.13018E-04-4.00502E-14
 -1      2852 8.30715E-03-4.22681E-04-3.94241E-14
 -1      2853 8.77693E-03-6.03241E-04-4.43940E-14
 -1      2854 8.62738E-03-5.41502E-04-4.29290E-14
 -1      2855 8.61041E-03-5.51463E-04-4.22806E-14
 -1      2856 9.07377E-03-7.22628E-04-4.73774E-14
 -1      2857 8.92574E-03-6.63541E-04-4.58768E-14
 -1      2858 8.90928E-03-6.73544E-04-4.52101E-14
 -1      2859 9.36792E-03-8.37884E-04-5.04311E-14
 -1      2860 9.22116E-03-7.80679E-04-4.88955E-14
 -1      2861 9.20452E-03-7.90602E-04-4.82085E-14
 -1      2862 9.65994E-03-9.50405E-04-5.35493E-14
 -1      2863 9.51417E-03-8.94410E-04-5.19826E-14
 -1      2864 9.49696E-03-9.04206E-04-5.12745E-14
 -1      2865 9.95031E-03-1.06133E-03-5.67265E-14
 -1      2866 9.80530E-03-1.00601E-03-5.51308E-14
 -1      2867 9.78734E-03-1.01566E-03-5.44037E-14
 -1      2868 1.02394E-02-1.17150E-03-5.99579E-14
 -1      2869 1.00950E-02-1.11647E-03-5.83362E-14
 -1      2870 1.00763E-02-1.12597E-03-5.75904E-14
 -1      2871 1.05276E-02-1.28154E-03-6.32393E-14
 -1      2872 1.03836E-02-1.22651E-03-6.15930E-14
 -1      2873 1.03641E-02-1.23588E-03-6.08308E-14
 -1      2874 1.08151E-02-1.39181E-03-6.65695E-14
 -1      2875 1.06715E-02-1.33663E-03-6.48987E-14
 -1      2876 1.06513E-02-1.34586E-03-6.41197E-14
 -1      2877 1.11021E-02-1.50256E-03-6.99378E-14
 -1      2878 1.09587E-02-1.44712E-03-6.82484E-14
 -1      2879 1.09381E-02-1.45622E-03-6.74551E-14
 -1      2880 1.13888E-02-1.61389E-03-7.33522E-14
 -1      2881 1.12455E-02-1.55815E-03-7.16405E-14
 -1      2882 1.12245E-02-1.56713E-03-7.08312E-14
 -1      2883 1.16751E-02-1.72582E-03-7.67969E-14
 -1      2884 1.15320E-02-1.66978E-03-7.50691E-14
 -1      2885 1.15106E-02-1.67865E-03-7.42478E-14
 -1      2886 1.19613E-02-1.83834E-03-8.02755E-14
 -1      2887 1.18182E-02-1.78201E-03-7.85333E-14
 -1      2888 1.17967E-02-1.79078E-03-7.77013E-14
 -1      2889 1.22473E-02-1.95138E-03-8.37758E-14
 -1      2890 1.21043E-02-1.89480E-03-8.20240E-14
 -1      2891 1.20826E-02-1.90348E-03-8.11838E-14
 -1      2892 1.25332E-02-2.06488E-03-8.72957E-14
 -1      2893 1.23902E-02-2.00808E-03-8.55328E-14
 -1      2894 1.23685E-02-2.01668E-03-8.46859E-14
 -1      2895 1.28190E-02-2.17875E-03-9.08380E-14
 -1      2896 1.26761E-02-2.12177E-03-8.90649E-14
 -1      2897 1.26543E-02-2.13032E-03-8.82093E-14
 -1      2898 1.31048E-02-2.29292E-03-9.43906E-14
 -1      2899 1.29619E-02-2.23580E-03-9.26126E-14
 -1      2900 1.29401E-02-2.24430E-03-9.17508E-14
 -1      2901 1.33905E-02-2.40732E-03-9.79586E-14
 -1      2902 1.32476E-02-2.35010E-03-9.61748E-14
 -1      2903 1.32258E-02-2.35856E-03-9.53074E-14
 -1      2904 1.36755E-02-2.52273E-03-1.01480E-13
 -1      2905 1.35327E-02-2.46543E-03-9.96944E-14
 -1      2906 1.35108E-02-2.47388E-03-9.88262E-14
 -1      2907 1.37951E-02-2.59018E-03-1.02304E-13
 -1      2908 1.40095E-02-2.74502E-03-1.02586E-13
 -1      2909 1.39540E-02-2.70364E-03-1.02562E-13
 -1      2910 1.42350E-02-2.91298E-03-1.02682E-13
 -1      2911 1.41785E-02-2.87091E-03-1.02659E-13
 -1      2912 1.39028E-02-2.66797E-03-1.02446E-13
 -1      2913 1.38464E-02-2.62586E-03-1.02419E-13
 -1      2914 1.37042E-02-2.56768E-03-1.00678E-13
 -1      2915 1.38068E-02-2.63899E-03-1.00909E-13
 -1      2916 1.41222E-02-2.82902E-03-1.02637E-13
 -1      2917 1.40657E-02-2.78693E-03-1.02611E-13
 -1      2918 1.39143E-02-2.71654E-03-1.01047E-13
 -1      2919 1.40268E-02-2.80030E-03-1.01094E-13
 -1      2920 1.44615E-02-3.08123E-03-1.02751E-13
 -1      2921 1.44048E-02-3.03917E-03-1.02739E-13
 -1      2922 1.45730E-02-3.16394E-03-1.02767E-13
 -1      2923 1.45172E-02-3.12259E-03-1.02760E-13
 -1      2924 1.43652E-02-3.05161E-03-1.01203E-13
 -1      2925 1.46865E-02-3.24811E-03-1.02769E-13
 -1      2926 1.46297E-02-3.20602E-03-1.02769E-13
 -1      2927 1.44776E-02-3.13499E-03-1.01215E-13
 -1      2928 1.48001E-02-3.33231E-03-1.02754E-13
 -1      2929 1.47433E-02-3.29020E-03-1.02762E-13
 -1      2930 1.45912E-02-3.21911E-03-1.01215E-13
 -1      2931 7.97629E-03-5.28304E-04-2.93667E-14
 -1      2932 8.20054E-03-6.28693E-04-2.99475E-14
 -1      2933 7.91315E-04-2.39481E-04-4.80410E-16
 -1      2934 9.23037E-04-2.72730E-04-6.21776E-16
 -1      2935 5.72160E-03-1.20843E-03-1.77035E-14
 -1      2936 8.94829E-03-8.56244E-04-3.14880E-14
 -1      2937 8.88842E-03-8.64159E-04-3.11097E-14
 -1      2938 8.71584E-03-7.98135E-04-3.10377E-14
 -1      2939 8.81838E-03-8.17419E-04-3.12113E-14
 -1      2940 8.88857E-03-8.43202E-04-3.21237E-14
 -1      2941 8.68112E-03-7.97792E-04-3.17539E-14
 -1      2942 4.66286E-03-2.04716E-04-1.54439E-14
 -1      2943 4.84266E-03-1.30976E-04-1.58866E-14
 -1      2944 1.43482E-02-2.99711E-03-1.02721E-13
 -1      2945 1.42916E-02-2.95505E-03-1.02705E-13
 -1      2946 1.42528E-02-2.96826E-03-1.01176E-13
 -1      2947 8.31539E-03-1.11504E-03-2.95196E-14
 -1      2948 7.56440E-03-3.07309E-04-2.81314E-14
 -1      2949 7.73680E-03-4.05849E-04-2.87351E-14
 -1      2950 1.05170E-03-2.97674E-04-7.84407E-16
 -1      2951 1.19548E-03-3.20220E-04-9.91598E-16
 -1      2952 1.25555E-03-2.97811E-04-1.13249E-15
 -1      2953 9.98910E-04-2.58120E-04-7.53602E-16
 -1      2954 6.54265E-04-1.78074E-04-3.73874E-16
 -1      2955 5.00193E-03-6.17610E-05-1.63412E-14
 -1      2956 5.16201E-03 1.76369E-05-1.68031E-14
 -1      2957 4.85780E-03-8.51068E-05-1.56156E-14
 -1      2958 8.50641E-03-1.01933E-03-3.01861E-14
 -1      2959 7.82358E-04 1.14126E-04-5.55057E-16
 -1      2960 7.79101E-04 9.18938E-05-5.64517E-16
 -1      2961 8.95298E-04 9.07347E-05-7.20601E-16
 -1      2962 9.03179E-04 1.40120E-04-6.98091E-16
 -1      2963 6.45390E-03 3.49327E-04-2.28290E-14
 -1      2964 6.59245E-03 2.89387E-04-2.36071E-14
 -1      2965 4.20627E-03-4.13984E-04-1.45185E-14
 -1      2966 4.13832E-03-4.01124E-04-1.44435E-14
 -1      2967 4.36592E-03-3.13844E-04-1.48921E-14
 -1      2968 4.49041E-03-2.75315E-04-1.51450E-14
 -1      2969 4.10227E-03-3.91339E-04-1.44425E-14
 -1      2970 4.10428E-03-3.87186E-04-1.44768E-14
 -1      2971 5.79463E-03 3.16072E-04-1.92174E-14
 -1      2972 5.94788E-03 3.72922E-04-1.99652E-14
 -1      2973 7.78333E-04-9.07659E-05-5.79574E-16
 -1      2974 7.81532E-04-1.12567E-04-5.73353E-16
 -1      2975 4.14515E-03-3.73251E-04-1.45238E-14
 -1      2976 4.23370E-03-3.52745E-04-1.46591E-14
 -1      2977 6.73887E-03 2.11936E-04-2.44248E-14
 -1      2978 6.88868E-03 1.17542E-04-2.52545E-14
 -1      2979 6.65768E-03 2.52870E-04-2.41899E-14
 -1      2980 6.15038E-03 4.01874E-04-2.10676E-14
 -1      2981 6.29101E-03 3.91608E-04-2.18860E-14
 -1      2982 8.78630E-03-8.87560E-04-3.05903E-14
 -1      2983 8.65508E-03-9.30323E-04-3.01589E-14
 -1      2984 2.45613E-03 4.21056E-04-3.70175E-15
 -1      2985 2.31141E-03 4.18006E-04-3.28380E-15
 -1      2986 2.22735E-03 3.79395E-04-3.13855E-15
 -1      2987 2.51690E-03 3.84864E-04-3.97852E-15
 -1      2988 8.88835E-04-1.30834E-07-7.42963E-16
 -1      2989 7.72483E-04-9.69304E-06-5.87583E-16
 -1      2990 7.72975E-04-2.94805E-05-5.87854E-16
 -1      2991 8.10020E-04 2.55942E-04-4.53901E-16
 -1      2992 7.00697E-03 4.30471E-05-2.60399E-14
 -1      2993 9.00562E-03-8.75189E-04-3.28897E-14
 -1      2994 8.98597E-03-8.63092E-04-3.21876E-14
 -1      2995 9.00646E-03-8.83970E-04-3.27674E-14
 -1      2996 8.33971E-03-6.86063E-04-3.09133E-14
 -1      2997 4.62006E-03-5.37388E-04-1.42441E-14
 -1      2998 4.83840E-03-6.36393E-04-1.46231E-14
 -1      2999 5.02059E-03-7.33614E-04-1.54828E-14
 -1      3000 5.67712E-03 2.81056E-04-1.86332E-14
 -1      3001 4.54931E-03-2.16802E-04-1.48826E-14
 -1      3002 4.09633E-03-3.82416E-04-1.40423E-14
 -1      3003 6.36647E-03 3.74297E-04-2.24220E-14
 -1      3004 7.88629E-03-4.82084E-04-2.96222E-14
 -1      3005 1.41396E-02-2.88420E-03-1.01138E-13
 -1      3006 7.85588E-04-1.35334E-04-5.65208E-16
 -1      3007 7.90510E-04-1.59320E-04-5.54718E-16
 -1      3008 9.01996E-04-1.38130E-04-7.22255E-16
 -1      3009 7.71028E-04-1.90335E-04-5.03937E-16
 -1      3010 5.09988E-03 4.02525E-05-1.62612E-14
 -1      3011 5.25979E-03 7.98837E-05-1.70077E-14
 -1      3012 5.34469E-03 1.41003E-04-1.72115E-14
 -1      3013 1.49017E-02-3.40409E-03-1.02853E-13
 -1      3014 1.48536E-02-3.36807E-03-1.02887E-13
 -1      3015 1.47015E-02-3.29694E-03-1.01343E-13
 -1      3016 1.48085E-02-3.36847E-03-1.01608E-13
 -1      3017 1.36278E-03 3.25506E-04-1.22771E-15
 -1      3018 1.30293E-03 3.50235E-04-1.07458E-15
 -1      3019 1.20325E-03 3.44451E-04-9.10147E-16
 -1      3020 5.15590E-03-8.10133E-04-1.59127E-14
 -1      3021 5.35349E-03-9.34848E-04-1.63545E-14
 -1      3022 9.27889E-04 2.65951E-04-6.00269E-16
 -1      3023 4.61212E-03-5.43989E-04-1.50204E-14
 -1      3024 7.74098E-04-4.94250E-05-5.86594E-16
 -1      3025 7.75862E-04-6.98256E-05-5.83884E-16
 -1      3026 8.94288E-04-8.98085E-05-7.37095E-16
 -1      3027 8.90017E-04-4.43828E-05-7.43600E-16
 -1      3028 7.44710E-03-2.34472E-04-2.80267E-14
 -1      3029 8.86867E-03-8.91445E-04-3.15391E-14
 -1      3030 4.09840E-03-3.64574E-04-1.40887E-14
 -1      3031 4.26344E-03-4.23041E-04-1.43696E-14
 -1      3032 4.19022E-03-3.98616E-04-1.38935E-14
 -1      3033 4.32877E-03-4.36556E-04-1.42195E-14
 -1      3034 5.90135E-03 3.84855E-04-1.96938E-14
 -1      3035 6.02417E-03 3.98265E-04-2.03742E-14
 -1      3036 6.08853E-03 4.11273E-04-2.07861E-14
 -1      3037 4.25928E-03-3.20652E-04-1.43631E-14
 -1      3038 1.04095E-03 2.27580E-04-8.15740E-16
 -1      3039 1.03292E-03 1.96664E-04-8.37926E-16
 -1      3040 1.06328E-03 3.47982E-04-6.76434E-16
 -1      3041 6.92141E-03 1.00460E-04-2.58733E-14
 -1      3042 7.13028E-03-3.32374E-05-2.69165E-14
 -1      3043 4.44406E-03-4.70616E-04-1.39389E-14
 -1      3044 1.73025E-03-3.08393E-04-2.10872E-15
 -1      3045 1.87284E-03-3.14996E-04-2.44482E-15
 -1      3046 2.01508E-03-3.19783E-04-2.80608E-15
 -1      3047 2.15697E-03-3.22906E-04-3.19299E-15
 -1      3048 1.93167E-03-2.84887E-04-2.65241E-15
 -1      3049 2.29830E-03-3.24762E-04-3.60482E-15
 -1      3050 2.43907E-03-3.25480E-04-4.04181E-15
 -1      3051 2.21387E-03-2.91469E-04-3.42789E-15
 -1      3052 2.57903E-03-3.25486E-04-4.50441E-15
 -1      3053 2.71818E-03-3.24888E-04-4.99206E-15
 -1      3054 2.49318E-03-2.93848E-04-4.30416E-15
 -1      3055 2.85618E-03-3.24180E-04-5.50468E-15
 -1      3056 2.99305E-03-3.23449E-04-6.04180E-15
 -1      3057 2.76826E-03-2.94143E-04-5.28059E-15
 -1      3058 3.13508E-03-3.23314E-04-6.63247E-15
 -1      3059 3.27541E-03-3.23915E-04-7.25086E-15
 -1      3060 3.04407E-03-2.94685E-04-6.38418E-15
 -1      3061 3.40692E-03-3.25975E-04-7.86434E-15
 -1      3062 3.53651E-03-3.29501E-04-8.50202E-15
 -1      3063 3.31141E-03-2.98223E-04-7.59124E-15
 -1      3064 3.66347E-03-3.35442E-04-9.16383E-15
 -1      3065 3.78837E-03-3.43834E-04-9.84992E-15
 -1      3066 3.56141E-03-3.07477E-04-8.86736E-15
 -1      3067 3.91026E-03-3.55669E-04-1.05597E-14
 -1      3068 4.03057E-03-3.71077E-04-1.12935E-14
 -1      3069 3.79805E-03-3.25424E-04-1.02393E-14
 -1      3070 3.46030E-03 3.57413E-04-7.46874E-15
 -1      3071 3.31103E-03 3.54481E-04-6.87255E-15
 -1      3072 7.33956E-03-1.62260E-04-2.79720E-14
 -1      3073 7.54377E-03-2.84637E-04-2.89286E-14
 -1      3074 9.11958E-03-1.01449E-03-3.53650E-14
 -1      3075 9.24158E-03-1.05191E-03-3.67216E-14
 -1      3076 9.36410E-03-1.09383E-03-3.80963E-14
 -1      3077 9.48917E-03-1.14008E-03-3.94856E-14
 -1      3078 9.31148E-03-1.04754E-03-3.74181E-14
 -1      3079 9.61585E-03-1.18948E-03-4.08907E-14
 -1      3080 9.74507E-03-1.24196E-03-4.23110E-14
 -1      3081 9.54501E-03-1.13990E-03-4.01965E-14
 -1      3082 9.87603E-03-1.29653E-03-4.37465E-14
 -1      3083 1.00091E-02-1.35318E-03-4.51978E-14
 -1      3084 9.79184E-03-1.24312E-03-4.30366E-14
 -1      3085 1.01436E-02-1.41115E-03-4.66654E-14
 -1      3086 1.02798E-02-1.47041E-03-4.81455E-14
 -1      3087 1.00495E-02-1.35422E-03-4.59404E-14
 -1      3088 1.04170E-02-1.53041E-03-4.96397E-14
 -1      3089 1.05554E-02-1.59112E-03-5.11465E-14
 -1      3090 1.03154E-02-1.47063E-03-4.89013E-14
 -1      3091 1.06946E-02-1.65215E-03-5.26692E-14
 -1      3092 1.08347E-02-1.71350E-03-5.42051E-14
 -1      3093 1.05875E-02-1.59022E-03-5.19173E-14
 -1      3094 1.09752E-02-1.77491E-03-5.57534E-14
 -1      3095 1.11163E-02-1.83637E-03-5.73170E-14
 -1      3096 1.08639E-02-1.71145E-03-5.49866E-14
 -1      3097 1.12649E-02-1.90081E-03-5.89717E-14
 -1      3098 1.14138E-02-1.96513E-03-6.06435E-14
 -1      3099 1.11505E-02-1.83629E-03-5.81886E-14
 -1      3100 1.15558E-02-2.02620E-03-6.22501E-14
 -1      3101 1.16981E-02-2.08708E-03-6.38719E-14
 -1      3102 1.14392E-02-1.96100E-03-6.14539E-14
 -1      3103 1.18405E-02-2.14775E-03-6.55073E-14
 -1      3104 1.19830E-02-2.20820E-03-6.71572E-14
 -1      3105 1.17223E-02-2.08214E-03-6.46945E-14
 -1      3106 1.21257E-02-2.26842E-03-6.88201E-14
 -1      3107 1.22684E-02-2.32842E-03-7.04945E-14
 -1      3108 1.20064E-02-2.20256E-03-6.79942E-14
 -1      3109 1.24111E-02-2.38821E-03-7.21810E-14
 -1      3110 1.25539E-02-2.44779E-03-7.38772E-14
 -1      3111 1.22910E-02-2.32221E-03-7.13434E-14
 -1      3112 1.26967E-02-2.50717E-03-7.55837E-14
 -1      3113 1.28396E-02-2.56637E-03-7.73023E-14
 -1      3114 1.25761E-02-2.44111E-03-7.47356E-14
 -1      3115 1.29824E-02-2.62540E-03-7.90296E-14
 -1      3116 1.31253E-02-2.68426E-03-8.07615E-14
 -1      3117 1.28615E-02-2.55931E-03-7.81678E-14
 -1      3118 1.32682E-02-2.74299E-03-8.25021E-14
 -1      3119 1.34110E-02-2.80157E-03-8.42503E-14
 -1      3120 1.31470E-02-2.67691E-03-8.16367E-14
 -1      3121 1.35539E-02-2.86004E-03-8.60005E-14
 -1      3122 1.36968E-02-2.91840E-03-8.77550E-14
 -1      3123 1.34326E-02-2.79398E-03-8.51294E-14
 -1      3124 1.38397E-02-2.97667E-03-8.95140E-14
 -1      3125 1.39826E-02-3.03485E-03-9.12756E-14
 -1      3126 1.37182E-02-2.91062E-03-8.86402E-14
 -1      3127 1.41254E-02-3.09295E-03-9.30437E-14
 -1      3128 1.42683E-02-3.15099E-03-9.48169E-14
 -1      3129 1.40039E-02-3.02692E-03-9.21681E-14
 -1      3130 1.44112E-02-3.20898E-03-9.65933E-14
 -1      3131 1.45541E-02-3.26691E-03-9.83733E-14
 -1      3132 1.42897E-02-3.14296E-03-9.57161E-14
 -1      3133 1.99927E-03 3.36650E-04-2.62092E-15
 -1      3134 1.85516E-03 3.30583E-04-2.27456E-15
 -1      3135 1.71120E-03 3.22629E-04-1.95323E-15
 -1      3136 1.56733E-03 3.12581E-04-1.65709E-15
 -1      3137 1.77237E-03 2.92435E-04-2.14821E-15
 -1      3138 3.16277E-03 3.52521E-04-6.30092E-15
 -1      3139 3.01547E-03 3.51188E-04-5.75306E-15
 -1      3140 3.22366E-03 3.12899E-04-6.64094E-15
 -1      3141 2.86891E-03 3.50224E-04-5.23019E-15
 -1      3142 2.72301E-03 3.49341E-04-4.73223E-15
 -1      3143 2.92947E-03 3.11828E-04-5.54292E-15
 -1      3144 3.76269E-03 3.67261E-04-8.73650E-15
 -1      3145 3.61086E-03 3.61541E-04-8.09019E-15
 -1      3146 3.52214E-03 3.16730E-04-7.83701E-15
 -1      3147 4.07092E-03 3.84361E-04-1.01019E-14
 -1      3148 3.91610E-03 3.74738E-04-9.40701E-15
 -1      3149 3.82648E-03 3.25823E-04-9.13043E-15
 -1      3150 4.38520E-03 4.10455E-04-1.15677E-14
 -1      3151 4.22743E-03 3.96188E-04-1.08224E-14
 -1      3152 4.13802E-03 3.42818E-04-1.05228E-14
 -1      3153 4.70433E-03 4.45705E-04-1.31349E-14
 -1      3154 4.54443E-03 4.27028E-04-1.23386E-14
 -1      3155 4.45720E-03 3.69991E-04-1.20146E-14
 -1      3156 5.02509E-03 4.86934E-04-1.48050E-14
 -1      3157 4.86490E-03 4.66023E-04-1.39565E-14
 -1      3158 4.78254E-03 4.07990E-04-1.36071E-14
 -1      3159 5.34268E-03 5.25651E-04-1.65808E-14
 -1      3160 5.18464E-03 5.07494E-04-1.56794E-14
 -1      3161 5.10995E-03 4.53376E-04-1.53026E-14
 -1      3162 5.65272E-03 5.47646E-04-1.84651E-14
 -1      3163 5.49873E-03 5.39974E-04-1.75093E-14
 -1      3164 5.43332E-03 4.96008E-04-1.71058E-14
 -1      3165 5.95452E-03 5.36162E-04-2.04600E-14
 -1      3166 5.80429E-03 5.47205E-04-1.94485E-14
 -1      3167 5.74749E-03 5.18319E-04-1.90172E-14
 -1      3168 6.25226E-03 4.79025E-04-2.25666E-14
 -1      3169 6.10299E-03 5.13564E-04-2.14987E-14
 -1      3170 6.05238E-03 5.00377E-04-2.10400E-14
 -1      3171 6.55366E-03 3.76298E-04-2.47858E-14
 -1      3172 6.40191E-03 4.32791E-04-2.36627E-14
 -1      3173 6.35470E-03 4.29885E-04-2.31762E-14
 -1      3174 6.86327E-03 2.39253E-04-2.71134E-14
 -1      3175 6.70730E-03 3.10808E-04-2.59368E-14
 -1      3176 6.66350E-03 3.11112E-04-2.54245E-14
 -1      3177 7.18047E-03 8.49526E-05-2.95450E-14
 -1      3178 7.02119E-03 1.63138E-04-2.83158E-14
 -1      3179 6.98220E-03 1.61014E-04-2.77801E-14
 -1      3180 7.50100E-03-7.23223E-05-3.20739E-14
 -1      3181 7.34075E-03 5.94723E-06-3.07984E-14
 -1      3182 7.30794E-03-4.05189E-07-3.02371E-14
 -1      3183 7.82003E-03-2.23808E-04-3.46963E-14
 -1      3184 7.66106E-03-1.49109E-04-3.33732E-14
 -1      3185 7.63460E-03-1.58990E-04-3.27922E-14
 -1      3186 8.13427E-03-3.66069E-04-3.74104E-14
 -1      3187 7.97797E-03-2.96126E-04-3.60416E-14
 -1      3188 7.95682E-03-3.07895E-04-3.54383E-14
 -1      3189 8.44241E-03-4.98972E-04-4.02063E-14
 -1      3190 8.28918E-03-4.33579E-04-3.87992E-14
 -1      3191 8.27177E-03-4.45837E-04-3.81739E-14
 -1      3192 8.74461E-03-6.23979E-04-4.30817E-14
 -1      3193 8.59424E-03-5.62317E-04-4.16336E-14
 -1      3194 8.57895E-03-5.74222E-04-4.09915E-14
 -1      3195 9.04181E-03-7.42971E-04-4.60262E-14
 -1      3196 8.89379E-03-6.84088E-04-4.45453E-14
 -1      3197 8.87931E-03-6.95313E-04-4.38816E-14
 -1      3198 9.33516E-03-8.57747E-04-4.90384E-14
 -1      3199 9.18890E-03-8.00772E-04-4.75238E-14
 -1      3200 9.17434E-03-8.11290E-04-4.68422E-14
 -1      3201 9.62574E-03-9.69814E-04-5.21173E-14
 -1      3202 9.48074E-03-9.14033E-04-5.05701E-14
 -1      3203 9.46552E-03-9.23955E-04-4.98680E-14
 -1      3204 9.91444E-03-1.08034E-03-5.52563E-14
 -1      3205 9.77028E-03-1.02521E-03-5.36798E-14
 -1      3206 9.75414E-03-1.03468E-03-5.29583E-14
 -1      3207 1.02019E-02-1.19018E-03-5.84523E-14
 -1      3208 1.00583E-02-1.13530E-03-5.68465E-14
 -1      3209 1.00411E-02-1.14446E-03-5.61068E-14
 -1      3210 1.04886E-02-1.29992E-03-6.17010E-14
 -1      3211 1.03453E-02-1.24504E-03-6.00715E-14
 -1      3212 1.03272E-02-1.25398E-03-5.93132E-14
 -1      3213 1.07749E-02-1.40994E-03-6.49970E-14
 -1      3214 1.06318E-02-1.35488E-03-6.33415E-14
 -1      3215 1.06128E-02-1.36369E-03-6.25688E-14
 -1      3216 1.10609E-02-1.52046E-03-6.83369E-14
 -1      3217 1.09179E-02-1.46513E-03-6.66634E-14
 -1      3218 1.08982E-02-1.47384E-03-6.58712E-14
 -1      3219 1.13467E-02-1.63159E-03-7.17231E-14
 -1      3220 1.12038E-02-1.57595E-03-7.00244E-14
 -1      3221 1.11835E-02-1.58459E-03-6.92204E-14
 -1      3222 1.16325E-02-1.74334E-03-7.51463E-14
 -1      3223 1.14896E-02-1.68739E-03-7.34308E-14
 -1      3224 1.14689E-02-1.69598E-03-7.26125E-14
 -1      3225 1.19182E-02-1.85570E-03-7.86038E-14
 -1      3226 1.17754E-02-1.79945E-03-7.68697E-14
 -1      3227 1.17543E-02-1.80800E-03-7.60440E-14
 -1      3228 1.22040E-02-1.96860E-03-8.20906E-14
 -1      3229 1.20611E-02-1.91209E-03-8.03444E-14
 -1      3230 1.20398E-02-1.92060E-03-7.95066E-14
 -1      3231 1.24897E-02-2.08198E-03-8.55945E-14
 -1      3232 1.23468E-02-2.02524E-03-8.38411E-14
 -1      3233 1.23253E-02-2.03372E-03-8.29958E-14
 -1      3234 1.27754E-02-2.19576E-03-8.91203E-14
 -1      3235 1.26326E-02-2.13883E-03-8.73542E-14
 -1      3236 1.26109E-02-2.14729E-03-8.65029E-14
 -1      3237 1.30612E-02-2.30986E-03-9.26627E-14
 -1      3238 1.29183E-02-2.25278E-03-9.08914E-14
 -1      3239 1.28966E-02-2.26121E-03-9.00308E-14
 -1      3240 1.33469E-02-2.42422E-03-9.62234E-14
 -1      3241 1.32040E-02-2.36701E-03-9.44409E-14
 -1      3242 1.31823E-02-2.37544E-03-9.35759E-14
 -1      3243 1.35966E-02-2.52499E-03-9.93168E-14
 -1      3244 1.34545E-02-2.46686E-03-9.75812E-14
 -1      3245 1.34327E-02-2.47528E-03-9.67112E-14
 -1      3246 1.36479E-02-2.56063E-03-9.94311E-14
 -1      3247 1.43823E-02-3.10599E-03-9.96665E-14
 -1      3248 1.43256E-02-3.06397E-03-9.96618E-14
 -1      3249 1.44959E-02-3.19007E-03-9.96645E-14
 -1      3250 1.44391E-02-3.14803E-03-9.96671E-14
 -1      3251 1.42870E-02-3.07695E-03-9.81223E-14
 -1      3252 1.07773E-03 3.12548E-04-7.57017E-16
 -1      3253 1.06980E-03 2.66012E-04-8.12298E-16
 -1      3254 1.42698E-02-3.02267E-03-9.96551E-14
 -1      3255 1.42141E-02-2.98138E-03-9.96459E-14
 -1      3256 1.41745E-02-2.99369E-03-9.81121E-14
 -1      3257 5.52752E-03 2.38806E-04-1.78818E-14
 -1      3258 5.67581E-03 3.16114E-04-1.85263E-14
 -1      3259 1.40442E-02-2.85539E-03-9.95987E-14
 -1      3260 1.39877E-02-2.81339E-03-9.95760E-14
 -1      3261 8.25790E-03-6.53316E-04-3.13886E-14
 -1      3262 8.46405E-03-7.32896E-04-3.20488E-14
 -1      3263 7.83702E-03-4.49498E-04-3.00843E-14
 -1      3264 8.04850E-03-5.58771E-04-3.07336E-14
 -1      3265 8.20026E-03-6.19040E-04-3.18630E-14
 -1      3266 1.41575E-02-2.93938E-03-9.96320E-14
 -1      3267 1.41008E-02-2.89739E-03-9.96168E-14
 -1      3268 1.39489E-02-2.82655E-03-9.80605E-14
 -1      3269 1.40621E-02-2.91047E-03-9.80918E-14
 -1      3270 1.44464E-03-2.88399E-04-1.51181E-15
 -1      3271 1.58751E-03-2.99589E-04-1.79769E-15
 -1      3272 1.64775E-03-2.72054E-04-1.97653E-15
 -1      3273 4.74966E-03-8.03335E-05-1.49674E-14
 -1      3274 4.88989E-03-2.29669E-05-1.54044E-14
 -1      3275 4.40092E-03-2.26271E-04-1.41296E-14
 -1      3276 4.54481E-03-1.64688E-04-1.44124E-14
 -1      3277 4.05066E-03-3.53381E-04-1.36062E-14
 -1      3278 4.08352E-03-3.41545E-04-1.36517E-14
 -1      3279 6.27314E-03 3.98302E-04-2.19446E-14
 -1      3280 6.42083E-03 3.57426E-04-2.28875E-14
 -1      3281 4.08617E-03-3.70840E-04-1.35816E-14
 -1      3282 4.05274E-03-3.63448E-04-1.35824E-14
 -1      3283 8.88245E-04-1.98146E-04-6.54601E-16
 -1      3284 1.00953E-03 6.10583E-05-9.05444E-16
 -1      3285 1.00761E-03 3.62459E-05-9.12085E-16
 -1      3286 6.57170E-03 2.96125E-04-2.38321E-14
 -1      3287 6.70340E-03 2.27742E-04-2.46525E-14
 -1      3288 4.16116E-03-3.09295E-04-1.36880E-14
 -1      3289 4.27392E-03-2.76160E-04-1.39104E-14
 -1      3290 4.27148E-03-2.25871E-04-1.34590E-14
 -1      3291 8.74100E-03-9.58468E-04-3.15198E-14
 -1      3292 8.62974E-03-9.69606E-04-3.06586E-14
 -1      3293 8.94986E-03-9.07416E-04-3.25784E-14
 -1      3294 8.85610E-03-9.24495E-04-3.20501E-14
 -1      3295 8.85304E-03-9.63706E-04-3.25601E-14
 -1      3296 4.33797E-03-4.36612E-04-1.34673E-14
 -1      3297 1.18808E-03 2.66367E-04-1.00552E-15
 -1      3298 8.55368E-03-7.61612E-04-3.30990E-14
 -1      3299 8.62281E-03-7.87285E-04-3.26133E-14
 -1      3300 6.82360E-03 1.63382E-04-2.55002E-14
 -1      3301 6.94419E-03 9.73804E-05-2.63615E-14
 -1      3302 6.73697E-03 2.17773E-04-2.51266E-14
 -1      3303 2.57760E-03 3.48258E-04-4.25951E-15
 -1      3304 2.43262E-03 3.46731E-04-3.81165E-15
 -1      3305 2.63816E-03 3.11267E-04-4.54348E-15
 -1      3306 1.37505E-02-2.63191E-03-9.96608E-14
 -1      3307 1.36992E-02-2.59628E-03-9.95465E-14
 -1      3308 1.35916E-02-2.55357E-03-9.81856E-14
 -1      3309 8.99443E-03-8.77793E-04-3.33170E-14
 -1      3310 9.05133E-03-8.97316E-04-3.39072E-14
 -1      3311 4.85216E-03 3.15444E-05-1.49411E-14
 -1      3312 4.97501E-03 3.08342E-05-1.55947E-14
 -1      3313 5.05396E-03 8.63357E-05-1.57850E-14
 -1      3314 5.60029E-03-1.11319E-03-1.72673E-14
 -1      3315 8.97946E-03-9.84914E-04-3.38834E-14
 -1      3316 4.15386E-03-3.93744E-04-1.20462E-14
 -1      3317 4.27265E-03-4.20424E-04-1.28245E-14
 -1      3318 7.61508E-03-3.01939E-04-2.99629E-14
 -1      3319 7.71711E-03-3.74779E-04-3.00266E-14
 -1      3320 7.88520E-03-4.52707E-04-3.11401E-14
 -1      3321 1.01595E-03 1.12319E-04-8.86078E-16
 -1      3322 1.01231E-03 8.63293E-05-8.97015E-16
 -1      3323 1.12999E-03 7.91743E-05-1.09250E-15
 -1      3324 2.14351E-03 3.41204E-04-2.99259E-15
 -1      3325 2.06016E-03 3.03544E-04-2.84614E-15
 -1      3326 2.28794E-03 3.44452E-04-3.38955E-15
 -1      3327 1.47153E-02-3.33283E-03-1.00363E-13
 -1      3328 1.00654E-03 1.17869E-05-9.16368E-16
 -1      3329 1.00634E-03-1.24793E-05-9.18861E-16
 -1      3330 1.12552E-03 2.56303E-05-1.10738E-15
 -1      3331 1.45403E-02-3.23107E-03-9.93512E-14
 -1      3332 1.43881E-02-3.15993E-03-9.78111E-14
 -1      3333 1.39313E-02-2.77156E-03-9.95550E-14
 -1      3334 1.38751E-02-2.72972E-03-9.95319E-14
 -1      3335 1.38359E-02-2.74280E-03-9.80206E-14
 -1      3336 1.01901E-03-1.37628E-04-8.99441E-16
 -1      3337 1.02455E-03-1.64954E-04-8.87962E-16
 -1      3338 4.07928E-03-3.05841E-04-1.32145E-14
 -1      3339 4.02373E-03-3.57263E-04-1.17029E-14
 -1      3340 1.02614E-03 1.67303E-04-8.56818E-16
 -1      3341 1.02057E-03 1.39291E-04-8.72688E-16
 -1      3342 1.13840E-03 1.35274E-04-1.06730E-15
 -1      3343 1.15108E-03 1.95423E-04-1.03066E-15
 -1      3344 5.61412E-03 3.32607E-04-1.81518E-14
 -1      3345 5.75811E-03 3.60813E-04-1.89143E-14
 -1      3346 5.82872E-03 3.95358E-04-1.93046E-14
 -1      3347 5.36518E-03 1.94547E-04-1.71094E-14
 -1      3348 1.42369E-03 3.00049E-04-1.38645E-15
 -1      3349 1.28023E-03 2.84806E-04-1.14082E-15
 -1      3350 4.01420E-03-3.43021E-04-1.31543E-14
 -1      3351 6.47249E-03 3.39865E-04-2.33340E-14
 -1      3352 4.11429E-03-3.75107E-04-1.34374E-14
 -1      3353 4.04804E-03-3.55878E-04-1.29868E-14
 -1      3354 4.15186E-03-3.81799E-04-1.32911E-14
 -1      3355 1.25048E-03 2.44466E-04-1.14394E-15
 -1      3356 9.07641E-03-9.68829E-04-3.45652E-14
 -1      3357 8.92833E-03-8.65166E-04-3.31335E-14
 -1      3358 9.03148E-03-9.08883E-04-3.34028E-14
 -1      3359 9.04569E-03-9.37824E-04-3.39268E-14
 -1      3360 9.15831E-03-9.74737E-04-3.54050E-14
 -1      3361 9.08255E-03-9.18653E-04-3.41160E-14
 -1      3362 6.15155E-03 4.17884E-04-2.12314E-14
 -1      3363 6.20861E-03 4.16633E-04-2.16772E-14
 -1      3364 6.03354E-03 4.26063E-04-2.05294E-14
 -1      3365 1.31648E-03-2.74793E-04-1.27856E-15
 -1      3366 1.37788E-03-2.51060E-04-1.42972E-15
 -1      3367 1.18848E-03-2.58949E-04-1.06509E-15
 -1      3368 1.45938E-02-3.26682E-03-9.94850E-14
 -1      3369 4.57889E-03-1.03927E-04-1.42103E-14
 -1      3370 1.01436E-03-2.18482E-04-8.22340E-16
 -1      3371 1.01107E-03-8.59284E-05-9.13860E-16
 -1      3372 1.01451E-03-1.11359E-04-9.07843E-16
 -1      3373 1.13640E-03-1.34196E-04-1.09574E-15
 -1      3374 7.24054E-03-9.06945E-05-2.77955E-14
 -1      3375 8.74432E-03-8.20910E-04-3.28046E-14
 -1      3376 1.38067E-02-2.67378E-03-9.96843E-14
 -1      3377 1.48529E-03 2.73800E-04-1.55076E-15
 -1      3378 2.13124E-03-2.58472E-04-3.25198E-15
 -1      3379 2.27092E-03-2.60783E-04-3.66582E-15
 -1      3380 2.40964E-03-2.62412E-04-4.10491E-15
 -1      3381 2.54727E-03-2.63445E-04-4.56914E-15
 -1      3382 2.32828E-03-2.30923E-04-3.90691E-15
 -1      3383 2.68352E-03-2.64342E-04-5.05740E-15
 -1      3384 2.81824E-03-2.65153E-04-5.57102E-15
 -1      3385 2.60165E-03-2.34343E-04-4.83580E-15
 -1      3386 2.95762E-03-2.66514E-04-6.13721E-15
 -1      3387 3.09469E-03-2.68401E-04-6.72981E-15
 -1      3388 2.87515E-03-2.38077E-04-5.89050E-15
 -1      3389 3.22254E-03-2.71424E-04-7.31956E-15
 -1      3390 3.34755E-03-2.75492E-04-7.93354E-15
 -1      3391 3.13934E-03-2.44453E-04-7.04883E-15
 -1      3392 3.46904E-03-2.81536E-04-8.57158E-15
 -1      3393 3.58678E-03-2.89109E-04-9.23414E-15
 -1      3394 3.38489E-03-2.55721E-04-8.27752E-15
 -1      3395 3.69976E-03-2.99443E-04-9.92048E-15
 -1      3396 3.80770E-03-3.11534E-04-1.06305E-14
 -1      3397 3.61412E-03-2.74332E-04-9.60233E-15
 -1      3398 3.88921E-03 2.82783E-04-9.52682E-15
 -1      3399 3.73515E-03 2.77878E-04-8.85472E-15
 -1      3400 3.58301E-03 2.74847E-04-8.20661E-15
 -1      3401 3.43267E-03 2.73098E-04-7.58303E-15
 -1      3402 3.64271E-03 2.31630E-04-8.57856E-15
 -1      3403 9.47438E-03-1.09443E-03-3.95022E-14
 -1      3404 9.58944E-03-1.14281E-03-4.09067E-14
 -1      3405 9.70827E-03-1.19317E-03-4.23273E-14
 -1      3406 9.83079E-03-1.24592E-03-4.37635E-14
 -1      3407 9.62410E-03-1.14660E-03-4.16162E-14
 -1      3408 9.95624E-03-1.30017E-03-4.52154E-14
 -1      3409 1.00845E-02-1.35616E-03-4.66837E-14
 -1      3410 9.86300E-03-1.24897E-03-4.44909E-14
 -1      3411 1.02149E-02-1.41319E-03-4.81624E-14
 -1      3412 1.03473E-02-1.47136E-03-4.96547E-14
 -1      3413 1.01147E-02-1.35810E-03-4.74223E-14
 -1      3414 1.04814E-02-1.53017E-03-5.11628E-14
 -1      3415 1.06169E-02-1.58965E-03-5.26831E-14
 -1      3416 1.03759E-02-1.47200E-03-5.04084E-14
 -1      3417 1.07536E-02-1.64946E-03-5.42198E-14
 -1      3418 1.08914E-02-1.70962E-03-5.57670E-14
 -1      3419 1.06440E-02-1.58897E-03-5.34510E-14
 -1      3420 1.10370E-02-1.77290E-03-5.74083E-14
 -1      3421 1.11833E-02-1.83630E-03-5.90657E-14
 -1      3422 1.09241E-02-1.71066E-03-5.66270E-14
 -1      3423 1.13233E-02-1.89664E-03-6.06561E-14
 -1      3424 1.14638E-02-1.95696E-03-6.22637E-14
 -1      3425 1.12080E-02-1.83318E-03-5.98617E-14
 -1      3426 1.16048E-02-2.01715E-03-6.38851E-14
 -1      3427 1.17460E-02-2.07724E-03-6.55196E-14
 -1      3428 1.14877E-02-1.95285E-03-6.30737E-14
 -1      3429 1.18876E-02-2.13717E-03-6.71694E-14
 -1      3430 1.20294E-02-2.19695E-03-6.88327E-14
 -1      3431 1.17692E-02-2.07229E-03-6.63453E-14
 -1      3432 1.21714E-02-2.25657E-03-7.05048E-14
 -1      3433 1.23135E-02-2.31602E-03-7.21908E-14
 -1      3434 1.20520E-02-2.19130E-03-6.96679E-14
 -1      3435 1.24558E-02-2.37530E-03-7.38885E-14
 -1      3436 1.25982E-02-2.43444E-03-7.55935E-14
 -1      3437 1.23358E-02-2.30978E-03-7.30388E-14
 -1      3438 1.27407E-02-2.49341E-03-7.73110E-14
 -1      3439 1.28833E-02-2.55225E-03-7.90367E-14
 -1      3440 1.26202E-02-2.42772E-03-7.64541E-14
 -1      3441 1.30259E-02-2.61096E-03-8.07690E-14
 -1      3442 1.31686E-02-2.66954E-03-8.25103E-14
 -1      3443 1.29051E-02-2.54516E-03-7.99025E-14
 -1      3444 1.33113E-02-2.72801E-03-8.42576E-14
 -1      3445 1.34541E-02-2.78637E-03-8.60077E-14
 -1      3446 1.31902E-02-2.66214E-03-8.33837E-14
 -1      3447 1.35969E-02-2.84464E-03-8.77637E-14
 -1      3448 1.37397E-02-2.90283E-03-8.95253E-14
 -1      3449 1.34756E-02-2.77873E-03-8.68869E-14
 -1      3450 1.38825E-02-2.96094E-03-9.12890E-14
 -1      3451 1.40253E-02-3.01899E-03-9.30596E-14
 -1      3452 1.37611E-02-2.89501E-03-9.04099E-14
 -1      3453 1.41353E-02-3.06053E-03-9.45431E-14
 -1      3454 1.42782E-02-3.11847E-03-9.63209E-14
 -1      3455 1.42338E-02-3.07754E-03-9.66317E-14
 -1      3456 1.40139E-02-2.99459E-03-9.36595E-14
 -1      3457 4.41562E-03-1.04990E-04-1.33817E-14
 -1      3458 4.59555E-03-3.28662E-05-1.39113E-14
 -1      3459 3.28378E-03 2.72444E-04-6.98370E-15
 -1      3460 3.13616E-03 2.72435E-04-6.40887E-15
 -1      3461 3.34298E-03 2.31073E-04-7.32892E-15
 -1      3462 2.98953E-03 2.72870E-04-5.85805E-15
 -1      3463 2.84371E-03 2.73419E-04-5.33182E-15
 -1      3464 3.04896E-03 2.33319E-04-6.17585E-15
 -1      3465 4.20420E-03 2.99383E-04-1.09450E-14
 -1      3466 4.04560E-03 2.89728E-04-1.02230E-14
 -1      3467 3.95068E-03 2.38003E-04-9.92477E-15
 -1      3468 4.52872E-03 3.27683E-04-1.24622E-14
 -1      3469 4.36543E-03 3.11856E-04-1.16913E-14
 -1      3470 4.26927E-03 2.54036E-04-1.13687E-14
 -1      3471 4.86111E-03 3.69112E-04-1.40802E-14
 -1      3472 4.69435E-03 3.46809E-04-1.32589E-14
 -1      3473 4.59960E-03 2.83869E-04-1.29112E-14
 -1      3474 5.19623E-03 4.20060E-04-1.58024E-14
 -1      3475 5.02899E-03 3.94060E-04-1.49284E-14
 -1      3476 4.93980E-03 3.30107E-04-1.45545E-14
 -1      3477 5.52612E-03 4.68185E-04-1.76314E-14
 -1      3478 5.36242E-03 4.45957E-04-1.67029E-14
 -1      3479 5.28315E-03 3.88509E-04-1.63021E-14
 -1      3480 5.84446E-03 4.91215E-04-1.95711E-14
 -1      3481 5.68664E-03 4.84831E-04-1.85871E-14
 -1      3482 5.61952E-03 4.43669E-04-1.81581E-14
 -1      3483 6.15154E-03 4.53746E-04-2.15338E-14
 -1      3484 5.99559E-03 4.71812E-04-2.04972E-14
 -1      3485 6.77812E-03 2.40382E-04-2.60656E-14
 -1      3486 6.61760E-03 3.13615E-04-2.49144E-14
 -1      3487 7.10702E-03 7.69441E-05-2.84491E-14
 -1      3488 6.94140E-03 1.59993E-04-2.72444E-14
 -1      3489 6.90010E-03 1.61700E-04-2.67092E-14
 -1      3490 7.44150E-03-8.99592E-05-3.09327E-14
 -1      3491 7.27434E-03-7.22419E-06-2.96779E-14
 -1      3492 7.24033E-03-1.32877E-05-2.91210E-14
 -1      3493 7.77337E-03-2.47628E-04-3.35123E-14
 -1      3494 7.60836E-03-1.70335E-04-3.22119E-14
 -1      3495 7.58251E-03-1.82594E-04-3.16316E-14
 -1      3496 8.09728E-03-3.92223E-04-3.61832E-14
 -1      3497 7.93664E-03-3.21521E-04-3.48367E-14
 -1      3498 7.91756E-03-3.36808E-04-3.42367E-14
 -1      3499 8.41144E-03-5.24771E-04-3.89398E-14
 -1      3500 8.25566E-03-4.59753E-04-3.75502E-14
 -1      3501 8.24105E-03-4.75480E-04-3.69294E-14
 -1      3502 8.71651E-03-6.48194E-04-4.17766E-14
 -1      3503 8.56506E-03-5.87378E-04-4.03495E-14
 -1      3504 8.55276E-03-6.01974E-04-3.97076E-14
 -1      3505 9.01425E-03-7.65312E-04-4.46832E-14
 -1      3506 8.86619E-03-7.07342E-04-4.32211E-14
 -1      3507 8.85457E-03-7.20335E-04-4.25626E-14
 -1      3508 9.30664E-03-8.78417E-04-4.76583E-14
 -1      3509 9.16100E-03-8.22222E-04-4.61628E-14
 -1      3510 9.14899E-03-8.33682E-04-4.54848E-14
 -1      3511 9.59544E-03-9.89189E-04-5.06960E-14
 -1      3512 9.45139E-03-9.33997E-04-4.91685E-14
 -1      3513 9.43840E-03-9.44228E-04-4.84724E-14
 -1      3514 9.88202E-03-1.09880E-03-5.37971E-14
 -1      3515 9.73893E-03-1.04408E-03-5.22395E-14
 -1      3516 9.72469E-03-1.05343E-03-5.15230E-14
 -1      3517 1.01673E-02-1.20803E-03-5.69560E-14
 -1      3518 1.00248E-02-1.15342E-03-5.53699E-14
 -1      3519 1.00092E-02-1.16220E-03-5.46337E-14
 -1      3520 1.04521E-02-1.31739E-03-6.01703E-14
 -1      3521 1.03098E-02-1.26267E-03-5.85563E-14
 -1      3522 1.02929E-02-1.27111E-03-5.78029E-14
 -1      3523 1.07366E-02-1.42719E-03-6.34338E-14
 -1      3524 1.05944E-02-1.37223E-03-6.17972E-14
 -1      3525 1.05764E-02-1.38048E-03-6.10247E-14
 -1      3526 1.10212E-02-1.53757E-03-6.67457E-14
 -1      3527 1.08789E-02-1.48230E-03-6.50838E-14
 -1      3528 1.08601E-02-1.49049E-03-6.42986E-14
 -1      3529 1.13059E-02-1.64861E-03-7.01019E-14
 -1      3530 1.11635E-02-1.59301E-03-6.84177E-14
 -1      3531 1.11439E-02-1.60119E-03-6.76169E-14
 -1      3532 1.15909E-02-1.76031E-03-7.35019E-14
 -1      3533 1.14484E-02-1.70438E-03-7.17962E-14
 -1      3534 1.14282E-02-1.71258E-03-7.09817E-14
 -1      3535 1.18760E-02-1.87263E-03-7.69403E-14
 -1      3536 1.17334E-02-1.81640E-03-7.52179E-14
 -1      3537 1.17127E-02-1.82462E-03-7.43902E-14
 -1      3538 1.21612E-02-1.98550E-03-8.04083E-14
 -1      3539 1.20186E-02-1.92900E-03-7.86697E-14
 -1      3540 1.19976E-02-1.93726E-03-7.78366E-14
 -1      3541 1.24467E-02-2.09885E-03-8.38995E-14
 -1      3542 1.23039E-02-2.04212E-03-8.21515E-14
 -1      3543 1.22827E-02-2.05041E-03-8.13076E-14
 -1      3544 1.27322E-02-2.21260E-03-8.74089E-14
 -1      3545 1.25894E-02-2.15568E-03-8.56530E-14
 -1      3546 1.25680E-02-2.16399E-03-8.48021E-14
 -1      3547 1.30178E-02-2.32668E-03-9.09402E-14
 -1      3548 1.28750E-02-2.26960E-03-8.91720E-14
 -1      3549 1.28534E-02-2.27793E-03-8.83145E-14
 -1      3550 1.33034E-02-2.44102E-03-9.44882E-14
 -1      3551 1.31606E-02-2.38382E-03-9.27132E-14
 -1      3552 1.31390E-02-2.39216E-03-9.18505E-14
 -1      3553 8.50585E-03-7.39033E-04-3.35712E-14
 -1      3554 8.65439E-03-7.92800E-04-3.41486E-14
 -1      3555 9.10442E-03-9.22858E-04-3.49895E-14
 -1      3556 9.10159E-03-9.19698E-04-3.45544E-14
 -1      3557 9.14820E-03-9.44732E-04-3.52028E-14
 -1      3558 1.41770E-02-3.03556E-03-9.66327E-14
 -1      3559 1.41203E-02-2.99359E-03-9.66286E-14
 -1      3560 1.40671E-02-2.99413E-03-9.51462E-14
 -1      3561 7.14413E-03-1.87835E-05-2.75845E-14
 -1      3562 7.33624E-03-1.34290E-04-2.86535E-14
 -1      3563 3.98615E-03-2.99825E-04-1.26169E-14
 -1      3564 4.04411E-03-2.69513E-04-1.26503E-14
 -1      3565 1.56690E-03-2.36628E-04-1.84504E-15
 -1      3566 1.70850E-03-2.44411E-04-2.15972E-15
 -1      3567 1.19517E-03-1.98957E-04-1.14517E-15
 -1      3568 1.07745E-03-2.00881E-04-9.41345E-16
 -1      3569 3.97058E-03-3.29582E-04-1.26066E-14
 -1      3570 3.96639E-03-3.19442E-04-1.26306E-14
 -1      3571 8.13737E-03-5.78710E-04-3.22234E-14
 -1      3572 8.32517E-03-6.64770E-04-3.28955E-14
 -1      3573 8.44425E-03-7.04603E-04-3.39413E-14
 -1      3574 1.40646E-02-2.95235E-03-9.66206E-14
 -1      3575 1.40088E-02-2.91113E-03-9.66130E-14
 -1      3576 1.39546E-02-2.91099E-03-9.51350E-14
 -1      3577 1.00701E-03-3.67222E-05-9.19309E-16
 -1      3578 1.00857E-03-6.11142E-05-9.17750E-16
 -1      3579 1.12852E-03-7.95187E-05-1.10960E-15
 -1      3580 1.83411E-03 2.61729E-04-2.34815E-15
 -1      3581 1.69071E-03 2.55224E-04-2.02166E-15
 -1      3582 1.54760E-03 2.46827E-04-1.72048E-15
 -1      3583 1.40478E-03 2.36376E-04-1.44425E-15
 -1      3584 1.61039E-03 2.19095E-04-1.89566E-15
 -1      3585 8.89969E-03-8.66008E-04-3.40103E-14
 -1      3586 5.23001E-03 1.74063E-04-1.64195E-14
 -1      3587 5.39141E-03 2.59514E-04-1.70666E-14
 -1      3588 5.09593E-03 1.62954E-04-1.57426E-14
 -1      3589 6.38099E-03 3.79089E-04-2.28785E-14
 -1      3590 6.52169E-03 3.25209E-04-2.38217E-14
 -1      3591 1.32298E-03 2.23924E-04-1.30360E-15
 -1      3592 1.23205E-03 2.08655E-04-1.15607E-15
 -1      3593 1.22451E-03 1.76648E-04-1.17823E-15
 -1      3594 1.38642E-03 1.99708E-04-1.45518E-15
 -1      3595 1.84985E-03-2.50513E-04-2.49906E-15
 -1      3596 1.99084E-03-2.55091E-04-2.86303E-15
 -1      3597 2.05041E-03-2.25655E-04-3.07693E-15
 -1      3598 9.26048E-03-1.01029E-03-3.67513E-14
 -1      3599 9.36710E-03-1.05337E-03-3.81243E-14
 -1      3600 9.40768E-03-1.05701E-03-3.88181E-14
 -1      3601 9.21232E-03-9.79444E-04-3.60964E-14
 -1      3602 4.14954E-03-2.25597E-04-1.28356E-14
 -1      3603 4.25521E-03-1.81441E-04-1.30429E-14
 -1      3604 4.19160E-03-3.92114E-04-1.30997E-14
 -1      3605 1.37112E-02-2.64512E-03-9.81484E-14
 -1      3606 8.87200E-03-8.64253E-04-3.48862E-14
 -1      3607 9.03397E-03-9.06881E-04-3.52238E-14
 -1      3608 4.10083E-03-3.68920E-04-1.26561E-14
 -1      3609 7.04605E-03 5.02174E-05-2.71939E-14
 -1      3610 2.69851E-03 2.73872E-04-4.83085E-15
 -1      3611 2.55378E-03 2.73983E-04-4.35448E-15
 -1      3612 2.75854E-03 2.36084E-04-5.12113E-15
 -1      3613 6.63556E-03 2.77005E-04-2.46504E-14
 -1      3614 4.27521E-03-1.17578E-04-1.27618E-14
 -1      3615 7.50346E-03-2.22954E-04-2.97419E-14
 -1      3616 7.66921E-03-3.05118E-04-3.08500E-14
 -1      3617 7.40557E-03-1.48120E-04-2.95187E-14
 -1      3618 1.34840E-02-2.51089E-03-9.68260E-14
 -1      3619 4.49543E-03 2.37500E-06-1.32598E-14
 -1      3620 4.66995E-03 1.12825E-05-1.40879E-14
 -1      3621 4.74117E-03 5.75992E-05-1.42651E-14
 -1      3622 7.92395E-03-4.44947E-04-3.20939E-14
 -1      3623 8.02542E-03-5.12614E-04-3.21603E-14
 -1      3624 8.16058E-03-5.65252E-04-3.31941E-14
 -1      3625 2.34863E-03 3.09162E-04-3.64434E-15
 -1      3626 4.02464E-03-2.32156E-04-1.22520E-14
 -1      3627 1.34623E-02-2.51925E-03-9.59569E-14
 -1      3628 1.37405E-02-2.71392E-03-9.64867E-14
 -1      3629 1.36841E-02-2.67216E-03-9.64638E-14
 -1      3630 1.24576E-03 4.10789E-05-1.31575E-15
 -1      3631 1.24429E-03 1.29120E-05-1.32159E-15
 -1      3632 3.81954E-03-2.93977E-04-1.11828E-14
 -1      3633 3.89466E-03-3.18703E-04-1.15303E-14
 -1      3634 5.93629E-03 4.51429E-04-2.00370E-14
 -1      3635 6.47037E-03 3.70976E-04-2.38231E-14
 -1      3636 6.31447E-03 4.22567E-04-2.27252E-14
 -1      3637 8.80244E-03-8.37235E-04-3.58552E-14
 -1      3638 8.83621E-03-8.52489E-04-3.53701E-14
 -1      3639 8.99984E-03-9.03598E-04-3.66067E-14
 -1      3640 1.38423E-02-2.82793E-03-9.51165E-14
 -1      3641 1.39522E-02-2.86920E-03-9.66043E-14
 -1      3642 1.38955E-02-2.82729E-03-9.65908E-14
 -1      3643 9.11558E-03-9.39314E-04-3.67813E-14
 -1      3644 9.11443E-03-9.32822E-04-3.58828E-14
 -1      3645 9.18628E-03-9.58109E-04-3.65460E-14
 -1      3646 1.35307E-02-2.57511E-03-9.58080E-14
 -1      3647 1.76971E-03-2.16659E-04-2.34651E-15
 -1      3648 1.12498E-03-2.68065E-05-1.11318E-15
 -1      3649 1.38463E-02-2.79157E-03-9.65484E-14
 -1      3650 1.37897E-02-2.74965E-03-9.65302E-14
 -1      3651 1.36379E-02-2.67900E-03-9.49785E-14
 -1      3652 1.37364E-02-2.75037E-03-9.50655E-14
 -1      3653 3.91577E-03-2.90216E-04-1.20833E-14
 -1      3654 1.25195E-03 9.85463E-05-1.29618E-15
 -1      3655 1.24833E-03 6.95267E-05-1.30745E-15
 -1      3656 1.36719E-03 5.77277E-05-1.54102E-15
 -1      3657 1.26752E-03-1.74481E-04-1.30077E-15
 -1      3658 1.32159E-03-2.11757E-04-1.36658E-15
 -1      3659 1.44842E-03-2.22908E-04-1.60799E-15
 -1      3660 1.97767E-03 2.66617E-04-2.69927E-15
 -1      3661 1.89625E-03 2.30527E-04-2.55274E-15
 -1      3662 2.12141E-03 2.70050E-04-3.07556E-15
 -1      3663 1.51096E-03-1.97959E-04-1.76926E-15
 -1      3664 5.87583E-03 4.31975E-04-1.96152E-14
 -1      3665 3.98770E-03-3.37827E-04-1.22877E-14
 -1      3666 6.26353E-03 4.14466E-04-2.21434E-14
 -1      3667 1.25604E-03-1.14878E-04-1.32271E-15
 -1      3668 1.26110E-03-1.44253E-04-1.31344E-15
 -1      3669 1.38637E-03-1.53312E-04-1.55057E-15
 -1      3670 5.74141E-03 4.22206E-04-1.88321E-14
 -1      3671 9.53671E-03-1.10289E-03-4.09054E-14
 -1      3672 9.65018E-03-1.15068E-03-4.23268E-14
 -1      3673 4.10422E-03-1.25778E-04-1.19681E-14
 -1      3674 4.24200E-03-5.69951E-05-1.22874E-14
 -1      3675 2.52252E-03-2.04166E-04-4.61539E-15
 -1      3676 2.65706E-03-2.06444E-04-5.10471E-15
 -1      3677 2.79636E-03-2.09329E-04-5.64564E-15
 -1      3678 2.93334E-03-2.12741E-04-6.21385E-15
 -1      3679 2.72055E-03-1.79876E-04-5.40211E-15
 -1      3680 3.06126E-03-2.17121E-04-6.77942E-15
 -1      3681 3.18631E-03-2.22491E-04-7.36974E-15
 -1      3682 2.98712E-03-1.88814E-04-6.51147E-15
 -1      3683 3.30805E-03-2.29667E-04-7.98430E-15
 -1      3684 3.42590E-03-2.38299E-04-8.62240E-15
 -1      3685 3.23655E-03-2.02359E-04-7.69220E-15
 -1      3686 3.53932E-03-2.49471E-04-9.28512E-15
 -1      3687 3.64740E-03-2.62332E-04-9.97150E-15
 -1      3688 3.47198E-03-2.22972E-04-8.96883E-15
 -1      3689 4.33183E-03 2.06443E-04-1.17933E-14
 -1      3690 4.16920E-03 1.97099E-04-1.10462E-14
 -1      3691 5.47571E-03 3.02550E-04-1.74385E-14
 -1      3692 5.55431E-03 3.50689E-04-1.78083E-14
 -1      3693 3.72652E-03-2.67679E-04-1.05679E-14
 -1      3694 3.83611E-03-2.78441E-04-1.14531E-14
 -1      3695 3.84684E-03-2.57087E-04-1.14392E-14
 -1      3696 3.67007E-03-2.40998E-04-1.02271E-14
 -1      3697 2.24910E-03-1.99474E-04-3.70991E-15
 -1      3698 2.38646E-03-2.01861E-04-4.15052E-15
 -1      3699 2.44573E-03-1.73589E-04-4.39626E-15
 -1      3700 9.76788E-03-1.20023E-03-4.37641E-14
 -1      3701 9.88920E-03-1.25198E-03-4.52169E-14
 -1      3702 9.66969E-03-1.15373E-03-4.30374E-14
 -1      3703 1.00136E-02-1.30512E-03-4.66812E-14
 -1      3704 1.01407E-02-1.35987E-03-4.81612E-14
 -1      3705 9.91080E-03-1.25410E-03-4.59407E-14
 -1      3706 1.02701E-02-1.41562E-03-4.96548E-14
 -1      3707 1.04014E-02-1.47246E-03-5.11609E-14
 -1      3708 1.01634E-02-1.36092E-03-4.89006E-14
 -1      3709 1.05344E-02-1.52995E-03-5.26821E-14
 -1      3710 1.06689E-02-1.58813E-03-5.42176E-14
 -1      3711 1.04245E-02-1.47235E-03-5.19137E-14
 -1      3712 1.08115E-02-1.64961E-03-5.58444E-14
 -1      3713 1.09553E-02-1.71152E-03-5.74874E-14
 -1      3714 1.06988E-02-1.58973E-03-5.50622E-14
 -1      3715 1.10931E-02-1.77064E-03-5.90650E-14
 -1      3716 1.12317E-02-1.82994E-03-6.06567E-14
 -1      3717 1.09782E-02-1.70905E-03-5.82690E-14
 -1      3718 1.13710E-02-1.88928E-03-6.22645E-14
 -1      3719 1.15108E-02-1.94865E-03-6.38853E-14
 -1      3720 1.12544E-02-1.82645E-03-6.14553E-14
 -1      3721 1.16511E-02-2.00798E-03-6.55195E-14
 -1      3722 1.17919E-02-2.06726E-03-6.71686E-14
 -1      3723 1.15333E-02-1.94424E-03-6.46961E-14
 -1      3724 1.19330E-02-2.12646E-03-6.88330E-14
 -1      3725 1.20743E-02-2.18557E-03-7.05060E-14
 -1      3726 1.18141E-02-2.06208E-03-6.79943E-14
 -1      3727 1.22160E-02-2.24458E-03-7.21916E-14
 -1      3728 1.23578E-02-2.30348E-03-7.38894E-14
 -1      3729 1.20963E-02-2.17972E-03-7.13461E-14
 -1      3730 1.24998E-02-2.36227E-03-7.55968E-14
 -1      3731 1.26420E-02-2.42096E-03-7.73139E-14
 -1      3732 1.23797E-02-2.29708E-03-7.47406E-14
 -1      3733 1.27843E-02-2.47954E-03-7.90372E-14
 -1      3734 1.29267E-02-2.53802E-03-8.07683E-14
 -1      3735 1.26637E-02-2.41411E-03-7.81730E-14
 -1      3736 1.30692E-02-2.59640E-03-8.25092E-14
 -1      3737 1.32118E-02-2.65470E-03-8.42555E-14
 -1      3738 1.29483E-02-2.53081E-03-8.16360E-14
 -1      3739 1.33544E-02-2.71292E-03-8.60068E-14
 -1      3740 1.34971E-02-2.77106E-03-8.77657E-14
 -1      3741 1.32333E-02-2.64721E-03-8.51282E-14
 -1      3742 1.36398E-02-2.82914E-03-8.95252E-14
 -1      3743 1.37826E-02-2.88716E-03-9.12931E-14
 -1      3744 1.35186E-02-2.76336E-03-8.86418E-14
 -1      3745 1.38699E-02-2.91993E-03-9.24761E-14
 -1      3746 1.39798E-02-2.96143E-03-9.39584E-14
 -1      3747 1.39231E-02-2.91952E-03-9.39556E-14
 -1      3748 1.37486E-02-2.85410E-03-9.15857E-14
 -1      3749 3.40085E-03 1.88817E-04-7.67611E-15
 -1      3750 3.25358E-03 1.90812E-04-7.07418E-15
 -1      3751 1.36379E-03-1.54353E-06-1.55433E-15
 -1      3752 1.24393E-03-1.49743E-05-1.32507E-15
 -1      3753 1.24470E-03-4.28382E-05-1.32591E-15
 -1      3754 4.00983E-03 1.91352E-04-1.03236E-14
 -1      3755 3.85383E-03 1.88083E-04-9.62567E-15
 -1      3756 4.06632E-03 1.42602E-04-1.07247E-14
 -1      3757 3.10756E-03 1.93219E-04-6.49628E-15
 -1      3758 2.96250E-03 1.95643E-04-5.94282E-15
 -1      3759 3.16513E-03 1.52542E-04-6.81939E-15
 -1      3760 4.66831E-03 2.37895E-04-1.33606E-14
 -1      3761 4.49849E-03 2.19637E-04-1.25645E-14
 -1      3762 4.39158E-03 1.56493E-04-1.22188E-14
 -1      3763 5.43941E-03 3.73556E-04-1.71612E-14
 -1      3764 5.26414E-03 3.38446E-04-1.62511E-14
 -1      3765 5.57085E-03 3.93724E-04-1.78722E-14
 -1      3766 6.58190E-03 3.11899E-04-2.44368E-14
 -1      3767 8.06683E-03-4.26094E-04-3.49642E-14
 -1      3768 7.90107E-03-3.54439E-04-3.36381E-14
 -1      3769 8.38764E-03-5.57163E-04-3.76789E-14
 -1      3770 8.22917E-03-4.93233E-04-3.63103E-14
 -1      3771 8.22039E-03-5.13284E-04-3.56927E-14
 -1      3772 8.69520E-03-6.77083E-04-4.04779E-14
 -1      3773 8.54293E-03-6.18078E-04-3.90685E-14
 -1      3774 8.53589E-03-6.35952E-04-3.84309E-14
 -1      3775 8.99268E-03-7.90442E-04-4.33475E-14
 -1      3776 8.84500E-03-7.34290E-04-4.19044E-14
 -1      3777 8.83776E-03-7.49397E-04-4.12473E-14
 -1      3778 9.28322E-03-9.00338E-04-4.62862E-14
 -1      3779 9.13863E-03-8.45638E-04-4.48097E-14
 -1      3780 9.13010E-03-8.58201E-04-4.41354E-14
 -1      3781 9.56939E-03-1.00871E-03-4.92860E-14
 -1      3782 9.42670E-03-9.54603E-04-4.77784E-14
 -1      3783 9.41640E-03-9.65185E-04-4.70860E-14
 -1      3784 9.85310E-03-1.11669E-03-5.23483E-14
 -1      3785 9.71144E-03-1.06269E-03-5.08093E-14
 -1      3786 9.69926E-03-1.07188E-03-5.00988E-14
 -1      3787 1.01357E-02-1.22492E-03-5.54691E-14
 -1      3788 9.99445E-03-1.17074E-03-5.39016E-14
 -1      3789 9.98048E-03-1.17905E-03-5.31702E-14
 -1      3790 1.04179E-02-1.33374E-03-5.86460E-14
 -1      3791 1.02768E-02-1.27924E-03-5.70509E-14
 -1      3792 1.02612E-02-1.28706E-03-5.63012E-14
 -1      3793 1.07003E-02-1.44329E-03-6.18774E-14
 -1      3794 1.05590E-02-1.38842E-03-6.02548E-14
 -1      3795 1.05421E-02-1.39601E-03-5.94877E-14
 -1      3796 1.09831E-02-1.55362E-03-6.51594E-14
 -1      3797 1.08416E-02-1.49836E-03-6.35122E-14
 -1      3798 1.08235E-02-1.50590E-03-6.27283E-14
 -1      3799 1.12664E-02-1.66472E-03-6.84876E-14
 -1      3800 1.11246E-02-1.60908E-03-6.68180E-14
 -1      3801 1.11056E-02-1.61667E-03-6.60194E-14
 -1      3802 1.15502E-02-1.77651E-03-7.18628E-14
 -1      3803 1.14082E-02-1.72053E-03-7.01705E-14
 -1      3804 1.13885E-02-1.72821E-03-6.93593E-14
 -1      3805 1.18344E-02-1.88893E-03-7.52789E-14
 -1      3806 1.16922E-02-1.83265E-03-7.35654E-14
 -1      3807 1.16719E-02-1.84045E-03-7.27419E-14
 -1      3808 1.21191E-02-2.00190E-03-7.87298E-14
 -1      3809 1.19767E-02-1.94535E-03-7.70011E-14
 -1      3810 1.19560E-02-1.95327E-03-7.61659E-14
 -1      3811 1.24040E-02-2.11533E-03-8.22061E-14
 -1      3812 1.22615E-02-2.05856E-03-8.04653E-14
 -1      3813 1.22405E-02-2.06658E-03-7.96238E-14
 -1      3814 1.26892E-02-2.22915E-03-8.57030E-14
 -1      3815 1.25466E-02-2.17220E-03-8.39518E-14
 -1      3816 1.25253E-02-2.18030E-03-8.31016E-14
 -1      3817 1.29746E-02-2.34329E-03-8.92189E-14
 -1      3818 1.28319E-02-2.28619E-03-8.74580E-14
 -1      3819 1.28105E-02-2.29436E-03-8.66029E-14
 -1      3820 1.32601E-02-2.45767E-03-9.27565E-14
 -1      3821 1.31174E-02-2.40045E-03-9.09846E-14
 -1      3822 1.30958E-02-2.40868E-03-9.01233E-14
 -1      3823 9.23488E-03-9.80621E-04-3.65434E-14
 -1      3824 8.41371E-03-6.76990E-04-3.45541E-14
 -1      3825 8.57987E-03-7.48104E-04-3.52467E-14
 -1      3826 6.96265E-03 1.13959E-04-2.69346E-14
 -1      3827 7.15130E-03 8.97311E-06-2.81703E-14
 -1      3828 1.67372E-03 1.90669E-04-2.07611E-15
 -1      3829 1.53158E-03 1.84337E-04-1.77016E-15
 -1      3830 1.38674E-02-2.87835E-03-9.39501E-14
 -1      3831 1.38117E-02-2.83720E-03-9.39406E-14
 -1      3832 1.37801E-02-2.84569E-03-9.27648E-14
 -1      3833 1.24810E-03-6.44007E-05-1.32839E-15
 -1      3834 1.25096E-03-9.26730E-05-1.32423E-15
 -1      3835 1.37534E-03-9.92224E-05-1.56299E-15
 -1      3836 1.36696E-03-5.34906E-05-1.56059E-15
 -1      3837 2.40941E-03 2.73524E-04-3.90284E-15
 -1      3838 2.26531E-03 2.72295E-04-3.47677E-15
 -1      3839 2.18287E-03 2.36204E-04-3.30917E-15
 -1      3840 2.47016E-03 2.37565E-04-4.16522E-15
 -1      3841 3.97685E-03-3.32716E-04-1.24689E-14
 -1      3842 1.97145E-03-1.93177E-04-2.90360E-15
 -1      3843 2.11070E-03-1.96614E-04-3.29465E-15
 -1      3844 2.17188E-03-1.67954E-04-3.51497E-15
 -1      3845 5.33929E-03 2.85116E-04-1.67354E-14
 -1      3846 1.35091E-02-2.58338E-03-9.49363E-14
 -1      3847 4.93206E-03 1.49631E-04-1.49244E-14
 -1      3848 5.08868E-03 2.25039E-04-1.55346E-14
 -1      3849 7.65931E-03-2.46635E-04-3.17651E-14
 -1      3850 7.48527E-03-1.62931E-04-3.04941E-14
 -1      3851 1.50311E-03-1.65249E-04-1.78510E-15
 -1      3852 1.62020E-03-1.76627E-04-2.03598E-15
 -1      3853 1.49680E-03-1.33315E-04-1.79723E-15
 -1      3854 3.90744E-03-2.29224E-04-1.16127E-14
 -1      3855 3.99339E-03-1.89044E-04-1.17895E-14
 -1      3856 7.32774E-03-8.28835E-05-2.93950E-14
 -1      3857 1.24027E-03 1.52428E-04-1.23043E-15
 -1      3858 1.23474E-03 1.22137E-04-1.24705E-15
 -1      3859 1.35332E-03 1.12887E-04-1.47750E-15
 -1      3860 1.32063E-03 1.62984E-04-1.36902E-15
 -1      3861 1.72592E-03-1.83051E-04-2.27959E-15
 -1      3862 1.86610E-03-1.88057E-04-2.62727E-15
 -1      3863 1.92867E-03-1.60063E-04-2.82479E-15
 -1      3864 1.71845E-03-1.49617E-04-2.29412E-15
 -1      3865 3.70057E-03 1.87071E-04-8.95208E-15
 -1      3866 3.54973E-03 1.87358E-04-8.30179E-15
 -1      3867 3.75623E-03 1.40978E-04-9.32675E-15
 -1      3868 2.81816E-03 1.97950E-04-5.41426E-15
 -1      3869 2.67432E-03 1.99893E-04-4.91032E-15
 -1      3870 2.87723E-03 1.59479E-04-5.71052E-15
 -1      3871 4.15814E-03-1.12525E-05-1.16908E-14
 -1      3872 4.33859E-03 7.81382E-06-1.24729E-14
 -1      3873 4.40208E-03 4.48407E-05-1.26368E-14
 -1      3874 7.81192E-03-3.69744E-04-3.18633E-14
 -1      3875 5.17186E-03 2.65996E-04-1.58844E-14
 -1      3876 5.02429E-03 2.88791E-04-1.50665E-14
 -1      3877 6.79135E-03 2.03147E-04-2.57634E-14
 -1      3878 8.77258E-03-8.18728E-04-3.64880E-14
 -1      3879 8.95210E-03-8.80826E-04-3.77440E-14
 -1      3880 8.74960E-03-7.97966E-04-3.71213E-14
 -1      3881 3.80313E-03-2.23112E-04-1.09991E-14
 -1      3882 1.81614E-03 1.95479E-04-2.40621E-15
 -1      3883 1.73749E-03 1.61539E-04-2.26100E-15
 -1      3884 1.95881E-03 1.98875E-04-2.76163E-15
 -1      3885 1.48456E-03 1.31657E-05-1.80108E-15
 -1      3886 1.48395E-03-1.75423E-05-1.80533E-15
 -1      3887 9.36295E-03-1.03076E-03-3.88232E-14
 -1      3888 9.37335E-03-1.03377E-03-3.95112E-14
 -1      3889 4.84854E-03 2.59679E-04-1.42183E-14
 -1      3890 4.74077E-03 1.88364E-04-1.38462E-14
 -1      3891 3.96400E-03-1.35906E-04-1.13424E-14
 -1      3892 7.81641E-03-3.44521E-04-3.24657E-14
 -1      3893 9.07955E-03-9.29308E-04-3.77788E-14
 -1      3894 9.09853E-03-9.35778E-04-3.72806E-14
 -1      3895 9.19024E-03-9.66036E-04-3.79564E-14
 -1      3896 9.27099E-03-9.92382E-04-3.74562E-14
 -1      3897 1.37550E-02-2.79536E-03-9.39299E-14
 -1      3898 1.36984E-02-2.75352E-03-9.39210E-14
 -1      3899 1.36678E-02-2.76277E-03-9.27475E-14
 -1      3900 1.34136E-02-2.55457E-03-9.34102E-14
 -1      3901 4.74845E-03 1.26074E-04-1.40673E-14
 -1      3902 8.31373E-03-6.19975E-04-3.44881E-14
 -1      3903 3.45714E-03 1.45580E-04-8.02528E-15
 -1      3904 1.34424E-02-2.58652E-03-9.30411E-14
 -1      3905 1.32673E-02-2.49787E-03-9.15218E-14
 -1      3906 1.34916E-02-2.62216E-03-9.30851E-14
 -1      3907 1.48977E-03 7.54135E-05-1.78305E-15
 -1      3908 1.48651E-03 4.40673E-05-1.79351E-15
 -1      3909 1.60620E-03 2.88242E-05-2.06477E-15
 -1      3910 3.99850E-03-2.13328E-05-1.09779E-14
 -1      3911 4.08135E-03 3.48396E-05-1.11498E-14
 -1      3912 4.40360E-03 1.07379E-04-1.24292E-14
 -1      3913 4.56669E-03 1.08069E-04-1.32182E-14
 -1      3914 2.37113E-03-1.42713E-04-4.17857E-15
 -1      3915 2.50667E-03-1.45916E-04-4.64411E-15
 -1      3916 3.81297E-03-1.42760E-04-1.06335E-14
 -1      3917 3.90399E-03-8.46651E-05-1.08007E-14
 -1      3918 8.05514E-03-4.72985E-04-3.37408E-14
 -1      3919 2.91640E-03-1.59533E-04-6.24471E-15
 -1      3920 3.04424E-03-1.65812E-04-6.81081E-15
 -1      3921 3.16956E-03-1.73721E-04-7.40141E-15
 -1      3922 3.29177E-03-1.83092E-04-8.01570E-15
 -1      3923 3.10538E-03-1.43476E-04-7.11165E-15
 -1      3924 3.41080E-03-1.94708E-04-8.65417E-15
 -1      3925 3.52579E-03-2.08188E-04-9.31633E-15
 -1      3926 3.35293E-03-1.64303E-04-8.34069E-15
 -1      3927 1.31246E-02-2.44057E-03-8.97559E-14
 -1      3928 4.23845E-03 9.97709E-05-1.16648E-14
 -1      3929 9.56636E-03-1.10840E-03-4.23078E-14
 -1      3930 9.68390E-03-1.15548E-03-4.37459E-14
 -1      3931 9.80486E-03-1.20437E-03-4.51980E-14
 -1      3932 9.92855E-03-1.25524E-03-4.66640E-14
 -1      3933 9.69486E-03-1.15555E-03-4.44536E-14
 -1      3934 1.00548E-02-1.30750E-03-4.81456E-14
 -1      3935 1.01832E-02-1.36122E-03-4.96383E-14
 -1      3936 9.94373E-03-1.25509E-03-4.73892E-14
 -1      3937 1.03135E-02-1.41592E-03-5.11447E-14
 -1      3938 1.04455E-02-1.47165E-03-5.26661E-14
 -1      3939 1.02010E-02-1.36051E-03-5.03756E-14
 -1      3940 1.05857E-02-1.53087E-03-5.42782E-14
 -1      3941 1.07272E-02-1.59082E-03-5.59073E-14
 -1      3942 1.04716E-02-1.47296E-03-5.34950E-14
 -1      3943 1.08632E-02-1.64833E-03-5.74740E-14
 -1      3944 1.10001E-02-1.70623E-03-5.90514E-14
 -1      3945 1.07476E-02-1.58843E-03-5.66763E-14
 -1      3946 1.11379E-02-1.76435E-03-6.06451E-14
 -1      3947 1.12764E-02-1.82268E-03-6.22536E-14
 -1      3948 1.10211E-02-1.70295E-03-5.98364E-14
 -1      3949 1.14155E-02-1.88111E-03-6.38753E-14
 -1      3950 1.15552E-02-1.93963E-03-6.55095E-14
 -1      3951 1.12976E-02-1.81855E-03-6.30531E-14
 -1      3952 1.16953E-02-1.99816E-03-6.71595E-14
 -1      3953 1.18359E-02-2.05672E-03-6.88234E-14
 -1      3954 1.15766E-02-1.93472E-03-6.63272E-14
 -1      3955 1.19768E-02-2.11524E-03-7.04998E-14
 -1      3956 1.21181E-02-2.17374E-03-7.21870E-14
 -1      3957 1.18574E-02-2.05114E-03-6.96540E-14
 -1      3958 1.22596E-02-2.23218E-03-7.38831E-14
 -1      3959 1.24013E-02-2.29058E-03-7.55932E-14
 -1      3960 1.21396E-02-2.16758E-03-7.30291E-14
 -1      3961 1.25432E-02-2.34891E-03-7.73091E-14
 -1      3962 1.26853E-02-2.40718E-03-7.90318E-14
 -1      3963 1.24228E-02-2.28393E-03-7.64458E-14
 -1      3964 1.28275E-02-2.46539E-03-8.07649E-14
 -1      3965 1.29699E-02-2.52354E-03-8.25028E-14
 -1      3966 1.27068E-02-2.40014E-03-7.98938E-14
 -1      3967 1.31123E-02-2.58163E-03-8.42497E-14
 -1      3968 1.32548E-02-2.63967E-03-8.60022E-14
 -1      3969 1.29914E-02-2.51618E-03-8.33722E-14
 -1      3970 1.33974E-02-2.69766E-03-8.77562E-14
 -1      3971 1.35401E-02-2.75560E-03-8.95175E-14
 -1      3972 1.32763E-02-2.63206E-03-8.68713E-14
 -1      3973 1.36165E-02-2.78431E-03-9.05507E-14
 -1      3974 1.37037E-02-2.81702E-03-9.17337E-14
 -1      3975 1.36480E-02-2.77594E-03-9.17258E-14
 -1      3976 1.34953E-02-2.71863E-03-8.96614E-14
 -1      3977 4.07403E-03 8.16202E-05-1.09545E-14
 -1      3978 3.91875E-03 8.23715E-05-1.02368E-14
 -1      3979 3.22140E-03 1.11477E-04-7.14507E-15
 -1      3980 3.07814E-03 1.16288E-04-6.56505E-15
 -1      3981 8.97976E-03-8.18677E-04-4.20173E-14
 -1      3982 8.83360E-03-7.65423E-04-4.05907E-14
 -1      3983 8.68494E-03-7.11387E-04-3.91849E-14
 -1      3984 8.53296E-03-6.55371E-04-3.77951E-14
 -1      3985 8.83290E-03-7.82556E-04-3.99367E-14
 -1      3986 9.26633E-03-9.23556E-04-4.49215E-14
 -1      3987 9.12379E-03-8.71174E-04-4.34612E-14
 -1      3988 9.11995E-03-8.84635E-04-4.27891E-14
 -1      3989 9.54822E-03-1.02826E-03-4.78840E-14
 -1      3990 9.40766E-03-9.75810E-04-4.63955E-14
 -1      3991 9.40062E-03-9.86518E-04-4.57054E-14
 -1      3992 9.82783E-03-1.13381E-03-5.09076E-14
 -1      3993 9.68817E-03-1.08088E-03-4.93889E-14
 -1      3994 9.67824E-03-1.08970E-03-4.86809E-14
 -1      3995 1.01067E-02-1.24060E-03-5.39927E-14
 -1      3996 9.96727E-03-1.18704E-03-5.24429E-14
 -1      3997 9.95485E-03-1.19469E-03-5.17167E-14
 -1      3998 1.03858E-02-1.34869E-03-5.71320E-14
 -1      3999 1.02462E-02-1.29449E-03-5.55554E-14
 -1      4000 1.02317E-02-1.30151E-03-5.48105E-14
 -1      4001 1.06655E-02-1.45799E-03-6.03285E-14
 -1      4002 1.05255E-02-1.40320E-03-5.87233E-14
 -1      4003 1.05094E-02-1.40996E-03-5.79611E-14
 -1      4004 1.09462E-02-1.56836E-03-6.35789E-14
 -1      4005 1.08057E-02-1.51306E-03-6.19478E-14
 -1      4006 1.07882E-02-1.51980E-03-6.11676E-14
 -1      4007 1.12278E-02-1.67965E-03-6.68793E-14
 -1      4008 1.10868E-02-1.62391E-03-6.52219E-14
 -1      4009 1.10683E-02-1.63078E-03-6.44266E-14
 -1      4010 1.15102E-02-1.79172E-03-7.02292E-14
 -1      4011 1.13689E-02-1.73560E-03-6.85496E-14
 -1      4012 1.13495E-02-1.74267E-03-6.77385E-14
 -1      4013 1.17935E-02-1.90442E-03-7.36209E-14
 -1      4014 1.16518E-02-1.84800E-03-7.19197E-14
 -1      4015 1.16317E-02-1.85528E-03-7.10962E-14
 -1      4016 1.20774E-02-2.01765E-03-7.70511E-14
 -1      4017 1.19354E-02-1.96098E-03-7.53308E-14
 -1      4018 1.19148E-02-1.96847E-03-7.44979E-14
 -1      4019 1.23618E-02-2.13131E-03-8.05127E-14
 -1      4020 1.22195E-02-2.07444E-03-7.87794E-14
 -1      4021 1.21987E-02-2.08211E-03-7.79363E-14
 -1      4022 1.26466E-02-2.24532E-03-8.39956E-14
 -1      4023 1.25041E-02-2.18828E-03-8.22517E-14
 -1      4024 1.24830E-02-2.19612E-03-8.14003E-14
 -1      4025 1.29317E-02-2.35961E-03-8.75019E-14
 -1      4026 1.27891E-02-2.30243E-03-8.57467E-14
 -1      4027 1.27678E-02-2.31040E-03-8.48899E-14
 -1      4028 1.35901E-02-2.69342E-03-9.31738E-14
 -1      4029 1.35408E-02-2.65780E-03-9.31309E-14
 -1      4030 1.33453E-02-2.56533E-03-9.11979E-14
 -1      4031 1.40138E-03 1.73329E-04-1.51490E-15
 -1      4032 1.46588E-03 1.47864E-04-1.67244E-15
 -1      4033 1.48209E-03 1.21443E-04-1.73129E-15
 -1      4034 3.76713E-03 8.55178E-05-9.54315E-15
 -1      4035 3.61826E-03 8.96857E-05-8.87318E-15
 -1      4036 3.77395E-03 2.97516E-05-9.75369E-15
 -1      4037 1.49093E-03-1.09127E-04-1.79967E-15
 -1      4038 1.60686E-03-1.18858E-04-2.05264E-15
 -1      4039 1.48597E-03-8.52284E-05-1.79987E-15
 -1      4040 3.61456E-03-2.11885E-04-9.85114E-15
 -1      4041 3.71035E-03-2.16610E-04-1.04371E-14
 -1      4042 3.76424E-03-1.86534E-04-1.06009E-14
 -1      4043 3.56737E-03-1.79687E-04-9.51457E-15
 -1      4044 2.09654E-03-1.36501E-04-3.32129E-15
 -1      4045 2.23434E-03-1.39603E-04-3.73762E-15
 -1      4046 2.29833E-03-1.11485E-04-3.96283E-15
 -1      4047 1.60118E-03 1.08509E-04-2.00117E-15
 -1      4048 2.64408E-03-1.49691E-04-5.14744E-15
 -1      4049 2.78294E-03-1.54127E-04-5.68987E-15
 -1      4050 2.84480E-03-1.28951E-04-5.96552E-15
 -1      4051 2.57296E-03-1.18847E-04-4.90717E-15
 -1      4052 3.49147E-03 9.81450E-05-8.30254E-15
 -1      4053 3.34620E-03 1.03182E-04-7.67719E-15
 -1      4054 3.25710E-03 6.71051E-05-7.40186E-15
 -1      4055 3.50362E-03 4.73101E-05-8.50061E-15
 -1      4056 8.25647E-03-5.50985E-04-3.54065E-14
 -1      4057 8.26324E-03-5.78976E-04-3.47794E-14
 -1      4058 8.50263E-03-6.85860E-04-3.61686E-14
 -1      4059 8.41570E-03-6.11855E-04-3.67597E-14
 -1      4060 1.31032E-02-2.44864E-03-8.88933E-14
 -1      4061 2.99325E-03 8.20109E-05-6.31105E-15
 -1      4062 2.93565E-03 1.20819E-04-6.00922E-15
 -1      4063 2.79354E-03 1.24834E-04-5.47865E-15
 -1      4064 2.59139E-03 1.64858E-04-4.69961E-15
 -1      4065 2.53086E-03 2.01327E-04-4.43082E-15
 -1      4066 2.38761E-03 2.02102E-04-3.97635E-15
 -1      4067 3.83455E-03-3.98053E-05-1.02877E-14
 -1      4068 1.72870E-03 4.52694E-05-2.34459E-15
 -1      4069 1.72616E-03 1.22656E-05-2.35383E-15
 -1      4070 9.37280E-03-1.03356E-03-4.00282E-14
 -1      4071 9.37307E-03-1.03243E-03-4.07133E-14
 -1      4072 1.35150E-02-2.70557E-03-9.06850E-14
 -1      4073 1.35914E-02-2.73418E-03-9.17147E-14
 -1      4074 1.35348E-02-2.69243E-03-9.17049E-14
 -1      4075 2.24456E-03 2.02049E-04-3.54653E-15
 -1      4076 2.10162E-03 2.01022E-04-3.14164E-15
 -1      4077 2.02171E-03 1.66781E-04-2.97471E-15
 -1      4078 2.30638E-03 1.67616E-04-3.78773E-15
 -1      4079 8.57210E-03-6.90111E-04-3.74972E-14
 -1      4080 3.70286E-03-1.42746E-04-1.00862E-14
 -1      4081 9.06119E-03-9.19968E-04-3.84301E-14
 -1      4082 9.16462E-03-9.56362E-04-3.91193E-14
 -1      4083 9.04499E-03-9.07773E-04-3.90823E-14
 -1      4084 1.31524E-02-2.48414E-03-8.89385E-14
 -1      4085 1.29596E-02-2.40304E-03-8.66880E-14
 -1      4086 1.32017E-02-2.51963E-03-8.89813E-14
 -1      4087 1.70624E-03-9.91012E-05-2.29845E-15
 -1      4088 1.71183E-03-1.24245E-04-2.29738E-15
 -1      4089 1.81676E-03-1.29308E-04-2.55587E-15
 -1      4090 8.63407E-03-7.28227E-04-3.74649E-14
 -1      4091 8.68189E-03-7.62522E-04-3.71604E-14
 -1      4092 8.86967E-03-8.34570E-04-3.84313E-14
 -1      4093 8.74532E-03-7.66625E-04-3.85068E-14
 -1      4094 1.48255E-03-3.95527E-05-1.80240E-15
 -1      4095 1.48583E-03-6.31175E-05-1.80609E-15
 -1      4096 1.60108E-03-7.14047E-05-2.06058E-15
 -1      4097 1.60269E-03-2.58845E-05-2.06958E-15
 -1      4098 1.84485E-03 3.95315E-06-2.65413E-15
 -1      4099 1.72345E-03-1.13011E-05-2.35360E-15
 -1      4100 1.72159E-03-3.47413E-05-2.35123E-15
 -1      4101 1.90464E-03-1.30792E-04-2.78551E-15
 -1      4102 2.00917E-03-1.35382E-04-3.07015E-15
 -1      4103 2.07388E-03-1.07272E-04-3.27523E-15
 -1      4104 1.89881E-03-1.05044E-04-2.78664E-15
 -1      4105 1.72829E-03 1.27327E-04-2.27749E-15
 -1      4106 1.73473E-03 7.79202E-05-2.33727E-15
 -1      4107 1.85407E-03 6.13817E-05-2.64678E-15
 -1      4108 1.86975E-03 1.29598E-04-2.62334E-15
 -1      4109 3.29766E-03-1.31772E-04-8.02826E-15
 -1      4110 3.42146E-03-1.44460E-04-8.66622E-15
 -1      4111 9.37031E-03-1.02868E-03-4.13874E-14
 -1      4112 9.57970E-03-1.10649E-03-4.37095E-14
 -1      4113 9.70339E-03-1.15395E-03-4.51624E-14
 -1      4114 1.35029E-02-2.66092E-03-9.19900E-14
 -1      4115 9.82929E-03-1.20299E-03-4.66307E-14
 -1      4116 9.95691E-03-1.25371E-03-4.81125E-14
 -1      4117 9.71097E-03-1.15079E-03-4.58721E-14
 -1      4118 1.00863E-02-1.30564E-03-4.96073E-14
 -1      4119 1.02172E-02-1.35885E-03-5.11147E-14
 -1      4120 9.96907E-03-1.25107E-03-4.88358E-14
 -1      4121 1.03562E-02-1.41568E-03-5.27120E-14
 -1      4122 1.04965E-02-1.47349E-03-5.43267E-14
 -1      4123 1.02391E-02-1.35889E-03-5.19291E-14
 -1      4124 1.06313E-02-1.52918E-03-5.58795E-14
 -1      4125 1.07671E-02-1.58547E-03-5.74471E-14
 -1      4126 1.05139E-02-1.47047E-03-5.50830E-14
 -1      4127 1.09038E-02-1.64215E-03-5.90298E-14
 -1      4128 1.10413E-02-1.69921E-03-6.06241E-14
 -1      4129 1.07858E-02-1.58188E-03-5.82211E-14
 -1      4130 1.11795E-02-1.75652E-03-6.22327E-14
 -1      4131 1.13183E-02-1.81406E-03-6.38561E-14
 -1      4132 1.10609E-02-1.69498E-03-6.14139E-14
 -1      4133 1.14577E-02-1.87174E-03-6.54933E-14
 -1      4134 1.15976E-02-1.92954E-03-6.71444E-14
 -1      4135 1.13386E-02-1.80917E-03-6.46614E-14
 -1      4136 1.17379E-02-1.98740E-03-6.88085E-14
 -1      4137 1.18785E-02-2.04533E-03-7.04863E-14
 -1      4138 1.16182E-02-1.92403E-03-6.79631E-14
 -1      4139 1.20196E-02-2.10328E-03-7.21748E-14
 -1      4140 1.21609E-02-2.16124E-03-7.38725E-14
 -1      4141 1.18995E-02-2.03927E-03-7.13190E-14
 -1      4142 1.23024E-02-2.21919E-03-7.55820E-14
 -1      4143 1.24442E-02-2.27714E-03-7.72990E-14
 -1      4144 1.21820E-02-2.15470E-03-7.47183E-14
 -1      4145 1.25861E-02-2.33507E-03-7.90233E-14
 -1      4146 1.27282E-02-2.39298E-03-8.07542E-14
 -1      4147 1.24654E-02-2.27020E-03-7.81528E-14
 -1      4148 1.28704E-02-2.45087E-03-8.24934E-14
 -1      4149 1.30128E-02-2.50873E-03-8.42392E-14
 -1      4150 1.27495E-02-2.38571E-03-8.16160E-14
 -1      4151 1.31552E-02-2.56657E-03-8.59897E-14
 -1      4152 1.32978E-02-2.62438E-03-8.77428E-14
 -1      4153 1.30342E-02-2.50119E-03-8.51047E-14
 -1      4154 1.33682E-02-2.65067E-03-8.86965E-14
 -1      4155 1.34445E-02-2.67931E-03-8.97289E-14
 -1      4156 1.33879E-02-2.63764E-03-8.97183E-14
 -1      4157 1.32471E-02-2.58517E-03-8.78106E-14
 -1      4158 9.03128E-03-8.65577E-04-4.13182E-14
 -1      4159 8.88940E-03-8.16279E-04-3.99031E-14
 -1      4160 8.94722E-03-8.48883E-04-3.98660E-14
 -1      4161 9.53260E-03-1.04726E-03-4.64872E-14
 -1      4162 9.39536E-03-9.96971E-04-4.50157E-14
 -1      4163 9.28371E-03-9.55767E-04-4.38784E-14
 -1      4164 9.14500E-03-9.06459E-04-4.24323E-14
 -1      4165 9.19712E-03-9.35732E-04-4.23935E-14
 -1      4166 9.41752E-03-1.01563E-03-4.46481E-14
 -1      4167 9.80627E-03-1.14967E-03-4.94761E-14
 -1      4168 9.66943E-03-1.09811E-03-4.79761E-14
 -1      4169 9.66175E-03-1.10607E-03-4.72696E-14
 -1      4170 1.00802E-02-1.25465E-03-5.25222E-14
 -1      4171 9.94312E-03-1.20185E-03-5.09899E-14
 -1      4172 9.93203E-03-1.20846E-03-5.02687E-14
 -1      4173 1.03553E-02-1.36189E-03-5.56269E-14
 -1      4174 1.02176E-02-1.30801E-03-5.40686E-14
 -1      4175 1.02039E-02-1.31396E-03-5.33262E-14
 -1      4176 1.06319E-02-1.47098E-03-5.87864E-14
 -1      4177 1.04934E-02-1.41623E-03-5.72000E-14
 -1      4178 1.04777E-02-1.42196E-03-5.64412E-14
 -1      4179 1.09101E-02-1.58153E-03-6.20051E-14
 -1      4180 1.07708E-02-1.52610E-03-6.03892E-14
 -1      4181 1.07536E-02-1.53190E-03-5.96121E-14
 -1      4182 1.11898E-02-1.69321E-03-6.52741E-14
 -1      4183 1.10498E-02-1.63725E-03-6.36326E-14
 -1      4184 1.10314E-02-1.64329E-03-6.28396E-14
 -1      4185 1.14708E-02-1.80575E-03-6.85963E-14
 -1      4186 1.13301E-02-1.74939E-03-6.69276E-14
 -1      4187 1.13109E-02-1.75574E-03-6.61201E-14
 -1      4188 1.17529E-02-1.91893E-03-7.19654E-14
 -1      4189 1.16117E-02-1.86227E-03-7.02754E-14
 -1      4190 1.15918E-02-1.86895E-03-6.94522E-14
 -1      4191 1.20360E-02-2.03261E-03-7.53747E-14
 -1      4192 1.18944E-02-1.97572E-03-7.36649E-14
 -1      4193 1.18739E-02-1.98272E-03-7.28321E-14
 -1      4194 1.23198E-02-2.14667E-03-7.88187E-14
 -1      4195 1.21778E-02-2.08960E-03-7.70928E-14
 -1      4196 1.21570E-02-2.09689E-03-7.62506E-14
 -1      4197 1.26042E-02-2.26100E-03-8.22889E-14
 -1      4198 1.24619E-02-2.20381E-03-8.05517E-14
 -1      4199 1.24409E-02-2.21133E-03-7.97017E-14
 -1      4200 1.28530E-02-2.36064E-03-8.53597E-14
 -1      4201 1.27106E-02-2.30335E-03-8.36112E-14
 -1      4202 1.26894E-02-2.31106E-03-8.27560E-14
 -1      4203 1.29023E-02-2.39596E-03-8.54018E-14
 -1      4204 3.04347E-03-1.11742E-04-6.82348E-15
 -1      4205 3.17147E-03-1.20822E-04-7.41388E-15
 -1      4206 3.24298E-03-9.74623E-05-7.71700E-15
 -1      4207 3.69299E-03-2.92167E-05-9.59306E-15
 -1      4208 1.70570E-03-7.57615E-05-2.30625E-15
 -1      4209 3.50826E-03-1.43243E-04-9.10410E-15
 -1      4210 3.61083E-03-1.43846E-04-9.62728E-15
 -1      4211 3.65051E-03-9.96836E-05-9.65493E-15
 -1      4212 3.46179E-03-1.06247E-04-8.77046E-15
 -1      4213 2.22719E-03-8.00483E-05-3.74967E-15
 -1      4214 2.36423E-03-8.34210E-05-4.19066E-15
 -1      4215 1.34265E-02-2.63240E-03-9.09590E-14
 -1      4216 3.61287E-03-5.83216E-05-9.32791E-15
 -1      4217 3.54841E-03 5.08837E-06-8.82496E-15
 -1      4218 3.42697E-03 1.66917E-05-8.25693E-15
 -1      4219 3.51412E-03-6.40041E-05-8.88983E-15
 -1      4220 2.65173E-03 1.28271E-04-4.97181E-15
 -1      4221 2.51001E-03 1.31002E-04-4.48983E-15
 -1      4222 2.71180E-03 9.16116E-05-5.24675E-15
 -1      4223 3.30598E-03 2.77229E-05-7.70701E-15
 -1      4224 3.18492E-03 3.80013E-05-7.17488E-15
 -1      4225 3.35322E-03-1.15619E-05-8.01293E-15
 -1      4226 2.15293E-03 1.30994E-04-3.38932E-15
 -1      4227 2.01130E-03 1.30798E-04-2.99400E-15
 -1      4228 2.00215E-03 9.55387E-05-3.00899E-15
 -1      4229 2.43565E-03-5.53762E-05-4.43258E-15
 -1      4230 2.50364E-03-8.73944E-05-4.66843E-15
 -1      4231 2.64174E-03-9.19560E-05-5.17257E-15
 -1      4232 3.04561E-03 4.50254E-05-6.59446E-15
 -1      4233 2.90636E-03 5.12301E-05-6.03800E-15
 -1      4234 3.09716E-03 8.24490E-06-6.87949E-15
 -1      4235 9.36779E-03-1.02291E-03-4.20730E-14
 -1      4236 2.05282E-03-7.81057E-05-3.22617E-15
 -1      4237 2.14014E-03-7.90287E-05-3.48299E-15
 -1      4238 2.20816E-03-5.05596E-05-3.69308E-15
 -1      4239 1.32336E-02-2.55102E-03-8.86975E-14
 -1      4240 8.96497E-03-8.64479E-04-3.94974E-14
 -1      4241 9.02476E-03-8.94205E-04-3.94541E-14
 -1      4242 9.13423E-03-9.36020E-04-4.01547E-14
 -1      4243 9.10055E-03-9.10081E-04-4.09061E-14
 -1      4244 1.96738E-03 1.43216E-05-2.97571E-15
 -1      4245 1.96405E-03-1.02544E-05-2.97615E-15
 -1      4246 2.77679E-03-9.74143E-05-5.69567E-15
 -1      4247 2.91178E-03-1.03906E-04-6.25037E-15
 -1      4248 2.98100E-03-7.85597E-05-6.52980E-15
 -1      4249 2.71166E-03-6.49860E-05-5.43371E-15
 -1      4250 1.99443E-03 6.09784E-05-3.01949E-15
 -1      4251 1.82510E-03-6.20934E-05-2.60843E-15
 -1      4252 2.11295E-03 4.66632E-05-3.36473E-15
 -1      4253 2.29456E-03 1.30240E-04-3.80937E-15
 -1      4254 9.55568E-03-1.08118E-03-4.51039E-14
 -1      4255 9.68669E-03-1.12993E-03-4.65724E-14
 -1      4256 9.81860E-03-1.17985E-03-4.80567E-14
 -1      4257 9.95115E-03-1.23095E-03-4.95545E-14
 -1      4258 1.00846E-02-1.28302E-03-5.10643E-14
 -1      4259 1.02256E-02-1.33871E-03-5.26661E-14
 -1      4260 1.03607E-02-1.39248E-03-5.42084E-14
 -1      4261 1.04965E-02-1.44696E-03-5.57640E-14
 -1      4262 1.06330E-02-1.50196E-03-5.73315E-14
 -1      4263 1.07703E-02-1.55747E-03-5.89168E-14
 -1      4264 1.09082E-02-1.61335E-03-6.05156E-14
 -1      4265 1.10466E-02-1.66959E-03-6.21273E-14
 -1      4266 1.11856E-02-1.72608E-03-6.37522E-14
 -1      4267 1.13251E-02-1.78281E-03-6.53915E-14
 -1      4268 1.14650E-02-1.83971E-03-6.70437E-14
 -1      4269 1.16053E-02-1.89677E-03-6.87085E-14
 -1      4270 1.17459E-02-1.95394E-03-7.03885E-14
 -1      4271 1.18869E-02-2.01121E-03-7.20773E-14
 -1      4272 1.20281E-02-2.06855E-03-7.37763E-14
 -1      4273 1.21696E-02-2.12596E-03-7.54865E-14
 -1      4274 1.23113E-02-2.18340E-03-7.72036E-14
 -1      4275 1.24532E-02-2.24089E-03-7.89282E-14
 -1      4276 1.25953E-02-2.29840E-03-8.06606E-14
 -1      4277 1.27375E-02-2.35594E-03-8.23993E-14
 -1      4278 1.28439E-02-2.39852E-03-8.37203E-14
 -1      4279 1.29863E-02-2.45608E-03-8.54680E-14
 -1      4280 2.35715E-03 9.60396E-05-4.05020E-15
 -1      4281 3.17051E-03-4.56466E-05-7.29718E-15
 -1      4282 3.30348E-03-5.58207E-05-7.90653E-15
 -1      4283 2.10301E-03-2.50343E-05-3.37358E-15
 -1      4284 1.98166E-03-3.45764E-05-3.02900E-15
 -1      4285 3.41825E-03-6.90355E-05-8.46189E-15
 -1      4286 3.03668E-03-3.67925E-05-6.71189E-15
 -1      4287 9.44962E-03-1.04206E-03-4.39685E-14
 -1      4288 2.36712E-03-2.29074E-05-4.19334E-15
 -1      4289 2.50781E-03-2.69252E-05-4.67105E-15
 -1      4290 2.76715E-03 5.66435E-05-5.50555E-15
 -1      4291 2.62771E-03 6.12413E-05-4.99804E-15
 -1      4292 2.82229E-03 2.19194E-05-5.76683E-15
 -1      4293 2.19151E-03-2.33224E-05-3.63746E-15
 -1      4294 2.27896E-03-2.42336E-05-3.90940E-15
 -1      4295 2.35262E-03 5.00719E-06-4.13034E-15
 -1      4296 2.17506E-03 1.68583E-06-3.57779E-15
 -1      4297 1.96525E-03-7.71771E-05-2.97914E-15
 -1      4298 2.90054E-03-2.91110E-05-6.14401E-15
 -1      4299 9.22419E-03-9.60764E-04-4.16344E-14
 -1      4300 2.20265E-03 4.90748E-05-3.62724E-15
 -1      4301 2.41478E-03 4.83528E-05-4.29280E-15
 -1      4302 1.30928E-02-2.49867E-03-8.67967E-14
 -1      4303 9.21003E-03-9.48588E-04-4.20145E-14
 -1      4304 2.56244E-03 1.69758E-05-4.82557E-15
 -1      4305 2.62726E-03-1.70954E-05-5.08824E-15
 -1      4306 2.76512E-03-2.26066E-05-5.60694E-15
 -1      4307 1.31632E-02-2.52485E-03-8.77475E-14
 -1      4308 2.50439E-03 4.99358E-05-4.58886E-15
 -3
    1PSTEP                         2           1           1          
  100CL  101 1.000000000        4308                     0    1           1
 -4  STRESS      6    1
 -5  SXX         1    4    1    1
 -5  SYY         1    4    2    2
 -5  SZZ         1    4    3    3
 -5  SXY         1    4    1    2
 -5  SYZ         1    4    2    3
 -5  SZX         1    4    3    1
 -1         1 1.03784E+01 8.11022E+00-4.68566E-01 9.31990E+00-2.33463E-12-2.38887E-12
 -1         2-6.96857E-01-2.56712E+01-3.43262E+00 2.29866E-02 1.17031E-13 4.72226E-14
 -1         3 2.00000E+01 2.34995E-04 9.80506E-05 2.25098E-04-2.44041E-13-2.56421E-13
 -1         4 2.00000E+01 2.79626E-04 8.09273E-05-3.63641E-04 3.69257E-13-5.01285E-13
 -1         5 3.25615E+01 6.10570E+00 2.70361E+00 6.17833E+00-3.28765E-14 2.44690E-12
 -1         6 3.54784E+01 1.21602E+01 5.05550E+00-8.57060E+00-1.31464E-13 2.39675E-12
 -1         7 2.08183E+01 6.09693E+00-1.17634E-01-4.65796E+00-2.03310E-14 5.57315E-13
 -1         8 1.97169E+01 5.94656E+00 5.68516E-02-3.18703E+00-2.73080E-14-4.18229E-14
 -1         9 1.91953E+01 5.78792E+00 5.23788E-02-2.42376E+00-2.50407E-14-3.88196E-13
 -1        10 1.89434E+01 5.70538E+00 5.17175E-02-1.84504E+00-1.85858E-14-5.54098E-13
 -1        11 1.88000E+01 5.65814E+00 4.86293E-02-1.35893E+00-1.36349E-14-6.38368E-13
 -1        12 1.87124E+01 5.62941E+00 4.53065E-02-9.38221E-01-6.67478E-15-6.87339E-13
 -1        13 1.86589E+01 5.61209E+00 4.27612E-02-5.47776E-01-6.58241E-15-7.02501E-13
 -1        14 1.86337E+01 5.60400E+00 4.15210E-02-1.78024E-01-1.16503E-15-6.95120E-13
 -1        15 1.86340E+01 5.60415E+00 4.17411E-02 1.86087E-01 5.68371E-15-6.97364E-13
 -1        16 1.86595E+01 5.61243E+00 4.33700E-02 5.58868E-01 7.42635E-15-6.80915E-13
 -1        17 1.87125E+01 5.62956E+00 4.62013E-02 9.54955E-01 1.07267E-14-6.40524E-13
 -1        18 1.87986E+01 5.65794E+00 4.95969E-02 1.38249E+00 1.49672E-14-5.73282E-13
 -1        19 1.89415E+01 5.70511E+00 5.24121E-02 1.87711E+00 2.61614E-14-4.64749E-13
 -1        20 1.91935E+01 5.78851E+00 5.21125E-02 2.46541E+00 2.83419E-14-2.73163E-13
 -1        21 1.97073E+01 5.95968E+00 5.11744E-02 3.22480E+00 3.32859E-14 9.45884E-14
 -1        22 2.11917E+01 6.37498E+00 1.44227E-01 4.45960E+00 4.23273E-15 8.23227E-13
 -1        23 2.29425E+01-1.37740E+00-9.38966E-01-6.93834E-01-8.71490E-14 1.92969E-12
 -1        24 1.93870E+01-9.97329E-02-3.07727E-01 6.44126E-02-1.95122E-14 1.52412E-12
 -1        25 1.87845E+01-5.74557E-02-6.88020E-02 6.05277E-02-1.77399E-14 1.12585E-12
 -1        26 1.86790E+01-2.42904E-02-8.35808E-03 3.27541E-02 1.19949E-14 8.49458E-13
 -1        27 1.88169E+01-1.51598E-02-1.85447E-03 2.27461E-02-1.43860E-14 6.83441E-13
 -1        28 1.91055E+01-1.09846E-02-3.40789E-03 1.72089E-02-3.53201E-15 5.59017E-13
 -1        29 1.95097E+01-9.56255E-03-5.78562E-03 1.43959E-02-1.35048E-14 4.71118E-13
 -1        30 2.00265E+01-9.86776E-03-8.79203E-03 1.36849E-02-7.93631E-15 3.49884E-13
 -1        31 2.06753E+01-1.13741E-02-1.30154E-02 1.51789E-02 4.04993E-15 2.32442E-13
 -1        32 2.14945E+01-1.36150E-02-1.87835E-02 1.95248E-02-2.76309E-14 1.17519E-13
 -1        33 2.25377E+01-1.58284E-02-2.57922E-02 2.78298E-02 2.37024E-14-1.02312E-13
 -1        34 2.38651E+01-1.61009E-02-3.20337E-02 4.15623E-02 9.82081E-15-8.96349E-14
 -1        35 2.55226E+01-1.24267E-02-3.18171E-02 5.98724E-02 3.18917E-14-9.69433E-14
 -1        36 2.75686E+01 1.24569E-03-9.76657E-03 8.38863E-02 5.10566E-15-1.40499E-13
 -1        37 2.95804E+01 2.91778E-02 5.28978E-02 9.07032E-02 7.06401E-15-7.94989E-14
 -1        38 3.10392E+01 6.73002E-02 1.64029E-01 4.67074E-02-2.79559E-14 1.03617E-13
 -1        39 3.09079E+01 9.36671E-02 2.71404E-01-9.90810E-02 6.42455E-15 1.63682E-13
 -1        40 2.81343E+01 6.66744E-02 2.18782E-01-3.42015E-01-2.37848E-14 2.27207E-13
 -1        41 2.29630E+01-2.82517E-02-1.25263E-01-5.02390E-01-8.87745E-15 3.06172E-13
 -1        42 1.82532E+01-1.06252E-01-5.41315E-01-2.73660E-01-3.56156E-14 7.84373E-14
 -1        43 1.74482E+01-1.44976E-01-6.27920E-01 1.60604E-01-2.53547E-14-4.36234E-13
 -1        44 2.06695E+01-7.45847E-02-3.28100E-01 4.58175E-01-4.55348E-14-8.94035E-13
 -1        45 2.61886E+01 3.95872E-02 1.08200E-01 4.45134E-01-4.91378E-14-1.06362E-12
 -1        46 3.03100E+01 8.46153E-02 2.77422E-01 1.85153E-01 5.83700E-14-8.23147E-13
 -1        47 3.14009E+01 8.07566E-02 2.11952E-01-5.26112E-03-1.82467E-14-4.88325E-13
 -1        48 3.04513E+01 4.25251E-02 8.99329E-02-8.24184E-02-1.31297E-15-6.02372E-13
 -1        49 2.86090E+01 9.52798E-03 6.93711E-03-8.85301E-02-6.50138E-14-6.05765E-13
 -1        50 2.66557E+01-9.23734E-03-2.80776E-02-6.89067E-02 4.98359E-14-5.05193E-13
 -1        51 2.49507E+01-1.65600E-02-3.51104E-02-4.68335E-02-4.25541E-14-3.52603E-13
 -1        52 2.35932E+01-1.73789E-02-3.08320E-02-2.96335E-02-1.12409E-13-7.02665E-13
 -1        53 2.25639E+01-1.53580E-02-2.38344E-02-1.79429E-02-3.42158E-14-9.63399E-13
 -1        54 2.18046E+01-1.25154E-02-1.74246E-02-1.05044E-02 6.57763E-14-9.36899E-13
 -1        55 2.12534E+01-9.76623E-03-1.24309E-02-5.93113E-03-2.59059E-15-7.50498E-14
 -1        56 2.08574E+01-7.43768E-03-8.78489E-03-3.17320E-03-4.98993E-15-4.58425E-14
 -1        57 2.05754E+01-5.55939E-03-6.19052E-03-1.52486E-03-1.75457E-14-3.16416E-14
 -1        58 2.03758E+01-4.29610E-03-4.44644E-03-7.70345E-04-1.36559E-13 2.26011E-13
 -1        59 2.02311E+01-2.93666E-03-2.97985E-03 5.27302E-05-2.11745E-14-4.49379E-13
 -1        60 2.01371E+01-2.23133E-03-2.12824E-03 2.97063E-04 8.16100E-14-4.19627E-13
 -1        61 2.00736E+01-1.63028E-03-1.49214E-03 4.41695E-04-1.08783E-13-6.47777E-13
 -1        62 2.00321E+01-1.18431E-03-1.03727E-03 5.00030E-04-4.92572E-14-9.62420E-13
 -1        63 2.00062E+01-8.52599E-04-7.12633E-04 5.07043E-04 9.81551E-14-8.02616E-13
 -1        64 1.99912E+01-6.06411E-04-4.81768E-04 4.86038E-04 9.15210E-14-5.33186E-14
 -1        65 1.99839E+01-4.23821E-04-3.18451E-04 4.51965E-04-9.49519E-14 7.18946E-14
 -1        66 1.99818E+01-2.87797E-04-2.03168E-04 4.14484E-04 1.49617E-14 3.07568E-14
 -1        67 1.99831E+01-1.84572E-04-1.19873E-04 3.79639E-04 8.30310E-15 2.21614E-13
 -1        68 1.99865E+01-1.02245E-04-5.15427E-05 3.50191E-04-7.79765E-14 1.57540E-13
 -1        69 1.99911E+01-2.95893E-05 2.57232E-05 3.23269E-04-1.16850E-14 4.88383E-13
 -1        70 1.99957E+01 4.93000E-05 1.40951E-04 2.82305E-04-1.09733E-13 2.79086E-13
 -1        71 1.99990E+01 1.88266E-05 1.94777E-04 7.79923E-05-5.63992E-14-8.30460E-13
 -1        72 2.09873E+01-4.03447E-01-9.79617E-01-3.13884E-01 4.39995E-14 2.22504E-12
 -1        73 1.93668E+01-6.66205E-02-2.88943E-01-5.45092E-02 1.47018E-14 1.70621E-12
 -1        74 1.88023E+01-2.17675E-02-6.36056E-02-2.09804E-02 1.60614E-14 1.36391E-12
 -1        75 1.86860E+01-1.13072E-02-1.02347E-02-1.58292E-02 6.83730E-15 1.16511E-12
 -1        76 1.87990E+01-6.37086E-03-1.32219E-03-1.27390E-02 1.02410E-14 1.02507E-12
 -1        77 1.90372E+01-3.59427E-03-6.03166E-04-1.08122E-02 2.90837E-16 8.67557E-13
 -1        78 1.93474E+01-1.80115E-03-3.99359E-04-9.90306E-03 3.13985E-15 7.36913E-13
 -1        79 1.96972E+01-3.54861E-04 3.17313E-04-9.73808E-03 6.05185E-15 5.40377E-13
 -1        80 2.00619E+01 1.09991E-03 1.72074E-03-1.01316E-02-2.72617E-15 3.96083E-13
 -1        81 2.04154E+01 2.76553E-03 4.03517E-03-1.08484E-02 4.76737E-15 3.67074E-13
 -1        82 2.07255E+01 4.69808E-03 7.49499E-03-1.14619E-02-2.08146E-14 3.35551E-13
 -1        83 2.09494E+01 6.75281E-03 1.21087E-02-1.12525E-02 5.10123E-15 2.14469E-13
 -1        84 2.10347E+01 8.51391E-03 1.73549E-02-9.19515E-03-3.40579E-14 1.74712E-13
 -1        85 2.09249E+01 9.27462E-03 2.18864E-02-4.14760E-03 2.33714E-14 2.03619E-13
 -1        86 2.05737E+01 8.16869E-03 2.34577E-02 4.63217E-03-1.21301E-15 1.57487E-14
 -1        87 1.99689E+01 4.54355E-03 1.94416E-02 1.66486E-02-1.86269E-14-5.51469E-14
 -1        88 1.91573E+01-1.47867E-03 8.17153E-03 2.93836E-02-1.53089E-14 1.15316E-13
 -1        89 1.82610E+01-8.58182E-03-9.28950E-03 3.83597E-02 1.14153E-14 2.29504E-15
 -1        90 1.74645E+01-1.44467E-02-2.81715E-02 3.87895E-02-1.36978E-15-2.24968E-13
 -1        91 1.69660E+01-1.67779E-02-4.13621E-02 2.84167E-02-5.27999E-14-1.01038E-13
 -1        92 1.69045E+01-1.46147E-02-4.31240E-02 9.64783E-03-1.66055E-14 4.07343E-14
 -1        93 1.73012E+01-8.89102E-03-3.26676E-02-1.11555E-02-2.46949E-14-2.37687E-13
 -1        94 1.80506E+01-1.84102E-03-1.46718E-02-2.71043E-02 4.02790E-14-4.52062E-13
 -1        95 1.89674E+01 4.24987E-03 3.69610E-03-3.42824E-02-4.00254E-14-4.60304E-13
 -1        96 1.98587E+01 8.01324E-03 1.67554E-02-3.28976E-02 5.39480E-14-4.37329E-13
 -1        97 2.05833E+01 9.23026E-03 2.24393E-02-2.59430E-02-4.24590E-14-4.64399E-13
 -1        98 2.10748E+01 8.48291E-03 2.18286E-02-1.70061E-02-7.76040E-14-4.31133E-13
 -1        99 2.13327E+01 6.64039E-03 1.74819E-02-8.75459E-03 2.45301E-14-4.64061E-13
 -1       100 2.13974E+01 4.47314E-03 1.18798E-02-2.50313E-03-5.02732E-14-3.79125E-13
 -1       101 2.13256E+01 2.48895E-03 6.68310E-03 1.50480E-03 2.06329E-14-3.56558E-13
 -1       102 2.11723E+01 9.30949E-04 2.66154E-03 3.61444E-03-2.47432E-14-6.30387E-13
 -1       103 2.09820E+01-1.47798E-04-4.13904E-05 4.36782E-03-8.32918E-16-6.39131E-13
 -1       104 2.07862E+01-8.00900E-04-1.61011E-03 4.27985E-03 6.46394E-14-5.29591E-13
 -1       105 2.06043E+01-1.12461E-03-2.33967E-03 3.74880E-03 5.49217E-14-4.54915E-13
 -1       106 2.04466E+01-1.21914E-03-2.51628E-03 3.04429E-03-6.73431E-14-3.39396E-13
 -1       107 2.03168E+01-1.17009E-03-2.36871E-03 2.32889E-03-8.89078E-15-4.36893E-13
 -1       108 2.02144E+01-1.04241E-03-2.05964E-03 1.68799E-03 3.71428E-14-5.75582E-13
 -1       109 2.01366E+01-8.81230E-04-1.69456E-03 1.15678E-03-1.31661E-14-4.86385E-13
 -1       110 2.00799E+01-7.15306E-04-1.33574E-03 7.40726E-04-2.45438E-15-7.53898E-13
 -1       111 2.00402E+01-5.61164E-04-1.01559E-03 4.29547E-04 5.02034E-14-9.64936E-13
 -1       112 2.00138E+01-4.26809E-04-7.47311E-04 2.06119E-04-1.39028E-13-7.56926E-13
 -1       113 1.99976E+01-3.14665E-04-5.32559E-04 5.16114E-05 4.74759E-14-9.13221E-14
 -1       114 1.99889E+01-2.23725E-04-3.66627E-04-5.17664E-05-4.21888E-14-7.45395E-13
 -1       115 1.99855E+01-1.50984E-04-2.41553E-04-1.19630E-04 3.04211E-14-1.01083E-12
 -1       116 1.99857E+01-9.22061E-05-1.47063E-04-1.65365E-04 1.14090E-13-1.12354E-12
 -1       117 1.99883E+01-4.20459E-05-6.86532E-05-2.00243E-04-5.71899E-14-1.15003E-12
 -1       118 1.99922E+01 4.77647E-06 1.50282E-05-2.31178E-04-1.64977E-13-1.24466E-13
 -1       119 1.99963E+01 5.36919E-05 1.27572E-04-2.53043E-04 5.22829E-14 1.77226E-13
 -1       120 1.99992E+01-2.06681E-05 1.58187E-04-1.78664E-04 2.22397E-13-5.15062E-13
 -1       121 1.99998E+01-7.05399E-04 1.25692E-04-1.73528E-04-5.52040E-13-6.29349E-14
 -1       122 1.99998E+01-3.53613E-03 6.42282E-05-2.23782E-04-1.18236E-13-8.77428E-15
 -1       123 1.99998E+01-7.04131E-03-4.40906E-05-1.98099E-04-1.00635E-12 1.19882E-13
 -1       124 1.99998E+01-1.01042E-02-8.52077E-05-1.38566E-04-1.10167E-12 5.78790E-14
 -1       125 1.99998E+01-1.23479E-02-8.00918E-05-8.41490E-05-5.15334E-13-3.75174E-14
 -1       126 1.99998E+01-1.37966E-02-5.90431E-05-4.81071E-05-1.26148E-12 8.15408E-15
 -1       127 1.99998E+01-1.46905E-02-3.72456E-05-2.60982E-05-6.92514E-13-2.04948E-14
 -1       128 1.99998E+01-1.52044E-02-2.64693E-05-1.45696E-05-6.66912E-13 7.68572E-14
 -1       129 1.99998E+01-1.54410E-02-3.12062E-05-5.39819E-06-2.68859E-13 9.84334E-14
 -1       130 1.99998E+01-1.53505E-02-5.08297E-05 1.05039E-05 5.51277E-13-1.84638E-13
 -1       131 1.99998E+01-1.47390E-02-7.83333E-05 4.22473E-05 3.92163E-13-9.00724E-14
 -1       132 1.99998E+01-1.33686E-02-1.01690E-04 8.86099E-05-3.68141E-13 3.85293E-13
 -1       133 1.99998E+01-1.09831E-02-1.01102E-04 1.53532E-04-2.54095E-13 1.21674E-13
 -1       134 1.99998E+01-7.61096E-03-4.80851E-05 2.18249E-04-5.71474E-13-4.00030E-14
 -1       135 1.99998E+01-3.76432E-03 7.72467E-05 2.28329E-04 5.49821E-13 4.21026E-13
 -1       136 1.99998E+01-6.37518E-04 1.83907E-04 2.51370E-05 1.56721E-12-7.22491E-14
 -1       137-1.28166E+00-1.98708E+01-3.01432E+00-3.61357E+00 9.21929E-13 2.47045E-13
 -1       138-1.40603E+00-8.49336E+00-2.19700E+00-2.88656E+00 1.35797E-12 5.70488E-13
 -1       139 2.65592E+00 3.49922E+00-1.05197E+00 3.31573E+00 1.99429E-12 1.56108E-12
 -1       140 1.37201E+01 1.07985E+01 2.76432E-01 1.21045E+01 2.22339E-12 2.38104E-12
 -1       141 3.12277E+01 1.12703E+01 1.59302E+00 1.83575E+01 1.42614E-12 2.01661E-12
 -1       142 5.00569E+01 6.86512E+00 2.65677E+00 1.76435E+01 4.99711E-13 1.42181E-12
 -1       143 6.38083E+01 2.07337E+00 3.33611E+00 9.07260E+00 6.04482E-14-5.63993E-14
 -1       144 6.64648E+01 1.03536E+00 3.46572E+00-4.10454E+00 1.56278E-13-1.54322E-12
 -1       145 5.61681E+01 4.97948E+00 2.97721E+00-1.52597E+01 7.99340E-13-2.56012E-12
 -1       146 3.65661E+01 1.01916E+01 1.90553E+00-1.85719E+01 1.78155E-12-3.11867E-12
 -1       147 1.72969E+01 1.12908E+01 5.74538E-01-1.37858E+01 2.64344E-12-3.07399E-12
 -1       148 4.27436E+00 5.39738E+00-8.06059E-01-5.00774E+00 2.97462E-12-2.29133E-12
 -1       149-9.71968E-01-5.84193E+00-1.99258E+00 1.92988E+00 2.42650E-12-1.21644E-12
 -1       150-1.49512E+00-1.83054E+01-2.92896E+00 3.93672E+00 1.46494E-12-4.56350E-13
 -1       151-7.16465E-01-2.54490E+01-3.40927E+00 8.08758E-01-2.69548E-13-6.54511E-14
 -1       152-1.21757E+00-2.40474E+01-3.41218E+00-3.69143E+00-1.22263E-12-1.88049E-13
 -1       153-2.46010E+00-1.46145E+01-2.91458E+00-5.00653E+00-2.11392E-12-9.54695E-13
 -1       154 7.74361E-01-1.06713E+00-1.82470E+00 6.40435E-01-2.58776E-12-1.70292E-12
 -1       155 2.93774E+01 1.07781E+01 1.27624E+00 1.74777E+01-1.77658E-12-2.70528E-12
 -1       156 5.20076E+01 7.24066E+00 2.99267E+00 1.84530E+01-8.57731E-13-2.43011E-12
 -1       157 6.97860E+01 2.26123E+00 4.23108E+00 9.74356E+00-2.57629E-13-8.52846E-13
 -1       158 7.27543E+01 1.45055E+00 4.44416E+00-4.55279E+00-3.58116E-14 4.81545E-13
 -1       159 5.87638E+01 5.48992E+00 3.47378E+00-1.60815E+01-3.91770E-13 1.42486E-12
 -1       160 3.44275E+01 1.02299E+01 1.65664E+00-1.83416E+01-1.37518E-12 2.27385E-12
 -1       161 1.34438E+01 9.19422E+00-1.60051E-01-1.11643E+01-2.16471E-12 2.36511E-12
 -1       162 1.34541E+00 7.76958E-01-1.67265E+00-1.52962E+00-1.90636E-12 1.37251E-12
 -1       163-2.29063E+00-1.17732E+01-2.76265E+00 4.45101E+00-1.17628E-12 6.63469E-13
 -1       164-1.57724E+00-2.25410E+01-3.36363E+00 4.42006E+00-4.18110E-13 8.77111E-14
 -1       165 2.10560E+01 3.67572E+00-5.59311E-02-3.51499E+00-3.32529E-13 2.30503E-13
 -1       166 2.00573E+01 4.20696E+00-4.47059E-02-2.70122E+00-3.14929E-13-1.40127E-13
 -1       167 1.95634E+01 4.49572E+00-3.10184E-02-2.08164E+00-2.66333E-13-3.65449E-13
 -1       168 1.92968E+01 4.64859E+00-2.31837E-02-1.56724E+00-2.08761E-13-4.89287E-13
 -1       169 1.91324E+01 4.74406E+00-1.88469E-02-1.12859E+00-1.43077E-13-5.42669E-13
 -1       170 1.90284E+01 4.80349E+00-1.66119E-02-7.28610E-01-8.97645E-14-5.75045E-13
 -1       171 1.89712E+01 4.83539E+00-1.55243E-02-3.56712E-01-3.18403E-14-5.77717E-13
 -1       172 1.89539E+01 4.84357E+00-1.52251E-02 2.58031E-03 3.24003E-14-5.82216E-13
 -1       173 1.89745E+01 4.82949E+00-1.56134E-02 3.63580E-01 7.66656E-14-5.78910E-13
 -1       174 1.90339E+01 4.79243E+00-1.67722E-02 7.40212E-01 1.22835E-13-5.60494E-13
 -1       175 1.91362E+01 4.73013E+00-1.90695E-02 1.13996E+00 1.77129E-13-5.09024E-13
 -1       176 1.93017E+01 4.63114E+00-2.34690E-02 1.59359E+00 2.49449E-13-4.20409E-13
 -1       177 1.95736E+01 4.47169E+00-3.20620E-02 2.11783E+00 3.05662E-13-2.98367E-13
 -1       178 2.00713E+01 4.18151E+00-4.62726E-02 2.74593E+00 3.39414E-13-4.00929E-14
 -1       179 2.11726E+01 3.44834E+00-5.89070E-02 3.44820E+00 3.28567E-13 4.01436E-13
 -1       180 2.24164E+01 1.13304E+00-3.34121E-01 2.94961E+00 2.47235E-13 9.86503E-13
 -1       181 2.19972E+01 8.51158E-01 9.00107E-04-1.88890E+00-2.71720E-13 6.54952E-13
 -1       182 2.05392E+01 1.91177E-01-9.37572E-03-6.93701E-01-2.37534E-13 5.02281E-13
 -1       183 1.98440E+01 1.08178E-01 1.41750E-02-2.04017E-01-1.69744E-13 3.91560E-13
 -1       184 1.96059E+01 5.88373E-02 1.08008E-02 3.82951E-02-1.15980E-13 2.53241E-13
 -1       185 1.96108E+01 4.00357E-02 6.28608E-03 1.84139E-01-6.81562E-14 2.07187E-13
 -1       186 1.97784E+01 3.43200E-02 3.95853E-03 2.92115E-01-8.05874E-14 1.92279E-13
 -1       187 2.00717E+01 3.64709E-02 3.12729E-03 3.91238E-01-7.38798E-14 1.31627E-13
 -1       188 2.04801E+01 4.46647E-02 2.99548E-03 5.00387E-01-7.34530E-14 1.23025E-13
 -1       189 2.10102E+01 5.80151E-02 3.08095E-03 6.34047E-01-7.80675E-14 9.42893E-14
 -1       190 2.16796E+01 7.50674E-02 2.98371E-03 8.03009E-01-8.50646E-14 1.24611E-13
 -1       191 2.25102E+01 9.16987E-02 2.16157E-03 1.01077E+00-5.07654E-14 2.21086E-14
 -1       192 2.35192E+01 9.79653E-02 1.54500E-04 1.24260E+00-2.20488E-14-1.17327E-13
 -1       193 2.47600E+01 6.66318E-02-3.25635E-03 1.45224E+00 2.80505E-15-2.36161E-14
 -1       194 2.60462E+01-4.21764E-02-7.00097E-03 1.48797E+00 6.19704E-14 8.26414E-14
 -1       195 2.72765E+01-2.76275E-01-7.16597E-03 1.13000E+00 1.56196E-13 2.18978E-13
 -1       196 2.81599E+01-6.20851E-01-2.45356E-03 1.12313E-01 4.12691E-14 3.72443E-13
 -1       197 2.82982E+01-8.52610E-01-2.90167E-03-1.57722E+00 9.18987E-14 5.16037E-13
 -1       198 2.73642E+01-4.79007E-01-3.68225E-02-3.15429E+00-8.35174E-14 4.31663E-13
 -1       199 2.57062E+01 6.64012E-01-9.78815E-02-2.97864E+00-2.43069E-13 8.98552E-14
 -1       200 2.47014E+01 1.48091E+00-1.30266E-01-6.84924E-01-4.40342E-13-1.26810E-13
 -1       201 2.50823E+01 1.17033E+00-1.17229E-01 2.13236E+00-4.22891E-13-3.86843E-13
 -1       202 2.67289E+01-4.31539E-02-6.07008E-02 3.42224E+00-1.66051E-13-5.77711E-13
 -1       203 2.81655E+01-8.13464E-01-1.06466E-02 2.31176E+00 4.76971E-14-6.69211E-13
 -1       204 2.84324E+01-7.42673E-01 3.82354E-04 5.06406E-01 2.51389E-13-5.56985E-13
 -1       205 2.78202E+01-3.98730E-01-5.03069E-03-7.95403E-01 5.58269E-14-3.79587E-13
 -1       206 2.67202E+01-1.10986E-01-7.59776E-03-1.36980E+00 9.32414E-15-1.85045E-13
 -1       207 2.54784E+01 4.19171E-02-4.74627E-03-1.44064E+00-1.32341E-14-2.12445E-13
 -1       208 2.43018E+01 9.71277E-02-9.44420E-04-1.27035E+00 2.48267E-14-2.54693E-13
 -1       209 2.32877E+01 1.02603E-01 1.67623E-03-1.02675E+00-1.76168E-13-2.57680E-13
 -1       210 2.24626E+01 8.86811E-02 2.85118E-03-7.90964E-01-3.85729E-14-7.00332E-14
 -1       211 2.18155E+01 7.02498E-02 3.03163E-03-5.92582E-01 1.08060E-13-1.10685E-13
 -1       212 2.13201E+01 5.32854E-02 2.71965E-03-4.36464E-01 3.88873E-13 3.02995E-14
 -1       213 2.09473E+01 3.95216E-02 2.24297E-03-3.17827E-01-9.14047E-15-4.59426E-14
 -1       214 2.06701E+01 2.89712E-02 1.76440E-03-2.29347E-01 5.55335E-14 1.96874E-13
 -1       215 2.04659E+01 2.11519E-02 1.33729E-03-1.64094E-01 6.03639E-14 2.98635E-13
 -1       216 2.03114E+01 1.51222E-02 1.03428E-03-1.14188E-01-4.33195E-13 8.03296E-14
 -1       217 2.02065E+01 1.09101E-02 7.48335E-04-7.96488E-02-1.20043E-13-1.34276E-13
 -1       218 2.01319E+01 7.86329E-03 5.56014E-04-5.46008E-02-1.32862E-13-2.09348E-13
 -1       219 2.00800E+01 5.63164E-03 4.09403E-04-3.64656E-02-7.70692E-14-7.52009E-14
 -1       220 2.00447E+01 4.00041E-03 2.99267E-04-2.34331E-02 4.04628E-14 1.13400E-13
 -1       221 2.00215E+01 2.80980E-03 2.16688E-04-1.41547E-02 2.47343E-13-1.90626E-13
 -1       222 2.00070E+01 1.94290E-03 1.54752E-04-7.63212E-03-3.18739E-14-4.65643E-13
 -1       223 1.99987E+01 1.31214E-03 1.08018E-04-3.12985E-03 2.32243E-14-3.98896E-13
 -1       224 1.99948E+01 8.49446E-04 7.21557E-05-1.13510E-04 1.47331E-13-1.18569E-13
 -1       225 1.99937E+01 4.97923E-04 4.39505E-05 1.78972E-03 6.71242E-15 7.45605E-14
 -1       226 1.99945E+01 2.00498E-04 2.25903E-05 2.80963E-03 6.38062E-14 2.80085E-14
 -1       227 1.99961E+01-1.06081E-04 9.20922E-06 3.02952E-03-1.89868E-13-8.68613E-14
 -1       228 1.99980E+01-5.06472E-04 1.02258E-05 2.38069E-03-4.33614E-13-3.47330E-14
 -1       229 1.99992E+01-9.20824E-04 3.55758E-05 1.37698E-03-1.42866E-13 3.99819E-14
 -1       230 2.10136E+01 2.75991E-01-4.99517E-02 1.10963E+00 2.40741E-13 8.51541E-13
 -1       231 1.99896E+01 1.31734E-01 1.03580E-02 3.91612E-01 1.77333E-13 6.92585E-13
 -1       232 1.95590E+01 5.96563E-02 1.35548E-02 8.57745E-02 1.04731E-13 5.59574E-13
 -1       233 1.94346E+01 2.73190E-02 7.40497E-03-6.92542E-02 1.04164E-13 4.52946E-13
 -1       234 1.94874E+01 1.53697E-02 3.63034E-03-1.54047E-01 8.54027E-14 3.73341E-13
 -1       235 1.96459E+01 8.66184E-03 1.72633E-03-2.02901E-01 9.15307E-14 2.78144E-13
 -1       236 1.98661E+01 3.66242E-03 7.70421E-04-2.29023E-01 8.22685E-14 2.10861E-13
 -1       237 2.01170E+01-1.40530E-03 2.04646E-04-2.36434E-01 6.18280E-14 1.53535E-13
 -1       238 2.03718E+01-7.74615E-03-1.83342E-04-2.23981E-01 3.53583E-15 1.37195E-13
 -1       239 2.06026E+01-1.61655E-02-4.43116E-04-1.87118E-01 3.59731E-14 1.32780E-13
 -1       240 2.07767E+01-2.68219E-02-5.56668E-04-1.19742E-01 6.42190E-14 1.26415E-13
 -1       241 2.08577E+01-3.87324E-02-4.92391E-04-1.70426E-02 3.77994E-14 5.24876E-14
 -1       242 2.08079E+01-4.92081E-02-2.54180E-04 1.20120E-01-1.53842E-14-8.65519E-16
 -1       243 2.05985E+01-5.36440E-02 7.16092E-05 2.79786E-01 3.33357E-14 1.11114E-13
 -1       244 2.02223E+01-4.63928E-02 3.03690E-04 4.34529E-01 4.34743E-15 1.68852E-13
 -1       245 1.97090E+01-2.33469E-02 2.48782E-04 5.42285E-01-1.03228E-13 8.65206E-14
 -1       246 1.91351E+01 1.42314E-02-1.38733E-04 5.56780E-01 4.48891E-14 1.16737E-13
 -1       247 1.86160E+01 5.70118E-02-6.53466E-04 4.47776E-01 1.18679E-13 1.25354E-13
 -1       248 1.82779E+01 8.95941E-02-8.38143E-04 2.22644E-01-1.81959E-14 1.13378E-14
 -1       249 1.82135E+01 9.80582E-02-3.95787E-04-6.63552E-02 5.57714E-16-1.00212E-13
 -1       250 1.84439E+01 7.86712E-02 5.28527E-04-3.39520E-01 9.11432E-14-1.01463E-13
 -1       251 1.89098E+01 4.03548E-02 1.39803E-03-5.24661E-01 1.12868E-13-1.08382E-13
 -1       252 1.94979E+01-1.23163E-03 1.69594E-03-5.86997E-01 3.62830E-14-2.29980E-13
 -1       253 2.00849E+01-3.26952E-02 1.30717E-03-5.36311E-01 1.34587E-14-3.14599E-13
 -1       254 2.05752E+01-4.82728E-02 5.09026E-04-4.12001E-01 6.05852E-16-3.65006E-13
 -1       255 2.09183E+01-4.94551E-02-3.16143E-04-2.60451E-01-1.07310E-13-3.26315E-13
 -1       256 2.11061E+01-4.14307E-02-8.85498E-04-1.18248E-01 9.47159E-15-2.51351E-13
 -1       257 2.11593E+01-2.96378E-02-1.11115E-03-5.93851E-03-1.14956E-13-2.09370E-13
 -1       258 2.11121E+01-1.79563E-02-1.04977E-03 7.02100E-02-1.99406E-14-2.73218E-13
 -1       259 2.10008E+01-8.40815E-03-8.21242E-04 1.13166E-01 7.89327E-14-1.61090E-13
 -1       260 2.08567E+01-1.60339E-03-5.36816E-04 1.30184E-01 1.46672E-14-1.79031E-13
 -1       261 2.07033E+01 2.65843E-03-2.71711E-04 1.29363E-01-6.77168E-14-2.20972E-13
 -1       262 2.05566E+01 4.91743E-03-6.30340E-05 1.17808E-01-1.23777E-13 2.76192E-14
 -1       263 2.04255E+01 5.76929E-03 8.00279E-05 1.00943E-01-6.11812E-14 4.36947E-14
 -1       264 2.03145E+01 5.72985E-03 1.64155E-04 8.24899E-02 1.81194E-13-2.58670E-14
 -1       265 2.02241E+01 5.19143E-03 2.02532E-04 6.47527E-02 9.61365E-14-1.73487E-13
 -1       266 2.01533E+01 4.42589E-03 2.09155E-04 4.89737E-02 1.03975E-15-4.16523E-13
 -1       267 2.00997E+01 3.60643E-03 1.96063E-04 3.56716E-02 8.37061E-14-4.54412E-13
 -1       268 2.00605E+01 2.83318E-03 1.72411E-04 2.49105E-02 5.03058E-14-3.25021E-13
 -1       269 2.00330E+01 2.15604E-03 1.44529E-04 1.64976E-02-1.74484E-13-1.95755E-13
 -1       270 2.00146E+01 1.59246E-03 1.16388E-04 1.01184E-02 1.06458E-14-6.30437E-13
 -1       271 2.00032E+01 1.14021E-03 9.01556E-05 5.42317E-03 1.36623E-13-5.54706E-13
 -1       272 1.99969E+01 7.85954E-04 6.67534E-05 2.08006E-03 8.96152E-14-5.26659E-13
 -1       273 1.99943E+01 5.10044E-04 4.64437E-05-1.94657E-04 9.65835E-14-4.96071E-13
 -1       274 1.99940E+01 2.86655E-04 2.99231E-05-1.61642E-03-2.35759E-13-1.87568E-13
 -1       275 1.99953E+01 8.03687E-05 2.08319E-05-2.30999E-03-4.19838E-13-2.42542E-13
 -1       276 1.99971E+01-1.62607E-04 2.31810E-05-2.29124E-03 1.34687E-14-2.24491E-13
 -1       277 1.99988E+01-5.01822E-04 3.77051E-05-1.48743E-03 1.84850E-13-2.19388E-13
 -1       278 1.99994E+01-1.66298E-03 4.81866E-06-2.08488E-03 1.02027E-13 3.63562E-13
 -1       279 1.99998E+01-3.25338E-03-4.26465E-06-2.39343E-03-1.17701E-14-6.82411E-13
 -1       280 2.00000E+01-4.79343E-03-1.93669E-06-2.10501E-03-3.01868E-13 6.69632E-14
 -1       281 2.00001E+01-5.96879E-03 1.98549E-06-1.54109E-03-5.12981E-13 3.66219E-13
 -1       282 2.00000E+01-6.75660E-03 3.87611E-06-1.00928E-03-5.25308E-13-4.36488E-13
 -1       283 1.99999E+01-7.24653E-03 4.56040E-06-6.09093E-04-3.40466E-13 2.76581E-13
 -1       284 1.99999E+01-7.53910E-03 4.58411E-06-3.56057E-04-3.04349E-13-1.18688E-13
 -1       285 1.99999E+01-7.72902E-03 4.83175E-06-1.78186E-04-4.15960E-15 4.50221E-13
 -1       286 1.99999E+01-7.83319E-03 5.40709E-06 3.65082E-05 8.46009E-14 3.35558E-13
 -1       287 2.00000E+01-7.77714E-03 5.77586E-06 3.93846E-04-5.75678E-14-2.61870E-13
 -1       288 2.00001E+01-7.42949E-03 5.21181E-06 9.35055E-04 2.20107E-13-1.24276E-13
 -1       289 2.00001E+01-6.63643E-03 3.14539E-06 1.63584E-03 4.82008E-13-8.80779E-14
 -1       290 2.00001E+01-5.34339E-03-6.57148E-07 2.32409E-03-4.75989E-14-1.33241E-13
 -1       291 1.99998E+01-3.63962E-03-5.36657E-06 2.67319E-03-2.83320E-13 5.37949E-13
 -1       292 1.99995E+01-2.30346E-03 1.83085E-06 2.33052E-03-3.66557E-13 1.86170E-13
 -1       293-7.24782E-01-1.06584E+01-8.97939E-01 1.93656E+00 1.82493E-14 3.39451E-13
 -1       294 2.69202E+00-8.65331E+00-7.91547E-01 3.74798E+00 1.72973E-13 3.43302E-13
 -1       295 8.92335E+00-4.87564E+00-4.97170E-01 5.81667E+00 3.37452E-13 7.42531E-13
 -1       296 1.75473E+01-8.47197E-01-1.24764E-01 7.52439E+00 5.74180E-13 9.27286E-13
 -1       297 2.75175E+01 2.60669E+00 2.87685E-01 8.24747E+00 8.99808E-13 5.48617E-13
 -1       298 3.70139E+01 4.97826E+00 6.47139E-01 7.33922E+00 7.87523E-13 3.53662E-13
 -1       299 4.42890E+01 6.29189E+00 9.11541E-01 4.79069E+00 7.72188E-13-2.17104E-13
 -1       300 4.68777E+01 7.02091E+00 9.53960E-01 7.41000E-01 6.29274E-13-5.65371E-13
 -1       301 4.60225E+01 6.62164E+00 9.60431E-01-3.29160E+00 7.11389E-13-9.02764E-13
 -1       302 3.82208E+01 4.96195E+00 4.66748E-01-4.58656E+00 9.13013E-13-1.02984E-12
 -1       303 3.01563E+01 2.49950E+00 3.04665E-01-7.37811E+00 1.04758E-12-1.21814E-12
 -1       304 1.96221E+01-1.23380E-01-3.95238E-02-7.77165E+00 1.09199E-12-1.33676E-12
 -1       305 1.06395E+01-4.11499E+00-4.25869E-01-6.20665E+00 9.10272E-13-1.12170E-12
 -1       306 3.98708E+00-7.91261E+00-6.88790E-01-4.42333E+00 5.73180E-13-8.75376E-13
 -1       307-3.42083E-01-1.04819E+01-8.81149E-01-2.22828E+00 1.53891E-13-8.90357E-13
 -1       308-1.39517E+00-1.18533E+01-1.04560E+00-1.10934E-01-2.45637E-13-4.61686E-13
 -1       309 7.78662E-01-1.04804E+01-9.66882E-01 1.97052E+00-5.42483E-13-7.06046E-13
 -1       310 8.61625E+00-7.11122E+00-4.78762E-01 5.37771E+00-4.91579E-13-6.76011E-13
 -1       311 1.63846E+01-3.42667E+00-3.68910E-01 6.25514E+00-9.25371E-13-9.81409E-13
 -1       312 2.72641E+01 2.67229E-01 9.83932E-02 7.09148E+00-9.40581E-13-1.10706E-12
 -1       313 3.86115E+01 3.39380E+00 6.60164E-01 6.26251E+00-8.90905E-13-1.04217E-12
 -1       314 4.73306E+01 5.79378E+00 1.15488E+00 3.88760E+00-9.48464E-13-3.49998E-13
 -1       315 5.10443E+01 6.90603E+00 1.33373E+00 7.29495E-01-6.32355E-13 1.73722E-13
 -1       316 4.59386E+01 6.68962E+00 8.29393E-01-1.37545E+00-5.73375E-13 4.49030E-13
 -1       317 4.10460E+01 3.81982E+00 7.03479E-01-4.96510E+00-7.49805E-13 6.96332E-13
 -1       318 2.98997E+01 8.73935E-01 2.24488E-01-6.98156E+00-7.25975E-13 6.36324E-13
 -1       319 1.80144E+01-2.69397E+00-3.08493E-01-6.47276E+00-5.67157E-13 9.54459E-13
 -1       320 8.25367E+00-6.56298E+00-7.14491E-01-4.58323E+00-4.37705E-13 6.71393E-13
 -1       321 1.93607E+00-9.63374E+00-8.86156E-01-2.64799E+00-3.10224E-13 6.79304E-13
 -1       322-1.22019E+00-1.16477E+01-1.02631E+00-2.29840E-01-4.43881E-14 3.35315E-13
 -1       323 2.02152E+01 3.03863E+00-1.76892E-02-1.97802E+00-3.30999E-13-1.52192E-13
 -1       324 2.08321E+01 2.20972E+00-1.73229E-02-2.24702E+00-3.56853E-13 7.31394E-14
 -1       325 1.95774E+01 3.77263E+00-1.51678E-02-1.20100E+00-2.12665E-13-3.87781E-13
 -1       326 1.94130E+01 3.95154E+00-1.30473E-02-8.33959E-01-1.42797E-13-4.37874E-13
 -1       327 1.93123E+01 4.05666E+00-1.19247E-02-4.90819E-01-6.04075E-14-4.42128E-13
 -1       328 1.92662E+01 4.10240E+00-1.14528E-02-1.61573E-01 1.35731E-14-4.40778E-13
 -1       329 1.92702E+01 4.09573E+00-1.14958E-02 1.64755E-01 6.02878E-14-4.45535E-13
 -1       330 1.93231E+01 4.03760E+00-1.20428E-02 4.98665E-01 1.20230E-13-4.31473E-13
 -1       331 1.94255E+01 3.92523E+00-1.32112E-02 8.43549E-01 1.86684E-13-4.07392E-13
 -1       332 1.95912E+01 3.73954E+00-1.53064E-02 1.21792E+00 2.55913E-13-3.29589E-13
 -1       333 1.98437E+01 3.44634E+00-1.88276E-02 1.61518E+00 3.19218E-13-2.45292E-13
 -1       334 2.02382E+01 2.96457E+00-2.30788E-02 2.00222E+00 3.63550E-13-9.42952E-14
 -1       335 2.08282E+01 2.10352E+00-2.90786E-02 2.20165E+00 3.69408E-13 1.99913E-13
 -1       336 2.11551E+01 1.18118E+00-2.35724E-02 1.82827E+00 3.18053E-13 4.70846E-13
 -1       337 2.04915E+01 4.98248E-01 8.07759E-03 8.33397E-01 2.50614E-13 3.78279E-13
 -1       338 2.05888E+01 6.96178E-01 1.29639E-02-8.91803E-01-2.63373E-13 9.40059E-14
 -1       339 2.02330E+01 3.76434E-01 7.68293E-03-2.88087E-01-2.02462E-13 8.54040E-14
 -1       340 2.00657E+01 2.36703E-01 4.90852E-03 7.69074E-02-1.29159E-13 4.76623E-14
 -1       341 2.00436E+01 1.76038E-01 2.97345E-03 3.27847E-01-8.77710E-14-1.90292E-14
 -1       342 2.01351E+01 1.59106E-01 2.26571E-03 5.28447E-01-9.55552E-14 9.77446E-15
 -1       343 2.03186E+01 1.71227E-01 2.24035E-03 7.18214E-01-6.68296E-14 2.37828E-14
 -1       344 2.05823E+01 2.05578E-01 2.54920E-03 9.24804E-01-5.45629E-14 5.98054E-14
 -1       345 2.09219E+01 2.56505E-01 2.96301E-03 1.16843E+00-6.68596E-14 3.75543E-14
 -1       346 2.13378E+01 3.13522E-01 3.16133E-03 1.46092E+00-1.20901E-13 5.43138E-14
 -1       347 2.18365E+01 3.53046E-01 2.71015E-03 1.79831E+00-9.71057E-14 2.14579E-14
 -1       348 2.24642E+01 3.16569E-01 9.59628E-04 2.16235E+00 4.40931E-14 2.57010E-14
 -1       349 2.32007E+01 1.04448E-01-2.84520E-03 2.42065E+00 1.33258E-13 8.48963E-14
 -1       350 2.41620E+01-4.26766E-01-7.05235E-03 2.39589E+00 1.59089E-13 1.96622E-13
 -1       351 2.54846E+01-1.37365E+00-9.45184E-03 1.77155E+00 3.01132E-13 2.24897E-13
 -1       352 2.72384E+01-2.46741E+00-1.37565E-02 2.10190E-01 1.73633E-13 5.06577E-13
 -1       353 2.90439E+01-2.58323E+00-5.08608E-02-2.18908E+00-7.35422E-14 6.21883E-13
 -1       354 3.00657E+01-9.99284E-02-1.25629E-01-3.94013E+00-3.85407E-13 5.34715E-13
 -1       355 3.00910E+01 3.44487E+00-1.61385E-01-2.74541E+00-5.43024E-13 3.69409E-13
 -1       356 2.99735E+01 4.70447E+00-1.78948E-01 8.63456E-01-6.46622E-13 1.15226E-13
 -1       357 3.01620E+01 1.61175E+00-1.45384E-01 3.92785E+00-3.26274E-13 9.29673E-14
 -1       358 2.96431E+01-1.97320E+00-9.10492E-02 3.19955E+00-2.26336E-13-5.91194E-14
 -1       359 2.80193E+01-2.71706E+00-1.69322E-02 6.96651E-01 2.88849E-13 5.28856E-14
 -1       360 2.61883E+01-1.80322E+00-6.73792E-03-1.24588E+00 2.60707E-13-2.29464E-14
 -1       361 2.47256E+01-7.22920E-01-7.95570E-03-2.18117E+00 1.10993E-13 1.51105E-13
 -1       362 2.36795E+01-3.15770E-02-3.85165E-03-2.37043E+00-1.67660E-14 2.29304E-14
 -1       363 2.29084E+01 2.84896E-01 1.17132E-04-2.17058E+00 2.62681E-14-3.42715E-14
 -1       364 2.23045E+01 3.74187E-01 2.42555E-03-1.82136E+00-4.79184E-14 2.69732E-14
 -1       365 2.18131E+01 3.55841E-01 3.26789E-03-1.45298E+00-2.94603E-14-4.56765E-14
 -1       366 2.14095E+01 2.98838E-01 3.19621E-03-1.12355E+00 1.53038E-13-1.01658E-13
 -1       367 2.10807E+01 2.36101E-01 2.73172E-03-8.51471E-01 3.05752E-13-1.74463E-13
 -1       368 2.08168E+01 1.80537E-01 2.17773E-03-6.36333E-01 4.77668E-14-2.90017E-13
 -1       369 2.06082E+01 1.35580E-01 1.67168E-03-4.70468E-01 5.54433E-14-2.05621E-13
 -1       370 2.04457E+01 1.00823E-01 1.24045E-03-3.44482E-01 1.84836E-13-2.25344E-13
 -1       371 2.03159E+01 7.32944E-02 9.25749E-04-2.45790E-01-2.89020E-13-4.63800E-14
 -1       372 2.02233E+01 5.38840E-02 6.67172E-04-1.76081E-01-3.57574E-13 2.32759E-13
 -1       373 2.01543E+01 3.94258E-02 4.89414E-04-1.24342E-01-1.05244E-13 2.69151E-13
 -1       374 2.01037E+01 2.86884E-02 3.56126E-04-8.61542E-02-9.26742E-14 1.60495E-13
 -1       375 2.00673E+01 2.07264E-02 2.57405E-04-5.81626E-02-2.37684E-13 1.34989E-13
 -1       376 2.00417E+01 1.48338E-02 1.84424E-04-3.78173E-02-3.06951E-14-2.28731E-13
 -1       377 2.00242E+01 1.04832E-02 1.30578E-04-2.31892E-02 8.61138E-14-3.20818E-13
 -1       378 2.00126E+01 7.27669E-03 9.08138E-05-1.28242E-02 1.90446E-13 1.04589E-14
 -1       379 2.00054E+01 4.90647E-03 6.11371E-05-5.63763E-03 2.65610E-13 1.04885E-13
 -1       380 2.00013E+01 3.12568E-03 3.82359E-05-8.37987E-04 1.57415E-13-1.62921E-14
 -1       381 1.99994E+01 1.72151E-03 2.00642E-05 2.12767E-03-7.54815E-14-1.41853E-13
 -1       382 1.99987E+01 4.86453E-04 2.69252E-06 3.61839E-03-1.20202E-13-2.04221E-13
 -1       383 1.99989E+01-7.66998E-04-6.38925E-06 3.83184E-03-3.50659E-13 1.03234E-13
 -1       384 2.00421E+01 2.45696E-01 7.12992E-03 1.38228E-01 1.63601E-13 1.56444E-13
 -1       385 1.99221E+01 1.37989E-01 3.57541E-03-1.17934E-01 1.46810E-13 1.32630E-13
 -1       386 1.99210E+01 8.18791E-02 1.76678E-03-2.71577E-01 1.61001E-13 8.58974E-14
 -1       387 2.00025E+01 4.49884E-02 7.86955E-04-3.63390E-01 1.26911E-13 3.32368E-14
 -1       388 2.01374E+01 1.47298E-02 1.52378E-04-4.10690E-01 8.12783E-14-8.29415E-15
 -1       389 2.03033E+01-1.68145E-02-4.03235E-04-4.18312E-01 2.03832E-14 3.11648E-14
 -1       390 2.04801E+01-5.48830E-02-9.87918E-04-3.83037E-01 2.92072E-14 2.44832E-14
 -1       391 2.06475E+01-1.01938E-01-1.61750E-03-2.96808E-01 3.59251E-14 8.11669E-15
 -1       392 2.07826E+01-1.56131E-01-2.22862E-03-1.50757E-01 8.34253E-14 5.86467E-14
 -1       393 2.08598E+01-2.09025E-01-2.67830E-03 5.86835E-02 3.47460E-14 7.34313E-14
 -1       394 2.08524E+01-2.43859E-01-2.75571E-03 3.21286E-01-1.35483E-13 5.61058E-14
 -1       395 2.07376E+01-2.36917E-01-2.24846E-03 6.03843E-01-3.91864E-14 2.18288E-13
 -1       396 2.05075E+01-1.65227E-01-1.07943E-03 8.45341E-01 1.86905E-14 1.74571E-13
 -1       397 2.01826E+01-2.14978E-02 6.04428E-04 9.64772E-01 1.17533E-14 8.77797E-14
 -1       398 1.98222E+01 1.69833E-01 2.41144E-03 8.88101E-01 1.35982E-13-4.18759E-14
 -1       399 1.95190E+01 3.49459E-01 3.72796E-03 5.89366E-01 9.62338E-14 1.04007E-14
 -1       400 1.93692E+01 4.45950E-01 4.36240E-03 1.22758E-01 5.60567E-14 1.12628E-13
 -1       401 1.94269E+01 4.16410E-01 4.17101E-03-3.84979E-01 2.45327E-14 1.33356E-13
 -1       402 1.96754E+01 2.75135E-01 3.18256E-03-7.88735E-01 7.67116E-14 1.71113E-13
 -1       403 2.00367E+01 8.34953E-02 1.54973E-03-9.91721E-01 1.22990E-13 2.36075E-13
 -1       404 2.04124E+01-8.83797E-02-2.62521E-04-9.79366E-01 7.11727E-14 1.40637E-13
 -1       405 2.07245E+01-1.96598E-01-1.69281E-03-8.05214E-01 4.83173E-14 1.81197E-13
 -1       406 2.09331E+01-2.33272E-01-2.49322E-03-5.50762E-01-3.51046E-14 7.71181E-14
 -1       407 2.10336E+01-2.15410E-01-2.64156E-03-2.89284E-01-6.10450E-14-1.03776E-13
 -1       408 2.10422E+01-1.68083E-01-2.31270E-03-6.79963E-02-1.12965E-13-3.39444E-14
 -1       409 2.09840E+01-1.12662E-01-1.73291E-03 9.28721E-02-3.21197E-14-2.18595E-14
 -1       410 2.08839E+01-6.25442E-02-1.10816E-03 1.92602E-01-1.46908E-14-6.54155E-14
 -1       411 2.07627E+01-2.37148E-02-5.61291E-04 2.41073E-01-8.25029E-15 3.53513E-14
 -1       412 2.06362E+01 2.83338E-03-1.45914E-04 2.51874E-01-8.17561E-14 6.54205E-14
 -1       413 2.05149E+01 1.87209E-02 1.31933E-04 2.38142E-01-2.76381E-13 1.43585E-13
 -1       414 2.04053E+01 2.65053E-02 2.91816E-04 2.10638E-01-5.09656E-14 7.07989E-14
 -1       415 2.03105E+01 2.87361E-02 3.62766E-04 1.77242E-01 1.57854E-13-7.75208E-15
 -1       416 2.02316E+01 2.75338E-02 3.73481E-04 1.43187E-01 1.98867E-13 3.05929E-14
 -1       417 2.01678E+01 2.44789E-02 3.47791E-04 1.11590E-01 1.70545E-13-7.95270E-14
 -1       418 2.01178E+01 2.06525E-02 3.03395E-04 8.40337E-02 1.11854E-13-1.91744E-13
 -1       419 2.00797E+01 1.67353E-02 2.52293E-04 6.10684E-02 1.26317E-14-5.62770E-13
 -1       420 2.00515E+01 1.31135E-02 2.01901E-04 4.26112E-02-4.70033E-14-6.80523E-13
 -1       421 2.00313E+01 9.97123E-03 1.56259E-04 2.82324E-02 6.65812E-14-5.58535E-13
 -1       422 2.00174E+01 7.36190E-03 1.17071E-04 1.73507E-02 7.59088E-14-3.86541E-13
 -1       423 2.00083E+01 5.25912E-03 8.44849E-05 9.35931E-03 4.44217E-14-3.67182E-13
 -1       424 2.00029E+01 3.59112E-03 5.78068E-05 3.70167E-03 1.51680E-14-1.23749E-13
 -1       425 1.99999E+01 2.25740E-03 3.58600E-05-8.58458E-05-8.11398E-14 8.37512E-14
 -1       426 1.99987E+01 1.13329E-03 1.65276E-05-2.34593E-03-3.23668E-13-8.35655E-14
 -1       427 1.99986E+01 8.08179E-05-5.46882E-06-3.28363E-03-3.48444E-13 1.10609E-14
 -1       428 1.99989E+01-8.26799E-04-6.59948E-06-3.11654E-03-6.32423E-15 1.45672E-13
 -1       429 2.00007E+01-1.36551E-03 4.51536E-06-2.29270E-03-5.95449E-14-2.51672E-14
 -1       430 2.00004E+01-1.33852E-03-6.10609E-08-3.10179E-03 3.21657E-14-6.41130E-13
 -1       431 2.00006E+01-1.08710E-03 7.03172E-06-1.47507E-03-2.91757E-13-1.80799E-13
 -1       432 2.00004E+01-7.06771E-04 6.37433E-06-8.48011E-04-7.06950E-14 2.47449E-13
 -1       433 2.00001E+01-3.78370E-04 5.21391E-06-4.91804E-04 1.72560E-14 5.39948E-14
 -1       434 2.00000E+01-2.34737E-04 4.91007E-06-3.41349E-04-1.52018E-13 4.55861E-13
 -1       435 2.00001E+01-3.48210E-04 5.48999E-06-2.31183E-04-1.40074E-13 1.65458E-13
 -1       436 2.00003E+01-6.99771E-04 6.90380E-06 3.27999E-05-2.44361E-13-8.57928E-14
 -1       437 2.00006E+01-1.17467E-03 8.03617E-06 5.82793E-04 1.33289E-14 1.71943E-13
 -1       438 2.00009E+01-1.62863E-03 8.30237E-06 1.46319E-03 3.76168E-13 4.81275E-13
 -1       439 2.00009E+01-1.88727E-03 6.13275E-06 2.52913E-03 3.79280E-13-3.94938E-13
 -1       440 2.00004E+01-1.78944E-03-1.69821E-06 3.45208E-03 2.64024E-13-3.37795E-13
 -1       441 2.01941E+01 3.41170E-01 1.06789E-02 4.26334E-01 1.99148E-13 2.75882E-13
 -1       442 1.00322E+01-5.47652E+00-5.20083E-02 7.36139E+00-2.41446E-13 3.69108E-13
 -1       443 2.58361E+01-3.15513E+00 2.60179E-03 5.44115E+00 1.03126E-13-1.34032E-13
 -1       444 1.38076E+00-3.84778E+00 1.05656E-02 8.56725E-01-1.32172E-13 1.97869E-13
 -1       445 1.84776E+01-5.23902E+00-7.26679E-03 7.33459E+00-3.78905E-13 4.66023E-13
 -1       446 1.98404E+01 3.48360E+00-1.73662E-02-1.60566E+00-2.78079E-13-3.06543E-13
 -1       447 3.14844E+01 2.41420E-01 1.31672E-02 2.48919E+00 2.48989E-13-4.79353E-13
 -1       448 3.51092E+01 4.62194E+00 6.47953E-02 9.20157E-01 7.00218E-13-3.91728E-13
 -1       449 3.69859E+01 7.66403E+00 1.04449E-01 1.77472E-01 8.18415E-13-3.55174E-13
 -1       450 3.63207E+01 8.31336E+00 4.97725E-02 3.01839E-02 7.42517E-13-3.07594E-13
 -1       451 3.48653E+01 6.23141E+00-1.00625E-02-2.75075E-02 8.01068E-13-3.13888E-13
 -1       452 3.22509E+01 1.01259E+00-7.88007E-03-1.80444E+00 5.25170E-13-3.24851E-13
 -1       453 2.70033E+01-2.83972E+00-1.92479E-03-4.89712E+00 1.90528E-13-5.07788E-13
 -1       454 2.02397E+01-5.08952E+00-2.00973E-03-6.99223E+00 3.90799E-14-4.87603E-13
 -1       455 1.17802E+01-5.63102E+00-4.84805E-02-7.52460E+00 1.59317E-14-7.23113E-13
 -1       456 4.88029E+00-4.90057E+00-3.32865E-02-5.70217E+00-1.15213E-13-8.68722E-13
 -1       457 8.97569E-01-5.01398E+00-1.02808E-01-1.57213E+00 6.27449E-14-7.72715E-13
 -1       458 2.11262E+00-5.13465E+00-9.49792E-02 2.61496E+00 4.82461E-14-5.75567E-13
 -1       459 7.61101E+00-5.58105E+00-4.49739E-02 5.75799E+00 1.37654E-13-5.53099E-13
 -1       460 1.89891E+01-6.37963E+00-1.49371E-02 6.30591E+00 8.07687E-14-2.55322E-13
 -1       461 2.57971E+01-5.52704E+00-6.32117E-02 4.53185E+00-8.07132E-14-3.39798E-13
 -1       462 3.32463E+01-1.84419E+00 1.60437E-02 1.51929E+00-3.62613E-13-9.46465E-15
 -1       463 3.74853E+01 2.91995E+00 1.13861E-01-7.23159E-01-7.69010E-13 3.81972E-13
 -1       464 3.91595E+01 6.72583E+00 1.86329E-01-8.05825E-01-9.96925E-13 3.80154E-13
 -1       465 3.86531E+01 7.56205E+00 1.48752E-01 4.35484E-01-6.03795E-13 2.09978E-13
 -1       466 3.54366E+01 3.15894E+00-8.40929E-02 2.50427E+00-5.23234E-13 1.06443E-13
 -1       467 3.46514E+01-8.21835E-01-1.68751E-03 5.54756E-01-2.99264E-13 2.79193E-13
 -1       468 2.79984E+01-4.92205E+00-2.24429E-02-3.73550E+00 4.33542E-14 6.92502E-14
 -1       469 1.81266E+01-6.23691E+00-1.10186E-01-6.31810E+00 7.97973E-14 4.49564E-13
 -1       470 9.51369E+00-6.23058E+00-1.15961E-01-6.14760E+00-4.75175E-14 4.33341E-13
 -1       471 2.80627E+00-4.68930E+00-3.57755E-02-3.05800E+00-5.50254E-14 5.38680E-13
 -1       472 3.65535E+00-5.18349E+00-8.58885E-02 5.07790E+00-2.28650E-13 2.58987E-13
 -1       473 1.54541E+01-5.24542E+00 8.38782E-02 6.59852E+00 3.21368E-13-2.38920E-13
 -1       474 3.14535E+01 2.99675E+00-1.16025E-01 1.06281E+00 4.84217E-13 8.59451E-14
 -1       475 1.96309E+01 3.27468E+00-5.03192E-03-5.46735E-01-8.77309E-14-3.77025E-13
 -1       476 1.97744E+01 3.07547E+00-5.48220E-03-8.20489E-01-1.67188E-13-3.66956E-13
 -1       477 1.95290E+01 3.40729E+00-4.67149E-03-6.50024E-03 3.01893E-14-4.06284E-13
 -1       478 1.95635E+01 3.35944E+00-4.78084E-03 2.66742E-01 7.78354E-14-3.97789E-13
 -1       479 1.96508E+01 3.23829E+00-5.15215E-03 5.42677E-01 1.35819E-13-3.74360E-13
 -1       480 1.97955E+01 3.02932E+00-5.75405E-03 8.29351E-01 2.29728E-13-3.27662E-13
 -1       481 2.00019E+01 2.70943E+00-6.45456E-03 1.10897E+00 2.69537E-13-2.58778E-13
 -1       482 2.02781E+01 2.23775E+00-5.67904E-03 1.34208E+00 3.09172E-13-1.54850E-13
 -1       483 2.05649E+01 1.56419E+00-3.13570E-03 1.41037E+00 3.25674E-13 2.24484E-14
 -1       484 2.06336E+01 1.00059E+00 3.36565E-03 1.18219E+00 2.94377E-13 1.91343E-13
 -1       485 2.04652E+01 1.04017E+00 2.94470E-03-7.46454E-01-2.24235E-13-6.55728E-14
 -1       486 1.65870E+01-4.89611E+00 9.28905E-02 7.42856E+00-5.23227E-13 2.99923E-13
 -1       487 2.43154E+01-5.19538E+00 3.22527E-02 4.97645E+00-4.63830E-13-2.57870E-13
 -1       488 2.03342E+01 6.50175E-01 2.61023E-03-2.14397E-01-1.67694E-13-4.53056E-14
 -1       489 2.02392E+01 4.53331E-01 1.49394E-03 1.70406E-01-1.45226E-13-2.73997E-14
 -1       490 2.02022E+01 3.67157E-01 1.00936E-03 4.64856E-01-1.08930E-13-3.96443E-14
 -1       491 2.02174E+01 3.51126E-01 9.03207E-04 7.16490E-01-5.63820E-14-3.89443E-14
 -1       492 2.02720E+01 3.85906E-01 1.01153E-03 9.60682E-01-5.36438E-14-2.52920E-14
 -1       493 2.03515E+01 4.59369E-01 1.22214E-03 1.22422E+00-3.76145E-14-5.32773E-14
 -1       494 2.04424E+01 5.57335E-01 1.42352E-03 1.52672E+00-1.09354E-13-6.67958E-14
 -1       495 2.05358E+01 6.53087E-01 1.44603E-03 1.87926E+00-8.57729E-14-3.17955E-14
 -1       496 2.06408E+01 6.87433E-01 1.21717E-03 2.30133E+00 2.34267E-14 5.83926E-14
 -1       497 2.07923E+01 5.40717E-01 4.78025E-04 2.73087E+00 1.14788E-13 6.51847E-14
 -1       498 2.11344E+01 2.06482E-02 6.60442E-04 3.12361E+00 1.85176E-13 4.14447E-15
 -1       499 2.19560E+01-1.11859E+00 6.64495E-03 3.33844E+00 2.46540E-13 2.86034E-14
 -1       500 2.37910E+01-3.01019E+00 1.83018E-02 3.01308E+00 3.95311E-13 3.94519E-15
 -1       501 2.69788E+01-4.82548E+00 4.72274E-03 1.67110E+00 3.54440E-13 3.17089E-13
 -1       502 2.86361E+01-4.52598E+00-7.66156E-02-2.46071E-01 1.39740E-13 2.21428E-13
 -1       503 2.53367E+01-3.68245E+00 1.70797E-02-2.20594E+00 2.71942E-13 1.17683E-13
 -1       504 2.30225E+01-1.70349E+00 4.16221E-03-3.02769E+00 1.82055E-13 5.50512E-14
 -1       505 2.18546E+01-3.21648E-01 7.05082E-04-3.04077E+00-2.58423E-14-1.12414E-13
 -1       506 2.13153E+01 3.87195E-01 6.21685E-04-2.72496E+00-2.24515E-14-1.33273E-13
 -1       507 2.10570E+01 6.45773E-01 1.27876E-03-2.29795E+00-5.11867E-14-2.77200E-13
 -1       508 2.09004E+01 6.67512E-01 1.80774E-03-1.86544E+00-2.62722E-14-1.69849E-13
 -1       509 2.07723E+01 5.88605E-01 1.84413E-03-1.47520E+00-5.44922E-14-1.38740E-13
 -1       510 2.06515E+01 4.81131E-01 1.61369E-03-1.14465E+00 2.52702E-13-3.35745E-13
 -1       511 2.05367E+01 3.77472E-01 1.30014E-03-8.75417E-01 2.23344E-13-4.63874E-13
 -1       512 2.04313E+01 2.89285E-01 1.00399E-03-6.61678E-01 4.88691E-14-2.42061E-13
 -1       513 2.03383E+01 2.18693E-01 7.36782E-04-4.94817E-01 5.81785E-14-3.14608E-13
 -1       514 2.02563E+01 1.61428E-01 5.50393E-04-3.60772E-01 1.85890E-13-5.87148E-13
 -1       515 2.01925E+01 1.20220E-01 3.96976E-04-2.64026E-01 7.09759E-15-4.03972E-13
 -1       516 2.01415E+01 8.90293E-02 2.88144E-04-1.90685E-01-1.40033E-13-2.07462E-13
 -1       517 2.01017E+01 6.55631E-02 2.08944E-04-1.35532E-01-1.31358E-13 5.86384E-14
 -1       518 2.00713E+01 4.79572E-02 1.50709E-04-9.43708E-02-7.91476E-14 1.12036E-13
 -1       519 2.00486E+01 3.47833E-02 1.07819E-04-6.39175E-02-4.93841E-13 5.28908E-14
 -1       520 2.00321E+01 2.49540E-02 7.63303E-05-4.16175E-02-5.46552E-14-1.89227E-13
 -1       521 2.00204E+01 1.76403E-02 5.32446E-05-2.54978E-02 1.85189E-13-3.57577E-13
 -1       522 2.00123E+01 1.22014E-02 3.63029E-05-1.40472E-02 3.07137E-13-3.17378E-13
 -1       523 2.00069E+01 8.12749E-03 2.35105E-05-6.12701E-03 1.97787E-13-4.24506E-13
 -1       524 2.00035E+01 5.00204E-03 1.43069E-05-9.06243E-04-1.71740E-14-6.87320E-13
 -1       525 2.00015E+01 2.45878E-03 1.34721E-05 2.20816E-03-1.10147E-13-7.72786E-13
 -1       526 2.00009E+01 5.84193E-04 3.26305E-06 3.34090E-03 1.90649E-13-5.79255E-13
 -1       527 2.01585E+01 1.64645E-01 5.16995E-04-3.65164E-01 1.50790E-13 2.30686E-14
 -1       528 2.01681E+01 2.71222E-01 1.11343E-03-1.82592E-01 1.61486E-13-8.25906E-15
 -1       529 2.02435E+01 4.40202E-01 1.27841E-03 9.91925E-02 1.71511E-13 7.63639E-15
 -1       530 2.02044E+01 8.66349E-02 1.93043E-04-4.78880E-01 1.27300E-13 3.24914E-14
 -1       531 2.02949E+01 1.61950E-02-5.33466E-05-5.37224E-01 8.72885E-14-1.74335E-14
 -1       532 2.04204E+01-6.09436E-02-3.05504E-04-5.42401E-01 3.00490E-14-5.11770E-14
 -1       533 2.05721E+01-1.53852E-01-5.93203E-04-4.88277E-01-1.97786E-14-2.70426E-15
 -1       534 2.07402E+01-2.64652E-01-9.09230E-04-3.63670E-01-3.20224E-14 1.04034E-13
 -1       535 2.09103E+01-3.84424E-01-1.20426E-03-1.57558E-01 3.07304E-14 1.31769E-13
 -1       536 2.10604E+01-4.88301E-01-1.38048E-03 1.32424E-01-3.38065E-15 1.75842E-13
 -1       537 2.11584E+01-5.33234E-01-1.28828E-03 4.87717E-01-1.15543E-13 1.46194E-14
 -1       538 2.11663E+01-4.64873E-01-7.97595E-04 8.55140E-01 1.43580E-14 1.55589E-14
 -1       539 2.10546E+01-2.40960E-01 6.39751E-06 1.14024E+00 3.35719E-14 7.42639E-14
 -1       540 2.08287E+01 1.30432E-01 8.94665E-04 1.22328E+00 1.46623E-13 2.57298E-14
 -1       541 2.05516E+01 5.59455E-01 1.60604E-03 1.00892E+00 8.72180E-14 4.14476E-14
 -1       542 2.03356E+01 8.87861E-01 1.45855E-03 4.96289E-01-4.31418E-14 7.58602E-14
 -1       543 2.02874E+01 9.68492E-01 1.48003E-03-1.83037E-01-1.90657E-15 1.14245E-13
 -1       544 2.04343E+01 7.64168E-01 1.71306E-03-8.10827E-01 4.84006E-14 8.96312E-14
 -1       545 2.07054E+01 3.72971E-01 1.37941E-03-1.19868E+00 2.54360E-14 6.55677E-14
 -1       546 2.09828E+01-3.97881E-02 5.28505E-04-1.27699E+00 1.23573E-13 2.41429E-13
 -1       547 2.11740E+01-3.42443E-01-2.84009E-04-1.09909E+00 1.66976E-14 1.66195E-13
 -1       548 2.12449E+01-4.85779E-01-9.29421E-04-7.79136E-01 1.03959E-14 5.21059E-14
 -1       549 2.12100E+01-4.90497E-01-1.23225E-03-4.28439E-01 1.50465E-13 5.03236E-14
 -1       550 2.11052E+01-4.09119E-01-1.21741E-03-1.21260E-01-2.16186E-14-1.14481E-13
 -1       551 2.09658E+01-2.93187E-01-9.71501E-04 1.08498E-01-9.18008E-14-2.62037E-13
 -1       552 2.08175E+01-1.78606E-01-6.65034E-04 2.56166E-01-1.19466E-13 1.09174E-14
 -1       553 2.06755E+01-8.40680E-02-3.80270E-04 3.33058E-01-4.31529E-14 2.83086E-13
 -1       554 2.05475E+01-1.55157E-02-1.54196E-04 3.56507E-01-2.17634E-14 3.00661E-13
 -1       555 2.04363E+01 2.85222E-02 4.36505E-06 3.43922E-01-1.13721E-13 2.56032E-13
 -1       556 2.03422E+01 5.27887E-02 1.01784E-04 3.09987E-01 1.11659E-14-7.20347E-15
 -1       557 2.02641E+01 6.27524E-02 1.51386E-04 2.65779E-01 3.34150E-15 6.51117E-14
 -1       558 2.02005E+01 6.33226E-02 1.67421E-04 2.18936E-01 2.29009E-13-4.26628E-14
 -1       559 2.01495E+01 5.83683E-02 1.62225E-04 1.74240E-01 1.53962E-13-5.38801E-14
 -1       560 2.01092E+01 5.06726E-02 1.45259E-04 1.34333E-01 1.93045E-13-8.98821E-14
 -1       561 2.00781E+01 4.20843E-02 1.23131E-04 1.00354E-01 2.70525E-13-1.12154E-13
 -1       562 2.00544E+01 3.37298E-02 1.00073E-04 7.24790E-02-1.47406E-13 3.79295E-15
 -1       563 2.00368E+01 2.62165E-02 7.85229E-05 5.03135E-02-2.69006E-14 1.91435E-14
 -1       564 2.00239E+01 1.98015E-02 5.96858E-05 3.31763E-02-2.75934E-14 7.98272E-14
 -1       565 2.00149E+01 1.45183E-02 4.38670E-05 2.02872E-02-6.92750E-14 1.75814E-13
 -1       566 2.00087E+01 1.02646E-02 3.06971E-05 1.08878E-02-4.51280E-14 1.00790E-13
 -1       567 2.00047E+01 6.86776E-03 2.03577E-05 4.31038E-03-2.37352E-13 1.10731E-13
 -1       568 2.00022E+01 4.09959E-03 1.11502E-05 2.84883E-07-9.55173E-14 2.64146E-13
 -1       569 2.00008E+01 1.72440E-03 9.13548E-06-2.46055E-03-1.55482E-13-7.88450E-14
 -1       570 2.00010E+01 4.97156E-03 8.15844E-07-2.92134E-04 2.09224E-13 3.36514E-13
 -1       571 2.00015E+01 3.37684E-03 2.17014E-07-1.04346E-03-5.70493E-14-1.17617E-13
 -1       572 2.00014E+01 1.86636E-03-2.43077E-06-2.07386E-03-2.37733E-14-4.08756E-13
 -1       573 4.91999E+00-1.91535E+00 1.53380E-01 3.71081E+00-2.54706E-13 1.21111E-13
 -1       574 2.00005E+01 6.33488E-03 1.62341E-06 1.75342E-05 6.18890E-14 1.65300E-13
 -1       575 2.00000E+01 7.23330E-03 2.10614E-06-7.83949E-05-2.02913E-13-2.27292E-13
 -1       576 1.99999E+01 7.48373E-03 2.28438E-06-3.87098E-04-5.28761E-13 4.07736E-13
 -1       577 2.00003E+01 7.03770E-03 2.86229E-06-6.22665E-04-3.21497E-13 7.82309E-14
 -1       578 2.00009E+01 5.99694E-03 3.43696E-06-5.19610E-04-5.21055E-14 1.11568E-13
 -1       579 2.00015E+01 4.51588E-03 3.24196E-06 8.20594E-05 1.60697E-14 4.85460E-13
 -1       580 2.00019E+01 2.86065E-03 6.81653E-07 1.16901E-03 1.42463E-13-1.05105E-13
 -1       581 2.00018E+01 1.57791E-03 6.20689E-07 2.30661E-03 1.11669E-13-4.09688E-13
 -1       582 9.28098E+00-3.25022E+00 1.42733E-01-5.48309E+00 1.09808E-13 4.07882E-13
 -1       583 2.04848E+01 1.79943E+00-6.01239E-03-1.37744E+00-2.94911E-13-1.07346E-13
 -1       584 2.81658E+01-3.40946E+00-5.89933E-02 2.03184E+00-1.36191E-13-7.72868E-13
 -1       585 5.41217E+00-1.02136E+00 2.03060E-01-1.55582E+00-1.45779E-13 3.22464E-13
 -1       586 3.31702E+01 3.62738E+00-1.38833E-01-2.96829E+00-7.03132E-13 6.45275E-13
 -1       587 4.37232E+00-1.43782E+00 1.79849E-01 6.61830E-01 4.24261E-14-5.16212E-13
 -1       588 3.07003E+01 7.86476E+00-1.73726E-01-4.01401E-01 6.41223E-13-2.15158E-13
 -1       589 1.95506E+01 3.38076E+00-4.75587E-03-2.76042E-01-1.86363E-14-4.02192E-13
 -1       590 3.14057E+01 5.67117E+00-1.51334E-01-1.30410E+00 6.30412E-13-4.39905E-13
 -1       591 2.90066E+01-2.56157E+00-6.10802E-02-1.51332E+00 2.48547E-14-9.91152E-14
 -1       592 3.03131E+01 1.33187E+00-1.24475E-01-1.09111E+00 6.92085E-14-7.31568E-13
 -1       593 3.02099E+01 6.76881E+00-1.88803E-01 1.20604E+00 6.54546E-13 1.55809E-13
 -1       594 3.27484E+01-9.67275E-01-1.34979E-01-2.61336E+00-3.05873E-13 8.26797E-13
 -1       595 2.51280E+01-5.08140E+00 1.30791E-02-4.66387E+00-1.36419E-13-3.20029E-13
 -1       596 1.81175E+01-5.29856E+00 6.87348E-02-7.19232E+00-2.87638E-13-4.68053E-13
 -1       597 1.15684E+01-3.70293E+00 1.49701E-01-7.17965E+00-3.22152E-13-6.27651E-13
 -1       598 5.20629E+00-1.86708E+00 1.62120E-01-3.68281E+00-1.48201E-13-6.98580E-13
 -1       599 7.63513E+00-2.55098E+00 1.75003E-01 4.58167E+00 3.29688E-13-4.98143E-13
 -1       600 2.46941E+01-6.03420E+00 1.84938E-02 4.10742E+00 3.27190E-13 1.12861E-14
 -1       601 2.45583E+01-6.19010E+00 2.35346E-02-4.25759E+00 1.48527E-13 2.70211E-13
 -1       602 3.01029E+01-4.66956E+00-2.22904E-02 6.73927E-01 4.62581E-14 4.54269E-13
 -1       603 3.08854E+01-4.08393E+00-4.11750E-02 4.58228E-01-6.21447E-14 3.58984E-13
 -1       604 1.77978E+01-5.53564E+00 8.80752E-02-6.29661E+00 1.57624E-13 3.22027E-13
 -1       605 9.58229E+00-3.34880E+00 1.34495E-01 6.76744E+00-3.77393E-13 2.51923E-13
 -1       606 1.99755E+01 2.75864E+00-9.42525E-03-1.08253E+00-2.27328E-13-3.09379E-13
 -1       607 2.03981E+01 6.77056E-01 6.40194E-03 6.58757E-01 2.31109E-13 1.26846E-13
 -1       608 3.11065E+01-3.25478E+00-6.48958E-02-1.34157E+00-1.53883E-13 6.40273E-13
 -1       609 3.52546E+01 6.65861E+00-4.05097E-02-9.81741E-01-7.42101E-13 1.24505E-13
 -1       610 2.02949E+01 5.37942E-01 3.62293E-03 3.49597E-01 2.01359E-13 5.11897E-14
 -1       611 2.11903E+01-5.26434E+00 8.73033E-02 5.33876E+00 4.48877E-13-5.31745E-14
 -1       612 2.92294E+01-3.89546E-01-9.54327E-02 8.74253E-01 1.88571E-13 3.44814E-13
 -1       613 1.34498E+01-3.12049E+00 1.30175E-01 5.81655E+00 4.69229E-13-2.59702E-13
 -1       614 3.14499E+01-5.99268E-01-1.36532E-01 3.35346E+00-2.79551E-13 6.00908E-14
 -1       615 3.30991E+01 4.60330E+00-1.52225E-01 2.33376E+00-5.51323E-13 2.91926E-13
 -1       616 1.98160E+01 2.65584E+00-1.52165E-03 2.83757E-01 8.44947E-14-3.39458E-13
 -1       617 1.97499E+01 2.75892E+00-1.41503E-03 7.98744E-02 3.66731E-14-3.79267E-13
 -1       618 2.00905E+01 2.17314E+00-1.74099E-03 6.75580E-01 2.16091E-13-2.54612E-13
 -1       619 2.02755E+01 1.76753E+00-1.96971E-03 8.20101E-01 2.38941E-13-1.70508E-13
 -1       620 2.04696E+01 1.06095E+00 3.47771E-03 8.54184E-01 2.42063E-13-1.05289E-14
 -1       621 2.80984E+01-1.62663E+00-7.01198E-02-5.65446E-01 2.61562E-14-5.42039E-13
 -1       622 1.48015E+01-2.83117E+00 1.19268E-01 6.47421E+00-3.87527E-13 3.30846E-14
 -1       623 2.03073E+01 8.75251E-01 6.88366E-04-7.80987E-02-1.50856E-13-1.45245E-13
 -1       624 2.02359E+01 6.66596E-01 3.43315E-04 2.75398E-01-1.34115E-13-1.03148E-13
 -1       625 2.01612E+01 5.79348E-01 2.62796E-04 5.65247E-01-7.20997E-14-7.00833E-14
 -1       626 2.00819E+01 5.79062E-01 2.75160E-04 8.22088E-01-7.24410E-14-8.71540E-14
 -1       627 1.99852E+01 6.45371E-01 3.41406E-04 1.07203E+00-8.34157E-14-1.01836E-13
 -1       628 1.98512E+01 7.61138E-01 4.19835E-04 1.33623E+00-5.14624E-14-8.43314E-14
 -1       629 1.96572E+01 9.02793E-01 3.95783E-04 1.63217E+00-7.25834E-14-7.33507E-15
 -1       630 1.93659E+01 1.02984E+00 4.82386E-04 1.99440E+00 4.98499E-15-6.66473E-15
 -1       631 1.90025E+01 1.04069E+00 6.05193E-04 2.41102E+00 4.17152E-14-1.07079E-14
 -1       632 1.86001E+01 7.89982E-01 2.74570E-03 2.93750E+00 6.96532E-14-4.88719E-14
 -1       633 1.83321E+01-4.94362E-03 9.93940E-03 3.62994E+00 2.03502E-13-5.51430E-14
 -1       634 1.86858E+01-1.64910E+00 6.68182E-02 4.55635E+00 3.87670E-13-9.68496E-15
 -1       635 7.86291E+00 3.14658E-01 1.73253E-01 1.47991E+00-2.79787E-13 2.57988E-14
 -1       636 1.98229E+01-2.68100E+00 8.66745E-02-4.60861E+00 1.94502E-13 1.45063E-13
 -1       637 1.89092E+01-5.74822E-01 2.19411E-02-3.81530E+00-5.53130E-14 1.63155E-14
 -1       638 1.88677E+01 5.35832E-01 5.50921E-03-3.09211E+00-9.69249E-14 3.99936E-14
 -1       639 1.91430E+01 9.79062E-01 9.73533E-04-2.49969E+00-1.68454E-13-1.10342E-13
 -1       640 1.94591E+01 1.05799E+00 6.19232E-04-2.02162E+00-7.51757E-14-3.50898E-13
 -1       641 1.97176E+01 9.66215E-01 6.11082E-04-1.62472E+00 7.22435E-14-3.20057E-13
 -1       642 1.98972E+01 8.14065E-01 5.67846E-04-1.29290E+00 1.09883E-14-2.24432E-14
 -1       643 2.00075E+01 6.55708E-01 4.75844E-04-1.01717E+00 9.15827E-14-9.24354E-14
 -1       644 2.00665E+01 5.14167E-01 3.78314E-04-7.90993E-01 1.17774E-13-2.14563E-13
 -1       645 2.00914E+01 3.96500E-01 2.73680E-04-6.07891E-01-1.55460E-13-4.65472E-13
 -1       646 2.00955E+01 2.98255E-01 2.01761E-04-4.55509E-01-2.83723E-14-3.95971E-13
 -1       647 2.00882E+01 2.25648E-01 1.48236E-04-3.41833E-01 7.56382E-14-4.74297E-13
 -1       648 2.00759E+01 1.69591E-01 1.05804E-04-2.53095E-01 9.70681E-14-2.06686E-13
 -1       649 2.00623E+01 1.26654E-01 7.70055E-05-1.84584E-01 2.24294E-13-3.51600E-14
 -1       650 2.00492E+01 9.39286E-02 5.57974E-05-1.32212E-01-1.90249E-13 1.98305E-13
 -1       651 2.00377E+01 6.90888E-02 4.01047E-05-9.25895E-02-4.31521E-13-1.21549E-13
 -1       652 2.00282E+01 5.03091E-02 2.85137E-05-6.29483E-02-2.89366E-13-2.39151E-15
 -1       653 2.00205E+01 3.61664E-02 1.99720E-05-4.10580E-02 2.46252E-14-9.95280E-15
 -1       654 2.00145E+01 2.55468E-02 1.37098E-05-2.51453E-02 2.10631E-13 1.56520E-13
 -1       655 2.00099E+01 1.75645E-02 9.13430E-06-1.38191E-02 1.55201E-13-1.24272E-13
 -1       656 2.00065E+01 1.14852E-02 4.96913E-06-6.01991E-03-9.29145E-14-3.81160E-13
 -1       657 2.00040E+01 6.74278E-03 3.26706E-06-9.87538E-04 4.75938E-14-3.38532E-13
 -1       658 2.00027E+01 4.19218E-03-9.18290E-06 1.08769E-03-8.82437E-15-2.83047E-13
 -1       659 2.02687E+01 3.88866E-01 2.26979E-04-2.67543E-01 1.27681E-13-1.20912E-13
 -1       660 2.02623E+01 2.38948E-01 9.29775E-05-4.53041E-01 1.22623E-13-8.04679E-14
 -1       661 2.03069E+01 6.03500E-01 5.73404E-04-1.11943E-03 1.73635E-13-1.34291E-13
 -1       662 2.03682E+01-2.46219E-03-5.71517E-05-6.42085E-01 5.26530E-14-5.46417E-14
 -1       663 2.04885E+01-1.39507E-01-1.49115E-04-6.51496E-01-2.40942E-14 3.04119E-14
 -1       664 2.06592E+01-3.05380E-01-2.64202E-04-5.93378E-01-5.16492E-14 1.21983E-14
 -1       665 2.08809E+01-4.98966E-01-4.10779E-04-4.51325E-01-2.33201E-14-1.20620E-14
 -1       666 2.11453E+01-6.98514E-01-5.51070E-04-2.08034E-01-2.74753E-14-2.81821E-14
 -1       667 2.14262E+01-8.52935E-01-6.20826E-04 1.44062E-01-4.71626E-14 4.25301E-14
 -1       668 2.16724E+01-8.79103E-01-4.72013E-04 5.84426E-01-5.05471E-14 4.63893E-14
 -1       669 2.18113E+01-6.78773E-01 2.34340E-06 1.03982E+00-3.74667E-14 2.66995E-14
 -1       670 2.17783E+01-1.92468E-01 3.28717E-04 1.36911E+00 5.46346E-14 1.50608E-13
 -1       671 2.15699E+01 5.22781E-01 2.89052E-04 1.39252E+00 1.34215E-13 1.90509E-13
 -1       672 2.12923E+01 1.24029E+00 2.84883E-04 9.86553E-01 8.98282E-14 1.75923E-13
 -1       673 2.11173E+01 1.64560E+00-1.60006E-03 2.12505E-01 3.71734E-14 1.14285E-14
 -1       674 2.11787E+01 1.51902E+00-4.77807E-04-6.54814E-01-3.03647E-15-1.06344E-13
 -1       675 2.14275E+01 9.39586E-01 2.71637E-04-1.28404E+00 5.68931E-14 5.47604E-14
 -1       676 2.16966E+01 1.94810E-01 4.75310E-06-1.49167E+00-3.79918E-14-3.42353E-14
 -1       677 2.18330E+01-4.20990E-01 2.67862E-04-1.31721E+00 1.80596E-13-4.43629E-14
 -1       678 2.17855E+01-7.64068E-01-2.72560E-05-9.25243E-01 1.57482E-13-9.30510E-14
 -1       679 2.15924E+01-8.40261E-01-3.52326E-04-4.83730E-01 1.05671E-13-2.60192E-13
 -1       680 2.13272E+01-7.37897E-01-5.69293E-04-1.01147E-01 1.08497E-13-2.05249E-13
 -1       681 2.10535E+01-5.52841E-01-4.55204E-04 1.78675E-01 2.76917E-14-1.54017E-13
 -1       682 2.08087E+01-3.55694E-01-3.06920E-04 3.53629E-01-2.13113E-13-1.53209E-13
 -1       683 2.06079E+01-1.85511E-01-1.80345E-04 4.41263E-01-1.75709E-13-1.25884E-13
 -1       684 2.04517E+01-5.71999E-02-8.37687E-05 4.64731E-01-5.92019E-14-3.63889E-14
 -1       685 2.03340E+01 2.89531E-02-1.58105E-05 4.45747E-01-5.82157E-14 8.57615E-14
 -1       686 2.02469E+01 7.96406E-02 2.61958E-05 4.01887E-01 4.02584E-14 8.65887E-14
 -1       687 2.01828E+01 1.03701E-01 4.84139E-05 3.46139E-01-1.26992E-13 2.32508E-13
 -1       688 2.01356E+01 1.09556E-01 5.69327E-05 2.87383E-01 1.68001E-13 2.41903E-13
 -1       689 2.01007E+01 1.04125E-01 5.67591E-05 2.31210E-01 2.04613E-13 1.69735E-13
 -1       690 2.00747E+01 9.25714E-02 5.16746E-05 1.80751E-01 2.05005E-13 1.46452E-13
 -1       691 2.00552E+01 7.84577E-02 4.42960E-05 1.37416E-01 2.07851E-13 1.83983E-13
 -1       692 2.00405E+01 6.40574E-02 3.63073E-05 1.01488E-01-1.01981E-13 2.69113E-13
 -1       693 2.00294E+01 5.06854E-02 2.86832E-05 7.25669E-02-4.00647E-14 3.49026E-14
 -1       694 2.00211E+01 3.89874E-02 2.19260E-05 4.98900E-02 3.42576E-14 2.37934E-14
 -1       695 2.00149E+01 2.91677E-02 1.62918E-05 3.25523E-02-9.41966E-14 4.77792E-14
 -1       696 2.00102E+01 2.11561E-02 1.14622E-05 1.96419E-02-1.06036E-13 1.85684E-13
 -1       697 2.00068E+01 1.47085E-02 6.88687E-06 1.03381E-02 1.12542E-13 1.20157E-13
 -1       698 2.00043E+01 9.55751E-03 1.11354E-05 3.94368E-03 3.36355E-14-3.86614E-13
 -1       699 2.00026E+01 5.52184E-03 7.55526E-06 2.62141E-05-1.12357E-13-3.01662E-13
 -1       700 2.00019E+01 9.87890E-03 7.84491E-06 1.43576E-03 2.91300E-13 3.44453E-13
 -1       701 1.99998E+01 1.47878E-02 1.17321E-06 1.13204E-03-7.32060E-14-3.33541E-13
 -1       702 2.00025E+01 7.69381E-03 1.64949E-06 8.94288E-04 4.29310E-14-6.23088E-15
 -1       703 2.00008E+01 1.27071E-02-2.18562E-06 1.63462E-03 2.57935E-14 9.41896E-14
 -1       704 1.99995E+01 1.58088E-02 5.99583E-07-1.03405E-03-2.54093E-13 4.16041E-13
 -1       705 2.00003E+01 1.45604E-02 1.19501E-06-1.87792E-03-2.67217E-13 1.01518E-13
 -1       706 2.00016E+01 1.22942E-02 1.92683E-06-2.09573E-03-1.83152E-13 3.14646E-13
 -1       707 2.00028E+01 9.37312E-03 2.02400E-06-1.47677E-03-2.14608E-13 3.63945E-13
 -1       708 2.11991E+01-4.82973E+00 4.89607E-02 5.63765E+00-5.98650E-13-2.62672E-14
 -1       709 2.03333E+01 1.78233E+00 1.73482E-04-9.44799E-01-2.28488E-13-1.68235E-13
 -1       710 1.03972E+01-5.72458E-01 1.52278E-01-3.74626E+00 1.21417E-13 2.38282E-13
 -1       711 9.78013E+00-8.88308E-01 1.23882E-01 4.84954E+00-2.86108E-13 1.74014E-13
 -1       712 2.26912E+01-4.90096E+00 4.84075E-02-4.82786E+00-3.61402E-13-1.69882E-13
 -1       713 1.99993E+01 1.59013E-02 2.58056E-07 1.12962E-04-1.55950E-13 9.91995E-14
 -1       714 2.59209E+01-4.35299E+00-8.22652E-03 2.33328E+00-2.27840E-13-4.68233E-13
 -1       715 2.03499E+01 1.22465E+00-1.29607E-04-4.74386E-01-1.79831E-13-1.49888E-13
 -1       716 2.59754E+01-4.44981E+00-1.12314E-03-2.48751E+00-2.93801E-13 7.01522E-15
 -1       717 1.99323E+01 2.46370E+00-1.64649E-03 4.86902E-01 1.55386E-13-2.83564E-13
 -1       718 2.72323E+01 5.59988E+00-1.52889E-01-1.52104E+00 3.67345E-13-3.32286E-13
 -1       719 8.45777E+00-3.06423E-01 1.69142E-01 2.63067E+00 2.21751E-13-1.72494E-13
 -1       720 1.65634E+01-3.73264E+00 9.92615E-02-6.64853E+00-3.25885E-13-4.62717E-13
 -1       721 7.14863E+00-1.53731E-02 1.66118E-01-1.40823E+00-3.21028E-14-4.78319E-13
 -1       722 2.79978E+01 3.58435E+00-1.38468E-01 2.08537E+00 4.22301E-13 4.22093E-13
 -1       723 1.98952E+01 2.52852E+00-1.52005E-03-4.95008E-01-1.03229E-13-3.11190E-13
 -1       724 1.02412E+01-1.30016E+00 1.33717E-01-5.21064E+00-1.30666E-13-6.39266E-13
 -1       725 2.75971E+01 2.75767E+00-1.13358E-01-2.16368E+00 1.43358E-13-4.89386E-13
 -1       726 2.70937E+01 6.57272E+00-1.62462E-01 3.59625E-01 4.62165E-13-5.00965E-14
 -1       727 1.53202E+01-2.95248E+00 1.36573E-01-5.61186E+00 1.23530E-13 1.38674E-13
 -1       728 2.02941E+01 1.17257E-01 1.68706E-05-5.75350E-01 1.46396E-13-4.14614E-14
 -1       729 1.97395E+01 2.77460E+00-1.41519E-03-1.18631E-01-7.74972E-15-3.63814E-13
 -1       730 1.02141E+01 9.22999E-01 1.10863E-01-1.13915E+00-1.37952E-13-1.26170E-13
 -1       731 2.00625E+01 2.24829E+00-1.16650E-03-6.72482E-01-1.56622E-13-2.88630E-13
 -1       732 2.69584E+01-3.10312E+00-4.18623E-02-3.99843E-01-1.77853E-13 2.77018E-13
 -1       733 2.00031E+01 6.64407E-03 5.27490E-06-3.07164E-04-2.04998E-13-2.23599E-13
 -1       734 2.03639E+01 9.38175E-01 1.81665E-03 3.68178E-01 1.79032E-13-1.28549E-13
 -1       735 1.97879E+01 2.70020E+00-1.48893E-03-3.10433E-01-5.47298E-14-3.25036E-13
 -1       736 1.23097E+01-9.05519E-01 1.16716E-01 4.30986E+00 4.34359E-13-2.41702E-13
 -1       737 2.58734E+01 4.58145E+00-1.00105E-01 1.60172E+00 3.07324E-13-5.78530E-15
 -1       738 2.02644E+01 1.44119E+00-6.77161E-04 4.09574E-01 1.80992E-13-2.15107E-13
 -1       739 2.64541E+01 4.40931E-02-4.99738E-02-1.77752E+00-4.00513E-14-5.12677E-13
 -1       740 2.01212E+01 8.53580E-01-4.22022E-05 3.43149E-01-7.87343E-14-1.26524E-13
 -1       741 1.99850E+01 7.82180E-01 2.40239E-05 5.90085E-01-9.57881E-14-1.49446E-13
 -1       742 1.97968E+01 8.04957E-01 4.90991E-05 8.06653E-01-1.14465E-13-2.12413E-13
 -1       743 1.95390E+01 9.01551E-01 6.11756E-05 1.00871E+00-2.78328E-14-2.06701E-13
 -1       744 1.91841E+01 1.05080E+00-4.45860E-05 1.20968E+00-1.78868E-14-1.58988E-13
 -1       745 1.86652E+01 1.23052E+00 5.85980E-06 1.43418E+00-2.46783E-14-7.12135E-14
 -1       746 1.79830E+01 1.37000E+00-7.86459E-05 1.68658E+00 2.15125E-14-4.73002E-14
 -1       747 1.70734E+01 1.37983E+00 9.02236E-04 2.03289E+00 5.59158E-14-3.65530E-14
 -1       748 1.58593E+01 1.12516E+00 1.88646E-02 2.62499E+00 1.31674E-13 1.47393E-14
 -1       749 2.07300E+01-4.97176E-01-9.70183E-05-7.47015E-01-4.10453E-14-2.22755E-14
 -1       750 2.59898E+01-2.72451E+00-2.74875E-02-8.26331E-03-1.10033E-13-5.84551E-13
 -1       751 1.57228E+01 8.41621E-01 2.26811E-02-2.90429E+00-3.18598E-13 8.47889E-14
 -1       752 1.68680E+01 1.33395E+00 2.49289E-03-2.19219E+00-2.56909E-13-1.39815E-13
 -1       753 1.77893E+01 1.42776E+00 4.75849E-04-1.75631E+00-3.18172E-13-4.88315E-14
 -1       754 1.84876E+01 1.32378E+00-2.95409E-06-1.43793E+00 5.78321E-14-1.88238E-13
 -1       755 1.89938E+01 1.14151E+00 3.15765E-06-1.18464E+00 1.72344E-13-2.66473E-13
 -1       756 1.93495E+01 9.42291E-01 6.17745E-05-9.69886E-01 1.32807E-13-7.49492E-14
 -1       757 1.95921E+01 7.56550E-01 8.36099E-05-7.84750E-01 3.46524E-14 4.06493E-14
 -1       758 1.97532E+01 5.96268E-01 6.46094E-05-6.25902E-01-3.40264E-13-9.96394E-14
 -1       759 1.98615E+01 4.58021E-01 3.57338E-05-4.86012E-01-5.99643E-14-2.33598E-14
 -1       760 1.99257E+01 3.52844E-01 3.68309E-05-3.76227E-01 1.47798E-13 1.21570E-13
 -1       761 1.99649E+01 2.69609E-01 2.35225E-05-2.86684E-01 1.89930E-14-2.97527E-14
 -1       762 1.99879E+01 2.04471E-01 1.71802E-05-2.14915E-01 1.93056E-13-1.87786E-13
 -1       763 2.00007E+01 1.53873E-01 1.26711E-05-1.58239E-01 1.73675E-13-3.62773E-13
 -1       764 2.00072E+01 1.14808E-01 9.25541E-06-1.14117E-01-2.15848E-13 5.50089E-14
 -1       765 2.00098E+01 8.48164E-02 6.63049E-06-8.02513E-02-3.67563E-13 5.16559E-13
 -1       766 2.00103E+01 6.19161E-02 4.60577E-06-5.46378E-02-2.34036E-13 3.99875E-13
 -1       767 2.00095E+01 4.45148E-02 2.87454E-06-3.55774E-02-1.82475E-14 1.89568E-13
 -1       768 2.00082E+01 3.13266E-02 2.57854E-06-2.16697E-02 8.47348E-14 6.09930E-14
 -1       769 2.00065E+01 2.13173E-02 4.12729E-06-1.18027E-02-1.42178E-13 1.50314E-14
 -1       770 2.00049E+01 1.35614E-02 6.39336E-06-5.01492E-03-1.04250E-13 2.08737E-13
 -1       771 2.02772E+01 4.79204E-01 2.10491E-05-3.58738E-01 1.30915E-13-1.88160E-13
 -1       772 2.02965E+01 7.19482E-01 1.77210E-05-1.20390E-01 1.39847E-13-1.94891E-13
 -1       773 2.05091E+01-2.44638E-01-4.05973E-05-7.83045E-01-1.73760E-14 1.00863E-14
 -1       774 2.03710E+01-3.88705E-02-2.03268E-05-7.51320E-01-3.25302E-14 2.12345E-14
 -1       775 2.10465E+01-7.90424E-01-2.27828E-04-6.17150E-01-8.31335E-15-6.21684E-14
 -1       776 2.14560E+01-1.08517E+00-3.71514E-04-3.61123E-01-4.86850E-14 8.50868E-16
 -1       777 2.19237E+01-1.29292E+00-5.06787E-04 4.65087E-02-1.02270E-13 2.59708E-14
 -1       778 2.23660E+01-1.26991E+00-4.82862E-04 5.94355E-01-9.63772E-14 1.15962E-13
 -1       779 2.26522E+01-8.47507E-01-4.42786E-05 1.18205E+00-1.34749E-14 1.30631E-13
 -1       780 2.26635E+01 4.71763E-02-1.75655E-03 1.58741E+00 9.37314E-14 8.51906E-14
 -1       781 2.24028E+01 1.25057E+00-3.23949E-03 1.51172E+00 1.27084E-13 1.57470E-13
 -1       782 2.20819E+01 2.23524E+00-1.83507E-04 8.05451E-01 1.08711E-13 1.85839E-13
 -1       783 2.19687E+01 2.51500E+00-4.99249E-03-2.91300E-01 8.95276E-14 1.73842E-13
 -1       784 2.22221E+01 1.85782E+00-1.75132E-03-1.26009E+00-1.47902E-14-1.66698E-14
 -1       785 2.25429E+01 7.00542E-01-4.55011E-03-1.67933E+00 1.24984E-13-2.80285E-14
 -1       786 2.26864E+01-3.86615E-01-1.35477E-03-1.50650E+00 8.82534E-14-1.21799E-13
 -1       787 2.25314E+01-1.04839E+00 6.64283E-04-9.98673E-01 1.16577E-13 4.32917E-14
 -1       788 2.21499E+01-1.25669E+00 3.83961E-04-4.25794E-01 2.66738E-13 5.41823E-14
 -1       789 2.16742E+01-1.14498E+00-5.30430E-04 4.10589E-02 1.04187E-13 8.24414E-15
 -1       790 2.12171E+01-8.79375E-01-3.04088E-04 3.55963E-01-3.70393E-14 1.82226E-13
 -1       791 2.08359E+01-5.81649E-01-1.46640E-04 5.31117E-01-1.62228E-13 2.56521E-13
 -1       792 2.05472E+01-3.18424E-01-7.21325E-05 6.00992E-01-1.95410E-13 2.82145E-13
 -1       793 2.03434E+01-1.16097E-01-3.32506E-05 6.00536E-01-2.47590E-13 1.67587E-13
 -1       794 2.02076E+01 2.29259E-02-5.44978E-06 5.57825E-01-1.36734E-13 2.44680E-13
 -1       795 2.01217E+01 1.07640E-01 9.41392E-06 4.93037E-01 5.83527E-14 1.41887E-13
 -1       796 2.00698E+01 1.50771E-01 1.58086E-05 4.19771E-01-3.85970E-14 2.03935E-15
 -1       797 2.00401E+01 1.64801E-01 1.75243E-05 3.46673E-01 1.47038E-14-2.31491E-13
 -1       798 2.00240E+01 1.60213E-01 1.67104E-05 2.78827E-01 1.82685E-13-1.22043E-13
 -1       799 2.00158E+01 1.45005E-01 1.47121E-05 2.18857E-01 2.10335E-13-2.72883E-13
 -1       800 2.00119E+01 1.24833E-01 1.22878E-05 1.67753E-01 1.20077E-13-3.47951E-13
 -1       801 2.00100E+01 1.03418E-01 9.86689E-06 1.25469E-01-4.47288E-14-5.07975E-14
 -1       802 2.00090E+01 8.30059E-02 7.68635E-06 9.13565E-02 3.22094E-15-6.82368E-14
 -1       803 2.00082E+01 6.47923E-02 5.80934E-06 6.44595E-02-1.20977E-13 2.05383E-14
 -1       804 2.00074E+01 4.92567E-02 4.30527E-06 4.37113E-02-1.59668E-13 4.18475E-13
 -1       805 2.00065E+01 3.64215E-02 3.33670E-06 2.80718E-02-1.48007E-13 2.35284E-13
 -1       806 2.00054E+01 2.60579E-02 3.39900E-06 1.65684E-02 6.73217E-14 2.37810E-14
 -1       807 2.00043E+01 1.76739E-02-1.31486E-05 8.46684E-03 2.60435E-13 3.74129E-13
 -1       808 2.00034E+01 1.24005E-02 6.54222E-06 4.00683E-03 5.18998E-14 1.43436E-13
 -1       809 2.00004E+01 2.22451E-02-1.97492E-06-4.63060E-03-2.05260E-13 4.62572E-13
 -1       810 2.00025E+01 1.82310E-02-7.09791E-06-5.20296E-03-1.51023E-13 2.35211E-13
 -1       811 1.99986E+01 2.48943E-02-1.15238E-06-2.96238E-03-3.53486E-13 2.40888E-13
 -1       812 2.69508E+01 3.25537E-01-6.62395E-02 1.85096E+00 1.43656E-13 3.62070E-13
 -1       813 1.99981E+01 2.49954E-02-7.64245E-06 1.88737E-03-9.36926E-14-3.50147E-13
 -1       814 1.90406E+01-3.17478E+00 4.04960E-02 5.15962E+00-3.98345E-13-1.18457E-13
 -1       815 2.30902E+01-4.09300E+00 2.09780E-02 3.41881E+00-4.36201E-13-2.53898E-13
 -1       816 1.99977E+01 2.58809E-02-2.84864E-06-5.77988E-04-1.79908E-13 1.29561E-13
 -1       817 2.02101E+01 1.04834E+00-3.86656E-05 4.95354E-02-1.13786E-13-1.56899E-13
 -1       818 2.42193E+01-4.15357E+00 8.88219E-03-2.64768E+00-3.19273E-13-5.98730E-14
 -1       819 1.98782E+01-3.46999E+00 2.46123E-02-4.91005E+00-3.35270E-13-1.96069E-13
 -1       820 1.04713E+01 3.66228E-01 1.03039E-01-2.91051E+00 2.59194E-14-5.30902E-13
 -1       821 2.50344E+01 5.23702E+00-8.62900E-02-5.56818E-01 2.95850E-13-2.21360E-13
 -1       822 9.81484E+00 8.23564E-01 9.39007E-02 6.19312E-01 7.72806E-14-2.40995E-13
 -1       823 1.99220E+01 2.16852E+00-2.91225E-04 8.52692E-02 4.95499E-14-3.11261E-13
 -1       824 2.54158E+01 3.64180E+00-7.13702E-02-1.89708E+00 8.93209E-14-4.09409E-13
 -1       825 1.53007E+01-1.65484E+00 7.48949E-02-5.26029E+00-1.79471E-13-3.39052E-13
 -1       826 1.50484E+01-8.08705E-01 8.06652E-02-4.35128E+00 1.19365E-13 1.61329E-13
 -1       827 1.53905E+01-1.33310E+00 6.04050E-02 5.03952E+00-3.73247E-13-7.04272E-14
 -1       828 2.50066E+01 1.30460E+00-3.56984E-02-2.09535E+00 3.02007E-14-3.76729E-13
 -1       829 2.02977E+01 1.33516E-01 1.81613E-06-6.67758E-01 7.39814E-14-3.16689E-14
 -1       830 2.00023E+01 1.56092E-02 1.30513E-05 4.27628E-03 6.99984E-14 4.40902E-13
 -1       831 1.09804E+01 1.15076E+00 9.15017E-02 1.51124E+00-2.43278E-13 1.19446E-13
 -1       832 2.51460E+01-3.45251E+00-1.49547E-02-9.75367E-01-1.50719E-13 7.34122E-14
 -1       833 1.47347E+01 2.45541E-01 8.06885E-02 3.66799E+00 1.85183E-13-2.43551E-14
 -1       834 2.42261E+01-3.33653E+00-6.29473E-03 1.34831E+00-2.85937E-13-4.85533E-13
 -1       835 2.00116E+01 2.01194E+00-5.59155E-04 2.09546E-01 1.03960E-13-2.64843E-13
 -1       836 2.02718E+01 2.96170E-01 9.45409E-06-5.37876E-01 7.48471E-14-1.41717E-13
 -1       837 1.98775E+01 2.23761E+00-3.30949E-04-3.73780E-02-1.17428E-14-3.46080E-13
 -1       838 1.99994E+01 2.25391E-02 7.26928E-06 3.65790E-03-1.28742E-13-8.36545E-14
 -1       839 2.00758E+01 1.86785E+00-8.92008E-04-3.28808E-01-1.02966E-13-2.66845E-13
 -1       840 2.01337E+01 1.76946E+00-6.16649E-04 3.25449E-01 1.62435E-13-2.23133E-13
 -1       841 2.55075E+01 2.03271E+00-5.64814E-02 2.08597E+00 1.91262E-13 1.25422E-13
 -1       842 2.03070E+01 1.06748E+00 5.33923E-04 1.90144E-01 1.79627E-13-2.01752E-13
 -1       843 1.16933E+01 5.79651E-01 2.27210E-02 2.42887E+00 1.14459E-13 3.93192E-14
 -1       844 1.31609E+01 9.33375E-01 5.81990E-02-2.38703E+00-2.17120E-13-5.65051E-14
 -1       845 2.41306E+01 4.43622E+00-5.24896E-02 6.41688E-01 2.65652E-13-1.93123E-13
 -1       846 2.02406E+01 1.36734E+00 1.16984E-04-2.65846E-01-1.34767E-13-1.99874E-13
 -1       847 1.99569E+01 2.09309E+00-4.66188E-04-2.47404E-01-6.53820E-14-2.90692E-13
 -1       848 1.97383E+01 9.44256E-01-7.82251E-05 5.08979E-01-1.13462E-13-1.51796E-13
 -1       849 1.94436E+01 9.85152E-01-2.91565E-05 6.43769E-01-6.95799E-14-1.26456E-13
 -1       850 1.90395E+01 1.09668E+00-1.33286E-04 7.45748E-01-4.98383E-15-1.50819E-13
 -1       851 1.84565E+01 1.26325E+00-7.50796E-05 8.18481E-01 2.75557E-14-1.17270E-13
 -1       852 1.76902E+01 1.43558E+00-1.89767E-04 8.59174E-01 5.99710E-14-8.18774E-14
 -1       853 1.66334E+01 1.57250E+00 9.17066E-04 8.88791E-01 4.92993E-14-1.17559E-13
 -1       854 1.51140E+01 1.60303E+00 3.27151E-03 9.33843E-01 8.69617E-14-1.64886E-13
 -1       855 2.11860E+01-1.12041E+00-8.34615E-05-9.14217E-01-9.90112E-14-6.07335E-15
 -1       856 2.07453E+01-7.06845E-01 6.92599E-05-9.91638E-01 7.78950E-15-5.81908E-14
 -1       857 1.61039E+01 1.69959E+00 4.71102E-03-9.65935E-01-2.81931E-13 1.09971E-13
 -1       858 1.72757E+01 1.56748E+00 3.90763E-04-8.56869E-01-2.04443E-13 1.33115E-13
 -1       859 1.80884E+01 1.38337E+00-2.56533E-04-7.81137E-01 6.00463E-14-6.62394E-14
 -1       860 1.86697E+01 1.17266E+00-1.60605E-04-7.01912E-01 1.57107E-13-1.36455E-13
 -1       861 1.90830E+01 9.67137E-01-4.27551E-05-6.15059E-01 9.15400E-14-2.22208E-13
 -1       862 1.93749E+01 7.81855E-01-4.92481E-06-5.24335E-01-9.12342E-14-1.18006E-13
 -1       863 1.95873E+01 6.15532E-01-2.30065E-05-4.31482E-01-5.28814E-14 4.20775E-13
 -1       864 1.97263E+01 4.84319E-01 3.94221E-06-3.49881E-01-5.26104E-15 4.30990E-13
 -1       865 1.98217E+01 3.77236E-01-1.75397E-06-2.77401E-01 1.85713E-14 4.64480E-13
 -1       866 1.98867E+01 2.91139E-01-1.30374E-06-2.15346E-01-2.89391E-13 3.99887E-13
 -1       867 1.99304E+01 2.22660E-01-8.15769E-07-1.63691E-01-4.19458E-14 7.16777E-14
 -1       868 1.99593E+01 1.68677E-01-4.55884E-07-1.21717E-01 2.76589E-13-1.91074E-13
 -1       869 1.99782E+01 1.26461E-01-2.48075E-07-8.83312E-02 1.63814E-13 2.56961E-13
 -1       870 1.99900E+01 9.36992E-02-2.77718E-07-6.22948E-02-3.62698E-13 4.88239E-13
 -1       871 1.99972E+01 6.84498E-02-6.04875E-07-4.23792E-02-3.31076E-13 2.34252E-13
 -1       872 2.00011E+01 4.91013E-02-1.01199E-07-2.74633E-02 8.20020E-14 2.96775E-13
 -1       873 2.00030E+01 3.43524E-02 3.75494E-06-1.66059E-02 7.32421E-14 1.58515E-13
 -1       874 2.00029E+01 2.56895E-02 4.20134E-06-9.95071E-03-1.69355E-13 2.24029E-13
 -1       875 2.20621E+01-3.20631E+00 1.78500E-02-3.03424E+00-2.52853E-13-1.58709E-13
 -1       876 2.04587E+01-3.56518E-01 4.01203E-05-9.67892E-01 3.23554E-14-5.66136E-14
 -1       877 2.02954E+01-7.83938E-02 4.74962E-06-8.84738E-01-1.05831E-14 8.91760E-15
 -1       878 2.17911E+01-1.53923E+00-3.60719E-04-6.74321E-01-1.09769E-13-1.84344E-14
 -1       879 2.25209E+01-1.82424E+00-1.13981E-03-2.09384E-01-1.02008E-13 2.09885E-14
 -1       880 2.32471E+01-1.73084E+00-2.05469E-03 5.03541E-01-1.06246E-13-3.11613E-14
 -1       881 2.37197E+01-9.71599E-01-5.21700E-03 1.29706E+00-1.91323E-14 1.58551E-13
 -1       882 2.37595E+01 5.79005E-01-6.45152E-03 1.82867E+00 1.46061E-13 1.04150E-13
 -1       883 2.33789E+01 2.42698E+00-1.89499E-02 1.57029E+00 1.27191E-13-1.39502E-14
 -1       884 2.36077E+01 1.63756E+00-1.21997E-02-1.86291E+00 1.96058E-14-2.82962E-13
 -1       885 2.37681E+01-1.80310E-01-8.45671E-03-1.70690E+00 2.77105E-14-1.33876E-13
 -1       886 2.34943E+01-1.35071E+00 3.60223E-04-9.95910E-01-1.56198E-14-1.87985E-13
 -1       887 2.28600E+01-1.77850E+00-1.57496E-03-2.19769E-01 6.99987E-14-2.89622E-14
 -1       888 2.21021E+01-1.63655E+00-1.15193E-03 3.53116E-01 1.21424E-13 2.12170E-13
 -1       889 2.14018E+01-1.26190E+00-3.87418E-04 6.92492E-01-9.57313E-14 2.45662E-13
 -1       890 2.08490E+01-8.36806E-01-6.55287E-05 8.31538E-01-1.72915E-13 3.04924E-13
 -1       891 2.04552E+01-4.62202E-01-5.00339E-06 8.43859E-01-1.74070E-13 3.74089E-13
 -1       892 2.01975E+01-1.75140E-01-1.73718E-05 7.85042E-01-1.12874E-13 3.37658E-13
 -1       893 2.00428E+01 2.24962E-02-1.27533E-06 6.92786E-01-2.12784E-13 1.82071E-13
 -1       894 1.99598E+01 1.44203E-01 7.32744E-06 5.89701E-01 1.60879E-14 4.77074E-14
 -1       895 1.99233E+01 2.07798E-01 8.08731E-06 4.88445E-01 3.04684E-14 9.50617E-14
 -1       896 1.99148E+01 2.30455E-01 6.78911E-06 3.95621E-01 2.11178E-13-7.05061E-14
 -1       897 1.99213E+01 2.26568E-01 5.05278E-06 3.14162E-01 1.63528E-13-1.00364E-13
 -1       898 1.99347E+01 2.07167E-01 3.58439E-06 2.44865E-01 2.83626E-13-5.02307E-14
 -1       899 1.99500E+01 1.80138E-01 2.45373E-06 1.87332E-01 8.86116E-14 8.78557E-14
 -1       900 1.99643E+01 1.50752E-01 1.62690E-06 1.40538E-01 6.97782E-16-1.02547E-13
 -1       901 1.99763E+01 1.22275E-01 1.06851E-06 1.03174E-01-7.51728E-14-9.24975E-14
 -1       902 1.99858E+01 9.65190E-02 7.89922E-07 7.38558E-02-2.18831E-13 4.35364E-14
 -1       903 1.99927E+01 7.42975E-02 1.00491E-06 5.12445E-02-1.86273E-13-4.04097E-14
 -1       904 1.99973E+01 5.57621E-02 1.91840E-06 3.41111E-02-4.91106E-14-1.11105E-13
 -1       905 2.00002E+01 4.06695E-02 6.60286E-06 2.14503E-02-4.48461E-14-6.89232E-14
 -1       906 2.00016E+01 2.85212E-02-1.43872E-05 1.21494E-02-1.15645E-13 4.03297E-14
 -1       907 1.81680E+01-1.80870E+00 1.58404E-02 4.23952E+00-3.81677E-13-2.28030E-13
 -1       908 1.24883E+01 1.47528E+00 1.88641E-02-3.46366E-01-2.92627E-13-3.77545E-14
 -1       909 1.99993E+01 3.15408E-02-3.72489E-06-8.55242E-03-2.21592E-13 4.40470E-13
 -1       910 2.50545E+01-1.23418E+00-2.64043E-02-1.27522E+00-1.90447E-14-4.94469E-13
 -1       911 1.39979E+01 1.82575E-01 4.02081E-02-3.32737E+00-3.89506E-14-3.54556E-13
 -1       912 2.00761E+01 1.16661E+00 5.38094E-06 1.25647E-01-7.96344E-14-2.14527E-13
 -1       913 1.18666E+01 1.40077E+00 6.98216E-02-7.67392E-01 1.26363E-13-3.29946E-13
 -1       914 2.12335E+01-3.10236E+00 5.32099E-03 3.58081E+00-5.63607E-13-3.00143E-13
 -1       915 1.99964E+01 3.55502E-02-3.40474E-06-5.53919E-03-2.47353E-13 4.55453E-13
 -1       916 1.98880E+01 2.21387E+00-6.10226E-04-1.49394E-01-3.78150E-14-3.06679E-13
 -1       917 2.02391E+01 7.93384E-01-6.93758E-05-2.32666E-01 9.73942E-14-1.80661E-13
 -1       918 2.02392E+01 1.13184E+00-1.24025E-04 2.13654E-02 1.45204E-13-1.99698E-13
 -1       919 2.57164E+01-1.42083E+00-2.43683E-02 1.11252E+00 9.76359E-14 1.43018E-13
 -1       920 2.35134E+01 3.47921E+00-4.61973E-02-1.19182E+00 1.26583E-13-2.08290E-13
 -1       921 2.02004E+01 1.42982E+00 7.41173E-04 1.75553E-01 1.48355E-13-2.12840E-13
 -1       922 1.99459E+01 9.96719E-01-1.45483E-04 3.38069E-01-1.05430E-13-1.86858E-13
 -1       923 1.47764E+01 1.58793E+00 2.24912E-02-1.46584E+00-2.80086E-13 2.70490E-14
 -1       924 1.80262E+01-1.89287E+00 1.91406E-02-4.38860E+00-1.27487E-13-1.61063E-13
 -1       925 1.42012E+01 5.96682E-01 1.95777E-02 2.81325E+00-3.11889E-13 1.12948E-14
 -1       926 2.02211E+01 1.44073E-01-4.65079E-06-7.65507E-01-1.02186E-14-2.90985E-14
 -1       927 2.43164E+01-2.33829E+00 5.88831E-03-1.74489E-01-1.66278E-13-3.53894E-13
 -1       928 2.31688E+01-3.25702E+00-2.20196E-03-1.95006E+00-2.62868E-13-7.22629E-14
 -1       929 2.28053E+01-3.04379E+00-4.47281E-03 1.98234E+00-4.18591E-13-2.85763E-13
 -1       930 1.99962E+01 3.48283E-02-1.65075E-06 5.71475E-03-3.18730E-13-1.41845E-13
 -1       931 1.99667E+01 1.76826E+00-1.65445E-06-4.21855E-02 2.59555E-14-2.99820E-13
 -1       932 1.63759E+01-4.38010E-02 1.25724E-02 3.10967E+00-2.84525E-13-1.22042E-13
 -1       933 1.99949E+01 3.72119E-02-3.89275E-06-1.46801E-03-7.63858E-14-1.99115E-13
 -1       934 1.42465E+01 1.35037E+00 1.48239E-02 1.38493E+00-1.65510E-13 1.05686E-14
 -1       935 1.99950E+01 3.68394E-02 4.89421E-06 2.27767E-03-1.91163E-13-1.22492E-13
 -1       936 2.00417E+01 1.64892E+00 3.90039E-04 8.40172E-03 6.25688E-14-2.45250E-13
 -1       937 2.01038E+01 1.45984E+00 2.73875E-04-8.86303E-02-6.87803E-14-2.46463E-13
 -1       938 2.02186E+01 5.44074E-01-4.54130E-05-4.43437E-01 6.15361E-14-1.18881E-13
 -1       939 2.00027E+01 1.66251E+00 1.47863E-04-9.51692E-02-5.20993E-14-2.50022E-13
 -1       940 1.63637E+01 1.58869E+00 3.77735E-03 1.17117E-01-2.49084E-13 4.97957E-14
 -1       941 2.00521E+01-1.91859E+00 8.64119E-03-3.13743E+00-5.83422E-14-1.68815E-13
 -1       942 1.91153E+01 1.07318E+00-1.39734E-04 3.31350E-01-4.59469E-14-1.11504E-13
 -1       943 1.85835E+01 1.17354E+00 5.87758E-05 2.84499E-01 3.54456E-14-1.59591E-13
 -1       944 1.79020E+01 1.29398E+00 7.16974E-05 1.59779E-01 7.04907E-14-1.66953E-13
 -1       945 1.69882E+01 1.40086E+00 1.04352E-03-6.43088E-02 2.94475E-14-1.76813E-13
 -1       946 1.57117E+01 1.44699E+00 4.76806E-03-4.18498E-01 3.82029E-15-1.84234E-13
 -1       947 2.20757E+01-2.06709E+00 4.16579E-03-1.23845E+00-1.35105E-13-1.65716E-13
 -1       948 2.52879E+01-1.14281E-01-1.70159E-02 1.79345E+00 1.70007E-13-2.61761E-14
 -1       949 1.45895E+01 1.13529E+00 1.10517E-02-1.60653E+00-8.16187E-16-2.10959E-13
 -1       950 1.94896E+01 1.03351E+00-1.02379E-04 3.11642E-01-7.42114E-14-1.22215E-13
 -1       951 1.73794E+01 1.44097E+00 2.42751E-04-8.49729E-02-1.51927E-13 5.49813E-14
 -1       952 1.81067E+01 1.27231E+00-2.94632E-04-2.15511E-01 3.81974E-14 1.14982E-13
 -1       953 1.86369E+01 1.08935E+00-1.23469E-04-2.79798E-01-4.45671E-14 5.90268E-14
 -1       954 1.90248E+01 9.10722E-01-4.23844E-05-2.97171E-01 7.33354E-14-1.01374E-13
 -1       955 1.93194E+01 7.39793E-01-5.51216E-05-2.83575E-01 1.48633E-13-1.11024E-13
 -1       956 1.95217E+01 5.97558E-01-1.24552E-05-2.53744E-01 8.18435E-14 1.40987E-14
 -1       957 1.96679E+01 4.76366E-01-1.52015E-05-2.16497E-01-4.45734E-14 1.08640E-13
 -1       958 1.97728E+01 3.75304E-01-1.19151E-05-1.77986E-01-1.58337E-13-8.38512E-14
 -1       959 1.98476E+01 2.92386E-01-9.10842E-06-1.41773E-01-3.00395E-13 5.66464E-14
 -1       960 1.99002E+01 2.25261E-01-6.75880E-06-1.09729E-01-5.03178E-14-1.40527E-13
 -1       961 1.99369E+01 1.71554E-01-4.89131E-06-8.25818E-02 5.48696E-13-8.70156E-14
 -1       962 1.99619E+01 1.29043E-01-3.57195E-06-6.03553E-02 1.44309E-13-7.32743E-15
 -1       963 1.99786E+01 9.57289E-02-2.61492E-06-4.26672E-02-2.98167E-13 3.06946E-13
 -1       964 1.99894E+01 6.98298E-02-2.37293E-06-2.89667E-02-2.26368E-13 3.94448E-13
 -1       965 1.99959E+01 4.98975E-02-2.51448E-06-1.87173E-02-8.77108E-15 1.41043E-13
 -1       966 1.99979E+01 4.01346E-02-1.51974E-06-1.29736E-02 2.82668E-14 2.15016E-13
 -1       967 2.02869E+01-4.43228E-01 2.14225E-04-1.22570E+00 1.09690E-14-1.18493E-13
 -1       968 1.99388E+01 1.80211E+00 1.48747E-05-7.84125E-02-1.04533E-14-3.19795E-13
 -1       969 2.12091E+01-1.46989E+00-5.75966E-04-1.40646E+00-5.16350E-14-1.57916E-13
 -1       970 2.01125E+01-9.51337E-02 3.61610E-05-1.05196E+00 1.54283E-14-1.21958E-13
 -1       971 2.31670E+01-2.47499E+00 4.23025E-04-7.07892E-01-7.84275E-14-7.75178E-14
 -1       972 2.25364E+01-2.24241E+00 2.07941E-03 9.30322E-01-1.56216E-13-1.27438E-13
 -1       973 2.15126E+01-1.68460E+00 1.08786E-03 1.25434E+00-2.23742E-14 2.16643E-13
 -1       974 2.07614E+01-1.09050E+00 7.58302E-04 1.29442E+00-8.43768E-14 1.35692E-13
 -1       975 2.02644E+01-5.84087E-01 3.26506E-04 1.19380E+00-3.06174E-13-6.03819E-16
 -1       976 1.99672E+01-2.06564E-01-3.67349E-05 1.03045E+00-1.81065E-13 4.16099E-14
 -1       977 1.98107E+01 4.82668E-02-2.07847E-05 8.55819E-01-1.70254E-13 2.88134E-13
 -1       978 1.97455E+01 2.03131E-01-1.25311E-06 6.93027E-01 4.77233E-14 1.82591E-13
 -1       979 1.97361E+01 2.83069E-01-1.29747E-06 5.50826E-01-3.95990E-14 1.12277E-13
 -1       980 1.97576E+01 3.10767E-01-3.00213E-06 4.31427E-01 1.60052E-13-3.07508E-14
 -1       981 1.97936E+01 3.04747E-01-4.34048E-06 3.33634E-01 1.17528E-13-1.08973E-13
 -1       982 1.98337E+01 2.78989E-01-4.60817E-06 2.54882E-01 2.49660E-13-1.48567E-13
 -1       983 1.98721E+01 2.43442E-01-4.28897E-06 1.92276E-01 9.21077E-15 5.32677E-14
 -1       984 1.99058E+01 2.04778E-01-3.73635E-06 1.43048E-01 1.21202E-13 1.61808E-13
 -1       985 1.99335E+01 1.67170E-01-3.10874E-06 1.04732E-01-2.71018E-14 1.59660E-13
 -1       986 1.99553E+01 1.32973E-01-2.36133E-06 7.52136E-02-9.96285E-14 3.68455E-13
 -1       987 1.99717E+01 1.03282E-01-2.02366E-06 5.27340E-02-8.41414E-14 2.38317E-13
 -1       988 1.99834E+01 7.83599E-02-1.82770E-06 3.58189E-02-5.97718E-14 1.85042E-13
 -1       989 1.99913E+01 5.79746E-02-1.32919E-05 2.32009E-02-6.83235E-14 2.69793E-13
 -1       990 1.99964E+01 4.16488E-02 1.05968E-05 1.39437E-02-6.96160E-14-7.41519E-15
 -1       991 2.00208E+01-1.91479E+00 7.72697E-04 3.10159E+00-3.36415E-13-3.28008E-13
 -1       992 2.01585E+01 1.15357E+00-1.90923E-04-1.14452E-01 1.19836E-13-1.56762E-13
 -1       993 1.99937E+01 4.55256E-02 1.72963E-06-8.56293E-03 1.35467E-13 6.09208E-13
 -1       994 1.99562E+01 1.75901E+00 2.25257E-04-9.21299E-02-3.53638E-14-2.93517E-13
 -1       995 2.02041E+01 3.40801E-01 3.54537E-05-6.18874E-01 1.18381E-14-7.36981E-14
 -1       996 1.97579E+01 1.07517E+00-2.97053E-04 2.40167E-01-5.57415E-14-1.49770E-13
 -1       997 2.44307E+01-2.37183E+00-1.41104E-02 2.60424E-01-1.22569E-13 1.15663E-14
 -1       998 1.99804E+01 1.35734E+00 4.03568E-05 4.05878E-02-3.55695E-14-2.38412E-13
 -1       999 1.66757E+01-3.42409E-01 7.25846E-03-3.27812E+00-8.84164E-14-2.84833E-13
 -1      1000 2.01164E+01 1.56359E+00 4.27400E-04 8.67380E-02 1.14375E-13-2.03517E-13
 -1      1001 1.98953E+01 1.18097E+00 2.98191E-06 1.50090E-01-6.88309E-14-2.06979E-13
 -1      1002 2.06334E+01-9.03415E-01 3.38692E-04-1.36395E+00-5.78577E-14-9.82650E-14
 -1      1003 2.00522E+01 1.68828E-01 7.63247E-05-8.71140E-01-2.79761E-14-1.02404E-13
 -1      1004 2.18275E+01-2.40776E+00 1.92528E-03-2.04991E+00-1.81547E-13-1.52177E-13
 -1      1005 1.82912E+01-5.53291E-01 4.45849E-03 2.75886E+00-3.40064E-13-3.16305E-13
 -1      1006 2.01432E+01 8.38911E-01 3.61364E-04-3.21776E-01 4.23229E-14-1.63063E-13
 -1      1007 1.99466E+01 1.45187E+00 1.34965E-04-9.86423E-02 2.27209E-14-3.04661E-13
 -1      1008 1.57349E+01 8.32425E-01 6.23102E-03 2.07856E+00-1.69651E-13-7.02966E-14
 -1      1009 1.99914E+01 4.80549E-02 1.80162E-05-2.56515E-03 4.54930E-14-3.30989E-13
 -1      1010 1.99906E+01 5.19238E-02-2.65941E-05 9.80034E-03-3.61939E-14-1.52600E-13
 -1      1011 2.00115E+01 1.36482E+00-2.87908E-04-1.27558E-01 3.58607E-14-2.28639E-13
 -1      1012 2.05819E+01-1.56141E+00-7.67861E-04-2.21804E+00-3.64392E-14-1.59395E-13
 -1      1013 1.93074E+01 1.02085E+00-1.59971E-04 1.15051E-02-4.91697E-14-2.34155E-13
 -1      1014 1.86144E+01-6.21583E-01 2.65352E-03-2.64131E+00 1.53332E-14-1.82099E-13
 -1      1015 1.83628E+01 1.05764E+00 1.58381E-04-3.22040E-01 1.31810E-14-2.07558E-13
 -1      1016 1.77033E+01 1.06623E+00 1.50199E-03-6.68722E-01 2.65516E-14-2.55799E-13
 -1      1017 1.68452E+01 1.00126E+00 1.57697E-03-1.20233E+00 7.22426E-14-2.34526E-13
 -1      1018 1.70952E+01 1.21936E+00 5.86921E-04 7.99739E-01-1.48283E-13 1.29527E-13
 -1      1019 1.78173E+01 1.16710E+00 8.62250E-05 4.32985E-01 6.57584E-14 2.33650E-13
 -1      1020 1.83618E+01 1.06838E+00-1.02458E-04 1.85959E-01-1.27819E-13 1.18876E-13
 -1      1021 1.87794E+01 9.41320E-01-4.91629E-05 3.55880E-02-7.85526E-14 4.40682E-15
 -1      1022 1.91115E+01 7.99384E-01-8.88368E-05-5.18284E-02 4.93092E-14-1.31018E-13
 -1      1023 1.93502E+01 6.68725E-01-4.17457E-05-9.11423E-02 2.95171E-14-3.37112E-13
 -1      1024 1.95304E+01 5.49136E-01-4.16056E-05-1.03672E-01-1.99431E-14-3.54048E-13
 -1      1025 1.96653E+01 4.43740E-01-3.50182E-05-1.00623E-01 9.28637E-15-9.39535E-14
 -1      1026 1.97654E+01 3.53373E-01-2.88119E-05-8.94456E-02-1.92235E-13-3.88954E-14
 -1      1027 1.98389E+01 2.77552E-01-2.31354E-05-7.49282E-02-1.39868E-13 2.22579E-13
 -1      1028 1.98920E+01 2.15070E-01-1.82352E-05-5.99522E-02 1.96550E-13 3.45405E-13
 -1      1029 1.99300E+01 1.64375E-01-1.38171E-05-4.61061E-02 2.76712E-13-9.38093E-14
 -1      1030 1.99565E+01 1.23823E-01-1.19773E-05-3.41544E-02 9.01938E-14-1.68124E-13
 -1      1031 1.99746E+01 9.17466E-02-1.17673E-05-2.42615E-02-5.58211E-14 3.04730E-13
 -1      1032 1.99863E+01 6.67607E-02-7.37058E-06-1.65735E-02-1.91561E-13 5.13396E-13
 -1      1033 1.99905E+01 5.55141E-02-4.70227E-06-1.21119E-02 9.19403E-14 5.45474E-13
 -1      1034 1.97738E+01-5.47158E-02-4.96868E-04-1.24674E+00 3.66161E-14-1.80051E-13
 -1      1035 1.98641E+01-6.42621E-01-2.55933E-04 1.65990E+00-2.09890E-13-4.29732E-14
 -1      1036 2.04122E+01-1.29882E+00-3.62472E-04 1.95737E+00 8.10480E-14 1.12901E-13
 -1      1037 1.95804E+01-1.69038E-01-7.84491E-05 1.33021E+00-2.29830E-13-5.89023E-14
 -1      1038 1.94704E+01 1.27992E-01 8.78772E-05 1.03718E+00-2.28291E-13-4.27743E-14
 -1      1039 1.94557E+01 3.03298E-01 4.82786E-05 7.93725E-01-2.34091E-14-1.38250E-13
 -1      1040 1.94974E+01 3.88296E-01 3.06904E-05 5.98698E-01 7.65898E-14-2.42912E-13
 -1      1041 1.95654E+01 4.12152E-01 7.61984E-06 4.47132E-01 3.84500E-14-8.92110E-15
 -1      1042 1.96417E+01 3.97555E-01-6.65265E-06 3.31405E-01 2.21607E-13 4.03705E-14
 -1      1043 1.97157E+01 3.60991E-01-1.32283E-05 2.43978E-01 1.93742E-13-1.06224E-13
 -1      1044 1.97820E+01 3.13948E-01-1.52871E-05 1.78389E-01-4.90125E-14-9.55829E-14
 -1      1045 1.98381E+01 2.64046E-01-1.50470E-05 1.29413E-01-1.24114E-14-8.96850E-14
 -1      1046 1.98837E+01 2.16020E-01-1.36961E-05 9.29722E-02 3.03024E-14 2.46114E-13
 -1      1047 1.99194E+01 1.72525E-01-1.19037E-05 6.59478E-02-2.03137E-13 2.78630E-13
 -1      1048 1.99464E+01 1.34779E-01-1.16112E-05 4.59702E-02 1.65922E-14 2.20759E-13
 -1      1049 1.99662E+01 1.03006E-01-1.68987E-05 3.13774E-02 3.46602E-14 1.00499E-13
 -1      1050 1.99801E+01 7.70076E-02 1.87533E-06 2.07442E-02-5.03902E-14-2.03429E-14
 -1      1051 1.99886E+01 5.50052E-02 2.30033E-05 3.83916E-03-1.58151E-13 2.05257E-14
 -1      1052 2.00115E+01-8.29942E-01-3.82350E-03-1.87525E+00-4.44509E-14-1.16040E-13
 -1      1053 1.99393E+01 1.44752E+00 9.00021E-04-2.22826E-02-5.52798E-14-2.62885E-13
 -1      1054 1.65116E+01 5.41311E-01 2.49773E-03-2.15347E+00 1.97951E-14-2.94417E-13
 -1      1055 1.96082E+01 1.07009E+00-4.99061E-05 5.27285E-02-4.56917E-14-2.22345E-13
 -1      1056 1.88954E+01 1.02849E+00-3.32837E-05-1.04701E-01-2.66621E-14-2.02516E-13
 -1      1057 1.98272E+01-3.76987E-01-8.51829E-04-1.53713E+00 1.53191E-14-1.84123E-13
 -1      1058 2.10863E+01-1.91799E+00 7.58386E-04 2.10664E+00-2.39035E-13-7.55460E-14
 -1      1059 1.97660E+01 2.32966E-01-6.67633E-05-9.74321E-01 1.48622E-14-1.16771E-13
 -1      1060 2.00584E+01 3.85005E-01-3.78231E-04-6.91143E-01 1.13714E-14-7.45765E-14
 -1      1061 1.99232E+01 1.15125E+00 3.87122E-04-2.01193E-01-1.36897E-14-2.68369E-13
 -1      1062 1.99871E+01 5.89232E-02-9.76029E-06-4.49291E-03-5.61444E-14 2.12531E-13
 -1      1063 2.00996E+01 5.96515E-01 2.20877E-04-5.09641E-01 1.46348E-14-1.18212E-13
 -1      1064 1.74517E+01 2.47315E-01 2.78502E-03 2.24488E+00-2.95584E-13-3.08057E-13
 -1      1065 1.99755E+01 8.25139E-02-1.55320E-06 1.00630E-02 5.93446E-14-4.32011E-13
 -1      1066 1.98590E+01 1.24939E+00-6.89215E-04 3.66290E-02-1.37669E-14-2.48167E-13
 -1      1067 1.95040E+01-1.04021E+00 1.74908E-03 2.47126E+00-2.11343E-13-4.49806E-14
 -1      1068 1.99272E+01 1.47147E+00 8.09829E-05-6.57767E-02-1.57110E-14-2.55331E-13
 -1      1069 1.98676E+01 1.21530E+00-1.96764E-04-1.28385E-01-1.57027E-14-2.47734E-13
 -1      1070 1.97535E+01 1.14453E+00 1.41314E-03 5.58681E-02-5.66845E-15-2.54092E-13
 -1      1071 2.00273E+01 1.01767E+00 4.59490E-04-2.76403E-01 4.55071E-14-1.19907E-13
 -1      1072 1.80034E+01 5.32273E-01-1.38871E-03-1.48447E+00-1.58207E-14-2.60016E-13
 -1      1073 1.79266E+01 8.07288E-01-2.60727E-03 1.12818E+00 5.27399E-15-2.47604E-13
 -1      1074 1.83497E+01 8.65702E-01-1.50139E-04 7.12860E-01-1.13325E-13-3.52118E-13
 -1      1075 1.87052E+01 8.41763E-01-3.33463E-04 4.30620E-01-2.49218E-13-2.61976E-13
 -1      1076 1.90115E+01 7.69567E-01-2.47885E-04 2.37676E-01-4.01042E-16-2.90092E-13
 -1      1077 1.92472E+01 6.78058E-01-1.21932E-04 1.22490E-01-6.74008E-14-3.88623E-13
 -1      1078 1.94354E+01 5.80012E-01-7.00592E-05 5.25079E-02 8.78562E-14-1.50698E-13
 -1      1079 1.95832E+01 4.84426E-01-3.66805E-05 1.25106E-02 1.85486E-13-1.16704E-13
 -1      1080 1.96977E+01 3.96457E-01-1.65905E-05-8.31209E-03 7.23116E-14 2.31643E-14
 -1      1081 1.97851E+01 3.18658E-01-5.09407E-06-1.74073E-02-9.60474E-14-1.59078E-14
 -1      1082 1.98507E+01 2.51884E-01 1.00756E-06-1.97356E-02 3.96640E-14-1.97320E-13
 -1      1083 1.98991E+01 1.95937E-01 3.97825E-06-1.84852E-02 1.10987E-13-2.65222E-13
 -1      1084 1.99341E+01 1.49971E-01-4.84334E-06-1.55938E-02 2.53728E-13-3.93109E-15
 -1      1085 1.99588E+01 1.12875E-01-3.16678E-05-1.23907E-02 2.44615E-13 2.94915E-14
 -1      1086 1.99756E+01 8.35777E-02-7.69657E-06-9.36976E-03 2.81256E-14 2.38629E-13
 -1      1087 1.99822E+01 7.05096E-02 6.97869E-05-6.41162E-03 3.22163E-14 3.78940E-13
 -1      1088 1.91317E+01-3.61180E-01-5.69940E-03 1.91287E+00-4.07444E-14 2.32352E-13
 -1      1089 1.89666E+01 2.87687E-01-9.33321E-04 1.21761E+00-2.70101E-13-8.46083E-14
 -1      1090 1.90211E+01 3.35865E-02-2.14277E-03 1.53718E+00-6.17533E-14 2.39500E-14
 -1      1091 1.90619E+01 4.64320E-01 4.37845E-04 8.72881E-01-7.36181E-14-1.62227E-13
 -1      1092 1.91934E+01 5.35519E-01 2.98589E-04 6.17559E-01-3.16605E-14-1.41433E-14
 -1      1093 1.93330E+01 5.41294E-01 1.44737E-04 4.32191E-01-5.01166E-14 2.74200E-14
 -1      1094 1.94655E+01 5.08137E-01 7.46202E-05 2.99884E-01 1.49622E-13 1.18751E-15
 -1      1095 1.95832E+01 4.54050E-01 4.21554E-05 2.06605E-01 2.44480E-13-5.02013E-14
 -1      1096 1.96832E+01 3.91164E-01 2.44019E-05 1.41522E-01 1.77531E-13 3.40991E-14
 -1      1097 1.97652E+01 3.27331E-01 1.47380E-05 9.64457E-02-1.20683E-13-1.06660E-13
 -1      1098 1.98305E+01 2.67289E-01 9.38823E-06 6.53756E-02-1.39972E-13 1.79800E-14
 -1      1099 1.98811E+01 2.13591E-01 6.26861E-06 4.40176E-02 1.81673E-14 8.23025E-14
 -1      1100 1.99193E+01 1.67306E-01 5.54509E-06 2.93561E-02 1.11889E-13-7.84864E-14
 -1      1101 1.99474E+01 1.28675E-01 3.11028E-05 1.93493E-02 1.62526E-13-3.13625E-13
 -1      1102 1.99633E+01 1.03845E-01 3.28675E-05 1.42112E-02 1.71859E-13-4.07119E-13
 -1      1103 1.84663E+01 7.24513E-01 1.02807E-04-9.65872E-01-8.48551E-15-2.17430E-13
 -1      1104 1.81195E+01 6.49245E-02-2.82262E-03-2.06786E+00-1.69829E-15-2.64805E-13
 -1      1105 1.95368E+01 9.69340E-01-2.05682E-04-2.02335E-01-5.50499E-14-2.76576E-13
 -1      1106 1.91882E+01-2.39965E-01 3.05164E-03-1.84800E+00-6.22093E-14-4.79018E-14
 -1      1107 1.98219E+01 4.54211E-01-4.18467E-04-7.43907E-01-3.49839E-14-1.40047E-13
 -1      1108 1.92542E+01 7.97806E-02-3.29406E-05-1.42843E+00 5.59848E-15-1.35823E-13
 -1      1109 1.99492E+01 7.71156E-01-1.83426E-04-4.44590E-01 4.90631E-15-1.25067E-13
 -1      1110 1.92429E+01 8.86964E-01-5.27713E-05-3.56104E-01-2.22221E-14-2.93314E-13
 -1      1111 1.93535E+01 3.64465E-01 2.02741E-04-1.04663E+00 2.80789E-14-2.04630E-13
 -1      1112 1.96790E+01 1.04876E+00-6.27039E-05-1.32329E-01-3.80961E-14-2.75542E-13
 -1      1113 1.84317E+01-1.22265E-01 6.70943E-03 2.15946E+00-1.14156E-13-5.26614E-14
 -1      1114 1.97753E+01 1.00276E+00 2.00803E-04-2.53445E-01-5.52810E-14-2.70699E-13
 -1      1115 1.88856E+01 8.20277E-01-1.19211E-04-6.00681E-01 3.37405E-14-2.72191E-13
 -1      1116 1.95673E+01 7.79481E-01 1.30525E-03-4.82679E-01-4.16496E-14-1.66801E-13
 -1      1117 1.95098E+01 5.60091E-01-1.36219E-04-7.53805E-01-2.00356E-14-1.86554E-13
 -1      1118 1.96720E+01 8.85592E-01-1.36790E-04-3.57308E-01-2.28822E-14-2.11913E-13
 -1      1119 2.78364E+01 9.04167E+00 2.30233E+00-6.63029E+00-3.55826E-14 1.45212E-12
 -1      1120 2.05646E+01 6.23409E+00 2.15674E-01-3.82621E+00-2.15661E-14 3.18703E-13
 -1      1121 1.94868E+01 5.87026E+00 8.06991E-02-2.79216E+00-1.54599E-14-2.03410E-13
 -1      1122 1.90800E+01 5.74290E+00 6.29932E-02-2.12997E+00-1.03841E-14-4.59195E-13
 -1      1123 1.88774E+01 5.68042E+00 5.73539E-02-1.59920E+00-7.85136E-15-5.83309E-13
 -1      1124 1.87606E+01 5.64408E+00 5.29620E-02-1.14660E+00-3.98986E-15-6.50837E-13
 -1      1125 1.86894E+01 5.62167E+00 4.94556E-02-7.41747E-01-2.41474E-15-6.84671E-13
 -1      1126 1.86497E+01 5.60909E+00 4.71999E-02-3.62325E-01-7.18176E-16-6.84439E-13
 -1      1127 1.86372E+01 5.60513E+00 4.65725E-02 3.95605E-03 8.89263E-16-6.82911E-13
 -1      1128 1.86501E+01 5.60933E+00 4.76146E-02 3.71766E-01 3.48202E-15-6.79099E-13
 -1      1129 1.86896E+01 5.62194E+00 5.01934E-02 7.55525E-01 5.26662E-15-6.50169E-13
 -1      1130 1.87602E+01 5.64430E+00 5.41107E-02 1.16676E+00 7.06379E-15-5.91969E-13
 -1      1131 1.88760E+01 5.68034E+00 5.84315E-02 1.62697E+00 9.48547E-15-5.04174E-13
 -1      1132 1.90778E+01 5.74227E+00 6.30421E-02 2.16704E+00 1.26218E-14-3.54574E-13
 -1      1133 1.94775E+01 5.86559E+00 7.44220E-02 2.83689E+00 1.78468E-14-7.52193E-14
 -1      1134 2.04705E+01 6.18892E+00 1.59169E-01 3.80467E+00 1.97065E-14 4.62935E-13
 -1      1135 2.51305E+01 7.96447E+00 1.41759E+00 5.78664E+00 3.94129E-14 1.57127E-12
 -1      1136 2.86301E+01 3.57401E+00 1.23917E+00-4.17138E+00-1.52378E-13 2.17693E-12
 -1      1137 2.01961E+01-1.78852E-01-6.16358E-01-1.03559E-01-4.73649E-14 1.82315E-12
 -1      1138 1.88957E+01-9.76871E-02-2.35887E-01 6.30950E-02-2.06363E-14 1.32530E-12
 -1      1139 1.86496E+01-5.09212E-02-6.20853E-02 4.04695E-02-1.22810E-14 9.88029E-13
 -1      1140 1.87028E+01-2.92723E-02-2.03921E-02 2.69481E-02-5.71071E-15 7.74030E-13
 -1      1141 1.89313E+01-1.98276E-02-1.30037E-02 1.98409E-02-9.22634E-15 6.26249E-13
 -1      1142 1.92828E+01-1.60232E-02-1.30157E-02 1.60357E-02-1.25861E-14 5.25722E-13
 -1      1143 1.97427E+01-1.55941E-02-1.56181E-02 1.45214E-02-9.23588E-15 4.14193E-13
 -1      1144 2.03208E+01-1.75474E-02-2.04743E-02 1.51253E-02-1.25067E-14 2.87369E-13
 -1      1145 2.10469E+01-2.12706E-02-2.77218E-02 1.82476E-02 8.64109E-16 1.78493E-13
 -1      1146 2.19682E+01-2.59912E-02-3.69654E-02 2.47488E-02-8.70267E-15 1.31839E-16
 -1      1147 2.31446E+01-3.01375E-02-4.62319E-02 3.57346E-02 1.45474E-14-1.33005E-13
 -1      1148 2.46351E+01-3.13917E-02-4.98978E-02 5.20583E-02 1.19960E-14-3.72272E-14
 -1      1149 2.65084E+01-1.82206E-02-3.28346E-02 7.25942E-02 6.73897E-15-1.44038E-13
 -1      1150 2.86144E+01 1.40630E-02 3.00409E-02 8.61499E-02 3.88079E-15-9.60065E-14
 -1      1151 3.04891E+01 7.82444E-02 1.56024E-01 6.73872E-02-7.96325E-15-2.04212E-14
 -1      1152 3.13382E+01 1.66099E-01 3.21263E-01-2.70211E-02-5.44703E-15 1.62516E-13
 -1      1153 2.99732E+01 2.19616E-01 3.83739E-01-2.21963E-01-1.84679E-14 2.00950E-13
 -1      1154 2.57533E+01 1.16968E-01 1.20080E-01-4.30697E-01 1.18109E-14 2.38920E-13
 -1      1155 2.02018E+01-1.66303E-01-4.49064E-01-4.08749E-01-5.84949E-15 2.51854E-13
 -1      1156 1.71026E+01-3.77282E-01-8.32793E-01-4.92050E-02-2.05044E-15-1.77539E-13
 -1      1157 1.84960E+01-3.19915E-01-6.66291E-01 3.28109E-01-1.44815E-14-6.75737E-13
 -1      1158 2.33717E+01 3.63209E-03-1.14007E-01 4.70191E-01-4.96964E-14-9.66116E-13
 -1      1159 2.86541E+01 2.02830E-01 3.18643E-01 3.27491E-01 1.83881E-14-9.76108E-13
 -1      1160 3.12803E+01 1.96940E-01 3.69732E-01 8.96935E-02 3.21895E-14-6.10442E-13
 -1      1161 3.11740E+01 1.10170E-01 2.18662E-01-4.24303E-02-2.72941E-14-5.77894E-13
 -1      1162 2.96114E+01 3.29994E-02 6.81490E-02-8.43860E-02-1.85785E-14-6.06029E-13
 -1      1163 2.76163E+01-1.11864E-02-1.74088E-02-7.85832E-02-1.90241E-14-4.88456E-13
 -1      1164 2.57479E+01-2.94080E-02-4.88568E-02-5.85382E-02 3.08564E-14-4.11907E-13
 -1      1165 2.42095E+01-3.28366E-02-5.19344E-02-3.92571E-02-3.11426E-14-4.44957E-13
 -1      1166 2.30228E+01-2.96528E-02-4.42501E-02-2.48274E-02-8.66919E-14-8.22675E-13
 -1      1167 2.21392E+01-2.43781E-02-3.43972E-02-1.51179E-02-8.85793E-16-9.95596E-13
 -1      1168 2.14943E+01-1.90875E-02-2.56141E-02-8.92369E-03 5.68751E-14-4.98188E-13
 -1      1169 2.10294E+01-1.45481E-02-1.86908E-02-5.08188E-03-7.29126E-15 5.37166E-14
 -1      1170 2.06972E+01-1.09228E-02-1.35189E-02-2.74139E-03-2.44050E-14-1.58771E-13
 -1      1171 2.04617E+01-8.23678E-03-9.78079E-03-1.34404E-03-1.20650E-15 2.11795E-13
 -1      1172 2.02931E+01-5.66551E-03-6.82288E-03-7.33273E-04-9.68279E-14-1.87783E-13
 -1      1173 2.01768E+01-4.34888E-03-4.93240E-03 1.72307E-05 3.05487E-14-3.44079E-13
 -1      1174 2.01000E+01-3.18323E-03-3.52953E-03 2.78363E-04-1.27922E-14-5.14279E-13
 -1      1175 2.00490E+01-2.31449E-03-2.50931E-03 4.10034E-04-4.07045E-14-7.86453E-13
 -1      1176 2.00164E+01-1.66940E-03-1.76860E-03 4.63348E-04 5.39418E-15-8.74711E-13
 -1      1177 1.99968E+01-1.19132E-03-1.23200E-03 4.70806E-04 7.25484E-14-4.00992E-13
 -1      1178 1.99862E+01-8.37763E-04-8.44364E-04 4.53284E-04 3.43460E-14 4.87078E-14
 -1      1179 1.99819E+01-5.76210E-04-5.64783E-04 4.24323E-04-3.19190E-14-5.33986E-15
 -1      1180 1.99818E+01-3.81052E-04-3.61349E-04 3.92596E-04 1.96643E-14 1.39560E-13
 -1      1181 1.99845E+01-2.31155E-04-2.05867E-04 3.63022E-04-2.72262E-14 1.65227E-13
 -1      1182 1.99886E+01-1.07147E-04-6.72535E-05 3.35758E-04-1.27198E-14 3.91614E-13
 -1      1183 1.99934E+01 8.39860E-06 9.12578E-05 3.00013E-04-4.62096E-14 6.20269E-13
 -1      1184 1.99977E+01 1.16461E-04 2.63461E-04 1.98654E-04-5.14065E-14-2.03786E-13
 -1      1185 1.99998E+01 1.77218E-04 2.13960E-04-1.25080E-04 1.68183E-13-7.54186E-13
 -1      1186 2.76413E+01 5.21347E-01 3.56489E-01 1.95177E+00-2.30857E-14 2.47807E-12
 -1      1187 2.00748E+01-6.75079E-02-5.72930E-01 1.27073E-01 1.75381E-14 1.98735E-12
 -1      1188 1.89806E+01-4.31523E-02-1.92920E-01 1.89763E-02 1.08984E-14 1.53795E-12
 -1      1189 1.86829E+01-2.43478E-02-5.19530E-02 1.60478E-03 1.49182E-14 1.26830E-12
 -1      1190 1.87046E+01-1.58979E-02-1.65868E-02-3.72854E-03 7.09372E-15 1.11507E-12
 -1      1191 1.88925E+01-1.03582E-02-8.60181E-03-5.15732E-03 6.51497E-16 9.51586E-13
 -1      1192 1.91739E+01-6.82821E-03-6.00443E-03-5.85417E-03 1.40361E-15 8.12496E-13
 -1      1193 1.95090E+01-4.07976E-03-3.92841E-03-6.55282E-03 1.26689E-16 6.68889E-13
 -1      1194 1.98707E+01-1.39294E-03-1.35963E-03-7.55454E-03 3.22100E-15 4.46138E-13
 -1      1195 2.02350E+01 1.74437E-03 2.24048E-03-8.94860E-03 2.68534E-15 4.03923E-13
 -1      1196 2.05735E+01 5.65534E-03 7.36319E-03-1.06296E-02-1.16950E-14 3.51563E-13
 -1      1197 2.08494E+01 1.03694E-02 1.42642E-02-1.22068E-02-6.49296E-15 2.62836E-13
 -1      1198 2.10151E+01 1.54359E-02 2.25836E-02-1.29132E-02-3.64574E-15 1.81231E-13
 -1      1199 2.10148E+01 1.97406E-02 3.09068E-02-1.16097E-02-2.13646E-14 2.19896E-13
 -1      1200 2.07943E+01 2.15008E-02 3.64917E-02-7.02789E-03 9.34973E-15 1.08039E-13
 -1      1201 2.03200E+01 1.86894E-02 3.56013E-02 1.62034E-03 7.74012E-15-4.06931E-14
 -1      1202 1.96048E+01 1.00460E-02 2.48947E-02 1.37430E-02-1.83725E-14 8.98587E-15
 -1      1203 1.87310E+01-3.62195E-03 3.76567E-03 2.66533E-02 6.21736E-16 6.34770E-14
 -1      1204 1.78548E+01-1.87773E-02-2.35954E-02 3.58582E-02 7.03604E-15-1.09170E-13
 -1      1205 1.71761E+01-3.01041E-02-4.84269E-02 3.68912E-02-1.09257E-14-1.86486E-13
 -1      1206 1.68744E+01-3.32368E-02-6.11704E-02 2.79272E-02-4.50013E-14 5.26411E-14
 -1      1207 1.70371E+01-2.73209E-02-5.68235E-02 1.13901E-02 2.51934E-14-1.08292E-13
 -1      1208 1.76221E+01-1.54235E-02-3.79453E-02-7.07521E-03-7.62606E-15-3.50706E-13
 -1      1209 1.84774E+01-2.44280E-03-1.28318E-02-2.15997E-02 9.61254E-16-5.01238E-13
 -1      1210 1.94046E+01 7.60735E-03 9.47017E-03-2.88502E-02 5.52965E-15-4.29712E-13
 -1      1211 2.02302E+01 1.30136E-02 2.34315E-02-2.88293E-02-2.89048E-15-4.47743E-13
 -1      1212 2.08480E+01 1.41380E-02 2.81594E-02-2.38102E-02-1.34031E-14-4.58002E-13
 -1      1213 2.12252E+01 1.23986E-02 2.59343E-02-1.66524E-02-3.82233E-14-4.28508E-13
 -1      1214 2.13842E+01 9.31935E-03 2.00419E-02-9.61164E-03-8.56758E-15-4.15694E-13
 -1      1215 2.13763E+01 6.03617E-03 1.32409E-02-3.93387E-03-2.76037E-14-3.95858E-13
 -1      1216 2.12588E+01 3.19380E-03 7.20977E-03-2.34942E-06 3.08902E-14-4.85304E-13
 -1      1217 2.10827E+01 1.04524E-03 2.64677E-03 2.32739E-03-7.60758E-16-6.45219E-13
 -1      1218 2.08864E+01-4.00534E-04-3.85529E-04 3.42404E-03 2.07988E-14-6.62401E-13
 -1      1219 2.06953E+01-1.25377E-03-2.13569E-03 3.68732E-03 3.02498E-14-5.34619E-13
 -1      1220 2.05241E+01-1.66228E-03-2.94515E-03 3.45496E-03-3.88927E-14-3.80200E-13
 -1      1221 2.03796E+01-1.76731E-03-3.13362E-03 2.97490E-03-8.59751E-15-3.54261E-13
 -1      1222 2.02633E+01-1.68470E-03-2.95461E-03 2.41071E-03 2.56786E-14-6.22483E-13
 -1      1223 2.01732E+01-1.50059E-03-2.58914E-03 1.85955E-03 2.09167E-14-4.02857E-13
 -1      1224 2.01062E+01-1.27414E-03-2.15598E-03 1.37161E-03-1.35333E-15-7.08599E-13
 -1      1225 2.00582E+01-1.04290E-03-1.72659E-03 9.66598E-04 6.41059E-15-8.39638E-13
 -1      1226 2.00255E+01-8.28394E-04-1.33923E-03 6.46031E-04-5.62907E-15-9.66252E-13
 -1      1227 2.00045E+01-6.40999E-04-1.01035E-03 4.01650E-04-9.99537E-14-3.62223E-13
 -1      1228 1.99922E+01-4.83654E-04-7.42833E-04 2.20797E-04 3.54634E-14-3.70501E-13
 -1      1229 1.99864E+01-3.54532E-04-5.31560E-04 8.95591E-05 3.68379E-15-9.01641E-13
 -1      1230 1.99850E+01-2.48583E-04-3.66367E-04-5.73961E-06 1.57519E-14-1.03420E-12
 -1      1231 1.99866E+01-1.57633E-04-2.31705E-04-7.81079E-05 9.54560E-14-1.27967E-12
 -1      1232 1.99900E+01-7.01389E-05-1.04065E-04-1.38827E-04-1.12555E-13-6.75078E-13
 -1      1233 1.99941E+01 3.10008E-05 4.95615E-05-1.94423E-04-5.21003E-14 1.86825E-13
 -1      1234 1.99980E+01 1.47395E-04 2.32405E-04-2.20864E-04 1.62379E-13-2.41583E-13
 -1      1235 1.99998E+01 1.78199E-05 1.27284E-04-1.29924E-05 4.26654E-14-4.00194E-13
 -1      1236 1.99998E+01-6.16808E-05 1.07519E-04-3.32445E-05-3.87114E-13-9.98588E-14
 -1      1237 1.99999E+01-1.87515E-03 1.77809E-04-1.66603E-04-4.36056E-13-4.13204E-14
 -1      1238 1.99998E+01-5.28666E-03 6.04274E-06-2.13109E-04-5.24152E-13 4.01623E-14
 -1      1239 1.99997E+01-8.69091E-03-1.03162E-04-1.69911E-04-1.16540E-12-2.44901E-14
 -1      1240 1.99997E+01-1.13755E-02-1.27812E-04-1.14116E-04-6.53405E-13 1.04625E-13
 -1      1241 1.99997E+01-1.31969E-02-1.07155E-04-6.79548E-05-1.04071E-12-9.51929E-14
 -1      1242 1.99998E+01-1.43295E-02-7.23457E-05-3.93474E-05-9.81912E-13 4.15064E-15
 -1      1243 1.99998E+01-1.50038E-02-4.67417E-05-2.15252E-05-5.59176E-13-1.68330E-13
 -1      1244 1.99998E+01-1.53739E-02-4.19965E-05-9.93363E-06-4.42060E-13-2.04814E-14
 -1      1245 1.99998E+01-1.54705E-02-6.15766E-05 3.89158E-06 4.41891E-14 1.23380E-13
 -1      1246 1.99997E+01-1.51638E-02-9.92146E-05 2.82964E-05 6.47318E-13-1.58097E-13
 -1      1247 1.99997E+01-1.42169E-02-1.39518E-04 6.84539E-05 6.41585E-14-2.92131E-14
 -1      1248 1.99997E+01-1.23619E-02-1.58259E-04 1.23768E-04-5.27805E-13 2.05938E-13
 -1      1249 1.99997E+01-9.43851E-03-1.20336E-04 1.87629E-04-1.70375E-13 1.17953E-14
 -1      1250 1.99998E+01-5.68678E-03 6.01066E-06 2.22145E-04-3.15146E-13 2.77530E-13
 -1      1251 1.99998E+01-1.93089E-03 1.96551E-04 1.10135E-04 1.20010E-12-2.71774E-14
 -1      1252 1.99999E+01 3.46176E-05 1.80039E-04-1.63203E-04 1.13264E-12-2.96237E-13
 -1      1253-1.10288E+00-2.43811E+01-3.68824E+00-2.09369E+00 5.33462E-13 1.34191E-13
 -1      1254-1.64162E+00-1.52513E+01-2.98144E+00-3.86878E+00 1.12665E-12 4.72289E-13
 -1      1255 1.30832E-01-2.71013E+00-1.81147E+00-3.14675E-01 1.68909E-12 1.08691E-12
 -1      1256 7.75417E+00 7.61715E+00-3.71763E-01 7.62880E+00 2.30749E-12 2.10387E-12
 -1      1257 2.25744E+01 1.18046E+01 1.18138E+00 1.56985E+01 1.86495E-12 2.29106E-12
 -1      1258 4.15835E+01 9.71593E+00 2.57066E+00 1.87693E+01 9.36806E-13 1.79212E-12
 -1      1259 5.88028E+01 4.79773E+00 3.61284E+00 1.40488E+01 2.93321E-13 7.51732E-13
 -1      1260 6.74324E+01 1.71166E+00 4.07640E+00 2.61471E+00 9.34183E-14-8.79852E-13
 -1      1261 6.37512E+01 3.12801E+00 3.93654E+00-1.02838E+01 4.57141E-13-2.11142E-12
 -1      1262 4.77056E+01 8.31471E+00 3.00298E+00-1.77606E+01 1.29136E-12-2.94453E-12
 -1      1263 2.73951E+01 1.17272E+01 1.66460E+00-1.68718E+01 2.29439E-12-3.24230E-12
 -1      1264 1.04331E+01 8.99722E+00-1.71316E-02-9.46382E+00 2.91456E-12-2.77045E-12
 -1      1265 1.12059E+00-2.93632E-01-1.56384E+00-1.06328E+00 2.75713E-12-1.85252E-12
 -1      1266-1.62529E+00-1.29987E+01-2.81707E+00 3.59060E+00 2.05591E-12-8.23897E-13
 -1      1267-1.21177E+00-2.35032E+01-3.63505E+00 2.75281E+00 6.14730E-13-2.84578E-13
 -1      1268-1.01157E+00-2.65273E+01-3.91204E+00-1.57778E+00-8.05647E-13-1.08295E-13
 -1      1269-1.99792E+00-2.09195E+01-3.63340E+00-5.01298E+00-1.71174E-12-5.82284E-13
 -1      1270-1.50198E+00-8.41538E+00-2.68234E+00-2.89226E+00-2.46647E-12-1.40898E-12
 -1      1271 4.80795E+00 3.64734E+00-1.33712E+00 4.59679E+00-2.50866E-12-2.07900E-12
 -1      1272 1.96176E+01 1.01555E+01 5.36648E-01 1.37131E+01-2.12896E-12-2.63811E-12
 -1      1273 4.14973E+01 9.72882E+00 2.56172E+00 1.87970E+01-1.35914E-12-2.69695E-12
 -1      1274 6.30171E+01 5.10543E+00 4.29064E+00 1.49387E+01-5.14533E-13-1.73306E-12
 -1      1275 7.45855E+01 1.91167E+00 5.28058E+00 2.77410E+00-9.34600E-14-1.14186E-13
 -1      1276 6.83928E+01 3.98451E+00 4.81262E+00-1.09438E+01-2.41515E-13 1.03317E-12
 -1      1277 4.81398E+01 8.56090E+00 3.19546E+00-1.83960E+01-8.41327E-13 1.88094E-12
 -1      1278 2.38725E+01 1.05337E+01 9.72289E-01-1.52283E+01-1.86828E-12 2.54219E-12
 -1      1279 6.77458E+00 5.34181E+00-9.76372E-01-6.10677E+00-2.17937E-12 1.97287E-12
 -1      1280-1.08396E+00-5.96805E+00-2.50851E+00 2.15630E+00-1.56808E-12 9.81104E-13
 -1      1281-2.24812E+00-1.84238E+01-3.48314E+00 5.09443E+00-6.96332E-13 2.87881E-13
 -1      1282-1.12647E+00-2.59670E+01-3.90067E+00 2.46985E+00-2.10110E-13 1.37886E-13
 -1      1283 2.22183E+01 1.83735E+00-7.20388E-01-2.74731E+00-5.62328E-14 1.22091E-12
 -1      1284 2.04006E+01 4.68510E+00-4.60853E-02-3.21919E+00-1.70988E-13 8.09075E-14
 -1      1285 2.08859E+01 4.79618E+00-1.09348E-01-4.07805E+00-2.17437E-13 3.49110E-13
 -1      1286 1.95920E+01 4.99869E+00-1.85978E-02-2.55044E+00-1.74256E-13-3.09190E-13
 -1      1287 1.98860E+01 5.09388E+00 3.44543E-03-2.94730E+00-1.96537E-13-1.37071E-13
 -1      1288 2.05807E+01 3.94618E+00-2.43389E-02-2.97516E+00-3.02265E-13 7.48845E-14
 -1      1289 1.92345E+01 5.09835E+00-3.75416E-03-1.96183E+00-1.47663E-13-5.09190E-13
 -1      1290 1.93911E+01 5.15567E+00 1.27566E-02-2.25533E+00-1.67748E-13-4.20625E-13
 -1      1291 1.98154E+01 4.37630E+00-2.32039E-02-2.37831E+00-2.76393E-13-2.44436E-13
 -1      1292 1.90352E+01 5.15044E+00 2.20924E-03-1.46290E+00-1.12863E-13-6.13506E-13
 -1      1293 1.91266E+01 5.18401E+00 1.37645E-02-1.70780E+00-1.30210E-13-5.65995E-13
 -1      1294 1.94346E+01 4.58205E+00-1.90760E-02-1.82112E+00-2.26971E-13-4.21118E-13
 -1      1295 1.89133E+01 5.18383E+00 4.95203E-03-1.03367E+00-7.25895E-14-6.64094E-13
 -1      1296 1.89701E+01 5.20442E+00 1.29958E-02-1.24481E+00-8.97910E-14-6.34697E-13
 -1      1297 1.92181E+01 4.70283E+00-1.52429E-02-1.34512E+00-1.68580E-13-5.10723E-13
 -1      1298 1.88374E+01 5.20546E+00 6.41776E-03-6.38374E-01-4.82912E-14-6.88834E-13
 -1      1299 1.88719E+01 5.21773E+00 1.14702E-02-8.34014E-01-5.37513E-14-6.81339E-13
 -1      1300 1.90832E+01 4.77850E+00-1.31681E-02-9.27009E-01-1.05570E-13-5.57495E-13
 -1      1301 1.87985E+01 5.21816E+00 7.61282E-03-2.67384E-01-1.34815E-14-6.86222E-13
 -1      1302 1.88145E+01 5.22378E+00 9.90990E-03-4.52578E-01-2.68882E-14-6.84806E-13
 -1      1303 1.90022E+01 4.82338E+00-1.20909E-02-5.41789E-01-6.27235E-14-5.67154E-13
 -1      1304 1.87920E+01 5.22314E+00 8.87218E-03 9.45266E-02 2.36044E-14-6.89988E-13
 -1      1305 1.87914E+01 5.22286E+00 8.55760E-03-8.78438E-02 1.21613E-14-6.88886E-13
 -1      1306 1.89647E+01 4.84301E+00-1.16781E-02-1.76844E-01 2.92230E-15-5.77361E-13
 -1      1307 1.88169E+01 5.22112E+00 1.03095E-02 4.61639E-01 4.90771E-14-6.77108E-13
 -1      1308 1.87999E+01 5.21503E+00 7.44690E-03 2.74890E-01 4.00424E-14-6.86383E-13
 -1      1309 1.89663E+01 4.83998E+00-1.17534E-02 1.82694E-01 4.93369E-14-5.75599E-13
 -1      1310 1.88749E+01 5.21224E+00 1.18423E-02 8.48215E-01 7.66878E-14-6.48493E-13
 -1      1311 1.88401E+01 5.19988E+00 6.42694E-03 6.49714E-01 6.78520E-14-6.68129E-13
 -1      1312 1.90064E+01 4.81474E+00-1.23041E-02 5.50889E-01 9.65903E-14-5.65353E-13
 -1      1313 1.89713E+01 5.19719E+00 1.32942E-02 1.26222E+00 1.10224E-13-5.84834E-13
 -1      1314 1.89150E+01 5.17652E+00 5.05331E-03 1.04767E+00 9.73397E-14-6.22308E-13
 -1      1315 1.90879E+01 4.76585E+00-1.33650E-02 9.38446E-01 1.40643E-13-5.33809E-13
 -1      1316 1.91286E+01 5.17522E+00 1.40149E-02 1.73694E+00 1.57083E-13-4.86999E-13
 -1      1317 1.90368E+01 5.14125E+00 2.27490E-03 1.48780E+00 1.35328E-13-5.41955E-13
 -1      1318 1.92223E+01 4.68696E+00-1.55368E-02 1.36412E+00 2.00415E-13-4.54619E-13
 -1      1319 1.93950E+01 5.14551E+00 1.23486E-02 2.29431E+00 1.89695E-13-3.26433E-13
 -1      1320 1.92371E+01 5.08674E+00-4.27786E-03 1.99565E+00 1.73285E-13-4.25486E-13
 -1      1321 1.94425E+01 4.56224E+00-1.92075E-02 1.85138E+00 2.67055E-13-3.54716E-13
 -1      1322 1.99044E+01 5.10144E+00 8.77210E-03 2.99080E+00 2.15286E-13-1.29549E-14
 -1      1323 1.95965E+01 4.98824E+00-1.92392E-02 2.59793E+00 1.90986E-13-1.99923E-13
 -1      1324 1.98284E+01 4.35191E+00-2.37666E-02 2.42313E+00 3.06156E-13-1.61517E-13
 -1      1325 2.11178E+01 4.89276E+00 1.02347E-02 3.97729E+00 1.86323E-13 5.61690E-13
 -1      1326 2.03718E+01 4.72811E+00-4.58229E-02 3.33149E+00 1.81855E-13 2.10984E-13
 -1      1327 2.06122E+01 3.90882E+00-2.14061E-02 3.08376E+00 3.20886E-13 1.90653E-13
 -1      1328 2.71043E+01 3.18389E+00 9.14042E-01 4.52719E+00 8.90676E-14 1.64985E-12
 -1      1329 2.20093E+01 3.51150E+00-1.79425E-01 3.82170E+00 9.16767E-14 8.93785E-13
 -1      1330 2.21286E+01 2.54988E+00-3.11486E-02 3.37781E+00 3.04775E-13 7.12208E-13
 -1      1331 2.14016E+01 3.55997E-01-7.60237E-01 1.14913E+00 1.67165E-13 1.58501E-12
 -1      1332 2.19803E+01 1.29165E-01-3.99061E-01-1.24391E+00-1.67033E-13 1.27268E-12
 -1      1333 2.07029E+01 3.03992E-01-1.62570E-01-7.70523E-01-1.53114E-13 1.07604E-12
 -1      1334 2.01367E+01 1.53823E-01-7.24031E-02-3.66668E-01-1.21788E-13 9.86823E-13
 -1      1335 1.97106E+01 9.25770E-02-1.38213E-02-2.94633E-01-1.23457E-13 8.08544E-13
 -1      1336 2.10294E+01 3.66514E-01-1.03951E-01-1.20402E+00-2.73684E-13 5.93543E-13
 -1      1337 1.93935E+01 6.72123E-02 3.62688E-03-9.52329E-02-9.71688E-14 7.43426E-13
 -1      1338 1.92891E+01 4.51090E-02 1.39820E-02-7.57977E-02-7.77156E-14 6.12635E-13
 -1      1339 2.00497E+01 1.36214E-01-3.59271E-02-4.28643E-01-2.05766E-13 4.61379E-13
 -1      1340 1.91798E+01 3.66440E-02 1.36075E-02 2.38921E-02-5.33571E-14 5.46393E-13
 -1      1341 1.92251E+01 2.56778E-02 1.18359E-02 3.61400E-02-6.54572E-14 4.58120E-13
 -1      1342 1.96614E+01 6.23764E-02-9.83988E-03-7.66697E-02-1.48841E-13 3.35251E-13
 -1      1343 1.92366E+01 2.38414E-02 9.11070E-03 9.57975E-02-4.00977E-14 4.36384E-13
 -1      1344 1.93678E+01 1.82445E-02 7.38398E-03 1.04710E-01-3.51182E-14 3.76808E-13
 -1      1345 1.95680E+01 3.58046E-02-5.50792E-03 1.13684E-01-9.23176E-14 2.23727E-13
 -1      1346 1.94590E+01 1.90602E-02 4.97870E-03 1.48923E-01-3.60549E-14 3.64759E-13
 -1      1347 1.96531E+01 1.62957E-02 4.78382E-03 1.56893E-01-4.67053E-14 3.16882E-13
 -1      1348 1.96657E+01 2.69337E-02-5.01862E-03 2.39169E-01-7.13431E-14 2.11510E-13
 -1      1349 1.98062E+01 1.87744E-02 2.61000E-03 1.97708E-01-3.96180E-14 2.97638E-13
 -1      1350 2.00596E+01 1.77879E-02 3.48846E-03 2.06417E-01-4.24292E-14 2.38927E-13
 -1      1351 1.99006E+01 2.64178E-02-5.12790E-03 3.41835E-01-7.75387E-14 1.65880E-13
 -1      1352 2.02702E+01 2.17473E-02 1.12089E-03 2.51673E-01-3.52539E-14 2.40754E-13
 -1      1353 2.05911E+01 2.19253E-02 2.65772E-03 2.62545E-01-3.48463E-14 1.94053E-13
 -1      1354 2.02517E+01 3.14096E-02-5.65533E-03 4.45322E-01-8.01382E-14 1.16933E-13
 -1      1355 2.08633E+01 2.74437E-02-2.83578E-04 3.18291E-01-3.93357E-14 1.58287E-13
 -1      1356 2.12693E+01 2.81619E-02 1.70559E-03 3.32650E-01-5.55615E-14 1.05298E-13
 -1      1357 2.07184E+01 4.09186E-02-6.75777E-03 5.66218E-01-7.16484E-14 1.08143E-13
 -1      1358 2.16132E+01 3.52718E-02-2.16785E-03 4.03416E-01-7.35662E-14 1.19148E-13
 -1      1359 2.21287E+01 3.54683E-02 1.62262E-04 4.22355E-01-4.57551E-14 2.00708E-14
 -1      1360 2.13139E+01 5.40833E-02-8.48999E-03 7.17231E-01-8.63459E-14 1.12973E-13
 -1      1361 2.25567E+01 4.36956E-02-4.92766E-03 5.09560E-01 7.61457E-15-4.62894E-14
 -1      1362 2.32077E+01 4.10583E-02-2.41058E-03 5.33421E-01 7.63278E-15-6.36609E-14
 -1      1363 2.20598E+01 6.86095E-02-1.07458E-02 9.05731E-01-7.16805E-14 5.80775E-14
 -1      1364 2.37297E+01 4.98161E-02-8.14310E-03 6.30672E-01 3.36970E-16-9.46743E-14
 -1      1365 2.45324E+01 3.82539E-02-5.50698E-03 6.57605E-01 3.94476E-15-1.07921E-13
 -1      1366 2.29786E+01 7.76905E-02-1.30659E-02 1.12683E+00-2.72022E-14-5.39352E-14
 -1      1367 2.51784E+01 4.18392E-02-1.06555E-02 7.44059E-01 1.99261E-14-7.00551E-14
 -1      1368 2.61512E+01 1.50626E-02-6.04859E-03 7.67138E-01-2.92474E-15-8.00748E-14
 -1      1369 2.41085E+01 6.77888E-02-1.39756E-02 1.35257E+00-5.28744E-15-8.86097E-14
 -1      1370 2.68206E+01 1.41138E-03-7.00191E-03 7.79359E-01 4.55603E-14-2.98303E-14
 -1      1371 2.77475E+01-4.57796E-02 1.54980E-03 7.74716E-01 3.25551E-14-5.37070E-15
 -1      1372 2.53991E+01 3.86117E-03-8.62778E-03 1.48342E+00 2.62078E-14 3.23595E-14
 -1      1373 2.83851E+01-9.26418E-02 1.19845E-02 6.17679E-01 9.22006E-14 7.01314E-14
 -1      1374 2.90207E+01-1.61890E-01 2.35012E-02 5.52277E-01 6.40443E-14 1.56425E-13
 -1      1375 2.67052E+01-1.48007E-01 7.64978E-03 1.33648E+00 1.06568E-13 1.35402E-13
 -1      1376 2.94620E+01-2.45301E-01 4.99353E-02 1.12853E-01 1.77705E-14 2.55360E-13
 -1      1377 2.93501E+01-3.04004E-01 5.29083E-02-5.03139E-02 2.15834E-14 2.39912E-13
 -1      1378 2.78305E+01-4.04168E-01 3.81921E-02 6.62119E-01 9.48581E-14 3.12255E-13
 -1      1379 2.93693E+01-3.81723E-01 8.19077E-02-7.71070E-01 7.72958E-14 3.36134E-13
 -1      1380 2.81014E+01-3.42468E-01 4.86574E-02-1.00996E+00 9.03791E-15 3.76588E-13
 -1      1381 2.84014E+01-6.51647E-01 6.92172E-02-7.03672E-01 9.25302E-14 4.18280E-13
 -1      1382 2.75244E+01-2.96971E-01 4.00662E-02-1.66759E+00-4.22141E-14 3.37508E-13
 -1      1383 2.52797E+01-8.09048E-02-4.75000E-02-1.81146E+00-4.91725E-14 3.13749E-13
 -1      1384 2.79901E+01-5.70391E-01 5.16363E-02-2.41388E+00-4.30892E-14 5.09856E-13
 -1      1385 2.43088E+01 1.50770E-01-1.08590E-01-1.72532E+00-1.12951E-13 2.27096E-13
 -1      1386 2.23107E+01 4.37415E-01-1.96451E-01-1.52952E+00-1.61968E-13 9.28702E-14
 -1      1387 2.65335E+01 9.75605E-02-6.63790E-02-3.22015E+00-1.35128E-13 2.50605E-13
 -1      1388 2.17654E+01 5.96817E-01-2.46040E-01-5.42387E-01-2.14107E-13-1.98869E-14
 -1      1389 2.14274E+01 6.79477E-01-2.52472E-01-1.64025E-01-2.37893E-13-2.67845E-13
 -1      1390 2.49964E+01 9.77456E-01-2.07273E-01-1.92810E+00-3.31291E-13-5.27772E-14
 -1      1391 2.16388E+01 5.87187E-01-2.44737E-01 1.03686E+00-2.41057E-13-4.26020E-13
 -1      1392 2.29806E+01 4.06288E-01-1.79415E-01 1.32182E+00-2.07945E-13-6.61249E-13
 -1      1393 2.46511E+01 1.16325E+00-2.40102E-01 7.53026E-01-4.54636E-13-2.41224E-13
 -1      1394 2.39193E+01 1.28015E-01-1.16474E-01 1.88233E+00-1.08538E-13-7.67719E-13
 -1      1395 2.62916E+01-1.44395E-01-1.31957E-02 1.86624E+00-9.63292E-14-8.05217E-13
 -1      1396 2.58047E+01 5.29813E-01-1.27908E-01 2.93793E+00-2.53700E-13-5.21964E-13
 -1      1397 2.71622E+01-2.72393E-01 2.54447E-02 1.41468E+00-3.63737E-14-8.35970E-13
 -1      1398 2.89944E+01-3.96516E-01 7.80990E-02 1.17021E+00 6.55569E-14-7.76976E-13
 -1      1399 2.75569E+01-3.51001E-01 1.43650E-02 2.97706E+00-1.12993E-13-5.58900E-13
 -1      1400 2.91942E+01-3.41385E-01 5.82807E-02 4.04320E-01 1.38802E-13-6.71269E-13
 -1      1401 2.97378E+01-3.07179E-01 6.60880E-02 2.04435E-01 1.00489E-13-5.33920E-13
 -1      1402 2.84754E+01-6.78464E-01 7.38242E-02 1.39752E+00 1.94039E-13-6.22662E-13
 -1      1403 2.94489E+01-2.16582E-01 3.57181E-02-3.55133E-01 7.89646E-15-4.57206E-13
 -1      1404 2.90608E+01-1.44401E-01 2.51255E-02-4.54215E-01 3.72272E-15-5.22932E-13
 -1      1405 2.82657E+01-5.09522E-01 5.31385E-02-1.85567E-01 1.36540E-13-4.63646E-13
 -1      1406 2.84951E+01-8.19621E-02 8.15713E-03-7.04452E-01-1.39654E-14-4.20365E-13
 -1      1407 2.76617E+01-2.52901E-02-2.22801E-03-7.26340E-01-5.26029E-14-4.60396E-13
 -1      1408 2.73369E+01-2.33148E-01 1.75785E-02-1.11638E+00 2.54848E-14-2.79872E-13
 -1      1409 2.70145E+01 7.42066E-04-4.70122E-03-7.59979E-01-4.82561E-14-4.58883E-13
 -1      1410 2.60977E+01 3.25275E-02-1.07975E-02-7.44348E-01-1.43659E-14-4.39218E-13
 -1      1411 2.61086E+01-3.69520E-02-4.55852E-03-1.42347E+00 1.27359E-14-2.11203E-13
 -1      1412 2.54847E+01 3.63599E-02-6.34728E-03-6.73922E-01 4.39423E-14-4.27360E-13
 -1      1413 2.46656E+01 5.04253E-02-9.91042E-03-6.46607E-01-1.93743E-14-4.14644E-13
 -1      1414 2.48667E+01 5.54295E-02-1.31492E-02-1.36283E+00 8.55262E-15-2.12165E-13
 -1      1415 2.41395E+01 4.48818E-02-3.95704E-03-5.44396E-01-1.26534E-13-3.58054E-13
 -1      1416 2.34769E+01 4.92860E-02-6.51677E-03-5.17349E-01-1.63182E-13-5.39142E-13
 -1      1417 2.37582E+01 8.24579E-02-1.42358E-02-1.15023E+00-7.50936E-14-2.72721E-13
 -1      1418 2.30510E+01 4.13578E-02-1.36258E-03-4.18250E-01-8.31596E-14-4.12240E-13
 -1      1419 2.25429E+01 4.13361E-02-3.51577E-03-3.95609E-01-6.26782E-14-5.66210E-13
 -1      1420 2.28370E+01 7.90861E-02-1.23904E-02-9.08167E-01-7.57502E-14-1.14851E-13
 -1      1421 2.22107E+01 3.39745E-02 3.03343E-04-3.12300E-01 1.04335E-14-5.64999E-13
 -1      1422 2.18327E+01 3.22974E-02-1.55117E-03-2.94696E-01 4.37970E-14-6.39778E-13
 -1      1423 2.21050E+01 6.53556E-02-9.90233E-03-6.90357E-01-7.92248E-15-1.21454E-13
 -1      1424 2.15796E+01 2.63915E-02 1.08416E-03-2.29247E-01 2.75244E-13-4.30104E-13
 -1      1425 2.13035E+01 2.43393E-02-4.49994E-04-2.16045E-01 2.27530E-13-7.21558E-14
 -1      1426 2.15396E+01 5.04060E-02-7.62860E-03-5.13078E-01 2.64718E-13-6.91085E-14
 -1      1427 2.11138E+01 1.99121E-02 1.30661E-03-1.66408E-01 2.40801E-15-3.29025E-14
 -1      1428 2.09146E+01 1.79980E-02 9.73279E-05-1.56683E-01-7.44261E-15-2.75847E-14
 -1      1429 2.11113E+01 3.75411E-02-5.78218E-03-3.75910E-01 1.74772E-13-3.46557E-14
 -1      1430 2.07741E+01 1.47935E-02 1.24782E-03-1.19740E-01 3.93479E-15 2.75793E-14
 -1      1431 2.06315E+01 1.31607E-02 3.21623E-04-1.12635E-01-1.31423E-14 4.61677E-14
 -1      1432 2.07913E+01 2.74609E-02-4.35094E-03-2.72610E-01 7.31446E-15 3.28799E-14
 -1      1433 2.05286E+01 1.09951E-02 1.10226E-03-8.54282E-02 7.17299E-14 1.51777E-13
 -1      1434 2.04272E+01 9.50192E-03 3.23218E-04-8.02549E-02-4.01588E-16 2.52124E-13
 -1      1435 2.05549E+01 1.98477E-02-3.27982E-03-1.95969E-01 8.28291E-14 3.04153E-13
 -1      1436 2.03492E+01 7.81765E-03 8.37131E-04-5.95417E-02-3.61475E-13 1.55528E-13
 -1      1437 2.02756E+01 6.75730E-03 3.66127E-04-5.55884E-02-2.40466E-13-2.36055E-13
 -1      1438 2.03787E+01 1.45853E-02-2.27159E-03-1.38630E-01-2.35203E-13 2.43171E-13
 -1      1439 2.02231E+01 5.79837E-03 7.07630E-04-4.12668E-02-9.06115E-14-2.58543E-13
 -1      1440 2.01749E+01 4.94513E-03 3.51076E-04-3.86257E-02-2.21603E-14-3.27048E-13
 -1      1441 2.02517E+01 1.00939E-02-1.80398E-03-9.64887E-02-2.52348E-13-5.33793E-14
 -1      1442 2.01377E+01 4.17961E-03 5.30908E-04-2.82368E-02-5.80596E-15-3.87087E-13
 -1      1443 2.01050E+01 3.55682E-03 2.99655E-04-2.63200E-02-1.50835E-13-5.10585E-13
 -1      1444 2.01638E+01 7.28107E-03-1.32312E-03-6.68125E-02-5.86456E-14-2.27795E-13
 -1      1445 2.00791E+01 3.02469E-03 4.04613E-04-1.88137E-02-1.12221E-13-4.24833E-13
 -1      1446 2.00576E+01 2.53923E-03 2.49048E-04-1.74419E-02-5.63389E-14-5.81070E-13
 -1      1447 2.01020E+01 5.19369E-03-9.73370E-04-4.52931E-02-1.37068E-13-1.72345E-13
 -1      1448 2.00401E+01 2.17383E-03 3.05341E-04-1.20560E-02-1.15610E-14-4.37181E-13
 -1      1449 2.00265E+01 1.79553E-03 2.02965E-04-1.10826E-02 1.33519E-13-3.39308E-13
 -1      1450 2.00594E+01 3.67901E-03-7.10926E-04-2.97683E-02-5.49959E-14-4.14685E-14
 -1      1451 2.00151E+01 1.54783E-03 2.27598E-04-7.25388E-03 1.82310E-13-4.31668E-13
 -1      1452 2.00071E+01 1.25295E-03 1.62560E-04-6.57118E-03 1.40162E-13-1.77695E-13
 -1      1453 2.00310E+01 2.58097E-03-5.14082E-04-1.86573E-02 1.83808E-13 6.06620E-14
 -1      1454 2.00000E+01 1.08834E-03 1.66889E-04-3.88390E-03 1.86065E-14-2.73922E-13
 -1      1455 1.99959E+01 8.57942E-04 1.27747E-04-3.41267E-03-8.41369E-14-2.50879E-13
 -1      1456 2.00127E+01 1.78646E-03-3.66991E-04-1.07903E-02 8.60885E-14-3.32688E-13
 -1      1457 1.99920E+01 7.51499E-04 1.19334E-04-1.56082E-03-5.32859E-14-1.42744E-13
 -1      1458 1.99906E+01 5.70066E-04 9.78175E-05-1.24316E-03-3.27796E-14-1.57066E-13
 -1      1459 2.00018E+01 1.21262E-03-2.57461E-04-5.30294E-03-9.71559E-15-4.83037E-13
 -1      1460 1.99887E+01 5.03333E-04 8.17600E-05-4.82039E-06 1.04716E-13-9.55545E-15
 -1      1461 1.99891E+01 3.57569E-04 7.20788E-05 2.00622E-04 3.74115E-14 5.11484E-14
 -1      1462 1.99960E+01 7.96951E-04-1.75917E-04-1.56189E-03 1.35693E-13-3.00101E-13
 -1      1463 1.99887E+01 3.15898E-04 5.22207E-05 9.79853E-04-5.21740E-14 8.60031E-14
 -1      1464 1.99902E+01 1.93331E-04 5.11294E-05 1.10060E-03-6.01179E-14-5.55933E-14
 -1      1465 1.99938E+01 4.89455E-04-1.14413E-04 8.85401E-04 1.25761E-14 1.65738E-14
 -1      1466 1.99907E+01 1.62743E-04 3.18188E-05 1.51507E-03 1.81435E-14 9.14725E-14
 -1      1467 1.99927E+01 5.04805E-05 3.94134E-05 1.56476E-03-1.41886E-14 1.40479E-13
 -1      1468 1.99938E+01 2.44177E-04-6.52665E-05 2.34048E-03 1.20241E-13 5.18878E-14
 -1      1469 1.99937E+01 1.45026E-05 2.74639E-05 1.64747E-03-6.22994E-14 1.61530E-13
 -1      1470 1.99958E+01-1.01731E-04 4.34411E-05 1.62072E-03-1.50247E-13 5.89197E-14
 -1      1471 1.99952E+01 1.02937E-05-1.95490E-05 2.95945E-03-8.66513E-14 3.37017E-15
 -1      1472 1.99968E+01-1.62766E-04 5.33985E-05 1.34422E-03-3.20974E-13 4.77972E-14
 -1      1473 1.99983E+01-3.10041E-04 4.33305E-05 1.17807E-03-2.62247E-13-3.90528E-13
 -1      1474 1.99971E+01-2.89021E-04 2.73723E-05 2.76542E-03-3.61167E-13-2.42859E-14
 -1      1475 1.99990E+01-3.81015E-04 8.79277E-05 7.34473E-04-1.46580E-13-5.35010E-13
 -1      1476 1.99995E+01-3.94411E-04 1.49312E-05 4.64610E-04 7.92727E-14-3.00317E-13
 -1      1477 1.99996E+01-8.78401E-04 1.08398E-04 7.12178E-04 7.22501E-13 6.31497E-14
 -1      1478 1.99986E+01-5.97990E-04 7.59969E-05 1.88651E-03-2.45333E-13 5.78005E-14
 -1      1479 2.03018E+01 7.53551E-02-1.50065E-01 4.55244E-01 1.39160E-13 1.26224E-12
 -1      1480 2.15277E+01 2.15839E-01-2.28563E-01 6.90673E-01 1.28841E-13 1.48632E-12
 -1      1481 2.17463E+01 8.73701E-01-8.61548E-02 2.00562E+00 2.48607E-13 9.83033E-13
 -1      1482 1.94445E+01 3.47467E-02-2.02116E-02 1.57101E-01 1.04076E-13 1.01255E-12
 -1      1483 1.98278E+01 1.14773E-01-6.09599E-02 2.11071E-01 8.95291E-14 1.16158E-12
 -1      1484 2.03830E+01 1.84927E-01-5.57028E-02 7.33705E-01 2.01832E-13 7.85796E-13
 -1      1485 1.91443E+01 1.78975E-02 5.99721E-03 2.04535E-02 6.49723E-14 8.46236E-13
 -1      1486 1.92417E+01 5.32450E-02 2.12660E-03 4.91119E-02 6.78424E-14 9.50399E-13
 -1      1487 1.97037E+01 6.82361E-02-1.58821E-02 2.38801E-01 1.48909E-13 6.51893E-13
 -1      1488 1.91295E+01 1.03333E-02 6.78944E-03-4.78134E-02 6.29744E-14 7.41709E-13
 -1      1489 1.90953E+01 2.82524E-02 1.16679E-02-3.07501E-02 4.62829E-14 8.06986E-13
 -1      1490 1.94491E+01 2.40679E-02-7.78202E-03 7.59760E-03 9.19664E-14 5.05020E-13
 -1      1491 1.92709E+01 5.81367E-03 4.28147E-03-8.66579E-02 4.84476E-14 6.13065E-13
 -1      1492 1.91661E+01 1.70313E-02 8.55491E-03-7.58268E-02 4.56692E-14 6.86380E-13
 -1      1493 1.94285E+01 1.06429E-02-5.88172E-03-1.11540E-01 9.66059E-14 4.19241E-13
 -1      1494 1.95028E+01 3.06925E-03 2.70134E-03-1.09107E-01 4.16492E-14 5.00221E-13
 -1      1495 1.93582E+01 1.09276E-02 5.27199E-03-1.01850E-01 3.75129E-14 5.59438E-13
 -1      1496 1.95456E+01 4.79186E-03-4.60476E-03-1.78121E-01 9.01724E-14 3.30385E-13
 -1      1497 1.97858E+01 9.78110E-04 1.95987E-03-1.20926E-01 4.78546E-14 3.74740E-13
 -1      1498 1.96196E+01 6.84414E-03 3.32344E-03-1.16172E-01 5.32641E-14 4.56205E-13
 -1      1499 1.97423E+01 1.21665E-03-3.49329E-03-2.15697E-01 9.40697E-14 2.56253E-13
 -1      1500 2.00916E+01-1.12567E-03 1.74062E-03-1.23689E-01 3.12843E-14 2.63558E-13
 -1      1501 1.99173E+01 3.24042E-03 2.21697E-03-1.21195E-01 3.90231E-14 3.26890E-13
 -1      1502 1.99834E+01-2.08065E-03-2.38829E-03-2.32728E-01 7.01663E-14 1.87387E-13
 -1      1503 2.03932E+01-3.69050E-03 1.94319E-03-1.16471E-01 3.94904E-15 2.45442E-13
 -1      1504 2.02245E+01-8.15653E-04 1.58139E-03-1.16618E-01 4.97231E-15 2.62458E-13
 -1      1505 2.02414E+01-6.14630E-03-1.15530E-03-2.30662E-01 2.85702E-14 1.49004E-13
 -1      1506 2.06603E+01-6.98930E-03 2.59236E-03-9.66515E-02 6.64985E-15 2.54404E-13
 -1      1507 2.05135E+01-5.98625E-03 1.26099E-03-1.00316E-01 1.30380E-14 2.51368E-13
 -1      1508 2.04898E+01-1.16607E-02 3.98557E-04-2.06654E-01 1.32162E-14 1.28292E-13
 -1      1509 2.08553E+01-1.10216E-02 3.70314E-03-6.08136E-02 2.58773E-14 1.70097E-13
 -1      1510 2.07512E+01-1.25935E-02 1.21547E-03-6.91840E-02 2.51750E-14 2.14282E-13
 -1      1511 2.06987E+01-1.88726E-02 2.44914E-03-1.55333E-01 5.89554E-14 1.32746E-13
 -1      1512 2.09339E+01-1.53316E-02 5.14593E-03-6.25396E-03 8.72392E-15 9.47816E-14
 -1      1513 2.08975E+01-2.03661E-02 1.41862E-03-2.04349E-02 2.16255E-14 1.32586E-13
 -1      1514 2.08338E+01-2.72857E-02 5.04657E-03-7.10947E-02 4.46722E-14 1.20462E-13
 -1      1515 2.08502E+01-1.88165E-02 6.50926E-03 6.66596E-02 1.24067E-14 1.03112E-13
 -1      1516 2.09075E+01-2.80928E-02 1.76952E-03 4.63339E-02-2.87183E-14 8.91156E-14
 -1      1517 2.08570E+01-3.52506E-02 7.97484E-03 4.83227E-02 3.55618E-17 1.27326E-14
 -1      1518 2.05680E+01-1.96953E-02 7.02174E-03 1.51517E-01 2.94383E-15 6.37268E-14
 -1      1519 2.07393E+01-3.33927E-02 2.01555E-03 1.26433E-01 4.06159E-14 1.23733E-13
 -1      1520 2.07334E+01-3.97291E-02 1.06099E-02 1.96917E-01 1.95104E-14 4.04256E-14
 -1      1521 2.00792E+01-1.59073E-02 5.67942E-03 2.33469E-01 1.37685E-14 4.86972E-14
 -1      1522 2.03681E+01-3.29842E-02 1.73604E-03 2.07613E-01 2.49310E-14 7.01939E-14
 -1      1523 2.04425E+01-3.67055E-02 1.18812E-02 3.55376E-01 1.63055E-14 1.50401E-13
 -1      1524 1.94231E+01-6.14622E-03 1.72430E-03 2.89725E-01-6.29243E-14 9.42753E-14
 -1      1525 1.98055E+01-2.38640E-02 4.82165E-04 2.69741E-01-6.96225E-14 3.35600E-14
 -1      1526 1.99928E+01-2.27226E-02 1.05204E-02 4.89002E-01-5.23583E-14 1.35485E-13
 -1      1527 1.86981E+01 8.70732E-03-4.61942E-03 2.95368E-01 2.25204E-14 7.34725E-14
 -1      1528 1.91162E+01-5.35577E-03-1.89697E-03 2.88960E-01 1.84821E-14 1.26885E-13
 -1      1529 1.94360E+01 2.58864E-03 5.72445E-03 5.53032E-01-3.00081E-14 5.78704E-14
 -1      1530 1.80517E+01 2.47152E-02-1.16159E-02 2.34553E-01 5.92898E-14-6.91391E-14
 -1      1531 1.84202E+01 1.89924E-02-4.90626E-03 2.47086E-01 7.27027E-14 4.59389E-14
 -1      1532 1.88698E+01 3.42820E-02-1.99192E-03 5.07976E-01 8.90382E-14 1.20778E-13
 -1      1533 1.76423E+01 3.59028E-02-1.63838E-02 1.12160E-01-5.13313E-14-9.23324E-14
 -1      1534 1.78712E+01 4.15444E-02-7.31912E-03 1.43014E-01-1.92277E-14-1.19380E-13
 -1      1535 1.84202E+01 6.23429E-02-1.03872E-02 3.41135E-01 5.82338E-14 8.30542E-14
 -1      1536 1.75826E+01 3.72855E-02-1.64570E-02-4.27109E-02-2.32583E-14-4.89231E-14
 -1      1537 1.76094E+01 5.37689E-02-7.76400E-03-1.32992E-03-3.54404E-14-1.00740E-13
 -1      1538 1.82036E+01 7.58688E-02-1.62181E-02 8.19976E-02-1.85633E-14-5.44410E-14
 -1      1539 1.78934E+01 2.81030E-02-1.14563E-02-1.86863E-01 3.88040E-14-1.61437E-13
 -1      1540 1.77085E+01 5.10485E-02-5.65054E-03-1.46931E-01 4.37402E-14-5.80525E-14
 -1      1541 1.82825E+01 6.88933E-02-1.71622E-02-2.02409E-01 4.17210E-14-1.15990E-13
 -1      1542 1.84942E+01 1.23738E-02-3.47185E-03-2.82181E-01 7.52228E-14-2.99202E-13
 -1      1543 1.81451E+01 3.53810E-02-1.69702E-03-2.54295E-01 3.76513E-14-2.02054E-13
 -1      1544 1.86384E+01 4.41691E-02-1.32363E-02-4.34422E-01 1.16528E-13-9.51305E-14
 -1      1545 1.92385E+01-3.68967E-03 4.26563E-03-3.11384E-01-4.96434E-15-3.56864E-13
 -1      1546 1.88095E+01 1.38181E-02 2.47483E-03-3.00408E-01 2.91857E-14-3.32262E-13
 -1      1547 1.91811E+01 1.15425E-02-6.63391E-03-5.59395E-01 6.24899E-14-1.69205E-13
 -1      1548 1.99708E+01-1.51649E-02 9.28021E-03-2.81094E-01 3.48558E-14-3.71952E-13
 -1      1549 1.95506E+01-5.84432E-03 5.34067E-03-2.85497E-01-1.40703E-14-3.51861E-13
 -1      1550 1.97860E+01-1.76240E-02-1.33842E-04-5.64812E-01 3.28557E-14-2.66087E-13
 -1      1551 2.05739E+01-2.02433E-02 1.08467E-02-2.13188E-01-2.28767E-14-4.32179E-13
 -1      1552 2.02289E+01-1.87110E-02 6.24842E-03-2.27494E-01 3.92503E-14-3.86115E-13
 -1      1553 2.03386E+01-3.58639E-02 4.41347E-03-4.76027E-01 1.24540E-14-3.23360E-13
 -1      1554 2.09895E+01-1.98415E-02 9.68860E-03-1.32491E-01-6.51757E-14-3.74182E-13
 -1      1555 2.07522E+01-2.37715E-02 5.48843E-03-1.50526E-01-6.13008E-14-3.78570E-13
 -1      1556 2.07634E+01-4.16670E-02 6.49527E-03-3.36759E-01-6.54104E-14-3.62314E-13
 -1      1557 2.12124E+01-1.61258E-02 7.12839E-03-5.80405E-02 3.12558E-14-3.62684E-13
 -1      1558 2.10851E+01-2.27326E-02 3.83449E-03-7.50979E-02-4.93581E-14-3.44251E-13
 -1      1559 2.10314E+01-3.79125E-02 6.57620E-03-1.88959E-01-4.83511E-14-2.74819E-13
 -1      1560 2.12726E+01-1.12110E-02 4.33016E-03-1.21012E-04-7.43615E-14-2.79562E-13
 -1      1561 2.12375E+01-1.82411E-02 2.05180E-03-1.36393E-02-6.38365E-14-3.40979E-13
 -1      1562 2.11503E+01-2.90660E-02 5.47424E-03-6.12733E-02-6.29345E-14-2.35183E-13
 -1      1563 2.12147E+01-6.53653E-03 1.98804E-03 3.85050E-02 8.26292E-15-2.91686E-13
 -1      1564 2.12459E+01-1.26187E-02 6.16427E-04 2.92808E-02-3.11567E-14-2.87228E-13
 -1      1565 2.11495E+01-1.89965E-02 3.92497E-03 3.30179E-02-6.02621E-14-2.44967E-13
 -1      1566 2.10840E+01-2.81100E-03 3.47566E-04 5.97797E-02 3.58083E-14-3.73370E-13
 -1      1567 2.11555E+01-7.36671E-03-3.06943E-04 5.44838E-02 6.79847E-14-2.62177E-13
 -1      1568 2.10658E+01-1.01081E-02 2.40957E-03 9.24362E-02 3.29344E-14-2.63624E-13
 -1      1569 2.09180E+01-2.11743E-04-6.25120E-04 6.77153E-02-1.04996E-14-4.01449E-13
 -1      1570 2.10086E+01-3.19708E-03-7.62776E-04 6.54836E-02-2.54863E-14-4.03714E-13
 -1      1571 2.09340E+01-3.41511E-03 1.16588E-03 1.22224E-01 7.21023E-14-1.74908E-13
 -1      1572 2.07444E+01 1.37665E-03-1.08465E-03 6.66245E-02-7.46023E-15-4.02502E-13
 -1      1573 2.08387E+01-2.73913E-04-8.82722E-04 6.65052E-02-5.28465E-14-4.01235E-13
 -1      1574 2.07820E+01 9.93750E-04 2.63156E-04 1.30132E-01-3.97263E-14-2.06867E-13
 -1      1575 2.05807E+01 2.18432E-03-1.20426E-03 6.02092E-02-1.47406E-14-2.45951E-13
 -1      1576 2.06690E+01 1.53588E-03-8.05262E-04 6.13741E-02-2.74112E-14-2.48847E-13
 -1      1577 2.06297E+01 3.49110E-03-3.22501E-04 1.23794E-01-9.81034E-14-1.45569E-13
 -1      1578 2.04367E+01 2.45209E-03-1.12820E-03 5.12496E-02-9.46545E-14-1.79435E-13
 -1      1579 2.05139E+01 2.48117E-03-6.38363E-04 5.30682E-02-9.61779E-15-1.97134E-13
 -1      1580 2.04894E+01 4.59072E-03-6.53677E-04 1.09478E-01-6.68397E-14 6.40217E-14
 -1      1581 2.03164E+01 2.38366E-03-9.59035E-04 4.16252E-02 7.50831E-14-2.19353E-13
 -1      1582 2.03804E+01 2.82136E-03-4.51755E-04 4.36639E-02 4.60807E-14-1.42194E-13
 -1      1583 2.03675E+01 4.77519E-03-8.00103E-04 9.17529E-02 2.47143E-14-7.57180E-15
 -1      1584 2.02201E+01 2.13173E-03-7.61631E-04 3.24777E-02 1.00611E-13-4.22340E-13
 -1      1585 2.02708E+01 2.77756E-03-2.83164E-04 3.44662E-02 8.52843E-14-2.95458E-13
 -1      1586 2.02666E+01 4.42731E-03-8.23608E-04 7.36207E-02 1.83254E-13-1.01201E-13
 -1      1587 2.01458E+01 1.80091E-03-5.72508E-04 2.44077E-02 4.32168E-15-4.46817E-13
 -1      1588 2.01845E+01 2.51766E-03-1.48334E-04 2.61974E-02 2.75452E-15-4.42537E-13
 -1      1589 2.01861E+01 3.81941E-03-7.72888E-04 5.68447E-02 2.39698E-14-3.28100E-13
 -1      1590 2.00905E+01 1.45699E-03-4.09162E-04 1.76511E-02 1.00498E-13-5.96967E-13
 -1      1591 2.01190E+01 2.15870E-03-4.99737E-05 1.91764E-02 2.95057E-14-4.54518E-13
 -1      1592 2.01241E+01 3.12851E-03-6.83279E-04 4.22983E-02 2.41110E-15-4.72792E-13
 -1      1593 2.00510E+01 1.13737E-03-2.77435E-04 1.22184E-02 6.41363E-14-6.42951E-13
 -1      1594 2.00710E+01 1.77597E-03 1.57926E-05 1.34667E-02 4.68982E-14-5.71382E-13
 -1      1595 2.00780E+01 2.45925E-03-5.78684E-04 3.02675E-02 8.57267E-14-4.78666E-13
 -1      1596 2.00239E+01 8.60011E-04-1.76698E-04 7.99543E-03-1.68449E-13-5.15764E-13
 -1      1597 2.00374E+01 1.41366E-03 5.53759E-05 8.98432E-03-7.18498E-14-6.09039E-13
 -1      1598 2.00450E+01 1.86572E-03-4.74108E-04 2.06846E-02-4.16028E-14-2.27774E-13
 -1      1599 2.00065E+01 6.30490E-04-1.03184E-04 4.81106E-03-1.58329E-14-3.97769E-13
 -1      1600 2.00149E+01 1.09414E-03 7.54588E-05 5.57328E-03-1.56450E-13-6.12774E-13
 -1      1601 2.00224E+01 1.36917E-03-3.78068E-04 1.32937E-02-1.09134E-13-3.53301E-13
 -1      1602 1.99964E+01 4.46912E-04-5.19811E-05 2.48057E-03 4.51247E-14-6.17669E-13
 -1      1603 2.00010E+01 8.25429E-04 8.19003E-05 3.05373E-03 1.22884E-13-3.88191E-13
 -1      1604 2.00078E+01 9.70872E-04-2.94603E-04 7.76146E-03 8.46945E-14-7.41810E-13
 -1      1605 1.99914E+01 3.03263E-04-1.80651E-05 8.31192E-04 6.06981E-14-7.58753E-13
 -1      1606 1.99934E+01 6.06449E-04 7.93540E-05 1.25168E-03 4.07839E-14-6.36193E-13
 -1      1607 1.99992E+01 6.60877E-04-2.24768E-04 3.74626E-03 1.07755E-13-4.81682E-13
 -1      1608 1.99902E+01 1.91261E-04 3.60049E-06-2.83249E-04 3.08874E-14-7.96099E-13
 -1      1609 1.99903E+01 4.30401E-04 7.13528E-05 1.60661E-05 1.58652E-14-7.67587E-13
 -1      1610 1.99949E+01 4.23151E-04-1.67646E-04 9.39755E-04 7.24354E-14-5.45273E-13
 -1      1611 1.99913E+01 1.00523E-04 1.93179E-05-9.72346E-04-1.28848E-13-6.93531E-13
 -1      1612 1.99902E+01 2.85683E-04 6.11054E-05-7.70572E-04 3.04029E-14-6.94888E-13
 -1      1613 1.99937E+01 2.37225E-04-1.20553E-04-9.08626E-04-5.93813E-14-3.15633E-13
 -1      1614 1.99938E+01 1.84362E-05 3.93671E-05-1.29620E-03-3.18969E-13-2.06362E-13
 -1      1615 1.99921E+01 1.54529E-04 5.34593E-05-1.18116E-03-2.72770E-13-5.61889E-13
 -1      1616 1.99944E+01 7.55506E-05-7.81366E-05-1.97153E-03-3.39931E-13-2.18437E-13
 -1      1617 1.99967E+01-7.35824E-05 7.19366E-05-1.25584E-03 3.34981E-14-8.17510E-14
 -1      1618 1.99948E+01 1.11047E-05 5.38145E-05-1.23535E-03-7.99077E-14-2.19669E-13
 -1      1619 1.99960E+01-8.91586E-05-3.07233E-05-2.31873E-03-2.14682E-13-3.18308E-13
 -1      1620 1.99989E+01-2.12823E-04 8.24302E-05-7.91396E-04 1.49431E-13-3.78795E-13
 -1      1621 1.99976E+01-1.79763E-04 6.63724E-05-8.82241E-04 1.59364E-13-4.49502E-14
 -1      1622 1.99979E+01-3.44767E-04 2.15622E-05-1.91830E-03 1.79864E-13-1.56776E-13
 -1      1623 1.99995E+01-3.40778E-04 1.13400E-04-2.52513E-04-1.38525E-13-1.98863E-13
 -1      1624 1.99997E+01-2.62510E-03 2.29866E-05-1.15603E-03 5.66856E-15 1.90576E-13
 -1      1625 1.99996E+01-1.32390E-03 3.84133E-05-1.02505E-03-2.41318E-13 1.16085E-13
 -1      1626 1.99999E+01-5.08714E-03-1.34151E-05-1.27776E-03-4.73536E-13-2.43461E-13
 -1      1627 1.99998E+01-3.50205E-03 7.09425E-06-1.28828E-03-6.56744E-14-3.75661E-13
 -1      1628 1.99997E+01-2.44500E-03 1.70553E-05-2.27640E-03 1.49935E-14-1.67556E-13
 -1      1629 1.99999E+01-7.35177E-03-2.63311E-05-1.09345E-03-6.85298E-13-1.29933E-14
 -1      1630 1.99999E+01-5.92184E-03-1.02932E-05-1.15762E-03-6.36718E-13 7.02770E-14
 -1      1631 1.99999E+01-4.06511E-03-2.30893E-05-2.28850E-03-1.48309E-13-2.77769E-13
 -1      1632 1.99999E+01-9.07176E-03-2.30886E-05-7.88491E-04-4.77614E-13 1.45119E-13
 -1      1633 1.99999E+01-7.99514E-03-1.14052E-05-8.56029E-04-7.17358E-13 2.48400E-13
 -1      1634 2.00000E+01-5.45540E-03-3.13272E-05-1.82743E-03-3.66105E-13 2.70541E-13
 -1      1635 1.99999E+01-1.02113E-02-1.61216E-05-5.12096E-04-8.70225E-13-1.89509E-13
 -1      1636 1.99999E+01-9.49888E-03-7.31184E-06-5.63336E-04-5.33616E-13-3.04836E-13
 -1      1637 2.00000E+01-6.43799E-03-2.75517E-05-1.27109E-03-5.82696E-13-1.99459E-13
 -1      1638 1.99999E+01-1.09261E-02-9.35915E-06-3.08145E-04-5.54410E-13 1.91921E-13
 -1      1639 1.99999E+01-1.04788E-02-3.51999E-06-3.40942E-04-7.54223E-13 2.13709E-13
 -1      1640 2.00000E+01-7.05533E-03-1.59016E-05-8.02592E-04-4.52540E-13-2.00299E-14
 -1      1641 1.99998E+01-1.13412E-02-4.46137E-06-1.79646E-04-4.84235E-13-1.08185E-13
 -1      1642 1.99998E+01-1.10847E-02-1.19406E-06-1.98092E-04-5.24970E-13-1.10166E-13
 -1      1643 1.99999E+01-7.42237E-03-5.55728E-06-4.77382E-04-3.61307E-13 8.35145E-14
 -1      1644 1.99998E+01-1.15526E-02-2.13004E-06-8.50746E-05-9.15123E-14 1.71004E-13
 -1      1645 1.99998E+01-1.14424E-02-1.65811E-06-1.00710E-04-3.59079E-13 3.18912E-13
 -1      1646 1.99999E+01-7.65127E-03-1.55104E-07-2.66370E-04-1.77861E-13 1.94290E-13
 -1      1647 1.99999E+01-1.15459E-02-2.63686E-06 3.54621E-05 2.45740E-13 1.08299E-13
 -1      1648 1.99998E+01-1.16054E-02-5.03702E-06 9.29872E-06-9.33629E-14 3.26561E-13
 -1      1649 1.99999E+01-7.80454E-03-2.18749E-06-7.53712E-05 6.20693E-14 3.53917E-13
 -1      1650 1.99999E+01-1.11955E-02-5.82281E-06 2.36139E-04 1.40769E-13-1.01842E-13
 -1      1651 1.99999E+01-1.15108E-02-1.12559E-05 1.89061E-04 2.57083E-13-1.94591E-13
 -1      1652 1.99999E+01-7.85204E-03-1.12906E-05 2.06826E-04 7.07550E-15 2.60456E-14
 -1      1653 1.99999E+01-1.03285E-02-1.04342E-05 5.34952E-04 2.42313E-14 1.08226E-13
 -1      1654 1.99999E+01-1.10025E-02-1.91254E-05 4.67040E-04 2.51076E-13-2.07773E-13
 -1      1655 2.00000E+01-7.67976E-03-2.41271E-05 6.56249E-04 5.70346E-15-2.95978E-13
 -1      1656 1.99999E+01-8.75484E-03-1.36019E-05 9.15073E-04 4.97017E-14-3.19859E-14
 -1      1657 2.00000E+01-9.89530E-03-2.65368E-05 8.30986E-04 3.20345E-14 2.25923E-13
 -1      1658 2.00000E+01-7.13390E-03-3.59480E-05 1.28210E-03 3.79268E-13 4.70777E-14
 -1      1659 1.99999E+01-6.47644E-03-8.50483E-06 1.27654E-03-2.86832E-13-1.25541E-13
 -1      1660 1.99999E+01-8.04973E-03-2.85961E-05 1.20431E-03-1.72053E-13 5.55036E-14
 -1      1661 2.00000E+01-6.08408E-03-3.77773E-05 1.98801E-03 2.22797E-13-1.21574E-13
 -1      1662 1.99998E+01-3.80115E-03 1.45288E-05 1.42605E-03 6.31847E-14 5.74074E-13
 -1      1663 1.99998E+01-5.54392E-03-1.33569E-05 1.42425E-03-4.58396E-13 2.02532E-13
 -1      1664 1.99999E+01-4.53069E-03-1.96967E-05 2.53779E-03-1.89287E-13 2.92466E-14
 -1      1665 1.99996E+01-1.65042E-03 4.16785E-05 1.11650E-03 4.47454E-13 6.08034E-14
 -1      1666 1.99997E+01-3.09338E-03 3.06193E-05 1.26170E-03 1.20814E-13 2.87105E-13
 -1      1667 1.99997E+01-2.96603E-03 1.01428E-05 2.53639E-03-3.01140E-13 4.53527E-13
 -1      1668 1.99994E+01-1.59616E-03 3.82657E-05 1.84145E-03-2.02266E-13 1.79510E-13
 -1      1669-4.83997E-01-1.47677E+01-1.62934E+00-5.29792E-01 4.34208E-13 2.84411E-13
 -1      1670-5.72048E-01-1.73015E+01-1.87367E+00 6.91422E-01 6.75571E-14 2.23821E-13
 -1      1671 1.26044E+00-8.35455E+00-1.20941E+00 5.50329E-01 7.15539E-13 4.11726E-13
 -1      1672 6.02063E-01-1.34254E+01-1.70879E+00 6.64354E-02 5.54445E-13 3.07983E-13
 -1      1673 6.25786E+00-6.35938E-01-5.70626E-01 4.38796E+00 1.13110E-12 1.07581E-12
 -1      1674 3.54258E+00-6.17873E+00-1.29728E+00 1.72086E+00 8.93952E-13 6.49703E-13
 -1      1675 1.56797E+01 5.03805E+00 1.56726E-01 9.42197E+00 1.40843E-12 1.57907E-12
 -1      1676 9.92237E+00 1.34864E+00-6.83708E-01 5.78713E+00 1.24256E-12 1.25122E-12
 -1      1677 2.88511E+01 7.09705E+00 8.77193E-01 1.29403E+01 1.20326E-12 1.25588E-12
 -1      1678 2.04982E+01 6.22933E+00 5.60128E-02 1.04520E+01 1.47260E-12 1.45417E-12
 -1      1679 4.26102E+01 6.05864E+00 1.44820E+00 1.23453E+01 6.60860E-13 8.52096E-13
 -1      1680 3.39319E+01 7.31738E+00 7.78133E-01 1.28030E+01 1.05310E-12 1.15841E-12
 -1      1681 5.28879E+01 4.13377E+00 1.77934E+00 7.12312E+00 4.28393E-13-1.39666E-13
 -1      1682 4.67039E+01 5.80167E+00 1.38265E+00 1.08783E+01 6.37088E-13 5.66214E-13
 -1      1683 5.56658E+01 3.65377E+00 1.79263E+00-1.20469E+00 3.79363E-13-9.95620E-13
 -1      1684 5.45016E+01 4.02069E+00 1.72231E+00 4.43191E+00 3.15803E-13-3.71037E-13
 -1      1685 5.03833E+01 5.05199E+00 1.50810E+00-8.92636E+00 7.04811E-13-1.67766E-12
 -1      1686 5.51513E+01 3.71434E+00 1.85663E+00-4.04055E+00 4.55469E-13-1.20254E-12
 -1      1687 3.72915E+01 6.61540E+00 7.97026E-01-1.13904E+01 1.24828E-12-1.98708E-12
 -1      1688 4.59275E+01 5.10860E+00 1.41165E+00-9.76395E+00 8.73843E-13-1.75260E-12
 -1      1689 2.36405E+01 6.19989E+00 1.52155E-01-1.07579E+01 1.75582E-12-2.10587E-12
 -1      1690 3.24531E+01 6.32447E+00 8.82927E-01-1.25250E+01 1.44773E-12-2.13252E-12
 -1      1691 1.17150E+01 2.56121E+00-5.61540E-01-6.73198E+00 1.96465E-12-1.78679E-12
 -1      1692 1.82525E+01 5.64626E+00 2.73650E-01-1.03482E+01 1.89915E-12-2.14528E-12
 -1      1693 4.63281E+00-4.51271E+00-1.17019E+00-2.44361E+00 1.62892E-12-1.21808E-12
 -1      1694 7.86417E+00 7.09520E-01-4.26229E-01-5.37977E+00 1.94866E-12-1.66323E-12
 -1      1695 1.12032E+00-1.22463E+01-1.62051E+00-3.21351E-01 9.96758E-13-6.55656E-13
 -1      1696 2.16671E+00-6.73830E+00-1.05988E+00-1.32174E+00 1.49669E-12-9.91429E-13
 -1      1697-4.48233E-01-1.70864E+01-1.86714E+00-5.11581E-01-1.27676E-14-4.84363E-13
 -1      1698-3.56832E-01-1.39250E+01-1.56925E+00 5.23578E-01 7.60059E-13-6.65829E-13
 -1      1699-9.11892E-01-1.72993E+01-1.90797E+00-1.55776E+00-7.22755E-13-2.80942E-13
 -1      1700-7.87458E-01-1.78898E+01-1.91544E+00 6.09778E-02-2.76223E-13-2.67869E-13
 -1      1701-2.14326E-01-1.21762E+01-1.61288E+00-1.32400E+00-1.30385E-12-7.75963E-13
 -1      1702-3.02981E-01-1.64203E+01-1.97196E+00-9.91883E-01-8.66307E-13-4.45338E-13
 -1      1703 5.43637E+00-4.16252E+00-8.67926E-01 2.93324E+00-1.50968E-12-1.13154E-12
 -1      1704 2.95014E+00-9.96378E+00-1.50009E+00 5.86978E-01-1.25522E-12-8.32223E-13
 -1      1705 1.36306E+01 2.59363E+00-2.21298E-01 7.46827E+00-1.63514E-12-1.65756E-12
 -1      1706 8.38310E+00-1.80280E+00-1.07469E+00 3.87686E+00-1.70397E-12-1.35225E-12
 -1      1707 2.79132E+01 5.69651E+00 6.71461E-01 1.18689E+01-1.38667E-12-1.83786E-12
 -1      1708 1.87516E+01 3.87245E+00-3.58294E-01 8.59550E+00-1.57963E-12-1.75771E-12
 -1      1709 4.42483E+01 5.49494E+00 1.60905E+00 1.21594E+01-9.40859E-13-1.71663E-12
 -1      1710 3.38932E+01 6.28884E+00 6.46258E-01 1.19296E+01-1.29619E-12-1.87539E-12
 -1      1711 5.72048E+01 4.00380E+00 2.30242E+00 7.05265E+00-6.22433E-13-6.17728E-13
 -1      1712 4.92693E+01 5.63691E+00 1.64730E+00 1.08234E+01-8.20385E-13-1.35536E-12
 -1      1713 6.05819E+01 3.66229E+00 2.33600E+00-1.40353E+00-2.94709E-13 2.65288E-13
 -1      1714 5.94309E+01 4.05244E+00 2.31171E+00 4.66133E+00-4.54692E-13-3.03535E-13
 -1      1715 5.16823E+01 5.11444E+00 1.60587E+00-7.96282E+00-4.80310E-13 8.41438E-13
 -1      1716 5.76405E+01 3.91265E+00 2.09426E+00-3.20658E+00-3.48277E-13 4.51250E-13
 -1      1717 3.74882E+01 6.17768E+00 7.93948E-01-1.16512E+01-1.01097E-12 1.36380E-12
 -1      1718 4.83690E+01 4.75124E+00 1.70190E+00-1.05332E+01-5.98466E-13 1.03584E-12
 -1      1719 2.14873E+01 4.61051E+00-1.97887E-01-9.45218E+00-1.37246E-12 1.52389E-12
 -1      1720 3.14394E+01 5.78942E+00 8.61635E-01-1.23109E+01-1.08136E-12 1.48770E-12
 -1      1721 9.53000E+00-8.07004E-01-1.03775E+00-4.46674E+00-1.20859E-12 1.24456E-12
 -1      1722 1.58490E+01 3.36767E+00-1.02206E-01-8.43068E+00-1.34870E-12 1.60782E-12
 -1      1723 2.79663E+00-8.47575E+00-1.62568E+00-3.40853E-01-8.29448E-13 6.64802E-13
 -1      1724 5.39695E+00-2.78814E+00-9.37625E-01-2.92496E+00-1.12488E-12 9.11271E-13
 -1      1725 1.16663E-01-1.51526E+01-1.88849E+00 9.13583E-01-3.48832E-13 2.84522E-13
 -1      1726 5.65284E-01-1.04443E+01-1.49071E+00 7.02705E-01-6.84008E-13 6.29163E-13
 -1      1727-7.61018E-01-1.78957E+01-1.93685E+00 2.03642E-01 3.89064E-14 1.90126E-13
 -1      1728-9.27563E-01-1.65413E+01-1.87160E+00 1.75990E+00-2.36255E-13 2.59737E-13
 -1      1729 1.31190E+01-2.99133E+00-3.71461E-01 6.64149E+00 4.30544E-13 9.22540E-13
 -1      1730-1.51803E+00-1.20891E+01-1.36257E+00 8.67057E-01-1.72085E-14 3.53162E-13
 -1      1731 1.99995E+01-6.93167E-04 9.01640E-05-8.36987E-04-1.96655E-13-1.93287E-13
 -1      1732 1.99991E+01-1.00530E-03 5.66415E-05-1.77797E-03 8.14366E-14 5.24220E-14
 -1      1733 5.61327E-01-1.05204E+01-1.18828E+00 2.75296E+00 1.33948E-13 3.62321E-13
 -1      1734 5.46460E+00-7.25947E+00-8.67808E-01 4.68292E+00 2.70228E-13 6.08263E-13
 -1      1735 2.27362E+01 1.09522E+00 2.03299E-01 7.98754E+00 8.05134E-13 7.94476E-13
 -1      1736 3.28889E+01 4.26200E+00 7.75168E-01 7.94958E+00 8.61700E-13 4.90941E-13
 -1      1737 4.16619E+01 6.22144E+00 1.22462E+00 6.26365E+00 8.00970E-13 1.18350E-13
 -1      1738 4.69163E+01 7.26619E+00 1.46811E+00 2.84676E+00 6.82787E-13-4.74953E-13
 -1      1739 4.78536E+01 7.48923E+00 1.52678E+00-1.30621E+00 6.79901E-13-6.73461E-13
 -1      1740 4.29145E+01 6.44413E+00 1.11579E+00-4.10330E+00 8.12406E-13-1.03795E-12
 -1      1741 3.52376E+01 4.24563E+00 8.00182E-01-6.29317E+00 1.02084E-12-1.18439E-12
 -1      1742 2.53694E+01 1.57341E+00 3.68365E-01-7.83257E+00 1.14142E-12-1.34426E-12
 -1      1743 1.50553E+01-2.16525E+00-2.57464E-01-6.97748E+00 1.03362E-12-1.25022E-12
 -1      1744 7.00552E+00-6.52496E+00-7.69330E-01-5.17714E+00 7.89702E-13-1.03678E-12
 -1      1745 1.37610E+00-9.94108E+00-1.10455E+00-3.26412E+00 3.43503E-13-9.05054E-13
 -1      1746-1.35075E+00-1.20868E+01-1.34186E+00-1.14462E+00-2.65898E-14-7.23310E-13
 -1      1747-8.17967E-01-1.20723E+01-1.38578E+00 8.27430E-01-4.08951E-13-5.39402E-13
 -1      1748 4.16654E+00-9.11476E+00-9.49689E-01 3.68581E+00-5.84643E-13-7.61169E-13
 -1      1749 1.19919E+01-5.99370E+00-7.20119E-01 5.48024E+00-7.58615E-13-8.29115E-13
 -1      1750 2.18257E+01-1.55025E+00-1.26736E-01 6.74765E+00-9.52571E-13-1.10845E-12
 -1      1751 3.35165E+01 2.19741E+00 6.43121E-01 6.84336E+00-9.58400E-13-1.14453E-12
 -1      1752 4.40700E+01 5.18401E+00 1.37444E+00 5.23202E+00-9.02528E-13-7.60614E-13
 -1      1753 5.07205E+01 7.14876E+00 1.88756E+00 2.38954E+00-8.51874E-13-6.38378E-14
 -1      1754 4.99075E+01 7.65774E+00 1.71342E+00-4.37507E-01-5.75984E-13 3.22131E-13
 -1      1755 4.51394E+01 6.01037E+00 1.41296E+00-3.27886E+00-6.42958E-13 6.26166E-13
 -1      1756 3.64791E+01 2.86387E+00 8.85367E-01-6.18883E+00-7.59226E-13 6.75571E-13
 -1      1757 2.41403E+01-7.73422E-01 6.74549E-02-6.80768E+00-7.24087E-13 8.19234E-13
 -1      1758 1.28907E+01-4.85399E+00-6.29839E-01-5.48419E+00-5.03819E-13 8.83238E-13
 -1      1759 4.68943E+00-8.76888E+00-1.08287E+00-3.46874E+00-3.58380E-13 7.17509E-13
 -1      1760-1.59290E-01-1.15105E+01-1.32988E+00-1.38718E+00-1.89293E-13 5.05984E-13
 -1      1761 2.28369E+01 1.97244E+00-2.47731E-02-2.66066E+00-2.12507E-13 1.00861E-12
 -1      1762 1.98846E+01 3.73387E+00-3.58476E-02-2.03008E+00-2.92646E-13-2.21559E-13
 -1      1763 2.01281E+01 3.57412E+00-3.89110E-02-2.32461E+00-3.27263E-13-1.12788E-13
 -1      1764 2.04336E+01 3.18044E+00-4.55848E-02-2.47413E+00-3.26975E-13 2.11636E-14
 -1      1765 2.06475E+01 2.80223E+00-1.40193E-01-2.74874E+00-3.43971E-13 1.91423E-13
 -1      1766 2.04995E+01 2.70587E+00-3.57511E-03-2.10159E+00-3.40697E-13-3.01356E-14
 -1      1767 1.93478E+01 4.25204E+00-2.05241E-02-1.16737E+00-1.81577E-13-4.20402E-13
 -1      1768 1.94406E+01 4.20662E+00-1.64997E-02-1.38258E+00-2.12974E-13-3.93113E-13
 -1      1769 1.92159E+01 4.37317E+00-1.67971E-02-7.83448E-01-1.13201E-13-4.57729E-13
 -1      1770 1.92759E+01 4.34604E+00-1.33534E-02-9.80368E-01-1.44432E-13-4.43383E-13
 -1      1771 1.95008E+01 3.87587E+00-8.19992E-03-1.01603E+00-1.78520E-13-4.14734E-13
 -1      1772 1.91390E+01 4.44304E+00-1.44449E-02-4.25360E-01-4.61841E-14-4.61579E-13
 -1      1773 1.91722E+01 4.42867E+00-1.24576E-02-6.08805E-01-8.01132E-14-4.56551E-13
 -1      1774 1.93668E+01 4.01445E+00-8.01171E-03-6.61485E-01-1.01062E-13-4.40299E-13
 -1      1775 1.91093E+01 4.47104E+00-1.29908E-02-8.06587E-02 2.38108E-14-4.62862E-13
 -1      1776 1.91189E+01 4.46726E+00-1.25472E-02-2.58098E-01-1.11994E-14-4.65440E-13
 -1      1777 1.92928E+01 4.08804E+00-7.92048E-03-3.25820E-01-2.06983E-14-4.44377E-13
 -1      1778 1.91232E+01 4.46136E+00-1.22625E-02 2.63309E-01 7.16303E-14-4.63386E-13
 -1      1779 1.91106E+01 4.46748E+00-1.33115E-02 8.49555E-02 4.75633E-14-4.63985E-13
 -1      1780 1.92714E+01 4.10691E+00-7.96787E-03 1.47274E-03 3.54580E-14-4.45873E-13
 -1      1781 1.91808E+01 4.41398E+00-1.23127E-02 6.18760E-01 1.21305E-13-4.47942E-13
 -1      1782 1.91456E+01 4.43062E+00-1.47221E-02 4.32781E-01 1.01372E-13-4.59393E-13
 -1      1783 1.92999E+01 4.07489E+00-8.16171E-03 3.31146E-01 8.98811E-14-4.38328E-13
 -1      1784 1.92843E+01 4.32619E+00-1.33779E-02 9.91000E-01 1.83726E-13-4.15898E-13
 -1      1785 1.92247E+01 4.35451E+00-1.70206E-02 7.94026E-01 1.51233E-13-4.38535E-13
 -1      1786 1.93783E+01 3.99115E+00-8.36021E-03 6.70132E-01 1.46906E-13-4.21066E-13
 -1      1787 1.94504E+01 4.18137E+00-1.64467E-02 1.40461E+00 2.54202E-13-3.30408E-13
 -1      1788 1.93563E+01 4.22869E+00-2.07528E-02 1.18181E+00 2.12444E-13-3.72180E-13
 -1      1789 1.95132E+01 3.84600E+00-8.65427E-03 1.02939E+00 2.16471E-13-3.72037E-13
 -1      1790 1.97099E+01 3.94599E+00-2.43973E-02 1.86354E+00 3.17243E-13-2.32384E-13
 -1      1791 1.95628E+01 4.02821E+00-2.72557E-02 1.60829E+00 2.82106E-13-2.92863E-13
 -1      1792 1.97245E+01 3.61489E+00-8.46943E-03 1.41501E+00 2.81514E-13-2.89149E-13
 -1      1793 2.01408E+01 3.52835E+00-4.32274E-02 2.36406E+00 3.53623E-13-3.84900E-14
 -1      1794 1.98958E+01 3.69564E+00-3.81727E-02 2.06685E+00 3.30009E-13-1.61607E-13
 -1      1795 2.00520E+01 3.24692E+00-6.08892E-03 1.80833E+00 3.37740E-13-1.69460E-13
 -1      1796 2.09730E+01 2.66175E+00-6.09053E-02 2.75891E+00 3.51959E-13 3.23894E-13
 -1      1797 2.04750E+01 3.09680E+00-4.94240E-02 2.50959E+00 3.47880E-13 1.13881E-13
 -1      1798 2.05644E+01 2.61430E+00-4.94659E-04 2.12422E+00 3.61765E-13 5.68504E-14
 -1      1799 2.17596E+01 1.20460E+00-1.22230E-01 2.25470E+00 2.93238E-13 7.55757E-13
 -1      1800 2.13230E+01 2.26185E+00 3.14814E-03 2.65477E+00 3.20383E-13 4.75064E-13
 -1      1801 2.10246E+01 1.68582E+00-1.29122E-02 2.04827E+00 3.54309E-13 3.38424E-13
 -1      1802 2.10171E+01 7.75448E-01-5.92465E-02 1.45125E+00 2.79644E-13 6.68542E-13
 -1      1803 2.18267E+01 2.44318E+00 8.99163E-02-2.96265E+00-2.87582E-13 4.88110E-13
 -1      1804 2.02339E+01 3.03298E-01-3.78903E-03 5.88327E-01 2.18971E-13 5.35448E-13
 -1      1805 2.07310E+01 4.39430E-01-1.36253E-02 9.60294E-01 2.34701E-13 6.14149E-13
 -1      1806 2.08311E+01 8.45991E-01 4.86171E-03 1.32034E+00 2.75689E-13 4.36706E-13
 -1      1807 2.15587E+01 1.73791E+00 7.89366E-02-2.24180E+00-3.09346E-13 3.60309E-13
 -1      1808 2.06348E+01 5.10334E-01 3.29815E-02-8.20329E-01-2.39839E-13 2.93584E-13
 -1      1809 2.02446E+01 3.68295E-01 9.72208E-03-5.20989E-01-2.05572E-13 2.36797E-13
 -1      1810 2.00818E+01 2.79095E-01 2.78834E-02-2.66442E-01-1.87701E-13 2.30917E-13
 -1      1811 1.99435E+01 2.06786E-01 1.30044E-02-1.13626E-01-1.58603E-13 1.71686E-13
 -1      1812 2.03590E+01 5.12268E-01-6.86400E-03-5.71856E-01-2.35496E-13 9.02520E-14
 -1      1813 1.98637E+01 1.67368E-01 1.73810E-02 4.47543E-02-1.21369E-13 1.49836E-13
 -1      1814 1.98553E+01 1.35890E-01 1.04737E-02 1.38556E-01-9.40610E-14 1.19453E-13
 -1      1815 2.01083E+01 2.91745E-01-6.92857E-03-9.88269E-02-1.71948E-13 7.83822E-14
 -1      1816 1.98456E+01 1.18402E-01 9.71818E-03 2.47609E-01-7.64232E-14 1.09387E-13
 -1      1817 1.99246E+01 1.07000E-01 8.83336E-03 3.16507E-01-7.79671E-14 9.81999E-14
 -1      1818 2.00243E+01 1.95336E-01-6.07736E-03 2.05550E-01-1.12103E-13 9.94755E-15
 -1      1819 1.99700E+01 1.01751E-01 5.55803E-03 4.04129E-01-9.66451E-14 1.04403E-13
 -1      1820 2.01159E+01 1.02544E-01 8.72150E-03 4.65897E-01-8.27719E-14 6.58334E-14
 -1      1821 2.00659E+01 1.58987E-01-5.21109E-03 4.29277E-01-9.23109E-14-7.06412E-15
 -1      1822 2.02058E+01 1.05479E-01 3.41481E-03 5.49578E-01-6.83199E-14 7.27961E-14
 -1      1823 2.04122E+01 1.15213E-01 9.65694E-03 6.15595E-01-6.43743E-14 6.43843E-14
 -1      1824 2.02073E+01 1.57815E-01-4.39433E-03 6.23100E-01-9.00042E-14 1.74363E-14
 -1      1825 2.05409E+01 1.24443E-01 2.23632E-03 7.07703E-01-6.80142E-14 9.62637E-14
 -1      1826 2.08102E+01 1.41313E-01 1.12141E-02 7.86418E-01-5.61959E-14 7.40001E-14
 -1      1827 2.04327E+01 1.81496E-01-3.77537E-03 8.20263E-01-6.12368E-14 5.87005E-14
 -1      1828 2.09757E+01 1.55217E-01 1.41906E-03 8.96141E-01-7.39426E-14 8.02179E-14
 -1      1829 2.13160E+01 1.76844E-01 1.28950E-02 9.93558E-01-5.95713E-14 9.67686E-14
 -1      1830 2.07349E+01 2.24105E-01-3.38300E-03 1.04463E+00-6.16889E-14 3.79758E-14
 -1      1831 2.15188E+01 1.92323E-01 5.90656E-04 1.12640E+00-9.77564E-14 1.05438E-13
 -1      1832 2.19398E+01 2.13113E-01 1.37415E-02 1.24414E+00-1.07751E-13 7.82375E-14
 -1      1833 2.11129E+01 2.77886E-01-3.26415E-03 1.31235E+00-1.04882E-13 3.22438E-14
 -1      1834 2.21836E+01 2.23804E-01-1.95161E-04 1.39845E+00-8.76452E-14 4.92318E-14
 -1      1835 2.26923E+01 2.29792E-01 1.22403E-02 1.52843E+00-4.62282E-14-2.68075E-14
 -1      1836 2.15704E+01 3.25545E-01-3.71418E-03 1.62786E+00-1.07124E-13 1.76407E-14
 -1      1837 2.30050E+01 2.18927E-01-5.41214E-04 1.69474E+00-3.68629E-15-1.70840E-14
 -1      1838 2.36201E+01 1.81171E-01 6.24039E-03 1.81263E+00 3.60098E-14-2.21021E-14
 -1      1839 2.21313E+01 3.28442E-01-5.87446E-03 1.98181E+00-2.66031E-14 3.76747E-14
 -1      1840 2.39916E+01 1.15460E-01 4.90454E-04 1.92920E+00 5.97747E-14 4.69234E-14
 -1      1841 2.46199E+01-8.27804E-03-6.97994E-03 1.95299E+00 7.74025E-14 1.08295E-13
 -1      1842 2.28128E+01 2.03379E-01-9.42920E-03 2.29896E+00 1.09036E-13 7.52003E-16
 -1      1843 2.51182E+01-1.73646E-01 7.10614E-03 1.93280E+00 1.01396E-13 1.66001E-13
 -1      1844 2.56989E+01-4.34834E-01-2.69219E-02 1.75339E+00 1.58776E-13 2.13328E-13
 -1      1845 2.36508E+01-1.69055E-01-1.68247E-02 2.42778E+00 1.26863E-13 1.45824E-13
 -1      1846 2.63971E+01-7.29713E-01 2.12700E-02 1.43934E+00 2.28831E-13 2.23009E-13
 -1      1847 2.67837E+01-1.11376E+00-4.84113E-02 9.23047E-01 1.72702E-13 3.14262E-13
 -1      1848 2.47683E+01-9.17759E-01-2.72365E-02 2.12364E+00 2.38153E-13 1.97865E-13
 -1      1849 2.77026E+01-1.45309E+00 2.83900E-02 1.53763E-01 1.00055E-13 4.52298E-13
 -1      1850 2.77272E+01-1.72282E+00-5.70649E-02-7.12377E-01 1.36675E-13 5.04399E-13
 -1      1851 2.62786E+01-1.95016E+00-3.43297E-02 1.05021E+00 2.21566E-13 3.78708E-13
 -1      1852 2.86458E+01-1.75419E+00-1.29213E-02-1.86448E+00 8.34575E-15 5.86504E-13
 -1      1853 2.81986E+01-1.38630E+00-5.58566E-02-2.70365E+00-9.00547E-14 5.61643E-13
 -1      1854 2.80922E+01-2.55283E+00-3.49283E-02-9.61051E-01 6.59247E-14 5.64153E-13
 -1      1855 2.86477E+01-5.50679E-01-1.08358E-01-3.51051E+00-2.40509E-13 4.95713E-13
 -1      1856 2.78809E+01 6.17850E-01-7.67826E-02-3.43712E+00-3.35607E-13 3.18651E-13
 -1      1857 2.96007E+01-1.44651E+00-7.65633E-02-3.17994E+00-2.39968E-13 6.01137E-13
 -1      1858 2.78300E+01 1.82621E+00-1.67004E-01-2.87069E+00-3.99597E-13 2.24069E-13
 -1      1859 2.73509E+01 2.70266E+00-1.19372E-01-1.68678E+00-4.96714E-13 1.12462E-13
 -1      1860 3.01360E+01 1.66393E+00-1.27272E-01-3.46488E+00-4.92356E-13 4.29129E-13
 -1      1861 2.72822E+01 3.11764E+00-1.44931E-01 3.68545E-02-5.46146E-13 2.32453E-14
 -1      1862 2.74602E+01 2.78447E+00-1.71108E-01 1.51472E+00-5.30520E-13-1.12627E-13
 -1      1863 3.01195E+01 4.21542E+00-1.63437E-01-1.03831E+00-5.76955E-13 2.22197E-13
 -1      1864 2.76359E+01 1.78387E+00-7.49895E-02 2.95730E+00-4.37900E-13-1.48465E-13
 -1      1865 2.83477E+01 4.65761E-01-1.57984E-01 3.60852E+00-2.24806E-13-2.54109E-13
 -1      1866 3.01760E+01 3.29236E+00-1.60175E-01 2.54399E+00-5.30298E-13 9.00391E-14
 -1      1867 2.82243E+01-7.37002E-01-4.69296E-02 3.31786E+00-2.39961E-13-2.80647E-13
 -1      1868 2.88357E+01-1.55130E+00-6.26767E-02 2.68847E+00-7.78579E-14-3.37241E-13
 -1      1869 2.99747E+01-2.66545E-01-9.18692E-02 3.65540E+00-2.48607E-13-7.85483E-15
 -1      1870 2.80695E+01-1.76367E+00-5.29587E-02 1.53701E+00 1.59921E-13-3.15449E-13
 -1      1871 2.82183E+01-1.67576E+00 1.85184E-02 6.03056E-01 2.81462E-13-2.59154E-13
 -1      1872 2.88011E+01-2.40677E+00-4.50293E-02 1.93897E+00 3.97998E-14-1.08941E-15
 -1      1873 2.72807E+01-1.38685E+00-5.02114E-02-3.41001E-01 2.55289E-13-2.84210E-13
 -1      1874 2.70226E+01-1.00513E+00 2.61539E-02-1.00744E+00 1.70676E-13-1.86249E-13
 -1      1875 2.70453E+01-2.27300E+00-1.84134E-02-3.31648E-01 2.46709E-13 4.97926E-14
 -1      1876 2.62508E+01-6.63310E-01-3.45224E-02-1.47451E+00 8.96071E-14-7.32739E-14
 -1      1877 2.57415E+01-3.44594E-01 1.19484E-02-1.76523E+00 6.93924E-14 2.76220E-14
 -1      1878 2.54028E+01-1.27732E+00-2.35744E-02-1.76169E+00 2.01780E-13 5.98644E-14
 -1      1879 2.51912E+01-1.27495E-01-1.38892E-02-1.86758E+00 5.44096E-15-1.12341E-14
 -1      1880 2.45942E+01 4.47704E-02 3.30312E-03-1.89883E+00-1.05280E-14-1.90811E-14
 -1      1881 2.41686E+01-3.82956E-01-1.77062E-02-2.30126E+00 3.73304E-14 8.58575E-14
 -1      1882 2.41967E+01 1.43239E-01 1.58704E-03-1.81093E+00-1.52823E-14-2.65621E-14
 -1      1883 2.36189E+01 2.07849E-01 6.60014E-04-1.71522E+00 1.87515E-14-9.19291E-14
 -1      1884 2.32723E+01 1.20945E-01-1.07839E-02-2.28144E+00 5.76492E-15-4.16347E-14
 -1      1885 2.33141E+01 2.35575E-01 9.90394E-03-1.55518E+00-4.79968E-14-3.08920E-14
 -1      1886 2.28093E+01 2.43061E-01 7.86498E-04-1.41932E+00-1.18684E-13-6.20259E-14
 -1      1887 2.25889E+01 3.22614E-01-6.37247E-03-1.99898E+00-2.84365E-15 1.53317E-14
 -1      1888 2.25647E+01 2.37788E-01 1.27976E-02-1.25019E+00-8.89011E-14-2.92383E-14
 -1      1889 2.21501E+01 2.21593E-01 1.49037E-03-1.11760E+00-3.51186E-14 2.70364E-14
 -1      1890 2.20422E+01 3.57460E-01-4.13850E-03-1.63647E+00-4.04776E-14-2.22065E-14
 -1      1891 2.19507E+01 2.04663E-01 1.25287E-02-9.66881E-01 4.58097E-15-1.41654E-14
 -1      1892 2.16234E+01 1.82099E-01 1.94357E-03-8.54151E-01 1.25479E-13 1.69549E-14
 -1      1893 2.15954E+01 3.19973E-01-3.12535E-03-1.28620E+00 1.93673E-14-9.15586E-14
 -1      1894 2.14614E+01 1.63519E-01 1.08389E-02-7.30221E-01 2.95037E-13 8.66017E-15
 -1      1895 2.12097E+01 1.42047E-01 2.05394E-03-6.40590E-01 3.41658E-13 1.12226E-14
 -1      1896 2.12305E+01 2.60846E-01-2.63680E-03-9.85224E-01 2.55720E-13-1.72327E-13
 -1      1897 2.10798E+01 1.25659E-01 8.77113E-03-5.43023E-01 1.67985E-13-1.30321E-13
 -1      1898 2.08896E+01 1.07751E-01 1.93325E-03-4.74259E-01 7.66748E-16-1.03387E-13
 -1      1899 2.09360E+01 2.02676E-01-2.31073E-03-7.41845E-01 1.71468E-13-2.62148E-13
 -1      1900 2.07870E+01 9.45391E-02 6.82793E-03-3.99339E-01 1.52530E-14-1.53671E-13
 -1      1901 2.06452E+01 8.04825E-02 1.69756E-03-3.47613E-01 1.05366E-13 1.52953E-14
 -1      1902 2.07017E+01 1.53419E-01-2.01377E-03-5.51711E-01-4.71520E-15-2.71374E-13
 -1      1903 2.05653E+01 7.03514E-02 5.21121E-03-2.90922E-01 1.31927E-13 5.05021E-15
 -1      1904 2.04605E+01 5.95027E-02 1.33377E-03-2.52430E-01 6.50795E-14 3.52962E-14
 -1      1905 2.05182E+01 1.14432E-01-1.73115E-03-4.06184E-01 1.81757E-13-1.50384E-13
 -1      1906 2.03963E+01 5.12750E-02 3.83229E-03-2.07988E-01-1.49936E-13 1.20540E-13
 -1      1907 2.03172E+01 4.31421E-02 1.09797E-03-1.78453E-01-3.53557E-13 4.29404E-14
 -1      1908 2.03738E+01 8.44417E-02-1.25178E-03-2.94125E-01-5.18191E-14-1.31664E-13
 -1      1909 2.02718E+01 3.76509E-02 2.87765E-03-1.47356E-01-4.31224E-13 1.03714E-13
 -1      1910 2.02177E+01 3.16710E-02 9.19791E-04-1.26752E-01-2.91384E-13 1.72313E-14
 -1      1911 2.02642E+01 6.12699E-02-1.17818E-03-2.10165E-01-3.69813E-13 9.54034E-14
 -1      1912 2.01837E+01 2.74646E-02 2.09185E-03-1.03670E-01-8.65722E-14 6.51206E-14
 -1      1913 2.01452E+01 2.31263E-02 7.32888E-04-8.86144E-02-1.08380E-13 6.11616E-14
 -1      1914 2.01845E+01 4.49143E-02-9.33068E-04-1.49633E-01-1.85007E-13 2.56815E-13
 -1      1915 2.01203E+01 1.99864E-02 1.52903E-03-7.16139E-02-1.33712E-13 1.40364E-13
 -1      1916 2.00935E+01 1.67793E-02 5.71999E-04-6.06565E-02-3.90137E-14 1.68954E-13
 -1      1917 2.01257E+01 3.27315E-02-7.33866E-04-1.04809E-01-1.30820E-13 1.34518E-13
 -1      1918 2.00755E+01 1.44487E-02 1.10963E-03-4.82223E-02-1.34037E-13 1.18261E-13
 -1      1919 2.00572E+01 1.20819E-02 4.41779E-04-4.03046E-02-1.28250E-13 1.13799E-13
 -1      1920 2.00830E+01 2.37063E-02-5.69545E-04-7.18276E-02-1.06984E-13 2.03335E-13
 -1      1921 2.00446E+01 1.03546E-02 7.97637E-04-3.12859E-02-4.58100E-14-1.54788E-14
 -1      1922 2.00325E+01 8.61201E-03 3.37524E-04-2.56177E-02 1.49372E-13-1.97386E-13
 -1      1923 2.00526E+01 1.70319E-02-4.35885E-04-4.77412E-02-1.81751E-13-8.40411E-14
 -1      1924 2.00238E+01 7.33446E-03 5.66146E-04-1.91467E-02 1.03609E-13-3.17778E-13
 -1      1925 2.00162E+01 6.05482E-03 2.54638E-04-1.51394E-02 9.27413E-15-3.70674E-13
 -1      1926 2.00315E+01 1.21060E-02-3.28716E-04-3.03166E-02 3.94764E-14-3.10692E-13
 -1      1927 2.00106E+01 5.11124E-03 3.94805E-04-1.05638E-02 3.03834E-14-2.19719E-13
 -1      1928 2.00061E+01 4.17208E-03 1.88545E-04-7.78100E-03 7.57277E-14-1.49421E-13
 -1      1929 2.00174E+01 8.47814E-03-2.43767E-04-1.78668E-02 1.72427E-13-1.88898E-13
 -1      1930 2.00026E+01 3.47287E-03 2.68158E-04-4.61547E-03 1.73295E-13-8.26642E-14
 -1      1931 2.00004E+01 2.77833E-03 1.34770E-04-2.73857E-03 2.30621E-13 2.67472E-14
 -1      1932 2.00083E+01 5.80546E-03-1.77042E-04-9.12565E-03 1.68791E-13 8.19846E-14
 -1      1933 1.99984E+01 2.25131E-03 1.74444E-04-6.29683E-04 1.30331E-13 3.31116E-14
 -1      1934 1.99977E+01 1.72250E-03 8.91439E-05 5.65035E-04 7.24833E-14 8.56956E-14
 -1      1935 2.00029E+01 3.81936E-03-1.24923E-04-3.15734E-03 2.80553E-13 9.92906E-14
 -1      1936 1.99968E+01 1.30431E-03 1.05123E-04 1.86331E-03 4.19581E-15 8.62024E-14
 -1      1937 1.99970E+01 8.70675E-04 5.01578E-05 2.51636E-03 4.61141E-14-6.47931E-14
 -1      1938 2.00000E+01 2.29852E-03-8.40017E-05 7.09219E-04-1.13444E-14-1.80019E-13
 -1      1939 1.99967E+01 4.90630E-04 5.41540E-05 3.16286E-03-5.52351E-14-3.70960E-14
 -1      1940 1.99975E+01 7.68431E-05 1.53019E-05 3.33540E-03-1.87516E-13-8.28222E-14
 -1      1941 1.99988E+01 1.05019E-03-4.98831E-05 2.92222E-03-6.72835E-14-2.15613E-13
 -1      1942 1.99976E+01-3.05055E-04 3.07149E-05 3.37999E-03-2.86821E-13 2.05768E-14
 -1      1943 1.99984E+01-7.88335E-04-1.43726E-05 3.09391E-03-3.58795E-13 4.23026E-14
 -1      1944 1.99987E+01-1.92142E-04-2.93648E-05 3.76980E-03-2.03684E-13-9.05777E-14
 -1      1945 1.99988E+01-1.28902E-03 2.61542E-05 2.38249E-03-3.19182E-13 8.40358E-14
 -1      1946 1.97543E+01 1.26013E-01 1.06793E-02 1.93196E-02 1.26534E-13 2.91968E-13
 -1      1947 1.98260E+01 1.70523E-01 1.73928E-02 1.21070E-01 1.21515E-13 3.58978E-13
 -1      1948 1.97143E+01 7.37423E-02 7.22941E-03-1.44050E-01 1.07191E-13 2.56281E-13
 -1      1949 1.96975E+01 9.75463E-02 1.23212E-02-8.75369E-02 1.26317E-13 2.90976E-13
 -1      1950 1.99513E+01 1.76184E-01-5.31013E-03 3.10413E-03 1.53962E-13 1.40393E-13
 -1      1951 1.97886E+01 4.37731E-02 4.65482E-03-2.42611E-01 1.32463E-13 1.78583E-13
 -1      1952 1.97156E+01 5.79251E-02 6.65446E-03-2.09142E-01 1.21901E-13 2.38383E-13
 -1      1953 1.98987E+01 1.01839E-01-4.92108E-03-1.97969E-01 1.55482E-13 1.17447E-13
 -1      1954 1.99362E+01 2.29314E-02 2.81948E-03-2.99645E-01 9.16811E-14 1.20861E-13
 -1      1955 1.98304E+01 3.30630E-02 3.34255E-03-2.80938E-01 1.15400E-13 1.55156E-13
 -1      1956 1.99469E+01 5.79892E-02-3.75982E-03-3.19612E-01 1.51514E-13 6.30636E-14
 -1      1957 2.01263E+01 4.53743E-03 1.19856E-03-3.25288E-01 6.66028E-14 7.34543E-14
 -1      1958 2.00044E+01 1.39124E-02 1.41602E-03-3.18614E-01 7.70400E-14 1.09098E-13
 -1      1959 2.00609E+01 2.64636E-02-2.65509E-03-3.88777E-01 1.07021E-13 1.59185E-14
 -1      1960 2.03338E+01-1.57616E-02-5.33291E-04-3.21064E-01 1.27452E-14 7.90004E-14
 -1      1961 2.02099E+01-4.97513E-03 1.55404E-04-3.26863E-01 5.23399E-14 9.51476E-14
 -1      1962 2.02161E+01-2.71782E-03-1.65684E-03-4.16261E-01 5.81807E-14 1.37950E-14
 -1      1963 2.05343E+01-4.07873E-02-2.50566E-03-2.82887E-01 2.41909E-14 6.11065E-14
 -1      1964 2.04229E+01-2.72307E-02-7.98499E-04-3.03644E-01 1.64580E-14 9.88792E-14
 -1      1965 2.03919E+01-3.58455E-02-6.92827E-04-4.02735E-01 1.67107E-14 2.81559E-14
 -1      1966 2.07017E+01-7.14746E-02-4.66202E-03-2.03611E-01 4.80117E-14 5.20187E-14
 -1      1967 2.06190E+01-5.48895E-02-1.61311E-03-2.42744E-01 3.73729E-14 5.31029E-14
 -1      1968 2.05686E+01-7.65723E-02 3.52298E-04-3.42425E-01 3.53311E-14 1.21496E-14
 -1      1969 2.08068E+01-1.05732E-01-6.71907E-03-7.65574E-02 7.16419E-14 6.19800E-14
 -1      1970 2.07706E+01-8.76243E-02-2.35416E-03-1.36728E-01 8.22532E-14 8.41473E-14
 -1      1971 2.07247E+01-1.25111E-01 1.58346E-03-2.26655E-01 6.00559E-14 2.23644E-14
 -1      1972 2.08191E+01-1.37001E-01-8.13811E-03 9.91577E-02 5.48303E-15 1.82040E-14
 -1      1973 2.08469E+01-1.21387E-01-3.02251E-03 1.85845E-02 4.69859E-14 4.64271E-14
 -1      1974 2.08358E+01-1.76378E-01 3.04222E-03-4.88754E-02 7.08179E-14 8.21128E-14
 -1      1975 2.07120E+01-1.53525E-01-8.19382E-03 3.11615E-01-5.27434E-14 1.01388E-13
 -1      1976 2.08164E+01-1.47128E-01-3.55810E-03 2.17713E-01-6.60071E-14 5.01243E-14
 -1      1977 2.08750E+01-2.18071E-01 4.62610E-03 1.88029E-01-4.90320E-14 6.16793E-14
 -1      1978 2.04717E+01-1.40090E-01-6.24300E-03 5.29444E-01-4.21915E-14 2.40141E-13
 -1      1979 2.06545E+01-1.50979E-01-3.81699E-03 4.38260E-01-2.46981E-15 2.23035E-13
 -1      1980 2.08160E+01-2.30582E-01 5.97273E-03 4.62763E-01-9.92002E-14 1.29401E-13
 -1      1981 2.01094E+01-8.40788E-02-2.19018E-03 7.00255E-01-5.11193E-14 1.53343E-13
 -1      1982 2.03547E+01-1.17910E-01-3.53204E-03 6.36366E-01-1.59282E-14 1.83032E-13
 -1      1983 2.06416E+01-1.91568E-01 6.36021E-03 7.28287E-01-3.46945E-18 1.84589E-13
 -1      1984 1.96717E+01 1.45747E-02 3.09155E-03 7.60485E-01 1.37123E-14 9.72443E-14
 -1      1985 1.99428E+01-3.99951E-02-2.29016E-03 7.50985E-01-5.31830E-14 9.06679E-14
 -1      1986 2.03563E+01-8.70409E-02 4.85568E-03 9.12845E-01 3.07154E-15 1.40826E-13
 -1      1987 1.92425E+01 1.34793E-01 7.79004E-03 6.59613E-01 1.10063E-13 4.73384E-14
 -1      1988 1.94862E+01 7.32189E-02 2.92402E-04 7.22284E-01 1.08022E-13 3.27759E-14
 -1      1989 1.99998E+01 7.39363E-02 9.47825E-04 9.37155E-01 8.83339E-14 1.89263E-14
 -1      1990 1.89269E+01 2.36320E-01 1.00314E-02 3.91300E-01 7.19425E-14 7.32136E-14
 -1      1991 1.90865E+01 1.89967E-01 4.07533E-03 5.21808E-01 1.06438E-13 1.04988E-13
 -1      1992 1.96513E+01 2.50852E-01-4.61242E-03 7.49053E-01 9.61648E-14-1.57873E-14
 -1      1993 1.88168E+01 2.77562E-01 9.17370E-03 1.14896E-02 2.67997E-14 1.03727E-14
 -1      1994 1.88509E+01 2.66208E-01 8.15852E-03 1.79065E-01 1.78607E-14 5.43936E-14
 -1      1995 1.94116E+01 3.81633E-01-9.48760E-03 3.61695E-01 7.82829E-14 3.54122E-14
 -1      1996 1.89510E+01 2.40321E-01 6.13630E-03-3.75940E-01 4.82817E-14-1.20251E-14
 -1      1997 1.88490E+01 2.68906E-01 1.07572E-02-2.18071E-01 1.09643E-14 5.42788E-14
 -1      1998 1.93621E+01 4.13186E-01-1.08030E-02-1.32835E-01 2.53643E-14 1.53805E-13
 -1      1999 1.92956E+01 1.41998E-01 2.61433E-03-6.64205E-01 9.22890E-14 4.98074E-14
 -1      2000 1.90818E+01 1.97382E-01 1.03098E-02-5.57870E-01 1.03707E-13 4.29214E-14
 -1      2001 1.95231E+01 3.32186E-01-7.86666E-03-5.95031E-01 7.41217E-14 1.24941E-13
 -1      2002 1.97593E+01 2.37994E-02-1.22544E-04-7.90388E-01 8.81222E-14-3.61690E-15
 -1      2003 1.94832E+01 8.34337E-02 6.63316E-03-7.55117E-01 1.17183E-13 9.22214E-14
 -1      2004 1.98432E+01 1.73840E-01-2.56676E-03-9.01104E-01 8.94159E-14 1.91164E-13
 -1      2005 2.02340E+01-7.38449E-02-1.67314E-03-7.54144E-01 6.19745E-14-8.02717E-14
 -1      2006 1.99520E+01-2.90306E-02 1.18920E-03-7.83603E-01 9.54577E-14-3.24012E-14
 -1      2007 2.02272E+01-1.49679E-04 2.25706E-03-9.95027E-01 9.94606E-14 1.77875E-13
 -1      2008 2.06332E+01-1.29409E-01-2.23860E-03-6.02557E-01 4.26811E-14-1.04349E-13
 -1      2009 2.03914E+01-1.07539E-01-3.92105E-03-6.73767E-01 3.69275E-14-1.09837E-13
 -1      2010 2.05821E+01-1.35213E-01 5.01662E-03-8.98053E-01 3.46379E-14 1.26982E-13
 -1      2011 2.09105E+01-1.42611E-01-2.23872E-03-3.99164E-01-1.17525E-13-1.75207E-13
 -1      2012 2.07360E+01-1.41515E-01-7.22996E-03-4.85625E-01-4.08076E-14-1.70901E-13
 -1      2013 2.08475E+01-2.05877E-01 5.61867E-03-6.79806E-01 3.68698E-14 1.44261E-13
 -1      2014 2.10580E+01-1.25945E-01-1.96012E-03-1.98143E-01-4.31517E-14-1.75320E-13
 -1      2015 2.09575E+01-1.38202E-01-8.34300E-03-2.79180E-01-8.08464E-14-2.44782E-13
 -1      2016 2.10020E+01-2.15819E-01 4.82535E-03-4.18975E-01-4.60461E-14-5.46590E-14
 -1      2017 2.10928E+01-9.47312E-02-1.55675E-03-3.27073E-02-9.88359E-14-1.12267E-13
 -1      2018 2.10586E+01-1.12527E-01-7.69070E-03-9.67687E-02-5.62033E-14-1.29942E-13
 -1      2019 2.10535E+01-1.84965E-01 3.48458E-03-1.76119E-01-1.20531E-13-8.08600E-14
 -1      2020 2.10436E+01-6.10055E-02-1.10483E-03 8.43532E-02-5.59002E-14-1.86893E-13
 -1      2021 2.10604E+01-7.86983E-02-6.02953E-03 4.08038E-02-8.08962E-14-1.36874E-13
 -1      2022 2.10245E+01-1.35684E-01 2.14751E-03 1.53216E-02-6.00800E-14-3.66296E-14
 -1      2023 2.09406E+01-3.17931E-02-6.63390E-04 1.54418E-01 4.71021E-15-1.24582E-13
 -1      2024 2.09910E+01-4.63715E-02-4.05579E-03 1.29745E-01-2.89924E-14-2.29154E-13
 -1      2025 2.09410E+01-8.48707E-02 1.04991E-03 1.45318E-01-1.95562E-14-7.22950E-14
 -1      2026 2.08099E+01-9.87462E-03-2.73912E-04 1.86163E-01 1.33450E-14-4.10818E-14
 -1      2027 2.08784E+01-2.03675E-02-2.23526E-03 1.76315E-01 1.65102E-14-6.80889E-14
 -1      2028 2.08267E+01-4.19825E-02 2.44946E-04 2.18831E-01-2.07340E-14-3.16382E-14
 -1      2029 2.06712E+01 4.65545E-03 3.70304E-05 1.90450E-01-3.97610E-14-1.25341E-13
 -1      2030 2.07458E+01-1.98613E-03-7.95640E-04 1.90868E-01 4.07861E-15-8.89461E-14
 -1      2031 2.07001E+01-1.04462E-02-2.93640E-04 2.47840E-01-2.33436E-14 4.86805E-14
 -1      2032 2.05378E+01 1.30115E-02 2.59591E-04 1.77365E-01-2.24879E-13 7.95131E-14
 -1      2033 2.06102E+01 9.45363E-03 2.07664E-04 1.84023E-01-1.35996E-13-5.76130E-14
 -1      2034 2.05742E+01 1.00211E-02-6.18429E-04 2.45833E-01-1.54671E-13 8.71094E-14
 -1      2035 2.04177E+01 1.68022E-02 3.98188E-04 1.54947E-01-8.34933E-14 1.20925E-13
 -1      2036 2.04830E+01 1.54474E-02 8.18078E-04 1.64744E-01-1.56450E-13 8.69498E-14
 -1      2037 2.04576E+01 2.14355E-02-7.83582E-04 2.24803E-01-1.89023E-13 8.22357E-14
 -1      2038 2.03147E+01 1.75415E-02 4.66342E-04 1.28941E-01 1.35912E-13-1.47586E-14
 -1      2039 2.03706E+01 1.76072E-02 1.12072E-03 1.39727E-01 4.81247E-14 5.63336E-14
 -1      2040 2.03549E+01 2.62669E-02-8.36133E-04 1.94069E-01 7.74252E-14 2.50228E-14
 -1      2041 2.02299E+01 1.64492E-02 4.81258E-04 1.03063E-01 1.56596E-13-3.75787E-14
 -1      2042 2.02756E+01 1.73268E-02 1.20681E-03 1.13492E-01 2.51960E-13-3.20487E-14
 -1      2043 2.02679E+01 2.67725E-02-8.14095E-04 1.60165E-01 1.85479E-13-1.98317E-14
 -1      2044 2.01623E+01 1.44136E-02 4.59873E-04 7.94526E-02 9.09464E-14-2.05974E-13
 -1      2045 2.01984E+01 1.56723E-02 1.15579E-03 8.87858E-02 8.92549E-14-1.31517E-13
 -1      2046 2.01967E+01 2.47389E-02-7.46789E-04 1.27240E-01 2.04543E-13-4.78846E-14
 -1      2047 2.01102E+01 1.20297E-02 4.16641E-04 5.91305E-02 6.41929E-14-2.79449E-13
 -1      2048 2.01377E+01 1.33892E-02 1.02888E-03 6.70465E-02 4.21094E-14-2.11147E-13
 -1      2049 2.01402E+01 2.14487E-02-6.55853E-04 9.76208E-02 8.71716E-14-7.84929E-14
 -1      2050 2.00713E+01 9.66355E-03 3.62684E-04 4.23838E-02-3.65576E-14-3.87757E-13
 -1      2051 2.00915E+01 1.09578E-02 8.69179E-04 4.88283E-02 1.98445E-14-4.23230E-13
 -1      2052 2.00965E+01 1.77488E-02-5.56472E-04 7.23520E-02 1.07548E-13-3.86303E-13
 -1      2053 2.00431E+01 7.51580E-03 3.05788E-04 2.90618E-02-9.32063E-14-3.67211E-13
 -1      2054 2.00574E+01 8.65920E-03 7.04471E-04 3.41340E-02 1.71104E-14-4.13207E-13
 -1      2055 2.00637E+01 1.41508E-02-4.58632E-04 5.16534E-02-4.68199E-14-6.88158E-13
 -1      2056 2.00236E+01 5.67556E-03 2.50826E-04 1.87851E-02 1.42454E-13-4.51144E-13
 -1      2057 2.00333E+01 6.63573E-03 5.50925E-04 2.26594E-02-3.20979E-14-3.08216E-13
 -1      2058 2.00399E+01 1.09272E-02-3.68317E-04 3.52582E-02-4.43764E-15-6.61634E-13
 -1      2059 2.00108E+01 4.16076E-03 2.00287E-04 1.10855E-02 8.83440E-14-4.48951E-13
 -1      2060 2.00168E+01 4.93836E-03 4.16501E-04 1.39599E-02 1.11883E-13-4.77527E-13
 -1      2061 2.00232E+01 8.19035E-03-2.88559E-04 2.26542E-02 7.90577E-14-4.07445E-13
 -1      2062 2.00030E+01 2.94665E-03 1.54878E-04 5.49336E-03 7.22882E-14-4.35187E-13
 -1      2063 2.00064E+01 3.56149E-03 3.03731E-04 7.55834E-03 1.09912E-13-3.66653E-13
 -1      2064 2.00120E+01 5.95200E-03-2.20371E-04 1.32429E-02 7.10341E-14-4.18407E-13
 -1      2065 1.99988E+01 1.98403E-03 1.13977E-04 1.59025E-03 9.53343E-14-3.34329E-13
 -1      2066 2.00003E+01 2.46680E-03 2.11899E-04 3.01011E-03 5.89315E-14-3.05457E-13
 -1      2067 2.00049E+01 4.16432E-03-1.63306E-04 6.44050E-03-4.56456E-16-2.30370E-13
 -1      2068 1.99971E+01 1.20654E-03 7.62939E-05-9.60362E-04-2.36817E-13-2.59359E-15
 -1      2069 1.99974E+01 1.59625E-03 1.38786E-04-5.96178E-05 5.20164E-14-1.80995E-13
 -1      2070 2.00009E+01 2.74364E-03-1.16417E-04 1.73534E-03-3.49533E-14-2.53884E-14
 -1      2071 1.99970E+01 5.30849E-04 4.15029E-05-2.38937E-03-3.22951E-13-1.59462E-13
 -1      2072 1.99965E+01 8.74837E-04 8.24122E-05-1.93194E-03-2.84111E-13-1.25040E-13
 -1      2073 1.99990E+01 1.58044E-03-7.84355E-05-1.27654E-03-2.08901E-13-2.83308E-14
 -1      2074 1.99978E+01-1.42124E-04 1.75370E-05-2.79865E-03-1.93623E-13-4.30338E-14
 -1      2075 1.99970E+01 1.99009E-04 4.30735E-05-2.77674E-03-3.40642E-13-1.58321E-13
 -1      2076 1.99985E+01 5.35095E-04-4.94085E-05-2.88224E-03-3.39234E-13-5.28319E-14
 -1      2077 1.99988E+01-7.81066E-04 3.44309E-06-2.25246E-03 1.68048E-13-2.95241E-14
 -1      2078 1.99979E+01-4.09982E-04 2.70173E-05-2.66324E-03 2.88846E-14-3.55129E-14
 -1      2079 1.99987E+01-3.65144E-04-2.30287E-05-3.23938E-03-2.23169E-13 5.01920E-14
 -1      2080 1.99991E+01-1.21949E-03-9.62251E-06-2.61008E-03 8.15818E-14 2.81833E-13
 -1      2081 2.00004E+01-3.64799E-03-8.44832E-06-1.90168E-03-2.36900E-13 1.94117E-13
 -1      2082 2.00003E+01-3.05355E-03 2.36099E-05-2.20992E-03-1.88958E-13 5.54437E-14
 -1      2083 2.00003E+01-3.06015E-03 7.42294E-06-2.55018E-03-8.89394E-14-2.73344E-13
 -1      2084 2.00000E+01-2.33813E-03-1.40345E-05-2.75364E-03 7.62022E-14-7.51049E-13
 -1      2085 2.00005E+01-1.37404E-03 3.15607E-07-2.68758E-03-1.14862E-14-2.30829E-13
 -1      2086 1.99995E+01-1.94526E-03 2.06614E-05-2.75446E-03-6.29782E-14-2.23013E-13
 -1      2087 2.00003E+01-3.91565E-03-1.17805E-05-1.23713E-03-4.27786E-13-3.56571E-13
 -1      2088 2.00004E+01-3.49223E-03 3.45371E-05-1.52590E-03-4.94108E-13 3.67260E-14
 -1      2089 2.00006E+01-1.24501E-03-4.25210E-06-1.87447E-03-1.85234E-13-1.35683E-13
 -1      2090 2.00001E+01-3.98025E-03-1.21753E-05-7.29783E-04-1.53377E-13 1.48412E-13
 -1      2091 2.00002E+01-3.70474E-03 3.07094E-05-9.42285E-04-3.59336E-13 1.99033E-14
 -1      2092 2.00005E+01-8.97558E-04 5.17044E-06-1.14909E-03-1.86664E-13 8.16749E-14
 -1      2093 2.00000E+01-3.96594E-03-8.34736E-06-4.29128E-04-1.18171E-13-1.39277E-14
 -1      2094 2.00001E+01-3.79709E-03 2.10092E-05-5.56333E-04-1.77221E-13 1.45071E-13
 -1      2095 2.00003E+01-5.20037E-04 1.44424E-05-6.57553E-04-4.03240E-14 1.03251E-13
 -1      2096 1.99999E+01-3.98468E-03 5.65310E-07-2.63849E-04-5.10465E-14 5.01047E-13
 -1      2097 2.00000E+01-3.88425E-03 9.25884E-06-3.47211E-04-1.80150E-13 1.67678E-13
 -1      2098 2.00001E+01-2.66062E-04 2.18917E-05-4.10122E-04-5.96321E-14 1.72051E-13
 -1      2099 2.00000E+01-4.08150E-03 1.31941E-05-9.52702E-05 5.46049E-14 1.79479E-13
 -1      2100 2.00000E+01-4.04354E-03-9.55066E-07-1.99687E-04-5.53273E-14 3.84827E-13
 -1      2101 2.00001E+01-2.46655E-04 2.39544E-05-2.89112E-04-2.01061E-13 4.44527E-13
 -1      2102 2.00002E+01-4.21419E-03 2.63664E-05 2.24553E-04-1.19495E-13-1.56778E-13
 -1      2103 2.00001E+01-4.27075E-03-7.22252E-06 3.78892E-05-1.85518E-13 1.47644E-13
 -1      2104 2.00002E+01-4.90191E-04 2.00639E-05-1.10744E-04-2.11349E-13-4.37920E-14
 -1      2105 2.00004E+01-4.26448E-03 3.59350E-05 7.78176E-04 1.21722E-13 1.15119E-13
 -1      2106 2.00003E+01-4.47384E-03-9.26628E-06 4.86522E-04-9.05003E-14-1.04304E-14
 -1      2107 2.00005E+01-9.25873E-04 1.19774E-05 2.91944E-04-1.13156E-13 3.66869E-14
 -1      2108 2.00005E+01-4.09185E-03 3.80911E-05 1.57276E-03 4.66051E-13 1.79662E-13
 -1      2109 2.00005E+01-4.51480E-03-7.57179E-06 1.18788E-03 3.41804E-13 2.81130E-13
 -1      2110 2.00007E+01-1.41810E-03-2.84709E-07 1.00905E-03 2.36752E-13 3.53542E-13
 -1      2111 2.00005E+01-3.58380E-03 2.71800E-05 2.43896E-03 2.83106E-13-2.41375E-13
 -1      2112 2.00005E+01-4.23580E-03-4.60363E-06 2.06325E-03 4.79298E-13-2.54998E-13
 -1      2113 2.00009E+01-1.79328E-03-1.00710E-05 1.99290E-03 3.98093E-13 8.64327E-14
 -1      2114 2.00001E+01-2.70112E-03-1.75925E-06 3.05048E-03-7.54576E-15 9.49089E-14
 -1      2115 2.00003E+01-3.55378E-03-2.87219E-06 2.85640E-03 1.26508E-13-2.28271E-13
 -1      2116 2.00006E+01-1.87170E-03-6.74617E-06 2.99636E-03 2.69437E-13-4.44834E-13
 -1      2117 1.98988E+01 1.87484E-01 1.36302E-02 2.39114E-01 1.52054E-13 4.20561E-13
 -1      2118 2.01157E+01 2.62509E-01 1.73047E-02 4.22405E-01 1.84807E-13 4.90098E-13
 -1      2119 2.03075E+01 4.22414E-01-1.06202E-03 6.31316E-01 2.27762E-13 3.32017E-13
 -1      2120 2.00833E+01 2.79170E-01-4.36775E-03 2.79509E-01 1.86766E-13 2.23579E-13
 -1      2121 9.67953E+00-5.10591E+00-1.62840E-01 6.70194E+00 4.78506E-14 5.54327E-13
 -1      2122 6.31662E+00-6.85179E+00-4.22044E-01 5.52302E+00-6.76126E-14 4.14321E-13
 -1      2123 2.65250E+01-2.42474E-01 1.59773E-01 6.78476E+00 5.14810E-13 1.31228E-13
 -1      2124 2.16045E+01-2.18007E+00-1.90765E-01 6.46048E+00 3.51275E-13 3.69593E-13
 -1      2125 4.36449E-01-6.85669E+00-3.04183E-01 1.61219E+00-5.80092E-14 2.16882E-13
 -1      2126 2.48910E-01-7.32687E+00-3.71767E-01 7.32607E-02-1.08885E-13 2.60458E-13
 -1      2127 1.81661E+01-3.09533E+00 1.95059E-02 7.43981E+00 1.09357E-13 6.14897E-13
 -1      2128 1.37489E+01-5.05420E+00-3.02643E-01 6.65051E+00-4.47420E-14 5.76289E-13
 -1      2129 1.95555E+01 4.05958E+00-2.54232E-02-1.58049E+00-2.43106E-13-3.52546E-13
 -1      2130 1.96967E+01 3.97869E+00-2.36940E-02-1.83311E+00-2.77224E-13-2.87246E-13
 -1      2131 2.00182E+01 3.27590E+00-1.83648E-02-1.79296E+00-2.96095E-13-2.31305E-13
 -1      2132 1.97119E+01 3.65737E+00-5.88553E-03-1.39476E+00-2.38230E-13-3.49094E-13
 -1      2133 3.38678E+01 2.60422E+00 2.79794E-01 4.86361E+00 5.49109E-13-7.97140E-14
 -1      2134 2.95066E+01 9.77714E-01-2.90729E-02 5.19632E+00 5.54556E-13 2.37588E-14
 -1      2135 3.92016E+01 5.46861E+00 3.88463E-01 2.96871E+00 7.56201E-13-2.56906E-13
 -1      2136 3.58150E+01 4.41036E+00 1.42682E-01 3.84264E+00 7.54480E-13 1.99840E-15
 -1      2137 4.13856E+01 7.21877E+00 3.56309E-01 7.24373E-01 7.28695E-13-4.65544E-13
 -1      2138 4.03302E+01 6.69570E+00 3.36076E-01 2.14799E+00 7.70939E-13-2.88158E-13
 -1      2139 4.07775E+01 7.15783E+00 3.09799E-01-1.22925E+00 7.19758E-13-5.26135E-13
 -1      2140 4.11000E+01 7.54861E+00 3.37274E-01 6.22679E-02 6.99940E-13-4.14835E-13
 -1      2141 3.64683E+01 5.38713E+00 1.24784E-01-2.17912E+00 8.26283E-13-6.04017E-13
 -1      2142 4.02108E+01 6.53004E+00 4.84909E-01-1.86966E+00 7.86426E-13-5.91971E-13
 -1      2143 3.61799E+01 7.62082E+00 2.75684E-01 3.58662E-02 7.93920E-13-3.32789E-13
 -1      2144 3.12648E+01 1.53588E+00 5.34635E-02-4.36383E+00 7.48165E-13-7.73936E-13
 -1      2145 3.46232E+01 2.95448E+00 9.26165E-02-3.24787E+00 7.68496E-13-7.41129E-13
 -1      2146 2.33385E+01-1.75484E+00-1.39052E-01-6.26697E+00 6.09457E-13-9.07496E-13
 -1      2147 2.82393E+01-1.60906E-01 1.13668E-01-6.13615E+00 6.38933E-13-8.08631E-13
 -1      2148 1.55026E+01-4.67000E+00-2.84907E-01-6.66797E+00 4.31433E-13-7.88980E-13
 -1      2149 2.00397E+01-2.72260E+00 3.71846E-02-7.34801E+00 5.34905E-13-8.60922E-13
 -1      2150 7.79989E+00-6.56133E+00-3.77372E-01-5.90458E+00 3.10640E-13-7.89674E-13
 -1      2151 1.13937E+01-4.81380E+00-1.38347E-01-6.94314E+00 4.70068E-13-8.70845E-13
 -1      2152 2.31751E+00-7.37829E+00-4.00772E-01-3.85281E+00-5.44009E-15-8.98615E-13
 -1      2153 4.65682E+00-6.27598E+00-2.43336E-01-5.28053E+00 2.33202E-13-8.82988E-13
 -1      2154-1.34130E-01-8.17396E+00-4.86905E-01-6.12674E-01-7.18401E-14-6.28775E-13
 -1      2155 3.90869E-01-7.48784E+00-3.85563E-01-2.08169E+00 9.95315E-14-8.08686E-13
 -1      2156 1.68848E+00-7.63283E+00-4.08569E-01 2.52433E+00-2.50133E-13-6.03517E-13
 -1      2157 3.70044E-01-8.15934E+00-4.94587E-01 1.07833E+00-8.82489E-14-4.78784E-13
 -1      2158 7.98627E+00-6.41239E+00-2.84015E-01 5.51578E+00-1.60982E-13-5.52558E-13
 -1      2159 4.11371E+00-7.94653E+00-5.37524E-01 3.73569E+00-1.98064E-13-6.52811E-13
 -1      2160 4.65949E+00-5.65323E+00-1.69826E-01 4.20146E+00 5.98965E-14-6.10734E-13
 -1      2161 1.80194E+01-4.94119E+00-5.35092E-02 6.39190E+00-4.25548E-13-5.60690E-13
 -1      2162 1.38844E+01-6.35780E+00-1.78310E-01 5.97768E+00-2.13218E-13-4.59750E-13
 -1      2163 2.64872E+01-2.67715E+00 7.28221E-02 5.76048E+00-5.05318E-13-6.84841E-13
 -1      2164 2.11304E+01-4.62262E+00-3.09056E-01 5.43017E+00-4.44866E-13-6.27387E-13
 -1      2165 2.23036E+01-6.11311E+00-8.88902E-02 5.42185E+00-6.43929E-15-3.30097E-13
 -1      2166 3.55575E+01 7.78503E-01 2.95340E-01 3.91140E+00-6.43041E-13-5.24691E-13
 -1      2167 3.02086E+01-1.09122E+00-9.95422E-02 4.16787E+00-6.31162E-13-5.78981E-13
 -1      2168 4.17891E+01 4.28867E+00 4.92329E-01 1.72655E+00-8.84043E-13-3.50830E-14
 -1      2169 3.78718E+01 2.80782E+00 1.92823E-01 2.43799E+00-7.46680E-13-2.94098E-13
 -1      2170 4.44661E+01 6.65564E+00 5.63046E-01 2.44540E-01-8.10851E-13 2.62457E-13
 -1      2171 4.28094E+01 6.04449E+00 4.67001E-01 1.07822E+00-9.76941E-13 8.18234E-14
 -1      2172 4.17693E+01 6.99169E+00 2.88782E-01-3.10929E-01-5.78038E-13 3.60184E-13
 -1      2173 4.44921E+01 7.13301E+00 6.36444E-01 1.82475E-01-6.04183E-13 2.75110E-13
 -1      2174 3.94690E+01 7.56345E+00 4.17757E-01-2.05256E-01-7.90812E-13 2.93834E-13
 -1      2175 3.80624E+01 3.14125E+00 1.21818E-01-6.71346E-01-5.62661E-13 4.41869E-13
 -1      2176 3.99307E+01 4.76147E+00 1.58160E-01 3.51294E-01-5.23026E-13 3.98626E-13
 -1      2177 3.24440E+01-3.75019E-01-6.05609E-02-2.93047E+00-4.88359E-13 4.42313E-13
 -1      2178 3.71793E+01 1.29977E+00 1.76256E-01-2.13491E+00-5.52655E-13 5.07261E-13
 -1      2179 3.57340E+01 1.60363E+00 2.70278E-01 1.54437E+00-4.32793E-13 1.32339E-13
 -1      2180 2.30449E+01-4.03584E+00-2.86902E-01-5.06387E+00-2.73781E-13 3.93185E-13
 -1      2181 2.87358E+01-2.20334E+00 6.05303E-02-5.24183E+00-3.66485E-13 2.84550E-13
 -1      2182 1.30320E+01-6.31091E+00-4.81923E-01-5.41771E+00-2.06946E-13 6.03961E-13
 -1      2183 1.81170E+01-4.41719E+00-1.40739E-01-6.38621E+00-2.68230E-13 6.76625E-13
 -1      2184 5.65236E+00-7.64808E+00-4.81677E-01-4.33116E+00-1.53877E-13 5.78815E-13
 -1      2185 9.19958E+00-6.33156E+00-2.84525E-01-5.51597E+00-2.42917E-13 5.28605E-13
 -1      2186 8.76304E-01-7.73880E+00-4.29448E-01-1.49719E+00-4.18832E-14 4.31100E-13
 -1      2187 2.54971E+00-6.93332E+00-3.19224E-01-3.08846E+00-1.95177E-13 7.07046E-13
 -1      2188 1.96266E+00-4.62356E+00-1.59022E-01-1.06879E+00-5.84532E-14 3.61711E-13
 -1      2189 3.39174E+00-6.75184E+00-3.20127E-01 4.62397E+00-1.80966E-14 2.88991E-13
 -1      2190 1.47056E+00-7.58682E+00-4.24363E-01 3.38285E+00-1.31117E-13 2.01172E-13
 -1      2191 1.99991E+01-1.47674E-03-4.67617E-06 3.13295E-03-3.20085E-13 1.49745E-13
 -1      2192 2.22826E+01-4.27325E+00 3.48383E-02 6.35851E+00-1.21403E-13 2.16799E-13
 -1      2193 2.08198E+01 1.11039E+00-1.96217E-02-1.51879E+00-2.98803E-13 2.78978E-13
 -1      2194 1.42722E+01-5.48757E+00-5.45915E-02 7.45078E+00-2.78666E-13 4.63882E-13
 -1      2195 2.91033E+01-1.32134E+00 1.51705E-01 4.09117E+00 2.10165E-13-3.19689E-13
 -1      2196 2.07245E+01 1.34201E+00-1.87620E-02-1.55249E+00-3.15794E-13 9.48599E-14
 -1      2197 1.99998E+01-1.16921E-03-1.08098E-05-3.16404E-03-8.32119E-14-2.59260E-13
 -1      2198 2.21103E+00-4.91370E+00-1.76914E-01 2.95651E+00-2.16216E-13 1.65756E-13
 -1      2199 1.99995E+01-2.09146E-03 6.15234E-06 3.26987E-03-3.39945E-13 4.08420E-13
 -1      2200 6.66894E+00-5.59754E+00-1.74084E-01 6.25682E+00-2.26485E-13 4.22523E-13
 -1      2201 1.99997E+01-1.20178E-03 8.78851E-06 3.68476E-03-5.66939E-14-2.18299E-14
 -1      2202 5.83635E+00-5.82967E+00-1.93095E-01-4.62906E+00-6.40599E-14 5.52780E-13
 -1      2203 1.37252E+01-6.46632E+00-1.78668E-01-6.22316E+00-1.38778E-15 5.00221E-13
 -1      2204 3.19623E+01-2.76051E+00 1.57962E-01-1.66113E+00-1.54238E-13 2.32425E-13
 -1      2205 3.75778E+01 5.66677E+00 1.87339E-01 1.45572E+00-5.55556E-13 1.83270E-13
 -1      2206 3.89675E+01 5.21700E+00 4.09326E-01-8.00729E-01-9.32310E-13 3.77365E-13
 -1      2207 2.98250E+01-3.68462E+00 7.50588E-02 3.06837E+00-2.27707E-13-2.36922E-13
 -1      2208 1.25298E+01-6.10617E+00-9.85382E-02 6.13082E+00-3.93019E-14-4.41341E-13
 -1      2209 1.18644E+01-5.25821E+00 1.26251E-01 6.38632E+00 2.19158E-13-3.98764E-13
 -1      2210 1.69228E+01-6.10808E+00-1.14724E-01 6.33960E+00 2.31148E-13-2.41605E-13
 -1      2211 1.23168E+00-5.44555E+00-2.50031E-01 5.25483E-01 8.01026E-14-6.48481E-13
 -1      2212 2.64089E+00-5.24578E+00-1.86222E-01-3.70436E+00-6.17839E-14-8.61200E-13
 -1      2213 8.19055E+00-5.61723E+00-1.35744E-01-6.61150E+00-2.11497E-14-8.14154E-13
 -1      2214 1.60686E+01-5.44618E+00-4.10751E-02-7.37444E+00 6.08957E-14-6.39933E-13
 -1      2215 2.38010E+01-3.95896E+00 6.90763E-02-5.92484E+00 1.23679E-13-5.60579E-13
 -1      2216 3.45867E+01 3.87931E+00 1.50028E-01-1.44909E+00 6.89976E-13-4.48364E-13
 -1      2217 3.29278E+01 4.39997E+00-1.72211E-01 5.58354E-01 6.36907E-13-1.77330E-13
 -1      2218 3.21338E+01 2.20011E+00 6.94167E-02-3.90969E-01 5.01682E-13-6.55587E-14
 -1      2219 3.73854E+01 8.37085E+00 3.44046E-01 9.92843E-02 7.66054E-13-3.27439E-13
 -1      2220 3.37419E+01 2.69604E+00 2.35906E-01 1.68500E+00 4.85459E-13-4.03400E-13
 -1      2221 3.66726E+01 6.49430E+00 3.40481E-01 5.86334E-01 7.57727E-13-3.94684E-13
 -1      2222 3.01300E+01-6.79651E-01 1.70345E-01-3.44868E+00 3.80751E-13-4.28269E-13
 -1      2223 3.59366E+01 7.55938E-01 2.67257E-01 3.99483E-01-5.55195E-13 1.80966E-13
 -1      2224 2.33094E+01-5.53044E+00 6.14315E-03-5.23205E+00 6.45040E-14 2.63900E-13
 -1      2225 1.94683E+01 3.65898E+00-1.12421E-02-5.21897E-01-7.42979E-14-4.12398E-13
 -1      2226 1.95216E+01 3.60670E+00-9.92438E-03-6.87297E-01-1.16992E-13-4.09022E-13
 -1      2227 1.95893E+01 3.50430E+00-1.32730E-02-8.31291E-01-1.52282E-13-4.02612E-13
 -1      2228 1.96745E+01 3.41370E+00-1.20274E-02-1.00670E+00-1.93430E-13-3.75555E-13
 -1      2229 1.97091E+01 3.19284E+00 1.31784E-03-6.83307E-01-1.22415E-13-3.72229E-13
 -1      2230 1.93988E+01 3.74696E+00-9.09800E-03 7.68573E-02 4.68195E-14-4.31621E-13
 -1      2231 1.93960E+01 3.74991E+00-9.47288E-03-8.15807E-02 2.07376E-14-4.25983E-13
 -1      2232 1.94432E+01 3.69385E+00-9.00140E-03 3.80423E-01 1.05687E-13-4.18263E-13
 -1      2233 1.94142E+01 3.72218E+00-1.01895E-02 2.18374E-01 6.59438E-14-4.24931E-13
 -1      2234 1.95510E+01 3.39561E+00-5.56655E-06 1.29830E-01 5.17366E-14-4.01574E-13
 -1      2235 1.95381E+01 3.57586E+00-9.79077E-03 6.90307E-01 1.65894E-13-3.90691E-13
 -1      2236 1.94835E+01 3.63121E+00-1.14403E-02 5.23562E-01 1.24283E-13-4.08521E-13
 -1      2237 1.96125E+01 3.31214E+00 1.80691E-04 4.04275E-01 1.03922E-13-3.90072E-13
 -1      2238 1.96916E+01 3.37498E+00-1.20905E-02 1.01943E+00 2.48946E-13-3.30042E-13
 -1      2239 1.96064E+01 3.46863E+00-1.32687E-02 8.40173E-01 2.01100E-13-3.65672E-13
 -1      2240 1.97292E+01 3.15046E+00 7.01897E-04 6.85727E-01 1.75364E-13-3.50673E-13
 -1      2241 1.99152E+01 3.06014E+00-1.72957E-02 1.35440E+00 2.96711E-13-2.52479E-13
 -1      2242 1.97934E+01 3.21203E+00-1.57385E-02 1.16866E+00 2.59926E-13-2.96268E-13
 -1      2243 1.99069E+01 2.89246E+00 2.21140E-03 9.69693E-01 2.53916E-13-2.93808E-13
 -1      2244 2.02284E+01 2.56668E+00-2.78070E-02 1.65235E+00 3.39992E-13-1.28422E-13
 -1      2245 2.00587E+01 2.82296E+00-1.84908E-02 1.48618E+00 3.13291E-13-2.01969E-13
 -1      2246 2.01499E+01 2.50792E+00 5.78276E-03 1.22953E+00 2.87936E-13-2.02047E-13
 -1      2247 2.06639E+01 1.80322E+00-2.58541E-02 1.77287E+00 3.39713E-13 1.08465E-13
 -1      2248 2.04367E+01 2.24053E+00-1.11428E-02 1.72630E+00 3.41811E-13-3.19605E-14
 -1      2249 2.04581E+01 1.94237E+00 1.36225E-02 1.39184E+00 3.18233E-13-6.66923E-14
 -1      2250 2.08736E+01 1.06994E+00-1.72413E-02 1.49053E+00 2.98008E-13 3.28142E-13
 -1      2251 2.07601E+01 1.53903E+00 5.01915E-04 1.68212E+00 3.23890E-13 2.00558E-13
 -1      2252 2.05985E+01 1.29450E+00 1.05912E-03 1.29641E+00 3.11437E-13 1.06157E-13
 -1      2253 2.05555E+01 7.51654E-01-9.00618E-04 1.00681E+00 2.72190E-13 2.90072E-13
 -1      2254 2.05296E+01 8.98814E-01 1.37946E-02-8.36246E-01-2.44301E-13 1.73954E-14
 -1      2255 2.03512E+01 6.83418E-01-2.44903E-03-5.08870E-01-2.12226E-13 5.02094E-15
 -1      2256 1.72910E+01-5.15953E+00-2.03733E-02 7.44182E+00-4.61631E-13 4.29108E-13
 -1      2257 1.35056E+01-5.07577E+00 5.60864E-02 7.31405E+00-3.80973E-13 3.21479E-13
 -1      2258 2.48912E+01-4.33159E+00-3.31013E-02 5.24538E+00-1.72251E-13-2.09249E-13
 -1      2259 2.15702E+01-5.11943E+00 3.47291E-02 6.06857E+00-4.15168E-13 8.25728E-14
 -1      2260 2.03045E+01 5.39718E-01 1.58819E-02-2.63972E-01-1.83659E-13 2.94306E-14
 -1      2261 2.02096E+01 4.30921E-01 2.85381E-03-6.24165E-02-1.49349E-13 7.26123E-15
 -1      2262 2.03833E+01 8.33729E-01-1.74868E-03-4.71545E-01-2.00966E-13-5.54009E-14
 -1      2263 2.01699E+01 3.61756E-01 1.04506E-02 1.14427E-01-1.35654E-13 1.90579E-14
 -1      2264 2.01510E+01 3.10460E-01 4.27408E-03 2.54088E-01-1.16829E-13-2.38605E-14
 -1      2265 2.02660E+01 5.42019E-01-4.33508E-03-1.65592E-02-1.56823E-13-3.67638E-14
 -1      2266 2.01354E+01 2.80709E-01 5.80445E-03 3.89861E-01-9.35300E-14-3.10671E-14
 -1      2267 2.01776E+01 2.63779E-01 5.30526E-03 5.00926E-01-8.92639E-14-1.62292E-14
 -1      2268 2.02031E+01 4.03358E-01-4.20540E-03 3.20392E-01-1.27435E-13-3.18454E-14
 -1      2269 2.01847E+01 2.58754E-01 2.67502E-03 6.17878E-01-7.42911E-14-1.50713E-14
 -1      2270 2.02765E+01 2.65313E-01 6.47362E-03 7.21201E-01-6.40044E-14-7.05676E-15
 -1      2271 2.01961E+01 3.53900E-01-3.31678E-03 5.91648E-01-8.95581E-14-4.35959E-14
 -1      2272 2.03006E+01 2.78136E-01 4.73964E-04 8.36201E-01-6.06060E-14 2.47155E-15
 -1      2273 2.04354E+01 3.02561E-01 7.83077E-03 9.46292E-01-5.02747E-14 2.10262E-14
 -1      2274 2.02349E+01 3.64679E-01-2.13627E-03 8.38252E-01-5.43129E-14-2.71444E-14
 -1      2275 2.04698E+01 3.28988E-01-1.24718E-03 1.07229E+00-3.40763E-14 3.17091E-15
 -1      2276 2.06446E+01 3.66658E-01 9.28275E-03 1.19952E+00-3.55113E-14 5.34238E-15
 -1      2277 2.03056E+01 4.20121E-01-8.34838E-04 1.09113E+00-5.09840E-14-3.82245E-14
 -1      2278 2.06830E+01 4.01503E-01-2.68163E-03 1.34618E+00-9.04147E-14-1.87428E-14
 -1      2279 2.08976E+01 4.44752E-01 1.05337E-02 1.49637E+00-1.07111E-13-1.44000E-14
 -1      2280 2.03946E+01 5.07263E-01 5.02796E-04 1.37344E+00-7.51686E-14-5.82932E-14
 -1      2281 2.09362E+01 4.78066E-01-3.62705E-03 1.66931E+00-9.95395E-14-5.77717E-15
 -1      2282 2.11939E+01 5.09990E-01 1.12171E-02 1.84049E+00-1.06678E-13 1.00225E-14
 -1      2283 2.04900E+01 6.05449E-01 1.58477E-03 1.70066E+00-1.00203E-13-7.76898E-14
 -1      2284 2.12422E+01 5.20148E-01-3.13187E-03 2.04791E+00-4.30673E-14 3.88488E-14
 -1      2285 2.15610E+01 5.03141E-01 1.08104E-02 2.23304E+00 3.99377E-14 6.47624E-14
 -1      2286 2.05893E+01 6.72078E-01 8.44176E-04 2.08883E+00-3.17152E-14 1.74055E-14
 -1      2287 2.16373E+01 4.38936E-01-2.27968E-04 2.44318E+00 8.60511E-14 3.77573E-14
 -1      2288 2.20104E+01 3.10200E-01 8.05116E-03 2.57743E+00 1.58294E-13 6.11570E-14
 -1      2289 2.07134E+01 6.15717E-01-1.43753E-03 2.51585E+00 4.67028E-14 6.65824E-14
 -1      2290 2.21979E+01 9.68682E-02 9.66366E-03 2.75997E+00 1.65424E-13 4.55779E-14
 -1      2291 2.26770E+01-2.40276E-01 4.10603E-03 2.76779E+00 1.78268E-13 8.40209E-14
 -1      2292 2.09360E+01 2.78241E-01-1.03199E-02 2.93077E+00 1.58238E-13 3.14382E-14
 -1      2293 2.31334E+01-6.94984E-01 3.40020E-02 2.83326E+00 2.16043E-13 9.97415E-14
 -1      2294 2.37720E+01-1.33068E+00-3.82015E-03 2.58285E+00 2.83652E-13 1.05588E-13
 -1      2295 2.14575E+01-5.70254E-01-2.81672E-02 3.24145E+00 2.23026E-13 3.19822E-14
 -1      2296 2.47614E+01-2.04122E+00 7.28605E-02 2.32850E+00 3.24726E-13 1.29746E-13
 -1      2297 2.55917E+01-2.83455E+00-7.75722E-03 1.66761E+00 2.80678E-13 2.35661E-13
 -1      2298 2.26645E+01-2.13933E+00-5.85247E-02 3.22738E+00 3.04486E-13 1.38466E-14
 -1      2299 2.72568E+01-3.53168E+00 5.53812E-02 8.30555E-01 2.59461E-13 3.65964E-13
 -1      2300 2.81656E+01-3.72645E+00-3.40011E-02-2.71487E-01 1.16941E-13 4.44901E-13
 -1      2301 2.50906E+01-3.95319E+00-6.58118E-02 2.38434E+00 3.58078E-13 1.23422E-13
 -1      2302 2.94418E+01-3.20208E+00-3.99360E-02 1.47697E+00-8.32147E-14 8.43145E-14
 -1      2303 2.84971E+01-3.62677E+00 2.10799E-02 2.81268E-01 2.41595E-13 6.51770E-14
 -1      2304 2.67243E+01-3.24805E+00-1.33771E-02-8.21307E-01 2.67099E-13 6.47451E-14
 -1      2305 2.58662E+01-2.56471E+00 7.70361E-02-1.67283E+00 2.38150E-13 4.46873E-14
 -1      2306 2.68039E+01-4.15220E+00-5.25667E-02-1.19104E+00 2.28590E-13 1.34999E-13
 -1      2307 2.46222E+01-1.85398E+00-2.02933E-02-2.17747E+00 2.46837E-13-1.91041E-14
 -1      2308 2.39497E+01-1.10417E+00 4.45934E-02-2.56445E+00 1.68409E-13 7.05859E-14
 -1      2309 2.39483E+01-2.77266E+00-6.91778E-02-2.68710E+00 2.33796E-13 1.03272E-13
 -1      2310 2.33060E+01-5.78018E-01-7.16663E-03-2.62199E+00 1.99320E-14 1.73618E-14
 -1      2311 2.28024E+01-1.20447E-01 1.79892E-02-2.68495E+00-3.97646E-14-3.65222E-14
 -1      2312 2.23284E+01-1.04415E+00-3.67148E-02-3.05411E+00 8.86270E-14 9.32327E-15
 -1      2313 2.25090E+01 1.53096E-01 2.23919E-03-2.54651E+00 1.40595E-14-9.04268E-14
 -1      2314 2.21231E+01 3.59259E-01 4.11668E-03-2.43693E+00 5.73693E-14-8.81662E-14
 -1      2315 2.15442E+01 2.46542E-02-1.50311E-02-2.89012E+00-4.99969E-14-1.64687E-13
 -1      2316 2.19921E+01 4.59177E-01 7.69832E-03-2.23032E+00-9.24000E-15-1.76160E-13
 -1      2317 2.16812E+01 5.15728E-01-1.42708E-03-2.05296E+00-1.05961E-14-1.38684E-13
 -1      2318 2.11765E+01 5.16866E-01-3.56052E-03-2.51329E+00-4.29595E-14-1.76354E-13
 -1      2319 2.16110E+01 5.24417E-01 1.00279E-02-1.84040E+00-5.25907E-14-1.51169E-13
 -1      2320 2.13537E+01 5.09533E-01-2.87027E-03-1.65419E+00-5.71555E-14-1.54666E-13
 -1      2321 2.09794E+01 6.58548E-01 1.12325E-03-2.08095E+00-1.20562E-14-2.64301E-13
 -1      2322 2.13009E+01 4.80064E-01 1.02321E-02-1.46274E+00-4.63796E-14-1.91510E-13
 -1      2323 2.10875E+01 4.38795E-01-2.76396E-03-1.29520E+00 7.00147E-14-2.32473E-13
 -1      2324 2.08382E+01 6.29259E-01 2.21135E-03-1.66839E+00-6.36943E-14-9.51905E-14
 -1      2325 2.10381E+01 3.98971E-01 9.24399E-03-1.13410E+00 2.45442E-13-3.21791E-13
 -1      2326 2.08635E+01 3.53327E-01-2.18824E-03-9.94521E-01 2.55827E-13-3.48918E-13
 -1      2327 2.07121E+01 5.35035E-01 1.79958E-03-1.30764E+00 1.03451E-13-2.48686E-13
 -1      2328 2.08155E+01 3.15335E-01 7.78607E-03-8.64268E-01 2.23528E-13-3.82834E-13
 -1      2329 2.06749E+01 2.74326E-01-1.57583E-03-7.52908E-01 1.55422E-13-4.06065E-13
 -1      2330 2.05925E+01 4.28686E-01 1.03065E-03-1.00782E+00 2.29907E-13-4.27731E-13
 -1      2331 2.06298E+01 2.42355E-01 6.27935E-03-6.50221E-01 3.28906E-14-3.39457E-13
 -1      2332 2.05187E+01 2.08636E-01-1.06548E-03-5.63646E-01-1.36490E-14-2.32288E-13
 -1      2333 2.04813E+01 3.32318E-01 3.60554E-04-7.66606E-01 1.51303E-13-3.65220E-13
 -1      2334 2.04782E+01 1.83299E-01 4.92928E-03-4.84012E-01 9.16281E-14-2.78527E-13
 -1      2335 2.03913E+01 1.56644E-01-8.02373E-04-4.17744E-01 2.06833E-13-3.41518E-13
 -1      2336 2.03817E+01 2.52753E-01-8.67566E-05-5.76689E-01 2.24635E-14-1.90785E-13
 -1      2337 2.03545E+01 1.36037E-01 3.73944E-03-3.53781E-01 1.95546E-13-3.52102E-13
 -1      2338 2.02857E+01 1.15074E-01-5.01183E-04-3.01713E-01-6.87980E-14-2.76893E-13
 -1      2339 2.02942E+01 1.89106E-01-1.58077E-04-4.26459E-01 1.77204E-13-4.39214E-13
 -1      2340 2.02574E+01 1.00695E-01 2.87297E-03-2.56045E-01-1.44398E-13-1.60799E-13
 -1      2341 2.02079E+01 8.53821E-02-2.57878E-04-2.18868E-01-1.05493E-13 3.20882E-14
 -1      2342 2.02214E+01 1.39670E-01-4.86856E-04-3.11409E-01 7.23162E-14-5.37375E-13
 -1      2343 2.01848E+01 7.44794E-02 2.14333E-03-1.84347E-01-1.89139E-13 6.81926E-14
 -1      2344 2.01479E+01 6.29894E-02-1.41699E-04-1.56611E-01-1.08246E-13 1.37280E-13
 -1      2345 2.01643E+01 1.03623E-01-4.99842E-04-2.26562E-01-9.62682E-14-3.40544E-13
 -1      2346 2.01298E+01 5.48276E-02 1.60144E-03-1.30738E-01-1.16991E-13 1.60148E-13
 -1      2347 2.01028E+01 4.62005E-02-7.26979E-05-1.10162E-01-1.55365E-13 3.19703E-14
 -1      2348 2.01193E+01 7.64580E-02-4.67045E-04-1.62492E-01-8.37865E-14-2.78129E-14
 -1      2349 2.00889E+01 4.01120E-02 1.18861E-03-9.09151E-02-5.19731E-14 6.65231E-14
 -1      2350 2.00694E+01 3.36495E-02-3.11057E-05-7.57606E-02-1.17825E-13 1.73434E-13
 -1      2351 2.00846E+01 5.60746E-02-4.10413E-04-1.14476E-01-1.08439E-13 6.05229E-14
 -1      2352 2.00590E+01 2.91178E-02 8.74793E-04-6.15624E-02-4.08724E-13 5.77089E-14
 -1      2353 2.00453E+01 2.42891E-02-7.36871E-06-5.04974E-02-2.38611E-13-2.08820E-14
 -1      2354 2.00585E+01 4.08220E-02-3.45704E-04-7.87800E-02-3.13034E-13 1.04425E-13
 -1      2355 2.00377E+01 2.09253E-02 6.37406E-04-4.01295E-02-4.18104E-14-2.16080E-13
 -1      2356 2.00282E+01 1.73273E-02 5.03893E-06-3.21383E-02 6.02721E-14-2.19958E-13
 -1      2357 2.00392E+01 2.94389E-02-2.81963E-04-5.24894E-02-2.53839E-13-5.00530E-14
 -1      2358 2.00228E+01 1.48371E-02 4.58780E-04-2.46642E-02 1.98527E-13-2.95604E-13
 -1      2359 2.00166E+01 1.21612E-02 1.00356E-05-1.89766E-02 3.13670E-13-2.40191E-13
 -1      2360 2.00253E+01 2.09670E-02-2.23725E-04-3.33460E-02 4.38567E-14-2.67561E-13
 -1      2361 2.00129E+01 1.03188E-02 3.25304E-04-1.36819E-02 2.61604E-13-1.28813E-13
 -1      2362 2.00089E+01 8.32328E-03 9.57959E-06-9.71982E-03 2.13610E-13-1.23721E-13
 -1      2363 2.00156E+01 1.46727E-02-1.72899E-04-1.96117E-02 2.91039E-13-3.93260E-13
 -1      2364 2.00065E+01 6.95009E-03 2.26427E-04-6.06829E-03 2.79201E-13-2.90832E-13
 -1      2365 2.00042E+01 5.44021E-03 4.31622E-06-3.40789E-03 2.09549E-13-2.85051E-13
 -1      2366 2.00091E+01 9.98249E-03-1.30129E-04-9.96418E-03 2.59972E-13-3.66287E-13
 -1      2367 2.00026E+01 4.38886E-03 1.53495E-04-1.00879E-03 4.08210E-14-3.93682E-13
 -1      2368 2.00014E+01 3.20641E-03-2.69156E-06 6.47282E-04-6.75752E-14-4.39540E-13
 -1      2369 2.00048E+01 6.43767E-03-9.42711E-05-3.41944E-03 4.30582E-14-5.54917E-13
 -1      2370 2.00005E+01 2.31693E-03 9.26919E-05 2.07717E-03-1.05181E-13-4.41396E-13
 -1      2371 2.00001E+01 1.37048E-03 5.39918E-06 2.89107E-03-8.89209E-14-5.09739E-13
 -1      2372 2.00022E+01 3.66995E-03-5.99493E-05 7.35133E-04-7.09518E-14-7.70357E-13
 -1      2373 1.99999E+01 6.94026E-04 3.90275E-05 3.43827E-03 4.72587E-14-4.55736E-13
 -1      2374 1.99999E+01-2.26668E-04-7.77904E-06 3.58252E-03-8.03230E-14-2.90012E-13
 -1      2375 2.00007E+01-6.44868E-04-1.92308E-05 3.43592E-03 2.17803E-13-4.17535E-13
 -1      2376 2.00011E+01 1.47836E-03-4.19892E-05 2.81576E-03 1.04119E-13-6.86953E-13
 -1      2377 2.00851E+01 1.00651E-01 1.72153E-03-3.66505E-01 1.39956E-13 2.99127E-14
 -1      2378 2.00505E+01 1.33995E-01 5.41763E-03-3.12997E-01 1.56143E-13 3.85322E-14
 -1      2379 2.00512E+01 1.70485E-01 2.33384E-03-2.30539E-01 1.54144E-13 3.62497E-14
 -1      2380 2.00605E+01 2.20364E-01 9.02767E-03-1.42374E-01 1.54159E-13 5.77164E-14
 -1      2381 2.01476E+01 2.11933E-01-4.27350E-03-2.77332E-01 1.64242E-13-2.51470E-15
 -1      2382 2.00904E+01 2.79923E-01 2.75327E-03-1.55469E-02 1.61076E-13 6.24976E-14
 -1      2383 2.01567E+01 3.61334E-01 1.10542E-02 1.29635E-01 1.74107E-13 8.64814E-14
 -1      2384 2.01850E+01 3.47564E-01-4.89141E-03-4.86273E-02 1.64747E-13-8.95193E-15
 -1      2385 2.01736E+01 4.68275E-02 8.61368E-04-4.45993E-01 1.02109E-13 4.33166E-15
 -1      2386 2.01109E+01 7.37654E-02 3.28630E-03-4.17427E-01 1.25828E-13 2.90218E-14
 -1      2387 2.01699E+01 1.21265E-01-3.51546E-03-4.24556E-01 1.34359E-13 4.45689E-14
 -1      2388 2.02997E+01-4.98826E-03-3.32586E-04-4.78007E-01 4.15370E-14 3.17349E-15
 -1      2389 2.02213E+01 2.22575E-02 2.11525E-03-4.71388E-01 8.61324E-14-1.31104E-14
 -1      2390 2.02414E+01 4.82702E-02-2.80254E-03-5.10296E-01 1.16884E-13 3.20523E-15
 -1      2391 2.04487E+01-6.42417E-02-1.91157E-03-4.61963E-01 1.43670E-14-2.13068E-14
 -1      2392 2.03653E+01-3.21228E-02 1.52989E-03-4.78609E-01 3.05073E-15-7.05249E-15
 -1      2393 2.03521E+01-2.45359E-02-2.22576E-03-5.42192E-01 5.75572E-14-3.29278E-14
 -1      2394 2.06059E+01-1.36312E-01-3.84002E-03-3.90732E-01 1.15296E-14 2.80911E-14
 -1      2395 2.05284E+01-9.70014E-02 1.27886E-03-4.34585E-01 2.37078E-14 9.56337E-15
 -1      2396 2.04930E+01-1.08698E-01-1.73523E-03-5.18160E-01 1.23789E-14-4.30051E-14
 -1      2397 2.07551E+01-2.20667E-01-5.91419E-03-2.54324E-01 2.07809E-14 1.00865E-13
 -1      2398 2.06949E+01-1.75293E-01 1.12976E-03-3.29867E-01 2.22740E-14 7.86421E-14
 -1      2399 2.06553E+01-2.09666E-01-1.19325E-03-4.29377E-01-1.94750E-14 4.82016E-14
 -1      2400 2.08767E+01-3.07530E-01-7.67116E-03-4.55800E-02 5.06197E-14 1.27822E-13
 -1      2401 2.08461E+01-2.62529E-01 8.05657E-04-1.54694E-01 6.75965E-14 1.39366E-13
 -1      2402 2.08270E+01-3.23876E-01-3.96549E-04-2.64456E-01-3.96482E-15 1.33357E-13
 -1      2403 2.09470E+01-3.74588E-01-8.33554E-03 2.31304E-01-7.65629E-14 1.04710E-13
 -1      2404 2.09576E+01-3.43280E-01-2.29346E-05 9.37058E-02 3.66677E-15 1.28328E-13
 -1      2405 2.09905E+01-4.34252E-01 8.90838E-04-1.62395E-02 1.86553E-14 1.36129E-13
 -1      2406 2.09397E+01-3.86990E-01-6.93190E-03 5.50020E-01-1.00144E-13 5.60023E-14
 -1      2407 2.09999E+01-3.88877E-01-1.62987E-03 4.00835E-01-1.48332E-13 2.42147E-14
 -1      2408 2.11187E+01-5.06740E-01 2.80285E-03 3.07823E-01-6.31058E-14 1.08629E-13
 -1      2409 2.08328E+01-3.05784E-01-2.78326E-03 8.52890E-01 4.09373E-14 7.77578E-14
 -1      2410 2.09430E+01-3.60708E-01-3.97753E-03 7.23726E-01 1.94675E-14 7.14850E-14
 -1      2411 2.11757E+01-4.92871E-01 5.08367E-03 6.72519E-01-5.23457E-14-2.33667E-15
 -1      2412 2.06219E+01-1.08667E-01 3.65255E-03 1.05181E+00 2.00440E-14 6.82004E-14
 -1      2413 2.07695E+01-2.24445E-01-6.39005E-03 9.85521E-01 1.99557E-14 1.18102E-13
 -1      2414 2.11255E+01-3.45376E-01 6.66359E-03 1.00410E+00 2.50558E-14 4.94723E-14
 -1      2415 2.03372E+01 1.82227E-01 1.01957E-02 1.05033E+00 1.65410E-13-4.54691E-14
 -1      2416 2.04944E+01 2.42514E-02-7.34295E-03 1.08729E+00 1.11876E-13 2.86568E-14
 -1      2417 2.09530E+01-4.89570E-02 5.82992E-03 1.19406E+00 7.62124E-14 6.62489E-14
 -1      2418 2.00526E+01 4.85304E-01 1.34409E-02 7.89692E-01 8.09960E-14-1.49079E-14
 -1      2419 2.01808E+01 3.34578E-01-5.08257E-03 9.45532E-01 1.12973E-13-1.26656E-14
 -1      2420 2.06909E+01 3.45867E-01 1.48405E-03 1.13165E+00 1.27976E-13 2.82147E-15
 -1      2421 1.98688E+01 6.83191E-01 1.11302E-02 2.99249E-01 8.40734E-15 1.26810E-13
 -1      2422 1.99306E+01 6.01389E-01 5.41077E-04 5.45990E-01 7.23380E-15 7.15010E-15
 -1      2423 2.04306E+01 7.17192E-01-4.91637E-03 7.65235E-01 2.79111E-14 2.71013E-14
 -1      2424 1.98660E+01 6.86778E-01 4.69466E-03-2.90444E-01 2.27336E-15 1.53268E-13
 -1      2425 1.98413E+01 7.11699E-01 7.86132E-03-2.13555E-02 4.59381E-14 1.81724E-13
 -1      2426 2.02897E+01 9.15875E-01-9.62285E-03 1.59760E-01-1.81064E-14 1.12131E-13
 -1      2427 2.00536E+01 4.95641E-01-2.11470E-03-7.99969E-01 5.48674E-14 1.86806E-13
 -1      2428 1.99483E+01 6.14624E-01 1.28326E-02-5.87450E-01 4.90320E-14 1.38012E-13
 -1      2429 2.03419E+01 8.56164E-01-7.87935E-03-5.04948E-01 1.51051E-14 7.79174E-14
 -1      2430 2.03622E+01 1.97608E-01-6.21030E-03-1.09014E+00 5.88710E-14 1.89597E-13
 -1      2431 2.02056E+01 3.57128E-01 1.24638E-02-9.85905E-01 4.41847E-14 1.30539E-13
 -1      2432 2.05630E+01 5.65465E-01-1.88913E-03-1.01950E+00 4.80641E-14 1.23550E-14
 -1      2433 2.06861E+01-8.98448E-02-6.73186E-03-1.12102E+00 7.46160E-14 2.11838E-13
 -1      2434 2.05175E+01 5.05028E-02 7.25492E-03-1.13124E+00 1.24192E-13 2.47288E-13
 -1      2435 2.08502E+01 1.70361E-01 3.84581E-03-1.25227E+00 6.59926E-14 1.92628E-13
 -1      2436 2.09391E+01-2.84481E-01-4.77184E-03-9.45638E-01 2.39587E-15 1.94899E-13
 -1      2437 2.07927E+01-1.98892E-01 4.13847E-04-1.04026E+00 5.77926E-14 1.59442E-13
 -1      2438 2.10918E+01-1.84005E-01 6.52373E-03-1.19753E+00 9.77395E-14 2.30129E-13
 -1      2439 2.10822E+01-3.63652E-01-2.19066E-03-6.60404E-01 1.34788E-15 1.83805E-13
 -1      2440 2.09782E+01-3.37499E-01-5.09024E-03-7.95702E-01-8.03611E-16 2.17297E-13
 -1      2441 2.12237E+01-4.07215E-01 6.06427E-03-9.42712E-01-2.42205E-14 7.25977E-14
 -1      2442 2.11183E+01-3.49528E-01-1.36474E-04-3.56336E-01 4.01797E-14 1.50594E-14
 -1      2443 2.10625E+01-3.67354E-01-7.93628E-03-4.93965E-01 8.55598E-14 1.07989E-13
 -1      2444 2.12386E+01-4.83163E-01 3.98715E-03-6.02954E-01 1.10889E-13 4.74059E-14
 -1      2445 2.10726E+01-2.81458E-01 1.04103E-03-9.36205E-02-9.20939E-14-1.22432E-13
 -1      2446 2.10604E+01-3.22185E-01-8.29424E-03-2.09398E-01-4.57833E-14-6.48046E-14
 -1      2447 2.11646E+01-4.46908E-01 1.81774E-03-2.71694E-01 4.30313E-14 1.12868E-14
 -1      2448 2.09754E+01-1.94979E-01 1.49956E-03 1.00734E-01-6.81029E-14-1.15365E-13
 -1      2449 2.09966E+01-2.41292E-01-7.05416E-03 1.69235E-02-1.00380E-13-1.34782E-13
 -1      2450 2.10390E+01-3.49835E-01 2.79554E-04-2.55799E-03-3.76977E-14-2.53297E-13
 -1      2451 2.08519E+01-1.13509E-01 1.50000E-03 2.23896E-01-5.17507E-14 2.42151E-14
 -1      2452 2.08954E+01-1.54846E-01-5.13989E-03 1.72172E-01-4.86794E-14 3.63248E-14
 -1      2453 2.08926E+01-2.35642E-01-5.84967E-04 1.85844E-01-1.12091E-13-1.49933E-13
 -1      2454 2.07206E+01-4.83921E-02 1.28903E-03 2.86313E-01-3.95000E-14 1.99618E-13
 -1      2455 2.07765E+01-8.01882E-02-3.19648E-03 2.61426E-01-1.21512E-14 1.62353E-13
 -1      2456 2.07459E+01-1.31741E-01-9.75945E-04 2.97387E-01-8.14029E-14 1.26702E-13
 -1      2457 2.05934E+01-2.48032E-03 1.02289E-03 3.03334E-01-1.05779E-13 2.81189E-13
 -1      2458 2.06536E+01-2.41105E-02-1.55949E-03 2.98176E-01-1.51328E-14 2.06450E-13
 -1      2459 2.06099E+01-5.05838E-02-1.09199E-03 3.46738E-01-2.33817E-14 2.76185E-13
 -1      2460 2.04771E+01 2.60754E-02 7.78073E-04 2.90166E-01-2.14185E-13 2.17810E-13
 -1      2461 2.05361E+01 1.32075E-02-3.46314E-04 2.97881E-01-1.32240E-13 2.00374E-13
 -1      2462 2.04897E+01 5.50110E-03-1.07199E-03 3.51444E-01-6.12653E-14 3.02915E-13
 -1      2463 2.03751E+01 4.10257E-02 5.80801E-04 2.59490E-01-6.02540E-15 3.57753E-14
 -1      2464 2.04293E+01 3.48057E-02 4.53777E-04 2.74452E-01-1.66004E-13 7.41972E-14
 -1      2465 2.03868E+01 3.95635E-02-9.94164E-04 3.27615E-01-6.55743E-14 1.30411E-13
 -1      2466 2.02886E+01 4.63708E-02 4.32507E-04 2.20764E-01 6.60869E-14 2.79084E-14
 -1      2467 2.03359E+01 4.47101E-02 9.11351E-04 2.38836E-01 2.56240E-14 5.44015E-14
 -1      2468 2.03006E+01 5.66731E-02-8.95770E-04 2.88138E-01 1.01614E-15 3.97774E-14
 -1      2469 2.02171E+01 4.55706E-02 3.24943E-04 1.80404E-01 1.94061E-13 1.38661E-14
 -1      2470 2.02570E+01 4.67327E-02 1.11417E-03 1.98826E-01 2.21785E-13 9.06529E-15
 -1      2471 2.02299E+01 6.19928E-02-7.92508E-04 2.42349E-01 1.05098E-13 2.12437E-14
 -1      2472 2.01596E+01 4.12830E-02 2.47918E-04 1.42353E-01 1.89533E-13-1.40747E-13
 -1      2473 2.01921E+01 4.39698E-02 1.14447E-03 1.59469E-01 1.57125E-13-3.28317E-14
 -1      2474 2.01727E+01 5.98912E-02-6.90661E-04 1.96424E-01 2.06111E-13-9.30004E-14
 -1      2475 2.01143E+01 3.53790E-02 1.92504E-04 1.08714E-01 1.76521E-13-2.29745E-13
 -1      2476 2.01400E+01 3.86985E-02 1.06936E-03 1.23675E-01 1.79688E-13-2.45408E-14
 -1      2477 2.01273E+01 5.36777E-02-5.93029E-04 1.54047E-01 1.29326E-13-4.68642E-15
 -1      2478 2.00796E+01 2.90741E-02 1.51902E-04 8.03286E-02 1.75963E-13-3.84155E-13
 -1      2479 2.00993E+01 3.24617E-02 9.38677E-04 9.28314E-02 2.30488E-13-2.02064E-13
 -1      2480 2.00919E+01 4.56553E-02-5.01326E-04 1.17079E-01 2.84159E-13-1.67937E-13
 -1      2481 2.00535E+01 2.30880E-02 1.21283E-04 5.72397E-02-9.84446E-14-4.58891E-13
 -1      2482 2.00682E+01 2.62211E-02 7.86640E-04 6.73200E-02-3.20561E-14-3.89655E-13
 -1      2483 2.00647E+01 3.73023E-02-4.16872E-04 8.61599E-02 5.98163E-14-3.48852E-14
 -1      2484 2.00345E+01 1.77908E-02 9.73101E-05 3.90345E-02 1.36532E-14-3.80144E-13
 -1      2485 2.00451E+01 2.05144E-02 6.34914E-04 4.69148E-02-2.55312E-14-3.80967E-13
 -1      2486 2.00443E+01 2.94794E-02-3.40642E-04 6.11648E-02-8.01308E-14-2.08578E-14
 -1      2487 2.00210E+01 1.33207E-02 7.76263E-05 2.50821E-02 3.64655E-14-2.63940E-13
 -1      2488 2.00284E+01 1.55888E-02 4.95885E-04 3.10680E-02 8.00765E-15-3.27312E-13
 -1      2489 2.00294E+01 2.26150E-02-2.73164E-04 4.15461E-02-4.06828E-14 1.40859E-13
 -1      2490 2.00119E+01 9.67014E-03 6.02605E-05 1.46896E-02-3.71334E-14-1.29170E-13
 -1      2491 2.00167E+01 1.15042E-02 3.75488E-04 1.91034E-02 2.48932E-14-1.74045E-13
 -1      2492 2.00186E+01 1.68532E-02-2.14495E-04 2.65668E-02-1.25813E-14 1.02314E-13
 -1      2493 2.00060E+01 6.74592E-03 4.38697E-05 7.20169E-03-3.69640E-14 3.70079E-16
 -1      2494 2.00090E+01 8.20512E-03 2.75394E-04 1.03400E-02-2.70921E-14-1.79323E-13
 -1      2495 2.00112E+01 1.21588E-02-1.64589E-04 1.54533E-02-6.82831E-14 8.33779E-14
 -1      2496 2.00024E+01 4.40836E-03 2.77303E-05 2.05242E-03-1.33333E-13 9.55006E-14
 -1      2497 2.00041E+01 5.57342E-03 1.95086E-04 4.16484E-03-1.21156E-13-2.70708E-14
 -1      2498 2.00063E+01 8.39770E-03-1.21987E-04 7.49096E-03-1.75069E-13 1.55972E-13
 -1      2499 2.00005E+01 2.47328E-03 8.25634E-06-1.20632E-03-2.38132E-13 8.82020E-14
 -1      2500 2.00013E+01 3.44675E-03 1.32825E-04 6.87951E-05-4.16969E-14 2.19828E-13
 -1      2501 2.00031E+01 5.36739E-03-8.88984E-05 2.06946E-03-1.37178E-13 2.40890E-13
 -1      2502 1.99997E+01 7.90100E-04-8.70975E-06-2.86490E-03-2.99731E-13-9.42529E-14
 -1      2503 1.99999E+01 1.64785E-03 9.05961E-05-2.30853E-03-2.75532E-13-4.24237E-14
 -1      2504 2.00013E+01 2.81513E-03-6.31552E-05-1.29288E-03-1.12303E-13 1.09832E-13
 -1      2505 1.99997E+01-3.84665E-04 4.39153E-05-3.18048E-03-2.08177E-13-2.78268E-13
 -1      2506 2.00006E+01 2.08985E-03-3.28110E-05-5.89764E-04 5.49127E-14 2.95796E-13
 -1      2507 2.00009E+01 1.95073E-03 3.22371E-05-8.83350E-04-1.71905E-14 1.19284E-13
 -1      2508 2.00010E+01 1.12131E-03-2.86267E-05-1.26145E-03-1.66830E-13-9.90120E-14
 -1      2509 2.00011E+01 1.02566E-03 3.07824E-05-1.65766E-03-8.56404E-14-1.27366E-13
 -1      2510 2.00013E+01 4.22165E-03 1.42291E-05-6.44819E-04 8.59455E-14 9.60364E-14
 -1      2511 2.00010E+01 2.19102E-04-2.43667E-05-2.16707E-03-1.01853E-13-1.47327E-13
 -1      2512 2.00008E+01 2.14916E-04-7.22308E-06-2.54964E-03 1.05863E-14-4.78477E-13
 -1      2513 2.00015E+01 2.67323E-03 2.62435E-05-1.54614E-03-1.03047E-13-2.34383E-13
 -1      2514 4.33095E+00-3.54760E+00 4.34448E-02 4.48133E+00-2.32453E-13 1.89848E-13
 -1      2515 3.08596E+00-2.86177E+00 6.93242E-02 2.23795E+00-2.03636E-13 7.38853E-14
 -1      2516 2.00002E+01 2.92880E-03-3.15603E-05-2.61400E-04 1.87991E-14 1.33349E-13
 -1      2517 2.00005E+01 2.80990E-03 2.18116E-05-4.10003E-04-2.13221E-14 2.12671E-13
 -1      2518 2.00008E+01 5.72823E-03 2.77960E-05-1.20100E-04 9.65616E-14 2.22619E-13
 -1      2519 2.00000E+01 3.45297E-03-2.17102E-05-2.34408E-04-1.83222E-13 1.78036E-13
 -1      2520 2.00001E+01 3.40550E-03 6.51764E-06-2.69736E-04-7.54013E-14-7.61822E-14
 -1      2521 2.00003E+01 6.89182E-03 4.38439E-05-1.46649E-05-8.34994E-14-8.14336E-14
 -1      2522 2.00000E+01 3.53432E-03-5.87002E-06-3.28824E-04-3.87289E-13 2.51189E-13
 -1      2523 2.00000E+01 3.58541E-03-1.06095E-05-3.41509E-04-3.56254E-13 4.80690E-13
 -1      2524 2.00000E+01 7.48228E-03 5.13190E-05-2.29393E-04-3.38922E-13 1.63066E-13
 -1      2525 2.00003E+01 3.15324E-03 1.20586E-05-3.06133E-04-2.97457E-13-1.01815E-13
 -1      2526 2.00001E+01 3.29591E-03-2.42554E-05-4.01003E-04-2.81512E-13 4.91488E-14
 -1      2527 2.00002E+01 7.38331E-03 5.07040E-05-5.14977E-04-4.06638E-13 2.34421E-13
 -1      2528 2.00008E+01 2.41443E-03 2.74460E-05 2.87636E-05-3.04073E-14 1.13830E-13
 -1      2529 2.00005E+01 2.59727E-03-3.18218E-05-2.19308E-04-1.17146E-13 2.22764E-15
 -1      2530 2.00006E+01 6.62075E-03 4.38389E-05-5.91748E-04-2.16382E-13 7.23654E-14
 -1      2531 2.00013E+01 1.45934E-03 3.62768E-05 7.77977E-04 1.52620E-13 5.21546E-13
 -1      2532 2.00010E+01 1.63042E-03-3.11918E-05 3.49192E-04 6.99558E-14 1.90158E-13
 -1      2533 2.00012E+01 5.32817E-03 2.85540E-05-2.43238E-04 2.37030E-14 2.17778E-13
 -1      2534 2.00014E+01 5.06489E-04 3.36635E-05 1.85290E-03 2.27618E-13-3.27336E-13
 -1      2535 2.00014E+01 6.03821E-04-2.35913E-05 1.32259E-03 2.32777E-13 2.13740E-13
 -1      2536 2.00018E+01 3.72578E-03 8.15588E-06 6.08297E-04 4.04571E-14 4.05568E-13
 -1      2537 2.00011E+01-1.39610E-04 1.77610E-05 2.88415E-03 2.09837E-13-3.89700E-13
 -1      2538 2.00013E+01-1.67714E-04-1.69178E-05 2.43092E-03 1.76749E-13-4.18279E-13
 -1      2539 2.00019E+01 2.25985E-03 9.36056E-06 1.72913E-03 7.61284E-14-3.72315E-13
 -1      2540 2.00014E+01 1.14093E-03 2.12769E-05 2.80694E-03 1.48986E-13-3.88666E-13
 -1      2541 5.99519E+00-3.85404E+00 5.12706E-02-4.23765E+00 3.16691E-14 4.69846E-13
 -1      2542 9.37435E+00-4.76044E+00 1.44857E-02-5.91749E+00 9.10383E-15 3.57131E-13
 -1      2543 2.06326E+01 1.97711E+00-1.28543E-02-1.75973E+00-3.17184E-13-2.75613E-14
 -1      2544 2.05207E+01 1.24318E+00-7.46951E-03-1.14052E+00-2.83880E-13-1.06280E-14
 -1      2545 2.04821E+01 1.43824E+00 7.48558E-03-1.06231E+00-2.58864E-13-7.34521E-14
 -1      2546 2.03711E+01 2.43096E+00 8.95492E-05-1.69036E+00-3.14331E-13-1.20523E-13
 -1      2547 2.94912E+01-1.75814E+00-1.15887E-01 2.31387E+00 2.38837E-14-6.27248E-13
 -1      2548 2.70985E+01-3.29651E+00-3.98994E-02 3.60061E+00-5.44287E-14-4.30100E-13
 -1      2549 2.64108E+01-4.28679E+00 4.62987E-02 3.48738E+00-2.75072E-13-5.14061E-13
 -1      2550 3.47452E+00-2.33014E+00 1.37994E-01-2.97557E-01-1.22430E-13 2.45803E-13
 -1      2551 4.21921E+00-2.76153E+00 1.11746E-01-2.38677E+00-7.40935E-14 4.21718E-13
 -1      2552 3.59438E+01 5.00055E+00-5.13038E-02-1.75331E+00-8.87901E-13 4.86194E-13
 -1      2553 3.52896E+01 3.36076E+00-2.78323E-02-2.04453E+00-7.59448E-13 5.73541E-13
 -1      2554 3.25286E+00-3.18509E+00 5.96039E-02 1.70499E+00 4.19664E-14-5.46674E-13
 -1      2555 2.65655E+00-3.08457E+00 5.90202E-02-5.21347E-01 9.03305E-14-6.48148E-13
 -1      2556 3.32730E+01 8.01516E+00-1.45792E-01-6.75262E-02 6.61859E-13-2.64469E-13
 -1      2557 3.36856E+01 7.70380E+00-8.60833E-02-3.06278E-01 7.19758E-13-3.08115E-13
 -1      2558 1.94065E+01 3.73633E+00-9.87326E-03-2.21360E-01 2.19106E-15-4.19351E-13
 -1      2559 1.94308E+01 3.71361E+00-9.29691E-03-3.80882E-01-4.22315E-14-4.23482E-13
 -1      2560 1.95962E+01 3.34185E+00 5.25301E-04-4.11193E-01-5.85748E-14-3.89434E-13
 -1      2561 1.95447E+01 3.40650E+00 1.26452E-04-1.41313E-01 8.68644E-15-4.03472E-13
 -1      2562 3.39172E+01 6.58384E+00-1.02356E-01-4.34024E-01 7.37244E-13-4.03566E-13
 -1      2563 3.31355E+01 5.11225E+00-1.05367E-01-3.04441E-01 6.39655E-13-4.48280E-13
 -1      2564 2.81581E+01-2.64240E+00-2.63650E-02-3.07989E+00 9.37861E-14-2.81164E-13
 -1      2565 3.02840E+01-8.64593E-01-1.28530E-01-1.68542E+00 2.66787E-13-1.70391E-13
 -1      2566 3.24278E+01 2.82946E+00-9.38400E-02-8.62557E-03 3.93158E-13-5.49866E-13
 -1      2567 3.09235E+01 8.20635E-01-7.23499E-02 5.29170E-01 1.29674E-13-6.35214E-13
 -1      2568 3.25600E+01 6.43920E+00-1.27799E-01 8.12995E-01 7.07767E-13-1.14325E-13
 -1      2569 3.30196E+01 7.43709E+00-1.32040E-01 4.67009E-01 6.85008E-13-1.39083E-13
 -1      2570 3.47803E+01 7.62119E-01-9.65526E-02-1.57073E+00-5.11369E-13 6.47538E-13
 -1      2571 3.30317E+01-1.30794E+00-5.79735E-02-7.50926E-01-3.16719E-13 4.67404E-13
 -1      2572 2.27805E+01-4.98137E+00 1.98201E-02-5.70342E+00-5.71487E-14-4.07230E-13
 -1      2573 2.58540E+01-4.06522E+00-5.05779E-02-4.85341E+00 2.14551E-14-4.54303E-13
 -1      2574 1.51423E+01-5.35251E+00 4.34428E-02-7.30324E+00-1.75360E-13-6.00475E-13
 -1      2575 1.89141E+01-5.27230E+00-2.39497E-02-7.15863E+00-1.06137E-13-4.57759E-13
 -1      2576 8.38397E+00-4.13846E+00 1.07691E-01-6.40521E+00-2.23710E-13-6.83814E-13
 -1      2577 1.15998E+01-4.74231E+00 2.38660E-02-7.43535E+00-1.70641E-13-6.57419E-13
 -1      2578 1.49503E+01-4.58175E+00 1.27753E-01-7.21845E+00-2.99011E-13-5.99687E-13
 -1      2579 3.18623E+00-3.30333E+00 7.03239E-02-2.54149E+00-4.99739E-14-7.58615E-13
 -1      2580 4.87618E+00-3.34997E+00 3.38677E-02-4.74523E+00-1.18017E-13-7.50622E-13
 -1      2581 4.74950E+00-1.73278E+00 1.60349E-01-1.50106E+00-2.56704E-14-6.53033E-13
 -1      2582 7.52374E+00-4.11967E+00 3.94963E-02 5.20625E+00 2.27679E-13-5.21749E-13
 -1      2583 4.92511E+00-3.76666E+00 5.38444E-02 3.53720E+00 1.99674E-13-5.46729E-13
 -1      2584 2.51668E+01-5.81423E+00-2.69977E-02 4.44520E+00 8.32945E-14-1.44496E-13
 -1      2585 2.18494E+01-6.06270E+00 7.34373E-03 5.19908E+00 1.87794E-13-1.37730E-13
 -1      2586 2.15684E+01-6.08497E+00 7.14565E-04-5.19217E+00 1.03695E-13 2.51008E-13
 -1      2587 2.58547E+01-5.71799E+00-1.12484E-01-4.05499E+00 1.00142E-13 1.93151E-13
 -1      2588 3.14154E+01-3.48066E+00-8.60462E-02 1.14409E+00-1.38362E-13 2.45470E-13
 -1      2589 2.80908E+01-5.00974E+00-4.82810E-02 2.49441E+00-3.99403E-14 4.58522E-14
 -1      2590 2.96641E+01-4.45577E+00 9.64591E-03-1.44006E+00 1.70280E-14 2.56017E-13
 -1      2591 3.21901E+01-2.68928E+00-1.78557E-01 3.81384E-01-1.23703E-13 3.02092E-13
 -1      2592 1.37745E+01-5.72444E+00 1.25847E-03-6.22948E+00 3.26406E-14 3.77365E-13
 -1      2593 1.78689E+01-5.99610E+00-4.34276E-02-6.40267E+00 1.35891E-13 3.60500E-13
 -1      2594 2.11381E+01-5.92720E+00 4.44458E-02-5.42450E+00 1.11522E-13 2.77762E-13
 -1      2595 9.69425E+00-4.44210E+00 1.94251E-02 7.12766E+00-3.39562E-13 2.57266E-13
 -1      2596 6.71413E+00-4.13201E+00 4.74197E-02 5.85927E+00-3.07615E-13 3.19328E-13
 -1      2597 2.00006E+01 2.61977E-04-2.31245E-05-2.88169E-03-1.35969E-13-4.21273E-13
 -1      2598 1.98874E+01 2.93927E+00 1.95002E-03-9.53525E-01-1.96599E-13-3.36742E-13
 -1      2599 1.97767E+01 3.24942E+00-1.69095E-02-1.15050E+00-2.15810E-13-3.53735E-13
 -1      2600 1.99034E+01 3.09275E+00-1.83151E-02-1.33387E+00-2.54650E-13-3.14998E-13
 -1      2601 2.95907E+01-1.04221E+00-2.45166E-02 4.77533E-01-5.44842E-14-8.07271E-13
 -1      2602 2.04529E+01 6.03173E-01 9.26090E-03 7.57320E-01 2.41394E-13 2.57990E-13
 -1      2603 2.05072E+01 8.51024E-01 6.21482E-03 9.21464E-01 2.61922E-13 1.72741E-13
 -1      2604 2.03058E+01 5.07162E-01 8.81016E-03 5.38349E-01 2.19659E-13 2.00944E-13
 -1      2605 2.06106E+01-5.15967E+00 8.47493E-02 6.32801E+00-5.04791E-13 7.67511E-14
 -1      2606 1.31342E+01-4.18108E+00 1.23020E-01 7.19917E+00-4.34486E-13 2.44554E-13
 -1      2607 1.35160E+01-4.47551E+00 1.17256E-01-6.01552E+00 6.25888E-14 3.20077E-13
 -1      2608 3.04210E+01-2.76017E+00 8.65147E-03 1.99880E+00-1.95094E-13 1.15893E-13
 -1      2609 2.95419E+01-4.42635E+00-1.44973E-01 9.63610E-03 1.20737E-14 3.80251E-13
 -1      2610 3.01471E+01-3.05824E+00-4.79925E-02-1.80480E+00-1.14062E-13 6.01241E-13
 -1      2611 3.08040E+01-1.55846E+00-9.84801E-02-2.64815E+00-2.76765E-13 6.22571E-13
 -1      2612 3.13831E+01 1.50136E+00-2.06136E-01-3.33774E+00-5.00933E-13 5.68712E-13
 -1      2613 3.15753E+01 3.64176E+00-1.27749E-01-2.86837E+00-5.93581E-13 5.16948E-13
 -1      2614 3.24982E+01 4.95689E+00-1.55341E-01-1.74447E+00-6.35658E-13 2.75863E-13
 -1      2615 3.23894E+01 5.76432E+00-1.44960E-01-1.44865E-01-6.58085E-13 1.27974E-13
 -1      2616 4.87249E+00-1.54577E+00 1.44022E-01 1.04520E+00-2.28038E-13 7.59393E-14
 -1      2617 7.22360E+00-2.72439E+00 1.33400E-01 5.30325E+00-3.08920E-13 2.65621E-13
 -1      2618 7.16409E+00-2.22219E+00 1.47320E-01-3.51167E+00 4.39510E-14 4.46337E-13
 -1      2619 2.01808E+01 2.66306E+00-9.28152E-03-1.52876E+00-2.88850E-13-2.08887E-13
 -1      2620 2.01826E+01 3.94579E-01 9.20233E-03 2.40985E-01 1.89393E-13 9.88515E-14
 -1      2621 2.02529E+01 4.57132E-01 1.18683E-02 3.96779E-01 1.96529E-13 1.63270E-13
 -1      2622 2.03282E+01 5.94855E-01-3.09165E-03 5.01143E-01 2.09283E-13 8.29467E-14
 -1      2623 2.02500E+01 4.81587E-01-5.55001E-03 2.21600E-01 1.94306E-13 3.38178E-14
 -1      2624 2.81560E+01-5.24080E+00 6.28965E-02-1.98195E+00 6.86257E-14 4.29323E-13
 -1      2625 2.00012E+01 2.01207E-03 6.14670E-05-2.24224E-03-3.85554E-14-2.65808E-13
 -1      2626 3.32667E+01 1.37284E+00-5.48946E-02-2.85759E+00-4.82725E-13 7.45792E-13
 -1      2627 2.76025E+01-5.48388E+00 1.34783E-02 2.44079E+00 1.82632E-13 1.94428E-13
 -1      2628 8.24608E+00-2.84462E+00 1.48251E-01-5.58183E+00-2.33202E-13-6.75182E-13
 -1      2629 2.17795E+01-5.28903E+00 7.65999E-02-5.99053E+00-2.06501E-13-3.83860E-13
 -1      2630 5.88191E+00-2.10804E+00 1.57199E-01 2.66102E+00 1.57679E-13-4.76841E-13
 -1      2631 2.02636E+01-5.92555E+00 4.84079E-02 5.73035E+00 2.56212E-13-1.56809E-13
 -1      2632 1.84615E+01-5.01558E+00 1.92806E-01 5.96202E+00 3.44835E-13-1.61343E-13
 -1      2633 2.26935E+01-5.83526E+00-6.36466E-02 4.68766E+00 3.97238E-13-1.51511E-14
 -1      2634 3.11948E+01 5.05030E+00-8.05866E-02 1.10758E+00 6.03823E-13 8.85403E-14
 -1      2635 3.14118E+01 6.96993E+00-3.99815E-02-8.61921E-01 6.55143E-13-3.44461E-13
 -1      2636 3.10492E+01 3.61915E+00-4.81934E-02-1.26077E+00 3.45862E-13-5.53113E-13
 -1      2637 3.07227E+01 7.50367E+00-9.19959E-02 4.27195E-01 6.18616E-13-8.05085E-14
 -1      2638 3.08142E+01 2.56256E-01-6.60948E-03-3.82247E-01 3.42129E-13 4.34375E-14
 -1      2639 3.00361E+01 1.12125E+00-2.24826E-01 9.74419E-01 3.35912E-13 2.83717E-13
 -1      2640 2.92691E+01-1.34315E+00-8.36616E-03-3.88156E-01 1.28848E-13 8.79574E-14
 -1      2641 2.73016E+01-3.81467E+00 2.69211E-02-3.09685E+00-3.16275E-14-2.59126E-13
 -1      2642 1.09064E+01-4.20089E+00 1.32776E-01 5.84184E+00 3.14110E-13-4.23633E-13
 -1      2643 1.06463E+01-2.75215E+00 1.92587E-01 5.30670E+00 3.75866E-13-3.80529E-13
 -1      2644 1.40951E+01-4.38978E+00-2.90983E-02 6.17526E+00 3.91437E-13-2.61763E-13
 -1      2645 3.69621E+01 7.10788E+00 5.51446E-02-2.13073E-01-6.47205E-13 9.58608E-14
 -1      2646 3.72823E+01 6.61724E+00 7.91184E-02-9.43461E-01-8.59757E-13 2.25542E-13
 -1      2647 3.30542E+01-6.71605E-01-5.16093E-02 2.22960E+00-2.68452E-13 1.07137E-13
 -1      2648 3.29703E+01 1.13206E+00-2.04278E-01 2.83555E+00-4.39676E-13 2.63400E-14
 -1      2649 2.89629E+01-4.23386E+00-2.03220E-02 1.12917E-01 1.24185E-13 4.65322E-13
 -1      2650 3.43694E+01 5.19573E+00-3.93253E-02-1.95770E+00-7.77378E-13 3.86913E-13
 -1      2651 3.39685E+01 5.94047E+00-8.48240E-02 7.32989E-01-6.23279E-13 1.30680E-13
 -1      2652 3.15398E+01-2.25223E+00-3.21145E-03 1.96565E+00-1.97571E-13 1.78080E-13
 -1      2653 3.58905E+01 6.02794E+00 7.91310E-04 1.38928E+00-5.76539E-13 2.13635E-13
 -1      2654 3.16245E+01 4.88647E+00-1.04319E-01 1.70986E+00-6.35714E-13 2.11879E-13
 -1      2655 3.14004E+01 2.82851E+00-2.73559E-01 3.14588E+00-4.10838E-13 2.41210E-13
 -1      2656 1.97311E+01 2.93930E+00-5.68072E-03 4.09651E-01 1.07646E-13-3.56667E-13
 -1      2657 1.96866E+01 2.99983E+00-6.31725E-03 2.78827E-01 7.60583E-14-3.70121E-13
 -1      2658 1.96548E+01 3.05241E+00-5.25204E-03 1.70012E-01 5.75751E-14-3.90324E-13
 -1      2659 1.96364E+01 3.07577E+00-5.90955E-03 4.00973E-02 3.57645E-14-3.87638E-13
 -1      2660 1.97889E+01 2.72265E+00 4.29208E-03 1.81609E-01 5.78671E-14-3.68529E-13
 -1      2661 2.00360E+01 2.42605E+00-1.00557E-02 8.85005E-01 2.48058E-13-2.63549E-13
 -1      2662 1.99424E+01 2.59081E+00-7.05893E-03 7.57280E-01 2.25372E-13-2.95852E-13
 -1      2663 2.02538E+01 1.97972E+00-1.54295E-02 1.06972E+00 2.78735E-13-1.63252E-13
 -1      2664 2.01447E+01 2.22633E+00-5.51132E-03 9.68245E-01 2.51752E-13-2.11920E-13
 -1      2665 2.01928E+01 1.99629E+00 7.65311E-03 7.48772E-01 2.29701E-13-2.11116E-13
 -1      2666 2.05472E+01 1.03578E+00 2.35510E-03 1.01930E+00 2.69779E-13 8.20088E-14
 -1      2667 2.04966E+01 1.30181E+00-6.99746E-03 1.12329E+00 2.93237E-13 4.41118E-15
 -1      2668 2.04321E+01 8.75965E-01 6.44155E-03 7.52042E-01 2.30785E-13 6.09584E-14
 -1      2669 3.15440E+01-3.45941E-01-5.55167E-02-3.37248E+00-3.28626E-13 6.69298E-13
 -1      2670 2.89906E+01-3.25883E-01-1.86545E-01-7.25584E-01 3.01148E-14-6.23002E-13
 -1      2671 2.82616E+01-2.31387E+00 2.26487E-03 6.43688E-01-4.85931E-14-6.52506E-13
 -1      2672 3.44941E+01 3.95099E+00-5.37548E-02 2.38129E+00-5.46285E-13 1.69920E-13
 -1      2673 1.53514E+01-3.94428E+00 9.96444E-03 7.00377E+00-4.41092E-13 1.34490E-13
 -1      2674 1.24078E+01-2.99769E+00 1.71383E-01 6.53068E+00-3.64264E-13 1.62551E-13
 -1      2675 2.03302E+01 7.77064E-01 6.76854E-03-1.52627E-01-1.48874E-13-1.01112E-13
 -1      2676 2.02758E+01 6.54809E-01-8.56450E-04 4.90429E-02-1.44094E-13-9.29647E-14
 -1      2677 2.02469E+01 5.71079E-01 4.95835E-03 2.17538E-01-1.36635E-13-7.48145E-14
 -1      2678 2.02228E+01 5.12458E-01 9.65201E-04 3.72432E-01-1.23522E-13-7.57776E-14
 -1      2679 2.02640E+01 7.66207E-01-1.26389E-03 1.02512E-01-1.44876E-13-1.17860E-13
 -1      2680 2.01880E+01 4.79234E-01 2.26102E-03 5.11369E-01-9.82033E-14-6.71513E-14
 -1      2681 2.01930E+01 4.64622E-01 2.42600E-03 6.42725E-01-6.26779E-14-6.11263E-14
 -1      2682 2.01920E+01 6.20192E-01-1.19263E-03 4.22452E-01-1.12040E-13-7.96699E-14
 -1      2683 2.01525E+01 4.66488E-01-2.25216E-04 7.67277E-01-4.40781E-14-6.68203E-14
 -1      2684 2.01799E+01 4.84665E-01 3.57319E-03 8.92581E-01-5.43119E-14-5.64128E-14
 -1      2685 2.01184E+01 5.77846E-01-2.39101E-04 6.94495E-01-6.60357E-14-8.57138E-14
 -1      2686 2.01279E+01 5.13114E-01-2.50367E-03 1.01600E+00-7.20092E-14-5.91192E-14
 -1      2687 2.01700E+01 5.56511E-01 4.52359E-03 1.14839E+00-6.44682E-14-7.87213E-14
 -1      2688 2.00351E+01 6.12662E-01 1.28269E-03 9.46875E-01-8.33442E-14-8.76222E-14
 -1      2689 2.00970E+01 6.04379E-01-4.69742E-03 1.28160E+00-4.73374E-14-8.23853E-14
 -1      2690 2.01467E+01 6.64615E-01 5.37932E-03 1.43044E+00-6.99066E-14-6.02792E-14
 -1      2691 1.99257E+01 7.05967E-01 3.24184E-03 1.20316E+00-6.85160E-14-1.03414E-13
 -1      2692 2.00416E+01 7.21356E-01-6.84391E-03 1.58261E+00-9.37806E-14-3.75215E-14
 -1      2693 2.00956E+01 7.83662E-01 6.48351E-03 1.75298E+00-7.38530E-14-2.63927E-14
 -1      2694 1.97683E+01 8.37485E-01 5.52840E-03 1.48252E+00-5.80873E-14-2.97914E-14
 -1      2695 1.99430E+01 8.31853E-01-8.27447E-03 1.94118E+00-4.15298E-14-4.24698E-15
 -1      2696 2.00021E+01 8.65198E-01 8.33075E-03 2.14428E+00 1.36182E-14 1.97544E-14
 -1      2697 1.95325E+01 9.74473E-01 6.95460E-03 1.81130E+00-3.70897E-14-7.37875E-15
 -1      2698 1.98125E+01 8.53213E-01-9.16244E-03 2.36176E+00 4.39304E-14 2.87566E-14
 -1      2699 1.99018E+01 7.98675E-01 1.20158E-02 2.56728E+00 6.91987E-14 2.89773E-14
 -1      2700 1.92101E+01 1.04703E+00 8.80042E-03 2.19951E+00 3.26310E-14-1.12327E-14
 -1      2701 1.97018E+01 6.54915E-01-5.62731E-03 2.83551E+00 9.57358E-14 5.46156E-15
 -1      2702 1.98934E+01 4.12207E-01 2.16585E-02 3.03237E+00 1.39093E-13-3.62195E-14
 -1      2703 1.88260E+01 9.27237E-01 8.11575E-03 2.66654E+00 3.74422E-14-2.24744E-14
 -1      2704 1.97748E+01 1.43325E-02 9.64400E-03 3.36559E+00 1.85448E-13-1.29471E-14
 -1      2705 2.02120E+01-5.62765E-01 3.98552E-02 3.50661E+00 2.11411E-13-2.33112E-14
 -1      2706 1.84615E+01 4.09392E-01 4.47208E-03 3.27372E+00 1.50194E-13-4.39961E-14
 -1      2707 2.04200E+01-1.31549E+00 7.06376E-02 3.87298E+00 2.71332E-13 2.35680E-14
 -1      2708 2.13035E+01-2.41763E+00 5.93410E-02 3.87234E+00 3.80286E-13-6.02469E-15
 -1      2709 1.83995E+01-8.49098E-01 1.55339E-03 4.06233E+00 2.72681E-13-3.25295E-14
 -1      2710 3.17706E+01-2.22287E+00-1.94288E-01-1.80925E+00-2.67932E-13 7.24087E-13
 -1      2711 3.26579E+01 2.18749E+00-1.51278E-01 3.22324E+00-4.30045E-13 7.61335E-14
 -1      2712 6.39726E+00-7.62823E-01 1.60914E-01 2.61904E+00-2.94265E-13 9.26481E-14
 -1      2713 6.51499E+00-3.20062E-01 1.59890E-01 5.28478E-02-2.27740E-13 7.66609E-14
 -1      2714 3.10197E+01 8.29856E-01 1.32792E-02 3.60477E+00-2.96763E-13 5.88973E-14
 -1      2715 3.03073E+01-1.62322E+00-2.52868E-01 3.20305E+00-2.38518E-13 1.14908E-14
 -1      2716 2.69467E+01-5.31730E+00 9.84594E-03-2.22170E+00 1.69684E-13 3.07983E-13
 -1      2717 2.26739E+01-3.31792E+00 5.60312E-02-3.55419E+00 2.54803E-13 1.62207E-13
 -1      2718 2.15991E+01-2.06862E+00 9.42953E-02-3.72713E+00 1.58558E-13 1.02770E-13
 -1      2719 2.10502E+01-1.16763E+00 3.98733E-02-3.46252E+00 6.99024E-14 3.16564E-14
 -1      2720 2.04558E+01-4.16416E-01 3.03061E-02-3.40406E+00 1.29827E-14-5.71925E-14
 -1      2721 1.91884E+01-1.67665E+00-2.56571E-02-4.19388E+00 5.30374E-14 2.41300E-14
 -1      2722 2.03995E+01 1.03869E-01 2.37904E-02-3.07779E+00-3.86687E-14-9.11649E-14
 -1      2723 2.01131E+01 4.62745E-01 2.62277E-03-2.90703E+00-6.41306E-14-2.95085E-14
 -1      2724 1.88419E+01-3.32849E-02-6.80783E-03-3.44699E+00-7.45307E-14-3.63772E-15
 -1      2725 2.02397E+01 6.87213E-01 1.36720E-02-2.61377E+00-8.38368E-14-1.16501E-13
 -1      2726 2.00996E+01 8.04760E-01-6.08703E-03-2.40510E+00-7.30915E-14-1.37155E-13
 -1      2727 1.90121E+01 7.65937E-01 3.22586E-03-2.78900E+00-1.46612E-13-4.55445E-14
 -1      2728 2.02576E+01 8.56844E-01 8.68401E-03-2.15875E+00-3.76630E-14-2.64272E-13
 -1      2729 2.01730E+01 8.52554E-01-7.44269E-03-1.95044E+00 2.56283E-14-2.13491E-13
 -1      2730 1.93240E+01 1.03030E+00 7.55662E-03-2.25696E+00-1.11201E-13-2.14132E-13
 -1      2731 2.03065E+01 8.22698E-01 6.68639E-03-1.74425E+00 4.88177E-14-1.95817E-13
 -1      2732 2.02379E+01 7.67308E-01-6.68792E-03-1.55561E+00 1.10170E-14-1.25447E-13
 -1      2733 1.96113E+01 1.02173E+00 7.93744E-03-1.82032E+00 9.55372E-15-3.87430E-13
 -1      2734 2.03333E+01 7.07637E-01 5.66064E-03-1.38409E+00-1.35178E-15-3.31635E-14
 -1      2735 2.02689E+01 6.38562E-01-5.38578E-03-1.22280E+00 1.44991E-13-1.22012E-13
 -1      2736 1.98251E+01 8.97008E-01 6.51006E-03-1.45644E+00 4.35780E-14-1.70034E-13
 -1      2737 2.03296E+01 5.74723E-01 4.91612E-03-1.08169E+00 1.79683E-13-1.91497E-13
 -1      2738 2.02685E+01 5.08971E-01-4.10097E-03-9.48934E-01 1.77227E-13-2.94550E-13
 -1      2739 1.99643E+01 7.39316E-01 4.68358E-03-1.15291E+00 3.85059E-14-4.53579E-14
 -1      2740 2.03030E+01 4.51709E-01 4.22157E-03-8.34413E-01 1.88528E-13-3.45790E-13
 -1      2741 2.02468E+01 3.95561E-01-3.00596E-03-7.27960E-01 1.13644E-13-2.52608E-13
 -1      2742 2.00442E+01 5.87527E-01 3.06229E-03-9.02182E-01 1.30918E-13-2.10203E-13
 -1      2743 2.02634E+01 3.48065E-01 3.52868E-03-6.36227E-01 3.34099E-14-3.35917E-13
 -1      2744 2.02137E+01 3.02541E-01-2.28153E-03-5.52364E-01-6.95214E-14-3.00406E-13
 -1      2745 2.00829E+01 4.56740E-01 1.85484E-03-6.97873E-01-5.81669E-15-3.31868E-13
 -1      2746 2.02188E+01 2.62912E-01 2.86605E-03-4.76290E-01-1.80140E-14-3.35153E-13
 -1      2747 2.01753E+01 2.26001E-01-1.60199E-03-4.08598E-01 1.04974E-13-5.00764E-13
 -1      2748 2.00955E+01 3.48085E-01 1.16045E-03-5.30231E-01-1.26450E-13-4.02526E-13
 -1      2749 2.01746E+01 1.97227E-01 2.33942E-03-3.52573E-01 1.40241E-13-6.68352E-13
 -1      2750 2.01404E+01 1.70055E-01-1.05412E-03-3.03122E-01 5.65726E-14-5.93052E-13
 -1      2751 2.00922E+01 2.62016E-01 4.16497E-04-3.97566E-01 1.54090E-14-4.42118E-13
 -1      2752 2.01363E+01 1.47899E-01 1.85805E-03-2.59631E-01 2.82605E-14-4.11729E-13
 -1      2753 2.01089E+01 1.27115E-01-7.30879E-04-2.21936E-01-3.58420E-14-3.23705E-13
 -1      2754 2.00817E+01 1.97408E-01 8.84799E-05-2.96532E-01 1.19728E-13-3.41916E-13
 -1      2755 2.01037E+01 1.10242E-01 1.45738E-03-1.88533E-01 8.03151E-14-1.72114E-13
 -1      2756 2.00822E+01 9.44411E-02-5.02623E-04-1.60023E-01 3.89118E-14 1.74688E-14
 -1      2757 2.00683E+01 1.47802E-01-8.44196E-05-2.18093E-01 1.62960E-13-1.59057E-13
 -1      2758 2.00769E+01 8.16464E-02 1.12998E-03-1.34606E-01-1.28731E-13 1.28338E-13
 -1      2759 2.00605E+01 6.96805E-02-3.43402E-04-1.13220E-01-1.05533E-13 1.55436E-13
 -1      2760 2.00549E+01 1.09942E-01-1.65762E-04-1.57805E-01 1.10377E-14 7.55608E-14
 -1      2761 2.00557E+01 6.00123E-02 8.65843E-04-9.40673E-02-3.02609E-13-1.43864E-14
 -1      2762 2.00435E+01 5.09830E-02-2.33010E-04-7.81700E-02-4.32554E-13-9.66139E-14
 -1      2763 2.00426E+01 8.11746E-02-1.92790E-04-1.11934E-01-3.29113E-13 6.52216E-14
 -1      2764 2.00394E+01 4.37019E-02 6.55467E-04-6.38941E-02-4.05382E-13-3.61950E-15
 -1      2765 2.00304E+01 3.69138E-02-1.56924E-04-5.22014E-02-2.05115E-13-2.36563E-14
 -1      2766 2.00322E+01 5.94020E-02-1.89293E-04-7.74044E-02-2.89472E-13-1.00162E-13
 -1      2767 2.00271E+01 3.14491E-02 4.89918E-04-4.16938E-02-7.90164E-14-1.50247E-13
 -1      2768 2.00206E+01 2.63634E-02-1.05063E-04-3.32056E-02 6.92631E-14-1.41583E-13
 -1      2769 2.00237E+01 4.29865E-02-1.70136E-04-5.17208E-02-2.00800E-13 1.40452E-14
 -1      2770 2.00180E+01 2.22720E-02 3.61215E-04-2.55916E-02 2.00697E-13-6.24338E-14
 -1      2771 2.00135E+01 1.84669E-02-7.04032E-05-1.95368E-02 3.25211E-13-9.20296E-14
 -1      2772 2.00169E+01 3.06520E-02-1.44293E-04-3.28841E-02 1.73180E-13 7.91933E-14
 -1      2773 2.00115E+01 1.53989E-02 2.62797E-04-1.41339E-02 2.95946E-13-2.76920E-13
 -1      2774 2.00085E+01 1.25343E-02-4.92348E-05-9.92678E-03 2.18493E-13-1.94814E-13
 -1      2775 2.00118E+01 2.13952E-02-1.17023E-04-1.93153E-02 1.95123E-13-6.40926E-15
 -1      2776 2.00070E+01 1.02016E-02 1.88554E-04-6.21868E-03 7.11593E-14-2.98112E-13
 -1      2777 2.00051E+01 8.00449E-03-3.61525E-05-3.43129E-03-1.67734E-14-5.14844E-13
 -1      2778 2.00079E+01 1.43988E-02-9.37531E-05-9.78657E-03 3.89229E-14-2.04258E-13
 -1      2779 2.00040E+01 6.14265E-03 1.24292E-04-1.03168E-03-1.03803E-14-4.98030E-13
 -1      2780 2.00028E+01 4.46269E-03-1.62378E-06 6.16438E-04-5.17779E-14-5.11133E-13
 -1      2781 2.00050E+01 9.02695E-03-6.88977E-05-3.37731E-03-3.99653E-14-4.48642E-13
 -1      2782 2.00022E+01 3.45228E-03 5.00408E-05 1.61026E-03-9.51672E-14-4.62476E-13
 -1      2783 2.00019E+01 2.33013E-03 1.67766E-05 2.20019E-03 9.13119E-14-4.26440E-13
 -1      2784 2.00022E+01 2.80045E-03-3.78046E-05 1.70591E-03 1.05149E-13-4.16989E-13
 -1      2785 2.00033E+01 5.48985E-03-3.18906E-05 6.54902E-05 3.11346E-15-2.28540E-13
 -1      2786 2.02169E+01 2.69948E-01-1.39894E-04-3.18308E-01 1.31826E-13-4.62189E-14
 -1      2787 2.02292E+01 3.43270E-01 6.01260E-03-2.19544E-01 1.44445E-13-5.79714E-14
 -1      2788 2.02362E+01 1.57574E-01 1.75543E-04-4.67466E-01 1.20244E-13-7.89879E-15
 -1      2789 2.02190E+01 2.11891E-01 4.25692E-03-4.04727E-01 1.30091E-13-2.64304E-15
 -1      2790 2.02550E+01 3.09803E-01-3.15462E-03-3.63288E-01 1.20810E-13-9.89792E-14
 -1      2791 2.02409E+01 4.27561E-01-8.85304E-04-9.44047E-02 1.65902E-13-7.22912E-14
 -1      2792 2.02885E+01 5.36980E-01 7.87229E-03 5.43334E-02 1.69183E-13-6.46804E-14
 -1      2793 2.02765E+01 4.91382E-01-2.94289E-03-1.38648E-01 1.55923E-13-1.37359E-13
 -1      2794 2.03954E+01-3.74715E-02-7.21553E-04-5.92850E-01 4.25670E-14-3.51198E-14
 -1      2795 2.03377E+01 1.49804E-02 2.97328E-03-5.86604E-01 7.43985E-14-2.43127E-14
 -1      2796 2.05303E+01-1.54143E-01-1.87852E-03-5.70055E-01-3.41183E-14 2.02200E-14
 -1      2797 2.04604E+01-9.12994E-02 3.20375E-03-5.94039E-01 1.23204E-14-1.20738E-14
 -1      2798 2.04199E+01-7.43016E-02-3.27905E-03-6.49404E-01 7.12360E-15-1.54976E-14
 -1      2799 2.06982E+01-2.94649E-01-3.45062E-03-4.78221E-01-6.18008E-14 6.05698E-14
 -1      2800 2.06218E+01-2.19153E-01 3.79147E-03-5.37852E-01-4.62420E-14 6.53541E-15
 -1      2801 2.05652E+01-2.25945E-01-3.53136E-03-6.25678E-01-3.53188E-14 2.30569E-14
 -1      2802 2.08924E+01-4.53197E-01-5.25309E-03-3.03586E-01-1.50260E-14 4.45625E-14
 -1      2803 2.08168E+01-3.69822E-01 4.41363E-03-4.04488E-01-3.72094E-14 3.27005E-14
 -1      2804 2.07612E+01-4.05870E-01-3.65140E-03-5.26435E-01-3.66776E-14 8.81016E-16
 -1      2805 2.10977E+01-6.05096E-01-6.80753E-03-3.62771E-02-9.98409E-15 7.79337E-14
 -1      2806 2.10333E+01-5.29255E-01 4.54864E-03-1.80184E-01-2.10927E-14 2.86506E-14
 -1      2807 2.10053E+01-6.02273E-01-3.22562E-03-3.34515E-01-2.31377E-14-6.33730E-15
 -1      2808 2.12859E+01-7.01168E-01-7.18915E-03 3.18149E-01-6.36035E-14 7.67433E-14
 -1      2809 2.12461E+01-6.61402E-01 3.45897E-03 1.39442E-01-2.27483E-14 1.55532E-13
 -1      2810 2.12812E+01-7.78097E-01-1.66156E-03-3.68820E-02-3.96159E-14 2.18620E-14
 -1      2811 2.14135E+01-6.70362E-01-5.05373E-03 7.22480E-01-4.50929E-14 4.60282E-14
 -1      2812 2.14129E+01-7.05386E-01 4.32808E-04 5.34288E-01-5.42750E-14 5.40333E-14
 -1      2813 2.15515E+01-8.65600E-01 1.51565E-03 3.61015E-01-2.86542E-14 3.09478E-14
 -1      2814 2.14313E+01-4.42104E-01 4.53632E-04 1.09184E+00 1.28991E-14 5.23201E-14
 -1      2815 2.14786E+01-5.85894E-01-4.63075E-03 9.41240E-01-2.59949E-14 2.43451E-14
 -1      2816 2.17535E+01-7.73827E-01 6.06756E-03 8.13665E-01-5.55430E-14 1.60206E-14
 -1      2817 2.13097E+01 4.67165E-03 8.23016E-03 1.29505E+00 8.84522E-14 1.17748E-13
 -1      2818 2.13990E+01-2.48976E-01-1.04824E-02 1.24426E+00 4.60050E-14 1.18298E-13
 -1      2819 2.18142E+01-4.25948E-01 9.68337E-03 1.21415E+00-1.42199E-14 8.89289E-14
 -1      2820 2.10751E+01 5.85424E-01 1.42745E-02 1.19461E+00 9.09925E-14 1.24912E-13
 -1      2821 2.11797E+01 2.81562E-01-1.38124E-02 1.29666E+00 1.19654E-13 1.12333E-13
 -1      2822 2.16935E+01 1.75738E-01 8.89931E-03 1.39958E+00 1.21194E-13 1.57558E-13
 -1      2823 2.08301E+01 1.09727E+00 1.34506E-02 7.32445E-01 1.76807E-14 1.19453E-13
 -1      2824 2.09088E+01 8.59137E-01-1.07634E-02 9.91791E-01 7.29828E-14 1.41815E-13
 -1      2825 2.14388E+01 8.85116E-01 1.83464E-03 1.21127E+00 1.04282E-13 1.85627E-13
 -1      2826 2.07111E+01 1.30864E+00 4.14167E-03 7.80505E-03 7.74164E-15 5.95140E-14
 -1      2827 2.07271E+01 1.24967E+00-2.33002E-03 3.57325E-01 4.09828E-16 7.85281E-14
 -1      2828 2.11991E+01 1.43940E+00-6.35173E-03 6.14035E-01 6.71952E-14 7.57408E-14
 -1      2829 2.08005E+01 1.11211E+00-6.38693E-03-7.31502E-01 2.57578E-14-1.62500E-15
 -1      2830 2.07462E+01 1.26134E+00 9.08040E-03-4.10249E-01 6.39766E-15-1.28732E-14
 -1      2831 2.11384E+01 1.57306E+00-9.94219E-03-2.25922E-01-4.91577E-16-9.99033E-14
 -1      2832 2.10495E+01 6.11463E-01-1.27924E-02-1.23224E+00 3.20118E-14 1.37037E-14
 -1      2833 2.09471E+01 8.92583E-01 1.46829E-02-1.03921E+00 6.46978E-14 3.72646E-14
 -1      2834 2.13029E+01 1.22870E+00-2.83423E-03-9.88440E-01 3.99468E-14-2.74169E-14
 -1      2835 2.13205E+01 3.76596E-02-1.26086E-02-1.37297E+00 4.82991E-14 8.97250E-14
 -1      2836 2.12118E+01 3.25625E-01 1.16410E-02-1.34155E+00 1.87133E-15 4.48042E-14
 -1      2837 2.15764E+01 5.74641E-01 5.46022E-03-1.40920E+00-1.50797E-14 1.62074E-14
 -1      2838 2.14894E+01-4.05023E-01-7.40539E-03-1.19967E+00 7.69636E-14 7.30619E-14
 -1      2839 2.14100E+01-2.03280E-01 4.26948E-03-1.29763E+00 1.40419E-13 6.76928E-14
 -1      2840 2.17855E+01-1.02214E-01 9.83853E-03-1.41894E+00 8.38170E-14-4.72764E-14
 -1      2841 2.15090E+01-6.30898E-01-1.55281E-03-8.48228E-01 7.54600E-14-1.21590E-13
 -1      2842 2.14755E+01-5.44044E-01-2.61505E-03-1.01462E+00 7.02092E-14-1.21472E-14
 -1      2843 2.18256E+01-5.84829E-01 8.42382E-03-1.12673E+00 2.07822E-13-3.49829E-14
 -1      2844 2.14017E+01-6.59600E-01 2.58334E-03-4.55955E-01 1.40569E-13-1.60478E-13
 -1      2845 2.14120E+01-6.67110E-01-6.53530E-03-6.33969E-01 8.74932E-14-1.78426E-13
 -1      2846 2.16960E+01-7.99363E-01 4.11357E-03-7.03207E-01 9.80119E-14-1.65930E-13
 -1      2847 2.12206E+01-5.62310E-01 4.47584E-03-1.13171E-01 4.63117E-14-1.34438E-13
 -1      2848 2.12625E+01-6.24752E-01-7.41301E-03-2.66733E-01 1.29475E-13-8.78934E-14
 -1      2849 2.14587E+01-7.90157E-01-1.55380E-06-2.88108E-01 1.15294E-13-2.45434E-13
 -1      2850 2.10153E+01-4.10958E-01 4.77403E-03 1.40919E-01-3.29155E-14-2.36943E-13
 -1      2851 2.10748E+01-4.92901E-01-6.39030E-03 2.74629E-02 3.31974E-14-1.42374E-13
 -1      2852 2.11845E+01-6.48252E-01-2.36972E-03 4.37277E-02 9.38608E-14-1.72168E-13
 -1      2853 2.08185E+01-2.56677E-01 4.12373E-03 3.02336E-01-2.12271E-13-1.05460E-13
 -1      2854 2.08845E+01-3.34903E-01-4.64600E-03 2.30359E-01-1.60842E-13-2.12972E-13
 -1      2855 2.09237E+01-4.57586E-01-3.17971E-03 2.70499E-01-9.52730E-14-1.71791E-13
 -1      2856 2.06462E+01-1.26789E-01 3.12388E-03 3.85036E-01-8.75206E-14 2.68345E-14
 -1      2857 2.07113E+01-1.89985E-01-2.91013E-03 3.48410E-01-1.29339E-13-2.55909E-14
 -1      2858 2.07012E+01-2.73615E-01-3.08984E-03 4.00763E-01-2.30072E-13-6.81581E-14
 -1      2859 2.05030E+01-3.08353E-02 2.13662E-03 4.08988E-01-2.69208E-14 8.67238E-14
 -1      2860 2.05632E+01-7.59446E-02-1.47765E-03 3.98888E-01-4.10165E-14 1.29156E-13
 -1      2861 2.05239E+01-1.23807E-01-2.60193E-03 4.55278E-01-8.54101E-14-1.44653E-13
 -1      2862 2.03876E+01 3.21773E-02 1.32437E-03 3.93633E-01-5.64241E-14 1.70952E-13
 -1      2863 2.04411E+01 3.64036E-03-4.23290E-04 4.01344E-01-3.35178E-14 1.55152E-13
 -1      2864 2.03882E+01-1.60181E-02-2.02661E-03 4.56653E-01-9.36061E-14-8.62600E-15
 -1      2865 2.02962E+01 6.80793E-02 7.26229E-04 3.55066E-01 3.35280E-14 2.94272E-14
 -1      2866 2.03424E+01 5.27067E-02 2.80869E-04 3.73284E-01-3.57291E-14 1.25872E-13
 -1      2867 2.02869E+01 5.28565E-02-1.51446E-03 4.24572E-01 1.37471E-14 8.65072E-14
 -1      2868 2.02246E+01 8.39951E-02 3.23002E-04 3.05328E-01-5.05577E-14 1.56147E-13
 -1      2869 2.02636E+01 7.80578E-02 7.00296E-04 3.28548E-01 1.34514E-15 7.32245E-14
 -1      2870 2.02121E+01 9.05703E-02-1.11279E-03 3.74304E-01-3.52736E-14 1.79637E-13
 -1      2871 2.01688E+01 8.65048E-02 7.38597E-05 2.52698E-01 1.81077E-13 1.38833E-13
 -1      2872 2.02011E+01 8.67200E-02 9.06977E-04 2.77122E-01 8.89354E-14 1.50045E-13
 -1      2873 2.01571E+01 1.05772E-01-8.18693E-04 3.16749E-01 4.71020E-15 2.46239E-13
 -1      2874 2.01256E+01 8.09045E-02-6.43269E-05 2.02382E-01 1.56443E-13 1.34871E-13
 -1      2875 2.01519E+01 8.47075E-02 9.65869E-04 2.25627E-01 1.86995E-13 6.44442E-14
 -1      2876 2.01165E+01 1.06160E-01-6.10973E-04 2.59105E-01 1.73638E-13 1.70914E-13
 -1      2877 2.00923E+01 7.10785E-02-1.28494E-04 1.57281E-01 1.48861E-13 6.60712E-14
 -1      2878 2.01133E+01 7.66318E-02 9.29981E-04 1.78030E-01 1.58528E-13 9.76247E-14
 -1      2879 2.00864E+01 9.77959E-02-4.65778E-04 2.05697E-01 2.08542E-13 1.91538E-13
 -1      2880 2.00669E+01 5.96609E-02-1.46945E-04 1.18684E-01 2.45787E-13 6.16246E-14
 -1      2881 2.00833E+01 6.57465E-02 8.39577E-04 1.36367E-01 2.04940E-13 3.83432E-14
 -1      2882 2.00638E+01 8.50604E-02-3.63077E-04 1.58768E-01 1.74135E-13 1.33394E-13
 -1      2883 2.00477E+01 4.82980E-02-1.39764E-04 8.68272E-02-1.62201E-13 2.13121E-13
 -1      2884 2.00603E+01 5.41750E-02 7.23404E-04 1.01358E-01 6.94602E-14 8.37465E-14
 -1      2885 2.00469E+01 7.08820E-02-2.88215E-04 1.19143E-01 5.66632E-14 2.13186E-13
 -1      2886 2.00333E+01 3.79135E-02-1.20357E-04 6.13182E-02-3.05717E-14 1.29638E-13
 -1      2887 2.00427E+01 4.31838E-02 6.00729E-04 7.28987E-02-1.27568E-13 1.05413E-13
 -1      2888 2.00342E+01 5.70615E-02-2.31355E-04 8.67450E-02-8.59865E-14 1.34679E-13
 -1      2889 2.00226E+01 2.89331E-02-9.71662E-05 4.14389E-02-7.15370E-14 1.40436E-13
 -1      2890 2.00296E+01 3.34307E-02 4.83556E-04 5.04159E-02-3.08151E-14 7.37786E-14
 -1      2891 2.00246E+01 4.45828E-02-1.86330E-04 6.09827E-02 3.18536E-14 1.82035E-14
 -1      2892 2.00150E+01 2.14599E-02-7.50260E-05 2.63488E-02-4.37522E-14 1.42053E-13
 -1      2893 2.00200E+01 2.51665E-02 3.78629E-04 3.31202E-02-5.42721E-14 1.06851E-13
 -1      2894 2.00175E+01 3.38727E-02-1.49351E-04 4.10147E-02-6.28326E-14 5.69656E-14
 -1      2895 2.00095E+01 1.53962E-02-5.77436E-05 1.52131E-02-6.04588E-14 1.42221E-13
 -1      2896 2.00130E+01 1.83853E-02 2.88988E-04 2.01683E-02-8.10536E-14 1.90478E-13
 -1      2897 2.00121E+01 2.50006E-02-1.18061E-04 2.59287E-02-1.02459E-13 8.16082E-14
 -1      2898 2.00058E+01 1.05362E-02-4.30578E-05 7.29353E-03-7.08811E-14 1.20565E-13
 -1      2899 2.00081E+01 1.29212E-02 2.14621E-04 1.07716E-02 2.98692E-14 2.39015E-13
 -1      2900 2.00082E+01 1.78068E-02-9.28784E-05 1.48513E-02-6.01668E-16 2.55389E-13
 -1      2901 2.00033E+01 6.63092E-03-2.62581E-05 1.95217E-03-7.40762E-14-1.14295E-13
 -1      2902 2.00047E+01 8.54895E-03 1.55357E-04 4.24080E-03-6.43321E-14-1.22555E-13
 -1      2903 2.00053E+01 1.20589E-02-6.54884E-05 7.03630E-03 1.07219E-13-1.87766E-13
 -1      2904 2.00017E+01 3.44273E-03-2.30073E-05-1.21098E-03-9.23038E-14-1.45318E-13
 -1      2905 2.00026E+01 5.09585E-03 1.09510E-04 1.12687E-04-1.21583E-13-4.77327E-14
 -1      2906 2.00033E+01 7.42797E-03-7.90010E-05 1.89289E-03-1.04193E-13-2.95359E-13
 -1      2907 2.00019E+01 3.57863E-03-6.54366E-05-1.12166E-03-1.61018E-16-4.48186E-13
 -1      2908 2.00014E+01 7.33492E-03-5.47298E-05 5.60536E-04 3.14568E-13 3.42590E-13
 -1      2909 2.00018E+01 6.57532E-03 2.81578E-05 1.93572E-04 1.82641E-13 1.21243E-13
 -1      2910 1.99999E+01 1.09157E-02-5.08563E-05 4.79604E-04-1.61361E-13-3.08592E-13
 -1      2911 2.00002E+01 1.05222E-02 7.35020E-06 6.02403E-04-8.05700E-15-5.29514E-14
 -1      2912 2.00019E+01 5.45748E-03-5.30122E-05-1.29959E-04 4.22803E-14-6.57985E-15
 -1      2913 2.00020E+01 4.68054E-03 1.03305E-05-6.29001E-04 5.07161E-14-3.07194E-13
 -1      2914 2.00027E+01 6.79567E-03 9.84209E-05 5.15449E-04-1.33164E-14-2.77330E-13
 -1      2915 2.00023E+01 8.90927E-03 5.47691E-05 1.19313E-03 1.49094E-13 2.42391E-13
 -1      2916 2.00006E+01 9.40604E-03-5.45818E-05 7.79870E-04 7.37478E-14 7.37780E-14
 -1      2917 2.00010E+01 8.80353E-03 2.49875E-05 6.60788E-04 1.31416E-13 2.36175E-13
 -1      2918 2.00013E+01 1.13311E-02-2.22335E-05 1.55303E-03 1.56542E-13 2.25695E-13
 -1      2919 2.00004E+01 1.38970E-02 6.73950E-05 1.41570E-03-4.75838E-14-1.48779E-13
 -1      2920 1.99999E+01 1.13592E-02-1.11676E-05-8.64857E-04-2.47029E-13 2.11697E-13
 -1      2921 1.99997E+01 1.15565E-02-3.81099E-05-6.62698E-04-3.80713E-13 4.44929E-13
 -1      2922 2.00007E+01 1.02434E-02 1.26176E-05-1.22426E-03-1.74221E-13 1.00672E-13
 -1      2923 2.00002E+01 1.06969E-02-5.43889E-05-1.20130E-03-2.47057E-13 2.17884E-13
 -1      2924 2.00000E+01 1.53876E-02 8.09748E-05-1.47761E-03-2.16945E-13 2.24214E-13
 -1      2925 2.00016E+01 8.40050E-03 3.14395E-05-1.01921E-03-3.86021E-14 3.36388E-13
 -1      2926 2.00011E+01 9.05202E-03-6.06804E-05-1.26334E-03-9.38543E-14 2.41122E-13
 -1      2927 2.00010E+01 1.36050E-02 6.79853E-05-2.02385E-03-3.02454E-13 2.09016E-13
 -1      2928 2.00024E+01 6.10196E-03 2.92003E-05-1.43066E-04-2.41491E-14 2.72168E-13
 -1      2929 2.00021E+01 6.87628E-03-5.15441E-05-6.70987E-04-5.83148E-14 4.96542E-13
 -1      2930 2.00022E+01 1.09624E-02 4.77982E-05-1.83139E-03-9.91866E-14 3.00484E-13
 -1      2931 2.24184E+01-5.17728E+00-7.64815E-02 5.38275E+00-5.38666E-13-8.76434E-14
 -1      2932 1.91219E+01-4.72179E+00 1.46119E-01 6.43366E+00-5.79148E-13 2.42584E-14
 -1      2933 2.03919E+01 1.78234E+00-9.66301E-03-1.15531E+00-2.58508E-13-1.40054E-13
 -1      2934 2.03779E+01 1.41606E+00-5.20315E-03-8.39092E-01-2.27788E-13-1.19117E-13
 -1      2935 3.16407E+01-2.71484E+00-5.91750E-03-9.81963E-01-1.38769E-13 6.49120E-13
 -1      2936 7.86038E+00-8.19184E-01 1.38603E-01-2.72768E+00 2.45776E-14 3.17135E-13
 -1      2937 9.81028E+00-1.88047E+00 1.43363E-01-4.63454E+00 1.40318E-13 4.24466E-13
 -1      2938 9.52728E+00-2.14671E+00 7.90125E-02 5.79631E+00-3.06560E-13 2.01561E-13
 -1      2939 7.45712E+00-1.29648E+00 1.55495E-01 4.26551E+00-2.83495E-13 1.82881E-13
 -1      2940 8.75545E+00-3.34287E-01 1.44801E-01 3.24470E+00-2.92197E-13 1.59622E-13
 -1      2941 1.24908E+01-1.86898E+00 1.84395E-01 5.67164E+00-3.29681E-13 1.44107E-13
 -1      2942 2.06597E+01-4.95877E+00 1.19177E-01-5.93441E+00-3.33747E-13-3.08083E-13
 -1      2943 2.36419E+01-5.11635E+00-4.19696E-02-4.80269E+00-2.48496E-13-2.28352E-13
 -1      2944 1.99996E+01 1.16064E-02-3.36481E-05-1.82271E-04-3.54481E-13 2.80602E-13
 -1      2945 1.99997E+01 1.14988E-02-1.57950E-05 5.72591E-05-1.72325E-13-9.69209E-14
 -1      2946 1.99995E+01 1.60681E-02 8.41774E-05-4.64346E-04-2.00415E-13 3.88474E-13
 -1      2947 2.51020E+01-4.88437E+00 7.20971E-02-3.11119E+00 2.55490E-13 2.01773E-13
 -1      2948 2.67624E+01-4.02971E+00-1.23509E-01 2.31325E+00-1.16698E-13-5.89140E-13
 -1      2949 2.52879E+01-4.58384E+00 8.31719E-02 3.50788E+00-3.41345E-13-3.41449E-13
 -1      2950 2.04099E+01 1.14165E+00 4.43229E-03-6.12633E-01-1.88954E-13-1.10494E-13
 -1      2951 2.03387E+01 9.28292E-01-3.22962E-03-3.41330E-01-1.66882E-13-9.64322E-14
 -1      2952 2.03238E+01 1.05193E+00 1.63000E-03-2.72532E-01-1.68256E-13-1.42346E-13
 -1      2953 2.03343E+01 1.51176E+00 1.63791E-03-6.98075E-01-2.07394E-13-1.55242E-13
 -1      2954 2.01270E+01 2.60392E+00-2.52076E-03-1.29477E+00-2.58997E-13-2.31893E-13
 -1      2955 2.56050E+01-4.67838E+00 2.71940E-02-3.45946E+00-2.13836E-13-1.45564E-13
 -1      2956 2.72628E+01-3.65635E+00-8.51563E-02-2.02694E+00-1.42421E-13-3.93435E-14
 -1      2957 2.44731E+01-4.72756E+00 5.74196E-02-3.64468E+00-3.09523E-13-1.14402E-13
 -1      2958 2.16297E+01-4.54749E+00-1.01459E-02-4.51859E+00 2.29039E-13 2.09735E-13
 -1      2959 1.98594E+01 2.73623E+00-7.09102E-03 6.53312E-01 1.98296E-13-3.07793E-13
 -1      2960 1.97888E+01 2.84227E+00-6.81274E-03 5.18915E-01 1.46510E-13-3.27792E-13
 -1      2961 1.98807E+01 2.57657E+00 4.63482E-03 3.85448E-01 1.13211E-13-3.12018E-13
 -1      2962 2.00193E+01 2.33845E+00 5.57672E-03 5.82162E-01 1.86460E-13-2.68193E-13
 -1      2963 2.87854E+01 6.67560E+00-2.05443E-01-9.18016E-01 5.25913E-13-2.38989E-13
 -1      2964 2.92267E+01 5.64326E+00-1.61714E-01-1.50035E+00 4.94382E-13-3.79627E-13
 -1      2965 7.95699E+00-1.45804E+00 1.39184E-01 3.60941E+00 2.92155E-13-3.39340E-13
 -1      2966 6.43440E+00-8.55965E-01 1.74417E-01 1.65190E+00 1.26350E-13-3.29126E-13
 -1      2967 1.42928E+01-3.61395E+00 1.87997E-01-6.79894E+00-3.11487E-13-5.68906E-13
 -1      2968 1.70684E+01-4.62345E+00-1.68700E-02-6.96707E+00-2.91045E-13-4.85140E-13
 -1      2969 5.76912E+00-7.35025E-01 1.56248E-01-3.44219E-01 7.28237E-15-5.20112E-13
 -1      2970 6.08926E+00-9.74130E-01 1.12070E-01-2.55687E+00-9.12881E-14-5.72931E-13
 -1      2971 2.98225E+01 3.37384E+00-9.63336E-02 1.64411E+00 4.35763E-13 2.61208E-13
 -1      2972 2.89587E+01 5.12534E+00-1.99584E-01 1.65144E+00 5.39568E-13 3.42004E-13
 -1      2973 1.97606E+01 2.89243E+00-6.71373E-03-5.25272E-01-8.87821E-14-3.49725E-13
 -1      2974 1.98300E+01 2.79140E+00-7.11730E-03-6.52319E-01-1.40395E-13-3.42525E-13
 -1      2975 7.88918E+00-1.48216E+00 1.94818E-01-4.43489E+00-1.68754E-13-6.45706E-13
 -1      2976 1.05877E+01-2.60186E+00 3.86316E-02-6.20276E+00-2.26708E-13-6.31439E-13
 -1      2977 2.92867E+01 4.05560E+00-1.82522E-01-1.67030E+00 3.85109E-13-4.85154E-13
 -1      2978 2.89465E+01 2.24821E+00-7.96693E-02-1.72543E+00 1.35308E-13-5.66408E-13
 -1      2979 2.75276E+01 4.22490E+00-9.40983E-02-1.86025E+00 2.69104E-13-4.76938E-13
 -1      2980 2.85630E+01 6.73154E+00-1.83072E-01 7.92163E-01 5.65714E-13 2.92162E-14
 -1      2981 2.88426E+01 7.19410E+00-1.82097E-01-8.14063E-02 5.83172E-13-1.35539E-13
 -1      2982 1.24166E+01-3.11006E+00 1.36089E-01-5.53293E+00 7.34551E-14 2.66759E-13
 -1      2983 1.64555E+01-4.23941E+00 1.00902E-01-5.87050E+00 1.43108E-13 1.93373E-13
 -1      2984 2.02966E+01 6.17822E-02-3.16400E-05-5.57336E-01 1.18391E-13-2.92710E-14
 -1      2985 2.02563E+01 1.10370E-01 3.28194E-03-5.23594E-01 1.39327E-13 1.61415E-14
 -1      2986 2.02688E+01 1.74484E-01-3.11117E-03-5.16645E-01 1.34268E-13-5.14623E-14
 -1      2987 2.03225E+01 5.40617E-02-3.11725E-03-6.11051E-01 1.14235E-13-7.43181E-14
 -1      2988 1.97506E+01 2.78185E+00 4.34333E-03-1.96773E-02 1.93210E-14-3.62097E-13
 -1      2989 1.96322E+01 3.08409E+00-5.45227E-03-6.59404E-02 1.39002E-14-3.82841E-13
 -1      2990 1.96422E+01 3.07015E+00-5.78670E-03-1.93833E-01-1.50720E-14-3.87672E-13
 -1      2991 2.04024E+01 1.64237E+00 1.23179E-03 1.11746E+00 2.77342E-13-7.96412E-14
 -1      2992 2.80550E+01 6.18066E-01-7.03456E-02-1.44074E+00 8.85680E-14-4.59549E-13
 -1      2993 8.91022E+00 6.05836E-01 9.98048E-02 4.66841E-02-2.16625E-13-1.02168E-13
 -1      2994 8.15029E+00 2.05301E-02 1.96318E-01-1.32477E+00-1.53426E-13 6.83897E-14
 -1      2995 1.02647E+01 2.15067E-01 1.32215E-01-2.33236E+00 5.28778E-14-1.98869E-14
 -1      2996 1.80175E+01-3.86205E+00 1.19033E-01 6.17897E+00-5.19057E-13-7.97730E-14
 -1      2997 1.94834E+01-3.44334E+00-7.60735E-03 4.95712E+00 4.42132E-13-4.24175E-14
 -1      2998 2.26925E+01-3.97433E+00 1.13432E-01 4.00395E+00 4.72448E-13 1.74947E-14
 -1      2999 2.43206E+01-5.03641E+00 5.98177E-02 3.56435E+00 4.14044E-13 1.57541E-13
 -1      3000 2.88541E+01 1.70883E+00-8.10055E-02 1.50482E+00 2.99552E-13 4.08423E-13
 -1      3001 1.97954E+01-4.40294E+00 8.93232E-02-5.83272E+00-3.55771E-13-3.12302E-13
 -1      3002 7.71162E+00-1.40470E-01 1.87618E-01 6.52642E-01 8.52929E-14-3.52024E-13
 -1      3003 2.73218E+01 6.22781E+00-1.19830E-01-5.89701E-01 4.24549E-13-1.70822E-13
 -1      3004 2.37334E+01-4.66480E+00 3.32583E-02 4.05432E+00-4.05009E-13-1.68258E-13
 -1      3005 1.99997E+01 1.55489E-02 7.94675E-05 6.41180E-04-1.27493E-13-1.76747E-13
 -1      3006 1.99142E+01 2.65275E+00-6.52936E-03-7.47703E-01-1.59947E-13-3.23951E-13
 -1      3007 2.00092E+01 2.50767E+00-5.81833E-03-8.66727E-01-1.95330E-13-2.91408E-13
 -1      3008 1.99844E+01 2.41069E+00 6.77068E-03-5.81178E-01-1.30136E-13-2.92442E-13
 -1      3009 2.01701E+01 2.28019E+00 5.78366E-04-1.03015E+00-2.23646E-13-2.39643E-13
 -1      3010 2.65529E+01-3.72145E+00 1.43694E-02-1.51885E+00-2.22305E-13 9.69641E-14
 -1      3011 2.80149E+01-2.89919E+00-2.35494E-02-9.37072E-01-1.04052E-13 6.78069E-14
 -1      3012 2.78790E+01-1.89759E+00-1.34489E-01 2.24617E-01-1.23200E-14 3.14443E-13
 -1      3013 2.00025E+01 4.02510E-03 1.32562E-05 9.98286E-04 6.92108E-15-3.62908E-13
 -1      3014 2.00025E+01 4.65871E-03-3.84623E-05 4.34681E-04 2.71296E-14-2.01640E-13
 -1      3015 2.00029E+01 8.02936E-03-9.98250E-06-8.84230E-04-3.15622E-13 1.39303E-13
 -1      3016 2.00030E+01 5.39969E-03-3.98881E-06 3.62937E-04-3.48941E-14-2.92777E-13
 -1      3017 2.03210E+01 7.65050E-01-2.40105E-03 1.77650E-01 1.81822E-13-1.28232E-13
 -1      3018 2.03120E+01 6.84899E-01 2.02637E-03 2.34559E-01 1.71201E-13-6.00602E-14
 -1      3019 2.03340E+01 7.56506E-01 6.56497E-03 3.64848E-01 1.92529E-13-3.58680E-14
 -1      3020 2.61500E+01-5.27465E+00 1.16623E-01 2.80342E+00 3.70426E-13 2.05516E-13
 -1      3021 2.81894E+01-5.07416E+00-1.31225E-01 1.33233E+00 2.16757E-13 3.93185E-13
 -1      3022 2.03881E+01 1.44878E+00 8.59707E-03 8.53022E-01 2.45293E-13-9.07819E-14
 -1      3023 1.72385E+01-4.31067E+00 1.04244E-01 5.76394E+00 4.38288E-13-2.16313E-13
 -1      3024 1.96667E+01 3.03277E+00-6.03235E-03-2.96986E-01-3.34640E-14-3.63517E-13
 -1      3025 1.97063E+01 2.97892E+00-6.10052E-03-4.24541E-01-7.53599E-14-3.49407E-13
 -1      3026 1.98488E+01 2.63232E+00 5.27971E-03-4.03174E-01-7.94455E-14-3.23132E-13
 -1      3027 1.97700E+01 2.75338E+00 4.64766E-03-2.14840E-01-3.10861E-14-3.45620E-13
 -1      3028 2.71434E+01-3.05092E+00-8.94990E-03 8.58632E-01-3.44906E-14-5.18238E-13
 -1      3029 1.28608E+01-1.79686E+00 1.81184E-01-4.75230E+00 1.16421E-13 2.87215E-13
 -1      3030 8.70033E+00-5.99385E-01 1.97180E-01-3.38081E+00-8.18789E-14-5.57498E-13
 -1      3031 1.02427E+01-1.66662E+00 1.95388E-01 4.40469E+00 3.98528E-13-3.88384E-13
 -1      3032 1.04315E+01-6.56569E-01 1.41721E-01 3.53021E+00 3.45432E-13-2.03532E-13
 -1      3033 1.26425E+01-2.01046E+00 5.85493E-02 5.02852E+00 4.34854E-13-2.26208E-13
 -1      3034 2.69170E+01 4.18850E+00-9.98505E-02 1.77714E+00 3.75477E-13 1.85560E-13
 -1      3035 2.79076E+01 5.54891E+00-1.50424E-01 1.41160E+00 4.61242E-13 1.12993E-13
 -1      3036 2.65006E+01 5.60816E+00-1.15535E-01 1.06052E+00 3.68622E-13-2.55386E-14
 -1      3037 1.34361E+01-2.52908E+00 1.56560E-01-6.04371E+00-2.18603E-13-5.87280E-13
 -1      3038 2.02558E+01 1.58558E+00-8.81720E-03 6.06463E-01 2.16119E-13-1.87795E-13
 -1      3039 2.01832E+01 1.79533E+00-2.20418E-03 5.46847E-01 1.94598E-13-2.25355E-13
 -1      3040 2.03872E+01 7.91206E-01 6.31583E-03 5.93988E-01 2.11320E-13 3.01227E-14
 -1      3041 2.69547E+01 1.29094E+00-1.20235E-01-1.96112E+00 2.48690E-14-4.82524E-13
 -1      3042 2.73517E+01-6.26656E-01-1.24384E-02-1.24860E+00-1.99354E-14-5.04971E-13
 -1      3043 1.63598E+01-2.25078E+00 1.67434E-01 5.08656E+00 4.55518E-13-1.31409E-13
 -1      3044 2.01816E+01 7.66665E-01 1.49869E-03 3.07057E-01-1.11352E-13-1.07875E-13
 -1      3045 2.01402E+01 7.11908E-01-9.44663E-04 4.54110E-01-7.53429E-14-8.70307E-14
 -1      3046 2.00739E+01 6.84058E-01-2.18411E-04 5.76651E-01-7.56821E-14-9.53913E-14
 -1      3047 2.00318E+01 6.78177E-01-7.23706E-06 7.05338E-01-9.84726E-14-1.25903E-13
 -1      3048 2.00557E+01 8.18577E-01 1.69248E-03 4.68273E-01-8.44913E-14-1.23094E-13
 -1      3049 1.99368E+01 6.91799E-01-2.28820E-03 8.15015E-01-1.02013E-13-1.29939E-13
 -1      3050 1.98875E+01 7.24230E-01 4.99100E-04 9.37500E-01-9.62241E-14-1.66601E-13
 -1      3051 1.98976E+01 7.95896E-01 3.00638E-03 6.99321E-01-1.08159E-13-1.79167E-13
 -1      3052 1.97554E+01 7.69834E-01-4.55929E-03 1.04301E+00-6.42072E-14-1.55382E-13
 -1      3053 1.96889E+01 8.31283E-01 6.79187E-04 1.16896E+00-4.66192E-14-1.58460E-13
 -1      3054 1.96807E+01 8.57989E-01 5.00360E-03 9.08056E-01-8.16940E-14-2.19274E-13
 -1      3055 1.95056E+01 8.98550E-01-7.23927E-03 1.27792E+00-4.46959E-14-1.19555E-13
 -1      3056 1.94113E+01 9.77263E-01 8.53474E-04 1.41490E+00-4.73126E-14-9.28465E-14
 -1      3057 1.93826E+01 9.84267E-01 7.79873E-03 1.10897E+00-1.71848E-14-1.86196E-13
 -1      3058 1.91454E+01 1.05564E+00-1.01032E-02 1.54144E+00-6.01130E-14-7.15621E-14
 -1      3059 1.90019E+01 1.13270E+00 1.69441E-03 1.70589E+00-1.42011E-14-8.19551E-14
 -1      3060 1.89576E+01 1.15216E+00 1.08206E-02 1.32163E+00-1.98238E-14-9.76636E-14
 -1      3061 1.86500E+01 1.18136E+00-1.44449E-02 1.85257E+00 6.03153E-15-4.34884E-14
 -1      3062 1.84773E+01 1.21283E+00 4.39368E-03 2.03815E+00 2.33769E-14-5.42682E-14
 -1      3063 1.83714E+01 1.31827E+00 1.59103E-02 1.55826E+00-1.12215E-15-5.53741E-14
 -1      3064 1.80100E+01 1.18052E+00-1.88736E-02 2.23753E+00 3.00062E-14-3.08696E-14
 -1      3065 1.78218E+01 1.10359E+00 1.19832E-02 2.47024E+00 4.00475E-14-6.21643E-14
 -1      3066 1.75931E+01 1.40231E+00 2.21689E-02 1.85459E+00 4.06555E-14-3.79384E-14
 -1      3067 1.72358E+01 8.88860E-01-1.83527E-02 2.76480E+00 9.19468E-14-1.70688E-14
 -1      3068 1.71230E+01 5.85302E-01 3.71609E-02 3.06116E+00 1.76678E-13-1.73529E-14
 -1      3069 1.66202E+01 1.28777E+00 5.20017E-02 2.31595E+00 9.73223E-14-2.70565E-14
 -1      3070 2.08075E+01-5.08057E-01-2.50301E-03-6.00959E-01-4.21637E-14-1.21111E-14
 -1      3071 2.07051E+01-3.87934E-01 6.07230E-03-6.64978E-01-3.83449E-14 4.24346E-15
 -1      3072 2.68787E+01-2.34937E+00-1.12174E-01-1.82769E-01-2.68023E-14-5.86278E-13
 -1      3073 2.60030E+01-3.39556E+00 8.48169E-03 1.09609E+00-1.54410E-13-5.36390E-13
 -1      3074 1.73239E+01 1.69856E-01 5.44073E-02-3.38367E+00-1.74277E-13 1.14023E-13
 -1      3075 1.72854E+01 6.59441E-01-2.49813E-03-3.02390E+00-1.92394E-13 8.76868E-14
 -1      3076 1.78584E+01 9.62471E-01 2.07837E-02-2.64100E+00-1.85722E-13-4.40043E-14
 -1      3077 1.79761E+01 1.12749E+00-1.80122E-02-2.36678E+00-2.34501E-13-1.03784E-13
 -1      3078 1.63560E+01 1.09516E+00 2.16201E-02-2.53225E+00-2.83938E-13-1.14355E-13
 -1      3079 1.84530E+01 1.21373E+00 7.29698E-03-2.11726E+00-2.89789E-13-4.83293E-14
 -1      3080 1.85994E+01 1.22090E+00-1.54251E-02-1.90150E+00-2.20245E-13-2.52137E-13
 -1      3081 1.73917E+01 1.40826E+00 2.19943E-02-1.96782E+00-3.17606E-13-3.24450E-14
 -1      3082 1.89592E+01 1.19552E+00 2.69291E-03-1.72068E+00-1.03443E-13-2.20373E-13
 -1      3083 1.90824E+01 1.13004E+00-1.18600E-02-1.54104E+00 4.36740E-14-2.78806E-13
 -1      3084 1.81913E+01 1.39533E+00 1.74224E-02-1.59317E+00-1.33913E-13-1.32290E-13
 -1      3085 1.93446E+01 1.05650E+00 1.42482E-03-1.39807E+00 1.37836E-13-2.52590E-13
 -1      3086 1.94303E+01 9.66678E-01-8.95823E-03-1.24571E+00 8.55587E-14-1.96705E-13
 -1      3087 1.87791E+01 1.24709E+00 1.29373E-02-1.30953E+00 1.65896E-13-2.56648E-13
 -1      3088 1.96157E+01 8.80703E-01 1.31505E-03-1.12702E+00 8.12664E-14-7.35199E-14
 -1      3089 1.96675E+01 7.90351E-01-6.73396E-03-9.98315E-01 1.15709E-13-2.65843E-14
 -1      3090 1.91988E+01 1.05206E+00 9.43563E-03-1.07601E+00 1.27648E-13-2.53041E-13
 -1      3091 1.97951E+01 7.08961E-01 1.45161E-03-8.98327E-01 3.61345E-14-1.58270E-14
 -1      3092 1.98216E+01 6.28510E-01-5.02471E-03-7.91083E-01 8.24576E-14-1.06502E-13
 -1      3093 1.94894E+01 8.56322E-01 6.66262E-03-8.76201E-01 5.01009E-14 6.05675E-14
 -1      3094 1.99074E+01 5.58160E-01 1.50045E-03-7.07122E-01-1.09943E-13-1.01596E-13
 -1      3095 1.99169E+01 4.90783E-01-3.83460E-03-6.19134E-01-2.95347E-13-2.99890E-13
 -1      3096 1.96850E+01 6.81111E-01 4.58913E-03-7.04349E-01-8.44031E-14-2.81371E-14
 -1      3097 1.99752E+01 4.30273E-01 1.49011E-03-5.46005E-01-1.85450E-13-2.71514E-13
 -1      3098 1.99748E+01 3.73771E-01-2.82258E-03-4.72118E-01-3.71205E-14-2.40194E-13
 -1      3099 1.98157E+01 5.30017E-01 3.11106E-03-5.54858E-01-2.15151E-13-1.05769E-13
 -1      3100 2.00106E+01 3.28348E-01 1.41225E-03-4.15824E-01 8.00132E-14-1.94729E-13
 -1      3101 2.00047E+01 2.85829E-01-2.01260E-03-3.59845E-01 7.82919E-14-8.39918E-14
 -1      3102 1.98984E+01 4.07265E-01 1.90554E-03-4.30250E-01 5.49161E-14 2.88825E-14
 -1      3103 2.00270E+01 2.50176E-01 1.27210E-03-3.14416E-01 8.23980E-14-1.27872E-13
 -1      3104 2.00189E+01 2.16912E-01-1.47671E-03-2.70390E-01 1.00504E-13-7.94004E-14
 -1      3105 1.99481E+01 3.12251E-01 1.16840E-03-3.30646E-01 5.94730E-14 4.61233E-14
 -1      3106 2.00326E+01 1.89231E-01 1.09064E-03-2.34289E-01 1.28497E-13-1.57606E-13
 -1      3107 2.00241E+01 1.63463E-01-1.07593E-03-2.00046E-01 2.16617E-13-6.82440E-14
 -1      3108 1.99780E+01 2.37607E-01 6.96642E-04-2.50109E-01 9.38273E-14-1.62339E-13
 -1      3109 2.00322E+01 1.42112E-01 9.08757E-04-1.71738E-01 1.63916E-13-1.03380E-13
 -1      3110 2.00244E+01 1.22272E-01-7.80280E-04-1.45394E-01-6.49737E-14-5.25202E-14
 -1      3111 1.99951E+01 1.79455E-01 3.95535E-04-1.85998E-01 1.77093E-13-2.28705E-13
 -1      3112 2.00289E+01 1.05889E-01 7.39175E-04-1.23486E-01-2.98286E-13 9.08475E-14
 -1      3113 2.00221E+01 9.06923E-02-5.62995E-04-1.03444E-01-3.61000E-13-6.88881E-14
 -1      3114 2.00043E+01 1.34453E-01 2.07695E-04-1.35701E-01-2.09967E-14-1.96113E-13
 -1      3115 2.00244E+01 7.81808E-02 5.88814E-04-8.67133E-02-4.16592E-13 2.06033E-13
 -1      3116 2.00188E+01 6.65999E-02-4.03834E-04-7.16442E-02-2.87059E-13 1.99434E-13
 -1      3117 2.00085E+01 9.98287E-02 9.42037E-05-9.67978E-02-2.97769E-13 3.46909E-13
 -1      3118 2.00198E+01 5.70898E-02 4.60345E-04-5.90464E-02-2.99501E-13 1.44030E-13
 -1      3119 2.00152E+01 4.83069E-02-2.87822E-04-4.78661E-02-1.45160E-13 1.85550E-13
 -1      3120 2.00100E+01 7.33323E-02 2.85296E-05-6.71363E-02-2.72717E-13 4.06748E-13
 -1      3121 2.00155E+01 4.11083E-02 3.53730E-04-3.85289E-02 5.19641E-14 9.56165E-14
 -1      3122 2.00119E+01 3.44722E-02-2.04154E-04-3.03661E-02 7.27187E-14 1.42733E-13
 -1      3123 2.00098E+01 5.31592E-02-6.98447E-06-4.48643E-02-1.03013E-13 3.37548E-13
 -1      3124 2.00117E+01 2.90358E-02 2.68000E-04-2.35779E-02 5.64425E-14 1.19450E-13
 -1      3125 2.00090E+01 2.40224E-02-1.43799E-04-1.77430E-02 9.27774E-15 1.28861E-14
 -1      3126 2.00087E+01 3.78584E-02-2.43754E-05-2.84321E-02 4.19227E-14 1.32489E-13
 -1      3127 2.00085E+01 1.99135E-02 2.04596E-04-1.29310E-02-7.52829E-15 3.32458E-14
 -1      3128 2.00065E+01 1.60681E-02-1.06769E-04-8.87645E-03-1.30017E-13-1.97908E-13
 -1      3129 2.00072E+01 2.62474E-02-3.69692E-05-1.65876E-02-2.91867E-14 3.46263E-14
 -1      3130 2.00059E+01 1.28875E-02 1.55759E-04-5.63423E-03-1.55831E-13-6.59304E-14
 -1      3131 2.00044E+01 9.91909E-03-5.82914E-05-2.97445E-03 4.03876E-15-1.15437E-13
 -1      3132 2.00055E+01 1.72837E-02-7.21702E-05-8.28352E-03-1.25825E-13 1.22424E-13
 -1      3133 2.02715E+01 3.53162E-01-7.56069E-04-4.07030E-01 1.28802E-13-1.52627E-13
 -1      3134 2.02803E+01 4.44054E-01 3.93550E-03-3.09314E-01 1.29052E-13-1.49821E-13
 -1      3135 2.02833E+01 5.46172E-01-1.91192E-03-1.94931E-01 1.40564E-13-1.62424E-13
 -1      3136 2.03089E+01 6.73175E-01 4.56964E-03-5.68539E-02 1.59417E-13-1.61421E-13
 -1      3137 2.02807E+01 5.96872E-01-1.50564E-03-2.42511E-01 1.30811E-13-1.92170E-13
 -1      3138 2.05869E+01-2.82241E-01-1.02029E-03-6.89893E-01-2.45741E-14 1.98719E-15
 -1      3139 2.05076E+01-1.81656E-01 4.61840E-03-7.13006E-01-1.04369E-14 2.80060E-14
 -1      3140 2.06038E+01-3.77233E-01-6.02017E-03-7.68406E-01-3.02931E-14 6.50958E-15
 -1      3141 2.04326E+01-9.45139E-02-1.83858E-04-7.02904E-01-3.26351E-14 6.77376E-15
 -1      3142 2.03770E+01-1.21398E-02 3.60951E-03-6.93102E-01 9.03191E-15-7.38919E-15
 -1      3143 2.04274E+01-1.46698E-01-4.80928E-03-7.69623E-01-2.58333E-14 2.74737E-15
 -1      3144 2.10963E+01-7.57367E-01-4.60569E-03-4.14186E-01-1.69648E-14-3.73480E-14
 -1      3145 2.09758E+01-6.28149E-01 7.55516E-03-5.28096E-01-1.55038E-14-1.89564E-14
 -1      3146 2.08696E+01-6.51602E-01-7.05859E-03-6.86834E-01-2.40466E-14-4.50001E-14
 -1      3147 2.14388E+01-9.83250E-01-6.86915E-03-1.09291E-01-6.84094E-14-1.54062E-14
 -1      3148 2.13127E+01-8.73530E-01 8.28916E-03-2.78250E-01-4.04731E-14-3.08671E-14
 -1      3149 2.12316E+01-9.46554E-01-7.18811E-03-4.95479E-01-2.82740E-14-1.17020E-14
 -1      3150 2.17926E+01-1.09644E+00-8.00883E-03 3.16337E-01-6.27006E-14 3.07001E-14
 -1      3151 2.16833E+01-1.05745E+00 6.93082E-03 9.98655E-02-6.03473E-14-1.92342E-14
 -1      3152 2.16741E+01-1.19677E+00-5.18159E-03-1.64624E-01-6.97884E-14 1.65943E-14
 -1      3153 2.20823E+01-9.70928E-01-5.49694E-03 8.20167E-01-4.73847E-14 9.38352E-14
 -1      3154 2.20185E+01-1.07087E+00 1.97993E-03 5.88893E-01-7.07367E-14 9.54414E-14
 -1      3155 2.21405E+01-1.28483E+00-2.66950E-05 3.14507E-01-1.04963E-13 7.02009E-14
 -1      3156 2.22128E+01-4.92028E-01 1.98500E-03 1.27853E+00-9.19105E-15 1.48457E-13
 -1      3157 2.22165E+01-7.82819E-01-6.99971E-03 1.10205E+00-4.36441E-14 1.23838E-13
 -1      3158 2.25229E+01-1.05207E+00 8.35956E-03 8.89694E-01-6.12475E-14 1.52320E-13
 -1      3159 2.21251E+01 3.39769E-01 1.19781E-02 1.48946E+00 1.26019E-13 1.58579E-13
 -1      3160 2.21929E+01-1.21625E-01-1.80394E-02 1.46058E+00 8.75914E-14 1.36715E-13
 -1      3161 2.26887E+01-3.84780E-01 1.39781E-02 1.39977E+00 4.53600E-14 8.08683E-14
 -1      3162 2.18642E+01 1.30460E+00 1.71808E-02 1.24222E+00 1.36165E-13 1.64990E-13
 -1      3163 2.19553E+01 8.20043E-01-2.36297E-02 1.43452E+00 1.34932E-13 1.78468E-13
 -1      3164 2.25655E+01 6.64827E-01 9.84316E-03 1.57995E+00 9.60482E-14 1.31451E-13
 -1      3165 2.16170E+01 1.97900E+00 8.85777E-03 5.09720E-01 7.77282E-14 1.06396E-13
 -1      3166 2.16721E+01 1.69295E+00-1.79059E-02 8.91187E-01 1.26337E-13 1.70098E-13
 -1      3167 2.22632E+01 1.76064E+00-6.94280E-04 1.18858E+00 1.38742E-13 1.61551E-13
 -1      3168 2.15798E+01 1.98584E+00-1.09142E-02-4.72959E-01 3.88643E-14 3.80173E-14
 -1      3169 2.15513E+01 2.07503E+00-5.70953E-03-4.08166E-02 8.68559E-14 1.13956E-13
 -1      3170 2.20357E+01 2.37536E+00-4.14446E-03 2.73571E-01 9.22140E-14 1.85016E-13
 -1      3171 2.17991E+01 1.33845E+00-2.11752E-02-1.26012E+00 4.13103E-15 3.01868E-14
 -1      3172 2.17165E+01 1.73749E+00 1.45112E-02-9.51543E-01-3.68932E-15-5.69202E-14
 -1      3173 2.21187E+01 2.19064E+00-4.49887E-03-7.98314E-01 5.92024E-14 4.07820E-14
 -1      3174 2.20892E+01 3.87266E-01-2.27065E-02-1.56641E+00 1.41095E-14-4.63726E-14
 -1      3175 2.19988E+01 8.80899E-01 1.48474E-02-1.47806E+00 1.02468E-13 5.49547E-14
 -1      3176 2.24069E+01 1.29195E+00 2.72395E-03-1.50169E+00 4.32191E-14-1.05389E-14
 -1      3177 2.22370E+01-4.37939E-01-1.28005E-02-1.39778E+00 1.24533E-13-1.26950E-13
 -1      3178 2.21938E+01-5.28936E-02 6.58708E-03-1.50084E+00 3.78655E-14-1.12835E-13
 -1      3179 2.26485E+01 1.72401E-01 1.12876E-02-1.61656E+00 1.03452E-13-1.19756E-13
 -1      3180 2.21504E+01-9.13972E-01-1.77410E-03-9.56967E-01 1.59413E-13 1.53050E-14
 -1      3181 2.21770E+01-7.19873E-01-2.00118E-03-1.16095E+00 1.91881E-13-2.47720E-14
 -1      3182 2.26324E+01-7.06449E-01 1.18398E-02-1.26002E+00 1.02463E-13-5.06335E-14
 -1      3183 2.18751E+01-1.03780E+00 5.41417E-03-4.57359E-01 1.53358E-13-6.56575E-14
 -1      3184 2.19610E+01-1.01555E+00-7.08146E-03-6.77873E-01 1.81631E-13 4.04500E-14
 -1      3185 2.23469E+01-1.14984E+00 6.03258E-03-7.09634E-01 1.69805E-13 8.97979E-14
 -1      3186 2.15111E+01-9.23880E-01 8.01866E-03-3.55626E-02 9.53657E-14-1.28232E-13
 -1      3187 2.16290E+01-1.00588E+00-7.89353E-03-2.21564E-01 1.38264E-13-1.25429E-13
 -1      3188 2.19019E+01-1.20651E+00-2.36530E-03-1.85450E-01 2.16177E-13-4.34838E-14
 -1      3189 2.11471E+01-6.98698E-01 8.10959E-03 2.61251E-01-1.33133E-14-1.74347E-14
 -1      3190 2.12708E+01-8.22684E-01-6.15194E-03 1.28490E-01 4.29482E-14-6.72048E-15
 -1      3191 2.14283E+01-1.02034E+00-6.19980E-03 2.05536E-01 8.77255E-15 1.12034E-13
 -1      3192 2.08328E+01-4.54506E-01 6.71256E-03 4.37155E-01-1.59752E-13 4.12588E-14
 -1      3193 2.09454E+01-5.78652E-01-3.82557E-03 3.56390E-01-7.36027E-14 6.72682E-14
 -1      3194 2.10083E+01-7.38411E-01-6.87301E-03 4.48986E-01-8.89494E-14 1.55873E-13
 -1      3195 2.05856E+01-2.41738E-01 4.87900E-03 5.17190E-01-2.29302E-13 8.32074E-14
 -1      3196 2.06797E+01-3.45082E-01-1.94064E-03 4.78759E-01-1.92239E-13 1.02712E-13
 -1      3197 2.06760E+01-4.56495E-01-6.08643E-03 5.69797E-01-2.26009E-13 3.07673E-13
 -1      3198 2.04032E+01-7.99440E-02 3.18559E-03 5.29911E-01-1.45046E-13 1.04885E-13
 -1      3199 2.04777E+01-1.55816E-01-6.40899E-04 5.22107E-01-1.98106E-13 2.37528E-14
 -1      3200 2.04335E+01-2.22014E-01-4.76052E-03 6.03091E-01-1.78365E-13 2.00006E-13
 -1      3201 2.02745E+01 2.98894E-02 1.85163E-03 5.00027E-01-1.13113E-13 1.82162E-13
 -1      3202 2.03316E+01-1.98354E-02 1.70483E-04 5.12226E-01-1.05030E-13 1.19178E-13
 -1      3203 2.02673E+01-4.98407E-02-3.42158E-03 5.80480E-01-1.96456E-13 1.56716E-13
 -1      3204 2.01865E+01 9.56106E-02 8.96875E-04 4.46396E-01 5.91302E-14 1.05128E-13
 -1      3205 2.02296E+01 6.72397E-02 6.33462E-04 4.70133E-01-2.07802E-15 1.65345E-13
 -1      3206 2.01592E+01 6.31635E-02-2.31106E-03 5.26029E-01-4.56198E-14 2.27171E-13
 -1      3207 2.01275E+01 1.27880E-01 2.68084E-04 3.82351E-01-1.16037E-13 7.37512E-14
 -1      3208 2.01599E+01 1.15242E-01 8.64177E-04 4.11425E-01 1.77388E-14 5.47288E-14
 -1      3209 2.00923E+01 1.27885E-01-1.48317E-03 4.56546E-01 2.18361E-14 8.01647E-14
 -1      3210 2.00884E+01 1.36999E-01-1.09651E-04 3.16714E-01 9.54334E-14 1.26976E-14
 -1      3211 2.01128E+01 1.34959E-01 9.45341E-04 3.46905E-01-7.05229E-14 2.62635E-15
 -1      3212 2.00529E+01 1.56990E-01-9.09870E-04 3.83085E-01-2.30720E-14-1.56190E-13
 -1      3213 2.00625E+01 1.31531E-01-3.08813E-04 2.54875E-01 2.22726E-13-1.76357E-14
 -1      3214 2.00810E+01 1.35957E-01 9.33313E-04 2.83539E-01 1.65099E-13 3.95557E-14
 -1      3215 2.00308E+01 1.62037E-01-5.36162E-04 3.12458E-01 8.51410E-14-1.64194E-13
 -1      3216 2.00452E+01 1.17938E-01-3.89477E-04 1.99754E-01 1.90440E-13-1.57690E-14
 -1      3217 2.00593E+01 1.25789E-01 8.66249E-04 2.25419E-01 2.24908E-13-7.62760E-14
 -1      3218 2.00192E+01 1.52331E-01-3.05543E-04 2.48480E-01 2.23421E-13-2.02761E-13
 -1      3219 2.00334E+01 1.00744E-01-3.97216E-04 1.52579E-01 1.60833E-13-1.09067E-13
 -1      3220 2.00442E+01 1.09936E-01 7.69946E-04 1.74596E-01 2.01094E-13-1.26971E-13
 -1      3221 2.00134E+01 1.34748E-01-1.70796E-04 1.92927E-01 1.66037E-13-3.01402E-13
 -1      3222 2.00251E+01 8.28785E-02-3.64394E-04 1.13492E-01-1.35155E-13 1.06653E-13
 -1      3223 2.00334E+01 9.20929E-02 6.61742E-04 1.31749E-01 4.75433E-14 3.57453E-14
 -1      3224 2.00106E+01 1.14010E-01-9.65736E-05 1.46250E-01 1.92861E-14-2.23502E-13
 -1      3225 2.00191E+01 6.60793E-02-3.12683E-04 8.19792E-02 2.81251E-14-1.08153E-13
 -1      3226 2.00254E+01 7.45613E-02 5.53041E-04 9.66914E-02 7.99533E-15 6.12863E-14
 -1      3227 2.00093E+01 9.31251E-02-5.82958E-05 1.08088E-01-3.44015E-14 6.37469E-15
 -1      3228 2.00146E+01 5.12360E-02-2.55825E-04 5.71902E-02-6.33741E-15 1.50018E-14
 -1      3229 2.00194E+01 5.86232E-02 4.50967E-04 6.87452E-02-8.02753E-14-3.26727E-14
 -1      3230 2.00084E+01 7.38272E-02-3.98623E-05 7.76268E-02-4.61726E-14-4.83360E-14
 -1      3231 2.00111E+01 3.86711E-02-2.02015E-04 3.81436E-02-1.74314E-13 2.79404E-13
 -1      3232 2.00147E+01 4.48601E-02 3.59697E-04 4.69972E-02-5.31218E-14 2.62580E-13
 -1      3233 2.00077E+01 5.69612E-02-3.15634E-05 5.38495E-02-1.47305E-13 1.99778E-13
 -1      3234 2.00083E+01 2.83539E-02-1.54357E-04 2.38668E-02-1.56064E-13 1.71225E-13
 -1      3235 2.00110E+01 3.33969E-02 2.81155E-04 3.04741E-02-1.48151E-13 1.60698E-13
 -1      3236 2.00068E+01 4.27822E-02-2.74804E-05 3.56967E-02-1.48367E-13 4.16498E-13
 -1      3237 2.00061E+01 2.00283E-02-1.17321E-04 1.34607E-02 9.33204E-14 6.67477E-14
 -1      3238 2.00081E+01 2.40859E-02 2.15450E-04 1.82395E-02-1.93939E-14 6.10664E-14
 -1      3239 2.00058E+01 3.11910E-02-2.32214E-05 2.21680E-02-5.14283E-14 2.54493E-14
 -1      3240 2.00043E+01 1.33983E-02-5.80921E-05 6.25564E-03 1.83227E-13-5.00109E-14
 -1      3241 2.00058E+01 1.65418E-02 1.45492E-04 9.48674E-03 2.32066E-13 5.93808E-14
 -1      3242 2.00047E+01 2.18484E-02-1.74883E-05 1.23578E-02 1.48915E-13 2.84698E-13
 -1      3243 2.00030E+01 8.78232E-03-1.23992E-05 2.01624E-03-4.45602E-14-1.24313E-13
 -1      3244 2.00040E+01 1.12205E-02 1.09919E-04 4.04964E-03 4.94275E-14-1.06820E-13
 -1      3245 2.00037E+01 1.51048E-02-5.63685E-06 6.21509E-03 1.43954E-13 3.17190E-13
 -1      3246 2.00028E+01 9.83458E-03-8.44216E-05 2.40525E-03 7.20499E-15 4.11198E-14
 -1      3247 2.00010E+01 1.72133E-02 1.48064E-05-3.38767E-03-1.97689E-13 4.65978E-13
 -1      3248 2.00002E+01 1.82675E-02-8.65902E-05-3.14977E-03-2.73071E-13 2.88520E-13
 -1      3249 2.00027E+01 1.38002E-02 2.92407E-05-3.37151E-03-1.51858E-13 2.68627E-13
 -1      3250 2.00019E+01 1.51252E-02-9.81558E-05-3.55598E-03-1.75761E-13 3.71699E-13
 -1      3251 2.00016E+01 2.05262E-02 1.21025E-04-4.98267E-03-1.90314E-13 4.42507E-13
 -1      3252 2.03914E+01 9.88623E-01-6.38714E-03 5.96423E-01 2.08327E-13-7.37216E-14
 -1      3253 2.03347E+01 1.34277E+00 2.69402E-03 6.00565E-01 2.02743E-13-1.44835E-13
 -1      3254 1.99995E+01 1.96228E-02-1.43421E-05-2.44482E-03-2.58898E-13 1.29526E-13
 -1      3255 1.99989E+01 2.02198E-02-6.58130E-05-1.90083E-03-3.12026E-13 3.62474E-13
 -1      3256 1.99996E+01 2.38741E-02 1.20893E-04-3.83225E-03-2.43279E-13 2.14156E-13
 -1      3257 2.81869E+01 4.78876E-02-4.34317E-02 1.41526E+00 1.42060E-13 3.62585E-13
 -1      3258 2.73843E+01 1.89084E+00-1.33248E-01 1.97202E+00 3.04187E-13 3.73146E-13
 -1      3259 1.99986E+01 2.03047E-02-7.11415E-05 9.45586E-04-1.66655E-13-1.38496E-13
 -1      3260 1.99990E+01 1.98119E-02-1.06363E-05 1.56960E-03-4.67898E-14-3.37587E-13
 -1      3261 1.98449E+01-4.07910E+00-3.38644E-02 5.45111E+00-5.03653E-13-2.69298E-14
 -1      3262 1.70113E+01-2.94113E+00 9.57507E-02 5.77229E+00-4.20226E-13-6.41293E-14
 -1      3263 2.42863E+01-4.31328E+00-5.00602E-02 2.93492E+00-3.88693E-13-3.65413E-13
 -1      3264 2.23362E+01-4.34700E+00 9.34500E-02 4.43321E+00-5.09748E-13-8.02258E-14
 -1      3265 2.11953E+01-3.69052E+00 6.13581E-02 4.36131E+00-4.18311E-13-1.23198E-13
 -1      3266 1.99986E+01 2.07052E-02-4.37812E-05-8.45818E-04-2.55999E-13 2.98677E-13
 -1      3267 1.99985E+01 2.07764E-02-3.61381E-05-1.55631E-04-1.48708E-13 1.07609E-13
 -1      3268 1.99980E+01 2.57305E-02 9.89991E-05 6.69066E-04-1.39522E-13-9.72603E-14
 -1      3269 1.99983E+01 2.56865E-02 1.05355E-04-1.79129E-03-3.20796E-13 3.06380E-13
 -1      3270 2.02608E+01 9.68626E-01 1.84838E-03-1.70137E-02-1.32318E-13-1.52479E-13
 -1      3271 2.02218E+01 8.50269E-01-2.00898E-03 1.62859E-01-1.23858E-13-1.43403E-13
 -1      3272 2.01670E+01 9.49259E-01 1.18417E-03 1.99042E-01-9.58150E-14-1.39307E-13
 -1      3273 2.36081E+01-4.41121E+00 8.21294E-02-3.62741E+00-3.41584E-13-8.36319E-14
 -1      3274 2.49246E+01-4.36300E+00-5.79707E-02-2.59907E+00-3.08486E-13-2.75821E-14
 -1      3275 1.84701E+01-3.46188E+00 1.35390E-01-5.66693E+00-3.46834E-13-2.81667E-13
 -1      3276 2.09581E+01-4.32338E+00-7.31009E-02-4.92191E+00-3.50053E-13-1.89460E-13
 -1      3277 8.93557E+00 2.03893E-01 1.61559E-01-2.14869E+00-1.49880E-14-4.96742E-13
 -1      3278 1.01269E+01-5.73641E-01 2.10376E-02-4.05388E+00-4.29795E-14-5.80688E-13
 -1      3279 2.60176E+01 5.89614E+00-1.31183E-01-8.84152E-02 3.67595E-13-1.50089E-13
 -1      3280 2.61480E+01 5.49042E+00-1.00031E-01-1.04660E+00 3.23311E-13-2.64778E-13
 -1      3281 9.05558E+00 2.64798E-01 1.04864E-01 1.59922E+00 1.29598E-13-1.82243E-13
 -1      3282 8.44973E+00 3.88635E-01 1.03636E-01-3.54894E-01 3.73143E-14-3.52302E-13
 -1      3283 2.01948E+01 2.03474E+00 5.79952E-04-8.15467E-01-1.88653E-13-2.37823E-13
 -1      3284 1.98661E+01 2.40405E+00-3.76878E-03 1.80726E-01 7.10819E-14-3.30927E-13
 -1      3285 1.98323E+01 2.45529E+00-4.24478E-03 8.65937E-02 3.77498E-14-3.56512E-13
 -1      3286 2.62965E+01 4.49539E+00-1.35010E-01-1.65498E+00 2.26291E-13-3.78225E-13
 -1      3287 2.64614E+01 3.29540E+00-7.94973E-02-1.99474E+00 1.07164E-13-4.57134E-13
 -1      3288 1.30233E+01-1.38342E+00 1.67891E-01-5.21971E+00-1.66221E-13-4.83807E-13
 -1      3289 1.56417E+01-2.78676E+00-1.74966E-02-5.95570E+00-2.52742E-13-3.97848E-13
 -1      3290 1.77071E+01-2.59364E+00 7.66878E-02-5.13689E+00-2.50997E-13-2.48485E-13
 -1      3291 1.77144E+01-2.77463E+00 1.18386E-01-5.12574E+00 1.48700E-13 1.51074E-13
 -1      3292 1.89689E+01-4.01304E+00 1.39775E-01-5.25951E+00 2.43985E-13 2.59931E-13
 -1      3293 1.27169E+01-7.28026E-01 9.32814E-02-4.09068E+00 7.33302E-14 1.88960E-13
 -1      3294 1.51207E+01-1.92659E+00 8.31779E-02-5.02216E+00 1.33123E-13 1.62398E-13
 -1      3295 1.75021E+01-1.80502E+00 9.26297E-02-4.51861E+00 1.36689E-13 1.35926E-13
 -1      3296 1.56034E+01-1.35319E+00 7.96886E-02 4.58847E+00 3.94920E-13-1.39389E-13
 -1      3297 2.03243E+01 1.20198E+00 5.04199E-03 3.95253E-01 1.88486E-13-1.61734E-13
 -1      3298 1.72885E+01-2.25584E+00 7.66313E-02 5.05651E+00-3.76161E-13-1.42886E-13
 -1      3299 1.50012E+01-2.16131E+00 1.11055E-02 5.75816E+00-3.65291E-13-1.61121E-14
 -1      3300 2.62355E+01 1.91368E+00-7.78505E-02-2.10149E+00 3.35253E-14-4.50338E-13
 -1      3301 2.57385E+01 7.72864E-01-9.85046E-03-1.90950E+00-1.85858E-14-4.82998E-13
 -1      3302 2.52042E+01 2.46092E+00-5.29758E-02-2.01431E+00 5.87100E-14-4.04135E-13
 -1      3303 2.03356E+01 6.10521E-02 1.06320E-04-6.56259E-01 6.63565E-14-4.92213E-14
 -1      3304 2.03027E+01 1.33279E-01 3.18671E-03-6.18200E-01 1.09742E-13-4.93498E-14
 -1      3305 2.03242E+01 4.34221E-02-3.74513E-03-7.11534E-01 2.96643E-14 1.56420E-14
 -1      3306 2.00021E+01 1.27001E-02 1.52533E-05 2.84985E-03 1.26501E-13 3.04574E-13
 -1      3307 2.00024E+01 1.15068E-02-9.86289E-06 2.61940E-03 2.24320E-14 2.87754E-13
 -1      3308 2.00028E+01 1.40909E-02 1.50775E-05 4.16464E-03 5.74441E-14 3.79275E-13
 -1      3309 9.67294E+00 8.11720E-01 2.05429E-01 1.38622E+00-2.28534E-13 8.79574E-14
 -1      3310 1.05407E+01 9.87026E-01 8.63801E-02 1.94422E-01-2.17312E-13-2.33286E-14
 -1      3311 2.46697E+01-3.75532E+00 1.69648E-03-1.83135E+00-2.22093E-13-2.80262E-14
 -1      3312 2.55866E+01-3.85358E+00 1.22512E-02-1.67504E+00-2.40749E-13 4.14391E-14
 -1      3313 2.58579E+01-3.36103E+00-9.89370E-02-7.33243E-01-1.63314E-13 1.60425E-13
 -1      3314 3.06549E+01-3.73891E+00 4.26116E-02-3.78934E-01-6.36435E-14 5.61301E-13
 -1      3315 1.70450E+01-6.77641E-01 5.19524E-02-4.05330E+00 3.56451E-14 1.01308E-13
 -1      3316 1.64483E+01 5.29597E-02-2.25102E-02 3.62055E+00 2.06344E-13-4.70804E-14
 -1      3317 1.66561E+01-7.47833E-01 5.88969E-02 4.11348E+00 3.18242E-13-3.83426E-14
 -1      3318 2.50947E+01-3.01682E+00 3.90558E-04 6.46164E-01-2.30843E-13-5.71663E-13
 -1      3319 2.50611E+01-3.83217E+00 3.19888E-03 1.81052E+00-3.01240E-13-5.11527E-13
 -1      3320 2.36836E+01-3.70479E+00 2.09469E-03 2.41150E+00-3.22838E-13-3.57115E-13
 -1      3321 1.99679E+01 2.22829E+00-4.48564E-03 3.44604E-01 1.25811E-13-2.76094E-13
 -1      3322 1.99120E+01 2.32499E+00-4.01235E-03 2.51232E-01 9.41541E-14-3.03039E-13
 -1      3323 1.99731E+01 2.10537E+00 5.32104E-03 1.47476E-01 7.76668E-14-2.92167E-13
 -1      3324 2.02739E+01 2.76007E-01 3.32624E-03-4.92001E-01 9.91479E-14-1.27511E-13
 -1      3325 2.02671E+01 3.84835E-01-2.24946E-03-4.50592E-01 1.07197E-13-1.66971E-13
 -1      3326 2.02853E+01 2.02029E-01-8.83547E-05-5.57866E-01 1.01814E-13-1.02896E-13
 -1      3327 2.00036E+01 6.90364E-03 6.11298E-05-7.10157E-04-6.07760E-14-3.04511E-13
 -1      3328 1.98116E+01 2.49064E+00-3.49096E-03 1.75513E-02 1.50667E-14-3.53424E-13
 -1      3329 1.98042E+01 2.49740E+00-4.47458E-03-7.39361E-02-9.37134E-15-3.51252E-13
 -1      3330 1.99061E+01 2.21904E+00 5.75293E-03 2.36018E-02 2.11140E-14-3.24569E-13
 -1      3331 2.00037E+01 1.15192E-02-3.13556E-05-3.15197E-03-2.12984E-13 1.87732E-13
 -1      3332 2.00039E+01 1.62123E-02 9.71595E-05-5.23501E-03-7.42046E-14 1.80000E-13
 -1      3333 1.99995E+01 1.85077E-02-7.54650E-05 2.42270E-03-1.01014E-13-2.02500E-13
 -1      3334 2.00002E+01 1.76370E-02 4.94016E-05 2.79619E-03-4.97297E-14 5.27989E-14
 -1      3335 1.99989E+01 2.40740E-02 1.25854E-04 2.85620E-03-7.71953E-14-1.83970E-13
 -1      3336 1.99865E+01 2.18801E+00-3.51811E-03-4.18236E-01-1.00495E-13-2.79699E-13
 -1      3337 2.00613E+01 2.03977E+00-6.64739E-03-4.94420E-01-1.26632E-13-2.87671E-13
 -1      3338 1.28512E+01-6.10529E-01 1.12083E-01-4.22234E+00-8.14973E-14-4.57342E-13
 -1      3339 1.53041E+01 7.66401E-01 6.79626E-02 3.11159E+00 1.53051E-13-8.39259E-15
 -1      3340 2.01053E+01 1.95865E+00-5.84082E-03 4.95800E-01 1.88270E-13-2.36488E-13
 -1      3341 2.00342E+01 2.10646E+00-3.42826E-03 4.10890E-01 1.51279E-13-2.47079E-13
 -1      3342 2.00784E+01 1.90519E+00 4.54671E-03 2.67931E-01 1.28209E-13-2.40512E-13
 -1      3343 2.02055E+01 1.61841E+00 4.03854E-03 3.69124E-01 1.69114E-13-2.28655E-13
 -1      3344 2.62264E+01 1.27417E+00-4.80613E-02 1.92681E+00 1.67436E-13 2.15813E-13
 -1      3345 2.67181E+01 2.69199E+00-1.06199E-01 2.05049E+00 3.26017E-13 2.66911E-13
 -1      3346 2.57241E+01 3.31916E+00-7.42140E-02 1.91391E+00 2.54234E-13 8.75341E-14
 -1      3347 2.71712E+01-1.36598E+00-2.37047E-02 7.85853E-01-2.64060E-14 3.50914E-13
 -1      3348 2.03065E+01 8.25256E-01-2.47306E-03 9.32795E-02 1.76217E-13-1.64332E-13
 -1      3349 2.03347E+01 1.00781E+00 1.42580E-03 2.81480E-01 1.81274E-13-1.57559E-13
 -1      3350 1.02057E+01 6.55177E-01 1.58631E-01-1.15066E+00 6.53600E-14-3.99278E-13
 -1      3351 2.53014E+01 4.41867E+00-8.19599E-02-1.28135E+00 1.87891E-13-2.93677E-13
 -1      3352 1.03358E+01 2.07549E-01 1.50297E-01 2.49222E+00 1.68331E-13-5.78426E-14
 -1      3353 1.06593E+01 6.49403E-01 1.37290E-02 1.58148E+00 8.16153E-14-7.88258E-14
 -1      3354 1.19536E+01-1.39928E-01 6.86943E-02 3.26274E+00 2.91933E-13-9.39804E-14
 -1      3355 2.02846E+01 1.26164E+00 1.73304E-03 3.03705E-01 1.80183E-13-2.08016E-13
 -1      3356 1.53497E+01 5.18569E-02 3.92361E-02-3.60084E+00-8.65679E-14 1.35031E-13
 -1      3357 1.00768E+01 1.24685E-01 4.08877E-02 3.11900E+00-2.34906E-13 1.56361E-13
 -1      3358 1.19273E+01 2.16736E-01 1.21350E-01-3.02352E+00-6.03753E-14 5.99520E-14
 -1      3359 1.40649E+01 1.39801E-01 9.96450E-02-3.33698E+00-4.87683E-14 1.14776E-13
 -1      3360 1.43729E+01 8.41602E-01 4.59287E-03-2.63775E+00-2.98141E-13 5.44703E-15
 -1      3361 1.15983E+01 8.59088E-01 3.58880E-02-1.81480E+00-1.46938E-13-5.66769E-14
 -1      3362 2.55726E+01 5.36235E+00-1.19008E-01 5.03467E-01 3.51497E-13-1.35174E-13
 -1      3363 2.46241E+01 4.93157E+00-4.10010E-02 6.96964E-02 2.98060E-13-2.08767E-13
 -1      3364 2.50038E+01 4.56356E+00-7.09387E-02 1.09268E+00 3.12333E-13-1.20920E-13
 -1      3365 2.02679E+01 1.11694E+00-3.18286E-03-1.70212E-01-1.55625E-13-1.84357E-13
 -1      3366 2.02250E+01 1.21055E+00 1.91502E-03-1.04546E-01-1.30407E-13-1.79263E-13
 -1      3367 2.02920E+01 1.29740E+00-1.16152E-03-3.72837E-01-1.65974E-13-1.80114E-13
 -1      3368 2.00039E+01 1.00838E-02-4.60077E-06-2.53471E-03-2.06344E-13-3.25773E-14
 -1      3369 2.22053E+01-3.90633E+00 4.58867E-02-3.82935E+00-3.40922E-13-1.39696E-13
 -1      3370 2.02162E+01 1.73777E+00-1.41788E-03-5.90067E-01-1.75800E-13-2.31640E-13
 -1      3371 1.98719E+01 2.38814E+00-3.46068E-03-2.83969E-01-5.82145E-14-3.12183E-13
 -1      3372 1.99212E+01 2.29935E+00-5.23869E-03-3.68229E-01-8.92110E-14-3.05014E-13
 -1      3373 2.00210E+01 1.99695E+00 4.70861E-03-2.88515E-01-9.14490E-14-2.74731E-13
 -1      3374 2.63756E+01-1.41868E+00-2.32397E-02-9.42542E-01-7.33944E-14-5.27755E-13
 -1      3375 1.28141E+01-1.06921E+00 1.33565E-01 5.01446E+00-3.48284E-13 6.03406E-14
 -1      3376 2.00014E+01 1.41293E-02-6.94467E-05 3.03941E-03 3.54746E-14 2.16156E-13
 -1      3377 2.02984E+01 8.88479E-01-4.56389E-04 3.03785E-02 1.63096E-13-1.91955E-13
 -1      3378 1.98581E+01 8.64912E-01-1.69523E-03 5.50619E-01-1.11329E-13-1.64303E-13
 -1      3379 1.97608E+01 8.69446E-01-2.42051E-03 6.54665E-01-1.14834E-13-1.77245E-13
 -1      3380 1.96133E+01 8.94683E-01-3.23820E-03 7.28088E-01-9.41226E-14-1.86933E-13
 -1      3381 1.94813E+01 9.38068E-01-2.84659E-03 8.21391E-01-4.86774E-14-1.60188E-13
 -1      3382 1.96056E+01 9.70136E-01 5.69301E-03 5.77961E-01-9.62382E-14-1.32242E-13
 -1      3383 1.92772E+01 9.95880E-01-5.45272E-03 8.82183E-01-1.31686E-14-1.58271E-13
 -1      3384 1.90972E+01 1.06757E+00-3.83310E-03 9.70055E-01-9.15023E-15-1.67413E-13
 -1      3385 1.92636E+01 1.04935E+00 8.20542E-03 6.96027E-01-3.47556E-14-1.21129E-13
 -1      3386 1.88029E+01 1.15111E+00-8.07743E-03 1.02308E+00 1.27913E-14-1.28994E-13
 -1      3387 1.85388E+01 1.24022E+00-5.07021E-03 1.11530E+00 1.01589E-14-8.36257E-14
 -1      3388 1.87825E+01 1.19185E+00 1.15641E-02 7.84089E-01 8.54004E-15-1.51208E-13
 -1      3389 1.81483E+01 1.32048E+00-1.27650E-02 1.15974E+00 1.00280E-14-6.04813E-14
 -1      3390 1.78047E+01 1.39696E+00-6.50797E-03 1.25742E+00 4.39204E-14-4.35864E-14
 -1      3391 1.81239E+01 1.36788E+00 1.72291E-02 8.39857E-01 3.63087E-14-1.08149E-13
 -1      3392 1.72631E+01 1.44842E+00-1.94777E-02 1.30695E+00 4.08412E-14-3.97582E-14
 -1      3393 1.68012E+01 1.47416E+00-7.81471E-03 1.44192E+00 5.18359E-14-3.91830E-14
 -1      3394 1.72384E+01 1.53020E+00 2.53853E-02 8.73124E-01 5.84900E-14-8.67206E-14
 -1      3395 1.60075E+01 1.46292E+00-3.14994E-02 1.51045E+00 8.05709E-14-6.21482E-14
 -1      3396 1.52993E+01 1.35488E+00-3.38891E-02 1.79960E+00 1.23915E-13-4.75332E-14
 -1      3397 1.60006E+01 1.62009E+00 3.83387E-02 8.99842E-01 5.40961E-14-1.48462E-13
 -1      3398 2.13263E+01-1.11852E+00-4.07785E-03-6.42557E-01-6.87015E-14-8.45466E-15
 -1      3399 2.11356E+01-9.33047E-01 1.09893E-02-7.55533E-01-6.38873E-14-5.67702E-14
 -1      3400 2.09030E+01-7.58704E-01-9.89393E-04-8.08925E-01-1.11105E-14-9.65962E-14
 -1      3401 2.07532E+01-5.85969E-01 8.15431E-03-8.61403E-01-6.21589E-15-6.67014E-14
 -1      3402 2.09344E+01-9.26327E-01-1.14112E-02-9.58262E-01-6.39187E-14-3.61279E-14
 -1      3403 1.64724E+01 1.50891E+00 4.47487E-03-1.53484E+00-3.00344E-13-9.78839E-15
 -1      3404 1.69171E+01 1.50984E+00-2.29341E-02-1.37821E+00-3.04447E-13 1.04058E-13
 -1      3405 1.74989E+01 1.49625E+00-4.39440E-03-1.28778E+00-2.36874E-13 4.10408E-14
 -1      3406 1.78479E+01 1.42774E+00-1.52357E-02-1.16322E+00-2.42098E-14-4.90130E-14
 -1      3407 1.68066E+01 1.65822E+00 3.71900E-02-9.11640E-01-2.73861E-13 1.98324E-13
 -1      3408 1.82638E+01 1.34900E+00-4.83038E-03-1.09715E+00 1.20258E-13-1.64696E-13
 -1      3409 1.85179E+01 1.25154E+00-1.06262E-02-9.93716E-01 1.27524E-13-1.32310E-13
 -1      3410 1.77421E+01 1.49773E+00 2.03557E-02-8.19559E-01-5.50390E-14 1.43232E-14
 -1      3411 1.88146E+01 1.15303E+00-3.65806E-03-9.34578E-01 1.52524E-13-1.43420E-13
 -1      3412 1.89933E+01 1.04995E+00-7.62599E-03-8.43372E-01 1.34230E-13-1.35511E-13
 -1      3413 1.84206E+01 1.29321E+00 1.39985E-02-7.42033E-01 8.79340E-14-9.22079E-14
 -1      3414 1.92046E+01 9.52137E-01-2.31900E-03-7.86559E-01 7.55874E-14-1.65018E-13
 -1      3415 1.93261E+01 8.56128E-01-5.61046E-03-7.05074E-01 5.03831E-14-9.02261E-14
 -1      3416 1.89052E+01 1.08056E+00 9.95113E-03-6.58826E-01 9.04346E-14-1.70447E-13
 -1      3417 1.94757E+01 7.67958E-01-1.30697E-03-6.50729E-01-1.21095E-15-5.52436E-14
 -1      3418 1.95558E+01 6.84402E-01-4.26534E-03-5.78852E-01-2.05422E-13-4.89194E-14
 -1      3419 1.92488E+01 8.82132E-01 7.10789E-03-5.69825E-01 4.10530E-14-2.03295E-13
 -1      3420 1.96653E+01 6.05882E-01-5.06218E-04-5.25861E-01-2.00524E-13 1.32079E-13
 -1      3421 1.97186E+01 5.32984E-01-3.23249E-03-4.61264E-01-1.08961E-14 2.69736E-13
 -1      3422 1.94952E+01 7.03507E-01 4.92787E-03-4.77632E-01-1.00712E-13 1.37662E-13
 -1      3423 1.97911E+01 4.71822E-01-1.48528E-05-4.16582E-01-5.95964E-15 2.49338E-13
 -1      3424 1.98220E+01 4.15395E-01-2.42509E-03-3.64697E-01 6.70011E-14 2.78791E-13
 -1      3425 1.96658E+01 5.53486E-01 3.40011E-03-3.90367E-01-6.51474E-15 4.62098E-13
 -1      3426 1.98722E+01 3.66173E-01 3.01704E-04-3.26008E-01 1.03710E-13 2.71716E-13
 -1      3427 1.98905E+01 3.20775E-01-1.85251E-03-2.83169E-01 1.41330E-14 2.65447E-13
 -1      3428 1.97801E+01 4.33068E-01 2.30571E-03-3.13203E-01 1.68833E-14 3.35069E-13
 -1      3429 1.99251E+01 2.81644E-01 4.29382E-04-2.50611E-01-1.34553E-13 2.19189E-13
 -1      3430 1.99354E+01 2.45640E-01-1.40246E-03-2.15897E-01-3.60852E-14 1.03595E-13
 -1      3431 1.98582E+01 3.35706E-01 1.56012E-03-2.45925E-01-1.55586E-13 5.14096E-13
 -1      3432 1.99589E+01 2.14819E-01 4.65067E-04-1.89142E-01 7.17037E-14-3.12353E-14
 -1      3433 1.99642E+01 1.86516E-01-1.05584E-03-1.61483E-01 1.27528E-13-1.45630E-13
 -1      3434 1.99112E+01 2.57892E-01 1.04578E-03-1.89090E-01-1.96257E-13 2.23890E-13
 -1      3435 1.99800E+01 1.62427E-01 4.46550E-04-1.39959E-01 1.90866E-13-2.59659E-13
 -1      3436 1.99823E+01 1.40345E-01-7.89743E-04-1.18266E-01 2.17248E-14-4.09352E-14
 -1      3437 1.99465E+01 1.96305E-01 6.93150E-04-1.42316E-01 1.59006E-13-6.49838E-14
 -1      3438 1.99928E+01 1.21644E-01 3.99566E-04-1.01280E-01-6.97797E-15 1.54317E-13
 -1      3439 1.99934E+01 1.04536E-01-5.86355E-04-8.45246E-02-1.20367E-13 3.76810E-13
 -1      3440 1.99698E+01 1.47969E-01 4.53481E-04-1.04688E-01 2.17002E-13-6.18917E-14
 -1      3441 2.00002E+01 9.01129E-02 3.40866E-04-7.13642E-02-3.32084E-13 4.61884E-13
 -1      3442 1.99997E+01 7.69462E-02-4.31924E-04-5.86210E-02-2.33717E-13 4.39223E-13
 -1      3443 1.99847E+01 1.10325E-01 2.91959E-04-7.50300E-02-1.39570E-13 4.35897E-13
 -1      3444 2.00040E+01 6.58890E-02 2.80811E-04-4.86105E-02-2.61397E-13 3.63836E-13
 -1      3445 2.00031E+01 5.58150E-02-3.15929E-04-3.90804E-02-1.88110E-13 2.34321E-13
 -1      3446 1.99940E+01 8.12169E-02 1.83625E-04-5.21043E-02-3.35142E-13 3.56123E-13
 -1      3447 2.00056E+01 4.73818E-02 2.25753E-04-3.16170E-02-5.03256E-14 2.43049E-13
 -1      3448 2.00045E+01 3.97044E-02-2.26194E-04-2.46302E-02 1.06029E-13 1.19167E-13
 -1      3449 1.99994E+01 5.88512E-02 1.11295E-04-3.47315E-02-1.57530E-13 2.74804E-13
 -1      3450 2.00058E+01 3.32868E-02 1.84404E-04-1.91783E-02 1.32489E-13 9.89687E-14
 -1      3451 2.00047E+01 2.74724E-02-1.33196E-04-1.42242E-02-6.19679E-14 8.55263E-14
 -1      3452 2.00021E+01 4.17190E-02 4.55001E-05-2.18671E-02 9.69999E-14 2.12546E-13
 -1      3453 2.00049E+01 2.39248E-02 1.66289E-04-1.09934E-02-1.37177E-13 1.51370E-13
 -1      3454 2.00039E+01 1.93459E-02-6.18544E-05-7.56114E-03-6.34270E-14 2.74160E-13
 -1      3455 2.00025E+01 2.16802E-02-1.23624E-04-7.45168E-03-1.38505E-13 1.48861E-13
 -1      3456 2.00027E+01 2.99004E-02-7.98754E-05-1.31170E-02-5.34001E-14 1.68902E-13
 -1      3457 2.12069E+01-3.22976E+00 9.84168E-02-3.90435E+00-2.84143E-13-2.15607E-13
 -1      3458 2.29517E+01-3.76987E+00-4.64316E-02-2.87217E+00-2.82437E-13-1.10443E-13
 -1      3459 2.06012E+01-4.32695E-01 6.53100E-04-8.61151E-01 4.30108E-15-4.75547E-14
 -1      3460 2.04956E+01-2.89506E-01 5.62616E-03-8.69688E-01 7.30735E-15-1.68775E-14
 -1      3461 2.05777E+01-5.41111E-01-9.03292E-03-9.82835E-01 3.20055E-14-5.82854E-14
 -1      3462 2.04080E+01-1.64963E-01 1.21995E-03-8.36715E-01-2.27250E-14-3.54775E-15
 -1      3463 2.03418E+01-5.08011E-02 3.81340E-03-8.13840E-01-1.64982E-14 2.21523E-14
 -1      3464 2.03594E+01-2.24189E-01-6.67502E-03-9.28137E-01-2.88669E-17-2.53591E-14
 -1      3465 2.18581E+01-1.43609E+00-8.19189E-03-3.17638E-01-1.17627E-13 1.09901E-14
 -1      3466 2.16447E+01-1.28424E+00 1.31061E-02-5.06470E-01-7.06280E-14-1.09385E-15
 -1      3467 2.14528E+01-1.34628E+00-1.30010E-02-8.03194E-01-9.12125E-14-2.70790E-15
 -1      3468 2.24367E+01-1.56368E+00-1.16863E-02 1.91860E-01-1.11051E-13 3.64227E-14
 -1      3469 2.22380E+01-1.53025E+00 1.18263E-02-7.21540E-02-1.18343E-13 2.67530E-14
 -1      3470 2.21219E+01-1.69727E+00-1.14462E-02-4.54483E-01-8.70367E-14-4.27338E-16
 -1      3471 2.29414E+01-1.28020E+00-7.45514E-03 8.48956E-01-4.60392E-14 5.15261E-14
 -1      3472 2.28063E+01-1.48839E+00 3.55694E-03 5.49265E-01-1.34436E-13 2.52363E-14
 -1      3473 2.28657E+01-1.78914E+00-5.44067E-03 1.34103E-01-1.19097E-13-7.54084E-15
 -1      3474 2.32004E+01-4.10115E-01 3.23623E-03 1.44863E+00 1.42768E-14 1.00225E-13
 -1      3475 2.31616E+01-9.29789E-01-1.42675E-02 1.22730E+00 7.56795E-15 8.37052E-14
 -1      3476 2.34992E+01-1.31895E+00 1.09771E-02 9.11492E-01-4.52342E-14 4.90734E-14
 -1      3477 2.30942E+01 1.01056E+00 1.36052E-02 1.67164E+00 1.02617E-13 1.30109E-13
 -1      3478 2.31698E+01 2.41652E-01-3.33575E-02 1.68982E+00 9.44727E-14 9.56440E-14
 -1      3479 2.37925E+01-2.20175E-01 5.16979E-03 1.59180E+00 4.76748E-14 1.83166E-13
 -1      3480 2.27393E+01 2.41204E+00 1.25659E-02 1.15594E+00 1.17488E-13 1.19841E-13
 -1      3481 2.28644E+01 1.75890E+00-4.11489E-02 1.51338E+00 1.16403E-13 8.49054E-14
 -1      3482 2.36381E+01 1.52645E+00-1.19335E-03 1.74426E+00 1.29841E-13 3.02883E-14
 -1      3483 2.29808E+01 3.45610E+00-3.11266E-02 1.46970E-01 1.42953E-13-2.05699E-14
 -1      3484 2.30458E+01 3.22954E+00-3.23180E-02 7.25423E-01 1.68658E-13 3.93565E-15
 -1      3485 2.30281E+01 1.07664E+00-3.76116E-02-1.75052E+00 5.66379E-14-1.39245E-13
 -1      3486 2.29002E+01 1.82869E+00 9.09626E-03-1.54618E+00 1.07553E-15-1.22802E-13
 -1      3487 2.31954E+01-3.31740E-01-2.47835E-02-1.58990E+00 3.15708E-14-1.00269E-13
 -1      3488 2.31653E+01 3.32894E-01 5.55610E-03-1.69110E+00 9.39708E-14-1.27557E-13
 -1      3489 2.37364E+01 6.79444E-01-7.09287E-03-1.80933E+00 4.95472E-14-2.47590E-13
 -1      3490 2.30029E+01-1.20422E+00-4.05001E-03-9.93767E-01 2.72856E-14-8.20086E-14
 -1      3491 2.30970E+01-8.42335E-01-1.52976E-03-1.25751E+00 4.87698E-14-7.07447E-14
 -1      3492 2.36788E+01-7.70354E-01 1.11053E-02-1.37367E+00-7.07377E-15-9.82608E-14
 -1      3493 2.25158E+01-1.49434E+00 7.87813E-03-3.28472E-01 1.93623E-13 1.40625E-14
 -1      3494 2.26964E+01-1.41719E+00-8.66041E-03-6.17241E-01 1.03723E-13-5.59513E-15
 -1      3495 2.31934E+01-1.54867E+00 1.19192E-02-6.16829E-01 1.99933E-14-1.83163E-13
 -1      3496 2.19067E+01-1.36195E+00 1.27080E-02 1.87451E-01 8.53133E-14 1.28603E-13
 -1      3497 2.21226E+01-1.46461E+00-9.67039E-03-3.42014E-02 2.31751E-13 7.86448E-14
 -1      3498 2.24550E+01-1.71240E+00-8.32215E-03 7.91363E-02 1.26559E-13 9.23697E-14
 -1      3499 2.13293E+01-1.04519E+00 1.21399E-02 5.13429E-01-5.25302E-14 2.55065E-13
 -1      3500 2.15403E+01-1.22218E+00-6.78279E-03 3.70997E-01 8.55544E-15 2.37664E-13
 -1      3501 2.17173E+01-1.46582E+00-1.26044E-02 5.34431E-01-2.51387E-14 2.71575E-13
 -1      3502 2.08593E+01-6.90639E-01 9.44503E-03 6.72765E-01-1.73999E-13 3.06047E-13
 -1      3503 2.10388E+01-8.70878E-01-2.75223E-03 5.98160E-01-8.71414E-14 2.80014E-13
 -1      3504 2.10923E+01-1.06308E+00-1.21041E-02 7.68945E-01-1.19227E-13 1.54886E-13
 -1      3505 2.05135E+01-3.78193E-01 6.42854E-03 7.16354E-01-1.93960E-13 3.33191E-13
 -1      3506 2.06519E+01-5.29353E-01-3.08383E-04 6.91313E-01-1.71917E-13 3.75114E-13
 -1      3507 2.06258E+01-6.60174E-01-9.97317E-03 8.41763E-01-1.97810E-13 3.50636E-13
 -1      3508 2.02786E+01-1.38501E-01 3.90431E-03 6.88860E-01-2.03122E-13 2.89743E-13
 -1      3509 2.03779E+01-2.50342E-01 9.39360E-04 6.95927E-01-1.25393E-13 3.05695E-13
 -1      3510 2.03075E+01-3.26084E-01-7.39088E-03 8.16462E-01-1.16621E-13 3.16683E-13
 -1      3511 2.01302E+01 2.63676E-02 2.07988E-03 6.22967E-01-1.87665E-13 2.37882E-13
 -1      3512 2.01975E+01-4.79468E-02 1.43232E-03 6.48706E-01-2.49903E-13 1.76491E-13
 -1      3513 2.01077E+01-8.10769E-02-5.03502E-03 7.39697E-01-1.69948E-13 2.42188E-13
 -1      3514 2.00434E+01 1.27326E-01 8.51683E-04 5.40116E-01 6.03510E-14 1.25589E-13
 -1      3515 2.00870E+01 8.38004E-02 1.52107E-03 5.75134E-01-3.54771E-14 2.14413E-13
 -1      3516 1.99937E+01 8.04870E-02-3.19364E-03 6.41347E-01-9.64515E-14 1.30341E-13
 -1      3517 1.99978E+01 1.79309E-01 8.16548E-05 4.53551E-01 2.78034E-14 8.26441E-14
 -1      3518 2.00248E+01 1.58701E-01 1.42368E-03 4.91632E-01 7.93628E-14 1.22916E-13
 -1      3519 1.99373E+01 1.74433E-01-1.87259E-03 5.38809E-01 1.31668E-14 6.65561E-14
 -1      3520 1.99777E+01 1.96873E-01-3.57647E-04 3.71002E-01 9.67537E-14-1.64226E-13
 -1      3521 1.99939E+01 1.91950E-01 1.25554E-03 4.08269E-01 1.17682E-13-1.69481E-14
 -1      3522 1.99169E+01 2.18387E-01-9.86202E-04 4.41591E-01 1.52875E-13 1.01542E-14
 -1      3523 1.99725E+01 1.92254E-01-5.72253E-04 2.96573E-01 1.70800E-13-1.37586E-13
 -1      3524 1.99819E+01 1.97142E-01 1.07320E-03 3.30794E-01 1.25361E-13-1.38576E-13
 -1      3525 1.99172E+01 2.28262E-01-4.29073E-04 3.54386E-01 1.73462E-13-1.33760E-13
 -1      3526 1.99748E+01 1.74821E-01-6.42668E-04 2.32042E-01 3.26401E-13-2.15716E-13
 -1      3527 1.99802E+01 1.85130E-01 9.01020E-04 2.62107E-01 2.61049E-13-1.04965E-13
 -1      3528 1.99279E+01 2.16883E-01-1.03899E-04 2.79007E-01 1.86320E-13-8.75363E-14
 -1      3529 1.99804E+01 1.51244E-01-6.26804E-04 1.77754E-01 9.01457E-14-1.75743E-13
 -1      3530 1.99835E+01 1.63913E-01 7.47311E-04 2.03290E-01 1.96891E-13-1.47709E-13
 -1      3531 1.99426E+01 1.93791E-01 6.71809E-05 2.15626E-01 2.05972E-13 3.92090E-14
 -1      3532 1.99866E+01 1.25951E-01-5.64453E-04 1.33206E-01 1.76578E-15-1.51923E-13
 -1      3533 1.99886E+01 1.38995E-01 6.13535E-04 1.54304E-01 4.56752E-14-1.49370E-13
 -1      3534 1.99575E+01 1.65622E-01 1.41716E-04 1.63513E-01 6.56381E-14 7.02570E-14
 -1      3535 1.99922E+01 1.01653E-01-4.81787E-04 9.74406E-02-1.09246E-13-6.08262E-14
 -1      3536 1.99936E+01 1.13893E-01 4.98699E-04 1.14458E-01-3.66994E-14-3.10669E-14
 -1      3537 1.99707E+01 1.36684E-01 1.59889E-04 1.21491E-01-1.04902E-13-1.35376E-13
 -1      3538 1.99966E+01 7.98263E-02-3.94934E-04 6.93000E-02-1.71388E-13 6.02867E-14
 -1      3539 1.99977E+01 9.06510E-02 4.01129E-04 8.27276E-02-1.41352E-13 1.03937E-14
 -1      3540 1.99814E+01 1.09540E-01 1.48356E-04 8.82073E-02-1.04165E-13-6.41298E-14
 -1      3541 1.99998E+01 6.10984E-02-3.13273E-04 4.75883E-02-1.45654E-13 1.22130E-13
 -1      3542 2.00007E+01 7.02833E-02 3.19138E-04 5.79607E-02-1.50699E-13-9.87037E-15
 -1      3543 1.99895E+01 8.55177E-02 1.24169E-04 6.22966E-02-2.06193E-13 1.79467E-15
 -1      3544 2.00017E+01 4.55414E-02-2.42648E-04 3.11751E-02-1.04807E-13 3.80837E-14
 -1      3545 2.00026E+01 5.31115E-02 2.51312E-04 3.90108E-02-1.19081E-13 7.53951E-14
 -1      3546 1.99952E+01 6.51090E-02 9.78319E-05 4.24745E-02-1.40039E-13-9.65109E-14
 -1      3547 2.00026E+01 3.29485E-02-1.78773E-04 1.90695E-02 3.30700E-14-9.94236E-14
 -1      3548 2.00035E+01 3.90304E-02 1.96352E-04 2.48389E-02-4.76058E-14 2.58622E-15
 -1      3549 1.99989E+01 4.82735E-02 7.78473E-05 2.76076E-02-2.24289E-14-8.63891E-14
 -1      3550 2.00028E+01 2.27204E-02-1.59366E-04 1.03937E-02 4.12979E-14 2.93120E-13
 -1      3551 2.00037E+01 2.76435E-02 1.40835E-04 1.44734E-02-6.34770E-14 5.91842E-14
 -1      3552 2.00010E+01 3.46749E-02 7.95327E-05 1.66779E-02-1.05494E-13-2.27268E-14
 -1      3553 1.84815E+01-2.55154E+00-2.00684E-02 4.71501E+00-3.61315E-13-2.08809E-13
 -1      3554 1.68186E+01-1.59870E+00 2.36235E-02 4.56879E+00-3.62799E-13-1.83086E-13
 -1      3555 1.16373E+01 1.23765E+00-6.84436E-03 4.79844E-01-2.95291E-13-9.76996E-15
 -1      3556 1.14780E+01 1.21691E+00 9.86733E-02-7.32853E-01-2.26359E-13-5.02307E-14
 -1      3557 1.28654E+01 1.20437E+00 6.47909E-02-1.33435E+00-2.45704E-13-5.63265E-14
 -1      3558 2.00010E+01 2.46744E-02-3.58174E-05-6.92169E-03-2.24950E-13 3.27111E-13
 -1      3559 1.99997E+01 2.66306E-02-1.09089E-04-6.47675E-03-2.33000E-13 5.06807E-13
 -1      3560 2.00014E+01 2.90027E-02 1.72647E-04-9.35566E-03-2.24609E-13 2.96902E-13
 -1      3561 2.56752E+01-7.43090E-01-8.99139E-02-1.48425E+00-2.65482E-14-5.29148E-13
 -1      3562 2.55820E+01-1.86078E+00 4.05829E-03-6.74494E-01-7.12347E-14-5.43363E-13
 -1      3563 1.24361E+01 3.54060E-01 1.27390E-01-3.11146E+00 2.11463E-15-4.49460E-13
 -1      3564 1.43148E+01-8.32003E-01-5.14342E-02-4.29307E+00-9.71792E-14-3.53544E-13
 -1      3565 2.01402E+01 1.10880E+00-1.27375E-03 8.52916E-02-1.01417E-13-1.82090E-13
 -1      3566 2.00955E+01 1.00397E+00-2.28522E-03 2.32215E-01-8.59625E-14-1.84817E-13
 -1      3567 2.01634E+01 1.62762E+00 3.08030E-03-3.03567E-01-1.13658E-13-2.33101E-13
 -1      3568 2.01633E+01 1.79566E+00 1.02409E-03-4.75137E-01-1.43395E-13-2.32800E-13
 -1      3569 1.10709E+01 1.18176E+00 1.53009E-01-1.44246E-01 1.01643E-13-2.91475E-13
 -1      3570 1.11240E+01 7.87519E-01 2.13283E-02-1.82148E+00 8.09526E-14-4.13329E-13
 -1      3571 2.20228E+01-3.64565E+00-2.99775E-02 3.50856E+00-4.87544E-13-2.93633E-13
 -1      3572 2.02691E+01-3.09604E+00 5.55110E-02 4.32834E+00-4.57096E-13-2.17871E-13
 -1      3573 1.98253E+01-2.48265E+00 4.85858E-02 3.94725E+00-4.64657E-13-2.37520E-13
 -1      3574 1.99984E+01 2.86814E-02-6.34501E-05-5.15939E-03-1.82775E-13 3.64668E-13
 -1      3575 1.99975E+01 3.00128E-02-6.40759E-05-4.15482E-03-3.55402E-13 2.57792E-13
 -1      3576 1.99980E+01 3.39239E-02 1.50830E-04-7.10730E-03-1.04730E-13 4.22593E-13
 -1      3577 1.98127E+01 2.48663E+00-3.40165E-03-1.38024E-01-2.19857E-14-3.31752E-13
 -1      3578 1.98338E+01 2.44750E+00-4.75710E-03-2.26243E-01-5.24876E-14-3.17612E-13
 -1      3579 1.99277E+01 2.17056E+00 5.39086E-03-1.98691E-01-5.49539E-14-3.01842E-13
 -1      3580 2.02580E+01 6.30954E-01-1.49945E-03-2.96003E-01 1.10908E-13-1.86350E-13
 -1      3581 2.02718E+01 7.64002E-01 2.40522E-03-1.74434E-01 1.13681E-13-1.92115E-13
 -1      3582 2.02662E+01 9.19038E-01-2.41091E-03-4.92184E-02 1.41352E-13-2.04516E-13
 -1      3583 2.02737E+01 1.10462E+00 1.26313E-03 1.05792E-01 1.60991E-13-2.14878E-13
 -1      3584 2.02387E+01 9.61407E-01 5.83505E-04-1.08310E-01 1.18735E-13-1.87635E-13
 -1      3585 1.28563E+01-2.07358E-02 8.07464E-02 3.48304E+00-3.09537E-13 5.51087E-14
 -1      3586 2.64471E+01-2.09321E+00 1.20833E-02 4.47931E-01-2.96083E-14 2.69021E-13
 -1      3587 2.62319E+01-6.15057E-01-7.67415E-02 1.45790E+00 1.10988E-13 2.59362E-13
 -1      3588 2.56104E+01-2.49972E+00-2.51416E-03 1.02475E-01-1.73914E-14 1.26871E-13
 -1      3589 2.42287E+01 4.24857E+00-9.84801E-02-8.54612E-01 1.81979E-13-2.41010E-13
 -1      3590 2.44812E+01 3.63081E+00-3.89549E-02-1.55833E+00 9.62702E-14-2.93420E-13
 -1      3591 2.02524E+01 1.25279E+00 1.40273E-04 1.83571E-01 1.61306E-13-2.18623E-13
 -1      3592 2.02275E+01 1.43331E+00-2.45728E-03 2.89192E-01 1.56157E-13-2.30191E-13
 -1      3593 2.01670E+01 1.59781E+00-1.44366E-04 2.52128E-01 1.55238E-13-2.20040E-13
 -1      3594 2.02190E+01 1.28418E+00 1.24587E-03 9.94331E-02 1.51514E-13-2.02412E-13
 -1      3595 2.00316E+01 9.28660E-01-6.34551E-04 3.40107E-01-8.59511E-14-1.69909E-13
 -1      3596 1.99610E+01 8.84077E-01-2.19636E-03 4.62039E-01-9.77493E-14-1.68994E-13
 -1      3597 1.98522E+01 9.72347E-01 3.81395E-03 4.25173E-01-1.10301E-13-1.71770E-13
 -1      3598 1.52662E+01 1.24599E+00 4.21060E-02-2.14892E+00-3.30478E-13 3.00714E-14
 -1      3599 1.57490E+01 1.41727E+00-2.68432E-02-1.84053E+00-2.84720E-13-2.62537E-14
 -1      3600 1.54961E+01 1.69181E+00 3.97334E-02-1.20567E+00-2.63294E-13 2.41968E-14
 -1      3601 1.40371E+01 1.25295E+00 4.34714E-02-1.91812E+00-2.66717E-13-7.84130E-14
 -1      3602 1.69214E+01-1.66053E+00 1.40129E-01-4.74661E+00-1.36094E-13-2.24872E-13
 -1      3603 1.86652E+01-2.80850E+00-9.25421E-02-4.67288E+00-2.28338E-13-1.76061E-13
 -1      3604 1.37476E+01-2.99598E-01 1.44307E-01 3.96290E+00 3.02910E-13-1.45550E-13
 -1      3605 2.00007E+01 1.90639E-02-6.58012E-05 4.12646E-03 1.19339E-15 1.68617E-13
 -1      3606 1.45994E+01-3.33144E-01 2.82694E-02 3.92807E+00-3.57436E-13-4.84404E-14
 -1      3607 1.26924E+01 9.11018E-01 9.17434E-02 2.27710E+00-2.61998E-13 7.35315E-14
 -1      3608 1.31933E+01 3.68514E-01 4.67651E-02 3.11241E+00 1.39510E-13 2.14273E-14
 -1      3609 2.51124E+01-2.08434E-02-2.80116E-02-1.72153E+00-6.70124E-15-4.60316E-13
 -1      3610 2.03004E+01 5.00441E-02 1.09564E-03-7.60471E-01-1.59059E-14 1.04327E-14
 -1      3611 2.02660E+01 1.45132E-01 2.79266E-03-7.13457E-01 3.09863E-14-2.55839E-14
 -1      3612 2.02459E+01 2.81743E-02-4.63132E-03-8.26317E-01-4.51218E-16 2.84955E-15
 -1      3613 2.43036E+01 2.54146E+00-3.29794E-02-1.70051E+00 9.49345E-14-2.53355E-13
 -1      3614 2.01843E+01-2.62981E+00 3.15900E-02-3.76367E+00-2.19894E-13-1.90772E-13
 -1      3615 2.51034E+01-2.57183E+00-2.80861E-02-7.73597E-02-1.80193E-13-4.84893E-13
 -1      3616 2.43592E+01-2.76198E+00 3.41638E-02 5.57682E-01-2.43063E-13-4.59589E-13
 -1      3617 2.46884E+01-1.76098E+00 2.49939E-03-7.45718E-01-9.87821E-14-3.66413E-13
 -1      3618 2.00033E+01 1.68657E-02 5.42331E-05 6.29925E-03 1.53283E-13 4.45980E-13
 -1      3619 2.25607E+01-3.21846E+00-3.14663E-03-2.49569E+00-2.55030E-13-8.82246E-14
 -1      3620 2.36995E+01-3.60952E+00 4.02375E-02-2.23595E+00-2.88671E-13-8.36388E-14
 -1      3621 2.40226E+01-3.42882E+00-4.95722E-02-1.51524E+00-2.05076E-13 1.99970E-15
 -1      3622 2.34196E+01-3.26754E+00-5.80299E-02 1.66489E+00-3.22730E-13-3.74392E-13
 -1      3623 2.30138E+01-3.50384E+00 2.79343E-02 2.60761E+00-4.09535E-13-2.88055E-13
 -1      3624 2.20754E+01-3.03230E+00 1.84957E-02 2.77308E+00-4.96488E-13-2.46227E-13
 -1      3625 2.02762E+01 2.11558E-01-2.93923E-03-6.04790E-01 7.58920E-14-8.84247E-14
 -1      3626 1.59657E+01-8.31560E-01 4.49089E-02-3.95630E+00-7.34968E-14-2.58233E-13
 -1      3627 2.00021E+01 2.21607E-02 9.15007E-05 8.08504E-03-9.65595E-15 3.03447E-13
 -1      3628 1.99970E+01 2.95927E-02-1.34811E-04 3.74852E-03-1.72226E-13-3.34368E-13
 -1      3629 1.99977E+01 2.82571E-02-1.27350E-04 4.65240E-03-2.37598E-13-9.54014E-14
 -1      3630 1.99424E+01 1.96113E+00-2.58196E-03 1.76537E-02 4.24657E-14-2.86125E-13
 -1      3631 1.99174E+01 1.99409E+00-3.93011E-03-3.55271E-02-1.66760E-15-3.30531E-13
 -1      3632 1.37085E+01 1.53169E+00 6.70884E-02 1.73195E-01 1.19228E-13-2.47014E-13
 -1      3633 1.36454E+01 1.27524E+00 1.26682E-02 1.15170E+00 1.28402E-13-1.36609E-13
 -1      3634 2.37805E+01 3.41500E+00-2.81520E-02 1.19057E+00 1.84505E-13-9.99340E-14
 -1      3635 2.28433E+01 2.56551E+00-3.30857E-02-1.18685E+00 6.99015E-14-7.09784E-14
 -1      3636 2.27191E+01 3.04310E+00-5.13540E-03-7.13995E-01 1.13741E-13-3.89389E-14
 -1      3637 1.72317E+01-8.63298E-01 3.53429E-02 3.66256E+00-3.97711E-13-2.18994E-13
 -1      3638 1.59713E+01-6.52231E-01 5.33710E-02 3.97375E+00-3.68979E-13-1.20389E-13
 -1      3639 1.52493E+01 2.37592E-01-9.34046E-03 3.00652E+00-3.12174E-13-9.48096E-14
 -1      3640 1.99958E+01 3.67980E-02 1.37082E-04-3.53726E-03-2.84451E-13 1.83255E-13
 -1      3641 1.99967E+01 3.08985E-02-7.86359E-05-2.28056E-03-2.70632E-13 1.06140E-13
 -1      3642 1.99963E+01 3.14020E-02-3.15462E-05-9.13872E-04-1.13653E-13-2.22889E-14
 -1      3643 1.42543E+01 9.39402E-01 9.88855E-03 2.05600E+00-2.37362E-13 5.69701E-14
 -1      3644 1.29049E+01 1.20762E+00 7.00489E-02 1.50058E+00-2.55303E-13 6.13086E-14
 -1      3645 1.33149E+01 1.43501E+00 1.02791E-02 6.08242E-01-2.41711E-13-2.01575E-14
 -1      3646 2.00004E+01 2.59006E-02 4.40209E-05 7.72225E-03-1.05151E-13-4.37065E-14
 -1      3647 2.00183E+01 1.08142E+00 2.82299E-03 2.34024E-01-9.09998E-14-2.05212E-13
 -1      3648 1.98889E+01 2.24239E+00 5.72523E-03-9.39601E-02-1.93255E-14-3.28816E-13
 -1      3649 1.99962E+01 3.11653E-02-1.03183E-04 7.85960E-04-1.25325E-13 8.25940E-15
 -1      3650 1.99966E+01 3.07999E-02-1.73532E-05 2.15068E-03-1.40494E-13-3.30045E-13
 -1      3651 1.99957E+01 3.61136E-02 9.66713E-05 4.08199E-03-2.44894E-13-2.34606E-13
 -1      3652 1.99951E+01 3.73361E-02 1.26536E-04 4.43047E-04-8.42013E-14-9.09848E-14
 -1      3653 1.30965E+01 7.61554E-01 9.06578E-02-2.12364E+00 4.36595E-14-3.65770E-13
 -1      3654 2.00231E+01 1.82419E+00-2.52559E-03 1.04844E-01 8.95613E-14-2.55464E-13
 -1      3655 1.99781E+01 1.90060E+00-3.18329E-03 5.10709E-02 5.48936E-14-2.74737E-13
 -1      3656 2.00108E+01 1.72310E+00 5.88351E-03-1.75263E-02 5.03388E-14-2.55685E-13
 -1      3657 2.00935E+01 1.66736E+00 2.42767E-03-2.10947E-01-8.70579E-14-2.55869E-13
 -1      3658 2.01674E+01 1.41245E+00-2.59216E-03-1.76044E-01-9.48525E-14-2.28351E-13
 -1      3659 2.01552E+01 1.25391E+00-1.24522E-03-2.13815E-02-9.47258E-14-1.97875E-13
 -1      3660 2.02526E+01 5.18404E-01 2.34856E-03-3.98587E-01 9.42742E-14-1.54197E-13
 -1      3661 2.02253E+01 6.67391E-01-7.55195E-04-3.39706E-01 8.57029E-14-1.54037E-13
 -1      3662 2.02467E+01 4.16295E-01-3.21582E-04-4.91420E-01 6.58639E-14-1.21436E-13
 -1      3663 2.00944E+01 1.31306E+00 2.22468E-03 1.69320E-02-7.29980E-14-2.20761E-13
 -1      3664 2.45583E+01 3.36567E+00-8.32037E-02 1.55988E+00 2.29983E-13-1.00545E-14
 -1      3665 1.27889E+01 9.09364E-01 4.57810E-02 1.53137E+00 1.48503E-13-1.42560E-13
 -1      3666 2.38402E+01 4.04300E+00-5.15756E-02-3.10352E-01 1.96339E-13-2.32692E-13
 -1      3667 1.99831E+01 1.87309E+00-3.60092E-06-1.72791E-01-5.12565E-14-2.58999E-13
 -1      3668 2.00326E+01 1.76080E+00-3.82369E-03-2.02946E-01-7.80530E-14-2.52604E-13
 -1      3669 2.00527E+01 1.57204E+00 2.72607E-03-9.16094E-02-6.52580E-14-2.50972E-13
 -1      3670 2.44285E+01 2.35137E+00-1.31036E-02 1.81849E+00 1.73757E-13 4.36604E-14
 -1      3671 1.61340E+01 1.60897E+00-3.07251E-02-3.89381E-01-2.66719E-13 1.20152E-13
 -1      3672 1.67681E+01 1.54883E+00-1.68129E-02-3.79890E-01-2.73093E-13 7.30264E-14
 -1      3673 1.92779E+01-1.80932E+00 9.22170E-02-3.70782E+00-1.03662E-13-1.57073E-13
 -1      3674 2.08710E+01-2.64222E+00-5.14557E-02-3.11089E+00-1.72169E-13-1.94084E-13
 -1      3675 1.92699E+01 1.03051E+00-2.93234E-03 4.91572E-01-4.54216E-14-1.14819E-13
 -1      3676 1.90616E+01 1.07402E+00-6.50715E-03 5.31024E-01-2.28998E-14-1.20118E-13
 -1      3677 1.87976E+01 1.13589E+00-4.26619E-03 5.22662E-01 1.81443E-14-1.72192E-13
 -1      3678 1.84967E+01 1.20412E+00-8.92194E-03 5.40497E-01 4.01024E-14-1.31005E-13
 -1      3679 1.88780E+01 1.13315E+00 9.77008E-03 3.11375E-01-2.26160E-14-1.42575E-13
 -1      3680 1.81560E+01 1.27682E+00-6.80416E-03 4.99402E-01 4.39841E-14-1.25997E-13
 -1      3681 1.77624E+01 1.34663E+00-1.25053E-02 4.93846E-01 6.48887E-14-1.26790E-13
 -1      3682 1.82833E+01 1.24881E+00 1.41616E-02 2.25802E-01 6.41293E-14-1.58833E-13
 -1      3683 1.73023E+01 1.41378E+00-1.02204E-02 4.14133E-01 5.60001E-14-1.36142E-13
 -1      3684 1.67604E+01 1.46394E+00-1.64829E-02 3.88408E-01 4.66511E-14-1.59793E-13
 -1      3685 1.75046E+01 1.36849E+00 2.03455E-02 5.29785E-02 3.88824E-14-1.74298E-13
 -1      3686 1.61287E+01 1.50693E+00-1.01612E-02 2.70360E-01 1.76118E-14-1.92246E-13
 -1      3687 1.53280E+01 1.46878E+00-3.01584E-02 2.25491E-01 3.05840E-14-2.22337E-13
 -1      3688 1.64405E+01 1.44653E+00 2.66526E-02-2.37194E-01 1.15585E-14-1.71356E-13
 -1      3689 2.23008E+01-1.97131E+00-8.75646E-03-7.26108E-01-1.14448E-13-6.18618E-14
 -1      3690 2.19662E+01-1.75315E+00 2.27600E-02-9.25551E-01-1.22760E-13-1.02070E-13
 -1      3691 2.60736E+01 7.86966E-02-5.37464E-02 1.80727E+00 1.65805E-13 1.94473E-13
 -1      3692 2.54066E+01 9.64481E-01-4.00770E-02 1.95532E+00 1.75766E-13 4.21434E-14
 -1      3693 1.48879E+01 1.43267E+00 4.93180E-02-2.76056E-01 4.58899E-14-2.19967E-13
 -1      3694 1.33072E+01 1.17641E+00-1.40888E-03-1.23401E+00 6.85090E-14-2.88835E-13
 -1      3695 1.41742E+01 5.87795E-01-3.52996E-02-2.44928E+00-1.64868E-14-2.69420E-13
 -1      3696 1.51771E+01 1.32006E+00 2.15344E-02-9.68841E-01 7.52415E-15-2.07378E-13
 -1      3697 1.96079E+01 9.90935E-01-1.92709E-03 4.12873E-01-9.25968E-14-1.35847E-13
 -1      3698 1.94555E+01 1.00062E+00-4.87808E-03 4.72544E-01-7.30497E-14-1.26144E-13
 -1      3699 1.93218E+01 1.06070E+00 7.22539E-03 3.23808E-01-5.04602E-14-1.14669E-13
 -1      3700 1.72868E+01 1.48745E+00-1.31395E-02-4.53435E-01-1.77408E-13 8.97155E-14
 -1      3701 1.77045E+01 1.40616E+00-9.44072E-03-4.46285E-01-2.00484E-14-2.14497E-14
 -1      3702 1.69510E+01 1.53203E+00 2.80365E-02 1.99596E-02-2.52072E-13-9.20553E-15
 -1      3703 1.80707E+01 1.31453E+00-9.67538E-03-4.85709E-01 9.51713E-15 2.33752E-14
 -1      3704 1.83688E+01 1.21916E+00-6.56705E-03-4.67806E-01 6.95030E-14-6.11198E-14
 -1      3705 1.77936E+01 1.37466E+00 1.69341E-02-1.53645E-01-1.56727E-14 1.02840E-13
 -1      3706 1.86348E+01 1.12139E+00-6.64090E-03-4.82030E-01 7.60460E-14-1.01634E-13
 -1      3707 1.88464E+01 1.02581E+00-4.75863E-03-4.53764E-01 1.41921E-14-8.98368E-14
 -1      3708 1.84068E+01 1.19369E+00 1.18310E-02-2.50105E-01-2.42432E-14 3.07553E-14
 -1      3709 1.90410E+01 9.32343E-01-4.46516E-03-4.50032E-01 9.22568E-14-1.58405E-13
 -1      3710 1.91902E+01 8.44206E-01-3.60538E-03-4.15401E-01-3.33517E-15-1.70130E-13
 -1      3711 1.88554E+01 1.00948E+00 8.59996E-03-2.90130E-01 7.30774E-15 3.81179E-14
 -1      3712 1.93386E+01 7.56817E-01-2.79109E-03-3.99442E-01 2.89351E-14-1.23177E-13
 -1      3713 1.94465E+01 6.75646E-01-2.84800E-03-3.60835E-01 8.69766E-14 1.21688E-13
 -1      3714 1.91900E+01 8.31303E-01 6.03406E-03-2.91281E-01 8.34620E-14-1.38560E-13
 -1      3715 1.95488E+01 6.04274E-01-1.69890E-03-3.39932E-01 2.50984E-14 2.54002E-13
 -1      3716 1.96190E+01 5.38863E-01-2.28543E-03-3.04063E-01-3.59275E-15 2.91401E-13
 -1      3717 1.94327E+01 6.73516E-01 4.46439E-03-2.69143E-01 1.62792E-13-5.46784E-14
 -1      3718 1.96934E+01 4.79420E-01-8.99047E-04-2.81389E-01-3.05648E-14 3.48087E-13
 -1      3719 1.97411E+01 4.24843E-01-1.83956E-03-2.48567E-01 9.69294E-15 3.23305E-13
 -1      3720 1.96034E+01 5.40272E-01 3.18801E-03-2.35260E-01-4.41689E-14 1.11918E-13
 -1      3721 1.97950E+01 3.76091E-01-4.29681E-04-2.26546E-01-9.67395E-14 2.66031E-13
 -1      3722 1.98271E+01 3.31462E-01-1.45943E-03-1.97825E-01-2.61489E-13 1.76251E-13
 -1      3723 1.97265E+01 4.28173E-01 2.28154E-03-1.97197E-01-6.60950E-14-3.56162E-14
 -1      3724 1.98657E+01 2.92012E-01-1.43352E-04-1.77848E-01-3.02456E-13 2.07934E-13
 -1      3725 1.98870E+01 2.55991E-01-1.14716E-03-1.53561E-01-1.74594E-13 9.36669E-14
 -1      3726 1.98145E+01 3.35486E-01 1.62577E-03-1.59727E-01-2.76115E-13 2.61673E-14
 -1      3727 1.99145E+01 2.24427E-01 2.01602E-05-1.36286E-01-8.81773E-14-2.31665E-14
 -1      3728 1.99284E+01 1.95672E-01-8.92115E-04-1.16313E-01 1.87003E-13-1.59100E-13
 -1      3729 1.98769E+01 2.59966E-01 1.15187E-03-1.25548E-01-1.85916E-13 1.09512E-14
 -1      3730 1.99477E+01 1.70663E-01 1.03895E-04-1.01912E-01 4.11864E-13-2.08509E-13
 -1      3731 1.99565E+01 1.47936E-01-6.85954E-04-8.58744E-02 3.88583E-13 7.36472E-14
 -1      3732 1.99206E+01 1.99197E-01 8.10802E-04-9.59412E-02 2.59771E-13-2.28799E-13
 -1      3733 1.99698E+01 1.28301E-01 1.38072E-04-7.42232E-02 1.39455E-13 1.16350E-13
 -1      3734 1.99753E+01 1.10503E-01-5.21153E-04-6.16192E-02-1.62839E-13 2.31211E-13
 -1      3735 1.99508E+01 1.50838E-01 5.66425E-04-7.12651E-02 3.43774E-13 2.41099E-14
 -1      3736 1.99843E+01 9.52185E-02 1.43408E-04-5.24334E-02-3.98548E-13 3.13914E-13
 -1      3737 1.99874E+01 8.13961E-02-3.92043E-04-4.27279E-02-2.86543E-13 3.34439E-13
 -1      3738 1.99712E+01 1.12749E-01 3.91716E-04-5.13308E-02-1.09075E-13 8.12181E-14
 -1      3739 1.99933E+01 6.95855E-02 1.34607E-04-3.56639E-02-3.07753E-13 2.65448E-13
 -1      3740 1.99949E+01 5.89225E-02-2.89390E-04-2.83516E-02-5.60474E-14 3.32105E-13
 -1      3741 1.99846E+01 8.30152E-02 2.65758E-04-3.56594E-02-2.59597E-13 4.41370E-13
 -1      3742 1.99986E+01 4.98661E-02 1.31893E-04-2.30412E-02 9.68713E-14 2.13328E-13
 -1      3743 1.99993E+01 4.17662E-02-1.65842E-04-1.77332E-02 5.86312E-15 1.38720E-13
 -1      3744 1.99930E+01 5.99368E-02 1.48383E-04-2.36812E-02-7.99984E-14 2.80993E-13
 -1      3745 2.00006E+01 3.76483E-02 1.54838E-04-1.49164E-02 4.94276E-14 1.27496E-13
 -1      3746 2.00004E+01 3.26929E-02-6.39051E-05-1.15342E-02-1.40354E-13 1.65752E-13
 -1      3747 1.99985E+01 3.56109E-02-1.06036E-04-1.06236E-02-1.30505E-13 3.30500E-13
 -1      3748 1.99969E+01 4.49325E-02-3.55422E-05-1.56923E-02 2.73160E-14 1.44649E-13
 -1      3749 2.05294E+01-5.77681E-01 3.85556E-03-1.11436E+00 2.23865E-14-9.50853E-14
 -1      3750 2.03865E+01-3.90097E-01 5.64828E-03-1.08986E+00 2.16626E-14-9.76278E-14
 -1      3751 1.99580E+01 1.80100E+00 5.68057E-03-6.11599E-02 8.39917E-15-3.28432E-13
 -1      3752 1.99077E+01 2.01288E+00-2.20622E-03-6.22084E-02-6.06570E-15-3.35937E-13
 -1      3753 1.99083E+01 1.99829E+00-4.40111E-03-1.10182E-01-2.53598E-14-3.07352E-13
 -1      3754 2.15142E+01-1.52407E+00-2.83570E-03-1.04737E+00-8.70220E-14-7.42189E-14
 -1      3755 2.12257E+01-1.26258E+00 1.50241E-02-1.14108E+00-7.33803E-14-5.19012E-14
 -1      3756 2.15776E+01-1.80547E+00-2.42585E-02-1.33631E+00-8.85251E-14-1.73584E-13
 -1      3757 2.02952E+01-2.25583E-01 3.64008E-03-1.01430E+00 1.11188E-14-1.03538E-13
 -1      3758 2.02133E+01-8.10254E-02 3.34927E-03-9.63852E-01 4.10476E-15-6.57210E-14
 -1      3759 2.01764E+01-2.76503E-01-8.42998E-03-1.13938E+00 2.94963E-15-1.13286E-13
 -1      3760 2.32004E+01-2.13266E+00-1.67582E-02-1.15166E-01-7.45555E-14-4.33989E-14
 -1      3761 2.28712E+01-2.09632E+00 2.10107E-02-4.36446E-01-1.03715E-13-5.57410E-15
 -1      3762 2.25366E+01-2.31054E+00-2.69184E-02-9.97873E-01-1.15648E-13-1.22034E-13
 -1      3763 2.44819E+01 3.37755E-01 3.38228E-03 1.79481E+00 1.71387E-13 4.01588E-16
 -1      3764 2.44496E+01-6.46027E-01-3.45798E-02 1.50374E+00 6.37544E-14 6.95928E-14
 -1      3765 2.45682E+01 1.20722E+00-5.38359E-02 1.91124E+00 2.04423E-13 8.36640E-14
 -1      3766 2.35881E+01 2.57156E+00-2.66638E-02-1.56074E+00 9.32587E-14-2.45644E-13
 -1      3767 2.23571E+01-1.87978E+00 2.35338E-02 6.13473E-01 2.94747E-14 1.06657E-13
 -1      3768 2.26853E+01-2.03339E+00-1.28777E-02 3.69943E-01-4.93184E-14-1.71261E-14
 -1      3769 2.14884E+01-1.43821E+00 1.73989E-02 9.54683E-01-7.82330E-14 1.89974E-13
 -1      3770 2.18181E+01-1.69234E+00-7.85025E-03 8.14082E-01 3.73320E-14 2.14279E-13
 -1      3771 2.19594E+01-2.00279E+00-2.55877E-02 1.10919E+00-8.37588E-14 7.19158E-14
 -1      3772 2.08300E+01-9.40687E-01 1.25665E-02 1.05005E+00-1.64011E-13 1.76942E-13
 -1      3773 2.10959E+01-1.19047E+00-8.31396E-05 1.00178E+00-1.14510E-13 1.37020E-13
 -1      3774 2.10822E+01-1.40540E+00-1.76695E-02 1.28069E+00-4.22174E-14 1.70368E-13
 -1      3775 2.03768E+01-5.10228E-01 7.64528E-03 1.01014E+00-2.70785E-13 2.40390E-13
 -1      3776 2.05697E+01-7.16655E-01 2.50692E-03 1.01938E+00-2.29647E-13 2.16459E-13
 -1      3777 2.04743E+01-8.51730E-01-1.36204E-02 1.24801E+00-2.07370E-13 2.47405E-14
 -1      3778 2.00927E+01-1.84674E-01 3.97378E-03 9.02726E-01-1.57923E-13 2.18004E-13
 -1      3779 2.02217E+01-3.35089E-01 3.47558E-03 9.42071E-01-1.68090E-13 2.21230E-13
 -1      3780 2.00896E+01-4.05286E-01-9.99721E-03 1.11298E+00-2.34773E-13-1.83677E-14
 -1      3781 1.99325E+01 3.74817E-02 1.70093E-03 7.71630E-01-1.77209E-13 2.32097E-13
 -1      3782 2.00117E+01-6.16424E-02 3.40462E-03 8.23735E-01-1.26785E-13 3.05480E-13
 -1      3783 1.98728E+01-8.49690E-02-6.46957E-03 9.42777E-01-1.83355E-13 1.81015E-13
 -1      3784 1.98553E+01 1.73488E-01 3.32049E-04 6.40144E-01 3.28144E-14 5.57969E-14
 -1      3785 1.98994E+01 1.15429E-01 2.90978E-03 6.95006E-01-5.59708E-14 1.74221E-13
 -1      3786 1.97690E+01 1.22411E-01-3.84262E-03 7.73609E-01-6.62913E-14 2.54227E-13
 -1      3787 1.98305E+01 2.44082E-01-4.41352E-04 5.19296E-01-4.74527E-14 5.97698E-14
 -1      3788 1.98514E+01 2.16369E-01 2.32975E-03 5.71507E-01-2.45212E-14 6.87260E-14
 -1      3789 1.97363E+01 2.41552E-01-2.04126E-03 6.20942E-01 1.73060E-14 1.85219E-13
 -1      3790 1.98359E+01 2.68762E-01-8.23801E-04 4.13673E-01 2.02294E-13 3.52834E-14
 -1      3791 1.98426E+01 2.61805E-01 1.79230E-03 4.60615E-01 1.05796E-13 4.96685E-14
 -1      3792 1.97452E+01 2.96432E-01-8.86019E-04 4.90163E-01 3.85136E-14-2.53021E-14
 -1      3793 1.98566E+01 2.63695E-01-9.64138E-04 3.24283E-01 1.11576E-13-4.17339E-14
 -1      3794 1.98554E+01 2.69796E-01 1.35005E-03 3.64961E-01 1.87439E-13-3.63288E-14
 -1      3795 1.97756E+01 3.07865E-01-1.92421E-04 3.81670E-01 1.69443E-13-6.98651E-14
 -1      3796 1.98832E+01 2.41208E-01-9.62230E-04 2.50342E-01 2.70986E-13-8.50794E-14
 -1      3797 1.98782E+01 2.54634E-01 1.00875E-03 2.84659E-01 2.43171E-13-6.02064E-14
 -1      3798 1.98145E+01 2.92272E-01 1.89951E-04 2.93522E-01 1.47498E-13-8.31733E-14
 -1      3799 1.99100E+01 2.10112E-01-8.83172E-04 1.90269E-01 4.02247E-14 1.02927E-13
 -1      3800 1.99038E+01 2.26849E-01 7.53838E-04 2.18607E-01 1.23757E-13 2.96919E-15
 -1      3801 1.98541E+01 2.61730E-01 3.71051E-04 2.22966E-01 1.28727E-13-1.23444E-13
 -1      3802 1.99341E+01 1.76319E-01-7.68174E-04 1.42210E-01 6.52878E-14 5.10140E-14
 -1      3803 1.99281E+01 1.93732E-01 5.66123E-04 1.65184E-01 8.75570E-14 8.11567E-14
 -1      3804 1.98901E+01 2.24627E-01 4.28398E-04 1.67160E-01 4.84934E-14 1.19936E-13
 -1      3805 1.99541E+01 1.43514E-01-6.42558E-04 1.04304E-01-4.52625E-14-6.85283E-15
 -1      3806 1.99490E+01 1.60005E-01 4.28220E-04 1.22618E-01 1.74263E-14 3.46459E-14
 -1      3807 1.99207E+01 1.86438E-01 4.15111E-04 1.23483E-01 9.12979E-14 2.48469E-13
 -1      3808 1.99699E+01 1.13758E-01-5.21362E-04 7.48165E-02-1.12319E-13 1.76334E-13
 -1      3809 1.99659E+01 1.28476E-01 3.26443E-04 8.91815E-02-7.44986E-16 1.00018E-13
 -1      3810 1.99453E+01 1.50460E-01 3.66110E-04 8.96467E-02-1.05945E-13 1.75862E-13
 -1      3811 1.99817E+01 8.80013E-02-4.11796E-04 5.22057E-02-1.50481E-13 1.10804E-13
 -1      3812 1.99788E+01 1.00591E-01 2.50871E-04 6.32901E-02-1.79483E-13 1.22202E-13
 -1      3813 1.99642E+01 1.18432E-01 3.02459E-04 6.37121E-02-8.85147E-14 2.94716E-13
 -1      3814 1.99900E+01 6.64558E-02-3.15051E-04 3.51318E-02-1.04931E-14 6.59721E-14
 -1      3815 1.99881E+01 7.68919E-02 1.94347E-04 4.35320E-02-1.19474E-13 1.21359E-13
 -1      3816 1.99781E+01 9.10484E-02 2.33773E-04 4.40612E-02-7.86090E-14 1.98135E-13
 -1      3817 1.99955E+01 4.88018E-02-2.50929E-04 2.25017E-02-8.70631E-14 1.04488E-13
 -1      3818 1.99944E+01 5.72771E-02 1.39537E-04 2.86877E-02-1.46136E-14 1.36349E-13
 -1      3819 1.99878E+01 6.83432E-02 1.85471E-04 2.93397E-02-4.39694E-14 2.38462E-13
 -1      3820 1.99987E+01 3.46849E-02-2.02171E-04 1.30573E-02-3.75772E-14-1.53021E-14
 -1      3821 1.99983E+01 4.15707E-02 1.28166E-04 1.77891E-02-7.56007E-14 4.75537E-14
 -1      3822 1.99941E+01 5.00814E-02 1.58515E-04 1.85944E-02-5.76962E-14 1.10361E-13
 -1      3823 1.36193E+01 1.49657E+00 6.05994E-03-9.17084E-01-2.74932E-13 1.50574E-15
 -1      3824 2.05405E+01-2.56772E+00-3.23666E-02 3.36481E+00-4.52064E-13-3.09835E-13
 -1      3825 1.91492E+01-1.85058E+00 1.10796E-02 3.64470E+00-3.24265E-13-2.65710E-13
 -1      3826 2.43262E+01 4.53454E-01-4.89575E-02-1.85465E+00 6.03849E-14-2.38172E-13
 -1      3827 2.44303E+01-6.16800E-01 6.33605E-03-1.50578E+00 9.37792E-15-2.95367E-13
 -1      3828 2.01976E+01 9.69827E-01-1.31986E-03-1.72925E-01 1.02812E-13-1.75947E-13
 -1      3829 2.02000E+01 1.14544E+00 7.10405E-04-4.61914E-02 1.24128E-13-1.74165E-13
 -1      3830 1.99965E+01 3.83570E-02-7.02192E-05-8.65008E-03-7.87152E-14 3.73048E-13
 -1      3831 1.99950E+01 4.03833E-02-4.48582E-05-6.92685E-03-7.18153E-14 5.79111E-13
 -1      3832 1.99960E+01 4.31940E-02 1.45167E-04-1.08530E-02 9.55091E-14 3.64168E-13
 -1      3833 1.99230E+01 1.97960E+00-1.57770E-03-1.23687E-01-2.75591E-14-2.99758E-13
 -1      3834 1.99500E+01 1.91789E+00-4.32503E-03-1.63977E-01-4.02978E-14-2.94895E-13
 -1      3835 1.99831E+01 1.72295E+00 4.61779E-03-9.43674E-02-4.08957E-14-2.68264E-13
 -1      3836 1.99544E+01 1.79399E+00 5.84718E-03-8.59613E-02-3.35794E-14-2.97001E-13
 -1      3837 2.02539E+01 2.34212E-01 5.52390E-04-6.44723E-01 3.30747E-14-5.65110E-14
 -1      3838 2.02434E+01 3.24481E-01 2.36737E-03-5.75589E-01 3.57288E-14-9.46735E-14
 -1      3839 2.02057E+01 4.40269E-01-1.74714E-03-5.32301E-01 3.57525E-14-9.28937E-14
 -1      3840 2.02043E+01 2.39256E-01-2.97025E-03-6.93407E-01 1.42892E-15-6.09311E-14
 -1      3841 1.15654E+01 1.05936E+00 4.79634E-02 7.75855E-01 1.19309E-13-1.42983E-13
 -1      3842 1.98467E+01 1.03650E+00-2.32127E-03 2.89471E-01-8.16724E-14-1.70983E-13
 -1      3843 1.97409E+01 1.00311E+00-3.49918E-03 3.70736E-01-8.05296E-14-1.57546E-13
 -1      3844 1.96385E+01 1.05741E+00 5.06095E-03 2.78365E-01-7.83496E-14-1.22886E-13
 -1      3845 2.55330E+01-7.11814E-01 7.13526E-03 1.44515E+00 1.44686E-13 3.60059E-14
 -1      3846 1.99981E+01 3.19422E-02 6.46550E-05 8.43942E-03-1.46506E-13-6.67836E-14
 -1      3847 2.49084E+01-2.76950E+00 4.59286E-02-3.09066E-01-1.13756E-13 8.54317E-14
 -1      3848 2.49526E+01-2.05025E+00-8.06513E-02 6.27979E-01-1.53957E-14 5.50636E-14
 -1      3849 2.35559E+01-2.03763E+00 8.98385E-03-1.90995E-01-7.79346E-14-1.65944E-13
 -1      3850 2.38557E+01-1.78109E+00-2.16584E-03-5.97063E-01-7.40059E-14-2.42385E-13
 -1      3851 2.00369E+01 1.40149E+00-3.57592E-03-1.93779E-02-5.17978E-14-2.47228E-13
 -1      3852 2.00264E+01 1.26966E+00 1.05605E-03 8.31207E-02-5.08575E-14-2.22938E-13
 -1      3853 1.99956E+01 1.50600E+00 6.92401E-04-3.01471E-02-4.38727E-14-2.52044E-13
 -1      3854 1.54867E+01-2.37871E-02 7.20527E-02-3.27399E+00-8.77310E-14-2.89659E-13
 -1      3855 1.70924E+01-1.20666E+00-7.82603E-02-3.85609E+00-1.04603E-13-2.20799E-13
 -1      3856 2.42255E+01-1.35489E+00-2.83595E-02-1.08988E+00 3.96167E-15-3.12149E-13
 -1      3857 2.01204E+01 1.66224E+00-2.57415E-03 2.01229E-01 1.40708E-13-2.18390E-13
 -1      3858 2.00627E+01 1.78077E+00-2.20325E-03 1.49682E-01 1.00324E-13-2.30259E-13
 -1      3859 2.00819E+01 1.61471E+00 3.63939E-03 4.72893E-02 7.87280E-14-2.23641E-13
 -1      3860 2.01585E+01 1.50196E+00 1.89503E-03 1.31444E-01 1.40371E-13-2.07677E-13
 -1      3861 1.99823E+01 1.17180E+00-2.46850E-03 1.42073E-01-6.53478E-14-2.05540E-13
 -1      3862 1.99160E+01 1.08825E+00-1.59008E-03 2.42015E-01-9.70599E-14-1.93054E-13
 -1      3863 1.98348E+01 1.13279E+00 3.96833E-03 1.94716E-01-5.96749E-14-1.82707E-13
 -1      3864 1.99427E+01 1.27018E+00 2.03296E-03 9.36909E-02-4.82203E-14-2.18252E-13
 -1      3865 2.09254E+01-1.02022E+00 2.37913E-03-1.14561E+00-8.83835E-14-3.47737E-14
 -1      3866 2.07085E+01-7.86886E-01 9.28399E-03-1.16647E+00-2.19122E-14-5.77918E-14
 -1      3867 2.08704E+01-1.20566E+00-1.83151E-02-1.38998E+00-6.34087E-14-1.44810E-13
 -1      3868 2.01804E+01 4.59011E-02 2.85410E-03-8.80858E-01-1.44558E-14-5.82817E-14
 -1      3869 2.01426E+01 1.59989E-01 1.87947E-03-8.15286E-01-1.83414E-14-7.11779E-14
 -1      3870 2.00683E+01 3.16470E-02-5.33211E-03-9.61604E-01-5.82040E-15-1.13464E-13
 -1      3871 2.09200E+01-2.20788E+00-1.53967E-02-2.61568E+00-1.40739E-13-1.71651E-13
 -1      3872 2.19940E+01-2.70843E+00 4.91759E-02-2.46808E+00-2.02106E-13-1.29473E-13
 -1      3873 2.23719E+01-2.84091E+00-3.64048E-02-2.01858E+00-2.06639E-13-1.22785E-13
 -1      3874 2.36389E+01-2.77384E+00-7.06773E-03 9.16751E-01-2.37681E-13-4.10741E-13
 -1      3875 2.49048E+01-1.35221E+00-1.66696E-02 1.02458E+00 2.52047E-14-9.21832E-15
 -1      3876 2.40814E+01-1.60337E+00-1.59025E-04 8.02532E-01-6.50738E-14 5.25517E-14
 -1      3877 2.42997E+01 1.54030E+00-1.56982E-02-1.97498E+00 5.81913E-14-2.94275E-13
 -1      3878 1.82226E+01-1.13852E+00 1.24595E-02 3.47646E+00-3.79914E-13-2.68425E-13
 -1      3879 1.73266E+01-3.41379E-01-1.18779E-02 2.95141E+00-3.04326E-13-2.43346E-13
 -1      3880 1.91538E+01-1.18542E+00 2.36038E-02 2.92966E+00-3.38422E-13-2.84952E-13
 -1      3881 1.56587E+01 4.46485E-01 4.66491E-02-2.48274E+00-5.14284E-14-2.42789E-13
 -1      3882 2.01908E+01 8.19944E-01 6.12873E-04-2.74809E-01 7.75942E-14-1.65675E-13
 -1      3883 2.01489E+01 9.92448E-01-6.73645E-04-2.18627E-01 8.18791E-14-1.61938E-13
 -1      3884 2.01809E+01 6.89689E-01 1.22871E-05-3.82684E-01 6.21255E-14-1.42388E-13
 -1      3885 1.99567E+01 1.60431E+00-1.47960E-03-7.44028E-02 2.78010E-14-3.08018E-13
 -1      3886 1.99379E+01 1.61913E+00-3.49063E-03-8.47397E-02 9.13070E-15-3.19891E-13
 -1      3887 1.50566E+01 1.57625E+00 2.47201E-03 9.34394E-02-1.83319E-13-5.14172E-15
 -1      3888 1.54584E+01 1.53192E+00 5.24626E-02 6.73855E-01-1.41631E-13 6.51220E-14
 -1      3889 2.38379E+01-2.01376E+00 2.08243E-03 3.91847E-01-1.19542E-13-2.24751E-14
 -1      3890 2.37300E+01-2.46931E+00-3.12738E-02-2.62952E-01-9.78627E-14-2.96135E-14
 -1      3891 1.84126E+01-1.17227E+00 1.30430E-02-3.28959E+00-4.94379E-14-2.08790E-13
 -1      3892 2.33540E+01-2.36679E+00-1.79015E-02 4.30579E-01-1.59315E-13-2.81535E-13
 -1      3893 1.60520E+01 3.88944E-01 1.46876E-02 2.58746E+00-1.96048E-13-4.35693E-14
 -1      3894 1.51051E+01 7.22340E-01 4.65730E-02 2.44735E+00-2.80880E-13-2.74433E-14
 -1      3895 1.49189E+01 1.00992E+00-3.38555E-02 1.76518E+00-1.74148E-13-3.55913E-14
 -1      3896 1.43044E+01 1.49755E+00 8.01375E-03-1.95201E-02-2.06316E-13 1.19314E-14
 -1      3897 1.99937E+01 4.15874E-02-1.08273E-04-4.14101E-03-1.95108E-13 1.39486E-13
 -1      3898 1.99931E+01 4.23737E-02-6.33060E-05-2.01456E-03-3.76908E-14-4.13132E-13
 -1      3899 1.99926E+01 4.71010E-02 1.00708E-04-5.57999E-03 1.01891E-13 3.30470E-13
 -1      3900 1.99963E+01 3.84410E-02 5.42353E-05 9.65793E-03-2.62795E-13 1.44195E-14
 -1      3901 2.39216E+01-2.84426E+00 5.73972E-03-8.40578E-01-1.82110E-13 3.76435E-15
 -1      3902 2.14196E+01-2.51496E+00 9.07494E-03 2.62687E+00-4.28419E-13-2.51381E-13
 -1      3903 2.04241E+01-6.83744E-01-1.21993E-02-1.29735E+00-9.94582E-15-1.08556E-13
 -1      3904 1.99936E+01 4.35812E-02 1.10500E-04 7.68654E-03-1.94806E-13-1.53422E-13
 -1      3905 1.99931E+01 4.67413E-02-1.60363E-04 1.20760E-02 1.01074E-14 2.10742E-14
 -1      3906 1.99926E+01 4.42338E-02-1.19945E-04 5.74442E-03-1.76982E-13-2.10310E-13
 -1      3907 2.00271E+01 1.50342E+00-8.36192E-04-6.40119E-02 5.20724E-14-2.36930E-13
 -1      3908 1.99835E+01 1.55779E+00-3.91494E-03-8.06203E-02 3.90260E-14-2.68433E-13
 -1      3909 1.99839E+01 1.42142E+00 4.88973E-03-1.13844E-01 3.40047E-14-2.67487E-13
 -1      3910 2.04235E+01-1.65545E+00 5.36471E-02-2.62487E+00-6.09309E-14-1.39897E-13
 -1      3911 2.10861E+01-2.02645E+00-4.12761E-02-2.16447E+00-1.21555E-13-1.60348E-13
 -1      3912 2.25594E+01-2.47162E+00 1.10692E-02-1.38385E+00-1.40902E-13-1.23478E-13
 -1      3913 2.32715E+01-2.79292E+00 3.61541E-02-1.29067E+00-1.60138E-13-6.07374E-14
 -1      3914 1.93922E+01 1.03090E+00-1.04116E-03 1.64476E-01-6.04690E-14-1.74677E-13
 -1      3915 1.91975E+01 1.03429E+00-7.18632E-03 1.65022E-01-5.06840E-14-1.71940E-13
 -1      3916 1.77864E+01-4.18292E-01 5.27148E-02-2.94519E+00-7.27521E-15-2.62908E-13
 -1      3917 1.91548E+01-1.32415E+00-4.99374E-02-2.91242E+00 7.28215E-15-1.57045E-13
 -1      3918 2.27269E+01-2.55916E+00 3.50672E-02 1.41868E+00-2.93093E-13-3.16342E-13
 -1      3919 1.84601E+01 1.12250E+00-8.21720E-04-1.24104E-02 2.77796E-14-1.75673E-13
 -1      3920 1.81051E+01 1.15303E+00-1.33066E-02-9.35614E-02 5.88154E-14-1.91640E-13
 -1      3921 1.77824E+01 1.18927E+00-6.07137E-04-2.44203E-01 5.11193E-14-2.21082E-13
 -1      3922 1.73093E+01 1.20459E+00-1.64657E-02-3.83792E-01 2.52768E-14-2.13075E-13
 -1      3923 1.80679E+01 1.07399E+00 1.21361E-02-4.87895E-01 2.25646E-14-2.41995E-13
 -1      3924 1.68978E+01 1.21422E+00 1.86326E-03-6.04331E-01 3.40841E-14-1.96681E-13
 -1      3925 1.62547E+01 1.19154E+00-1.28727E-02-8.32166E-01 3.71179E-14-1.65464E-13
 -1      3926 1.73152E+01 1.04989E+00 1.26935E-02-9.24261E-01 4.20413E-14-2.21971E-13
 -1      3927 1.99908E+01 5.53472E-02 4.20872E-05 1.64561E-02-2.93640E-15 1.40873E-13
 -1      3928 2.20423E+01-2.18902E+00 4.04966E-02-1.62774E+00-1.58078E-13-1.58912E-13
 -1      3929 1.66553E+01 1.34132E+00-3.50865E-02 4.96007E-01-2.19989E-13 6.19103E-14
 -1      3930 1.72149E+01 1.32704E+00-2.88676E-03 3.52732E-01-1.86785E-13 9.26182E-14
 -1      3931 1.75650E+01 1.27999E+00-1.50595E-02 1.88507E-01-4.70550E-14 1.84339E-13
 -1      3932 1.79440E+01 1.22465E+00-2.50749E-03 9.97524E-02 1.02730E-13 1.75700E-13
 -1      3933 1.75071E+01 1.20199E+00 1.60064E-02 6.16052E-01-2.42821E-14 2.31450E-13
 -1      3934 1.82114E+01 1.15283E+00-1.07667E-02-4.27311E-03-2.43503E-14 1.05953E-13
 -1      3935 1.84870E+01 1.08195E+00-2.11807E-03-5.30886E-02-7.55616E-14 1.36439E-13
 -1      3936 1.81228E+01 1.13004E+00 1.11362E-02 3.04053E-01-7.49630E-14 1.09823E-13
 -1      3937 1.86917E+01 1.00288E+00-7.48633E-03-1.14545E-01-5.52866E-14 1.02109E-13
 -1      3938 1.88931E+01 9.27945E-01-1.75496E-03-1.35380E-01-6.71848E-15 5.48174E-15
 -1      3939 1.85952E+01 1.01420E+00 8.39482E-03 1.07255E-01-7.66605E-14 8.77397E-14
 -1      3940 1.90571E+01 8.46624E-01-5.03657E-03-1.68920E-01 8.60364E-14-1.28274E-13
 -1      3941 1.92090E+01 7.70370E-01-1.63555E-03-1.71154E-01 8.88165E-14-1.23778E-13
 -1      3942 1.89641E+01 8.76475E-01 6.02444E-03-1.04536E-02-7.15495E-15-5.45089E-14
 -1      3943 1.93268E+01 6.98675E-01-3.41187E-03-1.83641E-01 7.33984E-14-2.12772E-13
 -1      3944 1.94309E+01 6.32937E-01-1.56830E-03-1.74888E-01 1.12780E-13-2.23835E-13
 -1      3945 1.92443E+01 7.39370E-01 4.79196E-03-7.29227E-02 1.91676E-15-2.58572E-13
 -1      3946 1.95206E+01 5.69980E-01-2.18076E-03-1.76081E-01 4.16750E-14-2.83133E-13
 -1      3947 1.95953E+01 5.12066E-01-1.41202E-03-1.61920E-01-3.55702E-14-1.83497E-13
 -1      3948 1.94504E+01 6.12768E-01 3.59329E-03-9.82657E-02 3.29402E-14-4.05113E-13
 -1      3949 1.96629E+01 4.58074E-01-1.38920E-03-1.56748E-01-1.18084E-14-1.18926E-13
 -1      3950 1.97161E+01 4.08613E-01-1.22110E-03-1.40679E-01-2.02526E-14-1.67168E-13
 -1      3951 1.96054E+01 4.99290E-01 2.69683E-03-1.02623E-01-2.04596E-14-1.43198E-13
 -1      3952 1.97666E+01 3.63278E-01-8.55641E-04-1.32480E-01-1.76126E-13-3.82078E-14
 -1      3953 1.98043E+01 3.21904E-01-1.02965E-03-1.16635E-01-2.64060E-13-4.10615E-14
 -1      3954 1.97209E+01 4.00662E-01 2.01350E-03-9.52514E-02-6.87191E-14-3.74601E-15
 -1      3955 1.98415E+01 2.84493E-01-5.03748E-04-1.07521E-01-2.81566E-13 6.72316E-14
 -1      3956 1.98678E+01 2.50465E-01-8.47890E-04-9.30893E-02-1.33482E-13 7.43692E-14
 -1      3957 1.98061E+01 3.17006E-01 1.49308E-03-8.22459E-02-1.58394E-13 3.91619E-14
 -1      3958 1.98950E+01 2.20042E-01-2.77983E-04-8.42927E-02 7.46880E-14 4.50968E-14
 -1      3959 1.99132E+01 1.92461E-01-6.83436E-04-7.18272E-02 4.26763E-13 6.94302E-14
 -1      3960 1.98683E+01 2.47432E-01 1.09875E-03-6.74095E-02 9.41930E-15 3.17638E-13
 -1      3961 1.99327E+01 1.68040E-01-1.37672E-04-6.39907E-02 4.44275E-13-7.20282E-14
 -1      3962 1.99450E+01 1.45975E-01-5.40249E-04-5.36393E-02 2.72069E-13 9.96808E-15
 -1      3963 1.99131E+01 1.90528E-01 8.01517E-04-5.29533E-02 2.77637E-13 1.16702E-13
 -1      3964 1.99588E+01 1.26605E-01-5.38307E-05-4.70289E-02 1.70304E-13-1.89232E-14
 -1      3965 1.99669E+01 1.09168E-01-4.19239E-04-3.87026E-02-4.07163E-14 1.44817E-13
 -1      3966 1.99447E+01 1.44666E-01 5.78036E-04-4.00361E-02 1.82893E-13-1.52362E-13
 -1      3967 1.99763E+01 9.39633E-02-4.04185E-06-3.33303E-02-1.56294E-13 2.38976E-13
 -1      3968 1.99815E+01 8.02910E-02-3.21745E-04-2.68225E-02-1.75845E-13 4.07974E-13
 -1      3969 1.99665E+01 1.08175E-01 4.01899E-04-2.91083E-02 4.27445E-14-2.97024E-14
 -1      3970 1.99878E+01 6.85202E-02 4.85445E-05-2.26282E-02-1.34327E-13 5.12220E-13
 -1      3971 1.99908E+01 5.79940E-02-1.99309E-04-1.77547E-02-6.62546E-14 3.59094E-13
 -1      3972 1.99811E+01 7.94014E-02 2.48151E-04-2.03028E-02-1.15468E-13 5.60713E-13
 -1      3973 1.99933E+01 5.30659E-02 1.18649E-04-1.55439E-02 9.86777E-15 2.94126E-13
 -1      3974 1.99941E+01 4.76121E-02-9.77005E-05-1.26488E-02 1.20746E-13 3.26758E-13
 -1      3975 1.99921E+01 5.04099E-02-1.36269E-05-1.01955E-02 2.00288E-13 5.70348E-13
 -1      3976 1.99885E+01 6.11429E-02 4.43952E-05-1.41924E-02-1.36459E-13 4.99356E-13
 -1      3977 2.13530E+01-1.83534E+00 5.63803E-03-1.74845E+00-8.29527E-14-1.91581E-13
 -1      3978 2.09508E+01-1.48647E+00 1.92801E-02-1.78625E+00-3.41615E-14-1.75727E-13
 -1      3979 2.00464E+01-2.41605E-01 7.70338E-03-1.24131E+00 1.48138E-14-1.34736E-13
 -1      3980 1.99524E+01-7.38021E-02 1.53871E-03-1.14509E+00 2.81670E-14-1.41016E-13
 -1      3981 2.00882E+01-6.03885E-01 6.76914E-03 1.41631E+00-2.42200E-13-9.46584E-14
 -1      3982 2.03400E+01-8.68451E-01 7.93365E-03 1.48173E+00-7.96360E-14 5.68855E-14
 -1      3983 2.06251E+01-1.17521E+00 1.24046E-02 1.60854E+00 4.14738E-14 1.35025E-13
 -1      3984 2.10057E+01-1.50181E+00 8.39630E-03 1.60791E+00 2.97208E-14 2.09218E-13
 -1      3985 2.01015E+01-9.68036E-01-8.61261E-03 1.81085E+00-3.18020E-14 4.39614E-14
 -1      3986 1.97862E+01-1.87120E-01 2.35318E-03 1.17510E+00-1.76047E-13-6.62526E-14
 -1      3987 1.99395E+01-3.72831E-01 7.21570E-03 1.26777E+00-2.45302E-13-4.37142E-14
 -1      3988 1.96966E+01-4.10663E-01-9.36110E-03 1.49546E+00-2.40510E-13-6.63415E-14
 -1      3989 1.96453E+01 8.67003E-02 2.59249E-04 9.44197E-01-2.32008E-13 4.76479E-14
 -1      3990 1.97298E+01-3.25325E-02 6.25698E-03 1.03817E+00-2.10325E-13-9.59427E-15
 -1      3991 1.95100E+01-2.62779E-02-6.58479E-03 1.18098E+00-2.16814E-13-3.46312E-14
 -1      3992 1.96021E+01 2.49892E-01-9.69480E-04 7.42662E-01 1.10025E-14 4.40199E-14
 -1      3993 1.96404E+01 1.81787E-01 4.74006E-03 8.27468E-01-1.04676E-13 9.36375E-14
 -1      3994 1.94546E+01 2.13099E-01-3.50042E-03 9.13244E-01-1.63384E-13-7.66050E-14
 -1      3995 1.96163E+01 3.31833E-01-1.51867E-03 5.74976E-01 2.20921E-14-5.30089E-14
 -1      3996 1.96259E+01 3.00884E-01 3.50819E-03 6.47320E-01 2.71439E-14-2.55011E-14
 -1      3997 1.94737E+01 3.45185E-01-1.40726E-03 6.94022E-01 9.10831E-14-2.71332E-13
 -1      3998 1.96601E+01 3.57758E-01-1.66048E-03 4.39945E-01 2.15911E-14-4.24714E-14
 -1      3999 1.96533E+01 3.51758E-01 2.47733E-03 4.99651E-01-1.80124E-14 6.62759E-15
 -1      4000 1.95316E+01 4.00648E-01-1.98537E-04 5.21101E-01 5.75817E-14-1.67327E-13
 -1      4001 1.97159E+01 3.47876E-01-1.58934E-03 3.33352E-01 2.09354E-13-1.28667E-13
 -1      4002 1.97010E+01 3.57355E-01 1.69775E-03 3.81626E-01 2.22947E-13-5.64128E-14
 -1      4003 1.96053E+01 4.05758E-01 4.42271E-04 3.87842E-01 1.06223E-13 7.51457E-14
 -1      4004 1.97729E+01 3.17222E-01-1.41869E-03 2.50271E-01 1.47835E-13-1.54845E-13
 -1      4005 1.97552E+01 3.35281E-01 1.14033E-03 2.88762E-01 1.07144E-13-1.68475E-13
 -1      4006 1.96811E+01 3.80354E-01 7.43537E-04 2.86597E-01 2.17725E-13-5.99036E-14
 -1      4007 1.98254E+01 2.76421E-01-1.21200E-03 1.86100E-01-2.19377E-14 3.54700E-15
 -1      4008 1.98080E+01 2.98273E-01 7.55459E-04 2.16471E-01 5.00674E-14-1.23315E-13
 -1      4009 1.97513E+01 3.38546E-01 8.39341E-04 2.10356E-01 4.18661E-14-1.06859E-13
 -1      4010 1.98705E+01 2.32583E-01-1.00358E-03 1.36889E-01 3.96851E-14 7.34018E-14
 -1      4011 1.98550E+01 2.55094E-01 4.96769E-04 1.60641E-01-1.59899E-14 1.04065E-14
 -1      4012 1.98124E+01 2.89972E-01 8.16232E-04 1.53281E-01-2.34224E-15-1.45160E-13
 -1      4013 1.99074E+01 1.90146E-01-8.10851E-04 9.93925E-02-1.57145E-14 2.17229E-13
 -1      4014 1.98946E+01 2.11412E-01 3.26688E-04 1.17812E-01 1.11444E-13 1.96289E-13
 -1      4015 1.98629E+01 2.40865E-01 7.30835E-04 1.10730E-01 1.17619E-14 9.15333E-14
 -1      4016 1.99364E+01 1.51617E-01-6.41265E-04 7.10095E-02-1.82151E-13 3.44258E-13
 -1      4017 1.99263E+01 1.70614E-01 2.16792E-04 8.51701E-02-1.39959E-13 1.96300E-13
 -1      4018 1.99032E+01 1.94951E-01 6.19243E-04 7.91148E-02-9.67096E-14 2.79810E-13
 -1      4019 1.99583E+01 1.18139E-01-5.03195E-04 4.96774E-02 5.70565E-15 2.88507E-13
 -1      4020 1.99507E+01 1.34463E-01 1.47470E-04 6.04621E-02-6.81795E-14 3.97550E-13
 -1      4021 1.99342E+01 1.54187E-01 5.02502E-04 5.57075E-02-9.72936E-14 2.70591E-13
 -1      4022 1.99742E+01 9.00448E-02-3.79177E-04 3.37600E-02-1.99830E-14 1.18188E-13
 -1      4023 1.99688E+01 1.03673E-01 1.21949E-04 4.19432E-02 4.24171E-14 1.99169E-13
 -1      4024 1.99572E+01 1.19271E-01 3.73474E-04 3.84808E-02 5.40458E-14 1.59790E-13
 -1      4025 1.99851E+01 6.70601E-02-2.97261E-04 2.19483E-02-8.10732E-14 1.44456E-13
 -1      4026 1.99816E+01 7.81696E-02 1.09293E-04 2.82189E-02-5.39375E-14 8.88903E-14
 -1      4027 1.99737E+01 9.00998E-02 1.87369E-04 2.59582E-02 1.24726E-15 5.30831E-14
 -1      4028 1.99916E+01 4.58351E-02-9.74564E-05 1.03364E-03-8.69340E-14-1.82907E-14
 -1      4029 1.99920E+01 4.56570E-02 6.57613E-06 3.08819E-03-1.60903E-13 2.25604E-14
 -1      4030 1.99899E+01 5.38553E-02 1.97733E-04 6.87372E-03-9.47174E-14-1.62210E-13
 -1      4031 2.01760E+01 1.34729E+00-1.19711E-03 5.68382E-02 1.38827E-13-1.98244E-13
 -1      4032 2.01386E+01 1.35723E+00 9.78954E-04-1.29181E-02 1.18423E-13-1.77120E-13
 -1      4033 2.00957E+01 1.39656E+00-2.54431E-03-4.68399E-02 8.93119E-14-1.97939E-13
 -1      4034 2.06457E+01-1.14646E+00 1.33092E-02-1.66577E+00-3.75357E-14-1.63038E-13
 -1      4035 2.03532E+01-8.60145E-01 7.83506E-03-1.61676E+00-4.73815E-14-1.33637E-13
 -1      4036 2.02313E+01-1.23690E+00-3.24087E-02-2.05572E+00-3.26202E-14-1.34305E-13
 -1      4037 1.99650E+01 1.54515E+00-4.07816E-03-5.65874E-02-5.29807E-14-2.60851E-13
 -1      4038 1.99598E+01 1.40994E+00 2.52875E-03 8.94070E-03-4.24346E-14-2.48810E-13
 -1      4039 1.99492E+01 1.59659E+00-6.44905E-04-5.87492E-02-5.21966E-14-2.78369E-13
 -1      4040 1.61083E+01 1.04659E+00 3.04678E-02-1.28590E+00 3.30762E-14-1.88525E-13
 -1      4041 1.55592E+01 8.14730E-01-7.66838E-04-1.90055E+00 7.68439E-15-2.14176E-13
 -1      4042 1.64704E+01 4.82181E-02-4.66339E-02-2.69348E+00-3.04977E-14-2.99190E-13
 -1      4043 1.66381E+01 7.71255E-01-9.68869E-03-1.65591E+00 6.05660E-14-2.58749E-13
 -1      4044 1.96782E+01 1.07463E+00-1.37400E-03 1.48751E-01-5.14752E-14-1.77838E-13
 -1      4045 1.95403E+01 1.04311E+00-4.64385E-03 1.77244E-01-6.96137E-14-1.61554E-13
 -1      4046 1.94738E+01 1.04868E+00 5.29541E-03 3.48184E-02-6.12585E-14-2.16565E-13
 -1      4047 2.00867E+01 1.27432E+00 3.09313E-03-1.22593E-01 7.61733E-14-1.83077E-13
 -1      4048 1.89969E+01 1.05666E+00-7.32191E-04 1.18190E-01-3.56938E-14-1.72037E-13
 -1      4049 1.87203E+01 1.08378E+00-9.65434E-03 8.06475E-02-7.35192E-15-1.69688E-13
 -1      4050 1.86553E+01 1.05239E+00 8.91089E-03-2.08434E-01-9.84835E-15-1.94978E-13
 -1      4051 1.91212E+01 1.03196E+00 7.02532E-03-4.25979E-02-3.36238E-14-2.18658E-13
 -1      4052 2.02550E+01-6.32173E-01 1.12054E-02-1.46241E+00-1.41819E-14-1.39938E-13
 -1      4053 2.00747E+01-4.09680E-01 3.34695E-03-1.37745E+00 1.58201E-15-1.39653E-13
 -1      4054 1.97819E+01-2.26156E-01-9.42419E-03-1.38883E+00 2.02861E-14-1.89290E-13
 -1      4055 1.98774E+01-6.16904E-01-1.72451E-02-1.70307E+00-7.90080E-15-1.55757E-13
 -1      4056 2.18534E+01-2.12812E+00-6.62415E-04 1.54111E+00-2.62266E-13-1.67133E-13
 -1      4057 2.17972E+01-2.49493E+00-3.20797E-02 2.10248E+00-3.80554E-13-1.73339E-13
 -1      4058 2.05971E+01-1.90213E+00 1.18492E-02 2.58529E+00-2.81625E-13-2.11614E-13
 -1      4059 2.13608E+01-1.76037E+00 2.46702E-02 1.65966E+00-1.50881E-13 8.57639E-14
 -1      4060 1.99856E+01 6.41324E-02-1.00287E-05 1.50361E-02-8.66379E-14-9.81640E-14
 -1      4061 1.97563E+01 8.55937E-02-5.18080E-03-1.10865E+00 3.04619E-14-1.46730E-13
 -1      4062 1.99485E+01 7.43449E-02 5.14144E-03-1.01695E+00 1.38445E-14-1.15671E-13
 -1      4063 1.99139E+01 2.00311E-01 2.36046E-04-9.20863E-01-1.37234E-14-9.57050E-14
 -1      4064 2.00475E+01 2.73649E-01-3.26911E-03-7.80932E-01-6.49295E-15-8.97717E-14
 -1      4065 2.01447E+01 2.64467E-01 1.63770E-03-7.29975E-01-7.09109E-16-6.50566E-14
 -1      4066 2.01359E+01 3.65911E-01 9.99529E-04-6.53357E-01 2.18423E-14-6.56332E-14
 -1      4067 1.96018E+01-1.11435E+00-9.96650E-04-2.47563E+00-6.67001E-15-1.29071E-13
 -1      4068 1.99686E+01 1.25267E+00-1.00357E-03-1.66725E-01 1.24069E-14-2.36614E-13
 -1      4069 1.99291E+01 1.29437E+00-3.49299E-03-1.46664E-01-3.15417E-15-2.77318E-13
 -1      4070 1.60169E+01 1.27799E+00 1.88903E-02 1.03150E+00-1.58967E-13 7.06553E-15
 -1      4071 1.64919E+01 1.09935E+00 3.33822E-02 1.39435E+00-1.48320E-13 1.15053E-14
 -1      4072 1.99889E+01 5.75255E-02 1.16755E-04-8.27382E-03 1.41436E-13 4.49454E-13
 -1      4073 1.99902E+01 5.20582E-02-1.04045E-04-6.54930E-03 1.73455E-13 4.80321E-13
 -1      4074 1.99894E+01 5.37185E-02 1.26650E-04-3.35900E-03 2.22096E-14-5.10451E-15
 -1      4075 2.01543E+01 4.67804E-01 9.11959E-04-5.64718E-01 2.02270E-14-9.29958E-14
 -1      4076 2.01613E+01 5.72487E-01 5.66075E-04-4.74392E-01 3.90188E-14-1.14634E-13
 -1      4077 2.01191E+01 7.13787E-01-1.11712E-03-4.15838E-01 2.47771E-14-1.48262E-13
 -1      4078 2.00765E+01 4.90898E-01-3.61806E-04-6.01057E-01 1.65643E-14-9.00208E-14
 -1      4079 2.06973E+01-1.63407E+00-2.34380E-02 2.03031E+00-7.79585E-14 9.04162E-14
 -1      4080 1.76282E+01-3.02320E-02 2.68059E-02-2.43583E+00 1.34905E-14-2.97664E-13
 -1      4081 1.69750E+01 8.86724E-02 1.61803E-02 2.67153E+00-2.33917E-13-1.75930E-13
 -1      4082 1.65253E+01 4.71098E-01-3.53033E-02 2.21541E+00-1.94947E-13-1.79323E-13
 -1      4083 1.78770E+01-1.58497E-01 8.40291E-03 2.48965E+00-3.30402E-13-3.53637E-13
 -1      4084 1.99835E+01 6.64330E-02-1.05220E-04 1.03533E-02-1.62134E-14-2.37900E-13
 -1      4085 1.99782E+01 8.00963E-02 2.00081E-04 1.55708E-02-2.01266E-14-2.36227E-13
 -1      4086 1.99826E+01 6.80596E-02-1.46910E-05 6.83187E-03-4.77850E-15-2.91275E-13
 -1      4087 1.99028E+01 1.34332E+00-6.10439E-05 4.30754E-03-3.75568E-14-2.57258E-13
 -1      4088 1.99167E+01 1.29900E+00-2.62570E-03 4.07903E-02-2.90523E-14-2.42208E-13
 -1      4089 1.98763E+01 1.21947E+00 7.21167E-04 9.29745E-02-4.39583E-14-2.25867E-13
 -1      4090 2.03354E+01-1.45777E+00 2.06389E-02 2.28997E+00-1.90062E-13-9.56271E-14
 -1      4091 1.97316E+01-1.46969E+00-7.10930E-03 2.78211E+00-2.78633E-13-2.09784E-13
 -1      4092 1.88644E+01-8.31923E-01-1.53888E-02 2.62381E+00-2.66086E-13-1.73046E-13
 -1      4093 1.99720E+01-1.17849E+00 4.37761E-04 2.20839E+00-1.09787E-13 1.42920E-14
 -1      4094 1.99324E+01 1.63018E+00-1.74732E-03-7.34598E-02-1.58539E-14-2.95920E-13
 -1      4095 1.99357E+01 1.60807E+00-3.65947E-03-7.46962E-02-3.50777E-14-2.79184E-13
 -1      4096 1.99359E+01 1.46851E+00 3.75384E-03-4.50747E-02-3.60518E-14-2.54651E-13
 -1      4097 1.99439E+01 1.47237E+00 5.16094E-03-8.28497E-02 1.69409E-15-2.83279E-13
 -1      4098 1.99021E+01 1.19305E+00 4.81352E-03-1.66269E-01-1.81691E-14-2.62218E-13
 -1      4099 1.99080E+01 1.32814E+00-1.07891E-03-1.13168E-01 7.39109E-15-2.80191E-13
 -1      4100 1.98944E+01 1.33828E+00-2.40343E-03-9.32131E-02-1.54989E-14-2.44709E-13
 -1      4101 1.98172E+01 1.15764E+00-3.15306E-03 1.03696E-01-3.27518E-14-2.26625E-13
 -1      4102 1.97482E+01 1.10794E+00-2.14870E-03 1.45669E-01-2.98016E-14-1.99303E-13
 -1      4103 1.96891E+01 1.11525E+00 5.49106E-03 5.51488E-02-2.18376E-14-2.43380E-13
 -1      4104 1.98101E+01 1.19359E+00 6.17217E-04 4.92579E-02-2.70082E-15-2.41602E-13
 -1      4105 2.00957E+01 1.08341E+00-3.66150E-04-2.01523E-01 9.33013E-14-1.44622E-13
 -1      4106 2.00159E+01 1.18394E+00-2.73054E-03-1.99237E-01 2.91476E-14-1.78856E-13
 -1      4107 1.99742E+01 1.09282E+00 2.61583E-03-2.39054E-01 1.34631E-14-1.96338E-13
 -1      4108 2.00882E+01 9.32990E-01 2.10212E-03-3.00497E-01 4.91750E-14-1.36168E-13
 -1      4109 1.78603E+01 8.22916E-01 1.18025E-02-1.06281E+00 2.11981E-14-2.61094E-13
 -1      4110 1.74367E+01 7.55131E-01-1.18203E-03-1.36100E+00 5.01537E-14-2.60438E-13
 -1      4111 1.72267E+01 8.10686E-01 2.03758E-02 1.51022E+00-1.94578E-13-1.27488E-13
 -1      4112 1.74572E+01 9.68493E-01-2.79020E-02 9.67640E-01-2.56123E-14-4.52234E-14
 -1      4113 1.78711E+01 1.00994E+00 7.80775E-03 7.65784E-01 8.35743E-14-4.88350E-14
 -1      4114 1.99897E+01 5.16769E-02-1.74954E-05 6.34408E-04-6.29016E-14-1.24715E-13
 -1      4115 1.80600E+01 9.91420E-01-1.44623E-02 5.77717E-01-5.38392E-14-1.22950E-13
 -1      4116 1.83538E+01 9.78564E-01 3.37300E-03 4.39675E-01-1.53589E-13-1.52582E-13
 -1      4117 1.81596E+01 8.44800E-01 5.47944E-03 9.12358E-01-4.21833E-14-3.20782E-13
 -1      4118 1.85162E+01 9.36457E-01-1.07714E-02 3.13219E-01-1.88160E-13-7.66683E-14
 -1      4119 1.87409E+01 8.98950E-01 1.77867E-03 2.25943E-01-1.63083E-13-1.67967E-13
 -1      4120 1.85505E+01 8.61509E-01 6.76367E-03 5.64464E-01-2.02384E-13-3.01495E-13
 -1      4121 1.88838E+01 8.41767E-01-7.64361E-03 1.40928E-01-5.51465E-14-1.68169E-13
 -1      4122 1.90604E+01 7.88322E-01 5.91919E-04 8.77789E-02-6.85847E-15-2.31395E-13
 -1      4123 1.88792E+01 8.12979E-01 6.32051E-03 3.28599E-01-1.23667E-13-2.35451E-13
 -1      4124 1.91708E+01 7.28889E-01-5.43850E-03 3.88496E-02-5.96953E-14-2.76179E-13
 -1      4125 1.92973E+01 6.75022E-01-1.81249E-04 1.20644E-02-5.96997E-14-3.52838E-13
 -1      4126 1.91469E+01 7.30723E-01 5.97117E-03 1.76358E-01-7.41841E-15-4.30116E-13
 -1      4127 1.93868E+01 6.17622E-01-3.72184E-03-1.65402E-02 5.01364E-14-2.04939E-13
 -1      4128 1.94815E+01 5.64973E-01-5.30522E-04-2.81907E-02 2.27654E-14-2.43874E-13
 -1      4129 1.93557E+01 6.34609E-01 4.99482E-03 8.49344E-02 8.36833E-15-2.78894E-13
 -1      4130 1.95527E+01 5.12149E-01-2.55314E-03-4.34336E-02 9.29695E-14-1.77858E-13
 -1      4131 1.96230E+01 4.63780E-01-6.75416E-04-4.59405E-02 8.90942E-14-8.62258E-14
 -1      4132 1.95207E+01 5.36687E-01 4.08384E-03 3.08177E-02 1.38308E-13-1.63650E-13
 -1      4133 1.96787E+01 4.16985E-01-1.72690E-03-5.28345E-02-1.12778E-14-2.12030E-14
 -1      4134 1.97304E+01 3.74245E-01-7.04086E-04-5.02352E-02-9.93365E-14 1.55126E-14
 -1      4135 1.96494E+01 4.43961E-01 3.27233E-03 1.02494E-03 1.37078E-13-9.40844E-14
 -1      4136 1.97733E+01 3.33969E-01-1.15018E-03-5.22063E-02-1.42894E-13 1.95279E-14
 -1      4137 1.98109E+01 2.97287E-01-6.63092E-04-4.71383E-02-7.30119E-14 1.75862E-13
 -1      4138 1.97483E+01 3.60284E-01 2.57563E-03-1.35146E-02-1.20176E-14 5.39234E-14
 -1      4139 1.98434E+01 2.63407E-01-7.53599E-04-4.64357E-02-2.22750E-15 6.59362E-14
 -1      4140 1.98705E+01 2.32648E-01-5.85703E-04-4.05330E-02 1.44094E-13 1.14073E-13
 -1      4141 1.98231E+01 2.87350E-01 1.99426E-03-1.89495E-02-6.56463E-14-6.49047E-14
 -1      4142 1.98947E+01 2.04689E-01-4.84830E-04-3.85709E-02 1.27821E-13 7.91943E-14
 -1      4143 1.99138E+01 1.79394E-01-4.92886E-04-3.27791E-02 1.24376E-13-1.07444E-13
 -1      4144 1.98788E+01 2.25471E-01 1.51994E-03-1.93115E-02 1.30067E-13-2.78378E-13
 -1      4145 1.99315E+01 1.56691E-01-3.05888E-04-3.03941E-02 2.04099E-13-2.76329E-14
 -1      4146 1.99447E+01 1.36211E-01-4.14047E-04-2.52034E-02 1.40472E-13-6.99621E-14
 -1      4147 1.99194E+01 1.74117E-01 1.13793E-03-1.71402E-02 1.54533E-13-1.27488E-13
 -1      4148 1.99573E+01 1.18180E-01-1.52359E-04-2.29384E-02 1.35189E-13-8.34139E-14
 -1      4149 1.99662E+01 1.01823E-01-3.20956E-04-1.84668E-02 7.84409E-14 2.02931E-13
 -1      4150 1.99485E+01 1.32162E-01 8.05880E-04-1.40157E-02 2.88894E-13-1.59358E-14
 -1      4151 1.99750E+01 8.75245E-02-6.31894E-05-1.64474E-02 1.05454E-14 3.77883E-13
 -1      4152 1.99807E+01 7.47306E-02-2.30835E-04-1.29784E-02-1.04492E-13 3.68176E-13
 -1      4153 1.99686E+01 9.85902E-02 5.12642E-04-1.08339E-02 1.27268E-13 1.91890E-13
 -1      4154 1.99842E+01 6.88988E-02 7.38478E-05-1.15282E-02-1.23781E-13 3.47522E-13
 -1      4155 1.99860E+01 6.26692E-02-1.62144E-04-9.29865E-03 5.29039E-14 5.19291E-13
 -1      4156 1.99848E+01 6.44221E-02 9.56374E-07-5.45744E-03 9.26841E-15 3.47491E-13
 -1      4157 1.99793E+01 7.74351E-02 2.72217E-04-7.70901E-03 8.60387E-15 2.86039E-13
 -1      4158 1.95023E+01-5.11914E-01-4.34850E-03 1.78758E+00-1.50754E-13 1.39479E-13
 -1      4159 1.97703E+01-8.06229E-01 1.05491E-02 1.95692E+00 1.37374E-14 1.50687E-13
 -1      4160 1.93007E+01-6.85248E-01-2.31211E-03 2.18923E+00-1.24909E-13 1.32008E-13
 -1      4161 1.92196E+01 1.99794E-01-4.38983E-03 1.12152E+00-2.26689E-13-2.89655E-14
 -1      4162 1.92890E+01 6.99477E-02 8.10602E-03 1.27492E+00-2.40872E-13-3.89394E-14
 -1      4163 1.92928E+01-6.54313E-02 2.74732E-05 1.42908E+00-2.34419E-13-2.92265E-14
 -1      4164 1.94299E+01-2.85364E-01 7.20818E-03 1.61446E+00-2.14049E-13-3.76136E-14
 -1      4165 1.90621E+01-1.60870E-01-7.62474E-03 1.71401E+00-2.52936E-14 1.02494E-13
 -1      4166 1.89810E+01 1.42447E-01-7.43244E-03 1.37284E+00-2.24135E-13-3.36043E-15
 -1      4167 1.92568E+01 3.73901E-01-4.46440E-03 8.31356E-01-6.67853E-14-9.66382E-14
 -1      4168 1.92799E+01 3.07401E-01 8.17694E-03 9.53790E-01-1.16799E-13-5.87113E-14
 -1      4169 1.90150E+01 3.80266E-01 1.05007E-04 1.03709E+00-1.70677E-13-1.69342E-13
 -1      4170 1.93425E+01 4.52608E-01-4.21939E-03 6.08003E-01 6.96644E-14-6.89764E-14
 -1      4171 1.93334E+01 4.27529E-01 5.50765E-03 7.03884E-01 2.87422E-14-1.17881E-13
 -1      4172 1.91350E+01 5.04308E-01 2.73978E-03 7.39801E-01-2.84426E-14-1.28916E-13
 -1      4173 1.94463E+01 4.68924E-01-3.60767E-03 4.40265E-01 1.36266E-14 1.74958E-15
 -1      4174 1.94208E+01 4.70632E-01 3.63333E-03 5.13631E-01-3.73374E-14-2.53530E-14
 -1      4175 1.92728E+01 5.43939E-01 3.75709E-03 5.20750E-01-6.46727E-14 2.21794E-14
 -1      4176 1.95510E+01 4.46575E-01-2.95456E-03 3.16570E-01 1.15373E-13 2.48548E-14
 -1      4177 1.95188E+01 4.64096E-01 2.29434E-03 3.71915E-01 1.41455E-13 2.79185E-14
 -1      4178 1.94090E+01 5.29661E-01 3.68375E-03 3.63110E-01 8.71940E-14-3.50536E-16
 -1      4179 1.96472E+01 4.02602E-01-2.35384E-03 2.26291E-01 2.60974E-13-1.08117E-13
 -1      4180 1.96144E+01 4.28402E-01 1.39779E-03 2.67662E-01 2.24181E-13-1.72484E-14
 -1      4181 1.95332E+01 4.85347E-01 3.33334E-03 2.51174E-01 1.91550E-13-5.17136E-14
 -1      4182 1.97307E+01 3.48764E-01-1.83995E-03 1.60895E-01 7.75616E-14-9.96916E-14
 -1      4183 1.97004E+01 3.77731E-01 8.08486E-04 1.91650E-01 2.43780E-13-1.68781E-14
 -1      4184 1.96407E+01 4.26127E-01 2.87757E-03 1.72630E-01 1.81346E-13-1.23549E-14
 -1      4185 1.98001E+01 2.92803E-01-1.41735E-03 1.13746E-01-2.91477E-14-1.58231E-13
 -1      4186 1.97740E+01 3.21657E-01 4.35407E-04 1.36540E-01-3.90975E-14-1.52815E-13
 -1      4187 1.97304E+01 3.62082E-01 2.40103E-03 1.18008E-01 1.36582E-14-8.86590E-14
 -1      4188 1.98559E+01 2.39480E-01-1.07864E-03 7.98469E-02-6.04441E-14 1.50576E-13
 -1      4189 1.98344E+01 2.66274E-01 2.09326E-04 9.67111E-02-3.15318E-14 1.45888E-14
 -1      4190 1.98028E+01 2.99540E-01 1.94939E-03 8.02551E-02-1.35240E-13-3.81536E-14
 -1      4191 1.98993E+01 1.91433E-01-8.12164E-04 5.55161E-02-1.26274E-13 1.75988E-13
 -1      4192 1.98823E+01 2.15155E-01 7.98640E-05 6.79757E-02-1.09017E-14 2.04052E-13
 -1      4193 1.98597E+01 2.42157E-01 1.54582E-03 5.42614E-02-3.59503E-14 6.80916E-14
 -1      4194 1.99321E+01 1.49843E-01-6.03490E-04 3.80805E-02 4.02127E-14 5.42892E-14
 -1      4195 1.99192E+01 1.70113E-01 1.15987E-05 4.72663E-02-5.02454E-14 1.11218E-13
 -1      4196 1.99032E+01 1.91743E-01 1.19983E-03 3.63990E-02 5.73352E-14 3.51711E-14
 -1      4197 1.99563E+01 1.14950E-01-4.17021E-04 2.56976E-02 3.96949E-15-6.91380E-14
 -1      4198 1.99468E+01 1.31788E-01-1.18253E-05 3.23312E-02 3.81250E-14-8.10459E-14
 -1      4199 1.99356E+01 1.48892E-01 9.16770E-04 2.41230E-02 1.39333E-13-2.08353E-13
 -1      4200 1.99717E+01 8.97017E-02-2.18402E-04 1.79622E-02 2.44191E-14-1.57971E-13
 -1      4201 1.99647E+01 1.03535E-01 2.29911E-05 2.27773E-02-8.52386E-15-2.13720E-13
 -1      4202 1.99567E+01 1.17147E-01 6.86757E-04 1.67110E-02 1.71669E-13-4.10110E-13
 -1      4203 1.99701E+01 9.32845E-02 2.46747E-04 1.22201E-02 7.93814E-14-3.47850E-13
 -1      4204 1.84113E+01 9.09105E-01 6.23166E-03-6.35897E-01-1.97883E-15-2.24479E-13
 -1      4205 1.80604E+01 8.69174E-01-1.39086E-02-8.21763E-01 1.02248E-14-2.48940E-13
 -1      4206 1.82400E+01 6.31575E-01-6.21883E-04-1.21296E+00-9.84748E-15-2.37947E-13
 -1      4207 1.93800E+01-7.13390E-01 1.09548E-02-2.23673E+00-3.91315E-14-1.18848E-13
 -1      4208 1.98938E+01 1.35736E+00-7.91767E-04-2.37077E-02-1.47298E-14-2.43816E-13
 -1      4209 1.75063E+01 5.56009E-01 1.94228E-02-1.67018E+00 4.29538E-14-2.83783E-13
 -1      4210 1.73815E+01 3.11501E-01 1.41484E-02-2.12599E+00 2.50451E-16-3.21234E-13
 -1      4211 1.83086E+01-2.95815E-01-2.03096E-02-2.33310E+00 7.00828E-15-2.24768E-13
 -1      4212 1.80228E+01 2.81553E-01-1.58969E-02-1.77223E+00-2.94708E-15-2.60048E-13
 -1      4213 1.95683E+01 1.02264E+00-5.14378E-04-7.28598E-02-5.63698E-14-2.59975E-13
 -1      4214 1.94126E+01 9.84718E-01-5.82747E-03-1.00383E-01-5.22546E-14-2.60524E-13
 -1      4215 1.99874E+01 5.71484E-02-4.84330E-05-2.72087E-04-2.33732E-13 2.53802E-14
 -1      4216 1.89159E+01-4.36045E-01-2.71610E-03-2.20951E+00-4.30786E-14-1.11324E-13
 -1      4217 1.96178E+01-5.11938E-01 1.19154E-02-1.84811E+00-6.21022E-14-7.26329E-14
 -1      4218 1.94994E+01-3.13410E-01-3.65059E-03-1.67601E+00-2.08501E-14-1.22281E-13
 -1      4219 1.86594E+01-9.08054E-02-2.24746E-03-1.95582E+00-2.83223E-14-1.39657E-13
 -1      4220 1.99463E+01 3.15163E-01 3.84324E-03-8.08869E-01-1.97876E-14-9.87312E-14
 -1      4221 1.99425E+01 4.17508E-01-1.34764E-03-7.15706E-01-7.48816E-15-1.00283E-13
 -1      4222 1.97909E+01 3.41038E-01-2.35477E-03-8.57291E-01-1.75438E-14-1.17500E-13
 -1      4223 1.95568E+01-1.29217E-01 1.13717E-02-1.47922E+00 1.78965E-14-1.61942E-13
 -1      4224 1.95093E+01 8.18675E-03-4.04594E-03-1.32873E+00 1.37733E-14-1.77773E-13
 -1      4225 1.92022E+01-9.63966E-02-8.43722E-03-1.63276E+00-2.10255E-14-8.16985E-14
 -1      4226 2.00257E+01 6.85090E-01 4.87135E-04-4.78473E-01-1.26830E-15-1.35890E-13
 -1      4227 2.00525E+01 8.02355E-01-1.69987E-04-3.85649E-01 7.05675E-15-1.47088E-13
 -1      4228 1.99879E+01 8.91005E-01-7.26197E-04-3.57569E-01 1.69109E-14-1.09514E-13
 -1      4229 1.94029E+01 9.30697E-01 3.81798E-03-2.75235E-01-4.98468E-14-2.65037E-13
 -1      4230 1.92714E+01 9.61746E-01 1.25871E-03-1.68614E-01-3.33688E-14-2.81845E-13
 -1      4231 1.90536E+01 9.41593E-01-9.07772E-03-2.34997E-01-3.16686E-14-2.76486E-13
 -1      4232 1.95735E+01 1.68538E-01 8.19672E-03-1.14835E+00 3.03100E-14-1.92294E-13
 -1      4233 1.95564E+01 2.92177E-01-3.71573E-03-1.00603E+00 2.56284E-14-1.73635E-13
 -1      4234 1.92901E+01 2.17988E-01-5.05342E-03-1.23139E+00 1.85577E-14-1.87961E-13
 -1      4235 1.76779E+01 5.75053E-01 5.59788E-03 1.65387E+00-1.27988E-13-2.31482E-13
 -1      4236 1.97122E+01 1.10243E+00 1.09225E-03-3.59641E-02-2.87450E-14-2.81173E-13
 -1      4237 1.96342E+01 1.05429E+00-4.25629E-03-4.43796E-02-3.71530E-14-2.66512E-13
 -1      4238 1.96156E+01 1.01600E+00 4.23380E-03-1.67299E-01-4.52983E-14-2.86516E-13
 -1      4239 1.99811E+01 7.06207E-02-9.04467E-05 2.26598E-03-6.89520E-14-1.95208E-13
 -1      4240 1.89519E+01-5.55182E-01 1.31926E-02 2.32284E+00-1.74178E-13-3.18851E-14
 -1      4241 1.83771E+01-3.17531E-01 1.73981E-02 2.45035E+00-2.42031E-13-2.04490E-13
 -1      4242 1.79827E+01 2.63978E-02 4.59497E-03 2.20231E+00-2.29467E-13-1.79258E-13
 -1      4243 1.87702E+01-2.56357E-01-9.55237E-03 2.03149E+00-9.00276E-14 6.68545E-14
 -1      4244 1.98527E+01 1.07222E+00-2.92329E-05-2.28696E-01-3.66145E-14-2.83744E-13
 -1      4245 1.98156E+01 1.09879E+00-4.49404E-03-1.89616E-01-3.78995E-14-2.62777E-13
 -1      4246 1.88873E+01 9.36949E-01 3.51363E-03-3.46894E-01-2.78651E-15-2.43435E-13
 -1      4247 1.86037E+01 9.18788E-01-1.17107E-02-4.65537E-01 6.50321E-15-2.47379E-13
 -1      4248 1.86871E+01 7.74066E-01 2.18531E-03-7.75309E-01 4.18198E-15-2.56067E-13
 -1      4249 1.90763E+01 8.55449E-01 3.00827E-03-4.73035E-01 1.68576E-14-2.96585E-13
 -1      4250 1.99286E+01 9.59966E-01-1.72271E-03-3.17285E-01 3.88318E-15-1.95623E-13
 -1      4251 1.98604E+01 1.24824E+00 2.83681E-03-4.78041E-02-1.76129E-14-2.40001E-13
 -1      4252 1.98603E+01 8.96525E-01 1.89258E-03-3.52654E-01-1.34633E-14-1.95531E-13
 -1      4253 2.00030E+01 5.79429E-01 1.36904E-03-5.66273E-01-4.84939E-15-1.10954E-13
 -1      4254 1.84506E+01 5.27926E-01-5.76400E-03 1.20052E+00-1.96461E-13-1.54033E-13
 -1      4255 1.86501E+01 5.95872E-01 6.98575E-03 9.77410E-01-1.66244E-13-2.13052E-13
 -1      4256 1.86934E+01 6.45237E-01-8.16840E-03 8.09014E-01-1.26449E-13-2.78619E-13
 -1      4257 1.88706E+01 6.65760E-01 3.14645E-03 6.60017E-01-1.78594E-13-2.11407E-13
 -1      4258 1.89345E+01 6.73593E-01-7.49153E-03 5.35751E-01-1.70612E-13-1.02410E-13
 -1      4259 1.90887E+01 6.61479E-01 8.68265E-04 4.32175E-01-6.45996E-14-8.40803E-14
 -1      4260 1.91573E+01 6.44177E-01-6.40110E-03 3.43573E-01 7.73988E-15-1.16865E-13
 -1      4261 1.92775E+01 6.15399E-01-3.97576E-04 2.79932E-01-1.32028E-14-1.64125E-13
 -1      4262 1.93436E+01 5.85172E-01-5.02436E-03 2.17378E-01 5.83621E-14-1.24931E-13
 -1      4263 1.94398E+01 5.47772E-01-9.08918E-04 1.77381E-01 1.15007E-13-7.44110E-14
 -1      4264 1.94988E+01 5.11498E-01-3.88441E-03 1.33995E-01 1.52813E-13-2.92294E-14
 -1      4265 1.95745E+01 4.71548E-01-1.09327E-03 1.09899E-01 1.58898E-13-1.48227E-15
 -1      4266 1.96248E+01 4.34018E-01-2.95716E-03 8.01753E-02 1.27890E-13 6.25750E-14
 -1      4267 1.96835E+01 3.95187E-01-1.10125E-03 6.64781E-02 1.50135E-13 4.56298E-14
 -1      4268 1.97248E+01 3.59372E-01-2.22344E-03 4.62960E-02 9.10879E-15 2.18957E-14
 -1      4269 1.97697E+01 3.23766E-01-1.01227E-03 3.91637E-02-8.77456E-14-1.07672E-13
 -1      4270 1.98027E+01 2.91327E-01-1.65328E-03 2.55447E-02-1.53156E-13-1.27308E-13
 -1      4271 1.98364E+01 2.59982E-01-8.77308E-04 2.23830E-02-9.29916E-14-1.52502E-13
 -1      4272 1.98620E+01 2.31690E-01-1.21630E-03 1.32244E-02 4.66092E-14-1.30489E-13
 -1      4273 1.98870E+01 2.04937E-01-7.28092E-04 1.23316E-02 1.13218E-13-1.66229E-13
 -1      4274 1.99064E+01 1.80973E-01-8.84655E-04 6.17793E-03 1.54138E-13-2.10355E-13
 -1      4275 1.99244E+01 1.58696E-01-5.85664E-04 6.48306E-03 2.07357E-13-1.55704E-13
 -1      4276 1.99387E+01 1.38969E-01-6.05094E-04 2.38489E-03 2.78228E-13-2.09835E-13
 -1      4277 1.99514E+01 1.20656E-01-5.01920E-04 3.15282E-03 2.59870E-13-1.93227E-13
 -1      4278 1.99596E+01 1.08494E-01-3.53173E-04 1.01536E-03 2.93679E-13-1.95180E-13
 -1      4279 1.99684E+01 9.35876E-02-3.25781E-04 1.78129E-03 1.66878E-13-1.31832E-13
 -1      4280 1.98862E+01 6.13344E-01 7.16418E-04-5.91061E-01-1.64549E-15-1.49608E-13
 -1      4281 1.88705E+01 4.18970E-01 1.09339E-02-1.21356E+00-2.12070E-16-1.57862E-13
 -1      4282 1.86446E+01 2.89357E-01-5.10818E-03-1.47528E+00-3.03073E-14-1.63664E-13
 -1      4283 1.97296E+01 1.02796E+00 1.59881E-03-1.94415E-01-4.01609E-14-2.58898E-13
 -1      4284 1.97802E+01 1.12490E+00-1.38997E-04-1.31351E-01-2.35078E-14-2.43828E-13
 -1      4285 1.86000E+01 1.57308E-01 9.97113E-03-1.69541E+00-5.05394E-14-1.34202E-13
 -1      4286 1.89156E+01 5.27448E-01-4.70880E-03-1.02013E+00 4.98646E-15-1.93310E-13
 -1      4287 1.84989E+01 4.27023E-01 1.04751E-02 1.35709E+00-5.91443E-14-7.71735E-14
 -1      4288 1.95543E+01 8.79862E-01 2.79090E-03-3.38345E-01-3.78615E-14-2.33687E-13
 -1      4289 1.94042E+01 8.23504E-01-2.76524E-03-4.22636E-01-3.74940E-14-2.08529E-13
 -1      4290 1.96470E+01 4.05425E-01 5.90019E-03-8.61991E-01-1.81600E-15-1.87773E-13
 -1      4291 1.96698E+01 5.03093E-01-1.33921E-03-7.46362E-01-4.81001E-14-1.69738E-13
 -1      4292 1.94272E+01 4.59634E-01-2.40964E-03-8.94431E-01 5.06882E-15-2.26741E-13
 -1      4293 1.96758E+01 9.66239E-01-3.33693E-04-2.42721E-01-3.99932E-14-2.52718E-13
 -1      4294 1.95966E+01 9.17794E-01-5.49396E-03-2.82076E-01-3.07184E-14-2.61076E-13
 -1      4295 1.96243E+01 8.41911E-01 4.97632E-03-4.19166E-01-1.74822E-14-2.04976E-13
 -1      4296 1.97289E+01 9.46796E-01 1.89629E-03-3.03059E-01-4.58440E-14-2.31618E-13
 -1      4297 1.97640E+01 1.14933E+00-2.15989E-03-3.71234E-02-2.16229E-14-2.60395E-13
 -1      4298 1.91242E+01 6.06421E-01 7.40371E-03-8.32374E-01 3.56885E-14-2.25527E-13
 -1      4299 1.83048E+01 1.19087E-01-2.78406E-03 1.88300E+00-1.29427E-13-8.02565E-14
 -1      4300 1.98079E+01 8.27594E-01-1.94574E-03-4.07058E-01 9.85464E-15-1.57956E-13
 -1      4301 1.97376E+01 6.77530E-01 1.18667E-03-5.52073E-01-1.72786E-14-1.72883E-13
 -1      4302 1.99745E+01 8.35988E-02-1.40937E-04 3.07176E-04 3.70935E-14-1.53774E-13
 -1      4303 1.87339E+01-6.44013E-02-1.14700E-02 1.83065E+00 1.90013E-14 3.39635E-14
 -1      4304 1.95315E+01 6.66348E-01-2.18412E-03-6.16941E-01-4.61249E-14-1.44939E-13
 -1      4305 1.93750E+01 7.34020E-01 3.83139E-03-5.61270E-01-8.58932E-15-2.07209E-13
 -1      4306 1.91985E+01 6.76872E-01-4.47594E-03-6.89462E-01 2.49342E-14-2.16940E-13
 -1      4307 1.99780E+01 7.69909E-02-7.87860E-05 1.50431E-03 2.37816E-14-9.31464E-14
 -1      4308 1.96860E+01 6.16174E-01-1.56249E-03-6.19987E-01-5.07213E-14-1.50264E-13
 -3
    1PSTEP                         3           1           1          
  100CL  101 1.000000000        4308                     0    1           1
 -4  TOSTRAIN    6    1
 -5  EXX         1    4    1    1
 -5  EYY         1    4    2    2
 -5  EZZ         1    4    3    3
 -5  EXY         1    4    1    2
 -5  EYZ         1    4    2    3
 -5  EZX         1    4    3    1
 -1         1 3.85044E-05 2.44631E-05-2.86436E-05 5.76946E-05-1.44512E-17-1.47896E-17
 -1         2 3.82586E-05-1.16345E-04 2.13229E-05 1.42298E-07 7.24743E-19 2.92200E-19
 -1         3 9.52377E-05-2.85705E-05-2.85713E-05 1.39346E-09-1.51073E-18-1.58737E-18
 -1         4 9.52376E-05-2.85702E-05-2.85714E-05-2.25111E-09 2.28588E-18-3.10319E-18
 -1         5 1.42470E-04-2.13039E-05-4.23645E-05 3.82468E-05-2.03394E-19 1.51476E-17
 -1         6 1.44351E-04 2.56515E-10-4.39814E-05-5.30561E-05-8.13681E-19 1.48358E-17
 -1         7 9.05931E-05-5.39424E-07-3.90106E-05-2.88350E-05-1.26208E-19 3.45034E-18
 -1         8 8.53137E-05 6.87406E-08-3.63914E-05-1.97293E-05-1.69089E-19-2.58889E-19
 -1         9 8.30631E-05 6.47840E-08-3.54410E-05-1.50042E-05-1.54941E-19-2.40310E-18
 -1        10 8.19823E-05 3.25632E-08-3.49663E-05-1.14217E-05-1.15024E-19-3.43012E-18
 -1        11 8.13715E-05 1.68376E-08-3.47087E-05-8.41244E-06-8.44088E-20-3.95182E-18
 -1        12 8.10001E-05 9.94504E-09-3.45583E-05-5.80803E-06-4.13226E-20-4.25495E-18
 -1        13 8.07735E-05 7.59120E-09-3.44692E-05-3.39099E-06-4.07568E-20-4.34881E-18
 -1        14 8.06670E-05 6.79510E-09-3.44276E-05-1.10205E-06-7.20929E-21-4.30312E-18
 -1        15 8.06680E-05 6.75060E-09-3.44272E-05 1.15197E-06 3.51841E-20-4.31702E-18
 -1        16 8.07750E-05 7.47983E-09-3.44676E-05 3.45966E-06 4.59780E-20-4.21519E-18
 -1        17 8.09988E-05 9.32067E-09-3.45543E-05 5.91163E-06 6.64028E-20-3.96513E-18
 -1        18 8.13636E-05 1.65377E-08-3.47018E-05 8.55830E-06 9.26641E-20-3.54891E-18
 -1        19 8.19725E-05 3.30627E-08-3.49598E-05 1.16202E-05 1.61962E-19-2.87701E-18
 -1        20 8.30537E-05 7.06529E-08-3.54404E-05 1.52621E-05 1.75521E-19-1.69101E-18
 -1        21 8.52575E-05 1.52958E-07-3.64235E-05 1.99630E-05 2.06094E-19 5.85555E-19
 -1        22 9.15999E-05-1.22905E-07-3.86942E-05 2.76070E-05 2.63639E-20 5.09613E-18
 -1        23 1.12559E-04-3.79927E-05-3.52786E-05-4.29516E-06-5.39481E-19 1.19452E-17
 -1        24 9.29012E-05-2.77310E-05-2.90186E-05 3.98745E-07-1.20782E-19 9.43499E-18
 -1        25 8.96305E-05-2.70103E-05-2.70806E-05 3.74695E-07-1.09821E-19 6.96945E-18
 -1        26 8.89941E-05-2.67880E-05-2.66893E-05 2.02763E-07 7.42568E-20 5.25858E-18
 -1        27 8.96287E-05-2.69508E-05-2.68685E-05 1.40809E-07-8.90534E-20 4.23077E-18
 -1        28 9.09993E-05-2.73411E-05-2.72942E-05 1.06532E-07-2.18661E-20 3.46060E-18
 -1        29 9.29252E-05-2.79083E-05-2.78849E-05 8.91176E-08-8.36031E-20 2.91644E-18
 -1        30 9.53908E-05-2.86437E-05-2.86370E-05 8.47158E-08-4.91279E-20 2.16595E-18
 -1        31 9.84888E-05-2.95718E-05-2.95819E-05 9.39645E-08 2.50743E-20 1.43894E-18
 -1        32 1.02401E-04-3.07445E-05-3.07765E-05 1.20868E-07-1.71047E-19 7.27449E-19
 -1        33 1.07382E-04-3.22353E-05-3.22969E-05 1.72280E-07 1.46732E-19-6.33376E-19
 -1        34 1.13712E-04-3.41239E-05-3.42225E-05 2.57290E-07 6.07986E-20-5.54833E-19
 -1        35 1.21599E-04-3.64745E-05-3.65945E-05 3.70639E-07 1.97424E-19-6.00070E-19
 -1        36 1.31291E-04-3.93638E-05-3.94320E-05 5.19296E-07 3.16065E-20-8.69770E-19
 -1        37 1.40742E-04-4.21943E-05-4.20475E-05 5.61496E-07 4.37330E-20-4.92206E-19
 -1        38 1.47475E-04-4.42556E-05-4.36568E-05 2.89141E-07-1.73063E-19 6.41442E-19
 -1        39 1.46659E-04-4.40958E-05-4.29956E-05-6.13359E-07 3.97444E-20 1.01326E-18
 -1        40 1.33565E-04-4.01869E-05-3.92453E-05-2.11724E-06-1.47218E-19 1.40660E-18
 -1        41 1.09567E-04-3.27599E-05-3.33605E-05-3.11004E-06-5.49637E-20 1.89513E-18
 -1        42 8.78450E-05-2.58086E-05-2.85019E-05-1.69408E-06-2.20506E-19 4.85297E-19
 -1        43 8.41910E-05-2.47194E-05-2.77091E-05 9.94218E-07-1.56992E-19-2.70039E-18
 -1        44 9.90017E-05-2.94144E-05-3.09838E-05 2.83632E-06-2.81850E-19-5.53483E-18
 -1        45 1.24496E-04-3.73783E-05-3.69535E-05 2.75559E-06-3.04168E-19-6.58430E-18
 -1        46 1.43816E-04-4.32933E-05-4.20998E-05 1.14618E-06 3.61346E-19-5.09533E-18
 -1        47 1.49110E-04-4.47767E-05-4.39645E-05-3.25688E-08-1.12960E-19-3.02299E-18
 -1        48 1.44817E-04-4.34278E-05-4.31344E-05-5.10209E-07-8.13284E-21-3.72898E-18
 -1        49 1.36210E-04-4.08345E-05-4.08506E-05-5.48044E-07-4.02466E-19-3.74997E-18
 -1        50 1.26985E-04-3.80835E-05-3.82001E-05-4.26565E-07 3.08506E-19-3.12740E-18
 -1        51 1.18887E-04-3.56726E-05-3.57874E-05-2.89922E-07-2.63434E-19-2.18275E-18
 -1        52 1.12417E-04-3.37433E-05-3.38266E-05-1.83445E-07-6.95865E-19-4.34979E-18
 -1        53 1.07503E-04-3.22732E-05-3.23257E-05-1.11075E-07-2.11813E-19-5.96387E-18
 -1        54 1.03874E-04-3.11841E-05-3.12145E-05-6.50275E-08 4.07184E-19-5.79984E-18
 -1        55 1.01238E-04-3.03907E-05-3.04072E-05-3.67165E-08-1.60341E-20-4.64586E-19
 -1        56 9.93443E-05-2.98192E-05-2.98275E-05-1.96436E-08-3.08894E-20-2.83789E-19
 -1        57 9.79947E-05-2.94110E-05-2.94149E-05-9.43963E-09-1.08617E-19-1.95877E-19
 -1        58 9.70401E-05-2.91224E-05-2.91233E-05-4.76880E-09-8.45362E-19 1.39912E-18
 -1        59 9.63471E-05-2.89113E-05-2.89116E-05 3.26425E-10-1.31080E-19-2.78187E-18
 -1        60 9.58972E-05-2.87749E-05-2.87742E-05 1.83896E-09 5.05205E-19-2.59769E-18
 -1        61 9.55932E-05-2.86823E-05-2.86814E-05 2.73430E-09-6.73417E-19-4.01005E-18
 -1        62 9.53942E-05-2.86215E-05-2.86205E-05 3.09542E-09-3.04926E-19-5.95784E-18
 -1        63 9.52698E-05-2.85833E-05-2.85824E-05 3.13884E-09 6.07626E-19-4.96858E-18
 -1        64 9.51979E-05-2.85611E-05-2.85603E-05 3.00881E-09 5.66559E-19-3.30067E-19
 -1        65 9.51625E-05-2.85500E-05-2.85494E-05 2.79788E-09-5.87798E-19 4.45062E-19
 -1        66 9.51521E-05-2.85465E-05-2.85460E-05 2.56585E-09 9.26203E-20 1.90399E-19
 -1        67 9.51581E-05-2.85480E-05-2.85476E-05 2.35014E-09 5.14002E-20 1.37190E-18
 -1        68 9.51742E-05-2.85526E-05-2.85523E-05 2.16785E-09-4.82712E-19 9.75249E-19
 -1        69 9.51955E-05-2.85588E-05-2.85585E-05 2.00119E-09-7.23354E-20 3.02332E-18
 -1        70 9.52172E-05-2.85652E-05-2.85646E-05 1.74760E-09-6.79299E-19 1.72768E-18
 -1        71 9.52332E-05-2.85702E-05-2.85692E-05 4.82809E-10-3.49138E-19-5.14094E-18
 -1        72 1.01915E-04-3.05035E-05-3.40703E-05-1.94309E-06 2.72348E-19 1.37743E-17
 -1        73 9.27306E-05-2.75713E-05-2.89475E-05-3.37438E-07 9.10428E-20 1.05621E-17
 -1        74 8.96568E-05-2.68732E-05-2.71322E-05-1.29879E-07 9.94288E-20 8.44328E-18
 -1        75 8.90115E-05-2.67334E-05-2.67268E-05-9.79902E-08 4.23231E-20 7.21268E-18
 -1        76 8.95300E-05-2.68841E-05-2.68529E-05-7.88603E-08 6.33959E-20 6.34565E-18
 -1        77 9.06593E-05-2.72123E-05-2.71937E-05-6.69329E-08 1.80181E-21 5.37061E-18
 -1        78 9.21336E-05-2.76471E-05-2.76385E-05-6.13046E-08 1.94373E-20 4.56186E-18
 -1        79 9.37965E-05-2.81411E-05-2.81369E-05-6.02833E-08 3.74634E-20 3.34518E-18
 -1        80 9.55287E-05-2.86571E-05-2.86532E-05-6.27195E-08-1.68762E-20 2.45195E-18
 -1        81 9.72067E-05-2.91575E-05-2.91497E-05-6.71566E-08 2.95125E-20 2.27237E-18
 -1        82 9.86753E-05-2.95962E-05-2.95788E-05-7.09547E-08-1.28853E-19 2.07721E-18
 -1        83 9.97323E-05-2.99129E-05-2.98797E-05-6.96586E-08 3.15791E-20 1.32766E-18
 -1        84 1.00128E-04-3.00339E-05-2.99792E-05-5.69223E-08-2.10834E-19 1.08155E-18
 -1        85 9.95977E-05-2.98798E-05-2.98017E-05-2.56756E-08 1.44681E-19 1.26050E-18
 -1        86 9.79250E-05-2.93857E-05-2.92910E-05 2.86754E-08-7.51121E-21 9.74816E-20
 -1        87 9.50557E-05-2.85331E-05-2.84409E-05 1.03063E-07-1.15310E-19-3.41348E-19
 -1        88 9.12157E-05-2.73863E-05-2.73265E-05 1.81899E-07-9.47693E-20 7.13837E-19
 -1        89 8.69825E-05-2.61147E-05-2.61191E-05 2.37465E-07 7.06660E-20 1.41613E-20
 -1        90 8.32253E-05-2.49779E-05-2.50629E-05 2.40125E-07-8.47901E-21-1.39265E-18
 -1        91 8.08737E-05-2.42580E-05-2.44102E-05 1.75913E-07-3.26859E-19-6.25481E-19
 -1        92 8.05802E-05-2.41573E-05-2.43338E-05 5.97247E-08-1.02793E-19 2.52159E-19
 -1        93 8.24461E-05-2.47117E-05-2.48589E-05-6.90580E-08-1.52873E-19-1.47138E-18
 -1        94 8.59791E-05-2.57745E-05-2.58539E-05-1.67789E-07 2.49345E-19-2.79849E-18
 -1        95 9.03096E-05-2.70813E-05-2.70848E-05-2.12224E-07-2.47776E-19-2.84954E-18
 -1        96 9.45298E-05-2.83553E-05-2.83012E-05-2.03652E-07 3.33963E-19-2.70729E-18
 -1        97 9.79704E-05-2.93928E-05-2.93110E-05-1.60600E-07-2.62840E-19-2.87484E-18
 -1        98 1.00313E-04-3.00977E-05-3.00151E-05-1.05276E-07-4.80407E-19-2.66890E-18
 -1        99 1.01550E-04-3.04686E-05-3.04015E-05-5.41951E-08 1.51853E-19-2.87276E-18
 -1       100 1.01869E-04-3.05634E-05-3.05176E-05-1.54956E-08-3.11214E-19-2.34697E-18
 -1       101 1.01537E-04-3.04629E-05-3.04369E-05 9.31546E-09 1.27728E-19-2.20726E-18
 -1       102 1.00815E-04-3.02455E-05-3.02348E-05 2.23751E-08-1.53172E-19-3.90241E-18
 -1       103 9.99145E-05-2.99749E-05-2.99743E-05 2.70389E-08-5.15615E-21-3.95653E-18
 -1       104 9.89851E-05-2.96960E-05-2.97010E-05 2.64943E-08 4.00149E-19-3.27842E-18
 -1       105 9.81207E-05-2.94367E-05-2.94443E-05 2.32069E-08 3.39992E-19-2.81614E-18
 -1       106 9.73703E-05-2.92117E-05-2.92197E-05 1.88456E-08-4.16886E-19-2.10102E-18
 -1       107 9.67517E-05-2.90262E-05-2.90336E-05 1.44169E-08-5.50380E-20-2.70458E-18
 -1       108 9.62634E-05-2.88797E-05-2.88860E-05 1.04495E-08 2.29931E-19-3.56313E-18
 -1       109 9.58925E-05-2.87684E-05-2.87734E-05 7.16105E-09-8.15043E-20-3.01095E-18
 -1       110 9.56214E-05-2.86870E-05-2.86909E-05 4.58545E-09-1.51938E-20-4.66699E-18
 -1       111 9.54316E-05-2.86300E-05-2.86328E-05 2.65910E-09 3.10783E-19-5.97341E-18
 -1       112 9.53055E-05-2.85921E-05-2.85941E-05 1.27597E-09-8.60647E-19-4.68573E-18
 -1       113 9.52279E-05-2.85687E-05-2.85701E-05 3.19499E-10 2.93898E-19-5.65327E-19
 -1       114 9.51859E-05-2.85561E-05-2.85569E-05-3.20459E-10-2.61169E-19-4.61435E-18
 -1       115 9.51694E-05-2.85510E-05-2.85516E-05-7.40564E-10 1.88321E-19-6.25754E-18
 -1       116 9.51704E-05-2.85513E-05-2.85516E-05-1.02369E-09 7.06269E-19-6.95522E-18
 -1       117 9.51827E-05-2.85549E-05-2.85550E-05-1.23960E-09-3.54033E-19-7.11923E-18
 -1       118 9.52010E-05-2.85603E-05-2.85602E-05-1.43110E-09-1.02129E-18-7.70504E-19
 -1       119 9.52202E-05-2.85661E-05-2.85656E-05-1.56645E-09 3.23656E-19 1.09711E-18
 -1       120 9.52343E-05-2.85707E-05-2.85696E-05-1.10602E-09 1.37674E-18-3.18848E-18
 -1       121 9.52381E-05-2.85747E-05-2.85696E-05-1.07422E-09-3.41739E-18-3.89597E-19
 -1       122 9.52423E-05-2.85881E-05-2.85658E-05-1.38532E-09-7.31937E-19-5.43170E-20
 -1       123 9.52472E-05-2.86046E-05-2.85613E-05-1.22633E-09-6.22980E-18 7.42126E-19
 -1       124 9.52515E-05-2.86191E-05-2.85571E-05-8.57787E-10-6.81988E-18 3.58299E-19
 -1       125 9.52547E-05-2.86298E-05-2.85538E-05-5.20922E-10-3.19016E-18-2.32251E-19
 -1       126 9.52568E-05-2.86367E-05-2.85517E-05-2.97806E-10-7.80919E-18 5.04776E-20
 -1       127 9.52581E-05-2.86410E-05-2.85503E-05-1.61560E-10-4.28699E-18-1.26872E-19
 -1       128 9.52588E-05-2.86435E-05-2.85495E-05-9.01925E-11-4.12850E-18 4.75783E-19
 -1       129 9.52592E-05-2.86446E-05-2.85492E-05-3.34174E-11-1.66436E-18 6.09350E-19
 -1       130 9.52590E-05-2.86441E-05-2.85494E-05 6.50245E-11 3.41267E-18-1.14300E-18
 -1       131 9.52581E-05-2.86412E-05-2.85504E-05 2.61531E-10 2.42767E-18-5.57591E-19
 -1       132 9.52562E-05-2.86346E-05-2.85525E-05 5.48538E-10-2.27897E-18 2.38515E-18
 -1       133 9.52528E-05-2.86232E-05-2.85559E-05 9.50435E-10-1.57297E-18 7.53218E-19
 -1       134 9.52480E-05-2.86073E-05-2.85605E-05 1.35106E-09-3.53770E-18-2.47638E-19
 -1       135 9.52425E-05-2.85892E-05-2.85654E-05 1.41346E-09 3.40365E-18 2.60635E-18
 -1       136 9.52378E-05-2.85744E-05-2.85694E-05 1.55610E-10 9.70176E-18-4.47257E-19
 -1       137 2.65899E-05-8.84856E-05 1.58638E-05-2.23697E-05 5.70752E-18 1.52956E-18
 -1       138 8.57658E-06-3.52974E-05 3.68008E-06-1.78692E-05 8.40553E-18 3.53128E-18
 -1       139 9.15117E-06 1.43716E-05-1.38024E-05 2.05260E-05 1.23489E-17 9.66338E-18
 -1       140 4.95123E-05 3.14264E-05-3.37102E-05 7.49326E-05 1.37626E-17 1.47409E-17
 -1       141 1.30327E-04 6.78136E-06-5.31256E-05 1.13642E-04 8.82905E-18 1.24819E-17
 -1       142 2.24763E-04-4.26141E-05-6.86658E-05 1.09222E-04 3.09368E-18 8.80067E-18
 -1       143 2.96121E-04-8.60474E-05-7.82304E-05 5.61637E-05 3.74159E-19-3.48131E-19
 -1       144 3.10069E-04-9.49705E-05-7.99255E-05-2.54091E-05 9.67523E-19-9.55368E-18
 -1       145 2.56100E-04-6.07814E-05-7.31765E-05-9.44646E-05 4.94831E-18-1.58495E-17
 -1       146 1.56842E-04-6.42783E-06-5.77228E-05-1.14969E-04 1.10290E-17-1.93047E-17
 -1       147 6.54156E-05 2.82349E-05-3.81036E-05-8.53406E-05 1.63647E-17-1.90273E-17
 -1       148 1.37951E-05 2.07471E-05-1.76552E-05-3.10003E-05 1.84145E-17-1.41844E-17
 -1       149 6.56374E-06-2.35836E-05 2.45666E-07 1.19469E-05 1.50213E-17-7.52991E-18
 -1       150 2.32152E-05-8.08487E-05 1.43391E-05 2.43702E-05 9.06791E-18-2.82475E-18
 -1       151 3.78144E-05-1.15292E-04 2.11447E-05 5.00660E-06-1.66887E-18-4.05199E-19
 -1       152 3.34300E-05-1.07897E-04 1.98443E-05-2.28517E-05-7.56803E-18-1.16409E-18
 -1       153 1.33267E-05-6.19146E-05 1.05133E-05-3.09928E-05-1.30867E-17-5.91049E-18
 -1       154 7.81861E-06-3.58107E-06-8.27080E-06 3.96460E-06-1.60157E-17-1.05413E-17
 -1       155 1.22672E-04 7.53330E-06-5.12876E-05 1.08195E-04-1.09975E-17-1.67484E-17
 -1       156 2.33036E-04-4.40924E-05-7.03895E-05 1.14233E-04-5.31005E-18-1.50429E-17
 -1       157 3.23040E-04-9.49710E-05-8.27767E-05 6.03173E-05-1.59483E-18-5.27934E-18
 -1       158 3.38028E-04-1.03376E-04-8.48442E-05-2.81840E-05-2.21790E-19 2.98177E-18
 -1       159 2.67022E-04-6.27684E-05-7.52493E-05-9.95523E-05-2.42516E-18 8.82185E-18
 -1       160 1.46960E-04-2.83506E-06-5.59074E-05-1.13543E-04-8.51353E-18 1.40730E-17
 -1       161 5.11120E-05 2.48052E-05-3.31021E-05-6.91126E-05-1.33992E-17 1.46405E-17
 -1       162 7.68626E-06 4.16730E-06-1.09970E-05-9.46911E-06-1.18013E-17 8.49574E-18
 -1       163 9.85770E-06-4.88437E-05 6.93566E-06 2.75539E-05-7.27898E-18 4.10663E-18
 -1       164 2.94960E-05-1.00280E-04 1.84374E-05 2.73622E-05-2.58853E-18 5.42948E-19
 -1       165 9.50954E-05-1.24966E-05-3.55973E-05-2.17595E-05-2.05849E-18 1.42691E-18
 -1       166 8.95651E-05-8.55633E-06-3.48762E-05-1.67218E-05-1.94956E-18-8.67428E-19
 -1       167 8.67807E-05-6.49518E-06-3.45178E-05-1.28863E-05-1.64872E-18-2.26236E-18
 -1       168 8.52818E-05-5.39761E-06-3.43181E-05-9.70193E-06-1.29233E-18-3.02893E-18
 -1       169 8.43565E-05-4.71437E-06-3.41990E-05-6.98649E-06-8.85720E-19-3.35941E-18
 -1       170 8.37732E-05-4.28598E-06-3.41247E-05-4.51044E-06-5.55683E-19-3.55978E-18
 -1       171 8.34534E-05-4.05382E-06-3.40833E-05-2.20822E-06-1.97107E-19-3.57635E-18
 -1       172 8.33591E-05-3.99068E-06-3.40689E-05 1.59734E-08 2.00573E-19-3.60418E-18
 -1       173 8.34777E-05-4.08653E-06-3.40800E-05 2.25074E-06 4.74597E-19-3.58372E-18
 -1       174 8.38154E-05-4.34628E-06-3.41175E-05 4.58226E-06 7.60406E-19-3.46971E-18
 -1       175 8.43945E-05-4.78569E-06-3.41855E-05 7.05690E-06 1.09652E-18-3.15113E-18
 -1       176 8.53305E-05-5.48729E-06-3.43016E-05 9.86507E-06 1.54421E-18-2.60253E-18
 -1       177 8.68651E-05-6.62266E-06-3.45030E-05 1.31104E-05 1.89221E-18-1.84701E-18
 -1       178 8.96701E-05-8.69523E-06-3.48672E-05 1.69986E-05 2.10118E-18-2.48207E-19
 -1       179 9.59796E-05-1.37417E-05-3.54532E-05 2.13460E-05 2.03402E-18 2.48501E-18
 -1       180 1.05603E-04-2.61507E-05-3.52331E-05 1.82595E-05 1.53053E-18 6.10690E-18
 -1       181 1.03531E-04-2.73727E-05-3.26362E-05-1.16932E-05-1.68202E-18 4.05443E-18
 -1       182 9.75459E-05-2.84179E-05-2.96594E-05-4.29434E-06-1.47045E-18 3.10936E-18
 -1       183 9.43204E-05-2.78537E-05-2.84356E-05-1.26296E-06-1.05078E-18 2.42396E-18
 -1       184 9.32621E-05-2.77437E-05-2.80411E-05 2.37065E-07-7.17973E-19 1.56768E-18
 -1       185 9.33184E-05-2.78337E-05-2.80426E-05 1.13991E-06-4.21918E-19 1.28258E-18
 -1       186 9.41282E-05-2.80971E-05-2.82851E-05 1.80833E-06-4.98873E-19 1.19030E-18
 -1       187 9.55230E-05-2.85047E-05-2.87111E-05 2.42195E-06-4.57351E-19 8.14834E-19
 -1       188 9.74562E-05-2.90489E-05-2.93068E-05 3.09763E-06-4.54706E-19 7.61586E-19
 -1       189 9.99613E-05-2.97427E-05-3.00828E-05 3.92505E-06-4.83275E-19 5.83695E-19
 -1       190 1.03124E-04-3.06176E-05-3.10638E-05 4.97101E-06-5.26586E-19 7.71397E-19
 -1       191 1.07057E-04-3.17239E-05-3.22782E-05 6.25715E-06-3.14264E-19 1.36868E-19
 -1       192 1.11856E-04-3.31326E-05-3.37381E-05 7.69230E-06-1.36488E-19-7.26306E-19
 -1       193 1.17814E-04-3.50495E-05-3.54821E-05 8.99003E-06 1.73671E-20-1.46196E-19
 -1       194 1.24100E-04-3.73996E-05-3.71819E-05 9.21122E-06 3.83627E-19 5.11601E-19
 -1       195 1.30293E-04-4.02717E-05-3.86058E-05 6.99525E-06 9.66911E-19 1.35557E-18
 -1       196 1.34985E-04-4.31814E-05-3.93532E-05 6.95269E-07 2.55460E-19 2.30560E-18
 -1       197 1.35976E-04-4.44819E-05-3.92218E-05-9.76372E-06 5.68889E-19 3.19450E-18
 -1       198 1.31042E-04-4.13200E-05-3.85827E-05-1.95265E-05-5.17024E-19 2.67220E-18
 -1       199 1.21602E-04-3.34214E-05-3.81379E-05-1.84392E-05-1.50475E-18 5.56223E-19
 -1       200 1.15696E-04-2.80497E-05-3.80237E-05-4.24001E-06-2.72602E-18-7.85014E-19
 -1       201 1.17935E-04-3.00913E-05-3.80619E-05 1.32003E-05-2.61797E-18-2.39471E-18
 -1       202 1.27429E-04-3.83029E-05-3.84115E-05 2.11853E-05-1.02791E-18-3.57628E-18
 -1       203 1.35299E-04-4.40949E-05-3.91251E-05 1.43109E-05 2.95257E-19-4.14269E-18
 -1       204 1.36453E-04-4.41547E-05-3.95549E-05 3.13490E-06 1.55622E-18-3.44801E-18
 -1       205 1.33054E-04-4.16347E-05-3.91975E-05-4.92392E-06 3.45589E-19-2.34981E-18
 -1       206 1.27408E-04-3.86893E-05-3.80493E-05-8.47969E-06 5.77190E-20-1.14553E-18
 -1       207 1.21272E-04-3.61913E-05-3.64801E-05-8.91824E-06-8.19250E-20-1.31516E-18
 -1       208 1.15585E-04-3.42530E-05-3.48601E-05-7.86409E-06 1.53690E-19-1.57667E-18
 -1       209 1.10745E-04-3.27820E-05-3.34068E-05-6.35605E-06-1.09057E-18-1.59516E-18
 -1       210 1.06834E-04-3.16712E-05-3.22025E-05-4.89644E-06-2.38784E-19-4.33538E-19
 -1       211 1.03779E-04-3.08348E-05-3.12509E-05-3.66836E-06 6.68941E-19-6.85194E-19
 -1       212 1.01444E-04-3.02075E-05-3.05205E-05-2.70192E-06 2.40731E-18 1.87570E-19
 -1       213 9.96891E-05-2.97396E-05-2.99704E-05-1.96750E-06-5.65841E-20-2.84407E-19
 -1       214 9.83850E-05-2.93932E-05-2.95616E-05-1.41977E-06 3.43775E-19 1.21874E-18
 -1       215 9.74246E-05-2.91382E-05-2.92609E-05-1.01582E-06 3.73683E-19 1.84870E-18
 -1       216 9.66977E-05-2.89457E-05-2.90329E-05-7.06880E-07-2.68168E-18 4.97278E-19
 -1       217 9.62046E-05-2.88155E-05-2.88784E-05-4.93064E-07-7.43126E-19-8.31232E-19
 -1       218 9.58543E-05-2.87233E-05-2.87685E-05-3.38005E-07-8.22479E-19-1.29596E-18
 -1       219 9.56105E-05-2.86595E-05-2.86918E-05-2.25739E-07-4.77095E-19-4.65530E-19
 -1       220 9.54448E-05-2.86167E-05-2.86396E-05-1.45062E-07 2.50484E-19 7.01998E-19
 -1       221 9.53361E-05-2.85891E-05-2.86051E-05-8.76241E-08 1.53117E-18-1.18007E-18
 -1       222 9.52685E-05-2.85724E-05-2.85835E-05-4.72464E-08-1.97315E-19-2.88255E-18
 -1       223 9.52301E-05-2.85635E-05-2.85710E-05-1.93753E-08 1.43770E-19-2.46935E-18
 -1       224 9.52120E-05-2.85600E-05-2.85649E-05-7.02681E-10 9.12052E-19-7.33999E-19
 -1       225 9.52075E-05-2.85602E-05-2.85630E-05 1.10792E-08 4.15531E-20 4.61565E-19
 -1       226 9.52115E-05-2.85626E-05-2.85637E-05 1.73929E-08 3.94991E-19 1.73386E-19
 -1       227 9.52198E-05-2.85664E-05-2.85657E-05 1.87542E-08-1.17537E-18-5.37713E-19
 -1       228 9.52291E-05-2.85709E-05-2.85677E-05 1.47376E-08-2.68428E-18-2.15014E-19
 -1       229 9.52354E-05-2.85747E-05-2.85688E-05 8.52419E-09-8.84406E-19 2.47507E-19
 -1       230 9.97419E-05-2.86338E-05-3.06516E-05 6.86913E-06 1.49028E-18 5.27146E-18
 -1       231 9.49857E-05-2.79441E-05-2.86955E-05 2.42427E-06 1.09777E-18 4.28742E-18
 -1       232 9.30335E-05-2.76767E-05-2.79621E-05 5.30985E-07 6.48328E-19 3.46403E-18
 -1       233 9.24959E-05-2.76441E-05-2.77674E-05-4.28717E-07 6.44819E-19 2.80395E-18
 -1       234 9.27699E-05-2.77711E-05-2.78438E-05-9.53626E-07 5.28681E-19 2.31116E-18
 -1       235 9.35369E-05-2.80267E-05-2.80697E-05-1.25605E-06 5.66619E-19 1.72184E-18
 -1       236 9.45939E-05-2.83637E-05-2.83816E-05-1.41776E-06 5.09281E-19 1.30533E-18
 -1       237 9.57968E-05-2.87455E-05-2.87356E-05-1.46364E-06 3.82745E-19 9.50455E-19
 -1       238 9.70201E-05-2.91393E-05-2.90924E-05-1.38655E-06 2.18889E-20 8.49301E-19
 -1       239 9.81311E-05-2.95086E-05-2.94112E-05-1.15835E-06 2.22689E-19 8.21969E-19
 -1       240 9.89760E-05-2.98080E-05-2.96454E-05-7.41258E-07 3.97544E-19 7.82571E-19
 -1       241 9.93782E-05-2.99804E-05-2.97437E-05-1.05502E-07 2.33997E-19 3.24923E-19
 -1       242 9.91561E-05-2.99596E-05-2.96565E-05 7.43599E-07-9.52333E-20-5.35972E-21
 -1       243 9.81648E-05-2.96820E-05-2.93495E-05 1.73201E-06 2.06365E-19 6.87849E-19
 -1       244 9.63624E-05-2.91103E-05-2.88212E-05 2.68994E-06 2.69189E-20 1.04528E-18
 -1       245 9.38856E-05-2.82673E-05-2.81212E-05 3.35700E-06-6.39031E-19 5.35606E-19
 -1       246 9.10992E-05-2.72678E-05-2.73568E-05 3.44673E-06 2.77886E-19 7.22655E-19
 -1       247 8.85670E-05-2.63218E-05-2.66788E-05 2.77195E-06 7.34675E-19 7.75995E-19
 -1       248 8.69110E-05-2.56835E-05-2.62433E-05 1.37827E-06-1.12639E-19 7.01838E-20
 -1       249 8.65916E-05-2.55518E-05-2.61613E-05-4.10770E-07 3.44438E-21-6.20360E-19
 -1       250 8.77148E-05-2.59745E-05-2.64583E-05-2.10179E-06 5.64210E-19-6.28110E-19
 -1       251 8.99869E-05-2.68238E-05-2.70650E-05-3.24790E-06 6.98714E-19-6.70936E-19
 -1       252 9.28465E-05-2.78624E-05-2.78443E-05-3.63379E-06 2.24609E-19-1.42367E-18
 -1       253 9.56872E-05-2.88503E-05-2.86398E-05-3.32002E-06 8.33153E-20-1.94751E-18
 -1       254 9.80453E-05-2.96237E-05-2.93217E-05-2.55048E-06 3.75375E-21-2.25955E-18
 -1       255 9.96821E-05-3.01184E-05-2.98142E-05-1.61232E-06-6.64299E-19-2.02005E-18
 -1       256 1.00566E-04-3.03476E-05-3.00966E-05-7.32009E-07 5.86322E-20-1.55598E-18
 -1       257 1.00802E-04-3.03671E-05-3.01905E-05-3.67622E-08-7.11628E-19-1.29610E-18
 -1       258 1.00561E-04-3.02441E-05-3.01395E-05 4.34633E-07-1.23443E-19-1.69135E-18
 -1       259 1.00017E-04-3.00400E-05-2.99930E-05 7.00553E-07 4.88631E-19-9.97225E-19
 -1       260 9.93205E-05-2.98021E-05-2.97955E-05 8.05902E-07 9.07970E-20-1.10829E-18
 -1       261 9.85839E-05-2.95631E-05-2.95813E-05 8.00821E-07-4.19199E-19-1.36792E-18
 -1       262 9.78815E-05-2.93430E-05-2.93739E-05 7.29289E-07-7.66240E-19 1.70976E-19
 -1       263 9.72561E-05-2.91520E-05-2.91872E-05 6.24882E-07-3.78741E-19 2.70491E-19
 -1       264 9.67271E-05-2.89936E-05-2.90281E-05 5.10652E-07 1.12167E-18-1.60129E-19
 -1       265 9.62977E-05-2.88672E-05-2.88981E-05 4.00850E-07 5.95131E-19-1.07396E-18
 -1       266 9.59617E-05-2.87697E-05-2.87958E-05 3.03171E-07 6.43650E-21-2.57848E-18
 -1       267 9.57075E-05-2.86970E-05-2.87181E-05 2.20824E-07 5.18181E-19-2.81303E-18
 -1       268 9.55221E-05-2.86447E-05-2.86611E-05 1.54208E-07 3.11417E-19-2.01204E-18
 -1       269 9.53920E-05-2.86085E-05-2.86210E-05 1.02128E-07-1.08014E-18-1.21182E-18
 -1       270 9.53054E-05-2.85849E-05-2.85941E-05 6.26377E-08 6.59025E-20-3.90271E-18
 -1       271 9.52516E-05-2.85707E-05-2.85772E-05 3.35720E-08 8.45761E-19-3.43389E-18
 -1       272 9.52222E-05-2.85634E-05-2.85678E-05 1.28766E-08 5.54761E-19-3.26027E-18
 -1       273 9.52099E-05-2.85609E-05-2.85637E-05-1.20502E-09 5.97898E-19-3.07092E-18
 -1       274 9.52092E-05-2.85616E-05-2.85632E-05-1.00064E-08-1.45946E-18-1.16113E-18
 -1       275 9.52154E-05-2.85643E-05-2.85647E-05-1.43000E-08-2.59900E-18-1.50145E-18
 -1       276 9.52245E-05-2.85681E-05-2.85669E-05-1.41839E-08 8.33774E-20-1.38971E-18
 -1       277 9.52332E-05-2.85722E-05-2.85689E-05-9.20793E-09 1.14431E-18-1.35812E-18
 -1       278 9.52377E-05-2.85785E-05-2.85682E-05-1.29064E-08 6.31599E-19 2.25062E-18
 -1       279 9.52420E-05-2.85867E-05-2.85666E-05-1.48165E-08-7.28624E-20-4.22445E-18
 -1       280 9.52451E-05-2.85943E-05-2.85646E-05-1.30310E-08-1.86871E-18 4.14534E-19
 -1       281 9.52469E-05-2.85999E-05-2.85630E-05-9.54011E-09-3.17560E-18 2.26707E-18
 -1       282 9.52478E-05-2.86036E-05-2.85618E-05-6.24793E-09-3.25191E-18-2.70207E-18
 -1       283 9.52481E-05-2.86059E-05-2.85610E-05-3.77058E-09-2.10765E-18 1.71217E-18
 -1       284 9.52483E-05-2.86072E-05-2.85605E-05-2.20416E-09-1.88407E-18-7.34735E-19
 -1       285 9.52485E-05-2.86081E-05-2.85602E-05-1.10306E-09-2.57499E-20 2.78708E-18
 -1       286 9.52489E-05-2.86086E-05-2.85601E-05 2.26003E-10 5.23720E-19 2.07727E-18
 -1       287 9.52492E-05-2.86085E-05-2.85603E-05 2.43810E-09-3.56372E-19-1.62110E-18
 -1       288 9.52491E-05-2.86069E-05-2.85609E-05 5.78843E-09 1.36257E-18-7.69327E-19
 -1       289 9.52481E-05-2.86032E-05-2.85621E-05 1.01266E-08 2.98386E-18-5.45244E-19
 -1       290 9.52460E-05-2.85970E-05-2.85639E-05 1.43872E-08-2.94660E-19-8.24827E-19
 -1       291 9.52426E-05-2.85885E-05-2.85660E-05 1.65483E-08-1.75388E-18 3.33016E-18
 -1       292 9.52392E-05-2.85817E-05-2.85675E-05 1.44271E-08-2.26916E-18 1.15248E-18
 -1       293 1.30577E-05-4.84359E-05 1.19857E-05 1.19882E-05 1.12867E-19 2.10128E-18
 -1       294 2.63118E-05-4.39212E-05 4.74685E-06 2.32018E-05 1.07086E-18 2.12526E-18
 -1       295 5.01676E-05-3.52547E-05-8.14991E-06 3.60080E-05 2.08984E-18 4.59669E-18
 -1       296 8.49471E-05-2.89236E-05-2.44514E-05 4.65796E-05 3.55479E-18 5.74013E-18
 -1       297 1.26901E-04-2.73089E-05-4.16646E-05 5.10558E-05 5.56988E-18 3.39533E-18
 -1       298 1.68221E-04-3.00955E-05-5.69072E-05 4.54332E-05 4.87512E-18 2.18894E-18
 -1       299 2.00609E-04-3.46108E-05-6.79178E-05 2.96566E-05 4.78023E-18-1.34297E-18
 -1       300 2.11834E-04-3.48980E-05-7.24553E-05 4.58714E-06 3.89582E-18-3.49986E-18
 -1       301 2.08323E-04-3.55869E-05-7.06325E-05-2.03766E-05 4.40362E-18-5.58819E-18
 -1       302 1.74249E-04-3.16397E-05-5.94671E-05-2.83930E-05 5.65201E-18-6.37583E-18
 -1       303 1.39596E-04-3.16133E-05-4.52004E-05-4.56740E-05 6.48510E-18-7.53965E-18
 -1       304 9.36715E-05-2.85627E-05-2.80436E-05-4.81102E-05 6.75953E-18-8.27445E-18
 -1       305 5.71513E-05-3.41861E-05-1.13487E-05-3.84221E-05 5.63467E-18-6.94376E-18
 -1       306 3.12738E-05-4.23909E-05 2.32794E-06-2.73825E-05 3.54737E-18-5.41895E-18
 -1       307 1.46040E-05-4.81664E-05 1.12669E-05-1.37941E-05 9.52806E-19-5.51101E-18
 -1       308 1.17834E-05-5.29576E-05 1.39474E-05-6.86736E-07-1.52061E-18-2.85778E-18
 -1       309 2.00611E-05-4.96376E-05 9.25536E-06 1.21985E-05-3.35806E-18-4.37090E-18
 -1       310 5.18726E-05-4.54879E-05-4.42987E-06 3.32906E-05-3.04297E-18-4.18477E-18
 -1       311 8.34441E-05-3.91970E-05-2.02680E-05 3.87223E-05-5.72806E-18-6.07534E-18
 -1       312 1.29307E-04-3.78168E-05-3.88619E-05 4.38996E-05-5.82314E-18-6.85271E-18
 -1       313 1.78073E-04-3.99414E-05-5.68639E-05 3.87679E-05-5.51503E-18-6.45270E-18
 -1       314 2.15457E-04-4.16756E-05-7.03926E-05 2.40661E-05-5.87142E-18-2.16629E-18
 -1       315 2.31297E-04-4.19399E-05-7.64351E-05 4.51592E-06-3.91414E-18 1.07539E-18
 -1       316 2.08014E-04-3.49560E-05-7.12336E-05-8.51469E-06-3.54917E-18 2.77943E-18
 -1       317 1.88995E-04-4.14525E-05-6.07442E-05-3.07363E-05-4.64154E-18 4.31203E-18
 -1       318 1.40810E-04-3.88729E-05-4.28933E-05-4.32192E-05-4.49393E-18 3.93891E-18
 -1       319 9.00721E-05-3.81226E-05-2.33553E-05-4.00695E-05-3.51053E-18 5.90848E-18
 -1       320 4.96996E-05-4.20225E-05-5.81761E-06-2.83724E-05-2.70966E-18 4.15644E-18
 -1       321 2.42478E-05-4.73748E-05 6.77689E-06-1.63923E-05-1.92044E-18 4.20520E-18
 -1       322 1.22952E-05-5.22557E-05 1.34954E-05-1.42282E-06-2.74703E-19 2.07576E-18
 -1       323 9.19472E-05-1.43839E-05-3.33040E-05-1.22449E-05-2.04904E-18-9.42132E-19
 -1       324 9.60684E-05-1.92129E-05-3.29994E-05-1.39101E-05-2.20910E-18 4.52792E-19
 -1       325 8.78577E-05-9.98109E-06-3.34294E-05-7.43479E-06-1.31650E-18-2.40056E-18
 -1       326 8.68164E-05-8.89735E-06-3.34400E-05-5.16260E-06-8.83981E-19-2.71064E-18
 -1       327 8.61852E-05-8.25452E-06-3.34410E-05-3.03840E-06-3.73951E-19-2.73698E-18
 -1       328 8.58998E-05-7.97162E-06-3.34383E-05-1.00021E-06 8.40241E-20-2.72861E-18
 -1       329 8.59283E-05-8.00899E-06-3.34346E-05 1.01991E-06 3.73210E-19-2.75807E-18
 -1       330 8.62639E-05-8.36053E-06-3.34297E-05 3.08697E-06 7.44279E-19-2.67102E-18
 -1       331 8.69139E-05-9.04031E-06-3.34211E-05 5.22197E-06 1.15566E-18-2.52196E-18
 -1       332 8.79710E-05-1.01582E-05-3.34025E-05 7.53952E-06 1.58422E-18-2.04031E-18
 -1       333 8.95972E-05-1.19101E-05-3.33611E-05 9.99870E-06 1.97611E-18-1.51847E-18
 -1       334 9.21701E-05-1.47617E-05-3.32567E-05 1.23947E-05 2.25054E-18-5.83712E-19
 -1       335 9.62186E-05-1.96963E-05-3.28981E-05 1.36293E-05 2.28681E-18 1.23757E-18
 -1       336 9.90848E-05-2.45632E-05-3.20212E-05 1.13179E-05 1.96890E-18 2.91475E-18
 -1       337 9.68552E-05-2.69125E-05-2.99469E-05 5.15912E-06 1.55142E-18 2.34173E-18
 -1       338 9.70289E-05-2.61160E-05-3.03454E-05-5.52069E-06-1.63040E-18 5.81939E-19
 -1       339 9.57987E-05-2.71227E-05-2.94054E-05-1.78339E-06-1.25334E-18 5.28695E-19
 -1       340 9.52058E-05-2.75452E-05-2.89801E-05 4.76093E-07-7.99552E-19 2.95050E-19
 -1       341 9.51900E-05-2.77997E-05-2.88710E-05 2.02953E-06-5.43345E-19-1.17800E-19
 -1       342 9.56510E-05-2.80101E-05-2.89810E-05 3.27134E-06-5.91533E-19 6.05087E-20
 -1       343 9.65075E-05-2.82144E-05-2.92605E-05 4.44608E-06-4.13707E-19 1.47227E-19
 -1       344 9.77138E-05-2.84280E-05-2.96849E-05 5.72497E-06-3.37769E-19 3.70224E-19
 -1       345 9.92573E-05-2.86712E-05-3.02407E-05 7.23313E-06-4.13892E-19 2.32479E-19
 -1       346 1.01156E-04-2.89942E-05-3.09155E-05 9.04378E-06-7.48436E-19 3.36228E-19
 -1       347 1.03475E-04-2.95177E-05-3.16864E-05 1.11324E-05-6.01132E-19 1.32833E-19
 -1       348 1.06519E-04-3.05856E-05-3.25394E-05 1.33860E-05 2.72957E-19 1.59103E-19
 -1       349 1.10334E-04-3.26424E-05-3.33066E-05 1.49850E-05 8.24933E-19 5.25547E-19
 -1       350 1.15677E-04-3.65393E-05-3.39411E-05 1.48317E-05 9.84833E-19 1.21718E-18
 -1       351 1.23331E-04-4.29343E-05-3.44893E-05 1.09668E-05 1.86414E-18 1.39222E-18
 -1       352 1.33251E-04-5.06419E-05-3.54526E-05 1.30118E-06 1.07488E-18 3.13595E-18
 -1       353 1.42067E-04-5.37198E-05-3.80432E-05-1.35515E-05-4.55261E-19 3.84973E-18
 -1       354 1.43492E-04-4.32473E-05-4.34064E-05-2.43913E-05-2.38601E-18 3.31015E-18
 -1       355 1.38600E-04-2.63525E-05-4.86769E-05-1.69954E-05-3.36177E-18 2.28691E-18
 -1       356 1.36266E-04-2.01615E-05-5.03921E-05 5.34521E-06-4.00318E-18 7.13235E-19
 -1       357 1.41534E-04-3.52058E-05-4.60833E-05 2.43152E-05-2.01964E-18 5.75559E-19
 -1       358 1.44106E-04-5.16134E-05-3.99620E-05 1.98067E-05-1.40110E-18-3.66024E-19
 -1       359 1.37331E-04-5.29418E-05-3.62267E-05 4.31260E-06 1.78811E-18 3.27411E-19
 -1       360 1.27292E-04-4.59889E-05-3.48678E-05-7.71261E-06 1.61391E-18-1.42043E-19
 -1       361 1.18785E-04-3.87534E-05-3.43274E-05-1.35025E-05 6.87104E-19 9.35408E-19
 -1       362 1.12810E-04-3.39727E-05-3.38010E-05-1.46741E-05-1.03788E-19 1.41952E-19
 -1       363 1.08681E-04-3.13699E-05-3.31328E-05-1.34370E-05 1.62612E-19-2.12156E-19
 -1       364 1.05674E-04-3.00853E-05-3.23866E-05-1.12751E-05-2.96638E-19 1.66977E-19
 -1       365 1.03359E-04-2.94718E-05-3.16544E-05-8.99461E-06-1.82372E-19-2.82759E-19
 -1       366 1.01519E-04-2.91666E-05-3.09968E-05-6.95532E-06 9.47377E-19-6.29311E-19
 -1       367 1.00043E-04-2.89950E-05-3.04396E-05-5.27101E-06 1.89275E-18-1.08001E-18
 -1       368 9.88665E-05-2.88817E-05-2.99858E-05-3.93920E-06 2.95700E-19-1.79535E-18
 -1       369 9.79382E-05-2.87971E-05-2.96260E-05-2.91242E-06 3.43220E-19-1.27289E-18
 -1       370 9.72145E-05-2.87298E-05-2.93462E-05-2.13251E-06 1.14422E-18-1.39499E-18
 -1       371 9.66365E-05-2.86751E-05-2.91231E-05-1.52156E-06-1.78917E-18-2.87114E-19
 -1       372 9.62237E-05-2.86349E-05-2.89643E-05-1.09002E-06-2.21355E-18 1.44089E-18
 -1       373 9.59159E-05-2.86048E-05-2.88459E-05-7.69737E-07-6.51511E-19 1.66617E-18
 -1       374 9.56904E-05-2.85835E-05-2.87589E-05-5.33335E-07-5.73698E-19 9.93543E-19
 -1       375 9.55286E-05-2.85692E-05-2.86960E-05-3.60054E-07-1.47138E-18 8.35646E-19
 -1       376 9.54151E-05-2.85606E-05-2.86513E-05-2.34107E-07-1.90017E-19-1.41595E-18
 -1       377 9.53379E-05-2.85562E-05-2.86203E-05-1.43552E-07 5.33085E-19-1.98602E-18
 -1       378 9.52877E-05-2.85549E-05-2.85994E-05-7.93880E-08 1.17895E-18 6.47458E-20
 -1       379 9.52569E-05-2.85559E-05-2.85859E-05-3.48996E-08 1.64425E-18 6.49289E-19
 -1       380 9.52400E-05-2.85585E-05-2.85776E-05-5.18754E-09 9.74473E-19-1.00856E-19
 -1       381 9.52325E-05-2.85623E-05-2.85729E-05 1.31713E-08-4.67266E-19-8.78140E-19
 -1       382 9.52312E-05-2.85673E-05-2.85703E-05 2.23996E-08-7.44111E-19-1.26422E-18
 -1       383 9.52340E-05-2.85735E-05-2.85688E-05 2.37209E-08-2.17075E-18 6.39065E-19
 -1       384 9.50772E-05-2.74717E-05-2.89486E-05 8.55699E-07 1.01277E-18 9.68464E-19
 -1       385 9.46650E-05-2.78082E-05-2.86403E-05-7.30067E-07 9.08820E-19 8.21043E-19
 -1       386 9.47425E-05-2.80712E-05-2.85671E-05-1.68119E-06 9.96674E-19 5.31745E-19
 -1       387 9.51844E-05-2.83618E-05-2.86355E-05-2.24956E-06 7.85638E-19 2.05751E-19
 -1       388 9.58713E-05-2.86979E-05-2.87881E-05-2.54237E-06 5.03151E-19-5.13448E-20
 -1       389 9.67072E-05-2.90843E-05-2.89827E-05-2.58955E-06 1.26182E-19 1.92925E-19
 -1       390 9.76043E-05-2.95173E-05-2.91836E-05-2.37118E-06 1.80807E-19 1.51563E-19
 -1       391 9.84692E-05-2.99795E-05-2.93584E-05-1.83738E-06 2.22392E-19 5.02463E-20
 -1       392 9.91909E-05-3.04297E-05-2.94770E-05-9.33258E-07 5.16442E-19 3.63051E-19
 -1       393 9.96350E-05-3.07913E-05-2.95139E-05 3.63279E-07 2.15093E-19 4.54575E-19
 -1       394 9.96495E-05-3.09465E-05-2.94539E-05 1.98891E-06-8.38702E-19 3.47322E-19
 -1       395 9.90924E-05-3.07502E-05-2.92975E-05 3.73808E-06-2.42583E-19 1.35130E-18
 -1       396 9.78925E-05-3.00817E-05-2.90656E-05 5.23307E-06 1.15703E-19 1.08068E-18
 -1       397 9.61374E-05-2.89355E-05-2.87987E-05 5.97240E-06 7.27585E-20 5.43398E-19
 -1       398 9.41453E-05-2.75121E-05-2.85485E-05 5.49777E-06 8.41794E-19-2.59230E-19
 -1       399 9.24432E-05-2.62256E-05-2.83658E-05 3.64845E-06 5.95733E-19 6.43853E-20
 -1       400 9.15909E-05-2.55529E-05-2.82866E-05 7.59928E-07 3.47016E-19 6.97222E-19
 -1       401 9.19083E-05-2.57758E-05-2.83278E-05-2.38320E-06 1.51870E-19 8.25538E-19
 -1       402 9.32948E-05-2.68021E-05-2.84856E-05-4.88264E-06 4.74882E-19 1.05927E-18
 -1       403 9.52914E-05-2.82285E-05-2.87358E-05-6.13922E-06 7.61364E-19 1.46142E-18
 -1       404 9.73286E-05-2.95811E-05-2.90356E-05-6.06274E-06 4.40593E-19 8.70611E-19
 -1       405 9.89712E-05-3.05402E-05-2.93336E-05-4.98466E-06 2.99106E-19 1.12170E-18
 -1       406 1.00018E-04-3.10117E-05-2.95831E-05-3.40948E-06-2.17316E-19 4.77398E-19
 -1       407 1.00471E-04-3.10699E-05-2.97528E-05-1.79080E-06-3.77897E-19-6.42425E-19
 -1       408 1.00445E-04-3.08574E-05-2.98312E-05-4.20929E-07-6.99307E-19-2.10132E-19
 -1       409 1.00087E-04-3.05112E-05-2.98245E-05 5.74922E-07-1.98834E-19-1.35321E-19
 -1       410 9.95381E-05-3.01304E-05-2.97501E-05 1.19229E-06-9.09427E-20-4.04954E-19
 -1       411 9.89047E-05-2.97731E-05-2.96298E-05 1.49236E-06-5.10733E-20 2.18842E-19
 -1       412 9.82636E-05-2.94665E-05-2.94850E-05 1.55922E-06-5.06110E-19 4.04984E-19
 -1       413 9.76629E-05-2.92180E-05-2.93331E-05 1.47421E-06-1.71093E-18 8.88858E-19
 -1       414 9.71296E-05-2.90246E-05-2.91868E-05 1.30395E-06-3.15501E-19 4.38279E-19
 -1       415 9.66752E-05-2.88787E-05-2.90544E-05 1.09721E-06 9.77192E-19-4.79889E-20
 -1       416 9.63010E-05-2.87717E-05-2.89398E-05 8.86395E-07 1.23108E-18 1.89385E-19
 -1       417 9.60018E-05-2.86951E-05-2.88445E-05 6.90796E-07 1.05575E-18-4.92310E-19
 -1       418 9.57693E-05-2.86419E-05-2.87678E-05 5.20208E-07 6.92431E-19-1.18699E-18
 -1       419 9.55934E-05-2.86060E-05-2.87080E-05 3.78042E-07 7.81962E-20-3.48382E-18
 -1       420 9.54644E-05-2.85829E-05-2.86628E-05 2.63784E-07-2.90973E-19-4.21276E-18
 -1       421 9.53728E-05-2.85689E-05-2.86297E-05 1.74772E-07 4.12170E-19-3.45760E-18
 -1       422 9.53104E-05-2.85614E-05-2.86063E-05 1.07409E-07 4.69912E-19-2.39287E-18
 -1       423 9.52702E-05-2.85584E-05-2.85905E-05 5.79386E-08 2.74991E-19-2.27303E-18
 -1       424 9.52465E-05-2.85585E-05-2.85804E-05 2.29151E-08 9.38971E-20-7.66067E-19
 -1       425 9.52344E-05-2.85606E-05-2.85744E-05-5.31426E-10-5.02294E-19 5.18460E-19
 -1       426 9.52303E-05-2.85642E-05-2.85711E-05-1.45225E-08-2.00366E-18-5.17310E-19
 -1       427 9.52313E-05-2.85690E-05-2.85696E-05-2.03272E-08-2.15703E-18 6.84721E-20
 -1       428 9.52339E-05-2.85738E-05-2.85687E-05-1.92928E-08-3.91500E-20 9.01776E-19
 -1       429 9.52433E-05-2.85789E-05-2.85704E-05-1.41929E-08-3.68611E-19-1.55797E-19
 -1       430 9.52420E-05-2.85784E-05-2.85701E-05-1.92016E-08 1.99121E-19-3.96890E-18
 -1       431 9.52426E-05-2.85775E-05-2.85707E-05-9.13141E-09-1.80611E-18-1.11923E-18
 -1       432 9.52409E-05-2.85753E-05-2.85709E-05-5.24959E-09-4.37636E-19 1.53183E-18
 -1       433 9.52393E-05-2.85734E-05-2.85711E-05-3.04450E-09 1.06823E-19 3.34254E-19
 -1       434 9.52385E-05-2.85726E-05-2.85711E-05-2.11312E-09-9.41061E-19 2.82200E-18
 -1       435 9.52389E-05-2.85732E-05-2.85710E-05-1.43113E-09-8.67123E-19 1.02427E-18
 -1       436 9.52405E-05-2.85752E-05-2.85708E-05 2.03047E-10-1.51271E-18-5.31098E-19
 -1       437 9.52427E-05-2.85779E-05-2.85706E-05 3.60777E-09 8.25121E-20 1.06441E-18
 -1       438 9.52446E-05-2.85804E-05-2.85703E-05 9.05784E-09 2.32866E-18 2.97932E-18
 -1       439 9.52450E-05-2.85817E-05-2.85700E-05 1.56565E-08 2.34793E-18-2.44485E-18
 -1       440 9.52426E-05-2.85805E-05-2.85695E-05 2.13700E-08 1.63443E-18-2.09111E-18
 -1       441 9.56598E-05-2.72394E-05-2.92853E-05 2.63921E-06 1.23283E-18 1.70784E-18
 -1       442 5.56704E-05-4.03361E-05-6.75582E-06 4.55705E-05-1.49459E-18 2.28498E-18
 -1       443 1.27533E-04-5.19368E-05-3.23890E-05 3.36833E-05 6.38557E-19-8.29881E-19
 -1       444 1.20568E-05-2.03104E-05 3.57463E-06 5.30353E-06-8.18227E-19 1.22481E-18
 -1       445 9.54833E-05-5.13339E-05-1.89469E-05 4.54046E-05-2.34565E-18 2.88481E-18
 -1       446 8.95264E-05-1.17301E-05-3.34027E-05-9.93982E-06-1.72143E-18-1.89764E-18
 -1       447 1.49562E-04-4.38469E-05-4.52599E-05 1.54093E-05 1.54137E-18-2.96705E-18
 -1       448 1.60491E-04-2.82393E-05-5.64502E-05 5.69621E-06 4.33485E-18-2.42506E-18
 -1       449 1.65025E-04-1.64908E-05-6.32882E-05 1.09864E-06 5.06589E-18-2.19890E-18
 -1       450 1.61009E-04-1.23705E-05-6.35260E-05 1.86853E-07 4.59600E-18-1.90405E-18
 -1       451 1.57138E-04-2.01198E-05-5.87575E-05-1.70284E-07 4.95864E-18-1.94278E-18
 -1       452 1.52140E-04-4.12395E-05-4.75568E-05-1.11704E-05 3.25114E-18-2.01117E-18
 -1       453 1.32647E-04-5.20958E-05-3.45285E-05-3.03155E-05 1.17960E-18-3.14323E-18
 -1       454 1.03653E-04-5.31468E-05-2.16526E-05-4.32852E-05 2.42251E-19-3.01851E-18
 -1       455 6.42097E-05-4.35740E-05-9.01538E-06-4.65809E-05 9.85735E-20-4.47630E-18
 -1       456 3.02878E-05-3.02603E-05-1.29537E-07-3.52991E-05-7.13308E-19-5.37771E-18
 -1       457 1.15838E-05-2.50115E-05 5.39103E-06-9.73226E-06 3.88391E-19-4.78362E-18
 -1       458 1.75310E-05-2.73331E-05 3.86491E-06 1.61879E-05 2.98738E-19-3.56294E-18
 -1       459 4.42801E-05-3.73850E-05-3.11411E-06 3.56447E-05 8.51798E-19-3.42413E-18
 -1       460 9.95592E-05-5.74851E-05-1.80846E-05 3.90366E-05 5.00279E-19-1.58058E-18
 -1       461 1.30830E-04-6.30820E-05-2.92583E-05 2.80543E-05-4.99538E-19-2.10371E-18
 -1       462 1.60927E-04-5.62994E-05-4.47837E-05 9.40510E-06-2.24482E-18-5.88688E-20
 -1       463 1.74167E-04-3.98085E-05-5.71795E-05-4.47670E-06-4.76048E-18 2.36439E-18
 -1       464 1.76599E-04-2.41806E-05-6.46632E-05-4.98844E-06-6.17127E-18 2.35332E-18
 -1       465 1.73047E-04-1.94215E-05-6.53133E-05 2.69585E-06-3.73827E-18 1.29977E-18
 -1       466 1.64353E-04-3.54610E-05-5.55369E-05 1.55026E-05-3.23895E-18 6.59309E-19
 -1       467 1.66183E-04-5.34132E-05-4.83361E-05 3.43420E-06-1.85261E-18 1.72848E-18
 -1       468 1.40389E-04-6.34040E-05-3.30731E-05-2.31245E-05 2.68509E-19 4.28175E-19
 -1       469 9.53846E-05-5.54373E-05-1.75100E-05-3.91121E-05 4.93714E-19 2.78303E-18
 -1       470 5.43697E-05-4.30947E-05-5.24235E-06-3.80566E-05-2.94662E-19 2.68255E-18
 -1       471 2.01133E-05-2.62879E-05 2.51969E-06-1.89305E-05-3.40719E-19 3.33509E-18
 -1       472 2.49341E-05-2.97825E-05 1.77408E-06 3.14346E-05-1.41518E-18 1.60322E-18
 -1       473 8.09644E-05-4.71753E-05-1.41844E-05 4.08480E-05 1.98942E-18-1.47903E-18
 -1       474 1.45663E-04-3.04976E-05-4.97672E-05 6.57927E-06 2.99765E-18 5.32360E-19
 -1       475 8.88098E-05-1.24433E-05-3.27463E-05-3.38455E-06-5.43096E-19-2.33396E-18
 -1       476 8.97783E-05-1.35963E-05-3.26688E-05-5.07922E-06-1.03497E-18-2.27163E-18
 -1       477 8.81345E-05-1.16667E-05-3.27884E-05-4.02396E-08 1.86886E-19-2.51509E-18
 -1       478 8.83673E-05-1.19437E-05-3.27699E-05 1.65126E-06 4.81838E-19-2.46250E-18
 -1       479 8.89567E-05-1.26448E-05-3.27233E-05 3.35943E-06 8.40785E-19-2.31747E-18
 -1       480 8.99449E-05-1.38458E-05-3.26343E-05 5.13408E-06 1.42212E-18-2.02839E-18
 -1       481 9.13858E-05-1.56629E-05-3.24755E-05 6.86507E-06 1.66856E-18-1.60195E-18
 -1       482 9.33736E-05-1.83046E-05-3.21925E-05 8.30810E-06 1.91392E-18-9.58593E-19
 -1       483 9.56981E-05-2.19254E-05-3.16279E-05 8.73086E-06 2.01607E-18 1.38970E-19
 -1       484 9.68208E-05-2.47166E-05-3.08899E-05 7.31831E-06 1.82234E-18 1.18450E-18
 -1       485 9.59630E-05-2.42870E-05-3.07079E-05-4.62090E-06-1.38812E-18-4.05928E-19
 -1       486 8.58473E-05-4.71432E-05-1.62589E-05 4.59863E-05-3.23900E-18 1.85672E-18
 -1       487 1.23164E-04-5.95223E-05-2.71607E-05 3.08066E-05-2.87126E-18-1.59631E-18
 -1       488 9.58970E-05-2.59565E-05-2.99653E-05-1.32722E-06-1.03810E-18-2.80463E-19
 -1       489 9.57275E-05-2.67566E-05-2.95537E-05 1.05489E-06-8.99018E-19-1.69617E-19
 -1       490 9.56751E-05-2.71134E-05-2.93800E-05 2.87768E-06-6.74331E-19-2.45417E-19
 -1       491 9.57706E-05-2.72113E-05-2.93794E-05 4.43541E-06-3.49031E-19-2.41083E-19
 -1       492 9.59805E-05-2.71238E-05-2.95065E-05 5.94708E-06-3.32081E-19-1.56570E-19
 -1       493 9.62540E-05-2.68879E-05-2.97240E-05 7.57849E-06-2.32852E-19-3.29812E-19
 -1       494 9.65465E-05-2.65515E-05-2.99928E-05 9.45112E-06-6.76951E-19-4.13499E-19
 -1       495 9.68543E-05-2.62289E-05-3.02629E-05 1.16335E-05-5.30976E-19-1.96830E-19
 -1       496 9.73058E-05-2.62151E-05-3.04631E-05 1.42463E-05 1.45021E-19 3.61479E-19
 -1       497 9.82376E-05-2.71291E-05-3.04734E-05 1.69054E-05 7.10590E-19 4.03524E-19
 -1       498 1.00609E-04-3.00946E-05-3.02183E-05 1.93366E-05 1.14633E-18 2.56517E-20
 -1       499 1.06141E-04-3.67018E-05-2.97360E-05 2.06665E-05 1.52621E-18 1.77070E-19
 -1       500 1.17564E-04-4.83475E-05-2.95997E-05 1.86524E-05 2.44718E-18 2.44432E-20
 -1       501 1.35357E-04-6.15264E-05-3.16251E-05 1.03449E-05 2.19421E-18 1.96292E-18
 -1       502 1.42938E-04-6.23516E-05-3.48079E-05-1.52330E-06 8.65065E-19 1.37078E-18
 -1       503 1.25887E-04-5.37552E-05-3.08533E-05-1.36558E-05 1.68341E-18 7.28513E-19
 -1       504 1.12058E-04-4.10070E-05-3.04359E-05-1.87429E-05 1.12701E-18 3.40774E-19
 -1       505 1.04528E-04-3.27535E-05-3.07580E-05-1.88238E-05-1.59981E-19-6.95896E-19
 -1       506 1.00947E-04-2.86075E-05-3.10005E-05-1.68688E-05-1.38986E-19-8.25022E-19
 -1       507 9.93472E-05-2.70082E-05-3.09979E-05-1.42254E-05-3.16870E-19-1.71600E-18
 -1       508 9.85695E-05-2.66816E-05-3.08027E-05-1.15480E-05-1.62638E-19-1.05144E-18
 -1       509 9.80722E-05-2.68745E-05-3.05068E-05-9.13219E-06-3.37332E-19-8.58866E-19
 -1       510 9.76510E-05-2.72134E-05-3.01818E-05-7.08595E-06 1.56435E-18-2.07842E-18
 -1       511 9.72526E-05-2.75425E-05-2.98712E-05-5.41925E-06 1.38261E-18-2.87160E-18
 -1       512 9.68772E-05-2.78115E-05-2.95960E-05-4.09610E-06 3.02523E-19-1.49847E-18
 -1       513 9.65357E-05-2.80144E-05-2.93637E-05-3.06315E-06 3.60153E-19-1.94757E-18
 -1       514 9.62270E-05-2.81696E-05-2.91655E-05-2.23335E-06 1.15075E-18-3.63472E-18
 -1       515 9.59824E-05-2.82745E-05-2.90163E-05-1.63445E-06 4.39376E-20-2.50078E-18
 -1       516 9.57841E-05-2.83500E-05-2.88993E-05-1.18043E-06-8.66873E-19-1.28429E-18
 -1       517 9.56282E-05-2.84047E-05-2.88093E-05-8.39005E-07-8.13167E-19 3.63000E-19
 -1       518 9.55088E-05-2.84451E-05-2.87411E-05-5.84200E-07-4.89962E-19 6.93556E-19
 -1       519 9.54198E-05-2.84754E-05-2.86901E-05-3.95680E-07-3.05711E-18 3.27419E-19
 -1       520 9.53552E-05-2.84986E-05-2.86526E-05-2.57632E-07-3.38342E-19-1.17140E-18
 -1       521 9.53098E-05-2.85166E-05-2.86255E-05-1.57843E-07 1.14641E-18-2.21357E-18
 -1       522 9.52790E-05-2.85309E-05-2.86062E-05-8.69587E-08 1.90132E-18-1.96472E-18
 -1       523 9.52593E-05-2.85426E-05-2.85928E-05-3.79291E-08 1.22440E-18-2.62789E-18
 -1       524 9.52475E-05-2.85526E-05-2.85835E-05-5.61008E-09-1.06315E-19-4.25484E-18
 -1       525 9.52417E-05-2.85619E-05-2.85770E-05 1.36696E-08-6.81864E-19-4.78391E-18
 -1       526 9.52416E-05-2.85700E-05-2.85736E-05 2.06818E-08 1.18021E-18-3.58586E-18
 -1       527 9.57568E-05-2.80145E-05-2.90306E-05-2.26054E-06 9.33464E-19 1.42805E-19
 -1       528 9.56495E-05-2.75216E-05-2.91937E-05-1.13033E-06 9.99677E-19-5.11270E-20
 -1       529 9.57671E-05-2.68250E-05-2.95421E-05 6.14049E-07 1.06173E-18 4.72732E-20
 -1       530 9.60875E-05-2.84512E-05-2.89863E-05-2.96450E-06 7.88048E-19 2.01137E-19
 -1       531 9.66194E-05-2.89155E-05-2.90161E-05-3.32567E-06 5.40358E-19-1.07922E-19
 -1       532 9.73275E-05-2.94618E-05-2.90864E-05-3.35772E-06 1.86017E-19-3.16810E-19
 -1       533 9.81832E-05-3.01206E-05-2.91718E-05-3.02267E-06-1.22439E-19-1.67407E-20
 -1       534 9.91423E-05-3.08878E-05-2.92551E-05-2.25129E-06-1.98234E-19 6.44020E-19
 -1       535 1.00124E-04-3.17008E-05-2.93285E-05-9.75358E-07 1.90236E-19 8.15711E-19
 -1       536 1.00987E-04-3.24095E-05-2.93952E-05 8.19765E-07-2.09266E-20 1.08855E-18
 -1       537 1.01518E-04-3.27636E-05-2.94706E-05 3.01920E-06-7.15267E-19 9.05012E-20
 -1       538 1.01457E-04-3.24501E-05-2.95773E-05 5.29372E-06 8.88818E-20 9.63168E-20
 -1       539 1.00604E-04-3.12255E-05-2.97338E-05 7.05861E-06 2.07826E-19 4.59729E-19
 -1       540 9.89967E-05-2.91355E-05-2.99374E-05 7.57268E-06 9.07666E-19 1.59279E-19
 -1       541 9.70634E-05-2.66977E-05-3.01510E-05 6.24573E-06 5.39920E-19 2.56580E-19
 -1       542 9.55658E-05-2.48250E-05-3.03123E-05 3.07227E-06-2.67069E-19 4.69611E-19
 -1       543 9.52211E-05-2.43723E-05-3.03586E-05-1.13309E-06-1.18022E-20 7.07230E-19
 -1       544 9.62121E-05-2.55554E-05-3.02754E-05-5.01941E-06 2.99624E-19 5.54860E-19
 -1       545 9.80625E-05-2.78051E-05-3.01054E-05-7.42043E-06 1.57462E-19 4.05895E-19
 -1       546 9.99742E-05-3.01657E-05-2.99161E-05-7.90520E-06 7.64972E-19 1.49456E-18
 -1       547 1.01318E-04-3.18788E-05-2.97607E-05-6.80388E-06 1.03365E-19 1.02882E-18
 -1       548 1.01861E-04-3.26617E-05-2.96603E-05-4.82322E-06 6.43559E-20 3.22560E-19
 -1       549 1.01702E-04-3.26339E-05-2.96051E-05-2.65224E-06 9.31451E-19 3.11527E-19
 -1       550 1.01087E-04-3.20967E-05-2.95716E-05-7.50656E-07-1.33829E-19-7.08689E-19
 -1       551 1.00257E-04-3.13459E-05-2.95369E-05 6.71652E-07-5.68290E-19-1.62214E-18
 -1       552 9.93870E-05-3.05888E-05-2.94873E-05 1.58579E-06-7.39551E-19 6.75835E-20
 -1       553 9.85754E-05-2.99362E-05-2.94181E-05 2.06179E-06-2.67137E-19 1.75244E-18
 -1       554 9.78676E-05-2.94272E-05-2.93321E-05 2.20695E-06-1.34726E-19 1.86124E-18
 -1       555 9.72749E-05-2.90589E-05-2.92354E-05 2.12904E-06-7.03988E-19 1.58496E-18
 -1       556 9.67919E-05-2.88090E-05-2.91352E-05 1.91896E-06 6.91218E-20-4.45929E-20
 -1       557 9.64059E-05-2.86501E-05-2.90376E-05 1.64530E-06 2.06854E-20 4.03073E-19
 -1       558 9.61020E-05-2.85565E-05-2.89475E-05 1.35532E-06 1.41767E-18-2.64103E-19
 -1       559 9.58662E-05-2.85072E-05-2.88675E-05 1.07863E-06 9.53095E-19-3.33543E-19
 -1       560 9.56857E-05-2.84864E-05-2.87992E-05 8.31583E-07 1.19504E-18-5.56413E-19
 -1       561 9.55496E-05-2.84827E-05-2.87425E-05 6.21239E-07 1.67468E-18-6.94287E-19
 -1       562 9.54488E-05-2.84887E-05-2.86968E-05 4.48680E-07-9.12513E-19 2.34802E-20
 -1       563 9.53756E-05-2.84992E-05-2.86610E-05 3.11465E-07-1.66528E-19 1.18508E-19
 -1       564 9.53237E-05-2.85114E-05-2.86336E-05 2.05377E-07-1.70817E-19 4.94169E-19
 -1       565 9.52882E-05-2.85236E-05-2.86132E-05 1.25587E-07-4.28845E-19 1.08837E-18
 -1       566 9.52649E-05-2.85350E-05-2.85984E-05 6.74004E-08-2.79364E-19 6.23939E-19
 -1       567 9.52505E-05-2.85454E-05-2.85878E-05 2.66833E-08-1.46932E-18 6.85480E-19
 -1       568 9.52426E-05-2.85550E-05-2.85804E-05 1.76356E-12-5.91298E-19 1.63519E-18
 -1       569 9.52395E-05-2.85644E-05-2.85750E-05-1.52319E-08-9.62505E-19-4.88088E-19
 -1       570 9.52359E-05-2.85492E-05-2.85800E-05-1.80845E-09 1.29520E-18 2.08318E-18
 -1       571 9.52402E-05-2.85574E-05-2.85783E-05-6.45949E-09-3.53162E-19-7.28104E-19
 -1       572 9.52419E-05-2.85645E-05-2.85761E-05-1.28382E-08-1.47168E-19-2.53040E-18
 -1       573 2.59456E-05-1.63684E-05-3.56197E-06 2.29717E-05-1.57675E-18 7.50259E-19
 -1       574 9.52313E-05-2.85419E-05-2.85811E-05 1.08545E-10 3.83122E-19 1.02329E-18
 -1       575 9.52279E-05-2.85370E-05-2.85818E-05-4.85302E-10-1.25613E-18-1.40704E-18
 -1       576 9.52272E-05-2.85357E-05-2.85820E-05-2.39632E-09-3.27328E-18 2.52408E-18
 -1       577 9.52293E-05-2.85383E-05-2.85818E-05-3.85459E-09-1.99022E-18 4.84286E-19
 -1       578 9.52336E-05-2.85441E-05-2.85812E-05-3.21664E-09-3.22558E-19 6.90658E-19
 -1       579 9.52390E-05-2.85521E-05-2.85801E-05 5.07987E-10 9.94793E-20 3.00523E-18
 -1       580 9.52433E-05-2.85606E-05-2.85783E-05 7.23675E-09 8.81911E-19-6.50651E-19
 -1       581 9.52443E-05-2.85665E-05-2.85762E-05 1.42790E-08 6.91285E-19-2.53616E-18
 -1       582 4.86344E-05-2.89397E-05-7.93569E-06-3.39429E-05 6.79638E-19 2.52490E-18
 -1       583 9.49846E-05-2.06867E-05-3.18632E-05-8.52703E-06-1.82564E-18-6.64520E-19
 -1       584 1.39078E-04-5.63881E-05-3.56472E-05 1.25780E-05-8.43062E-19-4.78431E-18
 -1       585 2.69413E-05-1.28854E-05-5.30564E-06-9.63129E-06-9.02408E-19 1.99635E-18
 -1       586 1.52970E-04-2.99144E-05-5.32290E-05-1.83751E-05-4.35258E-18 3.99461E-18
 -1       587 2.26177E-05-1.33499E-05-3.33571E-06 4.09704E-06 2.62666E-19-3.19554E-18
 -1       588 1.35205E-04-6.15811E-06-5.59202E-05-2.48486E-06 3.96951E-18-1.33189E-18
 -1       589 8.82754E-05-1.18238E-05-3.27818E-05-1.70883E-06-1.15367E-19-2.48976E-18
 -1       590 1.41665E-04-1.76435E-05-5.36875E-05-8.07298E-06 3.90255E-18-2.72332E-18
 -1       591 1.41873E-04-5.35487E-05-3.80695E-05-9.36817E-06 1.53844E-19-6.13517E-19
 -1       592 1.42623E-04-3.67843E-05-4.57998E-05-6.75450E-06 4.28546E-19-4.52861E-18
 -1       593 1.34457E-04-1.06549E-05-5.37258E-05 7.46598E-06 4.05178E-18 9.64506E-19
 -1       594 1.57519E-04-5.11967E-05-4.60444E-05-1.61780E-05-1.89349E-18 5.11841E-18
 -1       595 1.26897E-04-6.01129E-05-2.85757E-05-2.88715E-05-8.44492E-19-1.98124E-18
 -1       596 9.37452E-05-5.12116E-05-1.79855E-05-4.45239E-05-1.78030E-18-2.89756E-18
 -1       597 6.01639E-05-3.43732E-05-1.05236E-05-4.44454E-05-1.99434E-18-3.88539E-18
 -1       598 2.72275E-05-1.65600E-05-3.99831E-06-2.27983E-05-9.17416E-19-4.32474E-18
 -1       599 3.97520E-05-2.33049E-05-6.42972E-06 2.83627E-05 2.04093E-18-3.08384E-18
 -1       600 1.26185E-04-6.40380E-05-2.65689E-05 2.54269E-05 2.02531E-18 6.97479E-20
 -1       601 1.25753E-04-6.45935E-05-2.61281E-05-2.63565E-05 9.19613E-19 1.67274E-18
 -1       602 1.50050E-04-6.52083E-05-3.64395E-05 4.17193E-06 2.86403E-19 2.81210E-18
 -1       603 1.52966E-04-6.35105E-05-3.84839E-05 2.83665E-06-3.84712E-19 2.22230E-18
 -1       604 9.25334E-05-5.19114E-05-1.70979E-05-3.89790E-05 9.75676E-19 1.99352E-18
 -1       605 5.02218E-05-2.98278E-05-8.26453E-06 4.18936E-05-2.33638E-18 1.55971E-18
 -1       606 9.11938E-05-1.53865E-05-3.25222E-05-6.70136E-06-1.40727E-18-1.91520E-18
 -1       607 9.61574E-05-2.59252E-05-3.00769E-05 4.07802E-06 1.43068E-18 7.85239E-19
 -1       608 1.52868E-04-5.98441E-05-4.00971E-05-8.30497E-06-9.52628E-19 3.96353E-18
 -1       609 1.58424E-04-1.85981E-05-6.00689E-05-6.07745E-06-4.59378E-18 7.70721E-19
 -1       610 9.58689E-05-2.64363E-05-2.97440E-05 2.16417E-06 1.24651E-18 3.16890E-19
 -1       611 1.08302E-04-5.54649E-05-2.23357E-05 3.30495E-05 2.77885E-18-3.29138E-19
 -1       612 1.39881E-04-4.34750E-05-4.16543E-05 5.41204E-06 1.16726E-18 2.13463E-18
 -1       613 6.83187E-05-3.42595E-05-1.41363E-05 3.60072E-05 2.90471E-18-1.60777E-18
 -1       614 1.50813E-04-4.75871E-05-4.47225E-05 2.07595E-05-1.73049E-18 3.71795E-19
 -1       615 1.51256E-04-2.51465E-05-5.45855E-05 1.44471E-05-3.41248E-18 1.80730E-18
 -1       616 9.05702E-05-1.56596E-05-3.21099E-05 1.75659E-06 5.23062E-19-2.10141E-18
 -1       617 9.01078E-05-1.50744E-05-3.21622E-05 4.94461E-07 2.27024E-19-2.34784E-18
 -1       618 9.25668E-05-1.83499E-05-3.18134E-05 4.18216E-06 1.33771E-18-1.57617E-18
 -1       619 9.40276E-05-2.05453E-05-3.14994E-05 5.07682E-06 1.47916E-18-1.05553E-18
 -1       620 9.59539E-05-2.41952E-05-3.07414E-05 5.28781E-06 1.49849E-18-6.51792E-20
 -1       621 1.36226E-04-4.77863E-05-3.81508E-05-3.50038E-06 1.61889E-19-3.35544E-18
 -1       622 7.43574E-05-3.47971E-05-1.65325E-05 4.00785E-05-2.39885E-18 2.04783E-19
 -1       623 9.54500E-05-2.48435E-05-3.02575E-05-4.83468E-07-9.33872E-19-8.99138E-19
 -1       624 9.54086E-05-2.57346E-05-2.98590E-05 1.70485E-06-8.30233E-19-6.38532E-19
 -1       625 9.51776E-05-2.60432E-05-2.96281E-05 3.49915E-06-4.46331E-19-4.33849E-19
 -1       626 9.48005E-05-2.59314E-05-2.95144E-05 5.08912E-06-4.48445E-19-5.39525E-19
 -1       627 9.42454E-05-2.54776E-05-2.94707E-05 6.63635E-06-5.16383E-19-6.30411E-19
 -1       628 9.34418E-05-2.47351E-05-2.94443E-05 8.27193E-06-3.18577E-19-5.22051E-19
 -1       629 9.23156E-05-2.37833E-05-2.93696E-05 1.01039E-05-4.49327E-19-4.54077E-20
 -1       630 9.07468E-05-2.27623E-05-2.91345E-05 1.23463E-05 3.08582E-20-4.12576E-20
 -1       631 8.90003E-05-2.21916E-05-2.86302E-05 1.49254E-05 2.58237E-19-6.62873E-20
 -1       632 8.74394E-05-2.28137E-05-2.76870E-05 1.81845E-05 4.31184E-19-3.02540E-19
 -1       633 8.72885E-05-2.62264E-05-2.61343E-05 2.24711E-05 1.25978E-18-3.41371E-19
 -1       634 9.12404E-05-3.46423E-05-2.40199E-05 2.82060E-05 2.39988E-18-5.99011E-20
 -1       635 3.67454E-05-9.98186E-06-1.08572E-05 9.16136E-06-1.73201E-18 1.59560E-19
 -1       636 9.81011E-05-4.12090E-05-2.40757E-05-2.85295E-05 1.20406E-18 8.98040E-19
 -1       637 9.08337E-05-2.97817E-05-2.60875E-05-2.36186E-05-3.42403E-19 1.00995E-19
 -1       638 8.90727E-05-2.44101E-05-2.76930E-05-1.91416E-05-6.00005E-19 2.47580E-19
 -1       639 8.97573E-05-2.26864E-05-2.87412E-05-1.54743E-05-1.04281E-18-6.83071E-19
 -1       640 9.11501E-05-2.27615E-05-2.93072E-05-1.25148E-05-4.65373E-19-2.17223E-18
 -1       641 9.25123E-05-2.35679E-05-2.95454E-05-1.00578E-05 4.47222E-19-1.98130E-18
 -1       642 9.35847E-05-2.45488E-05-2.95848E-05-8.00365E-06 6.80226E-20-1.38934E-19
 -1       643 9.43363E-05-2.54604E-05-2.95166E-05-6.29676E-06 5.66940E-19-5.72219E-19
 -1       644 9.48199E-05-2.62186E-05-2.93992E-05-4.89662E-06 7.29078E-19-1.32825E-18
 -1       645 9.51063E-05-2.68142E-05-2.92671E-05-3.76314E-06-9.62373E-19-2.88150E-18
 -1       646 9.52664E-05-2.72879E-05-2.91330E-05-2.81982E-06-1.75638E-19-2.45125E-18
 -1       647 9.53357E-05-2.76232E-05-2.90191E-05-2.11611E-06 4.68237E-19-2.93612E-18
 -1       648 9.53572E-05-2.78725E-05-2.89217E-05-1.56678E-06 6.00898E-19-1.27948E-18
 -1       649 9.53536E-05-2.80574E-05-2.88410E-05-1.14266E-06 1.38849E-18-2.17657E-19
 -1       650 9.53382E-05-2.81946E-05-2.87757E-05-8.18454E-07-1.17773E-18 1.22760E-18
 -1       651 9.53191E-05-2.82964E-05-2.87239E-05-5.73173E-07-2.67132E-18-7.52443E-19
 -1       652 9.53003E-05-2.83721E-05-2.86834E-05-3.89680E-07-1.79132E-18-1.48046E-20
 -1       653 9.52839E-05-2.84285E-05-2.86523E-05-2.54168E-07 1.52442E-19-6.16126E-20
 -1       654 9.52705E-05-2.84705E-05-2.86285E-05-1.55661E-07 1.30390E-18 9.68932E-19
 -1       655 9.52602E-05-2.85020E-05-2.86106E-05-8.55470E-08 9.60766E-19-7.69302E-19
 -1       656 9.52527E-05-2.85261E-05-2.85971E-05-3.72661E-08-5.75185E-19-2.35956E-18
 -1       657 9.52476E-05-2.85451E-05-2.85868E-05-6.11333E-09 2.94628E-19-2.09568E-18
 -1       658 9.52451E-05-2.85554E-05-2.85814E-05 6.73333E-09-5.46271E-20-1.75220E-18
 -1       659 9.59620E-05-2.71039E-05-2.95098E-05-1.65622E-06 7.90407E-19-7.48500E-19
 -1       660 9.61454E-05-2.78084E-05-2.92870E-05-2.80454E-06 7.59096E-19-4.98135E-19
 -1       661 9.58366E-05-2.61369E-05-2.98693E-05-6.92980E-09 1.07488E-18-8.31326E-19
 -1       662 9.69950E-05-2.91091E-05-2.90942E-05-3.97481E-06 3.25947E-19-3.38258E-19
 -1       663 9.77640E-05-2.99334E-05-2.90708E-05-4.03307E-06-1.49154E-19 1.88264E-19
 -1       664 9.88136E-05-3.09669E-05-2.90781E-05-3.67329E-06-3.19733E-19 7.55135E-20
 -1       665 1.00146E-04-3.22053E-05-2.91190E-05-2.79392E-06-1.44363E-19-7.46696E-20
 -1       666 1.01691E-04-3.35331E-05-2.92124E-05-1.28783E-06-1.70086E-19-1.74460E-19
 -1       667 1.03249E-04-3.46696E-05-2.93934E-05 8.91812E-07-2.91959E-19 2.63281E-19
 -1       668 1.04459E-04-3.51461E-05-2.97070E-05 3.61787E-06-3.12911E-19 2.87171E-19
 -1       669 1.04833E-04-3.43913E-05-3.01894E-05 6.43697E-06-2.31937E-19 1.65283E-19
 -1       670 1.03981E-04-3.20288E-05-3.08353E-05 8.47545E-06 3.38213E-19 9.32337E-19
 -1       671 1.01967E-04-2.83252E-05-3.15597E-05 8.62039E-06 8.30859E-19 1.17934E-18
 -1       672 9.96196E-05-2.45118E-05-3.21880E-05 6.10723E-06 5.56080E-19 1.08905E-18
 -1       673 9.82099E-05-2.23290E-05-3.25260E-05 1.31551E-06 2.30120E-19 7.07463E-20
 -1       674 9.86816E-05-2.30212E-05-3.24276E-05-4.05361E-06-1.87960E-20-6.58319E-19
 -1       675 1.00693E-04-2.61369E-05-3.19517E-05-7.94882E-06 3.52196E-19 3.38992E-19
 -1       676 1.03039E-04-3.00675E-05-3.12734E-05-9.23418E-06-2.35187E-19-2.11935E-19
 -1       677 1.04568E-04-3.31952E-05-3.05874E-05-8.15416E-06 1.11797E-18-2.74627E-19
 -1       678 1.04832E-04-3.47606E-05-3.00308E-05-5.72770E-06 9.74890E-19-5.76030E-19
 -1       679 1.04022E-04-3.48470E-05-2.96475E-05-2.99452E-06 6.54152E-19-1.61071E-18
 -1       680 1.02613E-04-3.39804E-05-2.94160E-05-6.26149E-07 6.71650E-19-1.27059E-18
 -1       681 1.01045E-04-3.27083E-05-2.92888E-05 1.10608E-06 1.71425E-19-9.53441E-19
 -1       682 9.95976E-05-3.14201E-05-2.92200E-05 2.18913E-06-1.31927E-18-9.48434E-19
 -1       683 9.83980E-05-3.03230E-05-2.91757E-05 2.73163E-06-1.08772E-18-7.79280E-19
 -1       684 9.74707E-05-2.94889E-05-2.91353E-05 2.87691E-06-3.66488E-19-2.25265E-19
 -1       685 9.67872E-05-2.89107E-05-2.90900E-05 2.75938E-06-3.60383E-19 5.30905E-19
 -1       686 9.62999E-05-2.85449E-05-2.90378E-05 2.48787E-06 2.49219E-19 5.36025E-19
 -1       687 9.59603E-05-2.83388E-05-2.89805E-05 2.14276E-06-7.86141E-19 1.43934E-18
 -1       688 9.57273E-05-2.82436E-05-2.89214E-05 1.77904E-06 1.04000E-18 1.49750E-18
 -1       689 9.55689E-05-2.82196E-05-2.88638E-05 1.43130E-06 1.26665E-18 1.05074E-18
 -1       690 9.54615E-05-2.82374E-05-2.88102E-05 1.11893E-06 1.26908E-18 9.06605E-19
 -1       691 9.53888E-05-2.82767E-05-2.87622E-05 8.50672E-07 1.28669E-18 1.13894E-18
 -1       692 9.53395E-05-2.83243E-05-2.87206E-05 6.28260E-07-6.31314E-19 1.66594E-18
 -1       693 9.53058E-05-2.83722E-05-2.86858E-05 4.49223E-07-2.48020E-19 2.16064E-19
 -1       694 9.52829E-05-2.84160E-05-2.86572E-05 3.08843E-07 2.12071E-19 1.47292E-19
 -1       695 9.52672E-05-2.84538E-05-2.86343E-05 2.01514E-07-5.83122E-19 2.95776E-19
 -1       696 9.52566E-05-2.84853E-05-2.86162E-05 1.21593E-07-6.56415E-19 1.14947E-18
 -1       697 9.52496E-05-2.85111E-05-2.86022E-05 6.39981E-08 6.96687E-19 7.43828E-19
 -1       698 9.52451E-05-2.85321E-05-2.85912E-05 2.44133E-08 2.08220E-19-2.39333E-18
 -1       699 9.52427E-05-2.85489E-05-2.85830E-05 1.62278E-10-6.95543E-19-1.86743E-18
 -1       700 9.52330E-05-2.85271E-05-2.85882E-05 8.88804E-09 1.80328E-18 2.13233E-18
 -1       701 9.52162E-05-2.85008E-05-2.85923E-05 7.00789E-09-4.53180E-19-2.06478E-18
 -1       702 9.52392E-05-2.85384E-05-2.85860E-05 5.53607E-09 2.65763E-19-3.85721E-20
 -1       703 9.52238E-05-2.85121E-05-2.85907E-05 1.01191E-08 1.59674E-19 5.83079E-19
 -1       704 9.52132E-05-2.84954E-05-2.85933E-05-6.40128E-09-1.57296E-18 2.57549E-18
 -1       705 9.52189E-05-2.85026E-05-2.85927E-05-1.16252E-08-1.65420E-18 6.28442E-19
 -1       706 9.52281E-05-2.85152E-05-2.85913E-05-1.29735E-08-1.13380E-18 1.94781E-18
 -1       707 9.52379E-05-2.85307E-05-2.85888E-05-9.14190E-09-1.32852E-18 2.25299E-18
 -1       708 1.07778E-04-5.33531E-05-2.31517E-05 3.48997E-05-3.70588E-18-1.62614E-19
 -1       709 9.42787E-05-2.05605E-05-3.15929E-05-5.84876E-06-1.41445E-18-1.04145E-18
 -1       710 5.01107E-05-1.77967E-05-1.33102E-05-2.31912E-05 7.51636E-19 1.47543E-18
 -1       711 4.76641E-05-1.83786E-05-1.21127E-05 3.00209E-05-1.77113E-18 1.07727E-18
 -1       712 1.14986E-04-5.58232E-05-2.51842E-05-2.98868E-05-2.23725E-18-1.05163E-18
 -1       713 9.52121E-05-2.84947E-05-2.85932E-05 6.99290E-10-9.65406E-19 6.14092E-19
 -1       714 1.29663E-04-5.77466E-05-3.08504E-05 1.44441E-05-1.41042E-18-2.89856E-18
 -1       715 9.51548E-05-2.32394E-05-3.08213E-05-2.93667E-06-1.11324E-18-9.27880E-19
 -1       716 1.30051E-04-5.82957E-05-3.07562E-05-1.53989E-05-1.81877E-18 4.34369E-20
 -1       717 9.13987E-05-1.67405E-05-3.20022E-05 3.01416E-06 9.61915E-19-1.75540E-18
 -1       718 1.21896E-04-1.20187E-05-4.76311E-05-9.41598E-06 2.27402E-18-2.05703E-18
 -1       719 4.04712E-05-1.37833E-05-1.08393E-05 1.62851E-05 1.37276E-18-1.06784E-18
 -1       720 8.40637E-05-4.15782E-05-1.78569E-05-4.11576E-05-2.01737E-18-2.86444E-18
 -1       721 3.38257E-05-1.05228E-05-9.39933E-06-8.71764E-06-1.98719E-19-2.96086E-18
 -1       722 1.28400E-04-2.27307E-05-4.57767E-05 1.29094E-05 2.61437E-18 2.61291E-18
 -1       723 9.11290E-05-1.63790E-05-3.20411E-05-3.06434E-06-6.39039E-19-1.92642E-18
 -1       724 5.04341E-05-2.10126E-05-1.21362E-05-3.22563E-05-8.08916E-19-3.95723E-18
 -1       725 1.27637E-04-2.61308E-05-4.39038E-05-1.33942E-05 8.87399E-19-3.02952E-18
 -1       726 1.19860E-04-7.17452E-06-4.88685E-05 2.22625E-06 2.86091E-18-3.10110E-19
 -1       727 7.69762E-05-3.61406E-05-1.70179E-05-3.47401E-05 7.64685E-19 8.58494E-19
 -1       728 9.64711E-05-2.84332E-05-2.91590E-05-3.56169E-06 9.06263E-19-2.56666E-19
 -1       729 9.00358E-05-1.49848E-05-3.21697E-05-7.34382E-07-4.79742E-20-2.25218E-18
 -1       730 4.71614E-05-1.03547E-05-1.53822E-05-7.05188E-06-8.53994E-19-7.81070E-19
 -1       731 9.23256E-05-1.79529E-05-3.18781E-05-4.16298E-06-9.69564E-19-1.78676E-18
 -1       732 1.32866E-04-5.32290E-05-3.42784E-05-2.47522E-06-1.10099E-18 1.71484E-18
 -1       733 9.52433E-05-2.85442E-05-2.85853E-05-1.90149E-09-1.26903E-18-1.38418E-18
 -1       734 9.56282E-05-2.46264E-05-3.04229E-05 2.27920E-06 1.10829E-18-7.95782E-19
 -1       735 9.03728E-05-1.54082E-05-3.21330E-05-1.92173E-06-3.38804E-19-2.01212E-18
 -1       736 5.97446E-05-2.20640E-05-1.57359E-05 2.66801E-05 2.68889E-18-1.49626E-18
 -1       737 1.16805E-04-1.50025E-05-4.39836E-05 9.91542E-06 1.90249E-18-3.58136E-20
 -1       738 9.44393E-05-2.20854E-05-3.10112E-05 2.53546E-06 1.12043E-18-1.33162E-18
 -1       739 1.25981E-04-3.75103E-05-3.80926E-05-1.10037E-05-2.47969E-19-3.17370E-18
 -1       740 9.45960E-05-2.46799E-05-2.99642E-05 2.12426E-06-4.87403E-19-7.83247E-19
 -1       741 9.40491E-05-2.48253E-05-2.96673E-05 3.65291E-06-5.92974E-19-9.25142E-19
 -1       742 9.31205E-05-2.44481E-05-2.94308E-05 4.99356E-06-7.08591E-19-1.31494E-18
 -1       743 9.17548E-05-2.36198E-05-2.92005E-05 6.24437E-06-1.72298E-19-1.27958E-18
 -1       744 8.98517E-05-2.24020E-05-2.89072E-05 7.48852E-06-1.10729E-19-9.84210E-19
 -1       745 8.71241E-05-2.08050E-05-2.84225E-05 8.87826E-06-1.52768E-19-4.40845E-19
 -1       746 8.36764E-05-1.91661E-05-2.76475E-05 1.04408E-05 1.33174E-19-2.92810E-19
 -1       747 7.93292E-05-1.78212E-05-2.63574E-05 1.25846E-05 3.46146E-19-2.26282E-19
 -1       748 7.38864E-05-1.73252E-05-2.41737E-05 1.62499E-05 8.15137E-19 9.12446E-20
 -1       749 9.94247E-05-3.19817E-05-2.89045E-05-4.62438E-06-2.54090E-19-1.37896E-19
 -1       750 1.27692E-04-5.00628E-05-3.33670E-05-5.11538E-08-6.81153E-19-3.61866E-18
 -1       751 7.36360E-05-1.84859E-05-2.35555E-05-1.79790E-05-1.97227E-18 5.24892E-19
 -1       752 7.84146E-05-1.77485E-05-2.59909E-05-1.35707E-05-1.59039E-18-8.65525E-19
 -1       753 8.26704E-05-1.86150E-05-2.74506E-05-1.08724E-05-1.96963E-18-3.02291E-19
 -1       754 8.61451E-05-2.01071E-05-2.83020E-05-8.90147E-06 3.58008E-19-1.16528E-18
 -1       755 8.88159E-05-2.16982E-05-2.87647E-05-7.33349E-06 1.06689E-18-1.64959E-18
 -1       756 9.07941E-05-2.31551E-05-2.89879E-05-6.00406E-06 8.22137E-19-4.63972E-19
 -1       757 9.22147E-05-2.43862E-05-2.90691E-05-4.85797E-06 2.14515E-19 2.51639E-19
 -1       758 9.32109E-05-2.53796E-05-2.90703E-05-3.87463E-06-2.10640E-18-6.16815E-19
 -1       759 9.39240E-05-2.61925E-05-2.90277E-05-3.00864E-06-3.71208E-19-1.44608E-19
 -1       760 9.43802E-05-2.67851E-05-2.89692E-05-2.32903E-06 9.14940E-19 7.52573E-19
 -1       761 9.46857E-05-2.72374E-05-2.89063E-05-1.77471E-06 1.17576E-19-1.84183E-19
 -1       762 9.48884E-05-2.75805E-05-2.88462E-05-1.33043E-06 1.19511E-18-1.16249E-18
 -1       763 9.50216E-05-2.78397E-05-2.87922E-05-9.79574E-07 1.07513E-18-2.24574E-18
 -1       764 9.51081E-05-2.80350E-05-2.87456E-05-7.06436E-07-1.33620E-18 3.40531E-19
 -1       765 9.51637E-05-2.81816E-05-2.87066E-05-4.96794E-07-2.27539E-18 3.19775E-18
 -1       766 9.51986E-05-2.82913E-05-2.86745E-05-3.38234E-07-1.44880E-18 2.47542E-18
 -1       767 9.52198E-05-2.83731E-05-2.86486E-05-2.20241E-07-1.12961E-19 1.17352E-18
 -1       768 9.52322E-05-2.84339E-05-2.86278E-05-1.34146E-07 5.24549E-19 3.77576E-19
 -1       769 9.52388E-05-2.84793E-05-2.86112E-05-7.30642E-08-8.80151E-19 9.30517E-20
 -1       770 9.52421E-05-2.85139E-05-2.85978E-05-3.10447E-08-6.45356E-19 1.29218E-18
 -1       771 9.58735E-05-2.66855E-05-2.96519E-05-2.22076E-06 8.10426E-19-1.16480E-18
 -1       772 9.56222E-05-2.55689E-05-3.00228E-05-7.45272E-07 8.65718E-19-1.20647E-18
 -1       773 9.80122E-05-3.04637E-05-2.89495E-05-4.84742E-06-1.07566E-19 6.24388E-20
 -1       774 9.70603E-05-2.92865E-05-2.90460E-05-4.65103E-06-2.01377E-19 1.31451E-19
 -1       775 1.01351E-04-3.38300E-05-2.89383E-05-3.82046E-06-5.14646E-20-3.84852E-19
 -1       776 1.03722E-04-3.58184E-05-2.91029E-05-2.23553E-06-3.01384E-19 5.26821E-21
 -1       777 1.06246E-04-3.74755E-05-2.94749E-05 2.87911E-07-6.33098E-19 1.60771E-19
 -1       778 1.08320E-04-3.79980E-05-3.01396E-05 3.67934E-06-5.96620E-19 7.17860E-19
 -1       779 1.09078E-04-3.63959E-05-3.11497E-05 7.31744E-06-8.34154E-20 8.08672E-19
 -1       780 1.07856E-04-3.21493E-05-3.24522E-05 9.82685E-06 5.80243E-19 5.27372E-19
 -1       781 1.04898E-04-2.60443E-05-3.38060E-05 9.35827E-06 7.86708E-19 9.74818E-19
 -1       782 1.01959E-04-2.09013E-05-3.47397E-05 4.98612E-06 6.72973E-19 1.15043E-18
 -1       783 1.01027E-04-1.94005E-05-3.50005E-05-1.80329E-06 5.54218E-19 1.07617E-18
 -1       784 1.03168E-04-2.28965E-05-3.44082E-05-7.80057E-06-9.15591E-20-1.03192E-19
 -1       785 1.06353E-04-2.88618E-05-3.32266E-05-1.03958E-05 7.73705E-19-1.73509E-19
 -1       786 1.08585E-04-3.42482E-05-3.18633E-05-9.32594E-06 5.46333E-19-7.53997E-19
 -1       787 1.08789E-04-3.71809E-05-3.06868E-05-6.18226E-06 7.21665E-19 2.67996E-19
 -1       788 1.07271E-04-3.76276E-05-2.98457E-05-2.63587E-06 1.65124E-18 3.35415E-19
 -1       789 1.04847E-04-3.64147E-05-2.93300E-05 2.54174E-07 6.44969E-19 5.10348E-20
 -1       790 1.02290E-04-3.44972E-05-2.90553E-05 2.20358E-06-2.29291E-19 1.12806E-18
 -1       791 1.00050E-04-3.25352E-05-2.89354E-05 3.28787E-06-1.00427E-18 1.58799E-18
 -1       792 9.82987E-05-3.08693E-05-2.88986E-05 3.72043E-06-1.20968E-18 1.74661E-18
 -1       793 9.70393E-05-2.96148E-05-2.88963E-05 3.71760E-06-1.53270E-18 1.03745E-18
 -1       794 9.61941E-05-2.87589E-05-2.89008E-05 3.45320E-06-8.46448E-19 1.51468E-18
 -1       795 9.56636E-05-2.82327E-05-2.88989E-05 3.05213E-06 3.61231E-19 8.78346E-19
 -1       796 9.53551E-05-2.79532E-05-2.88865E-05 2.59858E-06-2.38934E-19 1.26245E-20
 -1       797 9.51937E-05-2.78440E-05-2.88641E-05 2.14607E-06 9.10236E-20-1.43304E-18
 -1       798 9.51237E-05-2.78429E-05-2.88346E-05 1.72607E-06 1.13091E-18-7.55503E-19
 -1       799 9.51063E-05-2.79036E-05-2.88011E-05 1.35483E-06 1.30207E-18-1.68927E-18
 -1       800 9.51163E-05-2.79940E-05-2.87667E-05 1.03847E-06 7.43331E-19-2.15398E-18
 -1       801 9.51380E-05-2.80933E-05-2.87334E-05 7.76710E-07-2.76893E-19-3.14461E-19
 -1       802 9.51624E-05-2.81890E-05-2.87028E-05 5.65540E-07 1.99391E-20-4.22419E-19
 -1       803 9.51847E-05-2.82747E-05-2.86757E-05 3.99035E-07-7.48908E-19 1.27142E-19
 -1       804 9.52031E-05-2.83475E-05-2.86524E-05 2.70594E-07-9.88420E-19 2.59056E-18
 -1       805 9.52170E-05-2.84073E-05-2.86327E-05 1.73778E-07-9.16234E-19 1.45652E-18
 -1       806 9.52266E-05-2.84551E-05-2.86164E-05 1.02566E-07 4.16753E-19 1.47216E-19
 -1       807 9.52332E-05-2.84934E-05-2.86028E-05 5.24138E-08 1.61221E-18 2.31604E-18
 -1       808 9.52364E-05-2.85172E-05-2.85939E-05 2.48042E-08 3.21284E-19 8.87936E-19
 -1       809 9.52080E-05-2.84660E-05-2.86037E-05-2.86656E-08-1.27066E-18 2.86354E-18
 -1       810 9.52242E-05-2.84882E-05-2.86011E-05-3.22088E-08-9.34907E-19 1.45607E-18
 -1       811 9.51958E-05-2.84509E-05-2.86050E-05-1.83386E-08-2.18825E-18 1.49121E-18
 -1       812 1.27967E-04-3.68563E-05-3.92816E-05 1.14583E-05 8.89332E-19 2.24138E-18
 -1       813 9.51931E-05-2.84496E-05-2.86044E-05 1.16837E-08-5.80002E-19-2.16758E-18
 -1       814 9.51471E-05-4.23767E-05-2.24726E-05 3.19405E-05-2.46592E-18-7.33292E-19
 -1       815 1.15770E-04-5.25064E-05-2.70389E-05 2.11641E-05-2.70030E-18-1.57176E-18
 -1       816 9.51903E-05-2.84449E-05-2.86052E-05-3.57802E-09-1.11371E-18 8.02044E-19
 -1       817 9.47409E-05-2.38794E-05-3.03693E-05 3.06648E-07-7.04391E-19-9.71281E-19
 -1       818 1.21251E-04-5.43906E-05-2.86230E-05-1.63904E-05-1.97644E-18-3.70636E-19
 -1       819 9.95802E-05-4.49564E-05-2.33231E-05-3.03955E-05-2.07547E-18-1.21377E-18
 -1       820 4.91927E-05-1.33622E-05-1.49915E-05-1.80174E-05 1.60447E-19-3.28649E-18
 -1       821 1.11853E-04-1.07020E-05-4.36558E-05-3.44697E-06 1.83158E-18-1.37033E-18
 -1       822 4.54267E-05-1.02336E-05-1.47506E-05 3.83384E-06 4.78415E-19-1.49181E-18
 -1       823 9.17691E-05-1.81333E-05-3.15592E-05 5.27857E-07 3.06737E-19-1.92685E-18
 -1       824 1.15927E-04-1.88644E-05-4.18507E-05-1.17438E-05 5.52980E-19-2.53445E-18
 -1       825 7.51177E-05-2.98454E-05-1.91375E-05-3.25637E-05-1.11099E-18-2.09892E-18
 -1       826 7.26991E-05-2.54639E-05-1.99583E-05-2.69365E-05 7.38937E-19 9.98705E-19
 -1       827 7.51063E-05-2.84208E-05-1.97944E-05 3.11970E-05-2.31056E-18-4.36004E-19
 -1       828 1.17266E-04-2.94603E-05-3.77574E-05-1.29712E-05 1.86979E-19-2.33213E-18
 -1       829 9.64649E-05-2.83609E-05-2.91874E-05-4.13374E-06 4.57980E-19-1.96046E-19
 -1       830 9.52267E-05-2.85004E-05-2.85969E-05 2.64722E-08 4.33323E-19 2.72939E-18
 -1       831 5.05129E-05-1.03372E-05-1.68945E-05 9.35531E-06-1.50600E-18 7.39447E-19
 -1       832 1.24696E-04-5.23420E-05-3.10619E-05-6.03799E-06-9.33023E-19 4.54466E-19
 -1       833 6.96994E-05-1.99956E-05-2.10162E-05 2.27066E-05 1.14639E-18-1.50785E-19
 -1       834 1.20138E-04-5.04879E-05-2.98721E-05 8.34669E-06-1.77009E-18-3.00568E-18
 -1       835 9.24199E-05-1.90065E-05-3.14648E-05 1.29719E-06 6.43560E-19-1.63951E-18
 -1       836 9.61092E-05-2.75494E-05-2.93827E-05-3.32971E-06 4.63339E-19-8.77293E-19
 -1       837 9.14588E-05-1.77407E-05-3.15946E-05-2.31388E-07-7.26935E-20-2.14240E-18
 -1       838 9.52030E-05-2.84632E-05-2.86027E-05 2.26441E-08-7.96974E-19-5.17861E-19
 -1       839 9.29319E-05-1.97839E-05-3.13523E-05-2.03548E-06-6.37406E-19-1.65190E-18
 -1       840 9.33479E-05-2.03356E-05-3.12932E-05 2.01469E-06 1.00555E-18-1.38130E-18
 -1       841 1.18641E-04-2.66789E-05-3.96120E-05 1.29132E-05 1.18401E-18 7.76438E-19
 -1       842 9.51744E-05-2.39276E-05-3.05325E-05 1.17708E-06 1.11197E-18-1.24894E-18
 -1       843 5.48218E-05-1.39769E-05-1.74246E-05 1.50358E-05 7.08538E-19 2.43363E-19
 -1       844 6.12543E-05-1.44398E-05-1.98575E-05-1.47768E-05-1.34408E-18-3.49792E-19
 -1       845 1.08645E-04-1.32724E-05-4.10597E-05 3.97235E-06 1.64450E-18-1.19553E-18
 -1       846 9.44301E-05-2.24041E-05-3.08679E-05-1.64571E-06-8.34272E-19-1.23731E-18
 -1       847 9.20434E-05-1.85421E-05-3.15022E-05-1.53155E-06-4.04746E-19-1.79952E-18
 -1       848 9.26430E-05-2.37010E-05-2.95469E-05 3.15082E-06-7.02385E-19-9.39692E-19
 -1       849 9.11812E-05-2.30853E-05-2.91840E-05 3.98524E-06-4.30732E-19-7.82821E-19
 -1       850 8.90976E-05-2.19768E-05-2.87665E-05 4.61653E-06-3.08523E-20-9.33639E-19
 -1       851 8.60834E-05-2.03508E-05-2.81714E-05 5.06679E-06 1.70584E-19-7.25956E-19
 -1       852 8.21886E-05-1.84354E-05-2.73235E-05 5.31869E-06 3.71250E-19-5.06860E-19
 -1       853 7.69591E-05-1.62753E-05-2.60041E-05 5.50204E-06 3.05183E-19-7.27746E-19
 -1       854 6.96768E-05-1.39626E-05-2.38659E-05 5.78094E-06 5.38336E-19-1.02073E-18
 -1       855 1.02487E-04-3.56009E-05-2.86656E-05-5.65944E-06-6.12926E-19-3.75959E-20
 -1       856 9.97970E-05-3.30022E-05-2.86261E-05-6.13871E-06 4.82211E-20-3.60229E-19
 -1       857 7.42507E-05-1.49191E-05-2.54112E-05-5.97960E-06-1.74529E-18 6.80779E-19
 -1       858 8.00252E-05-1.72159E-05-2.69169E-05-5.30443E-06-1.26560E-18 8.24048E-19
 -1       859 8.41595E-05-1.92528E-05-2.78181E-05-4.83561E-06 3.71716E-19-4.10054E-19
 -1       860 8.72284E-05-2.10867E-05-2.83470E-05-4.34517E-06 9.72569E-19-8.44720E-19
 -1       861 8.94901E-05-2.26560E-05-2.86433E-05-3.80751E-06 5.66676E-19-1.37557E-18
 -1       862 9.11446E-05-2.39553E-05-2.87954E-05-3.24589E-06-5.64783E-19-7.30516E-19
 -1       863 9.23935E-05-2.50507E-05-2.88613E-05-2.67108E-06-3.27361E-19 2.60480E-18
 -1       864 9.32427E-05-2.58741E-05-2.88722E-05-2.16593E-06-3.25684E-20 2.66803E-18
 -1       865 9.38503E-05-2.65204E-05-2.88557E-05-1.71724E-06 1.14965E-19 2.87535E-18
 -1       866 9.42826E-05-2.70232E-05-2.88255E-05-1.33310E-06-1.79147E-18 2.47549E-18
 -1       867 9.45885E-05-2.74117E-05-2.87901E-05-1.01332E-06-2.59665E-19 4.43719E-19
 -1       868 9.48035E-05-2.77101E-05-2.87543E-05-7.53488E-07 1.71222E-18-1.18284E-18
 -1       869 9.49535E-05-2.79380E-05-2.87209E-05-5.46812E-07 1.01409E-18 1.59071E-18
 -1       870 9.50568E-05-2.81110E-05-2.86911E-05-3.85635E-07-2.24527E-18 3.02243E-18
 -1       871 9.51269E-05-2.82415E-05-2.86652E-05-2.62348E-07-2.04952E-18 1.45013E-18
 -1       872 9.51734E-05-2.83392E-05-2.86432E-05-1.70011E-07 5.07631E-19 1.83718E-18
 -1       873 9.52031E-05-2.84121E-05-2.86247E-05-1.02798E-07 4.53404E-19 9.81282E-19
 -1       874 9.52152E-05-2.84532E-05-2.86123E-05-6.15996E-08-1.04839E-18 1.38685E-18
 -1       875 1.09612E-04-4.68109E-05-2.68518E-05-1.87834E-05-1.56528E-18-9.82491E-19
 -1       876 9.79316E-05-3.09245E-05-2.87172E-05-5.99171E-06 2.00295E-19-3.50466E-19
 -1       877 9.67566E-05-2.93667E-05-2.88814E-05-5.47695E-06-6.55146E-20 5.52043E-20
 -1       878 1.05967E-04-3.84593E-05-2.89330E-05-4.17437E-06-6.79524E-19-1.14118E-19
 -1       879 1.09850E-04-4.08579E-05-2.95720E-05-1.29619E-06-6.31482E-19 1.29927E-19
 -1       880 1.13176E-04-4.14493E-05-3.07473E-05 3.11716E-06-6.57711E-19-1.92903E-19
 -1       881 1.14346E-04-3.85045E-05-3.25221E-05 8.02944E-06-1.18444E-19 9.81510E-19
 -1       882 1.12323E-04-3.11758E-05-3.48001E-05 1.13203E-05 9.04191E-19 6.44740E-19
 -1       883 1.07888E-04-2.18143E-05-3.69558E-05 9.72087E-06 7.87393E-19-8.63510E-20
 -1       884 1.10096E-04-2.59099E-05-3.61228E-05-1.15323E-05 1.21357E-19-1.75168E-18
 -1       885 1.13451E-04-3.48009E-05-3.37370E-05-1.05665E-05 1.71536E-19-8.28751E-19
 -1       886 1.13807E-04-3.99958E-05-3.16320E-05-6.16516E-06-9.66911E-20-1.16372E-18
 -1       887 1.11400E-04-4.11239E-05-3.01239E-05-1.36048E-06 4.33325E-19-1.79290E-19
 -1       888 1.07588E-04-3.93659E-05-2.92420E-05 2.18596E-06 7.51671E-19 1.31343E-18
 -1       889 1.03716E-04-3.65824E-05-2.87731E-05 4.28686E-06-5.92623E-19 1.52077E-18
 -1       890 1.00477E-04-3.37690E-05-2.85892E-05 5.14762E-06-1.07043E-18 1.88763E-18
 -1       891 9.80661E-05-3.14227E-05-2.85615E-05 5.22389E-06-1.07758E-18 2.31579E-18
 -1       892 9.64287E-05-2.96875E-05-2.86034E-05 4.85978E-06-6.98746E-19 2.09027E-18
 -1       893 9.54098E-05-2.85255E-05-2.86647E-05 4.28867E-06-1.31723E-18 1.12710E-18
 -1       894 9.48407E-05-2.78273E-05-2.87200E-05 3.65053E-06 9.95919E-20 2.95331E-19
 -1       895 9.45761E-05-2.74724E-05-2.87587E-05 3.02371E-06 1.88614E-19 5.88477E-19
 -1       896 9.45030E-05-2.73523E-05-2.87788E-05 2.44908E-06 1.30729E-18-4.36467E-19
 -1       897 9.45398E-05-2.73801E-05-2.87827E-05 1.94481E-06 1.01232E-18-6.21298E-19
 -1       898 9.46313E-05-2.74917E-05-2.87741E-05 1.51583E-06 1.75578E-18-3.10952E-19
 -1       899 9.47424E-05-2.76421E-05-2.87573E-05 1.15967E-06 5.48548E-19 5.43869E-19
 -1       900 9.48525E-05-2.78025E-05-2.87357E-05 8.69997E-07 4.31961E-21-6.34813E-19
 -1       901 9.49508E-05-2.79554E-05-2.87123E-05 6.38695E-07-4.65356E-19-5.72604E-19
 -1       902 9.50325E-05-2.80915E-05-2.86890E-05 4.57202E-07-1.35467E-18 2.69511E-19
 -1       903 9.50971E-05-2.82072E-05-2.86671E-05 3.17228E-07-1.15312E-18-2.50155E-19
 -1       904 9.51457E-05-2.83021E-05-2.86473E-05 2.11164E-07-3.04018E-19-6.87795E-19
 -1       905 9.51809E-05-2.83780E-05-2.86298E-05 1.32788E-07-2.77619E-19-4.26667E-19
 -1       906 9.52049E-05-2.84378E-05-2.86145E-05 7.52105E-08-7.15896E-19 2.49660E-19
 -1       907 8.90755E-05-3.45898E-05-2.32950E-05 2.62447E-05-2.36276E-18-1.41164E-18
 -1       908 5.73338E-05-1.08423E-05-1.98582E-05-2.14417E-06-1.81151E-18-2.33715E-19
 -1       909 9.51898E-05-2.84203E-05-2.86155E-05-5.29435E-08-1.37176E-18 2.72672E-18
 -1       910 1.21108E-04-4.16315E-05-3.41548E-05-7.89422E-06-1.17883E-19-3.06100E-18
 -1       911 6.63384E-05-1.91850E-05-2.00664E-05-2.05980E-05-2.41133E-19-2.19485E-18
 -1       912 9.39341E-05-2.31249E-05-3.03468E-05 7.77817E-07-4.92975E-19-1.32803E-18
 -1       913 5.44068E-05-1.03817E-05-1.86209E-05-4.75052E-06 7.82251E-19-2.04253E-18
 -1       914 1.05536E-04-4.51143E-05-2.58762E-05 2.21669E-05-3.48899E-18-1.85801E-18
 -1       915 9.51702E-05-2.83970E-05-2.86171E-05-3.42902E-08-1.53123E-18 2.81947E-18
 -1       916 9.15429E-05-1.78683E-05-3.15770E-05-9.24817E-07-2.34093E-19-1.89849E-18
 -1       917 9.52431E-05-2.51348E-05-3.00467E-05-1.44031E-06 6.02916E-19-1.11838E-18
 -1       918 9.47604E-05-2.35233E-05-3.05307E-05 1.32262E-07 8.98882E-19-1.23622E-18
 -1       919 1.24524E-04-4.34687E-05-3.48240E-05 6.88701E-06 6.04404E-19 8.85348E-19
 -1       920 1.07065E-04-1.69570E-05-3.87809E-05-7.37792E-06 7.83605E-19-1.28941E-18
 -1       921 9.41487E-05-2.20501E-05-3.08968E-05 1.08676E-06 9.18388E-19-1.31758E-18
 -1       922 9.35566E-05-2.37476E-05-2.99187E-05 2.09281E-06-6.52664E-19-1.15674E-18
 -1       923 6.80634E-05-1.35798E-05-2.32706E-05-9.07424E-06-1.73386E-18 1.67445E-19
 -1       924 8.85160E-05-3.47928E-05-2.29565E-05-2.71675E-05-7.89213E-19-9.97064E-19
 -1       925 6.67445E-05-1.74741E-05-2.10466E-05 1.74153E-05-1.93073E-18 6.99199E-20
 -1       926 9.60853E-05-2.82013E-05-2.90932E-05-4.73885E-06-6.32579E-20-1.80133E-19
 -1       927 1.19124E-04-4.58808E-05-3.13693E-05-1.08017E-06-1.02934E-18-2.19077E-18
 -1       928 1.14984E-04-4.86047E-05-2.84559E-05-1.20718E-05-1.62727E-18-4.47342E-19
 -1       929 1.12951E-04-4.70669E-05-2.82521E-05 1.22716E-05-2.59128E-18-1.76901E-18
 -1       930 9.51704E-05-2.84002E-05-2.86158E-05 3.53770E-08-1.97309E-18-8.78089E-19
 -1       931 9.25532E-05-2.01035E-05-3.10499E-05-2.61148E-07 1.60677E-19-1.85603E-18
 -1       932 7.80249E-05-2.36206E-05-2.32716E-05 1.92503E-05-1.76135E-18-7.55501E-19
 -1       933 9.51607E-05-2.83870E-05-2.86173E-05-9.08766E-09-4.72865E-19-1.23262E-18
 -1       934 6.58902E-05-1.39430E-05-2.22107E-05 8.57339E-06-1.02458E-18 6.54283E-20
 -1       935 9.51618E-05-2.83889E-05-2.86169E-05 1.40999E-08-1.18339E-18-7.58284E-19
 -1       936 9.30807E-05-2.07796E-05-3.09848E-05 5.20106E-08 3.87331E-19-1.51821E-18
 -1       937 9.36463E-05-2.17684E-05-3.08038E-05-5.48664E-07-4.25782E-19-1.52573E-18
 -1       938 9.55017E-05-2.62928E-05-2.96611E-05-2.74508E-06 3.80938E-19-7.35932E-19
 -1       939 9.28756E-05-2.06587E-05-3.09496E-05-5.89143E-07-3.22519E-19-1.54776E-18
 -1       940 7.56476E-05-1.58170E-05-2.56283E-05 7.25007E-07-1.54195E-18 3.08267E-19
 -1       941 9.82147E-05-3.77944E-05-2.58639E-05-1.94222E-05-3.61169E-19-1.04504E-18
 -1       942 8.94925E-05-2.21970E-05-2.88414E-05 2.05122E-06-2.84433E-19-6.90264E-19
 -1       943 8.68164E-05-2.09597E-05-2.82241E-05 1.76118E-06 2.19425E-19-9.87943E-19
 -1       944 8.33989E-05-1.94126E-05-2.74225E-05 9.89109E-07 4.36369E-19-1.03352E-18
 -1       945 7.88933E-05-1.75995E-05-2.62651E-05-3.98102E-07 1.82292E-19-1.09456E-18
 -1       946 7.27438E-05-1.55617E-05-2.44898E-05-2.59070E-06 2.36458E-20-1.14050E-18
 -1       947 1.08069E-04-4.13860E-05-2.85639E-05-7.66661E-06-8.36361E-19-1.02586E-18
 -1       948 1.20606E-04-3.66454E-05-3.60433E-05 1.11023E-05 1.05243E-18-1.62015E-19
 -1       949 6.78360E-05-1.54517E-05-2.24113E-05-9.94521E-06-5.06400E-21-1.30594E-18
 -1       950 9.13314E-05-2.29207E-05-2.93192E-05 1.92921E-06-4.59403E-19-7.56571E-19
 -1       951 8.07001E-05-1.79663E-05-2.68851E-05-5.26023E-07-9.40503E-19 3.40360E-19
 -1       952 8.44051E-05-1.98076E-05-2.76857E-05-1.33411E-06 2.36460E-19 7.11794E-19
 -1       953 8.71909E-05-2.14366E-05-2.81809E-05-1.73208E-06-2.75892E-19 3.65404E-19
 -1       954 8.92931E-05-2.28414E-05-2.84795E-05-1.83963E-06 4.53981E-19-6.27550E-19
 -1       955 9.09403E-05-2.40762E-05-2.86562E-05-1.75546E-06 9.20110E-19-6.87292E-19
 -1       956 9.21066E-05-2.50425E-05-2.87418E-05-1.57079E-06 5.06650E-19 8.72777E-20
 -1       957 9.29760E-05-2.58285E-05-2.87775E-05-1.34022E-06-2.75931E-19 6.72536E-19
 -1       958 9.36202E-05-2.64597E-05-2.87831E-05-1.10182E-06-9.80180E-19-5.19079E-19
 -1       959 9.40945E-05-2.69613E-05-2.87714E-05-8.77644E-07-1.85959E-18 3.50668E-19
 -1       960 9.44412E-05-2.73562E-05-2.87507E-05-6.79273E-07-3.11491E-19-8.69927E-19
 -1       961 9.46924E-05-2.76643E-05-2.87263E-05-5.11221E-07 3.39669E-18-5.38668E-19
 -1       962 9.48725E-05-2.79025E-05-2.87014E-05-3.73628E-07 8.93341E-19-4.53603E-20
 -1       963 9.49996E-05-2.80851E-05-2.86777E-05-2.64130E-07-1.84580E-18 1.90014E-18
 -1       964 9.50879E-05-2.82238E-05-2.86561E-05-1.79318E-07-1.40132E-18 2.44182E-18
 -1       965 9.51474E-05-2.83280E-05-2.86369E-05-1.15869E-07-5.42971E-20 8.73123E-19
 -1       966 9.51708E-05-2.83773E-05-2.86258E-05-8.03129E-08 1.74985E-19 1.33105E-18
 -1       967 9.72372E-05-3.10922E-05-2.83471E-05-7.58766E-06 6.79027E-20-7.33527E-19
 -1       968 9.23722E-05-1.99026E-05-3.10584E-05-4.85411E-07-6.47106E-20-1.97968E-18
 -1       969 1.03096E-04-3.72974E-05-2.82016E-05-8.70667E-06-3.19646E-19-9.77580E-19
 -1       970 9.59097E-05-2.91852E-05-2.85961E-05-6.51212E-06 9.55086E-20-7.54975E-19
 -1       971 1.13854E-04-4.48820E-05-2.95580E-05-4.38219E-06-4.85505E-19-4.79875E-19
 -1       972 1.10517E-04-4.28760E-05-2.89815E-05 5.75913E-06-9.67054E-19-7.88904E-19
 -1       973 1.04846E-04-3.87558E-05-2.83206E-05 7.76498E-06-1.38508E-19 1.34112E-18
 -1       974 1.00421E-04-3.48531E-05-2.80977E-05 8.01305E-06-5.22332E-19 8.40004E-19
 -1       975 9.73309E-05-3.17309E-05-2.81131E-05 7.39022E-06-1.89536E-18-3.73824E-21
 -1       976 9.53770E-05-2.95082E-05-2.82297E-05 6.37895E-06-1.12088E-18 2.57585E-19
 -1       977 9.42676E-05-2.80711E-05-2.83700E-05 5.29793E-06-1.05395E-18 1.78369E-18
 -1       978 9.37360E-05-2.72405E-05-2.84980E-05 4.29017E-06 2.95430E-19 1.13033E-18
 -1       979 9.35771E-05-2.68465E-05-2.85988E-05 3.40987E-06-2.45136E-19 6.95046E-19
 -1       980 9.36401E-05-2.67454E-05-2.86692E-05 2.67074E-06 9.90795E-19-1.90362E-19
 -1       981 9.38199E-05-2.68254E-05-2.87119E-05 2.06535E-06 7.27552E-19-6.74595E-19
 -1       982 9.40477E-05-2.70054E-05-2.87325E-05 1.57784E-06 1.54551E-18-9.19699E-19
 -1       983 9.42813E-05-2.72295E-05-2.87365E-05 1.19028E-06 5.70191E-20 3.29752E-19
 -1       984 9.44968E-05-2.74617E-05-2.87294E-05 8.85534E-07 7.50300E-19 1.00167E-18
 -1       985 9.46827E-05-2.76804E-05-2.87153E-05 6.48339E-07-1.67773E-19 9.88371E-19
 -1       986 9.48353E-05-2.78744E-05-2.86976E-05 4.65608E-07-6.16748E-19 2.28091E-18
 -1       987 9.49556E-05-2.80391E-05-2.86785E-05 3.26449E-07-5.20875E-19 1.47529E-18
 -1       988 9.50471E-05-2.81746E-05-2.86597E-05 2.21736E-07-3.70016E-19 1.14550E-18
 -1       989 9.51140E-05-2.82829E-05-2.86419E-05 1.43625E-07-4.22955E-19 1.67014E-18
 -1       990 9.51613E-05-2.83679E-05-2.86257E-05 8.63183E-08-4.30956E-19-4.59036E-20
 -1       991 9.80717E-05-3.77204E-05-2.58621E-05 1.92003E-05-2.08257E-18-2.03053E-18
 -1       992 9.43450E-05-2.33043E-05-3.04467E-05-7.08513E-07 7.41844E-19-9.70430E-19
 -1       993 9.51432E-05-2.83457E-05-2.86275E-05-5.30086E-08 8.38604E-19 3.77129E-18
 -1       994 9.25162E-05-2.01329E-05-3.10206E-05-5.70328E-07-2.18918E-19-1.81701E-18
 -1       995 9.57233E-05-2.72403E-05-2.93498E-05-3.83113E-06 7.32838E-20-4.56226E-19
 -1       996 9.25496E-05-2.31053E-05-2.97629E-05 1.48675E-06-3.45067E-19-9.27147E-19
 -1       997 1.19745E-04-4.61753E-05-3.15799E-05 1.61215E-06-7.58761E-19 7.16024E-20
 -1       998 9.32057E-05-2.20800E-05-3.04823E-05 2.51258E-07-2.20192E-19-1.47588E-18
 -1       999 7.98867E-05-2.54633E-05-2.32987E-05-2.02931E-05-5.47340E-19-1.76326E-18
 -1      1000 9.35581E-05-2.12927E-05-3.09694E-05 5.36949E-07 7.08034E-19-1.25987E-18
 -1      1001 9.30523E-05-2.27981E-05-3.01089E-05 9.29130E-07-4.26096E-19-1.28130E-18
 -1      1002 9.95443E-05-3.37787E-05-2.81841E-05-8.44349E-06-3.58166E-19-6.08308E-19
 -1      1003 9.52452E-05-2.78421E-05-2.88868E-05-5.39277E-06-1.73185E-19-6.33929E-19
 -1      1004 1.07377E-04-4.26504E-05-2.77333E-05-1.26899E-05-1.12386E-18-9.42046E-19
 -1      1005 8.78851E-05-2.87714E-05-2.53187E-05 1.70787E-05-2.10516E-18-1.95808E-18
 -1      1006 9.47212E-05-2.47817E-05-2.99728E-05-1.99195E-06 2.61999E-19-1.00944E-18
 -1      1007 9.29096E-05-2.15817E-05-3.05686E-05-6.10643E-07 1.40653E-19-1.88599E-18
 -1      1008 7.37298E-05-1.85233E-05-2.36379E-05 1.28673E-05-1.05022E-18-4.35166E-19
 -1      1009 9.51284E-05-2.83303E-05-2.86277E-05-1.58795E-08 2.81623E-19-2.04898E-18
 -1      1010 9.51191E-05-2.83107E-05-2.86323E-05 6.06688E-08-2.24058E-19-9.44664E-19
 -1      1011 9.33436E-05-2.20883E-05-3.05390E-05-7.89647E-07 2.21995E-19-1.41538E-18
 -1      1012 1.00241E-04-3.68368E-05-2.71757E-05-1.37307E-05-2.25576E-19-9.86729E-19
 -1      1013 9.04821E-05-2.27206E-05-2.90412E-05 7.12219E-08-3.04383E-19-1.44953E-18
 -1      1014 8.95244E-05-2.95558E-05-2.56915E-05-1.63510E-05 9.49206E-20-1.12729E-18
 -1      1015 8.59310E-05-2.11965E-05-2.77428E-05-1.99358E-06 8.15967E-20-1.28488E-18
 -1      1016 8.27763E-05-2.02153E-05-2.68065E-05-4.13971E-06 1.64367E-19-1.58352E-18
 -1      1017 7.87824E-05-1.92989E-05-2.54874E-05-7.44300E-06 4.47214E-19-1.45183E-18
 -1      1018 7.96629E-05-1.86161E-05-2.61608E-05 4.95076E-06-9.17941E-19 8.01832E-19
 -1      1019 8.31767E-05-1.98957E-05-2.71201E-05 2.68038E-06 4.07076E-19 1.44640E-18
 -1      1020 8.59110E-05-2.11434E-05-2.77579E-05 1.15118E-06-7.91260E-19 7.35901E-19
 -1      1021 8.80809E-05-2.23451E-05-2.81726E-05 2.20307E-07-4.86279E-19 2.72802E-20
 -1      1022 8.98655E-05-2.34955E-05-2.84446E-05-3.20842E-07 3.05248E-19-8.11065E-19
 -1      1023 9.11886E-05-2.44587E-05-2.85987E-05-5.64214E-07 1.82725E-19-2.08688E-18
 -1      1024 9.22176E-05-2.52856E-05-2.86853E-05-6.41779E-07-1.23457E-19-2.19173E-18
 -1      1025 9.30107E-05-2.59803E-05-2.87274E-05-6.22904E-07 5.74870E-20-5.81617E-19
 -1      1026 9.36163E-05-2.65535E-05-2.87413E-05-5.53711E-07-1.19003E-18-2.40781E-19
 -1      1027 9.40742E-05-2.70195E-05-2.87378E-05-4.63841E-07-8.65848E-19 1.37787E-18
 -1      1028 9.44168E-05-2.73930E-05-2.87245E-05-3.71133E-07 1.21674E-18 2.13822E-18
 -1      1029 9.46699E-05-2.76887E-05-2.87063E-05-2.85419E-07 1.71298E-18-5.80724E-19
 -1      1030 9.48541E-05-2.79196E-05-2.86862E-05-2.11432E-07 5.58343E-19-1.04077E-18
 -1      1031 9.49859E-05-2.80982E-05-2.86662E-05-1.50190E-07-3.45559E-19 1.88643E-18
 -1      1032 9.50777E-05-2.82340E-05-2.86473E-05-1.02598E-07-1.18585E-18 3.17817E-18
 -1      1033 9.51133E-05-2.82934E-05-2.86371E-05-7.49782E-08 5.69154E-19 3.37674E-18
 -1      1034 9.42398E-05-2.85081E-05-2.81725E-05-7.71792E-06 2.26672E-19-1.11460E-18
 -1      1035 9.55094E-05-3.14370E-05-2.74605E-05 1.02756E-05-1.29932E-18-2.66026E-19
 -1      1036 9.90569E-05-3.53446E-05-2.73065E-05 1.21170E-05 5.01728E-19 6.98912E-19
 -1      1037 9.34815E-05-2.87768E-05-2.77309E-05 8.23461E-06-1.42276E-18-3.64633E-19
 -1      1038 9.25330E-05-2.72054E-05-2.79972E-05 6.42067E-06-1.41323E-18-2.64793E-19
 -1      1039 9.22128E-05-2.63496E-05-2.82269E-05 4.91354E-06-1.44914E-19-8.55836E-19
 -1      1040 9.22898E-05-2.60044E-05-2.84079E-05 3.70623E-06 4.74127E-19-1.50374E-18
 -1      1041 9.25799E-05-2.59880E-05-2.85394E-05 2.76796E-06 2.38024E-19-5.52258E-20
 -1      1042 9.29641E-05-2.61665E-05-2.86276E-05 2.05155E-06 1.37185E-18 2.49913E-19
 -1      1043 9.33688E-05-2.64463E-05-2.86811E-05 1.51034E-06 1.19936E-18-6.57576E-19
 -1      1044 9.37516E-05-2.67650E-05-2.87086E-05 1.10431E-06-3.03410E-19-5.91703E-19
 -1      1045 9.40902E-05-2.70828E-05-2.87175E-05 8.01130E-07-7.68325E-20-5.55193E-19
 -1      1046 9.43758E-05-2.73766E-05-2.87140E-05 5.75542E-07 1.87586E-19 1.52356E-18
 -1      1047 9.46079E-05-2.76347E-05-2.87028E-05 4.08248E-07-1.25752E-18 1.72485E-18
 -1      1048 9.47903E-05-2.78530E-05-2.86875E-05 2.84577E-07 1.02714E-19 1.36660E-18
 -1      1049 9.49298E-05-2.80325E-05-2.86703E-05 1.94241E-07 2.14563E-19 6.22139E-19
 -1      1050 9.50331E-05-2.81762E-05-2.86529E-05 1.28417E-07-3.11939E-19-1.25932E-19
 -1      1051 9.51050E-05-2.82932E-05-2.86335E-05 2.37662E-08-9.79027E-19 1.27064E-19
 -1      1052 9.64842E-05-3.25346E-05-2.74205E-05-1.16087E-05-2.75171E-19-7.18341E-19
 -1      1053 9.28799E-05-2.15931E-05-3.05483E-05-1.37940E-07-3.42208E-19-1.62738E-18
 -1      1054 7.78500E-05-2.10140E-05-2.43495E-05-1.33310E-05 1.22540E-19-1.82258E-18
 -1      1055 9.18437E-05-2.29160E-05-2.95406E-05 3.26414E-07-2.82854E-19-1.37642E-18
 -1      1056 8.85090E-05-2.20958E-05-2.84629E-05-6.48151E-07-1.65050E-19-1.25367E-18
 -1      1057 9.49550E-05-3.01185E-05-2.77901E-05-9.51557E-06 9.48326E-20-1.13981E-18
 -1      1058 1.03150E-04-3.92576E-05-2.73797E-05 1.30411E-05-1.47974E-18-4.67670E-19
 -1      1059 9.37911E-05-2.71277E-05-2.85703E-05-6.03151E-06 9.20041E-20-7.22871E-19
 -1      1060 9.49669E-05-2.68210E-05-2.92067E-05-4.27850E-06 7.03944E-20-4.61664E-19
 -1      1061 9.32271E-05-2.29801E-05-3.01045E-05-1.24548E-06-8.47457E-20-1.66133E-18
 -1      1062 9.50923E-05-2.82723E-05-2.86372E-05-2.78132E-08-3.47561E-19 1.31567E-18
 -1      1063 9.48599E-05-2.58735E-05-2.95648E-05-3.15492E-06 9.05965E-20-7.31789E-19
 -1      1064 8.27460E-05-2.37573E-05-2.52710E-05 1.38969E-05-1.82981E-18-1.90702E-18
 -1      1065 9.50037E-05-2.81435E-05-2.86544E-05 6.22951E-08 3.67371E-19-2.67435E-18
 -1      1066 9.27829E-05-2.24196E-05-3.01582E-05 2.26751E-07-8.52232E-20-1.53627E-18
 -1      1067 9.43595E-05-3.28187E-05-2.63685E-05 1.52983E-05-1.30831E-18-2.78454E-19
 -1      1068 9.27890E-05-2.14605E-05-3.05691E-05-4.07189E-07-9.72584E-20-1.58062E-18
 -1      1069 9.28718E-05-2.25949E-05-3.01194E-05-7.94766E-07-9.72070E-20-1.53359E-18
 -1      1070 9.24271E-05-2.27711E-05-2.98476E-05 3.45850E-07-3.50901E-20-1.57295E-18
 -1      1071 9.39137E-05-2.37650E-05-3.00621E-05-1.71107E-06 2.81711E-19-7.42282E-19
 -1      1072 8.49718E-05-2.31825E-05-2.64861E-05-9.18960E-06-9.79389E-20-1.60962E-18
 -1      1073 8.42154E-05-2.17615E-05-2.67752E-05 6.98398E-06 3.26521E-20-1.53279E-18
 -1      1074 8.61429E-05-2.20912E-05-2.74513E-05 4.41294E-06-7.01533E-19-2.17978E-18
 -1      1075 8.78704E-05-2.27129E-05-2.79258E-05 2.66574E-06-1.54278E-18-1.62176E-18
 -1      1076 8.94318E-05-2.34943E-05-2.82598E-05 1.47133E-06-2.48298E-21-1.79580E-18
 -1      1077 9.06849E-05-2.42670E-05-2.84652E-05 7.58272E-07-4.17242E-19-2.40576E-18
 -1      1078 9.17208E-05-2.50027E-05-2.85937E-05 3.25049E-07 5.43872E-19-9.32891E-19
 -1      1079 9.25614E-05-2.56692E-05-2.86682E-05 7.74464E-08 1.14825E-18-7.22455E-19
 -1      1080 9.32323E-05-2.62517E-05-2.87060E-05-5.14558E-08 4.47643E-19 1.43398E-19
 -1      1081 9.37594E-05-2.67469E-05-2.87196E-05-1.07759E-07-5.94579E-19-9.84766E-20
 -1      1082 9.41671E-05-2.71586E-05-2.87179E-05-1.22173E-07 2.45539E-19-1.22151E-18
 -1      1083 9.44775E-05-2.74942E-05-2.87071E-05-1.14432E-07 6.87062E-19-1.64185E-18
 -1      1084 9.47099E-05-2.77631E-05-2.86915E-05-9.65329E-08 1.57070E-18-2.43353E-20
 -1      1085 9.48805E-05-2.79750E-05-2.86739E-05-7.67046E-08 1.51428E-18 1.82566E-19
 -1      1086 9.50024E-05-2.81385E-05-2.86560E-05-5.80033E-08 1.74111E-19 1.47723E-18
 -1      1087 9.50526E-05-2.82104E-05-2.86464E-05-3.96910E-08 1.99434E-19 2.34582E-18
 -1      1088 9.16276E-05-2.90428E-05-2.68422E-05 1.18416E-05-2.52227E-19 1.43837E-18
 -1      1089 8.99073E-05-2.57238E-05-2.75105E-05 7.53757E-06-1.67206E-18-5.23767E-19
 -1      1090 9.05318E-05-2.70100E-05-2.72312E-05 9.51586E-06-3.82284E-19 1.48262E-19
 -1      1091 9.01069E-05-2.50208E-05-2.78925E-05 5.40355E-06-4.55731E-19-1.00426E-18
 -1      1092 9.06317E-05-2.48695E-05-2.81828E-05 3.82298E-06-1.95993E-19-8.75530E-20
 -1      1093 9.12885E-05-2.50412E-05-2.83912E-05 2.67547E-06-3.10246E-19 1.69742E-19
 -1      1094 9.19670E-05-2.53883E-05-2.85335E-05 1.85642E-06 9.26233E-19 7.35159E-21
 -1      1095 9.26048E-05-2.58140E-05-2.86245E-05 1.27898E-06 1.51345E-18-3.10770E-19
 -1      1096 9.31706E-05-2.62562E-05-2.86775E-05 8.76091E-07 1.09900E-18 2.11090E-19
 -1      1097 9.36522E-05-2.66772E-05-2.87035E-05 5.97045E-07-7.47085E-19-6.60278E-19
 -1      1098 9.40489E-05-2.70564E-05-2.87110E-05 4.04706E-07-8.66493E-19 1.11305E-19
 -1      1099 9.43667E-05-2.73845E-05-2.87067E-05 2.72490E-07 1.12464E-19 5.09492E-19
 -1      1100 9.46150E-05-2.76595E-05-2.86952E-05 1.81729E-07 6.92648E-19-4.85868E-19
 -1      1101 9.48037E-05-2.78836E-05-2.86799E-05 1.19781E-07 1.00612E-18-1.94149E-18
 -1      1102 9.49151E-05-2.80246E-05-2.86673E-05 8.79741E-08 1.06389E-18-2.52026E-18
 -1      1103 8.68997E-05-2.29305E-05-2.74150E-05-5.97921E-06-5.25285E-20-1.34599E-18
 -1      1104 8.61944E-05-2.55718E-05-2.59911E-05-1.28010E-05-1.05151E-20-1.63927E-18
 -1      1105 9.16477E-05-2.32935E-05-2.92954E-05-1.25255E-06-3.40785E-19-1.71213E-18
 -1      1106 9.17108E-05-2.85588E-05-2.70544E-05-1.14400E-05-3.85105E-19-2.96534E-19
 -1      1107 9.37418E-05-2.61535E-05-2.89679E-05-4.60514E-06-2.16567E-19-8.66959E-19
 -1      1108 9.15728E-05-2.71261E-05-2.76201E-05-8.84267E-06 3.46574E-20-8.40807E-19
 -1      1109 9.38948E-05-2.48264E-05-2.96014E-05-2.75222E-06 3.03724E-20-7.74225E-19
 -1      1110 9.03660E-05-2.32662E-05-2.87573E-05-2.20445E-06-1.37566E-19-1.81575E-18
 -1      1111 9.16386E-05-2.59126E-05-2.81676E-05-6.47914E-06 1.73822E-19-1.26676E-18
 -1      1112 9.22112E-05-2.31186E-05-2.96113E-05-8.19182E-07-2.35833E-19-1.70573E-18
 -1      1113 8.79351E-05-2.69228E-05-2.61244E-05 1.33681E-05-7.06678E-19-3.25997E-19
 -1      1114 9.27351E-05-2.34756E-05-2.96819E-05-1.56894E-06-3.42216E-19-1.67575E-18
 -1      1115 8.87598E-05-2.30732E-05-2.81518E-05-3.71850E-06 2.08870E-19-1.68499E-18
 -1      1116 9.20621E-05-2.42433E-05-2.90606E-05-2.98801E-06-2.57831E-19-1.03258E-18
 -1      1117 9.21037E-05-2.52038E-05-2.86719E-05-4.66641E-06-1.24030E-19-1.15486E-18
 -1      1118 9.24114E-05-2.38856E-05-2.93687E-05-2.21190E-06-1.41652E-19-1.31184E-18
 -1      1119 1.16348E-04 2.56515E-10-4.17194E-05-4.10447E-05-2.20652E-19 8.98893E-18
 -1      1120 8.87125E-05 7.27372E-11-3.72568E-05-2.36861E-05-1.33514E-19 1.97300E-18
 -1      1121 8.42930E-05 4.20725E-11-3.58401E-05-1.72848E-05-9.56618E-20-1.25921E-18
 -1      1122 8.25629E-05 3.20728E-11-3.51613E-05-1.31855E-05-6.42686E-20-2.84262E-18
 -1      1123 8.16954E-05 2.67769E-11-3.48094E-05-9.89980E-06-4.85720E-20-3.61098E-18
 -1      1124 8.11976E-05 2.34670E-11-3.46117E-05-7.09797E-06-2.46963E-20-4.02900E-18
 -1      1125 8.08957E-05 2.13718E-11-3.44946E-05-4.59177E-06-1.49422E-20-4.23843E-18
 -1      1126 8.07279E-05 2.02264E-11-3.44307E-05-2.24296E-06-4.44361E-21-4.23701E-18
 -1      1127 8.06747E-05 1.99150E-11-3.44101E-05 2.44899E-08 5.50489E-21-4.22754E-18
 -1      1128 8.07289E-05 2.03917E-11-3.44297E-05 2.30141E-06 2.15629E-20-4.20394E-18
 -1      1129 8.08950E-05 2.16759E-11-3.44917E-05 4.67706E-06 3.25975E-20-4.02484E-18
 -1      1130 8.11937E-05 2.38427E-11-3.46059E-05 7.22283E-06 4.37281E-20-3.66458E-18
 -1      1131 8.16876E-05 2.72364E-11-3.48023E-05 1.00717E-05 5.87232E-20-3.12106E-18
 -1      1132 8.25535E-05 3.26419E-11-3.51571E-05 1.34150E-05 7.81388E-20-2.19499E-18
 -1      1133 8.42644E-05 4.25147E-11-3.58501E-05 1.75617E-05 1.10538E-19-4.65643E-19
 -1      1134 8.84100E-05 6.75958E-11-3.73270E-05 2.35527E-05 1.22079E-19 2.86572E-18
 -1      1135 1.06266E-04 1.64138E-10-4.05282E-05 3.58221E-05 2.44369E-19 9.72680E-18
 -1      1136 1.29458E-04-2.56513E-05-4.01051E-05-2.58228E-05-9.43277E-19 1.34754E-17
 -1      1137 9.73080E-05-2.88227E-05-3.15311E-05-6.41077E-07-2.93073E-19 1.12865E-17
 -1      1138 9.04559E-05-2.71220E-05-2.79775E-05 3.90588E-07-1.27770E-19 8.20420E-18
 -1      1139 8.89688E-05-2.67960E-05-2.68651E-05 2.50526E-07-7.60245E-20 6.11629E-18
 -1      1140 8.91321E-05-2.68286E-05-2.67736E-05 1.66821E-07-3.53487E-20 4.79161E-18
 -1      1141 9.01960E-05-2.71206E-05-2.70783E-05 1.22825E-07-5.71168E-20 3.87676E-18
 -1      1142 9.18646E-05-2.76046E-05-2.75860E-05 9.92687E-08-7.79138E-20 3.25449E-18
 -1      1143 9.40575E-05-2.82558E-05-2.82560E-05 8.98945E-08-5.71731E-20 2.56405E-18
 -1      1144 9.68202E-05-2.90841E-05-2.91022E-05 9.36331E-08-7.74191E-20 1.77893E-18
 -1      1145 1.00293E-04-3.01287E-05-3.01686E-05 1.12962E-07 5.34855E-21 1.10494E-18
 -1      1146 1.04700E-04-3.14541E-05-3.15220E-05 1.53207E-07-5.38743E-20 7.41154E-22
 -1      1147 1.10321E-04-3.31412E-05-3.32408E-05 2.21214E-07 9.00601E-20-8.23342E-19
 -1      1148 1.17426E-04-3.52711E-05-3.53857E-05 3.22266E-07 7.42593E-20-2.30446E-19
 -1      1149 1.26303E-04-3.79090E-05-3.79994E-05 4.49393E-07 4.17172E-20-8.91608E-19
 -1      1150 1.36196E-04-4.08536E-05-4.07547E-05 5.33309E-07 2.40246E-20-5.94458E-19
 -1      1151 1.44851E-04-4.34061E-05-4.29246E-05 4.17159E-07-4.92867E-20-1.26367E-19
 -1      1152 1.48533E-04-4.44368E-05-4.34763E-05-1.67273E-07-3.37225E-20 1.00601E-18
 -1      1153 1.41868E-04-4.23213E-05-4.13053E-05-1.37406E-06-1.14283E-19 1.24408E-18
 -1      1154 1.22296E-04-3.64050E-05-3.63857E-05-2.66622E-06 7.31095E-20 1.47934E-18
 -1      1155 9.70783E-05-2.90101E-05-3.07606E-05-2.53035E-06-3.62636E-20 1.55875E-18
 -1      1156 8.31694E-05-2.50391E-05-2.78589E-05-3.04602E-07-1.27584E-20-1.09924E-18
 -1      1157 8.94852E-05-2.69945E-05-2.91387E-05 2.03115E-06-8.96267E-20-4.18328E-18
 -1      1158 1.11452E-04-3.32080E-05-3.39363E-05 2.91070E-06-3.07619E-19-5.98090E-18
 -1      1159 1.35703E-04-4.04238E-05-3.97069E-05 2.02732E-06 1.13820E-19-6.04210E-18
 -1      1160 1.48144E-04-4.42766E-05-4.32069E-05 5.55245E-07 1.99278E-19-3.77883E-18
 -1      1161 1.47978E-04-4.43220E-05-4.36504E-05-2.62664E-07-1.68970E-19-3.57739E-18
 -1      1162 1.40862E-04-4.22422E-05-4.20246E-05-5.22389E-07-1.15005E-19-3.75161E-18
 -1      1163 1.31547E-04-3.94802E-05-3.95188E-05-4.86467E-07-1.17769E-19-3.02370E-18
 -1      1164 1.22721E-04-3.68529E-05-3.69733E-05-3.62379E-07 1.91009E-19-2.54994E-18
 -1      1165 1.15405E-04-3.46672E-05-3.47854E-05-2.43020E-07-1.92786E-19-2.75450E-18
 -1      1166 1.09738E-04-3.29677E-05-3.30581E-05-1.53693E-07-5.36663E-19-5.09273E-18
 -1      1167 1.05509E-04-3.16944E-05-3.17564E-05-9.35872E-08-5.48255E-21-6.16317E-18
 -1      1168 1.02418E-04-3.07605E-05-3.08009E-05-5.52419E-08 3.52084E-19-3.08403E-18
 -1      1169 1.00188E-04-3.00846E-05-3.01103E-05-3.14593E-08-4.51351E-20 3.32533E-19
 -1      1170 9.85930E-05-2.96001E-05-2.96162E-05-1.69705E-08-1.51078E-19-9.82866E-19
 -1      1171 9.74623E-05-2.92562E-05-2.92658E-05-8.32028E-09-7.46861E-21 1.31112E-18
 -1      1172 9.66518E-05-2.90074E-05-2.90146E-05-4.53931E-09-5.99411E-19-1.16247E-18
 -1      1173 9.60933E-05-2.88377E-05-2.88413E-05 1.06666E-10 1.89110E-19-2.13001E-18
 -1      1174 9.57241E-05-2.87245E-05-2.87266E-05 1.72320E-09-7.91893E-20-3.18363E-18
 -1      1175 9.54785E-05-2.86489E-05-2.86501E-05 2.53830E-09-2.51980E-19-4.86852E-18
 -1      1176 9.53212E-05-2.86003E-05-2.86009E-05 2.86835E-09 3.33926E-20-5.41488E-18
 -1      1177 9.52262E-05-2.85707E-05-2.85710E-05 2.91451E-09 4.49109E-19-2.48233E-18
 -1      1178 9.51749E-05-2.85545E-05-2.85546E-05 2.80604E-09 2.12618E-19 3.01525E-19
 -1      1179 9.51537E-05-2.85476E-05-2.85475E-05 2.62676E-09-1.97594E-19-3.30566E-20
 -1      1180 9.51527E-05-2.85468E-05-2.85467E-05 2.43036E-09 1.21731E-19 8.63947E-19
 -1      1181 9.51648E-05-2.85500E-05-2.85499E-05 2.24728E-09-1.68543E-19 1.02283E-18
 -1      1182 9.51843E-05-2.85556E-05-2.85554E-05 2.07850E-09-7.87416E-20 2.42428E-18
 -1      1183 9.52066E-05-2.85621E-05-2.85616E-05 1.85722E-09-2.86060E-19 3.83976E-18
 -1      1184 9.52266E-05-2.85680E-05-2.85670E-05 1.22976E-09-3.18231E-19-1.26154E-18
 -1      1185 9.52366E-05-2.85706E-05-2.85704E-05-7.74302E-10 1.04113E-18-4.66877E-18
 -1      1186 1.30371E-04-3.75142E-05-3.85347E-05 1.20824E-05-1.42963E-19 1.53410E-17
 -1      1187 9.65091E-05-2.81813E-05-3.13101E-05 7.86641E-07 1.08606E-19 1.23025E-17
 -1      1188 9.07210E-05-2.70450E-05-2.79721E-05 1.17472E-07 6.74649E-20 9.52068E-18
 -1      1189 8.90751E-05-2.67315E-05-2.69024E-05 9.93435E-09 9.23564E-20 7.85141E-18
 -1      1190 8.91157E-05-2.67728E-05-2.67771E-05-2.30814E-08 4.39134E-20 6.90284E-18
 -1      1191 8.99912E-05-2.70263E-05-2.70154E-05-3.19263E-08 4.03499E-21 5.89077E-18
 -1      1192 9.13227E-05-2.74153E-05-2.74102E-05-3.62401E-08 8.69036E-21 5.02976E-18
 -1      1193 9.29114E-05-2.78838E-05-2.78829E-05-4.05651E-08 7.83754E-22 4.14075E-18
 -1      1194 9.46265E-05-2.83915E-05-2.83913E-05-4.67662E-08 1.99398E-20 2.76180E-18
 -1      1195 9.63513E-05-2.89020E-05-2.88989E-05-5.53961E-08 1.66236E-20 2.50051E-18
 -1      1196 9.79504E-05-2.93743E-05-2.93637E-05-6.58021E-08-7.23973E-20 2.17635E-18
 -1      1197 9.92478E-05-2.97559E-05-2.97318E-05-7.55661E-08-4.01952E-20 1.62707E-18
 -1      1198 1.00018E-04-2.99804E-05-2.99361E-05-7.99391E-08-2.25705E-20 1.12190E-18
 -1      1199 9.99981E-05-2.99713E-05-2.99022E-05-7.18693E-08-1.32255E-19 1.36126E-18
 -1      1200 9.89375E-05-2.96559E-05-2.95631E-05-4.35060E-08 5.78811E-20 6.68825E-19
 -1      1201 9.66844E-05-2.89905E-05-2.88858E-05 1.00307E-08 4.79136E-20-2.51886E-19
 -1      1202 9.33062E-05-2.79945E-05-2.79026E-05 8.50760E-08-1.13736E-19 5.56130E-20
 -1      1203 8.91948E-05-2.67811E-05-2.67354E-05 1.64996E-07 3.84877E-21 3.92944E-19
 -1      1204 8.50834E-05-2.55626E-05-2.55924E-05 2.21979E-07 4.35560E-20-6.75853E-19
 -1      1205 8.19033E-05-2.46115E-05-2.47249E-05 2.28374E-07-6.76369E-20-1.15440E-18
 -1      1206 8.04889E-05-2.41771E-05-2.43500E-05 1.72882E-07-2.78585E-19 3.25876E-19
 -1      1207 8.12491E-05-2.43876E-05-2.45702E-05 7.05101E-08 1.55963E-19-6.70347E-19
 -1      1208 8.39912E-05-2.51937E-05-2.53331E-05-4.37989E-08-4.72122E-20-2.17105E-18
 -1      1209 8.80092E-05-2.63895E-05-2.64538E-05-1.33712E-07 5.94908E-21-3.10295E-18
 -1      1210 9.23785E-05-2.76982E-05-2.76866E-05-1.78596E-07 3.42316E-20-2.66011E-18
 -1      1211 9.62825E-05-2.88719E-05-2.88074E-05-1.78467E-07-1.78936E-20-2.77176E-18
 -1      1212 9.92156E-05-2.97557E-05-2.96689E-05-1.47396E-07-8.29712E-20-2.83526E-18
 -1      1213 1.01017E-04-3.02997E-05-3.02159E-05-1.03086E-07-2.36622E-19-2.65267E-18
 -1      1214 1.01788E-04-3.05332E-05-3.04668E-05-5.95006E-08-5.30380E-20-2.57334E-18
 -1      1215 1.01764E-04-3.05277E-05-3.04831E-05-2.43525E-08-1.70879E-19-2.45055E-18
 -1      1216 1.01218E-04-3.03648E-05-3.03400E-05-1.45440E-11 1.91226E-19-3.00426E-18
 -1      1217 1.00389E-04-3.01170E-05-3.01071E-05 1.44076E-08-4.70914E-21-3.99422E-18
 -1      1218 9.94599E-05-2.98390E-05-2.98389E-05 2.11964E-08 1.28754E-19-4.10058E-18
 -1      1219 9.85537E-05-2.95676E-05-2.95730E-05 2.28263E-08 1.87261E-19-3.30954E-18
 -1      1220 9.77404E-05-2.93239E-05-2.93318E-05 2.13879E-08-2.40764E-19-2.35362E-18
 -1      1221 9.70529E-05-2.91177E-05-2.91262E-05 1.84160E-08-5.32229E-20-2.19305E-18
 -1      1222 9.64983E-05-2.89513E-05-2.89592E-05 1.49234E-08 1.58963E-19-3.85346E-18
 -1      1223 9.60687E-05-2.88223E-05-2.88291E-05 1.15115E-08 1.29484E-19-2.49387E-18
 -1      1224 9.57485E-05-2.87261E-05-2.87315E-05 8.49091E-09-8.37779E-21-4.38657E-18
 -1      1225 9.55192E-05-2.86571E-05-2.86613E-05 5.98370E-09 3.96846E-20-5.19776E-18
 -1      1226 9.53625E-05-2.86098E-05-2.86130E-05 3.99924E-09-3.48466E-20-5.98156E-18
 -1      1227 9.52617E-05-2.85794E-05-2.85817E-05 2.48641E-09-6.18761E-19-2.24233E-18
 -1      1228 9.52029E-05-2.85616E-05-2.85632E-05 1.36684E-09 2.19536E-19-2.29358E-18
 -1      1229 9.51746E-05-2.85529E-05-2.85540E-05 5.54414E-10 2.28044E-20-5.58159E-18
 -1      1230 9.51675E-05-2.85507E-05-2.85514E-05-3.55309E-11 9.75120E-20-6.40218E-18
 -1      1231 9.51748E-05-2.85527E-05-2.85531E-05-4.83525E-10 5.90918E-19-7.92176E-18
 -1      1232 9.51906E-05-2.85573E-05-2.85575E-05-8.59405E-10-6.96770E-19-4.17906E-18
 -1      1233 9.52101E-05-2.85630E-05-2.85629E-05-1.20357E-09-3.22526E-19 1.15654E-18
 -1      1234 9.52279E-05-2.85682E-05-2.85676E-05-1.36726E-09 1.00520E-18-1.49552E-18
 -1      1235 9.52368E-05-2.85712E-05-2.85705E-05-8.04291E-11 2.64119E-19-2.47739E-18
 -1      1236 9.52371E-05-2.85716E-05-2.85705E-05-2.05799E-10-2.39642E-18-6.18173E-19
 -1      1237 9.52400E-05-2.85805E-05-2.85677E-05-1.03135E-09-2.69940E-18-2.55793E-19
 -1      1238 9.52447E-05-2.85963E-05-2.85636E-05-1.31924E-09-3.24475E-18 2.48624E-19
 -1      1239 9.52494E-05-2.86123E-05-2.85591E-05-1.05183E-09-7.21436E-18-1.51605E-19
 -1      1240 9.52532E-05-2.86250E-05-2.85554E-05-7.06433E-10-4.04489E-18 6.47676E-19
 -1      1241 9.52558E-05-2.86337E-05-2.85527E-05-4.20673E-10-6.44249E-18-5.89289E-19
 -1      1242 9.52575E-05-2.86392E-05-2.85510E-05-2.43579E-10-6.07850E-18 2.56945E-20
 -1      1243 9.52585E-05-2.86425E-05-2.85499E-05-1.33251E-10-3.46156E-18-1.04204E-18
 -1      1244 9.52591E-05-2.86443E-05-2.85493E-05-6.14939E-11-2.73656E-18-1.26790E-19
 -1      1245 9.52592E-05-2.86447E-05-2.85493E-05 2.40907E-11 2.73551E-19 7.63784E-19
 -1      1246 9.52587E-05-2.86431E-05-2.85499E-05 1.75168E-10 4.00721E-18-9.78698E-19
 -1      1247 9.52573E-05-2.86385E-05-2.85514E-05 4.23762E-10 3.97171E-19-1.80843E-19
 -1      1248 9.52546E-05-2.86296E-05-2.85541E-05 7.66182E-10-3.26737E-18 1.27485E-18
 -1      1249 9.52504E-05-2.86158E-05-2.85581E-05 1.16151E-09-1.05470E-18 7.30185E-20
 -1      1250 9.52452E-05-2.85982E-05-2.85630E-05 1.37519E-09-1.95091E-18 1.71804E-18
 -1      1251 9.52398E-05-2.85807E-05-2.85675E-05 6.81789E-10 7.42917E-18-1.68241E-19
 -1      1252 9.52373E-05-2.85714E-05-2.85705E-05-1.01030E-09 7.01159E-18-1.83385E-18
 -1      1253 3.48472E-05-1.09256E-04 1.88426E-05-1.29609E-05 3.30343E-18 8.30781E-19
 -1      1254 1.82296E-05-6.60210E-05 9.93544E-06-2.39496E-05 6.97362E-18 2.92396E-18
 -1      1255 7.08244E-06-1.05044E-05-4.94136E-06-1.94799E-06 1.04558E-17 6.72883E-18
 -1      1256 2.65741E-05 2.57259E-05-2.37293E-05 4.72259E-05 1.42861E-17 1.30214E-17
 -1      1257 8.89460E-05 2.22754E-05-4.34873E-05 9.71811E-05 1.15451E-17 1.41844E-17
 -1      1258 1.80464E-04-1.68111E-05-6.10436E-05 1.16191E-04 5.79963E-18 1.10927E-17
 -1      1259 2.67998E-04-6.63188E-05-7.36539E-05 8.69685E-05 1.81583E-18 4.65360E-18
 -1      1260 3.12838E-04-9.40047E-05-7.93658E-05 1.61863E-05 5.78418E-19-5.44663E-18
 -1      1261 2.93485E-04-8.18015E-05-7.67963E-05-6.36614E-05 2.83004E-18-1.30714E-17
 -1      1262 2.11002E-04-3.28470E-05-6.57292E-05-1.09947E-04 7.99345E-18-1.82273E-17
 -1      1263 1.11322E-04 1.43298E-05-4.79623E-05-1.04445E-04 1.42039E-17-2.00713E-17
 -1      1264 3.68527E-05 2.79640E-05-2.78392E-05-5.85856E-05 1.80418E-17-1.71473E-17
 -1      1265 7.98966E-06-7.65029E-07-8.62822E-06-6.58224E-06 1.70711E-17-1.14663E-17
 -1      1266 1.48545E-05-5.55525E-05 7.47687E-06 2.22275E-05 1.27267E-17-5.09999E-18
 -1      1267 3.29986E-05-1.04996E-04 1.79974E-05 1.70412E-05 3.80572E-18-1.76162E-18
 -1      1268 3.86677E-05-1.19287E-04 2.07124E-05-9.76721E-06-4.98733E-18-6.70400E-19
 -1      1269 2.55617E-05-9.15720E-05 1.54373E-05-3.10327E-05-1.05947E-17-3.60455E-18
 -1      1270 8.70162E-06-3.40957E-05 1.39459E-06-1.79045E-05-1.52669E-17-8.72275E-18
 -1      1271 1.95947E-05 1.24099E-05-1.84462E-05 2.84563E-05-1.55278E-17-1.28698E-17
 -1      1272 7.81424E-05 1.95678E-05-3.99775E-05 8.48905E-05-1.31781E-17-1.63308E-17
 -1      1273 1.80048E-04-1.66138E-05-6.09815E-05 1.16362E-04-8.41527E-18-1.66967E-17
 -1      1274 2.86659E-04-7.18424E-05-7.68863E-05 9.24778E-05-3.18506E-18-1.07294E-17
 -1      1275 3.44894E-04-1.04991E-04-8.41360E-05 1.71730E-05-5.78576E-19-7.06425E-19
 -1      1276 3.13112E-04-8.56052E-05-8.04789E-05-6.77474E-05-1.49522E-18 6.39849E-18
 -1      1277 2.12443E-04-3.25699E-05-6.57846E-05-1.13880E-04-5.20925E-18 1.16433E-17
 -1      1278 9.72414E-05 1.46681E-05-4.45218E-05-9.42702E-05-1.15654E-17 1.57362E-17
 -1      1279 2.60236E-05 1.71540E-05-2.19585E-05-3.78038E-05-1.34898E-17 1.22108E-17
 -1      1280 6.94766E-06-2.32872E-05-1.87097E-06 1.33485E-05-9.70530E-18 6.07323E-18
 -1      1281 2.05904E-05-7.95451E-05 1.29450E-05 3.15369E-05-4.30886E-18 1.78173E-18
 -1      1282 3.73040E-05-1.16471E-04 2.01304E-05 1.52895E-05-1.30125E-18 8.53452E-19
 -1      1283 1.04206E-04-2.19620E-05-3.77956E-05-1.70071E-05-3.48342E-19 7.55765E-18
 -1      1284 9.05186E-05-6.76792E-06-3.60562E-05-1.99283E-05-1.05847E-18 5.00861E-19
 -1      1285 9.27614E-05-6.84190E-06-3.72094E-05-2.52451E-05-1.34594E-18 2.16126E-18
 -1      1286 8.61806E-05-4.15864E-06-3.52181E-05-1.57884E-05-1.07864E-18-1.91400E-18
 -1      1287 8.74134E-05-4.15697E-06-3.56692E-05-1.82452E-05-1.21671E-18-8.48621E-19
 -1      1288 9.24008E-05-1.05749E-05-3.51543E-05-1.84177E-05-1.87118E-18 4.63486E-19
 -1      1289 8.43148E-05-3.19463E-06-3.47791E-05-1.21447E-05-9.14107E-19-3.15213E-18
 -1      1290 8.49551E-05-3.16900E-06-3.50061E-05-1.39616E-05-1.03841E-18-2.60389E-18
 -1      1291 8.81403E-05-7.43504E-06-3.46700E-05-1.47229E-05-1.71101E-18-1.51317E-18
 -1      1292 8.32827E-05-2.67032E-06-3.45403E-05-9.05603E-06-6.98690E-19-3.79791E-18
 -1      1293 8.36537E-05-2.65764E-06-3.46639E-05-1.05721E-05-8.06071E-19-3.50378E-18
 -1      1294 8.60272E-05-5.91718E-06-3.44004E-05-1.12736E-05-1.40507E-18-2.60696E-18
 -1      1295 8.26508E-05-2.34117E-06-3.44009E-05-6.39889E-06-4.49371E-19-4.11105E-18
 -1      1296 8.28805E-05-2.33579E-06-3.44732E-05-7.70595E-06-5.55865E-19-3.92909E-18
 -1      1297 8.48184E-05-5.03828E-06-3.42454E-05-8.32692E-06-1.04359E-18-3.16163E-18
 -1      1298 8.22562E-05-2.13177E-06-3.43163E-05-3.95184E-06-2.98950E-19-4.26420E-18
 -1      1299 8.23959E-05-2.12992E-06-3.43591E-05-5.16295E-06-3.32738E-19-4.21780E-18
 -1      1300 8.40646E-05-4.48809E-06-3.41508E-05-5.73862E-06-6.53529E-19-3.45116E-18
 -1      1301 8.20511E-05-2.01744E-06-3.42732E-05-1.65523E-06-8.34559E-20-4.24803E-18
 -1      1302 8.21163E-05-2.01689E-06-3.42933E-05-2.80168E-06-1.66449E-19-4.23929E-18
 -1      1303 8.36133E-05-4.16023E-06-3.40941E-05-3.35393E-06-3.88290E-19-3.51095E-18
 -1      1304 8.20114E-05-1.98630E-06-3.42651E-05 5.85165E-07 1.46120E-19-4.27136E-18
 -1      1305 8.20095E-05-1.98635E-06-3.42654E-05-5.43795E-07 7.52834E-20-4.26452E-18
 -1      1306 8.34062E-05-4.01379E-06-3.40666E-05-1.09475E-06 1.80906E-20-3.57412E-18
 -1      1307 8.21306E-05-2.03346E-06-3.42909E-05 2.85777E-06 3.03814E-19-4.19162E-18
 -1      1308 8.20625E-05-2.03413E-06-3.42715E-05 1.70170E-06 2.47884E-19-4.24903E-18
 -1      1309 8.34183E-05-4.03040E-06-3.40650E-05 1.13096E-06 3.05418E-19-3.56320E-18
 -1      1310 8.24173E-05-2.16080E-06-3.43537E-05 5.25086E-06 4.74735E-19-4.01445E-18
 -1      1311 8.22772E-05-2.16228E-06-3.43122E-05 4.02204E-06 4.20042E-19-4.13601E-18
 -1      1312 8.36461E-05-4.20712E-06-3.40888E-05 3.41026E-06 5.97942E-19-3.49979E-18
 -1      1313 8.28958E-05-2.37228E-06-3.44630E-05 7.81374E-06 6.82351E-19-3.62044E-18
 -1      1314 8.26694E-05-2.37861E-06-3.43925E-05 6.48558E-06 6.02578E-19-3.85239E-18
 -1      1315 8.41057E-05-4.55487E-06-3.41405E-05 5.80943E-06 8.70642E-19-3.30457E-18
 -1      1316 8.36755E-05-2.70271E-06-3.46530E-05 1.07525E-05 9.72420E-19-3.01474E-18
 -1      1317 8.33037E-05-2.71659E-06-3.45293E-05 9.21018E-06 8.37762E-19-3.35499E-18
 -1      1318 8.48613E-05-5.11940E-06-3.42301E-05 8.44458E-06 1.24066E-18-2.81435E-18
 -1      1319 8.49888E-05-3.22237E-06-3.49991E-05 1.42029E-05 1.17436E-18-2.02078E-18
 -1      1320 8.43448E-05-3.25295E-06-3.47688E-05 1.23540E-05 1.07274E-18-2.63394E-18
 -1      1321 8.60933E-05-6.02262E-06-3.43839E-05 1.14609E-05 1.65320E-18-2.19583E-18
 -1      1322 8.74825E-05-4.15480E-06-3.56808E-05 1.85145E-05 1.33286E-18-8.01770E-20
 -1      1323 8.62181E-05-4.21402E-06-3.52127E-05 1.60824E-05 1.18235E-18-1.23765E-18
 -1      1324 8.82380E-05-7.56900E-06-3.46565E-05 1.50003E-05 1.89524E-18-9.99843E-19
 -1      1325 9.35564E-05-6.88397E-06-3.71091E-05 2.46213E-05 1.15334E-18 3.47707E-18
 -1      1326 9.03197E-05-6.52233E-06-3.60752E-05 2.06235E-05 1.12581E-18 1.30607E-18
 -1      1327 9.25998E-05-1.08020E-05-3.51319E-05 1.90899E-05 1.98648E-18 1.18034E-18
 -1      1328 1.23214E-04-2.48648E-05-3.89162E-05 2.80255E-05 5.51524E-19 1.02131E-17
 -1      1329 1.00046E-04-1.44641E-05-3.73127E-05 2.36581E-05 5.67936E-19 5.53271E-18
 -1      1330 1.01776E-04-1.94255E-05-3.54033E-05 2.09103E-05 1.88669E-18 4.40881E-18
 -1      1331 1.02490E-04-2.77924E-05-3.47024E-05 7.11369E-06 1.03484E-18 9.81203E-18
 -1      1332 1.05054E-04-3.02152E-05-3.34852E-05-7.70041E-06-1.03391E-18 7.87836E-18
 -1      1333 9.83834E-05-2.78958E-05-3.07841E-05-4.76990E-06-9.47830E-19 6.66117E-18
 -1      1334 9.57728E-05-2.79308E-05-2.93313E-05-2.26985E-06-7.53912E-19 6.10892E-18
 -1      1335 9.37477E-05-2.76975E-05-2.83561E-05-1.82392E-06-7.64262E-19 5.00525E-18
 -1      1336 9.97651E-05-2.81482E-05-3.10606E-05-7.45347E-06-1.69422E-18 3.67430E-18
 -1      1337 9.22490E-05-2.73902E-05-2.77838E-05-5.89537E-07-6.01519E-19 4.60214E-18
 -1      1338 9.17686E-05-2.73611E-05-2.75538E-05-4.69224E-07-4.81101E-19 3.79248E-18
 -1      1339 9.53315E-05-2.79425E-05-2.90081E-05-2.65350E-06-1.27373E-18 2.85616E-18
 -1      1340 9.12604E-05-2.72446E-05-2.73872E-05 1.47903E-07-3.30300E-19 3.38247E-18
 -1      1341 9.14946E-05-2.73591E-05-2.74448E-05 2.23724E-07-4.05209E-19 2.83596E-18
 -1      1342 9.35508E-05-2.77767E-05-2.82237E-05-4.74622E-07-9.21387E-19 2.07534E-18
 -1      1343 9.15557E-05-2.73803E-05-2.74715E-05 5.93032E-07-2.48220E-19 2.70140E-18
 -1      1344 9.21909E-05-2.75919E-05-2.76592E-05 6.48207E-07-2.17396E-19 2.33262E-18
 -1      1345 9.31375E-05-2.77759E-05-2.80316E-05 7.03757E-07-5.71489E-19 1.38498E-18
 -1      1346 9.26274E-05-2.77149E-05-2.78020E-05 9.21902E-07-2.23198E-19 2.25805E-18
 -1      1347 9.35562E-05-2.80051E-05-2.80764E-05 9.71242E-07-2.89128E-19 1.96165E-18
 -1      1348 9.36147E-05-2.79584E-05-2.81562E-05 1.48057E-06-4.41648E-19 1.30935E-18
 -1      1349 9.42848E-05-2.82089E-05-2.83090E-05 1.22391E-06-2.45254E-19 1.84252E-18
 -1      1350 9.54916E-05-2.85769E-05-2.86654E-05 1.27782E-06-2.62656E-19 1.47907E-18
 -1      1351 9.47345E-05-2.82964E-05-2.84916E-05 2.11612E-06-4.80000E-19 1.02688E-18
 -1      1352 9.64921E-05-2.88555E-05-2.89832E-05 1.55797E-06-2.18237E-19 1.49038E-18
 -1      1353 9.80176E-05-2.93152E-05-2.94345E-05 1.62528E-06-2.15714E-19 1.20128E-18
 -1      1354 9.63999E-05-2.87734E-05-2.90028E-05 2.75676E-06-4.96093E-19 7.23869E-19
 -1      1355 9.93104E-05-2.96737E-05-2.98453E-05 1.97037E-06-2.43505E-19 9.79891E-19
 -1      1356 1.01240E-04-3.02530E-05-3.04168E-05 2.05926E-06-3.43948E-19 6.51818E-19
 -1      1357 9.86101E-05-2.93932E-05-2.96883E-05 3.50516E-06-4.43534E-19 6.69458E-19
 -1      1358 1.02873E-04-3.07049E-05-3.09367E-05 2.49734E-06-4.55406E-19 7.37567E-19
 -1      1359 1.05324E-04-3.14437E-05-3.16623E-05 2.61458E-06-2.83246E-19 1.24236E-19
 -1      1360 1.01429E-04-3.01787E-05-3.05661E-05 4.44000E-06-5.34524E-19 6.99355E-19
 -1      1361 1.07357E-04-3.20087E-05-3.23097E-05 3.15442E-06 4.71394E-20-2.86549E-19
 -1      1362 1.10458E-04-3.29549E-05-3.32240E-05 3.30213E-06 4.72486E-20-3.94082E-19
 -1      1363 1.04964E-04-3.11719E-05-3.16631E-05 5.60691E-06-4.43733E-19 3.59526E-19
 -1      1364 1.12939E-04-3.36506E-05-3.40094E-05 3.90416E-06 2.08450E-21-5.86067E-19
 -1      1365 1.16774E-04-3.48562E-05-3.51271E-05 4.07089E-06 2.44217E-20-6.67991E-19
 -1      1366 1.09330E-04-3.24379E-05-3.29998E-05 6.97560E-06-1.68397E-19-3.33883E-19
 -1      1367 1.19852E-04-3.57546E-05-3.60796E-05 4.60608E-06 1.23352E-19-4.33654E-19
 -1      1368 1.24517E-04-3.72784E-05-3.74091E-05 4.74895E-06-1.81053E-20-4.95726E-19
 -1      1369 1.14725E-04-3.40979E-05-3.46041E-05 8.37307E-06-3.27299E-20-5.48520E-19
 -1      1370 1.27725E-04-3.82985E-05-3.83506E-05 4.82460E-06 2.82045E-19-1.84653E-19
 -1      1371 1.32194E-04-3.98596E-05-3.95666E-05 4.79586E-06 2.01534E-19-3.32990E-20
 -1      1372 1.20955E-04-3.62538E-05-3.63311E-05 9.18309E-06 1.62240E-19 2.00350E-19
 -1      1373 1.35282E-04-4.10084E-05-4.03607E-05 3.82373E-06 5.70768E-19 4.34157E-19
 -1      1374 1.38392E-04-4.22627E-05-4.11150E-05 3.41885E-06 3.96451E-19 9.68344E-19
 -1      1375 1.27368E-04-3.88660E-05-3.79024E-05 8.27342E-06 6.59700E-19 8.38192E-19
 -1      1376 1.40574E-04-4.33279E-05-4.15003E-05 6.98616E-07 1.09969E-19 1.58081E-18
 -1      1377 1.40121E-04-4.34519E-05-4.12424E-05-3.11467E-07 1.33593E-19 1.48517E-18
 -1      1378 1.33049E-04-4.17370E-05-3.89986E-05 4.09883E-06 5.87219E-19 1.93300E-18
 -1      1379 1.40282E-04-4.38908E-05-4.10207E-05-4.77329E-06 4.78494E-19 2.08084E-18
 -1      1380 1.34236E-04-4.18451E-05-3.94238E-05-6.25213E-06 5.59571E-20 2.33125E-18
 -1      1381 1.36077E-04-4.37753E-05-3.93128E-05-4.35606E-06 5.72806E-19 2.58935E-18
 -1      1382 1.31435E-04-4.07919E-05-3.87055E-05-1.03232E-05-2.61336E-19 2.08921E-18
 -1      1383 1.20563E-04-3.64313E-05-3.62245E-05-1.12138E-05-3.04402E-19 1.94246E-18
 -1      1384 1.34027E-04-4.27758E-05-3.89252E-05-1.49431E-05-2.66759E-19 3.15626E-18
 -1      1385 1.15696E-04-3.38538E-05-3.54594E-05-1.06806E-05-6.99120E-19 1.40544E-18
 -1      1386 1.05897E-04-2.95089E-05-3.34328E-05-9.46843E-06-1.00268E-18 5.74818E-19
 -1      1387 1.26306E-04-3.73456E-05-3.83605E-05-1.99343E-05-8.36498E-19 1.55129E-18
 -1      1388 1.03144E-04-2.79000E-05-3.31177E-05-3.35763E-06-1.32539E-18-1.23243E-19
 -1      1389 1.01425E-04-2.70143E-05-3.27835E-05-1.01539E-06-1.47257E-18-1.65804E-18
 -1      1390 1.17930E-04-3.07585E-05-3.80926E-05-1.19359E-05-2.05088E-18-3.26637E-19
 -1      1391 1.02553E-04-2.77668E-05-3.29168E-05 6.41865E-06-1.49237E-18-2.63713E-18
 -1      1392 1.09107E-04-3.06384E-05-3.42642E-05 8.18269E-06-1.28728E-18-4.09371E-18
 -1      1393 1.16068E-04-2.93336E-05-3.80210E-05 4.66159E-06-2.81458E-18-1.49329E-18
 -1      1394 1.13885E-04-3.33944E-05-3.49079E-05 1.16525E-05-6.71882E-19-4.75249E-18
 -1      1395 1.25423E-04-3.82282E-05-3.74161E-05 1.15529E-05-5.96311E-19-4.98500E-18
 -1      1396 1.22305E-04-3.41582E-05-3.82298E-05 1.81872E-05-1.57061E-18-3.23119E-18
 -1      1397 1.29697E-04-4.01366E-05-3.82928E-05 8.75753E-06-2.25165E-19-5.17516E-18
 -1      1398 1.38524E-04-4.34204E-05-4.04823E-05 7.24417E-06 4.05835E-19-4.80966E-18
 -1      1399 1.31704E-04-4.10589E-05-3.87971E-05 1.84294E-05-6.99437E-19-3.45976E-18
 -1      1400 1.39424E-04-4.34149E-05-4.09408E-05 2.50293E-06 8.59262E-19-4.15544E-18
 -1      1401 1.41953E-04-4.40398E-05-4.17291E-05 1.26555E-06 6.22093E-19-3.30523E-18
 -1      1402 1.36461E-04-4.40154E-05-3.93584E-05 8.65134E-06 1.20117E-18-3.85452E-18
 -1      1403 1.40491E-04-4.31522E-05-4.15904E-05-2.19844E-06 4.88764E-20-2.83033E-18
 -1      1404 1.38555E-04-4.22390E-05-4.11895E-05-2.81181E-06 2.30419E-20-3.23715E-18
 -1      1405 1.35251E-04-4.28818E-05-3.93987E-05-1.14875E-06 8.45259E-19-2.87021E-18
 -1      1406 1.35796E-04-4.11092E-05-4.05513E-05-4.36090E-06-8.64569E-20-2.60224E-18
 -1      1407 1.31762E-04-3.96339E-05-3.94912E-05-4.49639E-06-3.25644E-19-2.85005E-18
 -1      1408 1.30484E-04-4.01880E-05-3.86359E-05-6.91091E-06 1.57733E-19-1.73253E-18
 -1      1409 1.28646E-04-3.85819E-05-3.86156E-05-4.70463E-06-2.98728E-19-2.84074E-18
 -1      1410 1.24244E-04-3.71121E-05-3.73803E-05-4.60787E-06-8.89320E-20-2.71898E-18
 -1      1411 1.24386E-04-3.74675E-05-3.72669E-05-8.81196E-06 7.88402E-20-1.30746E-18
 -1      1412 1.21313E-04-3.62244E-05-3.64888E-05-4.17190E-06 2.72017E-19-2.64555E-18
 -1      1413 1.17397E-04-3.49823E-05-3.53558E-05-4.00281E-06-1.19935E-19-2.56683E-18
 -1      1414 1.18352E-04-3.52411E-05-3.56656E-05-8.43658E-06 5.29445E-20-1.31340E-18
 -1      1415 1.14891E-04-3.42656E-05-3.45679E-05-3.37007E-06-7.83304E-19-2.21653E-18
 -1      1416 1.11733E-04-3.32944E-05-3.36398E-05-3.20264E-06-1.01018E-18-3.33751E-18
 -1      1417 1.13037E-04-3.35272E-05-3.41258E-05-7.12049E-06-4.64869E-19-1.68826E-18
 -1      1418 1.09710E-04-3.27312E-05-3.29956E-05-2.58917E-06-5.14798E-19-2.55195E-18
 -1      1419 1.07293E-04-3.20023E-05-3.22799E-05-2.44901E-06-3.88014E-19-3.50510E-18
 -1      1420 1.08653E-04-3.22300E-05-3.27963E-05-5.62198E-06-4.68939E-19-7.10982E-19
 -1      1421 1.05716E-04-3.15682E-05-3.17766E-05-1.93329E-06 6.45863E-20-3.49760E-18
 -1      1422 1.03921E-04-3.10336E-05-3.12431E-05-1.82431E-06 2.71117E-19-3.96051E-18
 -1      1423 1.05182E-04-3.12531E-05-3.17190E-05-4.27364E-06-4.90419E-20-7.51860E-19
 -1      1424 1.02721E-04-3.07039E-05-3.08606E-05-1.41915E-06 1.70389E-18-2.66253E-18
 -1      1425 1.01411E-04-3.03171E-05-3.04706E-05-1.33742E-06 1.40852E-18-4.46678E-19
 -1      1426 1.02508E-04-3.05199E-05-3.08791E-05-3.17620E-06 1.63873E-18-4.27812E-19
 -1      1427 1.00512E-04-3.00697E-05-3.01849E-05-1.03014E-06 1.49074E-20-2.03678E-19
 -1      1428 9.95673E-05-2.97924E-05-2.99032E-05-9.69944E-07-4.60740E-20-1.70766E-19
 -1      1429 1.00485E-04-2.99720E-05-3.02402E-05-2.32706E-06 1.08192E-18-2.14536E-19
 -1      1430 9.89013E-05-2.96086E-05-2.96925E-05-7.41245E-07 2.43555E-20 1.70732E-19
 -1      1431 9.82261E-05-2.94114E-05-2.94909E-05-6.97262E-07-8.13582E-20 2.85799E-19
 -1      1432 9.89734E-05-2.95649E-05-2.97619E-05-1.68759E-06 4.52782E-20 2.03544E-19
 -1      1433 9.77378E-05-2.92757E-05-2.93370E-05-5.28841E-07 4.44041E-19 9.39570E-19
 -1      1434 9.72584E-05-2.91370E-05-2.91938E-05-4.96816E-07-2.48485E-21 1.56077E-18
 -1      1435 9.78570E-05-2.92650E-05-2.94082E-05-1.21314E-06 5.12751E-19 1.88285E-18
 -1      1436 9.68885E-05-2.90342E-05-2.90774E-05-3.68592E-07-2.23770E-18 9.62793E-19
 -1      1437 9.65405E-05-2.89335E-05-2.89731E-05-3.44119E-07-1.48860E-18-1.46130E-18
 -1      1438 9.70238E-05-2.90397E-05-2.91441E-05-8.58184E-07-1.45602E-18 1.50535E-18
 -1      1439 9.62912E-05-2.88635E-05-2.88951E-05-2.55461E-07-5.60930E-19-1.60051E-18
 -1      1440 9.60635E-05-2.87983E-05-2.88267E-05-2.39112E-07-1.37183E-19-2.02459E-18
 -1      1441 9.64247E-05-2.88803E-05-2.89540E-05-5.97311E-07-1.56216E-18-3.30443E-19
 -1      1442 9.58869E-05-2.87490E-05-2.87715E-05-1.74799E-07-3.59410E-20-2.39626E-18
 -1      1443 9.57326E-05-2.87049E-05-2.87251E-05-1.62933E-07-9.33740E-19-3.16076E-18
 -1      1444 9.60094E-05-2.87688E-05-2.88221E-05-4.13601E-07-3.63046E-19-1.41016E-18
 -1      1445 9.56101E-05-2.86707E-05-2.86869E-05-1.16466E-07-6.94702E-19-2.62992E-18
 -1      1446 9.55084E-05-2.86420E-05-2.86562E-05-1.07974E-07-3.48765E-19-3.59710E-18
 -1      1447 9.57176E-05-2.86910E-05-2.87291E-05-2.80386E-07-8.48513E-19-1.06690E-18
 -1      1448 9.54255E-05-2.86188E-05-2.86304E-05-7.46322E-08-7.15681E-20-2.70636E-18
 -1      1449 9.53614E-05-2.86010E-05-2.86109E-05-6.86064E-08 8.26547E-19-2.10048E-18
 -1      1450 9.55168E-05-2.86378E-05-2.86649E-05-1.84280E-07-3.40451E-19-2.56710E-19
 -1      1451 9.53073E-05-2.85859E-05-2.85941E-05-4.49050E-08 1.12858E-18-2.67223E-18
 -1      1452 9.52698E-05-2.85758E-05-2.85826E-05-4.06788E-08 8.67669E-19-1.10002E-18
 -1      1453 9.53826E-05-2.86026E-05-2.86218E-05-1.15498E-07 1.13786E-18 3.75526E-19
 -1      1454 9.52364E-05-2.85665E-05-2.85722E-05-2.40432E-08 1.15183E-19-1.69571E-18
 -1      1455 9.52173E-05-2.85617E-05-2.85662E-05-2.11261E-08-5.20848E-19-1.55306E-18
 -1      1456 9.52966E-05-2.85806E-05-2.85939E-05-6.67971E-08 5.32929E-19-2.05950E-18
 -1      1457 9.51986E-05-2.85565E-05-2.85605E-05-9.66221E-09-3.29865E-19-8.83651E-19
 -1      1458 9.51922E-05-2.85554E-05-2.85583E-05-7.69573E-09-2.02921E-19-9.72314E-19
 -1      1459 9.52453E-05-2.85679E-05-2.85770E-05-3.28277E-08-6.01441E-20-2.99023E-18
 -1      1460 9.51837E-05-2.85531E-05-2.85557E-05-2.98405E-11 6.48243E-19-5.91529E-20
 -1      1461 9.51856E-05-2.85543E-05-2.85560E-05 1.24194E-09 2.31595E-19 3.16633E-19
 -1      1462 9.52183E-05-2.85617E-05-2.85677E-05-9.66887E-09 8.40004E-19-1.85777E-18
 -1      1463 9.51839E-05-2.85539E-05-2.85555E-05 6.06575E-09-3.22982E-19 5.32400E-19
 -1      1464 9.51910E-05-2.85566E-05-2.85574E-05 6.81324E-09-3.72158E-19-3.44150E-19
 -1      1465 9.52080E-05-2.85601E-05-2.85638E-05 5.48105E-09 7.78522E-20 1.02600E-19
 -1      1466 9.51935E-05-2.85574E-05-2.85582E-05 9.37903E-09 1.12317E-19 5.66258E-19
 -1      1467 9.52033E-05-2.85608E-05-2.85609E-05 9.68662E-09-8.78340E-20 8.69630E-19
 -1      1468 9.52085E-05-2.85614E-05-2.85633E-05 1.44887E-08 7.44351E-19 3.21210E-19
 -1      1469 9.52079E-05-2.85624E-05-2.85623E-05 1.01986E-08-3.85663E-19 9.99947E-19
 -1      1470 9.52179E-05-2.85659E-05-2.85650E-05 1.00331E-08-9.30101E-19 3.64741E-19
 -1      1471 9.52152E-05-2.85645E-05-2.85647E-05 1.83204E-08-5.36413E-19 2.08629E-20
 -1      1472 9.52229E-05-2.85677E-05-2.85663E-05 8.32137E-09-1.98698E-18 2.95888E-19
 -1      1473 9.52304E-05-2.85705E-05-2.85684E-05 7.29283E-09-1.62344E-18-2.41755E-18
 -1      1474 9.52246E-05-2.85687E-05-2.85667E-05 1.71192E-08-2.23580E-18-1.50342E-19
 -1      1475 9.52336E-05-2.85719E-05-2.85690E-05 4.54674E-09-9.07399E-19-3.31197E-18
 -1      1476 9.52363E-05-2.85726E-05-2.85701E-05 2.87616E-09 4.90736E-19-1.85910E-18
 -1      1477 9.52372E-05-2.85752E-05-2.85691E-05 4.40872E-09 4.47263E-18 3.90927E-19
 -1      1478 9.52324E-05-2.85725E-05-2.85683E-05 1.16784E-08-1.51873E-18 3.57813E-19
 -1      1479 9.67819E-05-2.84293E-05-2.98248E-05 2.81818E-06 8.61485E-19 7.81380E-18
 -1      1480 1.02531E-04-2.93996E-05-3.21506E-05 4.27560E-06 7.97482E-19 9.20111E-18
 -1      1481 1.02429E-04-2.67825E-05-3.27245E-05 1.24157E-05 1.53901E-18 6.08561E-18
 -1      1482 9.25723E-05-2.75836E-05-2.79238E-05 9.72532E-07 6.44274E-19 6.26815E-18
 -1      1483 9.43412E-05-2.76918E-05-2.87797E-05 1.30663E-06 5.54251E-19 7.19071E-18
 -1      1484 9.68774E-05-2.81584E-05-2.96480E-05 4.54199E-06 1.24943E-18 4.86444E-18
 -1      1485 9.11293E-05-2.72724E-05-2.73461E-05 1.26617E-07 4.02208E-19 5.23863E-18
 -1      1486 9.15479E-05-2.72376E-05-2.75540E-05 3.04026E-07 4.19976E-19 5.88341E-18
 -1      1487 9.37525E-05-2.78006E-05-2.83213E-05 1.47829E-06 9.21810E-19 4.03554E-18
 -1      1488 9.10682E-05-2.72883E-05-2.73102E-05-2.95988E-07 3.89837E-19 4.59155E-18
 -1      1489 9.08728E-05-2.71611E-05-2.72637E-05-1.90358E-07 2.86509E-19 4.99564E-18
 -1      1490 9.25915E-05-2.76587E-05-2.78559E-05 4.70328E-08 5.69312E-19 3.12633E-18
 -1      1491 9.17519E-05-2.75083E-05-2.75178E-05-5.36454E-07 2.99916E-19 3.79518E-18
 -1      1492 9.12305E-05-2.73112E-05-2.73637E-05-4.69404E-07 2.82712E-19 4.24903E-18
 -1      1493 9.25100E-05-2.76960E-05-2.77983E-05-6.90484E-07 5.98035E-19 2.59530E-18
 -1      1494 9.28623E-05-2.78504E-05-2.78527E-05-6.75422E-07 2.57828E-19 3.09661E-18
 -1      1495 9.21586E-05-2.76100E-05-2.76450E-05-6.30503E-07 2.32223E-19 3.46320E-18
 -1      1496 9.30738E-05-2.78928E-05-2.79510E-05-1.10266E-06 5.58211E-19 2.04524E-18
 -1      1497 9.42141E-05-2.82636E-05-2.82576E-05-7.48591E-07 2.96242E-19 2.31982E-18
 -1      1498 9.34123E-05-2.80002E-05-2.80220E-05-7.19162E-07 3.29730E-19 2.82413E-18
 -1      1499 9.40140E-05-2.81925E-05-2.82216E-05-1.33527E-06 5.82338E-19 1.58633E-18
 -1      1500 9.56732E-05-2.87101E-05-2.86923E-05-7.65692E-07 1.93665E-19 1.63155E-18
 -1      1501 9.48366E-05-2.84411E-05-2.84474E-05-7.50256E-07 2.41572E-19 2.02361E-18
 -1      1502 9.51653E-05-2.85542E-05-2.85561E-05-1.44070E-06 4.34363E-19 1.16002E-18
 -1      1503 9.71131E-05-2.91535E-05-2.91187E-05-7.21012E-07 2.44465E-20 1.51941E-18
 -1      1504 9.63060E-05-2.88983E-05-2.88834E-05-7.21919E-07 3.07819E-20 1.62473E-18
 -1      1505 9.63979E-05-2.89439E-05-2.89130E-05-1.42791E-06 1.76864E-19 9.22402E-19
 -1      1506 9.83887E-05-2.95517E-05-2.94924E-05-5.98319E-07 4.11638E-20 1.57488E-18
 -1      1507 9.76899E-05-2.93353E-05-2.92904E-05-6.21005E-07 8.07113E-20 1.55609E-18
 -1      1508 9.75863E-05-2.93272E-05-2.92525E-05-1.27929E-06 8.18140E-20 7.94188E-19
 -1      1509 9.93214E-05-2.98511E-05-2.97599E-05-3.76465E-07 1.60192E-19 1.05298E-18
 -1      1510 9.88314E-05-2.97062E-05-2.96208E-05-4.28282E-07 1.55844E-19 1.32650E-18
 -1      1511 9.85889E-05-2.96630E-05-2.95310E-05-9.61586E-07 3.64962E-19 8.21763E-19
 -1      1512 9.96999E-05-2.99860E-05-2.98592E-05-3.87150E-08 5.40066E-20 5.86743E-19
 -1      1513 9.95390E-05-2.99526E-05-2.98177E-05-1.26502E-07 1.33871E-19 8.20768E-19
 -1      1514 9.92402E-05-2.98997E-05-2.96995E-05-4.40110E-07 2.76543E-19 7.45720E-19
 -1      1515 9.93041E-05-2.98849E-05-2.97281E-05 4.12655E-07 7.68037E-20 6.38312E-19
 -1      1516 9.95973E-05-3.00042E-05-2.98194E-05 2.86829E-07-1.77774E-19 5.51667E-19
 -1      1517 9.93578E-05-2.99749E-05-2.97073E-05 2.99140E-07 2.18376E-22 7.88204E-20
 -1      1518 9.79609E-05-2.94867E-05-2.93213E-05 9.37961E-07 1.82178E-20 3.94506E-19
 -1      1519 9.88033E-05-2.97894E-05-2.95702E-05 7.82683E-07 2.51427E-19 7.65982E-19
 -1      1520 9.87722E-05-2.98235E-05-2.95119E-05 1.21901E-06 1.20782E-19 2.50254E-19
 -1      1521 9.56296E-05-2.87684E-05-2.86347E-05 1.44529E-06 8.52310E-20 3.01491E-19
 -1      1522 9.70355E-05-2.92568E-05-2.90419E-05 1.28523E-06 1.54335E-19 4.34528E-19
 -1      1523 9.73805E-05-2.93953E-05-2.90945E-05 2.19995E-06 1.00939E-19 9.31061E-19
 -1      1524 9.24971E-05-2.77790E-05-2.77302E-05 1.79354E-06-3.89529E-19 5.83579E-19
 -1      1525 9.43455E-05-2.84079E-05-2.82572E-05 1.66983E-06-4.30997E-19 2.07775E-19
 -1      1526 9.52210E-05-2.86843E-05-2.84785E-05 3.02716E-06-3.24126E-19 8.38735E-19
 -1      1527 8.90328E-05-2.66635E-05-2.67460E-05 1.82847E-06 1.39411E-19 4.54804E-19
 -1      1528 9.10399E-05-2.73316E-05-2.73102E-05 1.78880E-06 1.14412E-19 7.85464E-19
 -1      1529 9.25407E-05-2.77616E-05-2.77422E-05 3.42353E-06-1.85764E-19 3.58249E-19
 -1      1530 8.59419E-05-2.56539E-05-2.58788E-05 1.45199E-06 3.67027E-19-4.28003E-19
 -1      1531 8.76952E-05-2.62172E-05-2.63651E-05 1.52958E-06 4.50062E-19 2.84338E-19
 -1      1532 8.98101E-05-2.67908E-05-2.70153E-05 3.14461E-06 5.51187E-19 7.47672E-19
 -1      1533 8.39829E-05-2.50089E-05-2.53325E-05 6.94323E-07-3.17770E-19-5.71569E-19
 -1      1534 8.50522E-05-2.53220E-05-2.56245E-05 8.85322E-07-1.19041E-19-7.39010E-19
 -1      1535 8.76409E-05-2.60028E-05-2.64531E-05 2.11179E-06 3.60499E-19 5.14149E-19
 -1      1536 8.36970E-05-2.49170E-05-2.52497E-05-2.64401E-07-1.43986E-19-3.02864E-19
 -1      1537 8.37886E-05-2.48891E-05-2.52701E-05-8.23281E-09-2.19395E-19-6.23635E-19
 -1      1538 8.65988E-05-2.56207E-05-2.61908E-05 5.07604E-07-1.14899E-19-3.37018E-19
 -1      1539 8.51830E-05-2.54118E-05-2.56567E-05-1.15677E-06 2.40213E-19-9.99367E-19
 -1      1540 8.42612E-05-2.50467E-05-2.53976E-05-9.09571E-07 2.70769E-19-3.59387E-19
 -1      1541 8.69855E-05-2.57652E-05-2.62980E-05-1.25301E-06 2.58259E-19-7.18032E-19
 -1      1542 8.80549E-05-2.63564E-05-2.64545E-05-1.74684E-06 4.65665E-19-1.85225E-18
 -1      1543 8.63570E-05-2.57506E-05-2.59802E-05-1.57421E-06 2.33080E-19-1.25078E-18
 -1      1544 8.87100E-05-2.63970E-05-2.67524E-05-2.68928E-06 7.21358E-19-5.88900E-19
 -1      1545 9.16112E-05-2.75073E-05-2.74580E-05-1.92762E-06-3.07318E-20-2.20917E-18
 -1      1546 8.95456E-05-2.68084E-05-2.68786E-05-1.85967E-06 1.80673E-19-2.05691E-18
 -1      1547 9.13314E-05-2.73371E-05-2.74496E-05-3.46292E-06 3.86844E-19-1.04745E-18
 -1      1548 9.51075E-05-2.86152E-05-2.84639E-05-1.74011E-06 2.15772E-19-2.30253E-18
 -1      1549 9.30986E-05-2.79648E-05-2.78956E-05-1.76736E-06-8.71021E-20-2.17820E-18
 -1      1550 9.42442E-05-2.83494E-05-2.82411E-05-3.49645E-06 2.03395E-19-1.64720E-18
 -1      1551 9.79845E-05-2.95032E-05-2.93107E-05-1.31973E-06-1.41617E-19-2.67539E-18
 -1      1552 9.63457E-05-2.89964E-05-2.88419E-05-1.40830E-06 2.42979E-19-2.39019E-18
 -1      1553 9.68952E-05-2.92322E-05-2.89828E-05-2.94683E-06 7.70965E-20-2.00176E-18
 -1      1554 9.99643E-05-3.00933E-05-2.99105E-05-8.20183E-07-4.03469E-19-2.31636E-18
 -1      1555 9.88462E-05-2.97671E-05-2.95859E-05-9.31829E-07-3.79477E-19-2.34353E-18
 -1      1556 9.89237E-05-2.98697E-05-2.95716E-05-2.08470E-06-4.04912E-19-2.24290E-18
 -1      1557 1.01024E-04-3.03904E-05-3.02465E-05-3.59299E-07 1.93486E-19-2.24519E-18
 -1      1558 1.00432E-04-3.02353E-05-3.00708E-05-4.64892E-07-3.05547E-19-2.13107E-18
 -1      1559 1.00194E-04-3.02348E-05-2.99594E-05-1.16974E-06-2.99320E-19-1.70126E-18
 -1      1560 1.01308E-04-3.04490E-05-3.03528E-05-7.49121E-10-4.60331E-19-1.73062E-18
 -1      1561 1.01154E-04-3.04290E-05-3.03034E-05-8.44338E-08-3.95176E-19-2.11083E-18
 -1      1562 1.00749E-04-3.03609E-05-3.01471E-05-3.79311E-07-3.89595E-19-1.45589E-18
 -1      1563 1.01029E-04-3.03407E-05-3.02879E-05 2.38364E-07 5.11512E-20-1.80567E-18
 -1      1564 1.01188E-04-3.04122E-05-3.03303E-05 1.81262E-07-1.92875E-19-1.77808E-18
 -1      1565 1.00733E-04-3.03096E-05-3.01677E-05 2.04397E-07-3.73050E-19-1.51646E-18
 -1      1566 1.00403E-04-3.01338E-05-3.01143E-05 3.70065E-07 2.21670E-19-2.31134E-18
 -1      1567 1.00751E-04-3.02568E-05-3.02131E-05 3.37280E-07 4.20858E-19-1.62300E-18
 -1      1568 1.00324E-04-3.01456E-05-3.00681E-05 5.72224E-07 2.03879E-19-1.63195E-18
 -1      1569 9.96109E-05-2.98830E-05-2.98856E-05 4.19190E-07-6.49976E-20-2.48516E-18
 -1      1570 1.00047E-04-3.00265E-05-3.00114E-05 4.05375E-07-1.57772E-19-2.49918E-18
 -1      1571 9.96890E-05-2.99236E-05-2.98953E-05 7.56623E-07 4.46347E-19-1.08276E-18
 -1      1572 9.87824E-05-2.96267E-05-2.96420E-05 4.12438E-07-4.61824E-20-2.49168E-18
 -1      1573 9.92336E-05-2.97696E-05-2.97734E-05 4.11699E-07-3.27145E-19-2.48383E-18
 -1      1574 9.89603E-05-2.96843E-05-2.96888E-05 8.05579E-07-2.45924E-19-1.28060E-18
 -1      1575 9.80020E-05-2.93889E-05-2.94099E-05 3.72724E-07-9.12513E-20-1.52255E-18
 -1      1576 9.84230E-05-2.95187E-05-2.95332E-05 3.79935E-07-1.69688E-19-1.54048E-18
 -1      1577 9.82321E-05-2.94539E-05-2.94775E-05 7.66342E-07-6.07307E-19-9.01140E-19
 -1      1578 9.73159E-05-2.91820E-05-2.92042E-05 3.17260E-07-5.85956E-19-1.11079E-18
 -1      1579 9.76824E-05-2.92928E-05-2.93121E-05 3.28518E-07-5.95380E-20-1.22036E-18
 -1      1580 9.75628E-05-2.92477E-05-2.92802E-05 6.77723E-07-4.13770E-19 3.96325E-19
 -1      1581 9.67429E-05-2.90108E-05-2.90315E-05 2.57680E-07 4.64799E-19-1.35790E-18
 -1      1582 9.70459E-05-2.91007E-05-2.91210E-05 2.70300E-07 2.85261E-19-8.80248E-19
 -1      1583 9.69827E-05-2.90726E-05-2.91071E-05 5.67994E-07 1.52992E-19-4.68738E-20
 -1      1584 9.62843E-05-2.88746E-05-2.88925E-05 2.01052E-07 6.22832E-19-2.61449E-18
 -1      1585 9.65242E-05-2.89447E-05-2.89636E-05 2.13362E-07 5.27951E-19-1.82903E-18
 -1      1586 9.65024E-05-2.89300E-05-2.89625E-05 4.55747E-07 1.13443E-18-6.26480E-19
 -1      1587 9.59306E-05-2.87703E-05-2.87850E-05 1.51096E-07 2.67541E-20-2.76601E-18
 -1      1588 9.61134E-05-2.88228E-05-2.88393E-05 1.62174E-07 1.70513E-20-2.73952E-18
 -1      1589 9.61198E-05-2.88179E-05-2.88464E-05 3.51896E-07 1.48385E-19-2.03110E-18
 -1      1590 9.56677E-05-2.86932E-05-2.87048E-05 1.09269E-07 6.22127E-19-3.69551E-18
 -1      1591 9.58017E-05-2.87311E-05-2.87447E-05 1.18711E-07 1.82655E-19-2.81369E-18
 -1      1592 9.58255E-05-2.87328E-05-2.87564E-05 2.61847E-07 1.49269E-20-2.92681E-18
 -1      1593 9.54796E-05-2.86384E-05-2.86472E-05 7.56380E-08 3.97034E-19-3.98017E-18
 -1      1594 9.55738E-05-2.86645E-05-2.86754E-05 8.33651E-08 2.90322E-19-3.53713E-18
 -1      1595 9.56069E-05-2.86703E-05-2.86892E-05 1.87370E-07 5.30689E-19-2.96317E-18
 -1      1596 9.53511E-05-2.86013E-05-2.86077E-05 4.94955E-08-1.04278E-18-3.19283E-18
 -1      1597 9.54140E-05-2.86182E-05-2.86266E-05 5.56172E-08-4.44785E-19-3.77024E-18
 -1      1598 9.54505E-05-2.86262E-05-2.86407E-05 1.28048E-07-2.57541E-19-1.41003E-18
 -1      1599 9.52685E-05-2.85776E-05-2.85822E-05 2.97828E-08-9.80129E-20-2.46238E-18
 -1      1600 9.53075E-05-2.85877E-05-2.85940E-05 3.45012E-08-9.68497E-19-3.79337E-18
 -1      1601 9.53434E-05-2.85964E-05-2.86072E-05 8.22946E-08-6.75590E-19-2.18710E-18
 -1      1602 9.52202E-05-2.85640E-05-2.85671E-05 1.53559E-08 2.79343E-19-3.82367E-18
 -1      1603 9.52417E-05-2.85691E-05-2.85737E-05 1.89040E-08 7.60713E-19-2.40309E-18
 -1      1604 9.52743E-05-2.85775E-05-2.85854E-05 4.80471E-08 5.24299E-19-4.59216E-18
 -1      1605 9.51969E-05-2.85577E-05-2.85597E-05 5.14548E-09 3.75750E-19-4.69704E-18
 -1      1606 9.52057E-05-2.85592E-05-2.85625E-05 7.74851E-09 2.52471E-19-3.93834E-18
 -1      1607 9.52337E-05-2.85668E-05-2.85723E-05 2.31912E-08 6.67057E-19-2.98184E-18
 -1      1608 9.51910E-05-2.85565E-05-2.85576E-05-1.75345E-09 1.91208E-19-4.92823E-18
 -1      1609 9.51911E-05-2.85556E-05-2.85578E-05 9.94571E-11 9.82128E-20-4.75173E-18
 -1      1610 9.52137E-05-2.85620E-05-2.85656E-05 5.81753E-09 4.48409E-19-3.37550E-18
 -1      1611 9.51965E-05-2.85586E-05-2.85591E-05-6.01928E-09-7.97633E-19-4.29328E-18
 -1      1612 9.51911E-05-2.85562E-05-2.85576E-05-4.77021E-09 1.88209E-19-4.30169E-18
 -1      1613 9.52079E-05-2.85611E-05-2.85633E-05-5.62483E-09-3.67598E-19-1.95392E-18
 -1      1614 9.52085E-05-2.85625E-05-2.85624E-05-8.02406E-09-1.97457E-18-1.27748E-18
 -1      1615 9.52001E-05-2.85595E-05-2.85601E-05-7.31197E-09-1.68858E-18-3.47836E-18
 -1      1616 9.52113E-05-2.85629E-05-2.85639E-05-1.22047E-08-2.10433E-18-1.35223E-18
 -1      1617 9.52223E-05-2.85671E-05-2.85662E-05-7.77426E-09 2.07369E-19-5.06078E-19
 -1      1618 9.52135E-05-2.85641E-05-2.85638E-05-7.64743E-09-4.94667E-19-1.35985E-18
 -1      1619 9.52194E-05-2.85662E-05-2.85658E-05-1.43541E-08-1.32899E-18-1.97048E-18
 -1      1620 9.52332E-05-2.85710E-05-2.85692E-05-4.89912E-09 9.25049E-19-2.34492E-18
 -1      1621 9.52269E-05-2.85690E-05-2.85674E-05-5.46149E-09 9.86540E-19-2.78263E-19
 -1      1622 9.52288E-05-2.85702E-05-2.85679E-05-1.18752E-08 1.11344E-18-9.70519E-19
 -1      1623 9.52361E-05-2.85725E-05-2.85697E-05-1.56317E-09-8.57533E-19-1.23106E-18
 -1      1624 9.52403E-05-2.85835E-05-2.85671E-05-7.15638E-09 3.50909E-20 1.17976E-18
 -1      1625 9.52380E-05-2.85772E-05-2.85688E-05-6.34556E-09-1.49387E-18 7.18621E-19
 -1      1626 9.52447E-05-2.85954E-05-2.85640E-05-7.90996E-09-2.93141E-18-1.50714E-18
 -1      1627 9.52420E-05-2.85878E-05-2.85661E-05-7.97504E-09-4.06556E-19-2.32552E-18
 -1      1628 9.52402E-05-2.85827E-05-2.85674E-05-1.40920E-08 9.28168E-20-1.03725E-18
 -1      1629 9.52483E-05-2.86063E-05-2.85609E-05-6.76899E-09-4.24232E-18-8.04348E-20
 -1      1630 9.52460E-05-2.85994E-05-2.85628E-05-7.16621E-09-3.94159E-18 4.35048E-19
 -1      1631 9.52434E-05-2.85906E-05-2.85656E-05-1.41669E-08-9.18101E-19-1.71952E-18
 -1      1632 9.52507E-05-2.86145E-05-2.85585E-05-4.88113E-09-2.95666E-18 8.98359E-19
 -1      1633 9.52491E-05-2.86094E-05-2.85599E-05-5.29923E-09-4.44079E-18 1.53771E-18
 -1      1634 9.52459E-05-2.85974E-05-2.85638E-05-1.13127E-08-2.26636E-18 1.67478E-18
 -1      1635 9.52522E-05-2.86199E-05-2.85568E-05-3.17012E-09-5.38711E-18-1.17315E-18
 -1      1636 9.52512E-05-2.86165E-05-2.85577E-05-3.48732E-09-3.30334E-18-1.88708E-18
 -1      1637 9.52473E-05-2.86020E-05-2.85624E-05-7.86864E-09-3.60717E-18-1.23475E-18
 -1      1638 9.52530E-05-2.86232E-05-2.85557E-05-1.90757E-09-3.43206E-18 1.18808E-18
 -1      1639 9.52524E-05-2.86211E-05-2.85563E-05-2.11060E-09-4.66900E-18 1.32296E-18
 -1      1640 9.52480E-05-2.86049E-05-2.85614E-05-4.96843E-09-2.80144E-18-1.23995E-19
 -1      1641 9.52535E-05-2.86252E-05-2.85550E-05-1.11210E-09-2.99764E-18-6.69716E-19
 -1      1642 9.52532E-05-2.86240E-05-2.85554E-05-1.22628E-09-3.24982E-18-6.81979E-19
 -1      1643 9.52483E-05-2.86066E-05-2.85607E-05-2.95522E-09-2.23666E-18 5.16995E-19
 -1      1644 9.52538E-05-2.86262E-05-2.85547E-05-5.26652E-10-5.66504E-19 1.05860E-18
 -1      1645 9.52537E-05-2.86257E-05-2.85549E-05-6.23443E-10-2.22287E-18 1.97422E-18
 -1      1646 9.52485E-05-2.86077E-05-2.85603E-05-1.64896E-09-1.10104E-18 1.20275E-18
 -1      1647 9.52539E-05-2.86262E-05-2.85547E-05 2.19527E-10 1.52125E-18 6.70424E-19
 -1      1648 9.52540E-05-2.86265E-05-2.85547E-05 5.75635E-11-5.77961E-19 2.02157E-18
 -1      1649 9.52487E-05-2.86084E-05-2.85601E-05-4.66583E-10 3.84239E-19 2.19091E-18
 -1      1650 9.52536E-05-2.86246E-05-2.85553E-05 1.46181E-09 8.71425E-19-6.30451E-19
 -1      1651 9.52540E-05-2.86261E-05-2.85549E-05 1.17038E-09 1.59147E-18-1.20461E-18
 -1      1652 9.52490E-05-2.86087E-05-2.85602E-05 1.28035E-09 4.38007E-20 1.61235E-19
 -1      1653 9.52525E-05-2.86205E-05-2.85566E-05 3.31161E-09 1.50004E-19 6.69968E-19
 -1      1654 9.52535E-05-2.86237E-05-2.85557E-05 2.89120E-09 1.55428E-18-1.28621E-18
 -1      1655 9.52491E-05-2.86080E-05-2.85606E-05 4.06249E-09 3.53071E-20-1.83224E-18
 -1      1656 9.52503E-05-2.86130E-05-2.85589E-05 5.66474E-09 3.07677E-19-1.98008E-19
 -1      1657 9.52520E-05-2.86184E-05-2.85573E-05 5.14420E-09 1.98309E-19 1.39857E-18
 -1      1658 9.52486E-05-2.86054E-05-2.85615E-05 7.93682E-09 2.34785E-18 2.91433E-19
 -1      1659 9.52468E-05-2.86021E-05-2.85621E-05 7.90237E-09-1.77563E-18-7.77156E-19
 -1      1660 9.52494E-05-2.86096E-05-2.85600E-05 7.45525E-09-1.06509E-18 3.43594E-19
 -1      1661 9.52470E-05-2.86004E-05-2.85630E-05 1.23067E-08 1.37922E-18-7.52599E-19
 -1      1662 9.52423E-05-2.85892E-05-2.85656E-05 8.82795E-09 3.91143E-19 3.55379E-18
 -1      1663 9.52453E-05-2.85976E-05-2.85634E-05 8.81679E-09-2.83769E-18 1.25377E-18
 -1      1664 9.52442E-05-2.85929E-05-2.85649E-05 1.57101E-08-1.17177E-18 1.81050E-19
 -1      1665 9.52384E-05-2.85788E-05-2.85683E-05 6.91166E-09 2.76995E-18 3.76402E-19
 -1      1666 9.52412E-05-2.85858E-05-2.85665E-05 7.81052E-09 7.47898E-19 1.77732E-18
 -1      1667 9.52410E-05-2.85852E-05-2.85667E-05 1.57014E-08-1.86420E-18 2.80755E-18
 -1      1668 9.52375E-05-2.85782E-05-2.85681E-05 1.13995E-08-1.25212E-18 1.11125E-18
 -1      1669 2.11196E-05-6.73034E-05 1.40294E-05-3.27966E-06 2.68848E-18 1.76035E-18
 -1      1670 2.46691E-05-7.88942E-05 1.66114E-05 4.28023E-06 4.18434E-19 1.38532E-18
 -1      1671 1.96649E-05-3.98565E-05 4.37536E-06 3.40680E-06 4.42829E-18 2.54851E-18
 -1      1672 2.44873E-05-6.23496E-05 1.01820E-05 4.11267E-07 3.43218E-18 1.90670E-18
 -1      1673 3.15230E-05-1.11529E-05-1.07486E-05 2.71635E-05 7.00327E-18 6.66022E-18
 -1      1674 2.75494E-05-3.26301E-05-2.41157E-06 1.06530E-05 5.53536E-18 4.02129E-18
 -1      1675 6.72444E-05 1.36719E-06-2.88505E-05 5.83265E-05 8.71766E-18 9.77561E-18
 -1      1676 4.62995E-05-6.77600E-06-1.93572E-05 3.58251E-05 7.69445E-18 7.74527E-18
 -1      1677 1.25994E-04-8.67351E-06-4.71774E-05 8.01067E-05 7.44711E-18 7.77407E-18
 -1      1678 8.86313E-05 3.00372E-07-3.79154E-05 6.47030E-05 9.11662E-18 9.00311E-18
 -1      1679 1.92182E-04-3.40899E-05-6.26307E-05 7.64231E-05 4.09117E-18 5.27532E-18
 -1      1680 1.50016E-04-1.47411E-05-5.52222E-05 7.92568E-05 6.51877E-18 7.17098E-18
 -1      1681 2.43400E-04-5.84114E-05-7.29864E-05 4.40955E-05 2.65206E-18-8.63550E-19
 -1      1682 2.12136E-04-4.10680E-05-6.84239E-05 6.73419E-05 3.94373E-18 3.50333E-18
 -1      1683 2.57295E-04-6.46845E-05-7.62059E-05-7.45759E-06 2.34882E-18-6.16349E-18
 -1      1684 2.51327E-04-6.11738E-05-7.54018E-05 2.74357E-05 1.95474E-18-2.29673E-18
 -1      1685 2.30549E-04-5.00735E-05-7.20119E-05-5.52584E-05 4.36307E-18-1.03855E-17
 -1      1686 2.54667E-04-6.37526E-05-7.52527E-05-2.50129E-05 2.81956E-18-7.44457E-18
 -1      1687 1.66989E-04-2.29103E-05-5.89288E-05-7.05121E-05 7.72706E-18-1.23006E-17
 -1      1688 2.09388E-04-4.33007E-05-6.61866E-05-6.04435E-05 5.40952E-18-1.08496E-17
 -1      1689 1.03499E-04-4.46618E-06-4.19046E-05-6.65963E-05 1.08700E-17-1.30350E-17
 -1      1690 1.44242E-04-1.75064E-05-5.11922E-05-7.75356E-05 8.96246E-18-1.32019E-17
 -1      1691 5.29291E-05-3.73731E-06-2.30686E-05-4.16742E-05 1.21617E-17-1.10606E-17
 -1      1692 7.84597E-05 4.21034E-07-3.28380E-05-6.40605E-05 1.17568E-17-1.32789E-17
 -1      1693 3.01794E-05-2.64357E-05-5.74393E-06-1.51271E-05 1.00848E-17-7.54029E-18
 -1      1694 3.70437E-05-7.24696E-06-1.42778E-05-3.33033E-05 1.20617E-17-1.02965E-17
 -1      1695 2.51446E-05-5.76012E-05 8.17754E-06-1.98932E-06 6.16894E-18-4.05866E-18
 -1      1696 2.14579E-05-3.36683E-05 1.48379E-06-8.18219E-06 9.26315E-18-6.13718E-18
 -1      1697 2.49421E-05-7.80563E-05 1.61584E-05-3.16693E-06-7.87741E-20-2.99828E-18
 -1      1698 2.04355E-05-6.35582E-05 1.29301E-05 3.24120E-06 4.70612E-18-4.12145E-18
 -1      1699 2.30967E-05-7.83494E-05 1.69305E-05-9.64329E-06-4.47445E-18-1.73938E-18
 -1      1700 2.45434E-05-8.13282E-05 1.75606E-05 3.77482E-07-1.71037E-18-1.65807E-18
 -1      1701 1.86780E-05-5.53715E-05 1.00203E-05-8.19616E-06-8.07138E-18-4.80363E-18
 -1      1702 2.48318E-05-7.49418E-05 1.45001E-05-6.14022E-06-5.36214E-18-2.75688E-18
 -1      1703 3.30738E-05-2.63479E-05-5.95276E-06 1.81581E-05-9.34362E-18-7.00412E-18
 -1      1704 3.04252E-05-4.95181E-05 2.87621E-06 3.63367E-06-7.77068E-18-5.15208E-18
 -1      1705 6.15186E-05-6.80552E-06-2.42313E-05 4.62321E-05-1.01203E-17-1.02618E-17
 -1      1706 4.40302E-05-1.90253E-05-1.45180E-05 2.39996E-05-1.05447E-17-8.36953E-18
 -1      1707 1.23823E-04-1.37091E-05-4.48165E-05 7.34741E-05-8.58383E-18-1.13757E-17
 -1      1708 8.42731E-05-7.83590E-06-3.40262E-05 5.32102E-05-9.77730E-18-1.08793E-17
 -1      1709 2.00557E-04-3.93441E-05-6.33996E-05 7.52728E-05-5.82462E-18-1.06269E-17
 -1      1710 1.51489E-04-1.93953E-05-5.43255E-05 7.38499E-05-8.02479E-18-1.16111E-17
 -1      1711 2.63395E-04-6.59447E-05-7.64770E-05 4.36593E-05-3.85315E-18-3.82351E-18
 -1      1712 2.24210E-04-4.58956E-05-7.05932E-05 6.70018E-05-5.07876E-18-8.39071E-18
 -1      1713 2.79916E-04-7.24432E-05-8.06536E-05-8.68854E-06-1.82430E-18 1.64229E-18
 -1      1714 2.73913E-04-6.89064E-05-7.96824E-05 2.88558E-05-2.81469E-18-1.87914E-18
 -1      1715 2.36506E-04-5.17715E-05-7.34913E-05-4.92936E-05-2.97309E-18 5.20925E-18
 -1      1716 2.65897E-04-6.67037E-05-7.79604E-05-1.98502E-05-2.15612E-18 2.79351E-18
 -1      1717 1.68556E-04-2.52713E-05-5.85992E-05-7.21264E-05-6.25915E-18 8.44322E-18
 -1      1718 2.21110E-04-4.89049E-05-6.77818E-05-6.52057E-05-3.70450E-18 6.41289E-18
 -1      1719 9.60169E-05-8.45869E-06-3.82249E-05-5.85135E-05-8.49574E-18 9.43256E-18
 -1      1720 1.40210E-04-1.85757E-05-4.90811E-05-7.62100E-05-6.69410E-18 9.20894E-18
 -1      1721 4.80163E-05-1.59747E-05-1.74031E-05-2.76512E-05-7.48354E-18 7.70461E-18
 -1      1722 7.08063E-05-6.45887E-06-2.79390E-05-5.21899E-05-8.34836E-18 9.95264E-18
 -1      1723 2.77479E-05-4.20335E-05 3.71687E-07-2.11004E-06-5.13387E-18 4.11573E-18
 -1      1724 3.10223E-05-1.96473E-05-8.19176E-06-1.81069E-05-6.96261E-18 5.64124E-18
 -1      1725 2.49000E-05-6.96241E-05 1.24871E-05 5.65551E-06-2.15824E-18 1.76130E-18
 -1      1726 1.97418E-05-4.84127E-05 7.01427E-06 4.35008E-06-4.23347E-18 3.89466E-18
 -1      1727 2.47083E-05-8.13635E-05 1.74293E-05 1.26064E-06 2.40769E-19 1.17695E-18
 -1      1728 2.18872E-05-7.47693E-05 1.60431E-05 1.08946E-05-1.46283E-18 1.60809E-18
 -1      1729 6.72754E-05-3.24552E-05-1.62370E-05 4.11140E-05 2.66477E-18 5.71070E-18
 -1      1730 1.19880E-05-5.34520E-05 1.29503E-05 5.36749E-06-1.06409E-19 2.18577E-18
 -1      1731 9.52363E-05-2.85741E-05-2.85692E-05-5.18135E-09-1.21739E-18-1.19654E-18
 -1      1732 9.52353E-05-2.85750E-05-2.85685E-05-1.10065E-08 5.04131E-19 3.24517E-19
 -1      1733 1.93996E-05-4.92013E-05 8.56874E-06 1.70421E-05 8.29245E-19 2.24316E-18
 -1      1734 3.76323E-05-4.11358E-05-1.56833E-06 2.89895E-05 1.67289E-18 3.76548E-18
 -1      1735 1.06413E-04-2.75554E-05-3.30769E-05 4.94467E-05 4.98225E-18 4.91787E-18
 -1      1736 1.49418E-04-2.77962E-05-4.93814E-05 4.92117E-05 5.33377E-18 3.03915E-18
 -1      1737 1.87753E-04-3.16405E-05-6.25732E-05 3.87750E-05 4.95811E-18 7.31836E-19
 -1      1738 2.10933E-04-3.45197E-05-7.04125E-05 1.76228E-05 4.22712E-18-2.93984E-18
 -1      1739 2.14994E-04-3.48805E-05-7.17908E-05-8.08605E-06 4.20891E-18-4.16867E-18
 -1      1740 1.93555E-04-3.22141E-05-6.51990E-05-2.54014E-05 5.02926E-18-6.42559E-18
 -1      1741 1.60590E-04-3.12652E-05-5.25942E-05-3.89577E-05 6.31929E-18-7.33276E-18
 -1      1742 1.18033E-04-2.92758E-05-3.67356E-05-4.84874E-05 7.06595E-18-8.32125E-18
 -1      1743 7.51530E-05-3.14505E-05-1.96404E-05-4.31939E-05 6.39933E-18-7.73849E-18
 -1      1744 4.37800E-05-3.99801E-05-4.34999E-06-3.20490E-05 4.88738E-18-6.41818E-18
 -1      1745 2.23323E-05-4.77264E-05 6.97594E-06-2.02065E-05 2.12732E-18-5.60249E-18
 -1      1746 1.27517E-05-5.37097E-05 1.28067E-05-7.08575E-06-1.64854E-19-4.47742E-18
 -1      1747 1.53308E-05-5.43391E-05 1.18157E-05 5.12219E-06-2.53157E-18-3.33900E-18
 -1      1748 3.42184E-05-4.79991E-05 2.54656E-06 2.28169E-05-3.62064E-18-4.71173E-18
 -1      1749 6.66952E-05-4.46439E-05-1.19979E-05 3.39253E-05-4.69764E-18-5.13260E-18
 -1      1750 1.06328E-04-3.83806E-05-2.95684E-05 4.17711E-05-5.89535E-18-6.86181E-18
 -1      1751 1.55545E-04-3.83356E-05-4.79575E-05 4.23637E-05-5.93347E-18-7.08543E-18
 -1      1752 2.00488E-04-4.02348E-05-6.38179E-05 3.23887E-05-5.58724E-18-4.71035E-18
 -1      1753 2.28617E-04-4.11127E-05-7.36820E-05 1.47924E-05-5.27320E-18-3.95141E-19
 -1      1754 2.24267E-04-3.72787E-05-7.40769E-05-2.70838E-06-3.56559E-18 1.99392E-18
 -1      1755 2.04345E-04-3.78826E-05-6.63427E-05-2.02977E-05-3.98021E-18 3.87772E-18
 -1      1756 1.68354E-04-3.97403E-05-5.19882E-05-3.83118E-05-4.69997E-18 4.18265E-18
 -1      1757 1.15962E-04-3.82655E-05-3.30601E-05-4.21428E-05-4.48250E-18 5.07119E-18
 -1      1758 6.92182E-05-4.06297E-05-1.44802E-05-3.39497E-05-3.11878E-18 5.46717E-18
 -1      1759 3.64045E-05-4.69088E-05 6.71259E-07-2.14732E-05-2.21838E-18 4.44181E-18
 -1      1760 1.75849E-05-5.26845E-05 1.03384E-05-8.58729E-06-1.17187E-18 3.13233E-18
 -1      1761 1.05965E-04-2.31962E-05-3.55598E-05-1.64708E-05-1.31555E-18 6.24327E-18
 -1      1762 8.94059E-05-1.05751E-05-3.39114E-05-1.25672E-05-1.81161E-18-1.37158E-18
 -1      1763 9.07978E-05-1.16792E-05-3.40456E-05-1.43904E-05-2.02589E-18-6.98220E-19
 -1      1764 9.28245E-05-1.39808E-05-3.39514E-05-1.53160E-05-2.02414E-18 1.30972E-19
 -1      1765 9.45186E-05-1.59522E-05-3.41672E-05-1.70160E-05-2.12931E-18 1.18500E-18
 -1      1766 9.37562E-05-1.63948E-05-3.31675E-05-1.30098E-05-2.10907E-18-1.86559E-19
 -1      1767 8.60872E-05-7.36254E-06-3.38118E-05-7.22656E-06-1.12405E-18-2.60250E-18
 -1      1768 8.65884E-05-7.71719E-06-3.38603E-05-8.55881E-06-1.31841E-18-2.43359E-18
 -1      1769 8.52807E-05-6.60261E-06-3.37786E-05-4.84992E-06-7.00764E-19-2.83356E-18
 -1      1770 8.56002E-05-6.82244E-06-3.38091E-05-6.06894E-06-8.94106E-19-2.74476E-18
 -1      1771 8.73357E-05-9.39002E-06-3.34343E-05-6.28969E-06-1.10512E-18-2.56741E-18
 -1      1772 8.48117E-05-6.16351E-06-3.37575E-05-2.63318E-06-2.85902E-19-2.85739E-18
 -1      1773 8.49871E-05-6.28213E-06-3.37748E-05-3.76880E-06-4.95938E-19-2.82626E-18
 -1      1774 8.64992E-05-8.53892E-06-3.34399E-05-4.09491E-06-6.25622E-19-2.72564E-18
 -1      1775 8.46279E-05-5.98976E-06-3.37480E-05-4.99315E-07 1.47400E-19-2.86535E-18
 -1      1776 8.46785E-05-6.02213E-06-3.37543E-05-1.59775E-06-6.93295E-20-2.88129E-18
 -1      1777 8.60415E-05-8.08289E-06-3.34388E-05-2.01698E-06-1.28132E-19-2.75091E-18
 -1      1778 8.47069E-05-6.05673E-06-3.37506E-05 1.63001E-06 4.43426E-19-2.86858E-18
 -1      1779 8.46397E-05-6.00812E-06-3.37464E-05 5.25915E-07 2.94439E-19-2.87230E-18
 -1      1780 8.59132E-05-7.96255E-06-3.34356E-05 9.11696E-09 2.19502E-19-2.76016E-18
 -1      1781 8.50489E-05-6.36455E-06-3.37654E-05 3.83042E-06 7.50936E-19-2.77297E-18
 -1      1782 8.48610E-05-6.23163E-06-3.37504E-05 2.67912E-06 6.27540E-19-2.84386E-18
 -1      1783 8.60945E-05-8.15536E-06-3.34314E-05 2.04995E-06 5.56407E-19-2.71346E-18
 -1      1784 8.56686E-05-6.92890E-06-3.37929E-05 6.13476E-06 1.13735E-18-2.57462E-18
 -1      1785 8.53497E-05-6.70374E-06-3.37656E-05 4.91540E-06 9.36206E-19-2.71474E-18
 -1      1786 8.65878E-05-8.66584E-06-3.34247E-05 4.14844E-06 9.09419E-19-2.60659E-18
 -1      1787 8.66710E-05-7.85148E-06-3.38380E-05 8.69518E-06 1.57363E-18-2.04541E-18
 -1      1788 8.61614E-05-7.48554E-06-3.37916E-05 7.31599E-06 1.31513E-18-2.30396E-18
 -1      1789 8.74379E-05-9.54930E-06-3.34115E-05 6.37239E-06 1.34006E-18-2.30310E-18
 -1      1790 8.82544E-05-9.33170E-06-3.39103E-05 1.15362E-05 1.96388E-18-1.43858E-18
 -1      1791 8.74404E-05-8.72594E-06-3.38312E-05 9.95610E-06 1.74637E-18-1.81297E-18
 -1      1792 8.87742E-05-1.09520E-05-3.33823E-05 8.75959E-06 1.74270E-18-1.78994E-18
 -1      1793 9.09298E-05-1.19092E-05-3.40189E-05 1.46347E-05 2.18909E-18-2.38228E-19
 -1      1794 8.95168E-05-1.07697E-05-3.38838E-05 1.27948E-05 2.04292E-18-1.00040E-18
 -1      1795 9.08561E-05-1.31755E-05-3.33132E-05 1.11944E-05 2.09077E-18-1.04905E-18
 -1      1796 9.61558E-05-1.71994E-05-3.40539E-05 1.70790E-05 2.17880E-18 2.00514E-18
 -1      1797 9.31466E-05-1.44327E-05-3.39094E-05 1.55355E-05 2.15356E-18 7.04970E-19
 -1      1798 9.41916E-05-1.69279E-05-3.31147E-05 1.31500E-05 2.23949E-18 3.51889E-19
 -1      1799 1.02071E-04-2.51743E-05-3.33881E-05 1.39577E-05 1.81530E-18 4.67848E-18
 -1      1800 9.83026E-05-1.96953E-05-3.36777E-05 1.64343E-05 1.98333E-18 2.94090E-18
 -1      1801 9.77270E-05-2.19889E-05-3.25049E-05 1.26797E-05 2.19335E-18 2.09500E-18
 -1      1802 9.90585E-05-2.62472E-05-3.14144E-05 8.98393E-06 1.73110E-18 4.13862E-18
 -1      1803 1.00318E-04-1.96753E-05-3.42431E-05-1.83402E-05-1.78020E-18 3.02158E-18
 -1      1804 9.59239E-05-2.74558E-05-2.93568E-05 3.64202E-06 1.35553E-18 3.31466E-18
 -1      1805 9.81108E-05-2.75037E-05-3.03084E-05 5.94468E-06 1.45285E-18 3.80188E-18
 -1      1806 9.79800E-05-2.57371E-05-3.09441E-05 8.17351E-06 1.70664E-18 2.70343E-18
 -1      1807 1.00065E-04-2.26352E-05-3.29050E-05-1.38778E-05-1.91498E-18 2.23050E-18
 -1      1808 9.74846E-05-2.70952E-05-3.00502E-05-5.07822E-06-1.48469E-18 1.81742E-18
 -1      1809 9.58627E-05-2.71809E-05-2.94007E-05-3.22517E-06-1.27256E-18 1.46590E-18
 -1      1810 9.51889E-05-2.73990E-05-2.89542E-05-1.64940E-06-1.16195E-18 1.42949E-18
 -1      1811 9.46549E-05-2.75245E-05-2.87241E-05-7.03399E-07-9.81830E-19 1.06281E-18
 -1      1812 9.62254E-05-2.66350E-05-2.98487E-05-3.54006E-06-1.45782E-18 5.58706E-19
 -1      1813 9.43252E-05-2.76046E-05-2.85331E-05 2.77051E-07-7.51331E-19 9.27557E-19
 -1      1814 9.43399E-05-2.77326E-05-2.85090E-05 8.57729E-07-5.82286E-19 7.39470E-19
 -1      1815 9.53471E-05-2.73270E-05-2.91760E-05-6.11786E-07-1.06443E-18 4.85224E-19
 -1      1816 9.43197E-05-2.78009E-05-2.84737E-05 1.53281E-06-4.73094E-19 6.77155E-19
 -1      1817 9.47137E-05-2.79669E-05-2.85746E-05 1.95933E-06-4.82655E-19 6.07903E-19
 -1      1818 9.50832E-05-2.76672E-05-2.89141E-05 1.27246E-06-6.93971E-19 6.15786E-20
 -1      1819 9.49419E-05-2.80520E-05-2.86475E-05 2.50175E-06-5.98277E-19 6.46304E-19
 -1      1820 9.56310E-05-2.82611E-05-2.88420E-05 2.88412E-06-5.12394E-19 4.07540E-19
 -1      1821 9.53322E-05-2.79011E-05-2.89175E-05 2.65743E-06-5.71449E-19-4.37289E-20
 -1      1822 9.60627E-05-2.83681E-05-2.89999E-05 3.40215E-06-4.22931E-19 4.50642E-19
 -1      1823 9.70224E-05-2.86254E-05-2.92788E-05 3.81083E-06-3.98506E-19 3.98569E-19
 -1      1824 9.60060E-05-2.81098E-05-2.91139E-05 3.85729E-06-5.57167E-19 1.07939E-19
 -1      1825 9.76330E-05-2.87548E-05-2.95113E-05 4.38102E-06-4.21040E-19 5.95919E-19
 -1      1826 9.88785E-05-2.90720E-05-2.98774E-05 4.86830E-06-3.47879E-19 4.58096E-19
 -1      1827 9.70447E-05-2.83199E-05-2.94668E-05 5.07782E-06-3.79085E-19 3.63384E-19
 -1      1828 9.96605E-05-2.92282E-05-3.01803E-05 5.54754E-06-4.57742E-19 4.96587E-19
 -1      1829 1.01234E-04-2.96278E-05-3.06427E-05 6.15060E-06-3.68780E-19 5.99044E-19
 -1      1830 9.84225E-05-2.85493E-05-2.99576E-05 6.46676E-06-3.81883E-19 2.35088E-19
 -1      1831 1.02195E-04-2.98261E-05-3.10130E-05 6.97295E-06-6.05159E-19 6.52708E-19
 -1      1832 1.04151E-04-3.03474E-05-3.15816E-05 7.70180E-06-6.67029E-19 4.84327E-19
 -1      1833 1.00145E-04-2.88334E-05-3.05738E-05 8.12407E-06-6.49267E-19 1.99605E-19
 -1      1834 1.05317E-04-3.06248E-05-3.20115E-05 8.65710E-06-5.42571E-19 3.04768E-19
 -1      1835 1.07713E-04-3.13408E-05-3.26876E-05 9.46170E-06-2.86165E-19-1.65949E-19
 -1      1836 1.02256E-04-2.92593E-05-3.12976E-05 1.00772E-05-6.63149E-19 1.09205E-19
 -1      1837 1.09236E-04-3.18211E-05-3.31797E-05 1.04912E-05-2.28170E-20-1.05760E-19
 -1      1838 1.12209E-04-3.28891E-05-3.39720E-05 1.12210E-05 2.22920E-19-1.36822E-19
 -1      1839 1.04926E-04-3.00437E-05-3.21133E-05 1.22684E-05-1.64687E-19 2.33224E-19
 -1      1840 1.14080E-04-3.37246E-05-3.44363E-05 1.19427E-05 3.70034E-19 2.90479E-19
 -1      1841 1.17260E-04-3.52008E-05-3.51927E-05 1.20899E-05 4.79158E-19 6.70413E-19
 -1      1842 1.08355E-04-3.16078E-05-3.29252E-05 1.42317E-05 6.74986E-19 4.65537E-21
 -1      1843 1.19848E-04-3.67202E-05-3.56012E-05 1.19649E-05 6.27691E-19 1.02764E-18
 -1      1844 1.23035E-04-3.87449E-05-3.62197E-05 1.08543E-05 9.82916E-19 1.32060E-18
 -1      1845 1.12888E-04-3.45678E-05-3.36254E-05 1.50291E-05 7.85345E-19 9.02722E-19
 -1      1846 1.26712E-04-4.12153E-05-3.65664E-05 8.91022E-06 1.41656E-18 1.38053E-18
 -1      1847 1.29202E-04-4.34969E-05-3.69019E-05 5.71410E-06 1.06909E-18 1.94543E-18
 -1      1848 1.19294E-04-3.97147E-05-3.42019E-05 1.31463E-05 1.47427E-18 1.22487E-18
 -1      1849 1.33952E-04-4.65352E-05-3.73641E-05 9.51867E-07 6.19366E-19 2.79993E-18
 -1      1850 1.34577E-04-4.77326E-05-3.74208E-05-4.40995E-06 8.46080E-19 3.12247E-18
 -1      1851 1.27971E-04-4.67784E-05-3.49184E-05 6.50129E-06 1.37161E-18 2.34438E-18
 -1      1852 1.38933E-04-4.92574E-05-3.84782E-05-1.15420E-05 5.16492E-20 3.63072E-18
 -1      1853 1.36339E-04-4.68053E-05-3.85693E-05-1.67369E-05-5.57493E-19 3.47681E-18
 -1      1854 1.37469E-04-5.22382E-05-3.66512E-05-5.94937E-06 4.08098E-19 3.49238E-18
 -1      1855 1.37359E-04-4.33927E-05-4.06546E-05-2.17317E-05-1.48893E-18 3.06866E-18
 -1      1856 1.31993E-04-3.67780E-05-4.10782E-05-2.12774E-05-2.07756E-18 1.97259E-18
 -1      1857 1.43132E-04-4.90655E-05-4.05849E-05-1.96854E-05-1.48548E-18 3.72128E-18
 -1      1858 1.30154E-04-3.08224E-05-4.31613E-05-1.77709E-05-2.47387E-18 1.38715E-18
 -1      1859 1.26552E-04-2.60323E-05-4.35020E-05-1.04420E-05-3.07452E-18 6.96208E-19
 -1      1860 1.41310E-04-3.49462E-05-4.60346E-05-2.14493E-05-3.04805E-18 2.65651E-18
 -1      1861 1.25669E-04-2.39217E-05-4.41185E-05 2.28147E-07-3.38093E-18 1.43943E-19
 -1      1862 1.27029E-04-2.57250E-05-4.40214E-05 9.37684E-06-3.28416E-18-6.97240E-19
 -1      1863 1.37638E-04-2.27210E-05-4.98282E-05-6.42763E-06-3.57151E-18 1.37548E-18
 -1      1864 1.29158E-04-3.08782E-05-4.23854E-05 1.83071E-05-2.71103E-18-9.19110E-19
 -1      1865 1.34549E-04-3.80531E-05-4.19144E-05 2.23385E-05-1.39168E-18-1.57311E-18
 -1      1866 1.39220E-04-2.72018E-05-4.85746E-05 1.57485E-05-3.28289E-18 5.57242E-19
 -1      1867 1.35521E-04-4.37629E-05-3.94910E-05 2.05391E-05-1.48554E-18-1.73738E-18
 -1      1868 1.39619E-04-4.84915E-05-3.92762E-05 1.66429E-05-4.82015E-19-2.08766E-18
 -1      1869 1.43249E-04-4.39590E-05-4.28776E-05 2.26287E-05-1.53895E-18-4.84926E-20
 -1      1870 1.36259E-04-4.84220E-05-3.78319E-05 9.51482E-06 9.89943E-19-1.95276E-18
 -1      1871 1.36740E-04-4.83181E-05-3.78297E-05 3.73320E-06 1.74240E-18-1.60428E-18
 -1      1872 1.40651E-04-5.25409E-05-3.79206E-05 1.20032E-05 2.46381E-19-6.74979E-21
 -1      1873 1.31961E-04-4.55047E-05-3.72303E-05-2.11096E-06 1.58040E-18-1.75940E-18
 -1      1874 1.30078E-04-4.34274E-05-3.70433E-05-6.23653E-06 1.05655E-18-1.15296E-18
 -1      1875 1.32060E-04-4.94336E-05-3.54766E-05-2.05306E-06 1.52728E-18 3.08254E-19
 -1      1876 1.26000E-04-4.06104E-05-3.67179E-05-9.12793E-06 5.54701E-19-4.53586E-19
 -1      1877 1.23054E-04-3.84315E-05-3.62243E-05-1.09276E-05 4.29565E-19 1.70982E-19
 -1      1878 1.22824E-04-4.23386E-05-3.45773E-05-1.09057E-05 1.24911E-18 3.70590E-19
 -1      1879 1.20160E-04-3.65747E-05-3.58714E-05-1.15612E-05 3.36795E-20-6.95427E-20
 -1      1880 1.17047E-04-3.49261E-05-3.51828E-05-1.17546E-05-6.51686E-20-1.18121E-19
 -1      1881 1.15661E-04-3.63249E-05-3.40639E-05-1.42459E-05 2.31101E-19 5.31497E-19
 -1      1882 1.15015E-04-3.38868E-05-3.47637E-05-1.12105E-05-9.46030E-20-1.64430E-19
 -1      1883 1.12173E-04-3.27525E-05-3.40351E-05-1.06180E-05 1.16080E-19-5.69077E-19
 -1      1884 1.10663E-04-3.26549E-05-3.34703E-05-1.41232E-05 3.56879E-20-2.57740E-19
 -1      1885 1.10669E-04-3.21982E-05-3.35952E-05-9.62729E-06-2.97123E-19-1.91231E-19
 -1      1886 1.08267E-04-3.14284E-05-3.29282E-05-8.78624E-06-7.34715E-19-3.83971E-19
 -1      1887 1.07115E-04-3.07245E-05-3.27611E-05-1.23746E-05-1.76024E-20 9.49107E-20
 -1      1888 1.07093E-04-3.11212E-05-3.25140E-05-7.73929E-06-5.50346E-19-1.81000E-19
 -1      1889 1.05158E-04-3.05899E-05-3.19525E-05-6.91846E-06-2.17400E-19 1.67369E-19
 -1      1890 1.04458E-04-2.97808E-05-3.20192E-05-1.01305E-05-2.50576E-19-1.37469E-19
 -1      1891 1.04217E-04-3.04015E-05-3.15909E-05-5.98546E-06 2.83558E-20-8.76927E-20
 -1      1892 1.02706E-04-3.00262E-05-3.11415E-05-5.28760E-06 7.76776E-19 1.04958E-19
 -1      1893 1.02383E-04-2.93224E-05-3.13226E-05-7.96222E-06 1.19888E-19-5.66792E-19
 -1      1894 1.01948E-04-2.98960E-05-3.08412E-05-4.52041E-06 1.82642E-18 5.36102E-20
 -1      1895 1.00793E-04-2.96261E-05-3.04927E-05-3.96556E-06 2.11502E-18 6.94741E-20
 -1      1896 1.00729E-04-2.90834E-05-3.07145E-05-6.09901E-06 1.58303E-18-1.06679E-18
 -1      1897 1.00188E-04-2.95281E-05-3.02517E-05-3.36157E-06 1.03991E-18-8.06751E-19
 -1      1898 9.93177E-05-2.93320E-05-2.99870E-05-2.93589E-06 4.74636E-21-6.40017E-19
 -1      1899 9.94088E-05-2.89401E-05-3.02090E-05-4.59237E-06 1.06147E-18-1.62282E-18
 -1      1900 9.88408E-05-2.92552E-05-2.97982E-05-2.47210E-06 9.44243E-20-9.51297E-19
 -1      1901 9.81932E-05-2.91124E-05-2.96001E-05-2.15189E-06 6.52268E-19 9.46849E-20
 -1      1902 9.83632E-05-2.88404E-05-2.98026E-05-3.41535E-06-2.91929E-20-1.67994E-18
 -1      1903 9.78222E-05-2.90515E-05-2.94547E-05-1.80094E-06 8.16692E-19 3.12633E-20
 -1      1904 9.73441E-05-2.89479E-05-2.93080E-05-1.56266E-06 4.02873E-19 2.18500E-19
 -1      1905 9.75448E-05-2.87643E-05-2.94834E-05-2.51447E-06 1.12516E-18-9.30950E-19
 -1      1906 9.70465E-05-2.88989E-05-2.91926E-05-1.28754E-06-9.28171E-19 7.46202E-19
 -1      1907 9.66853E-05-2.88207E-05-2.90809E-05-1.10471E-06-2.18869E-18 2.65822E-19
 -1      1908 9.68994E-05-2.87016E-05-2.92321E-05-1.82077E-06-3.20786E-19-8.15065E-19
 -1      1909 9.64745E-05-2.87845E-05-2.89998E-05-9.12204E-07-2.66948E-18 6.42041E-19
 -1      1910 9.62282E-05-2.87329E-05-2.89233E-05-7.84658E-07-1.80380E-18 1.06670E-19
 -1      1911 9.64104E-05-2.86554E-05-2.90420E-05-1.30102E-06-2.28932E-18 5.90593E-19
 -1      1912 9.60706E-05-2.87060E-05-2.88631E-05-6.41766E-07-5.35924E-19 4.03128E-19
 -1      1913 9.58957E-05-2.86698E-05-2.88085E-05-5.48565E-07-6.70924E-19 3.78619E-19
 -1      1914 9.60540E-05-2.86199E-05-2.89037E-05-9.26301E-07-1.14528E-18 1.58981E-18
 -1      1915 9.57803E-05-2.86503E-05-2.87646E-05-4.43324E-07-8.27741E-19 8.68919E-19
 -1      1916 9.56583E-05-2.86259E-05-2.87262E-05-3.75492E-07-2.41513E-19 1.04590E-18
 -1      1917 9.57910E-05-2.85941E-05-2.88013E-05-6.48818E-07-8.09840E-19 8.32728E-19
 -1      1918 9.55755E-05-2.86121E-05-2.86947E-05-2.98519E-07-8.29753E-19 7.32090E-19
 -1      1919 9.54925E-05-2.85962E-05-2.86683E-05-2.49505E-07-7.93929E-19 7.04470E-19
 -1      1920 9.56003E-05-2.85763E-05-2.87266E-05-4.44647E-07-6.62283E-19 1.25874E-18
 -1      1921 9.54344E-05-2.85869E-05-2.86461E-05-1.93675E-07-2.83586E-19-9.58214E-20
 -1      1922 9.53798E-05-2.85773E-05-2.86285E-05-1.58586E-07 9.24686E-19-1.22191E-18
 -1      1923 9.54649E-05-2.85649E-05-2.86730E-05-2.95541E-07-1.12512E-18-5.20254E-19
 -1      1924 9.53403E-05-2.85714E-05-2.86133E-05-1.18527E-07 6.41391E-19-1.96720E-18
 -1      1925 9.53063E-05-2.85661E-05-2.86020E-05-9.37199E-08 5.74113E-20-2.29465E-18
 -1      1926 9.53714E-05-2.85583E-05-2.86353E-05-1.87674E-07 2.44378E-19-1.92333E-18
 -1      1927 9.52805E-05-2.85627E-05-2.85919E-05-6.53950E-08 1.88088E-19-1.36017E-18
 -1      1928 9.52610E-05-2.85606E-05-2.85852E-05-4.81681E-08 4.68791E-19-9.24987E-19
 -1      1929 9.53090E-05-2.85555E-05-2.86095E-05-1.10604E-07 1.06740E-18-1.16937E-18
 -1      1930 9.52452E-05-2.85590E-05-2.85788E-05-2.85720E-08 1.07278E-18-5.11731E-19
 -1      1931 9.52359E-05-2.85590E-05-2.85754E-05-1.69531E-08 1.42765E-18 1.65578E-19
 -1      1932 9.52696E-05-2.85554E-05-2.85924E-05-5.64921E-08 1.04490E-18 5.07524E-19
 -1      1933 9.52272E-05-2.85587E-05-2.85716E-05-3.89804E-09 8.06809E-19 2.04976E-19
 -1      1934 9.52247E-05-2.85601E-05-2.85702E-05 3.49784E-09 4.48706E-19 5.30497E-19
 -1      1935 9.52466E-05-2.85572E-05-2.85816E-05-1.95454E-08 1.73676E-18 6.14656E-19
 -1      1936 9.52207E-05-2.85608E-05-2.85682E-05 1.15348E-08 2.59741E-20 5.33634E-19
 -1      1937 9.52226E-05-2.85631E-05-2.85682E-05 1.55775E-08 2.85468E-19-4.01100E-19
 -1      1938 9.52350E-05-2.85604E-05-2.85751E-05 4.39040E-09-7.02272E-20-1.11440E-18
 -1      1939 9.52217E-05-2.85645E-05-2.85672E-05 1.95796E-08-3.41932E-19-2.29642E-19
 -1      1940 9.52258E-05-2.85674E-05-2.85678E-05 2.06477E-08-1.16081E-18-5.12709E-19
 -1      1941 9.52311E-05-2.85647E-05-2.85715E-05 1.80899E-08-4.16517E-19-1.33475E-18
 -1      1942 9.52269E-05-2.85694E-05-2.85674E-05 2.09238E-08-1.77556E-18 1.27380E-19
 -1      1943 9.52317E-05-2.85729E-05-2.85681E-05 1.91528E-08-2.22111E-18 2.61873E-19
 -1      1944 9.52322E-05-2.85705E-05-2.85694E-05 2.33369E-08-1.26090E-18-5.60719E-19
 -1      1945 9.52343E-05-2.85759E-05-2.85678E-05 1.47487E-08-1.97589E-18 5.20222E-19
 -1      1946 9.38730E-05-2.76357E-05-2.83497E-05 1.19598E-07 7.83294E-19 1.80741E-18
 -1      1947 9.41410E-05-2.75357E-05-2.84836E-05 7.49484E-07 7.52228E-19 2.22226E-18
 -1      1948 9.37618E-05-2.78224E-05-2.82342E-05-8.91741E-07 6.63568E-19 1.58650E-18
 -1      1949 9.36408E-05-2.76924E-05-2.82200E-05-5.41895E-07 7.81964E-19 1.80128E-18
 -1      1950 9.47621E-05-2.76553E-05-2.87788E-05 1.92161E-08 9.53097E-19 8.69096E-19
 -1      1951 9.41624E-05-2.80677E-05-2.83098E-05-1.50188E-06 8.20011E-19 1.10551E-18
 -1      1952 9.37917E-05-2.78989E-05-2.82162E-05-1.29469E-06 7.54622E-19 1.47570E-18
 -1      1953 9.46173E-05-2.79347E-05-2.85956E-05-1.22552E-06 9.62511E-19 7.27050E-19
 -1      1954 9.48976E-05-2.83752E-05-2.84997E-05-1.85494E-06 5.67550E-19 7.48186E-19
 -1      1955 9.43786E-05-2.81765E-05-2.83605E-05-1.73914E-06 7.14383E-19 9.60487E-19
 -1      1956 9.49077E-05-2.82140E-05-2.85963E-05-1.97855E-06 9.37943E-19 3.90394E-19
 -1      1957 9.58314E-05-2.87320E-05-2.87527E-05-2.01368E-06 4.12303E-19 4.54713E-19
 -1      1958 9.52373E-05-2.85135E-05-2.85909E-05-1.97237E-06 4.76914E-19 6.75368E-19
 -1      1959 9.54943E-05-2.85287E-05-2.87089E-05-2.40672E-06 6.62508E-19 9.85412E-20
 -1      1960 9.68507E-05-2.91225E-05-2.90283E-05-1.98754E-06 7.88981E-20 4.89052E-19
 -1      1961 9.62445E-05-2.88952E-05-2.88634E-05-2.02344E-06 3.24009E-19 5.89008E-19
 -1      1962 9.62736E-05-2.88908E-05-2.88842E-05-2.57686E-06 3.60166E-19 8.53969E-20
 -1      1963 9.78442E-05-2.95254E-05-2.92884E-05-1.75120E-06 1.49754E-19 3.78276E-19
 -1      1964 9.72921E-05-2.93042E-05-2.91405E-05-1.87970E-06 1.01881E-19 6.12110E-19
 -1      1965 9.71566E-05-2.93010E-05-2.90834E-05-2.49312E-06 1.03448E-19 1.74299E-19
 -1      1966 9.86884E-05-2.99076E-05-2.94940E-05-1.26045E-06 2.97216E-19 3.22021E-19
 -1      1967 9.82665E-05-2.97148E-05-2.93850E-05-1.50270E-06 2.31356E-19 3.28733E-19
 -1      1968 9.80545E-05-2.97488E-05-2.92726E-05-2.11977E-06 2.18718E-19 7.52122E-20
 -1      1969 9.92408E-05-3.02179E-05-2.96050E-05-4.73927E-07 4.43496E-19 3.83686E-19
 -1      1970 9.90362E-05-3.00862E-05-2.95583E-05-8.46413E-07 5.09184E-19 5.20912E-19
 -1      1971 9.88654E-05-3.02047E-05-2.94204E-05-1.40311E-06 3.71773E-19 1.38447E-19
 -1      1972 9.93461E-05-3.03824E-05-2.95847E-05 6.13833E-07 3.39409E-20 1.12693E-19
 -1      1973 9.94485E-05-3.03549E-05-2.96222E-05 1.15047E-07 2.90857E-19 2.87406E-19
 -1      1974 9.94659E-05-3.06097E-05-2.94990E-05-3.02562E-07 4.38399E-19 5.08317E-19
 -1      1975 9.88596E-05-3.03079E-05-2.94083E-05 1.92905E-06-3.26505E-19 6.27638E-19
 -1      1976 9.93411E-05-3.04333E-05-2.95445E-05 1.34775E-06-4.08607E-19 3.10293E-19
 -1      1977 9.97097E-05-3.08665E-05-2.94879E-05 1.16399E-06-3.03529E-19 3.81825E-19
 -1      1978 9.76933E-05-2.99034E-05-2.90749E-05 3.27751E-06-2.61181E-19 1.48659E-18
 -1      1979 9.85759E-05-3.02199E-05-2.93089E-05 2.71304E-06-1.52863E-20 1.38070E-18
 -1      1980 9.94448E-05-3.08437E-05-2.93793E-05 2.86472E-06-6.14097E-19 8.01056E-19
 -1      1981 9.58821E-05-2.91249E-05-2.86180E-05 4.33491E-06-3.16453E-19 9.49266E-19
 -1      1982 9.71004E-05-2.96345E-05-2.89265E-05 3.93941E-06-9.86032E-20 1.13306E-18
 -1      1983 9.85580E-05-3.04094E-05-2.91841E-05 4.50844E-06-1.98523E-23 1.14270E-18
 -1      1984 9.36494E-05-2.80374E-05-2.81085E-05 4.70776E-06 8.48865E-20 6.01992E-19
 -1      1985 9.50262E-05-2.86769E-05-2.84435E-05 4.64896E-06-3.29229E-19 5.61278E-19
 -1      1986 9.70519E-05-2.95018E-05-2.89329E-05 5.65095E-06 1.90136E-20 8.71779E-19
 -1      1987 9.14271E-05-2.68585E-05-2.76447E-05 4.08332E-06 6.81342E-19 2.93047E-19
 -1      1988 9.26865E-05-2.74892E-05-2.79407E-05 4.47128E-06 6.68709E-19 2.02904E-19
 -1      1989 9.51299E-05-2.82203E-05-2.86722E-05 5.80144E-06 5.46828E-19 1.17162E-19
 -1      1990 8.97762E-05-2.59274E-05-2.73283E-05 2.42233E-06 4.45351E-19 4.53229E-19
 -1      1991 9.06111E-05-2.63677E-05-2.75185E-05 3.23024E-06 6.58899E-19 6.49926E-19
 -1      1992 9.32259E-05-2.68722E-05-2.84536E-05 4.63700E-06 5.95305E-19-9.77314E-20
 -1      1993 8.91942E-05-2.55725E-05-2.72340E-05 7.11262E-08 1.65899E-19 6.42107E-20
 -1      1994 8.93743E-05-2.56739E-05-2.72713E-05 1.10850E-06 1.10578E-19 3.36725E-19
 -1      1995 9.19047E-05-2.59001E-05-2.83213E-05 2.23906E-06 4.84609E-19 2.19220E-19
 -1      1996 8.98908E-05-2.59372E-05-2.73869E-05-2.32725E-06 2.98884E-19-7.44396E-20
 -1      1997 8.93577E-05-2.56620E-05-2.72601E-05-1.34996E-06 6.78751E-20 3.36010E-19
 -1      1998 9.16257E-05-2.56772E-05-2.83019E-05-8.22311E-07 1.57012E-19 9.52124E-19
 -1      1999 9.16770E-05-2.68926E-05-2.77555E-05-4.11174E-06 5.71314E-19 3.08337E-19
 -1      2000 9.05691E-05-2.63345E-05-2.74926E-05-3.45348E-06 6.41991E-19 2.65700E-19
 -1      2001 9.25041E-05-2.62971E-05-2.84022E-05-3.68353E-06 4.58854E-19 7.73443E-19
 -1      2002 9.40581E-05-2.81141E-05-2.82622E-05-4.89288E-06 5.45517E-19-2.23868E-20
 -1      2003 9.26485E-05-2.74453E-05-2.79208E-05-4.67453E-06 7.25419E-19 5.70894E-19
 -1      2004 9.42466E-05-2.75159E-05-2.86080E-05-5.57826E-06 5.53528E-19 1.18339E-18
 -1      2005 9.64603E-05-2.92550E-05-2.88082E-05-4.66851E-06 3.83653E-19-4.96920E-19
 -1      2006 9.50491E-05-2.86427E-05-2.84557E-05-4.85088E-06 5.90929E-19-2.00575E-19
 -1      2007 9.63172E-05-2.89000E-05-2.88851E-05-6.15969E-06 6.15709E-19 1.10113E-18
 -1      2008 9.84413E-05-3.00890E-05-2.93018E-05-3.73011E-06 2.64215E-19-6.45969E-19
 -1      2009 9.72614E-05-2.96371E-05-2.89957E-05-4.17094E-06 2.28598E-19-6.79936E-19
 -1      2010 9.81962E-05-3.00541E-05-2.91860E-05-5.55938E-06 2.14425E-19 7.86083E-19
 -1      2011 9.97810E-05-3.05481E-05-2.96791E-05-2.47101E-06-7.27535E-19-1.08461E-18
 -1      2012 9.89553E-05-3.02864E-05-2.94551E-05-3.00625E-06-2.52618E-19-1.05796E-18
 -1      2013 9.95597E-05-3.07705E-05-2.94612E-05-4.20832E-06 2.28239E-19 8.93046E-19
 -1      2014 1.00459E-04-3.06798E-05-2.99123E-05-1.22660E-06-2.67130E-19-1.08531E-18
 -1      2015 1.00007E-04-3.05855E-05-2.97816E-05-1.72826E-06-5.00477E-19-1.51532E-18
 -1      2016 1.00311E-04-3.10374E-05-2.96715E-05-2.59366E-06-2.85046E-19-3.38366E-19
 -1      2017 1.00579E-04-3.05814E-05-3.00046E-05-2.02474E-07-6.11844E-19-6.94987E-19
 -1      2018 1.00451E-04-3.06086E-05-2.99596E-05-5.99044E-07-3.47925E-19-8.04400E-19
 -1      2019 1.00514E-04-3.09622E-05-2.97956E-05-1.09026E-06-7.46145E-19-5.00562E-19
 -1      2020 1.00296E-04-3.03512E-05-2.99804E-05 5.22187E-07-3.46048E-19-1.15696E-18
 -1      2021 1.00409E-04-3.04524E-05-3.00025E-05 2.52595E-07-5.00788E-19-8.47314E-19
 -1      2022 1.00307E-04-3.06842E-05-2.98309E-05 9.48481E-08-3.71925E-19-2.26755E-19
 -1      2023 9.97636E-05-3.00656E-05-2.98729E-05 9.55921E-07 2.91589E-20-7.71224E-19
 -1      2024 1.00029E-04-3.02022E-05-2.99402E-05 8.03185E-07-1.79478E-19-1.41857E-18
 -1      2025 9.98390E-05-3.03214E-05-2.97895E-05 8.99586E-07-1.21061E-19-4.47542E-19
 -1      2026 9.91094E-05-2.97751E-05-2.97157E-05 1.15244E-06 8.26118E-20-2.54317E-19
 -1      2027 9.94534E-05-2.99201E-05-2.98079E-05 1.09147E-06 1.02206E-19-4.21501E-19
 -1      2028 9.92345E-05-2.99527E-05-2.96913E-05 1.35467E-06-1.28354E-19-1.95855E-19
 -1      2029 9.84276E-05-2.95082E-05-2.95368E-05 1.17897E-06-2.46140E-19-7.75920E-19
 -1      2030 9.87934E-05-2.96452E-05-2.96378E-05 1.18156E-06 2.52486E-20-5.50618E-19
 -1      2031 9.85870E-05-2.96208E-05-2.95580E-05 1.53425E-06-1.44508E-19 3.01355E-19
 -1      2032 9.77801E-05-2.92781E-05-2.93571E-05 1.09797E-06-1.39211E-18 4.92223E-19
 -1      2033 9.81302E-05-2.93985E-05-2.94557E-05 1.13919E-06-8.41881E-19-3.56651E-19
 -1      2034 9.79590E-05-2.93431E-05-2.94090E-05 1.52182E-06-9.57489E-19 5.39249E-19
 -1      2035 9.72025E-05-2.90887E-05-2.91902E-05 9.59196E-07-5.16863E-19 7.48580E-19
 -1      2036 9.75151E-05-2.91891E-05-2.92797E-05 1.01985E-06-9.68499E-19 5.38261E-19
 -1      2037 9.73877E-05-2.91220E-05-2.92595E-05 1.39164E-06-1.17014E-18 5.09078E-19
 -1      2038 9.67111E-05-2.89382E-05-2.90439E-05 7.98205E-07 8.41361E-19-9.13627E-20
 -1      2039 9.69761E-05-2.90186E-05-2.91207E-05 8.64978E-07 2.97915E-19 3.48731E-19
 -1      2040 9.68917E-05-2.89521E-05-2.91199E-05 1.20138E-06 4.79299E-19 1.54903E-19
 -1      2041 9.63086E-05-2.88222E-05-2.89210E-05 6.38007E-07 9.69406E-19-2.32630E-19
 -1      2042 9.65241E-05-2.88844E-05-2.89842E-05 7.02572E-07 1.55975E-18-1.98397E-19
 -1      2043 9.64768E-05-2.88255E-05-2.89963E-05 9.91496E-07 1.14820E-18-1.22768E-19
 -1      2044 9.59898E-05-2.87353E-05-2.88217E-05 4.91849E-07 5.63001E-19-1.27508E-18
 -1      2045 9.61588E-05-2.87819E-05-2.88717E-05 5.49626E-07 5.52531E-19-8.14156E-19
 -1      2046 9.61406E-05-2.87336E-05-2.88914E-05 7.87679E-07 1.26622E-18-2.96428E-19
 -1      2047 9.57451E-05-2.86722E-05-2.87441E-05 3.66046E-07 3.97385E-19-1.72992E-18
 -1      2048 9.58731E-05-2.87058E-05-2.87823E-05 4.15050E-07 2.60677E-19-1.30710E-18
 -1      2049 9.58758E-05-2.86686E-05-2.88054E-05 6.04319E-07 5.39634E-19-4.85908E-19
 -1      2050 9.55631E-05-2.86277E-05-2.86853E-05 2.62376E-07-2.26309E-19-2.40040E-18
 -1      2051 9.56567E-05-2.86511E-05-2.87136E-05 3.02271E-07 1.22847E-19-2.62000E-18
 -1      2052 9.56729E-05-2.86239E-05-2.87373E-05 4.47893E-07 6.65774E-19-2.39140E-18
 -1      2053 9.54324E-05-2.85977E-05-2.86423E-05 1.79906E-07-5.76992E-19-2.27321E-18
 -1      2054 9.54981E-05-2.86132E-05-2.86625E-05 2.11306E-07 1.05922E-19-2.55795E-18
 -1      2055 9.55219E-05-2.85944E-05-2.86848E-05 3.19759E-07-2.89837E-19-4.26002E-18
 -1      2056 9.53422E-05-2.85785E-05-2.86121E-05 1.16289E-07 8.81860E-19-2.79280E-18
 -1      2057 9.53862E-05-2.85881E-05-2.86258E-05 1.40272E-07-1.98701E-19-1.90800E-18
 -1      2058 9.54129E-05-2.85758E-05-2.86458E-05 2.18265E-07-2.74712E-20-4.09583E-18
 -1      2059 9.52832E-05-2.85673E-05-2.85918E-05 6.86244E-08 5.46891E-19-2.77922E-18
 -1      2060 9.53107E-05-2.85726E-05-2.86006E-05 8.64182E-08 6.92612E-19-2.95612E-18
 -1      2061 9.53371E-05-2.85651E-05-2.86176E-05 1.40240E-07 4.89405E-19-2.52228E-18
 -1      2062 9.52477E-05-2.85618E-05-2.85791E-05 3.40065E-08 4.47499E-19-2.69402E-18
 -1      2063 9.52629E-05-2.85640E-05-2.85842E-05 4.67897E-08 6.80411E-19-2.26976E-18
 -1      2064 9.52869E-05-2.85599E-05-2.85981E-05 8.19801E-08 4.39735E-19-2.59014E-18
 -1      2065 9.52292E-05-2.85604E-05-2.85719E-05 9.84438E-09 5.90165E-19-2.06965E-18
 -1      2066 9.52357E-05-2.85604E-05-2.85744E-05 1.86340E-08 3.64814E-19-1.89092E-18
 -1      2067 9.52559E-05-2.85584E-05-2.85852E-05 3.98698E-08-2.82570E-21-1.42610E-18
 -1      2068 9.52224E-05-2.85616E-05-2.85686E-05-5.94510E-09-1.46601E-18-1.60556E-20
 -1      2069 9.52230E-05-2.85602E-05-2.85693E-05-3.69063E-10 3.22007E-19-1.12044E-18
 -1      2070 9.52387E-05-2.85595E-05-2.85772E-05 1.07426E-08-2.16377E-19-1.57167E-19
 -1      2071 9.52231E-05-2.85647E-05-2.85677E-05-1.47913E-08-1.99922E-18-9.87143E-19
 -1      2072 9.52202E-05-2.85624E-05-2.85673E-05-1.19596E-08-1.75878E-18-7.74057E-19
 -1      2073 9.52313E-05-2.85624E-05-2.85727E-05-7.90238E-09-1.29320E-18-1.75381E-19
 -1      2074 9.52279E-05-2.85690E-05-2.85680E-05-1.73250E-08-1.19862E-18-2.66400E-19
 -1      2075 9.52234E-05-2.85662E-05-2.85672E-05-1.71894E-08-2.10874E-18-9.80081E-19
 -1      2076 9.52302E-05-2.85666E-05-2.85703E-05-1.78424E-08-2.10002E-18-3.27054E-19
 -1      2077 9.52333E-05-2.85734E-05-2.85685E-05-1.39438E-08 1.04030E-18-1.82768E-19
 -1      2078 9.52289E-05-2.85705E-05-2.85678E-05-1.64867E-08 1.78809E-19-2.19842E-19
 -1      2079 9.52322E-05-2.85712E-05-2.85691E-05-2.00533E-08-1.38152E-18 3.10713E-19
 -1      2080 9.52354E-05-2.85759E-05-2.85684E-05-1.61577E-08 5.05030E-19 1.74468E-18
 -1      2081 9.52451E-05-2.85893E-05-2.85668E-05-1.17723E-08-1.46653E-18 1.20168E-18
 -1      2082 9.52441E-05-2.85865E-05-2.85674E-05-1.36804E-08-1.16974E-18 3.43223E-19
 -1      2083 9.52437E-05-2.85864E-05-2.85674E-05-1.57868E-08-5.50577E-19-1.69213E-18
 -1      2084 9.52415E-05-2.85825E-05-2.85682E-05-1.70464E-08 4.71728E-19-4.64935E-18
 -1      2085 9.52425E-05-2.85787E-05-2.85702E-05-1.66374E-08-7.11048E-20-1.42894E-18
 -1      2086 9.52386E-05-2.85801E-05-2.85679E-05-1.70514E-08-3.89865E-19-1.38056E-18
 -1      2087 9.52451E-05-2.85905E-05-2.85663E-05-7.65839E-09-2.64820E-18-2.20735E-18
 -1      2088 9.52448E-05-2.85886E-05-2.85668E-05-9.44607E-09-3.05876E-18 2.27352E-19
 -1      2089 9.52429E-05-2.85783E-05-2.85706E-05-1.16039E-08-1.14669E-18-8.39940E-19
 -1      2090 9.52444E-05-2.85906E-05-2.85660E-05-4.51770E-09-9.49476E-19 9.18741E-19
 -1      2091 9.52444E-05-2.85894E-05-2.85663E-05-5.83319E-09-2.22446E-18 1.23211E-19
 -1      2092 9.52417E-05-2.85764E-05-2.85708E-05-7.11338E-09-1.15554E-18 5.05606E-19
 -1      2093 9.52437E-05-2.85903E-05-2.85658E-05-2.65650E-09-7.31536E-19-8.62193E-20
 -1      2094 9.52438E-05-2.85896E-05-2.85660E-05-3.44397E-09-1.09708E-18 8.98059E-19
 -1      2095 9.52401E-05-2.85743E-05-2.85710E-05-4.07056E-09-2.49625E-19 6.39173E-19
 -1      2096 9.52435E-05-2.85903E-05-2.85656E-05-1.63335E-09-3.16002E-19 3.10172E-18
 -1      2097 9.52434E-05-2.85899E-05-2.85658E-05-2.14940E-09-1.11521E-18 1.03801E-18
 -1      2098 9.52389E-05-2.85729E-05-2.85711E-05-2.53885E-09-3.69151E-19 1.06508E-18
 -1      2099 9.52440E-05-2.85909E-05-2.85656E-05-5.89768E-10 3.38030E-19 1.11106E-18
 -1      2100 9.52437E-05-2.85906E-05-2.85656E-05-1.23616E-09-3.42502E-19 2.38226E-18
 -1      2101 9.52387E-05-2.85727E-05-2.85711E-05-1.78974E-09-1.24466E-18 2.75183E-18
 -1      2102 9.52449E-05-2.85918E-05-2.85655E-05 1.39009E-09-7.39734E-19-9.70532E-19
 -1      2103 9.52446E-05-2.85919E-05-2.85655E-05 2.34552E-10-1.14844E-18 9.13984E-19
 -1      2104 9.52397E-05-2.85741E-05-2.85709E-05-6.85560E-10-1.30835E-18-2.71093E-19
 -1      2105 9.52460E-05-2.85923E-05-2.85657E-05 4.81728E-09 7.53519E-19 7.12641E-19
 -1      2106 9.52458E-05-2.85931E-05-2.85655E-05 3.01180E-09-5.60240E-19-6.45688E-20
 -1      2107 9.52416E-05-2.85765E-05-2.85707E-05 1.80727E-09-7.00488E-19 2.27109E-19
 -1      2108 9.52464E-05-2.85917E-05-2.85661E-05 9.73614E-09 2.88508E-18 1.11219E-18
 -1      2109 9.52467E-05-2.85936E-05-2.85657E-05 7.35353E-09 2.11593E-18 1.74033E-18
 -1      2110 9.52436E-05-2.85792E-05-2.85704E-05 6.24650E-09 1.46561E-18 2.18859E-18
 -1      2111 9.52454E-05-2.85892E-05-2.85668E-05 1.50983E-08 1.75256E-18-1.49422E-18
 -1      2112 9.52466E-05-2.85923E-05-2.85661E-05 1.27725E-08 2.96708E-18-1.57856E-18
 -1      2113 9.52448E-05-2.85812E-05-2.85701E-05 1.23370E-08 2.46439E-18 5.35060E-19
 -1      2114 9.52423E-05-2.85844E-05-2.85677E-05 1.88840E-08-4.67118E-20 5.87531E-19
 -1      2115 9.52446E-05-2.85888E-05-2.85668E-05 1.76825E-08 7.83143E-19-1.41311E-18
 -1      2116 9.52439E-05-2.85813E-05-2.85697E-05 1.85489E-08 1.66794E-18-2.75373E-18
 -1      2117 9.44688E-05-2.75535E-05-2.86298E-05 1.48023E-06 9.41279E-19 2.60346E-18
 -1      2118 9.53895E-05-2.75114E-05-2.90294E-05 2.61489E-06 1.14405E-18 3.03393E-18
 -1      2119 9.61004E-05-2.69977E-05-2.96192E-05 3.90814E-06 1.40995E-18 2.05535E-18
 -1      2120 9.52420E-05-2.73547E-05-2.91100E-05 1.73029E-06 1.15617E-18 1.38406E-18
 -1      2121 5.36198E-05-3.79091E-05-7.30917E-06 4.14882E-05 2.96462E-19 3.43162E-18
 -1      2122 4.04703E-05-4.10484E-05-1.24521E-06 3.41901E-05-4.18858E-19 2.56482E-18
 -1      2123 1.26428E-04-3.92757E-05-3.67856E-05 4.20009E-05 3.18654E-18 8.11458E-19
 -1      2124 1.06265E-04-4.09723E-05-2.86575E-05 3.99935E-05 2.17433E-18 2.28784E-18
 -1      2125 1.23081E-05-3.28398E-05 7.72328E-06 9.98023E-06-3.58718E-19 1.34255E-18
 -1      2126 1.21833E-05-3.47144E-05 8.34106E-06 4.53519E-07-6.74079E-19 1.61190E-18
 -1      2127 9.08991E-05-4.07191E-05-2.14367E-05 4.60560E-05 6.77203E-19 3.80657E-18
 -1      2128 7.31234E-05-4.32765E-05-1.38621E-05 4.11698E-05-2.77403E-19 3.56728E-18
 -1      2129 8.73584E-05-8.56878E-06-3.38569E-05-9.78397E-06-1.50494E-18-2.18243E-18
 -1      2130 8.81439E-05-9.15818E-06-3.39348E-05-1.13478E-05-1.71615E-18-1.77820E-18
 -1      2131 9.06713E-05-1.29717E-05-3.33648E-05-1.10993E-05-1.83297E-18-1.43187E-18
 -1      2132 8.86499E-05-1.07355E-05-3.34127E-05-8.63421E-06-1.47476E-18-2.16107E-18
 -1      2133 1.57155E-04-3.63812E-05-5.07705E-05 3.01081E-05 3.39930E-18-4.93820E-19
 -1      2134 1.39152E-04-3.74549E-05-4.36874E-05 3.21677E-05 3.43302E-18 1.46537E-19
 -1      2135 1.78307E-04-3.05162E-05-6.19647E-05 1.83777E-05 4.68155E-18-1.58988E-18
 -1      2136 1.64043E-04-3.03663E-05-5.67853E-05 2.37878E-05 4.67065E-18 1.22820E-20
 -1      2137 1.86253E-04-2.52562E-05-6.77382E-05 4.48421E-06 4.51130E-18-2.88203E-18
 -1      2138 1.82003E-04-2.62104E-05-6.55796E-05 1.32971E-05 4.77261E-18-1.78385E-18
 -1      2139 1.83510E-04-2.46112E-05-6.70038E-05-7.60967E-06 4.45539E-18-3.25642E-18
 -1      2140 1.84449E-04-2.32504E-05-6.78920E-05 3.85468E-07 4.33300E-18-2.56799E-18
 -1      2141 1.65784E-04-2.66228E-05-5.91992E-05-1.34898E-05 5.11502E-18-3.73923E-18
 -1      2142 1.81459E-04-2.70413E-05-6.44635E-05-1.15741E-05 4.86832E-18-3.66426E-18
 -1      2143 1.61005E-04-1.57898E-05-6.12597E-05 2.22029E-07 4.91449E-18-2.06020E-18
 -1      2144 1.46610E-04-3.74267E-05-4.66036E-05-2.70142E-05 4.63136E-18-4.79039E-18
 -1      2145 1.60519E-04-3.55251E-05-5.32414E-05-2.01058E-05 4.75747E-18-4.58880E-18
 -1      2146 1.13841E-04-4.14985E-05-3.14960E-05-3.87956E-05 3.77268E-18-5.61795E-18
 -1      2147 1.34540E-04-4.12704E-05-3.95707E-05-3.79857E-05 3.95501E-18-5.00427E-18
 -1      2148 8.09004E-05-4.39777E-05-1.68319E-05-4.12779E-05 2.67112E-18-4.88399E-18
 -1      2149 9.92635E-05-4.16460E-05-2.45617E-05-4.54877E-05 3.31063E-18-5.32953E-18
 -1      2150 4.70547E-05-4.18480E-05-3.56637E-06-3.65522E-05 1.92319E-18-4.88839E-18
 -1      2151 6.13303E-05-3.90019E-05-1.00587E-05-4.29814E-05 2.90998E-18-5.39073E-18
 -1      2152 2.21487E-05-3.78729E-05 5.32124E-06-2.38507E-05-3.38813E-20-5.56289E-18
 -1      2153 3.14886E-05-3.61906E-05 1.15435E-06-3.26890E-05 1.44377E-18-5.46633E-18
 -1      2154 1.17340E-05-3.80364E-05 9.55011E-06-3.79274E-06-4.44745E-19-3.89212E-18
 -1      2155 1.31090E-05-3.56640E-05 8.30252E-06-1.28867E-05 6.15793E-19-5.00639E-18
 -1      2156 1.95281E-05-3.81752E-05 6.54635E-06 1.56268E-05-1.54753E-18-3.73626E-18
 -1      2157 1.41249E-05-3.86761E-05 8.77239E-06 6.67539E-06-5.46124E-19-2.96377E-18
 -1      2158 4.75961E-05-4.15384E-05-3.60085E-06 3.41453E-05-9.96958E-19-3.42074E-18
 -1      2159 3.17092E-05-4.29494E-05 2.91582E-06 2.31257E-05-1.22650E-18-4.04119E-18
 -1      2160 3.05067E-05-3.33339E-05 6.10925E-07 2.60090E-05 3.70577E-19-3.78094E-18
 -1      2161 9.29421E-05-4.91951E-05-1.89380E-05 3.95689E-05-2.63385E-18-3.47114E-18
 -1      2162 7.54534E-05-4.98554E-05-1.16013E-05 3.70047E-05-1.32010E-18-2.84614E-18
 -1      2163 1.29850E-04-5.06913E-05-3.36676E-05 3.56601E-05-3.12767E-18-4.23982E-18
 -1      2164 1.07666E-04-5.17573E-05-2.50543E-05 3.36153E-05-2.75370E-18-3.88365E-18
 -1      2165 1.15068E-04-6.08453E-05-2.35526E-05 3.35638E-05-3.93870E-20-2.04347E-18
 -1      2166 1.67787E-04-4.75111E-05-5.05022E-05 2.42135E-05-3.98042E-18-3.24922E-18
 -1      2167 1.45552E-04-4.82092E-05-4.20703E-05 2.58011E-05-3.90715E-18-3.58464E-18
 -1      2168 1.92166E-04-3.99798E-05-6.34809E-05 1.06882E-05-5.47310E-18-2.16840E-19
 -1      2169 1.76055E-04-4.10074E-05-5.71955E-05 1.50923E-05-4.62226E-18-1.82112E-18
 -1      2170 2.01431E-04-3.26339E-05-7.03499E-05 1.51382E-06-5.01909E-18 1.62482E-18
 -1      2171 1.94552E-04-3.30402E-05-6.75675E-05 6.67469E-06-6.04782E-18 5.06102E-19
 -1      2172 1.88501E-04-2.67892E-05-6.82834E-05-1.92480E-06-3.57787E-18 2.22981E-18
 -1      2173 2.00768E-04-3.05026E-05-7.07194E-05 1.12961E-06-3.73965E-18 1.70315E-18
 -1      2174 1.76546E-04-2.09647E-05-6.51999E-05-1.27063E-06-4.89500E-18 1.81895E-18
 -1      2175 1.76588E-04-3.95905E-05-5.82822E-05-4.15595E-06-3.48279E-18 2.73676E-18
 -1      2176 1.83118E-04-3.45961E-05-6.30928E-05 2.17468E-06-3.23821E-18 2.46783E-18
 -1      2177 1.55117E-04-4.80478E-05-4.61012E-05-1.81410E-05-3.02274E-18 2.73846E-18
 -1      2178 1.74936E-04-4.71757E-05-5.41308E-05-1.32161E-05-3.42117E-18 3.13995E-18
 -1      2179 1.67485E-04-4.37983E-05-5.20524E-05 9.56039E-06-2.67927E-18 8.19081E-19
 -1      2180 1.15913E-04-5.17298E-05-2.85221E-05-3.13478E-05-1.69491E-18 2.43353E-18
 -1      2181 1.39899E-04-5.16298E-05-3.76153E-05-3.24494E-05-2.26835E-18 1.76098E-18
 -1      2182 7.17611E-05-4.79806E-05-1.18964E-05-3.35382E-05-1.28029E-18 3.73902E-18
 -1      2183 9.27827E-05-4.67146E-05-2.02413E-05-3.95337E-05-1.65934E-18 4.18858E-18
 -1      2184 3.85300E-05-4.38061E-05 5.57328E-07-2.68120E-05-9.52065E-19 3.58274E-18
 -1      2185 5.32591E-05-4.28861E-05-5.45205E-06-3.41465E-05-1.50475E-18 3.27238E-18
 -1      2186 1.58418E-05-3.74898E-05 7.75857E-06-9.26831E-06-2.59404E-19 2.66815E-18
 -1      2187 2.25022E-05-3.62022E-05 4.74218E-06-1.91191E-05-1.20787E-18 4.37747E-18
 -1      2188 1.61783E-05-2.45936E-05 3.04403E-06-6.61631E-06-3.61895E-19 2.23956E-18
 -1      2189 2.62540E-05-3.65396E-05 3.27573E-06 2.86246E-05-1.11808E-19 1.78915E-18
 -1      2190 1.84472E-05-3.76223E-05 6.71674E-06 2.09415E-05-8.12305E-19 1.24599E-18
 -1      2191 9.52361E-05-2.85772E-05-2.85681E-05 1.93945E-08-1.98148E-18 9.26994E-19
 -1      2192 1.12162E-04-5.22309E-05-2.55617E-05 3.93622E-05-7.51318E-19 1.34191E-18
 -1      2193 9.75837E-05-2.44270E-05-3.14223E-05-9.40201E-06-1.84971E-18 1.72702E-18
 -1      2194 7.58802E-05-4.64421E-05-1.28094E-05 4.61239E-05-1.72541E-18 2.87165E-18
 -1      2195 1.40258E-04-4.80849E-05-3.89661E-05 2.53263E-05 1.30125E-18-1.97867E-18
 -1      2196 9.67978E-05-2.31891E-05-3.16130E-05-9.61067E-06-1.95495E-18 5.87219E-19
 -1      2197 9.52386E-05-2.85766E-05-2.85695E-05-1.95869E-08-5.15122E-19-1.60494E-18
 -1      2198 1.78010E-05-2.63044E-05 3.01851E-06 1.83022E-05-1.33831E-18 1.02660E-18
 -1      2199 9.52388E-05-2.85807E-05-2.85677E-05 2.02421E-08-2.10442E-18 2.52832E-18
 -1      2200 4.00020E-05-3.59333E-05-2.35954E-06 3.87327E-05-1.40226E-18 2.61521E-18
 -1      2201 9.52385E-05-2.85768E-05-2.85693E-05 2.28104E-08-3.50963E-19-1.35137E-19
 -1      2202 3.63961E-05-3.58221E-05-9.29031E-07-2.86561E-05-3.96835E-19 3.42159E-18
 -1      2203 7.48509E-05-5.01442E-05-1.12206E-05-3.85243E-05-8.47033E-21 3.09657E-18
 -1      2204 1.55920E-04-5.90314E-05-4.09647E-05-1.02832E-05-9.54712E-19 1.43826E-18
 -1      2205 1.70579E-04-2.69656E-05-6.08859E-05 9.01160E-06-3.43853E-18 1.13460E-18
 -1      2206 1.77522E-04-3.14098E-05-6.11716E-05-4.95689E-06-5.77126E-18 2.33527E-18
 -1      2207 1.47180E-04-6.02602E-05-3.69860E-05 1.89947E-05-1.41031E-18-1.46748E-18
 -1      2208 6.85295E-05-4.68359E-05-9.64581E-06 3.79527E-05-2.42675E-19-2.73221E-18
 -1      2209 6.38284E-05-4.21686E-05-8.83619E-06 3.95344E-05 1.35674E-18-2.46847E-18
 -1      2210 8.94743E-05-5.30976E-05-1.59959E-05 3.92451E-05 1.43085E-18-1.49565E-18
 -1      2211 1.40017E-05-2.73336E-05 4.82920E-06 3.25299E-06 4.95938E-19-4.01409E-18
 -1      2212 2.03357E-05-2.84866E-05 2.83450E-06-2.29318E-05-3.82859E-19-5.33165E-18
 -1      2213 4.72211E-05-3.82556E-05-4.32257E-06-4.09284E-05-1.30443E-19-5.03985E-18
 -1      2214 8.43559E-05-4.88306E-05-1.53704E-05-4.56513E-05 3.78200E-19-3.96147E-18
 -1      2215 1.18895E-04-5.29522E-05-2.80168E-05-3.66776E-05 7.65506E-19-3.47029E-18
 -1      2216 1.58942E-04-3.11510E-05-5.42370E-05-8.97057E-06 4.27127E-18-2.77488E-18
 -1      2217 1.50759E-04-2.58414E-05-5.41454E-05 3.45648E-06 3.94251E-18-1.09754E-18
 -1      2218 1.49776E-04-3.55279E-05-4.87179E-05-2.42029E-06 3.10575E-18-4.05729E-19
 -1      2219 1.65576E-04-1.40380E-05-6.37277E-05 6.14617E-07 4.74169E-18-2.02716E-18
 -1      2220 1.56487E-04-3.57014E-05-5.09308E-05 1.04309E-05 3.00517E-18-2.49663E-18
 -1      2221 1.64867E-04-2.19506E-05-6.00457E-05 3.62968E-06 4.69066E-18-2.44327E-18
 -1      2222 1.44204E-04-4.65227E-05-4.12608E-05-2.13490E-05 2.35719E-18-2.65121E-18
 -1      2223 1.69665E-04-4.81201E-05-5.11453E-05 2.47299E-06-3.43668E-18 1.12105E-18
 -1      2224 1.18889E-04-5.96433E-05-2.53692E-05-3.23889E-05 3.98529E-19 1.63350E-18
 -1      2225 8.74953E-05-1.03721E-05-3.30926E-05-3.23079E-06-4.59939E-19-2.55294E-18
 -1      2226 8.78217E-05-1.06990E-05-3.30877E-05-4.25469E-06-7.24239E-19-2.53203E-18
 -1      2227 8.82954E-05-1.12787E-05-3.30541E-05-5.14609E-06-9.42698E-19-2.49235E-18
 -1      2228 8.88287E-05-1.18336E-05-3.30405E-05-6.23193E-06-1.19743E-18-2.32487E-18
 -1      2229 8.92896E-05-1.29537E-05-3.27107E-05-4.22999E-06-7.57807E-19-2.30427E-18
 -1      2230 8.70356E-05-9.85693E-06-3.31087E-05 4.75783E-07 2.89835E-19-2.67194E-18
 -1      2231 8.70186E-05-9.83837E-06-3.31108E-05-5.05023E-07 1.28376E-19-2.63704E-18
 -1      2232 8.73227E-05-1.01734E-05-3.30958E-05 2.35500E-06 6.54256E-19-2.58925E-18
 -1      2233 8.71459E-05-9.99541E-06-3.31005E-05 1.35184E-06 4.08224E-19-2.63051E-18
 -1      2234 8.82491E-05-1.17604E-05-3.27809E-05 8.03709E-07 3.20274E-19-2.48593E-18
 -1      2235 8.79442E-05-1.08697E-05-3.30666E-05 4.27333E-06 1.02696E-18-2.41856E-18
 -1      2236 8.76072E-05-1.05257E-05-3.30754E-05 3.24110E-06 7.69373E-19-2.52894E-18
 -1      2237 8.86609E-05-1.22460E-05-3.27486E-05 2.50265E-06 6.43327E-19-2.41473E-18
 -1      2238 8.89655E-05-1.20423E-05-3.30099E-05 6.31077E-06 1.54110E-18-2.04312E-18
 -1      2239 8.84277E-05-1.14730E-05-3.30276E-05 5.20107E-06 1.24490E-18-2.26369E-18
 -1      2240 8.94468E-05-1.31834E-05-3.26819E-05 4.24498E-06 1.08558E-18-2.17083E-18
 -1      2241 9.04876E-05-1.38536E-05-3.29043E-05 8.38439E-06 1.83678E-18-1.56297E-18
 -1      2242 8.96881E-05-1.29584E-05-3.29398E-05 7.23457E-06 1.60906E-18-1.83403E-18
 -1      2243 9.06595E-05-1.46680E-05-3.25600E-05 6.00286E-06 1.57186E-18-1.81881E-18
 -1      2244 9.26988E-05-1.66357E-05-3.26968E-05 1.02288E-05 2.10471E-18-7.94993E-19
 -1      2245 9.15111E-05-1.51861E-05-3.27761E-05 9.20018E-06 1.93942E-18-1.25029E-18
 -1      2246 9.23608E-05-1.68513E-05-3.23408E-05 7.61138E-06 1.78246E-18-1.25077E-18
 -1      2247 9.58605E-05-2.08962E-05-3.22190E-05 1.09749E-05 2.10298E-18 6.71446E-19
 -1      2248 9.41326E-05-1.85101E-05-3.24491E-05 1.06866E-05 2.11596E-18-1.97822E-19
 -1      2249 9.46253E-05-1.99959E-05-3.19358E-05 8.61616E-06 1.97002E-18-4.12862E-19
 -1      2250 9.78945E-05-2.46999E-05-3.14301E-05 9.22710E-06 1.84481E-18 2.03133E-18
 -1      2251 9.66582E-05-2.23292E-05-3.18535E-05 1.04131E-05 2.00503E-18 1.24151E-18
 -1      2252 9.62371E-05-2.32636E-05-3.12706E-05 8.02541E-06 1.92795E-18 6.57162E-19
 -1      2253 9.68107E-05-2.57844E-05-3.04430E-05 6.23265E-06 1.68499E-18 1.79568E-18
 -1      2254 9.64563E-05-2.50677E-05-3.05464E-05-5.17676E-06-1.51234E-18 1.07682E-19
 -1      2255 9.59377E-05-2.58153E-05-3.00611E-05-3.15015E-06-1.31379E-18 3.10821E-20
 -1      2256 8.97381E-05-4.92416E-05-1.74277E-05 4.60684E-05-2.85789E-18 2.65640E-18
 -1      2257 7.14834E-05-4.35442E-05-1.17755E-05 4.52775E-05-2.35899E-18 1.99010E-18
 -1      2258 1.24765E-04-5.61382E-05-2.95285E-05 3.24714E-05-1.06620E-18-1.29522E-18
 -1      2259 1.09979E-04-5.52424E-05-2.33357E-05 3.75673E-05-2.56990E-18 5.11184E-19
 -1      2260 9.58944E-05-2.64590E-05-2.97018E-05-1.63411E-06-1.13693E-18 1.82192E-19
 -1      2261 9.56165E-05-2.68229E-05-2.94729E-05-3.86388E-07-9.24536E-19 4.49531E-20
 -1      2262 9.58750E-05-2.51464E-05-3.03184E-05-2.91909E-06-1.24408E-18-3.42959E-19
 -1      2263 9.55156E-05-2.71065E-05-2.92812E-05 7.08356E-07-8.39762E-19 1.17977E-19
 -1      2264 9.55077E-05-2.73149E-05-2.92104E-05 1.57292E-06-7.23227E-19-1.47709E-19
 -1      2265 9.57367E-05-2.63642E-05-2.97464E-05-1.02510E-07-9.70811E-19-2.27585E-19
 -1      2266 9.54735E-05-2.74364E-05-2.91382E-05 2.41342E-06-5.78995E-19-1.92319E-19
 -1      2267 9.56996E-05-2.75767E-05-2.91768E-05 3.10097E-06-5.52586E-19-1.00467E-19
 -1      2268 9.56348E-05-2.69347E-05-2.94578E-05 1.98338E-06-7.88882E-19-1.97139E-19
 -1      2269 9.57442E-05-2.76070E-05-2.91922E-05 3.82496E-06-4.59898E-19-9.32984E-20
 -1      2270 9.61666E-05-2.77123E-05-2.93146E-05 4.46458E-06-3.96218E-19-4.36843E-20
 -1      2271 9.56713E-05-2.71617E-05-2.93730E-05 3.66258E-06-5.54408E-19-2.69879E-19
 -1      2272 9.62716E-05-2.76771E-05-2.93960E-05 5.17649E-06-3.75181E-19 1.53006E-20
 -1      2273 9.68678E-05-2.77638E-05-2.95883E-05 5.85800E-06-3.11223E-19 1.30163E-19
 -1      2274 9.58385E-05-2.71673E-05-2.94381E-05 5.18918E-06-3.36222E-19-1.68037E-19
 -1      2275 9.70068E-05-2.76741E-05-2.97184E-05 6.63796E-06-2.10947E-19 1.96300E-20
 -1      2276 9.77707E-05-2.77596E-05-2.99719E-05 7.42558E-06-2.19833E-19 3.30715E-20
 -1      2277 9.60943E-05-2.70062E-05-2.96121E-05 6.75458E-06-3.15615E-19-2.36628E-19
 -1      2278 9.79205E-05-2.76313E-05-3.01334E-05 8.33348E-06-5.59712E-19-1.16027E-19
 -1      2279 9.88620E-05-2.77509E-05-3.04389E-05 9.26324E-06-6.63070E-19-8.91432E-20
 -1      2280 9.63916E-05-2.67203E-05-2.98574E-05 8.50227E-06-4.65329E-19-3.60863E-19
 -1      2281 9.90183E-05-2.76271E-05-3.06090E-05 1.03339E-05-6.16197E-19-3.57636E-20
 -1      2282 1.00179E-04-2.78646E-05-3.09522E-05 1.13935E-05-6.60391E-19 6.20439E-20
 -1      2283 9.67043E-05-2.63906E-05-3.01288E-05 1.05279E-05-6.20304E-19-4.80937E-19
 -1      2284 1.00415E-04-2.78647E-05-3.11040E-05 1.26775E-05-2.66609E-19 2.40492E-19
 -1      2285 1.01937E-04-2.84210E-05-3.14688E-05 1.38236E-05 2.47233E-19 4.00910E-19
 -1      2286 9.70830E-05-2.62141E-05-3.03694E-05 1.29309E-05-1.96333E-19 1.07749E-19
 -1      2287 1.02408E-04-2.88199E-05-3.15386E-05 1.51244E-05 5.32698E-19 2.33736E-19
 -1      2288 1.04357E-04-2.99778E-05-3.18483E-05 1.59555E-05 9.79913E-19 3.78589E-19
 -1      2289 9.77575E-05-2.66565E-05-3.04770E-05 1.55743E-05 2.89112E-19 4.12176E-19
 -1      2290 1.05552E-04-3.12639E-05-3.18037E-05 1.70855E-05 1.02405E-18 2.82150E-19
 -1      2291 1.08323E-04-3.35457E-05-3.20329E-05 1.71340E-05 1.10356E-18 5.20123E-19
 -1      2292 9.93125E-05-2.85689E-05-3.03552E-05 1.81428E-05 9.79571E-19 1.94616E-19
 -1      2293 1.11103E-04-3.64058E-05-3.18930E-05 1.75392E-05 1.33742E-18 6.17445E-19
 -1      2294 1.15106E-04-4.02911E-05-3.20772E-05 1.59891E-05 1.75595E-18 6.53658E-19
 -1      2295 1.03033E-04-3.33288E-05-2.99730E-05 2.00661E-05 1.38063E-18 1.97987E-19
 -1      2296 1.20724E-04-4.51976E-05-3.21105E-05 1.44145E-05 2.01022E-18 8.03202E-19
 -1      2297 1.25926E-04-5.00463E-05-3.25471E-05 1.03233E-05 1.73761E-18 1.45885E-18
 -1      2298 1.11066E-04-4.24816E-05-2.96004E-05 1.99790E-05 1.88491E-18 8.57356E-20
 -1      2299 1.34760E-04-5.58349E-05-3.36293E-05 5.14153E-06 1.60620E-18 2.26548E-18
 -1      2300 1.39494E-04-5.79329E-05-3.50749E-05-1.68064E-06 7.23922E-19 2.75418E-18
 -1      2301 1.25221E-04-5.45744E-05-3.05097E-05 1.47602E-05 2.21671E-18 7.64050E-19
 -1      2302 1.44831E-04-5.72507E-05-3.76755E-05 9.14312E-06-5.15122E-19 5.21931E-19
 -1      2303 1.40851E-04-5.80106E-05-3.54287E-05 1.74118E-06 1.49561E-18 4.03505E-19
 -1      2304 1.31918E-04-5.36253E-05-3.36012E-05-5.08428E-06 1.65346E-18 4.00819E-19
 -1      2305 1.26726E-04-4.92747E-05-3.29211E-05-1.03556E-05 1.47429E-18 2.76642E-19
 -1      2306 1.33644E-04-5.79885E-05-3.26098E-05-7.37312E-06 1.41507E-18 8.35717E-19
 -1      2307 1.19926E-04-4.39741E-05-3.26226E-05-1.34796E-05 1.52805E-18-1.18279E-19
 -1      2308 1.15560E-04-3.95356E-05-3.24242E-05-1.58752E-05 1.04254E-18 4.36958E-19
 -1      2309 1.18099E-04-4.73162E-05-3.05803E-05-1.66345E-05 1.44731E-18 6.39272E-19
 -1      2310 1.11817E-04-3.60365E-05-3.25026E-05-1.62314E-05 1.23389E-19 1.07474E-19
 -1      2311 1.08729E-04-3.31741E-05-3.23171E-05-1.66211E-05-2.46157E-19-2.26090E-19
 -1      2312 1.07870E-04-3.68174E-05-3.05809E-05-1.89064E-05 5.48636E-19 5.77174E-20
 -1      2313 1.06964E-04-3.14299E-05-3.23638E-05-1.57641E-05 8.70326E-20-5.59786E-19
 -1      2314 1.04829E-04-2.98995E-05-3.20980E-05-1.50858E-05 3.55143E-19-5.45790E-19
 -1      2315 1.02577E-04-3.06385E-05-3.08842E-05-1.78912E-05-3.09505E-19-1.01949E-18
 -1      2316 1.04057E-04-2.92418E-05-3.20366E-05-1.38068E-05-5.71995E-20-1.09052E-18
 -1      2317 1.02509E-04-2.85153E-05-3.17167E-05-1.27088E-05-6.55954E-20-8.58523E-19
 -1      2318 1.00107E-04-2.77859E-05-3.10075E-05-1.55585E-05-2.65940E-19-1.09172E-18
 -1      2319 1.02146E-04-2.83900E-05-3.15743E-05-1.13929E-05-3.25562E-19-9.35808E-19
 -1      2320 1.00960E-04-2.80748E-05-3.12468E-05-1.02402E-05-3.53820E-19-9.57455E-19
 -1      2321 9.89595E-05-2.68362E-05-3.09060E-05-1.28821E-05-7.46349E-20-1.63615E-18
 -1      2322 1.00732E-04-2.81584E-05-3.10669E-05-9.05506E-06-2.87113E-19-1.18554E-18
 -1      2323 9.97938E-05-2.80316E-05-3.07650E-05-8.01793E-06 4.33429E-19-1.43912E-18
 -1      2324 9.83274E-05-2.67755E-05-3.06573E-05-1.03281E-05-3.94297E-19-5.89274E-19
 -1      2325 9.95984E-05-2.81678E-05-3.05804E-05-7.02065E-06 1.51940E-18-1.99204E-18
 -1      2326 9.88482E-05-2.81193E-05-3.03201E-05-6.15656E-06 1.58369E-18-2.15997E-18
 -1      2327 9.78623E-05-2.70436E-05-3.03445E-05-8.09491E-06 6.40412E-19-1.53949E-18
 -1      2328 9.86598E-05-2.82459E-05-3.01498E-05-5.35023E-06 1.38374E-18-2.36992E-18
 -1      2329 9.80624E-05-2.82270E-05-2.99350E-05-4.66086E-06 9.62134E-19-2.51373E-18
 -1      2330 9.74458E-05-2.73780E-05-3.00254E-05-6.23891E-06 1.42323E-18-2.64786E-18
 -1      2331 9.78821E-05-2.83261E-05-2.97875E-05-4.02518E-06 2.03609E-19-2.10140E-18
 -1      2332 9.74115E-05-2.83174E-05-2.96155E-05-3.48924E-06-8.44940E-20-1.43797E-18
 -1      2333 9.70545E-05-2.76770E-05-2.97320E-05-4.74565E-06 9.36636E-19-2.26088E-18
 -1      2334 9.72463E-05-2.83888E-05-2.94930E-05-2.99626E-06 5.67222E-19-1.72421E-18
 -1      2335 9.68790E-05-2.83834E-05-2.93581E-05-2.58603E-06 1.28039E-18-2.11416E-18
 -1      2336 9.66947E-05-2.79130E-05-2.94782E-05-3.56998E-06 1.39060E-19-1.18105E-18
 -1      2337 9.67265E-05-2.84354E-05-2.92544E-05-2.19007E-06 1.21052E-18-2.17968E-18
 -1      2338 9.64348E-05-2.84309E-05-2.91463E-05-1.86775E-06-4.25893E-19-1.71410E-18
 -1      2339 9.63693E-05-2.80911E-05-2.92627E-05-2.63999E-06 1.09698E-18-2.71894E-18
 -1      2340 9.63158E-05-2.84637E-05-2.90693E-05-1.58504E-06-8.93890E-19-9.95423E-19
 -1      2341 9.61063E-05-2.84614E-05-2.89916E-05-1.35490E-06-6.53049E-19 1.98641E-19
 -1      2342 9.60934E-05-2.82219E-05-2.90895E-05-1.92777E-06 4.47672E-19-3.32661E-18
 -1      2343 9.60086E-05-2.84838E-05-2.89316E-05-1.14120E-06-1.17086E-18 4.22145E-19
 -1      2344 9.58528E-05-2.84826E-05-2.88734E-05-9.69496E-07-6.70093E-19 8.49828E-19
 -1      2345 9.58732E-05-2.83120E-05-2.89566E-05-1.40252E-06-5.95946E-19-2.10813E-18
 -1      2346 9.57757E-05-2.84981E-05-2.88276E-05-8.09333E-07-7.24228E-19 9.91391E-19
 -1      2347 9.56616E-05-2.84981E-05-2.87846E-05-6.81956E-07-9.61783E-19 1.97911E-19
 -1      2348 9.56976E-05-2.83771E-05-2.88533E-05-1.00591E-06-5.18678E-19-1.72175E-19
 -1      2349 9.56025E-05-2.85091E-05-2.87501E-05-5.62808E-07-3.21738E-19 4.11810E-19
 -1      2350 9.55206E-05-2.85103E-05-2.87188E-05-4.68995E-07-7.29394E-19 1.07364E-18
 -1      2351 9.55615E-05-2.84247E-05-2.87744E-05-7.08664E-07-6.71288E-19 3.74666E-19
 -1      2352 9.54763E-05-2.85183E-05-2.86932E-05-3.81101E-07-2.53020E-18 3.57245E-19
 -1      2353 9.54189E-05-2.85204E-05-2.86708E-05-3.12603E-07-1.47712E-18-1.29269E-19
 -1      2354 9.54587E-05-2.84601E-05-2.87149E-05-4.87686E-07-1.93783E-18 6.46440E-19
 -1      2355 9.53868E-05-2.85265E-05-2.86521E-05-2.48421E-07-2.58826E-19-1.33764E-18
 -1      2356 9.53477E-05-2.85292E-05-2.86365E-05-1.98951E-07 3.73113E-19-1.36165E-18
 -1      2357 9.53831E-05-2.84868E-05-2.86708E-05-3.24934E-07-1.57139E-18-3.09852E-19
 -1      2358 9.53250E-05-2.85341E-05-2.86231E-05-1.52683E-07 1.22897E-18-1.82993E-18
 -1      2359 9.52996E-05-2.85372E-05-2.86124E-05-1.17474E-07 1.94177E-18-1.48690E-18
 -1      2360 9.53291E-05-2.85075E-05-2.86386E-05-2.06428E-07 2.71494E-19-1.65633E-18
 -1      2361 9.52842E-05-2.85411E-05-2.86030E-05-8.46972E-08 1.61945E-18-7.97411E-19
 -1      2362 9.52686E-05-2.85445E-05-2.85960E-05-6.01703E-08 1.32235E-18-7.65894E-19
 -1      2363 9.52918E-05-2.85236E-05-2.86156E-05-1.21406E-07 1.80167E-18-2.43447E-18
 -1      2364 9.52587E-05-2.85479E-05-2.85895E-05-3.75656E-08 1.72839E-18-1.80039E-18
 -1      2365 9.52501E-05-2.85515E-05-2.85851E-05-2.10965E-08 1.29721E-18-1.76460E-18
 -1      2366 9.52673E-05-2.85367E-05-2.85993E-05-6.16830E-08 1.60935E-18-2.26749E-18
 -1      2367 9.52441E-05-2.85545E-05-2.85807E-05-6.24489E-09 2.52702E-19-2.43708E-18
 -1      2368 9.52404E-05-2.85582E-05-2.85781E-05 4.00698E-09-4.18323E-19-2.72096E-18
 -1      2369 9.52521E-05-2.85476E-05-2.85880E-05-2.11680E-08 2.66551E-19-3.43520E-18
 -1      2370 9.52373E-05-2.85613E-05-2.85751E-05 1.28587E-08-6.51118E-19-2.73245E-18
 -1      2371 9.52368E-05-2.85651E-05-2.85735E-05 1.78971E-08-5.50463E-19-3.15553E-18
 -1      2372 9.52436E-05-2.85571E-05-2.85802E-05 4.55083E-09-4.39226E-19-4.76887E-18
 -1      2373 9.52365E-05-2.85680E-05-2.85721E-05 2.12845E-08 2.92554E-19-2.82123E-18
 -1      2374 9.52378E-05-2.85723E-05-2.85710E-05 2.21775E-08-4.97238E-19-1.79531E-18
 -1      2375 9.52422E-05-2.85754E-05-2.85715E-05 2.12700E-08 1.34830E-18-2.58474E-18
 -1      2376 9.52414E-05-2.85659E-05-2.85753E-05 1.74309E-08 6.44548E-19-4.25257E-18
 -1      2377 9.54971E-05-2.82162E-05-2.88286E-05-2.26884E-06 8.66394E-19 1.85174E-19
 -1      2378 9.52796E-05-2.80133E-05-2.88093E-05-1.93760E-06 9.66598E-19 2.38532E-19
 -1      2379 9.52352E-05-2.78361E-05-2.88771E-05-1.42715E-06 9.54227E-19 2.24402E-19
 -1      2380 9.51986E-05-2.76214E-05-2.89297E-05-8.81363E-07 9.54317E-19 3.57293E-19
 -1      2381 9.56445E-05-2.77670E-05-2.91055E-05-1.71682E-06 1.01674E-18-1.55675E-20
 -1      2382 9.52645E-05-2.73715E-05-2.90873E-05-9.62430E-08 9.97136E-19 3.86889E-19
 -1      2383 9.54521E-05-2.70904E-05-2.92588E-05 8.02504E-07 1.07780E-18 5.35363E-19
 -1      2384 9.56297E-05-2.71737E-05-2.93556E-05-3.01026E-07 1.01986E-18-5.54170E-20
 -1      2385 9.59964E-05-2.85976E-05-2.88822E-05-2.76091E-06 6.32103E-19 2.68153E-20
 -1      2386 9.56559E-05-2.83832E-05-2.88195E-05-2.58407E-06 7.78932E-19 1.79659E-19
 -1      2387 9.58788E-05-2.82316E-05-2.90041E-05-2.62820E-06 8.31747E-19 2.75903E-19
 -1      2388 9.66730E-05-2.90229E-05-2.89941E-05-2.95909E-06 2.57134E-19 1.96457E-20
 -1      2389 9.62569E-05-2.87846E-05-2.89092E-05-2.91812E-06 5.33201E-19-8.11597E-20
 -1      2390 9.63227E-05-2.86824E-05-2.89986E-05-3.15898E-06 7.23568E-19 1.98416E-20
 -1      2391 9.74693E-05-2.95156E-05-2.91298E-05-2.85977E-06 8.89387E-20-1.31899E-19
 -1      2392 9.70215E-05-2.92485E-05-2.90402E-05-2.96282E-06 1.88854E-20-4.36580E-20
 -1      2393 9.69529E-05-2.91880E-05-2.90499E-05-3.35643E-06 3.56306E-19-2.03839E-19
 -1      2394 9.83236E-05-3.00806E-05-2.92606E-05-2.41881E-06 7.13733E-20 1.73897E-19
 -1      2395 9.78910E-05-2.97900E-05-2.91816E-05-2.69029E-06 1.46763E-19 5.92015E-20
 -1      2396 9.77435E-05-2.97909E-05-2.91287E-05-3.20766E-06 7.66315E-20-2.66222E-19
 -1      2397 9.91575E-05-3.06925E-05-2.93631E-05-1.57439E-06 1.28644E-19 6.24404E-19
 -1      2398 9.87961E-05-3.04005E-05-2.93084E-05-2.04203E-06 1.37885E-19 4.86833E-19
 -1      2399 9.86596E-05-3.05042E-05-2.92137E-05-2.65805E-06-1.20560E-19 2.98391E-19
 -1      2400 9.98633E-05-3.12774E-05-2.94211E-05-2.82162E-07 3.13362E-19 7.91279E-19
 -1      2401 9.96409E-05-3.10314E-05-2.94012E-05-9.57628E-07 4.18456E-19 8.62743E-19
 -1      2402 9.96396E-05-3.12946E-05-2.92921E-05-1.63711E-06-2.45445E-20 8.25541E-19
 -1      2403 1.00295E-04-3.16962E-05-2.94289E-05 1.43188E-06-4.73961E-19 6.48205E-19
 -1      2404 1.00288E-04-3.15740E-05-2.94491E-05 5.80083E-07 2.27011E-20 7.94409E-19
 -1      2405 1.00574E-04-3.20556E-05-2.93619E-05-1.00530E-07 1.15487E-19 8.42706E-19
 -1      2406 1.00276E-04-3.17468E-05-2.93941E-05 3.40488E-06-6.19939E-19 3.46682E-19
 -1      2407 1.00557E-04-3.18493E-05-2.94521E-05 2.48136E-06-9.18247E-19 1.49901E-19
 -1      2408 1.01285E-04-3.25866E-05-2.94323E-05 1.90557E-06-3.90653E-19 6.72463E-19
 -1      2409 9.96448E-05-3.12133E-05-2.93376E-05 5.27980E-06 2.53423E-19 4.81359E-19
 -1      2410 1.00250E-04-3.16306E-05-2.94222E-05 4.48021E-06 1.20515E-19 4.42526E-19
 -1      2411 1.01534E-04-3.26053E-05-2.95227E-05 4.16322E-06-3.24046E-19-1.44657E-20
 -1      2412 9.83493E-05-2.99825E-05-2.92872E-05 6.51121E-06 1.24083E-19 4.22195E-19
 -1      2413 9.92321E-05-3.07304E-05-2.93805E-05 6.10084E-06 1.23536E-19 7.31107E-19
 -1      2414 1.01082E-04-3.18335E-05-2.96542E-05 6.21586E-06 1.55108E-19 3.06257E-19
 -1      2415 9.65687E-05-2.81999E-05-2.92648E-05 6.50202E-06 1.02396E-18-2.81474E-19
 -1      2416 9.75683E-05-2.91518E-05-2.93473E-05 6.73086E-06 6.92567E-19 1.77400E-19
 -1      2417 9.98376E-05-3.01743E-05-2.98351E-05 7.39181E-06 4.71792E-19 4.10113E-19
 -1      2418 9.47760E-05-2.63548E-05-2.92758E-05 4.88857E-06 5.01407E-19-9.22885E-20
 -1      2419 9.56286E-05-2.72293E-05-2.93320E-05 5.85330E-06 6.99354E-19-7.84068E-20
 -1      2420 9.80317E-05-2.79135E-05-3.00454E-05 7.00545E-06 7.92231E-19 1.74665E-20
 -1      2421 9.36216E-05-2.51466E-05-2.93070E-05 1.85250E-06 5.20462E-20 7.85012E-19
 -1      2422 9.40478E-05-2.56093E-05-2.93289E-05 3.37994E-06 4.47802E-20 4.42608E-20
 -1      2423 9.62711E-05-2.57644E-05-3.02346E-05 4.73717E-06 1.72781E-19 1.67770E-19
 -1      2424 9.36121E-05-2.51163E-05-2.93387E-05-1.79799E-06 1.40753E-20 9.48800E-19
 -1      2425 9.34542E-05-2.49668E-05-2.93239E-05-1.32201E-07 2.84381E-19 1.12496E-18
 -1      2426 9.53230E-05-2.46102E-05-3.03395E-05 9.88992E-07-1.12086E-19 6.94143E-19
 -1      2427 9.47883E-05-2.62848E-05-2.93661E-05-4.95219E-06 3.39657E-19 1.15642E-18
 -1      2428 9.40954E-05-2.55891E-05-2.93145E-05-3.63660E-06 3.03532E-19 8.54363E-19
 -1      2429 9.56546E-05-2.49717E-05-3.03205E-05-3.12587E-06 9.35045E-20 4.82347E-19
 -1      2430 9.66895E-05-2.81390E-05-2.94008E-05-6.74851E-06 3.64440E-19 1.17370E-18
 -1      2431 9.56894E-05-2.71824E-05-2.93160E-05-6.10322E-06 2.73527E-19 8.08100E-19
 -1      2432 9.71138E-05-2.66803E-05-3.01925E-05-6.31116E-06 2.97542E-19 7.64831E-20
 -1      2433 9.86430E-05-2.99697E-05-2.94552E-05-6.93963E-06 4.61908E-19 1.31138E-18
 -1      2434 9.76201E-05-2.90806E-05-2.93484E-05-7.00293E-06 7.68809E-19 1.53083E-18
 -1      2435 9.90377E-05-2.89802E-05-3.00110E-05-7.75215E-06 4.08525E-19 1.19246E-18
 -1      2436 1.00123E-04-3.12608E-05-2.95293E-05-5.85395E-06 1.48313E-20 1.20651E-18
 -1      2437 9.92963E-05-3.06515E-05-2.94177E-05-6.43969E-06 3.57765E-19 9.87019E-19
 -1      2438 1.00691E-04-3.10167E-05-2.98372E-05-7.41327E-06 6.05052E-19 1.42461E-18
 -1      2439 1.00914E-04-3.18459E-05-2.96083E-05-4.08821E-06 8.34460E-21 1.13784E-18
 -1      2440 1.00386E-04-3.15688E-05-2.95110E-05-4.92577E-06-4.97136E-21 1.34517E-18
 -1      2441 1.01638E-04-3.22674E-05-2.97090E-05-5.83584E-06-1.49936E-19 4.49414E-19
 -1      2442 1.01063E-04-3.18332E-05-2.96703E-05-2.20589E-06 2.48730E-19 9.32249E-20
 -1      2443 1.00834E-04-3.18273E-05-2.96023E-05-3.05788E-06 5.29657E-19 6.68503E-19
 -1      2444 1.01821E-04-3.26473E-05-2.96316E-05-3.73257E-06 6.86456E-19 2.93465E-19
 -1      2445 1.00747E-04-3.14455E-05-2.96967E-05-5.79556E-07-5.70105E-19-7.57914E-19
 -1      2446 1.00760E-04-3.16086E-05-2.96655E-05-1.29627E-06-2.83419E-19-4.01171E-19
 -1      2447 1.01420E-04-3.23659E-05-2.95881E-05-1.68192E-06 2.66384E-19 6.98704E-20
 -1      2448 1.00159E-04-3.08954E-05-2.96791E-05 6.23589E-07-4.21588E-19-7.14165E-19
 -1      2449 1.00339E-04-3.11341E-05-2.96840E-05 1.04765E-07-6.21396E-19-8.34368E-19
 -1      2450 1.00685E-04-3.17220E-05-2.95546E-05-1.58352E-08-2.33367E-19-1.56803E-18
 -1      2451 9.94547E-05-3.03311E-05-2.96191E-05 1.38602E-06-3.20362E-19 1.49902E-19
 -1      2452 9.97307E-05-3.05807E-05-2.96539E-05 1.06583E-06-3.01348E-19 2.24868E-19
 -1      2453 9.98263E-05-3.09679E-05-2.95128E-05 1.15046E-06-6.93897E-19-9.28160E-19
 -1      2454 9.87368E-05-2.98331E-05-2.95256E-05 1.77241E-06-2.44524E-19 1.23573E-18
 -1      2455 9.90547E-05-3.00579E-05-2.95813E-05 1.61835E-06-7.52222E-20 1.00504E-18
 -1      2456 9.89795E-05-3.02629E-05-2.94534E-05 1.84097E-06-5.03923E-19 7.84347E-19
 -1      2457 9.80658E-05-2.94324E-05-2.94107E-05 1.87778E-06-6.54824E-19 1.74069E-18
 -1      2458 9.83872E-05-2.96178E-05-2.94782E-05 1.84585E-06-9.36795E-20 1.27802E-18
 -1      2459 9.82162E-05-2.96820E-05-2.93756E-05 2.14648E-06-1.44744E-19 1.70972E-18
 -1      2460 9.74716E-05-2.91299E-05-2.92865E-05 1.79626E-06-1.32590E-18 1.34835E-18
 -1      2461 9.77724E-05-2.92738E-05-2.93578E-05 1.84403E-06-8.18632E-19 1.24041E-18
 -1      2462 9.75638E-05-2.92433E-05-2.92840E-05 2.17560E-06-3.79261E-19 1.87519E-18
 -1      2463 9.69649E-05-2.89128E-05-2.91631E-05 1.60637E-06-3.73000E-20 2.21466E-19
 -1      2464 9.72318E-05-2.90196E-05-2.92322E-05 1.69899E-06-1.02764E-18 4.59316E-19
 -1      2465 9.70249E-05-2.89342E-05-2.91853E-05 2.02809E-06-4.05936E-19 8.07306E-19
 -1      2466 9.65454E-05-2.87635E-05-2.90479E-05 1.36663E-06 4.09110E-19 1.72766E-19
 -1      2467 9.67727E-05-2.88398E-05-2.91109E-05 1.47851E-06 1.58625E-19 3.36771E-19
 -1      2468 9.65900E-05-2.87298E-05-2.90861E-05 1.78371E-06 6.29029E-21 2.46241E-19
 -1      2469 9.62064E-05-2.86651E-05-2.89452E-05 1.11679E-06 1.20133E-18 8.58380E-20
 -1      2470 9.63936E-05-2.87176E-05-2.90000E-05 1.23083E-06 1.37295E-18 5.61185E-20
 -1      2471 9.62452E-05-2.86035E-05-2.89921E-05 1.50025E-06 6.50606E-19 1.31509E-19
 -1      2472 9.59387E-05-2.86032E-05-2.88572E-05 8.81236E-07 1.17330E-18-8.71290E-19
 -1      2473 9.60883E-05-2.86381E-05-2.89032E-05 9.87189E-07 9.72680E-19-2.03244E-19
 -1      2474 9.59759E-05-2.85320E-05-2.89070E-05 1.21596E-06 1.27592E-18-5.75716E-19
 -1      2475 9.57317E-05-2.85666E-05-2.87844E-05 6.72993E-07 1.09275E-18-1.42223E-18
 -1      2476 9.58480E-05-2.85887E-05-2.88216E-05 7.65607E-07 1.11236E-18-1.51919E-19
 -1      2477 9.57686E-05-2.84969E-05-2.88328E-05 9.53622E-07 8.00587E-19-2.90112E-20
 -1      2478 9.55752E-05-2.85468E-05-2.87259E-05 4.97272E-07 1.08930E-18-2.37810E-18
 -1      2479 9.56632E-05-2.85600E-05-2.87552E-05 5.74671E-07 1.42683E-18-1.25087E-18
 -1      2480 9.56112E-05-2.84846E-05-2.87703E-05 7.24775E-07 1.75908E-18-1.03961E-18
 -1      2481 9.54596E-05-2.85381E-05-2.86802E-05 3.54341E-07-6.09419E-19-2.84075E-18
 -1      2482 9.55242E-05-2.85451E-05-2.87026E-05 4.16743E-07-1.98442E-19-2.41215E-18
 -1      2483 9.54937E-05-2.84857E-05-2.87192E-05 5.33371E-07 3.70291E-19-2.15956E-19
 -1      2484 9.53766E-05-2.85361E-05-2.86456E-05 2.41642E-07 8.45200E-20-2.35327E-18
 -1      2485 9.54225E-05-2.85390E-05-2.86621E-05 2.90425E-07-1.58050E-19-2.35837E-18
 -1      2486 9.54077E-05-2.84939E-05-2.86785E-05 3.78639E-07-4.96048E-19-1.29120E-19
 -1      2487 9.53190E-05-2.85381E-05-2.86201E-05 1.55270E-07 2.25739E-19-1.63392E-18
 -1      2488 9.53503E-05-2.85385E-05-2.86319E-05 1.92326E-07 4.95712E-20-2.02622E-18
 -1      2489 9.53460E-05-2.85053E-05-2.86470E-05 2.57190E-07-2.51846E-19 8.71982E-19
 -1      2490 9.52807E-05-2.85424E-05-2.86019E-05 9.09359E-08-2.29873E-19-7.99624E-19
 -1      2491 9.53009E-05-2.85411E-05-2.86100E-05 1.18259E-07 1.54100E-19-1.07742E-18
 -1      2492 9.53031E-05-2.85175E-05-2.86232E-05 1.64461E-07-7.78844E-20 6.33375E-19
 -1      2493 9.52568E-05-2.85479E-05-2.85894E-05 4.45819E-08-2.28825E-19 2.29100E-21
 -1      2494 9.52687E-05-2.85456E-05-2.85947E-05 6.40095E-08-1.67713E-19-1.11009E-18
 -1      2495 9.52743E-05-2.85293E-05-2.86056E-05 9.56633E-08-4.22705E-19 5.16149E-19
 -1      2496 9.52432E-05-2.85539E-05-2.85810E-05 1.27054E-08-8.25393E-19 5.91194E-19
 -1      2497 9.52493E-05-2.85510E-05-2.85843E-05 2.57824E-08-7.50011E-19-1.67581E-19
 -1      2498 9.52561E-05-2.85402E-05-2.85929E-05 4.63726E-08-1.08376E-18 9.65542E-19
 -1      2499 9.52370E-05-2.85604E-05-2.85756E-05-7.46766E-09-1.47415E-18 5.46012E-19
 -1      2500 9.52391E-05-2.85570E-05-2.85776E-05 4.25875E-10-2.58124E-19 1.36084E-18
 -1      2501 9.52454E-05-2.85502E-05-2.85840E-05 1.28109E-08-8.49199E-19 1.49123E-18
 -1      2502 9.52357E-05-2.85673E-05-2.85722E-05-1.77351E-08-1.85548E-18-5.83471E-19
 -1      2503 9.52351E-05-2.85636E-05-2.85732E-05-1.42909E-08-1.70567E-18-2.62623E-19
 -1      2504 9.52402E-05-2.85598E-05-2.85776E-05-8.00354E-09-6.95212E-19 6.79913E-19
 -1      2505 9.52373E-05-2.85729E-05-2.85703E-05-1.96887E-08-1.28871E-18-1.72261E-18
 -1      2506 9.52382E-05-2.85624E-05-2.85755E-05-3.65092E-09 3.39936E-19 1.83112E-18
 -1      2507 9.52394E-05-2.85634E-05-2.85753E-05-5.46836E-09-1.06417E-19 7.38426E-19
 -1      2508 9.52413E-05-2.85675E-05-2.85746E-05-7.80898E-09-1.03276E-18-6.12932E-19
 -1      2509 9.52418E-05-2.85682E-05-2.85743E-05-1.02617E-08-5.30155E-19-7.88455E-19
 -1      2510 9.52381E-05-2.85532E-05-2.85792E-05-3.99174E-09 5.32044E-19 5.94511E-19
 -1      2511 9.52427E-05-2.85718E-05-2.85733E-05-1.34152E-08-6.30518E-19-9.12022E-19
 -1      2512 9.52417E-05-2.85716E-05-2.85729E-05-1.57835E-08 6.55342E-20-2.96200E-18
 -1      2513 9.52413E-05-2.85608E-05-2.85772E-05-9.57135E-09-6.37912E-19-1.45094E-18
 -1      2514 2.56295E-05-2.31425E-05-9.12181E-07 2.77416E-05-1.43911E-18 1.17547E-18
 -1      2515 1.86842E-05-1.81350E-05 9.84387E-09 1.38540E-05-1.26060E-18 4.57398E-19
 -1      2516 9.52351E-05-2.85578E-05-2.85761E-05-1.61819E-09 1.16375E-19 8.25493E-19
 -1      2517 9.52362E-05-2.85587E-05-2.85760E-05-2.53812E-09-1.31994E-19 1.31653E-18
 -1      2518 9.52336E-05-2.85453E-05-2.85806E-05-7.43477E-10 5.97763E-19 1.37811E-18
 -1      2519 9.52331E-05-2.85549E-05-2.85765E-05-1.45110E-09-1.13423E-18 1.10213E-18
 -1      2520 9.52337E-05-2.85554E-05-2.85764E-05-1.66979E-09-4.66770E-19-4.71604E-19
 -1      2521 9.52296E-05-2.85391E-05-2.85815E-05-9.07830E-11-5.16901E-19-5.04113E-19
 -1      2522 9.52331E-05-2.85546E-05-2.85765E-05-2.03558E-09-2.39750E-18 1.55498E-18
 -1      2523 9.52328E-05-2.85543E-05-2.85765E-05-2.11410E-09-2.20538E-18 2.97570E-18
 -1      2524 9.52276E-05-2.85359E-05-2.85819E-05-1.42005E-09-2.09809E-18 1.00946E-18
 -1      2525 9.52350E-05-2.85569E-05-2.85763E-05-1.89511E-09-1.84140E-18-6.30280E-19
 -1      2526 9.52340E-05-2.85559E-05-2.85764E-05-2.48240E-09-1.74269E-18 3.04254E-19
 -1      2527 9.52282E-05-2.85366E-05-2.85820E-05-3.18795E-09-2.51729E-18 1.45117E-18
 -1      2528 9.52383E-05-2.85611E-05-2.85759E-05 1.78060E-10-1.88236E-19 7.04661E-19
 -1      2529 9.52369E-05-2.85598E-05-2.85760E-05-1.35762E-09-7.25187E-19 1.37902E-20
 -1      2530 9.52315E-05-2.85408E-05-2.85815E-05-3.66320E-09-1.33951E-18 4.47977E-19
 -1      2531 9.52419E-05-2.85663E-05-2.85751E-05 4.81605E-09 9.44791E-19 3.22862E-18
 -1      2532 9.52407E-05-2.85651E-05-2.85754E-05 2.16167E-09 4.33060E-19 1.17717E-18
 -1      2533 9.52363E-05-2.85479E-05-2.85807E-05-1.50576E-09 1.46733E-19 1.34815E-18
 -1      2534 9.52442E-05-2.85711E-05-2.85740E-05 1.14703E-08 1.40906E-18-2.02637E-18
 -1      2535 9.52438E-05-2.85705E-05-2.85744E-05 8.18743E-09 1.44100E-18 1.32315E-18
 -1      2536 9.52411E-05-2.85562E-05-2.85792E-05 3.76565E-09 2.50449E-19 2.51066E-18
 -1      2537 9.52434E-05-2.85737E-05-2.85727E-05 1.78542E-08 1.29899E-18-2.41243E-18
 -1      2538 9.52446E-05-2.85741E-05-2.85732E-05 1.50485E-08 1.09416E-18-2.58934E-18
 -1      2539 9.52438E-05-2.85634E-05-2.85773E-05 1.07042E-08 4.71271E-19-2.30481E-18
 -1      2540 9.52429E-05-2.85680E-05-2.85749E-05 1.73763E-08 9.22294E-19-2.40603E-18
 -1      2541 3.39811E-05-2.69904E-05-2.81464E-06-2.62331E-05 1.95665E-19 2.90871E-18
 -1      2542 5.14197E-05-3.60814E-05-6.52232E-06-3.66321E-05 5.63277E-20 2.21076E-18
 -1      2543 9.54446E-05-2.00420E-05-3.23609E-05-1.08935E-05-1.96352E-18-1.70611E-19
 -1      2544 9.59523E-05-2.33847E-05-3.11268E-05-7.06036E-06-1.75736E-18-6.57948E-20
 -1      2545 9.54686E-05-2.24221E-05-3.12792E-05-6.57620E-06-1.60249E-18-4.54706E-19
 -1      2546 9.35322E-05-1.75257E-05-3.25739E-05-1.04641E-05-1.94586E-18-7.46104E-19
 -1      2547 1.43112E-04-5.03369E-05-4.01705E-05 1.43239E-05 1.47966E-19-3.88238E-18
 -1      2548 1.33807E-04-5.43528E-05-3.41929E-05 2.22895E-05-3.36907E-19-2.66222E-18
 -1      2549 1.31824E-04-5.82092E-05-3.13853E-05 2.15886E-05-1.70296E-18-3.18230E-18
 -1      2550 1.96770E-05-1.62566E-05-9.77726E-07-1.84202E-06-7.57830E-19 1.52169E-18
 -1      2551 2.38769E-05-1.93372E-05-1.55028E-06-1.47752E-05-4.58880E-19 2.61098E-18
 -1      2552 1.64091E-04-2.74628E-05-5.87362E-05-1.08538E-05-5.49640E-18 3.00993E-18
 -1      2553 1.63284E-04-3.43703E-05-5.53473E-05-1.26566E-05-4.70082E-18 3.55076E-18
 -1      2554 1.99548E-05-1.98992E-05 1.87005E-07 1.05547E-05 2.59721E-19-3.38390E-18
 -1      2555 1.69724E-05-1.85678E-05 8.92519E-07-3.22738E-06 5.59201E-19-4.01155E-18
 -1      2556 1.47201E-04-9.15709E-06-5.96773E-05-4.18019E-07 4.09752E-18-1.63721E-18
 -1      2557 1.49525E-04-1.13145E-05-5.95376E-05-1.89601E-06 4.45539E-18-1.90731E-18
 -1      2558 8.70883E-05-9.91737E-06-3.31082E-05-1.37033E-06 1.35636E-20-2.59598E-18
 -1      2559 8.72355E-05-1.00611E-05-3.31076E-05-2.35784E-06-2.61433E-19-2.62155E-18
 -1      2560 8.85405E-05-1.20818E-05-3.27662E-05-2.54548E-06-3.62605E-19-2.41079E-18
 -1      2561 8.82034E-05-1.16998E-05-3.27868E-05-8.74792E-07 5.37731E-20-2.49769E-18
 -1      2562 1.52251E-04-1.69553E-05-5.83460E-05-2.68682E-06 4.56360E-18-2.49811E-18
 -1      2563 1.50635E-04-2.28418E-05-5.51413E-05-1.88463E-06 3.96030E-18-2.77530E-18
 -1      2564 1.37899E-04-5.27711E-05-3.65766E-05-1.90660E-05 5.80482E-19-1.74023E-18
 -1      2565 1.45628E-04-4.71964E-05-4.26398E-05-1.04336E-05 1.65149E-18-1.05498E-18
 -1      2566 1.50510E-04-3.27178E-05-5.08144E-05-5.33964E-08 2.43395E-18-3.40338E-18
 -1      2567 1.46186E-04-4.01654E-05-4.56934E-05 3.27581E-06 8.02775E-19-3.93150E-18
 -1      2568 1.46031E-04-1.56689E-05-5.63217E-05 5.03283E-06 4.38107E-18-7.07484E-19
 -1      2569 1.46800E-04-1.15675E-05-5.84241E-05 2.89101E-06 4.24088E-18-8.60903E-19
 -1      2570 1.64669E-04-4.59190E-05-5.12346E-05-9.72354E-06-3.16547E-18 4.00858E-18
 -1      2571 1.59245E-04-5.33335E-05-4.55957E-05-4.64859E-06-1.96078E-18 2.89346E-18
 -1      2572 1.15566E-04-5.62926E-05-2.53329E-05-3.53069E-05-3.53424E-19-2.52109E-18
 -1      2573 1.28994E-04-5.62202E-05-3.13676E-05-3.00449E-05 1.32772E-19-2.81257E-18
 -1      2574 7.96904E-05-4.71820E-05-1.37785E-05-4.52105E-05-1.08590E-18-3.71718E-18
 -1      2575 9.76334E-05-5.20922E-05-1.96024E-05-4.43153E-05-6.56451E-19-2.83381E-18
 -1      2576 4.56819E-05-3.18379E-05-5.55219E-06-3.96513E-05-1.38469E-18-4.23262E-18
 -1      2577 6.19779E-05-3.91877E-05-9.68282E-06-4.60284E-05-1.05646E-18-4.06946E-18
 -1      2578 7.75546E-05-4.33579E-05-1.42038E-05-4.46856E-05-1.85077E-18-3.71255E-18
 -1      2579 1.97911E-05-2.03824E-05 5.02171E-07-1.57331E-05-3.09326E-19-4.69595E-18
 -1      2580 2.79572E-05-2.29666E-05-2.01903E-06-2.93752E-05-7.30142E-19-4.64598E-18
 -1      2581 2.48630E-05-1.52654E-05-3.54602E-06-9.29227E-06-1.58872E-19-4.04268E-18
 -1      2582 4.16562E-05-3.04221E-05-4.67489E-06 3.22292E-05 1.40925E-18-3.23016E-18
 -1      2583 2.87569E-05-2.50493E-05-1.39853E-06 2.18969E-05 1.23582E-18-3.38432E-18
 -1      2584 1.28186E-04-6.36008E-05-2.77750E-05 2.75179E-05 5.15420E-19-8.94573E-19
 -1      2585 1.12695E-04-6.00939E-05-2.25174E-05 3.21848E-05 1.16255E-18-8.52697E-19
 -1      2586 1.11398E-04-5.97891E-05-2.21158E-05-3.21420E-05 6.42051E-19 1.55388E-18
 -1      2587 1.31447E-04-6.40031E-05-2.93023E-05-2.51023E-05 6.20240E-19 1.19538E-18
 -1      2588 1.54693E-04-6.13309E-05-4.03166E-05 7.08247E-06-8.56562E-19 1.51958E-18
 -1      2589 1.40992E-04-6.39167E-05-3.32029E-05 1.54416E-05-2.47334E-19 2.83756E-19
 -1      2590 1.47609E-04-6.36090E-05-3.59660E-05-8.91464E-06 1.05456E-19 1.58522E-18
 -1      2591 1.57383E-04-5.85368E-05-4.29943E-05 2.36095E-06-7.65767E-19 1.86983E-18
 -1      2592 7.37690E-05-4.69389E-05-1.14941E-05-3.85634E-05 2.02017E-19 2.33612E-18
 -1      2593 9.37178E-05-5.40178E-05-1.71679E-05-3.96356E-05 8.41104E-19 2.23164E-18
 -1      2594 1.09062E-04-5.84856E-05-2.15183E-05-3.35803E-05 6.90120E-19 1.71947E-18
 -1      2595 5.24812E-05-3.50296E-05-7.41057E-06 4.41236E-05-2.10234E-18 1.59242E-18
 -1      2596 3.78072E-05-2.93356E-05-3.46294E-06 3.62717E-05-1.90477E-18 1.97634E-18
 -1      2597 9.52405E-05-2.85710E-05-2.85727E-05-1.78390E-08-8.41710E-19-2.60788E-18
 -1      2598 9.05000E-05-1.44168E-05-3.26002E-05-5.90278E-06-1.21704E-18-2.08459E-18
 -1      2599 8.95569E-05-1.27548E-05-3.29750E-05-7.12214E-06-1.33597E-18-2.18979E-18
 -1      2600 9.03859E-05-1.36798E-05-3.29388E-05-8.25730E-06-1.57641E-18-1.94997E-18
 -1      2601 1.42432E-04-4.72003E-05-4.09003E-05 2.95615E-06-3.37225E-19-4.99728E-18
 -1      2602 9.65200E-05-2.63595E-05-3.00361E-05 4.68817E-06 1.49435E-18 1.59707E-18
 -1      2603 9.64289E-05-2.52524E-05-3.04822E-05 5.70430E-06 1.62142E-18 1.06935E-18
 -1      2604 9.59571E-05-2.66058E-05-2.96908E-05 3.33264E-06 1.35980E-18 1.24394E-18
 -1      2605 1.05396E-04-5.41347E-05-2.16692E-05 3.91734E-05-3.12492E-18 4.75185E-19
 -1      2606 6.83409E-05-3.88487E-05-1.22043E-05 4.45663E-05-2.68954E-18 1.51407E-18
 -1      2607 7.05881E-05-4.07881E-05-1.23566E-05-3.72390E-05 3.87518E-19 1.98121E-18
 -1      2608 1.48793E-04-5.66146E-05-3.94743E-05 1.23735E-05-1.20760E-18 7.17437E-19
 -1      2609 1.47206E-04-6.30735E-05-3.65697E-05 5.96520E-08 7.47771E-20 2.35401E-18
 -1      2610 1.47995E-04-5.75617E-05-3.89269E-05-1.11726E-05-7.06105E-19 3.72197E-18
 -1      2611 1.49053E-04-5.12862E-05-4.22482E-05-1.63933E-05-1.71339E-18 3.85389E-18
 -1      2612 1.47593E-04-3.73892E-05-4.79594E-05-2.06622E-05-3.10099E-18 3.52059E-18
 -1      2613 1.45338E-04-2.75833E-05-5.09184E-05-1.77565E-05-3.67485E-18 3.20009E-18
 -1      2614 1.47894E-04-2.25998E-05-5.42469E-05-1.07991E-05-3.93532E-18 1.70772E-18
 -1      2615 1.46208E-04-1.86143E-05-5.51956E-05-8.96785E-07-4.07380E-18 7.92188E-19
 -1      2616 2.52048E-05-1.45273E-05-4.06663E-06 6.47030E-06-1.41155E-18 4.70315E-19
 -1      2617 3.80995E-05-2.34833E-05-5.79220E-06 3.28296E-05-1.91249E-18 1.64515E-18
 -1      2618 3.70788E-05-2.10267E-05-6.35834E-06-2.17389E-05 2.71898E-19 2.76281E-18
 -1      2619 9.23082E-05-1.61353E-05-3.26784E-05-9.46376E-06-1.78812E-18-1.29308E-18
 -1      2620 9.55307E-05-2.69664E-05-2.93521E-05 1.49181E-06 1.17243E-18 6.11938E-19
 -1      2621 9.57724E-05-2.67729E-05-2.95293E-05 2.45625E-06 1.21661E-18 1.01072E-18
 -1      2622 9.59554E-05-2.62032E-05-2.99047E-05 3.10231E-06 1.29557E-18 5.13481E-19
 -1      2623 9.57485E-05-2.66274E-05-2.96430E-05 1.37181E-06 1.20284E-18 2.09349E-19
 -1      2624 1.41473E-04-6.52689E-05-3.24365E-05-1.22692E-05 4.24787E-19 2.65788E-18
 -1      2625 9.52408E-05-2.85636E-05-2.85757E-05-1.38805E-08-2.38676E-19-1.64548E-18
 -1      2626 1.56530E-04-4.09080E-05-4.97464E-05-1.76899E-05-2.98833E-18 4.61675E-18
 -1      2627 1.39256E-04-6.55652E-05-3.15339E-05 1.51097E-05 1.13047E-18 1.20395E-18
 -1      2628 4.31190E-05-2.55377E-05-7.01041E-06-3.45542E-05-1.44387E-18-4.18011E-18
 -1      2629 1.11158E-04-5.64089E-05-2.31931E-05-3.70843E-05-1.27817E-18-2.37635E-18
 -1      2630 3.07960E-05-1.86656E-05-4.64268E-06 1.64730E-05 9.76100E-19-2.95191E-18
 -1      2631 1.04889E-04-5.72340E-05-2.02524E-05 3.54736E-05 1.58628E-18-9.70700E-19
 -1      2632 9.48017E-05-5.05328E-05-1.82904E-05 3.69078E-05 2.13452E-18-9.98758E-19
 -1      2633 1.16491E-04-6.01153E-05-2.43863E-05 2.90189E-05 2.45915E-18-9.38089E-20
 -1      2634 1.41447E-04-2.03998E-05-5.21625E-05 6.85647E-06 3.73796E-18 5.48030E-19
 -1      2635 1.39680E-04-1.16268E-05-5.50215E-05-5.33570E-06 4.05581E-18-2.13230E-18
 -1      2636 1.42752E-04-2.70531E-05-4.97557E-05-7.80479E-06 2.14130E-18-3.42392E-18
 -1      2637 1.35710E-04-8.02637E-06-5.50472E-05 2.64454E-06 3.82965E-18-4.98426E-19
 -1      2638 1.46378E-04-4.27906E-05-4.44179E-05-2.36629E-06 2.11785E-18 2.68933E-19
 -1      2639 1.41749E-04-3.72483E-05-4.55812E-05 6.03212E-06 2.07947E-18 1.75632E-18
 -1      2640 1.41307E-04-4.81970E-05-3.99340E-05-2.40287E-06 7.97614E-19 5.44536E-19
 -1      2641 1.35419E-04-5.72059E-05-3.34246E-05-1.91710E-05-1.95876E-19-1.60375E-18
 -1      2642 5.77466E-05-3.57744E-05-8.94697E-06 3.61637E-05 1.94479E-18-2.62263E-18
 -1      2643 5.43533E-05-2.85896E-05-1.03603E-05 3.28510E-05 2.32680E-18-2.35602E-18
 -1      2644 7.34323E-05-4.09980E-05-1.40033E-05 3.82278E-05 2.42336E-18-1.62027E-18
 -1      2645 1.65777E-04-1.90347E-05-6.26945E-05-1.31903E-06-4.00689E-18 5.93426E-19
 -1      2646 1.67969E-04-2.18628E-05-6.23369E-05-5.84047E-06-5.32191E-18 1.39644E-18
 -1      2647 1.58434E-04-5.03447E-05-4.65066E-05 1.38023E-05-1.66177E-18 6.62803E-19
 -1      2648 1.55676E-04-4.14179E-05-4.96904E-05 1.75534E-05-2.72173E-18 1.63477E-19
 -1      2649 1.43996E-04-6.15078E-05-3.54240E-05 6.99013E-07 7.68762E-19 2.88055E-18
 -1      2650 1.56297E-04-2.43013E-05-5.67088E-05-1.21191E-05-4.81199E-18 2.39541E-18
 -1      2651 1.53389E-04-2.01172E-05-5.74167E-05 4.53755E-06-3.85866E-18 8.08916E-19
 -1      2652 1.53412E-04-5.57772E-05-4.18547E-05 1.21683E-05-1.22306E-18 1.10231E-18
 -1      2653 1.62294E-04-2.25687E-05-5.98797E-05 8.60032E-06-3.56940E-18 1.32243E-18
 -1      2654 1.43761E-04-2.17600E-05-5.26553E-05 1.05849E-05-3.93574E-18 1.31163E-18
 -1      2655 1.45876E-04-3.09979E-05-5.02012E-05 1.94745E-05-2.54279E-18 1.49332E-18
 -1      2656 8.97670E-05-1.41826E-05-3.24134E-05 2.53593E-06 6.66382E-19-2.20794E-18
 -1      2657 8.94691E-05-1.38297E-05-3.24392E-05 1.72607E-06 4.70837E-19-2.29122E-18
 -1      2658 8.92414E-05-1.35356E-05-3.24639E-05 1.05245E-06 3.56417E-19-2.41629E-18
 -1      2659 8.91211E-05-1.33970E-05-3.24741E-05 2.48221E-07 2.21399E-19-2.39966E-18
 -1      2660 9.03370E-05-1.53109E-05-3.21389E-05 1.12425E-06 3.58225E-19-2.28137E-18
 -1      2661 9.19581E-05-1.70559E-05-3.21365E-05 5.47860E-06 1.53560E-18-1.63149E-18
 -1      2662 9.12729E-05-1.61419E-05-3.22240E-05 4.68792E-06 1.39516E-18-1.83147E-18
 -1      2663 9.36404E-05-1.94847E-05-3.18356E-05 6.62206E-06 1.72550E-18-1.01061E-18
 -1      2664 9.27545E-05-1.81687E-05-3.19848E-05 5.99390E-06 1.55847E-18-1.31188E-18
 -1      2665 9.32933E-05-1.93516E-05-3.16622E-05 4.63525E-06 1.42196E-18-1.30691E-18
 -1      2666 9.63606E-05-2.44242E-05-3.08216E-05 6.30997E-06 1.67006E-18 5.07672E-19
 -1      2667 9.57530E-05-2.30717E-05-3.11739E-05 6.95372E-06 1.81528E-18 2.73069E-20
 -1      2668 9.60350E-05-2.50266E-05-3.04094E-05 4.65550E-06 1.42868E-18 3.77363E-19
 -1      2669 1.50783E-04-4.66309E-05-4.48330E-05-2.08773E-05-2.03447E-18 4.14347E-18
 -1      2670 1.38782E-04-4.27004E-05-4.18378E-05-4.49171E-06 1.86347E-19-3.85665E-18
 -1      2671 1.37882E-04-5.13954E-05-3.70575E-05 3.98474E-06-3.00908E-19-4.03939E-18
 -1      2672 1.58690E-04-3.03863E-05-5.51775E-05 1.47413E-05-3.38136E-18 1.05201E-18
 -1      2673 7.87226E-05-4.07272E-05-1.62485E-05 4.33566E-05-2.73030E-18 8.32739E-19
 -1      2674 6.31223E-05-3.22449E-05-1.26269E-05 4.04280E-05-2.25491E-18 1.00638E-18
 -1      2675 9.56905E-05-2.53525E-05-3.01210E-05-9.44834E-07-9.21599E-19-6.25932E-19
 -1      2676 9.56172E-05-2.58461E-05-2.99049E-05 3.03599E-07-8.92013E-19-5.75496E-19
 -1      2677 9.55907E-05-2.62117E-05-2.97163E-05 1.34667E-06-8.45836E-19-4.63137E-19
 -1      2678 9.55656E-05-2.64508E-05-2.96172E-05 2.30553E-06-7.64661E-19-4.69099E-19
 -1      2679 9.54024E-05-2.52981E-05-3.00491E-05 6.34597E-07-8.96852E-19-7.29609E-19
 -1      2680 9.54455E-05-2.65612E-05-2.95139E-05 3.16562E-06-6.07925E-19-4.15698E-19
 -1      2681 9.54898E-05-2.66381E-05-2.94993E-05 3.97877E-06-3.88007E-19-3.78401E-19
 -1      2682 9.52682E-05-2.58908E-05-2.97374E-05 2.61518E-06-6.93579E-19-4.93195E-19
 -1      2683 9.52983E-05-2.65676E-05-2.94568E-05 4.74981E-06-2.72864E-19-4.13650E-19
 -1      2684 9.53971E-05-2.65256E-05-2.95037E-05 5.52550E-06-3.36217E-19-3.49222E-19
 -1      2685 9.49767E-05-2.59886E-05-2.95672E-05 4.29926E-06-4.08793E-19-5.30609E-19
 -1      2686 9.51176E-05-2.63071E-05-2.94990E-05 6.28952E-06-4.45772E-19-3.65976E-19
 -1      2687 9.52461E-05-2.61707E-05-2.95877E-05 7.10906E-06-3.99089E-19-4.87322E-19
 -1      2688 9.45282E-05-2.57060E-05-2.94907E-05 5.86161E-06-5.15940E-19-5.42425E-19
 -1      2689 9.48433E-05-2.58253E-05-2.95958E-05 7.93374E-06-2.93041E-19-5.10004E-19
 -1      2690 9.49796E-05-2.56239E-05-2.97049E-05 8.85511E-06-4.32754E-19-3.73158E-19
 -1      2691 9.38709E-05-2.51081E-05-2.94583E-05 7.44813E-06-4.24147E-19-6.40181E-19
 -1      2692 9.44153E-05-2.51860E-05-2.96939E-05 9.79711E-06-5.80546E-19-2.32276E-19
 -1      2693 9.45644E-05-2.49855E-05-2.97966E-05 1.08518E-05-4.57188E-19-1.63384E-19
 -1      2694 9.29307E-05-2.42604E-05-2.94106E-05 9.17751E-06-3.59589E-19-1.84423E-19
 -1      2695 9.37900E-05-2.45169E-05-2.97177E-05 1.20168E-05-2.57089E-19-2.62915E-20
 -1      2696 9.40003E-05-2.44664E-05-2.97708E-05 1.32741E-05 8.43029E-20 1.22291E-19
 -1      2697 9.16099E-05-2.32732E-05-2.92626E-05 1.12128E-05-2.29604E-19-4.56786E-20
 -1      2698 9.31396E-05-2.42276E-05-2.95661E-05 1.46204E-05 2.71950E-19 1.78018E-19
 -1      2699 9.36121E-05-2.46450E-05-2.95148E-05 1.58927E-05 4.28370E-19 1.79383E-19
 -1      2700 8.99683E-05-2.24697E-05-2.88968E-05 1.36160E-05 2.01999E-19-6.95345E-20
 -1      2701 9.28906E-05-2.50188E-05-2.91078E-05 1.75531E-05 5.92650E-19 3.38069E-20
 -1      2702 9.41109E-05-2.64873E-05-2.89049E-05 1.87718E-05 8.61046E-19-2.24217E-19
 -1      2703 8.83116E-05-2.24905E-05-2.81803E-05 1.65071E-05 2.31787E-19-1.39128E-19
 -1      2704 9.41316E-05-2.81953E-05-2.82243E-05 2.08346E-05 1.14801E-18-8.01505E-20
 -1      2705 9.69947E-05-3.16111E-05-2.78806E-05 2.17076E-05 1.30873E-18-1.44317E-19
 -1      2706 8.73207E-05-2.44305E-05-2.69371E-05 2.02659E-05 9.29771E-19-2.72361E-19
 -1      2707 9.90162E-05-3.55365E-05-2.69557E-05 2.39756E-05 1.67967E-18 1.45875E-19
 -1      2708 1.04814E-04-4.20309E-05-2.66973E-05 2.39716E-05 2.35417E-18-3.72562E-20
 -1      2709 8.88276E-05-3.03306E-05-2.50647E-05 2.51477E-05 1.68803E-18-2.01409E-19
 -1      2710 1.54742E-04-5.56942E-05-4.31363E-05-1.12001E-05-1.65860E-18 4.48229E-18
 -1      2711 1.52605E-04-3.60214E-05-5.04995E-05 1.99534E-05-2.66180E-18 4.71586E-19
 -1      2712 3.13230E-05-1.30013E-05-7.28294E-06 1.62131E-05-1.82160E-18 5.73230E-19
 -1      2713 3.12526E-05-1.10597E-05-8.08852E-06 3.27153E-07-1.40981E-18 4.74762E-19
 -1      2714 1.46508E-04-4.03811E-05-4.54361E-05 2.23152E-05-1.83679E-18 3.64754E-19
 -1      2715 1.47001E-04-5.06645E-05-4.21814E-05 1.98284E-05-1.47643E-18 7.11508E-20
 -1      2716 1.35900E-04-6.38298E-05-3.08522E-05-1.37534E-05 1.05043E-18 1.90657E-18
 -1      2717 1.12631E-04-4.82710E-05-2.73846E-05-2.20022E-05 1.57739E-18 1.00414E-18
 -1      2718 1.05673E-04-4.08411E-05-2.74516E-05-2.30727E-05 9.81566E-19 6.36181E-19
 -1      2719 1.01850E-04-3.56889E-05-2.82139E-05-2.14346E-05 4.32728E-19 1.95971E-19
 -1      2720 9.79603E-05-3.12488E-05-2.84834E-05-2.10728E-05 8.03656E-20-3.54048E-19
 -1      2721 9.38050E-05-3.53593E-05-2.51389E-05-2.59621E-05 3.28331E-19 1.49395E-19
 -1      2722 9.69582E-05-2.86816E-05-2.91773E-05-1.90530E-05-2.39373E-19-5.64351E-19
 -1      2723 9.51120E-05-2.65332E-05-2.93816E-05-1.79959E-05-3.97000E-19-1.82671E-19
 -1      2724 8.97804E-05-2.70657E-05-2.69018E-05-2.13385E-05-4.61368E-19-2.25125E-20
 -1      2725 9.53781E-05-2.56609E-05-2.98305E-05-1.61805E-05-5.18990E-19-7.21200E-19
 -1      2726 9.45713E-05-2.48728E-05-2.98923E-05-1.48887E-05-4.52471E-19-8.49059E-19
 -1      2727 8.94349E-05-2.35174E-05-2.82390E-05-1.72652E-05-9.07599E-19-2.81943E-19
 -1      2728 9.52285E-05-2.48717E-05-3.01222E-05-1.33637E-05-2.33150E-19-1.63597E-18
 -1      2729 9.48544E-05-2.47481E-05-3.00719E-05-1.20742E-05 1.58652E-19-1.32161E-18
 -1      2730 9.05363E-05-2.27103E-05-2.90416E-05-1.39716E-05-6.88387E-19-1.32558E-18
 -1      2731 9.55127E-05-2.51012E-05-3.01527E-05-1.07978E-05 3.02204E-19-1.21220E-18
 -1      2732 9.52842E-05-2.52478E-05-3.00392E-05-9.62997E-06 6.82006E-20-7.76575E-19
 -1      2733 9.19161E-05-2.31621E-05-2.94379E-05-1.12687E-05 5.91428E-20-2.39837E-18
 -1      2734 9.58061E-05-2.56859E-05-3.00315E-05-8.56818E-06-8.36859E-21-2.05297E-19
 -1      2735 9.56140E-05-2.59071E-05-2.98935E-05-7.56973E-06 8.97562E-19-7.55309E-19
 -1      2736 9.31143E-05-2.40593E-05-2.95719E-05-9.01605E-06 2.69768E-19-1.05259E-18
 -1      2737 9.59798E-05-2.63126E-05-2.98400E-05-6.69617E-06 1.11232E-18-1.18546E-18
 -1      2738 9.57954E-05-2.65255E-05-2.97016E-05-5.87435E-06 1.09712E-18-1.82341E-18
 -1      2739 9.40050E-05-2.50065E-05-2.95542E-05-7.13704E-06 2.38370E-19-2.80788E-19
 -1      2740 9.60295E-05-2.68593E-05-2.96294E-05-5.16541E-06 1.16708E-18-2.14061E-18
 -1      2741 9.58527E-05-2.70361E-05-2.95034E-05-4.50642E-06 7.03510E-19-1.56376E-18
 -1      2742 9.46051E-05-2.58413E-05-2.94594E-05-5.58494E-06 8.10442E-19-1.30126E-18
 -1      2743 9.59902E-05-2.72953E-05-2.94282E-05-3.93855E-06 2.06823E-19-2.07949E-18
 -1      2744 9.58266E-05-2.74327E-05-2.93197E-05-3.41940E-06-4.30371E-19-1.85965E-18
 -1      2745 9.49777E-05-2.65175E-05-2.93335E-05-4.32016E-06-3.60083E-20-2.05442E-18
 -1      2746 9.59004E-05-2.76361E-05-2.92460E-05-2.94846E-06-1.11515E-19-2.07476E-18
 -1      2747 9.57522E-05-2.77434E-05-2.91523E-05-2.52942E-06 6.49838E-19-3.09997E-18
 -1      2748 9.51940E-05-2.70520E-05-2.91996E-05-3.28238E-06-7.82783E-19-2.49183E-18
 -1      2749 9.57843E-05-2.78850E-05-2.90914E-05-2.18259E-06 8.68159E-19-4.13742E-18
 -1      2750 9.56651E-05-2.79607E-05-2.90199E-05-1.87647E-06 3.50211E-19-3.67127E-18
 -1      2751 9.53023E-05-2.74561E-05-2.90755E-05-2.46112E-06 9.53892E-20-2.73692E-18
 -1      2752 9.56731E-05-2.80645E-05-2.89685E-05-1.60724E-06 1.74946E-19-2.54880E-18
 -1      2753 9.55761E-05-2.81206E-05-2.89121E-05-1.37389E-06-2.21879E-19-2.00389E-18
 -1      2754 9.53448E-05-2.77482E-05-2.89697E-05-1.83567E-06 7.41173E-19-2.11662E-18
 -1      2755 9.55721E-05-2.81966E-05-2.88701E-05-1.16711E-06 4.97189E-19-1.06547E-18
 -1      2756 9.54955E-05-2.82385E-05-2.88262E-05-9.90622E-07 2.40883E-19 1.08140E-19
 -1      2757 9.53525E-05-2.79651E-05-2.88806E-05-1.35010E-06 1.00880E-18-9.84639E-19
 -1      2758 9.54862E-05-2.82942E-05-2.87926E-05-8.33273E-07-7.96906E-19 7.94476E-19
 -1      2759 9.54274E-05-2.83256E-05-2.87591E-05-7.00885E-07-6.53299E-19 9.62223E-19
 -1      2760 9.53426E-05-2.81261E-05-2.88077E-05-9.76885E-07 6.83286E-20 4.67758E-19
 -1      2761 9.54166E-05-2.83665E-05-2.87327E-05-5.82321E-07-1.87330E-18-8.90590E-20
 -1      2762 9.53725E-05-2.83904E-05-2.87074E-05-4.83910E-07-2.67772E-18-5.98086E-19
 -1      2763 9.53254E-05-2.82455E-05-2.87492E-05-6.92923E-07-2.03737E-18 4.03753E-19
 -1      2764 9.53623E-05-2.84205E-05-2.86870E-05-3.95535E-07-2.50951E-18-2.24064E-20
 -1      2765 9.53302E-05-2.84388E-05-2.86683E-05-3.23151E-07-1.26976E-18-1.46444E-19
 -1      2766 9.53068E-05-2.83343E-05-2.87032E-05-4.79170E-07-1.79197E-18-6.20053E-19
 -1      2767 9.53213E-05-2.84610E-05-2.86527E-05-2.58105E-07-4.89149E-19-9.30098E-19
 -1      2768 9.52987E-05-2.84752E-05-2.86390E-05-2.05559E-07 4.28772E-19-8.76464E-19
 -1      2769 9.52896E-05-2.84003E-05-2.86675E-05-3.20176E-07-1.24305E-18 8.69468E-20
 -1      2770 9.52916E-05-2.84916E-05-2.86273E-05-1.58424E-07 1.24241E-18-3.86495E-19
 -1      2771 9.52762E-05-2.85027E-05-2.86175E-05-1.20942E-07 2.01321E-18-5.69707E-19
 -1      2772 9.52752E-05-2.84495E-05-2.86401E-05-2.03568E-07 1.07206E-18 4.90244E-19
 -1      2773 9.52707E-05-2.85150E-05-2.86087E-05-8.74957E-08 1.83205E-18-1.71427E-18
 -1      2774 9.52608E-05-2.85238E-05-2.86017E-05-6.14515E-08 1.35258E-18-1.20599E-18
 -1      2775 9.52638E-05-2.84862E-05-2.86194E-05-1.19571E-07 1.20790E-18-3.96764E-20
 -1      2776 9.52568E-05-2.85332E-05-2.85952E-05-3.84966E-08 4.40510E-19-1.84545E-18
 -1      2777 9.52508E-05-2.85405E-05-2.85903E-05-2.12413E-08-1.03835E-19-3.18713E-18
 -1      2778 9.52552E-05-2.85140E-05-2.86037E-05-6.05835E-08 2.40951E-19-1.26446E-18
 -1      2779 9.52481E-05-2.85481E-05-2.85853E-05-6.38658E-09-6.42588E-20-3.08304E-18
 -1      2780 9.52451E-05-2.85542E-05-2.85818E-05 3.81604E-09-3.20530E-19-3.16415E-18
 -1      2781 9.52492E-05-2.85355E-05-2.85918E-05-2.09072E-08-2.47404E-19-2.77731E-18
 -1      2782 9.52437E-05-2.85583E-05-2.85793E-05 9.96830E-09-5.89130E-19-2.86294E-18
 -1      2783 9.52436E-05-2.85630E-05-2.85773E-05 1.36202E-08 5.65264E-19-2.63987E-18
 -1      2784 9.52446E-05-2.85612E-05-2.85788E-05 1.05604E-08 6.50921E-19-2.58136E-18
 -1      2785 9.52459E-05-2.85499E-05-2.85841E-05 4.05415E-10 1.92738E-20-1.41477E-18
 -1      2786 9.58857E-05-2.75957E-05-2.92677E-05-1.97048E-06 8.16064E-19-2.86117E-19
 -1      2787 9.58308E-05-2.72729E-05-2.93607E-05-1.35908E-06 8.94182E-19-3.58871E-19
 -1      2788 9.61376E-05-2.81588E-05-2.91332E-05-2.89384E-06 7.44371E-19-4.88973E-20
 -1      2789 9.59722E-05-2.78814E-05-2.91667E-05-2.50545E-06 8.05327E-19-1.63619E-20
 -1      2790 9.60141E-05-2.74559E-05-2.93933E-05-2.24893E-06 7.47871E-19-6.12729E-19
 -1      2791 9.57757E-05-2.68783E-05-2.95306E-05-5.84410E-07 1.02701E-18-4.47516E-19
 -1      2792 9.58334E-05-2.64377E-05-2.97132E-05 3.36350E-07 1.04732E-18-4.00401E-19
 -1      2793 9.58569E-05-2.66223E-05-2.96824E-05-8.58299E-07 9.65238E-19-8.50318E-19
 -1      2794 9.71757E-05-2.93138E-05-2.90863E-05-3.67002E-06 2.63510E-19-2.17408E-19
 -1      2795 9.68207E-05-2.89868E-05-2.90611E-05-3.63136E-06 4.60562E-19-1.50507E-19
 -1      2796 9.79862E-05-3.00603E-05-2.91177E-05-3.52891E-06-2.11209E-19 1.25171E-19
 -1      2797 9.75565E-05-2.96685E-05-2.90835E-05-3.67738E-06 7.62698E-20-7.47429E-20
 -1      2798 9.73484E-05-2.95204E-05-2.90807E-05-4.02012E-06 4.40990E-20-9.59378E-20
 -1      2799 9.89887E-05-3.09670E-05-2.91644E-05-2.96042E-06-3.82576E-19 3.74955E-19
 -1      2800 9.85068E-05-3.05087E-05-2.91286E-05-3.32956E-06-2.86260E-19 4.04571E-20
 -1      2801 9.82571E-05-3.04497E-05-2.90728E-05-3.87325E-06-2.18640E-19 1.42733E-19
 -1      2802 1.00142E-04-3.19968E-05-2.92238E-05-1.87934E-06-9.30185E-20 2.75863E-19
 -1      2803 9.96498E-05-3.15057E-05-2.91890E-05-2.50397E-06-2.30344E-19 2.02431E-19
 -1      2804 9.94481E-05-3.15864E-05-2.90965E-05-3.25888E-06-2.27052E-19 5.45376E-21
 -1      2805 1.01340E-04-3.30113E-05-2.93076E-05-2.24573E-07-6.18053E-20 4.82446E-19
 -1      2806 1.00908E-04-3.25744E-05-2.92699E-05-1.11542E-06-1.30574E-19 1.77361E-19
 -1      2807 1.00890E-04-3.28709E-05-2.91625E-05-2.07081E-06-1.43233E-19-3.92309E-20
 -1      2808 1.02373E-04-3.37370E-05-2.94410E-05 1.96949E-06-3.93735E-19 4.75078E-19
 -1      2809 1.02112E-04-3.35061E-05-2.93903E-05 8.63211E-07-1.40823E-19 9.62814E-19
 -1      2810 1.02453E-04-3.41046E-05-2.92981E-05-2.28317E-07-2.45241E-19 1.35336E-19
 -1      2811 1.02934E-04-3.37757E-05-2.96572E-05 4.47250E-06-2.79147E-19 2.84937E-19
 -1      2812 1.02973E-04-3.39494E-05-2.95801E-05 3.30750E-06-3.35988E-19 3.34492E-19
 -1      2813 1.03861E-04-3.49119E-05-2.95441E-05 2.23485E-06-1.77384E-19 1.91581E-19
 -1      2814 1.02685E-04-3.27220E-05-2.99824E-05 6.75903E-06 7.98523E-20 3.23887E-19
 -1      2815 1.03123E-04-3.34671E-05-2.98688E-05 5.82672E-06-1.60921E-19 1.50708E-19
 -1      2816 1.04685E-04-3.47699E-05-2.99420E-05 5.03697E-06-3.43837E-19 9.91748E-20
 -1      2817 1.01456E-04-3.04320E-05-3.04100E-05 8.01700E-06 5.47563E-19 7.28916E-19
 -1      2818 1.02271E-04-3.17406E-05-3.02642E-05 7.70253E-06 2.84792E-19 7.32318E-19
 -1      2819 1.04472E-04-3.32053E-05-3.05085E-05 7.51618E-06-8.80290E-20 5.50512E-19
 -1      2820 9.95010E-05-2.73400E-05-3.08756E-05 7.39522E-06 5.63287E-19 7.73267E-19
 -1      2821 1.00473E-04-2.88962E-05-3.07247E-05 8.02693E-06 7.40716E-19 6.95393E-19
 -1      2822 1.03038E-04-3.01665E-05-3.11993E-05 8.66404E-06 7.50248E-19 9.75363E-19
 -1      2823 9.76042E-05-2.45514E-05-3.12608E-05 4.53419E-06 1.09449E-19 7.39467E-19
 -1      2824 9.83536E-05-2.57632E-05-3.11483E-05 6.13966E-06 4.51799E-19 8.77905E-19
 -1      2825 1.00822E-04-2.64146E-05-3.18826E-05 7.49832E-06 6.45558E-19 1.14912E-18
 -1      2826 9.67490E-05-2.33616E-05-3.14371E-05 4.83170E-08 4.79235E-20 3.68421E-19
 -1      2827 9.69185E-05-2.36560E-05-3.14065E-05 2.21201E-06 2.53448E-21 4.86124E-19
 -1      2828 9.89010E-05-2.34211E-05-3.23710E-05 3.80117E-06 4.15969E-19 4.68871E-19
 -1      2829 9.74703E-05-2.44101E-05-3.13341E-05-4.52835E-06 1.59454E-19-1.00589E-20
 -1      2830 9.69765E-05-2.36440E-05-3.13961E-05-2.53964E-06 3.96004E-20-7.96910E-20
 -1      2831 9.84259E-05-2.26927E-05-3.24922E-05-1.39856E-06-3.04072E-21-6.18450E-19
 -1      2832 9.93804E-05-2.71407E-05-3.10051E-05-7.62816E-06 1.98169E-19 8.48307E-20
 -1      2833 9.84519E-05-2.56950E-05-3.11296E-05-6.43320E-06 4.00511E-19 2.30686E-19
 -1      2834 9.96909E-05-2.45776E-05-3.22014E-05-6.11891E-06 2.47290E-19-1.69724E-19
 -1      2835 1.01490E-04-3.02605E-05-3.05717E-05-8.49936E-06 2.98995E-19 5.55443E-19
 -1      2836 1.00527E-04-2.87686E-05-3.07123E-05-8.30481E-06 1.15847E-20 2.77359E-19
 -1      2837 1.01916E-04-2.80948E-05-3.16183E-05-8.72360E-06-9.33490E-20 1.00332E-19
 -1      2838 1.02920E-04-3.26173E-05-3.01559E-05-7.42655E-06 4.76439E-19 4.52287E-19
 -1      2839 1.02237E-04-3.15598E-05-3.02750E-05-8.03292E-06 8.69259E-19 4.19053E-19
 -1      2840 1.03872E-04-3.16229E-05-3.09292E-05-8.78393E-06 5.18867E-19-2.92662E-19
 -1      2841 1.03328E-04-3.37293E-05-2.98333E-05-5.25094E-06 4.67134E-19-7.52701E-19
 -1      2842 1.03045E-04-3.32663E-05-2.99146E-05-6.28101E-06 4.34628E-19-7.51977E-20
 -1      2843 1.04755E-04-3.39763E-05-3.03038E-05-6.97502E-06 1.28652E-18-2.16561E-19
 -1      2844 1.02851E-04-3.37185E-05-2.96192E-05-2.82258E-06 8.70191E-19-9.93436E-19
 -1      2845 1.02924E-04-3.37560E-05-2.96667E-05-3.92457E-06 5.41623E-19-1.10454E-18
 -1      2846 1.04451E-04-3.48067E-05-2.98328E-05-4.35318E-06 6.06740E-19-1.02719E-18
 -1      2847 1.01847E-04-3.29991E-05-2.94905E-05-7.00583E-07 2.86691E-19-8.32237E-19
 -1      2848 1.02153E-04-3.33395E-05-2.95178E-05-1.65121E-06 8.01512E-19-5.44102E-19
 -1      2849 1.03313E-04-3.44179E-05-2.95265E-05-1.78352E-06 7.13723E-19-1.51935E-18
 -1      2850 1.00653E-04-3.19856E-05-2.94121E-05 8.72354E-07-2.03763E-19-1.46679E-18
 -1      2851 1.01070E-04-3.24449E-05-2.94332E-05 1.70009E-07 2.05508E-19-8.81365E-19
 -1      2852 1.01808E-04-3.33471E-05-2.93488E-05 2.70696E-07 5.81042E-19-1.06580E-18
 -1      2853 9.94966E-05-3.09689E-05-2.93544E-05 1.87160E-06-1.31406E-18-6.52848E-19
 -1      2854 9.99349E-05-3.14231E-05-2.93786E-05 1.42603E-06-9.95691E-19-1.31840E-18
 -1      2855 1.00295E-04-3.20654E-05-2.92524E-05 1.67452E-06-5.89785E-19-1.06347E-18
 -1      2856 9.84918E-05-3.01028E-05-2.92985E-05 2.38356E-06-5.41794E-19 1.66119E-19
 -1      2857 9.89008E-05-3.04881E-05-2.93300E-05 2.15683E-06-8.00672E-19-1.58420E-19
 -1      2858 9.89727E-05-3.08717E-05-2.91970E-05 2.48091E-06-1.42426E-18-4.21931E-19
 -1      2859 9.76741E-05-2.94398E-05-2.92357E-05 2.53183E-06-1.66653E-19 5.36862E-19
 -1      2860 9.80308E-05-2.97356E-05-2.92746E-05 2.46931E-06-2.53912E-19 7.99540E-19
 -1      2861 9.79134E-05-2.99057E-05-2.91554E-05 2.81839E-06-5.28729E-19-8.95471E-19
 -1      2862 9.70357E-05-2.89737E-05-2.91647E-05 2.43677E-06-3.49292E-19 1.05828E-18
 -1      2863 9.73340E-05-2.91836E-05-2.92088E-05 2.48451E-06-2.07491E-19 9.60466E-19
 -1      2864 9.71125E-05-2.91994E-05-2.91128E-05 2.82690E-06-5.79466E-19-5.33989E-20
 -1      2865 9.65502E-05-2.86714E-05-2.90884E-05 2.19803E-06 2.07554E-19 1.82169E-19
 -1      2866 9.67930E-05-2.88100E-05-2.91346E-05 2.31081E-06-2.21180E-19 7.79206E-19
 -1      2867 9.65310E-05-2.87274E-05-2.90640E-05 2.62830E-06 8.51012E-20 5.35521E-19
 -1      2868 9.61870E-05-2.84927E-05-2.90107E-05 1.89013E-06-3.12976E-19 9.66622E-19
 -1      2869 9.63808E-05-2.85773E-05-2.90562E-05 2.03387E-06 8.32707E-21 4.53295E-19
 -1      2870 9.61205E-05-2.84416E-05-2.90092E-05 2.31712E-06-2.18361E-19 1.11204E-18
 -1      2871 9.59183E-05-2.84008E-05-2.89358E-05 1.56432E-06 1.12095E-18 8.59442E-19
 -1      2872 9.60706E-05-2.84471E-05-2.89783E-05 1.71552E-06 5.50553E-19 9.28848E-19
 -1      2873 9.58364E-05-2.82910E-05-2.89509E-05 1.96083E-06 2.91582E-20 1.52433E-18
 -1      2874 9.57208E-05-2.83655E-05-2.88668E-05 1.25284E-06 9.68459E-19 8.34915E-19
 -1      2875 9.58389E-05-2.83864E-05-2.89048E-05 1.39674E-06 1.15759E-18 3.98940E-19
 -1      2876 9.56421E-05-2.82315E-05-2.88924E-05 1.60398E-06 1.07490E-18 1.05804E-18
 -1      2877 9.55765E-05-2.83647E-05-2.88055E-05 9.73644E-07 9.21522E-19 4.09012E-19
 -1      2878 9.56668E-05-2.83697E-05-2.88383E-05 1.10209E-06 9.81364E-19 6.04343E-19
 -1      2879 9.55103E-05-2.82284E-05-2.88367E-05 1.27336E-06 1.29097E-18 1.18571E-18
 -1      2880 9.54717E-05-2.83827E-05-2.87529E-05 7.34711E-07 1.52154E-18 3.81485E-19
 -1      2881 9.55398E-05-2.83786E-05-2.87804E-05 8.44176E-07 1.26868E-18 2.37363E-19
 -1      2882 9.54211E-05-2.82571E-05-2.87859E-05 9.82852E-07 1.07798E-18 8.25774E-19
 -1      2883 9.53962E-05-2.84093E-05-2.87092E-05 5.37502E-07-1.00410E-18 1.31932E-18
 -1      2884 9.54467E-05-2.84006E-05-2.87315E-05 6.27455E-07 4.29992E-19 5.18431E-19
 -1      2885 9.53607E-05-2.83005E-05-2.87411E-05 7.37551E-07 3.50772E-19 1.31972E-18
 -1      2886 9.53425E-05-2.84382E-05-2.86737E-05 3.79589E-07-1.89254E-19 8.02521E-19
 -1      2887 9.53791E-05-2.84277E-05-2.86913E-05 4.51278E-07-7.89706E-19 6.52555E-19
 -1      2888 9.53198E-05-2.83482E-05-2.87029E-05 5.36993E-07-5.32297E-19 8.33730E-19
 -1      2889 9.53047E-05-2.84659E-05-2.86456E-05 2.56527E-07-4.42848E-19 8.69367E-19
 -1      2890 9.53307E-05-2.84552E-05-2.86592E-05 3.12099E-07-1.90760E-19 4.56725E-19
 -1      2891 9.52920E-05-2.83941E-05-2.86712E-05 3.77512E-07 1.97189E-19 1.12688E-19
 -1      2892 9.52788E-05-2.84905E-05-2.86238E-05 1.63112E-07-2.70847E-19 8.79377E-19
 -1      2893 9.52966E-05-2.84806E-05-2.86341E-05 2.05030E-07-3.35970E-19 6.61456E-19
 -1      2894 9.52731E-05-2.84349E-05-2.86455E-05 2.53900E-07-3.88964E-19 3.52644E-19
 -1      2895 9.52616E-05-2.85117E-05-2.86073E-05 9.41765E-08-3.74269E-19 8.80415E-19
 -1      2896 9.52733E-05-2.85029E-05-2.86149E-05 1.24851E-07-5.01760E-19 1.17915E-18
 -1      2897 9.52603E-05-2.84695E-05-2.86250E-05 1.60511E-07-6.34270E-19 5.05193E-19
 -1      2898 9.52507E-05-2.85295E-05-2.85950E-05 4.51505E-08-4.38788E-19 7.46353E-19
 -1      2899 9.52579E-05-2.85218E-05-2.86004E-05 6.66813E-08 1.84904E-19 1.47962E-18
 -1      2900 9.52518E-05-2.84982E-05-2.86090E-05 9.19369E-08-3.72459E-21 1.58098E-18
 -1      2901 9.52444E-05-2.85445E-05-2.85857E-05 1.20848E-08-4.58567E-19-7.07538E-19
 -1      2902 9.52483E-05-2.85377E-05-2.85897E-05 2.62526E-08-3.98246E-19-7.58671E-19
 -1      2903 9.52463E-05-2.85215E-05-2.85966E-05 4.35581E-08 6.63737E-19-1.16236E-18
 -1      2904 9.52415E-05-2.85575E-05-2.85789E-05-7.49657E-09-5.71404E-19-8.99585E-19
 -1      2905 9.52430E-05-2.85510E-05-2.85819E-05 6.97584E-10-7.52657E-19-2.95488E-19
 -1      2906 9.52431E-05-2.85406E-05-2.85871E-05 1.17179E-08-6.45004E-19-1.82841E-18
 -1      2907 9.52419E-05-2.85569E-05-2.85795E-05-6.94364E-09-9.96769E-22-2.77448E-18
 -1      2908 9.52342E-05-2.85384E-05-2.85841E-05 3.46998E-09 1.94732E-18 2.12080E-18
 -1      2909 9.52370E-05-2.85427E-05-2.85832E-05 1.19830E-09 1.13064E-18 7.50551E-19
 -1      2910 9.52219E-05-2.85192E-05-2.85871E-05 2.96898E-09-9.98899E-19-1.91033E-18
 -1      2911 9.52239E-05-2.85216E-05-2.85867E-05 3.72916E-09-4.98767E-20-3.27794E-19
 -1      2912 9.52395E-05-2.85481E-05-2.85822E-05-8.04505E-10 2.61735E-19-4.07324E-20
 -1      2913 9.52408E-05-2.85520E-05-2.85809E-05-3.89382E-09 3.13957E-19-1.90168E-18
 -1      2914 9.52413E-05-2.85431E-05-2.85846E-05 3.19088E-09-8.24351E-20-1.71680E-18
 -1      2915 9.52362E-05-2.85324E-05-2.85872E-05 7.38605E-09 9.22963E-19 1.50052E-18
 -1      2916 9.52274E-05-2.85274E-05-2.85859E-05 4.82776E-09 4.56534E-19 4.56721E-19
 -1      2917 9.52302E-05-2.85309E-05-2.85853E-05 4.09059E-09 8.13525E-19 1.46204E-18
 -1      2918 9.52280E-05-2.85192E-05-2.85895E-05 9.61398E-09 9.69068E-19 1.39716E-18
 -1      2919 9.52201E-05-2.85059E-05-2.85916E-05 8.76384E-09-2.94567E-19-9.21013E-19
 -1      2920 9.52214E-05-2.85172E-05-2.85876E-05-5.35388E-09-1.52923E-18 1.31050E-18
 -1      2921 9.52201E-05-2.85159E-05-2.85877E-05-4.10242E-09-2.35679E-18 2.75432E-18
 -1      2922 9.52265E-05-2.85236E-05-2.85869E-05-7.57876E-09-1.07851E-18 6.23208E-19
 -1      2923 9.52239E-05-2.85207E-05-2.85873E-05-7.43661E-09-1.52940E-18 1.34881E-18
 -1      2924 9.52161E-05-2.84983E-05-2.85930E-05-9.14711E-09-1.34299E-18 1.38799E-18
 -1      2925 9.52338E-05-2.85338E-05-2.85856E-05-6.30938E-09-2.38965E-19 2.08240E-18
 -1      2926 9.52306E-05-2.85298E-05-2.85862E-05-7.82069E-09-5.81003E-19 1.49266E-18
 -1      2927 9.52235E-05-2.85082E-05-2.85920E-05-1.25286E-08-1.87234E-18 1.29391E-18
 -1      2928 9.52408E-05-2.85458E-05-2.85834E-05-8.85644E-10-1.49494E-19 1.68485E-18
 -1      2929 9.52382E-05-2.85416E-05-2.85844E-05-4.15373E-09-3.60996E-19 3.07383E-18
 -1      2930 9.52330E-05-2.85225E-05-2.85901E-05-1.13372E-08-6.14012E-19 1.86014E-18
 -1      2931 1.14259E-04-5.65707E-05-2.49943E-05 3.33218E-05-3.33456E-18-5.42544E-19
 -1      2932 9.75935E-05-5.00105E-05-1.98758E-05 3.98274E-05-3.58507E-18 1.50216E-19
 -1      2933 9.45718E-05-2.06301E-05-3.17235E-05-7.15191E-06-1.60029E-18-8.67001E-19
 -1      2934 9.50223E-05-2.23607E-05-3.11591E-05-5.19438E-06-1.41012E-18-7.37391E-19
 -1      2935 1.54557E-04-5.81204E-05-4.13509E-05-6.07882E-06-8.58984E-19 4.01832E-18
 -1      2936 3.84026E-05-1.53280E-05-9.39884E-06-1.68856E-05 1.52201E-19 1.96321E-18
 -1      2937 4.91972E-05-2.31741E-05-1.06456E-05-2.86900E-05 8.68632E-19 2.62771E-18
 -1      2938 4.83219E-05-2.39457E-05-1.01674E-05 3.58819E-05-1.89767E-18 1.24789E-18
 -1      2939 3.71401E-05-1.70489E-05-8.06046E-06 2.64055E-05-1.75495E-18 1.13248E-18
 -1      2940 4.19633E-05-1.43065E-05-1.13407E-05 2.00862E-05-1.80884E-18 9.88276E-19
 -1      2941 6.18867E-05-2.70074E-05-1.42960E-05 3.51102E-05-2.04093E-18 8.92032E-19
 -1      2942 1.05293E-04-5.32973E-05-2.18624E-05-3.67368E-05-2.06602E-18-1.90717E-18
 -1      2943 1.19950E-04-5.80778E-05-2.66649E-05-2.97310E-05-1.53842E-18-1.41357E-18
 -1      2944 9.52196E-05-2.85155E-05-2.85876E-05-1.12835E-09-2.19441E-18 1.73706E-18
 -1      2945 9.52201E-05-2.85162E-05-2.85875E-05 3.54461E-10-1.06677E-18-5.99986E-19
 -1      2946 9.52127E-05-2.84943E-05-2.85933E-05-2.87452E-09-1.24066E-18 2.40484E-18
 -1      2947 1.26408E-04-5.92219E-05-2.85390E-05-1.92597E-05 1.58168E-18 1.24911E-18
 -1      2948 1.33373E-04-5.72447E-05-3.30634E-05 1.43201E-05-7.22413E-19-3.64722E-18
 -1      2949 1.26848E-04-5.80721E-05-2.91811E-05 2.17154E-05-2.11308E-18-2.11356E-18
 -1      2950 9.55529E-05-2.37270E-05-3.07669E-05-3.79249E-06-1.16972E-18-6.84013E-19
 -1      2951 9.55296E-05-2.46303E-05-3.03969E-05-2.11299E-06-1.03308E-18-5.96961E-19
 -1      2952 9.52749E-05-2.40271E-05-3.05290E-05-1.68710E-06-1.04158E-18-8.81191E-19
 -1      2953 9.46679E-05-2.18525E-05-3.12008E-05-4.32142E-06-1.28387E-18-9.61023E-19
 -1      2954 9.21264E-05-1.63496E-05-3.24847E-05-8.01524E-06-1.60331E-18-1.43551E-18
 -1      2955 1.28573E-04-5.88954E-05-2.97656E-05-2.14157E-05-1.32370E-18-9.01084E-19
 -1      2956 1.35168E-04-5.62364E-05-3.41290E-05-1.25477E-05-8.81629E-19-2.43522E-19
 -1      2957 1.23210E-04-5.75558E-05-2.79345E-05-2.25623E-05-1.91609E-18-7.08225E-19
 -1      2958 1.09510E-04-5.25399E-05-2.44515E-05-2.79722E-05 1.41804E-18 1.29840E-18
 -1      2959 9.06696E-05-1.53307E-05-3.23132E-05 4.04431E-06 1.22755E-18-1.90539E-18
 -1      2960 9.01819E-05-1.47254E-05-3.23626E-05 3.21233E-06 9.06967E-19-2.02919E-18
 -1      2961 9.09823E-05-1.61382E-05-3.20597E-05 2.38611E-06 7.00828E-19-1.93154E-18
 -1      2962 9.19812E-05-1.74714E-05-3.19130E-05 3.60386E-06 1.15428E-18-1.66024E-18
 -1      2963 1.27830E-04-9.03988E-06-5.16368E-05-5.68296E-06 3.25557E-18-1.47945E-18
 -1      2964 1.31344E-04-1.46488E-05-5.05844E-05-9.28786E-06 3.06075E-18-2.35009E-18
 -1      2965 3.97745E-05-1.85090E-05-8.62142E-06 2.23440E-05 1.80847E-18-2.10022E-18
 -1      2966 3.16136E-05-1.35172E-05-7.13863E-06 1.02260E-05 7.82208E-19-2.03754E-18
 -1      2967 7.29550E-05-3.78961E-05-1.43602E-05-4.20887E-05-1.92816E-18-3.52186E-18
 -1      2968 8.79072E-05-4.63758E-05-1.78589E-05-4.31295E-05-1.80164E-18-3.00326E-18
 -1      2969 2.82988E-05-1.19649E-05-6.44752E-06-2.13088E-06 4.50780E-20-3.21978E-18
 -1      2970 3.02280E-05-1.34978E-05-6.77366E-06-1.58282E-05-5.65183E-19-3.54674E-18
 -1      2971 1.37330E-04-2.64000E-05-4.78820E-05 1.01778E-05 2.69759E-18 1.61688E-18
 -1      2972 1.30862E-04-1.66780E-05-4.96418E-05 1.02232E-05 3.34027E-18 2.11716E-18
 -1      2973 8.99755E-05-1.44463E-05-3.23934E-05-3.25169E-06-5.49603E-19-2.16497E-18
 -1      2974 9.04512E-05-1.50261E-05-3.23502E-05-4.03817E-06-8.69109E-19-2.12040E-18
 -1      2975 3.94066E-05-1.86065E-05-8.22518E-06-2.74541E-05-1.04476E-18-3.99736E-18
 -1      2976 5.40794E-05-2.75703E-05-1.12244E-05-3.83981E-05-1.40353E-18-3.90863E-18
 -1      2977 1.33927E-04-2.22650E-05-4.85010E-05-1.03400E-05 2.38419E-18-3.00337E-18
 -1      2978 1.34743E-04-3.05326E-05-4.49432E-05-1.06813E-05 8.37610E-19-3.50640E-18
 -1      2979 1.25183E-04-1.90722E-05-4.58088E-05-1.15158E-05 1.66580E-18-2.95244E-18
 -1      2980 1.26659E-04-8.48777E-06-5.12925E-05 4.90387E-06 3.50206E-18 1.80789E-19
 -1      2981 1.27328E-04-6.68588E-06-5.23481E-05-5.03944E-07 3.61005E-18-8.39039E-19
 -1      2982 6.33750E-05-3.27422E-05-1.26470E-05-3.42515E-05 4.54645E-19 1.65140E-18
 -1      2983 8.42714E-05-4.38396E-05-1.69710E-05-3.63412E-05 8.85891E-19 1.19718E-18
 -1      2984 9.65624E-05-2.87009E-05-2.90836E-05-3.45017E-06 7.32896E-19-1.81201E-19
 -1      2985 9.62962E-05-2.84167E-05-2.90796E-05-3.24130E-06 8.62499E-19 9.99232E-20
 -1      2986 9.62731E-05-2.81201E-05-2.92195E-05-3.19828E-06 8.31182E-19-3.18576E-19
 -1      2987 9.67009E-05-2.87702E-05-2.91242E-05-3.78270E-06 7.07168E-19-4.60064E-19
 -1      2988 9.00700E-05-1.49744E-05-3.21685E-05-1.21812E-07 1.19606E-19-2.24155E-18
 -1      2989 8.90884E-05-1.33520E-05-3.24778E-05-4.08202E-07 8.60489E-20-2.36997E-18
 -1      2990 8.91566E-05-1.34323E-05-3.24738E-05-1.19992E-06-9.33026E-20-2.39987E-18
 -1      2991 9.48062E-05-2.13272E-05-3.14866E-05 6.91763E-06 1.71688E-18-4.93023E-19
 -1      2992 1.32813E-04-3.70350E-05-4.12966E-05-8.91885E-06 5.48348E-19-2.84476E-18
 -1      2993 4.14216E-05-9.98654E-06-1.31191E-05 2.88997E-07-1.34101E-18-6.32522E-19
 -1      2994 3.85011E-05-1.18260E-05-1.07378E-05-8.20096E-06-9.49789E-19 4.23516E-19
 -1      2995 4.83834E-05-1.38286E-05-1.43415E-05-1.44384E-05 3.27345E-19-1.22926E-19
 -1      2996 9.11446E-05-4.43000E-05-1.96552E-05 3.82508E-05-3.21301E-18-4.93847E-19
 -1      2997 9.77082E-05-4.42195E-05-2.29507E-05 3.06869E-05 2.73698E-18-2.62474E-19
 -1      2998 1.13575E-04-5.15053E-05-2.62001E-05 2.47863E-05 2.92459E-18 1.08334E-19
 -1      2999 1.22922E-04-5.88120E-05-2.72639E-05 2.20650E-05 2.56312E-18 9.75206E-19
 -1      3000 1.35075E-04-3.29671E-05-4.40471E-05 9.31558E-06 1.85437E-18 2.52839E-18
 -1      3001 1.00426E-04-4.93732E-05-2.15639E-05-3.61073E-05-2.20250E-18-1.93327E-18
 -1      3002 3.66547E-05-1.19535E-05-9.92251E-06 4.04017E-06 5.28006E-19-2.17942E-18
 -1      3003 1.21378E-04-9.20372E-06-4.84986E-05-3.65053E-06 2.62781E-18-1.05747E-18
 -1      3004 1.19633E-04-5.61657E-05-2.70825E-05 2.50982E-05-2.50716E-18-1.04159E-18
 -1      3005 9.52142E-05-2.84970E-05-2.85928E-05 3.96921E-09-7.89245E-19-1.09415E-18
 -1      3006 9.10494E-05-1.58075E-05-3.22697E-05-4.62863E-06-9.90151E-19-2.00541E-18
 -1      3007 9.17080E-05-1.66350E-05-3.21947E-05-5.36545E-06-1.20919E-18-1.80396E-18
 -1      3008 9.17103E-05-1.70794E-05-3.19607E-05-3.59777E-06-8.05606E-19-1.81036E-18
 -1      3009 9.27900E-05-1.79572E-05-3.20691E-05-6.37710E-06-1.38448E-18-1.48350E-18
 -1      3010 1.31738E-04-5.56745E-05-3.25480E-05-9.40243E-06-1.37618E-18 6.00229E-19
 -1      3011 1.37579E-04-5.37933E-05-3.59917E-05-5.80092E-06-6.44142E-19 4.19599E-19
 -1      3012 1.35660E-04-4.86712E-05-3.77567E-05 1.39049E-06-7.62594E-20 1.94643E-18
 -1      3013 9.52441E-05-2.85558E-05-2.85806E-05 6.17986E-09 4.28448E-20-2.24657E-18
 -1      3014 9.52432E-05-2.85527E-05-2.85818E-05 2.69088E-09 1.67945E-19-1.24825E-18
 -1      3015 9.52402E-05-2.85373E-05-2.85870E-05-5.47381E-09-1.95385E-18 8.62352E-19
 -1      3016 9.52445E-05-2.85499E-05-2.85834E-05 2.24676E-09-2.16011E-19-1.81243E-18
 -1      3017 9.56772E-05-2.53835E-05-3.01344E-05 1.09974E-06 1.12557E-18-7.93819E-19
 -1      3018 9.57426E-05-2.57587E-05-2.99860E-05 1.45203E-06 1.05981E-18-3.71801E-19
 -1      3019 9.57383E-05-2.54555E-05-3.00980E-05 2.25859E-06 1.19185E-18-2.22040E-19
 -1      3020 1.31892E-04-6.26412E-05-2.92666E-05 1.73545E-05 2.29302E-18 1.27208E-18
 -1      3021 1.41671E-04-6.42457E-05-3.36466E-05 8.24774E-06 1.34181E-18 2.43411E-18
 -1      3022 9.50041E-05-2.22392E-05-3.11546E-05 5.28061E-06 1.51848E-18-5.61983E-19
 -1      3023 8.80974E-05-4.53024E-05-1.79720E-05 3.56815E-05 2.71315E-18-1.33895E-18
 -1      3024 8.93273E-05-1.36450E-05-3.24566E-05-1.83849E-06-2.07158E-19-2.25034E-18
 -1      3025 8.95927E-05-1.39578E-05-3.24365E-05-2.62811E-06-4.66514E-19-2.16300E-18
 -1      3026 9.07499E-05-1.58280E-05-3.20907E-05-2.49584E-06-4.91805E-19-2.00034E-18
 -1      3027 9.02028E-05-1.51381E-05-3.21541E-05-1.32996E-06-1.92438E-19-2.13955E-18
 -1      3028 1.33626E-04-5.32917E-05-3.44605E-05 5.31534E-06-2.13538E-19-3.20814E-18
 -1      3029 6.35500E-05-2.71879E-05-1.49428E-05-2.94190E-05 7.20719E-19 1.77824E-18
 -1      3030 4.20047E-05-1.55649E-05-1.06338E-05-2.09288E-05-5.06790E-19-3.45102E-18
 -1      3031 5.08764E-05-2.28478E-05-1.13211E-05 2.72672E-05 2.46698E-18-2.40441E-18
 -1      3032 5.04091E-05-1.82311E-05-1.32893E-05 2.18537E-05 2.13839E-18-1.25986E-18
 -1      3033 6.29911E-05-2.77180E-05-1.49099E-05 3.11290E-05 2.69192E-18-1.40046E-18
 -1      3034 1.22335E-04-1.83649E-05-4.49119E-05 1.10013E-05 2.32426E-18 1.14868E-18
 -1      3035 1.25181E-04-1.32297E-05-4.85113E-05 8.73849E-06 2.85556E-18 6.99437E-19
 -1      3036 1.18347E-04-1.09875E-05-4.64199E-05 6.56514E-06 2.28191E-18-1.58078E-19
 -1      3037 6.73706E-05-3.14613E-05-1.48359E-05-3.74134E-05-1.35314E-18-3.63547E-18
 -1      3038 9.42036E-05-2.13739E-05-3.12439E-05 3.75429E-06 1.33788E-18-1.16254E-18
 -1      3039 9.35487E-05-2.02807E-05-3.14084E-05 3.38525E-06 1.20465E-18-1.39505E-18
 -1      3040 9.59424E-05-2.53659E-05-3.02247E-05 3.67707E-06 1.30817E-18 1.86474E-19
 -1      3041 1.26683E-04-3.21876E-05-4.09234E-05-1.21403E-05 1.54054E-19-2.98698E-18
 -1      3042 1.31159E-04-4.20402E-05-3.82379E-05-7.72945E-06-1.23455E-19-3.12603E-18
 -1      3043 8.08802E-05-3.43284E-05-1.93585E-05 3.14882E-05 2.81988E-18-8.13469E-19
 -1      3044 9.50054E-05-2.51822E-05-2.99189E-05 1.90083E-06-6.89320E-19-6.67796E-19
 -1      3045 9.48900E-05-2.53803E-05-2.97932E-05 2.81116E-06-4.66408E-19-5.38762E-19
 -1      3046 9.46129E-05-2.54192E-05-2.96552E-05 3.56974E-06-4.68508E-19-5.90518E-19
 -1      3047 9.44205E-05-2.53874E-05-2.95857E-05 4.36638E-06-6.09592E-19-7.79400E-19
 -1      3048 9.43315E-05-2.47554E-05-2.98123E-05 2.89883E-06-5.23042E-19-7.62010E-19
 -1      3049 9.39520E-05-2.51836E-05-2.94803E-05 5.04533E-06-6.31507E-19-8.04384E-19
 -1      3050 9.36673E-05-2.49628E-05-2.94430E-05 5.80357E-06-5.95673E-19-1.03134E-18
 -1      3051 9.36092E-05-2.46395E-05-2.95478E-05 4.32913E-06-6.69556E-19-1.10913E-18
 -1      3052 9.29799E-05-2.45496E-05-2.93434E-05 6.45673E-06-3.97473E-19-9.61890E-19
 -1      3053 9.25679E-05-2.41694E-05-2.93113E-05 7.23641E-06-2.88594E-19-9.80945E-19
 -1      3054 9.24849E-05-2.40368E-05-2.93172E-05 5.62130E-06-5.05724E-19-1.35741E-18
 -1      3055 9.16104E-05-2.35759E-05-2.91832E-05 7.91092E-06-2.76689E-19-7.40101E-19
 -1      3056 9.10374E-05-2.30780E-05-2.91225E-05 8.75888E-06-2.92888E-19-5.74765E-19
 -1      3057 9.08809E-05-2.30136E-05-2.90584E-05 6.86503E-06-1.06381E-19-1.15264E-18
 -1      3058 8.96751E-05-2.23093E-05-2.89068E-05 9.54225E-06-3.72129E-19-4.43003E-19
 -1      3059 8.88645E-05-2.17541E-05-2.87556E-05 1.05603E-05-8.79103E-20-5.07341E-19
 -1      3060 8.86128E-05-2.16112E-05-2.86767E-05 8.18151E-06-1.22719E-19-6.04584E-19
 -1      3061 8.71426E-05-2.09967E-05-2.83993E-05 1.14683E-05 3.73365E-20-2.69215E-19
 -1      3062 8.62481E-05-2.06270E-05-2.81078E-05 1.26171E-05 1.44712E-19-3.35947E-19
 -1      3063 8.55767E-05-1.99901E-05-2.80523E-05 9.64640E-06-6.94418E-21-3.42790E-19
 -1      3064 8.41025E-05-2.00801E-05-2.75049E-05 1.38514E-05 1.85752E-19-1.91099E-19
 -1      3065 8.32723E-05-2.02217E-05-2.69793E-05 1.52920E-05 2.47913E-19-3.84823E-19
 -1      3066 8.17415E-05-1.84870E-05-2.70307E-05 1.14808E-05 2.51680E-19-2.34860E-19
 -1      3067 8.08317E-05-2.03637E-05-2.59798E-05 1.71155E-05 5.69200E-19-1.05664E-19
 -1      3068 8.06490E-05-2.17274E-05-2.51207E-05 1.89501E-05 1.09372E-18-1.07431E-19
 -1      3069 7.72300E-05-1.76852E-05-2.53353E-05 1.43368E-05 6.02472E-19-1.67489E-19
 -1      3070 9.98126E-05-3.21407E-05-2.90111E-05-3.72022E-06-2.61013E-19-7.49740E-20
 -1      3071 9.91413E-05-3.14347E-05-2.89956E-05-4.11653E-06-2.37374E-19 2.62697E-20
 -1      3072 1.31511E-04-4.94254E-05-3.55761E-05-1.13143E-06-1.65926E-19-3.62930E-18
 -1      3073 1.28663E-04-5.33287E-05-3.22560E-05 6.78535E-06-9.55847E-19-3.32048E-18
 -1      3074 8.21746E-05-2.40174E-05-2.47321E-05-2.09465E-05-1.07886E-18 7.05850E-19
 -1      3075 8.13728E-05-2.15496E-05-2.56473E-05-1.87194E-05-1.19099E-18 5.42796E-19
 -1      3076 8.36354E-05-2.09585E-05-2.67880E-05-1.63491E-05-1.14971E-18-2.72414E-19
 -1      3077 8.40153E-05-2.02854E-05-2.73766E-05-1.46515E-05-1.45167E-18-6.42473E-19
 -1      3078 7.62903E-05-1.81815E-05-2.48273E-05-1.56758E-05-1.75771E-18-7.07918E-19
 -1      3079 8.61271E-05-2.05922E-05-2.80606E-05-1.31069E-05-1.79393E-18-2.99182E-19
 -1      3080 8.68464E-05-2.07347E-05-2.83881E-05-1.17712E-05-1.36342E-18-1.56085E-18
 -1      3081 8.07744E-05-1.81707E-05-2.67523E-05-1.21818E-05-1.96613E-18-2.00853E-19
 -1      3082 8.85704E-05-2.13955E-05-2.87797E-05-1.06518E-05-6.40359E-19-1.36421E-18
 -1      3083 8.92710E-05-2.18625E-05-2.89313E-05-9.53980E-06 2.70362E-19-1.72594E-18
 -1      3084 8.46072E-05-1.93681E-05-2.78980E-05-9.86245E-06-8.28984E-19-8.18937E-19
 -1      3085 9.06059E-05-2.26062E-05-2.91377E-05-8.65474E-06 8.53274E-19-1.56365E-18
 -1      3086 9.11570E-05-2.31415E-05-2.91812E-05-7.71156E-06 5.29649E-19-1.21770E-18
 -1      3087 8.76242E-05-2.09072E-05-2.85472E-05-8.10661E-06 1.02698E-18-1.58878E-18
 -1      3088 9.21481E-05-2.38305E-05-2.92743E-05-6.97677E-06 5.03078E-19-4.55124E-19
 -1      3089 9.25353E-05-2.43232E-05-2.92576E-05-6.18005E-06 7.16291E-19-1.64570E-19
 -1      3090 8.99066E-05-2.24306E-05-2.88849E-05-6.66100E-06 7.90203E-19-1.56644E-18
 -1      3091 9.32477E-05-2.49049E-05-2.92847E-05-5.56107E-06 2.23689E-19-9.79762E-20
 -1      3092 9.34980E-05-2.53165E-05-2.92384E-05-4.89718E-06 5.10452E-19-6.59299E-19
 -1      3093 9.15737E-05-2.37738E-05-2.90336E-05-5.42410E-06 3.10148E-19 3.74942E-19
 -1      3094 9.39976E-05-2.57834E-05-2.92294E-05-4.37742E-06-6.80597E-19-6.28927E-19
 -1      3095 9.41467E-05-2.61102E-05-2.91721E-05-3.83273E-06-1.82834E-18-1.85646E-18
 -1      3096 9.27583E-05-2.48845E-05-2.90725E-05-4.36025E-06-5.22495E-19-1.74182E-19
 -1      3097 9.45030E-05-2.64892E-05-2.91435E-05-3.38003E-06-1.14803E-18-1.68080E-18
 -1      3098 9.45882E-05-2.67515E-05-2.90828E-05-2.92264E-06-2.29794E-19-1.48692E-18
 -1      3099 9.35990E-05-2.57887E-05-2.90505E-05-3.43483E-06-1.33189E-18-6.54757E-19
 -1      3100 9.48177E-05-2.70251E-05-2.90490E-05-2.57415E-06 4.95319E-19-1.20547E-18
 -1      3101 9.48549E-05-2.72142E-05-2.89960E-05-2.22761E-06 4.84664E-19-5.19949E-19
 -1      3102 9.41697E-05-2.64896E-05-2.89990E-05-2.66345E-06 3.39956E-19 1.78797E-19
 -1      3103 9.50077E-05-2.74206E-05-2.89614E-05-1.94639E-06 5.10083E-19-7.91589E-19
 -1      3104 9.50204E-05-2.75634E-05-2.89154E-05-1.67384E-06 6.22169E-19-4.91526E-19
 -1      3105 9.45434E-05-2.70121E-05-2.89378E-05-2.04686E-06 3.68166E-19 2.85525E-19
 -1      3106 9.51216E-05-2.77185E-05-2.88832E-05-1.45036E-06 7.95457E-19-9.75655E-19
 -1      3107 9.51210E-05-2.78260E-05-2.88445E-05-1.23838E-06 1.34096E-18-4.22463E-19
 -1      3108 9.47928E-05-2.74095E-05-2.88761E-05-1.54829E-06 5.80835E-19-1.00495E-18
 -1      3109 9.51873E-05-2.79421E-05-2.88162E-05-1.06314E-06 1.01472E-18-6.39970E-19
 -1      3110 9.51805E-05-2.80229E-05-2.87846E-05-9.00061E-07-4.02218E-19-3.25125E-19
 -1      3111 9.49578E-05-2.77104E-05-2.88189E-05-1.15141E-06 1.09629E-18-1.41579E-18
 -1      3112 9.52235E-05-2.81096E-05-2.87605E-05-7.64437E-07-1.84653E-18 5.62389E-19
 -1      3113 9.52145E-05-2.81703E-05-2.87352E-05-6.40367E-07-2.23476E-18-4.26450E-19
 -1      3114 9.50660E-05-2.79375E-05-2.87686E-05-8.40053E-07-1.29980E-19-1.21403E-18
 -1      3115 9.52419E-05-2.82349E-05-2.87152E-05-5.36796E-07-2.57890E-18 1.27545E-18
 -1      3116 9.52329E-05-2.82805E-05-2.86953E-05-4.43512E-07-1.77703E-18 1.23459E-18
 -1      3117 9.51360E-05-2.81084E-05-2.87258E-05-5.99225E-07-1.84333E-18 2.14753E-18
 -1      3118 9.52501E-05-2.83285E-05-2.86791E-05-3.65525E-07-1.85405E-18 8.91617E-19
 -1      3119 9.52421E-05-2.83628E-05-2.86636E-05-2.96314E-07-8.98607E-19 1.14864E-18
 -1      3120 9.51807E-05-2.82365E-05-2.86903E-05-4.15605E-07-1.68825E-18 2.51797E-18
 -1      3121 9.52525E-05-2.83983E-05-2.86506E-05-2.38513E-07 3.21682E-19 5.91912E-19
 -1      3122 9.52459E-05-2.84240E-05-2.86387E-05-1.87981E-07 4.50163E-19 8.83584E-19
 -1      3123 9.52086E-05-2.83322E-05-2.86613E-05-2.77732E-07-6.37701E-19 2.08958E-18
 -1      3124 9.52519E-05-2.84502E-05-2.86283E-05-1.45959E-07 3.49406E-19 7.39450E-19
 -1      3125 9.52468E-05-2.84697E-05-2.86193E-05-1.09837E-07 5.74336E-20 7.97712E-20
 -1      3126 9.52253E-05-2.84035E-05-2.86380E-05-1.76008E-07 2.59522E-19 8.20172E-19
 -1      3127 9.52499E-05-2.84891E-05-2.86111E-05-8.00492E-08-4.66037E-20 2.05807E-19
 -1      3128 9.52461E-05-2.85040E-05-2.86041E-05-5.49495E-08-8.04869E-19-1.22515E-18
 -1      3129 9.52348E-05-2.84566E-05-2.86193E-05-1.02685E-07-1.80679E-19 2.14353E-19
 -1      3130 9.52477E-05-2.85188E-05-2.85976E-05-3.48786E-08-9.64667E-19-4.08140E-19
 -1      3131 9.52451E-05-2.85304E-05-2.85922E-05-1.84133E-08 2.50018E-20-7.14608E-19
 -1      3132 9.52398E-05-2.84969E-05-2.86044E-05-5.12789E-08-7.78917E-19 7.57865E-19
 -1      3133 9.60275E-05-2.72765E-05-2.94674E-05-2.51971E-06 7.97347E-19-9.44834E-19
 -1      3134 9.59328E-05-2.68629E-05-2.95875E-05-1.91480E-06 7.98891E-19-9.27464E-19
 -1      3135 9.58095E-05-2.63726E-05-2.97655E-05-1.20671E-06 8.70156E-19-1.00548E-18
 -1      3136 9.57408E-05-2.58136E-05-2.99526E-05-3.51953E-07 9.86866E-19-9.99270E-19
 -1      3137 9.57242E-05-2.61280E-05-2.98322E-05-1.50126E-06 8.09783E-19-1.18962E-18
 -1      3138 9.84374E-05-3.07524E-05-2.90115E-05-4.27076E-06-1.52125E-19 1.23022E-20
 -1      3139 9.79080E-05-3.01682E-05-2.90150E-05-4.41385E-06-6.46094E-20 1.73370E-19
 -1      3140 9.86611E-05-3.12218E-05-2.89238E-05-4.75680E-06-1.87529E-19 4.02969E-20
 -1      3141 9.74334E-05-2.96392E-05-2.90553E-05-4.35131E-06-2.02027E-19 4.19325E-20
 -1      3142 9.70454E-05-2.91729E-05-2.90754E-05-4.29063E-06 5.59121E-20-4.57426E-20
 -1      3143 9.74900E-05-2.98737E-05-2.89954E-05-4.76433E-06-1.59920E-19 1.70074E-20
 -1      3144 1.01547E-04-3.37376E-05-2.90776E-05-2.56401E-06-1.05021E-19-2.31201E-19
 -1      3145 1.00771E-04-3.29674E-05-2.90321E-05-3.26916E-06-9.59761E-20-1.17349E-19
 -1      3146 1.00320E-04-3.29065E-05-2.89164E-05-4.25183E-06-1.48860E-19-2.78572E-19
 -1      3147 1.03504E-04-3.52992E-05-2.92549E-05-6.76562E-07-4.23487E-19-9.53723E-20
 -1      3148 1.02725E-04-3.46182E-05-2.91593E-05-1.72250E-06-2.50548E-19-1.91081E-19
 -1      3149 1.02465E-04-3.48280E-05-2.90129E-05-3.06725E-06-1.75031E-19-7.24414E-20
 -1      3150 1.05352E-04-3.63420E-05-2.96041E-05 1.95828E-06-3.88146E-19 1.90048E-19
 -1      3151 1.04754E-04-3.60215E-05-2.94325E-05 6.18215E-07-3.73579E-19-1.19069E-19
 -1      3152 1.04927E-04-3.66545E-05-2.92780E-05-1.01910E-06-4.32024E-19 1.02727E-19
 -1      3153 1.06549E-04-3.61618E-05-3.01853E-05 5.07722E-06-2.93333E-19 5.80884E-19
 -1      3154 1.06377E-04-3.65572E-05-2.99157E-05 3.64553E-06-4.37894E-19 5.90828E-19
 -1      3155 1.07267E-04-3.77475E-05-2.97940E-05 1.94695E-06-6.49769E-19 4.34577E-19
 -1      3156 1.06476E-04-3.40785E-05-3.10203E-05 7.91470E-06-5.68975E-20 9.19019E-19
 -1      3157 1.06921E-04-3.54556E-05-3.06529E-05 6.82223E-06-2.70179E-19 7.66613E-19
 -1      3158 1.08743E-04-3.71974E-05-3.06328E-05 5.50763E-06-3.79151E-19 9.42935E-19
 -1      3159 1.04855E-04-3.00064E-05-3.20356E-05 9.22048E-06 7.80117E-19 9.81679E-19
 -1      3160 1.05880E-04-3.22576E-05-3.16163E-05 9.04170E-06 5.42233E-19 8.46333E-19
 -1      3161 1.08571E-04-3.42647E-05-3.17962E-05 8.66521E-06 2.80802E-19 5.00615E-19
 -1      3162 1.02227E-04-2.50467E-05-3.30165E-05 7.68991E-06 8.42927E-19 1.02136E-18
 -1      3163 1.03411E-04-2.74260E-05-3.26487E-05 8.88038E-06 8.35293E-19 1.10480E-18
 -1      3164 1.06491E-04-2.90846E-05-3.31393E-05 9.78063E-06 5.94584E-19 8.13741E-19
 -1      3165 1.00098E-04-2.14702E-05-3.36663E-05 3.15541E-06 4.81174E-19 6.58643E-19
 -1      3166 1.00808E-04-2.28729E-05-3.34639E-05 5.51687E-06 7.82088E-19 1.05298E-18
 -1      3167 1.03501E-04-2.34196E-05-3.43230E-05 7.35791E-06 8.58879E-19 1.00008E-18
 -1      3168 9.99394E-05-2.13562E-05-3.37171E-05-2.92784E-06 2.40597E-19 2.35346E-19
 -1      3169 9.96693E-05-2.08984E-05-3.37791E-05-2.52674E-07 5.37681E-19 7.05443E-19
 -1      3170 1.01544E-04-2.01624E-05-3.48927E-05 1.69354E-06 5.70847E-19 1.14534E-18
 -1      3171 1.01923E-04-2.47377E-05-3.31545E-05-7.80074E-06 2.55723E-20 1.86867E-19
 -1      3172 1.00909E-04-2.27705E-05-3.34366E-05-5.89050E-06-2.28401E-20-3.52366E-19
 -1      3173 1.02204E-04-2.11602E-05-3.47491E-05-4.94195E-06 3.66491E-19 2.52459E-19
 -1      3174 1.04666E-04-2.96794E-05-3.22173E-05-9.69681E-06 8.73457E-20-2.87071E-19
 -1      3175 1.03477E-04-2.72533E-05-3.26146E-05-9.14987E-06 6.34332E-19 3.40193E-19
 -1      3176 1.04850E-04-2.58616E-05-3.38426E-05-9.29617E-06 2.67547E-19-6.52385E-20
 -1      3177 1.06535E-04-3.38343E-05-3.12025E-05-8.65294E-06 7.70922E-19-7.85879E-19
 -1      3178 1.05751E-04-3.19667E-05-3.15985E-05-9.29088E-06 2.34405E-19-6.98508E-19
 -1      3179 1.07588E-04-3.15501E-05-3.25475E-05-1.00073E-05 6.40407E-19-7.41349E-19
 -1      3180 1.06786E-04-3.59932E-05-3.03463E-05-5.92408E-06 9.86841E-19 9.47453E-20
 -1      3181 1.06636E-04-3.51066E-05-3.06626E-05-7.18680E-06 1.18784E-18-1.53350E-19
 -1      3182 1.08765E-04-3.57129E-05-3.12664E-05-7.80011E-06 6.34292E-19-3.13444E-19
 -1      3183 1.05642E-04-3.61998E-05-2.97418E-05-2.83127E-06 9.49360E-19-4.06451E-19
 -1      3184 1.06037E-04-3.61987E-05-2.99558E-05-4.19636E-06 1.12438E-18 2.50406E-19
 -1      3185 1.08048E-04-3.74082E-05-3.02528E-05-4.39297E-06 1.05117E-18 5.55892E-19
 -1      3186 1.03742E-04-3.51411E-05-2.93722E-05-2.20150E-07 5.90359E-19-7.93819E-19
 -1      3187 1.04444E-04-3.56773E-05-2.94992E-05-1.37159E-06 8.55920E-19-7.76463E-19
 -1      3188 1.06022E-04-3.70303E-05-2.95761E-05-1.14802E-06 1.33824E-18-2.69184E-19
 -1      3189 1.01687E-04-3.35488E-05-2.91733E-05 1.61727E-06-8.24155E-20-1.07929E-19
 -1      3190 1.02473E-04-3.42956E-05-2.92409E-05 7.95417E-07 2.65869E-19-4.16035E-20
 -1      3191 1.03506E-04-3.54618E-05-2.91838E-05 1.27236E-06 5.43052E-20 6.93545E-19
 -1      3192 9.98435E-05-3.19350E-05-2.90799E-05 2.70620E-06-9.88943E-19 2.55412E-19
 -1      3193 1.00572E-04-3.26721E-05-2.91136E-05 2.20623E-06-4.55636E-19 4.16422E-19
 -1      3194 1.01104E-04-3.35183E-05-2.89898E-05 2.77944E-06-5.50639E-19 9.64925E-19
 -1      3195 9.83652E-05-3.05662E-05-2.90395E-05 3.20165E-06-1.41949E-18 5.15093E-19
 -1      3196 9.89706E-05-3.11829E-05-2.90587E-05 2.96375E-06-1.19005E-18 6.35835E-19
 -1      3197 9.91181E-05-3.17023E-05-2.89140E-05 3.52731E-06-1.39910E-18 1.90464E-18
 -1      3198 9.72679E-05-2.95327E-05-2.90181E-05 3.28040E-06-8.97904E-19 6.49285E-19
 -1      3199 9.77363E-05-2.99949E-05-2.90343E-05 3.23209E-06-1.22637E-18 1.47041E-19
 -1      3200 9.76264E-05-3.02411E-05-2.88962E-05 3.73342E-06-1.10416E-18 1.23813E-18
 -1      3201 9.64999E-05-2.88239E-05-2.89975E-05 3.09541E-06-7.00225E-19 1.12767E-18
 -1      3202 9.68453E-05-2.91398E-05-2.90160E-05 3.17092E-06-6.50184E-19 7.37766E-19
 -1      3203 9.65869E-05-2.91857E-05-2.88983E-05 3.59344E-06-1.21616E-18 9.70148E-19
 -1      3204 9.59882E-05-2.83838E-05-2.89701E-05 2.76340E-06 3.66044E-19 6.50794E-19
 -1      3205 9.62343E-05-2.85801E-05-2.89924E-05 2.91035E-06-1.28640E-20 1.02356E-18
 -1      3206 9.59092E-05-2.84948E-05-2.89001E-05 3.25637E-06-2.82409E-19 1.40629E-18
 -1      3207 9.56622E-05-2.81450E-05-2.89350E-05 2.36694E-06-7.18326E-19 4.56555E-19
 -1      3208 9.58334E-05-2.82523E-05-2.89603E-05 2.54692E-06 1.09812E-19 3.38797E-19
 -1      3209 9.54971E-05-2.80922E-05-2.88930E-05 2.82624E-06 1.35176E-19 4.96257E-19
 -1      3210 9.54636E-05-2.80452E-05-2.88940E-05 1.96061E-06 5.90778E-19 7.86041E-20
 -1      3211 9.55810E-05-2.80912E-05-2.89208E-05 2.14751E-06-4.36570E-19 1.62584E-20
 -1      3212 9.52670E-05-2.78981E-05-2.88756E-05 2.37148E-06-1.42826E-19-9.66891E-19
 -1      3213 9.53485E-05-2.80340E-05-2.88502E-05 1.57780E-06 1.37878E-18-1.09174E-19
 -1      3214 9.54282E-05-2.80410E-05-2.88769E-05 1.75524E-06 1.02204E-18 2.44869E-19
 -1      3215 9.51543E-05-2.78431E-05-2.88495E-05 1.93427E-06 5.27064E-19-1.01644E-18
 -1      3216 9.52856E-05-2.80739E-05-2.88064E-05 1.23657E-06 1.17892E-18-9.76176E-20
 -1      3217 9.53394E-05-2.80584E-05-2.88317E-05 1.39545E-06 1.39229E-18-4.72185E-19
 -1      3218 9.51124E-05-2.78730E-05-2.88179E-05 1.53821E-06 1.38308E-18-1.25519E-18
 -1      3219 9.52539E-05-2.81389E-05-2.87650E-05 9.44540E-07 9.95635E-19-6.75179E-19
 -1      3220 9.52903E-05-2.81121E-05-2.87879E-05 1.08083E-06 1.24487E-18-7.86008E-19
 -1      3221 9.51097E-05-2.79487E-05-2.87839E-05 1.19431E-06 1.02785E-18-1.86582E-18
 -1      3222 9.52398E-05-2.82121E-05-2.87274E-05 7.02568E-07-8.36675E-19 6.60232E-19
 -1      3223 9.52645E-05-2.81815E-05-2.87475E-05 8.15589E-07 2.94316E-19 2.21280E-19
 -1      3224 9.51260E-05-2.80436E-05-2.87500E-05 9.05358E-07 1.19390E-19-1.38359E-18
 -1      3225 9.52350E-05-2.82836E-05-2.86946E-05 5.07490E-07 1.74108E-19-6.69521E-19
 -1      3226 9.52518E-05-2.82535E-05-2.87116E-05 5.98566E-07 4.94949E-20 3.79391E-19
 -1      3227 9.51493E-05-2.81411E-05-2.87180E-05 6.69114E-07-2.12962E-19 3.94624E-20
 -1      3228 9.52346E-05-2.83479E-05-2.86666E-05 3.54035E-07-3.92316E-20 9.28682E-20
 -1      3229 9.52460E-05-2.83206E-05-2.86807E-05 4.25566E-07-4.96943E-19-2.02260E-19
 -1      3230 9.51728E-05-2.82319E-05-2.86891E-05 4.80547E-07-2.85830E-19-2.99223E-19
 -1      3231 9.52358E-05-2.84028E-05-2.86434E-05 2.36127E-07-1.07909E-18 1.72965E-18
 -1      3232 9.52436E-05-2.83793E-05-2.86548E-05 2.90935E-07-3.28849E-19 1.62550E-18
 -1      3233 9.51933E-05-2.83111E-05-2.86639E-05 3.33354E-07-9.11889E-19 1.23672E-18
 -1      3234 9.52373E-05-2.84480E-05-2.86245E-05 1.47747E-07-9.66111E-19 1.05996E-18
 -1      3235 9.52426E-05-2.84286E-05-2.86336E-05 1.88649E-07-9.17124E-19 9.94799E-19
 -1      3236 9.52094E-05-2.83774E-05-2.86424E-05 2.20980E-07-9.18461E-19 2.57832E-18
 -1      3237 9.52386E-05-2.84846E-05-2.86093E-05 8.33284E-08 5.77698E-19 4.13200E-19
 -1      3238 9.52420E-05-2.84686E-05-2.86164E-05 1.12911E-07-1.20058E-19 3.78030E-19
 -1      3239 9.52213E-05-2.84312E-05-2.86244E-05 1.37231E-07-3.18366E-19 1.57543E-19
 -1      3240 9.52396E-05-2.85137E-05-2.85970E-05 3.87254E-08 1.13427E-18-3.09591E-19
 -1      3241 9.52418E-05-2.85011E-05-2.86026E-05 5.87274E-08 1.43660E-18 3.67595E-19
 -1      3242 9.52295E-05-2.84741E-05-2.86095E-05 7.65005E-08 9.21854E-19 1.76241E-18
 -1      3243 9.52400E-05-2.85339E-05-2.85884E-05 1.24815E-08-2.75849E-19-7.69556E-19
 -1      3244 9.52410E-05-2.85239E-05-2.85927E-05 2.50692E-08 3.05980E-19-6.61268E-19
 -1      3245 9.52343E-05-2.85048E-05-2.85984E-05 3.84744E-08 8.91146E-19 1.96356E-18
 -1      3246 9.52377E-05-2.85285E-05-2.85899E-05 1.48896E-08 4.46023E-20 2.54551E-19
 -1      3247 9.52184E-05-2.84910E-05-2.85974E-05-2.09713E-08-1.22379E-18 2.88462E-18
 -1      3248 9.52130E-05-2.84846E-05-2.85982E-05-1.94986E-08-1.69044E-18 1.78608E-18
 -1      3249 9.52313E-05-2.85096E-05-2.85949E-05-2.08713E-08-9.40074E-19 1.66293E-18
 -1      3250 9.52255E-05-2.85019E-05-2.85962E-05-2.20132E-08-1.08805E-18 2.30100E-18
 -1      3251 9.52163E-05-2.84762E-05-2.86025E-05-3.08451E-08-1.17814E-18 2.73933E-18
 -1      3252 9.56986E-05-2.44137E-05-3.05733E-05 3.69214E-06 1.28963E-18-4.56371E-19
 -1      3253 9.49097E-05-2.26592E-05-3.09550E-05 3.71778E-06 1.25508E-18-8.96600E-19
 -1      3254 9.52077E-05-2.84772E-05-2.85988E-05-1.51346E-08-1.60270E-18 8.01830E-19
 -1      3255 9.52043E-05-2.84735E-05-2.85991E-05-1.17671E-08-1.93159E-18 2.24389E-18
 -1      3256 9.52020E-05-2.84574E-05-2.86044E-05-2.37235E-08-1.50602E-18 1.32573E-18
 -1      3257 1.34217E-04-3.99769E-05-4.05423E-05 8.76115E-06 8.79432E-19 2.24464E-18
 -1      3258 1.27891E-04-2.99261E-05-4.24562E-05 1.22078E-05 1.88295E-18 2.30986E-18
 -1      3259 9.52025E-05-2.84726E-05-2.85988E-05 5.85363E-09-1.03167E-18-8.57358E-19
 -1      3260 9.52050E-05-2.84756E-05-2.85983E-05 9.71658E-09-2.89651E-19-2.08983E-18
 -1      3261 1.00375E-04-4.77258E-05-2.26839E-05 3.37450E-05-3.11793E-18-1.66707E-19
 -1      3262 8.50709E-05-3.84440E-05-1.96443E-05 3.57332E-05-2.60137E-18-3.96994E-19
 -1      3263 1.21882E-04-5.51626E-05-2.87712E-05 1.81685E-05-2.40617E-18-2.26208E-18
 -1      3264 1.12439E-04-5.27424E-05-2.52539E-05 2.74437E-05-3.15552E-18-4.96652E-19
 -1      3265 1.06115E-04-4.79406E-05-2.47147E-05 2.69986E-05-2.58957E-18-7.62674E-19
 -1      3266 9.52019E-05-2.84708E-05-2.85992E-05-5.23601E-09-1.58476E-18 1.84895E-18
 -1      3267 9.52013E-05-2.84703E-05-2.85991E-05-9.63429E-10-9.20574E-19 6.66154E-19
 -1      3268 9.51916E-05-2.84462E-05-2.86048E-05 4.14184E-09-8.63710E-19-6.02088E-19
 -1      3269 9.51929E-05-2.84468E-05-2.86051E-05-1.10889E-08-1.98588E-18 1.89664E-18
 -1      3270 9.50935E-05-2.43341E-05-3.03189E-05-1.05323E-07-8.19112E-19-9.43915E-19
 -1      3271 9.50823E-05-2.48365E-05-3.01125E-05 1.00817E-06-7.66737E-19-8.87736E-19
 -1      3272 9.46758E-05-2.42915E-05-3.01605E-05 1.23217E-06-5.93140E-19-8.62374E-19
 -1      3273 1.18604E-04-5.48490E-05-2.70331E-05-2.24554E-05-2.11456E-18-5.17712E-19
 -1      3274 1.25004E-04-5.63000E-05-2.96498E-05-1.60895E-05-1.90966E-18-1.70757E-19
 -1      3275 9.27052E-05-4.30645E-05-2.07957E-05-3.50810E-05-2.14707E-18-1.74367E-18
 -1      3276 1.06081E-04-5.04232E-05-2.41119E-05-3.04690E-05-2.16697E-18-1.17285E-18
 -1      3277 4.20283E-05-1.20250E-05-1.22870E-05-1.33014E-05-9.27633E-20-3.07494E-18
 -1      3278 4.90126E-05-1.72286E-05-1.35473E-05-2.50954E-05-2.66048E-19-3.59460E-18
 -1      3279 1.15658E-04-8.90379E-06-4.62158E-05-5.47332E-07 2.27534E-18-9.29131E-19
 -1      3280 1.16814E-04-1.10665E-05-4.56741E-05-6.47895E-06 2.00143E-18-1.63911E-18
 -1      3281 4.25937E-05-1.18254E-05-1.28155E-05 9.89993E-06 8.02273E-19-1.12835E-18
 -1      3282 3.95336E-05-1.03685E-05-1.21327E-05-2.19696E-06 2.31005E-19-2.18069E-18
 -1      3283 9.32582E-05-1.91613E-05-3.17538E-05-5.04813E-06-1.16785E-18-1.47224E-18
 -1      3284 9.11714E-05-1.69269E-05-3.18324E-05 1.11878E-06 4.40031E-19-2.04859E-18
 -1      3285 9.09379E-05-1.66339E-05-3.18596E-05 5.36057E-07 2.33689E-19-2.20698E-18
 -1      3286 1.18992E-04-1.59669E-05-4.46312E-05-1.02451E-05 1.40078E-18-2.34141E-18
 -1      3287 1.21412E-04-2.19960E-05-4.28882E-05-1.23484E-05 6.63280E-19-2.82983E-18
 -1      3288 6.37520E-05-2.54322E-05-1.58289E-05-3.23125E-05-1.02901E-18-2.99490E-18
 -1      3289 7.84901E-05-3.55905E-05-1.84474E-05-3.68686E-05-1.56452E-18-2.46291E-18
 -1      3290 8.79153E-05-3.77561E-05-2.12255E-05-3.17998E-05-1.55378E-18-1.53826E-18
 -1      3291 8.81491E-05-3.86880E-05-2.07788E-05-3.17308E-05 9.20566E-19 9.35230E-19
 -1      3292 9.58613E-05-4.64078E-05-2.06999E-05-3.25589E-05 1.51026E-18 1.60915E-18
 -1      3293 6.14634E-05-2.17670E-05-1.66828E-05-2.53232E-05 4.53957E-19 1.16996E-18
 -1      3294 7.46368E-05-3.08941E-05-1.84526E-05-3.10896E-05 8.24163E-19 1.00543E-18
 -1      3295 8.57896E-05-3.37307E-05-2.19833E-05-2.79723E-05 8.46186E-19 8.41527E-19
 -1      3296 7.61210E-05-2.88481E-05-1.99779E-05 2.84048E-05 2.44475E-18-8.62915E-19
 -1      3297 9.50579E-05-2.33182E-05-3.07278E-05 2.44680E-06 1.16682E-18-1.00121E-18
 -1      3298 8.54395E-05-3.55495E-05-2.11104E-05 3.13022E-05-2.32860E-18-8.84541E-19
 -1      3299 7.45058E-05-3.17380E-05-1.82898E-05 3.56458E-05-2.26131E-18-9.97911E-20
 -1      3300 1.22308E-04-2.82553E-05-4.05838E-05-1.30092E-05 2.07523E-19-2.78780E-18
 -1      3301 1.21474E-04-3.30750E-05-3.79203E-05-1.18207E-05-1.15091E-19-2.98999E-18
 -1      3302 1.16580E-04-2.42117E-05-3.97739E-05-1.24696E-05 3.63457E-19-2.50180E-18
 -1      3303 9.67489E-05-2.87603E-05-2.91376E-05-4.06256E-06 4.10778E-19-3.04703E-19
 -1      3304 9.64844E-05-2.83737E-05-2.91790E-05-3.82696E-06 6.79354E-19-3.05499E-19
 -1      3305 9.67250E-05-2.88224E-05-2.91144E-05-4.40473E-06 1.83636E-19 9.68313E-20
 -1      3306 9.52301E-05-2.85140E-05-2.85925E-05 1.76419E-08 7.83103E-19 1.88546E-18
 -1      3307 9.52333E-05-2.85201E-05-2.85914E-05 1.62153E-08 1.38864E-19 1.78134E-18
 -1      3308 9.52313E-05-2.85083E-05-2.85955E-05 2.57811E-08 3.55606E-19 2.34789E-18
 -1      3309 4.46086E-05-1.02466E-05-1.39999E-05 8.58139E-06-1.41474E-18 5.44642E-19
 -1      3310 4.86605E-05-1.04815E-05-1.60569E-05 1.20356E-06-1.34525E-18-1.44525E-19
 -1      3311 1.22837E-04-5.31273E-05-2.98695E-05-1.13369E-05-1.37485E-18-1.73490E-19
 -1      3312 1.27328E-04-5.49201E-05-3.09888E-05-1.03693E-05-1.49035E-18 2.56545E-19
 -1      3313 1.28076E-04-5.28035E-05-3.26095E-05-4.53913E-06-1.01098E-18 9.93106E-19
 -1      3314 1.51256E-04-6.16579E-05-3.82485E-05-2.34578E-06-3.94029E-19 3.47453E-18
 -1      3315 8.20603E-05-2.76510E-05-2.31345E-05-2.50919E-05 2.20705E-19 6.27148E-19
 -1      3316 7.82816E-05-2.32132E-05-2.36804E-05 2.24129E-05 1.27737E-18-2.91459E-19
 -1      3317 8.02991E-05-2.74397E-05-2.24457E-05 2.54644E-05 1.97004E-18-2.37381E-19
 -1      3318 1.23808E-04-5.02159E-05-3.15379E-05 4.00006E-06-1.42902E-18-3.53886E-18
 -1      3319 1.24809E-04-5.40546E-05-3.03118E-05 1.12080E-05-1.86480E-18-3.16661E-18
 -1      3320 1.18069E-04-5.14785E-05-2.85312E-05 1.49284E-05-1.99853E-18-2.21071E-18
 -1      3321 9.19083E-05-1.79083E-05-3.17302E-05 2.13326E-06 7.78831E-19-1.70916E-18
 -1      3322 9.15036E-05-1.73687E-05-3.17863E-05 1.55525E-06 5.82859E-19-1.87596E-18
 -1      3323 9.20948E-05-1.85150E-05-3.15154E-05 9.12945E-07 4.80794E-19-1.80865E-18
 -1      3324 9.61432E-05-2.76531E-05-2.93411E-05-3.04572E-06 6.13773E-19-7.89352E-19
 -1      3325 9.59635E-05-2.71172E-05-2.95135E-05-2.78938E-06 6.63603E-19-1.03363E-18
 -1      3326 9.63082E-05-2.80168E-05-2.92681E-05-3.45346E-06 6.30278E-19-6.36978E-19
 -1      3327 9.52455E-05-2.85438E-05-2.85862E-05-4.39621E-09-3.76233E-19-1.88507E-18
 -1      3328 9.07878E-05-1.64371E-05-3.18769E-05 1.08651E-07 9.32697E-20-2.18786E-18
 -1      3329 9.07443E-05-1.63929E-05-3.18807E-05-4.57700E-07-5.80132E-20-2.17442E-18
 -1      3330 9.16125E-05-1.78786E-05-3.15799E-05 1.46106E-07 1.30706E-19-2.00924E-18
 -1      3331 9.52394E-05-2.85218E-05-2.85933E-05-1.95122E-08-1.31847E-18 1.16215E-18
 -1      3332 9.52332E-05-2.84999E-05-2.85996E-05-3.24072E-08-4.59361E-19 1.11428E-18
 -1      3333 9.52094E-05-2.84825E-05-2.85975E-05 1.49977E-08-6.25323E-19-1.25357E-18
 -1      3334 9.52138E-05-2.84878E-05-2.85967E-05 1.73098E-08-3.07850E-19 3.26850E-19
 -1      3335 9.51981E-05-2.84553E-05-2.86036E-05 1.76812E-08-4.77875E-19-1.13886E-18
 -1      3336 9.20531E-05-1.81280E-05-3.16946E-05-2.58908E-06-6.22111E-19-1.73147E-18
 -1      3337 9.26253E-05-1.89362E-05-3.16046E-05-3.06069E-06-7.83915E-19-1.78082E-18
 -1      3338 6.19082E-05-2.14262E-05-1.69529E-05-2.61383E-05-5.04567E-19-2.83110E-18
 -1      3339 7.16848E-05-1.83106E-05-2.26343E-05 1.92622E-05 9.47486E-19-5.19536E-20
 -1      3340 9.29498E-05-1.93866E-05-3.15477E-05 3.06924E-06 1.16548E-18-1.46397E-18
 -1      3341 9.23965E-05-1.85846E-05-3.16458E-05 2.54360E-06 9.36488E-19-1.52954E-18
 -1      3342 9.28831E-05-1.96175E-05-3.13834E-05 1.65862E-06 7.93678E-19-1.48888E-18
 -1      3343 9.38988E-05-2.11641E-05-3.11577E-05 2.28505E-06 1.04690E-18-1.41548E-18
 -1      3344 1.23136E-04-3.13302E-05-3.95154E-05 1.19279E-05 1.03645E-18 1.33604E-18
 -1      3345 1.23535E-04-2.51980E-05-4.25201E-05 1.26935E-05 2.01816E-18 1.65230E-18
 -1      3346 1.17860E-04-2.08371E-05-4.18438E-05 1.18480E-05 1.57389E-18 5.41863E-19
 -1      3347 1.31372E-04-4.52868E-05-3.69775E-05 4.86481E-06-1.63451E-19 2.17222E-18
 -1      3348 9.55221E-05-2.50759E-05-3.02000E-05 5.77444E-07 1.09087E-18-1.01729E-18
 -1      3349 9.53902E-05-2.42526E-05-3.04825E-05 1.74249E-06 1.12217E-18-9.75364E-19
 -1      3350 4.74362E-05-1.16863E-05-1.47602E-05-7.12314E-06 4.04610E-19-2.47164E-18
 -1      3351 1.14288E-04-1.49866E-05-4.28476E-05-7.93216E-06 1.16324E-18-1.81801E-18
 -1      3352 4.87069E-05-1.39918E-05-1.43462E-05 1.54280E-05 1.04206E-18-3.58189E-19
 -1      3353 4.98110E-05-1.21547E-05-1.60899E-05 9.79011E-06 5.05229E-19-4.87997E-19
 -1      3354 5.70236E-05-1.78410E-05-1.65495E-05 2.01979E-05 1.80717E-18-5.81806E-19
 -1      3355 9.47886E-05-2.29727E-05-3.07721E-05 1.88008E-06 1.11542E-18-1.28772E-18
 -1      3356 7.29634E-05-2.17372E-05-2.18153E-05-2.22909E-05-5.35867E-19 8.35916E-19
 -1      3357 4.77482E-05-1.38601E-05-1.43788E-05 1.93081E-05-1.45417E-18 9.68159E-19
 -1      3358 5.63139E-05-1.61803E-05-1.67708E-05-1.87170E-05-3.73767E-19 3.71212E-19
 -1      3359 6.66334E-05-1.95693E-05-1.98179E-05-2.06575E-05-3.01901E-19 7.10502E-19
 -1      3360 6.72336E-05-1.65317E-05-2.17131E-05-1.63289E-05-1.84564E-18 3.37754E-20
 -1      3361 5.39516E-05-1.25294E-05-1.76254E-05-1.12345E-05-9.09621E-19-3.50830E-19
 -1      3362 1.14284E-04-1.08272E-05-4.47595E-05 3.11670E-06 2.17592E-18-8.36789E-19
 -1      3363 1.10271E-04-1.16351E-05-4.24177E-05 4.31454E-07 1.84516E-18-1.29239E-18
 -1      3364 1.12648E-04-1.38871E-05-4.25769E-05 6.76423E-06 1.93351E-18-7.48542E-19
 -1      3365 9.49227E-05-2.36308E-05-3.05649E-05-1.05369E-06-9.63395E-19-1.14126E-18
 -1      3366 9.45776E-05-2.31311E-05-3.06131E-05-6.47190E-07-8.07284E-19-1.10973E-18
 -1      3367 9.47769E-05-2.28088E-05-3.08476E-05-2.30804E-06-1.02746E-18-1.11499E-18
 -1      3368 9.52422E-05-2.85290E-05-2.85914E-05-1.56910E-08-1.27737E-18-2.01669E-19
 -1      3369 1.11254E-04-5.03889E-05-2.59228E-05-2.37055E-05-2.11046E-18-8.64781E-19
 -1      3370 9.37872E-05-2.06032E-05-3.13696E-05-3.65279E-06-1.08828E-18-1.43396E-18
 -1      3371 9.12213E-05-1.70114E-05-3.18165E-05-1.75791E-06-3.60376E-19-1.93256E-18
 -1      3372 9.15856E-05-1.75021E-05-3.17686E-05-2.27951E-06-5.52258E-19-1.88818E-18
 -1      3373 9.24787E-05-1.90989E-05-3.14318E-05-1.78604E-06-5.66113E-19-1.70072E-18
 -1      3374 1.27658E-04-4.44019E-05-3.57635E-05-5.83479E-06-4.54367E-19-3.26706E-18
 -1      3375 6.23561E-05-2.35881E-05-1.61424E-05 3.10419E-05-2.15604E-18 3.73594E-19
 -1      3376 9.52247E-05-2.85060E-05-2.85939E-05 1.88154E-08 2.19605E-19 1.33811E-18
 -1      3377 9.53904E-05-2.47662E-05-3.02691E-05 1.88057E-07 1.00964E-18-1.18829E-18
 -1      3378 9.33293E-05-2.42477E-05-2.96124E-05 3.40859E-06-6.89180E-19-1.01711E-18
 -1      3379 9.28604E-05-2.40860E-05-2.94833E-05 4.05269E-06-7.10877E-19-1.09723E-18
 -1      3380 9.21231E-05-2.37540E-05-2.93125E-05 4.50721E-06-5.82664E-19-1.15720E-18
 -1      3381 9.14320E-05-2.33594E-05-2.91841E-05 5.08480E-06-3.01336E-19-9.91641E-19
 -1      3382 9.19660E-05-2.33965E-05-2.93668E-05 3.57785E-06-5.95760E-19-8.18640E-19
 -1      3383 9.03812E-05-2.27888E-05-2.89875E-05 5.46113E-06-8.15203E-20-9.79773E-19
 -1      3384 8.94193E-05-2.21925E-05-2.88250E-05 6.00511E-06-5.66437E-20-1.03636E-18
 -1      3385 9.02208E-05-2.25343E-05-2.89795E-05 4.30874E-06-2.15153E-19-7.49848E-19
 -1      3386 8.79049E-05-2.13683E-05-2.85442E-05 6.33337E-06 7.91827E-20-7.98537E-19
 -1      3387 8.65156E-05-2.05710E-05-2.82799E-05 6.90424E-06 6.28897E-20-5.17681E-19
 -1      3388 8.77211E-05-2.11731E-05-2.84797E-05 4.85389E-06 5.28672E-20-9.36049E-19
 -1      3389 8.45524E-05-1.96199E-05-2.78734E-05 7.17935E-06 6.20807E-20-3.74406E-19
 -1      3390 8.27979E-05-1.87738E-05-2.74619E-05 7.78404E-06 2.71888E-19-2.69819E-19
 -1      3391 8.43258E-05-1.94022E-05-2.77634E-05 5.19912E-06 2.24770E-19-6.69489E-19
 -1      3392 8.01637E-05-1.77365E-05-2.68234E-05 8.09061E-06 2.52829E-19-2.46122E-19
 -1      3393 7.79108E-05-1.69707E-05-2.61448E-05 8.92618E-06 3.20890E-19-2.42567E-19
 -1      3394 7.98654E-05-1.73759E-05-2.66914E-05 5.40505E-06 3.62082E-19-5.36840E-19
 -1      3395 7.41815E-05-1.58566E-05-2.51078E-05 9.35041E-06 4.98770E-19-3.84738E-19
 -1      3396 7.09668E-05-1.53560E-05-2.39531E-05 1.11404E-05 7.67101E-19-2.94265E-19
 -1      3397 7.38242E-05-1.51981E-05-2.49899E-05 5.57045E-06 3.34869E-19-9.19054E-19
 -1      3398 1.03157E-04-3.57866E-05-2.88877E-05-3.97774E-06-4.25295E-19-5.23370E-20
 -1      3399 1.01963E-04-3.46525E-05-2.88085E-05-4.67711E-06-3.95494E-19-3.51434E-19
 -1      3400 1.00623E-04-3.34728E-05-2.87822E-05-5.00763E-06-6.87801E-20-5.97977E-19
 -1      3401 9.96504E-05-3.24495E-05-2.87715E-05-5.33249E-06-3.84796E-20-4.12913E-19
 -1      3402 1.01027E-04-3.43011E-05-2.86373E-05-5.93210E-06-3.95686E-19-2.23649E-19
 -1      3403 7.62782E-05-1.63532E-05-2.56663E-05-9.50138E-06-1.85927E-18-6.05968E-20
 -1      3404 7.84333E-05-1.69448E-05-2.64334E-05-8.53177E-06-1.88467E-18 6.44169E-19
 -1      3405 8.11971E-05-1.78672E-05-2.71569E-05-7.97196E-06-1.46636E-18 2.54066E-19
 -1      3406 8.29720E-05-1.86764E-05-2.76091E-05-7.20089E-06-1.49869E-19-3.03414E-19
 -1      3407 7.76094E-05-1.61663E-05-2.62012E-05-5.64349E-06-1.69533E-18 1.22773E-18
 -1      3408 8.50501E-05-1.96604E-05-2.80412E-05-6.79188E-06 7.44454E-19-1.01954E-18
 -1      3409 8.64076E-05-2.04792E-05-2.82926E-05-6.15158E-06 7.89437E-19-8.19060E-19
 -1      3410 8.23176E-05-1.82429E-05-2.73886E-05-5.07346E-06-3.40716E-19 8.86655E-20
 -1      3411 8.79515E-05-2.13822E-05-2.85427E-05-5.78548E-06 9.44197E-19-8.87835E-19
 -1      3412 8.89552E-05-2.21226E-05-2.86695E-05-5.22087E-06 8.30950E-19-8.38880E-19
 -1      3413 8.58498E-05-2.01771E-05-2.80960E-05-4.59354E-06 5.44352E-19-5.70809E-19
 -1      3414 9.00934E-05-2.28978E-05-2.88063E-05-4.86918E-06 4.67922E-19-1.02154E-18
 -1      3415 9.08139E-05-2.35239E-05-2.88584E-05-4.36474E-06 3.11895E-19-5.58543E-19
 -1      3416 8.84668E-05-2.18761E-05-2.85037E-05-4.07845E-06 5.59833E-19-1.05515E-18
 -1      3417 9.16461E-05-2.41636E-05-2.89257E-05-4.02832E-06-7.49653E-21-3.41984E-19
 -1      3418 9.21515E-05-2.46718E-05-2.89350E-05-3.58337E-06-1.27166E-18-3.02835E-19
 -1      3419 9.03906E-05-2.33078E-05-2.87246E-05-3.52749E-06 2.54138E-19-1.25849E-18
 -1      3420 9.27794E-05-2.52074E-05-2.89612E-05-3.25533E-06-1.24134E-18 8.17629E-19
 -1      3421 9.31414E-05-2.56268E-05-2.89462E-05-2.85545E-06-6.74523E-20 1.66979E-18
 -1      3422 9.18225E-05-2.45074E-05-2.88319E-05-2.95677E-06-6.23454E-19 8.52192E-19
 -1      3423 9.35692E-05-2.60262E-05-2.89471E-05-2.57884E-06-3.68929E-20 1.54352E-18
 -1      3424 9.38007E-05-2.63357E-05-2.89222E-05-2.25765E-06 4.14768E-19 1.72585E-18
 -1      3425 9.28513E-05-2.54633E-05-2.88686E-05-2.41656E-06-4.03293E-20 2.86061E-18
 -1      3426 9.41059E-05-2.66456E-05-2.89105E-05-2.01814E-06 6.42014E-19 1.68205E-18
 -1      3427 9.42613E-05-2.68849E-05-2.88821E-05-1.75295E-06 8.74897E-20 1.64324E-18
 -1      3428 9.35689E-05-2.61983E-05-2.88650E-05-1.93888E-06 1.04516E-19 2.07424E-18
 -1      3429 9.44783E-05-2.71238E-05-2.88647E-05-1.55140E-06-8.32947E-19 1.35688E-18
 -1      3430 9.45814E-05-2.73074E-05-2.88367E-05-1.33650E-06-2.23385E-19 6.41304E-19
 -1      3431 9.40812E-05-2.67725E-05-2.88411E-05-1.52240E-06-9.63151E-19 3.18250E-18
 -1      3432 9.47348E-05-2.74904E-05-2.88174E-05-1.17088E-06 4.43880E-19-1.93362E-19
 -1      3433 9.48026E-05-2.76306E-05-2.87918E-05-9.99658E-07 7.89461E-19-9.01518E-19
 -1      3434 9.44451E-05-2.72179E-05-2.88079E-05-1.17055E-06-1.21492E-18 1.38598E-18
 -1      3435 9.49104E-05-2.77701E-05-2.87728E-05-8.66411E-07 1.18155E-18-1.60741E-18
 -1      3436 9.49545E-05-2.78767E-05-2.87504E-05-7.32122E-07 1.34487E-19-2.53408E-19
 -1      3437 9.47021E-05-2.75613E-05-2.87722E-05-8.81006E-07 9.84325E-19-4.02281E-19
 -1      3438 9.50296E-05-2.79825E-05-2.87331E-05-6.26972E-07-4.31970E-20 9.55298E-19
 -1      3439 9.50579E-05-2.80633E-05-2.87141E-05-5.23247E-07-7.45129E-19 2.33263E-18
 -1      3440 9.48822E-05-2.78243E-05-2.87375E-05-6.48067E-07 1.34334E-18-3.83139E-19
 -1      3441 9.51096E-05-2.81430E-05-2.86988E-05-4.41778E-07-2.05576E-18 2.85928E-18
 -1      3442 9.51274E-05-2.82040E-05-2.86830E-05-3.62892E-07-1.44682E-18 2.71900E-18
 -1      3443 9.50074E-05-2.80247E-05-2.87058E-05-4.64471E-07-8.64002E-19 2.69841E-18
 -1      3444 9.51625E-05-2.82637E-05-2.86699E-05-3.00922E-07-1.61817E-18 2.25232E-18
 -1      3445 9.51734E-05-2.83096E-05-2.86570E-05-2.41926E-07-1.16449E-18 1.45056E-18
 -1      3446 9.50931E-05-2.81763E-05-2.86780E-05-3.22550E-07-2.07469E-18 2.20457E-18
 -1      3447 9.51965E-05-2.83541E-05-2.86460E-05-1.95724E-07-3.11539E-19 1.50459E-18
 -1      3448 9.52029E-05-2.83884E-05-2.86356E-05-1.52473E-07 6.56368E-19 7.37702E-19
 -1      3449 9.51508E-05-2.82904E-05-2.86541E-05-2.15004E-07-9.75187E-19 1.70117E-18
 -1      3450 9.52178E-05-2.84214E-05-2.86263E-05-1.18723E-07 8.20169E-19 6.12663E-19
 -1      3451 9.52213E-05-2.84471E-05-2.86180E-05-8.80548E-08-3.83611E-19 5.29448E-19
 -1      3452 9.51885E-05-2.83758E-05-2.86338E-05-1.35368E-07 6.00475E-19 1.31576E-18
 -1      3453 9.52272E-05-2.84648E-05-2.86119E-05-6.80544E-08-8.49192E-19 9.37052E-19
 -1      3454 9.52293E-05-2.84848E-05-2.86050E-05-4.68071E-08-3.92644E-19 1.69718E-18
 -1      3455 9.52194E-05-2.84716E-05-2.86066E-05-4.61295E-08-8.57409E-19 9.21520E-19
 -1      3456 9.52085E-05-2.84328E-05-2.86184E-05-8.12007E-08-3.30572E-19 1.04558E-18
 -1      3457 1.05459E-04-4.58160E-05-2.52130E-05-2.41698E-05-1.75897E-18-1.33472E-18
 -1      3458 1.14745E-04-5.06735E-05-2.76237E-05-1.77801E-05-1.74841E-18-6.83695E-19
 -1      3459 9.87180E-05-3.14916E-05-2.88090E-05-5.33094E-06 2.66255E-20-2.94386E-19
 -1      3460 9.80036E-05-3.06660E-05-2.88390E-05-5.38378E-06 4.52352E-20-1.04479E-19
 -1      3461 9.87750E-05-3.19605E-05-2.86667E-05-6.08422E-06 1.98128E-19-3.60814E-19
 -1      3462 9.74147E-05-2.99415E-05-2.89128E-05-5.17967E-06-1.40679E-19-2.19621E-20
 -1      3463 9.69327E-05-2.93070E-05-2.89689E-05-5.03806E-06-1.02131E-19 1.37133E-19
 -1      3464 9.72792E-05-3.01428E-05-2.87963E-05-5.74561E-06-1.79498E-22-1.56985E-19
 -1      3465 1.06149E-04-3.80526E-05-2.92133E-05-1.96633E-06-7.28169E-19 6.80344E-20
 -1      3466 1.04886E-04-3.70552E-05-2.90240E-05-3.13529E-06-4.37221E-19-6.76965E-21
 -1      3467 1.04098E-04-3.70391E-05-2.87855E-05-4.97215E-06-5.64649E-19-1.67620E-20
 -1      3468 1.09092E-04-3.94818E-05-2.98742E-05 1.18770E-06-6.87455E-19 2.25473E-19
 -1      3469 1.08065E-04-3.90724E-05-2.95262E-05-4.46668E-07-7.32600E-19 1.65614E-19
 -1      3470 1.07783E-04-3.96686E-05-2.92325E-05-2.81347E-06-5.38802E-19-2.64532E-21
 -1      3471 1.11084E-04-3.88590E-05-3.09801E-05 5.25544E-06-2.85005E-19 3.18972E-19
 -1      3472 1.10723E-04-3.96731E-05-3.04372E-05 3.40021E-06-8.32225E-19 1.56224E-19
 -1      3473 1.11448E-04-4.11772E-05-3.01352E-05 8.30162E-07-7.37268E-19-4.66807E-20
 -1      3474 1.11059E-04-3.51010E-05-3.25422E-05 8.96768E-06 8.83793E-20 6.20443E-19
 -1      3475 1.11642E-04-3.74952E-05-3.18277E-05 7.59755E-06 4.68523E-20 5.18177E-19
 -1      3476 1.13770E-04-3.98667E-05-3.16338E-05 5.64257E-06-2.80027E-19 3.03790E-19
 -1      3477 1.08509E-04-2.81990E-05-3.43706E-05 1.03482E-05 6.35248E-19 8.05449E-19
 -1      3478 1.10035E-04-3.19013E-05-3.36037E-05 1.04608E-05 5.84834E-19 5.92088E-19
 -1      3479 1.13605E-04-3.50451E-05-3.36501E-05 9.85401E-06 2.95121E-19 1.13389E-18
 -1      3480 1.04819E-04-2.10167E-05-3.58706E-05 7.15580E-06 7.27310E-19 7.41869E-19
 -1      3481 1.06424E-04-2.42289E-05-3.53721E-05 9.36855E-06 7.20587E-19 5.25608E-19
 -1      3482 1.10384E-04-2.64982E-05-3.59551E-05 1.07978E-05 8.03788E-19 1.87485E-19
 -1      3483 1.04539E-04-1.63276E-05-3.79152E-05 9.09813E-07 8.84924E-19-1.27346E-19
 -1      3484 1.05175E-04-1.74977E-05-3.76901E-05 4.49071E-06 1.04407E-18 2.43572E-20
 -1      3485 1.08173E-04-2.77166E-05-3.46144E-05-1.08365E-05 3.50615E-19-8.61985E-19
 -1      3486 1.06423E-04-2.40195E-05-3.52837E-05-9.57160E-06 6.65715E-21-7.60193E-19
 -1      3487 1.10964E-04-3.46806E-05-3.27804E-05-9.84222E-06 1.95439E-19-6.20714E-19
 -1      3488 1.09827E-04-3.15160E-05-3.35424E-05-1.04687E-05 5.81720E-19-7.89637E-19
 -1      3489 1.12070E-04-3.06636E-05-3.49135E-05-1.12006E-05 3.06715E-19-1.53272E-18
 -1      3490 1.11264E-04-3.85898E-05-3.11602E-05-6.15189E-06 1.68909E-19-5.07671E-19
 -1      3491 1.11191E-04-3.70047E-05-3.17997E-05-7.78460E-06 3.01908E-19-4.37944E-19
 -1      3492 1.13841E-04-3.75111E-05-3.26735E-05-8.50366E-06-4.37943E-20-6.08276E-19
 -1      3493 1.09341E-04-3.92926E-05-2.99931E-05-2.03340E-06 1.19861E-18 8.70538E-20
 -1      3494 1.10115E-04-3.91595E-05-3.04401E-05-3.82101E-06 6.42094E-19-3.46365E-20
 -1      3495 1.12640E-04-4.05250E-05-3.08642E-05-3.81847E-06 1.23768E-19-1.13387E-18
 -1      3496 1.06245E-04-3.77989E-05-2.92891E-05 1.16041E-06 5.28130E-19 7.96115E-19
 -1      3497 1.07452E-04-3.85643E-05-2.95575E-05-2.11723E-07 1.43465E-18 4.86848E-19
 -1      3498 1.09387E-04-4.02210E-05-2.96719E-05 4.89892E-07 7.83458E-19 5.71813E-19
 -1      3499 1.03044E-04-3.54649E-05-2.89195E-05 3.17837E-06-3.25188E-19 1.57897E-18
 -1      3500 1.04329E-04-3.65821E-05-2.90582E-05 2.29665E-06 5.29619E-20 1.47125E-18
 -1      3501 1.05528E-04-3.79868E-05-2.89907E-05 3.30838E-06-1.55621E-19 1.68118E-18
 -1      3502 1.00303E-04-3.31012E-05-2.87674E-05 4.16474E-06-1.07713E-18 1.89457E-18
 -1      3503 1.01433E-04-3.41985E-05-2.88244E-05 3.70290E-06-5.39447E-19 1.73342E-18
 -1      3504 1.01976E-04-3.51769E-05-2.86709E-05 4.76013E-06-7.38071E-19 9.58814E-19
 -1      3505 9.82144E-05-3.11151E-05-2.87341E-05 4.43457E-06-1.20070E-18 2.06261E-18
 -1      3506 9.90990E-05-3.20230E-05-2.87480E-05 4.27955E-06-1.06425E-18 2.32213E-18
 -1      3507 9.91756E-05-3.25949E-05-2.85698E-05 5.21091E-06-1.22453E-18 2.17060E-18
 -1      3508 9.67572E-05-2.96346E-05-2.87530E-05 4.26437E-06-1.25742E-18 1.79365E-18
 -1      3509 9.73941E-05-3.03048E-05-2.87493E-05 4.30812E-06-7.76239E-19 1.89240E-18
 -1      3510 9.71787E-05-3.05529E-05-2.85801E-05 5.05429E-06-7.21936E-19 1.96042E-18
 -1      3511 9.58174E-05-2.86348E-05-2.87852E-05 3.85646E-06-1.16174E-18 1.47260E-18
 -1      3512 9.62452E-05-2.90840E-05-2.87783E-05 4.01580E-06-1.54702E-18 1.09256E-18
 -1      3513 9.58740E-05-2.91042E-05-2.86334E-05 4.57907E-06-1.05206E-18 1.49926E-18
 -1      3514 9.52617E-05-2.80283E-05-2.88113E-05 3.34358E-06 3.73601E-19 7.77459E-19
 -1      3515 9.55305E-05-2.82988E-05-2.88082E-05 3.56035E-06-2.19620E-19 1.32732E-18
 -1      3516 9.50977E-05-2.81746E-05-2.86926E-05 3.97024E-06-5.97081E-19 8.06871E-19
 -1      3517 9.49711E-05-2.77145E-05-2.88240E-05 2.80769E-06 1.72116E-19 5.11606E-19
 -1      3518 9.51276E-05-2.78532E-05-2.88268E-05 3.04343E-06 4.91294E-19 7.60908E-19
 -1      3519 9.46930E-05-2.76485E-05-2.87400E-05 3.33548E-06 8.15088E-20 4.12014E-19
 -1      3520 9.48513E-05-2.76016E-05-2.88225E-05 2.29668E-06 5.98952E-19-1.01664E-18
 -1      3521 9.49332E-05-2.76505E-05-2.88310E-05 2.52738E-06 7.28508E-19-1.04917E-19
 -1      3522 9.45320E-05-2.74114E-05-2.87694E-05 2.73366E-06 9.46367E-19 6.28592E-20
 -1      3523 9.48331E-05-2.76158E-05-2.88095E-05 1.83593E-06 1.05733E-18-8.51720E-19
 -1      3524 9.48688E-05-2.76083E-05-2.88221E-05 2.04777E-06 7.76043E-19-8.57853E-19
 -1      3525 9.45185E-05-2.73656E-05-2.87813E-05 2.19382E-06 1.07381E-18-8.28040E-19
 -1      3526 9.48693E-05-2.77020E-05-2.87883E-05 1.43645E-06 2.02058E-18-1.33538E-18
 -1      3527 9.48782E-05-2.76629E-05-2.88034E-05 1.62257E-06 1.61602E-18-6.49786E-19
 -1      3528 9.45853E-05-2.74356E-05-2.87788E-05 1.72719E-06 1.15341E-18-5.41891E-19
 -1      3529 9.49295E-05-2.78223E-05-2.87624E-05 1.10038E-06 5.58045E-19-1.08793E-18
 -1      3530 9.49245E-05-2.77684E-05-2.87785E-05 1.25846E-06 1.21885E-18-9.14389E-19
 -1      3531 9.46878E-05-2.75667E-05-2.87660E-05 1.33482E-06 1.27506E-18 2.42722E-19
 -1      3532 9.49952E-05-2.79517E-05-2.87349E-05 8.24608E-07 1.09310E-20-9.40476E-19
 -1      3533 9.49843E-05-2.78941E-05-2.87508E-05 9.55216E-07 2.82751E-19-9.24671E-19
 -1      3534 9.47989E-05-2.77222E-05-2.87466E-05 1.01222E-06 4.06331E-19 4.34924E-19
 -1      3535 9.50565E-05-2.80756E-05-2.87078E-05 6.03204E-07-6.76285E-19-3.76543E-19
 -1      3536 9.50442E-05-2.80206E-05-2.87226E-05 7.08550E-07-2.27187E-19-1.92319E-19
 -1      3537 9.49031E-05-2.78789E-05-2.87241E-05 7.52088E-07-6.49390E-19-8.38043E-19
 -1      3538 9.51086E-05-2.81859E-05-2.86825E-05 4.29000E-07-1.06097E-18 3.73203E-19
 -1      3539 9.50973E-05-2.81371E-05-2.86958E-05 5.12123E-07-8.75034E-19 6.43418E-20
 -1      3540 9.49928E-05-2.80235E-05-2.87006E-05 5.46045E-07-6.44829E-19-3.96994E-19
 -1      3541 9.51501E-05-2.82797E-05-2.86599E-05 2.94594E-07-9.01670E-19 7.56044E-19
 -1      3542 9.51408E-05-2.82383E-05-2.86714E-05 3.58805E-07-9.32898E-19-6.11022E-20
 -1      3543 9.50657E-05-2.81494E-05-2.86780E-05 3.85646E-07-1.27643E-18 1.11099E-20
 -1      3544 9.51814E-05-2.83566E-05-2.86401E-05 1.92989E-07-6.48804E-19 2.35756E-19
 -1      3545 9.51744E-05-2.83226E-05-2.86499E-05 2.41495E-07-7.37170E-19 4.66731E-19
 -1      3546 9.51220E-05-2.82547E-05-2.86571E-05 2.62937E-07-8.66907E-19-5.97449E-19
 -1      3547 9.52038E-05-2.84180E-05-2.86231E-05 1.18049E-07 2.04719E-19-6.15479E-19
 -1      3548 9.51989E-05-2.83909E-05-2.86313E-05 1.53765E-07-2.94703E-19 1.60099E-20
 -1      3549 9.51637E-05-2.83401E-05-2.86384E-05 1.70904E-07-1.38846E-19-5.34790E-19
 -1      3550 9.52192E-05-2.84670E-05-2.86086E-05 6.43421E-08 2.55653E-19 1.81455E-18
 -1      3551 9.52160E-05-2.84453E-05-2.86155E-05 8.95970E-08-3.92953E-19 3.66379E-19
 -1      3552 9.51933E-05-2.84079E-05-2.86220E-05 1.03244E-07-6.53059E-19-1.40690E-19
 -1      3553 9.16808E-05-3.85236E-05-2.28526E-05 2.91882E-05-2.23670E-18-1.29265E-18
 -1      3554 8.23389E-05-3.16732E-05-2.16303E-05 2.82830E-05-2.24589E-18-1.13338E-18
 -1      3555 5.36575E-05-1.07214E-05-1.84254E-05 2.97046E-06-1.82799E-18-6.05629E-20
 -1      3556 5.27778E-05-1.07433E-05-1.76657E-05-4.53671E-06-1.40127E-18-3.10967E-19
 -1      3557 5.94508E-05-1.27366E-05-1.97912E-05-8.26029E-06-1.52103E-18-3.48660E-19
 -1      3558 9.52077E-05-2.84553E-05-2.86083E-05-4.28486E-08-1.39255E-18 2.02497E-18
 -1      3559 9.51988E-05-2.84440E-05-2.86096E-05-4.00942E-08-1.44238E-18 3.13738E-18
 -1      3560 9.52028E-05-2.84355E-05-2.86140E-05-5.79160E-08-1.39044E-18 1.83796E-18
 -1      3561 1.23453E-04-4.00890E-05-3.60455E-05-9.18823E-06-1.64391E-19-3.27569E-18
 -1      3562 1.24471E-04-4.54124E-05-3.38681E-05-4.17544E-06-4.40960E-19-3.36367E-18
 -1      3563 5.85318E-05-1.62619E-05-1.76651E-05-1.92614E-05 1.31025E-20-2.78234E-18
 -1      3564 6.94276E-05-2.43381E-05-1.95060E-05-2.65761E-05-6.01579E-19-2.18863E-18
 -1      3565 9.43237E-05-2.34899E-05-3.03618E-05 5.27996E-07-6.27820E-19-1.12722E-18
 -1      3566 9.42617E-05-2.39237E-05-3.01529E-05 1.43752E-06-5.32149E-19-1.14411E-18
 -1      3567 9.36865E-05-2.10587E-05-3.11153E-05-1.87922E-06-7.03598E-19-1.44301E-18
 -1      3568 9.34491E-05-2.02554E-05-3.13651E-05-2.94132E-06-8.87685E-19-1.44114E-18
 -1      3569 5.08116E-05-1.04067E-05-1.67751E-05-8.92950E-07 6.29220E-19-1.80439E-18
 -1      3570 5.18158E-05-1.21718E-05-1.69149E-05-1.12758E-05 5.01166E-19-2.55873E-18
 -1      3571 1.10121E-04-4.87786E-05-2.63958E-05 2.17196E-05-3.01811E-18-1.81773E-18
 -1      3572 1.00863E-04-4.37783E-05-2.42687E-05 2.67945E-05-2.82963E-18-1.34871E-18
 -1      3573 9.78836E-05-4.02135E-05-2.45439E-05 2.44354E-05-2.87645E-18-1.47036E-18
 -1      3574 9.51895E-05-2.84324E-05-2.86104E-05-3.19391E-08-1.13146E-18 2.25747E-18
 -1      3575 9.51832E-05-2.84248E-05-2.86110E-05-2.57203E-08-2.20011E-18 1.59585E-18
 -1      3576 9.51801E-05-2.84073E-05-2.86164E-05-4.39976E-08-6.48330E-19 2.61605E-18
 -1      3577 9.07987E-05-1.64579E-05-3.18724E-05-8.54433E-07-1.36102E-19-2.05370E-18
 -1      3578 9.09570E-05-1.66724E-05-3.18531E-05-1.40055E-06-3.24923E-19-1.96617E-18
 -1      3579 9.17851E-05-1.81398E-05-3.15432E-05-1.22999E-06-3.40191E-19-1.86855E-18
 -1      3580 9.55673E-05-2.59333E-05-2.98485E-05-1.83240E-06 6.86573E-19-1.15359E-18
 -1      3581 9.54374E-05-2.53250E-05-3.00397E-05-1.07983E-06 7.03738E-19-1.18928E-18
 -1      3582 9.51961E-05-2.45719E-05-3.02761E-05-3.04685E-07 8.75036E-19-1.26605E-18
 -1      3583 9.49617E-05-2.37042E-05-3.05345E-05 6.54903E-07 9.96612E-19-1.33020E-18
 -1      3584 9.50007E-05-2.43352E-05-3.02832E-05-6.70490E-07 7.35029E-19-1.16155E-18
 -1      3585 6.11346E-05-1.85802E-05-1.79520E-05 2.15617E-05-1.91617E-18 3.41143E-19
 -1      3586 1.28912E-04-4.77665E-05-3.47338E-05 2.77290E-06-1.83277E-19 1.66532E-18
 -1      3587 1.25902E-04-4.02933E-05-3.69609E-05 9.02507E-06 6.87050E-19 1.60560E-18
 -1      3588 1.25529E-04-4.84861E-05-3.30272E-05 6.34370E-07-1.07656E-19 7.85358E-19
 -1      3589 1.09446E-04-1.42405E-05-4.11508E-05-5.29046E-06 1.12661E-18-1.49198E-18
 -1      3590 1.11446E-04-1.76279E-05-4.03455E-05-9.64682E-06 5.95888E-19-1.81641E-18
 -1      3591 9.46500E-05-2.29665E-05-3.07210E-05 1.13639E-06 9.98563E-19-1.35338E-18
 -1      3592 9.42773E-05-2.20676E-05-3.09557E-05 1.79023E-06 9.66687E-19-1.42499E-18
 -1      3593 9.37508E-05-2.12011E-05-3.10932E-05 1.56079E-06 9.60998E-19-1.36215E-18
 -1      3594 9.44447E-05-2.27709E-05-3.07129E-05 6.15538E-07 9.37941E-19-1.25303E-18
 -1      3595 9.40630E-05-2.41935E-05-2.99463E-05 2.10542E-06-5.32078E-19-1.05182E-18
 -1      3596 9.37926E-05-2.43027E-05-2.97891E-05 2.86024E-06-6.05115E-19-1.04615E-18
 -1      3597 9.31398E-05-2.37355E-05-2.97312E-05 2.63203E-06-6.82819E-19-1.06334E-18
 -1      3598 7.08563E-05-1.59358E-05-2.33884E-05-1.33029E-05-2.04582E-18 1.86169E-19
 -1      3599 7.30088E-05-1.57113E-05-2.46510E-05-1.13938E-05-1.76255E-18-1.62528E-19
 -1      3600 7.13173E-05-1.41378E-05-2.43649E-05-7.46369E-06-1.62992E-18 1.49786E-19
 -1      3601 6.49914E-05-1.41487E-05-2.16359E-05-1.18740E-05-1.65111E-18-4.85403E-19
 -1      3602 8.27499E-05-3.22809E-05-2.11339E-05-2.93838E-05-8.42493E-19-1.39209E-18
 -1      3603 9.30262E-05-3.99061E-05-2.30931E-05-2.89273E-05-1.41354E-18-1.08992E-18
 -1      3604 6.56866E-05-2.12722E-05-1.85243E-05 2.45323E-05 1.87517E-18-9.01084E-19
 -1      3605 9.52143E-05-2.84815E-05-2.86000E-05 2.55448E-08 7.38766E-21 1.04382E-18
 -1      3606 6.99565E-05-2.24831E-05-2.02458E-05 2.43166E-05-2.21270E-18-2.99876E-19
 -1      3607 5.90075E-05-1.39249E-05-1.89966E-05 1.40963E-05-1.62190E-18 4.55227E-19
 -1      3608 6.22319E-05-1.71595E-05-1.91513E-05 1.92673E-05 8.63629E-19 1.32614E-19
 -1      3609 1.19653E-04-3.59341E-05-3.59785E-05-1.06571E-05-4.14715E-20-2.84956E-18
 -1      3610 9.65953E-05-2.87638E-05-2.90668E-05-4.70768E-06-9.84653E-20 6.45834E-20
 -1      3611 9.62933E-05-2.82643E-05-2.91454E-05-4.41664E-06 1.91820E-19-1.58377E-19
 -1      3612 9.63754E-05-2.87819E-05-2.89850E-05-5.11529E-06-2.79318E-21 1.76401E-20
 -1      3613 1.12148E-04-2.25701E-05-3.85071E-05-1.05270E-05 5.87656E-19-1.56839E-18
 -1      3614 9.98276E-05-4.14028E-05-2.49275E-05-2.32989E-05-1.36126E-18-1.18101E-18
 -1      3615 1.23254E-04-4.80687E-05-3.23217E-05-4.78893E-07-1.11549E-18-3.00172E-18
 -1      3616 1.19893E-04-4.79999E-05-3.06905E-05 3.45231E-06-1.50468E-18-2.84507E-18
 -1      3617 1.20076E-04-4.36584E-05-3.27416E-05-4.61635E-06-6.11505E-19-2.26826E-18
 -1      3618 9.52296E-05-2.84959E-05-2.86000E-05 3.89953E-08 9.48896E-19 2.76083E-18
 -1      3619 1.12034E-04-4.75511E-05-2.76468E-05-1.54495E-05-1.57877E-18-5.46151E-19
 -1      3620 1.17954E-04-5.11021E-05-2.85084E-05-1.38416E-05-1.78701E-18-5.17764E-19
 -1      3621 1.19363E-04-5.05750E-05-2.96558E-05-9.38003E-06-1.26951E-18 1.23862E-20
 -1      3622 1.16273E-04-4.89334E-05-2.90650E-05 1.03065E-05-1.99786E-18-2.31767E-18
 -1      3623 1.14555E-04-4.96018E-05-2.77384E-05 1.61424E-05-2.53522E-18-1.78320E-18
 -1      3624 1.09426E-04-4.60023E-05-2.71164E-05 1.71667E-05-3.07349E-18-1.52427E-18
 -1      3625 9.62552E-05-2.79544E-05-2.92822E-05-3.74394E-06 4.69808E-19-5.47391E-19
 -1      3626 7.71509E-05-2.68321E-05-2.14063E-05-2.44914E-05-4.54989E-19-1.59858E-18
 -1      3627 9.52161E-05-2.84690E-05-2.86056E-05 5.00502E-08-5.97749E-20 1.87848E-18
 -1      3628 9.51818E-05-2.84260E-05-2.86101E-05 2.32051E-08-1.06616E-18-2.06990E-18
 -1      3629 9.51871E-05-2.84334E-05-2.86092E-05 2.88006E-08-1.47084E-18-5.90580E-19
 -1      3630 9.21661E-05-1.91468E-05-3.13031E-05 1.09285E-07 2.62883E-19-1.77125E-18
 -1      3631 9.20016E-05-1.89521E-05-3.13208E-05-2.19930E-07-1.03232E-20-2.04614E-18
 -1      3632 6.29944E-05-1.23856E-05-2.14522E-05 1.07216E-06 7.38083E-19-1.52912E-18
 -1      3633 6.31382E-05-1.34390E-05-2.12549E-05 7.12957E-06 7.94887E-19-8.45657E-19
 -1      3634 1.08402E-04-1.76701E-05-3.89848E-05 7.37019E-06 1.14217E-18-6.18638E-19
 -1      3635 1.05160E-04-2.03694E-05-3.64559E-05-7.34715E-06 4.32728E-19-4.39386E-19
 -1      3636 1.03846E-04-1.79576E-05-3.68276E-05-4.41997E-06 7.04083E-19-2.41052E-19
 -1      3637 8.32386E-05-2.87782E-05-2.32152E-05 2.26730E-05-2.46203E-18-1.35569E-18
 -1      3638 7.69096E-05-2.59983E-05-2.16303E-05 2.45994E-05-2.28414E-18-7.45257E-19
 -1      3639 7.22895E-05-2.06399E-05-2.21686E-05 1.86118E-05-1.93251E-18-5.86914E-19
 -1      3640 9.51651E-05-2.83903E-05-2.86173E-05-2.18974E-08-1.76088E-18 1.13443E-18
 -1      3641 9.51781E-05-2.84194E-05-2.86112E-05-1.41177E-08-1.67534E-18 6.57054E-19
 -1      3642 9.51759E-05-2.84166E-05-2.86112E-05-5.65730E-09-7.03566E-19-1.37979E-19
 -1      3643 6.65216E-05-1.59041E-05-2.16582E-05 1.27276E-05-1.46939E-18 3.52683E-19
 -1      3644 5.96268E-05-1.27851E-05-1.98272E-05 9.28933E-06-1.58046E-18 3.79537E-19
 -1      3645 6.13396E-05-1.22026E-05-2.10224E-05 3.76531E-06-1.49632E-18-1.24779E-19
 -1      3646 9.52028E-05-2.84487E-05-2.86087E-05 4.78044E-08-6.50937E-19-2.70564E-19
 -1      3647 9.37762E-05-2.34519E-05-3.01290E-05 1.44872E-06-5.63332E-19-1.27036E-18
 -1      3648 9.14974E-05-1.77428E-05-3.15889E-05-5.81658E-07-1.19634E-19-2.03553E-18
 -1      3649 9.51757E-05-2.84175E-05-2.86110E-05 4.86547E-09-7.75818E-19 5.11296E-20
 -1      3650 9.51778E-05-2.84199E-05-2.86106E-05 1.33138E-08-8.69723E-19-2.04314E-18
 -1      3651 9.51659E-05-2.83935E-05-2.86164E-05 2.52695E-08-1.51601E-18-1.45232E-18
 -1      3652 9.51613E-05-2.83868E-05-2.86172E-05 2.74267E-09-5.21246E-19-5.63240E-19
 -1      3653 6.11466E-05-1.52123E-05-1.93655E-05-1.31463E-05 2.70283E-19-2.26428E-18
 -1      3654 9.27457E-05-1.99142E-05-3.12224E-05 6.49037E-07 5.54427E-19-1.58145E-18
 -1      3655 9.24230E-05-1.94851E-05-3.12704E-05 3.16153E-07 3.39818E-19-1.70075E-18
 -1      3656 9.28196E-05-2.03900E-05-3.10204E-05-1.08496E-07 3.11622E-19-1.58281E-18
 -1      3657 9.32979E-05-2.07686E-05-3.10754E-05-1.30586E-06-5.38930E-19-1.58395E-18
 -1      3658 9.40210E-05-2.20809E-05-3.08406E-05-1.08980E-06-5.87182E-19-1.41360E-18
 -1      3659 9.41876E-05-2.28204E-05-3.05904E-05-1.32362E-07-5.86397E-19-1.22494E-18
 -1      3660 9.56969E-05-2.64670E-05-2.96616E-05-2.46744E-06 5.83602E-19-9.54554E-19
 -1      3661 9.53586E-05-2.57141E-05-2.98503E-05-2.10294E-06 5.30542E-19-9.53560E-19
 -1      3662 9.58187E-05-2.69411E-05-2.95201E-05-3.04213E-06 4.07729E-19-7.51745E-19
 -1      3663 9.38088E-05-2.24569E-05-3.05715E-05 1.04817E-07-4.51892E-19-1.36661E-18
 -1      3664 1.12255E-04-1.89374E-05-4.02876E-05 9.65638E-06 1.42373E-18-6.22305E-20
 -1      3665 5.95350E-05-1.40049E-05-1.93509E-05 9.47990E-06 9.19309E-19-8.82555E-19
 -1      3666 1.07823E-04-1.47313E-05-4.00787E-05-1.92123E-06 1.21544E-18-1.44049E-18
 -1      3667 9.24818E-05-1.96278E-05-3.12232E-05-1.06966E-06-3.17302E-19-1.60332E-18
 -1      3668 9.28834E-05-2.02278E-05-3.11517E-05-1.25633E-06-4.83185E-19-1.56374E-18
 -1      3669 9.32394E-05-2.11647E-05-3.08795E-05-5.67106E-07-4.03978E-19-1.55364E-18
 -1      3670 1.12986E-04-2.36822E-05-3.83194E-05 1.12573E-05 1.07568E-18 2.70290E-19
 -1      3671 7.45741E-05-1.53430E-05-2.54934E-05-2.41045E-06-1.65112E-18 7.43807E-19
 -1      3672 7.76597E-05-1.65551E-05-2.62472E-05-2.35170E-06-1.69057E-18 4.52074E-19
 -1      3673 9.42527E-05-3.62875E-05-2.45160E-05-2.29532E-05-6.41733E-19-9.72357E-19
 -1      3674 1.03234E-04-4.23242E-05-2.62861E-05-1.92579E-05-1.06581E-18-1.20147E-18
 -1      3675 9.02936E-05-2.26171E-05-2.90146E-05 3.04306E-06-2.81182E-19-7.10782E-19
 -1      3676 8.92443E-05-2.21071E-05-2.87961E-05 3.28729E-06-1.41761E-19-7.43588E-19
 -1      3677 8.78958E-05-2.14386E-05-2.84967E-05 3.23552E-06 1.12322E-19-1.06595E-18
 -1      3678 8.63722E-05-2.06772E-05-2.81865E-05 3.34593E-06 2.48253E-19-8.10986E-19
 -1      3679 8.82626E-05-2.15866E-05-2.85409E-05 1.92756E-06-1.40004E-19-8.82605E-19
 -1      3680 8.46427E-05-1.98473E-05-2.77935E-05 3.09154E-06 2.72282E-19-7.79984E-19
 -1      3681 8.26768E-05-1.89444E-05-2.73581E-05 3.05714E-06 4.01687E-19-7.84890E-19
 -1      3682 8.52590E-05-2.01925E-05-2.78356E-05 1.39782E-06 3.96991E-19-9.83249E-19
 -1      3683 8.03870E-05-1.79707E-05-2.67860E-05 2.56368E-06 3.46668E-19-8.42783E-19
 -1      3684 7.77436E-05-1.69488E-05-2.61133E-05 2.40443E-06 2.88792E-19-9.89191E-19
 -1      3685 8.13710E-05-1.85190E-05-2.68646E-05 3.27962E-07 2.40698E-19-1.07898E-18
 -1      3686 7.46650E-05-1.58506E-05-2.52421E-05 1.67366E-06 1.09022E-19-1.19009E-18
 -1      3687 7.09352E-05-1.48598E-05-2.41390E-05 1.39590E-06 1.89325E-19-1.37637E-18
 -1      3688 7.61835E-05-1.66363E-05-2.54260E-05-1.46834E-06 7.15478E-20-1.06078E-18
 -1      3689 1.09023E-04-4.12329E-05-2.90838E-05-4.49495E-06-7.08485E-19-3.82958E-19
 -1      3690 1.07073E-04-3.97612E-05-2.87675E-05-5.72960E-06-7.59942E-19-6.31861E-19
 -1      3691 1.24125E-04-3.67965E-05-3.76164E-05 1.11879E-05 1.02639E-18 1.20392E-18
 -1      3692 1.19663E-04-3.16452E-05-3.78638E-05 1.21043E-05 1.08807E-18 2.60939E-19
 -1      3693 6.87776E-05-1.45167E-05-2.30802E-05-1.70892E-06 2.84070E-19-1.36169E-18
 -1      3694 6.16891E-05-1.34064E-05-2.06976E-05-7.63914E-06 4.24086E-19-1.78803E-18
 -1      3695 6.67067E-05-1.73994E-05-2.12566E-05-1.51622E-05-1.02064E-19-1.66783E-18
 -1      3696 7.03554E-05-1.54264E-05-2.34648E-05-5.99759E-06 4.65637E-20-1.28376E-18
 -1      3697 9.19582E-05-2.32898E-05-2.94361E-05 2.55588E-06-5.73219E-19-8.40955E-19
 -1      3698 9.12227E-05-2.30217E-05-2.92462E-05 2.92527E-06-4.52211E-19-7.80893E-19
 -1      3699 9.04830E-05-2.25620E-05-2.90835E-05 2.00453E-06-3.12372E-19-7.09858E-19
 -1      3700 8.02118E-05-1.75935E-05-2.68829E-05-2.80698E-06-1.09824E-18 5.55384E-19
 -1      3701 8.23118E-05-1.85826E-05-2.73459E-05-2.76272E-06-1.24107E-19-1.32785E-19
 -1      3702 7.84903E-05-1.69604E-05-2.62708E-05 1.23559E-07-1.56045E-18-5.69870E-20
 -1      3703 8.41869E-05-1.95418E-05-2.77393E-05-3.00677E-06 5.89151E-20 1.44702E-19
 -1      3704 8.57380E-05-2.04262E-05-2.80140E-05-2.89594E-06 4.30255E-19-3.78360E-19
 -1      3705 8.27434E-05-1.88976E-05-2.73026E-05-9.51133E-07-9.70221E-20 6.36630E-19
 -1      3706 8.71448E-05-2.12717E-05-2.82548E-05-2.98400E-06 4.70760E-19-6.29162E-19
 -1      3707 8.82863E-05-2.20319E-05-2.84116E-05-2.80901E-06 8.78553E-20-5.56133E-19
 -1      3708 8.59294E-05-2.06281E-05-2.79444E-05-1.54827E-06-1.50077E-19 1.90391E-19
 -1      3709 8.93459E-05-2.27553E-05-2.85546E-05-2.78591E-06 5.71113E-19-9.80600E-19
 -1      3710 9.01809E-05-2.33894E-05-2.86377E-05-2.57153E-06-2.06454E-20-1.05319E-18
 -1      3711 8.83331E-05-2.21415E-05-2.83374E-05-1.79604E-06 4.52377E-20 2.35969E-19
 -1      3712 9.10115E-05-2.40187E-05-2.87211E-05-2.47274E-06 1.79123E-19-7.62522E-19
 -1      3713 9.16410E-05-2.45592E-05-2.87594E-05-2.23374E-06 5.38427E-19 7.53305E-19
 -1      3714 9.01848E-05-2.34643E-05-2.85731E-05-1.80317E-06 5.16670E-19-8.57752E-19
 -1      3715 9.22287E-05-2.50469E-05-2.87982E-05-2.10434E-06 1.55371E-19 1.57240E-18
 -1      3716 9.26571E-05-2.54578E-05-2.88078E-05-1.88229E-06-2.22407E-20 1.80391E-18
 -1      3717 9.15682E-05-2.45602E-05-2.87019E-05-1.66612E-06 1.00776E-18-3.38486E-19
 -1      3718 9.30945E-05-2.58492E-05-2.88226E-05-1.74193E-06-1.89211E-19 2.15482E-18
 -1      3719 9.34012E-05-2.61760E-05-2.88173E-05-1.53875E-06 6.00037E-20 2.00141E-18
 -1      3720 9.25734E-05-2.54368E-05-2.87616E-05-1.45637E-06-2.73427E-19 6.92825E-19
 -1      3721 9.37251E-05-2.64870E-05-2.88178E-05-1.40243E-06-5.98863E-19 1.64686E-18
 -1      3722 9.39433E-05-2.67439E-05-2.88049E-05-1.22463E-06-1.61874E-18 1.09108E-18
 -1      3723 9.33206E-05-2.61450E-05-2.87815E-05-1.22075E-06-4.09159E-19-2.20481E-19
 -1      3724 9.41816E-05-2.69888E-05-2.87974E-05-1.10096E-06-1.87235E-18 1.28721E-18
 -1      3725 9.43361E-05-2.71894E-05-2.87812E-05-9.50613E-07-1.08082E-18 5.79843E-19
 -1      3726 9.38730E-05-2.67111E-05-2.87779E-05-9.88784E-07-1.70928E-18 1.61988E-19
 -1      3727 9.45102E-05-2.73806E-05-2.87698E-05-8.43674E-07-5.45859E-19-1.43411E-19
 -1      3728 9.46188E-05-2.75361E-05-2.87529E-05-7.20033E-07 1.15764E-18-9.84907E-19
 -1      3729 9.42787E-05-2.71592E-05-2.87614E-05-7.77205E-07-1.15091E-18 6.77933E-20
 -1      3730 9.47449E-05-2.76841E-05-2.87400E-05-6.30884E-07 2.54963E-18-1.29077E-18
 -1      3731 9.48206E-05-2.78039E-05-2.87239E-05-5.31604E-07 2.40552E-18 4.55911E-19
 -1      3732 9.45742E-05-2.75106E-05-2.87387E-05-5.93922E-07 1.60810E-18-1.41637E-18
 -1      3733 9.49110E-05-2.79176E-05-2.87110E-05-4.59477E-07 8.63296E-19 7.20262E-19
 -1      3734 9.49632E-05-2.80091E-05-2.86964E-05-3.81452E-07-1.00805E-18 1.43130E-18
 -1      3735 9.47874E-05-2.77837E-05-2.87139E-05-4.41165E-07 2.12812E-18 1.49252E-19
 -1      3736 9.50269E-05-2.80957E-05-2.86843E-05-3.24588E-07-2.46720E-18 1.94328E-18
 -1      3737 9.50624E-05-2.81653E-05-2.86716E-05-2.64506E-07-1.77384E-18 2.07034E-18
 -1      3738 9.49394E-05-2.79940E-05-2.86895E-05-3.17762E-07-6.75225E-19 5.02779E-19
 -1      3739 9.51066E-05-2.82307E-05-2.86606E-05-2.20776E-07-1.90514E-18 1.64325E-18
 -1      3740 9.51301E-05-2.82832E-05-2.86497E-05-1.75510E-07-3.46960E-19 2.05589E-18
 -1      3741 9.50459E-05-2.81545E-05-2.86668E-05-2.20749E-07-1.60703E-18 2.73229E-18
 -1      3742 9.51601E-05-2.83322E-05-2.86401E-05-1.42636E-07 5.99679E-19 1.32060E-18
 -1      3743 9.51752E-05-2.83713E-05-2.86308E-05-1.09777E-07 3.62955E-20 8.58745E-19
 -1      3744 9.51190E-05-2.82763E-05-2.86464E-05-1.46598E-07-4.95228E-19 1.73948E-18
 -1      3745 9.51870E-05-2.83933E-05-2.86254E-05-9.23397E-08 3.05980E-19 7.89261E-19
 -1      3746 9.51934E-05-2.84162E-05-2.86190E-05-7.14023E-08-8.68861E-19 1.02609E-18
 -1      3747 9.51800E-05-2.83995E-05-2.86206E-05-6.57652E-08-8.07886E-19 2.04595E-18
 -1      3748 9.51590E-05-2.83529E-05-2.86313E-05-9.71430E-08 1.69099E-19 8.95446E-19
 -1      3749 9.85786E-05-3.20840E-05-2.84840E-05-6.89842E-06 1.38582E-19-5.88625E-19
 -1      3750 9.76280E-05-3.09893E-05-2.85394E-05-6.74675E-06 1.34102E-19-6.04362E-19
 -1      3751 9.24572E-05-1.99434E-05-3.10573E-05-3.78609E-07 5.19949E-20-2.03315E-18
 -1      3752 9.19260E-05-1.88512E-05-3.13256E-05-3.85099E-07-3.75494E-20-2.07961E-18
 -1      3753 9.19531E-05-1.89185E-05-3.13161E-05-6.82080E-07-1.56989E-19-1.90266E-18
 -1      3754 1.04630E-04-3.79881E-05-2.85709E-05-6.48372E-06-5.38706E-19-4.59452E-19
 -1      3755 1.02857E-04-3.63562E-05-2.84472E-05-7.06383E-06-4.54259E-19-3.21292E-19
 -1      3756 1.05364E-04-3.93880E-05-2.83614E-05-8.27238E-06-5.48013E-19-1.07457E-18
 -1      3757 9.69608E-05-3.00725E-05-2.86535E-05-6.27901E-06 6.88305E-20-6.40951E-19
 -1      3758 9.63646E-05-2.92667E-05-2.87444E-05-5.96670E-06 2.54097E-20-4.06844E-19
 -1      3759 9.64849E-05-3.01280E-05-2.84685E-05-7.05333E-06 1.82594E-20-7.01294E-19
 -1      3760 1.13549E-04-4.32751E-05-3.01766E-05-7.12935E-07-4.61531E-19-2.68664E-19
 -1      3761 1.11875E-04-4.26856E-05-2.95783E-05-2.70181E-06-6.42044E-19-3.45083E-20
 -1      3762 1.10656E-04-4.31592E-05-2.90225E-05-6.17731E-06-7.15912E-19-7.55456E-19
 -1      3763 1.16093E-04-3.33706E-05-3.54405E-05 1.11107E-05 1.06099E-18 2.48485E-21
 -1      3764 1.17399E-04-3.79549E-05-3.41697E-05 9.30888E-06 3.94661E-19 4.30822E-19
 -1      3765 1.15344E-04-2.92719E-05-3.70784E-05 1.18315E-05 1.26545E-18 5.17921E-19
 -1      3766 1.08689E-04-2.14137E-05-3.74980E-05-9.66171E-06 5.77306E-19-1.52064E-18
 -1      3767 1.09114E-04-4.09237E-05-2.91413E-05 3.79769E-06 1.82459E-19 6.60261E-19
 -1      3768 1.10949E-04-4.20720E-05-2.95641E-05 2.29012E-06-3.05301E-19-1.06020E-19
 -1      3769 1.04355E-04-3.75712E-05-2.85602E-05 5.90994E-06-4.84299E-19 1.17603E-18
 -1      3770 1.06325E-04-3.92163E-05-2.87885E-05 5.03956E-06 2.31104E-19 1.32649E-18
 -1      3771 1.07466E-04-4.08712E-05-2.86313E-05 6.86639E-06-5.18511E-19 4.45190E-19
 -1      3772 1.00516E-04-3.42545E-05-2.83535E-05 6.50031E-06-1.01531E-18 1.09536E-18
 -1      3773 1.02158E-04-3.58059E-05-2.84368E-05 6.20152E-06-7.08870E-19 8.48225E-19
 -1      3774 1.02424E-04-3.67846E-05-2.81938E-05 7.92811E-06-2.61346E-19 1.05467E-18
 -1      3775 9.77502E-05-3.15502E-05-2.83444E-05 6.25326E-06-1.67629E-18 1.48813E-18
 -1      3776 9.89712E-05-3.28015E-05-2.83496E-05 6.31046E-06-1.42163E-18 1.33998E-18
 -1      3777 9.87328E-05-3.32854E-05-2.80971E-05 7.72579E-06-1.28372E-18 1.53156E-19
 -1      3778 9.59378E-05-2.95890E-05-2.84212E-05 5.58831E-06-9.77617E-19 1.34955E-18
 -1      3779 9.67676E-05-3.04888E-05-2.83929E-05 5.83187E-06-1.04056E-18 1.36952E-18
 -1      3780 9.62582E-05-3.06151E-05-2.81681E-05 6.88989E-06-1.45336E-18-1.13703E-19
 -1      3781 9.48605E-05-2.82989E-05-2.85204E-05 4.77676E-06-1.09701E-18 1.43679E-18
 -1      3782 9.53770E-05-2.88865E-05-2.84839E-05 5.09931E-06-7.84862E-19 1.89107E-18
 -1      3783 9.47631E-05-2.87851E-05-2.82992E-05 5.83624E-06-1.13506E-18 1.12057E-18
 -1      3784 9.43008E-05-2.75391E-05-2.86110E-05 3.96280E-06 2.03137E-19 3.45410E-19
 -1      3785 9.45898E-05-2.78821E-05-2.85787E-05 4.30242E-06-3.46486E-19 1.07851E-18
 -1      3786 9.39686E-05-2.76530E-05-2.84346E-05 4.78901E-06-4.10375E-19 1.57379E-18
 -1      3787 9.40829E-05-2.71664E-05-2.86801E-05 3.21469E-06-2.93755E-19 3.70004E-19
 -1      3788 9.42179E-05-2.73321E-05-2.86571E-05 3.53790E-06-1.51798E-19 4.25446E-19
 -1      3789 9.36402E-05-2.70416E-05-2.85495E-05 3.84393E-06 1.07133E-19 1.14659E-18
 -1      3790 9.40740E-05-2.70560E-05-2.87249E-05 2.56083E-06 1.25230E-18 2.18421E-19
 -1      3791 9.41120E-05-2.71024E-05-2.87120E-05 2.85143E-06 6.54927E-19 3.07472E-19
 -1      3792 9.36027E-05-2.67946E-05-2.86352E-05 3.03434E-06 2.38418E-19-1.56632E-19
 -1      3793 9.41801E-05-2.71096E-05-2.87479E-05 2.00747E-06 6.90706E-19-2.58353E-19
 -1      3794 9.41624E-05-2.70821E-05-2.87439E-05 2.25928E-06 1.16033E-18-2.24893E-19
 -1      3795 9.37301E-05-2.67846E-05-2.86916E-05 2.36272E-06 1.04893E-18-4.32498E-19
 -1      3796 9.43387E-05-2.72546E-05-2.87537E-05 1.54974E-06 1.67753E-18-5.26682E-19
 -1      3797 9.42931E-05-2.71864E-05-2.87565E-05 1.76217E-06 1.50534E-18-3.72706E-19
 -1      3798 9.39369E-05-2.69149E-05-2.87230E-05 1.81704E-06 9.13080E-19-5.14883E-19
 -1      3799 9.45106E-05-2.74411E-05-2.87472E-05 1.17786E-06 2.49010E-19 6.37166E-19
 -1      3800 9.44550E-05-2.73549E-05-2.87545E-05 1.35328E-06 7.66117E-19 1.83808E-20
 -1      3801 9.41688E-05-2.71172E-05-2.87351E-05 1.38027E-06 7.96880E-19-7.64177E-19
 -1      3802 9.46733E-05-2.76365E-05-2.87328E-05 8.80349E-07 4.04162E-19 3.15801E-19
 -1      3803 9.46181E-05-2.75470E-05-2.87428E-05 1.02256E-06 5.42020E-19 5.02398E-19
 -1      3804 9.43935E-05-2.73455E-05-2.87334E-05 1.03480E-06 3.00197E-19 7.42463E-19
 -1      3805 9.48155E-05-2.78216E-05-2.87140E-05 6.45691E-07-2.80197E-19-4.24222E-20
 -1      3806 9.47662E-05-2.77373E-05-2.87251E-05 7.59062E-07 1.07877E-19 2.14475E-19
 -1      3807 9.45937E-05-2.75710E-05-2.87226E-05 7.64420E-07 5.65177E-19 1.53814E-18
 -1      3808 9.49330E-05-2.79860E-05-2.86934E-05 4.63150E-07-6.95306E-19 1.09159E-18
 -1      3809 9.48918E-05-2.79114E-05-2.87047E-05 5.52076E-07-4.61183E-21 6.19158E-19
 -1      3810 9.47624E-05-2.77774E-05-2.87065E-05 5.54956E-07-6.55848E-19 1.08867E-18
 -1      3811 9.50256E-05-2.81256E-05-2.86729E-05 3.23178E-07-9.31551E-19 6.85932E-19
 -1      3812 9.49931E-05-2.80625E-05-2.86837E-05 3.91796E-07-1.11109E-18 7.56490E-19
 -1      3813 9.48981E-05-2.79568E-05-2.86881E-05 3.94408E-07-5.47948E-19 1.82443E-18
 -1      3814 9.50958E-05-2.82402E-05-2.86535E-05 2.17483E-07-6.49574E-20 4.08399E-19
 -1      3815 9.50714E-05-2.81886E-05-2.86634E-05 2.69484E-07-7.39601E-19 7.51271E-19
 -1      3816 9.50033E-05-2.81069E-05-2.86691E-05 2.72760E-07-4.86627E-19 1.22655E-18
 -1      3817 9.51472E-05-2.83322E-05-2.86359E-05 1.39297E-07-5.38962E-19 6.46828E-19
 -1      3818 9.51295E-05-2.82909E-05-2.86446E-05 1.77590E-07-9.04653E-20 8.44062E-19
 -1      3819 9.50821E-05-2.82288E-05-2.86508E-05 1.81626E-07-2.72191E-19 1.47619E-18
 -1      3820 9.51827E-05-2.84041E-05-2.86201E-05 8.08310E-08-2.32621E-19-9.47273E-20
 -1      3821 9.51705E-05-2.83712E-05-2.86278E-05 1.10123E-07-4.68004E-19 2.94380E-19
 -1      3822 9.51382E-05-2.83247E-05-2.86338E-05 1.15108E-07-3.57167E-19 6.83188E-19
 -1      3823 6.27072E-05-1.23383E-05-2.15652E-05-5.67718E-06-1.70197E-18 9.31736E-21
 -1      3824 1.01526E-04-4.15245E-05-2.58295E-05 2.08298E-05-2.79849E-18-1.91803E-18
 -1      3825 9.38147E-05-3.61842E-05-2.46596E-05 2.25624E-05-2.00735E-18-1.64489E-18
 -1      3826 1.15261E-04-3.25225E-05-3.56326E-05-1.14812E-05 3.73814E-19-1.47439E-18
 -1      3827 1.17207E-04-3.78466E-05-3.39891E-05-9.32148E-06 5.80615E-20-1.82846E-18
 -1      3828 9.47956E-05-2.42336E-05-3.02455E-05-1.07049E-06 6.36453E-19-1.08919E-18
 -1      3829 9.45530E-05-2.34037E-05-3.04901E-05-2.85947E-07 7.68413E-19-1.07816E-18
 -1      3830 9.51666E-05-2.83836E-05-2.86215E-05-5.35481E-08-4.87284E-19 2.30934E-18
 -1      3831 9.51569E-05-2.83720E-05-2.86222E-05-4.28805E-08-4.44571E-19 3.58497E-18
 -1      3832 9.51570E-05-2.83602E-05-2.86267E-05-6.71851E-08 5.91247E-19 2.25437E-18
 -1      3833 9.20459E-05-1.90325E-05-3.12970E-05-7.65681E-07-1.70604E-19-1.85564E-18
 -1      3834 9.22666E-05-1.93611E-05-3.12605E-05-1.01509E-06-2.49463E-19-1.82554E-18
 -1      3835 9.26895E-05-2.03493E-05-3.09866E-05-5.84179E-07-2.53164E-19-1.66068E-18
 -1      3836 9.24496E-05-1.99718E-05-3.10412E-05-5.32142E-07-2.07872E-19-1.83858E-18
 -1      3837 9.61116E-05-2.78196E-05-2.92661E-05-3.99114E-06 2.04748E-19-3.49830E-19
 -1      3838 9.59300E-05-2.73773E-05-2.93713E-05-3.56317E-06 2.21179E-19-5.86074E-19
 -1      3839 9.55913E-05-2.67663E-05-2.95026E-05-3.29520E-06 2.21325E-19-5.75056E-19
 -1      3840 9.58733E-05-2.77197E-05-2.92192E-05-4.29252E-06 8.84608E-21-3.77193E-19
 -1      3841 5.34917E-05-1.15460E-05-1.78070E-05 4.80291E-06 7.38586E-19-8.85149E-19
 -1      3842 9.30305E-05-2.34134E-05-2.98441E-05 1.79196E-06-5.05591E-19-1.05847E-18
 -1      3843 9.25765E-05-2.34196E-05-2.96510E-05 2.29503E-06-4.98517E-19-9.75282E-19
 -1      3844 9.19987E-05-2.30269E-05-2.95414E-05 1.72321E-06-4.85022E-19-7.60721E-19
 -1      3845 1.22592E-04-3.98755E-05-3.54248E-05 8.94615E-06 8.95684E-19 2.22902E-19
 -1      3846 9.51834E-05-2.84167E-05-2.86141E-05 5.22440E-08-9.06945E-19-4.13423E-19
 -1      3847 1.22502E-04-4.88371E-05-3.14082E-05-1.91327E-06-7.04202E-19 5.28879E-19
 -1      3848 1.21866E-04-4.52945E-05-3.31017E-05 3.88749E-06-9.53011E-20 3.40878E-19
 -1      3849 1.15069E-04-4.33671E-05-3.06976E-05-1.18235E-06-4.82455E-19-1.02728E-18
 -1      3850 1.16146E-04-4.25579E-05-3.15455E-05-3.69611E-06-4.58134E-19-1.50048E-18
 -1      3851 9.34166E-05-2.19452E-05-3.06432E-05-1.19958E-07-3.20653E-19-1.53046E-18
 -1      3852 9.35486E-05-2.25647E-05-3.04179E-05 5.14557E-07-3.14832E-19-1.38009E-18
 -1      3853 9.30648E-05-2.13947E-05-3.07133E-05-1.86625E-07-2.71593E-19-1.56027E-18
 -1      3854 7.36772E-05-2.23401E-05-2.17468E-05-2.02675E-05-5.43099E-19-1.79312E-18
 -1      3855 8.32278E-05-3.00519E-05-2.30665E-05-2.38710E-05-6.47543E-19-1.36687E-18
 -1      3856 1.17336E-04-4.10192E-05-3.28074E-05-6.74689E-06 2.45309E-20-1.93234E-18
 -1      3857 9.34405E-05-2.08243E-05-3.11303E-05 1.24570E-06 8.71047E-19-1.35194E-18
 -1      3858 9.29958E-05-2.01780E-05-3.12154E-05 9.26603E-07 6.21054E-19-1.42541E-18
 -1      3859 9.33164E-05-2.10046E-05-3.09779E-05 2.92743E-07 4.87364E-19-1.38444E-18
 -1      3860 9.38444E-05-2.16483E-05-3.09345E-05 8.13698E-07 8.68961E-19-1.28562E-18
 -1      3861 9.34835E-05-2.29627E-05-3.02319E-05 8.79498E-07-4.04534E-19-1.27239E-18
 -1      3862 9.32859E-05-2.32671E-05-3.00137E-05 1.49819E-06-6.00847E-19-1.19510E-18
 -1      3863 9.28274E-05-2.29468E-05-2.99348E-05 1.20538E-06-3.69416E-19-1.13105E-18
 -1      3864 9.31477E-05-2.24440E-05-3.02944E-05 5.79991E-07-2.98506E-19-1.35108E-18
 -1      3865 1.01099E-04-3.47550E-05-2.84246E-05-7.09190E-06-5.47135E-19-2.15263E-19
 -1      3866 9.97227E-05-3.33439E-05-2.84152E-05-7.22101E-06-1.35646E-19-3.57759E-19
 -1      3867 1.01131E-04-3.55300E-05-2.81797E-05-8.60467E-06-3.92529E-19-8.96444E-19
 -1      3868 9.60276E-05-2.86147E-05-2.88811E-05-5.45293E-06-8.94883E-20-3.60792E-19
 -1      3869 9.56859E-05-2.80160E-05-2.89947E-05-5.04701E-06-1.13542E-19-4.40625E-19
 -1      3870 9.55257E-05-2.85107E-05-2.87396E-05-5.95279E-06-3.60305E-20-7.02395E-19
 -1      3871 1.02795E-04-4.03773E-05-2.68049E-05-1.61923E-05-8.71243E-19-1.06260E-18
 -1      3872 1.08532E-04-4.43875E-05-2.73166E-05-1.52786E-05-1.25113E-18-8.01502E-19
 -1      3873 1.10643E-04-4.54359E-05-2.80747E-05-1.24960E-05-1.27919E-18-7.60106E-19
 -1      3874 1.16539E-04-4.69685E-05-2.98409E-05 5.67512E-06-1.47136E-18-2.54269E-18
 -1      3875 1.20550E-04-4.19935E-05-3.37259E-05 6.34265E-06 1.56043E-19-5.70424E-20
 -1      3876 1.16964E-04-4.20369E-05-3.21122E-05 4.96805E-06-4.02837E-19 3.25322E-19
 -1      3877 1.13535E-04-2.73566E-05-3.69890E-05-1.22261E-05 3.60227E-19-1.82170E-18
 -1      3878 8.83827E-05-3.14715E-05-2.43464E-05 2.15209E-05-2.35186E-18-1.66169E-18
 -1      3879 8.30121E-05-2.63609E-05-2.43211E-05 1.82706E-05-1.88393E-18-1.50643E-18
 -1      3880 9.28681E-05-3.30411E-05-2.55566E-05 1.81360E-05-2.09500E-18-1.76399E-18
 -1      3881 7.38608E-05-2.03101E-05-2.27853E-05-1.53694E-05-3.18368E-19-1.50299E-18
 -1      3882 9.49746E-05-2.49404E-05-3.00125E-05-1.70120E-06 4.80345E-19-1.02561E-18
 -1      3883 9.45302E-05-2.40572E-05-3.02051E-05-1.35341E-06 5.06871E-19-1.00248E-18
 -1      3884 9.51144E-05-2.55457E-05-2.98151E-05-2.36900E-06 3.84586E-19-8.81451E-19
 -1      3885 9.27420E-05-2.08678E-05-3.08084E-05-4.60588E-07 1.72101E-19-1.90678E-18
 -1      3886 9.26343E-05-2.07676E-05-3.08124E-05-5.24579E-07 5.65233E-20-1.98028E-18
 -1      3887 6.94427E-05-1.40070E-05-2.37494E-05 5.78434E-07-1.13483E-18-3.18431E-20
 -1      3888 7.13478E-05-1.48635E-05-2.40220E-05 4.17148E-06-8.76778E-19 4.03148E-19
 -1      3889 1.16388E-04-4.36465E-05-3.11674E-05 2.42572E-06-7.40022E-19-1.39128E-19
 -1      3890 1.16572E-04-4.56140E-05-3.05214E-05-1.62780E-06-6.05820E-19-1.83331E-19
 -1      3891 8.93350E-05-3.19046E-05-2.45669E-05-2.03642E-05-3.06044E-19-1.29250E-18
 -1      3892 1.14616E-04-4.46077E-05-3.00669E-05 2.66549E-06-9.86236E-19-1.74284E-18
 -1      3893 7.58616E-05-2.11003E-05-2.34172E-05 1.60176E-05-1.21363E-18-2.69707E-19
 -1      3894 7.08305E-05-1.82055E-05-2.23888E-05 1.51503E-05-1.73878E-18-1.69910E-19
 -1      3895 6.96481E-05-1.64552E-05-2.29167E-05 1.09273E-05-1.07806E-18-2.20308E-19
 -1      3896 6.59653E-05-1.33151E-05-2.25360E-05-1.20839E-07-1.27719E-18 7.38507E-20
 -1      3897 9.51491E-05-2.83643E-05-2.86224E-05-2.56348E-08-1.20781E-18 8.63486E-19
 -1      3898 9.51450E-05-2.83598E-05-2.86225E-05-1.24711E-08-2.33324E-19-2.55749E-18
 -1      3899 9.51353E-05-2.83367E-05-2.86276E-05-3.45428E-08 6.30752E-19 2.04576E-18
 -1      3900 9.51655E-05-2.83832E-05-2.86208E-05 5.97872E-08-1.62683E-18 8.92637E-20
 -1      3901 1.17967E-04-4.77260E-05-3.00831E-05-5.20358E-06-1.12734E-18 2.33000E-20
 -1      3902 1.05578E-04-4.25884E-05-2.69634E-05 1.62616E-05-2.65211E-18-1.55617E-18
 -1      3903 9.82520E-05-3.24158E-05-2.82586E-05-8.03121E-06-6.15691E-20-6.72014E-19
 -1      3904 9.51453E-05-2.83549E-05-2.86240E-05 4.75833E-08-1.20594E-18-9.49755E-19
 -1      3905 9.51386E-05-2.83387E-05-2.86291E-05 7.47562E-08 6.25698E-20 1.30459E-19
 -1      3906 9.51398E-05-2.83500E-05-2.86246E-05 3.55607E-08-1.09560E-18-1.30192E-18
 -1      3907 9.32207E-05-2.14498E-05-3.07619E-05-3.96264E-07 3.22353E-19-1.46671E-18
 -1      3908 9.29398E-05-2.11242E-05-3.07920E-05-4.99078E-07 2.41590E-19-1.66173E-18
 -1      3909 9.31240E-05-2.17868E-05-3.05558E-05-7.04751E-07 2.10505E-19-1.65587E-18
 -1      3910 9.95432E-05-3.71362E-05-2.65561E-05-1.62492E-05-3.77188E-19-8.66023E-19
 -1      3911 1.03364E-04-3.97139E-05-2.74247E-05-1.33991E-05-7.52478E-19-9.92630E-19
 -1      3912 1.10941E-04-4.40132E-05-2.86441E-05-8.56670E-06-8.72252E-19-7.64384E-19
 -1      3913 1.14755E-04-4.65963E-05-2.90830E-05-7.98983E-06-9.91333E-19-3.75997E-19
 -1      3914 9.08728E-05-2.27927E-05-2.91809E-05 1.01819E-06-3.74332E-19-1.08133E-18
 -1      3915 8.99492E-05-2.24895E-05-2.89367E-05 1.02156E-06-3.13757E-19-1.06439E-18
 -1      3916 8.52195E-05-2.74763E-05-2.45606E-05-1.82322E-05-4.50334E-20-1.62753E-18
 -1      3917 9.31765E-05-3.35982E-05-2.57102E-05-1.80293E-05 4.50813E-20-9.72189E-19
 -1      3918 1.11829E-04-4.47035E-05-2.86440E-05 8.78232E-06-1.81439E-18-1.95831E-18
 -1      3919 8.63028E-05-2.10252E-05-2.79790E-05-7.68264E-08 1.71970E-19-1.08750E-18
 -1      3920 8.45867E-05-2.03548E-05-2.75750E-05-5.79190E-07 3.64096E-19-1.18634E-18
 -1      3921 8.29802E-05-1.97394E-05-2.71053E-05-1.51173E-06 3.16456E-19-1.36860E-18
 -1      3922 8.07279E-05-1.89679E-05-2.65268E-05-2.37585E-06 1.56476E-19-1.31904E-18
 -1      3923 8.44859E-05-2.07144E-05-2.72877E-05-3.02030E-06 1.39685E-19-1.49807E-18
 -1      3924 7.87286E-05-1.83604E-05-2.58655E-05-3.74110E-06 2.10996E-19-1.21754E-18
 -1      3925 7.57193E-05-1.75285E-05-2.49844E-05-5.15150E-06 2.29774E-19-1.02429E-18
 -1      3926 8.09353E-05-1.97546E-05-2.61754E-05-5.72161E-06 2.60257E-19-1.37411E-18
 -1      3927 9.51151E-05-2.82948E-05-2.86371E-05 1.01871E-07-1.81778E-20 8.72068E-19
 -1      3928 1.08033E-04-4.19707E-05-2.81690E-05-1.00765E-05-9.78574E-19-9.83743E-19
 -1      3929 7.74449E-05-1.73559E-05-2.58765E-05 3.07052E-06-1.36183E-18 3.83254E-19
 -1      3930 8.00840E-05-1.82693E-05-2.65022E-05 2.18358E-06-1.15629E-18 5.73349E-19
 -1      3931 8.18358E-05-1.89761E-05-2.69931E-05 1.16695E-06-2.91292E-19 1.14115E-18
 -1      3932 8.37019E-05-1.97991E-05-2.73958E-05 6.17515E-07 6.35948E-19 1.08766E-18
 -1      3933 8.16270E-05-1.93092E-05-2.66510E-05 3.81365E-06-1.50317E-19 1.43278E-18
 -1      3934 8.50895E-05-2.05113E-05-2.77145E-05-2.64526E-08-1.50739E-19 6.55901E-19
 -1      3935 8.64909E-05-2.12549E-05-2.79658E-05-3.28644E-07-4.67763E-19 8.44620E-19
 -1      3936 8.46687E-05-2.05245E-05-2.74510E-05 1.88224E-06-4.64056E-19 6.79855E-19
 -1      3937 8.75863E-05-2.19162E-05-2.81708E-05-7.09088E-07-3.42251E-19 6.32101E-19
 -1      3938 8.86442E-05-2.25689E-05-2.83242E-05-8.38069E-07-4.15915E-20 3.39348E-20
 -1      3939 8.70877E-05-2.17470E-05-2.79735E-05 6.63962E-07-4.74565E-19 5.43150E-19
 -1      3940 8.95458E-05-2.31857E-05-2.84579E-05-1.04570E-06 5.32606E-19-7.94077E-19
 -1      3941 9.03731E-05-2.37706E-05-2.85497E-05-1.05952E-06 5.49817E-19-7.66242E-19
 -1      3942 8.90445E-05-2.29265E-05-2.83150E-05-6.47129E-08-4.42920E-20-3.37436E-19
 -1      3943 9.10393E-05-2.42779E-05-2.86241E-05-1.13682E-06 4.54372E-19-1.31716E-18
 -1      3944 9.16261E-05-2.47422E-05-2.86701E-05-1.08264E-06 6.98159E-19-1.38565E-18
 -1      3945 9.05767E-05-2.39780E-05-2.85253E-05-4.51426E-07 1.18661E-20-1.60068E-18
 -1      3946 9.21440E-05-2.51692E-05-2.87112E-05-1.09003E-06 2.57988E-19-1.75273E-18
 -1      3947 9.25814E-05-2.55528E-05-2.87315E-05-1.00236E-06-2.20196E-19-1.13594E-18
 -1      3948 9.17405E-05-2.48735E-05-2.86446E-05-6.08312E-07 2.03916E-19-2.50784E-18
 -1      3949 9.29803E-05-2.59065E-05-2.87508E-05-9.70347E-07-7.30995E-20-7.36209E-19
 -1      3950 9.33044E-05-2.62184E-05-2.87555E-05-8.70871E-07-1.25373E-19-1.03485E-18
 -1      3951 9.26417E-05-2.56339E-05-2.87081E-05-6.35283E-07-1.26655E-19-8.86465E-19
 -1      3952 9.36089E-05-2.65069E-05-2.87610E-05-8.20116E-07-1.09030E-18-2.36524E-19
 -1      3953 9.38476E-05-2.67574E-05-2.87566E-05-7.22026E-07-1.63466E-18-2.54190E-19
 -1      3954 9.33336E-05-2.62676E-05-2.87354E-05-5.89651E-07-4.25404E-19-2.31896E-20
 -1      3955 9.40777E-05-2.69896E-05-2.87538E-05-6.65604E-07-1.74303E-18 4.16195E-19
 -1      3956 9.42522E-05-2.71887E-05-2.87445E-05-5.76267E-07-8.26320E-19 4.60381E-19
 -1      3957 9.38599E-05-2.67870E-05-2.87402E-05-5.09141E-07-9.80536E-19 2.42431E-19
 -1      3958 9.44243E-05-2.73733E-05-2.87371E-05-5.21812E-07 4.62354E-19 2.79171E-19
 -1      3959 9.45508E-05-2.75300E-05-2.87256E-05-4.44644E-07 2.64187E-18 4.29806E-19
 -1      3960 9.42560E-05-2.72066E-05-2.87316E-05-4.17297E-07 5.83099E-20 1.96633E-18
 -1      3961 9.46779E-05-2.76749E-05-2.87160E-05-3.96133E-07 2.75028E-18-4.45889E-19
 -1      3962 9.47685E-05-2.77970E-05-2.87040E-05-3.32053E-07 1.68424E-18 6.17071E-20
 -1      3963 9.45508E-05-2.75411E-05-2.87156E-05-3.27806E-07 1.71870E-18 7.22441E-19
 -1      3964 9.48610E-05-2.79096E-05-2.86937E-05-2.91132E-07 1.05426E-18-1.17143E-19
 -1      3965 9.49250E-05-2.80037E-05-2.86821E-05-2.39588E-07-2.52053E-19 8.96483E-19
 -1      3966 9.47673E-05-2.78044E-05-2.86963E-05-2.47843E-07 1.13219E-18-9.43190E-19
 -1      3967 9.49912E-05-2.80902E-05-2.86719E-05-2.06330E-07-9.67536E-19 1.47937E-18
 -1      3968 9.50357E-05-2.81622E-05-2.86612E-05-1.66044E-07-1.08856E-18 2.52556E-18
 -1      3969 9.49236E-05-2.80091E-05-2.86762E-05-1.80194E-07 2.64609E-19-1.83872E-19
 -1      3970 9.50821E-05-2.82278E-05-2.86517E-05-1.40079E-07-8.31549E-19 3.17089E-18
 -1      3971 9.51119E-05-2.82819E-05-2.86421E-05-1.09910E-07-4.10147E-19 2.22297E-18
 -1      3972 9.50344E-05-2.81667E-05-2.86567E-05-1.25684E-07-7.14802E-19 3.47108E-18
 -1      3973 9.51301E-05-2.83093E-05-2.86371E-05-9.62240E-08 6.10862E-20 1.82078E-18
 -1      3974 9.51421E-05-2.83361E-05-2.86315E-05-7.83022E-08 7.47475E-19 2.02279E-18
 -1      3975 9.51286E-05-2.83201E-05-2.86323E-05-6.31151E-08 1.23988E-18 3.53072E-18
 -1      3976 9.50961E-05-2.82640E-05-2.86422E-05-8.78577E-08-8.44747E-19 3.09125E-18
 -1      3977 1.04295E-04-3.92520E-05-2.78555E-05-1.08237E-05-5.13510E-19-1.18598E-18
 -1      3978 1.01861E-04-3.70356E-05-2.77143E-05-1.10578E-05-2.11477E-19-1.08783E-18
 -1      3979 9.57933E-05-2.97993E-05-2.82559E-05-7.68428E-06 9.17058E-20-8.34078E-19
 -1      3980 9.51147E-05-2.88571E-05-2.83907E-05-7.08865E-06 1.74367E-19-8.72958E-19
 -1      3981 9.65113E-05-3.15828E-05-2.78026E-05 8.76765E-06-1.49933E-18-5.85981E-19
 -1      3982 9.80864E-05-3.32039E-05-2.77787E-05 9.17262E-06-4.92985E-19 3.52149E-19
 -1      3983 9.98760E-05-3.50784E-05-2.77265E-05 9.95762E-06 2.56742E-19 8.35873E-19
 -1      3984 1.02160E-04-3.71716E-05-2.78226E-05 9.95375E-06 1.83983E-19 1.29516E-18
 -1      3985 9.71167E-05-3.33138E-05-2.73745E-05 1.12100E-05-1.96871E-19 2.72141E-19
 -1      3986 9.44841E-05-2.91605E-05-2.79875E-05 7.27444E-06-1.08981E-18-4.10135E-19
 -1      3987 9.54725E-05-3.02707E-05-2.79181E-05 7.84808E-06-1.51854E-18-2.70612E-19
 -1      3988 9.43932E-05-3.00801E-05-2.75959E-05 9.25761E-06-1.48887E-18-4.10685E-19
 -1      3989 9.34249E-05-2.76523E-05-2.81874E-05 5.84503E-06-1.43624E-18 2.94964E-19
 -1      3990 9.39889E-05-2.83493E-05-2.81092E-05 6.42677E-06-1.30201E-18-5.93928E-20
 -1      3991 9.29518E-05-2.79872E-05-2.78653E-05 7.31084E-06-1.34218E-18-2.14383E-19
 -1      3992 9.29878E-05-2.68117E-05-2.83646E-05 4.59743E-06 6.81106E-20 2.72504E-19
 -1      3993 9.32591E-05-2.71988E-05-2.82948E-05 5.12242E-06-6.47993E-19 5.79661E-19
 -1      3994 9.23417E-05-2.67726E-05-2.81134E-05 5.65341E-06-1.01143E-18-4.74222E-19
 -1      3995 9.29389E-05-2.64409E-05-2.85045E-05 3.55938E-06 1.36760E-19-3.28151E-19
 -1      3996 9.30216E-05-2.66092E-05-2.84501E-05 4.00722E-06 1.68034E-19-1.57864E-19
 -1      3997 9.22408E-05-2.61738E-05-2.83194E-05 4.29633E-06 5.63847E-19-1.67968E-18
 -1      3998 9.31109E-05-2.63799E-05-2.86049E-05 2.72347E-06 1.33659E-19-2.62918E-19
 -1      3999 9.30810E-05-2.64046E-05-2.85668E-05 3.09308E-06-1.11505E-19 4.10279E-20
 -1      4000 9.24356E-05-2.59942E-05-2.84756E-05 3.22586E-06 3.56458E-19-1.03584E-18
 -1      4001 9.33904E-05-2.65067E-05-2.86701E-05 2.06361E-06 1.29600E-18-7.96511E-19
 -1      4002 9.33012E-05-2.64450E-05-2.86467E-05 2.36244E-06 1.38015E-18-3.49222E-19
 -1      4003 9.27783E-05-2.60760E-05-2.85851E-05 2.40093E-06 6.57572E-19 4.65187E-19
 -1      4004 9.37056E-05-2.67344E-05-2.87069E-05 1.54930E-06 9.15169E-19-9.58566E-19
 -1      4005 9.35918E-05-2.66268E-05-2.86953E-05 1.78757E-06 6.63275E-19-1.04294E-18
 -1      4006 9.31751E-05-2.63057E-05-2.86557E-05 1.77417E-06 1.34782E-18-3.70832E-19
 -1      4007 9.40134E-05-2.70040E-05-2.87226E-05 1.15205E-06-1.35805E-19 2.19576E-20
 -1      4008 9.38965E-05-2.68778E-05-2.87196E-05 1.34006E-06 3.09941E-19-7.63379E-19
 -1      4009 9.35692E-05-2.66053E-05-2.86958E-05 1.30220E-06 2.59171E-19-6.61511E-19
 -1      4010 9.42906E-05-2.72775E-05-2.87235E-05 8.47409E-07 2.45670E-19 4.54392E-19
 -1      4011 9.41826E-05-2.71503E-05-2.87264E-05 9.94443E-07-9.89852E-20 6.44212E-20
 -1      4012 9.39292E-05-2.69237E-05-2.87137E-05 9.48880E-07-1.44997E-20-8.98611E-19
 -1      4013 9.45268E-05-2.75326E-05-2.87147E-05 6.15287E-07-9.72804E-20 1.34475E-18
 -1      4014 9.44335E-05-2.74145E-05-2.87213E-05 7.29314E-07 6.89894E-19 1.21512E-18
 -1      4015 9.42402E-05-2.72297E-05-2.87162E-05 6.85469E-07 7.28120E-20 5.66635E-19
 -1      4016 9.47196E-05-2.77577E-05-2.87002E-05 4.39583E-07-1.12760E-18 2.13112E-18
 -1      4017 9.46429E-05-2.76539E-05-2.87088E-05 5.27243E-07-8.66415E-19 1.21519E-18
 -1      4018 9.44978E-05-2.75057E-05-2.87087E-05 4.89758E-07-5.98679E-19 1.73216E-18
 -1      4019 9.48714E-05-2.79486E-05-2.86830E-05 3.07527E-07 3.53207E-20 1.78600E-18
 -1      4020 9.48109E-05-2.78609E-05-2.86924E-05 3.74289E-07-4.22064E-19 2.46102E-18
 -1      4021 9.47038E-05-2.77439E-05-2.86953E-05 3.44856E-07-6.02293E-19 1.67508E-18
 -1      4022 9.49871E-05-2.81052E-05-2.86650E-05 2.08991E-07-1.23704E-19 7.31642E-19
 -1      4023 9.49411E-05-2.80333E-05-2.86743E-05 2.59649E-07 2.62582E-19 1.23295E-18
 -1      4024 9.48636E-05-2.79429E-05-2.86790E-05 2.38214E-07 3.34569E-19 9.89177E-19
 -1      4025 9.50720E-05-2.82304E-05-2.86474E-05 1.35871E-07-5.01882E-19 8.94253E-19
 -1      4026 9.50387E-05-2.81731E-05-2.86563E-05 1.74688E-07-3.33899E-19 5.50273E-19
 -1      4027 9.49837E-05-2.81050E-05-2.86616E-05 1.60693E-07 7.72112E-21 3.28609E-19
 -1      4028 9.51328E-05-2.83411E-05-2.86254E-05 6.39872E-09-5.38163E-19-1.13228E-19
 -1      4029 9.51347E-05-2.83426E-05-2.86252E-05 1.91174E-08-9.96068E-19 1.39660E-19
 -1      4030 9.51127E-05-2.83008E-05-2.86330E-05 4.25516E-08-5.86346E-19-1.00416E-18
 -1      4031 9.41533E-05-2.24055E-05-3.07533E-05 3.51856E-07 8.59406E-19-1.22722E-18
 -1      4032 9.39578E-05-2.23078E-05-3.07037E-05-7.99691E-08 7.33095E-19-1.09646E-18
 -1      4033 9.37024E-05-2.20543E-05-3.07154E-05-2.89961E-07 5.52883E-19-1.22534E-18
 -1      4034 9.99316E-05-3.49722E-05-2.77927E-05-1.03119E-05-2.32362E-19-1.00928E-18
 -1      4035 9.81377E-05-3.31832E-05-2.78100E-05-1.00085E-05-2.93316E-19-8.27280E-19
 -1      4036 9.81527E-05-3.47455E-05-2.72891E-05-1.27259E-05-2.01935E-19-8.31414E-19
 -1      4037 9.28698E-05-2.11577E-05-3.07482E-05-3.50303E-07-3.27976E-19-1.61479E-18
 -1      4038 9.30289E-05-2.18036E-05-3.05162E-05 5.53472E-08-2.62690E-19-1.54025E-18
 -1      4039 9.27163E-05-2.08951E-05-3.07828E-05-3.63686E-07-3.23122E-19-1.72324E-18
 -1      4040 7.51676E-05-1.80716E-05-2.43619E-05-7.96032E-06 2.04754E-19-1.16706E-18
 -1      4041 7.29287E-05-1.83467E-05-2.33950E-05-1.17653E-05 4.75728E-20-1.32584E-18
 -1      4042 7.84282E-05-2.32329E-05-2.38201E-05-1.66739E-05-1.88797E-19-1.85213E-18
 -1      4043 7.81409E-05-2.00822E-05-2.49166E-05-1.02509E-05 3.74935E-19-1.60178E-18
 -1      4044 9.21726E-05-2.29925E-05-2.96535E-05 9.20841E-07-3.18656E-19-1.10090E-18
 -1      4045 9.15653E-05-2.29408E-05-2.94269E-05 1.09723E-06-4.30943E-19-1.00010E-18
 -1      4046 9.12266E-05-2.28335E-05-2.92926E-05 2.15542E-07-3.79220E-19-1.34064E-18
 -1      4047 9.38258E-05-2.26314E-05-3.05009E-05-7.58909E-07 4.71549E-19-1.13333E-18
 -1      4048 8.89532E-05-2.21057E-05-2.86515E-05 7.31654E-07-2.20961E-19-1.06499E-18
 -1      4049 8.76099E-05-2.15687E-05-2.83376E-05 4.99246E-07-4.55111E-20-1.05045E-18
 -1      4050 8.73188E-05-2.16518E-05-2.81115E-05-1.29031E-06-6.09645E-20-1.20700E-18
 -1      4051 8.95693E-05-2.24120E-05-2.87568E-05-2.63701E-07-2.08147E-19-1.35360E-18
 -1      4052 9.73395E-05-3.19621E-05-2.79793E-05-9.05300E-06-8.77928E-20-8.66281E-19
 -1      4053 9.61743E-05-3.06338E-05-2.80769E-05-8.52710E-06 9.79382E-21-8.64519E-19
 -1      4054 9.45361E-05-2.93233E-05-2.79817E-05-8.59749E-06 1.25581E-19-1.17179E-18
 -1      4055 9.55604E-05-3.13093E-05-2.75972E-05-1.05428E-05-4.89087E-20-9.64210E-19
 -1      4056 1.07105E-04-4.13521E-05-2.81821E-05 9.54023E-06-1.62355E-18-1.03464E-18
 -1      4057 1.07406E-04-4.29737E-05-2.77274E-05 1.30154E-05-2.35581E-18-1.07306E-18
 -1      4058 1.00782E-04-3.84992E-05-2.66507E-05 1.60042E-05-1.74339E-18-1.31000E-18
 -1      4059 1.04197E-04-3.89333E-05-2.78831E-05 1.02741E-05-9.34032E-19 5.30918E-19
 -1      4060 9.50779E-05-2.82454E-05-2.86425E-05 9.30805E-08-5.36330E-19-6.07682E-19
 -1      4061 9.39627E-05-2.78083E-05-2.83702E-05-6.86305E-06 1.88574E-19-9.08328E-19
 -1      4062 9.48794E-05-2.81512E-05-2.85796E-05-6.29539E-06 8.57044E-20-7.16062E-19
 -1      4063 9.45414E-05-2.74948E-05-2.87334E-05-5.70058E-06-8.49543E-20-5.92460E-19
 -1      4064 9.50780E-05-2.73315E-05-2.90458E-05-4.83434E-06-4.01943E-20-5.55730E-19
 -1      4065 9.55472E-05-2.75212E-05-2.91482E-05-4.51890E-06-4.38964E-21-4.02731E-19
 -1      4066 9.53612E-05-2.70246E-05-2.92836E-05-4.04459E-06 1.35214E-19-4.06301E-19
 -1      4067 9.49352E-05-3.33076E-05-2.64154E-05-1.53253E-05-4.12962E-20-7.99012E-19
 -1      4068 9.33005E-05-2.25601E-05-3.03209E-05-1.03211E-06 7.68050E-20-1.46476E-18
 -1      4069 9.30563E-05-2.23015E-05-3.03359E-05-9.07923E-07-1.95260E-20-1.71673E-18
 -1      4070 7.44182E-05-1.68226E-05-2.46170E-05 6.38550E-06-9.84093E-19 4.37479E-20
 -1      4071 7.69145E-05-1.83725E-05-2.49713E-05 8.63172E-06-9.18174E-19 7.12269E-20
 -1      4072 9.51029E-05-2.82818E-05-2.86372E-05-5.12189E-08 8.75557E-19 2.78233E-18
 -1      4073 9.51174E-05-2.83095E-05-2.86324E-05-4.05433E-08 1.07377E-18 2.97341E-18
 -1      4074 9.51106E-05-2.83006E-05-2.86324E-05-2.07938E-08 1.37488E-19-3.15993E-20
 -1      4075 9.53031E-05-2.65655E-05-2.94558E-05-3.49588E-06 1.25215E-19-5.75689E-19
 -1      4076 9.51876E-05-2.60766E-05-2.96170E-05-2.93671E-06 2.41545E-19-7.09637E-19
 -1      4077 9.47873E-05-2.53411E-05-2.97667E-05-2.57424E-06 1.53382E-19-9.17811E-19
 -1      4078 9.49018E-05-2.63426E-05-2.93838E-05-3.72083E-06 1.02541E-19-5.57272E-19
 -1      4079 1.00927E-04-3.73154E-05-2.73449E-05 1.25686E-05-4.82599E-19 5.59719E-19
 -1      4080 8.39485E-05-2.53653E-05-2.50123E-05-1.50789E-05 8.35088E-20-1.84269E-18
 -1      4081 8.06834E-05-2.38508E-05-2.42996E-05 1.65381E-05-1.44806E-18-1.08909E-18
 -1      4082 7.80693E-05-2.13138E-05-2.44487E-05 1.37145E-05-1.20681E-18-1.11010E-18
 -1      4083 8.53429E-05-2.63053E-05-2.52721E-05 1.54121E-05-2.04535E-18-2.18918E-18
 -1      4084 9.50647E-05-2.82313E-05-2.86432E-05 6.40919E-08-1.00368E-19-1.47271E-18
 -1      4085 9.50194E-05-2.81591E-05-2.86537E-05 9.63908E-08-1.24593E-19-1.46236E-18
 -1      4086 9.50581E-05-2.82225E-05-2.86439E-05 4.22925E-08-2.95812E-20-1.80313E-18
 -1      4087 9.28565E-05-2.20358E-05-3.03519E-05 2.66657E-08-2.32495E-19-1.59255E-18
 -1      4088 9.29893E-05-2.22629E-05-3.03206E-05 2.52512E-07-1.79847E-19-1.49939E-18
 -1      4089 9.29059E-05-2.25888E-05-3.01334E-05 5.75557E-07-2.72122E-19-1.39822E-18
 -1      4090 9.88881E-05-3.60218E-05-2.68697E-05 1.41760E-05-1.17658E-18-5.91977E-19
 -1      4091 9.60697E-05-3.51764E-05-2.61223E-05 1.72226E-05-1.72486E-18-1.29866E-18
 -1      4092 9.10409E-05-3.08887E-05-2.58339E-05 1.62426E-05-1.64718E-18-1.07124E-18
 -1      4093 9.67876E-05-3.41439E-05-2.68458E-05 1.36710E-05-6.79631E-19 8.84723E-20
 -1      4094 9.25898E-05-2.07096E-05-3.08120E-05-4.54751E-07-9.81430E-20-1.83189E-18
 -1      4095 9.26400E-05-2.08169E-05-3.07943E-05-4.62405E-07-2.17148E-19-1.72828E-18
 -1      4096 9.28295E-05-2.14923E-05-3.05598E-05-2.79034E-07-2.23178E-19-1.57641E-18
 -1      4097 9.28600E-05-2.14873E-05-3.05700E-05-5.12879E-07 1.04877E-20-1.75363E-18
 -1      4098 9.30608E-05-2.27573E-05-3.01130E-05-1.02928E-06-1.12475E-19-1.62325E-18
 -1      4099 9.29043E-05-2.21140E-05-3.03425E-05-7.00566E-07 4.57543E-20-1.73452E-18
 -1      4100 9.28270E-05-2.20444E-05-3.03439E-05-5.77033E-07-9.59451E-20-1.51486E-18
 -1      4101 9.27185E-05-2.27932E-05-2.99791E-05 6.41927E-07-2.02749E-19-1.40292E-18
 -1      4102 9.24594E-05-2.29327E-05-2.98047E-05 9.01761E-07-1.84486E-19-1.23378E-18
 -1      4103 9.21566E-05-2.28244E-05-2.96944E-05 3.41398E-07-1.35184E-19-1.50664E-18
 -1      4104 9.26279E-05-2.26173E-05-3.00024E-05 3.04930E-07-1.67196E-20-1.49563E-18
 -1      4105 9.41465E-05-2.35485E-05-3.02576E-05-1.24752E-06 5.77579E-19-8.95277E-19
 -1      4106 9.36263E-05-2.29524E-05-3.02985E-05-1.23337E-06 1.80438E-19-1.10720E-18
 -1      4107 9.35504E-05-2.33344E-05-3.00833E-05-1.47986E-06 8.33431E-20-1.21543E-18
 -1      4108 9.43223E-05-2.42576E-05-3.00203E-05-1.86022E-06 3.04417E-19-8.42946E-19
 -1      4109 8.38565E-05-2.16129E-05-2.66341E-05-6.57931E-06 1.31224E-19-1.61629E-18
 -1      4110 8.19547E-05-2.13120E-05-2.59939E-05-8.42526E-06 3.10473E-19-1.61224E-18
 -1      4111 8.08448E-05-2.07783E-05-2.56707E-05 9.34899E-06-1.20453E-18-7.89220E-19
 -1      4112 8.17861E-05-2.02872E-05-2.64554E-05 5.99015E-06-1.58551E-19-2.79956E-19
 -1      4113 8.36464E-05-2.07320E-05-2.69357E-05 4.74057E-06 5.17366E-19-3.02315E-19
 -1      4114 9.51153E-05-2.83106E-05-2.86306E-05 3.92729E-09-3.89391E-19-7.72043E-19
 -1      4115 8.46046E-05-2.10584E-05-2.72852E-05 3.57635E-06-3.33290E-19-7.61121E-19
 -1      4116 8.59964E-05-2.15647E-05-2.76016E-05 2.72180E-06-9.50790E-19-9.44555E-19
 -1      4117 8.52597E-05-2.19273E-05-2.71231E-05 5.64793E-06-2.61133E-19-1.98579E-18
 -1      4118 8.68500E-05-2.19770E-05-2.78408E-05 1.93898E-06-1.16480E-18-4.74613E-19
 -1      4119 8.79554E-05-2.24945E-05-2.80484E-05 1.39870E-06-1.00956E-18-1.03979E-18
 -1      4120 8.70951E-05-2.24079E-05-2.76992E-05 3.49430E-06-1.25285E-18-1.86640E-18
 -1      4121 8.87313E-05-2.29575E-05-2.82158E-05 8.72409E-07-3.41384E-19-1.04104E-18
 -1      4122 8.96368E-05-2.34761E-05-2.83525E-05 5.43393E-07-4.24567E-20-1.43244E-18
 -1      4123 8.87305E-05-2.31080E-05-2.81016E-05 2.03419E-06-7.65556E-19-1.45755E-18
 -1      4124 9.02559E-05-2.39081E-05-2.84540E-05 2.40498E-07-3.69542E-19-1.70968E-18
 -1      4125 9.09276E-05-2.43529E-05-2.85327E-05 7.46844E-08-3.69569E-19-2.18424E-18
 -1      4126 9.01234E-05-2.38817E-05-2.83682E-05 1.09174E-06-4.59222E-20-2.66262E-18
 -1      4127 9.14413E-05-2.47491E-05-2.85955E-05-1.02392E-07 3.10369E-19-1.26867E-18
 -1      4128 9.19625E-05-2.51396E-05-2.86403E-05-1.74514E-07 1.40929E-19-1.50970E-18
 -1      4129 9.12561E-05-2.46361E-05-2.85337E-05 5.25785E-07 5.18038E-20-1.72649E-18
 -1      4130 9.23801E-05-2.54900E-05-2.86762E-05-2.68875E-07 5.75526E-19-1.10103E-18
 -1      4131 9.27811E-05-2.58234E-05-2.86986E-05-2.84393E-07 5.51535E-19-5.33779E-19
 -1      4132 9.21833E-05-2.53369E-05-2.86340E-05 1.90776E-07 8.56191E-19-1.01307E-18
 -1      4133 9.31148E-05-2.61243E-05-2.87163E-05-3.27071E-07-6.98153E-20-1.31257E-19
 -1      4134 9.34206E-05-2.64032E-05-2.87243E-05-3.10980E-07-6.14940E-19 9.60308E-20
 -1      4135 9.29297E-05-2.59612E-05-2.86892E-05 6.34486E-09 8.48578E-19-5.82427E-19
 -1      4136 9.36831E-05-2.66556E-05-2.87302E-05-3.23182E-07-8.84584E-19 1.20887E-19
 -1      4137 9.39141E-05-2.68848E-05-2.87292E-05-2.91809E-07-4.51978E-19 1.08867E-18
 -1      4138 9.35210E-05-2.64999E-05-2.87142E-05-8.36619E-08-7.43945E-20 3.33811E-19
 -1      4139 9.41174E-05-2.70924E-05-2.87277E-05-2.87459E-07-1.37894E-20 4.08177E-19
 -1      4140 9.42900E-05-2.72778E-05-2.87216E-05-2.50919E-07 8.92013E-19 7.06167E-19
 -1      4141 9.39822E-05-2.69532E-05-2.87197E-05-1.17307E-07-4.06382E-19-4.01791E-19
 -1      4142 9.44449E-05-2.74456E-05-2.87157E-05-2.38772E-07 7.91273E-19 4.90251E-19
 -1      4143 9.45723E-05-2.75934E-05-2.87070E-05-2.02918E-07 7.69949E-19-6.65131E-19
 -1      4144 9.43365E-05-2.73267E-05-2.87131E-05-1.19547E-07 8.05176E-19-1.72329E-18
 -1      4145 9.46884E-05-2.77269E-05-2.86988E-05-1.88154E-07 1.26347E-18-1.71061E-19
 -1      4146 9.47810E-05-2.78433E-05-2.86890E-05-1.56021E-07 8.69587E-19-4.33099E-19
 -1      4147 9.46041E-05-2.76288E-05-2.86997E-05-1.06106E-07 9.56632E-19-7.89214E-19
 -1      4148 9.48663E-05-2.79475E-05-2.86800E-05-1.42000E-07 8.36884E-19-5.16372E-19
 -1      4149 9.49323E-05-2.80379E-05-2.86702E-05-1.14318E-07 4.85586E-19 1.25624E-18
 -1      4150 9.48031E-05-2.78697E-05-2.86829E-05-8.67637E-08 1.78839E-18-9.86499E-20
 -1      4151 9.49941E-05-2.81188E-05-2.86611E-05-1.01817E-07 6.52810E-20 2.33927E-18
 -1      4152 9.50397E-05-2.81876E-05-2.86517E-05-8.03428E-08-6.46856E-19 2.27919E-18
 -1      4153 9.49471E-05-2.80578E-05-2.86650E-05-6.70670E-08 7.87852E-19 1.18789E-18
 -1      4154 9.50643E-05-2.82209E-05-2.86469E-05-7.13651E-08-7.66262E-19 2.15133E-18
 -1      4155 9.50824E-05-2.82528E-05-2.86418E-05-5.75631E-08 3.27500E-19 3.21466E-18
 -1      4156 9.50737E-05-2.82430E-05-2.86418E-05-3.37841E-08 5.73759E-20 2.15114E-18
 -1      4157 9.50286E-05-2.81735E-05-2.86512E-05-4.77224E-08 5.32621E-20 1.77072E-18
 -1      4158 9.36058E-05-3.02920E-05-2.71499E-05 1.10660E-05-9.33238E-19 8.63441E-19
 -1      4159 9.52810E-05-3.20976E-05-2.70413E-05 1.21143E-05 8.50408E-20 9.32828E-19
 -1      4160 9.28904E-05-3.08322E-05-2.66045E-05 1.35524E-05-7.73242E-19 8.17192E-19
 -1      4161 9.12427E-05-2.64989E-05-2.77629E-05 6.94274E-06-1.40331E-18-1.79311E-19
 -1      4162 9.17406E-05-2.72341E-05-2.76170E-05 7.89238E-06-1.49111E-18-2.41054E-19
 -1      4163 9.19640E-05-2.78728E-05-2.74676E-05 8.84667E-06-1.45116E-18-1.80925E-19
 -1      4164 9.29208E-05-2.91262E-05-2.73150E-05 9.99428E-06-1.32507E-18-2.32848E-19
 -1      4165 9.10126E-05-2.79867E-05-2.70380E-05 1.06105E-05-1.56580E-19 6.34482E-19
 -1      4166 9.01926E-05-2.64267E-05-2.73545E-05 8.49856E-06-1.38750E-18-2.08019E-20
 -1      4167 9.11713E-05-2.57229E-05-2.80651E-05 5.14649E-06-4.13433E-19-5.98237E-19
 -1      4168 9.13581E-05-2.60905E-05-2.79429E-05 5.90442E-06-7.23041E-19-3.63451E-19
 -1      4169 9.00044E-05-2.53537E-05-2.77071E-05 6.42009E-06-1.05657E-18-1.04831E-18
 -1      4170 9.14664E-05-2.54708E-05-2.82988E-05 3.76383E-06 4.31256E-19-4.26996E-19
 -1      4171 9.14453E-05-2.55912E-05-2.82037E-05 4.35737E-06 1.77928E-19-7.29737E-19
 -1      4172 9.03947E-05-2.49382E-05-2.80431E-05 4.57972E-06-1.76073E-19-7.98054E-19
 -1      4173 9.19369E-05-2.55424E-05-2.84676E-05 2.72545E-06 8.43554E-20 1.08310E-20
 -1      4174 9.18025E-05-2.55081E-05-2.83990E-05 3.17962E-06-2.31136E-19-1.56947E-19
 -1      4175 9.09928E-05-2.49478E-05-2.82917E-05 3.22369E-06-4.00355E-19 1.37301E-19
 -1      4176 9.24661E-05-2.57992E-05-2.85820E-05 1.95972E-06 7.14214E-19 1.53863E-19
 -1      4177 9.22806E-05-2.56774E-05-2.85361E-05 2.30233E-06 8.75674E-19 1.72829E-19
 -1      4178 9.16618E-05-2.52102E-05-2.84662E-05 2.24783E-06 5.39772E-19-2.16985E-21
 -1      4179 9.29862E-05-2.61469E-05-2.86538E-05 1.40085E-06 1.61555E-18-6.69293E-19
 -1      4180 9.27878E-05-2.59825E-05-2.86259E-05 1.65695E-06 1.38779E-18-1.06776E-19
 -1      4181 9.23169E-05-2.55981E-05-2.85820E-05 1.55489E-06 1.18578E-18-3.20132E-19
 -1      4182 9.34600E-05-2.65233E-05-2.86937E-05 9.96017E-07 4.80143E-19-6.17139E-19
 -1      4183 9.32708E-05-2.63459E-05-2.86792E-05 1.18641E-06 1.50911E-18-1.04483E-19
 -1      4184 9.29144E-05-2.60331E-05-2.86532E-05 1.06866E-06 1.12262E-18-7.64831E-20
 -1      4185 9.38699E-05-2.68895E-05-2.87109E-05 7.04140E-07-1.80438E-19-9.79524E-19
 -1      4186 9.37017E-05-2.67175E-05-2.87060E-05 8.45245E-07-2.42032E-19-9.46000E-19
 -1      4187 9.34336E-05-2.64655E-05-2.86921E-05 7.30524E-07 8.45508E-20-5.48841E-19
 -1      4188 9.42112E-05-2.72236E-05-2.87128E-05 4.94291E-07-3.74178E-19 9.32136E-19
 -1      4189 9.40688E-05-2.70672E-05-2.87142E-05 5.98688E-07-1.95197E-19 9.03114E-20
 -1      4190 9.38684E-05-2.68661E-05-2.87084E-05 4.96817E-07-8.37203E-19-2.36189E-19
 -1      4191 9.44862E-05-2.75148E-05-2.87049E-05 3.43671E-07-7.81694E-19 1.08945E-18
 -1      4192 9.43703E-05-2.73789E-05-2.87103E-05 4.20802E-07-6.74869E-20 1.26318E-18
 -1      4193 9.42219E-05-2.72201E-05-2.87096E-05 3.35904E-07-2.22549E-19 4.21519E-19
 -1      4194 9.47018E-05-2.77601E-05-2.86914E-05 2.35736E-07 2.48936E-19 3.36076E-19
 -1      4195 9.46105E-05-2.76460E-05-2.86990E-05 2.92601E-07-3.11043E-19 6.88493E-19
 -1      4196 9.45016E-05-2.75218E-05-2.87014E-05 2.25327E-07 3.54932E-19 2.17726E-19
 -1      4197 9.48663E-05-2.79610E-05-2.86752E-05 1.59080E-07 2.45731E-20-4.27997E-19
 -1      4198 9.47964E-05-2.78678E-05-2.86837E-05 2.00146E-07 2.36012E-19-5.01713E-19
 -1      4199 9.47176E-05-2.77718E-05-2.86878E-05 1.49333E-07 8.62536E-19-1.28981E-18
 -1      4200 9.49754E-05-2.81035E-05-2.86602E-05 1.11195E-07 1.51166E-19-9.77918E-19
 -1      4201 9.49220E-05-2.80280E-05-2.86688E-05 1.41003E-07-5.27668E-20-1.32303E-18
 -1      4202 9.48637E-05-2.79528E-05-2.86737E-05 1.03449E-07 1.06271E-18-2.53878E-18
 -1      4203 9.49623E-05-2.80849E-05-2.86609E-05 7.56479E-08 4.91408E-19-2.15336E-18
 -1      4204 8.63651E-05-2.19816E-05-2.75709E-05-3.93650E-06-1.22497E-20-1.38963E-18
 -1      4205 8.47800E-05-2.16417E-05-2.71085E-05-5.08711E-06 6.32959E-20-1.54105E-18
 -1      4206 8.59558E-05-2.30488E-05-2.69624E-05-7.50880E-06-6.09599E-20-1.47301E-18
 -1      4207 9.32890E-05-3.10984E-05-2.66144E-05-1.38464E-05-2.42245E-19-7.35723E-19
 -1      4208 9.27946E-05-2.19550E-05-3.03626E-05-1.46762E-07-9.11838E-20-1.50934E-18
 -1      4209 8.25412E-05-2.23891E-05-2.57108E-05-1.03392E-05 2.65901E-19-1.75675E-18
 -1      4210 8.23038E-05-2.33676E-05-2.52083E-05-1.31609E-05 1.54848E-21-1.98859E-18
 -1      4211 8.76352E-05-2.75347E-05-2.58292E-05-1.44430E-05 4.33807E-20-1.39142E-18
 -1      4212 8.54435E-05-2.43835E-05-2.62248E-05-1.09709E-05-1.82459E-20-1.60983E-18
 -1      4213 9.17221E-05-2.30842E-05-2.94181E-05-4.51037E-07-3.48956E-19-1.60937E-18
 -1      4214 9.10426E-05-2.30349E-05-2.91668E-05-6.21416E-07-3.23480E-19-1.61277E-18
 -1      4215 9.50967E-05-2.82813E-05-2.86354E-05-1.68435E-09-1.44691E-18 1.57116E-19
 -1      4216 9.07024E-05-2.90952E-05-2.64127E-05-1.36779E-05-2.66678E-19-6.89147E-19
 -1      4217 9.41323E-05-3.04802E-05-2.72373E-05-1.14407E-05-3.84442E-19-4.49629E-19
 -1      4218 9.33071E-05-2.93435E-05-2.74259E-05-1.03753E-05-1.29072E-19-7.56978E-19
 -1      4219 8.89874E-05-2.70855E-05-2.65373E-05-1.21075E-05-1.75327E-19-8.64545E-19
 -1      4220 9.45265E-05-2.69994E-05-2.89266E-05-5.00728E-06-1.22494E-19-6.11193E-19
 -1      4221 9.43696E-05-2.64992E-05-2.90921E-05-4.43056E-06-4.63553E-20-6.20801E-19
 -1      4222 9.37585E-05-2.66453E-05-2.87711E-05-5.30704E-06-1.08604E-19-7.27378E-19
 -1      4223 9.32959E-05-2.85698E-05-2.76995E-05-9.15708E-06 1.10788E-19-1.00249E-18
 -1      4224 9.28955E-05-2.78257E-05-2.79014E-05-8.22546E-06 8.52639E-20-1.10050E-18
 -1      4225 9.15889E-05-2.78787E-05-2.73342E-05-1.01075E-05-1.30157E-19-5.05746E-19
 -1      4226 9.43811E-05-2.53465E-05-2.95845E-05-2.96198E-06-7.85077E-21-8.41222E-19
 -1      4227 9.43423E-05-2.48255E-05-2.97935E-05-2.38735E-06 4.36846E-20-9.10543E-19
 -1      4228 9.39088E-05-2.43103E-05-2.98305E-05-2.21352E-06 1.04686E-19-6.77945E-19
 -1      4229 9.10595E-05-2.32919E-05-2.90298E-05-1.70384E-06-3.08575E-19-1.64070E-18
 -1      4230 9.03927E-05-2.29526E-05-2.88984E-05-1.04380E-06-2.06569E-19-1.74476E-18
 -1      4231 8.93993E-05-2.27227E-05-2.86078E-05-1.45474E-06-1.96045E-19-1.71158E-18
 -1      4232 9.29544E-05-2.71712E-05-2.81638E-05-7.10882E-06 1.87634E-19-1.19039E-18
 -1      4233 9.27135E-05-2.65410E-05-2.83728E-05-6.22783E-06 1.58652E-19-1.07489E-18
 -1      4234 9.15533E-05-2.65120E-05-2.78927E-05-7.62287E-06 1.14881E-19-1.16357E-18
 -1      4235 8.33509E-05-2.25238E-05-2.60490E-05 1.02382E-05-7.92300E-19-1.43298E-18
 -1      4236 9.22914E-05-2.29123E-05-2.97300E-05-2.22635E-07-1.77944E-19-1.74060E-18
 -1      4237 9.19962E-05-2.30224E-05-2.95753E-05-2.74731E-07-2.29995E-19-1.64983E-18
 -1      4238 9.19499E-05-2.31902E-05-2.94535E-05-1.03566E-06-2.80418E-19-1.77367E-18
 -1      4239 9.50473E-05-2.82080E-05-2.86457E-05 1.40275E-08-4.26846E-19-1.20843E-18
 -1      4240 9.10213E-05-2.97367E-05-2.62182E-05 1.43795E-05-1.07824E-18-1.97385E-19
 -1      4241 8.79389E-05-2.77900E-05-2.57166E-05 1.51688E-05-1.49829E-18-1.26589E-18
 -1      4242 8.55877E-05-2.55705E-05-2.57054E-05 1.36334E-05-1.42051E-18-1.10968E-18
 -1      4243 8.97618E-05-2.80217E-05-2.64938E-05 1.25759E-05-5.57315E-19 4.13862E-19
 -1      4244 9.30049E-05-2.32551E-05-2.98929E-05-1.41574E-06-2.26661E-19-1.75651E-18
 -1      4245 9.27967E-05-2.30692E-05-2.98991E-05-1.17381E-06-2.34616E-19-1.62671E-18
 -1      4246 8.85961E-05-2.25253E-05-2.83037E-05-2.14744E-06-1.72498E-20-1.50698E-18
 -1      4247 8.72934E-05-2.21849E-05-2.79451E-05-2.88190E-06 4.02576E-20-1.53140E-18
 -1      4248 8.78773E-05-2.30130E-05-2.77913E-05-4.79953E-06 2.58895E-20-1.58518E-18
 -1      4249 8.96130E-05-2.31825E-05-2.84596E-05-2.92831E-06 1.04355E-19-1.83601E-18
 -1      4250 9.35293E-05-2.38957E-05-2.98491E-05-1.96414E-06 2.40389E-20-1.21100E-18
 -1      4251 9.27861E-05-2.24321E-05-3.01417E-05-2.95930E-07-1.09032E-19-1.48572E-18
 -1      4252 9.32892E-05-2.41053E-05-2.96435E-05-2.18310E-06-8.33444E-20-1.21043E-18
 -1      4253 9.44225E-05-2.58184E-05-2.93969E-05-3.50550E-06-3.00200E-20-6.86861E-19
 -1      4254 8.71138E-05-2.38358E-05-2.71396E-05 7.43181E-06-1.21619E-18-9.53534E-19
 -1      4255 8.79489E-05-2.38155E-05-2.74610E-05 6.05063E-06-1.02913E-18-1.31889E-18
 -1      4256 8.81060E-05-2.36206E-05-2.76655E-05 5.00818E-06-7.82776E-19-1.72479E-18
 -1      4257 8.89042E-05-2.37921E-05-2.78940E-05 4.08582E-06-1.10558E-18-1.30871E-18
 -1      4258 8.92128E-05-2.38310E-05-2.80473E-05 3.31656E-06-1.05617E-18-6.33964E-19
 -1      4259 8.99522E-05-2.41209E-05-2.82104E-05 2.67537E-06-3.99902E-19-5.20497E-19
 -1      4260 9.03141E-05-2.42909E-05-2.83183E-05 2.12688E-06 4.79130E-20-7.23451E-19
 -1      4261 9.09191E-05-2.46083E-05-2.84203E-05 1.73291E-06-8.17312E-20-1.01601E-18
 -1      4262 9.12835E-05-2.48400E-05-2.84936E-05 1.34567E-06 3.61289E-19-7.73384E-19
 -1      4263 9.17893E-05-2.51614E-05-2.85580E-05 1.09807E-06 7.11950E-19-4.60639E-19
 -1      4264 9.21260E-05-2.54141E-05-2.86046E-05 8.29491E-07 9.45982E-19-1.80944E-19
 -1      4265 9.25401E-05-2.57166E-05-2.86425E-05 6.80329E-07 9.83654E-19-9.17540E-21
 -1      4266 9.28354E-05-2.59644E-05-2.86695E-05 4.96323E-07 7.91702E-19 3.87369E-19
 -1      4267 9.31681E-05-2.62359E-05-2.86891E-05 4.11531E-07 9.29407E-19 2.82470E-19
 -1      4268 9.34175E-05-2.64638E-05-2.87023E-05 2.86594E-07 5.63876E-20 1.35545E-19
 -1      4269 9.36804E-05-2.66993E-05-2.87098E-05 2.42442E-07-5.43187E-19-6.66538E-19
 -1      4270 9.38847E-05-2.68999E-05-2.87136E-05 1.58134E-07-9.48107E-19-7.88097E-19
 -1      4271 9.40890E-05-2.70985E-05-2.87133E-05 1.38562E-07-5.75662E-19-9.44061E-19
 -1      4272 9.42519E-05-2.72693E-05-2.87111E-05 8.18652E-08 2.88533E-19-8.07790E-19
 -1      4273 9.44081E-05-2.74330E-05-2.87062E-05 7.63384E-08 7.00873E-19-1.02903E-18
 -1      4274 9.45350E-05-2.75746E-05-2.87004E-05 3.82443E-08 9.54185E-19-1.30220E-18
 -1      4275 9.46523E-05-2.77069E-05-2.86930E-05 4.01333E-08 1.28364E-18-9.63881E-19
 -1      4276 9.47486E-05-2.78213E-05-2.86853E-05 1.47636E-08 1.72237E-18-1.29898E-18
 -1      4277 9.48349E-05-2.79267E-05-2.86767E-05 1.95174E-08 1.60872E-18-1.19616E-18
 -1      4278 9.48912E-05-2.79966E-05-2.86704E-05 6.28559E-09 1.81801E-18-1.20825E-18
 -1      4279 9.49545E-05-2.80802E-05-2.86616E-05 1.10271E-08 1.03305E-18-8.16104E-19
 -1      4280 9.38189E-05-2.54892E-05-2.92816E-05-3.65895E-06-1.01862E-20-9.26148E-19
 -1      4281 8.92454E-05-2.49784E-05-2.75043E-05-7.51252E-06-1.31191E-21-9.77240E-19
 -1      4282 8.83778E-05-2.52500E-05-2.70729E-05-9.13267E-06-1.87615E-19-1.01316E-18
 -1      4283 9.24795E-05-2.32923E-05-2.96460E-05-1.20352E-06-2.48616E-19-1.60270E-18
 -1      4284 9.25848E-05-2.29006E-05-2.98652E-05-8.13127E-07-1.45525E-19-1.50941E-18
 -1      4285 8.83325E-05-2.58366E-05-2.67487E-05-1.04954E-05-3.12865E-19-8.30771E-19
 -1      4286 8.93276E-05-2.45039E-05-2.77982E-05-6.31510E-06 3.08687E-20-1.19668E-18
 -1      4287 8.74652E-05-2.44086E-05-2.69872E-05 8.40106E-06-3.66130E-19-4.77743E-19
 -1      4288 9.18547E-05-2.37489E-05-2.91784E-05-2.09452E-06-2.34381E-19-1.44664E-18
 -1      4289 9.12284E-05-2.37949E-05-2.89099E-05-2.61632E-06-2.32105E-19-1.29089E-18
 -1      4290 9.29694E-05-2.61449E-05-2.86182E-05-5.33614E-06-1.12418E-20-1.16240E-18
 -1      4291 9.29489E-05-2.57021E-05-2.88248E-05-4.62033E-06-2.97762E-19-1.05076E-18
 -1      4292 9.18575E-05-2.55610E-05-2.84213E-05-5.53696E-06 3.13791E-20-1.40364E-18
 -1      4293 9.23145E-05-2.35067E-05-2.94903E-05-1.50256E-06-2.47577E-19-1.56444E-18
 -1      4294 9.20137E-05-2.36168E-05-2.93324E-05-1.74619E-06-1.90162E-19-1.61618E-18
 -1      4295 9.22392E-05-2.40327E-05-2.92138E-05-2.59483E-06-1.08223E-19-1.26890E-18
 -1      4296 9.25920E-05-2.36783E-05-2.95277E-05-1.87608E-06-2.83796E-19-1.43383E-18
 -1      4297 9.24753E-05-2.27581E-05-2.98864E-05-2.29812E-07-1.33856E-19-1.61197E-18
 -1      4298 9.01906E-05-2.44431E-05-2.81513E-05-5.15279E-06 2.20929E-19-1.39612E-18
 -1      4299 8.69994E-05-2.55786E-05-2.63330E-05 1.16566E-05-8.01220E-19-4.96828E-19
 -1      4300 9.31440E-05-2.43533E-05-2.94886E-05-2.51989E-06 6.10048E-20-9.77820E-19
 -1      4301 9.30190E-05-2.49719E-05-2.91588E-05-3.41759E-06-1.06963E-19-1.07023E-18
 -1      4302 9.49976E-05-2.81368E-05-2.86552E-05 1.90157E-09 2.29626E-19-9.51935E-19
 -1      4303 8.93173E-05-2.70530E-05-2.67253E-05 1.13326E-05 1.17618E-19 2.10249E-19
 -1      4304 9.20584E-05-2.47259E-05-2.88645E-05-3.81916E-06-2.85535E-19-8.97238E-19
 -1      4305 9.12080E-05-2.41888E-05-2.87090E-05-3.47453E-06-5.31721E-20-1.28272E-18
 -1      4306 9.04609E-05-2.41968E-05-2.84147E-05-4.26810E-06 1.54355E-19-1.34296E-18
 -1      4307 9.50236E-05-2.81733E-05-2.86504E-05 9.31237E-09 1.47220E-19-5.76620E-19
 -1      4308 9.28648E-05-2.51865E-05-2.90105E-05-3.83802E-06-3.13988E-19-9.30203E-19
 -3
    1PSTEP                         4           1           1          
  100CL  101 1.000000000        4308                     0    1           1
 -4  ERROR       1    1
 -5  STR(%)      1    1    0    0
 -1         1 3.13199E+01
 -1         2 2.44412E+01
 -1         3 7.14668E-04
 -1         4 1.80654E-03
 -1         5 1.39526E+01
 -1         6 1.30549E+01
 -1         7 1.30549E+01
 -1         8 3.58687E+00
 -1         9 1.79329E+00
 -1        10 1.28431E+00
 -1        11 1.03553E+00
 -1        12 8.77209E-01
 -1        13 7.72477E-01
 -1        14 7.04018E-01
 -1        15 7.10740E-01
 -1        16 7.83042E-01
 -1        17 8.84095E-01
 -1        18 1.04792E+00
 -1        19 1.30657E+00
 -1        20 1.80733E+00
 -1        21 3.44509E+00
 -1        22 8.52298E+00
 -1        23 1.30549E+01
 -1        24 4.32867E+00
 -1        25 3.32095E+00
 -1        26 2.08628E+00
 -1        27 1.46558E+00
 -1        28 1.15824E+00
 -1        29 9.52426E-01
 -1        30 8.03823E-01
 -1        31 9.39198E-01
 -1        32 1.13365E+00
 -1        33 1.34509E+00
 -1        34 1.70254E+00
 -1        35 2.24994E+00
 -1        36 2.96069E+00
 -1        37 3.46274E+00
 -1        38 3.46274E+00
 -1        39 3.20287E+00
 -1        40 4.01276E+00
 -1        41 8.48586E+00
 -1        42 9.78806E+00
 -1        43 9.78806E+00
 -1        44 9.43897E+00
 -1        45 5.79574E+00
 -1        46 3.29405E+00
 -1        47 3.48390E+00
 -1        48 3.48390E+00
 -1        49 3.18440E+00
 -1        50 2.51080E+00
 -1        51 1.93513E+00
 -1        52 1.44209E+00
 -1        53 1.07979E+00
 -1        54 8.47105E-01
 -1        55 6.44767E-01
 -1        56 4.80464E-01
 -1        57 3.52369E-01
 -1        58 2.54996E-01
 -1        59 1.88093E-01
 -1        60 1.25745E-01
 -1        61 9.92579E-02
 -1        62 7.87736E-02
 -1        63 6.15708E-02
 -1        64 4.72705E-02
 -1        65 3.54541E-02
 -1        66 2.57051E-02
 -1        67 1.86264E-02
 -1        68 1.43330E-02
 -1        69 9.93192E-03
 -1        70 5.47645E-03
 -1        71 3.99521E-03
 -1        72 1.39526E+01
 -1        73 3.41201E+00
 -1        74 2.41526E+00
 -1        75 1.65641E+00
 -1        76 1.22239E+00
 -1        77 1.01216E+00
 -1        78 8.36172E-01
 -1        79 6.76593E-01
 -1        80 5.19216E-01
 -1        81 3.89530E-01
 -1        82 3.57955E-01
 -1        83 3.30223E-01
 -1        84 4.31131E-01
 -1        85 5.71895E-01
 -1        86 7.13421E-01
 -1        87 9.27328E-01
 -1        88 1.03104E+00
 -1        89 1.52335E+00
 -1        90 1.93925E+00
 -1        91 2.07344E+00
 -1        92 2.34087E+00
 -1        93 2.34087E+00
 -1        94 2.28197E+00
 -1        95 1.88072E+00
 -1        96 1.34096E+00
 -1        97 8.37992E-01
 -1        98 5.88402E-01
 -1        99 3.75014E-01
 -1       100 3.98012E-01
 -1       101 4.09404E-01
 -1       102 4.09404E-01
 -1       103 3.73879E-01
 -1       104 3.14916E-01
 -1       105 2.58998E-01
 -1       106 2.04745E-01
 -1       107 1.54368E-01
 -1       108 1.25588E-01
 -1       109 9.81220E-02
 -1       110 7.37876E-02
 -1       111 5.33400E-02
 -1       112 3.68534E-02
 -1       113 2.88752E-02
 -1       114 2.38589E-02
 -1       115 1.88566E-02
 -1       116 1.40831E-02
 -1       117 1.20902E-02
 -1       118 9.41627E-03
 -1       119 5.99709E-03
 -1       120 3.45427E-03
 -1       121 1.71728E-03
 -1       122 7.87757E-04
 -1       123 5.24961E-04
 -1       124 5.73148E-04
 -1       125 5.73148E-04
 -1       126 4.66407E-04
 -1       127 3.12318E-04
 -1       128 1.99818E-04
 -1       129 2.67434E-04
 -1       130 4.29541E-04
 -1       131 6.08190E-04
 -1       132 7.13461E-04
 -1       133 7.13461E-04
 -1       134 6.05037E-04
 -1       135 6.23141E-04
 -1       136 9.72914E-04
 -1       137 2.44412E+01
 -1       138 4.79376E+01
 -1       139 4.79376E+01
 -1       140 2.12941E+01
 -1       141 1.14263E+01
 -1       142 1.18933E+01
 -1       143 1.18933E+01
 -1       144 1.19437E+01
 -1       145 1.29522E+01
 -1       146 1.29522E+01
 -1       147 1.80608E+01
 -1       148 4.49450E+01
 -1       149 4.49450E+01
 -1       150 2.45681E+01
 -1       151 2.45681E+01
 -1       152 2.46020E+01
 -1       153 2.72110E+01
 -1       154 3.13199E+01
 -1       155 1.39811E+01
 -1       156 1.25061E+01
 -1       157 1.25061E+01
 -1       158 1.40347E+01
 -1       159 1.40347E+01
 -1       160 1.31486E+01
 -1       161 2.67302E+01
 -1       162 2.88661E+01
 -1       163 2.88661E+01
 -1       164 2.51159E+01
 -1       165 5.96031E+00
 -1       166 2.26493E+00
 -1       167 1.50984E+00
 -1       168 1.15579E+00
 -1       169 9.59038E-01
 -1       170 8.34960E-01
 -1       171 7.52313E-01
 -1       172 7.04087E-01
 -1       173 7.60128E-01
 -1       174 8.42724E-01
 -1       175 9.71597E-01
 -1       176 1.17360E+00
 -1       177 1.53309E+00
 -1       178 2.25751E+00
 -1       179 3.87574E+00
 -1       180 1.39526E+01
 -1       181 4.32867E+00
 -1       182 3.32095E+00
 -1       183 2.08628E+00
 -1       184 1.46558E+00
 -1       185 1.15824E+00
 -1       186 9.52426E-01
 -1       187 8.03823E-01
 -1       188 7.76385E-01
 -1       189 9.39198E-01
 -1       190 1.18805E+00
 -1       191 1.62723E+00
 -1       192 2.07382E+00
 -1       193 2.42480E+00
 -1       194 2.96069E+00
 -1       195 3.46274E+00
 -1       196 3.20287E+00
 -1       197 2.99749E+00
 -1       198 4.48571E+00
 -1       199 8.48586E+00
 -1       200 9.78806E+00
 -1       201 9.43897E+00
 -1       202 5.79574E+00
 -1       203 3.10131E+00
 -1       204 3.29405E+00
 -1       205 3.48390E+00
 -1       206 3.18440E+00
 -1       207 2.60045E+00
 -1       208 2.25851E+00
 -1       209 1.87443E+00
 -1       210 1.45694E+00
 -1       211 1.08145E+00
 -1       212 7.76006E-01
 -1       213 5.42131E-01
 -1       214 3.69868E-01
 -1       215 2.70721E-01
 -1       216 2.05573E-01
 -1       217 1.41779E-01
 -1       218 1.01162E-01
 -1       219 7.87736E-02
 -1       220 6.15708E-02
 -1       221 4.72705E-02
 -1       222 3.54541E-02
 -1       223 2.57827E-02
 -1       224 1.89945E-02
 -1       225 1.43330E-02
 -1       226 9.93192E-03
 -1       227 6.07914E-03
 -1       228 3.99521E-03
 -1       229 2.06235E-03
 -1       230 3.41201E+00
 -1       231 2.41526E+00
 -1       232 1.65641E+00
 -1       233 1.22239E+00
 -1       234 1.01216E+00
 -1       235 8.36172E-01
 -1       236 6.76593E-01
 -1       237 5.19216E-01
 -1       238 3.89530E-01
 -1       239 3.57955E-01
 -1       240 2.85600E-01
 -1       241 3.30223E-01
 -1       242 4.31131E-01
 -1       243 5.71895E-01
 -1       244 8.88594E-01
 -1       245 1.23592E+00
 -1       246 1.59311E+00
 -1       247 1.78161E+00
 -1       248 1.93925E+00
 -1       249 2.07344E+00
 -1       250 2.34087E+00
 -1       251 2.28197E+00
 -1       252 1.88072E+00
 -1       253 1.34096E+00
 -1       254 8.85788E-01
 -1       255 5.88402E-01
 -1       256 3.72372E-01
 -1       257 3.75014E-01
 -1       258 3.98012E-01
 -1       259 4.09404E-01
 -1       260 3.73879E-01
 -1       261 3.14916E-01
 -1       262 2.58998E-01
 -1       263 2.12374E-01
 -1       264 1.65796E-01
 -1       265 1.25588E-01
 -1       266 9.81220E-02
 -1       267 7.37876E-02
 -1       268 5.33400E-02
 -1       269 3.80131E-02
 -1       270 2.93098E-02
 -1       271 2.39987E-02
 -1       272 1.88566E-02
 -1       273 1.40831E-02
 -1       274 1.20902E-02
 -1       275 9.41627E-03
 -1       276 5.99709E-03
 -1       277 3.45427E-03
 -1       278 1.54503E-03
 -1       279 1.54503E-03
 -1       280 1.10810E-03
 -1       281 1.00733E-03
 -1       282 9.49532E-04
 -1       283 6.98626E-04
 -1       284 4.04632E-04
 -1       285 3.08367E-04
 -1       286 6.07839E-04
 -1       287 9.53159E-04
 -1       288 1.20898E-03
 -1       289 1.24809E-03
 -1       290 1.24809E-03
 -1       291 1.34530E-03
 -1       292 2.06235E-03
 -1       293 3.15756E+01
 -1       294 2.94862E+01
 -1       295 4.79376E+01
 -1       296 2.30351E+01
 -1       297 1.12813E+01
 -1       298 1.14263E+01
 -1       299 1.18933E+01
 -1       300 1.17951E+01
 -1       301 1.19437E+01
 -1       302 1.29522E+01
 -1       303 1.09731E+01
 -1       304 1.87349E+01
 -1       305 4.49450E+01
 -1       306 3.77995E+01
 -1       307 2.76942E+01
 -1       308 2.76942E+01
 -1       309 2.55639E+01
 -1       310 2.96266E+01
 -1       311 3.13199E+01
 -1       312 1.39811E+01
 -1       313 1.16099E+01
 -1       314 1.25061E+01
 -1       315 1.23793E+01
 -1       316 1.40347E+01
 -1       317 1.28369E+01
 -1       318 1.31486E+01
 -1       319 2.85818E+01
 -1       320 3.35009E+01
 -1       321 3.35009E+01
 -1       322 3.15756E+01
 -1       323 1.03902E+00
 -1       324 2.41440E+00
 -1       325 7.93104E-01
 -1       326 6.81773E-01
 -1       327 6.07044E-01
 -1       328 5.52322E-01
 -1       329 5.59941E-01
 -1       330 6.15336E-01
 -1       331 6.93936E-01
 -1       332 7.98702E-01
 -1       333 9.38915E-01
 -1       334 1.13861E+00
 -1       335 1.30876E+00
 -1       336 2.13706E+00
 -1       337 1.83245E+00
 -1       338 1.68159E+00
 -1       339 1.19258E+00
 -1       340 8.13330E-01
 -1       341 6.95474E-01
 -1       342 5.78080E-01
 -1       343 5.46765E-01
 -1       344 6.85395E-01
 -1       345 1.00254E+00
 -1       346 1.40905E+00
 -1       347 1.86675E+00
 -1       348 2.29454E+00
 -1       349 2.58433E+00
 -1       350 2.99606E+00
 -1       351 3.70573E+00
 -1       352 4.33927E+00
 -1       353 4.43299E+00
 -1       354 4.22007E+00
 -1       355 6.33994E+00
 -1       356 8.50059E+00
 -1       357 5.60084E+00
 -1       358 2.97343E+00
 -1       359 3.93292E+00
 -1       360 3.49456E+00
 -1       361 2.84529E+00
 -1       362 2.61525E+00
 -1       363 2.33001E+00
 -1       364 1.92155E+00
 -1       365 1.51884E+00
 -1       366 1.15714E+00
 -1       367 8.59364E-01
 -1       368 6.27421E-01
 -1       369 4.49848E-01
 -1       370 3.17365E-01
 -1       371 2.25687E-01
 -1       372 1.47287E-01
 -1       373 1.01162E-01
 -1       374 7.14921E-02
 -1       375 5.16647E-02
 -1       376 3.66400E-02
 -1       377 2.93302E-02
 -1       378 2.27309E-02
 -1       379 1.68759E-02
 -1       380 1.17412E-02
 -1       381 8.24561E-03
 -1       382 5.55335E-03
 -1       383 3.39616E-03
 -1       384 1.04901E+00
 -1       385 7.70399E-01
 -1       386 6.24570E-01
 -1       387 4.84419E-01
 -1       388 3.47612E-01
 -1       389 3.01721E-01
 -1       390 2.88767E-01
 -1       391 2.43661E-01
 -1       392 2.11904E-01
 -1       393 2.67865E-01
 -1       394 4.37203E-01
 -1       395 6.81178E-01
 -1       396 9.87826E-01
 -1       397 1.26638E+00
 -1       398 1.59311E+00
 -1       399 1.78161E+00
 -1       400 1.75162E+00
 -1       401 1.79695E+00
 -1       402 1.72879E+00
 -1       403 1.45599E+00
 -1       404 1.14124E+00
 -1       405 8.20279E-01
 -1       406 5.34370E-01
 -1       407 2.91028E-01
 -1       408 2.62316E-01
 -1       409 2.85259E-01
 -1       410 3.07026E-01
 -1       411 2.88256E-01
 -1       412 2.48533E-01
 -1       413 2.16316E-01
 -1       414 1.88686E-01
 -1       415 1.55977E-01
 -1       416 1.22660E-01
 -1       417 9.24789E-02
 -1       418 7.13277E-02
 -1       419 5.30791E-02
 -1       420 3.83787E-02
 -1       421 2.93098E-02
 -1       422 2.39987E-02
 -1       423 1.87584E-02
 -1       424 1.38223E-02
 -1       425 9.31755E-03
 -1       426 6.82270E-03
 -1       427 4.30322E-03
 -1       428 2.71535E-03
 -1       429 1.44626E-03
 -1       430 2.71535E-03
 -1       431 1.28255E-03
 -1       432 9.88114E-04
 -1       433 6.47457E-04
 -1       434 5.18037E-04
 -1       435 6.08562E-04
 -1       436 8.57167E-04
 -1       437 1.38569E-03
 -1       438 1.57773E-03
 -1       439 1.86132E-03
 -1       440 2.48270E-03
 -1       441 1.31590E+00
 -1       442 2.94862E+01
 -1       443 1.00358E+01
 -1       444 3.67482E+01
 -1       445 1.71254E+01
 -1       446 9.16285E-01
 -1       447 6.76929E+00
 -1       448 9.18832E+00
 -1       449 9.83060E+00
 -1       450 1.03107E+01
 -1       451 9.91588E+00
 -1       452 6.72447E+00
 -1       453 8.41171E+00
 -1       454 1.52833E+01
 -1       455 2.61674E+01
 -1       456 2.51650E+01
 -1       457 3.66764E+01
 -1       458 3.66764E+01
 -1       459 2.54320E+01
 -1       460 2.06765E+01
 -1       461 1.23996E+01
 -1       462 7.49297E+00
 -1       463 8.99804E+00
 -1       464 1.06968E+01
 -1       465 1.11051E+01
 -1       466 9.69618E+00
 -1       467 7.03197E+00
 -1       468 1.16580E+01
 -1       469 2.00293E+01
 -1       470 3.35009E+01
 -1       471 3.67482E+01
 -1       472 2.57802E+01
 -1       473 1.88840E+01
 -1       474 7.17236E+00
 -1       475 4.72260E-01
 -1       476 5.14795E-01
 -1       477 3.98902E-01
 -1       478 4.38085E-01
 -1       479 4.81601E-01
 -1       480 5.17637E-01
 -1       481 5.20530E-01
 -1       482 5.20530E-01
 -1       483 6.12391E-01
 -1       484 1.25506E+00
 -1       485 7.21596E-01
 -1       486 1.29855E+01
 -1       487 9.48596E+00
 -1       488 5.77679E-01
 -1       489 4.05916E-01
 -1       490 3.30561E-01
 -1       491 2.92133E-01
 -1       492 4.74948E-01
 -1       493 7.49518E-01
 -1       494 1.09398E+00
 -1       495 1.53829E+00
 -1       496 2.07772E+00
 -1       497 2.72692E+00
 -1       498 3.47565E+00
 -1       499 4.27763E+00
 -1       500 6.32871E+00
 -1       501 7.57591E+00
 -1       502 5.05950E+00
 -1       503 7.00051E+00
 -1       504 4.59910E+00
 -1       505 3.61875E+00
 -1       506 2.98530E+00
 -1       507 2.37597E+00
 -1       508 1.84256E+00
 -1       509 1.40141E+00
 -1       510 1.04967E+00
 -1       511 7.75987E-01
 -1       512 5.66914E-01
 -1       513 4.09454E-01
 -1       514 2.94285E-01
 -1       515 2.01991E-01
 -1       516 1.39814E-01
 -1       517 9.49015E-02
 -1       518 6.28071E-02
 -1       519 4.01949E-02
 -1       520 2.53245E-02
 -1       521 1.74875E-02
 -1       522 1.22751E-02
 -1       523 9.42621E-03
 -1       524 6.72350E-03
 -1       525 4.57540E-03
 -1       526 3.30044E-03
 -1       527 3.62697E-01
 -1       528 4.19335E-01
 -1       529 5.79940E-01
 -1       530 2.88321E-01
 -1       531 2.08716E-01
 -1       532 2.01222E-01
 -1       533 2.16803E-01
 -1       534 2.76667E-01
 -1       535 3.35464E-01
 -1       536 4.50862E-01
 -1       537 6.42323E-01
 -1       538 8.16184E-01
 -1       539 1.06363E+00
 -1       540 1.18928E+00
 -1       541 1.31302E+00
 -1       542 1.30074E+00
 -1       543 1.25756E+00
 -1       544 1.32889E+00
 -1       545 1.26994E+00
 -1       546 1.14071E+00
 -1       547 9.38936E-01
 -1       548 6.88346E-01
 -1       549 4.84340E-01
 -1       550 3.56175E-01
 -1       551 3.03842E-01
 -1       552 2.55645E-01
 -1       553 2.64695E-01
 -1       554 2.51804E-01
 -1       555 2.30286E-01
 -1       556 2.02652E-01
 -1       557 1.74217E-01
 -1       558 1.42830E-01
 -1       559 1.12383E-01
 -1       560 8.51207E-02
 -1       561 6.20788E-02
 -1       562 4.34868E-02
 -1       563 2.90889E-02
 -1       564 1.96560E-02
 -1       565 1.34200E-02
 -1       566 1.07677E-02
 -1       567 8.26723E-03
 -1       568 5.77655E-03
 -1       569 3.55124E-03
 -1       570 1.50928E-03
 -1       571 1.50928E-03
 -1       572 2.27238E-03
 -1       573 2.57802E+01
 -1       574 1.37948E-03
 -1       575 1.41841E-03
 -1       576 1.51193E-03
 -1       577 1.51193E-03
 -1       578 1.50506E-03
 -1       579 1.87843E-03
 -1       580 1.87843E-03
 -1       581 2.35171E-03
 -1       582 2.54144E+01
 -1       583 8.44484E-01
 -1       584 4.88039E+00
 -1       585 3.67482E+01
 -1       586 6.41207E+00
 -1       587 3.66764E+01
 -1       588 8.32380E+00
 -1       589 4.29845E-01
 -1       590 6.97355E+00
 -1       591 4.78728E+00
 -1       592 4.97290E+00
 -1       593 7.74122E+00
 -1       594 4.07332E+00
 -1       595 8.42976E+00
 -1       596 1.17083E+01
 -1       597 1.85564E+01
 -1       598 2.51650E+01
 -1       599 2.54320E+01
 -1       600 8.97187E+00
 -1       601 9.42354E+00
 -1       602 6.22385E+00
 -1       603 7.61194E+00
 -1       604 1.51466E+01
 -1       605 2.03420E+01
 -1       606 5.57980E-01
 -1       607 6.91489E-01
 -1       608 4.43299E+00
 -1       609 8.50059E+00
 -1       610 5.80289E-01
 -1       611 1.10076E+01
 -1       612 3.98121E+00
 -1       613 1.50633E+01
 -1       614 4.05526E+00
 -1       615 7.26371E+00
 -1       616 3.46274E-01
 -1       617 3.12544E-01
 -1       618 3.68920E-01
 -1       619 4.14170E-01
 -1       620 5.51141E-01
 -1       621 3.17176E+00
 -1       622 1.05591E+01
 -1       623 2.40449E-01
 -1       624 1.70983E-01
 -1       625 2.35296E-01
 -1       626 3.65839E-01
 -1       627 5.66137E-01
 -1       628 8.55298E-01
 -1       629 1.29734E+00
 -1       630 1.86149E+00
 -1       631 2.57184E+00
 -1       632 3.56403E+00
 -1       633 5.42701E+00
 -1       634 1.01891E+01
 -1       635 1.31568E+01
 -1       636 7.00051E+00
 -1       637 5.46438E+00
 -1       638 4.17563E+00
 -1       639 2.89238E+00
 -1       640 2.17924E+00
 -1       641 1.59434E+00
 -1       642 1.15464E+00
 -1       643 8.28388E-01
 -1       644 5.85070E-01
 -1       645 4.09922E-01
 -1       646 2.99813E-01
 -1       647 2.17370E-01
 -1       648 1.56729E-01
 -1       649 1.11348E-01
 -1       650 7.77299E-02
 -1       651 5.31225E-02
 -1       652 3.53763E-02
 -1       653 2.28122E-02
 -1       654 1.41249E-02
 -1       655 8.30337E-03
 -1       656 5.96853E-03
 -1       657 4.57540E-03
 -1       658 2.84158E-03
 -1       659 2.23505E-01
 -1       660 1.87838E-01
 -1       661 2.98569E-01
 -1       662 1.63786E-01
 -1       663 2.16803E-01
 -1       664 2.78958E-01
 -1       665 3.94670E-01
 -1       666 5.17805E-01
 -1       667 6.42323E-01
 -1       668 8.53217E-01
 -1       669 1.04935E+00
 -1       670 1.13401E+00
 -1       671 1.27977E+00
 -1       672 1.47293E+00
 -1       673 1.47580E+00
 -1       674 1.46902E+00
 -1       675 1.39741E+00
 -1       676 1.18498E+00
 -1       677 1.06986E+00
 -1       678 9.30525E-01
 -1       679 6.88346E-01
 -1       680 5.86551E-01
 -1       681 4.72930E-01
 -1       682 3.51055E-01
 -1       683 3.31520E-01
 -1       684 2.96486E-01
 -1       685 2.58090E-01
 -1       686 2.24703E-01
 -1       687 1.91430E-01
 -1       688 1.58103E-01
 -1       689 1.26177E-01
 -1       690 9.76298E-02
 -1       691 7.33432E-02
 -1       692 5.34857E-02
 -1       693 3.77989E-02
 -1       694 2.58011E-02
 -1       695 1.69212E-02
 -1       696 1.05836E-02
 -1       697 6.32763E-03
 -1       698 4.45485E-03
 -1       699 3.46693E-03
 -1       700 2.85012E-03
 -1       701 2.87829E-03
 -1       702 2.27238E-03
 -1       703 2.85012E-03
 -1       704 2.97631E-03
 -1       705 2.97631E-03
 -1       706 2.57458E-03
 -1       707 3.33551E-03
 -1       708 8.56588E+00
 -1       709 5.57980E-01
 -1       710 1.65896E+01
 -1       711 1.48289E+01
 -1       712 7.87930E+00
 -1       713 2.87829E-03
 -1       714 5.92581E+00
 -1       715 3.90682E-01
 -1       716 4.34756E+00
 -1       717 3.68920E-01
 -1       718 6.11256E+00
 -1       719 1.61716E+01
 -1       720 1.13219E+01
 -1       721 1.48721E+01
 -1       722 4.81456E+00
 -1       723 3.54223E-01
 -1       724 1.57518E+01
 -1       725 4.34537E+00
 -1       726 5.77073E+00
 -1       727 1.26795E+01
 -1       728 1.52079E-01
 -1       729 2.99476E-01
 -1       730 1.24326E+01
 -1       731 4.28957E-01
 -1       732 3.53848E+00
 -1       733 3.33551E-03
 -1       734 3.16954E-01
 -1       735 3.30475E-01
 -1       736 1.05470E+01
 -1       737 4.63113E+00
 -1       738 2.69499E-01
 -1       739 2.39110E+00
 -1       740 2.51783E-01
 -1       741 3.38651E-01
 -1       742 4.89466E-01
 -1       743 7.56508E-01
 -1       744 1.16406E+00
 -1       745 1.68109E+00
 -1       746 2.45199E+00
 -1       747 3.75758E+00
 -1       748 8.75459E+00
 -1       749 3.94670E-01
 -1       750 2.49641E+00
 -1       751 4.63792E+00
 -1       752 4.01359E+00
 -1       753 2.89238E+00
 -1       754 2.03470E+00
 -1       755 1.45249E+00
 -1       756 1.04112E+00
 -1       757 7.46482E-01
 -1       758 5.33585E-01
 -1       759 3.77032E-01
 -1       760 2.62664E-01
 -1       761 1.83058E-01
 -1       762 1.25695E-01
 -1       763 8.70000E-02
 -1       764 5.92035E-02
 -1       765 3.93153E-02
 -1       766 2.68640E-02
 -1       767 1.79813E-02
 -1       768 1.17060E-02
 -1       769 7.30655E-03
 -1       770 4.61563E-03
 -1       771 9.89673E-02
 -1       772 1.32461E-01
 -1       773 3.06707E-01
 -1       774 2.24684E-01
 -1       775 5.44756E-01
 -1       776 7.55756E-01
 -1       777 9.34272E-01
 -1       778 1.08494E+00
 -1       779 1.32839E+00
 -1       780 1.31298E+00
 -1       781 1.70484E+00
 -1       782 2.46279E+00
 -1       783 2.89647E+00
 -1       784 1.77949E+00
 -1       785 1.42769E+00
 -1       786 1.34711E+00
 -1       787 1.20985E+00
 -1       788 1.00595E+00
 -1       789 8.79853E-01
 -1       790 6.79706E-01
 -1       791 5.13284E-01
 -1       792 4.50045E-01
 -1       793 3.74238E-01
 -1       794 3.08301E-01
 -1       795 2.59764E-01
 -1       796 2.16515E-01
 -1       797 1.74088E-01
 -1       798 1.35819E-01
 -1       799 1.03961E-01
 -1       800 7.82645E-02
 -1       801 5.76957E-02
 -1       802 4.16094E-02
 -1       803 2.93078E-02
 -1       804 2.01164E-02
 -1       805 1.34186E-02
 -1       806 8.67993E-03
 -1       807 5.50040E-03
 -1       808 3.49048E-03
 -1       809 5.62429E-03
 -1       810 5.29208E-03
 -1       811 5.62429E-03
 -1       812 2.82064E+00
 -1       813 4.74529E-03
 -1       814 6.89052E+00
 -1       815 5.00759E+00
 -1       816 4.86312E-03
 -1       817 2.24171E-01
 -1       818 5.35424E+00
 -1       819 6.50515E+00
 -1       820 1.07292E+01
 -1       821 3.91018E+00
 -1       822 1.07292E+01
 -1       823 2.64941E-01
 -1       824 3.05729E+00
 -1       825 1.01163E+01
 -1       826 9.50877E+00
 -1       827 1.05568E+01
 -1       828 2.59269E+00
 -1       829 1.57215E-01
 -1       830 4.95068E-03
 -1       831 1.05568E+01
 -1       832 2.34035E+00
 -1       833 8.75459E+00
 -1       834 3.48062E+00
 -1       835 2.82119E-01
 -1       836 1.10933E-01
 -1       837 2.32632E-01
 -1       838 5.61815E-03
 -1       839 2.76230E-01
 -1       840 2.82119E-01
 -1       841 2.83089E+00
 -1       842 1.82337E-01
 -1       843 8.01809E+00
 -1       844 6.91465E+00
 -1       845 3.77277E+00
 -1       846 2.98278E-01
 -1       847 2.60150E-01
 -1       848 3.78529E-01
 -1       849 5.64071E-01
 -1       850 8.62489E-01
 -1       851 1.21487E+00
 -1       852 1.79255E+00
 -1       853 2.74342E+00
 -1       854 6.44887E+00
 -1       855 7.60823E-01
 -1       856 6.20134E-01
 -1       857 3.97876E+00
 -1       858 2.21180E+00
 -1       859 1.54418E+00
 -1       860 1.09861E+00
 -1       861 7.96489E-01
 -1       862 5.82313E-01
 -1       863 4.24110E-01
 -1       864 3.06094E-01
 -1       865 2.21625E-01
 -1       866 1.58764E-01
 -1       867 1.12184E-01
 -1       868 7.79268E-02
 -1       869 5.36255E-02
 -1       870 3.65176E-02
 -1       871 2.41701E-02
 -1       872 1.54179E-02
 -1       873 9.40680E-03
 -1       874 7.32292E-03
 -1       875 5.25219E+00
 -1       876 4.70007E-01
 -1       877 3.34058E-01
 -1       878 1.06579E+00
 -1       879 1.36302E+00
 -1       880 1.62456E+00
 -1       881 1.85264E+00
 -1       882 1.81629E+00
 -1       883 2.90388E+00
 -1       884 1.77949E+00
 -1       885 1.51313E+00
 -1       886 1.90907E+00
 -1       887 2.10141E+00
 -1       888 1.26971E+00
 -1       889 9.11369E-01
 -1       890 7.74109E-01
 -1       891 6.27840E-01
 -1       892 4.84394E-01
 -1       893 3.92187E-01
 -1       894 3.14755E-01
 -1       895 2.50134E-01
 -1       896 1.94592E-01
 -1       897 1.55568E-01
 -1       898 1.24462E-01
 -1       899 9.72689E-02
 -1       900 7.35511E-02
 -1       901 5.38446E-02
 -1       902 3.81002E-02
 -1       903 2.65037E-02
 -1       904 1.78737E-02
 -1       905 1.15442E-02
 -1       906 7.17482E-03
 -1       907 4.63758E+00
 -1       908 6.88186E+00
 -1       909 7.42417E-03
 -1       910 1.90907E+00
 -1       911 7.52533E+00
 -1       912 2.62235E-01
 -1       913 8.75459E+00
 -1       914 3.82336E+00
 -1       915 7.42417E-03
 -1       916 2.39359E-01
 -1       917 1.36724E-01
 -1       918 1.82040E-01
 -1       919 2.02347E+00
 -1       920 2.91837E+00
 -1       921 1.82337E-01
 -1       922 2.74521E-01
 -1       923 4.64244E+00
 -1       924 6.85481E+00
 -1       925 7.65770E+00
 -1       926 2.49266E-01
 -1       927 2.25372E+00
 -1       928 2.75228E+00
 -1       929 3.00810E+00
 -1       930 7.22657E-03
 -1       931 1.76658E-01
 -1       932 3.50632E+00
 -1       933 8.28933E-03
 -1       934 6.88186E+00
 -1       935 8.28933E-03
 -1       936 1.76658E-01
 -1       937 2.24171E-01
 -1       938 1.59342E-01
 -1       939 1.75956E-01
 -1       940 3.58991E+00
 -1       941 4.86736E+00
 -1       942 7.04077E-01
 -1       943 9.53755E-01
 -1       944 1.35444E+00
 -1       945 1.97644E+00
 -1       946 3.56538E+00
 -1       947 2.03951E+00
 -1       948 1.85264E+00
 -1       949 6.44887E+00
 -1       950 4.71159E-01
 -1       951 1.55278E+00
 -1       952 1.06943E+00
 -1       953 7.45874E-01
 -1       954 5.33940E-01
 -1       955 3.91602E-01
 -1       956 2.96805E-01
 -1       957 2.24621E-01
 -1       958 1.67882E-01
 -1       959 1.23656E-01
 -1       960 8.95940E-02
 -1       961 6.36887E-02
 -1       962 4.42635E-02
 -1       963 3.03698E-02
 -1       964 2.05408E-02
 -1       965 1.34777E-02
 -1       966 9.40752E-03
 -1       967 7.92725E-01
 -1       968 1.39611E-01
 -1       969 1.47660E+00
 -1       970 5.25208E-01
 -1       971 1.81526E+00
 -1       972 2.10141E+00
 -1       973 1.38961E+00
 -1       974 1.13204E+00
 -1       975 8.63560E-01
 -1       976 6.86107E-01
 -1       977 5.26100E-01
 -1       978 3.90497E-01
 -1       979 3.04011E-01
 -1       980 2.40330E-01
 -1       981 1.94592E-01
 -1       982 1.55568E-01
 -1       983 1.21001E-01
 -1       984 9.17708E-02
 -1       985 6.78980E-02
 -1       986 4.89523E-02
 -1       987 3.42991E-02
 -1       988 2.33191E-02
 -1       989 1.56407E-02
 -1       990 1.02999E-02
 -1       991 3.11335E+00
 -1       992 1.91535E-01
 -1       993 9.40752E-03
 -1       994 1.31885E-01
 -1       995 1.91983E-01
 -1       996 3.19333E-01
 -1       997 2.22024E+00
 -1       998 2.01532E-01
 -1       999 4.86736E+00
 -1      1000 1.82040E-01
 -1      1001 2.62235E-01
 -1      1002 1.10657E+00
 -1      1003 3.75640E-01
 -1      1004 2.71085E+00
 -1      1005 3.02181E+00
 -1      1006 2.37537E-01
 -1      1007 1.35580E-01
 -1      1008 3.58991E+00
 -1      1009 7.82053E-03
 -1      1010 1.79618E-02
 -1      1011 1.91535E-01
 -1      1012 2.80271E+00
 -1      1013 5.41584E-01
 -1      1014 3.34988E+00
 -1      1015 1.00073E+00
 -1      1016 1.63506E+00
 -1      1017 2.57434E+00
 -1      1018 2.29808E+00
 -1      1019 1.12956E+00
 -1      1020 7.91655E-01
 -1      1021 5.88737E-01
 -1      1022 4.52792E-01
 -1      1023 3.17541E-01
 -1      1024 2.32729E-01
 -1      1025 1.69815E-01
 -1      1026 1.22946E-01
 -1      1027 8.84050E-02
 -1      1028 6.41737E-02
 -1      1029 4.65331E-02
 -1      1030 3.28510E-02
 -1      1031 2.25249E-02
 -1      1032 1.55277E-02
 -1      1033 1.12085E-02
 -1      1034 6.75709E-01
 -1      1035 1.48678E+00
 -1      1036 1.65807E+00
 -1      1037 1.00522E+00
 -1      1038 6.92827E-01
 -1      1039 5.14789E-01
 -1      1040 3.90627E-01
 -1      1041 3.04011E-01
 -1      1042 2.40330E-01
 -1      1043 1.86021E-01
 -1      1044 1.41399E-01
 -1      1045 1.05665E-01
 -1      1046 7.76016E-02
 -1      1047 5.59261E-02
 -1      1048 3.94523E-02
 -1      1049 2.72005E-02
 -1      1050 2.01013E-02
 -1      1051 1.79618E-02
 -1      1052 1.88971E+00
 -1      1053 1.29215E-01
 -1      1054 3.56538E+00
 -1      1055 3.77319E-01
 -1      1056 7.28547E-01
 -1      1057 1.02303E+00
 -1      1058 2.48681E+00
 -1      1059 5.36063E-01
 -1      1060 2.80839E-01
 -1      1061 2.00034E-01
 -1      1062 1.46230E-02
 -1      1063 2.17179E-01
 -1      1064 2.46725E+00
 -1      1065 1.81728E-02
 -1      1066 2.28836E-01
 -1      1067 2.35204E+00
 -1      1068 1.17958E-01
 -1      1069 2.28434E-01
 -1      1070 2.28836E-01
 -1      1071 2.37537E-01
 -1      1072 1.69819E+00
 -1      1073 2.07837E+00
 -1      1074 1.32781E+00
 -1      1075 8.74144E-01
 -1      1076 5.70614E-01
 -1      1077 3.52528E-01
 -1      1078 2.44218E-01
 -1      1079 1.88020E-01
 -1      1080 1.42729E-01
 -1      1081 1.06847E-01
 -1      1082 7.87982E-02
 -1      1083 5.71322E-02
 -1      1084 4.07995E-02
 -1      1085 2.89083E-02
 -1      1086 2.05755E-02
 -1      1087 1.46230E-02
 -1      1088 1.48935E+00
 -1      1089 1.32781E+00
 -1      1090 2.07837E+00
 -1      1091 9.31802E-01
 -1      1092 6.79899E-01
 -1      1093 4.77665E-01
 -1      1094 3.38920E-01
 -1      1095 2.39313E-01
 -1      1096 1.68546E-01
 -1      1097 1.18378E-01
 -1      1098 8.44311E-02
 -1      1099 6.40326E-02
 -1      1100 4.73840E-02
 -1      1101 3.41070E-02
 -1      1102 2.05755E-02
 -1      1103 1.62418E+00
 -1      1104 2.57434E+00
 -1      1105 3.94751E-01
 -1      1106 1.69819E+00
 -1      1107 4.02425E-01
 -1      1108 1.62418E+00
 -1      1109 3.53621E-01
 -1      1110 7.85238E-01
 -1      1111 1.14261E+00
 -1      1112 2.28836E-01
 -1      1113 1.55889E+00
 -1      1114 3.15423E-01
 -1      1115 1.14261E+00
 -1      1116 4.02425E-01
 -1      1117 7.85238E-01
 -1      1118 3.53621E-01
 -1      1119 1.30549E+01
 -1      1120 8.32086E+00
 -1      1121 2.69008E+00
 -1      1122 1.53880E+00
 -1      1123 1.15992E+00
 -1      1124 9.56372E-01
 -1      1125 8.24843E-01
 -1      1126 7.38247E-01
 -1      1127 7.07379E-01
 -1      1128 7.46891E-01
 -1      1129 8.33569E-01
 -1      1130 9.66009E-01
 -1      1131 1.17725E+00
 -1      1132 1.55695E+00
 -1      1133 2.62621E+00
 -1      1134 5.98404E+00
 -1      1135 1.12378E+01
 -1      1136 1.30549E+01
 -1      1137 8.69176E+00
 -1      1138 3.82481E+00
 -1      1139 2.70362E+00
 -1      1140 1.77593E+00
 -1      1141 1.31191E+00
 -1      1142 1.05534E+00
 -1      1143 8.78125E-01
 -1      1144 8.71511E-01
 -1      1145 1.03642E+00
 -1      1146 1.23937E+00
 -1      1147 1.52381E+00
 -1      1148 1.97624E+00
 -1      1149 2.60531E+00
 -1      1150 3.21172E+00
 -1      1151 3.46274E+00
 -1      1152 3.33281E+00
 -1      1153 3.60782E+00
 -1      1154 6.24931E+00
 -1      1155 9.13696E+00
 -1      1156 9.78806E+00
 -1      1157 9.61351E+00
 -1      1158 7.61735E+00
 -1      1159 4.54490E+00
 -1      1160 3.38898E+00
 -1      1161 3.48390E+00
 -1      1162 3.33415E+00
 -1      1163 2.84760E+00
 -1      1164 2.22297E+00
 -1      1165 1.68861E+00
 -1      1166 1.26094E+00
 -1      1167 9.63447E-01
 -1      1168 7.45936E-01
 -1      1169 5.62616E-01
 -1      1170 4.16416E-01
 -1      1171 3.03682E-01
 -1      1172 2.21545E-01
 -1      1173 1.56919E-01
 -1      1174 1.12501E-01
 -1      1175 8.90157E-02
 -1      1176 7.01722E-02
 -1      1177 5.44206E-02
 -1      1178 4.13623E-02
 -1      1179 3.05796E-02
 -1      1180 2.21657E-02
 -1      1181 1.64797E-02
 -1      1182 1.21325E-02
 -1      1183 7.70419E-03
 -1      1184 4.73583E-03
 -1      1185 2.90088E-03
 -1      1186 1.39526E+01
 -1      1187 8.68230E+00
 -1      1188 2.91363E+00
 -1      1189 2.03583E+00
 -1      1190 1.43940E+00
 -1      1191 1.11727E+00
 -1      1192 9.24166E-01
 -1      1193 7.56382E-01
 -1      1194 5.97904E-01
 -1      1195 4.54373E-01
 -1      1196 3.73742E-01
 -1      1197 3.44089E-01
 -1      1198 3.80677E-01
 -1      1199 5.01513E-01
 -1      1200 6.42658E-01
 -1      1201 8.20374E-01
 -1      1202 9.79182E-01
 -1      1203 1.27719E+00
 -1      1204 1.73130E+00
 -1      1205 2.00635E+00
 -1      1206 2.20716E+00
 -1      1207 2.34087E+00
 -1      1208 2.31142E+00
 -1      1209 2.08135E+00
 -1      1210 1.61084E+00
 -1      1211 1.08948E+00
 -1      1212 7.13197E-01
 -1      1213 4.81708E-01
 -1      1214 3.86513E-01
 -1      1215 4.03708E-01
 -1      1216 4.09404E-01
 -1      1217 3.91642E-01
 -1      1218 3.44398E-01
 -1      1219 2.86957E-01
 -1      1220 2.31871E-01
 -1      1221 1.79557E-01
 -1      1222 1.39978E-01
 -1      1223 1.11855E-01
 -1      1224 8.59548E-02
 -1      1225 6.35638E-02
 -1      1226 4.50967E-02
 -1      1227 3.28643E-02
 -1      1228 2.63671E-02
 -1      1229 2.13578E-02
 -1      1230 1.64699E-02
 -1      1231 1.30867E-02
 -1      1232 1.07533E-02
 -1      1233 7.70668E-03
 -1      1234 4.72568E-03
 -1      1235 2.08447E-03
 -1      1236 1.21597E-03
 -1      1237 1.25252E-03
 -1      1238 6.56359E-04
 -1      1239 5.49054E-04
 -1      1240 5.73148E-04
 -1      1241 5.19777E-04
 -1      1242 3.89362E-04
 -1      1243 2.56068E-04
 -1      1244 2.33626E-04
 -1      1245 3.48487E-04
 -1      1246 5.18866E-04
 -1      1247 6.60826E-04
 -1      1248 7.13461E-04
 -1      1249 6.59249E-04
 -1      1250 6.14089E-04
 -1      1251 7.98027E-04
 -1      1252 1.38973E-03
 -1      1253 2.44412E+01
 -1      1254 3.61894E+01
 -1      1255 4.79376E+01
 -1      1256 3.46158E+01
 -1      1257 1.63602E+01
 -1      1258 1.16598E+01
 -1      1259 1.18933E+01
 -1      1260 1.19185E+01
 -1      1261 1.24480E+01
 -1      1262 1.29522E+01
 -1      1263 1.55065E+01
 -1      1264 3.15029E+01
 -1      1265 4.49450E+01
 -1      1266 3.47566E+01
 -1      1267 2.45681E+01
 -1      1268 2.45851E+01
 -1      1269 2.59065E+01
 -1      1270 2.92655E+01
 -1      1271 3.13199E+01
 -1      1272 2.26505E+01
 -1      1273 1.32436E+01
 -1      1274 1.25061E+01
 -1      1275 1.32704E+01
 -1      1276 1.40347E+01
 -1      1277 1.35916E+01
 -1      1278 1.99394E+01
 -1      1279 2.77981E+01
 -1      1280 2.88661E+01
 -1      1281 2.69910E+01
 -1      1282 2.47785E+01
 -1      1283 1.30549E+01
 -1      1284 4.77359E+00
 -1      1285 9.50758E+00
 -1      1286 2.02911E+00
 -1      1287 2.92590E+00
 -1      1288 4.11262E+00
 -1      1289 1.39707E+00
 -1      1290 1.65156E+00
 -1      1291 1.88738E+00
 -1      1292 1.09566E+00
 -1      1293 1.22005E+00
 -1      1294 1.33282E+00
 -1      1295 9.18124E-01
 -1      1296 9.97286E-01
 -1      1297 1.05741E+00
 -1      1298 8.03718E-01
 -1      1299 8.56085E-01
 -1      1300 8.96999E-01
 -1      1301 7.28165E-01
 -1      1302 7.62395E-01
 -1      1303 7.93636E-01
 -1      1304 7.07413E-01
 -1      1305 7.04052E-01
 -1      1306 7.28200E-01
 -1      1307 7.71585E-01
 -1      1308 7.35434E-01
 -1      1309 7.32107E-01
 -1      1310 8.63409E-01
 -1      1311 8.12883E-01
 -1      1312 8.01426E-01
 -1      1313 1.00976E+00
 -1      1314 9.27846E-01
 -1      1315 9.07161E-01
 -1      1316 1.24009E+00
 -1      1317 1.11076E+00
 -1      1318 1.07260E+00
 -1      1319 1.67021E+00
 -1      1320 1.41983E+00
 -1      1321 1.35334E+00
 -1      1322 2.85130E+00
 -1      1323 2.03242E+00
 -1      1324 1.89530E+00
 -1      1325 6.19936E+00
 -1      1326 3.66041E+00
 -1      1327 3.06662E+00
 -1      1328 1.39526E+01
 -1      1329 1.12378E+01
 -1      1330 8.91417E+00
 -1      1331 1.39526E+01
 -1      1332 8.69176E+00
 -1      1333 4.32867E+00
 -1      1334 3.82481E+00
 -1      1335 3.32095E+00
 -1      1336 3.82481E+00
 -1      1337 2.70362E+00
 -1      1338 2.08628E+00
 -1      1339 2.70362E+00
 -1      1340 1.77593E+00
 -1      1341 1.46558E+00
 -1      1342 1.77593E+00
 -1      1343 1.31191E+00
 -1      1344 1.15824E+00
 -1      1345 1.31191E+00
 -1      1346 1.05534E+00
 -1      1347 9.52426E-01
 -1      1348 1.05534E+00
 -1      1349 8.78125E-01
 -1      1350 8.03823E-01
 -1      1351 8.78125E-01
 -1      1352 7.90104E-01
 -1      1353 8.57792E-01
 -1      1354 7.90104E-01
 -1      1355 9.39198E-01
 -1      1356 1.03642E+00
 -1      1357 8.57792E-01
 -1      1358 1.16085E+00
 -1      1359 1.26657E+00
 -1      1360 1.06362E+00
 -1      1361 1.48616E+00
 -1      1362 1.66488E+00
 -1      1363 1.40764E+00
 -1      1364 1.88818E+00
 -1      1365 2.16188E+00
 -1      1366 1.85053E+00
 -1      1367 2.33737E+00
 -1      1368 2.69274E+00
 -1      1369 2.24931E+00
 -1      1370 2.96069E+00
 -1      1371 3.21172E+00
 -1      1372 2.69274E+00
 -1      1373 3.46274E+00
 -1      1374 3.46274E+00
 -1      1375 3.21172E+00
 -1      1376 3.33281E+00
 -1      1377 3.20287E+00
 -1      1378 3.33281E+00
 -1      1379 3.10018E+00
 -1      1380 3.50512E+00
 -1      1381 3.10018E+00
 -1      1382 4.24923E+00
 -1      1383 6.48578E+00
 -1      1384 3.74160E+00
 -1      1385 8.48586E+00
 -1      1386 9.13696E+00
 -1      1387 6.48578E+00
 -1      1388 9.78806E+00
 -1      1389 9.78806E+00
 -1      1390 9.13696E+00
 -1      1391 9.61351E+00
 -1      1392 9.43897E+00
 -1      1393 9.61351E+00
 -1      1394 7.61735E+00
 -1      1395 5.79574E+00
 -1      1396 7.61735E+00
 -1      1397 4.44852E+00
 -1      1398 3.19768E+00
 -1      1399 4.44852E+00
 -1      1400 3.29405E+00
 -1      1401 3.38898E+00
 -1      1402 3.19768E+00
 -1      1403 3.48390E+00
 -1      1404 3.48390E+00
 -1      1405 3.38898E+00
 -1      1406 3.33415E+00
 -1      1407 3.18440E+00
 -1      1408 3.33415E+00
 -1      1409 2.89243E+00
 -1      1410 2.55563E+00
 -1      1411 2.89243E+00
 -1      1412 2.38466E+00
 -1      1413 2.09682E+00
 -1      1414 2.42948E+00
 -1      1415 1.90478E+00
 -1      1416 1.65826E+00
 -1      1417 2.06647E+00
 -1      1418 1.44951E+00
 -1      1419 1.26836E+00
 -1      1420 1.66569E+00
 -1      1421 1.08062E+00
 -1      1422 9.64275E-01
 -1      1423 1.26919E+00
 -1      1424 8.11555E-01
 -1      1425 7.10387E-01
 -1      1426 9.28726E-01
 -1      1427 5.93449E-01
 -1      1428 5.11298E-01
 -1      1429 6.59069E-01
 -1      1430 4.25166E-01
 -1      1431 3.61118E-01
 -1      1432 4.55999E-01
 -1      1433 3.11545E-01
 -1      1434 2.62859E-01
 -1      1435 3.20295E-01
 -1      1436 2.30285E-01
 -1      1437 1.96833E-01
 -1      1438 2.38147E-01
 -1      1439 1.64936E-01
 -1      1440 1.33762E-01
 -1      1441 1.73676E-01
 -1      1442 1.13453E-01
 -1      1443 1.00210E-01
 -1      1444 1.21470E-01
 -1      1445 8.90157E-02
 -1      1446 7.87736E-02
 -1      1447 8.99679E-02
 -1      1448 7.01722E-02
 -1      1449 6.15708E-02
 -1      1450 7.01722E-02
 -1      1451 5.44206E-02
 -1      1452 4.72705E-02
 -1      1453 5.44206E-02
 -1      1454 4.13623E-02
 -1      1455 3.54541E-02
 -1      1456 4.13623E-02
 -1      1457 3.06184E-02
 -1      1458 2.57439E-02
 -1      1459 3.06184E-02
 -1      1460 2.23498E-02
 -1      1461 1.88105E-02
 -1      1462 2.23886E-02
 -1      1463 1.64797E-02
 -1      1464 1.43330E-02
 -1      1465 1.66638E-02
 -1      1466 1.21325E-02
 -1      1467 9.93192E-03
 -1      1468 1.21325E-02
 -1      1469 8.00553E-03
 -1      1470 5.77779E-03
 -1      1471 8.00553E-03
 -1      1472 4.73583E-03
 -1      1473 3.99521E-03
 -1      1474 5.03717E-03
 -1      1475 3.02878E-03
 -1      1476 1.93444E-03
 -1      1477 1.51763E-03
 -1      1478 3.02878E-03
 -1      1479 3.41201E+00
 -1      1480 8.68230E+00
 -1      1481 8.68230E+00
 -1      1482 2.41526E+00
 -1      1483 2.91363E+00
 -1      1484 2.91363E+00
 -1      1485 1.65641E+00
 -1      1486 2.03583E+00
 -1      1487 2.03583E+00
 -1      1488 1.22239E+00
 -1      1489 1.43940E+00
 -1      1490 1.43940E+00
 -1      1491 1.01216E+00
 -1      1492 1.11727E+00
 -1      1493 1.11727E+00
 -1      1494 8.36172E-01
 -1      1495 9.24166E-01
 -1      1496 9.24166E-01
 -1      1497 6.76593E-01
 -1      1498 7.56382E-01
 -1      1499 7.56382E-01
 -1      1500 5.19216E-01
 -1      1501 5.97904E-01
 -1      1502 5.97904E-01
 -1      1503 3.89530E-01
 -1      1504 4.54373E-01
 -1      1505 4.54373E-01
 -1      1506 3.57955E-01
 -1      1507 3.73742E-01
 -1      1508 3.73742E-01
 -1      1509 3.07911E-01
 -1      1510 3.21777E-01
 -1      1511 3.21777E-01
 -1      1512 3.80677E-01
 -1      1513 3.30223E-01
 -1      1514 3.07911E-01
 -1      1515 5.01513E-01
 -1      1516 4.31131E-01
 -1      1517 3.80677E-01
 -1      1518 6.42658E-01
 -1      1519 5.71895E-01
 -1      1520 5.01513E-01
 -1      1521 9.07961E-01
 -1      1522 8.01007E-01
 -1      1523 7.30245E-01
 -1      1524 1.13348E+00
 -1      1525 1.08162E+00
 -1      1526 1.06226E+00
 -1      1527 1.55823E+00
 -1      1528 1.31208E+00
 -1      1529 1.41452E+00
 -1      1530 1.86043E+00
 -1      1531 1.65248E+00
 -1      1532 1.68736E+00
 -1      1533 2.00635E+00
 -1      1534 1.93925E+00
 -1      1535 1.86043E+00
 -1      1536 2.20716E+00
 -1      1537 2.07344E+00
 -1      1538 2.00635E+00
 -1      1539 2.34087E+00
 -1      1540 2.34087E+00
 -1      1541 2.20716E+00
 -1      1542 2.28197E+00
 -1      1543 2.31142E+00
 -1      1544 2.31142E+00
 -1      1545 1.88072E+00
 -1      1546 2.08135E+00
 -1      1547 2.08135E+00
 -1      1548 1.34096E+00
 -1      1549 1.61084E+00
 -1      1550 1.61084E+00
 -1      1551 8.61890E-01
 -1      1552 1.11337E+00
 -1      1553 1.11337E+00
 -1      1554 5.88402E-01
 -1      1555 7.13197E-01
 -1      1556 7.37095E-01
 -1      1557 3.73693E-01
 -1      1558 4.80387E-01
 -1      1559 4.80387E-01
 -1      1560 3.86513E-01
 -1      1561 3.75014E-01
 -1      1562 3.73693E-01
 -1      1563 4.03708E-01
 -1      1564 3.98012E-01
 -1      1565 3.86513E-01
 -1      1566 4.09404E-01
 -1      1567 4.09404E-01
 -1      1568 4.03708E-01
 -1      1569 3.73879E-01
 -1      1570 3.91642E-01
 -1      1571 3.91642E-01
 -1      1572 3.14916E-01
 -1      1573 3.44398E-01
 -1      1574 3.44398E-01
 -1      1575 2.58998E-01
 -1      1576 2.86957E-01
 -1      1577 2.86957E-01
 -1      1578 2.08560E-01
 -1      1579 2.35686E-01
 -1      1580 2.35686E-01
 -1      1581 1.60082E-01
 -1      1582 1.85271E-01
 -1      1583 1.89085E-01
 -1      1584 1.25588E-01
 -1      1585 1.39978E-01
 -1      1586 1.45692E-01
 -1      1587 9.81220E-02
 -1      1588 1.11855E-01
 -1      1589 1.11855E-01
 -1      1590 7.37876E-02
 -1      1591 8.59548E-02
 -1      1592 8.59548E-02
 -1      1593 5.33400E-02
 -1      1594 6.35638E-02
 -1      1595 6.35638E-02
 -1      1596 3.74333E-02
 -1      1597 4.56765E-02
 -1      1598 4.56765E-02
 -1      1599 2.90925E-02
 -1      1600 3.30816E-02
 -1      1601 3.36614E-02
 -1      1602 2.39288E-02
 -1      1603 2.64369E-02
 -1      1604 2.66542E-02
 -1      1605 1.88566E-02
 -1      1606 2.13578E-02
 -1      1607 2.14277E-02
 -1      1608 1.40831E-02
 -1      1609 1.64699E-02
 -1      1610 1.64699E-02
 -1      1611 1.20902E-02
 -1      1612 1.30867E-02
 -1      1613 1.30867E-02
 -1      1614 9.41627E-03
 -1      1615 1.07533E-02
 -1      1616 1.07533E-02
 -1      1617 5.99709E-03
 -1      1618 7.70668E-03
 -1      1619 7.70668E-03
 -1      1620 3.45427E-03
 -1      1621 4.72568E-03
 -1      1622 4.72568E-03
 -1      1623 2.58578E-03
 -1      1624 1.16639E-03
 -1      1625 1.63116E-03
 -1      1626 1.03500E-03
 -1      1627 1.16639E-03
 -1      1628 1.54503E-03
 -1      1629 8.40625E-04
 -1      1630 8.16532E-04
 -1      1631 1.32657E-03
 -1      1632 7.90238E-04
 -1      1633 7.90238E-04
 -1      1634 1.05772E-03
 -1      1635 7.07969E-04
 -1      1636 7.61340E-04
 -1      1637 9.78430E-04
 -1      1638 5.05472E-04
 -1      1639 5.82516E-04
 -1      1640 8.24079E-04
 -1      1641 3.02225E-04
 -1      1642 3.58475E-04
 -1      1643 5.51629E-04
 -1      1644 2.87900E-04
 -1      1645 2.54093E-04
 -1      1646 3.56500E-04
 -1      1647 5.18690E-04
 -1      1648 4.37636E-04
 -1      1649 4.58103E-04
 -1      1650 7.80675E-04
 -1      1651 6.91350E-04
 -1      1652 7.80499E-04
 -1      1653 9.61222E-04
 -1      1654 9.08587E-04
 -1      1655 1.08107E-03
 -1      1656 9.80775E-04
 -1      1657 9.80775E-04
 -1      1658 1.22854E-03
 -1      1659 9.26563E-04
 -1      1660 9.80775E-04
 -1      1661 1.24809E-03
 -1      1662 9.84218E-04
 -1      1663 9.75166E-04
 -1      1664 1.29669E-03
 -1      1665 1.51763E-03
 -1      1666 1.34274E-03
 -1      1667 1.70382E-03
 -1      1668 2.06235E-03
 -1      1669 2.80084E+01
 -1      1670 2.80084E+01
 -1      1671 3.87119E+01
 -1      1672 2.69637E+01
 -1      1673 4.79376E+01
 -1      1674 4.79376E+01
 -1      1675 2.21646E+01
 -1      1676 3.54864E+01
 -1      1677 1.13538E+01
 -1      1678 1.62877E+01
 -1      1679 1.16598E+01
 -1      1680 1.14263E+01
 -1      1681 1.18933E+01
 -1      1682 1.18933E+01
 -1      1683 1.18694E+01
 -1      1684 1.18442E+01
 -1      1685 1.24480E+01
 -1      1686 1.19437E+01
 -1      1687 1.29522E+01
 -1      1688 1.29522E+01
 -1      1689 1.45169E+01
 -1      1690 1.19626E+01
 -1      1691 3.18400E+01
 -1      1692 1.83979E+01
 -1      1693 4.49450E+01
 -1      1694 4.49450E+01
 -1      1695 3.11838E+01
 -1      1696 4.13723E+01
 -1      1697 2.61311E+01
 -1      1698 2.61311E+01
 -1      1699 2.61481E+01
 -1      1700 2.61311E+01
 -1      1701 2.63875E+01
 -1      1702 2.50830E+01
 -1      1703 3.04733E+01
 -1      1704 2.84188E+01
 -1      1705 3.13199E+01
 -1      1706 3.13199E+01
 -1      1707 1.39811E+01
 -1      1708 2.26505E+01
 -1      1709 1.20580E+01
 -1      1710 1.27955E+01
 -1      1711 1.25061E+01
 -1      1712 1.25061E+01
 -1      1713 1.32070E+01
 -1      1714 1.24427E+01
 -1      1715 1.40347E+01
 -1      1716 1.40347E+01
 -1      1717 1.29928E+01
 -1      1718 1.34358E+01
 -1      1719 1.99394E+01
 -1      1720 1.31486E+01
 -1      1721 2.87239E+01
 -1      1722 2.76560E+01
 -1      1723 3.11835E+01
 -1      1724 3.11835E+01
 -1      1725 2.93084E+01
 -1      1726 3.11835E+01
 -1      1727 2.80084E+01
 -1      1728 2.83458E+01
 -1      1729 3.54864E+01
 -1      1730 3.15756E+01
 -1      1731 2.58578E-03
 -1      1732 2.49965E-03
 -1      1733 3.05309E+01
 -1      1734 3.87119E+01
 -1      1735 1.71582E+01
 -1      1736 1.13538E+01
 -1      1737 1.16598E+01
 -1      1738 1.18442E+01
 -1      1739 1.18694E+01
 -1      1740 1.24480E+01
 -1      1741 1.19626E+01
 -1      1742 1.48540E+01
 -1      1743 3.18400E+01
 -1      1744 4.13723E+01
 -1      1745 3.27468E+01
 -1      1746 2.76942E+01
 -1      1747 2.66290E+01
 -1      1748 2.75952E+01
 -1      1749 3.04733E+01
 -1      1750 2.26505E+01
 -1      1751 1.27955E+01
 -1      1752 1.20580E+01
 -1      1753 1.24427E+01
 -1      1754 1.32070E+01
 -1      1755 1.34358E+01
 -1      1756 1.29928E+01
 -1      1757 2.08652E+01
 -1      1758 3.10414E+01
 -1      1759 3.35009E+01
 -1      1760 3.25383E+01
 -1      1761 9.50758E+00
 -1      1762 1.27443E+00
 -1      1763 1.65197E+00
 -1      1764 2.33966E+00
 -1      1765 4.18736E+00
 -1      1766 1.72671E+00
 -1      1767 8.76071E-01
 -1      1768 9.74446E-01
 -1      1769 7.58366E-01
 -1      1770 8.20405E-01
 -1      1771 7.37438E-01
 -1      1772 6.79678E-01
 -1      1773 7.21002E-01
 -1      1774 6.44408E-01
 -1      1775 6.28204E-01
 -1      1776 6.52317E-01
 -1      1777 5.79683E-01
 -1      1778 6.60034E-01
 -1      1779 6.32014E-01
 -1      1780 5.56131E-01
 -1      1781 7.29030E-01
 -1      1782 6.87732E-01
 -1      1783 5.87638E-01
 -1      1784 8.32766E-01
 -1      1785 7.68330E-01
 -1      1786 6.54636E-01
 -1      1787 9.86151E-01
 -1      1788 8.85150E-01
 -1      1789 7.46319E-01
 -1      1790 1.23600E+00
 -1      1791 1.05626E+00
 -1      1792 8.68809E-01
 -1      1793 1.69806E+00
 -1      1794 1.33585E+00
 -1      1795 1.03876E+00
 -1      1796 2.59225E+00
 -1      1797 1.78313E+00
 -1      1798 1.22368E+00
 -1      1799 8.04483E+00
 -1      1800 3.00640E+00
 -1      1801 1.72291E+00
 -1      1802 2.77454E+00
 -1      1803 5.14449E+00
 -1      1804 2.12386E+00
 -1      1805 2.62223E+00
 -1      1806 1.98476E+00
 -1      1807 3.37154E+00
 -1      1808 2.50127E+00
 -1      1809 1.88394E+00
 -1      1810 1.63943E+00
 -1      1811 1.32908E+00
 -1      1812 1.43708E+00
 -1      1813 1.13946E+00
 -1      1814 9.85787E-01
 -1      1815 1.00295E+00
 -1      1816 9.26859E-01
 -1      1817 8.23950E-01
 -1      1818 7.54402E-01
 -1      1819 7.65253E-01
 -1      1820 6.90951E-01
 -1      1821 6.36777E-01
 -1      1822 6.75294E-01
 -1      1823 6.61575E-01
 -1      1824 5.62422E-01
 -1      1825 7.30890E-01
 -1      1826 8.12297E-01
 -1      1827 6.16080E-01
 -1      1828 9.70870E-01
 -1      1829 1.09530E+00
 -1      1830 8.43968E-01
 -1      1831 1.29855E+00
 -1      1832 1.51814E+00
 -1      1833 1.20579E+00
 -1      1834 1.74699E+00
 -1      1835 1.97029E+00
 -1      1836 1.63790E+00
 -1      1837 2.18418E+00
 -1      1838 2.35967E+00
 -1      1839 2.08065E+00
 -1      1840 2.50457E+00
 -1      1841 2.77251E+00
 -1      1842 2.43944E+00
 -1      1843 2.97837E+00
 -1      1844 3.22940E+00
 -1      1845 2.79020E+00
 -1      1846 3.58424E+00
 -1      1847 3.45430E+00
 -1      1848 3.35090E+00
 -1      1849 3.77107E+00
 -1      1850 3.66838E+00
 -1      1851 4.02250E+00
 -1      1852 3.71524E+00
 -1      1853 4.45935E+00
 -1      1854 4.38613E+00
 -1      1855 4.35289E+00
 -1      1856 6.35296E+00
 -1      1857 4.32653E+00
 -1      1858 7.41290E+00
 -1      1859 8.06400E+00
 -1      1860 5.28000E+00
 -1      1861 9.14432E+00
 -1      1862 8.96978E+00
 -1      1863 7.42026E+00
 -1      1864 7.51990E+00
 -1      1865 5.69829E+00
 -1      1866 7.05071E+00
 -1      1867 4.38459E+00
 -1      1868 3.03737E+00
 -1      1869 4.28714E+00
 -1      1870 3.51711E+00
 -1      1871 3.61349E+00
 -1      1872 3.45318E+00
 -1      1873 3.39431E+00
 -1      1874 3.48923E+00
 -1      1875 3.71374E+00
 -1      1876 3.16460E+00
 -1      1877 3.01485E+00
 -1      1878 3.16993E+00
 -1      1879 2.89983E+00
 -1      1880 2.60785E+00
 -1      1881 2.73027E+00
 -1      1882 2.46523E+00
 -1      1883 2.29426E+00
 -1      1884 2.47263E+00
 -1      1885 2.09003E+00
 -1      1886 1.89799E+00
 -1      1887 2.12578E+00
 -1      1888 1.69663E+00
 -1      1889 1.48789E+00
 -1      1890 1.72019E+00
 -1      1891 1.30704E+00
 -1      1892 1.11929E+00
 -1      1893 1.33799E+00
 -1      1894 9.70405E-01
 -1      1895 8.17685E-01
 -1      1896 1.00825E+00
 -1      1897 7.01714E-01
 -1      1898 5.84776E-01
 -1      1899 7.43393E-01
 -1      1900 4.95990E-01
 -1      1901 4.09858E-01
 -1      1902 5.38635E-01
 -1      1903 3.43616E-01
 -1      1904 2.94043E-01
 -1      1905 3.83606E-01
 -1      1906 2.48204E-01
 -1      1907 2.15630E-01
 -1      1908 2.71526E-01
 -1      1909 1.76430E-01
 -1      1910 1.44533E-01
 -1      1911 1.86487E-01
 -1      1912 1.21470E-01
 -1      1913 1.01162E-01
 -1      1914 1.24224E-01
 -1      1915 8.63271E-02
 -1      1916 7.51328E-02
 -1      1917 8.63271E-02
 -1      1918 6.52191E-02
 -1      1919 5.66177E-02
 -1      1920 6.15784E-02
 -1      1921 4.91054E-02
 -1      1922 4.19552E-02
 -1      1923 4.41523E-02
 -1      1924 3.83003E-02
 -1      1925 3.23921E-02
 -1      1926 3.29851E-02
 -1      1927 2.90925E-02
 -1      1928 2.42568E-02
 -1      1929 2.60305E-02
 -1      1930 2.13293E-02
 -1      1931 1.79352E-02
 -1      1932 1.98034E-02
 -1      1933 1.53679E-02
 -1      1934 1.30371E-02
 -1      1935 1.43085E-02
 -1      1936 1.12893E-02
 -1      1937 9.08877E-03
 -1      1938 9.99339E-03
 -1      1939 7.74263E-03
 -1      1940 5.81624E-03
 -1      1941 6.89948E-03
 -1      1942 4.73765E-03
 -1      1943 3.69569E-03
 -1      1944 4.47475E-03
 -1      1945 3.02878E-03
 -1      1946 1.13570E+00
 -1      1947 1.35271E+00
 -1      1948 8.91279E-01
 -1      1949 9.96394E-01
 -1      1950 9.09706E-01
 -1      1951 7.30371E-01
 -1      1952 8.18365E-01
 -1      1953 6.97485E-01
 -1      1954 5.80506E-01
 -1      1955 6.60295E-01
 -1      1956 5.54495E-01
 -1      1957 4.33414E-01
 -1      1958 5.12102E-01
 -1      1959 4.16016E-01
 -1      1960 3.45625E-01
 -1      1961 4.10469E-01
 -1      1962 3.24667E-01
 -1      1963 3.23361E-01
 -1      1964 3.39148E-01
 -1      1965 2.95244E-01
 -1      1966 2.64630E-01
 -1      1967 3.00808E-01
 -1      1968 2.66214E-01
 -1      1969 2.71063E-01
 -1      1970 2.48752E-01
 -1      1971 2.27782E-01
 -1      1972 3.49498E-01
 -1      1973 2.99044E-01
 -1      1974 2.39884E-01
 -1      1975 5.04549E-01
 -1      1976 4.34167E-01
 -1      1977 3.52534E-01
 -1      1978 7.84886E-01
 -1      1979 6.26537E-01
 -1      1980 5.59191E-01
 -1      1981 1.11187E+00
 -1      1982 9.38210E-01
 -1      1983 8.34502E-01
 -1      1984 1.42975E+00
 -1      1985 1.25115E+00
 -1      1986 1.12710E+00
 -1      1987 1.68736E+00
 -1      1988 1.59311E+00
 -1      1989 1.42975E+00
 -1      1990 1.86043E+00
 -1      1991 1.78161E+00
 -1      1992 1.68736E+00
 -1      1993 1.91253E+00
 -1      1994 1.84543E+00
 -1      1995 1.76661E+00
 -1      1996 2.06891E+00
 -1      1997 1.93520E+00
 -1      1998 1.77429E+00
 -1      1999 2.00538E+00
 -1      2000 2.03483E+00
 -1      2001 1.76287E+00
 -1      2002 1.66836E+00
 -1      2003 1.86898E+00
 -1      2004 1.59239E+00
 -1      2005 1.24110E+00
 -1      2006 1.51098E+00
 -1      2007 1.29862E+00
 -1      2008 8.53034E-01
 -1      2009 1.08062E+00
 -1      2010 9.80759E-01
 -1      2011 5.61386E-01
 -1      2012 7.10079E-01
 -1      2013 6.77325E-01
 -1      2014 3.31700E-01
 -1      2015 4.39715E-01
 -1      2016 4.12699E-01
 -1      2017 3.18665E-01
 -1      2018 3.17344E-01
 -1      2019 2.76672E-01
 -1      2020 3.41636E-01
 -1      2021 3.30136E-01
 -1      2022 2.73788E-01
 -1      2023 3.58215E-01
 -1      2024 3.52519E-01
 -1      2025 2.96142E-01
 -1      2026 3.31068E-01
 -1      2027 3.48830E-01
 -1      2028 2.97641E-01
 -1      2029 2.81725E-01
 -1      2030 3.11206E-01
 -1      2031 2.68395E-01
 -1      2032 2.37657E-01
 -1      2033 2.65616E-01
 -1      2034 2.32425E-01
 -1      2035 2.00530E-01
 -1      2036 2.23842E-01
 -1      2037 2.02501E-01
 -1      2038 1.60886E-01
 -1      2039 1.84176E-01
 -1      2040 1.72332E-01
 -1      2041 1.24124E-01
 -1      2042 1.44228E-01
 -1      2043 1.39318E-01
 -1      2044 9.53004E-02
 -1      2045 1.09033E-01
 -1      2046 1.07570E-01
 -1      2047 7.25577E-02
 -1      2048 8.47249E-02
 -1      2049 8.19033E-02
 -1      2050 5.32096E-02
 -1      2051 6.34334E-02
 -1      2052 6.22034E-02
 -1      2053 3.81959E-02
 -1      2054 4.58594E-02
 -1      2055 4.57289E-02
 -1      2056 2.93098E-02
 -1      2057 3.36614E-02
 -1      2058 3.38443E-02
 -1      2059 2.39987E-02
 -1      2060 2.66542E-02
 -1      2061 2.66542E-02
 -1      2062 1.88075E-02
 -1      2063 2.13786E-02
 -1      2064 2.13786E-02
 -1      2065 1.39527E-02
 -1      2066 1.63395E-02
 -1      2067 1.62904E-02
 -1      2068 1.07039E-02
 -1      2069 1.17003E-02
 -1      2070 1.15699E-02
 -1      2071 8.11949E-03
 -1      2072 9.45647E-03
 -1      2073 8.07012E-03
 -1      2074 5.15015E-03
 -1      2075 6.85974E-03
 -1      2076 5.56296E-03
 -1      2077 3.08481E-03
 -1      2078 4.35622E-03
 -1      2079 3.50928E-03
 -1      2080 2.13019E-03
 -1      2081 1.22679E-03
 -1      2082 1.27718E-03
 -1      2083 1.91173E-03
 -1      2084 2.13019E-03
 -1      2085 2.08080E-03
 -1      2086 2.13019E-03
 -1      2087 1.11604E-03
 -1      2088 1.14494E-03
 -1      2089 1.36440E-03
 -1      2090 8.43370E-04
 -1      2091 9.68823E-04
 -1      2092 1.13533E-03
 -1      2093 5.26044E-04
 -1      2094 6.73041E-04
 -1      2095 8.17786E-04
 -1      2096 4.13202E-04
 -1      2097 4.61335E-04
 -1      2098 5.82747E-04
 -1      2099 6.08200E-04
 -1      2100 4.58464E-04
 -1      2101 5.63299E-04
 -1      2102 9.05163E-04
 -1      2103 7.32503E-04
 -1      2104 7.32864E-04
 -1      2105 1.29734E-03
 -1      2106 1.16942E-03
 -1      2107 1.12143E-03
 -1      2108 1.41291E-03
 -1      2109 1.39336E-03
 -1      2110 1.48171E-03
 -1      2111 1.55470E-03
 -1      2112 1.55470E-03
 -1      2113 1.71952E-03
 -1      2114 1.91400E-03
 -1      2115 1.86539E-03
 -1      2116 2.17201E-03
 -1      2117 1.48616E+00
 -1      2118 1.86558E+00
 -1      2119 1.57418E+00
 -1      2120 1.18246E+00
 -1      2121 3.87119E+01
 -1      2122 2.94862E+01
 -1      2123 1.06585E+01
 -1      2124 1.65355E+01
 -1      2125 3.41619E+01
 -1      2126 3.41619E+01
 -1      2127 2.00803E+01
 -1      2128 3.25315E+01
 -1      2129 1.03604E+00
 -1      2130 1.21306E+00
 -1      2131 9.77654E-01
 -1      2132 8.54695E-01
 -1      2133 9.09778E+00
 -1      2134 9.02528E+00
 -1      2135 1.05408E+01
 -1      2136 1.03073E+01
 -1      2137 1.08129E+01
 -1      2138 1.08620E+01
 -1      2139 1.11272E+01
 -1      2140 1.10529E+01
 -1      2141 1.14341E+01
 -1      2142 1.09298E+01
 -1      2143 1.01133E+01
 -1      2144 8.84876E+00
 -1      2145 9.83835E+00
 -1      2146 1.35733E+01
 -1      2147 9.69239E+00
 -1      2148 3.01141E+01
 -1      2149 1.70091E+01
 -1      2150 3.19834E+01
 -1      2151 3.55562E+01
 -1      2152 2.64296E+01
 -1      2153 3.14822E+01
 -1      2154 3.21853E+01
 -1      2155 3.21853E+01
 -1      2156 3.11201E+01
 -1      2157 3.21853E+01
 -1      2158 2.75293E+01
 -1      2159 2.54979E+01
 -1      2160 3.10542E+01
 -1      2161 2.59982E+01
 -1      2162 2.51516E+01
 -1      2163 1.31904E+01
 -1      2164 2.18597E+01
 -1      2165 1.65380E+01
 -1      2166 9.55142E+00
 -1      2167 1.07371E+01
 -1      2168 1.07520E+01
 -1      2169 1.03040E+01
 -1      2170 1.15380E+01
 -1      2171 1.16014E+01
 -1      2172 1.25699E+01
 -1      2173 1.17422E+01
 -1      2174 1.09010E+01
 -1      2175 1.12666E+01
 -1      2176 1.18654E+01
 -1      2177 1.00903E+01
 -1      2178 9.93446E+00
 -1      2179 8.36407E+00
 -1      2180 2.01199E+01
 -1      2181 1.24033E+01
 -1      2182 2.67651E+01
 -1      2183 2.43056E+01
 -1      2184 3.35009E+01
 -1      2185 3.35009E+01
 -1      2186 3.41619E+01
 -1      2187 3.51246E+01
 -1      2188 3.67482E+01
 -1      2189 2.76332E+01
 -1      2190 2.86779E+01
 -1      2191 2.72925E-03
 -1      2192 1.35806E+01
 -1      2193 2.86768E+00
 -1      2194 2.33058E+01
 -1      2195 8.40253E+00
 -1      2196 2.04800E+00
 -1      2197 2.71535E-03
 -1      2198 3.12642E+01
 -1      2199 2.37073E-03
 -1      2200 2.76332E+01
 -1      2201 2.93943E-03
 -1      2202 3.51246E+01
 -1      2203 2.67651E+01
 -1      2204 9.34498E+00
 -1      2205 1.04007E+01
 -1      2206 9.84743E+00
 -1      2207 9.94627E+00
 -1      2208 2.42553E+01
 -1      2209 2.21580E+01
 -1      2210 1.97803E+01
 -1      2211 3.66764E+01
 -1      2212 3.09207E+01
 -1      2213 2.56662E+01
 -1      2214 2.07253E+01
 -1      2215 1.18475E+01
 -1      2216 1.00623E+01
 -1      2217 8.54412E+00
 -1      2218 6.94841E+00
 -1      2219 1.00706E+01
 -1      2220 7.97881E+00
 -1      2221 9.50946E+00
 -1      2222 7.56809E+00
 -1      2223 8.24551E+00
 -1      2224 1.58437E+01
 -1      2225 5.39652E-01
 -1      2226 5.77016E-01
 -1      2227 5.98284E-01
 -1      2228 6.53949E-01
 -1      2229 4.93527E-01
 -1      2230 4.79421E-01
 -1      2231 4.75612E-01
 -1      2232 5.26711E-01
 -1      2233 4.99013E-01
 -1      2234 4.18494E-01
 -1      2235 5.87768E-01
 -1      2236 5.48469E-01
 -1      2237 4.59843E-01
 -1      2238 6.58170E-01
 -1      2239 6.05786E-01
 -1      2240 4.99619E-01
 -1      2241 7.29723E-01
 -1      2242 6.59616E-01
 -1      2243 5.19084E-01
 -1      2244 8.29570E-01
 -1      2245 7.29723E-01
 -1      2246 5.20530E-01
 -1      2247 9.60575E-01
 -1      2248 8.75501E-01
 -1      2249 5.66461E-01
 -1      2250 1.69606E+00
 -1      2251 1.28191E+00
 -1      2252 9.33724E-01
 -1      2253 1.54376E+00
 -1      2254 1.20159E+00
 -1      2255 9.57086E-01
 -1      2256 1.50555E+01
 -1      2257 2.12359E+01
 -1      2258 9.76086E+00
 -1      2259 1.33057E+01
 -1      2260 8.85128E-01
 -1      2261 6.95505E-01
 -1      2262 6.49637E-01
 -1      2263 6.09623E-01
 -1      2264 5.50695E-01
 -1      2265 4.91798E-01
 -1      2266 5.13018E-01
 -1      2267 4.54320E-01
 -1      2268 3.68239E-01
 -1      2269 4.35106E-01
 -1      2270 4.19449E-01
 -1      2271 3.11347E-01
 -1      2272 5.10856E-01
 -1      2273 5.80171E-01
 -1      2274 3.83540E-01
 -1      2275 7.17457E-01
 -1      2276 8.76030E-01
 -1      2277 6.12233E-01
 -1      2278 1.04826E+00
 -1      2279 1.25151E+00
 -1      2280 9.21749E-01
 -1      2281 1.47367E+00
 -1      2282 1.70252E+00
 -1      2283 1.31613E+00
 -1      2284 1.97224E+00
 -1      2285 2.18613E+00
 -1      2286 1.80800E+00
 -1      2287 2.51073E+00
 -1      2288 2.65563E+00
 -1      2289 2.40232E+00
 -1      2290 3.02999E+00
 -1      2291 3.23586E+00
 -1      2292 3.10129E+00
 -1      2293 3.63685E+00
 -1      2294 3.99168E+00
 -1      2295 3.87664E+00
 -1      2296 5.01722E+00
 -1      2297 5.33399E+00
 -1      2298 5.30317E+00
 -1      2299 5.95759E+00
 -1      2300 6.00445E+00
 -1      2301 6.95231E+00
 -1      2302 4.01647E+00
 -1      2303 4.49621E+00
 -1      2304 5.46672E+00
 -1      2305 5.24754E+00
 -1      2306 6.03000E+00
 -1      2307 4.04683E+00
 -1      2308 3.72220E+00
 -1      2309 5.79981E+00
 -1      2310 3.23202E+00
 -1      2311 3.11700E+00
 -1      2312 4.10892E+00
 -1      2313 2.80028E+00
 -1      2314 2.65766E+00
 -1      2315 3.30202E+00
 -1      2316 2.35299E+00
 -1      2317 2.14876E+00
 -1      2318 2.68064E+00
 -1      2319 1.88205E+00
 -1      2320 1.68070E+00
 -1      2321 2.10927E+00
 -1      2322 1.46012E+00
 -1      2323 1.27927E+00
 -1      2324 1.62198E+00
 -1      2325 1.10340E+00
 -1      2326 9.54516E-01
 -1      2327 1.22554E+00
 -1      2328 8.17676E-01
 -1      2329 7.01704E-01
 -1      2330 9.12827E-01
 -1      2331 5.97168E-01
 -1      2332 5.08381E-01
 -1      2333 6.71451E-01
 -1      2334 4.29651E-01
 -1      2335 3.63409E-01
 -1      2336 4.88184E-01
 -1      2337 3.05825E-01
 -1      2338 2.59986E-01
 -1      2339 3.51869E-01
 -1      2340 2.13839E-01
 -1      2341 1.74639E-01
 -1      2342 2.48138E-01
 -1      2343 1.43550E-01
 -1      2344 1.20488E-01
 -1      2345 1.70902E-01
 -1      2346 9.80319E-02
 -1      2347 8.31968E-02
 -1      2348 1.17358E-01
 -1      2349 6.71496E-02
 -1      2350 5.72359E-02
 -1      2351 7.88543E-02
 -1      2352 4.59298E-02
 -1      2353 3.84174E-02
 -1      2354 5.15010E-02
 -1      2355 3.09822E-02
 -1      2356 2.73273E-02
 -1      2357 3.27597E-02
 -1      2358 2.34089E-02
 -1      2359 2.01092E-02
 -1      2360 2.14060E-02
 -1      2361 1.75030E-02
 -1      2362 1.45755E-02
 -1      2363 1.48813E-02
 -1      2364 1.31511E-02
 -1      2365 1.05837E-02
 -1      2366 1.08507E-02
 -1      2367 9.23234E-03
 -1      2368 7.48455E-03
 -1      2369 8.07485E-03
 -1      2370 6.41050E-03
 -1      2371 5.06437E-03
 -1      2372 5.64945E-03
 -1      2373 4.42689E-03
 -1      2374 3.34830E-03
 -1      2375 2.89157E-03
 -1      2376 3.93792E-03
 -1      2377 4.23558E-01
 -1      2378 4.93634E-01
 -1      2379 5.21953E-01
 -1      2380 5.94867E-01
 -1      2381 3.91016E-01
 -1      2382 6.75170E-01
 -1      2383 8.14477E-01
 -1      2384 4.99638E-01
 -1      2385 3.17967E-01
 -1      2386 3.86370E-01
 -1      2387 3.25509E-01
 -1      2388 2.55219E-01
 -1      2389 2.78164E-01
 -1      2390 2.48519E-01
 -1      2391 2.44994E-01
 -1      2392 2.51471E-01
 -1      2393 2.04969E-01
 -1      2394 2.30232E-01
 -1      2395 2.52785E-01
 -1      2396 2.09012E-01
 -1      2397 2.44285E-01
 -1      2398 2.60164E-01
 -1      2399 2.46735E-01
 -1      2400 3.01665E-01
 -1      2401 2.73684E-01
 -1      2402 3.06065E-01
 -1      2403 4.44033E-01
 -1      2404 3.59363E-01
 -1      2405 3.93163E-01
 -1      2406 6.61751E-01
 -1      2407 5.39763E-01
 -1      2408 5.46593E-01
 -1      2409 9.02005E-01
 -1      2410 7.48681E-01
 -1      2411 7.29254E-01
 -1      2412 1.16500E+00
 -1      2413 1.02573E+00
 -1      2414 9.39906E-01
 -1      2415 1.39119E+00
 -1      2416 1.22783E+00
 -1      2417 1.12645E+00
 -1      2418 1.54732E+00
 -1      2419 1.45307E+00
 -1      2420 1.25115E+00
 -1      2421 1.52618E+00
 -1      2422 1.54117E+00
 -1      2423 1.30688E+00
 -1      2424 1.52726E+00
 -1      2425 1.50459E+00
 -1      2426 1.27915E+00
 -1      2427 1.52884E+00
 -1      2428 1.56292E+00
 -1      2429 1.29323E+00
 -1      2430 1.36297E+00
 -1      2431 1.49936E+00
 -1      2432 1.29942E+00
 -1      2433 1.14097E+00
 -1      2434 1.29835E+00
 -1      2435 1.20533E+00
 -1      2436 8.79608E-01
 -1      2437 1.04009E+00
 -1      2438 1.03982E+00
 -1      2439 6.11358E-01
 -1      2440 7.54313E-01
 -1      2441 8.13641E-01
 -1      2442 3.87684E-01
 -1      2443 5.09355E-01
 -1      2444 5.86343E-01
 -1      2445 3.09246E-01
 -1      2446 3.23601E-01
 -1      2447 4.20257E-01
 -1      2448 2.94550E-01
 -1      2449 2.83079E-01
 -1      2450 3.30008E-01
 -1      2451 2.81335E-01
 -1      2452 2.70452E-01
 -1      2453 2.79743E-01
 -1      2454 2.76475E-01
 -1      2455 2.85860E-01
 -1      2456 2.60170E-01
 -1      2457 2.50169E-01
 -1      2458 2.70030E-01
 -1      2459 2.58250E-01
 -1      2460 2.23301E-01
 -1      2461 2.39410E-01
 -1      2462 2.41045E-01
 -1      2463 1.95669E-01
 -1      2464 2.09484E-01
 -1      2465 2.16469E-01
 -1      2466 1.65097E-01
 -1      2467 1.81452E-01
 -1      2468 1.88434E-01
 -1      2469 1.32745E-01
 -1      2470 1.49403E-01
 -1      2471 1.58523E-01
 -1      2472 1.02431E-01
 -1      2473 1.17522E-01
 -1      2474 1.27606E-01
 -1      2475 7.82242E-02
 -1      2476 8.87998E-02
 -1      2477 9.87519E-02
 -1      2478 5.75790E-02
 -1      2479 6.67033E-02
 -1      2480 7.35998E-02
 -1      2481 4.09328E-02
 -1      2482 4.82830E-02
 -1      2483 5.27828E-02
 -1      2484 2.91994E-02
 -1      2485 3.37338E-02
 -1      2486 3.62879E-02
 -1      2487 2.18274E-02
 -1      2488 2.44829E-02
 -1      2489 2.43725E-02
 -1      2490 1.60892E-02
 -1      2491 1.87093E-02
 -1      2492 1.65380E-02
 -1      2493 1.22950E-02
 -1      2494 1.47631E-02
 -1      2495 1.20938E-02
 -1      2496 8.79239E-03
 -1      2497 1.10448E-02
 -1      2498 9.51746E-03
 -1      2499 6.29962E-03
 -1      2500 7.54705E-03
 -1      2501 7.02189E-03
 -1      2502 3.92723E-03
 -1      2503 5.18697E-03
 -1      2504 4.66389E-03
 -1      2505 3.50928E-03
 -1      2506 1.24870E-03
 -1      2507 1.39591E-03
 -1      2508 1.39591E-03
 -1      2509 1.47777E-03
 -1      2510 1.50928E-03
 -1      2511 1.85932E-03
 -1      2512 2.49386E-03
 -1      2513 1.89083E-03
 -1      2514 2.57802E+01
 -1      2515 3.12642E+01
 -1      2516 1.01347E-03
 -1      2517 1.18380E-03
 -1      2518 1.44438E-03
 -1      2519 9.68224E-04
 -1      2520 1.03293E-03
 -1      2521 1.39895E-03
 -1      2522 1.06025E-03
 -1      2523 1.01498E-03
 -1      2524 1.46517E-03
 -1      2525 1.18455E-03
 -1      2526 1.06025E-03
 -1      2527 1.51193E-03
 -1      2528 1.44537E-03
 -1      2529 1.18111E-03
 -1      2530 1.50850E-03
 -1      2531 1.72808E-03
 -1      2532 1.63206E-03
 -1      2533 1.69174E-03
 -1      2534 1.86987E-03
 -1      2535 1.72808E-03
 -1      2536 1.87843E-03
 -1      2537 2.41720E-03
 -1      2538 2.10651E-03
 -1      2539 2.11507E-03
 -1      2540 2.82607E-03
 -1      2541 3.10813E+01
 -1      2542 2.94577E+01
 -1      2543 1.62944E+00
 -1      2544 1.26304E+00
 -1      2545 7.83040E-01
 -1      2546 9.41753E-01
 -1      2547 5.82484E+00
 -1      2548 7.45808E+00
 -1      2549 7.18318E+00
 -1      2550 3.67482E+01
 -1      2551 3.67482E+01
 -1      2552 8.55444E+00
 -1      2553 7.70506E+00
 -1      2554 3.66764E+01
 -1      2555 3.66764E+01
 -1      2556 9.31723E+00
 -1      2557 9.07720E+00
 -1      2558 4.91083E-01
 -1      2559 5.18445E-01
 -1      2560 4.51052E-01
 -1      2561 4.14373E-01
 -1      2562 8.40208E+00
 -1      2563 8.08094E+00
 -1      2564 6.59950E+00
 -1      2565 5.75587E+00
 -1      2566 7.08061E+00
 -1      2567 5.87110E+00
 -1      2568 8.82855E+00
 -1      2569 9.02594E+00
 -1      2570 6.53568E+00
 -1      2571 5.78315E+00
 -1      2572 1.18565E+01
 -1      2573 8.42074E+00
 -1      2574 1.89378E+01
 -1      2575 1.34958E+01
 -1      2576 2.18607E+01
 -1      2577 2.23619E+01
 -1      2578 1.51324E+01
 -1      2579 3.09207E+01
 -1      2580 2.51650E+01
 -1      2581 3.09207E+01
 -1      2582 2.54320E+01
 -1      2583 3.10542E+01
 -1      2584 1.06857E+01
 -1      2585 1.48242E+01
 -1      2586 1.47264E+01
 -1      2587 1.05408E+01
 -1      2588 6.85841E+00
 -1      2589 9.31171E+00
 -1      2590 9.63496E+00
 -1      2591 7.32195E+00
 -1      2592 2.43238E+01
 -1      2593 1.75880E+01
 -1      2594 1.22851E+01
 -1      2595 2.49141E+01
 -1      2596 2.30611E+01
 -1      2597 3.13329E-03
 -1      2598 5.36388E-01
 -1      2599 6.75542E-01
 -1      2600 7.37133E-01
 -1      2601 4.92665E+00
 -1      2602 1.26197E+00
 -1      2603 9.73273E-01
 -1      2604 1.00370E+00
 -1      2605 1.12357E+01
 -1      2606 1.66637E+01
 -1      2607 2.02805E+01
 -1      2608 5.29268E+00
 -1      2609 6.33572E+00
 -1      2610 4.43299E+00
 -1      2611 4.32653E+00
 -1      2612 5.31607E+00
 -1      2613 6.37600E+00
 -1      2614 7.42026E+00
 -1      2615 8.50059E+00
 -1      2616 3.12642E+01
 -1      2617 2.30611E+01
 -1      2618 3.10813E+01
 -1      2619 8.80385E-01
 -1      2620 8.14651E-01
 -1      2621 9.48097E-01
 -1      2622 6.35889E-01
 -1      2623 5.80114E-01
 -1      2624 8.51774E+00
 -1      2625 2.91181E-03
 -1      2626 5.24270E+00
 -1      2627 7.59786E+00
 -1      2628 2.18607E+01
 -1      2629 1.00690E+01
 -1      2630 3.10542E+01
 -1      2631 1.58421E+01
 -1      2632 1.49458E+01
 -1      2633 9.98975E+00
 -1      2634 7.45679E+00
 -1      2635 7.64868E+00
 -1      2636 5.97323E+00
 -1      2637 8.03251E+00
 -1      2638 5.35284E+00
 -1      2639 5.57678E+00
 -1      2640 4.38424E+00
 -1      2641 6.60852E+00
 -1      2642 2.02477E+01
 -1      2643 2.02477E+01
 -1      2644 1.69737E+01
 -1      2645 9.80285E+00
 -1      2646 9.59870E+00
 -1      2647 5.54361E+00
 -1      2648 6.87572E+00
 -1      2649 6.00445E+00
 -1      2650 7.45633E+00
 -1      2651 9.80285E+00
 -1      2652 5.83360E+00
 -1      2653 9.18441E+00
 -1      2654 7.88215E+00
 -1      2655 6.43227E+00
 -1      2656 4.13938E-01
 -1      2657 3.92180E-01
 -1      2658 3.75315E-01
 -1      2659 3.55723E-01
 -1      2660 3.29409E-01
 -1      2661 4.44725E-01
 -1      2662 4.43278E-01
 -1      2663 4.67350E-01
 -1      2664 4.67350E-01
 -1      2665 3.91545E-01
 -1      2666 9.03099E-01
 -1      2667 5.81766E-01
 -1      2668 6.21315E-01
 -1      2669 4.14670E+00
 -1      2670 4.07233E+00
 -1      2671 4.02607E+00
 -1      2672 8.47995E+00
 -1      2673 1.17723E+01
 -1      2674 1.54505E+01
 -1      2675 4.09064E-01
 -1      2676 3.23183E-01
 -1      2677 2.88450E-01
 -1      2678 2.50772E-01
 -1      2679 2.05716E-01
 -1      2680 2.82929E-01
 -1      2681 2.63715E-01
 -1      2682 2.03140E-01
 -1      2683 3.28986E-01
 -1      2684 4.20393E-01
 -1      2685 3.00568E-01
 -1      2686 5.20542E-01
 -1      2687 6.57828E-01
 -1      2688 4.65988E-01
 -1      2689 8.02408E-01
 -1      2690 9.74639E-01
 -1      2691 7.10717E-01
 -1      2692 1.19566E+00
 -1      2693 1.41781E+00
 -1      2694 1.07632E+00
 -1      2695 1.69989E+00
 -1      2696 1.96960E+00
 -1      2697 1.57942E+00
 -1      2698 2.32478E+00
 -1      2699 2.64938E+00
 -1      2700 2.21666E+00
 -1      2701 3.14548E+00
 -1      2702 3.51984E+00
 -1      2703 3.06793E+00
 -1      2704 4.45133E+00
 -1      2705 4.85232E+00
 -1      2706 4.49552E+00
 -1      2707 7.23335E+00
 -1      2708 8.25890E+00
 -1      2709 7.80804E+00
 -1      2710 4.25315E+00
 -1      2711 7.64851E+00
 -1      2712 1.94685E+01
 -1      2713 2.49525E+01
 -1      2714 4.82805E+00
 -1      2715 3.51435E+00
 -1      2716 7.24152E+00
 -1      2717 7.00051E+00
 -1      2718 5.79981E+00
 -1      2719 5.03174E+00
 -1      2720 4.54156E+00
 -1      2721 6.23245E+00
 -1      2722 3.89719E+00
 -1      2723 3.58047E+00
 -1      2724 4.82001E+00
 -1      2725 2.93884E+00
 -1      2726 2.63418E+00
 -1      2727 3.53400E+00
 -1      2728 2.27761E+00
 -1      2729 2.01090E+00
 -1      2730 2.53581E+00
 -1      2731 1.71845E+00
 -1      2732 1.49787E+00
 -1      2733 1.88679E+00
 -1      2734 1.27803E+00
 -1      2735 1.10215E+00
 -1      2736 1.37449E+00
 -1      2737 9.39028E-01
 -1      2738 8.02188E-01
 -1      2739 9.91515E-01
 -1      2740 6.80529E-01
 -1      2741 5.75992E-01
 -1      2742 7.06729E-01
 -1      2743 4.88418E-01
 -1      2744 4.09688E-01
 -1      2745 4.97496E-01
 -1      2746 3.54633E-01
 -1      2747 2.97049E-01
 -1      2748 3.54867E-01
 -1      2749 2.55827E-01
 -1      2750 2.09680E-01
 -1      2751 2.58591E-01
 -1      2752 1.79360E-01
 -1      2753 1.48271E-01
 -1      2754 1.87049E-01
 -1      2755 1.25581E-01
 -1      2756 1.03125E-01
 -1      2757 1.34038E-01
 -1      2758 8.63157E-02
 -1      2759 7.02685E-02
 -1      2760 9.45388E-02
 -1      2761 5.79648E-02
 -1      2762 4.66587E-02
 -1      2763 6.54262E-02
 -1      2764 3.77856E-02
 -1      2765 3.03504E-02
 -1      2766 4.42494E-02
 -1      2767 2.40684E-02
 -1      2768 2.01499E-02
 -1      2769 2.90943E-02
 -1      2770 1.58062E-02
 -1      2771 1.32000E-02
 -1      2772 1.84686E-02
 -1      2773 1.02893E-02
 -1      2774 8.86479E-03
 -1      2775 1.12141E-02
 -1      2776 7.69737E-03
 -1      2777 6.34601E-03
 -1      2778 7.13595E-03
 -1      2779 5.64945E-03
 -1      2780 4.57540E-03
 -1      2781 5.27196E-03
 -1      2782 3.70849E-03
 -1      2783 3.07101E-03
 -1      2784 2.59665E-03
 -1      2785 3.70849E-03
 -1      2786 2.93101E-01
 -1      2787 3.21420E-01
 -1      2788 2.38079E-01
 -1      2789 2.75268E-01
 -1      2790 2.05671E-01
 -1      2791 3.58952E-01
 -1      2792 4.39255E-01
 -1      2793 2.61037E-01
 -1      2794 1.82504E-01
 -1      2795 1.86251E-01
 -1      2796 2.16803E-01
 -1      2797 2.09012E-01
 -1      2798 1.90294E-01
 -1      2799 2.77813E-01
 -1      2800 2.47881E-01
 -1      2801 2.47881E-01
 -1      2802 3.65067E-01
 -1      2803 3.35668E-01
 -1      2804 3.36814E-01
 -1      2805 4.84333E-01
 -1      2806 4.26634E-01
 -1      2807 4.56237E-01
 -1      2808 6.42323E-01
 -1      2809 5.46593E-01
 -1      2810 5.80064E-01
 -1      2811 8.34701E-01
 -1      2812 7.47770E-01
 -1      2813 7.47770E-01
 -1      2814 1.05649E+00
 -1      2815 9.32766E-01
 -1      2816 9.51283E-01
 -1      2817 1.16164E+00
 -1      2818 1.09882E+00
 -1      2819 1.09168E+00
 -1      2820 1.29640E+00
 -1      2821 1.23452E+00
 -1      2822 1.20689E+00
 -1      2823 1.38684E+00
 -1      2824 1.39298E+00
 -1      2825 1.37635E+00
 -1      2826 1.36668E+00
 -1      2827 1.38827E+00
 -1      2828 1.47436E+00
 -1      2829 1.39896E+00
 -1      2830 1.36329E+00
 -1      2831 1.47241E+00
 -1      2832 1.33367E+00
 -1      2833 1.36315E+00
 -1      2834 1.43321E+00
 -1      2835 1.16284E+00
 -1      2836 1.22746E+00
 -1      2837 1.29119E+00
 -1      2838 1.00440E+00
 -1      2839 1.10528E+00
 -1      2840 1.12742E+00
 -1      2841 8.09436E-01
 -1      2842 9.34730E-01
 -1      2843 1.00019E+00
 -1      2844 5.86343E-01
 -1      2845 6.88346E-01
 -1      2846 8.09436E-01
 -1      2847 4.71363E-01
 -1      2848 5.35446E-01
 -1      2849 6.37449E-01
 -1      2850 3.88386E-01
 -1      2851 4.14552E-01
 -1      2852 5.29741E-01
 -1      2853 3.03350E-01
 -1      2854 3.27448E-01
 -1      2855 4.11992E-01
 -1      2856 2.98108E-01
 -1      2857 2.93583E-01
 -1      2858 3.41287E-01
 -1      2859 2.74145E-01
 -1      2860 2.80590E-01
 -1      2861 3.14003E-01
 -1      2862 2.44188E-01
 -1      2863 2.54947E-01
 -1      2864 2.77288E-01
 -1      2865 2.13678E-01
 -1      2866 2.27494E-01
 -1      2867 2.41396E-01
 -1      2868 1.82823E-01
 -1      2869 1.97041E-01
 -1      2870 2.08066E-01
 -1      2871 1.50466E-01
 -1      2872 1.66160E-01
 -1      2873 1.74766E-01
 -1      2874 1.19280E-01
 -1      2875 1.34504E-01
 -1      2876 1.42140E-01
 -1      2877 9.13753E-02
 -1      2878 1.05006E-01
 -1      2879 1.11904E-01
 -1      2880 6.77110E-02
 -1      2881 7.92320E-02
 -1      2882 8.54865E-02
 -1      2883 4.84863E-02
 -1      2884 5.77823E-02
 -1      2885 6.34145E-02
 -1      2886 3.34439E-02
 -1      2887 4.06429E-02
 -1      2888 4.56423E-02
 -1      2889 2.27286E-02
 -1      2890 2.74450E-02
 -1      2891 3.18000E-02
 -1      2892 1.51706E-02
 -1      2893 1.82886E-02
 -1      2894 2.13611E-02
 -1      2895 1.06757E-02
 -1      2896 1.20018E-02
 -1      2897 1.37524E-02
 -1      2898 7.29743E-03
 -1      2899 8.54767E-03
 -1      2900 8.45562E-03
 -1      2901 5.11570E-03
 -1      2902 6.36104E-03
 -1      2903 5.39124E-03
 -1      2904 3.50908E-03
 -1      2905 4.62174E-03
 -1      2906 3.96089E-03
 -1      2907 2.86965E-03
 -1      2908 2.17970E-03
 -1      2909 2.17970E-03
 -1      2910 2.14835E-03
 -1      2911 2.12888E-03
 -1      2912 1.89083E-03
 -1      2913 2.27238E-03
 -1      2914 2.86965E-03
 -1      2915 2.56125E-03
 -1      2916 2.11480E-03
 -1      2917 2.17970E-03
 -1      2918 2.85012E-03
 -1      2919 2.86420E-03
 -1      2920 2.24412E-03
 -1      2921 2.24412E-03
 -1      2922 2.24068E-03
 -1      2923 2.24412E-03
 -1      2924 2.97631E-03
 -1      2925 2.22650E-03
 -1      2926 2.03982E-03
 -1      2927 2.77544E-03
 -1      2928 2.60697E-03
 -1      2929 2.60697E-03
 -1      2930 2.95504E-03
 -1      2931 9.02592E+00
 -1      2932 1.07757E+01
 -1      2933 7.01232E-01
 -1      2934 6.39788E-01
 -1      2935 5.14859E+00
 -1      2936 2.66689E+01
 -1      2937 2.10020E+01
 -1      2938 1.75854E+01
 -1      2939 2.03045E+01
 -1      2940 1.39928E+01
 -1      2941 1.26940E+01
 -1      2942 9.79381E+00
 -1      2943 8.15453E+00
 -1      2944 2.19511E-03
 -1      2945 2.14835E-03
 -1      2946 2.92730E-03
 -1      2947 8.21202E+00
 -1      2948 5.40310E+00
 -1      2949 7.70589E+00
 -1      2950 5.56139E-01
 -1      2951 4.84181E-01
 -1      2952 3.15566E-01
 -1      2953 4.74331E-01
 -1      2954 7.37133E-01
 -1      2955 6.38866E+00
 -1      2956 4.56742E+00
 -1      2957 6.11343E+00
 -1      2958 8.21202E+00
 -1      2959 4.43278E-01
 -1      2960 4.25260E-01
 -1      2961 3.57597E-01
 -1      2962 3.68920E-01
 -1      2963 7.21818E+00
 -1      2964 6.54305E+00
 -1      2965 2.08018E+01
 -1      2966 2.64240E+01
 -1      2967 1.49391E+01
 -1      2968 1.15151E+01
 -1      2969 2.57742E+01
 -1      2970 2.00185E+01
 -1      2971 5.99346E+00
 -1      2972 6.27789E+00
 -1      2973 4.13242E-01
 -1      2974 4.34509E-01
 -1      2975 2.04584E+01
 -1      2976 1.71541E+01
 -1      2977 5.65946E+00
 -1      2978 4.65914E+00
 -1      2979 5.22896E+00
 -1      2980 6.75598E+00
 -1      2981 7.04727E+00
 -1      2982 1.90469E+01
 -1      2983 1.39131E+01
 -1      2984 1.80397E-01
 -1      2985 2.20200E-01
 -1      2986 1.69958E-01
 -1      2987 1.57932E-01
 -1      2988 3.06010E-01
 -1      2989 3.49189E-01
 -1      2990 3.64660E-01
 -1      2991 5.35835E-01
 -1      2992 3.75856E+00
 -1      2993 1.27947E+01
 -1      2994 2.45904E+01
 -1      2995 1.45111E+01
 -1      2996 9.56248E+00
 -1      2997 1.05984E+01
 -1      2998 8.66817E+00
 -1      2999 9.29177E+00
 -1      3000 4.39788E+00
 -1      3001 9.60058E+00
 -1      3002 1.55218E+01
 -1      3003 5.94164E+00
 -1      3004 7.24584E+00
 -1      3005 2.87829E-03
 -1      3006 4.71876E-01
 -1      3007 4.93469E-01
 -1      3008 3.91590E-01
 -1      3009 5.57980E-01
 -1      3010 3.94302E+00
 -1      3011 4.16288E+00
 -1      3012 3.75984E+00
 -1      3013 2.84361E-03
 -1      3014 2.60697E-03
 -1      3015 3.33551E-03
 -1      3016 3.08855E-03
 -1      3017 3.07761E-01
 -1      3018 4.48447E-01
 -1      3019 4.48621E-01
 -1      3020 8.27389E+00
 -1      3021 6.89988E+00
 -1      3022 4.82655E-01
 -1      3023 1.30355E+01
 -1      3024 3.80160E-01
 -1      3025 4.01367E-01
 -1      3026 3.42349E-01
 -1      3027 3.14975E-01
 -1      3028 4.54878E+00
 -1      3029 1.46345E+01
 -1      3030 1.53119E+01
 -1      3031 1.79895E+01
 -1      3032 1.33593E+01
 -1      3033 1.28051E+01
 -1      3034 4.72285E+00
 -1      3035 6.18618E+00
 -1      3036 5.20093E+00
 -1      3037 1.35368E+01
 -1      3038 3.41834E-01
 -1      3039 3.19209E-01
 -1      3040 5.65715E-01
 -1      3041 3.36824E+00
 -1      3042 2.78143E+00
 -1      3043 1.26262E+01
 -1      3044 2.11383E-01
 -1      3045 2.43539E-01
 -1      3046 2.86974E-01
 -1      3047 3.52245E-01
 -1      3048 2.95217E-01
 -1      3049 4.27653E-01
 -1      3050 5.27802E-01
 -1      3051 4.14059E-01
 -1      3052 6.61322E-01
 -1      3053 8.05903E-01
 -1      3054 6.22987E-01
 -1      3055 1.00968E+00
 -1      3056 1.23070E+00
 -1      3057 9.60282E-01
 -1      3058 1.48922E+00
 -1      3059 1.77129E+00
 -1      3060 1.42257E+00
 -1      3061 2.15674E+00
 -1      3062 2.51192E+00
 -1      3063 2.06654E+00
 -1      3064 3.16471E+00
 -1      3065 3.66081E+00
 -1      3066 3.10479E+00
 -1      3067 6.15931E+00
 -1      3068 7.09080E+00
 -1      3069 6.25609E+00
 -1      3070 3.94670E-01
 -1      3071 3.36814E-01
 -1      3072 2.83408E+00
 -1      3073 4.21111E+00
 -1      3074 5.05115E+00
 -1      3075 4.40678E+00
 -1      3076 4.09461E+00
 -1      3077 3.45298E+00
 -1      3078 4.32576E+00
 -1      3079 2.89238E+00
 -1      3080 2.53581E+00
 -1      3081 3.45298E+00
 -1      3082 2.10697E+00
 -1      3083 1.81452E+00
 -1      3084 2.46354E+00
 -1      3085 1.52341E+00
 -1      3086 1.30356E+00
 -1      3087 1.74360E+00
 -1      3088 1.09788E+00
 -1      3089 9.34756E-01
 -1      3090 1.24681E+00
 -1      3091 7.87435E-01
 -1      3092 6.65776E-01
 -1      3093 8.93803E-01
 -1      3094 5.59327E-01
 -1      3095 4.71754E-01
 -1      3096 6.40034E-01
 -1      3097 3.93477E-01
 -1      3098 3.38423E-01
 -1      3099 4.55309E-01
 -1      3100 2.81238E-01
 -1      3101 2.40017E-01
 -1      3102 3.19848E-01
 -1      3103 2.00214E-01
 -1      3104 1.69893E-01
 -1      3105 2.22861E-01
 -1      3106 1.41212E-01
 -1      3107 1.18521E-01
 -1      3108 1.54376E-01
 -1      3109 9.91739E-02
 -1      3110 8.23650E-02
 -1      3111 1.06347E-01
 -1      3112 6.84667E-02
 -1      3113 5.61630E-02
 -1      3114 7.31018E-02
 -1      3115 4.62189E-02
 -1      3116 3.73458E-02
 -1      3117 4.92594E-02
 -1      3118 3.11201E-02
 -1      3119 2.48381E-02
 -1      3120 3.30896E-02
 -1      3121 2.03968E-02
 -1      3122 1.60531E-02
 -1      3123 2.24227E-02
 -1      3124 1.29154E-02
 -1      3125 1.00047E-02
 -1      3126 1.48437E-02
 -1      3127 7.80496E-03
 -1      3128 6.63754E-03
 -1      3129 9.50627E-03
 -1      3130 5.29208E-03
 -1      3131 4.59551E-03
 -1      3132 5.96109E-03
 -1      3133 1.43403E-01
 -1      3134 1.61236E-01
 -1      3135 1.77983E-01
 -1      3136 2.15515E-01
 -1      3137 1.15714E-01
 -1      3138 2.92833E-01
 -1      3139 2.61755E-01
 -1      3140 3.50688E-01
 -1      3141 2.20743E-01
 -1      3142 1.94235E-01
 -1      3143 2.65695E-01
 -1      3144 5.31280E-01
 -1      3145 4.69713E-01
 -1      3146 4.69713E-01
 -1      3147 6.99040E-01
 -1      3148 6.36780E-01
 -1      3149 6.50256E-01
 -1      3150 8.93745E-01
 -1      3151 7.88297E-01
 -1      3152 8.45014E-01
 -1      3153 1.06714E+00
 -1      3154 9.69078E-01
 -1      3155 1.00960E+00
 -1      3156 1.23120E+00
 -1      3157 1.18887E+00
 -1      3158 1.20666E+00
 -1      3159 1.29637E+00
 -1      3160 1.22349E+00
 -1      3161 1.32068E+00
 -1      3162 1.58888E+00
 -1      3163 1.49230E+00
 -1      3164 1.50891E+00
 -1      3165 1.96929E+00
 -1      3166 1.96786E+00
 -1      3167 2.08381E+00
 -1      3168 2.18274E+00
 -1      3169 2.18613E+00
 -1      3170 2.67963E+00
 -1      3171 1.58845E+00
 -1      3172 1.62426E+00
 -1      3173 2.33798E+00
 -1      3174 1.30633E+00
 -1      3175 1.41255E+00
 -1      3176 1.60359E+00
 -1      3177 1.20848E+00
 -1      3178 1.26604E+00
 -1      3179 1.38740E+00
 -1      3180 1.07019E+00
 -1      3181 1.13985E+00
 -1      3182 1.27848E+00
 -1      3183 8.47148E-01
 -1      3184 9.68237E-01
 -1      3185 1.10790E+00
 -1      3186 7.33202E-01
 -1      3187 7.84100E-01
 -1      3188 9.42901E-01
 -1      3189 5.76318E-01
 -1      3190 6.33129E-01
 -1      3191 7.79779E-01
 -1      3192 4.32169E-01
 -1      3193 4.93107E-01
 -1      3194 5.96495E-01
 -1      3195 3.90783E-01
 -1      3196 4.00550E-01
 -1      3197 4.81664E-01
 -1      3198 3.35362E-01
 -1      3199 3.52879E-01
 -1      3200 4.12141E-01
 -1      3201 2.83195E-01
 -1      3202 3.02393E-01
 -1      3203 3.41269E-01
 -1      3204 2.42234E-01
 -1      3205 2.58927E-01
 -1      3206 2.84033E-01
 -1      3207 2.03972E-01
 -1      3208 2.20609E-01
 -1      3209 2.38140E-01
 -1      3210 1.66096E-01
 -1      3211 1.82759E-01
 -1      3212 1.95302E-01
 -1      3213 1.30998E-01
 -1      3214 1.46961E-01
 -1      3215 1.54954E-01
 -1      3216 1.00795E-01
 -1      3217 1.15069E-01
 -1      3218 1.19890E-01
 -1      3219 7.58038E-02
 -1      3220 8.79472E-02
 -1      3221 9.11127E-02
 -1      3222 5.55907E-02
 -1      3223 6.55194E-02
 -1      3224 6.79801E-02
 -1      3225 3.97041E-02
 -1      3226 4.75475E-02
 -1      3227 4.96525E-02
 -1      3228 2.75544E-02
 -1      3229 3.35534E-02
 -1      3230 3.54586E-02
 -1      3231 1.85188E-02
 -1      3232 2.29587E-02
 -1      3233 2.47121E-02
 -1      3234 1.20011E-02
 -1      3235 1.51699E-02
 -1      3236 1.67675E-02
 -1      3237 7.50378E-03
 -1      3238 9.63177E-03
 -1      3239 1.10493E-02
 -1      3240 4.97763E-03
 -1      3241 5.91401E-03
 -1      3242 7.09016E-03
 -1      3243 3.47870E-03
 -1      3244 3.97267E-03
 -1      3245 4.49544E-03
 -1      3246 2.88143E-03
 -1      3247 4.09944E-03
 -1      3248 4.30030E-03
 -1      3249 4.31379E-03
 -1      3250 3.93333E-03
 -1      3251 5.45819E-03
 -1      3252 4.34047E-01
 -1      3253 3.65562E-01
 -1      3254 4.30030E-03
 -1      3255 4.30030E-03
 -1      3256 5.62429E-03
 -1      3257 3.40092E+00
 -1      3258 3.81760E+00
 -1      3259 3.81179E-03
 -1      3260 3.81179E-03
 -1      3261 7.72820E+00
 -1      3262 8.72480E+00
 -1      3263 5.46670E+00
 -1      3264 6.78673E+00
 -1      3265 5.94905E+00
 -1      3266 3.91971E-03
 -1      3267 3.87070E-03
 -1      3268 4.80420E-03
 -1      3269 5.24371E-03
 -1      3270 2.32310E-01
 -1      3271 1.97577E-01
 -1      3272 2.37977E-01
 -1      3273 6.61677E+00
 -1      3274 4.85090E+00
 -1      3275 8.91351E+00
 -1      3276 7.19223E+00
 -1      3277 1.28006E+01
 -1      3278 1.32405E+01
 -1      3279 4.84046E+00
 -1      3280 5.01137E+00
 -1      3281 1.34504E+01
 -1      3282 1.28006E+01
 -1      3283 4.93469E-01
 -1      3284 3.05608E-01
 -1      3285 2.88743E-01
 -1      3286 4.58492E+00
 -1      3287 3.70133E+00
 -1      3288 1.29341E+01
 -1      3289 1.07191E+01
 -1      3290 8.31072E+00
 -1      3291 9.84001E+00
 -1      3292 1.10736E+01
 -1      3293 1.30492E+01
 -1      3294 1.10941E+01
 -1      3295 8.25464E+00
 -1      3296 1.03680E+01
 -1      3297 2.93226E-01
 -1      3298 8.72364E+00
 -1      3299 1.05579E+01
 -1      3300 3.46903E+00
 -1      3301 2.49189E+00
 -1      3302 2.82499E+00
 -1      3303 1.60500E-01
 -1      3304 1.54647E-01
 -1      3305 1.90949E-01
 -1      3306 3.90040E-03
 -1      3307 3.61153E-03
 -1      3308 4.22058E-03
 -1      3309 1.18568E+01
 -1      3310 1.14947E+01
 -1      3311 3.84730E+00
 -1      3312 3.34395E+00
 -1      3313 2.93942E+00
 -1      3314 5.32842E+00
 -1      3315 7.48657E+00
 -1      3316 7.09080E+00
 -1      3317 9.47184E+00
 -1      3318 2.98851E+00
 -1      3319 4.70321E+00
 -1      3320 4.24410E+00
 -1      3321 3.25519E-01
 -1      3322 3.14197E-01
 -1      3323 2.73530E-01
 -1      3324 1.49385E-01
 -1      3325 1.04950E-01
 -1      3326 1.31506E-01
 -1      3327 3.95545E-03
 -1      3328 2.72588E-01
 -1      3329 2.66054E-01
 -1      3330 2.48787E-01
 -1      3331 3.97557E-03
 -1      3332 4.95385E-03
 -1      3333 4.24822E-03
 -1      3334 4.23413E-03
 -1      3335 5.18172E-03
 -1      3336 3.15227E-01
 -1      3337 3.52594E-01
 -1      3338 1.04227E+01
 -1      3339 8.75459E+00
 -1      3340 3.25519E-01
 -1      3341 3.25519E-01
 -1      3342 2.82119E-01
 -1      3343 2.75809E-01
 -1      3344 2.82577E+00
 -1      3345 3.82273E+00
 -1      3346 3.73101E+00
 -1      3347 3.17956E+00
 -1      3348 2.40453E-01
 -1      3349 2.49645E-01
 -1      3350 1.07292E+01
 -1      3351 3.48374E+00
 -1      3352 1.20949E+01
 -1      3353 9.37365E+00
 -1      3354 9.28253E+00
 -1      3355 2.25918E-01
 -1      3356 7.07334E+00
 -1      3357 1.26928E+01
 -1      3358 1.17521E+01
 -1      3359 8.21171E+00
 -1      3360 5.77629E+00
 -1      3361 9.67361E+00
 -1      3362 4.77175E+00
 -1      3363 3.84148E+00
 -1      3364 4.20195E+00
 -1      3365 2.69363E-01
 -1      3366 2.61225E-01
 -1      3367 3.44480E-01
 -1      3368 3.97557E-03
 -1      3369 5.92970E+00
 -1      3370 4.09820E-01
 -1      3371 2.95312E-01
 -1      3372 3.07186E-01
 -1      3373 2.68190E-01
 -1      3374 2.44376E+00
 -1      3375 1.26928E+01
 -1      3376 3.90040E-03
 -1      3377 1.57399E-01
 -1      3378 3.58590E-01
 -1      3379 4.33997E-01
 -1      3380 5.26769E-01
 -1      3381 6.60289E-01
 -1      3382 4.71300E-01
 -1      3383 8.09498E-01
 -1      3384 1.01327E+00
 -1      3385 7.13280E-01
 -1      3386 1.18946E+00
 -1      3387 1.44798E+00
 -1      3388 1.03868E+00
 -1      3389 1.73682E+00
 -1      3390 2.12227E+00
 -1      3391 1.50371E+00
 -1      3392 2.59771E+00
 -1      3393 3.25050E+00
 -1      3394 2.26799E+00
 -1      3395 5.10323E+00
 -1      3396 7.60173E+00
 -1      3397 4.59615E+00
 -1      3398 7.58290E-01
 -1      3399 6.52790E-01
 -1      3400 5.82445E-01
 -1      3401 5.07402E-01
 -1      3402 6.90479E-01
 -1      3403 3.99618E+00
 -1      3404 3.43557E+00
 -1      3405 2.55209E+00
 -1      3406 2.12325E+00
 -1      3407 3.09528E+00
 -1      3408 1.78944E+00
 -1      3409 1.49833E+00
 -1      3410 1.87799E+00
 -1      3411 1.27555E+00
 -1      3412 1.06987E+00
 -1      3413 1.32140E+00
 -1      3414 9.18806E-01
 -1      3415 7.71486E-01
 -1      3416 9.47551E-01
 -1      3417 6.64397E-01
 -1      3418 5.57949E-01
 -1      3419 6.89401E-01
 -1      3420 4.78848E-01
 -1      3421 4.00571E-01
 -1      3422 5.03212E-01
 -1      3423 3.41563E-01
 -1      3424 2.84379E-01
 -1      3425 3.65102E-01
 -1      3426 2.42144E-01
 -1      3427 2.02341E-01
 -1      3428 2.63860E-01
 -1      3429 1.70911E-01
 -1      3430 1.42230E-01
 -1      3431 1.90195E-01
 -1      3432 1.18939E-01
 -1      3433 9.95920E-02
 -1      3434 1.35474E-01
 -1      3435 8.24634E-02
 -1      3436 6.85652E-02
 -1      3437 9.50554E-02
 -1      3438 5.64145E-02
 -1      3439 4.64704E-02
 -1      3440 6.57762E-02
 -1      3441 3.79164E-02
 -1      3442 3.16908E-02
 -1      3443 4.50716E-02
 -1      3444 2.55171E-02
 -1      3445 2.10757E-02
 -1      3446 3.03439E-02
 -1      3447 1.66996E-02
 -1      3448 1.35619E-02
 -1      3449 1.97940E-02
 -1      3450 1.05564E-02
 -1      3451 8.35668E-03
 -1      3452 1.24123E-02
 -1      3453 7.31474E-03
 -1      3454 5.96927E-03
 -1      3455 6.30750E-03
 -1      3456 8.36486E-03
 -1      3457 5.87867E+00
 -1      3458 5.30321E+00
 -1      3459 4.32338E-01
 -1      3460 3.88357E-01
 -1      3461 5.45070E-01
 -1      3462 3.20382E-01
 -1      3463 2.79371E-01
 -1      3464 4.02032E-01
 -1      3465 1.00003E+00
 -1      3466 9.10773E-01
 -1      3467 9.13307E-01
 -1      3468 1.22398E+00
 -1      3469 1.14865E+00
 -1      3470 1.21440E+00
 -1      3471 1.47648E+00
 -1      3472 1.35475E+00
 -1      3473 1.49379E+00
 -1      3474 1.58281E+00
 -1      3475 1.59052E+00
 -1      3476 1.73860E+00
 -1      3477 1.76056E+00
 -1      3478 1.56463E+00
 -1      3479 1.83446E+00
 -1      3480 2.68334E+00
 -1      3481 2.30436E+00
 -1      3482 2.36009E+00
 -1      3483 3.33462E+00
 -1      3484 3.11778E+00
 -1      3485 1.60359E+00
 -1      3486 1.77949E+00
 -1      3487 1.43012E+00
 -1      3488 1.47041E+00
 -1      3489 1.64631E+00
 -1      3490 1.55946E+00
 -1      3491 1.62809E+00
 -1      3492 1.71110E+00
 -1      3493 1.55368E+00
 -1      3494 1.65563E+00
 -1      3495 2.00524E+00
 -1      3496 1.07478E+00
 -1      3497 1.13783E+00
 -1      3498 1.68556E+00
 -1      3499 7.95538E-01
 -1      3500 8.95611E-01
 -1      3501 1.09054E+00
 -1      3502 6.43696E-01
 -1      3503 7.26907E-01
 -1      3504 8.42739E-01
 -1      3505 5.38942E-01
 -1      3506 5.70562E-01
 -1      3507 7.00974E-01
 -1      3508 4.29316E-01
 -1      3509 4.67220E-01
 -1      3510 5.56117E-01
 -1      3511 3.50244E-01
 -1      3512 3.83212E-01
 -1      3513 4.38291E-01
 -1      3514 2.87259E-01
 -1      3515 3.11528E-01
 -1      3516 3.53471E-01
 -1      3517 2.33324E-01
 -1      3518 2.54949E-01
 -1      3519 2.82444E-01
 -1      3520 1.84340E-01
 -1      3521 2.05554E-01
 -1      3522 2.22363E-01
 -1      3523 1.45694E-01
 -1      3524 1.64828E-01
 -1      3525 1.75080E-01
 -1      3526 1.14211E-01
 -1      3527 1.30141E-01
 -1      3528 1.40015E-01
 -1      3529 8.77667E-02
 -1      3530 1.00615E-01
 -1      3531 1.10865E-01
 -1      3532 6.56234E-02
 -1      3533 7.59078E-02
 -1      3534 8.54100E-02
 -1      3535 4.77270E-02
 -1      3536 5.57701E-02
 -1      3537 6.36978E-02
 -1      3538 3.37040E-02
 -1      3539 3.98548E-02
 -1      3540 4.59724E-02
 -1      3541 2.33100E-02
 -1      3542 2.79057E-02
 -1      3543 3.23019E-02
 -1      3544 1.56462E-02
 -1      3545 1.89951E-02
 -1      3546 2.21887E-02
 -1      3547 1.01121E-02
 -1      3548 1.24814E-02
 -1      3549 1.47090E-02
 -1      3550 6.33761E-03
 -1      3551 7.92737E-03
 -1      3552 9.35951E-03
 -1      3553 5.76405E+00
 -1      3554 7.59717E+00
 -1      3555 8.71931E+00
 -1      3556 9.65722E+00
 -1      3557 6.89825E+00
 -1      3558 6.35812E-03
 -1      3559 6.52423E-03
 -1      3560 7.37354E-03
 -1      3561 2.15009E+00
 -1      3562 2.20274E+00
 -1      3563 9.12727E+00
 -1      3564 8.82081E+00
 -1      3565 2.43203E-01
 -1      3566 2.57009E-01
 -1      3567 2.87254E-01
 -1      3568 3.63618E-01
 -1      3569 9.74190E+00
 -1      3570 9.74190E+00
 -1      3571 4.41547E+00
 -1      3572 5.35694E+00
 -1      3573 4.23047E+00
 -1      3574 6.52423E-03
 -1      3575 6.52423E-03
 -1      3576 7.42417E-03
 -1      3577 2.69417E-01
 -1      3578 2.84917E-01
 -1      3579 2.49754E-01
 -1      3580 1.17846E-01
 -1      3581 1.34593E-01
 -1      3582 1.57251E-01
 -1      3583 1.82189E-01
 -1      3584 1.59382E-01
 -1      3585 1.05568E+01
 -1      3586 2.78097E+00
 -1      3587 2.42205E+00
 -1      3588 2.18191E+00
 -1      3589 3.41428E+00
 -1      3590 2.98783E+00
 -1      3591 1.82337E-01
 -1      3592 2.25918E-01
 -1      3593 2.32228E-01
 -1      3594 1.82189E-01
 -1      3595 2.63152E-01
 -1      3596 3.06586E-01
 -1      3597 3.26525E-01
 -1      3598 4.64018E+00
 -1      3599 4.32802E+00
 -1      3600 4.31060E+00
 -1      3601 5.77855E+00
 -1      3602 8.48555E+00
 -1      3603 6.67998E+00
 -1      3604 9.65078E+00
 -1      3605 5.28442E-03
 -1      3606 9.10723E+00
 -1      3607 9.10723E+00
 -1      3608 8.38634E+00
 -1      3609 2.25088E+00
 -1      3610 2.36975E-01
 -1      3611 2.03241E-01
 -1      3612 2.91662E-01
 -1      3613 2.75553E+00
 -1      3614 6.05350E+00
 -1      3615 2.37507E+00
 -1      3616 2.86717E+00
 -1      3617 2.08139E+00
 -1      3618 5.22554E-03
 -1      3619 4.00223E+00
 -1      3620 4.05326E+00
 -1      3621 2.54632E+00
 -1      3622 3.24436E+00
 -1      3623 4.00784E+00
 -1      3624 3.41573E+00
 -1      3625 1.34074E-01
 -1      3626 7.19007E+00
 -1      3627 6.06275E-03
 -1      3628 5.98593E-03
 -1      3629 6.42236E-03
 -1      3630 2.20800E-01
 -1      3631 2.04645E-01
 -1      3632 7.60173E+00
 -1      3633 8.75459E+00
 -1      3634 3.33833E+00
 -1      3635 2.34893E+00
 -1      3636 2.90742E+00
 -1      3637 4.07195E+00
 -1      3638 7.03154E+00
 -1      3639 5.58201E+00
 -1      3640 7.85675E-03
 -1      3641 6.95681E-03
 -1      3642 6.57622E-03
 -1      3643 7.26978E+00
 -1      3644 8.71931E+00
 -1      3645 6.88186E+00
 -1      3646 6.39648E-03
 -1      3647 2.68378E-01
 -1      3648 2.35995E-01
 -1      3649 6.57622E-03
 -1      3650 6.51731E-03
 -1      3651 7.75795E-03
 -1      3652 8.28933E-03
 -1      3653 8.13996E+00
 -1      3654 2.29388E-01
 -1      3655 2.20800E-01
 -1      3656 1.76658E-01
 -1      3657 2.50201E-01
 -1      3658 2.61225E-01
 -1      3659 2.24171E-01
 -1      3660 1.29155E-01
 -1      3661 1.48033E-01
 -1      3662 1.35137E-01
 -1      3663 2.43203E-01
 -1      3664 3.76751E+00
 -1      3665 8.75459E+00
 -1      3666 3.34557E+00
 -1      3667 2.18053E-01
 -1      3668 2.26093E-01
 -1      3669 2.00064E-01
 -1      3670 2.86739E+00
 -1      3671 3.78434E+00
 -1      3672 2.90085E+00
 -1      3673 5.86109E+00
 -1      3674 5.05977E+00
 -1      3675 6.34074E-01
 -1      3676 7.83283E-01
 -1      3677 9.08122E-01
 -1      3678 1.08431E+00
 -1      3679 8.28916E-01
 -1      3680 1.28465E+00
 -1      3681 1.57350E+00
 -1      3682 1.15410E+00
 -1      3683 1.88450E+00
 -1      3684 2.35993E+00
 -1      3685 1.66544E+00
 -1      3686 3.15440E+00
 -1      3687 5.00713E+00
 -1      3688 2.77091E+00
 -1      3689 1.70127E+00
 -1      3690 1.55265E+00
 -1      3691 2.33664E+00
 -1      3692 2.34177E+00
 -1      3693 6.44887E+00
 -1      3694 7.60173E+00
 -1      3695 6.98710E+00
 -1      3696 5.00713E+00
 -1      3697 4.24844E-01
 -1      3698 5.17615E-01
 -1      3699 5.87618E-01
 -1      3700 1.88229E+00
 -1      3701 1.54848E+00
 -1      3702 2.57134E+00
 -1      3703 1.30680E+00
 -1      3704 1.08402E+00
 -1      3705 1.31110E+00
 -1      3706 9.22244E-01
 -1      3707 7.71181E-01
 -1      3708 9.07652E-01
 -1      3709 6.65215E-01
 -1      3710 5.58127E-01
 -1      3711 6.39907E-01
 -1      3712 4.86957E-01
 -1      3713 4.07856E-01
 -1      3714 4.62771E-01
 -1      3715 3.60458E-01
 -1      3716 3.01450E-01
 -1      3717 3.44204E-01
 -1      3718 2.65358E-01
 -1      3719 2.23123E-01
 -1      3720 2.60713E-01
 -1      3721 1.94753E-01
 -1      3722 1.63323E-01
 -1      3723 1.96252E-01
 -1      3724 1.41210E-01
 -1      3725 1.17920E-01
 -1      3726 1.45769E-01
 -1      3727 1.00889E-01
 -1      3728 8.37604E-02
 -1      3729 1.06625E-01
 -1      3730 7.08078E-02
 -1      3731 5.86571E-02
 -1      3732 7.66414E-02
 -1      3733 4.89445E-02
 -1      3734 4.03905E-02
 -1      3735 5.39761E-02
 -1      3736 3.34437E-02
 -1      3737 2.72700E-02
 -1      3738 3.73166E-02
 -1      3739 2.23555E-02
 -1      3740 1.79793E-02
 -1      3741 2.54553E-02
 -1      3742 1.44478E-02
 -1      3743 1.14423E-02
 -1      3744 1.70093E-02
 -1      3745 9.40716E-03
 -1      3746 8.36522E-03
 -1      3747 8.41584E-03
 -1      3748 1.14426E-02
 -1      3749 7.06429E-01
 -1      3750 6.31366E-01
 -1      3751 1.58134E-01
 -1      3752 1.86122E-01
 -1      3753 1.89485E-01
 -1      3754 1.27119E+00
 -1      3755 1.11871E+00
 -1      3756 1.75806E+00
 -1      3757 4.97608E-01
 -1      3758 4.29633E-01
 -1      3759 6.58967E-01
 -1      3760 1.71991E+00
 -1      3761 1.58914E+00
 -1      3762 1.92739E+00
 -1      3763 1.83446E+00
 -1      3764 1.85264E+00
 -1      3765 2.32359E+00
 -1      3766 2.34893E+00
 -1      3767 1.68556E+00
 -1      3768 2.10141E+00
 -1      3769 1.15049E+00
 -1      3770 1.32966E+00
 -1      3771 1.74551E+00
 -1      3772 9.53073E-01
 -1      3773 1.02170E+00
 -1      3774 1.26082E+00
 -1      3775 7.45700E-01
 -1      3776 8.18834E-01
 -1      3777 9.97799E-01
 -1      3778 5.85251E-01
 -1      3779 6.56973E-01
 -1      3780 7.74833E-01
 -1      3781 4.59144E-01
 -1      3782 5.05247E-01
 -1      3783 6.06104E-01
 -1      3784 3.52626E-01
 -1      3785 3.91342E-01
 -1      3786 4.58299E-01
 -1      3787 2.77072E-01
 -1      3788 3.09383E-01
 -1      3789 3.47254E-01
 -1      3790 2.17461E-01
 -1      3791 2.45232E-01
 -1      3792 2.72170E-01
 -1      3793 1.75080E-01
 -1      3794 1.94592E-01
 -1      3795 2.17461E-01
 -1      3796 1.40015E-01
 -1      3797 1.55568E-01
 -1      3798 1.75080E-01
 -1      3799 1.09135E-01
 -1      3800 1.22731E-01
 -1      3801 1.38284E-01
 -1      3802 8.26609E-02
 -1      3803 9.45199E-02
 -1      3804 1.06386E-01
 -1      3805 6.08713E-02
 -1      3806 7.07245E-02
 -1      3807 7.98344E-02
 -1      3808 4.35263E-02
 -1      3809 5.13984E-02
 -1      3810 5.84252E-02
 -1      3811 3.04014E-02
 -1      3812 3.61997E-02
 -1      3813 4.16257E-02
 -1      3814 2.05964E-02
 -1      3815 2.49114E-02
 -1      3816 2.88091E-02
 -1      3817 1.35925E-02
 -1      3818 1.67572E-02
 -1      3819 1.94799E-02
 -1      3820 8.73736E-03
 -1      3821 1.09220E-02
 -1      3822 1.29703E-02
 -1      3823 5.76215E+00
 -1      3824 3.46836E+00
 -1      3825 3.87547E+00
 -1      3826 2.05291E+00
 -1      3827 1.71110E+00
 -1      3828 1.64130E-01
 -1      3829 1.86788E-01
 -1      3830 8.41584E-03
 -1      3831 8.41584E-03
 -1      3832 9.40752E-03
 -1      3833 1.85622E-01
 -1      3834 1.96017E-01
 -1      3835 1.53920E-01
 -1      3836 1.35748E-01
 -1      3837 1.74599E-01
 -1      3838 1.51458E-01
 -1      3839 1.75662E-01
 -1      3840 2.20624E-01
 -1      3841 8.38634E+00
 -1      3842 2.96927E-01
 -1      3843 3.48931E-01
 -1      3844 3.95246E-01
 -1      3845 1.93805E+00
 -1      3846 7.95902E-03
 -1      3847 2.28029E+00
 -1      3848 2.12185E+00
 -1      3849 2.17757E+00
 -1      3850 2.08139E+00
 -1      3851 2.12852E-01
 -1      3852 2.31883E-01
 -1      3853 1.88744E-01
 -1      3854 6.19635E+00
 -1      3855 5.86109E+00
 -1      3856 1.90907E+00
 -1      3857 2.32080E-01
 -1      3858 2.32080E-01
 -1      3859 1.79349E-01
 -1      3860 1.82189E-01
 -1      3861 2.62235E-01
 -1      3862 2.68378E-01
 -1      3863 2.90784E-01
 -1      3864 2.31883E-01
 -1      3865 9.33695E-01
 -1      3866 8.63350E-01
 -1      3867 1.29158E+00
 -1      3868 3.54849E-01
 -1      3869 3.12453E-01
 -1      3870 4.50424E-01
 -1      3871 3.78911E+00
 -1      3872 3.98152E+00
 -1      3873 2.73157E+00
 -1      3874 2.63091E+00
 -1      3875 2.03644E+00
 -1      3876 2.03644E+00
 -1      3877 2.18609E+00
 -1      3878 3.82970E+00
 -1      3879 3.26407E+00
 -1      3880 3.06758E+00
 -1      3881 5.65812E+00
 -1      3882 1.87131E-01
 -1      3883 2.14536E-01
 -1      3884 1.98439E-01
 -1      3885 1.56119E-01
 -1      3886 1.37596E-01
 -1      3887 5.43031E+00
 -1      3888 5.23588E+00
 -1      3889 1.92240E+00
 -1      3890 2.01775E+00
 -1      3891 4.86736E+00
 -1      3892 2.17757E+00
 -1      3893 3.54811E+00
 -1      3894 5.62380E+00
 -1      3895 5.23588E+00
 -1      3896 5.76215E+00
 -1      3897 7.62235E-03
 -1      3898 8.05493E-03
 -1      3899 8.61403E-03
 -1      3900 8.76323E-03
 -1      3901 2.48626E+00
 -1      3902 3.06072E+00
 -1      3903 9.49645E-01
 -1      3904 1.25942E-02
 -1      3905 1.41309E-02
 -1      3906 1.31256E-02
 -1      3907 1.84097E-01
 -1      3908 1.84097E-01
 -1      3909 1.63558E-01
 -1      3910 3.83504E+00
 -1      3911 2.75678E+00
 -1      3912 2.26306E+00
 -1      3913 2.28377E+00
 -1      3914 5.06372E-01
 -1      3915 6.22831E-01
 -1      3916 4.10862E+00
 -1      3917 4.10862E+00
 -1      3918 2.55475E+00
 -1      3919 9.77244E-01
 -1      3920 1.17759E+00
 -1      3921 1.49475E+00
 -1      3922 1.80575E+00
 -1      3923 1.31790E+00
 -1      3924 2.27539E+00
 -1      3925 3.06986E+00
 -1      3926 2.10470E+00
 -1      3927 1.68013E-02
 -1      3928 2.37518E+00
 -1      3929 2.94399E+00
 -1      3930 1.92543E+00
 -1      3931 1.34117E+00
 -1      3932 1.09950E+00
 -1      3933 1.71382E+00
 -1      3934 9.30542E-01
 -1      3935 7.68764E-01
 -1      3936 9.60608E-01
 -1      3937 6.67305E-01
 -1      3938 5.61339E-01
 -1      3939 6.90196E-01
 -1      3940 4.93366E-01
 -1      3941 4.22197E-01
 -1      3942 5.20765E-01
 -1      3943 3.54572E-01
 -1      3944 3.07173E-01
 -1      3945 3.85167E-01
 -1      3946 2.64767E-01
 -1      3947 2.28675E-01
 -1      3948 2.75135E-01
 -1      3949 1.97218E-01
 -1      3950 1.68848E-01
 -1      3951 2.01272E-01
 -1      3952 1.45414E-01
 -1      3953 1.23301E-01
 -1      3954 1.46381E-01
 -1      3955 1.06031E-01
 -1      3956 8.89995E-02
 -1      3957 1.05676E-01
 -1      3958 7.68839E-02
 -1      3959 6.39312E-02
 -1      3960 7.62893E-02
 -1      3961 5.51109E-02
 -1      3962 4.53983E-02
 -1      3963 5.53534E-02
 -1      3964 3.85572E-02
 -1      3965 3.16104E-02
 -1      3966 3.96921E-02
 -1      3967 2.64474E-02
 -1      3968 2.15329E-02
 -1      3969 2.76879E-02
 -1      3970 1.80342E-02
 -1      3971 1.45027E-02
 -1      3972 1.90263E-02
 -1      3973 1.23431E-02
 -1      3974 1.03080E-02
 -1      3975 1.03080E-02
 -1      3976 1.33681E-02
 -1      3977 2.42111E+00
 -1      3978 2.13966E+00
 -1      3979 7.34217E-01
 -1      3980 6.00459E-01
 -1      3981 1.17517E+00
 -1      3982 1.30941E+00
 -1      3983 1.39506E+00
 -1      3984 1.52384E+00
 -1      3985 1.57243E+00
 -1      3986 8.45662E-01
 -1      3987 9.34389E-01
 -1      3988 1.24600E+00
 -1      3989 6.09464E-01
 -1      3990 6.89467E-01
 -1      3991 8.49023E-01
 -1      3992 4.52643E-01
 -1      3993 5.20445E-01
 -1      3994 6.03808E-01
 -1      3995 3.47319E-01
 -1      3996 3.90562E-01
 -1      3997 4.52708E-01
 -1      3998 2.72170E-01
 -1      3999 3.04011E-01
 -1      4000 3.47319E-01
 -1      4001 2.17461E-01
 -1      4002 2.40330E-01
 -1      4003 2.72170E-01
 -1      4004 1.70795E-01
 -1      4005 1.90307E-01
 -1      4006 2.13176E-01
 -1      4007 1.31200E-01
 -1      4008 1.48484E-01
 -1      4009 1.63710E-01
 -1      4010 9.87177E-02
 -1      4011 1.13333E-01
 -1      4012 1.23532E-01
 -1      4013 7.27498E-02
 -1      4014 8.46862E-02
 -1      4015 9.16331E-02
 -1      4016 5.24392E-02
 -1      4017 6.19121E-02
 -1      4018 6.67639E-02
 -1      4019 3.68757E-02
 -1      4020 4.42023E-02
 -1      4021 4.76892E-02
 -1      4022 2.52598E-02
 -1      4023 3.07498E-02
 -1      4024 3.33264E-02
 -1      4025 1.78710E-02
 -1      4026 2.17102E-02
 -1      4027 2.36509E-02
 -1      4028 1.31256E-02
 -1      4029 1.31256E-02
 -1      4030 1.79618E-02
 -1      4031 1.82040E-01
 -1      4032 1.86788E-01
 -1      4033 1.84097E-01
 -1      4034 1.68315E+00
 -1      4035 1.49814E+00
 -1      4036 2.34621E+00
 -1      4037 1.52586E-01
 -1      4038 1.65373E-01
 -1      4039 1.30550E-01
 -1      4040 3.56538E+00
 -1      4041 5.00713E+00
 -1      4042 4.21637E+00
 -1      4043 3.06986E+00
 -1      4044 3.48326E-01
 -1      4045 4.24239E-01
 -1      4046 4.59451E-01
 -1      4047 1.91535E-01
 -1      4048 7.16312E-01
 -1      4049 8.41151E-01
 -1      4050 8.64640E-01
 -1      4051 6.35065E-01
 -1      4052 1.06480E+00
 -1      4053 9.07878E-01
 -1      4054 8.49370E-01
 -1      4055 1.45637E+00
 -1      4056 2.29411E+00
 -1      4057 2.74746E+00
 -1      4058 2.80008E+00
 -1      4059 1.93821E+00
 -1      4060 1.90316E-02
 -1      4061 6.05886E-01
 -1      4062 5.30636E-01
 -1      4063 4.55852E-01
 -1      4064 3.28240E-01
 -1      4065 2.65053E-01
 -1      4066 2.36411E-01
 -1      4067 3.07629E+00
 -1      4068 1.95785E-01
 -1      4069 1.67807E-01
 -1      4070 3.58991E+00
 -1      4071 2.94399E+00
 -1      4072 1.29157E-02
 -1      4073 1.20153E-02
 -1      4074 1.12218E-02
 -1      4075 2.04581E-01
 -1      4076 1.88260E-01
 -1      4077 2.27358E-01
 -1      4078 2.49009E-01
 -1      4079 2.07244E+00
 -1      4080 3.45763E+00
 -1      4081 2.98678E+00
 -1      4082 3.02858E+00
 -1      4083 2.74453E+00
 -1      4084 1.80673E-02
 -1      4085 1.91371E-02
 -1      4086 1.80673E-02
 -1      4087 1.79026E-01
 -1      4088 2.15184E-01
 -1      4089 2.45535E-01
 -1      4090 2.41943E+00
 -1      4091 2.73270E+00
 -1      4092 2.68693E+00
 -1      4093 2.00506E+00
 -1      4094 1.28785E-01
 -1      4095 1.24922E-01
 -1      4096 1.23587E-01
 -1      4097 1.26769E-01
 -1      4098 2.14234E-01
 -1      4099 1.82007E-01
 -1      4100 1.73196E-01
 -1      4101 2.45535E-01
 -1      4102 2.74085E-01
 -1      4103 3.03078E-01
 -1      4104 2.28836E-01
 -1      4105 2.14536E-01
 -1      4106 2.14536E-01
 -1      4107 2.18786E-01
 -1      4108 2.37537E-01
 -1      4109 1.66663E+00
 -1      4110 2.13626E+00
 -1      4111 2.38266E+00
 -1      4112 2.18823E+00
 -1      4113 1.60397E+00
 -1      4114 1.28912E-02
 -1      4115 1.22868E+00
 -1      4116 1.05973E+00
 -1      4117 1.70309E+00
 -1      4118 8.32900E-01
 -1      4119 7.31441E-01
 -1      4120 1.10098E+00
 -1      4121 5.79675E-01
 -1      4122 5.11703E-01
 -1      4123 7.22379E-01
 -1      4124 4.02660E-01
 -1      4125 3.35034E-01
 -1      4126 4.61571E-01
 -1      4127 2.80880E-01
 -1      4128 2.38474E-01
 -1      4129 2.98373E-01
 -1      4130 2.10374E-01
 -1      4131 1.78918E-01
 -1      4132 2.16119E-01
 -1      4133 1.56272E-01
 -1      4134 1.32838E-01
 -1      4135 1.65375E-01
 -1      4136 1.14897E-01
 -1      4137 9.76260E-02
 -1      4138 1.24788E-01
 -1      4139 8.36015E-02
 -1      4140 7.14859E-02
 -1      4141 9.28226E-02
 -1      4142 6.06530E-02
 -1      4143 5.18327E-02
 -1      4144 6.79652E-02
 -1      4145 4.36663E-02
 -1      4146 3.68253E-02
 -1      4147 4.89659E-02
 -1      4148 3.08796E-02
 -1      4149 2.57166E-02
 -1      4150 3.48539E-02
 -1      4151 2.15502E-02
 -1      4152 1.80516E-02
 -1      4153 2.47419E-02
 -1      4154 1.50753E-02
 -1      4155 1.29157E-02
 -1      4156 1.46230E-02
 -1      4157 1.75993E-02
 -1      4158 1.48807E+00
 -1      4159 1.57371E+00
 -1      4160 1.92070E+00
 -1      4161 1.01032E+00
 -1      4162 1.16651E+00
 -1      4163 1.54179E+00
 -1      4164 1.78258E+00
 -1      4165 1.78386E+00
 -1      4166 1.70309E+00
 -1      4167 7.23296E-01
 -1      4168 8.12315E-01
 -1      4169 1.12980E+00
 -1      4170 5.35263E-01
 -1      4171 5.97344E-01
 -1      4172 8.05851E-01
 -1      4173 3.90838E-01
 -1      4174 4.34146E-01
 -1      4175 5.78782E-01
 -1      4176 2.89625E-01
 -1      4177 3.21465E-01
 -1      4178 4.08292E-01
 -1      4179 2.12667E-01
 -1      4180 2.39822E-01
 -1      4181 2.89117E-01
 -1      4182 1.54972E-01
 -1      4183 1.77284E-01
 -1      4184 2.03929E-01
 -1      4185 1.12021E-01
 -1      4186 1.29889E-01
 -1      4187 1.43462E-01
 -1      4188 8.10163E-02
 -1      4189 9.50479E-02
 -1      4190 1.01405E-01
 -1      4191 5.99794E-02
 -1      4192 7.08171E-02
 -1      4193 7.42318E-02
 -1      4194 4.34181E-02
 -1      4195 5.16551E-02
 -1      4196 5.57083E-02
 -1      4197 3.06538E-02
 -1      4198 3.67796E-02
 -1      4199 4.07455E-02
 -1      4200 2.03384E-02
 -1      4201 2.38880E-02
 -1      4202 2.73413E-02
 -1      4203 1.93742E-02
 -1      4204 1.31246E+00
 -1      4205 1.62962E+00
 -1      4206 1.66119E+00
 -1      4207 2.61979E+00
 -1      4208 1.73397E-01
 -1      4209 2.57434E+00
 -1      4210 3.06986E+00
 -1      4211 2.96211E+00
 -1      4212 2.13626E+00
 -1      4213 3.86035E-01
 -1      4214 4.68167E-01
 -1      4215 1.62924E-02
 -1      4216 2.52403E+00
 -1      4217 1.79395E+00
 -1      4218 1.36061E+00
 -1      4219 2.13626E+00
 -1      4220 3.89033E-01
 -1      4221 3.41632E-01
 -1      4222 4.69244E-01
 -1      4223 1.32361E+00
 -1      4224 1.14995E+00
 -1      4225 1.66119E+00
 -1      4226 2.85400E-01
 -1      4227 2.95579E-01
 -1      4228 2.95579E-01
 -1      4229 5.89994E-01
 -1      4230 6.63411E-01
 -1      4231 7.56892E-01
 -1      4232 9.09162E-01
 -1      4233 8.39339E-01
 -1      4234 1.38340E+00
 -1      4235 2.27281E+00
 -1      4236 2.28836E-01
 -1      4237 3.03078E-01
 -1      4238 3.11794E-01
 -1      4239 1.63979E-02
 -1      4240 1.95547E+00
 -1      4241 2.29035E+00
 -1      4242 2.01307E+00
 -1      4243 1.52412E+00
 -1      4244 2.57729E-01
 -1      4245 2.71929E-01
 -1      4246 9.35581E-01
 -1      4247 1.07167E+00
 -1      4248 1.38340E+00
 -1      4249 9.63926E-01
 -1      4250 2.76828E-01
 -1      4251 2.28635E-01
 -1      4252 3.34522E-01
 -1      4253 3.17230E-01
 -1      4254 1.70309E+00
 -1      4255 1.32781E+00
 -1      4256 1.12980E+00
 -1      4257 9.02973E-01
 -1      4258 7.77021E-01
 -1      4259 6.25256E-01
 -1      4260 5.24139E-01
 -1      4261 4.15096E-01
 -1      4262 3.45724E-01
 -1      4263 2.91569E-01
 -1      4264 2.41766E-01
 -1      4265 2.13667E-01
 -1      4266 1.78283E-01
 -1      4267 1.55638E-01
 -1      4268 1.30554E-01
 -1      4269 1.12613E-01
 -1      4270 9.56390E-02
 -1      4271 8.16146E-02
 -1      4272 7.14154E-02
 -1      4273 6.05824E-02
 -1      4274 5.22581E-02
 -1      4275 4.40918E-02
 -1      4276 3.74533E-02
 -1      4277 3.15076E-02
 -1      4278 2.47419E-02
 -1      4279 2.05755E-02
 -1      4280 3.78023E-01
 -1      4281 1.62418E+00
 -1      4282 1.66119E+00
 -1      4283 2.72130E-01
 -1      4284 2.28635E-01
 -1      4285 1.69819E+00
 -1      4286 1.38340E+00
 -1      4287 2.07837E+00
 -1      4288 3.98588E-01
 -1      4289 5.93831E-01
 -1      4290 6.60650E-01
 -1      4291 5.93831E-01
 -1      4292 9.63926E-01
 -1      4293 2.91229E-01
 -1      4294 3.74186E-01
 -1      4295 3.78023E-01
 -1      4296 3.34522E-01
 -1      4297 2.28836E-01
 -1      4298 1.14261E+00
 -1      4299 2.27281E+00
 -1      4300 3.53621E-01
 -1      4301 3.78023E-01
 -1      4302 1.93742E-02
 -1      4303 1.81863E+00
 -1      4304 5.93831E-01
 -1      4305 7.85238E-01
 -1      4306 9.63926E-01
 -1      4307 1.63979E-02
 -1      4308 4.02425E-01
 -3
 9999
