    1C
    1UUSER                                                              
    1UDATE              27.october.2022                                 
    1UTIME              00:35:49                                        
    1UHOST                                                              
    1UPGM               CalculiX                                        
    1UVERSION           Version 2.17                             
    1UCOMPILETIME       Thu Jul 23 21:43:50 CEST 2020                    
    1UDIR                                                               
    1UDBN                                                               
    1UMAT    1SOLIDMATERIAL                                             
    2C                          4368                                     1
 -1         1 6.98960E+01 3.14132E+01 0.00000E+00
 -1         2 8.32372E+01 2.84487E+01 0.00000E+00
 -1         3 1.50000E+02 0.00000E+00 0.00000E+00
 -1         4 1.50000E+02 5.00000E+01 0.00000E+00
 -1         5 0.00000E+00 0.00000E+00 0.00000E+00
 -1         6 0.00000E+00 5.00000E+01 0.00000E+00
 -1         7 0.00000E+00 4.70500E+01 0.00000E+00
 -1         8 0.00000E+00 4.41000E+01 0.00000E+00
 -1         9 0.00000E+00 4.11500E+01 0.00000E+00
 -1        10 0.00000E+00 3.82000E+01 0.00000E+00
 -1        11 0.00000E+00 3.52500E+01 0.00000E+00
 -1        12 0.00000E+00 3.23500E+01 0.00000E+00
 -1        13 0.00000E+00 2.94000E+01 0.00000E+00
 -1        14 0.00000E+00 2.64500E+01 0.00000E+00
 -1        15 0.00000E+00 2.35000E+01 0.00000E+00
 -1        16 0.00000E+00 2.05500E+01 0.00000E+00
 -1        17 0.00000E+00 1.76000E+01 0.00000E+00
 -1        18 0.00000E+00 1.47000E+01 0.00000E+00
 -1        19 0.00000E+00 1.17500E+01 0.00000E+00
 -1        20 0.00000E+00 8.80000E+00 0.00000E+00
 -1        21 0.00000E+00 5.85000E+00 0.00000E+00
 -1        22 0.00000E+00 2.90000E+00 0.00000E+00
 -1        23 3.15000E+00 5.00000E+01 0.00000E+00
 -1        24 6.15000E+00 5.00000E+01 0.00000E+00
 -1        25 9.15000E+00 5.00000E+01 0.00000E+00
 -1        26 1.21500E+01 5.00000E+01 0.00000E+00
 -1        27 1.51500E+01 5.00000E+01 0.00000E+00
 -1        28 1.81500E+01 5.00000E+01 0.00000E+00
 -1        29 2.11500E+01 5.00000E+01 0.00000E+00
 -1        30 2.41500E+01 5.00000E+01 0.00000E+00
 -1        31 2.71500E+01 5.00000E+01 0.00000E+00
 -1        32 3.01500E+01 5.00000E+01 0.00000E+00
 -1        33 3.31500E+01 5.00000E+01 0.00000E+00
 -1        34 3.61500E+01 5.00000E+01 0.00000E+00
 -1        35 3.91500E+01 5.00000E+01 0.00000E+00
 -1        36 4.21500E+01 5.00000E+01 0.00000E+00
 -1        37 4.51500E+01 5.00000E+01 0.00000E+00
 -1        38 4.81500E+01 5.00000E+01 0.00000E+00
 -1        39 5.11500E+01 5.00000E+01 0.00000E+00
 -1        40 5.41500E+01 5.00000E+01 0.00000E+00
 -1        41 5.71500E+01 5.00000E+01 0.00000E+00
 -1        42 6.01500E+01 5.00000E+01 0.00000E+00
 -1        43 6.31500E+01 5.00000E+01 0.00000E+00
 -1        44 6.61500E+01 5.00000E+01 0.00000E+00
 -1        45 6.91500E+01 5.00000E+01 0.00000E+00
 -1        46 7.21500E+01 5.00000E+01 0.00000E+00
 -1        47 7.51500E+01 5.00000E+01 0.00000E+00
 -1        48 7.81500E+01 5.00000E+01 0.00000E+00
 -1        49 8.11500E+01 5.00000E+01 0.00000E+00
 -1        50 8.41500E+01 5.00000E+01 0.00000E+00
 -1        51 8.71500E+01 5.00000E+01 0.00000E+00
 -1        52 9.01500E+01 5.00000E+01 0.00000E+00
 -1        53 9.31500E+01 5.00000E+01 0.00000E+00
 -1        54 9.61500E+01 5.00000E+01 0.00000E+00
 -1        55 9.91500E+01 5.00000E+01 0.00000E+00
 -1        56 1.02150E+02 5.00000E+01 0.00000E+00
 -1        57 1.05150E+02 5.00000E+01 0.00000E+00
 -1        58 1.08150E+02 5.00000E+01 0.00000E+00
 -1        59 1.11150E+02 5.00000E+01 0.00000E+00
 -1        60 1.14150E+02 5.00000E+01 0.00000E+00
 -1        61 1.17150E+02 5.00000E+01 0.00000E+00
 -1        62 1.20150E+02 5.00000E+01 0.00000E+00
 -1        63 1.23150E+02 5.00000E+01 0.00000E+00
 -1        64 1.26150E+02 5.00000E+01 0.00000E+00
 -1        65 1.29150E+02 5.00000E+01 0.00000E+00
 -1        66 1.32150E+02 5.00000E+01 0.00000E+00
 -1        67 1.35150E+02 5.00000E+01 0.00000E+00
 -1        68 1.38150E+02 5.00000E+01 0.00000E+00
 -1        69 1.41150E+02 5.00000E+01 0.00000E+00
 -1        70 1.44150E+02 5.00000E+01 0.00000E+00
 -1        71 1.47150E+02 5.00000E+01 0.00000E+00
 -1        72 3.15000E+00 0.00000E+00 0.00000E+00
 -1        73 6.15000E+00 0.00000E+00 0.00000E+00
 -1        74 9.15000E+00 0.00000E+00 0.00000E+00
 -1        75 1.21500E+01 0.00000E+00 0.00000E+00
 -1        76 1.51500E+01 0.00000E+00 0.00000E+00
 -1        77 1.81500E+01 0.00000E+00 0.00000E+00
 -1        78 2.11500E+01 0.00000E+00 0.00000E+00
 -1        79 2.41500E+01 0.00000E+00 0.00000E+00
 -1        80 2.71500E+01 0.00000E+00 0.00000E+00
 -1        81 3.01500E+01 0.00000E+00 0.00000E+00
 -1        82 3.31500E+01 0.00000E+00 0.00000E+00
 -1        83 3.61500E+01 0.00000E+00 0.00000E+00
 -1        84 3.91500E+01 0.00000E+00 0.00000E+00
 -1        85 4.21500E+01 0.00000E+00 0.00000E+00
 -1        86 4.51500E+01 0.00000E+00 0.00000E+00
 -1        87 4.81500E+01 0.00000E+00 0.00000E+00
 -1        88 5.11500E+01 0.00000E+00 0.00000E+00
 -1        89 5.41500E+01 0.00000E+00 0.00000E+00
 -1        90 5.71500E+01 0.00000E+00 0.00000E+00
 -1        91 6.01500E+01 0.00000E+00 0.00000E+00
 -1        92 6.31500E+01 0.00000E+00 0.00000E+00
 -1        93 6.61500E+01 0.00000E+00 0.00000E+00
 -1        94 6.91500E+01 0.00000E+00 0.00000E+00
 -1        95 7.21500E+01 0.00000E+00 0.00000E+00
 -1        96 7.51500E+01 0.00000E+00 0.00000E+00
 -1        97 7.81500E+01 0.00000E+00 0.00000E+00
 -1        98 8.11500E+01 0.00000E+00 0.00000E+00
 -1        99 8.41500E+01 0.00000E+00 0.00000E+00
 -1       100 8.71500E+01 0.00000E+00 0.00000E+00
 -1       101 9.01500E+01 0.00000E+00 0.00000E+00
 -1       102 9.31500E+01 0.00000E+00 0.00000E+00
 -1       103 9.61500E+01 0.00000E+00 0.00000E+00
 -1       104 9.91500E+01 0.00000E+00 0.00000E+00
 -1       105 1.02150E+02 0.00000E+00 0.00000E+00
 -1       106 1.05150E+02 0.00000E+00 0.00000E+00
 -1       107 1.08150E+02 0.00000E+00 0.00000E+00
 -1       108 1.11150E+02 0.00000E+00 0.00000E+00
 -1       109 1.14150E+02 0.00000E+00 0.00000E+00
 -1       110 1.17150E+02 0.00000E+00 0.00000E+00
 -1       111 1.20150E+02 0.00000E+00 0.00000E+00
 -1       112 1.23150E+02 0.00000E+00 0.00000E+00
 -1       113 1.26150E+02 0.00000E+00 0.00000E+00
 -1       114 1.29150E+02 0.00000E+00 0.00000E+00
 -1       115 1.32150E+02 0.00000E+00 0.00000E+00
 -1       116 1.35150E+02 0.00000E+00 0.00000E+00
 -1       117 1.38150E+02 0.00000E+00 0.00000E+00
 -1       118 1.41150E+02 0.00000E+00 0.00000E+00
 -1       119 1.44150E+02 0.00000E+00 0.00000E+00
 -1       120 1.47150E+02 0.00000E+00 0.00000E+00
 -1       121 1.50000E+02 2.95000E+00 0.00000E+00
 -1       122 1.50000E+02 5.90000E+00 0.00000E+00
 -1       123 1.50000E+02 8.85000E+00 0.00000E+00
 -1       124 1.50000E+02 1.18000E+01 0.00000E+00
 -1       125 1.50000E+02 1.47500E+01 0.00000E+00
 -1       126 1.50000E+02 1.76500E+01 0.00000E+00
 -1       127 1.50000E+02 2.06000E+01 0.00000E+00
 -1       128 1.50000E+02 2.35500E+01 0.00000E+00
 -1       129 1.50000E+02 2.65000E+01 0.00000E+00
 -1       130 1.50000E+02 2.94500E+01 0.00000E+00
 -1       131 1.50000E+02 3.24000E+01 0.00000E+00
 -1       132 1.50000E+02 3.53000E+01 0.00000E+00
 -1       133 1.50000E+02 3.82500E+01 0.00000E+00
 -1       134 1.50000E+02 4.12000E+01 0.00000E+00
 -1       135 1.50000E+02 4.41500E+01 0.00000E+00
 -1       136 1.50000E+02 4.71000E+01 0.00000E+00
 -1       137 8.30867E+01 2.70050E+01 0.00000E+00
 -1       138 8.26290E+01 2.55946E+01 0.00000E+00
 -1       139 8.18739E+01 2.42980E+01 0.00000E+00
 -1       140 8.08642E+01 2.31960E+01 0.00000E+00
 -1       141 7.95662E+01 2.22909E+01 0.00000E+00
 -1       142 7.82632E+01 2.17483E+01 0.00000E+00
 -1       143 7.67741E+01 2.14693E+01 0.00000E+00
 -1       144 7.53270E+01 2.15081E+01 0.00000E+00
 -1       145 7.38691E+01 2.18614E+01 0.00000E+00
 -1       146 7.25674E+01 2.24878E+01 0.00000E+00
 -1       147 7.14165E+01 2.33732E+01 0.00000E+00
 -1       148 7.04717E+01 2.44789E+01 0.00000E+00
 -1       149 6.97622E+01 2.57889E+01 0.00000E+00
 -1       150 6.93523E+01 2.71846E+01 0.00000E+00
 -1       151 6.92402E+01 2.86522E+01 0.00000E+00
 -1       152 6.94280E+01 3.00719E+01 0.00000E+00
 -1       153 7.06211E+01 3.26270E+01 0.00000E+00
 -1       154 7.16834E+01 3.37650E+01 0.00000E+00
 -1       155 7.28504E+01 3.45748E+01 0.00000E+00
 -1       156 7.42167E+01 3.51507E+01 0.00000E+00
 -1       157 7.55967E+01 3.54193E+01 0.00000E+00
 -1       158 7.70278E+01 3.54039E+01 0.00000E+00
 -1       159 7.85395E+01 3.50592E+01 0.00000E+00
 -1       160 7.98805E+01 3.44258E+01 0.00000E+00
 -1       161 8.10532E+01 3.35287E+01 0.00000E+00
 -1       162 8.19763E+01 3.24565E+01 0.00000E+00
 -1       163 8.26615E+01 3.12286E+01 0.00000E+00
 -1       164 8.30865E+01 2.98933E+01 0.00000E+00
 -1       165 2.59800E+00 4.55750E+01 0.00000E+00
 -1       166 2.59800E+00 4.26250E+01 0.00000E+00
 -1       167 2.59800E+00 3.96750E+01 0.00000E+00
 -1       168 2.59800E+00 3.67250E+01 0.00000E+00
 -1       169 2.59800E+00 3.38250E+01 0.00000E+00
 -1       170 2.59800E+00 3.08750E+01 0.00000E+00
 -1       171 2.59800E+00 2.79250E+01 0.00000E+00
 -1       172 2.59800E+00 2.49750E+01 0.00000E+00
 -1       173 2.59800E+00 2.20250E+01 0.00000E+00
 -1       174 2.59800E+00 1.90750E+01 0.00000E+00
 -1       175 2.59800E+00 1.61750E+01 0.00000E+00
 -1       176 2.59800E+00 1.32250E+01 0.00000E+00
 -1       177 2.59800E+00 1.02750E+01 0.00000E+00
 -1       178 2.59800E+00 7.32500E+00 0.00000E+00
 -1       179 2.59800E+00 4.37500E+00 0.00000E+00
 -1       180 2.87400E+00 2.18750E+00 0.00000E+00
 -1       181 4.65000E+00 4.74020E+01 0.00000E+00
 -1       182 7.65000E+00 4.74020E+01 0.00000E+00
 -1       183 1.06500E+01 4.74020E+01 0.00000E+00
 -1       184 1.36500E+01 4.74020E+01 0.00000E+00
 -1       185 1.66500E+01 4.74020E+01 0.00000E+00
 -1       186 1.96500E+01 4.74020E+01 0.00000E+00
 -1       187 2.26500E+01 4.74020E+01 0.00000E+00
 -1       188 2.56500E+01 4.74020E+01 0.00000E+00
 -1       189 2.86500E+01 4.74020E+01 0.00000E+00
 -1       190 3.16500E+01 4.74020E+01 0.00000E+00
 -1       191 3.46500E+01 4.74020E+01 0.00000E+00
 -1       192 3.76500E+01 4.74020E+01 0.00000E+00
 -1       193 4.06500E+01 4.74020E+01 0.00000E+00
 -1       194 4.36500E+01 4.74020E+01 0.00000E+00
 -1       195 4.66500E+01 4.74020E+01 0.00000E+00
 -1       196 4.96500E+01 4.74020E+01 0.00000E+00
 -1       197 5.26500E+01 4.74020E+01 0.00000E+00
 -1       198 5.56500E+01 4.74020E+01 0.00000E+00
 -1       199 5.86500E+01 4.74020E+01 0.00000E+00
 -1       200 6.16500E+01 4.74020E+01 0.00000E+00
 -1       201 6.46500E+01 4.74020E+01 0.00000E+00
 -1       202 6.76500E+01 4.74020E+01 0.00000E+00
 -1       203 7.06500E+01 4.74020E+01 0.00000E+00
 -1       204 7.36500E+01 4.74020E+01 0.00000E+00
 -1       205 7.66500E+01 4.74020E+01 0.00000E+00
 -1       206 7.96500E+01 4.74020E+01 0.00000E+00
 -1       207 8.26500E+01 4.74020E+01 0.00000E+00
 -1       208 8.56500E+01 4.74020E+01 0.00000E+00
 -1       209 8.86500E+01 4.74020E+01 0.00000E+00
 -1       210 9.16500E+01 4.74020E+01 0.00000E+00
 -1       211 9.46500E+01 4.74020E+01 0.00000E+00
 -1       212 9.76500E+01 4.74020E+01 0.00000E+00
 -1       213 1.00650E+02 4.74020E+01 0.00000E+00
 -1       214 1.03650E+02 4.74020E+01 0.00000E+00
 -1       215 1.06650E+02 4.74020E+01 0.00000E+00
 -1       216 1.09650E+02 4.74020E+01 0.00000E+00
 -1       217 1.12650E+02 4.74020E+01 0.00000E+00
 -1       218 1.15650E+02 4.74020E+01 0.00000E+00
 -1       219 1.18650E+02 4.74020E+01 0.00000E+00
 -1       220 1.21650E+02 4.74020E+01 0.00000E+00
 -1       221 1.24650E+02 4.74020E+01 0.00000E+00
 -1       222 1.27650E+02 4.74020E+01 0.00000E+00
 -1       223 1.30650E+02 4.74020E+01 0.00000E+00
 -1       224 1.33650E+02 4.74020E+01 0.00000E+00
 -1       225 1.36650E+02 4.74020E+01 0.00000E+00
 -1       226 1.39650E+02 4.74020E+01 0.00000E+00
 -1       227 1.42650E+02 4.74020E+01 0.00000E+00
 -1       228 1.45650E+02 4.74020E+01 0.00000E+00
 -1       229 5.87400E+00 2.18750E+00 0.00000E+00
 -1       230 8.87400E+00 2.18750E+00 0.00000E+00
 -1       231 1.18740E+01 2.18750E+00 0.00000E+00
 -1       232 1.48740E+01 2.18750E+00 0.00000E+00
 -1       233 1.78740E+01 2.18750E+00 0.00000E+00
 -1       234 2.08740E+01 2.18750E+00 0.00000E+00
 -1       235 2.38740E+01 2.18750E+00 0.00000E+00
 -1       236 2.68740E+01 2.18750E+00 0.00000E+00
 -1       237 2.98740E+01 2.18750E+00 0.00000E+00
 -1       238 3.28740E+01 2.18750E+00 0.00000E+00
 -1       239 3.58740E+01 2.18750E+00 0.00000E+00
 -1       240 3.88740E+01 2.18750E+00 0.00000E+00
 -1       241 4.18740E+01 2.18750E+00 0.00000E+00
 -1       242 4.48740E+01 2.18750E+00 0.00000E+00
 -1       243 4.78740E+01 2.18750E+00 0.00000E+00
 -1       244 5.08740E+01 2.18750E+00 0.00000E+00
 -1       245 5.38740E+01 2.18750E+00 0.00000E+00
 -1       246 5.68740E+01 2.18750E+00 0.00000E+00
 -1       247 5.98740E+01 2.18750E+00 0.00000E+00
 -1       248 6.28740E+01 2.18750E+00 0.00000E+00
 -1       249 6.58740E+01 2.18750E+00 0.00000E+00
 -1       250 6.88740E+01 2.18750E+00 0.00000E+00
 -1       251 7.18740E+01 2.18750E+00 0.00000E+00
 -1       252 7.48740E+01 2.18750E+00 0.00000E+00
 -1       253 7.78740E+01 2.18750E+00 0.00000E+00
 -1       254 8.08740E+01 2.18750E+00 0.00000E+00
 -1       255 8.38740E+01 2.18750E+00 0.00000E+00
 -1       256 8.68740E+01 2.18750E+00 0.00000E+00
 -1       257 8.98740E+01 2.18750E+00 0.00000E+00
 -1       258 9.28740E+01 2.18750E+00 0.00000E+00
 -1       259 9.58740E+01 2.18750E+00 0.00000E+00
 -1       260 9.88740E+01 2.18750E+00 0.00000E+00
 -1       261 1.01874E+02 2.18750E+00 0.00000E+00
 -1       262 1.04874E+02 2.18750E+00 0.00000E+00
 -1       263 1.07874E+02 2.18750E+00 0.00000E+00
 -1       264 1.10874E+02 2.18750E+00 0.00000E+00
 -1       265 1.13874E+02 2.18750E+00 0.00000E+00
 -1       266 1.16874E+02 2.18750E+00 0.00000E+00
 -1       267 1.19874E+02 2.18750E+00 0.00000E+00
 -1       268 1.22874E+02 2.18750E+00 0.00000E+00
 -1       269 1.25874E+02 2.18750E+00 0.00000E+00
 -1       270 1.28874E+02 2.18750E+00 0.00000E+00
 -1       271 1.31874E+02 2.18750E+00 0.00000E+00
 -1       272 1.34874E+02 2.18750E+00 0.00000E+00
 -1       273 1.37874E+02 2.18750E+00 0.00000E+00
 -1       274 1.40874E+02 2.18750E+00 0.00000E+00
 -1       275 1.43874E+02 2.18750E+00 0.00000E+00
 -1       276 1.46874E+02 2.18750E+00 0.00000E+00
 -1       277 1.47402E+02 4.42500E+00 0.00000E+00
 -1       278 1.47402E+02 7.37500E+00 0.00000E+00
 -1       279 1.47402E+02 1.03250E+01 0.00000E+00
 -1       280 1.47402E+02 1.32750E+01 0.00000E+00
 -1       281 1.47402E+02 1.61750E+01 0.00000E+00
 -1       282 1.47402E+02 1.91250E+01 0.00000E+00
 -1       283 1.47402E+02 2.20750E+01 0.00000E+00
 -1       284 1.47402E+02 2.50250E+01 0.00000E+00
 -1       285 1.47402E+02 2.79750E+01 0.00000E+00
 -1       286 1.47402E+02 3.09250E+01 0.00000E+00
 -1       287 1.47402E+02 3.38250E+01 0.00000E+00
 -1       288 1.47402E+02 3.67750E+01 0.00000E+00
 -1       289 1.47402E+02 3.97250E+01 0.00000E+00
 -1       290 1.47402E+02 4.26750E+01 0.00000E+00
 -1       291 1.46526E+02 4.50385E+01 0.00000E+00
 -1       292 8.44512E+01 2.75924E+01 0.00000E+00
 -1       293 8.41704E+01 2.58738E+01 0.00000E+00
 -1       294 8.34439E+01 2.42519E+01 0.00000E+00
 -1       295 8.22630E+01 2.29280E+01 0.00000E+00
 -1       296 8.10045E+01 2.16115E+01 0.00000E+00
 -1       297 7.93809E+01 2.09004E+01 0.00000E+00
 -1       298 7.77728E+01 2.02524E+01 0.00000E+00
 -1       299 7.60180E+01 2.02767E+01 0.00000E+00
 -1       300 7.43125E+01 2.05065E+01 0.00000E+00
 -1       301 7.26562E+01 2.10066E+01 0.00000E+00
 -1       302 7.12016E+01 2.19031E+01 0.00000E+00
 -1       303 6.99586E+01 2.30841E+01 0.00000E+00
 -1       304 6.87562E+01 2.43969E+01 0.00000E+00
 -1       305 6.83136E+01 2.61215E+01 0.00000E+00
 -1       306 6.79203E+01 2.78133E+01 0.00000E+00
 -1       307 6.80491E+01 2.95321E+01 0.00000E+00
 -1       308 6.85173E+01 3.11419E+01 0.00000E+00
 -1       309 6.92177E+01 3.26419E+01 0.00000E+00
 -1       310 7.01435E+01 3.41377E+01 0.00000E+00
 -1       311 7.15757E+01 3.51659E+01 0.00000E+00
 -1       312 7.29975E+01 3.61344E+01 0.00000E+00
 -1       313 7.46751E+01 3.64751E+01 0.00000E+00
 -1       314 7.63254E+01 3.66239E+01 0.00000E+00
 -1       315 7.80904E+01 3.65770E+01 0.00000E+00
 -1       316 7.97278E+01 3.58388E+01 0.00000E+00
 -1       317 8.13053E+01 3.50733E+01 0.00000E+00
 -1       318 8.24335E+01 3.37837E+01 0.00000E+00
 -1       319 8.34508E+01 3.24742E+01 0.00000E+00
 -1       320 8.40293E+01 3.09287E+01 0.00000E+00
 -1       321 8.44511E+01 2.93055E+01 0.00000E+00
 -1       322 5.19600E+00 4.11500E+01 0.00000E+00
 -1       323 5.19600E+00 4.41000E+01 0.00000E+00
 -1       324 5.19600E+00 3.52750E+01 0.00000E+00
 -1       325 5.19600E+00 3.23250E+01 0.00000E+00
 -1       326 5.19600E+00 2.93750E+01 0.00000E+00
 -1       327 5.19600E+00 2.64250E+01 0.00000E+00
 -1       328 5.19600E+00 2.34750E+01 0.00000E+00
 -1       329 5.19600E+00 2.05250E+01 0.00000E+00
 -1       330 5.19600E+00 1.76250E+01 0.00000E+00
 -1       331 5.19600E+00 1.46750E+01 0.00000E+00
 -1       332 5.19600E+00 1.17250E+01 0.00000E+00
 -1       333 5.19600E+00 8.77500E+00 0.00000E+00
 -1       334 5.19600E+00 5.82500E+00 0.00000E+00
 -1       335 5.53500E+00 4.00625E+00 0.00000E+00
 -1       336 8.53500E+00 4.00625E+00 0.00000E+00
 -1       337 9.15000E+00 4.48040E+01 0.00000E+00
 -1       338 1.21500E+01 4.48040E+01 0.00000E+00
 -1       339 1.51500E+01 4.48040E+01 0.00000E+00
 -1       340 1.81500E+01 4.48040E+01 0.00000E+00
 -1       341 2.11500E+01 4.48040E+01 0.00000E+00
 -1       342 2.41500E+01 4.48040E+01 0.00000E+00
 -1       343 2.71500E+01 4.48040E+01 0.00000E+00
 -1       344 3.01500E+01 4.48040E+01 0.00000E+00
 -1       345 3.31500E+01 4.48040E+01 0.00000E+00
 -1       346 3.61500E+01 4.48040E+01 0.00000E+00
 -1       347 3.91500E+01 4.48040E+01 0.00000E+00
 -1       348 4.21500E+01 4.48040E+01 0.00000E+00
 -1       349 4.51500E+01 4.48040E+01 0.00000E+00
 -1       350 4.81500E+01 4.48040E+01 0.00000E+00
 -1       351 5.11500E+01 4.48040E+01 0.00000E+00
 -1       352 5.41500E+01 4.48040E+01 0.00000E+00
 -1       353 5.71500E+01 4.48040E+01 0.00000E+00
 -1       354 6.01500E+01 4.48040E+01 0.00000E+00
 -1       355 6.31500E+01 4.48040E+01 0.00000E+00
 -1       356 6.61500E+01 4.48040E+01 0.00000E+00
 -1       357 6.91500E+01 4.48040E+01 0.00000E+00
 -1       358 7.21500E+01 4.48040E+01 0.00000E+00
 -1       359 7.51500E+01 4.48040E+01 0.00000E+00
 -1       360 7.81500E+01 4.48040E+01 0.00000E+00
 -1       361 8.11500E+01 4.48040E+01 0.00000E+00
 -1       362 8.41500E+01 4.48040E+01 0.00000E+00
 -1       363 8.71500E+01 4.48040E+01 0.00000E+00
 -1       364 9.01500E+01 4.48040E+01 0.00000E+00
 -1       365 9.31500E+01 4.48040E+01 0.00000E+00
 -1       366 9.61500E+01 4.48040E+01 0.00000E+00
 -1       367 9.91500E+01 4.48040E+01 0.00000E+00
 -1       368 1.02150E+02 4.48040E+01 0.00000E+00
 -1       369 1.05150E+02 4.48040E+01 0.00000E+00
 -1       370 1.08150E+02 4.48040E+01 0.00000E+00
 -1       371 1.11150E+02 4.48040E+01 0.00000E+00
 -1       372 1.14150E+02 4.48040E+01 0.00000E+00
 -1       373 1.17150E+02 4.48040E+01 0.00000E+00
 -1       374 1.20150E+02 4.48040E+01 0.00000E+00
 -1       375 1.23150E+02 4.48040E+01 0.00000E+00
 -1       376 1.26150E+02 4.48040E+01 0.00000E+00
 -1       377 1.29150E+02 4.48040E+01 0.00000E+00
 -1       378 1.32150E+02 4.48040E+01 0.00000E+00
 -1       379 1.35150E+02 4.48040E+01 0.00000E+00
 -1       380 1.38150E+02 4.48040E+01 0.00000E+00
 -1       381 1.41150E+02 4.48040E+01 0.00000E+00
 -1       382 1.43838E+02 4.49212E+01 0.00000E+00
 -1       383 1.15350E+01 4.00625E+00 0.00000E+00
 -1       384 1.45350E+01 4.00625E+00 0.00000E+00
 -1       385 1.75350E+01 4.00625E+00 0.00000E+00
 -1       386 2.05350E+01 4.00625E+00 0.00000E+00
 -1       387 2.35350E+01 4.00625E+00 0.00000E+00
 -1       388 2.65350E+01 4.00625E+00 0.00000E+00
 -1       389 2.95350E+01 4.00625E+00 0.00000E+00
 -1       390 3.25350E+01 4.00625E+00 0.00000E+00
 -1       391 3.55350E+01 4.00625E+00 0.00000E+00
 -1       392 3.85350E+01 4.00625E+00 0.00000E+00
 -1       393 4.15350E+01 4.00625E+00 0.00000E+00
 -1       394 4.45350E+01 4.00625E+00 0.00000E+00
 -1       395 4.75350E+01 4.00625E+00 0.00000E+00
 -1       396 5.05350E+01 4.00625E+00 0.00000E+00
 -1       397 5.35350E+01 4.00625E+00 0.00000E+00
 -1       398 5.65350E+01 4.00625E+00 0.00000E+00
 -1       399 5.95350E+01 4.00625E+00 0.00000E+00
 -1       400 6.25350E+01 4.00625E+00 0.00000E+00
 -1       401 6.55350E+01 4.00625E+00 0.00000E+00
 -1       402 6.85350E+01 4.00625E+00 0.00000E+00
 -1       403 7.15350E+01 4.00625E+00 0.00000E+00
 -1       404 7.45350E+01 4.00625E+00 0.00000E+00
 -1       405 7.75350E+01 4.00625E+00 0.00000E+00
 -1       406 8.05350E+01 4.00625E+00 0.00000E+00
 -1       407 8.35350E+01 4.00625E+00 0.00000E+00
 -1       408 8.65350E+01 4.00625E+00 0.00000E+00
 -1       409 8.95350E+01 4.00625E+00 0.00000E+00
 -1       410 9.25350E+01 4.00625E+00 0.00000E+00
 -1       411 9.55350E+01 4.00625E+00 0.00000E+00
 -1       412 9.85350E+01 4.00625E+00 0.00000E+00
 -1       413 1.01535E+02 4.00625E+00 0.00000E+00
 -1       414 1.04535E+02 4.00625E+00 0.00000E+00
 -1       415 1.07535E+02 4.00625E+00 0.00000E+00
 -1       416 1.10535E+02 4.00625E+00 0.00000E+00
 -1       417 1.13535E+02 4.00625E+00 0.00000E+00
 -1       418 1.16535E+02 4.00625E+00 0.00000E+00
 -1       419 1.19535E+02 4.00625E+00 0.00000E+00
 -1       420 1.22535E+02 4.00625E+00 0.00000E+00
 -1       421 1.25535E+02 4.00625E+00 0.00000E+00
 -1       422 1.28535E+02 4.00625E+00 0.00000E+00
 -1       423 1.31535E+02 4.00625E+00 0.00000E+00
 -1       424 1.34535E+02 4.00625E+00 0.00000E+00
 -1       425 1.37535E+02 4.00625E+00 0.00000E+00
 -1       426 1.40535E+02 4.00625E+00 0.00000E+00
 -1       427 1.43535E+02 4.00625E+00 0.00000E+00
 -1       428 1.45469E+02 4.21562E+00 0.00000E+00
 -1       429 1.44804E+02 1.18000E+01 0.00000E+00
 -1       430 1.44804E+02 8.85000E+00 0.00000E+00
 -1       431 1.45136E+02 6.53281E+00 0.00000E+00
 -1       432 1.44804E+02 1.47000E+01 0.00000E+00
 -1       433 1.44804E+02 1.76500E+01 0.00000E+00
 -1       434 1.44804E+02 2.06000E+01 0.00000E+00
 -1       435 1.44804E+02 2.35500E+01 0.00000E+00
 -1       436 1.44804E+02 2.65000E+01 0.00000E+00
 -1       437 1.44804E+02 2.94500E+01 0.00000E+00
 -1       438 1.44804E+02 3.23500E+01 0.00000E+00
 -1       439 1.44804E+02 3.53000E+01 0.00000E+00
 -1       440 1.44804E+02 3.82500E+01 0.00000E+00
 -1       441 1.44804E+02 4.12000E+01 0.00000E+00
 -1       442 8.55254E+01 2.42932E+01 0.00000E+00
 -1       443 8.61662E+01 2.84491E+01 0.00000E+00
 -1       444 8.58855E+01 2.67304E+01 0.00000E+00
 -1       445 8.40708E+01 2.25040E+01 0.00000E+00
 -1       446 8.28123E+01 2.11875E+01 0.00000E+00
 -1       447 5.19600E+00 3.82125E+01 0.00000E+00
 -1       448 7.91239E+01 1.92187E+01 0.00000E+00
 -1       449 7.68717E+01 1.85496E+01 0.00000E+00
 -1       450 7.51661E+01 1.87794E+01 0.00000E+00
 -1       451 7.30854E+01 1.94355E+01 0.00000E+00
 -1       452 7.12048E+01 2.02801E+01 0.00000E+00
 -1       453 6.96873E+01 2.15539E+01 0.00000E+00
 -1       454 6.84848E+01 2.28668E+01 0.00000E+00
 -1       455 6.72794E+01 2.49370E+01 0.00000E+00
 -1       456 6.68861E+01 2.66288E+01 0.00000E+00
 -1       457 6.66921E+01 2.87696E+01 0.00000E+00
 -1       458 6.70386E+01 3.06989E+01 0.00000E+00
 -1       459 6.74653E+01 3.25466E+01 0.00000E+00
 -1       460 6.83911E+01 3.40425E+01 0.00000E+00
 -1       461 7.00059E+01 3.58409E+01 0.00000E+00
 -1       462 7.14278E+01 3.68093E+01 0.00000E+00
 -1       463 7.35283E+01 3.78213E+01 0.00000E+00
 -1       464 7.53838E+01 3.78404E+01 0.00000E+00
 -1       465 7.72446E+01 3.79799E+01 0.00000E+00
 -1       466 7.94763E+01 3.74659E+01 0.00000E+00
 -1       467 8.11556E+01 3.67729E+01 0.00000E+00
 -1       468 8.29711E+01 3.53923E+01 0.00000E+00
 -1       469 8.39657E+01 3.39242E+01 0.00000E+00
 -1       470 8.51894E+01 3.22440E+01 0.00000E+00
 -1       471 8.54947E+01 3.04430E+01 0.00000E+00
 -1       472 8.07476E+01 1.99298E+01 0.00000E+00
 -1       473 6.70081E+01 2.34069E+01 0.00000E+00
 -1       474 1.00350E+01 6.60425E+00 0.00000E+00
 -1       475 7.79400E+00 3.08500E+01 0.00000E+00
 -1       476 7.79400E+00 3.38000E+01 0.00000E+00
 -1       477 7.79400E+00 2.49500E+01 0.00000E+00
 -1       478 7.79400E+00 2.20000E+01 0.00000E+00
 -1       479 7.79400E+00 1.91000E+01 0.00000E+00
 -1       480 7.79400E+00 1.61500E+01 0.00000E+00
 -1       481 7.79400E+00 1.32000E+01 0.00000E+00
 -1       482 7.79400E+00 1.02500E+01 0.00000E+00
 -1       483 1.30350E+01 6.60425E+00 0.00000E+00
 -1       484 1.06500E+01 4.22060E+01 0.00000E+00
 -1       485 7.36099E+01 1.74717E+01 0.00000E+00
 -1       486 8.28465E+01 1.88077E+01 0.00000E+00
 -1       487 1.36500E+01 4.22060E+01 0.00000E+00
 -1       488 1.66500E+01 4.22060E+01 0.00000E+00
 -1       489 1.96500E+01 4.22060E+01 0.00000E+00
 -1       490 2.26500E+01 4.22060E+01 0.00000E+00
 -1       491 2.56500E+01 4.22060E+01 0.00000E+00
 -1       492 2.86500E+01 4.22060E+01 0.00000E+00
 -1       493 3.16500E+01 4.22060E+01 0.00000E+00
 -1       494 3.46500E+01 4.22060E+01 0.00000E+00
 -1       495 3.76500E+01 4.22060E+01 0.00000E+00
 -1       496 4.06500E+01 4.22060E+01 0.00000E+00
 -1       497 4.36500E+01 4.22060E+01 0.00000E+00
 -1       498 4.66500E+01 4.22060E+01 0.00000E+00
 -1       499 4.96500E+01 4.22060E+01 0.00000E+00
 -1       500 5.26500E+01 4.22060E+01 0.00000E+00
 -1       501 5.56500E+01 4.22060E+01 0.00000E+00
 -1       502 5.86500E+01 4.22060E+01 0.00000E+00
 -1       503 6.16500E+01 4.22060E+01 0.00000E+00
 -1       504 6.46500E+01 4.22060E+01 0.00000E+00
 -1       505 6.76500E+01 4.22060E+01 0.00000E+00
 -1       506 7.06500E+01 4.22060E+01 0.00000E+00
 -1       507 7.36500E+01 4.22060E+01 0.00000E+00
 -1       508 7.66500E+01 4.22060E+01 0.00000E+00
 -1       509 7.96500E+01 4.22060E+01 0.00000E+00
 -1       510 8.26500E+01 4.22060E+01 0.00000E+00
 -1       511 8.56500E+01 4.22060E+01 0.00000E+00
 -1       512 8.86500E+01 4.22060E+01 0.00000E+00
 -1       513 9.16500E+01 4.22060E+01 0.00000E+00
 -1       514 9.46500E+01 4.22060E+01 0.00000E+00
 -1       515 9.76500E+01 4.22060E+01 0.00000E+00
 -1       516 1.00650E+02 4.22060E+01 0.00000E+00
 -1       517 1.03650E+02 4.22060E+01 0.00000E+00
 -1       518 1.06650E+02 4.22060E+01 0.00000E+00
 -1       519 1.09650E+02 4.22060E+01 0.00000E+00
 -1       520 1.12650E+02 4.22060E+01 0.00000E+00
 -1       521 1.15650E+02 4.22060E+01 0.00000E+00
 -1       522 1.18650E+02 4.22060E+01 0.00000E+00
 -1       523 1.21650E+02 4.22060E+01 0.00000E+00
 -1       524 1.24650E+02 4.22060E+01 0.00000E+00
 -1       525 1.27650E+02 4.22060E+01 0.00000E+00
 -1       526 1.30650E+02 4.22060E+01 0.00000E+00
 -1       527 1.33650E+02 4.22060E+01 0.00000E+00
 -1       528 1.36650E+02 4.22060E+01 0.00000E+00
 -1       529 1.39650E+02 4.22060E+01 0.00000E+00
 -1       530 1.90350E+01 6.60425E+00 0.00000E+00
 -1       531 2.20350E+01 6.60425E+00 0.00000E+00
 -1       532 2.50350E+01 6.60425E+00 0.00000E+00
 -1       533 2.80350E+01 6.60425E+00 0.00000E+00
 -1       534 3.10350E+01 6.60425E+00 0.00000E+00
 -1       535 3.40350E+01 6.60425E+00 0.00000E+00
 -1       536 3.70350E+01 6.60425E+00 0.00000E+00
 -1       537 4.00350E+01 6.60425E+00 0.00000E+00
 -1       538 4.30350E+01 6.60425E+00 0.00000E+00
 -1       539 4.60350E+01 6.60425E+00 0.00000E+00
 -1       540 4.90350E+01 6.60425E+00 0.00000E+00
 -1       541 5.20350E+01 6.60425E+00 0.00000E+00
 -1       542 5.50350E+01 6.60425E+00 0.00000E+00
 -1       543 5.80350E+01 6.60425E+00 0.00000E+00
 -1       544 6.10350E+01 6.60425E+00 0.00000E+00
 -1       545 6.40350E+01 6.60425E+00 0.00000E+00
 -1       546 6.70350E+01 6.60425E+00 0.00000E+00
 -1       547 7.00350E+01 6.60425E+00 0.00000E+00
 -1       548 7.30350E+01 6.60425E+00 0.00000E+00
 -1       549 7.60350E+01 6.60425E+00 0.00000E+00
 -1       550 7.90350E+01 6.60425E+00 0.00000E+00
 -1       551 8.20350E+01 6.60425E+00 0.00000E+00
 -1       552 8.50350E+01 6.60425E+00 0.00000E+00
 -1       553 8.80350E+01 6.60425E+00 0.00000E+00
 -1       554 9.10350E+01 6.60425E+00 0.00000E+00
 -1       555 9.40350E+01 6.60425E+00 0.00000E+00
 -1       556 9.70350E+01 6.60425E+00 0.00000E+00
 -1       557 1.00035E+02 6.60425E+00 0.00000E+00
 -1       558 1.03035E+02 6.60425E+00 0.00000E+00
 -1       559 1.06035E+02 6.60425E+00 0.00000E+00
 -1       560 1.09035E+02 6.60425E+00 0.00000E+00
 -1       561 1.12035E+02 6.60425E+00 0.00000E+00
 -1       562 1.15035E+02 6.60425E+00 0.00000E+00
 -1       563 1.18035E+02 6.60425E+00 0.00000E+00
 -1       564 1.21035E+02 6.60425E+00 0.00000E+00
 -1       565 1.24035E+02 6.60425E+00 0.00000E+00
 -1       566 1.27035E+02 6.60425E+00 0.00000E+00
 -1       567 1.30035E+02 6.60425E+00 0.00000E+00
 -1       568 1.33035E+02 6.60425E+00 0.00000E+00
 -1       569 1.36035E+02 6.60425E+00 0.00000E+00
 -1       570 1.39035E+02 6.60425E+00 0.00000E+00
 -1       571 1.42035E+02 6.60425E+00 0.00000E+00
 -1       572 1.42206E+02 1.61750E+01 0.00000E+00
 -1       573 1.42206E+02 1.91250E+01 0.00000E+00
 -1       574 1.42206E+02 1.03250E+01 0.00000E+00
 -1       575 1.42206E+02 1.32500E+01 0.00000E+00
 -1       576 1.42206E+02 2.20750E+01 0.00000E+00
 -1       577 1.42206E+02 2.50250E+01 0.00000E+00
 -1       578 1.42206E+02 2.79750E+01 0.00000E+00
 -1       579 1.42206E+02 3.08750E+01 0.00000E+00
 -1       580 1.42206E+02 3.38250E+01 0.00000E+00
 -1       581 1.42206E+02 3.67750E+01 0.00000E+00
 -1       582 1.42206E+02 3.97250E+01 0.00000E+00
 -1       583 8.65190E+01 2.19996E+01 0.00000E+00
 -1       584 8.72971E+01 2.99399E+01 0.00000E+00
 -1       585 1.60350E+01 6.60425E+00 0.00000E+00
 -1       586 8.75531E+01 2.73402E+01 0.00000E+00
 -1       587 8.46828E+01 2.04036E+01 0.00000E+00
 -1       588 8.05902E+01 1.80800E+01 0.00000E+00
 -1       589 8.69917E+01 3.17409E+01 0.00000E+00
 -1       590 6.55808E+01 3.20087E+01 0.00000E+00
 -1       591 6.92356E+01 1.94750E+01 0.00000E+00
 -1       592 7.79400E+00 2.79000E+01 0.00000E+00
 -1       593 7.92300E+00 4.16780E+01 0.00000E+00
 -1       594 7.14424E+01 1.82932E+01 0.00000E+00
 -1       595 7.57452E+01 1.66326E+01 0.00000E+00
 -1       596 6.52344E+01 3.00794E+01 0.00000E+00
 -1       597 7.84862E+01 1.72401E+01 0.00000E+00
 -1       598 6.80332E+01 2.07879E+01 0.00000E+00
 -1       599 6.57386E+01 2.54704E+01 0.00000E+00
 -1       600 7.44392E+01 3.94621E+01 0.00000E+00
 -1       601 6.50810E+01 2.75445E+01 0.00000E+00
 -1       602 6.65411E+01 3.41531E+01 0.00000E+00
 -1       603 6.76730E+01 3.63115E+01 0.00000E+00
 -1       604 6.97514E+01 3.77426E+01 0.00000E+00
 -1       605 7.17700E+01 3.87849E+01 0.00000E+00
 -1       606 7.63000E+01 3.96016E+01 0.00000E+00
 -1       607 7.88206E+01 3.97209E+01 0.00000E+00
 -1       608 8.09702E+01 3.87049E+01 0.00000E+00
 -1       609 8.30508E+01 3.73811E+01 0.00000E+00
 -1       610 8.48189E+01 3.55732E+01 0.00000E+00
 -1       611 8.60426E+01 3.38930E+01 0.00000E+00
 -1       612 8.71930E+01 2.49030E+01 0.00000E+00
 -1       613 7.61550E+00 6.21462E+00 0.00000E+00
 -1       614 7.79400E+00 3.67375E+01 0.00000E+00
 -1       615 1.41678E+02 4.22645E+01 0.00000E+00
 -1       616 8.86840E+01 2.88311E+01 0.00000E+00
 -1       617 7.85850E+00 3.92077E+01 0.00000E+00
 -1       618 6.65564E+01 2.13280E+01 0.00000E+00
 -1       619 6.54673E+01 2.39403E+01 0.00000E+00
 -1       620 1.05855E+01 3.97357E+01 0.00000E+00
 -1       621 1.03920E+01 2.05500E+01 0.00000E+00
 -1       622 1.03920E+01 2.35000E+01 0.00000E+00
 -1       623 1.03920E+01 1.46750E+01 0.00000E+00
 -1       624 1.03920E+01 1.17250E+01 0.00000E+00
 -1       625 1.15350E+01 9.20225E+00 0.00000E+00
 -1       626 6.74544E+01 3.88537E+01 0.00000E+00
 -1       627 8.90698E+01 2.58709E+01 0.00000E+00
 -1       628 1.51500E+01 3.96080E+01 0.00000E+00
 -1       629 1.81500E+01 3.96080E+01 0.00000E+00
 -1       630 2.11500E+01 3.96080E+01 0.00000E+00
 -1       631 2.41500E+01 3.96080E+01 0.00000E+00
 -1       632 2.71500E+01 3.96080E+01 0.00000E+00
 -1       633 3.01500E+01 3.96080E+01 0.00000E+00
 -1       634 3.31500E+01 3.96080E+01 0.00000E+00
 -1       635 3.61500E+01 3.96080E+01 0.00000E+00
 -1       636 3.91500E+01 3.96080E+01 0.00000E+00
 -1       637 4.21500E+01 3.96080E+01 0.00000E+00
 -1       638 4.51500E+01 3.96080E+01 0.00000E+00
 -1       639 4.81500E+01 3.96080E+01 0.00000E+00
 -1       640 5.11500E+01 3.96080E+01 0.00000E+00
 -1       641 5.41500E+01 3.96080E+01 0.00000E+00
 -1       642 5.71500E+01 3.96080E+01 0.00000E+00
 -1       643 6.01500E+01 3.96080E+01 0.00000E+00
 -1       644 6.31500E+01 3.96080E+01 0.00000E+00
 -1       645 8.41500E+01 3.99882E+01 0.00000E+00
 -1       646 8.71500E+01 3.99882E+01 0.00000E+00
 -1       647 9.01500E+01 3.99882E+01 0.00000E+00
 -1       648 9.31500E+01 3.99882E+01 0.00000E+00
 -1       649 9.61500E+01 3.99882E+01 0.00000E+00
 -1       650 9.91500E+01 3.99882E+01 0.00000E+00
 -1       651 1.02150E+02 3.99882E+01 0.00000E+00
 -1       652 1.05150E+02 3.99882E+01 0.00000E+00
 -1       653 1.08150E+02 3.99882E+01 0.00000E+00
 -1       654 1.11150E+02 3.99882E+01 0.00000E+00
 -1       655 1.14150E+02 3.99882E+01 0.00000E+00
 -1       656 1.17150E+02 3.99882E+01 0.00000E+00
 -1       657 1.20150E+02 3.99882E+01 0.00000E+00
 -1       658 1.23150E+02 3.99882E+01 0.00000E+00
 -1       659 1.26150E+02 3.99882E+01 0.00000E+00
 -1       660 1.29150E+02 3.99882E+01 0.00000E+00
 -1       661 1.32150E+02 3.99882E+01 0.00000E+00
 -1       662 1.35150E+02 3.99882E+01 0.00000E+00
 -1       663 1.38150E+02 3.99882E+01 0.00000E+00
 -1       664 2.35350E+01 9.20225E+00 0.00000E+00
 -1       665 2.05350E+01 9.20225E+00 0.00000E+00
 -1       666 2.95350E+01 9.20225E+00 0.00000E+00
 -1       667 3.25350E+01 9.20225E+00 0.00000E+00
 -1       668 3.55350E+01 9.20225E+00 0.00000E+00
 -1       669 3.85350E+01 9.20225E+00 0.00000E+00
 -1       670 4.15350E+01 9.20225E+00 0.00000E+00
 -1       671 4.45350E+01 9.20225E+00 0.00000E+00
 -1       672 4.75350E+01 9.20225E+00 0.00000E+00
 -1       673 5.05350E+01 9.20225E+00 0.00000E+00
 -1       674 5.35350E+01 9.20225E+00 0.00000E+00
 -1       675 5.65350E+01 9.20225E+00 0.00000E+00
 -1       676 5.95350E+01 9.20225E+00 0.00000E+00
 -1       677 6.25350E+01 9.20225E+00 0.00000E+00
 -1       678 6.55350E+01 9.20225E+00 0.00000E+00
 -1       679 6.85350E+01 9.20225E+00 0.00000E+00
 -1       680 7.15350E+01 9.20225E+00 0.00000E+00
 -1       681 7.45350E+01 9.20225E+00 0.00000E+00
 -1       682 7.75350E+01 9.20225E+00 0.00000E+00
 -1       683 8.05350E+01 9.20225E+00 0.00000E+00
 -1       684 8.35350E+01 9.20225E+00 0.00000E+00
 -1       685 8.65350E+01 9.20225E+00 0.00000E+00
 -1       686 8.95350E+01 9.20225E+00 0.00000E+00
 -1       687 9.25350E+01 9.20225E+00 0.00000E+00
 -1       688 9.55350E+01 9.20225E+00 0.00000E+00
 -1       689 9.85350E+01 9.20225E+00 0.00000E+00
 -1       690 1.01535E+02 9.20225E+00 0.00000E+00
 -1       691 1.04535E+02 9.20225E+00 0.00000E+00
 -1       692 1.07535E+02 9.20225E+00 0.00000E+00
 -1       693 1.10535E+02 9.20225E+00 0.00000E+00
 -1       694 1.13535E+02 9.20225E+00 0.00000E+00
 -1       695 1.16535E+02 9.20225E+00 0.00000E+00
 -1       696 1.19535E+02 9.20225E+00 0.00000E+00
 -1       697 1.22535E+02 9.20225E+00 0.00000E+00
 -1       698 1.25535E+02 9.20225E+00 0.00000E+00
 -1       699 1.28535E+02 9.20225E+00 0.00000E+00
 -1       700 1.31535E+02 9.20225E+00 0.00000E+00
 -1       701 1.34535E+02 9.20225E+00 0.00000E+00
 -1       702 1.37535E+02 9.20225E+00 0.00000E+00
 -1       703 1.39870E+02 9.76363E+00 0.00000E+00
 -1       704 1.39608E+02 2.35500E+01 0.00000E+00
 -1       705 1.40178E+02 3.98566E+01 0.00000E+00
 -1       706 1.39608E+02 1.76500E+01 0.00000E+00
 -1       707 1.39608E+02 2.65000E+01 0.00000E+00
 -1       708 1.39608E+02 2.06000E+01 0.00000E+00
 -1       709 1.75350E+01 9.20225E+00 0.00000E+00
 -1       710 1.39608E+02 2.94000E+01 0.00000E+00
 -1       711 1.39608E+02 3.23500E+01 0.00000E+00
 -1       712 1.39608E+02 3.53000E+01 0.00000E+00
 -1       713 1.39893E+02 3.75783E+01 0.00000E+00
 -1       714 8.83931E+01 3.36443E+01 0.00000E+00
 -1       715 8.86702E+01 3.10991E+01 0.00000E+00
 -1       716 8.51611E+01 3.76764E+01 0.00000E+00
 -1       717 2.65350E+01 9.20225E+00 0.00000E+00
 -1       718 7.40502E+01 1.54559E+01 0.00000E+00
 -1       719 1.28678E+01 3.96719E+01 0.00000E+00
 -1       720 7.18827E+01 1.62774E+01 0.00000E+00
 -1       721 8.29312E+01 3.94900E+01 0.00000E+00
 -1       722 6.37195E+01 3.13472E+01 0.00000E+00
 -1       723 7.75231E+01 1.50982E+01 0.00000E+00
 -1       724 1.45350E+01 9.20225E+00 0.00000E+00
 -1       725 1.03920E+01 1.76125E+01 0.00000E+00
 -1       726 8.22448E+01 1.68115E+01 0.00000E+00
 -1       727 1.03920E+01 3.23250E+01 0.00000E+00
 -1       728 6.38548E+01 2.60144E+01 0.00000E+00
 -1       729 6.69989E+01 1.86335E+01 0.00000E+00
 -1       730 8.90164E+01 2.29498E+01 0.00000E+00
 -1       731 6.55882E+01 3.60289E+01 0.00000E+00
 -1       732 6.35661E+01 2.88123E+01 0.00000E+00
 -1       733 6.45721E+01 3.37477E+01 0.00000E+00
 -1       734 8.01408E+01 1.59716E+01 0.00000E+00
 -1       735 6.93711E+01 1.70767E+01 0.00000E+00
 -1       736 8.68172E+01 3.57428E+01 0.00000E+00
 -1       737 1.03920E+01 2.64500E+01 0.00000E+00
 -1       738 9.02006E+01 2.73618E+01 0.00000E+00
 -1       739 1.03920E+01 3.52625E+01 0.00000E+00
 -1       740 1.39608E+02 1.47250E+01 0.00000E+00
 -1       741 7.58281E+01 1.39215E+01 0.00000E+00
 -1       742 1.39739E+02 1.22443E+01 0.00000E+00
 -1       743 8.85564E+01 2.04019E+01 0.00000E+00
 -1       744 8.67201E+01 1.88059E+01 0.00000E+00
 -1       745 6.50156E+01 2.18614E+01 0.00000E+00
 -1       746 6.35834E+01 2.44843E+01 0.00000E+00
 -1       747 8.44825E+01 1.78087E+01 0.00000E+00
 -1       748 1.03920E+01 2.93875E+01 0.00000E+00
 -1       749 6.23399E+01 2.72822E+01 0.00000E+00
 -1       750 7.52539E+01 4.10751E+01 0.00000E+00
 -1       751 1.29900E+01 1.32000E+01 0.00000E+00
 -1       752 7.22398E+01 1.39495E+01 0.00000E+00
 -1       753 1.96500E+01 3.70100E+01 0.00000E+00
 -1       754 2.26500E+01 3.70100E+01 0.00000E+00
 -1       755 2.56500E+01 3.70100E+01 0.00000E+00
 -1       756 2.86500E+01 3.70100E+01 0.00000E+00
 -1       757 3.16500E+01 3.70100E+01 0.00000E+00
 -1       758 3.46500E+01 3.70100E+01 0.00000E+00
 -1       759 3.76500E+01 3.70100E+01 0.00000E+00
 -1       760 4.06500E+01 3.70100E+01 0.00000E+00
 -1       761 4.36500E+01 3.70100E+01 0.00000E+00
 -1       762 4.66500E+01 3.70100E+01 0.00000E+00
 -1       763 4.96500E+01 3.70100E+01 0.00000E+00
 -1       764 5.26500E+01 3.70100E+01 0.00000E+00
 -1       765 5.56500E+01 3.70100E+01 0.00000E+00
 -1       766 5.86500E+01 3.70100E+01 0.00000E+00
 -1       767 6.16500E+01 3.70100E+01 0.00000E+00
 -1       768 6.33603E+01 3.56543E+01 0.00000E+00
 -1       769 6.97282E+01 1.47488E+01 0.00000E+00
 -1       770 8.86500E+01 3.74352E+01 0.00000E+00
 -1       771 9.16500E+01 3.74352E+01 0.00000E+00
 -1       772 9.46500E+01 3.74352E+01 0.00000E+00
 -1       773 9.76500E+01 3.74352E+01 0.00000E+00
 -1       774 1.00650E+02 3.74352E+01 0.00000E+00
 -1       775 1.03650E+02 3.74352E+01 0.00000E+00
 -1       776 1.06650E+02 3.74352E+01 0.00000E+00
 -1       777 1.09650E+02 3.74352E+01 0.00000E+00
 -1       778 1.12650E+02 3.74352E+01 0.00000E+00
 -1       779 1.15650E+02 3.74352E+01 0.00000E+00
 -1       780 1.18650E+02 3.74352E+01 0.00000E+00
 -1       781 1.21650E+02 3.74352E+01 0.00000E+00
 -1       782 1.24650E+02 3.74352E+01 0.00000E+00
 -1       783 1.27650E+02 3.74352E+01 0.00000E+00
 -1       784 1.30650E+02 3.74352E+01 0.00000E+00
 -1       785 1.33650E+02 3.74352E+01 0.00000E+00
 -1       786 1.36650E+02 3.74352E+01 0.00000E+00
 -1       787 1.37010E+02 2.79500E+01 0.00000E+00
 -1       788 3.40350E+01 1.18003E+01 0.00000E+00
 -1       789 3.10350E+01 1.18003E+01 0.00000E+00
 -1       790 4.00350E+01 1.18003E+01 0.00000E+00
 -1       791 4.30350E+01 1.18003E+01 0.00000E+00
 -1       792 4.60350E+01 1.18003E+01 0.00000E+00
 -1       793 4.90350E+01 1.18003E+01 0.00000E+00
 -1       794 5.20350E+01 1.18003E+01 0.00000E+00
 -1       795 5.50350E+01 1.18003E+01 0.00000E+00
 -1       796 5.80350E+01 1.18003E+01 0.00000E+00
 -1       797 6.10350E+01 1.18003E+01 0.00000E+00
 -1       798 6.40350E+01 1.18003E+01 0.00000E+00
 -1       799 6.70350E+01 1.18003E+01 0.00000E+00
 -1       800 7.30350E+01 1.18003E+01 0.00000E+00
 -1       801 8.20350E+01 1.18003E+01 0.00000E+00
 -1       802 8.50350E+01 1.18003E+01 0.00000E+00
 -1       803 8.80350E+01 1.18003E+01 0.00000E+00
 -1       804 9.10350E+01 1.18003E+01 0.00000E+00
 -1       805 9.40350E+01 1.18003E+01 0.00000E+00
 -1       806 9.70350E+01 1.18003E+01 0.00000E+00
 -1       807 1.00035E+02 1.18003E+01 0.00000E+00
 -1       808 1.03035E+02 1.18003E+01 0.00000E+00
 -1       809 1.06035E+02 1.18003E+01 0.00000E+00
 -1       810 1.09035E+02 1.18003E+01 0.00000E+00
 -1       811 1.12035E+02 1.18003E+01 0.00000E+00
 -1       812 1.15035E+02 1.18003E+01 0.00000E+00
 -1       813 1.18035E+02 1.18003E+01 0.00000E+00
 -1       814 1.21035E+02 1.18003E+01 0.00000E+00
 -1       815 1.24035E+02 1.18003E+01 0.00000E+00
 -1       816 1.27035E+02 1.18003E+01 0.00000E+00
 -1       817 1.30035E+02 1.18003E+01 0.00000E+00
 -1       818 1.33035E+02 1.18003E+01 0.00000E+00
 -1       819 1.36035E+02 1.18003E+01 0.00000E+00
 -1       820 1.37887E+02 1.20223E+01 0.00000E+00
 -1       821 1.29900E+01 2.20250E+01 0.00000E+00
 -1       822 1.37010E+02 3.09000E+01 0.00000E+00
 -1       823 1.37010E+02 2.50000E+01 0.00000E+00
 -1       824 1.37010E+02 3.38500E+01 0.00000E+00
 -1       825 6.17635E+01 3.01934E+01 0.00000E+00
 -1       826 3.70350E+01 1.18003E+01 0.00000E+00
 -1       827 9.13431E+01 2.12142E+01 0.00000E+00
 -1       828 1.04888E+01 3.74991E+01 0.00000E+00
 -1       829 2.20350E+01 1.18003E+01 0.00000E+00
 -1       830 9.05597E+01 2.99766E+01 0.00000E+00
 -1       831 1.66500E+01 3.70100E+01 0.00000E+00
 -1       832 7.94808E+01 1.35901E+01 0.00000E+00
 -1       833 9.07364E+01 3.26117E+01 0.00000E+00
 -1       834 6.68763E+01 1.58608E+01 0.00000E+00
 -1       835 9.14281E+01 2.43668E+01 0.00000E+00
 -1       836 6.25077E+01 3.32538E+01 0.00000E+00
 -1       837 9.02259E+01 3.53367E+01 0.00000E+00
 -1       838 8.15848E+01 1.44299E+01 0.00000E+00
 -1       839 1.37625E+01 1.12011E+01 0.00000E+00
 -1       840 6.54581E+01 1.91669E+01 0.00000E+00
 -1       841 1.90350E+01 1.18003E+01 0.00000E+00
 -1       842 1.29900E+01 2.49750E+01 0.00000E+00
 -1       843 1.29900E+01 3.08563E+01 0.00000E+00
 -1       844 1.29900E+01 1.61375E+01 0.00000E+00
 -1       845 1.29900E+01 3.37938E+01 0.00000E+00
 -1       846 2.50350E+01 1.18003E+01 0.00000E+00
 -1       847 1.37010E+02 1.61875E+01 0.00000E+00
 -1       848 1.37010E+02 2.20500E+01 0.00000E+00
 -1       849 6.53355E+01 1.63942E+01 0.00000E+00
 -1       850 2.80350E+01 1.18003E+01 0.00000E+00
 -1       851 7.00350E+01 1.18003E+01 0.00000E+00
 -1       852 7.90350E+01 1.18003E+01 0.00000E+00
 -1       853 1.37010E+02 1.91187E+01 0.00000E+00
 -1       854 1.29900E+01 1.90875E+01 0.00000E+00
 -1       855 8.90931E+01 1.79299E+01 0.00000E+00
 -1       856 1.63988E+01 1.15007E+01 0.00000E+00
 -1       857 1.27710E+01 3.74352E+01 0.00000E+00
 -1       858 6.31318E+01 2.24053E+01 0.00000E+00
 -1       859 6.20685E+01 2.57520E+01 0.00000E+00
 -1       860 8.41982E+01 1.54374E+01 0.00000E+00
 -1       861 9.18798E+01 1.87423E+01 0.00000E+00
 -1       862 1.29900E+01 2.79188E+01 0.00000E+00
 -1       863 2.41500E+01 3.44120E+01 0.00000E+00
 -1       864 2.71500E+01 3.44120E+01 0.00000E+00
 -1       865 3.01500E+01 3.44120E+01 0.00000E+00
 -1       866 3.31500E+01 3.44120E+01 0.00000E+00
 -1       867 3.61500E+01 3.44120E+01 0.00000E+00
 -1       868 3.91500E+01 3.44120E+01 0.00000E+00
 -1       869 4.21500E+01 3.44120E+01 0.00000E+00
 -1       870 4.51500E+01 3.44120E+01 0.00000E+00
 -1       871 4.81500E+01 3.44120E+01 0.00000E+00
 -1       872 5.11500E+01 3.44120E+01 0.00000E+00
 -1       873 5.41500E+01 3.44120E+01 0.00000E+00
 -1       874 5.71500E+01 3.44120E+01 0.00000E+00
 -1       875 6.02049E+01 2.83722E+01 0.00000E+00
 -1       876 1.37449E+02 1.41049E+01 0.00000E+00
 -1       877 1.34412E+02 3.23750E+01 0.00000E+00
 -1       878 9.31500E+01 3.48823E+01 0.00000E+00
 -1       879 9.61500E+01 3.48823E+01 0.00000E+00
 -1       880 9.91500E+01 3.48823E+01 0.00000E+00
 -1       881 1.02150E+02 3.48823E+01 0.00000E+00
 -1       882 1.05150E+02 3.48823E+01 0.00000E+00
 -1       883 1.08150E+02 3.48823E+01 0.00000E+00
 -1       884 1.11150E+02 3.48823E+01 0.00000E+00
 -1       885 1.14150E+02 3.48823E+01 0.00000E+00
 -1       886 1.17150E+02 3.48823E+01 0.00000E+00
 -1       887 1.20150E+02 3.48823E+01 0.00000E+00
 -1       888 1.23150E+02 3.48823E+01 0.00000E+00
 -1       889 1.26150E+02 3.48823E+01 0.00000E+00
 -1       890 1.29150E+02 3.48823E+01 0.00000E+00
 -1       891 1.32150E+02 3.48823E+01 0.00000E+00
 -1       892 4.45350E+01 1.43982E+01 0.00000E+00
 -1       893 4.15350E+01 1.43982E+01 0.00000E+00
 -1       894 5.05350E+01 1.43982E+01 0.00000E+00
 -1       895 5.35350E+01 1.43982E+01 0.00000E+00
 -1       896 5.65350E+01 1.43982E+01 0.00000E+00
 -1       897 5.95350E+01 1.43982E+01 0.00000E+00
 -1       898 6.25350E+01 1.43982E+01 0.00000E+00
 -1       899 8.64358E+01 1.64346E+01 0.00000E+00
 -1       900 9.25350E+01 1.43982E+01 0.00000E+00
 -1       901 9.55350E+01 1.43982E+01 0.00000E+00
 -1       902 9.85350E+01 1.43982E+01 0.00000E+00
 -1       903 1.01535E+02 1.43982E+01 0.00000E+00
 -1       904 1.04535E+02 1.43982E+01 0.00000E+00
 -1       905 1.07535E+02 1.43982E+01 0.00000E+00
 -1       906 1.10535E+02 1.43982E+01 0.00000E+00
 -1       907 1.13535E+02 1.43982E+01 0.00000E+00
 -1       908 1.16535E+02 1.43982E+01 0.00000E+00
 -1       909 1.19535E+02 1.43982E+01 0.00000E+00
 -1       910 1.22535E+02 1.43982E+01 0.00000E+00
 -1       911 1.25535E+02 1.43982E+01 0.00000E+00
 -1       912 1.28535E+02 1.43982E+01 0.00000E+00
 -1       913 1.31535E+02 1.43982E+01 0.00000E+00
 -1       914 8.95350E+01 1.43982E+01 0.00000E+00
 -1       915 1.34412E+02 2.64750E+01 0.00000E+00
 -1       916 4.75350E+01 1.43982E+01 0.00000E+00
 -1       917 9.39826E+01 2.27205E+01 0.00000E+00
 -1       918 3.25350E+01 1.43982E+01 0.00000E+00
 -1       919 1.44274E+01 3.46401E+01 0.00000E+00
 -1       920 9.25266E+01 3.11682E+01 0.00000E+00
 -1       921 2.11500E+01 3.44120E+01 0.00000E+00
 -1       922 1.81500E+01 3.44120E+01 0.00000E+00
 -1       923 5.98178E+01 3.22872E+01 0.00000E+00
 -1       924 1.34412E+02 2.94250E+01 0.00000E+00
 -1       925 9.24114E+01 2.83902E+01 0.00000E+00
 -1       926 2.05350E+01 1.43982E+01 0.00000E+00
 -1       927 6.35743E+01 1.97109E+01 0.00000E+00
 -1       928 9.31970E+01 2.55554E+01 0.00000E+00
 -1       929 1.55880E+01 1.46687E+01 0.00000E+00
 -1       930 6.16169E+01 2.36731E+01 0.00000E+00
 -1       931 1.34412E+02 2.35250E+01 0.00000E+00
 -1       932 5.82591E+01 3.04660E+01 0.00000E+00
 -1       933 6.01500E+01 3.44570E+01 0.00000E+00
 -1       934 2.95350E+01 1.43982E+01 0.00000E+00
 -1       935 1.55880E+01 2.05562E+01 0.00000E+00
 -1       936 1.55880E+01 2.35063E+01 0.00000E+00
 -1       937 1.75351E+01 1.43983E+01 0.00000E+00
 -1       938 3.85350E+01 1.43982E+01 0.00000E+00
 -1       939 1.34535E+02 1.43982E+01 0.00000E+00
 -1       940 8.65350E+01 1.43982E+01 0.00000E+00
 -1       941 3.55350E+01 1.43982E+01 0.00000E+00
 -1       942 2.35350E+01 1.43982E+01 0.00000E+00
 -1       943 9.45194E+01 2.02486E+01 0.00000E+00
 -1       944 5.99335E+01 2.68420E+01 0.00000E+00
 -1       945 1.55880E+01 2.93875E+01 0.00000E+00
 -1       946 1.34412E+02 1.76531E+01 0.00000E+00
 -1       947 1.96500E+01 3.18140E+01 0.00000E+00
 -1       948 2.65350E+01 1.43982E+01 0.00000E+00
 -1       949 1.55880E+01 3.23250E+01 0.00000E+00
 -1       950 2.86500E+01 3.18140E+01 0.00000E+00
 -1       951 3.16500E+01 3.18140E+01 0.00000E+00
 -1       952 3.46500E+01 3.18140E+01 0.00000E+00
 -1       953 3.76500E+01 3.18140E+01 0.00000E+00
 -1       954 4.06500E+01 3.18140E+01 0.00000E+00
 -1       955 4.36500E+01 3.18140E+01 0.00000E+00
 -1       956 4.66500E+01 3.18140E+01 0.00000E+00
 -1       957 4.96500E+01 3.18140E+01 0.00000E+00
 -1       958 5.26500E+01 3.18140E+01 0.00000E+00
 -1       959 5.56500E+01 3.18140E+01 0.00000E+00
 -1       960 1.90351E+01 1.69963E+01 0.00000E+00
 -1       961 9.46849E+01 2.96873E+01 0.00000E+00
 -1       962 9.76500E+01 3.22842E+01 0.00000E+00
 -1       963 1.00650E+02 3.22842E+01 0.00000E+00
 -1       964 1.03650E+02 3.22842E+01 0.00000E+00
 -1       965 1.06650E+02 3.22842E+01 0.00000E+00
 -1       966 1.09650E+02 3.22842E+01 0.00000E+00
 -1       967 1.12650E+02 3.22842E+01 0.00000E+00
 -1       968 1.15650E+02 3.22842E+01 0.00000E+00
 -1       969 1.18650E+02 3.22842E+01 0.00000E+00
 -1       970 1.21650E+02 3.22842E+01 0.00000E+00
 -1       971 1.24650E+02 3.22842E+01 0.00000E+00
 -1       972 1.27650E+02 3.22842E+01 0.00000E+00
 -1       973 1.30650E+02 3.22842E+01 0.00000E+00
 -1       974 4.30350E+01 1.69963E+01 0.00000E+00
 -1       975 6.31811E+01 1.78786E+01 0.00000E+00
 -1       976 5.50350E+01 1.69963E+01 0.00000E+00
 -1       977 5.20350E+01 1.69963E+01 0.00000E+00
 -1       978 6.10350E+01 1.69963E+01 0.00000E+00
 -1       979 9.70350E+01 1.69963E+01 0.00000E+00
 -1       980 1.03035E+02 1.69963E+01 0.00000E+00
 -1       981 1.06035E+02 1.69963E+01 0.00000E+00
 -1       982 1.09035E+02 1.69963E+01 0.00000E+00
 -1       983 1.12035E+02 1.69963E+01 0.00000E+00
 -1       984 1.15035E+02 1.69963E+01 0.00000E+00
 -1       985 1.18035E+02 1.69963E+01 0.00000E+00
 -1       986 1.21035E+02 1.69963E+01 0.00000E+00
 -1       987 1.24035E+02 1.69963E+01 0.00000E+00
 -1       988 1.27035E+02 1.69963E+01 0.00000E+00
 -1       989 1.30035E+02 1.69963E+01 0.00000E+00
 -1       990 1.81860E+01 3.08563E+01 0.00000E+00
 -1       991 1.55880E+01 2.64469E+01 0.00000E+00
 -1       992 1.34412E+02 2.05844E+01 0.00000E+00
 -1       993 1.70880E+01 1.72667E+01 0.00000E+00
 -1       994 9.54174E+01 3.22848E+01 0.00000E+00
 -1       995 2.26500E+01 3.18140E+01 0.00000E+00
 -1       996 1.00035E+02 1.69963E+01 0.00000E+00
 -1       997 9.50272E+01 1.73234E+01 0.00000E+00
 -1       998 5.80350E+01 1.69963E+01 0.00000E+00
 -1       999 6.13299E+01 2.07258E+01 0.00000E+00
 -1      1000 1.50390E+01 1.81771E+01 0.00000E+00
 -1      1001 2.56500E+01 3.18140E+01 0.00000E+00
 -1      1002 5.94819E+01 2.47631E+01 0.00000E+00
 -1      1003 1.31814E+02 2.50000E+01 0.00000E+00
 -1      1004 9.54705E+01 2.68525E+01 0.00000E+00
 -1      1005 1.81860E+01 2.20313E+01 0.00000E+00
 -1      1006 2.20351E+01 1.69963E+01 0.00000E+00
 -1      1007 4.00350E+01 1.69963E+01 0.00000E+00
 -1      1008 1.30035E+02 1.99275E+01 0.00000E+00
 -1      1009 4.60350E+01 1.69963E+01 0.00000E+00
 -1      1010 6.09367E+01 1.88936E+01 0.00000E+00
 -1      1011 1.31814E+02 2.79500E+01 0.00000E+00
 -1      1012 3.10350E+01 1.69963E+01 0.00000E+00
 -1      1013 5.74846E+01 2.77953E+01 0.00000E+00
 -1      1014 1.81860E+01 2.79156E+01 0.00000E+00
 -1      1015 3.40350E+01 1.69963E+01 0.00000E+00
 -1      1016 4.90350E+01 1.69963E+01 0.00000E+00
 -1      1017 9.67898E+01 2.20358E+01 0.00000E+00
 -1      1018 9.61302E+01 2.44441E+01 0.00000E+00
 -1      1019 1.76370E+01 1.96521E+01 0.00000E+00
 -1      1020 2.50351E+01 1.69963E+01 0.00000E+00
 -1      1021 2.80350E+01 1.69963E+01 0.00000E+00
 -1      1022 9.69124E+01 1.95160E+01 0.00000E+00
 -1      1023 3.31500E+01 2.92160E+01 0.00000E+00
 -1      1024 3.61500E+01 2.92160E+01 0.00000E+00
 -1      1025 3.91500E+01 2.92160E+01 0.00000E+00
 -1      1026 4.21500E+01 2.92160E+01 0.00000E+00
 -1      1027 4.51500E+01 2.92160E+01 0.00000E+00
 -1      1028 4.81500E+01 2.92160E+01 0.00000E+00
 -1      1029 5.11500E+01 2.92160E+01 0.00000E+00
 -1      1030 5.41500E+01 2.92160E+01 0.00000E+00
 -1      1031 9.91500E+01 2.96863E+01 0.00000E+00
 -1      1032 5.05350E+01 1.95942E+01 0.00000E+00
 -1      1033 5.35350E+01 1.95942E+01 0.00000E+00
 -1      1034 5.91949E+01 2.18158E+01 0.00000E+00
 -1      1035 1.02150E+02 2.96863E+01 0.00000E+00
 -1      1036 1.05150E+02 2.96863E+01 0.00000E+00
 -1      1037 1.08150E+02 2.96863E+01 0.00000E+00
 -1      1038 1.11150E+02 2.96863E+01 0.00000E+00
 -1      1039 1.14150E+02 2.96863E+01 0.00000E+00
 -1      1040 1.17150E+02 2.96863E+01 0.00000E+00
 -1      1041 1.20150E+02 2.96863E+01 0.00000E+00
 -1      1042 1.23150E+02 2.96863E+01 0.00000E+00
 -1      1043 1.26150E+02 2.96863E+01 0.00000E+00
 -1      1044 1.29150E+02 2.96863E+01 0.00000E+00
 -1      1045 5.88017E+01 1.99835E+01 0.00000E+00
 -1      1046 1.10535E+02 1.95942E+01 0.00000E+00
 -1      1047 3.70350E+01 1.69963E+01 0.00000E+00
 -1      1048 1.07535E+02 1.95942E+01 0.00000E+00
 -1      1049 9.69174E+01 2.96868E+01 0.00000E+00
 -1      1050 3.01500E+01 2.92160E+01 0.00000E+00
 -1      1051 1.04535E+02 1.95942E+01 0.00000E+00
 -1      1052 1.13535E+02 1.95942E+01 0.00000E+00
 -1      1053 1.16535E+02 1.95942E+01 0.00000E+00
 -1      1054 1.19535E+02 1.95942E+01 0.00000E+00
 -1      1055 1.22535E+02 1.95942E+01 0.00000E+00
 -1      1056 1.25535E+02 1.95942E+01 0.00000E+00
 -1      1057 1.27785E+02 1.97609E+01 0.00000E+00
 -1      1058 1.81860E+01 2.49719E+01 0.00000E+00
 -1      1059 9.99124E+01 1.95160E+01 0.00000E+00
 -1      1060 1.02224E+02 1.95551E+01 0.00000E+00
 -1      1061 1.30924E+02 2.24638E+01 0.00000E+00
 -1      1062 5.61684E+01 1.97889E+01 0.00000E+00
 -1      1063 5.70330E+01 2.57163E+01 0.00000E+00
 -1      1064 2.04180E+01 2.98648E+01 0.00000E+00
 -1      1065 2.95350E+01 1.95943E+01 0.00000E+00
 -1      1066 5.36983E+01 2.71371E+01 0.00000E+00
 -1      1067 4.75350E+01 1.95942E+01 0.00000E+00
 -1      1068 9.97898E+01 2.20358E+01 0.00000E+00
 -1      1069 2.71500E+01 2.92160E+01 0.00000E+00
 -1      1070 2.07840E+01 2.35016E+01 0.00000E+00
 -1      1071 2.32429E+01 2.88826E+01 0.00000E+00
 -1      1072 9.91302E+01 2.44441E+01 0.00000E+00
 -1      1073 1.28918E+02 2.45917E+01 0.00000E+00
 -1      1074 3.25350E+01 1.95943E+01 0.00000E+00
 -1      1075 1.29034E+02 2.71390E+01 0.00000E+00
 -1      1076 2.06370E+01 1.96521E+01 0.00000E+00
 -1      1077 4.15350E+01 1.95942E+01 0.00000E+00
 -1      1078 4.45350E+01 1.95942E+01 0.00000E+00
 -1      1079 3.46500E+01 2.66180E+01 0.00000E+00
 -1      1080 2.10109E+01 2.69334E+01 0.00000E+00
 -1      1081 3.76500E+01 2.66180E+01 0.00000E+00
 -1      1082 4.06500E+01 2.66180E+01 0.00000E+00
 -1      1083 4.36500E+01 2.66180E+01 0.00000E+00
 -1      1084 4.66500E+01 2.66180E+01 0.00000E+00
 -1      1085 4.96500E+01 2.66180E+01 0.00000E+00
 -1      1086 5.20350E+01 2.21922E+01 0.00000E+00
 -1      1087 2.65351E+01 1.95943E+01 0.00000E+00
 -1      1088 5.67460E+01 2.27691E+01 0.00000E+00
 -1      1089 1.00650E+02 2.70882E+01 0.00000E+00
 -1      1090 1.03650E+02 2.70882E+01 0.00000E+00
 -1      1091 1.06650E+02 2.70882E+01 0.00000E+00
 -1      1092 1.09650E+02 2.70882E+01 0.00000E+00
 -1      1093 1.12650E+02 2.70882E+01 0.00000E+00
 -1      1094 1.15650E+02 2.70882E+01 0.00000E+00
 -1      1095 1.18650E+02 2.70882E+01 0.00000E+00
 -1      1096 1.21650E+02 2.70882E+01 0.00000E+00
 -1      1097 1.24650E+02 2.70882E+01 0.00000E+00
 -1      1098 5.64572E+01 2.12790E+01 0.00000E+00
 -1      1099 1.15035E+02 2.21922E+01 0.00000E+00
 -1      1100 1.02101E+02 2.20749E+01 0.00000E+00
 -1      1101 2.35860E+01 1.96232E+01 0.00000E+00
 -1      1102 9.80238E+01 2.70655E+01 0.00000E+00
 -1      1103 1.09035E+02 2.21922E+01 0.00000E+00
 -1      1104 1.06035E+02 2.21922E+01 0.00000E+00
 -1      1105 1.18035E+02 2.21922E+01 0.00000E+00
 -1      1106 1.21035E+02 2.21922E+01 0.00000E+00
 -1      1107 1.24035E+02 2.21922E+01 0.00000E+00
 -1      1108 3.16500E+01 2.66180E+01 0.00000E+00
 -1      1109 1.12035E+02 2.21922E+01 0.00000E+00
 -1      1110 1.28351E+02 2.21763E+01 0.00000E+00
 -1      1111 4.30350E+01 2.21922E+01 0.00000E+00
 -1      1112 3.85350E+01 1.95942E+01 0.00000E+00
 -1      1113 2.38358E+01 2.59511E+01 0.00000E+00
 -1      1114 2.80350E+01 2.21923E+01 0.00000E+00
 -1      1115 4.90350E+01 2.21922E+01 0.00000E+00
 -1      1116 1.01441E+02 2.44832E+01 0.00000E+00
 -1      1117 3.55350E+01 1.95943E+01 0.00000E+00
 -1      1118 2.86500E+01 2.66180E+01 0.00000E+00
 -1      1119 1.26193E+02 2.21843E+01 0.00000E+00
 -1      1120 4.60350E+01 2.21922E+01 0.00000E+00
 -1      1121 4.00350E+01 2.21922E+01 0.00000E+00
 -1      1122 3.10350E+01 2.21923E+01 0.00000E+00
 -1      1123 1.26759E+02 2.45997E+01 0.00000E+00
 -1      1124 2.51854E+01 2.27727E+01 0.00000E+00
 -1      1125 5.44307E+01 2.42322E+01 0.00000E+00
 -1      1126 3.61500E+01 2.40200E+01 0.00000E+00
 -1      1127 5.50349E+01 2.21923E+01 0.00000E+00
 -1      1128 1.19535E+02 2.47903E+01 0.00000E+00
 -1      1129 1.05150E+02 2.44902E+01 0.00000E+00
 -1      1130 1.23150E+02 2.44902E+01 0.00000E+00
 -1      1131 3.31500E+01 2.40200E+01 0.00000E+00
 -1      1132 5.20046E+01 2.43006E+01 0.00000E+00
 -1      1133 3.43425E+01 2.18071E+01 0.00000E+00
 -1      1134 0.00000E+00 4.85250E+01 0.00000E+00
 -1      1135 0.00000E+00 4.55750E+01 0.00000E+00
 -1      1136 0.00000E+00 4.26250E+01 0.00000E+00
 -1      1137 0.00000E+00 3.96750E+01 0.00000E+00
 -1      1138 0.00000E+00 3.67250E+01 0.00000E+00
 -1      1139 0.00000E+00 3.38000E+01 0.00000E+00
 -1      1140 0.00000E+00 3.08750E+01 0.00000E+00
 -1      1141 0.00000E+00 2.79250E+01 0.00000E+00
 -1      1142 0.00000E+00 2.49750E+01 0.00000E+00
 -1      1143 0.00000E+00 2.20250E+01 0.00000E+00
 -1      1144 0.00000E+00 1.90750E+01 0.00000E+00
 -1      1145 0.00000E+00 1.61500E+01 0.00000E+00
 -1      1146 0.00000E+00 1.32250E+01 0.00000E+00
 -1      1147 0.00000E+00 1.02750E+01 0.00000E+00
 -1      1148 0.00000E+00 7.32500E+00 0.00000E+00
 -1      1149 0.00000E+00 4.37500E+00 0.00000E+00
 -1      1150 0.00000E+00 1.45000E+00 0.00000E+00
 -1      1151 1.57500E+00 5.00000E+01 0.00000E+00
 -1      1152 4.65000E+00 5.00000E+01 0.00000E+00
 -1      1153 7.65000E+00 5.00000E+01 0.00000E+00
 -1      1154 1.06500E+01 5.00000E+01 0.00000E+00
 -1      1155 1.36500E+01 5.00000E+01 0.00000E+00
 -1      1156 1.66500E+01 5.00000E+01 0.00000E+00
 -1      1157 1.96500E+01 5.00000E+01 0.00000E+00
 -1      1158 2.26500E+01 5.00000E+01 0.00000E+00
 -1      1159 2.56500E+01 5.00000E+01 0.00000E+00
 -1      1160 2.86500E+01 5.00000E+01 0.00000E+00
 -1      1161 3.16500E+01 5.00000E+01 0.00000E+00
 -1      1162 3.46500E+01 5.00000E+01 0.00000E+00
 -1      1163 3.76500E+01 5.00000E+01 0.00000E+00
 -1      1164 4.06500E+01 5.00000E+01 0.00000E+00
 -1      1165 4.36500E+01 5.00000E+01 0.00000E+00
 -1      1166 4.66500E+01 5.00000E+01 0.00000E+00
 -1      1167 4.96500E+01 5.00000E+01 0.00000E+00
 -1      1168 5.26500E+01 5.00000E+01 0.00000E+00
 -1      1169 5.56500E+01 5.00000E+01 0.00000E+00
 -1      1170 5.86500E+01 5.00000E+01 0.00000E+00
 -1      1171 6.16500E+01 5.00000E+01 0.00000E+00
 -1      1172 6.46500E+01 5.00000E+01 0.00000E+00
 -1      1173 6.76500E+01 5.00000E+01 0.00000E+00
 -1      1174 7.06500E+01 5.00000E+01 0.00000E+00
 -1      1175 7.36500E+01 5.00000E+01 0.00000E+00
 -1      1176 7.66500E+01 5.00000E+01 0.00000E+00
 -1      1177 7.96500E+01 5.00000E+01 0.00000E+00
 -1      1178 8.26500E+01 5.00000E+01 0.00000E+00
 -1      1179 8.56500E+01 5.00000E+01 0.00000E+00
 -1      1180 8.86500E+01 5.00000E+01 0.00000E+00
 -1      1181 9.16500E+01 5.00000E+01 0.00000E+00
 -1      1182 9.46500E+01 5.00000E+01 0.00000E+00
 -1      1183 9.76500E+01 5.00000E+01 0.00000E+00
 -1      1184 1.00650E+02 5.00000E+01 0.00000E+00
 -1      1185 1.03650E+02 5.00000E+01 0.00000E+00
 -1      1186 1.06650E+02 5.00000E+01 0.00000E+00
 -1      1187 1.09650E+02 5.00000E+01 0.00000E+00
 -1      1188 1.12650E+02 5.00000E+01 0.00000E+00
 -1      1189 1.15650E+02 5.00000E+01 0.00000E+00
 -1      1190 1.18650E+02 5.00000E+01 0.00000E+00
 -1      1191 1.21650E+02 5.00000E+01 0.00000E+00
 -1      1192 1.24650E+02 5.00000E+01 0.00000E+00
 -1      1193 1.27650E+02 5.00000E+01 0.00000E+00
 -1      1194 1.30650E+02 5.00000E+01 0.00000E+00
 -1      1195 1.33650E+02 5.00000E+01 0.00000E+00
 -1      1196 1.36650E+02 5.00000E+01 0.00000E+00
 -1      1197 1.39650E+02 5.00000E+01 0.00000E+00
 -1      1198 1.42650E+02 5.00000E+01 0.00000E+00
 -1      1199 1.45650E+02 5.00000E+01 0.00000E+00
 -1      1200 1.48575E+02 5.00000E+01 0.00000E+00
 -1      1201 1.57500E+00 0.00000E+00 0.00000E+00
 -1      1202 4.65000E+00 0.00000E+00 0.00000E+00
 -1      1203 7.65000E+00 0.00000E+00 0.00000E+00
 -1      1204 1.06500E+01 0.00000E+00 0.00000E+00
 -1      1205 1.36500E+01 0.00000E+00 0.00000E+00
 -1      1206 1.66500E+01 0.00000E+00 0.00000E+00
 -1      1207 1.96500E+01 0.00000E+00 0.00000E+00
 -1      1208 2.26500E+01 0.00000E+00 0.00000E+00
 -1      1209 2.56500E+01 0.00000E+00 0.00000E+00
 -1      1210 2.86500E+01 0.00000E+00 0.00000E+00
 -1      1211 3.16500E+01 0.00000E+00 0.00000E+00
 -1      1212 3.46500E+01 0.00000E+00 0.00000E+00
 -1      1213 3.76500E+01 0.00000E+00 0.00000E+00
 -1      1214 4.06500E+01 0.00000E+00 0.00000E+00
 -1      1215 4.36500E+01 0.00000E+00 0.00000E+00
 -1      1216 4.66500E+01 0.00000E+00 0.00000E+00
 -1      1217 4.96500E+01 0.00000E+00 0.00000E+00
 -1      1218 5.26500E+01 0.00000E+00 0.00000E+00
 -1      1219 5.56500E+01 0.00000E+00 0.00000E+00
 -1      1220 5.86500E+01 0.00000E+00 0.00000E+00
 -1      1221 6.16500E+01 0.00000E+00 0.00000E+00
 -1      1222 6.46500E+01 0.00000E+00 0.00000E+00
 -1      1223 6.76500E+01 0.00000E+00 0.00000E+00
 -1      1224 7.06500E+01 0.00000E+00 0.00000E+00
 -1      1225 7.36500E+01 0.00000E+00 0.00000E+00
 -1      1226 7.66500E+01 0.00000E+00 0.00000E+00
 -1      1227 7.96500E+01 0.00000E+00 0.00000E+00
 -1      1228 8.26500E+01 0.00000E+00 0.00000E+00
 -1      1229 8.56500E+01 0.00000E+00 0.00000E+00
 -1      1230 8.86500E+01 0.00000E+00 0.00000E+00
 -1      1231 9.16500E+01 0.00000E+00 0.00000E+00
 -1      1232 9.46500E+01 0.00000E+00 0.00000E+00
 -1      1233 9.76500E+01 0.00000E+00 0.00000E+00
 -1      1234 1.00650E+02 0.00000E+00 0.00000E+00
 -1      1235 1.03650E+02 0.00000E+00 0.00000E+00
 -1      1236 1.06650E+02 0.00000E+00 0.00000E+00
 -1      1237 1.09650E+02 0.00000E+00 0.00000E+00
 -1      1238 1.12650E+02 0.00000E+00 0.00000E+00
 -1      1239 1.15650E+02 0.00000E+00 0.00000E+00
 -1      1240 1.18650E+02 0.00000E+00 0.00000E+00
 -1      1241 1.21650E+02 0.00000E+00 0.00000E+00
 -1      1242 1.24650E+02 0.00000E+00 0.00000E+00
 -1      1243 1.27650E+02 0.00000E+00 0.00000E+00
 -1      1244 1.30650E+02 0.00000E+00 0.00000E+00
 -1      1245 1.33650E+02 0.00000E+00 0.00000E+00
 -1      1246 1.36650E+02 0.00000E+00 0.00000E+00
 -1      1247 1.39650E+02 0.00000E+00 0.00000E+00
 -1      1248 1.42650E+02 0.00000E+00 0.00000E+00
 -1      1249 1.45650E+02 0.00000E+00 0.00000E+00
 -1      1250 1.48575E+02 0.00000E+00 0.00000E+00
 -1      1251 1.50000E+02 1.47500E+00 0.00000E+00
 -1      1252 1.50000E+02 4.42500E+00 0.00000E+00
 -1      1253 1.50000E+02 7.37500E+00 0.00000E+00
 -1      1254 1.50000E+02 1.03250E+01 0.00000E+00
 -1      1255 1.50000E+02 1.32750E+01 0.00000E+00
 -1      1256 1.50000E+02 1.62000E+01 0.00000E+00
 -1      1257 1.50000E+02 1.91250E+01 0.00000E+00
 -1      1258 1.50000E+02 2.20750E+01 0.00000E+00
 -1      1259 1.50000E+02 2.50250E+01 0.00000E+00
 -1      1260 1.50000E+02 2.79750E+01 0.00000E+00
 -1      1261 1.50000E+02 3.09250E+01 0.00000E+00
 -1      1262 1.50000E+02 3.38500E+01 0.00000E+00
 -1      1263 1.50000E+02 3.67750E+01 0.00000E+00
 -1      1264 1.50000E+02 3.97250E+01 0.00000E+00
 -1      1265 1.50000E+02 4.26750E+01 0.00000E+00
 -1      1266 1.50000E+02 4.56250E+01 0.00000E+00
 -1      1267 1.50000E+02 4.85500E+01 0.00000E+00
 -1      1268 8.31995E+01 2.77229E+01 0.00000E+00
 -1      1269 8.28953E+01 2.62876E+01 0.00000E+00
 -1      1270 8.22863E+01 2.49260E+01 0.00000E+00
 -1      1271 8.13986E+01 2.37200E+01 0.00000E+00
 -1      1272 8.02409E+01 2.27066E+01 0.00000E+00
 -1      1273 7.89285E+01 2.19867E+01 0.00000E+00
 -1      1274 7.75263E+01 2.15684E+01 0.00000E+00
 -1      1275 7.60495E+01 2.14512E+01 0.00000E+00
 -1      1276 7.45885E+01 2.16456E+01 0.00000E+00
 -1      1277 7.32020E+01 2.21409E+01 0.00000E+00
 -1      1278 7.19689E+01 2.29006E+01 0.00000E+00
 -1      1279 7.09153E+01 2.39015E+01 0.00000E+00
 -1      1280 7.00820E+01 2.51150E+01 0.00000E+00
 -1      1281 6.95209E+01 2.64761E+01 0.00000E+00
 -1      1282 6.92576E+01 2.79155E+01 0.00000E+00
 -1      1283 6.92977E+01 2.93669E+01 0.00000E+00
 -1      1284 6.96279E+01 3.07544E+01 0.00000E+00
 -1      1285 7.02278E+01 3.20385E+01 0.00000E+00
 -1      1286 7.11205E+01 3.32256E+01 0.00000E+00
 -1      1287 7.22463E+01 3.41995E+01 0.00000E+00
 -1      1288 7.35182E+01 3.48990E+01 0.00000E+00
 -1      1289 7.49000E+01 3.53197E+01 0.00000E+00
 -1      1290 7.63127E+01 3.54482E+01 0.00000E+00
 -1      1291 7.77933E+01 3.52735E+01 0.00000E+00
 -1      1292 7.92268E+01 3.47781E+01 0.00000E+00
 -1      1293 8.04905E+01 3.40083E+01 0.00000E+00
 -1      1294 8.15419E+01 3.30160E+01 0.00000E+00
 -1      1295 8.23498E+01 3.18598E+01 0.00000E+00
 -1      1296 8.29075E+01 3.05716E+01 0.00000E+00
 -1      1297 8.31994E+01 2.91749E+01 0.00000E+00
 -1      1298 1.57500E+00 4.85250E+01 0.00000E+00
 -1      1299 1.29900E+00 4.48375E+01 0.00000E+00
 -1      1300 1.29900E+00 4.63125E+01 0.00000E+00
 -1      1301 1.29900E+00 4.18875E+01 0.00000E+00
 -1      1302 1.29900E+00 4.33625E+01 0.00000E+00
 -1      1303 2.59800E+00 4.41000E+01 0.00000E+00
 -1      1304 1.29900E+00 3.89375E+01 0.00000E+00
 -1      1305 1.29900E+00 4.04125E+01 0.00000E+00
 -1      1306 2.59800E+00 4.11500E+01 0.00000E+00
 -1      1307 1.29900E+00 3.59875E+01 0.00000E+00
 -1      1308 1.29900E+00 3.74625E+01 0.00000E+00
 -1      1309 2.59800E+00 3.82000E+01 0.00000E+00
 -1      1310 1.29900E+00 3.30875E+01 0.00000E+00
 -1      1311 1.29900E+00 3.45375E+01 0.00000E+00
 -1      1312 2.59800E+00 3.52750E+01 0.00000E+00
 -1      1313 1.29900E+00 3.01375E+01 0.00000E+00
 -1      1314 1.29900E+00 3.16125E+01 0.00000E+00
 -1      1315 2.59800E+00 3.23500E+01 0.00000E+00
 -1      1316 1.29900E+00 2.71875E+01 0.00000E+00
 -1      1317 1.29900E+00 2.86625E+01 0.00000E+00
 -1      1318 2.59800E+00 2.94000E+01 0.00000E+00
 -1      1319 1.29900E+00 2.42375E+01 0.00000E+00
 -1      1320 1.29900E+00 2.57125E+01 0.00000E+00
 -1      1321 2.59800E+00 2.64500E+01 0.00000E+00
 -1      1322 1.29900E+00 2.12875E+01 0.00000E+00
 -1      1323 1.29900E+00 2.27625E+01 0.00000E+00
 -1      1324 2.59800E+00 2.35000E+01 0.00000E+00
 -1      1325 1.29900E+00 1.83375E+01 0.00000E+00
 -1      1326 1.29900E+00 1.98125E+01 0.00000E+00
 -1      1327 2.59800E+00 2.05500E+01 0.00000E+00
 -1      1328 1.29900E+00 1.54375E+01 0.00000E+00
 -1      1329 1.29900E+00 1.68875E+01 0.00000E+00
 -1      1330 2.59800E+00 1.76250E+01 0.00000E+00
 -1      1331 1.29900E+00 1.24875E+01 0.00000E+00
 -1      1332 1.29900E+00 1.39625E+01 0.00000E+00
 -1      1333 2.59800E+00 1.47000E+01 0.00000E+00
 -1      1334 1.29900E+00 9.53750E+00 0.00000E+00
 -1      1335 1.29900E+00 1.10125E+01 0.00000E+00
 -1      1336 2.59800E+00 1.17500E+01 0.00000E+00
 -1      1337 1.29900E+00 6.58750E+00 0.00000E+00
 -1      1338 1.29900E+00 8.06250E+00 0.00000E+00
 -1      1339 2.59800E+00 8.80000E+00 0.00000E+00
 -1      1340 1.29900E+00 3.63750E+00 0.00000E+00
 -1      1341 1.29900E+00 5.11250E+00 0.00000E+00
 -1      1342 2.59800E+00 5.85000E+00 0.00000E+00
 -1      1343 1.43700E+00 1.09375E+00 0.00000E+00
 -1      1344 1.43700E+00 2.54375E+00 0.00000E+00
 -1      1345 2.73600E+00 3.28125E+00 0.00000E+00
 -1      1346 3.01200E+00 1.09375E+00 0.00000E+00
 -1      1347 3.90000E+00 4.87010E+01 0.00000E+00
 -1      1348 5.40000E+00 4.87010E+01 0.00000E+00
 -1      1349 6.90000E+00 4.87010E+01 0.00000E+00
 -1      1350 8.40000E+00 4.87010E+01 0.00000E+00
 -1      1351 6.15000E+00 4.74020E+01 0.00000E+00
 -1      1352 9.90000E+00 4.87010E+01 0.00000E+00
 -1      1353 1.14000E+01 4.87010E+01 0.00000E+00
 -1      1354 9.15000E+00 4.74020E+01 0.00000E+00
 -1      1355 1.29000E+01 4.87010E+01 0.00000E+00
 -1      1356 1.44000E+01 4.87010E+01 0.00000E+00
 -1      1357 1.21500E+01 4.74020E+01 0.00000E+00
 -1      1358 1.59000E+01 4.87010E+01 0.00000E+00
 -1      1359 1.74000E+01 4.87010E+01 0.00000E+00
 -1      1360 1.51500E+01 4.74020E+01 0.00000E+00
 -1      1361 1.89000E+01 4.87010E+01 0.00000E+00
 -1      1362 2.04000E+01 4.87010E+01 0.00000E+00
 -1      1363 1.81500E+01 4.74020E+01 0.00000E+00
 -1      1364 2.19000E+01 4.87010E+01 0.00000E+00
 -1      1365 2.34000E+01 4.87010E+01 0.00000E+00
 -1      1366 2.11500E+01 4.74020E+01 0.00000E+00
 -1      1367 2.49000E+01 4.87010E+01 0.00000E+00
 -1      1368 2.64000E+01 4.87010E+01 0.00000E+00
 -1      1369 2.41500E+01 4.74020E+01 0.00000E+00
 -1      1370 2.79000E+01 4.87010E+01 0.00000E+00
 -1      1371 2.94000E+01 4.87010E+01 0.00000E+00
 -1      1372 2.71500E+01 4.74020E+01 0.00000E+00
 -1      1373 3.09000E+01 4.87010E+01 0.00000E+00
 -1      1374 3.24000E+01 4.87010E+01 0.00000E+00
 -1      1375 3.01500E+01 4.74020E+01 0.00000E+00
 -1      1376 3.39000E+01 4.87010E+01 0.00000E+00
 -1      1377 3.54000E+01 4.87010E+01 0.00000E+00
 -1      1378 3.31500E+01 4.74020E+01 0.00000E+00
 -1      1379 3.69000E+01 4.87010E+01 0.00000E+00
 -1      1380 3.84000E+01 4.87010E+01 0.00000E+00
 -1      1381 3.61500E+01 4.74020E+01 0.00000E+00
 -1      1382 3.99000E+01 4.87010E+01 0.00000E+00
 -1      1383 4.14000E+01 4.87010E+01 0.00000E+00
 -1      1384 3.91500E+01 4.74020E+01 0.00000E+00
 -1      1385 4.29000E+01 4.87010E+01 0.00000E+00
 -1      1386 4.44000E+01 4.87010E+01 0.00000E+00
 -1      1387 4.21500E+01 4.74020E+01 0.00000E+00
 -1      1388 4.59000E+01 4.87010E+01 0.00000E+00
 -1      1389 4.74000E+01 4.87010E+01 0.00000E+00
 -1      1390 4.51500E+01 4.74020E+01 0.00000E+00
 -1      1391 4.89000E+01 4.87010E+01 0.00000E+00
 -1      1392 5.04000E+01 4.87010E+01 0.00000E+00
 -1      1393 4.81500E+01 4.74020E+01 0.00000E+00
 -1      1394 5.19000E+01 4.87010E+01 0.00000E+00
 -1      1395 5.34000E+01 4.87010E+01 0.00000E+00
 -1      1396 5.11500E+01 4.74020E+01 0.00000E+00
 -1      1397 5.49000E+01 4.87010E+01 0.00000E+00
 -1      1398 5.64000E+01 4.87010E+01 0.00000E+00
 -1      1399 5.41500E+01 4.74020E+01 0.00000E+00
 -1      1400 5.79000E+01 4.87010E+01 0.00000E+00
 -1      1401 5.94000E+01 4.87010E+01 0.00000E+00
 -1      1402 5.71500E+01 4.74020E+01 0.00000E+00
 -1      1403 6.09000E+01 4.87010E+01 0.00000E+00
 -1      1404 6.24000E+01 4.87010E+01 0.00000E+00
 -1      1405 6.01500E+01 4.74020E+01 0.00000E+00
 -1      1406 6.39000E+01 4.87010E+01 0.00000E+00
 -1      1407 6.54000E+01 4.87010E+01 0.00000E+00
 -1      1408 6.31500E+01 4.74020E+01 0.00000E+00
 -1      1409 6.69000E+01 4.87010E+01 0.00000E+00
 -1      1410 6.84000E+01 4.87010E+01 0.00000E+00
 -1      1411 6.61500E+01 4.74020E+01 0.00000E+00
 -1      1412 6.99000E+01 4.87010E+01 0.00000E+00
 -1      1413 7.14000E+01 4.87010E+01 0.00000E+00
 -1      1414 6.91500E+01 4.74020E+01 0.00000E+00
 -1      1415 7.29000E+01 4.87010E+01 0.00000E+00
 -1      1416 7.44000E+01 4.87010E+01 0.00000E+00
 -1      1417 7.21500E+01 4.74020E+01 0.00000E+00
 -1      1418 7.59000E+01 4.87010E+01 0.00000E+00
 -1      1419 7.74000E+01 4.87010E+01 0.00000E+00
 -1      1420 7.51500E+01 4.74020E+01 0.00000E+00
 -1      1421 7.89000E+01 4.87010E+01 0.00000E+00
 -1      1422 8.04000E+01 4.87010E+01 0.00000E+00
 -1      1423 7.81500E+01 4.74020E+01 0.00000E+00
 -1      1424 8.19000E+01 4.87010E+01 0.00000E+00
 -1      1425 8.34000E+01 4.87010E+01 0.00000E+00
 -1      1426 8.11500E+01 4.74020E+01 0.00000E+00
 -1      1427 8.49000E+01 4.87010E+01 0.00000E+00
 -1      1428 8.64000E+01 4.87010E+01 0.00000E+00
 -1      1429 8.41500E+01 4.74020E+01 0.00000E+00
 -1      1430 8.79000E+01 4.87010E+01 0.00000E+00
 -1      1431 8.94000E+01 4.87010E+01 0.00000E+00
 -1      1432 8.71500E+01 4.74020E+01 0.00000E+00
 -1      1433 9.09000E+01 4.87010E+01 0.00000E+00
 -1      1434 9.24000E+01 4.87010E+01 0.00000E+00
 -1      1435 9.01500E+01 4.74020E+01 0.00000E+00
 -1      1436 9.39000E+01 4.87010E+01 0.00000E+00
 -1      1437 9.54000E+01 4.87010E+01 0.00000E+00
 -1      1438 9.31500E+01 4.74020E+01 0.00000E+00
 -1      1439 9.69000E+01 4.87010E+01 0.00000E+00
 -1      1440 9.84000E+01 4.87010E+01 0.00000E+00
 -1      1441 9.61500E+01 4.74020E+01 0.00000E+00
 -1      1442 9.99000E+01 4.87010E+01 0.00000E+00
 -1      1443 1.01400E+02 4.87010E+01 0.00000E+00
 -1      1444 9.91500E+01 4.74020E+01 0.00000E+00
 -1      1445 1.02900E+02 4.87010E+01 0.00000E+00
 -1      1446 1.04400E+02 4.87010E+01 0.00000E+00
 -1      1447 1.02150E+02 4.74020E+01 0.00000E+00
 -1      1448 1.05900E+02 4.87010E+01 0.00000E+00
 -1      1449 1.07400E+02 4.87010E+01 0.00000E+00
 -1      1450 1.05150E+02 4.74020E+01 0.00000E+00
 -1      1451 1.08900E+02 4.87010E+01 0.00000E+00
 -1      1452 1.10400E+02 4.87010E+01 0.00000E+00
 -1      1453 1.08150E+02 4.74020E+01 0.00000E+00
 -1      1454 1.11900E+02 4.87010E+01 0.00000E+00
 -1      1455 1.13400E+02 4.87010E+01 0.00000E+00
 -1      1456 1.11150E+02 4.74020E+01 0.00000E+00
 -1      1457 1.14900E+02 4.87010E+01 0.00000E+00
 -1      1458 1.16400E+02 4.87010E+01 0.00000E+00
 -1      1459 1.14150E+02 4.74020E+01 0.00000E+00
 -1      1460 1.17900E+02 4.87010E+01 0.00000E+00
 -1      1461 1.19400E+02 4.87010E+01 0.00000E+00
 -1      1462 1.17150E+02 4.74020E+01 0.00000E+00
 -1      1463 1.20900E+02 4.87010E+01 0.00000E+00
 -1      1464 1.22400E+02 4.87010E+01 0.00000E+00
 -1      1465 1.20150E+02 4.74020E+01 0.00000E+00
 -1      1466 1.23900E+02 4.87010E+01 0.00000E+00
 -1      1467 1.25400E+02 4.87010E+01 0.00000E+00
 -1      1468 1.23150E+02 4.74020E+01 0.00000E+00
 -1      1469 1.26900E+02 4.87010E+01 0.00000E+00
 -1      1470 1.28400E+02 4.87010E+01 0.00000E+00
 -1      1471 1.26150E+02 4.74020E+01 0.00000E+00
 -1      1472 1.29900E+02 4.87010E+01 0.00000E+00
 -1      1473 1.31400E+02 4.87010E+01 0.00000E+00
 -1      1474 1.29150E+02 4.74020E+01 0.00000E+00
 -1      1475 1.32900E+02 4.87010E+01 0.00000E+00
 -1      1476 1.34400E+02 4.87010E+01 0.00000E+00
 -1      1477 1.32150E+02 4.74020E+01 0.00000E+00
 -1      1478 1.35900E+02 4.87010E+01 0.00000E+00
 -1      1479 1.37400E+02 4.87010E+01 0.00000E+00
 -1      1480 1.35150E+02 4.74020E+01 0.00000E+00
 -1      1481 1.38900E+02 4.87010E+01 0.00000E+00
 -1      1482 1.40400E+02 4.87010E+01 0.00000E+00
 -1      1483 1.38150E+02 4.74020E+01 0.00000E+00
 -1      1484 1.41900E+02 4.87010E+01 0.00000E+00
 -1      1485 1.43400E+02 4.87010E+01 0.00000E+00
 -1      1486 1.41150E+02 4.74020E+01 0.00000E+00
 -1      1487 1.44900E+02 4.87010E+01 0.00000E+00
 -1      1488 1.46400E+02 4.87010E+01 0.00000E+00
 -1      1489 1.44150E+02 4.74020E+01 0.00000E+00
 -1      1490 1.48575E+02 4.85500E+01 0.00000E+00
 -1      1491 1.47825E+02 4.72510E+01 0.00000E+00
 -1      1492 6.01200E+00 1.09375E+00 0.00000E+00
 -1      1493 4.51200E+00 1.09375E+00 0.00000E+00
 -1      1494 4.37400E+00 2.18750E+00 0.00000E+00
 -1      1495 9.01200E+00 1.09375E+00 0.00000E+00
 -1      1496 7.51200E+00 1.09375E+00 0.00000E+00
 -1      1497 7.37400E+00 2.18750E+00 0.00000E+00
 -1      1498 1.20120E+01 1.09375E+00 0.00000E+00
 -1      1499 1.05120E+01 1.09375E+00 0.00000E+00
 -1      1500 1.03740E+01 2.18750E+00 0.00000E+00
 -1      1501 1.50120E+01 1.09375E+00 0.00000E+00
 -1      1502 1.35120E+01 1.09375E+00 0.00000E+00
 -1      1503 1.33740E+01 2.18750E+00 0.00000E+00
 -1      1504 1.80120E+01 1.09375E+00 0.00000E+00
 -1      1505 1.65120E+01 1.09375E+00 0.00000E+00
 -1      1506 1.63740E+01 2.18750E+00 0.00000E+00
 -1      1507 2.10120E+01 1.09375E+00 0.00000E+00
 -1      1508 1.95120E+01 1.09375E+00 0.00000E+00
 -1      1509 1.93740E+01 2.18750E+00 0.00000E+00
 -1      1510 2.40120E+01 1.09375E+00 0.00000E+00
 -1      1511 2.25120E+01 1.09375E+00 0.00000E+00
 -1      1512 2.23740E+01 2.18750E+00 0.00000E+00
 -1      1513 2.70120E+01 1.09375E+00 0.00000E+00
 -1      1514 2.55120E+01 1.09375E+00 0.00000E+00
 -1      1515 2.53740E+01 2.18750E+00 0.00000E+00
 -1      1516 3.00120E+01 1.09375E+00 0.00000E+00
 -1      1517 2.85120E+01 1.09375E+00 0.00000E+00
 -1      1518 2.83740E+01 2.18750E+00 0.00000E+00
 -1      1519 3.30120E+01 1.09375E+00 0.00000E+00
 -1      1520 3.15120E+01 1.09375E+00 0.00000E+00
 -1      1521 3.13740E+01 2.18750E+00 0.00000E+00
 -1      1522 3.60120E+01 1.09375E+00 0.00000E+00
 -1      1523 3.45120E+01 1.09375E+00 0.00000E+00
 -1      1524 3.43740E+01 2.18750E+00 0.00000E+00
 -1      1525 3.90120E+01 1.09375E+00 0.00000E+00
 -1      1526 3.75120E+01 1.09375E+00 0.00000E+00
 -1      1527 3.73740E+01 2.18750E+00 0.00000E+00
 -1      1528 4.20120E+01 1.09375E+00 0.00000E+00
 -1      1529 4.05120E+01 1.09375E+00 0.00000E+00
 -1      1530 4.03740E+01 2.18750E+00 0.00000E+00
 -1      1531 4.50120E+01 1.09375E+00 0.00000E+00
 -1      1532 4.35120E+01 1.09375E+00 0.00000E+00
 -1      1533 4.33740E+01 2.18750E+00 0.00000E+00
 -1      1534 4.80120E+01 1.09375E+00 0.00000E+00
 -1      1535 4.65120E+01 1.09375E+00 0.00000E+00
 -1      1536 4.63740E+01 2.18750E+00 0.00000E+00
 -1      1537 5.10120E+01 1.09375E+00 0.00000E+00
 -1      1538 4.95120E+01 1.09375E+00 0.00000E+00
 -1      1539 4.93740E+01 2.18750E+00 0.00000E+00
 -1      1540 5.40120E+01 1.09375E+00 0.00000E+00
 -1      1541 5.25120E+01 1.09375E+00 0.00000E+00
 -1      1542 5.23740E+01 2.18750E+00 0.00000E+00
 -1      1543 5.70120E+01 1.09375E+00 0.00000E+00
 -1      1544 5.55120E+01 1.09375E+00 0.00000E+00
 -1      1545 5.53740E+01 2.18750E+00 0.00000E+00
 -1      1546 6.00120E+01 1.09375E+00 0.00000E+00
 -1      1547 5.85120E+01 1.09375E+00 0.00000E+00
 -1      1548 5.83740E+01 2.18750E+00 0.00000E+00
 -1      1549 6.30120E+01 1.09375E+00 0.00000E+00
 -1      1550 6.15120E+01 1.09375E+00 0.00000E+00
 -1      1551 6.13740E+01 2.18750E+00 0.00000E+00
 -1      1552 6.60120E+01 1.09375E+00 0.00000E+00
 -1      1553 6.45120E+01 1.09375E+00 0.00000E+00
 -1      1554 6.43740E+01 2.18750E+00 0.00000E+00
 -1      1555 6.90120E+01 1.09375E+00 0.00000E+00
 -1      1556 6.75120E+01 1.09375E+00 0.00000E+00
 -1      1557 6.73740E+01 2.18750E+00 0.00000E+00
 -1      1558 7.20120E+01 1.09375E+00 0.00000E+00
 -1      1559 7.05120E+01 1.09375E+00 0.00000E+00
 -1      1560 7.03740E+01 2.18750E+00 0.00000E+00
 -1      1561 7.50120E+01 1.09375E+00 0.00000E+00
 -1      1562 7.35120E+01 1.09375E+00 0.00000E+00
 -1      1563 7.33740E+01 2.18750E+00 0.00000E+00
 -1      1564 7.80120E+01 1.09375E+00 0.00000E+00
 -1      1565 7.65120E+01 1.09375E+00 0.00000E+00
 -1      1566 7.63740E+01 2.18750E+00 0.00000E+00
 -1      1567 8.10120E+01 1.09375E+00 0.00000E+00
 -1      1568 7.95120E+01 1.09375E+00 0.00000E+00
 -1      1569 7.93740E+01 2.18750E+00 0.00000E+00
 -1      1570 8.40120E+01 1.09375E+00 0.00000E+00
 -1      1571 8.25120E+01 1.09375E+00 0.00000E+00
 -1      1572 8.23740E+01 2.18750E+00 0.00000E+00
 -1      1573 8.70120E+01 1.09375E+00 0.00000E+00
 -1      1574 8.55120E+01 1.09375E+00 0.00000E+00
 -1      1575 8.53740E+01 2.18750E+00 0.00000E+00
 -1      1576 9.00120E+01 1.09375E+00 0.00000E+00
 -1      1577 8.85120E+01 1.09375E+00 0.00000E+00
 -1      1578 8.83740E+01 2.18750E+00 0.00000E+00
 -1      1579 9.30120E+01 1.09375E+00 0.00000E+00
 -1      1580 9.15120E+01 1.09375E+00 0.00000E+00
 -1      1581 9.13740E+01 2.18750E+00 0.00000E+00
 -1      1582 9.60120E+01 1.09375E+00 0.00000E+00
 -1      1583 9.45120E+01 1.09375E+00 0.00000E+00
 -1      1584 9.43740E+01 2.18750E+00 0.00000E+00
 -1      1585 9.90120E+01 1.09375E+00 0.00000E+00
 -1      1586 9.75120E+01 1.09375E+00 0.00000E+00
 -1      1587 9.73740E+01 2.18750E+00 0.00000E+00
 -1      1588 1.02012E+02 1.09375E+00 0.00000E+00
 -1      1589 1.00512E+02 1.09375E+00 0.00000E+00
 -1      1590 1.00374E+02 2.18750E+00 0.00000E+00
 -1      1591 1.05012E+02 1.09375E+00 0.00000E+00
 -1      1592 1.03512E+02 1.09375E+00 0.00000E+00
 -1      1593 1.03374E+02 2.18750E+00 0.00000E+00
 -1      1594 1.08012E+02 1.09375E+00 0.00000E+00
 -1      1595 1.06512E+02 1.09375E+00 0.00000E+00
 -1      1596 1.06374E+02 2.18750E+00 0.00000E+00
 -1      1597 1.11012E+02 1.09375E+00 0.00000E+00
 -1      1598 1.09512E+02 1.09375E+00 0.00000E+00
 -1      1599 1.09374E+02 2.18750E+00 0.00000E+00
 -1      1600 1.14012E+02 1.09375E+00 0.00000E+00
 -1      1601 1.12512E+02 1.09375E+00 0.00000E+00
 -1      1602 1.12374E+02 2.18750E+00 0.00000E+00
 -1      1603 1.17012E+02 1.09375E+00 0.00000E+00
 -1      1604 1.15512E+02 1.09375E+00 0.00000E+00
 -1      1605 1.15374E+02 2.18750E+00 0.00000E+00
 -1      1606 1.20012E+02 1.09375E+00 0.00000E+00
 -1      1607 1.18512E+02 1.09375E+00 0.00000E+00
 -1      1608 1.18374E+02 2.18750E+00 0.00000E+00
 -1      1609 1.23012E+02 1.09375E+00 0.00000E+00
 -1      1610 1.21512E+02 1.09375E+00 0.00000E+00
 -1      1611 1.21374E+02 2.18750E+00 0.00000E+00
 -1      1612 1.26012E+02 1.09375E+00 0.00000E+00
 -1      1613 1.24512E+02 1.09375E+00 0.00000E+00
 -1      1614 1.24374E+02 2.18750E+00 0.00000E+00
 -1      1615 1.29012E+02 1.09375E+00 0.00000E+00
 -1      1616 1.27512E+02 1.09375E+00 0.00000E+00
 -1      1617 1.27374E+02 2.18750E+00 0.00000E+00
 -1      1618 1.32012E+02 1.09375E+00 0.00000E+00
 -1      1619 1.30512E+02 1.09375E+00 0.00000E+00
 -1      1620 1.30374E+02 2.18750E+00 0.00000E+00
 -1      1621 1.35012E+02 1.09375E+00 0.00000E+00
 -1      1622 1.33512E+02 1.09375E+00 0.00000E+00
 -1      1623 1.33374E+02 2.18750E+00 0.00000E+00
 -1      1624 1.38012E+02 1.09375E+00 0.00000E+00
 -1      1625 1.36512E+02 1.09375E+00 0.00000E+00
 -1      1626 1.36374E+02 2.18750E+00 0.00000E+00
 -1      1627 1.41012E+02 1.09375E+00 0.00000E+00
 -1      1628 1.39512E+02 1.09375E+00 0.00000E+00
 -1      1629 1.39374E+02 2.18750E+00 0.00000E+00
 -1      1630 1.44012E+02 1.09375E+00 0.00000E+00
 -1      1631 1.42512E+02 1.09375E+00 0.00000E+00
 -1      1632 1.42374E+02 2.18750E+00 0.00000E+00
 -1      1633 1.47012E+02 1.09375E+00 0.00000E+00
 -1      1634 1.45512E+02 1.09375E+00 0.00000E+00
 -1      1635 1.45374E+02 2.18750E+00 0.00000E+00
 -1      1636 1.48575E+02 1.47500E+00 0.00000E+00
 -1      1637 1.48701E+02 5.16250E+00 0.00000E+00
 -1      1638 1.48701E+02 3.68750E+00 0.00000E+00
 -1      1639 1.48701E+02 8.11250E+00 0.00000E+00
 -1      1640 1.48701E+02 6.63750E+00 0.00000E+00
 -1      1641 1.47402E+02 5.90000E+00 0.00000E+00
 -1      1642 1.48701E+02 1.10625E+01 0.00000E+00
 -1      1643 1.48701E+02 9.58750E+00 0.00000E+00
 -1      1644 1.47402E+02 8.85000E+00 0.00000E+00
 -1      1645 1.48701E+02 1.40125E+01 0.00000E+00
 -1      1646 1.48701E+02 1.25375E+01 0.00000E+00
 -1      1647 1.47402E+02 1.18000E+01 0.00000E+00
 -1      1648 1.48701E+02 1.69125E+01 0.00000E+00
 -1      1649 1.48701E+02 1.54625E+01 0.00000E+00
 -1      1650 1.47402E+02 1.47250E+01 0.00000E+00
 -1      1651 1.48701E+02 1.98625E+01 0.00000E+00
 -1      1652 1.48701E+02 1.83875E+01 0.00000E+00
 -1      1653 1.47402E+02 1.76500E+01 0.00000E+00
 -1      1654 1.48701E+02 2.28125E+01 0.00000E+00
 -1      1655 1.48701E+02 2.13375E+01 0.00000E+00
 -1      1656 1.47402E+02 2.06000E+01 0.00000E+00
 -1      1657 1.48701E+02 2.57625E+01 0.00000E+00
 -1      1658 1.48701E+02 2.42875E+01 0.00000E+00
 -1      1659 1.47402E+02 2.35500E+01 0.00000E+00
 -1      1660 1.48701E+02 2.87125E+01 0.00000E+00
 -1      1661 1.48701E+02 2.72375E+01 0.00000E+00
 -1      1662 1.47402E+02 2.65000E+01 0.00000E+00
 -1      1663 1.48701E+02 3.16625E+01 0.00000E+00
 -1      1664 1.48701E+02 3.01875E+01 0.00000E+00
 -1      1665 1.47402E+02 2.94500E+01 0.00000E+00
 -1      1666 1.48701E+02 3.45625E+01 0.00000E+00
 -1      1667 1.48701E+02 3.31125E+01 0.00000E+00
 -1      1668 1.47402E+02 3.23750E+01 0.00000E+00
 -1      1669 1.48701E+02 3.75125E+01 0.00000E+00
 -1      1670 1.48701E+02 3.60375E+01 0.00000E+00
 -1      1671 1.47402E+02 3.53000E+01 0.00000E+00
 -1      1672 1.48701E+02 4.04625E+01 0.00000E+00
 -1      1673 1.48701E+02 3.89875E+01 0.00000E+00
 -1      1674 1.47402E+02 3.82500E+01 0.00000E+00
 -1      1675 1.48701E+02 4.34125E+01 0.00000E+00
 -1      1676 1.48701E+02 4.19375E+01 0.00000E+00
 -1      1677 1.47402E+02 4.12000E+01 0.00000E+00
 -1      1678 1.48263E+02 4.60692E+01 0.00000E+00
 -1      1679 1.48263E+02 4.45942E+01 0.00000E+00
 -1      1680 1.46964E+02 4.38568E+01 0.00000E+00
 -1      1681 1.46088E+02 4.62202E+01 0.00000E+00
 -1      1682 8.37690E+01 2.72987E+01 0.00000E+00
 -1      1683 8.38442E+01 2.80205E+01 0.00000E+00
 -1      1684 8.33997E+01 2.57342E+01 0.00000E+00
 -1      1685 8.36286E+01 2.64394E+01 0.00000E+00
 -1      1686 8.26589E+01 2.42750E+01 0.00000E+00
 -1      1687 8.30364E+01 2.49232E+01 0.00000E+00
 -1      1688 8.15636E+01 2.30620E+01 0.00000E+00
 -1      1689 8.20685E+01 2.36130E+01 0.00000E+00
 -1      1690 8.02854E+01 2.19512E+01 0.00000E+00
 -1      1691 8.09344E+01 2.24037E+01 0.00000E+00
 -1      1692 7.88220E+01 2.13243E+01 0.00000E+00
 -1      1693 7.94735E+01 2.15957E+01 0.00000E+00
 -1      1694 7.72735E+01 2.08608E+01 0.00000E+00
 -1      1695 7.80180E+01 2.10003E+01 0.00000E+00
 -1      1696 7.56725E+01 2.08924E+01 0.00000E+00
 -1      1697 7.63961E+01 2.08730E+01 0.00000E+00
 -1      1698 7.40908E+01 2.11839E+01 0.00000E+00
 -1      1699 7.48197E+01 2.10073E+01 0.00000E+00
 -1      1700 7.26118E+01 2.17472E+01 0.00000E+00
 -1      1701 7.32626E+01 2.14340E+01 0.00000E+00
 -1      1702 7.13090E+01 2.26382E+01 0.00000E+00
 -1      1703 7.18845E+01 2.21955E+01 0.00000E+00
 -1      1704 7.02151E+01 2.37815E+01 0.00000E+00
 -1      1705 7.06875E+01 2.32286E+01 0.00000E+00
 -1      1706 6.92592E+01 2.50929E+01 0.00000E+00
 -1      1707 6.96139E+01 2.44379E+01 0.00000E+00
 -1      1708 6.88329E+01 2.66531E+01 0.00000E+00
 -1      1709 6.90379E+01 2.59552E+01 0.00000E+00
 -1      1710 6.85802E+01 2.82328E+01 0.00000E+00
 -1      1711 6.86363E+01 2.74990E+01 0.00000E+00
 -1      1712 6.87386E+01 2.98020E+01 0.00000E+00
 -1      1713 6.86446E+01 2.90922E+01 0.00000E+00
 -1      1714 6.92066E+01 3.12775E+01 0.00000E+00
 -1      1715 6.89726E+01 3.06069E+01 0.00000E+00
 -1      1716 6.99194E+01 3.26344E+01 0.00000E+00
 -1      1717 6.95568E+01 3.20275E+01 0.00000E+00
 -1      1718 7.09135E+01 3.39513E+01 0.00000E+00
 -1      1719 7.03823E+01 3.33824E+01 0.00000E+00
 -1      1720 7.22130E+01 3.48703E+01 0.00000E+00
 -1      1721 7.16296E+01 3.44654E+01 0.00000E+00
 -1      1722 7.36071E+01 3.56425E+01 0.00000E+00
 -1      1723 7.29240E+01 3.53546E+01 0.00000E+00
 -1      1724 7.51359E+01 3.59472E+01 0.00000E+00
 -1      1725 7.44459E+01 3.58129E+01 0.00000E+00
 -1      1726 7.66766E+01 3.60139E+01 0.00000E+00
 -1      1727 7.59610E+01 3.60216E+01 0.00000E+00
 -1      1728 7.83150E+01 3.58181E+01 0.00000E+00
 -1      1729 7.75591E+01 3.59904E+01 0.00000E+00
 -1      1730 7.98041E+01 3.51323E+01 0.00000E+00
 -1      1731 7.91337E+01 3.54490E+01 0.00000E+00
 -1      1732 8.11792E+01 3.43010E+01 0.00000E+00
 -1      1733 8.05929E+01 3.47496E+01 0.00000E+00
 -1      1734 8.22049E+01 3.31201E+01 0.00000E+00
 -1      1735 8.17433E+01 3.36562E+01 0.00000E+00
 -1      1736 8.30562E+01 3.18514E+01 0.00000E+00
 -1      1737 8.27135E+01 3.24654E+01 0.00000E+00
 -1      1738 8.35579E+01 3.04110E+01 0.00000E+00
 -1      1739 8.33454E+01 3.10786E+01 0.00000E+00
 -1      1740 8.38441E+01 2.88771E+01 0.00000E+00
 -1      1741 8.37688E+01 2.95994E+01 0.00000E+00
 -1      1742 8.16338E+01 2.22697E+01 0.00000E+00
 -1      1743 8.28535E+01 2.35899E+01 0.00000E+00
 -1      1744 1.48437E+02 2.56875E+00 0.00000E+00
 -1      1745 1.47138E+02 3.30625E+00 0.00000E+00
 -1      1746 8.43108E+01 2.67331E+01 0.00000E+00
 -1      1747 8.38072E+01 2.50628E+01 0.00000E+00
 -1      1748 8.44511E+01 2.84490E+01 0.00000E+00
 -1      1749 8.01927E+01 2.12559E+01 0.00000E+00
 -1      1750 7.85768E+01 2.05764E+01 0.00000E+00
 -1      1751 7.68954E+01 2.02646E+01 0.00000E+00
 -1      1752 7.51653E+01 2.03916E+01 0.00000E+00
 -1      1753 7.34843E+01 2.07565E+01 0.00000E+00
 -1      1754 7.19289E+01 2.14549E+01 0.00000E+00
 -1      1755 7.05801E+01 2.24936E+01 0.00000E+00
 -1      1756 6.93574E+01 2.37405E+01 0.00000E+00
 -1      1757 6.85349E+01 2.52592E+01 0.00000E+00
 -1      1758 6.81169E+01 2.69674E+01 0.00000E+00
 -1      1759 6.79847E+01 2.86727E+01 0.00000E+00
 -1      1760 6.82832E+01 3.03370E+01 0.00000E+00
 -1      1761 6.88675E+01 3.18919E+01 0.00000E+00
 -1      1762 6.96806E+01 3.33898E+01 0.00000E+00
 -1      1763 7.08596E+01 3.46518E+01 0.00000E+00
 -1      1764 7.22866E+01 3.56501E+01 0.00000E+00
 -1      1765 7.38363E+01 3.63047E+01 0.00000E+00
 -1      1766 7.55002E+01 3.65495E+01 0.00000E+00
 -1      1767 7.72079E+01 3.66004E+01 0.00000E+00
 -1      1768 7.89091E+01 3.62079E+01 0.00000E+00
 -1      1769 8.05165E+01 3.54560E+01 0.00000E+00
 -1      1770 8.18694E+01 3.44285E+01 0.00000E+00
 -1      1771 8.29421E+01 3.31289E+01 0.00000E+00
 -1      1772 8.37401E+01 3.17014E+01 0.00000E+00
 -1      1773 8.42402E+01 3.01171E+01 0.00000E+00
 -1      1774 2.87400E+00 4.77875E+01 0.00000E+00
 -1      1775 3.89700E+00 4.04125E+01 0.00000E+00
 -1      1776 3.89700E+00 4.18875E+01 0.00000E+00
 -1      1777 3.89700E+00 4.33625E+01 0.00000E+00
 -1      1778 3.89700E+00 4.48375E+01 0.00000E+00
 -1      1779 5.19600E+00 4.26250E+01 0.00000E+00
 -1      1780 3.89700E+00 3.45500E+01 0.00000E+00
 -1      1781 3.89700E+00 3.60000E+01 0.00000E+00
 -1      1782 3.89700E+00 3.16000E+01 0.00000E+00
 -1      1783 3.89700E+00 3.30750E+01 0.00000E+00
 -1      1784 5.19600E+00 3.38000E+01 0.00000E+00
 -1      1785 3.89700E+00 2.86500E+01 0.00000E+00
 -1      1786 3.89700E+00 3.01250E+01 0.00000E+00
 -1      1787 5.19600E+00 3.08500E+01 0.00000E+00
 -1      1788 3.89700E+00 2.57000E+01 0.00000E+00
 -1      1789 3.89700E+00 2.71750E+01 0.00000E+00
 -1      1790 5.19600E+00 2.79000E+01 0.00000E+00
 -1      1791 3.89700E+00 2.27500E+01 0.00000E+00
 -1      1792 3.89700E+00 2.42250E+01 0.00000E+00
 -1      1793 5.19600E+00 2.49500E+01 0.00000E+00
 -1      1794 3.89700E+00 1.98000E+01 0.00000E+00
 -1      1795 3.89700E+00 2.12750E+01 0.00000E+00
 -1      1796 5.19600E+00 2.20000E+01 0.00000E+00
 -1      1797 3.89700E+00 1.69000E+01 0.00000E+00
 -1      1798 3.89700E+00 1.83500E+01 0.00000E+00
 -1      1799 5.19600E+00 1.90750E+01 0.00000E+00
 -1      1800 3.89700E+00 1.39500E+01 0.00000E+00
 -1      1801 3.89700E+00 1.54250E+01 0.00000E+00
 -1      1802 5.19600E+00 1.61500E+01 0.00000E+00
 -1      1803 3.89700E+00 1.10000E+01 0.00000E+00
 -1      1804 3.89700E+00 1.24750E+01 0.00000E+00
 -1      1805 5.19600E+00 1.32000E+01 0.00000E+00
 -1      1806 3.89700E+00 8.05000E+00 0.00000E+00
 -1      1807 3.89700E+00 9.52500E+00 0.00000E+00
 -1      1808 5.19600E+00 1.02500E+01 0.00000E+00
 -1      1809 3.89700E+00 5.10000E+00 0.00000E+00
 -1      1810 3.89700E+00 6.57500E+00 0.00000E+00
 -1      1811 5.19600E+00 7.30000E+00 0.00000E+00
 -1      1812 4.20450E+00 3.09687E+00 0.00000E+00
 -1      1813 4.06650E+00 4.19063E+00 0.00000E+00
 -1      1814 5.36550E+00 4.91563E+00 0.00000E+00
 -1      1815 5.70450E+00 3.09687E+00 0.00000E+00
 -1      1816 3.62400E+00 4.64885E+01 0.00000E+00
 -1      1817 8.70450E+00 3.09687E+00 0.00000E+00
 -1      1818 7.20450E+00 3.09687E+00 0.00000E+00
 -1      1819 7.03500E+00 4.00625E+00 0.00000E+00
 -1      1820 4.92300E+00 4.57510E+01 0.00000E+00
 -1      1821 8.40000E+00 4.61030E+01 0.00000E+00
 -1      1822 9.90000E+00 4.61030E+01 0.00000E+00
 -1      1823 1.14000E+01 4.61030E+01 0.00000E+00
 -1      1824 1.29000E+01 4.61030E+01 0.00000E+00
 -1      1825 1.06500E+01 4.48040E+01 0.00000E+00
 -1      1826 1.44000E+01 4.61030E+01 0.00000E+00
 -1      1827 1.59000E+01 4.61030E+01 0.00000E+00
 -1      1828 1.36500E+01 4.48040E+01 0.00000E+00
 -1      1829 1.74000E+01 4.61030E+01 0.00000E+00
 -1      1830 1.89000E+01 4.61030E+01 0.00000E+00
 -1      1831 1.66500E+01 4.48040E+01 0.00000E+00
 -1      1832 2.04000E+01 4.61030E+01 0.00000E+00
 -1      1833 2.19000E+01 4.61030E+01 0.00000E+00
 -1      1834 1.96500E+01 4.48040E+01 0.00000E+00
 -1      1835 2.34000E+01 4.61030E+01 0.00000E+00
 -1      1836 2.49000E+01 4.61030E+01 0.00000E+00
 -1      1837 2.26500E+01 4.48040E+01 0.00000E+00
 -1      1838 2.64000E+01 4.61030E+01 0.00000E+00
 -1      1839 2.79000E+01 4.61030E+01 0.00000E+00
 -1      1840 2.56500E+01 4.48040E+01 0.00000E+00
 -1      1841 2.94000E+01 4.61030E+01 0.00000E+00
 -1      1842 3.09000E+01 4.61030E+01 0.00000E+00
 -1      1843 2.86500E+01 4.48040E+01 0.00000E+00
 -1      1844 3.24000E+01 4.61030E+01 0.00000E+00
 -1      1845 3.39000E+01 4.61030E+01 0.00000E+00
 -1      1846 3.16500E+01 4.48040E+01 0.00000E+00
 -1      1847 3.54000E+01 4.61030E+01 0.00000E+00
 -1      1848 3.69000E+01 4.61030E+01 0.00000E+00
 -1      1849 3.46500E+01 4.48040E+01 0.00000E+00
 -1      1850 3.84000E+01 4.61030E+01 0.00000E+00
 -1      1851 3.99000E+01 4.61030E+01 0.00000E+00
 -1      1852 3.76500E+01 4.48040E+01 0.00000E+00
 -1      1853 4.14000E+01 4.61030E+01 0.00000E+00
 -1      1854 4.29000E+01 4.61030E+01 0.00000E+00
 -1      1855 4.06500E+01 4.48040E+01 0.00000E+00
 -1      1856 4.44000E+01 4.61030E+01 0.00000E+00
 -1      1857 4.59000E+01 4.61030E+01 0.00000E+00
 -1      1858 4.36500E+01 4.48040E+01 0.00000E+00
 -1      1859 4.74000E+01 4.61030E+01 0.00000E+00
 -1      1860 4.89000E+01 4.61030E+01 0.00000E+00
 -1      1861 4.66500E+01 4.48040E+01 0.00000E+00
 -1      1862 5.04000E+01 4.61030E+01 0.00000E+00
 -1      1863 5.19000E+01 4.61030E+01 0.00000E+00
 -1      1864 4.96500E+01 4.48040E+01 0.00000E+00
 -1      1865 5.34000E+01 4.61030E+01 0.00000E+00
 -1      1866 5.49000E+01 4.61030E+01 0.00000E+00
 -1      1867 5.26500E+01 4.48040E+01 0.00000E+00
 -1      1868 5.64000E+01 4.61030E+01 0.00000E+00
 -1      1869 5.79000E+01 4.61030E+01 0.00000E+00
 -1      1870 5.56500E+01 4.48040E+01 0.00000E+00
 -1      1871 5.94000E+01 4.61030E+01 0.00000E+00
 -1      1872 6.09000E+01 4.61030E+01 0.00000E+00
 -1      1873 5.86500E+01 4.48040E+01 0.00000E+00
 -1      1874 6.24000E+01 4.61030E+01 0.00000E+00
 -1      1875 6.39000E+01 4.61030E+01 0.00000E+00
 -1      1876 6.16500E+01 4.48040E+01 0.00000E+00
 -1      1877 6.54000E+01 4.61030E+01 0.00000E+00
 -1      1878 6.69000E+01 4.61030E+01 0.00000E+00
 -1      1879 6.46500E+01 4.48040E+01 0.00000E+00
 -1      1880 6.84000E+01 4.61030E+01 0.00000E+00
 -1      1881 6.99000E+01 4.61030E+01 0.00000E+00
 -1      1882 6.76500E+01 4.48040E+01 0.00000E+00
 -1      1883 7.14000E+01 4.61030E+01 0.00000E+00
 -1      1884 7.29000E+01 4.61030E+01 0.00000E+00
 -1      1885 7.06500E+01 4.48040E+01 0.00000E+00
 -1      1886 7.44000E+01 4.61030E+01 0.00000E+00
 -1      1887 7.59000E+01 4.61030E+01 0.00000E+00
 -1      1888 7.36500E+01 4.48040E+01 0.00000E+00
 -1      1889 7.74000E+01 4.61030E+01 0.00000E+00
 -1      1890 7.89000E+01 4.61030E+01 0.00000E+00
 -1      1891 7.66500E+01 4.48040E+01 0.00000E+00
 -1      1892 8.04000E+01 4.61030E+01 0.00000E+00
 -1      1893 8.19000E+01 4.61030E+01 0.00000E+00
 -1      1894 7.96500E+01 4.48040E+01 0.00000E+00
 -1      1895 8.34000E+01 4.61030E+01 0.00000E+00
 -1      1896 8.49000E+01 4.61030E+01 0.00000E+00
 -1      1897 8.26500E+01 4.48040E+01 0.00000E+00
 -1      1898 8.64000E+01 4.61030E+01 0.00000E+00
 -1      1899 8.79000E+01 4.61030E+01 0.00000E+00
 -1      1900 8.56500E+01 4.48040E+01 0.00000E+00
 -1      1901 8.94000E+01 4.61030E+01 0.00000E+00
 -1      1902 9.09000E+01 4.61030E+01 0.00000E+00
 -1      1903 8.86500E+01 4.48040E+01 0.00000E+00
 -1      1904 9.24000E+01 4.61030E+01 0.00000E+00
 -1      1905 9.39000E+01 4.61030E+01 0.00000E+00
 -1      1906 9.16500E+01 4.48040E+01 0.00000E+00
 -1      1907 9.54000E+01 4.61030E+01 0.00000E+00
 -1      1908 9.69000E+01 4.61030E+01 0.00000E+00
 -1      1909 9.46500E+01 4.48040E+01 0.00000E+00
 -1      1910 9.84000E+01 4.61030E+01 0.00000E+00
 -1      1911 9.99000E+01 4.61030E+01 0.00000E+00
 -1      1912 9.76500E+01 4.48040E+01 0.00000E+00
 -1      1913 1.01400E+02 4.61030E+01 0.00000E+00
 -1      1914 1.02900E+02 4.61030E+01 0.00000E+00
 -1      1915 1.00650E+02 4.48040E+01 0.00000E+00
 -1      1916 1.04400E+02 4.61030E+01 0.00000E+00
 -1      1917 1.05900E+02 4.61030E+01 0.00000E+00
 -1      1918 1.03650E+02 4.48040E+01 0.00000E+00
 -1      1919 1.07400E+02 4.61030E+01 0.00000E+00
 -1      1920 1.08900E+02 4.61030E+01 0.00000E+00
 -1      1921 1.06650E+02 4.48040E+01 0.00000E+00
 -1      1922 1.10400E+02 4.61030E+01 0.00000E+00
 -1      1923 1.11900E+02 4.61030E+01 0.00000E+00
 -1      1924 1.09650E+02 4.48040E+01 0.00000E+00
 -1      1925 1.13400E+02 4.61030E+01 0.00000E+00
 -1      1926 1.14900E+02 4.61030E+01 0.00000E+00
 -1      1927 1.12650E+02 4.48040E+01 0.00000E+00
 -1      1928 1.16400E+02 4.61030E+01 0.00000E+00
 -1      1929 1.17900E+02 4.61030E+01 0.00000E+00
 -1      1930 1.15650E+02 4.48040E+01 0.00000E+00
 -1      1931 1.19400E+02 4.61030E+01 0.00000E+00
 -1      1932 1.20900E+02 4.61030E+01 0.00000E+00
 -1      1933 1.18650E+02 4.48040E+01 0.00000E+00
 -1      1934 1.22400E+02 4.61030E+01 0.00000E+00
 -1      1935 1.23900E+02 4.61030E+01 0.00000E+00
 -1      1936 1.21650E+02 4.48040E+01 0.00000E+00
 -1      1937 1.25400E+02 4.61030E+01 0.00000E+00
 -1      1938 1.26900E+02 4.61030E+01 0.00000E+00
 -1      1939 1.24650E+02 4.48040E+01 0.00000E+00
 -1      1940 1.28400E+02 4.61030E+01 0.00000E+00
 -1      1941 1.29900E+02 4.61030E+01 0.00000E+00
 -1      1942 1.27650E+02 4.48040E+01 0.00000E+00
 -1      1943 1.31400E+02 4.61030E+01 0.00000E+00
 -1      1944 1.32900E+02 4.61030E+01 0.00000E+00
 -1      1945 1.30650E+02 4.48040E+01 0.00000E+00
 -1      1946 1.34400E+02 4.61030E+01 0.00000E+00
 -1      1947 1.35900E+02 4.61030E+01 0.00000E+00
 -1      1948 1.33650E+02 4.48040E+01 0.00000E+00
 -1      1949 1.37400E+02 4.61030E+01 0.00000E+00
 -1      1950 1.38900E+02 4.61030E+01 0.00000E+00
 -1      1951 1.36650E+02 4.48040E+01 0.00000E+00
 -1      1952 1.40400E+02 4.61030E+01 0.00000E+00
 -1      1953 1.41900E+02 4.61030E+01 0.00000E+00
 -1      1954 1.39650E+02 4.48040E+01 0.00000E+00
 -1      1955 1.43244E+02 4.61616E+01 0.00000E+00
 -1      1956 1.44744E+02 4.61616E+01 0.00000E+00
 -1      1957 1.45182E+02 4.49799E+01 0.00000E+00
 -1      1958 1.42494E+02 4.48626E+01 0.00000E+00
 -1      1959 1.17045E+01 3.09687E+00 0.00000E+00
 -1      1960 1.02045E+01 3.09687E+00 0.00000E+00
 -1      1961 1.00350E+01 4.00625E+00 0.00000E+00
 -1      1962 1.47045E+01 3.09687E+00 0.00000E+00
 -1      1963 1.32045E+01 3.09687E+00 0.00000E+00
 -1      1964 1.30350E+01 4.00625E+00 0.00000E+00
 -1      1965 1.77045E+01 3.09687E+00 0.00000E+00
 -1      1966 1.62045E+01 3.09687E+00 0.00000E+00
 -1      1967 1.60350E+01 4.00625E+00 0.00000E+00
 -1      1968 2.07045E+01 3.09687E+00 0.00000E+00
 -1      1969 1.92045E+01 3.09687E+00 0.00000E+00
 -1      1970 1.90350E+01 4.00625E+00 0.00000E+00
 -1      1971 2.37045E+01 3.09687E+00 0.00000E+00
 -1      1972 2.22045E+01 3.09687E+00 0.00000E+00
 -1      1973 2.20350E+01 4.00625E+00 0.00000E+00
 -1      1974 2.67045E+01 3.09687E+00 0.00000E+00
 -1      1975 2.52045E+01 3.09687E+00 0.00000E+00
 -1      1976 2.50350E+01 4.00625E+00 0.00000E+00
 -1      1977 2.97045E+01 3.09687E+00 0.00000E+00
 -1      1978 2.82045E+01 3.09687E+00 0.00000E+00
 -1      1979 2.80350E+01 4.00625E+00 0.00000E+00
 -1      1980 3.27045E+01 3.09687E+00 0.00000E+00
 -1      1981 3.12045E+01 3.09687E+00 0.00000E+00
 -1      1982 3.10350E+01 4.00625E+00 0.00000E+00
 -1      1983 3.57045E+01 3.09687E+00 0.00000E+00
 -1      1984 3.42045E+01 3.09687E+00 0.00000E+00
 -1      1985 3.40350E+01 4.00625E+00 0.00000E+00
 -1      1986 3.87045E+01 3.09687E+00 0.00000E+00
 -1      1987 3.72045E+01 3.09687E+00 0.00000E+00
 -1      1988 3.70350E+01 4.00625E+00 0.00000E+00
 -1      1989 4.17045E+01 3.09687E+00 0.00000E+00
 -1      1990 4.02045E+01 3.09687E+00 0.00000E+00
 -1      1991 4.00350E+01 4.00625E+00 0.00000E+00
 -1      1992 4.47045E+01 3.09687E+00 0.00000E+00
 -1      1993 4.32045E+01 3.09687E+00 0.00000E+00
 -1      1994 4.30350E+01 4.00625E+00 0.00000E+00
 -1      1995 4.77045E+01 3.09687E+00 0.00000E+00
 -1      1996 4.62045E+01 3.09687E+00 0.00000E+00
 -1      1997 4.60350E+01 4.00625E+00 0.00000E+00
 -1      1998 5.07045E+01 3.09687E+00 0.00000E+00
 -1      1999 4.92045E+01 3.09687E+00 0.00000E+00
 -1      2000 4.90350E+01 4.00625E+00 0.00000E+00
 -1      2001 5.37045E+01 3.09687E+00 0.00000E+00
 -1      2002 5.22045E+01 3.09687E+00 0.00000E+00
 -1      2003 5.20350E+01 4.00625E+00 0.00000E+00
 -1      2004 5.67045E+01 3.09687E+00 0.00000E+00
 -1      2005 5.52045E+01 3.09687E+00 0.00000E+00
 -1      2006 5.50350E+01 4.00625E+00 0.00000E+00
 -1      2007 5.97045E+01 3.09687E+00 0.00000E+00
 -1      2008 5.82045E+01 3.09687E+00 0.00000E+00
 -1      2009 5.80350E+01 4.00625E+00 0.00000E+00
 -1      2010 6.27045E+01 3.09687E+00 0.00000E+00
 -1      2011 6.12045E+01 3.09687E+00 0.00000E+00
 -1      2012 6.10350E+01 4.00625E+00 0.00000E+00
 -1      2013 6.57045E+01 3.09687E+00 0.00000E+00
 -1      2014 6.42045E+01 3.09687E+00 0.00000E+00
 -1      2015 6.40350E+01 4.00625E+00 0.00000E+00
 -1      2016 6.87045E+01 3.09687E+00 0.00000E+00
 -1      2017 6.72045E+01 3.09687E+00 0.00000E+00
 -1      2018 6.70350E+01 4.00625E+00 0.00000E+00
 -1      2019 7.17045E+01 3.09687E+00 0.00000E+00
 -1      2020 7.02045E+01 3.09687E+00 0.00000E+00
 -1      2021 7.00350E+01 4.00625E+00 0.00000E+00
 -1      2022 7.47045E+01 3.09687E+00 0.00000E+00
 -1      2023 7.32045E+01 3.09687E+00 0.00000E+00
 -1      2024 7.30350E+01 4.00625E+00 0.00000E+00
 -1      2025 7.77045E+01 3.09687E+00 0.00000E+00
 -1      2026 7.62045E+01 3.09687E+00 0.00000E+00
 -1      2027 7.60350E+01 4.00625E+00 0.00000E+00
 -1      2028 8.07045E+01 3.09687E+00 0.00000E+00
 -1      2029 7.92045E+01 3.09687E+00 0.00000E+00
 -1      2030 7.90350E+01 4.00625E+00 0.00000E+00
 -1      2031 8.37045E+01 3.09687E+00 0.00000E+00
 -1      2032 8.22045E+01 3.09687E+00 0.00000E+00
 -1      2033 8.20350E+01 4.00625E+00 0.00000E+00
 -1      2034 8.67045E+01 3.09687E+00 0.00000E+00
 -1      2035 8.52045E+01 3.09687E+00 0.00000E+00
 -1      2036 8.50350E+01 4.00625E+00 0.00000E+00
 -1      2037 8.97045E+01 3.09687E+00 0.00000E+00
 -1      2038 8.82045E+01 3.09687E+00 0.00000E+00
 -1      2039 8.80350E+01 4.00625E+00 0.00000E+00
 -1      2040 9.27045E+01 3.09687E+00 0.00000E+00
 -1      2041 9.12045E+01 3.09687E+00 0.00000E+00
 -1      2042 9.10350E+01 4.00625E+00 0.00000E+00
 -1      2043 9.57045E+01 3.09687E+00 0.00000E+00
 -1      2044 9.42045E+01 3.09687E+00 0.00000E+00
 -1      2045 9.40350E+01 4.00625E+00 0.00000E+00
 -1      2046 9.87045E+01 3.09687E+00 0.00000E+00
 -1      2047 9.72045E+01 3.09687E+00 0.00000E+00
 -1      2048 9.70350E+01 4.00625E+00 0.00000E+00
 -1      2049 1.01704E+02 3.09687E+00 0.00000E+00
 -1      2050 1.00204E+02 3.09687E+00 0.00000E+00
 -1      2051 1.00035E+02 4.00625E+00 0.00000E+00
 -1      2052 1.04704E+02 3.09687E+00 0.00000E+00
 -1      2053 1.03204E+02 3.09687E+00 0.00000E+00
 -1      2054 1.03035E+02 4.00625E+00 0.00000E+00
 -1      2055 1.07704E+02 3.09687E+00 0.00000E+00
 -1      2056 1.06204E+02 3.09687E+00 0.00000E+00
 -1      2057 1.06035E+02 4.00625E+00 0.00000E+00
 -1      2058 1.10704E+02 3.09687E+00 0.00000E+00
 -1      2059 1.09204E+02 3.09687E+00 0.00000E+00
 -1      2060 1.09035E+02 4.00625E+00 0.00000E+00
 -1      2061 1.13704E+02 3.09687E+00 0.00000E+00
 -1      2062 1.12204E+02 3.09687E+00 0.00000E+00
 -1      2063 1.12035E+02 4.00625E+00 0.00000E+00
 -1      2064 1.16704E+02 3.09687E+00 0.00000E+00
 -1      2065 1.15204E+02 3.09687E+00 0.00000E+00
 -1      2066 1.15035E+02 4.00625E+00 0.00000E+00
 -1      2067 1.19704E+02 3.09687E+00 0.00000E+00
 -1      2068 1.18204E+02 3.09687E+00 0.00000E+00
 -1      2069 1.18035E+02 4.00625E+00 0.00000E+00
 -1      2070 1.22704E+02 3.09687E+00 0.00000E+00
 -1      2071 1.21204E+02 3.09687E+00 0.00000E+00
 -1      2072 1.21035E+02 4.00625E+00 0.00000E+00
 -1      2073 1.25704E+02 3.09687E+00 0.00000E+00
 -1      2074 1.24204E+02 3.09687E+00 0.00000E+00
 -1      2075 1.24035E+02 4.00625E+00 0.00000E+00
 -1      2076 1.28704E+02 3.09687E+00 0.00000E+00
 -1      2077 1.27204E+02 3.09687E+00 0.00000E+00
 -1      2078 1.27035E+02 4.00625E+00 0.00000E+00
 -1      2079 1.31704E+02 3.09687E+00 0.00000E+00
 -1      2080 1.30204E+02 3.09687E+00 0.00000E+00
 -1      2081 1.30035E+02 4.00625E+00 0.00000E+00
 -1      2082 1.34704E+02 3.09687E+00 0.00000E+00
 -1      2083 1.33204E+02 3.09687E+00 0.00000E+00
 -1      2084 1.33035E+02 4.00625E+00 0.00000E+00
 -1      2085 1.37704E+02 3.09687E+00 0.00000E+00
 -1      2086 1.36204E+02 3.09687E+00 0.00000E+00
 -1      2087 1.36035E+02 4.00625E+00 0.00000E+00
 -1      2088 1.40704E+02 3.09687E+00 0.00000E+00
 -1      2089 1.39204E+02 3.09687E+00 0.00000E+00
 -1      2090 1.39035E+02 4.00625E+00 0.00000E+00
 -1      2091 1.43704E+02 3.09687E+00 0.00000E+00
 -1      2092 1.42204E+02 3.09687E+00 0.00000E+00
 -1      2093 1.42035E+02 4.00625E+00 0.00000E+00
 -1      2094 1.46171E+02 3.20156E+00 0.00000E+00
 -1      2095 1.44671E+02 3.20156E+00 0.00000E+00
 -1      2096 1.44502E+02 4.11094E+00 0.00000E+00
 -1      2097 1.46435E+02 4.32031E+00 0.00000E+00
 -1      2098 1.46103E+02 1.25375E+01 0.00000E+00
 -1      2099 1.46103E+02 1.10625E+01 0.00000E+00
 -1      2100 1.46103E+02 9.58750E+00 0.00000E+00
 -1      2101 1.46103E+02 8.11250E+00 0.00000E+00
 -1      2102 1.44804E+02 1.03250E+01 0.00000E+00
 -1      2103 1.46269E+02 6.95391E+00 0.00000E+00
 -1      2104 1.46269E+02 5.47891E+00 0.00000E+00
 -1      2105 1.45302E+02 5.37422E+00 0.00000E+00
 -1      2106 1.44970E+02 7.69141E+00 0.00000E+00
 -1      2107 1.46103E+02 1.54375E+01 0.00000E+00
 -1      2108 1.46103E+02 1.39875E+01 0.00000E+00
 -1      2109 1.44804E+02 1.32500E+01 0.00000E+00
 -1      2110 1.46103E+02 1.83875E+01 0.00000E+00
 -1      2111 1.46103E+02 1.69125E+01 0.00000E+00
 -1      2112 1.44804E+02 1.61750E+01 0.00000E+00
 -1      2113 1.46103E+02 2.13375E+01 0.00000E+00
 -1      2114 1.46103E+02 1.98625E+01 0.00000E+00
 -1      2115 1.44804E+02 1.91250E+01 0.00000E+00
 -1      2116 1.46103E+02 2.42875E+01 0.00000E+00
 -1      2117 1.46103E+02 2.28125E+01 0.00000E+00
 -1      2118 1.44804E+02 2.20750E+01 0.00000E+00
 -1      2119 1.46103E+02 2.72375E+01 0.00000E+00
 -1      2120 1.46103E+02 2.57625E+01 0.00000E+00
 -1      2121 1.44804E+02 2.50250E+01 0.00000E+00
 -1      2122 1.46103E+02 3.01875E+01 0.00000E+00
 -1      2123 1.46103E+02 2.87125E+01 0.00000E+00
 -1      2124 1.44804E+02 2.79750E+01 0.00000E+00
 -1      2125 1.46103E+02 3.30875E+01 0.00000E+00
 -1      2126 1.46103E+02 3.16375E+01 0.00000E+00
 -1      2127 1.44804E+02 3.09000E+01 0.00000E+00
 -1      2128 1.46103E+02 3.60375E+01 0.00000E+00
 -1      2129 1.46103E+02 3.45625E+01 0.00000E+00
 -1      2130 1.44804E+02 3.38250E+01 0.00000E+00
 -1      2131 1.46103E+02 3.89875E+01 0.00000E+00
 -1      2132 1.46103E+02 3.75125E+01 0.00000E+00
 -1      2133 1.44804E+02 3.67750E+01 0.00000E+00
 -1      2134 1.46103E+02 4.19375E+01 0.00000E+00
 -1      2135 1.46103E+02 4.04625E+01 0.00000E+00
 -1      2136 1.44804E+02 3.97250E+01 0.00000E+00
 -1      2137 8.44847E+01 2.42725E+01 0.00000E+00
 -1      2138 8.48479E+01 2.50835E+01 0.00000E+00
 -1      2139 8.53087E+01 2.80207E+01 0.00000E+00
 -1      2140 8.53086E+01 2.88773E+01 0.00000E+00
 -1      2141 8.50279E+01 2.63021E+01 0.00000E+00
 -1      2142 8.51683E+01 2.71614E+01 0.00000E+00
 -1      2143 8.60258E+01 2.75897E+01 0.00000E+00
 -1      2144 8.31669E+01 2.27160E+01 0.00000E+00
 -1      2145 8.37574E+01 2.33779E+01 0.00000E+00
 -1      2146 8.19084E+01 2.13995E+01 0.00000E+00
 -1      2147 8.25377E+01 2.20577E+01 0.00000E+00
 -1      2148 8.34416E+01 2.18458E+01 0.00000E+00
 -1      2149 3.89700E+00 3.74688E+01 0.00000E+00
 -1      2150 3.89700E+00 3.89437E+01 0.00000E+00
 -1      2151 5.19600E+00 3.96813E+01 0.00000E+00
 -1      2152 5.19600E+00 3.67438E+01 0.00000E+00
 -1      2153 7.84484E+01 1.97356E+01 0.00000E+00
 -1      2154 7.92524E+01 2.00595E+01 0.00000E+00
 -1      2155 7.64448E+01 1.94132E+01 0.00000E+00
 -1      2156 7.73222E+01 1.94010E+01 0.00000E+00
 -1      2157 7.47393E+01 1.96429E+01 0.00000E+00
 -1      2158 7.55921E+01 1.95280E+01 0.00000E+00
 -1      2159 7.60189E+01 1.86645E+01 0.00000E+00
 -1      2160 7.28708E+01 2.02210E+01 0.00000E+00
 -1      2161 7.36989E+01 1.99710E+01 0.00000E+00
 -1      2162 7.12032E+01 2.10916E+01 0.00000E+00
 -1      2163 7.19305E+01 2.06433E+01 0.00000E+00
 -1      2164 6.98230E+01 2.23190E+01 0.00000E+00
 -1      2165 7.04444E+01 2.17285E+01 0.00000E+00
 -1      2166 6.86205E+01 2.36318E+01 0.00000E+00
 -1      2167 6.92217E+01 2.29754E+01 0.00000E+00
 -1      2168 6.90861E+01 2.22103E+01 0.00000E+00
 -1      2169 6.77965E+01 2.55293E+01 0.00000E+00
 -1      2170 6.80178E+01 2.46670E+01 0.00000E+00
 -1      2171 6.74032E+01 2.72211E+01 0.00000E+00
 -1      2172 6.75998E+01 2.63752E+01 0.00000E+00
 -1      2173 6.70827E+01 2.57829E+01 0.00000E+00
 -1      2174 6.73706E+01 2.91508E+01 0.00000E+00
 -1      2175 6.73062E+01 2.82915E+01 0.00000E+00
 -1      2176 6.77779E+01 3.09204E+01 0.00000E+00
 -1      2177 6.75438E+01 3.01155E+01 0.00000E+00
 -1      2178 6.83415E+01 3.25943E+01 0.00000E+00
 -1      2179 6.79913E+01 3.18443E+01 0.00000E+00
 -1      2180 6.92673E+01 3.40901E+01 0.00000E+00
 -1      2181 6.88044E+01 3.33422E+01 0.00000E+00
 -1      2182 6.79282E+01 3.32946E+01 0.00000E+00
 -1      2183 7.07908E+01 3.55034E+01 0.00000E+00
 -1      2184 7.00747E+01 3.49893E+01 0.00000E+00
 -1      2185 7.22127E+01 3.64718E+01 0.00000E+00
 -1      2186 7.15017E+01 3.59876E+01 0.00000E+00
 -1      2187 7.07169E+01 3.63251E+01 0.00000E+00
 -1      2188 7.41017E+01 3.71482E+01 0.00000E+00
 -1      2189 7.32629E+01 3.69778E+01 0.00000E+00
 -1      2190 7.58546E+01 3.72322E+01 0.00000E+00
 -1      2191 7.50294E+01 3.71578E+01 0.00000E+00
 -1      2192 7.76675E+01 3.72785E+01 0.00000E+00
 -1      2193 7.67850E+01 3.73019E+01 0.00000E+00
 -1      2194 7.96020E+01 3.66524E+01 0.00000E+00
 -1      2195 7.87834E+01 3.70214E+01 0.00000E+00
 -1      2196 8.12304E+01 3.59231E+01 0.00000E+00
 -1      2197 8.04417E+01 3.63059E+01 0.00000E+00
 -1      2198 8.27023E+01 3.45880E+01 0.00000E+00
 -1      2199 8.21382E+01 3.52328E+01 0.00000E+00
 -1      2200 8.37083E+01 3.31992E+01 0.00000E+00
 -1      2201 8.31996E+01 3.38539E+01 0.00000E+00
 -1      2202 8.46094E+01 3.15863E+01 0.00000E+00
 -1      2203 8.43201E+01 3.23591E+01 0.00000E+00
 -1      2204 8.49729E+01 2.98743E+01 0.00000E+00
 -1      2205 8.47620E+01 3.06858E+01 0.00000E+00
 -1      2206 8.00642E+01 2.04151E+01 0.00000E+00
 -1      2207 8.08760E+01 2.07706E+01 0.00000E+00
 -1      2208 7.99357E+01 1.95743E+01 0.00000E+00
 -1      2209 8.17800E+01 2.05586E+01 0.00000E+00
 -1      2210 6.42300E+00 4.57510E+01 0.00000E+00
 -1      2211 7.41257E+01 1.91074E+01 0.00000E+00
 -1      2212 7.17300E+00 4.44520E+01 0.00000E+00
 -1      2213 8.57054E+01 2.55118E+01 0.00000E+00
 -1      2214 8.47981E+01 2.33986E+01 0.00000E+00
 -1      2215 1.45665E+02 4.31193E+01 0.00000E+00
 -1      2216 8.58305E+01 2.94460E+01 0.00000E+00
 -1      2217 8.53421E+01 3.13435E+01 0.00000E+00
 -1      2218 8.45776E+01 3.30841E+01 0.00000E+00
 -1      2219 8.34684E+01 3.46582E+01 0.00000E+00
 -1      2220 8.20633E+01 3.60826E+01 0.00000E+00
 -1      2221 8.03159E+01 3.71194E+01 0.00000E+00
 -1      2222 7.83604E+01 3.77229E+01 0.00000E+00
 -1      2223 7.63142E+01 3.79102E+01 0.00000E+00
 -1      2224 7.24780E+01 3.73153E+01 0.00000E+00
 -1      2225 6.91985E+01 3.49417E+01 0.00000E+00
 -1      2226 6.72519E+01 3.16228E+01 0.00000E+00
 -1      2227 6.67891E+01 2.76992E+01 0.00000E+00
 -1      2228 6.78821E+01 2.39019E+01 0.00000E+00
 -1      2229 6.77465E+01 2.31368E+01 0.00000E+00
 -1      2230 6.71437E+01 2.41719E+01 0.00000E+00
 -1      2231 7.04461E+01 2.09170E+01 0.00000E+00
 -1      2232 7.79978E+01 1.88842E+01 0.00000E+00
 -1      2233 7.21451E+01 1.98578E+01 0.00000E+00
 -1      2234 6.68653E+01 2.97343E+01 0.00000E+00
 -1      2235 7.44560E+01 3.78309E+01 0.00000E+00
 -1      2236 1.07850E+01 5.30525E+00 0.00000E+00
 -1      2237 9.28500E+00 5.30525E+00 0.00000E+00
 -1      2238 6.49500E+00 3.01125E+01 0.00000E+00
 -1      2239 6.49500E+00 3.15875E+01 0.00000E+00
 -1      2240 6.49500E+00 3.30625E+01 0.00000E+00
 -1      2241 6.49500E+00 3.45375E+01 0.00000E+00
 -1      2242 7.79400E+00 3.23250E+01 0.00000E+00
 -1      2243 6.49500E+00 2.42125E+01 0.00000E+00
 -1      2244 6.49500E+00 2.56875E+01 0.00000E+00
 -1      2245 6.49500E+00 2.12625E+01 0.00000E+00
 -1      2246 6.49500E+00 2.27375E+01 0.00000E+00
 -1      2247 7.79400E+00 2.34750E+01 0.00000E+00
 -1      2248 6.49500E+00 1.83625E+01 0.00000E+00
 -1      2249 6.49500E+00 1.98125E+01 0.00000E+00
 -1      2250 7.79400E+00 2.05500E+01 0.00000E+00
 -1      2251 6.49500E+00 1.54125E+01 0.00000E+00
 -1      2252 6.49500E+00 1.68875E+01 0.00000E+00
 -1      2253 7.79400E+00 1.76250E+01 0.00000E+00
 -1      2254 6.49500E+00 1.24625E+01 0.00000E+00
 -1      2255 6.49500E+00 1.39375E+01 0.00000E+00
 -1      2256 7.79400E+00 1.46750E+01 0.00000E+00
 -1      2257 6.49500E+00 9.51250E+00 0.00000E+00
 -1      2258 6.49500E+00 1.09875E+01 0.00000E+00
 -1      2259 7.79400E+00 1.17250E+01 0.00000E+00
 -1      2260 1.37850E+01 5.30525E+00 0.00000E+00
 -1      2261 1.22850E+01 5.30525E+00 0.00000E+00
 -1      2262 1.15350E+01 6.60425E+00 0.00000E+00
 -1      2263 9.90000E+00 4.35050E+01 0.00000E+00
 -1      2264 1.14000E+01 4.35050E+01 0.00000E+00
 -1      2265 7.33477E+01 1.84536E+01 0.00000E+00
 -1      2266 7.43880E+01 1.81255E+01 0.00000E+00
 -1      2267 8.17970E+01 1.93687E+01 0.00000E+00
 -1      2268 8.28294E+01 1.99976E+01 0.00000E+00
 -1      2269 1.29000E+01 4.35050E+01 0.00000E+00
 -1      2270 1.44000E+01 4.35050E+01 0.00000E+00
 -1      2271 1.21500E+01 4.22060E+01 0.00000E+00
 -1      2272 1.59000E+01 4.35050E+01 0.00000E+00
 -1      2273 1.74000E+01 4.35050E+01 0.00000E+00
 -1      2274 1.51500E+01 4.22060E+01 0.00000E+00
 -1      2275 1.89000E+01 4.35050E+01 0.00000E+00
 -1      2276 2.04000E+01 4.35050E+01 0.00000E+00
 -1      2277 1.81500E+01 4.22060E+01 0.00000E+00
 -1      2278 2.19000E+01 4.35050E+01 0.00000E+00
 -1      2279 2.34000E+01 4.35050E+01 0.00000E+00
 -1      2280 2.11500E+01 4.22060E+01 0.00000E+00
 -1      2281 2.49000E+01 4.35050E+01 0.00000E+00
 -1      2282 2.64000E+01 4.35050E+01 0.00000E+00
 -1      2283 2.41500E+01 4.22060E+01 0.00000E+00
 -1      2284 2.79000E+01 4.35050E+01 0.00000E+00
 -1      2285 2.94000E+01 4.35050E+01 0.00000E+00
 -1      2286 2.71500E+01 4.22060E+01 0.00000E+00
 -1      2287 3.09000E+01 4.35050E+01 0.00000E+00
 -1      2288 3.24000E+01 4.35050E+01 0.00000E+00
 -1      2289 3.01500E+01 4.22060E+01 0.00000E+00
 -1      2290 3.39000E+01 4.35050E+01 0.00000E+00
 -1      2291 3.54000E+01 4.35050E+01 0.00000E+00
 -1      2292 3.31500E+01 4.22060E+01 0.00000E+00
 -1      2293 3.69000E+01 4.35050E+01 0.00000E+00
 -1      2294 3.84000E+01 4.35050E+01 0.00000E+00
 -1      2295 3.61500E+01 4.22060E+01 0.00000E+00
 -1      2296 3.99000E+01 4.35050E+01 0.00000E+00
 -1      2297 4.14000E+01 4.35050E+01 0.00000E+00
 -1      2298 3.91500E+01 4.22060E+01 0.00000E+00
 -1      2299 4.29000E+01 4.35050E+01 0.00000E+00
 -1      2300 4.44000E+01 4.35050E+01 0.00000E+00
 -1      2301 4.21500E+01 4.22060E+01 0.00000E+00
 -1      2302 4.59000E+01 4.35050E+01 0.00000E+00
 -1      2303 4.74000E+01 4.35050E+01 0.00000E+00
 -1      2304 4.51500E+01 4.22060E+01 0.00000E+00
 -1      2305 4.89000E+01 4.35050E+01 0.00000E+00
 -1      2306 5.04000E+01 4.35050E+01 0.00000E+00
 -1      2307 4.81500E+01 4.22060E+01 0.00000E+00
 -1      2308 5.19000E+01 4.35050E+01 0.00000E+00
 -1      2309 5.34000E+01 4.35050E+01 0.00000E+00
 -1      2310 5.11500E+01 4.22060E+01 0.00000E+00
 -1      2311 5.49000E+01 4.35050E+01 0.00000E+00
 -1      2312 5.64000E+01 4.35050E+01 0.00000E+00
 -1      2313 5.41500E+01 4.22060E+01 0.00000E+00
 -1      2314 5.79000E+01 4.35050E+01 0.00000E+00
 -1      2315 5.94000E+01 4.35050E+01 0.00000E+00
 -1      2316 5.71500E+01 4.22060E+01 0.00000E+00
 -1      2317 6.09000E+01 4.35050E+01 0.00000E+00
 -1      2318 6.24000E+01 4.35050E+01 0.00000E+00
 -1      2319 6.01500E+01 4.22060E+01 0.00000E+00
 -1      2320 6.39000E+01 4.35050E+01 0.00000E+00
 -1      2321 6.54000E+01 4.35050E+01 0.00000E+00
 -1      2322 6.31500E+01 4.22060E+01 0.00000E+00
 -1      2323 6.69000E+01 4.35050E+01 0.00000E+00
 -1      2324 6.84000E+01 4.35050E+01 0.00000E+00
 -1      2325 6.61500E+01 4.22060E+01 0.00000E+00
 -1      2326 6.99000E+01 4.35050E+01 0.00000E+00
 -1      2327 7.14000E+01 4.35050E+01 0.00000E+00
 -1      2328 6.91500E+01 4.22060E+01 0.00000E+00
 -1      2329 7.29000E+01 4.35050E+01 0.00000E+00
 -1      2330 7.44000E+01 4.35050E+01 0.00000E+00
 -1      2331 7.21500E+01 4.22060E+01 0.00000E+00
 -1      2332 7.59000E+01 4.35050E+01 0.00000E+00
 -1      2333 7.74000E+01 4.35050E+01 0.00000E+00
 -1      2334 7.51500E+01 4.22060E+01 0.00000E+00
 -1      2335 7.89000E+01 4.35050E+01 0.00000E+00
 -1      2336 8.04000E+01 4.35050E+01 0.00000E+00
 -1      2337 7.81500E+01 4.22060E+01 0.00000E+00
 -1      2338 8.19000E+01 4.35050E+01 0.00000E+00
 -1      2339 8.34000E+01 4.35050E+01 0.00000E+00
 -1      2340 8.11500E+01 4.22060E+01 0.00000E+00
 -1      2341 8.49000E+01 4.35050E+01 0.00000E+00
 -1      2342 8.64000E+01 4.35050E+01 0.00000E+00
 -1      2343 8.41500E+01 4.22060E+01 0.00000E+00
 -1      2344 8.79000E+01 4.35050E+01 0.00000E+00
 -1      2345 8.94000E+01 4.35050E+01 0.00000E+00
 -1      2346 8.71500E+01 4.22060E+01 0.00000E+00
 -1      2347 9.09000E+01 4.35050E+01 0.00000E+00
 -1      2348 9.24000E+01 4.35050E+01 0.00000E+00
 -1      2349 9.01500E+01 4.22060E+01 0.00000E+00
 -1      2350 9.39000E+01 4.35050E+01 0.00000E+00
 -1      2351 9.54000E+01 4.35050E+01 0.00000E+00
 -1      2352 9.31500E+01 4.22060E+01 0.00000E+00
 -1      2353 9.69000E+01 4.35050E+01 0.00000E+00
 -1      2354 9.84000E+01 4.35050E+01 0.00000E+00
 -1      2355 9.61500E+01 4.22060E+01 0.00000E+00
 -1      2356 9.99000E+01 4.35050E+01 0.00000E+00
 -1      2357 1.01400E+02 4.35050E+01 0.00000E+00
 -1      2358 9.91500E+01 4.22060E+01 0.00000E+00
 -1      2359 1.02900E+02 4.35050E+01 0.00000E+00
 -1      2360 1.04400E+02 4.35050E+01 0.00000E+00
 -1      2361 1.02150E+02 4.22060E+01 0.00000E+00
 -1      2362 1.05900E+02 4.35050E+01 0.00000E+00
 -1      2363 1.07400E+02 4.35050E+01 0.00000E+00
 -1      2364 1.05150E+02 4.22060E+01 0.00000E+00
 -1      2365 1.08900E+02 4.35050E+01 0.00000E+00
 -1      2366 1.10400E+02 4.35050E+01 0.00000E+00
 -1      2367 1.08150E+02 4.22060E+01 0.00000E+00
 -1      2368 1.11900E+02 4.35050E+01 0.00000E+00
 -1      2369 1.13400E+02 4.35050E+01 0.00000E+00
 -1      2370 1.11150E+02 4.22060E+01 0.00000E+00
 -1      2371 1.14900E+02 4.35050E+01 0.00000E+00
 -1      2372 1.16400E+02 4.35050E+01 0.00000E+00
 -1      2373 1.14150E+02 4.22060E+01 0.00000E+00
 -1      2374 1.17900E+02 4.35050E+01 0.00000E+00
 -1      2375 1.19400E+02 4.35050E+01 0.00000E+00
 -1      2376 1.17150E+02 4.22060E+01 0.00000E+00
 -1      2377 1.20900E+02 4.35050E+01 0.00000E+00
 -1      2378 1.22400E+02 4.35050E+01 0.00000E+00
 -1      2379 1.20150E+02 4.22060E+01 0.00000E+00
 -1      2380 1.23900E+02 4.35050E+01 0.00000E+00
 -1      2381 1.25400E+02 4.35050E+01 0.00000E+00
 -1      2382 1.23150E+02 4.22060E+01 0.00000E+00
 -1      2383 1.26900E+02 4.35050E+01 0.00000E+00
 -1      2384 1.28400E+02 4.35050E+01 0.00000E+00
 -1      2385 1.26150E+02 4.22060E+01 0.00000E+00
 -1      2386 1.29900E+02 4.35050E+01 0.00000E+00
 -1      2387 1.31400E+02 4.35050E+01 0.00000E+00
 -1      2388 1.29150E+02 4.22060E+01 0.00000E+00
 -1      2389 1.32900E+02 4.35050E+01 0.00000E+00
 -1      2390 1.34400E+02 4.35050E+01 0.00000E+00
 -1      2391 1.32150E+02 4.22060E+01 0.00000E+00
 -1      2392 1.35900E+02 4.35050E+01 0.00000E+00
 -1      2393 1.37400E+02 4.35050E+01 0.00000E+00
 -1      2394 1.35150E+02 4.22060E+01 0.00000E+00
 -1      2395 1.38900E+02 4.35050E+01 0.00000E+00
 -1      2396 1.40400E+02 4.35050E+01 0.00000E+00
 -1      2397 1.38150E+02 4.22060E+01 0.00000E+00
 -1      2398 1.97850E+01 5.30525E+00 0.00000E+00
 -1      2399 1.82850E+01 5.30525E+00 0.00000E+00
 -1      2400 2.27850E+01 5.30525E+00 0.00000E+00
 -1      2401 2.12850E+01 5.30525E+00 0.00000E+00
 -1      2402 2.05350E+01 6.60425E+00 0.00000E+00
 -1      2403 2.57850E+01 5.30525E+00 0.00000E+00
 -1      2404 2.42850E+01 5.30525E+00 0.00000E+00
 -1      2405 2.35350E+01 6.60425E+00 0.00000E+00
 -1      2406 2.87850E+01 5.30525E+00 0.00000E+00
 -1      2407 2.72850E+01 5.30525E+00 0.00000E+00
 -1      2408 2.65350E+01 6.60425E+00 0.00000E+00
 -1      2409 3.17850E+01 5.30525E+00 0.00000E+00
 -1      2410 3.02850E+01 5.30525E+00 0.00000E+00
 -1      2411 2.95350E+01 6.60425E+00 0.00000E+00
 -1      2412 3.47850E+01 5.30525E+00 0.00000E+00
 -1      2413 3.32850E+01 5.30525E+00 0.00000E+00
 -1      2414 3.25350E+01 6.60425E+00 0.00000E+00
 -1      2415 3.77850E+01 5.30525E+00 0.00000E+00
 -1      2416 3.62850E+01 5.30525E+00 0.00000E+00
 -1      2417 3.55350E+01 6.60425E+00 0.00000E+00
 -1      2418 4.07850E+01 5.30525E+00 0.00000E+00
 -1      2419 3.92850E+01 5.30525E+00 0.00000E+00
 -1      2420 3.85350E+01 6.60425E+00 0.00000E+00
 -1      2421 4.37850E+01 5.30525E+00 0.00000E+00
 -1      2422 4.22850E+01 5.30525E+00 0.00000E+00
 -1      2423 4.15350E+01 6.60425E+00 0.00000E+00
 -1      2424 4.67850E+01 5.30525E+00 0.00000E+00
 -1      2425 4.52850E+01 5.30525E+00 0.00000E+00
 -1      2426 4.45350E+01 6.60425E+00 0.00000E+00
 -1      2427 4.97850E+01 5.30525E+00 0.00000E+00
 -1      2428 4.82850E+01 5.30525E+00 0.00000E+00
 -1      2429 4.75350E+01 6.60425E+00 0.00000E+00
 -1      2430 5.27850E+01 5.30525E+00 0.00000E+00
 -1      2431 5.12850E+01 5.30525E+00 0.00000E+00
 -1      2432 5.05350E+01 6.60425E+00 0.00000E+00
 -1      2433 5.57850E+01 5.30525E+00 0.00000E+00
 -1      2434 5.42850E+01 5.30525E+00 0.00000E+00
 -1      2435 5.35350E+01 6.60425E+00 0.00000E+00
 -1      2436 5.87850E+01 5.30525E+00 0.00000E+00
 -1      2437 5.72850E+01 5.30525E+00 0.00000E+00
 -1      2438 5.65350E+01 6.60425E+00 0.00000E+00
 -1      2439 6.17850E+01 5.30525E+00 0.00000E+00
 -1      2440 6.02850E+01 5.30525E+00 0.00000E+00
 -1      2441 5.95350E+01 6.60425E+00 0.00000E+00
 -1      2442 6.47850E+01 5.30525E+00 0.00000E+00
 -1      2443 6.32850E+01 5.30525E+00 0.00000E+00
 -1      2444 6.25350E+01 6.60425E+00 0.00000E+00
 -1      2445 6.77850E+01 5.30525E+00 0.00000E+00
 -1      2446 6.62850E+01 5.30525E+00 0.00000E+00
 -1      2447 6.55350E+01 6.60425E+00 0.00000E+00
 -1      2448 7.07850E+01 5.30525E+00 0.00000E+00
 -1      2449 6.92850E+01 5.30525E+00 0.00000E+00
 -1      2450 6.85350E+01 6.60425E+00 0.00000E+00
 -1      2451 7.37850E+01 5.30525E+00 0.00000E+00
 -1      2452 7.22850E+01 5.30525E+00 0.00000E+00
 -1      2453 7.15350E+01 6.60425E+00 0.00000E+00
 -1      2454 7.67850E+01 5.30525E+00 0.00000E+00
 -1      2455 7.52850E+01 5.30525E+00 0.00000E+00
 -1      2456 7.45350E+01 6.60425E+00 0.00000E+00
 -1      2457 7.97850E+01 5.30525E+00 0.00000E+00
 -1      2458 7.82850E+01 5.30525E+00 0.00000E+00
 -1      2459 7.75350E+01 6.60425E+00 0.00000E+00
 -1      2460 8.27850E+01 5.30525E+00 0.00000E+00
 -1      2461 8.12850E+01 5.30525E+00 0.00000E+00
 -1      2462 8.05350E+01 6.60425E+00 0.00000E+00
 -1      2463 8.57850E+01 5.30525E+00 0.00000E+00
 -1      2464 8.42850E+01 5.30525E+00 0.00000E+00
 -1      2465 8.35350E+01 6.60425E+00 0.00000E+00
 -1      2466 8.87850E+01 5.30525E+00 0.00000E+00
 -1      2467 8.72850E+01 5.30525E+00 0.00000E+00
 -1      2468 8.65350E+01 6.60425E+00 0.00000E+00
 -1      2469 9.17850E+01 5.30525E+00 0.00000E+00
 -1      2470 9.02850E+01 5.30525E+00 0.00000E+00
 -1      2471 8.95350E+01 6.60425E+00 0.00000E+00
 -1      2472 9.47850E+01 5.30525E+00 0.00000E+00
 -1      2473 9.32850E+01 5.30525E+00 0.00000E+00
 -1      2474 9.25350E+01 6.60425E+00 0.00000E+00
 -1      2475 9.77850E+01 5.30525E+00 0.00000E+00
 -1      2476 9.62850E+01 5.30525E+00 0.00000E+00
 -1      2477 9.55350E+01 6.60425E+00 0.00000E+00
 -1      2478 1.00785E+02 5.30525E+00 0.00000E+00
 -1      2479 9.92850E+01 5.30525E+00 0.00000E+00
 -1      2480 9.85350E+01 6.60425E+00 0.00000E+00
 -1      2481 1.03785E+02 5.30525E+00 0.00000E+00
 -1      2482 1.02285E+02 5.30525E+00 0.00000E+00
 -1      2483 1.01535E+02 6.60425E+00 0.00000E+00
 -1      2484 1.06785E+02 5.30525E+00 0.00000E+00
 -1      2485 1.05285E+02 5.30525E+00 0.00000E+00
 -1      2486 1.04535E+02 6.60425E+00 0.00000E+00
 -1      2487 1.09785E+02 5.30525E+00 0.00000E+00
 -1      2488 1.08285E+02 5.30525E+00 0.00000E+00
 -1      2489 1.07535E+02 6.60425E+00 0.00000E+00
 -1      2490 1.12785E+02 5.30525E+00 0.00000E+00
 -1      2491 1.11285E+02 5.30525E+00 0.00000E+00
 -1      2492 1.10535E+02 6.60425E+00 0.00000E+00
 -1      2493 1.15785E+02 5.30525E+00 0.00000E+00
 -1      2494 1.14285E+02 5.30525E+00 0.00000E+00
 -1      2495 1.13535E+02 6.60425E+00 0.00000E+00
 -1      2496 1.18785E+02 5.30525E+00 0.00000E+00
 -1      2497 1.17285E+02 5.30525E+00 0.00000E+00
 -1      2498 1.16535E+02 6.60425E+00 0.00000E+00
 -1      2499 1.21785E+02 5.30525E+00 0.00000E+00
 -1      2500 1.20285E+02 5.30525E+00 0.00000E+00
 -1      2501 1.19535E+02 6.60425E+00 0.00000E+00
 -1      2502 1.24785E+02 5.30525E+00 0.00000E+00
 -1      2503 1.23285E+02 5.30525E+00 0.00000E+00
 -1      2504 1.22535E+02 6.60425E+00 0.00000E+00
 -1      2505 1.27785E+02 5.30525E+00 0.00000E+00
 -1      2506 1.26285E+02 5.30525E+00 0.00000E+00
 -1      2507 1.25535E+02 6.60425E+00 0.00000E+00
 -1      2508 1.30785E+02 5.30525E+00 0.00000E+00
 -1      2509 1.29285E+02 5.30525E+00 0.00000E+00
 -1      2510 1.28535E+02 6.60425E+00 0.00000E+00
 -1      2511 1.33785E+02 5.30525E+00 0.00000E+00
 -1      2512 1.32285E+02 5.30525E+00 0.00000E+00
 -1      2513 1.31535E+02 6.60425E+00 0.00000E+00
 -1      2514 1.36785E+02 5.30525E+00 0.00000E+00
 -1      2515 1.35285E+02 5.30525E+00 0.00000E+00
 -1      2516 1.34535E+02 6.60425E+00 0.00000E+00
 -1      2517 1.39785E+02 5.30525E+00 0.00000E+00
 -1      2518 1.38285E+02 5.30525E+00 0.00000E+00
 -1      2519 1.37535E+02 6.60425E+00 0.00000E+00
 -1      2520 1.42785E+02 5.30525E+00 0.00000E+00
 -1      2521 1.41285E+02 5.30525E+00 0.00000E+00
 -1      2522 1.40535E+02 6.60425E+00 0.00000E+00
 -1      2523 1.44336E+02 5.26953E+00 0.00000E+00
 -1      2524 1.43505E+02 1.69125E+01 0.00000E+00
 -1      2525 1.43505E+02 1.54375E+01 0.00000E+00
 -1      2526 1.43505E+02 1.98625E+01 0.00000E+00
 -1      2527 1.43505E+02 1.83875E+01 0.00000E+00
 -1      2528 1.42206E+02 1.76500E+01 0.00000E+00
 -1      2529 1.43505E+02 1.10625E+01 0.00000E+00
 -1      2530 1.43505E+02 9.58750E+00 0.00000E+00
 -1      2531 1.43505E+02 1.39750E+01 0.00000E+00
 -1      2532 1.43505E+02 1.25250E+01 0.00000E+00
 -1      2533 1.42206E+02 1.17875E+01 0.00000E+00
 -1      2534 1.42206E+02 1.47125E+01 0.00000E+00
 -1      2535 1.43505E+02 2.28125E+01 0.00000E+00
 -1      2536 1.43505E+02 2.13375E+01 0.00000E+00
 -1      2537 1.42206E+02 2.06000E+01 0.00000E+00
 -1      2538 1.43505E+02 2.57625E+01 0.00000E+00
 -1      2539 1.43505E+02 2.42875E+01 0.00000E+00
 -1      2540 1.42206E+02 2.35500E+01 0.00000E+00
 -1      2541 1.43505E+02 2.87125E+01 0.00000E+00
 -1      2542 1.43505E+02 2.72375E+01 0.00000E+00
 -1      2543 1.42206E+02 2.65000E+01 0.00000E+00
 -1      2544 1.43505E+02 3.16125E+01 0.00000E+00
 -1      2545 1.43505E+02 3.01625E+01 0.00000E+00
 -1      2546 1.42206E+02 2.94250E+01 0.00000E+00
 -1      2547 1.43505E+02 3.45625E+01 0.00000E+00
 -1      2548 1.43505E+02 3.30875E+01 0.00000E+00
 -1      2549 1.42206E+02 3.23500E+01 0.00000E+00
 -1      2550 1.43505E+02 3.75125E+01 0.00000E+00
 -1      2551 1.43505E+02 3.60375E+01 0.00000E+00
 -1      2552 1.42206E+02 3.53000E+01 0.00000E+00
 -1      2553 1.43505E+02 4.04625E+01 0.00000E+00
 -1      2554 1.43505E+02 3.89875E+01 0.00000E+00
 -1      2555 1.42206E+02 3.82500E+01 0.00000E+00
 -1      2556 8.52949E+01 2.22518E+01 0.00000E+00
 -1      2557 8.60222E+01 2.31464E+01 0.00000E+00
 -1      2558 1.44321E+02 4.30606E+01 0.00000E+00
 -1      2559 8.67317E+01 2.91945E+01 0.00000E+00
 -1      2560 8.63959E+01 3.01915E+01 0.00000E+00
 -1      2561 1.67850E+01 5.30525E+00 0.00000E+00
 -1      2562 1.52850E+01 5.30525E+00 0.00000E+00
 -1      2563 1.75350E+01 6.60425E+00 0.00000E+00
 -1      2564 8.67193E+01 2.70353E+01 0.00000E+00
 -1      2565 8.68597E+01 2.78946E+01 0.00000E+00
 -1      2566 8.37476E+01 2.07956E+01 0.00000E+00
 -1      2567 8.43768E+01 2.14538E+01 0.00000E+00
 -1      2568 8.56009E+01 2.12016E+01 0.00000E+00
 -1      2569 8.37646E+01 1.96056E+01 0.00000E+00
 -1      2570 7.98570E+01 1.86493E+01 0.00000E+00
 -1      2571 8.06689E+01 1.90049E+01 0.00000E+00
 -1      2572 8.62432E+01 3.10920E+01 0.00000E+00
 -1      2573 8.60906E+01 3.19924E+01 0.00000E+00
 -1      2574 8.71444E+01 3.08404E+01 0.00000E+00
 -1      2575 6.65230E+01 3.22777E+01 0.00000E+00
 -1      2576 6.63097E+01 3.13538E+01 0.00000E+00
 -1      2577 6.94615E+01 2.05145E+01 0.00000E+00
 -1      2578 7.02202E+01 1.98776E+01 0.00000E+00
 -1      2579 6.49500E+00 2.71625E+01 0.00000E+00
 -1      2580 6.49500E+00 2.86375E+01 0.00000E+00
 -1      2581 7.79400E+00 2.93750E+01 0.00000E+00
 -1      2582 7.79400E+00 2.64250E+01 0.00000E+00
 -1      2583 6.55950E+00 4.28890E+01 0.00000E+00
 -1      2584 8.53650E+00 4.32410E+01 0.00000E+00
 -1      2585 9.28650E+00 4.19420E+01 0.00000E+00
 -1      2586 6.55950E+00 4.14140E+01 0.00000E+00
 -1      2587 7.13236E+01 1.92867E+01 0.00000E+00
 -1      2588 7.22639E+01 1.88644E+01 0.00000E+00
 -1      2589 7.54556E+01 1.77060E+01 0.00000E+00
 -1      2590 7.63084E+01 1.75911E+01 0.00000E+00
 -1      2591 6.61365E+01 3.03892E+01 0.00000E+00
 -1      2592 6.59632E+01 2.94245E+01 0.00000E+00
 -1      2593 6.54076E+01 3.10441E+01 0.00000E+00
 -1      2594 7.76789E+01 1.78948E+01 0.00000E+00
 -1      2595 7.88051E+01 1.82294E+01 0.00000E+00
 -1      2596 6.82590E+01 2.18273E+01 0.00000E+00
 -1      2597 6.88602E+01 2.11709E+01 0.00000E+00
 -1      2598 6.86344E+01 2.01314E+01 0.00000E+00
 -1      2599 6.63123E+01 2.60496E+01 0.00000E+00
 -1      2600 6.65090E+01 2.52037E+01 0.00000E+00
 -1      2601 7.49115E+01 3.86513E+01 0.00000E+00
 -1      2602 7.39838E+01 3.86417E+01 0.00000E+00
 -1      2603 6.58866E+01 2.81570E+01 0.00000E+00
 -1      2604 6.59835E+01 2.70867E+01 0.00000E+00
 -1      2605 6.74661E+01 3.40978E+01 0.00000E+00
 -1      2606 6.70032E+01 3.33499E+01 0.00000E+00
 -1      2607 6.88395E+01 3.60762E+01 0.00000E+00
 -1      2608 6.80321E+01 3.51770E+01 0.00000E+00
 -1      2609 7.05896E+01 3.72760E+01 0.00000E+00
 -1      2610 6.98786E+01 3.67917E+01 0.00000E+00
 -1      2611 7.26491E+01 3.83031E+01 0.00000E+00
 -1      2612 7.15989E+01 3.77971E+01 0.00000E+00
 -1      2613 7.67723E+01 3.87908E+01 0.00000E+00
 -1      2614 7.58419E+01 3.87210E+01 0.00000E+00
 -1      2615 7.53696E+01 3.95318E+01 0.00000E+00
 -1      2616 7.91484E+01 3.85934E+01 0.00000E+00
 -1      2617 7.80326E+01 3.88504E+01 0.00000E+00
 -1      2618 8.10629E+01 3.77389E+01 0.00000E+00
 -1      2619 8.02232E+01 3.80854E+01 0.00000E+00
 -1      2620 8.30109E+01 3.63867E+01 0.00000E+00
 -1      2621 8.21032E+01 3.70770E+01 0.00000E+00
 -1      2622 8.43923E+01 3.47487E+01 0.00000E+00
 -1      2623 8.38950E+01 3.54827E+01 0.00000E+00
 -1      2624 8.56160E+01 3.30685E+01 0.00000E+00
 -1      2625 8.50042E+01 3.39086E+01 0.00000E+00
 -1      2626 8.54308E+01 3.47331E+01 0.00000E+00
 -1      2627 8.63592E+01 2.45981E+01 0.00000E+00
 -1      2628 8.65393E+01 2.58167E+01 0.00000E+00
 -1      2629 8.73731E+01 2.61216E+01 0.00000E+00
 -1      2630 8.07525E+00 5.11044E+00 0.00000E+00
 -1      2631 6.57525E+00 5.11044E+00 0.00000E+00
 -1      2632 6.40575E+00 6.01981E+00 0.00000E+00
 -1      2633 8.82525E+00 6.40944E+00 0.00000E+00
 -1      2634 7.79400E+00 3.52687E+01 0.00000E+00
 -1      2635 6.49500E+00 3.60062E+01 0.00000E+00
 -1      2636 6.49500E+00 3.74750E+01 0.00000E+00
 -1      2637 1.45350E+01 6.60425E+00 0.00000E+00
 -1      2638 6.40575E+00 7.49481E+00 0.00000E+00
 -1      2639 8.65172E+01 3.28170E+01 0.00000E+00
 -1      2640 8.39349E+01 3.64772E+01 0.00000E+00
 -1      2641 7.03390E+01 1.88841E+01 0.00000E+00
 -1      2642 7.46776E+01 1.70521E+01 0.00000E+00
 -1      2643 8.17183E+01 1.84438E+01 0.00000E+00
 -1      2644 8.20105E+01 3.80430E+01 0.00000E+00
 -1      2645 7.95382E+01 1.76600E+01 0.00000E+00
 -1      2646 7.75603E+01 3.96612E+01 0.00000E+00
 -1      2647 1.43586E+02 6.56853E+00 0.00000E+00
 -1      2648 1.43419E+02 7.72713E+00 0.00000E+00
 -1      2649 7.31046E+01 3.91235E+01 0.00000E+00
 -1      2650 8.68560E+01 2.34513E+01 0.00000E+00
 -1      2651 1.42758E+02 4.35929E+01 0.00000E+00
 -1      2652 1.43241E+02 4.17323E+01 0.00000E+00
 -1      2653 1.41942E+02 4.09948E+01 0.00000E+00
 -1      2654 1.41414E+02 4.35342E+01 0.00000E+00
 -1      2655 7.07607E+01 3.82638E+01 0.00000E+00
 -1      2656 8.74251E+01 2.86401E+01 0.00000E+00
 -1      2657 8.79905E+01 2.93855E+01 0.00000E+00
 -1      2658 8.81186E+01 2.80857E+01 0.00000E+00
 -1      2659 7.70475E+00 8.23231E+00 0.00000E+00
 -1      2660 6.87122E+01 3.70270E+01 0.00000E+00
 -1      2661 6.52725E+00 3.87101E+01 0.00000E+00
 -1      2662 6.52725E+00 4.01789E+01 0.00000E+00
 -1      2663 7.89075E+00 4.04429E+01 0.00000E+00
 -1      2664 7.82625E+00 3.79726E+01 0.00000E+00
 -1      2665 6.60609E+01 3.30809E+01 0.00000E+00
 -1      2666 6.71071E+01 3.52323E+01 0.00000E+00
 -1      2667 6.51577E+01 2.88119E+01 0.00000E+00
 -1      2668 6.75206E+01 2.20974E+01 0.00000E+00
 -1      2669 6.72948E+01 2.10579E+01 0.00000E+00
 -1      2670 6.67822E+01 2.23674E+01 0.00000E+00
 -1      2671 6.56029E+01 2.47054E+01 0.00000E+00
 -1      2672 6.63733E+01 2.44387E+01 0.00000E+00
 -1      2673 6.62377E+01 2.36736E+01 0.00000E+00
 -1      2674 7.25262E+01 1.78825E+01 0.00000E+00
 -1      2675 7.71157E+01 1.69363E+01 0.00000E+00
 -1      2676 6.54098E+01 2.65075E+01 0.00000E+00
 -1      2677 7.98954E+01 3.92129E+01 0.00000E+00
 -1      2678 1.42120E+02 8.46463E+00 0.00000E+00
 -1      2679 1.40664E+02 4.22352E+01 0.00000E+00
 -1      2680 9.25425E+00 4.07069E+01 0.00000E+00
 -1      2681 1.06178E+01 4.09709E+01 0.00000E+00
 -1      2682 9.22200E+00 3.94717E+01 0.00000E+00
 -1      2683 9.09300E+00 1.98250E+01 0.00000E+00
 -1      2684 9.09300E+00 2.12750E+01 0.00000E+00
 -1      2685 9.09300E+00 2.27500E+01 0.00000E+00
 -1      2686 9.09300E+00 2.42250E+01 0.00000E+00
 -1      2687 1.03920E+01 2.20250E+01 0.00000E+00
 -1      2688 9.09300E+00 1.39375E+01 0.00000E+00
 -1      2689 9.09300E+00 1.54125E+01 0.00000E+00
 -1      2690 9.09300E+00 1.09875E+01 0.00000E+00
 -1      2691 9.09300E+00 1.24625E+01 0.00000E+00
 -1      2692 1.03920E+01 1.32000E+01 0.00000E+00
 -1      2693 1.22850E+01 7.90325E+00 0.00000E+00
 -1      2694 1.07850E+01 7.90325E+00 0.00000E+00
 -1      2695 6.86029E+01 3.82981E+01 0.00000E+00
 -1      2696 6.75637E+01 3.75826E+01 0.00000E+00
 -1      2697 8.81314E+01 2.53870E+01 0.00000E+00
 -1      2698 8.83115E+01 2.66056E+01 0.00000E+00
 -1      2699 1.44000E+01 4.09070E+01 0.00000E+00
 -1      2700 1.59000E+01 4.09070E+01 0.00000E+00
 -1      2701 1.74000E+01 4.09070E+01 0.00000E+00
 -1      2702 1.89000E+01 4.09070E+01 0.00000E+00
 -1      2703 1.66500E+01 3.96080E+01 0.00000E+00
 -1      2704 2.04000E+01 4.09070E+01 0.00000E+00
 -1      2705 2.19000E+01 4.09070E+01 0.00000E+00
 -1      2706 1.96500E+01 3.96080E+01 0.00000E+00
 -1      2707 2.34000E+01 4.09070E+01 0.00000E+00
 -1      2708 2.49000E+01 4.09070E+01 0.00000E+00
 -1      2709 2.26500E+01 3.96080E+01 0.00000E+00
 -1      2710 2.64000E+01 4.09070E+01 0.00000E+00
 -1      2711 2.79000E+01 4.09070E+01 0.00000E+00
 -1      2712 2.56500E+01 3.96080E+01 0.00000E+00
 -1      2713 2.94000E+01 4.09070E+01 0.00000E+00
 -1      2714 3.09000E+01 4.09070E+01 0.00000E+00
 -1      2715 2.86500E+01 3.96080E+01 0.00000E+00
 -1      2716 3.24000E+01 4.09070E+01 0.00000E+00
 -1      2717 3.39000E+01 4.09070E+01 0.00000E+00
 -1      2718 3.16500E+01 3.96080E+01 0.00000E+00
 -1      2719 3.54000E+01 4.09070E+01 0.00000E+00
 -1      2720 3.69000E+01 4.09070E+01 0.00000E+00
 -1      2721 3.46500E+01 3.96080E+01 0.00000E+00
 -1      2722 3.84000E+01 4.09070E+01 0.00000E+00
 -1      2723 3.99000E+01 4.09070E+01 0.00000E+00
 -1      2724 3.76500E+01 3.96080E+01 0.00000E+00
 -1      2725 4.14000E+01 4.09070E+01 0.00000E+00
 -1      2726 4.29000E+01 4.09070E+01 0.00000E+00
 -1      2727 4.06500E+01 3.96080E+01 0.00000E+00
 -1      2728 4.44000E+01 4.09070E+01 0.00000E+00
 -1      2729 4.59000E+01 4.09070E+01 0.00000E+00
 -1      2730 4.36500E+01 3.96080E+01 0.00000E+00
 -1      2731 4.74000E+01 4.09070E+01 0.00000E+00
 -1      2732 4.89000E+01 4.09070E+01 0.00000E+00
 -1      2733 4.66500E+01 3.96080E+01 0.00000E+00
 -1      2734 5.04000E+01 4.09070E+01 0.00000E+00
 -1      2735 5.19000E+01 4.09070E+01 0.00000E+00
 -1      2736 4.96500E+01 3.96080E+01 0.00000E+00
 -1      2737 5.34000E+01 4.09070E+01 0.00000E+00
 -1      2738 5.49000E+01 4.09070E+01 0.00000E+00
 -1      2739 5.26500E+01 3.96080E+01 0.00000E+00
 -1      2740 5.64000E+01 4.09070E+01 0.00000E+00
 -1      2741 5.79000E+01 4.09070E+01 0.00000E+00
 -1      2742 5.56500E+01 3.96080E+01 0.00000E+00
 -1      2743 5.94000E+01 4.09070E+01 0.00000E+00
 -1      2744 6.09000E+01 4.09070E+01 0.00000E+00
 -1      2745 5.86500E+01 3.96080E+01 0.00000E+00
 -1      2746 6.24000E+01 4.09070E+01 0.00000E+00
 -1      2747 6.39000E+01 4.09070E+01 0.00000E+00
 -1      2748 6.16500E+01 3.96080E+01 0.00000E+00
 -1      2749 6.60522E+01 4.05298E+01 0.00000E+00
 -1      2750 6.75522E+01 4.05298E+01 0.00000E+00
 -1      2751 6.90522E+01 4.05298E+01 0.00000E+00
 -1      2752 7.12100E+01 4.04955E+01 0.00000E+00
 -1      2753 7.27100E+01 4.04955E+01 0.00000E+00
 -1      2754 7.77353E+01 4.09634E+01 0.00000E+00
 -1      2755 7.92353E+01 4.09634E+01 0.00000E+00
 -1      2756 8.34000E+01 4.10971E+01 0.00000E+00
 -1      2757 8.49000E+01 4.10971E+01 0.00000E+00
 -1      2758 8.64000E+01 4.10971E+01 0.00000E+00
 -1      2759 8.79000E+01 4.10971E+01 0.00000E+00
 -1      2760 8.56500E+01 3.99882E+01 0.00000E+00
 -1      2761 8.94000E+01 4.10971E+01 0.00000E+00
 -1      2762 9.09000E+01 4.10971E+01 0.00000E+00
 -1      2763 8.86500E+01 3.99882E+01 0.00000E+00
 -1      2764 9.24000E+01 4.10971E+01 0.00000E+00
 -1      2765 9.39000E+01 4.10971E+01 0.00000E+00
 -1      2766 9.16500E+01 3.99882E+01 0.00000E+00
 -1      2767 9.54000E+01 4.10971E+01 0.00000E+00
 -1      2768 9.69000E+01 4.10971E+01 0.00000E+00
 -1      2769 9.46500E+01 3.99882E+01 0.00000E+00
 -1      2770 9.84000E+01 4.10971E+01 0.00000E+00
 -1      2771 9.99000E+01 4.10971E+01 0.00000E+00
 -1      2772 9.76500E+01 3.99882E+01 0.00000E+00
 -1      2773 1.01400E+02 4.10971E+01 0.00000E+00
 -1      2774 1.02900E+02 4.10971E+01 0.00000E+00
 -1      2775 1.00650E+02 3.99882E+01 0.00000E+00
 -1      2776 1.04400E+02 4.10971E+01 0.00000E+00
 -1      2777 1.05900E+02 4.10971E+01 0.00000E+00
 -1      2778 1.03650E+02 3.99882E+01 0.00000E+00
 -1      2779 1.07400E+02 4.10971E+01 0.00000E+00
 -1      2780 1.08900E+02 4.10971E+01 0.00000E+00
 -1      2781 1.06650E+02 3.99882E+01 0.00000E+00
 -1      2782 1.10400E+02 4.10971E+01 0.00000E+00
 -1      2783 1.11900E+02 4.10971E+01 0.00000E+00
 -1      2784 1.09650E+02 3.99882E+01 0.00000E+00
 -1      2785 1.13400E+02 4.10971E+01 0.00000E+00
 -1      2786 1.14900E+02 4.10971E+01 0.00000E+00
 -1      2787 1.12650E+02 3.99882E+01 0.00000E+00
 -1      2788 1.16400E+02 4.10971E+01 0.00000E+00
 -1      2789 1.17900E+02 4.10971E+01 0.00000E+00
 -1      2790 1.15650E+02 3.99882E+01 0.00000E+00
 -1      2791 1.19400E+02 4.10971E+01 0.00000E+00
 -1      2792 1.20900E+02 4.10971E+01 0.00000E+00
 -1      2793 1.18650E+02 3.99882E+01 0.00000E+00
 -1      2794 1.22400E+02 4.10971E+01 0.00000E+00
 -1      2795 1.23900E+02 4.10971E+01 0.00000E+00
 -1      2796 1.21650E+02 3.99882E+01 0.00000E+00
 -1      2797 1.25400E+02 4.10971E+01 0.00000E+00
 -1      2798 1.26900E+02 4.10971E+01 0.00000E+00
 -1      2799 1.24650E+02 3.99882E+01 0.00000E+00
 -1      2800 1.28400E+02 4.10971E+01 0.00000E+00
 -1      2801 1.29900E+02 4.10971E+01 0.00000E+00
 -1      2802 1.27650E+02 3.99882E+01 0.00000E+00
 -1      2803 1.31400E+02 4.10971E+01 0.00000E+00
 -1      2804 1.32900E+02 4.10971E+01 0.00000E+00
 -1      2805 1.30650E+02 3.99882E+01 0.00000E+00
 -1      2806 1.34400E+02 4.10971E+01 0.00000E+00
 -1      2807 1.35900E+02 4.10971E+01 0.00000E+00
 -1      2808 1.33650E+02 3.99882E+01 0.00000E+00
 -1      2809 1.37400E+02 4.10971E+01 0.00000E+00
 -1      2810 1.38900E+02 4.10971E+01 0.00000E+00
 -1      2811 1.36650E+02 3.99882E+01 0.00000E+00
 -1      2812 2.42850E+01 7.90325E+00 0.00000E+00
 -1      2813 2.27850E+01 7.90325E+00 0.00000E+00
 -1      2814 2.12850E+01 7.90325E+00 0.00000E+00
 -1      2815 1.97850E+01 7.90325E+00 0.00000E+00
 -1      2816 2.20350E+01 9.20225E+00 0.00000E+00
 -1      2817 3.02850E+01 7.90325E+00 0.00000E+00
 -1      2818 2.87850E+01 7.90325E+00 0.00000E+00
 -1      2819 3.32850E+01 7.90325E+00 0.00000E+00
 -1      2820 3.17850E+01 7.90325E+00 0.00000E+00
 -1      2821 3.10350E+01 9.20225E+00 0.00000E+00
 -1      2822 3.62850E+01 7.90325E+00 0.00000E+00
 -1      2823 3.47850E+01 7.90325E+00 0.00000E+00
 -1      2824 3.40350E+01 9.20225E+00 0.00000E+00
 -1      2825 3.92850E+01 7.90325E+00 0.00000E+00
 -1      2826 3.77850E+01 7.90325E+00 0.00000E+00
 -1      2827 3.70350E+01 9.20225E+00 0.00000E+00
 -1      2828 4.22850E+01 7.90325E+00 0.00000E+00
 -1      2829 4.07850E+01 7.90325E+00 0.00000E+00
 -1      2830 4.00350E+01 9.20225E+00 0.00000E+00
 -1      2831 4.52850E+01 7.90325E+00 0.00000E+00
 -1      2832 4.37850E+01 7.90325E+00 0.00000E+00
 -1      2833 4.30350E+01 9.20225E+00 0.00000E+00
 -1      2834 4.82850E+01 7.90325E+00 0.00000E+00
 -1      2835 4.67850E+01 7.90325E+00 0.00000E+00
 -1      2836 4.60350E+01 9.20225E+00 0.00000E+00
 -1      2837 5.12850E+01 7.90325E+00 0.00000E+00
 -1      2838 4.97850E+01 7.90325E+00 0.00000E+00
 -1      2839 4.90350E+01 9.20225E+00 0.00000E+00
 -1      2840 5.42850E+01 7.90325E+00 0.00000E+00
 -1      2841 5.27850E+01 7.90325E+00 0.00000E+00
 -1      2842 5.20350E+01 9.20225E+00 0.00000E+00
 -1      2843 5.72850E+01 7.90325E+00 0.00000E+00
 -1      2844 5.57850E+01 7.90325E+00 0.00000E+00
 -1      2845 5.50350E+01 9.20225E+00 0.00000E+00
 -1      2846 6.02850E+01 7.90325E+00 0.00000E+00
 -1      2847 5.87850E+01 7.90325E+00 0.00000E+00
 -1      2848 5.80350E+01 9.20225E+00 0.00000E+00
 -1      2849 6.32850E+01 7.90325E+00 0.00000E+00
 -1      2850 6.17850E+01 7.90325E+00 0.00000E+00
 -1      2851 6.10350E+01 9.20225E+00 0.00000E+00
 -1      2852 6.62850E+01 7.90325E+00 0.00000E+00
 -1      2853 6.47850E+01 7.90325E+00 0.00000E+00
 -1      2854 6.40350E+01 9.20225E+00 0.00000E+00
 -1      2855 6.92850E+01 7.90325E+00 0.00000E+00
 -1      2856 6.77850E+01 7.90325E+00 0.00000E+00
 -1      2857 6.70350E+01 9.20225E+00 0.00000E+00
 -1      2858 7.22850E+01 7.90325E+00 0.00000E+00
 -1      2859 7.07850E+01 7.90325E+00 0.00000E+00
 -1      2860 7.00350E+01 9.20225E+00 0.00000E+00
 -1      2861 7.52850E+01 7.90325E+00 0.00000E+00
 -1      2862 7.37850E+01 7.90325E+00 0.00000E+00
 -1      2863 7.30350E+01 9.20225E+00 0.00000E+00
 -1      2864 7.82850E+01 7.90325E+00 0.00000E+00
 -1      2865 7.67850E+01 7.90325E+00 0.00000E+00
 -1      2866 7.60350E+01 9.20225E+00 0.00000E+00
 -1      2867 8.12850E+01 7.90325E+00 0.00000E+00
 -1      2868 7.97850E+01 7.90325E+00 0.00000E+00
 -1      2869 7.90350E+01 9.20225E+00 0.00000E+00
 -1      2870 8.42850E+01 7.90325E+00 0.00000E+00
 -1      2871 8.27850E+01 7.90325E+00 0.00000E+00
 -1      2872 8.20350E+01 9.20225E+00 0.00000E+00
 -1      2873 8.72850E+01 7.90325E+00 0.00000E+00
 -1      2874 8.57850E+01 7.90325E+00 0.00000E+00
 -1      2875 8.50350E+01 9.20225E+00 0.00000E+00
 -1      2876 9.02850E+01 7.90325E+00 0.00000E+00
 -1      2877 8.87850E+01 7.90325E+00 0.00000E+00
 -1      2878 8.80350E+01 9.20225E+00 0.00000E+00
 -1      2879 9.32850E+01 7.90325E+00 0.00000E+00
 -1      2880 9.17850E+01 7.90325E+00 0.00000E+00
 -1      2881 9.10350E+01 9.20225E+00 0.00000E+00
 -1      2882 9.62850E+01 7.90325E+00 0.00000E+00
 -1      2883 9.47850E+01 7.90325E+00 0.00000E+00
 -1      2884 9.40350E+01 9.20225E+00 0.00000E+00
 -1      2885 9.92850E+01 7.90325E+00 0.00000E+00
 -1      2886 9.77850E+01 7.90325E+00 0.00000E+00
 -1      2887 9.70350E+01 9.20225E+00 0.00000E+00
 -1      2888 1.02285E+02 7.90325E+00 0.00000E+00
 -1      2889 1.00785E+02 7.90325E+00 0.00000E+00
 -1      2890 1.00035E+02 9.20225E+00 0.00000E+00
 -1      2891 1.05285E+02 7.90325E+00 0.00000E+00
 -1      2892 1.03785E+02 7.90325E+00 0.00000E+00
 -1      2893 1.03035E+02 9.20225E+00 0.00000E+00
 -1      2894 1.08285E+02 7.90325E+00 0.00000E+00
 -1      2895 1.06785E+02 7.90325E+00 0.00000E+00
 -1      2896 1.06035E+02 9.20225E+00 0.00000E+00
 -1      2897 1.11285E+02 7.90325E+00 0.00000E+00
 -1      2898 1.09785E+02 7.90325E+00 0.00000E+00
 -1      2899 1.09035E+02 9.20225E+00 0.00000E+00
 -1      2900 1.14285E+02 7.90325E+00 0.00000E+00
 -1      2901 1.12785E+02 7.90325E+00 0.00000E+00
 -1      2902 1.12035E+02 9.20225E+00 0.00000E+00
 -1      2903 1.17285E+02 7.90325E+00 0.00000E+00
 -1      2904 1.15785E+02 7.90325E+00 0.00000E+00
 -1      2905 1.15035E+02 9.20225E+00 0.00000E+00
 -1      2906 1.20285E+02 7.90325E+00 0.00000E+00
 -1      2907 1.18785E+02 7.90325E+00 0.00000E+00
 -1      2908 1.18035E+02 9.20225E+00 0.00000E+00
 -1      2909 1.23285E+02 7.90325E+00 0.00000E+00
 -1      2910 1.21785E+02 7.90325E+00 0.00000E+00
 -1      2911 1.21035E+02 9.20225E+00 0.00000E+00
 -1      2912 1.26285E+02 7.90325E+00 0.00000E+00
 -1      2913 1.24785E+02 7.90325E+00 0.00000E+00
 -1      2914 1.24035E+02 9.20225E+00 0.00000E+00
 -1      2915 1.29285E+02 7.90325E+00 0.00000E+00
 -1      2916 1.27785E+02 7.90325E+00 0.00000E+00
 -1      2917 1.27035E+02 9.20225E+00 0.00000E+00
 -1      2918 1.32285E+02 7.90325E+00 0.00000E+00
 -1      2919 1.30785E+02 7.90325E+00 0.00000E+00
 -1      2920 1.30035E+02 9.20225E+00 0.00000E+00
 -1      2921 1.35285E+02 7.90325E+00 0.00000E+00
 -1      2922 1.33785E+02 7.90325E+00 0.00000E+00
 -1      2923 1.33035E+02 9.20225E+00 0.00000E+00
 -1      2924 1.38285E+02 7.90325E+00 0.00000E+00
 -1      2925 1.36785E+02 7.90325E+00 0.00000E+00
 -1      2926 1.36035E+02 9.20225E+00 0.00000E+00
 -1      2927 1.40953E+02 8.18394E+00 0.00000E+00
 -1      2928 1.39453E+02 8.18394E+00 0.00000E+00
 -1      2929 1.38703E+02 9.48294E+00 0.00000E+00
 -1      2930 1.41038E+02 1.00443E+01 0.00000E+00
 -1      2931 1.40907E+02 2.42875E+01 0.00000E+00
 -1      2932 1.40907E+02 2.28125E+01 0.00000E+00
 -1      2933 1.39914E+02 4.10313E+01 0.00000E+00
 -1      2934 1.40928E+02 4.10605E+01 0.00000E+00
 -1      2935 1.41192E+02 3.97908E+01 0.00000E+00
 -1      2936 1.39164E+02 3.99224E+01 0.00000E+00
 -1      2937 1.40907E+02 1.83875E+01 0.00000E+00
 -1      2938 1.40907E+02 1.69125E+01 0.00000E+00
 -1      2939 1.40907E+02 2.72375E+01 0.00000E+00
 -1      2940 1.40907E+02 2.57625E+01 0.00000E+00
 -1      2941 1.39608E+02 2.50250E+01 0.00000E+00
 -1      2942 1.40907E+02 2.13375E+01 0.00000E+00
 -1      2943 1.40907E+02 1.98625E+01 0.00000E+00
 -1      2944 1.39608E+02 1.91250E+01 0.00000E+00
 -1      2945 1.39608E+02 2.20750E+01 0.00000E+00
 -1      2946 1.82850E+01 7.90325E+00 0.00000E+00
 -1      2947 1.67850E+01 7.90325E+00 0.00000E+00
 -1      2948 1.90350E+01 9.20225E+00 0.00000E+00
 -1      2949 1.40907E+02 3.01375E+01 0.00000E+00
 -1      2950 1.40907E+02 2.86875E+01 0.00000E+00
 -1      2951 1.39608E+02 2.79500E+01 0.00000E+00
 -1      2952 1.40907E+02 3.30875E+01 0.00000E+00
 -1      2953 1.40907E+02 3.16125E+01 0.00000E+00
 -1      2954 1.39608E+02 3.08750E+01 0.00000E+00
 -1      2955 1.40907E+02 3.60375E+01 0.00000E+00
 -1      2956 1.40907E+02 3.45625E+01 0.00000E+00
 -1      2957 1.39608E+02 3.38250E+01 0.00000E+00
 -1      2958 1.41049E+02 3.86516E+01 0.00000E+00
 -1      2959 1.41049E+02 3.71766E+01 0.00000E+00
 -1      2960 1.39751E+02 3.64391E+01 0.00000E+00
 -1      2961 1.40036E+02 3.87174E+01 0.00000E+00
 -1      2962 7.64750E+01 4.09038E+01 0.00000E+00
 -1      2963 8.76924E+01 3.26926E+01 0.00000E+00
 -1      2964 8.72178E+01 3.37687E+01 0.00000E+00
 -1      2965 8.79836E+01 3.05195E+01 0.00000E+00
 -1      2966 8.78310E+01 3.14200E+01 0.00000E+00
 -1      2967 8.49900E+01 3.66248E+01 0.00000E+00
 -1      2968 8.41059E+01 3.75287E+01 0.00000E+00
 -1      2969 7.40446E+01 4.08341E+01 0.00000E+00
 -1      2970 2.72850E+01 7.90325E+00 0.00000E+00
 -1      2971 2.57850E+01 7.90325E+00 0.00000E+00
 -1      2972 2.50350E+01 9.20225E+00 0.00000E+00
 -1      2973 2.80350E+01 9.20225E+00 0.00000E+00
 -1      2974 7.38301E+01 1.64638E+01 0.00000E+00
 -1      2975 7.48977E+01 1.60442E+01 0.00000E+00
 -1      2976 1.17589E+01 4.09389E+01 0.00000E+00
 -1      2977 1.32589E+01 4.09389E+01 0.00000E+00
 -1      2978 1.40089E+01 3.96399E+01 0.00000E+00
 -1      2979 1.17266E+01 3.97038E+01 0.00000E+00
 -1      2980 7.16626E+01 1.72853E+01 0.00000E+00
 -1      2981 7.27463E+01 1.68746E+01 0.00000E+00
 -1      2982 7.29665E+01 1.58666E+01 0.00000E+00
 -1      2983 8.29910E+01 3.84356E+01 0.00000E+00
 -1      2984 8.19507E+01 3.90974E+01 0.00000E+00
 -1      2985 6.46501E+01 3.16779E+01 0.00000E+00
 -1      2986 6.44769E+01 3.07133E+01 0.00000E+00
 -1      2987 7.66341E+01 1.58654E+01 0.00000E+00
 -1      2988 7.80046E+01 1.61692E+01 0.00000E+00
 -1      2989 1.52850E+01 7.90325E+00 0.00000E+00
 -1      2990 1.37850E+01 7.90325E+00 0.00000E+00
 -1      2991 1.30350E+01 9.20225E+00 0.00000E+00
 -1      2992 1.60350E+01 9.20225E+00 0.00000E+00
 -1      2993 9.09300E+00 1.68813E+01 0.00000E+00
 -1      2994 9.09300E+00 1.83563E+01 0.00000E+00
 -1      2995 1.03920E+01 1.90812E+01 0.00000E+00
 -1      2996 1.03920E+01 1.61437E+01 0.00000E+00
 -1      2997 8.14175E+01 1.74457E+01 0.00000E+00
 -1      2998 8.25456E+01 1.78096E+01 0.00000E+00
 -1      2999 9.09300E+00 3.15875E+01 0.00000E+00
 -1      3000 9.09300E+00 3.30625E+01 0.00000E+00
 -1      3001 6.44679E+01 2.67794E+01 0.00000E+00
 -1      3002 6.47967E+01 2.57424E+01 0.00000E+00
 -1      3003 6.75160E+01 1.97107E+01 0.00000E+00
 -1      3004 6.81173E+01 1.90542E+01 0.00000E+00
 -1      3005 8.77677E+01 2.24747E+01 0.00000E+00
 -1      3006 8.81047E+01 2.39264E+01 0.00000E+00
 -1      3007 8.03101E+01 4.04554E+01 0.00000E+00
 -1      3008 6.66306E+01 3.61702E+01 0.00000E+00
 -1      3009 6.60646E+01 3.50910E+01 0.00000E+00
 -1      3010 6.44002E+01 2.94458E+01 0.00000E+00
 -1      3011 6.43235E+01 2.81784E+01 0.00000E+00
 -1      3012 6.36428E+01 3.00797E+01 0.00000E+00
 -1      3013 8.91450E+00 8.42712E+00 0.00000E+00
 -1      3014 6.55566E+01 3.39504E+01 0.00000E+00
 -1      3015 6.50764E+01 3.28782E+01 0.00000E+00
 -1      3016 7.93135E+01 1.66058E+01 0.00000E+00
 -1      3017 8.03655E+01 1.70258E+01 0.00000E+00
 -1      3018 8.11928E+01 1.63915E+01 0.00000E+00
 -1      3019 6.93034E+01 1.82759E+01 0.00000E+00
 -1      3020 7.04068E+01 1.76850E+01 0.00000E+00
 -1      3021 8.64299E+01 3.48179E+01 0.00000E+00
 -1      3022 8.58181E+01 3.56580E+01 0.00000E+00
 -1      3023 8.18101E+01 4.04554E+01 0.00000E+00
 -1      3024 7.06269E+01 1.66771E+01 0.00000E+00
 -1      3025 1.03920E+01 2.49750E+01 0.00000E+00
 -1      3026 9.09300E+00 2.57000E+01 0.00000E+00
 -1      3027 9.09300E+00 2.71750E+01 0.00000E+00
 -1      3028 6.65213E+01 3.74413E+01 0.00000E+00
 -1      3029 8.96352E+01 2.66164E+01 0.00000E+00
 -1      3030 8.88769E+01 2.73510E+01 0.00000E+00
 -1      3031 8.94423E+01 2.80965E+01 0.00000E+00
 -1      3032 9.09300E+00 3.45313E+01 0.00000E+00
 -1      3033 9.09300E+00 3.60000E+01 0.00000E+00
 -1      3034 1.03920E+01 3.37938E+01 0.00000E+00
 -1      3035 6.53022E+01 3.92308E+01 0.00000E+00
 -1      3036 6.96122E+01 3.88193E+01 0.00000E+00
 -1      3037 6.50801E+01 3.48883E+01 0.00000E+00
 -1      3038 1.39608E+02 1.61875E+01 0.00000E+00
 -1      3039 1.40907E+02 1.54500E+01 0.00000E+00
 -1      3040 1.40907E+02 1.39875E+01 0.00000E+00
 -1      3041 7.49392E+01 1.46887E+01 0.00000E+00
 -1      3042 7.57866E+01 1.52771E+01 0.00000E+00
 -1      3043 7.66756E+01 1.45099E+01 0.00000E+00
 -1      3044 1.40973E+02 1.27472E+01 0.00000E+00
 -1      3045 1.40973E+02 1.12847E+01 0.00000E+00
 -1      3046 1.39805E+02 1.10040E+01 0.00000E+00
 -1      3047 1.39674E+02 1.34847E+01 0.00000E+00
 -1      3048 8.76051E+01 3.46936E+01 0.00000E+00
 -1      3049 8.86771E+01 2.99651E+01 0.00000E+00
 -1      3050 8.59891E+01 3.67096E+01 0.00000E+00
 -1      3051 6.67777E+01 1.99807E+01 0.00000E+00
 -1      3052 8.85316E+01 3.23717E+01 0.00000E+00
 -1      3053 8.75377E+01 2.12007E+01 0.00000E+00
 -1      3054 8.87864E+01 2.16758E+01 0.00000E+00
 -1      3055 8.57014E+01 1.96048E+01 0.00000E+00
 -1      3056 8.66196E+01 2.04027E+01 0.00000E+00
 -1      3057 8.76383E+01 1.96039E+01 0.00000E+00
 -1      3058 8.40461E+01 3.85832E+01 0.00000E+00
 -1      3059 6.60118E+01 2.26341E+01 0.00000E+00
 -1      3060 6.57860E+01 2.15947E+01 0.00000E+00
 -1      3061 6.52414E+01 2.29008E+01 0.00000E+00
 -1      3062 6.46610E+01 2.49773E+01 0.00000E+00
 -1      3063 6.45254E+01 2.42123E+01 0.00000E+00
 -1      3064 6.37191E+01 2.52493E+01 0.00000E+00
 -1      3065 8.36645E+01 1.83082E+01 0.00000E+00
 -1      3066 8.45826E+01 1.91062E+01 0.00000E+00
 -1      3067 8.56013E+01 1.83073E+01 0.00000E+00
 -1      3068 8.33636E+01 1.73101E+01 0.00000E+00
 -1      3069 6.41458E+01 3.25474E+01 0.00000E+00
 -1      3070 9.66450E+00 9.72612E+00 0.00000E+00
 -1      3071 9.09300E+00 2.86437E+01 0.00000E+00
 -1      3072 9.09300E+00 3.01187E+01 0.00000E+00
 -1      3073 1.03920E+01 3.08563E+01 0.00000E+00
 -1      3074 1.03920E+01 2.79188E+01 0.00000E+00
 -1      3075 7.88319E+01 1.55349E+01 0.00000E+00
 -1      3076 6.37104E+01 2.74133E+01 0.00000E+00
 -1      3077 6.30973E+01 2.66483E+01 0.00000E+00
 -1      3078 6.29530E+01 2.80472E+01 0.00000E+00
 -1      3079 8.90431E+01 2.44104E+01 0.00000E+00
 -1      3080 6.81850E+01 1.78551E+01 0.00000E+00
 -1      3081 7.57770E+01 4.03383E+01 0.00000E+00
 -1      3082 7.48466E+01 4.02686E+01 0.00000E+00
 -1      3083 1.09635E+01 1.04636E+01 0.00000E+00
 -1      3084 1.16910E+01 1.24625E+01 0.00000E+00
 -1      3085 1.16910E+01 1.39375E+01 0.00000E+00
 -1      3086 7.20613E+01 1.51134E+01 0.00000E+00
 -1      3087 7.31450E+01 1.47027E+01 0.00000E+00
 -1      3088 1.89000E+01 3.83090E+01 0.00000E+00
 -1      3089 2.04000E+01 3.83090E+01 0.00000E+00
 -1      3090 2.19000E+01 3.83090E+01 0.00000E+00
 -1      3091 2.34000E+01 3.83090E+01 0.00000E+00
 -1      3092 2.11500E+01 3.70100E+01 0.00000E+00
 -1      3093 2.49000E+01 3.83090E+01 0.00000E+00
 -1      3094 2.64000E+01 3.83090E+01 0.00000E+00
 -1      3095 2.41500E+01 3.70100E+01 0.00000E+00
 -1      3096 2.79000E+01 3.83090E+01 0.00000E+00
 -1      3097 2.94000E+01 3.83090E+01 0.00000E+00
 -1      3098 2.71500E+01 3.70100E+01 0.00000E+00
 -1      3099 3.09000E+01 3.83090E+01 0.00000E+00
 -1      3100 3.24000E+01 3.83090E+01 0.00000E+00
 -1      3101 3.01500E+01 3.70100E+01 0.00000E+00
 -1      3102 3.39000E+01 3.83090E+01 0.00000E+00
 -1      3103 3.54000E+01 3.83090E+01 0.00000E+00
 -1      3104 3.31500E+01 3.70100E+01 0.00000E+00
 -1      3105 3.69000E+01 3.83090E+01 0.00000E+00
 -1      3106 3.84000E+01 3.83090E+01 0.00000E+00
 -1      3107 3.61500E+01 3.70100E+01 0.00000E+00
 -1      3108 3.99000E+01 3.83090E+01 0.00000E+00
 -1      3109 4.14000E+01 3.83090E+01 0.00000E+00
 -1      3110 3.91500E+01 3.70100E+01 0.00000E+00
 -1      3111 4.29000E+01 3.83090E+01 0.00000E+00
 -1      3112 4.44000E+01 3.83090E+01 0.00000E+00
 -1      3113 4.21500E+01 3.70100E+01 0.00000E+00
 -1      3114 4.59000E+01 3.83090E+01 0.00000E+00
 -1      3115 4.74000E+01 3.83090E+01 0.00000E+00
 -1      3116 4.51500E+01 3.70100E+01 0.00000E+00
 -1      3117 4.89000E+01 3.83090E+01 0.00000E+00
 -1      3118 5.04000E+01 3.83090E+01 0.00000E+00
 -1      3119 4.81500E+01 3.70100E+01 0.00000E+00
 -1      3120 5.19000E+01 3.83090E+01 0.00000E+00
 -1      3121 5.34000E+01 3.83090E+01 0.00000E+00
 -1      3122 5.11500E+01 3.70100E+01 0.00000E+00
 -1      3123 5.49000E+01 3.83090E+01 0.00000E+00
 -1      3124 5.64000E+01 3.83090E+01 0.00000E+00
 -1      3125 5.41500E+01 3.70100E+01 0.00000E+00
 -1      3126 5.79000E+01 3.83090E+01 0.00000E+00
 -1      3127 5.94000E+01 3.83090E+01 0.00000E+00
 -1      3128 5.71500E+01 3.70100E+01 0.00000E+00
 -1      3129 6.09000E+01 3.83090E+01 0.00000E+00
 -1      3130 6.24000E+01 3.83090E+01 0.00000E+00
 -1      3131 6.01500E+01 3.70100E+01 0.00000E+00
 -1      3132 6.44742E+01 3.58416E+01 0.00000E+00
 -1      3133 6.39662E+01 3.47010E+01 0.00000E+00
 -1      3134 7.44520E+01 4.16405E+01 0.00000E+00
 -1      3135 7.59520E+01 4.16405E+01 0.00000E+00
 -1      3136 6.95497E+01 1.59128E+01 0.00000E+00
 -1      3137 7.08055E+01 1.55131E+01 0.00000E+00
 -1      3138 7.09840E+01 1.43491E+01 0.00000E+00
 -1      3139 8.79000E+01 3.87117E+01 0.00000E+00
 -1      3140 8.94000E+01 3.87117E+01 0.00000E+00
 -1      3141 9.09000E+01 3.87117E+01 0.00000E+00
 -1      3142 9.24000E+01 3.87117E+01 0.00000E+00
 -1      3143 9.01500E+01 3.74352E+01 0.00000E+00
 -1      3144 9.39000E+01 3.87117E+01 0.00000E+00
 -1      3145 9.54000E+01 3.87117E+01 0.00000E+00
 -1      3146 9.31500E+01 3.74352E+01 0.00000E+00
 -1      3147 9.69000E+01 3.87117E+01 0.00000E+00
 -1      3148 9.84000E+01 3.87117E+01 0.00000E+00
 -1      3149 9.61500E+01 3.74352E+01 0.00000E+00
 -1      3150 9.99000E+01 3.87117E+01 0.00000E+00
 -1      3151 1.01400E+02 3.87117E+01 0.00000E+00
 -1      3152 9.91500E+01 3.74352E+01 0.00000E+00
 -1      3153 1.02900E+02 3.87117E+01 0.00000E+00
 -1      3154 1.04400E+02 3.87117E+01 0.00000E+00
 -1      3155 1.02150E+02 3.74352E+01 0.00000E+00
 -1      3156 1.05900E+02 3.87117E+01 0.00000E+00
 -1      3157 1.07400E+02 3.87117E+01 0.00000E+00
 -1      3158 1.05150E+02 3.74352E+01 0.00000E+00
 -1      3159 1.08900E+02 3.87117E+01 0.00000E+00
 -1      3160 1.10400E+02 3.87117E+01 0.00000E+00
 -1      3161 1.08150E+02 3.74352E+01 0.00000E+00
 -1      3162 1.11900E+02 3.87117E+01 0.00000E+00
 -1      3163 1.13400E+02 3.87117E+01 0.00000E+00
 -1      3164 1.11150E+02 3.74352E+01 0.00000E+00
 -1      3165 1.14900E+02 3.87117E+01 0.00000E+00
 -1      3166 1.16400E+02 3.87117E+01 0.00000E+00
 -1      3167 1.14150E+02 3.74352E+01 0.00000E+00
 -1      3168 1.17900E+02 3.87117E+01 0.00000E+00
 -1      3169 1.19400E+02 3.87117E+01 0.00000E+00
 -1      3170 1.17150E+02 3.74352E+01 0.00000E+00
 -1      3171 1.20900E+02 3.87117E+01 0.00000E+00
 -1      3172 1.22400E+02 3.87117E+01 0.00000E+00
 -1      3173 1.20150E+02 3.74352E+01 0.00000E+00
 -1      3174 1.23900E+02 3.87117E+01 0.00000E+00
 -1      3175 1.25400E+02 3.87117E+01 0.00000E+00
 -1      3176 1.23150E+02 3.74352E+01 0.00000E+00
 -1      3177 1.26900E+02 3.87117E+01 0.00000E+00
 -1      3178 1.28400E+02 3.87117E+01 0.00000E+00
 -1      3179 1.26150E+02 3.74352E+01 0.00000E+00
 -1      3180 1.29900E+02 3.87117E+01 0.00000E+00
 -1      3181 1.31400E+02 3.87117E+01 0.00000E+00
 -1      3182 1.29150E+02 3.74352E+01 0.00000E+00
 -1      3183 1.32900E+02 3.87117E+01 0.00000E+00
 -1      3184 1.34400E+02 3.87117E+01 0.00000E+00
 -1      3185 1.32150E+02 3.74352E+01 0.00000E+00
 -1      3186 1.35900E+02 3.87117E+01 0.00000E+00
 -1      3187 1.37400E+02 3.87117E+01 0.00000E+00
 -1      3188 1.35150E+02 3.74352E+01 0.00000E+00
 -1      3189 1.38309E+02 2.86750E+01 0.00000E+00
 -1      3190 1.38309E+02 2.72250E+01 0.00000E+00
 -1      3191 3.47850E+01 1.05013E+01 0.00000E+00
 -1      3192 3.32850E+01 1.05013E+01 0.00000E+00
 -1      3193 3.17850E+01 1.05013E+01 0.00000E+00
 -1      3194 3.02850E+01 1.05013E+01 0.00000E+00
 -1      3195 3.25350E+01 1.18003E+01 0.00000E+00
 -1      3196 4.07850E+01 1.05013E+01 0.00000E+00
 -1      3197 3.92850E+01 1.05013E+01 0.00000E+00
 -1      3198 4.37850E+01 1.05013E+01 0.00000E+00
 -1      3199 4.22850E+01 1.05013E+01 0.00000E+00
 -1      3200 4.15350E+01 1.18003E+01 0.00000E+00
 -1      3201 4.67850E+01 1.05013E+01 0.00000E+00
 -1      3202 4.52850E+01 1.05013E+01 0.00000E+00
 -1      3203 4.45350E+01 1.18003E+01 0.00000E+00
 -1      3204 4.97850E+01 1.05013E+01 0.00000E+00
 -1      3205 4.82850E+01 1.05013E+01 0.00000E+00
 -1      3206 4.75350E+01 1.18003E+01 0.00000E+00
 -1      3207 5.27850E+01 1.05013E+01 0.00000E+00
 -1      3208 5.12850E+01 1.05013E+01 0.00000E+00
 -1      3209 5.05350E+01 1.18003E+01 0.00000E+00
 -1      3210 5.57850E+01 1.05013E+01 0.00000E+00
 -1      3211 5.42850E+01 1.05013E+01 0.00000E+00
 -1      3212 5.35350E+01 1.18003E+01 0.00000E+00
 -1      3213 5.87850E+01 1.05013E+01 0.00000E+00
 -1      3214 5.72850E+01 1.05013E+01 0.00000E+00
 -1      3215 5.65350E+01 1.18003E+01 0.00000E+00
 -1      3216 6.17850E+01 1.05013E+01 0.00000E+00
 -1      3217 6.02850E+01 1.05013E+01 0.00000E+00
 -1      3218 5.95350E+01 1.18003E+01 0.00000E+00
 -1      3219 6.47850E+01 1.05013E+01 0.00000E+00
 -1      3220 6.32850E+01 1.05013E+01 0.00000E+00
 -1      3221 6.25350E+01 1.18003E+01 0.00000E+00
 -1      3222 6.77850E+01 1.05013E+01 0.00000E+00
 -1      3223 6.62850E+01 1.05013E+01 0.00000E+00
 -1      3224 6.55350E+01 1.18003E+01 0.00000E+00
 -1      3225 7.37850E+01 1.05013E+01 0.00000E+00
 -1      3226 7.22850E+01 1.05013E+01 0.00000E+00
 -1      3227 7.66816E+01 1.15619E+01 0.00000E+00
 -1      3228 7.51816E+01 1.15619E+01 0.00000E+00
 -1      3229 8.27850E+01 1.05013E+01 0.00000E+00
 -1      3230 8.12850E+01 1.05013E+01 0.00000E+00
 -1      3231 8.57850E+01 1.05013E+01 0.00000E+00
 -1      3232 8.42850E+01 1.05013E+01 0.00000E+00
 -1      3233 8.35350E+01 1.18003E+01 0.00000E+00
 -1      3234 8.87850E+01 1.05013E+01 0.00000E+00
 -1      3235 8.72850E+01 1.05013E+01 0.00000E+00
 -1      3236 8.65350E+01 1.18003E+01 0.00000E+00
 -1      3237 9.17850E+01 1.05013E+01 0.00000E+00
 -1      3238 9.02850E+01 1.05013E+01 0.00000E+00
 -1      3239 8.95350E+01 1.18003E+01 0.00000E+00
 -1      3240 9.47850E+01 1.05013E+01 0.00000E+00
 -1      3241 9.32850E+01 1.05013E+01 0.00000E+00
 -1      3242 9.25350E+01 1.18003E+01 0.00000E+00
 -1      3243 9.77850E+01 1.05013E+01 0.00000E+00
 -1      3244 9.62850E+01 1.05013E+01 0.00000E+00
 -1      3245 9.55350E+01 1.18003E+01 0.00000E+00
 -1      3246 1.00785E+02 1.05013E+01 0.00000E+00
 -1      3247 9.92850E+01 1.05013E+01 0.00000E+00
 -1      3248 9.85350E+01 1.18003E+01 0.00000E+00
 -1      3249 1.03785E+02 1.05013E+01 0.00000E+00
 -1      3250 1.02285E+02 1.05013E+01 0.00000E+00
 -1      3251 1.01535E+02 1.18003E+01 0.00000E+00
 -1      3252 1.06785E+02 1.05013E+01 0.00000E+00
 -1      3253 1.05285E+02 1.05013E+01 0.00000E+00
 -1      3254 1.04535E+02 1.18003E+01 0.00000E+00
 -1      3255 1.09785E+02 1.05013E+01 0.00000E+00
 -1      3256 1.08285E+02 1.05013E+01 0.00000E+00
 -1      3257 1.07535E+02 1.18003E+01 0.00000E+00
 -1      3258 1.12785E+02 1.05013E+01 0.00000E+00
 -1      3259 1.11285E+02 1.05013E+01 0.00000E+00
 -1      3260 1.10535E+02 1.18003E+01 0.00000E+00
 -1      3261 1.15785E+02 1.05013E+01 0.00000E+00
 -1      3262 1.14285E+02 1.05013E+01 0.00000E+00
 -1      3263 1.13535E+02 1.18003E+01 0.00000E+00
 -1      3264 1.18785E+02 1.05013E+01 0.00000E+00
 -1      3265 1.17285E+02 1.05013E+01 0.00000E+00
 -1      3266 1.16535E+02 1.18003E+01 0.00000E+00
 -1      3267 1.21785E+02 1.05013E+01 0.00000E+00
 -1      3268 1.20285E+02 1.05013E+01 0.00000E+00
 -1      3269 1.19535E+02 1.18003E+01 0.00000E+00
 -1      3270 1.24785E+02 1.05013E+01 0.00000E+00
 -1      3271 1.23285E+02 1.05013E+01 0.00000E+00
 -1      3272 1.22535E+02 1.18003E+01 0.00000E+00
 -1      3273 1.27785E+02 1.05013E+01 0.00000E+00
 -1      3274 1.26285E+02 1.05013E+01 0.00000E+00
 -1      3275 1.25535E+02 1.18003E+01 0.00000E+00
 -1      3276 1.30785E+02 1.05013E+01 0.00000E+00
 -1      3277 1.29285E+02 1.05013E+01 0.00000E+00
 -1      3278 1.28535E+02 1.18003E+01 0.00000E+00
 -1      3279 1.33785E+02 1.05013E+01 0.00000E+00
 -1      3280 1.32285E+02 1.05013E+01 0.00000E+00
 -1      3281 1.31535E+02 1.18003E+01 0.00000E+00
 -1      3282 1.36785E+02 1.05013E+01 0.00000E+00
 -1      3283 1.35285E+02 1.05013E+01 0.00000E+00
 -1      3284 1.34535E+02 1.18003E+01 0.00000E+00
 -1      3285 1.38879E+02 1.08930E+01 0.00000E+00
 -1      3286 1.37711E+02 1.06123E+01 0.00000E+00
 -1      3287 1.36961E+02 1.19113E+01 0.00000E+00
 -1      3288 1.38813E+02 1.21333E+01 0.00000E+00
 -1      3289 1.39021E+02 3.87832E+01 0.00000E+00
 -1      3290 1.16910E+01 2.12875E+01 0.00000E+00
 -1      3291 1.16910E+01 2.27625E+01 0.00000E+00
 -1      3292 1.38309E+02 3.16250E+01 0.00000E+00
 -1      3293 1.38309E+02 3.01500E+01 0.00000E+00
 -1      3294 1.37010E+02 2.94250E+01 0.00000E+00
 -1      3295 1.38309E+02 2.57500E+01 0.00000E+00
 -1      3296 1.38309E+02 2.42750E+01 0.00000E+00
 -1      3297 1.37010E+02 2.64750E+01 0.00000E+00
 -1      3298 1.38309E+02 3.45750E+01 0.00000E+00
 -1      3299 1.38309E+02 3.31000E+01 0.00000E+00
 -1      3300 1.37010E+02 3.23750E+01 0.00000E+00
 -1      3301 6.27415E+01 3.07703E+01 0.00000E+00
 -1      3302 6.26648E+01 2.95028E+01 0.00000E+00
 -1      3303 3.77850E+01 1.05013E+01 0.00000E+00
 -1      3304 3.62850E+01 1.05013E+01 0.00000E+00
 -1      3305 3.55350E+01 1.18003E+01 0.00000E+00
 -1      3306 3.85350E+01 1.18003E+01 0.00000E+00
 -1      3307 8.99497E+01 2.08080E+01 0.00000E+00
 -1      3308 9.01797E+01 2.20820E+01 0.00000E+00
 -1      3309 9.14137E+00 3.71183E+01 0.00000E+00
 -1      3310 9.17362E+00 3.83534E+01 0.00000E+00
 -1      3311 1.05371E+01 3.86174E+01 0.00000E+00
 -1      3312 1.04404E+01 3.63808E+01 0.00000E+00
 -1      3313 2.27850E+01 1.05013E+01 0.00000E+00
 -1      3314 2.12850E+01 1.05013E+01 0.00000E+00
 -1      3315 8.27906E+01 4.08480E+01 0.00000E+00
 -1      3316 8.35406E+01 3.97391E+01 0.00000E+00
 -1      3317 8.96219E+01 2.94038E+01 0.00000E+00
 -1      3318 8.96150E+01 3.05378E+01 0.00000E+00
 -1      3319 6.43691E+01 3.78184E+01 0.00000E+00
 -1      3320 1.59000E+01 3.83090E+01 0.00000E+00
 -1      3321 1.74000E+01 3.83090E+01 0.00000E+00
 -1      3322 1.81500E+01 3.70100E+01 0.00000E+00
 -1      3323 7.85019E+01 1.43441E+01 0.00000E+00
 -1      3324 7.98108E+01 1.47808E+01 0.00000E+00
 -1      3325 8.97033E+01 3.18554E+01 0.00000E+00
 -1      3326 8.95648E+01 3.31280E+01 0.00000E+00
 -1      3327 6.69376E+01 1.72471E+01 0.00000E+00
 -1      3328 6.81237E+01 1.64688E+01 0.00000E+00
 -1      3329 9.02222E+01 2.36583E+01 0.00000E+00
 -1      3330 9.02489E+01 2.51189E+01 0.00000E+00
 -1      3331 6.35399E+01 3.35007E+01 0.00000E+00
 -1      3332 6.31136E+01 3.23005E+01 0.00000E+00
 -1      3333 6.29340E+01 3.44540E+01 0.00000E+00
 -1      3334 8.77336E+01 3.65890E+01 0.00000E+00
 -1      3335 8.69055E+01 3.75558E+01 0.00000E+00
 -1      3336 8.93095E+01 3.44905E+01 0.00000E+00
 -1      3337 8.85215E+01 3.55397E+01 0.00000E+00
 -1      3338 8.94380E+01 3.63859E+01 0.00000E+00
 -1      3339 8.08628E+01 1.52008E+01 0.00000E+00
 -1      3340 8.19148E+01 1.56207E+01 0.00000E+00
 -1      3341 8.05328E+01 1.40100E+01 0.00000E+00
 -1      3342 1.26488E+01 1.02017E+01 0.00000E+00
 -1      3343 1.20772E+01 1.14631E+01 0.00000E+00
 -1      3344 1.33763E+01 1.22006E+01 0.00000E+00
 -1      3345 1.41488E+01 1.02017E+01 0.00000E+00
 -1      3346 6.60073E+01 2.02474E+01 0.00000E+00
 -1      3347 6.62285E+01 1.89002E+01 0.00000E+00
 -1      3348 6.52369E+01 2.05141E+01 0.00000E+00
 -1      3349 1.97850E+01 1.05013E+01 0.00000E+00
 -1      3350 1.82850E+01 1.05013E+01 0.00000E+00
 -1      3351 2.05350E+01 1.18003E+01 0.00000E+00
 -1      3352 1.16910E+01 2.42375E+01 0.00000E+00
 -1      3353 1.16910E+01 2.57125E+01 0.00000E+00
 -1      3354 1.29900E+01 2.35000E+01 0.00000E+00
 -1      3355 1.16910E+01 3.01219E+01 0.00000E+00
 -1      3356 1.16910E+01 3.15906E+01 0.00000E+00
 -1      3357 7.40340E+01 1.39355E+01 0.00000E+00
 -1      3358 1.16910E+01 1.54063E+01 0.00000E+00
 -1      3359 1.16910E+01 1.68750E+01 0.00000E+00
 -1      3360 1.29900E+01 1.46687E+01 0.00000E+00
 -1      3361 9.08144E+01 2.58643E+01 0.00000E+00
 -1      3362 1.16910E+01 3.30594E+01 0.00000E+00
 -1      3363 1.16910E+01 3.45281E+01 0.00000E+00
 -1      3364 1.29900E+01 3.23250E+01 0.00000E+00
 -1      3365 2.57850E+01 1.05013E+01 0.00000E+00
 -1      3366 2.42850E+01 1.05013E+01 0.00000E+00
 -1      3367 2.35350E+01 1.18003E+01 0.00000E+00
 -1      3368 8.61555E+01 3.88323E+01 0.00000E+00
 -1      3369 6.20517E+01 2.87378E+01 0.00000E+00
 -1      3370 1.38309E+02 1.69188E+01 0.00000E+00
 -1      3371 1.38309E+02 1.54563E+01 0.00000E+00
 -1      3372 1.37010E+02 2.35250E+01 0.00000E+00
 -1      3373 1.38309E+02 2.28000E+01 0.00000E+00
 -1      3374 1.38309E+02 2.13250E+01 0.00000E+00
 -1      3375 6.53968E+01 1.77806E+01 0.00000E+00
 -1      3376 6.61672E+01 1.75138E+01 0.00000E+00
 -1      3377 6.61059E+01 1.61275E+01 0.00000E+00
 -1      3378 9.13856E+01 2.27905E+01 0.00000E+00
 -1      3379 2.95350E+01 1.18003E+01 0.00000E+00
 -1      3380 2.87850E+01 1.05013E+01 0.00000E+00
 -1      3381 2.72850E+01 1.05013E+01 0.00000E+00
 -1      3382 7.07850E+01 1.05013E+01 0.00000E+00
 -1      3383 6.92850E+01 1.05013E+01 0.00000E+00
 -1      3384 7.97850E+01 1.05013E+01 0.00000E+00
 -1      3385 7.82850E+01 1.05013E+01 0.00000E+00
 -1      3386 9.04812E+01 3.39742E+01 0.00000E+00
 -1      3387 1.38309E+02 1.98594E+01 0.00000E+00
 -1      3388 1.38309E+02 1.83844E+01 0.00000E+00
 -1      3389 1.37010E+02 1.76531E+01 0.00000E+00
 -1      3390 1.37010E+02 2.05844E+01 0.00000E+00
 -1      3391 1.16910E+01 1.98188E+01 0.00000E+00
 -1      3392 1.29900E+01 2.05562E+01 0.00000E+00
 -1      3393 1.16910E+01 1.83500E+01 0.00000E+00
 -1      3394 1.38129E+02 3.63676E+01 0.00000E+00
 -1      3395 1.36830E+02 3.56426E+01 0.00000E+00
 -1      3396 1.38271E+02 3.75068E+01 0.00000E+00
 -1      3397 6.21356E+01 3.17236E+01 0.00000E+00
 -1      3398 7.74316E+01 1.28609E+01 0.00000E+00
 -1      3399 8.05350E+01 1.18003E+01 0.00000E+00
 -1      3400 7.15350E+01 1.18003E+01 0.00000E+00
 -1      3401 8.46555E+01 3.88323E+01 0.00000E+00
 -1      3402 8.79066E+01 1.83679E+01 0.00000E+00
 -1      3403 8.88248E+01 1.91659E+01 0.00000E+00
 -1      3404 1.69669E+01 1.03515E+01 0.00000E+00
 -1      3405 1.54669E+01 1.03515E+01 0.00000E+00
 -1      3406 1.50806E+01 1.13509E+01 0.00000E+00
 -1      3407 1.77169E+01 1.16505E+01 0.00000E+00
 -1      3408 1.16299E+01 3.74672E+01 0.00000E+00
 -1      3409 1.16783E+01 3.85855E+01 0.00000E+00
 -1      3410 1.28194E+01 3.85536E+01 0.00000E+00
 -1      3411 9.06481E+01 3.12942E+01 0.00000E+00
 -1      3412 6.42995E+01 2.31728E+01 0.00000E+00
 -1      3413 6.40737E+01 2.21334E+01 0.00000E+00
 -1      3414 6.33576E+01 2.34448E+01 0.00000E+00
 -1      3415 9.03802E+01 2.86692E+01 0.00000E+00
 -1      3416 6.36191E+01 3.65194E+01 0.00000E+00
 -1      3417 6.29617E+01 2.58832E+01 0.00000E+00
 -1      3418 6.28260E+01 2.51181E+01 0.00000E+00
 -1      3419 6.22042E+01 2.65171E+01 0.00000E+00
 -1      3420 6.85350E+01 1.18003E+01 0.00000E+00
 -1      3421 8.32215E+01 1.61244E+01 0.00000E+00
 -1      3422 8.43403E+01 1.66230E+01 0.00000E+00
 -1      3423 9.02181E+01 1.95721E+01 0.00000E+00
 -1      3424 9.16114E+01 1.99783E+01 0.00000E+00
 -1      3425 9.04865E+01 1.83361E+01 0.00000E+00
 -1      3426 7.82790E+01 1.34492E+01 0.00000E+00
 -1      3427 1.39605E+01 3.85216E+01 0.00000E+00
 -1      3428 6.83022E+01 1.53048E+01 0.00000E+00
 -1      3429 8.28915E+01 1.49337E+01 0.00000E+00
 -1      3430 1.47105E+01 3.72226E+01 0.00000E+00
 -1      3431 1.16910E+01 2.86531E+01 0.00000E+00
 -1      3432 1.29900E+01 2.93875E+01 0.00000E+00
 -1      3433 1.16910E+01 2.71844E+01 0.00000E+00
 -1      3434 2.34000E+01 3.57110E+01 0.00000E+00
 -1      3435 2.49000E+01 3.57110E+01 0.00000E+00
 -1      3436 2.64000E+01 3.57110E+01 0.00000E+00
 -1      3437 2.79000E+01 3.57110E+01 0.00000E+00
 -1      3438 2.56500E+01 3.44120E+01 0.00000E+00
 -1      3439 2.94000E+01 3.57110E+01 0.00000E+00
 -1      3440 3.09000E+01 3.57110E+01 0.00000E+00
 -1      3441 2.86500E+01 3.44120E+01 0.00000E+00
 -1      3442 3.24000E+01 3.57110E+01 0.00000E+00
 -1      3443 3.39000E+01 3.57110E+01 0.00000E+00
 -1      3444 3.16500E+01 3.44120E+01 0.00000E+00
 -1      3445 3.54000E+01 3.57110E+01 0.00000E+00
 -1      3446 3.69000E+01 3.57110E+01 0.00000E+00
 -1      3447 3.46500E+01 3.44120E+01 0.00000E+00
 -1      3448 3.84000E+01 3.57110E+01 0.00000E+00
 -1      3449 3.99000E+01 3.57110E+01 0.00000E+00
 -1      3450 3.76500E+01 3.44120E+01 0.00000E+00
 -1      3451 4.14000E+01 3.57110E+01 0.00000E+00
 -1      3452 4.29000E+01 3.57110E+01 0.00000E+00
 -1      3453 4.06500E+01 3.44120E+01 0.00000E+00
 -1      3454 4.44000E+01 3.57110E+01 0.00000E+00
 -1      3455 4.59000E+01 3.57110E+01 0.00000E+00
 -1      3456 4.36500E+01 3.44120E+01 0.00000E+00
 -1      3457 4.74000E+01 3.57110E+01 0.00000E+00
 -1      3458 4.89000E+01 3.57110E+01 0.00000E+00
 -1      3459 4.66500E+01 3.44120E+01 0.00000E+00
 -1      3460 5.04000E+01 3.57110E+01 0.00000E+00
 -1      3461 5.19000E+01 3.57110E+01 0.00000E+00
 -1      3462 4.96500E+01 3.44120E+01 0.00000E+00
 -1      3463 5.34000E+01 3.57110E+01 0.00000E+00
 -1      3464 5.49000E+01 3.57110E+01 0.00000E+00
 -1      3465 5.26500E+01 3.44120E+01 0.00000E+00
 -1      3466 5.64000E+01 3.57110E+01 0.00000E+00
 -1      3467 5.79000E+01 3.57110E+01 0.00000E+00
 -1      3468 5.56500E+01 3.44120E+01 0.00000E+00
 -1      3469 6.09842E+01 2.92828E+01 0.00000E+00
 -1      3470 6.12724E+01 2.78272E+01 0.00000E+00
 -1      3471 1.38528E+02 1.44149E+01 0.00000E+00
 -1      3472 1.38594E+02 1.31746E+01 0.00000E+00
 -1      3473 1.37668E+02 1.30636E+01 0.00000E+00
 -1      3474 1.37229E+02 1.51462E+01 0.00000E+00
 -1      3475 1.35711E+02 3.31125E+01 0.00000E+00
 -1      3476 1.35711E+02 3.16375E+01 0.00000E+00
 -1      3477 9.24000E+01 3.61587E+01 0.00000E+00
 -1      3478 9.39000E+01 3.61587E+01 0.00000E+00
 -1      3479 9.54000E+01 3.61587E+01 0.00000E+00
 -1      3480 9.69000E+01 3.61587E+01 0.00000E+00
 -1      3481 9.46500E+01 3.48823E+01 0.00000E+00
 -1      3482 9.84000E+01 3.61587E+01 0.00000E+00
 -1      3483 9.99000E+01 3.61587E+01 0.00000E+00
 -1      3484 9.76500E+01 3.48823E+01 0.00000E+00
 -1      3485 1.01400E+02 3.61587E+01 0.00000E+00
 -1      3486 1.02900E+02 3.61587E+01 0.00000E+00
 -1      3487 1.00650E+02 3.48823E+01 0.00000E+00
 -1      3488 1.04400E+02 3.61587E+01 0.00000E+00
 -1      3489 1.05900E+02 3.61587E+01 0.00000E+00
 -1      3490 1.03650E+02 3.48823E+01 0.00000E+00
 -1      3491 1.07400E+02 3.61587E+01 0.00000E+00
 -1      3492 1.08900E+02 3.61587E+01 0.00000E+00
 -1      3493 1.06650E+02 3.48823E+01 0.00000E+00
 -1      3494 1.10400E+02 3.61587E+01 0.00000E+00
 -1      3495 1.11900E+02 3.61587E+01 0.00000E+00
 -1      3496 1.09650E+02 3.48823E+01 0.00000E+00
 -1      3497 1.13400E+02 3.61587E+01 0.00000E+00
 -1      3498 1.14900E+02 3.61587E+01 0.00000E+00
 -1      3499 1.12650E+02 3.48823E+01 0.00000E+00
 -1      3500 1.16400E+02 3.61587E+01 0.00000E+00
 -1      3501 1.17900E+02 3.61587E+01 0.00000E+00
 -1      3502 1.15650E+02 3.48823E+01 0.00000E+00
 -1      3503 1.19400E+02 3.61587E+01 0.00000E+00
 -1      3504 1.20900E+02 3.61587E+01 0.00000E+00
 -1      3505 1.18650E+02 3.48823E+01 0.00000E+00
 -1      3506 1.22400E+02 3.61587E+01 0.00000E+00
 -1      3507 1.23900E+02 3.61587E+01 0.00000E+00
 -1      3508 1.21650E+02 3.48823E+01 0.00000E+00
 -1      3509 1.25400E+02 3.61587E+01 0.00000E+00
 -1      3510 1.26900E+02 3.61587E+01 0.00000E+00
 -1      3511 1.24650E+02 3.48823E+01 0.00000E+00
 -1      3512 1.28400E+02 3.61587E+01 0.00000E+00
 -1      3513 1.29900E+02 3.61587E+01 0.00000E+00
 -1      3514 1.27650E+02 3.48823E+01 0.00000E+00
 -1      3515 1.31400E+02 3.61587E+01 0.00000E+00
 -1      3516 1.32900E+02 3.61587E+01 0.00000E+00
 -1      3517 1.30650E+02 3.48823E+01 0.00000E+00
 -1      3518 1.35330E+02 3.56426E+01 0.00000E+00
 -1      3519 4.52850E+01 1.30992E+01 0.00000E+00
 -1      3520 4.37850E+01 1.30992E+01 0.00000E+00
 -1      3521 4.22850E+01 1.30992E+01 0.00000E+00
 -1      3522 4.07850E+01 1.30992E+01 0.00000E+00
 -1      3523 4.30350E+01 1.43982E+01 0.00000E+00
 -1      3524 5.12850E+01 1.30992E+01 0.00000E+00
 -1      3525 4.97850E+01 1.30992E+01 0.00000E+00
 -1      3526 5.42850E+01 1.30992E+01 0.00000E+00
 -1      3527 5.27850E+01 1.30992E+01 0.00000E+00
 -1      3528 5.20350E+01 1.43982E+01 0.00000E+00
 -1      3529 5.72850E+01 1.30992E+01 0.00000E+00
 -1      3530 5.57850E+01 1.30992E+01 0.00000E+00
 -1      3531 5.50350E+01 1.43982E+01 0.00000E+00
 -1      3532 6.02850E+01 1.30992E+01 0.00000E+00
 -1      3533 5.87850E+01 1.30992E+01 0.00000E+00
 -1      3534 5.80350E+01 1.43982E+01 0.00000E+00
 -1      3535 6.32850E+01 1.30992E+01 0.00000E+00
 -1      3536 6.17850E+01 1.30992E+01 0.00000E+00
 -1      3537 6.10350E+01 1.43982E+01 0.00000E+00
 -1      3538 6.61852E+01 1.40972E+01 0.00000E+00
 -1      3539 6.46852E+01 1.40972E+01 0.00000E+00
 -1      3540 8.53170E+01 1.59360E+01 0.00000E+00
 -1      3541 8.54592E+01 1.71216E+01 0.00000E+00
 -1      3542 8.65780E+01 1.76202E+01 0.00000E+00
 -1      3543 7.44316E+01 1.28609E+01 0.00000E+00
 -1      3544 7.26374E+01 1.28749E+01 0.00000E+00
 -1      3545 7.11374E+01 1.28749E+01 0.00000E+00
 -1      3546 9.32850E+01 1.30992E+01 0.00000E+00
 -1      3547 9.17850E+01 1.30992E+01 0.00000E+00
 -1      3548 9.62850E+01 1.30992E+01 0.00000E+00
 -1      3549 9.47850E+01 1.30992E+01 0.00000E+00
 -1      3550 9.40350E+01 1.43982E+01 0.00000E+00
 -1      3551 9.92850E+01 1.30992E+01 0.00000E+00
 -1      3552 9.77850E+01 1.30992E+01 0.00000E+00
 -1      3553 9.70350E+01 1.43982E+01 0.00000E+00
 -1      3554 1.02285E+02 1.30992E+01 0.00000E+00
 -1      3555 1.00785E+02 1.30992E+01 0.00000E+00
 -1      3556 1.00035E+02 1.43982E+01 0.00000E+00
 -1      3557 1.05285E+02 1.30992E+01 0.00000E+00
 -1      3558 1.03785E+02 1.30992E+01 0.00000E+00
 -1      3559 1.03035E+02 1.43982E+01 0.00000E+00
 -1      3560 1.08285E+02 1.30992E+01 0.00000E+00
 -1      3561 1.06785E+02 1.30992E+01 0.00000E+00
 -1      3562 1.06035E+02 1.43982E+01 0.00000E+00
 -1      3563 1.11285E+02 1.30992E+01 0.00000E+00
 -1      3564 1.09785E+02 1.30992E+01 0.00000E+00
 -1      3565 1.09035E+02 1.43982E+01 0.00000E+00
 -1      3566 1.14285E+02 1.30992E+01 0.00000E+00
 -1      3567 1.12785E+02 1.30992E+01 0.00000E+00
 -1      3568 1.12035E+02 1.43982E+01 0.00000E+00
 -1      3569 1.17285E+02 1.30992E+01 0.00000E+00
 -1      3570 1.15785E+02 1.30992E+01 0.00000E+00
 -1      3571 1.15035E+02 1.43982E+01 0.00000E+00
 -1      3572 1.20285E+02 1.30992E+01 0.00000E+00
 -1      3573 1.18785E+02 1.30992E+01 0.00000E+00
 -1      3574 1.18035E+02 1.43982E+01 0.00000E+00
 -1      3575 1.23285E+02 1.30992E+01 0.00000E+00
 -1      3576 1.21785E+02 1.30992E+01 0.00000E+00
 -1      3577 1.21035E+02 1.43982E+01 0.00000E+00
 -1      3578 1.26285E+02 1.30992E+01 0.00000E+00
 -1      3579 1.24785E+02 1.30992E+01 0.00000E+00
 -1      3580 1.24035E+02 1.43982E+01 0.00000E+00
 -1      3581 1.29285E+02 1.30992E+01 0.00000E+00
 -1      3582 1.27785E+02 1.30992E+01 0.00000E+00
 -1      3583 1.27035E+02 1.43982E+01 0.00000E+00
 -1      3584 1.32285E+02 1.30992E+01 0.00000E+00
 -1      3585 1.30785E+02 1.30992E+01 0.00000E+00
 -1      3586 1.30035E+02 1.43982E+01 0.00000E+00
 -1      3587 9.02850E+01 1.30992E+01 0.00000E+00
 -1      3588 8.87850E+01 1.30992E+01 0.00000E+00
 -1      3589 9.10350E+01 1.43982E+01 0.00000E+00
 -1      3590 1.35711E+02 2.72125E+01 0.00000E+00
 -1      3591 1.35711E+02 2.57375E+01 0.00000E+00
 -1      3592 4.82850E+01 1.30992E+01 0.00000E+00
 -1      3593 4.67850E+01 1.30992E+01 0.00000E+00
 -1      3594 4.60350E+01 1.43982E+01 0.00000E+00
 -1      3595 4.90350E+01 1.43982E+01 0.00000E+00
 -1      3596 9.09380E+01 3.63859E+01 0.00000E+00
 -1      3597 8.77645E+01 1.71823E+01 0.00000E+00
 -1      3598 1.15815E+01 3.63489E+01 0.00000E+00
 -1      3599 9.26628E+01 2.19674E+01 0.00000E+00
 -1      3600 9.27054E+01 2.35436E+01 0.00000E+00
 -1      3601 3.32850E+01 1.30992E+01 0.00000E+00
 -1      3602 3.17850E+01 1.30992E+01 0.00000E+00
 -1      3603 1.35992E+01 3.60377E+01 0.00000E+00
 -1      3604 1.55387E+01 3.58251E+01 0.00000E+00
 -1      3605 9.15431E+01 3.05724E+01 0.00000E+00
 -1      3606 9.16315E+01 3.18900E+01 0.00000E+00
 -1      3607 2.04000E+01 3.57110E+01 0.00000E+00
 -1      3608 2.19000E+01 3.57110E+01 0.00000E+00
 -1      3609 2.26500E+01 3.44120E+01 0.00000E+00
 -1      3610 1.74000E+01 3.57110E+01 0.00000E+00
 -1      3611 1.89000E+01 3.57110E+01 0.00000E+00
 -1      3612 1.96500E+01 3.44120E+01 0.00000E+00
 -1      3613 6.11627E+01 3.27705E+01 0.00000E+00
 -1      3614 6.07906E+01 3.12403E+01 0.00000E+00
 -1      3615 1.35711E+02 3.01625E+01 0.00000E+00
 -1      3616 1.35711E+02 2.86875E+01 0.00000E+00
 -1      3617 1.34412E+02 2.79500E+01 0.00000E+00
 -1      3618 1.34412E+02 3.09000E+01 0.00000E+00
 -1      3619 9.13060E+01 2.78760E+01 0.00000E+00
 -1      3620 9.14856E+01 2.91834E+01 0.00000E+00
 -1      3621 9.16880E+01 3.51095E+01 0.00000E+00
 -1      3622 2.12850E+01 1.30992E+01 0.00000E+00
 -1      3623 1.97850E+01 1.30992E+01 0.00000E+00
 -1      3624 6.42950E+01 2.07861E+01 0.00000E+00
 -1      3625 6.45162E+01 1.94389E+01 0.00000E+00
 -1      3626 6.33530E+01 2.10581E+01 0.00000E+00
 -1      3627 9.23125E+01 2.49611E+01 0.00000E+00
 -1      3628 9.16988E+01 2.64586E+01 0.00000E+00
 -1      3629 9.28042E+01 2.69728E+01 0.00000E+00
 -1      3630 9.35898E+01 2.41379E+01 0.00000E+00
 -1      3631 1.34580E+02 3.43661E+01 0.00000E+00
 -1      3632 6.98816E+01 1.32745E+01 0.00000E+00
 -1      3633 6.83816E+01 1.32745E+01 0.00000E+00
 -1      3634 1.42890E+01 1.39344E+01 0.00000E+00
 -1      3635 1.42890E+01 1.54031E+01 0.00000E+00
 -1      3636 2.65350E+01 1.18003E+01 0.00000E+00
 -1      3637 6.18427E+01 2.47126E+01 0.00000E+00
 -1      3638 6.26002E+01 2.40787E+01 0.00000E+00
 -1      3639 6.23743E+01 2.30392E+01 0.00000E+00
 -1      3640 1.35711E+02 2.42625E+01 0.00000E+00
 -1      3641 1.35711E+02 2.27875E+01 0.00000E+00
 -1      3642 1.34412E+02 2.50000E+01 0.00000E+00
 -1      3643 6.00113E+01 3.03297E+01 0.00000E+00
 -1      3644 5.92320E+01 2.94191E+01 0.00000E+00
 -1      3645 5.90384E+01 3.13766E+01 0.00000E+00
 -1      3646 5.94000E+01 3.57335E+01 0.00000E+00
 -1      3647 6.09000E+01 3.57335E+01 0.00000E+00
 -1      3648 3.02850E+01 1.30992E+01 0.00000E+00
 -1      3649 2.87850E+01 1.30992E+01 0.00000E+00
 -1      3650 3.10350E+01 1.43982E+01 0.00000E+00
 -1      3651 1.29900E+01 1.76125E+01 0.00000E+00
 -1      3652 1.42890E+01 1.98219E+01 0.00000E+00
 -1      3653 1.42890E+01 2.12906E+01 0.00000E+00
 -1      3654 1.55880E+01 2.20313E+01 0.00000E+00
 -1      3655 1.42890E+01 2.27656E+01 0.00000E+00
 -1      3656 1.42890E+01 2.42406E+01 0.00000E+00
 -1      3657 1.90350E+01 1.43983E+01 0.00000E+00
 -1      3658 1.82850E+01 1.30993E+01 0.00000E+00
 -1      3659 9.24690E+01 2.97792E+01 0.00000E+00
 -1      3660 1.69669E+01 1.29495E+01 0.00000E+00
 -1      3661 4.00350E+01 1.43982E+01 0.00000E+00
 -1      3662 3.92850E+01 1.30992E+01 0.00000E+00
 -1      3663 3.77850E+01 1.30992E+01 0.00000E+00
 -1      3664 6.39352E+01 1.53962E+01 0.00000E+00
 -1      3665 1.28805E+01 3.56145E+01 0.00000E+00
 -1      3666 8.18099E+01 1.31151E+01 0.00000E+00
 -1      3667 8.03099E+01 1.31151E+01 0.00000E+00
 -1      3668 9.19432E+01 3.37470E+01 0.00000E+00
 -1      3669 8.46166E+01 1.36188E+01 0.00000E+00
 -1      3670 8.31166E+01 1.36188E+01 0.00000E+00
 -1      3671 1.35285E+02 1.30992E+01 0.00000E+00
 -1      3672 1.33785E+02 1.30992E+01 0.00000E+00
 -1      3673 1.36742E+02 1.29526E+01 0.00000E+00
 -1      3674 6.17552E+01 3.50557E+01 0.00000E+00
 -1      3675 6.13289E+01 3.38554E+01 0.00000E+00
 -1      3676 1.29900E+01 2.64469E+01 0.00000E+00
 -1      3677 8.72850E+01 1.30992E+01 0.00000E+00
 -1      3678 8.57850E+01 1.30992E+01 0.00000E+00
 -1      3679 3.62850E+01 1.30992E+01 0.00000E+00
 -1      3680 3.47850E+01 1.30992E+01 0.00000E+00
 -1      3681 3.40350E+01 1.43982E+01 0.00000E+00
 -1      3682 3.70350E+01 1.43982E+01 0.00000E+00
 -1      3683 2.42850E+01 1.30992E+01 0.00000E+00
 -1      3684 2.27850E+01 1.30992E+01 0.00000E+00
 -1      3685 2.20350E+01 1.43982E+01 0.00000E+00
 -1      3686 9.29312E+01 2.07314E+01 0.00000E+00
 -1      3687 9.42510E+01 2.14845E+01 0.00000E+00
 -1      3688 9.31996E+01 1.94954E+01 0.00000E+00
 -1      3689 1.62887E+01 3.45261E+01 0.00000E+00
 -1      3690 6.11367E+01 2.70621E+01 0.00000E+00
 -1      3691 6.10010E+01 2.62970E+01 0.00000E+00
 -1      3692 6.00692E+01 2.76071E+01 0.00000E+00
 -1      3693 9.08141E+01 1.61641E+01 0.00000E+00
 -1      3694 9.22074E+01 1.65703E+01 0.00000E+00
 -1      3695 9.28383E+01 3.30252E+01 0.00000E+00
 -1      3696 1.42890E+01 2.86531E+01 0.00000E+00
 -1      3697 1.42890E+01 3.01219E+01 0.00000E+00
 -1      3698 8.53666E+01 1.49178E+01 0.00000E+00
 -1      3699 8.64854E+01 1.54164E+01 0.00000E+00
 -1      3700 1.35711E+02 1.83859E+01 0.00000E+00
 -1      3701 1.35711E+02 1.69203E+01 0.00000E+00
 -1      3702 5.99839E+01 3.33721E+01 0.00000E+00
 -1      3703 5.86500E+01 3.44345E+01 0.00000E+00
 -1      3704 1.35992E+02 1.42516E+01 0.00000E+00
 -1      3705 1.33035E+02 1.43982E+01 0.00000E+00
 -1      3706 8.80350E+01 1.43982E+01 0.00000E+00
 -1      3707 8.93141E+01 1.61641E+01 0.00000E+00
 -1      3708 1.89000E+01 3.31130E+01 0.00000E+00
 -1      3709 2.04000E+01 3.31130E+01 0.00000E+00
 -1      3710 2.72850E+01 1.30992E+01 0.00000E+00
 -1      3711 2.57850E+01 1.30992E+01 0.00000E+00
 -1      3712 2.50350E+01 1.43982E+01 0.00000E+00
 -1      3713 1.42890E+01 3.15906E+01 0.00000E+00
 -1      3714 1.42890E+01 3.30594E+01 0.00000E+00
 -1      3715 1.35773E+02 1.52929E+01 0.00000E+00
 -1      3716 2.79000E+01 3.31130E+01 0.00000E+00
 -1      3717 2.94000E+01 3.31130E+01 0.00000E+00
 -1      3718 3.09000E+01 3.31130E+01 0.00000E+00
 -1      3719 3.24000E+01 3.31130E+01 0.00000E+00
 -1      3720 3.01500E+01 3.18140E+01 0.00000E+00
 -1      3721 3.39000E+01 3.31130E+01 0.00000E+00
 -1      3722 3.54000E+01 3.31130E+01 0.00000E+00
 -1      3723 3.31500E+01 3.18140E+01 0.00000E+00
 -1      3724 3.69000E+01 3.31130E+01 0.00000E+00
 -1      3725 3.84000E+01 3.31130E+01 0.00000E+00
 -1      3726 3.61500E+01 3.18140E+01 0.00000E+00
 -1      3727 3.99000E+01 3.31130E+01 0.00000E+00
 -1      3728 4.14000E+01 3.31130E+01 0.00000E+00
 -1      3729 3.91500E+01 3.18140E+01 0.00000E+00
 -1      3730 4.29000E+01 3.31130E+01 0.00000E+00
 -1      3731 4.44000E+01 3.31130E+01 0.00000E+00
 -1      3732 4.21500E+01 3.18140E+01 0.00000E+00
 -1      3733 4.59000E+01 3.31130E+01 0.00000E+00
 -1      3734 4.74000E+01 3.31130E+01 0.00000E+00
 -1      3735 4.51500E+01 3.18140E+01 0.00000E+00
 -1      3736 4.89000E+01 3.31130E+01 0.00000E+00
 -1      3737 5.04000E+01 3.31130E+01 0.00000E+00
 -1      3738 4.81500E+01 3.18140E+01 0.00000E+00
 -1      3739 5.19000E+01 3.31130E+01 0.00000E+00
 -1      3740 5.34000E+01 3.31130E+01 0.00000E+00
 -1      3741 5.11500E+01 3.18140E+01 0.00000E+00
 -1      3742 5.49000E+01 3.31130E+01 0.00000E+00
 -1      3743 5.64000E+01 3.31130E+01 0.00000E+00
 -1      3744 5.41500E+01 3.18140E+01 0.00000E+00
 -1      3745 6.25052E+01 3.63321E+01 0.00000E+00
 -1      3746 6.69556E+01 1.38305E+01 0.00000E+00
 -1      3747 1.97850E+01 1.56973E+01 0.00000E+00
 -1      3748 1.82851E+01 1.56973E+01 0.00000E+00
 -1      3749 9.35481E+01 2.90388E+01 0.00000E+00
 -1      3750 9.36057E+01 3.04278E+01 0.00000E+00
 -1      3751 1.46944E+01 1.23503E+01 0.00000E+00
 -1      3752 1.59934E+01 1.30847E+01 0.00000E+00
 -1      3753 9.69000E+01 3.35832E+01 0.00000E+00
 -1      3754 9.84000E+01 3.35832E+01 0.00000E+00
 -1      3755 9.99000E+01 3.35832E+01 0.00000E+00
 -1      3756 1.01400E+02 3.35832E+01 0.00000E+00
 -1      3757 9.91500E+01 3.22842E+01 0.00000E+00
 -1      3758 1.02900E+02 3.35832E+01 0.00000E+00
 -1      3759 1.04400E+02 3.35832E+01 0.00000E+00
 -1      3760 1.02150E+02 3.22842E+01 0.00000E+00
 -1      3761 1.05900E+02 3.35832E+01 0.00000E+00
 -1      3762 1.07400E+02 3.35832E+01 0.00000E+00
 -1      3763 1.05150E+02 3.22842E+01 0.00000E+00
 -1      3764 1.08900E+02 3.35832E+01 0.00000E+00
 -1      3765 1.10400E+02 3.35832E+01 0.00000E+00
 -1      3766 1.08150E+02 3.22842E+01 0.00000E+00
 -1      3767 1.11900E+02 3.35832E+01 0.00000E+00
 -1      3768 1.13400E+02 3.35832E+01 0.00000E+00
 -1      3769 1.11150E+02 3.22842E+01 0.00000E+00
 -1      3770 1.14900E+02 3.35832E+01 0.00000E+00
 -1      3771 1.16400E+02 3.35832E+01 0.00000E+00
 -1      3772 1.14150E+02 3.22842E+01 0.00000E+00
 -1      3773 1.17900E+02 3.35832E+01 0.00000E+00
 -1      3774 1.19400E+02 3.35832E+01 0.00000E+00
 -1      3775 1.17150E+02 3.22842E+01 0.00000E+00
 -1      3776 1.20900E+02 3.35832E+01 0.00000E+00
 -1      3777 1.22400E+02 3.35832E+01 0.00000E+00
 -1      3778 1.20150E+02 3.22842E+01 0.00000E+00
 -1      3779 1.23900E+02 3.35832E+01 0.00000E+00
 -1      3780 1.25400E+02 3.35832E+01 0.00000E+00
 -1      3781 1.23150E+02 3.22842E+01 0.00000E+00
 -1      3782 1.26900E+02 3.35832E+01 0.00000E+00
 -1      3783 1.28400E+02 3.35832E+01 0.00000E+00
 -1      3784 1.26150E+02 3.22842E+01 0.00000E+00
 -1      3785 1.29900E+02 3.35832E+01 0.00000E+00
 -1      3786 1.31400E+02 3.35832E+01 0.00000E+00
 -1      3787 1.29150E+02 3.22842E+01 0.00000E+00
 -1      3788 4.37850E+01 1.56973E+01 0.00000E+00
 -1      3789 4.22850E+01 1.56973E+01 0.00000E+00
 -1      3790 6.43196E+01 1.85227E+01 0.00000E+00
 -1      3791 6.42583E+01 1.71364E+01 0.00000E+00
 -1      3792 5.57850E+01 1.56973E+01 0.00000E+00
 -1      3793 5.42850E+01 1.56973E+01 0.00000E+00
 -1      3794 5.27850E+01 1.56973E+01 0.00000E+00
 -1      3795 5.12850E+01 1.56973E+01 0.00000E+00
 -1      3796 5.35350E+01 1.69963E+01 0.00000E+00
 -1      3797 6.17850E+01 1.56973E+01 0.00000E+00
 -1      3798 6.02850E+01 1.56973E+01 0.00000E+00
 -1      3799 1.37087E+01 3.42169E+01 0.00000E+00
 -1      3800 1.55880E+01 3.08563E+01 0.00000E+00
 -1      3801 1.34473E+02 1.60257E+01 0.00000E+00
 -1      3802 6.33777E+01 1.87947E+01 0.00000E+00
 -1      3803 1.65615E+01 1.45335E+01 0.00000E+00
 -1      3804 6.28581E+01 1.61384E+01 0.00000E+00
 -1      3805 1.50077E+01 3.34825E+01 0.00000E+00
 -1      3806 9.77850E+01 1.56973E+01 0.00000E+00
 -1      3807 9.62850E+01 1.56973E+01 0.00000E+00
 -1      3808 1.32973E+02 1.60257E+01 0.00000E+00
 -1      3809 1.03785E+02 1.56973E+01 0.00000E+00
 -1      3810 1.02285E+02 1.56973E+01 0.00000E+00
 -1      3811 1.06785E+02 1.56973E+01 0.00000E+00
 -1      3812 1.05285E+02 1.56973E+01 0.00000E+00
 -1      3813 1.04535E+02 1.69963E+01 0.00000E+00
 -1      3814 1.09785E+02 1.56973E+01 0.00000E+00
 -1      3815 1.08285E+02 1.56973E+01 0.00000E+00
 -1      3816 1.07535E+02 1.69963E+01 0.00000E+00
 -1      3817 1.12785E+02 1.56973E+01 0.00000E+00
 -1      3818 1.11285E+02 1.56973E+01 0.00000E+00
 -1      3819 1.10535E+02 1.69963E+01 0.00000E+00
 -1      3820 1.15785E+02 1.56973E+01 0.00000E+00
 -1      3821 1.14285E+02 1.56973E+01 0.00000E+00
 -1      3822 1.13535E+02 1.69963E+01 0.00000E+00
 -1      3823 1.18785E+02 1.56973E+01 0.00000E+00
 -1      3824 1.17285E+02 1.56973E+01 0.00000E+00
 -1      3825 1.16535E+02 1.69963E+01 0.00000E+00
 -1      3826 1.21785E+02 1.56973E+01 0.00000E+00
 -1      3827 1.20285E+02 1.56973E+01 0.00000E+00
 -1      3828 1.19535E+02 1.69963E+01 0.00000E+00
 -1      3829 1.24785E+02 1.56973E+01 0.00000E+00
 -1      3830 1.23285E+02 1.56973E+01 0.00000E+00
 -1      3831 1.22535E+02 1.69963E+01 0.00000E+00
 -1      3832 1.27785E+02 1.56973E+01 0.00000E+00
 -1      3833 1.26285E+02 1.56973E+01 0.00000E+00
 -1      3834 1.25535E+02 1.69963E+01 0.00000E+00
 -1      3835 1.30785E+02 1.56973E+01 0.00000E+00
 -1      3836 1.29285E+02 1.56973E+01 0.00000E+00
 -1      3837 1.28535E+02 1.69963E+01 0.00000E+00
 -1      3838 8.79854E+01 1.54164E+01 0.00000E+00
 -1      3839 1.68870E+01 3.01219E+01 0.00000E+00
 -1      3840 1.68870E+01 3.15906E+01 0.00000E+00
 -1      3841 1.42890E+01 2.57109E+01 0.00000E+00
 -1      3842 1.42890E+01 2.71828E+01 0.00000E+00
 -1      3843 1.55880E+01 2.79172E+01 0.00000E+00
 -1      3844 1.55880E+01 2.49766E+01 0.00000E+00
 -1      3845 1.33281E+02 3.36286E+01 0.00000E+00
 -1      3846 1.35711E+02 2.13172E+01 0.00000E+00
 -1      3847 1.35711E+02 1.98516E+01 0.00000E+00
 -1      3848 1.34412E+02 1.91187E+01 0.00000E+00
 -1      3849 1.68690E+01 3.33685E+01 0.00000E+00
 -1      3850 1.73115E+01 1.58325E+01 0.00000E+00
 -1      3851 1.63380E+01 1.59677E+01 0.00000E+00
 -1      3852 1.80615E+01 1.71315E+01 0.00000E+00
 -1      3853 5.84839E+01 3.33496E+01 0.00000E+00
 -1      3854 9.39720E+01 3.17265E+01 0.00000E+00
 -1      3855 9.42837E+01 3.35835E+01 0.00000E+00
 -1      3856 9.57837E+01 3.35835E+01 0.00000E+00
 -1      3857 9.50512E+01 3.09861E+01 0.00000E+00
 -1      3858 7.92579E+01 1.26952E+01 0.00000E+00
 -1      3859 2.19000E+01 3.31130E+01 0.00000E+00
 -1      3860 2.34000E+01 3.31130E+01 0.00000E+00
 -1      3861 2.11500E+01 3.18140E+01 0.00000E+00
 -1      3862 1.00785E+02 1.56973E+01 0.00000E+00
 -1      3863 9.92850E+01 1.56973E+01 0.00000E+00
 -1      3864 9.85350E+01 1.69963E+01 0.00000E+00
 -1      3865 5.77339E+01 3.20506E+01 0.00000E+00
 -1      3866 9.37811E+01 1.58608E+01 0.00000E+00
 -1      3867 9.34535E+01 1.80329E+01 0.00000E+00
 -1      3868 9.47733E+01 1.87860E+01 0.00000E+00
 -1      3869 9.52811E+01 1.58608E+01 0.00000E+00
 -1      3870 6.21081E+01 1.74374E+01 0.00000E+00
 -1      3871 5.87850E+01 1.56973E+01 0.00000E+00
 -1      3872 5.72850E+01 1.56973E+01 0.00000E+00
 -1      3873 5.95350E+01 1.69963E+01 0.00000E+00
 -1      3874 6.22308E+01 2.15656E+01 0.00000E+00
 -1      3875 6.24521E+01 2.02184E+01 0.00000E+00
 -1      3876 1.53135E+01 1.64229E+01 0.00000E+00
 -1      3877 1.40145E+01 1.71573E+01 0.00000E+00
 -1      3878 1.40145E+01 1.86323E+01 0.00000E+00
 -1      3879 1.60635E+01 1.77219E+01 0.00000E+00
 -1      3880 2.49000E+01 3.31130E+01 0.00000E+00
 -1      3881 2.64000E+01 3.31130E+01 0.00000E+00
 -1      3882 2.71500E+01 3.18140E+01 0.00000E+00
 -1      3883 2.41500E+01 3.18140E+01 0.00000E+00
 -1      3884 1.32531E+02 3.23296E+01 0.00000E+00
 -1      3885 1.32223E+02 1.73247E+01 0.00000E+00
 -1      3886 1.32531E+02 3.08546E+01 0.00000E+00
 -1      3887 6.07752E+01 2.52576E+01 0.00000E+00
 -1      3888 6.05494E+01 2.42181E+01 0.00000E+00
 -1      3889 5.97077E+01 2.58026E+01 0.00000E+00
 -1      3890 1.33113E+02 2.57375E+01 0.00000E+00
 -1      3891 1.33113E+02 2.42625E+01 0.00000E+00
 -1      3892 2.80350E+01 1.43982E+01 0.00000E+00
 -1      3893 9.39409E+01 2.76214E+01 0.00000E+00
 -1      3894 9.50777E+01 2.82699E+01 0.00000E+00
 -1      3895 9.43338E+01 2.62039E+01 0.00000E+00
 -1      3896 1.68870E+01 2.12938E+01 0.00000E+00
 -1      3897 1.68870E+01 2.27687E+01 0.00000E+00
 -1      3898 1.53135E+01 1.93667E+01 0.00000E+00
 -1      3899 2.12850E+01 1.56973E+01 0.00000E+00
 -1      3900 2.05351E+01 1.69963E+01 0.00000E+00
 -1      3901 2.27850E+01 1.56973E+01 0.00000E+00
 -1      3902 4.15350E+01 1.69963E+01 0.00000E+00
 -1      3903 4.07850E+01 1.56973E+01 0.00000E+00
 -1      3904 3.92850E+01 1.56973E+01 0.00000E+00
 -1      3905 1.32223E+02 1.87903E+01 0.00000E+00
 -1      3906 1.30035E+02 1.84619E+01 0.00000E+00
 -1      3907 1.32223E+02 2.02559E+01 0.00000E+00
 -1      3908 4.52850E+01 1.56973E+01 0.00000E+00
 -1      3909 4.45350E+01 1.69963E+01 0.00000E+00
 -1      3910 4.67850E+01 1.56973E+01 0.00000E+00
 -1      3911 6.11333E+01 1.98097E+01 0.00000E+00
 -1      3912 6.22555E+01 1.93022E+01 0.00000E+00
 -1      3913 6.20589E+01 1.83861E+01 0.00000E+00
 -1      3914 5.65350E+01 1.69963E+01 0.00000E+00
 -1      3915 9.65337E+01 3.22845E+01 0.00000E+00
 -1      3916 1.33113E+02 2.86875E+01 0.00000E+00
 -1      3917 1.33113E+02 2.72125E+01 0.00000E+00
 -1      3918 1.31814E+02 2.64750E+01 0.00000E+00
 -1      3919 3.17850E+01 1.56973E+01 0.00000E+00
 -1      3920 3.02850E+01 1.56973E+01 0.00000E+00
 -1      3921 5.78719E+01 2.91306E+01 0.00000E+00
 -1      3922 5.88447E+01 2.80837E+01 0.00000E+00
 -1      3923 6.09859E+01 1.79449E+01 0.00000E+00
 -1      3924 1.68870E+01 2.86516E+01 0.00000E+00
 -1      3925 1.81860E+01 2.93859E+01 0.00000E+00
 -1      3926 1.68870E+01 2.71812E+01 0.00000E+00
 -1      3927 1.01535E+02 1.69963E+01 0.00000E+00
 -1      3928 1.34412E+02 2.20547E+01 0.00000E+00
 -1      3929 3.47850E+01 1.56973E+01 0.00000E+00
 -1      3930 3.32850E+01 1.56973E+01 0.00000E+00
 -1      3931 3.25350E+01 1.69963E+01 0.00000E+00
 -1      3932 1.81680E+01 3.26341E+01 0.00000E+00
 -1      3933 9.60311E+01 1.71598E+01 0.00000E+00
 -1      3934 5.87091E+01 2.73186E+01 0.00000E+00
 -1      3935 4.97850E+01 1.56973E+01 0.00000E+00
 -1      3936 4.82850E+01 1.56973E+01 0.00000E+00
 -1      3937 4.75350E+01 1.69963E+01 0.00000E+00
 -1      3938 6.14734E+01 2.21995E+01 0.00000E+00
 -1      3939 9.56546E+01 2.11422E+01 0.00000E+00
 -1      3940 9.53862E+01 2.23781E+01 0.00000E+00
 -1      3941 9.50564E+01 2.35823E+01 0.00000E+00
 -1      3942 9.46636E+01 2.49997E+01 0.00000E+00
 -1      3943 9.58003E+01 2.56483E+01 0.00000E+00
 -1      3944 9.64600E+01 2.32400E+01 0.00000E+00
 -1      3945 1.66125E+01 2.01042E+01 0.00000E+00
 -1      3946 1.79115E+01 2.08417E+01 0.00000E+00
 -1      3947 1.63380E+01 1.89146E+01 0.00000E+00
 -1      3948 5.05350E+01 1.69963E+01 0.00000E+00
 -1      3949 2.57850E+01 1.56973E+01 0.00000E+00
 -1      3950 2.42850E+01 1.56973E+01 0.00000E+00
 -1      3951 2.35351E+01 1.69963E+01 0.00000E+00
 -1      3952 2.87850E+01 1.56973E+01 0.00000E+00
 -1      3953 2.72850E+01 1.56973E+01 0.00000E+00
 -1      3954 2.65350E+01 1.69963E+01 0.00000E+00
 -1      3955 2.95350E+01 1.69963E+01 0.00000E+00
 -1      3956 5.69545E+01 3.11400E+01 0.00000E+00
 -1      3957 9.59698E+01 1.84197E+01 0.00000E+00
 -1      3958 9.57159E+01 1.98823E+01 0.00000E+00
 -1      3959 9.68511E+01 2.07759E+01 0.00000E+00
 -1      3960 9.69737E+01 1.82561E+01 0.00000E+00
 -1      3961 3.24000E+01 3.05150E+01 0.00000E+00
 -1      3962 3.39000E+01 3.05150E+01 0.00000E+00
 -1      3963 3.54000E+01 3.05150E+01 0.00000E+00
 -1      3964 3.69000E+01 3.05150E+01 0.00000E+00
 -1      3965 3.46500E+01 2.92160E+01 0.00000E+00
 -1      3966 3.84000E+01 3.05150E+01 0.00000E+00
 -1      3967 3.99000E+01 3.05150E+01 0.00000E+00
 -1      3968 3.76500E+01 2.92160E+01 0.00000E+00
 -1      3969 4.14000E+01 3.05150E+01 0.00000E+00
 -1      3970 4.29000E+01 3.05150E+01 0.00000E+00
 -1      3971 4.06500E+01 2.92160E+01 0.00000E+00
 -1      3972 4.44000E+01 3.05150E+01 0.00000E+00
 -1      3973 4.59000E+01 3.05150E+01 0.00000E+00
 -1      3974 4.36500E+01 2.92160E+01 0.00000E+00
 -1      3975 4.74000E+01 3.05150E+01 0.00000E+00
 -1      3976 4.89000E+01 3.05150E+01 0.00000E+00
 -1      3977 4.66500E+01 2.92160E+01 0.00000E+00
 -1      3978 5.04000E+01 3.05150E+01 0.00000E+00
 -1      3979 5.19000E+01 3.05150E+01 0.00000E+00
 -1      3980 4.96500E+01 2.92160E+01 0.00000E+00
 -1      3981 5.34000E+01 3.05150E+01 0.00000E+00
 -1      3982 5.49000E+01 3.05150E+01 0.00000E+00
 -1      3983 5.26500E+01 2.92160E+01 0.00000E+00
 -1      3984 9.84000E+01 3.09853E+01 0.00000E+00
 -1      3985 9.99000E+01 3.09853E+01 0.00000E+00
 -1      3986 5.12850E+01 1.82952E+01 0.00000E+00
 -1      3987 4.97850E+01 1.82952E+01 0.00000E+00
 -1      3988 5.42850E+01 1.82952E+01 0.00000E+00
 -1      3989 5.27850E+01 1.82952E+01 0.00000E+00
 -1      3990 5.20350E+01 1.95942E+01 0.00000E+00
 -1      3991 6.04059E+01 2.27445E+01 0.00000E+00
 -1      3992 6.02624E+01 2.12708E+01 0.00000E+00
 -1      3993 5.93384E+01 2.32895E+01 0.00000E+00
 -1      3994 1.01400E+02 3.09853E+01 0.00000E+00
 -1      3995 1.02900E+02 3.09853E+01 0.00000E+00
 -1      3996 1.00650E+02 2.96863E+01 0.00000E+00
 -1      3997 1.04400E+02 3.09853E+01 0.00000E+00
 -1      3998 1.05900E+02 3.09853E+01 0.00000E+00
 -1      3999 1.03650E+02 2.96863E+01 0.00000E+00
 -1      4000 1.07400E+02 3.09853E+01 0.00000E+00
 -1      4001 1.08900E+02 3.09853E+01 0.00000E+00
 -1      4002 1.06650E+02 2.96863E+01 0.00000E+00
 -1      4003 1.10400E+02 3.09853E+01 0.00000E+00
 -1      4004 1.11900E+02 3.09853E+01 0.00000E+00
 -1      4005 1.09650E+02 2.96863E+01 0.00000E+00
 -1      4006 1.13400E+02 3.09853E+01 0.00000E+00
 -1      4007 1.14900E+02 3.09853E+01 0.00000E+00
 -1      4008 1.12650E+02 2.96863E+01 0.00000E+00
 -1      4009 1.16400E+02 3.09853E+01 0.00000E+00
 -1      4010 1.17900E+02 3.09853E+01 0.00000E+00
 -1      4011 1.15650E+02 2.96863E+01 0.00000E+00
 -1      4012 1.19400E+02 3.09853E+01 0.00000E+00
 -1      4013 1.20900E+02 3.09853E+01 0.00000E+00
 -1      4014 1.18650E+02 2.96863E+01 0.00000E+00
 -1      4015 1.22400E+02 3.09853E+01 0.00000E+00
 -1      4016 1.23900E+02 3.09853E+01 0.00000E+00
 -1      4017 1.21650E+02 2.96863E+01 0.00000E+00
 -1      4018 1.25400E+02 3.09853E+01 0.00000E+00
 -1      4019 1.26900E+02 3.09853E+01 0.00000E+00
 -1      4020 1.24650E+02 2.96863E+01 0.00000E+00
 -1      4021 1.28400E+02 3.09853E+01 0.00000E+00
 -1      4022 1.29900E+02 3.09853E+01 0.00000E+00
 -1      4023 1.27650E+02 2.96863E+01 0.00000E+00
 -1      4024 6.00658E+01 2.03547E+01 0.00000E+00
 -1      4025 5.98692E+01 1.94386E+01 0.00000E+00
 -1      4026 5.89983E+01 2.08997E+01 0.00000E+00
 -1      4027 1.11285E+02 1.82952E+01 0.00000E+00
 -1      4028 1.09785E+02 1.82952E+01 0.00000E+00
 -1      4029 3.77850E+01 1.56973E+01 0.00000E+00
 -1      4030 3.62850E+01 1.56973E+01 0.00000E+00
 -1      4031 3.55350E+01 1.69963E+01 0.00000E+00
 -1      4032 3.85350E+01 1.69963E+01 0.00000E+00
 -1      4033 5.62045E+01 2.98410E+01 0.00000E+00
 -1      4034 5.58173E+01 2.85056E+01 0.00000E+00
 -1      4035 1.73625E+01 1.84594E+01 0.00000E+00
 -1      4036 1.89180E+01 3.13351E+01 0.00000E+00
 -1      4037 1.08285E+02 1.82952E+01 0.00000E+00
 -1      4038 1.06785E+02 1.82952E+01 0.00000E+00
 -1      4039 1.09035E+02 1.95942E+01 0.00000E+00
 -1      4040 5.94859E+01 1.79449E+01 0.00000E+00
 -1      4041 9.61674E+01 3.09858E+01 0.00000E+00
 -1      4042 9.72837E+01 3.09855E+01 0.00000E+00
 -1      4043 9.58012E+01 2.96871E+01 0.00000E+00
 -1      4044 2.94000E+01 3.05150E+01 0.00000E+00
 -1      4045 3.09000E+01 3.05150E+01 0.00000E+00
 -1      4046 3.16500E+01 2.92160E+01 0.00000E+00
 -1      4047 1.05285E+02 1.82952E+01 0.00000E+00
 -1      4048 1.03785E+02 1.82952E+01 0.00000E+00
 -1      4049 1.06035E+02 1.95942E+01 0.00000E+00
 -1      4050 1.14285E+02 1.82952E+01 0.00000E+00
 -1      4051 1.12785E+02 1.82952E+01 0.00000E+00
 -1      4052 1.12035E+02 1.95942E+01 0.00000E+00
 -1      4053 1.17285E+02 1.82952E+01 0.00000E+00
 -1      4054 1.15785E+02 1.82952E+01 0.00000E+00
 -1      4055 1.15035E+02 1.95942E+01 0.00000E+00
 -1      4056 1.20285E+02 1.82952E+01 0.00000E+00
 -1      4057 1.18785E+02 1.82952E+01 0.00000E+00
 -1      4058 1.18035E+02 1.95942E+01 0.00000E+00
 -1      4059 1.23285E+02 1.82952E+01 0.00000E+00
 -1      4060 1.21785E+02 1.82952E+01 0.00000E+00
 -1      4061 1.21035E+02 1.95942E+01 0.00000E+00
 -1      4062 1.26285E+02 1.82952E+01 0.00000E+00
 -1      4063 1.24785E+02 1.82952E+01 0.00000E+00
 -1      4064 1.24035E+02 1.95942E+01 0.00000E+00
 -1      4065 1.28910E+02 1.83786E+01 0.00000E+00
 -1      4066 1.27410E+02 1.83786E+01 0.00000E+00
 -1      4067 1.26660E+02 1.96776E+01 0.00000E+00
 -1      4068 1.28910E+02 1.98442E+01 0.00000E+00
 -1      4069 1.31232E+02 3.01171E+01 0.00000E+00
 -1      4070 1.68870E+01 2.42391E+01 0.00000E+00
 -1      4071 1.68870E+01 2.57094E+01 0.00000E+00
 -1      4072 1.81860E+01 2.35016E+01 0.00000E+00
 -1      4073 9.99737E+01 1.82561E+01 0.00000E+00
 -1      4074 9.84737E+01 1.82561E+01 0.00000E+00
 -1      4075 9.84124E+01 1.95160E+01 0.00000E+00
 -1      4076 1.02629E+02 1.82757E+01 0.00000E+00
 -1      4077 1.01129E+02 1.82757E+01 0.00000E+00
 -1      4078 1.01068E+02 1.95356E+01 0.00000E+00
 -1      4079 1.03379E+02 1.95747E+01 0.00000E+00
 -1      4080 1.83360E+01 1.83242E+01 0.00000E+00
 -1      4081 5.84184E+01 1.84899E+01 0.00000E+00
 -1      4082 1.32668E+02 2.29944E+01 0.00000E+00
 -1      4083 1.32668E+02 2.15241E+01 0.00000E+00
 -1      4084 1.30480E+02 2.11956E+01 0.00000E+00
 -1      4085 1.31369E+02 2.37319E+01 0.00000E+00
 -1      4086 5.71017E+01 1.83926E+01 0.00000E+00
 -1      4087 5.56017E+01 1.83926E+01 0.00000E+00
 -1      4088 5.48517E+01 1.96916E+01 0.00000E+00
 -1      4089 5.74850E+01 1.98862E+01 0.00000E+00
 -1      4090 5.72588E+01 2.67558E+01 0.00000E+00
 -1      4091 5.84832E+01 2.62792E+01 0.00000E+00
 -1      4092 5.82574E+01 2.52397E+01 0.00000E+00
 -1      4093 1.93020E+01 3.03605E+01 0.00000E+00
 -1      4094 2.00340E+01 3.08394E+01 0.00000E+00
 -1      4095 2.15340E+01 3.08394E+01 0.00000E+00
 -1      4096 1.93020E+01 2.88902E+01 0.00000E+00
 -1      4097 3.02850E+01 1.82953E+01 0.00000E+00
 -1      4098 2.87850E+01 1.82953E+01 0.00000E+00
 -1      4099 5.55915E+01 2.74662E+01 0.00000E+00
 -1      4100 5.53656E+01 2.64267E+01 0.00000E+00
 -1      4101 5.39242E+01 2.81765E+01 0.00000E+00
 -1      4102 9.80337E+01 2.96865E+01 0.00000E+00
 -1      4103 4.90350E+01 1.95942E+01 0.00000E+00
 -1      4104 4.82850E+01 1.82952E+01 0.00000E+00
 -1      4105 4.67850E+01 1.82952E+01 0.00000E+00
 -1      4106 1.30482E+02 2.88181E+01 0.00000E+00
 -1      4107 9.83511E+01 2.07759E+01 0.00000E+00
 -1      4108 9.82898E+01 2.20358E+01 0.00000E+00
 -1      4109 9.98511E+01 2.07759E+01 0.00000E+00
 -1      4110 1.81860E+01 2.64438E+01 0.00000E+00
 -1      4111 9.61940E+01 2.82696E+01 0.00000E+00
 -1      4112 2.79000E+01 3.05150E+01 0.00000E+00
 -1      4113 2.86500E+01 2.92160E+01 0.00000E+00
 -1      4114 2.64000E+01 3.05150E+01 0.00000E+00
 -1      4115 1.94850E+01 2.27664E+01 0.00000E+00
 -1      4116 1.94850E+01 2.42367E+01 0.00000E+00
 -1      4117 2.18305E+01 2.93737E+01 0.00000E+00
 -1      4118 2.29465E+01 3.03483E+01 0.00000E+00
 -1      4119 9.79600E+01 2.32400E+01 0.00000E+00
 -1      4120 9.76302E+01 2.44441E+01 0.00000E+00
 -1      4121 9.94600E+01 2.32400E+01 0.00000E+00
 -1      4122 2.44465E+01 3.03483E+01 0.00000E+00
 -1      4123 1.30366E+02 2.47958E+01 0.00000E+00
 -1      4124 1.29921E+02 2.35277E+01 0.00000E+00
 -1      4125 3.32850E+01 1.82953E+01 0.00000E+00
 -1      4126 3.17850E+01 1.82953E+01 0.00000E+00
 -1      4127 3.10350E+01 1.95943E+01 0.00000E+00
 -1      4128 1.30424E+02 2.75445E+01 0.00000E+00
 -1      4129 1.30424E+02 2.60695E+01 0.00000E+00
 -1      4130 1.28976E+02 2.58653E+01 0.00000E+00
 -1      4131 1.29092E+02 2.84126E+01 0.00000E+00
 -1      4132 1.98360E+01 1.83242E+01 0.00000E+00
 -1      4133 1.91370E+01 1.96521E+01 0.00000E+00
 -1      4134 2.13360E+01 1.83242E+01 0.00000E+00
 -1      4135 4.22850E+01 1.82952E+01 0.00000E+00
 -1      4136 4.07850E+01 1.82952E+01 0.00000E+00
 -1      4137 1.94115E+01 2.08417E+01 0.00000E+00
 -1      4138 4.52850E+01 1.82952E+01 0.00000E+00
 -1      4139 4.37850E+01 1.82952E+01 0.00000E+00
 -1      4140 4.60350E+01 1.95942E+01 0.00000E+00
 -1      4141 4.30350E+01 1.95942E+01 0.00000E+00
 -1      4142 2.07105E+01 2.15768E+01 0.00000E+00
 -1      4143 3.39000E+01 2.79170E+01 0.00000E+00
 -1      4144 3.54000E+01 2.79170E+01 0.00000E+00
 -1      4145 1.95984E+01 2.74245E+01 0.00000E+00
 -1      4146 2.07145E+01 2.83991E+01 0.00000E+00
 -1      4147 2.21269E+01 2.79080E+01 0.00000E+00
 -1      4148 3.69000E+01 2.79170E+01 0.00000E+00
 -1      4149 3.84000E+01 2.79170E+01 0.00000E+00
 -1      4150 3.61500E+01 2.66180E+01 0.00000E+00
 -1      4151 3.99000E+01 2.79170E+01 0.00000E+00
 -1      4152 4.14000E+01 2.79170E+01 0.00000E+00
 -1      4153 3.91500E+01 2.66180E+01 0.00000E+00
 -1      4154 4.29000E+01 2.79170E+01 0.00000E+00
 -1      4155 4.44000E+01 2.79170E+01 0.00000E+00
 -1      4156 4.21500E+01 2.66180E+01 0.00000E+00
 -1      4157 4.59000E+01 2.79170E+01 0.00000E+00
 -1      4158 4.74000E+01 2.79170E+01 0.00000E+00
 -1      4159 4.51500E+01 2.66180E+01 0.00000E+00
 -1      4160 4.89000E+01 2.79170E+01 0.00000E+00
 -1      4161 5.04000E+01 2.79170E+01 0.00000E+00
 -1      4162 4.81500E+01 2.66180E+01 0.00000E+00
 -1      4163 5.24242E+01 2.81765E+01 0.00000E+00
 -1      4164 5.27850E+01 2.08932E+01 0.00000E+00
 -1      4165 5.12850E+01 2.08932E+01 0.00000E+00
 -1      4166 2.72850E+01 1.82953E+01 0.00000E+00
 -1      4167 2.57851E+01 1.82953E+01 0.00000E+00
 -1      4168 2.80350E+01 1.95943E+01 0.00000E+00
 -1      4169 5.81139E+01 2.37661E+01 0.00000E+00
 -1      4170 5.79704E+01 2.22925E+01 0.00000E+00
 -1      4171 5.68895E+01 2.42427E+01 0.00000E+00
 -1      4172 9.99000E+01 2.83872E+01 0.00000E+00
 -1      4173 1.01400E+02 2.83872E+01 0.00000E+00
 -1      4174 1.02900E+02 2.83872E+01 0.00000E+00
 -1      4175 1.04400E+02 2.83872E+01 0.00000E+00
 -1      4176 1.02150E+02 2.70882E+01 0.00000E+00
 -1      4177 1.05900E+02 2.83872E+01 0.00000E+00
 -1      4178 1.07400E+02 2.83872E+01 0.00000E+00
 -1      4179 1.05150E+02 2.70882E+01 0.00000E+00
 -1      4180 1.08900E+02 2.83872E+01 0.00000E+00
 -1      4181 1.10400E+02 2.83872E+01 0.00000E+00
 -1      4182 1.08150E+02 2.70882E+01 0.00000E+00
 -1      4183 1.11900E+02 2.83872E+01 0.00000E+00
 -1      4184 1.13400E+02 2.83872E+01 0.00000E+00
 -1      4185 1.11150E+02 2.70882E+01 0.00000E+00
 -1      4186 1.14900E+02 2.83872E+01 0.00000E+00
 -1      4187 1.16400E+02 2.83872E+01 0.00000E+00
 -1      4188 1.14150E+02 2.70882E+01 0.00000E+00
 -1      4189 1.17900E+02 2.83872E+01 0.00000E+00
 -1      4190 1.19400E+02 2.83872E+01 0.00000E+00
 -1      4191 1.17150E+02 2.70882E+01 0.00000E+00
 -1      4192 1.20900E+02 2.83872E+01 0.00000E+00
 -1      4193 1.22400E+02 2.83872E+01 0.00000E+00
 -1      4194 1.20150E+02 2.70882E+01 0.00000E+00
 -1      4195 1.23900E+02 2.83872E+01 0.00000E+00
 -1      4196 1.25400E+02 2.83872E+01 0.00000E+00
 -1      4197 1.23150E+02 2.70882E+01 0.00000E+00
 -1      4198 1.27592E+02 2.84126E+01 0.00000E+00
 -1      4199 5.78260E+01 2.15474E+01 0.00000E+00
 -1      4200 5.76294E+01 2.06313E+01 0.00000E+00
 -1      4201 5.63128E+01 2.05339E+01 0.00000E+00
 -1      4202 5.66016E+01 2.20240E+01 0.00000E+00
 -1      4203 1.15785E+02 2.08932E+01 0.00000E+00
 -1      4204 1.14285E+02 2.08932E+01 0.00000E+00
 -1      4205 1.01007E+02 2.07955E+01 0.00000E+00
 -1      4206 1.00945E+02 2.20554E+01 0.00000E+00
 -1      4207 1.02162E+02 2.08150E+01 0.00000E+00
 -1      4208 2.43105E+01 1.83097E+01 0.00000E+00
 -1      4209 2.28105E+01 1.83097E+01 0.00000E+00
 -1      4210 2.21115E+01 1.96377E+01 0.00000E+00
 -1      4211 2.50605E+01 1.96087E+01 0.00000E+00
 -1      4212 9.70770E+01 2.57548E+01 0.00000E+00
 -1      4213 9.67472E+01 2.69590E+01 0.00000E+00
 -1      4214 9.74706E+01 2.83761E+01 0.00000E+00
 -1      4215 9.85770E+01 2.57548E+01 0.00000E+00
 -1      4216 1.09785E+02 2.08932E+01 0.00000E+00
 -1      4217 1.08285E+02 2.08932E+01 0.00000E+00
 -1      4218 1.06785E+02 2.08932E+01 0.00000E+00
 -1      4219 1.05285E+02 2.08932E+01 0.00000E+00
 -1      4220 1.07535E+02 2.21922E+01 0.00000E+00
 -1      4221 1.18785E+02 2.08932E+01 0.00000E+00
 -1      4222 1.17285E+02 2.08932E+01 0.00000E+00
 -1      4223 1.16535E+02 2.21922E+01 0.00000E+00
 -1      4224 1.21785E+02 2.08932E+01 0.00000E+00
 -1      4225 1.20285E+02 2.08932E+01 0.00000E+00
 -1      4226 1.19535E+02 2.21922E+01 0.00000E+00
 -1      4227 1.24785E+02 2.08932E+01 0.00000E+00
 -1      4228 1.23285E+02 2.08932E+01 0.00000E+00
 -1      4229 1.22535E+02 2.21922E+01 0.00000E+00
 -1      4230 3.09000E+01 2.79170E+01 0.00000E+00
 -1      4231 3.24000E+01 2.79170E+01 0.00000E+00
 -1      4232 3.31500E+01 2.66180E+01 0.00000E+00
 -1      4233 1.95984E+01 2.59526E+01 0.00000E+00
 -1      4234 1.12785E+02 2.08932E+01 0.00000E+00
 -1      4235 1.11285E+02 2.08932E+01 0.00000E+00
 -1      4236 1.13535E+02 2.21922E+01 0.00000E+00
 -1      4237 2.08975E+01 2.52175E+01 0.00000E+00
 -1      4238 2.51965E+01 2.90493E+01 0.00000E+00
 -1      4239 1.29638E+02 2.23200E+01 0.00000E+00
 -1      4240 1.29193E+02 2.10519E+01 0.00000E+00
 -1      4241 1.28068E+02 2.09686E+01 0.00000E+00
 -1      4242 1.28634E+02 2.33840E+01 0.00000E+00
 -1      4243 4.37850E+01 2.08932E+01 0.00000E+00
 -1      4244 4.22850E+01 2.08932E+01 0.00000E+00
 -1      4245 2.21850E+01 2.15624E+01 0.00000E+00
 -1      4246 4.00350E+01 1.95942E+01 0.00000E+00
 -1      4247 3.92850E+01 1.82952E+01 0.00000E+00
 -1      4248 3.77850E+01 1.82952E+01 0.00000E+00
 -1      4249 9.85869E+01 2.83759E+01 0.00000E+00
 -1      4250 2.24234E+01 2.64422E+01 0.00000E+00
 -1      4251 2.35394E+01 2.74168E+01 0.00000E+00
 -1      4252 2.87850E+01 2.08933E+01 0.00000E+00
 -1      4253 2.72851E+01 2.08933E+01 0.00000E+00
 -1      4254 4.97850E+01 2.08932E+01 0.00000E+00
 -1      4255 4.82850E+01 2.08932E+01 0.00000E+00
 -1      4256 5.05350E+01 2.21922E+01 0.00000E+00
 -1      4257 9.93369E+01 2.70769E+01 0.00000E+00
 -1      4258 2.54929E+01 2.75836E+01 0.00000E+00
 -1      4259 1.26842E+02 2.71136E+01 0.00000E+00
 -1      4260 1.01771E+02 2.32791E+01 0.00000E+00
 -1      4261 1.00616E+02 2.32595E+01 0.00000E+00
 -1      4262 1.00286E+02 2.44637E+01 0.00000E+00
 -1      4263 3.62850E+01 1.82953E+01 0.00000E+00
 -1      4264 3.47850E+01 1.82953E+01 0.00000E+00
 -1      4265 3.40350E+01 1.95943E+01 0.00000E+00
 -1      4266 3.70350E+01 1.95943E+01 0.00000E+00
 -1      4267 5.16742E+01 2.68775E+01 0.00000E+00
 -1      4268 1.10535E+02 2.21922E+01 0.00000E+00
 -1      4269 2.94000E+01 2.79170E+01 0.00000E+00
 -1      4270 3.01500E+01 2.66180E+01 0.00000E+00
 -1      4271 2.79000E+01 2.79170E+01 0.00000E+00
 -1      4272 1.26989E+02 2.09726E+01 0.00000E+00
 -1      4273 1.25864E+02 2.08893E+01 0.00000E+00
 -1      4274 1.25114E+02 2.21883E+01 0.00000E+00
 -1      4275 1.27272E+02 2.21803E+01 0.00000E+00
 -1      4276 4.52850E+01 2.08932E+01 0.00000E+00
 -1      4277 4.45350E+01 2.21922E+01 0.00000E+00
 -1      4278 4.67850E+01 2.08932E+01 0.00000E+00
 -1      4279 4.15350E+01 2.21922E+01 0.00000E+00
 -1      4280 4.07850E+01 2.08932E+01 0.00000E+00
 -1      4281 3.92850E+01 2.08932E+01 0.00000E+00
 -1      4282 1.03318E+02 2.08346E+01 0.00000E+00
 -1      4283 2.23099E+01 2.47263E+01 0.00000E+00
 -1      4284 3.17850E+01 2.08933E+01 0.00000E+00
 -1      4285 3.02850E+01 2.08933E+01 0.00000E+00
 -1      4286 2.95350E+01 2.21923E+01 0.00000E+00
 -1      4287 1.27839E+02 2.45957E+01 0.00000E+00
 -1      4288 1.27555E+02 2.33880E+01 0.00000E+00
 -1      4289 1.26476E+02 2.33920E+01 0.00000E+00
 -1      4290 1.27897E+02 2.58693E+01 0.00000E+00
 -1      4291 2.43857E+01 2.11979E+01 0.00000E+00
 -1      4292 2.29847E+01 2.31371E+01 0.00000E+00
 -1      4293 2.45106E+01 2.43619E+01 0.00000E+00
 -1      4294 2.58602E+01 2.11835E+01 0.00000E+00
 -1      4295 1.04068E+02 2.21336E+01 0.00000E+00
 -1      4296 5.40645E+01 2.56846E+01 0.00000E+00
 -1      4297 5.57318E+01 2.49743E+01 0.00000E+00
 -1      4298 2.66102E+01 2.24825E+01 0.00000E+00
 -1      4299 3.54000E+01 2.53190E+01 0.00000E+00
 -1      4300 3.69000E+01 2.53190E+01 0.00000E+00
 -1      4301 3.88425E+01 2.44051E+01 0.00000E+00
 -1      4302 4.03425E+01 2.44051E+01 0.00000E+00
 -1      4303 4.18425E+01 2.44051E+01 0.00000E+00
 -1      4304 4.33425E+01 2.44051E+01 0.00000E+00
 -1      4305 4.48425E+01 2.44051E+01 0.00000E+00
 -1      4306 4.63425E+01 2.44051E+01 0.00000E+00
 -1      4307 4.78425E+01 2.44051E+01 0.00000E+00
 -1      4308 4.93425E+01 2.44051E+01 0.00000E+00
 -1      4309 5.42850E+01 2.08933E+01 0.00000E+00
 -1      4310 5.35350E+01 2.21923E+01 0.00000E+00
 -1      4311 9.98901E+01 2.57662E+01 0.00000E+00
 -1      4312 5.55883E+01 2.35006E+01 0.00000E+00
 -1      4313 2.62429E+01 2.62846E+01 0.00000E+00
 -1      4314 1.20285E+02 2.34912E+01 0.00000E+00
 -1      4315 1.18785E+02 2.34912E+01 0.00000E+00
 -1      4316 1.04400E+02 2.57892E+01 0.00000E+00
 -1      4317 1.05900E+02 2.57892E+01 0.00000E+00
 -1      4318 1.07842E+02 2.46402E+01 0.00000E+00
 -1      4319 1.09342E+02 2.46402E+01 0.00000E+00
 -1      4320 1.10842E+02 2.46402E+01 0.00000E+00
 -1      4321 1.12342E+02 2.46402E+01 0.00000E+00
 -1      4322 1.13842E+02 2.46402E+01 0.00000E+00
 -1      4323 1.15342E+02 2.46402E+01 0.00000E+00
 -1      4324 1.19092E+02 2.59392E+01 0.00000E+00
 -1      4325 1.20592E+02 2.59392E+01 0.00000E+00
 -1      4326 1.22400E+02 2.57892E+01 0.00000E+00
 -1      4327 1.23900E+02 2.57892E+01 0.00000E+00
 -1      4328 1.05592E+02 2.33412E+01 0.00000E+00
 -1      4329 1.03626E+02 2.32826E+01 0.00000E+00
 -1      4330 1.25705E+02 2.58440E+01 0.00000E+00
 -1      4331 1.23592E+02 2.33412E+01 0.00000E+00
 -1      4332 1.22092E+02 2.33412E+01 0.00000E+00
 -1      4333 3.24000E+01 2.53190E+01 0.00000E+00
 -1      4334 3.39000E+01 2.53190E+01 0.00000E+00
 -1      4335 3.46500E+01 2.40200E+01 0.00000E+00
 -1      4336 1.01046E+02 2.57857E+01 0.00000E+00
 -1      4337 1.16842E+02 2.46402E+01 0.00000E+00
 -1      4338 5.56016E+01 2.09906E+01 0.00000E+00
 -1      4339 1.24955E+02 2.45450E+01 0.00000E+00
 -1      4340 1.02546E+02 2.57857E+01 0.00000E+00
 -1      4341 2.83425E+01 2.44051E+01 0.00000E+00
 -1      4342 2.69177E+01 2.46953E+01 0.00000E+00
 -1      4343 5.08273E+01 2.54593E+01 0.00000E+00
 -1      4344 5.28515E+01 2.57189E+01 0.00000E+00
 -1      4345 5.47328E+01 2.32122E+01 0.00000E+00
 -1      4346 5.32328E+01 2.32122E+01 0.00000E+00
 -1      4347 4.75350E+01 2.21922E+01 0.00000E+00
 -1      4348 1.06342E+02 2.46402E+01 0.00000E+00
 -1      4349 1.03296E+02 2.44867E+01 0.00000E+00
 -1      4350 1.21342E+02 2.46402E+01 0.00000E+00
 -1      4351 3.13425E+01 2.44051E+01 0.00000E+00
 -1      4352 3.20925E+01 2.31061E+01 0.00000E+00
 -1      4353 1.18342E+02 2.46402E+01 0.00000E+00
 -1      4354 2.98425E+01 2.44051E+01 0.00000E+00
 -1      4355 3.80925E+01 2.31061E+01 0.00000E+00
 -1      4356 5.32176E+01 2.42664E+01 0.00000E+00
 -1      4357 5.20198E+01 2.32464E+01 0.00000E+00
 -1      4358 3.34388E+01 2.07007E+01 0.00000E+00
 -1      4359 3.26888E+01 2.19997E+01 0.00000E+00
 -1      4360 3.37463E+01 2.29136E+01 0.00000E+00
 -1      4361 3.49388E+01 2.07007E+01 0.00000E+00
 -1      4362 5.58904E+01 2.24807E+01 0.00000E+00
 -1      4363 5.05198E+01 2.32464E+01 0.00000E+00
 -1      4364 3.73425E+01 2.18071E+01 0.00000E+00
 -1      4365 5.57460E+01 2.17356E+01 0.00000E+00
 -1      4366 3.58425E+01 2.18071E+01 0.00000E+00
 -1      4367 1.25397E+02 2.33960E+01 0.00000E+00
 -1      4368 3.52463E+01 2.29136E+01 0.00000E+00
 -3
    3C                          2102                                     1
 -1       165    8    0    1
 -2         6         7        23      1134      1298      1151
 -1       166    8    0    1
 -2         7         8       165      1135      1299      1300
 -1       167    8    0    1
 -2         8         9       166      1136      1301      1302
 -1       168    8    0    1
 -2         8       166       165      1302      1303      1299
 -1       169    8    0    1
 -2         9        10       167      1137      1304      1305
 -1       170    8    0    1
 -2         9       167       166      1305      1306      1301
 -1       171    8    0    1
 -2        10        11       168      1138      1307      1308
 -1       172    8    0    1
 -2        10       168       167      1308      1309      1304
 -1       173    8    0    1
 -2        11        12       169      1139      1310      1311
 -1       174    8    0    1
 -2        11       169       168      1311      1312      1307
 -1       175    8    0    1
 -2        12        13       170      1140      1313      1314
 -1       176    8    0    1
 -2        12       170       169      1314      1315      1310
 -1       177    8    0    1
 -2        13        14       171      1141      1316      1317
 -1       178    8    0    1
 -2        13       171       170      1317      1318      1313
 -1       179    8    0    1
 -2        14        15       172      1142      1319      1320
 -1       180    8    0    1
 -2        14       172       171      1320      1321      1316
 -1       181    8    0    1
 -2        15        16       173      1143      1322      1323
 -1       182    8    0    1
 -2        15       173       172      1323      1324      1319
 -1       183    8    0    1
 -2        16        17       174      1144      1325      1326
 -1       184    8    0    1
 -2        16       174       173      1326      1327      1322
 -1       185    8    0    1
 -2        17        18       175      1145      1328      1329
 -1       186    8    0    1
 -2        17       175       174      1329      1330      1325
 -1       187    8    0    1
 -2        18        19       176      1146      1331      1332
 -1       188    8    0    1
 -2        18       176       175      1332      1333      1328
 -1       189    8    0    1
 -2        19        20       177      1147      1334      1335
 -1       190    8    0    1
 -2        19       177       176      1335      1336      1331
 -1       191    8    0    1
 -2        20        21       178      1148      1337      1338
 -1       192    8    0    1
 -2        20       178       177      1338      1339      1334
 -1       193    8    0    1
 -2        21        22       179      1149      1340      1341
 -1       194    8    0    1
 -2        21       179       178      1341      1342      1337
 -1       195    8    0    1
 -2        22         5       180      1150      1343      1344
 -1       196    8    0    1
 -2       179        22       180      1340      1344      1345
 -1       197    8    0    1
 -2         5        72       180      1201      1346      1343
 -1       198    8    0    1
 -2        24        23       181      1152      1347      1348
 -1       199    8    0    1
 -2        25        24       182      1153      1349      1350
 -1       200    8    0    1
 -2        24       181       182      1348      1351      1349
 -1       201    8    0    1
 -2        26        25       183      1154      1352      1353
 -1       202    8    0    1
 -2        25       182       183      1350      1354      1352
 -1       203    8    0    1
 -2        27        26       184      1155      1355      1356
 -1       204    8    0    1
 -2        26       183       184      1353      1357      1355
 -1       205    8    0    1
 -2        28        27       185      1156      1358      1359
 -1       206    8    0    1
 -2        27       184       185      1356      1360      1358
 -1       207    8    0    1
 -2        29        28       186      1157      1361      1362
 -1       208    8    0    1
 -2        28       185       186      1359      1363      1361
 -1       209    8    0    1
 -2        30        29       187      1158      1364      1365
 -1       210    8    0    1
 -2        29       186       187      1362      1366      1364
 -1       211    8    0    1
 -2        31        30       188      1159      1367      1368
 -1       212    8    0    1
 -2        30       187       188      1365      1369      1367
 -1       213    8    0    1
 -2        32        31       189      1160      1370      1371
 -1       214    8    0    1
 -2        31       188       189      1368      1372      1370
 -1       215    8    0    1
 -2        33        32       190      1161      1373      1374
 -1       216    8    0    1
 -2        32       189       190      1371      1375      1373
 -1       217    8    0    1
 -2        34        33       191      1162      1376      1377
 -1       218    8    0    1
 -2        33       190       191      1374      1378      1376
 -1       219    8    0    1
 -2        35        34       192      1163      1379      1380
 -1       220    8    0    1
 -2        34       191       192      1377      1381      1379
 -1       221    8    0    1
 -2        36        35       193      1164      1382      1383
 -1       222    8    0    1
 -2        35       192       193      1380      1384      1382
 -1       223    8    0    1
 -2        37        36       194      1165      1385      1386
 -1       224    8    0    1
 -2        36       193       194      1383      1387      1385
 -1       225    8    0    1
 -2        38        37       195      1166      1388      1389
 -1       226    8    0    1
 -2        37       194       195      1386      1390      1388
 -1       227    8    0    1
 -2        39        38       196      1167      1391      1392
 -1       228    8    0    1
 -2        38       195       196      1389      1393      1391
 -1       229    8    0    1
 -2        40        39       197      1168      1394      1395
 -1       230    8    0    1
 -2        39       196       197      1392      1396      1394
 -1       231    8    0    1
 -2        41        40       198      1169      1397      1398
 -1       232    8    0    1
 -2        40       197       198      1395      1399      1397
 -1       233    8    0    1
 -2        42        41       199      1170      1400      1401
 -1       234    8    0    1
 -2        41       198       199      1398      1402      1400
 -1       235    8    0    1
 -2        43        42       200      1171      1403      1404
 -1       236    8    0    1
 -2        42       199       200      1401      1405      1403
 -1       237    8    0    1
 -2        44        43       201      1172      1406      1407
 -1       238    8    0    1
 -2        43       200       201      1404      1408      1406
 -1       239    8    0    1
 -2        45        44       202      1173      1409      1410
 -1       240    8    0    1
 -2        44       201       202      1407      1411      1409
 -1       241    8    0    1
 -2        46        45       203      1174      1412      1413
 -1       242    8    0    1
 -2        45       202       203      1410      1414      1412
 -1       243    8    0    1
 -2        47        46       204      1175      1415      1416
 -1       244    8    0    1
 -2        46       203       204      1413      1417      1415
 -1       245    8    0    1
 -2        48        47       205      1176      1418      1419
 -1       246    8    0    1
 -2        47       204       205      1416      1420      1418
 -1       247    8    0    1
 -2        49        48       206      1177      1421      1422
 -1       248    8    0    1
 -2        48       205       206      1419      1423      1421
 -1       249    8    0    1
 -2        50        49       207      1178      1424      1425
 -1       250    8    0    1
 -2        49       206       207      1422      1426      1424
 -1       251    8    0    1
 -2        51        50       208      1179      1427      1428
 -1       252    8    0    1
 -2        50       207       208      1425      1429      1427
 -1       253    8    0    1
 -2        52        51       209      1180      1430      1431
 -1       254    8    0    1
 -2        51       208       209      1428      1432      1430
 -1       255    8    0    1
 -2        53        52       210      1181      1433      1434
 -1       256    8    0    1
 -2        52       209       210      1431      1435      1433
 -1       257    8    0    1
 -2        54        53       211      1182      1436      1437
 -1       258    8    0    1
 -2        53       210       211      1434      1438      1436
 -1       259    8    0    1
 -2        55        54       212      1183      1439      1440
 -1       260    8    0    1
 -2        54       211       212      1437      1441      1439
 -1       261    8    0    1
 -2        56        55       213      1184      1442      1443
 -1       262    8    0    1
 -2        55       212       213      1440      1444      1442
 -1       263    8    0    1
 -2        57        56       214      1185      1445      1446
 -1       264    8    0    1
 -2        56       213       214      1443      1447      1445
 -1       265    8    0    1
 -2        58        57       215      1186      1448      1449
 -1       266    8    0    1
 -2        57       214       215      1446      1450      1448
 -1       267    8    0    1
 -2        59        58       216      1187      1451      1452
 -1       268    8    0    1
 -2        58       215       216      1449      1453      1451
 -1       269    8    0    1
 -2        60        59       217      1188      1454      1455
 -1       270    8    0    1
 -2        59       216       217      1452      1456      1454
 -1       271    8    0    1
 -2        61        60       218      1189      1457      1458
 -1       272    8    0    1
 -2        60       217       218      1455      1459      1457
 -1       273    8    0    1
 -2        62        61       219      1190      1460      1461
 -1       274    8    0    1
 -2        61       218       219      1458      1462      1460
 -1       275    8    0    1
 -2        63        62       220      1191      1463      1464
 -1       276    8    0    1
 -2        62       219       220      1461      1465      1463
 -1       277    8    0    1
 -2        64        63       221      1192      1466      1467
 -1       278    8    0    1
 -2        63       220       221      1464      1468      1466
 -1       279    8    0    1
 -2        65        64       222      1193      1469      1470
 -1       280    8    0    1
 -2        64       221       222      1467      1471      1469
 -1       281    8    0    1
 -2        66        65       223      1194      1472      1473
 -1       282    8    0    1
 -2        65       222       223      1470      1474      1472
 -1       283    8    0    1
 -2        67        66       224      1195      1475      1476
 -1       284    8    0    1
 -2        66       223       224      1473      1477      1475
 -1       285    8    0    1
 -2        68        67       225      1196      1478      1479
 -1       286    8    0    1
 -2        67       224       225      1476      1480      1478
 -1       287    8    0    1
 -2        69        68       226      1197      1481      1482
 -1       288    8    0    1
 -2        68       225       226      1479      1483      1481
 -1       289    8    0    1
 -2        70        69       227      1198      1484      1485
 -1       290    8    0    1
 -2        69       226       227      1482      1486      1484
 -1       291    8    0    1
 -2        71        70       228      1199      1487      1488
 -1       292    8    0    1
 -2        70       227       228      1485      1489      1487
 -1       293    8    0    1
 -2         4        71       136      1200      1490      1267
 -1       294    8    0    1
 -2       136        71       228      1490      1488      1491
 -1       295    8    0    1
 -2        72        73       229      1202      1492      1493
 -1       296    8    0    1
 -2        72       229       180      1493      1494      1346
 -1       297    8    0    1
 -2        73        74       230      1203      1495      1496
 -1       298    8    0    1
 -2        73       230       229      1496      1497      1492
 -1       299    8    0    1
 -2        74        75       231      1204      1498      1499
 -1       300    8    0    1
 -2        74       231       230      1499      1500      1495
 -1       301    8    0    1
 -2        75        76       232      1205      1501      1502
 -1       302    8    0    1
 -2        75       232       231      1502      1503      1498
 -1       303    8    0    1
 -2        76        77       233      1206      1504      1505
 -1       304    8    0    1
 -2        76       233       232      1505      1506      1501
 -1       305    8    0    1
 -2        77        78       234      1207      1507      1508
 -1       306    8    0    1
 -2        77       234       233      1508      1509      1504
 -1       307    8    0    1
 -2        78        79       235      1208      1510      1511
 -1       308    8    0    1
 -2        78       235       234      1511      1512      1507
 -1       309    8    0    1
 -2        79        80       236      1209      1513      1514
 -1       310    8    0    1
 -2        79       236       235      1514      1515      1510
 -1       311    8    0    1
 -2        80        81       237      1210      1516      1517
 -1       312    8    0    1
 -2        80       237       236      1517      1518      1513
 -1       313    8    0    1
 -2        81        82       238      1211      1519      1520
 -1       314    8    0    1
 -2        81       238       237      1520      1521      1516
 -1       315    8    0    1
 -2        82        83       239      1212      1522      1523
 -1       316    8    0    1
 -2        82       239       238      1523      1524      1519
 -1       317    8    0    1
 -2        83        84       240      1213      1525      1526
 -1       318    8    0    1
 -2        83       240       239      1526      1527      1522
 -1       319    8    0    1
 -2        84        85       241      1214      1528      1529
 -1       320    8    0    1
 -2        84       241       240      1529      1530      1525
 -1       321    8    0    1
 -2        85        86       242      1215      1531      1532
 -1       322    8    0    1
 -2        85       242       241      1532      1533      1528
 -1       323    8    0    1
 -2        86        87       243      1216      1534      1535
 -1       324    8    0    1
 -2        86       243       242      1535      1536      1531
 -1       325    8    0    1
 -2        87        88       244      1217      1537      1538
 -1       326    8    0    1
 -2        87       244       243      1538      1539      1534
 -1       327    8    0    1
 -2        88        89       245      1218      1540      1541
 -1       328    8    0    1
 -2        88       245       244      1541      1542      1537
 -1       329    8    0    1
 -2        89        90       246      1219      1543      1544
 -1       330    8    0    1
 -2        89       246       245      1544      1545      1540
 -1       331    8    0    1
 -2        90        91       247      1220      1546      1547
 -1       332    8    0    1
 -2        90       247       246      1547      1548      1543
 -1       333    8    0    1
 -2        91        92       248      1221      1549      1550
 -1       334    8    0    1
 -2        91       248       247      1550      1551      1546
 -1       335    8    0    1
 -2        92        93       249      1222      1552      1553
 -1       336    8    0    1
 -2        92       249       248      1553      1554      1549
 -1       337    8    0    1
 -2        93        94       250      1223      1555      1556
 -1       338    8    0    1
 -2        93       250       249      1556      1557      1552
 -1       339    8    0    1
 -2        94        95       251      1224      1558      1559
 -1       340    8    0    1
 -2        94       251       250      1559      1560      1555
 -1       341    8    0    1
 -2        95        96       252      1225      1561      1562
 -1       342    8    0    1
 -2        95       252       251      1562      1563      1558
 -1       343    8    0    1
 -2        96        97       253      1226      1564      1565
 -1       344    8    0    1
 -2        96       253       252      1565      1566      1561
 -1       345    8    0    1
 -2        97        98       254      1227      1567      1568
 -1       346    8    0    1
 -2        97       254       253      1568      1569      1564
 -1       347    8    0    1
 -2        98        99       255      1228      1570      1571
 -1       348    8    0    1
 -2        98       255       254      1571      1572      1567
 -1       349    8    0    1
 -2        99       100       256      1229      1573      1574
 -1       350    8    0    1
 -2        99       256       255      1574      1575      1570
 -1       351    8    0    1
 -2       100       101       257      1230      1576      1577
 -1       352    8    0    1
 -2       100       257       256      1577      1578      1573
 -1       353    8    0    1
 -2       101       102       258      1231      1579      1580
 -1       354    8    0    1
 -2       101       258       257      1580      1581      1576
 -1       355    8    0    1
 -2       102       103       259      1232      1582      1583
 -1       356    8    0    1
 -2       102       259       258      1583      1584      1579
 -1       357    8    0    1
 -2       103       104       260      1233      1585      1586
 -1       358    8    0    1
 -2       103       260       259      1586      1587      1582
 -1       359    8    0    1
 -2       104       105       261      1234      1588      1589
 -1       360    8    0    1
 -2       104       261       260      1589      1590      1585
 -1       361    8    0    1
 -2       105       106       262      1235      1591      1592
 -1       362    8    0    1
 -2       105       262       261      1592      1593      1588
 -1       363    8    0    1
 -2       106       107       263      1236      1594      1595
 -1       364    8    0    1
 -2       106       263       262      1595      1596      1591
 -1       365    8    0    1
 -2       107       108       264      1237      1597      1598
 -1       366    8    0    1
 -2       107       264       263      1598      1599      1594
 -1       367    8    0    1
 -2       108       109       265      1238      1600      1601
 -1       368    8    0    1
 -2       108       265       264      1601      1602      1597
 -1       369    8    0    1
 -2       109       110       266      1239      1603      1604
 -1       370    8    0    1
 -2       109       266       265      1604      1605      1600
 -1       371    8    0    1
 -2       110       111       267      1240      1606      1607
 -1       372    8    0    1
 -2       110       267       266      1607      1608      1603
 -1       373    8    0    1
 -2       111       112       268      1241      1609      1610
 -1       374    8    0    1
 -2       111       268       267      1610      1611      1606
 -1       375    8    0    1
 -2       112       113       269      1242      1612      1613
 -1       376    8    0    1
 -2       112       269       268      1613      1614      1609
 -1       377    8    0    1
 -2       113       114       270      1243      1615      1616
 -1       378    8    0    1
 -2       113       270       269      1616      1617      1612
 -1       379    8    0    1
 -2       114       115       271      1244      1618      1619
 -1       380    8    0    1
 -2       114       271       270      1619      1620      1615
 -1       381    8    0    1
 -2       115       116       272      1245      1621      1622
 -1       382    8    0    1
 -2       115       272       271      1622      1623      1618
 -1       383    8    0    1
 -2       116       117       273      1246      1624      1625
 -1       384    8    0    1
 -2       116       273       272      1625      1626      1621
 -1       385    8    0    1
 -2       117       118       274      1247      1627      1628
 -1       386    8    0    1
 -2       117       274       273      1628      1629      1624
 -1       387    8    0    1
 -2       118       119       275      1248      1630      1631
 -1       388    8    0    1
 -2       118       275       274      1631      1632      1627
 -1       389    8    0    1
 -2       119       120       276      1249      1633      1634
 -1       390    8    0    1
 -2       119       276       275      1634      1635      1630
 -1       391    8    0    1
 -2       120         3       121      1250      1251      1636
 -1       392    8    0    1
 -2       121       122       277      1252      1637      1638
 -1       393    8    0    1
 -2       122       123       278      1253      1639      1640
 -1       394    8    0    1
 -2       122       278       277      1640      1641      1637
 -1       395    8    0    1
 -2       123       124       279      1254      1642      1643
 -1       396    8    0    1
 -2       123       279       278      1643      1644      1639
 -1       397    8    0    1
 -2       124       125       280      1255      1645      1646
 -1       398    8    0    1
 -2       124       280       279      1646      1647      1642
 -1       399    8    0    1
 -2       125       126       281      1256      1648      1649
 -1       400    8    0    1
 -2       125       281       280      1649      1650      1645
 -1       401    8    0    1
 -2       126       127       282      1257      1651      1652
 -1       402    8    0    1
 -2       126       282       281      1652      1653      1648
 -1       403    8    0    1
 -2       127       128       283      1258      1654      1655
 -1       404    8    0    1
 -2       127       283       282      1655      1656      1651
 -1       405    8    0    1
 -2       128       129       284      1259      1657      1658
 -1       406    8    0    1
 -2       128       284       283      1658      1659      1654
 -1       407    8    0    1
 -2       129       130       285      1260      1660      1661
 -1       408    8    0    1
 -2       129       285       284      1661      1662      1657
 -1       409    8    0    1
 -2       130       131       286      1261      1663      1664
 -1       410    8    0    1
 -2       130       286       285      1664      1665      1660
 -1       411    8    0    1
 -2       131       132       287      1262      1666      1667
 -1       412    8    0    1
 -2       131       287       286      1667      1668      1663
 -1       413    8    0    1
 -2       132       133       288      1263      1669      1670
 -1       414    8    0    1
 -2       132       288       287      1670      1671      1666
 -1       415    8    0    1
 -2       133       134       289      1264      1672      1673
 -1       416    8    0    1
 -2       133       289       288      1673      1674      1669
 -1       417    8    0    1
 -2       134       135       290      1265      1675      1676
 -1       418    8    0    1
 -2       134       290       289      1676      1677      1672
 -1       419    8    0    1
 -2       135       136       291      1266      1678      1679
 -1       420    8    0    1
 -2       290       135       291      1675      1679      1680
 -1       421    8    0    1
 -2       136       228       291      1491      1681      1678
 -1       422    8    0    1
 -2         2       137       292      1268      1682      1683
 -1       423    8    0    1
 -2       137       138       293      1269      1684      1685
 -1       424    8    0    1
 -2       138       139       294      1270      1686      1687
 -1       425    8    0    1
 -2       139       140       295      1271      1688      1689
 -1       426    8    0    1
 -2       140       141       296      1272      1690      1691
 -1       427    8    0    1
 -2       141       142       297      1273      1692      1693
 -1       428    8    0    1
 -2       142       143       298      1274      1694      1695
 -1       429    8    0    1
 -2       143       144       299      1275      1696      1697
 -1       430    8    0    1
 -2       144       145       300      1276      1698      1699
 -1       431    8    0    1
 -2       145       146       301      1277      1700      1701
 -1       432    8    0    1
 -2       146       147       302      1278      1702      1703
 -1       433    8    0    1
 -2       147       148       303      1279      1704      1705
 -1       434    8    0    1
 -2       148       149       304      1280      1706      1707
 -1       435    8    0    1
 -2       149       150       305      1281      1708      1709
 -1       436    8    0    1
 -2       150       151       306      1282      1710      1711
 -1       437    8    0    1
 -2       151       152       307      1283      1712      1713
 -1       438    8    0    1
 -2       152         1       308      1284      1714      1715
 -1       439    8    0    1
 -2         1       153       309      1285      1716      1717
 -1       440    8    0    1
 -2       153       154       310      1286      1718      1719
 -1       441    8    0    1
 -2       154       155       311      1287      1720      1721
 -1       442    8    0    1
 -2       155       156       312      1288      1722      1723
 -1       443    8    0    1
 -2       156       157       313      1289      1724      1725
 -1       444    8    0    1
 -2       157       158       314      1290      1726      1727
 -1       445    8    0    1
 -2       158       159       315      1291      1728      1729
 -1       446    8    0    1
 -2       159       160       316      1292      1730      1731
 -1       447    8    0    1
 -2       160       161       317      1293      1732      1733
 -1       448    8    0    1
 -2       161       162       318      1294      1734      1735
 -1       449    8    0    1
 -2       162       163       319      1295      1736      1737
 -1       450    8    0    1
 -2       163       164       320      1296      1738      1739
 -1       451    8    0    1
 -2       164         2       321      1297      1740      1741
 -1       452    8    0    1
 -2       295       140       296      1688      1691      1742
 -1       453    8    0    1
 -2       294       139       295      1686      1689      1743
 -1       454    8    0    1
 -2       120       121       276      1636      1744      1633
 -1       455    8    0    1
 -2       121       277       276      1638      1745      1744
 -1       456    8    0    1
 -2       292       137       293      1682      1685      1746
 -1       457    8    0    1
 -2       293       138       294      1684      1687      1747
 -1       458    8    0    1
 -2         2       292       321      1683      1748      1740
 -1       459    8    0    1
 -2       141       297       296      1693      1749      1690
 -1       460    8    0    1
 -2       142       298       297      1695      1750      1692
 -1       461    8    0    1
 -2       143       299       298      1697      1751      1694
 -1       462    8    0    1
 -2       144       300       299      1699      1752      1696
 -1       463    8    0    1
 -2       145       301       300      1701      1753      1698
 -1       464    8    0    1
 -2       146       302       301      1703      1754      1700
 -1       465    8    0    1
 -2       147       303       302      1705      1755      1702
 -1       466    8    0    1
 -2       148       304       303      1707      1756      1704
 -1       467    8    0    1
 -2       149       305       304      1709      1757      1706
 -1       468    8    0    1
 -2       150       306       305      1711      1758      1708
 -1       469    8    0    1
 -2       151       307       306      1713      1759      1710
 -1       470    8    0    1
 -2       152       308       307      1715      1760      1712
 -1       471    8    0    1
 -2         1       309       308      1717      1761      1714
 -1       472    8    0    1
 -2       153       310       309      1719      1762      1716
 -1       473    8    0    1
 -2       154       311       310      1721      1763      1718
 -1       474    8    0    1
 -2       155       312       311      1723      1764      1720
 -1       475    8    0    1
 -2       156       313       312      1725      1765      1722
 -1       476    8    0    1
 -2       157       314       313      1727      1766      1724
 -1       477    8    0    1
 -2       158       315       314      1729      1767      1726
 -1       478    8    0    1
 -2       159       316       315      1731      1768      1728
 -1       479    8    0    1
 -2       160       317       316      1733      1769      1730
 -1       480    8    0    1
 -2       161       318       317      1735      1770      1732
 -1       481    8    0    1
 -2       162       319       318      1737      1771      1734
 -1       482    8    0    1
 -2       163       320       319      1739      1772      1736
 -1       483    8    0    1
 -2       164       321       320      1741      1773      1738
 -1       484    8    0    1
 -2        23         7       165      1298      1300      1774
 -1       485    8    0    1
 -2       166       167       322      1306      1775      1776
 -1       486    8    0    1
 -2       165       166       323      1303      1777      1778
 -1       487    8    0    1
 -2       166       322       323      1776      1779      1777
 -1       488    8    0    1
 -2       168       169       324      1312      1780      1781
 -1       489    8    0    1
 -2       169       170       325      1315      1782      1783
 -1       490    8    0    1
 -2       169       325       324      1783      1784      1780
 -1       491    8    0    1
 -2       170       171       326      1318      1785      1786
 -1       492    8    0    1
 -2       170       326       325      1786      1787      1782
 -1       493    8    0    1
 -2       171       172       327      1321      1788      1789
 -1       494    8    0    1
 -2       171       327       326      1789      1790      1785
 -1       495    8    0    1
 -2       172       173       328      1324      1791      1792
 -1       496    8    0    1
 -2       172       328       327      1792      1793      1788
 -1       497    8    0    1
 -2       173       174       329      1327      1794      1795
 -1       498    8    0    1
 -2       173       329       328      1795      1796      1791
 -1       499    8    0    1
 -2       174       175       330      1330      1797      1798
 -1       500    8    0    1
 -2       174       330       329      1798      1799      1794
 -1       501    8    0    1
 -2       175       176       331      1333      1800      1801
 -1       502    8    0    1
 -2       175       331       330      1801      1802      1797
 -1       503    8    0    1
 -2       176       177       332      1336      1803      1804
 -1       504    8    0    1
 -2       176       332       331      1804      1805      1800
 -1       505    8    0    1
 -2       177       178       333      1339      1806      1807
 -1       506    8    0    1
 -2       177       333       332      1807      1808      1803
 -1       507    8    0    1
 -2       178       179       334      1342      1809      1810
 -1       508    8    0    1
 -2       178       334       333      1810      1811      1806
 -1       509    8    0    1
 -2       179       180       335      1345      1812      1813
 -1       510    8    0    1
 -2       334       179       335      1809      1813      1814
 -1       511    8    0    1
 -2       180       229       335      1494      1815      1812
 -1       512    8    0    1
 -2       181        23       165      1347      1774      1816
 -1       513    8    0    1
 -2       229       230       336      1497      1817      1818
 -1       514    8    0    1
 -2       229       336       335      1818      1819      1815
 -1       515    8    0    1
 -2       181       165       323      1816      1778      1820
 -1       516    8    0    1
 -2       183       182       337      1354      1821      1822
 -1       517    8    0    1
 -2       184       183       338      1357      1823      1824
 -1       518    8    0    1
 -2       183       337       338      1822      1825      1823
 -1       519    8    0    1
 -2       185       184       339      1360      1826      1827
 -1       520    8    0    1
 -2       184       338       339      1824      1828      1826
 -1       521    8    0    1
 -2       186       185       340      1363      1829      1830
 -1       522    8    0    1
 -2       185       339       340      1827      1831      1829
 -1       523    8    0    1
 -2       187       186       341      1366      1832      1833
 -1       524    8    0    1
 -2       186       340       341      1830      1834      1832
 -1       525    8    0    1
 -2       188       187       342      1369      1835      1836
 -1       526    8    0    1
 -2       187       341       342      1833      1837      1835
 -1       527    8    0    1
 -2       189       188       343      1372      1838      1839
 -1       528    8    0    1
 -2       188       342       343      1836      1840      1838
 -1       529    8    0    1
 -2       190       189       344      1375      1841      1842
 -1       530    8    0    1
 -2       189       343       344      1839      1843      1841
 -1       531    8    0    1
 -2       191       190       345      1378      1844      1845
 -1       532    8    0    1
 -2       190       344       345      1842      1846      1844
 -1       533    8    0    1
 -2       192       191       346      1381      1847      1848
 -1       534    8    0    1
 -2       191       345       346      1845      1849      1847
 -1       535    8    0    1
 -2       193       192       347      1384      1850      1851
 -1       536    8    0    1
 -2       192       346       347      1848      1852      1850
 -1       537    8    0    1
 -2       194       193       348      1387      1853      1854
 -1       538    8    0    1
 -2       193       347       348      1851      1855      1853
 -1       539    8    0    1
 -2       195       194       349      1390      1856      1857
 -1       540    8    0    1
 -2       194       348       349      1854      1858      1856
 -1       541    8    0    1
 -2       196       195       350      1393      1859      1860
 -1       542    8    0    1
 -2       195       349       350      1857      1861      1859
 -1       543    8    0    1
 -2       197       196       351      1396      1862      1863
 -1       544    8    0    1
 -2       196       350       351      1860      1864      1862
 -1       545    8    0    1
 -2       198       197       352      1399      1865      1866
 -1       546    8    0    1
 -2       197       351       352      1863      1867      1865
 -1       547    8    0    1
 -2       199       198       353      1402      1868      1869
 -1       548    8    0    1
 -2       198       352       353      1866      1870      1868
 -1       549    8    0    1
 -2       200       199       354      1405      1871      1872
 -1       550    8    0    1
 -2       199       353       354      1869      1873      1871
 -1       551    8    0    1
 -2       201       200       355      1408      1874      1875
 -1       552    8    0    1
 -2       200       354       355      1872      1876      1874
 -1       553    8    0    1
 -2       202       201       356      1411      1877      1878
 -1       554    8    0    1
 -2       201       355       356      1875      1879      1877
 -1       555    8    0    1
 -2       203       202       357      1414      1880      1881
 -1       556    8    0    1
 -2       202       356       357      1878      1882      1880
 -1       557    8    0    1
 -2       204       203       358      1417      1883      1884
 -1       558    8    0    1
 -2       203       357       358      1881      1885      1883
 -1       559    8    0    1
 -2       205       204       359      1420      1886      1887
 -1       560    8    0    1
 -2       204       358       359      1884      1888      1886
 -1       561    8    0    1
 -2       206       205       360      1423      1889      1890
 -1       562    8    0    1
 -2       205       359       360      1887      1891      1889
 -1       563    8    0    1
 -2       207       206       361      1426      1892      1893
 -1       564    8    0    1
 -2       206       360       361      1890      1894      1892
 -1       565    8    0    1
 -2       208       207       362      1429      1895      1896
 -1       566    8    0    1
 -2       207       361       362      1893      1897      1895
 -1       567    8    0    1
 -2       209       208       363      1432      1898      1899
 -1       568    8    0    1
 -2       208       362       363      1896      1900      1898
 -1       569    8    0    1
 -2       210       209       364      1435      1901      1902
 -1       570    8    0    1
 -2       209       363       364      1899      1903      1901
 -1       571    8    0    1
 -2       211       210       365      1438      1904      1905
 -1       572    8    0    1
 -2       210       364       365      1902      1906      1904
 -1       573    8    0    1
 -2       212       211       366      1441      1907      1908
 -1       574    8    0    1
 -2       211       365       366      1905      1909      1907
 -1       575    8    0    1
 -2       213       212       367      1444      1910      1911
 -1       576    8    0    1
 -2       212       366       367      1908      1912      1910
 -1       577    8    0    1
 -2       214       213       368      1447      1913      1914
 -1       578    8    0    1
 -2       213       367       368      1911      1915      1913
 -1       579    8    0    1
 -2       215       214       369      1450      1916      1917
 -1       580    8    0    1
 -2       214       368       369      1914      1918      1916
 -1       581    8    0    1
 -2       216       215       370      1453      1919      1920
 -1       582    8    0    1
 -2       215       369       370      1917      1921      1919
 -1       583    8    0    1
 -2       217       216       371      1456      1922      1923
 -1       584    8    0    1
 -2       216       370       371      1920      1924      1922
 -1       585    8    0    1
 -2       218       217       372      1459      1925      1926
 -1       586    8    0    1
 -2       217       371       372      1923      1927      1925
 -1       587    8    0    1
 -2       219       218       373      1462      1928      1929
 -1       588    8    0    1
 -2       218       372       373      1926      1930      1928
 -1       589    8    0    1
 -2       220       219       374      1465      1931      1932
 -1       590    8    0    1
 -2       219       373       374      1929      1933      1931
 -1       591    8    0    1
 -2       221       220       375      1468      1934      1935
 -1       592    8    0    1
 -2       220       374       375      1932      1936      1934
 -1       593    8    0    1
 -2       222       221       376      1471      1937      1938
 -1       594    8    0    1
 -2       221       375       376      1935      1939      1937
 -1       595    8    0    1
 -2       223       222       377      1474      1940      1941
 -1       596    8    0    1
 -2       222       376       377      1938      1942      1940
 -1       597    8    0    1
 -2       224       223       378      1477      1943      1944
 -1       598    8    0    1
 -2       223       377       378      1941      1945      1943
 -1       599    8    0    1
 -2       225       224       379      1480      1946      1947
 -1       600    8    0    1
 -2       224       378       379      1944      1948      1946
 -1       601    8    0    1
 -2       226       225       380      1483      1949      1950
 -1       602    8    0    1
 -2       225       379       380      1947      1951      1949
 -1       603    8    0    1
 -2       227       226       381      1486      1952      1953
 -1       604    8    0    1
 -2       226       380       381      1950      1954      1952
 -1       605    8    0    1
 -2       228       227       382      1489      1955      1956
 -1       606    8    0    1
 -2       291       228       382      1681      1956      1957
 -1       607    8    0    1
 -2       227       381       382      1953      1958      1955
 -1       608    8    0    1
 -2       230       231       383      1500      1959      1960
 -1       609    8    0    1
 -2       230       383       336      1960      1961      1817
 -1       610    8    0    1
 -2       231       232       384      1503      1962      1963
 -1       611    8    0    1
 -2       231       384       383      1963      1964      1959
 -1       612    8    0    1
 -2       232       233       385      1506      1965      1966
 -1       613    8    0    1
 -2       232       385       384      1966      1967      1962
 -1       614    8    0    1
 -2       233       234       386      1509      1968      1969
 -1       615    8    0    1
 -2       233       386       385      1969      1970      1965
 -1       616    8    0    1
 -2       234       235       387      1512      1971      1972
 -1       617    8    0    1
 -2       234       387       386      1972      1973      1968
 -1       618    8    0    1
 -2       235       236       388      1515      1974      1975
 -1       619    8    0    1
 -2       235       388       387      1975      1976      1971
 -1       620    8    0    1
 -2       236       237       389      1518      1977      1978
 -1       621    8    0    1
 -2       236       389       388      1978      1979      1974
 -1       622    8    0    1
 -2       237       238       390      1521      1980      1981
 -1       623    8    0    1
 -2       237       390       389      1981      1982      1977
 -1       624    8    0    1
 -2       238       239       391      1524      1983      1984
 -1       625    8    0    1
 -2       238       391       390      1984      1985      1980
 -1       626    8    0    1
 -2       239       240       392      1527      1986      1987
 -1       627    8    0    1
 -2       239       392       391      1987      1988      1983
 -1       628    8    0    1
 -2       240       241       393      1530      1989      1990
 -1       629    8    0    1
 -2       240       393       392      1990      1991      1986
 -1       630    8    0    1
 -2       241       242       394      1533      1992      1993
 -1       631    8    0    1
 -2       241       394       393      1993      1994      1989
 -1       632    8    0    1
 -2       242       243       395      1536      1995      1996
 -1       633    8    0    1
 -2       242       395       394      1996      1997      1992
 -1       634    8    0    1
 -2       243       244       396      1539      1998      1999
 -1       635    8    0    1
 -2       243       396       395      1999      2000      1995
 -1       636    8    0    1
 -2       244       245       397      1542      2001      2002
 -1       637    8    0    1
 -2       244       397       396      2002      2003      1998
 -1       638    8    0    1
 -2       245       246       398      1545      2004      2005
 -1       639    8    0    1
 -2       245       398       397      2005      2006      2001
 -1       640    8    0    1
 -2       246       247       399      1548      2007      2008
 -1       641    8    0    1
 -2       246       399       398      2008      2009      2004
 -1       642    8    0    1
 -2       247       248       400      1551      2010      2011
 -1       643    8    0    1
 -2       247       400       399      2011      2012      2007
 -1       644    8    0    1
 -2       248       249       401      1554      2013      2014
 -1       645    8    0    1
 -2       248       401       400      2014      2015      2010
 -1       646    8    0    1
 -2       249       250       402      1557      2016      2017
 -1       647    8    0    1
 -2       249       402       401      2017      2018      2013
 -1       648    8    0    1
 -2       250       251       403      1560      2019      2020
 -1       649    8    0    1
 -2       250       403       402      2020      2021      2016
 -1       650    8    0    1
 -2       251       252       404      1563      2022      2023
 -1       651    8    0    1
 -2       251       404       403      2023      2024      2019
 -1       652    8    0    1
 -2       252       253       405      1566      2025      2026
 -1       653    8    0    1
 -2       252       405       404      2026      2027      2022
 -1       654    8    0    1
 -2       253       254       406      1569      2028      2029
 -1       655    8    0    1
 -2       253       406       405      2029      2030      2025
 -1       656    8    0    1
 -2       254       255       407      1572      2031      2032
 -1       657    8    0    1
 -2       254       407       406      2032      2033      2028
 -1       658    8    0    1
 -2       255       256       408      1575      2034      2035
 -1       659    8    0    1
 -2       255       408       407      2035      2036      2031
 -1       660    8    0    1
 -2       256       257       409      1578      2037      2038
 -1       661    8    0    1
 -2       256       409       408      2038      2039      2034
 -1       662    8    0    1
 -2       257       258       410      1581      2040      2041
 -1       663    8    0    1
 -2       257       410       409      2041      2042      2037
 -1       664    8    0    1
 -2       258       259       411      1584      2043      2044
 -1       665    8    0    1
 -2       258       411       410      2044      2045      2040
 -1       666    8    0    1
 -2       259       260       412      1587      2046      2047
 -1       667    8    0    1
 -2       259       412       411      2047      2048      2043
 -1       668    8    0    1
 -2       260       261       413      1590      2049      2050
 -1       669    8    0    1
 -2       260       413       412      2050      2051      2046
 -1       670    8    0    1
 -2       261       262       414      1593      2052      2053
 -1       671    8    0    1
 -2       261       414       413      2053      2054      2049
 -1       672    8    0    1
 -2       262       263       415      1596      2055      2056
 -1       673    8    0    1
 -2       262       415       414      2056      2057      2052
 -1       674    8    0    1
 -2       263       264       416      1599      2058      2059
 -1       675    8    0    1
 -2       263       416       415      2059      2060      2055
 -1       676    8    0    1
 -2       264       265       417      1602      2061      2062
 -1       677    8    0    1
 -2       264       417       416      2062      2063      2058
 -1       678    8    0    1
 -2       265       266       418      1605      2064      2065
 -1       679    8    0    1
 -2       265       418       417      2065      2066      2061
 -1       680    8    0    1
 -2       266       267       419      1608      2067      2068
 -1       681    8    0    1
 -2       266       419       418      2068      2069      2064
 -1       682    8    0    1
 -2       267       268       420      1611      2070      2071
 -1       683    8    0    1
 -2       267       420       419      2071      2072      2067
 -1       684    8    0    1
 -2       268       269       421      1614      2073      2074
 -1       685    8    0    1
 -2       268       421       420      2074      2075      2070
 -1       686    8    0    1
 -2       269       270       422      1617      2076      2077
 -1       687    8    0    1
 -2       269       422       421      2077      2078      2073
 -1       688    8    0    1
 -2       270       271       423      1620      2079      2080
 -1       689    8    0    1
 -2       270       423       422      2080      2081      2076
 -1       690    8    0    1
 -2       271       272       424      1623      2082      2083
 -1       691    8    0    1
 -2       271       424       423      2083      2084      2079
 -1       692    8    0    1
 -2       272       273       425      1626      2085      2086
 -1       693    8    0    1
 -2       272       425       424      2086      2087      2082
 -1       694    8    0    1
 -2       273       274       426      1629      2088      2089
 -1       695    8    0    1
 -2       273       426       425      2089      2090      2085
 -1       696    8    0    1
 -2       274       275       427      1632      2091      2092
 -1       697    8    0    1
 -2       274       427       426      2092      2093      2088
 -1       698    8    0    1
 -2       275       276       428      1635      2094      2095
 -1       699    8    0    1
 -2       427       275       428      2091      2095      2096
 -1       700    8    0    1
 -2       276       277       428      1745      2097      2094
 -1       701    8    0    1
 -2       279       280       429      1647      2098      2099
 -1       702    8    0    1
 -2       278       279       430      1644      2100      2101
 -1       703    8    0    1
 -2       279       429       430      2099      2102      2100
 -1       704    8    0    1
 -2       277       278       431      1641      2103      2104
 -1       705    8    0    1
 -2       428       277       431      2097      2104      2105
 -1       706    8    0    1
 -2       278       430       431      2101      2106      2103
 -1       707    8    0    1
 -2       280       281       432      1650      2107      2108
 -1       708    8    0    1
 -2       280       432       429      2108      2109      2098
 -1       709    8    0    1
 -2       281       282       433      1653      2110      2111
 -1       710    8    0    1
 -2       281       433       432      2111      2112      2107
 -1       711    8    0    1
 -2       282       283       434      1656      2113      2114
 -1       712    8    0    1
 -2       282       434       433      2114      2115      2110
 -1       713    8    0    1
 -2       283       284       435      1659      2116      2117
 -1       714    8    0    1
 -2       283       435       434      2117      2118      2113
 -1       715    8    0    1
 -2       284       285       436      1662      2119      2120
 -1       716    8    0    1
 -2       284       436       435      2120      2121      2116
 -1       717    8    0    1
 -2       285       286       437      1665      2122      2123
 -1       718    8    0    1
 -2       285       437       436      2123      2124      2119
 -1       719    8    0    1
 -2       286       287       438      1668      2125      2126
 -1       720    8    0    1
 -2       286       438       437      2126      2127      2122
 -1       721    8    0    1
 -2       287       288       439      1671      2128      2129
 -1       722    8    0    1
 -2       287       439       438      2129      2130      2125
 -1       723    8    0    1
 -2       288       289       440      1674      2131      2132
 -1       724    8    0    1
 -2       288       440       439      2132      2133      2128
 -1       725    8    0    1
 -2       289       290       441      1677      2134      2135
 -1       726    8    0    1
 -2       289       441       440      2135      2136      2131
 -1       727    8    0    1
 -2       293       294       442      1747      2137      2138
 -1       728    8    0    1
 -2       321       292       443      1748      2139      2140
 -1       729    8    0    1
 -2       292       293       444      1746      2141      2142
 -1       730    8    0    1
 -2       292       444       443      2142      2143      2139
 -1       731    8    0    1
 -2       294       295       445      1743      2144      2145
 -1       732    8    0    1
 -2       295       296       446      1742      2146      2147
 -1       733    8    0    1
 -2       295       446       445      2147      2148      2144
 -1       734    8    0    1
 -2       167       168       447      1309      2149      2150
 -1       735    8    0    1
 -2       322       167       447      1775      2150      2151
 -1       736    8    0    1
 -2       168       324       447      1781      2152      2149
 -1       737    8    0    1
 -2       297       298       448      1750      2153      2154
 -1       738    8    0    1
 -2       298       299       449      1751      2155      2156
 -1       739    8    0    1
 -2       299       300       450      1752      2157      2158
 -1       740    8    0    1
 -2       299       450       449      2158      2159      2155
 -1       741    8    0    1
 -2       300       301       451      1753      2160      2161
 -1       742    8    0    1
 -2       301       302       452      1754      2162      2163
 -1       743    8    0    1
 -2       302       303       453      1755      2164      2165
 -1       744    8    0    1
 -2       303       304       454      1756      2166      2167
 -1       745    8    0    1
 -2       303       454       453      2167      2168      2164
 -1       746    8    0    1
 -2       304       305       455      1757      2169      2170
 -1       747    8    0    1
 -2       305       306       456      1758      2171      2172
 -1       748    8    0    1
 -2       305       456       455      2172      2173      2169
 -1       749    8    0    1
 -2       306       307       457      1759      2174      2175
 -1       750    8    0    1
 -2       307       308       458      1760      2176      2177
 -1       751    8    0    1
 -2       308       309       459      1761      2178      2179
 -1       752    8    0    1
 -2       309       310       460      1762      2180      2181
 -1       753    8    0    1
 -2       309       460       459      2181      2182      2178
 -1       754    8    0    1
 -2       310       311       461      1763      2183      2184
 -1       755    8    0    1
 -2       311       312       462      1764      2185      2186
 -1       756    8    0    1
 -2       311       462       461      2186      2187      2183
 -1       757    8    0    1
 -2       312       313       463      1765      2188      2189
 -1       758    8    0    1
 -2       313       314       464      1766      2190      2191
 -1       759    8    0    1
 -2       314       315       465      1767      2192      2193
 -1       760    8    0    1
 -2       315       316       466      1768      2194      2195
 -1       761    8    0    1
 -2       316       317       467      1769      2196      2197
 -1       762    8    0    1
 -2       317       318       468      1770      2198      2199
 -1       763    8    0    1
 -2       318       319       469      1771      2200      2201
 -1       764    8    0    1
 -2       319       320       470      1772      2202      2203
 -1       765    8    0    1
 -2       320       321       471      1773      2204      2205
 -1       766    8    0    1
 -2       296       297       472      1749      2206      2207
 -1       767    8    0    1
 -2       297       448       472      2154      2208      2206
 -1       768    8    0    1
 -2       446       296       472      2146      2207      2209
 -1       769    8    0    1
 -2       181       323       182      1820      2210      1351
 -1       770    8    0    1
 -2       450       300       451      2157      2161      2211
 -1       771    8    0    1
 -2       337       182       323      1821      2210      2212
 -1       772    8    0    1
 -2       444       293       442      2141      2138      2213
 -1       773    8    0    1
 -2       294       445       442      2145      2214      2137
 -1       774    8    0    1
 -2       441       290       291      2134      1680      2215
 -1       775    8    0    1
 -2       321       443       471      2140      2216      2204
 -1       776    8    0    1
 -2       470       320       471      2202      2205      2217
 -1       777    8    0    1
 -2       469       319       470      2200      2203      2218
 -1       778    8    0    1
 -2       468       318       469      2198      2201      2219
 -1       779    8    0    1
 -2       467       317       468      2196      2199      2220
 -1       780    8    0    1
 -2       466       316       467      2194      2197      2221
 -1       781    8    0    1
 -2       465       315       466      2192      2195      2222
 -1       782    8    0    1
 -2       464       314       465      2190      2193      2223
 -1       783    8    0    1
 -2       462       312       463      2185      2189      2224
 -1       784    8    0    1
 -2       460       310       461      2180      2184      2225
 -1       785    8    0    1
 -2       458       308       459      2176      2179      2226
 -1       786    8    0    1
 -2       456       306       457      2171      2175      2227
 -1       787    8    0    1
 -2       454       304       473      2166      2228      2229
 -1       788    8    0    1
 -2       304       455       473      2170      2230      2228
 -1       789    8    0    1
 -2       452       302       453      2162      2165      2231
 -1       790    8    0    1
 -2       448       298       449      2153      2156      2232
 -1       791    8    0    1
 -2       451       301       452      2160      2163      2233
 -1       792    8    0    1
 -2       457       307       458      2174      2177      2234
 -1       793    8    0    1
 -2       463       313       464      2188      2191      2235
 -1       794    8    0    1
 -2       336       383       474      1961      2236      2237
 -1       795    8    0    1
 -2       325       326       475      1787      2238      2239
 -1       796    8    0    1
 -2       324       325       476      1784      2240      2241
 -1       797    8    0    1
 -2       325       475       476      2239      2242      2240
 -1       798    8    0    1
 -2       327       328       477      1793      2243      2244
 -1       799    8    0    1
 -2       328       329       478      1796      2245      2246
 -1       800    8    0    1
 -2       328       478       477      2246      2247      2243
 -1       801    8    0    1
 -2       329       330       479      1799      2248      2249
 -1       802    8    0    1
 -2       329       479       478      2249      2250      2245
 -1       803    8    0    1
 -2       330       331       480      1802      2251      2252
 -1       804    8    0    1
 -2       330       480       479      2252      2253      2248
 -1       805    8    0    1
 -2       331       332       481      1805      2254      2255
 -1       806    8    0    1
 -2       331       481       480      2255      2256      2251
 -1       807    8    0    1
 -2       332       333       482      1808      2257      2258
 -1       808    8    0    1
 -2       332       482       481      2258      2259      2254
 -1       809    8    0    1
 -2       383       384       483      1964      2260      2261
 -1       810    8    0    1
 -2       383       483       474      2261      2262      2236
 -1       811    8    0    1
 -2       338       337       484      1825      2263      2264
 -1       812    8    0    1
 -2       450       451       485      2211      2265      2266
 -1       813    8    0    1
 -2       446       472       486      2209      2267      2268
 -1       814    8    0    1
 -2       339       338       487      1828      2269      2270
 -1       815    8    0    1
 -2       338       484       487      2264      2271      2269
 -1       816    8    0    1
 -2       340       339       488      1831      2272      2273
 -1       817    8    0    1
 -2       339       487       488      2270      2274      2272
 -1       818    8    0    1
 -2       341       340       489      1834      2275      2276
 -1       819    8    0    1
 -2       340       488       489      2273      2277      2275
 -1       820    8    0    1
 -2       342       341       490      1837      2278      2279
 -1       821    8    0    1
 -2       341       489       490      2276      2280      2278
 -1       822    8    0    1
 -2       343       342       491      1840      2281      2282
 -1       823    8    0    1
 -2       342       490       491      2279      2283      2281
 -1       824    8    0    1
 -2       344       343       492      1843      2284      2285
 -1       825    8    0    1
 -2       343       491       492      2282      2286      2284
 -1       826    8    0    1
 -2       345       344       493      1846      2287      2288
 -1       827    8    0    1
 -2       344       492       493      2285      2289      2287
 -1       828    8    0    1
 -2       346       345       494      1849      2290      2291
 -1       829    8    0    1
 -2       345       493       494      2288      2292      2290
 -1       830    8    0    1
 -2       347       346       495      1852      2293      2294
 -1       831    8    0    1
 -2       346       494       495      2291      2295      2293
 -1       832    8    0    1
 -2       348       347       496      1855      2296      2297
 -1       833    8    0    1
 -2       347       495       496      2294      2298      2296
 -1       834    8    0    1
 -2       349       348       497      1858      2299      2300
 -1       835    8    0    1
 -2       348       496       497      2297      2301      2299
 -1       836    8    0    1
 -2       350       349       498      1861      2302      2303
 -1       837    8    0    1
 -2       349       497       498      2300      2304      2302
 -1       838    8    0    1
 -2       351       350       499      1864      2305      2306
 -1       839    8    0    1
 -2       350       498       499      2303      2307      2305
 -1       840    8    0    1
 -2       352       351       500      1867      2308      2309
 -1       841    8    0    1
 -2       351       499       500      2306      2310      2308
 -1       842    8    0    1
 -2       353       352       501      1870      2311      2312
 -1       843    8    0    1
 -2       352       500       501      2309      2313      2311
 -1       844    8    0    1
 -2       354       353       502      1873      2314      2315
 -1       845    8    0    1
 -2       353       501       502      2312      2316      2314
 -1       846    8    0    1
 -2       355       354       503      1876      2317      2318
 -1       847    8    0    1
 -2       354       502       503      2315      2319      2317
 -1       848    8    0    1
 -2       356       355       504      1879      2320      2321
 -1       849    8    0    1
 -2       355       503       504      2318      2322      2320
 -1       850    8    0    1
 -2       357       356       505      1882      2323      2324
 -1       851    8    0    1
 -2       356       504       505      2321      2325      2323
 -1       852    8    0    1
 -2       358       357       506      1885      2326      2327
 -1       853    8    0    1
 -2       357       505       506      2324      2328      2326
 -1       854    8    0    1
 -2       359       358       507      1888      2329      2330
 -1       855    8    0    1
 -2       358       506       507      2327      2331      2329
 -1       856    8    0    1
 -2       360       359       508      1891      2332      2333
 -1       857    8    0    1
 -2       359       507       508      2330      2334      2332
 -1       858    8    0    1
 -2       361       360       509      1894      2335      2336
 -1       859    8    0    1
 -2       360       508       509      2333      2337      2335
 -1       860    8    0    1
 -2       362       361       510      1897      2338      2339
 -1       861    8    0    1
 -2       361       509       510      2336      2340      2338
 -1       862    8    0    1
 -2       363       362       511      1900      2341      2342
 -1       863    8    0    1
 -2       362       510       511      2339      2343      2341
 -1       864    8    0    1
 -2       364       363       512      1903      2344      2345
 -1       865    8    0    1
 -2       363       511       512      2342      2346      2344
 -1       866    8    0    1
 -2       365       364       513      1906      2347      2348
 -1       867    8    0    1
 -2       364       512       513      2345      2349      2347
 -1       868    8    0    1
 -2       366       365       514      1909      2350      2351
 -1       869    8    0    1
 -2       365       513       514      2348      2352      2350
 -1       870    8    0    1
 -2       367       366       515      1912      2353      2354
 -1       871    8    0    1
 -2       366       514       515      2351      2355      2353
 -1       872    8    0    1
 -2       368       367       516      1915      2356      2357
 -1       873    8    0    1
 -2       367       515       516      2354      2358      2356
 -1       874    8    0    1
 -2       369       368       517      1918      2359      2360
 -1       875    8    0    1
 -2       368       516       517      2357      2361      2359
 -1       876    8    0    1
 -2       370       369       518      1921      2362      2363
 -1       877    8    0    1
 -2       369       517       518      2360      2364      2362
 -1       878    8    0    1
 -2       371       370       519      1924      2365      2366
 -1       879    8    0    1
 -2       370       518       519      2363      2367      2365
 -1       880    8    0    1
 -2       372       371       520      1927      2368      2369
 -1       881    8    0    1
 -2       371       519       520      2366      2370      2368
 -1       882    8    0    1
 -2       373       372       521      1930      2371      2372
 -1       883    8    0    1
 -2       372       520       521      2369      2373      2371
 -1       884    8    0    1
 -2       374       373       522      1933      2374      2375
 -1       885    8    0    1
 -2       373       521       522      2372      2376      2374
 -1       886    8    0    1
 -2       375       374       523      1936      2377      2378
 -1       887    8    0    1
 -2       374       522       523      2375      2379      2377
 -1       888    8    0    1
 -2       376       375       524      1939      2380      2381
 -1       889    8    0    1
 -2       375       523       524      2378      2382      2380
 -1       890    8    0    1
 -2       377       376       525      1942      2383      2384
 -1       891    8    0    1
 -2       376       524       525      2381      2385      2383
 -1       892    8    0    1
 -2       378       377       526      1945      2386      2387
 -1       893    8    0    1
 -2       377       525       526      2384      2388      2386
 -1       894    8    0    1
 -2       379       378       527      1948      2389      2390
 -1       895    8    0    1
 -2       378       526       527      2387      2391      2389
 -1       896    8    0    1
 -2       380       379       528      1951      2392      2393
 -1       897    8    0    1
 -2       379       527       528      2390      2394      2392
 -1       898    8    0    1
 -2       381       380       529      1954      2395      2396
 -1       899    8    0    1
 -2       380       528       529      2393      2397      2395
 -1       900    8    0    1
 -2       385       386       530      1970      2398      2399
 -1       901    8    0    1
 -2       386       387       531      1973      2400      2401
 -1       902    8    0    1
 -2       386       531       530      2401      2402      2398
 -1       903    8    0    1
 -2       387       388       532      1976      2403      2404
 -1       904    8    0    1
 -2       387       532       531      2404      2405      2400
 -1       905    8    0    1
 -2       388       389       533      1979      2406      2407
 -1       906    8    0    1
 -2       388       533       532      2407      2408      2403
 -1       907    8    0    1
 -2       389       390       534      1982      2409      2410
 -1       908    8    0    1
 -2       389       534       533      2410      2411      2406
 -1       909    8    0    1
 -2       390       391       535      1985      2412      2413
 -1       910    8    0    1
 -2       390       535       534      2413      2414      2409
 -1       911    8    0    1
 -2       391       392       536      1988      2415      2416
 -1       912    8    0    1
 -2       391       536       535      2416      2417      2412
 -1       913    8    0    1
 -2       392       393       537      1991      2418      2419
 -1       914    8    0    1
 -2       392       537       536      2419      2420      2415
 -1       915    8    0    1
 -2       393       394       538      1994      2421      2422
 -1       916    8    0    1
 -2       393       538       537      2422      2423      2418
 -1       917    8    0    1
 -2       394       395       539      1997      2424      2425
 -1       918    8    0    1
 -2       394       539       538      2425      2426      2421
 -1       919    8    0    1
 -2       395       396       540      2000      2427      2428
 -1       920    8    0    1
 -2       395       540       539      2428      2429      2424
 -1       921    8    0    1
 -2       396       397       541      2003      2430      2431
 -1       922    8    0    1
 -2       396       541       540      2431      2432      2427
 -1       923    8    0    1
 -2       397       398       542      2006      2433      2434
 -1       924    8    0    1
 -2       397       542       541      2434      2435      2430
 -1       925    8    0    1
 -2       398       399       543      2009      2436      2437
 -1       926    8    0    1
 -2       398       543       542      2437      2438      2433
 -1       927    8    0    1
 -2       399       400       544      2012      2439      2440
 -1       928    8    0    1
 -2       399       544       543      2440      2441      2436
 -1       929    8    0    1
 -2       400       401       545      2015      2442      2443
 -1       930    8    0    1
 -2       400       545       544      2443      2444      2439
 -1       931    8    0    1
 -2       401       402       546      2018      2445      2446
 -1       932    8    0    1
 -2       401       546       545      2446      2447      2442
 -1       933    8    0    1
 -2       402       403       547      2021      2448      2449
 -1       934    8    0    1
 -2       402       547       546      2449      2450      2445
 -1       935    8    0    1
 -2       403       404       548      2024      2451      2452
 -1       936    8    0    1
 -2       403       548       547      2452      2453      2448
 -1       937    8    0    1
 -2       404       405       549      2027      2454      2455
 -1       938    8    0    1
 -2       404       549       548      2455      2456      2451
 -1       939    8    0    1
 -2       405       406       550      2030      2457      2458
 -1       940    8    0    1
 -2       405       550       549      2458      2459      2454
 -1       941    8    0    1
 -2       406       407       551      2033      2460      2461
 -1       942    8    0    1
 -2       406       551       550      2461      2462      2457
 -1       943    8    0    1
 -2       407       408       552      2036      2463      2464
 -1       944    8    0    1
 -2       407       552       551      2464      2465      2460
 -1       945    8    0    1
 -2       408       409       553      2039      2466      2467
 -1       946    8    0    1
 -2       408       553       552      2467      2468      2463
 -1       947    8    0    1
 -2       409       410       554      2042      2469      2470
 -1       948    8    0    1
 -2       409       554       553      2470      2471      2466
 -1       949    8    0    1
 -2       410       411       555      2045      2472      2473
 -1       950    8    0    1
 -2       410       555       554      2473      2474      2469
 -1       951    8    0    1
 -2       411       412       556      2048      2475      2476
 -1       952    8    0    1
 -2       411       556       555      2476      2477      2472
 -1       953    8    0    1
 -2       412       413       557      2051      2478      2479
 -1       954    8    0    1
 -2       412       557       556      2479      2480      2475
 -1       955    8    0    1
 -2       413       414       558      2054      2481      2482
 -1       956    8    0    1
 -2       413       558       557      2482      2483      2478
 -1       957    8    0    1
 -2       414       415       559      2057      2484      2485
 -1       958    8    0    1
 -2       414       559       558      2485      2486      2481
 -1       959    8    0    1
 -2       415       416       560      2060      2487      2488
 -1       960    8    0    1
 -2       415       560       559      2488      2489      2484
 -1       961    8    0    1
 -2       416       417       561      2063      2490      2491
 -1       962    8    0    1
 -2       416       561       560      2491      2492      2487
 -1       963    8    0    1
 -2       417       418       562      2066      2493      2494
 -1       964    8    0    1
 -2       417       562       561      2494      2495      2490
 -1       965    8    0    1
 -2       418       419       563      2069      2496      2497
 -1       966    8    0    1
 -2       418       563       562      2497      2498      2493
 -1       967    8    0    1
 -2       419       420       564      2072      2499      2500
 -1       968    8    0    1
 -2       419       564       563      2500      2501      2496
 -1       969    8    0    1
 -2       420       421       565      2075      2502      2503
 -1       970    8    0    1
 -2       420       565       564      2503      2504      2499
 -1       971    8    0    1
 -2       421       422       566      2078      2505      2506
 -1       972    8    0    1
 -2       421       566       565      2506      2507      2502
 -1       973    8    0    1
 -2       422       423       567      2081      2508      2509
 -1       974    8    0    1
 -2       422       567       566      2509      2510      2505
 -1       975    8    0    1
 -2       423       424       568      2084      2511      2512
 -1       976    8    0    1
 -2       423       568       567      2512      2513      2508
 -1       977    8    0    1
 -2       424       425       569      2087      2514      2515
 -1       978    8    0    1
 -2       424       569       568      2515      2516      2511
 -1       979    8    0    1
 -2       425       426       570      2090      2517      2518
 -1       980    8    0    1
 -2       425       570       569      2518      2519      2514
 -1       981    8    0    1
 -2       426       427       571      2093      2520      2521
 -1       982    8    0    1
 -2       426       571       570      2521      2522      2517
 -1       983    8    0    1
 -2       427       428       431      2096      2105      2523
 -1       984    8    0    1
 -2       432       433       572      2112      2524      2525
 -1       985    8    0    1
 -2       433       434       573      2115      2526      2527
 -1       986    8    0    1
 -2       433       573       572      2527      2528      2524
 -1       987    8    0    1
 -2       430       429       574      2102      2529      2530
 -1       988    8    0    1
 -2       429       432       575      2109      2531      2532
 -1       989    8    0    1
 -2       574       429       575      2529      2532      2533
 -1       990    8    0    1
 -2       432       572       575      2525      2534      2531
 -1       991    8    0    1
 -2       434       435       576      2118      2535      2536
 -1       992    8    0    1
 -2       434       576       573      2536      2537      2526
 -1       993    8    0    1
 -2       435       436       577      2121      2538      2539
 -1       994    8    0    1
 -2       435       577       576      2539      2540      2535
 -1       995    8    0    1
 -2       436       437       578      2124      2541      2542
 -1       996    8    0    1
 -2       436       578       577      2542      2543      2538
 -1       997    8    0    1
 -2       437       438       579      2127      2544      2545
 -1       998    8    0    1
 -2       437       579       578      2545      2546      2541
 -1       999    8    0    1
 -2       438       439       580      2130      2547      2548
 -1      1000    8    0    1
 -2       438       580       579      2548      2549      2544
 -1      1001    8    0    1
 -2       439       440       581      2133      2550      2551
 -1      1002    8    0    1
 -2       439       581       580      2551      2552      2547
 -1      1003    8    0    1
 -2       440       441       582      2136      2553      2554
 -1      1004    8    0    1
 -2       440       582       581      2554      2555      2550
 -1      1005    8    0    1
 -2       442       445       583      2214      2556      2557
 -1      1006    8    0    1
 -2       441       291       382      2215      1957      2558
 -1      1007    8    0    1
 -2       471       443       584      2216      2559      2560
 -1      1008    8    0    1
 -2       384       385       585      1967      2561      2562
 -1      1009    8    0    1
 -2       385       530       585      2399      2563      2561
 -1      1010    8    0    1
 -2       443       444       586      2143      2564      2565
 -1      1011    8    0    1
 -2       445       446       587      2148      2566      2567
 -1      1012    8    0    1
 -2       583       445       587      2556      2567      2568
 -1      1013    8    0    1
 -2       446       486       587      2268      2569      2566
 -1      1014    8    0    1
 -2       472       448       588      2208      2570      2571
 -1      1015    8    0    1
 -2       470       471       589      2217      2572      2573
 -1      1016    8    0    1
 -2       471       584       589      2560      2574      2572
 -1      1017    8    0    1
 -2       458       459       590      2226      2575      2576
 -1      1018    8    0    1
 -2       452       453       591      2231      2577      2578
 -1      1019    8    0    1
 -2       326       327       592      1790      2579      2580
 -1      1020    8    0    1
 -2       475       326       592      2238      2580      2581
 -1      1021    8    0    1
 -2       327       477       592      2244      2582      2579
 -1      1022    8    0    1
 -2       337       323       593      2212      2583      2584
 -1      1023    8    0    1
 -2       484       337       593      2263      2584      2585
 -1      1024    8    0    1
 -2       323       322       593      1779      2586      2583
 -1      1025    8    0    1
 -2       451       452       594      2233      2587      2588
 -1      1026    8    0    1
 -2       449       450       595      2159      2589      2590
 -1      1027    8    0    1
 -2       457       458       596      2234      2591      2592
 -1      1028    8    0    1
 -2       458       590       596      2576      2593      2591
 -1      1029    8    0    1
 -2       448       449       597      2232      2594      2595
 -1      1030    8    0    1
 -2       453       454       598      2168      2596      2597
 -1      1031    8    0    1
 -2       453       598       591      2597      2598      2577
 -1      1032    8    0    1
 -2       455       456       599      2173      2599      2600
 -1      1033    8    0    1
 -2       463       464       600      2235      2601      2602
 -1      1034    8    0    1
 -2       456       457       601      2227      2603      2604
 -1      1035    8    0    1
 -2       459       460       602      2182      2605      2606
 -1      1036    8    0    1
 -2       460       461       603      2225      2607      2608
 -1      1037    8    0    1
 -2       461       462       604      2187      2609      2610
 -1      1038    8    0    1
 -2       462       463       605      2224      2611      2612
 -1      1039    8    0    1
 -2       464       465       606      2223      2613      2614
 -1      1040    8    0    1
 -2       464       606       600      2614      2615      2601
 -1      1041    8    0    1
 -2       465       466       607      2222      2616      2617
 -1      1042    8    0    1
 -2       466       467       608      2221      2618      2619
 -1      1043    8    0    1
 -2       467       468       609      2220      2620      2621
 -1      1044    8    0    1
 -2       468       469       610      2219      2622      2623
 -1      1045    8    0    1
 -2       469       470       611      2218      2624      2625
 -1      1046    8    0    1
 -2       469       611       610      2625      2626      2622
 -1      1047    8    0    1
 -2       444       442       612      2213      2627      2628
 -1      1048    8    0    1
 -2       444       612       586      2628      2629      2564
 -1      1049    8    0    1
 -2       335       336       613      1819      2630      2631
 -1      1050    8    0    1
 -2       334       335       613      1814      2631      2632
 -1      1051    8    0    1
 -2       336       474       613      2237      2633      2630
 -1      1052    8    0    1
 -2       324       476       614      2241      2634      2635
 -1      1053    8    0    1
 -2       324       614       447      2635      2636      2152
 -1      1054    8    0    1
 -2       483       384       585      2260      2562      2637
 -1      1055    8    0    1
 -2       333       334       613      1811      2632      2638
 -1      1056    8    0    1
 -2       611       470       589      2624      2573      2639
 -1      1057    8    0    1
 -2       609       468       610      2620      2623      2640
 -1      1058    8    0    1
 -2       594       452       591      2587      2578      2641
 -1      1059    8    0    1
 -2       450       485       595      2266      2642      2589
 -1      1060    8    0    1
 -2       472       588       486      2571      2643      2267
 -1      1061    8    0    1
 -2       608       467       609      2618      2621      2644
 -1      1062    8    0    1
 -2       448       597       588      2595      2645      2570
 -1      1063    8    0    1
 -2       606       465       607      2613      2617      2646
 -1      1064    8    0    1
 -2       427       431       571      2523      2647      2520
 -1      1065    8    0    1
 -2       431       430       571      2106      2648      2647
 -1      1066    8    0    1
 -2       605       463       600      2611      2602      2649
 -1      1067    8    0    1
 -2       442       583       612      2557      2650      2627
 -1      1068    8    0    1
 -2       441       382       615      2558      2651      2652
 -1      1069    8    0    1
 -2       582       441       615      2553      2652      2653
 -1      1070    8    0    1
 -2       382       381       615      1958      2654      2651
 -1      1071    8    0    1
 -2       604       462       605      2609      2612      2655
 -1      1072    8    0    1
 -2       584       443       616      2559      2656      2657
 -1      1073    8    0    1
 -2       443       586       616      2565      2658      2656
 -1      1074    8    0    1
 -2       333       613       482      2638      2659      2257
 -1      1075    8    0    1
 -2       603       461       604      2607      2610      2660
 -1      1076    8    0    1
 -2       322       447       617      2151      2661      2662
 -1      1077    8    0    1
 -2       593       322       617      2586      2662      2663
 -1      1078    8    0    1
 -2       447       614       617      2636      2664      2661
 -1      1079    8    0    1
 -2       590       459       602      2575      2606      2665
 -1      1080    8    0    1
 -2       602       460       603      2605      2608      2666
 -1      1081    8    0    1
 -2       601       457       596      2603      2592      2667
 -1      1082    8    0    1
 -2       598       454       618      2596      2668      2669
 -1      1083    8    0    1
 -2       454       473       618      2229      2670      2668
 -1      1084    8    0    1
 -2       455       599       619      2600      2671      2672
 -1      1085    8    0    1
 -2       455       619       473      2672      2673      2230
 -1      1086    8    0    1
 -2       485       451       594      2265      2588      2674
 -1      1087    8    0    1
 -2       449       595       597      2590      2675      2594
 -1      1088    8    0    1
 -2       599       456       601      2599      2604      2676
 -1      1089    8    0    1
 -2       607       466       608      2616      2619      2677
 -1      1090    8    0    1
 -2       571       430       574      2648      2530      2678
 -1      1091    8    0    1
 -2       615       381       529      2654      2396      2679
 -1      1092    8    0    1
 -2       484       593       620      2585      2680      2681
 -1      1093    8    0    1
 -2       593       617       620      2663      2682      2680
 -1      1094    8    0    1
 -2       478       479       621      2250      2683      2684
 -1      1095    8    0    1
 -2       477       478       622      2247      2685      2686
 -1      1096    8    0    1
 -2       478       621       622      2684      2687      2685
 -1      1097    8    0    1
 -2       480       481       623      2256      2688      2689
 -1      1098    8    0    1
 -2       481       482       624      2259      2690      2691
 -1      1099    8    0    1
 -2       481       624       623      2691      2692      2688
 -1      1100    8    0    1
 -2       474       483       625      2262      2693      2694
 -1      1101    8    0    1
 -2       603       604       626      2660      2695      2696
 -1      1102    8    0    1
 -2       586       612       627      2629      2697      2698
 -1      1103    8    0    1
 -2       488       487       628      2274      2699      2700
 -1      1104    8    0    1
 -2       489       488       629      2277      2701      2702
 -1      1105    8    0    1
 -2       488       628       629      2700      2703      2701
 -1      1106    8    0    1
 -2       490       489       630      2280      2704      2705
 -1      1107    8    0    1
 -2       489       629       630      2702      2706      2704
 -1      1108    8    0    1
 -2       491       490       631      2283      2707      2708
 -1      1109    8    0    1
 -2       490       630       631      2705      2709      2707
 -1      1110    8    0    1
 -2       492       491       632      2286      2710      2711
 -1      1111    8    0    1
 -2       491       631       632      2708      2712      2710
 -1      1112    8    0    1
 -2       493       492       633      2289      2713      2714
 -1      1113    8    0    1
 -2       492       632       633      2711      2715      2713
 -1      1114    8    0    1
 -2       494       493       634      2292      2716      2717
 -1      1115    8    0    1
 -2       493       633       634      2714      2718      2716
 -1      1116    8    0    1
 -2       495       494       635      2295      2719      2720
 -1      1117    8    0    1
 -2       494       634       635      2717      2721      2719
 -1      1118    8    0    1
 -2       496       495       636      2298      2722      2723
 -1      1119    8    0    1
 -2       495       635       636      2720      2724      2722
 -1      1120    8    0    1
 -2       497       496       637      2301      2725      2726
 -1      1121    8    0    1
 -2       496       636       637      2723      2727      2725
 -1      1122    8    0    1
 -2       498       497       638      2304      2728      2729
 -1      1123    8    0    1
 -2       497       637       638      2726      2730      2728
 -1      1124    8    0    1
 -2       499       498       639      2307      2731      2732
 -1      1125    8    0    1
 -2       498       638       639      2729      2733      2731
 -1      1126    8    0    1
 -2       500       499       640      2310      2734      2735
 -1      1127    8    0    1
 -2       499       639       640      2732      2736      2734
 -1      1128    8    0    1
 -2       501       500       641      2313      2737      2738
 -1      1129    8    0    1
 -2       500       640       641      2735      2739      2737
 -1      1130    8    0    1
 -2       502       501       642      2316      2740      2741
 -1      1131    8    0    1
 -2       501       641       642      2738      2742      2740
 -1      1132    8    0    1
 -2       503       502       643      2319      2743      2744
 -1      1133    8    0    1
 -2       502       642       643      2741      2745      2743
 -1      1134    8    0    1
 -2       504       503       644      2322      2746      2747
 -1      1135    8    0    1
 -2       503       643       644      2744      2748      2746
 -1      1136    8    0    1
 -2       505       504       626      2325      2749      2750
 -1      1137    8    0    1
 -2       506       505       626      2328      2750      2751
 -1      1138    8    0    1
 -2       507       506       605      2331      2752      2753
 -1      1139    8    0    1
 -2       509       508       607      2337      2754      2755
 -1      1140    8    0    1
 -2       511       510       645      2343      2756      2757
 -1      1141    8    0    1
 -2       512       511       646      2346      2758      2759
 -1      1142    8    0    1
 -2       511       645       646      2757      2760      2758
 -1      1143    8    0    1
 -2       513       512       647      2349      2761      2762
 -1      1144    8    0    1
 -2       512       646       647      2759      2763      2761
 -1      1145    8    0    1
 -2       514       513       648      2352      2764      2765
 -1      1146    8    0    1
 -2       513       647       648      2762      2766      2764
 -1      1147    8    0    1
 -2       515       514       649      2355      2767      2768
 -1      1148    8    0    1
 -2       514       648       649      2765      2769      2767
 -1      1149    8    0    1
 -2       516       515       650      2358      2770      2771
 -1      1150    8    0    1
 -2       515       649       650      2768      2772      2770
 -1      1151    8    0    1
 -2       517       516       651      2361      2773      2774
 -1      1152    8    0    1
 -2       516       650       651      2771      2775      2773
 -1      1153    8    0    1
 -2       518       517       652      2364      2776      2777
 -1      1154    8    0    1
 -2       517       651       652      2774      2778      2776
 -1      1155    8    0    1
 -2       519       518       653      2367      2779      2780
 -1      1156    8    0    1
 -2       518       652       653      2777      2781      2779
 -1      1157    8    0    1
 -2       520       519       654      2370      2782      2783
 -1      1158    8    0    1
 -2       519       653       654      2780      2784      2782
 -1      1159    8    0    1
 -2       521       520       655      2373      2785      2786
 -1      1160    8    0    1
 -2       520       654       655      2783      2787      2785
 -1      1161    8    0    1
 -2       522       521       656      2376      2788      2789
 -1      1162    8    0    1
 -2       521       655       656      2786      2790      2788
 -1      1163    8    0    1
 -2       523       522       657      2379      2791      2792
 -1      1164    8    0    1
 -2       522       656       657      2789      2793      2791
 -1      1165    8    0    1
 -2       524       523       658      2382      2794      2795
 -1      1166    8    0    1
 -2       523       657       658      2792      2796      2794
 -1      1167    8    0    1
 -2       525       524       659      2385      2797      2798
 -1      1168    8    0    1
 -2       524       658       659      2795      2799      2797
 -1      1169    8    0    1
 -2       526       525       660      2388      2800      2801
 -1      1170    8    0    1
 -2       525       659       660      2798      2802      2800
 -1      1171    8    0    1
 -2       527       526       661      2391      2803      2804
 -1      1172    8    0    1
 -2       526       660       661      2801      2805      2803
 -1      1173    8    0    1
 -2       528       527       662      2394      2806      2807
 -1      1174    8    0    1
 -2       527       661       662      2804      2808      2806
 -1      1175    8    0    1
 -2       529       528       663      2397      2809      2810
 -1      1176    8    0    1
 -2       528       662       663      2807      2811      2809
 -1      1177    8    0    1
 -2       531       532       664      2405      2812      2813
 -1      1178    8    0    1
 -2       530       531       665      2402      2814      2815
 -1      1179    8    0    1
 -2       531       664       665      2813      2816      2814
 -1      1180    8    0    1
 -2       533       534       666      2411      2817      2818
 -1      1181    8    0    1
 -2       534       535       667      2414      2819      2820
 -1      1182    8    0    1
 -2       534       667       666      2820      2821      2817
 -1      1183    8    0    1
 -2       535       536       668      2417      2822      2823
 -1      1184    8    0    1
 -2       535       668       667      2823      2824      2819
 -1      1185    8    0    1
 -2       536       537       669      2420      2825      2826
 -1      1186    8    0    1
 -2       536       669       668      2826      2827      2822
 -1      1187    8    0    1
 -2       537       538       670      2423      2828      2829
 -1      1188    8    0    1
 -2       537       670       669      2829      2830      2825
 -1      1189    8    0    1
 -2       538       539       671      2426      2831      2832
 -1      1190    8    0    1
 -2       538       671       670      2832      2833      2828
 -1      1191    8    0    1
 -2       539       540       672      2429      2834      2835
 -1      1192    8    0    1
 -2       539       672       671      2835      2836      2831
 -1      1193    8    0    1
 -2       540       541       673      2432      2837      2838
 -1      1194    8    0    1
 -2       540       673       672      2838      2839      2834
 -1      1195    8    0    1
 -2       541       542       674      2435      2840      2841
 -1      1196    8    0    1
 -2       541       674       673      2841      2842      2837
 -1      1197    8    0    1
 -2       542       543       675      2438      2843      2844
 -1      1198    8    0    1
 -2       542       675       674      2844      2845      2840
 -1      1199    8    0    1
 -2       543       544       676      2441      2846      2847
 -1      1200    8    0    1
 -2       543       676       675      2847      2848      2843
 -1      1201    8    0    1
 -2       544       545       677      2444      2849      2850
 -1      1202    8    0    1
 -2       544       677       676      2850      2851      2846
 -1      1203    8    0    1
 -2       545       546       678      2447      2852      2853
 -1      1204    8    0    1
 -2       545       678       677      2853      2854      2849
 -1      1205    8    0    1
 -2       546       547       679      2450      2855      2856
 -1      1206    8    0    1
 -2       546       679       678      2856      2857      2852
 -1      1207    8    0    1
 -2       547       548       680      2453      2858      2859
 -1      1208    8    0    1
 -2       547       680       679      2859      2860      2855
 -1      1209    8    0    1
 -2       548       549       681      2456      2861      2862
 -1      1210    8    0    1
 -2       548       681       680      2862      2863      2858
 -1      1211    8    0    1
 -2       549       550       682      2459      2864      2865
 -1      1212    8    0    1
 -2       549       682       681      2865      2866      2861
 -1      1213    8    0    1
 -2       550       551       683      2462      2867      2868
 -1      1214    8    0    1
 -2       550       683       682      2868      2869      2864
 -1      1215    8    0    1
 -2       551       552       684      2465      2870      2871
 -1      1216    8    0    1
 -2       551       684       683      2871      2872      2867
 -1      1217    8    0    1
 -2       552       553       685      2468      2873      2874
 -1      1218    8    0    1
 -2       552       685       684      2874      2875      2870
 -1      1219    8    0    1
 -2       553       554       686      2471      2876      2877
 -1      1220    8    0    1
 -2       553       686       685      2877      2878      2873
 -1      1221    8    0    1
 -2       554       555       687      2474      2879      2880
 -1      1222    8    0    1
 -2       554       687       686      2880      2881      2876
 -1      1223    8    0    1
 -2       555       556       688      2477      2882      2883
 -1      1224    8    0    1
 -2       555       688       687      2883      2884      2879
 -1      1225    8    0    1
 -2       556       557       689      2480      2885      2886
 -1      1226    8    0    1
 -2       556       689       688      2886      2887      2882
 -1      1227    8    0    1
 -2       557       558       690      2483      2888      2889
 -1      1228    8    0    1
 -2       557       690       689      2889      2890      2885
 -1      1229    8    0    1
 -2       558       559       691      2486      2891      2892
 -1      1230    8    0    1
 -2       558       691       690      2892      2893      2888
 -1      1231    8    0    1
 -2       559       560       692      2489      2894      2895
 -1      1232    8    0    1
 -2       559       692       691      2895      2896      2891
 -1      1233    8    0    1
 -2       560       561       693      2492      2897      2898
 -1      1234    8    0    1
 -2       560       693       692      2898      2899      2894
 -1      1235    8    0    1
 -2       561       562       694      2495      2900      2901
 -1      1236    8    0    1
 -2       561       694       693      2901      2902      2897
 -1      1237    8    0    1
 -2       562       563       695      2498      2903      2904
 -1      1238    8    0    1
 -2       562       695       694      2904      2905      2900
 -1      1239    8    0    1
 -2       563       564       696      2501      2906      2907
 -1      1240    8    0    1
 -2       563       696       695      2907      2908      2903
 -1      1241    8    0    1
 -2       564       565       697      2504      2909      2910
 -1      1242    8    0    1
 -2       564       697       696      2910      2911      2906
 -1      1243    8    0    1
 -2       565       566       698      2507      2912      2913
 -1      1244    8    0    1
 -2       565       698       697      2913      2914      2909
 -1      1245    8    0    1
 -2       566       567       699      2510      2915      2916
 -1      1246    8    0    1
 -2       566       699       698      2916      2917      2912
 -1      1247    8    0    1
 -2       567       568       700      2513      2918      2919
 -1      1248    8    0    1
 -2       567       700       699      2919      2920      2915
 -1      1249    8    0    1
 -2       568       569       701      2516      2921      2922
 -1      1250    8    0    1
 -2       568       701       700      2922      2923      2918
 -1      1251    8    0    1
 -2       569       570       702      2519      2924      2925
 -1      1252    8    0    1
 -2       569       702       701      2925      2926      2921
 -1      1253    8    0    1
 -2       570       571       703      2522      2927      2928
 -1      1254    8    0    1
 -2       702       570       703      2924      2928      2929
 -1      1255    8    0    1
 -2       571       574       703      2678      2930      2927
 -1      1256    8    0    1
 -2       576       577       704      2540      2931      2932
 -1      1257    8    0    1
 -2       615       529       705      2679      2933      2934
 -1      1258    8    0    1
 -2       582       615       705      2653      2934      2935
 -1      1259    8    0    1
 -2       529       663       705      2810      2936      2933
 -1      1260    8    0    1
 -2       572       573       706      2528      2937      2938
 -1      1261    8    0    1
 -2       577       578       707      2543      2939      2940
 -1      1262    8    0    1
 -2       577       707       704      2940      2941      2931
 -1      1263    8    0    1
 -2       573       576       708      2537      2942      2943
 -1      1264    8    0    1
 -2       706       573       708      2937      2943      2944
 -1      1265    8    0    1
 -2       576       704       708      2932      2945      2942
 -1      1266    8    0    1
 -2       585       530       709      2563      2946      2947
 -1      1267    8    0    1
 -2       530       665       709      2815      2948      2946
 -1      1268    8    0    1
 -2       578       579       710      2546      2949      2950
 -1      1269    8    0    1
 -2       578       710       707      2950      2951      2939
 -1      1270    8    0    1
 -2       579       580       711      2549      2952      2953
 -1      1271    8    0    1
 -2       579       711       710      2953      2954      2949
 -1      1272    8    0    1
 -2       580       581       712      2552      2955      2956
 -1      1273    8    0    1
 -2       580       712       711      2956      2957      2952
 -1      1274    8    0    1
 -2       581       582       713      2555      2958      2959
 -1      1275    8    0    1
 -2       712       581       713      2955      2959      2960
 -1      1276    8    0    1
 -2       582       705       713      2935      2961      2958
 -1      1277    8    0    1
 -2       606       607       508      2646      2754      2962
 -1      1278    8    0    1
 -2       611       589       714      2639      2963      2964
 -1      1279    8    0    1
 -2       589       584       715      2574      2965      2966
 -1      1280    8    0    1
 -2       609       610       716      2640      2967      2968
 -1      1281    8    0    1
 -2       605       600       507      2649      2969      2753
 -1      1282    8    0    1
 -2       532       533       717      2408      2970      2971
 -1      1283    8    0    1
 -2       664       532       717      2812      2971      2972
 -1      1284    8    0    1
 -2       533       666       717      2818      2973      2970
 -1      1285    8    0    1
 -2       595       485       718      2642      2974      2975
 -1      1286    8    0    1
 -2       487       484       719      2271      2976      2977
 -1      1287    8    0    1
 -2       628       487       719      2699      2977      2978
 -1      1288    8    0    1
 -2       484       620       719      2681      2979      2976
 -1      1289    8    0    1
 -2       485       594       720      2674      2980      2981
 -1      1290    8    0    1
 -2       485       720       718      2981      2982      2974
 -1      1291    8    0    1
 -2       608       609       721      2644      2983      2984
 -1      1292    8    0    1
 -2       596       590       722      2593      2985      2986
 -1      1293    8    0    1
 -2       597       595       723      2675      2987      2988
 -1      1294    8    0    1
 -2       483       585       724      2637      2989      2990
 -1      1295    8    0    1
 -2       625       483       724      2693      2990      2991
 -1      1296    8    0    1
 -2       585       709       724      2947      2992      2989
 -1      1297    8    0    1
 -2       479       480       725      2253      2993      2994
 -1      1298    8    0    1
 -2       621       479       725      2683      2994      2995
 -1      1299    8    0    1
 -2       480       623       725      2689      2996      2993
 -1      1300    8    0    1
 -2       486       588       726      2643      2997      2998
 -1      1301    8    0    1
 -2       476       475       727      2242      2999      3000
 -1      1302    8    0    1
 -2       599       601       728      2676      3001      3002
 -1      1303    8    0    1
 -2       591       598       729      2598      3003      3004
 -1      1304    8    0    1
 -2       612       583       730      2650      3005      3006
 -1      1305    8    0    1
 -2       607       608       509      2677      3007      2755
 -1      1306    8    0    1
 -2       602       603       731      2666      3008      3009
 -1      1307    8    0    1
 -2       601       596       732      2667      3010      3011
 -1      1308    8    0    1
 -2       596       722       732      2986      3012      3010
 -1      1309    8    0    1
 -2       482       613       474      2659      2633      3013
 -1      1310    8    0    1
 -2       590       602       733      2665      3014      3015
 -1      1311    8    0    1
 -2       588       597       734      2645      3016      3017
 -1      1312    8    0    1
 -2       588       734       726      3017      3018      2997
 -1      1313    8    0    1
 -2       594       591       735      2641      3019      3020
 -1      1314    8    0    1
 -2       610       611       736      2626      3021      3022
 -1      1315    8    0    1
 -2       509       608       510      3007      3023      2340
 -1      1316    8    0    1
 -2       594       735       720      3020      3024      2980
 -1      1317    8    0    1
 -2       477       622       737      2686      3025      3026
 -1      1318    8    0    1
 -2       477       737       592      3026      3027      2582
 -1      1319    8    0    1
 -2       603       626       731      2696      3028      3008
 -1      1320    8    0    1
 -2       586       627       738      2698      3029      3030
 -1      1321    8    0    1
 -2       586       738       616      3030      3031      2658
 -1      1322    8    0    1
 -2       614       476       739      2634      3032      3033
 -1      1323    8    0    1
 -2       476       727       739      3000      3034      3032
 -1      1324    8    0    1
 -2       504       644       626      2747      3035      2749
 -1      1325    8    0    1
 -2       605       506       626      2752      2751      3036
 -1      1326    8    0    1
 -2       602       731       733      3009      3037      3014
 -1      1327    8    0    1
 -2       572       706       740      2938      3038      3039
 -1      1328    8    0    1
 -2       572       740       575      3039      3040      2534
 -1      1329    8    0    1
 -2       595       718       741      2975      3041      3042
 -1      1330    8    0    1
 -2       595       741       723      3042      3043      2987
 -1      1331    8    0    1
 -2       574       575       742      2533      3044      3045
 -1      1332    8    0    1
 -2       703       574       742      2930      3045      3046
 -1      1333    8    0    1
 -2       575       740       742      3040      3047      3044
 -1      1334    8    0    1
 -2       736       611       714      3021      2964      3048
 -1      1335    8    0    1
 -2       715       584       616      2965      2657      3049
 -1      1336    8    0    1
 -2       716       610       736      2967      3022      3050
 -1      1337    8    0    1
 -2       729       598       618      3003      2669      3051
 -1      1338    8    0    1
 -2       714       589       715      2963      2966      3052
 -1      1339    8    0    1
 -2       730       583       743      3005      3053      3054
 -1      1340    8    0    1
 -2       583       587       744      2568      3055      3056
 -1      1341    8    0    1
 -2       583       744       743      3056      3057      3053
 -1      1342    8    0    1
 -2       609       716       721      2968      3058      2983
 -1      1343    8    0    1
 -2       618       473       745      2670      3059      3060
 -1      1344    8    0    1
 -2       473       619       745      2673      3061      3059
 -1      1345    8    0    1
 -2       619       599       746      2671      3062      3063
 -1      1346    8    0    1
 -2       599       728       746      3002      3064      3062
 -1      1347    8    0    1
 -2       587       486       747      2569      3065      3066
 -1      1348    8    0    1
 -2       744       587       747      3055      3066      3067
 -1      1349    8    0    1
 -2       486       726       747      2998      3068      3065
 -1      1350    8    0    1
 -2       722       590       733      2985      3015      3069
 -1      1351    8    0    1
 -2       482       474       625      3013      2694      3070
 -1      1352    8    0    1
 -2       475       592       748      2581      3071      3072
 -1      1353    8    0    1
 -2       727       475       748      2999      3072      3073
 -1      1354    8    0    1
 -2       592       737       748      3027      3074      3071
 -1      1355    8    0    1
 -2       597       723       734      2988      3075      3016
 -1      1356    8    0    1
 -2       728       601       749      3001      3076      3077
 -1      1357    8    0    1
 -2       601       732       749      3011      3078      3076
 -1      1358    8    0    1
 -2       627       612       730      2697      3006      3079
 -1      1359    8    0    1
 -2       591       729       735      3004      3080      3019
 -1      1360    8    0    1
 -2       600       606       750      2615      3081      3082
 -1      1361    8    0    1
 -2       624       482       625      2690      3070      3083
 -1      1362    8    0    1
 -2       623       624       751      2692      3084      3085
 -1      1363    8    0    1
 -2       718       720       752      2982      3086      3087
 -1      1364    8    0    1
 -2       630       629       753      2706      3088      3089
 -1      1365    8    0    1
 -2       631       630       754      2709      3090      3091
 -1      1366    8    0    1
 -2       630       753       754      3089      3092      3090
 -1      1367    8    0    1
 -2       632       631       755      2712      3093      3094
 -1      1368    8    0    1
 -2       631       754       755      3091      3095      3093
 -1      1369    8    0    1
 -2       633       632       756      2715      3096      3097
 -1      1370    8    0    1
 -2       632       755       756      3094      3098      3096
 -1      1371    8    0    1
 -2       634       633       757      2718      3099      3100
 -1      1372    8    0    1
 -2       633       756       757      3097      3101      3099
 -1      1373    8    0    1
 -2       635       634       758      2721      3102      3103
 -1      1374    8    0    1
 -2       634       757       758      3100      3104      3102
 -1      1375    8    0    1
 -2       636       635       759      2724      3105      3106
 -1      1376    8    0    1
 -2       635       758       759      3103      3107      3105
 -1      1377    8    0    1
 -2       637       636       760      2727      3108      3109
 -1      1378    8    0    1
 -2       636       759       760      3106      3110      3108
 -1      1379    8    0    1
 -2       638       637       761      2730      3111      3112
 -1      1380    8    0    1
 -2       637       760       761      3109      3113      3111
 -1      1381    8    0    1
 -2       639       638       762      2733      3114      3115
 -1      1382    8    0    1
 -2       638       761       762      3112      3116      3114
 -1      1383    8    0    1
 -2       640       639       763      2736      3117      3118
 -1      1384    8    0    1
 -2       639       762       763      3115      3119      3117
 -1      1385    8    0    1
 -2       641       640       764      2739      3120      3121
 -1      1386    8    0    1
 -2       640       763       764      3118      3122      3120
 -1      1387    8    0    1
 -2       642       641       765      2742      3123      3124
 -1      1388    8    0    1
 -2       641       764       765      3121      3125      3123
 -1      1389    8    0    1
 -2       643       642       766      2745      3126      3127
 -1      1390    8    0    1
 -2       642       765       766      3124      3128      3126
 -1      1391    8    0    1
 -2       644       643       767      2748      3129      3130
 -1      1392    8    0    1
 -2       643       766       767      3127      3131      3129
 -1      1393    8    0    1
 -2       733       731       768      3037      3132      3133
 -1      1394    8    0    1
 -2       508       507       750      2334      3134      3135
 -1      1395    8    0    1
 -2       720       735       769      3024      3136      3137
 -1      1396    8    0    1
 -2       720       769       752      3137      3138      3086
 -1      1397    8    0    1
 -2       647       646       770      2763      3139      3140
 -1      1398    8    0    1
 -2       648       647       771      2766      3141      3142
 -1      1399    8    0    1
 -2       647       770       771      3140      3143      3141
 -1      1400    8    0    1
 -2       649       648       772      2769      3144      3145
 -1      1401    8    0    1
 -2       648       771       772      3142      3146      3144
 -1      1402    8    0    1
 -2       650       649       773      2772      3147      3148
 -1      1403    8    0    1
 -2       649       772       773      3145      3149      3147
 -1      1404    8    0    1
 -2       651       650       774      2775      3150      3151
 -1      1405    8    0    1
 -2       650       773       774      3148      3152      3150
 -1      1406    8    0    1
 -2       652       651       775      2778      3153      3154
 -1      1407    8    0    1
 -2       651       774       775      3151      3155      3153
 -1      1408    8    0    1
 -2       653       652       776      2781      3156      3157
 -1      1409    8    0    1
 -2       652       775       776      3154      3158      3156
 -1      1410    8    0    1
 -2       654       653       777      2784      3159      3160
 -1      1411    8    0    1
 -2       653       776       777      3157      3161      3159
 -1      1412    8    0    1
 -2       655       654       778      2787      3162      3163
 -1      1413    8    0    1
 -2       654       777       778      3160      3164      3162
 -1      1414    8    0    1
 -2       656       655       779      2790      3165      3166
 -1      1415    8    0    1
 -2       655       778       779      3163      3167      3165
 -1      1416    8    0    1
 -2       657       656       780      2793      3168      3169
 -1      1417    8    0    1
 -2       656       779       780      3166      3170      3168
 -1      1418    8    0    1
 -2       658       657       781      2796      3171      3172
 -1      1419    8    0    1
 -2       657       780       781      3169      3173      3171
 -1      1420    8    0    1
 -2       659       658       782      2799      3174      3175
 -1      1421    8    0    1
 -2       658       781       782      3172      3176      3174
 -1      1422    8    0    1
 -2       660       659       783      2802      3177      3178
 -1      1423    8    0    1
 -2       659       782       783      3175      3179      3177
 -1      1424    8    0    1
 -2       661       660       784      2805      3180      3181
 -1      1425    8    0    1
 -2       660       783       784      3178      3182      3180
 -1      1426    8    0    1
 -2       662       661       785      2808      3183      3184
 -1      1427    8    0    1
 -2       661       784       785      3181      3185      3183
 -1      1428    8    0    1
 -2       663       662       786      2811      3186      3187
 -1      1429    8    0    1
 -2       662       785       786      3184      3188      3186
 -1      1430    8    0    1
 -2       707       710       787      2951      3189      3190
 -1      1431    8    0    1
 -2       667       668       788      2824      3191      3192
 -1      1432    8    0    1
 -2       666       667       789      2821      3193      3194
 -1      1433    8    0    1
 -2       667       788       789      3192      3195      3193
 -1      1434    8    0    1
 -2       669       670       790      2830      3196      3197
 -1      1435    8    0    1
 -2       670       671       791      2833      3198      3199
 -1      1436    8    0    1
 -2       670       791       790      3199      3200      3196
 -1      1437    8    0    1
 -2       671       672       792      2836      3201      3202
 -1      1438    8    0    1
 -2       671       792       791      3202      3203      3198
 -1      1439    8    0    1
 -2       672       673       793      2839      3204      3205
 -1      1440    8    0    1
 -2       672       793       792      3205      3206      3201
 -1      1441    8    0    1
 -2       673       674       794      2842      3207      3208
 -1      1442    8    0    1
 -2       673       794       793      3208      3209      3204
 -1      1443    8    0    1
 -2       674       675       795      2845      3210      3211
 -1      1444    8    0    1
 -2       674       795       794      3211      3212      3207
 -1      1445    8    0    1
 -2       675       676       796      2848      3213      3214
 -1      1446    8    0    1
 -2       675       796       795      3214      3215      3210
 -1      1447    8    0    1
 -2       676       677       797      2851      3216      3217
 -1      1448    8    0    1
 -2       676       797       796      3217      3218      3213
 -1      1449    8    0    1
 -2       677       678       798      2854      3219      3220
 -1      1450    8    0    1
 -2       677       798       797      3220      3221      3216
 -1      1451    8    0    1
 -2       678       679       799      2857      3222      3223
 -1      1452    8    0    1
 -2       678       799       798      3223      3224      3219
 -1      1453    8    0    1
 -2       680       681       800      2863      3225      3226
 -1      1454    8    0    1
 -2       681       682       741      2866      3227      3228
 -1      1455    8    0    1
 -2       683       684       801      2872      3229      3230
 -1      1456    8    0    1
 -2       684       685       802      2875      3231      3232
 -1      1457    8    0    1
 -2       684       802       801      3232      3233      3229
 -1      1458    8    0    1
 -2       685       686       803      2878      3234      3235
 -1      1459    8    0    1
 -2       685       803       802      3235      3236      3231
 -1      1460    8    0    1
 -2       686       687       804      2881      3237      3238
 -1      1461    8    0    1
 -2       686       804       803      3238      3239      3234
 -1      1462    8    0    1
 -2       687       688       805      2884      3240      3241
 -1      1463    8    0    1
 -2       687       805       804      3241      3242      3237
 -1      1464    8    0    1
 -2       688       689       806      2887      3243      3244
 -1      1465    8    0    1
 -2       688       806       805      3244      3245      3240
 -1      1466    8    0    1
 -2       689       690       807      2890      3246      3247
 -1      1467    8    0    1
 -2       689       807       806      3247      3248      3243
 -1      1468    8    0    1
 -2       690       691       808      2893      3249      3250
 -1      1469    8    0    1
 -2       690       808       807      3250      3251      3246
 -1      1470    8    0    1
 -2       691       692       809      2896      3252      3253
 -1      1471    8    0    1
 -2       691       809       808      3253      3254      3249
 -1      1472    8    0    1
 -2       692       693       810      2899      3255      3256
 -1      1473    8    0    1
 -2       692       810       809      3256      3257      3252
 -1      1474    8    0    1
 -2       693       694       811      2902      3258      3259
 -1      1475    8    0    1
 -2       693       811       810      3259      3260      3255
 -1      1476    8    0    1
 -2       694       695       812      2905      3261      3262
 -1      1477    8    0    1
 -2       694       812       811      3262      3263      3258
 -1      1478    8    0    1
 -2       695       696       813      2908      3264      3265
 -1      1479    8    0    1
 -2       695       813       812      3265      3266      3261
 -1      1480    8    0    1
 -2       696       697       814      2911      3267      3268
 -1      1481    8    0    1
 -2       696       814       813      3268      3269      3264
 -1      1482    8    0    1
 -2       697       698       815      2914      3270      3271
 -1      1483    8    0    1
 -2       697       815       814      3271      3272      3267
 -1      1484    8    0    1
 -2       698       699       816      2917      3273      3274
 -1      1485    8    0    1
 -2       698       816       815      3274      3275      3270
 -1      1486    8    0    1
 -2       699       700       817      2920      3276      3277
 -1      1487    8    0    1
 -2       699       817       816      3277      3278      3273
 -1      1488    8    0    1
 -2       700       701       818      2923      3279      3280
 -1      1489    8    0    1
 -2       700       818       817      3280      3281      3276
 -1      1490    8    0    1
 -2       701       702       819      2926      3282      3283
 -1      1491    8    0    1
 -2       701       819       818      3283      3284      3279
 -1      1492    8    0    1
 -2       702       703       820      2929      3285      3286
 -1      1493    8    0    1
 -2       819       702       820      3282      3286      3287
 -1      1494    8    0    1
 -2       703       742       820      3046      3288      3285
 -1      1495    8    0    1
 -2       705       663       713      2936      3289      2961
 -1      1496    8    0    1
 -2       622       621       821      2687      3290      3291
 -1      1497    8    0    1
 -2       606       508       750      2962      3135      3081
 -1      1498    8    0    1
 -2       710       711       822      2954      3292      3293
 -1      1499    8    0    1
 -2       710       822       787      3293      3294      3189
 -1      1500    8    0    1
 -2       704       707       823      2941      3295      3296
 -1      1501    8    0    1
 -2       707       787       823      3190      3297      3295
 -1      1502    8    0    1
 -2       711       712       824      2957      3298      3299
 -1      1503    8    0    1
 -2       711       824       822      3299      3300      3292
 -1      1504    8    0    1
 -2       732       722       825      3012      3301      3302
 -1      1505    8    0    1
 -2       668       669       826      2827      3303      3304
 -1      1506    8    0    1
 -2       788       668       826      3191      3304      3305
 -1      1507    8    0    1
 -2       669       790       826      3197      3306      3303
 -1      1508    8    0    1
 -2       730       743       827      3054      3307      3308
 -1      1509    8    0    1
 -2       617       614       828      2664      3309      3310
 -1      1510    8    0    1
 -2       620       617       828      2682      3310      3311
 -1      1511    8    0    1
 -2       614       739       828      3033      3312      3309
 -1      1512    8    0    1
 -2       665       664       829      2816      3313      3314
 -1      1513    8    0    1
 -2       507       600       750      2969      3082      3134
 -1      1514    8    0    1
 -2       645       510       721      2756      3315      3316
 -1      1515    8    0    1
 -2       715       616       830      3049      3317      3318
 -1      1516    8    0    1
 -2       731       626       644      3028      3035      3319
 -1      1517    8    0    1
 -2       629       628       831      2703      3320      3321
 -1      1518    8    0    1
 -2       629       831       753      3321      3322      3088
 -1      1519    8    0    1
 -2       734       723       832      3075      3323      3324
 -1      1520    8    0    1
 -2       714       715       833      3052      3325      3326
 -1      1521    8    0    1
 -2       735       729       834      3080      3327      3328
 -1      1522    8    0    1
 -2       627       730       835      3079      3329      3330
 -1      1523    8    0    1
 -2       722       733       836      3069      3331      3332
 -1      1524    8    0    1
 -2       733       768       836      3133      3333      3331
 -1      1525    8    0    1
 -2       716       736       770      3050      3334      3335
 -1      1526    8    0    1
 -2       736       714       837      3048      3336      3337
 -1      1527    8    0    1
 -2       736       837       770      3337      3338      3334
 -1      1528    8    0    1
 -2       726       734       838      3018      3339      3340
 -1      1529    8    0    1
 -2       734       832       838      3324      3341      3339
 -1      1530    8    0    1
 -2       624       625       839      3083      3342      3343
 -1      1531    8    0    1
 -2       751       624       839      3084      3343      3344
 -1      1532    8    0    1
 -2       625       724       839      2991      3345      3342
 -1      1533    8    0    1
 -2       721       510       608      3315      3023      2984
 -1      1534    8    0    1
 -2       729       618       840      3051      3346      3347
 -1      1535    8    0    1
 -2       618       745       840      3060      3348      3346
 -1      1536    8    0    1
 -2       709       665       841      2948      3349      3350
 -1      1537    8    0    1
 -2       665       829       841      3314      3351      3349
 -1      1538    8    0    1
 -2       737       622       842      3025      3352      3353
 -1      1539    8    0    1
 -2       622       821       842      3291      3354      3352
 -1      1540    8    0    1
 -2       727       748       843      3073      3355      3356
 -1      1541    8    0    1
 -2       718       752       741      3087      3357      3041
 -1      1542    8    0    1
 -2       725       623       844      2996      3358      3359
 -1      1543    8    0    1
 -2       623       751       844      3085      3360      3358
 -1      1544    8    0    1
 -2       738       627       835      3029      3330      3361
 -1      1545    8    0    1
 -2       739       727       845      3034      3362      3363
 -1      1546    8    0    1
 -2       727       843       845      3356      3364      3362
 -1      1547    8    0    1
 -2       664       717       846      2972      3365      3366
 -1      1548    8    0    1
 -2       664       846       829      3366      3367      3313
 -1      1549    8    0    1
 -2       716       770       646      3335      3139      3368
 -1      1550    8    0    1
 -2       732       825       749      3302      3369      3078
 -1      1551    8    0    1
 -2       740       706       847      3038      3370      3371
 -1      1552    8    0    1
 -2       704       823       848      3296      3372      3373
 -1      1553    8    0    1
 -2       704       848       708      3373      3374      2945
 -1      1554    8    0    1
 -2       729       840       849      3347      3375      3376
 -1      1555    8    0    1
 -2       729       849       834      3376      3377      3327
 -1      1556    8    0    1
 -2       730       827       835      3308      3378      3329
 -1      1557    8    0    1
 -2       604       605       626      2655      3036      2695
 -1      1558    8    0    1
 -2       666       789       850      3194      3379      3380
 -1      1559    8    0    1
 -2       666       850       717      3380      3381      2973
 -1      1560    8    0    1
 -2       679       680       851      2860      3382      3383
 -1      1561    8    0    1
 -2       682       683       852      2869      3384      3385
 -1      1562    8    0    1
 -2       837       714       833      3336      3326      3386
 -1      1563    8    0    1
 -2       706       708       853      2944      3387      3388
 -1      1564    8    0    1
 -2       847       706       853      3370      3388      3389
 -1      1565    8    0    1
 -2       708       848       853      3374      3390      3387
 -1      1566    8    0    1
 -2       821       621       854      3290      3391      3392
 -1      1567    8    0    1
 -2       621       725       854      2995      3393      3391
 -1      1568    8    0    1
 -2       824       712       786      3298      3394      3395
 -1      1569    8    0    1
 -2       713       663       786      3289      3187      3396
 -1      1570    8    0    1
 -2       825       722       836      3301      3332      3397
 -1      1571    8    0    1
 -2       712       713       786      2960      3396      3394
 -1      1572    8    0    1
 -2       741       682       852      3227      3385      3398
 -1      1573    8    0    1
 -2       852       683       801      3384      3230      3399
 -1      1574    8    0    1
 -2       851       680       800      3382      3226      3400
 -1      1575    8    0    1
 -2       721       716       645      3058      3401      3316
 -1      1576    8    0    1
 -2       743       744       855      3057      3402      3403
 -1      1577    8    0    1
 -2       724       709       856      2992      3404      3405
 -1      1578    8    0    1
 -2       839       724       856      3345      3405      3406
 -1      1579    8    0    1
 -2       709       841       856      3350      3407      3404
 -1      1580    8    0    1
 -2       620       828       857      3311      3408      3409
 -1      1581    8    0    1
 -2       620       857       719      3409      3410      2979
 -1      1582    8    0    1
 -2       833       715       830      3325      3318      3411
 -1      1583    8    0    1
 -2       745       619       858      3061      3412      3413
 -1      1584    8    0    1
 -2       619       746       858      3063      3414      3412
 -1      1585    8    0    1
 -2       830       616       738      3317      3031      3415
 -1      1586    8    0    1
 -2       731       644       767      3319      3130      3416
 -1      1587    8    0    1
 -2       746       728       859      3064      3417      3418
 -1      1588    8    0    1
 -2       728       749       859      3077      3419      3417
 -1      1589    8    0    1
 -2       679       851       799      3383      3420      3222
 -1      1590    8    0    1
 -2       747       726       860      3068      3421      3422
 -1      1591    8    0    1
 -2       827       743       861      3307      3423      3424
 -1      1592    8    0    1
 -2       743       855       861      3403      3425      3423
 -1      1593    8    0    1
 -2       723       741       852      3043      3398      3426
 -1      1594    8    0    1
 -2       628       719       857      2978      3410      3427
 -1      1595    8    0    1
 -2       769       735       834      3136      3328      3428
 -1      1596    8    0    1
 -2       646       645       716      2760      3401      3368
 -1      1597    8    0    1
 -2       726       838       860      3340      3429      3421
 -1      1598    8    0    1
 -2       628       857       831      3427      3430      3320
 -1      1599    8    0    1
 -2       843       748       862      3355      3431      3432
 -1      1600    8    0    1
 -2       748       737       862      3074      3433      3431
 -1      1601    8    0    1
 -2       755       754       863      3095      3434      3435
 -1      1602    8    0    1
 -2       756       755       864      3098      3436      3437
 -1      1603    8    0    1
 -2       755       863       864      3435      3438      3436
 -1      1604    8    0    1
 -2       757       756       865      3101      3439      3440
 -1      1605    8    0    1
 -2       756       864       865      3437      3441      3439
 -1      1606    8    0    1
 -2       758       757       866      3104      3442      3443
 -1      1607    8    0    1
 -2       757       865       866      3440      3444      3442
 -1      1608    8    0    1
 -2       759       758       867      3107      3445      3446
 -1      1609    8    0    1
 -2       758       866       867      3443      3447      3445
 -1      1610    8    0    1
 -2       760       759       868      3110      3448      3449
 -1      1611    8    0    1
 -2       759       867       868      3446      3450      3448
 -1      1612    8    0    1
 -2       761       760       869      3113      3451      3452
 -1      1613    8    0    1
 -2       760       868       869      3449      3453      3451
 -1      1614    8    0    1
 -2       762       761       870      3116      3454      3455
 -1      1615    8    0    1
 -2       761       869       870      3452      3456      3454
 -1      1616    8    0    1
 -2       763       762       871      3119      3457      3458
 -1      1617    8    0    1
 -2       762       870       871      3455      3459      3457
 -1      1618    8    0    1
 -2       764       763       872      3122      3460      3461
 -1      1619    8    0    1
 -2       763       871       872      3458      3462      3460
 -1      1620    8    0    1
 -2       765       764       873      3125      3463      3464
 -1      1621    8    0    1
 -2       764       872       873      3461      3465      3463
 -1      1622    8    0    1
 -2       766       765       874      3128      3466      3467
 -1      1623    8    0    1
 -2       765       873       874      3464      3468      3466
 -1      1624    8    0    1
 -2       749       825       875      3369      3469      3470
 -1      1625    8    0    1
 -2       742       740       876      3047      3471      3472
 -1      1626    8    0    1
 -2       820       742       876      3288      3472      3473
 -1      1627    8    0    1
 -2       740       847       876      3371      3474      3471
 -1      1628    8    0    1
 -2       822       824       877      3300      3475      3476
 -1      1629    8    0    1
 -2       772       771       878      3146      3477      3478
 -1      1630    8    0    1
 -2       773       772       879      3149      3479      3480
 -1      1631    8    0    1
 -2       772       878       879      3478      3481      3479
 -1      1632    8    0    1
 -2       774       773       880      3152      3482      3483
 -1      1633    8    0    1
 -2       773       879       880      3480      3484      3482
 -1      1634    8    0    1
 -2       775       774       881      3155      3485      3486
 -1      1635    8    0    1
 -2       774       880       881      3483      3487      3485
 -1      1636    8    0    1
 -2       776       775       882      3158      3488      3489
 -1      1637    8    0    1
 -2       775       881       882      3486      3490      3488
 -1      1638    8    0    1
 -2       777       776       883      3161      3491      3492
 -1      1639    8    0    1
 -2       776       882       883      3489      3493      3491
 -1      1640    8    0    1
 -2       778       777       884      3164      3494      3495
 -1      1641    8    0    1
 -2       777       883       884      3492      3496      3494
 -1      1642    8    0    1
 -2       779       778       885      3167      3497      3498
 -1      1643    8    0    1
 -2       778       884       885      3495      3499      3497
 -1      1644    8    0    1
 -2       780       779       886      3170      3500      3501
 -1      1645    8    0    1
 -2       779       885       886      3498      3502      3500
 -1      1646    8    0    1
 -2       781       780       887      3173      3503      3504
 -1      1647    8    0    1
 -2       780       886       887      3501      3505      3503
 -1      1648    8    0    1
 -2       782       781       888      3176      3506      3507
 -1      1649    8    0    1
 -2       781       887       888      3504      3508      3506
 -1      1650    8    0    1
 -2       783       782       889      3179      3509      3510
 -1      1651    8    0    1
 -2       782       888       889      3507      3511      3509
 -1      1652    8    0    1
 -2       784       783       890      3182      3512      3513
 -1      1653    8    0    1
 -2       783       889       890      3510      3514      3512
 -1      1654    8    0    1
 -2       785       784       891      3185      3515      3516
 -1      1655    8    0    1
 -2       784       890       891      3513      3517      3515
 -1      1656    8    0    1
 -2       786       785       824      3188      3518      3395
 -1      1657    8    0    1
 -2       791       792       892      3203      3519      3520
 -1      1658    8    0    1
 -2       790       791       893      3200      3521      3522
 -1      1659    8    0    1
 -2       791       892       893      3520      3523      3521
 -1      1660    8    0    1
 -2       793       794       894      3209      3524      3525
 -1      1661    8    0    1
 -2       794       795       895      3212      3526      3527
 -1      1662    8    0    1
 -2       794       895       894      3527      3528      3524
 -1      1663    8    0    1
 -2       795       796       896      3215      3529      3530
 -1      1664    8    0    1
 -2       795       896       895      3530      3531      3526
 -1      1665    8    0    1
 -2       796       797       897      3218      3532      3533
 -1      1666    8    0    1
 -2       796       897       896      3533      3534      3529
 -1      1667    8    0    1
 -2       797       798       898      3221      3535      3536
 -1      1668    8    0    1
 -2       797       898       897      3536      3537      3532
 -1      1669    8    0    1
 -2       798       799       849      3224      3538      3539
 -1      1670    8    0    1
 -2       747       860       899      3422      3540      3541
 -1      1671    8    0    1
 -2       747       899       744      3541      3542      3067
 -1      1672    8    0    1
 -2       800       681       741      3225      3228      3543
 -1      1673    8    0    1
 -2       851       800       752      3400      3544      3545
 -1      1674    8    0    1
 -2       804       805       900      3242      3546      3547
 -1      1675    8    0    1
 -2       805       806       901      3245      3548      3549
 -1      1676    8    0    1
 -2       805       901       900      3549      3550      3546
 -1      1677    8    0    1
 -2       806       807       902      3248      3551      3552
 -1      1678    8    0    1
 -2       806       902       901      3552      3553      3548
 -1      1679    8    0    1
 -2       807       808       903      3251      3554      3555
 -1      1680    8    0    1
 -2       807       903       902      3555      3556      3551
 -1      1681    8    0    1
 -2       808       809       904      3254      3557      3558
 -1      1682    8    0    1
 -2       808       904       903      3558      3559      3554
 -1      1683    8    0    1
 -2       809       810       905      3257      3560      3561
 -1      1684    8    0    1
 -2       809       905       904      3561      3562      3557
 -1      1685    8    0    1
 -2       810       811       906      3260      3563      3564
 -1      1686    8    0    1
 -2       810       906       905      3564      3565      3560
 -1      1687    8    0    1
 -2       811       812       907      3263      3566      3567
 -1      1688    8    0    1
 -2       811       907       906      3567      3568      3563
 -1      1689    8    0    1
 -2       812       813       908      3266      3569      3570
 -1      1690    8    0    1
 -2       812       908       907      3570      3571      3566
 -1      1691    8    0    1
 -2       813       814       909      3269      3572      3573
 -1      1692    8    0    1
 -2       813       909       908      3573      3574      3569
 -1      1693    8    0    1
 -2       814       815       910      3272      3575      3576
 -1      1694    8    0    1
 -2       814       910       909      3576      3577      3572
 -1      1695    8    0    1
 -2       815       816       911      3275      3578      3579
 -1      1696    8    0    1
 -2       815       911       910      3579      3580      3575
 -1      1697    8    0    1
 -2       816       817       912      3278      3581      3582
 -1      1698    8    0    1
 -2       816       912       911      3582      3583      3578
 -1      1699    8    0    1
 -2       817       818       913      3281      3584      3585
 -1      1700    8    0    1
 -2       817       913       912      3585      3586      3581
 -1      1701    8    0    1
 -2       803       804       914      3239      3587      3588
 -1      1702    8    0    1
 -2       804       900       914      3547      3589      3587
 -1      1703    8    0    1
 -2       823       787       915      3297      3590      3591
 -1      1704    8    0    1
 -2       792       793       916      3206      3592      3593
 -1      1705    8    0    1
 -2       892       792       916      3519      3593      3594
 -1      1706    8    0    1
 -2       793       894       916      3525      3595      3592
 -1      1707    8    0    1
 -2       771       770       837      3143      3338      3596
 -1      1708    8    0    1
 -2       855       744       899      3402      3542      3597
 -1      1709    8    0    1
 -2       828       739       857      3312      3598      3408
 -1      1710    8    0    1
 -2       835       827       917      3378      3599      3600
 -1      1711    8    0    1
 -2       789       788       918      3195      3601      3602
 -1      1712    8    0    1
 -2       831       857       919      3430      3603      3604
 -1      1713    8    0    1
 -2       833       830       920      3411      3605      3606
 -1      1714    8    0    1
 -2       754       753       921      3092      3607      3608
 -1      1715    8    0    1
 -2       754       921       863      3608      3609      3434
 -1      1716    8    0    1
 -2       753       831       922      3322      3610      3611
 -1      1717    8    0    1
 -2       753       922       921      3611      3612      3607
 -1      1718    8    0    1
 -2       825       836       923      3397      3613      3614
 -1      1719    8    0    1
 -2       800       741       752      3543      3357      3544
 -1      1720    8    0    1
 -2       787       822       924      3294      3615      3616
 -1      1721    8    0    1
 -2       915       787       924      3590      3616      3617
 -1      1722    8    0    1
 -2       822       877       924      3476      3618      3615
 -1      1723    8    0    1
 -2       830       738       925      3415      3619      3620
 -1      1724    8    0    1
 -2       771       837       878      3596      3621      3477
 -1      1725    8    0    1
 -2       841       829       926      3351      3622      3623
 -1      1726    8    0    1
 -2       840       745       927      3348      3624      3625
 -1      1727    8    0    1
 -2       745       858       927      3413      3626      3624
 -1      1728    8    0    1
 -2       738       835       928      3361      3627      3628
 -1      1729    8    0    1
 -2       925       738       928      3619      3628      3629
 -1      1730    8    0    1
 -2       835       917       928      3600      3630      3627
 -1      1731    8    0    1
 -2       824       785       891      3518      3516      3631
 -1      1732    8    0    1
 -2       851       752       769      3545      3138      3632
 -1      1733    8    0    1
 -2       851       769       799      3632      3633      3420
 -1      1734    8    0    1
 -2       844       751       929      3360      3634      3635
 -1      1735    8    0    1
 -2       846       717       850      3365      3381      3636
 -1      1736    8    0    1
 -2       746       859       930      3418      3637      3638
 -1      1737    8    0    1
 -2       746       930       858      3638      3639      3414
 -1      1738    8    0    1
 -2       848       823       931      3372      3640      3641
 -1      1739    8    0    1
 -2       823       915       931      3591      3642      3640
 -1      1740    8    0    1
 -2       875       825       932      3469      3643      3644
 -1      1741    8    0    1
 -2       825       923       932      3614      3645      3643
 -1      1742    8    0    1
 -2       767       766       933      3131      3646      3647
 -1      1743    8    0    1
 -2       850       789       934      3379      3648      3649
 -1      1744    8    0    1
 -2       789       918       934      3602      3650      3648
 -1      1745    8    0    1
 -2       854       725       844      3393      3359      3651
 -1      1746    8    0    1
 -2       821       854       935      3392      3652      3653
 -1      1747    8    0    1
 -2       821       935       936      3653      3654      3655
 -1      1748    8    0    1
 -2       821       936       842      3655      3656      3354
 -1      1749    8    0    1
 -2       841       926       937      3623      3657      3658
 -1      1750    8    0    1
 -2       920       830       925      3605      3620      3659
 -1      1751    8    0    1
 -2       856       841       937      3407      3658      3660
 -1      1752    8    0    1
 -2       790       893       938      3522      3661      3662
 -1      1753    8    0    1
 -2       790       938       826      3662      3663      3306
 -1      1754    8    0    1
 -2       798       849       898      3539      3664      3535
 -1      1755    8    0    1
 -2       857       739       845      3598      3363      3665
 -1      1756    8    0    1
 -2       852       801       838      3399      3666      3667
 -1      1757    8    0    1
 -2       837       833       878      3386      3668      3621
 -1      1758    8    0    1
 -2       801       802       860      3233      3669      3670
 -1      1759    8    0    1
 -2       818       819       939      3284      3671      3672
 -1      1760    8    0    1
 -2       819       820       876      3287      3473      3673
 -1      1761    8    0    1
 -2       836       768       933      3333      3674      3675
 -1      1762    8    0    1
 -2       862       737       842      3433      3353      3676
 -1      1763    8    0    1
 -2       802       803       940      3236      3677      3678
 -1      1764    8    0    1
 -2       788       826       941      3305      3679      3680
 -1      1765    8    0    1
 -2       918       788       941      3601      3680      3681
 -1      1766    8    0    1
 -2       826       938       941      3663      3682      3679
 -1      1767    8    0    1
 -2       829       846       942      3367      3683      3684
 -1      1768    8    0    1
 -2       829       942       926      3684      3685      3622
 -1      1769    8    0    1
 -2       860       838       801      3429      3666      3670
 -1      1770    8    0    1
 -2       917       827       943      3599      3686      3687
 -1      1771    8    0    1
 -2       827       861       943      3424      3688      3686
 -1      1772    8    0    1
 -2       831       919       922      3604      3689      3610
 -1      1773    8    0    1
 -2       859       749       944      3419      3690      3691
 -1      1774    8    0    1
 -2       749       875       944      3470      3692      3690
 -1      1775    8    0    1
 -2       861       855       900      3425      3693      3694
 -1      1776    8    0    1
 -2       833       920       878      3606      3695      3668
 -1      1777    8    0    1
 -2       843       862       945      3432      3696      3697
 -1      1778    8    0    1
 -2       899       860       940      3540      3698      3699
 -1      1779    8    0    1
 -2       847       853       946      3389      3700      3701
 -1      1780    8    0    1
 -2       923       836       933      3613      3675      3702
 -1      1781    8    0    1
 -2       860       802       940      3669      3678      3698
 -1      1782    8    0    1
 -2       933       766       874      3646      3467      3703
 -1      1783    8    0    1
 -2       939       819       876      3671      3673      3704
 -1      1784    8    0    1
 -2       818       939       913      3672      3705      3584
 -1      1785    8    0    1
 -2       940       803       914      3677      3588      3706
 -1      1786    8    0    1
 -2       900       855       914      3693      3707      3589
 -1      1787    8    0    1
 -2       921       922       947      3612      3708      3709
 -1      1788    8    0    1
 -2       846       850       948      3636      3710      3711
 -1      1789    8    0    1
 -2       846       948       942      3711      3712      3683
 -1      1790    8    0    1
 -2       845       843       949      3364      3713      3714
 -1      1791    8    0    1
 -2       939       876       847      3704      3474      3715
 -1      1792    8    0    1
 -2       865       864       950      3441      3716      3717
 -1      1793    8    0    1
 -2       866       865       951      3444      3718      3719
 -1      1794    8    0    1
 -2       865       950       951      3717      3720      3718
 -1      1795    8    0    1
 -2       867       866       952      3447      3721      3722
 -1      1796    8    0    1
 -2       866       951       952      3719      3723      3721
 -1      1797    8    0    1
 -2       868       867       953      3450      3724      3725
 -1      1798    8    0    1
 -2       867       952       953      3722      3726      3724
 -1      1799    8    0    1
 -2       869       868       954      3453      3727      3728
 -1      1800    8    0    1
 -2       868       953       954      3725      3729      3727
 -1      1801    8    0    1
 -2       870       869       955      3456      3730      3731
 -1      1802    8    0    1
 -2       869       954       955      3728      3732      3730
 -1      1803    8    0    1
 -2       871       870       956      3459      3733      3734
 -1      1804    8    0    1
 -2       870       955       956      3731      3735      3733
 -1      1805    8    0    1
 -2       872       871       957      3462      3736      3737
 -1      1806    8    0    1
 -2       871       956       957      3734      3738      3736
 -1      1807    8    0    1
 -2       873       872       958      3465      3739      3740
 -1      1808    8    0    1
 -2       872       957       958      3737      3741      3739
 -1      1809    8    0    1
 -2       874       873       959      3468      3742      3743
 -1      1810    8    0    1
 -2       873       958       959      3740      3744      3742
 -1      1811    8    0    1
 -2       768       731       767      3132      3416      3745
 -1      1812    8    0    1
 -2       799       769       834      3633      3428      3746
 -1      1813    8    0    1
 -2       937       926       960      3657      3747      3748
 -1      1814    8    0    1
 -2       920       925       961      3659      3749      3750
 -1      1815    8    0    1
 -2       929       751       856      3634      3751      3752
 -1      1816    8    0    1
 -2       880       879       962      3484      3753      3754
 -1      1817    8    0    1
 -2       881       880       963      3487      3755      3756
 -1      1818    8    0    1
 -2       880       962       963      3754      3757      3755
 -1      1819    8    0    1
 -2       882       881       964      3490      3758      3759
 -1      1820    8    0    1
 -2       881       963       964      3756      3760      3758
 -1      1821    8    0    1
 -2       883       882       965      3493      3761      3762
 -1      1822    8    0    1
 -2       882       964       965      3759      3763      3761
 -1      1823    8    0    1
 -2       884       883       966      3496      3764      3765
 -1      1824    8    0    1
 -2       883       965       966      3762      3766      3764
 -1      1825    8    0    1
 -2       885       884       967      3499      3767      3768
 -1      1826    8    0    1
 -2       884       966       967      3765      3769      3767
 -1      1827    8    0    1
 -2       886       885       968      3502      3770      3771
 -1      1828    8    0    1
 -2       885       967       968      3768      3772      3770
 -1      1829    8    0    1
 -2       887       886       969      3505      3773      3774
 -1      1830    8    0    1
 -2       886       968       969      3771      3775      3773
 -1      1831    8    0    1
 -2       888       887       970      3508      3776      3777
 -1      1832    8    0    1
 -2       887       969       970      3774      3778      3776
 -1      1833    8    0    1
 -2       889       888       971      3511      3779      3780
 -1      1834    8    0    1
 -2       888       970       971      3777      3781      3779
 -1      1835    8    0    1
 -2       890       889       972      3514      3782      3783
 -1      1836    8    0    1
 -2       889       971       972      3780      3784      3782
 -1      1837    8    0    1
 -2       891       890       973      3517      3785      3786
 -1      1838    8    0    1
 -2       890       972       973      3783      3787      3785
 -1      1839    8    0    1
 -2       893       892       974      3523      3788      3789
 -1      1840    8    0    1
 -2       849       840       975      3375      3790      3791
 -1      1841    8    0    1
 -2       895       896       976      3531      3792      3793
 -1      1842    8    0    1
 -2       894       895       977      3528      3794      3795
 -1      1843    8    0    1
 -2       895       976       977      3793      3796      3794
 -1      1844    8    0    1
 -2       897       898       978      3537      3797      3798
 -1      1845    8    0    1
 -2       857       845       919      3665      3799      3603
 -1      1846    8    0    1
 -2       768       767       933      3745      3647      3674
 -1      1847    8    0    1
 -2       949       843       945      3713      3697      3800
 -1      1848    8    0    1
 -2       939       847       946      3715      3701      3801
 -1      1849    8    0    1
 -2       975       840       927      3790      3625      3802
 -1      1850    8    0    1
 -2       856       751       839      3751      3344      3406
 -1      1851    8    0    1
 -2       929       856       937      3752      3660      3803
 -1      1852    8    0    1
 -2       849       975       898      3791      3804      3664
 -1      1853    8    0    1
 -2       919       845       949      3799      3714      3805
 -1      1854    8    0    1
 -2       901       902       979      3553      3806      3807
 -1      1855    8    0    1
 -2       939       946       913      3801      3808      3705
 -1      1856    8    0    1
 -2       903       904       980      3559      3809      3810
 -1      1857    8    0    1
 -2       904       905       981      3562      3811      3812
 -1      1858    8    0    1
 -2       904       981       980      3812      3813      3809
 -1      1859    8    0    1
 -2       905       906       982      3565      3814      3815
 -1      1860    8    0    1
 -2       905       982       981      3815      3816      3811
 -1      1861    8    0    1
 -2       906       907       983      3568      3817      3818
 -1      1862    8    0    1
 -2       906       983       982      3818      3819      3814
 -1      1863    8    0    1
 -2       907       908       984      3571      3820      3821
 -1      1864    8    0    1
 -2       907       984       983      3821      3822      3817
 -1      1865    8    0    1
 -2       908       909       985      3574      3823      3824
 -1      1866    8    0    1
 -2       908       985       984      3824      3825      3820
 -1      1867    8    0    1
 -2       909       910       986      3577      3826      3827
 -1      1868    8    0    1
 -2       909       986       985      3827      3828      3823
 -1      1869    8    0    1
 -2       910       911       987      3580      3829      3830
 -1      1870    8    0    1
 -2       910       987       986      3830      3831      3826
 -1      1871    8    0    1
 -2       911       912       988      3583      3832      3833
 -1      1872    8    0    1
 -2       911       988       987      3833      3834      3829
 -1      1873    8    0    1
 -2       912       913       989      3586      3835      3836
 -1      1874    8    0    1
 -2       912       989       988      3836      3837      3832
 -1      1875    8    0    1
 -2       914       855       899      3707      3597      3838
 -1      1876    8    0    1
 -2       940       914       899      3706      3838      3699
 -1      1877    8    0    1
 -2       949       945       990      3800      3839      3840
 -1      1878    8    0    1
 -2       862       842       991      3676      3841      3842
 -1      1879    8    0    1
 -2       945       862       991      3696      3842      3843
 -1      1880    8    0    1
 -2       842       936       991      3656      3844      3841
 -1      1881    8    0    1
 -2       877       824       891      3475      3631      3845
 -1      1882    8    0    1
 -2       853       848       992      3390      3846      3847
 -1      1883    8    0    1
 -2       853       992       946      3847      3848      3700
 -1      1884    8    0    1
 -2       919       949       922      3805      3849      3689
 -1      1885    8    0    1
 -2       929       937       993      3803      3850      3851
 -1      1886    8    0    1
 -2       937       960       993      3748      3852      3850
 -1      1887    8    0    1
 -2       933       874       923      3703      3853      3702
 -1      1888    8    0    1
 -2       878       920       994      3695      3854      3855
 -1      1889    8    0    1
 -2       879       878       994      3481      3855      3856
 -1      1890    8    0    1
 -2       920       961       994      3750      3857      3854
 -1      1891    8    0    1
 -2       832       723       852      3323      3426      3858
 -1      1892    8    0    1
 -2       863       921       995      3609      3859      3860
 -1      1893    8    0    1
 -2       921       947       995      3709      3861      3859
 -1      1894    8    0    1
 -2       902       903       996      3556      3862      3863
 -1      1895    8    0    1
 -2       902       996       979      3863      3864      3806
 -1      1896    8    0    1
 -2       923       874       959      3853      3743      3865
 -1      1897    8    0    1
 -2       861       900       997      3694      3866      3867
 -1      1898    8    0    1
 -2       943       861       997      3688      3867      3868
 -1      1899    8    0    1
 -2       900       901       997      3550      3869      3866
 -1      1900    8    0    1
 -2       898       975       978      3804      3870      3797
 -1      1901    8    0    1
 -2       896       897       998      3534      3871      3872
 -1      1902    8    0    1
 -2       897       978       998      3798      3873      3871
 -1      1903    8    0    1
 -2       927       858       999      3626      3874      3875
 -1      1904    8    0    1
 -2       844       929      1000      3635      3876      3877
 -1      1905    8    0    1
 -2       854       844      1000      3651      3877      3878
 -1      1906    8    0    1
 -2       929       993      1000      3851      3879      3876
 -1      1907    8    0    1
 -2       864       863      1001      3438      3880      3881
 -1      1908    8    0    1
 -2       950       864      1001      3716      3881      3882
 -1      1909    8    0    1
 -2       863       995      1001      3860      3883      3880
 -1      1910    8    0    1
 -2       877       891       973      3845      3786      3884
 -1      1911    8    0    1
 -2       913       946       989      3808      3885      3835
 -1      1912    8    0    1
 -2       924       877       973      3618      3884      3886
 -1      1913    8    0    1
 -2       930       859      1002      3637      3887      3888
 -1      1914    8    0    1
 -2       859       944      1002      3691      3889      3887
 -1      1915    8    0    1
 -2       931       915      1003      3642      3890      3891
 -1      1916    8    0    1
 -2       850       934       948      3649      3892      3710
 -1      1917    8    0    1
 -2       961       925      1004      3749      3893      3894
 -1      1918    8    0    1
 -2       925       928      1004      3629      3895      3893
 -1      1919    8    0    1
 -2       936       935      1005      3654      3896      3897
 -1      1920    8    0    1
 -2       935       854      1000      3652      3878      3898
 -1      1921    8    0    1
 -2       960       926      1006      3747      3899      3900
 -1      1922    8    0    1
 -2       926       942      1006      3685      3901      3899
 -1      1923    8    0    1
 -2       832       852       838      3858      3667      3341
 -1      1924    8    0    1
 -2       893       974      1007      3789      3902      3903
 -1      1925    8    0    1
 -2       893      1007       938      3903      3904      3661
 -1      1926    8    0    1
 -2       989       946      1008      3885      3905      3906
 -1      1927    8    0    1
 -2       946       992      1008      3848      3907      3905
 -1      1928    8    0    1
 -2       974       892      1009      3788      3908      3909
 -1      1929    8    0    1
 -2       892       916      1009      3594      3910      3908
 -1      1930    8    0    1
 -2       927       999      1010      3875      3911      3912
 -1      1931    8    0    1
 -2       927      1010       975      3912      3913      3802
 -1      1932    8    0    1
 -2       896       998       976      3872      3914      3792
 -1      1933    8    0    1
 -2       962       879       994      3753      3856      3915
 -1      1934    8    0    1
 -2       915       924      1011      3617      3916      3917
 -1      1935    8    0    1
 -2       915      1011      1003      3917      3918      3890
 -1      1936    8    0    1
 -2       934       918      1012      3650      3919      3920
 -1      1937    8    0    1
 -2       875       932      1013      3644      3921      3922
 -1      1938    8    0    1
 -2       978       975      1010      3870      3913      3923
 -1      1939    8    0    1
 -2       990       945      1014      3839      3924      3925
 -1      1940    8    0    1
 -2       945       991      1014      3843      3926      3924
 -1      1941    8    0    1
 -2       903       980       996      3810      3927      3862
 -1      1942    8    0    1
 -2       992       848       931      3846      3641      3928
 -1      1943    8    0    1
 -2       918       941      1015      3681      3929      3930
 -1      1944    8    0    1
 -2       918      1015      1012      3930      3931      3919
 -1      1945    8    0    1
 -2       922       949       990      3849      3840      3932
 -1      1946    8    0    1
 -2       901       979       997      3807      3933      3869
 -1      1947    8    0    1
 -2       944       875      1013      3692      3922      3934
 -1      1948    8    0    1
 -2       916       894      1016      3595      3935      3936
 -1      1949    8    0    1
 -2       916      1016      1009      3936      3937      3910
 -1      1950    8    0    1
 -2       999       858       930      3874      3639      3938
 -1      1951    8    0    1
 -2       917       943      1017      3687      3939      3940
 -1      1952    8    0    1
 -2       799       834       849      3746      3377      3538
 -1      1953    8    0    1
 -2       928       917      1018      3630      3941      3942
 -1      1954    8    0    1
 -2      1004       928      1018      3895      3942      3943
 -1      1955    8    0    1
 -2       917      1017      1018      3940      3944      3941
 -1      1956    8    0    1
 -2      1005       935      1019      3896      3945      3946
 -1      1957    8    0    1
 -2       935      1000      1019      3898      3947      3945
 -1      1958    8    0    1
 -2      1016       894       977      3935      3795      3948
 -1      1959    8    0    1
 -2       942       948      1020      3712      3949      3950
 -1      1960    8    0    1
 -2       942      1020      1006      3950      3951      3901
 -1      1961    8    0    1
 -2       948       934      1021      3892      3952      3953
 -1      1962    8    0    1
 -2      1020       948      1021      3949      3953      3954
 -1      1963    8    0    1
 -2       934      1012      1021      3920      3955      3952
 -1      1964    8    0    1
 -2       932       923       959      3645      3865      3956
 -1      1965    8    0    1
 -2       943       997      1022      3868      3957      3958
 -1      1966    8    0    1
 -2      1017       943      1022      3939      3958      3959
 -1      1967    8    0    1
 -2       997       979      1022      3933      3960      3957
 -1      1968    8    0    1
 -2       952       951      1023      3723      3961      3962
 -1      1969    8    0    1
 -2       953       952      1024      3726      3963      3964
 -1      1970    8    0    1
 -2       952      1023      1024      3962      3965      3963
 -1      1971    8    0    1
 -2       954       953      1025      3729      3966      3967
 -1      1972    8    0    1
 -2       953      1024      1025      3964      3968      3966
 -1      1973    8    0    1
 -2       955       954      1026      3732      3969      3970
 -1      1974    8    0    1
 -2       954      1025      1026      3967      3971      3969
 -1      1975    8    0    1
 -2       956       955      1027      3735      3972      3973
 -1      1976    8    0    1
 -2       955      1026      1027      3970      3974      3972
 -1      1977    8    0    1
 -2       957       956      1028      3738      3975      3976
 -1      1978    8    0    1
 -2       956      1027      1028      3973      3977      3975
 -1      1979    8    0    1
 -2       958       957      1029      3741      3978      3979
 -1      1980    8    0    1
 -2       957      1028      1029      3976      3980      3978
 -1      1981    8    0    1
 -2       959       958      1030      3744      3981      3982
 -1      1982    8    0    1
 -2       958      1029      1030      3979      3983      3981
 -1      1983    8    0    1
 -2       963       962      1031      3757      3984      3985
 -1      1984    8    0    1
 -2      1016       977      1032      3948      3986      3987
 -1      1985    8    0    1
 -2       977       976      1033      3796      3988      3989
 -1      1986    8    0    1
 -2       977      1033      1032      3989      3990      3986
 -1      1987    8    0    1
 -2       999       930      1034      3938      3991      3992
 -1      1988    8    0    1
 -2       930      1002      1034      3888      3993      3991
 -1      1989    8    0    1
 -2       964       963      1035      3760      3994      3995
 -1      1990    8    0    1
 -2       963      1031      1035      3985      3996      3994
 -1      1991    8    0    1
 -2       965       964      1036      3763      3997      3998
 -1      1992    8    0    1
 -2       964      1035      1036      3995      3999      3997
 -1      1993    8    0    1
 -2       966       965      1037      3766      4000      4001
 -1      1994    8    0    1
 -2       965      1036      1037      3998      4002      4000
 -1      1995    8    0    1
 -2       967       966      1038      3769      4003      4004
 -1      1996    8    0    1
 -2       966      1037      1038      4001      4005      4003
 -1      1997    8    0    1
 -2       968       967      1039      3772      4006      4007
 -1      1998    8    0    1
 -2       967      1038      1039      4004      4008      4006
 -1      1999    8    0    1
 -2       969       968      1040      3775      4009      4010
 -1      2000    8    0    1
 -2       968      1039      1040      4007      4011      4009
 -1      2001    8    0    1
 -2       970       969      1041      3778      4012      4013
 -1      2002    8    0    1
 -2       969      1040      1041      4010      4014      4012
 -1      2003    8    0    1
 -2       971       970      1042      3781      4015      4016
 -1      2004    8    0    1
 -2       970      1041      1042      4013      4017      4015
 -1      2005    8    0    1
 -2       972       971      1043      3784      4018      4019
 -1      2006    8    0    1
 -2       971      1042      1043      4016      4020      4018
 -1      2007    8    0    1
 -2       973       972      1044      3787      4021      4022
 -1      2008    8    0    1
 -2       972      1043      1044      4019      4023      4021
 -1      2009    8    0    1
 -2      1010       999      1045      3911      4024      4025
 -1      2010    8    0    1
 -2       999      1034      1045      3992      4026      4024
 -1      2011    8    0    1
 -2       982       983      1046      3819      4027      4028
 -1      2012    8    0    1
 -2       941       938      1047      3682      4029      4030
 -1      2013    8    0    1
 -2      1015       941      1047      3929      4030      4031
 -1      2014    8    0    1
 -2       938      1007      1047      3904      4032      4029
 -1      2015    8    0    1
 -2      1013       932      1030      3921      4033      4034
 -1      2016    8    0    1
 -2      1000       993      1019      3879      4035      3947
 -1      2017    8    0    1
 -2       922       990       947      3932      4036      3708
 -1      2018    8    0    1
 -2       981       982      1048      3816      4037      4038
 -1      2019    8    0    1
 -2       982      1046      1048      4028      4039      4037
 -1      2020    8    0    1
 -2       978      1010       998      3923      4040      3873
 -1      2021    8    0    1
 -2       962       994      1049      3915      4041      4042
 -1      2022    8    0    1
 -2       994       961      1049      3857      4043      4041
 -1      2023    8    0    1
 -2       951       950      1050      3720      4044      4045
 -1      2024    8    0    1
 -2       951      1050      1023      4045      4046      3961
 -1      2025    8    0    1
 -2       980       981      1051      3813      4047      4048
 -1      2026    8    0    1
 -2       981      1048      1051      4038      4049      4047
 -1      2027    8    0    1
 -2       983       984      1052      3822      4050      4051
 -1      2028    8    0    1
 -2       983      1052      1046      4051      4052      4027
 -1      2029    8    0    1
 -2       984       985      1053      3825      4053      4054
 -1      2030    8    0    1
 -2       984      1053      1052      4054      4055      4050
 -1      2031    8    0    1
 -2       985       986      1054      3828      4056      4057
 -1      2032    8    0    1
 -2       985      1054      1053      4057      4058      4053
 -1      2033    8    0    1
 -2       986       987      1055      3831      4059      4060
 -1      2034    8    0    1
 -2       986      1055      1054      4060      4061      4056
 -1      2035    8    0    1
 -2       987       988      1056      3834      4062      4063
 -1      2036    8    0    1
 -2       987      1056      1055      4063      4064      4059
 -1      2037    8    0    1
 -2       988       989      1057      3837      4065      4066
 -1      2038    8    0    1
 -2      1056       988      1057      4062      4066      4067
 -1      2039    8    0    1
 -2       989      1008      1057      3906      4068      4065
 -1      2040    8    0    1
 -2       924       973      1011      3886      4069      3916
 -1      2041    8    0    1
 -2       991       936      1058      3844      4070      4071
 -1      2042    8    0    1
 -2       936      1005      1058      3897      4072      4070
 -1      2043    8    0    1
 -2       979       996      1059      3864      4073      4074
 -1      2044    8    0    1
 -2       979      1059      1022      4074      4075      3960
 -1      2045    8    0    1
 -2       996       980      1060      3927      4076      4077
 -1      2046    8    0    1
 -2      1059       996      1060      4073      4077      4078
 -1      2047    8    0    1
 -2       980      1051      1060      4048      4079      4076
 -1      2048    8    0    1
 -2       993       960      1019      3852      4080      4035
 -1      2049    8    0    1
 -2       998      1010      1045      4040      4025      4081
 -1      2050    8    0    1
 -2       992       931      1061      3928      4082      4083
 -1      2051    8    0    1
 -2      1008       992      1061      3907      4083      4084
 -1      2052    8    0    1
 -2       931      1003      1061      3891      4085      4082
 -1      2053    8    0    1
 -2       976       998      1062      3914      4086      4087
 -1      2054    8    0    1
 -2      1033       976      1062      3988      4087      4088
 -1      2055    8    0    1
 -2       998      1045      1062      4081      4089      4086
 -1      2056    8    0    1
 -2       944      1013      1063      3934      4090      4091
 -1      2057    8    0    1
 -2       944      1063      1002      4091      4092      3889
 -1      2058    8    0    1
 -2       932       959      1030      3956      3982      4033
 -1      2059    8    0    1
 -2       947       990      1064      4036      4093      4094
 -1      2060    8    0    1
 -2       995       947      1064      3861      4094      4095
 -1      2061    8    0    1
 -2       990      1014      1064      3925      4096      4093
 -1      2062    8    0    1
 -2      1021      1012      1065      3955      4097      4098
 -1      2063    8    0    1
 -2      1063      1013      1066      4090      4099      4100
 -1      2064    8    0    1
 -2      1013      1030      1066      4034      4101      4099
 -1      2065    8    0    1
 -2      1031       962      1049      3984      4042      4102
 -1      2066    8    0    1
 -2      1016      1032      1067      3987      4103      4104
 -1      2067    8    0    1
 -2      1016      1067      1009      4104      4105      3937
 -1      2068    8    0    1
 -2      1011       973      1044      4069      4022      4106
 -1      2069    8    0    1
 -2      1017      1022      1068      3959      4107      4108
 -1      2070    8    0    1
 -2      1022      1059      1068      4075      4109      4107
 -1      2071    8    0    1
 -2       991      1058      1014      4071      4110      3926
 -1      2072    8    0    1
 -2      1049       961      1004      4043      3894      4111
 -1      2073    8    0    1
 -2      1050       950      1069      4044      4112      4113
 -1      2074    8    0    1
 -2       950      1001      1069      3882      4114      4112
 -1      2075    8    0    1
 -2      1058      1005      1070      4072      4115      4116
 -1      2076    8    0    1
 -2       995      1064      1071      4095      4117      4118
 -1      2077    8    0    1
 -2      1018      1017      1072      3944      4119      4120
 -1      2078    8    0    1
 -2      1017      1068      1072      4108      4121      4119
 -1      2079    8    0    1
 -2      1001       995      1071      3883      4118      4122
 -1      2080    8    0    1
 -2      1061      1003      1073      4085      4123      4124
 -1      2081    8    0    1
 -2      1012      1015      1074      3931      4125      4126
 -1      2082    8    0    1
 -2      1012      1074      1065      4126      4127      4097
 -1      2083    8    0    1
 -2      1003      1011      1075      3918      4128      4129
 -1      2084    8    0    1
 -2      1073      1003      1075      4123      4129      4130
 -1      2085    8    0    1
 -2      1011      1044      1075      4106      4131      4128
 -1      2086    8    0    1
 -2      1019       960      1076      4080      4132      4133
 -1      2087    8    0    1
 -2       960      1006      1076      3900      4134      4132
 -1      2088    8    0    1
 -2      1007       974      1077      3902      4135      4136
 -1      2089    8    0    1
 -2      1005      1019      1076      3946      4133      4137
 -1      2090    8    0    1
 -2       974      1009      1078      3909      4138      4139
 -1      2091    8    0    1
 -2      1009      1067      1078      4105      4140      4138
 -1      2092    8    0    1
 -2       974      1078      1077      4139      4141      4135
 -1      2093    8    0    1
 -2      1070      1005      1076      4115      4137      4142
 -1      2094    8    0    1
 -2      1024      1023      1079      3965      4143      4144
 -1      2095    8    0    1
 -2      1064      1014      1080      4096      4145      4146
 -1      2096    8    0    1
 -2      1064      1080      1071      4146      4147      4117
 -1      2097    8    0    1
 -2      1025      1024      1081      3968      4148      4149
 -1      2098    8    0    1
 -2      1024      1079      1081      4144      4150      4148
 -1      2099    8    0    1
 -2      1026      1025      1082      3971      4151      4152
 -1      2100    8    0    1
 -2      1025      1081      1082      4149      4153      4151
 -1      2101    8    0    1
 -2      1027      1026      1083      3974      4154      4155
 -1      2102    8    0    1
 -2      1026      1082      1083      4152      4156      4154
 -1      2103    8    0    1
 -2      1028      1027      1084      3977      4157      4158
 -1      2104    8    0    1
 -2      1027      1083      1084      4155      4159      4157
 -1      2105    8    0    1
 -2      1029      1028      1085      3980      4160      4161
 -1      2106    8    0    1
 -2      1028      1084      1085      4158      4162      4160
 -1      2107    8    0    1
 -2      1030      1029      1066      3983      4163      4101
 -1      2108    8    0    1
 -2      1032      1033      1086      3990      4164      4165
 -1      2109    8    0    1
 -2      1020      1021      1087      3954      4166      4167
 -1      2110    8    0    1
 -2      1021      1065      1087      4098      4168      4166
 -1      2111    8    0    1
 -2      1034      1002      1088      3993      4169      4170
 -1      2112    8    0    1
 -2      1002      1063      1088      4092      4171      4169
 -1      2113    8    0    1
 -2      1035      1031      1089      3996      4172      4173
 -1      2114    8    0    1
 -2      1036      1035      1090      3999      4174      4175
 -1      2115    8    0    1
 -2      1035      1089      1090      4173      4176      4174
 -1      2116    8    0    1
 -2      1037      1036      1091      4002      4177      4178
 -1      2117    8    0    1
 -2      1036      1090      1091      4175      4179      4177
 -1      2118    8    0    1
 -2      1038      1037      1092      4005      4180      4181
 -1      2119    8    0    1
 -2      1037      1091      1092      4178      4182      4180
 -1      2120    8    0    1
 -2      1039      1038      1093      4008      4183      4184
 -1      2121    8    0    1
 -2      1038      1092      1093      4181      4185      4183
 -1      2122    8    0    1
 -2      1040      1039      1094      4011      4186      4187
 -1      2123    8    0    1
 -2      1039      1093      1094      4184      4188      4186
 -1      2124    8    0    1
 -2      1041      1040      1095      4014      4189      4190
 -1      2125    8    0    1
 -2      1040      1094      1095      4187      4191      4189
 -1      2126    8    0    1
 -2      1042      1041      1096      4017      4192      4193
 -1      2127    8    0    1
 -2      1041      1095      1096      4190      4194      4192
 -1      2128    8    0    1
 -2      1043      1042      1097      4020      4195      4196
 -1      2129    8    0    1
 -2      1042      1096      1097      4193      4197      4195
 -1      2130    8    0    1
 -2      1044      1043      1075      4023      4198      4131
 -1      2131    8    0    1
 -2      1045      1034      1098      4026      4199      4200
 -1      2132    8    0    1
 -2      1062      1045      1098      4089      4200      4201
 -1      2133    8    0    1
 -2      1034      1088      1098      4170      4202      4199
 -1      2134    8    0    1
 -2      1052      1053      1099      4055      4203      4204
 -1      2135    8    0    1
 -2      1068      1059      1100      4109      4205      4206
 -1      2136    8    0    1
 -2      1059      1060      1100      4078      4207      4205
 -1      2137    8    0    1
 -2      1006      1020      1101      3951      4208      4209
 -1      2138    8    0    1
 -2      1076      1006      1101      4134      4209      4210
 -1      2139    8    0    1
 -2      1020      1087      1101      4167      4211      4208
 -1      2140    8    0    1
 -2      1004      1018      1102      3943      4212      4213
 -1      2141    8    0    1
 -2      1049      1004      1102      4111      4213      4214
 -1      2142    8    0    1
 -2      1018      1072      1102      4120      4215      4212
 -1      2143    8    0    1
 -2      1048      1046      1103      4039      4216      4217
 -1      2144    8    0    1
 -2      1051      1048      1104      4049      4218      4219
 -1      2145    8    0    1
 -2      1048      1103      1104      4217      4220      4218
 -1      2146    8    0    1
 -2      1053      1054      1105      4058      4221      4222
 -1      2147    8    0    1
 -2      1053      1105      1099      4222      4223      4203
 -1      2148    8    0    1
 -2      1054      1055      1106      4061      4224      4225
 -1      2149    8    0    1
 -2      1054      1106      1105      4225      4226      4221
 -1      2150    8    0    1
 -2      1055      1056      1107      4064      4227      4228
 -1      2151    8    0    1
 -2      1055      1107      1106      4228      4229      4224
 -1      2152    8    0    1
 -2      1023      1050      1108      4046      4230      4231
 -1      2153    8    0    1
 -2      1023      1108      1079      4231      4232      4143
 -1      2154    8    0    1
 -2      1014      1058      1080      4110      4233      4145
 -1      2155    8    0    1
 -2      1046      1052      1109      4052      4234      4235
 -1      2156    8    0    1
 -2      1052      1099      1109      4204      4236      4234
 -1      2157    8    0    1
 -2      1058      1070      1080      4116      4237      4233
 -1      2158    8    0    1
 -2      1001      1071      1069      4122      4238      4114
 -1      2159    8    0    1
 -2      1008      1061      1110      4084      4239      4240
 -1      2160    8    0    1
 -2      1057      1008      1110      4068      4240      4241
 -1      2161    8    0    1
 -2      1061      1073      1110      4124      4242      4239
 -1      2162    8    0    1
 -2      1077      1078      1111      4141      4243      4244
 -1      2163    8    0    1
 -2      1070      1076      1101      4142      4210      4245
 -1      2164    8    0    1
 -2      1007      1077      1112      4136      4246      4247
 -1      2165    8    0    1
 -2      1007      1112      1047      4247      4248      4032
 -1      2166    8    0    1
 -2      1031      1049      1102      4102      4214      4249
 -1      2167    8    0    1
 -2      1071      1080      1113      4147      4250      4251
 -1      2168    8    0    1
 -2      1087      1065      1114      4168      4252      4253
 -1      2169    8    0    1
 -2      1067      1032      1115      4103      4254      4255
 -1      2170    8    0    1
 -2      1032      1086      1115      4165      4256      4254
 -1      2171    8    0    1
 -2      1031      1102      1089      4249      4257      4172
 -1      2172    8    0    1
 -2      1071      1113      1069      4251      4258      4238
 -1      2173    8    0    1
 -2      1075      1043      1097      4198      4196      4259
 -1      2174    8    0    1
 -2      1068      1100      1116      4206      4260      4261
 -1      2175    8    0    1
 -2      1068      1116      1072      4261      4262      4121
 -1      2176    8    0    1
 -2      1015      1047      1117      4031      4263      4264
 -1      2177    8    0    1
 -2      1074      1015      1117      4125      4264      4265
 -1      2178    8    0    1
 -2      1047      1112      1117      4248      4266      4263
 -1      2179    8    0    1
 -2      1029      1085      1066      4161      4267      4163
 -1      2180    8    0    1
 -2      1046      1109      1103      4235      4268      4216
 -1      2181    8    0    1
 -2      1108      1050      1118      4230      4269      4270
 -1      2182    8    0    1
 -2      1050      1069      1118      4113      4271      4269
 -1      2183    8    0    1
 -2      1056      1057      1119      4067      4272      4273
 -1      2184    8    0    1
 -2      1107      1056      1119      4227      4273      4274
 -1      2185    8    0    1
 -2      1057      1110      1119      4241      4275      4272
 -1      2186    8    0    1
 -2      1111      1078      1120      4243      4276      4277
 -1      2187    8    0    1
 -2      1078      1067      1120      4140      4278      4276
 -1      2188    8    0    1
 -2      1077      1111      1121      4244      4279      4280
 -1      2189    8    0    1
 -2      1077      1121      1112      4280      4281      4246
 -1      2190    8    0    1
 -2      1060      1051      1100      4079      4282      4207
 -1      2191    8    0    1
 -2      1080      1070      1113      4237      4283      4250
 -1      2192    8    0    1
 -2      1065      1074      1122      4127      4284      4285
 -1      2193    8    0    1
 -2      1065      1122      1114      4285      4286      4252
 -1      2194    8    0    1
 -2      1110      1073      1123      4242      4287      4288
 -1      2195    8    0    1
 -2      1110      1123      1119      4288      4289      4275
 -1      2196    8    0    1
 -2      1073      1075      1123      4130      4290      4287
 -1      2197    8    0    1
 -2      1070      1101      1124      4245      4291      4292
 -1      2198    8    0    1
 -2      1113      1070      1124      4283      4292      4293
 -1      2199    8    0    1
 -2      1101      1087      1124      4211      4294      4291
 -1      2200    8    0    1
 -2      1100      1051      1104      4282      4219      4295
 -1      2201    8    0    1
 -2      1063      1066      1125      4100      4296      4297
 -1      2202    8    0    1
 -2      1087      1114      1124      4253      4298      4294
 -1      2203    8    0    1
 -2      1081      1079      1126      4150      4299      4300
 -1      2204    8    0    1
 -2      1082      1081      1121      4153      4301      4302
 -1      2205    8    0    1
 -2      1083      1082      1111      4156      4303      4304
 -1      2206    8    0    1
 -2      1084      1083      1120      4159      4305      4306
 -1      2207    8    0    1
 -2      1085      1084      1115      4162      4307      4308
 -1      2208    8    0    1
 -2      1086      1033      1127      4164      4309      4310
 -1      2209    8    0    1
 -2      1089      1102      1072      4257      4215      4311
 -1      2210    8    0    1
 -2      1088      1063      1125      4171      4297      4312
 -1      2211    8    0    1
 -2      1069      1113      1118      4258      4313      4271
 -1      2212    8    0    1
 -2      1105      1106      1128      4226      4314      4315
 -1      2213    8    0    1
 -2      1091      1090      1129      4179      4316      4317
 -1      2214    8    0    1
 -2      1092      1091      1103      4182      4318      4319
 -1      2215    8    0    1
 -2      1093      1092      1109      4185      4320      4321
 -1      2216    8    0    1
 -2      1094      1093      1099      4188      4322      4323
 -1      2217    8    0    1
 -2      1096      1095      1128      4194      4324      4325
 -1      2218    8    0    1
 -2      1097      1096      1130      4197      4326      4327
 -1      2219    8    0    1
 -2      1100      1104      1129      4295      4328      4329
 -1      2220    8    0    1
 -2      1099      1093      1109      4322      4321      4236
 -1      2221    8    0    1
 -2      1075      1097      1123      4259      4330      4290
 -1      2222    8    0    1
 -2      1106      1107      1130      4229      4331      4332
 -1      2223    8    0    1
 -2      1079      1108      1131      4232      4333      4334
 -1      2224    8    0    1
 -2      1079      1131      1126      4334      4335      4299
 -1      2225    8    0    1
 -2      1109      1092      1103      4320      4319      4268
 -1      2226    8    0    1
 -2      1083      1111      1120      4304      4277      4305
 -1      2227    8    0    1
 -2      1089      1072      1116      4311      4262      4336
 -1      2228    8    0    1
 -2      1094      1099      1105      4323      4223      4337
 -1      2229    8    0    1
 -2      1127      1033      1062      4309      4088      4338
 -1      2230    8    0    1
 -2      1123      1097      1130      4330      4327      4339
 -1      2231    8    0    1
 -2      1111      1082      1121      4303      4302      4279
 -1      2232    8    0    1
 -2      1090      1089      1116      4176      4336      4340
 -1      2233    8    0    1
 -2      1124      1114      1118      4298      4341      4342
 -1      2234    8    0    1
 -2      1066      1085      1132      4267      4343      4344
 -1      2235    8    0    1
 -2      1086      1127      1125      4310      4345      4346
 -1      2236    8    0    1
 -2      1067      1115      1120      4255      4347      4278
 -1      2237    8    0    1
 -2      1103      1091      1104      4318      4348      4220
 -1      2238    8    0    1
 -2      1129      1090      1116      4316      4340      4349
 -1      2239    8    0    1
 -2      1128      1106      1130      4314      4332      4350
 -1      2240    8    0    1
 -2      1116      1100      1129      4260      4329      4349
 -1      2241    8    0    1
 -2      1131      1108      1122      4333      4351      4352
 -1      2242    8    0    1
 -2      1096      1128      1130      4325      4350      4326
 -1      2243    8    0    1
 -2      1095      1094      1105      4191      4337      4353
 -1      2244    8    0    1
 -2      1122      1108      1118      4351      4270      4354
 -1      2245    8    0    1
 -2      1121      1081      1126      4301      4300      4355
 -1      2246    8    0    1
 -2      1086      1125      1132      4346      4356      4357
 -1      2247    8    0    1
 -2      1066      1132      1125      4344      4356      4296
 -1      2248    8    0    1
 -2      1118      1113      1124      4313      4293      4342
 -1      2249    8    0    1
 -2      1115      1084      1120      4307      4306      4347
 -1      2250    8    0    1
 -2      1122      1074      1133      4284      4358      4359
 -1      2251    8    0    1
 -2      1131      1122      1133      4352      4359      4360
 -1      2252    8    0    1
 -2      1074      1117      1133      4265      4361      4358
 -1      2253    8    0    1
 -2      1088      1125      1127      4312      4345      4362
 -1      2254    8    0    1
 -2      1086      1132      1115      4357      4363      4256
 -1      2255    8    0    1
 -2      1112      1121      1126      4281      4355      4364
 -1      2256    8    0    1
 -2      1114      1122      1118      4286      4354      4341
 -1      2257    8    0    1
 -2      1088      1127      1098      4362      4365      4202
 -1      2258    8    0    1
 -2      1112      1126      1117      4364      4366      4266
 -1      2259    8    0    1
 -2      1132      1085      1115      4343      4308      4363
 -1      2260    8    0    1
 -2      1130      1107      1123      4331      4367      4339
 -1      2261    8    0    1
 -2      1127      1062      1098      4338      4201      4365
 -1      2262    8    0    1
 -2      1107      1119      1123      4274      4289      4367
 -1      2263    8    0    1
 -2      1095      1105      1128      4353      4315      4324
 -1      2264    8    0    1
 -2      1126      1131      1133      4335      4360      4368
 -1      2265    8    0    1
 -2      1104      1091      1129      4348      4317      4328
 -1      2266    8    0    1
 -2      1117      1126      1133      4366      4368      4361
 -3
    1PSTEP                         1           1           1          
  100CL  101 1.000000000        4368                     0    1           1
 -4  DISP        4    1
 -5  D1          1    2    1    0
 -5  D2          1    2    2    0
 -5  D3          1    2    3    0
 -5  ALL         1    2    0    0    1ALL
 -1         1 5.72620E-03-5.67528E-04-1.89341E-14
 -1         2 9.91905E-03-3.20399E-04-2.69700E-14
 -1         3 1.47970E-02-4.79942E-04-8.14554E-14
 -1         4 1.56064E-02-1.90251E-03-7.89491E-14
 -1         5 0.00000E+00 0.00000E+00 0.00000E+00
 -1         6 0.00000E+00 0.00000E+00 0.00000E+00
 -1         7 0.00000E+00 0.00000E+00 0.00000E+00
 -1         8 0.00000E+00 0.00000E+00 0.00000E+00
 -1         9 0.00000E+00 0.00000E+00 0.00000E+00
 -1        10 0.00000E+00 0.00000E+00 0.00000E+00
 -1        11 0.00000E+00 0.00000E+00 0.00000E+00
 -1        12 0.00000E+00 0.00000E+00 0.00000E+00
 -1        13 0.00000E+00 0.00000E+00 0.00000E+00
 -1        14 0.00000E+00 0.00000E+00 0.00000E+00
 -1        15 0.00000E+00 0.00000E+00 0.00000E+00
 -1        16 0.00000E+00 0.00000E+00 0.00000E+00
 -1        17 0.00000E+00 0.00000E+00 0.00000E+00
 -1        18 0.00000E+00 0.00000E+00 0.00000E+00
 -1        19 0.00000E+00 0.00000E+00 0.00000E+00
 -1        20 0.00000E+00 0.00000E+00 0.00000E+00
 -1        21 0.00000E+00 0.00000E+00 0.00000E+00
 -1        22 0.00000E+00 0.00000E+00 0.00000E+00
 -1        23 4.09887E-04-2.59447E-04 2.35983E-17
 -1        24 7.00932E-04-3.98194E-04-3.69001E-17
 -1        25 9.70344E-04-4.93669E-04-1.79557E-16
 -1        26 1.23445E-03-5.60049E-04-4.02818E-16
 -1        27 1.49794E-03-6.06395E-04-7.04074E-16
 -1        28 1.76306E-03-6.38000E-04-1.08253E-15
 -1        29 2.03100E-03-6.58486E-04-1.53685E-15
 -1        30 2.30244E-03-6.70484E-04-2.06570E-15
 -1        31 2.57788E-03-6.75997E-04-2.66943E-15
 -1        32 2.85780E-03-6.76616E-04-3.34723E-15
 -1        33 3.14277E-03-6.73694E-04-4.09775E-15
 -1        34 3.43354E-03-6.68506E-04-4.91226E-15
 -1        35 3.73116E-03-6.62421E-04-5.79435E-15
 -1        36 4.03699E-03-6.57110E-04-6.74020E-15
 -1        37 4.35271E-03-6.54802E-04-7.74364E-15
 -1        38 4.68026E-03-6.58584E-04-8.80777E-15
 -1        39 5.02154E-03-6.72730E-04-9.93284E-15
 -1        40 5.37780E-03-7.02932E-04-1.11171E-14
 -1        41 5.74860E-03-7.56146E-04-1.23556E-14
 -1        42 6.13017E-03-8.39502E-04-1.36493E-14
 -1        43 6.51366E-03-9.57461E-04-1.50062E-14
 -1        44 6.88470E-03-1.10680E-03-1.64321E-14
 -1        45 7.22659E-03-1.27085E-03-1.79316E-14
 -1        46 7.52864E-03-1.41781E-03-1.95185E-14
 -1        47 7.79624E-03-1.50982E-03-2.11975E-14
 -1        48 8.05285E-03-1.52229E-03-2.29627E-14
 -1        49 8.32836E-03-1.45952E-03-2.48042E-14
 -1        50 8.64185E-03-1.35184E-03-2.67226E-14
 -1        51 8.99353E-03-1.23706E-03-2.87116E-14
 -1        52 9.37004E-03-1.14316E-03-3.07722E-14
 -1        53 9.75472E-03-1.08261E-03-3.28965E-14
 -1        54 1.01347E-02-1.05589E-03-3.50744E-14
 -1        55 1.05026E-02-1.05741E-03-3.72947E-14
 -1        56 1.08561E-02-1.07991E-03-3.95466E-14
 -1        57 1.11954E-02-1.11682E-03-4.18356E-14
 -1        58 1.15221E-02-1.16296E-03-4.41463E-14
 -1        59 1.18385E-02-1.21459E-03-4.64686E-14
 -1        60 1.21467E-02-1.26918E-03-4.87976E-14
 -1        61 1.24484E-02-1.32505E-03-5.11426E-14
 -1        62 1.27453E-02-1.38115E-03-5.35177E-14
 -1        63 1.30386E-02-1.43688E-03-5.59385E-14
 -1        64 1.33293E-02-1.49190E-03-5.83903E-14
 -1        65 1.36180E-02-1.54607E-03-6.08709E-14
 -1        66 1.39055E-02-1.59935E-03-6.33870E-14
 -1        67 1.41921E-02-1.65178E-03-6.59463E-14
 -1        68 1.44781E-02-1.70344E-03-6.85310E-14
 -1        69 1.47638E-02-1.75443E-03-7.11420E-14
 -1        70 1.50494E-02-1.80489E-03-7.37616E-14
 -1        71 1.53350E-02-1.85500E-03-7.64052E-14
 -1        72 4.12339E-04 2.60145E-04 3.79776E-17
 -1        73 7.00808E-04 4.00896E-04 2.13452E-19
 -1        74 9.70973E-04 4.95467E-04-1.11215E-16
 -1        75 1.23542E-03 5.61841E-04-2.98213E-16
 -1        76 1.49910E-03 6.08331E-04-5.63158E-16
 -1        77 1.76437E-03 6.40186E-04-9.07166E-16
 -1        78 2.03241E-03 6.61044E-04-1.32987E-15
 -1        79 2.30392E-03 6.73580E-04-1.82658E-15
 -1        80 2.57935E-03 6.79862E-04-2.39898E-15
 -1        81 2.85906E-03 6.81574E-04-3.05030E-15
 -1        82 3.14346E-03 6.80178E-04-3.78167E-15
 -1        83 3.43298E-03 6.77064E-04-4.58821E-15
 -1        84 3.72814E-03 6.73679E-04-5.46935E-15
 -1        85 4.02948E-03 6.71656E-04-6.42793E-15
 -1        86 4.33744E-03 6.72913E-04-7.46449E-15
 -1        87 4.65219E-03 6.79696E-04-8.57718E-15
 -1        88 4.97333E-03 6.94509E-04-9.75976E-15
 -1        89 5.29948E-03 7.19843E-04-1.10181E-14
 -1        90 5.62797E-03 7.57601E-04-1.23442E-14
 -1        91 5.95455E-03 8.08153E-04-1.37376E-14
 -1        92 6.27362E-03 8.69108E-04-1.51963E-14
 -1        93 6.57932E-03 9.34191E-04-1.67276E-14
 -1        94 6.86733E-03 9.93017E-04-1.83430E-14
 -1        95 7.13720E-03 1.03262E-03-2.00284E-14
 -1        96 7.39375E-03 1.04095E-03-2.17859E-14
 -1        97 7.64634E-03 1.01116E-03-2.36120E-14
 -1        98 7.90577E-03 9.44391E-04-2.55093E-14
 -1        99 8.18040E-03 8.49262E-04-2.74689E-14
 -1       100 8.47364E-03 7.38480E-04-2.94883E-14
 -1       101 8.78379E-03 6.24555E-04-3.15786E-14
 -1       102 9.10596E-03 5.16805E-04-3.37218E-14
 -1       103 9.43423E-03 4.20377E-04-3.59234E-14
 -1       104 9.76340E-03 3.36805E-04-3.81702E-14
 -1       105 1.00898E-02 2.65231E-04-4.04534E-14
 -1       106 1.04112E-02 2.03588E-04-4.27902E-14
 -1       107 1.07267E-02 1.49457E-04-4.51896E-14
 -1       108 1.10364E-02 1.00571E-04-4.76495E-14
 -1       109 1.13407E-02 5.50400E-05-5.01761E-14
 -1       110 1.16404E-02 1.14088E-05-5.27385E-14
 -1       111 1.19363E-02-3.13712E-05-5.53158E-14
 -1       112 1.22291E-02-7.40110E-05-5.79030E-14
 -1       113 1.25196E-02-1.16959E-04-6.04991E-14
 -1       114 1.28084E-02-1.60471E-04-6.31112E-14
 -1       115 1.30959E-02-2.04668E-04-6.57255E-14
 -1       116 1.33826E-02-2.49577E-04-6.83325E-14
 -1       117 1.36686E-02-2.95170E-04-7.09544E-14
 -1       118 1.39544E-02-3.41375E-04-7.36039E-14
 -1       119 1.42400E-02-3.88083E-04-7.62675E-14
 -1       120 1.45256E-02-4.35135E-04-7.89317E-14
 -1       121 1.48433E-02-5.64260E-04-8.12705E-14
 -1       122 1.48898E-02-6.48648E-04-8.10796E-14
 -1       123 1.49366E-02-7.33023E-04-8.08679E-14
 -1       124 1.49837E-02-8.17253E-04-8.06689E-14
 -1       125 1.50312E-02-9.01239E-04-8.04835E-14
 -1       126 1.50781E-02-9.83526E-04-8.03392E-14
 -1       127 1.51258E-02-1.06698E-03-8.02005E-14
 -1       128 1.51736E-02-1.15025E-03-8.00726E-14
 -1       129 1.52213E-02-1.23347E-03-7.99444E-14
 -1       130 1.52690E-02-1.31675E-03-7.97954E-14
 -1       131 1.53167E-02-1.40023E-03-7.96632E-14
 -1       132 1.53637E-02-1.48254E-03-7.95673E-14
 -1       133 1.54118E-02-1.56656E-03-7.94549E-14
 -1       134 1.54602E-02-1.65082E-03-7.93345E-14
 -1       135 1.55089E-02-1.73522E-03-7.92358E-14
 -1       136 1.55580E-02-1.81961E-03-7.91014E-14
 -1       137 9.85387E-03-1.51470E-04-2.69130E-14
 -1       138 9.69442E-03 1.51362E-05-2.66527E-14
 -1       139 9.44511E-03 1.72314E-04-2.61878E-14
 -1       140 9.11899E-03 3.11001E-04-2.55513E-14
 -1       141 8.70627E-03 4.30492E-04-2.47391E-14
 -1       142 8.29353E-03 5.06989E-04-2.39369E-14
 -1       143 7.82752E-03 5.53609E-04-2.30305E-14
 -1       144 7.37500E-03 5.60604E-04-2.21613E-14
 -1       145 6.92182E-03 5.29063E-04-2.12995E-14
 -1       146 6.52022E-03 4.63309E-04-2.05434E-14
 -1       147 6.16683E-03 3.66524E-04-1.98861E-14
 -1       148 5.87877E-03 2.43045E-04-1.93520E-14
 -1       149 5.66405E-03 9.68347E-05-1.89497E-14
 -1       150 5.54224E-03-6.26801E-05-1.87066E-14
 -1       151 5.51252E-03-2.32073E-04-1.86193E-14
 -1       152 5.57558E-03-4.01189E-04-1.86996E-14
 -1       153 5.95841E-03-7.25314E-04-1.93126E-14
 -1       154 6.29899E-03-8.82435E-04-1.98840E-14
 -1       155 6.67583E-03-1.00261E-03-2.05269E-14
 -1       156 7.11688E-03-1.09602E-03-2.12970E-14
 -1       157 7.56494E-03-1.14647E-03-2.20963E-14
 -1       158 8.02848E-03-1.15564E-03-2.29500E-14
 -1       159 8.51142E-03-1.11696E-03-2.38726E-14
 -1       160 8.93596E-03-1.03777E-03-2.47145E-14
 -1       161 9.29823E-03-9.25072E-04-2.54705E-14
 -1       162 9.57676E-03-7.93325E-04-2.60803E-14
 -1       163 9.77597E-03-6.46382E-04-2.65426E-14
 -1       164 9.89108E-03-4.88714E-04-2.68415E-14
 -1       165 2.40123E-04-1.24696E-04-1.51178E-17
 -1       166 2.25266E-04-9.37704E-05-2.71051E-17
 -1       167 2.19672E-04-7.19156E-05-3.36340E-17
 -1       168 2.16921E-04-5.42740E-05-3.72491E-17
 -1       169 2.15436E-04-3.92453E-05-3.89872E-17
 -1       170 2.14585E-04-2.53822E-05-3.97462E-17
 -1       171 2.14146E-04-1.23604E-05-3.97530E-17
 -1       172 2.14013E-04 2.73940E-07-3.93836E-17
 -1       173 2.14160E-04 1.29205E-05-3.84926E-17
 -1       174 2.14616E-04 2.59816E-05-3.71170E-17
 -1       175 2.15473E-04 3.96745E-05-3.50875E-17
 -1       176 2.17012E-04 5.50797E-05-3.18959E-17
 -1       177 2.19808E-04 7.29436E-05-2.67662E-17
 -1       178 2.25438E-04 9.51627E-05-1.86246E-17
 -1       179 2.39058E-04 1.26764E-04-5.07542E-18
 -1       180 2.97017E-04 1.84494E-04 9.58502E-18
 -1       181 4.67675E-04-2.61737E-04-4.07016E-17
 -1       182 7.65391E-04-3.78581E-04-1.59032E-16
 -1       183 1.04906E-03-4.59270E-04-3.54094E-16
 -1       184 1.32660E-03-5.15326E-04-6.25646E-16
 -1       185 1.60178E-03-5.53669E-04-9.72492E-16
 -1       186 1.87684E-03-5.78874E-04-1.39456E-15
 -1       187 2.15317E-03-5.94144E-04-1.89079E-15
 -1       188 2.43167E-03-6.01831E-04-2.46074E-15
 -1       189 2.71304E-03-6.03728E-04-3.10337E-15
 -1       190 2.99790E-03-6.01279E-04-3.81864E-15
 -1       191 3.28689E-03-5.95739E-04-4.60243E-15
 -1       192 3.58078E-03-5.88356E-04-5.45245E-15
 -1       193 3.88048E-03-5.80553E-04-6.36857E-15
 -1       194 4.18707E-03-5.74179E-04-7.34424E-15
 -1       195 4.50178E-03-5.71798E-04-8.38239E-15
 -1       196 4.82584E-03-5.77049E-04-9.48130E-15
 -1       197 5.16029E-03-5.95005E-04-1.06392E-14
 -1       198 5.50552E-03-6.32355E-04-1.18525E-14
 -1       199 5.86064E-03-6.96988E-04-1.31229E-14
 -1       200 6.22266E-03-7.96225E-04-1.44520E-14
 -1       201 6.58574E-03-9.32740E-04-1.58474E-14
 -1       202 6.94146E-03-1.09811E-03-1.73163E-14
 -1       203 7.28133E-03-1.26700E-03-1.88676E-14
 -1       204 7.60205E-03-1.39896E-03-2.05059E-14
 -1       205 7.91036E-03-1.45534E-03-2.22305E-14
 -1       206 8.22088E-03-1.42313E-03-2.40381E-14
 -1       207 8.54680E-03-1.32440E-03-2.59205E-14
 -1       208 8.89190E-03-1.20070E-03-2.78740E-14
 -1       209 9.25086E-03-1.08930E-03-2.98937E-14
 -1       210 9.61481E-03-1.01056E-03-3.19819E-14
 -1       211 9.97595E-03-9.69114E-04-3.41277E-14
 -1       212 1.03293E-02-9.60409E-04-3.63205E-14
 -1       213 1.06727E-02-9.76693E-04-3.85524E-14
 -1       214 1.10057E-02-1.01036E-03-4.08168E-14
 -1       215 1.13290E-02-1.05525E-03-4.31145E-14
 -1       216 1.16440E-02-1.10686E-03-4.54341E-14
 -1       217 1.19520E-02-1.16210E-03-4.77641E-14
 -1       218 1.22543E-02-1.21895E-03-5.01095E-14
 -1       219 1.25522E-02-1.27616E-03-5.24790E-14
 -1       220 1.28466E-02-1.33298E-03-5.48853E-14
 -1       221 1.31384E-02-1.38901E-03-5.73259E-14
 -1       222 1.34283E-02-1.44406E-03-5.97958E-14
 -1       223 1.37167E-02-1.49811E-03-6.22944E-14
 -1       224 1.40041E-02-1.55117E-03-6.48299E-14
 -1       225 1.42908E-02-1.60335E-03-6.73951E-14
 -1       226 1.45770E-02-1.65475E-03-6.99847E-14
 -1       227 1.48630E-02-1.70550E-03-7.25926E-14
 -1       228 1.51487E-02-1.75577E-03-7.52205E-14
 -1       229 6.03282E-04 3.28532E-04-4.03289E-17
 -1       230 8.92017E-04 4.28256E-04-1.59988E-16
 -1       231 1.17083E-03 4.97668E-04-3.52599E-16
 -1       232 1.44546E-03 5.45897E-04-6.20984E-16
 -1       233 1.71906E-03 5.78682E-04-9.66532E-16
 -1       234 1.99341E-03 5.99937E-04-1.38921E-15
 -1       235 2.26963E-03 6.12498E-04-1.88799E-15
 -1       236 2.54844E-03 6.18525E-04-2.46113E-15
 -1       237 2.83037E-03 6.19744E-04-3.11054E-15
 -1       238 3.11590E-03 6.17633E-04-3.83785E-15
 -1       239 3.40547E-03 6.13572E-04-4.64009E-15
 -1       240 3.69952E-03 6.08990E-04-5.51518E-15
 -1       241 3.99849E-03 6.05503E-04-6.46720E-15
 -1       242 4.30271E-03 6.05029E-04-7.49432E-15
 -1       243 4.61230E-03 6.09856E-04-8.59486E-15
 -1       244 4.92696E-03 6.22605E-04-9.76716E-15
 -1       245 5.24580E-03 6.45994E-04-1.10142E-14
 -1       246 5.56703E-03 6.82289E-04-1.23296E-14
 -1       247 5.88791E-03 7.32354E-04-1.37105E-14
 -1       248 6.20485E-03 7.94325E-04-1.51617E-14
 -1       249 6.51402E-03 8.62281E-04-1.66856E-14
 -1       250 6.81245E-03 9.25721E-04-1.82861E-14
 -1       251 7.09951E-03 9.70886E-04-1.99584E-14
 -1       252 7.37786E-03 9.84382E-04-2.17002E-14
 -1       253 7.65313E-03 9.58005E-04-2.35156E-14
 -1       254 7.93213E-03 8.92189E-04-2.54030E-14
 -1       255 8.22029E-03 7.95796E-04-2.73543E-14
 -1       256 8.51996E-03 6.82415E-04-2.93667E-14
 -1       257 8.83026E-03 5.65578E-04-3.14427E-14
 -1       258 9.14815E-03 4.55349E-04-3.35772E-14
 -1       259 9.46983E-03 3.57230E-04-3.57655E-14
 -1       260 9.79184E-03 2.72794E-04-3.80024E-14
 -1       261 1.01116E-02 2.01042E-04-4.02818E-14
 -1       262 1.04275E-02 1.39705E-04-4.26127E-14
 -1       263 1.07389E-02 8.61722E-05-4.50002E-14
 -1       264 1.10457E-02 3.80225E-05-4.74431E-14
 -1       265 1.13481E-02-6.74319E-06-4.99456E-14
 -1       266 1.16467E-02-4.96479E-05-5.24853E-14
 -1       267 1.19421E-02-9.17783E-05-5.50455E-14
 -1       268 1.22348E-02-1.33862E-04-5.76201E-14
 -1       269 1.25255E-02-1.76350E-04-6.02068E-14
 -1       270 1.28146E-02-2.19491E-04-6.28092E-14
 -1       271 1.31025E-02-2.63398E-04-6.54088E-14
 -1       272 1.33895E-02-3.08087E-04-6.80100E-14
 -1       273 1.36760E-02-3.53518E-04-7.06204E-14
 -1       274 1.39621E-02-3.99612E-04-7.32531E-14
 -1       275 1.42479E-02-4.46256E-04-7.59042E-14
 -1       276 1.45336E-02-4.93290E-04-7.85557E-14
 -1       277 1.46191E-02-5.65514E-04-7.88889E-14
 -1       278 1.46657E-02-6.49733E-04-7.87081E-14
 -1       279 1.47127E-02-7.33818E-04-7.85234E-14
 -1       280 1.47601E-02-8.17706E-04-7.83496E-14
 -1       281 1.48070E-02-8.99948E-04-7.81921E-14
 -1       282 1.48548E-02-9.83388E-04-7.80463E-14
 -1       283 1.49026E-02-1.06665E-03-7.79083E-14
 -1       284 1.49503E-02-1.14982E-03-7.77733E-14
 -1       285 1.49980E-02-1.23300E-03-7.76355E-14
 -1       286 1.50457E-02-1.31627E-03-7.75001E-14
 -1       287 1.50925E-02-1.39831E-03-7.73777E-14
 -1       288 1.51404E-02-1.48198E-03-7.72561E-14
 -1       289 1.51885E-02-1.56588E-03-7.71294E-14
 -1       290 1.52371E-02-1.64998E-03-7.69968E-14
 -1       291 1.51928E-02-1.70288E-03-7.61130E-14
 -1       292 9.91898E-03-2.90343E-04-2.78148E-14
 -1       293 9.76366E-03-1.93137E-04-2.76665E-14
 -1       294 9.49109E-03-6.03145E-05-2.72183E-14
 -1       295 9.15093E-03 1.19556E-04-2.64652E-14
 -1       296 8.73783E-03 3.01148E-04-2.56689E-14
 -1       297 8.35568E-03 4.74428E-04-2.46447E-14
 -1       298 7.96873E-03 5.95743E-04-2.36506E-14
 -1       299 7.60235E-03 6.35638E-04-2.25855E-14
 -1       300 7.23158E-03 5.99308E-04-2.15769E-14
 -1       301 6.86252E-03 4.93278E-04-2.06229E-14
 -1       302 6.49380E-03 3.45013E-04-1.98059E-14
 -1       303 6.13919E-03 1.86175E-04-1.91224E-14
 -1       304 5.83430E-03 2.67812E-05-1.84795E-14
 -1       305 5.59988E-03-7.60808E-05-1.82245E-14
 -1       306 5.48904E-03-1.70857E-04-1.80020E-14
 -1       307 5.51347E-03-2.59016E-04-1.80420E-14
 -1       308 5.66255E-03-3.68267E-04-1.82567E-14
 -1       309 5.91588E-03-5.03402E-04-1.85979E-14
 -1       310 6.27430E-03-6.68244E-04-1.90641E-14
 -1       311 6.65364E-03-8.74380E-04-1.98148E-14
 -1       312 7.06057E-03-1.05282E-03-2.05839E-14
 -1       313 7.43175E-03-1.18214E-03-2.15310E-14
 -1       314 7.80128E-03-1.23345E-03-2.24939E-14
 -1       315 8.18040E-03-1.20004E-03-2.35560E-14
 -1       316 8.58406E-03-1.07459E-03-2.45843E-14
 -1       317 8.95728E-03-9.04670E-04-2.55980E-14
 -1       318 9.32539E-03-7.42088E-04-2.63537E-14
 -1       319 9.61904E-03-5.89855E-04-2.70469E-14
 -1       320 9.83470E-03-4.76734E-04-2.74608E-14
 -1       321 9.94144E-03-3.77958E-04-2.77772E-14
 -1       322 4.55479E-04-1.62719E-04-1.13685E-16
 -1       323 4.74055E-04-2.10940E-04-9.40240E-17
 -1       324 4.40808E-04-9.22928E-05-1.32466E-16
 -1       325 4.37783E-04-6.35501E-05-1.36037E-16
 -1       326 4.36084E-04-3.70337E-05-1.37338E-16
 -1       327 4.35321E-04-1.17214E-05-1.36925E-16
 -1       328 4.35347E-04 1.32260E-05-1.35180E-16
 -1       329 4.36168E-04 3.85978E-05-1.31961E-16
 -1       330 4.37903E-04 6.47761E-05-1.27113E-16
 -1       331 4.41015E-04 9.36914E-05-1.19845E-16
 -1       332 4.46387E-04 1.26387E-04-1.09474E-16
 -1       333 4.56065E-04 1.65275E-04-9.35158E-17
 -1       334 4.75674E-04 2.14993E-04-7.00090E-17
 -1       335 5.31377E-04 2.67714E-04-5.92483E-17
 -1       336 8.23685E-04 3.69383E-04-1.83318E-16
 -1       337 8.62870E-04-3.52849E-04-2.96167E-16
 -1       338 1.14941E-03-4.19124E-04-5.40028E-16
 -1       339 1.43267E-03-4.65213E-04-8.57607E-16
 -1       340 1.71429E-03-4.96152E-04-1.24872E-15
 -1       341 1.99553E-03-5.15617E-04-1.71363E-15
 -1       342 2.27737E-03-5.26326E-04-2.25065E-15
 -1       343 2.56052E-03-5.30328E-04-2.85967E-15
 -1       344 2.84557E-03-5.29213E-04-3.54149E-15
 -1       345 3.13306E-03-5.24294E-04-4.29313E-15
 -1       346 3.42351E-03-5.16766E-04-5.11195E-15
 -1       347 3.71750E-03-5.07888E-04-5.99632E-15
 -1       348 4.01569E-03-4.99191E-04-6.94530E-15
 -1       349 4.31883E-03-4.92737E-04-7.95467E-15
 -1       350 4.62783E-03-4.91437E-04-9.02675E-15
 -1       351 4.94375E-03-4.99417E-04-1.01583E-14
 -1       352 5.26783E-03-5.22363E-04-1.13461E-14
 -1       353 5.60146E-03-5.67629E-04-1.25916E-14
 -1       354 5.94588E-03-6.43656E-04-1.38946E-14
 -1       355 6.30127E-03-7.57804E-04-1.52619E-14
 -1       356 6.66484E-03-9.11284E-04-1.66988E-14
 -1       357 7.02930E-03-1.09067E-03-1.82127E-14
 -1       358 7.38437E-03-1.26083E-03-1.98124E-14
 -1       359 7.72576E-03-1.36961E-03-2.14975E-14
 -1       360 8.06188E-03-1.37907E-03-2.32668E-14
 -1       361 8.40683E-03-1.29599E-03-2.51163E-14
 -1       362 8.76549E-03-1.16629E-03-2.70362E-14
 -1       363 9.13089E-03-1.03920E-03-2.90237E-14
 -1       364 9.49303E-03-9.43792E-04-3.10749E-14
 -1       365 9.84588E-03-8.88364E-04-3.31854E-14
 -1       366 1.01878E-02-8.69261E-04-3.53464E-14
 -1       367 1.05193E-02-8.78473E-04-3.75570E-14
 -1       368 1.08420E-02-9.07763E-04-3.98052E-14
 -1       369 1.11572E-02-9.50285E-04-4.20858E-14
 -1       370 1.14662E-02-1.00092E-03-4.43937E-14
 -1       371 1.17700E-02-1.05609E-03-4.67180E-14
 -1       372 1.20696E-02-1.11341E-03-4.90660E-14
 -1       373 1.23659E-02-1.17137E-03-5.14338E-14
 -1       374 1.26595E-02-1.22905E-03-5.38311E-14
 -1       375 1.29509E-02-1.28595E-03-5.62588E-14
 -1       376 1.32408E-02-1.34183E-03-5.87209E-14
 -1       377 1.35293E-02-1.39662E-03-6.12098E-14
 -1       378 1.38170E-02-1.45033E-03-6.37238E-14
 -1       379 1.41040E-02-1.50305E-03-6.62684E-14
 -1       380 1.43905E-02-1.55490E-03-6.88366E-14
 -1       381 1.46766E-02-1.60600E-03-7.14264E-14
 -1       382 1.49348E-02-1.65462E-03-7.37602E-14
 -1       383 1.10922E-03 4.41384E-04-3.78187E-16
 -1       384 1.39035E-03 4.91598E-04-6.47194E-16
 -1       385 1.66947E-03 5.25741E-04-9.91676E-16
 -1       386 1.94825E-03 5.47855E-04-1.41245E-15
 -1       387 2.22785E-03 5.60898E-04-1.90882E-15
 -1       388 2.50906E-03 5.67112E-04-2.47949E-15
 -1       389 2.79247E-03 5.68271E-04-3.12441E-15
 -1       390 3.07856E-03 5.65870E-04-3.84607E-15
 -1       391 3.36778E-03 5.61283E-04-4.64281E-15
 -1       392 3.66054E-03 5.55914E-04-5.51093E-15
 -1       393 3.95726E-03 5.51342E-04-6.45364E-15
 -1       394 4.25828E-03 5.49441E-04-7.47132E-15
 -1       395 4.56386E-03 5.52476E-04-8.56143E-15
 -1       396 4.87400E-03 5.63090E-04-9.72373E-15
 -1       397 5.18834E-03 5.84122E-04-1.09576E-14
 -1       398 5.50595E-03 6.18127E-04-1.22606E-14
 -1       399 5.82514E-03 6.66479E-04-1.36313E-14
 -1       400 6.14338E-03 7.28036E-04-1.50712E-14
 -1       401 6.45755E-03 7.97624E-04-1.65853E-14
 -1       402 6.76465E-03 8.65094E-04-1.81717E-14
 -1       403 7.06315E-03 9.16168E-04-1.98294E-14
 -1       404 7.35429E-03 9.35964E-04-2.15586E-14
 -1       405 7.64226E-03 9.14435E-04-2.33610E-14
 -1       406 7.93271E-03 8.50865E-04-2.52365E-14
 -1       407 8.23018E-03 7.54206E-04-2.71791E-14
 -1       408 8.53634E-03 6.39004E-04-2.91819E-14
 -1       409 8.84997E-03 5.19873E-04-3.12484E-14
 -1       410 9.16823E-03 4.07611E-04-3.33731E-14
 -1       411 9.48799E-03 3.08027E-04-3.55519E-14
 -1       412 9.80669E-03 2.22723E-04-3.77788E-14
 -1       413 1.01226E-02 1.50603E-04-4.00493E-14
 -1       414 1.04347E-02 8.92641E-05-4.23691E-14
 -1       415 1.07428E-02 3.59727E-05-4.47451E-14
 -1       416 1.10469E-02-1.17944E-05-4.71757E-14
 -1       417 1.13472E-02-5.61117E-05-4.96593E-14
 -1       418 1.16444E-02-9.85553E-05-5.21832E-14
 -1       419 1.19388E-02-1.40246E-04-5.47291E-14
 -1       420 1.22309E-02-1.81932E-04-5.72936E-14
 -1       421 1.25213E-02-2.24074E-04-5.98717E-14
 -1       422 1.28103E-02-2.66923E-04-6.24628E-14
 -1       423 1.30982E-02-3.10588E-04-6.50544E-14
 -1       424 1.33854E-02-3.55083E-04-6.76448E-14
 -1       425 1.36720E-02-4.00363E-04-7.02478E-14
 -1       426 1.39582E-02-4.46343E-04-7.28682E-14
 -1       427 1.42441E-02-4.92909E-04-7.55056E-14
 -1       428 1.44316E-02-5.29144E-04-7.71968E-14
 -1       429 1.44891E-02-7.34703E-04-7.61972E-14
 -1       430 1.44418E-02-6.50861E-04-7.63568E-14
 -1       431 1.44366E-02-5.90058E-04-7.67755E-14
 -1       432 1.45359E-02-8.16874E-04-7.60401E-14
 -1       433 1.45837E-02-9.00213E-04-7.58862E-14
 -1       434 1.46316E-02-9.83337E-04-7.57402E-14
 -1       435 1.46795E-02-1.06632E-03-7.56006E-14
 -1       436 1.47272E-02-1.14925E-03-7.54672E-14
 -1       437 1.47748E-02-1.23223E-03-7.53349E-14
 -1       438 1.48215E-02-1.31394E-03-7.52038E-14
 -1       439 1.48692E-02-1.39728E-03-7.50692E-14
 -1       440 1.49171E-02-1.48087E-03-7.49318E-14
 -1       441 1.49653E-02-1.56471E-03-7.47907E-14
 -1       442 9.62042E-03-2.10831E-04-2.86017E-14
 -1       443 9.96915E-03-3.49528E-04-2.89553E-14
 -1       444 9.89040E-03-3.03837E-04-2.88001E-14
 -1       445 9.24537E-03-3.95851E-05-2.76606E-14
 -1       446 8.90042E-03 1.35083E-04-2.68489E-14
 -1       447 4.46027E-04-1.24551E-04-1.25524E-16
 -1       448 8.12071E-03 5.43667E-04-2.45000E-14
 -1       449 7.73301E-03 6.64043E-04-2.31151E-14
 -1       450 7.46682E-03 6.65896E-04-2.20942E-14
 -1       451 7.10488E-03 5.69834E-04-2.08843E-14
 -1       452 6.73695E-03 4.06150E-04-1.98308E-14
 -1       453 6.36557E-03 2.25100E-04-1.90060E-14
 -1       454 6.04527E-03 7.38240E-05-1.83670E-14
 -1       455 5.68772E-03-7.63384E-05-1.77343E-14
 -1       456 5.52457E-03-1.42389E-04-1.75184E-14
 -1       457 5.46953E-03-2.01359E-04-1.73972E-14
 -1       458 5.57560E-03-2.64921E-04-1.75419E-14
 -1       459 5.80167E-03-3.52955E-04-1.77288E-14
 -1       460 6.09276E-03-4.86346E-04-1.81693E-14
 -1       461 6.56182E-03-7.31072E-04-1.89693E-14
 -1       462 6.90036E-03-9.24323E-04-1.97064E-14
 -1       463 7.33515E-03-1.15058E-03-2.08419E-14
 -1       464 7.64514E-03-1.25042E-03-2.19052E-14
 -1       465 7.96159E-03-1.26436E-03-2.30015E-14
 -1       466 8.35632E-03-1.14954E-03-2.43792E-14
 -1       467 8.68590E-03-9.90136E-04-2.54525E-14
 -1       468 9.11532E-03-7.64188E-04-2.66611E-14
 -1       469 9.43467E-03-6.12920E-04-2.73530E-14
 -1       470 9.73984E-03-4.74036E-04-2.82097E-14
 -1       471 9.90923E-03-4.03197E-04-2.84572E-14
 -1       472 8.44110E-03 3.87387E-04-2.55248E-14
 -1       473 5.84803E-03-2.11357E-05-1.76161E-14
 -1       474 9.31278E-04 3.40867E-04-3.24630E-16
 -1       475 6.65991E-04-7.32871E-05-2.90204E-16
 -1       476 6.70131E-04-1.13315E-04-2.85728E-16
 -1       477 6.63111E-04 1.08581E-06-2.89462E-16
 -1       478 6.63879E-04 3.77752E-05-2.84864E-16
 -1       479 6.66152E-04 7.49609E-05-2.77400E-16
 -1       480 6.70413E-04 1.15150E-04-2.66239E-16
 -1       481 6.77539E-04 1.59249E-04-2.50644E-16
 -1       482 6.89409E-04 2.09303E-04-2.28475E-16
 -1       483 1.21744E-03 3.98776E-04-5.69941E-16
 -1       484 9.76632E-04-3.23013E-04-4.49195E-16
 -1       485 7.26663E-03 6.40750E-04-2.11977E-14
 -1       486 8.63000E-03 2.57032E-04-2.68899E-14
 -1       487 1.26284E-03-3.75150E-04-7.38579E-16
 -1       488 1.54840E-03-4.11514E-04-1.10017E-15
 -1       489 1.83333E-03-4.35399E-04-1.53454E-15
 -1       490 2.11806E-03-4.49596E-04-2.04040E-15
 -1       491 2.40302E-03-4.56302E-04-2.61643E-15
 -1       492 2.68860E-03-4.57240E-04-3.26453E-15
 -1       493 2.97513E-03-4.53794E-04-3.98363E-15
 -1       494 3.26290E-03-4.47158E-04-4.77037E-15
 -1       495 3.55221E-03-4.38480E-04-5.62492E-15
 -1       496 3.84334E-03-4.29041E-04-6.54342E-15
 -1       497 4.13667E-03-4.20453E-04-7.52573E-15
 -1       498 4.43272E-03-4.14905E-04-8.56829E-15
 -1       499 4.73233E-03-4.15455E-04-9.67314E-15
 -1       500 5.03692E-03-4.26364E-04-1.08358E-14
 -1       501 5.34884E-03-4.53447E-04-1.20569E-14
 -1       502 5.67177E-03-5.04335E-04-1.33341E-14
 -1       503 6.01057E-03-5.88363E-04-1.46748E-14
 -1       504 6.36936E-03-7.14795E-04-1.60808E-14
 -1       505 6.74745E-03-8.87413E-04-1.75588E-14
 -1       506 7.13401E-03-1.08729E-03-1.91178E-14
 -1       507 7.51098E-03-1.26072E-03-2.07614E-14
 -1       508 7.87673E-03-1.33317E-03-2.24924E-14
 -1       509 8.24445E-03-1.27423E-03-2.43090E-14
 -1       510 8.62568E-03-1.13381E-03-2.61974E-14
 -1       511 9.01150E-03-9.85151E-04-2.81523E-14
 -1       512 9.38493E-03-8.72918E-04-3.01719E-14
 -1       513 9.73818E-03-8.06694E-04-3.22502E-14
 -1       514 1.00723E-02-7.80470E-04-3.43810E-14
 -1       515 1.03921E-02-7.84562E-04-3.65614E-14
 -1       516 1.07022E-02-8.10073E-04-3.87889E-14
 -1       517 1.10059E-02-8.49936E-04-4.10534E-14
 -1       518 1.13052E-02-8.98881E-04-4.33477E-14
 -1       519 1.16015E-02-9.53149E-04-4.56673E-14
 -1       520 1.18954E-02-1.01016E-03-4.80079E-14
 -1       521 1.21876E-02-1.06822E-03-5.03746E-14
 -1       522 1.24783E-02-1.12625E-03-5.27694E-14
 -1       523 1.27678E-02-1.18365E-03-5.51938E-14
 -1       524 1.30564E-02-1.24008E-03-5.76422E-14
 -1       525 1.33442E-02-1.29540E-03-6.01204E-14
 -1       526 1.36314E-02-1.34963E-03-6.26217E-14
 -1       527 1.39182E-02-1.40281E-03-6.51506E-14
 -1       528 1.42046E-02-1.45507E-03-6.76997E-14
 -1       529 1.44907E-02-1.50650E-03-7.02673E-14
 -1       530 1.78572E-03 4.66305E-04-1.28114E-15
 -1       531 2.06908E-03 4.83031E-04-1.74851E-15
 -1       532 2.35282E-03 4.91915E-04-2.28909E-15
 -1       533 2.63748E-03 4.94894E-04-2.90340E-15
 -1       534 2.92350E-03 4.93547E-04-3.59222E-15
 -1       535 3.21129E-03 4.89250E-04-4.35520E-15
 -1       536 3.50122E-03 4.83327E-04-5.19111E-15
 -1       537 3.79370E-03 4.77189E-04-6.09710E-15
 -1       538 4.08917E-03 4.72475E-04-7.07693E-15
 -1       539 4.38812E-03 4.71177E-04-8.12988E-15
 -1       540 4.69108E-03 4.75706E-04-9.25349E-15
 -1       541 4.99856E-03 4.88875E-04-1.04472E-14
 -1       542 5.31093E-03 5.13669E-04-1.17093E-14
 -1       543 5.62812E-03 5.52692E-04-1.30414E-14
 -1       544 5.94927E-03 6.07119E-04-1.44435E-14
 -1       545 6.27221E-03 6.75047E-04-1.59156E-14
 -1       546 6.59341E-03 7.49557E-04-1.74598E-14
 -1       547 6.90895E-03 8.17504E-04-1.90733E-14
 -1       548 7.21672E-03 8.61179E-04-2.07583E-14
 -1       549 7.51856E-03 8.64078E-04-2.25173E-14
 -1       550 7.81998E-03 8.18598E-04-2.43528E-14
 -1       551 8.12680E-03 7.30639E-04-2.62611E-14
 -1       552 8.44143E-03 6.15892E-04-2.82295E-14
 -1       553 8.76224E-03 4.92305E-04-3.02620E-14
 -1       554 9.08540E-03 3.73785E-04-3.23556E-14
 -1       555 9.40728E-03 2.68049E-04-3.44998E-14
 -1       556 9.72554E-03 1.77566E-04-3.66982E-14
 -1       557 1.00392E-02 1.01490E-04-3.89418E-14
 -1       558 1.03481E-02 3.73707E-05-4.12290E-14
 -1       559 1.06527E-02-1.76900E-05-4.35675E-14
 -1       560 1.09536E-02-6.64183E-05-4.59635E-14
 -1       561 1.12512E-02-1.11091E-04-4.84083E-14
 -1       562 1.15462E-02-1.53466E-04-5.08995E-14
 -1       563 1.18390E-02-1.94815E-04-5.34219E-14
 -1       564 1.21301E-02-2.36004E-04-5.59665E-14
 -1       565 1.24198E-02-2.77578E-04-5.85246E-14
 -1       566 1.27084E-02-3.19850E-04-6.10935E-14
 -1       567 1.29961E-02-3.62966E-04-6.36729E-14
 -1       568 1.32832E-02-4.06962E-04-6.62537E-14
 -1       569 1.35699E-02-4.51802E-04-6.88420E-14
 -1       570 1.38562E-02-4.97412E-04-7.14399E-14
 -1       571 1.41422E-02-5.43687E-04-7.40564E-14
 -1       572 1.43127E-02-8.17533E-04-7.37266E-14
 -1       573 1.43607E-02-9.00462E-04-7.35802E-14
 -1       574 1.42179E-02-6.52169E-04-7.40223E-14
 -1       575 1.42652E-02-7.35014E-04-7.38747E-14
 -1       576 1.44087E-02-9.83167E-04-7.34376E-14
 -1       577 1.44565E-02-1.06575E-03-7.33013E-14
 -1       578 1.45041E-02-1.14832E-03-7.31676E-14
 -1       579 1.45508E-02-1.22961E-03-7.30353E-14
 -1       580 1.45983E-02-1.31252E-03-7.28926E-14
 -1       581 1.46458E-02-1.39573E-03-7.27488E-14
 -1       582 1.46937E-02-1.47927E-03-7.26012E-14
 -1       583 9.41995E-03-1.47951E-04-2.93002E-14
 -1       584 9.97918E-03-3.82926E-04-2.96869E-14
 -1       585 1.50209E-03 4.39275E-04-8.88195E-16
 -1       586 9.96843E-03-3.44287E-04-2.99156E-14
 -1       587 9.03441E-03 3.44284E-05-2.80893E-14
 -1       588 8.25799E-03 4.67215E-04-2.54361E-14
 -1       589 9.87599E-03-4.24127E-04-2.94362E-14
 -1       590 5.63642E-03-2.62143E-04-1.68190E-14
 -1       591 6.53891E-03 3.04568E-04-1.87851E-14
 -1       592 6.63780E-04-3.55647E-05-2.91396E-16
 -1       593 7.12921E-04-2.48264E-04-2.53707E-16
 -1       594 6.93178E-03 5.03350E-04-1.99774E-14
 -1       595 7.55675E-03 6.94356E-04-2.24471E-14
 -1       596 5.48320E-03-2.08810E-04-1.66807E-14
 -1       597 7.92708E-03 6.21513E-04-2.41132E-14
 -1       598 6.25724E-03 1.60928E-04-1.81545E-14
 -1       599 5.56726E-03-1.21766E-04-1.69731E-14
 -1       600 7.54970E-03-1.24182E-03-2.13097E-14
 -1       601 5.44316E-03-1.66348E-04-1.66359E-14
 -1       602 5.93944E-03-3.80374E-04-1.72492E-14
 -1       603 6.32175E-03-5.64078E-04-1.77644E-14
 -1       604 6.75441E-03-8.13330E-04-1.87935E-14
 -1       605 7.13177E-03-1.04032E-03-1.98412E-14
 -1       606 7.81454E-03-1.29362E-03-2.23867E-14
 -1       607 8.16527E-03-1.24668E-03-2.39005E-14
 -1       608 8.50817E-03-1.08971E-03-2.52712E-14
 -1       609 8.90390E-03-8.71884E-04-2.66476E-14
 -1       610 9.31501E-03-6.55789E-04-2.78678E-14
 -1       611 9.62013E-03-5.19967E-04-2.87365E-14
 -1       612 9.78409E-03-2.85002E-04-2.97144E-14
 -1       613 7.03660E-04 2.87427E-04-1.73323E-16
 -1       614 6.77051E-04-1.56963E-04-2.76651E-16
 -1       615 1.46850E-02-1.54255E-03-7.20142E-14
 -1       616 1.00355E-02-3.74950E-04-3.06552E-14
 -1       617 6.92260E-04-1.99477E-04-2.68340E-16
 -1       618 6.03242E-03 6.97547E-05-1.74028E-14
 -1       619 5.68065E-03-7.45497E-05-1.68525E-14
 -1       620 9.50958E-04-2.64702E-04-4.71526E-16
 -1       621 8.99437E-04 7.19789E-05-4.84974E-16
 -1       622 8.97169E-04 2.44276E-05-4.94471E-16
 -1       623 9.12132E-04 1.73949E-04-4.51048E-16
 -1       624 9.24703E-04 2.31857E-04-4.23774E-16
 -1       625 1.04940E-03 3.07745E-04-4.85309E-16
 -1       626 6.52977E-03-6.99191E-04-1.75830E-14
 -1       627 9.95197E-03-3.35637E-04-3.09782E-14
 -1       628 1.38412E-03-3.27602E-04-9.50998E-16
 -1       629 1.67050E-03-3.54929E-04-1.35459E-15
 -1       630 1.95696E-03-3.72327E-04-1.82923E-15
 -1       631 2.24330E-03-3.81843E-04-2.37408E-15
 -1       632 2.52950E-03-3.85197E-04-2.98928E-15
 -1       633 2.81559E-03-3.83800E-04-3.67556E-15
 -1       634 3.10159E-03-3.78842E-04-4.43019E-15
 -1       635 3.38750E-03-3.71398E-04-5.25232E-15
 -1       636 3.67330E-03-3.62565E-04-6.14174E-15
 -1       637 3.95897E-03-3.53605E-04-7.09525E-15
 -1       638 4.24461E-03-3.46107E-04-8.10966E-15
 -1       639 4.53054E-03-3.42181E-04-9.18585E-15
 -1       640 4.81762E-03-3.44668E-04-1.03224E-14
 -1       641 5.10778E-03-3.57435E-04-1.15179E-14
 -1       642 5.40475E-03-3.85853E-04-1.27724E-14
 -1       643 5.71491E-03-4.37715E-04-1.40860E-14
 -1       644 6.04734E-03-5.24832E-04-1.54644E-14
 -1       645 8.89467E-03-9.47954E-04-2.72643E-14
 -1       646 9.28476E-03-8.12354E-04-2.92540E-14
 -1       647 9.64261E-03-7.35228E-04-3.13040E-14
 -1       648 9.97152E-03-7.04251E-04-3.34050E-14
 -1       649 1.02808E-02-7.05372E-04-3.55576E-14
 -1       650 1.05785E-02-7.28184E-04-3.77573E-14
 -1       651 1.08703E-02-7.65518E-04-4.00026E-14
 -1       652 1.11592E-02-8.12314E-04-4.22853E-14
 -1       653 1.14468E-02-8.64954E-04-4.45964E-14
 -1       654 1.17340E-02-9.20878E-04-4.69259E-14
 -1       655 1.20209E-02-9.78316E-04-4.92875E-14
 -1       656 1.23077E-02-1.03610E-03-5.16775E-14
 -1       657 1.25943E-02-1.09349E-03-5.40982E-14
 -1       658 1.28809E-02-1.15009E-03-5.65420E-14
 -1       659 1.31673E-02-1.20567E-03-5.90096E-14
 -1       660 1.34535E-02-1.26020E-03-6.14987E-14
 -1       661 1.37397E-02-1.31370E-03-6.40112E-14
 -1       662 1.40257E-02-1.36624E-03-6.65496E-14
 -1       663 1.43116E-02-1.41795E-03-6.91008E-14
 -1       664 2.19321E-03 4.15969E-04-2.09454E-15
 -1       665 1.90740E-03 4.04168E-04-1.58279E-15
 -1       666 2.76541E-03 4.21493E-04-3.33553E-15
 -1       667 3.05231E-03 4.18183E-04-4.06637E-15
 -1       668 3.34010E-03 4.12510E-04-4.86821E-15
 -1       669 3.62911E-03 4.05703E-04-5.74073E-15
 -1       670 3.91978E-03 3.99123E-04-6.68498E-15
 -1       671 4.21272E-03 3.94392E-04-7.70150E-15
 -1       672 4.50872E-03 3.93514E-04-8.78882E-15
 -1       673 4.80889E-03 3.98960E-04-9.94331E-15
 -1       674 5.11455E-03 4.13681E-04-1.11659E-14
 -1       675 5.42711E-03 4.40960E-04-1.24598E-14
 -1       676 5.74759E-03 4.83892E-04-1.38216E-14
 -1       677 6.07567E-03 5.44190E-04-1.52533E-14
 -1       678 6.40867E-03 6.19857E-04-1.67538E-14
 -1       679 6.74113E-03 7.02026E-04-1.83251E-14
 -1       680 7.06679E-03 7.72474E-04-1.99657E-14
 -1       681 7.38309E-03 8.06890E-04-2.16811E-14
 -1       682 7.69453E-03 7.86473E-04-2.34765E-14
 -1       683 8.00982E-03 7.09680E-04-2.53484E-14
 -1       684 8.33423E-03 5.93683E-04-2.72836E-14
 -1       685 8.66614E-03 4.62856E-04-2.92815E-14
 -1       686 8.99953E-03 3.36477E-04-3.13402E-14
 -1       687 9.32863E-03 2.24666E-04-3.34565E-14
 -1       688 9.65037E-03 1.30109E-04-3.56226E-14
 -1       689 9.96418E-03 5.14539E-05-3.78396E-14
 -1       690 1.02710E-02-1.42869E-05-4.00972E-14
 -1       691 1.05722E-02-7.03562E-05-4.23997E-14
 -1       692 1.08692E-02-1.19667E-04-4.47611E-14
 -1       693 1.11630E-02-1.64604E-04-4.71714E-14
 -1       694 1.14547E-02-2.07002E-04-4.96286E-14
 -1       695 1.17447E-02-2.48196E-04-5.21264E-14
 -1       696 1.20336E-02-2.89108E-04-5.46489E-14
 -1       697 1.23216E-02-3.30332E-04-5.71901E-14
 -1       698 1.26090E-02-3.72221E-04-5.97376E-14
 -1       699 1.28959E-02-4.14950E-04-6.23010E-14
 -1       700 1.31824E-02-4.58573E-04-6.48702E-14
 -1       701 1.34687E-02-5.03070E-04-6.74485E-14
 -1       702 1.37548E-02-5.48372E-04-7.00319E-14
 -1       703 1.39864E-02-6.00067E-04-7.20247E-14
 -1       704 1.41861E-02-9.82686E-04-7.11514E-14
 -1       705 1.45027E-02-1.44876E-03-7.08443E-14
 -1       706 1.40899E-02-8.18148E-04-7.14255E-14
 -1       707 1.42338E-02-1.06475E-03-7.10154E-14
 -1       708 1.41381E-02-9.00534E-04-7.12880E-14
 -1       709 1.62148E-03 3.83839E-04-1.14397E-15
 -1       710 1.42805E-02-1.14549E-03-7.08795E-14
 -1       711 1.43277E-02-1.22783E-03-7.07380E-14
 -1       712 1.43749E-02-1.31052E-03-7.05889E-14
 -1       713 1.44387E-02-1.37949E-03-7.07178E-14
 -1       714 9.82851E-03-4.78405E-04-3.03323E-14
 -1       715 9.99109E-03-4.09598E-04-3.05925E-14
 -1       716 9.16603E-03-7.64158E-04-2.80194E-14
 -1       717 2.47913E-03 4.21207E-04-2.67829E-15
 -1       718 7.34710E-03 6.87052E-04-2.14545E-14
 -1       719 1.16707E-03-3.00292E-04-6.90359E-16
 -1       720 7.06445E-03 5.93467E-04-2.02263E-14
 -1       721 8.75026E-03-9.94560E-04-2.64929E-14
 -1       722 5.49234E-03-2.14620E-04-1.59401E-14
 -1       723 7.75935E-03 6.85260E-04-2.35232E-14
 -1       724 1.33539E-03 3.52593E-04-7.78535E-16
 -1       725 9.04189E-04 1.21283E-04-4.70794E-16
 -1       726 8.41094E-03 3.93292E-04-2.65045E-14
 -1       727 9.03854E-04-1.18898E-04-4.95457E-16
 -1       728 5.45108E-03-1.33923E-04-1.60623E-14
 -1       729 6.30889E-03 2.37600E-04-1.76288E-14
 -1       730 9.73021E-03-2.55262E-04-3.09844E-14
 -1       731 6.05002E-03-4.35996E-04-1.67401E-14
 -1       732 5.39215E-03-1.72956E-04-1.59016E-14
 -1       733 5.73286E-03-2.98550E-04-1.63013E-14
 -1       734 8.10090E-03 5.57819E-04-2.51554E-14
 -1       735 6.70683E-03 4.33676E-04-1.88617E-14
 -1       736 9.52005E-03-5.92806E-04-2.91955E-14
 -1       737 8.97114E-04-2.24591E-05-4.99197E-16
 -1       738 1.00698E-02-3.69210E-04-3.17286E-14
 -1       739 9.11575E-04-1.71350E-04-4.85272E-16
 -1       740 1.40420E-02-7.36117E-04-7.15648E-14
 -1       741 7.55173E-03 7.23713E-04-2.24942E-14
 -1       742 1.40141E-02-6.68254E-04-7.17958E-14
 -1       743 9.46859E-03-1.37576E-04-3.06953E-14
 -1       744 9.13002E-03 1.42878E-05-2.94595E-14
 -1       745 5.82820E-03 7.74989E-06-1.66381E-14
 -1       746 5.51859E-03-9.72729E-05-1.59400E-14
 -1       747 8.77094E-03 1.93136E-04-2.79684E-14
 -1       748 8.99252E-04-6.97390E-05-4.99705E-16
 -1       749 5.34607E-03-1.44043E-04-1.53383E-14
 -1       750 7.69264E-03-1.29641E-03-2.17207E-14
 -1       751 1.16186E-03 2.37085E-04-6.78409E-16
 -1       752 7.13855E-03 6.67602E-04-2.04192E-14
 -1       753 1.79695E-03-2.95820E-04-1.61987E-15
 -1       754 2.08385E-03-3.07572E-04-2.13300E-15
 -1       755 2.37048E-03-3.13192E-04-2.71642E-15
 -1       756 2.65647E-03-3.14004E-04-3.36995E-15
 -1       757 2.94151E-03-3.11144E-04-4.09236E-15
 -1       758 3.22533E-03-3.05618E-04-4.88334E-15
 -1       759 3.50761E-03-2.98386E-04-5.74112E-15
 -1       760 3.78801E-03-2.90466E-04-6.66379E-15
 -1       761 4.06618E-03-2.83029E-04-7.64900E-15
 -1       762 4.34186E-03-2.77500E-04-8.69750E-15
 -1       763 4.61504E-03-2.75653E-04-9.80656E-15
 -1       764 4.88634E-03-2.79715E-04-1.09750E-14
 -1       765 5.15761E-03-2.92620E-04-1.22057E-14
 -1       766 5.43303E-03-3.18694E-04-1.34961E-14
 -1       767 5.72120E-03-3.66074E-04-1.48472E-14
 -1       768 5.79063E-03-3.47656E-04-1.56807E-14
 -1       769 6.82339E-03 5.48098E-04-1.90454E-14
 -1       770 9.59849E-03-6.40898E-04-3.03761E-14
 -1       771 9.91094E-03-6.12182E-04-3.24500E-14
 -1       772 1.02000E-02-6.16643E-04-3.45730E-14
 -1       773 1.04780E-02-6.40670E-04-3.67455E-14
 -1       774 1.07521E-02-6.77308E-04-3.89646E-14
 -1       775 1.10260E-02-7.22382E-04-4.12304E-14
 -1       776 1.13014E-02-7.73023E-04-4.35304E-14
 -1       777 1.15787E-02-8.27113E-04-4.58560E-14
 -1       778 1.18578E-02-8.83072E-04-4.82079E-14
 -1       779 1.21386E-02-9.39767E-04-5.05923E-14
 -1       780 1.24208E-02-9.96426E-04-5.30103E-14
 -1       781 1.27039E-02-1.05256E-03-5.54540E-14
 -1       782 1.29879E-02-1.10790E-03-5.79154E-14
 -1       783 1.32724E-02-1.16233E-03-6.03963E-14
 -1       784 1.35572E-02-1.21583E-03-6.28980E-14
 -1       785 1.38424E-02-1.26843E-03-6.54226E-14
 -1       786 1.41278E-02-1.32025E-03-6.79607E-14
 -1       787 1.40110E-02-1.06246E-03-6.87410E-14
 -1       788 3.17901E-03 3.43070E-04-4.54514E-15
 -1       789 2.89275E-03 3.47804E-04-3.77632E-15
 -1       790 3.75195E-03 3.29093E-04-6.29520E-15
 -1       791 4.03945E-03 3.22141E-04-7.27656E-15
 -1       792 4.32863E-03 3.17107E-04-8.32777E-15
 -1       793 4.62074E-03 3.15883E-04-9.44675E-15
 -1       794 4.91760E-03 3.20918E-04-1.06316E-14
 -1       795 5.22161E-03 3.35380E-04-1.18846E-14
 -1       796 5.53554E-03 3.63241E-04-1.32077E-14
 -1       797 5.86178E-03 4.09033E-04-1.45980E-14
 -1       798 6.20044E-03 4.76548E-04-1.60577E-14
 -1       799 6.54813E-03 5.64263E-04-1.75849E-14
 -1       800 7.23294E-03 7.35865E-04-2.08510E-14
 -1       801 8.22008E-03 5.77843E-04-2.63455E-14
 -1       802 8.56639E-03 4.33879E-04-2.83099E-14
 -1       803 8.91461E-03 2.94687E-04-3.03328E-14
 -1       804 9.25493E-03 1.75281E-04-3.24166E-14
 -1       805 9.58282E-03 7.75475E-05-3.45508E-14
 -1       806 9.89818E-03-1.78301E-06-3.67371E-14
 -1       807 1.02032E-02-6.72123E-05-3.89720E-14
 -1       808 1.05007E-02-1.22799E-04-4.12437E-14
 -1       809 1.07931E-02-1.71737E-04-4.35666E-14
 -1       810 1.10823E-02-2.16450E-04-4.59463E-14
 -1       811 1.13696E-02-2.58720E-04-4.83706E-14
 -1       812 1.16558E-02-2.99827E-04-5.08408E-14
 -1       813 1.19415E-02-3.40651E-04-5.33423E-14
 -1       814 1.22269E-02-3.81767E-04-5.58631E-14
 -1       815 1.25123E-02-4.23523E-04-5.83978E-14
 -1       816 1.27977E-02-4.66097E-04-6.09408E-14
 -1       817 1.30832E-02-5.09553E-04-6.34967E-14
 -1       818 1.33687E-02-5.53874E-04-6.60600E-14
 -1       819 1.36542E-02-5.99003E-04-6.86334E-14
 -1       820 1.38342E-02-6.33491E-04-7.02127E-14
 -1       821 1.13705E-03 5.70035E-05-7.48221E-16
 -1       822 1.40581E-02-1.14408E-03-6.86003E-14
 -1       823 1.39635E-02-9.81018E-04-6.88772E-14
 -1       824 1.41050E-02-1.22607E-03-6.84516E-14
 -1       825 5.34391E-03-1.77805E-04-1.50403E-14
 -1       826 3.46531E-03 3.36475E-04-5.38500E-15
 -1       827 9.79532E-03-2.31869E-04-3.26124E-14
 -1       828 9.29430E-04-2.16004E-04-4.81264E-16
 -1       829 2.03294E-03 3.39979E-04-1.89714E-15
 -1       830 1.01089E-02-4.05601E-04-3.19221E-14
 -1       831 1.51036E-03-2.76403E-04-1.17600E-15
 -1       832 7.96284E-03 6.43797E-04-2.47332E-14
 -1       833 1.00483E-02-4.55054E-04-3.19745E-14
 -1       834 6.43309E-03 3.79427E-04-1.75530E-14
 -1       835 1.00022E-02-3.26711E-04-3.26327E-14
 -1       836 5.54074E-03-2.47597E-04-1.53349E-14
 -1       837 9.87682E-03-5.36066E-04-3.15359E-14
 -1       838 8.23253E-03 5.19892E-04-2.60750E-14
 -1       839 1.24680E-03 2.93066E-04-7.30878E-16
 -1       840 6.08522E-03 1.56260E-04-1.68531E-14
 -1       841 1.74607E-03 3.25698E-04-1.41423E-15
 -1       842 1.13553E-03 1.13834E-06-7.58203E-16
 -1       843 1.14126E-03-1.11395E-04-7.59158E-16
 -1       844 1.14959E-03 1.73707E-04-7.09488E-16
 -1       845 1.14905E-03-1.70753E-04-7.49685E-16
 -1       846 2.31974E-03 3.47456E-04-2.45214E-15
 -1       847 1.38192E-02-7.36843E-04-6.92755E-14
 -1       848 1.39155E-02-8.99557E-04-6.90146E-14
 -1       849 6.22154E-03 2.99734E-04-1.67743E-14
 -1       850 2.60635E-03 3.49637E-04-3.07838E-15
 -1       851 6.89546E-03 6.60321E-04-1.91819E-14
 -1       852 7.88438E-03 6.96453E-04-2.44379E-14
 -1       853 1.38675E-02-8.18393E-04-6.91462E-14
 -1       854 1.14159E-03 1.13948E-04-7.32335E-16
 -1       855 9.34082E-03-3.45727E-05-3.10782E-14
 -1       856 1.49615E-03 3.13787E-04-1.04384E-15
 -1       857 1.14398E-03-2.46983E-04-7.02570E-16
 -1       858 5.62034E-03-2.95779E-05-1.57258E-14
 -1       859 5.37100E-03-1.17651E-04-1.52191E-14
 -1       860 8.59625E-03 3.27348E-04-2.77800E-14
 -1       861 9.68824E-03-1.46765E-04-3.30108E-14
 -1       862 1.13690E-03-5.45711E-05-7.61869E-16
 -1       863 2.21329E-03-2.41670E-04-2.44613E-15
 -1       864 2.49928E-03-2.44362E-04-3.06773E-15
 -1       865 2.78399E-03-2.43584E-04-3.75774E-15
 -1       866 3.06685E-03-2.40238E-04-4.51608E-15
 -1       867 3.34730E-03-2.35163E-04-5.34246E-15
 -1       868 3.62474E-03-2.29203E-04-6.23246E-15
 -1       869 3.89851E-03-2.23264E-04-7.18856E-15
 -1       870 4.16786E-03-2.18365E-04-8.20740E-15
 -1       871 4.43203E-03-2.15656E-04-9.28950E-15
 -1       872 4.69032E-03-2.16400E-04-1.04314E-14
 -1       873 4.94228E-03-2.21966E-04-1.16340E-14
 -1       874 5.18829E-03-2.34147E-04-1.28999E-14
 -1       875 5.23373E-03-1.42965E-04-1.43428E-14
 -1       876 1.38266E-02-6.85339E-04-6.97423E-14
 -1       877 1.38354E-02-1.14116E-03-6.63299E-14
 -1       878 1.01469E-02-5.31295E-04-3.35949E-14
 -1       879 1.03958E-02-5.58963E-04-3.57391E-14
 -1       880 1.06470E-02-5.96028E-04-3.79316E-14
 -1       881 1.09029E-02-6.39494E-04-4.01739E-14
 -1       882 1.11641E-02-6.87683E-04-4.24576E-14
 -1       883 1.14301E-02-7.39190E-04-4.47784E-14
 -1       884 1.17005E-02-7.92811E-04-4.71260E-14
 -1       885 1.19743E-02-8.47561E-04-4.95014E-14
 -1       886 1.22511E-02-9.02694E-04-5.19118E-14
 -1       887 1.25301E-02-9.57684E-04-5.43532E-14
 -1       888 1.28110E-02-1.01219E-03-5.68158E-14
 -1       889 1.30931E-02-1.06604E-03-5.92937E-14
 -1       890 1.33763E-02-1.11915E-03-6.17847E-14
 -1       891 1.36603E-02-1.17151E-03-6.42944E-14
 -1       892 4.15324E-03 2.46560E-04-7.87059E-15
 -1       893 3.87032E-03 2.54053E-04-6.85409E-15
 -1       894 4.72387E-03 2.37782E-04-1.01036E-14
 -1       895 5.01582E-03 2.40502E-04-1.13192E-14
 -1       896 5.31670E-03 2.52264E-04-1.26011E-14
 -1       897 5.63108E-03 2.78346E-04-1.39514E-14
 -1       898 5.96338E-03 3.25958E-04-1.53704E-14
 -1       899 8.93041E-03 1.54448E-04-2.92722E-14
 -1       900 9.52839E-03 1.76995E-05-3.34865E-14
 -1       901 9.84463E-03-6.01244E-05-3.56402E-14
 -1       902 1.01465E-02-1.22646E-04-3.78454E-14
 -1       903 1.04389E-02-1.75704E-04-4.00946E-14
 -1       904 1.07253E-02-2.22858E-04-4.23883E-14
 -1       905 1.10086E-02-2.66517E-04-4.47325E-14
 -1       906 1.12904E-02-3.08287E-04-4.71274E-14
 -1       907 1.15718E-02-3.49245E-04-4.95665E-14
 -1       908 1.18534E-02-3.90114E-04-5.20452E-14
 -1       909 1.21355E-02-4.31360E-04-5.45467E-14
 -1       910 1.24182E-02-4.73264E-04-5.70666E-14
 -1       911 1.27016E-02-5.15968E-04-5.95961E-14
 -1       912 1.29855E-02-5.59520E-04-6.21362E-14
 -1       913 1.32698E-02-6.03908E-04-6.46855E-14
 -1       914 9.19349E-03 1.17979E-04-3.13825E-14
 -1       915 1.37417E-02-9.79354E-04-6.66163E-14
 -1       916 4.43719E-03 2.40586E-04-8.95435E-15
 -1       917 1.01025E-02-3.11591E-04-3.44573E-14
 -1       918 3.01955E-03 2.74610E-04-4.22311E-15
 -1       919 1.28750E-03-2.01682E-04-9.10442E-16
 -1       920 1.02022E-02-4.43106E-04-3.32651E-14
 -1       921 1.92666E-03-2.34512E-04-1.89523E-15
 -1       922 1.64019E-03-2.21777E-04-1.41361E-15
 -1       923 5.30406E-03-2.01967E-04-1.41176E-14
 -1       924 1.37888E-02-1.06008E-03-6.64770E-14
 -1       925 1.02021E-02-4.02109E-04-3.32496E-14
 -1       926 1.87435E-03 2.65115E-04-1.69887E-15
 -1       927 5.83992E-03 9.07428E-05-1.59302E-14
 -1       928 1.01739E-02-3.66161E-04-3.38565E-14
 -1       929 1.40096E-03 2.28922E-04-9.91300E-16
 -1       930 5.43099E-03-6.73237E-05-1.50107E-14
 -1       931 1.36940E-02-8.98725E-04-6.67503E-14
 -1       932 5.14551E-03-1.61410E-04-1.34474E-14
 -1       933 5.43284E-03-2.56996E-04-1.42258E-14
 -1       934 2.73426E-03 2.77944E-04-3.48715E-15
 -1       935 1.38207E-03 9.59385E-05-1.04947E-15
 -1       936 1.37844E-03 3.25104E-05-1.06594E-15
 -1       937 1.58767E-03 2.49525E-04-1.24451E-15
 -1       938 3.58740E-03 2.61847E-04-5.90654E-15
 -1       939 1.35546E-02-6.49052E-04-6.72428E-14
 -1       940 8.83898E-03 2.49056E-04-2.93338E-14
 -1       941 3.30390E-03 2.68979E-04-5.02910E-15
 -1       942 2.16137E-03 2.74232E-04-2.22437E-15
 -1       943 1.00220E-02-2.47001E-04-3.48726E-14
 -1       944 5.22591E-03-1.19176E-04-1.42295E-14
 -1       945 1.38178E-03-9.32130E-05-1.07562E-15
 -1       946 1.35971E-02-7.37476E-04-6.70046E-14
 -1       947 1.77304E-03-1.63922E-04-1.66234E-15
 -1       948 2.44813E-03 2.78137E-04-2.82116E-15
 -1       949 1.38891E-03-1.57997E-04-1.06789E-15
 -1       950 2.62985E-03-1.75963E-04-3.42649E-15
 -1       951 2.91261E-03-1.74622E-04-4.15231E-15
 -1       952 3.19262E-03-1.71799E-04-4.94532E-15
 -1       953 3.46910E-03-1.68184E-04-5.80403E-15
 -1       954 3.74121E-03-1.64505E-04-6.72853E-15
 -1       955 4.00796E-03-1.61550E-04-7.71740E-15
 -1       956 4.26819E-03-1.60170E-04-8.76992E-15
 -1       957 4.52045E-03-1.61243E-04-9.88537E-15
 -1       958 4.76289E-03-1.65567E-04-1.10623E-14
 -1       959 4.99303E-03-1.73832E-04-1.23016E-14
 -1       960 1.71913E-03 1.92828E-04-1.50079E-15
 -1       961 1.03475E-02-4.43287E-04-3.48302E-14
 -1       962 1.05490E-02-5.22659E-04-3.69059E-14
 -1       963 1.07844E-02-5.63677E-04-3.91221E-14
 -1       964 1.10303E-02-6.08591E-04-4.13868E-14
 -1       965 1.12846E-02-6.56644E-04-4.36910E-14
 -1       966 1.15457E-02-7.07032E-04-4.60327E-14
 -1       967 1.18123E-02-7.58962E-04-4.84048E-14
 -1       968 1.20833E-02-8.11744E-04-5.08094E-14
 -1       969 1.23579E-02-8.64840E-04-5.32429E-14
 -1       970 1.26352E-02-9.17864E-04-5.57022E-14
 -1       971 1.29148E-02-9.70568E-04-5.81812E-14
 -1       972 1.31960E-02-1.02281E-03-6.06712E-14
 -1       973 1.34784E-02-1.07454E-03-6.31723E-14
 -1       974 3.98490E-03 1.81144E-04-7.41595E-15
 -1       975 5.89952E-03 1.73509E-04-1.57264E-14
 -1       976 5.10045E-03 1.57458E-04-1.20061E-14
 -1       977 4.81693E-03 1.59294E-04-1.07608E-14
 -1       978 5.70393E-03 1.84886E-04-1.46928E-14
 -1       979 1.01043E-02-1.81142E-04-3.67248E-14
 -1       980 1.06660E-02-2.72934E-04-4.12157E-14
 -1       981 1.09415E-02-3.14548E-04-4.35291E-14
 -1       982 1.12164E-02-3.55349E-04-4.58950E-14
 -1       983 1.14920E-02-3.96033E-04-4.83032E-14
 -1       984 1.17687E-02-4.37046E-04-5.07556E-14
 -1       985 1.20468E-02-4.78655E-04-5.32394E-14
 -1       986 1.23264E-02-5.21004E-04-5.57405E-14
 -1       987 1.26072E-02-5.64159E-04-5.82580E-14
 -1       988 1.28892E-02-6.08114E-04-6.07883E-14
 -1       989 1.31721E-02-6.52830E-04-6.33189E-14
 -1       990 1.63085E-03-1.35844E-04-1.43801E-15
 -1       991 1.37835E-03-3.00770E-05-1.07459E-15
 -1       992 1.36457E-02-8.18180E-04-6.68764E-14
 -1       993 1.53276E-03 1.77294E-04-1.22008E-15
 -1       994 1.03820E-02-4.95144E-04-3.52888E-14
 -1       995 2.05918E-03-1.71376E-04-2.18092E-15
 -1       996 1.03880E-02-2.29223E-04-3.89476E-14
 -1       997 9.92416E-03-1.56232E-04-3.52635E-14
 -1       998 5.39385E-03 1.63619E-04-1.33167E-14
 -1       999 5.56021E-03 3.11055E-05-1.48661E-14
 -1      1000 1.33592E-03 1.45251E-04-9.61850E-16
 -1      1001 2.34510E-03-1.75117E-04-2.76903E-15
 -1      1002 5.24164E-03-7.89649E-05-1.40290E-14
 -1      1003 1.34731E-02-8.97120E-04-6.44970E-14
 -1      1004 1.03620E-02-4.08625E-04-3.54555E-14
 -1      1005 1.62513E-03 6.94979E-05-1.42113E-15
 -1      1006 2.00562E-03 2.02411E-04-1.99701E-15
 -1      1007 3.70703E-03 1.89272E-04-6.43339E-15
 -1      1008 1.32219E-02-7.32340E-04-6.32131E-14
 -1      1009 4.26165E-03 1.72818E-04-8.46537E-15
 -1      1010 5.61184E-03 1.02922E-04-1.46673E-14
 -1      1011 1.35204E-02-9.76803E-04-6.43638E-14
 -1      1012 2.86294E-03 2.06787E-04-3.90314E-15
 -1      1013 5.06890E-03-1.16834E-04-1.31313E-14
 -1      1014 1.62491E-03-6.67945E-05-1.44188E-15
 -1      1015 3.14612E-03 2.02608E-04-4.67611E-15
 -1      1016 4.53836E-03 1.65113E-04-9.58003E-15
 -1      1017 1.02979E-02-3.24846E-04-3.64912E-14
 -1      1018 1.03380E-02-3.71920E-04-3.59744E-14
 -1      1019 1.57771E-03 1.23566E-04-1.32193E-15
 -1      1020 2.29223E-03 2.07383E-04-2.56356E-15
 -1      1021 2.57818E-03 2.08592E-04-3.19922E-15
 -1      1022 1.02018E-02-2.57962E-04-3.66136E-14
 -1      1023 3.04328E-03-1.07566E-04-4.55202E-15
 -1      1024 3.32031E-03-1.06202E-04-5.37847E-15
 -1      1025 3.59290E-03-1.04932E-04-6.27016E-15
 -1      1026 3.86005E-03-1.04378E-04-7.22773E-15
 -1      1027 4.12054E-03-1.05219E-04-8.25029E-15
 -1      1028 4.37285E-03-1.08208E-04-9.33740E-15
 -1      1029 4.61485E-03-1.14047E-04-1.04878E-14
 -1      1030 4.84341E-03-1.23444E-04-1.17006E-14
 -1      1031 1.06609E-02-4.96336E-04-3.80772E-14
 -1      1032 4.63222E-03 9.16349E-05-1.02059E-14
 -1      1033 4.89860E-03 8.15994E-05-1.14169E-14
 -1      1034 5.32339E-03-2.62042E-06-1.38894E-14
 -1      1035 1.08930E-02-5.36696E-04-4.03213E-14
 -1      1036 1.11369E-02-5.80375E-04-4.26056E-14
 -1      1037 1.13899E-02-6.26751E-04-4.49294E-14
 -1      1038 1.16500E-02-6.75145E-04-4.72949E-14
 -1      1039 1.19158E-02-7.24891E-04-4.96949E-14
 -1      1040 1.21862E-02-7.75448E-04-5.21237E-14
 -1      1041 1.24602E-02-8.26392E-04-5.45806E-14
 -1      1042 1.27371E-02-8.77422E-04-5.70555E-14
 -1      1043 1.30163E-02-9.28338E-04-5.95476E-14
 -1      1044 1.32972E-02-9.79038E-04-6.20512E-14
 -1      1045 5.36066E-03 5.71161E-05-1.36977E-14
 -1      1046 1.14153E-02-4.39743E-04-4.70515E-14
 -1      1047 3.42749E-03 1.96602E-04-5.51986E-15
 -1      1048 1.11466E-02-3.99393E-04-4.46705E-14
 -1      1049 1.04983E-02-4.68673E-04-3.64393E-14
 -1      1050 2.76272E-03-1.08460E-04-3.79162E-15
 -1      1051 1.08801E-02-3.59867E-04-4.23365E-14
 -1      1052 1.16864E-02-4.81034E-04-4.94765E-14
 -1      1053 1.19601E-02-5.23264E-04-5.19372E-14
 -1      1054 1.22361E-02-5.66381E-04-5.44200E-14
 -1      1055 1.25141E-02-6.10330E-04-5.69236E-14
 -1      1056 1.27939E-02-6.55034E-04-5.94420E-14
 -1      1057 1.30076E-02-6.93464E-04-6.13275E-14
 -1      1058 1.62301E-03 1.36624E-06-1.43626E-15
 -1      1059 1.04690E-02-2.97968E-04-3.88310E-14
 -1      1060 1.06746E-02-3.28948E-04-4.05703E-14
 -1      1061 1.33479E-02-8.14551E-04-6.38569E-14
 -1      1062 5.12871E-03 6.81752E-05-1.25335E-14
 -1      1063 5.05396E-03-7.97158E-05-1.29399E-14
 -1      1064 1.84060E-03-1.17878E-04-1.79561E-15
 -1      1065 2.71001E-03 1.39370E-04-3.58541E-15
 -1      1066 4.80379E-03-8.58310E-05-1.15241E-14
 -1      1067 4.36544E-03 1.01701E-04-9.06046E-15
 -1      1068 1.05458E-02-3.58930E-04-3.87052E-14
 -1      1069 2.47950E-03-1.08357E-04-3.09969E-15
 -1      1070 1.87025E-03 3.72341E-05-1.84623E-15
 -1      1071 2.10747E-03-9.74623E-05-2.30181E-15
 -1      1072 1.05664E-02-4.03200E-04-3.81748E-14
 -1      1073 1.31945E-02-8.39624E-04-6.20869E-14
 -1      1074 2.99272E-03 1.36767E-04-4.32624E-15
 -1      1075 1.32464E-02-9.09206E-04-6.20726E-14
 -1      1076 1.86308E-03 1.31826E-04-1.78966E-15
 -1      1077 3.82516E-03 1.19403E-04-6.96398E-15
 -1      1078 4.09668E-03 1.11056E-04-7.97907E-15
 -1      1079 3.17723E-03-4.25478E-05-4.95563E-15
 -1      1080 1.89207E-03-4.67285E-05-1.89788E-15
 -1      1081 3.45179E-03-4.33635E-05-5.81511E-15
 -1      1082 3.72131E-03-4.50562E-05-6.74141E-15
 -1      1083 3.98493E-03-4.80826E-05-7.73228E-15
 -1      1084 4.24136E-03-5.30980E-05-8.78912E-15
 -1      1085 4.48885E-03-6.07679E-05-9.91142E-15
 -1      1086 4.72007E-03 2.20461E-05-1.08310E-14
 -1      1087 2.42541E-03 1.39905E-04-2.91282E-15
 -1      1088 5.09360E-03-1.57884E-05-1.28082E-14
 -1      1089 1.07429E-02-4.70196E-04-3.92554E-14
 -1      1090 1.09805E-02-5.08948E-04-4.15235E-14
 -1      1091 1.12284E-02-5.50918E-04-4.38319E-14
 -1      1092 1.14839E-02-5.95429E-04-4.61810E-14
 -1      1093 1.17459E-02-6.41719E-04-4.85707E-14
 -1      1094 1.20131E-02-6.89300E-04-5.09960E-14
 -1      1095 1.22844E-02-7.37729E-04-5.34459E-14
 -1      1096 1.25591E-02-7.86636E-04-5.59243E-14
 -1      1097 1.28365E-02-8.35826E-04-5.84156E-14
 -1      1098 5.11082E-03 2.42495E-05-1.26722E-14
 -1      1099 1.18740E-02-5.64885E-04-5.06391E-14
 -1      1100 1.07406E-02-3.87398E-04-4.04432E-14
 -1      1101 2.14441E-03 1.37257E-04-2.31801E-15
 -1      1102 1.05453E-02-4.38933E-04-3.73088E-14
 -1      1103 1.13399E-02-4.79892E-04-4.58057E-14
 -1      1104 1.10791E-02-4.39703E-04-4.34565E-14
 -1      1105 1.21463E-02-6.09146E-04-5.31051E-14
 -1      1106 1.24215E-02-6.54242E-04-5.55902E-14
 -1      1107 1.26991E-02-7.00053E-04-5.80955E-14
 -1      1108 2.89866E-03-4.21394E-05-4.16251E-15
 -1      1109 1.16050E-02-5.21724E-04-4.82038E-14
 -1      1110 1.31016E-02-7.66505E-04-6.17127E-14
 -1      1111 3.94328E-03 5.28759E-05-7.49710E-15
 -1      1112 3.55058E-03 1.26564E-04-6.01597E-15
 -1      1113 2.16017E-03-2.35961E-05-2.41313E-15
 -1      1114 2.56117E-03 7.22905E-05-3.27035E-15
 -1      1115 4.46627E-03 3.43875E-05-9.65563E-15
 -1      1116 1.07506E-02-4.30526E-04-3.99028E-14
 -1      1117 3.27308E-03 1.32430E-04-5.13646E-15
 -1      1118 2.61698E-03-4.17565E-05-3.43623E-15
 -1      1119 1.28999E-02-7.33151E-04-5.99042E-14
 -1      1120 4.20734E-03 4.45989E-05-8.54372E-15
 -1      1121 3.67450E-03 5.94836E-05-6.51630E-15
 -1      1122 2.84400E-03 7.09860E-05-3.98013E-15
 -1      1123 1.29929E-02-8.05340E-04-6.02828E-14
 -1      1124 2.28985E-03 5.73150E-05-2.66431E-15
 -1      1125 4.88294E-03-3.48505E-05-1.18270E-14
 -1      1126 3.31580E-03 2.06343E-05-5.36309E-15
 -1      1127 4.96898E-03 7.52519E-06-1.20705E-14
 -1      1128 1.23284E-02-6.95751E-04-5.42600E-14
 -1      1129 1.10554E-02-4.77385E-04-4.27295E-14
 -1      1130 1.26558E-02-7.45155E-04-5.72689E-14
 -1      1131 3.03870E-03 2.29932E-05-4.53721E-15
 -1      1132 4.69072E-03-2.40358E-05-1.08322E-14
 -1      1133 3.15387E-03 7.78414E-05-4.83546E-15
 -1      1134 0.00000E+00 0.00000E+00 0.00000E+00
 -1      1135 0.00000E+00 0.00000E+00 0.00000E+00
 -1      1136 0.00000E+00 0.00000E+00 0.00000E+00
 -1      1137 0.00000E+00 0.00000E+00 0.00000E+00
 -1      1138 0.00000E+00 0.00000E+00 0.00000E+00
 -1      1139 0.00000E+00 0.00000E+00 0.00000E+00
 -1      1140 0.00000E+00 0.00000E+00 0.00000E+00
 -1      1141 0.00000E+00 0.00000E+00 0.00000E+00
 -1      1142 0.00000E+00 0.00000E+00 0.00000E+00
 -1      1143 0.00000E+00 0.00000E+00 0.00000E+00
 -1      1144 0.00000E+00 0.00000E+00 0.00000E+00
 -1      1145 0.00000E+00 0.00000E+00 0.00000E+00
 -1      1146 0.00000E+00 0.00000E+00 0.00000E+00
 -1      1147 0.00000E+00 0.00000E+00 0.00000E+00
 -1      1148 0.00000E+00 0.00000E+00 0.00000E+00
 -1      1149 0.00000E+00 0.00000E+00 0.00000E+00
 -1      1150 0.00000E+00 0.00000E+00 0.00000E+00
 -1      1151 2.10898E-04-1.47779E-04 1.02728E-17
 -1      1152 5.49697E-04-3.35650E-04-1.78622E-17
 -1      1153 8.30732E-04-4.55426E-04-1.17921E-16
 -1      1154 1.09980E-03-5.34978E-04-3.01273E-16
 -1      1155 1.36501E-03-5.89600E-04-5.64110E-16
 -1      1156 1.63006E-03-6.27091E-04-9.04279E-16
 -1      1157 1.89698E-03-6.52000E-04-1.32122E-15
 -1      1158 2.16690E-03-6.67362E-04-1.81219E-15
 -1      1159 2.44050E-03-6.75407E-04-2.37730E-15
 -1      1160 2.71831E-03-6.77865E-04-3.01801E-15
 -1      1161 3.00088E-03-6.76148E-04-3.73330E-15
 -1      1162 3.28887E-03-6.71506E-04-4.51619E-15
 -1      1163 3.58319E-03-6.65194E-04-5.36222E-15
 -1      1164 3.88504E-03-6.58649E-04-6.27662E-15
 -1      1165 4.19591E-03-6.53731E-04-7.25135E-15
 -1      1166 4.51760E-03-6.53011E-04-8.28497E-15
 -1      1167 4.85196E-03-6.60125E-04-9.37878E-15
 -1      1168 5.20053E-03-6.80130E-04-1.05329E-14
 -1      1169 5.56371E-03-7.19686E-04-1.17425E-14
 -1      1170 5.93948E-03-7.86608E-04-1.30100E-14
 -1      1171 6.32180E-03-8.87969E-04-1.43390E-14
 -1      1172 6.69935E-03-1.02589E-03-1.57325E-14
 -1      1173 7.05657E-03-1.19111E-03-1.71958E-14
 -1      1174 7.37913E-03-1.35775E-03-1.87377E-14
 -1      1175 7.66357E-03-1.48672E-03-2.03715E-14
 -1      1176 7.92434E-03-1.54197E-03-2.20921E-14
 -1      1177 8.18926E-03-1.51165E-03-2.38940E-14
 -1      1178 8.48369E-03-1.41597E-03-2.57712E-14
 -1      1179 8.81701E-03-1.29399E-03-2.77273E-14
 -1      1180 9.18178E-03-1.18227E-03-2.97544E-14
 -1      1181 9.56251E-03-1.10188E-03-3.18427E-14
 -1      1182 9.94452E-03-1.05827E-03-3.39907E-14
 -1      1183 1.03181E-02-1.04734E-03-3.61869E-14
 -1      1184 1.06785E-02-1.06154E-03-3.84239E-14
 -1      1185 1.10247E-02-1.09330E-03-4.06948E-14
 -1      1186 1.13577E-02-1.13649E-03-4.29948E-14
 -1      1187 1.16794E-02-1.18664E-03-4.53107E-14
 -1      1188 1.19918E-02-1.24064E-03-4.76361E-14
 -1      1189 1.22969E-02-1.29647E-03-4.99735E-14
 -1      1190 1.25963E-02-1.35286E-03-5.23328E-14
 -1      1191 1.28915E-02-1.40902E-03-5.47307E-14
 -1      1192 1.31836E-02-1.46454E-03-5.71700E-14
 -1      1193 1.34734E-02-1.51921E-03-5.96395E-14
 -1      1194 1.37616E-02-1.57296E-03-6.21351E-14
 -1      1195 1.40487E-02-1.62582E-03-6.46714E-14
 -1      1196 1.43350E-02-1.67784E-03-6.72418E-14
 -1      1197 1.46209E-02-1.72913E-03-6.98414E-14
 -1      1198 1.49065E-02-1.77981E-03-7.24584E-14
 -1      1199 1.51921E-02-1.83003E-03-7.50870E-14
 -1      1200 1.54706E-02-1.87878E-03-7.76817E-14
 -1      1201 2.27605E-04 1.60112E-04 1.94614E-17
 -1      1202 5.51897E-04 3.40259E-04 1.07878E-17
 -1      1203 8.31730E-04 4.57595E-04-6.41170E-17
 -1      1204 1.10081E-03 5.36706E-04-2.14537E-16
 -1      1205 1.36608E-03 5.91391E-04-4.41392E-16
 -1      1206 1.63125E-03 6.29089E-04-7.46026E-16
 -1      1207 1.89829E-03 6.54301E-04-1.13010E-15
 -1      1208 2.16829E-03 6.70103E-04-1.58958E-15
 -1      1209 2.44191E-03 6.78783E-04-2.12325E-15
 -1      1210 2.71959E-03 6.82152E-04-2.73463E-15
 -1      1211 3.00173E-03 6.81730E-04-3.42565E-15
 -1      1212 3.28875E-03 6.78896E-04-4.19516E-15
 -1      1213 3.58113E-03 6.75026E-04-5.03993E-15
 -1      1214 3.87940E-03 6.71628E-04-5.95940E-15
 -1      1215 4.18403E-03 6.70467E-04-6.95602E-15
 -1      1216 4.49532E-03 6.73647E-04-8.03209E-15
 -1      1217 4.81313E-03 6.83628E-04-9.18035E-15
 -1      1218 5.13659E-03 7.03077E-04-1.03987E-14
 -1      1219 5.46370E-03 7.34460E-04-1.16913E-14
 -1      1220 5.79104E-03 7.79263E-04-1.30527E-14
 -1      1221 6.11376E-03 8.36803E-04-1.44795E-14
 -1      1222 6.42617E-03 9.02877E-04-1.59730E-14
 -1      1223 6.72314E-03 9.68856E-04-1.75429E-14
 -1      1224 7.00221E-03 1.02222E-03-1.91938E-14
 -1      1225 7.26549E-03 1.04923E-03-2.09179E-14
 -1      1226 7.52006E-03 1.03939E-03-2.27106E-14
 -1      1227 7.77607E-03 9.89479E-04-2.45691E-14
 -1      1228 8.04319E-03 9.04988E-04-2.64957E-14
 -1      1229 8.32726E-03 7.97768E-04-2.84861E-14
 -1      1230 8.62905E-03 6.81598E-04-3.05416E-14
 -1      1231 8.94521E-03 5.68086E-04-3.26607E-14
 -1      1232 9.27030E-03 4.64605E-04-3.48339E-14
 -1      1233 9.59883E-03 3.74263E-04-3.70566E-14
 -1      1234 9.92640E-03 2.97031E-04-3.93202E-14
 -1      1235 1.02501E-02 2.31106E-04-4.16287E-14
 -1      1236 1.05685E-02 1.74001E-04-4.39954E-14
 -1      1237 1.08811E-02 1.23226E-04-4.64232E-14
 -1      1238 1.11881E-02 7.66348E-05-4.89174E-14
 -1      1239 1.14901E-02 3.25350E-05-5.14630E-14
 -1      1240 1.17880E-02-1.03175E-05-5.40312E-14
 -1      1241 1.20824E-02-5.27831E-05-5.66117E-14
 -1      1242 1.23741E-02-9.54189E-05-5.92044E-14
 -1      1243 1.26638E-02-1.38556E-04-6.18046E-14
 -1      1244 1.29520E-02-1.82363E-04-6.44171E-14
 -1      1245 1.32391E-02-2.26901E-04-6.70287E-14
 -1      1246 1.35255E-02-2.72162E-04-6.96442E-14
 -1      1247 1.38114E-02-3.18087E-04-7.22812E-14
 -1      1248 1.40971E-02-3.64587E-04-7.49399E-14
 -1      1249 1.43827E-02-4.11525E-04-7.76012E-14
 -1      1250 1.46612E-02-4.57509E-04-8.01955E-14
 -1      1251 1.48201E-02-5.22071E-04-8.13655E-14
 -1      1252 1.48665E-02-6.06423E-04-8.11817E-14
 -1      1253 1.49131E-02-6.90810E-04-8.09773E-14
 -1      1254 1.49601E-02-7.75115E-04-8.07695E-14
 -1      1255 1.50074E-02-8.59224E-04-8.05722E-14
 -1      1256 1.50546E-02-9.42361E-04-8.04068E-14
 -1      1257 1.51019E-02-1.02524E-03-8.02735E-14
 -1      1258 1.51497E-02-1.10861E-03-8.01412E-14
 -1      1259 1.51975E-02-1.19186E-03-8.00151E-14
 -1      1260 1.52452E-02-1.27512E-03-7.98732E-14
 -1      1261 1.52928E-02-1.35851E-03-7.97233E-14
 -1      1262 1.53401E-02-1.44141E-03-7.96137E-14
 -1      1263 1.53876E-02-1.52458E-03-7.95156E-14
 -1      1264 1.54358E-02-1.60872E-03-7.93900E-14
 -1      1265 1.54844E-02-1.69305E-03-7.92835E-14
 -1      1266 1.55334E-02-1.77745E-03-7.91762E-14
 -1      1267 1.55822E-02-1.86109E-03-7.90354E-14
 -1      1268 9.93724E-03-2.49141E-04-2.69639E-14
 -1      1269 9.80861E-03-1.01266E-04-2.68129E-14
 -1      1270 9.57824E-03 5.36210E-05-2.64520E-14
 -1      1271 9.26492E-03 2.10915E-04-2.58973E-14
 -1      1272 8.87956E-03 3.63123E-04-2.51731E-14
 -1      1273 8.46502E-03 4.87642E-04-2.43675E-14
 -1      1274 8.04037E-03 5.69102E-04-2.35168E-14
 -1      1275 7.60369E-03 6.02456E-04-2.26274E-14
 -1      1276 7.17251E-03 5.80388E-04-2.17580E-14
 -1      1277 6.75672E-03 5.08627E-04-2.09433E-14
 -1      1278 6.37507E-03 4.01649E-04-2.02281E-14
 -1      1279 6.03599E-03 2.71608E-04-1.96209E-14
 -1      1280 5.75813E-03 1.29831E-04-1.91432E-14
 -1      1281 5.56539E-03-1.38088E-05-1.88151E-14
 -1      1282 5.47577E-03-1.56652E-04-1.86440E-14
 -1      1283 5.49411E-03-3.00761E-04-1.86400E-14
 -1      1284 5.61674E-03-4.49043E-04-1.88034E-14
 -1      1285 5.83343E-03-6.04433E-04-1.91169E-14
 -1      1286 6.14484E-03-7.71912E-04-1.95972E-14
 -1      1287 6.52192E-03-9.33632E-04-2.02177E-14
 -1      1288 6.93157E-03-1.06795E-03-2.09311E-14
 -1      1289 7.36263E-03-1.16224E-03-2.17238E-14
 -1      1290 7.79552E-03-1.19971E-03-2.25567E-14
 -1      1291 8.24660E-03-1.17452E-03-2.34475E-14
 -1      1292 8.68817E-03-1.09128E-03-2.43240E-14
 -1      1293 9.08610E-03-9.66960E-04-2.51198E-14
 -1      1294 9.42501E-03-8.24189E-04-2.58022E-14
 -1      1295 9.68925E-03-6.78321E-04-2.63359E-14
 -1      1296 9.87055E-03-5.34877E-04-2.67111E-14
 -1      1297 9.95686E-03-3.92653E-04-2.69247E-14
 -1      1298 1.66235E-04-1.09921E-04-1.72117E-18
 -1      1299 1.12452E-04-5.66709E-05-1.60462E-17
 -1      1300 1.17444E-04-6.72833E-05-1.20753E-17
 -1      1301 1.08444E-04-4.31466E-05-2.26192E-17
 -1      1302 1.10255E-04-4.92748E-05-2.05998E-17
 -1      1303 2.26226E-04-1.06887E-04-4.82877E-17
 -1      1304 1.06941E-04-3.32440E-05-2.61428E-17
 -1      1305 1.07757E-04-3.79750E-05-2.51264E-17
 -1      1306 2.19203E-04-8.16816E-05-5.99564E-17
 -1      1307 1.06191E-04-2.49785E-05-2.82977E-17
 -1      1308 1.06613E-04-2.89975E-05-2.78098E-17
 -1      1309 2.16088E-04-6.24739E-05-6.68275E-17
 -1      1310 1.05791E-04-1.77703E-05-2.94632E-17
 -1      1311 1.06019E-04-2.13041E-05-2.92464E-17
 -1      1312 2.14453E-04-4.64306E-05-7.09068E-17
 -1      1313 1.05568E-04-1.10108E-05-3.00053E-17
 -1      1314 1.05694E-04-1.43425E-05-2.99240E-17
 -1      1315 2.13530E-04-3.21335E-05-7.31294E-17
 -1      1316 1.05463E-04-4.58447E-06-2.99782E-17
 -1      1317 1.05519E-04-7.77139E-06-3.00188E-17
 -1      1318 2.13016E-04-1.87831E-05-7.38071E-17
 -1      1319 1.05449E-04 1.70906E-06-2.97478E-17
 -1      1320 1.05448E-04-1.43335E-06-2.99240E-17
 -1      1321 2.12786E-04-6.01712E-06-7.37257E-17
 -1      1322 1.05524E-04 8.05654E-06-2.90973E-17
 -1      1323 1.05466E-04 4.86327E-06-2.92870E-17
 -1      1324 2.12791E-04 6.56957E-06-7.27906E-17
 -1      1325 1.05705E-04 1.46521E-05-2.81622E-17
 -1      1326 1.05575E-04 1.13060E-05-2.85416E-17
 -1      1327 2.13033E-04 1.93609E-05-7.10559E-17
 -1      1328 1.06035E-04 2.15971E-05-2.66036E-17
 -1      1329 1.05802E-04 1.80406E-05-2.71457E-17
 -1      1330 2.13559E-04 3.26511E-05-6.83861E-17
 -1      1331 1.06642E-04 2.94327E-05-2.43268E-17
 -1      1332 1.06213E-04 2.53700E-05-2.51264E-17
 -1      1333 2.14502E-04 4.70399E-05-6.43474E-17
 -1      1334 1.07787E-04 3.85431E-05-2.08167E-17
 -1      1335 1.06963E-04 3.37446E-05-2.22397E-17
 -1      1336 2.16172E-04 6.33959E-05-5.84792E-17
 -1      1337 1.10240E-04 5.00105E-05-1.52737E-17
 -1      1338 1.08453E-04 4.38109E-05-1.76183E-17
 -1      1339 2.19302E-04 8.29109E-05-4.94396E-17
 -1      1340 1.16765E-04 6.73174E-05-6.39679E-18
 -1      1341 1.12101E-04 5.74655E-05-1.05981E-17
 -1      1342 2.26221E-04 1.08700E-04-3.60362E-17
 -1      1343 1.57112E-04 1.09453E-04 7.39968E-18
 -1      1344 1.35381E-04 8.57414E-05-1.21973E-18
 -1      1345 2.55628E-04 1.51300E-04-2.01797E-17
 -1      1346 3.34115E-04 2.19724E-04 2.77827E-18
 -1      1347 4.20370E-04-2.60350E-04-2.80131E-17
 -1      1348 5.73104E-04-3.34630E-04-6.12981E-17
 -1      1349 7.19995E-04-3.94360E-04-1.16538E-16
 -1      1350 8.62928E-04-4.42684E-04-1.91782E-16
 -1      1351 6.10949E-04-3.28363E-04-1.11429E-16
 -1      1352 1.00279E-03-4.82674E-04-2.86053E-16
 -1      1353 1.14055E-03-5.15462E-04-4.00030E-16
 -1      1354 9.03889E-04-4.27086E-04-2.67974E-16
 -1      1355 1.27705E-03-5.42898E-04-5.33577E-16
 -1      1356 1.41280E-03-5.65455E-04-6.86503E-16
 -1      1357 1.18631E-03-4.94059E-04-5.01281E-16
 -1      1358 1.54828E-03-5.84176E-04-8.58119E-16
 -1      1359 1.68375E-03-5.99390E-04-1.04887E-15
 -1      1360 1.46363E-03-5.39810E-04-8.10577E-16
 -1      1361 1.81949E-03-6.11702E-04-1.25858E-15
 -1      1362 1.95563E-03-6.21404E-04-1.48687E-15
 -1      1363 1.73923E-03-5.70403E-04-1.19494E-15
 -1      1364 2.09234E-03-6.28872E-04-1.73360E-15
 -1      1365 2.22971E-03-6.34365E-04-1.99907E-15
 -1      1366 2.01519E-03-5.89703E-04-1.65417E-15
 -1      1367 2.36786E-03-6.38131E-04-2.28279E-15
 -1      1368 2.50683E-03-6.40395E-04-2.58452E-15
 -1      1369 2.29277E-03-6.00426E-04-2.18707E-15
 -1      1370 2.64673E-03-6.41331E-04-2.90546E-15
 -1      1371 2.78762E-03-6.41140E-04-3.24517E-15
 -1      1372 2.57284E-03-6.04583E-04-2.79304E-15
 -1      1373 2.92959E-03-6.39948E-04-3.60180E-15
 -1      1374 3.07271E-03-6.37949E-04-3.97731E-15
 -1      1375 2.85607E-03-6.03737E-04-3.47168E-15
 -1      1376 3.21709E-03-6.35243E-04-4.36897E-15
 -1      1377 3.36283E-03-6.32035E-04-4.77629E-15
 -1      1378 3.14311E-03-5.99181E-04-4.22116E-15
 -1      1379 3.51004E-03-6.28425E-04-5.20039E-15
 -1      1380 3.65886E-03-6.24648E-04-5.64067E-15
 -1      1381 3.43469E-03-5.92104E-04-5.03750E-15
 -1      1382 3.80944E-03-6.20834E-04-6.09774E-15
 -1      1383 3.96193E-03-6.17273E-04-6.57134E-15
 -1      1384 3.73163E-03-5.83770E-04-5.92014E-15
 -1      1385 4.11651E-03-6.14163E-04-7.05954E-15
 -1      1386 4.27336E-03-6.11881E-04-7.56196E-15
 -1      1387 4.03492E-03-5.75731E-04-6.86628E-15
 -1      1388 4.43267E-03-6.10746E-04-8.07928E-15
 -1      1389 4.59461E-03-6.11252E-04-8.61237E-15
 -1      1390 4.34569E-03-5.70105E-04-7.87307E-15
 -1      1391 4.75936E-03-6.13909E-04-9.16006E-15
 -1      1392 4.92706E-03-6.19355E-04-9.72288E-15
 -1      1393 4.66512E-03-5.69920E-04-8.94028E-15
 -1      1394 5.09782E-03-6.28365E-04-1.03008E-14
 -1      1395 5.27164E-03-6.41725E-04-1.08923E-14
 -1      1396 4.99429E-03-5.79524E-04-1.00680E-14
 -1      1397 5.44847E-03-6.60510E-04-1.14984E-14
 -1      1398 5.62808E-03-6.85592E-04-1.21187E-14
 -1      1399 5.33383E-03-6.04947E-04-1.12530E-14
 -1      1400 5.81014E-03-7.18250E-04-1.27530E-14
 -1      1401 5.99403E-03-7.59247E-04-1.34025E-14
 -1      1402 5.68349E-03-6.53955E-04-1.24953E-14
 -1      1403 6.17902E-03-8.09669E-04-1.40679E-14
 -1      1404 6.36398E-03-8.69670E-04-1.47495E-14
 -1      1405 6.04144E-03-7.35142E-04-1.37966E-14
 -1      1406 6.54780E-03-9.39339E-04-1.54478E-14
 -1      1407 6.72896E-03-1.01753E-03-1.61626E-14
 -1      1408 6.40358E-03-8.55000E-04-1.51613E-14
 -1      1409 6.90615E-03-1.10224E-03-1.68968E-14
 -1      1410 7.07791E-03-1.19013E-03-1.76491E-14
 -1      1411 6.76314E-03-1.01221E-03-1.65957E-14
 -1      1412 7.24341E-03-1.27659E-03-1.84228E-14
 -1      1413 7.40220E-03-1.35649E-03-1.92191E-14
 -1      1414 7.11166E-03-1.18994E-03-1.81068E-14
 -1      1415 7.55458E-03-1.42393E-03-2.00365E-14
 -1      1416 7.70203E-03-1.47393E-03-2.08765E-14
 -1      1417 7.44244E-03-1.35231E-03-1.97007E-14
 -1      1418 7.84623E-03-1.50251E-03-2.17372E-14
 -1      1419 7.99005E-03-1.50804E-03-2.26182E-14
 -1      1420 7.75652E-03-1.45404E-03-2.13813E-14
 -1      1421 8.13569E-03-1.49123E-03-2.35199E-14
 -1      1422 8.28577E-03-1.45488E-03-2.44406E-14
 -1      1423 8.06511E-03-1.46479E-03-2.31452E-14
 -1      1424 8.44164E-03-1.40385E-03-2.53805E-14
 -1      1425 8.60419E-03-1.34347E-03-2.63388E-14
 -1      1426 8.38317E-03-1.38995E-03-2.49890E-14
 -1      1427 8.77337E-03-1.27951E-03-2.73159E-14
 -1      1428 8.94836E-03-1.21680E-03-2.83130E-14
 -1      1429 8.71933E-03-1.26666E-03-2.69071E-14
 -1      1430 9.12810E-03-1.15925E-03-2.93247E-14
 -1      1431 9.31105E-03-1.10951E-03-3.03515E-14
 -1      1432 9.07196E-03-1.13956E-03-2.88945E-14
 -1      1433 9.49592E-03-1.06890E-03-3.13946E-14
 -1      1434 9.68127E-03-1.03815E-03-3.24537E-14
 -1      1435 9.43341E-03-1.03953E-03-3.09480E-14
 -1      1436 9.86609E-03-1.01679E-03-3.35269E-14
 -1      1437 1.00494E-02-1.00441E-03-3.46106E-14
 -1      1438 9.79546E-03-9.78379E-04-3.30621E-14
 -1      1439 1.02306E-02-9.99809E-04-3.57069E-14
 -1      1440 1.04092E-02-1.00217E-03-3.68143E-14
 -1      1441 1.01521E-02-9.54517E-04-3.52284E-14
 -1      1442 1.05850E-02-1.01025E-03-3.79307E-14
 -1      1443 1.07578E-02-1.02319E-03-3.90571E-14
 -1      1444 1.05000E-02-9.60410E-04-3.74397E-14
 -1      1445 1.09277E-02-1.04000E-03-4.01923E-14
 -1      1446 1.10947E-02-1.05996E-03-4.13344E-14
 -1      1447 1.08380E-02-9.87546E-04-3.96899E-14
 -1      1448 1.12590E-02-1.08238E-03-4.24815E-14
 -1      1449 1.14207E-02-1.10668E-03-4.36353E-14
 -1      1450 1.11661E-02-1.02867E-03-4.19712E-14
 -1      1451 1.15801E-02-1.13243E-03-4.47937E-14
 -1      1452 1.17374E-02-1.15921E-03-4.59538E-14
 -1      1453 1.14854E-02-1.07835E-03-4.42765E-14
 -1      1454 1.18927E-02-1.18676E-03-4.71189E-14
 -1      1455 1.20463E-02-1.21477E-03-4.82886E-14
 -1      1456 1.17970E-02-1.13282E-03-4.66012E-14
 -1      1457 1.21984E-02-1.24310E-03-4.94598E-14
 -1      1458 1.23491E-02-1.27156E-03-5.06337E-14
 -1      1459 1.21023E-02-1.18959E-03-4.89402E-14
 -1      1460 1.24986E-02-1.30008E-03-5.18175E-14
 -1      1461 1.26470E-02-1.32850E-03-5.30101E-14
 -1      1462 1.24026E-02-1.24711E-03-5.12993E-14
 -1      1463 1.27946E-02-1.35683E-03-5.42106E-14
 -1      1464 1.29414E-02-1.38495E-03-5.54206E-14
 -1      1465 1.26989E-02-1.30444E-03-5.36874E-14
 -1      1466 1.30875E-02-1.41289E-03-5.66406E-14
 -1      1467 1.32330E-02-1.44058E-03-5.78688E-14
 -1      1468 1.29921E-02-1.36106E-03-5.61119E-14
 -1      1469 1.33780E-02-1.46804E-03-5.91031E-14
 -1      1470 1.35225E-02-1.49524E-03-6.03450E-14
 -1      1471 1.32831E-02-1.41671E-03-5.85677E-14
 -1      1472 1.36668E-02-1.52221E-03-6.15947E-14
 -1      1473 1.38107E-02-1.54892E-03-6.28510E-14
 -1      1474 1.35723E-02-1.47131E-03-6.10524E-14
 -1      1475 1.39544E-02-1.57541E-03-6.41172E-14
 -1      1476 1.40978E-02-1.60167E-03-6.53938E-14
 -1      1477 1.38603E-02-1.52488E-03-6.35669E-14
 -1      1478 1.42411E-02-1.62772E-03-6.66783E-14
 -1      1479 1.43843E-02-1.65357E-03-6.79694E-14
 -1      1480 1.41473E-02-1.57750E-03-6.61166E-14
 -1      1481 1.45274E-02-1.67924E-03-6.92654E-14
 -1      1482 1.46703E-02-1.70473E-03-7.05664E-14
 -1      1483 1.44338E-02-1.62926E-03-6.86932E-14
 -1      1484 1.48133E-02-1.73008E-03-7.18731E-14
 -1      1485 1.49561E-02-1.75530E-03-7.31819E-14
 -1      1486 1.47199E-02-1.68030E-03-7.12898E-14
 -1      1487 1.50990E-02-1.78041E-03-7.44991E-14
 -1      1488 1.52418E-02-1.80543E-03-7.58218E-14
 -1      1489 1.50058E-02-1.73075E-03-7.39084E-14
 -1      1490 1.54464E-02-1.83735E-03-7.77597E-14
 -1      1491 1.53533E-02-1.78775E-03-7.71607E-14
 -1      1492 6.41359E-04 3.69473E-04-3.98038E-17
 -1      1493 4.91576E-04 3.01958E-04-9.20217E-18
 -1      1494 4.43924E-04 2.64296E-04-2.62106E-17
 -1      1495 9.26468E-04 4.67541E-04-1.56627E-16
 -1      1496 7.85809E-04 4.23048E-04-8.90943E-17
 -1      1497 7.43320E-04 3.87409E-04-1.09992E-16
 -1      1498 1.20119E-03 5.34633E-04-3.47663E-16
 -1      1499 1.06457E-03 5.04176E-04-2.42536E-16
 -1      1500 1.02916E-03 4.70736E-04-2.66971E-16
 -1      1501 1.47194E-03 5.80988E-04-6.15122E-16
 -1      1502 1.33673E-03 5.60017E-04-4.71655E-16
 -1      1503 1.30719E-03 5.27970E-04-4.98150E-16
 -1      1504 1.74221E-03 6.12444E-04-9.59749E-16
 -1      1505 1.60696E-03 5.98338E-04-7.77563E-16
 -1      1506 1.58198E-03 5.67099E-04-8.05427E-16
 -1      1507 2.01388E-03 6.32802E-04-1.38232E-15
 -1      1508 1.87777E-03 6.23836E-04-1.16119E-15
 -1      1509 1.85630E-03 5.93016E-04-1.18944E-15
 -1      1510 2.28804E-03 6.44777E-04-1.87883E-15
 -1      1511 2.15059E-03 6.39699E-04-1.62144E-15
 -1      1512 2.13178E-03 6.09044E-04-1.64965E-15
 -1      1513 2.56537E-03 6.50442E-04-2.45184E-15
 -1      1514 2.42627E-03 6.48283E-04-2.15581E-15
 -1      1515 2.40942E-03 6.17614E-04-2.18492E-15
 -1      1516 2.84638E-03 6.51464E-04-3.10231E-15
 -1      1517 2.70539E-03 6.51431E-04-2.76732E-15
 -1      1518 2.68988E-03 6.20612E-04-2.79590E-15
 -1      1519 3.13151E-03 6.49283E-04-3.83076E-15
 -1      1520 2.98840E-03 6.50677E-04-3.45721E-15
 -1      1521 2.97369E-03 6.19591E-04-3.48452E-15
 -1      1522 3.42122E-03 6.45254E-04-4.63547E-15
 -1      1523 3.27576E-03 6.47399E-04-4.22310E-15
 -1      1524 3.26130E-03 6.15935E-04-4.24922E-15
 -1      1525 3.71597E-03 6.40795E-04-5.51470E-15
 -1      1526 3.56793E-03 6.42968E-04-5.06602E-15
 -1      1527 3.55316E-03 6.11009E-04-5.08835E-15
 -1      1528 4.01621E-03 6.37518E-04-6.46934E-15
 -1      1529 3.86538E-03 6.38884E-04-5.98251E-15
 -1      1530 3.84970E-03 6.06304E-04-6.00222E-15
 -1      1531 4.32227E-03 6.37350E-04-7.50027E-15
 -1      1532 4.16850E-03 6.36903E-04-6.97519E-15
 -1      1533 4.15129E-03 6.03572E-04-6.99110E-15
 -1      1534 4.63422E-03 6.42599E-04-8.60712E-15
 -1      1535 4.47751E-03 6.39144E-04-8.04439E-15
 -1      1536 4.45813E-03 6.04934E-04-8.05524E-15
 -1      1537 4.95160E-03 6.55919E-04-9.78591E-15
 -1      1538 4.79227E-03 6.48103E-04-9.18779E-15
 -1      1539 4.77012E-03 6.12916E-04-9.19235E-15
 -1      1540 5.27323E-03 6.80065E-04-1.10353E-14
 -1      1541 5.11198E-03 6.66532E-04-1.04016E-14
 -1      1542 5.08664E-03 6.30337E-04-1.04012E-14
 -1      1543 5.59686E-03 7.17326E-04-1.23563E-14
 -1      1544 5.43497E-03 6.97044E-04-1.16873E-14
 -1      1545 5.40637E-03 6.59935E-04-1.16818E-14
 -1      1546 5.91914E-03 7.68534E-04-1.37465E-14
 -1      1547 5.75842E-03 7.41341E-04-1.30427E-14
 -1      1548 5.72710E-03 7.03609E-04-1.30310E-14
 -1      1549 6.23578E-03 8.31694E-04-1.52013E-14
 -1      1550 6.07847E-03 7.99012E-04-1.44653E-14
 -1      1551 6.04573E-03 7.61203E-04-1.44481E-14
 -1      1552 6.54237E-03 9.00631E-04-1.67292E-14
 -1      1553 6.39061E-03 8.66094E-04-1.59557E-14
 -1      1554 6.35865E-03 8.29014E-04-1.59355E-14
 -1      1555 6.83574E-03 9.64516E-04-1.83321E-14
 -1      1556 6.69085E-03 9.34048E-04-1.75212E-14
 -1      1557 6.66249E-03 8.98629E-04-1.74954E-14
 -1      1558 7.11556E-03 1.00932E-03-2.00135E-14
 -1      1559 6.97725E-03 9.90129E-04-1.91636E-14
 -1      1560 6.95544E-03 9.57157E-04-1.91315E-14
 -1      1561 7.38531E-03 1.02158E-03-2.17647E-14
 -1      1562 7.25133E-03 1.02004E-03-2.08806E-14
 -1      1563 7.23841E-03 9.89804E-04-2.08399E-14
 -1      1564 7.65178E-03 9.93334E-04-2.35850E-14
 -1      1565 7.51842E-03 1.01253E-03-2.26661E-14
 -1      1566 7.51552E-03 9.84597E-04-2.26194E-14
 -1      1567 7.92296E-03 9.25419E-04-2.54731E-14
 -1      1568 7.78628E-03 9.63802E-04-2.45210E-14
 -1      1569 7.79295E-03 9.37169E-04-2.44693E-14
 -1      1570 8.20518E-03 8.27096E-04-2.74280E-14
 -1      1571 8.06238E-03 8.79187E-04-2.64424E-14
 -1      1572 8.07680E-03 8.52669E-04-2.63870E-14
 -1      1573 8.50124E-03 7.12272E-04-2.94457E-14
 -1      1574 8.35143E-03 7.70848E-04-2.84289E-14
 -1      1575 8.37090E-03 7.43513E-04-2.83688E-14
 -1      1576 8.81024E-03 5.94594E-04-3.15265E-14
 -1      1577 8.65429E-03 6.53101E-04-3.04783E-14
 -1      1578 8.67591E-03 6.24491E-04-3.04133E-14
 -1      1579 9.12869E-03 4.84082E-04-3.36690E-14
 -1      1580 8.96856E-03 5.38054E-04-3.25907E-14
 -1      1581 8.98986E-03 5.08154E-04-3.25201E-14
 -1      1582 9.45219E-03 3.86071E-04-3.58600E-14
 -1      1583 9.29010E-03 4.33392E-04-3.47577E-14
 -1      1584 9.30936E-03 4.02465E-04-3.46812E-14
 -1      1585 9.77666E-03 3.01947E-04-3.81001E-14
 -1      1586 9.61454E-03 3.42329E-04-3.69755E-14
 -1      1587 9.63088E-03 3.10745E-04-3.68929E-14
 -1      1588 1.00990E-02 2.30553E-04-4.03835E-14
 -1      1589 9.93826E-03 2.64803E-04-3.92351E-14
 -1      1590 9.95148E-03 2.32920E-04-3.91501E-14
 -1      1591 1.04173E-02 1.69520E-04-4.27178E-14
 -1      1592 1.02588E-02 1.98911E-04-4.15438E-14
 -1      1593 1.02691E-02 1.67014E-04-4.14546E-14
 -1      1594 1.07308E-02 1.16193E-04-4.51069E-14
 -1      1595 1.05747E-02 1.42052E-04-4.39048E-14
 -1      1596 1.05827E-02 1.10338E-04-4.38118E-14
 -1      1597 1.10391E-02 6.81430E-05-4.75623E-14
 -1      1598 1.08856E-02 9.16401E-05-4.63275E-14
 -1      1599 1.08917E-02 6.02241E-05-4.62274E-14
 -1      1600 1.13427E-02 2.33872E-05-5.00712E-14
 -1      1601 1.11915E-02 4.54546E-05-4.88093E-14
 -1      1602 1.11963E-02 1.43875E-05-4.87001E-14
 -1      1603 1.16421E-02-1.95738E-05-5.26176E-14
 -1      1604 1.14929E-02 1.75537E-06-5.13416E-14
 -1      1605 1.14969E-02-2.89569E-05-5.12196E-14
 -1      1606 1.19380E-02-6.18029E-05-5.51850E-14
 -1      1607 1.17905E-02-4.07302E-05-5.39008E-14
 -1      1608 1.17939E-02-7.11097E-05-5.37696E-14
 -1      1609 1.22311E-02-1.04007E-04-5.77669E-14
 -1      1610 1.20848E-02-8.28766E-05-5.64742E-14
 -1      1611 1.20881E-02-1.12961E-04-5.63372E-14
 -1      1612 1.25219E-02-1.46622E-04-6.03573E-14
 -1      1613 1.23767E-02-1.25245E-04-5.90606E-14
 -1      1614 1.23799E-02-1.55077E-04-5.89178E-14
 -1      1615 1.28110E-02-1.89888E-04-6.29566E-14
 -1      1616 1.26666E-02-1.68165E-04-6.16558E-14
 -1      1617 1.26698E-02-1.97789E-04-6.15080E-14
 -1      1618 1.30988E-02-2.33908E-04-6.55656E-14
 -1      1619 1.29550E-02-2.11801E-04-6.42619E-14
 -1      1620 1.29584E-02-2.41258E-04-6.41076E-14
 -1      1621 1.33858E-02-2.78697E-04-6.81760E-14
 -1      1622 1.32424E-02-2.56208E-04-6.68707E-14
 -1      1623 1.32459E-02-2.85535E-04-6.67103E-14
 -1      1624 1.36721E-02-3.24216E-04-7.07945E-14
 -1      1625 1.35290E-02-3.01370E-04-6.94826E-14
 -1      1626 1.35327E-02-3.30599E-04-6.93193E-14
 -1      1627 1.39581E-02-3.70386E-04-7.34347E-14
 -1      1628 1.38152E-02-3.47226E-04-7.21111E-14
 -1      1629 1.38190E-02-3.76383E-04-7.19414E-14
 -1      1630 1.42439E-02-4.17093E-04-7.60867E-14
 -1      1631 1.41010E-02-3.93681E-04-7.47594E-14
 -1      1632 1.41049E-02-4.22789E-04-7.45813E-14
 -1      1633 1.45296E-02-4.64173E-04-7.87434E-14
 -1      1634 1.43867E-02-4.40600E-04-7.74162E-14
 -1      1635 1.43907E-02-4.69681E-04-7.72302E-14
 -1      1636 1.46844E-02-4.99655E-04-8.01045E-14
 -1      1637 1.47544E-02-6.07021E-04-7.99874E-14
 -1      1638 1.47312E-02-5.64869E-04-8.00804E-14
 -1      1639 1.48011E-02-6.91284E-04-7.97931E-14
 -1      1640 1.47777E-02-6.49164E-04-7.98917E-14
 -1      1641 1.46423E-02-6.07599E-04-7.87998E-14
 -1      1642 1.48482E-02-7.75416E-04-7.96000E-14
 -1      1643 1.48246E-02-7.33372E-04-7.96955E-14
 -1      1644 1.46891E-02-6.91753E-04-7.86159E-14
 -1      1645 1.48956E-02-8.59346E-04-7.94184E-14
 -1      1646 1.48718E-02-8.17409E-04-7.95082E-14
 -1      1647 1.47363E-02-7.75738E-04-7.84359E-14
 -1      1648 1.49425E-02-9.41624E-04-7.92661E-14
 -1      1649 1.49190E-02-9.00513E-04-7.93380E-14
 -1      1650 1.47835E-02-8.58802E-04-7.82688E-14
 -1      1651 1.49903E-02-1.02510E-03-7.91251E-14
 -1      1652 1.49664E-02-9.83387E-04-7.91941E-14
 -1      1653 1.48308E-02-9.41648E-04-7.81168E-14
 -1      1654 1.50381E-02-1.10841E-03-7.89888E-14
 -1      1655 1.50142E-02-1.06677E-03-7.90555E-14
 -1      1656 1.48786E-02-1.02501E-03-7.79725E-14
 -1      1657 1.50858E-02-1.19165E-03-7.88586E-14
 -1      1658 1.50620E-02-1.15004E-03-7.89273E-14
 -1      1659 1.49265E-02-1.10823E-03-7.78376E-14
 -1      1660 1.51335E-02-1.27492E-03-7.87157E-14
 -1      1661 1.51097E-02-1.23328E-03-7.87891E-14
 -1      1662 1.49742E-02-1.19142E-03-7.77033E-14
 -1      1663 1.51811E-02-1.35832E-03-7.85799E-14
 -1      1664 1.51573E-02-1.31660E-03-7.86452E-14
 -1      1665 1.50218E-02-1.27465E-03-7.75642E-14
 -1      1666 1.52280E-02-1.44050E-03-7.84685E-14
 -1      1667 1.52046E-02-1.39938E-03-7.85236E-14
 -1      1668 1.50690E-02-1.35731E-03-7.74357E-14
 -1      1669 1.52760E-02-1.52434E-03-7.83543E-14
 -1      1670 1.52520E-02-1.48239E-03-7.84123E-14
 -1      1671 1.51164E-02-1.44017E-03-7.73163E-14
 -1      1672 1.53242E-02-1.60840E-03-7.82255E-14
 -1      1673 1.53001E-02-1.56634E-03-7.82916E-14
 -1      1674 1.51643E-02-1.52395E-03-7.71904E-14
 -1      1675 1.53729E-02-1.69263E-03-7.81136E-14
 -1      1676 1.53485E-02-1.65050E-03-7.81681E-14
 -1      1677 1.52127E-02-1.60796E-03-7.70619E-14
 -1      1678 1.53753E-02-1.76127E-03-7.76078E-14
 -1      1679 1.53508E-02-1.71912E-03-7.76768E-14
 -1      1680 1.52148E-02-1.67647E-03-7.65599E-14
 -1      1681 1.51707E-02-1.72937E-03-7.56752E-14
 -1      1682 9.92682E-03-2.58705E-04-2.73623E-14
 -1      1683 9.96749E-03-3.02931E-04-2.73913E-14
 -1      1684 9.74250E-03-1.49697E-04-2.71645E-14
 -1      1685 9.84279E-03-2.04054E-04-2.72956E-14
 -1      1686 9.44883E-03-4.63616E-06-2.67100E-14
 -1      1687 9.59526E-03-7.52670E-05-2.69447E-14
 -1      1688 9.09364E-03 1.78540E-04-2.60161E-14
 -1      1689 9.26722E-03 9.58245E-05-2.63348E-14
 -1      1690 8.67095E-03 3.63063E-04-2.52183E-14
 -1      1691 8.86526E-03 2.73658E-04-2.56228E-14
 -1      1692 8.28953E-03 5.20708E-04-2.43126E-14
 -1      1693 8.46366E-03 4.56437E-04-2.47125E-14
 -1      1694 7.89508E-03 6.24650E-04-2.33708E-14
 -1      1695 8.07357E-03 5.84658E-04-2.38222E-14
 -1      1696 7.51992E-03 6.46153E-04-2.24061E-14
 -1      1697 7.69173E-03 6.44993E-04-2.28397E-14
 -1      1698 7.13596E-03 5.90538E-04-2.14728E-14
 -1      1699 7.31511E-03 6.26093E-04-2.19005E-14
 -1      1700 6.76113E-03 4.72447E-04-2.06163E-14
 -1      1701 6.93391E-03 5.33395E-04-2.09922E-14
 -1      1702 6.38705E-03 3.19325E-04-1.98731E-14
 -1      1703 6.55799E-03 3.92690E-04-2.02002E-14
 -1      1704 6.03564E-03 1.61481E-04-1.92544E-14
 -1      1705 6.19295E-03 2.33373E-04-1.95216E-14
 -1      1706 5.74212E-03 7.54004E-06-1.87264E-14
 -1      1707 5.87248E-03 6.91859E-05-1.89248E-14
 -1      1708 5.53332E-03-9.61789E-05-1.84729E-14
 -1      1709 5.61257E-03-4.69952E-05-1.85932E-14
 -1      1710 5.45261E-03-1.93578E-04-1.83139E-14
 -1      1711 5.47364E-03-1.51753E-04-1.83566E-14
 -1      1712 5.50552E-03-2.89831E-04-1.83727E-14
 -1      1713 5.46513E-03-2.45026E-04-1.83322E-14
 -1      1714 5.68000E-03-4.08720E-04-1.86001E-14
 -1      1715 5.58516E-03-3.52008E-04-1.84841E-14
 -1      1716 5.95366E-03-5.54794E-04-1.89654E-14
 -1      1717 5.81633E-03-4.83366E-04-1.87774E-14
 -1      1718 6.33254E-03-7.34712E-04-1.94900E-14
 -1      1719 6.14990E-03-6.41971E-04-1.92083E-14
 -1      1720 6.71580E-03-9.34042E-04-2.01950E-14
 -1      1721 6.53651E-03-8.47863E-04-1.98754E-14
 -1      1722 7.12758E-03-1.10436E-03-2.09686E-14
 -1      1723 6.94257E-03-1.02778E-03-2.05865E-14
 -1      1724 7.50541E-03-1.21564E-03-2.18455E-14
 -1      1725 7.33099E-03-1.17346E-03-2.14459E-14
 -1      1726 7.88425E-03-1.24601E-03-2.27562E-14
 -1      1727 7.70926E-03-1.24282E-03-2.23300E-14
 -1      1728 8.28063E-03-1.18711E-03-2.37436E-14
 -1      1729 8.09429E-03-1.22819E-03-2.32843E-14
 -1      1730 8.69038E-03-1.05100E-03-2.46695E-14
 -1      1731 8.50689E-03-1.12000E-03-2.42521E-14
 -1      1732 9.06860E-03-8.74979E-04-2.55497E-14
 -1      1733 8.89214E-03-9.57290E-04-2.51697E-14
 -1      1734 9.42651E-03-7.14167E-04-2.62294E-14
 -1      1735 9.27325E-03-7.89069E-04-2.59224E-14
 -1      1736 9.70593E-03-5.66531E-04-2.68004E-14
 -1      1737 9.58455E-03-6.29121E-04-2.65696E-14
 -1      1738 9.89980E-03-4.53715E-04-2.71508E-14
 -1      1739 9.82381E-03-5.04285E-04-2.70014E-14
 -1      1740 9.97891E-03-3.53998E-04-2.73695E-14
 -1      1741 9.95782E-03-3.97252E-04-2.73040E-14
 -1      1742 8.91140E-03 1.85113E-04-2.60767E-14
 -1      1743 9.31272E-03-1.31574E-05-2.68500E-14
 -1      1744 1.46884E-02-5.28739E-04-7.99164E-14
 -1      1745 1.45763E-02-5.29366E-04-7.87240E-14
 -1      1746 9.88483E-03-2.67592E-04-2.77433E-14
 -1      1747 9.64706E-03-1.69938E-04-2.74506E-14
 -1      1748 9.98297E-03-3.34762E-04-2.77918E-14
 -1      1749 8.50811E-03 3.91589E-04-2.51714E-14
 -1      1750 8.12705E-03 5.63284E-04-2.41700E-14
 -1      1751 7.77936E-03 6.59463E-04-2.31450E-14
 -1      1752 7.43300E-03 6.59149E-04-2.21099E-14
 -1      1753 7.08090E-03 5.69649E-04-2.11280E-14
 -1      1754 6.71875E-03 4.14956E-04-2.02396E-14
 -1      1755 6.34522E-03 2.36268E-04-1.94824E-14
 -1      1756 5.99052E-03 6.14156E-05-1.88112E-14
 -1      1757 5.69250E-03-6.44819E-05-1.83599E-14
 -1      1758 5.49867E-03-1.47890E-04-1.81171E-14
 -1      1759 5.44906E-03-2.10293E-04-1.80232E-14
 -1      1760 5.54559E-03-2.83314E-04-1.81516E-14
 -1      1761 5.76931E-03-3.91108E-04-1.84340E-14
 -1      1762 6.10322E-03-5.42033E-04-1.88447E-14
 -1      1763 6.49485E-03-7.45210E-04-1.94585E-14
 -1      1764 6.90139E-03-9.64405E-04-2.02252E-14
 -1      1765 7.27690E-03-1.14733E-03-2.10843E-14
 -1      1766 7.62838E-03-1.25445E-03-2.20418E-14
 -1      1767 7.97937E-03-1.26240E-03-2.30534E-14
 -1      1768 8.34271E-03-1.16236E-03-2.40925E-14
 -1      1769 8.73156E-03-9.85862E-04-2.51066E-14
 -1      1770 9.11194E-03-7.91495E-04-2.59886E-14
 -1      1771 9.46842E-03-6.20192E-04-2.67083E-14
 -1      1772 9.75007E-03-4.90604E-04-2.72570E-14
 -1      1773 9.93283E-03-4.00488E-04-2.76159E-14
 -1      1774 2.84596E-04-1.75373E-04-2.66036E-17
 -1      1775 3.32361E-04-1.15451E-04-9.55453E-17
 -1      1776 3.36359E-04-1.31666E-04-8.91485E-17
 -1      1777 3.42165E-04-1.50689E-04-8.13558E-17
 -1      1778 3.51526E-04-1.72715E-04-7.04054E-17
 -1      1779 4.58372E-04-1.86106E-04-1.29142E-16
 -1      1780 3.24891E-04-6.42220E-05-1.09532E-16
 -1      1781 3.26039E-04-7.54289E-05-1.07282E-16
 -1      1782 3.23371E-04-4.29924E-05-1.12174E-16
 -1      1783 3.24042E-04-5.33349E-05-1.11104E-16
 -1      1784 4.36886E-04-7.77453E-05-1.62725E-16
 -1      1785 3.22547E-04-2.32377E-05-1.12798E-16
 -1      1786 3.22898E-04-3.29585E-05-1.12662E-16
 -1      1787 4.34821E-04-5.01917E-05-1.65612E-16
 -1      1788 3.22229E-04-4.22777E-06-1.12418E-16
 -1      1789 3.22334E-04-1.36626E-05-1.12757E-16
 -1      1790 4.33735E-04-2.43325E-05-1.66276E-16
 -1      1791 3.22354E-04 1.46529E-05-1.10589E-16
 -1      1792 3.22235E-04 5.20793E-06-1.11713E-16
 -1      1793 4.33408E-04 7.51522E-07-1.65151E-16
 -1      1794 3.22948E-04 3.40024E-05-1.07648E-16
 -1      1795 3.22580E-04 2.42489E-05-1.09166E-16
 -1      1796 4.33783E-04 2.58651E-05-1.62156E-16
 -1      1797 3.24109E-04 5.41259E-05-1.03162E-16
 -1      1798 3.23431E-04 4.39086E-05-1.05750E-16
 -1      1799 4.34916E-04 5.15919E-05-1.57467E-16
 -1      1800 3.26176E-04 7.65665E-05-9.66160E-17
 -1      1801 3.24979E-04 6.50763E-05-1.00316E-16
 -1      1802 4.37035E-04 7.90554E-05-1.50650E-16
 -1      1803 3.29810E-04 1.02310E-04-8.71834E-17
 -1      1804 3.27701E-04 8.89929E-05-9.25367E-17
 -1      1805 4.40705E-04 1.09749E-04-1.40757E-16
 -1      1806 3.36676E-04 1.33768E-04-7.24789E-17
 -1      1807 3.32597E-04 1.17260E-04-8.06782E-17
 -1      1808 4.47095E-04 1.45387E-04-1.26201E-16
 -1      1809 3.52059E-04 1.76291E-04-5.10253E-17
 -1      1810 3.42763E-04 1.53432E-04-6.30870E-17
 -1      1811 4.59371E-04 1.89483E-04-1.04747E-16
 -1      1812 4.07026E-04 2.32203E-04-3.58058E-17
 -1      1813 3.77676E-04 2.01266E-04-4.56991E-17
 -1      1814 4.95506E-04 2.41930E-04-8.54622E-17
 -1      1815 5.57677E-04 3.00221E-04-6.95380E-17
 -1      1816 3.39524E-04-1.89742E-04-4.94261E-17
 -1      1817 8.52453E-04 4.02933E-04-1.92744E-16
 -1      1818 7.06144E-04 3.56194E-04-1.22325E-16
 -1      1819 6.72718E-04 3.25752E-04-1.32340E-16
 -1      1820 4.58483E-04-2.34911E-04-9.06935E-17
 -1      1821 8.06436E-04-3.70157E-04-2.47279E-16
 -1      1822 9.51693E-04-4.10231E-04-3.47677E-16
 -1      1823 1.09459E-03-4.43674E-04-4.66871E-16
 -1      1824 1.23641E-03-4.71191E-04-6.04958E-16
 -1      1825 1.00368E-03-3.92254E-04-4.30848E-16
 -1      1826 1.37705E-03-4.94138E-04-7.61449E-16
 -1      1827 1.51709E-03-5.12809E-04-9.36737E-16
 -1      1828 1.28972E-03-4.47431E-04-7.11101E-16
 -1      1829 1.65674E-03-5.28094E-04-1.13061E-15
 -1      1830 1.79622E-03-5.40231E-04-1.34307E-15
 -1      1831 1.57284E-03-4.84933E-04-1.06523E-15
 -1      1832 1.93576E-03-5.49798E-04-1.57367E-15
 -1      1833 2.07545E-03-5.57001E-04-1.82280E-15
 -1      1834 1.85468E-03-5.09244E-04-1.49296E-15
 -1      1835 2.21547E-03-5.62228E-04-2.09065E-15
 -1      1836 2.35589E-03-5.65659E-04-2.37619E-15
 -1      1837 2.13649E-03-5.23579E-04-1.99352E-15
 -1      1838 2.49682E-03-5.67565E-04-2.68019E-15
 -1      1839 2.63833E-03-5.68106E-04-3.00207E-15
 -1      1840 2.41916E-03-5.30293E-04-2.56692E-15
 -1      1841 2.78051E-03-5.67477E-04-3.34184E-15
 -1      1842 2.92344E-03-5.65826E-04-3.69951E-15
 -1      1843 2.70341E-03-5.31163E-04-3.21198E-15
 -1      1844 3.06717E-03-5.63307E-04-4.07459E-15
 -1      1845 3.21182E-03-5.60067E-04-4.46637E-15
 -1      1846 2.98981E-03-5.27598E-04-3.92828E-15
 -1      1847 3.35743E-03-5.56244E-04-4.87532E-15
 -1      1848 3.50414E-03-5.52001E-04-5.30039E-15
 -1      1849 3.27890E-03-5.20797E-04-4.71263E-15
 -1      1850 3.65197E-03-5.47496E-04-5.74257E-15
 -1      1851 3.80112E-03-5.42921E-04-6.20043E-15
 -1      1852 3.57122E-03-5.11930E-04-5.56478E-15
 -1      1853 3.95158E-03-5.38492E-04-6.67320E-15
 -1      1854 4.10360E-03-5.34460E-04-7.16278E-15
 -1      1855 3.86740E-03-5.02322E-04-6.48141E-15
 -1      1856 4.25716E-03-5.31146E-04-7.66673E-15
 -1      1857 4.41253E-03-5.28888E-04-8.18575E-15
 -1      1858 4.16811E-03-4.93692E-04-7.45954E-15
 -1      1859 4.56969E-03-5.28175E-04-8.71955E-15
 -1      1860 4.72891E-03-5.29473E-04-9.26922E-15
 -1      1861 4.47416E-03-4.88454E-04-8.49888E-15
 -1      1862 4.89019E-03-5.33497E-04-9.83495E-15
 -1      1863 5.05371E-03-5.40893E-04-1.04137E-14
 -1      1864 4.78648E-03-4.90080E-04-9.60000E-15
 -1      1865 5.21957E-03-5.52636E-04-1.10067E-14
 -1      1866 5.38772E-03-5.69589E-04-1.16139E-14
 -1      1867 5.10619E-03-5.03513E-04-1.07598E-14
 -1      1868 5.55848E-03-5.92930E-04-1.22369E-14
 -1      1869 5.73130E-03-6.23719E-04-1.28734E-14
 -1      1870 5.43462E-03-5.35489E-04-1.19770E-14
 -1      1871 5.90689E-03-6.63073E-04-1.35246E-14
 -1      1872 6.08393E-03-7.12057E-04-1.41920E-14
 -1      1873 5.77327E-03-5.94455E-04-1.32527E-14
 -1      1874 6.26351E-03-7.71177E-04-1.48755E-14
 -1      1875 6.44328E-03-8.40715E-04-1.55763E-14
 -1      1876 6.12332E-03-6.89466E-04-1.45890E-14
 -1      1877 6.62440E-03-9.19665E-04-1.62950E-14
 -1      1878 6.80400E-03-1.00657E-03-1.70315E-14
 -1      1879 6.48394E-03-8.26483E-04-1.59931E-14
 -1      1880 6.98289E-03-1.09795E-03-1.77885E-14
 -1      1881 7.15821E-03-1.18911E-03-1.85654E-14
 -1      1882 6.85034E-03-1.00110E-03-1.74694E-14
 -1      1883 7.32946E-03-1.27465E-03-1.93635E-14
 -1      1884 7.49732E-03-1.34715E-03-2.01833E-14
 -1      1885 7.21218E-03-1.18897E-03-1.90260E-14
 -1      1886 7.66002E-03-1.40113E-03-2.10250E-14
 -1      1887 7.82231E-03-1.43150E-03-2.18864E-14
 -1      1888 7.55903E-03-1.34101E-03-2.06666E-14
 -1      1889 7.98184E-03-1.43629E-03-2.27700E-14
 -1      1890 8.14515E-03-1.41645E-03-2.36729E-14
 -1      1891 7.89311E-03-1.40435E-03-2.23936E-14
 -1      1892 8.31000E-03-1.37519E-03-2.45956E-14
 -1      1893 8.48007E-03-1.31884E-03-2.55370E-14
 -1      1894 8.22958E-03-1.36022E-03-2.42019E-14
 -1      1895 8.65393E-03-1.25325E-03-2.64959E-14
 -1      1896 8.83092E-03-1.18517E-03-2.74731E-14
 -1      1897 8.58125E-03-1.24037E-03-2.60853E-14
 -1      1898 9.01093E-03-1.11974E-03-2.84678E-14
 -1      1899 9.19111E-03-1.06070E-03-2.94776E-14
 -1      1900 8.94563E-03-1.10004E-03-2.80393E-14
 -1      1901 9.37238E-03-1.01073E-03-3.05035E-14
 -1      1902 9.55182E-03-9.70716E-04-3.15439E-14
 -1      1903 9.31151E-03-9.82082E-04-3.00589E-14
 -1      1904 9.73067E-03-9.41156E-04-3.25984E-14
 -1      1905 9.90690E-03-9.21397E-04-3.36676E-14
 -1      1906 9.66987E-03-9.04572E-04-3.21372E-14
 -1      1907 1.00815E-02-9.10694E-04-3.47516E-14
 -1      1908 1.02534E-02-9.07953E-04-3.58442E-14
 -1      1909 1.00172E-02-8.67987E-04-3.42734E-14
 -1      1910 1.04233E-02-9.11996E-04-3.69484E-14
 -1      1911 1.05906E-02-9.21814E-04-3.80638E-14
 -1      1912 1.03535E-02-8.64909E-04-3.64587E-14
 -1      1913 1.07557E-02-9.36271E-04-3.91868E-14
 -1      1914 1.09187E-02-9.54579E-04-4.03207E-14
 -1      1915 1.06802E-02-8.86271E-04-3.86863E-14
 -1      1916 1.10796E-02-9.75841E-04-4.14605E-14
 -1      1917 1.12386E-02-9.99481E-04-4.26057E-14
 -1      1918 1.09989E-02-9.24086E-04-4.09478E-14
 -1      1919 1.13957E-02-1.02487E-03-4.37590E-14
 -1      1920 1.15513E-02-1.05160E-03-4.49171E-14
 -1      1921 1.13109E-02-9.72213E-04-4.32417E-14
 -1      1922 1.17052E-02-1.07926E-03-4.60799E-14
 -1      1923 1.18579E-02-1.10757E-03-4.72470E-14
 -1      1924 1.16173E-02-1.02629E-03-4.55585E-14
 -1      1925 1.20092E-02-1.13629E-03-4.84179E-14
 -1      1926 1.21595E-02-1.16523E-03-4.95941E-14
 -1      1927 1.19191E-02-1.08339E-03-4.78930E-14
 -1      1928 1.23088E-02-1.19424E-03-5.07766E-14
 -1      1929 1.24572E-02-1.22321E-03-5.19663E-14
 -1      1930 1.22172E-02-1.14162E-03-5.02515E-14
 -1      1931 1.26047E-02-1.25207E-03-5.31635E-14
 -1      1932 1.27516E-02-1.28073E-03-5.43685E-14
 -1      1933 1.25122E-02-1.19984E-03-5.26365E-14
 -1      1934 1.28979E-02-1.30919E-03-5.55815E-14
 -1      1935 1.30436E-02-1.33738E-03-5.68024E-14
 -1      1936 1.28048E-02-1.25739E-03-5.50512E-14
 -1      1937 1.31889E-02-1.36531E-03-5.80316E-14
 -1      1938 1.33337E-02-1.39296E-03-5.92685E-14
 -1      1939 1.30955E-02-1.31394E-03-5.74949E-14
 -1      1940 1.34783E-02-1.42034E-03-6.05099E-14
 -1      1941 1.36225E-02-1.44744E-03-6.17598E-14
 -1      1942 1.33848E-02-1.36937E-03-5.99694E-14
 -1      1943 1.37664E-02-1.47428E-03-6.30198E-14
 -1      1944 1.39102E-02-1.50086E-03-6.42844E-14
 -1      1945 1.36730E-02-1.42366E-03-6.24696E-14
 -1      1946 1.40537E-02-1.52721E-03-6.55568E-14
 -1      1947 1.41971E-02-1.55332E-03-6.68374E-14
 -1      1948 1.39604E-02-1.47689E-03-6.50017E-14
 -1      1949 1.43404E-02-1.57923E-03-6.81250E-14
 -1      1950 1.44836E-02-1.60494E-03-6.94151E-14
 -1      1951 1.42471E-02-1.52917E-03-6.75557E-14
 -1      1952 1.46267E-02-1.63047E-03-7.07125E-14
 -1      1953 1.47697E-02-1.65584E-03-7.20145E-14
 -1      1954 1.45335E-02-1.58062E-03-7.01372E-14
 -1      1955 1.48988E-02-1.68013E-03-7.31817E-14
 -1      1956 1.50417E-02-1.70526E-03-7.44965E-14
 -1      1957 1.50637E-02-1.67884E-03-7.49395E-14
 -1      1958 1.48056E-02-1.63043E-03-7.25986E-14
 -1      1959 1.13753E-03 4.73554E-04-3.87169E-16
 -1      1960 9.95709E-04 4.41534E-04-2.80524E-16
 -1      1961 9.63742E-04 4.12219E-04-2.92125E-16
 -1      1962 1.41702E-03 5.22165E-04-6.56769E-16
 -1      1963 1.27763E-03 5.00221E-04-5.12448E-16
 -1      1964 1.24845E-03 4.72233E-04-5.24415E-16
 -1      1965 1.69426E-03 5.54967E-04-1.00171E-15
 -1      1966 1.55573E-03 5.40299E-04-8.19806E-16
 -1      1967 1.52933E-03 5.13281E-04-8.31597E-16
 -1      1968 1.97134E-03 5.76059E-04-1.42296E-15
 -1      1969 1.83271E-03 5.66807E-04-1.20273E-15
 -1      1970 1.80870E-03 5.40422E-04-1.21402E-15
 -1      1971 2.24957E-03 5.88345E-04-1.91969E-15
 -1      1972 2.11025E-03 5.83174E-04-1.66207E-15
 -1      1973 2.08814E-03 5.57175E-04-1.67203E-15
 -1      1974 2.52980E-03 5.94007E-04-2.49123E-15
 -1      1975 2.38939E-03 5.91900E-04-2.19596E-15
 -1      1976 2.36871E-03 5.66107E-04-2.20490E-15
 -1      1977 2.81264E-03 5.94773E-04-3.13875E-15
 -1      1978 2.67086E-03 5.94914E-04-2.80533E-15
 -1      1979 2.65113E-03 5.69183E-04-2.81216E-15
 -1      1980 3.09860E-03 5.92104E-04-3.86285E-15
 -1      1981 2.95520E-03 5.93786E-04-3.49106E-15
 -1      1982 2.93596E-03 5.67999E-04-3.49554E-15
 -1      1983 3.38812E-03 5.87357E-04-4.66126E-15
 -1      1984 3.24288E-03 5.89908E-04-4.25292E-15
 -1      1985 3.22368E-03 5.63948E-04-4.25426E-15
 -1      1986 3.68164E-03 5.81932E-04-5.53431E-15
 -1      1987 3.53435E-03 5.84639E-04-5.08847E-15
 -1      1988 3.51471E-03 5.58382E-04-5.08682E-15
 -1      1989 3.97954E-03 5.77417E-04-6.48128E-15
 -1      1990 3.83001E-03 5.79455E-04-5.99831E-15
 -1      1991 3.80947E-03 5.52763E-04-5.99229E-15
 -1      1992 4.28214E-03 5.75722E-04-7.50306E-15
 -1      1993 4.13023E-03 5.76093E-04-6.98282E-15
 -1      1994 4.10832E-03 5.48801E-04-6.97227E-15
 -1      1995 4.58956E-03 5.79163E-04-8.59829E-15
 -1      1996 4.43524E-03 5.76659E-04-8.04204E-15
 -1      1997 4.41155E-03 5.48581E-04-8.02686E-15
 -1      1998 4.90162E-03 5.90455E-04-9.76723E-15
 -1      1999 4.74504E-03 5.83679E-04-9.17354E-15
 -1      2000 4.71927E-03 5.54615E-04-9.15332E-15
 -1      2001 5.21766E-03 6.12508E-04-1.10057E-14
 -1      2002 5.05923E-03 6.00005E-04-1.03777E-14
 -1      2003 5.03132E-03 5.69778E-04-1.03520E-14
 -1      2004 5.53634E-03 6.47908E-04-1.23138E-14
 -1      2005 5.37683E-03 6.28473E-04-1.16510E-14
 -1      2006 5.34707E-03 5.96994E-04-1.16196E-14
 -1      2007 5.85553E-03 6.97956E-04-1.36923E-14
 -1      2008 5.69611E-03 6.71170E-04-1.29941E-14
 -1      2009 5.66529E-03 6.38547E-04-1.29564E-14
 -1      2010 6.17235E-03 7.61263E-04-1.51395E-14
 -1      2011 6.01454E-03 7.28243E-04-1.44073E-14
 -1      2012 5.98395E-03 6.94909E-04-1.43640E-14
 -1      2013 6.48357E-03 8.32205E-04-1.66571E-14
 -1      2014 6.32896E-03 7.96346E-04-1.58886E-14
 -1      2015 6.30030E-03 7.63161E-04-1.58413E-14
 -1      2016 6.78641E-03 9.00122E-04-1.82471E-14
 -1      2017 6.63622E-03 8.67351E-04-1.74431E-14
 -1      2018 6.61122E-03 8.35516E-04-1.73886E-14
 -1      2019 7.07987E-03 9.50419E-04-1.99137E-14
 -1      2020 6.93425E-03 9.28341E-04-1.90719E-14
 -1      2021 6.91425E-03 8.99066E-04-1.90106E-14
 -1      2022 7.36576E-03 9.68312E-04-2.16509E-14
 -1      2023 7.22341E-03 9.64022E-04-2.07727E-14
 -1      2024 7.20905E-03 9.37989E-04-2.07052E-14
 -1      2025 7.64873E-03 9.44320E-04-2.34597E-14
 -1      2026 7.50707E-03 9.61643E-04-2.25463E-14
 -1      2027 7.49831E-03 9.38578E-04-2.24713E-14
 -1      2028 7.93455E-03 8.78318E-04-2.53387E-14
 -1      2029 7.79075E-03 9.16080E-04-2.43907E-14
 -1      2030 7.78722E-03 8.94892E-04-2.43100E-14
 -1      2031 8.22794E-03 7.79605E-04-2.72836E-14
 -1      2032 8.07999E-03 8.32189E-04-2.63037E-14
 -1      2033 8.08110E-03 8.11505E-04-2.62190E-14
 -1      2034 8.53076E-03 6.62886E-04-2.92929E-14
 -1      2035 8.37812E-03 7.22607E-04-2.82804E-14
 -1      2036 8.38311E-03 7.01366E-04-2.81906E-14
 -1      2037 8.84209E-03 5.42775E-04-3.13632E-14
 -1      2038 8.68553E-03 6.02586E-04-3.03207E-14
 -1      2039 8.69329E-03 5.80303E-04-3.02262E-14
 -1      2040 9.15923E-03 4.30028E-04-3.34929E-14
 -1      2041 9.00020E-03 4.85122E-04-3.24199E-14
 -1      2042 9.00941E-03 4.61778E-04-3.23213E-14
 -1      2043 9.47900E-03 3.30353E-04-3.56730E-14
 -1      2044 9.31907E-03 3.78461E-04-3.45766E-14
 -1      2045 9.32841E-03 3.54276E-04-3.44706E-14
 -1      2046 9.79857E-03 2.45227E-04-3.79038E-14
 -1      2047 9.63904E-03 2.86044E-04-3.67828E-14
 -1      2048 9.64749E-03 2.61301E-04-3.66727E-14
 -1      2049 1.01159E-02 1.73421E-04-4.01803E-14
 -1      2050 9.95766E-03 2.07810E-04-3.90372E-14
 -1      2051 9.96458E-03 1.82766E-04-3.89215E-14
 -1      2052 1.04296E-02 1.12427E-04-4.25071E-14
 -1      2053 1.02733E-02 1.41741E-04-4.13371E-14
 -1      2054 1.02784E-02 1.16596E-04-4.12182E-14
 -1      2055 1.07393E-02 5.94377E-05-4.48855E-14
 -1      2056 1.05850E-02 8.50840E-05-4.36896E-14
 -1      2057 1.05884E-02 5.99823E-05-4.35648E-14
 -1      2058 1.10448E-02 1.18973E-05-4.73251E-14
 -1      2059 1.08925E-02 3.51095E-05-4.60976E-14
 -1      2060 1.08944E-02 1.01449E-05-4.59680E-14
 -1      2061 1.13463E-02-3.22768E-05-4.98130E-14
 -1      2062 1.11960E-02-1.05187E-05-4.85632E-14
 -1      2063 1.11966E-02-3.52927E-05-4.84243E-14
 -1      2064 1.16444E-02-7.46519E-05-5.23386E-14
 -1      2065 1.14957E-02-5.36251E-05-5.10710E-14
 -1      2066 1.14954E-02-7.81851E-05-5.09253E-14
 -1      2067 1.19394E-02-1.16334E-04-5.48933E-14
 -1      2068 1.17922E-02-9.55375E-05-5.36149E-14
 -1      2069 1.17912E-02-1.19882E-04-5.34594E-14
 -1      2070 1.22321E-02-1.58052E-04-5.74631E-14
 -1      2071 1.20860E-02-1.37163E-04-5.61762E-14
 -1      2072 1.20845E-02-1.61304E-04-5.60169E-14
 -1      2073 1.25228E-02-2.00252E-04-6.00428E-14
 -1      2074 1.23777E-02-1.79078E-04-5.87504E-14
 -1      2075 1.23758E-02-2.03037E-04-5.85860E-14
 -1      2076 1.28120E-02-2.43173E-04-6.26327E-14
 -1      2077 1.26676E-02-2.21617E-04-6.13378E-14
 -1      2078 1.26656E-02-2.45417E-04-6.11651E-14
 -1      2079 1.31000E-02-2.86916E-04-6.52307E-14
 -1      2080 1.29561E-02-2.64942E-04-6.39329E-14
 -1      2081 1.29541E-02-2.88608E-04-6.37579E-14
 -1      2082 1.33872E-02-3.31488E-04-6.78319E-14
 -1      2083 1.32437E-02-3.09102E-04-6.65302E-14
 -1      2084 1.32417E-02-3.32658E-04-6.63515E-14
 -1      2085 1.36738E-02-3.76841E-04-7.04405E-14
 -1      2086 1.35306E-02-3.54072E-04-6.91330E-14
 -1      2087 1.35286E-02-3.77540E-04-6.89496E-14
 -1      2088 1.39600E-02-4.22889E-04-7.30674E-14
 -1      2089 1.38170E-02-3.99784E-04-7.17525E-14
 -1      2090 1.38150E-02-4.23184E-04-7.15618E-14
 -1      2091 1.42459E-02-4.69516E-04-7.57063E-14
 -1      2092 1.41030E-02-4.46138E-04-7.43860E-14
 -1      2093 1.41011E-02-4.69486E-04-7.41908E-14
 -1      2094 1.44826E-02-5.11170E-04-7.78773E-14
 -1      2095 1.43397E-02-4.87630E-04-7.65529E-14
 -1      2096 1.43378E-02-5.10949E-04-7.63542E-14
 -1      2097 1.45253E-02-5.47273E-04-7.80451E-14
 -1      2098 1.46245E-02-7.76093E-04-7.72754E-14
 -1      2099 1.46008E-02-7.34197E-04-7.73602E-14
 -1      2100 1.45772E-02-6.92240E-04-7.74424E-14
 -1      2101 1.45537E-02-6.50236E-04-7.75292E-14
 -1      2102 1.44653E-02-6.92766E-04-7.62738E-14
 -1      2103 1.45511E-02-6.19820E-04-7.77440E-14
 -1      2104 1.45278E-02-5.77739E-04-7.78290E-14
 -1      2105 1.44340E-02-5.59561E-04-7.69863E-14
 -1      2106 1.44391E-02-6.20427E-04-7.65629E-14
 -1      2107 1.46714E-02-8.58301E-04-7.71182E-14
 -1      2108 1.46479E-02-8.17227E-04-7.71958E-14
 -1      2109 1.45124E-02-7.75775E-04-7.61177E-14
 -1      2110 1.47192E-02-9.41705E-04-7.69678E-14
 -1      2111 1.46953E-02-9.00029E-04-7.70420E-14
 -1      2112 1.45597E-02-8.58534E-04-7.59644E-14
 -1      2113 1.47671E-02-1.02493E-03-7.68247E-14
 -1      2114 1.47431E-02-9.83333E-04-7.68972E-14
 -1      2115 1.46076E-02-9.41768E-04-7.58171E-14
 -1      2116 1.48149E-02-1.10804E-03-7.66909E-14
 -1      2117 1.47910E-02-1.06649E-03-7.67552E-14
 -1      2118 1.46555E-02-1.02482E-03-7.56755E-14
 -1      2119 1.48626E-02-1.19112E-03-7.65528E-14
 -1      2120 1.48387E-02-1.14957E-03-7.66225E-14
 -1      2121 1.47033E-02-1.10778E-03-7.55390E-14
 -1      2122 1.49102E-02-1.27428E-03-7.64163E-14
 -1      2123 1.48864E-02-1.23268E-03-7.64842E-14
 -1      2124 1.47510E-02-1.19074E-03-7.54024E-14
 -1      2125 1.49570E-02-1.35617E-03-7.62900E-14
 -1      2126 1.49335E-02-1.31520E-03-7.63507E-14
 -1      2127 1.47981E-02-1.27309E-03-7.52695E-14
 -1      2128 1.50047E-02-1.43969E-03-7.61617E-14
 -1      2129 1.49808E-02-1.39790E-03-7.62259E-14
 -1      2130 1.48453E-02-1.35562E-03-7.51362E-14
 -1      2131 1.50527E-02-1.52344E-03-7.60271E-14
 -1      2132 1.50286E-02-1.48154E-03-7.60951E-14
 -1      2133 1.48930E-02-1.43908E-03-7.50016E-14
 -1      2134 1.51011E-02-1.60741E-03-7.58934E-14
 -1      2135 1.50768E-02-1.56540E-03-7.59614E-14
 -1      2136 1.49411E-02-1.52281E-03-7.48642E-14
 -1      2137 9.55368E-03-1.92052E-04-2.79167E-14
 -1      2138 9.70022E-03-2.43652E-04-2.81425E-14
 -1      2139 9.98162E-03-3.35664E-04-2.83843E-14
 -1      2140 9.99277E-03-3.49634E-04-2.83637E-14
 -1      2141 9.85548E-03-2.89863E-04-2.82361E-14
 -1      2142 9.93638E-03-3.13509E-04-2.83085E-14
 -1      2143 9.97144E-03-3.38422E-04-2.88795E-14
 -1      2144 9.16824E-03-8.80836E-06-2.70691E-14
 -1      2145 9.34810E-03-9.69098E-05-2.74489E-14
 -1      2146 8.77847E-03 1.92846E-04-2.62687E-14
 -1      2147 8.97720E-03 8.86577E-05-2.66666E-14
 -1      2148 9.05113E-03 1.48410E-05-2.72624E-14
 -1      2149 3.27524E-04-8.76739E-05-1.04382E-16
 -1      2150 3.29592E-04-1.00820E-04-1.00411E-16
 -1      2151 4.46671E-04-1.43190E-04-1.46056E-16
 -1      2152 4.40450E-04-1.08140E-04-1.56559E-16
 -1      2153 8.02344E-03 5.99421E-04-2.40989E-14
 -1      2154 8.18278E-03 5.25971E-04-2.45946E-14
 -1      2155 7.67765E-03 6.92033E-04-2.28802E-14
 -1      2156 7.81844E-03 6.66607E-04-2.34114E-14
 -1      2157 7.39064E-03 6.67857E-04-2.18672E-14
 -1      2158 7.53426E-03 6.91893E-04-2.23702E-14
 -1      2159 7.60470E-03 7.03526E-04-2.26303E-14
 -1      2160 7.03986E-03 5.42502E-04-2.07858E-14
 -1      2161 7.19653E-03 6.10682E-04-2.12606E-14
 -1      2162 6.67273E-03 3.58161E-04-1.98465E-14
 -1      2163 6.84308E-03 4.48481E-04-2.02532E-14
 -1      2164 6.29241E-03 1.66572E-04-1.90826E-14
 -1      2165 6.46962E-03 2.56169E-04-1.94249E-14
 -1      2166 5.95075E-03 5.72766E-06-1.84358E-14
 -1      2167 6.11674E-03 8.25144E-05-1.87575E-14
 -1      2168 6.22526E-03 1.13778E-04-1.86995E-14
 -1      2169 5.62774E-03-1.13363E-04-1.79884E-14
 -1      2170 5.75312E-03-7.36743E-05-1.81131E-14
 -1      2171 5.47145E-03-1.69642E-04-1.77661E-14
 -1      2172 5.53511E-03-1.46174E-04-1.78776E-14
 -1      2173 5.57628E-03-1.40007E-04-1.76339E-14
 -1      2174 5.45434E-03-2.12864E-04-1.77228E-14
 -1      2175 5.44068E-03-1.95731E-04-1.77026E-14
 -1      2176 5.59528E-03-2.73574E-04-1.79033E-14
 -1      2177 5.51129E-03-2.42356E-04-1.77960E-14
 -1      2178 5.85991E-03-3.71662E-04-1.81702E-14
 -1      2179 5.72165E-03-3.17783E-04-1.80011E-14
 -1      2180 6.20598E-03-5.28230E-04-1.86290E-14
 -1      2181 6.02203E-03-4.44492E-04-1.83980E-14
 -1      2182 5.94310E-03-3.76145E-04-1.79591E-14
 -1      2183 6.65361E-03-7.77723E-04-1.94125E-14
 -1      2184 6.46384E-03-6.63332E-04-1.90389E-14
 -1      2185 7.02143E-03-9.92458E-04-2.01692E-14
 -1      2186 6.83884E-03-8.85691E-04-1.97881E-14
 -1      2187 6.76869E-03-8.14554E-04-1.93586E-14
 -1      2188 7.40864E-03-1.19820E-03-2.12132E-14
 -1      2189 7.25359E-03-1.11856E-03-2.07423E-14
 -1      2190 7.71759E-03-1.28580E-03-2.22304E-14
 -1      2191 7.57130E-03-1.25498E-03-2.17487E-14
 -1      2192 8.03453E-03-1.26771E-03-2.33060E-14
 -1      2193 7.88338E-03-1.29208E-03-2.27776E-14
 -1      2194 8.41080E-03-1.12326E-03-2.45043E-14
 -1      2195 8.24125E-03-1.20165E-03-2.39915E-14
 -1      2196 8.76335E-03-9.30134E-04-2.55441E-14
 -1      2197 8.58860E-03-1.03189E-03-2.50377E-14
 -1      2198 9.17801E-03-7.10042E-04-2.65232E-14
 -1      2199 8.99716E-03-8.02416E-04-2.61428E-14
 -1      2200 9.51483E-03-5.53318E-04-2.72098E-14
 -1      2201 9.35726E-03-6.26967E-04-2.68629E-14
 -1      2202 9.80124E-03-4.34868E-04-2.78398E-14
 -1      2203 9.68317E-03-4.77051E-04-2.76322E-14
 -1      2204 9.96044E-03-3.74974E-04-2.81147E-14
 -1      2205 9.89853E-03-3.99590E-04-2.79584E-14
 -1      2206 8.35582E-03 4.38169E-04-2.51009E-14
 -1      2207 8.53076E-03 3.34428E-04-2.56127E-14
 -1      2208 8.24396E-03 4.79937E-04-2.50287E-14
 -1      2209 8.63589E-03 2.50483E-04-2.61960E-14
 -1      2210 6.07297E-04-2.95468E-04-1.48983E-16
 -1      2211 7.31329E-03 6.52556E-04-2.15145E-14
 -1      2212 6.63360E-04-2.89307E-04-2.03139E-16
 -1      2213 9.79042E-03-2.89515E-04-2.87071E-14
 -1      2214 9.44024E-03-1.69097E-04-2.81389E-14
 -1      2215 1.50789E-02-1.63381E-03-7.54548E-14
 -1      2216 9.98677E-03-3.59993E-04-2.87061E-14
 -1      2217 9.85427E-03-4.05759E-04-2.83367E-14
 -1      2218 9.59813E-03-4.97649E-04-2.77888E-14
 -1      2219 9.25609E-03-6.50707E-04-2.70202E-14
 -1      2220 8.86678E-03-8.59194E-04-2.60721E-14
 -1      2221 8.48342E-03-1.07911E-03-2.49345E-14
 -1      2222 8.13274E-03-1.24475E-03-2.37099E-14
 -1      2223 7.80393E-03-1.30206E-03-2.24774E-14
 -1      2224 7.15691E-03-1.05459E-03-2.02947E-14
 -1      2225 6.34520E-03-5.72130E-04-1.85837E-14
 -1      2226 5.66091E-03-2.73494E-04-1.76414E-14
 -1      2227 5.44689E-03-1.82329E-04-1.74628E-14
 -1      2228 5.85276E-03-4.81296E-05-1.80586E-14
 -1      2229 5.95118E-03-1.56883E-05-1.80016E-14
 -1      2230 5.76345E-03-8.48537E-05-1.76862E-14
 -1      2231 6.58751E-03 2.98836E-04-1.94374E-14
 -1      2232 7.90265E-03 6.42321E-04-2.38268E-14
 -1      2233 6.95902E-03 4.97857E-04-2.03812E-14
 -1      2234 5.47693E-03-2.15795E-04-1.74739E-14
 -1      2235 7.50788E-03-1.23712E-03-2.13971E-14
 -1      2236 1.01638E-03 3.94071E-04-3.73806E-16
 -1      2237 8.71841E-04 3.58856E-04-2.72474E-16
 -1      2238 5.48038E-04-5.40006E-05-2.35150E-16
 -1      2239 5.49134E-04-7.03979E-05-2.34039E-16
 -1      2240 5.50614E-04-8.74400E-05-2.32168E-16
 -1      2241 5.52533E-04-1.05179E-04-2.29268E-16
 -1      2242 6.65587E-04-9.32679E-05-3.15557E-16
 -1      2243 5.46537E-04 8.64935E-06-2.33564E-16
 -1      2244 5.46520E-04-6.79506E-06-2.34933E-16
 -1      2245 5.47342E-04 3.99004E-05-2.28956E-16
 -1      2246 5.46808E-04 2.41984E-05-2.31613E-16
 -1      2247 6.61347E-04 1.94220E-05-3.15110E-16
 -1      2248 5.49272E-04 7.18672E-05-2.22058E-16
 -1      2249 5.48154E-04 5.56869E-05-2.25907E-16
 -1      2250 6.62771E-04 5.63507E-05-3.08727E-16
 -1      2251 5.52773E-04 1.06823E-04-2.12083E-16
 -1      2252 5.50799E-04 8.89851E-05-2.17559E-16
 -1      2253 6.65796E-04 9.50219E-05-2.98847E-16
 -1      2254 5.58696E-04 1.45820E-04-1.97406E-16
 -1      2255 5.55370E-04 1.25741E-04-2.05334E-16
 -1      2256 6.71048E-04 1.37179E-04-2.84630E-16
 -1      2257 5.68913E-04 1.91251E-04-1.76589E-16
 -1      2258 5.63156E-04 1.67597E-04-1.88136E-16
 -1      2259 6.79757E-04 1.84325E-04-2.64600E-16
 -1      2260 1.30221E-03 4.48270E-04-6.31250E-16
 -1      2261 1.15966E-03 4.23769E-04-4.93136E-16
 -1      2262 1.07200E-03 3.74990E-04-4.59905E-16
 -1      2263 9.15281E-04-3.41345E-04-3.93037E-16
 -1      2264 1.05950E-03-3.73429E-04-5.17273E-16
 -1      2265 7.22528E-03 6.26056E-04-2.10720E-14
 -1      2266 7.37741E-03 6.81502E-04-2.16730E-14
 -1      2267 8.50141E-03 3.12697E-04-2.62179E-14
 -1      2268 8.71727E-03 1.79937E-04-2.68818E-14
 -1      2269 1.20293E-03-4.00422E-04-6.59656E-16
 -1      2270 1.34599E-03-4.22752E-04-8.20172E-16
 -1      2271 1.11756E-03-3.53647E-04-6.07235E-16
 -1      2272 1.48849E-03-4.41236E-04-9.99201E-16
 -1      2273 1.63069E-03-4.56162E-04-1.19650E-15
 -1      2274 1.40430E-03-3.97328E-04-9.32658E-16
 -1      2275 1.77264E-03-4.68169E-04-1.41173E-15
 -1      2276 1.91448E-03-4.77464E-04-1.64522E-15
 -1      2277 1.69012E-03-4.26757E-04-1.33009E-15
 -1      2278 2.05631E-03-4.84516E-04-1.89670E-15
 -1      2279 2.19821E-03-4.89501E-04-2.16626E-15
 -1      2280 1.97534E-03-4.45136E-04-1.79963E-15
 -1      2281 2.34026E-03-4.92755E-04-2.45324E-15
 -1      2282 2.48254E-03-4.94427E-04-2.75862E-15
 -1      2283 2.26046E-03-4.54988E-04-2.34003E-15
 -1      2284 2.62511E-03-4.94763E-04-3.08237E-15
 -1      2285 2.76803E-03-4.93895E-04-3.42325E-15
 -1      2286 2.54592E-03-4.58263E-04-2.95209E-15
 -1      2287 2.91135E-03-4.92011E-04-3.78186E-15
 -1      2288 3.05515E-03-4.89233E-04-4.15790E-15
 -1      2289 2.83213E-03-4.56490E-04-3.63589E-15
 -1      2290 3.19943E-03-4.85723E-04-4.55006E-15
 -1      2291 3.34431E-03-4.81604E-04-4.95999E-15
 -1      2292 3.11940E-03-4.50919E-04-4.38819E-15
 -1      2293 3.48977E-03-4.77041E-04-5.38674E-15
 -1      2294 3.63595E-03-4.72174E-04-5.82978E-15
 -1      2295 3.40803E-03-4.42676E-04-5.20828E-15
 -1      2296 3.78281E-03-4.67201E-04-6.28783E-15
 -1      2297 3.93053E-03-4.62300E-04-6.76216E-15
 -1      2298 3.69830E-03-4.32920E-04-6.09450E-15
 -1      2299 4.07905E-03-4.57744E-04-7.25198E-15
 -1      2300 4.22860E-03-4.53775E-04-7.75744E-15
 -1      2301 3.99052E-03-4.23037E-04-7.04422E-15
 -1      2302 4.37912E-03-4.50780E-04-8.27875E-15
 -1      2303 4.53086E-03-4.49113E-04-8.81383E-15
 -1      2304 4.28513E-03-4.14861E-04-8.05619E-15
 -1      2305 4.68381E-03-4.49316E-04-9.36469E-15
 -1      2306 4.83825E-03-4.51913E-04-9.93173E-15
 -1      2307 4.58275E-03-4.10955E-04-9.12992E-15
 -1      2308 4.99430E-03-4.57628E-04-1.05120E-14
 -1      2309 5.15222E-03-4.67247E-04-1.11065E-14
 -1      2310 4.88447E-03-4.14939E-04-1.02631E-14
 -1      2311 5.31237E-03-4.81645E-04-1.17162E-14
 -1      2312 5.47490E-03-5.01985E-04-1.23407E-14
 -1      2313 5.19221E-03-4.31867E-04-1.14548E-14
 -1      2314 5.64058E-03-5.29161E-04-1.29795E-14
 -1      2315 5.80924E-03-5.64778E-04-1.36328E-14
 -1      2316 5.50913E-03-4.68609E-04-1.27051E-14
 -1      2317 5.98217E-03-6.09465E-04-1.43019E-14
 -1      2318 6.15845E-03-6.65130E-04-1.49880E-14
 -1      2319 5.83997E-03-5.34073E-04-1.40151E-14
 -1      2320 6.33966E-03-7.31842E-04-1.56910E-14
 -1      2321 6.52349E-03-8.10055E-04-1.64113E-14
 -1      2322 6.19012E-03-6.39175E-04-1.53890E-14
 -1      2323 6.71172E-03-8.97654E-04-1.71520E-14
 -1      2324 6.89967E-03-9.93549E-04-1.79099E-14
 -1      2325 6.56265E-03-7.91651E-04-1.68327E-14
 -1      2326 7.08810E-03-1.09466E-03-1.86890E-14
 -1      2327 7.27259E-03-1.19022E-03-1.94890E-14
 -1      2328 6.94998E-03-9.88612E-04-1.83518E-14
 -1      2329 7.45188E-03-1.27469E-03-2.03095E-14
 -1      2330 7.62801E-03-1.33698E-03-2.11518E-14
 -1      2331 7.33419E-03-1.19575E-03-1.99521E-14
 -1      2332 7.79800E-03-1.37213E-03-2.20170E-14
 -1      2333 7.97040E-03-1.37537E-03-2.29028E-14
 -1      2334 7.69838E-03-1.33318E-03-2.16382E-14
 -1      2335 8.14200E-03-1.34761E-03-2.38069E-14
 -1      2336 8.32051E-03-1.29648E-03-2.47318E-14
 -1      2337 8.05357E-03-1.33737E-03-2.34113E-14
 -1      2338 8.50297E-03-1.22773E-03-2.56747E-14
 -1      2339 8.68933E-03-1.15316E-03-2.66343E-14
 -1      2340 8.42335E-03-1.21947E-03-2.52622E-14
 -1      2341 8.87839E-03-1.07839E-03-2.76111E-14
 -1      2342 9.06593E-03-1.00993E-03-2.86057E-14
 -1      2343 8.81032E-03-1.05753E-03-2.71831E-14
 -1      2344 9.25261E-03-9.51073E-04-2.96149E-14
 -1      2345 9.43470E-03-9.02917E-04-3.06389E-14
 -1      2346 9.19515E-03-9.18511E-04-2.91704E-14
 -1      2347 9.61387E-03-8.66638E-04-3.16796E-14
 -1      2348 9.78811E-03-8.40770E-04-3.27306E-14
 -1      2349 9.56177E-03-8.27005E-04-3.12200E-14
 -1      2350 9.95908E-03-8.25223E-04-3.37968E-14
 -1      2351 1.01261E-02-8.18089E-04-3.48774E-14
 -1      2352 9.90649E-03-7.81798E-04-3.33245E-14
 -1      2353 1.02903E-02-8.18659E-04-3.59696E-14
 -1      2354 1.04518E-02-8.25436E-04-3.70711E-14
 -1      2355 1.02333E-02-7.72836E-04-3.54793E-14
 -1      2356 1.06110E-02-8.37516E-04-3.81833E-14
 -1      2357 1.07683E-02-8.53861E-04-3.93062E-14
 -1      2358 1.05477E-02-7.89832E-04-3.76814E-14
 -1      2359 1.09238E-02-8.73628E-04-4.04363E-14
 -1      2360 1.10780E-02-8.96137E-04-4.15750E-14
 -1      2361 1.08541E-02-8.24466E-04-3.99240E-14
 -1      2362 1.12308E-02-9.20713E-04-4.27234E-14
 -1      2363 1.13825E-02-9.46918E-04-4.38769E-14
 -1      2364 1.11553E-02-8.70466E-04-4.22032E-14
 -1      2365 1.15332E-02-9.74263E-04-4.50354E-14
 -1      2366 1.16831E-02-1.00247E-03-4.61988E-14
 -1      2367 1.14529E-02-9.23315E-04-4.45111E-14
 -1      2368 1.18320E-02-1.03120E-03-4.73677E-14
 -1      2369 1.19803E-02-1.06029E-03-4.85433E-14
 -1      2370 1.17480E-02-9.79884E-04-4.68399E-14
 -1      2371 1.21279E-02-1.08952E-03-4.97251E-14
 -1      2372 1.22750E-02-1.11879E-03-5.09129E-14
 -1      2373 1.20411E-02-1.03809E-03-4.91953E-14
 -1      2374 1.24214E-02-1.14798E-03-5.21078E-14
 -1      2375 1.25675E-02-1.17702E-03-5.33118E-14
 -1      2376 1.23325E-02-1.09661E-03-5.15763E-14
 -1      2377 1.27130E-02-1.20584E-03-5.45183E-14
 -1      2378 1.28583E-02-1.23442E-03-5.57340E-14
 -1      2379 1.26227E-02-1.15465E-03-5.39856E-14
 -1      2380 1.30031E-02-1.26273E-03-5.69600E-14
 -1      2381 1.31477E-02-1.29075E-03-5.81911E-14
 -1      2382 1.29118E-02-1.21177E-03-5.64223E-14
 -1      2383 1.32920E-02-1.31849E-03-5.94285E-14
 -1      2384 1.34361E-02-1.34593E-03-6.06720E-14
 -1      2385 1.32000E-02-1.26778E-03-5.88873E-14
 -1      2386 1.35800E-02-1.37309E-03-6.19214E-14
 -1      2387 1.37237E-02-1.39997E-03-6.31813E-14
 -1      2388 1.34876E-02-1.32263E-03-6.13754E-14
 -1      2389 1.38673E-02-1.42660E-03-6.44462E-14
 -1      2390 1.40107E-02-1.45297E-03-6.57151E-14
 -1      2391 1.37746E-02-1.37637E-03-6.38892E-14
 -1      2392 1.41541E-02-1.47912E-03-6.69918E-14
 -1      2393 1.42973E-02-1.50504E-03-6.82739E-14
 -1      2394 1.40612E-02-1.42910E-03-6.64288E-14
 -1      2395 1.44404E-02-1.53077E-03-6.95625E-14
 -1      2396 1.45835E-02-1.55631E-03-7.08557E-14
 -1      2397 1.43475E-02-1.48094E-03-6.89904E-14
 -1      2398 1.86727E-03 5.09326E-04-1.36882E-15
 -1      2399 1.72638E-03 4.98712E-04-1.15623E-15
 -1      2400 2.14918E-03 5.23723E-04-1.85011E-15
 -1      2401 2.00818E-03 5.17601E-04-1.60023E-15
 -1      2402 1.92708E-03 4.77570E-04-1.52673E-15
 -1      2403 2.43191E-03 5.30802E-04-2.40499E-15
 -1      2404 2.29040E-03 5.28068E-04-2.11819E-15
 -1      2405 2.21088E-03 4.89707E-04-2.03047E-15
 -1      2406 2.71609E-03 5.32414E-04-3.03513E-15
 -1      2407 2.57378E-03 5.32200E-04-2.71079E-15
 -1      2408 2.49525E-03 4.95047E-04-2.60795E-15
 -1      2409 3.00223E-03 5.30084E-04-3.73959E-15
 -1      2410 2.85888E-03 5.31661E-04-3.37757E-15
 -1      2411 2.78072E-03 4.95319E-04-3.25892E-15
 -1      2412 3.29076E-03 5.25170E-04-4.51810E-15
 -1      2413 3.14616E-03 5.27872E-04-4.11963E-15
 -1      2414 3.06770E-03 4.91972E-04-3.98435E-15
 -1      2415 3.58210E-03 5.19020E-04-5.37012E-15
 -1      2416 3.43605E-03 5.22166E-04-4.93507E-15
 -1      2417 3.35660E-03 4.86323E-04-4.78304E-15
 -1      2418 3.87665E-03 5.13123E-04-6.29501E-15
 -1      2419 3.72894E-03 5.15944E-04-5.82370E-15
 -1      2420 3.64782E-03 4.79708E-04-5.65410E-15
 -1      2421 4.17479E-03 5.09247E-04-7.29313E-15
 -1      2422 4.02524E-03 5.10816E-04-6.78479E-15
 -1      2423 3.94176E-03 4.73635E-04-6.59772E-15
 -1      2424 4.47689E-03 5.09561E-04-8.36488E-15
 -1      2425 4.32533E-03 5.08740E-04-7.82030E-15
 -1      2426 4.23889E-03 4.69912E-04-7.61441E-15
 -1      2427 4.78323E-03 5.16674E-04-9.50786E-15
 -1      2428 4.62954E-03 5.12102E-04-8.92690E-15
 -1      2429 4.53972E-03 4.70769E-04-8.70273E-15
 -1      2430 5.09391E-03 5.33552E-04-1.07206E-14
 -1      2431 4.93808E-03 5.23713E-04-1.01057E-14
 -1      2432 4.84479E-03 4.78892E-04-9.86091E-15
 -1      2433 5.40872E-03 5.63163E-04-1.20024E-14
 -1      2434 5.25092E-03 5.46604E-04-1.13534E-14
 -1      2435 5.15458E-03 4.97327E-04-1.10884E-14
 -1      2436 5.72687E-03 6.07724E-04-1.33556E-14
 -1      2437 5.56758E-03 5.83494E-04-1.26702E-14
 -1      2438 5.46934E-03 5.29116E-04-1.23866E-14
 -1      2439 6.04673E-03 6.67424E-04-1.47775E-14
 -1      2440 5.88687E-03 6.35780E-04-1.40571E-14
 -1      2441 5.78874E-03 5.76492E-04-1.37538E-14
 -1      2442 6.36564E-03 7.38703E-04-1.62700E-14
 -1      2443 6.20664E-03 7.02027E-04-1.55152E-14
 -1      2444 6.11134E-03 6.39497E-04-1.51898E-14
 -1      2445 6.68021E-03 8.12602E-04-1.78330E-14
 -1      2446 6.52374E-03 7.76109E-04-1.70431E-14
 -1      2447 6.43421E-03 7.13976E-04-1.66984E-14
 -1      2448 6.98758E-03 8.74651E-04-1.94691E-14
 -1      2449 6.83484E-03 8.46176E-04-1.86417E-14
 -1      2450 6.75324E-03 7.89656E-04-1.82767E-14
 -1      2451 7.28721E-03 9.07759E-04-2.11776E-14
 -1      2452 7.13806E-03 8.95872E-04-2.03144E-14
 -1      2453 7.06485E-03 8.50122E-04-1.99255E-14
 -1      2454 7.58219E-03 8.98162E-04-2.29593E-14
 -1      2455 7.43464E-03 9.08784E-04-2.20591E-14
 -1      2456 7.36858E-03 8.76508E-04-2.16487E-14
 -1      2457 7.87825E-03 8.42199E-04-2.48150E-14
 -1      2458 7.72944E-03 8.75763E-04-2.38790E-14
 -1      2459 7.66855E-03 8.55441E-04-2.34478E-14
 -1      2460 8.18048E-03 7.47629E-04-2.67371E-14
 -1      2461 8.02823E-03 7.98832E-04-2.57674E-14
 -1      2462 7.97149E-03 7.85971E-04-2.53194E-14
 -1      2463 8.49071E-03 6.30275E-04-2.87240E-14
 -1      2464 8.33461E-03 6.90705E-04-2.77223E-14
 -1      2465 8.28202E-03 6.80058E-04-2.72563E-14
 -1      2466 8.80742E-03 5.06816E-04-3.07728E-14
 -1      2467 8.64853E-03 5.68404E-04-2.97400E-14
 -1      2468 8.60034E-03 5.56316E-04-2.92565E-14
 -1      2469 9.12733E-03 3.89854E-04-3.28780E-14
 -1      2470 8.96731E-03 4.46987E-04-3.18185E-14
 -1      2471 8.92315E-03 4.31812E-04-3.13178E-14
 -1      2472 9.44728E-03 2.86201E-04-3.50377E-14
 -1      2473 9.28759E-03 3.36156E-04-3.39507E-14
 -1      2474 9.24628E-03 3.17676E-04-3.34345E-14
 -1      2475 9.76501E-03 1.97841E-04-3.72491E-14
 -1      2476 9.60662E-03 2.40124E-04-3.61373E-14
 -1      2477 9.56662E-03 2.18767E-04-3.56035E-14
 -1      2478 1.00792E-02 1.23678E-04-3.95071E-14
 -1      2479 9.92267E-03 1.59113E-04-3.83722E-14
 -1      2480 9.88259E-03 1.35505E-04-3.78254E-14
 -1      2481 1.03895E-02 6.11475E-05-4.18131E-14
 -1      2482 1.02349E-02 9.11259E-05-4.06549E-14
 -1      2483 1.01938E-02 6.58773E-05-4.00923E-14
 -1      2484 1.06958E-02 7.30764E-06-4.41699E-14
 -1      2485 1.05431E-02 3.33046E-05-4.29849E-14
 -1      2486 1.05004E-02 6.94805E-06-4.24065E-14
 -1      2487 1.09983E-02-4.05590E-05-4.65827E-14
 -1      2488 1.08475E-02-1.72325E-05-4.53683E-14
 -1      2489 1.08030E-02-4.42607E-05-4.47735E-14
 -1      2490 1.12975E-02-8.46877E-05-4.90442E-14
 -1      2491 1.11483E-02-6.29802E-05-4.78077E-14
 -1      2492 1.11021E-02-9.03400E-05-4.71931E-14
 -1      2493 1.15938E-02-1.26777E-04-5.15442E-14
 -1      2494 1.14460E-02-1.05905E-04-5.02901E-14
 -1      2495 1.13984E-02-1.33346E-04-4.96586E-14
 -1      2496 1.18876E-02-1.68036E-04-5.40808E-14
 -1      2497 1.17410E-02-1.47453E-04-5.28094E-14
 -1      2498 1.16923E-02-1.74803E-04-5.21640E-14
 -1      2499 1.21795E-02-2.09272E-04-5.66342E-14
 -1      2500 1.20338E-02-1.88619E-04-5.53546E-14
 -1      2501 1.19843E-02-2.15770E-04-5.46978E-14
 -1      2502 1.24698E-02-2.50982E-04-5.91994E-14
 -1      2503 1.23248E-02-2.30044E-04-5.79160E-14
 -1      2504 1.22747E-02-2.56938E-04-5.72480E-14
 -1      2505 1.27587E-02-2.93440E-04-6.17761E-14
 -1      2506 1.26144E-02-2.72105E-04-6.04861E-14
 -1      2507 1.25639E-02-2.98718E-04-5.98100E-14
 -1      2508 1.30467E-02-3.36763E-04-6.43626E-14
 -1      2509 1.29028E-02-3.14987E-04-6.30677E-14
 -1      2510 1.28521E-02-3.41323E-04-6.23827E-14
 -1      2511 1.33340E-02-3.80968E-04-6.69521E-14
 -1      2512 1.31904E-02-3.58754E-04-6.56569E-14
 -1      2513 1.31395E-02-3.84830E-04-6.49641E-14
 -1      2514 1.36207E-02-4.26010E-04-6.95485E-14
 -1      2515 1.34774E-02-4.03386E-04-6.82487E-14
 -1      2516 1.34264E-02-4.29227E-04-6.75505E-14
 -1      2517 1.39070E-02-4.71803E-04-7.21587E-14
 -1      2518 1.37639E-02-4.48816E-04-7.08509E-14
 -1      2519 1.37129E-02-4.74451E-04-7.01455E-14
 -1      2520 1.41931E-02-5.18236E-04-7.47812E-14
 -1      2521 1.40501E-02-4.94944E-04-7.34684E-14
 -1      2522 1.39991E-02-5.20409E-04-7.27508E-14
 -1      2523 1.43403E-02-5.41421E-04-7.61421E-14
 -1      2524 1.44481E-02-8.58775E-04-7.48086E-14
 -1      2525 1.44242E-02-8.17165E-04-7.48834E-14
 -1      2526 1.44961E-02-9.41815E-04-7.46653E-14
 -1      2527 1.44721E-02-9.00321E-04-7.47366E-14
 -1      2528 1.43366E-02-8.59006E-04-7.36573E-14
 -1      2529 1.43534E-02-6.93333E-04-7.51104E-14
 -1      2530 1.43298E-02-6.51443E-04-7.51861E-14
 -1      2531 1.44005E-02-7.75840E-04-7.49592E-14
 -1      2532 1.43770E-02-7.34801E-04-7.50331E-14
 -1      2533 1.42414E-02-6.93591E-04-7.39487E-14
 -1      2534 1.42888E-02-7.76280E-04-7.38009E-14
 -1      2535 1.45440E-02-1.02468E-03-7.45249E-14
 -1      2536 1.45201E-02-9.83262E-04-7.45944E-14
 -1      2537 1.43847E-02-9.41821E-04-7.35162E-14
 -1      2538 1.45918E-02-1.10746E-03-7.43902E-14
 -1      2539 1.45679E-02-1.06607E-03-7.44566E-14
 -1      2540 1.44326E-02-1.02446E-03-7.33785E-14
 -1      2541 1.46394E-02-1.19026E-03-7.42538E-14
 -1      2542 1.46156E-02-1.14885E-03-7.43212E-14
 -1      2543 1.44803E-02-1.10703E-03-7.32423E-14
 -1      2544 1.46861E-02-1.27179E-03-7.41189E-14
 -1      2545 1.46627E-02-1.23101E-03-7.41859E-14
 -1      2546 1.45274E-02-1.18896E-03-7.31060E-14
 -1      2547 1.47336E-02-1.35494E-03-7.39823E-14
 -1      2548 1.47098E-02-1.31333E-03-7.40521E-14
 -1      2549 1.45745E-02-1.27106E-03-7.29688E-14
 -1      2550 1.47813E-02-1.43835E-03-7.38433E-14
 -1      2551 1.47574E-02-1.39661E-03-7.39145E-14
 -1      2552 1.46219E-02-1.35412E-03-7.28290E-14
 -1      2553 1.48294E-02-1.52207E-03-7.37007E-14
 -1      2554 1.48053E-02-1.48018E-03-7.37706E-14
 -1      2555 1.46696E-02-1.43750E-03-7.26857E-14
 -1      2556 9.31996E-03-1.35420E-04-2.84861E-14
 -1      2557 9.51230E-03-2.13244E-04-2.89613E-14
 -1      2558 1.49499E-02-1.60970E-03-7.42813E-14
 -1      2559 1.00070E-02-3.62007E-04-2.93242E-14
 -1      2560 9.96960E-03-3.70428E-04-2.90740E-14
 -1      2561 1.58534E-03 4.85232E-04-9.62690E-16
 -1      2562 1.44399E-03 4.68671E-04-7.87578E-16
 -1      2563 1.64321E-03 4.56450E-04-1.09689E-15
 -1      2564 9.95567E-03-3.41727E-04-2.93615E-14
 -1      2565 9.99797E-03-3.49984E-04-2.94386E-14
 -1      2566 8.93932E-03 5.48657E-05-2.74750E-14
 -1      2567 9.10888E-03-3.38301E-05-2.78834E-14
 -1      2568 9.22135E-03-8.77219E-05-2.87011E-14
 -1      2569 8.80751E-03 1.29257E-04-2.74960E-14
 -1      2570 8.16142E-03 5.18776E-04-2.49865E-14
 -1      2571 8.30406E-03 4.32848E-04-2.54977E-14
 -1      2572 9.91047E-03-3.88308E-04-2.89487E-14
 -1      2573 9.82388E-03-4.11793E-04-2.88266E-14
 -1      2574 9.95759E-03-3.83299E-04-2.95673E-14
 -1      2575 5.70487E-03-2.67673E-04-1.72795E-14
 -1      2576 5.59043E-03-2.36074E-04-1.71873E-14
 -1      2577 6.49793E-03 2.42323E-04-1.89170E-14
 -1      2578 6.67220E-03 3.39651E-04-1.93287E-14
 -1      2579 5.46756E-04-2.23266E-05-2.35678E-16
 -1      2580 5.47253E-04-3.79932E-05-2.35814E-16
 -1      2581 6.62642E-04-5.44011E-05-3.18742E-16
 -1      2582 6.61301E-04-1.72305E-05-3.18579E-16
 -1      2583 5.88592E-04-2.35275E-04-1.88624E-16
 -1      2584 7.81382E-04-3.00840E-04-2.99850E-16
 -1      2585 8.41138E-04-2.89094E-04-3.67775E-16
 -1      2586 5.79230E-04-2.07468E-04-2.01160E-16
 -1      2587 6.88343E-03 4.54994E-04-1.99321E-14
 -1      2588 7.04877E-03 5.45924E-04-2.04564E-14
 -1      2589 7.52675E-03 7.10331E-04-2.23014E-14
 -1      2590 7.63563E-03 7.10645E-04-2.28095E-14
 -1      2591 5.50331E-03-2.11585E-04-1.71156E-14
 -1      2592 5.44607E-03-1.98366E-04-1.70438E-14
 -1      2593 5.52924E-03-2.13202E-04-1.67575E-14
 -1      2594 7.82436E-03 6.72616E-04-2.36378E-14
 -1      2595 7.98806E-03 6.06187E-04-2.43297E-14
 -1      2596 6.18087E-03 8.38378E-05-1.82775E-14
 -1      2597 6.34084E-03 1.61035E-04-1.85954E-14
 -1      2598 6.42309E-03 2.13155E-04-1.84869E-14
 -1      2599 5.52556E-03-1.54969E-04-1.72555E-14
 -1      2600 5.61063E-03-1.33693E-04-1.73614E-14
 -1      2601 7.60703E-03-1.27761E-03-2.16341E-14
 -1      2602 7.47457E-03-1.22308E-03-2.11016E-14
 -1      2603 5.42483E-03-1.83221E-04-1.70227E-14
 -1      2604 5.45422E-03-1.74132E-04-1.70833E-14
 -1      2605 6.02366E-03-3.90401E-04-1.77192E-14
 -1      2606 5.87448E-03-3.29415E-04-1.74996E-14
 -1      2607 6.46695E-03-6.13493E-04-1.83804E-14
 -1      2608 6.23801E-03-4.89617E-04-1.79853E-14
 -1      2609 6.86293E-03-8.57991E-04-1.92707E-14
 -1      2610 6.70239E-03-7.55414E-04-1.89051E-14
 -1      2611 7.25923E-03-1.10949E-03-2.03631E-14
 -1      2612 7.06485E-03-9.85566E-04-1.98005E-14
 -1      2613 7.87307E-03-1.31349E-03-2.27188E-14
 -1      2614 7.74328E-03-1.30779E-03-2.21727E-14
 -1      2615 7.68993E-03-1.30421E-03-2.18675E-14
 -1      2616 8.21823E-03-1.22071E-03-2.41611E-14
 -1      2617 8.05317E-03-1.28531E-03-2.34727E-14
 -1      2618 8.55010E-03-1.04134E-03-2.53828E-14
 -1      2619 8.40127E-03-1.12932E-03-2.48448E-14
 -1      2620 8.96737E-03-7.95092E-04-2.66739E-14
 -1      2621 8.76204E-03-9.16322E-04-2.60669E-14
 -1      2622 9.35029E-03-5.96335E-04-2.76242E-14
 -1      2623 9.19336E-03-6.73733E-04-2.72770E-14
 -1      2624 9.68002E-03-4.60695E-04-2.84808E-14
 -1      2625 9.52228E-03-5.20263E-04-2.80511E-14
 -1      2626 9.46592E-03-5.52191E-04-2.83120E-14
 -1      2627 9.71575E-03-2.82305E-04-2.91654E-14
 -1      2628 9.85648E-03-3.17142E-04-2.92635E-14
 -1      2629 9.91182E-03-3.34743E-04-2.98247E-14
 -1      2630 7.57519E-04 3.30505E-04-2.00510E-16
 -1      2631 6.11122E-04 2.82104E-04-1.31175E-16
 -1      2632 5.84606E-04 2.55444E-04-1.36704E-16
 -1      2633 8.13705E-04 3.18678E-04-2.64301E-16
 -1      2634 6.70678E-04-1.35124E-04-3.08279E-16
 -1      2635 5.55048E-04-1.23890E-04-2.25257E-16
 -1      2636 5.58263E-04-1.43719E-04-2.19958E-16
 -1      2637 1.35845E-03 4.23506E-04-7.41689E-16
 -1      2638 5.72359E-04 2.25258E-04-1.53875E-16
 -1      2639 9.76927E-03-4.37378E-04-2.90924E-14
 -1      2640 9.08845E-03-7.38170E-04-2.72719E-14
 -1      2641 6.76657E-03 4.02016E-04-1.93982E-14
 -1      2642 7.42801E-03 7.00786E-04-2.18457E-14
 -1      2643 8.41561E-03 3.64760E-04-2.61732E-14
 -1      2644 8.67440E-03-9.79574E-04-2.59744E-14
 -1      2645 8.06595E-03 5.68149E-04-2.47904E-14
 -1      2646 7.98151E-03-1.30981E-03-2.31580E-14
 -1      2647 1.42893E-02-5.66752E-04-7.54158E-14
 -1      2648 1.42919E-02-5.97171E-04-7.52088E-14
 -1      2649 7.36592E-03-1.17070E-03-2.05914E-14
 -1      2650 9.61655E-03-2.49186E-04-2.95179E-14
 -1      2651 1.48097E-02-1.59865E-03-7.28945E-14
 -1      2652 1.48251E-02-1.55376E-03-7.34079E-14
 -1      2653 1.46892E-02-1.51094E-03-7.23181E-14
 -1      2654 1.46807E-02-1.57432E-03-7.17311E-14
 -1      2655 6.97383E-03-9.27740E-04-1.93358E-14
 -1      2656 1.00231E-02-3.61710E-04-2.98074E-14
 -1      2657 1.00334E-02-3.70585E-04-3.01782E-14
 -1      2658 1.00311E-02-3.63799E-04-3.02936E-14
 -1      2659 6.89797E-04 2.47835E-04-2.25609E-16
 -1      2660 6.55825E-03-6.67657E-04-1.82937E-14
 -1      2661 5.64738E-04-1.62381E-04-2.16366E-16
 -1      2662 5.70096E-04-1.85380E-04-2.08058E-16
 -1      2663 6.98273E-04-2.24297E-04-2.86528E-16
 -1      2664 6.81238E-04-1.78434E-04-2.98779E-16
 -1      2665 5.76952E-03-2.85933E-04-1.70434E-14
 -1      2666 6.13730E-03-4.38889E-04-1.75202E-14
 -1      2667 5.41630E-03-1.83763E-04-1.66665E-14
 -1      2668 6.06415E-03 3.22398E-05-1.78993E-14
 -1      2669 6.15710E-03 8.73384E-05-1.77925E-14
 -1      2670 5.95317E-03-7.04305E-06-1.75255E-14
 -1      2671 5.61023E-03-1.24087E-04-1.69249E-14
 -1      2672 5.68239E-03-1.10499E-04-1.73030E-14
 -1      2673 5.75775E-03-8.22168E-05-1.72445E-14
 -1      2674 7.12787E-03 5.92499E-04-2.06087E-14
 -1      2675 7.73111E-03 6.98077E-04-2.32977E-14
 -1      2676 5.46854E-03-1.63378E-04-1.68141E-14
 -1      2677 8.30860E-03-1.19094E-03-2.45999E-14
 -1      2678 1.41799E-02-5.97931E-04-7.40423E-14
 -1      2679 1.45878E-02-1.52462E-03-7.11511E-14
 -1      2680 8.28522E-04-2.60882E-04-3.78576E-16
 -1      2681 9.60217E-04-2.95089E-04-4.84611E-16
 -1      2682 8.18002E-04-2.34376E-04-3.87413E-16
 -1      2683 7.80194E-04 7.53073E-05-4.00464E-16
 -1      2684 7.78839E-04 5.39780E-05-4.05546E-16
 -1      2685 7.77923E-04 3.26413E-05-4.09503E-16
 -1      2686 7.77467E-04 1.15732E-05-4.12552E-16
 -1      2687 8.96107E-04 4.82234E-05-5.16297E-16
 -1      2688 7.91995E-04 1.69459E-04-3.68154E-16
 -1      2689 7.87891E-04 1.44365E-04-3.78576E-16
 -1      2690 8.03927E-04 2.24209E-04-3.42066E-16
 -1      2691 7.97299E-04 1.96009E-04-3.56282E-16
 -1      2692 9.15327E-04 2.03199E-04-4.62575E-16
 -1      2693 1.13035E-03 3.55037E-04-5.50422E-16
 -1      2694 9.86607E-04 3.27251E-04-4.24519E-16
 -1      2695 6.66378E-03-7.41024E-04-1.82047E-14
 -1      2696 6.45418E-03-6.14757E-04-1.76952E-14
 -1      2697 9.88742E-03-3.31168E-04-3.03536E-14
 -1      2698 9.97918E-03-3.50805E-04-3.04538E-14
 -1      2699 1.32108E-03-3.53823E-04-8.65451E-16
 -1      2700 1.46450E-03-3.71138E-04-1.04802E-15
 -1      2701 1.60777E-03-3.85361E-04-1.24823E-15
 -1      2702 1.75099E-03-3.96704E-04-1.46611E-15
 -1      2703 1.52601E-03-3.44237E-04-1.16606E-15
 -1      2704 1.89410E-03-4.05620E-04-1.70201E-15
 -1      2705 2.03716E-03-4.12290E-04-1.95556E-15
 -1      2706 1.81294E-03-3.66125E-04-1.60465E-15
 -1      2707 2.18017E-03-4.17071E-04-2.22732E-15
 -1      2708 2.32318E-03-4.20111E-04-2.51600E-15
 -1      2709 2.09970E-03-3.79082E-04-2.11426E-15
 -1      2710 2.46621E-03-4.21684E-04-2.82256E-15
 -1      2711 2.60930E-03-4.21914E-04-3.14760E-15
 -1      2712 2.38624E-03-3.85034E-04-2.69397E-15
 -1      2713 2.75245E-03-4.21019E-04-3.49021E-15
 -1      2714 2.89572E-03-4.19102E-04-3.84969E-15
 -1      2715 2.67258E-03-3.85546E-04-3.34457E-15
 -1      2716 3.03909E-03-4.16348E-04-4.22610E-15
 -1      2717 3.18263E-03-4.12850E-04-4.61927E-15
 -1      2718 2.95877E-03-3.81897E-04-4.06480E-15
 -1      2719 3.32629E-03-4.08783E-04-5.03022E-15
 -1      2720 3.47015E-03-4.04244E-04-5.45829E-15
 -1      2721 3.24482E-03-3.75190E-04-4.85263E-15
 -1      2722 3.61417E-03-3.99424E-04-5.90148E-15
 -1      2723 3.75843E-03-3.94437E-04-6.36089E-15
 -1      2724 3.53071E-03-3.66473E-04-5.70846E-15
 -1      2725 3.90287E-03-3.89517E-04-6.83645E-15
 -1      2726 4.04763E-03-3.84819E-04-7.32721E-15
 -1      2727 3.81643E-03-3.56877E-04-6.62841E-15
 -1      2728 4.19262E-03-3.80649E-04-7.83416E-15
 -1      2729 4.33804E-03-3.77231E-04-8.35637E-15
 -1      2730 4.10196E-03-3.47778E-04-7.61180E-15
 -1      2731 4.48383E-03-3.74968E-04-8.89394E-15
 -1      2732 4.63026E-03-3.74204E-04-9.44612E-15
 -1      2733 4.38749E-03-3.40967E-04-8.65714E-15
 -1      2734 4.77735E-03-3.75449E-04-1.00135E-14
 -1      2735 4.92551E-03-3.79256E-04-1.05950E-14
 -1      2736 4.67357E-03-3.38855E-04-9.76344E-15
 -1      2737 5.07495E-03-3.86216E-04-1.11918E-14
 -1      2738 5.22621E-03-3.97255E-04-1.18036E-14
 -1      2739 4.96156E-03-3.44709E-04-1.09283E-14
 -1      2740 5.37988E-03-4.12963E-04-1.24302E-14
 -1      2741 5.53663E-03-4.34911E-04-1.30712E-14
 -1      2742 5.25438E-03-3.63023E-04-1.21539E-14
 -1      2743 5.69763E-03-4.63550E-04-1.37271E-14
 -1      2744 5.86340E-03-5.01420E-04-1.43991E-14
 -1      2745 5.55744E-03-4.00227E-04-1.34391E-14
 -1      2746 6.03603E-03-5.48740E-04-1.50870E-14
 -1      2747 6.21481E-03-6.09365E-04-1.57916E-14
 -1      2748 5.87945E-03-4.66097E-04-1.47853E-14
 -1      2749 6.46696E-03-6.97542E-04-1.68473E-14
 -1      2750 6.66418E-03-7.91440E-04-1.75971E-14
 -1      2751 6.86547E-03-9.01080E-04-1.83636E-14
 -1      2752 7.16210E-03-1.06937E-03-1.95068E-14
 -1      2753 7.36362E-03-1.17907E-03-2.03255E-14
 -1      2754 7.99906E-03-1.32422E-03-2.32137E-14
 -1      2755 8.18900E-03-1.27657E-03-2.41248E-14
 -1      2756 8.73885E-03-1.04438E-03-2.67468E-14
 -1      2757 8.93889E-03-9.62161E-04-2.77248E-14
 -1      2758 9.13687E-03-8.92202E-04-2.87185E-14
 -1      2759 9.32645E-03-8.35319E-04-2.97280E-14
 -1      2760 9.08180E-03-8.65665E-04-2.82679E-14
 -1      2761 9.51016E-03-7.93183E-04-3.07518E-14
 -1      2762 9.68565E-03-7.62958E-04-3.17908E-14
 -1      2763 9.46315E-03-7.57358E-04-3.02867E-14
 -1      2764 9.85522E-03-7.44592E-04-3.28432E-14
 -1      2765 1.00189E-02-7.34965E-04-3.39059E-14
 -1      2766 9.80912E-03-7.05817E-04-3.23621E-14
 -1      2767 1.01783E-02-7.33641E-04-3.49832E-14
 -1      2768 1.03341E-02-7.38523E-04-3.60725E-14
 -1      2769 1.01284E-02-6.94083E-04-3.44891E-14
 -1      2770 1.04872E-02-7.48999E-04-3.71728E-14
 -1      2771 1.06382E-02-7.63763E-04-3.82828E-14
 -1      2772 1.04312E-02-7.08708E-04-3.66644E-14
 -1      2773 1.07877E-02-7.82169E-04-3.94042E-14
 -1      2774 1.09360E-02-8.03426E-04-4.05347E-14
 -1      2775 1.07253E-02-7.40878E-04-3.88849E-14
 -1      2776 1.10835E-02-8.26955E-04-4.16748E-14
 -1      2777 1.12303E-02-8.52268E-04-4.28230E-14
 -1      2778 1.10151E-02-7.84582E-04-4.11472E-14
 -1      2779 1.13765E-02-8.78904E-04-4.39774E-14
 -1      2780 1.15224E-02-9.06556E-04-4.51370E-14
 -1      2781 1.13030E-02-8.35571E-04-4.34429E-14
 -1      2782 1.16679E-02-9.34887E-04-4.63024E-14
 -1      2783 1.18132E-02-9.63704E-04-4.74748E-14
 -1      2784 1.15902E-02-8.90820E-04-4.57643E-14
 -1      2785 1.19581E-02-9.92777E-04-4.86551E-14
 -1      2786 1.21029E-02-1.02199E-03-4.98405E-14
 -1      2787 1.18771E-02-9.48219E-04-4.81122E-14
 -1      2788 1.22475E-02-1.05118E-03-5.10323E-14
 -1      2789 1.23919E-02-1.08030E-03-5.22332E-14
 -1      2790 1.21639E-02-1.00635E-03-5.04878E-14
 -1      2791 1.25361E-02-1.10925E-03-5.34395E-14
 -1      2792 1.26802E-02-1.13800E-03-5.46524E-14
 -1      2793 1.24506E-02-1.06431E-03-5.28916E-14
 -1      2794 1.28241E-02-1.16649E-03-5.58716E-14
 -1      2795 1.29679E-02-1.19472E-03-5.71001E-14
 -1      2796 1.27373E-02-1.12155E-03-5.53227E-14
 -1      2797 1.31116E-02-1.22267E-03-5.83340E-14
 -1      2798 1.32552E-02-1.25033E-03-5.95709E-14
 -1      2799 1.30238E-02-1.17781E-03-5.77782E-14
 -1      2800 1.33986E-02-1.27771E-03-6.08170E-14
 -1      2801 1.35420E-02-1.30481E-03-6.20678E-14
 -1      2802 1.33102E-02-1.23297E-03-6.02583E-14
 -1      2803 1.36853E-02-1.33165E-03-6.33230E-14
 -1      2804 1.38286E-02-1.35822E-03-6.45862E-14
 -1      2805 1.35964E-02-1.28704E-03-6.27597E-14
 -1      2806 1.39717E-02-1.38456E-03-6.58546E-14
 -1      2807 1.41149E-02-1.41066E-03-6.71294E-14
 -1      2808 1.38825E-02-1.34009E-03-6.52834E-14
 -1      2809 1.42579E-02-1.43656E-03-6.84077E-14
 -1      2810 1.44010E-02-1.46226E-03-6.96922E-14
 -1      2811 1.41685E-02-1.39223E-03-6.78280E-14
 -1      2812 2.27320E-03 4.55175E-04-2.21301E-15
 -1      2813 2.13060E-03 4.51091E-04-1.94130E-15
 -1      2814 1.98804E-03 4.45171E-04-1.68770E-15
 -1      2815 1.84545E-03 4.37251E-04-1.45222E-15
 -1      2816 2.04987E-03 4.12310E-04-1.85115E-15
 -1      2817 2.84502E-03 4.57992E-04-3.48492E-15
 -1      2818 2.70176E-03 4.58959E-04-3.13969E-15
 -1      2819 3.13241E-03 4.53770E-04-4.23014E-15
 -1      2820 2.98855E-03 4.56223E-04-3.84846E-15
 -1      2821 2.90896E-03 4.20575E-04-3.71235E-15
 -1      2822 3.42127E-03 4.47515E-04-5.04874E-15
 -1      2823 3.27663E-03 4.50825E-04-4.63056E-15
 -1      2824 3.19637E-03 4.15601E-04-4.47774E-15
 -1      2825 3.71196E-03 4.40542E-04-5.93881E-15
 -1      2826 3.56635E-03 4.44038E-04-5.48464E-15
 -1      2827 3.48478E-03 4.08850E-04-5.31518E-15
 -1      2828 4.00495E-03 4.34353E-04-6.90115E-15
 -1      2829 3.85814E-03 4.37251E-04-6.41109E-15
 -1      2830 3.77458E-03 4.01592E-04-6.22404E-15
 -1      2831 4.30080E-03 4.30772E-04-7.93542E-15
 -1      2832 4.15248E-03 4.32112E-04-7.40872E-15
 -1      2833 4.06629E-03 3.95305E-04-7.20482E-15
 -1      2834 4.60022E-03 4.32059E-04-9.03914E-15
 -1      2835 4.45002E-03 4.30648E-04-8.47826E-15
 -1      2836 4.36061E-03 3.91799E-04-8.25547E-15
 -1      2837 4.90407E-03 4.40954E-04-1.02133E-14
 -1      2838 4.75156E-03 4.35359E-04-9.61827E-15
 -1      2839 4.65851E-03 3.93335E-04-9.37628E-15
 -1      2840 5.21332E-03 4.60589E-04-1.14564E-14
 -1      2841 5.05803E-03 4.49203E-04-1.08264E-14
 -1      2842 4.96127E-03 4.02693E-04-1.05657E-14
 -1      2843 5.52875E-03 4.94147E-04-1.27696E-14
 -1      2844 5.37033E-03 4.75408E-04-1.21038E-14
 -1      2845 5.27037E-03 4.23128E-04-1.18236E-14
 -1      2846 5.85049E-03 5.44048E-04-1.41515E-14
 -1      2847 5.68901E-03 5.16929E-04-1.34521E-14
 -1      2848 5.58721E-03 4.58098E-04-1.31514E-14
 -1      2849 6.17720E-03 6.10403E-04-1.56021E-14
 -1      2850 6.01355E-03 5.75277E-04-1.48675E-14
 -1      2851 5.91232E-03 5.10441E-04-1.45474E-14
 -1      2852 6.50542E-03 6.88715E-04-1.71246E-14
 -1      2853 6.34159E-03 6.48673E-04-1.63547E-14
 -1      2854 6.24429E-03 5.80680E-04-1.60131E-14
 -1      2855 6.82981E-03 7.67074E-04-1.87168E-14
 -1      2856 6.66849E-03 7.29028E-04-1.79121E-14
 -1      2857 6.57872E-03 6.63819E-04-1.75487E-14
 -1      2858 7.14576E-03 8.26497E-04-2.03808E-14
 -1      2859 6.98886E-03 8.00701E-04-1.95401E-14
 -1      2860 6.90864E-03 7.45903E-04-1.91560E-14
 -1      2861 7.45319E-03 8.45639E-04-2.21203E-14
 -1      2862 7.30002E-03 8.42408E-04-2.12416E-14
 -1      2863 7.22858E-03 8.04115E-04-2.08348E-14
 -1      2864 7.75734E-03 8.11157E-04-2.39368E-14
 -1      2865 7.60443E-03 8.35253E-04-2.30181E-14
 -1      2866 7.53905E-03 8.13989E-04-2.25918E-14
 -1      2867 8.06739E-03 7.26296E-04-2.58220E-14
 -1      2868 7.91110E-03 7.74044E-04-2.48707E-14
 -1      2869 7.84881E-03 7.63072E-04-2.44236E-14
 -1      2870 8.38662E-03 6.08380E-04-2.77742E-14
 -1      2871 8.22580E-03 6.69921E-04-2.67906E-14
 -1      2872 8.16733E-03 6.61277E-04-2.63269E-14
 -1      2873 8.71308E-03 4.78962E-04-2.97896E-14
 -1      2874 8.54936E-03 5.43766E-04-2.87745E-14
 -1      2875 8.49620E-03 5.31841E-04-2.82932E-14
 -1      2876 9.04142E-03 3.54929E-04-3.18625E-14
 -1      2877 8.87753E-03 4.15548E-04-3.08185E-14
 -1      2878 8.83051E-03 3.98721E-04-3.03208E-14
 -1      2879 9.36686E-03 2.45071E-04-3.39909E-14
 -1      2880 9.20488E-03 2.97984E-04-3.29208E-14
 -1      2881 9.16326E-03 2.77183E-04-3.24065E-14
 -1      2882 9.68671E-03 1.51937E-04-3.61711E-14
 -1      2883 9.52769E-03 1.96472E-04-3.50745E-14
 -1      2884 9.48960E-03 1.73090E-04-3.45466E-14
 -1      2885 1.00003E-02 7.43272E-05-3.83991E-14
 -1      2886 9.84435E-03 1.11378E-04-3.72781E-14
 -1      2887 9.80775E-03 8.65151E-05-3.67347E-14
 -1      2888 1.03080E-02 9.42595E-06-4.06741E-14
 -1      2889 1.01549E-02 4.05031E-05-3.95308E-14
 -1      2890 1.01181E-02 1.48139E-05-3.89718E-14
 -1      2891 1.06109E-02-4.59363E-05-4.30001E-14
 -1      2892 1.04600E-02-1.92511E-05-4.18327E-14
 -1      2893 1.04219E-02-4.54192E-05-4.12564E-14
 -1      2894 1.09098E-02-9.46644E-05-4.53744E-14
 -1      2895 1.07608E-02-7.09689E-05-4.41791E-14
 -1      2896 1.07208E-02-9.74194E-05-4.35894E-14
 -1      2897 1.12057E-02-1.39151E-04-4.78021E-14
 -1      2898 1.10581E-02-1.17315E-04-4.65834E-14
 -1      2899 1.10161E-02-1.43917E-04-4.59749E-14
 -1      2900 1.14992E-02-1.81234E-04-5.02710E-14
 -1      2901 1.13527E-02-1.60404E-04-4.90318E-14
 -1      2902 1.13088E-02-1.87055E-04-4.84064E-14
 -1      2903 1.17908E-02-2.22237E-04-5.27784E-14
 -1      2904 1.16452E-02-2.01808E-04-5.15201E-14
 -1      2905 1.15995E-02-2.28427E-04-5.08820E-14
 -1      2906 1.20809E-02-2.63065E-04-5.53101E-14
 -1      2907 1.19360E-02-2.42632E-04-5.40413E-14
 -1      2908 1.18890E-02-2.69155E-04-5.33889E-14
 -1      2909 1.23699E-02-3.04289E-04-5.78578E-14
 -1      2910 1.22255E-02-2.83603E-04-5.65834E-14
 -1      2911 1.21774E-02-3.09986E-04-5.59207E-14
 -1      2912 1.26581E-02-3.46237E-04-6.04160E-14
 -1      2913 1.25141E-02-3.25159E-04-5.91360E-14
 -1      2914 1.24651E-02-3.51377E-04-5.84647E-14
 -1      2915 1.29455E-02-3.89063E-04-6.29860E-14
 -1      2916 1.28019E-02-3.67534E-04-6.17007E-14
 -1      2917 1.27522E-02-3.93576E-04-6.10198E-14
 -1      2918 1.32325E-02-4.32806E-04-6.55627E-14
 -1      2919 1.30890E-02-4.10819E-04-6.42721E-14
 -1      2920 1.30390E-02-4.36684E-04-6.35856E-14
 -1      2921 1.35190E-02-4.77431E-04-6.81466E-14
 -1      2922 1.33758E-02-4.55011E-04-6.68532E-14
 -1      2923 1.33254E-02-4.80707E-04-6.61585E-14
 -1      2924 1.38053E-02-5.22862E-04-7.07380E-14
 -1      2925 1.36622E-02-5.00051E-04-6.94416E-14
 -1      2926 1.36116E-02-5.25591E-04-6.87411E-14
 -1      2927 1.40641E-02-5.71845E-04-7.30405E-14
 -1      2928 1.39211E-02-5.48725E-04-7.17389E-14
 -1      2929 1.38705E-02-5.74122E-04-7.10309E-14
 -1      2930 1.41021E-02-6.26024E-04-7.30263E-14
 -1      2931 1.43212E-02-1.02415E-03-7.22318E-14
 -1      2932 1.42973E-02-9.82969E-04-7.23007E-14
 -1      2933 1.44965E-02-1.47766E-03-7.05670E-14
 -1      2934 1.45937E-02-1.49569E-03-7.14380E-14
 -1      2935 1.45981E-02-1.46410E-03-7.17302E-14
 -1      2936 1.44070E-02-1.43344E-03-6.99798E-14
 -1      2937 1.42252E-02-8.59211E-04-7.25103E-14
 -1      2938 1.42012E-02-8.17834E-04-7.25784E-14
 -1      2939 1.43689E-02-1.10649E-03-7.20946E-14
 -1      2940 1.43451E-02-1.06531E-03-7.21637E-14
 -1      2941 1.42100E-02-1.02372E-03-7.10885E-14
 -1      2942 1.42733E-02-9.41766E-04-7.23686E-14
 -1      2943 1.42493E-02-9.00517E-04-7.24373E-14
 -1      2944 1.41139E-02-8.59367E-04-7.13626E-14
 -1      2945 1.41621E-02-9.41624E-04-7.12249E-14
 -1      2946 1.70279E-03 4.26923E-04-1.23495E-15
 -1      2947 1.55997E-03 4.13986E-04-1.03642E-15
 -1      2948 1.76366E-03 3.96814E-04-1.37657E-15
 -1      2949 1.44155E-02-1.18752E-03-7.19577E-14
 -1      2950 1.43922E-02-1.14698E-03-7.20270E-14
 -1      2951 1.42571E-02-1.10510E-03-7.09518E-14
 -1      2952 1.44629E-02-1.27018E-03-7.18188E-14
 -1      2953 1.44392E-02-1.22881E-03-7.18894E-14
 -1      2954 1.43040E-02-1.18663E-03-7.08141E-14
 -1      2955 1.45102E-02-1.35315E-03-7.16753E-14
 -1      2956 1.44865E-02-1.31162E-03-7.17466E-14
 -1      2957 1.43512E-02-1.26914E-03-7.06713E-14
 -1      2958 1.45660E-02-1.42941E-03-7.16650E-14
 -1      2959 1.45422E-02-1.38770E-03-7.17406E-14
 -1      2960 1.44067E-02-1.34499E-03-7.06621E-14
 -1      2961 1.44705E-02-1.41413E-03-7.07898E-14
 -1      2962 7.84518E-03-1.33740E-03-2.24655E-14
 -1      2963 9.85885E-03-4.27319E-04-2.98916E-14
 -1      2964 9.73146E-03-4.67125E-04-2.95400E-14
 -1      2965 1.00042E-02-3.83307E-04-3.01484E-14
 -1      2966 9.95275E-03-3.95443E-04-3.00212E-14
 -1      2967 9.21522E-03-6.87324E-04-2.79607E-14
 -1      2968 9.01598E-03-7.96876E-04-2.73491E-14
 -1      2969 7.54457E-03-1.27100E-03-2.10610E-14
 -1      2970 2.55873E-03 4.58915E-04-2.81277E-15
 -1      2971 2.41590E-03 4.57736E-04-2.50361E-15
 -1      2972 2.33599E-03 4.20299E-04-2.39882E-15
 -1      2973 2.62226E-03 4.22565E-04-3.01935E-15
 -1      2974 7.32669E-03 6.83614E-04-2.13559E-14
 -1      2975 7.45586E-03 7.15226E-04-2.19766E-14
 -1      2976 1.06882E-03-3.15232E-04-5.87245E-16
 -1      2977 1.21226E-03-3.39083E-04-7.38057E-16
 -1      2978 1.27373E-03-3.16550E-04-8.38034E-16
 -1      2979 1.05653E-03-2.85209E-04-5.98913E-16
 -1      2980 7.03050E-03 5.58937E-04-2.01284E-14
 -1      2981 7.18274E-03 6.31698E-04-2.07357E-14
 -1      2982 7.22383E-03 6.62045E-04-2.08614E-14
 -1      2983 8.79266E-03-9.26482E-04-2.65908E-14
 -1      2984 8.60650E-03-1.04089E-03-2.58974E-14
 -1      2985 5.54577E-03-2.14973E-04-1.63861E-14
 -1      2986 5.46953E-03-1.97255E-04-1.63179E-14
 -1      2987 7.66093E-03 7.16545E-04-2.30075E-14
 -1      2988 7.82604E-03 6.76394E-04-2.38411E-14
 -1      2989 1.41701E-03 3.97922E-04-8.56235E-16
 -1      2990 1.27372E-03 3.78475E-04-6.94269E-16
 -1      2991 1.19038E-03 3.34027E-04-6.45507E-16
 -1      2992 1.47715E-03 3.71612E-04-9.74616E-16
 -1      2993 7.84625E-04 1.20493E-04-3.87196E-16
 -1      2994 7.82114E-04 9.75015E-05-3.94460E-16
 -1      2995 8.99476E-04 9.66897E-05-5.04208E-16
 -1      2996 9.05549E-04 1.47753E-04-4.86725E-16
 -1      2997 8.31047E-03 4.33132E-04-2.59850E-14
 -1      2998 8.48766E-03 3.25697E-04-2.67106E-14
 -1      2999 7.81882E-04-9.54646E-05-4.13095E-16
 -1      3000 7.84320E-04-1.18370E-04-4.10018E-16
 -1      3001 5.42461E-03-1.60448E-04-1.63589E-14
 -1      3002 5.49085E-03-1.48800E-04-1.65256E-14
 -1      3003 6.31143E-03 1.80440E-04-1.79105E-14
 -1      3004 6.44463E-03 2.52398E-04-1.82232E-14
 -1      3005 9.58471E-03-2.31093E-04-3.01489E-14
 -1      3006 9.75838E-03-2.92288E-04-3.03605E-14
 -1      3007 8.33573E-03-1.20446E-03-2.48112E-14
 -1      3008 6.19267E-03-4.70990E-04-1.72643E-14
 -1      3009 6.00619E-03-3.80948E-04-1.70083E-14
 -1      3010 5.41107E-03-1.81243E-04-1.62971E-14
 -1      3011 5.39149E-03-1.73263E-04-1.62759E-14
 -1      3012 5.40811E-03-1.82858E-04-1.59312E-14
 -1      3013 8.03432E-04 2.74036E-04-2.99877E-16
 -1      3014 5.82981E-03-3.07183E-04-1.67842E-14
 -1      3015 5.67767E-03-2.54997E-04-1.65712E-14
 -1      3016 7.99949E-03 6.06617E-04-2.46524E-14
 -1      3017 8.14892E-03 5.26106E-04-2.53137E-14
 -1      3018 8.23380E-03 4.87782E-04-2.58424E-14
 -1      3019 6.65907E-03 3.64299E-04-1.88456E-14
 -1      3020 6.84337E-03 4.65990E-04-1.94391E-14
 -1      3021 9.56126E-03-5.28355E-04-2.89760E-14
 -1      3022 9.40946E-03-5.93126E-04-2.85414E-14
 -1      3023 8.53923E-03-1.11307E-03-2.57550E-14
 -1      3024 6.90807E-03 5.21673E-04-1.95593E-14
 -1      3025 8.94992E-04 9.85176E-07-5.23629E-16
 -1      3026 7.77441E-04-9.43936E-06-4.14612E-16
 -1      3027 7.77846E-04-3.04887E-05-4.15832E-16
 -1      3028 6.30306E-03-5.44738E-04-1.71785E-14
 -1      3029 1.00327E-02-3.61665E-04-3.13624E-14
 -1      3030 1.00340E-02-3.63885E-04-3.08275E-14
 -1      3031 1.00744E-02-3.73157E-04-3.12019E-14
 -1      3032 7.87487E-04-1.42135E-04-4.05586E-16
 -1      3033 7.91463E-04-1.66983E-04-3.99434E-16
 -1      3034 9.05123E-04-1.45252E-04-5.16677E-16
 -1      3035 6.29043E-03-5.86144E-04-1.65252E-14
 -1      3036 6.84613E-03-8.57183E-04-1.87126E-14
 -1      3037 5.88550E-03-3.38993E-04-1.65348E-14
 -1      3038 1.40659E-02-7.77163E-04-7.15010E-14
 -1      3039 1.41773E-02-7.76726E-04-7.26488E-14
 -1      3040 1.41535E-02-7.35531E-04-7.27197E-14
 -1      3041 7.45874E-03 7.28195E-04-2.19984E-14
 -1      3042 7.55748E-03 7.28379E-04-2.25008E-14
 -1      3043 7.65116E-03 7.26593E-04-2.30293E-14
 -1      3044 1.41396E-02-7.01540E-04-7.28365E-14
 -1      3045 1.41159E-02-6.60170E-04-7.29091E-14
 -1      3046 1.40001E-02-6.34161E-04-7.19158E-14
 -1      3047 1.40280E-02-7.02199E-04-7.16846E-14
 -1      3048 9.68542E-03-5.05951E-04-2.97744E-14
 -1      3049 1.00453E-02-3.82500E-04-3.06364E-14
 -1      3050 9.33511E-03-6.52895E-04-2.86204E-14
 -1      3051 6.19308E-03 1.34470E-04-1.75343E-14
 -1      3052 9.93210E-03-4.22136E-04-3.04750E-14
 -1      3053 9.43420E-03-1.64603E-04-3.00066E-14
 -1      3054 9.60275E-03-2.16848E-04-3.08543E-14
 -1      3055 9.06222E-03 3.29094E-06-2.87812E-14
 -1      3056 9.25421E-03-8.76095E-05-2.93926E-14
 -1      3057 9.29688E-03-8.10566E-05-3.00878E-14
 -1      3058 8.93622E-03-8.67288E-04-2.72702E-14
 -1      3059 5.85014E-03-3.86723E-05-1.71402E-14
 -1      3060 5.93288E-03 1.23307E-05-1.70336E-14
 -1      3061 5.75469E-03-5.90381E-05-1.67600E-14
 -1      3062 5.53570E-03-1.31470E-04-1.64660E-14
 -1      3063 5.58723E-03-1.10162E-04-1.64051E-14
 -1      3064 5.46851E-03-1.31229E-04-1.60124E-14
 -1      3065 8.67734E-03 2.13923E-04-2.74393E-14
 -1      3066 8.87095E-03 1.00738E-04-2.80397E-14
 -1      3067 8.93824E-03 8.84265E-05-2.87228E-14
 -1      3068 8.56949E-03 2.90507E-04-2.72461E-14
 -1      3069 5.58831E-03-2.31862E-04-1.61325E-14
 -1      3070 8.65359E-04 2.61914E-04-3.67883E-16
 -1      3071 7.78701E-04-5.16968E-05-4.15805E-16
 -1      3072 7.80022E-04-7.33392E-05-4.14802E-16
 -1      3073 8.99225E-04-9.43730E-05-5.24076E-16
 -1      3074 8.95994E-04-4.61178E-05-5.26150E-16
 -1      3075 7.91434E-03 6.48949E-04-2.43519E-14
 -1      3076 5.38014E-03-1.61713E-04-1.59927E-14
 -1      3077 5.37713E-03-1.48672E-04-1.57084E-14
 -1      3078 5.34690E-03-1.59855E-04-1.56287E-14
 -1      3079 9.86092E-03-3.15746E-04-3.09941E-14
 -1      3080 6.52832E-03 3.27190E-04-1.82584E-14
 -1      3081 7.75266E-03-1.32271E-03-2.20770E-14
 -1      3082 7.63591E-03-1.29553E-03-2.15403E-14
 -1      3083 9.83550E-04 2.70266E-04-4.78350E-16
 -1      3084 1.04081E-03 2.37552E-04-5.67187E-16
 -1      3085 1.03403E-03 2.06216E-04-5.83518E-16
 -1      3086 7.12079E-03 6.43278E-04-2.03489E-14
 -1      3087 7.25157E-03 6.92122E-04-2.09604E-14
 -1      3088 1.73229E-03-3.26955E-04-1.50785E-15
 -1      3089 1.87589E-03-3.35040E-04-1.74573E-15
 -1      3090 2.01943E-03-3.41193E-04-2.00159E-15
 -1      3091 2.16294E-03-3.45556E-04-2.27513E-15
 -1      3092 1.93960E-03-3.03522E-04-1.88975E-15
 -1      3093 2.30633E-03-3.48399E-04-2.56552E-15
 -1      3094 2.44963E-03-3.49837E-04-2.87394E-15
 -1      3095 2.22670E-03-3.11823E-04-2.43760E-15
 -1      3096 2.59279E-03-3.50097E-04-3.19977E-15
 -1      3097 2.73581E-03-3.49270E-04-3.54338E-15
 -1      3098 2.51326E-03-3.14647E-04-3.05593E-15
 -1      3099 2.87867E-03-3.47553E-04-3.90402E-15
 -1      3100 3.02136E-03-3.45020E-04-4.28119E-15
 -1      3101 2.79896E-03-3.13225E-04-3.74348E-15
 -1      3102 3.16384E-03-3.41852E-04-4.67578E-15
 -1      3103 3.30613E-03-3.38116E-04-5.08788E-15
 -1      3104 3.08351E-03-3.08611E-04-4.49970E-15
 -1      3105 3.44815E-03-3.33997E-04-5.51536E-15
 -1      3106 3.58994E-03-3.29563E-04-5.95934E-15
 -1      3107 3.36662E-03-3.01765E-04-5.32309E-15
 -1      3108 3.73140E-03-3.25024E-04-6.42037E-15
 -1      3109 3.87260E-03-3.20461E-04-6.89661E-15
 -1      3110 3.64794E-03-2.93643E-04-6.21219E-15
 -1      3111 4.01341E-03-3.16132E-04-7.38857E-15
 -1      3112 4.15394E-03-3.12143E-04-7.89677E-15
 -1      3113 3.92711E-03-2.85305E-04-7.16603E-15
 -1      3114 4.29407E-03-3.08813E-04-8.42055E-15
 -1      3115 4.43399E-03-3.06305E-04-8.95941E-15
 -1      3116 4.20379E-03-2.78006E-04-8.18289E-15
 -1      3117 4.57359E-03-3.04995E-04-9.51274E-15
 -1      3118 4.71319E-03-3.05151E-04-1.00808E-14
 -1      3119 4.47779E-03-2.73290E-04-9.26177E-15
 -1      3120 4.85277E-03-3.07190E-04-1.06648E-14
 -1      3121 4.99293E-03-3.11586E-04-1.12633E-14
 -1      3122 4.74937E-03-2.73066E-04-1.04003E-14
 -1      3123 5.13376E-03-3.18723E-04-1.18773E-14
 -1      3124 5.27633E-03-3.29565E-04-1.25069E-14
 -1      3125 5.01973E-03-2.79705E-04-1.16005E-14
 -1      3126 5.42104E-03-3.44354E-04-1.31503E-14
 -1      3127 5.56965E-03-3.65096E-04-1.38091E-14
 -1      3128 5.29195E-03-2.96446E-04-1.28605E-14
 -1      3129 5.72301E-03-3.91989E-04-1.44831E-14
 -1      3130 5.88355E-03-4.28594E-04-1.51729E-14
 -1      3131 5.57274E-03-3.28740E-04-1.41804E-14
 -1      3132 5.91765E-03-3.67542E-04-1.62210E-14
 -1      3133 5.76381E-03-3.02480E-04-1.60045E-14
 -1      3134 7.60729E-03-1.30184E-03-2.12618E-14
 -1      3135 7.78893E-03-1.34063E-03-2.21287E-14
 -1      3136 6.78885E-03 4.95064E-04-1.89749E-14
 -1      3137 6.95888E-03 5.75057E-04-1.96540E-14
 -1      3138 6.99605E-03 6.20576E-04-1.97466E-14
 -1      3139 9.43524E-03-7.09888E-04-2.98284E-14
 -1      3140 9.61136E-03-6.76667E-04-3.08519E-14
 -1      3141 9.77829E-03-6.58482E-04-3.18913E-14
 -1      3142 9.93711E-03-6.49083E-04-3.29411E-14
 -1      3143 9.75800E-03-6.08137E-04-3.14205E-14
 -1      3144 1.00899E-02-6.48557E-04-3.40027E-14
 -1      3145 1.02384E-02-6.53635E-04-3.50780E-14
 -1      3146 1.00593E-02-6.02061E-04-3.35186E-14
 -1      3147 1.03837E-02-6.64159E-04-3.61649E-14
 -1      3148 1.05271E-02-6.78467E-04-3.72631E-14
 -1      3149 1.03419E-02-6.20130E-04-3.56658E-14
 -1      3150 1.06689E-02-6.96230E-04-3.83738E-14
 -1      3151 1.08102E-02-7.16611E-04-3.94945E-14
 -1      3152 1.06169E-02-6.52890E-04-3.78623E-14
 -1      3153 1.09509E-02-7.39199E-04-4.06252E-14
 -1      3154 1.10915E-02-7.63539E-04-4.17652E-14
 -1      3155 1.08901E-02-6.95420E-04-4.01034E-14
 -1      3156 1.12322E-02-7.89234E-04-4.29135E-14
 -1      3157 1.13730E-02-8.16026E-04-4.40695E-14
 -1      3158 1.11642E-02-7.44509E-04-4.23839E-14
 -1      3159 1.15140E-02-8.43580E-04-4.52306E-14
 -1      3160 1.16552E-02-8.71739E-04-4.63992E-14
 -1      3161 1.14401E-02-7.97806E-04-4.46961E-14
 -1      3162 1.17966E-02-9.00249E-04-4.75746E-14
 -1      3163 1.19383E-02-9.29013E-04-4.87579E-14
 -1      3164 1.17181E-02-8.53537E-04-4.70363E-14
 -1      3165 1.20802E-02-9.57852E-04-4.99482E-14
 -1      3166 1.22222E-02-9.86708E-04-5.11460E-14
 -1      3167 1.19980E-02-9.10392E-04-4.94058E-14
 -1      3168 1.23644E-02-1.01546E-03-5.23491E-14
 -1      3169 1.25067E-02-1.04409E-03-5.35607E-14
 -1      3170 1.22794E-02-9.67455E-04-5.18050E-14
 -1      3171 1.26492E-02-1.07251E-03-5.47779E-14
 -1      3172 1.27917E-02-1.10072E-03-5.60015E-14
 -1      3173 1.25621E-02-1.02413E-03-5.42310E-14
 -1      3174 1.29343E-02-1.12868E-03-5.72331E-14
 -1      3175 1.30770E-02-1.15639E-03-5.84684E-14
 -1      3176 1.28456E-02-1.08006E-03-5.66848E-14
 -1      3177 1.32197E-02-1.18383E-03-5.97075E-14
 -1      3178 1.33625E-02-1.21101E-03-6.09538E-14
 -1      3179 1.31299E-02-1.13507E-03-5.91578E-14
 -1      3180 1.35053E-02-1.23793E-03-6.22061E-14
 -1      3181 1.36481E-02-1.26461E-03-6.34604E-14
 -1      3182 1.34146E-02-1.18911E-03-6.16491E-14
 -1      3183 1.37909E-02-1.29104E-03-6.47227E-14
 -1      3184 1.39338E-02-1.31726E-03-6.59882E-14
 -1      3185 1.36997E-02-1.24221E-03-6.41613E-14
 -1      3186 1.40766E-02-1.34326E-03-6.72606E-14
 -1      3187 1.42195E-02-1.36907E-03-6.85368E-14
 -1      3188 1.39849E-02-1.29444E-03-6.66935E-14
 -1      3189 1.41456E-02-1.10391E-03-6.98138E-14
 -1      3190 1.41223E-02-1.06368E-03-6.98818E-14
 -1      3191 3.25962E-03 3.77566E-04-4.72669E-15
 -1      3192 3.11605E-03 3.80637E-04-4.32500E-15
 -1      3193 2.97259E-03 3.83159E-04-3.94124E-15
 -1      3194 2.82920E-03 3.85032E-04-3.57598E-15
 -1      3195 3.03587E-03 3.45861E-04-4.17251E-15
 -1      3196 3.83577E-03 3.62932E-04-6.51073E-15
 -1      3197 3.69134E-03 3.66643E-04-6.03761E-15
 -1      3198 4.12587E-03 3.56521E-04-7.50830E-15
 -1      3199 3.98058E-03 3.59494E-04-7.00061E-15
 -1      3200 3.89558E-03 3.24603E-04-6.79716E-15
 -1      3201 4.41839E-03 3.52951E-04-8.57567E-15
 -1      3202 4.27176E-03 3.54250E-04-8.03363E-15
 -1      3203 4.18375E-03 3.17996E-04-7.81210E-15
 -1      3204 4.71458E-03 3.54451E-04-9.71287E-15
 -1      3205 4.56594E-03 3.52890E-04-9.13572E-15
 -1      3206 4.47417E-03 3.14160E-04-8.89672E-15
 -1      3207 5.01616E-03 3.63828E-04-1.09178E-14
 -1      3208 4.86460E-03 3.57919E-04-1.03069E-14
 -1      3209 4.76843E-03 3.15265E-04-1.00494E-14
 -1      3210 5.32522E-03 3.84503E-04-1.21901E-14
 -1      3211 5.16967E-03 3.72454E-04-1.15453E-14
 -1      3212 5.06873E-03 3.24144E-04-1.12690E-14
 -1      3213 5.64385E-03 4.20355E-04-1.35328E-14
 -1      3214 5.48334E-03 4.00197E-04-1.28526E-14
 -1      3215 5.37784E-03 3.44475E-04-1.25565E-14
 -1      3216 5.97314E-03 4.74969E-04-1.49433E-14
 -1      3217 5.80736E-03 4.45079E-04-1.42300E-14
 -1      3218 5.69868E-03 3.80817E-04-1.39139E-14
 -1      3219 6.31146E-03 5.49573E-04-1.64228E-14
 -1      3220 6.14164E-03 5.09862E-04-1.56742E-14
 -1      3221 6.03283E-03 4.37940E-04-1.53387E-14
 -1      3222 6.65380E-03 6.39080E-04-1.79711E-14
 -1      3223 6.48313E-03 5.93394E-04-1.71878E-14
 -1      3224 6.37877E-03 5.18122E-04-1.68302E-14
 -1      3225 7.31389E-03 7.83919E-04-2.12874E-14
 -1      3226 7.15327E-03 7.61543E-04-2.04299E-14
 -1      3227 7.62649E-03 7.65636E-04-2.30135E-14
 -1      3228 7.46698E-03 7.73915E-04-2.21180E-14
 -1      3229 8.27230E-03 5.90220E-04-2.68305E-14
 -1      3230 8.10622E-03 6.54741E-04-2.58627E-14
 -1      3231 8.61175E-03 4.49795E-04-2.88130E-14
 -1      3232 8.44136E-03 5.20214E-04-2.78147E-14
 -1      3233 8.38580E-03 5.11057E-04-2.73371E-14
 -1      3234 8.95336E-03 3.15315E-04-3.08536E-14
 -1      3235 8.78309E-03 3.80700E-04-2.98268E-14
 -1      3236 8.73572E-03 3.62718E-04-2.93330E-14
 -1      3237 9.28901E-03 1.98683E-04-3.29493E-14
 -1      3238 9.12254E-03 2.54556E-04-3.18935E-14
 -1      3239 9.08274E-03 2.30428E-04-3.13850E-14
 -1      3240 9.61450E-03 1.01944E-04-3.50992E-14
 -1      3241 9.45325E-03 1.47999E-04-3.40179E-14
 -1      3242 9.41871E-03 1.21127E-04-3.34907E-14
 -1      3243 9.92955E-03 2.27119E-05-3.72972E-14
 -1      3244 9.77335E-03 6.04513E-05-3.61928E-14
 -1      3245 9.74119E-03 3.29404E-05-3.56503E-14
 -1      3246 1.02357E-02-4.28819E-05-3.95429E-14
 -1      3247 1.00837E-02-1.14928E-05-3.84138E-14
 -1      3248 1.00516E-02-3.86517E-05-3.78589E-14
 -1      3249 1.05352E-02-9.85587E-05-4.18375E-14
 -1      3250 1.03862E-02-7.17193E-05-4.06833E-14
 -1      3251 1.03528E-02-9.83266E-05-4.01137E-14
 -1      3252 1.08300E-02-1.47444E-04-4.41779E-14
 -1      3253 1.06831E-02-1.23669E-04-4.30020E-14
 -1      3254 1.06475E-02-1.49823E-04-4.24143E-14
 -1      3255 1.11216E-02-1.91989E-04-4.65718E-14
 -1      3256 1.09761E-02-1.70127E-04-4.53678E-14
 -1      3257 1.09380E-02-1.95993E-04-4.47661E-14
 -1      3258 1.14111E-02-2.34040E-04-4.90105E-14
 -1      3259 1.12666E-02-2.13234E-04-4.77865E-14
 -1      3260 1.12261E-02-2.38946E-04-4.71667E-14
 -1      3261 1.16994E-02-2.74927E-04-5.14889E-14
 -1      3262 1.15554E-02-2.54567E-04-5.02439E-14
 -1      3263 1.15127E-02-2.80206E-04-4.96113E-14
 -1      3264 1.19867E-02-3.15565E-04-5.39974E-14
 -1      3265 1.18431E-02-2.95237E-04-5.27407E-14
 -1      3266 1.17985E-02-3.20841E-04-5.20934E-14
 -1      3267 1.22736E-02-3.56545E-04-5.65278E-14
 -1      3268 1.21302E-02-3.35988E-04-5.52603E-14
 -1      3269 1.20840E-02-3.61564E-04-5.46031E-14
 -1      3270 1.25601E-02-3.98214E-04-5.90677E-14
 -1      3271 1.24169E-02-3.77280E-04-5.77960E-14
 -1      3272 1.23694E-02-4.02823E-04-5.71305E-14
 -1      3273 1.28463E-02-4.40747E-04-6.16227E-14
 -1      3274 1.27032E-02-4.19367E-04-6.03448E-14
 -1      3275 1.26548E-02-4.44866E-04-5.96708E-14
 -1      3276 1.31324E-02-4.84198E-04-6.41830E-14
 -1      3277 1.29894E-02-4.62358E-04-6.29014E-14
 -1      3278 1.29403E-02-4.87801E-04-6.22208E-14
 -1      3279 1.34184E-02-5.28543E-04-6.67544E-14
 -1      3280 1.32754E-02-5.06262E-04-6.54663E-14
 -1      3281 1.32258E-02-5.31643E-04-6.47800E-14
 -1      3282 1.37043E-02-5.73714E-04-6.93324E-14
 -1      3283 1.35613E-02-5.51031E-04-6.80427E-14
 -1      3284 1.35113E-02-5.76341E-04-6.73459E-14
 -1      3285 1.39101E-02-6.16769E-04-7.11216E-14
 -1      3286 1.37943E-02-5.90950E-04-7.01269E-14
 -1      3287 1.37441E-02-6.16189E-04-6.94240E-14
 -1      3288 1.39240E-02-6.50811E-04-7.10083E-14
 -1      3289 1.43750E-02-1.39878E-03-6.99175E-14
 -1      3290 1.01590E-03 6.60592E-05-6.35302E-16
 -1      3291 1.01461E-03 3.99005E-05-6.41048E-16
 -1      3292 1.41928E-02-1.18592E-03-6.96734E-14
 -1      3293 1.41692E-02-1.14487E-03-6.97437E-14
 -1      3294 1.40346E-02-1.10323E-03-6.86783E-14
 -1      3295 1.40986E-02-1.02280E-03-6.99501E-14
 -1      3296 1.40747E-02-9.81921E-04-7.00196E-14
 -1      3297 1.39873E-02-1.02172E-03-6.88168E-14
 -1      3298 1.42398E-02-1.26829E-03-6.95246E-14
 -1      3299 1.42163E-02-1.22705E-03-6.95987E-14
 -1      3300 1.40815E-02-1.18501E-03-6.85325E-14
 -1      3301 5.39820E-03-1.84146E-04-1.54986E-14
 -1      3302 5.35035E-03-1.70759E-04-1.54792E-14
 -1      3303 3.54722E-03 3.70420E-04-5.58254E-15
 -1      3304 3.40332E-03 3.74123E-04-5.14558E-15
 -1      3305 3.32218E-03 3.39764E-04-4.97643E-15
 -1      3306 3.60861E-03 3.32303E-04-5.85163E-15
 -1      3307 9.63932E-03-2.03167E-04-3.16640E-14
 -1      3308 9.76042E-03-2.57833E-04-3.18100E-14
 -1      3309 7.99771E-04-1.87675E-04-3.97482E-16
 -1      3310 8.07794E-04-2.11345E-04-3.92305E-16
 -1      3311 9.37120E-04-2.41145E-04-5.01349E-16
 -1      3312 9.17789E-04-1.94169E-04-5.08803E-16
 -1      3313 2.11254E-03 3.79011E-04-2.01765E-15
 -1      3314 1.96914E-03 3.73546E-04-1.76032E-15
 -1      3315 8.66278E-03-1.06813E-03-2.63652E-14
 -1      3316 8.80443E-03-9.65715E-04-2.68951E-14
 -1      3317 1.00896E-02-3.85958E-04-3.12971E-14
 -1      3318 1.00700E-02-3.96525E-04-3.12669E-14
 -1      3319 6.07190E-03-4.65654E-04-1.61171E-14
 -1      3320 1.44527E-03-3.03887E-04-1.08443E-15
 -1      3321 1.58875E-03-3.16619E-04-1.28738E-15
 -1      3322 1.65241E-03-2.88304E-04-1.41154E-15
 -1      3323 7.85601E-03 6.81608E-04-2.41457E-14
 -1      3324 8.01465E-03 6.15581E-04-2.49643E-14
 -1      3325 1.00283E-02-4.18486E-04-3.12926E-14
 -1      3326 9.95379E-03-4.46299E-04-3.11602E-14
 -1      3327 6.39499E-03 3.03123E-04-1.76116E-14
 -1      3328 6.58436E-03 3.98883E-04-1.82228E-14
 -1      3329 9.88204E-03-3.08509E-04-3.18203E-14
 -1      3330 9.98376E-03-3.42436E-04-3.18143E-14
 -1      3331 5.62591E-03-2.51495E-04-1.58270E-14
 -1      3332 5.50514E-03-2.14951E-04-1.56481E-14
 -1      3333 5.65452E-03-2.76513E-04-1.55220E-14
 -1      3334 9.54940E-03-5.97150E-04-2.97958E-14
 -1      3335 9.38234E-03-6.73173E-04-2.92034E-14
 -1      3336 9.85209E-03-4.89163E-04-3.09437E-14
 -1      3337 9.70657E-03-5.35296E-04-3.03699E-14
 -1      3338 9.74389E-03-5.67254E-04-3.09671E-14
 -1      3339 8.15249E-03 5.47103E-04-2.56293E-14
 -1      3340 8.29745E-03 4.65494E-04-2.63046E-14
 -1      3341 8.08481E-03 5.96429E-04-2.54168E-14
 -1      3342 1.14569E-03 3.03608E-04-6.25137E-16
 -1      3343 1.08297E-03 2.65403E-04-5.90063E-16
 -1      3344 1.20201E-03 2.65917E-04-7.28353E-16
 -1      3345 1.28895E-03 3.24174E-04-7.78118E-16
 -1      3346 6.07784E-03 9.32503E-05-1.71461E-14
 -1      3347 6.20752E-03 1.80970E-04-1.72561E-14
 -1      3348 5.96673E-03 6.12201E-05-1.67627E-14
 -1      3349 1.82572E-03 3.66123E-04-1.52105E-15
 -1      3350 1.68224E-03 3.56580E-04-1.29978E-15
 -1      3351 1.88868E-03 3.34936E-04-1.66894E-15
 -1      3352 1.01395E-03 1.39785E-05-6.45222E-16
 -1      3353 1.01392E-03-1.18341E-05-6.48163E-16
 -1      3354 1.13420E-03 2.90984E-05-7.79121E-16
 -1      3355 1.01763E-03-9.01235E-05-6.48610E-16
 -1      3356 1.02022E-03-1.17105E-04-6.46008E-16
 -1      3357 7.35313E-03 7.25119E-04-2.14662E-14
 -1      3358 1.02849E-03 1.76314E-04-5.97287E-16
 -1      3359 1.02408E-03 1.47549E-04-6.09457E-16
 -1      3360 1.15322E-03 2.05792E-04-7.18812E-16
 -1      3361 1.00558E-02-3.58024E-04-3.21943E-14
 -1      3362 1.02365E-03-1.44850E-04-6.41726E-16
 -1      3363 1.02794E-03-1.73504E-04-6.35505E-16
 -1      3364 1.14287E-03-1.41263E-04-7.80043E-16
 -1      3365 2.39922E-03 3.85131E-04-2.58718E-15
 -1      3366 2.25589E-03 3.82828E-04-2.29322E-15
 -1      3367 2.17585E-03 3.45389E-04-2.18759E-15
 -1      3368 9.20718E-03-7.74342E-04-2.86523E-14
 -1      3369 5.31313E-03-1.59630E-04-1.52019E-14
 -1      3370 1.39545E-02-7.77400E-04-7.03587E-14
 -1      3371 1.39305E-02-7.36480E-04-7.04232E-14
 -1      3372 1.39395E-02-9.40301E-04-6.89516E-14
 -1      3373 1.40507E-02-9.41029E-04-7.00868E-14
 -1      3374 1.40267E-02-9.00096E-04-7.01532E-14
 -1      3375 6.17112E-03 2.18937E-04-1.68346E-14
 -1      3376 6.28304E-03 2.58975E-04-1.72214E-14
 -1      3377 6.33747E-03 3.33464E-04-1.71806E-14
 -1      3378 9.90953E-03-2.94275E-04-3.26409E-14
 -1      3379 2.74945E-03 3.49558E-04-3.43939E-15
 -1      3380 2.68586E-03 3.86070E-04-3.22837E-15
 -1      3381 2.54253E-03 3.86174E-04-2.89874E-15
 -1      3382 6.99008E-03 7.26650E-04-1.95918E-14
 -1      3383 6.82326E-03 6.84962E-04-1.87727E-14
 -1      3384 7.94403E-03 7.11263E-04-2.49126E-14
 -1      3385 7.78405E-03 7.54251E-04-2.39784E-14
 -1      3386 9.97645E-03-4.77307E-04-3.17674E-14
 -1      3387 1.40027E-02-8.59367E-04-7.02186E-14
 -1      3388 1.39785E-02-8.18299E-04-7.02883E-14
 -1      3389 1.38433E-02-7.77674E-04-6.92163E-14
 -1      3390 1.38915E-02-8.59013E-04-6.90830E-14
 -1      3391 1.01787E-03 9.25451E-05-6.28146E-16
 -1      3392 1.13716E-03 8.55679E-05-7.66057E-16
 -1      3393 1.02055E-03 1.19601E-04-6.19676E-16
 -1      3394 1.42513E-02-1.31551E-03-6.92815E-14
 -1      3395 1.41163E-02-1.27307E-03-6.82126E-14
 -1      3396 1.42831E-02-1.34998E-03-6.93443E-14
 -1      3397 5.41412E-03-1.96742E-04-1.52016E-14
 -1      3398 7.71934E-03 7.32944E-04-2.34797E-14
 -1      3399 8.04478E-03 6.51845E-04-2.54018E-14
 -1      3400 7.07183E-03 7.10903E-04-2.00266E-14
 -1      3401 9.00624E-03-8.46898E-04-2.76592E-14
 -1      3402 9.22862E-03-2.43646E-05-3.02768E-14
 -1      3403 9.39556E-03-9.82107E-05-3.09009E-14
 -1      3404 1.55728E-03 3.50105E-04-1.11720E-15
 -1      3405 1.41380E-03 3.35628E-04-9.30232E-16
 -1      3406 1.36978E-03 3.06055E-04-9.03059E-16
 -1      3407 1.61988E-03 3.22044E-04-1.24465E-15
 -1      3408 1.03420E-03-2.33523E-04-6.10799E-16
 -1      3409 1.04481E-03-2.58873E-04-6.05690E-16
 -1      3410 1.15303E-03-2.74664E-04-7.20507E-16
 -1      3411 1.01006E-02-4.18588E-04-3.19601E-14
 -1      3412 5.65407E-03-7.49346E-05-1.63011E-14
 -1      3413 5.71921E-03-3.27481E-05-1.61938E-14
 -1      3414 5.56208E-03-8.16266E-05-1.58474E-14
 -1      3415 1.01187E-02-3.86429E-04-3.18374E-14
 -1      3416 5.88651E-03-3.76324E-04-1.57964E-14
 -1      3417 5.39846E-03-1.36678E-04-1.56504E-14
 -1      3418 5.42712E-03-1.21955E-04-1.55900E-14
 -1      3419 5.33986E-03-1.38128E-04-1.52904E-14
 -1      3420 6.72943E-03 6.16298E-04-1.83922E-14
 -1      3421 8.48684E-03 3.58237E-04-2.71548E-14
 -1      3422 8.65983E-03 2.58773E-04-2.78890E-14
 -1      3423 9.57351E-03-1.55186E-04-3.18588E-14
 -1      3424 9.74029E-03-1.99747E-04-3.28277E-14
 -1      3425 9.51674E-03-1.04466E-04-3.20529E-14
 -1      3426 7.81808E-03 7.03433E-04-2.40032E-14
 -1      3427 1.26151E-03-2.88423E-04-8.45949E-16
 -1      3428 6.64324E-03 4.63833E-04-1.83097E-14
 -1      3429 8.39786E-03 4.29928E-04-2.69369E-14
 -1      3430 1.32513E-03-2.65339E-04-9.47389E-16
 -1      3431 1.01573E-03-6.36939E-05-6.49803E-16
 -1      3432 1.13693E-03-8.30709E-05-7.86385E-16
 -1      3433 1.01452E-03-3.76832E-05-6.49776E-16
 -1      3434 2.14761E-03-2.75449E-04-2.31072E-15
 -1      3435 2.29103E-03-2.77935E-04-2.60279E-15
 -1      3436 2.43423E-03-2.79272E-04-2.91236E-15
 -1      3437 2.57720E-03-2.79542E-04-3.23985E-15
 -1      3438 2.35582E-03-2.43981E-04-2.77015E-15
 -1      3439 2.71983E-03-2.78934E-04-3.58368E-15
 -1      3440 2.86213E-03-2.77509E-04-3.94510E-15
 -1      3441 2.64140E-03-2.44625E-04-3.42518E-15
 -1      3442 3.00399E-03-2.75444E-04-4.32361E-15
 -1      3443 3.14539E-03-2.72788E-04-4.71926E-15
 -1      3444 2.92534E-03-2.42231E-04-4.14828E-15
 -1      3445 3.28625E-03-2.69717E-04-5.13181E-15
 -1      3446 3.42654E-03-2.66269E-04-5.55978E-15
 -1      3447 3.20708E-03-2.37659E-04-4.94019E-15
 -1      3448 3.56615E-03-2.62639E-04-6.00508E-15
 -1      3449 3.70507E-03-2.58860E-04-6.46637E-15
 -1      3450 3.48603E-03-2.31732E-04-5.79849E-15
 -1      3451 3.84317E-03-2.55157E-04-6.94383E-15
 -1      3452 3.98045E-03-2.51562E-04-7.43673E-15
 -1      3453 3.76154E-03-2.25304E-04-6.72117E-15
 -1      3454 4.11674E-03-2.48345E-04-7.94537E-15
 -1      3455 4.25211E-03-2.45539E-04-8.47038E-15
 -1      3456 4.03289E-03-2.19310E-04-7.70869E-15
 -1      3457 4.38636E-03-2.43461E-04-9.00965E-15
 -1      3458 4.51963E-03-2.42151E-04-9.56472E-15
 -1      3459 4.29927E-03-2.14803E-04-8.75770E-15
 -1      3460 4.65169E-03-2.41966E-04-1.01351E-14
 -1      3461 4.78288E-03-2.42972E-04-1.07205E-14
 -1      3462 4.55990E-03-2.12933E-04-9.86938E-15
 -1      3463 4.91293E-03-2.45529E-04-1.13215E-14
 -1      3464 5.04259E-03-2.49811E-04-1.19379E-14
 -1      3465 4.81411E-03-2.14885E-04-1.10422E-14
 -1      3466 5.17150E-03-2.56123E-04-1.25695E-14
 -1      3467 5.30117E-03-2.65038E-04-1.32158E-14
 -1      3468 5.06174E-03-2.21739E-04-1.22770E-14
 -1      3469 5.26982E-03-1.56745E-04-1.47038E-14
 -1      3470 5.27544E-03-1.45035E-04-1.48495E-14
 -1      3471 1.39342E-02-7.10661E-04-7.06581E-14
 -1      3472 1.39202E-02-6.76792E-04-7.07727E-14
 -1      3473 1.38303E-02-6.59435E-04-6.99826E-14
 -1      3474 1.38228E-02-7.11126E-04-6.95156E-14
 -1      3475 1.39700E-02-1.18356E-03-6.73936E-14
 -1      3476 1.39467E-02-1.14272E-03-6.74690E-14
 -1      3477 1.00382E-02-5.56418E-04-3.30367E-14
 -1      3478 1.01736E-02-5.64874E-04-3.40967E-14
 -1      3479 1.03060E-02-5.77701E-04-3.51697E-14
 -1      3480 1.04378E-02-5.93223E-04-3.62544E-14
 -1      3481 1.02759E-02-5.36438E-04-3.46745E-14
 -1      3482 1.05689E-02-6.11397E-04-3.73529E-14
 -1      3483 1.07004E-02-6.31607E-04-3.84623E-14
 -1      3484 1.05244E-02-5.71667E-04-3.68444E-14
 -1      3485 1.08322E-02-6.53551E-04-3.95825E-14
 -1      3486 1.09650E-02-6.76997E-04-4.07126E-14
 -1      3487 1.07768E-02-6.13573E-04-3.90614E-14
 -1      3488 1.10984E-02-7.01603E-04-4.18534E-14
 -1      3489 1.12329E-02-7.27270E-04-4.30039E-14
 -1      3490 1.10346E-02-6.60533E-04-4.13228E-14
 -1      3491 1.13681E-02-7.53673E-04-4.41600E-14
 -1      3492 1.15043E-02-7.80755E-04-4.53251E-14
 -1      3493 1.12976E-02-7.11212E-04-4.36236E-14
 -1      3494 1.16411E-02-8.08244E-04-4.64965E-14
 -1      3495 1.17788E-02-8.36102E-04-4.76760E-14
 -1      3496 1.15655E-02-7.64412E-04-4.59554E-14
 -1      3497 1.19171E-02-8.64120E-04-4.88641E-14
 -1      3498 1.20561E-02-8.92275E-04-5.00581E-14
 -1      3499 1.18373E-02-8.19086E-04-4.83192E-14
 -1      3500 1.21955E-02-9.20414E-04-5.12611E-14
 -1      3501 1.23355E-02-9.48529E-04-5.24695E-14
 -1      3502 1.21125E-02-8.74397E-04-5.07130E-14
 -1      3503 1.24758E-02-9.76515E-04-5.36852E-14
 -1      3504 1.26166E-02-1.00437E-03-5.49064E-14
 -1      3505 1.23904E-02-9.29732E-04-5.31365E-14
 -1      3506 1.27576E-02-1.03204E-03-5.61339E-14
 -1      3507 1.28990E-02-1.05952E-03-5.73693E-14
 -1      3508 1.26703E-02-9.84678E-04-5.55845E-14
 -1      3509 1.30406E-02-1.08677E-03-5.86061E-14
 -1      3510 1.31824E-02-1.11382E-03-5.98474E-14
 -1      3511 1.29518E-02-1.03899E-03-5.80522E-14
 -1      3512 1.33243E-02-1.14064E-03-6.10949E-14
 -1      3513 1.34665E-02-1.16724E-03-6.23459E-14
 -1      3514 1.32345E-02-1.09256E-03-6.05386E-14
 -1      3515 1.36087E-02-1.19363E-03-6.36008E-14
 -1      3516 1.37511E-02-1.21981E-03-6.48608E-14
 -1      3517 1.35181E-02-1.14535E-03-6.30398E-14
 -1      3518 1.39738E-02-1.24742E-03-6.69403E-14
 -1      3519 4.23998E-03 2.79779E-04-8.11676E-15
 -1      3520 4.09687E-03 2.83014E-04-7.59200E-15
 -1      3521 3.95411E-03 2.86679E-04-7.08490E-15
 -1      3522 3.81154E-03 2.90594E-04-6.59471E-15
 -1      3523 4.01139E-03 2.49190E-04-7.37310E-15
 -1      3524 4.81981E-03 2.75738E-04-1.03864E-14
 -1      3525 4.67322E-03 2.74815E-04-9.79345E-15
 -1      3526 5.11837E-03 2.83528E-04-1.16197E-14
 -1      3527 4.96806E-03 2.78406E-04-1.09945E-14
 -1      3528 4.86860E-03 2.35707E-04-1.07217E-14
 -1      3529 5.42714E-03 3.02789E-04-1.29220E-14
 -1      3530 5.27128E-03 2.91293E-04-1.22623E-14
 -1      3531 5.16488E-03 2.41711E-04-1.19702E-14
 -1      3532 5.75004E-03 3.38966E-04-1.42941E-14
 -1      3533 5.58674E-03 3.18193E-04-1.35998E-14
 -1      3534 5.47285E-03 2.59145E-04-1.32876E-14
 -1      3535 6.09001E-03 3.98508E-04-1.57309E-14
 -1      3536 5.91814E-03 3.65205E-04-1.50040E-14
 -1      3537 5.79770E-03 2.94714E-04-1.46717E-14
 -1      3538 6.41015E-03 4.36532E-04-1.72000E-14
 -1      3539 6.22936E-03 3.88644E-04-1.64417E-14
 -1      3540 8.75055E-03 2.36206E-04-2.85376E-14
 -1      3541 8.83591E-03 1.63973E-04-2.86321E-14
 -1      3542 9.01339E-03 7.56837E-05-2.93806E-14
 -1      3543 7.39310E-03 7.47875E-04-2.16891E-14
 -1      3544 7.19593E-03 7.14366E-04-2.06589E-14
 -1      3545 7.02466E-03 6.70483E-04-1.98192E-14
 -1      3546 9.55197E-03 4.51028E-05-3.40302E-14
 -1      3547 9.38769E-03 9.20020E-05-3.29647E-14
 -1      3548 9.86909E-03-3.35138E-05-3.62007E-14
 -1      3549 9.71244E-03 3.70802E-06-3.51100E-14
 -1      3550 9.68745E-03-2.74746E-05-3.45702E-14
 -1      3551 1.01734E-02-9.73422E-05-3.84183E-14
 -1      3552 1.00226E-02-6.68042E-05-3.73048E-14
 -1      3553 9.99693E-03-9.62166E-05-3.67502E-14
 -1      3554 1.04688E-02-1.51408E-04-4.06827E-14
 -1      3555 1.03220E-02-1.25289E-04-3.95441E-14
 -1      3556 1.02940E-02-1.52814E-04-3.89771E-14
 -1      3557 1.07584E-02-1.99176E-04-4.29919E-14
 -1      3558 1.06141E-02-1.75879E-04-4.18306E-14
 -1      3559 1.05831E-02-2.01954E-04-4.12491E-14
 -1      3560 1.10448E-02-2.43074E-04-4.53516E-14
 -1      3561 1.09019E-02-2.21476E-04-4.41666E-14
 -1      3562 1.08676E-02-2.46631E-04-4.35680E-14
 -1      3563 1.13294E-02-2.84812E-04-4.77619E-14
 -1      3564 1.11872E-02-2.64126E-04-4.65496E-14
 -1      3565 1.11499E-02-2.88789E-04-4.59380E-14
 -1      3566 1.16132E-02-3.25585E-04-5.02105E-14
 -1      3567 1.14713E-02-3.05264E-04-4.89826E-14
 -1      3568 1.14313E-02-3.29728E-04-4.83535E-14
 -1      3569 1.18969E-02-3.66200E-04-5.26962E-14
 -1      3570 1.17550E-02-3.45878E-04-5.14492E-14
 -1      3571 1.17126E-02-3.70319E-04-5.08093E-14
 -1      3572 1.21807E-02-4.07184E-04-5.52074E-14
 -1      3573 1.20388E-02-3.86626E-04-5.39495E-14
 -1      3574 1.19944E-02-4.11136E-04-5.32982E-14
 -1      3575 1.24648E-02-4.48850E-04-5.77328E-14
 -1      3576 1.23227E-02-4.27922E-04-5.64689E-14
 -1      3577 1.22767E-02-4.52536E-04-5.58088E-14
 -1      3578 1.27493E-02-4.91358E-04-6.02702E-14
 -1      3579 1.26070E-02-4.69996E-04-5.89979E-14
 -1      3580 1.25597E-02-4.94717E-04-5.83316E-14
 -1      3581 1.30340E-02-5.34759E-04-6.28163E-14
 -1      3582 1.28916E-02-5.12948E-04-6.15436E-14
 -1      3583 1.28434E-02-5.37762E-04-6.08668E-14
 -1      3584 1.33190E-02-5.79034E-04-6.53727E-14
 -1      3585 1.31765E-02-5.56793E-04-6.40941E-14
 -1      3586 1.31275E-02-5.81676E-04-6.34110E-14
 -1      3587 9.21842E-03 1.44299E-04-3.19124E-14
 -1      3588 9.04564E-03 2.03914E-04-3.08753E-14
 -1      3589 9.36016E-03 6.02553E-05-3.24408E-14
 -1      3590 1.38763E-02-1.02080E-03-6.76821E-14
 -1      3591 1.38525E-02-9.80278E-04-6.77501E-14
 -1      3592 4.52792E-03 2.75440E-04-9.21781E-15
 -1      3593 4.38358E-03 2.77160E-04-8.65908E-15
 -1      3594 4.29458E-03 2.41852E-04-8.42237E-15
 -1      3595 4.57959E-03 2.36709E-04-9.53914E-15
 -1      3596 9.89179E-03-5.61418E-04-3.20055E-14
 -1      3597 9.13047E-03 4.63880E-05-3.01854E-14
 -1      3598 1.02455E-03-2.09191E-04-6.14214E-16
 -1      3599 9.96007E-03-2.84068E-04-3.35476E-14
 -1      3600 1.00546E-02-3.27050E-04-3.35570E-14
 -1      3601 3.09888E-03 3.08766E-04-4.40484E-15
 -1      3602 2.95605E-03 3.11270E-04-4.01968E-15
 -1      3603 1.21347E-03-2.26181E-04-8.27937E-16
 -1      3604 1.39666E-03-2.39493E-04-1.06333E-15
 -1      3605 1.01663E-02-4.17552E-04-3.26026E-14
 -1      3606 1.01408E-02-4.38212E-04-3.26294E-14
 -1      3607 1.86049E-03-2.66303E-04-1.77846E-15
 -1      3608 2.00409E-03-2.71606E-04-2.03579E-15
 -1      3609 2.06920E-03-2.39355E-04-2.18421E-15
 -1      3610 1.57357E-03-2.50529E-04-1.31583E-15
 -1      3611 1.71697E-03-2.59318E-04-1.53846E-15
 -1      3612 1.78226E-03-2.29677E-04-1.66829E-15
 -1      3613 5.40941E-03-2.10825E-04-1.47351E-14
 -1      3614 5.31367E-03-1.81499E-04-1.45898E-14
 -1      3615 1.39233E-02-1.10200E-03-6.75408E-14
 -1      3616 1.38998E-02-1.06137E-03-6.76129E-14
 -1      3617 1.37653E-02-1.01967E-03-6.65501E-14
 -1      3618 1.38121E-02-1.10054E-03-6.64065E-14
 -1      3619 1.01501E-02-3.87039E-04-3.24985E-14
 -1      3620 1.01728E-02-4.00614E-04-3.25963E-14
 -1      3621 1.00200E-02-5.18305E-04-3.25725E-14
 -1      3622 1.95252E-03 3.03271E-04-1.82048E-15
 -1      3623 1.80883E-03 2.96745E-04-1.57765E-15
 -1      3624 5.84449E-03 3.15314E-05-1.63011E-14
 -1      3625 5.96536E-03 1.06005E-04-1.64058E-14
 -1      3626 5.72983E-03 1.19384E-05-1.58456E-14
 -1      3627 1.01006E-02-3.54294E-04-3.32577E-14
 -1      3628 1.01295E-02-3.73242E-04-3.27998E-14
 -1      3629 1.02068E-02-3.88123E-04-3.35686E-14
 -1      3630 1.01480E-02-3.47084E-04-3.41739E-14
 -1      3631 1.38825E-02-1.19906E-03-6.63733E-14
 -1      3632 6.87506E-03 6.11816E-04-1.91344E-14
 -1      3633 6.69540E-03 5.54828E-04-1.83323E-14
 -1      3634 1.27944E-03 2.35546E-04-8.50923E-16
 -1      3635 1.27293E-03 2.02015E-04-8.68798E-16
 -1      3636 2.46279E-03 3.49796E-04-2.77802E-15
 -1      3637 5.38747E-03-1.04280E-04-1.51305E-14
 -1      3638 5.46882E-03-9.63370E-05-1.54870E-14
 -1      3639 5.51466E-03-6.44273E-05-1.53820E-14
 -1      3640 1.38287E-02-9.39763E-04-6.78171E-14
 -1      3641 1.38046E-02-8.99222E-04-6.78835E-14
 -1      3642 1.37179E-02-9.39038E-04-6.66858E-14
 -1      3643 5.23902E-03-1.63939E-04-1.42484E-14
 -1      3644 5.17685E-03-1.48871E-04-1.39089E-14
 -1      3645 5.21081E-03-1.74993E-04-1.37979E-14
 -1      3646 5.43253E-03-2.77702E-04-1.38757E-14
 -1      3647 5.56597E-03-2.94294E-04-1.45521E-14
 -1      3648 2.81309E-03 3.13100E-04-3.65220E-15
 -1      3649 2.66996E-03 3.14185E-04-3.30291E-15
 -1      3650 2.87673E-03 2.76801E-04-3.86736E-15
 -1      3651 1.14328E-03 1.44023E-04-7.46256E-16
 -1      3652 1.25981E-03 1.06522E-04-9.08629E-16
 -1      3653 1.25734E-03 7.61039E-05-9.17953E-16
 -1      3654 1.37827E-03 6.43052E-05-1.08323E-15
 -1      3655 1.25568E-03 4.59521E-05-9.25407E-16
 -1      3656 1.25484E-03 1.60521E-05-9.30910E-16
 -1      3657 1.72980E-03 2.59132E-04-1.48597E-15
 -1      3658 1.66524E-03 2.88303E-04-1.35231E-15
 -1      3659 1.02236E-02-4.17832E-04-3.32712E-14
 -1      3660 1.54003E-03 2.82986E-04-1.16682E-15
 -1      3661 3.72864E-03 2.57330E-04-6.39153E-15
 -1      3662 3.66908E-03 2.94586E-04-6.12112E-15
 -1      3663 3.52662E-03 2.98537E-04-5.66516E-15
 -1      3664 6.09914E-03 3.05839E-04-1.60874E-14
 -1      3665 1.14367E-03-2.09147E-04-7.51799E-16
 -1      3666 8.21403E-03 5.55841E-04-2.62263E-14
 -1      3667 8.04062E-03 6.28781E-04-2.52703E-14
 -1      3668 1.00991E-02-4.81702E-04-3.27936E-14
 -1      3669 8.56528E-03 3.83011E-04-2.80651E-14
 -1      3670 8.38336E-03 4.66316E-04-2.70778E-14
 -1      3671 1.36042E-02-6.24112E-04-6.79355E-14
 -1      3672 1.34616E-02-6.01477E-04-6.66532E-14
 -1      3673 1.37403E-02-6.42149E-04-6.91910E-14
 -1      3674 5.59851E-03-2.80874E-04-1.49604E-14
 -1      3675 5.48389E-03-2.39142E-04-1.47897E-14
 -1      3676 1.13413E-03-2.67400E-05-7.85870E-16
 -1      3677 8.86831E-03 2.70426E-04-2.98505E-14
 -1      3678 8.68936E-03 3.43715E-04-2.88390E-14
 -1      3679 3.38414E-03 3.02286E-04-5.22729E-15
 -1      3680 3.24156E-03 3.05748E-04-4.80734E-15
 -1      3681 3.16161E-03 2.71973E-04-4.63835E-15
 -1      3682 3.44553E-03 2.65217E-04-5.47961E-15
 -1      3683 2.23979E-03 3.11480E-04-2.36004E-15
 -1      3684 2.09617E-03 3.08143E-04-2.08106E-15
 -1      3685 2.01705E-03 2.71187E-04-1.97509E-15
 -1      3686 9.90945E-03-2.48021E-04-3.37494E-14
 -1      3687 1.00660E-02-2.87044E-04-3.46806E-14
 -1      3688 9.86160E-03-2.08063E-04-3.39513E-14
 -1      3689 1.46202E-03-2.14125E-04-1.17174E-15
 -1      3690 5.27556E-03-1.35251E-04-1.47923E-14
 -1      3691 5.28390E-03-1.24627E-04-1.47351E-14
 -1      3692 5.21482E-03-1.32681E-04-1.43016E-14
 -1      3693 9.42376E-03-1.38260E-05-3.22871E-14
 -1      3694 9.59828E-03-7.06333E-05-3.32657E-14
 -1      3695 1.01886E-02-4.74554E-04-3.34453E-14
 -1      3696 1.25712E-03-7.35058E-05-9.36805E-16
 -1      3697 1.25951E-03-1.03870E-04-9.35206E-16
 -1      3698 8.70780E-03 2.83734E-04-2.85682E-14
 -1      3699 8.87140E-03 1.98758E-04-2.93192E-14
 -1      3700 1.37322E-02-7.77838E-04-6.80761E-14
 -1      3701 1.37080E-02-7.37203E-04-6.81434E-14
 -1      3702 5.35692E-03-2.18330E-04-1.41878E-14
 -1      3703 5.30504E-03-2.35584E-04-1.35715E-14
 -1      3704 1.36904E-02-6.67127E-04-6.84942E-14
 -1      3705 1.34121E-02-6.26408E-04-6.59630E-14
 -1      3706 9.01159E-03 1.75970E-04-3.03648E-14
 -1      3707 9.25346E-03 3.67633E-05-3.12467E-14
 -1      3708 1.70506E-03-1.93889E-04-1.55929E-15
 -1      3709 1.84831E-03-1.99439E-04-1.80070E-15
 -1      3710 2.52670E-03 3.14352E-04-2.97103E-15
 -1      3711 2.38330E-03 3.13517E-04-2.65661E-15
 -1      3712 2.30423E-03 2.77373E-04-2.53528E-15
 -1      3713 1.26280E-03-1.34773E-04-9.31940E-16
 -1      3714 1.26700E-03-1.66359E-04-9.26424E-16
 -1      3715 1.36869E-02-6.92861E-04-6.82645E-14
 -1      3716 2.56378E-03-2.10356E-04-3.26764E-15
 -1      3717 2.70598E-03-2.09958E-04-3.61229E-15
 -1      3718 2.84766E-03-2.08982E-04-3.97437E-15
 -1      3719 2.98876E-03-2.07461E-04-4.35384E-15
 -1      3720 2.77098E-03-1.75622E-04-3.80158E-15
 -1      3721 3.12917E-03-2.05560E-04-4.74959E-15
 -1      3722 3.26882E-03-2.03296E-04-5.16246E-15
 -1      3723 3.05248E-03-1.73280E-04-4.56033E-15
 -1      3724 3.40760E-03-2.00849E-04-5.59179E-15
 -1      3725 3.54545E-03-1.98222E-04-6.03696E-15
 -1      3726 3.33077E-03-1.69772E-04-5.38563E-15
 -1      3727 3.68222E-03-1.95622E-04-6.49895E-15
 -1      3728 3.81784E-03-1.93037E-04-6.97699E-15
 -1      3729 3.60501E-03-1.65798E-04-6.27695E-15
 -1      3730 3.95215E-03-1.90711E-04-7.47109E-15
 -1      3731 4.08509E-03-1.88610E-04-7.98047E-15
 -1      3732 3.87427E-03-1.62104E-04-7.23346E-15
 -1      3733 4.21642E-03-1.87028E-04-8.50623E-15
 -1      3734 4.34612E-03-1.85887E-04-9.04704E-15
 -1      3735 4.13745E-03-1.59495E-04-8.25379E-15
 -1      3736 4.47387E-03-1.85534E-04-9.60350E-15
 -1      3737 4.59972E-03-1.85821E-04-1.01756E-14
 -1      3738 4.39319E-03-1.58819E-04-9.33761E-15
 -1      3739 4.72320E-03-1.87164E-04-1.07630E-14
 -1      3740 4.84451E-03-1.89275E-04-1.13665E-14
 -1      3741 4.63975E-03-1.60862E-04-1.04833E-14
 -1      3742 4.96290E-03-1.92665E-04-1.19849E-14
 -1      3743 5.07896E-03-1.96719E-04-1.26186E-14
 -1      3744 4.87483E-03-1.66200E-04-1.16922E-14
 -1      3745 5.75778E-03-3.41942E-04-1.52776E-14
 -1      3746 6.51122E-03 4.76030E-04-1.75920E-14
 -1      3747 1.79518E-03 2.29313E-04-1.62300E-15
 -1      3748 1.65180E-03 2.22386E-04-1.39447E-15
 -1      3749 1.02843E-02-4.20266E-04-3.40507E-14
 -1      3750 1.02872E-02-4.38209E-04-3.40580E-14
 -1      3751 1.32662E-03 2.77278E-04-8.74910E-16
 -1      3752 1.44625E-03 2.71666E-04-1.04251E-15
 -1      3753 1.04826E-02-5.34111E-04-3.63370E-14
 -1      3754 1.06018E-02-5.54289E-04-3.74342E-14
 -1      3755 1.07229E-02-5.75419E-04-3.85420E-14
 -1      3756 1.08463E-02-5.97803E-04-3.96616E-14
 -1      3757 1.06695E-02-5.39638E-04-3.80234E-14
 -1      3758 1.09716E-02-6.21001E-04-4.07924E-14
 -1      3759 1.10989E-02-6.45199E-04-4.19333E-14
 -1      3760 1.09090E-02-5.83546E-04-4.02636E-14
 -1      3761 1.12278E-02-6.70034E-04-4.30852E-14
 -1      3762 1.13584E-02-6.95606E-04-4.42448E-14
 -1      3763 1.11583E-02-6.30673E-04-4.25461E-14
 -1      3764 1.14903E-02-7.21613E-04-4.54118E-14
 -1      3765 1.16236E-02-7.48105E-04-4.65878E-14
 -1      3766 1.14156E-02-6.80395E-04-4.48675E-14
 -1      3767 1.17580E-02-7.74840E-04-4.77712E-14
 -1      3768 1.18935E-02-8.01845E-04-4.89641E-14
 -1      3769 1.16791E-02-7.31953E-04-4.72224E-14
 -1      3770 1.20300E-02-8.28935E-04-5.01638E-14
 -1      3771 1.21672E-02-8.56128E-04-5.13701E-14
 -1      3772 1.19478E-02-7.84624E-04-4.96111E-14
 -1      3773 1.23052E-02-8.83290E-04-5.25843E-14
 -1      3774 1.24439E-02-9.10435E-04-5.38053E-14
 -1      3775 1.22205E-02-8.37805E-04-5.20296E-14
 -1      3776 1.25831E-02-9.37471E-04-5.50320E-14
 -1      3777 1.27229E-02-9.64413E-04-5.62628E-14
 -1      3778 1.24964E-02-8.91047E-04-5.44758E-14
 -1      3779 1.28631E-02-9.91202E-04-5.74974E-14
 -1      3780 1.30037E-02-1.01785E-03-5.87375E-14
 -1      3781 1.27748E-02-9.44042E-04-5.69404E-14
 -1      3782 1.31447E-02-1.04433E-03-5.99829E-14
 -1      3783 1.32859E-02-1.07066E-03-6.12313E-14
 -1      3784 1.30551E-02-9.96608E-04-5.94251E-14
 -1      3785 1.34274E-02-1.09681E-03-6.24827E-14
 -1      3786 1.35692E-02-1.12280E-03-6.37382E-14
 -1      3787 1.33370E-02-1.04866E-03-6.19236E-14
 -1      3788 4.06755E-03 2.12240E-04-7.66145E-15
 -1      3789 3.92756E-03 2.16439E-04-7.15431E-15
 -1      3790 6.00021E-03 1.51153E-04-1.63042E-14
 -1      3791 6.06571E-03 2.24748E-04-1.62647E-14
 -1      3792 5.20724E-03 1.98936E-04-1.23206E-14
 -1      3793 5.05952E-03 1.95995E-04-1.16806E-14
 -1      3794 4.91436E-03 1.95370E-04-1.10575E-14
 -1      3795 4.77099E-03 1.96111E-04-1.04505E-14
 -1      3796 4.95685E-03 1.54570E-04-1.13931E-14
 -1      3797 5.83860E-03 2.47828E-04-1.50486E-14
 -1      3798 5.67294E-03 2.27238E-04-1.43427E-14
 -1      3799 1.21628E-03-1.86900E-04-8.52481E-16
 -1      3800 1.38333E-03-1.25789E-04-1.09658E-15
 -1      3801 1.35758E-02-6.93387E-04-6.71238E-14
 -1      3802 5.87633E-03 1.20819E-04-1.58464E-14
 -1      3803 1.49278E-03 2.40527E-04-1.13765E-15
 -1      3804 5.94397E-03 2.44877E-04-1.55695E-14
 -1      3805 1.33633E-03-1.80949E-04-1.01220E-15
 -1      3806 1.01239E-02-1.54985E-04-3.72970E-14
 -1      3807 9.97562E-03-1.26694E-04-3.61970E-14
 -1      3808 1.34336E-02-6.70576E-04-6.58486E-14
 -1      3809 1.06953E-02-2.49982E-04-4.18157E-14
 -1      3810 1.05545E-02-2.27886E-04-4.06680E-14
 -1      3811 1.09748E-02-2.92260E-04-4.41454E-14
 -1      3812 1.08353E-02-2.71340E-04-4.29744E-14
 -1      3813 1.08048E-02-2.95633E-04-4.23813E-14
 -1      3814 1.12532E-02-3.33222E-04-4.65218E-14
 -1      3815 1.11140E-02-3.12835E-04-4.53276E-14
 -1      3816 1.10796E-02-3.36271E-04-4.47200E-14
 -1      3817 1.15317E-02-3.73771E-04-4.89457E-14
 -1      3818 1.13924E-02-3.53510E-04-4.77290E-14
 -1      3819 1.13546E-02-3.76595E-04-4.71058E-14
 -1      3820 1.18108E-02-4.14479E-04-5.14050E-14
 -1      3821 1.16711E-02-3.94084E-04-5.01708E-14
 -1      3822 1.16305E-02-4.17144E-04-4.95353E-14
 -1      3823 1.20909E-02-4.55708E-04-5.38957E-14
 -1      3824 1.19507E-02-4.35018E-04-5.26473E-14
 -1      3825 1.19078E-02-4.58237E-04-5.19996E-14
 -1      3826 1.23721E-02-4.97669E-04-5.64058E-14
 -1      3827 1.22313E-02-4.76594E-04-5.51484E-14
 -1      3828 1.21865E-02-5.00058E-04-5.44896E-14
 -1      3829 1.26541E-02-5.40463E-04-5.89272E-14
 -1      3830 1.25130E-02-5.18964E-04-5.76655E-14
 -1      3831 1.24667E-02-5.42699E-04-5.70002E-14
 -1      3832 1.29371E-02-5.84108E-04-6.14618E-14
 -1      3833 1.27955E-02-5.62183E-04-6.01923E-14
 -1      3834 1.27481E-02-5.86179E-04-5.95217E-14
 -1      3835 1.32208E-02-6.28576E-04-6.40025E-14
 -1      3836 1.30788E-02-6.06243E-04-6.27317E-14
 -1      3837 1.30305E-02-6.30469E-04-6.20537E-14
 -1      3838 9.05461E-03 1.27886E-04-3.03344E-14
 -1      3839 1.50444E-03-1.14578E-04-1.27405E-15
 -1      3840 1.50824E-03-1.48458E-04-1.26989E-15
 -1      3841 1.25480E-03-1.36707E-05-9.34433E-16
 -1      3842 1.25556E-03-4.34876E-05-9.36642E-16
 -1      3843 1.37809E-03-6.17232E-05-1.09994E-15
 -1      3844 1.37643E-03 1.21864E-06-1.09557E-15
 -1      3845 1.37478E-02-1.15641E-03-6.53150E-14
 -1      3846 1.37806E-02-8.58762E-04-6.79491E-14
 -1      3847 1.37565E-02-8.18350E-04-6.80127E-14
 -1      3848 1.36214E-02-7.77905E-04-6.69420E-14
 -1      3849 1.51254E-03-1.90178E-04-1.25876E-15
 -1      3850 1.55832E-03 2.13711E-04-1.25725E-15
 -1      3851 1.46503E-03 2.04454E-04-1.12723E-15
 -1      3852 1.62456E-03 1.85938E-04-1.38057E-15
 -1      3853 5.24437E-03-2.09735E-04-1.35193E-14
 -1      3854 1.02963E-02-4.62358E-04-3.42825E-14
 -1      3855 1.02804E-02-5.01962E-04-3.44525E-14
 -1      3856 1.03958E-02-5.20041E-04-3.55271E-14
 -1      3857 1.03763E-02-4.63931E-04-3.50734E-14
 -1      3858 7.91583E-03 6.82505E-04-2.46068E-14
 -1      3859 1.99166E-03-2.03721E-04-2.05913E-15
 -1      3860 2.13500E-03-2.06812E-04-2.33524E-15
 -1      3861 1.91504E-03-1.68628E-04-1.93568E-15
 -1      3862 1.04127E-02-2.04984E-04-3.95332E-14
 -1      3863 1.02693E-02-1.80676E-04-3.84092E-14
 -1      3864 1.02481E-02-2.09068E-04-3.78433E-14
 -1      3865 5.14340E-03-1.80875E-04-1.32112E-14
 -1      3866 9.72808E-03-7.90692E-05-3.43860E-14
 -1      3867 9.80522E-03-1.58022E-04-3.41432E-14
 -1      3868 9.97296E-03-2.08167E-04-3.50826E-14
 -1      3869 9.88202E-03-1.12467E-04-3.54666E-14
 -1      3870 5.80441E-03 1.70393E-04-1.52246E-14
 -1      3871 5.51302E-03 2.13690E-04-1.36518E-14
 -1      3872 5.35808E-03 2.04271E-04-1.29773E-14
 -1      3873 5.54718E-03 1.65991E-04-1.40147E-14
 -1      3874 5.59210E-03-1.24594E-05-1.53118E-14
 -1      3875 5.69526E-03 4.43863E-05-1.54115E-14
 -1      3876 1.36597E-03 1.86912E-04-1.00210E-15
 -1      3877 1.24076E-03 1.61257E-04-8.55341E-16
 -1      3878 1.23669E-03 1.29930E-04-8.67728E-16
 -1      3879 1.43257E-03 1.61831E-04-1.11110E-15
 -1      3880 2.27819E-03-2.08888E-04-2.62881E-15
 -1      3881 2.42116E-03-2.10014E-04-2.93948E-15
 -1      3882 2.48703E-03-1.76113E-04-3.11079E-15
 -1      3883 2.20141E-03-1.74031E-04-2.48828E-15
 -1      3884 1.36567E-02-1.10790E-03-6.47529E-14
 -1      3885 1.33844E-02-6.94977E-04-6.51602E-14
 -1      3886 1.36337E-02-1.06760E-03-6.48264E-14
 -1      3887 5.30016E-03-1.05702E-04-1.46342E-14
 -1      3888 5.32428E-03-8.29299E-05-1.45322E-14
 -1      3889 5.22011E-03-1.04869E-04-1.41462E-14
 -1      3890 1.36073E-02-9.38104E-04-6.55595E-14
 -1      3891 1.35834E-02-8.98024E-04-6.56253E-14
 -1      3892 2.59089E-03 2.78899E-04-3.16634E-15
 -1      3893 1.02893E-02-4.06288E-04-3.43598E-14
 -1      3894 1.03696E-02-4.25930E-04-3.51586E-14
 -1      3895 1.02780E-02-3.90501E-04-3.46676E-14
 -1      3896 1.50188E-03 8.38828E-05-1.25304E-15
 -1      3897 1.49994E-03 5.06376E-05-1.26217E-15
 -1      3898 1.35714E-03 1.21147E-04-1.03011E-15
 -1      3899 1.93870E-03 2.34723E-04-1.86908E-15
 -1      3900 1.86125E-03 1.98863E-04-1.76336E-15
 -1      3901 2.08229E-03 2.38719E-04-2.13277E-15
 -1      3902 3.84555E-03 1.84549E-04-6.93590E-15
 -1      3903 3.78745E-03 2.20632E-04-6.66351E-15
 -1      3904 3.64709E-03 2.24740E-04-6.18926E-15
 -1      3905 1.34091E-02-7.35106E-04-6.51030E-14
 -1      3906 1.31970E-02-6.92736E-04-6.32692E-14
 -1      3907 1.34336E-02-7.75077E-04-6.50447E-14
 -1      3908 4.20748E-03 2.08159E-04-8.18597E-15
 -1      3909 4.12261E-03 1.75864E-04-7.95077E-15
 -1      3910 4.34759E-03 2.04341E-04-8.72733E-15
 -1      3911 5.58679E-03 5.70306E-05-1.47869E-14
 -1      3912 5.72745E-03 8.41663E-05-1.53121E-14
 -1      3913 5.75421E-03 1.25391E-04-1.52108E-14
 -1      3914 5.24504E-03 1.54885E-04-1.26705E-14
 -1      3915 1.04704E-02-5.04258E-04-3.61071E-14
 -1      3916 1.36544E-02-1.01831E-03-6.54212E-14
 -1      3917 1.36310E-02-9.78183E-04-6.54912E-14
 -1      3918 1.34968E-02-9.36929E-04-6.44339E-14
 -1      3919 2.94047E-03 2.40732E-04-4.08386E-15
 -1      3920 2.79809E-03 2.42471E-04-3.71522E-15
 -1      3921 5.09122E-03-1.37352E-04-1.33081E-14
 -1      3922 5.14391E-03-1.29454E-04-1.37465E-14
 -1      3923 5.66025E-03 1.35891E-04-1.47004E-14
 -1      3924 1.50162E-03-8.11448E-05-1.27624E-15
 -1      3925 1.62604E-03-1.01463E-04-1.46446E-15
 -1      3926 1.49979E-03-4.80453E-05-1.27590E-15
 -1      3927 1.05285E-02-2.53761E-04-4.00897E-14
 -1      3928 1.36699E-02-8.58492E-04-6.68163E-14
 -1      3929 3.22418E-03 2.35561E-04-4.87327E-15
 -1      3930 3.08250E-03 2.38417E-04-4.47010E-15
 -1      3931 3.00430E-03 2.04984E-04-4.30222E-15
 -1      3932 1.63346E-03-1.79013E-04-1.45027E-15
 -1      3933 1.00154E-02-1.73232E-04-3.60040E-14
 -1      3934 5.13794E-03-1.19052E-04-1.36911E-14
 -1      3935 4.62905E-03 1.98128E-04-9.85969E-15
 -1      3936 4.48799E-03 2.00908E-04-9.28539E-15
 -1      3937 4.39900E-03 1.67242E-04-9.03264E-15
 -1      3938 5.48997E-03-3.26019E-05-1.49580E-14
 -1      3939 1.01676E-02-2.93150E-04-3.56939E-14
 -1      3940 1.02028E-02-3.23032E-04-3.54842E-14
 -1      3941 1.02303E-02-3.48017E-04-3.52304E-14
 -1      3942 1.02594E-02-3.73047E-04-3.49255E-14
 -1      3943 1.03594E-02-3.93891E-04-3.57312E-14
 -1      3944 1.03238E-02-3.53231E-04-3.62490E-14
 -1      3945 1.47819E-03 1.10007E-04-1.20636E-15
 -1      3946 1.59977E-03 9.69447E-05-1.39606E-15
 -1      3947 1.45507E-03 1.35951E-04-1.15896E-15
 -1      3948 4.67622E-03 1.59625E-04-1.01804E-14
 -1      3949 2.36923E-03 2.43112E-04-2.71345E-15
 -1      3950 2.22582E-03 2.41488E-04-2.41410E-15
 -1      3951 2.14815E-03 2.05924E-04-2.29356E-15
 -1      3952 2.65541E-03 2.43496E-04-3.36368E-15
 -1      3953 2.51243E-03 2.43761E-04-3.02974E-15
 -1      3954 2.43469E-03 2.08777E-04-2.89372E-15
 -1      3955 2.72023E-03 2.08232E-04-3.56324E-15
 -1      3956 5.06452E-03-1.63120E-04-1.28863E-14
 -1      3957 1.00677E-02-2.14439E-04-3.59493E-14
 -1      3958 1.01135E-02-2.57342E-04-3.57513E-14
 -1      3959 1.02537E-02-2.96799E-04-3.65667E-14
 -1      3960 1.01543E-02-2.24531E-04-3.66822E-14
 -1      3961 2.97703E-03-1.40823E-04-4.37175E-15
 -1      3962 3.11672E-03-1.39710E-04-4.76783E-15
 -1      3963 3.25549E-03-1.38469E-04-5.18058E-15
 -1      3964 3.39323E-03-1.37090E-04-5.61003E-15
 -1      3965 3.18161E-03-1.06796E-04-4.97653E-15
 -1      3966 3.52982E-03-1.35756E-04-6.05610E-15
 -1      3967 3.66515E-03-1.34439E-04-6.51816E-15
 -1      3968 3.45641E-03-1.05278E-04-5.83572E-15
 -1      3969 3.79906E-03-1.33355E-04-6.99657E-15
 -1      3970 3.93144E-03-1.32449E-04-7.49131E-15
 -1      3971 3.72616E-03-1.04149E-04-6.76022E-15
 -1      3972 4.06207E-03-1.31990E-04-8.00181E-15
 -1      3973 4.19082E-03-1.31874E-04-8.52844E-15
 -1      3974 3.98974E-03-1.04053E-04-7.75011E-15
 -1      3975 4.31741E-03-1.32443E-04-9.07179E-15
 -1      3976 4.44166E-03-1.33501E-04-9.62945E-15
 -1      3977 4.24573E-03-1.05709E-04-8.80466E-15
 -1      3978 4.56318E-03-1.35460E-04-1.02025E-14
 -1      3979 4.68173E-03-1.37990E-04-1.07926E-14
 -1      3980 4.49228E-03-1.09879E-04-9.92273E-15
 -1      3981 4.79669E-03-1.41730E-04-1.13977E-14
 -1      3982 4.90778E-03-1.45845E-04-1.20183E-14
 -1      3983 4.72663E-03-1.17229E-04-1.11032E-14
 -1      3984 1.06144E-02-5.06418E-04-3.75046E-14
 -1      3985 1.07281E-02-5.27053E-04-3.86147E-14
 -1      3986 4.72103E-03 1.21601E-04-1.05011E-14
 -1      3987 4.58480E-03 1.26093E-04-9.91163E-15
 -1      3988 4.99559E-03 1.13895E-04-1.17277E-14
 -1      3989 4.85766E-03 1.17363E-04-1.11062E-14
 -1      3990 4.76338E-03 8.40200E-05-1.08211E-14
 -1      3991 5.37661E-03-4.43657E-05-1.44645E-14
 -1      3992 5.43423E-03 2.51753E-06-1.43927E-14
 -1      3993 5.27261E-03-5.07345E-05-1.39794E-14
 -1      3994 1.08452E-02-5.48154E-04-3.97339E-14
 -1      3995 1.09653E-02-5.70329E-04-4.08645E-14
 -1      3996 1.07792E-02-5.14785E-04-3.92055E-14
 -1      3997 1.10881E-02-5.93064E-04-4.20092E-14
 -1      3998 1.12132E-02-6.16645E-04-4.31611E-14
 -1      3999 1.10163E-02-5.57145E-04-4.14710E-14
 -1      4000 1.13404E-02-6.40698E-04-4.43214E-14
 -1      4001 1.14694E-02-6.65376E-04-4.54918E-14
 -1      4002 1.12642E-02-6.02466E-04-4.37754E-14
 -1      4003 1.16000E-02-6.90389E-04-4.66723E-14
 -1      4004 1.17322E-02-7.15822E-04-4.78607E-14
 -1      4005 1.15203E-02-6.50108E-04-4.61198E-14
 -1      4006 1.18656E-02-7.41452E-04-4.90563E-14
 -1      4007 1.20002E-02-7.67328E-04-5.02619E-14
 -1      4008 1.17831E-02-6.99397E-04-4.85010E-14
 -1      4009 1.21358E-02-7.93287E-04-5.14738E-14
 -1      4010 1.22724E-02-8.19361E-04-5.26920E-14
 -1      4011 1.20510E-02-7.49728E-04-5.09139E-14
 -1      4012 1.24097E-02-8.45429E-04-5.39158E-14
 -1      4013 1.25479E-02-8.71517E-04-5.51458E-14
 -1      4014 1.23231E-02-8.00624E-04-5.33543E-14
 -1      4015 1.26866E-02-8.97544E-04-5.63815E-14
 -1      4016 1.28259E-02-9.23529E-04-5.76190E-14
 -1      4017 1.25985E-02-8.51718E-04-5.58194E-14
 -1      4018 1.29658E-02-9.49416E-04-5.88644E-14
 -1      4019 1.31060E-02-9.75226E-04-6.01136E-14
 -1      4020 1.28765E-02-9.02776E-04-5.83025E-14
 -1      4021 1.32467E-02-1.00093E-03-6.13612E-14
 -1      4022 1.33877E-02-1.02653E-03-6.26149E-14
 -1      4023 1.31565E-02-9.53638E-04-6.07991E-14
 -1      4024 5.45928E-03 3.50486E-05-1.42954E-14
 -1      4025 5.48187E-03 6.97126E-05-1.41977E-14
 -1      4026 5.33924E-03 1.93959E-05-1.38134E-14
 -1      4027 1.14539E-02-4.19051E-04-4.76896E-14
 -1      4028 1.13176E-02-3.98874E-04-4.64853E-14
 -1      4029 3.50646E-03 2.28642E-04-5.73327E-15
 -1      4030 3.36549E-03 2.32292E-04-5.29447E-15
 -1      4031 3.28661E-03 1.99620E-04-5.11014E-15
 -1      4032 3.56700E-03 1.92639E-04-5.98858E-15
 -1      4033 4.98970E-03-1.39668E-04-1.25774E-14
 -1      4034 4.95133E-03-1.18435E-04-1.24225E-14
 -1      4035 1.55354E-03 1.51008E-04-1.29516E-15
 -1      4036 1.70059E-03-1.50289E-04-1.57123E-15
 -1      4037 1.11819E-02-3.78837E-04-4.52943E-14
 -1      4038 1.10464E-02-3.58929E-04-4.41164E-14
 -1      4039 1.12815E-02-4.20317E-04-4.58689E-14
 -1      4040 5.50577E-03 1.26947E-04-1.40054E-14
 -1      4041 1.04529E-02-4.77519E-04-3.58782E-14
 -1      4042 1.05325E-02-4.91993E-04-3.66896E-14
 -1      4043 1.04288E-02-4.53562E-04-3.56479E-14
 -1      4044 2.69533E-03-1.42195E-04-3.62964E-15
 -1      4045 2.83654E-03-1.41652E-04-3.99247E-15
 -1      4046 2.90273E-03-1.08105E-04-4.18421E-15
 -1      4047 1.09112E-02-3.39099E-04-4.29465E-14
 -1      4048 1.07761E-02-3.19275E-04-4.17898E-14
 -1      4049 1.10143E-02-3.80798E-04-4.35122E-14
 -1      4050 1.17277E-02-4.59962E-04-5.01228E-14
 -1      4051 1.15905E-02-4.39418E-04-4.89016E-14
 -1      4052 1.15511E-02-4.60875E-04-4.82693E-14
 -1      4053 1.20035E-02-5.01686E-04-5.25909E-14
 -1      4054 1.18654E-02-4.80728E-04-5.13535E-14
 -1      4055 1.18234E-02-5.02457E-04-5.07091E-14
 -1      4056 1.22812E-02-5.44259E-04-5.50836E-14
 -1      4057 1.21421E-02-5.22873E-04-5.38354E-14
 -1      4058 1.20981E-02-5.45007E-04-5.31814E-14
 -1      4059 1.25606E-02-5.87680E-04-5.75911E-14
 -1      4060 1.24207E-02-5.65872E-04-5.63340E-14
 -1      4061 1.23750E-02-5.88452E-04-5.56714E-14
 -1      4062 1.28415E-02-6.31906E-04-6.01115E-14
 -1      4063 1.27009E-02-6.09701E-04-5.88496E-14
 -1      4064 1.26539E-02-6.32722E-04-5.81781E-14
 -1      4065 1.30896E-02-6.73459E-04-6.23212E-14
 -1      4066 1.29486E-02-6.50921E-04-6.10571E-14
 -1      4067 1.29007E-02-6.74275E-04-6.03800E-14
 -1      4068 1.31147E-02-7.12900E-04-6.22693E-14
 -1      4069 1.34996E-02-1.02566E-03-6.37730E-14
 -1      4070 1.49895E-03 1.77213E-05-1.26883E-15
 -1      4071 1.49889E-03-1.51152E-05-1.27329E-15
 -1      4072 1.62225E-03 3.54769E-05-1.45396E-15
 -1      4073 1.04301E-02-2.67171E-04-3.89042E-14
 -1      4074 1.02928E-02-2.46192E-04-3.77878E-14
 -1      4075 1.03379E-02-2.81563E-04-3.77282E-14
 -1      4076 1.06713E-02-3.03443E-04-4.09071E-14
 -1      4077 1.05357E-02-2.83354E-04-3.97716E-14
 -1      4078 1.05737E-02-3.15821E-04-3.97117E-14
 -1      4079 1.07789E-02-3.46165E-04-4.14636E-14
 -1      4080 1.64657E-03 1.58147E-04-1.43519E-15
 -1      4081 5.37908E-03 1.03661E-04-1.35278E-14
 -1      4082 1.35208E-02-8.56484E-04-6.53055E-14
 -1      4083 1.34966E-02-8.16524E-04-6.53677E-14
 -1      4084 1.32850E-02-7.73445E-04-6.35394E-14
 -1      4085 1.34106E-02-8.55780E-04-6.41820E-14
 -1      4086 5.25628E-03 1.07113E-04-1.29407E-14
 -1      4087 5.11500E-03 1.08396E-04-1.22888E-14
 -1      4088 5.01132E-03 7.10282E-05-1.19861E-14
 -1      4089 5.24191E-03 5.66723E-05-1.31280E-14
 -1      4090 5.05049E-03-1.00262E-04-1.30535E-14
 -1      4091 5.13459E-03-1.02216E-04-1.35946E-14
 -1      4092 5.13881E-03-8.35114E-05-1.34962E-14
 -1      4093 1.73441E-03-1.27733E-04-1.63476E-15
 -1      4094 1.80547E-03-1.41416E-04-1.75164E-15
 -1      4095 1.94855E-03-1.44823E-04-2.00682E-15
 -1      4096 1.73113E-03-9.21753E-05-1.63776E-15
 -1      4097 2.78543E-03 1.73165E-04-3.76447E-15
 -1      4098 2.64326E-03 1.74121E-04-3.41150E-15
 -1      4099 4.93393E-03-1.01147E-04-1.23318E-14
 -1      4100 4.92271E-03-8.33829E-05-1.22390E-14
 -1      4101 4.81609E-03-1.04471E-04-1.16296E-14
 -1      4102 1.05839E-02-4.80622E-04-3.72699E-14
 -1      4103 4.49742E-03 9.50505E-05-9.64307E-15
 -1      4104 4.44893E-03 1.30803E-04-9.33779E-15
 -1      4105 4.31293E-03 1.35537E-04-8.78034E-15
 -1      4106 1.34087E-02-9.78043E-04-6.32060E-14
 -1      4107 1.03821E-02-3.14407E-04-3.76691E-14
 -1      4108 1.04249E-02-3.44826E-04-3.76081E-14
 -1      4109 1.05108E-02-3.32035E-04-3.87848E-14
 -1      4110 1.62214E-03-3.27554E-05-1.46398E-15
 -1      4111 1.04428E-02-4.38137E-04-3.59642E-14
 -1      4112 2.55353E-03-1.42308E-04-3.28355E-15
 -1      4113 2.62069E-03-1.08673E-04-3.45846E-15
 -1      4114 2.41122E-03-1.41983E-04-2.95516E-15
 -1      4115 1.74625E-03 5.41331E-05-1.65075E-15
 -1      4116 1.74512E-03 1.89286E-05-1.65867E-15
 -1      4117 1.97295E-03-1.08423E-04-2.06364E-15
 -1      4118 2.08185E-03-1.34701E-04-2.26499E-15
 -1      4119 1.04412E-02-3.68297E-04-3.73459E-14
 -1      4120 1.04556E-02-3.89593E-04-3.70845E-14
 -1      4121 1.05607E-02-3.83988E-04-3.84566E-14
 -1      4122 2.22484E-03-1.36367E-04-2.55377E-15
 -1      4123 1.33336E-02-8.68311E-04-6.32918E-14
 -1      4124 1.32712E-02-8.27260E-04-6.29733E-14
 -1      4125 3.06835E-03 1.69620E-04-4.52210E-15
 -1      4126 2.92714E-03 1.71663E-04-4.13492E-15
 -1      4127 2.85103E-03 1.38377E-04-3.96766E-15
 -1      4128 1.33832E-02-9.42894E-04-6.32173E-14
 -1      4129 1.33597E-02-9.03361E-04-6.32851E-14
 -1      4130 1.32206E-02-8.74386E-04-6.20789E-14
 -1      4131 1.32719E-02-9.44021E-04-6.20617E-14
 -1      4132 1.78958E-03 1.63254E-04-1.66684E-15
 -1      4133 1.71898E-03 1.28558E-04-1.57074E-15
 -1      4134 1.93282E-03 1.67213E-04-1.91611E-15
 -1      4135 3.90314E-03 1.49198E-04-7.20841E-15
 -1      4136 3.76551E-03 1.53392E-04-6.71777E-15
 -1      4137 1.74234E-03 1.00377E-04-1.62488E-15
 -1      4138 4.17678E-03 1.40228E-04-8.24065E-15
 -1      4139 4.04018E-03 1.44806E-04-7.71680E-15
 -1      4140 4.23012E-03 1.05382E-04-8.53041E-15
 -1      4141 3.96032E-03 1.14641E-04-7.48282E-15
 -1      4142 1.86461E-03 8.46052E-05-1.84327E-15
 -1      4143 3.10906E-03-7.47578E-05-4.77369E-15
 -1      4144 3.24740E-03-7.44991E-05-5.18653E-15
 -1      4145 1.75710E-03-5.74069E-05-1.68520E-15
 -1      4146 1.86469E-03-8.25906E-05-1.87010E-15
 -1      4147 1.99843E-03-7.20030E-05-2.11827E-15
 -1      4148 3.38464E-03-7.43418E-05-5.61568E-15
 -1      4149 3.52067E-03-7.42498E-05-6.06203E-15
 -1      4150 3.31425E-03-4.28207E-05-5.39724E-15
 -1      4151 3.65534E-03-7.44198E-05-6.52438E-15
 -1      4152 3.78854E-03-7.47822E-05-7.00325E-15
 -1      4153 3.58621E-03-4.40125E-05-6.28921E-15
 -1      4154 3.92010E-03-7.55651E-05-7.49875E-15
 -1      4155 4.04988E-03-7.66837E-05-8.00981E-15
 -1      4156 3.85260E-03-4.62931E-05-7.24761E-15
 -1      4157 4.17764E-03-7.84396E-05-8.53832E-15
 -1      4158 4.30318E-03-8.06584E-05-9.08269E-15
 -1      4159 4.11229E-03-5.02775E-05-8.27193E-15
 -1      4160 4.42623E-03-8.37620E-05-9.64203E-15
 -1      4161 4.54650E-03-8.74942E-05-1.02176E-14
 -1      4162 4.36376E-03-5.66453E-05-9.36133E-15
 -1      4163 4.70422E-03-9.87796E-05-1.10176E-14
 -1      4164 4.80358E-03 4.75776E-05-1.11407E-14
 -1      4165 4.67441E-03 5.42112E-05-1.05370E-14
 -1      4166 2.50070E-03 1.74417E-04-3.07629E-15
 -1      4167 2.35780E-03 1.74032E-04-2.75828E-15
 -1      4168 2.56723E-03 1.40108E-04-3.26106E-15
 -1      4169 5.16563E-03-5.29529E-05-1.34308E-14
 -1      4170 5.20111E-03-1.64264E-05-1.33619E-14
 -1      4171 5.06379E-03-5.35349E-05-1.28937E-14
 -1      4172 1.07091E-02-4.82930E-04-3.86802E-14
 -1      4173 1.08238E-02-5.02443E-04-3.98004E-14
 -1      4174 1.09417E-02-5.22540E-04-4.09324E-14
 -1      4175 1.10627E-02-5.43699E-04-4.20772E-14
 -1      4176 1.08635E-02-4.89097E-04-4.03977E-14
 -1      4177 1.11861E-02-5.65438E-04-4.32300E-14
 -1      4178 1.13118E-02-5.87945E-04-4.43918E-14
 -1      4179 1.11055E-02-5.29433E-04-4.26833E-14
 -1      4180 1.14394E-02-6.10916E-04-4.55660E-14
 -1      4181 1.15688E-02-6.34475E-04-4.67504E-14
 -1      4182 1.13568E-02-5.72737E-04-4.50123E-14
 -1      4183 1.16997E-02-6.58333E-04-4.79393E-14
 -1      4184 1.18321E-02-6.82594E-04-4.91414E-14
 -1      4185 1.16153E-02-6.18193E-04-4.73807E-14
 -1      4186 1.19657E-02-7.07052E-04-5.03525E-14
 -1      4187 1.21004E-02-7.31765E-04-5.15685E-14
 -1      4188 1.18796E-02-6.65215E-04-4.97870E-14
 -1      4189 1.22362E-02-7.56584E-04-5.27901E-14
 -1      4190 1.23728E-02-7.81551E-04-5.40194E-14
 -1      4191 1.21487E-02-7.13291E-04-5.22240E-14
 -1      4192 1.25102E-02-8.06550E-04-5.52534E-14
 -1      4193 1.26484E-02-8.31618E-04-5.64931E-14
 -1      4194 1.24217E-02-7.62016E-04-5.46853E-14
 -1      4195 1.27872E-02-8.56681E-04-5.77361E-14
 -1      4196 1.29265E-02-8.81762E-04-5.89834E-14
 -1      4197 1.26977E-02-8.11134E-04-5.71672E-14
 -1      4198 1.31314E-02-9.19012E-04-6.08095E-14
 -1      4199 5.21434E-03 4.82154E-06-1.32931E-14
 -1      4200 5.22926E-03 3.29301E-05-1.31987E-14
 -1      4201 5.11683E-03 4.12803E-05-1.26212E-14
 -1      4202 5.09788E-03-8.25536E-07-1.27585E-14
 -1      4203 1.19175E-02-5.44763E-04-5.12940E-14
 -1      4204 1.17815E-02-5.23371E-04-5.00676E-14
 -1      4205 1.06105E-02-3.46351E-04-3.96476E-14
 -1      4206 1.06456E-02-3.74977E-04-3.95847E-14
 -1      4207 1.07106E-02-3.60798E-04-4.05199E-14
 -1      4208 2.21705E-03 1.72494E-04-2.46210E-15
 -1      4209 2.07376E-03 1.70489E-04-2.17796E-15
 -1      4210 2.00271E-03 1.35269E-04-2.06782E-15
 -1      4211 2.28419E-03 1.39194E-04-2.62839E-15
 -1      4212 1.04527E-02-4.07998E-04-3.66563E-14
 -1      4213 1.04584E-02-4.24319E-04-3.63925E-14
 -1      4214 1.05320E-02-4.53532E-04-3.68901E-14
 -1      4215 1.05628E-02-4.23112E-04-3.77581E-14
 -1      4216 1.13785E-02-4.60935E-04-4.64407E-14
 -1      4217 1.12458E-02-4.40792E-04-4.52537E-14
 -1      4218 1.11140E-02-4.20995E-04-4.40765E-14
 -1      4219 1.09830E-02-4.01608E-04-4.29102E-14
 -1      4220 1.12103E-02-4.60241E-04-4.46394E-14
 -1      4221 1.21915E-02-5.88298E-04-5.37672E-14
 -1      4222 1.20541E-02-5.66426E-04-5.25273E-14
 -1      4223 1.20102E-02-5.87082E-04-5.18755E-14
 -1      4224 1.24680E-02-6.32707E-04-5.62549E-14
 -1      4225 1.23294E-02-6.10407E-04-5.50087E-14
 -1      4226 1.22838E-02-6.31717E-04-5.43470E-14
 -1      4227 1.27466E-02-6.77875E-04-5.87653E-14
 -1      4228 1.26070E-02-6.55212E-04-5.75103E-14
 -1      4229 1.25602E-02-6.77147E-04-5.68389E-14
 -1      4230 2.82957E-03-7.51632E-05-3.99764E-15
 -1      4231 2.96975E-03-7.49787E-05-4.37703E-15
 -1      4232 3.03768E-03-4.22837E-05-4.57165E-15
 -1      4233 1.75593E-03-2.21073E-05-1.68283E-15
 -1      4234 1.16464E-02-5.02248E-04-4.88487E-14
 -1      4235 1.15120E-02-4.81437E-04-4.76400E-14
 -1      4236 1.17397E-02-5.43447E-04-4.94273E-14
 -1      4237 1.87928E-03-4.67100E-06-1.89658E-15
 -1      4238 2.29284E-03-1.03421E-04-2.70804E-15
 -1      4239 1.32246E-02-7.90491E-04-6.27832E-14
 -1      4240 1.31617E-02-7.49620E-04-6.24604E-14
 -1      4241 1.30547E-02-7.30040E-04-6.15163E-14
 -1      4242 1.31482E-02-8.03053E-04-6.18969E-14
 -1      4243 4.01739E-03 8.10199E-05-7.75697E-15
 -1      4244 3.88306E-03 8.51646E-05-7.24894E-15
 -1      4245 2.00517E-03 8.66759E-05-2.10037E-15
 -1      4246 3.68748E-03 1.22694E-04-6.50115E-15
 -1      4247 3.62731E-03 1.57298E-04-6.24437E-15
 -1      4248 3.48847E-03 1.60932E-04-5.78786E-15
 -1      4249 1.06118E-02-4.66836E-04-3.77080E-14
 -1      4250 2.02503E-03-3.55070E-05-2.17019E-15
 -1      4251 2.13228E-03-6.06916E-05-2.38094E-15
 -1      4252 2.63437E-03 1.05903E-04-3.44824E-15
 -1      4253 2.49221E-03 1.06247E-04-3.11151E-15
 -1      4254 4.54481E-03 6.03674E-05-9.94804E-15
 -1      4255 4.41427E-03 6.61901E-05-9.37523E-15
 -1      4256 4.59126E-03 2.68571E-05-1.02529E-14
 -1      4257 1.06473E-02-4.54386E-04-3.82922E-14
 -1      4258 2.31833E-03-6.58859E-05-2.76931E-15
 -1      4259 1.30410E-02-8.72452E-04-6.02404E-14
 -1      4260 1.07493E-02-4.10954E-04-4.01854E-14
 -1      4261 1.06544E-02-3.97271E-04-3.93174E-14
 -1      4262 1.06614E-02-4.17927E-04-3.90492E-14
 -1      4263 3.34905E-03 1.64221E-04-5.34842E-15
 -1      4264 3.20898E-03 1.67147E-04-4.92655E-15
 -1      4265 3.13263E-03 1.34723E-04-4.74348E-15
 -1      4266 3.41157E-03 1.29455E-04-5.58824E-15
 -1      4267 4.64561E-03-7.28917E-05-1.07212E-14
 -1      4268 1.14729E-02-5.01068E-04-4.70122E-14
 -1      4269 2.68865E-03-7.52062E-05-3.63500E-15
 -1      4270 2.75744E-03-4.19692E-05-3.81197E-15
 -1      4271 2.54707E-03-7.51305E-05-3.28882E-15
 -1      4272 1.29538E-02-7.13567E-04-6.06114E-14
 -1      4273 1.28472E-02-6.94179E-04-5.96696E-14
 -1      4274 1.27995E-02-7.16623E-04-5.89960E-14
 -1      4275 1.30007E-02-7.49840E-04-6.08024E-14
 -1      4276 4.15064E-03 7.64997E-05-8.28082E-15
 -1      4277 4.07453E-03 4.84240E-05-8.03067E-15
 -1      4278 4.28301E-03 7.15579E-05-8.81981E-15
 -1      4279 3.80839E-03 5.60509E-05-7.01765E-15
 -1      4280 3.74780E-03 8.89184E-05-6.75866E-15
 -1      4281 3.61152E-03 9.23183E-05-6.28591E-15
 -1      4282 1.08109E-02-3.75518E-04-4.13983E-14
 -1      4283 2.01376E-03 7.44230E-06-2.14431E-15
 -1      4284 2.91715E-03 1.03918E-04-4.17354E-15
 -1      4285 2.77605E-03 1.05130E-04-3.80209E-15
 -1      4286 2.70215E-03 7.18687E-05-3.63780E-15
 -1      4287 1.30936E-02-8.22461E-04-6.11824E-14
 -1      4288 1.30473E-02-7.86122E-04-6.09934E-14
 -1      4289 1.29466E-02-7.69247E-04-6.00905E-14
 -1      4290 1.31197E-02-8.56980E-04-6.11758E-14
 -1      4291 2.21569E-03 9.76630E-05-2.51185E-15
 -1      4292 2.07905E-03 4.75002E-05-2.25971E-15
 -1      4293 2.22337E-03 1.66868E-05-2.56075E-15
 -1      4294 2.35611E-03 9.85792E-05-2.81028E-15
 -1      4295 1.09110E-02-4.14243E-04-4.19526E-14
 -1      4296 4.83370E-03-6.28076E-05-1.16934E-14
 -1      4297 4.96513E-03-5.99379E-05-1.23953E-14
 -1      4298 2.42482E-03 6.50036E-05-2.98120E-15
 -1      4299 3.24510E-03-1.07441E-05-5.17910E-15
 -1      4300 3.38239E-03-1.16586E-05-5.60848E-15
 -1      4301 3.55945E-03 8.33782E-06-6.18484E-15
 -1      4302 3.69421E-03 6.40604E-06-6.65256E-15
 -1      4303 3.82762E-03 3.98417E-06-7.13656E-15
 -1      4304 3.95954E-03 1.23503E-06-7.63818E-15
 -1      4305 4.08993E-03-2.13873E-06-8.15571E-15
 -1      4306 4.21857E-03-5.93838E-06-8.69075E-15
 -1      4307 4.34547E-03-1.05697E-05-9.24023E-15
 -1      4308 4.47032E-03-1.56963E-05-9.80566E-15
 -1      4309 4.93212E-03 4.06214E-05-1.17599E-14
 -1      4310 4.84174E-03 1.22540E-05-1.14602E-14
 -1      4311 1.06623E-02-4.37903E-04-3.87305E-14
 -1      4312 4.98094E-03-2.94170E-05-1.23302E-14
 -1      4313 2.38815E-03-3.27663E-05-2.92447E-15
 -1      4314 1.23753E-02-6.75351E-04-5.49259E-14
 -1      4315 1.22381E-02-6.52367E-04-5.36890E-14
 -1      4316 1.10214E-02-4.93912E-04-4.21364E-14
 -1      4317 1.11455E-02-5.14227E-04-4.32917E-14
 -1      4318 1.12881E-02-5.17329E-04-4.48307E-14
 -1      4319 1.14171E-02-5.38516E-04-4.60120E-14
 -1      4320 1.15476E-02-5.60087E-04-4.72014E-14
 -1      4321 1.16793E-02-5.82183E-04-4.84000E-14
 -1      4322 1.18123E-02-6.04555E-04-4.96101E-14
 -1      4323 1.19464E-02-6.27310E-04-5.08306E-14
 -1      4324 1.23070E-02-7.16817E-04-5.38576E-14
 -1      4325 1.24441E-02-7.40821E-04-5.50939E-14
 -1      4326 1.26078E-02-7.66090E-04-5.65950E-14
 -1      4327 1.27464E-02-7.90250E-04-5.78434E-14
 -1      4328 1.10697E-02-4.59682E-04-4.31044E-14
 -1      4329 1.09028E-02-4.33544E-04-4.15930E-14
 -1      4330 1.29148E-02-8.20801E-04-5.93458E-14
 -1      4331 1.26777E-02-7.22788E-04-5.76813E-14
 -1      4332 1.25390E-02-6.99506E-04-5.64299E-14
 -1      4333 2.96743E-03-9.41818E-06-4.37034E-15
 -1      4334 3.10674E-03-9.98988E-06-4.76657E-15
 -1      4335 3.17699E-03 2.19189E-05-4.96184E-15
 -1      4336 1.07523E-02-4.51573E-04-3.95928E-14
 -1      4337 1.20814E-02-6.50262E-04-5.20542E-14
 -1      4338 5.04260E-03 3.18412E-05-1.23189E-14
 -1      4339 1.28240E-02-7.75163E-04-5.87731E-14
 -1      4340 1.08710E-02-4.70073E-04-4.07242E-14
 -1      4341 2.58680E-03 1.51675E-05-3.37833E-15
 -1      4342 2.45186E-03 7.97826E-06-3.06298E-15
 -1      4343 4.58437E-03-4.28366E-05-1.03859E-14
 -1      4344 4.74131E-03-5.67445E-05-1.11953E-14
 -1      4345 4.91946E-03-1.76245E-05-1.19658E-14
 -1      4346 4.79951E-03-8.92017E-06-1.13428E-14
 -1      4347 4.33561E-03 3.88569E-05-9.10947E-15
 -1      4348 1.11606E-02-4.96845E-04-4.36612E-14
 -1      4349 1.09041E-02-4.54145E-04-4.13204E-14
 -1      4350 1.24918E-02-7.20435E-04-5.57625E-14
 -1      4351 2.86903E-03 1.42176E-05-4.09574E-15
 -1      4352 2.94064E-03 4.68998E-05-4.27592E-15
 -1      4353 1.22174E-02-6.73474E-04-5.32853E-14
 -1      4354 2.72824E-03 1.47401E-05-3.72873E-15
 -1      4355 3.49435E-03 4.05189E-05-5.94639E-15
 -1      4356 4.78364E-03-3.09142E-05-1.13417E-14
 -1      4357 4.70082E-03-3.32556E-06-1.08504E-14
 -1      4358 3.07260E-03 1.07091E-04-4.59993E-15
 -1      4359 2.99865E-03 7.46413E-05-4.41865E-15
 -1      4360 3.09512E-03 5.04381E-05-4.70736E-15
 -1      4361 3.21230E-03 1.05023E-04-5.00708E-15
 -1      4362 5.02793E-03-7.93848E-06-1.24541E-14
 -1      4363 4.57734E-03 3.71704E-06-1.02547E-14
 -1      4364 3.43008E-03 7.34848E-05-5.70896E-15
 -1      4365 5.03511E-03 1.14017E-05-1.23870E-14
 -1      4366 3.29207E-03 7.58043E-05-5.27405E-15
 -1      4367 1.28461E-02-7.52403E-04-5.91883E-14
 -1      4368 3.23402E-03 4.89278E-05-5.11790E-15
 -3
    1PSTEP                         2           1           1          
  100CL  101 1.000000000        4368                     0    1           1
 -4  STRESS      6    1
 -5  SXX         1    4    1    1
 -5  SYY         1    4    2    2
 -5  SZZ         1    4    3    3
 -5  SXY         1    4    1    2
 -5  SYZ         1    4    2    3
 -5  SZX         1    4    3    1
 -1         1-1.67644E+00-8.59458E+00-2.36249E+00-3.23605E+00-2.07068E-12-9.00696E-13
 -1         2-7.22054E-01-2.44721E+01-3.34585E+00 2.82446E-02 7.47527E-13 2.23290E-13
 -1         3 1.99999E+01 1.16316E-04 2.54791E-03 7.86489E-05-3.30519E-13-2.78085E-13
 -1         4 1.99999E+01 8.74619E-05 2.56277E-03-5.21727E-05 2.28378E-13 1.91984E-13
 -1         5 3.26457E+01 6.11973E+00 2.72702E+00 6.20404E+00-2.42584E-14 1.76190E-12
 -1         6 3.56154E+01 1.22145E+01 5.09952E+00-8.61591E+00-9.66449E-14 1.61166E-12
 -1         7 2.07790E+01 6.08776E+00-1.26598E-01-4.70726E+00-1.65423E-14 3.04604E-13
 -1         8 1.96599E+01 5.93092E+00 5.20750E-02-3.25547E+00-1.80723E-14-1.04621E-13
 -1         9 1.91439E+01 5.77354E+00 5.00145E-02-2.50469E+00-1.74062E-14-3.33951E-13
 -1        10 1.89134E+01 5.69708E+00 5.17756E-02-1.92760E+00-1.03407E-14-4.44461E-13
 -1        11 1.87962E+01 5.65766E+00 5.04121E-02-1.43338E+00-9.77647E-15-4.89430E-13
 -1        12 1.87341E+01 5.63638E+00 4.83026E-02-9.96280E-01-5.47392E-15-5.06545E-13
 -1        13 1.87004E+01 5.62488E+00 4.65597E-02-5.82839E-01 1.93530E-16-5.12600E-13
 -1        14 1.86857E+01 5.61988E+00 4.56298E-02-1.86763E-01 3.22008E-17-5.09254E-13
 -1        15 1.86860E+01 5.61997E+00 4.56658E-02 2.03955E-01 4.03269E-15-4.89599E-13
 -1        16 1.87013E+01 5.62519E+00 4.66817E-02 6.00828E-01 7.33940E-15-4.75657E-13
 -1        17 1.87359E+01 5.63684E+00 4.85601E-02 1.01618E+00 1.00718E-14-4.40449E-13
 -1        18 1.87991E+01 5.65839E+00 5.07809E-02 1.45636E+00 1.12319E-14-3.86521E-13
 -1        19 1.89174E+01 5.69828E+00 5.20141E-02 1.95631E+00 1.98253E-14-3.09106E-13
 -1        20 1.91487E+01 5.77590E+00 4.97692E-02 2.54132E+00 2.28012E-14-1.63597E-13
 -1        21 1.96557E+01 5.94552E+00 4.72418E-02 3.28927E+00 2.16563E-14 1.00380E-13
 -1        22 2.11593E+01 6.36830E+00 1.40218E-01 4.50532E+00 3.19189E-15 6.14701E-13
 -1        23 2.29485E+01-1.37577E+00-9.37181E-01-7.07219E-01-6.64885E-14 1.27637E-12
 -1        24 1.93111E+01-9.94653E-02-3.09087E-01 6.30877E-02-2.15583E-14 9.71319E-13
 -1        25 1.86409E+01-5.66336E-02-6.87377E-02 6.03476E-02-1.75207E-15 6.81557E-13
 -1        26 1.84596E+01-2.27307E-02-6.89983E-03 3.25301E-02-4.63388E-16 4.61520E-13
 -1        27 1.84999E+01-1.27954E-02 7.31107E-04 2.21346E-02 1.59822E-15 3.28784E-13
 -1        28 1.86560E+01-7.65496E-03 4.56791E-04 1.59106E-02 1.85778E-15 2.70534E-13
 -1        29 1.88770E+01-5.02192E-03-1.97451E-04 1.19477E-02 1.82766E-14 2.34771E-13
 -1        30 1.91395E+01-3.80481E-03-7.64558E-04 9.33026E-03-6.77022E-15 1.91291E-13
 -1        31 1.94353E+01-3.48761E-03-1.57355E-03 7.67598E-03-1.60087E-14 4.49467E-15
 -1        32 1.97670E+01-3.78887E-03-2.78227E-03 6.86028E-03-1.61384E-14-1.96153E-13
 -1        33 2.01447E+01-4.52759E-03-4.42724E-03 6.90300E-03 5.92436E-14-1.00941E-13
 -1        34 2.05848E+01-5.54201E-03-6.48527E-03 7.92740E-03 1.03680E-14 3.39832E-14
 -1        35 2.11083E+01-6.62146E-03-8.84737E-03 1.01422E-02-1.43143E-14-8.55037E-14
 -1        36 2.17387E+01-7.42482E-03-1.12017E-02 1.38087E-02 2.66732E-14-7.15287E-14
 -1        37 2.24967E+01-7.37513E-03-1.27957E-02 1.91367E-02-4.14552E-14 4.67725E-14
 -1        38 2.33915E+01-5.54743E-03-1.20452E-02 2.60078E-02 1.50187E-14-1.74721E-14
 -1        39 2.44037E+01-6.37125E-04-6.06860E-03 3.33532E-02-1.11428E-15-3.46025E-14
 -1        40 2.54572E+01 8.75530E-03 9.37226E-03 3.80098E-02-1.40249E-14-9.79113E-14
 -1        41 2.63819E+01 2.30541E-02 3.82472E-02 3.31740E-02-3.58060E-14-3.30395E-13
 -1        42 2.68835E+01 3.96938E-02 7.89700E-02 7.94938E-03-1.70211E-14-2.81211E-13
 -1        43 2.65700E+01 5.03434E-02 1.14262E-01-4.76507E-02-2.94812E-14-1.05055E-13
 -1        44 2.51156E+01 4.25322E-02 1.10232E-01-1.28703E-01 1.17272E-14 2.68625E-13
 -1        45 2.25911E+01 7.72068E-03 2.99714E-02-1.96018E-01-6.18863E-15 4.53325E-13
 -1        46 1.97846E+01-4.30257E-02-1.10498E-01-1.82793E-01 9.71835E-15 3.12826E-13
 -1        47 1.80338E+01-7.86059E-02-2.16024E-01-6.05952E-02-1.76074E-14 4.03877E-13
 -1        48 1.83399E+01-7.23911E-02-1.97626E-01 1.03199E-01 4.23429E-14 3.22294E-13
 -1        49 2.05219E+01-2.91634E-02-7.11079E-02 1.97526E-01 4.33269E-14 2.13295E-13
 -1        50 2.33766E+01 1.96969E-02 5.88438E-02 1.82547E-01-4.13200E-14-1.02120E-13
 -1        51 2.56586E+01 4.70651E-02 1.17118E-01 1.05277E-01 9.95723E-14-1.20383E-13
 -1        52 2.67900E+01 4.84908E-02 1.06662E-01 2.89478E-02 7.16176E-14 1.08734E-13
 -1        53 2.68498E+01 3.48452E-02 6.66001E-02-1.77140E-02-4.01059E-14 1.16117E-13
 -1        54 2.62121E+01 1.82173E-02 2.82412E-02-3.59033E-02-2.54569E-14-7.34170E-14
 -1        55 2.52527E+01 5.07874E-03 3.18801E-03-3.70050E-02-2.03255E-14-4.16715E-13
 -1        56 2.42318E+01-3.06656E-03-9.31621E-03-3.08946E-02 9.65073E-15-4.19794E-13
 -1        57 2.32916E+01-7.08945E-03-1.36553E-02-2.31935E-02-4.40907E-15-2.23136E-13
 -1        58 2.24912E+01-8.41449E-03-1.37417E-02-1.63142E-02 4.29940E-14-1.33544E-13
 -1        59 2.18419E+01-8.23380E-03-1.20470E-02-1.09457E-02-3.42040E-14 2.31141E-13
 -1        60 2.13323E+01-7.34297E-03-9.86414E-03-7.04018E-03-3.12745E-14 2.16385E-13
 -1        61 2.09418E+01-6.20672E-03-7.77061E-03-4.31649E-03 7.64771E-14 4.01887E-13
 -1        62 2.06485E+01-5.06870E-03-5.97477E-03-2.47279E-03-9.92023E-14 7.81640E-14
 -1        63 2.04322E+01-4.04151E-03-4.51711E-03-1.25683E-03-8.61955E-14-6.24094E-15
 -1        64 2.02756E+01-3.16638E-03-3.37214E-03-4.76938E-04 1.35261E-13 1.14549E-15
 -1        65 2.01648E+01-2.44861E-03-2.49549E-03 6.90436E-06 2.38644E-14 4.83423E-13
 -1        66 2.00886E+01-1.87717E-03-1.84576E-03 2.96841E-04-9.80885E-14 2.15093E-13
 -1        67 2.00385E+01-1.43349E-03-1.39180E-03 4.72936E-04 2.00562E-14-1.43780E-13
 -1        68 2.00080E+01-1.09205E-03-1.10384E-03 6.08861E-04 5.96712E-14 1.04607E-13
 -1        69 1.99928E+01-8.11746E-04-9.10893E-04 7.79452E-04 9.36240E-15 2.37887E-13
 -1        70 1.99896E+01-4.88064E-04-5.68665E-04 1.07915E-03 7.69035E-14 5.24820E-13
 -1        71 1.99954E+01 8.20217E-05 6.89065E-04 1.32118E-03-1.09389E-13 5.47675E-13
 -1        72 2.09691E+01-4.03687E-01-9.78996E-01-3.10740E-01 2.78388E-14 1.60195E-12
 -1        73 1.92782E+01-6.59384E-02-2.90493E-01-5.35715E-02 1.10424E-14 1.21604E-12
 -1        74 1.86532E+01-2.08267E-02-6.43127E-02-1.98552E-02 8.94575E-16 9.37856E-13
 -1        75 1.84721E+01-1.04068E-02-9.82095E-03-1.47312E-02 9.43310E-15 7.85766E-13
 -1        76 1.85129E+01-5.91981E-03-2.41925E-04-1.14826E-02-1.11911E-15 6.63081E-13
 -1        77 1.86685E+01-3.62529E-03 3.77154E-04-9.08034E-03 1.41409E-14 5.31701E-13
 -1        78 1.88877E+01-2.44247E-03-4.66385E-06-7.27543E-03-1.24028E-14 5.71330E-13
 -1        79 1.91457E+01-1.88623E-03-4.15879E-04-5.88077E-03 3.92796E-15 6.21404E-13
 -1        80 1.94321E+01-1.69083E-03-9.55926E-04-4.85192E-03-2.34872E-15 5.19018E-13
 -1        81 1.97448E+01-1.67572E-03-1.66063E-03-4.23286E-03 2.06023E-14 3.12253E-13
 -1        82 2.00869E+01-1.68348E-03-2.42765E-03-4.11650E-03 1.82695E-14 1.28728E-13
 -1        83 2.04632E+01-1.54696E-03-3.04921E-03-4.62358E-03 8.98123E-15-5.28041E-14
 -1        84 2.08774E+01-1.07083E-03-3.20376E-03-5.87689E-03-2.13830E-14-1.44064E-14
 -1        85 2.13277E+01-3.05779E-05-2.42363E-03-7.94979E-03 1.02164E-14-1.20046E-13
 -1        86 2.18019E+01 1.79696E-03-8.04271E-05-1.07637E-02 6.21714E-15-3.64524E-13
 -1        87 2.22707E+01 4.54693E-03 4.54451E-03-1.39099E-02-2.23326E-14-4.11253E-13
 -1        88 2.26810E+01 8.09819E-03 1.19938E-02-1.63968E-02 9.57394E-15-2.04080E-13
 -1        89 2.29517E+01 1.18292E-02 2.20430E-02-1.64096E-02 7.13737E-14-3.91593E-13
 -1        90 2.29777E+01 1.44104E-02 3.27886E-02-1.13514E-02-5.19013E-14-3.89932E-13
 -1        91 2.26510E+01 1.39025E-02 3.98157E-02 1.34486E-03 5.48324E-15-6.12687E-14
 -1        92 2.19049E+01 8.56491E-03 3.66362E-02 2.21577E-02-2.90512E-14-7.66921E-15
 -1        93 2.07781E+01-1.61351E-03 1.78195E-02 4.67267E-02-3.96646E-14 1.11647E-14
 -1        94 1.94665E+01-1.37239E-02-1.54237E-02 6.48519E-02 3.70949E-14-4.79818E-13
 -1        95 1.83115E+01-2.26246E-02-5.17540E-02 6.45579E-02-7.69333E-14-4.86658E-13
 -1        96 1.76856E+01-2.39567E-02-7.34630E-02 4.07203E-02 6.23824E-14-3.83991E-13
 -1        97 1.78151E+01-1.73058E-02-6.80538E-02 1.38827E-03-3.39817E-14-3.31977E-13
 -1        98 1.86529E+01-6.21089E-03-3.86489E-02-3.60509E-02 3.21387E-14-3.89241E-13
 -1        99 1.99066E+01 4.44321E-03-1.56963E-03-5.69473E-02-4.76446E-15-5.92037E-13
 -1       100 2.11965E+01 1.13269E-02 2.70129E-02-5.78016E-02 3.52081E-14-7.89625E-13
 -1       101 2.22223E+01 1.35876E-02 3.95495E-02-4.47897E-02-2.52176E-14-1.00273E-12
 -1       102 2.28435E+01 1.22817E-02 3.80391E-02-2.70111E-02-3.68295E-14-6.88488E-13
 -1       103 2.30645E+01 9.11385E-03 2.87505E-02-1.11074E-02-4.02074E-14-3.18179E-13
 -1       104 2.29731E+01 5.55920E-03 1.75948E-02 9.33198E-05 1.30696E-14 1.51952E-13
 -1       105 2.26816E+01 2.49457E-03 8.06620E-03 6.49336E-03 2.63479E-14 3.14354E-13
 -1       106 2.22903E+01 2.55947E-04 1.38034E-03 9.22326E-03-8.54839E-14 2.77526E-13
 -1       107 2.18729E+01-1.16053E-03-2.60021E-03 9.61264E-03 2.41169E-14-1.37777E-13
 -1       108 2.14765E+01-1.91291E-03-4.53664E-03 8.73629E-03 1.08516E-13-5.79492E-13
 -1       109 2.11261E+01-2.19436E-03-5.13433E-03 7.31979E-03 1.78499E-14-7.15456E-13
 -1       110 2.08319E+01-2.17610E-03-4.95597E-03 5.79414E-03 1.31018E-14-6.42279E-13
 -1       111 2.05943E+01-1.98893E-03-4.39009E-03 4.38460E-03 3.96338E-14-3.27205E-13
 -1       112 2.04087E+01-1.72367E-03-3.68017E-03 3.18819E-03-1.28008E-13-2.81050E-13
 -1       113 2.02681E+01-1.43892E-03-2.96714E-03 2.22896E-03 1.41636E-13-1.48193E-13
 -1       114 2.01648E+01-1.16986E-03-2.32694E-03 1.49303E-03-8.32098E-16-3.65368E-13
 -1       115 2.00915E+01-9.35107E-04-1.79824E-03 9.47842E-04-3.28665E-14-4.94895E-13
 -1       116 2.00420E+01-7.39995E-04-1.39946E-03 5.49140E-04-9.58043E-15-6.45121E-13
 -1       117 2.00111E+01-5.79900E-04-1.13304E-03 2.41839E-04 5.91777E-14-1.04000E-12
 -1       118 1.99950E+01-4.34683E-04-9.51533E-04-4.88860E-05 3.27651E-14-1.18068E-12
 -1       119 1.99909E+01-1.87630E-04-5.79084E-04-5.06932E-04-6.90299E-14-8.08756E-13
 -1       120 1.99957E+01 3.23882E-04 6.20634E-04-1.17176E-03 8.30454E-14-5.71091E-13
 -1       121 1.99999E+01-4.14652E-03 4.26281E-04-1.45998E-03-6.29219E-14 2.77352E-13
 -1       122 1.99994E+01-8.12893E-03-7.66709E-04-6.74943E-04 1.45574E-12-9.91195E-14
 -1       123 1.99994E+01-2.39709E-03-8.75958E-04-2.39122E-06 1.67689E-12 6.30431E-14
 -1       124 1.99996E+01 1.19593E-02-5.39840E-04 4.33837E-04 1.63505E-12 1.17196E-13
 -1       125 1.99998E+01 3.12716E-02-8.91922E-05 6.16795E-04 9.20897E-13-1.80857E-13
 -1       126 2.00001E+01 5.06691E-02 3.16672E-04 5.98220E-04-1.25998E-13 2.16902E-14
 -1       127 2.00003E+01 6.65095E-02 6.23430E-04 4.18275E-04 5.49703E-14 1.04134E-13
 -1       128 2.00004E+01 7.51273E-02 7.87228E-04 1.36300E-04-1.81954E-13 3.24174E-14
 -1       129 2.00004E+01 7.47227E-02 7.84473E-04-1.80332E-04 7.21217E-13-1.73869E-14
 -1       130 2.00003E+01 6.53203E-02 6.12567E-04-4.59945E-04 6.90040E-13-5.20772E-14
 -1       131 2.00001E+01 4.88004E-02 2.89515E-04-6.35707E-04-9.29502E-13-1.13493E-13
 -1       132 1.99998E+01 2.89587E-02-1.31660E-04-6.34188E-04-1.54907E-12 4.10999E-13
 -1       133 1.99996E+01 9.58859E-03-5.88607E-04-4.16937E-04-8.15394E-13 1.07288E-13
 -1       134 1.99994E+01-4.41017E-03-9.56149E-04 8.44702E-06-1.74556E-12-2.48431E-13
 -1       135 1.99996E+01-9.17610E-03-7.07205E-04 1.03269E-03-1.50957E-12 2.12147E-13
 -1       136 1.99996E+01-4.47454E-03 4.64088E-04 2.22850E-03-5.90751E-13-5.74222E-14
 -1       137-1.37768E+00-1.95435E+01-3.02344E+00-3.62765E+00 1.54143E-12 3.31481E-13
 -1       138-1.40313E+00-8.22459E+00-2.22179E+00-2.69862E+00 1.02618E-12 3.87357E-13
 -1       139 3.21138E+00 3.77008E+00-1.02855E+00 3.81450E+00 3.84748E-13 2.45748E-13
 -1       140 1.57149E+01 1.06254E+01 4.28683E-01 1.28000E+01 3.38118E-13 5.07205E-13
 -1       141 3.53953E+01 1.00222E+01 1.85086E+00 1.82671E+01 4.68320E-13 1.06049E-12
 -1       142 5.36125E+01 5.13165E+00 2.88957E+00 1.52989E+01 2.65968E-13 9.84379E-13
 -1       143 6.46965E+01 1.21604E+00 3.44170E+00 4.95909E+00 8.08138E-14-4.13142E-14
 -1       144 6.31693E+01 1.75396E+00 3.36627E+00-8.01844E+00 1.12715E-13-8.12184E-13
 -1       145 4.93334E+01 6.53579E+00 2.66662E+00-1.70101E+01 5.93178E-13-1.63747E-12
 -1       146 3.03236E+01 1.07441E+01 1.53630E+00-1.76126E+01 1.11566E-12-1.82282E-12
 -1       147 1.29339E+01 9.93952E+00 1.78641E-01-1.12915E+01 1.55670E-12-1.58790E-12
 -1       148 2.27347E+00 2.03877E+00-1.18182E+00-2.67620E+00 1.63336E-12-1.25333E-12
 -1       149-1.56629E+00-1.00213E+01-2.33006E+00 3.23559E+00 1.72040E-12-7.07462E-13
 -1       150-1.22351E+00-2.07427E+01-3.10660E+00 3.27176E+00 1.31459E-12-2.32094E-13
 -1       151-7.70943E-01-2.44560E+01-3.36087E+00-6.02455E-01 2.88970E-13-7.79585E-14
 -1       152-1.52226E+00-1.95713E+01-3.10184E+00-4.12103E+00-1.37407E-12-3.84554E-13
 -1       153 2.76457E+00 2.97313E+00-1.21376E+00 3.20451E+00-2.19996E-12-1.76453E-12
 -1       154 1.59528E+01 1.02238E+01 3.02406E-01 1.26871E+01-1.95349E-12-2.16177E-12
 -1       155 3.49590E+01 9.93601E+00 1.80599E+00 1.80824E+01-1.18916E-12-2.05569E-12
 -1       156 5.47011E+01 5.38069E+00 3.05149E+00 1.58445E+01-5.22582E-13-1.65085E-12
 -1       157 6.66819E+01 1.31231E+00 3.72765E+00 5.86357E+00-4.35901E-14-1.21306E-12
 -1       158 6.57994E+01 1.71779E+00 3.69390E+00-7.35120E+00-9.27886E-14-6.22002E-14
 -1       159 5.13679E+01 6.29799E+00 2.86348E+00-1.68433E+01-4.49946E-13 1.38534E-12
 -1       160 3.04816E+01 1.05462E+01 1.47099E+00-1.75630E+01-9.74998E-13 1.51912E-12
 -1       161 1.23197E+01 9.22568E+00-3.43615E-02-1.06459E+01-1.23695E-12 1.32971E-12
 -1       162 1.64024E+00 1.31920E+00-1.42400E+00-1.92861E+00-1.26349E-12 9.03944E-13
 -1       163-1.83917E+00-1.02890E+01-2.48304E+00 3.69555E+00-1.37779E-12 4.86500E-13
 -1       164-1.38160E+00-2.06155E+01-3.15123E+00 3.84216E+00-7.31026E-13 1.32311E-13
 -1       165 2.09908E+01 3.68537E+00-5.69952E-02-3.58632E+00-2.34514E-13 8.80962E-14
 -1       166 1.99910E+01 4.20540E+00-4.56040E-02-2.78231E+00-2.20696E-13-1.69243E-13
 -1       167 1.95241E+01 4.48017E+00-3.10956E-02-2.16816E+00-1.78111E-13-3.12259E-13
 -1       168 1.92868E+01 4.62563E+00-2.32613E-02-1.64754E+00-1.40235E-13-3.89296E-13
 -1       169 1.91568E+01 4.71328E+00-1.92826E-02-1.19527E+00-8.95945E-14-4.13549E-13
 -1       170 1.90813E+01 4.76899E+00-1.71591E-02-7.74362E-01-4.94129E-14-4.24581E-13
 -1       171 1.90421E+01 4.79982E+00-1.61224E-02-3.77421E-01-3.58952E-15-4.34176E-13
 -1       172 1.90303E+01 4.80934E+00-1.58224E-02 8.31808E-03 2.61254E-14-4.21262E-13
 -1       173 1.90434E+01 4.79844E+00-1.61648E-02 3.94388E-01 6.12638E-14-4.02177E-13
 -1       174 1.90841E+01 4.76584E+00-1.72421E-02 7.92375E-01 9.40313E-14-3.83090E-13
 -1       175 1.91601E+01 4.70877E+00-1.94413E-02 1.20779E+00 1.33091E-13-3.32788E-13
 -1       176 1.92950E+01 4.61563E+00-2.37800E-02 1.67097E+00 1.83898E-13-2.68100E-13
 -1       177 1.95367E+01 4.46314E+00-3.26038E-02 2.19859E+00 2.18367E-13-1.76989E-13
 -1       178 2.00138E+01 4.18090E+00-4.68652E-02 2.82037E+00 2.56031E-13-3.40006E-16
 -1       179 2.11117E+01 3.45631E+00-5.94150E-02 3.51323E+00 2.48856E-13 3.10460E-13
 -1       180 2.23701E+01 1.14042E+00-3.35383E-01 2.99737E+00 1.78374E-13 7.24962E-13
 -1       181 2.19326E+01 8.55953E-01 7.38302E-04-1.94257E+00-1.99056E-13 3.86104E-13
 -1       182 2.04252E+01 1.90646E-01-9.75475E-03-7.48261E-01-1.75689E-13 2.97904E-13
 -1       183 1.96700E+01 1.03406E-01 1.37782E-02-2.66731E-01-1.30704E-13 2.15663E-13
 -1       184 1.93568E+01 5.03426E-02 1.02475E-02-4.21703E-02-9.62164E-14 1.38860E-13
 -1       185 1.92637E+01 2.74502E-02 5.50746E-03 7.60548E-02-5.04503E-14 9.84488E-14
 -1       186 1.93011E+01 1.64867E-02 2.89276E-03 1.44618E-01-2.16563E-14 7.91775E-14
 -1       187 1.94205E+01 1.16880E-02 1.74498E-03 1.89065E-01-5.31534E-14 4.37733E-14
 -1       188 1.95968E+01 1.07167E-02 1.29110E-03 2.23673E-01-9.17848E-14 8.16795E-15
 -1       189 1.98195E+01 1.24678E-02 1.16147E-03 2.57679E-01-7.90835E-14 3.34094E-14
 -1       190 2.00870E+01 1.63262E-02 1.19775E-03 2.97724E-01 2.85282E-14 2.98249E-14
 -1       191 2.04041E+01 2.18376E-02 1.31345E-03 3.48824E-01 3.63208E-17-9.40824E-14
 -1       192 2.07799E+01 2.84534E-02 1.42828E-03 4.14512E-01-5.02426E-14-1.49127E-13
 -1       193 2.12253E+01 3.52052E-02 1.43596E-03 4.96222E-01 4.04332E-15-1.43244E-13
 -1       194 2.17508E+01 4.01931E-02 1.18697E-03 5.91662E-01-8.26498E-15-1.58095E-13
 -1       195 2.23610E+01 3.98026E-02 4.94383E-04 6.91659E-01-4.96249E-14-9.42740E-14
 -1       196 2.30480E+01 2.77104E-02-8.06593E-04 7.75026E-01-6.34844E-15-1.06670E-13
 -1       197 2.37808E+01-5.72392E-03-2.69857E-03 8.01768E-01-5.27408E-14-1.21611E-13
 -1       198 2.44915E+01-7.17719E-02-4.73404E-03 7.07814E-01-9.19308E-14-1.79530E-13
 -1       199 2.50639E+01-1.75225E-01-5.87736E-03 4.11121E-01-4.60504E-14-2.01992E-13
 -1       200 2.53337E+01-2.94124E-01-4.58748E-03-1.50744E-01 3.42877E-14-2.17390E-13
 -1       201 2.51232E+01-3.56887E-01-2.03670E-03-9.31275E-01 2.06582E-13-1.55910E-13
 -1       202 2.43455E+01-2.49129E-01 7.47227E-04-1.66688E+00 9.38182E-14 1.97802E-14
 -1       203 2.31530E+01 9.18672E-02-2.65433E-03-1.87814E+00-1.93465E-15 1.68632E-13
 -1       204 2.20595E+01 5.01672E-01-1.03563E-02-1.17959E+00 6.85459E-14 2.08315E-13
 -1       205 2.17004E+01 6.52680E-01-1.48713E-02 2.07101E-01-1.51759E-13 1.78473E-13
 -1       206 2.23176E+01 3.99437E-01-9.69017E-03 1.46925E+00-7.74667E-14-2.88068E-14
 -1       207 2.35103E+01-2.10497E-02-2.04416E-03 1.90551E+00-1.30840E-13-1.60344E-13
 -1       208 2.46306E+01-3.01851E-01-2.33782E-04 1.50038E+00 3.49460E-15-1.92594E-13
 -1       209 2.52625E+01-3.51206E-01-2.57354E-03 7.11907E-01 5.25803E-14-2.49189E-14
 -1       210 2.53344E+01-2.61499E-01-5.22617E-03-2.14303E-02-3.97685E-15-6.68424E-14
 -1       211 2.49763E+01-1.41403E-01-5.61750E-03-5.03413E-01-1.46765E-13 1.21144E-14
 -1       212 2.43696E+01-4.73310E-02-4.07691E-03-7.30199E-01-2.07700E-13 7.78375E-14
 -1       213 2.36678E+01 9.21264E-03-1.97481E-03-7.76176E-01-1.21837E-13-1.57015E-13
 -1       214 2.29743E+01 3.62013E-02-2.00005E-04-7.20207E-01 2.04498E-13-2.40519E-13
 -1       215 2.23465E+01 4.48667E-02 9.41970E-04-6.19444E-01 7.21172E-14-1.30280E-13
 -1       216 2.18091E+01 4.39017E-02 1.50437E-03-5.07973E-01 6.91966E-14-7.97879E-14
 -1       217 2.13663E+01 3.87155E-02 1.66196E-03-4.03184E-01-1.37710E-13-2.93197E-13
 -1       218 2.10119E+01 3.22546E-02 1.58535E-03-3.12320E-01 4.93185E-14-9.52412E-14
 -1       219 2.07344E+01 2.59464E-02 1.39773E-03-2.37157E-01-7.10126E-14-1.24505E-13
 -1       220 2.05214E+01 2.03838E-02 1.17456E-03-1.76845E-01-1.14077E-13-1.14352E-13
 -1       221 2.03607E+01 1.57404E-02 9.56445E-04-1.29471E-01-3.53891E-14-1.02155E-13
 -1       222 2.02417E+01 1.19986E-02 7.62118E-04-9.28439E-02 3.27627E-13-1.72961E-13
 -1       223 2.01554E+01 9.06679E-03 5.97653E-04-6.48531E-02 9.76824E-14 2.79560E-13
 -1       224 2.00944E+01 6.83937E-03 4.60858E-04-4.36096E-02-5.64763E-14 5.15023E-13
 -1       225 2.00529E+01 5.21558E-03 3.44493E-04-2.74745E-02 1.09672E-13 5.45751E-13
 -1       226 2.00260E+01 4.06736E-03 2.40452E-04-1.50964E-02-3.67115E-14 3.98649E-13
 -1       227 2.00103E+01 3.17615E-03 1.69859E-04-5.56784E-03 2.53643E-13 3.85707E-13
 -1       228 2.00023E+01 2.01539E-03 1.35218E-04 1.25391E-03-5.60262E-14 4.29346E-13
 -1       229 2.09287E+01 2.76551E-01-5.10443E-02 1.15117E+00 1.91885E-13 6.20085E-13
 -1       230 1.98523E+01 1.27409E-01 8.44063E-03 4.29092E-01 1.32782E-13 4.74725E-13
 -1       231 1.93684E+01 5.95993E-02 1.28501E-02 1.32355E-01 9.74286E-14 3.52650E-13
 -1       232 1.91886E+01 3.02708E-02 7.77776E-03-1.36608E-02 7.57471E-14 2.77011E-13
 -1       233 1.91799E+01 1.67735E-02 4.01748E-03-9.28917E-02 4.99567E-14 2.47545E-13
 -1       234 1.92722E+01 1.01564E-02 2.14525E-03-1.39257E-01-3.07754E-14 2.41161E-13
 -1       235 1.94281E+01 7.13710E-03 1.28150E-03-1.69338E-01 1.37156E-14 2.31729E-13
 -1       236 1.96281E+01 6.23195E-03 8.47528E-04-1.92338E-01 6.18741E-14 1.57330E-13
 -1       237 1.98634E+01 6.58364E-03 5.86746E-04-2.13690E-01 9.99413E-14 8.83109E-14
 -1       238 2.01306E+01 7.53034E-03 3.89991E-04-2.36352E-01 8.03099E-14 9.02746E-14
 -1       239 2.04294E+01 8.39828E-03 1.99919E-04-2.61129E-01 8.42925E-14 1.15340E-13
 -1       240 2.07590E+01 8.36657E-03-1.98205E-05-2.86484E-01-6.22359E-15 3.42773E-14
 -1       241 2.11154E+01 6.36796E-03-2.85379E-04-3.07996E-01 1.16028E-13-6.85802E-14
 -1       242 2.14877E+01 1.05474E-03-5.78849E-04-3.17652E-01 5.62233E-14-9.81727E-14
 -1       243 2.18540E+01-9.07019E-03-8.28334E-04-3.03327E-01 2.36139E-15-9.53608E-14
 -1       244 2.21779E+01-2.51727E-02-8.96482E-04-2.49206E-01-1.10258E-13-1.47251E-13
 -1       245 2.24073E+01-4.70165E-02-6.07285E-04-1.38498E-01 7.39801E-14 1.11931E-14
 -1       246 2.24772E+01-7.12220E-02 1.40427E-04 3.98167E-02-4.76080E-14-2.38127E-14
 -1       247 2.23233E+01-8.93852E-02 1.21074E-03 2.79179E-01-1.08747E-13-3.75971E-14
 -1       248 2.19070E+01-8.80617E-02 2.02533E-03 5.41048E-01-5.06444E-14 1.02847E-13
 -1       249 2.12506E+01-5.38421E-02 1.69435E-03 7.47739E-01-1.62026E-14 1.17350E-13
 -1       250 2.04674E+01 1.52791E-02-1.52805E-04 7.99296E-01 2.24899E-13 9.89009E-14
 -1       251 1.97575E+01 9.90131E-02-2.87828E-03 6.23324E-01 2.97128E-14-1.63868E-13
 -1       252 1.93473E+01 1.58608E-01-4.56195E-03 2.35928E-01-3.85499E-14-3.05491E-13
 -1       253 1.93849E+01 1.60630E-01-3.46990E-03-2.38484E-01-3.42135E-14-2.23468E-13
 -1       254 1.98579E+01 1.04342E-01-2.66498E-04-6.25671E-01 3.79610E-14-1.43371E-13
 -1       255 2.06004E+01 2.18670E-02 2.49174E-03-8.02090E-01 1.33791E-13-1.74153E-13
 -1       256 2.13839E+01-4.79549E-02 3.40516E-03-7.52234E-01 6.54082E-14-3.55232E-13
 -1       257 2.20190E+01-8.40428E-02 2.50158E-03-5.48535E-01-7.18462E-14-2.52769E-13
 -1       258 2.24081E+01-8.73257E-02 8.59144E-04-2.90572E-01-1.94539E-13-2.16341E-13
 -1       259 2.25419E+01-7.04999E-02-5.62978E-04-5.56587E-02-1.95236E-13-6.41088E-14
 -1       260 2.24662E+01-4.67595E-02-1.31286E-03 1.17608E-01-1.82396E-13-3.93113E-14
 -1       261 2.22481E+01-2.46795E-02-1.42044E-03 2.22385E-01-4.31914E-14 1.22064E-13
 -1       262 2.19521E+01-7.93829E-03-1.13382E-03 2.69439E-01 9.21825E-14 2.76704E-13
 -1       263 2.16293E+01 2.98827E-03-7.04266E-04 2.75393E-01 3.36547E-13-5.53329E-14
 -1       264 2.13149E+01 9.09505E-03-2.96348E-04 2.56017E-01 1.75550E-13-2.40909E-13
 -1       265 2.10298E+01 1.17557E-02 1.64319E-05 2.23587E-01-7.18170E-14-4.43392E-14
 -1       266 2.07840E+01 1.22105E-02 2.20333E-04 1.86529E-01 3.55373E-14 3.33138E-14
 -1       267 2.05803E+01 1.14027E-02 3.30777E-04 1.50046E-01-1.04952E-13 1.22477E-13
 -1       268 2.04168E+01 9.98072E-03 3.72554E-04 1.16971E-01-9.14895E-14 3.03511E-13
 -1       269 2.02894E+01 8.35747E-03 3.69438E-04 8.85513E-02-1.96098E-14 1.60552E-13
 -1       270 2.01929E+01 6.77882E-03 3.39904E-04 6.50382E-02 1.26643E-13 2.70657E-13
 -1       271 2.01219E+01 5.38210E-03 2.95787E-04 4.61035E-02 1.50556E-13 1.17491E-13
 -1       272 2.00715E+01 4.23617E-03 2.42368E-04 3.11083E-02 1.51754E-13-1.99243E-14
 -1       273 2.00375E+01 3.35524E-03 1.78054E-04 1.92889E-02 9.98749E-14 1.95244E-13
 -1       274 2.00163E+01 2.72104E-03 1.07326E-04 9.93405E-03 3.49030E-14 4.04121E-13
 -1       275 2.00050E+01 2.23356E-03 1.18773E-04 2.55600E-03-7.09659E-14 1.90514E-13
 -1       276 2.00006E+01 7.58684E-04 2.68804E-04-2.23199E-03-2.99186E-14 3.38443E-13
 -1       277 2.00021E+01 2.67226E-03 1.05748E-04 2.88340E-05 2.18722E-13 8.80151E-13
 -1       278 2.00028E+01 9.78765E-03 2.52497E-05 6.35200E-03 6.87873E-13 1.29244E-13
 -1       279 2.00019E+01 2.15938E-02 6.90707E-06 1.23804E-02 7.88885E-13-1.36407E-13
 -1       280 2.00006E+01 3.66437E-02-2.70510E-06 1.57563E-02 4.68284E-13-4.52199E-13
 -1       281 1.99992E+01 5.22595E-02-3.47722E-05 1.57920E-02 2.07648E-13-6.41090E-13
 -1       282 1.99980E+01 6.62095E-02-6.80260E-05 1.25875E-02 7.98244E-18-1.79914E-13
 -1       283 1.99972E+01 7.56706E-02-9.37779E-05 6.84471E-03 1.97670E-13 3.65650E-14
 -1       284 1.99969E+01 7.89180E-02-1.02961E-04-2.73517E-04 5.05265E-13 4.31337E-13
 -1       285 1.99972E+01 7.53355E-02-9.34490E-05-7.37711E-03 1.54762E-13-2.75569E-13
 -1       286 1.99980E+01 6.55436E-02-6.77843E-05-1.30587E-02-1.27412E-13-8.82172E-13
 -1       287 1.99993E+01 5.15862E-02-3.22699E-05-1.60909E-02-3.93497E-13-5.39558E-13
 -1       288 2.00007E+01 3.55240E-02-3.51817E-06-1.58260E-02-6.36333E-13 2.91356E-13
 -1       289 2.00021E+01 2.04472E-02 2.45802E-06-1.20690E-02-5.75541E-13-1.39833E-13
 -1       290 2.00028E+01 9.25725E-03 8.40797E-05-5.96481E-03-3.23443E-13 6.27660E-14
 -1       291 2.00042E+01 5.51909E-03 7.08631E-05-2.04077E-03-1.57083E-13 4.25473E-13
 -1       292-6.95212E-01-1.01317E+01-8.53348E-01 1.47439E+00 2.61582E-13 2.94570E-13
 -1       293 3.05617E+00-7.87949E+00-6.49100E-01 4.06390E+00 2.21767E-13-1.42587E-13
 -1       294 1.00343E+01-5.00401E+00-4.11303E-01 6.03230E+00 1.49658E-13-1.22326E-13
 -1       295 1.83462E+01-7.05010E-01-9.87271E-02 7.30331E+00 9.72833E-14 2.36255E-13
 -1       296 2.91982E+01 2.16457E+00 2.85707E-01 7.03040E+00 7.22894E-14 3.99070E-13
 -1       297 3.84243E+01 5.07933E+00 6.98926E-01 6.37164E+00 1.71501E-13 1.06498E-13
 -1       298 4.33578E+01 6.57184E+00 8.00907E-01 2.78158E+00 3.58408E-13-9.87821E-14
 -1       299 4.66105E+01 6.63095E+00 1.01840E+00-5.04742E-01 3.77448E-13-2.57894E-13
 -1       300 4.36673E+01 6.13319E+00 9.36337E-01-4.29225E+00 5.22540E-13-4.48475E-13
 -1       301 3.60725E+01 4.44538E+00 5.73789E-01-6.43675E+00 5.08933E-13-5.61995E-13
 -1       302 2.69057E+01 1.79826E+00 2.31508E-01-7.47736E+00 5.81035E-13-7.37549E-13
 -1       303 1.71190E+01-1.66884E+00-1.53461E-01-7.03241E+00 6.01852E-13-6.90364E-13
 -1       304 9.71265E+00-5.57617E+00-3.42063E-01-6.20856E+00 5.00877E-13-3.72778E-13
 -1       305 2.17970E+00-8.53196E+00-7.34281E-01-3.43818E+00 4.88165E-13-4.95132E-13
 -1       306-8.75467E-01-9.84936E+00-8.16505E-01-1.20143E+00 1.04125E-13-5.48228E-13
 -1       307-6.28844E-01-1.02901E+01-9.00850E-01 1.17516E+00-2.20740E-13-8.90094E-13
 -1       308 2.71092E+00-8.66291E+00-8.46943E-01 3.15316E+00-6.74100E-13-6.76244E-13
 -1       309 9.24996E+00-5.24962E+00-5.55713E-01 5.31069E+00-8.86402E-13-8.41438E-13
 -1       310 1.94528E+01-1.96712E+00-1.39813E-01 6.82963E+00-7.65110E-13-7.47402E-13
 -1       311 2.94682E+01 2.12902E+00 3.01092E-01 7.36896E+00-8.89511E-13-8.37108E-13
 -1       312 3.85515E+01 4.40464E+00 6.15185E-01 5.08562E+00-6.45355E-13-8.47822E-13
 -1       313 4.58054E+01 6.22774E+00 1.03348E+00 3.30538E+00-5.04638E-13-7.45071E-13
 -1       314 4.80509E+01 6.68930E+00 1.14210E+00-1.79637E-01-4.87804E-13-1.68353E-13
 -1       315 4.37952E+01 6.19744E+00 8.46874E-01-3.11574E+00-5.89487E-13-6.00076E-14
 -1       316 3.73696E+01 4.23581E+00 6.50721E-01-6.50766E+00-4.41584E-13 4.24161E-13
 -1       317 2.75744E+01 6.99306E-01 1.67664E-01-6.76441E+00-5.50088E-13 4.39065E-13
 -1       318 1.67255E+01-2.01973E+00-2.32919E-01-6.73922E+00-5.02653E-13 6.77264E-13
 -1       319 8.50110E+00-5.84561E+00-5.59770E-01-5.21159E+00-3.56853E-13 3.75866E-13
 -1       320 2.07813E+00-9.00016E+00-8.59369E-01-2.87253E+00-4.42424E-14 3.29743E-13
 -1       321-8.86661E-01-1.03712E+01-9.02473E-01-9.03271E-01 2.53748E-13 5.91249E-13
 -1       322 2.01472E+01 3.00612E+00-2.18978E-02-2.06337E+00-2.29002E-13-1.67762E-13
 -1       323 2.07518E+01 2.20698E+00-1.75098E-02-2.33557E+00-2.47139E-13-1.46081E-14
 -1       324 1.95999E+01 3.71658E+00-1.54678E-02-1.28419E+00-1.32715E-13-2.99838E-13
 -1       325 1.94730E+01 3.88277E+00-1.35392E-02-8.96877E-01-8.96966E-14-3.08171E-13
 -1       326 1.93999E+01 3.98040E+00-1.25055E-02-5.26480E-01-3.37599E-14-3.24532E-13
 -1       327 1.93667E+01 4.02529E+00-1.20620E-02-1.67289E-01 1.67244E-14-3.38193E-13
 -1       328 1.93678E+01 4.02354E+00-1.20804E-02 1.88204E-01 5.59991E-14-3.23226E-13
 -1       329 1.94035E+01 3.97485E+00-1.25487E-02 5.47789E-01 9.96836E-14-3.08708E-13
 -1       330 1.94780E+01 3.87477E+00-1.35952E-02 9.12603E-01 1.38570E-13-2.72907E-13
 -1       331 1.96083E+01 3.70340E+00-1.55280E-02 1.30045E+00 1.85342E-13-2.05843E-13
 -1       332 1.98242E+01 3.42462E+00-1.87416E-02 1.70329E+00 2.42501E-13-1.32115E-13
 -1       333 2.01891E+01 2.96056E+00-2.28063E-02 2.09316E+00 2.76117E-13-3.00957E-14
 -1       334 2.07434E+01 2.12874E+00-3.02825E-02 2.29354E+00 2.80770E-13 1.52062E-13
 -1       335 2.10765E+01 1.18633E+00-2.46911E-02 1.89946E+00 2.42048E-13 3.40688E-13
 -1       336 2.03875E+01 4.91685E-01 8.46090E-03 9.02234E-01 1.89193E-13 2.57121E-13
 -1       337 2.04648E+01 6.80760E-01 1.26890E-02-9.91854E-01-1.82015E-13 1.48162E-14
 -1       338 2.00623E+01 3.48359E-01 7.32722E-03-4.14173E-01-1.57271E-13 2.55254E-14
 -1       339 1.98352E+01 1.94039E-01 4.35094E-03-8.84933E-02-1.12898E-13 1.15432E-14
 -1       340 1.97365E+01 1.15699E-01 2.17066E-03 1.07215E-01-4.96302E-14-3.39613E-14
 -1       341 1.97307E+01 7.60612E-02 1.20020E-03 2.32284E-01-3.69172E-14-7.19245E-14
 -1       342 1.97918E+01 5.88777E-02 8.30200E-04 3.20920E-01-8.84195E-14-4.18569E-14
 -1       343 1.99036E+01 5.64216E-02 7.44349E-04 3.94639E-01-7.21949E-14-3.59569E-14
 -1       344 2.00576E+01 6.45439E-02 8.10600E-04 4.68104E-01-1.44994E-14-7.32975E-14
 -1       345 2.02508E+01 8.05879E-02 9.68646E-04 5.51869E-01-5.19807E-14-1.15844E-13
 -1       346 2.04841E+01 1.02177E-01 1.17340E-03 6.53433E-01-4.27628E-14-1.22149E-13
 -1       347 2.07608E+01 1.26110E-01 1.36575E-03 7.77107E-01-6.27756E-14-6.86670E-14
 -1       348 2.10855E+01 1.46900E-01 1.45030E-03 9.22672E-01 3.16282E-14-3.59166E-14
 -1       349 2.14634E+01 1.54643E-01 1.27365E-03 1.08244E+00 6.61109E-15 2.02880E-14
 -1       350 2.18990E+01 1.32187E-01 6.11082E-04 1.23622E+00-7.73519E-15-7.83485E-14
 -1       351 2.23965E+01 5.25404E-02-8.09997E-04 1.34397E+00-5.57300E-14-1.19685E-13
 -1       352 2.29589E+01-1.19878E-01-3.16726E-03 1.33749E+00-5.38744E-14-6.21850E-14
 -1       353 2.35847E+01-4.15305E-01-6.28240E-03 1.11663E+00-3.87104E-14 1.97040E-14
 -1       354 2.42517E+01-8.16805E-01-9.31058E-03 5.64967E-01-3.27323E-14 1.48135E-15
 -1       355 2.48789E+01-1.17949E+00-9.09611E-03-3.83321E-01 1.30374E-13-2.14050E-15
 -1       356 2.52699E+01-1.17572E+00-1.26286E-02-1.59018E+00 2.89993E-13-1.63162E-14
 -1       357 2.52043E+01-4.42976E-01-1.72118E-02-2.53845E+00 1.45957E-13 1.45293E-13
 -1       358 2.46309E+01 1.01391E+00-2.26013E-02-2.39218E+00-2.96464E-15 1.17191E-13
 -1       359 2.40812E+01 2.16871E+00-3.65466E-02-7.98113E-01-2.11532E-13-2.04677E-14
 -1       360 2.41861E+01 1.95873E+00-3.57759E-02 1.36510E+00-1.79627E-13-3.12058E-13
 -1       361 2.48229E+01 5.83311E-01-2.39607E-02 2.58988E+00-7.80842E-14-2.63146E-13
 -1       362 2.52870E+01-7.19836E-01-1.45880E-02 2.36059E+00-1.19613E-14-1.62064E-13
 -1       363 2.52201E+01-1.23634E+00-9.75920E-03 1.26485E+00 4.97180E-14-1.03290E-13
 -1       364 2.47422E+01-1.09413E+00-9.58231E-03 9.97912E-02 5.87217E-14-7.16752E-14
 -1       365 2.41003E+01-6.93087E-01-8.25686E-03-7.33449E-01-8.64950E-14 1.26310E-14
 -1       366 2.34526E+01-3.12102E-01-5.23062E-03-1.17432E+00-1.32799E-13 6.89419E-14
 -1       367 2.28597E+01-5.02851E-02-2.29135E-03-1.31387E+00-2.46588E-13 1.09132E-13
 -1       368 2.23357E+01 9.48761E-02-1.83264E-04-1.26750E+00-6.84390E-14 3.15810E-13
 -1       369 2.18809E+01 1.57685E-01 1.02289E-03-1.12675E+00 9.31744E-14 2.25101E-13
 -1       370 2.14921E+01 1.71773E-01 1.55155E-03-9.51351E-01 2.27955E-14-9.28374E-14
 -1       371 2.11654E+01 1.60990E-01 1.65732E-03-7.75346E-01-1.79391E-13-4.35399E-14
 -1       372 2.08957E+01 1.39789E-01 1.54020E-03-6.15556E-01 2.01983E-14-5.85047E-14
 -1       373 2.06770E+01 1.16005E-01 1.32894E-03-4.78536E-01 5.07146E-15-3.54639E-13
 -1       374 2.05026E+01 9.34506E-02 1.09609E-03-3.65258E-01 9.15308E-14-9.18032E-14
 -1       375 2.03660E+01 7.37107E-02 8.77666E-04-2.73966E-01 6.99294E-14 2.23868E-13
 -1       376 2.02607E+01 5.72259E-02 6.88627E-04-2.01777E-01 8.92259E-14 5.35335E-13
 -1       377 2.01810E+01 4.38989E-02 5.32528E-04-1.45527E-01 3.73850E-13 3.58880E-13
 -1       378 2.01217E+01 3.34120E-02 4.07614E-04-1.02194E-01 3.08729E-13 4.73043E-13
 -1       379 2.00786E+01 2.54032E-02 3.07780E-04-6.90676E-02 1.21167E-13 6.36488E-13
 -1       380 2.00480E+01 1.94322E-02 2.32909E-04-4.38326E-02-9.63143E-14 8.40097E-13
 -1       381 2.00268E+01 1.49041E-02 2.01741E-04-2.46661E-02-4.05454E-14 7.44624E-13
 -1       382 2.00134E+01 1.04532E-02 8.84358E-05-1.13017E-02 1.10291E-13 3.44141E-13
 -1       383 1.99058E+01 2.34136E-01 1.09216E-02 3.66662E-01 1.41312E-13 2.12805E-13
 -1       384 1.96441E+01 1.24479E-01 6.36994E-03 7.63595E-02 1.06939E-13 1.59457E-13
 -1       385 1.95458E+01 7.07303E-02 3.08349E-03-8.94945E-02 5.37771E-14 1.45532E-13
 -1       386 1.95551E+01 4.33646E-02 1.54181E-03-1.89601E-01-2.75713E-15 9.30443E-14
 -1       387 1.96363E+01 3.00373E-02 9.07541E-04-2.55096E-01 2.67438E-14 2.15726E-14
 -1       388 1.97682E+01 2.49143E-02 6.54926E-04-3.03632E-01 8.96119E-14 7.13261E-14
 -1       389 1.99389E+01 2.46276E-02 5.55801E-04-3.45700E-01 1.12371E-13 4.67164E-14
 -1       390 2.01426E+01 2.66716E-02 5.10359E-04-3.87158E-01 4.97065E-14 7.66778E-14
 -1       391 2.03764E+01 2.86276E-02 4.53765E-04-4.30064E-01 8.42408E-14 1.23921E-13
 -1       392 2.06383E+01 2.76919E-02 3.24834E-04-4.72595E-01 6.15981E-14 1.11801E-13
 -1       393 2.09253E+01 2.03659E-02 6.03714E-05-5.08407E-01 1.80046E-13 6.17499E-15
 -1       394 2.12304E+01 2.38164E-03-3.96687E-04-5.25731E-01 5.96749E-14-1.10536E-14
 -1       395 2.15408E+01-3.08412E-02-1.07483E-03-5.06744E-01-3.98207E-14 4.04427E-14
 -1       396 2.18349E+01-8.26842E-02-1.93790E-03-4.28230E-01-7.76941E-14 1.84409E-13
 -1       397 2.20807E+01-1.52101E-01-2.83743E-03-2.65344E-01 1.29443E-15 1.18898E-13
 -1       398 2.22353E+01-2.28444E-01-3.48808E-03-8.75662E-04 4.73478E-14 1.61646E-13
 -1       399 2.22499E+01-2.86038E-01-3.53462E-03 3.58249E-01-1.34321E-13 3.01358E-14
 -1       400 2.20815E+01-2.83738E-01-2.56799E-03 7.59885E-01-9.90755E-14 1.28988E-13
 -1       401 2.17174E+01-1.79408E-01-8.61422E-04 1.09298E+00-8.49060E-15 2.05832E-13
 -1       402 2.12086E+01 3.59754E-02 1.13795E-03 1.20618E+00 2.06527E-13 1.40899E-13
 -1       403 2.06898E+01 3.03472E-01 3.03829E-03 9.78228E-01 1.65616E-13 1.09427E-13
 -1       404 2.03475E+01 5.01780E-01 3.73411E-03 4.14574E-01-1.91318E-14-1.87143E-14
 -1       405 2.03299E+01 5.20316E-01 4.61090E-03-3.06722E-01-4.69477E-14-1.02791E-13
 -1       406 2.06467E+01 3.48104E-01 5.09455E-03-9.13197E-01 1.38041E-15-8.64658E-14
 -1       407 2.11626E+01 8.34651E-02 3.26578E-03-1.20241E+00 1.40990E-13-5.26961E-14
 -1       408 2.16894E+01-1.47057E-01 4.09531E-04-1.14042E+00 8.94230E-14 8.57886E-14
 -1       409 2.20828E+01-2.70983E-01-2.27075E-03-8.35027E-01-5.30407E-14 7.86223E-14
 -1       410 2.22833E+01-2.87468E-01-3.72251E-03-4.39708E-01-1.23003E-13 1.65685E-13
 -1       411 2.22995E+01-2.35923E-01-3.93782E-03-7.48491E-02-1.66276E-13 6.45560E-14
 -1       412 2.21742E+01-1.59177E-01-3.27869E-03 1.98111E-01-1.61642E-13-8.28012E-14
 -1       413 2.19579E+01-8.60027E-02-2.23716E-03 3.66363E-01-1.87267E-13-5.87362E-14
 -1       414 2.16955E+01-2.94096E-02-1.19487E-03 4.44633E-01 1.79850E-13 4.80035E-14
 -1       415 2.14208E+01 8.28004E-03-3.56540E-04 4.57448E-01 4.41430E-13 1.14090E-13
 -1       416 2.11570E+01 2.98850E-02 2.16538E-04 4.28821E-01 1.48420E-13 1.85527E-13
 -1       417 2.09181E+01 3.97396E-02 5.49841E-04 3.77948E-01-8.67131E-14 2.57567E-13
 -1       418 2.07108E+01 4.19107E-02 7.00961E-04 3.18371E-01 2.09401E-14 2.21581E-13
 -1       419 2.05370E+01 3.95727E-02 7.29687E-04 2.58710E-01-2.39026E-13 1.59300E-13
 -1       420 2.03956E+01 3.49544E-02 6.85702E-04 2.03860E-01-7.10272E-14 4.57435E-13
 -1       421 2.02836E+01 2.95041E-02 6.05064E-04 1.56142E-01-6.33852E-14 2.90421E-13
 -1       422 2.01970E+01 2.41004E-02 5.11692E-04 1.16219E-01 1.46593E-13 1.67472E-13
 -1       423 2.01318E+01 1.92401E-02 4.19293E-04 8.37545E-02 1.73662E-13 3.14056E-13
 -1       424 2.00840E+01 1.51712E-02 3.34147E-04 5.78687E-02 9.26214E-14 3.52742E-13
 -1       425 2.00502E+01 1.19478E-02 2.58297E-04 3.74471E-02-7.45698E-14 5.80854E-13
 -1       426 2.00272E+01 9.43608E-03 1.82064E-04 2.14606E-02-6.56214E-14 6.02811E-13
 -1       427 2.00125E+01 7.16071E-03 1.23868E-04 9.25519E-03 7.09007E-14 7.71351E-13
 -1       428 2.00065E+01 5.60543E-03 6.11839E-05 3.94089E-03-6.65019E-14 8.99008E-13
 -1       429 2.00049E+01 4.20149E-02 4.53292E-05 2.83285E-02 2.69690E-13-3.33519E-13
 -1       430 2.00092E+01 2.59170E-02 8.15481E-05 2.13772E-02 1.71101E-13-9.69290E-16
 -1       431 2.00092E+01 1.41943E-02 9.00214E-05 1.22986E-02 1.86539E-14 6.19024E-13
 -1       432 1.99996E+01 5.85182E-02-1.43060E-06 3.02585E-02 1.91308E-13-1.01941E-12
 -1       433 1.99944E+01 7.38126E-02-4.46841E-05 2.66422E-02 2.97825E-13-3.59039E-13
 -1       434 1.99904E+01 8.54724E-02-8.01272E-05 1.80986E-02 3.39822E-13 2.26650E-14
 -1       435 1.99882E+01 9.18115E-02-9.98876E-05 6.21438E-03 1.10080E-13 4.16797E-13
 -1       436 1.99882E+01 9.18752E-02-1.00033E-04-6.85673E-03-9.05126E-15-2.41018E-13
 -1       437 1.99905E+01 8.56127E-02-7.99274E-05-1.87418E-02-2.84767E-13-6.34762E-13
 -1       438 1.99945E+01 7.41565E-02-4.39269E-05-2.71135E-02-6.58376E-14-8.87303E-13
 -1       439 1.99999E+01 5.87681E-02-9.79698E-07-3.06111E-02-1.43381E-13 8.56669E-14
 -1       440 2.00054E+01 4.17768E-02 4.44713E-05-2.83304E-02-8.66608E-14 1.43321E-13
 -1       441 2.00097E+01 2.52498E-02 7.13134E-05-2.07840E-02-8.02789E-14-5.78104E-14
 -1       442 1.15539E+01-4.92099E+00 7.16471E-02 7.28125E+00-3.56104E-14-1.75741E-13
 -1       443 1.90380E+00-3.32411E+00 6.03542E-02 3.41616E-01 1.69199E-13 3.49720E-13
 -1       444 3.46543E+00-4.11419E+00 7.87801E-03 4.13866E+00-1.84873E-13-2.08167E-13
 -1       445 1.98042E+01-5.28117E+00 2.03453E-02 6.65783E+00-4.00513E-14-9.06358E-14
 -1       446 2.61957E+01-3.53547E+00-2.40924E-02 4.43269E+00-2.00992E-13 2.12413E-13
 -1       447 1.98074E+01 3.44795E+00-1.86112E-02-1.68461E+00-1.83864E-13-2.77601E-13
 -1       448 3.43599E+01 5.08160E+00 1.53190E-02 1.18508E-01 2.70575E-13-2.29261E-13
 -1       449 3.42017E+01 8.03517E+00-2.92753E-02-2.72611E-01 3.75200E-13-2.68351E-13
 -1       450 3.50054E+01 7.69822E+00 8.92239E-03 2.80791E-01 4.34347E-13-2.25236E-14
 -1       451 3.45228E+01 4.52296E+00 5.61849E-02-5.70549E-01 3.26864E-13 2.89768E-14
 -1       452 3.09666E+01 7.36799E-02 2.64958E-02-2.45028E+00 2.77211E-13-1.21902E-13
 -1       453 2.51451E+01-3.41113E+00 6.47885E-04-5.18385E+00 1.17711E-13-2.04156E-13
 -1       454 1.82686E+01-5.16657E+00-1.85964E-02-6.87063E+00 7.31498E-14-1.96551E-13
 -1       455 8.62935E+00-5.19503E+00-3.12461E-02-6.63319E+00-5.33601E-14-2.21892E-13
 -1       456 3.14823E+00-4.88449E+00-8.09734E-02-4.19265E+00 6.07431E-14-5.31700E-13
 -1       457 1.05232E+00-4.55359E+00-9.28179E-02 3.94443E-01-1.25733E-13-8.46462E-13
 -1       458 3.91277E+00-5.20208E+00-9.61616E-02 4.39302E+00-6.25333E-14-7.75782E-13
 -1       459 1.08384E+01-5.59466E+00-2.55875E-02 6.73227E+00-8.49459E-14-4.11900E-13
 -1       460 1.81823E+01-5.82146E+00-6.10485E-02 6.58699E+00-1.40263E-13-4.26693E-13
 -1       461 2.77086E+01-3.50801E+00 1.36111E-02 3.87527E+00-3.76935E-13-3.61128E-13
 -1       462 3.23132E+01-5.58209E-02 1.27620E-02 1.40776E+00-5.02650E-13-3.95045E-13
 -1       463 3.52389E+01 5.00217E+00 4.71850E-02-6.43957E-01-5.37556E-13-3.14415E-13
 -1       464 3.75353E+01 7.58480E+00 1.37697E-01-1.74321E-01-5.19695E-13-3.93102E-13
 -1       465 3.67719E+01 7.52371E+00 1.09520E-01 3.29814E-01-5.90916E-13-3.29556E-13
 -1       466 3.52316E+01 3.83898E+00 5.50722E-02 5.92112E-02-4.33861E-13-1.95982E-13
 -1       467 3.21250E+01-3.99858E-01 2.90742E-02-1.53507E+00-3.19829E-13-2.09943E-13
 -1       468 2.52974E+01-4.43338E+00-2.84514E-02-4.76105E+00-5.86753E-14 1.32824E-13
 -1       469 1.75781E+01-5.63677E+00-5.00722E-02-6.62948E+00-4.94327E-14 3.36793E-13
 -1       470 9.53551E+00-5.43107E+00-3.24168E-02-6.50662E+00 2.49314E-13 3.60538E-13
 -1       471 3.26034E+00-5.05367E+00-8.89091E-02-3.89237E+00 3.00024E-13 3.27294E-13
 -1       472 3.21941E+01 1.33732E+00 4.03547E-02 1.59259E+00 1.16886E-14-1.08261E-13
 -1       473 1.53064E+01-5.20529E+00 6.72373E-02-7.18954E+00-1.21333E-13-6.40356E-14
 -1       474 2.03898E+01 8.43970E-01 4.04258E-03 9.28321E-01 1.81826E-13 4.63236E-14
 -1       475 1.97339E+01 3.16262E+00-5.33329E-03-6.04364E-01-6.16925E-14-2.79466E-13
 -1       476 1.98373E+01 2.97814E+00-5.94024E-03-9.10796E-01-9.70556E-14-2.68687E-13
 -1       477 1.96582E+01 3.29509E+00-4.92986E-03 8.51880E-03 2.90519E-14-2.91775E-13
 -1       478 1.96786E+01 3.25917E+00-5.01533E-03 3.14298E-01 7.60437E-14-2.97484E-13
 -1       479 1.97378E+01 3.15477E+00-5.33614E-03 6.16146E-01 9.90332E-14-2.65214E-13
 -1       480 1.98435E+01 2.96551E+00-5.88873E-03 9.21597E-01 1.72528E-13-1.96958E-13
 -1       481 2.00050E+01 2.66687E+00-6.49568E-03 1.21158E+00 2.07246E-13-1.54087E-13
 -1       482 2.02491E+01 2.20724E+00-5.68392E-03 1.45652E+00 2.40797E-13-7.40087E-14
 -1       483 2.01457E+01 4.73744E-01 5.16997E-03 4.05851E-01 1.45854E-13 1.29210E-14
 -1       484 2.03637E+01 9.93323E-01 2.95227E-03-8.87070E-01-1.71274E-13-1.00724E-13
 -1       485 3.00576E+01 5.29604E+00-1.64786E-01 1.59442E+00 1.79357E-13-5.60732E-14
 -1       486 2.85161E+01-2.45833E+00-6.99571E-02 4.75273E-01-1.85223E-13-3.85900E-13
 -1       487 2.02090E+01 5.78272E-01 2.41576E-03-3.96728E-01-1.17071E-13-9.24048E-14
 -1       488 2.00843E+01 3.49623E-01 1.04677E-03-6.80697E-02-8.73976E-14-6.71036E-14
 -1       489 2.00124E+01 2.25338E-01 5.74194E-04 1.51454E-01-8.06386E-14-7.52900E-14
 -1       490 1.99910E+01 1.60894E-01 3.59648E-04 3.04864E-01-8.05291E-14-9.19109E-14
 -1       491 2.00116E+01 1.35026E-01 2.94995E-04 4.22720E-01-1.26642E-13-1.34906E-13
 -1       492 2.00661E+01 1.35998E-01 3.08333E-04 5.26696E-01-3.71840E-14-1.54155E-13
 -1       493 2.01485E+01 1.56638E-01 3.68704E-04 6.32603E-01-5.90971E-14-1.38150E-13
 -1       494 2.02552E+01 1.91553E-01 4.59874E-04 7.51990E-01-5.77102E-14-1.00146E-13
 -1       495 2.03845E+01 2.35085E-01 5.63861E-04 8.92735E-01-1.49537E-14-1.04730E-13
 -1       496 2.05364E+01 2.79110E-01 6.51930E-04 1.05869E+00 2.22746E-14 2.03587E-14
 -1       497 2.07139E+01 3.10026E-01 6.74006E-04 1.24824E+00-3.58416E-14-4.33147E-14
 -1       498 2.09252E+01 3.04595E-01 5.45607E-04 1.45149E+00-4.13148E-14-2.27818E-14
 -1       499 2.11890E+01 2.25007E-01 1.29330E-04 1.64563E+00-2.23671E-14 2.64653E-14
 -1       500 2.15424E+01 1.57343E-02-7.68387E-04 1.78769E+00-9.97948E-14 3.30132E-14
 -1       501 2.20500E+01-3.89616E-01-2.20927E-03 1.80423E+00-1.37190E-14-7.49535E-14
 -1       502 2.28021E+01-1.03318E+00-4.11855E-03 1.57962E+00-1.25137E-14 4.14862E-14
 -1       503 2.38806E+01-1.83876E+00-6.23291E-03 9.48218E-01 5.41372E-14 1.49867E-13
 -1       504 2.52297E+01-2.45721E+00-5.58026E-03-2.25291E-01 2.92175E-13 1.24544E-13
 -1       505 2.63760E+01-1.90029E+00-4.04997E-02-1.82023E+00 2.34177E-13 1.10298E-13
 -1       506 2.71073E+01 7.95665E-02-6.18216E-02-3.00108E+00-2.16918E-14 8.25798E-14
 -1       507 2.65900E+01 3.25401E+00-1.42466E-01-2.27002E+00-2.68452E-13-1.48203E-13
 -1       508 2.64194E+01 4.46231E+00-1.33067E-01 4.22846E-01-3.74992E-13-3.45264E-13
 -1       509 2.67250E+01 2.42606E+00-1.34418E-01 2.69862E+00-9.21659E-14-4.04286E-13
 -1       510 2.69759E+01-6.40263E-01-4.13877E-02 2.77403E+00-1.30564E-13-5.35065E-13
 -1       511 2.61538E+01-2.27575E+00-1.58208E-02 1.34332E+00 4.42262E-14-6.28853E-13
 -1       512 2.48382E+01-2.31063E+00-4.71910E-03-1.50479E-01 1.06543E-13-5.16218E-13
 -1       513 2.35593E+01-1.59629E+00-4.08482E-03-1.15207E+00 6.90624E-14-4.18034E-13
 -1       514 2.25875E+01-8.12987E-01-2.80137E-03-1.63837E+00-3.65805E-14-3.93020E-13
 -1       515 2.19235E+01-2.32553E-01-1.39393E-03-1.76898E+00-1.31694E-13-1.97182E-13
 -1       516 2.14788E+01 1.15330E-01-2.78502E-04-1.69343E+00-2.16317E-13-4.65701E-14
 -1       517 2.11688E+01 2.85977E-01 3.71864E-04-1.51436E+00 1.01538E-15-1.57239E-13
 -1       518 2.09376E+01 3.44184E-01 6.71784E-04-1.29544E+00-1.51809E-13-2.23244E-13
 -1       519 2.07541E+01 3.39979E-01 7.47922E-04-1.07349E+00-5.85142E-14-1.86417E-14
 -1       520 2.06028E+01 3.05859E-01 7.06476E-04-8.68018E-01-1.98072E-13-1.55940E-13
 -1       521 2.04764E+01 2.60754E-01 6.14348E-04-6.87802E-01-2.81352E-13-3.64835E-13
 -1       522 2.03710E+01 2.14722E-01 5.08824E-04-5.35362E-01 1.13548E-13-4.76309E-13
 -1       523 2.02841E+01 1.72561E-01 4.08464E-04-4.09769E-01 3.17618E-13-3.91628E-13
 -1       524 2.02136E+01 1.36162E-01 3.21069E-04-3.08388E-01 4.13424E-13-1.28298E-13
 -1       525 2.01574E+01 1.05913E-01 2.48962E-04-2.27898E-01 1.19647E-13 1.34273E-13
 -1       526 2.01134E+01 8.14803E-02 1.90418E-04-1.64869E-01 3.40727E-13 7.04178E-14
 -1       527 2.00794E+01 6.21994E-02 1.39173E-04-1.16125E-01 2.47446E-13 8.66277E-14
 -1       528 2.00534E+01 4.74445E-02 1.08508E-04-7.87591E-02 1.71634E-13 1.17799E-13
 -1       529 2.00339E+01 3.60797E-02 1.00577E-04-5.04451E-02-2.81351E-13 1.65700E-13
 -1       530 1.98994E+01 1.69096E-01 1.19671E-03-1.29057E-01 7.73653E-14-3.03251E-14
 -1       531 1.98837E+01 1.11847E-01 6.16845E-04-2.66423E-01 5.35933E-14-7.85913E-14
 -1       532 1.99195E+01 8.35501E-02 3.97123E-04-3.63773E-01 5.22683E-14-9.38656E-14
 -1       533 1.99954E+01 7.28077E-02 3.19507E-04-4.40712E-01 6.13794E-14-6.90274E-14
 -1       534 2.01039E+01 7.20465E-02 2.96945E-04-5.09417E-01 3.30715E-14 3.61770E-14
 -1       535 2.02406E+01 7.49274E-02 2.85463E-04-5.76414E-01 5.51054E-14 4.18575E-14
 -1       536 2.04037E+01 7.49119E-02 2.48110E-04-6.43062E-01 1.07246E-13 2.24536E-15
 -1       537 2.05929E+01 6.43450E-02 1.44923E-04-7.05228E-01 1.49860E-13 9.73758E-15
 -1       538 2.08085E+01 3.39684E-02-6.71368E-05-7.52443E-01 8.52534E-14 3.61438E-14
 -1       539 2.10507E+01-2.67486E-02-4.27634E-04-7.66890E-01-3.67549E-14 6.91718E-14
 -1       540 2.13182E+01-1.27590E-01-9.53767E-04-7.22959E-01-1.22013E-13 1.21830E-13
 -1       541 2.16061E+01-2.72573E-01-1.61281E-03-5.88775E-01 7.01387E-15 1.32940E-13
 -1       542 2.19005E+01-4.50544E-01-2.26261E-03-3.32145E-01 4.78128E-15 1.80279E-13
 -1       543 2.21721E+01-6.21952E-01-2.62801E-03 6.53530E-02-8.54873E-14 2.65483E-13
 -1       544 2.23690E+01-7.08689E-01-2.41964E-03 5.83138E-01-1.08641E-13 2.13717E-13
 -1       545 2.24208E+01-6.02934E-01-8.76012E-04 1.12909E+00-5.39640E-15 1.62382E-13
 -1       546 2.22692E+01-2.22201E-01 4.13273E-04 1.51957E+00 1.11139E-13 5.88006E-14
 -1       547 2.19361E+01 3.89839E-01 7.43296E-04 1.52265E+00 1.15686E-13 2.33555E-13
 -1       548 2.15728E+01 1.00425E+00 1.68935E-03 9.98999E-01 2.45143E-13 1.25830E-13
 -1       549 2.13936E+01 1.29582E+00-4.84593E-04 6.57631E-02 1.18759E-13-1.77585E-13
 -1       550 2.15363E+01 1.06987E+00 2.32905E-03-8.98161E-01-8.27138E-16-2.96931E-13
 -1       551 2.18901E+01 4.83363E-01 2.15255E-03-1.49258E+00 4.65696E-14-1.56574E-13
 -1       552 2.22431E+01-1.45947E-01 5.68396E-04-1.55973E+00 1.96583E-14-1.14036E-15
 -1       553 2.24284E+01-5.62974E-01-1.46073E-03-1.21287E+00-9.65815E-14 2.58780E-13
 -1       554 2.24087E+01-7.00344E-01-2.45693E-03-6.81590E-01-1.88874E-13 3.63643E-13
 -1       555 2.22356E+01-6.30729E-01-2.74093E-03-1.60721E-01-8.96841E-14 3.68415E-13
 -1       556 2.19812E+01-4.62219E-01-2.39413E-03 2.45315E-01-5.89242E-14 6.20801E-14
 -1       557 2.17011E+01-2.78452E-01-1.71842E-03 5.07793E-01-3.48731E-13 1.29540E-13
 -1       558 2.14281E+01-1.24263E-01-9.86182E-04 6.41621E-01 5.01630E-14 1.28376E-13
 -1       559 2.11777E+01-1.39743E-02-3.68211E-04 6.78315E-01 3.22386E-13 6.23658E-14
 -1       560 2.09558E+01 5.47964E-02 6.40325E-05 6.50525E-01 1.36271E-13 2.29376E-13
 -1       561 2.07637E+01 9.09861E-02 3.23711E-04 5.85459E-01 1.53727E-13 2.76226E-13
 -1       562 2.06005E+01 1.04469E-01 4.50143E-04 5.03167E-01 5.19068E-14 9.19869E-14
 -1       563 2.04644E+01 1.03642E-01 4.84643E-04 4.17086E-01-5.18854E-14 1.02565E-13
 -1       564 2.03528E+01 9.47773E-02 4.63422E-04 3.35399E-01-2.56197E-13 7.52720E-14
 -1       565 2.02629E+01 8.21782E-02 4.12987E-04 2.62476E-01 7.86893E-14 2.96470E-13
 -1       566 2.01917E+01 6.85985E-02 3.50944E-04 2.00108E-01 1.49553E-13 1.86871E-13
 -1       567 2.01364E+01 5.56803E-02 2.88321E-04 1.48451E-01 1.49350E-13 1.53669E-13
 -1       568 2.00942E+01 4.43273E-02 2.29496E-04 1.06705E-01-3.23188E-14 2.67964E-13
 -1       569 2.00626E+01 3.49020E-02 1.87743E-04 7.35935E-02-2.18811E-13 7.79282E-13
 -1       570 2.00393E+01 2.73882E-02 1.74183E-04 4.77445E-02-1.55644E-13 8.48365E-13
 -1       571 2.00222E+01 2.10571E-02 1.35687E-04 2.77976E-02-1.26275E-13 9.24432E-13
 -1       572 1.99926E+01 8.42302E-02-1.29740E-05 4.37385E-02 5.10021E-13-4.54291E-13
 -1       573 1.99828E+01 1.00253E-01-2.86475E-05 3.39489E-02 3.82640E-13-2.99337E-13
 -1       574 2.00141E+01 4.44190E-02-5.15671E-06 4.14114E-02-7.08387E-14-1.55458E-13
 -1       575 2.00038E+01 6.49035E-02 9.31114E-07 4.62950E-02-4.32941E-14-5.85804E-13
 -1       576 1.99761E+01 1.10908E-01-4.15753E-05 1.84779E-02 1.08862E-13-8.68760E-14
 -1       577 1.99738E+01 1.14863E-01-4.67494E-05-1.41316E-04-1.00695E-13 9.46377E-14
 -1       578 1.99761E+01 1.11564E-01-4.23624E-05-1.88417E-02-9.57228E-14-4.58987E-13
 -1       579 1.99827E+01 1.01573E-01-3.09716E-05-3.42540E-02 7.56947E-14-5.73915E-13
 -1       580 1.99928E+01 8.57249E-02-1.29019E-05-4.42352E-02 2.15328E-13-6.66158E-13
 -1       581 2.00044E+01 6.59720E-02-2.17927E-05-4.67620E-02 4.78489E-14 1.07587E-13
 -1       582 2.00151E+01 4.49653E-02 2.81084E-05-4.15208E-02-2.12628E-13-3.55060E-14
 -1       583 1.91799E+01-4.92529E+00 9.72324E-02 6.27084E+00-2.67779E-13-4.07235E-13
 -1       584 5.50041E+00-1.68556E+00 1.74426E-01-2.71941E+00 9.58261E-15 4.03913E-13
 -1       585 1.99823E+01 2.75786E-01 2.60054E-03 7.89681E-02 1.06590E-13 3.31094E-15
 -1       586 5.58415E+00-1.30113E+00 1.78768E-01 2.58639E+00-6.23841E-14-2.14426E-13
 -1       587 2.48496E+01-5.07602E+00 1.30068E-02 3.88959E+00-3.71123E-13-1.26461E-13
 -1       588 3.01773E+01 2.01400E+00-1.32380E-01-1.36517E+00 3.46945E-17-4.40960E-13
 -1       589 9.25208E+00-2.95926E+00 1.40653E-01-5.51805E+00 1.94879E-13 2.66703E-13
 -1       590 9.99549E+00-3.25908E+00 1.40541E-01 5.84263E+00 2.00083E-13-4.79075E-13
 -1       591 2.78513E+01-3.43110E+00-5.94096E-02-1.64759E+00-7.81458E-14 7.56478E-14
 -1       592 1.96761E+01 3.26409E+00-5.02215E-03-2.97274E-01-1.16485E-14-2.92997E-13
 -1       593 2.04045E+01 1.76701E+00-5.23796E-03-1.48038E+00-2.05540E-13-1.26826E-13
 -1       594 3.01332E+01 1.05453E+00-1.12333E-01 1.04323E+00 2.27353E-13 1.99035E-13
 -1       595 2.85167E+01 6.94719E+00-1.99139E-01 3.93225E-01 2.29858E-13 1.19250E-13
 -1       596 5.53586E+00-1.81817E+00 1.68133E-01 2.97823E+00-3.70086E-14-6.72518E-13
 -1       597 2.96965E+01 5.84300E+00-1.67214E-01-1.53140E+00 2.37060E-13-1.61669E-13
 -1       598 2.44099E+01-5.06421E+00 4.32956E-03-4.34239E+00-1.45550E-13 1.52101E-14
 -1       599 8.28596E+00-3.10649E+00 1.43432E-01-5.77319E+00-2.14072E-13-2.82857E-13
 -1       600 3.12090E+01 5.74106E+00-1.57723E-01-1.58724E+00-4.68611E-13-1.70371E-13
 -1       601 4.98231E+00-1.44866E+00 1.84710E-01-2.18835E+00-1.83221E-13-7.59157E-13
 -1       602 1.74002E+01-5.24691E+00 8.92315E-02 6.49695E+00 1.69781E-13-2.68535E-13
 -1       603 2.47283E+01-5.60487E+00 1.98861E-03 3.85390E+00 1.00163E-13-1.53953E-13
 -1       604 2.94376E+01-3.37854E+00-1.15161E-01 5.34283E-01-1.42258E-13-5.55944E-14
 -1       605 3.10771E+01 1.16964E+00-8.80345E-02-2.12983E+00-3.31318E-13-1.47354E-13
 -1       606 3.09079E+01 6.83623E+00-1.93269E-01 9.98857E-02-5.21014E-13-2.89445E-13
 -1       607 3.03515E+01 4.66541E+00-1.63928E-01 2.21840E+00-3.57783E-13-6.03531E-13
 -1       608 3.09446E+01 5.49615E-01-1.11166E-01 1.89130E+00-2.51132E-13-6.39939E-13
 -1       609 2.88640E+01-3.81561E+00-4.22247E-02-1.12792E+00-9.67091E-14-4.00284E-13
 -1       610 2.29925E+01-5.80277E+00 1.87150E-02-4.94034E+00 2.06675E-13 1.14062E-13
 -1       611 1.63532E+01-5.04436E+00 1.00534E-01-6.60181E+00 4.64913E-13 3.46629E-13
 -1       612 1.02870E+01-2.94797E+00 1.32004E-01 6.21089E+00-2.61062E-13-2.50890E-13
 -1       613 2.05897E+01 1.31021E+00-9.56087E-04 1.51352E+00 2.37981E-13 9.18324E-14
 -1       614 1.99951E+01 2.68572E+00-6.49819E-03-1.19952E+00-1.42617E-13-2.47909E-13
 -1       615 2.00235E+01 2.93158E-02 9.16179E-05-3.50178E-02-2.90145E-13 3.67183E-13
 -1       616 7.00872E+00-1.92267E-01 1.67470E-01-3.69857E-01-6.89887E-14 3.28994E-13
 -1       617 2.01828E+01 2.30137E+00-5.73557E-03-1.39094E+00-1.81192E-13-2.08574E-13
 -1       618 2.14764E+01-5.25670E+00 5.44796E-02-5.48179E+00-2.18658E-13-2.09226E-14
 -1       619 1.32924E+01-3.71706E+00 1.22024E-01-6.64248E+00-2.14093E-13-1.04618E-13
 -1       620 2.03103E+01 1.45950E+00 1.80575E-04-9.34373E-01-1.48601E-13-1.55868E-13
 -1       621 1.99434E+01 2.53782E+00-1.57435E-03 3.62929E-01 7.65123E-14-2.57457E-13
 -1       622 1.99057E+01 2.61991E+00-1.49223E-03 1.24548E-01 4.43513E-14-2.68459E-13
 -1       623 2.01261E+01 2.10474E+00-1.57282E-03 7.93421E-01 1.73599E-13-1.40434E-13
 -1       624 2.02555E+01 1.71576E+00-2.21512E-03 9.32531E-01 2.05021E-13-9.86635E-14
 -1       625 2.03429E+01 1.06753E+00 2.85809E-03 7.69714E-01 1.72298E-13-7.57886E-14
 -1       626 2.70577E+01-4.31935E+00-9.50456E-03 5.14054E-01 2.06022E-13 2.27395E-13
 -1       627 9.90075E+00-8.71650E-01 1.20779E-01 4.07050E+00-2.87798E-13-5.33067E-13
 -1       628 2.02725E+01 7.34508E-01-4.60996E-04-2.98533E-01-9.68600E-14-1.40801E-13
 -1       629 2.02108E+01 4.81052E-01 2.38116E-04-6.33805E-03-9.51815E-14-1.45566E-13
 -1       630 2.01580E+01 3.32873E-01 9.83759E-05 2.04329E-01-8.65429E-14-1.68446E-13
 -1       631 2.01228E+01 2.56882E-01 7.88213E-05 3.63016E-01-1.09676E-13-1.72763E-13
 -1       632 2.01046E+01 2.31484E-01 8.17153E-05 4.93250E-01-4.59454E-14-1.44654E-13
 -1       633 2.00998E+01 2.43063E-01 9.84192E-05 6.13695E-01-1.54869E-14-7.67467E-14
 -1       634 2.01040E+01 2.82003E-01 1.27041E-04 7.38680E-01-4.49951E-14-5.06322E-14
 -1       635 2.01129E+01 3.39925E-01 1.65072E-04 8.78876E-01-4.87489E-14-3.75766E-14
 -1       636 2.01228E+01 4.07080E-01 2.08618E-04 1.04167E+00-1.47280E-16-8.61611E-14
 -1       637 2.01321E+01 4.69167E-01 2.49556E-04 1.23119E+00-5.28317E-14-1.00698E-13
 -1       638 2.01443E+01 5.02997E-01 2.71629E-04 1.44793E+00 2.16073E-14-2.67055E-14
 -1       639 2.01742E+01 4.70660E-01 2.42564E-04 1.68796E+00 4.89932E-14-6.03452E-15
 -1       640 2.02578E+01 3.12865E-01 8.54931E-05 1.94088E+00-8.50245E-14 2.80981E-14
 -1       641 2.04697E+01-5.52102E-02-2.94634E-04 2.18404E+00-1.40435E-13 4.82073E-14
 -1       642 2.09446E+01-7.33895E-01-2.60931E-06 2.36563E+00 3.92638E-14-2.98719E-15
 -1       643 2.18812E+01-1.78073E+00 2.54352E-03 2.36476E+00 7.13637E-14-7.77807E-15
 -1       644 2.35229E+01-3.08365E+00 1.05014E-02 1.90977E+00 2.53054E-13 1.45971E-13
 -1       645 2.75494E+01-2.95248E+00-6.50796E-02 9.41314E-01-5.37695E-14-6.23980E-13
 -1       646 2.53109E+01-3.60378E+00 3.10299E-04-8.12526E-01 1.55009E-13-6.34536E-13
 -1       647 2.32244E+01-2.62188E+00 1.52558E-03-1.86756E+00 1.82428E-13-5.49803E-13
 -1       648 2.18187E+01-1.42129E+00 3.70171E-05-2.22502E+00-5.63197E-15-4.40202E-13
 -1       649 2.10135E+01-4.96721E-01-3.74659E-04-2.20642E+00-5.68374E-14-4.31378E-13
 -1       650 2.05998E+01 7.94032E-02-5.83066E-05-2.02271E+00-1.34274E-13-4.93319E-13
 -1       651 2.04026E+01 3.81740E-01 1.95241E-04-1.77637E+00-1.21622E-13-4.36900E-13
 -1       652 2.03110E+01 5.03816E-01 3.39276E-04-1.51543E+00-1.46481E-13-6.14578E-13
 -1       653 2.02641E+01 5.20596E-01 3.71424E-04-1.26387E+00-5.42947E-14-5.78535E-13
 -1       654 2.02326E+01 4.82781E-01 3.46349E-04-1.03381E+00-1.43463E-13-5.43897E-13
 -1       655 2.02047E+01 4.21339E-01 2.98353E-04-8.30943E-01-3.39320E-13-6.17444E-13
 -1       656 2.01769E+01 3.53745E-01 2.45375E-04-6.57024E-01-2.18593E-14-3.27627E-13
 -1       657 2.01493E+01 2.89065E-01 1.96182E-04-5.11318E-01 1.38628E-13-4.07818E-13
 -1       658 2.01229E+01 2.31454E-01 1.54088E-04-3.91621E-01 4.24140E-13-4.37191E-13
 -1       659 2.00986E+01 1.82358E-01 1.20170E-04-2.94960E-01 3.17585E-13-5.55817E-13
 -1       660 2.00772E+01 1.41814E-01 9.46867E-05-2.18080E-01 2.31129E-13-2.75326E-13
 -1       661 2.00588E+01 1.09146E-01 6.97620E-05-1.57708E-01 2.63516E-13-3.12596E-13
 -1       662 2.00433E+01 8.34754E-02 5.25685E-05-1.11180E-01 1.72773E-13-4.98782E-13
 -1       663 2.00304E+01 6.35298E-02 5.14906E-05-7.54398E-02 1.10162E-14-2.31520E-13
 -1       664 2.00734E+01 1.93612E-01 1.54055E-04-3.27866E-01 6.80021E-14-1.39372E-13
 -1       665 2.00999E+01 2.72408E-01 2.44335E-04-1.77187E-01 9.62508E-14-1.30491E-13
 -1       666 2.01043E+01 1.41261E-01 1.12533E-04-5.39017E-01-1.40397E-14-1.61717E-14
 -1       667 2.01551E+01 1.40960E-01 1.12249E-04-6.28329E-01 2.65683E-14-6.48674E-14
 -1       668 2.02280E+01 1.43118E-01 1.10567E-04-7.16573E-01 7.08482E-14-1.20207E-15
 -1       669 2.03244E+01 1.35868E-01 9.46483E-05-8.04307E-01 9.00263E-14 8.17681E-14
 -1       670 2.04493E+01 1.05218E-01 4.83106E-05-8.86170E-01 8.20352E-14 1.97200E-13
 -1       671 2.06111E+01 3.45833E-02-4.73157E-05-9.49859E-01-4.45553E-15 2.42543E-13
 -1       672 2.08221E+01-9.39467E-02-2.13332E-04-9.74762E-01-9.87022E-14 2.13218E-13
 -1       673 2.10982E+01-2.95129E-01-4.57657E-04-9.30797E-01-7.74297E-14 1.62757E-13
 -1       674 2.14540E+01-5.70415E-01-7.74418E-04-7.78599E-01-6.52555E-14 2.67949E-13
 -1       675 2.18921E+01-8.89457E-01-1.05101E-03-4.74139E-01-3.61165E-14 2.57255E-13
 -1       676 2.23829E+01-1.16446E+00-1.19311E-03 1.50468E-02-6.17807E-14 1.81272E-13
 -1       677 2.28418E+01-1.23500E+00-1.57993E-03 6.71508E-01-5.88681E-14 2.14895E-13
 -1       678 2.31318E+01-8.95280E-01 1.99761E-04 1.36700E+00 9.63574E-14 2.24169E-13
 -1       679 2.31038E+01-1.98036E-02-3.69175E-03 1.81475E+00 2.03917E-13 2.09845E-13
 -1       680 2.27843E+01 1.18930E+00-7.37756E-03 1.65191E+00 2.63105E-13 1.23136E-13
 -1       681 2.24363E+01 2.10882E+00-3.17830E-03 7.26805E-01 2.39619E-13 6.47924E-14
 -1       682 2.24016E+01 2.19870E+00-3.58544E-03-5.72133E-01 1.76910E-13 1.30466E-13
 -1       683 2.27343E+01 1.35758E+00-4.94106E-03-1.57691E+00-1.45129E-13 9.77662E-14
 -1       684 2.30793E+01 1.40193E-01-3.13691E-03-1.84731E+00-1.85740E-13 2.07424E-13
 -1       685 2.31513E+01-7.94229E-01-3.06242E-03-1.46934E+00-1.29553E-13 4.59013E-13
 -1       686 2.29074E+01-1.20303E+00-1.03474E-03-7.91462E-01-1.79473E-13 4.41181E-13
 -1       687 2.24653E+01-1.17229E+00-6.98646E-04-1.27479E-01-8.33715E-14 4.11391E-13
 -1       688 2.19771E+01-9.09881E-01-7.61668E-04 3.76119E-01 4.59729E-14 4.07771E-13
 -1       689 2.15346E+01-5.84633E-01-6.69404E-04 6.91067E-01 2.82437E-15 1.53439E-13
 -1       690 2.11745E+01-2.95354E-01-4.68056E-04 8.45399E-01-1.71699E-13-4.25109E-13
 -1       691 2.08965E+01-7.84950E-02-2.15798E-04 8.83372E-01 1.71003E-13-2.05558E-13
 -1       692 2.06864E+01 6.40744E-02-3.68032E-05 8.45584E-01 1.86991E-13 8.25811E-14
 -1       693 2.05279E+01 1.45315E-01 7.49153E-05 7.64021E-01 1.73550E-13 4.88944E-14
 -1       694 2.04072E+01 1.81875E-01 1.37220E-04 6.61779E-01 1.60399E-13 1.81935E-13
 -1       695 2.03141E+01 1.88878E-01 1.60579E-04 5.54384E-01-4.33570E-14 1.46841E-13
 -1       696 2.02414E+01 1.78168E-01 1.60113E-04 4.51518E-01-1.90698E-13 1.73795E-13
 -1       697 2.01842E+01 1.58212E-01 1.46649E-04 3.58606E-01-1.11871E-13 4.77489E-14
 -1       698 2.01392E+01 1.34667E-01 1.27446E-04 2.78127E-01 7.70991E-14 7.97818E-15
 -1       699 2.01038E+01 1.11058E-01 1.05953E-04 2.10618E-01 2.44745E-13 1.06291E-13
 -1       700 2.00760E+01 8.94080E-02 8.26684E-05 1.55467E-01-1.09376E-13 1.75374E-13
 -1       701 2.00542E+01 7.08314E-02 6.98675E-05 1.11352E-01-2.80205E-13 1.21294E-13
 -1       702 2.00373E+01 5.55287E-02 9.52565E-05 7.67463E-02-3.56965E-13 4.99853E-14
 -1       703 2.00242E+01 5.00224E-02 6.16313E-05 5.75132E-02-2.42230E-13-7.00550E-14
 -1       704 1.99549E+01 1.43293E-01-1.81404E-05 1.33820E-02 5.62552E-14-7.00911E-14
 -1       705 2.00220E+01 5.38055E-02 1.67353E-05-5.67861E-02-1.26527E-13-2.59054E-13
 -1       706 1.99768E+01 1.16902E-01-6.28180E-06 5.55217E-02 2.69142E-13-6.22722E-13
 -1       707 1.99547E+01 1.44037E-01-1.66716E-05-1.27791E-02-1.83808E-13-3.31150E-13
 -1       708 1.99627E+01 1.33856E-01-1.20199E-05 3.73467E-02 1.97600E-13-3.07854E-13
 -1       709 2.01573E+01 4.16039E-01 6.81220E-04 3.37355E-02 1.17746E-13-1.05984E-13
 -1       710 1.99622E+01 1.36108E-01-1.28194E-05-3.67690E-02-2.39320E-14-1.96929E-13
 -1       711 1.99765E+01 1.19946E-01-1.21234E-05-5.56989E-02 2.19321E-13-6.47744E-13
 -1       712 1.99950E+01 9.75798E-02 2.35384E-05-6.57427E-02 2.35060E-13-1.15018E-13
 -1       713 2.00102E+01 7.52832E-02 2.44197E-05-6.44442E-02 7.46126E-14-3.74090E-13
 -1       714 1.50845E+01-2.83065E+00 1.14184E-01-5.53100E+00 2.22308E-13 7.65533E-14
 -1       715 9.50669E+00-1.01791E+00 1.50500E-01-3.84003E+00 5.63230E-14 9.29465E-14
 -1       716 2.61140E+01-4.95163E+00 3.51955E-03-2.09844E+00 1.71259E-13-2.99691E-13
 -1       717 2.00761E+01 1.54917E-01 1.21437E-04-4.42662E-01 2.09336E-14-1.10204E-13
 -1       718 2.67731E+01 4.99367E+00-1.31711E-01 1.56972E+00 2.01859E-13 2.96190E-13
 -1       719 2.03028E+01 1.03831E+00 5.23736E-04-5.83577E-01-1.07164E-13-1.39685E-13
 -1       720 2.77921E+01 2.29577E+00-1.19571E-01 2.17956E+00 1.50345E-13 1.38785E-13
 -1       721 2.86982E+01-2.11723E+00-5.87930E-02 1.49934E+00-4.20601E-14-6.49883E-13
 -1       722 9.99994E+00-1.12205E+00 1.37420E-01 4.10308E+00 1.92544E-13-3.11327E-13
 -1       723 2.62595E+01 5.42146E+00-1.37685E-01-1.00998E+00 1.09281E-13 2.41019E-13
 -1       724 2.02418E+01 6.59403E-01 1.03337E-03 3.36053E-01 1.40604E-13-9.21323E-14
 -1       725 2.00176E+01 2.37041E+00-1.65164E-03 5.90877E-01 1.18293E-13-1.70574E-13
 -1       726 2.78500E+01-3.33133E-01-7.81664E-02-1.54385E+00-1.15866E-13-2.38309E-13
 -1       727 2.00133E+01 2.38234E+00-1.60631E-03-5.82237E-01-6.42551E-14-2.41574E-13
 -1       728 9.17832E+00-1.05661E+00 1.52255E-01-4.10860E+00-3.38975E-13-3.44676E-13
 -1       729 2.55816E+01-4.41139E+00-1.47314E-02-2.03447E+00-6.90437E-14-3.07393E-14
 -1       730 1.56909E+01-2.68176E+00 9.09835E-02 5.61104E+00-3.53552E-13-1.69649E-13
 -1       731 2.15908E+01-4.95838E+00 3.15878E-02 4.66015E+00 2.49675E-13-2.18914E-13
 -1       732 7.26585E+00-1.13721E-01 1.49612E-01 3.42230E-01-1.00879E-13-6.46483E-13
 -1       733 1.53885E+01-3.36491E+00 1.04063E-01 5.84487E+00 2.49339E-13-2.28730E-13
 -1       734 2.74573E+01 3.02514E+00-1.22243E-01-2.20869E+00-6.16174E-15-1.55848E-14
 -1       735 2.75871E+01-1.66944E+00-6.71263E-02 9.51080E-01 1.72310E-13 1.67012E-13
 -1       736 2.09164E+01-4.91061E+00 5.04433E-02-4.98769E+00 4.53363E-13 2.34199E-13
 -1       737 1.99049E+01 2.62208E+00-1.48224E-03-1.16252E-01-2.73018E-15-2.43093E-13
 -1       738 9.63076E+00 3.18739E-01 1.08810E-01 1.80389E+00-3.27287E-13-5.29896E-13
 -1       739 2.01224E+01 2.12119E+00-1.09752E-03-7.87123E-01-9.90367E-14-2.11496E-13
 -1       740 1.99949E+01 9.44219E-02-3.28142E-05 6.52093E-02 1.51524E-13 5.69327E-14
 -1       741 2.49697E+01 4.90461E+00-8.50444E-02 3.08959E-01 2.03854E-13 3.44393E-13
 -1       742 2.00108E+01 7.22284E-02-4.33112E-06 6.47471E-02-1.14526E-13-3.50393E-13
 -1       743 2.05419E+01-3.93539E+00 3.54688E-02 4.53916E+00-2.40283E-13-2.71834E-13
 -1       744 2.41084E+01-4.50101E+00 4.95504E-03 2.84930E+00-3.82402E-13-2.46499E-13
 -1       745 1.88147E+01-4.36126E+00 6.69203E-02-5.81815E+00-2.06803E-13-4.54515E-14
 -1       746 1.24749E+01-1.86498E+00 1.11478E-01-5.27028E+00-3.46077E-13-1.47979E-13
 -1       747 2.67036E+01-3.41953E+00-5.02750E-02 5.54736E-01-2.46007E-13-3.45318E-13
 -1       748 1.99408E+01 2.54475E+00-1.54014E-03-3.53858E-01-4.93918E-14-2.62035E-13
 -1       749 9.60747E+00 2.36650E-01 1.17023E-01-1.81361E+00-3.22679E-13-3.97293E-13
 -1       750 2.78070E+01 5.29891E+00-1.86745E-01-9.26356E-01-4.29518E-13-2.84558E-13
 -1       751 2.02805E+01 1.37109E+00 8.64500E-04 5.53348E-01 1.60272E-13-8.28876E-14
 -1       752 2.54317E+01 2.57878E+00-8.31352E-02 2.15783E+00 2.14337E-13 2.12474E-13
 -1       753 2.02642E+01 5.79138E-01 5.92432E-05 6.51230E-02-8.03339E-14-1.79535E-13
 -1       754 2.02142E+01 4.27590E-01 6.31757E-06 2.48876E-01-1.06591E-13-1.42231E-13
 -1       755 2.01571E+01 3.54202E-01 1.08461E-05 3.95744E-01-5.98731E-14-8.34596E-14
 -1       756 2.00950E+01 3.39078E-01 1.51731E-05 5.22562E-01 2.69385E-15-1.16621E-13
 -1       757 2.00261E+01 3.67754E-01 2.23170E-05 6.43882E-01-7.92076E-15-1.28761E-13
 -1       758 1.99462E+01 4.28741E-01 3.33803E-05 7.71278E-01 3.44174E-15-5.78007E-14
 -1       759 1.98493E+01 5.10871E-01 4.99106E-05 9.13720E-01-3.63613E-14-4.66202E-15
 -1       760 1.97296E+01 6.00530E-01 7.19605E-05 1.07823E+00-4.98784E-14-3.40328E-14
 -1       761 1.95830E+01 6.78054E-01 9.96756E-05 1.27098E+00-1.19836E-14-1.09904E-13
 -1       762 1.94106E+01 7.12878E-01 1.29155E-04 1.49923E+00-5.71399E-14-2.15069E-13
 -1       763 1.92269E+01 6.56908E-01 1.58619E-04 1.77419E+00-2.95659E-14-2.68721E-13
 -1       764 1.90721E+01 4.36167E-01 1.72407E-04 2.11406E+00-7.35737E-14-2.45239E-13
 -1       765 1.90357E+01-5.73140E-02 1.54468E-04 2.54210E+00-5.67124E-14-7.15376E-14
 -1       766 1.93019E+01-9.72371E-01 3.16524E-03 3.07433E+00 4.98398E-14-4.56716E-14
 -1       767 2.02083E+01-2.38361E+00 3.70731E-02 3.62082E+00 2.92356E-13-3.10012E-14
 -1       768 1.90266E+01-3.13818E+00 6.79381E-02 4.56041E+00 2.47331E-13-1.91154E-13
 -1       769 2.61068E+01-1.83406E-01-4.49715E-02 1.96309E+00 8.56216E-14 1.53454E-13
 -1       770 2.20741E+01-3.75526E+00 3.55504E-02-3.43630E+00 2.65345E-13-5.98688E-14
 -1       771 2.03122E+01-1.99494E+00 1.49411E-02-3.27476E+00 1.95948E-13-1.63378E-13
 -1       772 1.95219E+01-6.97090E-01 3.46925E-03-2.81496E+00 5.12458E-14 1.15998E-14
 -1       773 1.92807E+01 9.39142E-02 8.82221E-04-2.35291E+00-1.69116E-13 9.57572E-14
 -1       774 1.92941E+01 5.19138E-01 1.09701E-04-1.95909E+00-2.63488E-13-4.16272E-13
 -1       775 1.94115E+01 7.02235E-01 1.13199E-04-1.62940E+00-1.96288E-13-4.60997E-13
 -1       776 1.95524E+01 7.40938E-01 1.25890E-04-1.34992E+00-2.55898E-15-5.21471E-13
 -1       777 1.96813E+01 7.00934E-01 1.16545E-04-1.10956E+00-1.31916E-13-6.50129E-13
 -1       778 1.97857E+01 6.23399E-01 9.56407E-05-9.02075E-01-6.69273E-14-4.29925E-13
 -1       779 1.98643E+01 5.32741E-01 7.24761E-05-7.24010E-01-4.51656E-14-1.38962E-13
 -1       780 1.99203E+01 4.42553E-01 5.35154E-05-5.72985E-01 1.10722E-14-2.76961E-13
 -1       781 1.99584E+01 3.59767E-01 3.98084E-05-4.46752E-01 2.21075E-13-4.16859E-13
 -1       782 1.99831E+01 2.87398E-01 3.12683E-05-3.42881E-01 4.63832E-13-5.17641E-13
 -1       783 1.99982E+01 2.26254E-01 2.84145E-05-2.58726E-01 3.55630E-13-3.38658E-13
 -1       784 2.00066E+01 1.75899E-01 5.21459E-05-1.91644E-01 2.70424E-13-2.07486E-13
 -1       785 2.00097E+01 1.35445E-01-5.71895E-05-1.38715E-01-1.22571E-14-4.27867E-13
 -1       786 2.00109E+01 1.03714E-01 1.33566E-04-9.77301E-02 1.70100E-13-5.27503E-13
 -1       787 1.99323E+01 1.78311E-01-1.96821E-06-3.31012E-02-2.98010E-13 2.31705E-14
 -1       788 2.01062E+01 2.26409E-01 3.11836E-05-7.04198E-01-1.61510E-14-3.47327E-15
 -1       789 2.01117E+01 2.24328E-01 2.85529E-05-6.00193E-01 2.17596E-14-3.60195E-14
 -1       790 2.01490E+01 2.08074E-01 4.08180E-05-9.21024E-01 1.33515E-14 5.04485E-14
 -1       791 2.02152E+01 1.49290E-01 3.24717E-05-1.03040E+00 1.78716E-14 1.08786E-13
 -1       792 2.03340E+01 2.59121E-02 3.56572E-06-1.12810E+00-3.25457E-14 1.52015E-13
 -1       793 2.05332E+01-1.87994E-01-6.69921E-05-1.19435E+00-8.55592E-14 7.09000E-14
 -1       794 2.08494E+01-5.12939E-01-1.57954E-04-1.19681E+00-1.31213E-13 7.03241E-14
 -1       795 2.13226E+01-9.48085E-01-3.01185E-04-1.08553E+00-6.81712E-14 1.02676E-13
 -1       796 2.19776E+01-1.44002E+00-3.25334E-04-7.90750E-01-8.81388E-14 1.85397E-13
 -1       797 2.27900E+01-1.83570E+00 9.26649E-05-2.33880E-01-8.82156E-14 1.76591E-13
 -1       798 2.36268E+01-1.81847E+00-1.07263E-03 6.30015E-01-5.06973E-15 1.22611E-13
 -1       799 2.42018E+01-1.06599E+00-7.30262E-03 1.58310E+00 6.78434E-14 1.18993E-13
 -1       800 2.38364E+01 2.61159E+00-2.99190E-02 1.61978E+00 2.76817E-13 2.17407E-13
 -1       801 2.41884E+01 9.09964E-01-3.54634E-02-2.12933E+00-1.92376E-13 2.93079E-13
 -1       802 2.42353E+01-8.75010E-01-7.96944E-03-1.67735E+00-2.15414E-13 2.60798E-13
 -1       803 2.37088E+01-1.77485E+00-3.87244E-03-7.41785E-01-1.85880E-13 3.65047E-13
 -1       804 2.29033E+01-1.84084E+00 1.12318E-03 1.12783E-01-1.30749E-13 4.44173E-13
 -1       805 2.20819E+01-1.47355E+00 7.24542E-04 6.91887E-01-5.93088E-15 4.19832E-13
 -1       806 2.14028E+01-9.76690E-01 1.59827E-04 1.00717E+00 1.77600E-13 1.85148E-13
 -1       807 2.09053E+01-5.21578E-01-1.39762E-04 1.12293E+00 2.30329E-13 3.61119E-14
 -1       808 2.05693E+01-1.73905E-01-2.36995E-05 1.11563E+00-1.97206E-14-1.76289E-13
 -1       809 2.03541E+01 6.09738E-02 1.45785E-05 1.03708E+00-4.80082E-15-1.48178E-13
 -1       810 2.02219E+01 2.00676E-01 2.69645E-05 9.22006E-01 2.59783E-14 2.06428E-15
 -1       811 2.01430E+01 2.69437E-01 4.67018E-05 7.92860E-01 3.49825E-15 4.43595E-13
 -1       812 2.00968E+01 2.89874E-01 5.13352E-05 6.63562E-01 8.89037E-14 5.31732E-13
 -1       813 2.00697E+01 2.80142E-01 4.92463E-05 5.42398E-01-5.69090E-14 3.51209E-13
 -1       814 2.00533E+01 2.53575E-01 4.39044E-05 4.33879E-01-3.73448E-14 4.47589E-14
 -1       815 2.00428E+01 2.19356E-01 3.85449E-05 3.39971E-01-2.68399E-14-1.03638E-13
 -1       816 2.00353E+01 1.83451E-01 3.49506E-05 2.60930E-01-1.67836E-13 9.04602E-14
 -1       817 2.00294E+01 1.49405E-01 2.90597E-05 1.95921E-01-1.18374E-13 4.19570E-13
 -1       818 2.00242E+01 1.19270E-01 2.48258E-05 1.43824E-01-1.59717E-13 2.03290E-13
 -1       819 2.00194E+01 9.37343E-02 1.76748E-05 1.02627E-01-1.57005E-14-9.97549E-14
 -1       820 2.00145E+01 8.24630E-02-5.47528E-05 8.20652E-02-1.47041E-13-3.14009E-13
 -1       821 2.00982E+01 2.01468E+00-3.13108E-04 1.70162E-01 4.01563E-14-2.27430E-13
 -1       822 1.99488E+01 1.63158E-01-3.03196E-05-6.32617E-02 4.98260E-14-6.07582E-14
 -1       823 1.99269E+01 1.82511E-01-1.39231E-05 1.55542E-03-2.45056E-13-4.22206E-13
 -1       824 1.99736E+01 1.38831E-01-2.77431E-05-8.39950E-02 2.64485E-13-5.22441E-13
 -1       825 1.06436E+01 3.52528E-01 1.00549E-01 1.94060E+00 4.51444E-14-2.71037E-13
 -1       826 2.01165E+01 2.26828E-01 3.70074E-05-8.10867E-01 3.03722E-15 4.56147E-14
 -1       827 1.80386E+01-2.11523E+00 2.73750E-02 4.21071E+00-1.93678E-13-2.29781E-13
 -1       828 2.02192E+01 1.82773E+00-9.04961E-07-8.92482E-01-1.42369E-13-1.93659E-13
 -1       829 2.01987E+01 3.65049E-01 2.69243E-05-2.26861E-01 5.86841E-14-7.67799E-14
 -1       830 1.02791E+01 3.94093E-01 1.01204E-01-1.68465E+00-2.22912E-14 1.58873E-13
 -1       831 2.02979E+01 8.34351E-01 1.80859E-04-1.73308E-01-1.00265E-13-1.63597E-13
 -1       832 2.50885E+01 3.18789E+00-6.67644E-02-1.91277E+00-1.62648E-14 2.84783E-13
 -1       833 1.36803E+01-7.10303E-01 6.63430E-02-3.89262E+00 9.14217E-14 7.85830E-14
 -1       834 2.55927E+01-2.78666E+00-1.84920E-02 2.59721E-01 7.63322E-14 1.99981E-13
 -1       835 1.38836E+01-5.78516E-01 6.79239E-02 3.93942E+00 5.46785E-15-2.84616E-13
 -1       836 1.44583E+01-1.50471E+00 8.11555E-02 4.58371E+00 2.25292E-13-2.81442E-13
 -1       837 1.80994E+01-2.30474E+00 5.77819E-02-4.40239E+00 5.58407E-14 7.91433E-14
 -1       838 2.59640E+01 1.24007E+00-4.86994E-02-2.25077E+00-9.08388E-14 2.11027E-13
 -1       839 2.02981E+01 1.00237E+00 1.36961E-04 4.69300E-01 1.53076E-13-8.18949E-14
 -1       840 2.34949E+01-4.52578E+00 1.82140E-02-3.29875E+00-1.28886E-13-8.53701E-14
 -1       841 2.02442E+01 5.22968E-01-1.42722E-04-3.41562E-02 1.26225E-13-7.75537E-14
 -1       842 2.00819E+01 2.05820E+00-3.10660E-04 2.18793E-03-6.45032E-15-2.23448E-13
 -1       843 2.01405E+01 1.89781E+00-2.48787E-04-3.23953E-01-5.59879E-14-2.48591E-13
 -1       844 2.02087E+01 1.67629E+00-2.06505E-04 4.64415E-01 1.29389E-13-1.05582E-13
 -1       845 2.02025E+01 1.69321E+00-6.29156E-04-4.59128E-01-8.53772E-14-2.13854E-13
 -1       846 2.01593E+01 2.77213E-01 2.30825E-05-3.73655E-01 3.17119E-14-7.39524E-14
 -1       847 1.99750E+01 1.33069E-01 1.34322E-05 8.37633E-02-2.04204E-13-3.46400E-13
 -1       848 1.99333E+01 1.75463E-01-1.71420E-05 3.57115E-02 1.05557E-13-2.54284E-13
 -1       849 2.47397E+01-3.45537E+00-4.90616E-03-8.55068E-01-1.84904E-14 1.44103E-13
 -1       850 2.01298E+01 2.36160E-01 2.57280E-05-4.93327E-01-6.46832E-14-3.97991E-14
 -1       851 2.41905E+01 5.99817E-01-2.37296E-02 2.07732E+00 2.05036E-13 1.66476E-13
 -1       852 2.37004E+01 2.83593E+00-6.11635E-02-1.51003E+00-1.05645E-15 3.37426E-13
 -1       853 1.99502E+01 1.58373E-01-4.20731E-06 6.43548E-02 2.05980E-13-2.71922E-13
 -1       854 2.01417E+01 1.88913E+00-5.48763E-04 3.27365E-01 9.42782E-14-1.96686E-13
 -1       855 2.26302E+01-3.61463E+00 7.88034E-03 2.63944E+00-8.92483E-14-1.23759E-13
 -1       856 2.02777E+01 7.12299E-01-4.04651E-04 1.86587E-01 1.27816E-13-8.75462E-14
 -1       857 2.02869E+01 1.34498E+00-1.32846E-04-5.91242E-01-1.02405E-13-1.60822E-13
 -1       858 1.68065E+01-2.85150E+00 5.68781E-02-5.30747E+00-3.10861E-13-8.71976E-14
 -1       859 1.14403E+01-3.28671E-01 9.23793E-02-3.43529E+00-3.85734E-13-3.13367E-13
 -1       860 2.61295E+01-1.69850E+00-3.19192E-02-1.21499E+00-2.53393E-13 5.25335E-14
 -1       861 2.03806E+01-2.47469E+00 6.22731E-03 3.16131E+00 1.33860E-13-1.30220E-13
 -1       862 2.00966E+01 2.01953E+00-3.10800E-04-1.65595E-01-1.50894E-14-2.08704E-13
 -1       863 2.02072E+01 5.04408E-01-2.74963E-05 2.67428E-01-1.77412E-14-7.51893E-14
 -1       864 2.01189E+01 4.45456E-01 6.04427E-06 3.89753E-01-3.02260E-14-5.69577E-14
 -1       865 2.00079E+01 4.48026E-01-1.91487E-06 4.99101E-01-3.82734E-14-8.80727E-14
 -1       866 1.98721E+01 4.97552E-01-2.52596E-06 6.05424E-01 1.77222E-14-1.12446E-13
 -1       867 1.97059E+01 5.81112E-01 7.86304E-07 7.17064E-01-1.27336E-14-1.76704E-13
 -1       868 1.95011E+01 6.85466E-01 6.14964E-06 8.40813E-01-7.25573E-14-2.09315E-13
 -1       869 1.92478E+01 7.94573E-01 1.54615E-05 9.83342E-01-3.91390E-14-1.54541E-13
 -1       870 1.89352E+01 8.86412E-01 2.59603E-05 1.15356E+00-9.03761E-14-1.65329E-13
 -1       871 1.85536E+01 9.29079E-01 4.52721E-05 1.36730E+00-5.86750E-14-1.48932E-13
 -1       872 1.80986E+01 8.74465E-01 1.76980E-04 1.65457E+00-4.49946E-14-1.17649E-13
 -1       873 1.75778E+01 6.49188E-01 4.66474E-04 2.07270E+00 5.24953E-14-1.32070E-13
 -1       874 1.70590E+01 1.36450E-01 4.32956E-03 2.69454E+00-9.64777E-15-3.18076E-14
 -1       875 1.16998E+01 8.34671E-01 4.86946E-02-2.71558E-01-8.30967E-14-2.82309E-13
 -1       876 1.99962E+01 1.07563E-01 2.20103E-05 8.62322E-02 2.43746E-14 4.53868E-14
 -1       877 1.99387E+01 1.91411E-01 1.15991E-04-9.90258E-02 5.63152E-14-4.22750E-13
 -1       878 1.72098E+01-6.23408E-01 1.99453E-02-3.40515E+00 6.27992E-15-2.55750E-14
 -1       879 1.74877E+01 2.49073E-01 8.94714E-05-2.53742E+00 2.94686E-14-2.83073E-13
 -1       880 1.79253E+01 7.21210E-01 8.26185E-05-1.95761E+00-2.61969E-13-1.53463E-13
 -1       881 1.83537E+01 9.21169E-01-6.94290E-05-1.56408E+00-3.17407E-13 1.55413E-13
 -1       882 1.87312E+01 9.64733E-01-9.35653E-06-1.27569E+00-3.10504E-13 2.74892E-14
 -1       883 1.90448E+01 9.19349E-01 3.69922E-05-1.04931E+00-2.21769E-13-1.59897E-13
 -1       884 1.92953E+01 8.28282E-01 4.17420E-05-8.62022E-01 1.02615E-14-3.04378E-13
 -1       885 1.94900E+01 7.18439E-01 2.54910E-05-7.02692E-01 3.89744E-14-3.49960E-13
 -1       886 1.96380E+01 6.05957E-01 9.95470E-06-5.66188E-01 3.27007E-14-2.75506E-13
 -1       887 1.97484E+01 4.99935E-01 8.75475E-07-4.49882E-01 2.61612E-13-7.66386E-14
 -1       888 1.98293E+01 4.04968E-01 2.79840E-07-3.52024E-01 1.15938E-13-6.41781E-15
 -1       889 1.98877E+01 3.22898E-01 5.13237E-06-2.70957E-01 4.02934E-13-5.25518E-13
 -1       890 1.99289E+01 2.54023E-01 2.27758E-05-2.04848E-01 2.78144E-13-7.60986E-13
 -1       891 1.99571E+01 1.97091E-01-2.90362E-05-1.51377E-01 2.18063E-13-4.73509E-13
 -1       892 1.98849E+01 2.07485E-01 4.23520E-05-1.14779E+00-3.28001E-14 9.15740E-14
 -1       893 1.98817E+01 2.95619E-01 3.67788E-05-9.97041E-01-3.66675E-14 1.10459E-13
 -1       894 2.01348E+01-2.75023E-01-6.68901E-06-1.45839E+00-1.34902E-13-1.12208E-14
 -1       895 2.04883E+01-7.35764E-01 1.84354E-04-1.57332E+00-1.48517E-13 1.06245E-14
 -1       896 2.10916E+01-1.35713E+00 5.95778E-04-1.58704E+00-1.62065E-13 4.67516E-14
 -1       897 2.20202E+01-2.07007E+00 2.72064E-03-1.38445E+00-9.47633E-14 6.16414E-14
 -1       898 2.32709E+01-2.63123E+00 6.86389E-04-8.09975E-01-1.15470E-14 1.11216E-13
 -1       899 2.51355E+01-3.40058E+00-3.73738E-03 6.44855E-01-2.82942E-13-2.18688E-13
 -1       900 2.22030E+01-2.14628E+00 2.11905E-03 1.28764E+00 4.02482E-14 1.29230E-13
 -1       901 2.11788E+01-1.40624E+00 5.96811E-04 1.53540E+00 2.09332E-13-5.28624E-15
 -1       902 2.05328E+01-7.55111E-01 5.90590E-04 1.52502E+00 3.27445E-13-2.33008E-14
 -1       903 2.01434E+01-2.65707E-01 3.27359E-04 1.40679E+00 1.67468E-13 3.34518E-14
 -1       904 1.99330E+01 6.63293E-02 1.19707E-04 1.24167E+00-6.27090E-14 4.42479E-14
 -1       905 1.98372E+01 2.67173E-01-5.11839E-06 1.06538E+00-6.65634E-14 7.40001E-14
 -1       906 1.98096E+01 3.69901E-01 1.26942E-05 8.95349E-01-2.30214E-13 1.31270E-13
 -1       907 1.98187E+01 4.05117E-01 8.86454E-06 7.39171E-01-8.31650E-14 1.95490E-13
 -1       908 1.98449E+01 3.97173E-01 7.12092E-06 6.00181E-01 2.56491E-14 2.51404E-13
 -1       909 1.98768E+01 3.64189E-01 5.98095E-06 4.79457E-01 8.29777E-14-4.26403E-14
 -1       910 1.99078E+01 3.18835E-01 6.25143E-06 3.76761E-01 5.99851E-14 1.72658E-13
 -1       911 1.99348E+01 2.69623E-01 8.66580E-06 2.91113E-01-2.10017E-13 1.25807E-13
 -1       912 1.99568E+01 2.21763E-01 1.74361E-05 2.20956E-01-2.65049E-13-6.98551E-14
 -1       913 1.99732E+01 1.78238E-01-8.57875E-05 1.64178E-01-1.37338E-14-2.50372E-13
 -1       914 2.34126E+01-2.65866E+00-4.25991E-03 6.51975E-01-3.48152E-14 3.79974E-13
 -1       915 1.98925E+01 2.27902E-01-2.94753E-05-2.00394E-02-1.67440E-13-2.07512E-15
 -1       916 1.99546E+01 2.90580E-02 3.87207E-05-1.30626E+00-2.83031E-14 2.17581E-14
 -1       917 1.63576E+01-4.60463E-01 1.81341E-02 3.20609E+00 1.04333E-13-2.60104E-13
 -1       918 2.00344E+01 3.18259E-01 1.97999E-06-6.20639E-01-1.55079E-14-1.77339E-14
 -1       919 2.02700E+01 1.35229E+00-3.39756E-04-3.61218E-01-8.59162E-14-1.80083E-13
 -1       920 1.30988E+01 5.10655E-01 3.79449E-02-2.22573E+00-1.70879E-14-6.12045E-14
 -1       921 2.02699E+01 6.43909E-01-5.21725E-05 1.19684E-01-4.90785E-14-1.42485E-13
 -1       922 2.03004E+01 8.85974E-01-1.01494E-05-6.44299E-02-1.05759E-13-1.50814E-13
 -1       923 1.42767E+01 1.34523E-01 3.28129E-02 2.84309E+00 4.57921E-14-1.49108E-13
 -1       924 1.99076E+01 2.16414E-01-7.07292E-06-6.34216E-02 1.42427E-13 1.99268E-13
 -1       925 1.17603E+01 9.45847E-01 4.59808E-02 2.84770E-01-2.93068E-13-2.94376E-13
 -1       926 2.02753E+01 5.96777E-01-4.11114E-05-9.99376E-02 1.10570E-13-7.59522E-14
 -1       927 2.11727E+01-3.81369E+00 3.02402E-02-4.00994E+00-2.44859E-13-9.63537E-14
 -1       928 1.36541E+01 4.22112E-01 2.73223E-02 2.45489E+00-1.34178E-15-1.69674E-13
 -1       929 2.02937E+01 1.11346E+00-4.45478E-04 2.68937E-01 1.34034E-13-1.02984E-13
 -1       930 1.46857E+01-1.29036E+00 5.36364E-02-4.44594E+00-3.27879E-13-1.57801E-13
 -1       931 1.98939E+01 2.25332E-01-4.12599E-05 2.59510E-02-2.17353E-13-7.13380E-13
 -1       932 1.39021E+01 9.26215E-01 2.29089E-02 1.30451E+00 6.19621E-14-1.48617E-13
 -1       933 1.66814E+01-8.65107E-01 3.12780E-02 3.66826E+00 1.66157E-13-6.11325E-14
 -1       934 2.01009E+01 3.22581E-01 3.46616E-06-5.10298E-01-5.06059E-14-7.12596E-14
 -1       935 2.02254E+01 1.49587E+00 2.75566E-05 1.40928E-01 6.12686E-14-1.63149E-13
 -1       936 2.02031E+01 1.57643E+00 2.38684E-05 4.86567E-02 3.11141E-15-1.83581E-13
 -1       937 2.03013E+01 8.55979E-01 3.83904E-04 1.09053E-01 1.26928E-13-1.15054E-13
 -1       938 1.99164E+01 3.25832E-01 8.94233E-06-8.59431E-01-4.33280E-15-2.74954E-14
 -1       939 1.99856E+01 1.41127E-01 6.73014E-05 1.19548E-01-1.88452E-13-1.38418E-13
 -1       940 2.47310E+01-2.38146E+00-7.79694E-03-4.60225E-01-1.66533E-13 4.50158E-13
 -1       941 1.99707E+01 3.26011E-01 5.04129E-07-7.35008E-01 2.53973E-14-1.39716E-14
 -1       942 2.02266E+01 4.41182E-01-1.38911E-05-2.62771E-01 2.74212E-14-8.64365E-14
 -1       943 1.84255E+01-1.11028E+00 4.63179E-03 3.04620E+00 1.46509E-13 7.86247E-14
 -1       944 1.24371E+01 6.45437E-01 4.97147E-02-1.65331E+00-1.31396E-13-1.51924E-13
 -1       945 2.02236E+01 1.50381E+00 2.23471E-05-1.41607E-01-2.41211E-14-1.83615E-13
 -1       946 1.99417E+01 1.81933E-01-4.72439E-05 1.00554E-01 8.39146E-14-6.76819E-14
 -1       947 2.02862E+01 8.93985E-01-2.01879E-05 1.09881E-02-4.60662E-14-1.12425E-13
 -1       948 2.01663E+01 3.57223E-01-2.25681E-06-3.94877E-01-2.75399E-14-4.89849E-14
 -1       949 2.02613E+01 1.35176E+00 8.21118E-04-2.18709E-01-7.19786E-14-1.92567E-13
 -1       950 2.00317E+01 5.23961E-01 3.55575E-05 3.34622E-01-5.24220E-14-6.91473E-14
 -1       951 1.98706E+01 5.47691E-01-1.36520E-05 4.14103E-01-1.36164E-15-7.61781E-14
 -1       952 1.96700E+01 6.17830E-01-2.04545E-05 4.90250E-01 7.20179E-15-1.07180E-13
 -1       953 1.94225E+01 7.20158E-01-4.52510E-05 5.67465E-01-5.07218E-14-5.61026E-14
 -1       954 1.91163E+01 8.40669E-01-5.97702E-05 6.49573E-01-5.18795E-14-7.50808E-14
 -1       955 1.87352E+01 9.62554E-01-7.36910E-05 7.41361E-01-7.92525E-14-6.17936E-14
 -1       956 1.82567E+01 1.06546E+00-6.81334E-05 8.51261E-01-7.05718E-14-3.47351E-14
 -1       957 1.76483E+01 1.12365E+00 5.92215E-05 9.98621E-01-7.75138E-14-1.61310E-13
 -1       958 1.68646E+01 1.09952E+00 7.05988E-04 1.21970E+00 3.52652E-14-1.09726E-13
 -1       959 1.58413E+01 9.52135E-01 2.22883E-03 1.57389E+00 2.35425E-14-1.95874E-13
 -1       960 2.02975E+01 8.76094E-01-1.91136E-04 1.27285E-02 9.54117E-14-6.50324E-14
 -1       961 1.38210E+01 1.11802E+00 1.68223E-02-7.16403E-01-1.87904E-13-3.20508E-13
 -1       962 1.62994E+01 9.92738E-01 2.30406E-03-1.58914E+00-2.18023E-13-2.90882E-13
 -1       963 1.71785E+01 1.14943E+00-3.11452E-04-1.22272E+00-1.23469E-13-2.72449E-13
 -1       964 1.78520E+01 1.17105E+00-2.14578E-04-9.86700E-01-2.18358E-13-1.12266E-13
 -1       965 1.83724E+01 1.11398E+00-5.82062E-05-8.19485E-01-3.34271E-13 5.84937E-15
 -1       966 1.87758E+01 1.01270E+00 4.67005E-06-6.87294E-01-2.05385E-13 2.18851E-14
 -1       967 1.90880E+01 8.90362E-01-1.03970E-05-5.74579E-01-1.56894E-14-1.90434E-13
 -1       968 1.93286E+01 7.62210E-01-2.17587E-05-4.75340E-01 1.79563E-13-1.45224E-13
 -1       969 1.95124E+01 6.38456E-01-3.04439E-05-3.87596E-01 1.36919E-13-7.14876E-14
 -1       970 1.96516E+01 5.24682E-01-2.80999E-05-3.10851E-01 1.72633E-13-4.56100E-14
 -1       971 1.97557E+01 4.24098E-01 6.06563E-07-2.44899E-01 3.35851E-14 1.43918E-13
 -1       972 1.98329E+01 3.37611E-01 1.89465E-05-1.89595E-01 1.77235E-13-7.59372E-14
 -1       973 1.98882E+01 2.65549E-01 1.00120E-05-1.43121E-01 3.56142E-13-2.19644E-13
 -1       974 1.95210E+01 4.08153E-01 1.65724E-05-1.02886E+00 3.71842E-15-1.18873E-13
 -1       975 2.25230E+01-3.57161E+00 9.58446E-03-2.67837E+00-1.05510E-13-3.52426E-14
 -1       976 1.98643E+01-8.93652E-01 1.81633E-04-2.08310E+00-1.76516E-13-1.33279E-13
 -1       977 1.95378E+01-3.01499E-01-1.41550E-04-1.77073E+00-1.47220E-13-7.48695E-14
 -1       978 2.17158E+01-2.72960E+00-2.65355E-03-2.36222E+00-1.50385E-13-2.56347E-14
 -1       979 1.98898E+01-9.35146E-01-2.03911E-03 2.08669E+00 2.11465E-13 5.08193E-14
 -1       980 1.93695E+01 1.14919E-01-1.03524E-04 1.45559E+00 2.44070E-15 4.81619E-13
 -1       981 1.93507E+01 3.65615E-01-1.89697E-04 1.18679E+00-2.93605E-14 6.79607E-13
 -1       982 1.94010E+01 4.92849E-01-7.32894E-05 9.61383E-01-8.75953E-14 3.50250E-13
 -1       983 1.94827E+01 5.37262E-01-6.66656E-05 7.72954E-01-1.33997E-13 4.81808E-14
 -1       984 1.95742E+01 5.27872E-01-5.28263E-05 6.16368E-01 5.64070E-15 1.05116E-13
 -1       985 1.96627E+01 4.86633E-01-3.57422E-05 4.86973E-01 1.03799E-13 7.12195E-14
 -1       986 1.97417E+01 4.29124E-01-1.32878E-05 3.80511E-01 1.72247E-13-1.59372E-14
 -1       987 1.98087E+01 3.65610E-01-1.03356E-05 2.93655E-01-9.89933E-14-1.23334E-13
 -1       988 1.98631E+01 3.03067E-01-1.47766E-05 2.23739E-01-2.56334E-13 4.07560E-14
 -1       989 1.99057E+01 2.45911E-01 7.32619E-05 1.67857E-01-1.42832E-13 9.76563E-14
 -1       990 2.02793E+01 1.08997E+00-3.76646E-04-5.53464E-02-4.70495E-14-1.49817E-13
 -1       991 2.02021E+01 1.57917E+00 3.85430E-06-4.88530E-02-2.36062E-14-2.33344E-13
 -1       992 1.99117E+01 2.09200E-01-1.65599E-06 6.81816E-02-4.99825E-14-4.17127E-13
 -1       993 2.02892E+01 1.11407E+00 6.48489E-04 1.29817E-01 1.07338E-13-1.10274E-13
 -1       994 1.54799E+01 7.46146E-01 9.11769E-03-2.01389E+00-1.32306E-13-3.13527E-15
 -1       995 2.02430E+01 6.77355E-01-1.41344E-04 1.40207E-01 7.19767E-15-7.02719E-14
 -1       996 1.95143E+01-3.02553E-01-9.85422E-04 1.76362E+00 1.31712E-13 2.77542E-13
 -1       997 2.02112E+01-1.48112E+00 9.34443E-04 2.36767E+00 1.10341E-13-1.03176E-13
 -1       998 2.05536E+01-1.72556E+00 2.85380E-03-2.33990E+00-2.01041E-13-2.09370E-13
 -1       999 1.87443E+01-2.42495E+00 3.11579E-02-4.13535E+00-2.86868E-13-1.66128E-13
 -1      1000 2.02389E+01 1.46363E+00-3.07539E-04 2.39682E-01 1.17773E-13-1.32971E-13
 -1      1001 2.01570E+01 5.59844E-01-1.04962E-04 2.45368E-01-6.39861E-15-7.03517E-14
 -1      1002 1.42466E+01 1.24405E-02 2.98135E-02-2.96038E+00-2.65373E-13-2.38679E-13
 -1      1003 1.98445E+01 2.83034E-01-2.53540E-06 6.48946E-03 1.88310E-14-4.34141E-13
 -1      1004 1.43499E+01 1.03818E+00 8.89439E-03 1.06352E+00-1.67288E-14-6.18455E-14
 -1      1005 2.02663E+01 1.18154E+00 3.47888E-04 2.87432E-02 2.10716E-14-1.02562E-13
 -1      1006 2.02675E+01 6.40274E-01-5.45602E-05-1.43347E-01 6.40779E-14-2.64423E-14
 -1      1007 1.96348E+01 4.43971E-01-5.62745E-06-8.58202E-01-8.06324E-14-2.57734E-14
 -1      1008 1.98513E+01 2.87530E-01-1.37298E-05 1.21294E-01-6.41241E-14-4.83286E-13
 -1      1009 1.94396E+01 2.99818E-01-3.46054E-05-1.23525E+00 7.36399E-15-2.47058E-14
 -1      1010 2.04006E+01-2.64234E+00 8.28777E-03-3.28789E+00-2.36555E-13-2.33960E-13
 -1      1011 1.98528E+01 2.79118E-01 4.87180E-05-5.34017E-02 1.90777E-13 2.93968E-13
 -1      1012 2.00066E+01 4.11580E-01 1.37671E-05-4.86947E-01-4.76938E-14-1.58964E-13
 -1      1013 1.39873E+01 1.06697E+00 1.97748E-02-5.26951E-01-4.69243E-15-1.27419E-13
 -1      1014 2.02632E+01 1.18872E+00 1.52570E-04-3.37996E-02-4.17408E-14-2.14726E-13
 -1      1015 1.98876E+01 4.21113E-01-2.63632E-05-5.95126E-01-1.52571E-14-1.49763E-13
 -1      1016 1.94265E+01 7.84788E-02-8.17465E-05-1.48300E+00-6.51214E-14-4.31320E-14
 -1      1017 1.72041E+01-2.49983E-03 8.15458E-05 2.40461E+00 1.37714E-13-1.96361E-13
 -1      1018 1.56861E+01 5.46079E-01 3.36471E-03 2.03030E+00 4.88601E-14-1.75379E-13
 -1      1019 2.02762E+01 1.16795E+00 2.71812E-04 7.36919E-02 5.46555E-14-1.36580E-13
 -1      1020 2.02022E+01 5.00708E-01-1.13022E-05-2.71051E-01 9.02058E-15-6.23528E-14
 -1      1021 2.01129E+01 4.31636E-01-2.22398E-06-3.82203E-01-1.60072E-14-1.38180E-13
 -1      1022 1.86544E+01-5.73075E-01-1.24042E-03 2.43264E+00 1.23253E-13-1.41894E-13
 -1      1023 1.97128E+01 6.26754E-01-2.36818E-05 2.64825E-01-4.06745E-14-7.59763E-14
 -1      1024 1.94576E+01 7.12395E-01-5.65508E-05 2.97263E-01-5.30847E-14-1.78535E-13
 -1      1025 1.91439E+01 8.24326E-01-1.42853E-04 3.21895E-01-1.47802E-14-1.64561E-13
 -1      1026 1.87558E+01 9.48825E-01-2.20289E-04 3.38797E-01-5.04124E-14-6.42041E-15
 -1      1027 1.82711E+01 1.06843E+00-2.18927E-04 3.46084E-01-1.24743E-13-1.03500E-13
 -1      1028 1.76563E+01 1.16541E+00 2.15854E-04 3.43191E-01-1.37533E-13-8.68870E-14
 -1      1029 1.68512E+01 1.22891E+00 1.69670E-03 3.41085E-01 3.19094E-14-4.48230E-14
 -1      1030 1.57647E+01 1.22648E+00-2.52251E-04 3.42990E-01 2.03674E-14-1.17694E-13
 -1      1031 1.60775E+01 1.29973E+00 3.96561E-03-4.93426E-01-4.61684E-14-6.97490E-14
 -1      1032 1.86903E+01 2.15035E-01-7.47563E-04-1.61866E+00-3.80369E-14-1.39162E-13
 -1      1033 1.86253E+01-2.05674E-01-1.39571E-03-2.08208E+00-1.03101E-13-2.18131E-13
 -1      1034 1.72023E+01-1.09673E+00 1.71557E-02-3.54316E+00-3.09083E-13-1.14361E-13
 -1      1035 1.70521E+01 1.29729E+00 1.07370E-05-4.34324E-01-4.91798E-14-9.76881E-14
 -1      1036 1.77656E+01 1.23851E+00-6.40072E-06-3.99023E-01-1.08552E-13-1.70686E-14
 -1      1037 1.83047E+01 1.13891E+00-4.52918E-05-3.68571E-01-2.58467E-13 2.48279E-13
 -1      1038 1.87166E+01 1.01880E+00-1.98924E-04-3.34133E-01-2.25300E-13 2.50345E-13
 -1      1039 1.90366E+01 8.87180E-01-1.58978E-04-2.95687E-01 1.83150E-14 2.26669E-13
 -1      1040 1.92843E+01 7.55393E-01-1.30070E-04-2.55206E-01 9.57397E-14-1.60736E-13
 -1      1041 1.94748E+01 6.31039E-01-1.04853E-04-2.14228E-01 3.30405E-13-1.45654E-13
 -1      1042 1.96210E+01 5.17433E-01 4.22736E-06-1.75873E-01 3.11849E-13-9.60186E-14
 -1      1043 1.97314E+01 4.17698E-01 1.35099E-05-1.40136E-01 5.94038E-14 1.93211E-13
 -1      1044 1.98137E+01 3.32011E-01-8.97461E-05-1.09451E-01 1.10834E-13 1.27280E-13
 -1      1045 1.87934E+01-1.52784E+00 5.01095E-03-3.23087E+00-2.55962E-13-3.15333E-13
 -1      1046 1.90925E+01 6.90218E-01-2.94978E-04 7.49471E-01 5.81990E-14 3.32469E-13
 -1      1047 1.97614E+01 4.39246E-01-3.59134E-05-7.16738E-01-5.14603E-14-6.29229E-14
 -1      1048 1.89099E+01 6.49643E-01-3.36124E-04 9.69593E-01 6.41502E-14 3.05743E-13
 -1      1049 1.50873E+01 1.25490E+00 9.92451E-03-5.78162E-01-1.53438E-13-1.59115E-13
 -1      1050 1.99188E+01 5.82337E-01-4.08108E-05 2.25261E-01-3.93359E-14-1.09798E-13
 -1      1051 1.87359E+01 5.22023E-01-5.16910E-05 1.25583E+00-1.83556E-13 1.93261E-13
 -1      1052 1.92662E+01 6.71649E-01-2.22205E-04 5.79413E-01-2.98643E-14 1.26833E-13
 -1      1053 1.94220E+01 6.17339E-01-1.51829E-04 4.46983E-01 9.09407E-14 2.59554E-15
 -1      1054 1.95551E+01 5.45879E-01-2.00589E-05 3.43689E-01 1.72482E-13 2.34056E-13
 -1      1055 1.96661E+01 4.66861E-01 1.76171E-05 2.62171E-01 7.79307E-14 3.88973E-13
 -1      1056 1.97554E+01 3.89175E-01-2.84426E-05 1.98783E-01-1.78014E-13-1.85155E-14
 -1      1057 1.98067E+01 3.36956E-01-5.11557E-05 1.56656E-01-1.01523E-13-2.35889E-13
 -1      1058 2.02572E+01 1.21978E+00 2.05084E-04-3.34223E-03-1.57464E-14-1.72496E-13
 -1      1059 1.85747E+01 2.49777E-02-9.28512E-04 1.88871E+00 2.51047E-15-3.26465E-13
 -1      1060 1.86374E+01 3.19215E-01 1.52431E-04 1.54058E+00-1.93169E-13-1.50415E-13
 -1      1061 1.98378E+01 2.92762E-01 5.51198E-05 6.25375E-02-1.29401E-15-6.43097E-13
 -1      1062 1.86128E+01-7.46473E-01 2.35496E-03-2.60911E+00-5.81477E-14-2.86363E-13
 -1      1063 1.48413E+01 7.34126E-01 9.60172E-03-1.67767E+00-5.38289E-14-3.81227E-14
 -1      1064 2.02729E+01 9.03810E-01 2.62065E-04 2.86703E-02-1.78893E-14-1.86631E-13
 -1      1065 2.00148E+01 4.99858E-01-3.75704E-06-3.27775E-01-4.11338E-14-1.17315E-13
 -1      1066 1.59666E+01 1.13711E+00-9.45377E-04-5.06770E-01-8.88027E-15-5.81423E-14
 -1      1067 1.88554E+01 4.50743E-01-3.46055E-04-1.26636E+00-1.52256E-14-4.67134E-14
 -1      1068 1.75754E+01 4.64553E-01-3.19877E-05 1.73602E+00 7.24776E-14-1.11650E-13
 -1      1069 2.00809E+01 5.92295E-01-1.59375E-04 1.75296E-01-3.95933E-14-1.33614E-13
 -1      1070 2.02628E+01 9.36724E-01-1.43261E-04-1.82335E-02 6.90556E-15-1.12534E-13
 -1      1071 2.02210E+01 7.33175E-01 9.77556E-05 8.73121E-02 3.47820E-14-1.71001E-13
 -1      1072 1.65871E+01 8.58221E-01 1.88214E-03 1.37811E+00-1.19641E-13-1.01286E-13
 -1      1073 1.97780E+01 3.54237E-01 3.18127E-04 2.22821E-02 2.55350E-13-5.16165E-13
 -1      1074 1.98627E+01 5.01674E-01-7.01897E-05-4.17102E-01-2.22005E-14-1.21377E-13
 -1      1075 1.97845E+01 3.50899E-01-8.62451E-05-4.56805E-02 1.51783E-13 2.14730E-13
 -1      1076 2.02792E+01 8.56320E-01 1.56140E-04-4.67710E-02 5.52794E-14-6.20670E-14
 -1      1077 1.92817E+01 5.84654E-01 1.06482E-04-7.96621E-01 2.58074E-14-4.05719E-14
 -1      1078 1.90635E+01 5.58028E-01-9.14101E-05-9.98763E-01-2.06954E-14-4.82097E-14
 -1      1079 1.95672E+01 6.72483E-01-1.10813E-04 5.65174E-02-9.71753E-14-1.66282E-13
 -1      1080 2.02573E+01 9.19407E-01-6.25807E-05 1.31276E-02 2.97051E-15-2.07733E-13
 -1      1081 1.92745E+01 7.66939E-01 7.28034E-04 3.73484E-02-6.02153E-14-1.48904E-13
 -1      1082 1.89164E+01 8.74937E-01 2.79511E-04-5.11799E-03 1.79318E-14-2.26023E-13
 -1      1083 1.84822E+01 9.80369E-01-4.75222E-05-7.81384E-02-4.86427E-14-2.10849E-13
 -1      1084 1.79423E+01 1.06946E+00-1.14597E-04-1.93255E-01-9.69315E-15-1.06682E-13
 -1      1085 1.72896E+01 1.10858E+00-2.13509E-04-3.58205E-01-5.96701E-14 1.43899E-14
 -1      1086 1.77228E+01 4.64217E-01-1.22545E-04-1.61739E+00 1.41875E-14-4.76261E-14
 -1      1087 2.01393E+01 5.45511E-01-5.53238E-05-2.41710E-01 4.93786E-14-8.19819E-14
 -1      1088 1.66575E+01-7.57222E-02 5.13513E-03-2.60855E+00-1.77478E-13-1.25070E-13
 -1      1089 1.65367E+01 1.23434E+00 4.85146E-04 3.87554E-01-1.74599E-13 3.07662E-14
 -1      1090 1.73583E+01 1.22783E+00 6.57501E-04 2.05912E-01-5.77731E-14-3.94741E-14
 -1      1091 1.79524E+01 1.17331E+00 6.79077E-05 9.72595E-02 2.49548E-14-2.63715E-14
 -1      1092 1.84316E+01 1.07519E+00-2.34860E-04 2.08375E-02-1.33664E-14 1.32312E-13
 -1      1093 1.88025E+01 9.58538E-01-3.44681E-04-2.82891E-02-1.58740E-13 8.57978E-14
 -1      1094 1.90930E+01 8.34319E-01-2.95054E-04-5.35048E-02-1.42034E-13 1.44095E-14
 -1      1095 1.93269E+01 7.09548E-01 7.62993E-04-6.43995E-02 1.70835E-13 1.17297E-13
 -1      1096 1.95038E+01 5.90892E-01 4.19481E-06-6.45133E-02 3.19559E-13 3.79426E-14
 -1      1097 1.96408E+01 4.84025E-01 5.53685E-06-5.74003E-02 3.36097E-13-1.03453E-13
 -1      1098 1.76640E+01-4.53314E-01-2.28833E-03-2.67956E+00-1.15278E-13-2.71706E-13
 -1      1099 1.91622E+01 7.55620E-01 2.70298E-04 3.56080E-01 5.75826E-14 5.14471E-14
 -1      1100 1.78811E+01 6.78070E-01 8.85956E-04 1.34107E+00-4.03901E-13-1.80557E-14
 -1      1101 2.02303E+01 6.55297E-01-2.73152E-04-1.49888E-01 3.42939E-14-6.33938E-14
 -1      1102 1.55655E+01 1.19333E+00 5.23471E-03 6.29433E-01 2.33650E-14 1.04484E-13
 -1      1103 1.86513E+01 8.65621E-01-1.72482E-05 6.51489E-01 4.04445E-14-1.91739E-13
 -1      1104 1.83400E+01 8.48627E-01 1.49473E-03 8.82446E-01-6.41605E-14-3.58385E-13
 -1      1105 1.93557E+01 6.67573E-01 6.81974E-04 2.62093E-01 9.40583E-14 1.35014E-13
 -1      1106 1.95207E+01 5.66879E-01 1.54849E-04 1.91095E-01-2.79942E-15 1.07768E-13
 -1      1107 1.96448E+01 4.74445E-01-4.71873E-05 1.40246E-01 2.62738E-13-2.45501E-13
 -1      1108 1.98032E+01 6.16815E-01 1.11186E-04 6.30759E-02-4.96884E-14-1.78354E-13
 -1      1109 1.89284E+01 8.27421E-01 1.89819E-04 4.80764E-01 3.43962E-14-2.55728E-13
 -1      1110 1.97802E+01 3.53217E-01-2.99367E-05 9.06724E-02 1.36835E-14-3.76770E-13
 -1      1111 1.88587E+01 7.52649E-01-1.75742E-04-6.57025E-01 2.10024E-14-2.84799E-15
 -1      1112 1.94881E+01 5.68652E-01-2.09639E-04-6.41475E-01-1.13692E-13-6.12880E-14
 -1      1113 2.02027E+01 7.34444E-01-3.88243E-05 1.22534E-02 3.30822E-14-1.94213E-13
 -1      1114 2.00499E+01 5.80151E-01 6.09094E-04-1.67558E-01 1.82572E-14-1.58109E-14
 -1      1115 1.81114E+01 6.79253E-01-8.34463E-04-1.18772E+00 3.39677E-14-5.11027E-14
 -1      1116 1.71540E+01 9.77233E-01 2.02083E-04 1.01006E+00-1.36756E-13 4.45766E-14
 -1      1117 1.96885E+01 5.31207E-01 4.17096E-04-5.19075E-01-7.39315E-14-3.80435E-14
 -1      1118 1.99941E+01 6.05107E-01-1.36297E-04 5.72048E-02-2.50697E-14-1.64334E-13
 -1      1119 1.97201E+01 4.11390E-01 3.78033E-04 1.12717E-01 1.80989E-13-3.88693E-13
 -1      1120 1.85047E+01 7.52210E-01-1.50649E-04-8.76708E-01 7.20165E-15-6.88937E-15
 -1      1121 1.91698E+01 7.10887E-01-1.36747E-04-4.97084E-01-5.91723E-14 1.23617E-14
 -1      1122 1.98850E+01 5.65019E-01 6.73851E-05-2.25752E-01-7.30971E-14-1.29023E-14
 -1      1123 1.97124E+01 4.14807E-01-2.17675E-04 3.01447E-02 2.63550E-13-2.53904E-13
 -1      1124 2.01668E+01 6.57930E-01 2.01860E-04-9.80861E-02 2.65611E-14-6.58713E-14
 -1      1125 1.64511E+01 6.40323E-01 1.32530E-03-1.64492E+00-3.18990E-14 2.51616E-14
 -1      1126 1.94558E+01 6.81692E-01-3.50401E-04-1.99370E-01-8.36053E-14-4.11552E-15
 -1      1127 1.72849E+01 7.76059E-02 3.11753E-03-2.23373E+00-1.01270E-13-2.11340E-13
 -1      1128 1.93791E+01 6.58156E-01-1.77345E-03 7.54264E-02 2.06679E-13 1.03040E-13
 -1      1129 1.78598E+01 1.04115E+00-5.38015E-03 6.22631E-01-7.80522E-14-2.02400E-13
 -1      1130 1.95761E+01 5.28512E-01-3.33582E-05 5.63225E-02 3.27928E-13-1.96438E-13
 -1      1131 1.97111E+01 6.16124E-01-3.08635E-04-1.39946E-01-8.48917E-14-4.49640E-14
 -1      1132 1.70612E+01 8.17483E-01-2.48949E-03-1.19448E+00-3.99453E-14 5.64045E-15
 -1      1133 1.96769E+01 5.85308E-01-1.85537E-04-3.28939E-01-4.24207E-14 3.73276E-14
 -1      1134 2.78779E+01 9.05798E+00 2.31514E+00-6.67447E+00-2.68119E-14 9.39249E-13
 -1      1135 2.05199E+01 6.21905E+00 2.10247E-01-3.88571E+00-1.60150E-14 1.42789E-13
 -1      1136 1.94320E+01 5.85254E+00 7.64368E-02-2.86749E+00-1.08524E-14-2.11208E-13
 -1      1137 1.90385E+01 5.72993E+00 6.13088E-02-2.21242E+00-8.15320E-15-3.78501E-13
 -1      1138 1.88603E+01 5.67558E+00 5.82388E-02-1.67822E+00-3.75394E-15-4.58938E-13
 -1      1139 1.87694E+01 5.64744E+00 5.54232E-02-1.21332E+00-4.26915E-15-4.90128E-13
 -1      1140 1.87211E+01 5.63227E+00 5.31612E-02-7.88601E-01-1.49273E-15-5.01730E-13
 -1      1141 1.86966E+01 5.62447E+00 5.15904E-02-3.84338E-01 2.66714E-17-5.01890E-13
 -1      1142 1.86894E+01 5.62214E+00 5.10750E-02 8.57794E-03 4.71520E-16-4.89735E-13
 -1      1143 1.86973E+01 5.62469E+00 5.16914E-02 4.01886E-01 2.63721E-15-4.74375E-13
 -1      1144 1.87224E+01 5.63274E+00 5.33892E-02 8.07445E-01 3.34325E-15-4.49291E-13
 -1      1145 1.87722E+01 5.64849E+00 5.60644E-02 1.23470E+00 4.68462E-15-4.04702E-13
 -1      1146 1.88642E+01 5.67690E+00 5.88150E-02 1.70398E+00 6.95798E-15-3.36890E-13
 -1      1147 1.90430E+01 5.73131E+00 6.13152E-02 2.24520E+00 1.02349E-14-2.27320E-13
 -1      1148 1.94285E+01 5.84972E+00 7.05283E-02 2.90761E+00 1.22402E-14-2.51535E-14
 -1      1149 2.04268E+01 6.17431E+00 1.54185E-01 3.86028E+00 1.33504E-14 3.63733E-13
 -1      1150 2.51423E+01 7.96975E+00 1.42340E+00 5.82590E+00 2.66454E-14 1.14464E-12
 -1      1151 2.87045E+01 3.59982E+00 1.26118E+00-4.20082E+00-1.10634E-13 1.45406E-12
 -1      1152 2.01612E+01-1.77725E-01-6.15650E-01-1.08914E-01-4.35277E-14 1.19607E-12
 -1      1153 1.87866E+01-9.67055E-02-2.36119E-01 6.23004E-02-8.73086E-15 8.22961E-13
 -1      1154 1.84713E+01-4.88720E-02-6.02083E-02 4.01439E-02-9.43429E-15 5.73361E-13
 -1      1155 1.84403E+01-2.59700E-02-1.65590E-02 2.63813E-02-4.70977E-15 3.99077E-13
 -1      1156 1.85564E+01-1.50583E-02-7.14784E-03 1.86928E-02 2.42319E-15 3.10113E-13
 -1      1157 1.87535E+01-9.41547E-03-4.62137E-03 1.39018E-02 3.56833E-15 2.47875E-13
 -1      1158 1.89991E+01-6.62525E-03-3.79665E-03 1.07632E-02-7.20886E-16 2.10821E-13
 -1      1159 1.92794E+01-5.60439E-03-4.00912E-03 8.71830E-03-1.44738E-14 1.14122E-13
 -1      1160 1.95923E+01-5.78394E-03-5.18988E-03 7.55082E-03-7.01723E-15-1.05976E-13
 -1      1161 1.99447E+01-6.83355E-03-7.25920E-03 7.22592E-03 1.75427E-14-2.01924E-13
 -1      1162 2.03502E+01-8.50808E-03-1.00969E-02 7.82176E-03 2.85319E-14 2.66879E-14
 -1      1163 2.08280E+01-1.05402E-02-1.34972E-02 9.50229E-03 1.10242E-15-1.83933E-14
 -1      1164 2.14010E+01-1.25231E-02-1.70303E-02 1.24898E-02-8.58103E-15-1.37990E-13
 -1      1165 2.20926E+01-1.37505E-02-1.97715E-02 1.69926E-02 1.17337E-14 1.35204E-14
 -1      1166 2.29202E+01-1.30000E-02-1.98559E-02 2.30113E-02-9.64387E-15 3.54577E-14
 -1      1167 2.38826E+01-8.30504E-03-1.39043E-02 2.98953E-02 6.38118E-15-1.15186E-14
 -1      1168 2.49378E+01 3.08286E-03 3.29184E-03 3.54891E-02-3.68293E-15-4.92384E-14
 -1      1169 2.59687E+01 2.40008E-02 3.76128E-02 3.48646E-02-2.56782E-14-2.30389E-13
 -1      1170 2.67436E+01 5.48644E-02 9.07333E-02 1.93521E-02 9.55139E-15-3.12259E-13
 -1      1171 2.69033E+01 8.87918E-02 1.49151E-01-2.12032E-02-3.71812E-14-1.84668E-13
 -1      1172 2.60457E+01 1.04307E-01 1.74547E-01-8.94089E-02 5.36030E-15 8.02275E-14
 -1      1173 2.39827E+01 7.21060E-02 1.13135E-01-1.63785E-01 1.84783E-14 4.62630E-13
 -1      1174 2.11244E+01-2.57162E-02-5.63798E-02-1.91596E-01-2.12560E-14 3.64486E-13
 -1      1175 1.86279E+01-1.41336E-01-2.49246E-01-1.23501E-01 2.49471E-14 3.44183E-13
 -1      1176 1.78279E+01-1.84431E-01-3.18611E-01 2.16428E-02-4.64385E-15 3.74378E-13
 -1      1177 1.92026E+01-1.13003E-01-2.03232E-01 1.52501E-01 5.85408E-14 3.43531E-13
 -1      1178 2.19476E+01 6.32930E-03-2.86968E-03 1.92025E-01-1.64874E-14 3.18912E-14
 -1      1179 2.46796E+01 8.70881E-02 1.40033E-01 1.45258E-01 4.61298E-14-1.80272E-13
 -1      1180 2.64270E+01 1.03498E-01 1.73589E-01 6.83810E-02 7.70686E-14-7.18731E-14
 -1      1181 2.69791E+01 7.94321E-02 1.33558E-01 6.98691E-03-4.14599E-15 1.21514E-13
 -1      1182 2.66220E+01 4.48310E-02 7.35701E-02-2.56911E-02-2.32991E-14 9.62251E-14
 -1      1183 2.57663E+01 1.62627E-02 2.50211E-02-3.58521E-02 1.28196E-15-3.35641E-13
 -1      1184 2.47398E+01-1.98508E-03-4.31027E-03-3.38569E-02 2.11029E-14-4.32494E-13
 -1      1185 2.37409E+01-1.14155E-02-1.80673E-02-2.72986E-02 6.14157E-15-3.98591E-13
 -1      1186 2.28640E+01-1.49755E-02-2.22180E-02-2.01776E-02 8.82064E-15-1.63414E-13
 -1      1187 2.21389E+01-1.51988E-02-2.14619E-02-1.40945E-02 7.18566E-15 2.70547E-14
 -1      1188 2.15623E+01-1.37968E-02-1.86745E-02-9.42540E-03-1.69103E-14 1.99429E-13
 -1      1189 2.11161E+01-1.17781E-02-1.53640E-02-6.04700E-03 6.66390E-14 3.42086E-13
 -1      1190 2.07781E+01-9.67729E-03-1.22205E-02-3.69209E-03-2.66058E-14 3.13685E-13
 -1      1191 2.05269E+01-7.74689E-03-9.50462E-03-2.09582E-03-4.89814E-14-5.38176E-14
 -1      1192 2.03434E+01-6.08497E-03-7.27365E-03-1.04107E-03-1.59966E-14 5.37996E-14
 -1      1193 2.02122E+01-4.71145E-03-5.49997E-03-3.62878E-04 8.81382E-14 2.60212E-13
 -1      1194 2.01206E+01-3.60988E-03-4.12898E-03 6.07295E-05-7.40955E-14 4.22541E-13
 -1      1195 2.00589E+01-2.75047E-03-3.10639E-03 3.22139E-04-3.10671E-14 1.01086E-14
 -1      1196 2.00197E+01-2.09706E-03-2.38162E-03 4.99218E-04 8.59125E-15-2.80155E-14
 -1      1197 1.99977E+01-1.60107E-03-1.87732E-03 6.65938E-04 4.89759E-14 1.30805E-13
 -1      1198 1.99891E+01-1.16693E-03-1.40122E-03 8.91095E-04-9.55284E-15 4.65674E-13
 -1      1199 1.99914E+01-8.28682E-04-3.49346E-04 1.29043E-03 4.23001E-15 4.48863E-13
 -1      1200 1.99980E+01 7.02944E-04 1.74764E-03 6.02291E-04 4.99917E-14 4.28531E-13
 -1      1201 2.76903E+01 5.23728E-01 3.71310E-01 1.96053E+00-1.87697E-14 1.78213E-12
 -1      1202 2.00219E+01-6.64460E-02-5.72967E-01 1.29094E-01 1.09253E-14 1.42469E-12
 -1      1203 1.88639E+01-4.10628E-02-1.93136E-01 1.96830E-02 8.70918E-15 1.07747E-12
 -1      1204 1.85037E+01-2.22104E-02-5.11922E-02 2.09192E-03 9.62945E-15 8.64295E-13
 -1      1205 1.84574E+01-1.35996E-02-1.46955E-02-3.14278E-03 2.35250E-15 7.30291E-13
 -1      1206 1.85679E+01-9.07852E-03-6.64891E-03-4.32334E-03 4.35502E-15 6.05516E-13
 -1      1207 1.87620E+01-6.57821E-03-4.73494E-03-4.26160E-03 1.74166E-15 5.35908E-13
 -1      1208 1.90043E+01-5.27570E-03-4.11417E-03-3.77410E-03-8.68614E-15 6.27156E-13
 -1      1209 1.92783E+01-4.74328E-03-4.11016E-03-3.15496E-03-4.73195E-15 5.81379E-13
 -1      1210 1.95783E+01-4.69385E-03-4.61891E-03-2.58922E-03 1.45477E-14 4.38356E-13
 -1      1211 1.99052E+01-4.87371E-03-5.46443E-03-2.24853E-03 5.48552E-15 2.09224E-13
 -1      1212 2.02636E+01-5.00122E-03-6.34082E-03-2.31870E-03 2.41748E-14 2.09676E-14
 -1      1213 2.06583E+01-4.72098E-03-6.79153E-03-3.00643E-03 7.97214E-15-2.34882E-14
 -1      1214 2.10909E+01-3.57283E-03-6.16109E-03-4.52469E-03-3.06706E-14-2.62516E-14
 -1      1215 2.15556E+01-9.96698E-04-3.55657E-03-7.03813E-03 1.79386E-14-2.43390E-13
 -1      1216 2.20331E+01 3.57977E-03 2.10382E-03-1.05396E-02 4.79350E-15-4.28988E-13
 -1      1217 2.24835E+01 1.04981E-02 1.18243E-02-1.46290E-02-2.46194E-14-2.95703E-13
 -1      1218 2.28406E+01 1.94031E-02 2.58740E-02-1.82042E-02 4.96918E-14-3.13111E-13
 -1      1219 2.30103E+01 2.85935E-02 4.26500E-02-1.91968E-02 1.41718E-14-4.15977E-13
 -1      1220 2.28815E+01 3.45533E-02 5.73783E-02-1.47030E-02-2.37831E-14-2.28305E-13
 -1      1221 2.23581E+01 3.24393E-02 6.18123E-02-2.07914E-03-1.12835E-14-3.51524E-14
 -1      1222 2.14149E+01 1.85058E-02 4.68621E-02 1.87060E-02-3.20360E-14 8.35582E-14
 -1      1223 2.01620E+01-5.93054E-03 9.11219E-03 4.25618E-02 5.26727E-15-2.58772E-13
 -1      1224 1.88735E+01-3.24565E-02-4.24629E-02 5.92364E-02-2.90065E-14-5.27328E-13
 -1      1225 1.79264E+01-4.87308E-02-8.66587E-02 5.82659E-02-1.05111E-14-4.48121E-13
 -1      1226 1.76456E+01-4.68893E-02-1.01386E-01 3.66942E-02-8.13932E-15-3.53884E-13
 -1      1227 1.81342E+01-2.97114E-02-7.96742E-02 2.81786E-03 4.07886E-14-3.71134E-13
 -1      1228 1.92150E+01-7.43056E-03-3.50397E-02-2.88247E-02 8.29263E-15-5.03445E-13
 -1      1229 2.05313E+01 1.03325E-02 1.00583E-02-4.68558E-02-7.76636E-15-5.97966E-13
 -1      1230 2.17244E+01 1.93527E-02 3.92929E-02-4.87992E-02-3.44906E-15-9.53793E-13
 -1      1231 2.25665E+01 2.05856E-02 4.86896E-02-3.93305E-02 2.54371E-14-9.26165E-13
 -1      1232 2.29912E+01 1.71316E-02 4.34475E-02-2.53696E-02-2.56913E-14-4.97607E-13
 -1      1233 2.30506E+01 1.19428E-02 3.13603E-02-1.21782E-02-1.68693E-14-1.43951E-13
 -1      1234 2.28502E+01 6.91177E-03 1.85155E-02-2.28724E-03-2.63614E-14 1.95876E-13
 -1      1235 2.25000E+01 2.90241E-03 8.07276E-03 3.88504E-03-2.07737E-14 3.20709E-13
 -1      1236 2.20885E+01 1.06412E-04 9.04430E-04 6.99348E-03 2.10237E-14 7.35557E-14
 -1      1237 2.16765E+01-1.61601E-03-3.33531E-03 7.98638E-03 2.87408E-14-3.79878E-13
 -1      1238 2.12999E+01-2.51732E-03-5.40448E-03 7.71182E-03 7.92687E-14-7.59442E-13
 -1      1239 2.09758E+01-2.85074E-03-6.05129E-03 6.79232E-03 2.64994E-14-6.46549E-13
 -1      1240 2.07091E+01-2.82543E-03-5.86209E-03 5.63145E-03-1.68686E-14-5.67151E-13
 -1      1241 2.04974E+01-2.59712E-03-5.24388E-03 4.46474E-03-2.03969E-14-3.43742E-13
 -1      1242 2.03345E+01-2.27411E-03-4.45729E-03 3.41379E-03-2.83397E-15-5.71867E-14
 -1      1243 2.02130E+01-1.92821E-03-3.65959E-03 2.52942E-03 6.45759E-14-2.56655E-13
 -1      1244 2.01251E+01-1.60524E-03-2.94207E-03 1.82102E-03 1.18182E-14-5.34283E-13
 -1      1245 2.00642E+01-1.33145E-03-2.35618E-03 1.27321E-03-6.86046E-14-5.29078E-13
 -1      1246 2.00243E+01-1.11363E-03-1.92474E-03 8.52616E-04 4.03823E-14-7.85620E-13
 -1      1247 2.00010E+01-9.40295E-04-1.62880E-03 5.05251E-04 4.09908E-14-1.18642E-12
 -1      1248 1.99911E+01-7.20343E-04-1.29153E-03 1.13813E-04-8.15675E-15-9.13784E-13
 -1      1249 1.99921E+01-9.51649E-05-2.73635E-04-5.14457E-04 4.03711E-14-7.69972E-13
 -1      1250 1.99983E+01 5.59202E-04 1.69426E-03-5.58773E-04-9.67491E-14-4.23578E-13
 -1      1251 2.00003E+01-1.70313E-03 1.53653E-03-6.13827E-04-2.34747E-13 1.29895E-13
 -1      1252 1.99992E+01-7.53351E-03-5.72357E-04-1.01472E-03 5.98484E-13-7.03657E-14
 -1      1253 1.99990E+01-6.91279E-03-1.33633E-03-3.29668E-04 1.73929E-12-2.41429E-14
 -1      1254 1.99992E+01 3.53046E-03-1.08840E-03 2.07670E-04 1.62104E-12-3.19515E-14
 -1      1255 1.99996E+01 2.11584E-02-4.42125E-04 5.09852E-04 1.45379E-12-4.61050E-14
 -1      1256 2.00001E+01 4.13692E-02 2.55415E-04 5.89577E-04 2.13831E-13-1.54423E-13
 -1      1257 2.00005E+01 5.97313E-02 8.45632E-04 4.97627E-04 7.60994E-14 1.24161E-13
 -1      1258 2.00008E+01 7.24685E-02 1.24231E-03 2.70972E-04-1.28714E-13-1.73528E-13
 -1      1259 2.00009E+01 7.67507E-02 1.37881E-03-2.25407E-05 2.24551E-13 1.43260E-13
 -1      1260 2.00008E+01 7.16615E-02 1.23300E-03-3.15116E-04 8.87626E-13-6.71061E-14
 -1      1261 2.00005E+01 5.81748E-02 8.19340E-04-5.35527E-04-3.41929E-14-1.38637E-13
 -1      1262 2.00001E+01 3.92182E-02 2.06671E-04-6.20574E-04-1.43957E-12 5.60111E-14
 -1      1263 1.99996E+01 1.87341E-02-5.12139E-04-5.11913E-04-1.11715E-12 2.09309E-13
 -1      1264 1.99991E+01 1.29512E-03-1.16325E-03-1.80270E-04-1.05738E-12-7.73368E-14
 -1      1265 1.99991E+01-8.61982E-03-1.37501E-03 4.45411E-04-2.00449E-12 8.26994E-14
 -1      1266 1.99992E+01-7.56945E-03-3.07826E-04 1.66997E-03-8.80529E-13-8.37079E-14
 -1      1267 2.00003E+01-2.05617E-03 1.51925E-03 7.95166E-04-2.19555E-13 4.48994E-14
 -1      1268-1.11435E+00-2.38250E+01-3.69591E+00-2.10242E+00 1.36174E-12 2.47406E-13
 -1      1269-1.73849E+00-1.50498E+01-3.02997E+00-3.84127E+00 1.37934E-12 3.80140E-13
 -1      1270 2.81017E-01-2.50024E+00-1.86899E+00-2.60546E-02 7.04992E-13 3.68705E-13
 -1      1271 8.96878E+00 7.76135E+00-2.70590E-01 8.26030E+00 3.02647E-13 2.57572E-13
 -1      1272 2.57916E+01 1.11525E+01 1.43279E+00 1.61256E+01 4.49418E-13 8.34000E-13
 -1      1273 4.59102E+01 8.13998E+00 2.92570E+00 1.76979E+01 4.12059E-13 1.13709E-12
 -1      1274 6.11743E+01 3.54919E+00 3.82515E+00 1.06519E+01 1.97065E-13 5.45786E-13
 -1      1275 6.63776E+01 1.52706E+00 4.09735E+00-1.59779E+00 6.38031E-14-5.13423E-13
 -1      1276 5.81783E+01 4.38349E+00 3.61078E+00-1.32142E+01 3.40367E-13-1.18883E-12
 -1      1277 4.07492E+01 9.33353E+00 2.55288E+00-1.80890E+01 8.89511E-13-1.82432E-12
 -1      1278 2.17064E+01 1.11497E+01 1.10869E+00-1.49243E+01 1.32361E-12-1.72573E-12
 -1      1279 7.01319E+00 6.36565E+00-5.63119E-01-6.79373E+00 1.67644E-12-1.56009E-12
 -1      1280-2.43074E-01-4.32647E+00-2.00302E+00 8.42443E-01 1.70641E-12-9.54237E-13
 -1      1281-1.66771E+00-1.67601E+01-3.16532E+00 3.96691E+00 1.57996E-12-4.57467E-13
 -1      1282-1.11191E+00-2.43866E+01-3.74969E+00 1.54668E+00 9.44467E-13-1.77813E-13
 -1      1283-1.25323E+00-2.37686E+01-3.74081E+00-2.68522E+00-6.27332E-13-2.88651E-13
 -1      1284-1.92050E+00-1.51859E+01-3.11861E+00-4.34081E+00-1.72928E-12-6.59139E-13
 -1      1285-6.21368E-03-3.05362E+00-1.99301E+00-6.04966E-01-2.23643E-12-1.36047E-12
 -1      1286 8.85455E+00 7.12421E+00-4.39900E-01 7.87254E+00-2.17715E-12-2.06035E-12
 -1      1287 2.56966E+01 1.08908E+01 1.35203E+00 1.60307E+01-1.60361E-12-2.22755E-12
 -1      1288 4.60139E+01 8.36759E+00 2.95406E+00 1.77500E+01-8.24896E-13-1.91402E-12
 -1      1289 6.29113E+01 3.58723E+00 4.07507E+00 1.14875E+01-2.89380E-13-1.38689E-12
 -1      1290 6.88889E+01 1.57886E+00 4.46575E+00-7.71952E-01-3.39589E-14-8.01997E-13
 -1      1291 6.06359E+01 4.39983E+00 3.94608E+00-1.27581E+01-2.74669E-13 8.00027E-13
 -1      1292 4.20065E+01 9.07485E+00 2.65274E+00-1.81835E+01-7.61169E-13 1.61449E-12
 -1      1293 2.13574E+01 1.06786E+01 9.33549E-01-1.44716E+01-1.11200E-12 1.42486E-12
 -1      1294 6.45093E+00 5.66512E+00-7.54107E-01-6.09278E+00-1.20837E-12 1.11466E-12
 -1      1295-6.64624E-01-4.85418E+00-2.20474E+00 1.44766E+00-1.39311E-12 7.90257E-13
 -1      1296-1.88900E+00-1.66716E+01-3.22593E+00 4.42602E+00-1.17328E-12 3.95461E-13
 -1      1297-1.14057E+00-2.42697E+01-3.73953E+00 2.18816E+00-9.20375E-14 1.49797E-13
 -1      1298 2.22053E+01 1.83543E+00-7.23643E-01-2.77914E+00-4.23828E-14 7.75435E-13
 -1      1299 2.03417E+01 4.68389E+00-4.79525E-02-3.28640E+00-1.21347E-13-2.09902E-14
 -1      1300 2.08351E+01 4.79984E+00-1.12645E-01-4.14005E+00-1.55626E-13 1.63432E-13
 -1      1301 1.95347E+01 4.99263E+00-1.92502E-02-2.63087E+00-1.22034E-13-2.83835E-13
 -1      1302 1.98238E+01 5.08629E+00 7.20287E-04-3.02275E+00-1.36446E-13-1.69961E-13
 -1      1303 2.05150E+01 3.94763E+00-2.56431E-02-3.05013E+00-2.13097E-13-2.18714E-14
 -1      1304 1.92003E+01 5.08785E+00-3.24600E-03-2.04549E+00-9.72711E-14-4.12559E-13
 -1      1305 1.93436E+01 5.14157E+00 1.11189E-02-2.33925E+00-1.13395E-13-3.52739E-13
 -1      1306 1.97625E+01 4.36789E+00-2.34930E-02-2.46355E+00-1.92225E-13-2.34486E-13
 -1      1307 1.90296E+01 5.13897E+00 3.38583E-03-1.53999E+00-7.73357E-14-4.72945E-13
 -1      1308 1.91058E+01 5.16811E+00 1.32613E-02-1.78918E+00-8.46025E-14-4.49179E-13
 -1      1309 1.94096E+01 4.56258E+00-1.91433E-02-1.90390E+00-1.48382E-13-3.48933E-13
 -1      1310 1.89370E+01 5.17197E+00 6.31169E-03-1.09596E+00-4.76806E-14-4.97422E-13
 -1      1311 1.89793E+01 5.18832E+00 1.30370E-02-1.31531E+00-5.73422E-14-4.84108E-13
 -1      1312 1.92252E+01 4.67527E+00-1.56902E-02-1.41919E+00-1.10299E-13-3.93744E-13
 -1      1313 1.88848E+01 5.19421E+00 7.84458E-03-6.78882E-01-2.22931E-14-5.04440E-13
 -1      1314 1.89083E+01 5.20326E+00 1.20644E-02-8.85764E-01-3.03559E-14-5.01094E-13
 -1      1315 1.91218E+01 4.74591E+00-1.36280E-02-9.83434E-01-6.53525E-14-4.20310E-13
 -1      1316 1.88597E+01 5.20764E+00 8.93905E-03-2.82313E-01 7.18826E-16-5.05845E-13
 -1      1317 1.88702E+01 5.21164E+00 1.09401E-02-4.80275E-01-5.18422E-15-5.05443E-13
 -1      1318 1.90643E+01 4.78866E+00-1.25437E-02-5.75142E-01-2.79169E-14-4.21968E-13
 -1      1319 1.88556E+01 5.21311E+00 9.94828E-03 1.06067E-01 1.80993E-14-4.90155E-13
 -1      1320 1.88553E+01 5.21301E+00 9.87804E-03-8.91558E-02 1.00522E-14-4.99841E-13
 -1      1321 1.90386E+01 4.80861E+00-1.20868E-02-1.84322E-01 1.09751E-14-4.24893E-13
 -1      1322 1.88713E+01 5.21114E+00 1.10283E-02 4.97757E-01 4.06021E-14-4.72499E-13
 -1      1323 1.88604E+01 5.20691E+00 8.87379E-03 2.99383E-01 3.31429E-14-4.82090E-13
 -1      1324 1.90392E+01 4.80792E+00-1.21076E-02 2.01087E-01 4.04717E-14-4.09634E-13
 -1      1325 1.89107E+01 5.20188E+00 1.21432E-02 9.04694E-01 5.75026E-14-4.44460E-13
 -1      1326 1.88865E+01 5.19271E+00 7.78251E-03 6.96868E-01 5.20922E-14-4.62744E-13
 -1      1327 1.90662E+01 4.78643E+00-1.26080E-02 5.92586E-01 7.63894E-14-3.88696E-13
 -1      1328 1.89825E+01 5.18624E+00 1.31430E-02 1.33293E+00 7.96620E-14-3.95153E-13
 -1      1329 1.89394E+01 5.16953E+00 6.17859E-03 1.11218E+00 7.44756E-14-4.23262E-13
 -1      1330 1.91251E+01 4.74219E+00-1.36449E-02 9.98707E-01 1.09178E-13-3.53842E-13
 -1      1331 1.91123E+01 5.16392E+00 1.32615E-02 1.81524E+00 1.14967E-13-3.21729E-13
 -1      1332 1.90346E+01 5.13411E+00 3.03491E-03 1.56329E+00 1.00878E-13-3.62748E-13
 -1      1333 1.92310E+01 4.66855E+00-1.58123E-02 1.43702E+00 1.49219E-13-2.96652E-13
 -1      1334 1.93532E+01 5.13559E+00 1.07656E-02 2.37265E+00 1.37723E-13-1.96152E-13
 -1      1335 1.92077E+01 5.07989E+00-4.24332E-03 2.07501E+00 1.23200E-13-2.71463E-13
 -1      1336 1.94208E+01 4.54981E+00-1.96539E-02 1.93059E+00 1.89545E-13-2.17177E-13
 -1      1337 1.98494E+01 5.09532E+00 6.72552E-03 3.06096E+00 1.58054E-13 2.30996E-14
 -1      1338 1.95462E+01 4.98306E+00-2.00838E-02 2.67256E+00 1.44378E-13-1.09624E-13
 -1      1339 1.97813E+01 4.34716E+00-2.42082E-02 2.50092E+00 2.26741E-13-8.39398E-14
 -1      1340 2.10703E+01 4.89626E+00 8.64532E-03 4.03331E+00 1.39666E-13 4.28935E-13
 -1      1341 2.03165E+01 4.72741E+00-4.72148E-02 3.39528E+00 1.34615E-13 1.82132E-13
 -1      1342 2.05532E+01 3.91097E+00-2.20269E-02 3.15360E+00 2.40599E-13 1.61676E-13
 -1      1343 2.71185E+01 3.19420E+00 9.23189E-01 4.56366E+00 6.33937E-14 1.19615E-12
 -1      1344 2.19729E+01 3.51473E+00-1.80975E-01 3.86732E+00 6.59750E-14 6.61110E-13
 -1      1345 2.20746E+01 2.55601E+00-3.24114E-02 3.43542E+00 2.25483E-13 5.29105E-13
 -1      1346 2.13667E+01 3.58755E-01-7.61818E-01 1.17585E+00 1.18863E-13 1.14925E-12
 -1      1347 2.19434E+01 1.30904E-01-4.00099E-01-1.27602E+00-1.26371E-13 8.17291E-13
 -1      1348 2.06312E+01 3.05964E-01-1.64157E-01-7.97870E-01-1.17843E-13 6.72851E-13
 -1      1349 2.00413E+01 1.53555E-01-7.31714E-02-3.94318E-01-9.37618E-14 6.19127E-13
 -1      1350 1.95810E+01 9.16138E-02-1.45897E-02-3.22144E-01-8.47170E-14 4.85733E-13
 -1      1351 2.09413E+01 3.68557E-01-1.04038E-01-1.25809E+00-1.99674E-13 3.54772E-13
 -1      1352 1.92336E+01 6.52175E-02 3.25864E-03-1.26237E-01-6.66880E-14 4.40387E-13
 -1      1353 1.90904E+01 4.23443E-02 1.34842E-02-1.07996E-01-6.42854E-14 3.39020E-13
 -1      1354 1.99083E+01 1.34521E-01-3.53123E-02-4.86806E-01-1.52909E-13 2.61203E-13
 -1      1355 1.89432E+01 3.29027E-02 1.34269E-02-1.56708E-02-4.61037E-14 2.87270E-13
 -1      1356 1.89388E+01 2.11658E-02 1.13318E-02-5.52034E-03-4.37888E-14 2.27363E-13
 -1      1357 1.94538E+01 5.72199E-02-8.91197E-03-1.47876E-01-1.19378E-13 1.78342E-13
 -1      1358 1.89008E+01 1.81842E-02 8.97602E-03 4.26359E-02-1.79873E-14 2.03133E-13
 -1      1359 1.89648E+01 1.17260E-02 6.77550E-03 4.84663E-02-2.03626E-14 1.84250E-13
 -1      1360 1.92755E+01 2.74476E-02-4.11929E-03 1.98095E-02-6.89639E-14 1.22334E-13
 -1      1361 1.89901E+01 1.09996E-02 4.90125E-03 7.62201E-02-1.14830E-14 1.53608E-13
 -1      1362 1.90918E+01 7.19899E-03 4.06334E-03 7.98235E-02 1.63346E-15 1.49513E-13
 -1      1363 1.92612E+01 1.47318E-02-3.10125E-03 1.11889E-01-4.53032E-14 8.26474E-14
 -1      1364 1.91566E+01 7.54062E-03 2.69860E-03 9.77561E-02-3.56724E-15 1.26564E-13
 -1      1365 1.92821E+01 5.32681E-03 2.73753E-03 1.00380E-01-2.92893E-14 1.12460E-13
 -1      1366 1.93468E+01 9.16750E-03-2.52364E-03 1.67658E-01-2.56965E-14 6.68287E-14
 -1      1367 1.93743E+01 6.31674E-03 1.60081E-03 1.14373E-01-4.15493E-14 1.00975E-13
 -1      1368 1.95185E+01 5.14564E-03 2.07286E-03 1.16858E-01-5.39089E-14 1.22576E-14
 -1      1369 1.94982E+01 7.40944E-03-2.15091E-03 2.06721E-01-7.83308E-14 3.45063E-14
 -1      1370 1.96333E+01 6.63110E-03 9.92154E-04 1.30719E-01-6.17050E-14-3.59608E-15
 -1      1371 1.97966E+01 6.17555E-03 1.70039E-03 1.33699E-01-5.51612E-14-8.60549E-14
 -1      1372 1.96989E+01 8.13037E-03-2.07578E-03 2.40700E-01-9.38481E-14 6.45523E-15
 -1      1373 1.99335E+01 8.10977E-03 5.71650E-04 1.50171E-01-1.85680E-15-8.28985E-14
 -1      1374 2.01206E+01 8.12462E-03 1.45000E-03 1.54160E-01 4.38907E-14-7.06765E-14
 -1      1375 1.99436E+01 1.06913E-02-2.31007E-03 2.77483E-01-2.68329E-14 3.59242E-14
 -1      1376 2.02824E+01 1.05048E-02 1.84919E-04 1.75323E-01 3.32354E-14-9.34274E-14
 -1      1377 2.05008E+01 1.07459E-02 1.21711E-03 1.80739E-01 1.79501E-15-4.59615E-14
 -1      1378 2.02344E+01 1.47095E-02-2.81417E-03 3.22882E-01 3.01471E-14-3.96454E-14
 -1      1379 2.06924E+01 1.35632E-02-2.75336E-04 2.08062E-01-2.50919E-14-7.45411E-14
 -1      1380 2.09520E+01 1.37119E-02 9.04660E-04 2.15211E-01-4.05153E-14-1.22315E-13
 -1      1381 2.05787E+01 1.98187E-02-3.53005E-03 3.81183E-01-3.20633E-14-1.11133E-13
 -1      1382 2.11794E+01 1.68806E-02-9.02645E-04 2.49290E-01-9.71684E-15-1.01750E-13
 -1      1383 2.14909E+01 1.64468E-02 4.09686E-04 2.58266E-01 4.41444E-15-1.02685E-13
 -1      1384 2.09871E+01 2.54278E-02-4.37621E-03 4.54920E-01-2.44657E-14-1.49922E-13
 -1      1385 2.17597E+01 1.96816E-02-1.76248E-03 2.98129E-01 1.34471E-14-9.88428E-14
 -1      1386 2.21321E+01 1.78714E-02-3.48823E-04 3.08594E-01-2.83677E-14-8.87814E-14
 -1      1387 2.14709E+01 3.03633E-02-5.21177E-03 5.43765E-01-6.79188E-15-1.45635E-13
 -1      1388 2.24451E+01 2.04798E-02-2.81797E-03 3.50359E-01-4.64401E-14-3.98813E-14
 -1      1389 2.28810E+01 1.60416E-02-1.33557E-03 3.61112E-01-2.82294E-14-7.98753E-14
 -1      1390 2.20389E+01 3.23067E-02-5.76584E-03 6.42170E-01-2.59810E-14-1.36934E-13
 -1      1391 2.32347E+01 1.66198E-02-3.76227E-03 3.95793E-01 1.66815E-15-8.07184E-14
 -1      1392 2.37219E+01 7.76782E-03-2.20478E-03 4.04051E-01-1.04832E-14-8.80927E-14
 -1      1393 2.26915E+01 2.70134E-02-5.52184E-03 7.35245E-01-2.88766E-14-1.03110E-13
 -1      1394 2.41003E+01 3.89409E-03-3.74865E-03 4.14661E-01-9.28522E-15-1.04305E-13
 -1      1395 2.45989E+01-1.13857E-02-2.04295E-03 4.15075E-01-3.50596E-14-1.23616E-13
 -1      1396 2.34116E+01 7.60502E-03-3.56910E-03 7.92749E-01-1.81472E-14-1.24270E-13
 -1      1397 2.49664E+01-2.30599E-02-1.18346E-03 3.74401E-01-6.07283E-14-1.62963E-13
 -1      1398 2.53923E+01-4.56547E-02 6.89870E-04 3.58300E-01-8.86101E-14-2.43696E-13
 -1      1399 2.41523E+01-3.49363E-02 1.46416E-03 7.62816E-01-8.97832E-14-1.64936E-13
 -1      1400 2.56869E+01-6.79402E-02 5.87820E-03 2.31637E-01-2.26321E-14-2.47772E-13
 -1      1401 2.59023E+01-9.42275E-02 7.44644E-03 1.88136E-01-2.12122E-14-2.73324E-13
 -1      1402 2.48229E+01-1.07343E-01 1.10383E-02 5.71680E-01-6.82544E-14-1.56495E-13
 -1      1403 2.60348E+01-1.24613E-01 1.78315E-02-5.03077E-02 1.24692E-14-2.62932E-13
 -1      1404 2.58661E+01-1.41559E-01 1.67417E-02-1.27460E-01-3.06352E-15-1.82371E-13
 -1      1405 2.52790E+01-2.01569E-01 2.52768E-02 1.44073E-01 3.16414E-15-2.31776E-13
 -1      1406 2.57395E+01-1.66035E-01 2.88283E-02-4.56499E-01 8.23421E-14-1.25559E-13
 -1      1407 2.50573E+01-1.50262E-01 2.19523E-02-5.54839E-01 9.68427E-14 4.80033E-14
 -1      1408 2.53351E+01-2.74764E-01 3.95728E-02-5.34079E-01 1.11895E-13-2.04567E-13
 -1      1409 2.46222E+01-1.41279E-01 2.79774E-02-8.61517E-01 5.49075E-14 1.40124E-13
 -1      1410 2.34822E+01-7.23627E-02 1.14315E-02-9.34529E-01 2.46790E-14 2.17687E-13
 -1      1411 2.48325E+01-2.49991E-01 4.07804E-02-1.31320E+00 1.72430E-13-4.22613E-14
 -1      1412 2.28225E+01-1.01091E-02 2.32059E-03-1.01698E+00-2.46331E-15 2.43291E-13
 -1      1413 2.15853E+01 9.65744E-02-2.07001E-02-9.96323E-01-2.53157E-14 2.25833E-13
 -1      1414 2.37809E+01-5.22825E-02 1.49272E-02-1.81690E+00 3.80447E-14 1.10773E-13
 -1      1415 2.09815E+01 1.81021E-01-3.87357E-02-6.99738E-01 5.49977E-14 2.45692E-13
 -1      1416 2.02210E+01 2.58793E-01-5.45710E-02-5.61234E-01 4.38816E-14 2.73961E-13
 -1      1417 2.25228E+01 2.58602E-01-4.02215E-02-1.58307E+00 2.23415E-14 2.14412E-13
 -1      1418 2.00230E+01 2.91044E-01-6.24926E-02 1.93163E-02-1.13923E-13 2.99885E-13
 -1      1419 2.01556E+01 2.77018E-01-6.00333E-02 2.01868E-01-9.16385E-14 2.46712E-13
 -1      1420 2.17095E+01 4.82574E-01-8.64801E-02-5.06629E-01-3.09683E-14 1.96650E-13
 -1      1421 2.04959E+01 2.23234E-01-4.78175E-02 7.31061E-01 1.74166E-15 1.54994E-13
 -1      1422 2.14469E+01 1.29337E-01-2.85885E-02 8.39932E-01 9.78384E-15 8.44463E-14
 -1      1423 2.18541E+01 4.41728E-01-7.89182E-02 8.72170E-01-1.10092E-13 1.20366E-13
 -1      1424 2.21055E+01 4.47167E-02-1.11803E-02 1.02808E+00-4.64134E-14 2.77001E-14
 -1      1425 2.33712E+01-5.62106E-02 1.08451E-02 1.01721E+00-8.67769E-14-1.05568E-13
 -1      1426 2.28634E+01 1.70624E-01-2.51191E-02 1.74286E+00-9.10123E-14-9.11562E-14
 -1      1427 2.39921E+01-1.04073E-01 1.57511E-02 8.52444E-01-3.48645E-14-1.38639E-13
 -1      1428 2.50318E+01-1.57821E-01 2.98287E-02 7.65832E-01 5.99295E-14-1.48929E-13
 -1      1429 2.41261E+01-1.24002E-01 2.44729E-02 1.73952E+00-9.60846E-14-1.81438E-13
 -1      1430 2.53869E+01-1.54436E-01 2.14527E-02 4.35934E-01 2.81910E-14-1.67297E-14
 -1      1431 2.59268E+01-1.58429E-01 2.66333E-02 3.40494E-01 5.12004E-14 3.39485E-14
 -1      1432 2.50520E+01-2.71242E-01 4.26201E-02 1.11303E+00 3.58030E-14-1.21715E-13
 -1      1433 2.59782E+01-1.29835E-01 1.42214E-02 3.06592E-02 3.32789E-14 4.44263E-14
 -1      1434 2.60298E+01-1.08135E-01 1.41863E-02-3.70072E-02-2.87791E-14-2.50000E-14
 -1      1435 2.53993E+01-2.60418E-01 3.59521E-02 3.34969E-01 5.19029E-14-5.36021E-14
 -1      1436 2.58493E+01-7.89799E-02 5.13700E-03-2.41926E-01-8.02752E-14 1.04572E-13
 -1      1437 2.55679E+01-5.27987E-02 3.44300E-03-2.76312E-01-9.24399E-14 7.76046E-14
 -1      1438 2.52250E+01-1.73607E-01 2.07703E-02-2.76456E-01-7.66644E-14-7.06900E-14
 -1      1439 2.52546E+01-3.34348E-02-4.21626E-04-3.73393E-01-1.07211E-13 1.96926E-14
 -1      1440 2.48095E+01-1.27075E-02-2.19265E-03-3.83283E-01-8.39949E-14-1.53846E-13
 -1      1441 2.47081E+01-8.26141E-02 7.59524E-03-6.27960E-01-2.03941E-13 9.10244E-14
 -1      1442 2.44464E+01-3.36748E-03-2.27244E-03-4.03634E-01-5.92584E-14-2.35367E-13
 -1      1443 2.39615E+01 1.00212E-02-3.83716E-03-3.99607E-01-1.64359E-14-3.13190E-13
 -1      1444 2.40273E+01-1.82459E-02-6.80606E-04-7.60136E-01-1.39506E-13-2.82257E-14
 -1      1445 2.36033E+01 1.25801E-02-2.03346E-03-3.76641E-01 7.09834E-14-3.03488E-13
 -1      1446 2.31498E+01 2.00483E-02-3.45433E-03-3.66415E-01 1.23495E-13-2.43569E-13
 -1      1447 2.33130E+01 1.74296E-02-4.77315E-03-7.51794E-01 9.57025E-16-2.86035E-13
 -1      1448 2.28267E+01 1.89858E-02-1.10316E-03-3.24410E-01-1.99949E-15-9.10227E-14
 -1      1449 2.24361E+01 2.25378E-02-2.43261E-03-3.12509E-01 2.42052E-14-1.15382E-13
 -1      1450 2.26440E+01 3.25940E-02-6.20704E-03-6.71300E-01 1.99775E-13-1.86338E-13
 -1      1451 2.21605E+01 1.99752E-02-2.18268E-04-2.65936E-01 1.01535E-13-8.93018E-14
 -1      1452 2.18411E+01 2.12260E-02-1.44277E-03-2.54613E-01 5.06470E-14 1.28408E-13
 -1      1453 2.20585E+01 3.58549E-02-6.22681E-03-5.64008E-01 3.35903E-14-1.36213E-13
 -1      1454 2.16148E+01 1.83351E-02 3.80688E-04-2.10835E-01-2.45533E-14-3.34784E-14
 -1      1455 2.13624E+01 1.83565E-02-7.02032E-04-2.01009E-01-6.79639E-14-4.79677E-14
 -1      1456 2.15687E+01 3.32838E-02-5.61057E-03-4.55309E-01-1.42390E-14-1.91632E-13
 -1      1457 2.11819E+01 1.56852E-02 6.95792E-04-1.63082E-01-4.66424E-16 1.17762E-13
 -1      1458 2.09873E+01 1.51188E-02-2.18978E-04-1.54979E-01 7.60106E-14 1.10449E-13
 -1      1459 2.11720E+01 2.84485E-02-4.77811E-03-3.57255E-01-6.01741E-14-1.52228E-13
 -1      1460 2.08465E+01 1.28672E-02 8.06552E-04-1.23642E-01-3.64622E-14 1.23056E-13
 -1      1461 2.06997E+01 1.20710E-02 6.48693E-05-1.17168E-01-1.72512E-13-4.39948E-14
 -1      1462 2.08585E+01 2.31911E-02-3.93305E-03-2.74190E-01 3.53949E-14-1.38842E-13
 -1      1463 2.05919E+01 1.02688E-02 7.94224E-04-9.20553E-02-4.23054E-14-4.24127E-14
 -1      1464 2.04831E+01 9.43168E-03 2.13668E-04-8.69934E-02-4.62439E-14-1.15528E-13
 -1      1465 2.06158E+01 1.83448E-02-3.16369E-03-2.06484E-01-1.12500E-13-9.37916E-14
 -1      1466 2.04020E+01 8.03680E-03 7.18666E-04-6.72933E-02-6.25484E-14-1.16583E-13
 -1      1467 2.03229E+01 7.25182E-03 2.77799E-04-6.33986E-02 7.34971E-14-9.68850E-14
 -1      1468 2.04313E+01 1.42127E-02-2.50121E-03-1.52706E-01-9.00736E-14-1.28610E-13
 -1      1469 2.02631E+01 6.19963E-03 6.17293E-04-4.81863E-02 2.19019E-13-1.22343E-13
 -1      1470 2.02068E+01 5.50796E-03 2.91442E-04-4.52264E-02 1.76103E-13 6.92968E-14
 -1      1471 2.02935E+01 1.08454E-02-1.95011E-03-1.10779E-01 1.33114E-13-9.41839E-14
 -1      1472 2.01636E+01 4.73403E-03 5.10146E-04-3.36148E-02 4.37501E-14 3.46772E-13
 -1      1473 2.01247E+01 4.14972E-03 2.74620E-04-3.13842E-02-3.68860E-14 2.80168E-13
 -1      1474 2.01926E+01 8.18716E-03-1.50349E-03-7.85411E-02 2.49076E-13 5.62593E-15
 -1      1475 2.00942E+01 3.59999E-03 4.03703E-04-2.25797E-02-1.12941E-13 3.29314E-13
 -1      1476 2.00684E+01 3.12287E-03 2.35411E-04-2.09009E-02-5.86248E-14 1.62607E-13
 -1      1477 2.01203E+01 6.15179E-03-1.15049E-03-5.39898E-02-1.70832E-14 4.47247E-13
 -1      1478 2.00478E+01 2.75526E-03 2.94654E-04-1.42160E-02 1.06471E-13 1.35178E-13
 -1      1479 2.00319E+01 2.37298E-03 1.74588E-04-1.29355E-02 1.31587E-13 2.49687E-13
 -1      1480 2.00701E+01 4.65072E-03-8.81338E-04-3.53593E-02 4.18486E-14 4.91373E-13
 -1      1481 2.00187E+01 2.14736E-03 1.76750E-04-7.80386E-03-1.54558E-14 2.44522E-13
 -1      1482 2.00104E+01 1.82601E-03 1.01906E-04-6.79733E-03-2.27685E-14 2.90515E-13
 -1      1483 2.00368E+01 3.59704E-03-6.81233E-04-2.11504E-02 2.41145E-14 4.92857E-13
 -1      1484 2.00029E+01 1.67621E-03 6.52802E-05-2.84846E-03 9.52919E-14 3.26084E-13
 -1      1485 2.00005E+01 1.33197E-03 7.44270E-05-2.03727E-03 1.28890E-13 4.89288E-13
 -1      1486 2.00162E+01 2.85394E-03-5.11907E-04-1.02305E-02 8.80495E-14 3.16074E-13
 -1      1487 1.99969E+01 1.34246E-03 1.08795E-04 7.61720E-04 5.03689E-14 4.46003E-13
 -1      1488 1.99988E+01 5.90153E-04 3.58496E-04 1.41531E-03-9.85981E-14 4.78703E-13
 -1      1489 2.00051E+01 2.06748E-03-3.13111E-04-2.13969E-03 1.66832E-13 4.02897E-13
 -1      1490 1.99983E+01-1.00741E-03 8.57239E-04 1.50095E-03-3.33709E-13 2.99384E-13
 -1      1491 2.00004E+01-9.89971E-04 1.49740E-04 2.19617E-03-3.38384E-13 2.44986E-13
 -1      1492 2.02151E+01 7.54240E-02-1.51589E-01 4.77156E-01 1.07678E-13 9.10948E-13
 -1      1493 2.14745E+01 2.15875E-01-2.29017E-01 7.13535E-01 9.76996E-14 1.07640E-12
 -1      1494 2.16852E+01 8.79095E-01-8.55095E-02 2.04949E+00 1.88446E-13 7.21229E-13
 -1      1495 1.93053E+01 3.26938E-02-2.11955E-02 1.79032E-01 6.89032E-14 7.01689E-13
 -1      1496 1.97165E+01 1.13838E-01-6.23843E-02 2.31138E-01 7.14567E-14 8.21952E-13
 -1      1497 2.02768E+01 1.87454E-01-5.51838E-02 7.72616E-01 1.61454E-13 5.55958E-13
 -1      1498 1.89457E+01 1.57599E-02 5.61635E-03 4.46175E-02 5.32491E-14 5.60541E-13
 -1      1499 1.90732E+01 5.24093E-02 1.15753E-03 7.13870E-02 4.64845E-14 6.38944E-13
 -1      1500 1.95517E+01 7.25721E-02-1.23168E-02 2.83364E-01 1.16875E-13 4.25288E-13
 -1      1501 1.88651E+01 8.14618E-03 6.80959E-03-2.13779E-02 4.34219E-14 4.61787E-13
 -1      1502 1.88647E+01 2.72336E-02 1.12248E-02-6.13825E-03 3.67371E-14 5.19688E-13
 -1      1503 1.92419E+01 3.25921E-02-2.77547E-03 6.27189E-02 7.58057E-14 3.10122E-13
 -1      1504 1.89330E+01 4.65681E-03 4.51243E-03-5.68811E-02 3.53407E-14 3.79349E-13
 -1      1505 1.88678E+01 1.58654E-02 8.66433E-03-4.74668E-02 3.04943E-14 4.39187E-13
 -1      1506 1.91601E+01 1.56883E-02-2.09809E-03-5.05816E-02 7.17291E-14 2.66704E-13
 -1      1507 1.90859E+01 2.98653E-03 2.90966E-03-7.75655E-02-1.01273E-14 3.96285E-13
 -1      1508 1.89850E+01 1.01440E-02 5.53865E-03-7.12486E-02-4.98484E-15 3.86151E-13
 -1      1509 1.92091E+01 7.93670E-03-2.32313E-03-1.13952E-01 2.51340E-15 2.56561E-13
 -1      1510 1.92913E+01 2.29081E-03 1.99325E-03-9.10645E-02 9.57697E-15 4.23002E-13
 -1      1511 1.91687E+01 7.25807E-03 3.63391E-03-8.63457E-02-7.10315E-15 4.00203E-13
 -1      1512 1.93374E+01 4.38799E-03-2.33246E-03-1.52545E-01-1.40643E-14 2.34283E-13
 -1      1513 1.95339E+01 2.18217E-03 1.37333E-03-1.01676E-01 3.22557E-14 3.30689E-13
 -1      1514 1.93957E+01 6.00696E-03 2.55999E-03-9.76033E-02 3.39628E-14 3.68192E-13
 -1      1515 1.95177E+01 3.10183E-03-2.27962E-03-1.79285E-01 4.49283E-14 2.00107E-13
 -1      1516 1.98077E+01 2.41390E-03 8.58663E-04-1.11964E-01 6.02320E-14 2.22949E-13
 -1      1517 1.96555E+01 5.76377E-03 1.89934E-03-1.07907E-01 5.11177E-14 3.00206E-13
 -1      1518 1.97364E+01 3.13421E-03-2.31277E-03-2.01542E-01 7.97460E-14 1.23942E-13
 -1      1519 2.01125E+01 2.77041E-03 4.00768E-04-1.23308E-01 3.91878E-14 1.23141E-13
 -1      1520 1.99453E+01 6.09154E-03 1.43699E-03-1.18883E-01 4.54689E-14 1.80193E-13
 -1      1521 1.99880E+01 3.87261E-03-2.45818E-03-2.23565E-01 8.60618E-14 8.30898E-14
 -1      1522 2.04502E+01 3.01100E-03 2.03322E-05-1.36013E-01 4.55262E-14 1.23668E-14
 -1      1523 2.02660E+01 6.57908E-03 1.07487E-03-1.31086E-01 6.28566E-14 9.77265E-14
 -1      1524 2.02709E+01 4.78376E-03-2.66723E-03-2.47291E-01 8.79984E-14 1.08626E-13
 -1      1525 2.08219E+01 2.83072E-03-2.14037E-04-1.49172E-01-2.48320E-15 6.23633E-15
 -1      1526 2.06195E+01 6.74321E-03 7.66751E-04-1.43920E-01 5.89681E-15-1.23269E-14
 -1      1527 2.05851E+01 5.27669E-03-2.83902E-03-2.72432E-01 3.22970E-14 8.67932E-14
 -1      1528 2.12244E+01 1.83321E-03-1.77816E-04-1.60349E-01 5.76612E-14-8.09994E-14
 -1      1529 2.10052E+01 5.95745E-03 4.98500E-04-1.55379E-01 2.36198E-14-3.18062E-14
 -1      1530 2.09287E+01 4.60808E-03-2.81303E-03-2.96107E-01 4.30535E-14-8.16166E-15
 -1      1531 2.16456E+01-4.67155E-04 3.24033E-04-1.65179E-01 2.64202E-14-2.10990E-13
 -1      1532 2.14161E+01 3.41359E-03 2.93673E-04-1.61681E-01 4.43396E-14-1.29323E-13
 -1      1533 2.12949E+01 1.82475E-03-2.35224E-03-3.12227E-01 1.00059E-13-8.51211E-14
 -1      1534 2.20596E+01-4.57160E-03 1.55159E-03-1.57064E-01-5.80493E-15-2.65435E-13
 -1      1535 2.18344E+01-1.83437E-03 2.28879E-04-1.56957E-01 5.20612E-15-2.28081E-13
 -1      1536 2.16682E+01-4.20699E-03-1.13990E-03-3.10858E-01 2.48076E-14-6.81287E-14
 -1      1537 2.24213E+01-1.07825E-02 3.75893E-03-1.27396E-01-2.29211E-14-1.84750E-13
 -1      1538 2.22264E+01-1.06451E-02 4.40330E-04-1.33343E-01-5.31560E-14-2.65499E-13
 -1      1539 2.20203E+01-1.45730E-02 1.17474E-03-2.78126E-01-5.50853E-14-1.40542E-13
 -1      1540 2.26642E+01-1.87712E-02 6.99161E-03-6.70528E-02 6.72214E-14-2.09903E-13
 -1      1541 2.25383E+01-2.32460E-02 1.08730E-03-8.21012E-02 4.25103E-14-1.47508E-13
 -1      1542 2.23072E+01-2.97079E-02 4.82866E-03-1.97675E-01-1.64248E-14-1.14506E-13
 -1      1543 2.27047E+01-2.69434E-02 1.07134E-02 2.98526E-02-8.25078E-14-2.32763E-13
 -1      1544 2.26968E+01-3.82930E-02 2.22151E-03 3.33103E-03 6.95277E-15-2.33946E-13
 -1      1545 2.24697E+01-4.82619E-02 9.64541E-03-5.52407E-02 4.20792E-14 6.22506E-15
 -1      1546 2.24594E+01-3.18897E-02 1.33782E-02 1.59418E-01-4.64563E-14-3.49165E-14
 -1      1547 2.26184E+01-5.17504E-02 3.55326E-03 1.21731E-01-8.98275E-14-1.78394E-13
 -1      1548 2.24408E+01-6.55961E-02 1.46221E-02 1.52195E-01-1.12101E-13-3.15275E-14
 -1      1549 2.18793E+01-2.87255E-02 1.23831E-02 3.00040E-01-3.69678E-14 2.60521E-14
 -1      1550 2.22334E+01-5.65114E-02 4.19806E-03 2.56748E-01 5.62571E-15 3.51247E-14
 -1      1551 2.21640E+01-7.27351E-02 1.77181E-02 4.03233E-01-4.58479E-14 5.04787E-14
 -1      1552 2.09980E+01-1.34615E-02 5.13544E-03 4.08796E-01-3.59652E-15 5.78149E-14
 -1      1553 2.15257E+01-4.44360E-02 2.75541E-03 3.72057E-01-2.68401E-14 4.48808E-14
 -1      1554 2.16253E+01-5.82246E-02 1.62172E-02 6.40607E-01-6.44458E-14 9.76840E-14
 -1      1555 1.99696E+01 1.28188E-02-8.39083E-03 4.31327E-01 1.41856E-13-1.63980E-13
 -1      1556 2.05779E+01-1.18270E-02-1.74536E-03 4.17192E-01 8.98175E-14 4.97657E-14
 -1      1557 2.08885E+01-1.45268E-02 8.55685E-03 7.75067E-01 1.03671E-13 1.46567E-13
 -1      1558 1.90588E+01 4.10439E-02-2.37128E-02 3.29672E-01-3.01937E-14-3.29337E-13
 -1      1559 1.95906E+01 3.41750E-02-8.48515E-03 3.49946E-01 3.65524E-14-2.96180E-13
 -1      1560 2.01128E+01 5.19832E-02-3.66241E-03 7.18128E-01 1.56273E-13-3.58515E-14
 -1      1561 1.85557E+01 5.72989E-02-3.27659E-02 1.15169E-01 6.02123E-15-3.17302E-13
 -1      1562 1.88419E+01 7.50107E-02-1.42783E-02 1.67894E-01-5.92547E-14-3.71848E-13
 -1      1563 1.95215E+01 1.16028E-01-1.55591E-02 4.38507E-01-1.44416E-14-2.59268E-13
 -1      1564 1.86405E+01 5.22791E-02-2.91358E-02-1.42373E-01-4.75618E-14-2.88346E-13
 -1      1565 1.85794E+01 9.04753E-02-1.50252E-02-7.53113E-02 2.69298E-14-2.85443E-13
 -1      1566 1.93147E+01 1.44881E-01-2.11334E-02 5.42209E-03-2.02859E-14-2.25740E-13
 -1      1567 1.92839E+01 2.91125E-02-1.41411E-02-3.48060E-01 5.62484E-14-2.60507E-13
 -1      1568 1.88968E+01 7.33492E-02-9.31988E-03-2.91502E-01 3.14453E-14-2.45786E-13
 -1      1569 1.95673E+01 1.20159E-01-1.85414E-02-4.29815E-01 4.23966E-15-2.11548E-13
 -1      1570 2.02637E+01 4.58892E-04 3.84030E-03-4.36902E-01 6.24543E-14-3.87315E-13
 -1      1571 1.96831E+01 3.47188E-02-1.29392E-04-4.08026E-01 7.00904E-14-2.85008E-13
 -1      1572 2.01878E+01 5.49031E-02-1.08966E-02-7.15129E-01 8.65714E-14-1.42161E-13
 -1      1573 2.12838E+01-2.11133E-02 1.67519E-02-4.03597E-01 4.72983E-14-5.53051E-13
 -1      1574 2.06830E+01-5.65270E-03 7.73332E-03-4.04469E-01 1.97589E-14-4.73274E-13
 -1      1575 2.09706E+01-1.71505E-02-2.81257E-03-7.79547E-01 7.47900E-14-2.83228E-13
 -1      1576 2.21043E+01-3.03730E-02 2.11543E-02-2.89752E-01-6.47876E-14-6.00138E-13
 -1      1577 2.16225E+01-3.28308E-02 1.13518E-02-3.10955E-01-2.04177E-15-5.34330E-13
 -1      1578 2.16985E+01-6.67033E-02 2.78468E-03-6.52244E-01-4.30211E-15-2.66941E-13
 -1      1579 2.26067E+01-2.91242E-02 1.86607E-02-1.49913E-01-1.42792E-13-4.04288E-13
 -1      1580 2.23114E+01-4.27501E-02 1.06357E-02-1.78813E-01-8.74890E-14-5.94580E-13
 -1      1581 2.22234E+01-8.38143E-02 5.28893E-03-4.20480E-01-1.12578E-13-2.98802E-13
 -1      1582 2.27863E+01-2.21907E-02 1.28551E-02-2.50794E-02-1.16198E-13-1.55964E-13
 -1      1583 2.26782E+01-3.94962E-02 7.43621E-03-5.21012E-02-1.20509E-13-3.41740E-13
 -1      1584 2.24908E+01-7.55256E-02 5.48505E-03-1.73436E-01-1.91892E-13-1.41788E-13
 -1      1585 2.27072E+01-1.38593E-02 6.81717E-03 6.52800E-02-1.03368E-13 8.22849E-14
 -1      1586 2.27476E+01-2.96385E-02 3.75618E-03 4.48817E-02-1.31447E-13-1.46718E-13
 -1      1587 2.25205E+01-5.48014E-02 4.47448E-03 3.08758E-02-1.88880E-13-3.00935E-14
 -1      1588 2.24572E+01-6.63344E-03 2.14845E-03 1.18668E-01-8.00575E-16 1.98341E-13
 -1      1589 2.25944E+01-1.84666E-02 8.49457E-04 1.05824E-01-3.12814E-15 1.41502E-13
 -1      1590 2.23710E+01-3.22715E-02 3.12172E-03 1.69916E-01-1.19620E-13 6.67045E-15
 -1      1591 2.21176E+01-1.41606E-03-7.88435E-04 1.41596E-01-2.11604E-14 3.38209E-13
 -1      1592 2.23043E+01-8.91481E-03-9.04147E-04 1.35183E-01 4.65116E-14 2.89209E-13
 -1      1593 2.21101E+01-1.36884E-02 1.89267E-03 2.45809E-01-9.67195E-15 1.28525E-13
 -1      1594 2.17505E+01 1.83407E-03-2.27758E-03 1.43266E-01 1.59762E-13-4.77379E-14
 -1      1595 2.19513E+01-1.99336E-03-1.66253E-03 1.41492E-01 1.45815E-13 1.72726E-13
 -1      1596 2.17968E+01-7.98181E-04 9.51788E-04 2.72325E-01 2.61650E-13 1.86738E-13
 -1      1597 2.13970E+01 3.53967E-03-2.78508E-03 1.32124E-01 1.55324E-13-3.82082E-13
 -1      1598 2.15890E+01 2.38525E-03-1.76643E-03 1.33280E-01 1.06369E-13-1.84549E-13
 -1      1599 2.14750E+01 6.87182E-03 3.03736E-04 2.65663E-01 2.13451E-13-1.97107E-13
 -1      1600 2.10803E+01 4.18367E-03-2.72378E-03 1.14594E-01-4.32164E-14-3.92897E-13
 -1      1601 2.12509E+01 4.75221E-03-1.53069E-03 1.17347E-01 2.71067E-14-2.99611E-13
 -1      1602 2.11729E+01 1.06006E-02-1.06418E-04 2.39826E-01 7.84343E-14-1.49835E-13
 -1      1603 2.08106E+01 4.17286E-03-2.38579E-03 9.50018E-02 2.55435E-14-2.19807E-13
 -1      1604 2.09547E+01 5.71179E-03-1.17180E-03 9.84263E-02 2.31736E-14-2.52730E-13
 -1      1605 2.09059E+01 1.17093E-02-3.42453E-04 2.05146E-01-8.46935E-15-5.29225E-14
 -1      1606 2.05900E+01 3.80431E-03-1.95125E-03 7.59635E-02-4.28664E-14-6.14927E-14
 -1      1607 2.07069E+01 5.78071E-03-8.11803E-04 7.94772E-02-6.70866E-14-2.12295E-13
 -1      1608 2.06802E+01 1.12627E-02-4.58908E-04 1.68424E-01-4.23014E-14 7.08205E-14
 -1      1609 2.04153E+01 3.27608E-03-1.51893E-03 5.88657E-02-1.23060E-13-3.20924E-15
 -1      1610 2.05070E+01 5.34500E-03-5.06152E-04 6.21382E-02-3.47986E-15 1.57296E-15
 -1      1611 2.04962E+01 1.00149E-02-4.97366E-04 1.33676E-01-4.66674E-14 2.06322E-13
 -1      1612 2.02810E+01 2.71095E-03-1.13624E-03 4.42845E-02 8.21702E-14 1.68441E-14
 -1      1613 2.03508E+01 4.66953E-03-2.71126E-04 4.71570E-02-9.98169E-14-6.00286E-14
 -1      1614 2.03507E+01 8.45455E-03-4.88104E-04 1.02943E-01-1.13153E-13 2.07331E-13
 -1      1615 2.01807E+01 2.18006E-03-8.21644E-04 3.22976E-02 4.14374E-14-5.16451E-14
 -1      1616 2.02323E+01 3.92497E-03-1.03722E-04 3.47214E-02 1.32677E-13 4.32272E-14
 -1      1617 2.02388E+01 6.87529E-03-4.53064E-04 7.69789E-02 9.79548E-14 2.93491E-13
 -1      1618 2.01083E+01 1.72170E-03-5.79843E-04 2.26965E-02 8.89689E-14-2.16598E-13
 -1      1619 2.01450E+01 3.21609E-03 5.87077E-06 2.46912E-02 9.95025E-14-6.78103E-14
 -1      1620 2.01552E+01 5.44012E-03-4.09025E-04 5.57502E-02 1.56051E-13 2.03028E-13
 -1      1621 2.00580E+01 1.35317E-03-4.10722E-04 1.51221E-02 5.97787E-14-3.50485E-13
 -1      1622 2.00831E+01 2.60390E-03 6.71659E-05 1.67488E-02 3.35088E-14-2.65159E-13
 -1      1623 2.00948E+01 4.23108E-03-3.69704E-04 3.87787E-02 1.30412E-13-1.86129E-14
 -1      1624 2.00253E+01 1.07322E-03-3.11255E-04 9.15854E-03 8.05792E-14-3.67125E-13
 -1      1625 2.00411E+01 2.11628E-03 8.58012E-05 1.05003E-02 3.52969E-14-2.46029E-13
 -1      1626 2.00528E+01 3.27870E-03-3.45918E-04 2.53665E-02 1.36714E-13 8.25337E-14
 -1      1627 2.00065E+01 8.65611E-04-2.56898E-04 4.41998E-03 2.17699E-14-4.67430E-13
 -1      1628 2.00150E+01 1.75063E-03 6.82865E-05 5.56440E-03 7.19680E-14-3.88833E-13
 -1      1629 2.00255E+01 2.56934E-03-3.40412E-04 1.47740E-02 8.16964E-14 3.44112E-13
 -1      1630 1.99986E+01 6.78610E-04-1.23524E-04 6.34090E-04-1.08903E-13-2.82976E-13
 -1      1631 2.00012E+01 1.45445E-03 5.58691E-05 1.67288E-03-4.65252E-14-4.19486E-13
 -1      1632 2.00094E+01 2.07223E-03-3.06229E-04 6.41979E-03-2.94416E-14 2.79470E-13
 -1      1633 1.99983E+01 2.01862E-04 4.24672E-04-1.70719E-03 1.12317E-14-1.40711E-13
 -1      1634 1.99968E+01 8.42256E-04 1.83907E-04-9.98261E-04 8.36371E-15-2.66894E-13
 -1      1635 2.00018E+01 1.21718E-03-1.50400E-04 1.58375E-04 1.57948E-15 2.15719E-13
 -1      1636 1.99986E+01-1.01102E-03 7.71629E-04-1.29306E-03-3.12396E-14-2.56688E-14
 -1      1637 2.00010E+01-1.94541E-03-1.39318E-04-6.86364E-05 8.19787E-13 4.17413E-13
 -1      1638 2.00007E+01-1.00739E-03 2.48469E-04-6.42687E-04 1.19577E-13 5.17967E-13
 -1      1639 2.00011E+01 4.46366E-03-2.15748E-04 3.42045E-03 1.21143E-12 1.04941E-13
 -1      1640 2.00011E+01 1.46347E-03-1.09939E-04 2.66066E-03 1.05647E-12 7.30039E-14
 -1      1641 2.00022E+01 5.41880E-03-2.32971E-04 3.08327E-03 3.96297E-13 4.87278E-13
 -1      1642 2.00006E+01 1.71491E-02-1.57191E-04 6.51168E-03 1.15915E-12-5.12166E-14
 -1      1643 2.00009E+01 1.03263E-02-1.41048E-04 5.95248E-03 1.21102E-12-5.92117E-14
 -1      1644 2.00019E+01 1.48605E-02-3.35343E-04 9.45737E-03 8.79355E-13-4.77088E-14
 -1      1645 2.00000E+01 3.38786E-02-8.14115E-05 8.14988E-03 6.95221E-13-3.48478E-13
 -1      1646 2.00003E+01 2.48005E-02-8.79531E-05 7.94825E-03 1.02971E-12-1.38065E-13
 -1      1647 2.00010E+01 2.86629E-02-1.81508E-04 1.42250E-02 6.47246E-13-2.49679E-13
 -1      1648 1.99993E+01 5.09769E-02-3.31293E-05 8.02547E-03 8.27727E-14-3.67508E-13
 -1      1649 1.99997E+01 4.18791E-02-3.53815E-05 8.18374E-03 5.60397E-13-4.52318E-13
 -1      1650 1.99999E+01 4.45710E-02 2.30168E-05 1.59386E-02 3.15425E-13-6.19478E-13
 -1      1651 1.99988E+01 6.55878E-02-1.98005E-06 6.23553E-03 3.87536E-14 2.47147E-14
 -1      1652 1.99991E+01 5.81556E-02-1.75597E-06 6.70993E-03-4.85912E-15-2.96228E-14
 -1      1653 1.99989E+01 5.99335E-02 2.18588E-04 1.43395E-02 1.25835E-13-3.77883E-13
 -1      1654 1.99985E+01 7.45030E-02 1.38953E-05 3.17833E-03 7.01897E-14-9.86473E-14
 -1      1655 1.99986E+01 7.04602E-02 1.56239E-05 3.86119E-03 5.62914E-14-1.36446E-14
 -1      1656 1.99981E+01 7.20993E-02 3.68880E-04 9.81575E-03-5.77796E-15 1.99031E-14
 -1      1657 1.99984E+01 7.59813E-02 1.83355E-05-5.24546E-04 6.25493E-13 2.84498E-13
 -1      1658 1.99984E+01 7.61731E-02 2.11707E-05 2.31152E-04 1.90168E-13 3.38128E-13
 -1      1659 1.99977E+01 7.87080E-02 4.50397E-04 3.32003E-03 3.21340E-13 1.85332E-13
 -1      1660 1.99986E+01 6.97148E-02 1.12254E-05-4.14479E-03 3.67334E-13-1.64379E-13
 -1      1661 1.99985E+01 7.41282E-02 1.55716E-05-3.46499E-03 4.17310E-13-1.62671E-13
 -1      1662 1.99977E+01 7.85402E-02 4.50702E-04-3.86251E-03 3.61821E-13 1.20767E-13
 -1      1663 1.99991E+01 5.69133E-02-9.76993E-06-6.95445E-03-4.78436E-13-4.90886E-13
 -1      1664 1.99988E+01 6.46654E-02-1.59243E-06-6.49252E-03 2.22175E-13-4.17773E-13
 -1      1665 1.99981E+01 7.15976E-02 3.67555E-04-1.03222E-02 4.68029E-14-5.52504E-13
 -1      1666 1.99997E+01 4.04318E-02-4.32401E-05-8.33585E-03-9.26942E-13-6.43275E-14
 -1      1667 1.99993E+01 4.97274E-02-3.78280E-05-8.19696E-03-6.39678E-13-4.19424E-13
 -1      1668 1.99990E+01 5.92439E-02 2.18161E-04-1.47247E-02-3.20112E-13-8.24227E-13
 -1      1669 2.00004E+01 2.30964E-02-9.59144E-05-7.96171E-03-8.01766E-13 1.16448E-13
 -1      1670 2.00000E+01 3.21936E-02-9.38494E-05-8.20001E-03-1.06111E-12 4.59635E-13
 -1      1671 2.00000E+01 4.36503E-02 1.48864E-05-1.61358E-02-5.28328E-13 1.39341E-13
 -1      1672 2.00009E+01 8.77549E-03-1.76287E-04-5.76701E-03-1.14252E-12-2.42750E-13
 -1      1673 2.00007E+01 1.54497E-02-1.69276E-04-6.36975E-03-7.92579E-13 8.33295E-14
 -1      1674 2.00012E+01 2.74979E-02-1.98199E-04-1.41200E-02-6.53092E-13 2.16941E-14
 -1      1675 2.00014E+01 5.05302E-04-5.91293E-05-2.44749E-03-9.83773E-13 2.11619E-13
 -1      1676 2.00010E+01 3.15014E-03-2.48045E-04-3.27301E-03-1.06224E-12-1.56178E-13
 -1      1677 2.00019E+01 1.39629E-02-3.53169E-04-9.00791E-03-4.39427E-13-2.89653E-13
 -1      1678 2.00014E+01 1.73291E-05 2.22984E-04 2.94350E-04-4.18008E-13 1.19049E-13
 -1      1679 2.00016E+01-8.87760E-04-2.20486E-04-4.44146E-04-6.99283E-13 2.89798E-13
 -1      1680 2.00037E+01 7.37520E-03 7.94924E-05-4.03963E-03-2.49351E-13 4.15136E-13
 -1      1681 2.00036E+01 4.24851E-03 2.97048E-04-5.15786E-04-1.72340E-13 3.56480E-13
 -1      1682-5.44020E-01-1.42923E+01-1.60445E+00-7.75478E-01 8.86180E-13 2.63733E-13
 -1      1683-5.69148E-01-1.64669E+01-1.80843E+00 4.57114E-01 5.18419E-13 2.92960E-13
 -1      1684 1.53580E+00-7.81493E+00-1.10978E+00 8.39289E-01 6.16951E-13 9.40914E-14
 -1      1685 7.63270E-01-1.27970E+01-1.61182E+00 2.54537E-01 8.04468E-13 1.24574E-13
 -1      1686 7.20810E+00-5.93607E-01-4.82178E-01 4.71644E+00 2.74225E-13 7.49401E-14
 -1      1687 4.17517E+00-5.99792E+00-1.22056E+00 1.97337E+00 5.27689E-13 1.11022E-13
 -1      1688 1.68709E+01 5.15386E+00 2.23993E-01 9.65041E+00 2.20046E-13 3.82139E-13
 -1      1689 1.04749E+01 1.64806E+00-6.64244E-01 5.91025E+00 2.23155E-13 1.87184E-13
 -1      1690 3.16620E+01 6.15434E+00 9.47988E-01 1.22026E+01 2.74114E-13 6.86340E-13
 -1      1691 2.25238E+01 5.71605E+00 1.10164E-01 1.01565E+01 2.18936E-13 4.76952E-13
 -1      1692 4.48934E+01 5.21829E+00 1.51878E+00 1.08151E+01 2.30788E-13 5.01377E-13
 -1      1693 3.65884E+01 6.77570E+00 9.08306E-01 1.22318E+01 2.92766E-13 5.41345E-13
 -1      1694 5.28160E+01 3.77656E+00 1.73619E+00 4.18887E+00 2.64483E-13-3.70814E-14
 -1      1695 4.79353E+01 5.05624E+00 1.41130E+00 8.59067E+00 2.87201E-13 3.69482E-13
 -1      1696 5.41236E+01 3.72255E+00 1.80756E+00-3.81395E+00 2.04503E-13-5.42233E-13
 -1      1697 5.46917E+01 3.46598E+00 1.79645E+00 1.76407E+00 1.98314E-13-1.89931E-13
 -1      1698 4.60642E+01 5.52316E+00 1.39932E+00-1.03744E+01 5.34045E-13-9.84879E-13
 -1      1699 5.23246E+01 3.89702E+00 1.82617E+00-6.44887E+00 3.48860E-13-6.03850E-13
 -1      1700 3.30549E+01 6.76442E+00 7.18236E-01-1.19637E+01 7.81430E-13-1.20792E-12
 -1      1701 4.17217E+01 5.64015E+00 1.40928E+00-1.15300E+01 5.81341E-13-1.07780E-12
 -1      1702 1.98697E+01 5.39457E+00-3.97427E-03-9.66413E+00 1.03306E-12-1.15596E-12
 -1      1703 2.80859E+01 6.35296E+00 7.99079E-01-1.21178E+01 8.47766E-13-1.23479E-12
 -1      1704 9.59924E+00 3.99926E-01-6.80816E-01-5.25881E+00 1.07248E-12-1.02263E-12
 -1      1705 1.51098E+01 4.21093E+00 1.10687E-01-8.77599E+00 1.09612E-12-1.10900E-12
 -1      1706 4.03295E+00-7.06898E+00-1.17528E+00-1.94464E+00 1.07292E-12-5.58498E-13
 -1      1707 6.61121E+00-1.89738E+00-5.46865E-01-4.31803E+00 1.07092E-12-7.47125E-13
 -1      1708 3.69127E-01-1.37188E+01-1.69505E+00-3.83651E-02 8.64309E-13-3.74104E-13
 -1      1709 8.63390E-01-8.97707E+00-1.24013E+00-2.40665E-01 1.08247E-12-5.63841E-13
 -1      1710-6.15167E-01-1.62293E+01-1.75261E+00-6.35119E-01 2.14898E-13-3.31235E-13
 -1      1711-5.86610E-01-1.46321E+01-1.60725E+00 6.77364E-01 6.72518E-13-3.67900E-13
 -1      1712-5.77452E-01-1.43697E+01-1.66565E+00-1.13687E+00-7.55895E-13-6.11622E-13
 -1      1713-5.39244E-01-1.64569E+01-1.81395E+00 5.56932E-02-1.85962E-14-4.89497E-13
 -1      1714 1.15292E+00-8.39297E+00-1.30792E+00 8.11714E-02-1.34226E-12-7.60503E-13
 -1      1715 4.99154E-01-1.32937E+01-1.77662E+00-4.76530E-01-9.96758E-13-5.15560E-13
 -1      1716 6.41484E+00-1.05363E+00-6.91155E-01 4.04450E+00-1.55453E-12-1.23601E-12
 -1      1717 3.51822E+00-6.40116E+00-1.41984E+00 1.28163E+00-1.47427E-12-8.74634E-13
 -1      1718 1.77827E+01 4.06139E+00 1.48150E-01 9.28882E+00-1.38578E-12-1.33316E-12
 -1      1719 1.11507E+01 4.60154E-01-7.38288E-01 5.51994E+00-1.42275E-12-1.27354E-12
 -1      1720 3.14912E+01 6.22287E+00 9.35533E-01 1.23986E+01-1.04472E-12-1.45106E-12
 -1      1721 2.25264E+01 5.73570E+00 6.45667E-02 1.02858E+01-1.32638E-12-1.49303E-12
 -1      1722 4.54606E+01 4.97465E+00 1.54907E+00 1.02947E+01-6.15979E-13-1.23890E-12
 -1      1723 3.66540E+01 6.23033E+00 8.45981E-01 1.14199E+01-8.97504E-13-1.41709E-12
 -1      1724 5.51102E+01 3.69186E+00 2.02775E+00 4.85040E+00-2.75058E-13-9.37361E-13
 -1      1725 4.96213E+01 5.02652E+00 1.59164E+00 9.17297E+00-5.13173E-13-1.19371E-12
 -1      1726 5.59307E+01 3.68525E+00 1.95573E+00-3.26761E+00-3.35121E-13-1.33255E-13
 -1      1727 5.64033E+01 3.58333E+00 2.01394E+00 2.39683E+00-2.68174E-13-6.89448E-13
 -1      1728 4.71238E+01 5.37545E+00 1.41765E+00-9.50046E+00-5.33740E-13 6.08291E-13
 -1      1729 5.34573E+01 3.90047E+00 1.87202E+00-5.43737E+00-4.11005E-13 3.99680E-15
 -1      1730 3.36677E+01 6.67805E+00 7.25528E-01-1.20584E+01-7.22700E-13 9.92761E-13
 -1      1731 4.32587E+01 5.45008E+00 1.51335E+00-1.15888E+01-4.26187E-13 8.71525E-13
 -1      1732 2.00570E+01 4.41800E+00-1.24280E-01-9.02650E+00-8.96949E-13 8.67306E-13
 -1      1733 2.85825E+01 5.64379E+00 7.53268E-01-1.16473E+01-7.27085E-13 8.65086E-13
 -1      1734 8.97045E+00-1.81764E-01-8.82737E-01-4.70741E+00-8.46878E-13 7.80709E-13
 -1      1735 1.45269E+01 3.69257E+00-5.45526E-02-8.31989E+00-8.49099E-13 9.76774E-13
 -1      1736 3.20240E+00-7.46823E+00-1.42194E+00-1.06217E+00-8.10574E-13 4.21885E-13
 -1      1737 5.66689E+00-2.24438E+00-7.60346E-01-3.44919E+00-8.28670E-13 6.12566E-13
 -1      1738 2.59083E-01-1.39755E+01-1.80031E+00 5.21493E-01-3.69815E-13 2.86937E-13
 -1      1739 7.30401E-01-9.35717E+00-1.36911E+00 2.59640E-01-7.14984E-13 3.72410E-13
 -1      1740-6.08087E-01-1.65674E+01-1.81066E+00-1.33929E-01 4.57773E-13 4.21552E-13
 -1      1741-6.53851E-01-1.49353E+01-1.69764E+00 1.15892E+00-1.90292E-13 2.85355E-13
 -1      1742 2.42166E+01 1.01884E+00 2.82266E-01 7.42298E+00 9.94760E-14 4.01235E-13
 -1      1743 1.39499E+01-3.14465E+00-3.79611E-01 6.50980E+00 1.20459E-13 8.49321E-15
 -1      1744 2.00001E+01-1.42827E-03 3.21767E-04-2.01926E-03-6.40345E-14 3.45751E-13
 -1      1745 2.00012E+01 1.82895E-03 1.52247E-04-1.20973E-03 4.79021E-15 7.07715E-13
 -1      1746 6.78587E-01-9.85523E+00-1.11478E+00 2.72671E+00 3.23686E-13 7.72160E-14
 -1      1747 6.21121E+00-6.99918E+00-7.72795E-01 4.96665E+00 2.34701E-13-1.78118E-13
 -1      1748-1.34660E+00-1.11916E+01-1.28280E+00 2.73748E-01 2.57086E-13 5.42733E-13
 -1      1749 3.43930E+01 4.12898E+00 8.10031E-01 6.79662E+00 1.18877E-13 2.88325E-13
 -1      1750 4.22059E+01 6.41223E+00 1.26930E+00 4.74910E+00 2.43722E-13-2.38698E-14
 -1      1751 4.62835E+01 7.36217E+00 1.48431E+00 1.21261E+00 4.10449E-13-1.29674E-13
 -1      1752 4.65691E+01 7.05878E+00 1.55830E+00-2.44751E+00 4.35374E-13-3.79585E-13
 -1      1753 4.08351E+01 5.85823E+00 1.18715E+00-5.53327E+00 5.27467E-13-4.62963E-13
 -1      1754 3.21033E+01 3.54236E+00 6.94366E-01-7.10418E+00 5.09565E-13-6.99218E-13
 -1      1755 2.21733E+01 2.28676E-01 1.32216E-01-7.34664E+00 6.62914E-13-7.52398E-13
 -1      1756 1.30888E+01-4.07485E+00-4.30496E-01-6.39289E+00 5.75540E-13-5.85254E-13
 -1      1757 5.56824E+00-7.30409E+00-7.12478E-01-4.87020E+00 5.27356E-13-4.40252E-13
 -1      1758 1.71616E-01-1.00581E+01-1.13219E+00-2.23287E+00 3.27294E-13-5.13589E-13
 -1      1759-1.24733E+00-1.09590E+01-1.23405E+00-2.26517E-02-6.06529E-14-7.92921E-13
 -1      1760 5.78149E-01-1.03364E+01-1.22625E+00 2.05290E+00-4.45755E-13-7.36022E-13
 -1      1761 5.59753E+00-7.45577E+00-9.35085E-01 4.12568E+00-8.22120E-13-7.85094E-13
 -1      1762 1.43027E+01-3.63606E+00-3.74741E-01 6.20585E+00-8.59202E-13-8.84681E-13
 -1      1763 2.45975E+01 2.26928E-01 1.81699E-01 7.04028E+00-8.57092E-13-8.04468E-13
 -1      1764 3.49441E+01 3.72955E+00 8.32199E-01 6.50682E+00-8.13127E-13-9.20930E-13
 -1      1765 4.31072E+01 6.00311E+00 1.28433E+00 4.30106E+00-6.03018E-13-8.14460E-13
 -1      1766 4.83820E+01 7.10963E+00 1.66873E+00 1.64372E+00-4.66349E-13-4.82309E-13
 -1      1767 4.71658E+01 7.18548E+00 1.54709E+00-1.74706E+00-5.81868E-13-3.46945E-14
 -1      1768 4.18589E+01 5.78511E+00 1.24339E+00-5.00579E+00-4.69402E-13 1.71196E-13
 -1      1769 3.28862E+01 2.85960E+00 6.53682E-01-6.66861E+00-5.38236E-13 4.89386E-13
 -1      1770 2.24700E+01-4.50014E-01 1.06068E-01-6.96480E+00-5.38236E-13 6.29607E-13
 -1      1771 1.23796E+01-4.19995E+00-5.17186E-01-5.86104E+00-4.78284E-13 5.10036E-13
 -1      1772 4.91234E+00-7.89210E+00-9.43759E-01-3.99450E+00-2.46025E-13 3.80557E-13
 -1      1773 1.36960E-01-1.06167E+01-1.24996E+00-1.77427E+00 1.02085E-13 4.68181E-13
 -1      1774 2.28064E+01 1.97953E+00-2.40375E-02-2.70659E+00-1.52104E-13 6.33243E-13
 -1      1775 1.98338E+01 3.72267E+00-3.49491E-02-2.12443E+00-1.99282E-13-2.11123E-13
 -1      1776 2.00574E+01 3.56194E+00-4.25582E-02-2.41151E+00-2.32816E-13-1.40450E-13
 -1      1777 2.03627E+01 3.18006E+00-4.50546E-02-2.55784E+00-2.28337E-13-5.43940E-14
 -1      1778 2.05713E+01 2.80486E+00-1.41974E-01-2.82743E+00-2.40891E-13 6.77167E-14
 -1      1779 2.04335E+01 2.69344E+00-2.76291E-03-2.19011E+00-2.41675E-13-8.38461E-14
 -1      1780 1.93723E+01 4.20923E+00-2.02839E-02-1.24226E+00-1.13557E-13-3.22201E-13
 -1      1781 1.94461E+01 4.16694E+00-1.68742E-02-1.46476E+00-1.41272E-13-3.12774E-13
 -1      1782 1.92730E+01 4.32191E+00-1.68562E-02-8.37559E-01-7.02771E-14-3.32680E-13
 -1      1783 1.93173E+01 4.29595E+00-1.40712E-02-1.04502E+00-8.98830E-14-3.27819E-13
 -1      1784 1.95413E+01 3.81309E+00-8.96964E-03-1.08948E+00-1.10113E-13-3.05467E-13
 -1      1785 1.92186E+01 4.38727E+00-1.47746E-02-4.53490E-01-1.89523E-14-3.49205E-13
 -1      1786 1.92420E+01 4.37316E+00-1.30744E-02-6.49413E-01-4.31440E-14-3.44546E-13
 -1      1787 1.94404E+01 3.94145E+00-8.82297E-03-7.10974E-01-6.04096E-14-3.18018E-13
 -1      1788 1.91975E+01 4.41523E+00-1.35485E-02-8.07468E-02 2.30841E-14-3.42034E-13
 -1      1789 1.92046E+01 4.41090E+00-1.30238E-02-2.71236E-01 6.72563E-15-3.54657E-13
 -1      1790 1.93867E+01 4.01113E+00-8.70874E-03-3.46532E-01-1.13335E-14-3.31004E-13
 -1      1791 1.92059E+01 4.40942E+00-1.29692E-02 2.90229E-01 6.05536E-14-3.26872E-13
 -1      1792 1.91979E+01 4.41434E+00-1.36358E-02 9.95765E-02 4.27187E-14-3.37326E-13
 -1      1793 1.93704E+01 4.03226E+00-8.67563E-03 1.04440E-02 3.56539E-14-3.31778E-13
 -1      1794 1.92453E+01 4.36888E+00-1.30709E-02 6.69144E-01 1.03063E-13-3.10751E-13
 -1      1795 1.92208E+01 4.38387E+00-1.48831E-02 4.72715E-01 8.14439E-14-3.21179E-13
 -1      1796 1.93889E+01 4.00756E+00-8.74248E-03 3.67636E-01 7.42702E-14-3.16821E-13
 -1      1797 1.93216E+01 4.28983E+00-1.41203E-02 1.05919E+00 1.39033E-13-2.66974E-13
 -1      1798 1.92768E+01 4.31627E+00-1.70143E-02 8.54511E-01 1.14161E-13-2.94841E-13
 -1      1799 1.94448E+01 3.93472E+00-8.80315E-03 7.29474E-01 1.19232E-13-2.89605E-13
 -1      1800 1.94547E+01 4.15513E+00-1.70992E-02 1.48433E+00 1.89244E-13-2.03330E-13
 -1      1801 1.93777E+01 4.20029E+00-2.05909E-02 1.25681E+00 1.55588E-13-2.35824E-13
 -1      1802 1.95480E+01 3.80280E+00-8.94044E-03 1.10552E+00 1.56357E-13-2.41059E-13
 -1      1803 1.96816E+01 3.93024E+00-2.48886E-02 1.94779E+00 2.32684E-13-1.32110E-13
 -1      1804 1.95505E+01 4.00994E+00-2.69857E-02 1.69106E+00 2.12827E-13-1.72744E-13
 -1      1805 1.97233E+01 3.58602E+00-8.50134E-03 1.50087E+00 2.14680E-13-1.67841E-13
 -1      1806 2.00814E+01 3.52403E+00-4.48317E-02 2.44172E+00 2.71803E-13 7.39686E-15
 -1      1807 1.98468E+01 3.68746E+00-3.96757E-02 2.15195E+00 2.39983E-13-7.59670E-14
 -1      1808 2.00170E+01 3.23306E+00-5.19482E-03 1.89963E+00 2.46150E-13-7.70321E-14
 -1      1809 2.09072E+01 2.67813E+00-5.72500E-02 2.83180E+00 2.65490E-13 2.49481E-13
 -1      1810 2.04111E+01 3.09512E+00-5.01888E-02 2.58829E+00 2.63003E-13 9.98090E-14
 -1      1811 2.05198E+01 2.61213E+00 3.19324E-03 2.21309E+00 2.80312E-13 6.17909E-14
 -1      1812 2.16980E+01 1.21067E+00-1.21624E-01 2.31043E+00 2.19672E-13 5.55750E-13
 -1      1813 2.12529E+01 2.25869E+00 1.11688E-04 2.71739E+00 2.42858E-13 3.56465E-13
 -1      1814 2.09261E+01 1.68416E+00-2.26092E-02 2.11431E+00 2.62200E-13 2.49051E-13
 -1      1815 2.09269E+01 7.77785E-01-6.20170E-02 1.50570E+00 2.22378E-13 4.79724E-13
 -1      1816 2.17657E+01 2.45202E+00 9.06480E-02-3.02692E+00-2.04455E-13 2.71255E-13
 -1      1817 2.00926E+01 2.99726E-01-8.56691E-03 6.37073E-01 1.63241E-13 3.70152E-13
 -1      1818 2.06353E+01 4.41259E-01-1.22131E-02 1.01484E+00 1.85962E-13 4.28633E-13
 -1      1819 2.07330E+01 8.45327E-01 2.08821E-03 1.39144E+00 2.16556E-13 2.94979E-13
 -1      1820 2.14862E+01 1.73996E+00 7.93298E-02-2.31407E+00-2.16171E-13 1.82007E-13
 -1      1821 2.05141E+01 5.03354E-01 3.26384E-02-8.97246E-01-1.74780E-13 1.51715E-13
 -1      1822 2.00934E+01 3.56573E-01 8.30356E-03-6.03363E-01-1.51561E-13 1.08383E-13
 -1      1823 1.99081E+01 2.63485E-01 2.75962E-02-3.60301E-01-1.45680E-13 1.12218E-13
 -1      1824 1.97311E+01 1.86271E-01 1.11747E-02-2.18131E-01-1.27771E-13 8.48427E-14
 -1      1825 2.02142E+01 4.91273E-01-6.29914E-03-6.84698E-01-1.71520E-13 1.65935E-14
 -1      1826 1.96222E+01 1.42637E-01 1.69493E-02-7.72908E-02-1.02428E-13 8.56572E-14
 -1      1827 1.95631E+01 1.05485E-01 7.99583E-03 1.85335E-04-7.36390E-14 5.77156E-14
 -1      1828 1.99112E+01 2.57533E-01-6.21992E-03-2.43993E-01-1.39787E-13 2.55603E-14
 -1      1829 1.95161E+01 8.30214E-02 9.12290E-03 8.44690E-02-5.94858E-14 4.42398E-14
 -1      1830 1.95280E+01 6.43380E-02 5.47727E-03 1.30261E-01-2.98479E-14 3.34567E-14
 -1      1831 1.97597E+01 1.45470E-01-5.27529E-03 1.33214E-02-8.84928E-14-1.45387E-14
 -1      1832 1.95261E+01 5.27028E-02 4.83092E-03 1.83901E-01-2.96330E-14 2.54006E-14
 -1      1833 1.95823E+01 4.40141E-02 4.27038E-03 2.13896E-01-4.46743E-14-6.13572E-15
 -1      1834 1.97154E+01 8.94448E-02-4.26564E-03 1.71857E-01-3.92980E-14-5.83505E-14
 -1      1835 1.96130E+01 3.87205E-02 2.62563E-03 2.51880E-01-8.38231E-14 8.24243E-15
 -1      1836 1.97000E+01 3.62278E-02 3.86267E-03 2.75000E-01-9.25655E-14-1.48536E-16
 -1      1837 1.97480E+01 6.27479E-02-3.34284E-03 2.77607E-01-6.14801E-14-5.74094E-14
 -1      1838 1.97553E+01 3.51388E-02 1.50856E-03 3.06775E-01-9.16574E-14-2.74016E-15
 -1      1839 1.98670E+01 3.69369E-02 3.94188E-03 3.28762E-01-5.34379E-14 2.76319E-14
 -1      1840 1.98373E+01 5.38693E-02-2.68265E-03 3.58059E-01-9.66101E-14-2.45852E-14
 -1      1841 1.99429E+01 3.88853E-02 9.74602E-04 3.60780E-01-2.82131E-14 1.81353E-14
 -1      1842 2.00781E+01 4.38912E-02 4.35416E-03 3.85712E-01 1.67684E-14 4.74275E-15
 -1      1843 1.99716E+01 5.70918E-02-2.30621E-03 4.31133E-01-3.77219E-14-6.00207E-14
 -1      1844 2.01732E+01 4.81076E-02 7.64547E-04 4.22643E-01-1.11234E-14-3.22402E-14
 -1      1845 2.03339E+01 5.55362E-02 4.99463E-03 4.53536E-01-1.76030E-14-7.69158E-14
 -1      1846 2.01455E+01 6.91739E-02-2.16235E-03 5.09367E-01-4.13034E-14-1.05401E-13
 -1      1847 2.04487E+01 6.13133E-02 7.23084E-04 4.98726E-01-2.29356E-14-1.05692E-13
 -1      1848 2.06393E+01 7.02956E-02 5.73527E-03 5.37645E-01-1.84928E-14-1.08092E-13
 -1      1849 2.03583E+01 8.77289E-02-2.18594E-03 6.01772E-01-4.31777E-14-1.31471E-13
 -1      1850 2.07754E+01 7.66729E-02 7.35989E-04 5.93043E-01-5.20332E-14-1.25550E-13
 -1      1851 2.10010E+01 8.58175E-02 6.36716E-03 6.40768E-01-2.00157E-14-1.18800E-13
 -1      1852 2.06126E+01 1.10091E-01-2.32160E-03 7.14285E-01-4.85320E-14-1.02068E-13
 -1      1853 2.11610E+01 9.11547E-02 7.09493E-04 7.06300E-01 2.74975E-14-1.60022E-13
 -1      1854 2.14261E+01 9.79131E-02 6.53718E-03 7.61430E-01 2.14455E-14-8.76342E-14
 -1      1855 2.09127E+01 1.32049E-01-2.53570E-03 8.49043E-01-1.79455E-14-8.40681E-14
 -1      1856 2.16129E+01 9.92555E-02 5.77836E-04 8.33629E-01 4.79955E-15-7.93396E-14
 -1      1857 2.19189E+01 9.90099E-02 5.68281E-03 8.90878E-01-1.01004E-14-1.02091E-14
 -1      1858 2.12637E+01 1.46068E-01-2.83235E-03 1.00227E+00 2.25844E-14-8.15117E-15
 -1      1859 2.21356E+01 9.12302E-02 3.41610E-04 9.60494E-01-3.06539E-14-5.26504E-14
 -1      1860 2.24769E+01 7.62115E-02 3.00406E-03 1.00798E+00 6.15220E-15-5.64180E-14
 -1      1861 2.16710E+01 1.38799E-01-3.27518E-03 1.16031E+00-9.12790E-15-1.70042E-14
 -1      1862 2.27268E+01 5.11994E-02 1.34494E-04 1.05646E+00-1.96413E-14-6.86161E-14
 -1      1863 2.30856E+01 9.95395E-03-2.41934E-03 1.07222E+00-4.93465E-14-7.97322E-14
 -1      1864 2.21390E+01 8.83350E-02-3.99411E-03 1.29346E+00-1.71193E-14-1.19107E-13
 -1      1865 2.33723E+01-4.30626E-02 2.75691E-04 1.06760E+00-8.21019E-14-8.59122E-14
 -1      1866 2.37122E+01-1.23520E-01-1.11699E-02 1.01708E+00-6.93894E-14-1.11407E-13
 -1      1867 2.26715E+01-3.65302E-02-5.09557E-03 1.34803E+00-7.81589E-14-1.25179E-13
 -1      1868 2.40368E+01-2.13789E-01 1.08211E-03 9.12156E-01-3.85022E-14-1.00215E-13
 -1      1869 2.42985E+01-3.38663E-01-2.24782E-02 7.51672E-01-5.74115E-14-8.64842E-14
 -1      1870 2.32693E+01-2.68739E-01-6.32876E-03 1.23990E+00-2.74234E-14-2.12651E-14
 -1      1871 2.46502E+01-4.61129E-01 2.06717E-03 4.91761E-01-4.23940E-14-7.00742E-14
 -1      1872 2.47550E+01-6.05274E-01-3.21406E-02 1.87531E-01-1.05506E-14-7.81057E-14
 -1      1873 2.39216E+01-6.14893E-01-6.45183E-03 8.59629E-01-5.30843E-14 2.63849E-14
 -1      1874 2.50879E+01-7.14884E-01 1.33983E-03-2.56142E-01 6.85112E-14-7.26879E-14
 -1      1875 2.49602E+01-7.94829E-01-3.23473E-02-6.81562E-01 1.74872E-13-8.28010E-14
 -1      1876 2.45804E+01-9.93406E-01-2.18542E-03 1.11256E-01 3.12667E-14-2.14510E-14
 -1      1877 2.51639E+01-7.90019E-01-8.86393E-03-1.23700E+00 2.59945E-13-6.00420E-14
 -1      1878 2.47864E+01-6.72259E-01-1.73273E-02-1.64577E+00 2.08462E-13 1.35413E-14
 -1      1879 2.51100E+01-1.15882E+00 8.31948E-03-9.81060E-01 2.17257E-13-9.39320E-15
 -1      1880 2.47360E+01-4.37404E-01-2.50723E-02-2.06986E+00 1.12979E-13 1.31345E-13
 -1      1881 2.41968E+01-4.29284E-02 9.80997E-03-2.20779E+00 7.36503E-14 1.84654E-13
 -1      1882 2.52841E+01-8.00729E-01 3.08299E-03-2.09014E+00 2.09955E-13 6.75419E-14
 -1      1883 2.38643E+01 4.16800E-01-3.81454E-02-2.11870E+00 8.48106E-15 1.51644E-13
 -1      1884 2.34025E+01 8.99811E-01 2.15507E-02-1.74972E+00 1.68164E-14 1.52286E-13
 -1      1885 2.49482E+01 3.17616E-01-3.00860E-03-2.54682E+00 5.63577E-14 1.08827E-13
 -1      1886 2.30928E+01 1.26005E+00-2.72762E-02-1.01107E+00-6.30537E-14 9.42319E-14
 -1      1887 2.29445E+01 1.44004E+00-4.26310E-03-2.50183E-01-1.38750E-13 3.41693E-14
 -1      1888 2.43413E+01 1.57907E+00-4.41897E-02-1.67014E+00-8.04530E-14 6.13901E-14
 -1      1889 2.30039E+01 1.37497E+00 4.45697E-03 7.38047E-01-1.79703E-13-1.13603E-13
 -1      1890 2.32584E+01 1.07354E+00-3.56215E-02 1.42833E+00-1.62734E-13-1.83820E-13
 -1      1891 2.40956E+01 2.03308E+00-6.50490E-02 2.97621E-01-2.17479E-13-1.84519E-13
 -1      1892 2.36220E+01 6.42967E-01 1.98357E-02 2.00282E+00-1.06588E-13-1.70031E-13
 -1      1893 2.41330E+01 1.48135E-01-3.86667E-02 2.22345E+00-9.26464E-14-2.45130E-13
 -1      1894 2.45057E+01 1.27264E+00-3.44253E-02 2.06471E+00-1.02647E-13-2.77283E-13
 -1      1895 2.44073E+01-2.63082E-01 2.55871E-03 2.13786E+00-1.11713E-13-2.10653E-13
 -1      1896 2.49187E+01-5.86736E-01-2.12251E-02 1.89927E+00-4.29275E-14-1.40159E-13
 -1      1897 2.50986E+01-4.27050E-02 6.73958E-04 2.54387E+00-4.61350E-14-2.59952E-13
 -1      1898 2.48965E+01-7.51838E-01-2.25599E-02 1.40429E+00 4.52277E-14-1.43552E-13
 -1      1899 2.52129E+01-8.01619E-01-4.22700E-03 9.69372E-01 1.12575E-13-6.07921E-14
 -1      1900 2.53039E+01-9.54784E-01 1.24582E-02 1.83098E+00-2.04572E-14-1.20460E-13
 -1      1901 2.49616E+01-7.60424E-01-3.35942E-02 4.29143E-01 7.80678E-14-5.54847E-14
 -1      1902 2.50238E+01-6.49397E-01 2.09853E-03 3.09223E-02 5.76882E-14-4.30229E-14
 -1      1903 2.50105E+01-1.15314E+00 5.02393E-03 6.70040E-01 5.74055E-14-8.37425E-14
 -1      1904 2.46829E+01-5.27365E-01-2.98391E-02-3.60008E-01-6.14508E-14-4.34982E-14
 -1      1905 2.45332E+01-3.82381E-01 2.24142E-03-6.20553E-01-1.11722E-13-6.73350E-14
 -1      1906 2.44320E+01-8.89582E-01-3.69475E-03-3.37453E-01 1.76638E-14-2.27386E-14
 -1      1907 2.41928E+01-2.66111E-01-1.90578E-02-8.28791E-01-1.73138E-13-2.00812E-14
 -1      1908 2.39116E+01-1.52249E-01 1.21054E-03-9.51222E-01-1.99323E-13 3.51637E-14
 -1      1909 2.37772E+01-5.02143E-01-6.59393E-03-9.71148E-01-1.36863E-13 6.48431E-14
 -1      1910 2.36052E+01-7.22112E-02-8.26515E-03-1.01826E+00-2.47114E-13 4.48279E-14
 -1      1911 2.32676E+01-2.96484E-03 6.92108E-04-1.04228E+00-1.78370E-13 1.96418E-14
 -1      1912 2.31516E+01-1.83094E-01-6.15839E-03-1.25536E+00-1.85873E-13 5.86532E-14
 -1      1913 2.30014E+01 4.17279E-02-4.38552E-04-1.02249E+00-1.22940E-13 7.88198E-14
 -1      1914 2.26608E+01 7.52630E-02 7.85353E-04-9.90235E-01 8.96886E-14 1.37074E-14
 -1      1915 2.25897E+01 1.86857E-02-4.97630E-03-1.29686E+00-1.43409E-13 1.84528E-13
 -1      1916 2.24327E+01 9.50862E-02 4.14071E-03-9.26716E-01 1.36265E-13-4.20503E-14
 -1      1917 2.21204E+01 1.05941E-01 1.11639E-03-8.69163E-01 1.65545E-13-4.02132E-14
 -1      1918 2.20979E+01 1.21563E-01-4.02328E-03-1.19985E+00-4.85972E-15 2.48085E-13
 -1      1919 2.19272E+01 1.11062E-01 6.21693E-03-7.89808E-01 7.39515E-14-1.73068E-13
 -1      1920 2.16574E+01 1.09634E-01 1.41014E-03-7.25803E-01 1.66377E-14-5.50865E-14
 -1      1921 2.16748E+01 1.59523E-01-3.40349E-03-1.03973E+00 9.73275E-14 3.60519E-14
 -1      1922 2.14960E+01 1.07210E-01 6.69092E-03-6.46321E-01-1.24483E-13-1.02314E-13
 -1      1923 2.12723E+01 1.00189E-01 1.55992E-03-5.85719E-01-2.44269E-13-1.68310E-13
 -1      1924 2.13169E+01 1.61186E-01-2.98960E-03-8.62967E-01-8.88868E-14-4.82619E-14
 -1      1925 2.11395E+01 9.45352E-02 6.28586E-03-5.13762E-01-6.82984E-14-1.61175E-13
 -1      1926 2.09595E+01 8.56996E-02 1.56641E-03-4.60826E-01 5.36463E-14-2.83988E-15
 -1      1927 2.10192E+01 1.45540E-01-2.66091E-03-6.94598E-01-6.98844E-14-1.00184E-13
 -1      1928 2.08520E+01 7.91554E-02 5.48447E-03-3.99304E-01 1.30035E-14-2.66007E-13
 -1      1929 2.07106E+01 7.04162E-02 1.47022E-03-3.55205E-01 1.79535E-14-2.17809E-13
 -1      1930 2.07760E+01 1.23580E-01-2.35341E-03-5.46053E-01-4.45932E-15-1.71160E-13
 -1      1931 2.06250E+01 6.41250E-02 4.57023E-03-3.04486E-01 9.53699E-14-3.65883E-14
 -1      1932 2.05161E+01 5.63237E-02 1.31599E-03-2.68868E-01-3.83899E-14-1.18138E-14
 -1      1933 2.05808E+01 1.01018E-01-2.04761E-03-4.20931E-01 1.02674E-13-2.52049E-13
 -1      1934 2.04490E+01 5.07707E-02 3.69114E-03-2.28099E-01-9.58536E-14 1.07301E-13
 -1      1935 2.03667E+01 4.41865E-02 1.13908E-03-1.99949E-01-2.53270E-16 1.93197E-13
 -1      1936 2.04267E+01 8.04783E-02-1.74640E-03-3.18750E-01 1.40946E-14 3.54552E-14
 -1      1937 2.03150E+01 3.95192E-02 2.91322E-03-1.67789E-01-8.07557E-15 2.64747E-13
 -1      1938 2.02539E+01 3.41605E-02 9.63251E-04-1.45899E-01 2.16686E-13 2.94167E-13
 -1      1939 2.03070E+01 6.29291E-02-1.45966E-03-2.37138E-01 1.01970E-13 2.92627E-13
 -1      1940 2.02148E+01 3.03663E-02 2.25692E-03-1.20895E-01 3.99400E-13 1.45903E-13
 -1      1941 2.01703E+01 2.61254E-02 8.02136E-04-1.04079E-01 3.45456E-13 3.04728E-13
 -1      1942 2.02157E+01 4.85211E-02-1.19661E-03-1.73049E-01 1.87748E-13 4.61861E-13
 -1      1943 2.01413E+01 2.31252E-02 1.71892E-03-8.48536E-02 2.24077E-13 4.60461E-13
 -1      1944 2.01097E+01 1.98610E-02 6.62048E-04-7.20372E-02 1.25714E-13 6.69767E-13
 -1      1945 2.01473E+01 3.70386E-02-9.63044E-04-1.23377E-01 4.16245E-13 3.64573E-13
 -1      1946 2.00886E+01 1.75608E-02 1.28300E-03-5.73584E-02 6.72731E-14 6.23134E-13
 -1      1947 2.00670E+01 1.51250E-02 5.39919E-04-4.76041E-02 6.50880E-14 6.45486E-13
 -1      1948 2.00970E+01 2.81499E-02-7.58811E-04-8.52552E-02 1.32591E-13 6.19989E-13
 -1      1949 2.00520E+01 1.34069E-02 9.30687E-04-3.64210E-02-5.15361E-14 7.29049E-13
 -1      1950 2.00380E+01 1.16334E-02 4.35649E-04-2.89695E-02-2.44254E-14 6.60231E-13
 -1      1951 2.00609E+01 2.14542E-02-5.85241E-04-5.61564E-02 5.21051E-14 6.39114E-13
 -1      1952 2.00275E+01 1.02582E-02 6.23445E-04-2.04301E-02-5.07190E-15 6.03419E-13
 -1      1953 2.00192E+01 8.87958E-03 3.34296E-04-1.47933E-02 1.27356E-13 5.99669E-13
 -1      1954 2.00355E+01 1.65322E-02-4.12832E-04-3.40287E-02-8.41969E-14 8.27610E-13
 -1      1955 2.00125E+01 7.57189E-03 4.36517E-04-8.76102E-03 2.74913E-13 3.83108E-13
 -1      1956 2.00081E+01 6.01751E-03 2.63146E-04-4.94762E-03 8.37182E-14 3.73772E-13
 -1      1957 2.00082E+01 7.27454E-03-2.74687E-04-6.46557E-03-3.20455E-14 4.01211E-13
 -1      1958 2.00187E+01 1.19840E-02-4.30999E-04-1.77384E-02 5.76697E-14 4.20926E-13
 -1      1959 1.96312E+01 1.46022E-01 8.23616E-03 2.34045E-01 1.36450E-13 2.78796E-13
 -1      1960 1.98917E+01 2.07238E-01 1.66805E-02 4.09549E-01 1.36641E-13 3.41305E-13
 -1      1961 2.01080E+01 3.54230E-01-1.74280E-03 6.26469E-01 1.58113E-13 2.44589E-13
 -1      1962 1.94175E+01 7.82425E-02 7.40078E-03 2.17106E-02 9.35094E-14 2.13794E-13
 -1      1963 1.95171E+01 1.07252E-01 1.45342E-02 1.14539E-01 9.52476E-14 2.57360E-13
 -1      1964 1.97384E+01 1.72100E-01-2.23556E-03 2.18481E-01 1.23924E-13 1.96110E-13
 -1      1965 1.93660E+01 4.51422E-02 5.02869E-03-9.75428E-02 4.77283E-14 2.03820E-13
 -1      1966 1.93752E+01 6.00091E-02 8.80994E-03-4.39619E-02 7.00672E-14 2.14162E-13
 -1      1967 1.95694E+01 9.11399E-02-3.19717E-03-7.79600E-03 8.91912E-14 1.39929E-13
 -1      1968 1.94175E+01 2.82639E-02 3.63917E-03-1.68907E-01-2.29552E-14 1.70888E-13
 -1      1969 1.93735E+01 3.60975E-02 4.98124E-03-1.35512E-01 1.45292E-14 1.92386E-13
 -1      1970 1.95326E+01 5.19624E-02-3.32575E-03-1.39800E-01 2.38015E-14 1.28828E-13
 -1      1971 1.95363E+01 2.00961E-02 2.96953E-03-2.15638E-01 1.87224E-14 1.29791E-13
 -1      1972 1.94590E+01 2.40380E-02 2.94513E-03-1.92667E-01-1.56689E-14 1.32068E-13
 -1      1973 1.95827E+01 3.27045E-02-2.93569E-03-2.22087E-01 6.09116E-15 5.16396E-14
 -1      1974 1.97024E+01 1.70651E-02 2.64450E-03-2.50854E-01 7.32516E-14 1.24428E-13
 -1      1975 1.96021E+01 1.87319E-02 1.92096E-03-2.32706E-01 5.38140E-14 1.42740E-13
 -1      1976 1.96922E+01 2.41851E-02-2.48101E-03-2.78791E-01 6.28843E-14 3.76501E-14
 -1      1977 1.99055E+01 1.70550E-02 2.46625E-03-2.82330E-01 1.04125E-13 5.45371E-14
 -1      1978 1.97871E+01 1.74659E-02 1.41219E-03-2.65620E-01 8.52166E-14 1.04073E-13
 -1      1979 1.98453E+01 2.18732E-02-2.14551E-03-3.23895E-01 1.01353E-13 7.36392E-14
 -1      1980 2.01411E+01 1.84398E-02 2.32604E-03-3.14339E-01 7.21193E-14 8.05554E-14
 -1      1981 2.00065E+01 1.83890E-02 1.15594E-03-2.97164E-01 7.30437E-14 6.93219E-14
 -1      1982 2.00334E+01 2.29216E-02-1.95429E-03-3.65550E-01 7.33861E-14 6.19207E-14
 -1      1983 2.04073E+01 1.96035E-02 2.12788E-03-3.48187E-01 7.47296E-14 1.32013E-13
 -1      1984 2.02571E+01 1.98576E-02 9.96100E-04-3.29955E-01 8.86732E-14 1.01295E-13
 -1      1985 2.02526E+01 2.49678E-02-1.87398E-03-4.07730E-01 8.22036E-14 9.25544E-14
 -1      1986 2.07027E+01 1.86421E-02 1.75937E-03-3.82047E-01 1.87052E-14 8.54716E-14
 -1      1987 2.05376E+01 2.00599E-02 8.11881E-04-3.63610E-01 6.01522E-14 1.40497E-13
 -1      1988 2.05010E+01 2.55147E-02-1.85344E-03-4.50600E-01 6.87011E-14 1.28726E-13
 -1      1989 2.10234E+01 1.31699E-02 1.08982E-03-4.10356E-01 1.63207E-13-4.36905E-14
 -1      1990 2.08459E+01 1.67670E-02 4.91995E-04-3.94348E-01 8.65200E-14 2.37182E-14
 -1      1991 2.07763E+01 2.15487E-02-1.82905E-03-4.90150E-01 1.16810E-13 6.44945E-14
 -1      1992 2.13603E+01 2.97782E-04-6.60381E-06-4.23000E-01 5.14921E-14-5.09840E-14
 -1      1993 2.11762E+01 7.21488E-03-6.68274E-05-4.14286E-01 9.48329E-14-4.27360E-14
 -1      1994 2.10739E+01 9.35712E-03-1.71611E-03-5.17418E-01 1.16551E-13-6.81128E-15
 -1      1995 2.16957E+01-2.30031E-02-1.59322E-03-4.04754E-01-2.08975E-14-2.13935E-15
 -1      1996 2.15163E+01-1.17320E-02-9.42631E-04-4.10774E-01 4.70500E-15-4.77346E-14
 -1      1997 2.13845E+01-1.52796E-02-1.39540E-03-5.17692E-01 7.96054E-15 4.17353E-15
 -1      1998 2.20006E+01-5.87845E-02-3.57053E-03-3.35897E-01-1.28651E-13 4.47103E-14
 -1      1999 2.18442E+01-4.28280E-02-2.15358E-03-3.66428E-01-4.10531E-14 1.04378E-14
 -1      2000 2.16912E+01-5.61224E-02-7.03093E-04-4.70464E-01-5.02376E-14 9.28769E-14
 -1      2001 2.22333E+01-1.05821E-01-5.54844E-03-1.95588E-01 1.38205E-14 9.07124E-14
 -1      2002 2.21253E+01-8.66643E-02-3.60831E-03-2.61139E-01-1.00239E-13-1.26960E-15
 -1      2003 2.19673E+01-1.14163E-01 5.60008E-04-3.51520E-01-4.52615E-14 1.79049E-13
 -1      2004 2.23412E+01-1.56081E-01-6.78557E-03 2.98729E-02 2.16025E-14 1.16856E-13
 -1      2005 2.23122E+01-1.38541E-01-5.05969E-03-7.78492E-02 6.78615E-14 1.46374E-13
 -1      2006 2.21750E+01-1.83550E-01 2.56176E-03-1.39284E-01 3.48450E-14 1.38957E-13
 -1      2007 2.22701E+01-1.91332E-01-6.34925E-03 3.32625E-01-1.39996E-13-3.86696E-14
 -1      2008 2.23487E+01-1.84620E-01-6.10625E-03 1.86139E-01-9.95983E-14-5.96604E-15
 -1      2009 2.22672E+01-2.46519E-01 5.24073E-03 1.72421E-01-4.90641E-14 7.59682E-14
 -1      2010 2.19812E+01-1.83766E-01-3.67909E-03 6.65441E-01-6.72865E-14 1.33352E-13
 -1      2011 2.21830E+01-2.00007E-01-6.16154E-03 5.03061E-01-8.34211E-14 3.32768E-14
 -1      2012 2.21954E+01-2.70905E-01 8.00827E-03 5.55399E-01-1.12850E-13 8.80162E-14
 -1      2013 2.14794E+01-1.07197E-01 3.10084E-04 9.31920E-01-1.77549E-14 1.43234E-13
 -1      2014 2.17918E+01-1.54785E-01-4.79608E-03 8.00555E-01-5.45345E-14 1.62160E-13
 -1      2015 2.19280E+01-2.16955E-01 9.46091E-03 9.28818E-01-6.25017E-14 1.86332E-13
 -1      2016 2.08434E+01 3.99228E-02 3.34260E-03 1.00593E+00 2.00485E-13 7.84962E-14
 -1      2017 2.12140E+01-3.29669E-02-1.71149E-03 9.66215E-01 7.33606E-14 1.41945E-13
 -1      2018 2.14809E+01-6.20520E-02 7.39784E-03 1.15988E+00 9.15804E-14 1.77868E-13
 -1      2019 2.02342E+01 2.13616E-01 3.07414E-03 7.93226E-01 1.11015E-13-4.96608E-14
 -1      2020 2.05738E+01 1.41996E-01 3.01692E-03 8.88777E-01 2.19566E-13 3.71734E-14
 -1      2021 2.09478E+01 1.68129E-01 1.29728E-03 1.10767E+00 2.00857E-13 7.68725E-14
 -1      2022 1.98554E+01 3.33293E-01-6.04026E-04 3.09549E-01-4.76980E-14-1.92830E-13
 -1      2023 2.00612E+01 2.99911E-01 7.86234E-03 5.30189E-01-2.30857E-14-1.18158E-13
 -1      2024 2.04964E+01 3.88559E-01-6.20766E-03 7.09309E-01 6.32680E-14 2.75665E-14
 -1      2025 1.98581E+01 3.32446E-01-3.62766E-03-2.89851E-01-4.89201E-14-1.54451E-13
 -1      2026 1.98582E+01 3.58816E-01 1.13096E-02-1.83334E-02-3.87294E-14-2.34698E-13
 -1      2027 2.03048E+01 4.89597E-01-1.05210E-02 5.63195E-02-3.45678E-14-4.27845E-14
 -1      2028 2.02486E+01 2.12179E-01-2.90873E-03-7.82637E-01 1.78477E-14-1.33796E-13
 -1      2029 2.00388E+01 2.84824E-01 1.12963E-02-5.60810E-01-6.29705E-16-1.89343E-13
 -1      2030 2.04580E+01 4.18610E-01-6.87226E-03-6.18924E-01-2.35680E-14-6.75840E-14
 -1      2031 2.08796E+01 4.01386E-02 4.14732E-04-1.00883E+00 1.47334E-13-7.71640E-14
 -1      2032 2.05295E+01 1.21785E-01 7.07066E-03-9.05201E-01 4.87561E-14-9.38277E-14
 -1      2033 2.08881E+01 2.11183E-01-7.44436E-04-1.07148E+00 7.37270E-14-8.84431E-14
 -1      2034 2.15404E+01-1.03950E-01 4.04584E-03-9.46864E-01 7.82065E-14-1.07542E-13
 -1      2035 2.11562E+01-4.71085E-02 6.54137E-04-9.68162E-01 1.23755E-13-6.04933E-14
 -1      2036 2.14241E+01-2.70057E-02 3.28145E-03-1.18211E+00 1.32791E-13 1.05515E-14
 -1      2037 2.20596E+01-1.77821E-01 5.75456E-03-6.88266E-01-7.16614E-14-9.16264E-14
 -1      2038 2.17367E+01-1.57832E-01-4.92001E-03-7.93948E-01-1.91817E-14-8.45227E-14
 -1      2039 2.18938E+01-2.00611E-01 3.75393E-03-9.92019E-01-1.38422E-14 1.07010E-13
 -1      2040 2.23561E+01-1.84012E-01 5.27981E-03-3.59709E-01-1.53167E-13-1.18218E-13
 -1      2041 2.21490E+01-1.93542E-01-7.92511E-03-4.95906E-01-1.04980E-13-1.06103E-13
 -1      2042 2.21948E+01-2.71524E-01 2.21211E-03-6.36252E-01-6.51233E-14 9.65313E-14
 -1      2043 2.24296E+01-1.48723E-01 3.51326E-03-5.96145E-02-2.17870E-13-5.76817E-14
 -1      2044 2.23489E+01-1.73126E-01-8.30984E-03-1.85036E-01-2.05435E-13-1.04087E-13
 -1      2045 2.23035E+01-2.56327E-01 5.60756E-04-2.53464E-01-1.37374E-13 1.05322E-13
 -1      2046 2.23261E+01-9.89769E-02 1.57829E-03 1.62632E-01-1.44211E-13-1.06317E-13
 -1      2047 2.23525E+01-1.25905E-01-6.95681E-03 6.88185E-02-2.03870E-13-8.85676E-14
 -1      2048 2.22472E+01-1.94450E-01-4.03728E-04 6.58954E-02-1.98172E-13 2.65109E-15
 -1      2049 2.21058E+01-5.24423E-02 1.24309E-04 2.97809E-01-1.10992E-13 5.96537E-14
 -1      2050 2.22071E+01-7.49562E-02-4.84083E-03 2.39787E-01-1.61952E-13-9.99435E-14
 -1      2051 2.20737E+01-1.21182E-01-7.05010E-04 2.85743E-01-1.48332E-13-1.03205E-13
 -1      2052 2.18241E+01-1.68499E-02-6.93622E-04 3.59098E-01 1.38621E-13 9.95246E-14
 -1      2053 2.19679E+01-3.26422E-02-2.69306E-03 3.31724E-01 2.59723E-14 1.14585E-13
 -1      2054 2.18315E+01-5.74218E-02-6.53031E-04 4.07890E-01-7.30470E-15 3.20486E-14
 -1      2055 2.15239E+01 6.64259E-03-9.96976E-04 3.67318E-01 4.18588E-13-1.30649E-14
 -1      2056 2.16838E+01-2.80336E-03-9.14695E-04 3.62182E-01 2.94952E-13 1.45850E-13
 -1      2057 2.15602E+01-1.10028E-02-5.14596E-04 4.52423E-01 2.97989E-13 2.72957E-14
 -1      2058 2.12341E+01 1.99669E-02-9.81893E-04 3.42454E-01 1.20659E-13-7.91929E-14
 -1      2059 2.13916E+01 1.54328E-02 3.56460E-04 3.51377E-01 2.15220E-13-2.28994E-14
 -1      2060 2.12889E+01 1.81958E-02-4.14527E-04 4.43766E-01 2.97085E-13 1.79500E-13
 -1      2061 2.09719E+01 2.59184E-02-8.12263E-04 3.00237E-01-1.23668E-13 1.26779E-13
 -1      2062 2.11157E+01 2.47241E-02 1.14242E-03 3.16715E-01 3.60374E-14-3.03035E-16
 -1      2063 2.10359E+01 3.36725E-02-3.74952E-04 4.03529E-01 4.58199E-14 2.07940E-13
 -1      2064 2.07454E+01 2.70772E-02-5.95117E-04 2.51600E-01 1.49892E-14 1.16577E-13
 -1      2065 2.08701E+01 2.79076E-02 1.53879E-03 2.71068E-01-3.75248E-14 1.06273E-13
 -1      2066 2.08118E+01 3.95750E-02-3.75394E-04 3.48023E-01-6.25142E-14 1.94065E-13
 -1      2067 2.05570E+01 2.54419E-02-3.88402E-04 2.03391E-01-1.91235E-13 1.44515E-13
 -1      2068 2.06607E+01 2.73359E-02 1.65792E-03 2.22953E-01-9.43002E-14 7.00730E-14
 -1      2069 2.06208E+01 3.94844E-02-3.89745E-04 2.88268E-01-9.45458E-14 1.81145E-13
 -1      2070 2.04049E+01 2.24094E-02-2.16655E-04 1.59415E-01-8.49893E-14 4.12201E-13
 -1      2071 2.04884E+01 2.47264E-02 1.60023E-03 1.77431E-01-9.77419E-14 2.60633E-13
 -1      2072 2.04631E+01 3.60702E-02-3.99578E-04 2.30969E-01-1.64929E-13 3.34094E-13
 -1      2073 2.02855E+01 1.88847E-02-8.53085E-05 1.21407E-01-7.59989E-14 1.82637E-13
 -1      2074 2.03508E+01 2.12302E-02 1.44372E-03 1.37102E-01-7.61736E-14 2.40676E-13
 -1      2075 2.03365E+01 3.11438E-02-3.96296E-04 1.79694E-01-1.19638E-14 3.94443E-13
 -1      2076 2.01942E+01 1.54161E-02 9.64199E-06 8.97875E-02 1.04539E-13 2.30023E-13
 -1      2077 2.02438E+01 1.75671E-02 1.24334E-03 1.02942E-01 5.18155E-14 1.99252E-13
 -1      2078 2.02375E+01 2.58467E-02-3.78612E-04 1.35911E-01 4.28791E-15 2.05746E-13
 -1      2079 2.01264E+01 1.23134E-02 7.48962E-05 6.41997E-02 1.19341E-13 1.70885E-13
 -1      2080 2.01629E+01 1.41578E-02 1.03409E-03 7.49303E-02 1.66794E-13 2.02334E-13
 -1      2081 2.01619E+01 2.08506E-02-3.49298E-04 9.97668E-02 1.96640E-13 2.03447E-13
 -1      2082 2.00775E+01 9.72880E-03 1.15596E-04 4.38670E-02 1.56136E-13 1.26191E-13
 -1      2083 2.01035E+01 1.12271E-02 8.35492E-04 5.24802E-02 1.19149E-13 2.03396E-13
 -1      2084 2.01058E+01 1.65146E-02-3.13988E-04 7.06465E-02 1.23868E-13 3.92152E-13
 -1      2085 2.00437E+01 7.69067E-03 1.31131E-04 2.78396E-02 4.72310E-14 3.03481E-13
 -1      2086 2.00613E+01 8.86231E-03 6.55008E-04 3.47283E-02 3.35440E-14 2.80307E-13
 -1      2087 2.00653E+01 1.29893E-02-2.76961E-04 4.75453E-02-5.87063E-15 4.56559E-13
 -1      2088 2.00218E+01 6.09946E-03 1.14734E-04 1.52570E-02-3.73697E-14 5.72693E-13
 -1      2089 2.00328E+01 7.01114E-03 4.88070E-04 2.07795E-02 9.17113E-15 3.95239E-13
 -1      2090 2.00373E+01 1.02116E-02-2.47629E-04 2.93835E-02-7.16921E-14 5.34274E-13
 -1      2091 2.00090E+01 4.69504E-03 1.63920E-04 5.68605E-03 2.46200E-14 4.28568E-13
 -1      2092 2.00148E+01 5.44383E-03 3.25083E-04 9.92274E-03 4.79012E-14 6.04863E-13
 -1      2093 2.00187E+01 7.97449E-03-2.00400E-04 1.52596E-02 1.82976E-14 6.38899E-13
 -1      2094 2.00035E+01 2.98792E-03 2.11491E-04 7.24044E-04-4.19536E-14 5.91812E-13
 -1      2095 2.00061E+01 4.34006E-03 2.05189E-04 3.39216E-03-4.63276E-14 5.48523E-13
 -1      2096 2.00089E+01 6.39567E-03-1.11165E-04 6.55949E-03-2.18287E-14 8.62122E-13
 -1      2097 2.00043E+01 3.99976E-03 4.99332E-05 1.88427E-03 5.64493E-14 8.81215E-13
 -1      2098 2.00022E+01 3.92111E-02-1.31656E-04 2.20141E-02 4.72201E-13-3.82602E-13
 -1      2099 2.00039E+01 3.21281E-02 2.43969E-04 2.01757E-02 5.07074E-13-1.76610E-13
 -1      2100 2.00053E+01 2.38347E-02-2.21687E-05 1.69840E-02 4.48594E-13-1.08284E-13
 -1      2101 2.00063E+01 1.80906E-02 2.37052E-04 1.35637E-02 4.93050E-13 7.03119E-14
 -1      2102 2.00069E+01 3.37076E-02-6.45794E-05 2.50964E-02 1.79067E-13-1.80731E-13
 -1      2103 2.00060E+01 1.21196E-02 6.12558E-05 9.40391E-03 3.11807E-13 3.68162E-13
 -1      2104 2.00057E+01 8.21459E-03 1.66972E-04 5.87670E-03 1.16755E-13 7.21426E-13
 -1      2105 2.00081E+01 9.68053E-03 8.88785E-05 8.06798E-03-2.17221E-14 7.92321E-13
 -1      2106 2.00087E+01 1.96648E-02-1.68399E-04 1.66869E-02 1.67932E-13 3.25830E-13
 -1      2107 1.99988E+01 5.50440E-02-2.37170E-04 2.28537E-02 1.44630E-13-7.82241E-13
 -1      2108 2.00006E+01 4.77167E-02 1.49261E-04 2.29397E-02 3.31685E-13-6.65762E-13
 -1      2109 2.00023E+01 5.03747E-02 4.74747E-05 2.95588E-02 2.59842E-13-6.64608E-13
 -1      2110 1.99956E+01 6.94678E-02-3.20646E-04 1.93274E-02 1.50991E-13-3.81253E-13
 -1      2111 1.99972E+01 6.29277E-02 9.87629E-06 2.12985E-02 1.87799E-13-3.93093E-13
 -1      2112 1.99972E+01 6.66901E-02 1.73704E-04 2.87090E-02 2.31473E-13-6.80827E-13
 -1      2113 1.99933E+01 7.99171E-02-3.58647E-04 1.21133E-02 2.05073E-13 1.16765E-13
 -1      2114 1.99944E+01 7.54813E-02-1.36368E-04 1.55599E-02 1.64729E-13-8.98397E-14
 -1      2115 1.99928E+01 8.05500E-02 2.89393E-04 2.25702E-02 3.42584E-13-2.32900E-13
 -1      2116 1.99922E+01 8.47039E-02-3.40741E-04 2.59927E-03 2.64806E-13 3.57736E-13
 -1      2117 1.99926E+01 8.31875E-02-2.57783E-04 6.84953E-03 2.15902E-13 2.36614E-13
 -1      2118 1.99898E+01 8.98186E-02 3.69262E-04 1.22656E-02 2.28523E-13 1.66385E-13
 -1      2119 1.99926E+01 8.30470E-02-2.65354E-04-7.43938E-03 1.32958E-13-2.53378E-13
 -1      2120 1.99922E+01 8.47393E-02-3.33756E-04-3.19457E-03 2.67967E-13 1.21202E-13
 -1      2121 1.99888E+01 9.31218E-02 3.99890E-04-3.21283E-04-2.32621E-14 1.56528E-13
 -1      2122 1.99944E+01 7.52130E-02-1.43942E-04-1.61165E-02-1.49296E-13-7.20808E-13
 -1      2123 1.99933E+01 7.98240E-02-3.52584E-04-1.27004E-02-5.89507E-14-4.48082E-13
 -1      2124 1.99899E+01 8.99400E-02 3.74724E-04-1.29108E-02-1.77904E-13-5.32782E-13
 -1      2125 1.99973E+01 6.27567E-02 7.77956E-06-2.16794E-02-2.82058E-13-7.74569E-13
 -1      2126 1.99957E+01 6.93026E-02-3.20110E-04-1.97968E-02-1.52204E-13-9.10950E-13
 -1      2127 1.99929E+01 8.08113E-02 3.05381E-04-2.31283E-02-1.60089E-13-7.40103E-13
 -1      2128 2.00009E+01 4.72923E-02 1.56814E-04-2.31512E-02-3.42381E-13 2.06393E-13
 -1      2129 1.99989E+01 5.48201E-02-2.42700E-04-2.31770E-02-2.67754E-13-1.28179E-13
 -1      2130 1.99974E+01 6.70142E-02 1.83306E-04-2.91284E-02-4.85756E-14-4.05891E-13
 -1      2131 2.00043E+01 3.14384E-02 2.49702E-04-2.00275E-02-2.48330E-13 6.65137E-14
 -1      2132 2.00025E+01 3.85324E-02-1.39442E-04-2.20514E-02-2.92301E-13 1.18940E-13
 -1      2133 2.00027E+01 5.03988E-02 5.41209E-05-2.97508E-02-1.25751E-13 1.29118E-13
 -1      2134 2.00062E+01 1.68583E-02 3.65363E-06-1.29255E-02-1.53222E-13 3.52065E-14
 -1      2135 2.00057E+01 2.30411E-02-1.33762E-06-1.65859E-02-2.61391E-13-1.13566E-13
 -1      2136 2.00074E+01 3.34859E-02-2.21656E-05-2.47962E-02-1.96232E-13-3.75135E-14
 -1      2137 1.10303E+01-4.91837E+00-4.96654E-02 6.85464E+00 7.77156E-14-1.61780E-13
 -1      2138 7.42847E+00-6.13031E+00-2.41497E-01 5.70994E+00 8.89289E-14-2.01589E-13
 -1      2139 7.18542E-01-6.33930E+00-2.60686E-01 1.12662E+00 1.65978E-13 2.76723E-13
 -1      2140 6.13974E-01-6.47133E+00-2.87823E-01-5.11473E-01 2.30593E-13 4.64628E-13
 -1      2141 3.28799E+00-5.81023E+00-2.24493E-01 4.25369E+00-6.10623E-15-9.73666E-14
 -1      2142 1.47956E+00-6.80257E+00-3.45106E-01 2.65377E+00 5.16531E-14 7.62723E-14
 -1      2143 2.48711E+00-4.09491E+00-1.11476E-01 2.22795E+00-3.77059E-14 1.01585E-13
 -1      2144 1.92952E+01-3.07444E+00 5.39187E-02 6.97699E+00-6.32827E-15 5.93969E-14
 -1      2145 1.48730E+01-5.01228E+00-2.34785E-01 6.38870E+00 3.95239E-14-9.05942E-14
 -1      2146 2.74120E+01-6.72567E-01 1.23719E-01 5.73661E+00-5.20139E-14 2.79499E-13
 -1      2147 2.23860E+01-2.42815E+00-1.72365E-01 5.84471E+00-5.97855E-14 2.24376E-13
 -1      2148 2.31523E+01-4.40196E+00 4.90598E-02 5.55190E+00-1.57208E-13 1.16018E-13
 -1      2149 1.95402E+01 4.02817E+00-2.57449E-02-1.66971E+00-1.59052E-13-3.04978E-13
 -1      2150 1.96667E+01 3.95168E+00-2.40284E-02-1.92431E+00-1.84259E-13-2.62693E-13
 -1      2151 1.99873E+01 3.26347E+00-7.76765E-03-1.87445E+00-2.03220E-13-2.21849E-13
 -1      2152 1.97103E+01 3.60337E+00-9.03128E-03-1.48325E+00-1.52119E-13-2.91220E-13
 -1      2153 3.82111E+01 5.76218E+00 2.35548E-01 1.59612E+00 2.68230E-13-1.33671E-13
 -1      2154 3.62255E+01 4.69803E+00 1.85736E-01 2.89814E+00 2.12025E-13-2.90323E-14
 -1      2155 3.97276E+01 7.22146E+00 3.05340E-01-6.19822E-02 4.12059E-13-2.35714E-13
 -1      2156 3.82533E+01 7.07131E+00 1.59358E-01 8.77603E-01 3.72036E-13-1.55043E-13
 -1      2157 3.89467E+01 6.65599E+00 2.56297E-01-1.56257E+00 4.79894E-13-2.51632E-13
 -1      2158 4.00348E+01 6.99172E+00 2.73684E-01-3.56177E-01 4.52083E-13-1.14089E-13
 -1      2159 3.51980E+01 8.30879E+00 3.02105E-01 1.43106E-02 3.94018E-13-1.36804E-13
 -1      2160 3.50540E+01 4.14473E+00 1.17707E-01-3.26855E+00 3.89411E-13-2.43916E-13
 -1      2161 3.85448E+01 5.33497E+00 3.80314E-01-2.54988E+00 4.18110E-13-2.28595E-13
 -1      2162 2.88823E+01 6.04001E-01-2.81704E-02-4.82786E+00 3.57742E-13-4.44977E-13
 -1      2163 3.31903E+01 2.29751E+00 2.68864E-01-4.48589E+00 3.94240E-13-3.40949E-13
 -1      2164 2.10373E+01-2.66526E+00-1.92424E-01-6.09130E+00 3.48110E-13-4.38871E-13
 -1      2165 2.58847E+01-7.29237E-01 1.53875E-01-6.33785E+00 3.84359E-13-4.38538E-13
 -1      2166 1.38913E+01-5.06495E+00-1.60256E-01-6.56934E+00 3.05034E-13-3.20327E-13
 -1      2167 1.77859E+01-3.35550E+00 1.08339E-02-7.03230E+00 3.48388E-13-4.16223E-13
 -1      2168 2.16949E+01-4.40295E+00-2.69084E-02-6.04250E+00 9.00391E-14-2.05252E-13
 -1      2169 5.38228E+00-6.84171E+00-4.24489E-01-4.92234E+00 2.01061E-13-3.89605E-13
 -1      2170 9.04783E+00-5.43245E+00-1.99074E-01-6.37518E+00 2.02616E-13-2.75807E-13
 -1      2171 1.14687E+00-7.16518E+00-4.12815E-01-2.52562E+00 9.35085E-14-5.33573E-13
 -1      2172 2.88622E+00-6.64077E+00-3.25036E-01-3.99010E+00 2.77944E-13-4.82003E-13
 -1      2173 5.78853E+00-5.26197E+00-1.29305E-01-5.44049E+00 2.33147E-14-3.75699E-13
 -1      2174 3.75821E-01-7.24691E+00-4.17000E-01 1.00361E+00-1.78108E-13-8.81628E-13
 -1      2175 2.01097E-01-7.00748E+00-3.79886E-01-5.89920E-01-2.34535E-14-6.67300E-13
 -1      2176 3.53745E+00-6.78576E+00-3.55208E-01 3.96917E+00-3.76699E-13-7.06546E-13
 -1      2177 1.62928E+00-7.48329E+00-4.52036E-01 2.63342E+00-1.27037E-13-8.04745E-13
 -1      2178 1.03220E+01-5.42347E+00-1.72202E-01 6.15102E+00-4.65517E-13-5.73395E-13
 -1      2179 6.77272E+00-6.88687E+00-4.24778E-01 4.97888E+00-3.65541E-13-5.66963E-13
 -1      2180 1.86843E+01-3.85181E+00-6.25876E-02 6.73763E+00-4.41647E-13-5.51281E-13
 -1      2181 1.37264E+01-5.55912E+00-3.59199E-01 5.94143E+00-4.66960E-13-6.06876E-13
 -1      2182 1.45331E+01-5.84188E+00-5.31718E-02 6.64947E+00-1.50491E-13-3.85515E-13
 -1      2183 2.84868E+01-7.54496E-01 1.66363E-01 5.55625E+00-6.50091E-13-5.40790E-13
 -1      2184 2.35379E+01-2.85466E+00-1.74910E-01 5.27236E+00-5.54001E-13-5.60330E-13
 -1      2185 3.49309E+01 2.14155E+00 2.11971E-01 3.32179E+00-5.52627E-13-6.33937E-13
 -1      2186 3.08791E+01 6.31590E-01 3.18635E-03 4.18030E+00-7.00384E-13-5.71654E-13
 -1      2187 3.03357E+01-1.57591E+00 1.68350E-01 2.63590E+00-4.42313E-13-3.88689E-13
 -1      2188 4.00236E+01 5.60029E+00 4.50920E-01 1.46649E+00-5.16809E-13-5.19473E-13
 -1      2189 3.66726E+01 4.40061E+00 1.47106E-01 1.89836E+00-5.15060E-13-5.34905E-13
 -1      2190 4.22906E+01 6.99091E+00 4.67046E-01 1.31277E-01-4.95937E-13-3.48083E-13
 -1      2191 4.12589E+01 6.63400E+00 3.82198E-01 1.26923E+00-5.19806E-13-5.76150E-13
 -1      2192 3.99197E+01 6.58767E+00 2.81632E-01-1.04291E+00-5.26135E-13-2.13329E-13
 -1      2193 4.20083E+01 6.99541E+00 5.06803E-01-2.54220E-01-4.94826E-13-2.64636E-13
 -1      2194 3.62299E+01 3.63621E+00 1.92126E-01-2.93370E+00-4.17180E-13 8.97060E-14
 -1      2195 3.89774E+01 4.97929E+00 3.23430E-01-1.76978E+00-4.56635E-13-1.25733E-13
 -1      2196 2.97473E+01-5.79896E-02-4.65022E-02-4.01701E+00-4.03400E-13 1.36113E-13
 -1      2197 3.44395E+01 1.87120E+00 3.03459E-01-4.00023E+00-4.01720E-13 1.40776E-13
 -1      2198 2.11217E+01-3.46776E+00-2.24806E-01-5.72737E+00-2.43416E-13 3.87579E-13
 -1      2199 2.61939E+01-1.86932E+00 5.98448E-02-5.76741E+00-3.09197E-13 2.33202E-13
 -1      2200 1.29084E+01-5.62167E+00-3.57059E-01-5.89635E+00-1.69309E-13 3.53481E-13
 -1      2201 1.72780E+01-3.83250E+00-7.05452E-02-6.68780E+00-2.81442E-13 4.93439E-13
 -1      2202 5.83897E+00-6.97401E+00-4.27585E-01-4.70462E+00 1.13076E-13 3.10862E-13
 -1      2203 9.24633E+00-5.57111E+00-1.74421E-01-6.00634E+00-4.74065E-14 3.88176E-13
 -1      2204 1.15683E+00-7.39009E+00-4.31215E-01-2.27879E+00 2.45914E-13 4.25715E-13
 -1      2205 2.88236E+00-6.86541E+00-3.57922E-01-3.58429E+00 1.37501E-13 2.96041E-13
 -1      2206 3.49629E+01 3.21116E+00 3.20355E-01 3.99152E+00 1.27287E-13 4.00791E-14
 -1      2207 3.05254E+01 1.49413E+00-1.26791E-02 4.13706E+00 3.27932E-14 1.21125E-13
 -1      2208 3.37874E+01 3.53792E+00 2.61206E-01 8.76863E-01 1.87184E-13-1.80911E-13
 -1      2209 2.95975E+01-1.04315E+00 1.30367E-01 3.04912E+00-8.86236E-14 4.76286E-14
 -1      2210 2.07230E+01 1.10886E+00-2.01831E-02-1.59281E+00-2.07154E-13 1.30427E-13
 -1      2211 3.55510E+01 6.49792E+00 3.08260E-01-1.53888E-01 3.66540E-13 9.63118E-15
 -1      2212 2.06254E+01 1.33158E+00-1.90580E-02-1.64679E+00-2.19148E-13 5.89112E-15
 -1      2213 7.31603E+00-4.67645E+00-1.99840E-02 5.86608E+00-1.56208E-13-1.50574E-13
 -1      2214 1.56122E+01-5.43908E+00-2.42682E-02 6.92431E+00-5.55112E-17-1.56670E-13
 -1      2215 2.00075E+01 1.46313E-02 9.50411E-05-1.13677E-02-4.24260E-14 2.62999E-13
 -1      2216 2.20414E+00-4.58470E+00-1.67408E-01-1.74384E+00 3.17024E-13 3.83804E-13
 -1      2217 6.25245E+00-5.45084E+00-1.57435E-01-5.27129E+00 2.68119E-13 3.82638E-13
 -1      2218 1.34489E+01-5.82651E+00-1.04690E-01-6.56581E+00 9.10383E-14 3.36745E-13
 -1      2219 2.16445E+01-5.00077E+00 1.94367E-02-5.79012E+00-8.54872E-14 2.64733E-13
 -1      2220 2.91095E+01-2.40341E+00 1.06644E-01-3.21354E+00-1.67477E-13-5.23470E-14
 -1      2221 3.41360E+01 1.97169E+00 2.49387E-01-7.08664E-01-3.94573E-13-1.73417E-13
 -1      2222 3.67297E+01 6.04454E+00 3.34190E-01 2.12758E-01-4.96991E-13-2.37588E-13
 -1      2223 3.78563E+01 7.98442E+00 4.20275E-01 5.51662E-02-5.79981E-13-3.39249E-13
 -1      2224 3.44554E+01 2.63712E+00 2.16050E-01 4.34053E-01-5.25247E-13-3.69926E-13
 -1      2225 2.31890E+01-4.76413E+00 2.58842E-02 5.36289E+00-2.89935E-13-4.42701E-13
 -1      2226 7.21463E+00-5.63021E+00-1.59239E-01 5.64037E+00-1.30340E-13-5.95329E-13
 -1      2227 1.83418E+00-5.03910E+00-1.98420E-01-1.91754E+00-4.21746E-14-7.10210E-13
 -1      2228 1.27822E+01-5.41521E+00-9.54483E-02-6.75305E+00 1.71863E-13-2.33397E-13
 -1      2229 1.64232E+01-5.50689E+00-1.36472E-01-6.95028E+00-1.02141E-14-1.62460E-13
 -1      2230 1.21721E+01-5.02360E+00 1.16080E-01-7.03889E+00-6.91669E-14-1.47965E-13
 -1      2231 2.84259E+01-1.58084E+00 1.37960E-01-3.90649E+00 2.00118E-13-2.09610E-13
 -1      2232 3.50755E+01 6.88326E+00 2.41807E-01-6.18369E-02 3.31346E-13-2.66398E-13
 -1      2233 3.32543E+01 2.52731E+00 2.34621E-01-1.52652E+00 3.26600E-13-3.22520E-14
 -1      2234 2.24033E+00-5.21537E+00-2.21456E-01 2.38136E+00-5.87863E-14-8.51763E-13
 -1      2235 3.68752E+01 6.68457E+00 3.38430E-01-4.31224E-01-5.24247E-13-3.61711E-13
 -1      2236 2.01650E+01 5.16139E-01 4.26977E-03 6.39605E-01 1.54132E-13 1.28028E-13
 -1      2237 2.04225E+01 7.06894E-01 2.08381E-02 9.35301E-01 1.81955E-13 1.56542E-13
 -1      2238 1.95642E+01 3.56542E+00-1.12817E-02-5.68306E-01-4.52377E-14-2.96891E-13
 -1      2239 1.96026E+01 3.51655E+00-1.03324E-02-7.47663E-01-8.10324E-14-2.94383E-13
 -1      2240 1.96520E+01 3.42249E+00-1.30209E-02-9.07376E-01-8.86894E-14-2.92526E-13
 -1      2241 1.97158E+01 3.33784E+00-1.26242E-02-1.09318E+00-1.15455E-13-2.83920E-13
 -1      2242 1.97918E+01 3.08700E+00 4.95408E-04-7.57496E-01-7.95658E-14-2.79807E-13
 -1      2243 1.95118E+01 3.65468E+00-9.58937E-03 9.60346E-02 4.38302E-14-3.10550E-13
 -1      2244 1.95112E+01 3.65556E+00-9.60558E-03-7.70411E-02 2.08017E-14-3.18053E-13
 -1      2245 1.95403E+01 3.61204E+00-9.60357E-03 4.28601E-01 8.67952E-14-3.06468E-13
 -1      2246 1.95212E+01 3.63630E+00-1.02084E-02 2.53772E-01 6.20053E-14-3.12862E-13
 -1      2247 1.96730E+01 3.28917E+00-4.68888E-04 1.61350E-01 5.21924E-14-2.94303E-13
 -1      2248 1.96069E+01 3.50845E+00-1.04162E-02 7.61354E-01 1.22119E-13-2.71321E-13
 -1      2249 1.95679E+01 3.55846E+00-1.13561E-02 5.84751E-01 9.79612E-14-2.93412E-13
 -1      2250 1.97135E+01 3.22031E+00-1.16343E-04 4.65085E-01 8.76642E-14-2.87857E-13
 -1      2251 1.97230E+01 3.32457E+00-1.26984E-02 1.10665E+00 1.80527E-13-2.02598E-13
 -1      2252 1.96576E+01 3.41195E+00-1.30745E-02 9.20702E-01 1.54296E-13-2.41130E-13
 -1      2253 1.97968E+01 3.07704E+00 5.73618E-04 7.68916E-01 1.32819E-13-2.33876E-13
 -1      2254 1.99057E+01 3.02732E+00-1.78826E-02 1.44992E+00 2.28123E-13-1.41032E-13
 -1      2255 1.98047E+01 3.17306E+00-1.54003E-02 1.26092E+00 1.92624E-13-1.78588E-13
 -1      2256 1.99326E+01 2.83922E+00 2.13807E-03 1.06748E+00 1.86329E-13-1.69803E-13
 -1      2257 2.01823E+01 2.55628E+00-2.81616E-02 1.75511E+00 2.60293E-13-5.14120E-14
 -1      2258 2.00327E+01 2.79996E+00-1.72565E-02 1.58015E+00 2.36897E-13-9.57949E-14
 -1      2259 2.01313E+01 2.47487E+00 5.89865E-03 1.33087E+00 2.23627E-13-1.13545E-13
 -1      2260 1.99105E+01 2.83915E-01 5.47104E-03 2.33736E-01 1.29264E-13 8.51461E-14
 -1      2261 2.00572E+01 3.80488E-01 2.02722E-02 3.97525E-01 1.38774E-13 1.11371E-13
 -1      2262 2.02347E+01 6.50152E-01-2.65779E-03 6.54119E-01 1.64912E-13 3.07775E-14
 -1      2263 2.04156E+01 8.65732E-01 1.26009E-02-9.58801E-01-1.70561E-13-3.99880E-14
 -1      2264 2.02161E+01 6.44894E-01-3.15502E-03-6.43643E-01-1.60425E-13-3.94345E-14
 -1      2265 3.22070E+01 4.90302E+00-8.86071E-02 7.32875E-01 2.65843E-13 7.77156E-15
 -1      2266 3.22139E+01 6.39508E+00-1.74946E-01 8.35257E-01 2.79554E-13-1.28925E-14
 -1      2267 3.00592E+01-7.90599E-01-9.30832E-02 1.07432E+00-1.13562E-13-2.21489E-13
 -1      2268 2.74989E+01-2.93857E+00-5.28787E-02 2.33770E+00-1.83971E-13-6.13676E-14
 -1      2269 2.01555E+01 4.89836E-01 1.55745E-02-4.17645E-01-1.40606E-13-1.88129E-14
 -1      2270 2.00306E+01 3.70351E-01 1.03474E-03-2.37078E-01-1.17839E-13-3.59313E-14
 -1      2271 2.02727E+01 7.72767E-01-1.74741E-03-6.31768E-01-1.50496E-13-9.70265E-14
 -1      2272 1.99767E+01 2.90336E-01 1.07239E-02-8.71862E-02-1.08993E-13-1.99110E-14
 -1      2273 1.99175E+01 2.25322E-01 1.80050E-03 2.33981E-02-7.33484E-14-4.67237E-14
 -1      2274 2.01282E+01 4.53109E-01-4.47063E-03-2.26207E-01-1.03623E-13-8.41821E-14
 -1      2275 1.98866E+01 1.81990E-01 6.37010E-03 1.23262E-01-5.96162E-14-4.53649E-14
 -1      2276 1.98776E+01 1.47433E-01 2.19919E-03 1.94872E-01-5.92675E-14-7.57272E-14
 -1      2277 2.00319E+01 2.81287E-01-4.21727E-03 4.53617E-02-7.65829E-14-6.73255E-14
 -1      2278 1.98693E+01 1.25146E-01 3.57550E-03 2.64374E-01-5.59123E-14-9.83477E-14
 -1      2279 1.98967E+01 1.09273E-01 2.54933E-03 3.15365E-01-6.37052E-14-8.34163E-14
 -1      2280 1.99889E+01 1.88316E-01-3.56334E-03 2.30221E-01-9.10820E-14-9.06244E-14
 -1      2281 1.99075E+01 1.00384E-01 1.84382E-03 3.68843E-01-1.03409E-13-9.36624E-14
 -1      2282 1.99625E+01 9.69832E-02 2.95210E-03 4.10876E-01-9.79296E-14-9.74294E-14
 -1      2283 1.99913E+01 1.44258E-01-2.84837E-03 3.64776E-01-9.86630E-14-8.88437E-14
 -1      2284 1.99889E+01 9.73985E-02 7.45004E-04 4.58458E-01-5.33503E-14-1.19480E-13
 -1      2285 2.00666E+01 1.02968E-01 3.44214E-03 4.99509E-01-1.93750E-14-1.30747E-13
 -1      2286 2.00309E+01 1.32543E-01-2.25886E-03 4.74919E-01-8.73016E-14-1.54315E-13
 -1      2287 2.01060E+01 1.10208E-01 3.16285E-05 5.48595E-01-4.08624E-14-1.26134E-13
 -1      2288 2.02046E+01 1.22446E-01 4.01953E-03 5.94377E-01-5.96067E-14-1.33293E-13
 -1      2289 2.01007E+01 1.43810E-01-1.82170E-03 5.79292E-01-3.53624E-14-1.50973E-13
 -1      2290 2.02553E+01 1.34633E-01-4.37997E-04 6.50404E-01-5.40270E-14-1.25364E-13
 -1      2291 2.03748E+01 1.51523E-01 4.64672E-03 7.04928E-01-5.39971E-14-1.12038E-13
 -1      2292 2.01961E+01 1.71864E-01-1.50663E-03 6.91530E-01-7.13651E-14-1.06973E-13
 -1      2293 2.04362E+01 1.66643E-01-7.37129E-04 7.71644E-01-3.04548E-14-1.06894E-13
 -1      2294 2.05780E+01 1.85632E-01 5.23377E-03 8.37178E-01-2.24833E-14-5.77324E-14
 -1      2295 2.03147E+01 2.11255E-01-1.28325E-03 8.21342E-01-2.47434E-14-1.32592E-13
 -1      2296 2.06504E+01 2.00720E-01-8.75042E-04 9.16430E-01-4.48135E-14 1.70996E-14
 -1      2297 2.08164E+01 2.17666E-01 5.61548E-03 9.92856E-01 1.75099E-16 4.24269E-14
 -1      2298 2.04557E+01 2.55149E-01-1.15598E-03 9.74629E-01-4.54362E-15-2.27167E-14
 -1      2299 2.09018E+01 2.27677E-01-7.76265E-04 1.08383E+00 8.75168E-16 2.75674E-14
 -1      2300 2.10938E+01 2.35367E-01 5.51921E-03 1.16724E+00-8.13726E-15 1.50161E-14
 -1      2301 2.06205E+01 2.92685E-01-1.20792E-03 1.15260E+00-4.31789E-15-2.22145E-14
 -1      2302 2.11974E+01 2.31592E-01-2.37871E-04 1.26493E+00-4.22953E-14 1.58400E-14
 -1      2303 2.14166E+01 2.17780E-01 4.52741E-03 1.34527E+00-3.00208E-14-3.37983E-14
 -1      2304 2.08144E+01 3.05345E-01-1.66835E-03 1.34966E+00-4.02288E-14-5.30417E-14
 -1      2305 2.15494E+01 1.85978E-01 1.11955E-03 1.43795E+00-1.86819E-14-3.66622E-14
 -1      2306 2.17964E+01 1.31495E-01 2.04123E-03 1.49566E+00-4.88776E-14-6.47448E-14
 -1      2307 2.10497E+01 2.62290E-01-3.00307E-03 1.54972E+00-2.17197E-14 1.72344E-14
 -1      2308 2.19795E+01 5.08408E-02 3.85197E-03 1.56086E+00-9.69983E-14-7.90235E-14
 -1      2309 2.22533E+01-7.00885E-02-2.69496E-03 1.56317E+00-7.12164E-14-3.03751E-14
 -1      2310 2.13525E+01 1.16192E-01-5.97415E-03 1.72025E+00-8.09860E-14 6.61876E-15
 -1      2311 2.25224E+01-2.23887E-01 8.54218E-03 1.56215E+00-2.27097E-15-6.53900E-14
 -1      2312 2.28185E+01-4.35533E-01-1.03710E-02 1.46149E+00-3.37404E-16-3.06070E-15
 -1      2313 2.17713E+01-1.95088E-01-1.14304E-02 1.80365E+00-4.98575E-14-3.30706E-14
 -1      2314 2.32212E+01-6.75631E-01 1.49471E-02 1.33386E+00-5.11830E-14 5.79406E-14
 -1      2315 2.35242E+01-9.74672E-01-2.12644E-02 1.07493E+00-4.11407E-14 4.11541E-14
 -1      2316 2.23825E+01-7.27022E-01-1.94416E-02 1.70604E+00 7.82360E-15-4.13793E-14
 -1      2317 2.40971E+01-1.26513E+00 1.97194E-02 7.39696E-01 5.84819E-15 7.79238E-14
 -1      2318 2.43686E+01-1.55921E+00-3.00841E-02 2.86167E-01 8.74700E-14 6.31613E-14
 -1      2319 2.32754E+01-1.46349E+00-2.81919E-02 1.28950E+00-7.68569E-15 1.01031E-13
 -1      2320 2.50663E+01-1.75736E+00 1.44626E-02-3.09453E-01 2.13446E-13 5.96433E-14
 -1      2321 2.52425E+01-1.81189E+00-2.77307E-02-9.02867E-01 2.83206E-13 7.96082E-14
 -1      2322 2.44685E+01-2.17543E+00-3.51652E-02 3.91182E-01 1.78007E-13 1.00316E-13
 -1      2323 2.58283E+01-1.59646E+00-2.04934E-02-1.67671E+00 2.58044E-13 3.03403E-14
 -1      2324 2.57705E+01-1.13672E+00-4.08064E-02-2.13814E+00 2.19949E-13 9.55447E-14
 -1      2325 2.58350E+01-2.20318E+00-4.09485E-03-1.06154E+00 2.64198E-13 1.25126E-13
 -1      2326 2.60746E+01-3.02459E-01-5.43280E-02-2.70415E+00 7.08825E-14 4.89140E-14
 -1      2327 2.58099E+01 8.04591E-01 1.06551E-04-2.66331E+00-2.11532E-14 7.26832E-14
 -1      2328 2.67517E+01-1.01270E+00-7.95932E-02-2.39931E+00 1.12729E-13 7.51517E-14
 -1      2329 2.55616E+01 1.89881E+00-1.20529E-01-2.23614E+00-9.28216E-14 3.78668E-14
 -1      2330 2.53844E+01 2.82008E+00-4.05112E-02-1.46980E+00-2.41779E-13-4.96062E-14
 -1      2331 2.68889E+01 1.80137E+00-6.08325E-02-2.77065E+00-1.34753E-13 2.15244E-14
 -1      2332 2.52367E+01 3.26297E+00-8.39169E-02-2.07672E-01-3.67484E-13-2.26269E-13
 -1      2333 2.52496E+01 3.09099E+00-1.07812E-01 8.66695E-01-2.77375E-13-2.78290E-13
 -1      2334 2.66832E+01 3.92460E+00-9.97122E-02-9.53676E-01-3.74020E-13-3.19234E-13
 -1      2335 2.55172E+01 2.37015E+00-2.22615E-02 1.99186E+00-1.05457E-13-3.12979E-13
 -1      2336 2.57166E+01 1.26549E+00-1.20044E-01 2.55977E+00-7.41282E-14-2.77658E-13
 -1      2337 2.67420E+01 3.60296E+00-6.74337E-02 1.68971E+00-2.09693E-13-3.13707E-13
 -1      2338 2.58875E+01 1.79534E-01-6.13483E-03 2.66544E+00-1.07081E-13-3.49219E-13
 -1      2339 2.60453E+01-7.94288E-01-6.38968E-02 2.51207E+00-8.78811E-15-3.17527E-13
 -1      2340 2.69390E+01 9.20366E-01-4.98730E-02 2.86292E+00-1.43795E-13-4.53138E-13
 -1      2341 2.57181E+01-1.44043E+00-2.34015E-02 1.86349E+00 3.35617E-14-3.68142E-13
 -1      2342 2.56764E+01-1.76227E+00-8.96377E-03 1.30203E+00 1.91262E-14-3.58466E-13
 -1      2343 2.65765E+01-1.49118E+00-2.45982E-02 2.08829E+00-2.57537E-14-5.59736E-13
 -1      2344 2.50262E+01-1.80350E+00-2.94589E-02 5.64221E-01 7.16250E-14-2.83225E-13
 -1      2345 2.48169E+01-1.65308E+00 1.63223E-02-7.57347E-03 9.79611E-14-2.90034E-13
 -1      2346 2.54705E+01-2.30883E+00-1.02431E-02 5.78004E-01 5.45406E-14-5.34675E-13
 -1      2347 2.41507E+01-1.40091E+00-2.66275E-02-5.26057E-01 4.75366E-14-2.23143E-13
 -1      2348 2.38641E+01-1.08925E+00 1.84594E-02-9.24206E-01 2.70175E-14-1.24198E-13
 -1      2349 2.41424E+01-1.97896E+00-2.14697E-02-6.79859E-01 7.06900E-14-4.81318E-13
 -1      2350 2.33462E+01-7.99496E-01-1.70499E-02-1.18721E+00-7.02303E-14-1.65824E-13
 -1      2351 2.30470E+01-5.20869E-01 1.32502E-02-1.39368E+00-7.84941E-14-7.55745E-14
 -1      2352 2.30229E+01-1.22254E+00-2.07770E-02-1.41538E+00 2.30703E-14-4.14111E-13
 -1      2353 2.26908E+01-3.01994E-01-7.80079E-03-1.47292E+00-1.42509E-13-4.21729E-14
 -1      2354 2.24087E+01-1.15519E-01 7.60087E-03-1.53427E+00-2.21386E-13 5.36354E-14
 -1      2355 2.22220E+01-5.33203E-01-1.45775E-02-1.71549E+00-1.08567E-13-3.03156E-13
 -1      2356 2.21721E+01 1.70352E-02-1.29905E-03-1.50518E+00-2.20392E-13 9.97764E-14
 -1      2357 2.19173E+01 1.19010E-01 3.70512E-03-1.47668E+00-1.25324E-13 1.82084E-13
 -1      2358 2.16819E+01-6.42568E-02-8.58452E-03-1.73749E+00-1.68646E-13-8.53704E-14
 -1      2359 2.17556E+01 1.84627E-01 2.58667E-03-1.39302E+00-5.18460E-14 1.07739E-13
 -1      2360 2.15308E+01 2.28009E-01 1.50256E-03-1.31846E+00 8.50912E-14 3.86442E-14
 -1      2361 2.13129E+01 1.97282E-01-4.65591E-03-1.60678E+00-1.30449E-13-1.03460E-13
 -1      2362 2.14133E+01 2.50989E-01 4.54456E-03-1.21371E+00-8.82878E-14 7.94313E-14
 -1      2363 2.12189E+01 2.59696E-01 4.46732E-04-1.12204E+00-1.17684E-13-1.25246E-13
 -1      2364 2.10463E+01 3.12619E-01-2.54326E-03-1.40578E+00-3.78160E-14-1.92385E-13
 -1      2365 2.11278E+01 2.59049E-01 5.23350E-03-1.01534E+00-5.71483E-14 1.58434E-14
 -1      2366 2.09629E+01 2.49891E-01 2.99996E-05-9.23349E-01-1.16171E-13 5.61377E-14
 -1      2367 2.08406E+01 3.39899E-01-1.57703E-03-1.18423E+00-7.96864E-14-1.32592E-13
 -1      2368 2.08890E+01 2.37959E-01 5.16608E-03-8.24654E-01-1.47985E-13-4.09492E-14
 -1      2369 2.07519E+01 2.21199E-01-7.75355E-05-7.40834E-01-1.09064E-13-1.54180E-13
 -1      2370 2.06738E+01 3.20822E-01-1.19745E-03-9.69973E-01-1.59764E-13-3.28681E-14
 -1      2371 2.06908E+01 2.05127E-01 4.70050E-03-6.54505E-01-1.52483E-13-2.16225E-13
 -1      2372 2.05791E+01 1.86430E-01-5.98199E-05-5.82289E-01-1.34545E-13-3.29771E-13
 -1      2373 2.05352E+01 2.81288E-01-1.06169E-03-7.76911E-01-2.18053E-13-2.69930E-13
 -1      2374 2.05284E+01 1.69980E-01 4.06557E-03-5.09502E-01 8.14609E-14-4.11373E-13
 -1      2375 2.04389E+01 1.52172E-01-6.68025E-06-4.49504E-01 1.25005E-13-3.34602E-13
 -1      2376 2.04195E+01 2.35849E-01-9.97778E-04-6.10554E-01-9.82912E-14-4.01747E-13
 -1      2377 2.03973E+01 1.37116E-01 3.39611E-03-3.89733E-01 1.97064E-13-2.93185E-13
 -1      2378 2.03269E+01 1.21419E-01 4.44216E-05-3.41148E-01 2.52863E-13-1.25111E-13
 -1      2379 2.03237E+01 1.91933E-01-9.35004E-04-4.71606E-01 2.32562E-13-4.26348E-13
 -1      2380 2.02932E+01 1.08445E-01 2.76424E-03-2.93049E-01 2.62132E-13 1.41185E-14
 -1      2381 2.02388E+01 9.52332E-02 8.19429E-05-2.54456E-01 2.62230E-13 2.14231E-13
 -1      2382 2.02454E+01 1.52864E-01-8.53444E-04-3.58232E-01 3.59855E-13-2.45218E-13
 -1      2383 2.02120E+01 8.44754E-02 2.20330E-03-2.16378E-01 1.31805E-13 3.78482E-13
 -1      2384 2.01706E+01 7.37070E-02 1.05154E-04-1.86181E-01 2.03909E-13 3.09537E-13
 -1      2385 2.01826E+01 1.19761E-01-7.54447E-04-2.67424E-01 2.55774E-13 4.46846E-14
 -1      2386 2.01495E+01 6.50394E-02 1.72345E-03-1.56440E-01 3.30316E-13 2.49893E-13
 -1      2387 2.01187E+01 5.64837E-02 1.14640E-04-1.33090E-01 3.87787E-13 1.37199E-13
 -1      2388 2.01329E+01 9.26368E-02-6.45911E-04-1.95791E-01 1.95225E-13 1.04919E-13
 -1      2389 2.01025E+01 4.96706E-02 1.32098E-03-1.10134E-01 2.69014E-13 1.97202E-13
 -1      2390 2.00799E+01 4.30596E-02 1.15309E-04-9.22441E-02 1.58431E-13 4.15914E-13
 -1      2391 2.00943E+01 7.09774E-02-5.38724E-04-1.40010E-01 2.99619E-13 7.65508E-14
 -1      2392 2.00675E+01 3.78637E-02 9.88342E-04-7.46659E-02 2.15384E-13 4.44001E-13
 -1      2393 2.00514E+01 3.28726E-02 1.19303E-04-6.10285E-02 9.49178E-14 5.18925E-13
 -1      2394 2.00648E+01 5.41425E-02-4.32749E-04-9.70641E-02 1.82873E-13 1.77331E-13
 -1      2395 2.00420E+01 2.87894E-02 6.94014E-04-4.76320E-02-1.93290E-13 5.81059E-13
 -1      2396 2.00309E+01 2.51754E-02 2.02832E-04-3.74046E-02-2.10326E-13 5.44964E-13
 -1      2397 2.00423E+01 4.13709E-02-2.98040E-04-6.42547E-02-3.58089E-14 8.02106E-14
 -1      2398 1.97345E+01 1.02897E-01 3.29752E-03-1.63943E-01 3.49497E-14 2.07022E-14
 -1      2399 1.97366E+01 1.30386E-01 7.17424E-03-1.04772E-01 5.77878E-14 6.29251E-14
 -1      2400 1.97652E+01 6.99067E-02 2.85828E-03-2.64519E-01 2.66185E-14-3.74078E-14
 -1      2401 1.97285E+01 8.40291E-02 4.03353E-03-2.25109E-01 1.96023E-14-8.59496E-15
 -1      2402 1.98768E+01 1.35101E-01-3.82739E-03-1.99942E-01 7.22066E-14-5.72245E-14
 -1      2403 1.98478E+01 5.45543E-02 2.69939E-03-3.36943E-01 7.43256E-14-1.35982E-14
 -1      2404 1.97840E+01 6.06059E-02 2.26043E-03-3.07537E-01 4.79958E-14-3.46178E-14
 -1      2405 1.98906E+01 9.36976E-02-3.07559E-03-3.16287E-01 4.69996E-14-7.56284E-14
 -1      2406 1.99705E+01 4.98198E-02 2.66403E-03-3.96164E-01 9.04330E-14-3.78734E-15
 -1      2407 1.98861E+01 5.10358E-02 1.26019E-03-3.70903E-01 7.76526E-14 1.18214E-14
 -1      2408 1.99490E+01 7.50525E-02-2.45395E-03-4.02803E-01 5.58391E-14-8.34123E-14
 -1      2409 2.01261E+01 5.07704E-02 2.64638E-03-4.51094E-01 3.26007E-14 4.22191E-14
 -1      2410 2.00246E+01 4.95727E-02 7.08184E-04-4.26670E-01 8.39322E-14 3.97961E-14
 -1      2411 2.00428E+01 6.98296E-02-2.03157E-03-4.75250E-01 5.92396E-14-1.31402E-14
 -1      2412 2.03109E+01 5.30009E-02 2.53474E-03-5.05912E-01 8.22780E-14 6.60927E-14
 -1      2413 2.01942E+01 5.16799E-02 4.34947E-04-4.81114E-01 6.24202E-14 6.73043E-14
 -1      2414 2.01664E+01 7.11888E-02-1.78322E-03-5.42944E-01 3.08255E-14 5.64297E-14
 -1      2415 2.05228E+01 5.17296E-02 2.18847E-03-5.60255E-01 8.66582E-14 4.96407E-14
 -1      2416 2.03923E+01 5.28631E-02 3.41484E-04-5.35996E-01 9.78517E-14 6.99778E-14
 -1      2417 2.03169E+01 7.27918E-02-1.66649E-03-6.09828E-01 9.95781E-14-1.95195E-14
 -1      2418 2.07597E+01 4.12184E-02 1.43354E-03-6.08729E-01 1.61347E-13-5.29340E-15
 -1      2419 2.06175E+01 4.79414E-02 3.66236E-04-5.88367E-01 1.19252E-13 4.01367E-14
 -1      2420 2.04936E+01 6.76303E-02-1.64588E-03-6.74547E-01 1.25206E-13 5.01479E-15
 -1      2421 2.10183E+01 1.45481E-02 7.66405E-05-6.40045E-01 6.86512E-14-7.47015E-17
 -1      2422 2.08683E+01 3.06115E-02 4.70765E-04-6.29830E-01 1.27792E-13 3.82416E-14
 -1      2423 2.06966E+01 4.73229E-02-1.69636E-03-7.29848E-01 1.12286E-13 3.54829E-14
 -1      2424 2.12920E+01-3.58711E-02-2.04861E-03-6.36216E-01-3.75128E-14 6.84225E-14
 -1      2425 2.11412E+01-6.49639E-03 6.26035E-04-6.45587E-01 2.21579E-14 5.40155E-14
 -1      2426 2.09263E+01 2.04392E-03-1.79006E-03-7.61634E-01 2.99364E-14 4.51855E-14
 -1      2427 2.15694E+01-1.16321E-01-4.98443E-03-5.72721E-01-9.52482E-14 1.33428E-13
 -1      2428 2.14290E+01-7.07195E-02 7.88522E-04-6.13919E-01-8.79618E-14 9.46090E-14
 -1      2429 2.11824E+01-7.82973E-02-1.86714E-03-7.48192E-01-7.66020E-14 9.94361E-14
 -1      2430 2.18324E+01-2.27311E-01-8.47416E-03-4.21244E-01 1.22326E-14 1.20957E-13
 -1      2431 2.17181E+01-1.66333E-01 8.50223E-04-5.07336E-01-4.08263E-14 1.80929E-13
 -1      2432 2.14619E+01-2.00506E-01-1.77484E-03-6.60660E-01-6.42865E-14 1.34829E-13
 -1      2433 2.20535E+01-3.55897E-01-1.17108E-02-1.57434E-01 2.07156E-14 1.37577E-13
 -1      2434 2.19857E+01-2.88554E-01 5.73951E-04-2.97520E-01 4.39019E-14 1.48290E-13
 -1      2435 2.17559E+01-3.60831E-01-1.17938E-03-4.66624E-01 1.57313E-14 1.67600E-13
 -1      2436 2.21951E+01-4.66307E-01-1.31754E-02 2.23583E-01-7.63183E-14 1.84091E-13
 -1      2437 2.21953E+01-4.14544E-01-4.55676E-04 3.28980E-02-1.00050E-15 2.04109E-13
 -1      2438 2.20435E+01-5.33575E-01 4.72266E-04-1.39920E-01-5.52440E-14 1.95532E-13
 -1      2439 2.22122E+01-4.95687E-01-1.07547E-02 6.83937E-01-1.24526E-13 1.51834E-13
 -1      2440 2.22969E+01-4.95161E-01-2.74324E-03 4.69537E-01-1.22797E-13 1.44866E-13
 -1      2441 2.22843E+01-6.59446E-01 3.65172E-03 3.19788E-01-9.95428E-14 2.30258E-13
 -1      2442 2.20654E+01-3.69022E-01-3.04150E-03 1.12007E+00 5.89242E-15 1.72739E-13
 -1      2443 2.22352E+01-4.57432E-01-6.03047E-03 9.40060E-01-5.67328E-14 1.50384E-13
 -1      2444 2.24160E+01-6.46282E-01 8.06255E-03 8.57881E-01-7.05085E-14 1.87131E-13
 -1      2445 2.17508E+01-4.85007E-02 7.89942E-03 1.36302E+00 1.42954E-13 1.13015E-13
 -1      2446 2.19775E+01-2.35505E-01-9.64609E-03 1.29826E+00 5.11184E-14 1.13350E-13
 -1      2447 2.23695E+01-3.99118E-01 1.16336E-02 1.33703E+00 7.08177E-14 7.84158E-14
 -1      2448 2.13406E+01 3.98902E-01 1.65195E-02 1.23888E+00 1.47008E-13 2.18280E-13
 -1      2449 2.15645E+01 1.64860E-01-1.02922E-02 1.35595E+00 1.92149E-13 2.34288E-13
 -1      2450 2.21187E+01 9.36648E-02 8.10748E-03 1.54493E+00 1.14362E-13 1.57632E-13
 -1      2451 2.09930E+01 7.85091E-01 1.64331E-02 6.87996E-01 1.28383E-13 5.50278E-14
 -1      2452 2.11392E+01 6.12767E-01-4.13458E-03 9.85848E-01 1.91597E-13 1.84414E-13
 -1      2453 2.17492E+01 6.94324E-01-2.32637E-03 1.28720E+00 1.76077E-13 1.88046E-13
 -1      2454 2.08854E+01 8.97323E-01 6.47853E-03-1.36328E-01 2.13093E-14-1.64141E-13
 -1      2455 2.08967E+01 8.86131E-01 5.84227E-03 2.45841E-01 4.97718E-14-3.19309E-14
 -1      2456 2.14599E+01 1.13633E+00-1.22550E-02 5.46695E-01 1.54534E-13-8.15987E-15
 -1      2457 2.10939E+01 6.65105E-01-3.07675E-03-9.08960E-01-2.64181E-14-1.53822E-13
 -1      2458 2.09657E+01 8.21334E-01 1.68471E-02-5.92736E-01 1.11456E-15-1.68459E-13
 -1      2459 2.14398E+01 1.16620E+00-1.34744E-02-4.27727E-01 7.35514E-14-2.85275E-13
 -1      2460 2.15111E+01 2.30301E-01-9.07134E-03-1.33990E+00 9.36538E-14-1.37495E-13
 -1      2461 2.12921E+01 4.61687E-01 1.80093E-02-1.19535E+00 1.39723E-14-1.53172E-13
 -1      2462 2.17047E+01 7.71845E-01-2.96732E-03-1.22079E+00 1.54056E-14-2.47153E-13
 -1      2463 2.19428E+01-1.84630E-01-8.88239E-03-1.33952E+00 4.44865E-14 2.91950E-14
 -1      2464 2.17078E+01 9.95150E-03 9.30296E-03-1.37927E+00 8.69446E-14-7.87708E-14
 -1      2465 2.20799E+01 1.77250E-01 7.60684E-03-1.55082E+00 3.35060E-14-5.77856E-14
 -1      2466 2.22332E+01-4.31603E-01-5.44244E-03-1.01613E+00-6.96674E-14 1.79622E-13
 -1      2467 2.20468E+01-3.32750E-01-2.13410E-03-1.17939E+00-6.10948E-15 1.57149E-13
 -1      2468 2.23588E+01-3.42268E-01 1.04668E-02-1.40028E+00-3.52413E-14 1.35036E-13
 -1      2469 2.23293E+01-4.89904E-01-1.74951E-03-5.57005E-01-1.95160E-13 3.30170E-13
 -1      2470 2.22246E+01-4.82523E-01-1.00756E-02-7.62982E-01-1.31085E-13 2.24016E-13
 -1      2471 2.24392E+01-6.21601E-01 7.83336E-03-9.49975E-01-1.31044E-13 3.00048E-13
 -1      2472 2.22573E+01-4.19850E-01 4.48005E-04-1.17052E-01-4.29006E-14 1.94488E-13
 -1      2473 2.22377E+01-4.67811E-01-1.27438E-02-3.05009E-01-9.02533E-14 3.56060E-13
 -1      2474 2.23355E+01-6.59797E-01 3.47716E-03-4.17159E-01-1.83624E-13 4.44096E-13
 -1      2475 2.20729E+01-2.95218E-01 1.30525E-03 2.21043E-01-9.93199E-14-4.74038E-14
 -1      2476 2.21228E+01-3.62226E-01-1.15502E-02 8.12361E-02-5.07346E-14 1.25873E-13
 -1      2477 2.21150E+01-5.43946E-01 1.94869E-04 4.87532E-02-3.85618E-14 2.02822E-13
 -1      2478 2.18286E+01-1.68889E-01 1.41123E-03 4.35980E-01-2.39478E-13 8.90415E-14
 -1      2479 2.19259E+01-2.31532E-01-8.49137E-03 3.50140E-01-2.07284E-13 6.78327E-14
 -1      2480 2.18431E+01-3.69866E-01-1.52296E-03 3.82852E-01-2.13374E-13-1.19695E-14
 -1      2481 2.15634E+01-6.70543E-02 1.25047E-03 5.41998E-01 1.02855E-13 1.38273E-13
 -1      2482 2.16868E+01-1.15136E-01-5.09900E-03 5.02374E-01-1.20800E-13 7.52627E-14
 -1      2483 2.15637E+01-2.02030E-01-2.06527E-03 5.79698E-01-1.53926E-13 1.42495E-13
 -1      2484 2.13024E+01 3.48447E-03 1.05965E-03 5.66808E-01 3.46062E-13 9.13779E-14
 -1      2485 2.14347E+01-2.84642E-02-2.20425E-03 5.60890E-01 2.53940E-13 5.31166E-14
 -1      2486 2.13003E+01-7.04671E-02-2.04473E-03 6.63442E-01 1.88179E-13 1.25897E-13
 -1      2487 2.10603E+01 4.59313E-02 9.05361E-04 5.38645E-01 1.66613E-13 2.16271E-13
 -1      2488 2.11895E+01 2.76427E-02-9.15787E-05 5.54190E-01 2.66531E-13 2.20585E-13
 -1      2489 2.10630E+01 1.86499E-02-1.85212E-03 6.66564E-01 2.42215E-13 7.84398E-14
 -1      2490 2.08450E+01 6.70220E-02 7.92673E-04 4.80705E-01 1.75055E-14 2.64960E-13
 -1      2491 2.09634E+01 5.87463E-02 1.25606E-03 5.07870E-01 1.71998E-13 3.04232E-13
 -1      2492 2.08554E+01 7.09098E-02-1.64768E-03 6.19120E-01 1.66048E-13 2.47584E-13
 -1      2493 2.06596E+01 7.36120E-02 7.06715E-04 4.09802E-01 1.68114E-14 1.25050E-13
 -1      2494 2.07633E+01 7.19319E-02 1.98395E-03 4.41586E-01 2.15574E-14 2.52193E-13
 -1      2495 2.06775E+01 9.56759E-02-1.47060E-03 5.44737E-01 1.04783E-13 2.20124E-13
 -1      2496 2.05043E+01 7.13117E-02 6.32967E-04 3.36977E-01-1.81323E-13 1.18219E-13
 -1      2497 2.05919E+01 7.35402E-02 2.26501E-03 3.68879E-01 8.66126E-15 1.83402E-13
 -1      2498 2.05279E+01 1.02050E-01-1.31771E-03 4.60102E-01 6.15431E-15 5.33775E-14
 -1      2499 2.03774E+01 6.42092E-02 5.64091E-04 2.68775E-01-1.80569E-13 3.07257E-13
 -1      2500 2.04491E+01 6.84381E-02 2.25443E-03 2.98202E-01-2.89761E-13 1.42629E-13
 -1      2501 2.04042E+01 9.73366E-02-1.17670E-03 3.75961E-01-2.16884E-13 9.14620E-14
 -1      2502 2.02759E+01 5.50523E-02 4.97942E-04 2.08535E-01 2.63776E-14 3.48199E-13
 -1      2503 2.03331E+01 6.00255E-02 2.07332E-03 2.34235E-01 3.33295E-14 2.99961E-13
 -1      2504 2.03038E+01 8.67918E-02-1.03923E-03 2.98532E-01-6.80605E-14 2.17148E-13
 -1      2505 2.01966E+01 4.55655E-02 4.35269E-04 1.57479E-01 1.63580E-13 8.71882E-14
 -1      2506 2.02410E+01 5.05110E-02 1.80769E-03 1.79069E-01 9.23697E-15 2.35263E-13
 -1      2507 2.02237E+01 7.39176E-02-9.03132E-04 2.30849E-01 8.32248E-14 3.79342E-13
 -1      2508 2.01359E+01 3.67579E-02 3.78054E-04 1.15510E-01 1.80411E-13 2.59314E-13
 -1      2509 2.01695E+01 4.12347E-02 1.51390E-03 1.33137E-01 2.08482E-13 1.59320E-13
 -1      2510 2.01610E+01 6.08904E-02-7.69559E-04 1.73851E-01 1.79817E-13 1.15725E-13
 -1      2511 2.00905E+01 2.91604E-02 3.24633E-04 8.17804E-02 5.18419E-14 3.57446E-13
 -1      2512 2.01153E+01 3.29512E-02 1.22480E-03 9.58887E-02 8.78072E-14 3.71726E-13
 -1      2513 2.01127E+01 4.89726E-02-6.39998E-04 1.27196E-01 4.39926E-14 1.95721E-13
 -1      2514 2.00574E+01 2.29745E-02 2.87129E-04 5.50981E-02-1.40893E-13 7.02647E-13
 -1      2515 2.00751E+01 2.60140E-02 9.60585E-04 6.62490E-02-1.05905E-13 6.21094E-13
 -1      2516 2.00763E+01 3.87808E-02-5.18694E-04 8.98157E-02-1.21457E-13 5.57060E-13
 -1      2517 2.00339E+01 1.79943E-02 2.21765E-04 3.41640E-02-7.63037E-14 7.05466E-13
 -1      2518 2.00460E+01 2.04451E-02 7.17888E-04 4.29096E-02-7.57247E-14 8.01694E-13
 -1      2519 2.00491E+01 3.05211E-02-4.14382E-04 6.04112E-02-1.57208E-13 8.64232E-13
 -1      2520 2.00176E+01 1.38122E-02 1.56874E-04 1.82075E-02-3.99032E-14 8.92833E-13
 -1      2521 2.00256E+01 1.59181E-02 5.37291E-04 2.48857E-02-8.26252E-14 8.61995E-13
 -1      2522 2.00293E+01 2.34371E-02-4.13260E-04 3.74152E-02-1.58490E-13 8.92500E-13
 -1      2523 2.00115E+01 1.11467E-02 3.15568E-04 1.09550E-02 2.16637E-16 7.42240E-13
 -1      2524 1.99926E+01 7.84096E-02-4.16979E-04 3.48895E-02 4.00940E-13-4.05731E-13
 -1      2525 1.99968E+01 7.14236E-02 1.87497E-04 3.69925E-02 3.40416E-13-8.14718E-13
 -1      2526 1.99858E+01 9.21777E-02-4.29147E-04 2.56732E-02 4.34082E-13-1.36348E-13
 -1      2527 1.99891E+01 8.68761E-02 4.38383E-05 3.04035E-02 3.69357E-13-2.41343E-13
 -1      2528 1.99880E+01 9.30552E-02 2.95114E-04 3.91497E-02 4.38016E-13-3.27700E-13
 -1      2529 2.00087E+01 4.30176E-02-2.42697E-04 3.46951E-02 7.29803E-14-2.27790E-13
 -1      2530 2.00122E+01 3.55789E-02 3.16857E-04 3.13998E-02 5.13518E-14-1.05358E-13
 -1      2531 2.00008E+01 6.12706E-02-3.48044E-04 3.80542E-02 8.16690E-14-8.10254E-13
 -1      2532 2.00051E+01 5.36819E-02 2.95557E-04 3.72450E-02 6.42265E-14-4.88093E-13
 -1      2533 2.00092E+01 5.49826E-02 1.41681E-04 4.41433E-02-6.13892E-14-4.02533E-13
 -1      2534 1.99984E+01 7.50818E-02 1.70395E-04 4.53454E-02 2.57094E-13-5.38030E-13
 -1      2535 1.99817E+01 1.00690E-01-3.81245E-04 1.19906E-02 1.18851E-13 1.90504E-13
 -1      2536 1.99834E+01 9.78167E-02-1.17224E-04 1.85083E-02 2.14593E-13-7.79467E-16
 -1      2537 1.99799E+01 1.06662E-01 3.96393E-04 2.64213E-02 2.39593E-13-2.25412E-13
 -1      2538 1.99808E+01 1.02801E-01-2.78762E-04-3.81233E-03-1.25752E-13-1.09553E-13
 -1      2539 1.99808E+01 1.02783E-01-2.63941E-04 3.34507E-03-7.35069E-14 2.88219E-13
 -1      2540 1.99755E+01 1.14128E-01 4.54881E-04 9.24358E-03 3.93912E-14 3.83946E-14
 -1      2541 1.99835E+01 9.81882E-02-1.37129E-04-1.90187E-02-2.13654E-13-6.11568E-13
 -1      2542 1.99817E+01 1.01055E-01-3.71515E-04-1.24906E-02-8.82359E-14-4.47700E-13
 -1      2543 1.99755E+01 1.14481E-01 4.61594E-04-9.56163E-03-9.93538E-14-2.29022E-13
 -1      2544 1.99891E+01 8.76842E-02 2.98489E-05-3.08033E-02-3.04063E-14-6.67773E-13
 -1      2545 1.99858E+01 9.28880E-02-4.31258E-04-2.61370E-02-9.72088E-14-6.13158E-13
 -1      2546 1.99799E+01 1.07698E-01 4.23907E-04-2.67489E-02 6.49021E-15-5.98130E-13
 -1      2547 1.99971E+01 7.22783E-02 1.87927E-04-3.74175E-02 3.00485E-14-2.74558E-13
 -1      2548 1.99928E+01 7.92959E-02-4.28196E-04-3.53524E-02 1.17175E-13-7.15959E-13
 -1      2549 1.99881E+01 9.45347E-02 3.23137E-04-3.95588E-02 1.63673E-13-5.79741E-13
 -1      2550 2.00057E+01 5.40801E-02 2.81744E-04-3.74707E-02-3.01792E-14 2.15725E-13
 -1      2551 2.00012E+01 6.19307E-02-3.67345E-04-3.84429E-02-9.53075E-14 1.42717E-13
 -1      2552 1.99988E+01 7.64387E-02 1.73567E-04-4.58481E-02 5.23546E-14-2.41956E-13
 -1      2553 2.00128E+01 3.53993E-02 2.68248E-04-3.09785E-02-1.84464E-13-6.55270E-14
 -1      2554 2.00095E+01 4.31132E-02-2.35520E-04-3.47679E-02-1.77246E-13 4.97292E-14
 -1      2555 2.00100E+01 5.58739E-02 1.53400E-04-4.44796E-02-8.25931E-14-2.29954E-14
 -1      2556 1.94005E+01-5.23379E+00 3.56747E-02 6.55219E+00-1.20959E-13-2.97469E-13
 -1      2557 1.56082E+01-4.76017E+00 1.38924E-01 6.69609E+00-1.19932E-13-2.75543E-13
 -1      2558 2.00122E+01 1.83366E-02 3.17533E-04-1.64283E-02 1.78821E-15 3.23431E-13
 -1      2559 3.66064E+00-2.46347E+00 1.14585E-01-1.24957E+00 1.04361E-13 3.69371E-13
 -1      2560 4.43666E+00-3.35866E+00 5.42830E-02-3.36431E+00 1.69198E-13 3.58991E-13
 -1      2561 1.97746E+01 1.65838E-01 4.23540E-03-1.11426E-02 7.58382E-14 7.24230E-14
 -1      2562 1.98343E+01 2.16967E-01 1.25602E-02 8.46735E-02 1.05941E-13 8.12057E-14
 -1      2563 1.99212E+01 2.14967E-01-4.39345E-03-2.88310E-02 8.99386E-14-1.21509E-14
 -1      2564 4.49943E+00-2.70306E+00 7.97851E-02 3.42369E+00-9.96564E-14-2.41251E-13
 -1      2565 3.76681E+00-2.24974E+00 1.18987E-01 1.42703E+00-1.49325E-14 1.05360E-13
 -1      2566 2.53443E+01-4.37860E+00-4.02933E-02 4.26821E+00-2.77778E-13 1.32339E-13
 -1      2567 2.23144E+01-5.09722E+00-1.44974E-02 5.19144E+00-1.75138E-13-2.15661E-14
 -1      2568 2.20094E+01-5.13453E+00 5.09861E-02 5.05851E+00-3.27058E-13-2.46442E-13
 -1      2569 2.69694E+01-3.78086E+00 3.69081E-02 2.19582E+00-2.84869E-13-2.54879E-13
 -1      2570 3.19407E+01 3.41253E+00-1.46965E-01-5.19047E-01 1.30257E-13-3.22298E-13
 -1      2571 3.10770E+01 1.67795E+00-8.69628E-02-4.50179E-02-1.80411E-16-3.04590E-13
 -1      2572 6.38873E+00-3.86719E+00 5.13429E-02-4.66730E+00 2.30038E-13 3.15081E-13
 -1      2573 9.26630E+00-4.15682E+00 3.68117E-02-6.06303E+00 2.32647E-13 3.24935E-13
 -1      2574 7.38417E+00-2.39055E+00 1.58437E-01-4.12258E+00 1.07372E-13 3.76366E-13
 -1      2575 1.02556E+01-4.43671E+00 2.85460E-02 6.33267E+00 4.92106E-14-4.51694E-13
 -1      2576 7.10288E+00-4.08263E+00 5.51255E-02 5.06806E+00 9.07885E-14-6.16174E-13
 -1      2577 2.66179E+01-3.43221E+00-4.44014E-02-3.31468E+00-1.77774E-14-7.17204E-14
 -1      2578 2.91033E+01-1.87270E+00-1.00461E-01-2.08945E+00 9.77551E-14-3.35287E-14
 -1      2579 1.95194E+01 3.63965E+00-1.01633E-02-2.34754E-01 4.11110E-15-3.20880E-13
 -1      2580 1.95373E+01 3.61739E+00-9.56113E-03-4.09428E-01-2.48171E-14-3.08004E-13
 -1      2581 1.97101E+01 3.22671E+00-1.96001E-04-4.50695E-01-3.13946E-14-2.81036E-13
 -1      2582 1.96718E+01 3.29156E+00-4.82435E-04-1.44329E-01 3.99045E-15-2.97151E-13
 -1      2583 2.05518E+01 1.96076E+00-1.36481E-02-1.86688E+00-2.23502E-13-7.22686E-14
 -1      2584 2.04232E+01 1.22647E+00-5.33662E-03-1.24905E+00-1.96248E-13-5.53920E-14
 -1      2585 2.03896E+01 1.38765E+00 2.60659E-03-1.18328E+00-1.88413E-13-1.06142E-13
 -1      2586 2.02982E+01 2.37436E+00-7.85880E-03-1.78961E+00-2.12139E-13-1.42981E-13
 -1      2587 3.05430E+01 5.91939E-01-6.78564E-02-5.22026E-01 2.67897E-13 9.10938E-14
 -1      2588 3.19802E+01 2.63122E+00-1.21969E-01 1.66922E-01 3.03257E-13 1.11272E-13
 -1      2589 3.15262E+01 7.21989E+00-1.46734E-01 4.74403E-01 2.79887E-13-3.11001E-14
 -1      2590 3.10761E+01 7.40893E+00-1.91278E-01-7.32666E-02 2.63012E-13-1.26628E-13
 -1      2591 4.75110E+00-3.44835E+00 4.72065E-02 3.76775E+00-2.78944E-14-7.36966E-13
 -1      2592 3.28721E+00-3.01599E+00 5.83624E-02 1.65055E+00-7.68829E-14-7.70384E-13
 -1      2593 7.81504E+00-2.62381E+00 1.51566E-01 4.44872E+00 1.17267E-13-5.81507E-13
 -1      2594 3.17171E+01 6.85242E+00-1.76648E-01-8.12536E-01 2.84384E-13-2.13829E-13
 -1      2595 3.20050E+01 5.43735E+00-9.24867E-02-8.79768E-01 2.54186E-13-2.69951E-13
 -1      2596 2.14956E+01-5.04342E+00-2.82011E-04-5.66415E+00-5.42622E-14-7.46764E-14
 -1      2597 2.47017E+01-4.28427E+00-6.68454E-04-4.83868E+00 9.43690E-16-8.95950E-14
 -1      2598 2.63379E+01-4.27570E+00 2.65856E-02-3.04170E+00-1.14450E-13 6.47399E-14
 -1      2599 5.77430E+00-3.91898E+00 4.19776E-02-4.92144E+00-8.52651E-14-3.91687E-13
 -1      2600 8.35932E+00-4.20524E+00 2.96296E-02-6.22958E+00-1.23596E-13-2.26041E-13
 -1      2601 3.41156E+01 6.51491E+00-8.48692E-02-7.71883E-01-4.46254E-13-2.92141E-13
 -1      2602 3.30636E+01 5.47377E+00-8.60570E-02-1.30315E+00-5.13145E-13-3.00454E-13
 -1      2603 3.00550E+00-2.84544E+00 7.44691E-02-8.44122E-01-1.73452E-13-8.08353E-13
 -1      2604 4.01408E+00-3.08123E+00 6.74595E-02-3.27564E+00-7.03049E-14-6.59250E-13
 -1      2605 1.76265E+01-5.60802E+00-4.10877E-02 6.61817E+00 5.93969E-15-3.48072E-13
 -1      2606 1.42296E+01-5.30736E+00 5.76713E-02 6.50865E+00 4.62963E-14-3.23283E-13
 -1      2607 2.59057E+01-4.80828E+00-8.18511E-02 3.91746E+00-1.38084E-13-2.21378E-13
 -1      2608 2.17702E+01-5.60224E+00 1.88620E-02 5.18417E+00 6.82787E-15-3.19592E-13
 -1      2609 3.05724E+01-1.72767E+00-9.82578E-02 1.07015E+00-3.46161E-13-2.22211E-13
 -1      2610 2.85970E+01-3.37225E+00-6.73682E-02 1.98357E+00-2.42972E-13-2.15300E-13
 -1      2611 3.28443E+01 2.87368E+00-1.45922E-01-1.17338E+00-4.64684E-13-3.19578E-13
 -1      2612 3.17514E+01 5.59662E-01-6.37472E-02-4.79888E-01-3.94879E-13-3.22131E-13
 -1      2613 3.34781E+01 7.17429E+00-1.33020E-01 3.71977E-01-5.87752E-13-3.01550E-13
 -1      2614 3.39803E+01 7.13690E+00-1.05069E-01-1.89980E-01-5.14699E-13-3.37862E-13
 -1      2615 3.13648E+01 6.48917E+00-5.11256E-02-7.43921E-01-4.83336E-13-2.23405E-13
 -1      2616 3.27234E+01 4.21680E+00-9.91796E-02 1.40773E+00-4.56385E-13-3.91798E-13
 -1      2617 3.31123E+01 5.90398E+00-1.58845E-01 1.15795E+00-5.02320E-13-4.31377E-13
 -1      2618 3.15156E+01 1.02077E-01-6.63759E-02 3.03789E-01-2.77819E-13-4.00513E-13
 -1      2619 3.26146E+01 1.98152E+00-1.71074E-01 8.21316E-01-3.10196E-13-3.69010E-13
 -1      2620 2.72615E+01-4.00622E+00 4.81372E-03-2.81312E+00-3.47222E-14-7.14429E-14
 -1      2621 3.01390E+01-2.31284E+00-1.16291E-01-1.41190E+00-1.86011E-13-3.12694E-13
 -1      2622 2.04547E+01-5.65420E+00 6.87395E-03-5.68491E+00 8.12683E-14 2.16105E-13
 -1      2623 2.38453E+01-5.24754E+00-8.83465E-02-4.93318E+00 5.74540E-14 1.16532E-13
 -1      2624 1.30420E+01-5.11866E+00 5.72316E-02-6.48333E+00 3.38229E-13 3.63071E-13
 -1      2625 1.68487E+01-5.47771E+00-7.31205E-03-6.67509E+00 1.95621E-13 3.47600E-13
 -1      2626 1.97751E+01-5.46897E+00 9.34078E-02-5.80628E+00 3.28265E-13 2.34191E-13
 -1      2627 1.06747E+01-4.00479E+00 1.58432E-02 6.76980E+00-1.86628E-13-1.49880E-13
 -1      2628 6.99650E+00-3.39290E+00 1.09941E-01 5.12444E+00-2.33036E-13-3.09502E-13
 -1      2629 7.75024E+00-2.14452E+00 1.56009E-01 4.45934E+00-1.35864E-13-2.92155E-13
 -1      2630 2.04914E+01 8.79178E-01-6.83806E-03 1.19683E+00 2.12341E-13 1.77047E-13
 -1      2631 2.08340E+01 1.25863E+00-5.88120E-03 1.69935E+00 2.36214E-13 2.10816E-13
 -1      2632 2.06458E+01 1.71771E+00-1.57918E-02 1.89026E+00 2.60399E-13 1.16705E-13
 -1      2633 2.04591E+01 1.06635E+00-9.55875E-03 1.20270E+00 2.13570E-13 7.71607E-14
 -1      2634 1.99238E+01 2.85542E+00 1.73338E-03-1.05642E+00-1.18274E-13-2.57321E-13
 -1      2635 1.97967E+01 3.19077E+00-1.48669E-02-1.24756E+00-1.30606E-13-2.80069E-13
 -1      2636 1.98943E+01 3.04930E+00-1.71354E-02-1.43562E+00-1.63424E-13-2.69112E-13
 -1      2637 2.00392E+01 3.64439E-01-3.97443E-03 2.35904E-01 1.33671E-13 1.03663E-14
 -1      2638 2.04295E+01 2.12106E+00-1.26671E-02 1.84005E+00 2.59191E-13 2.52472E-14
 -1      2639 1.28040E+01-4.10209E+00 1.25293E-01-6.15145E+00 3.52218E-13 3.26461E-13
 -1      2640 2.61921E+01-4.86928E+00 4.31178E-02-3.09739E+00 5.44009E-14-1.26676E-13
 -1      2641 2.93086E+01-1.18780E+00-3.44707E-03-2.70548E-01 1.11113E-13 1.37973E-13
 -1      2642 2.95393E+01 6.31523E+00-8.63080E-02 9.77813E-01 1.91291E-13 4.52069E-14
 -1      2643 2.95487E+01-1.95998E-01-2.10986E-02-4.78063E-01-7.59531E-14-4.15279E-13
 -1      2644 3.02854E+01-1.62542E+00 9.36972E-03 3.66656E-01-1.65491E-13-4.79783E-13
 -1      2645 3.02503E+01 4.06252E+00-5.12095E-02-1.47946E+00 9.42024E-14-3.32234E-13
 -1      2646 3.09396E+01 6.06316E+00-3.20643E-02 1.21303E+00-4.32515E-13-4.43839E-13
 -1      2647 2.00150E+01 1.78146E-02 7.31721E-06 1.98277E-02-9.04244E-14 6.90970E-13
 -1      2648 2.00153E+01 2.37455E-02 4.01327E-05 2.47613E-02 1.85612E-14 4.32735E-13
 -1      2649 3.15168E+01 3.74065E+00-1.33019E-02-1.98365E+00-4.37067E-13-1.81799E-13
 -1      2650 1.48177E+01-4.02599E+00 1.23626E-01 6.45123E+00-2.49634E-13-3.21784E-13
 -1      2651 2.00190E+01 1.97990E-02 2.91212E-04-2.30344E-02-1.42656E-13 4.23273E-13
 -1      2652 2.00157E+01 2.71305E-02-2.44900E-04-2.76453E-02-1.65659E-13 1.85130E-13
 -1      2653 2.00195E+01 3.76632E-02 2.44931E-04-3.85796E-02-2.41100E-13 6.86414E-14
 -1      2654 2.00261E+01 2.28133E-02 5.73526E-04-3.01412E-02-1.79899E-13 5.16246E-13
 -1      2655 3.04076E+01-9.45965E-01 1.04199E-03-7.66543E-01-2.54095E-13-9.83380E-14
 -1      2656 4.76623E+00-1.64422E+00 1.56626E-01-5.02223E-03 1.94393E-14 3.11473E-13
 -1      2657 6.13327E+00-9.61238E-01 1.24415E-01-1.47892E+00-8.20316E-14 4.15334E-13
 -1      2658 6.26897E+00-7.50377E-01 1.59205E-01 9.84181E-01-3.74379E-14 3.03924E-14
 -1      2659 2.04472E+01 1.81987E+00 1.24720E-02 1.52220E+00 2.39190E-13 7.34742E-15
 -1      2660 2.73462E+01-4.58771E+00 4.51966E-03 2.07657E+00-7.20257E-15-1.29785E-13
 -1      2661 2.00021E+01 2.85788E+00-1.51724E-02-1.54625E+00-1.77918E-13-2.46431E-13
 -1      2662 2.01459E+01 2.62592E+00-2.22681E-02-1.71294E+00-2.01711E-13-1.96778E-13
 -1      2663 2.03009E+01 2.06977E+00 4.28872E-03-1.44274E+00-1.97082E-13-1.67334E-13
 -1      2664 2.01013E+01 2.52301E+00 4.29842E-03-1.29772E+00-1.61139E-13-2.25383E-13
 -1      2665 1.36673E+01-4.31258E+00 1.29238E-01 6.26723E+00 1.44496E-13-3.73090E-13
 -1      2666 2.12850E+01-5.48512E+00 7.58594E-02 5.30881E+00 1.40249E-13-2.52690E-13
 -1      2667 4.99650E+00-1.68928E+00 1.52460E-01 4.13807E-01-1.22971E-13-7.55285E-13
 -1      2668 2.01652E+01-5.27863E+00 7.06204E-02-6.17337E+00-9.48686E-14-7.13180E-14
 -1      2669 2.27163E+01-5.33546E+00-6.85252E-02-4.89687E+00-1.90986E-13-1.31561E-14
 -1      2670 1.85452E+01-5.03553E+00 1.34678E-01-6.45788E+00-1.56597E-13 1.34406E-14
 -1      2671 1.08736E+01-3.39106E+00 1.58622E-01-6.30229E+00-1.79995E-13-2.16382E-13
 -1      2672 1.11997E+01-4.42608E+00 8.89795E-02-6.66720E+00-1.22513E-13-1.42553E-13
 -1      2673 1.39836E+01-4.59819E+00-8.97160E-03-6.82143E+00-1.91985E-13-5.33462E-14
 -1      2674 3.04013E+01 3.32688E+00-3.84312E-02 1.35851E+00 2.18159E-13 4.17444E-14
 -1      2675 2.93744E+01 6.63271E+00-1.04768E-01-5.66670E-01 2.29178E-13 2.20796E-14
 -1      2676 6.46707E+00-2.41176E+00 1.33468E-01-4.04356E+00-2.00964E-13-5.18252E-13
 -1      2677 3.11140E+01 2.85956E+00 2.52918E-02 2.21421E+00-3.20660E-13-6.14647E-13
 -1      2678 2.00188E+01 3.29358E-02 2.12080E-04 3.50463E-02-9.79572E-14 3.15524E-13
 -1      2679 2.00277E+01 3.19136E-02-4.12910E-04-4.25252E-02-2.73893E-13 3.17462E-13
 -1      2680 2.03399E+01 1.60152E+00-8.74667E-03-1.19182E+00-1.76858E-13-1.45216E-13
 -1      2681 2.03282E+01 1.24092E+00 1.24421E-03-9.14736E-01-1.64196E-13-1.27835E-13
 -1      2682 2.02580E+01 1.87074E+00-8.80509E-04-1.16691E+00-1.64288E-13-1.73638E-13
 -1      2683 1.98372E+01 2.83798E+00-6.20531E-03 4.85722E-01 8.72222E-14-2.61158E-13
 -1      2684 1.98088E+01 2.89113E+00-5.97286E-03 3.42036E-01 7.35916E-14-2.76534E-13
 -1      2685 1.97895E+01 2.93251E+00-5.65525E-03 2.16007E-01 6.06844E-14-2.85167E-13
 -1      2686 1.97797E+01 2.95070E+00-5.60826E-03 6.97502E-02 4.12044E-14-2.81795E-13
 -1      2687 1.99304E+01 2.59408E+00 4.06882E-03 2.43928E-01 5.61498E-14-2.65465E-13
 -1      2688 2.00541E+01 2.36995E+00-1.04432E-02 9.95052E-01 1.92901E-13-1.52662E-13
 -1      2689 1.99852E+01 2.52497E+00-6.67246E-03 8.62286E-01 1.71836E-13-1.71196E-13
 -1      2690 2.02333E+01 1.93811E+00-1.18024E-02 1.17557E+00 2.23179E-13-9.61336E-14
 -1      2691 2.01385E+01 2.18247E+00-5.13653E-03 1.08175E+00 2.09030E-13-1.28567E-13
 -1      2692 2.02005E+01 1.93661E+00 6.57259E-03 8.68005E-01 1.91905E-13-1.16188E-13
 -1      2693 2.02427E+01 7.53487E-01-2.83785E-03 5.82274E-01 1.58938E-13-2.72805E-14
 -1      2694 2.03754E+01 9.72779E-01 9.16112E-03 8.54053E-01 1.74472E-13-1.03215E-14
 -1      2695 2.80772E+01-4.18118E+00-1.42761E-01 5.77786E-01 3.23769E-14 6.58640E-14
 -1      2696 2.61973E+01-4.58464E+00 1.46652E-01 2.05617E+00 9.69294E-14 3.25434E-15
 -1      2697 9.79363E+00-1.96560E+00 3.97994E-02 5.14024E+00-2.42570E-13-3.80390E-13
 -1      2698 7.79586E+00-1.04314E+00 1.65260E-01 3.31428E+00-1.94594E-13-4.33320E-13
 -1      2699 2.02507E+01 6.73142E-01 6.95173E-03-3.55352E-01-9.92338E-14-1.22446E-13
 -1      2700 2.01793E+01 5.33653E-01-2.24918E-03-1.80697E-01-8.64801E-14-1.12626E-13
 -1      2701 2.01583E+01 4.29125E-01 6.25805E-03-4.27671E-02-9.05883E-14-1.13335E-13
 -1      2702 2.01145E+01 3.46243E-01-7.15183E-04 7.46696E-02-8.75757E-14-1.28890E-13
 -1      2703 2.02319E+01 6.06412E-01-1.75454E-03-1.46631E-01-9.89389E-14-1.32285E-13
 -1      2704 2.00934E+01 2.88200E-01 3.99605E-03 1.73585E-01-9.07653E-14-1.27965E-13
 -1      2705 2.00780E+01 2.43417E-01 5.27074E-04 2.56474E-01-9.28567E-14-1.37081E-13
 -1      2706 2.01753E+01 4.03352E-01-2.30717E-03 1.01835E-01-9.11255E-14-1.50450E-13
 -1      2707 2.00628E+01 2.14280E-01 2.23213E-03 3.30830E-01-9.19121E-14-1.21805E-13
 -1      2708 2.00707E+01 1.95056E-01 1.40170E-03 3.94556E-01-1.16600E-13-1.41361E-13
 -1      2709 2.01326E+01 2.91895E-01-2.11419E-03 2.85361E-01-9.38848E-14-1.74091E-13
 -1      2710 2.00620E+01 1.85769E-01 8.64604E-04 4.55823E-01-9.69509E-14-1.45365E-13
 -1      2711 2.00887E+01 1.84746E-01 2.07554E-03 5.11511E-01-5.30787E-14-1.33535E-13
 -1      2712 2.01076E+01 2.41868E-01-1.68679E-03 4.28912E-01-8.47465E-14-1.60053E-13
 -1      2713 2.00852E+01 1.89849E-01-1.94524E-04 5.68758E-01-2.58600E-14-1.09734E-13
 -1      2714 2.01275E+01 2.02278E-01 2.64508E-03 6.24556E-01-2.68658E-14-1.04900E-13
 -1      2715 2.00976E+01 2.35563E-01-1.21786E-03 5.53557E-01-3.17357E-14-1.11613E-13
 -1      2716 2.01273E+01 2.17984E-01-1.03380E-03 6.84765E-01-5.50756E-14-9.93627E-14
 -1      2717 2.01828E+01 2.40230E-01 3.15868E-03 7.46603E-01-5.84555E-14-8.28368E-14
 -1      2718 2.00989E+01 2.61381E-01-7.49928E-04 6.75750E-01-2.41831E-14-4.31238E-14
 -1      2719 2.01841E+01 2.63213E-01-1.70814E-03 8.15001E-01-7.12467E-14-6.73148E-14
 -1      2720 2.02518E+01 2.91592E-01 3.63013E-03 8.86894E-01-4.56008E-14-1.11035E-13
 -1      2721 2.01069E+01 3.10348E-01-2.93658E-04 8.07965E-01-4.86835E-14-4.27327E-14
 -1      2722 2.02529E+01 3.17858E-01-2.22217E-03 9.67119E-01-1.80055E-14-6.49426E-14
 -1      2723 2.03325E+01 3.47358E-01 4.05385E-03 1.05103E+00 2.37380E-14-4.91441E-14
 -1      2724 2.01176E+01 3.73422E-01 1.29180E-04 9.59226E-01-1.36397E-14-6.69050E-14
 -1      2725 2.03332E+01 3.70861E-01-2.50490E-03 1.14506E+00 3.90383E-15-6.21392E-14
 -1      2726 2.04259E+01 3.93452E-01 4.41856E-03 1.24030E+00-4.80853E-14-6.17101E-14
 -1      2727 2.01284E+01 4.38545E-01 4.34368E-04 1.13529E+00-3.37133E-14-1.27473E-13
 -1      2728 2.04286E+01 4.04169E-01-2.36541E-03 1.34813E+00-1.35190E-14-6.36158E-14
 -1      2729 2.05382E+01 4.06461E-01 4.71838E-03 1.45015E+00 7.55852E-16-3.51451E-14
 -1      2730 2.01395E+01 4.86834E-01 4.06250E-04 1.33850E+00-1.06710E-14-5.76367E-14
 -1      2731 2.05513E+01 3.87856E-01-1.42076E-03 1.56904E+00 1.07905E-14-2.06850E-14
 -1      2732 2.06867E+01 3.48192E-01 4.93351E-03 1.66758E+00 2.49074E-14 3.20257E-14
 -1      2733 2.01590E+01 4.87374E-01-4.12717E-04 1.56716E+00 3.13855E-14-2.31345E-14
 -1      2734 2.07304E+01 2.74542E-01 1.00019E-03 1.79043E+00-5.26377E-14 3.14400E-14
 -1      2735 2.09093E+01 1.60527E-01 4.90226E-03 1.86661E+00-9.17673E-14 4.60372E-14
 -1      2736 2.02100E+01 3.90818E-01-2.87174E-03 1.81421E+00-2.87190E-14 6.40412E-15
 -1      2737 2.10239E+01-3.85792E-03 5.97937E-03 1.97818E+00-1.04958E-13 4.68615E-14
 -1      2738 2.12766E+01-2.33852E-01 4.07339E-03 2.00025E+00-1.06175E-13-8.32564E-15
 -1      2739 2.03437E+01 1.23765E-01-8.34458E-03 2.06346E+00-1.02039E-13 4.00630E-14
 -1      2740 2.15335E+01-5.27397E-01 1.53540E-02 2.06770E+00 2.61314E-15-2.72194E-14
 -1      2741 2.19005E+01-9.09342E-01 1.26782E-03 1.98560E+00 6.71047E-14 5.98913E-16
 -1      2742 2.06592E+01-4.09048E-01-1.83246E-02 2.27883E+00-6.92902E-14 2.88428E-14
 -1      2743 2.24054E+01-1.34377E+00 3.08554E-02 1.93988E+00 2.98849E-14 3.74904E-14
 -1      2744 2.29206E+01-1.86139E+00-5.28607E-03 1.68257E+00 5.77845E-14 6.91825E-14
 -1      2745 2.13205E+01-1.29191E+00-3.29091E-02 2.37574E+00 7.13429E-14-1.01984E-14
 -1      2746 2.37904E+01-2.34585E+00 5.15591E-02 1.39642E+00 1.48437E-13 1.47287E-13
 -1      2747 2.44259E+01-2.82435E+00 4.40518E-03 9.10177E-01 2.55573E-13 1.02932E-13
 -1      2748 2.25219E+01-2.50262E+00-5.97737E-02 2.17145E+00 1.59135E-13 5.46542E-14
 -1      2749 2.60153E+01-3.34532E+00-6.76439E-03 1.41204E-01 2.87439E-13 1.58907E-13
 -1      2750 2.68540E+01-2.97828E+00-2.61392E-02-8.05892E-01 2.32238E-13 1.90313E-13
 -1      2751 2.73774E+01-2.08440E+00-4.36919E-02-1.43465E+00 1.24307E-13 1.99625E-13
 -1      2752 2.89964E+01 4.26026E-01-1.08997E-01-2.62469E+00-1.49755E-13 7.53841E-14
 -1      2753 2.88280E+01 2.53854E+00-1.33534E-01-2.30262E+00-3.17191E-13-4.72816E-14
 -1      2754 2.82275E+01 4.77721E+00-1.63251E-01 1.31076E+00-2.82940E-13-4.77219E-13
 -1      2755 2.82843E+01 3.29053E+00-2.65670E-01 2.34524E+00-1.86184E-13-5.68899E-13
 -1      2756 2.73853E+01-1.76190E+00-5.33553E-02 1.88337E+00-8.25937E-14-5.80765E-13
 -1      2757 2.68961E+01-2.64461E+00-1.81596E-02 1.15774E+00 1.55973E-14-6.61485E-13
 -1      2758 2.57468E+01-2.95152E+00-2.25430E-02 2.49997E-01 7.52367E-14-6.51996E-13
 -1      2759 2.51290E+01-2.86615E+00 3.70330E-02-4.46964E-01 1.15842E-13-6.21590E-13
 -1      2760 2.63694E+01-3.29884E+00-2.40948E-02 9.69953E-02 1.91210E-14-6.48114E-13
 -1      2761 2.40319E+01-2.52660E+00-2.12372E-02-1.04218E+00 1.07682E-13-6.09403E-13
 -1      2762 2.34521E+01-2.02144E+00 3.88229E-02-1.47441E+00 1.11573E-13-5.67416E-13
 -1      2763 2.41205E+01-3.17331E+00-4.68208E-02-1.38801E+00 1.57581E-13-5.75628E-13
 -1      2764 2.26986E+01-1.55146E+00-1.00372E-02-1.71005E+00 8.76035E-15-4.99955E-13
 -1      2765 2.22461E+01-1.05953E+00 2.46624E-02-1.90718E+00-2.22608E-14-4.88408E-13
 -1      2766 2.24063E+01-2.06762E+00-3.96153E-02-2.06906E+00 8.68095E-14-4.65423E-13
 -1      2767 2.18112E+01-6.77762E-01-2.17857E-03-1.93243E+00-3.76387E-14-4.57993E-13
 -1      2768 2.14925E+01-3.32778E-01 1.23693E-02-1.97359E+00-7.29341E-14-3.73394E-13
 -1      2769 2.13477E+01-9.82937E-01-2.53739E-02-2.22469E+00-2.35599E-14-4.35359E-13
 -1      2770 2.12699E+01-8.75167E-02 1.62646E-03-1.89883E+00-1.11583E-13-3.70071E-13
 -1      2771 2.10503E+01 1.12995E-01 4.92231E-03-1.85044E+00-2.16135E-13-3.36424E-13
 -1      2772 2.07728E+01-2.18666E-01-1.33352E-02-2.11804E+00-8.54771E-14-4.97700E-13
 -1      2773 2.09464E+01 2.44197E-01 3.21622E-03-1.73467E+00-1.93367E-13-2.80918E-13
 -1      2774 2.07893E+01 3.40199E-01 9.00411E-04-1.64120E+00-9.49228E-14-2.88141E-13
 -1      2775 2.04873E+01 2.27044E-01-5.88008E-03-1.90082E+00-1.41486E-13-4.67693E-13
 -1      2776 2.07442E+01 3.94439E-01 3.83355E-03-1.51362E+00-7.80440E-14-4.39572E-13
 -1      2777 2.06242E+01 4.25277E-01-1.02746E-03-1.40296E+00-4.02097E-14-5.13249E-13
 -1      2778 2.03527E+01 4.42248E-01-1.87603E-03-1.64607E+00-1.57146E-13-4.94223E-13
 -1      2779 2.06044E+01 4.34236E-01 3.96902E-03-1.27840E+00-3.89480E-14-4.71223E-13
 -1      2780 2.05075E+01 4.28983E-01-1.79434E-03-1.16698E+00-1.55422E-14-3.55980E-13
 -1      2781 2.02875E+01 5.12684E-01-8.80686E-05-1.38920E+00-4.61359E-14-6.82970E-13
 -1      2782 2.04967E+01 4.14517E-01 3.83440E-03-1.05281E+00-1.19435E-13-4.02277E-13
 -1      2783 2.04158E+01 3.91854E-01-1.95206E-03-9.49583E-01-2.16563E-13-3.90207E-13
 -1      2784 2.02494E+01 5.02289E-01 5.02151E-04-1.14804E+00-1.00315E-13-5.28773E-13
 -1      2785 2.04069E+01 3.67334E-01 3.53735E-03-8.49111E-01-2.41946E-13-4.66974E-13
 -1      2786 2.03387E+01 3.38209E-01-1.81852E-03-7.58249E-01-2.75810E-13-5.23652E-13
 -1      2787 2.02195E+01 4.52455E-01 5.40878E-04-9.31412E-01-2.71579E-13-6.12988E-13
 -1      2788 2.03296E+01 3.11111E-01 3.14842E-03-6.72423E-01-1.93786E-13-4.24828E-13
 -1      2789 2.02724E+01 2.81446E-01-1.56816E-03-5.95220E-01 4.69931E-14-4.41569E-13
 -1      2790 2.01911E+01 3.87670E-01 3.78481E-04-7.42973E-01-1.98720E-13-4.45596E-13
 -1      2791 2.02628E+01 2.55583E-01 2.72099E-03-5.23607E-01 1.25111E-13-4.98626E-13
 -1      2792 2.02155E+01 2.28280E-01-1.29111E-03-4.59705E-01 2.19716E-13-4.82647E-13
 -1      2793 2.01628E+01 3.21310E-01 1.82653E-04-5.83195E-01 7.41156E-14-3.29235E-13
 -1      2794 2.02059E+01 2.05352E-01 2.29371E-03-4.01110E-01 3.05094E-13-4.07230E-13
 -1      2795 2.01673E+01 1.81611E-01-1.03004E-03-3.49294E-01 4.32333E-13-3.24929E-13
 -1      2796 2.01354E+01 2.60014E-01 2.09633E-05-4.50575E-01 2.96428E-13-4.22481E-13
 -1      2797 2.01582E+01 1.62178E-01 1.89189E-03-3.02152E-01 3.86748E-13-4.03917E-13
 -1      2798 2.01274E+01 1.42291E-01-8.01947E-04-2.60841E-01 2.32392E-13-2.25107E-13
 -1      2799 2.01099E+01 2.06580E-01-8.83905E-05-3.42502E-01 3.65464E-13-5.61289E-13
 -1      2800 2.01191E+01 1.26334E-01 1.53016E-03-2.23472E-01 1.57584E-13-1.97715E-13
 -1      2801 2.00948E+01 1.10137E-01-6.11005E-04-1.91002E-01 3.01827E-13-8.60489E-14
 -1      2802 2.00870E+01 1.61732E-01-1.48185E-04-2.55846E-01 2.68717E-13-4.13826E-13
 -1      2803 2.00875E+01 9.73484E-02 1.21097E-03-1.61758E-01 2.48541E-13-1.23089E-13
 -1      2804 2.00688E+01 8.44171E-02-4.69676E-04-1.36556E-01 2.28366E-13-2.00724E-13
 -1      2805 2.00671E+01 1.25151E-01-1.66021E-04-1.87349E-01 2.52668E-13-1.35146E-13
 -1      2806 2.00625E+01 7.44552E-02 9.31078E-04-1.14041E-01 2.35853E-13-2.81272E-13
 -1      2807 2.00481E+01 6.45068E-02-3.41801E-04-9.46682E-02 1.24484E-13-2.31635E-13
 -1      2808 2.00503E+01 9.60026E-02-1.48038E-04-1.33971E-01 2.29838E-13-4.65976E-13
 -1      2809 2.00427E+01 5.66473E-02 6.71267E-04-7.73422E-02 8.95103E-14-1.39483E-13
 -1      2810 2.00322E+01 4.93204E-02-7.22912E-05-6.28258E-02-1.36016E-13-1.34306E-13
 -1      2811 2.00361E+01 7.33275E-02-1.24660E-04-9.28400E-02 1.14776E-13-3.51302E-13
 -1      2812 2.00003E+01 1.37128E-01 1.51244E-03-3.47669E-01 5.66341E-14-1.11254E-13
 -1      2813 1.99856E+01 1.59185E-01 2.94918E-03-2.93530E-01 7.36282E-14-9.14717E-14
 -1      2814 1.99960E+01 1.88322E-01 9.66058E-04-2.24006E-01 7.91194E-14-1.03500E-13
 -1      2815 2.00094E+01 2.31069E-01 5.01108E-03-1.48048E-01 8.96167E-14-7.42817E-14
 -1      2816 2.00767E+01 2.29286E-01-2.80162E-03-2.54515E-01 8.20563E-14-1.46865E-13
 -1      2817 2.01073E+01 1.07641E-01 2.13641E-03-5.25621E-01 4.15878E-15 8.01186E-15
 -1      2818 2.00533E+01 1.09023E-01 6.70341E-04-4.87984E-01 2.74953E-14-3.98842E-14
 -1      2819 2.02009E+01 1.09263E-01 2.24900E-03-6.03621E-01 1.98897E-14 2.28608E-14
 -1      2820 2.01320E+01 1.07518E-01 1.53747E-04-5.67417E-01 1.35164E-14 1.14398E-14
 -1      2821 2.01245E+01 1.39145E-01-1.62664E-03-5.83805E-01-4.70970E-15-4.57639E-14
 -1      2822 2.03185E+01 1.10055E-01 2.18080E-03-6.80903E-01 1.02690E-13 1.21292E-14
 -1      2823 2.02364E+01 1.09804E-01-4.45944E-05-6.45242E-01 6.76639E-14 9.58780E-15
 -1      2824 2.01870E+01 1.40293E-01-1.50523E-03-6.72447E-01 4.99055E-14-6.39197E-14
 -1      2825 2.04610E+01 1.00151E-01 1.84850E-03-7.55648E-01 1.22004E-13 5.34436E-14
 -1      2826 2.03662E+01 1.06716E-01 6.72057E-05-7.22442E-01 1.05031E-13 5.65551E-14
 -1      2827 2.02719E+01 1.37803E-01-1.55916E-03-7.60539E-01 9.00406E-14 5.65296E-14
 -1      2828 2.06306E+01 6.77683E-02 1.13420E-03-8.19925E-01 8.35965E-14 1.00437E-13
 -1      2829 2.05237E+01 8.75365E-02 5.21879E-04-7.94261E-01 1.16324E-13 1.09157E-13
 -1      2830 2.03822E+01 1.18722E-01-1.83176E-03-8.45710E-01 8.22515E-14 1.33075E-13
 -1      2831 2.08318E+01-8.01419E-04-1.04859E-04-8.58675E-01-1.92554E-14 1.31819E-13
 -1      2832 2.07133E+01 3.94890E-02 1.38065E-03-8.49283E-01 5.23202E-14 1.38633E-13
 -1      2833 2.05246E+01 6.77012E-02-2.38694E-03-9.19188E-01 4.93710E-14 2.24252E-13
 -1      2834 2.10699E+01-1.19456E-01-2.01236E-03-8.48801E-01-1.09780E-13 1.50652E-13
 -1      2835 2.09415E+01-5.15643E-02 2.69276E-03-8.68257E-01-6.80171E-14 1.47872E-13
 -1      2836 2.07092E+01-3.25803E-02-3.27888E-03-9.64580E-01-3.82355E-14 2.36154E-13
 -1      2837 2.13503E+01-2.97325E-01-4.67339E-03-7.59331E-01-1.40108E-14 1.28147E-13
 -1      2838 2.12154E+01-1.98055E-01 4.41838E-03-8.23356E-01-9.70443E-14 1.51286E-13
 -1      2839 2.09502E+01-1.98528E-01-4.48748E-03-9.56588E-01-1.06350E-13 1.77341E-13
 -1      2840 2.16730E+01-5.28564E-01-7.94107E-03-5.54406E-01-2.78391E-14 2.20619E-13
 -1      2841 2.15391E+01-4.03501E-01 6.25772E-03-6.79179E-01-5.46075E-15 1.83152E-13
 -1      2842 2.12632E+01-4.38148E-01-5.75158E-03-8.60464E-01-6.34218E-14 2.14994E-13
 -1      2843 2.20249E+01-7.75724E-01-1.10475E-02-2.02588E-01-9.59402E-14 2.55266E-13
 -1      2844 2.19058E+01-6.49195E-01 7.43546E-03-3.98287E-01-3.21503E-14 2.32139E-13
 -1      2845 2.16584E+01-7.36512E-01-6.32363E-03-6.34221E-01-4.95637E-14 2.66224E-13
 -1      2846 2.23660E+01-9.51203E-01-1.22202E-02 3.02148E-01-4.94125E-14 2.34310E-13
 -1      2847 2.22838E+01-8.75502E-01 6.46020E-03 4.34066E-02-8.50376E-14 2.43702E-13
 -1      2848 2.21257E+01-1.03334E+00-4.80603E-03-2.38545E-01-4.98887E-14 1.76002E-13
 -1      2849 2.26215E+01-9.14717E-01-8.48510E-03 9.03999E-01-7.59575E-14 1.64447E-13
 -1      2850 2.26022E+01-9.67786E-01 1.26519E-03 6.24817E-01-6.65825E-14 2.19026E-13
 -1      2851 2.26104E+01-1.20128E+00 6.28768E-05 3.36038E-01-3.22031E-14 1.98512E-13
 -1      2852 2.26976E+01-5.20048E-01 2.70833E-03 1.44726E+00 1.47330E-13 1.85170E-13
 -1      2853 2.27584E+01-7.72801E-01-7.53828E-03 1.23657E+00 6.30719E-14 2.29043E-13
 -1      2854 2.30005E+01-1.06284E+00 6.75718E-03 1.02022E+00-2.01239E-14 2.15591E-13
 -1      2855 2.25325E+01 2.55223E-01 1.44878E-02 1.66578E+00 1.33262E-13 1.63300E-13
 -1      2856 2.26548E+01-1.80796E-01-2.08075E-02 1.64680E+00 1.67822E-13 1.82706E-13
 -1      2857 2.31495E+01-4.37797E-01 1.45663E-02 1.61160E+00 1.78907E-13 2.42413E-13
 -1      2858 2.22016E+01 1.16832E+00 1.97060E-02 1.31352E+00 2.69724E-13 7.68539E-14
 -1      2859 2.23292E+01 7.11084E-01-2.68875E-02 1.56873E+00 1.70486E-13 1.34319E-13
 -1      2860 2.29745E+01 5.98615E-01 5.44129E-03 1.77198E+00 2.28106E-13 1.75014E-13
 -1      2861 2.19364E+01 1.73836E+00 4.93201E-03 3.95136E-01 1.91853E-13 6.38465E-15
 -1      2862 2.20000E+01 1.51300E+00-1.76913E-02 8.61840E-01 2.62299E-13 7.93402E-14
 -1      2863 2.26268E+01 1.66408E+00-9.52447E-03 1.22358E+00 2.55517E-13 6.85793E-14
 -1      2864 2.19727E+01 1.59056E+00-1.44879E-02-7.36996E-01 5.66457E-14-1.38616E-13
 -1      2865 2.19140E+01 1.76485E+00-2.14248E-04-2.51134E-01 1.62474E-13-5.68009E-14
 -1      2866 2.24185E+01 2.14570E+00-7.84197E-03 8.67253E-02 1.90726E-13 1.39277E-13
 -1      2867 2.22831E+01 8.41253E-01-2.47054E-02-1.51876E+00-6.87442E-14-2.46018E-14
 -1      2868 2.21595E+01 1.27841E+00 2.02218E-02-1.22481E+00-6.91001E-14-1.23653E-13
 -1      2869 2.25919E+01 1.78616E+00-7.59331E-03-1.10605E+00 2.57910E-14 1.02607E-13
 -1      2870 2.26291E+01-6.63730E-02-2.16157E-02-1.68350E+00-4.53520E-14 1.25386E-13
 -1      2871 2.24991E+01 3.84605E-01 1.69139E-02-1.66648E+00-1.71946E-14 5.25860E-14
 -1      2872 2.29369E+01 7.66422E-01 7.27820E-03-1.75336E+00-1.70789E-13 1.20871E-13
 -1      2873 2.27707E+01-7.08195E-01-1.08356E-02-1.32802E+00-1.27245E-13 3.86350E-13
 -1      2874 2.26972E+01-4.28113E-01 3.11600E-03-1.51707E+00-7.65770E-14 2.65255E-13
 -1      2875 2.31484E+01-3.11045E-01 1.21313E-02-1.68029E+00-1.72927E-13 2.99847E-13
 -1      2876 2.26534E+01-9.50307E-01 5.67006E-04-7.33472E-01-1.51482E-13 3.30799E-13
 -1      2877 2.26586E+01-8.75250E-01-7.75566E-03-1.00654E+00-1.26379E-13 3.11303E-13
 -1      2878 2.30495E+01-9.90912E-01 8.76474E-03-1.13449E+00-1.05901E-13 5.02645E-13
 -1      2879 2.23561E+01-8.84160E-01 6.51081E-03-1.46982E-01-1.46103E-13 3.74137E-13
 -1      2880 2.24267E+01-9.49228E-01-1.19831E-02-4.07824E-01-1.16916E-13 3.86467E-13
 -1      2881 2.26868E+01-1.18894E+00 1.57758E-03-4.53118E-01-1.59580E-13 4.75250E-13
 -1      2882 2.19887E+01-6.64420E-01 7.90190E-03 3.05799E-01-2.44408E-14 2.82685E-13
 -1      2883 2.20986E+01-7.89879E-01-1.12826E-02 1.05670E-01-1.50251E-14 3.56720E-13
 -1      2884 2.22099E+01-1.04714E+00-4.00916E-03 1.33297E-01-5.55616E-15 3.47064E-13
 -1      2885 2.16274E+01-4.12388E-01 6.84895E-03 5.94615E-01-2.08959E-13 4.24346E-14
 -1      2886 2.17533E+01-5.41956E-01-8.41554E-03 4.67104E-01-2.97095E-14 1.50686E-13
 -1      2887 2.17409E+01-7.54054E-01-6.15043E-03 5.41863E-01 2.78243E-14 3.55881E-13
 -1      2888 2.13091E+01-1.95397E-01 5.01862E-03 7.39649E-01-7.94070E-15-1.75430E-13
 -1      2889 2.14357E+01-3.01104E-01-5.17317E-03 6.76066E-01-2.89965E-13-1.47312E-13
 -1      2890 2.13410E+01-4.45672E-01-5.90526E-03 7.74379E-01-1.12052E-13-2.21277E-13
 -1      2891 2.10428E+01-3.65488E-02 3.29180E-03 7.77973E-01 2.63358E-13-4.00177E-14
 -1      2892 2.11620E+01-1.10861E-01-2.44989E-03 7.62407E-01 1.56535E-13-5.86502E-14
 -1      2893 2.10249E+01-1.91160E-01-4.70157E-03 8.68529E-01-6.59999E-15-3.20263E-13
 -1      2894 2.08251E+01 6.52677E-02 1.93855E-03 7.45967E-01 1.28249E-13 1.48403E-13
 -1      2895 2.09329E+01 1.96027E-02-4.65167E-04 7.62251E-01 2.46957E-13 5.73984E-14
 -1      2896 2.07837E+01-1.02969E-02-3.44383E-03 8.67010E-01 1.97225E-13-6.66062E-14
 -1      2897 2.06486E+01 1.21174E-01 1.00107E-03 6.73207E-01 1.65948E-13 9.76682E-14
 -1      2898 2.07435E+01 9.76623E-02 8.33660E-04 7.07905E-01 1.49574E-13 2.03675E-13
 -1      2899 2.06015E+01 1.02417E-01-2.45032E-03 8.06142E-01 1.64255E-13 1.29440E-13
 -1      2900 2.05058E+01 1.44313E-01 4.11279E-04 5.81315E-01 1.26601E-13 1.05690E-13
 -1      2901 2.05876E+01 1.36144E-01 1.58673E-03 6.24496E-01 2.08590E-13 1.93479E-13
 -1      2902 2.04632E+01 1.61837E-01-1.75514E-03 7.13417E-01 1.64733E-13 9.84426E-14
 -1      2903 2.03907E+01 1.46236E-01 7.11599E-05 4.84831E-01-1.52970E-14 1.02562E-13
 -1      2904 2.04597E+01 1.47712E-01 1.93868E-03 5.29803E-01 3.56117E-14 9.84642E-14
 -1      2905 2.03571E+01 1.83945E-01-1.30066E-03 6.08068E-01 6.45633E-14 1.90536E-13
 -1      2906 2.02982E+01 1.35797E-01-1.02866E-04 3.92734E-01-1.91271E-13-6.52130E-15
 -1      2907 2.03554E+01 1.42675E-01 2.01637E-03 4.35387E-01-1.00566E-13 1.19417E-13
 -1      2908 2.02748E+01 1.82309E-01-1.00890E-03 5.02624E-01-1.32307E-13 2.10580E-13
 -1      2909 2.02244E+01 1.19215E-01-1.73913E-04 3.09952E-01-4.62270E-14 8.10126E-14
 -1      2910 2.02709E+01 1.28579E-01 1.92097E-03 3.48072E-01-1.63990E-13 4.55053E-15
 -1      2911 2.02103E+01 1.67138E-01-8.15216E-04 4.04573E-01-1.53974E-13 1.16805E-13
 -1      2912 2.01662E+01 1.00566E-01-1.85960E-04 2.38635E-01 1.75345E-13 1.40763E-13
 -1      2913 2.02033E+01 1.10542E-01 1.72732E-03 2.71301E-01 1.15887E-13 2.06773E-13
 -1      2914 2.01595E+01 1.45525E-01-6.76146E-04 3.17819E-01-4.33640E-14 8.22016E-14
 -1      2915 2.01207E+01 8.23433E-02-1.68601E-04 1.79142E-01 1.52734E-13 1.47889E-13
 -1      2916 2.01497E+01 9.18133E-02 1.48753E-03 2.06259E-01 1.98784E-13 1.15747E-13
 -1      2917 2.01196E+01 1.22073E-01-5.67106E-04 2.43832E-01 1.77473E-13-6.72456E-14
 -1      2918 2.00856E+01 6.59610E-02-1.38302E-04 1.30773E-01-6.73832E-14 1.18598E-13
 -1      2919 2.01079E+01 7.43042E-02 1.23476E-03 1.52729E-01 3.52384E-14 1.20206E-13
 -1      2920 2.00882E+01 9.95635E-02-4.74372E-04 1.82541E-01 8.04850E-14 1.96500E-13
 -1      2921 2.00588E+01 5.21213E-02-8.16967E-05 9.22271E-02-2.80538E-13 3.78103E-13
 -1      2922 2.00756E+01 5.90652E-02 9.90712E-04 1.09665E-01-2.05452E-13 1.93501E-13
 -1      2923 2.00637E+01 7.95597E-02-3.90185E-04 1.32971E-01-1.94617E-13 1.68225E-13
 -1      2924 2.00389E+01 4.10270E-02 1.48163E-04 6.21213E-02-2.34159E-13 5.14751E-13
 -1      2925 2.00510E+01 4.63169E-02 7.61206E-04 7.55441E-02-2.54183E-13 4.51167E-13
 -1      2926 2.00445E+01 6.27861E-02-3.12574E-04 9.36197E-02-3.53416E-13 8.78183E-14
 -1      2927 2.00241E+01 3.51198E-02 1.97975E-04 4.24958E-02-1.71837E-13 4.69602E-13
 -1      2928 2.00327E+01 3.95552E-02 5.66903E-04 5.31589E-02-2.57536E-13 4.15381E-13
 -1      2929 2.00293E+01 5.20076E-02-5.52190E-04 6.68161E-02-2.88112E-13-2.03948E-14
 -1      2930 2.00182E+01 4.63794E-02-4.77766E-04 4.92346E-02-1.60602E-13-6.03684E-14
 -1      2931 1.99639E+01 1.28382E-01-3.43424E-04 6.25958E-03 1.63075E-14 5.77830E-14
 -1      2932 1.99656E+01 1.26627E-01-1.43207E-04 1.61990E-02 1.41769E-13-8.22565E-14
 -1      2933 2.00288E+01 4.57661E-02 4.94164E-04-5.39090E-02-1.86776E-13-1.43410E-13
 -1      2934 2.00231E+01 4.12725E-02 6.19919E-05-4.59417E-02-2.24740E-13 3.23732E-15
 -1      2935 2.00180E+01 4.86994E-02-3.23991E-04-4.89997E-02-1.69308E-13-1.25606E-13
 -1      2936 2.00256E+01 5.87345E-02-8.10202E-05-6.60113E-02-7.11292E-14-2.18059E-13
 -1      2937 1.99787E+01 1.07764E-01-5.25269E-04 4.43413E-02 2.79283E-13-5.25415E-13
 -1      2938 1.99855E+01 1.00548E-01 2.01056E-04 4.96536E-02 4.46596E-13-4.68227E-13
 -1      2939 1.99655E+01 1.27279E-01-1.81040E-04-1.60918E-02-1.30761E-13-3.90374E-13
 -1      2940 1.99639E+01 1.28779E-01-3.17343E-04-6.09795E-03-1.09084E-13-1.82061E-13
 -1      2941 1.99554E+01 1.45073E-01 5.67106E-04 3.11260E-04-8.33057E-14-1.64291E-13
 -1      2942 1.99686E+01 1.21582E-01-4.65197E-04 2.75154E-02 1.31297E-13-2.22356E-13
 -1      2943 1.99732E+01 1.16818E-01 4.41163E-05 3.58017E-02 2.77966E-13-4.17743E-13
 -1      2944 1.99702E+01 1.26451E-01 4.27254E-04 4.67683E-02 2.29194E-13-4.81919E-13
 -1      2945 1.99593E+01 1.39871E-01 5.20632E-04 2.55499E-02 1.14129E-13-1.79070E-13
 -1      2946 2.00335E+01 2.84415E-01 2.26921E-04-5.03890E-02 9.62277E-14-7.59830E-14
 -1      2947 2.00820E+01 3.60498E-01 7.67151E-03 6.30736E-02 1.08643E-13-5.44420E-14
 -1      2948 2.01174E+01 3.38506E-01-3.10880E-03-7.48778E-02 1.06608E-13-1.16064E-13
 -1      2949 1.99729E+01 1.18549E-01 9.09725E-06-3.56943E-02 5.16336E-14-5.17637E-13
 -1      2950 1.99684E+01 1.23013E-01-4.57567E-04-2.74019E-02-2.62845E-14-2.61496E-13
 -1      2951 1.99591E+01 1.41422E-01 5.56730E-04-2.49375E-02-1.03058E-13-1.97260E-13
 -1      2952 1.99855E+01 1.02820E-01 2.02715E-04-5.00285E-02 2.32594E-13-6.50526E-13
 -1      2953 1.99785E+01 1.09917E-01-5.42292E-04-4.45543E-02 1.86675E-13-5.09797E-13
 -1      2954 1.99699E+01 1.29252E-01 4.77153E-04-4.65706E-02 1.02403E-13-4.42418E-13
 -1      2955 2.00007E+01 8.17917E-02 2.54055E-04-5.61056E-02 1.74899E-13 1.05007E-14
 -1      2956 1.99929E+01 9.08127E-02-5.12794E-04-5.46835E-02 2.86791E-13-4.40591E-13
 -1      2957 1.99863E+01 1.09561E-01 3.35799E-04-6.12680E-02 2.45766E-13-4.76675E-13
 -1      2958 2.00134E+01 5.98044E-02 1.14322E-04-5.28675E-02-4.17155E-14-2.16319E-13
 -1      2959 2.00065E+01 6.98952E-02-4.42078E-04-5.54561E-02 1.20754E-13-2.33661E-13
 -1      2960 2.00021E+01 8.67976E-02-1.32507E-05-6.53619E-02 7.79397E-14-1.99387E-13
 -1      2961 2.00164E+01 6.46067E-02 8.77565E-05-6.07739E-02 1.83310E-15-2.66347E-13
 -1      2962 2.84877E+01 5.46160E+00-2.20683E-01 2.13017E-01-3.91881E-13-3.10911E-13
 -1      2963 1.23718E+01-2.79434E+00 1.76525E-01-5.49977E+00 2.42084E-13 1.16435E-13
 -1      2964 1.55120E+01-4.04327E+00 2.76073E-02-6.11137E+00 4.07646E-13 2.59737E-13
 -1      2965 7.61744E+00-1.31346E+00 1.94128E-01-3.20550E+00 2.55976E-14 2.75280E-13
 -1      2966 9.22618E+00-2.06222E+00 7.61621E-02-4.68689E+00 9.99756E-14 1.97065E-13
 -1      2967 2.47418E+01-5.16666E+00 8.49439E-02-3.40598E+00 2.06252E-13-6.40876E-14
 -1      2968 2.71727E+01-4.58529E+00-1.33207E-01-1.73069E+00 1.71529E-14-4.04968E-13
 -1      2969 2.86180E+01 4.30525E+00-2.38201E-01-1.89129E+00-4.03177E-13-1.40391E-13
 -1      2970 2.00393E+01 1.13946E-01 1.88950E-03-4.43278E-01 5.15696E-14-1.05075E-13
 -1      2971 2.00027E+01 1.22986E-01 1.56151E-03-4.00644E-01 5.62130E-14-1.09144E-13
 -1      2972 2.00669E+01 1.71315E-01-2.31667E-03-3.86363E-01 4.73312E-14-1.20292E-13
 -1      2973 2.00839E+01 1.45728E-01-1.90447E-03-4.91334E-01 1.14804E-14-6.06601E-14
 -1      2974 2.84424E+01 5.13737E+00-1.27065E-01 1.62533E+00 1.74055E-13 8.47100E-14
 -1      2975 2.75829E+01 5.98278E+00-1.66832E-01 1.01276E+00 2.41002E-13 2.35222E-13
 -1      2976 2.03309E+01 1.02129E+00 2.86623E-03-7.34358E-01-1.43569E-13-1.19985E-13
 -1      2977 2.02526E+01 8.01588E-01-2.90262E-03-4.88137E-01-1.15677E-13-1.22878E-13
 -1      2978 2.02809E+01 8.78446E-01-3.64805E-03-4.37552E-01-1.03355E-13-1.45630E-13
 -1      2979 2.03077E+01 1.25462E+00 2.92795E-03-7.62180E-01-1.25691E-13-1.41165E-13
 -1      2980 2.89911E+01 1.82713E+00-7.67994E-02 1.69725E+00 1.73750E-13 1.86046E-13
 -1      2981 2.87690E+01 3.66823E+00-1.97756E-01 1.80841E+00 1.76303E-13 2.46470E-14
 -1      2982 2.73964E+01 3.65298E+00-1.15436E-01 1.87154E+00 1.68837E-13 1.92367E-13
 -1      2983 2.89472E+01-2.82052E+00 1.26683E-02 3.35737E-01-8.59660E-14-5.79564E-13
 -1      2984 2.96408E+01-9.84596E-01-1.33684E-01 1.65308E+00-1.49381E-13-6.48176E-13
 -1      2985 9.83017E+00-2.24206E+00 6.93661E-02 4.97224E+00 1.97536E-13-3.98570E-13
 -1      2986 7.92073E+00-1.43722E+00 1.69301E-01 3.50175E+00 6.99024E-14-4.46254E-13
 -1      2987 2.73408E+01 6.24383E+00-1.71077E-01-3.21362E-01 2.00895E-13 2.13913E-13
 -1      2988 2.79709E+01 5.70044E+00-1.36692E-01-1.32421E+00 2.33424E-13 1.00642E-13
 -1      2989 2.01181E+01 4.54389E-01-7.44037E-04 2.05229E-01 1.23171E-13-4.29976E-14
 -1      2990 2.02065E+01 5.85990E-01 1.03439E-02 3.79488E-01 1.33001E-13-3.14492E-14
 -1      2991 2.02823E+01 8.59012E-01 1.73708E-04 5.44577E-01 1.58058E-13-8.53139E-14
 -1      2992 2.01887E+01 5.30765E-01-2.55872E-03 1.81006E-01 1.33126E-13-9.83911E-14
 -1      2993 1.99247E+01 2.65698E+00-7.67297E-03 7.51034E-01 1.49484E-13-1.83525E-13
 -1      2994 1.98760E+01 2.75422E+00-6.45592E-03 6.07491E-01 1.10526E-13-2.12088E-13
 -1      2995 1.99871E+01 2.47126E+00 4.62988E-03 4.77442E-01 9.88289E-14-2.17087E-13
 -1      2996 2.00797E+01 2.25845E+00 5.80127E-03 6.93495E-01 1.42797E-13-1.55799E-13
 -1      2997 2.88520E+01 6.61072E-01-1.66482E-01-1.36052E+00-5.14866E-14-3.49276E-13
 -1      2998 2.81889E+01-1.21766E+00-4.51715E-02-5.74881E-01-1.34462E-13-3.75269E-13
 -1      2999 1.98719E+01 2.76393E+00-6.48869E-03-5.97309E-01-6.20416E-14-2.66439E-13
 -1      3000 1.99200E+01 2.66942E+00-7.49310E-03-7.41266E-01-8.33770E-14-2.55213E-13
 -1      3001 7.10370E+00-1.24481E+00 1.57462E-01-3.21247E+00-2.60895E-13-5.38236E-13
 -1      3002 8.68322E+00-2.09292E+00 1.37231E-01-4.95383E+00-2.90545E-13-3.39812E-13
 -1      3003 2.51970E+01-4.66689E+00 6.03356E-02-3.09603E+00-1.06748E-13 1.22125E-14
 -1      3004 2.64153E+01-4.07799E+00-1.20208E-01-1.95293E+00-9.26412E-14 2.99899E-14
 -1      3005 1.70235E+01-3.89061E+00-3.53169E-03 5.94397E+00-3.30763E-13-3.34205E-13
 -1      3006 1.33879E+01-2.69632E+00 2.11323E-01 5.88592E+00-3.43628E-13-1.84908E-13
 -1      3007 2.88331E+01 1.79415E+00-1.01812E-01 2.45065E+00-2.12455E-13-6.34826E-13
 -1      3008 2.27431E+01-5.48694E+00-1.40703E-01 4.36323E+00 1.57069E-13-1.96383E-13
 -1      3009 1.97768E+01-4.91602E+00 1.64117E-01 5.46241E+00 2.16563E-13-2.45548E-13
 -1      3010 6.29296E+00-9.95633E-01 1.23174E-01 1.63396E+00-9.36334E-14-6.61554E-13
 -1      3011 6.12907E+00-7.56986E-01 1.63226E-01-8.69750E-01-1.21481E-13-7.05713E-13
 -1      3012 8.64693E+00-5.85932E-01 1.89605E-01 2.27570E+00 7.77156E-15-4.61770E-13
 -1      3013 2.03545E+01 1.51667E+00-1.60193E-03 1.22196E+00 2.10838E-13-2.07586E-14
 -1      3014 1.60846E+01-4.41246E+00-4.20196E-03 6.21038E+00 2.07917E-13-2.36727E-13
 -1      3015 1.28423E+01-3.23728E+00 1.62757E-01 5.79104E+00 1.96343E-13-3.37716E-13
 -1      3016 2.84121E+01 4.30069E+00-1.98483E-01-1.80254E+00 1.05471E-13-9.02195E-14
 -1      3017 2.88611E+01 2.63425E+00-9.08118E-02-1.86435E+00 8.46545E-15-2.74822E-13
 -1      3018 2.78104E+01 1.38124E+00-5.63811E-02-1.92739E+00-7.12347E-14-1.06942E-13
 -1      3019 2.78271E+01-2.36403E+00-1.31921E-02-2.49522E-01 6.06529E-14 9.55763E-14
 -1      3020 2.86273E+01-5.24015E-01-1.74635E-01 8.98601E-01 1.94539E-13 1.23956E-13
 -1      3021 1.87950E+01-4.82899E+00 1.20918E-01-5.67723E+00 4.92301E-13 1.90084E-13
 -1      3022 2.17553E+01-5.48697E+00-4.87359E-02-5.03507E+00 3.23519E-13 1.79660E-13
 -1      3023 2.86854E+01-2.42527E-01-1.30155E-01 2.38484E+00-2.26118E-13-6.92293E-13
 -1      3024 2.78320E+01 2.99982E-01-6.46693E-02 1.62428E+00 1.72605E-13 1.53863E-13
 -1      3025 1.99109E+01 2.63559E+00 3.90919E-03 4.14712E-03 2.70102E-14-2.50257E-13
 -1      3026 1.97791E+01 2.95179E+00-5.64946E-03-5.71566E-02 1.30480E-14-2.66929E-13
 -1      3027 1.97880E+01 2.93608E+00-5.60186E-03-2.03452E-01-1.26762E-14-2.71577E-13
 -1      3028 2.46029E+01-4.70770E+00 4.98371E-02 2.75406E+00 1.96128E-13 1.93248E-15
 -1      3029 9.60728E+00-3.26899E-01 5.65410E-02 2.85793E+00-3.04645E-13-5.72709E-13
 -1      3030 7.83261E+00-4.63161E-01 1.68760E-01 2.17972E+00-1.76494E-13-3.61433E-13
 -1      3031 8.20462E+00 4.47108E-02 1.00714E-01 7.40305E-01-1.70893E-13-9.79772E-14
 -1      3032 1.99786E+01 2.53959E+00-6.93073E-03-8.54516E-01-9.83007E-14-2.43662E-13
 -1      3033 2.00476E+01 2.38778E+00-9.86355E-03-9.85322E-01-1.25190E-13-2.30559E-13
 -1      3034 2.00755E+01 2.27252E+00 5.96069E-03-6.86533E-01-7.93761E-14-2.28702E-13
 -1      3035 2.48981E+01-3.80112E+00-6.87195E-02 1.37150E+00 2.70107E-13 1.79683E-13
 -1      3036 2.89515E+01-2.02279E+00-7.32201E-02-8.72607E-01-3.73104E-14 7.07073E-14
 -1      3037 1.86102E+01-4.13140E+00 1.22570E-01 5.36393E+00 2.44041E-13-2.43583E-13
 -1      3038 1.99860E+01 1.06491E-01 2.57333E-04 6.08123E-02 2.83599E-13-2.91404E-13
 -1      3039 1.99926E+01 8.86867E-02-5.01490E-04 5.41363E-02 3.66141E-13-2.61479E-13
 -1      3040 2.00002E+01 7.97507E-02 2.51097E-04 5.56203E-02 4.07344E-14-2.57041E-13
 -1      3041 2.59117E+01 5.10219E+00-7.43114E-02 9.35012E-01 2.08833E-13 3.90457E-13
 -1      3042 2.67052E+01 5.74131E+00-1.56042E-01 3.31100E-01 2.21823E-13 2.99007E-13
 -1      3043 2.56164E+01 5.26384E+00-8.57701E-02-3.12532E-01 1.37793E-13 2.83037E-13
 -1      3044 2.00062E+01 6.79555E-02-4.46871E-04 5.52249E-02-7.69126E-14-4.75040E-13
 -1      3045 2.00133E+01 5.83249E-02 2.48600E-04 5.29253E-02-1.13694E-13-2.92990E-13
 -1      3046 2.00183E+01 6.19235E-02 4.64033E-04 6.14694E-02-1.93446E-13-3.12795E-13
 -1      3047 2.00032E+01 8.40010E-02 2.82234E-04 6.53088E-02 2.11599E-14-7.01465E-14
 -1      3048 1.80062E+01-3.96517E+00 8.46040E-02-5.34051E+00 3.77712E-13 1.83221E-13
 -1      3049 8.18876E+00-6.03135E-01 1.81425E-01-2.14112E+00-3.57700E-14 2.72421E-13
 -1      3050 2.36031E+01-5.06344E+00 1.73809E-02-3.62868E+00 2.97345E-13 1.47625E-14
 -1      3051 2.37023E+01-4.80009E+00 4.07315E-02-3.78357E+00-1.24831E-13-2.04524E-14
 -1      3052 1.23280E+01-1.91959E+00 1.53210E-01-4.79929E+00 1.33241E-13 2.97956E-14
 -1      3053 2.00187E+01-4.36373E+00 1.04079E-01 5.28760E+00-2.65510E-13-3.20978E-13
 -1      3054 1.81157E+01-3.42441E+00 3.33554E-02 5.18254E+00-2.27408E-13-2.19078E-13
 -1      3055 2.44621E+01-4.84965E+00-8.42453E-03 3.39615E+00-3.65555E-13-2.55435E-13
 -1      3056 2.18398E+01-4.74538E+00 2.77565E-02 4.50492E+00-3.26850E-13-2.81545E-13
 -1      3057 2.23457E+01-4.24596E+00 2.46588E-02 3.70381E+00-3.13423E-13-2.57804E-13
 -1      3058 2.76739E+01-3.64275E+00-6.39566E-03-2.77839E-01 5.58702E-14-5.18682E-13
 -1      3059 1.73073E+01-4.67731E+00 1.38220E-01-6.48571E+00-1.97342E-13 1.37876E-14
 -1      3060 1.97868E+01-4.96269E+00-6.35303E-02-5.60887E+00-2.18894E-13-3.24636E-14
 -1      3061 1.61675E+01-3.96074E+00 1.37258E-01-6.33597E+00-2.32286E-13-5.02376E-14
 -1      3062 1.05872E+01-2.43267E+00 1.55280E-01-5.48189E+00-2.98567E-13-2.44221E-13
 -1      3063 1.26937E+01-2.83375E+00 6.16317E-02-5.91303E+00-3.05006E-13-1.55931E-13
 -1      3064 1.08287E+01-1.51830E+00 1.18683E-01-4.74454E+00-3.19460E-13-2.46303E-13
 -1      3065 2.74313E+01-3.07867E+00-1.36456E-01 6.17878E-01-2.09006E-13-3.87579E-13
 -1      3066 2.58719E+01-4.14687E+00-1.45991E-02 2.16847E+00-3.15300E-13-3.17184E-13
 -1      3067 2.54624E+01-3.94525E+00 1.88708E-02 1.66698E+00-3.37046E-13-2.84245E-13
 -1      3068 2.74424E+01-1.90922E+00-2.49001E-02-5.31235E-01-1.86753E-13-3.03937E-13
 -1      3069 1.27313E+01-2.22805E+00 1.65003E-01 5.02805E+00 2.36700E-13-3.39728E-13
 -1      3070 2.03087E+01 1.61284E+00-1.45526E-03 1.11292E+00 2.08391E-13-6.80688E-14
 -1      3071 1.98061E+01 2.89715E+00-5.98035E-03-3.29017E-01-2.88017E-14-2.69208E-13
 -1      3072 1.98340E+01 2.84550E+00-6.15574E-03-4.75246E-01-5.62692E-14-2.66014E-13
 -1      3073 1.99837E+01 2.48066E+00 4.69659E-03-4.68690E-01-5.77936E-14-2.57832E-13
 -1      3074 1.99288E+01 2.59860E+00 4.10401E-03-2.35215E-01-2.70252E-14-2.56391E-13
 -1      3075 2.69966E+01 4.33905E+00-1.02555E-01-1.64214E+00 7.04575E-14 9.99756E-14
 -1      3076 7.61520E+00-5.71286E-01 1.74809E-01-1.99865E+00-2.54519E-13-5.67990E-13
 -1      3077 9.35139E+00-4.29289E-01 1.18012E-01-2.90904E+00-3.43267E-13-3.90230E-13
 -1      3078 8.35910E+00 3.26827E-02 9.24009E-02-8.10601E-01-1.90232E-13-5.38958E-13
 -1      3079 1.28614E+01-1.79511E+00 1.31239E-01 5.02516E+00-2.95187E-13-2.88825E-13
 -1      3080 2.67522E+01-3.13602E+00-1.55487E-02-5.40688E-01 9.33628E-15 6.38378E-14
 -1      3081 2.92695E+01 5.99121E+00-2.19840E-01-4.38918E-01-4.61187E-13-2.58999E-13
 -1      3082 2.93730E+01 5.49953E+00-2.03537E-01-1.19686E+00-4.73233E-13-2.02567E-13
 -1      3083 2.03006E+01 1.40286E+00 2.62086E-03 8.58987E-01 1.88824E-13-8.96509E-14
 -1      3084 2.02530E+01 1.53026E+00-7.81805E-03 7.32983E-01 1.76855E-13-9.26958E-14
 -1      3085 2.02068E+01 1.73336E+00-8.85086E-04 6.79158E-01 1.67651E-13-1.08600E-13
 -1      3086 2.66307E+01 2.55739E+00-5.46107E-02 2.19617E+00 1.73070E-13 1.61836E-13
 -1      3087 2.60339E+01 3.68779E+00-1.49977E-01 1.83608E+00 2.04281E-13 2.55837E-13
 -1      3088 2.02434E+01 5.39624E-01 3.58224E-03 2.61283E-02-8.74921E-14-1.48184E-13
 -1      3089 2.02115E+01 4.50353E-01-1.42699E-03 1.35411E-01-8.35974E-14-1.61039E-13
 -1      3090 2.01909E+01 3.86574E-01 2.22310E-03 2.23941E-01-9.52607E-14-1.58094E-13
 -1      3091 2.01698E+01 3.39194E-01-2.16260E-04 3.06842E-01-1.15881E-13-1.57274E-13
 -1      3092 2.02352E+01 5.01700E-01-6.23580E-04 1.58880E-01-9.06639E-14-1.61799E-13
 -1      3093 2.01433E+01 3.09177E-01 1.02853E-03 3.77492E-01-8.88627E-14-1.38365E-13
 -1      3094 2.01325E+01 2.91916E-01 6.64413E-04 4.45342E-01-4.18248E-14-1.31237E-13
 -1      3095 2.01822E+01 3.89593E-01-6.18370E-04 3.23547E-01-8.51741E-14-9.85245E-14
 -1      3096 2.01015E+01 2.86562E-01-7.85345E-05 5.06758E-01-1.14106E-14-1.28375E-13
 -1      3097 2.00990E+01 2.91745E-01 1.30368E-03 5.68827E-01-1.59028E-14-1.13923E-13
 -1      3098 2.01237E+01 3.45783E-01-3.54975E-04 4.59681E-01-2.89001E-14-9.94561E-14
 -1      3099 2.00632E+01 3.04753E-01-1.06276E-03 6.28335E-01-2.68340E-14-9.37247E-14
 -1      3100 2.00665E+01 3.26717E-01 1.77968E-03 6.91743E-01-3.54735E-14-6.93142E-14
 -1      3101 2.00598E+01 3.53153E-01 8.18194E-05 5.83200E-01-9.52902E-15-1.22560E-13
 -1      3102 2.00240E+01 3.53139E-01-1.94753E-03 7.55182E-01-2.18199E-14-6.05988E-14
 -1      3103 2.00305E+01 3.86965E-01 2.15424E-03 8.25213E-01-3.23282E-16-3.71546E-14
 -1      3104 1.99872E+01 3.98684E-01 6.35037E-04 7.07132E-01-5.02024E-15-1.01431E-13
 -1      3105 1.99787E+01 4.21898E-01-2.75149E-03 8.97134E-01-4.04167E-14 5.55559E-15
 -1      3106 1.99865E+01 4.62107E-01 2.49505E-03 9.77422E-01-2.39972E-14-2.57927E-14
 -1      3107 1.99009E+01 4.71049E-01 1.27558E-03 8.41732E-01-1.79227E-14-2.42808E-14
 -1      3108 1.99226E+01 4.99311E-01-3.47004E-03 1.06139E+00-2.08690E-14-6.85425E-14
 -1      3109 1.99309E+01 5.38303E-01 2.90807E-03 1.15399E+00-3.92615E-14-8.36118E-14
 -1      3110 1.97949E+01 5.57844E-01 1.95190E-03 9.94955E-01-4.07600E-14-9.93961E-15
 -1      3111 1.98532E+01 5.68389E-01-4.04887E-03 1.25302E+00-4.75599E-14-9.38347E-14
 -1      3112 1.98638E+01 5.94343E-01 3.58862E-03 1.35842E+00-6.15111E-15-5.93277E-14
 -1      3113 1.96638E+01 6.42356E-01 2.54443E-03 1.17334E+00-2.87373E-14-5.02571E-14
 -1      3114 1.97733E+01 6.02316E-01-4.34056E-03 1.47569E+00-3.59375E-15-9.68147E-14
 -1      3115 1.97941E+01 5.96333E-01 4.87325E-03 1.59270E+00 8.76686E-15-1.15390E-13
 -1      3116 1.95056E+01 6.99284E-01 2.79236E-03 1.38350E+00-2.36509E-14-1.69832E-13
 -1      3117 1.96987E+01 5.58395E-01-3.99382E-03 1.73256E+00 1.62267E-15-1.46016E-13
 -1      3118 1.97484E+01 4.90897E-01 7.24487E-03 1.85792E+00-5.18282E-14-1.27387E-13
 -1      3119 1.93267E+01 6.88848E-01 2.15653E-03 1.63448E+00-5.77989E-14-2.62438E-13
 -1      3120 1.96698E+01 3.71098E-01-2.20935E-03 2.02649E+00-8.35442E-14-1.10562E-13
 -1      3121 1.97867E+01 1.98296E-01 1.11637E-02 2.15310E+00-1.16302E-13-9.73200E-14
 -1      3122 1.91512E+01 5.49180E-01-3.68812E-04 1.94079E+00-2.81730E-14-2.73091E-13
 -1      3123 1.97734E+01-5.28690E-02 3.00064E-03 2.35609E+00-8.31993E-14-3.23421E-14
 -1      3124 2.00244E+01-3.88518E-01 1.71607E-02 2.46632E+00-3.45826E-14-1.70557E-14
 -1      3125 1.90384E+01 1.87130E-01-6.71854E-03 2.32334E+00-6.25176E-14-1.66854E-13
 -1      3126 2.01784E+01-8.28767E-01 1.77359E-02 2.69743E+00 3.41548E-14-3.53338E-14
 -1      3127 2.06540E+01-1.38779E+00 2.25608E-02 2.74473E+00 8.76252E-14-5.51827E-14
 -1      3128 1.91126E+01-5.29905E-01-1.98232E-02 2.80284E+00-2.75072E-14-5.11383E-14
 -1      3129 2.11792E+01-2.01612E+00 6.07832E-02 2.92959E+00 1.82127E-13-2.91542E-14
 -1      3130 2.20191E+01-2.79479E+00 3.70582E-02 2.79391E+00 2.81490E-13 5.37747E-14
 -1      3131 1.96432E+01-1.75290E+00-3.43813E-02 3.34936E+00 1.68874E-13-3.33102E-14
 -1      3132 2.01405E+01-4.13272E+00 3.09544E-03 4.63946E+00 2.42951E-13-2.39413E-13
 -1      3133 1.74438E+01-3.19785E+00 1.35662E-01 5.13485E+00 2.41182E-13-2.02220E-13
 -1      3134 2.72774E+01 4.25559E+00-1.27447E-01-1.62144E+00-3.60184E-13-2.87704E-13
 -1      3135 2.72519E+01 4.93330E+00-1.01041E-01-2.71159E-01-3.90410E-13-3.27841E-13
 -1      3136 2.69068E+01-7.28131E-01 2.80147E-03 1.52073E+00 1.60032E-13 2.06807E-13
 -1      3137 2.68180E+01 8.95610E-01-1.37394E-01 2.01322E+00 1.13326E-13 1.25372E-13
 -1      3138 2.58445E+01 1.18346E+00-5.61007E-02 2.07608E+00 1.35589E-13 1.36481E-13
 -1      3139 2.37724E+01-3.77308E+00 4.51969E-03-2.18926E+00 2.22298E-13-3.53305E-13
 -1      3140 2.28049E+01-3.06557E+00 7.17756E-02-2.56691E+00 2.29624E-13-3.19678E-13
 -1      3141 2.18446E+01-2.35538E+00 1.70537E-02-2.60892E+00 2.15928E-13-3.16499E-13
 -1      3142 2.11575E+01-1.65259E+00 3.86519E-02-2.70511E+00 7.77102E-14-2.31446E-13
 -1      3143 2.10057E+01-2.93683E+00-4.31472E-02-3.38494E+00 2.27462E-13-1.23396E-13
 -1      3144 2.07226E+01-1.07096E+00 1.78104E-02-2.54139E+00 3.64509E-15-2.19496E-13
 -1      3145 2.03115E+01-5.78567E-01 1.40631E-02-2.49263E+00-2.84521E-14-1.82509E-13
 -1      3146 1.98169E+01-1.38610E+00-3.04051E-02-3.04840E+00 1.02920E-13-9.79624E-14
 -1      3147 2.01747E+01-1.99057E-01 1.33955E-02-2.28902E+00-1.22772E-13-2.27925E-13
 -1      3148 1.99575E+01 9.08339E-02 3.16384E-03-2.18229E+00-1.46825E-13-2.58632E-13
 -1      3149 1.93581E+01-3.11881E-01-1.41389E-02-2.57858E+00-2.76900E-14 6.93135E-14
 -1      3150 1.99590E+01 3.02980E-01 8.60011E-03-1.99471E+00-1.66616E-13-3.95538E-13
 -1      3151 1.98532E+01 4.48656E-01-1.36666E-03-1.86774E+00-1.92329E-13-4.90352E-13
 -1      3152 1.92744E+01 3.04868E-01-5.39801E-03-2.15291E+00-2.34320E-13-9.78576E-14
 -1      3153 1.99111E+01 5.45401E-01 5.60638E-03-1.70392E+00-1.63099E-13-4.46138E-13
 -1      3154 1.98604E+01 5.99137E-01-2.98545E-03-1.57448E+00-1.97791E-13-4.95448E-13
 -1      3155 1.93545E+01 6.13014E-01-3.13380E-04-1.79193E+00-2.15273E-13-5.31114E-13
 -1      3156 1.99323E+01 6.25411E-01 3.86210E-03-1.43268E+00-1.09109E-13-5.13613E-13
 -1      3157 1.99054E+01 6.26248E-01-3.37543E-03-1.30940E+00-4.98795E-14-4.80039E-13
 -1      3158 1.94889E+01 7.25022E-01 1.89036E-03-1.48802E+00-8.53431E-14-5.28188E-13
 -1      3159 1.99723E+01 6.13727E-01 2.92492E-03-1.18654E+00-1.62023E-13-5.38230E-13
 -1      3160 1.99537E+01 5.87298E-01-3.22858E-03-1.07400E+00-1.08363E-13-5.23649E-13
 -1      3161 1.96247E+01 7.24278E-01 2.48777E-03-1.22844E+00-9.69653E-14-5.54981E-13
 -1      3162 2.00088E+01 5.56122E-01 2.41806E-03-9.67917E-01-1.49153E-13-4.75749E-13
 -1      3163 1.99924E+01 5.18047E-01-2.86153E-03-8.68405E-01-2.75974E-13-5.41283E-13
 -1      3164 1.97403E+01 6.64930E-01 2.33495E-03-1.00467E+00-8.24463E-14-5.87399E-13
 -1      3165 2.00345E+01 4.80114E-01 2.10401E-03-7.77674E-01-2.34644E-13-2.95170E-13
 -1      3166 2.00183E+01 4.39306E-01-2.42615E-03-6.91975E-01-4.49032E-14-2.06036E-13
 -1      3167 1.98303E+01 5.80152E-01 1.90344E-03-8.11971E-01-7.00471E-14-2.61697E-13
 -1      3168 2.00491E+01 4.01163E-01 1.86059E-03-6.15385E-01-1.87160E-17-2.48934E-13
 -1      3169 2.00331E+01 3.62329E-01-1.99582E-03-5.43226E-01 4.44634E-14-3.14905E-13
 -1      3170 1.98961E+01 4.89112E-01 1.42734E-03-6.47492E-01 2.12859E-15-1.60228E-13
 -1      3171 2.00546E+01 3.27258E-01 1.63673E-03-4.79530E-01 1.74810E-13-3.66136E-13
 -1      3172 2.00394E+01 2.92611E-01-1.60508E-03-4.19954E-01 3.55433E-13-4.70578E-13
 -1      3173 1.99419E+01 4.02128E-01 1.00726E-03-5.08941E-01 1.04703E-13-3.58469E-13
 -1      3174 2.00539E+01 2.62009E-01 1.41763E-03-3.67791E-01 4.03482E-13-4.55967E-13
 -1      3175 2.00400E+01 2.32349E-01-1.26653E-03-3.19454E-01 3.46370E-13-4.95357E-13
 -1      3176 1.99723E+01 3.24180E-01 6.75602E-04-3.93981E-01 3.21573E-13-5.52049E-13
 -1      3177 2.00494E+01 2.06580E-01 1.20522E-03-2.77378E-01 3.00123E-13-3.50067E-13
 -1      3178 2.00371E+01 1.81938E-01-9.84369E-04-2.38765E-01 2.38084E-13-4.41296E-13
 -1      3179 1.99915E+01 2.57167E-01 4.34091E-04-3.00072E-01 4.45841E-13-3.65015E-13
 -1      3180 2.00428E+01 1.60818E-01 1.00820E-03-2.05333E-01 2.24373E-13-2.66125E-13
 -1      3181 2.00323E+01 1.40889E-01-7.38144E-04-1.74934E-01 2.95392E-13-1.91360E-13
 -1      3182 2.00028E+01 2.01247E-01 2.71656E-04-2.24523E-01 3.11303E-13-3.29462E-13
 -1      3183 2.00354E+01 1.23590E-01 7.20846E-04-1.48648E-01 1.86453E-13-3.49491E-13
 -1      3184 2.00263E+01 1.07790E-01-7.26915E-04-1.25414E-01 8.89480E-14-3.27064E-13
 -1      3185 2.00088E+01 1.55766E-01 2.29203E-04-1.64615E-01 1.20836E-13-3.14951E-13
 -1      3186 2.00278E+01 9.49157E-02 6.57958E-04-1.04678E-01 2.27483E-13-5.10937E-13
 -1      3187 2.00208E+01 8.25587E-02-2.82238E-04-8.65996E-02 1.37667E-13-3.88722E-13
 -1      3188 2.00107E+01 1.20659E-01 4.89245E-04-1.18052E-01 7.83416E-14-4.61339E-13
 -1      3189 1.99476E+01 1.56753E-01-6.39691E-05-3.51862E-02-1.90916E-13-2.37582E-14
 -1      3190 1.99428E+01 1.60285E-01-4.49467E-04-2.24924E-02-2.37928E-13-5.19868E-14
 -1      3191 2.01696E+01 1.86018E-01 1.96179E-03-7.11330E-01 1.23989E-14-1.94486E-14
 -1      3192 2.01324E+01 1.84127E-01-2.67918E-04-6.65256E-01 2.05992E-14-5.45123E-14
 -1      3193 2.01359E+01 1.83538E-01 1.72549E-03-6.15276E-01 2.24663E-14-6.41779E-14
 -1      3194 2.01103E+01 1.84061E-01 1.33223E-04-5.68285E-01-6.04294E-15-2.59045E-14
 -1      3195 2.01056E+01 2.24140E-01-1.07170E-03-6.52170E-01 9.70551E-15-3.30035E-14
 -1      3196 2.03019E+01 1.56884E-01 1.98744E-03-9.04544E-01 2.93826E-14 1.34108E-13
 -1      3197 2.02387E+01 1.73039E-01-2.20199E-05-8.61563E-01 4.47276E-14 7.47788E-14
 -1      3198 2.04163E+01 9.05769E-02 1.68820E-03-9.91261E-01 3.64458E-15 1.86153E-13
 -1      3199 2.03356E+01 1.30058E-01 7.91633E-04-9.56626E-01 5.33386E-14 1.82961E-13
 -1      3200 2.01768E+01 1.76767E-01-2.20836E-03-9.75929E-01 1.79556E-15 8.24096E-14
 -1      3201 2.05818E+01-3.79557E-02 1.03561E-03-1.05297E+00-5.68340E-14 1.74530E-13
 -1      3202 2.04782E+01 3.60843E-02 2.25203E-03-1.03626E+00-9.89998E-15 2.05393E-13
 -1      3203 2.02663E+01 8.45591E-02-3.48501E-03-1.08009E+00 1.38015E-15 1.17611E-13
 -1      3204 2.08202E+01-2.49356E-01-1.99857E-04-1.06481E+00-9.49489E-14 1.25258E-13
 -1      3205 2.06869E+01-1.30494E-01 4.50597E-03-1.08011E+00-9.41787E-14 1.43646E-13
 -1      3206 2.04203E+01-8.60099E-02-5.48390E-03-1.16312E+00-6.16912E-14 1.01103E-13
 -1      3207 2.11565E+01-5.54862E-01-2.38077E-03-9.90851E-01-1.11368E-13 1.89829E-13
 -1      3208 2.09879E+01-3.87094E-01 7.62498E-03-1.05688E+00-1.06369E-13 1.40658E-13
 -1      3209 2.06706E+01-3.58413E-01-8.25764E-03-1.19919E+00-1.18917E-13 6.25892E-14
 -1      3210 2.16109E+01-9.38462E-01-5.84351E-03-7.83707E-01-4.26265E-14 1.74425E-13
 -1      3211 2.14074E+01-7.34449E-01 1.12755E-02-9.22219E-01-7.17324E-14 1.84638E-13
 -1      3212 2.10563E+01-7.42400E-01-1.14392E-02-1.14746E+00-8.51445E-14 9.47749E-14
 -1      3213 2.21794E+01-1.32714E+00-1.04681E-02-3.91297E-01-9.82834E-14 1.76588E-13
 -1      3214 2.19569E+01-1.13301E+00 1.43058E-02-6.20318E-01-4.34419E-14 2.10848E-13
 -1      3215 2.16125E+01-1.21025E+00-1.38387E-02-9.48129E-01-7.74557E-14 1.21189E-13
 -1      3216 2.28078E+01-1.55417E+00-1.35196E-02 2.16972E-01-7.20426E-14 1.78629E-13
 -1      3217 2.26022E+01-1.46772E+00 1.38372E-02-9.89802E-02-9.08556E-14 1.78337E-13
 -1      3218 2.23449E+01-1.65698E+00-1.29684E-02-5.26747E-01-8.94547E-14 2.02824E-13
 -1      3219 2.33507E+01-1.35573E+00-1.09651E-02 9.68757E-01 9.69775E-15 1.26672E-13
 -1      3220 2.32178E+01-1.51307E+00 5.18430E-03 6.33367E-01-3.53094E-14 1.91788E-13
 -1      3221 2.31565E+01-1.85556E+00-1.47326E-02 1.84975E-01-5.27816E-14 1.23404E-13
 -1      3222 2.36462E+01-4.83113E-01 5.73412E-03 1.67418E+00 1.41770E-13 1.39359E-13
 -1      3223 2.36451E+01-1.01873E+00-7.17830E-03 1.43862E+00 7.80209E-14 1.25365E-13
 -1      3224 2.39117E+01-1.46964E+00-1.15279E-02 1.10361E+00 3.51724E-14 1.30543E-13
 -1      3225 2.31111E+01 2.43382E+00 5.00364E-03 1.13363E+00 2.52375E-13 9.50984E-14
 -1      3226 2.32750E+01 1.79408E+00-4.71543E-02 1.61102E+00 2.63215E-13 1.58886E-13
 -1      3227 2.35716E+01 3.46105E+00-4.41946E-02-1.92778E-01 1.86618E-13 2.06358E-13
 -1      3228 2.36030E+01 3.38351E+00-4.04216E-02 5.26952E-01 2.03795E-13 1.55674E-13
 -1      3229 2.35894E+01 4.05975E-01-4.41376E-02-1.93825E+00-2.42872E-13 2.23345E-13
 -1      3230 2.34715E+01 1.22861E+00 9.73010E-03-1.83513E+00-1.50473E-13 1.93578E-13
 -1      3231 2.36557E+01-8.77703E-01-1.90473E-02-1.54818E+00-2.09124E-13 2.78725E-13
 -1      3232 2.36373E+01-3.01894E-01-6.40059E-04-1.75377E+00-2.70861E-13 2.46886E-13
 -1      3233 2.42589E+01 3.83318E-02-1.46776E-04-1.93702E+00-2.10033E-13 2.19293E-13
 -1      3234 2.33062E+01-1.48111E+00 2.19371E-03-7.65767E-01-1.79984E-13 4.50974E-13
 -1      3235 2.34182E+01-1.27388E+00-1.27373E-02-1.10852E+00-1.32407E-13 3.70154E-13
 -1      3236 2.39846E+01-1.34273E+00 4.35114E-04-1.21235E+00-2.11405E-13 2.39586E-13
 -1      3237 2.27002E+01-1.47662E+00 1.40189E-02-1.78408E-02-1.12140E-13 4.36394E-13
 -1      3238 2.28980E+01-1.54011E+00-1.28406E-02-3.39551E-01-1.83662E-13 4.43385E-13
 -1      3239 2.32899E+01-1.81672E+00-2.91125E-03-3.03306E-01-1.58759E-13 4.32885E-13
 -1      3240 2.20517E+01-1.15964E+00 1.51942E-02 5.21967E-01 1.83596E-15 3.87436E-13
 -1      3241 2.22724E+01-1.34767E+00-1.01586E-02 2.85539E-01 5.08859E-15 4.27384E-13
 -1      3242 2.24557E+01-1.67453E+00-1.05819E-02 4.16207E-01-5.93631E-14 4.45084E-13
 -1      3243 2.14884E+01-7.54371E-01 1.21913E-02 8.38631E-01 1.13246E-13 2.34429E-13
 -1      3244 2.16931E+01-9.64265E-01-6.18643E-03 6.95471E-01 1.32994E-13 3.66710E-13
 -1      3245 2.17046E+01-1.24184E+00-1.30688E-02 8.60122E-01 1.02864E-13 3.02729E-13
 -1      3246 2.10548E+01-3.90272E-01 8.33264E-03 9.76863E-01 1.60846E-14-1.55100E-13
 -1      3247 2.12246E+01-5.67357E-01-2.80512E-03 9.10222E-01 1.18414E-13 9.86828E-14
 -1      3248 2.11229E+01-7.61333E-01-1.16176E-02 1.07179E+00 1.88932E-13 2.40967E-14
 -1      3249 2.07429E+01-1.14678E-01 5.12959E-03 9.94769E-01 4.83876E-14-2.45572E-13
 -1      3250 2.08763E+01-2.43335E-01-6.15457E-04 9.82804E-01-9.22679E-14-2.99127E-13
 -1      3251 2.07157E+01-3.56004E-01-8.51967E-03 1.12325E+00 9.73907E-14-6.39086E-14
 -1      3252 2.05263E+01 6.90851E-02 2.73468E-03 9.38461E-01 1.34450E-13-9.23226E-14
 -1      3253 2.06289E+01-1.34366E-02 6.59366E-04 9.61769E-01 5.76823E-14-1.35568E-13
 -1      3254 2.04479E+01-6.16473E-02-5.65997E-03 1.07853E+00-4.32850E-14-9.79006E-14
 -1      3255 2.03783E+01 1.76146E-01 1.12166E-03 8.41376E-01 1.24022E-13 4.45271E-14
 -1      3256 2.04570E+01 1.30503E-01 1.33930E-03 8.84863E-01 1.71693E-13 8.85044E-14
 -1      3257 2.02796E+01 1.27759E-01-3.53658E-03 9.80540E-01 5.46034E-14-1.34778E-13
 -1      3258 2.02768E+01 2.26600E-01 1.36143E-04 7.26432E-01 8.59487E-14 4.03994E-13
 -1      3259 2.03379E+01 2.07355E-01 1.66761E-03 7.79257E-01 1.24174E-13 2.93191E-13
 -1      3260 2.01777E+01 2.33328E-01-2.09036E-03 8.57695E-01-4.94829E-15 2.21659E-13
 -1      3261 2.02061E+01 2.38980E-01-4.15211E-04 6.08516E-01 5.74797E-15 3.13323E-13
 -1      3262 2.02541E+01 2.37012E-01 1.77972E-03 6.63374E-01 1.05129E-13 3.66043E-13
 -1      3263 2.01173E+01 2.78686E-01-1.18851E-03 7.28022E-01 6.40394E-14 5.47106E-13
 -1      3264 2.01557E+01 2.28020E-01-6.77387E-04 4.96733E-01-1.45534E-13 2.90681E-13
 -1      3265 2.01937E+01 2.36308E-01 1.75417E-03 5.49050E-01-7.22489E-14 2.46249E-13
 -1      3266 2.00818E+01 2.84453E-01-6.61601E-04 6.02530E-01 1.73394E-14 4.68949E-13
 -1      3267 2.01187E+01 2.04419E-01-7.59026E-04 3.96136E-01-2.89091E-14 9.18931E-14
 -1      3268 2.01491E+01 2.17974E-01 1.64242E-03 4.43334E-01-8.77077E-14 1.07995E-13
 -1      3269 2.00606E+01 2.66510E-01-3.72610E-04 4.87556E-01-4.67429E-14 2.05886E-13
 -1      3270 2.00908E+01 1.75456E-01-7.34611E-04 3.08998E-01-3.65274E-14-8.35332E-14
 -1      3271 2.01151E+01 1.90946E-01 1.47949E-03 3.49897E-01-3.45427E-14 1.41075E-14
 -1      3272 2.00474E+01 2.36214E-01-2.21645E-04 3.86298E-01-2.85416E-14 1.23532E-14
 -1      3273 2.00693E+01 1.45767E-01-6.56237E-04 2.35746E-01 9.43793E-14 9.57124E-14
 -1      3274 2.00887E+01 1.61118E-01 1.29106E-03 2.70097E-01-3.28840E-14-4.96405E-14
 -1      3275 2.00385E+01 2.01195E-01-1.45477E-04 2.99839E-01-8.17115E-14-1.17931E-13
 -1      3276 2.00525E+01 1.18040E-01-5.63512E-04 1.75687E-01-1.50592E-13 3.16490E-13
 -1      3277 2.00678E+01 1.32087E-01 1.09215E-03 2.03803E-01 1.12369E-13 2.72025E-13
 -1      3278 2.00319E+01 1.66248E-01-1.04196E-04 2.27872E-01-1.07513E-13 2.42288E-13
 -1      3279 2.00391E+01 9.39143E-02-4.48710E-04 1.27550E-01-1.17409E-13 1.48498E-13
 -1      3280 2.00512E+01 1.05926E-01 8.92011E-04 1.50085E-01-1.71238E-13 2.91078E-13
 -1      3281 2.00265E+01 1.34189E-01-5.99730E-05 1.69366E-01-2.05936E-13 4.46763E-13
 -1      3282 2.00286E+01 7.40657E-02-1.02982E-04 8.97878E-02-2.24412E-13-6.12635E-14
 -1      3283 2.00377E+01 8.35017E-02 6.83181E-04 1.07252E-01-1.30384E-13 7.76190E-14
 -1      3284 2.00214E+01 1.06427E-01-6.19037E-05 1.22692E-01-6.29737E-14 9.92692E-15
 -1      3285 2.00201E+01 6.61016E-02 1.40410E-04 6.97992E-02-2.03168E-13-2.49909E-13
 -1      3286 2.00267E+01 6.98505E-02 4.68297E-04 7.99127E-02-2.74275E-13-2.07758E-13
 -1      3287 2.00164E+01 8.80424E-02-1.67434E-04 9.21867E-02-6.00148E-14-2.47317E-13
 -1      3288 2.00118E+01 7.65523E-02-4.95080E-04 7.31905E-02-1.47872E-13-3.32794E-13
 -1      3289 2.00203E+01 7.00548E-02 2.48605E-04-7.00946E-02 1.24112E-14-3.07105E-13
 -1      3290 2.00166E+01 2.26750E+00-4.29324E-03 2.62450E-01 6.46994E-14-2.44740E-13
 -1      3291 1.99996E+01 2.30948E+00-3.66015E-03 1.51176E-01 3.52278E-14-2.52204E-13
 -1      3292 1.99635E+01 1.41385E-01 1.39223E-04-5.96195E-02 1.68580E-13-3.74058E-13
 -1      3293 1.99543E+01 1.48634E-01-6.16790E-04-4.94928E-02-3.62371E-14-3.49378E-14
 -1      3294 1.99412E+01 1.72264E-01 6.44527E-04-4.84885E-02-1.54324E-13-2.06967E-14
 -1      3295 1.99406E+01 1.62578E-01-2.97800E-04-6.00031E-03-1.83358E-13-3.58930E-13
 -1      3296 1.99408E+01 1.62252E-01-2.40094E-04 7.81440E-03-6.26458E-14-2.37577E-13
 -1      3297 1.99303E+01 1.82054E-01 6.96022E-04-1.58672E-02-2.79463E-13-2.46376E-13
 -1      3298 1.99859E+01 1.18374E-01 4.21668E-04-7.52817E-02 2.66034E-13-3.44372E-13
 -1      3299 1.99740E+01 1.28331E-01-6.49436E-04-6.97193E-02 2.86974E-13-6.65256E-13
 -1      3300 1.99620E+01 1.52377E-01 5.36232E-04-7.43316E-02 2.42255E-13-3.27787E-13
 -1      3301 1.01311E+01-4.42558E-01 5.08879E-02 3.00850E+00 1.37224E-13-2.82066E-13
 -1      3302 9.05901E+00 1.72630E-01 1.63589E-01 1.14155E+00-6.39246E-15-4.64073E-13
 -1      3303 2.02230E+01 1.82407E-01 2.05633E-03-8.08490E-01 3.36569E-14 8.17793E-14
 -1      3304 2.01738E+01 1.85319E-01-3.39026E-04-7.62798E-01 2.48886E-14 5.84942E-14
 -1      3305 2.01082E+01 2.25442E-01-1.15558E-03-7.57376E-01-1.76701E-14 1.15787E-14
 -1      3306 2.01290E+01 2.16106E-01-1.48218E-03-8.65858E-01 2.55322E-14 5.65180E-14
 -1      3307 1.91085E+01-3.04002E+00-4.48368E-03 4.38151E+00-1.81622E-13-2.30725E-13
 -1      3308 1.71097E+01-2.29196E+00 1.35776E-01 4.82993E+00-2.56409E-13-1.88124E-13
 -1      3309 2.01136E+01 2.24108E+00-5.17539E-03-1.05035E+00-1.44431E-13-2.22164E-13
 -1      3310 2.01888E+01 2.04514E+00-1.01582E-02-1.13196E+00-1.61027E-13-2.02105E-13
 -1      3311 2.02670E+01 1.65775E+00 3.35296E-03-9.13947E-01-1.40794E-13-1.73649E-13
 -1      3312 2.01825E+01 1.99156E+00 6.87801E-03-8.42979E-01-1.24505E-13-1.96065E-13
 -1      3313 2.01382E+01 2.75758E-01-5.07539E-05-2.78649E-01 5.51276E-14-1.10691E-13
 -1      3314 2.01558E+01 3.26572E-01 3.12432E-03-1.98605E-01 8.22103E-14-9.90769E-14
 -1      3315 2.78143E+01-1.23004E+00-1.76229E-02 2.12004E+00-1.10946E-13-6.56409E-13
 -1      3316 2.80425E+01-2.59724E+00-1.08190E-01 1.16675E+00-3.62071E-14-5.90174E-13
 -1      3317 8.73098E+00 1.30861E-01 1.61797E-01-1.02128E+00-5.06314E-14 2.61693E-13
 -1      3318 9.70420E+00-3.66063E-01 5.11957E-02-2.73551E+00 5.95149E-14 1.32575E-13
 -1      3319 2.28360E+01-3.89419E+00 8.83467E-02 3.11469E+00 2.87136E-13 2.55733E-14
 -1      3320 2.02939E+01 7.98482E-01 5.81478E-03-2.37837E-01-1.04323E-13-1.55090E-13
 -1      3321 2.02525E+01 6.49281E-01-3.49142E-03-9.04675E-02-9.41554E-14-1.62575E-13
 -1      3322 2.02766E+01 7.07756E-01-8.68452E-05-5.20715E-02-9.14422E-14-1.67506E-13
 -1      3323 2.56408E+01 4.16850E+00-1.36569E-01-1.45767E+00 2.89629E-14 2.04420E-13
 -1      3324 2.62621E+01 3.18650E+00-7.39404E-02-2.08219E+00 2.64094E-14 1.29986E-13
 -1      3325 1.18132E+01-7.78573E-01 1.66423E-01-3.83929E+00 7.57241E-14 3.38757E-14
 -1      3326 1.40919E+01-1.81889E+00 2.08589E-03-4.68485E+00 8.70276E-14 6.71546E-14
 -1      3327 2.56050E+01-3.49187E+00 2.07753E-04-8.45373E-01-1.15723E-14 6.01359E-14
 -1      3328 2.64111E+01-2.41755E+00-1.11737E-01 4.95168E-01 1.19833E-13 1.71897E-13
 -1      3329 1.44337E+01-1.70919E+00-2.34517E-02 4.73482E+00-1.87919E-13-2.21406E-13
 -1      3330 1.22056E+01-5.88484E-01 1.99109E-01 4.02394E+00-1.43711E-13-3.89015E-13
 -1      3331 1.47375E+01-2.53747E+00 1.04695E-02 5.23312E+00 2.46983E-13-2.65427E-13
 -1      3332 1.23531E+01-1.29211E+00 1.35722E-01 4.33221E+00 2.51306E-13-3.10987E-13
 -1      3333 1.67991E+01-2.40930E+00 6.90714E-02 4.67949E+00 2.13152E-13-2.39177E-13
 -1      3334 2.16446E+01-4.19109E+00 1.16859E-01-4.11798E+00 3.35475E-13 1.50947E-13
 -1      3335 2.37917E+01-4.45175E+00-2.79916E-02-2.85773E+00 2.38410E-13-1.48158E-13
 -1      3336 1.67886E+01-2.46036E+00 1.52690E-01-4.88049E+00 7.31637E-14 3.98362E-14
 -1      3337 1.92073E+01-3.60601E+00 6.12245E-03-4.73240E+00 2.76161E-13 1.85754E-13
 -1      3338 2.00811E+01-3.10496E+00 3.54251E-02-3.98309E+00 1.80134E-13 5.69215E-14
 -1      3339 2.65660E+01 1.96098E+00-1.43439E-01-2.14191E+00-7.35176E-14 9.96633E-14
 -1      3340 2.69232E+01 5.57456E-01-3.65873E-02-1.96525E+00-1.09891E-13-3.12250E-14
 -1      3341 2.56283E+01 2.30375E+00-1.43516E-02-2.08862E+00-5.38666E-14 3.02175E-13
 -1      3342 2.03129E+01 1.03380E+00-8.46384E-04 6.17579E-01 1.60454E-13-9.10272E-14
 -1      3343 2.02865E+01 1.36018E+00 4.17283E-03 7.02262E-01 1.75413E-13-8.41050E-14
 -1      3344 2.02982E+01 1.19569E+00 5.48568E-03 5.16400E-01 1.52964E-13-8.03663E-14
 -1      3345 2.02620E+01 8.28818E-01-3.24418E-03 3.98700E-01 1.54835E-13-9.33774E-14
 -1      3346 2.27149E+01-4.79141E+00 1.07502E-01-4.31397E+00-1.72078E-13-9.08891E-14
 -1      3347 2.43631E+01-4.48053E+00-4.53848E-02-2.68114E+00-7.73340E-14-8.66373E-14
 -1      3348 2.13370E+01-4.49066E+00 6.79785E-02-4.61589E+00-1.56139E-13-6.33825E-14
 -1      3349 2.01736E+01 3.91568E-01-1.13621E-03-1.07088E-01 1.09720E-13-9.91397E-14
 -1      3350 2.02079E+01 4.79778E-01 4.05981E-03 4.37332E-03 1.19378E-13-8.43796E-14
 -1      3351 2.02151E+01 4.41244E-01-1.57457E-03-1.33343E-01 9.54671E-14-7.62289E-14
 -1      3352 1.99906E+01 2.33109E+00-3.85339E-03 5.95672E-02 2.04145E-14-2.36769E-13
 -1      3353 1.99902E+01 2.33220E+00-3.83585E-03-5.31837E-02-3.46705E-15-2.30509E-13
 -1      3354 2.00962E+01 2.05222E+00 5.49243E-03 8.63562E-02 1.40531E-14-2.24445E-13
 -1      3355 2.00393E+01 2.21310E+00-3.52527E-03-3.42850E-01-5.02277E-14-2.55918E-13
 -1      3356 2.00706E+01 2.12976E+00-5.11050E-03-4.48294E-01-6.53931E-14-2.38383E-13
 -1      3357 2.52742E+01 3.89933E+00-8.55065E-02 1.32098E+00 2.36318E-13 3.14110E-13
 -1      3358 2.01576E+01 1.87681E+00-6.70006E-03 6.21982E-01 1.49188E-13-1.24596E-13
 -1      3359 2.01141E+01 2.01435E+00-3.00382E-03 5.31395E-01 1.17512E-13-1.39078E-13
 -1      3360 2.02509E+01 1.54357E+00 6.37381E-03 5.12460E-01 1.49257E-13-9.97531E-14
 -1      3361 1.18010E+01-1.14716E-01 1.07981E-01 3.00565E+00-1.20563E-13-4.24188E-13
 -1      3362 2.01100E+01 2.02689E+00-3.28749E-03-5.25765E-01-7.19504E-14-2.24585E-13
 -1      3363 2.01558E+01 1.89727E+00-4.97147E-03-6.18008E-01-8.82841E-14-2.14537E-13
 -1      3364 2.01802E+01 1.81026E+00 5.76877E-03-3.92707E-01-7.52030E-14-2.29117E-13
 -1      3365 2.01201E+01 2.14596E-01 7.71221E-04-4.09362E-01 8.08083E-15-8.17757E-14
 -1      3366 2.01211E+01 2.40390E-01 1.83527E-03-3.48223E-01 4.77630E-14-9.60044E-14
 -1      3367 2.01733E+01 3.18929E-01-1.49001E-03-3.01808E-01 3.93938E-14-7.40745E-14
 -1      3368 2.57745E+01-4.23452E+00 3.66975E-02-1.40132E+00 1.69951E-13-4.34090E-13
 -1      3369 9.94452E+00 3.42478E-01 1.20528E-01 7.82166E-02-1.28893E-13-3.49318E-13
 -1      3370 1.99746E+01 1.24058E-01-6.05468E-04 6.92330E-02 2.33801E-14-4.58062E-13
 -1      3371 1.99859E+01 1.13711E-01 2.11462E-04 7.43510E-02 3.86027E-15-2.02255E-14
 -1      3372 1.99307E+01 1.80571E-01 6.59449E-04 1.87583E-02-3.82551E-14-3.61746E-13
 -1      3373 1.99433E+01 1.58502E-01-4.86431E-04 2.40896E-02 8.41664E-14-1.82378E-13
 -1      3374 1.99484E+01 1.54290E-01-1.07375E-05 3.67450E-02 1.18528E-13-1.93516E-13
 -1      3375 2.40958E+01-3.96570E+00-8.23855E-04-2.07879E+00-7.20275E-14-1.97605E-14
 -1      3376 2.51363E+01-3.92565E+00-5.20358E-03-1.45620E+00-2.20796E-14-2.05547E-14
 -1      3377 2.51595E+01-3.10816E+00-1.72285E-02-3.05814E-01 3.10888E-14 1.57794E-13
 -1      3378 1.59434E+01-1.44979E+00 2.14943E-02 4.16822E+00-1.41508E-13-2.36752E-13
 -1      3379 2.01168E+01 2.28778E-01-1.15756E-03-5.47064E-01-2.51971E-14-3.55725E-14
 -1      3380 2.01196E+01 1.88705E-01 1.33988E-03-5.17279E-01-4.53433E-14-2.77330E-14
 -1      3381 2.01063E+01 1.98315E-01 8.35227E-04-4.66160E-01-3.54743E-14-6.78712E-14
 -1      3382 2.35091E+01 1.00338E+00 8.80211E-03 1.85385E+00 2.38067E-13 1.59074E-13
 -1      3383 2.36075E+01 1.96425E-01-4.40195E-02 1.91857E+00 2.11592E-13 1.78175E-13
 -1      3384 2.32162E+01 1.98116E+00-5.35069E-02-1.49214E+00-7.23623E-14 2.20839E-13
 -1      3385 2.30759E+01 2.59159E+00 3.49536E-03-1.01210E+00 1.37272E-13 2.43858E-13
 -1      3386 1.59820E+01-1.55312E+00 7.82228E-02-4.21997E+00 2.14724E-14 9.44730E-14
 -1      3387 1.99553E+01 1.45116E-01-6.09036E-04 5.03787E-02 2.06410E-13-2.63992E-13
 -1      3388 1.99644E+01 1.37562E-01 2.10646E-04 6.00308E-02 2.09617E-13-4.33246E-13
 -1      3389 1.99631E+01 1.46684E-01 4.03274E-04 7.47185E-02-6.23204E-16-3.42526E-13
 -1      3390 1.99424E+01 1.68236E-01 5.64296E-04 5.03476E-02 1.29446E-13-2.43741E-13
 -1      3391 2.00424E+01 2.20477E+00-3.45753E-03 3.49684E-01 8.84253E-14-2.24410E-13
 -1      3392 2.01268E+01 1.96704E+00 5.30649E-03 2.49371E-01 6.98525E-14-2.14370E-13
 -1      3393 2.00742E+01 2.11935E+00-5.03549E-03 4.55226E-01 1.08904E-13-1.82284E-13
 -1      3394 2.00014E+01 1.00079E-01-4.12733E-04-8.15108E-02 1.05274E-13-2.46868E-13
 -1      3395 1.99908E+01 1.21546E-01-3.24110E-04-9.18045E-02 1.71136E-13-4.94544E-13
 -1      3396 2.00110E+01 8.92178E-02 1.94632E-04-8.06312E-02 1.14063E-13-4.44182E-13
 -1      3397 1.24494E+01-5.27931E-01 1.13733E-01 3.34889E+00 1.47327E-13-2.42022E-13
 -1      3398 2.43406E+01 3.89491E+00-6.27785E-02-7.22788E-01 9.54514E-14 2.84793E-13
 -1      3399 2.40670E+01 1.95426E+00-1.66196E-03-1.87381E+00-9.52016E-14 3.43179E-13
 -1      3400 2.40754E+01 1.58136E+00-2.33363E-02 1.88808E+00 2.39628E-13 1.87029E-13
 -1      3401 2.70193E+01-3.88446E+00-3.60324E-03-5.10579E-01 9.90354E-15-4.97928E-13
 -1      3402 2.32521E+01-4.10380E+00-1.71522E-02 2.80052E+00-2.26770E-13-2.13771E-13
 -1      3403 2.15358E+01-3.74983E+00 4.48768E-04 3.56898E+00-1.82996E-13-2.30176E-13
 -1      3404 2.02150E+01 5.62303E-01-1.44669E-03 1.07541E-01 1.29956E-13-9.48727E-14
 -1      3405 2.02628E+01 6.97855E-01 4.01940E-03 2.65139E-01 1.40526E-13-9.56108E-14
 -1      3406 2.02788E+01 8.46502E-01-4.92371E-03 3.23064E-01 1.40413E-13-7.72971E-14
 -1      3407 2.02524E+01 6.18020E-01-2.04132E-03 7.15597E-02 1.30380E-13-6.85477E-14
 -1      3408 2.02477E+01 1.58096E+00-2.83718E-03-7.42516E-01-1.19982E-13-1.71205E-13
 -1      3409 2.02937E+01 1.40150E+00-1.65872E-03-7.58338E-01-1.24005E-13-1.69433E-13
 -1      3410 2.03004E+01 1.20496E+00 5.17839E-03-5.90136E-01-1.01134E-13-1.57209E-13
 -1      3411 1.19916E+01-1.41522E-01 1.04286E-01-2.87614E+00 9.32449E-14 8.00332E-14
 -1      3412 1.52684E+01-3.20084E+00 1.39845E-01-5.92581E+00-2.89255E-13-8.14210E-14
 -1      3413 1.75246E+01-3.69663E+00-2.83849E-02-5.53657E+00-2.51493E-13-8.59035E-14
 -1      3414 1.46690E+01-2.35394E+00 8.82431E-02-5.37291E+00-3.44440E-13-1.14166E-13
 -1      3415 9.85777E+00 3.94879E-01 1.28205E-01 4.19181E-03-2.24038E-13-1.16268E-13
 -1      3416 2.06618E+01-3.62559E+00-6.48897E-03 4.09929E+00 3.08458E-13-1.11133E-13
 -1      3417 1.04537E+01-6.46654E-01 1.71625E-01-3.72860E+00-3.57173E-13-3.21285E-13
 -1      3418 1.17939E+01-1.12958E+00 6.86835E-02-4.31326E+00-3.48777E-13-2.13579E-13
 -1      3419 1.04728E+01-1.00269E-01 8.38870E-02-2.69295E+00-3.44572E-13-3.75033E-13
 -1      3420 2.42351E+01-2.74790E-01 4.85777E-04 1.84125E+00 1.21760E-13 1.19315E-13
 -1      3421 2.68173E+01-1.20727E+00-1.29309E-01-1.28383E+00-1.94251E-13-1.38181E-13
 -1      3422 2.64475E+01-2.45743E+00-1.28707E-02-3.45256E-01-2.47909E-13-1.80501E-13
 -1      3423 2.04894E+01-3.16118E+00 3.76437E-02 3.80843E+00-9.47228E-14-2.61114E-13
 -1      3424 1.91631E+01-2.33698E+00-1.53777E-02 3.69721E+00-9.26169E-15-2.04541E-13
 -1      3425 2.14614E+01-3.00117E+00 1.83117E-02 2.90001E+00 3.23448E-14-9.58296E-14
 -1      3426 2.48934E+01 3.94307E+00-1.16827E-01-1.24637E+00-1.02279E-14 2.62554E-13
 -1      3427 2.02806E+01 1.02609E+00-3.22448E-03-4.45028E-01-1.01655E-13-1.61483E-13
 -1      3428 2.60128E+01-1.57036E+00-6.39575E-03 1.15869E+00 1.21236E-13 1.87468E-13
 -1      3429 2.62073E+01-1.87756E-01 1.13825E-02-1.83130E+00-1.66915E-13 1.00364E-13
 -1      3430 2.02899E+01 1.07875E+00-6.31608E-04-3.73988E-01-9.60978E-14-1.60609E-13
 -1      3431 2.00145E+01 2.27340E+00-4.28594E-03-2.55526E-01-3.67416E-14-2.37339E-13
 -1      3432 2.01251E+01 1.97528E+00 5.79299E-03-2.45369E-01-3.79489E-14-2.30190E-13
 -1      3433 1.99983E+01 2.31298E+00-3.67310E-03-1.44648E-01-4.11462E-15-2.25366E-13
 -1      3434 2.02128E+01 4.70022E-01 9.18870E-04 2.56830E-01-6.49430E-14-1.08076E-13
 -1      3435 2.01818E+01 4.26816E-01-6.16893E-04 3.31608E-01-3.72098E-14-6.62714E-14
 -1      3436 2.01390E+01 4.01791E-01 3.27222E-05 3.91984E-01-5.09438E-14-6.78156E-14
 -1      3437 2.01069E+01 3.91271E-01 7.57940E-05 4.56182E-01-7.98366E-15-8.47343E-14
 -1      3438 2.01632E+01 4.75113E-01 6.56057E-04 3.29393E-01-2.46019E-14-5.22544E-14
 -1      3439 2.00512E+01 3.93704E-01-8.65379E-04 5.10699E-01-1.94355E-14-8.89195E-14
 -1      3440 2.00168E+01 4.08026E-01 5.30777E-04 5.71273E-01-2.22345E-14-1.04130E-13
 -1      3441 2.00647E+01 4.47275E-01 9.02245E-04 4.44775E-01-3.21092E-14-6.59172E-14
 -1      3442 1.99474E+01 4.31190E-01-1.75473E-03 6.25219E-01 9.33838E-15-1.41208E-13
 -1      3443 1.99083E+01 4.64053E-01 8.12455E-04 6.87741E-01 6.92843E-15-1.08946E-13
 -1      3444 1.99430E+01 4.73969E-01 1.39065E-03 5.52215E-01-1.40513E-14-1.06137E-13
 -1      3445 1.98227E+01 5.02017E-01-2.64454E-03 7.45499E-01 9.35477E-15-1.30561E-13
 -1      3446 1.97759E+01 5.47395E-01 9.91254E-04 8.14237E-01 6.52500E-16-1.32078E-13
 -1      3447 1.97943E+01 5.41396E-01 2.09182E-03 6.60894E-01 7.43466E-15-1.54126E-13
 -1      3448 1.96702E+01 5.93866E-01-3.57582E-03 8.79444E-01-5.13426E-14-1.32272E-13
 -1      3449 1.96127E+01 6.44813E-01 1.17673E-03 9.57700E-01-7.87001E-14-1.30878E-13
 -1      3450 1.96117E+01 6.36474E-01 2.99167E-03 7.78336E-01-4.49035E-14-1.91287E-13
 -1      3451 1.94818E+01 6.91709E-01-4.60874E-03 1.03390E+00-6.31760E-14-1.19009E-13
 -1      3452 1.94117E+01 7.38788E-01 1.56465E-03 1.12463E+00-1.68049E-14-1.06727E-13
 -1      3453 1.93861E+01 7.44545E-01 4.05871E-03 9.11196E-01-5.34834E-14-2.03597E-13
 -1      3454 1.92503E+01 7.74367E-01-5.83219E-03 1.21642E+00-3.21151E-14-1.62133E-13
 -1      3455 1.91689E+01 8.03667E-01 2.52146E-03 1.32328E+00-7.96264E-14-1.91287E-13
 -1      3456 1.91072E+01 8.46588E-01 5.26005E-03 1.06714E+00-6.41357E-14-1.18063E-13
 -1      3457 1.89717E+01 8.10104E-01-7.34631E-03 1.43843E+00-7.49285E-14-2.03927E-13
 -1      3458 1.88875E+01 8.00399E-01 4.67742E-03 1.56755E+00-5.68336E-14-2.04868E-13
 -1      3459 1.87644E+01 9.15621E-01 6.49712E-03 1.25823E+00-7.00598E-14-1.86665E-13
 -1      3460 1.86520E+01 7.50316E-01-9.09654E-03 1.72028E+00-4.40845E-14-1.92807E-13
 -1      3461 1.85874E+01 6.69310E-01 9.18135E-03 1.88217E+00-3.41324E-14-2.06446E-13
 -1      3462 1.83501E+01 9.11312E-01 7.51629E-03 1.50703E+00-6.48169E-14-1.18870E-13
 -1      3463 1.83185E+01 5.21747E-01-1.02725E-02 2.09824E+00-3.12639E-14-1.44451E-13
 -1      3464 1.83200E+01 3.17473E-01 1.63685E-02 2.30968E+00-4.18904E-14-9.16698E-14
 -1      3465 1.78640E+01 7.72994E-01 7.87270E-03 1.85539E+00 3.00430E-14-1.29813E-13
 -1      3466 1.80490E+01 2.49567E-02-3.84722E-03 2.62221E+00-3.65936E-14-2.55632E-14
 -1      3467 1.81972E+01-3.85641E-01 2.93472E-02 2.90868E+00 8.80361E-15-3.29615E-14
 -1      3468 1.73303E+01 3.94106E-01 4.95617E-03 2.37391E+00 1.19737E-14-9.35686E-14
 -1      3469 1.10581E+01 5.99548E-01 4.98705E-02 7.50174E-01-2.79032E-14-2.85161E-13
 -1      3470 1.06694E+01 5.69344E-01 9.99438E-02-9.84873E-01-1.76779E-13-3.06553E-13
 -1      3471 1.99947E+01 1.00115E-01-5.05376E-04 7.55052E-02 9.06554E-14 3.88200E-14
 -1      3472 2.00041E+01 8.95349E-02 5.37135E-05 7.53847E-02-1.53684E-14-8.53728E-14
 -1      3473 2.00055E+01 9.52372E-02 9.09894E-05 8.42672E-02-4.75807E-14-9.40836E-14
 -1      3474 1.99854E+01 1.20767E-01 7.34675E-05 8.52873E-02-6.37359E-14-1.16799E-13
 -1      3475 1.99564E+01 1.63566E-01-4.11030E-04-9.11669E-02 9.62772E-14-4.39984E-13
 -1      3476 1.99422E+01 1.75535E-01-8.93290E-04-8.11171E-02 5.50289E-14-2.50976E-13
 -1      3477 1.87841E+01-1.31986E+00 3.29483E-02-3.35878E+00 1.32758E-13-1.07403E-13
 -1      3478 1.84079E+01-6.69042E-01 1.22814E-02-3.08177E+00 5.97892E-14-3.22155E-14
 -1      3479 1.85469E+01-1.95246E-01 2.78997E-02-2.67696E+00 5.09202E-14-1.31152E-13
 -1      3480 1.83968E+01 1.51217E-01-7.11724E-03-2.44291E+00-6.14064E-14-9.16950E-14
 -1      3481 1.73714E+01-1.63010E-01 2.09050E-02-2.93698E+00 1.22046E-14-1.37802E-13
 -1      3482 1.86156E+01 4.26818E-01 1.49494E-02-2.15627E+00-2.38760E-13-3.65190E-14
 -1      3483 1.86043E+01 6.03509E-01-8.63151E-03-1.96262E+00-3.33500E-13-1.71713E-13
 -1      3484 1.77256E+01 4.98330E-01 4.97223E-03-2.23688E+00-7.97294E-14-2.97040E-13
 -1      3485 1.88258E+01 7.30894E-01 7.50905E-03-1.75936E+00-2.89581E-13-1.08687E-13
 -1      3486 1.88737E+01 7.99397E-01-7.68850E-03-1.60153E+00-2.24593E-13-1.61133E-13
 -1      3487 1.81606E+01 8.30386E-01 6.09349E-03-1.75528E+00-3.25282E-13 2.17218E-14
 -1      3488 1.90691E+01 8.39205E-01 3.91337E-03-1.44944E+00-2.88691E-13-2.22933E-13
 -1      3489 1.91329E+01 8.43713E-01-6.33731E-03-1.31722E+00-1.57347E-13-3.08454E-13
 -1      3490 1.85630E+01 9.51407E-01 6.35093E-03-1.41674E+00-2.85212E-13 7.35949E-14
 -1      3491 1.92952E+01 8.33402E-01 2.17624E-03-1.19664E+00-9.89089E-14-4.06073E-13
 -1      3492 1.93553E+01 8.03120E-01-5.15868E-03-1.08313E+00-1.51278E-13-4.18525E-13
 -1      3493 1.89059E+01 9.49145E-01 5.78938E-03-1.16066E+00-2.63348E-13-1.04570E-13
 -1      3494 1.94851E+01 7.66878E-01 1.40490E-03-9.83360E-01-2.74231E-14-5.08076E-13
 -1      3495 1.95341E+01 7.20172E-01-4.21198E-03-8.84994E-01 6.89918E-14-3.57244E-13
 -1      3496 1.91845E+01 8.79496E-01 4.88273E-03-9.54451E-01-1.53860E-13-2.25084E-13
 -1      3497 1.96354E+01 6.72912E-01 1.09807E-03-8.00582E-01 2.80892E-14-3.30371E-13
 -1      3498 1.96720E+01 6.20849E-01-3.44664E-03-7.15630E-01 1.78920E-14-2.89052E-13
 -1      3499 1.94039E+01 7.77746E-01 3.91228E-03-7.81410E-01 4.09630E-14-3.38238E-13
 -1      3500 1.97495E+01 5.71320E-01 9.82940E-04-6.43865E-01 3.61060E-14-2.68877E-13
 -1      3501 1.97751E+01 5.20225E-01-2.80973E-03-5.71310E-01 9.40577E-15-2.32702E-13
 -1      3502 1.95725E+01 6.65511E-01 3.03343E-03-6.33608E-01 6.59680E-14-3.70797E-13
 -1      3503 1.98334E+01 4.73227E-01 9.27479E-04-5.10659E-01 1.62169E-13-2.20939E-13
 -1      3504 1.98503E+01 4.26419E-01-2.27271E-03-4.49602E-01 2.71272E-13-2.07591E-13
 -1      3505 1.96995E+01 5.55381E-01 2.28721E-03-5.07267E-01 8.53857E-14-1.54930E-13
 -1      3506 1.98934E+01 3.84307E-01 8.75523E-04-3.98952E-01 1.51634E-13-2.02683E-13
 -1      3507 1.99039E+01 3.43280E-01-1.81862E-03-3.48394E-01 3.39614E-13-2.62284E-13
 -1      3508 1.97934E+01 4.54214E-01 1.69494E-03-4.00241E-01 2.14257E-13-4.38859E-14
 -1      3509 1.99353E+01 3.06975E-01 8.08630E-04-3.06716E-01 4.99322E-13-4.73505E-13
 -1      3510 1.99412E+01 2.72158E-01-1.43329E-03-2.65528E-01 4.16956E-13-3.50420E-13
 -1      3511 1.98617E+01 3.65173E-01 1.23521E-03-3.10838E-01 2.92376E-13-2.74806E-13
 -1      3512 1.99637E+01 2.41780E-01 7.31999E-04-2.31740E-01 3.50313E-13-4.74785E-13
 -1      3513 1.99666E+01 2.12969E-01-1.07596E-03-1.98698E-01 2.93233E-13-4.16552E-13
 -1      3514 1.99105E+01 2.89305E-01 8.95289E-04-2.37338E-01 3.26852E-13-6.56016E-13
 -1      3515 1.99823E+01 1.88148E-01 6.80166E-04-1.71650E-01 2.21241E-13-3.80089E-13
 -1      3516 1.99823E+01 1.64848E-01-8.86342E-04-1.45099E-01 2.57527E-14-4.80692E-13
 -1      3517 1.99444E+01 2.26336E-01 5.88066E-04-1.77877E-01 2.96031E-13-5.87306E-13
 -1      3518 1.99901E+01 1.38570E-01 1.87345E-04-1.10926E-01 9.67939E-14-4.74957E-13
 -1      3519 2.01149E+01 1.17646E-01 3.14801E-03-1.13992E+00-6.07455E-14 1.32830E-13
 -1      3520 2.00537E+01 1.79892E-01 5.48523E-04-1.08739E+00-1.67410E-14 9.80374E-14
 -1      3521 2.00522E+01 2.24145E-01 2.74016E-03-1.01494E+00-2.75846E-14 9.58938E-14
 -1      3522 2.00170E+01 2.51722E-01-4.14291E-04-9.58204E-01-1.25210E-14 6.42493E-14
 -1      3523 1.98778E+01 2.49736E-01-2.39758E-03-1.07193E+00-3.28045E-14 1.09488E-13
 -1      3524 2.05035E+01-3.98173E-01 3.21694E-03-1.33288E+00-1.45751E-13 2.07900E-14
 -1      3525 2.03472E+01-2.21435E-01 5.32117E-03-1.32014E+00-1.04460E-13 1.64674E-14
 -1      3526 2.09201E+01-8.52812E-01 1.75401E-03-1.33723E+00-1.07783E-13 8.28548E-14
 -1      3527 2.06903E+01-6.05269E-01 1.00199E-02-1.37434E+00-1.41273E-13 5.49547E-14
 -1      3528 2.02791E+01-5.17144E-01-1.23332E-02-1.51825E+00-1.68907E-13 3.93338E-15
 -1      3529 2.15507E+01-1.42097E+00-2.11341E-03-1.19917E+00-1.10442E-13 1.07524E-13
 -1      3530 2.12390E+01-1.12070E+00 1.64695E-02-1.31951E+00-1.10893E-13 1.06567E-13
 -1      3531 2.07401E+01-1.06523E+00-1.79061E-02-1.58587E+00-1.45719E-13 5.14643E-14
 -1      3532 2.24221E+01-1.98529E+00-5.69812E-03-8.19122E-01-6.16902E-14 1.45757E-13
 -1      3533 2.20387E+01-1.70774E+00 2.39489E-02-1.06528E+00-7.48134E-14 1.18937E-13
 -1      3534 2.14867E+01-1.74238E+00-2.29046E-02-1.49949E+00-1.20166E-13 3.24927E-14
 -1      3535 2.35320E+01-2.25102E+00 8.70673E-03-7.41868E-02-6.83047E-15 1.28868E-13
 -1      3536 2.30819E+01-2.19230E+00 2.78505E-02-5.08684E-01-3.84146E-14 1.73270E-13
 -1      3537 2.25554E+01-2.38588E+00-2.43914E-02-1.12155E+00-4.19471E-14 1.04547E-13
 -1      3538 2.46248E+01-2.19300E+00-3.43121E-03 5.08631E-01 5.26428E-14 2.16138E-13
 -1      3539 2.41950E+01-2.55272E+00 3.66631E-03-1.64945E-02 3.07220E-15 2.01271E-13
 -1      3540 2.57292E+01-2.58634E+00 5.46349E-03-2.76480E-01-2.92561E-13-1.47098E-13
 -1      3541 2.58099E+01-3.49413E+00-6.55671E-02 6.49391E-01-2.66667E-13-3.21340E-13
 -1      3542 2.46118E+01-3.86604E+00 1.06376E-02 1.68942E+00-3.38797E-13-2.20926E-13
 -1      3543 2.43775E+01 3.73913E+00-7.63798E-02 1.03968E+00 2.53603E-13 2.80092E-13
 -1      3544 2.46499E+01 2.68067E+00-3.29086E-02 1.90054E+00 2.39586E-13 2.64032E-13
 -1      3545 2.47391E+01 1.46311E+00-8.23666E-02 2.05967E+00 2.02227E-13 1.94272E-13
 -1      3546 2.21582E+01-1.75019E+00 2.49411E-02 9.71082E-01-3.98557E-14 2.64647E-13
 -1      3547 2.25454E+01-2.01513E+00-6.02762E-03 7.15602E-01-5.16488E-14 3.62300E-13
 -1      3548 2.13220E+01-1.16112E+00 1.60467E-02 1.25424E+00 1.69115E-13 1.31557E-13
 -1      3549 2.16491E+01-1.46728E+00-2.43902E-03 1.12273E+00 9.70933E-14 2.21817E-13
 -1      3550 2.16001E+01-1.79853E+00-2.19350E-02 1.44109E+00 1.03619E-13-4.55365E-17
 -1      3551 2.07412E+01-6.18759E-01 1.07015E-02 1.31265E+00 2.75562E-13 1.52101E-14
 -1      3552 2.09834E+01-8.77593E-01 2.17292E-03 1.27387E+00 2.15043E-13 8.50021E-14
 -1      3553 2.08032E+01-1.09424E+00-1.69741E-02 1.53532E+00 2.75494E-13 2.20917E-15
 -1      3554 2.03703E+01-2.08881E-01 6.01923E-03 1.25433E+00 6.25604E-14-4.84583E-14
 -1      3555 2.05359E+01-3.99124E-01 2.96026E-03 1.27014E+00 2.39149E-13-2.36954E-14
 -1      3556 2.03056E+01-5.21983E-01-1.18092E-02 1.46854E+00 2.86709E-13-5.82672E-14
 -1      3557 2.01513E+01 6.89335E-02 2.79653E-03 1.13572E+00-6.73557E-14 3.84851E-15
 -1      3558 2.02592E+01-5.52759E-02 3.21163E-03 1.18191E+00-6.70070E-14-1.79687E-14
 -1      3559 2.00186E+01-1.06383E-01-7.53519E-03 1.32489E+00 1.38008E-14 8.56631E-14
 -1      3560 2.00332E+01 2.35680E-01 7.63627E-04 9.92033E-01-1.00346E-14 1.21279E-14
 -1      3561 2.01009E+01 1.64574E-01 2.87612E-03 1.05314E+00 4.52992E-14-7.67103E-14
 -1      3562 1.98744E+01 1.63059E-01-4.49859E-03 1.15346E+00-4.48885E-14 7.61097E-14
 -1      3563 1.99776E+01 3.19385E-01-3.67524E-04 8.43536E-01-1.51317E-13 1.66686E-13
 -1      3564 2.00190E+01 2.86743E-01 2.45690E-03 9.09721E-01-1.51980E-13 5.29908E-14
 -1      3565 1.98185E+01 3.16955E-01-2.29892E-03 9.79890E-01-1.73152E-13 1.65430E-13
 -1      3566 1.99576E+01 3.46088E-01-9.63854E-04 7.01384E-01-6.21888E-15 2.83615E-13
 -1      3567 1.99830E+01 3.39199E-01 2.07820E-03 7.66586E-01-6.77950E-14 2.68461E-13
 -1      3568 1.98125E+01 3.87052E-01-9.64605E-04 8.16598E-01-1.59205E-13 1.86620E-13
 -1      3569 1.99565E+01 3.36701E-01-1.21678E-03 5.71588E-01-4.33384E-14 2.62987E-13
 -1      3570 1.99723E+01 3.45662E-01 1.76473E-03 6.32210E-01 6.97526E-14 3.33255E-13
 -1      3571 1.98319E+01 4.01287E-01-2.12505E-04 6.68932E-01 1.67234E-14 1.62042E-13
 -1      3572 1.99640E+01 3.06731E-01-1.26324E-03 4.57065E-01-1.45543E-14 3.96676E-14
 -1      3573 1.99743E+01 3.24355E-01 1.50664E-03 5.11171E-01 1.65993E-15 1.69944E-13
 -1      3574 1.98617E+01 3.81082E-01 1.71963E-04 5.39064E-01 1.23166E-14 1.42067E-13
 -1      3575 1.99742E+01 2.66975E-01-1.19053E-03 3.58771E-01 2.68241E-15 1.33119E-13
 -1      3576 1.99814E+01 2.88339E-01 1.28938E-03 4.05537E-01-7.11570E-15 6.44299E-14
 -1      3577 1.98933E+01 3.41971E-01 3.30747E-04 4.27376E-01 4.83174E-14-1.43489E-14
 -1      3578 1.99841E+01 2.24581E-01-1.05579E-03 2.76376E-01-2.91528E-13 1.08902E-13
 -1      3579 1.99896E+01 2.46483E-01 1.10060E-03 3.15748E-01-9.19933E-14 4.06055E-14
 -1      3580 1.99223E+01 2.94653E-01 3.70481E-04 3.33255E-01 8.84870E-16 2.64292E-13
 -1      3581 1.99922E+01 1.83933E-01-8.87743E-04 2.08742E-01-1.74688E-13 1.87873E-13
 -1      3582 1.99967E+01 2.04446E-01 9.35816E-04 2.41118E-01-2.70686E-13 1.09434E-13
 -1      3583 1.99466E+01 2.46028E-01 3.28531E-04 2.55374E-01-3.08452E-13-1.29677E-14
 -1      3584 1.99981E+01 1.47119E-01-8.39241E-04 1.54576E-01-8.55103E-14-5.95239E-14
 -1      3585 2.00021E+01 1.65195E-01 6.91602E-04 1.80282E-01-4.87528E-14 9.23236E-14
 -1      3586 1.99659E+01 2.00282E-01 2.88819E-04 1.91961E-01-1.00100E-13-1.22216E-13
 -1      3587 2.32075E+01-2.20412E+00 2.20988E-02 3.66858E-01-7.17098E-14 4.51797E-13
 -1      3588 2.35940E+01-2.24890E+00-1.33162E-02-4.28833E-02-8.34489E-14 4.45605E-13
 -1      3589 2.27498E+01-2.37301E+00-5.69180E-03 9.60018E-01-8.11720E-15 3.05409E-13
 -1      3590 1.99125E+01 2.02480E-01-1.97123E-04-2.69754E-02-2.20297E-13-7.38691E-14
 -1      3591 1.99092E+01 2.04296E-01-4.36900E-04-8.76798E-03-2.39546E-13-2.89580E-13
 -1      3592 2.02519E+01-8.01846E-02 3.43089E-03-1.25359E+00-6.18963E-14 5.72142E-14
 -1      3593 2.01516E+01 3.21141E-02 2.33964E-03-1.21379E+00-4.59423E-14 9.58359E-14
 -1      3594 1.99092E+01 1.14594E-01-4.42248E-03-1.22687E+00-3.32511E-14 4.20873E-14
 -1      3595 2.00256E+01-1.29739E-01-7.63597E-03-1.38295E+00-5.73487E-14-4.22839E-15
 -1      3596 1.92996E+01-2.06460E+00 7.27258E-02-3.76247E+00 1.54998E-13-5.45623E-14
 -1      3597 2.39678E+01-3.56301E+00 2.47144E-02 1.66439E+00-2.04942E-13-1.47356E-13
 -1      3598 2.02085E+01 1.72701E+00-2.35143E-03-6.98981E-01-9.85277E-14-1.74172E-13
 -1      3599 1.70471E+01-1.31360E+00-1.19008E-02 3.71061E+00-5.62521E-14-2.25800E-13
 -1      3600 1.53172E+01-4.58136E-01 1.00637E-01 3.53160E+00 6.76360E-14-3.02288E-13
 -1      3601 2.00721E+01 2.73512E-01 1.52894E-03-6.63035E-01-1.33532E-14 8.44484E-15
 -1      3602 2.00740E+01 2.71488E-01-4.66066E-04-6.09765E-01 1.04941E-14-1.71748E-14
 -1      3603 2.02764E+01 1.36134E+00 1.84341E-03-4.73831E-01-9.42308E-14-1.65446E-13
 -1      3604 2.02799E+01 1.08025E+00-4.75742E-03-2.67382E-01-8.88211E-14-1.65551E-13
 -1      3605 1.18759E+01 5.02441E-01 1.25603E-01-1.94142E+00-2.35246E-14-8.27116E-15
 -1      3606 1.31776E+01-1.88067E-01-2.82688E-02-3.06802E+00 8.36831E-14 1.94289E-16
 -1      3607 2.02698E+01 6.17225E-01 1.63771E-03 9.05500E-02-6.64834E-14-1.80403E-13
 -1      3608 2.02411E+01 5.31431E-01-1.53629E-03 1.84194E-01-7.94696E-14-1.50128E-13
 -1      3609 2.02382E+01 5.73937E-01 5.55068E-04 1.95015E-01-3.44424E-14-1.13401E-13
 -1      3610 2.03039E+01 8.71252E-01 3.90263E-03-1.20784E-01-1.02422E-13-1.62953E-13
 -1      3611 2.02801E+01 7.25930E-01-2.79676E-03-1.58567E-04-9.07526E-14-1.88981E-13
 -1      3612 2.02845E+01 7.64304E-01 5.46455E-04 2.95232E-02-8.01637E-14-1.42427E-13
 -1      3613 1.42157E+01-6.64149E-01 2.87389E-02 3.68670E+00 1.25974E-13-2.16036E-13
 -1      3614 1.25187E+01 2.23507E-01 6.22299E-02 2.45867E+00 2.79620E-14-1.66742E-13
 -1      3615 1.99291E+01 1.89570E-01 1.27884E-04-6.37123E-02 5.90644E-14 3.86706E-14
 -1      3616 1.99191E+01 1.96060E-01-6.53110E-04-4.78597E-02-5.70985E-14 1.05610E-13
 -1      3617 1.99015E+01 2.23987E-01 9.28786E-04-4.21200E-02 9.10079E-15 8.98891E-14
 -1      3618 1.99225E+01 2.05083E-01 2.30011E-04-8.21924E-02 9.16329E-14-1.31952E-13
 -1      3619 1.06499E+01 6.10050E-01 5.25861E-02 9.96937E-01-3.73406E-13-4.41445E-13
 -1      3620 1.08747E+01 6.18139E-01 1.95771E-02-6.78548E-01-1.95748E-13-6.36852E-14
 -1      3621 1.74885E+01-1.52715E+00-3.38404E-02-3.87844E+00 3.39971E-14 1.19557E-14
 -1      3622 2.02370E+01 4.76030E-01-1.40825E-03-1.63785E-01 7.70509E-14-8.04913E-14
 -1      3623 2.02643E+01 5.66597E-01 2.36438E-03-6.51646E-02 1.16454E-13-8.63288E-14
 -1      3624 2.02007E+01-4.00642E+00 1.09134E-01-4.85338E+00-2.01644E-13-9.70491E-14
 -1      3625 2.21933E+01-4.23338E+00-1.71724E-02-3.65814E+00-1.94848E-13-5.16132E-14
 -1      3626 1.91104E+01-3.39528E+00 5.89682E-02-4.75068E+00-2.57766E-13-1.49568E-13
 -1      3627 1.35806E+01-1.56318E-01-2.78482E-02 3.16624E+00 4.87674E-15-2.13149E-13
 -1      3628 1.18160E+01 4.27276E-01 1.00838E-01 2.16861E+00-2.07147E-13-4.23495E-13
 -1      3629 1.27710E+01 7.18612E-01 7.31168E-02 1.44306E+00-1.70947E-13-3.01023E-13
 -1      3630 1.50176E+01-5.90103E-02 1.70967E-02 2.89795E+00 3.41263E-14-1.89990E-13
 -1      3631 1.99658E+01 1.67694E-01 2.26046E-04-1.16274E-01 1.01096E-13-4.47546E-13
 -1      3632 2.51209E+01 3.34876E-01-1.06509E-02 2.02509E+00 1.18242E-13 1.73077E-13
 -1      3633 2.49953E+01-7.73738E-01-7.21205E-02 1.68521E+00 7.27153E-14 1.45671E-13
 -1      3634 2.02786E+01 1.23085E+00-4.69595E-03 4.05032E-01 1.50602E-13-9.08352E-14
 -1      3635 2.02573E+01 1.38977E+00 6.86017E-04 3.71080E-01 1.24828E-13-9.97391E-14
 -1      3636 2.01397E+01 2.54877E-01-1.32930E-03-4.34311E-01-8.61845E-15-6.25505E-14
 -1      3637 1.30298E+01-8.20045E-01 6.62614E-02-4.00902E+00-3.47562E-13-1.93401E-13
 -1      3638 1.37344E+01-1.49501E+00 1.44807E-01-4.84554E+00-3.27426E-13-1.21674E-13
 -1      3639 1.55260E+01-2.13015E+00-6.72350E-03-4.85377E+00-3.25243E-13-1.01703E-13
 -1      3640 1.99097E+01 2.03179E-01-4.35347E-04 1.34516E-02-2.39530E-13-5.23856E-13
 -1      3641 1.99137E+01 1.99799E-01-1.89618E-04 3.13019E-02-3.83881E-14-5.81403E-13
 -1      3642 1.98939E+01 2.28779E-01 8.45619E-04 3.02067E-03-1.87040E-13-3.03507E-13
 -1      3643 1.24815E+01 6.26560E-01 7.12587E-02 1.61372E+00 2.69160E-14-1.81216E-13
 -1      3644 1.27145E+01 8.68472E-01 6.46065E-03 5.93232E-01-2.53998E-14-2.10793E-13
 -1      3645 1.41210E+01 5.62418E-01 5.20654E-02 2.02196E+00 5.11726E-14-9.76285E-14
 -1      3646 1.80379E+01-9.02028E-01 2.31333E-02 3.34557E+00 8.83946E-14-4.97484E-14
 -1      3647 1.83994E+01-1.67438E+00 2.52343E-02 3.71853E+00 2.13652E-13-4.95107E-14
 -1      3648 2.01078E+01 2.73709E-01 1.04355E-03-5.55871E-01-1.47077E-14-4.35289E-14
 -1      3649 2.01171E+01 2.80836E-01 9.07281E-05-5.00784E-01-5.82003E-14-5.86112E-14
 -1      3650 2.00660E+01 3.19879E-01-3.53176E-04-5.65486E-01-3.22958E-14-4.42435E-14
 -1      3651 2.01795E+01 1.79917E+00 4.75534E-03 3.96407E-01 1.15352E-13-1.37264E-13
 -1      3652 2.01796E+01 1.68594E+00-2.82316E-03 2.30208E-01 7.28956E-14-1.91540E-13
 -1      3653 2.01607E+01 1.74810E+00-2.34257E-03 1.60402E-01 4.85501E-14-1.93498E-13
 -1      3654 2.02203E+01 1.55084E+00 5.34225E-03 9.55835E-02 2.58840E-14-1.69296E-13
 -1      3655 2.01466E+01 1.78736E+00-3.36407E-03 1.05302E-01 1.78803E-14-2.04183E-13
 -1      3656 2.01396E+01 1.80940E+00-2.99710E-03 2.93379E-02-1.25902E-15-2.06892E-13
 -1      3657 2.02871E+01 7.22732E-01 1.76371E-04 1.63636E-03 1.28678E-13-9.90008E-14
 -1      3658 2.02738E+01 6.82723E-01-1.57642E-03 3.76834E-02 1.32113E-13-9.70984E-14
 -1      3659 1.23965E+01 7.71667E-01 6.84481E-02-1.00489E+00-1.55622E-13-1.75093E-13
 -1      3660 2.02921E+01 7.90506E-01 8.29239E-04 1.50888E-01 1.23978E-13-1.03924E-13
 -1      3661 1.98963E+01 3.09826E-01-1.26046E-03-9.27638E-01-1.12098E-14 1.83496E-14
 -1      3662 2.00354E+01 2.68861E-01 2.32814E-03-8.91042E-01 1.51341E-14 3.61602E-15
 -1      3663 2.00172E+01 2.75659E-01-8.00902E-04-8.34693E-01 1.28213E-14 7.01912E-16
 -1      3664 2.38445E+01-3.06300E+00-3.03103E-02-8.65293E-01-2.45637E-14 1.42702E-13
 -1      3665 2.02463E+01 1.53919E+00 2.92995E-03-5.29152E-01-9.48478E-14-1.73096E-13
 -1      3666 2.49632E+01 9.86375E-01-9.88339E-02-2.16881E+00-1.22825E-13 3.39218E-13
 -1      3667 2.48454E+01 2.19105E+00-5.40886E-02-1.88031E+00-1.87628E-14 3.56510E-13
 -1      3668 1.56910E+01-5.98802E-01 1.06013E-01-3.61297E+00 4.79686E-14 2.89907E-14
 -1      3669 2.51317E+01-1.25676E+00-2.85737E-02-1.48274E+00-1.87383E-13 2.51077E-13
 -1      3670 2.52215E+01-2.68063E-01-3.22769E-02-1.76973E+00-2.00066E-13 2.59881E-13
 -1      3671 2.00024E+01 1.16375E-01-3.89897E-04 1.11259E-01-5.84798E-14-9.84871E-14
 -1      3672 2.00053E+01 1.31522E-01 5.94344E-04 1.31754E-01-1.55661E-13-3.99010E-14
 -1      3673 2.00077E+01 1.01317E-01 2.14209E-04 9.45548E-02 3.62570E-15-4.87456E-14
 -1      3674 1.76232E+01-2.00798E+00 6.69299E-03 4.15772E+00 2.25381E-13-1.04881E-13
 -1      3675 1.57236E+01-1.10090E+00 1.02303E-01 4.04428E+00 1.87697E-13-1.72806E-13
 -1      3676 2.00955E+01 2.05469E+00 5.53235E-03-8.18586E-02-8.87688E-15-2.23708E-13
 -1      3677 2.42472E+01-2.07576E+00 2.78326E-03-6.06121E-01-2.06911E-13 3.98488E-13
 -1      3678 2.45188E+01-1.65539E+00-2.18627E-02-1.06736E+00-1.81295E-13 4.11813E-13
 -1      3679 2.00457E+01 2.78111E-01 1.93107E-03-7.73612E-01 8.13310E-15-1.23253E-14
 -1      3680 2.00391E+01 2.75654E-01-7.89199E-04-7.19159E-01 4.36760E-15 8.34333E-15
 -1      3681 2.00012E+01 3.21737E-01-4.11945E-04-6.77504E-01 1.25867E-14-1.55991E-14
 -1      3682 1.99419E+01 3.25420E-01-6.81583E-04-7.96747E-01 2.59808E-15-2.91642E-14
 -1      3683 2.01937E+01 3.56389E-01-3.88572E-04-3.18758E-01 3.37912E-14-8.78879E-14
 -1      3684 2.02163E+01 4.08370E-01 1.67797E-03-2.42840E-01 4.39167E-14-8.07058E-14
 -1      3685 2.02485E+01 5.18104E-01-1.39706E-04-1.83092E-01 6.07792E-14-6.76307E-14
 -1      3686 1.83122E+01-1.56014E+00 4.76424E-02 3.58423E+00-5.32126E-15-7.53794E-14
 -1      3687 1.73269E+01-8.36436E-01-2.23786E-02 3.15475E+00 1.57403E-13-1.25394E-13
 -1      3688 1.93797E+01-1.76408E+00 1.94697E-02 3.10169E+00 1.40330E-13 5.72068E-14
 -1      3689 2.02862E+01 1.10997E+00-2.27284E-04-2.08020E-01-9.31724E-14-1.57502E-13
 -1      3690 1.11061E+01 4.58137E-01 9.34388E-02-1.69168E+00-2.34262E-13-2.39697E-13
 -1      3691 1.18319E+01 1.44190E-01 3.51619E-02-2.49854E+00-2.95692E-13-2.56781E-13
 -1      3692 1.21279E+01 7.12053E-01 6.31306E-02-9.96599E-01-7.69246E-14-2.14783E-13
 -1      3693 2.24664E+01-2.85124E+00 1.39109E-02 1.89688E+00 2.47025E-15 2.93332E-14
 -1      3694 2.13787E+01-2.35957E+00-6.36626E-03 2.21204E+00 1.54415E-13-5.54439E-14
 -1      3695 1.51513E+01-9.50674E-02 2.03529E-02-2.93560E+00-1.29757E-15 5.87724E-15
 -1      3696 2.01585E+01 1.75399E+00-2.58825E-03-1.57533E-01-1.73800E-14-1.92622E-13
 -1      3697 2.01767E+01 1.69185E+00-3.85576E-03-2.28151E-01-3.85369E-14-2.25603E-13
 -1      3698 2.53627E+01-2.09260E+00-2.90215E-02-7.88240E-01-2.12065E-13 2.36168E-13
 -1      3699 2.49167E+01-2.82607E+00 3.74680E-03 7.25053E-02-1.74151E-13 1.23990E-13
 -1      3700 1.99442E+01 1.68903E-01-8.71704E-04 8.18820E-02 1.44175E-13-1.67290E-13
 -1      3701 1.99596E+01 1.58105E-01 4.70312E-04 9.22632E-02-4.01680E-14-3.34146E-13
 -1      3702 1.55509E+01-3.87309E-01 5.13700E-02 3.29430E+00 1.08514E-13-1.42424E-13
 -1      3703 1.68373E+01-4.09126E-01-1.61442E-02 3.16192E+00 5.23869E-14-5.52301E-14
 -1      3704 1.99916E+01 1.24211E-01 2.22568E-04 1.02513E-01-8.34979E-14-4.36110E-14
 -1      3705 1.99800E+01 1.60828E-01 5.31733E-04 1.41619E-01-1.40128E-13-2.34982E-13
 -1      3706 2.40779E+01-2.55528E+00 3.08794E-03 1.00879E-01-1.06121E-13 4.25448E-13
 -1      3707 2.30856E+01-3.12332E+00 1.27390E-03 1.61255E+00-5.35899E-14 5.87074E-14
 -1      3708 2.02923E+01 8.95329E-01 1.13810E-04-2.61419E-02-8.10081E-14-1.29281E-13
 -1      3709 2.02758E+01 7.64773E-01-2.02632E-03 6.49827E-02-5.20472E-14-1.15093E-13
 -1      3710 2.01493E+01 2.95627E-01 4.27890E-04-4.44723E-01-4.94654E-14-4.80934E-14
 -1      3711 2.01655E+01 3.20397E-01 8.23624E-04-3.82760E-01 3.36927E-15-6.92725E-14
 -1      3712 2.01940E+01 3.98303E-01-3.40828E-04-3.29824E-01 5.68365E-15-7.72162E-14
 -1      3713 2.01997E+01 1.61813E+00-1.82288E-03-2.76292E-01-6.57699E-14-2.26507E-13
 -1      3714 2.02262E+01 1.51780E+00-2.15744E-03-3.33124E-01-8.37895E-14-2.09189E-13
 -1      3715 1.99789E+01 1.36438E-01-4.90419E-04 1.01411E-01-2.19109E-13-2.63968E-13
 -1      3716 2.00746E+01 4.85501E-01-6.30467E-04 3.62402E-01-4.27738E-14-6.37314E-14
 -1      3717 2.00181E+01 4.84688E-01-5.13182E-04 4.16113E-01-4.40859E-14-6.93151E-14
 -1      3718 1.99372E+01 4.97241E-01-1.41040E-03 4.57372E-01-5.85214E-15-8.14213E-14
 -1      3719 1.98691E+01 5.21927E-01-3.22472E-04 5.08633E-01 1.32824E-14-7.39607E-14
 -1      3720 1.99554E+01 5.37557E-01 1.96997E-03 3.74617E-01-2.42997E-14-6.19567E-14
 -1      3721 1.97675E+01 5.55811E-01-2.18705E-03 5.49324E-01 1.49569E-14-9.51839E-14
 -1      3722 1.96847E+01 5.99033E-01-3.23458E-04 6.01933E-01-2.57146E-14-1.29955E-13
 -1      3723 1.97767E+01 5.85220E-01 2.53675E-03 4.52218E-01 2.15877E-15-9.84053E-14
 -1      3724 1.95588E+01 6.47512E-01-3.06448E-03 6.44653E-01-6.50844E-14-1.01738E-13
 -1      3725 1.94571E+01 7.02480E-01-4.51197E-04 7.01600E-01-6.38562E-14-1.21910E-13
 -1      3726 1.95555E+01 6.72556E-01 3.42066E-03 5.28779E-01-2.98352E-14-9.61947E-14
 -1      3727 1.93010E+01 7.58441E-01-4.13839E-03 7.48681E-01-3.90126E-14-1.34068E-13
 -1      3728 1.91755E+01 8.17422E-01-5.99604E-04 8.12905E-01-2.82618E-14-1.05183E-13
 -1      3729 1.92826E+01 7.85431E-01 4.62188E-03 6.08269E-01-4.79807E-14-5.71228E-14
 -1      3730 1.89809E+01 8.71845E-01-5.57290E-03 8.67258E-01-6.63422E-14-1.28468E-13
 -1      3731 1.88264E+01 9.24919E-01-5.87244E-04 9.42680E-01-8.87816E-14-9.90333E-14
 -1      3732 1.89441E+01 9.08539E-01 6.24365E-03 6.95006E-01-7.73480E-14-9.72311E-14
 -1      3733 1.85814E+01 9.65777E-01-7.70078E-03 1.00924E+00-8.79213E-14-1.06662E-13
 -1      3734 1.83939E+01 9.99828E-01-2.89139E-06 1.10303E+00-6.28296E-14-8.70468E-14
 -1      3735 1.85214E+01 1.02341E+00 8.45597E-03 7.95420E-01-6.32675E-14-3.17602E-14
 -1      3736 1.80808E+01 1.01025E+00-1.10067E-02 1.19236E+00-6.77819E-14-1.18526E-13
 -1      3737 1.78597E+01 1.00611E+00 1.75337E-03 1.31881E+00-7.21771E-14-9.56505E-14
 -1      3738 1.79880E+01 1.10771E+00 1.16977E-02 9.22794E-01-8.16534E-14-9.45655E-14
 -1      3739 1.74536E+01 9.61314E-01-1.58458E-02 1.45049E+00-8.28526E-15-7.85577E-14
 -1      3740 1.72047E+01 8.90997E-01 5.88293E-03 1.63609E+00 7.50776E-14-1.14759E-13
 -1      3741 1.73062E+01 1.12921E+00 1.64222E-02 1.10496E+00-1.93243E-14-1.33490E-13
 -1      3742 1.66671E+01 7.66353E-01-1.80554E-02 1.85173E+00 7.88519E-14-1.79511E-13
 -1      3743 1.64461E+01 5.74825E-01 2.13729E-02 2.13654E+00 2.38462E-14-1.06442E-13
 -1      3744 1.64153E+01 1.04140E+00 2.21157E-02 1.39213E+00 2.95251E-14-1.73452E-13
 -1      3745 1.96162E+01-2.65871E+00 8.28296E-02 4.03946E+00 2.77283E-13-7.76809E-14
 -1      3746 2.49958E+01-1.78732E+00 2.72663E-02 9.99373E-01 9.36889E-14 2.04018E-13
 -1      3747 2.02844E+01 7.31771E-01-2.07721E-03-4.29827E-02 1.13407E-13-7.63752E-14
 -1      3748 2.02994E+01 8.69183E-01 5.75937E-04 6.07371E-02 1.17946E-13-8.75620E-14
 -1      3749 1.28130E+01 1.02541E+00 2.74042E-02-2.31228E-01-2.15934E-13-2.76494E-13
 -1      3750 1.33517E+01 7.85075E-01-1.37010E-02-1.42782E+00-1.13966E-13-1.67078E-13
 -1      3751 2.02866E+01 1.03193E+00 1.67622E-03 3.69799E-01 1.39340E-13-8.30675E-14
 -1      3752 2.02930E+01 9.18637E-01 2.07690E-03 2.32110E-01 1.39274E-13-1.09261E-13
 -1      3753 1.68622E+01 6.44996E-01 6.64253E-03-2.06247E+00-5.38329E-14-2.43995E-13
 -1      3754 1.70846E+01 8.25790E-01-1.90001E-02-1.78656E+00-1.72644E-13-1.71408E-13
 -1      3755 1.75388E+01 9.48673E-01 4.70382E-03-1.58307E+00-1.77069E-13-1.46556E-13
 -1      3756 1.77433E+01 1.01309E+00-1.40249E-02-1.40462E+00-2.42266E-13-8.18567E-14
 -1      3757 1.68023E+01 1.09134E+00 1.90143E-02-1.39760E+00-1.57615E-13-2.69560E-13
 -1      3758 1.80911E+01 1.05226E+00 1.51314E-03-1.26880E+00-2.95430E-13 3.93804E-14
 -1      3759 1.82741E+01 1.05386E+00-9.79143E-03-1.13969E+00-2.46481E-13-1.04775E-14
 -1      3760 1.75585E+01 1.17600E+00 1.37407E-02-1.10058E+00-1.97416E-13-2.43583E-13
 -1      3761 1.85417E+01 1.04147E+00-1.51356E-05-1.04209E+00-3.34195E-13 4.28552E-14
 -1      3762 1.86954E+01 1.00743E+00-6.98599E-03-9.40753E-01-3.13119E-13-1.68413E-14
 -1      3763 1.81440E+01 1.15432E+00 1.03637E-02-9.01243E-01-2.75414E-13-6.61927E-14
 -1      3764 1.89021E+01 9.66524E-01-4.98963E-04-8.63929E-01-2.44964E-13 1.16951E-14
 -1      3765 1.90255E+01 9.13975E-01-5.20882E-03-7.79442E-01-1.47792E-13-4.89564E-14
 -1      3766 1.85979E+01 1.07229E+00 7.94976E-03-7.52451E-01-2.57166E-13 3.72597E-15
 -1      3767 1.91853E+01 8.59428E-01-5.20634E-04-7.14967E-01-5.00812E-14-1.82658E-13
 -1      3768 1.92813E+01 7.99403E-01-4.06038E-03-6.42273E-01-1.59314E-14-2.60636E-13
 -1      3769 1.89497E+01 9.58254E-01 6.06816E-03-6.30386E-01-1.26232E-13-6.03926E-14
 -1      3770 1.94046E+01 7.40581E-01-3.56720E-04-5.86541E-01 1.46554E-13-2.33871E-13
 -1      3771 1.94773E+01 6.80044E-01-3.23739E-03-5.23541E-01 1.66895E-13-1.76043E-13
 -1      3772 1.92217E+01 8.31420E-01 4.65744E-03-5.24490E-01 8.31985E-14-2.64987E-13
 -1      3773 1.95718E+01 6.22716E-01-1.61367E-04-4.75124E-01 1.13893E-13-1.37147E-13
 -1      3774 1.96258E+01 5.65796E-01-2.61166E-03-4.20844E-01 1.64655E-13-5.01017E-14
 -1      3775 1.94305E+01 7.04215E-01 3.55968E-03-4.31046E-01 1.98842E-13-6.89031E-14
 -1      3776 1.96976E+01 5.13075E-01 1.73392E-05-3.79135E-01 1.97669E-13-5.43141E-14
 -1      3777 1.97369E+01 4.61953E-01-2.09966E-03-3.33038E-01 1.27513E-13-7.01531E-14
 -1      3778 1.95895E+01 5.84475E-01 2.70342E-03-3.48770E-01 8.63732E-14-7.32632E-14
 -1      3779 1.97910E+01 4.15448E-01 1.50422E-04-2.97655E-01 6.60608E-14 1.47949E-14
 -1      3780 1.98190E+01 3.71044E-01-1.67610E-03-2.59128E-01 2.46019E-13-2.88048E-13
 -1      3781 1.97092E+01 4.76573E-01 2.05810E-03-2.77449E-01 9.45742E-14 7.15081E-14
 -1      3782 1.98593E+01 3.31252E-01 2.35130E-04-2.29721E-01 2.51127E-13-4.05032E-13
 -1      3783 1.98788E+01 2.93816E-01-1.31845E-03-1.98096E-01 2.18871E-13-5.81612E-13
 -1      3784 1.97983E+01 3.82449E-01 1.55877E-03-2.16801E-01 1.18484E-13-1.63569E-14
 -1      3785 1.99084E+01 2.60488E-01 2.73328E-04-1.74027E-01 3.53645E-13-6.02206E-13
 -1      3786 1.99218E+01 2.28977E-01-1.16867E-03-1.48495E-01 4.08047E-13-4.84021E-13
 -1      3787 1.98638E+01 3.02348E-01 1.07789E-03-1.66371E-01 3.16305E-13-7.31652E-14
 -1      3788 1.97075E+01 3.12197E-01 3.91238E-03-1.08970E+00-8.92076E-15 1.21029E-14
 -1      3789 1.97017E+01 3.49305E-01-1.44093E-03-1.01283E+00-1.78590E-14 3.45312E-14
 -1      3790 2.29332E+01-4.05866E+00 3.11012E-03-2.99082E+00-1.35260E-13-4.65925E-14
 -1      3791 2.37108E+01-3.54772E+00 3.29104E-02-1.80727E+00-1.00550E-13 5.16878E-14
 -1      3792 2.05088E+01-1.13060E+00 9.26986E-03-1.84610E+00-2.00853E-13-5.63151E-14
 -1      3793 2.02049E+01-7.98879E-01 9.93902E-03-1.81404E+00-1.57386E-13-7.86703E-14
 -1      3794 2.00331E+01-5.15314E-01 8.72055E-03-1.68039E+00-1.61819E-13-4.97715E-14
 -1      3795 1.98516E+01-2.82384E-01 4.16278E-03-1.60763E+00-1.60143E-13-2.13823E-14
 -1      3796 1.96599E+01-6.08728E-01-1.49594E-02-1.92612E+00-1.56822E-13-1.02699E-13
 -1      3797 2.25879E+01-2.70015E+00 1.48108E-02-1.58479E+00-7.98589E-14 3.26638E-14
 -1      3798 2.19521E+01-2.35560E+00 3.12336E-02-1.84742E+00-1.48728E-13-1.63975E-15
 -1      3799 2.02327E+01 1.52324E+00-2.10176E-03-4.13332E-01-8.62522E-14-1.95587E-13
 -1      3800 2.02486E+01 1.44310E+00 5.77062E-03-1.81885E-01-4.93333E-14-1.88628E-13
 -1      3801 1.99620E+01 1.62283E-01-2.29975E-04 1.10929E-01-1.22075E-13-1.77001E-13
 -1      3802 2.17728E+01-3.65191E+00 8.60479E-03-3.34354E+00-1.79108E-13-6.16920E-14
 -1      3803 2.02957E+01 9.90654E-01 1.44280E-03 1.89488E-01 1.31895E-13-1.19058E-13
 -1      3804 2.29491E+01-3.06770E+00 1.05540E-02-1.68206E+00-5.00572E-14 2.53482E-14
 -1      3805 2.02709E+01 1.36327E+00 4.95792E-03-2.88107E-01-7.56149E-14-1.86591E-13
 -1      3806 2.02442E+01-8.36778E-01 6.75894E-03 1.79096E+00 2.52814E-13-5.92538E-15
 -1      3807 2.05810E+01-1.17194E+00 1.17366E-02 1.80870E+00 2.16750E-13-1.01572E-14
 -1      3808 1.99561E+01 1.81676E-01 2.69444E-04 1.32151E-01-2.27181E-14-1.18023E-13
 -1      3809 1.96595E+01 9.06867E-02 8.61996E-04 1.34508E+00 9.26258E-15 2.10155E-13
 -1      3810 1.97709E+01-7.00354E-02 7.31293E-03 1.43398E+00 4.87654E-14 2.54989E-13
 -1      3811 1.95966E+01 3.14653E-01-7.06467E-04 1.12519E+00-6.85482E-14 3.37390E-13
 -1      3812 1.96495E+01 2.21083E-01 5.19016E-03 1.21698E+00 4.83610E-15 3.19372E-13
 -1      3813 1.93506E+01 2.37512E-01-4.60050E-03 1.31981E+00-1.78004E-14 6.06443E-13
 -1      3814 1.96052E+01 4.28529E-01-1.53608E-03 9.28511E-01-1.91021E-13 2.66394E-13
 -1      3815 1.96233E+01 3.84263E-01 3.67300E-03 1.01459E+00-1.56615E-13 2.02363E-13
 -1      3816 1.93728E+01 4.28554E-01-1.86015E-03 1.07245E+00-4.40746E-14 5.05832E-13
 -1      3817 1.96492E+01 4.67949E-01-1.88524E-03 7.56786E-01-9.55081E-14 1.92848E-13
 -1      3818 1.96483E+01 4.57089E-01 2.63672E-03 8.34558E-01-1.29530E-13 1.28601E-13
 -1      3819 1.94425E+01 5.15564E-01-3.27426E-04 8.65737E-01-1.04120E-13 1.92075E-13
 -1      3820 1.97075E+01 4.59283E-01-1.93861E-03 6.09235E-01 2.85685E-14 1.86627E-13
 -1      3821 1.96975E+01 4.69446E-01 1.92148E-03 6.77770E-01-3.50427E-14 2.43881E-13
 -1      3822 1.95308E+01 5.33673E-01 4.82589E-04 6.93431E-01-1.00995E-13 1.30605E-13
 -1      3823 1.97676E+01 4.22376E-01-1.82499E-03 4.84200E-01 1.08967E-13 4.68118E-14
 -1      3824 1.97542E+01 4.44409E-01 1.43601E-03 5.43397E-01 7.27278E-14 1.84261E-13
 -1      3825 1.96215E+01 5.08570E-01 8.71372E-04 5.50637E-01 8.85183E-14-7.68655E-15
 -1      3826 1.98227E+01 3.71211E-01-1.63538E-03 3.79543E-01 7.23699E-14 7.66710E-15
 -1      3827 1.98094E+01 3.98812E-01 1.11070E-03 4.29777E-01 1.32751E-13-6.98214E-14
 -1      3828 1.97053E+01 4.59156E-01 9.92219E-04 4.32882E-01 1.02460E-13 8.61671E-14
 -1      3829 1.98699E+01 3.15161E-01-1.42683E-03 2.93157E-01-1.20017E-13-2.08362E-14
 -1      3830 1.98583E+01 3.44127E-01 8.88177E-04 3.35026E-01 2.66575E-14-4.97269E-14
 -1      3831 1.97780E+01 3.98511E-01 9.68462E-04 3.36332E-01 7.68317E-14-1.32093E-13
 -1      3832 1.99084E+01 2.60419E-01-1.18539E-03 2.22703E-01-2.85555E-13-8.14808E-14
 -1      3833 1.98990E+01 2.88251E-01 7.92981E-04 2.57242E-01-2.40616E-13 3.97695E-14
 -1      3834 1.98381E+01 3.35183E-01 7.94592E-04 2.58045E-01-2.07061E-13 1.06807E-14
 -1      3835 1.99376E+01 2.10614E-01-1.02648E-03 1.65608E-01-2.32561E-14-3.34708E-14
 -1      3836 1.99313E+01 2.35730E-01 7.88211E-04 1.94276E-01-1.50938E-13-6.12904E-14
 -1      3837 1.98856E+01 2.74491E-01 2.94727E-04 1.95415E-01-2.17350E-13 4.35045E-14
 -1      3838 2.41986E+01-3.06823E+00-1.79011E-02 6.95517E-01-1.76197E-13 9.07815E-14
 -1      3839 2.02515E+01 1.28847E+00-1.99793E-03-1.02162E-01-3.12016E-14-1.65057E-13
 -1      3840 2.02672E+01 1.21173E+00-3.06838E-03-1.33568E-01-5.71150E-14-1.71718E-13
 -1      3841 2.01392E+01 1.81074E+00-3.00652E-03-2.72555E-02-1.01306E-14-2.27649E-13
 -1      3842 2.01454E+01 1.79090E+00-3.44448E-03-1.03108E-01-1.78770E-14-2.21780E-13
 -1      3843 2.02192E+01 1.55710E+00 5.74089E-03-9.56826E-02-3.14848E-14-2.11757E-13
 -1      3844 2.02089E+01 1.59326E+00 5.72294E-03-1.39067E-04-1.19780E-15-2.01690E-13
 -1      3845 1.99482E+01 1.95360E-01 5.39383E-04-1.24448E-01 1.43609E-13-4.48573E-13
 -1      3846 1.99211E+01 1.91499E-01-6.22778E-04 5.15814E-02 2.57142E-14-3.66017E-13
 -1      3847 1.99316E+01 1.83693E-01 1.60117E-04 6.65656E-02 1.39902E-13-4.02648E-13
 -1      3848 1.99284E+01 1.97115E-01 9.09231E-04 8.50796E-02 8.74450E-14-2.54033E-13
 -1      3849 2.02785E+01 1.10666E+00-3.23022E-03-1.44897E-01-8.17760E-14-1.59561E-13
 -1      3850 2.02920E+01 9.86062E-01-9.41444E-04 1.18888E-01 1.25690E-13-1.12721E-13
 -1      3851 2.02881E+01 1.11228E+00-2.01292E-03 1.98478E-01 1.22115E-13-1.08798E-13
 -1      3852 2.02932E+01 9.97801E-01 1.34318E-03 7.06253E-02 1.03275E-13-8.90591E-14
 -1      3853 1.57193E+01 1.30257E-01 1.35769E-02 2.75554E+00 3.84350E-15-1.30574E-13
 -1      3854 1.44567E+01 6.90810E-01 6.86514E-02-2.10772E+00-6.85879E-14 2.54432E-14
 -1      3855 1.62021E+01 6.43584E-02-7.96327E-03-2.71862E+00-7.83059E-14 1.08719E-13
 -1      3856 1.63894E+01 4.53242E-01-3.20946E-02-2.29459E+00-3.85848E-14-4.83502E-14
 -1      3857 1.46203E+01 9.06789E-01-2.92520E-03-1.43695E+00-1.45842E-13-2.47730E-13
 -1      3858 2.42937E+01 2.99040E+00-9.71018E-02-1.64974E+00-3.36398E-14 3.35707E-13
 -1      3859 2.02579E+01 6.64771E-01 7.80967E-04 1.29399E-01-1.40142E-14-9.74006E-14
 -1      3860 2.02226E+01 5.87901E-01-1.74038E-03 2.03834E-01-4.78702E-16-7.97092E-14
 -1      3861 2.02664E+01 7.82934E-01 6.03071E-04 7.74274E-02-2.76864E-14-9.35200E-14
 -1      3862 1.98476E+01-2.81011E-01 3.15503E-03 1.57743E+00 1.48771E-13 1.19511E-13
 -1      3863 2.00506E+01-5.26572E-01 9.07438E-03 1.64662E+00 2.56645E-13 6.49595E-14
 -1      3864 1.96780E+01-6.06930E-01-4.54479E-03 1.92287E+00 1.94367E-13 1.84551E-13
 -1      3865 1.50828E+01 5.69767E-01 1.48910E-02 2.17173E+00 2.78860E-14-1.40572E-13
 -1      3866 2.12560E+01-1.83045E+00 1.42412E-02 1.85852E+00 1.06020E-13-4.40299E-14
 -1      3867 2.02857E+01-1.96606E+00 7.18904E-04 2.74425E+00 1.72860E-13-1.24828E-13
 -1      3868 1.92867E+01-1.33529E+00-2.11417E-02 2.71454E+00 1.51728E-13-1.72351E-14
 -1      3869 2.07399E+01-1.43929E+00 1.13904E-02 1.93551E+00 1.31563E-13-9.05278E-14
 -1      3870 2.20761E+01-3.17686E+00-1.42962E-02-2.51165E+00-9.89686E-14-2.25007E-14
 -1      3871 2.13190E+01-1.91952E+00 6.68277E-03-1.87783E+00-1.63907E-13-7.21361E-14
 -1      3872 2.08646E+01-1.50543E+00 2.04441E-02-1.93922E+00-1.92510E-13-1.17884E-13
 -1      3873 2.10474E+01-2.22290E+00-1.75538E-02-2.35266E+00-1.90297E-13-9.83688E-14
 -1      3874 1.79441E+01-2.54883E+00 1.09633E-01-4.71317E+00-2.77556E-13-1.20232E-13
 -1      3875 1.98104E+01-3.16863E+00-7.07426E-03-4.08693E+00-2.79192E-13-1.43422E-13
 -1      3876 2.02706E+01 1.29846E+00 2.17507E-03 2.57635E-01 1.19594E-13-1.03352E-13
 -1      3877 2.02168E+01 1.56346E+00-4.26756E-03 3.49392E-01 1.26768E-13-1.22380E-13
 -1      3878 2.01905E+01 1.67029E+00-1.80688E-03 2.86457E-01 1.03701E-13-1.76377E-13
 -1      3879 2.02648E+01 1.28647E+00 8.48089E-05 1.86999E-01 1.07547E-13-1.06308E-13
 -1      3880 2.01827E+01 5.34838E-01 1.62742E-04 2.56206E-01-1.13103E-14-7.00073E-14
 -1      3881 2.01360E+01 5.01015E-01-1.00731E-03 3.17031E-01-1.66708E-14-6.47638E-14
 -1      3882 2.00969E+01 5.44501E-01 1.82683E-03 2.90741E-01-3.34397E-14-7.19588E-14
 -1      3883 2.02015E+01 6.18793E-01 8.51003E-04 1.94880E-01 2.64951E-15-7.04611E-14
 -1      3884 1.99160E+01 2.28423E-01 7.04640E-04-1.20102E-01 1.98033E-13-3.83680E-13
 -1      3885 1.99237E+01 2.12618E-01-3.13579E-04 1.32651E-01-1.25458E-14 9.86785E-14
 -1      3886 1.98957E+01 2.40928E-01-4.19599E-04-1.01006E-01 1.75506E-13 3.25608E-14
 -1      3887 1.29871E+01-1.04438E-01 9.69535E-02-3.16576E+00-3.42931E-13-2.73233E-13
 -1      3888 1.42858E+01-6.67536E-01-1.12832E-02-3.66913E+00-3.09329E-13-2.03833E-13
 -1      3889 1.33334E+01 3.35208E-01 4.86817E-02-2.35370E+00-2.09173E-13-2.07338E-13
 -1      3890 1.98683E+01 2.54461E-01-3.80207E-04-7.30044E-03-9.31193E-14-1.67745E-13
 -1      3891 1.98685E+01 2.52353E-01-7.64712E-04 1.61475E-02-1.10465E-13-5.52465E-13
 -1      3892 2.01316E+01 3.39167E-01-3.67582E-04-4.53047E-01-4.04218E-14-5.99843E-14
 -1      3893 1.31603E+01 1.01821E+00 4.44911E-02 7.09940E-01-1.19138E-13-2.07348E-13
 -1      3894 1.40728E+01 1.08313E+00 1.85585E-02 2.15824E-01-9.64172E-14-1.80224E-13
 -1      3895 1.39094E+01 6.88259E-01-1.95953E-02 1.72734E+00 3.01317E-14-1.32561E-13
 -1      3896 2.02420E+01 1.33265E+00-2.39405E-03 8.06661E-02 4.20783E-14-1.27380E-13
 -1      3897 2.02320E+01 1.37195E+00-2.33714E-03 4.28321E-02 4.87563E-15-1.45071E-13
 -1      3898 2.02376E+01 1.49127E+00 4.67387E-03 1.88913E-01 9.08748E-14-1.52308E-13
 -1      3899 2.02730E+01 6.22934E-01 9.83075E-04-1.20551E-01 8.18521E-14-3.22873E-14
 -1      3900 2.02837E+01 7.58141E-01 1.18097E-03-6.71120E-02 7.80953E-14-3.87511E-14
 -1      3901 2.02460E+01 5.37224E-01-1.32930E-03-2.02758E-01 3.97852E-14-5.49063E-14
 -1      3902 1.95775E+01 4.26122E-01-5.40091E-04-9.42281E-01-4.54186E-14-9.02184E-14
 -1      3903 1.97611E+01 3.73213E-01 2.86650E-03-9.28352E-01-7.11491E-14 4.27020E-14
 -1      3904 1.97750E+01 3.82126E-01-1.68106E-03-8.59071E-01-5.18028E-14-2.90000E-14
 -1      3905 1.98985E+01 2.32745E-01-3.28986E-04 1.11318E-01-1.62901E-14-2.19027E-13
 -1      3906 1.98803E+01 2.68366E-01 1.05749E-03 1.45374E-01-1.89529E-13-1.12753E-13
 -1      3907 1.98812E+01 2.46524E-01-6.78175E-04 9.37043E-02-2.82085E-14-4.37161E-13
 -1      3908 1.96649E+01 2.51852E-01-7.46816E-04-1.19037E+00 4.19357E-15 4.96398E-15
 -1      3909 1.94766E+01 3.53016E-01-1.93122E-03-1.13034E+00 1.76303E-14-7.41441E-14
 -1      3910 1.97049E+01 1.69508E-01 5.25376E-03-1.27348E+00-1.76785E-14-3.14827E-14
 -1      3911 1.95063E+01-2.55079E+00-6.41688E-03-3.69736E+00-2.66973E-13-2.15210E-13
 -1      3912 2.07588E+01-3.20895E+00 2.59767E-02-3.64496E+00-2.45567E-13-1.47051E-13
 -1      3913 2.14620E+01-3.10885E+00 2.35339E-02-3.01004E+00-1.63499E-13-1.51369E-13
 -1      3914 2.01394E+01-1.32620E+00-1.97449E-02-2.22125E+00-1.86891E-13-2.01793E-13
 -1      3915 1.59789E+01 9.14898E-01 4.23652E-02-1.77851E+00-1.81552E-13-1.79183E-13
 -1      3916 1.98809E+01 2.46923E-01-9.34886E-05-5.88199E-02 1.76313E-13 2.24273E-13
 -1      3917 1.98718E+01 2.51646E-01-8.27729E-04-3.64952E-02-2.74500E-16 1.93473E-13
 -1      3918 1.98493E+01 2.82931E-01 8.19906E-04-2.36322E-02 8.34311E-14-3.47343E-14
 -1      3919 2.00211E+01 3.65664E-01 8.89089E-04-5.53970E-01-3.47319E-14-8.36197E-14
 -1      3920 2.00538E+01 3.67082E-01-6.55073E-04-4.98400E-01-4.41677E-14-9.80775E-14
 -1      3921 1.38795E+01 1.02092E+00 3.08600E-02 3.73161E-01 5.69319E-14-1.62703E-13
 -1      3922 1.29206E+01 9.72685E-01 5.31111E-02-3.89987E-01-5.47019E-14-2.03764E-13
 -1      3923 2.10389E+01-2.69216E+00-5.20279E-03-2.83550E+00-1.81570E-13-1.25015E-13
 -1      3924 2.02391E+01 1.33827E+00-3.14013E-03-8.38990E-02-4.00996E-14-2.02707E-13
 -1      3925 2.02763E+01 1.15149E+00 4.36586E-03-4.54427E-02-5.09303E-14-1.87409E-13
 -1      3926 2.02307E+01 1.37605E+00-2.44694E-03-4.51198E-02-3.32490E-14-2.25070E-13
 -1      3927 1.94272E+01-9.10187E-02-4.74267E-03 1.60748E+00 3.14296E-14 3.84772E-13
 -1      3928 1.99036E+01 2.19538E-01 9.42273E-04 4.73448E-02-2.20466E-13-5.75006E-13
 -1      3929 1.99302E+01 3.75337E-01 1.46987E-03-6.65239E-01-2.89455E-16-8.48108E-14
 -1      3930 1.99605E+01 3.68419E-01-1.16138E-03-6.07989E-01-1.20361E-14-9.37328E-14
 -1      3931 1.99480E+01 4.16594E-01 4.52355E-04-5.40699E-01-2.31871E-14-1.45330E-13
 -1      3932 2.02916E+01 1.00174E+00 2.52336E-03-6.14209E-02-7.44948E-14-1.50279E-13
 -1      3933 2.00302E+01-1.22367E+00-1.09315E-02 2.21941E+00 1.07533E-13-3.10099E-14
 -1      3934 1.31576E+01 8.21559E-01 5.97961E-03-1.07664E+00-6.55552E-14-1.25018E-13
 -1      3935 1.97933E+01-9.31196E-02 6.87135E-03-1.47557E+00-9.39070E-14-2.36503E-14
 -1      3936 1.96978E+01 5.44049E-02 9.12991E-04-1.39140E+00-3.66982E-14-1.51272E-14
 -1      3937 1.94231E+01 1.85901E-01-4.48629E-03-1.35726E+00-2.81566E-14-3.89804E-14
 -1      3938 1.67937E+01-1.92423E+00 3.91827E-02-4.37409E+00-2.87676E-13-1.78375E-13
 -1      3939 1.77797E+01-5.44228E-01 1.92833E-03 2.72570E+00 1.91706E-13-7.60550E-14
 -1      3940 1.68694E+01-1.93931E-01 3.99979E-02 2.77479E+00 1.19531E-13-2.34883E-13
 -1      3941 1.59505E+01 2.27719E-02-9.75590E-03 2.60525E+00 5.31424E-14-1.70632E-13
 -1      3942 1.47976E+01 5.19961E-01 5.06689E-02 2.21853E+00 4.40210E-14-1.14642E-13
 -1      3943 1.49953E+01 7.62449E-01-7.68913E-03 1.59600E+00-1.60965E-14-1.24594E-13
 -1      3944 1.63910E+01 2.25236E-01-2.73206E-02 2.24923E+00 4.45761E-14-1.91441E-13
 -1      3945 2.02476E+01 1.32302E+00-3.05302E-03 1.07974E-01 5.62865E-14-1.45853E-13
 -1      3946 2.02751E+01 1.18465E+00 4.12519E-03 5.03915E-02 4.11310E-14-1.04279E-13
 -1      3947 2.02545E+01 1.31085E+00-1.63608E-03 1.52099E-01 8.26934E-14-1.33379E-13
 -1      3948 1.94610E+01-1.18478E-01-8.62738E-03-1.62517E+00-1.19041E-13-4.60972E-14
 -1      3949 2.01841E+01 4.27090E-01-4.34258E-04-3.32999E-01-6.41598E-15-7.28181E-14
 -1      3950 2.02158E+01 4.73800E-01 4.90372E-04-2.66003E-01 1.61856E-14-7.06263E-14
 -1      3951 2.02353E+01 5.70774E-01 8.45374E-04-2.08120E-01 4.33654E-14-3.54277E-14
 -1      3952 2.01073E+01 3.76628E-01 2.84195E-04-4.46381E-01-3.79988E-14-1.00585E-13
 -1      3953 2.01404E+01 3.95783E-01-8.71949E-05-3.87961E-01-1.74905E-14-8.72090E-14
 -1      3954 2.01578E+01 4.66295E-01 5.87041E-04-3.27113E-01-4.13176E-16-1.10119E-13
 -1      3955 2.00602E+01 4.21848E-01 5.12154E-04-4.34667E-01-3.61727E-14-1.47119E-13
 -1      3956 1.48442E+01 9.01621E-01-1.35967E-02 1.41559E+00 1.93781E-14-1.74197E-13
 -1      3957 1.94394E+01-1.00646E+00 1.23428E-02 2.40933E+00 1.09783E-13-7.41096E-14
 -1      3958 1.85806E+01-8.18094E-01 1.69475E-02 2.71718E+00 1.36061E-13-2.89336E-14
 -1      3959 1.78791E+01-3.41570E-01-3.04996E-02 2.44151E+00 1.63935E-13-1.93211E-13
 -1      3960 1.92522E+01-7.89041E-01-1.88993E-02 2.26620E+00 1.53378E-13-6.18979E-14
 -1      3961 1.97884E+01 5.86321E-01-1.64808E-03 3.40866E-01-2.64389E-14-9.92679E-14
 -1      3962 1.96874E+01 6.20412E-01-1.26642E-03 3.75527E-01-1.40026E-14-9.02867E-14
 -1      3963 1.95591E+01 6.63297E-01-2.25506E-03 3.95888E-01-1.31906E-14-1.14150E-13
 -1      3964 1.94345E+01 7.13807E-01-1.69992E-03 4.29531E-01-3.04648E-14-1.19502E-13
 -1      3965 1.95944E+01 6.72871E-01 3.40447E-03 2.81235E-01-5.52851E-14-9.87288E-14
 -1      3966 1.92763E+01 7.69575E-01-3.09511E-03 4.47837E-01-3.26232E-14-9.02036E-14
 -1      3967 1.91221E+01 8.29622E-01-2.32334E-03 4.81844E-01-5.39856E-14-1.03970E-13
 -1      3968 1.93135E+01 7.73136E-01 4.51952E-03 3.10091E-01-2.96217E-14-1.96590E-13
 -1      3969 1.89264E+01 8.90592E-01-4.21775E-03 4.98638E-01-7.91609E-14-6.82959E-14
 -1      3970 1.87346E+01 9.51863E-01-3.14244E-03 5.34626E-01-7.44779E-14-2.35835E-14
 -1      3971 1.89675E+01 8.93280E-01 6.01129E-03 3.30647E-01-3.21185E-14-9.05782E-14
 -1      3972 1.84895E+01 1.00913E+00-5.87767E-03 5.50063E-01-8.86936E-14-4.43844E-14
 -1      3973 1.82486E+01 1.06233E+00-4.19780E-03 5.91256E-01-8.83729E-14-8.92389E-14
 -1      3974 1.85387E+01 1.01785E+00 8.39492E-03 3.42841E-01-8.42162E-14-2.28077E-14
 -1      3975 1.79354E+01 1.10564E+00-8.54035E-03 6.06696E-01-1.12873E-13-7.57481E-14
 -1      3976 1.76302E+01 1.14171E+00-4.72885E-03 6.60219E-01-1.06820E-13-1.36280E-13
 -1      3977 1.79989E+01 1.12964E+00 1.18377E-02 3.45802E-01-1.38669E-13-1.41039E-13
 -1      3978 1.72150E+01 1.15670E+00-1.33711E-02 6.84287E-01-1.29827E-14-1.28844E-13
 -1      3979 1.68252E+01 1.15957E+00-5.00410E-03 7.65008E-01 3.32069E-14-1.09039E-13
 -1      3980 1.73024E+01 1.21657E+00 1.81339E-02 3.40465E-01-4.00637E-14-4.99741E-14
 -1      3981 1.62589E+01 1.13826E+00-1.71356E-02 8.10298E-01 2.98468E-14-1.45772E-13
 -1      3982 1.57946E+01 1.10779E+00 1.25729E-02 9.38351E-01 1.65663E-14-1.92494E-13
 -1      3983 1.63674E+01 1.24525E+00 2.29221E-02 3.51724E-01 4.72539E-15-9.84241E-14
 -1      3984 1.61420E+01 1.14521E+00-5.81035E-03-1.02582E+00-1.57615E-13-2.05164E-13
 -1      3985 1.65887E+01 1.20070E+00-1.69863E-02-8.77311E-01-6.59442E-14-1.99420E-13
 -1      3986 1.91292E+01-2.98174E-02 1.03615E-02-1.70044E+00-8.85570E-14-1.26892E-13
 -1      3987 1.90624E+01 1.39426E-01-2.96674E-03-1.54981E+00-4.85668E-14-7.46002E-14
 -1      3988 1.92698E+01-5.31607E-01 1.52074E-02-2.09181E+00-1.36720E-13-1.54492E-13
 -1      3989 1.90933E+01-2.57047E-01-8.60225E-04-1.92064E+00-1.13304E-13-1.26229E-13
 -1      3990 1.86428E+01 2.45896E-03-6.85852E-03-1.84591E+00-8.07526E-14-1.83240E-13
 -1      3991 1.61155E+01-1.13464E+00 8.13437E-02-3.98037E+00-3.22116E-13-1.41942E-13
 -1      3992 1.78618E+01-1.78896E+00-8.09918E-03-3.84323E+00-3.05826E-13-1.39704E-13
 -1      3993 1.57631E+01-5.67778E-01 3.20625E-02-3.33212E+00-2.77145E-13-1.94558E-13
 -1      3994 1.70881E+01 1.22243E+00-4.97330E-03-8.15163E-01-1.04758E-13-1.90495E-13
 -1      3995 1.74246E+01 1.21835E+00-1.21916E-02-7.23014E-01-9.49022E-14-1.43619E-13
 -1      3996 1.66381E+01 1.32016E+00 2.38043E-02-4.62342E-01-5.95181E-14-6.00841E-14
 -1      3997 1.77898E+01 1.20163E+00-4.23696E-03-6.83456E-01-1.41056E-13-5.65953E-14
 -1      3998 1.80503E+01 1.16634E+00-8.08347E-03-6.17973E-01-2.19171E-13 1.35797E-14
 -1      3999 1.74565E+01 1.28434E+00 1.57033E-02-4.16298E-01-3.21812E-14-1.09242E-13
 -1      4000 1.83243E+01 1.12334E+00-3.47328E-03-5.86955E-01-2.96383E-13 2.06774E-13
 -1      4001 1.85267E+01 1.06992E+00-5.59893E-03-5.34115E-01-2.53127E-13 1.31988E-13
 -1      4002 1.80682E+01 1.20121E+00 1.12401E-02-3.83407E-01-1.66072E-13 1.59914E-13
 -1      4003 1.87359E+01 1.01261E+00-2.79205E-03-5.05561E-01-2.37505E-13 8.16102E-14
 -1      4004 1.88927E+01 9.50111E-01-4.21139E-03-4.58975E-01-1.22517E-13 3.28113E-14
 -1      4005 1.85340E+01 1.08772E+00 7.86190E-03-3.51978E-01-2.55451E-13 1.78442E-13
 -1      4006 1.90546E+01 8.86484E-01-2.07621E-03-4.31233E-01 3.68604E-14-5.26453E-14
 -1      4007 1.91753E+01 8.21199E-01-3.29959E-03-3.88980E-01 4.44052E-14-8.85944E-14
 -1      4008 1.88944E+01 9.59674E-01 5.96325E-03-3.15117E-01-1.12484E-13 2.62898E-13
 -1      4009 1.93007E+01 7.57333E-01-1.50423E-03-3.62350E-01 1.37839E-13-1.80116E-13
 -1      4010 1.93926E+01 6.94193E-01-2.63322E-03-3.24041E-01 1.65683E-13-1.91197E-13
 -1      4011 1.91737E+01 8.26303E-01 4.49501E-03-2.75482E-01 3.89734E-14 1.99997E-14
 -1      4012 1.94895E+01 6.33843E-01-1.03303E-03-2.98800E-01 1.72212E-13-1.41642E-13
 -1      4013 1.95589E+01 5.75328E-01-2.14346E-03-2.64612E-01 2.72650E-13-6.63286E-14
 -1      4014 1.93895E+01 6.97044E-01 3.44245E-03-2.34840E-01 1.97233E-13-2.15070E-13
 -1      4015 1.96333E+01 5.20701E-01-6.54620E-04-2.41821E-01 2.52138E-13 7.52950E-14
 -1      4016 1.96850E+01 4.68794E-01-1.66175E-03-2.11986E-01 1.02712E-13 1.24498E-13
 -1      4017 1.95556E+01 5.77058E-01 2.71412E-03-1.94846E-01 3.74380E-13-4.68424E-14
 -1      4018 1.97413E+01 4.20692E-01-4.58272E-04-1.91551E-01 1.63067E-14 2.32482E-13
 -1      4019 1.97797E+01 3.75710E-01-1.33593E-03-1.66301E-01 1.06365E-13 1.74945E-13
 -1      4020 1.96818E+01 4.70273E-01 2.25560E-03-1.58009E-01 1.49211E-13-4.75085E-14
 -1      4021 1.98220E+01 3.35374E-01-1.17423E-04-1.48747E-01 2.00061E-13 1.09414E-13
 -1      4022 1.98494E+01 2.97817E-01-8.60511E-04-1.27487E-01 2.63581E-13 5.25400E-14
 -1      4023 1.97761E+01 3.75760E-01 1.13074E-03-1.24496E-01 8.78925E-14 1.73500E-13
 -1      4024 1.88026E+01-1.95032E+00 3.46616E-02-3.65230E+00-2.87768E-13-2.52553E-13
 -1      4025 1.95816E+01-2.06170E+00 1.19673E-02-3.24644E+00-2.44322E-13-2.68211E-13
 -1      4026 1.79504E+01-1.34402E+00-1.05473E-02-3.39523E+00-2.87050E-13-2.23507E-13
 -1      4027 1.92837E+01 6.07646E-01-3.46578E-03 7.63078E-01-9.66305E-14 1.69800E-13
 -1      4028 1.92484E+01 5.96992E-01 3.10191E-03 8.55332E-01-1.91904E-17 3.18538E-13
 -1      4029 1.98405E+01 3.85173E-01 2.07359E-03-7.88429E-01-3.79971E-14-2.09747E-14
 -1      4030 1.98651E+01 3.80667E-01-1.54423E-03-7.26105E-01-8.57765E-15-3.35149E-14
 -1      4031 1.98254E+01 4.31161E-01 4.50780E-04-6.55268E-01-4.61998E-14-1.29213E-13
 -1      4032 1.96990E+01 4.41888E-01 6.86062E-05-7.86250E-01-5.61288E-14-1.59641E-14
 -1      4033 1.48469E+01 1.09733E+00 1.16978E-02 7.96408E-01 4.95695E-14-1.54682E-13
 -1      4034 1.48561E+01 1.12063E+00-1.21808E-02-7.86164E-02 1.79163E-14-1.08910E-13
 -1      4035 2.02845E+01 1.14730E+00 2.55933E-03 1.02599E-01 7.00162E-14-1.23762E-13
 -1      4036 2.02802E+01 9.91406E-01-1.31110E-03-2.42019E-02-4.20876E-14-1.31566E-13
 -1      4037 1.91522E+01 5.64307E-01-3.77243E-03 9.66933E-01 1.10767E-14 3.92747E-13
 -1      4038 1.91345E+01 5.15212E-01 4.69319E-03 1.07909E+00-6.57631E-15 4.99725E-13
 -1      4039 1.90068E+01 6.72634E-01 1.18946E-03 8.56897E-01 6.27617E-14 3.13120E-13
 -1      4040 2.05136E+01-2.15560E+00 1.48937E-02-2.77139E+00-2.24758E-13-1.79155E-13
 -1      4041 1.52208E+01 9.81792E-01-7.27665E-03-1.27804E+00-1.62015E-13-1.82607E-13
 -1      4042 1.56245E+01 1.07838E+00-2.46723E-02-1.10941E+00-2.17565E-13-2.40286E-13
 -1      4043 1.45553E+01 1.25451E+00 5.90296E-02-6.41285E-01-1.57748E-13-2.81285E-13
 -1      4044 1.99731E+01 5.53511E-01-9.89472E-04 2.80923E-01-4.01300E-14-8.27592E-14
 -1      4045 1.98916E+01 5.63298E-01-1.16316E-03 3.18218E-01-3.30906E-14-7.46070E-14
 -1      4046 1.98221E+01 6.07029E-01 2.59547E-03 2.45105E-01-4.86049E-14-8.56143E-14
 -1      4047 1.90413E+01 4.36960E-01-3.33404E-03 1.22149E+00-1.18604E-13 4.21317E-13
 -1      4048 1.90552E+01 3.27071E-01 5.83296E-03 1.36217E+00-7.11242E-14 4.08242E-13
 -1      4049 1.88254E+01 5.86616E-01 1.79184E-05 1.10811E+00-3.68503E-14 1.62701E-13
 -1      4050 1.94162E+01 5.94598E-01-3.04770E-03 5.99719E-01-3.57186E-14 1.02076E-13
 -1      4051 1.93747E+01 6.08395E-01 1.98375E-03 6.75622E-01-1.22263E-13 7.12635E-14
 -1      4052 1.91859E+01 6.83802E-01 1.76455E-03 6.62498E-01-1.21155E-14 2.96344E-13
 -1      4053 1.95387E+01 5.47823E-01-2.58047E-03 4.68723E-01 4.67960E-14 5.74891E-14
 -1      4054 1.94975E+01 5.75606E-01 1.27179E-03 5.30990E-01 5.04188E-14 9.51380E-15
 -1      4055 1.93503E+01 6.47191E-01 1.84654E-03 5.11637E-01 5.67471E-14 1.26205E-14
 -1      4056 1.96453E+01 4.83890E-01-2.11776E-03 3.63540E-01 1.76054E-13 8.92956E-14
 -1      4057 1.96082E+01 5.18283E-01 8.40675E-04 4.14593E-01 1.40705E-13 1.17188E-13
 -1      4058 1.94944E+01 5.84174E-01 1.95063E-03 3.94452E-01 1.21253E-13 1.51478E-13
 -1      4059 1.97347E+01 4.13303E-01-1.75452E-03 2.79149E-01 2.23815E-14 1.47657E-13
 -1      4060 1.97031E+01 4.49721E-01 6.09854E-04 3.20696E-01 2.12102E-13 1.03865E-13
 -1      4061 1.96157E+01 5.08344E-01 1.75449E-03 3.02046E-01 1.63739E-13 2.53896E-13
 -1      4062 1.98073E+01 3.43984E-01-1.32457E-03 2.12019E-01-2.06268E-13 2.50977E-14
 -1      4063 1.97814E+01 3.78975E-01 4.96934E-04 2.45452E-01-1.82014E-13 6.45046E-14
 -1      4064 1.97147E+01 4.29435E-01 1.36696E-03 2.29732E-01-9.38239E-14 2.68643E-13
 -1      4065 1.98561E+01 2.89887E-01-6.95132E-04 1.63675E-01-1.47329E-13-2.01226E-14
 -1      4066 1.98352E+01 3.21475E-01 6.05960E-04 1.90205E-01-1.17464E-13-1.15413E-14
 -1      4067 1.97828E+01 3.63715E-01 6.16794E-04 1.77179E-01-1.08448E-13-1.71836E-13
 -1      4068 1.98292E+01 3.11696E-01-1.53946E-04 1.38777E-01-1.14588E-13-4.07057E-13
 -1      4069 1.98678E+01 2.75419E-01 4.12138E-04-9.86904E-02 2.65793E-13 2.66533E-14
 -1      4070 2.02266E+01 1.39066E+00-2.77048E-03 1.90306E-02-4.34345E-16-1.77945E-13
 -1      4071 2.02259E+01 1.39171E+00-2.94902E-03-2.16995E-02-2.39136E-14-2.03510E-13
 -1      4072 2.02678E+01 1.21499E+00 5.59403E-03 1.30609E-02 1.09434E-15-1.38829E-13
 -1      4073 1.90303E+01-1.65519E-01-1.31113E-02 1.83245E+00 5.42247E-14 4.34644E-14
 -1      4074 1.92218E+01-4.29195E-01 9.36555E-03 2.00581E+00 1.04059E-13-7.14697E-14
 -1      4075 1.86350E+01-2.40567E-01 1.32859E-02 2.14706E+00 6.92431E-14-2.52685E-13
 -1      4076 1.89979E+01 2.06624E-01-5.09161E-03 1.49801E+00-6.90880E-14 2.19946E-13
 -1      4077 1.90712E+01 2.73521E-02 7.44094E-03 1.66056E+00-2.38263E-14 1.65262E-13
 -1      4078 1.86190E+01 1.89415E-01 7.13363E-03 1.70736E+00-9.73608E-14-2.46159E-13
 -1      4079 1.86845E+01 4.09972E-01-5.25431E-03 1.39817E+00-2.10387E-13 3.24080E-14
 -1      4080 2.02844E+01 1.01957E+00-1.90669E-03 4.56248E-02 7.13594E-14-1.03487E-13
 -1      4081 1.97110E+01-1.65682E+00-2.90094E-03-2.79224E+00-2.10972E-13-2.32608E-13
 -1      4082 1.98659E+01 2.57506E-01-4.72412E-04 4.36425E-02-1.64015E-13-6.92527E-13
 -1      4083 1.98746E+01 2.48719E-01-7.60088E-04 6.55220E-02-1.01191E-13-4.98598E-13
 -1      4084 1.98450E+01 2.92619E-01 1.01138E-03 9.17022E-02 3.95510E-14-5.89451E-13
 -1      4085 1.98417E+01 2.89741E-01 8.11262E-04 3.41248E-02-2.90278E-14-5.66030E-13
 -1      4086 1.96000E+01-1.23132E+00 1.52284E-02-2.50962E+00-1.49117E-13-2.31040E-13
 -1      4087 1.92630E+01-8.27725E-01 1.52958E-03-2.33915E+00-1.36826E-13-1.75283E-13
 -1      4088 1.85991E+01-4.92194E-01-1.27171E-02-2.33963E+00-8.81938E-14-2.87273E-13
 -1      4089 1.86888E+01-1.13261E+00 3.41038E-04-2.91109E+00-1.44303E-13-2.80138E-13
 -1      4090 1.44256E+01 9.01726E-01 2.43241E-02-1.12630E+00-6.03111E-14-9.25891E-14
 -1      4091 1.37205E+01 7.10454E-01 4.65886E-02-1.65747E+00-8.06139E-14-1.16390E-13
 -1      4092 1.44406E+01 3.29604E-01-2.22088E-02-2.29657E+00-1.42214E-13-1.30066E-13
 -1      4093 2.02740E+01 9.94194E-01-1.12999E-03-1.08658E-02-3.75937E-14-1.70762E-13
 -1      4094 2.02822E+01 9.05404E-01 2.81500E-03 2.03071E-02-2.61342E-14-1.51352E-13
 -1      4095 2.02543E+01 7.83053E-01-2.78066E-03 8.22451E-02-1.03124E-14-1.24661E-13
 -1      4096 2.02649E+01 1.04036E+00-2.42819E-03-6.05587E-03-3.29909E-14-2.06223E-13
 -1      4097 2.00102E+01 4.56017E-01 2.40910E-04-4.07032E-01-4.30559E-14-1.61971E-13
 -1      4098 2.00629E+01 4.65460E-01-9.18803E-04-3.55193E-01-2.44210E-14-1.44997E-13
 -1      4099 1.50463E+01 1.10483E+00 1.56161E-02-4.91477E-01-9.99786E-15-1.05125E-13
 -1      4100 1.53526E+01 9.30415E-01-1.50958E-02-1.05664E+00-4.19964E-14-4.53105E-14
 -1      4101 1.58789E+01 1.17155E+00 3.97228E-03-9.86359E-02-5.80894E-15-7.61692E-14
 -1      4102 1.56889E+01 1.31749E+00 4.53144E-02-5.30158E-01-1.17219E-13-1.00561E-13
 -1      4103 1.87706E+01 3.31485E-01-2.61369E-03-1.43872E+00-1.42362E-14-7.74487E-14
 -1      4104 1.91497E+01 2.74437E-01 7.21114E-03-1.37757E+00-3.63029E-14-7.32371E-14
 -1      4105 1.91468E+01 3.67294E-01-3.70518E-03-1.25131E+00-1.23187E-14-3.23041E-15
 -1      4106 1.98324E+01 3.04878E-01-4.18901E-04-8.06725E-02 1.39086E-13 2.12763E-13
 -1      4107 1.80897E+01-2.41267E-02 7.58819E-03 2.09130E+00 9.68782E-14-1.95065E-13
 -1      4108 1.74375E+01 2.77234E-01 2.46746E-02 2.04963E+00 1.32424E-13-2.60724E-13
 -1      4109 1.80375E+01 2.03600E-01-2.35873E-02 1.82714E+00 3.66922E-14-2.28777E-13
 -1      4110 2.02667E+01 1.21769E+00 5.41683E-03-1.88071E-02-1.97364E-14-1.93891E-13
 -1      4111 1.46446E+01 1.13093E+00-7.09971E-03 1.94165E-01-8.01035E-14-4.06983E-14
 -1      4112 2.00526E+01 5.56890E-01-1.59819E-03 2.54362E-01-4.16863E-14-9.76237E-14
 -1      4113 2.00039E+01 5.92595E-01 2.67174E-03 2.01243E-01-2.80173E-14-1.25638E-13
 -1      4114 2.01188E+01 5.78631E-01 4.82954E-05 2.11355E-01-1.92617E-14-1.00693E-13
 -1      4115 2.02614E+01 1.05481E+00-2.00937E-03 8.37468E-04 1.29308E-14-1.18388E-13
 -1      4116 2.02562E+01 1.07248E+00-2.50745E-03-8.06402E-03-8.72886E-15-1.45804E-13
 -1      4117 2.02477E+01 8.16374E-01-2.20395E-05 6.16683E-02 6.63171E-15-1.85588E-13
 -1      4118 2.02336E+01 7.14363E-01 2.33734E-03 1.13091E-01 1.93908E-14-1.25306E-13
 -1      4119 1.68717E+01 4.52595E-01 6.23224E-03 1.87737E+00 9.91004E-15-1.99033E-13
 -1      4120 1.62100E+01 7.49815E-01 3.37435E-02 1.68207E+00 1.73826E-14-2.23696E-13
 -1      4121 1.70403E+01 6.12764E-01-2.59742E-02 1.57505E+00-2.77577E-14-8.18775E-14
 -1      4122 2.01859E+01 6.40941E-01-2.22095E-03 1.63606E-01 1.71439E-14-1.12433E-13
 -1      4123 1.98124E+01 3.17926E-01 2.10380E-04 1.44300E-02 1.45687E-13-4.89688E-13
 -1      4124 1.98057E+01 3.22219E-01-8.34625E-04 4.30830E-02 1.36651E-13-5.81764E-13
 -1      4125 1.98746E+01 4.62355E-01 5.15009E-04-5.06091E-01-1.14523E-14-1.21234E-13
 -1      4126 1.99331E+01 4.55253E-01-1.37429E-03-4.52663E-01-2.85026E-14-1.51421E-13
 -1      4127 1.99412E+01 5.02184E-01 1.26091E-03-3.72008E-01-2.94301E-14-1.29254E-13
 -1      4128 1.98200E+01 3.14551E-01 1.72246E-04-4.92788E-02 1.67731E-13 3.89286E-13
 -1      4129 1.98130E+01 3.16202E-01-6.57544E-04-1.82121E-02 1.08782E-13-5.95861E-14
 -1      4130 1.97799E+01 3.53389E-01 8.32022E-05-1.22968E-02 1.94673E-13-1.26768E-13
 -1      4131 1.97988E+01 3.42272E-01 1.78150E-04-7.79399E-02 7.29293E-14 2.14545E-13
 -1      4132 2.02898E+01 8.68806E-01 7.90523E-04-1.81013E-02 7.35150E-14-7.51865E-14
 -1      4133 2.02798E+01 1.00848E+00 6.52703E-04 1.25610E-02 6.01347E-14-1.04795E-13
 -1      4134 2.02698E+01 7.45585E-01-1.97779E-03-9.57404E-02 6.36998E-14-6.33052E-14
 -1      4135 1.94033E+01 5.01869E-01 3.39282E-03-9.12859E-01 1.57941E-14-1.05887E-13
 -1      4136 1.94548E+01 5.08910E-01-3.07509E-03-8.28772E-01-2.13924E-14-2.59277E-14
 -1      4137 2.02706E+01 1.01150E+00-2.39577E-03-4.71314E-03 3.80821E-14-7.24567E-14
 -1      4138 1.92563E+01 4.36437E-01 5.01838E-03-1.11797E+00-7.86678E-15-2.61676E-14
 -1      4139 1.92897E+01 4.76054E-01-3.51147E-03-1.01496E+00-1.08244E-16-9.32971E-14
 -1      4140 1.89627E+01 5.06579E-01 3.98207E-04-1.12893E+00-2.90314E-14-3.62750E-14
 -1      4141 1.91772E+01 5.73675E-01 1.31219E-03-8.95015E-01 1.06539E-14-5.08978E-14
 -1      4142 2.02712E+01 9.08977E-01 2.26723E-03-2.97064E-02 2.42838E-14-6.31748E-14
 -1      4143 1.96360E+01 6.48996E-01-1.56852E-03 1.62487E-01-5.87428E-14-1.30095E-13
 -1      4144 1.95066E+01 6.89140E-01-2.40479E-03 1.74110E-01-8.12366E-14-1.79404E-13
 -1      4145 2.02589E+01 1.04831E+00-1.51422E-03-6.96034E-03-1.82935E-14-1.98759E-13
 -1      4146 2.02691E+01 9.22563E-01 3.81949E-03 2.13271E-02-4.18355E-15-2.02321E-13
 -1      4147 2.02343E+01 8.18178E-01-3.70734E-03 4.94213E-02 2.14446E-14-2.06772E-13
 -1      4148 1.93634E+01 7.36261E-01-1.74617E-03 1.67945E-01-7.42135E-14-1.75604E-13
 -1      4149 1.92007E+01 7.88009E-01-4.27749E-03 1.72644E-01-3.55347E-14-1.77936E-13
 -1      4150 1.94364E+01 7.22321E-01 4.98424E-03 4.78393E-02-8.57192E-14-1.38875E-13
 -1      4151 1.90274E+01 8.45658E-01-2.61343E-03 1.62205E-01 2.31559E-14-2.17933E-13
 -1      4152 1.88284E+01 9.02036E-01-5.34472E-03 1.59974E-01 4.65860E-15-1.28461E-13
 -1      4153 1.91167E+01 8.32669E-01 9.17021E-03 1.93017E-02-2.01936E-14-1.95521E-13
 -1      4154 1.86159E+01 9.58502E-01-3.79210E-03 1.37245E-01-5.75794E-14-1.28206E-13
 -1      4155 1.83658E+01 1.01074E+00-7.78322E-03 1.25390E-01-1.10275E-13-1.30498E-13
 -1      4156 1.87378E+01 9.43606E-01 1.41500E-02-3.66736E-02-1.68928E-14-2.44487E-13
 -1      4157 1.81019E+01 1.06134E+00-4.93166E-03 8.85060E-02-8.45496E-14-1.21802E-13
 -1      4158 1.77833E+01 1.09983E+00-1.04256E-02 6.59481E-02-8.70032E-14-5.31669E-14
 -1      4159 1.82658E+01 1.04706E+00 1.91699E-02-1.27948E-01-3.30085E-14-1.79907E-13
 -1      4160 1.74479E+01 1.13018E+00-7.65476E-03 1.27008E-02-7.33281E-14 1.65119E-15
 -1      4161 1.70584E+01 1.15701E+00-6.08844E-03-2.21024E-02 1.39450E-15 1.77914E-14
 -1      4162 1.76606E+01 1.12146E+00 2.10965E-02-2.70909E-01-2.93071E-14-3.86030E-14
 -1      4163 1.63874E+01 1.16890E+00-9.82476E-03-5.78735E-02 3.12207E-15-6.89378E-14
 -1      4164 1.81706E+01 1.54173E-01 1.09844E-02-1.85848E+00-9.40133E-15-1.54906E-13
 -1      4165 1.81947E+01 3.27637E-01-7.49728E-03-1.62180E+00 9.05756E-15-8.67135E-14
 -1      4166 2.01254E+01 4.87598E-01-3.19924E-04-3.11651E-01 1.49496E-14-1.14916E-13
 -1      4167 2.01702E+01 5.23930E-01-4.81061E-04-2.56471E-01 2.75206E-14-7.69193E-14
 -1      4168 2.00796E+01 5.23034E-01 1.21334E-03-2.84769E-01 1.55771E-15-1.04500E-13
 -1      4169 1.55678E+01 4.24918E-03 4.64461E-02-2.78381E+00-2.31564E-13-1.83556E-13
 -1      4170 1.68475E+01-6.10246E-01-1.55106E-02-3.06306E+00-2.56890E-13-1.23125E-13
 -1      4171 1.57713E+01 3.28411E-01 2.10581E-02-2.19783E+00-1.07268E-13-8.14310E-14
 -1      4172 1.62649E+01 1.24898E+00-1.36821E-02-3.21122E-02-8.17330E-14 3.87062E-14
 -1      4173 1.67633E+01 1.25954E+00-9.39759E-03-3.96033E-02-9.84906E-14-1.02129E-14
 -1      4174 1.71752E+01 1.24624E+00-1.12336E-02-9.83359E-02-6.09916E-14-8.19763E-14
 -1      4175 1.75401E+01 1.22406E+00-7.40631E-03-1.06553E-01-6.16784E-14-5.16957E-14
 -1      4176 1.70088E+01 1.25696E+00 2.20708E-02 2.89455E-01-1.46178E-13-4.41496E-14
 -1      4177 1.78512E+01 1.19062E+00-6.93476E-03-1.47790E-01 2.06630E-14-2.92210E-14
 -1      4178 1.81223E+01 1.14664E+00-5.45507E-03-1.51285E-01-3.55288E-14 1.23003E-13
 -1      4179 1.77126E+01 1.21046E+00 1.59935E-02 1.46945E-01 5.20555E-14-6.45864E-14
 -1      4180 1.83563E+01 1.09760E+00-6.49342E-03-1.71260E-01-1.38373E-13 1.34141E-13
 -1      4181 1.85696E+01 1.04336E+00-3.33218E-03-1.66758E-01-6.10716E-14 2.54022E-13
 -1      4182 1.82294E+01 1.13517E+00 1.10475E-02 5.76828E-02-1.72080E-14 2.32381E-14
 -1      4183 1.87513E+01 9.80841E-01-5.18304E-03-1.78098E-01-1.39658E-13 2.51607E-13
 -1      4184 1.89166E+01 9.19688E-01-2.73208E-03-1.68738E-01-8.77315E-14 2.65896E-13
 -1      4185 1.86501E+01 1.02731E+00 1.03629E-02-5.59340E-03-2.10304E-14 2.31889E-13
 -1      4186 1.90590E+01 8.55163E-01-3.73103E-03-1.71769E-01-3.82682E-14 1.62440E-13
 -1      4187 1.91864E+01 7.92212E-01-2.20011E-03-1.58738E-01-2.69907E-14 4.89903E-14
 -1      4188 1.89731E+01 9.05223E-01 8.17261E-03-4.20990E-02-2.06191E-13-6.10574E-14
 -1      4189 1.92985E+01 7.29173E-01-2.66900E-03-1.56214E-01 6.99676E-14-4.50662E-15
 -1      4190 1.93974E+01 6.68760E-01-1.42021E-03-1.40676E-01 2.04359E-13-5.97247E-14
 -1      4191 1.92242E+01 7.76953E-01 4.99330E-03-5.99397E-02 3.01814E-14 1.27950E-13
 -1      4192 1.94847E+01 6.08569E-01-1.75104E-03-1.37152E-01 3.49767E-13-1.22755E-13
 -1      4193 1.95585E+01 5.52726E-01-1.51890E-03-1.21856E-01 3.78949E-13-9.26089E-14
 -1      4194 1.94267E+01 6.52049E-01 3.51317E-03-6.57880E-02 2.33024E-13 2.16385E-14
 -1      4195 1.96272E+01 4.99395E-01-1.18342E-03-1.15083E-01 3.38228E-13-1.63344E-13
 -1      4196 1.96837E+01 4.50276E-01-8.46393E-04-1.00550E-01 2.36194E-13-5.48468E-15
 -1      4197 1.95780E+01 5.40954E-01 2.52915E-03-6.09095E-02 3.23003E-13 3.15939E-15
 -1      4198 1.97564E+01 3.82971E-01-7.84204E-04-9.03903E-02 1.06331E-13 1.22477E-13
 -1      4199 1.74711E+01-7.45707E-01 2.43807E-02-3.07335E+00-2.17734E-13-1.95763E-13
 -1      4200 1.82153E+01-9.66390E-01 1.10670E-02-2.94846E+00-1.72149E-13-2.93936E-13
 -1      4201 1.81210E+01-6.05235E-01-5.17664E-03-2.64279E+00-3.53834E-14-2.84432E-13
 -1      4202 1.71448E+01-2.82255E-01-7.82811E-03-2.65485E+00-1.71145E-13-2.05659E-13
 -1      4203 1.92887E+01 6.78527E-01-4.15786E-03 4.01292E-01 1.14337E-13 4.22750E-14
 -1      4204 1.92173E+01 7.15407E-01 1.29538E-03 4.62656E-01 5.67380E-14 1.14440E-13
 -1      4205 1.82153E+01 3.58694E-01 2.62312E-03 1.61871E+00-1.58198E-13-1.93530E-13
 -1      4206 1.77667E+01 5.94501E-01 1.75911E-02 1.52702E+00-1.45150E-13 3.64743E-14
 -1      4207 1.82553E+01 4.79967E-01-5.12728E-03 1.45105E+00-2.98920E-13-1.53263E-13
 -1      4208 2.02142E+01 5.76539E-01-1.12944E-03-2.10279E-01 2.28272E-14-6.53255E-14
 -1      4209 2.02494E+01 6.49873E-01 8.09778E-05-1.46918E-01 4.81011E-14-6.57736E-14
 -1      4210 2.02562E+01 7.56608E-01 1.09165E-03-1.01064E-01 4.39751E-14-5.90806E-14
 -1      4211 2.01866E+01 6.03810E-01 1.85605E-03-1.96359E-01 4.74107E-14-7.83924E-14
 -1      4212 1.55795E+01 8.77632E-01 8.56907E-04 1.30507E+00-1.33695E-14-1.03822E-13
 -1      4213 1.50588E+01 1.16981E+00 4.89957E-02 8.29635E-01-3.15538E-14-1.93192E-14
 -1      4214 1.52602E+01 1.19333E+00-1.73978E-02 5.12474E-02-1.73329E-14-2.75561E-15
 -1      4215 1.60285E+01 9.87080E-01-2.17000E-02 1.03177E+00-6.69545E-14-1.68847E-14
 -1      4216 1.88663E+01 7.65529E-01-6.98944E-03 7.00283E-01 9.49027E-14 7.28809E-14
 -1      4217 1.87880E+01 7.64414E-01 4.01524E-03 8.04174E-01 8.38386E-14 1.09063E-13
 -1      4218 1.86118E+01 7.33358E-01-9.14563E-03 9.29383E-01 1.72633E-14 3.25765E-14
 -1      4219 1.85458E+01 6.94836E-01 6.10559E-03 1.06479E+00-1.34825E-13-5.27781E-14
 -1      4220 1.85139E+01 8.63655E-01 6.57424E-03 7.63822E-01-1.54350E-14-1.54343E-13
 -1      4221 1.94553E+01 5.99036E-01-2.64796E-03 3.03109E-01 5.51160E-14 2.40450E-13
 -1      4222 1.93905E+01 6.41157E-01 1.83395E-04 3.50068E-01 9.35137E-14 6.88391E-14
 -1      4223 1.92753E+01 7.17603E-01 5.97793E-03 3.08179E-01 9.45384E-14 7.28978E-14
 -1      4224 1.95897E+01 5.13607E-01-1.95601E-03 2.28600E-01 1.36312E-14 3.18406E-13
 -1      4225 1.95355E+01 5.57771E-01 1.35077E-04 2.66012E-01 1.04692E-13 2.51485E-13
 -1      4226 1.94513E+01 6.18688E-01 3.66654E-03 2.25045E-01 4.33308E-14 1.58862E-13
 -1      4227 1.96977E+01 4.29328E-01-1.46482E-03 1.71360E-01 2.68736E-14-9.46848E-14
 -1      4228 1.96539E+01 4.71532E-01 4.24563E-05 2.00436E-01 1.20948E-13 1.52820E-13
 -1      4229 1.95884E+01 5.23250E-01 2.21304E-03 1.65028E-01 1.11088E-13-1.35920E-13
 -1      4230 1.98575E+01 5.98786E-01-1.42344E-03 1.45669E-01-4.39387E-14-1.64989E-13
 -1      4231 1.97550E+01 6.19178E-01-1.35339E-03 1.62863E-01-3.90497E-14-1.28044E-13
 -1      4232 1.96944E+01 6.46694E-01 3.28786E-03 6.03204E-02-6.79044E-14-1.64939E-13
 -1      4233 2.02549E+01 1.06257E+00-2.36623E-03-8.99196E-05-7.12809E-15-1.93440E-13
 -1      4234 1.90932E+01 7.39178E-01-5.48174E-03 5.29963E-01 8.79613E-16-3.14690E-16
 -1      4235 1.90155E+01 7.62172E-01 2.22745E-03 6.09212E-01 7.17288E-14 1.14167E-13
 -1      4236 1.90680E+01 8.00137E-01 8.05097E-03 4.16499E-01 3.79805E-14-1.27872E-13
 -1      4237 2.02636E+01 9.42993E-01 4.42433E-03-5.07016E-03 7.98711E-15-1.71423E-13
 -1      4238 2.01552E+01 6.58842E-01 1.00336E-03 1.32436E-01-2.79952E-15-1.40354E-13
 -1      4239 1.98102E+01 3.23384E-01 4.21112E-04 7.61287E-02 5.02828E-14-5.36904E-13
 -1      4240 1.98138E+01 3.19244E-01-9.33847E-04 1.06309E-01 3.13657E-14-5.35291E-13
 -1      4241 1.97931E+01 3.46075E-01 2.68955E-04 1.23517E-01-4.45305E-14-3.89024E-13
 -1      4242 1.97780E+01 3.54910E-01 2.74301E-04 5.62127E-02 1.10409E-13-4.43896E-13
 -1      4243 1.89685E+01 6.59861E-01 3.40264E-03-8.22765E-01 8.53413E-15-2.96820E-14
 -1      4244 1.90677E+01 6.55581E-01-6.09344E-03-7.28886E-01 2.19550E-14-2.78006E-14
 -1      4245 2.02474E+01 7.93722E-01-8.64271E-04-7.69853E-02 2.16086E-14-6.84777E-14
 -1      4246 1.93929E+01 5.77576E-01 1.89458E-03-7.17018E-01-5.20947E-14-4.79433E-14
 -1      4247 1.95645E+01 5.08755E-01 2.20775E-03-7.49761E-01-8.12430E-14-3.65039E-14
 -1      4248 1.96212E+01 4.97988E-01-3.59991E-03-6.81084E-01-7.06193E-14-7.65377E-14
 -1      4249 1.57659E+01 1.22202E+00-1.49370E-02 4.79341E-02 2.58847E-14 5.98133E-14
 -1      4250 2.02300E+01 8.24441E-01-6.42858E-04 1.70417E-02 1.70009E-14-1.89970E-13
 -1      4251 2.02133E+01 7.44026E-01 2.79916E-03 4.93840E-02 3.70871E-14-1.91909E-13
 -1      4252 2.00304E+01 5.39559E-01-2.38271E-04-2.47016E-01-1.21487E-14-4.83047E-14
 -1      4253 2.00915E+01 5.59932E-01-1.80603E-03-2.03682E-01 3.57953E-14-3.53591E-14
 -1      4254 1.84104E+01 4.53659E-01 5.57125E-03-1.40247E+00-6.24576E-15-7.98321E-14
 -1      4255 1.84779E+01 5.43653E-01-1.05063E-02-1.23097E+00 9.70133E-15-4.53345E-14
 -1      4256 1.79287E+01 5.62068E-01-3.74945E-03-1.39436E+00 1.72525E-14-3.35216E-14
 -1      4257 1.61387E+01 1.24364E+00 3.20774E-02 5.05540E-01-6.95219E-14 1.73413E-13
 -1      4258 2.01393E+01 6.55979E-01-2.57039E-03 8.83334E-02-3.18690E-15-1.79034E-13
 -1      4259 1.97190E+01 4.17178E-01 1.31683E-03-5.15526E-02 2.40186E-13-5.06125E-14
 -1      4260 1.74868E+01 7.99866E-01-1.60517E-02 1.19169E+00-2.16010E-13 6.72794E-14
 -1      4261 1.73548E+01 7.23288E-01 7.56826E-04 1.37017E+00-4.76363E-14 6.47358E-14
 -1      4262 1.69268E+01 9.44048E-01 2.37009E-02 1.18596E+00-1.94389E-13 4.32608E-14
 -1      4263 1.97253E+01 4.88672E-01 1.77695E-03-6.15681E-01-8.30563E-14-9.80311E-14
 -1      4264 1.97866E+01 4.73494E-01-1.61109E-03-5.56506E-01-4.74692E-14-1.15930E-13
 -1      4265 1.97805E+01 5.16465E-01 1.46838E-03-4.67752E-01-4.46900E-14-8.37715E-14
 -1      4266 1.95914E+01 5.55356E-01 2.38325E-03-5.78780E-01-9.97408E-14-4.86551E-14
 -1      4267 1.67102E+01 1.12988E+00 1.72809E-02-4.26173E-01-4.53426E-14-2.75968E-14
 -1      4268 1.88158E+01 8.56760E-01 8.97028E-03 5.63235E-01 4.08075E-14-2.10620E-13
 -1      4269 1.99526E+01 5.90680E-01-2.07998E-03 1.41226E-01-2.95037E-14-1.62314E-13
 -1      4270 1.99034E+01 6.15109E-01 2.68308E-03 6.17529E-02-3.88749E-14-1.72536E-13
 -1      4271 2.00373E+01 6.00225E-01 5.57197E-05 1.17860E-01-3.77516E-14-1.68057E-13
 -1      4272 1.97612E+01 3.72811E-01-9.07569E-04 1.35457E-01 1.75503E-14-3.58634E-13
 -1      4273 1.97362E+01 4.01330E-01 2.06541E-04 1.55936E-01 1.40223E-14-2.35352E-13
 -1      4274 1.96848E+01 4.43659E-01 9.76299E-04 1.25893E-01 2.19774E-13-2.91286E-13
 -1      4275 1.97521E+01 3.82367E-01 6.72975E-04 1.01779E-01 8.37401E-14-3.13743E-13
 -1      4276 1.87810E+01 6.37127E-01-8.51513E-03-9.40667E-01 4.86227E-15-4.57403E-14
 -1      4277 1.87160E+01 7.69644E-01 1.27889E-02-7.60278E-01 2.88066E-14-6.33434E-15
 -1      4278 1.86924E+01 6.09034E-01 5.57219E-03-1.06515E+00-5.54678E-16-4.45618E-14
 -1      4279 1.90378E+01 7.43147E-01 8.49830E-03-5.73808E-01-1.71630E-14-1.63909E-14
 -1      4280 1.92310E+01 6.51194E-01 2.54122E-03-6.42165E-01-1.69124E-14-2.10488E-14
 -1      4281 1.93258E+01 6.30437E-01-4.71676E-03-5.68492E-01-7.91053E-14-1.77103E-14
 -1      4282 1.83199E+01 5.88655E-01-3.96342E-03 1.29810E+00-3.64029E-13 4.13717E-14
 -1      4283 2.02291E+01 8.27437E-01-3.34306E-03-7.21173E-03 2.52661E-14-1.45592E-13
 -1      4284 1.98739E+01 5.33255E-01 3.44931E-04-3.20748E-01-7.03470E-14-6.31619E-14
 -1      4285 1.99483E+01 5.29235E-01-1.64335E-03-2.78010E-01-6.93252E-14-5.28874E-14
 -1      4286 1.99719E+01 5.74016E-01 2.18003E-03-1.97149E-01-1.89097E-14-3.13528E-14
 -1      4287 1.97473E+01 3.85355E-01 8.75113E-04 2.63987E-02 2.83292E-13-3.76039E-13
 -1      4288 1.97447E+01 3.82970E-01-7.92840E-04 6.22317E-02 6.45470E-14-2.48958E-13
 -1      4289 1.97139E+01 4.12874E-01-5.07392E-04 7.12617E-02 1.61432E-13-3.07841E-13
 -1      4290 1.97477E+01 3.83044E-01-3.50067E-04-9.94913E-03 2.85195E-13-1.11428E-13
 -1      4291 2.01955E+01 6.57272E-01-1.30607E-03-1.23783E-01 3.35881E-14-5.05948E-14
 -1      4292 2.02209E+01 7.91671E-01 1.78250E-03-5.57222E-02 2.21523E-14-7.16875E-14
 -1      4293 2.01858E+01 7.01314E-01 1.66257E-03-4.04598E-02 2.44448E-14-1.23470E-13
 -1      4294 2.01517E+01 6.03184E-01-2.93117E-04-1.69892E-01 3.99815E-14-7.03976E-14
 -1      4295 1.81364E+01 7.73878E-01 6.16185E-03 1.09584E+00-2.78060E-13-2.73958E-13
 -1      4296 1.61873E+01 9.03396E-01 8.58856E-03-1.09279E+00-2.27748E-14-1.06659E-14
 -1      4297 1.56920E+01 6.98505E-01 1.79986E-02-1.65643E+00-4.57888E-14-8.47759E-15
 -1      4298 2.01101E+01 6.16308E-01 4.28381E-04-1.32355E-01 1.93164E-14-5.32695E-14
 -1      4299 1.95087E+01 6.76014E-01-1.53759E-03-6.70153E-02-9.77498E-14-9.35942E-14
 -1      4300 1.93547E+01 7.17326E-01-4.68842E-03-7.91492E-02-6.44949E-14-7.62122E-14
 -1      4301 1.92024E+01 7.44430E-01-1.75406E-03-2.28460E-01-5.95284E-14-6.19478E-14
 -1      4302 1.90160E+01 7.84072E-01-8.03153E-03-2.61200E-01-2.56569E-14-6.87238E-14
 -1      4303 1.88521E+01 8.15137E-01-6.39830E-03-3.32423E-01 3.27153E-15-8.08435E-14
 -1      4304 1.86284E+01 8.54147E-01-1.21490E-02-3.79977E-01-5.04967E-16-8.66567E-14
 -1      4305 1.84429E+01 8.68989E-01-8.74394E-03-4.80724E-01-8.38739E-15-7.25672E-14
 -1      4306 1.81686E+01 8.92238E-01-1.63071E-02-5.53551E-01 4.98061E-15-3.73644E-14
 -1      4307 1.79629E+01 8.80646E-01-8.57326E-03-6.92954E-01 2.83851E-14-6.48044E-14
 -1      4308 1.76451E+01 8.83111E-01-1.20463E-02-8.02526E-01-1.88515E-14-2.93813E-14
 -1      4309 1.79534E+01-7.88197E-02-7.96306E-03-2.16075E+00-9.43154E-14-2.59036E-13
 -1      4310 1.74943E+01 2.61997E-01-7.56759E-03-1.91861E+00-2.50098E-14-1.09442E-13
 -1      4311 1.65279E+01 1.04044E+00-6.26141E-03 8.74301E-01-1.76534E-13-3.09193E-14
 -1      4312 1.64806E+01 2.57897E-01-1.92391E-02-2.12080E+00-7.73214E-14-4.62078E-14
 -1      4313 2.01077E+01 6.63667E-01 2.10502E-03 3.39916E-02-7.36024E-16-1.91481E-13
 -1      4314 1.94476E+01 6.10164E-01-2.14618E-03 1.36747E-01 5.54375E-14 9.20886E-14
 -1      4315 1.93663E+01 6.68010E-01 1.20285E-03 1.66843E-01 1.48736E-13 1.45155E-13
 -1      4316 1.75879E+01 1.11446E+00-1.42541E-02 4.31664E-01-1.64620E-14-6.29519E-14
 -1      4317 1.78924E+01 1.10978E+00-3.48614E-03 3.56440E-01-5.01124E-14-7.52556E-14
 -1      4318 1.82708E+01 1.00947E+00-8.89031E-03 4.01727E-01-3.96098E-14-1.20724E-13
 -1      4319 1.85074E+01 9.76099E-01-3.31801E-03 3.41101E-01-2.14320E-15-1.92389E-13
 -1      4320 1.86493E+01 9.40491E-01-9.24581E-03 2.65789E-01-1.00709E-14-9.65135E-14
 -1      4321 1.88358E+01 8.96758E-01-3.76213E-03 2.28649E-01-6.36780E-14-2.04480E-13
 -1      4322 1.89568E+01 8.49133E-01-7.44095E-03 1.74800E-01-1.11111E-13-4.26126E-14
 -1      4323 1.91049E+01 7.97850E-01-2.98009E-03 1.52635E-01-7.89351E-14-8.42897E-15
 -1      4324 1.93485E+01 6.81594E-01-1.78623E-03 5.80805E-03 2.60535E-13 7.67931E-14
 -1      4325 1.94397E+01 6.24526E-01-1.59960E-03 1.83602E-03 2.73726E-13 1.31686E-13
 -1      4326 1.95370E+01 5.58132E-01-1.14147E-03-1.55899E-03 2.45655E-13 5.58374E-15
 -1      4327 1.96051E+01 5.06034E-01-8.53466E-04-1.86047E-03 2.69797E-13-1.81263E-13
 -1      4328 1.80875E+01 9.33753E-01-6.74262E-03 7.57308E-01-8.16901E-14-3.96072E-13
 -1      4329 1.78631E+01 8.76445E-01 1.10742E-03 9.66049E-01-2.59900E-13-1.49615E-13
 -1      4330 1.96750E+01 4.47922E-01-9.91215E-04-1.15502E-02 3.30876E-13-1.75835E-13
 -1      4331 1.96073E+01 5.00070E-01-1.29612E-03 9.95377E-02 3.56459E-13-2.85972E-13
 -1      4332 1.95457E+01 5.47727E-01-6.09724E-04 1.22048E-01 2.12325E-13-7.61872E-14
 -1      4333 1.97514E+01 6.14740E-01-2.28853E-03-3.85134E-02-6.66022E-14-1.23276E-13
 -1      4334 1.96338E+01 6.42187E-01-2.23766E-03-4.39407E-02-8.85723E-14-1.10090E-13
 -1      4335 1.95919E+01 6.49862E-01 1.72393E-03-1.67966E-01-7.22230E-14-1.84949E-14
 -1      4336 1.68034E+01 1.07629E+00-1.84496E-02 7.15703E-01-1.96667E-13-3.99394E-14
 -1      4337 1.92061E+01 7.46720E-01-4.60428E-03 1.14692E-01-7.12592E-16 4.61796E-14
 -1      4338 1.79403E+01-3.11904E-01 1.21682E-02-2.43382E+00-7.56689E-14-3.22207E-13
 -1      4339 1.96505E+01 4.73237E-01 1.85138E-03 4.22577E-02 2.92006E-13-2.46184E-13
 -1      4340 1.72347E+01 1.11006E+00-2.40193E-03 5.93241E-01-1.16051E-13 3.78761E-15
 -1      4341 2.00175E+01 5.99331E-01 2.01658E-04-5.83874E-02-3.80411E-15-8.60994E-14
 -1      4342 2.00798E+01 6.26142E-01-1.81170E-03-2.79105E-02 2.21137E-15-1.22376E-13
 -1      4343 1.71253E+01 9.63194E-01-1.42599E-02-7.76064E-01-8.17146E-14-8.03307E-15
 -1      4344 1.64810E+01 9.72017E-01-7.67880E-03-8.88149E-01-2.73347E-14-3.09735E-15
 -1      4345 1.68591E+01 3.62817E-01 4.50239E-03-1.94945E+00-5.32371E-14-3.78885E-14
 -1      4346 1.71011E+01 5.54503E-01-2.86290E-04-1.62789E+00-4.10414E-14-5.61335E-15
 -1      4347 1.83468E+01 7.37430E-01 1.53542E-02-1.02046E+00 6.93944E-15-4.67924E-14
 -1      4348 1.80957E+01 1.02221E+00-2.56886E-03 5.00216E-01-7.96883E-14-2.29600E-13
 -1      4349 1.75595E+01 1.03187E+00 1.38278E-02 8.02783E-01-6.89132E-14-9.78374E-14
 -1      4350 1.94868E+01 5.96457E-01 1.97912E-03 6.52452E-02 2.54949E-13 1.37208E-14
 -1      4351 1.98374E+01 5.93819E-01-1.19919E-03-8.31259E-02-4.99088E-14-8.97526E-14
 -1      4352 1.98011E+01 5.91193E-01 8.54762E-04-1.84874E-01-8.31668E-14-2.33202E-14
 -1      4353 1.93203E+01 6.91700E-01-2.22960E-03 9.92678E-02 2.22787E-13 1.59710E-13
 -1      4354 1.99330E+01 5.87825E-01-1.46417E-03-7.80041E-02-2.67390E-14-8.06147E-14
 -1      4355 1.93208E+01 7.03560E-01 3.83147E-03-3.43034E-01-8.65307E-14 9.34860E-16
 -1      4356 1.67708E+01 7.19276E-01-5.66131E-04-1.41503E+00-3.27084E-14 1.61324E-14
 -1      4357 1.74307E+01 6.34705E-01 8.41213E-03-1.40228E+00-2.94743E-14-2.05404E-14
 -1      4358 1.97661E+01 5.41366E-01-2.16652E-03-3.73736E-01-3.82422E-14-3.03046E-14
 -1      4359 1.97850E+01 5.74344E-01 9.94783E-04-2.76695E-01-7.89379E-14 1.99835E-14
 -1      4360 1.96987E+01 6.01778E-01 1.50867E-03-2.32383E-01-7.50136E-14 1.16236E-14
 -1      4361 1.96776E+01 5.57563E-01-1.14777E-03-4.25943E-01-4.18485E-14 5.12161E-15
 -1      4362 1.70030E+01 1.79425E-02 1.89196E-02-2.39561E+00-1.18256E-13-1.57475E-13
 -1      4363 1.76380E+01 7.61893E-01 1.23323E-02-1.18673E+00 6.23742E-16-2.36814E-14
 -1      4364 1.94641E+01 6.32666E-01 1.32758E-03-4.19942E-01-1.03283E-13-2.56130E-14
 -1      4365 1.74492E+01-1.92269E-01-6.09282E-03-2.45594E+00-1.19028E-13-2.67426E-13
 -1      4366 1.95647E+01 6.04298E-01-2.19614E-03-3.66399E-01-6.73221E-14 1.49780E-14
 -1      4367 1.96773E+01 4.44916E-01-4.12458E-04 8.24785E-02 2.18373E-13-2.17477E-13
 -1      4368 1.95727E+01 6.33131E-01 1.01255E-03-2.68407E-01-4.99971E-14 1.97851E-14
 -3
    1PSTEP                         3           1           1          
  100CL  101 1.000000000        4368                     0    1           1
 -4  TOSTRAIN    6    1
 -5  EXX         1    4    1    1
 -5  EYY         1    4    2    2
 -5  EZZ         1    4    3    3
 -5  EXY         1    4    1    2
 -5  EYZ         1    4    2    3
 -5  EZX         1    4    3    1
 -1         1 7.66990E-06-3.51567E-05 3.42292E-06-2.00327E-05-1.28173E-17-5.57644E-18
 -1         2 3.63016E-05-1.10723E-04 2.00591E-05 1.74847E-07 4.62770E-18 1.38209E-18
 -1         3 9.52339E-05-2.85744E-05-2.85593E-05 4.86874E-10-2.04607E-18-1.72148E-18
 -1         4 9.52338E-05-2.85745E-05-2.85592E-05-3.22974E-10 1.41377E-18 1.18847E-18
 -1         5 1.42818E-04-2.13909E-05-4.23934E-05 3.84059E-05-1.50137E-19 1.09069E-17
 -1         6 1.44863E-04 2.56663E-10-4.40451E-05-5.33366E-05-5.97688E-19 9.97762E-18
 -1         7 9.04319E-05-5.14170E-07-3.89840E-05-2.91402E-05-1.01962E-19 1.88563E-18
 -1         8 8.50715E-05 8.24745E-08-3.63104E-05-2.01529E-05-1.11888E-19-6.47659E-19
 -1         9 8.28419E-05 7.32363E-08-3.53581E-05-1.55052E-05-1.07706E-19-2.06731E-18
 -1        10 8.18512E-05 3.58324E-08-3.49113E-05-1.19328E-05-6.40238E-20-2.75140E-18
 -1        11 8.13515E-05 1.74732E-08-3.46941E-05-8.87333E-06-6.05331E-20-3.02981E-18
 -1        12 8.10890E-05 7.90238E-09-3.45849E-05-6.16745E-06-3.38764E-20-3.13576E-18
 -1        13 8.09472E-05 3.84959E-09-3.45286E-05-3.60805E-06 1.20272E-21-3.17325E-18
 -1        14 8.08859E-05 2.30209E-09-3.45050E-05-1.15615E-06 1.98937E-22-3.15253E-18
 -1        15 8.08870E-05 2.31289E-09-3.45053E-05 1.26258E-06 2.49635E-20-3.03085E-18
 -1        16 8.09509E-05 3.83389E-09-3.45298E-05 3.71941E-06 4.54354E-20-2.94454E-18
 -1        17 8.10966E-05 7.16931E-09-3.45870E-05 6.29062E-06 6.23413E-20-2.72660E-18
 -1        18 8.13637E-05 1.62689E-08-3.46975E-05 9.01555E-06 6.95493E-20-2.39275E-18
 -1        19 8.18683E-05 3.54773E-08-3.49176E-05 1.21105E-05 1.22734E-19-1.91352E-18
 -1        20 8.28619E-05 7.79271E-08-3.53696E-05 1.57320E-05 1.41124E-19-1.01274E-18
 -1        21 8.50374E-05 1.64973E-07-3.63482E-05 2.03622E-05 1.34096E-19 6.21400E-19
 -1        22 9.14605E-05-1.02604E-07-3.86574E-05 2.78900E-05 1.96935E-20 3.80536E-18
 -1        23 1.12583E-04-3.79961E-05-3.52810E-05-4.37802E-06-4.11552E-19 7.90144E-18
 -1        24 9.25414E-05-2.76194E-05-2.89171E-05 3.90543E-07-1.33480E-19 6.01295E-18
 -1        25 8.89451E-05-2.68013E-05-2.68762E-05 3.73581E-07-1.08476E-20 4.21918E-18
 -1        26 8.79450E-05-2.64692E-05-2.63712E-05 2.01377E-07-2.86949E-21 2.85700E-18
 -1        27 8.81118E-05-2.64904E-05-2.64066E-05 1.37024E-07 9.89267E-21 2.03532E-18
 -1        28 8.88482E-05-2.66885E-05-2.66383E-05 9.84941E-08 1.14995E-20 1.67473E-18
 -1        29 8.98980E-05-2.69908E-05-2.69609E-05 7.39620E-08 1.13140E-19 1.45335E-18
 -1        30 9.11469E-05-2.73591E-05-2.73403E-05 5.77588E-08-4.19110E-20 1.18419E-18
 -1        31 9.25565E-05-2.77791E-05-2.77673E-05 4.75180E-08-9.91013E-20 2.78164E-20
 -1        32 9.41380E-05-2.82527E-05-2.82464E-05 4.24684E-08-9.99054E-20-1.21428E-18
 -1        33 9.59399E-05-2.87934E-05-2.87927E-05 4.27328E-08 3.66746E-19-6.24870E-19
 -1        34 9.80399E-05-2.94240E-05-2.94298E-05 4.90744E-08 6.41826E-20 2.10359E-19
 -1        35 1.00538E-04-3.01737E-05-3.01874E-05 6.27853E-08-8.86142E-20-5.29300E-19
 -1        36 1.03544E-04-3.10746E-05-3.10980E-05 8.54824E-08 1.65117E-19-4.42796E-19
 -1        37 1.07156E-04-3.21549E-05-3.21885E-05 1.18465E-07-2.56629E-19 2.89553E-19
 -1        38 1.11413E-04-3.34257E-05-3.34659E-05 1.61000E-07 9.29726E-20-1.08156E-19
 -1        39 1.16218E-04-3.48568E-05-3.48905E-05 2.06472E-07-6.89755E-21-2.14167E-19
 -1        40 1.21199E-04-3.63391E-05-3.63353E-05 2.35299E-07-8.68234E-20-6.06158E-19
 -1        41 1.25540E-04-3.76332E-05-3.75392E-05 2.05363E-07-2.21656E-19-2.04527E-18
 -1        42 1.27847E-04-3.83287E-05-3.80856E-05 4.92104E-08-1.05366E-19-1.74082E-18
 -1        43 1.26288E-04-3.78806E-05-3.74849E-05-2.94980E-07-1.82496E-19-6.50270E-19
 -1        44 1.19380E-04-3.58344E-05-3.54153E-05-7.96736E-07 7.26132E-20 1.66304E-18
 -1        45 1.07523E-04-3.22790E-05-3.21413E-05-1.21345E-06-3.83034E-20 2.80627E-18
 -1        46 9.44319E-05-2.83108E-05-2.87285E-05-1.13158E-06 6.01608E-20 1.93637E-18
 -1        47 8.62960E-05-2.58282E-05-2.66789E-05-3.75113E-07-1.09006E-19 2.50012E-18
 -1        48 8.77187E-05-2.62623E-05-2.70376E-05 6.38852E-07 2.62134E-19 1.99519E-18
 -1        49 9.78667E-05-2.93543E-05-2.96140E-05 1.22278E-06 2.68218E-19 1.32042E-18
 -1        50 1.11205E-04-3.33854E-05-3.31431E-05 1.13005E-06-2.55782E-19-6.31887E-19
 -1        51 1.21949E-04-3.65984E-05-3.61647E-05 6.51714E-07 6.16402E-19-7.45098E-19
 -1        52 1.27350E-04-3.81929E-05-3.78328E-05 1.79200E-07 4.43352E-19 6.73126E-19
 -1        53 1.27711E-04-3.82861E-05-3.80895E-05-1.09658E-07-2.48272E-19 7.18832E-19
 -1        54 1.24753E-04-3.73995E-05-3.73375E-05-2.22259E-07-1.57590E-19-4.54493E-19
 -1        55 1.20239E-04-3.60556E-05-3.60673E-05-2.29079E-07-1.25823E-19-2.57972E-18
 -1        56 1.15407E-04-3.46182E-05-3.46569E-05-1.91252E-07 5.97411E-20-2.59868E-18
 -1        57 1.10942E-04-3.32880E-05-3.33287E-05-1.43579E-07-2.72937E-20-1.38131E-18
 -1        58 1.07132E-04-3.21507E-05-3.21837E-05-1.00993E-07 2.66156E-19-8.26731E-19
 -1        59 1.04038E-04-3.12247E-05-3.12483E-05-6.77592E-08-2.11738E-19 1.43086E-18
 -1        60 1.01607E-04-3.04955E-05-3.05111E-05-4.35821E-08-1.93605E-19 1.33953E-18
 -1        61 9.97427E-05-2.99353E-05-2.99449E-05-2.67211E-08 4.73431E-19 2.48786E-18
 -1        62 9.83418E-05-2.95134E-05-2.95190E-05-1.53078E-08-6.14110E-19 4.83873E-19
 -1        63 9.73082E-05-2.92016E-05-2.92045E-05-7.78036E-09-5.33591E-19-3.86339E-20
 -1        64 9.65600E-05-2.89754E-05-2.89767E-05-2.95247E-09 8.37327E-19 7.09039E-21
 -1        65 9.60301E-05-2.88150E-05-2.88153E-05 4.27412E-11 1.47732E-19 2.99262E-18
 -1        66 9.56654E-05-2.87043E-05-2.87041E-05 1.83759E-09-6.07214E-19 1.33153E-18
 -1        67 9.54253E-05-2.86312E-05-2.86310E-05 2.92770E-09 1.24157E-19-8.90067E-19
 -1        68 9.52794E-05-2.85865E-05-2.85866E-05 3.76914E-09 3.69393E-19 6.47567E-19
 -1        69 9.52061E-05-2.85637E-05-2.85643E-05 4.82518E-09 5.79578E-20 1.47264E-18
 -1        70 9.51899E-05-2.85580E-05-2.85585E-05 6.68047E-09 4.76069E-19 3.24889E-18
 -1        71 9.52150E-05-2.85654E-05-2.85617E-05 8.17872E-09-6.77173E-19 3.39037E-18
 -1        72 1.01828E-04-3.04796E-05-3.40410E-05-1.92363E-06 1.72345E-19 9.91664E-18
 -1        73 9.23102E-05-2.74393E-05-2.88294E-05-3.31633E-07 6.83582E-20 7.52787E-18
 -1        74 8.89463E-05-2.66547E-05-2.69239E-05-1.22913E-07 5.53384E-21 5.80578E-18
 -1        75 8.79911E-05-2.64242E-05-2.64206E-05-9.11934E-08 5.83961E-20 4.86430E-18
 -1        76 8.81654E-05-2.64748E-05-2.64397E-05-7.10830E-08-6.92640E-21 4.10481E-18
 -1        77 8.89021E-05-2.66870E-05-2.66623E-05-5.62116E-08 8.75376E-20 3.29149E-18
 -1        78 8.99448E-05-2.69940E-05-2.69789E-05-4.50384E-08-7.67773E-20 3.53678E-18
 -1        79 9.11734E-05-2.73594E-05-2.73503E-05-3.64048E-08 2.43151E-20 3.84677E-18
 -1        80 9.25375E-05-2.77668E-05-2.77623E-05-3.00357E-08-1.45400E-20 3.21297E-18
 -1        81 9.40278E-05-2.82125E-05-2.82124E-05-2.62034E-08 1.27539E-19 1.93300E-18
 -1        82 9.56578E-05-2.87001E-05-2.87047E-05-2.54831E-08 1.13097E-19 7.96883E-19
 -1        83 9.74504E-05-2.92362E-05-2.92455E-05-2.86222E-08 5.55981E-20-3.26892E-19
 -1        84 9.94222E-05-2.98253E-05-2.98385E-05-3.63807E-08-1.32371E-19-8.91998E-20
 -1        85 1.01564E-04-3.04648E-05-3.04796E-05-4.92130E-08 6.32440E-20-7.43129E-19
 -1        86 1.03816E-04-3.11369E-05-3.11485E-05-6.66324E-08 3.84872E-20-2.25659E-18
 -1        87 1.06038E-04-3.18002E-05-3.18002E-05-8.61090E-08-1.38249E-19-2.54584E-18
 -1        88 1.07976E-04-3.23800E-05-3.23559E-05-1.01504E-07 5.92691E-20-1.26335E-18
 -1        89 1.09245E-04-3.27633E-05-3.27001E-05-1.01583E-07 4.41835E-19-2.42414E-18
 -1        90 1.09350E-04-3.28035E-05-3.26897E-05-7.02707E-08-3.21293E-19-2.41385E-18
 -1        91 1.07785E-04-3.23492E-05-3.21888E-05 8.32535E-09 3.39392E-20-3.79312E-19
 -1        92 1.04245E-04-3.13043E-05-3.11305E-05 1.37167E-07-1.79847E-19-4.75662E-20
 -1        93 9.89201E-05-2.97161E-05-2.95958E-05 2.89260E-07-2.45543E-19 6.91920E-20
 -1        94 9.27394E-05-2.78526E-05-2.78632E-05 4.01464E-07 2.29637E-19-2.97031E-18
 -1        95 8.73038E-05-2.61931E-05-2.63734E-05 3.99644E-07-4.76254E-19-3.01261E-18
 -1        96 8.43565E-05-2.52743E-05-2.55808E-05 2.52078E-07 3.86183E-19-2.37709E-18
 -1        97 8.49556E-05-2.54353E-05-2.57495E-05 8.59408E-09-2.10366E-19-2.05509E-18
 -1        98 8.88872E-05-2.66213E-05-2.68221E-05-2.23172E-07 1.98953E-19-2.40960E-18
 -1        99 9.47893E-05-2.84146E-05-2.84518E-05-3.52531E-07-2.94957E-20-3.66503E-18
 -1       100 1.00881E-04-3.02654E-05-3.01683E-05-3.57820E-07 2.17958E-19-4.88816E-18
 -1       101 1.05744E-04-3.17379E-05-3.15772E-05-2.77270E-07-1.56106E-19-6.20739E-18
 -1       102 1.08707E-04-3.26295E-05-3.24700E-05-1.67211E-07-2.27995E-19-4.26206E-18
 -1       103 1.09777E-04-3.29470E-05-3.28255E-05-6.87604E-08-2.48905E-19-1.96969E-18
 -1       104 1.09363E-04-3.28174E-05-3.27429E-05 5.77694E-10 8.09090E-20 9.40663E-19
 -1       105 1.07993E-04-3.24020E-05-3.23675E-05 4.01970E-08 1.63106E-19 1.94601E-18
 -1       106 1.06142E-04-3.18440E-05-3.18370E-05 5.70964E-08-5.29186E-19 1.71803E-18
 -1       107 1.04162E-04-3.12488E-05-3.12578E-05 5.95068E-08 1.49295E-19-8.52899E-19
 -1       108 1.02278E-04-3.06833E-05-3.06996E-05 5.40818E-08 6.71765E-19-3.58733E-18
 -1       109 1.00611E-04-3.01833E-05-3.02015E-05 4.53130E-08 1.10499E-19-4.42901E-18
 -1       110 9.92095E-05-2.97631E-05-2.97803E-05 3.58685E-08 8.11066E-20-3.97601E-18
 -1       111 9.80770E-05-2.94236E-05-2.94384E-05 2.71428E-08 2.45352E-19-2.02555E-18
 -1       112 9.71920E-05-2.91582E-05-2.91703E-05 1.97364E-08-7.92431E-19-1.73984E-18
 -1       113 9.65211E-05-2.89571E-05-2.89665E-05 1.37983E-08 8.76796E-19-9.17383E-19
 -1       114 9.60279E-05-2.88091E-05-2.88163E-05 9.24260E-09-5.15127E-21-2.26180E-18
 -1       115 9.56779E-05-2.87041E-05-2.87094E-05 5.86759E-09-2.03459E-19-3.06363E-18
 -1       116 9.54411E-05-2.86329E-05-2.86370E-05 3.39944E-09-5.93074E-20-3.99361E-18
 -1       117 9.52933E-05-2.85884E-05-2.85918E-05 1.49710E-09 3.66338E-19-6.43809E-18
 -1       118 9.52161E-05-2.85649E-05-2.85681E-05-3.02627E-10 2.02832E-19-7.30896E-18
 -1       119 9.51958E-05-2.85585E-05-2.85609E-05-3.13815E-09-4.27328E-19-5.00659E-18
 -1       120 9.52164E-05-2.85647E-05-2.85628E-05-7.25372E-09 5.14090E-19-3.53532E-18
 -1       121 9.52430E-05-2.85917E-05-2.85633E-05-9.03799E-09-3.89516E-19 1.71694E-18
 -1       122 9.52482E-05-2.86083E-05-2.85627E-05-4.17822E-09 9.01174E-18-6.13597E-19
 -1       123 9.52400E-05-2.85807E-05-2.85713E-05-1.48028E-11 1.03807E-17 3.90267E-19
 -1       124 9.52197E-05-2.85131E-05-2.85905E-05 2.68566E-09 1.01217E-17 7.25502E-19
 -1       125 9.51927E-05-2.84221E-05-2.86163E-05 3.81825E-09 5.70079E-18-1.11959E-18
 -1       126 9.51656E-05-2.83307E-05-2.86424E-05 3.70327E-09-7.79988E-19 1.34273E-19
 -1       127 9.51434E-05-2.82560E-05-2.86639E-05 2.58932E-09 3.40292E-19 6.44640E-19
 -1       128 9.51314E-05-2.82153E-05-2.86755E-05 8.43765E-10-1.12638E-18 2.00679E-19
 -1       129 9.51320E-05-2.82173E-05-2.86750E-05-1.11634E-09 4.46468E-18-1.07634E-19
 -1       130 9.51452E-05-2.82616E-05-2.86622E-05-2.84728E-09 4.27168E-18-3.22383E-19
 -1       131 9.51682E-05-2.83395E-05-2.86398E-05-3.93533E-09-5.75406E-18-7.02578E-19
 -1       132 9.51960E-05-2.84331E-05-2.86131E-05-3.92593E-09-9.58950E-18 2.54428E-18
 -1       133 9.52231E-05-2.85243E-05-2.85873E-05-2.58104E-09-5.04768E-18 6.64164E-19
 -1       134 9.52427E-05-2.85901E-05-2.85688E-05 5.22911E-11-1.08058E-17-1.53790E-18
 -1       135 9.52502E-05-2.86135E-05-2.85611E-05 6.39282E-09-9.34495E-18 1.31329E-18
 -1       136 9.52420E-05-2.85928E-05-2.85623E-05 1.37955E-08-3.65703E-18-3.55471E-19
 -1       137 2.56781E-05-8.67769E-05 1.54901E-05-2.24569E-05 9.54183E-18 2.05212E-18
 -1       138 8.24184E-06-3.39863E-05 3.17392E-06-1.67057E-05 6.35232E-18 2.39837E-18
 -1       139 1.13758E-05 1.48344E-05-1.48714E-05 2.36135E-05 2.38186E-18 1.52000E-18
 -1       140 5.90412E-05 2.75349E-05-3.55876E-05 7.92383E-05 2.09090E-18 3.13741E-18
 -1       141 1.51588E-04-5.48385E-06-5.60686E-05 1.13082E-04 2.89855E-18 6.56620E-18
 -1       142 2.43839E-04-5.62809E-05-7.01604E-05 9.47075E-05 1.64658E-18 6.09440E-18
 -1       143 3.01425E-04-9.15497E-05-7.77718E-05 3.06991E-05 5.00358E-19-2.56227E-19
 -1       144 2.93492E-04-8.66987E-05-7.67177E-05-4.96380E-05 6.97727E-19-5.02799E-18
 -1       145 2.21775E-04-4.31629E-05-6.71149E-05-1.05301E-04 3.67221E-18-1.01360E-17
 -1       146 1.26854E-04 5.64830E-06-5.13524E-05-1.09030E-04 6.90501E-18-1.12829E-17
 -1       147 4.71355E-05 2.85988E-05-3.18256E-05-6.99000E-05 9.63627E-18-9.83109E-18
 -1       148 9.60184E-06 8.14891E-06-1.17880E-05-1.65669E-05 1.01115E-17-7.75819E-18
 -1       149 1.01863E-05-4.21544E-05 5.45822E-06 2.00299E-05 1.06493E-17-4.38001E-18
 -1       150 2.82442E-05-9.25889E-05 1.65870E-05 2.02538E-05 8.13745E-18-1.43683E-18
 -1       151 3.60673E-05-1.10555E-04 2.00344E-05-3.72949E-06 1.78880E-18-4.82438E-19
 -1       152 2.51413E-05-8.65907E-05 1.53630E-05-2.55111E-05-8.50569E-18-2.38059E-18
 -1       153 1.06512E-05 1.19423E-05-1.39765E-05 1.98375E-05-1.36207E-17-1.09238E-17
 -1       154 6.09282E-05 2.54633E-05-3.59552E-05 7.85392E-05-1.20910E-17-1.33802E-17
 -1       155 1.49697E-04-5.20712E-06-5.55358E-05 1.11939E-04-7.36241E-18-1.27254E-17
 -1       156 2.48435E-04-5.68814E-05-7.13002E-05 9.80851E-05-3.23503E-18-1.02182E-17
 -1       157 3.10333E-04-9.43360E-05-7.93839E-05 3.62983E-05-2.69754E-19-7.50884E-18
 -1       158 3.05599E-04-9.10961E-05-7.88631E-05-4.55075E-05-5.74407E-19-3.84765E-19
 -1       159 2.31521E-04-4.74830E-05-6.87443E-05-1.04268E-04-2.78579E-18 8.57663E-18
 -1       160 1.27983E-04 4.57337E-06-5.16064E-05-1.08723E-04-6.03553E-18 9.40503E-18
 -1       161 4.55345E-05 2.63814E-05-3.09427E-05-6.59029E-05-7.65887E-18 8.23231E-18
 -1       162 7.96040E-06 5.97298E-06-1.10087E-05-1.19390E-05-7.82235E-18 5.59592E-18
 -1       163 9.48778E-06-4.28206E-05 5.50192E-06 2.28772E-05-8.53089E-18 3.01184E-18
 -1       164 2.73734E-05-9.16935E-05 1.64186E-05 2.37848E-05-4.52570E-18 8.19028E-19
 -1       165 9.47730E-05-1.23561E-05-3.55231E-05-2.22010E-05-1.45174E-18 5.45277E-19
 -1       166 8.92525E-05-8.46765E-06-3.47834E-05-1.72238E-05-1.36622E-18-1.04766E-18
 -1       167 8.66159E-05-6.51295E-06-3.44398E-05-1.34220E-05-1.10258E-18-1.93305E-18
 -1       168 8.52671E-05-5.49255E-06-3.42714E-05-1.01990E-05-8.68116E-19-2.40991E-18
 -1       169 8.45170E-05-4.89508E-06-3.41919E-05-7.39928E-06-5.54630E-19-2.56005E-18
 -1       170 8.40750E-05-4.52501E-06-3.41535E-05-4.79367E-06-3.05888E-19-2.62836E-18
 -1       171 8.38430E-05-4.32372E-06-3.41367E-05-2.33641E-06-2.22208E-20-2.68776E-18
 -1       172 8.37726E-05-4.26193E-06-3.41320E-05 5.14929E-08 1.61729E-19-2.60780E-18
 -1       173 8.38509E-05-4.33201E-06-3.41367E-05 2.44145E-06 3.79252E-19-2.48966E-18
 -1       174 8.40931E-05-4.54391E-06-3.41535E-05 4.90518E-06 5.82097E-19-2.37151E-18
 -1       175 8.45394E-05-4.92105E-06-3.41909E-05 7.47682E-06 8.23901E-19-2.06012E-18
 -1       176 8.53211E-05-5.55108E-06-3.42713E-05 1.03441E-05 1.13841E-18-1.65966E-18
 -1       177 8.67027E-05-6.60998E-06-3.44408E-05 1.36103E-05 1.35179E-18-1.09562E-18
 -1       178 8.93980E-05-8.61512E-06-3.47870E-05 1.74594E-05 1.58493E-18-2.15729E-21
 -1       179 9.56791E-05-1.36160E-05-3.53801E-05 2.17486E-05 1.54057E-18 1.92181E-18
 -1       180 1.05374E-04-2.60476E-05-3.51836E-05 1.85551E-05 1.10415E-18 4.48774E-18
 -1       181 1.03217E-04-2.72574E-05-3.25516E-05-1.20254E-05-1.23212E-18 2.39019E-18
 -1       182 9.70043E-05-2.82570E-05-2.94976E-05-4.63209E-06-1.08758E-18 1.84418E-18
 -1       183 9.34993E-05-2.76273E-05-2.81821E-05-1.65119E-06-8.09115E-19 1.33507E-18
 -1       184 9.20888E-05-2.74275E-05-2.76757E-05-2.61054E-07-5.95623E-19 8.59606E-19
 -1       185 9.16846E-05-2.73967E-05-2.75325E-05 4.70815E-07-3.12310E-19 6.09448E-19
 -1       186 9.18825E-05-2.74987E-05-2.75828E-05 8.95255E-07-1.34064E-19 4.90145E-19
 -1       187 9.24593E-05-2.76904E-05-2.77519E-05 1.17040E-06-3.29045E-19 2.70979E-19
 -1       188 9.33011E-05-2.79463E-05-2.80046E-05 1.38464E-06-5.68191E-19 5.05618E-20
 -1       189 9.43592E-05-2.82559E-05-2.83259E-05 1.59515E-06-4.89564E-19 2.06820E-19
 -1       190 9.56274E-05-2.86197E-05-2.87133E-05 1.84305E-06 1.76603E-19 1.84630E-19
 -1       191 9.71294E-05-2.90466E-05-2.91737E-05 2.15939E-06 2.23752E-22-5.82415E-19
 -1       192 9.89090E-05-2.95521E-05-2.97193E-05 2.56602E-06-3.11025E-19-9.23166E-19
 -1       193 1.01021E-04-3.01563E-05-3.03653E-05 3.07185E-06 2.50280E-20-8.86749E-19
 -1       194 1.03516E-04-3.08828E-05-3.11243E-05 3.66267E-06-5.11611E-20-9.78685E-19
 -1       195 1.06423E-04-3.17554E-05-3.19987E-05 4.28170E-06-3.07202E-19-5.83599E-19
 -1       196 1.09714E-04-3.27927E-05-3.29692E-05 4.79778E-06-3.92994E-20-6.60337E-19
 -1       197 1.13254E-04-3.39960E-05-3.39772E-05 4.96333E-06-3.26491E-19-7.52825E-19
 -1       198 1.16735E-04-3.53228E-05-3.49078E-05 4.38170E-06-5.69090E-19-1.11138E-18
 -1       199 1.19611E-04-3.66316E-05-3.55832E-05 2.54503E-06-2.85080E-19-1.25042E-18
 -1       200 1.21063E-04-3.75851E-05-3.57927E-05-9.33176E-07 2.12251E-19-1.34574E-18
 -1       201 1.20147E-04-3.75868E-05-3.53901E-05-5.76504E-06 1.27885E-18-9.65161E-19
 -1       202 1.16286E-04-3.59667E-05-3.44199E-05-1.03188E-05 5.80777E-19 1.22496E-19
 -1       203 1.10125E-04-3.26345E-05-3.32196E-05-1.16266E-05-1.19842E-20 1.04388E-18
 -1       204 1.04344E-04-2.91099E-05-3.22796E-05-7.30224E-06 4.24324E-19 1.28956E-18
 -1       205 1.02424E-04-2.78714E-05-3.20038E-05 1.28205E-06-9.39479E-19 1.10484E-18
 -1       206 1.05717E-04-2.99663E-05-3.24990E-05 9.09538E-06-4.79553E-19-1.78327E-19
 -1       207 1.11987E-04-3.36834E-05-3.35658E-05 1.17960E-05-8.09963E-19-9.92590E-19
 -1       208 1.17720E-04-3.66237E-05-3.47565E-05 9.28809E-06 2.16324E-20-1.19225E-18
 -1       209 1.20803E-04-3.77580E-05-3.55998E-05 4.40704E-06 3.25499E-19-1.54277E-19
 -1       210 1.21021E-04-3.74298E-05-3.58433E-05-1.32664E-07-2.46467E-20-4.13784E-19
 -1       211 1.19145E-04-3.63457E-05-3.55052E-05-3.11636E-06-9.08542E-19 7.49823E-20
 -1       212 1.16119E-04-3.50332E-05-3.47655E-05-4.52028E-06-1.28576E-18 4.81849E-19
 -1       213 1.12694E-04-3.37645E-05-3.38338E-05-4.80490E-06-7.54232E-19-9.71992E-19
 -1       214 1.09350E-04-3.26478E-05-3.28731E-05-4.45842E-06 1.26594E-18-1.48892E-18
 -1       215 1.06347E-04-3.17113E-05-3.19832E-05-3.83465E-06 4.46441E-19-8.06496E-19
 -1       216 1.03788E-04-3.09489E-05-3.12113E-05-3.14460E-06 4.28361E-19-4.93924E-19
 -1       217 1.01687E-04-3.03413E-05-3.05707E-05-2.49590E-06-8.52492E-19-1.81503E-18
 -1       218 1.00008E-04-2.98656E-05-3.00555E-05-1.93341E-06 3.05304E-19-5.89590E-19
 -1       219 9.86962E-05-2.94990E-05-2.96510E-05-1.46811E-06-4.39599E-19-7.70744E-19
 -1       220 9.76900E-05-2.92208E-05-2.93398E-05-1.09476E-06-7.06188E-19-7.07890E-19
 -1       221 9.69318E-05-2.90131E-05-2.91046E-05-8.01490E-07-2.19076E-19-6.32389E-19
 -1       222 9.63709E-05-2.88607E-05-2.89303E-05-5.74748E-07 2.02817E-18-1.07071E-18
 -1       223 9.59644E-05-2.87512E-05-2.88036E-05-4.01472E-07 6.04700E-19 1.73061E-18
 -1       224 9.56774E-05-2.86744E-05-2.87139E-05-2.69964E-07-3.49615E-19 3.18824E-18
 -1       225 9.54819E-05-2.86226E-05-2.86528E-05-1.70080E-07 6.78921E-19 3.37846E-18
 -1       226 9.53560E-05-2.85896E-05-2.86133E-05-9.34537E-08-2.27261E-19 2.46783E-18
 -1       227 9.52825E-05-2.85713E-05-2.85899E-05-3.44676E-08 1.57017E-18 2.38771E-18
 -1       228 9.52459E-05-2.85653E-05-2.85769E-05 7.76232E-09-3.46829E-19 2.65786E-18
 -1       229 9.93384E-05-2.85083E-05-3.05363E-05 7.12628E-06 1.18779E-18 3.83861E-18
 -1       230 9.43408E-05-2.77658E-05-2.85023E-05 2.65629E-06 8.21979E-19 2.93878E-18
 -1       231 9.21270E-05-2.74037E-05-2.76931E-05 8.19341E-07 6.03130E-19 2.18309E-18
 -1       232 9.13201E-05-2.72793E-05-2.74185E-05-8.45671E-08 4.68909E-19 1.71483E-18
 -1       233 9.13032E-05-2.73257E-05-2.74047E-05-5.75044E-07 3.09255E-19 1.53241E-18
 -1       234 9.17547E-05-2.74864E-05-2.75360E-05-8.62068E-07-1.90514E-19 1.49290E-18
 -1       235 9.25025E-05-2.77222E-05-2.77585E-05-1.04828E-06 8.49076E-20 1.43451E-18
 -1       236 9.34571E-05-2.80117E-05-2.80450E-05-1.19066E-06 3.83031E-19 9.73946E-19
 -1       237 9.45772E-05-2.83457E-05-2.83828E-05-1.32284E-06 6.18685E-19 5.46686E-19
 -1       238 9.58488E-05-2.87227E-05-2.87669E-05-1.46313E-06 4.97157E-19 5.58842E-19
 -1       239 9.72706E-05-2.91452E-05-2.91959E-05-1.61651E-06 5.21811E-19 7.14009E-19
 -1       240 9.88405E-05-2.96159E-05-2.96678E-05-1.77347E-06-3.85261E-20 2.12193E-19
 -1       241 1.00541E-04-3.01341E-05-3.01753E-05-1.90664E-06 7.18268E-19-4.24544E-19
 -1       242 1.02322E-04-3.06908E-05-3.07009E-05-1.96642E-06 3.48049E-19-6.07735E-19
 -1       243 1.04081E-04-3.12619E-05-3.12109E-05-1.87774E-06 1.46175E-20-5.90334E-19
 -1       244 1.05646E-04-3.18014E-05-3.16511E-05-1.54270E-06-6.82546E-19-9.11551E-19
 -1       245 1.06769E-04-3.22334E-05-3.19461E-05-8.57366E-07 4.57974E-19 6.92929E-20
 -1       246 1.07136E-04-3.24496E-05-3.20079E-05 2.46484E-07-2.94723E-19-1.47412E-19
 -1       247 1.06427E-04-3.23178E-05-3.17570E-05 1.72825E-06-6.73191E-19-2.32741E-19
 -1       248 1.04442E-04-3.17179E-05-3.11602E-05 3.34934E-06-3.13516E-19 6.36674E-19
 -1       249 1.01268E-04-3.06168E-05-3.02730E-05 4.62886E-06-1.00302E-19 7.26456E-19
 -1       250 9.74421E-05-2.91661E-05-2.92617E-05 4.94802E-06 1.39223E-18 6.12253E-19
 -1       251 9.39461E-05-2.77494E-05-2.83802E-05 3.85867E-06 1.83925E-19-1.01441E-18
 -1       252 9.19102E-05-2.68773E-05-2.78874E-05 1.46051E-06-2.38638E-19-1.89114E-18
 -1       253 9.20845E-05-2.69228E-05-2.79387E-05-1.47633E-06-2.11798E-19-1.38337E-18
 -1       254 9.44126E-05-2.78711E-05-2.85187E-05-3.87320E-06 2.34987E-19-8.87545E-19
 -1       255 9.80622E-05-2.93285E-05-2.94485E-05-4.96532E-06 8.28233E-19-1.07809E-18
 -1       256 1.01892E-04-3.07817E-05-3.04637E-05-4.65669E-06 4.04908E-19-2.19904E-18
 -1       257 1.04969E-04-3.18595E-05-3.13237E-05-3.39569E-06-4.44765E-19-1.56476E-18
 -1       258 1.06829E-04-3.24287E-05-3.18828E-05-1.79878E-06-1.20429E-18-1.33925E-18
 -1       259 1.07444E-04-3.25376E-05-3.21046E-05-3.44554E-07-1.20861E-18-3.96865E-19
 -1       260 1.07051E-04-3.23154E-05-3.20340E-05 7.28050E-07-1.12911E-18-2.43357E-19
 -1       261 1.05980E-04-3.18985E-05-3.17545E-05 1.37667E-06-2.67377E-19 7.55634E-19
 -1       262 1.04547E-04-3.13963E-05-3.13541E-05 1.66796E-06 5.70654E-19 1.71293E-18
 -1       263 1.02993E-04-3.08838E-05-3.09066E-05 1.70481E-06 2.08339E-18-3.42537E-19
 -1       264 1.01487E-04-3.04061E-05-3.04643E-05 1.58487E-06 1.08674E-18-1.49134E-18
 -1       265 1.00125E-04-2.99866E-05-3.00593E-05 1.38411E-06-4.44582E-19-2.74481E-19
 -1       266 9.89536E-05-2.96336E-05-2.97078E-05 1.15470E-06 2.19994E-19 2.06228E-19
 -1       267 9.79844E-05-2.93465E-05-2.94151E-05 9.28854E-07-6.49701E-19 7.58193E-19
 -1       268 9.72081E-05-2.91199E-05-2.91793E-05 7.24107E-07-5.66362E-19 1.87888E-18
 -1       269 9.66038E-05-2.89456E-05-2.89951E-05 5.48174E-07-1.21394E-19 9.93893E-19
 -1       270 9.61464E-05-2.88152E-05-2.88550E-05 4.02617E-07 7.83983E-19 1.67550E-18
 -1       271 9.58103E-05-2.87203E-05-2.87518E-05 2.85402E-07 9.32011E-19 7.27328E-19
 -1       272 9.55721E-05-2.86537E-05-2.86784E-05 1.92575E-07 9.39426E-19-1.23341E-19
 -1       273 9.54115E-05-2.86093E-05-2.86289E-05 1.19407E-07 6.18273E-19 1.20865E-18
 -1       274 9.53119E-05-2.85820E-05-2.85982E-05 6.14965E-08 2.16066E-19 2.50170E-18
 -1       275 9.52588E-05-2.85682E-05-2.85813E-05 1.58228E-08-4.39313E-19 1.17937E-18
 -1       276 9.52394E-05-2.85690E-05-2.85721E-05-1.38171E-08-1.85210E-19 2.09513E-18
 -1       277 9.52443E-05-2.85619E-05-2.85778E-05 1.78496E-10 1.35399E-18 5.44856E-18
 -1       278 9.52372E-05-2.85288E-05-2.85892E-05 3.93219E-08 4.25826E-18 8.00081E-19
 -1       279 9.52164E-05-2.84714E-05-2.86050E-05 7.66405E-08 4.88358E-18-8.44424E-19
 -1       280 9.51886E-05-2.83978E-05-2.86246E-05 9.75388E-08 2.89890E-18-2.79933E-18
 -1       281 9.51597E-05-2.83214E-05-2.86451E-05 9.77603E-08 1.28544E-18-3.96866E-18
 -1       282 9.51340E-05-2.82532E-05-2.86634E-05 7.79228E-08 4.94757E-23-1.11376E-18
 -1       283 9.51166E-05-2.82069E-05-2.86759E-05 4.23720E-08 1.22367E-18 2.26355E-19
 -1       284 9.51106E-05-2.81910E-05-2.86802E-05-1.69320E-09 3.12783E-18 2.67018E-18
 -1       285 9.51172E-05-2.82085E-05-2.86755E-05-4.56678E-08 9.58053E-19-1.70591E-18
 -1       286 9.51351E-05-2.82564E-05-2.86626E-05-8.08397E-08-7.88740E-19-5.46107E-18
 -1       287 9.51609E-05-2.83247E-05-2.86442E-05-9.96105E-08-2.43594E-18-3.34012E-18
 -1       288 9.51908E-05-2.84033E-05-2.86232E-05-9.79707E-08-3.93921E-18 1.80363E-18
 -1       289 9.52188E-05-2.84770E-05-2.86036E-05-7.47132E-08-3.56287E-18-8.65635E-19
 -1       290 9.52380E-05-2.85314E-05-2.85882E-05-3.69250E-08-2.00226E-18 3.88551E-19
 -1       291 9.52501E-05-2.85512E-05-2.85850E-05-1.26333E-08-9.72418E-19 2.63388E-18
 -1       292 1.23824E-05-4.60341E-05 1.14035E-05 9.12720E-06 1.61932E-18 1.82324E-18
 -1       293 2.67369E-05-4.09600E-05 3.79949E-06 2.51574E-05 1.37262E-18-8.82661E-19
 -1       294 5.55184E-05-3.75757E-05-9.14466E-06 3.73428E-05 9.25172E-19-7.57459E-19
 -1       295 8.85110E-05-2.94250E-05-2.56718E-05 4.52110E-05 6.02240E-19 1.46177E-18
 -1       296 1.35539E-04-3.18125E-05-4.34435E-05 4.35215E-05 4.47233E-19 2.47080E-18
 -1       297 1.74718E-04-3.17031E-05-5.88198E-05 3.94435E-05 1.06160E-18 6.59203E-19
 -1       298 1.95933E-04-3.17894E-05-6.75143E-05 1.72193E-05 2.21859E-18-6.11875E-19
 -1       299 2.11027E-04-3.64653E-05-7.12096E-05-3.12460E-06 2.33675E-18-1.59656E-18
 -1       300 1.97840E-04-3.45137E-05-6.66847E-05-2.65711E-05 3.23482E-18-2.77636E-18
 -1       301 1.64604E-04-3.11834E-05-5.51504E-05-3.98466E-05 3.15054E-18-3.47898E-18
 -1       302 1.25223E-04-3.02043E-05-3.99032E-05-4.62884E-05 3.59703E-18-4.56551E-18
 -1       303 8.41224E-05-3.21834E-05-2.28024E-05-4.35340E-05 3.72525E-18-4.27434E-18
 -1       304 5.47053E-05-3.99397E-05-7.53813E-06-3.84339E-05 3.10120E-18-2.30777E-18
 -1       305 2.36170E-05-4.26932E-05 5.57808E-06-2.12840E-05 3.02158E-18-3.06541E-18
 -1       306 1.10681E-05-4.44846E-05 1.14331E-05-7.43740E-06 6.44751E-19-3.39396E-18
 -1       307 1.29925E-05-4.68151E-05 1.13087E-05 7.27480E-06-1.36663E-18-5.50995E-18
 -1       308 2.64946E-05-4.39148E-05 4.46978E-06 1.95196E-05-4.17333E-18-4.18614E-18
 -1       309 5.23408E-05-3.74185E-05-8.36103E-06 3.28757E-05-5.48729E-18-5.20883E-18
 -1       310 9.56421E-05-3.69572E-05-2.56453E-05 4.22786E-05-4.73640E-18-4.62692E-18
 -1       311 1.36853E-04-3.23894E-05-4.37051E-05 4.56174E-05-5.50698E-18-5.18151E-18
 -1       312 1.76408E-04-3.49780E-05-5.84365E-05 3.14824E-05-3.99508E-18-5.24843E-18
 -1       313 2.07748E-04-3.72568E-05-6.94117E-05 2.04619E-05-3.12375E-18-4.61284E-18
 -1       314 2.17626E-04-3.84219E-05-7.27618E-05-1.11204E-06-3.01946E-18-1.04229E-18
 -1       315 1.98485E-04-3.42628E-05-6.73853E-05-1.92879E-05-3.64923E-18-3.71424E-19
 -1       316 1.70970E-04-3.41443E-05-5.63377E-05-4.02855E-05-2.73361E-18 2.62496E-18
 -1       317 1.30068E-04-3.63015E-05-3.95926E-05-4.18749E-05-3.40550E-18 2.71771E-18
 -1       318 8.28633E-05-3.31786E-05-2.21174E-05-4.17190E-05-3.11200E-18 4.19260E-18
 -1       319 4.96320E-05-3.91810E-05-6.45913E-06-3.22623E-05-2.20906E-18 2.32669E-18
 -1       320 2.39809E-05-4.45990E-05 5.79639E-06-1.77823E-05-2.74439E-19 2.04140E-18
 -1       321 1.18831E-05-4.68308E-05 1.17852E-05-5.59168E-06 1.57072E-18 3.66024E-18
 -1       322 9.16760E-05-1.44356E-05-3.31805E-05-1.27733E-05-1.41763E-18-1.03853E-18
 -1       323 9.56903E-05-1.91110E-05-3.28816E-05-1.44583E-05-1.52991E-18-9.04208E-20
 -1       324 8.80455E-05-1.02798E-05-3.33829E-05-7.94975E-06-8.21567E-19-1.85613E-18
 -1       325 8.72011E-05-9.30985E-06-3.34299E-05-5.55210E-06-5.55264E-19-1.90773E-18
 -1       326 8.67121E-05-8.74199E-06-3.34600E-05-3.25916E-06-2.08990E-19-2.00900E-18
 -1       327 8.64890E-05-8.48139E-06-3.34745E-05-1.03560E-06 1.03532E-19-2.09358E-18
 -1       328 8.64968E-05-8.49124E-06-3.34737E-05 1.16507E-06 3.46661E-19-2.00093E-18
 -1       329 8.67371E-05-8.77348E-06-3.34574E-05 3.39108E-06 6.17089E-19-1.91105E-18
 -1       330 8.72366E-05-9.35506E-06-3.34259E-05 5.64945E-06 8.57815E-19-1.68943E-18
 -1       331 8.81045E-05-1.03545E-05-3.33764E-05 8.05039E-06 1.14736E-18-1.27428E-18
 -1       332 8.95353E-05-1.19858E-05-3.33018E-05 1.05442E-05 1.50120E-18-8.17857E-19
 -1       333 9.19418E-05-1.47111E-05-3.31795E-05 1.29577E-05 1.70930E-18-1.86301E-19
 -1       334 9.57803E-05-1.94533E-05-3.28187E-05 1.41981E-05 1.73810E-18 9.41318E-19
 -1       335 9.87047E-05-2.44248E-05-3.19216E-05 1.17585E-05 1.49840E-18 2.10903E-18
 -1       336 9.63688E-05-2.67957E-05-2.97871E-05 5.58526E-06 1.17119E-18 1.59170E-18
 -1       337 9.64606E-05-2.60118E-05-3.01475E-05-6.14005E-06-1.12676E-18 9.17170E-20
 -1       338 9.50268E-05-2.70121E-05-2.91232E-05-2.56393E-06-9.73580E-19 1.58015E-19
 -1       339 9.41700E-05-2.74182E-05-2.85925E-05-5.47816E-07-6.98894E-19 7.14585E-20
 -1       340 9.38148E-05-2.76471E-05-2.83499E-05 6.63711E-07-3.07235E-19-2.10236E-19
 -1       341 9.38452E-05-2.78262E-05-2.82896E-05 1.43795E-06-2.28535E-19-4.45247E-19
 -1       342 9.41612E-05-2.79948E-05-2.83541E-05 1.98665E-06-5.47358E-19-2.59114E-19
 -1       343 9.46974E-05-2.81661E-05-2.85108E-05 2.44300E-06-4.46921E-19-2.22590E-19
 -1       344 9.54191E-05-2.83476E-05-2.87421E-05 2.89779E-06-8.97582E-20-4.53746E-19
 -1       345 9.63161E-05-2.85474E-05-2.90403E-05 3.41633E-06-3.21785E-19-7.17129E-19
 -1       346 9.73958E-05-2.87781E-05-2.94034E-05 4.04506E-06-2.64722E-19-7.56158E-19
 -1       347 9.86788E-05-2.90597E-05-2.98319E-05 4.81067E-06-3.88611E-19-4.25082E-19
 -1       348 1.00195E-04-2.94248E-05-3.03252E-05 5.71178E-06 1.95792E-19-2.22341E-19
 -1       349 1.01984E-04-2.99274E-05-3.08768E-05 6.70080E-06 4.09256E-20 1.25593E-19
 -1       350 1.04091E-04-3.06557E-05-3.14702E-05 7.65276E-06-4.78836E-20-4.85015E-19
 -1       351 1.06576E-04-3.17436E-05-3.20739E-05 8.31983E-06-3.44995E-19-7.40907E-19
 -1       352 1.09504E-04-3.33648E-05-3.26423E-05 8.27967E-06-3.33509E-19-3.84955E-19
 -1       353 1.12910E-04-3.56611E-05-3.31290E-05 6.91246E-06-2.39629E-19 1.21978E-19
 -1       354 1.16665E-04-3.85215E-05-3.35228E-05 3.49741E-06-2.02633E-19 9.17095E-21
 -1       355 1.20169E-04-4.11449E-05-3.38996E-05-2.37294E-06 8.07080E-19-1.32498E-20
 -1       356 1.22030E-04-4.16805E-05-3.44804E-05-9.84395E-06 1.79519E-18-1.01005E-19
 -1       357 1.20678E-04-3.80910E-05-3.54553E-05-1.57142E-05 9.03533E-19 8.99443E-19
 -1       358 1.15874E-04-3.03265E-05-3.67430E-05-1.48087E-05-1.83833E-20 7.25464E-19
 -1       359 1.11627E-04-2.40224E-05-3.76740E-05-4.94070E-06-1.30951E-18-1.26699E-19
 -1       360 1.12425E-04-2.51732E-05-3.75201E-05 8.45062E-06-1.11202E-18-1.93178E-18
 -1       361 1.17405E-04-3.26494E-05-3.64087E-05 1.60326E-05-4.83384E-19-1.62900E-18
 -1       362 1.21463E-04-3.95312E-05-3.51654E-05 1.46132E-05-7.40468E-20-1.00325E-18
 -1       363 1.21876E-04-4.19021E-05-3.43090E-05 7.83001E-06 3.07787E-19-6.39414E-19
 -1       364 1.19397E-04-4.05425E-05-3.38286E-05 6.17755E-07 3.63528E-19-4.43703E-19
 -1       365 1.15765E-04-3.77177E-05-3.34782E-05-4.54040E-06-5.35446E-19 7.81909E-20
 -1       366 1.12133E-04-3.49825E-05-3.30828E-05-7.26962E-06-8.22093E-19 4.26782E-19
 -1       367 1.08931E-04-3.28928E-05-3.25957E-05-8.13348E-06-1.52650E-18 6.75582E-19
 -1       368 1.06225E-04-3.14561E-05-3.20446E-05-7.84641E-06-4.23670E-19 1.95502E-18
 -1       369 1.03968E-04-3.05090E-05-3.14788E-05-6.97510E-06 5.76795E-19 1.39348E-18
 -1       370 1.02096E-04-2.98873E-05-3.09411E-05-5.88931E-06 1.41113E-19-5.74707E-19
 -1       371 1.00555E-04-2.94721E-05-3.04584E-05-4.79976E-06-1.11052E-18-2.69533E-19
 -1       372 9.93015E-05-2.91876E-05-3.00434E-05-3.81058E-06 1.25037E-19-3.62172E-19
 -1       373 9.82941E-05-2.89880E-05-2.96979E-05-2.96236E-06 3.13948E-20-2.19539E-18
 -1       374 9.74964E-05-2.88460E-05-2.94177E-05-2.26112E-06 5.66619E-19-5.68305E-19
 -1       375 9.68742E-05-2.87445E-05-2.91953E-05-1.69598E-06 4.32896E-19 1.38585E-18
 -1       376 9.63967E-05-2.86723E-05-2.90223E-05-1.24909E-06 5.52352E-19 3.31398E-18
 -1       377 9.60364E-05-2.86217E-05-2.88901E-05-9.00881E-07 2.31431E-18 2.22164E-18
 -1       378 9.57695E-05-2.85868E-05-2.87911E-05-6.32629E-07 1.91118E-18 2.92836E-18
 -1       379 9.55758E-05-2.85632E-05-2.87186E-05-4.27561E-07 7.50080E-19 3.94017E-18
 -1       380 9.54385E-05-2.85478E-05-2.86666E-05-2.71344E-07-5.96231E-19 5.20060E-18
 -1       381 9.53440E-05-2.85390E-05-2.86300E-05-1.52695E-07-2.50995E-19 4.60958E-18
 -1       382 9.52867E-05-2.85409E-05-2.86050E-05-6.99628E-08 6.82752E-19 2.13040E-18
 -1       383 9.44395E-05-2.73375E-05-2.87194E-05 2.26981E-06 8.74783E-19 1.31737E-18
 -1       384 9.33564E-05-2.74793E-05-2.82105E-05 4.72702E-07 6.61999E-19 9.87112E-19
 -1       385 9.29700E-05-2.75902E-05-2.80090E-05-5.54014E-07 3.32904E-19 9.00914E-19
 -1       386 9.30553E-05-2.77316E-05-2.79905E-05-1.17372E-06-1.70680E-20 5.75989E-19
 -1       387 9.34619E-05-2.79101E-05-2.80904E-05-1.57917E-06 1.65557E-19 1.33545E-19
 -1       388 9.40976E-05-2.81225E-05-2.82727E-05-1.87962E-06 5.54740E-19 4.41543E-19
 -1       389 9.49114E-05-2.83677E-05-2.85167E-05-2.14005E-06 6.95630E-19 2.89197E-19
 -1       390 9.58784E-05-2.86489E-05-2.88108E-05-2.39669E-06 3.07707E-19 4.74672E-19
 -1       391 9.69888E-05-2.89734E-05-2.91478E-05-2.66230E-06 5.21491E-19 7.67133E-19
 -1       392 9.82376E-05-2.93519E-05-2.95213E-05-2.92559E-06 3.81321E-19 6.92099E-19
 -1       393 9.96149E-05-2.97963E-05-2.99220E-05-3.14728E-06 1.11457E-18 3.82259E-20
 -1       394 1.01094E-04-3.03173E-05-3.03345E-05-3.25452E-06 3.69416E-19-6.84264E-20
 -1       395 1.02621E-04-3.09180E-05-3.07337E-05-3.13698E-06-2.46509E-19 2.50360E-19
 -1       396 1.04097E-04-3.15837E-05-3.10839E-05-2.65095E-06-4.80963E-19 1.14158E-18
 -1       397 1.05367E-04-3.22640E-05-3.13400E-05-1.64260E-06 8.01124E-21 7.36031E-19
 -1       398 1.06214E-04-3.28476E-05-3.14550E-05-5.42077E-09 2.93102E-19 1.00066E-18
 -1       399 1.06365E-04-3.31426E-05-3.13938E-05 2.21773E-06-8.31515E-19 1.86555E-19
 -1       400 1.05559E-04-3.28925E-05-3.11519E-05 4.70405E-06-6.13318E-19 7.98489E-19
 -1       401 1.03673E-04-3.18779E-05-3.07726E-05 6.76604E-06-5.25607E-20 1.27420E-18
 -1       402 1.00940E-04-3.01284E-05-3.03440E-05 7.46684E-06 1.27850E-18 8.72234E-19
 -1       403 9.80851E-05-2.81161E-05-2.99760E-05 6.05569E-06 1.02524E-18 6.77400E-19
 -1       404 9.61708E-05-2.66838E-05-2.97669E-05 2.56641E-06-1.18436E-19-1.15850E-19
 -1       405 9.60591E-05-2.65716E-05-2.97641E-05-1.89875E-06-2.90632E-19-6.36322E-19
 -1       406 9.78130E-05-2.78449E-05-2.99683E-05-5.65312E-06 8.54147E-21-5.35267E-19
 -1       407 1.00650E-04-2.98395E-05-3.03360E-05-7.44351E-06 8.72798E-19-3.26214E-19
 -1       408 1.03492E-04-3.16857E-05-3.07728E-05-7.05976E-06 5.53572E-19 5.31070E-19
 -1       409 1.05546E-04-3.28340E-05-3.11705E-05-5.16921E-06-3.28348E-19 4.86707E-19
 -1       410 1.06527E-04-3.31969E-05-3.14404E-05-2.72200E-06-7.61451E-19 1.02567E-18
 -1       411 1.06531E-04-3.29743E-05-3.15382E-05-4.63352E-07-1.02933E-18 3.99632E-19
 -1       412 1.05824E-04-3.24307E-05-3.14657E-05 1.22640E-06-1.00064E-18-5.12577E-19
 -1       413 1.04688E-04-3.17748E-05-3.12563E-05 2.26796E-06-1.15927E-18-3.63604E-19
 -1       414 1.03355E-04-3.11319E-05-3.09572E-05 2.75249E-06 1.11336E-18 2.97165E-19
 -1       415 1.01993E-04-3.05612E-05-3.06147E-05 2.83182E-06 2.73266E-18 7.06270E-19
 -1       416 1.00705E-04-3.00824E-05-3.02660E-05 2.65461E-06 9.18792E-19 1.14850E-18
 -1       417 9.95523E-05-2.96945E-05-2.99371E-05 2.33968E-06-5.36796E-19 1.59446E-18
 -1       418 9.85618E-05-2.93882E-05-2.96433E-05 1.97087E-06 1.29629E-19 1.37169E-18
 -1       419 9.77377E-05-2.91512E-05-2.93916E-05 1.60154E-06-1.47969E-18 9.86142E-19
 -1       420 9.70711E-05-2.89711E-05-2.91833E-05 1.26199E-06-4.39693E-19 2.83174E-18
 -1       421 9.65455E-05-2.88369E-05-2.90158E-05 9.66596E-07-3.92385E-19 1.79785E-18
 -1       422 9.61410E-05-2.87388E-05-2.88848E-05 7.19448E-07 9.07481E-19 1.03673E-18
 -1       423 9.58374E-05-2.86686E-05-2.87851E-05 5.18480E-07 1.07505E-18 1.94416E-18
 -1       424 9.56158E-05-2.86196E-05-2.87115E-05 3.58235E-07 5.73371E-19 2.18364E-18
 -1       425 9.54595E-05-2.85866E-05-2.86589E-05 2.31815E-07-4.61623E-19 3.59576E-18
 -1       426 9.53539E-05-2.85656E-05-2.86229E-05 1.32851E-07-4.06228E-19 3.73169E-18
 -1       427 9.52872E-05-2.85554E-05-2.85989E-05 5.72940E-08 4.38909E-19 4.77503E-18
 -1       428 9.52609E-05-2.85541E-05-2.85884E-05 2.43960E-08-4.11678E-19 5.56529E-18
 -1       429 9.52013E-05-2.83784E-05-2.86382E-05 1.75367E-07 1.66951E-18-2.06464E-18
 -1       430 9.52446E-05-2.84612E-05-2.86211E-05 1.32335E-07 1.05920E-18-6.00042E-21
 -1       431 9.52614E-05-2.85171E-05-2.86044E-05 7.61339E-08 1.15476E-19 3.83205E-18
 -1       432 9.51526E-05-2.82922E-05-2.86545E-05 1.87315E-07 1.18429E-18-6.31063E-18
 -1       433 9.51062E-05-2.82119E-05-2.86691E-05 1.64928E-07 1.84368E-18-2.22262E-18
 -1       434 9.50704E-05-2.81506E-05-2.86802E-05 1.12039E-07 2.10366E-18 1.40307E-19
 -1       435 9.50509E-05-2.81172E-05-2.86862E-05 3.84699E-08 6.81448E-19 2.58017E-18
 -1       436 9.50509E-05-2.81170E-05-2.86863E-05-4.24464E-08-5.60316E-20-1.49202E-18
 -1       437 9.50705E-05-2.81500E-05-2.86805E-05-1.16021E-07-1.76284E-18-3.92948E-18
 -1       438 9.51062E-05-2.82104E-05-2.86698E-05-1.67845E-07-4.07566E-19-5.49283E-18
 -1       439 9.51536E-05-2.82914E-05-2.86552E-05-1.89497E-07-8.87597E-19 5.30319E-19
 -1       440 9.52041E-05-2.83803E-05-2.86386E-05-1.75379E-07-5.36472E-19 8.87227E-19
 -1       441 9.52483E-05-2.84652E-05-2.86211E-05-1.28663E-07-4.96965E-19-3.57874E-19
 -1       442 6.19462E-05-4.00412E-05-9.13440E-06 4.50744E-05-2.20440E-19-1.08796E-18
 -1       443 1.37282E-05-1.86350E-05 2.31642E-06 2.11477E-06 1.04741E-18 2.16470E-18
 -1       444 2.23682E-05-2.45532E-05 9.64317E-07 2.56203E-05-1.14434E-18-1.28887E-18
 -1       445 1.01821E-04-5.34692E-05-2.06503E-05 4.12152E-05-2.47545E-19-5.61106E-19
 -1       446 1.29827E-04-5.42236E-05-3.24865E-05 2.74405E-05-1.24413E-18 1.31491E-18
 -1       447 8.94218E-05-1.18509E-05-3.33105E-05-1.04285E-05-1.13820E-18-1.71848E-18
 -1       448 1.56337E-04-2.49094E-05-5.62721E-05 7.33621E-07 1.67501E-18-1.41920E-18
 -1       449 1.51428E-04-1.05551E-05-6.04779E-05-1.68759E-06 2.32256E-18-1.66124E-18
 -1       450 1.55682E-04-1.33623E-05-6.09627E-05 1.73823E-06 2.68901E-18-1.39602E-19
 -1       451 1.57853E-04-2.78607E-05-5.55121E-05-3.53197E-06 2.02335E-18 1.79253E-19
 -1       452 1.47317E-04-4.39250E-05-4.42171E-05-1.51684E-05 1.71604E-18-7.54389E-19
 -1       453 1.24611E-04-5.21660E-05-3.10455E-05-3.20905E-05 7.28766E-19-1.26367E-18
 -1       454 9.44006E-05-5.06741E-05-1.88057E-05-4.25324E-05 4.53057E-19-1.21671E-18
 -1       455 4.85582E-05-3.70212E-05-5.05496E-06-4.10626E-05-3.30237E-19-1.37357E-18
 -1       456 2.20851E-05-2.76413E-05 2.09478E-06-2.59545E-05 3.75871E-19-3.29115E-18
 -1       457 1.16488E-05-2.30545E-05 4.55982E-06 2.44179E-06-7.78350E-19-5.24006E-18
 -1       458 2.62012E-05-3.02241E-05 1.38395E-06 2.71949E-05-3.87094E-19-4.80236E-18
 -1       459 5.96402E-05-4.20881E-05-7.61287E-06 4.16759E-05-5.25902E-19-2.54978E-18
 -1       460 9.49859E-05-5.36087E-05-1.79490E-05 4.07766E-05-8.68738E-19-2.64137E-18
 -1       461 1.36938E-04-5.63079E-05-3.45074E-05 2.39898E-05-2.33352E-18-2.23585E-18
 -1       462 1.53934E-04-4.64457E-05-4.60212E-05 8.71472E-06-3.11165E-18-2.44613E-18
 -1       463 1.60591E-04-2.65889E-05-5.72626E-05-3.98640E-06-3.32746E-18-1.94638E-18
 -1       464 1.67707E-04-1.77004E-05-6.38015E-05-1.07913E-06-3.21693E-18-2.43347E-18
 -1       465 1.64199E-04-1.68605E-05-6.27579E-05 2.04170E-06-3.65855E-18-2.04018E-18
 -1       466 1.62207E-04-3.21287E-05-5.55529E-05 3.66546E-07-2.68568E-18-1.21285E-18
 -1       467 1.53506E-04-4.78385E-05-4.51832E-05-9.50279E-06-1.97991E-18-1.30041E-18
 -1       468 1.26838E-04-5.72099E-05-2.99413E-05-2.94732E-05-3.63483E-19 8.22151E-19
 -1       469 9.18291E-05-5.18818E-05-1.72974E-05-4.10396E-05-3.05461E-19 2.08489E-18
 -1       470 5.32122E-05-3.94381E-05-6.01785E-06-4.02791E-05 1.54340E-18 2.23209E-18
 -1       471 2.28719E-05-2.85957E-05 2.13853E-06-2.40956E-05 1.85744E-18 2.02610E-18
 -1       472 1.51337E-04-3.96811E-05-4.77099E-05 9.85889E-06 7.24081E-20-6.70215E-19
 -1       473 8.02277E-05-4.67494E-05-1.41100E-05-4.45067E-05-7.51106E-19-3.96385E-19
 -1       474 9.58830E-05-2.51152E-05-3.03148E-05 5.74675E-06 1.12560E-18 2.86764E-19
 -1       475 8.94607E-05-1.31236E-05-3.27347E-05-3.74130E-06-3.81906E-19-1.73003E-18
 -1       476 9.02172E-05-1.41489E-05-3.26217E-05-5.63826E-06-6.00820E-19-1.66330E-18
 -1       477 8.89103E-05-1.23852E-05-3.28139E-05 5.27354E-08 1.79845E-19-1.80623E-18
 -1       478 8.90590E-05-1.25853E-05-3.27922E-05 1.94565E-06 4.70747E-19-1.84156E-18
 -1       479 8.94902E-05-1.31665E-05-3.27290E-05 3.81424E-06 6.13063E-19-1.64180E-18
 -1       480 9.02646E-05-1.42179E-05-3.26123E-05 5.70512E-06 1.06803E-18-1.21927E-18
 -1       481 9.14613E-05-1.58699E-05-3.24193E-05 7.50024E-06 1.28295E-18-9.53882E-19
 -1       482 9.32791E-05-1.84085E-05-3.21075E-05 9.01656E-06 1.49065E-18-4.58141E-19
 -1       483 9.52477E-05-2.65310E-05-2.94317E-05 2.51241E-06 9.02905E-19 7.99851E-20
 -1       484 9.55467E-05-2.43651E-05-3.04960E-05-5.49138E-06-1.06026E-18-6.23527E-19
 -1       485 1.35801E-04-1.74848E-05-5.12899E-05 9.87023E-06 1.11030E-18-3.47125E-19
 -1       486 1.39403E-04-5.23436E-05-3.75585E-05 2.94217E-06-1.14664E-18-2.38900E-18
 -1       487 9.54038E-05-2.61198E-05-2.96846E-05-2.45594E-06-7.24728E-19-5.72030E-19
 -1       488 9.51386E-05-2.70285E-05-2.91863E-05-4.21384E-07-5.41034E-19-4.15404E-19
 -1       489 9.49743E-05-2.75169E-05-2.89083E-05 9.37569E-07-4.99191E-19-4.66080E-19
 -1       490 9.49651E-05-2.77930E-05-2.87868E-05 1.88725E-06-4.98513E-19-5.68972E-19
 -1       491 9.51001E-05-2.79455E-05-2.87795E-05 2.61684E-06-7.83974E-19-8.35130E-19
 -1       492 9.53579E-05-2.80186E-05-2.88586E-05 3.26050E-06-2.30187E-19-9.54292E-19
 -1       493 9.57209E-05-2.80382E-05-2.90056E-05 3.91612E-06-3.65839E-19-8.55214E-19
 -1       494 9.61791E-05-2.80245E-05-2.92075E-05 4.65518E-06-3.57254E-19-6.19952E-19
 -1       495 9.67324E-05-2.80021E-05-2.94539E-05 5.52646E-06-9.25705E-20-6.48326E-19
 -1       496 9.73929E-05-2.80096E-05-2.97334E-05 6.55378E-06 1.37890E-19 1.26030E-19
 -1       497 9.81940E-05-2.81160E-05-3.00310E-05 7.72717E-06-2.21877E-19-2.68139E-19
 -1       498 9.92081E-05-2.84435E-05-3.03257E-05 8.98542E-06-2.55759E-19-1.41030E-19
 -1       499 1.00578E-04-2.91987E-05-3.05908E-05 1.01872E-05-1.38463E-19 1.63833E-19
 -1       500 1.02562E-04-3.06989E-05-3.08010E-05 1.10667E-05-6.17778E-19 2.04367E-19
 -1       501 1.05560E-04-3.33522E-05-3.09540E-05 1.11690E-05-8.49239E-20-4.64000E-19
 -1       502 1.10063E-04-3.74884E-05-3.11181E-05 9.77858E-06-7.74622E-20 2.56816E-19
 -1       503 1.16353E-04-4.28622E-05-3.15180E-05 5.86992E-06 3.35133E-19 9.27751E-19
 -1       504 1.23660E-04-4.77355E-05-3.25587E-05-1.39466E-06 1.80872E-18 7.70999E-19
 -1       505 1.28373E-04-4.66712E-05-3.51582E-05-1.12681E-05 1.44966E-18 6.82791E-19
 -1       506 1.29057E-04-3.82576E-05-3.91328E-05-1.85781E-05-1.34281E-19 5.11171E-19
 -1       507 1.22174E-04-2.22869E-05-4.33127E-05-1.40525E-05-1.66191E-18-9.17459E-19
 -1       508 1.19622E-04-1.63028E-05-4.47504E-05 2.61762E-06-2.32153E-18-2.13734E-18
 -1       509 1.23988E-04-2.64338E-05-4.22844E-05 1.67058E-05-5.70662E-19-2.50266E-18
 -1       510 1.29430E-04-4.15267E-05-3.78194E-05 1.71725E-05-8.08268E-19-3.31231E-18
 -1       511 1.27815E-04-4.81768E-05-3.41868E-05 8.31577E-06 2.73785E-19-3.89289E-18
 -1       512 1.21585E-04-4.64793E-05-3.22047E-05-9.31536E-07 6.59546E-19-3.19563E-18
 -1       513 1.14473E-04-4.12517E-05-3.13951E-05-7.13185E-06 4.27527E-19-2.58783E-18
 -1       514 1.08725E-04-3.61353E-05-3.11198E-05-1.01423E-05-2.26449E-19-2.43298E-18
 -1       515 1.04732E-04-3.24248E-05-3.09938E-05-1.09508E-05-8.15248E-19-1.22065E-18
 -1       516 1.02116E-04-3.01344E-05-3.08501E-05-1.04831E-05-1.33911E-18-2.88291E-19
 -1       517 1.00395E-04-2.88799E-05-3.06479E-05-9.37463E-06 6.28554E-21-9.73387E-19
 -1       518 9.92102E-05-2.82728E-05-3.03993E-05-8.01937E-06-9.39767E-19-1.38199E-18
 -1       519 9.83423E-05-2.80308E-05-3.01308E-05-6.64543E-06-3.62231E-19-1.15401E-19
 -1       520 9.76708E-05-2.79772E-05-2.98662E-05-5.37344E-06-1.22616E-18-9.65344E-19
 -1       521 9.71332E-05-2.80112E-05-2.96215E-05-4.25782E-06-1.74170E-18-2.25850E-18
 -1       522 9.66971E-05-2.80796E-05-2.94057E-05-3.31415E-06 7.02916E-19-2.94858E-18
 -1       523 9.63439E-05-2.81561E-05-2.92219E-05-2.53667E-06 1.96620E-18-2.42437E-18
 -1       524 9.60604E-05-2.82287E-05-2.90696E-05-1.90907E-06 2.55929E-18-7.94228E-19
 -1       525 9.58361E-05-2.82923E-05-2.89464E-05-1.41079E-06 7.40671E-19 8.31214E-19
 -1       526 9.56613E-05-2.83457E-05-2.88489E-05-1.02062E-06 2.10926E-18 4.35919E-19
 -1       527 9.55270E-05-2.83888E-05-2.87730E-05-7.18870E-07 1.53181E-18 5.36267E-19
 -1       528 9.54246E-05-2.84220E-05-2.87150E-05-4.87556E-07 1.06250E-18 7.29229E-19
 -1       529 9.53479E-05-2.84482E-05-2.86709E-05-3.12279E-07-1.74170E-18 1.02576E-18
 -1       530 9.45159E-05-2.76243E-05-2.86636E-05-7.98922E-07 4.78927E-19-1.87727E-19
 -1       531 9.45234E-05-2.78735E-05-2.85621E-05-1.64928E-06 3.31768E-19-4.86517E-19
 -1       532 9.47349E-05-2.80592E-05-2.85739E-05-2.25193E-06 3.23566E-19-5.81073E-19
 -1       533 9.51119E-05-2.82187E-05-2.86674E-05-2.72822E-06 3.79968E-19-4.27313E-19
 -1       534 9.56294E-05-2.83772E-05-2.88213E-05-3.15353E-06 2.04728E-19 2.23953E-19
 -1       535 9.62763E-05-2.85587E-05-2.90208E-05-3.56828E-06 3.41129E-19 2.59118E-19
 -1       536 9.70531E-05-2.87918E-05-2.92540E-05-3.98086E-06 6.63903E-19 1.39000E-20
 -1       537 9.79693E-05-2.91122E-05-2.95096E-05-4.36570E-06 9.27705E-19 6.02802E-20
 -1       538 9.90395E-05-2.95645E-05-2.97752E-05-4.65798E-06 5.27759E-19 2.23747E-19
 -1       539 1.00280E-04-3.01991E-05-3.00362E-05-4.74742E-06-2.27531E-19 4.28207E-19
 -1       540 1.01699E-04-3.10608E-05-3.02769E-05-4.47546E-06-7.55321E-19 7.54185E-19
 -1       541 1.03278E-04-3.21615E-05-3.04841E-05-3.64480E-06 4.34197E-20 8.22963E-19
 -1       542 1.04935E-04-3.34287E-05-3.06536E-05-2.05614E-06 2.95978E-20 1.11601E-18
 -1       543 1.06474E-04-3.46324E-05-3.07984E-05 4.04566E-07-5.29207E-19 1.64346E-18
 -1       544 1.07535E-04-3.53269E-05-3.09548E-05 3.60990E-06-6.72541E-19 1.32301E-18
 -1       545 1.07629E-04-3.48996E-05-3.11726E-05 6.98958E-06-3.34082E-20 1.00522E-18
 -1       546 1.06360E-04-3.28718E-05-3.14937E-05 9.40685E-06 6.88006E-19 3.64002E-19
 -1       547 1.03900E-04-2.94820E-05-3.18907E-05 9.42596E-06 7.16149E-19 1.44582E-18
 -1       548 1.01291E-04-2.60386E-05-3.22449E-05 6.18428E-06 1.51755E-18 7.78952E-19
 -1       549 1.00024E-04-2.43910E-05-3.24157E-05 4.07105E-07 7.35185E-19-1.09934E-18
 -1       550 1.01022E-04-2.56749E-05-3.22835E-05-5.56004E-06-5.11942E-21-1.83815E-18
 -1       551 1.03545E-04-2.89730E-05-3.19519E-05-9.23976E-06 2.88286E-19-9.69270E-19
 -1       552 1.06127E-04-3.24716E-05-3.15646E-05-9.65545E-06 1.21693E-19-7.06081E-21
 -1       553 1.07608E-04-3.47193E-05-3.12432E-05-7.50827E-06-5.97886E-19 1.60197E-18
 -1       554 1.07712E-04-3.53439E-05-3.10237E-05-4.21937E-06-1.16923E-18 2.25113E-18
 -1       555 1.06789E-04-3.47648E-05-3.08772E-05-9.94941E-07-5.55186E-19 2.28066E-18
 -1       556 1.05336E-04-3.35994E-05-3.07528E-05 1.51861E-06-3.64768E-19 3.84306E-19
 -1       557 1.03739E-04-3.23251E-05-3.06120E-05 3.14348E-06-2.15881E-18 8.01913E-19
 -1       558 1.02218E-04-3.12019E-05-3.04388E-05 3.97194E-06 3.10533E-19 7.94709E-19
 -1       559 1.00867E-04-3.03198E-05-3.02356E-05 4.19909E-06 1.99572E-18 3.86074E-19
 -1       560 9.97109E-05-2.96759E-05-3.00148E-05 4.02706E-06 8.43581E-19 1.41995E-18
 -1       561 9.87442E-05-2.92296E-05-2.97908E-05 3.62427E-06 9.51642E-19 1.70997E-18
 -1       562 9.79479E-05-2.89325E-05-2.95764E-05 3.11484E-06 3.21328E-19 5.69443E-19
 -1       563 9.73010E-05-2.87421E-05-2.93807E-05 2.58196E-06-3.21195E-19 6.34929E-19
 -1       564 9.67822E-05-2.86248E-05-2.92087E-05 2.07628E-06-1.58598E-18 4.65970E-19
 -1       565 9.63721E-05-2.85563E-05-2.90625E-05 1.62485E-06 4.87124E-19 1.83529E-18
 -1       566 9.60527E-05-2.85192E-05-2.89417E-05 1.23876E-06 9.25807E-19 1.15682E-18
 -1       567 9.58078E-05-2.85016E-05-2.88445E-05 9.18984E-07 9.24545E-19 9.51283E-19
 -1       568 9.56230E-05-2.84952E-05-2.87682E-05 6.60552E-07-2.00069E-19 1.65882E-18
 -1       569 9.54859E-05-2.84949E-05-2.87098E-05 4.55579E-07-1.35455E-18 4.82413E-18
 -1       570 9.53856E-05-2.84973E-05-2.86658E-05 2.95561E-07-9.63510E-19 5.25178E-18
 -1       571 9.53136E-05-2.85031E-05-2.86326E-05 1.72081E-07-7.81705E-19 5.72268E-18
 -1       572 9.50825E-05-2.81597E-05-2.86812E-05 2.70762E-07 3.15727E-18-2.81228E-18
 -1       573 9.50129E-05-2.80694E-05-2.86902E-05 2.10160E-07 2.36873E-18-1.85304E-18
 -1       574 9.52418E-05-2.83801E-05-2.86551E-05 2.56356E-07-4.38525E-19-9.62361E-19
 -1       575 9.51635E-05-2.82678E-05-2.86696E-05 2.86588E-07-2.68011E-19-3.62641E-18
 -1       576 9.49660E-05-2.80091E-05-2.86960E-05 1.14387E-07 6.73905E-19-5.37804E-19
 -1       577 9.49491E-05-2.79869E-05-2.86982E-05-8.74813E-10-6.23352E-19 5.85852E-19
 -1       578 9.49650E-05-2.80060E-05-2.86969E-05-1.16639E-07-5.92570E-19-2.84135E-18
 -1       579 9.50108E-05-2.80630E-05-2.86920E-05-2.12048E-07 4.68586E-19-3.55281E-18
 -1       580 9.50814E-05-2.81529E-05-2.86837E-05-2.73837E-07 1.33298E-18-4.12383E-18
 -1       581 9.51650E-05-2.82636E-05-2.86721E-05-2.89479E-07 2.96207E-19 6.66015E-19
 -1       582 9.52458E-05-2.83789E-05-2.86571E-05-2.57033E-07-1.31627E-18-2.19799E-19
 -1       583 9.82300E-05-5.09925E-05-1.99007E-05 3.88195E-05-1.65754E-18-2.52100E-18
 -1       584 2.83512E-05-1.61334E-05-4.61919E-06-1.68344E-05 5.95570E-20 2.50023E-18
 -1       585 9.47560E-05-2.72366E-05-2.89277E-05 4.88850E-07 6.59841E-19 2.04959E-20
 -1       586 2.81946E-05-1.44286E-05-5.26734E-06 1.60110E-05-3.86141E-19-1.32735E-18
 -1       587 1.25564E-04-5.96895E-05-2.81860E-05 2.40784E-05-2.29750E-18-7.82817E-19
 -1       588 1.41013E-04-3.33308E-05-4.66179E-05-8.45106E-06 2.11758E-22-2.72972E-18
 -1       589 4.80841E-05-2.75099E-05-8.31996E-06-3.41594E-05 1.20649E-18 1.65124E-18
 -1       590 5.20527E-05-2.99995E-05-8.95420E-06 3.61686E-05 1.23868E-18-2.96589E-18
 -1       591 1.37612E-04-5.60412E-05-3.51689E-05-1.01994E-05-4.83768E-19 4.68303E-19
 -1       592 8.90399E-05-1.25582E-05-3.27956E-05-1.84027E-06-7.21102E-20-1.81379E-18
 -1       593 9.46473E-05-2.07274E-05-3.16985E-05-9.16425E-06-1.27239E-18-7.85118E-19
 -1       594 1.42146E-04-3.78654E-05-4.50889E-05 6.45811E-06 1.40745E-18 1.23206E-18
 -1       595 1.26154E-04-7.37184E-06-5.16110E-05 2.43425E-06 1.42286E-18 7.38222E-19
 -1       596 2.87184E-05-1.68065E-05-4.51036E-06 1.84367E-05-2.29096E-19-4.16359E-18
 -1       597 1.33304E-04-1.43609E-05-5.15670E-05-9.48010E-06 1.46748E-18-1.00077E-18
 -1       598 1.23466E-04-5.89928E-05-2.76161E-05-2.68815E-05-9.01084E-19 9.42324E-20
 -1       599 4.36899E-05-2.68348E-05-6.71624E-06-3.57388E-05-1.32539E-18-1.75092E-18
 -1       600 1.40638E-04-1.70206E-05-5.35369E-05-9.82574E-06-2.90098E-18-1.05469E-18
 -1       601 2.55309E-05-1.42798E-05-4.16850E-06-1.35469E-05-1.13427E-18-4.69944E-18
 -1       602 9.02262E-05-4.99702E-05-1.69369E-05 4.02192E-05 1.05106E-18-1.66238E-18
 -1       603 1.25758E-04-6.20188E-05-2.73097E-05 2.38575E-05 6.20055E-19-9.53044E-19
 -1       604 1.45170E-04-5.79775E-05-3.77757E-05 3.30747E-06-8.80597E-19-3.44160E-19
 -1       605 1.46441E-04-3.87004E-05-4.64860E-05-1.31847E-05-2.05109E-18-9.12307E-19
 -1       606 1.37690E-04-1.13245E-05-5.48405E-05 6.18340E-07-3.22529E-18-1.79181E-18
 -1       607 1.38100E-04-2.09089E-05-5.08048E-05 1.37329E-05-2.21478E-18-3.73618E-18
 -1       608 1.46729E-04-4.14306E-05-4.55211E-05 1.17081E-05-1.55465E-18-3.96152E-18
 -1       609 1.42959E-04-5.93436E-05-3.59845E-05-6.98236E-06-5.98720E-19-2.47799E-18
 -1       610 1.17751E-04-6.05054E-05-2.44676E-05-3.05831E-05 1.27966E-18 7.06108E-19
 -1       611 8.49352E-05-4.75261E-05-1.56768E-05-4.08683E-05 2.87795E-18 2.14577E-18
 -1       612 5.30087E-05-2.89223E-05-9.85579E-06 3.84484E-05-1.61587E-18-1.55335E-18
 -1       613 9.61759E-05-2.31735E-05-3.12902E-05 9.36941E-06 1.47320E-18 5.68491E-19
 -1       614 9.13871E-05-1.57659E-05-3.24320E-05-7.42562E-06-8.82867E-19-1.53468E-18
 -1       615 9.53079E-05-2.84655E-05-2.86464E-05-2.16777E-07-1.79614E-18 2.27304E-18
 -1       616 3.34103E-05-1.11673E-05-8.94031E-06-2.28959E-06-4.27060E-19 2.03669E-18
 -1       617 9.28291E-05-1.78655E-05-3.21475E-05-8.61060E-06-1.12166E-18-1.29118E-18
 -1       618 1.09700E-04-5.57903E-05-2.29115E-05-3.39349E-05-1.35359E-18-1.29509E-19
 -1       619 6.84330E-05-3.68637E-05-1.30980E-05-4.11201E-05-1.32529E-18-6.47610E-19
 -1       620 9.46304E-05-2.20649E-05-3.10988E-05-5.78421E-06-9.19913E-19-9.64897E-19
 -1       621 9.13456E-05-1.64035E-05-3.21236E-05 2.24670E-06 4.73647E-19-1.59378E-18
 -1       622 9.10484E-05-1.59588E-05-3.21865E-05 7.71014E-07 2.74556E-19-1.66189E-18
 -1       623 9.28340E-05-1.87267E-05-3.17658E-05 4.91166E-06 1.07466E-18-8.69352E-19
 -1       624 9.40066E-05-2.07629E-05-3.13980E-05 5.77281E-06 1.26918E-18-6.10774E-19
 -1       625 9.53420E-05-2.39819E-05-3.05728E-05 4.76490E-06 1.06661E-18-4.69169E-19
 -1       626 1.35030E-04-5.92087E-05-3.25287E-05 3.18224E-06 1.27540E-18 1.40774E-18
 -1       627 4.82191E-05-1.84672E-05-1.23236E-05 2.51984E-05-1.78160E-18-3.30004E-18
 -1       628 9.54870E-05-2.54624E-05-3.00122E-05-1.84806E-06-5.99610E-19-8.71622E-19
 -1       629 9.55543E-05-2.65822E-05-2.95586E-05-3.92355E-08-5.89218E-19-9.01122E-19
 -1       630 9.55149E-05-2.72122E-05-2.92722E-05 1.26489E-06-5.35742E-19-1.04276E-18
 -1       631 9.54559E-05-2.75238E-05-2.91135E-05 2.24724E-06-6.78945E-19-1.06949E-18
 -1       632 9.54052E-05-2.76186E-05-2.90511E-05 3.05346E-06-2.84424E-19-8.95479E-19
 -1       633 9.53658E-05-2.75566E-05-2.90607E-05 3.79907E-06-9.58712E-20-4.75099E-19
 -1       634 9.53303E-05-2.73773E-05-2.91223E-05 4.57278E-06-2.78541E-19-3.13437E-19
 -1       635 9.52899E-05-2.71143E-05-2.92175E-05 5.44066E-06-3.01779E-19-2.32617E-19
 -1       636 9.52409E-05-2.68087E-05-2.93274E-05 6.44846E-06-9.11812E-22-5.33378E-19
 -1       637 9.51964E-05-2.65263E-05-2.94292E-05 7.62166E-06-3.27053E-19-6.23368E-19
 -1       638 9.52065E-05-2.63828E-05-2.94949E-05 8.96338E-06 1.33759E-19-1.65320E-19
 -1       639 9.53948E-05-2.65794E-05-2.94915E-05 1.04493E-05 3.03291E-19-3.73565E-20
 -1       640 9.60186E-05-2.74500E-05-2.93863E-05 1.20149E-05-5.26342E-19 1.73940E-19
 -1       641 9.75539E-05-2.95049E-05-2.91649E-05 1.35202E-05-8.69358E-19 2.98427E-19
 -1       642 1.00785E-04-3.34156E-05-2.88724E-05 1.46444E-05 2.43064E-19-1.84924E-20
 -1       643 1.06736E-04-3.97421E-05-2.87028E-05 1.46390E-05 4.41773E-19-4.81518E-20
 -1       644 1.16404E-04-4.83032E-05-2.91489E-05 1.18224E-05 1.56652E-18 9.03632E-19
 -1       645 1.35499E-04-5.33228E-05-3.54484E-05 5.82718E-06-3.32851E-19-3.86273E-18
 -1       646 1.25676E-04-5.33198E-05-3.10087E-05-5.02992E-06 9.59563E-19-3.92807E-18
 -1       647 1.14336E-04-4.56651E-05-2.94250E-05-1.15611E-05 1.12931E-18-3.40354E-18
 -1       648 1.05929E-04-3.79376E-05-2.91390E-05-1.37739E-05-3.48644E-20-2.72507E-18
 -1       649 1.00774E-04-3.23840E-05-2.93114E-05-1.36588E-05-3.51849E-19-2.67043E-18
 -1       650 9.79811E-05-2.90501E-05-2.95421E-05-1.25215E-05-8.31219E-19-3.05388E-18
 -1       651 9.66096E-05-2.73290E-05-2.96910E-05-1.09966E-05-7.52896E-19-2.70462E-18
 -1       652 9.59989E-05-2.66171E-05-2.97338E-05-9.38125E-06-9.06786E-19-3.80453E-18
 -1       653 9.57515E-05-2.64702E-05-2.96907E-05-7.82394E-06-3.36110E-19-3.58141E-18
 -1       654 9.56557E-05-2.66053E-05-2.95918E-05-6.39975E-06-8.88103E-19-3.36698E-18
 -1       655 9.56107E-05-2.68579E-05-2.94644E-05-5.14393E-06-2.10055E-18-3.82227E-18
 -1       656 9.55750E-05-2.71401E-05-2.93284E-05-4.06729E-06-1.35319E-19-2.02817E-18
 -1       657 9.55359E-05-2.74085E-05-2.91968E-05-3.16530E-06 8.58172E-19-2.52458E-18
 -1       658 9.54924E-05-2.76450E-05-2.90769E-05-2.42432E-06 2.62563E-18-2.70642E-18
 -1       659 9.54472E-05-2.78442E-05-2.89723E-05-1.82594E-06 1.96601E-18-3.44077E-18
 -1       660 9.54032E-05-2.80066E-05-2.88839E-05-1.35002E-06 1.43080E-18-1.70440E-18
 -1       661 9.53623E-05-2.81359E-05-2.88111E-05-9.76288E-07 1.63129E-18-1.93512E-18
 -1       662 9.53252E-05-2.82359E-05-2.87523E-05-6.88255E-07 1.06955E-18-3.08770E-18
 -1       663 9.52919E-05-2.83124E-05-2.87053E-05-4.67008E-07 6.81953E-20-1.43322E-18
 -1       664 9.53106E-05-2.77545E-05-2.89521E-05-2.02965E-06 4.20965E-19-8.62779E-19
 -1       665 9.53243E-05-2.74173E-05-2.91021E-05-1.09687E-06 5.95839E-19-8.07801E-19
 -1       666 9.55327E-05-2.80479E-05-2.89217E-05-3.33677E-06-8.69121E-20-1.00110E-19
 -1       667 9.57754E-05-2.81220E-05-2.89939E-05-3.88966E-06 1.64470E-19-4.01560E-19
 -1       668 9.61190E-05-2.82157E-05-2.91010E-05-4.43593E-06 4.38584E-19-7.44129E-21
 -1       669 9.65888E-05-2.83881E-05-2.92286E-05-4.97904E-06 5.57306E-19 5.06184E-19
 -1       670 9.72274E-05-2.87124E-05-2.93634E-05-5.48581E-06 5.07837E-19 1.22076E-18
 -1       671 9.80986E-05-2.92796E-05-2.94940E-05-5.88008E-06-2.75818E-20 1.50145E-18
 -1       672 9.92876E-05-3.01930E-05-2.96127E-05-6.03424E-06-6.11013E-19 1.31992E-18
 -1       673 1.00890E-04-3.15451E-05-2.97209E-05-5.76207E-06-4.79327E-19 1.00754E-18
 -1       674 1.02978E-04-3.33637E-05-2.98374E-05-4.81990E-06-4.03962E-19 1.65873E-18
 -1       675 1.05520E-04-3.55085E-05-3.00088E-05-2.93514E-06-2.23579E-19 1.59253E-18
 -1       676 1.08250E-04-3.75189E-05-3.03177E-05 9.31466E-08-3.82452E-19 1.12216E-18
 -1       677 1.10537E-04-3.85099E-05-3.08744E-05 4.15695E-06-3.64422E-19 1.33030E-18
 -1       678 1.11430E-04-3.73090E-05-3.17656E-05 8.46236E-06 5.96498E-19 1.38771E-18
 -1       679 1.10052E-04-3.30945E-05-3.29947E-05 1.12341E-05 1.26235E-18 1.29904E-18
 -1       680 1.06808E-04-2.68752E-05-3.42831E-05 1.02261E-05 1.62875E-18 7.62270E-19
 -1       681 1.03832E-04-2.20053E-05-3.50796E-05 4.49927E-06 1.48334E-18 4.01113E-19
 -1       682 1.03539E-04-2.15272E-05-3.51604E-05-3.54178E-06 1.09516E-18 8.07646E-19
 -1       683 1.06326E-04-2.60059E-05-3.44405E-05-9.76184E-06-8.98421E-19 6.05212E-19
 -1       684 1.09706E-04-3.22984E-05-3.31856E-05-1.14357E-05-1.14982E-18 1.28406E-18
 -1       685 1.11383E-04-3.68510E-05-3.19533E-05-9.09589E-06-8.02001E-19 2.84151E-18
 -1       686 1.10803E-04-3.84521E-05-3.10112E-05-4.89953E-06-1.11102E-18 2.73112E-18
 -1       687 1.08654E-04-3.76747E-05-3.04220E-05-7.89158E-07-5.16110E-19 2.54670E-18
 -1       688 1.05954E-04-3.57275E-05-3.00996E-05 2.32835E-06 2.84593E-19 2.52430E-18
 -1       689 1.03382E-04-3.35468E-05-2.99318E-05 4.27804E-06 1.74842E-20 9.49862E-19
 -1       690 1.01254E-04-3.16551E-05-2.98296E-05 5.23342E-06-1.06290E-18-2.63163E-18
 -1       691 9.96198E-05-3.02257E-05-2.97411E-05 5.46850E-06 1.05859E-18-1.27250E-18
 -1       692 9.84154E-05-2.92469E-05-2.96438E-05 5.23457E-06 1.15756E-18 5.11217E-19
 -1       693 9.75443E-05-2.86337E-05-2.95328E-05 4.72965E-06 1.07436E-18 3.02680E-19
 -1       694 9.69171E-05-2.82873E-05-2.94123E-05 4.09672E-06 9.92947E-19 1.12626E-18
 -1       695 9.64636E-05-2.81209E-05-2.92891E-05 3.43190E-06-2.68400E-19 9.09013E-19
 -1       696 9.61327E-05-2.80681E-05-2.91700E-05 2.79511E-06-1.18051E-18 1.07587E-18
 -1       697 9.58891E-05-2.80814E-05-2.90599E-05 2.21994E-06-6.92538E-19 2.95588E-19
 -1       698 9.57084E-05-2.81292E-05-2.89621E-05 1.72174E-06 4.77280E-19 4.93887E-20
 -1       699 9.55734E-05-2.81910E-05-2.88778E-05 1.30383E-06 1.51509E-18 6.57993E-19
 -1       700 9.54721E-05-2.82543E-05-2.88073E-05 9.62414E-07-6.77091E-19 1.08565E-18
 -1       701 9.53951E-05-2.83117E-05-2.87498E-05 6.89320E-07-1.73460E-18 7.50870E-19
 -1       702 9.53363E-05-2.83604E-05-2.87036E-05 4.75096E-07-2.20978E-18 3.09433E-19
 -1       703 9.52820E-05-2.83680E-05-2.86772E-05 3.56034E-07-1.49952E-18-4.33674E-19
 -1       704 9.48186E-05-2.78246E-05-2.87118E-05 8.28412E-08 3.48246E-19-4.33897E-19
 -1       705 9.52660E-05-2.83467E-05-2.86797E-05-3.51533E-07-7.83260E-19-1.60367E-18
 -1       706 9.49607E-05-2.79816E-05-2.87053E-05 3.43705E-07 1.66612E-18-3.85494E-18
 -1       707 9.48169E-05-2.78209E-05-2.87126E-05-7.91085E-08-1.13786E-18-2.04998E-18
 -1       708 9.48692E-05-2.78807E-05-2.87094E-05 2.31194E-07 1.22324E-18-1.90576E-18
 -1       709 9.53919E-05-2.68160E-05-2.93873E-05 2.08839E-07 7.28903E-19-6.56093E-19
 -1       710 9.48637E-05-2.78693E-05-2.87119E-05-2.27617E-07-1.48151E-19-1.21908E-18
 -1       711 9.49549E-05-2.79667E-05-2.87093E-05-3.44803E-07 1.35770E-18-4.00985E-18
 -1       712 9.50750E-05-2.80997E-05-2.87036E-05-4.06978E-07 1.45514E-18-7.12015E-19
 -1       713 9.51792E-05-2.82276E-05-2.86935E-05-3.98940E-07 4.61887E-19-2.31580E-18
 -1       714 7.57118E-05-3.51917E-05-1.69618E-05-3.42395E-05 1.37619E-18 4.73994E-19
 -1       715 4.65091E-05-1.86431E-05-1.14102E-05-2.37716E-05 3.48581E-19 5.75241E-19
 -1       716 1.31421E-04-6.08900E-05-3.02152E-05-1.29904E-05 1.06019E-18-1.85517E-18
 -1       717 9.53790E-05-2.79426E-05-2.89009E-05-2.74029E-06 1.29589E-19-6.82214E-19
 -1       718 1.20545E-04-1.42798E-05-4.60084E-05 9.71731E-06 1.24969E-18 1.83356E-18
 -1       719 9.51957E-05-2.40603E-05-3.04847E-05-3.61262E-06-6.63394E-19-8.64718E-19
 -1       720 1.29234E-04-2.86000E-05-4.35521E-05 1.34925E-05 9.30677E-19 8.59209E-19
 -1       721 1.39767E-04-5.09955E-05-3.82528E-05 9.28164E-06-2.60357E-19-4.02306E-18
 -1       722 4.90254E-05-1.98250E-05-1.20283E-05 2.54000E-05 1.19193E-18-1.92721E-18
 -1       723 1.17497E-04-1.15005E-05-4.59142E-05-6.25226E-06 6.76409E-19 1.49209E-18
 -1       724 9.54462E-05-2.57784E-05-2.98540E-05 2.08033E-06 8.70405E-19-5.70343E-19
 -1       725 9.19379E-05-1.73065E-05-3.19907E-05 3.65781E-06 7.32292E-19-1.05593E-18
 -1       726 1.33207E-04-4.12604E-05-3.96820E-05-9.55718E-06-7.17238E-19-1.47521E-18
 -1       727 9.19004E-05-1.72437E-05-3.20014E-05-3.60432E-06-3.97770E-19-1.49546E-18
 -1       728 4.49983E-05-1.83609E-05-1.08774E-05-2.54342E-05-2.09834E-18-2.13373E-18
 -1       729 1.28140E-04-5.75307E-05-3.03133E-05-1.25944E-05-4.27460E-19-1.90298E-19
 -1       730 7.84196E-05-3.53158E-05-1.81512E-05 3.47350E-05-2.18868E-18-1.05024E-18
 -1       731 1.09852E-04-5.45005E-05-2.36102E-05 2.88485E-05 1.54557E-18-1.35519E-18
 -1       732 3.45480E-05-1.11350E-05-9.50488E-06 2.11857E-06-6.24488E-19-4.00186E-18
 -1       733 7.79368E-05-3.81556E-05-1.66810E-05 3.61826E-05 1.54359E-18-1.41587E-18
 -1       734 1.26602E-04-2.46447E-05-4.41284E-05-1.36729E-05-3.80371E-20-9.64559E-20
 -1       735 1.33848E-04-4.72639E-05-3.73449E-05 5.88764E-06 1.06672E-18 1.03388E-18
 -1       736 1.06545E-04-5.33365E-05-2.26252E-05-3.08762E-05 2.80648E-18 1.44977E-18
 -1       737 9.10414E-05-1.59473E-05-3.21884E-05-7.19654E-07-1.69011E-20-1.50486E-18
 -1       738 4.52500E-05-1.23959E-05-1.36954E-05 1.11669E-05-2.02604E-18-3.28019E-18
 -1       739 9.27921E-05-1.86438E-05-3.17817E-05-4.87267E-06-6.13085E-19-1.30926E-18
 -1       740 9.50789E-05-2.81144E-05-2.86992E-05 4.03676E-07 9.38004E-19 3.52440E-19
 -1       741 1.12018E-04-1.21942E-05-4.30825E-05 1.91260E-06 1.26193E-18 2.13197E-18
 -1       742 9.51862E-05-2.82429E-05-2.86900E-05 4.00815E-07-7.08973E-19-2.16910E-18
 -1       743 1.03390E-04-4.81362E-05-2.35547E-05 2.80996E-05-1.48750E-18-1.68278E-18
 -1       744 1.21225E-04-5.58811E-05-2.79870E-05 1.76385E-05-2.36729E-18-1.52597E-18
 -1       745 9.57287E-05-4.77417E-05-2.03292E-05-3.60171E-05-1.28021E-18-2.81374E-19
 -1       746 6.19095E-05-2.68615E-05-1.46262E-05-3.26256E-05-2.14241E-18-9.16013E-19
 -1       747 1.32117E-04-5.43596E-05-3.35023E-05 3.43408E-06-1.52292E-18-2.13770E-18
 -1       748 9.13232E-05-1.63668E-05-3.21296E-05-2.19055E-06-3.05759E-19-1.62212E-18
 -1       749 4.52446E-05-1.27652E-05-1.35058E-05-1.12271E-05-1.99753E-18-2.45936E-18
 -1       750 1.25111E-04-1.42247E-05-4.81835E-05-5.73458E-06-2.65894E-18-1.76154E-18
 -1       751 9.46139E-05-2.24444E-05-3.09267E-05 3.42549E-06 9.92162E-19-5.13114E-19
 -1       752 1.17538E-04-2.39324E-05-4.04109E-05 1.33580E-05 1.32689E-18 1.31534E-18
 -1       753 9.56685E-05-2.61911E-05-2.97759E-05 4.03143E-07-4.97305E-19-1.11141E-18
 -1       754 9.56470E-05-2.68412E-05-2.94882E-05 1.54066E-06-6.59851E-19-8.80477E-19
 -1       755 9.54800E-05-2.71091E-05-2.93017E-05 2.44984E-06-3.70643E-19-5.16655E-19
 -1       756 9.52059E-05-2.70925E-05-2.91914E-05 3.23491E-06 1.66762E-20-7.21938E-19
 -1       757 9.48371E-05-2.68576E-05-2.91340E-05 3.98593E-06-4.90335E-20-7.97093E-19
 -1       758 9.43692E-05-2.64530E-05-2.91069E-05 4.77458E-06 2.13060E-20-3.57814E-19
 -1       759 9.37907E-05-2.59235E-05-2.90858E-05 5.65636E-06-2.25094E-19-2.88600E-20
 -1       760 9.30927E-05-2.53256E-05-2.90428E-05 6.67473E-06-3.08771E-19-2.10680E-19
 -1       761 9.22834E-05-2.47470E-05-2.89438E-05 7.86797E-06-7.41840E-20-6.80358E-19
 -1       762 9.14131E-05-2.43350E-05-2.87473E-05 9.28094E-06-3.53723E-19-1.33138E-18
 -1       763 9.06180E-05-2.43391E-05-2.84047E-05 1.09831E-05-1.83027E-19-1.66351E-18
 -1       764 9.01963E-05-2.51692E-05-2.78682E-05 1.30871E-05-4.55457E-19-1.51814E-18
 -1       765 9.07276E-05-2.74669E-05-2.71112E-05 1.57368E-05-3.51077E-19-4.42852E-19
 -1       766 9.32982E-05-3.22090E-05-2.61699E-05 1.90316E-05 3.08535E-19-2.82729E-19
 -1       767 9.95820E-05-4.02724E-05-2.52873E-05 2.24146E-05 1.80979E-18-1.91903E-19
 -1       768 9.49889E-05-4.22216E-05-2.23742E-05 2.82311E-05 1.53108E-18-1.18334E-18
 -1       769 1.24644E-04-3.81046E-05-3.72476E-05 1.21525E-05 5.30051E-19 9.49908E-19
 -1       770 1.10429E-04-4.94674E-05-2.60005E-05-2.12723E-05 1.64260E-18-3.70603E-19
 -1       771 9.95532E-05-3.85384E-05-2.60963E-05-2.02723E-05 1.21300E-18-1.01138E-18
 -1       772 9.39524E-05-3.12129E-05-2.68761E-05-1.74259E-05 3.17235E-19 7.18075E-20
 -1       773 9.16776E-05-2.70979E-05-2.76739E-05-1.45656E-05-1.04691E-18 5.92783E-19
 -1       774 9.11348E-05-2.50911E-05-2.83041E-05-1.21277E-05-1.63112E-18-2.57692E-18
 -1       775 9.14324E-05-2.43869E-05-2.87334E-05-1.00868E-05-1.21512E-18-2.85379E-18
 -1       776 9.20480E-05-2.44039E-05-2.89899E-05-8.35663E-06-1.58413E-20-3.22815E-18
 -1       777 9.27189E-05-2.47785E-05-2.91169E-05-6.86871E-06-8.16620E-19-4.02461E-18
 -1       778 9.33270E-05-2.52969E-05-2.91554E-05-5.58428E-06-4.14312E-19-2.66144E-18
 -1       779 9.38308E-05-2.58408E-05-2.91383E-05-4.48197E-06-2.79597E-19-8.60243E-19
 -1       780 9.42263E-05-2.63503E-05-2.90896E-05-3.54705E-06 6.85425E-20-1.71452E-18
 -1       781 9.45260E-05-2.67989E-05-2.90258E-05-2.76561E-06 1.36856E-18-2.58055E-18
 -1       782 9.47470E-05-2.71788E-05-2.89577E-05-2.12259E-06 2.87134E-18-3.20444E-18
 -1       783 9.49061E-05-2.74914E-05-2.88919E-05-1.60164E-06 2.20152E-18-2.09646E-18
 -1       784 9.50184E-05-2.77434E-05-2.88320E-05-1.18637E-06 1.67405E-18-1.28444E-18
 -1       785 9.50911E-05-2.79403E-05-2.87791E-05-8.58710E-07-7.58772E-20-2.64870E-18
 -1       786 9.51417E-05-2.80933E-05-2.87345E-05-6.04996E-07 1.05300E-18-3.26550E-18
 -1       787 9.46609E-05-2.76256E-05-2.87294E-05-2.04912E-07-1.84482E-18 1.43436E-19
 -1       788 9.54204E-05-2.76451E-05-2.90465E-05-4.35932E-06-9.99825E-20-2.15012E-20
 -1       789 9.54496E-05-2.76628E-05-2.90514E-05-3.71548E-06 1.34702E-19-2.22978E-19
 -1       790 9.56501E-05-2.77935E-05-2.90813E-05-5.70158E-06 8.26520E-20 3.12301E-19
 -1       791 9.60495E-05-2.81680E-05-2.90920E-05-6.37867E-06 1.10634E-19 6.73437E-19
 -1       792 9.67917E-05-2.89252E-05-2.90856E-05-6.98345E-06-2.01473E-19 9.41046E-19
 -1       793 9.80460E-05-3.02283E-05-2.90649E-05-7.39357E-06-5.29652E-19 4.38905E-19
 -1       794 1.00016E-04-3.22273E-05-2.90529E-05-7.40883E-06-8.12269E-19 4.35340E-19
 -1       795 1.02891E-04-3.49751E-05-2.91078E-05-6.71996E-06-4.22012E-19 6.35612E-19
 -1       796 1.06713E-04-3.82534E-05-2.93410E-05-4.89512E-06-5.45622E-19 1.14770E-18
 -1       797 1.11146E-04-4.12987E-05-2.99343E-05-1.44783E-06-5.46098E-19 1.09319E-18
 -1       798 1.15108E-04-4.24104E-05-3.11598E-05 3.90009E-06-3.13898E-20 7.59021E-19
 -1       799 1.16780E-04-3.96398E-05-3.30860E-05 9.80015E-06 4.19984E-19 7.36619E-19
 -1       800 1.09819E-04-2.15731E-05-3.79253E-05 1.00272E-05 1.71361E-18 1.34586E-18
 -1       801 1.13934E-04-3.01710E-05-3.60237E-05-1.31816E-05-1.19092E-18 1.81429E-18
 -1       802 1.16667E-04-3.87771E-05-3.34097E-05-1.03836E-05-1.33351E-18 1.61445E-18
 -1       803 1.15440E-04-4.23158E-05-3.13526E-05-4.59200E-06-1.15069E-18 2.25982E-18
 -1       804 1.11691E-04-4.14865E-05-3.00838E-05 6.98181E-07-8.09402E-19 2.74964E-18
 -1       805 1.07256E-04-3.85635E-05-2.94370E-05 4.28311E-06-3.67162E-20 2.59896E-18
 -1       806 1.03313E-04-3.52265E-05-2.91794E-05 6.23485E-06 1.09943E-18 1.14616E-18
 -1       807 1.00294E-04-3.23482E-05-2.91202E-05 6.95148E-06 1.42584E-18 2.23550E-19
 -1       808 9.81977E-05-3.02129E-05-2.91365E-05 6.90628E-06-1.22080E-19-1.09131E-18
 -1       809 9.68371E-05-2.87869E-05-2.91643E-05 6.42001E-06-2.97195E-20-9.17292E-19
 -1       810 9.60078E-05-2.79328E-05-2.91749E-05 5.70766E-06 1.60818E-19 1.27790E-20
 -1       811 9.55342E-05-2.74928E-05-2.91604E-05 4.90818E-06 2.16558E-20 2.74607E-18
 -1       812 9.52850E-05-2.73295E-05-2.91236E-05 4.10776E-06 5.50356E-19 3.29168E-18
 -1       813 9.51697E-05-2.73371E-05-2.90710E-05 3.35770E-06-3.52294E-19 2.17415E-18
 -1       814 9.51297E-05-2.74402E-05-2.90096E-05 2.68592E-06-2.31182E-19 2.77079E-19
 -1       815 9.51285E-05-2.75881E-05-2.89457E-05 2.10458E-06-1.66152E-19-6.41568E-19
 -1       816 9.51442E-05-2.77484E-05-2.88838E-05 1.61528E-06-1.03898E-18 5.59992E-19
 -1       817 9.51647E-05-2.79020E-05-2.88267E-05 1.21284E-06-7.32793E-19 2.59734E-18
 -1       818 9.51831E-05-2.80381E-05-2.87763E-05 8.90337E-07-9.88723E-19 1.25846E-18
 -1       819 9.51964E-05-2.81528E-05-2.87329E-05 6.35313E-07-9.71937E-20-6.17530E-19
 -1       820 9.51893E-05-2.81994E-05-2.87102E-05 5.08022E-07-9.10253E-19-1.94387E-18
 -1       821 9.28280E-05-1.91175E-05-3.15913E-05 1.05338E-06 2.48586E-19-1.40790E-18
 -1       822 9.47611E-05-2.77212E-05-2.87315E-05-3.91620E-07 3.08447E-19-3.76122E-19
 -1       823 9.46291E-05-2.75978E-05-2.87277E-05 9.62881E-09-1.51701E-18-2.61366E-18
 -1       824 9.49140E-05-2.78726E-05-2.87322E-05-5.19969E-07 1.63729E-18-3.23416E-18
 -1       825 5.00368E-05-1.36701E-05-1.52300E-05 1.20132E-05 2.79461E-19-1.67784E-18
 -1       826 9.54687E-05-2.76578E-05-2.90617E-05-5.01965E-06 1.88019E-20 2.82377E-19
 -1       827 8.88806E-05-3.58810E-05-2.26173E-05 2.60663E-05-1.19897E-18-1.42247E-18
 -1       828 9.36710E-05-2.01811E-05-3.14957E-05-5.52489E-06-8.81331E-19-1.19884E-18
 -1       829 9.56629E-05-2.71170E-05-2.93767E-05-1.40438E-06 3.63283E-19-4.75304E-19
 -1       830 4.82406E-05-1.29524E-05-1.47655E-05-1.04288E-05-1.38013E-19 9.83485E-19
 -1       831 9.54644E-05-2.50241E-05-3.01880E-05-1.07286E-06-6.20689E-19-1.01274E-18
 -1       832 1.15010E-04-2.05649E-05-4.07128E-05-1.18410E-05-1.00718E-19 1.76293E-18
 -1       833 6.60645E-05-2.30205E-05-1.82127E-05-2.40971E-05 5.65957E-19 4.86475E-19
 -1       834 1.25877E-04-4.98044E-05-3.26681E-05 1.60780E-06 4.72532E-19 1.23796E-18
 -1       835 6.68420E-05-2.26856E-05-1.86839E-05 2.43869E-05 3.38350E-20-1.76197E-18
 -1       836 7.08825E-05-2.79359E-05-1.81186E-05 2.83754E-05 1.39467E-18-1.74235E-18
 -1       837 8.93977E-05-3.69138E-05-2.22887E-05-2.72529E-05 3.45689E-19 4.89923E-19
 -1       838 1.21936E-04-3.11167E-05-3.90948E-05-1.39333E-05-5.62337E-19 1.30635E-18
 -1       839 9.52255E-05-2.42243E-05-3.04286E-05 2.90519E-06 9.47613E-19-5.06969E-19
 -1       840 1.18320E-04-5.51415E-05-2.70120E-05-2.04209E-05-7.97839E-19-5.28476E-19
 -1       841 9.56543E-05-2.64298E-05-2.96681E-05-2.11443E-07 7.81391E-19-4.80094E-19
 -1       842 9.26881E-05-1.88870E-05-3.16302E-05 1.35443E-08-3.99306E-20-1.38325E-18
 -1       843 9.31962E-05-1.97346E-05-3.14844E-05-2.00542E-06-3.46592E-19-1.53890E-18
 -1       844 9.38376E-05-2.08869E-05-3.12653E-05 2.87495E-06 8.00980E-19-6.53602E-19
 -1       845 9.37846E-05-2.07970E-05-3.12826E-05-2.84222E-06-5.28526E-19-1.32386E-18
 -1       846 9.56005E-05-2.74789E-05-2.91949E-05-2.31311E-06 1.96312E-19-4.57801E-19
 -1       847 9.49291E-05-2.79021E-05-2.87258E-05 5.18535E-07-1.26412E-18-2.14438E-18
 -1       848 9.46697E-05-2.76406E-05-2.87269E-05 2.21071E-07 6.53451E-19-1.57414E-18
 -1       849 1.22751E-04-5.17896E-05-3.04295E-05-5.29328E-06-1.14470E-19 8.92066E-19
 -1       850 9.55190E-05-2.76324E-05-2.90942E-05-3.05393E-06-4.00420E-19-2.46375E-19
 -1       851 1.14370E-04-3.16677E-05-3.55278E-05 1.28596E-05 1.26927E-18 1.03057E-18
 -1       852 1.08895E-04-2.02660E-05-3.82004E-05-9.34778E-06-6.54465E-21 2.08884E-18
 -1       853 9.47746E-05-2.77461E-05-2.87265E-05 3.98387E-07 1.27511E-18-1.68333E-18
 -1       854 9.32148E-05-1.97772E-05-3.14752E-05 2.02655E-06 5.83627E-19-1.21758E-18
 -1       855 1.12915E-04-4.95526E-05-2.71275E-05 1.63394E-05-5.52494E-19-7.66122E-19
 -1       856 9.55436E-05-2.55757E-05-2.99877E-05 1.15506E-06 7.91243E-19-5.41953E-19
 -1       857 9.46832E-05-2.25765E-05-3.09033E-05-3.66007E-06-6.33936E-19-9.95564E-19
 -1       858 8.40234E-05-3.76692E-05-1.96649E-05-3.28558E-05-1.92439E-18-5.39825E-19
 -1       859 5.48150E-05-1.80403E-05-1.54338E-05-2.12661E-05-2.38787E-18-1.93986E-18
 -1       860 1.26898E-04-4.53704E-05-3.50534E-05-7.52138E-06-1.56863E-18 3.25201E-19
 -1       861 1.00577E-04-4.09082E-05-2.55502E-05 1.95700E-05 8.28652E-19-8.06124E-19
 -1       862 9.28136E-05-1.90922E-05-3.15960E-05-1.02511E-06-9.34105E-20-1.29198E-18
 -1       863 9.55042E-05-2.64654E-05-2.95881E-05 1.65551E-06-1.09827E-19-4.65457E-19
 -1       864 9.51681E-05-2.66201E-05-2.93777E-05 2.41276E-06-1.87113E-19-3.52595E-19
 -1       865 9.46359E-05-2.64493E-05-2.92228E-05 3.08967E-06-2.36931E-19-5.45212E-19
 -1       866 9.39183E-05-2.60194E-05-2.90995E-05 3.74787E-06 1.09709E-19-6.96091E-19
 -1       867 9.30073E-05-2.53840E-05-2.89814E-05 4.43897E-06-7.88272E-20-1.09388E-18
 -1       868 9.18831E-05-2.45946E-05-2.88379E-05 5.20503E-06-4.49164E-19-1.29576E-18
 -1       869 9.05209E-05-2.37132E-05-2.86318E-05 6.08736E-06-2.42289E-19-9.56684E-19
 -1       870 8.89011E-05-2.28293E-05-2.83164E-05 7.14111E-06-5.59471E-19-1.02347E-18
 -1       871 8.70232E-05-2.20810E-05-2.78322E-05 8.46426E-06-3.63226E-19-9.21958E-19
 -1       872 8.49343E-05-2.16913E-05-2.71035E-05 1.02426E-05-2.78538E-19-7.28304E-19
 -1       873 8.27756E-05-2.20204E-05-2.60363E-05 1.28310E-05 3.24969E-19-8.17577E-19
 -1       874 8.10322E-05-2.37264E-05-2.45443E-05 1.66805E-05-5.97216E-20-1.96905E-19
 -1       875 5.44513E-05-1.28089E-05-1.76745E-05-1.68107E-06-5.14415E-19-1.74763E-18
 -1       876 9.50663E-05-2.80538E-05-2.87196E-05 5.33819E-07 1.50890E-19 2.80966E-19
 -1       877 9.46728E-05-2.75726E-05-2.87568E-05-6.13017E-07 3.48618E-19-2.61703E-18
 -1       878 8.28137E-05-2.75826E-05-2.35999E-05-2.10795E-05 3.88725E-20-1.58322E-19
 -1       879 8.29188E-05-2.37965E-05-2.53378E-05-1.57079E-05 1.82426E-19-1.75236E-18
 -1       880 8.43280E-05-2.21733E-05-2.66374E-05-1.21186E-05-1.62171E-18-9.50010E-19
 -1       881 8.60825E-05-2.18329E-05-2.75358E-05-9.68243E-06-1.96490E-18 9.62083E-19
 -1       882 8.78182E-05-2.21649E-05-2.81371E-05-7.89713E-06-1.92217E-18 1.70171E-19
 -1       883 8.93761E-05-2.28291E-05-2.85200E-05-6.49572E-06-1.37285E-18-9.89840E-19
 -1       884 9.06991E-05-2.36206E-05-2.87478E-05-5.33632E-06 6.35234E-20-1.88424E-18
 -1       885 9.17830E-05-2.44217E-05-2.88690E-05-4.35000E-06 2.41270E-19-2.16642E-18
 -1       886 9.26484E-05-2.51687E-05-2.89198E-05-3.50497E-06 2.02433E-19-1.70551E-18
 -1       887 9.33256E-05-2.58313E-05-2.89261E-05-2.78498E-06 1.61950E-18-4.74429E-19
 -1       888 9.38469E-05-2.63992E-05-2.89061E-05-2.17920E-06 7.17714E-19-3.97293E-20
 -1       889 9.42421E-05-2.68734E-05-2.88723E-05-1.67735E-06 2.49435E-18-3.25320E-18
 -1       890 9.45366E-05-2.72603E-05-2.88326E-05-1.26811E-06 1.72184E-18-4.71087E-18
 -1       891 9.47525E-05-2.75716E-05-2.87919E-05-9.37096E-07 1.34991E-18-2.93125E-18
 -1       892 9.43934E-05-2.74190E-05-2.87032E-05-7.10537E-06-2.03048E-19 5.66887E-19
 -1       893 9.42526E-05-2.69948E-05-2.88246E-05-6.17216E-06-2.26989E-19 6.83791E-19
 -1       894 9.62729E-05-3.00736E-05-2.83711E-05-9.02812E-06-8.35106E-19-6.94617E-20
 -1       895 9.86140E-05-3.27728E-05-2.82170E-05-9.73962E-06-9.19389E-19 6.57704E-20
 -1       896 1.02374E-04-3.65942E-05-2.81893E-05-9.82455E-06-1.00326E-18 2.89417E-19
 -1       897 1.07812E-04-4.13188E-05-2.84873E-05-8.57042E-06-5.86629E-19 3.81594E-19
 -1       898 1.14572E-04-4.57747E-05-2.94819E-05-5.01413E-06-7.14849E-20 6.88476E-19
 -1       899 1.24556E-04-5.20957E-05-3.10676E-05 3.99196E-06-1.75154E-18-1.35380E-18
 -1       900 1.08791E-04-4.19419E-05-2.86423E-05 7.97110E-06 2.49149E-19 7.99997E-19
 -1       901 1.02859E-04-3.69526E-05-2.82436E-05 9.50484E-06 1.29586E-18-3.27241E-20
 -1       902 9.88529E-05-3.29291E-05-2.82510E-05 9.44060E-06 2.02704E-18-1.44243E-19
 -1       903 9.63001E-05-3.00420E-05-2.83951E-05 8.70871E-06 1.03671E-18 2.07083E-19
 -1       904 9.48240E-05-2.81600E-05-2.85699E-05 7.68655E-06-3.88198E-19 2.73915E-19
 -1       905 9.40813E-05-2.70666E-05-2.87206E-05 6.59522E-06-4.12059E-19 4.58096E-19
 -1       906 9.38030E-05-2.65380E-05-2.88278E-05 5.54263E-06-1.42513E-18 8.12623E-19
 -1       907 9.37959E-05-2.63833E-05-2.88911E-05 4.57582E-06-5.14831E-19 1.21018E-18
 -1       908 9.39323E-05-2.64586E-05-2.89173E-05 3.71541E-06 1.58780E-19 1.55631E-18
 -1       909 9.41309E-05-2.66611E-05-2.89156E-05 2.96807E-06 5.13672E-19-2.63964E-19
 -1       910 9.43433E-05-2.69214E-05-2.88951E-05 2.33233E-06 3.71336E-19 1.06883E-18
 -1       911 9.45425E-05-2.71944E-05-2.88634E-05 1.80213E-06-1.30010E-18 7.78804E-19
 -1       912 9.47157E-05-2.74538E-05-2.88265E-05 1.36782E-06-1.64078E-18-4.32436E-19
 -1       913 9.48559E-05-2.76842E-05-2.87881E-05 1.01634E-06-8.50190E-20-1.54992E-18
 -1       914 1.15293E-04-4.61007E-05-2.96687E-05 4.03604E-06-2.15528E-19 2.35222E-18
 -1       915 9.44008E-05-2.73326E-05-2.87436E-05-1.24054E-07-1.03653E-18-1.28459E-20
 -1       916 9.49804E-05-2.83683E-05-2.85479E-05-8.08639E-06-1.75209E-19 1.34693E-19
 -1       917 7.85253E-05-2.55866E-05-2.26238E-05 1.98473E-05 6.45857E-19-1.61017E-18
 -1       918 9.49470E-05-2.71050E-05-2.90751E-05-3.84205E-06-9.60013E-20-1.09781E-19
 -1       919 9.45923E-05-2.25171E-05-3.08906E-05-2.23611E-06-5.31863E-19-1.11480E-18
 -1       920 6.15914E-05-1.63351E-05-1.92613E-05-1.37783E-05-1.05782E-19-3.78895E-19
 -1       921 9.56036E-05-2.58907E-05-2.98771E-05 7.40903E-07-3.03819E-19-8.82051E-19
 -1       922 9.54029E-05-2.47816E-05-3.02663E-05-3.98852E-07-6.54701E-19-9.33609E-19
 -1       923 6.77454E-05-1.98016E-05-2.04313E-05 1.76001E-05 2.83476E-19-9.23081E-19
 -1       924 9.44890E-05-2.74089E-05-2.87486E-05-3.92610E-07 8.81689E-19 1.23357E-18
 -1       925 5.45845E-05-1.23621E-05-1.79327E-05 1.76286E-06-1.81422E-18-1.82235E-18
 -1       926 9.56964E-05-2.61228E-05-2.98174E-05-6.18661E-07 6.84483E-19-4.70180E-19
 -1       927 1.06227E-04-4.84503E-05-2.46545E-05-2.48234E-05-1.51579E-18-5.96470E-19
 -1       928 6.43773E-05-1.75348E-05-1.99787E-05 1.51969E-05-8.29910E-21-1.05035E-18
 -1       929 9.50469E-05-2.36882E-05-3.05839E-05 1.66485E-06 8.29732E-19-6.37519E-19
 -1       930 7.16987E-05-2.72008E-05-1.88808E-05-2.75225E-05-2.02970E-18-9.76880E-19
 -1       931 9.44108E-05-2.73467E-05-2.87419E-05 1.60649E-07-1.34552E-18-4.41616E-18
 -1       932 6.48448E-05-1.54824E-05-2.10743E-05 8.07556E-06 3.83583E-19-9.19995E-19
 -1       933 8.06265E-05-2.79948E-05-2.24458E-05 2.27083E-05 1.02859E-18-3.78429E-19
 -1       934 9.52577E-05-2.71795E-05-2.91764E-05-3.15899E-06-3.13275E-19-4.41130E-19
 -1       935 9.41744E-05-2.17703E-05-3.10302E-05 8.72410E-07 3.79282E-19-1.00997E-18
 -1       936 9.39531E-05-2.13548E-05-3.11135E-05 3.01208E-07 1.92610E-20-1.13646E-18
 -1       937 9.54493E-05-2.49263E-05-3.02228E-05 6.75091E-07 7.85745E-19-7.12238E-19
 -1       938 9.43745E-05-2.69004E-05-2.89174E-05-5.32029E-06-2.68221E-20-1.70210E-19
 -1       939 9.49679E-05-2.78789E-05-2.87522E-05 7.40060E-07-1.16661E-18-8.56873E-19
 -1       940 1.21180E-04-4.66592E-05-3.19651E-05-2.84901E-06-1.03092E-18 2.78670E-18
 -1       941 9.46328E-05-2.69771E-05-2.89953E-05-4.55005E-06 1.57222E-19-8.64909E-20
 -1       942 9.56867E-05-2.67942E-05-2.95254E-05-1.62667E-06 1.69750E-19-5.35083E-19
 -1       943 8.93202E-05-3.16159E-05-2.47140E-05 1.88574E-05 9.06959E-19 4.86725E-19
 -1       944 5.82312E-05-1.47648E-05-1.84526E-05-1.02348E-05-8.13410E-19-9.40465E-19
 -1       945 9.41543E-05-2.17298E-05-3.10390E-05-8.76617E-07-1.49321E-19-1.13666E-18
 -1       946 9.47006E-05-2.76217E-05-2.87483E-05 6.22475E-07 5.19472E-19-4.18983E-19
 -1       947 9.53237E-05-2.47231E-05-3.02575E-05 6.80214E-08-2.85172E-19-6.95962E-19
 -1       948 9.55197E-05-2.71079E-05-2.93193E-05-2.44448E-06-1.70485E-19-3.03240E-19
 -1       949 9.45499E-05-2.25089E-05-3.08718E-05-1.35391E-06-4.45582E-19-1.19208E-18
 -1       950 9.46405E-05-2.61217E-05-2.93651E-05 2.07147E-06-3.24517E-19-4.28054E-19
 -1       951 9.38396E-05-2.57785E-05-2.91691E-05 2.56349E-06-8.42902E-21-4.71579E-19
 -1       952 9.27842E-05-2.51580E-05-2.89828E-05 3.03488E-06 4.45825E-20-6.63494E-19
 -1       953 9.14594E-05-2.43171E-05-2.87755E-05 3.51288E-06-3.13992E-19-3.47302E-19
 -1       954 8.98290E-05-2.33057E-05-2.85102E-05 4.02117E-06-3.21159E-19-4.64786E-19
 -1       955 8.78402E-05-2.21809E-05-2.81400E-05 4.58938E-06-4.90611E-19-3.82531E-19
 -1       956 8.54147E-05-2.10073E-05-2.76034E-05 5.26971E-06-4.36873E-19-2.15027E-19
 -1       957 8.24343E-05-1.98612E-05-2.68168E-05 6.18194E-06-4.79847E-19-9.98586E-19
 -1       958 7.87358E-05-1.88575E-05-2.56597E-05 7.55054E-06 2.18307E-19-6.79256E-19
 -1       959 7.40716E-05-1.80997E-05-2.39801E-05 9.74316E-06 1.45737E-19-1.21256E-18
 -1       960 9.54033E-05-2.48242E-05-3.02488E-05 7.87953E-08 5.90644E-19-4.02581E-19
 -1       961 6.41933E-05-1.44445E-05-2.12614E-05-4.43488E-06-1.16321E-18-1.98410E-18
 -1       962 7.61945E-05-1.85608E-05-2.46920E-05-9.83750E-06-1.34966E-18-1.80070E-18
 -1       963 8.01608E-05-1.90668E-05-2.61842E-05-7.56921E-06-7.64331E-19-1.68659E-18
 -1       964 8.33368E-05-1.99261E-05-2.71768E-05-6.10814E-06-1.35174E-18-6.94980E-19
 -1       965 8.58965E-05-2.09416E-05-2.78380E-05-5.07301E-06-2.06930E-18 3.62108E-20
 -1       966 8.79621E-05-2.20003E-05-2.82693E-05-4.25468E-06-1.27143E-18 1.35479E-19
 -1       967 8.96234E-05-2.30288E-05-2.85406E-05-3.55692E-06-9.71249E-20-1.17888E-18
 -1       968 9.09521E-05-2.39827E-05-2.87012E-05-2.94258E-06 1.11158E-18-8.99005E-19
 -1       969 9.20040E-05-2.48345E-05-2.87870E-05-2.39940E-06 8.47594E-19-4.42543E-19
 -1       970 9.28294E-05-2.55751E-05-2.88233E-05-1.92432E-06 1.06868E-18-2.82348E-19
 -1       971 9.34691E-05-2.62030E-05-2.88283E-05-1.51604E-06 2.07908E-19 8.90923E-19
 -1       972 9.39599E-05-2.67250E-05-2.88149E-05-1.17369E-06 1.09717E-18-4.70087E-19
 -1       973 9.43263E-05-2.71472E-05-2.87910E-05-8.85987E-07 2.20469E-18-1.35970E-18
 -1       974 9.23742E-05-2.59436E-05-2.84702E-05-6.36911E-06 2.30189E-20-7.35879E-19
 -1       975 1.12341E-04-4.91971E-05-2.70278E-05-1.65804E-05-6.53165E-19-2.18165E-19
 -1       976 9.58683E-05-3.26333E-05-2.71001E-05-1.28954E-05-1.09272E-18-8.25061E-19
 -1       977 9.34680E-05-2.93466E-05-2.74811E-05-1.09617E-05-9.11364E-19-4.63478E-19
 -1       978 1.07312E-04-4.40169E-05-2.71358E-05-1.46233E-05-9.30952E-19-1.58692E-19
 -1       979 9.60523E-05-3.28642E-05-2.70878E-05 1.29176E-05 1.30907E-18 3.14596E-19
 -1       980 9.20715E-05-2.71233E-05-2.78353E-05 9.01082E-06 1.51101E-20 2.98145E-18
 -1       981 9.16243E-05-2.59026E-05-2.81671E-05 7.34679E-06-1.81755E-19 4.20709E-18
 -1       982 9.16816E-05-2.53687E-05-2.84201E-05 5.95142E-06-5.42257E-19 2.16822E-18
 -1       983 9.20072E-05-2.52739E-05-2.86002E-05 4.78495E-06-8.29508E-19 2.98262E-19
 -1       984 9.24564E-05-2.54494E-05-2.87175E-05 3.81561E-06 3.49188E-20 6.50716E-19
 -1       985 9.29369E-05-2.57722E-05-2.87850E-05 3.01459E-06 6.42567E-19 4.40882E-19
 -1       986 9.33952E-05-2.61590E-05-2.88156E-05 2.35554E-06 1.06629E-18-9.86587E-20
 -1       987 9.38047E-05-2.65571E-05-2.88204E-05 1.81787E-06-6.12816E-19-7.63495E-19
 -1       988 9.41534E-05-2.69327E-05-2.88089E-05 1.38505E-06-1.58683E-18 2.52299E-19
 -1       989 9.44379E-05-2.72659E-05-2.87877E-05 1.03912E-06-8.84200E-19 6.04539E-19
 -1       990 9.50116E-05-2.37796E-05-3.05294E-05-3.42621E-07-2.91259E-19-9.27440E-19
 -1       991 9.39446E-05-2.13403E-05-3.11161E-05-3.02423E-07-1.46134E-19-1.44451E-18
 -1       992 9.45186E-05-2.74490E-05-2.87441E-05 4.22076E-07-3.09415E-19-2.58221E-18
 -1       993 9.50230E-05-2.36804E-05-3.05731E-05 8.03631E-07 6.64471E-19-6.82646E-19
 -1       994 7.26350E-05-1.85741E-05-2.31367E-05-1.24670E-05-8.19033E-19-1.94015E-20
 -1       995 9.54277E-05-2.56929E-05-2.98869E-05 8.67951E-07 4.45568E-20-4.35017E-19
 -1       996 9.33587E-05-2.93169E-05-2.74500E-05 1.09176E-05 8.15360E-19 1.71812E-18
 -1       997 9.83584E-05-3.59274E-05-2.67528E-05 1.46570E-05 6.83066E-19-6.38706E-19
 -1       998 1.00335E-04-3.75833E-05-2.68836E-05-1.44851E-05-1.24454E-18-1.29610E-18
 -1       999 9.26783E-05-3.83695E-05-2.31650E-05-2.55998E-05-1.77585E-18-1.02841E-18
 -1      1000 9.42852E-05-2.19426E-05-3.10051E-05 1.48375E-06 7.29070E-19-8.23152E-19
 -1      1001 9.51863E-05-2.61297E-05-2.95960E-05 1.51894E-06-3.96104E-20-4.35511E-19
 -1      1002 6.77805E-05-2.03356E-05-2.02281E-05-1.83262E-05-1.64280E-18-1.47753E-18
 -1      1003 9.40931E-05-2.70014E-05-2.87536E-05 4.01729E-08 1.16573E-19-2.68754E-18
 -1      1004 6.68369E-05-1.55688E-05-2.19406E-05 6.58370E-06-1.03557E-19-3.82859E-19
 -1      1005 9.48176E-05-2.33259E-05-3.06380E-05 1.77934E-07 1.30443E-19-6.34910E-19
 -1      1006 9.55974E-05-2.59046E-05-2.98685E-05-8.87386E-07 3.96673E-19-1.63690E-19
 -1      1007 9.28650E-05-2.59356E-05-2.86840E-05-5.31268E-06-4.99153E-19-1.59550E-19
 -1      1008 9.41195E-05-2.69899E-05-2.87699E-05 7.50866E-07-3.96959E-19-2.99177E-18
 -1      1009 9.21415E-05-2.63432E-05-2.81994E-05-7.64678E-06 4.55865E-20-1.52940E-19
 -1      1010 1.00909E-04-4.17381E-05-2.53295E-05-2.03536E-05-1.46439E-18-1.44833E-18
 -1      1011 9.41386E-05-2.70322E-05-2.87597E-05-3.30582E-07 1.18100E-18 1.81980E-18
 -1      1012 9.46814E-05-2.66209E-05-2.91687E-05-3.01443E-06-2.95247E-19-9.84065E-19
 -1      1013 6.50538E-05-1.49293E-05-2.14120E-05-3.26208E-06-2.90506E-20-7.88788E-19
 -1      1014 9.47932E-05-2.32871E-05-3.06449E-05-2.09236E-07-2.58395E-19-1.32925E-18
 -1      1015 9.41011E-05-2.64055E-05-2.90125E-05-3.68411E-06-9.44485E-20-9.27106E-19
 -1      1016 9.23953E-05-2.73784E-05-2.78647E-05-9.18045E-06-4.03133E-19-2.67007E-19
 -1      1017 8.19280E-05-2.45894E-05-2.45734E-05 1.48857E-05 8.52520E-19-1.21557E-18
 -1      1018 7.39109E-05-1.98132E-05-2.31728E-05 1.25685E-05 3.02464E-19-1.08568E-18
 -1      1019 9.48843E-05-2.34047E-05-3.06332E-05 4.56188E-07 3.38344E-19-8.45496E-19
 -1      1020 9.54859E-05-2.64760E-05-2.95757E-05-1.67793E-06 5.58415E-20-3.85994E-19
 -1      1021 9.51592E-05-2.66773E-05-2.93494E-05-2.36602E-06-9.90921E-20-8.55399E-19
 -1      1022 8.96507E-05-2.93762E-05-2.58363E-05 1.50592E-05 7.62992E-19-8.78396E-19
 -1      1023 9.29752E-05-2.51766E-05-2.90566E-05 1.63939E-06-2.51795E-19-4.70329E-19
 -1      1024 9.16376E-05-2.44041E-05-2.88145E-05 1.84020E-06-3.28620E-19-1.10522E-18
 -1      1025 8.99839E-05-2.34228E-05-2.85267E-05 1.99268E-06-9.14960E-20-1.01871E-18
 -1      1026 8.79581E-05-2.22755E-05-2.81505E-05 2.09731E-06-3.12077E-19-3.97457E-20
 -1      1027 8.54793E-05-2.10135E-05-2.76290E-05 2.14242E-06-7.72217E-19-6.40712E-19
 -1      1028 8.24124E-05-1.96740E-05-2.68871E-05 2.12452E-06-8.51395E-19-5.37872E-19
 -1      1029 7.84858E-05-1.82236E-05-2.58206E-05 2.11148E-06 1.97535E-19-2.77476E-19
 -1      1030 7.33184E-05-1.66803E-05-2.42743E-05 2.12327E-06 1.26083E-19-7.28584E-19
 -1      1031 7.46972E-05-1.67844E-05-2.48058E-05-3.05454E-06-2.85807E-19-4.31780E-19
 -1      1032 8.86951E-05-2.56753E-05-2.70111E-05-1.00203E-05-2.35467E-19-8.61478E-19
 -1      1033 8.89877E-05-2.75850E-05-2.63204E-05-1.28891E-05-6.38243E-19-1.35034E-18
 -1      1034 8.34579E-05-2.98217E-05-2.29262E-05-2.19338E-05-1.91337E-18-7.07936E-19
 -1      1035 7.93474E-05-1.81827E-05-2.62134E-05-2.68867E-06-3.04447E-19-6.04736E-19
 -1      1036 8.28286E-05-1.94817E-05-2.71487E-05-2.47014E-06-6.71988E-19-1.05662E-19
 -1      1037 8.55381E-05-2.07261E-05-2.77767E-05-2.28163E-06-1.60003E-18 1.53697E-18
 -1      1038 8.76715E-05-2.18863E-05-2.81944E-05-2.06844E-06-1.39471E-18 1.54976E-18
 -1      1039 8.93832E-05-2.29702E-05-2.84633E-05-1.83044E-06 1.13379E-19 1.40319E-18
 -1      1040 9.07510E-05-2.39517E-05-2.86287E-05-1.57985E-06 5.92675E-19-9.95034E-19
 -1      1041 9.18360E-05-2.48161E-05-2.87232E-05-1.32617E-06 2.04536E-18-9.01670E-19
 -1      1042 9.26942E-05-2.55661E-05-2.87692E-05-1.08874E-06 1.93049E-18-5.94401E-19
 -1      1043 9.33622E-05-2.61987E-05-2.87843E-05-8.67510E-07 3.67737E-19 1.19607E-18
 -1      1044 9.38768E-05-2.67242E-05-2.87800E-05-6.77555E-07 6.86116E-19 7.87922E-19
 -1      1045 9.16676E-05-3.41302E-05-2.46412E-05-2.00006E-05-1.58452E-18-1.95206E-18
 -1      1046 8.99312E-05-2.39879E-05-2.82625E-05 4.63958E-06 3.60280E-19 2.05814E-18
 -1      1047 9.34743E-05-2.61388E-05-2.88582E-05-4.43695E-06-3.18564E-19-3.89523E-19
 -1      1048 8.91194E-05-2.39201E-05-2.79438E-05 6.00224E-06 3.97120E-19 1.89270E-18
 -1      1049 7.00375E-05-1.55918E-05-2.32988E-05-3.57910E-06-9.49858E-19-9.84998E-19
 -1      1050 9.40198E-05-2.56824E-05-2.92876E-05 1.39447E-06-2.43508E-19-6.79701E-19
 -1      1051 8.84729E-05-2.42797E-05-2.75116E-05 7.77420E-06-1.13630E-18 1.19638E-18
 -1      1052 9.07846E-05-2.43245E-05-2.84837E-05 3.58684E-06-1.84874E-19 7.85156E-19
 -1      1053 9.16042E-05-2.48058E-05-2.86284E-05 2.76704E-06 5.62966E-19 1.60676E-20
 -1      1054 9.23399E-05-2.53365E-05-2.87158E-05 2.12760E-06 1.06774E-18 1.44892E-18
 -1      1055 9.29813E-05-2.58714E-05-2.87614E-05 1.62296E-06 4.82428E-19 2.40793E-18
 -1      1056 9.35176E-05-2.63688E-05-2.87781E-05 1.23056E-06-1.10199E-18-1.14620E-19
 -1      1057 9.38365E-05-2.66907E-05-2.87770E-05 9.69774E-07-6.28473E-19-1.46026E-18
 -1      1058 9.47202E-05-2.31307E-05-3.06805E-05-2.06900E-08-9.74776E-20-1.06783E-18
 -1      1059 8.84165E-05-2.64150E-05-2.65754E-05 1.16920E-05 1.55409E-20-2.02097E-18
 -1      1060 8.82935E-05-2.51051E-05-2.70802E-05 9.53694E-06-1.19581E-18-9.31139E-19
 -1      1061 9.40474E-05-2.69457E-05-2.87577E-05 3.87137E-07-8.01049E-21-3.98107E-18
 -1      1062 8.96952E-05-3.01477E-05-2.55121E-05-1.61516E-05-3.59961E-19-1.77272E-18
 -1      1063 6.96103E-05-1.77197E-05-2.22049E-05-1.03856E-05-3.33223E-19-2.36000E-19
 -1      1064 9.52461E-05-2.46578E-05-3.02512E-05 1.77483E-07-1.10743E-19-1.15534E-18
 -1      1065 9.45943E-05-2.62122E-05-2.93066E-05-2.02908E-06-2.54638E-19-7.26238E-19
 -1      1066 7.44085E-05-1.73933E-05-2.44384E-05-3.13715E-06-5.49744E-20-3.59930E-19
 -1      1067 8.91442E-05-2.47894E-05-2.75819E-05-7.83940E-06-9.42538E-20-2.89178E-19
 -1      1068 8.30288E-05-2.28955E-05-2.57715E-05 1.07468E-05 4.48672E-19-6.91168E-19
 -1      1069 9.47777E-05-2.58664E-05-2.95340E-05 1.08517E-06-2.45101E-19-8.27134E-19
 -1      1070 9.51516E-05-2.44861E-05-3.02857E-05-1.12874E-07 4.27487E-20-6.96641E-19
 -1      1071 9.52432E-05-2.53960E-05-2.99341E-05 5.40504E-07 2.15317E-19-1.05858E-18
 -1      1072 7.77575E-05-1.96118E-05-2.49129E-05 8.53117E-06-7.40632E-19-6.27013E-19
 -1      1073 9.36743E-05-2.65679E-05-2.87588E-05 1.37937E-07 1.58074E-18-3.19531E-18
 -1      1074 9.38678E-05-2.59863E-05-2.90923E-05-2.58206E-06-1.37432E-19-7.51383E-19
 -1      1075 9.37106E-05-2.65925E-05-2.87652E-05-2.82784E-07 9.39610E-19 1.32928E-18
 -1      1076 9.53442E-05-2.48928E-05-3.01929E-05-2.89535E-07 3.42206E-19-3.84224E-19
 -1      1077 9.09822E-05-2.47614E-05-2.83800E-05-4.93147E-06 1.59760E-19-2.51159E-19
 -1      1078 8.99815E-05-2.45762E-05-2.80312E-05-6.18282E-06-1.28115E-19-2.98441E-19
 -1      1079 9.22164E-05-2.47506E-05-2.89143E-05 3.49870E-07-6.01561E-19-1.02937E-18
 -1      1080 9.51498E-05-2.45607E-05-3.02527E-05 8.12658E-08 1.83889E-20-1.28597E-18
 -1      1081 9.06867E-05-2.38839E-05-2.86272E-05 2.31204E-07-3.72761E-19-9.21787E-19
 -1      1082 8.88276E-05-2.28574E-05-2.82720E-05-3.16828E-08 1.11007E-19-1.39919E-18
 -1      1083 8.66098E-05-2.17346E-05-2.78038E-05-4.83714E-07-3.01123E-19-1.30526E-18
 -1      1084 8.39117E-05-2.05390E-05-2.71601E-05-1.19634E-06-6.00052E-20-6.60414E-19
 -1      1085 8.07479E-05-1.94201E-05-2.62841E-05-2.21746E-06-3.69387E-19 8.90815E-20
 -1      1086 8.37313E-05-2.31076E-05-2.59820E-05-1.00124E-05 8.78272E-20-2.94828E-19
 -1      1087 9.51224E-05-2.61727E-05-2.95501E-05-1.49630E-06 3.05677E-19-5.07507E-19
 -1      1088 7.94225E-05-2.41644E-05-2.36639E-05-1.61482E-05-1.09867E-18-7.74243E-19
 -1      1089 7.69821E-05-1.77467E-05-2.53849E-05 2.39914E-06-1.08085E-18 1.90457E-19
 -1      1090 8.09038E-05-1.89518E-05-2.65485E-05 1.27469E-06-3.57641E-19-2.44365E-19
 -1      1091 8.38112E-05-2.00591E-05-2.73221E-05 6.02082E-07 1.54483E-19-1.63252E-19
 -1      1092 8.62338E-05-2.12106E-05-2.78679E-05 1.28994E-07-8.27439E-20 8.19073E-19
 -1      1093 8.81671E-05-2.22958E-05-2.82318E-05-1.75123E-07-9.82674E-19 5.31129E-19
 -1      1094 8.97278E-05-2.33024E-05-2.84691E-05-3.31220E-07-8.79261E-19 8.92015E-20
 -1      1095 9.10179E-05-2.42321E-05-2.86198E-05-3.98664E-07 1.05755E-18 7.26125E-19
 -1      1096 9.20312E-05-2.50488E-05-2.87067E-05-3.99368E-07 1.97822E-18 2.34883E-19
 -1      1097 9.28361E-05-2.57534E-05-2.87497E-05-3.55335E-07 2.08060E-18-6.40423E-19
 -1      1098 8.47650E-05-2.73896E-05-2.45976E-05-1.65878E-05-7.13628E-19-1.68199E-18
 -1      1099 9.01687E-05-2.37767E-05-2.84527E-05 2.20431E-06 3.56464E-19 3.18482E-19
 -1      1100 8.41784E-05-2.23168E-05-2.65089E-05 8.30186E-06-2.50034E-18-1.11773E-19
 -1      1101 9.53988E-05-2.57795E-05-2.98378E-05-9.27879E-07 2.12295E-19-3.92438E-19
 -1      1102 7.24093E-05-1.65614E-05-2.39163E-05 3.89649E-06 1.44641E-19 6.46802E-19
 -1      1103 8.75793E-05-2.25227E-05-2.78814E-05 4.03302E-06 2.50372E-19-1.18696E-18
 -1      1104 8.61189E-05-2.21611E-05-2.74052E-05 5.46276E-06-3.97184E-19-2.21858E-18
 -1      1105 9.12155E-05-2.44731E-05-2.86015E-05 1.62248E-06 5.82266E-19 8.35801E-19
 -1      1106 9.21455E-05-2.51875E-05-2.86957E-05 1.18297E-06-1.73299E-20 6.67138E-19
 -1      1107 9.28690E-05-2.58047E-05-2.87420E-05 8.68189E-07 1.62648E-18-1.51977E-18
 -1      1108 9.34194E-05-2.53532E-05-2.91708E-05 3.90470E-07-3.07595E-19-1.10409E-18
 -1      1109 8.89531E-05-2.31008E-05-2.82217E-05 2.97616E-06 2.12928E-19-1.58308E-18
 -1      1110 9.36870E-05-2.65754E-05-2.87622E-05 5.61305E-07 8.47074E-20-2.33239E-18
 -1      1111 8.87281E-05-2.33566E-05-2.80170E-05-4.06729E-06 1.30015E-19-1.76294E-20
 -1      1112 9.19883E-05-2.51319E-05-2.86535E-05-3.97104E-06-7.03807E-19-3.79402E-19
 -1      1113 9.51541E-05-2.53636E-05-2.99104E-05 7.58544E-08 2.04795E-19-1.20227E-18
 -1      1114 9.46459E-05-2.58809E-05-2.94685E-05-1.03726E-06 1.13021E-19-9.78767E-20
 -1      1115 8.52755E-05-2.26377E-05-2.68477E-05-7.35255E-06 2.10276E-19-3.16349E-19
 -1      1116 8.02893E-05-1.98525E-05-2.59008E-05 6.25274E-06-8.46585E-19 2.75950E-19
 -1      1117 9.29953E-05-2.55975E-05-2.88833E-05-3.21332E-06-4.57671E-19-2.35507E-19
 -1      1118 9.43456E-05-2.56813E-05-2.94281E-05 3.54125E-07-1.55193E-19-1.01731E-18
 -1      1119 9.33172E-05-2.62132E-05-2.87575E-05 6.97771E-07 1.12041E-18-2.40620E-18
 -1      1120 8.70433E-05-2.28531E-05-2.75106E-05-5.42724E-06 4.45817E-20-4.26480E-20
 -1      1121 9.02696E-05-2.40001E-05-2.84017E-05-3.07719E-06-3.66304E-19 7.65248E-20
 -1      1122 9.38830E-05-2.57166E-05-2.92139E-05-1.39751E-06-4.52505E-19-7.98717E-20
 -1      1123 9.32761E-05-2.61849E-05-2.87541E-05 1.86610E-07 1.63150E-18-1.57179E-18
 -1      1124 9.50922E-05-2.56770E-05-2.97487E-05-6.07200E-07 1.64426E-19-4.07774E-19
 -1      1125 7.74219E-05-2.04543E-05-2.44100E-05-1.01828E-05-1.97466E-19 1.55761E-19
 -1      1126 9.16735E-05-2.45474E-05-2.87696E-05-1.23420E-06-5.17558E-19-2.54773E-20
 -1      1127 8.21939E-05-2.43277E-05-2.47888E-05-1.38278E-05-6.26908E-19-1.30830E-18
 -1      1128 9.13435E-05-2.45478E-05-2.86330E-05 4.66926E-07 1.27944E-18 6.37865E-19
 -1      1129 8.35668E-05-2.05484E-05-2.70269E-05 3.85438E-06-4.83180E-19-1.25295E-18
 -1      1130 9.24647E-05-2.54491E-05-2.87211E-05 3.48663E-07 2.03003E-18-1.21604E-18
 -1      1131 9.29826E-05-2.52243E-05-2.90404E-05-8.66333E-07-5.25520E-19-2.78348E-19
 -1      1132 8.00795E-05-2.04768E-05-2.55528E-05-7.39441E-06-2.47282E-19 3.49182E-20
 -1      1133 9.28637E-05-2.53224E-05-2.89469E-05-2.03629E-06-2.62604E-19 2.31076E-19
 -1      1134 1.16505E-04 2.56663E-10-4.17411E-05-4.13182E-05-1.65171E-19 5.81446E-18
 -1      1135 8.85289E-05 7.19481E-11-3.71973E-05-2.40544E-05-9.87852E-20 8.84091E-19
 -1      1136 8.40634E-05 4.15474E-11-3.57568E-05-1.77511E-05-6.71803E-20-1.30750E-18
 -1      1137 8.23861E-05 3.20748E-11-3.50915E-05-1.36960E-05-5.04514E-20-2.34309E-18
 -1      1138 8.16200E-05 2.72473E-11-3.47740E-05-1.03890E-05-2.32802E-20-2.84104E-18
 -1      1139 8.12310E-05 2.43715E-11-3.46172E-05-7.51104E-06-2.64301E-20-3.03412E-18
 -1      1140 8.10258E-05 2.25881E-11-3.45373E-05-4.88181E-06-9.23795E-21-3.10596E-18
 -1      1141 8.09230E-05 2.16062E-11-3.44988E-05-2.37923E-06 1.67090E-22-3.10695E-18
 -1      1142 8.08925E-05 2.13045E-11-3.44875E-05 5.31015E-08 2.91498E-21-3.03169E-18
 -1      1143 8.09254E-05 2.16493E-11-3.44995E-05 2.48786E-06 1.63252E-20-2.93659E-18
 -1      1144 8.10313E-05 2.26860E-11-3.45388E-05 4.99847E-06 2.06861E-20-2.78135E-18
 -1      1145 8.12422E-05 2.45275E-11-3.46198E-05 7.64341E-06 2.90109E-20-2.50530E-18
 -1      1146 8.16355E-05 2.75437E-11-3.47786E-05 1.05484E-05 4.30928E-20-2.08552E-18
 -1      1147 8.24060E-05 3.25324E-11-3.51000E-05 1.38988E-05 6.33422E-20-1.40721E-18
 -1      1148 8.40592E-05 4.20316E-11-3.57759E-05 1.79995E-05 7.59153E-20-1.55669E-19
 -1      1149 8.82298E-05 6.67922E-11-3.72674E-05 2.38970E-05 8.23740E-20 2.25168E-18
 -1      1150 1.06307E-04 1.63528E-10-4.05249E-05 3.60651E-05 1.64748E-19 7.08596E-18
 -1      1151 1.29744E-04-2.56662E-05-4.01434E-05-2.60051E-05-6.84403E-19 9.00227E-18
 -1      1152 9.71391E-05-2.87685E-05-3.14795E-05-6.74229E-07-2.69383E-19 7.40413E-18
 -1      1153 8.99354E-05-2.69612E-05-2.78242E-05 3.85669E-07-5.40910E-20 5.09453E-18
 -1      1154 8.81142E-05-2.65342E-05-2.66044E-05 2.48510E-07-5.83990E-20 3.54933E-18
 -1      1155 8.78715E-05-2.64432E-05-2.63850E-05 1.63313E-07-2.91598E-20 2.47045E-18
 -1      1156 8.83954E-05-2.65706E-05-2.65216E-05 1.15717E-07 1.49984E-20 1.91969E-18
 -1      1157 8.93224E-05-2.68289E-05-2.67993E-05 8.60588E-08 2.20890E-20 1.53445E-18
 -1      1158 9.04870E-05-2.71678E-05-2.71502E-05 6.66291E-08-4.46347E-21 1.30509E-18
 -1      1159 9.18203E-05-2.75629E-05-2.75531E-05 5.39705E-08-8.96006E-20 7.06478E-19
 -1      1160 9.33123E-05-2.80091E-05-2.80054E-05 4.67432E-08-4.34406E-20-6.56047E-19
 -1      1161 9.49948E-05-2.85146E-05-2.85172E-05 4.47319E-08 1.08598E-19-1.25001E-18
 -1      1162 9.69324E-05-2.90978E-05-2.91077E-05 4.84204E-08 1.76625E-19 1.65224E-19
 -1      1163 9.92154E-05-2.97852E-05-2.98035E-05 5.88237E-08 6.82259E-21-1.13873E-19
 -1      1164 1.01952E-04-3.06082E-05-3.06361E-05 7.73179E-08-5.31240E-20-8.54219E-19
 -1      1165 1.05251E-04-3.15981E-05-3.16354E-05 1.05192E-07 7.26364E-20 8.37371E-20
 -1      1166 1.09191E-04-3.27767E-05-3.28191E-05 1.42451E-07-5.97018E-20 2.19487E-19
 -1      1167 1.13759E-04-3.41377E-05-3.41724E-05 1.85066E-07 3.95049E-20-7.12831E-20
 -1      1168 1.18742E-04-3.56155E-05-3.56142E-05 2.19695E-07-2.27996E-20-3.04826E-19
 -1      1169 1.23572E-04-3.70376E-05-3.69533E-05 2.15828E-07-1.58968E-19-1.42627E-18
 -1      1170 1.27142E-04-3.80735E-05-3.78514E-05 1.19799E-07 5.91236E-20-1.93301E-18
 -1      1171 1.27771E-04-3.82236E-05-3.78499E-05-1.31258E-07-2.30168E-19-1.14312E-18
 -1      1172 1.23629E-04-3.69608E-05-3.65260E-05-5.53484E-07 3.32063E-20 4.96573E-19
 -1      1173 1.13939E-04-3.40793E-05-3.38253E-05-1.01391E-06 1.14402E-19 2.86371E-18
 -1      1174 1.00710E-04-3.02197E-05-3.04095E-05-1.18607E-06-1.31585E-19 2.25639E-18
 -1      1175 8.92623E-05-2.69282E-05-2.75963E-05-7.64529E-07 1.54431E-19 2.13050E-18
 -1      1176 8.56133E-05-2.58915E-05-2.67221E-05 1.33979E-07-2.87329E-20 2.31760E-18
 -1      1177 9.18925E-05-2.76800E-05-2.82386E-05 9.44052E-07 3.62398E-19 2.12669E-18
 -1      1178 1.04507E-04-3.13195E-05-3.13764E-05 1.18873E-06-1.02067E-19 1.97570E-19
 -1      1179 1.17198E-04-3.50420E-05-3.47142E-05 8.99218E-07 2.85576E-19-1.11575E-18
 -1      1180 1.25447E-04-3.75080E-05-3.70741E-05 4.23311E-07 4.77091E-19-4.44798E-19
 -1      1181 1.28168E-04-3.83541E-05-3.80191E-05 4.32523E-08-2.56625E-20 7.52218E-19
 -1      1182 1.26602E-04-3.79231E-05-3.77452E-05-1.59040E-07-1.44231E-19 5.95702E-19
 -1      1183 1.22638E-04-3.67673E-05-3.67131E-05-2.21942E-07 7.93928E-21-2.07785E-18
 -1      1184 1.17818E-04-3.53459E-05-3.53603E-05-2.09590E-07 1.30637E-19-2.67731E-18
 -1      1185 1.13094E-04-3.39442E-05-3.39854E-05-1.68991E-07 3.80172E-20-2.46746E-18
 -1      1186 1.08929E-04-3.27024E-05-3.27472E-05-1.24909E-07 5.46047E-20-1.01165E-18
 -1      1187 1.05476E-04-3.16687E-05-3.17075E-05-8.72514E-08 4.44841E-20 1.67448E-19
 -1      1188 1.02724E-04-3.08423E-05-3.08725E-05-5.83477E-08-1.04681E-19 1.23455E-18
 -1      1189 1.00592E-04-3.02000E-05-3.02222E-05-3.74338E-08 4.12525E-19 2.11768E-18
 -1      1190 9.89747E-05-2.97117E-05-2.97274E-05-2.28558E-08-1.64703E-19 1.94185E-18
 -1      1191 9.77716E-05-2.93474E-05-2.93583E-05-1.29741E-08-3.03219E-19-3.33155E-19
 -1      1192 9.68926E-05-2.90806E-05-2.90880E-05-6.44471E-09-9.90263E-20 3.33045E-19
 -1      1193 9.62632E-05-2.88892E-05-2.88941E-05-2.24639E-09 5.45617E-19 1.61084E-18
 -1      1194 9.58236E-05-2.87551E-05-2.87583E-05 3.75944E-10-4.58686E-19 2.61573E-18
 -1      1195 9.55271E-05-2.86643E-05-2.86665E-05 1.99420E-09-1.92320E-19 6.25766E-20
 -1      1196 9.53384E-05-2.86062E-05-2.86079E-05 3.09039E-09 5.31836E-20-1.73430E-19
 -1      1197 9.52320E-05-2.85731E-05-2.85748E-05 4.12248E-09 3.03184E-19 8.09746E-19
 -1      1198 9.51899E-05-2.85594E-05-2.85609E-05 5.51630E-09-5.91367E-20 2.88275E-18
 -1      1199 9.51990E-05-2.85626E-05-2.85597E-05 7.98839E-09 2.61858E-20 2.77868E-18
 -1      1200 9.52251E-05-2.85677E-05-2.85613E-05 3.72847E-09 3.09472E-19 2.65281E-18
 -1      1201 1.30580E-04-3.75940E-05-3.85376E-05 1.21366E-05-1.16202E-19 1.10322E-17
 -1      1202 9.62560E-05-2.81006E-05-3.12362E-05 7.99156E-07 6.76303E-20 8.81941E-18
 -1      1203 9.01626E-05-2.68680E-05-2.78094E-05 1.21847E-07 5.39189E-20 6.67003E-18
 -1      1204 8.82177E-05-2.64665E-05-2.66459E-05 1.29500E-08 5.96033E-20 5.35042E-18
 -1      1205 8.79327E-05-2.64114E-05-2.64182E-05-1.94553E-08 1.45650E-20 4.52088E-18
 -1      1206 8.84411E-05-2.65593E-05-2.65443E-05-2.67635E-08 2.69586E-20 3.74846E-18
 -1      1207 8.93592E-05-2.68275E-05-2.68161E-05-2.63814E-08 1.07827E-20 3.31752E-18
 -1      1208 9.05102E-05-2.71683E-05-2.71611E-05-2.33635E-08-5.37709E-20 3.88238E-18
 -1      1209 9.18139E-05-2.75571E-05-2.75532E-05-1.95307E-08-2.92929E-20 3.59902E-18
 -1      1210 9.32431E-05-2.79847E-05-2.79842E-05-1.60285E-08 9.00564E-20 2.71365E-18
 -1      1211 9.48017E-05-2.84515E-05-2.84551E-05-1.39195E-08 3.39578E-20 1.29519E-18
 -1      1212 9.65097E-05-2.89628E-05-2.89711E-05-1.43538E-08 1.49654E-19 1.29788E-19
 -1      1213 9.83892E-05-2.95246E-05-2.95374E-05-1.86113E-08 4.93512E-20-1.45412E-19
 -1      1214 1.00447E-04-3.01381E-05-3.01541E-05-2.80100E-08-1.89866E-19-1.62524E-19
 -1      1215 1.02652E-04-3.07934E-05-3.08093E-05-4.35694E-08 1.11049E-19-1.50671E-18
 -1      1216 1.04911E-04-3.14618E-05-3.14710E-05-6.52453E-08 2.96746E-20-2.65565E-18
 -1      1217 1.07033E-04-3.20862E-05-3.20780E-05-9.05604E-08-1.52406E-19-1.83052E-18
 -1      1218 1.08700E-04-3.25740E-05-3.25340E-05-1.12693E-07 3.07619E-19-1.93830E-18
 -1      1219 1.09471E-04-3.27966E-05-3.27096E-05-1.18837E-07 8.77275E-20-2.57509E-18
 -1      1220 1.08828E-04-3.26053E-05-3.24640E-05-9.10184E-08-1.47228E-19-1.41331E-18
 -1      1221 1.06333E-04-3.18740E-05-3.16922E-05-1.28709E-08-6.98604E-20-2.17661E-19
 -1      1222 1.01882E-04-3.05715E-05-3.03960E-05 1.15799E-07-1.98323E-19 5.17219E-19
 -1      1223 9.60052E-05-2.88442E-05-2.87511E-05 2.63478E-07 3.26070E-20-1.60179E-18
 -1      1224 8.99807E-05-2.70560E-05-2.71179E-05 3.66701E-07-1.79566E-19-3.26446E-18
 -1      1225 8.55570E-05-2.57173E-05-2.59521E-05 3.60694E-07-6.50660E-20-2.77406E-18
 -1      1226 8.42384E-05-2.52864E-05-2.56238E-05 2.27154E-07-5.03786E-20-2.19071E-18
 -1      1227 8.65098E-05-2.59337E-05-2.62430E-05 1.74439E-08 2.52499E-19-2.29750E-18
 -1      1228 9.15609E-05-2.74354E-05-2.76063E-05-1.78439E-07 5.13348E-20-3.11666E-18
 -1      1229 9.77388E-05-2.92955E-05-2.92972E-05-2.90060E-07-4.80778E-20-3.70169E-18
 -1      1230 1.03366E-04-3.09988E-05-3.08754E-05-3.02091E-07-2.13479E-20-5.90445E-18
 -1      1231 1.07360E-04-3.22093E-05-3.20353E-05-2.43475E-07 1.57472E-19-5.73335E-18
 -1      1232 1.09395E-04-3.28251E-05-3.26622E-05-1.57050E-07-1.59044E-19-3.08045E-18
 -1      1233 1.09703E-04-3.29174E-05-3.27972E-05-7.53889E-08-1.04430E-19-8.91132E-19
 -1      1234 1.08774E-04-3.26367E-05-3.25649E-05-1.41591E-08-1.63189E-19 1.21258E-18
 -1      1235 1.07127E-04-3.21405E-05-3.21085E-05 2.40503E-08-1.28599E-19 1.98537E-18
 -1      1236 1.05182E-04-3.15558E-05-3.15508E-05 4.32930E-08 1.30147E-19 4.55360E-19
 -1      1237 1.03229E-04-3.09694E-05-3.09801E-05 4.94395E-08 1.77919E-19-2.35163E-18
 -1      1238 1.01440E-04-3.04327E-05-3.04506E-05 4.77399E-08 4.90711E-19-4.70130E-18
 -1      1239 9.98975E-05-2.99704E-05-2.99902E-05 4.20477E-08 1.64044E-19-4.00243E-18
 -1      1240 9.86271E-05-2.95895E-05-2.96083E-05 3.48614E-08-1.04425E-19-3.51094E-18
 -1      1241 9.76176E-05-2.92868E-05-2.93032E-05 2.76388E-08-1.26267E-19-2.12793E-18
 -1      1242 9.68405E-05-2.90537E-05-2.90673E-05 2.11330E-08-1.75443E-20-3.54013E-19
 -1      1243 9.62602E-05-2.88796E-05-2.88903E-05 1.56583E-08 3.99756E-19-1.58882E-18
 -1      1244 9.58405E-05-2.87537E-05-2.87619E-05 1.12730E-08 7.31604E-20-3.30746E-18
 -1      1245 9.55489E-05-2.86661E-05-2.86724E-05 7.88176E-09-4.24696E-19-3.27524E-18
 -1      1246 9.53580E-05-2.86087E-05-2.86137E-05 5.27810E-09 2.49986E-19-4.86336E-18
 -1      1247 9.52465E-05-2.85750E-05-2.85793E-05 3.12774E-09 2.53752E-19-7.34451E-18
 -1      1248 9.51984E-05-2.85602E-05-2.85638E-05 7.04556E-10-5.04944E-20-5.65676E-18
 -1      1249 9.52009E-05-2.85602E-05-2.85613E-05-3.18474E-09 2.49916E-19-4.76649E-18
 -1      1250 9.52266E-05-2.85687E-05-2.85617E-05-3.45907E-09-5.98923E-19-2.62215E-18
 -1      1251 9.52397E-05-2.85821E-05-2.85621E-05-3.79988E-09-1.45319E-18 8.04115E-19
 -1      1252 9.52461E-05-2.86054E-05-2.85623E-05-6.28159E-09 3.70490E-18-4.35597E-19
 -1      1253 9.52449E-05-2.86009E-05-2.85664E-05-2.04080E-09 1.07670E-17-1.49456E-19
 -1      1254 9.52306E-05-2.85519E-05-2.85805E-05 1.28558E-09 1.00350E-17-1.97795E-19
 -1      1255 9.52066E-05-2.84695E-05-2.86032E-05 3.15623E-09 8.99966E-18-2.85412E-19
 -1      1256 9.51789E-05-2.83749E-05-2.86294E-05 3.64976E-09 1.32371E-18-9.55954E-19
 -1      1257 9.51539E-05-2.82889E-05-2.86534E-05 3.08055E-09 4.71091E-19 7.68618E-19
 -1      1258 9.51365E-05-2.82292E-05-2.86701E-05 1.67744E-09-7.96800E-19-1.07422E-18
 -1      1259 9.51306E-05-2.82092E-05-2.86758E-05-1.39537E-10 1.39007E-18 8.86845E-19
 -1      1260 9.51376E-05-2.82330E-05-2.86690E-05-1.95072E-09 5.49483E-18-4.15419E-19
 -1      1261 9.51561E-05-2.82963E-05-2.86513E-05-3.31517E-09-2.11671E-19-8.58230E-19
 -1      1262 9.51820E-05-2.83850E-05-2.86265E-05-3.84165E-09-8.91165E-18 3.46735E-19
 -1      1263 9.52099E-05-2.84809E-05-2.86000E-05-3.16899E-09-6.91571E-18 1.29572E-18
 -1      1264 9.52337E-05-2.85623E-05-2.85776E-05-1.11596E-09-6.54571E-18-4.78751E-19
 -1      1265 9.52479E-05-2.86092E-05-2.85643E-05 2.75730E-09-1.24088E-17 5.11948E-19
 -1      1266 9.52455E-05-2.86059E-05-2.85609E-05 1.03379E-08-5.45090E-18-5.18191E-19
 -1      1267 9.52403E-05-2.85838E-05-2.85617E-05 4.92246E-09-1.35915E-18 2.77949E-19
 -1      1268 3.40092E-05-1.06581E-04 1.80280E-05-1.30150E-05 8.42925E-18 1.53154E-18
 -1      1269 1.75498E-05-6.48538E-05 9.55488E-06-2.37793E-05 8.53979E-18 2.35306E-18
 -1      1270 7.57993E-06-9.63735E-06-5.72966E-06-1.61291E-07 4.36561E-18 2.28106E-18
 -1      1271 3.20074E-05 2.45328E-05-2.51887E-05 5.11352E-05 1.87025E-18 1.59327E-18
 -1      1272 1.04838E-04 1.42151E-05-4.59544E-05 9.98250E-05 2.78250E-18 5.16182E-18
 -1      1273 2.02812E-04-3.10038E-05-6.32827E-05 1.09559E-04 2.55042E-18 7.03969E-18
 -1      1274 2.80771E-04-7.59555E-05-7.42471E-05 6.59400E-05 1.22010E-18 3.37797E-18
 -1      1275 3.08049E-04-9.34068E-05-7.74955E-05-9.89109E-06 3.94929E-19-3.17807E-18
 -1      1276 2.65619E-04-6.73963E-05-7.21797E-05-8.18020E-05 2.10721E-18-7.35987E-18
 -1      1277 1.77063E-04-1.74147E-05-5.93902E-05-1.11980E-04 5.50741E-18-1.12943E-17
 -1      1278 8.58517E-05 2.05009E-05-4.16578E-05-9.23885E-05 8.19166E-18-1.06811E-17
 -1      1279 2.51068E-05 2.10982E-05-2.17942E-05-4.20565E-05 1.03762E-17-9.65872E-18
 -1      1280 7.88463E-06-1.73935E-05-3.01028E-06 5.21512E-06 1.05659E-17-5.90721E-18
 -1      1281 2.05234E-05-7.29054E-05 1.12524E-05 2.45571E-05 9.77815E-18-2.83205E-18
 -1      1282 3.48999E-05-1.09182E-04 1.85708E-05 9.57471E-06 5.84707E-18-1.10083E-18
 -1      1283 3.33314E-05-1.06050E-04 1.79321E-05-1.66228E-05-3.88365E-18-1.78684E-18
 -1      1284 1.70040E-05-6.51149E-05 9.58712E-06-2.68717E-05-1.07023E-17-4.08058E-18
 -1      1285 7.17988E-06-1.16850E-05-5.11933E-06-3.74503E-06-1.38473E-17-8.42374E-18
 -1      1286 3.26155E-05 2.19039E-05-2.49216E-05 4.87348E-05-1.34780E-17-1.27546E-17
 -1      1287 1.04875E-04 1.32202E-05-4.58295E-05 9.92375E-05-9.92723E-18-1.37914E-17
 -1      1288 2.02940E-04-3.01086E-05-6.36209E-05 1.09881E-04-5.10507E-18-1.18483E-17
 -1      1289 2.88631E-04-7.86127E-05-7.55928E-05 7.11132E-05-1.79126E-18-8.58553E-18
 -1      1290 3.19407E-04-9.72740E-05-7.94028E-05-4.77875E-06-2.10276E-19-4.96446E-18
 -1      1291 2.76820E-04-7.13084E-05-7.41173E-05-7.89788E-05-1.70063E-18 4.95345E-18
 -1      1292 1.83277E-04-2.05854E-05-6.03413E-05-1.12565E-04-4.71247E-18 9.99329E-18
 -1      1293 8.51132E-05 1.90062E-05-4.13202E-05-8.95862E-05-6.88638E-18 8.82100E-18
 -1      1294 2.37030E-05 1.88384E-05-2.08996E-05-3.77172E-05-7.48099E-18 6.90247E-18
 -1      1295 6.91930E-06-1.90160E-05-2.61477E-06 8.96168E-06-8.62280E-18 4.89246E-18
 -1      1296 1.94298E-05-7.20815E-05 1.11535E-05 2.73992E-05-7.26331E-18 2.44793E-18
 -1      1297 3.45819E-05-1.08598E-04 1.84931E-05 1.35458E-05-5.69630E-19 9.27316E-19
 -1      1298 1.04151E-04-2.19480E-05-3.77899E-05-1.72042E-05-2.62580E-19 4.80014E-18
 -1      1299 9.02427E-05-6.68687E-06-3.59793E-05-2.03444E-05-7.51159E-19-1.30020E-19
 -1      1300 9.25186E-05-6.74708E-06-3.71577E-05-2.56289E-05-9.63076E-19 1.01173E-18
 -1      1301 8.59177E-05-4.10483E-06-3.51308E-05-1.62863E-05-7.55421E-19-1.75709E-18
 -1      1302 8.71321E-05-4.10036E-06-3.55825E-05-1.87123E-05-8.44704E-19-1.05204E-18
 -1      1303 9.20876E-05-1.04722E-05-3.50687E-05-1.88818E-05-1.31917E-18-1.35419E-19
 -1      1304 8.41662E-05-3.19648E-06-3.47128E-05-1.26626E-05-6.02148E-19-2.55396E-18
 -1      1305 8.47516E-05-3.16598E-06-3.49259E-05-1.44811E-05-7.01926E-19-2.18360E-18
 -1      1306 8.79006E-05-7.39903E-06-3.45838E-05-1.52505E-05-1.18996E-18-1.45158E-18
 -1      1307 8.32708E-05-2.71868E-06-3.45104E-05-9.53330E-06-4.78746E-19-2.92774E-18
 -1      1308 8.35782E-05-2.70295E-06-3.46139E-05-1.10759E-05-5.23731E-19-2.78062E-18
 -1      1309 8.59361E-05-5.97409E-06-3.43372E-05-1.17861E-05-9.18561E-19-2.16007E-18
 -1      1310 8.27785E-05-2.43341E-06-3.44113E-05-6.78453E-06-2.95161E-19-3.07928E-18
 -1      1311 8.29469E-05-2.42557E-06-3.44630E-05-8.14238E-06-3.54973E-19-2.99686E-18
 -1      1312 8.48921E-05-5.17900E-06-3.42183E-05-8.78544E-06-6.82801E-19-2.43744E-18
 -1      1313 8.24959E-05-2.25510E-06-3.43612E-05-4.20261E-06-1.38004E-19-3.12275E-18
 -1      1314 8.25891E-05-2.25166E-06-3.43877E-05-5.48330E-06-1.87912E-19-3.10199E-18
 -1      1315 8.42959E-05-4.69785E-06-3.41617E-05-6.08793E-06-4.04564E-19-2.60186E-18
 -1      1316 8.23559E-05-2.15695E-06-3.43394E-05-1.74765E-06 4.45065E-21-3.13143E-18
 -1      1317 8.23971E-05-2.15567E-06-3.43505E-05-2.97313E-06-3.20896E-20-3.12894E-18
 -1      1318 8.39592E-05-4.41359E-06-3.41353E-05-3.56040E-06-1.72819E-19-2.61218E-18
 -1      1319 8.23269E-05-2.12639E-06-3.43365E-05 6.56605E-07 1.12042E-19-3.03430E-18
 -1      1320 8.23260E-05-2.12646E-06-3.43363E-05-5.51917E-07 6.22263E-20-3.09426E-18
 -1      1321 8.38079E-05-4.28260E-06-3.41250E-05-1.14104E-06 6.79405E-20-2.63030E-18
 -1      1322 8.24033E-05-2.15985E-06-3.43510E-05 3.08135E-06 2.51347E-19-2.92498E-18
 -1      1323 8.23602E-05-2.16123E-06-3.43396E-05 1.85332E-06 2.05170E-19-2.98438E-18
 -1      1324 8.38118E-05-4.28675E-06-3.41250E-05 1.24483E-06 2.50539E-19-2.53580E-18
 -1      1325 8.26023E-05-2.26179E-06-3.43887E-05 5.60049E-06 3.55966E-19-2.75145E-18
 -1      1326 8.25064E-05-2.26464E-06-3.43618E-05 4.31394E-06 3.22476E-19-2.86461E-18
 -1      1327 8.39718E-05-4.42691E-06-3.41352E-05 3.66839E-06 4.72888E-19-2.40620E-18
 -1      1328 8.29650E-05-2.44022E-06-3.44641E-05 8.25146E-06 4.93152E-19-2.44618E-18
 -1      1329 8.27936E-05-2.44829E-06-3.44119E-05 6.88495E-06 4.61041E-19-2.62020E-18
 -1      1330 8.43170E-05-4.72026E-06-3.41612E-05 6.18247E-06 6.75860E-19-2.19048E-18
 -1      1331 8.36150E-05-2.73214E-06-3.46172E-05 1.12372E-05 7.11693E-19-1.99167E-18
 -1      1332 8.33021E-05-2.74848E-06-3.45123E-05 9.67748E-06 6.24488E-19-2.24558E-18
 -1      1333 8.49293E-05-5.21903E-06-3.42175E-05 8.89583E-06 9.23742E-19-1.83642E-18
 -1      1334 8.48062E-05-3.20760E-06-3.49327E-05 1.46878E-05 8.52512E-19-1.21427E-18
 -1      1335 8.42142E-05-3.24352E-06-3.47167E-05 1.28453E-05 7.62647E-19-1.68050E-18
 -1      1336 8.60081E-05-6.05008E-06-3.43373E-05 1.19513E-05 1.17337E-18-1.34443E-18
 -1      1337 8.72322E-05-4.10245E-06-3.56033E-05 1.89488E-05 9.78429E-19 1.42937E-19
 -1      1338 8.59871E-05-4.16557E-06-3.51374E-05 1.65444E-05 8.93805E-19-6.78632E-19
 -1      1339 8.80210E-05-7.52365E-06-3.45845E-05 1.54819E-05 1.40363E-18-5.19575E-19
 -1      1340 9.33276E-05-6.79720E-06-3.70539E-05 2.49681E-05 8.64503E-19 2.65529E-18
 -1      1341 9.00591E-05-6.44460E-06-3.60018E-05 2.10184E-05 8.33269E-19 1.12745E-18
 -1      1342 9.23166E-05-1.07065E-05-3.50537E-05 1.95223E-05 1.48940E-18 1.00103E-18
 -1      1343 1.23254E-04-2.48491E-05-3.89078E-05 2.82512E-05 3.92388E-19 7.40434E-18
 -1      1344 9.98705E-05-1.43946E-05-3.72727E-05 2.39405E-05 4.08270E-19 4.09244E-18
 -1      1345 1.01512E-04-1.93174E-05-3.53409E-05 2.12669E-05 1.39584E-18 3.27526E-18
 -1      1346 1.02322E-04-2.77271E-05-3.46640E-05 7.27909E-06 7.35833E-19 7.11423E-18
 -1      1347 1.04877E-04-3.01528E-05-3.34400E-05-7.89915E-06-7.82235E-19 5.05933E-18
 -1      1348 9.80410E-05-2.77816E-05-3.06919E-05-4.93919E-06-7.29454E-19 4.16534E-18
 -1      1349 9.53199E-05-2.77947E-05-2.91982E-05-2.44102E-06-5.80429E-19 3.83268E-18
 -1      1350 9.31328E-05-2.75158E-05-2.81732E-05-1.99423E-06-5.24419E-19 3.00691E-18
 -1      1351 9.93428E-05-2.80125E-05-3.09381E-05-7.78818E-06-1.23593E-18 2.19620E-18
 -1      1352 9.14909E-05-2.71707E-05-2.75543E-05-7.81468E-07-4.12829E-19 2.72623E-18
 -1      1353 9.08269E-05-2.70896E-05-2.72683E-05-6.68544E-07-3.97960E-19 2.09874E-18
 -1      1354 9.46599E-05-2.77495E-05-2.88008E-05-3.01356E-06-9.46612E-19 1.61695E-18
 -1      1355 9.01393E-05-2.69241E-05-2.70447E-05-9.70097E-08-2.85404E-19 1.77835E-18
 -1      1356 9.01383E-05-2.69708E-05-2.70317E-05-3.41735E-08-2.71074E-19 1.40750E-18
 -1      1357 9.25680E-05-2.75059E-05-2.79153E-05-9.15426E-07-7.39003E-19 1.10401E-18
 -1      1358 8.99649E-05-2.69274E-05-2.69844E-05 2.63937E-07-1.11348E-19 1.25749E-18
 -1      1359 9.02822E-05-2.70464E-05-2.70771E-05 3.00029E-07-1.26054E-19 1.14061E-18
 -1      1360 9.17547E-05-2.73998E-05-2.75952E-05 1.22630E-07-4.26921E-19 7.57320E-19
 -1      1361 9.04064E-05-2.70834E-05-2.71211E-05 4.71839E-07-7.10854E-20 9.50900E-19
 -1      1362 9.08975E-05-2.72456E-05-2.72650E-05 4.94145E-07 1.01115E-20 9.25556E-19
 -1      1363 9.17036E-05-2.74415E-05-2.75519E-05 6.92646E-07-2.80447E-19 5.11624E-19
 -1      1364 9.12073E-05-2.73345E-05-2.73645E-05 6.05157E-07-2.20832E-20 7.83499E-19
 -1      1365 9.18080E-05-2.75244E-05-2.75404E-05 6.21399E-07-1.81316E-19 6.96175E-19
 -1      1366 9.21183E-05-2.75911E-05-2.76634E-05 1.03788E-06-1.59075E-19 4.13706E-19
 -1      1367 9.22475E-05-2.76498E-05-2.76790E-05 7.08025E-07-2.57210E-19 6.25081E-19
 -1      1368 9.29350E-05-2.78621E-05-2.78811E-05 7.23406E-07-3.33722E-19 7.58789E-20
 -1      1369 9.28409E-05-2.78162E-05-2.78754E-05 1.27970E-06-4.84905E-19 2.13608E-19
 -1      1370 9.34809E-05-2.80174E-05-2.80523E-05 8.09210E-07-3.81985E-19-2.22644E-20
 -1      1371 9.42585E-05-2.82539E-05-2.82816E-05 8.27659E-07-3.41473E-19-5.32721E-19
 -1      1372 9.37955E-05-2.80996E-05-2.81627E-05 1.49005E-06-5.80965E-19 3.99611E-20
 -1      1373 9.49091E-05-2.84387E-05-2.84853E-05 9.29633E-07-1.14953E-20-5.13183E-19
 -1      1374 9.57988E-05-2.87071E-05-2.87484E-05 9.54323E-07 2.71704E-19-4.37529E-19
 -1      1375 9.49574E-05-2.84366E-05-2.85171E-05 1.71775E-06-1.66109E-19 2.22388E-19
 -1      1376 9.65675E-05-2.89251E-05-2.89890E-05 1.08533E-06 2.05743E-19-5.78361E-19
 -1      1377 9.76060E-05-2.92375E-05-2.92965E-05 1.11886E-06 1.11115E-20-2.84524E-19
 -1      1378 9.63374E-05-2.88322E-05-2.89407E-05 1.99879E-06 1.86625E-19-2.45425E-19
 -1      1379 9.85162E-05-2.94956E-05-2.95812E-05 1.28800E-06-1.55331E-19-4.61454E-19
 -1      1380 9.97508E-05-2.98675E-05-2.99468E-05 1.33226E-06-2.50811E-19-7.57195E-19
 -1      1381 9.79707E-05-2.92988E-05-2.94433E-05 2.35971E-06-1.98485E-19-6.87969E-19
 -1      1382 1.00831E-04-3.01746E-05-3.02847E-05 1.54322E-06-6.01526E-20-6.29875E-19
 -1      1383 1.02314E-04-3.06235E-05-3.07228E-05 1.59879E-06 2.73234E-20-6.35678E-19
 -1      1384 9.99084E-05-2.98542E-05-3.00387E-05 2.81617E-06-1.51453E-19-9.28087E-19
 -1      1385 1.03592E-04-3.09890E-05-3.11217E-05 1.84556E-06 8.32441E-20-6.11889E-19
 -1      1386 1.05366E-04-3.15316E-05-3.16444E-05 1.91034E-06-1.75605E-19-5.49592E-19
 -1      1387 1.02206E-04-3.05207E-05-3.07409E-05 3.36616E-06-4.20472E-20-9.01551E-19
 -1      1388 1.06856E-04-3.19629E-05-3.21072E-05 2.16889E-06-2.87485E-19-2.46884E-19
 -1      1389 1.08936E-04-3.26089E-05-3.27164E-05 2.23545E-06-1.74753E-19-4.94455E-19
 -1      1390 1.04909E-04-3.13221E-05-3.15578E-05 3.97534E-06-1.60837E-19-8.47688E-19
 -1      1391 1.10623E-04-3.31080E-05-3.32342E-05 2.45015E-06 1.03282E-20-4.99670E-19
 -1      1392 1.12954E-04-3.38483E-05-3.39101E-05 2.50127E-06-6.48940E-20-5.45304E-19
 -1      1393 1.08024E-04-3.22799E-05-3.24813E-05 4.55152E-06-1.78762E-19-6.38296E-19
 -1      1394 1.14763E-04-3.44052E-05-3.44525E-05 2.56695E-06-5.74800E-20-6.45691E-19
 -1      1395 1.17157E-04-3.51926E-05-3.51347E-05 2.56951E-06-2.17036E-19-7.65241E-19
 -1      1396 1.11478E-04-3.34038E-05-3.34730E-05 4.90750E-06-1.12340E-19-7.69298E-19
 -1      1397 1.18922E-04-3.57744E-05-3.56390E-05 2.31772E-06-3.75944E-19-1.00884E-18
 -1      1398 1.20980E-04-3.64932E-05-3.62063E-05 2.21805E-06-5.48537E-19-1.50855E-18
 -1      1399 1.15059E-04-3.46718E-05-3.44465E-05 4.72219E-06-5.55806E-19-1.02103E-18
 -1      1400 1.22407E-04-3.70275E-05-3.65705E-05 1.43394E-06-1.40118E-19-1.53378E-18
 -1      1401 1.23468E-04-3.74626E-05-3.68332E-05 1.16465E-06-1.31317E-19-1.69201E-18
 -1      1402 1.18342E-04-3.59882E-05-3.52554E-05 3.53897E-06-4.22530E-19-9.68774E-19
 -1      1403 1.24128E-04-3.78115E-05-3.69297E-05-3.11428E-07 7.71859E-20-1.62767E-18
 -1      1404 1.23350E-04-3.76496E-05-3.66696E-05-7.89038E-07-1.89788E-20-1.12891E-18
 -1      1405 1.20628E-04-3.71088E-05-3.57045E-05 8.91881E-07 1.96009E-20-1.43479E-18
 -1      1406 1.22765E-04-3.76026E-05-3.63963E-05-2.82594E-06 5.09742E-19-7.77285E-19
 -1      1407 1.19504E-04-3.65430E-05-3.54769E-05-3.43472E-06 5.99514E-19 2.97203E-19
 -1      1408 1.20979E-04-3.75579E-05-3.56120E-05-3.30620E-06 6.92674E-19-1.26636E-18
 -1      1409 1.17410E-04-3.58873E-05-3.48395E-05-5.33320E-06 3.39905E-19 8.67521E-19
 -1      1410 1.11907E-04-3.39069E-05-3.33882E-05-5.78518E-06 1.52777E-19 1.34752E-18
 -1      1411 1.18549E-04-3.67236E-05-3.49236E-05-8.12933E-06 1.06745E-18-2.61574E-19
 -1      1412 1.08690E-04-3.26550E-05-3.25780E-05-6.29562E-06-1.52532E-20 1.50613E-18
 -1      1413 1.02679E-04-3.03467E-05-3.10727E-05-6.16771E-06-1.56721E-19 1.39792E-18
 -1      1414 1.13296E-04-3.42430E-05-3.38269E-05-1.12475E-05 2.35518E-19 6.85700E-19
 -1      1415 9.97085E-05-2.90562E-05-3.04166E-05-4.33171E-06 3.40468E-19 1.52090E-18
 -1      1416 9.59988E-05-2.75769E-05-2.95167E-05-3.47430E-06 2.71633E-19 1.69595E-18
 -1      1417 1.06940E-04-3.08866E-05-3.27364E-05-9.79994E-06 1.38291E-19 1.32730E-18
 -1      1418 9.50210E-05-2.71291E-05-2.93176E-05 1.19577E-07-7.05234E-19 1.85643E-18
 -1      1419 9.56690E-05-2.73888E-05-2.94753E-05 1.24966E-06-5.67300E-19 1.52725E-18
 -1      1420 1.02813E-04-2.85921E-05-3.21148E-05-3.13627E-06-1.91721E-19 1.21735E-18
 -1      1421 9.73490E-05-2.81486E-05-2.98265E-05 4.52561E-06 1.07864E-20 9.59424E-19
 -1      1422 1.01984E-04-2.99818E-05-3.09594E-05 5.19958E-06 6.05496E-20 5.22937E-19
 -1      1423 1.03549E-04-2.90039E-05-3.22269E-05 5.39915E-06-6.81544E-19 7.45098E-19
 -1      1424 1.05216E-04-3.13504E-05-3.16964E-05 6.36433E-06-2.87323E-19 1.71524E-19
 -1      1425 1.11356E-04-3.36706E-05-3.32555E-05 6.29702E-06-5.37190E-19-6.53486E-19
 -1      1426 1.08666E-04-3.18137E-05-3.30254E-05 1.07891E-05-5.63409E-19-5.64283E-19
 -1      1427 1.14374E-04-3.47926E-05-3.40508E-05 5.27703E-06-2.15835E-19-8.58150E-19
 -1      1428 1.19382E-04-3.65539E-05-3.53922E-05 4.74087E-06 3.70981E-19-9.21784E-19
 -1      1429 1.15028E-04-3.50913E-05-3.41722E-05 1.07685E-05-5.94822E-19-1.12317E-18
 -1      1430 1.21080E-04-3.70330E-05-3.59442E-05 2.69864E-06 1.74515E-19-1.03497E-19
 -1      1431 1.23649E-04-3.78308E-05-3.66851E-05 2.10782E-06 3.16962E-19 2.10117E-19
 -1      1432 1.19622E-04-3.71410E-05-3.51981E-05 6.89016E-06 2.21631E-19-7.53489E-19
 -1      1433 1.23871E-04-3.77502E-05-3.68585E-05 1.89795E-07 2.06014E-19 2.74981E-19
 -1      1434 1.24085E-04-3.77206E-05-3.69633E-05-2.29092E-07-1.78155E-19-1.54759E-19
 -1      1435 1.21270E-04-3.75761E-05-3.57415E-05 2.07362E-06 3.21303E-19-3.31827E-19
 -1      1436 1.23197E-04-3.73110E-05-3.67903E-05-1.49764E-06-4.96944E-19 6.47365E-19
 -1      1437 1.21822E-04-3.67819E-05-3.64337E-05-1.71050E-06-5.72250E-19 4.80426E-19
 -1      1438 1.20337E-04-3.68921E-05-3.56888E-05-1.71139E-06-4.74603E-19-4.37612E-19
 -1      1439 1.20309E-04-3.62367E-05-3.60323E-05-2.31148E-06-6.63688E-19 1.21907E-19
 -1      1440 1.18162E-04-3.54996E-05-3.54345E-05-2.37271E-06-5.19966E-19-9.52409E-19
 -1      1441 1.17765E-04-3.57016E-05-3.51432E-05-3.88737E-06-1.26250E-18 5.63475E-19
 -1      1442 1.16419E-04-3.49362E-05-3.49294E-05-2.49869E-06-3.66838E-19-1.45706E-18
 -1      1443 1.14094E-04-3.41775E-05-3.42633E-05-2.47376E-06-1.01746E-19-1.93879E-18
 -1      1444 1.14443E-04-3.44106E-05-3.43019E-05-4.70561E-06-8.63606E-19-1.74714E-19
 -1      1445 1.12382E-04-3.36563E-05-3.37467E-05-2.33159E-06 4.39422E-19-1.87873E-18
 -1      1446 1.10213E-04-3.29707E-05-3.31162E-05-2.26829E-06 7.64489E-19-1.50781E-18
 -1      1447 1.10996E-04-3.32145E-05-3.33520E-05-4.65396E-06 5.92385E-21-1.77070E-18
 -1      1448 1.08673E-04-3.25175E-05-3.26419E-05-2.00825E-06-1.23746E-20-5.63475E-19
 -1      1449 1.06810E-04-3.19408E-05-3.20954E-05-1.93458E-06 1.49847E-19-7.14267E-19
 -1      1450 1.07791E-04-3.21845E-05-3.24247E-05-4.15567E-06 1.23670E-18-1.15353E-18
 -1      1451 1.05498E-04-3.15625E-05-3.16875E-05-1.64627E-06 6.28548E-19-5.52828E-19
 -1      1452 1.03977E-04-3.10984E-05-3.12387E-05-1.57617E-06 3.13526E-19 7.94901E-19
 -1      1453 1.04998E-04-3.13325E-05-3.15930E-05-3.49148E-06 2.07940E-19-8.43225E-19
 -1      1454 1.02901E-04-3.07916E-05-3.09027E-05-1.30517E-06-1.51994E-19-2.07245E-19
 -1      1455 1.01700E-04-3.04292E-05-3.05472E-05-1.24434E-06-4.20724E-19-2.96945E-19
 -1      1456 1.02668E-04-3.06459E-05-3.08867E-05-2.81858E-06-8.81477E-20-1.18630E-18
 -1      1457 1.00843E-04-3.01861E-05-3.02789E-05-1.00956E-06-2.88851E-21 7.29004E-19
 -1      1458 9.99184E-05-2.99096E-05-3.00045E-05-9.59393E-07 4.70542E-19 6.83728E-19
 -1      1459 1.00785E-04-3.01034E-05-3.03091E-05-2.21158E-06-3.72506E-19-9.42367E-19
 -1      1460 9.92495E-05-2.97206E-05-2.97953E-05-7.65405E-07-2.25715E-19 7.61770E-19
 -1      1461 9.85525E-05-2.95136E-05-2.95879E-05-7.25326E-07-1.06793E-18-2.72349E-19
 -1      1462 9.92989E-05-2.96819E-05-2.98498E-05-1.69737E-06 2.19110E-19-8.59498E-19
 -1      1463 9.80407E-05-2.93692E-05-2.94278E-05-5.69866E-07-2.61890E-19-2.62557E-19
 -1      1464 9.75246E-05-2.92169E-05-2.92740E-05-5.38531E-07-2.86271E-19-7.15172E-19
 -1      1465 9.81490E-05-2.93593E-05-2.94925E-05-1.27823E-06-6.96427E-19-5.80614E-19
 -1      1466 9.71399E-05-2.91085E-05-2.91538E-05-4.16578E-07-3.87202E-19-7.21705E-19
 -1      1467 9.67651E-05-2.89986E-05-2.90418E-05-3.92468E-07 4.54982E-19-5.99765E-19
 -1      1468 9.72753E-05-2.91164E-05-2.92198E-05-9.45321E-07-5.57600E-19-7.96158E-19
 -1      1469 9.64812E-05-2.89186E-05-2.89532E-05-2.98296E-07 1.35583E-18-7.57365E-19
 -1      1470 9.62147E-05-2.88411E-05-2.88734E-05-2.79973E-07 1.09016E-18 4.28980E-19
 -1      1471 9.66232E-05-2.89363E-05-2.90156E-05-6.85772E-07 8.24041E-19-5.83044E-19
 -1      1472 9.60096E-05-2.87833E-05-2.88095E-05-2.08091E-07 2.70834E-19 2.14668E-18
 -1      1473 9.58254E-05-2.87301E-05-2.87541E-05-1.94283E-07-2.28342E-19 1.73437E-18
 -1      1474 9.61457E-05-2.88054E-05-2.88654E-05-4.86207E-07 1.54190E-18 3.48272E-20
 -1      1475 9.56810E-05-2.86895E-05-2.87092E-05-1.39779E-07-6.99160E-19 2.03861E-18
 -1      1476 9.55590E-05-2.86546E-05-2.86725E-05-1.29386E-07-3.62916E-19 1.00661E-18
 -1      1477 9.58040E-05-2.87124E-05-2.87576E-05-3.34223E-07-1.05753E-19 2.76867E-18
 -1      1478 9.54611E-05-2.86270E-05-2.86422E-05-8.80040E-08 6.59106E-19 8.36816E-19
 -1      1479 9.53862E-05-2.86059E-05-2.86195E-05-8.00770E-08 8.14583E-19 1.54568E-18
 -1      1480 9.55667E-05-2.86482E-05-2.86825E-05-2.18891E-07 2.59062E-19 3.04183E-18
 -1      1481 9.53238E-05-2.85882E-05-2.86004E-05-4.83096E-08-9.56787E-20 1.51371E-18
 -1      1482 9.52851E-05-2.85778E-05-2.85885E-05-4.20787E-08-1.40948E-19 1.79843E-18
 -1      1483 9.54091E-05-2.86059E-05-2.86324E-05-1.30931E-07 1.49280E-19 3.05102E-18
 -1      1484 9.52493E-05-2.85677E-05-2.85776E-05-1.76333E-08 5.89902E-19 2.01862E-18
 -1      1485 9.52386E-05-2.85659E-05-2.85737E-05-1.26117E-08 7.97891E-19 3.02892E-18
 -1      1486 9.53121E-05-2.85803E-05-2.86011E-05-6.33315E-08 5.45069E-19 1.95665E-18
 -1      1487 9.52211E-05-2.85607E-05-2.85684E-05 4.71541E-09 3.11808E-19 2.76097E-18
 -1      1488 9.52308E-05-2.85673E-05-2.85688E-05 8.76145E-09-6.10369E-19 2.96340E-18
 -1      1489 9.52597E-05-2.85684E-05-2.85831E-05-1.32457E-08 1.03277E-18 2.49412E-18
 -1      1490 9.52302E-05-2.85750E-05-2.85635E-05 9.29162E-09-2.06582E-18 1.85333E-18
 -1      1491 9.52412E-05-2.85769E-05-2.85699E-05 1.35953E-08-2.09476E-18 1.51658E-18
 -1      1492 9.63711E-05-2.83030E-05-2.97083E-05 2.95383E-06 6.66509E-19 5.63920E-18
 -1      1493 1.02278E-04-2.93227E-05-3.20768E-05 4.41712E-06 6.04729E-19 6.66329E-18
 -1      1494 1.02129E-04-2.66705E-05-3.26418E-05 1.26873E-05 1.16652E-18 4.46471E-18
 -1      1495 9.19134E-05-2.73930E-05-2.77266E-05 1.10830E-06 4.26574E-19 4.34385E-18
 -1      1496 9.38145E-05-2.75352E-05-2.86261E-05 1.43085E-06 4.42323E-19 5.08829E-18
 -1      1497 9.63675E-05-2.79955E-05-2.94975E-05 4.78286E-06 9.99393E-19 3.44166E-18
 -1      1498 9.01870E-05-2.69982E-05-2.70610E-05 2.76203E-07 3.29641E-19 3.47003E-18
 -1      1499 9.07481E-05-2.69995E-05-2.73168E-05 4.41920E-07 2.87753E-19 3.95538E-18
 -1      1500 9.30172E-05-2.75678E-05-2.80933E-05 1.75416E-06 7.23538E-19 2.63275E-18
 -1      1501 8.98125E-05-2.69211E-05-2.69294E-05-1.32339E-07 2.68804E-19 2.85868E-18
 -1      1502 8.97768E-05-2.68359E-05-2.69350E-05-3.79987E-08 2.27418E-19 3.21715E-18
 -1      1503 9.15856E-05-2.73293E-05-2.75482E-05 3.88260E-07 4.69276E-19 1.91980E-18
 -1      1504 9.01441E-05-2.70314E-05-2.70323E-05-3.52121E-07 2.18774E-19 2.34835E-18
 -1      1505 8.98118E-05-2.68909E-05-2.69355E-05-2.93842E-07 1.88774E-19 2.71878E-18
 -1      1506 9.12191E-05-2.72938E-05-2.74039E-05-3.13124E-07 4.44037E-19 1.65101E-18
 -1      1507 9.08766E-05-2.72555E-05-2.72559E-05-4.80167E-07-6.26904E-20 2.45319E-18
 -1      1508 9.03824E-05-2.70810E-05-2.71096E-05-4.41063E-07-3.08571E-20 2.39046E-18
 -1      1509 9.14641E-05-2.74005E-05-2.74640E-05-7.05418E-07 1.55593E-20 1.58823E-18
 -1      1510 9.18573E-05-2.75510E-05-2.75528E-05-5.63733E-07 5.92865E-20 2.61857E-18
 -1      1511 9.12642E-05-2.73545E-05-2.73770E-05-5.34521E-07-4.39704E-20 2.47743E-18
 -1      1512 9.20800E-05-2.76006E-05-2.76423E-05-9.44327E-07-8.70665E-20 1.45032E-18
 -1      1513 9.30135E-05-2.78971E-05-2.79021E-05-6.29421E-07 1.99678E-19 2.04712E-18
 -1      1514 9.23482E-05-2.76832E-05-2.77045E-05-6.04211E-07 2.10245E-19 2.27929E-18
 -1      1515 9.29401E-05-2.78644E-05-2.78977E-05-1.10986E-06 2.78128E-19 1.23876E-18
 -1      1516 9.43179E-05-2.82865E-05-2.82961E-05-6.93110E-07 3.72865E-19 1.38016E-18
 -1      1517 9.35867E-05-2.80546E-05-2.80785E-05-6.67997E-07 3.16444E-19 1.85842E-18
 -1      1518 9.39817E-05-2.81766E-05-2.82104E-05-1.24764E-06 4.93666E-19 7.67260E-19
 -1      1519 9.57693E-05-2.87195E-05-2.87342E-05-7.63335E-07 2.42592E-19 7.62313E-19
 -1      1520 9.49668E-05-2.84663E-05-2.84951E-05-7.35943E-07 2.81475E-19 1.11548E-18
 -1      1521 9.51788E-05-2.85323E-05-2.85715E-05-1.38397E-06 5.32764E-19 5.14362E-19
 -1      1522 9.73774E-05-2.92002E-05-2.92187E-05-8.41986E-07 2.81829E-19 7.65539E-20
 -1      1523 9.64939E-05-2.89217E-05-2.89557E-05-8.11483E-07 3.89113E-19 6.04973E-19
 -1      1524 9.65252E-05-2.89319E-05-2.89780E-05-1.53085E-06 5.44752E-19 6.72449E-19
 -1      1525 9.91480E-05-2.97317E-05-2.97506E-05-9.23444E-07-1.53723E-20 3.85996E-20
 -1      1526 9.81774E-05-2.94254E-05-2.94624E-05-8.90932E-07 3.65043E-20-7.63124E-20
 -1      1527 9.80209E-05-2.93781E-05-2.94284E-05-1.68648E-06 1.99935E-19 5.37292E-19
 -1      1528 1.01066E-04-3.03116E-05-3.03240E-05-9.92637E-07 3.56950E-19-5.01417E-19
 -1      1529 1.00015E-04-2.99797E-05-3.00135E-05-9.61870E-07 1.46218E-19-1.96909E-19
 -1      1530 9.96580E-05-2.98722E-05-2.99182E-05-1.83304E-06 2.66523E-19-5.05258E-20
 -1      1531 1.03075E-04-3.09250E-05-3.09201E-05-1.02254E-06 1.63554E-19-1.30614E-18
 -1      1532 1.01976E-04-3.05785E-05-3.05979E-05-1.00088E-06 2.74484E-19-8.00565E-19
 -1      1533 1.01405E-04-3.04093E-05-3.04351E-05-1.93283E-06 6.19412E-19-5.26944E-19
 -1      1534 1.05050E-04-3.15377E-05-3.14998E-05-9.72302E-07-3.59344E-20-1.64316E-18
 -1      1535 1.03976E-04-3.12010E-05-3.11883E-05-9.71640E-07 3.22303E-20-1.41193E-18
 -1      1536 1.03190E-04-3.09730E-05-3.09540E-05-1.92436E-06 1.53572E-19-4.21750E-19
 -1      1537 1.06778E-04-3.20871E-05-3.19971E-05-7.88643E-07-1.41891E-19-1.14369E-18
 -1      1538 1.05854E-04-3.18033E-05-3.17346E-05-8.25455E-07-3.29059E-19-1.64355E-18
 -1      1539 1.04877E-04-3.15286E-05-3.14311E-05-1.72173E-06-3.41009E-19-8.70012E-19
 -1      1540 1.07942E-04-3.24768E-05-3.23173E-05-4.15089E-07 4.16136E-19-1.29940E-18
 -1      1541 1.07357E-04-3.23098E-05-3.21591E-05-5.08245E-07 2.63159E-19-9.13141E-19
 -1      1542 1.06260E-04-3.20157E-05-3.18020E-05-1.22370E-06-1.01674E-19-7.08847E-19
 -1      1543 1.08141E-04-3.25790E-05-3.23458E-05 1.84802E-07-5.10761E-19-1.44091E-18
 -1      1544 1.08132E-04-3.26095E-05-3.23587E-05 2.06207E-08 4.30299E-20-1.44823E-18
 -1      1545 1.07054E-04-3.23432E-05-3.19847E-05-3.41966E-07 2.60489E-19 3.85383E-20
 -1      1546 1.06976E-04-3.22558E-05-3.19756E-05 9.86873E-07-2.87591E-19-2.16152E-19
 -1      1547 1.07776E-04-3.25636E-05-3.22212E-05 7.53574E-07-5.56074E-19-1.10433E-18
 -1      1548 1.06934E-04-3.23915E-05-3.18949E-05 9.42157E-07-6.93965E-19-1.95172E-19
 -1      1549 1.04211E-04-3.14107E-05-3.11562E-05 1.85739E-06-2.28844E-19 1.61254E-19
 -1      1550 1.05948E-04-3.20371E-05-3.16613E-05 1.58939E-06 3.48243E-20 2.17423E-19
 -1      1551 1.05622E-04-3.20346E-05-3.14746E-05 2.49620E-06-2.83816E-19 3.12489E-19
 -1      1552 1.00003E-04-3.00686E-05-2.99535E-05 2.53064E-06-2.22644E-20 3.57951E-19
 -1      1553 1.02563E-04-3.09665E-05-3.06744E-05 2.30321E-06-1.66157E-19 2.77827E-19
 -1      1554 1.03038E-04-3.11938E-05-3.07329E-05 3.96566E-06-3.98959E-19 6.04715E-19
 -1      1555 9.50869E-05-2.84549E-05-2.85862E-05 2.67012E-06 8.78161E-19-1.01512E-18
 -1      1556 9.80092E-05-2.94508E-05-2.93884E-05 2.58262E-06 5.56013E-19 3.08108E-19
 -1      1557 9.94777E-05-2.99221E-05-2.97792E-05 4.79803E-06 6.41772E-19 9.07305E-19
 -1      1558 9.07312E-05-2.69975E-05-2.73983E-05 2.04082E-06-1.86916E-19-2.03873E-18
 -1      1559 9.32517E-05-2.78117E-05-2.80758E-05 2.16633E-06 2.26277E-19-1.83359E-18
 -1      1560 9.57064E-05-2.84799E-05-2.88243E-05 4.44555E-06 9.67391E-19-2.21936E-19
 -1      1561 8.83253E-05-2.61884E-05-2.67460E-05 7.12951E-07 3.72761E-20-1.96424E-18
 -1      1562 8.96366E-05-2.65394E-05-2.70922E-05 1.03934E-06-3.66805E-19-2.30186E-18
 -1      1563 9.28162E-05-2.73132E-05-2.81278E-05 2.71457E-06-8.93884E-20-1.60500E-18
 -1      1564 8.87313E-05-2.63387E-05-2.68427E-05-8.81357E-07-2.94430E-19-1.78496E-18
 -1      1565 8.83654E-05-2.60897E-05-2.67428E-05-4.66213E-07 1.66720E-19-1.76702E-18
 -1      1566 9.17981E-05-2.68724E-05-2.79001E-05 3.35653E-08-1.25573E-19-1.39744E-18
 -1      1567 9.18068E-05-2.73896E-05-2.76574E-05-2.15466E-06 3.48203E-19-1.61264E-18
 -1      1568 8.98933E-05-2.66328E-05-2.71446E-05-1.80453E-06 1.94652E-19-1.52148E-18
 -1      1569 9.30325E-05-2.73546E-05-2.82133E-05-2.66076E-06 2.62448E-20-1.30959E-18
 -1      1570 9.64876E-05-2.89514E-05-2.89305E-05-2.70463E-06 3.86621E-19-2.39769E-18
 -1      1571 9.36794E-05-2.79531E-05-2.81689E-05-2.52587E-06 4.33893E-19-1.76442E-18
 -1      1572 9.60695E-05-2.85627E-05-2.89700E-05-4.42699E-06 5.35910E-19-8.80054E-19
 -1      1573 1.01358E-04-3.05299E-05-3.02955E-05-2.49846E-06 2.92800E-19-3.42365E-18
 -1      1574 9.84877E-05-2.95852E-05-2.95023E-05-2.50386E-06 1.22315E-19-2.92983E-18
 -1      1575 9.98886E-05-3.00357E-05-2.99469E-05-4.82577E-06 4.62985E-19-1.75333E-18
 -1      1576 1.05272E-04-3.17525E-05-3.14335E-05-1.79370E-06-4.01070E-19-3.71519E-18
 -1      1577 1.02995E-04-3.10619E-05-3.07884E-05-1.92496E-06-1.26426E-20-3.30774E-18
 -1      1578 1.03418E-04-3.13195E-05-3.08894E-05-4.03770E-06-2.66220E-20-1.65249E-18
 -1      1579 1.07666E-04-3.24606E-05-3.21648E-05-9.28030E-07-8.83952E-19-2.50272E-18
 -1      1580 1.06290E-04-3.20921E-05-3.17616E-05-1.10694E-06-5.41598E-19-3.68072E-18
 -1      1581 1.05938E-04-3.21543E-05-3.16028E-05-2.60297E-06-6.96923E-19-1.84973E-18
 -1      1582 1.08519E-04-3.26758E-05-3.24589E-05-1.55253E-07-7.19320E-19-9.65493E-19
 -1      1583 1.08037E-04-3.25962E-05-3.23057E-05-3.22531E-07-7.46011E-19-2.11554E-18
 -1      1584 1.07199E-04-3.24972E-05-3.19957E-05-1.07365E-06-1.18790E-18-8.77735E-19
 -1      1585 1.08140E-04-3.25146E-05-3.23866E-05 4.04114E-07-6.39894E-19 5.09384E-19
 -1      1586 1.08359E-04-3.26431E-05-3.24364E-05 2.77839E-07-8.13721E-19-9.08258E-19
 -1      1587 1.07312E-04-3.24395E-05-3.20725E-05 1.91136E-07-1.16926E-18-1.86296E-19
 -1      1588 1.06946E-04-3.21164E-05-3.20621E-05 7.34611E-07-4.95647E-21 1.22783E-18
 -1      1589 1.07617E-04-3.23668E-05-3.22472E-05 6.55100E-07-1.93643E-20 8.75978E-19
 -1      1590 1.06570E-04-3.21167E-05-3.18976E-05 1.05186E-06-7.40499E-19 4.12995E-20
 -1      1591 1.05325E-04-3.16022E-05-3.15983E-05 8.76545E-07-1.30993E-19 2.09369E-18
 -1      1592 1.06225E-04-3.19044E-05-3.18548E-05 8.36847E-07 2.87929E-19 1.79034E-18
 -1      1593 1.05303E-04-3.16537E-05-3.15573E-05 1.52168E-06-5.98713E-20 7.95625E-19
 -1      1594 1.03575E-04-3.10602E-05-3.10857E-05 8.86886E-07 9.89005E-19-2.95515E-19
 -1      1595 1.04535E-04-3.13661E-05-3.13641E-05 8.75902E-07 9.02663E-19 1.06926E-18
 -1      1596 1.03794E-04-3.11435E-05-3.11327E-05 1.68582E-06 1.61974E-18 1.15599E-18
 -1      1597 1.01889E-04-3.05463E-05-3.05855E-05 8.17909E-07 9.61529E-19-2.36527E-18
 -1      1598 1.02804E-04-3.08276E-05-3.08533E-05 8.25067E-07 6.58472E-19-1.14244E-18
 -1      1599 1.02252E-04-3.06463E-05-3.06870E-05 1.64458E-06 1.32136E-18-1.22018E-18
 -1      1600 1.00380E-04-3.00909E-05-3.01336E-05 7.09390E-07-2.67530E-19-2.43222E-18
 -1      1601 1.01190E-04-3.03337E-05-3.03726E-05 7.26431E-07 1.67802E-19-1.85473E-18
 -1      1602 1.00808E-04-3.01964E-05-3.02627E-05 1.48464E-06 4.85547E-19-9.27551E-19
 -1      1603 9.90957E-05-2.97062E-05-2.97468E-05 5.88107E-07 1.58127E-19-1.36071E-18
 -1      1604 9.97780E-05-2.99065E-05-2.99491E-05 6.09306E-07 1.43456E-19-1.56452E-18
 -1      1605 9.95355E-05-2.98093E-05-2.98839E-05 1.26995E-06-5.24292E-20-3.27618E-19
 -1      1606 9.80450E-05-2.93934E-05-2.94290E-05 4.70251E-07-2.65363E-19-3.80672E-19
 -1      1607 9.85971E-05-2.95526E-05-2.95934E-05 4.92002E-07-4.15296E-19-1.31421E-18
 -1      1608 9.84617E-05-2.94889E-05-2.95614E-05 1.04263E-06-2.61864E-19 4.38413E-19
 -1      1609 9.72132E-05-2.91469E-05-2.91766E-05 3.64407E-07-7.61798E-19-1.98672E-20
 -1      1610 9.76455E-05-2.92695E-05-2.93058E-05 3.84665E-07-2.15414E-20 9.73922E-21
 -1      1611 9.75873E-05-2.92319E-05-2.92969E-05 8.27520E-07-2.88894E-19 1.27723E-18
 -1      1612 9.65739E-05-2.89583E-05-2.89821E-05 2.74142E-07 5.08672E-19 1.04273E-19
 -1      1613 9.69023E-05-2.90499E-05-2.90805E-05 2.91924E-07-6.17915E-19-3.71604E-19
 -1      1614 9.68966E-05-2.90314E-05-2.90868E-05 6.37268E-07-7.00470E-19 1.28348E-18
 -1      1615 9.60968E-05-2.88181E-05-2.88366E-05 1.99937E-07 2.56518E-19-3.19708E-19
 -1      1616 9.63387E-05-2.88844E-05-2.89093E-05 2.14942E-07 8.21334E-19 2.67599E-19
 -1      1617 9.63661E-05-2.88792E-05-2.89246E-05 4.76536E-07 6.06388E-19 1.81685E-18
 -1      1618 9.57520E-05-2.87171E-05-2.87313E-05 1.40502E-07 5.50760E-19-1.34085E-18
 -1      1619 9.59241E-05-2.87633E-05-2.87832E-05 1.52850E-07 6.15968E-19-4.19778E-19
 -1      1620 9.59702E-05-2.87667E-05-2.88029E-05 3.45121E-07 9.66026E-19 1.25684E-18
 -1      1621 9.55131E-05-2.86473E-05-2.86582E-05 9.36128E-08 3.70058E-19-2.16967E-18
 -1      1622 9.56298E-05-2.86778E-05-2.86935E-05 1.03683E-07 2.07435E-19-1.64146E-18
 -1      1623 9.56839E-05-2.86862E-05-2.87146E-05 2.40059E-07 8.07314E-19-1.15222E-19
 -1      1624 9.53577E-05-2.86021E-05-2.86106E-05 5.66957E-08 4.98823E-19-2.27268E-18
 -1      1625 9.54308E-05-2.86202E-05-2.86328E-05 6.50019E-08 2.18504E-19-1.52304E-18
 -1      1626 9.54854E-05-2.86308E-05-2.86532E-05 1.57030E-07 8.46328E-19 5.10923E-19
 -1      1627 9.52684E-05-2.85763E-05-2.85832E-05 2.73618E-08 1.34766E-19-2.89361E-18
 -1      1628 9.53070E-05-2.85846E-05-2.85950E-05 3.44463E-08 4.45516E-19-2.40706E-18
 -1      1629 9.53561E-05-2.85951E-05-2.86131E-05 9.14580E-08 5.05739E-19 2.13022E-18
 -1      1630 9.52305E-05-2.85660E-05-2.85709E-05 3.92532E-09-6.74162E-19-1.75176E-18
 -1      1631 9.52417E-05-2.85663E-05-2.85750E-05 1.03559E-08-2.88013E-19-2.59682E-18
 -1      1632 9.52805E-05-2.85746E-05-2.85893E-05 3.97416E-08-1.82258E-19 1.73005E-18
 -1      1633 9.52293E-05-2.85687E-05-2.85673E-05-1.05683E-08 6.95296E-20-8.71068E-19
 -1      1634 9.52213E-05-2.85631E-05-2.85672E-05-6.17971E-09 5.17754E-20-1.65220E-18
 -1      1635 9.52451E-05-2.85680E-05-2.85764E-05 9.80419E-10 9.77769E-21 1.33540E-18
 -1      1636 9.52318E-05-2.85753E-05-2.85643E-05-8.00466E-09-1.93388E-19-1.58902E-19
 -1      1637 9.52457E-05-2.85819E-05-2.85707E-05-4.24892E-10 5.07487E-18 2.58399E-18
 -1      1638 9.52424E-05-2.85775E-05-2.85698E-05-3.97854E-09 7.40237E-19 3.20646E-18
 -1      1639 9.52372E-05-2.85514E-05-2.85804E-05 2.11742E-08 7.49932E-18 6.49636E-19
 -1      1640 9.52415E-05-2.85659E-05-2.85757E-05 1.64707E-08 6.54005E-18 4.51929E-19
 -1      1641 9.52412E-05-2.85484E-05-2.85834E-05 1.90869E-08 2.45327E-18 3.01648E-18
 -1      1642 9.52168E-05-2.84904E-05-2.85976E-05 4.03104E-08 7.17569E-18-3.17055E-19
 -1      1643 9.52278E-05-2.85233E-05-2.85881E-05 3.68487E-08 7.49680E-18-3.66548E-19
 -1      1644 9.52264E-05-2.85029E-05-2.85970E-05 5.85456E-08 5.44363E-18-2.95340E-19
 -1      1645 9.51897E-05-2.84099E-05-2.86202E-05 5.04516E-08 4.30375E-18-2.15725E-18
 -1      1646 9.52044E-05-2.84537E-05-2.86077E-05 4.92035E-08 6.37440E-18-8.54687E-19
 -1      1647 9.52024E-05-2.84362E-05-2.86147E-05 8.80594E-08 4.00676E-18-1.54563E-18
 -1      1648 9.51621E-05-2.83277E-05-2.86434E-05 4.96815E-08 5.12402E-19-2.27505E-18
 -1      1649 9.51768E-05-2.83715E-05-2.86310E-05 5.06613E-08 3.46912E-18-2.80006E-18
 -1      1650 9.51741E-05-2.83591E-05-2.86349E-05 9.86674E-08 1.95263E-18-3.83487E-18
 -1      1651 9.51386E-05-2.82574E-05-2.86634E-05 3.86009E-08 2.39903E-19 1.52996E-19
 -1      1652 9.51506E-05-2.82932E-05-2.86532E-05 4.15377E-08-3.00804E-20-1.83379E-19
 -1      1653 9.51469E-05-2.82848E-05-2.86544E-05 8.87684E-08 7.78975E-19-2.33927E-18
 -1      1654 9.51244E-05-2.82145E-05-2.86756E-05 1.96754E-08 4.34508E-19-6.10674E-19
 -1      1655 9.51309E-05-2.82340E-05-2.86700E-05 2.39026E-08 3.48471E-19-8.44669E-20
 -1      1656 9.51255E-05-2.82259E-05-2.86699E-05 6.07642E-08-3.57683E-20 1.23210E-19
 -1      1657 9.51220E-05-2.82074E-05-2.86776E-05-3.24719E-09 3.87210E-18 1.76118E-18
 -1      1658 9.51217E-05-2.82065E-05-2.86779E-05 1.43094E-09 1.17723E-18 2.09318E-18
 -1      1659 9.51139E-05-2.81939E-05-2.86784E-05 2.05526E-08 1.98925E-18 1.14729E-18
 -1      1660 9.51320E-05-2.82375E-05-2.86690E-05-2.56583E-08 2.27397E-18-1.01759E-18
 -1      1661 9.51249E-05-2.82163E-05-2.86751E-05-2.14500E-08 2.58335E-18-1.00701E-18
 -1      1662 9.51141E-05-2.81947E-05-2.86782E-05-2.39108E-08 2.23985E-18 7.47604E-19
 -1      1663 9.51525E-05-2.82991E-05-2.86515E-05-4.30513E-08-2.96175E-18-3.03882E-18
 -1      1664 9.51400E-05-2.82618E-05-2.86621E-05-4.01918E-08 1.37537E-18-2.58621E-18
 -1      1665 9.51263E-05-2.82283E-05-2.86693E-05-6.38996E-08 2.89732E-19-3.42027E-18
 -1      1666 9.51790E-05-2.83784E-05-2.86290E-05-5.16029E-08-5.73821E-18-3.98218E-19
 -1      1667 9.51640E-05-2.83336E-05-2.86417E-05-5.07431E-08-3.95991E-18-2.59644E-18
 -1      1668 9.51482E-05-2.82882E-05-2.86535E-05-9.11529E-08-1.98164E-18-5.10235E-18
 -1      1669 9.52071E-05-2.84619E-05-2.86055E-05-4.92868E-08-4.96331E-18 7.20867E-19
 -1      1670 9.51924E-05-2.84180E-05-2.86179E-05-5.07620E-08-6.56878E-18 2.84536E-18
 -1      1671 9.51759E-05-2.83636E-05-2.86338E-05-9.98881E-08-3.27060E-18 8.62585E-19
 -1      1672 9.52302E-05-2.85307E-05-2.85861E-05-3.57005E-08-7.07276E-18-1.50274E-18
 -1      1673 9.52196E-05-2.84986E-05-2.85953E-05-3.94318E-08-4.90644E-18 5.15849E-19
 -1      1674 9.52047E-05-2.84419E-05-2.86133E-05-8.74095E-08-4.04295E-18 1.34297E-19
 -1      1675 9.52441E-05-2.85709E-05-2.85744E-05-1.51511E-08-6.09003E-18 1.31002E-18
 -1      1676 9.52389E-05-2.85576E-05-2.85786E-05-2.02615E-08-6.57580E-18-9.66817E-19
 -1      1677 9.52275E-05-2.85071E-05-2.85957E-05-5.57632E-08-2.72026E-18-1.79309E-18
 -1      1678 9.52443E-05-2.85736E-05-2.85724E-05 1.82217E-09-2.58767E-18 7.36970E-19
 -1      1679 9.52472E-05-2.85776E-05-2.85735E-05-2.74947E-09-4.32889E-18 1.79399E-18
 -1      1680 9.52453E-05-2.85418E-05-2.85869E-05-2.50072E-08-1.54360E-18 2.56989E-18
 -1      1681 9.52489E-05-2.85568E-05-2.85813E-05-3.19296E-09-1.06686E-18 2.20678E-18
 -1      1682 2.01191E-05-6.49894E-05 1.35545E-05-4.80058E-06 5.48539E-18 1.63202E-18
 -1      1683 2.33973E-05-7.50170E-05 1.57256E-05 2.82975E-06 3.20930E-18 1.81329E-18
 -1      1684 2.00629E-05-3.78225E-05 3.68550E-06 5.19560E-06 3.81842E-18 5.82653E-19
 -1      1685 2.42187E-05-5.97259E-05 9.51573E-06 1.57571E-06 4.98055E-18 7.71223E-19
 -1      1686 3.58611E-05-1.24352E-05-1.17454E-05 2.91970E-05 1.69830E-18 4.63327E-19
 -1      1687 3.01939E-05-3.27824E-05-3.20826E-06 1.22161E-05 3.26446E-18 6.86944E-19
 -1      1688 7.26549E-05 1.20922E-07-3.03973E-05 5.97406E-05 1.36033E-18 2.36492E-18
 -1      1689 4.84749E-05-6.16730E-06-2.04815E-05 3.65873E-05 1.38066E-18 1.15789E-18
 -1      1690 1.40625E-04-1.72793E-05-4.95091E-05 7.55397E-05 1.69661E-18 4.24872E-18
 -1      1691 9.89329E-05-5.11492E-06-3.98180E-05 6.28737E-05 1.35441E-18 2.95276E-18
 -1      1692 2.04154E-04-4.14542E-05-6.43559E-05 6.69503E-05 1.42863E-18 3.10522E-18
 -1      1693 1.63253E-04-2.13014E-05-5.76234E-05 7.57206E-05 1.81180E-18 3.35340E-18
 -1      1694 2.43629E-04-5.99481E-05-7.25789E-05 2.59311E-05 1.63753E-18-2.30393E-19
 -1      1695 2.19024E-04-4.64179E-05-6.89818E-05 5.31804E-05 1.77792E-18 2.28868E-18
 -1      1696 2.49831E-04-6.21752E-05-7.40299E-05-2.36102E-05 1.26547E-18-3.35637E-18
 -1      1697 2.52919E-04-6.41928E-05-7.45279E-05 1.09204E-05 1.22777E-18-1.17611E-18
 -1      1698 2.09464E-04-4.15042E-05-6.70328E-05-6.42227E-05 3.30592E-18-6.09694E-18
 -1      1699 2.40989E-04-5.88010E-05-7.16206E-05-3.99216E-05 2.15972E-18-3.73880E-18
 -1      1700 1.46715E-04-1.60358E-05-5.34646E-05-7.40608E-05 4.83698E-18-7.47761E-18
 -1      1701 1.88604E-04-3.47578E-05-6.09489E-05-7.13763E-05 3.59862E-18-6.67208E-18
 -1      1702 8.69169E-05-2.69122E-06-3.61108E-05-5.98256E-05 6.39510E-18-7.15658E-18
 -1      1703 1.23525E-04-1.10120E-05-4.53932E-05-7.50151E-05 5.24652E-18-7.64278E-18
 -1      1704 4.61120E-05-1.08362E-05-1.75265E-05-3.25545E-05 6.63735E-18-6.32988E-18
 -1      1705 6.57775E-05-1.69144E-06-2.70739E-05-5.43276E-05 6.78643E-18-6.86605E-18
 -1      1706 3.09820E-05-3.77442E-05-1.25937E-06-1.20383E-05 6.64243E-18-3.45759E-18
 -1      1707 3.49737E-05-1.76985E-05-9.33816E-06-2.67307E-05 6.62973E-18-4.62480E-18
 -1      1708 2.37775E-05-6.34333E-05 1.09992E-05-2.37498E-07 5.35028E-18-2.31595E-18
 -1      1709 1.87074E-05-4.22098E-05 5.68560E-06-1.48983E-06 6.70003E-18-3.49052E-18
 -1      1710 2.27591E-05-7.38999E-05 1.57178E-05-3.93169E-06 1.33037E-18-2.05046E-18
 -1      1711 2.04057E-05-6.65426E-05 1.40875E-05 4.19321E-06 4.16232E-18-2.27725E-18
 -1      1712 2.01578E-05-6.52225E-05 1.34213E-05-7.03774E-06-4.67901E-18-3.78624E-18
 -1      1713 2.35333E-05-7.50043E-05 1.56423E-05 3.44767E-07-1.15408E-19-3.02984E-18
 -1      1714 1.93485E-05-3.97451E-05 4.11475E-06 5.02490E-07-8.30770E-18-4.70802E-18
 -1      1715 2.39060E-05-6.14784E-05 9.81783E-06-2.94995E-06-6.16979E-18-3.19149E-18
 -1      1716 3.30394E-05-1.31940E-05-1.09501E-05 2.50374E-05-9.62399E-18-7.65210E-18
 -1      1717 2.79263E-05-3.34794E-05-2.64266E-06 7.93388E-06-9.12678E-18-5.41423E-18
 -1      1718 7.86660E-05-6.27556E-06-3.05004E-05 5.75022E-05-8.57790E-18-8.25010E-18
 -1      1719 5.34957E-05-1.26836E-05-2.01025E-05 3.41711E-05-8.80830E-18-7.88418E-18
 -1      1720 1.39732E-04-1.66912E-05-4.94223E-05 7.67533E-05-6.46837E-18-8.98024E-18
 -1      1721 9.89825E-05-4.95998E-06-4.00670E-05 6.36738E-05-8.21114E-18-9.24028E-18
 -1      1722 2.07159E-04-4.34678E-05-6.46738E-05 6.37289E-05-3.81313E-18-7.66734E-18
 -1      1723 1.64434E-04-2.39032E-05-5.72349E-05 7.06944E-05-5.55632E-18-8.77272E-18
 -1      1724 2.54259E-04-6.40454E-05-7.43471E-05 3.00263E-05-1.70254E-18-5.80260E-18
 -1      1725 2.26838E-04-4.92256E-05-7.04891E-05 5.67850E-05-3.17696E-18-7.38867E-18
 -1      1726 2.58278E-04-6.51461E-05-7.58526E-05-2.02280E-05-2.07417E-18-8.24798E-19
 -1      1727 2.60591E-04-6.63898E-05-7.61050E-05 1.48375E-05-1.65955E-18-4.26778E-18
 -1      1728 2.14695E-04-4.37476E-05-6.82483E-05-5.88124E-05-3.30428E-18 3.76676E-18
 -1      1729 2.46312E-04-6.04681E-05-7.30252E-05-3.36599E-05-2.54428E-18 2.45640E-20
 -1      1730 1.49746E-04-1.73330E-05-5.41819E-05-7.46470E-05-4.47360E-18 6.14522E-18
 -1      1731 1.96046E-04-3.80074E-05-6.23776E-05-7.17401E-05-2.63851E-18 5.39645E-18
 -1      1732 8.93757E-05-7.43726E-06-3.55561E-05-5.58784E-05-5.55400E-18 5.36849E-18
 -1      1733 1.26968E-04-1.50330E-05-4.53077E-05-7.21026E-05-4.50113E-18 5.35664E-18
 -1      1734 4.42372E-05-1.24194E-05-1.67588E-05-2.91411E-05-5.24483E-18 4.83317E-18
 -1      1735 6.39786E-05-3.09113E-06-2.62876E-05-5.15041E-05-5.25669E-18 6.04612E-18
 -1      1736 2.79498E-05-3.81065E-05-6.77080E-07-6.57536E-06-5.01782E-18 2.61183E-18
 -1      1737 3.12776E-05-1.76969E-05-8.51000E-06-2.13522E-05-5.12963E-18 3.79174E-18
 -1      1738 2.37707E-05-6.43484E-05 1.10220E-05 3.22829E-06-2.28953E-18 1.77644E-18
 -1      1739 1.88014E-05-4.36455E-05 5.80439E-06 1.60730E-06-4.42575E-18 2.30552E-18
 -1      1740 2.33587E-05-7.54371E-05 1.59142E-05-8.29087E-07 2.83375E-18 2.60950E-18
 -1      1741 2.06478E-05-6.77612E-05 1.41862E-05 7.17429E-06-1.17822E-18 1.76628E-18
 -1      1742 1.13458E-04-3.01467E-05-3.47065E-05 4.59518E-05 6.15793E-19 2.48435E-18
 -1      1743 7.14629E-05-3.43607E-05-1.72438E-05 4.02988E-05 7.45389E-19 5.25160E-20
 -1      1744 9.52402E-05-2.85789E-05-2.85680E-05-1.25002E-08-3.96404E-19 2.14036E-18
 -1      1745 9.52411E-05-2.85647E-05-2.85751E-05-7.48880E-09 2.96536E-20 4.38109E-18
 -1      1746 1.89028E-05-4.63065E-05 7.80100E-06 1.68797E-05 2.00366E-18 4.77727E-19
 -1      1747 4.06800E-05-4.10986E-05-2.55431E-06 3.07459E-05 1.45181E-18-1.10276E-18
 -1      1748 1.14082E-05-4.95369E-05 1.18031E-05 1.69463E-06 1.59131E-18 3.36018E-18
 -1      1749 1.56721E-04-3.06283E-05-5.11741E-05 4.20743E-05 7.36072E-19 1.78555E-18
 -1      1750 1.90007E-04-3.15729E-05-6.34101E-05 2.93992E-05 1.50878E-18-1.47384E-19
 -1      1751 2.07760E-04-3.31818E-05-6.95686E-05 7.50662E-06 2.54110E-18-8.02564E-19
 -1      1752 2.09447E-04-3.51401E-05-6.91907E-05-1.51513E-05 2.69526E-18-2.35009E-18
 -1      1753 1.84388E-04-3.21355E-05-6.10517E-05-3.42536E-05 3.26531E-18-2.86636E-18
 -1      1754 1.46821E-04-2.99855E-05-4.76159E-05-4.39783E-05 3.15456E-18-4.32749E-18
 -1      1755 1.05072E-04-3.07761E-05-3.13732E-05-4.54792E-05 4.10345E-18-4.65826E-18
 -1      1756 6.87637E-05-3.74873E-05-1.49270E-05-3.95750E-05 3.56093E-18-3.62318E-18
 -1      1757 3.79677E-05-4.17182E-05-9.12970E-07-3.01489E-05 3.26531E-18-2.72551E-18
 -1      1758 1.68034E-05-4.65235E-05 8.73218E-06-1.38225E-05 2.02610E-18-3.17913E-18
 -1      1759 1.14789E-05-4.86407E-05 1.15611E-05-1.40225E-07-3.75606E-19-4.90940E-18
 -1      1760 1.92711E-05-4.82949E-05 8.10102E-06 1.27084E-05-2.75921E-18-4.55598E-18
 -1      1761 3.86419E-05-4.21643E-05-1.79816E-06 2.55399E-05-5.08813E-18-4.86012E-18
 -1      1762 7.38380E-05-3.72117E-05-1.70226E-05 3.84172E-05-5.31937E-18-5.47734E-18
 -1      1763 1.16547E-04-3.43183E-05-3.45983E-05 4.35827E-05-5.30666E-18-4.98055E-18
 -1      1764 1.59884E-04-3.33492E-05-5.12852E-05 4.02803E-05-5.03392E-18-5.70138E-18
 -1      1765 1.94862E-04-3.48303E-05-6.40418E-05 2.66256E-05-3.73330E-18-5.04154E-18
 -1      1766 2.17850E-04-3.76456E-05-7.13274E-05 1.01754E-05-2.88669E-18-2.98600E-18
 -1      1767 2.12124E-04-3.53732E-05-7.02775E-05-1.08152E-05-3.60243E-18-2.14723E-19
 -1      1768 1.89287E-04-3.40265E-05-6.21420E-05-3.09882E-05-2.90606E-18 1.05879E-18
 -1      1769 1.51582E-04-3.42970E-05-4.79526E-05-4.12819E-05-3.33159E-18 3.02899E-18
 -1      1770 1.07491E-04-3.43944E-05-3.09520E-05-4.31154E-05-3.33307E-18 3.89805E-18
 -1      1771 6.56891E-05-3.69460E-05-1.41480E-05-3.62826E-05-2.96123E-18 3.15732E-18
 -1      1772 3.60148E-05-4.32508E-05-2.37295E-07-2.47279E-05-1.52381E-18 2.35600E-18
 -1      1773 1.76045E-05-4.89656E-05 9.01880E-06-1.09836E-05 6.31887E-19 2.89812E-18
 -1      1774 1.05808E-04-2.31199E-05-3.55229E-05-1.67551E-05-9.41636E-19 3.91964E-18
 -1      1775 8.91786E-05-1.05571E-05-3.38186E-05-1.31512E-05-1.23364E-18-1.30695E-18
 -1      1776 9.04838E-05-1.16311E-05-3.39446E-05-1.49284E-05-1.44124E-18-8.69400E-19
 -1      1777 9.24867E-05-1.38821E-05-3.38471E-05-1.58343E-05-1.41351E-18-3.36801E-19
 -1      1778 9.41545E-05-1.58283E-05-3.40706E-05-1.75031E-05-1.49121E-18 4.19228E-19
 -1      1779 9.34586E-05-1.63609E-05-3.30517E-05-1.35578E-05-1.49608E-18-5.19019E-19
 -1      1780 8.62646E-05-7.60172E-06-3.37844E-05-7.69019E-06-7.02973E-19-1.99459E-18
 -1      1781 8.66720E-05-7.91353E-06-3.38133E-05-9.06756E-06-8.74538E-19-1.93621E-18
 -1      1782 8.56263E-05-6.92830E-06-3.37873E-05-5.18489E-06-4.35048E-19-2.05944E-18
 -1      1783 8.58702E-05-7.11916E-06-3.38002E-05-6.46916E-06-5.56418E-19-2.02933E-18
 -1      1784 8.76194E-05-9.74579E-06-3.34062E-05-6.74442E-06-6.81651E-19-1.89097E-18
 -1      1785 8.52707E-05-6.54225E-06-3.37930E-05-2.80732E-06-1.17323E-19-2.16171E-18
 -1      1786 8.53998E-05-6.64528E-06-3.37982E-05-4.02018E-06-2.67082E-19-2.13288E-18
 -1      1787 8.69551E-05-8.99051E-06-3.34446E-05-4.40127E-06-3.73964E-19-1.96869E-18
 -1      1788 8.51285E-05-6.38072E-06-3.37970E-05-4.99861E-07 1.42902E-19-2.11734E-18
 -1      1789 8.51677E-05-6.41223E-06-3.37984E-05-1.67908E-06 4.16349E-20-2.19550E-18
 -1      1790 8.65996E-05-8.58216E-06-3.34669E-05-2.14520E-06-7.01596E-20-2.04908E-18
 -1      1791 8.51761E-05-6.42126E-06-3.37979E-05 1.79665E-06 3.74856E-19-2.02348E-18
 -1      1792 8.51317E-05-6.38541E-06-3.37967E-05 6.16426E-07 2.64450E-19-2.08820E-18
 -1      1793 8.64921E-05-8.45842E-06-3.34737E-05 6.46532E-08 2.20714E-19-2.05386E-18
 -1      1794 8.54218E-05-6.67044E-06-3.37968E-05 4.14232E-06 6.38010E-19-1.92366E-18
 -1      1795 8.52863E-05-6.56145E-06-3.37919E-05 2.92633E-06 5.04177E-19-1.98825E-18
 -1      1796 8.66156E-05-8.60235E-06-3.34652E-05 2.27584E-06 4.59768E-19-1.96127E-18
 -1      1797 8.58994E-05-7.15435E-06-3.37978E-05 6.55692E-06 8.60680E-19-1.65269E-18
 -1      1798 8.56524E-05-6.96028E-06-3.37854E-05 5.28983E-06 7.06708E-19-1.82520E-18
 -1      1799 8.69858E-05-9.02894E-06-3.34412E-05 4.51579E-06 7.38106E-19-1.79280E-18
 -1      1800 8.67301E-05-7.98173E-06-3.38098E-05 9.18871E-06 1.17151E-18-1.25870E-18
 -1      1801 8.63037E-05-7.65160E-06-3.37809E-05 7.78022E-06 9.63162E-19-1.45986E-18
 -1      1802 8.76661E-05-9.80444E-06-3.34009E-05 6.84367E-06 9.67923E-19-1.49227E-18
 -1      1803 8.81431E-05-9.36564E-06-3.38498E-05 1.20577E-05 1.44042E-18-8.17784E-19
 -1      1804 8.74077E-05-8.79577E-06-3.37863E-05 1.04684E-05 1.31750E-18-1.06935E-18
 -1      1805 8.88099E-05-1.10878E-05-3.33396E-05 9.29110E-06 1.32897E-18-1.03901E-18
 -1      1806 9.06553E-05-1.18425E-05-3.39355E-05 1.51154E-05 1.68258E-18 4.57662E-20
 -1      1807 8.92975E-05-1.07366E-05-3.38093E-05 1.33216E-05 1.48560E-18-4.70236E-19
 -1      1808 9.07080E-05-1.31928E-05-3.32392E-05 1.17596E-05 1.52378E-18-4.76866E-19
 -1      1809 9.58141E-05-1.70327E-05-3.39660E-05 1.75302E-05 1.64351E-18 1.54441E-18
 -1      1810 9.28459E-05-1.43484E-05-3.38193E-05 1.60228E-05 1.62813E-18 6.17831E-19
 -1      1811 9.39770E-05-1.68798E-05-3.30304E-05 1.37001E-05 1.73527E-18 3.82515E-19
 -1      1812 1.01768E-04-2.50583E-05-3.33058E-05 1.43026E-05 1.35986E-18 3.44022E-18
 -1      1813 9.79772E-05-1.96057E-05-3.35874E-05 1.68219E-05 1.50339E-18 2.20657E-18
 -1      1814 9.72746E-05-2.18424E-05-3.24081E-05 1.30886E-05 1.62313E-18 1.54176E-18
 -1      1815 9.86293E-05-2.61032E-05-3.13020E-05 9.32102E-06 1.37661E-18 2.96972E-18
 -1      1816 1.00014E-04-1.95470E-05-3.41650E-05-1.87381E-05-1.26568E-18 1.67924E-18
 -1      1817 9.52632E-05-2.72642E-05-2.91727E-05 3.94378E-06 1.01054E-18 2.29141E-18
 -1      1818 9.76503E-05-2.73603E-05-3.01675E-05 6.28235E-06 1.15114E-18 2.65344E-18
 -1      1819 9.75181E-05-2.55962E-05-3.08163E-05 8.61370E-06 1.34056E-18 1.82607E-18
 -1      1820 9.97162E-05-2.25224E-05-3.28024E-05-1.43252E-05-1.33818E-18 1.12677E-18
 -1      1821 9.69205E-05-2.69556E-05-2.98695E-05-5.55438E-06-1.08195E-18 9.39191E-19
 -1      1822 9.51615E-05-2.70187E-05-2.91747E-05-3.73510E-06-9.38248E-19 6.70930E-19
 -1      1823 9.43845E-05-2.72248E-05-2.86851E-05-2.23043E-06-9.01825E-19 6.94680E-19
 -1      1824 9.36756E-05-2.73163E-05-2.84002E-05-1.35033E-06-7.90970E-19 5.25207E-19
 -1      1825 9.55654E-05-2.65291E-05-2.96093E-05-4.23861E-06-1.06180E-18 1.02726E-19
 -1      1826 9.32111E-05-2.73767E-05-2.81548E-05-4.78467E-07-6.34080E-19 5.30259E-19
 -1      1827 9.29957E-05-2.74565E-05-2.80600E-05 1.14731E-09-4.55863E-19 3.57292E-19
 -1      1828 9.44563E-05-2.72094E-05-2.88421E-05-1.51043E-06-8.65350E-19 1.58233E-19
 -1      1829 9.28024E-05-2.74979E-05-2.79554E-05 5.22903E-07-3.68248E-19 2.73866E-19
 -1      1830 9.28906E-05-2.75986E-05-2.79629E-05 8.06379E-07-1.84772E-19 2.07113E-19
 -1      1831 9.38936E-05-2.75279E-05-2.84611E-05 8.24655E-08-5.47809E-19-9.00022E-20
 -1      1832 9.28993E-05-2.76504E-05-2.79467E-05 1.13844E-06-1.83441E-19 1.57242E-19
 -1      1833 9.31803E-05-2.77713E-05-2.80173E-05 1.32412E-06-2.76555E-19-3.79821E-20
 -1      1834 9.37612E-05-2.77328E-05-2.83130E-05 1.06388E-06-2.43274E-19-3.61216E-19
 -1      1835 9.33362E-05-2.78380E-05-2.80614E-05 1.55926E-06-5.18904E-19 5.10250E-20
 -1      1836 9.37521E-05-2.79758E-05-2.81762E-05 1.70238E-06-5.73024E-19-9.20445E-22
 -1      1837 9.39534E-05-2.79079E-05-2.83170E-05 1.71852E-06-3.80592E-19-3.55391E-19
 -1      1838 9.40207E-05-2.80567E-05-2.82649E-05 1.89908E-06-5.67403E-19-1.69632E-20
 -1      1839 9.45462E-05-2.82111E-05-2.84154E-05 2.03519E-06-3.30807E-19 1.71054E-19
 -1      1840 9.43903E-05-2.80787E-05-2.84288E-05 2.21655E-06-5.98061E-19-1.52194E-19
 -1      1841 9.49093E-05-2.83061E-05-2.85408E-05 2.23340E-06-1.74652E-19 1.12266E-19
 -1      1842 9.55409E-05-2.84802E-05-2.87249E-05 2.38774E-06 1.03804E-19 2.93598E-20
 -1      1843 9.50244E-05-2.82556E-05-2.86233E-05 2.66892E-06-2.33517E-19-3.71557E-19
 -1      1844 9.59928E-05-2.85908E-05-2.88839E-05 2.61636E-06-6.88595E-20-1.99582E-19
 -1      1845 9.67418E-05-2.87911E-05-2.91040E-05 2.80760E-06-1.08971E-19-4.76145E-19
 -1      1846 9.58350E-05-2.84467E-05-2.88883E-05 3.15322E-06-2.55687E-19-6.52480E-19
 -1      1847 9.72859E-05-2.89214E-05-2.92965E-05 3.08735E-06-1.41983E-19-6.54282E-19
 -1      1848 9.81736E-05-2.91581E-05-2.95578E-05 3.32828E-06-1.14478E-19-6.69138E-19
 -1      1849 9.68222E-05-2.86624E-05-2.92191E-05 3.72525E-06-2.67290E-19-8.13869E-19
 -1      1850 9.88198E-05-2.93151E-05-2.97851E-05 3.67122E-06-3.22109E-19-7.77212E-19
 -1      1851 9.98730E-05-2.96018E-05-3.00937E-05 3.96666E-06-1.23908E-19-7.35428E-19
 -1      1852 9.80013E-05-2.89190E-05-2.96149E-05 4.42176E-06-3.00436E-19-6.31849E-19
 -1      1853 1.00635E-04-2.97970E-05-3.03569E-05 4.37234E-06 1.70222E-19-9.90609E-19
 -1      1854 1.01880E-04-3.01518E-05-3.07175E-05 4.71361E-06 1.32762E-19-5.42498E-19
 -1      1855 9.93991E-05-2.92428E-05-3.00760E-05 5.25598E-06-1.11090E-19-5.20422E-19
 -1      1856 1.02776E-04-3.04038E-05-3.10147E-05 5.16056E-06 2.97123E-20-4.91150E-19
 -1      1857 1.04226E-04-3.08493E-05-3.14271E-05 5.51496E-06-6.25249E-20-6.31966E-20
 -1      1858 1.01051E-04-2.96771E-05-3.05989E-05 6.20451E-06 1.39807E-19-5.04595E-20
 -1      1859 1.05277E-04-3.11883E-05-3.17510E-05 5.94591E-06-1.89760E-19-3.25929E-19
 -1      1860 1.06920E-04-3.17512E-05-3.22044E-05 6.23988E-06 3.80842E-20-3.49252E-19
 -1      1861 1.03001E-04-3.02929E-05-3.11724E-05 7.18287E-06-5.65047E-20-1.05264E-19
 -1      1862 1.08150E-04-3.22233E-05-3.25394E-05 6.53997E-06-1.21589E-19-4.24767E-19
 -1      1863 1.09921E-04-3.29286E-05-3.30052E-05 6.63756E-06-3.05479E-19-4.93582E-19
 -1      1864 1.05303E-04-3.12008E-05-3.17723E-05 8.00716E-06-1.05976E-19-7.37327E-19
 -1      1865 1.11358E-04-3.35944E-05-3.33261E-05 6.60898E-06-5.08250E-19-5.31844E-19
 -1      1866 1.13108E-04-3.44468E-05-3.37513E-05 6.29622E-06-4.29552E-19-6.89663E-19
 -1      1867 1.08019E-04-3.25545E-05-3.23599E-05 8.34494E-06-4.83843E-19-7.74914E-19
 -1      1868 1.14765E-04-3.53578E-05-3.40277E-05 5.64668E-06-2.38344E-19-6.20372E-19
 -1      1869 1.16223E-04-3.62926E-05-3.43353E-05 4.65320E-06-3.55410E-19-5.35378E-19
 -1      1870 1.11199E-04-3.45125E-05-3.28880E-05 7.67555E-06-1.69761E-19-1.31641E-19
 -1      1871 1.18038E-04-3.74134E-05-3.45460E-05 3.04424E-06-2.62448E-19-4.33787E-19
 -1      1872 1.18792E-04-3.82006E-05-3.46527E-05 1.16091E-06-6.53274E-20-4.83517E-19
 -1      1873 1.14800E-04-3.70926E-05-3.33261E-05 5.32151E-06-3.28626E-19 1.63333E-19
 -1      1874 1.20486E-04-3.92460E-05-3.48122E-05-1.58564E-06 4.24125E-19-4.49973E-19
 -1      1875 1.20040E-04-3.93961E-05-3.46760E-05-4.21919E-06 1.08253E-18-5.12574E-19
 -1      1876 1.18472E-04-3.98423E-05-3.37061E-05 6.88727E-07 1.93554E-19-1.32791E-19
 -1      1877 1.20969E-04-3.96978E-05-3.48621E-05-7.65760E-06 1.60918E-18-3.71689E-19
 -1      1878 1.19016E-04-3.85857E-05-3.45313E-05-1.01881E-05 1.29048E-18 8.38496E-20
 -1      1879 1.21215E-04-4.14015E-05-3.41764E-05-6.07323E-06 1.34492E-18-5.81491E-20
 -1      1880 1.18451E-04-3.73842E-05-3.48317E-05-1.28134E-05 6.99393E-19 8.13099E-19
 -1      1881 1.15270E-04-3.47852E-05-3.44587E-05-1.36673E-05 4.55929E-19 1.14310E-18
 -1      1882 1.21540E-04-3.99376E-05-3.49616E-05-1.29390E-05 1.29972E-18 4.18118E-19
 -1      1883 1.13099E-04-3.20526E-05-3.48690E-05-1.31157E-05 5.24896E-20 9.38764E-19
 -1      1884 1.10124E-04-2.91781E-05-3.46149E-05-1.08316E-05 1.04079E-19 9.42721E-19
 -1      1885 1.18352E-04-3.41236E-05-3.61084E-05-1.57660E-05 3.48872E-19 6.73692E-19
 -1      1886 1.08205E-04-2.69505E-05-3.49197E-05-6.25898E-06-3.90376E-19 5.83354E-19
 -1      1887 1.07208E-04-2.59144E-05-3.48553E-05-1.54875E-06-8.58865E-19 2.11530E-19
 -1      1888 1.13718E-04-2.71908E-05-3.72396E-05-1.03390E-05-4.98029E-19 3.80046E-19
 -1      1889 1.07572E-04-2.63215E-05-3.48057E-05 4.56886E-06-1.11247E-18-7.03256E-19
 -1      1890 1.09272E-04-2.80633E-05-3.49295E-05 8.84206E-06-1.00741E-18-1.13796E-18
 -1      1891 1.11930E-04-2.46481E-05-3.76365E-05 1.84242E-06-1.34631E-18-1.14225E-18
 -1      1892 1.11539E-04-3.07123E-05-3.45697E-05 1.23984E-05-6.59839E-19-1.05257E-18
 -1      1893 1.14762E-04-3.37150E-05-3.48714E-05 1.37642E-05-5.73534E-19-1.51747E-18
 -1      1894 1.14925E-04-2.88988E-05-3.69902E-05 1.27816E-05-6.35486E-19-1.71652E-18
 -1      1895 1.16598E-04-3.61241E-05-3.44796E-05 1.32344E-05-6.91561E-19-1.30403E-18
 -1      1896 1.19529E-04-3.83618E-05-3.48611E-05 1.17574E-05-2.65733E-19-8.67646E-19
 -1      1897 1.19577E-04-3.60595E-05-3.57909E-05 1.57477E-05-2.85582E-19-1.60922E-18
 -1      1898 1.19661E-04-3.91144E-05-3.45998E-05 8.69323E-06 2.79991E-19-8.88683E-19
 -1      1899 1.21213E-04-3.98297E-05-3.48934E-05 6.00088E-06 6.96896E-19-3.76331E-19
 -1      1900 1.21841E-04-4.07128E-05-3.47251E-05 1.13347E-05-1.26638E-19-7.45706E-19
 -1      1901 1.19999E-04-3.92324E-05-3.47330E-05 2.65660E-06 4.83272E-19-3.43475E-19
 -1      1902 1.20086E-04-3.88436E-05-3.48105E-05 1.91424E-07 3.57117E-19-2.66332E-19
 -1      1903 1.20738E-04-4.12276E-05-3.40580E-05 4.14787E-06 3.55370E-19-5.18405E-19
 -1      1904 1.18333E-04-3.77299E-05-3.46499E-05-2.22862E-06-3.80417E-19-2.69275E-19
 -1      1905 1.17368E-04-3.68715E-05-3.44905E-05-3.84152E-06-6.91602E-19-4.16846E-19
 -1      1906 1.17619E-04-3.91337E-05-3.36496E-05-2.08900E-06 1.09347E-19-1.40763E-19
 -1      1907 1.15611E-04-3.58010E-05-3.42717E-05-5.13061E-06-1.07181E-18-1.24315E-19
 -1      1908 1.14080E-04-3.48861E-05-3.39361E-05-5.88852E-06-1.23391E-18 2.17678E-19
 -1      1909 1.13952E-04-3.63492E-05-3.32815E-05-6.01187E-06-8.47255E-19 4.01413E-19
 -1      1910 1.12521E-04-3.40537E-05-3.36579E-05-6.30352E-06-1.52975E-18 2.77509E-19
 -1      1911 1.10801E-04-3.32545E-05-3.32319E-05-6.45224E-06-1.10420E-18 1.21596E-19
 -1      1912 1.10516E-04-3.39368E-05-3.28414E-05-7.77129E-06-1.15065E-18 3.63093E-19
 -1      1913 1.09471E-04-3.26598E-05-3.29208E-05-6.32970E-06-7.61056E-19 4.87934E-19
 -1      1914 1.07800E-04-3.20153E-05-3.24764E-05-6.13003E-06 5.55215E-19 8.48555E-20
 -1      1915 1.07550E-04-3.21748E-05-3.23213E-05-8.02818E-06-8.87769E-19 1.14232E-18
 -1      1916 1.06681E-04-3.15999E-05-3.21629E-05-5.73681E-06 8.43547E-19-2.60310E-19
 -1      1917 1.05182E-04-3.10977E-05-3.17466E-05-5.38053E-06 1.02481E-18-2.48938E-19
 -1      1918 1.05060E-04-3.09838E-05-3.17613E-05-7.42763E-06-3.00846E-20 1.53576E-18
 -1      1919 1.04248E-04-3.08046E-05-3.14536E-05-4.88929E-06 4.57795E-19-1.07137E-18
 -1      1920 1.02972E-04-3.04191E-05-3.10891E-05-4.49307E-06 1.02997E-19-3.41011E-19
 -1      1921 1.02991E-04-3.01996E-05-3.12082E-05-6.43645E-06 6.02503E-19 2.23179E-19
 -1      1922 1.02199E-04-3.02075E-05-3.08298E-05-4.00104E-06-7.70606E-19-6.33374E-19
 -1      1923 1.01151E-04-2.99141E-05-3.05247E-05-3.62588E-06-1.51214E-18-1.04192E-18
 -1      1924 1.01283E-04-2.96809E-05-3.06972E-05-5.34218E-06-5.50252E-19-2.98764E-19
 -1      1925 1.00520E-04-2.97580E-05-3.03043E-05-3.18043E-06-4.22802E-19-9.97749E-19
 -1      1926 9.96826E-05-2.95363E-05-3.00571E-05-2.85273E-06 3.32095E-19-1.75805E-20
 -1      1927 9.98874E-05-2.93306E-05-3.02480E-05-4.29989E-06-4.32616E-19-6.20185E-19
 -1      1928 9.91743E-05-2.94195E-05-2.98755E-05-2.47188E-06 8.04996E-20-1.64671E-18
 -1      1929 9.85192E-05-2.92534E-05-2.96802E-05-2.19889E-06 1.11140E-19-1.34834E-18
 -1      1930 9.87604E-05-2.90882E-05-2.98678E-05-3.38033E-06-2.76063E-20-1.05956E-18
 -1      1931 9.81162E-05-2.91655E-05-2.95341E-05-1.88491E-06 5.90387E-19-2.26499E-19
 -1      1932 9.76133E-05-2.90424E-05-2.93829E-05-1.66442E-06-2.37652E-19-7.31327E-20
 -1      1933 9.78624E-05-2.89172E-05-2.95552E-05-2.60577E-06 6.35604E-19-1.56030E-18
 -1      1934 9.72986E-05-2.89764E-05-2.92679E-05-1.41204E-06-5.93380E-19 6.64243E-19
 -1      1935 9.69194E-05-2.88865E-05-2.91529E-05-1.23778E-06-1.56833E-21 1.19598E-18
 -1      1936 9.71574E-05-2.87952E-05-2.93042E-05-1.97321E-06 8.72510E-20 2.19485E-19
 -1      1937 9.66777E-05-2.88375E-05-2.90641E-05-1.03869E-06-4.99915E-20 1.63891E-18
 -1      1938 9.63969E-05-2.87728E-05-2.89783E-05-9.03186E-07 1.34139E-18 1.82104E-18
 -1      1939 9.66123E-05-2.87083E-05-2.91069E-05-1.46800E-06 6.31241E-19 1.81150E-18
 -1      1940 9.62144E-05-2.87369E-05-2.89109E-05-7.48396E-07 2.47248E-18 9.03206E-19
 -1      1941 9.60107E-05-2.86915E-05-2.88482E-05-6.44300E-07 2.13854E-18 1.88641E-18
 -1      1942 9.61977E-05-2.86468E-05-2.89546E-05-1.07126E-06 1.16225E-18 2.85914E-18
 -1      1943 9.58755E-05-2.86656E-05-2.87981E-05-5.25284E-07 1.38714E-18 2.85047E-18
 -1      1944 9.57314E-05-2.86346E-05-2.87534E-05-4.45944E-07 7.78231E-19 4.14618E-18
 -1      1945 9.58880E-05-2.86041E-05-2.88393E-05-7.63764E-07 2.57675E-18 2.25688E-18
 -1      1946 9.56332E-05-2.86163E-05-2.87170E-05-3.55076E-07 4.16453E-19 3.85750E-18
 -1      1947 9.55349E-05-2.85959E-05-2.86862E-05-2.94692E-07 4.02925E-19 3.99587E-18
 -1      1948 9.56609E-05-2.85749E-05-2.87538E-05-5.27770E-07 8.20799E-19 3.83803E-18
 -1      1949 9.54652E-05-2.85832E-05-2.86604E-05-2.25463E-07-3.19033E-19 4.51316E-18
 -1      1950 9.54016E-05-2.85709E-05-2.86402E-05-1.79335E-07-1.51205E-19 4.08715E-18
 -1      1951 9.54982E-05-2.85554E-05-2.86918E-05-3.47635E-07 3.22555E-19 3.95642E-18
 -1      1952 9.53534E-05-2.85627E-05-2.86224E-05-1.26472E-07-3.13971E-20 3.73545E-18
 -1      1953 9.53162E-05-2.85570E-05-2.86099E-05-9.15773E-08 7.88394E-19 3.71224E-18
 -1      1954 9.53843E-05-2.85429E-05-2.86478E-05-2.10654E-07-5.21219E-19 5.12330E-18
 -1      1955 9.52864E-05-2.85539E-05-2.85981E-05-5.42349E-08 1.70184E-18 2.37162E-18
 -1      1956 9.52679E-05-2.85548E-05-2.85904E-05-3.06281E-08 5.18256E-19 2.31383E-18
 -1      1957 9.52674E-05-2.85482E-05-2.85949E-05-4.00249E-08-1.98377E-19 2.48368E-18
 -1      1958 9.53104E-05-2.85404E-05-2.86172E-05-1.09809E-07 3.57003E-19 2.60573E-18
 -1      1959 9.32616E-05-2.73610E-05-2.82140E-05 1.44885E-06 8.44690E-19 1.72590E-18
 -1      1960 9.44026E-05-2.74537E-05-2.86334E-05 2.53530E-06 8.45882E-19 2.11287E-18
 -1      1961 9.52490E-05-2.70365E-05-2.92401E-05 3.87814E-06 9.78786E-19 1.51413E-18
 -1      1962 9.23418E-05-2.73772E-05-2.78158E-05 1.34399E-07 5.78864E-19 1.32349E-18
 -1      1963 9.27648E-05-2.73917E-05-2.79656E-05 7.09051E-07 5.89634E-19 1.59319E-18
 -1      1964 9.37499E-05-2.73750E-05-2.84543E-05 1.35250E-06 7.67154E-19 1.21402E-18
 -1      1965 9.21476E-05-2.74580E-05-2.77063E-05-6.03836E-07 2.95461E-19 1.26174E-18
 -1      1966 9.21646E-05-2.74057E-05-2.77226E-05-2.72145E-07 4.33747E-19 1.32577E-18
 -1      1967 9.30620E-05-2.75177E-05-2.81017E-05-4.82609E-08 5.52133E-19 8.66224E-19
 -1      1968 9.24187E-05-2.76099E-05-2.77623E-05-1.04561E-06-1.42103E-19 1.05788E-18
 -1      1969 9.21961E-05-2.75117E-05-2.77043E-05-8.38881E-07 8.99427E-20 1.19096E-18
 -1      1970 9.29427E-05-2.76515E-05-2.79937E-05-8.65431E-07 1.47344E-19 7.97506E-19
 -1      1971 9.29970E-05-2.78175E-05-2.79235E-05-1.33490E-06 1.15901E-19 8.03467E-19
 -1      1972 9.26232E-05-2.76883E-05-2.78188E-05-1.19270E-06-9.69985E-20 8.17567E-19
 -1      1973 9.32083E-05-2.78153E-05-2.80360E-05-1.37483E-06 3.77079E-20 3.19675E-19
 -1      1974 9.37928E-05-2.80688E-05-2.81581E-05-1.55290E-06 4.53463E-19 7.70267E-19
 -1      1975 9.33137E-05-2.79165E-05-2.80206E-05-1.44056E-06 3.33134E-19 8.83627E-19
 -1      1976 9.37414E-05-2.80130E-05-2.81781E-05-1.72585E-06 3.89284E-19 2.33072E-19
 -1      1977 9.47604E-05-2.83588E-05-2.84491E-05-1.74776E-06 6.44583E-19 3.37610E-19
 -1      1978 9.41975E-05-2.81862E-05-2.82856E-05-1.64431E-06 5.27532E-19 6.44263E-19
 -1      1979 9.44730E-05-2.82431E-05-2.83918E-05-2.00506E-06 6.27421E-19 4.55862E-19
 -1      1980 9.58802E-05-2.86885E-05-2.87882E-05-1.94591E-06 4.46453E-19 4.98675E-19
 -1      1981 9.52412E-05-2.84948E-05-2.86015E-05-1.83959E-06 4.52175E-19 4.29136E-19
 -1      1982 9.53672E-05-2.85072E-05-2.86612E-05-2.26293E-06 4.54294E-19 3.83319E-19
 -1      1983 9.71465E-05-2.90629E-05-2.91711E-05-2.15544E-06 4.62612E-19 8.17223E-19
 -1      1984 9.64326E-05-2.88456E-05-2.89623E-05-2.04258E-06 5.48930E-19 6.27063E-19
 -1      1985 9.64082E-05-2.88108E-05-2.89769E-05-2.52404E-06 5.08879E-19 5.72956E-19
 -1      1986 9.85551E-05-2.94890E-05-2.95935E-05-2.36505E-06 1.15795E-19 5.29109E-19
 -1      1987 9.77683E-05-2.92451E-05-2.93642E-05-2.25092E-06 3.72369E-19 8.69740E-19
 -1      1988 9.75899E-05-2.91630E-05-2.93324E-05-2.78943E-06 4.25293E-19 7.96877E-19
 -1      1989 1.00091E-04-2.99723E-05-3.00471E-05-2.54030E-06 1.01033E-18-2.70467E-19
 -1      1990 9.92413E-05-2.97006E-05-2.98014E-05-2.44120E-06 5.35600E-19 1.46826E-19
 -1      1991 9.89064E-05-2.95751E-05-2.97199E-05-3.03426E-06 7.23112E-19 3.99252E-19
 -1      1992 1.01715E-04-3.05133E-05-3.05152E-05-2.61857E-06 3.18760E-19-3.15614E-19
 -1      1993 1.00829E-04-3.02173E-05-3.02623E-05-2.56463E-06 5.87061E-19-2.64557E-19
 -1      1994 1.00341E-04-3.00586E-05-3.01271E-05-3.20306E-06 7.21504E-19-4.21647E-20
 -1      1995 1.03348E-04-3.11011E-05-3.09686E-05-2.50562E-06-1.29366E-19-1.32448E-20
 -1      1996 1.02477E-04-3.07921E-05-3.07254E-05-2.54288E-06 2.91259E-20-2.95499E-19
 -1      1997 1.01855E-04-3.06201E-05-3.05341E-05-3.20476E-06 4.92801E-20 2.58378E-20
 -1      1998 1.04854E-04-3.17043E-05-3.13625E-05-2.07936E-06-7.96409E-19 2.76780E-19
 -1      1999 1.04084E-04-3.14069E-05-3.11551E-05-2.26837E-06-2.54141E-19 6.46144E-20
 -1      2000 1.03373E-04-3.12537E-05-3.09106E-05-2.91239E-06-3.10993E-19 5.74953E-19
 -1      2001 1.06032E-04-3.22578E-05-3.16370E-05-1.21078E-06 8.55569E-20 5.61555E-19
 -1      2002 1.05488E-04-3.20151E-05-3.15010E-05-1.61658E-06-6.20528E-19-7.86152E-21
 -1      2003 1.04768E-04-3.19262E-05-3.12161E-05-2.17608E-06-2.80189E-19 1.10840E-18
 -1      2004 1.06620E-04-3.26496E-05-3.17254E-05 1.84927E-07 1.33719E-19 7.23396E-19
 -1      2005 1.06454E-04-3.25271E-05-3.17008E-05-4.81924E-07 4.20092E-19 9.06127E-19
 -1      2006 1.05854E-04-3.25562E-05-3.14041E-05-8.62234E-07 2.15702E-19 8.60212E-19
 -1      2007 1.06331E-04-3.27165E-05-3.15713E-05 2.05911E-06-8.66644E-19-2.39383E-19
 -1      2008 1.06695E-04-3.27972E-05-3.16921E-05 1.15229E-06-6.16574E-19-3.69336E-20
 -1      2009 1.06379E-04-3.29916E-05-3.14331E-05 1.06737E-06-3.03741E-19 4.70277E-19
 -1      2010 1.04940E-04-3.22715E-05-3.11567E-05 4.11940E-06-4.16532E-19 8.25513E-19
 -1      2011 1.05928E-04-3.26336E-05-3.14337E-05 3.11419E-06-5.16425E-19 2.06001E-19
 -1      2012 1.06068E-04-3.30091E-05-3.12825E-05 3.43819E-06-6.98594E-19 5.44859E-19
 -1      2013 1.02436E-04-3.11958E-05-3.05303E-05 5.76903E-06-1.09912E-19 8.86691E-19
 -1      2014 1.03998E-04-3.18614E-05-3.09329E-05 4.95582E-06-3.37602E-19 1.00385E-18
 -1      2015 1.04715E-04-3.23723E-05-3.09707E-05 5.74983E-06-3.86905E-19 1.15349E-18
 -1      2016 9.91923E-05-2.95909E-05-2.98174E-05 6.22721E-06 1.24109E-18 4.85932E-19
 -1      2017 1.01069E-04-3.04603E-05-3.02668E-05 5.98133E-06 4.54139E-19 8.78717E-19
 -1      2018 1.02368E-04-3.09931E-05-3.05631E-05 7.18020E-06 5.66930E-19 1.10109E-18
 -1      2019 9.60440E-05-2.78932E-05-2.91966E-05 4.91045E-06 6.87228E-19-3.07433E-19
 -1      2020 9.77634E-05-2.87193E-05-2.95797E-05 5.50196E-06 1.35922E-18 2.30128E-19
 -1      2021 9.95093E-05-2.91266E-05-3.01594E-05 6.85698E-06 1.24340E-18 4.75887E-19
 -1      2022 9.40745E-05-2.67770E-05-2.88439E-05 1.91626E-06-2.95270E-19-1.19371E-18
 -1      2023 9.50900E-05-2.72420E-05-2.90499E-05 3.28212E-06-1.42930E-19-7.31456E-19
 -1      2024 9.70555E-05-2.74214E-05-2.98652E-05 4.39096E-06 3.91653E-19 1.70651E-19
 -1      2025 9.40927E-05-2.67805E-05-2.88609E-05-1.79432E-06-3.02841E-19-9.56128E-19
 -1      2026 9.40343E-05-2.66764E-05-2.88277E-05-1.13492E-07-2.39737E-19-1.45289E-18
 -1      2027 9.60050E-05-2.66604E-05-2.97563E-05 3.48644E-07-2.13982E-19-2.64855E-19
 -1      2028 9.61230E-05-2.79121E-05-2.92435E-05-4.84489E-06 1.10478E-19-8.28272E-19
 -1      2029 9.50000E-05-2.72868E-05-2.89800E-05-3.47168E-06-3.90429E-21-1.17213E-18
 -1      2030 9.68311E-05-2.72226E-05-2.98565E-05-3.83144E-06-1.45895E-19-4.18378E-19
 -1      2031 9.93689E-05-2.96375E-05-2.98834E-05-6.24514E-06 9.12069E-19-4.77674E-19
 -1      2032 9.75755E-05-2.87580E-05-2.94682E-05-5.60363E-06 3.01818E-19-5.80846E-19
 -1      2033 9.91667E-05-2.88335E-05-3.01454E-05-6.63294E-06 4.56405E-19-5.47514E-19
 -1      2034 1.02716E-04-3.12728E-05-3.06043E-05-5.86154E-06 4.84139E-19-6.65728E-19
 -1      2035 1.00810E-04-3.04484E-05-3.01527E-05-5.99339E-06 7.66103E-19-3.74488E-19
 -1      2036 1.02053E-04-3.07391E-05-3.05516E-05-7.31781E-06 8.22043E-19 6.53142E-20
 -1      2037 1.05292E-04-3.23688E-05-3.12323E-05-4.26069E-06-4.43617E-19-5.67211E-19
 -1      2038 1.03741E-04-3.17970E-05-3.08504E-05-4.91492E-06-1.18740E-19-5.23241E-19
 -1      2039 1.04537E-04-3.22375E-05-3.09724E-05-6.14107E-06-8.56926E-20 6.62439E-19
 -1      2040 1.06713E-04-3.28210E-05-3.16492E-05-2.22677E-06-9.48181E-19-7.31824E-19
 -1      2041 1.05759E-04-3.25517E-05-3.14027E-05-3.06990E-06-6.49873E-19-6.56828E-19
 -1      2042 1.06074E-04-3.30030E-05-3.13084E-05-3.93870E-06-4.03148E-19 5.97572E-19
 -1      2043 1.07015E-04-3.27555E-05-3.18131E-05-3.69042E-07-1.34872E-18-3.57077E-19
 -1      2044 1.06683E-04-3.27396E-05-3.17193E-05-1.14546E-06-1.27173E-18-6.44347E-19
 -1      2045 1.06572E-04-3.30835E-05-3.14933E-05-1.56906E-06-8.50414E-19 6.51991E-19
 -1      2046 1.06454E-04-3.23680E-05-3.17455E-05 1.00677E-06-8.92733E-19-6.58155E-19
 -1      2047 1.06630E-04-3.25217E-05-3.17854E-05 4.26019E-07-1.26206E-18-5.48275E-19
 -1      2048 1.06217E-04-3.27071E-05-3.15058E-05 4.07924E-07-1.22678E-18 1.64113E-20
 -1      2049 1.05340E-04-3.18296E-05-3.15042E-05 1.84358E-06-6.87093E-19 3.69287E-19
 -1      2050 1.05862E-04-3.20744E-05-3.16404E-05 1.48440E-06-1.00255E-18-6.18695E-19
 -1      2051 1.05287E-04-3.21099E-05-3.13641E-05 1.76888E-06-9.18247E-19-6.38889E-19
 -1      2052 1.03950E-04-3.12566E-05-3.11566E-05 2.22299E-06 8.58130E-19 6.16106E-19
 -1      2053 1.04659E-04-3.15343E-05-3.13489E-05 2.05353E-06 1.60781E-19 7.09334E-19
 -1      2054 1.04042E-04-3.14603E-05-3.11089E-05 2.52503E-06-4.52203E-20 1.98398E-19
 -1      2055 1.02487E-04-3.07154E-05-3.07627E-05 2.27387E-06 2.59126E-18-8.08801E-20
 -1      2056 1.03261E-04-3.09888E-05-3.09771E-05 2.24208E-06 1.82589E-18 9.02884E-19
 -1      2057 1.02684E-04-3.08520E-05-3.07871E-05 2.80071E-06 1.84469E-18 1.68975E-19
 -1      2058 1.01088E-04-3.02380E-05-3.03677E-05 2.11996E-06 7.46935E-19-4.90243E-19
 -1      2059 1.01842E-04-3.04864E-05-3.05797E-05 2.17519E-06 1.33232E-18-1.41759E-19
 -1      2060 1.01350E-04-3.03254E-05-3.04406E-05 2.74713E-06 1.83910E-18 1.11119E-18
 -1      2061 9.98303E-05-2.98353E-05-3.00007E-05 1.85861E-06-7.65565E-19 7.84821E-19
 -1      2062 1.00514E-04-3.00492E-05-3.01952E-05 1.96062E-06 2.23088E-19-1.87356E-21
 -1      2063 1.00124E-04-2.98905E-05-3.01012E-05 2.49803E-06 2.83647E-19 1.28725E-18
 -1      2064 9.87500E-05-2.95066E-05-2.96779E-05 1.55753E-06 9.27915E-20 7.21669E-19
 -1      2065 9.93393E-05-2.96837E-05-2.98470E-05 1.67804E-06-2.32296E-19 6.57882E-19
 -1      2066 9.90479E-05-2.95422E-05-2.97895E-05 2.15443E-06-3.86993E-19 1.20136E-18
 -1      2067 9.78546E-05-2.92454E-05-2.94053E-05 1.25909E-06-1.18383E-18 8.94617E-19
 -1      2068 9.83430E-05-2.93875E-05-2.95465E-05 1.38018E-06-5.83763E-19 4.33785E-19
 -1      2069 9.81384E-05-2.92697E-05-2.95165E-05 1.78452E-06-5.85285E-19 1.12137E-18
 -1      2070 9.71345E-05-2.90428E-05-2.91829E-05 9.86855E-07-5.26123E-19 2.55172E-18
 -1      2071 9.75262E-05-2.91537E-05-2.92968E-05 1.09838E-06-6.05068E-19 1.61344E-18
 -1      2072 9.73924E-05-2.90607E-05-2.92864E-05 1.42981E-06-1.02099E-18 2.06820E-18
 -1      2073 9.65708E-05-2.88892E-05-2.90067E-05 7.51567E-07-4.70470E-19 1.13061E-18
 -1      2074 9.68760E-05-2.89735E-05-2.90960E-05 8.48726E-07-4.71550E-19 1.48990E-18
 -1      2075 9.67966E-05-2.89033E-05-2.90985E-05 1.11239E-06-7.40616E-20 2.44179E-18
 -1      2076 9.61409E-05-2.87755E-05-2.88709E-05 5.55828E-07 6.47146E-19 1.42395E-18
 -1      2077 9.63722E-05-2.88378E-05-2.89389E-05 6.37258E-07 3.20763E-19 1.23347E-18
 -1      2078 9.63325E-05-2.87870E-05-2.89494E-05 8.41352E-07 2.65442E-20 1.27367E-18
 -1      2079 9.58221E-05-2.86934E-05-2.87692E-05 3.97427E-07 7.38777E-19 1.05786E-18
 -1      2080 9.59921E-05-2.87382E-05-2.88195E-05 4.63854E-07 1.03254E-18 1.25254E-18
 -1      2081 9.59798E-05-2.87029E-05-2.88342E-05 6.17604E-07 1.21730E-18 1.25943E-18
 -1      2082 9.55930E-05-2.86359E-05-2.86955E-05 2.71557E-07 9.66557E-19 7.81181E-19
 -1      2083 9.57136E-05-2.86670E-05-2.87313E-05 3.24877E-07 7.37586E-19 1.25912E-18
 -1      2084 9.57186E-05-2.86434E-05-2.87476E-05 4.37335E-07 7.66803E-19 2.42761E-18
 -1      2085 9.54352E-05-2.85975E-05-2.86443E-05 1.72340E-07 2.92382E-19 1.87869E-18
 -1      2086 9.55166E-05-2.86178E-05-2.86686E-05 2.14985E-07 2.07653E-19 1.73523E-18
 -1      2087 9.55309E-05-2.86025E-05-2.86846E-05 2.94328E-07-3.63416E-20 2.82632E-18
 -1      2088 9.53330E-05-2.85737E-05-2.86107E-05 9.44478E-08-2.31336E-19 3.54524E-18
 -1      2089 9.53837E-05-2.85856E-05-2.86260E-05 1.28635E-07 5.67737E-20 2.44672E-18
 -1      2090 9.54013E-05-2.85757E-05-2.86404E-05 1.81898E-07-4.43808E-19 3.30741E-18
 -1      2091 9.52738E-05-2.85621E-05-2.85901E-05 3.51993E-08 1.52409E-19 2.65304E-18
 -1      2092 9.53005E-05-2.85672E-05-2.85989E-05 6.14265E-08 2.96531E-19 3.74439E-18
 -1      2093 9.53162E-05-2.85599E-05-2.86106E-05 9.44641E-08 1.13271E-19 3.95509E-18
 -1      2094 9.52501E-05-2.85625E-05-2.85797E-05 4.48217E-09-2.59713E-19 3.66360E-18
 -1      2095 9.52605E-05-2.85597E-05-2.85853E-05 2.09991E-08-2.86790E-19 3.39562E-18
 -1      2096 9.52716E-05-2.85536E-05-2.85938E-05 4.06064E-08-1.35130E-19 5.33694E-18
 -1      2097 9.52529E-05-2.85586E-05-2.85831E-05 1.16645E-08 3.49448E-19 5.45514E-18
 -1      2098 9.51929E-05-2.83877E-05-2.86313E-05 1.36278E-07 2.92315E-18-2.36849E-18
 -1      2099 9.52106E-05-2.84244E-05-2.86218E-05 1.24897E-07 3.13903E-18-1.09330E-18
 -1      2100 9.52292E-05-2.84654E-05-2.86131E-05 1.05139E-07 2.77701E-18-6.70330E-19
 -1      2101 9.52418E-05-2.84946E-05-2.86051E-05 8.39659E-08 3.05221E-18 4.35264E-19
 -1      2102 9.52227E-05-2.84206E-05-2.86297E-05 1.55358E-07 1.10851E-18-1.11881E-18
 -1      2103 9.52491E-05-2.85223E-05-2.85970E-05 5.82147E-08 1.93023E-18 2.27910E-18
 -1      2104 9.52533E-05-2.85407E-05-2.85905E-05 3.63796E-08 7.22767E-19 4.46597E-18
 -1      2105 9.52627E-05-2.85370E-05-2.85964E-05 4.99447E-08-1.34470E-19 4.90484E-18
 -1      2106 9.52517E-05-2.84900E-05-2.86128E-05 1.03300E-07 1.03958E-18 2.01704E-18
 -1      2107 9.51541E-05-2.83073E-05-2.86495E-05 1.41476E-07 8.95326E-19-4.84245E-18
 -1      2108 9.51727E-05-2.83453E-05-2.86398E-05 1.42008E-07 2.05329E-18-4.12138E-18
 -1      2109 9.51769E-05-2.83349E-05-2.86464E-05 1.82983E-07 1.60855E-18-4.11424E-18
 -1      2110 9.51183E-05-2.82339E-05-2.86659E-05 1.19646E-07 9.34704E-19-2.36014E-18
 -1      2111 9.51349E-05-2.82678E-05-2.86573E-05 1.31848E-07 1.16257E-18-2.43343E-18
 -1      2112 9.51294E-05-2.82502E-05-2.86619E-05 1.77722E-07 1.43293E-18-4.21464E-18
 -1      2113 9.50924E-05-2.81808E-05-2.86777E-05 7.49874E-08 1.26950E-18 7.22831E-19
 -1      2114 9.51036E-05-2.82037E-05-2.86719E-05 9.63235E-08 1.01975E-18-5.56151E-19
 -1      2115 9.50884E-05-2.81780E-05-2.86749E-05 1.39720E-07 2.12076E-18-1.44176E-18
 -1      2116 9.50806E-05-2.81565E-05-2.86830E-05 1.60907E-08 1.63928E-18 2.21455E-18
 -1      2117 9.50844E-05-2.81644E-05-2.86809E-05 4.24019E-08 1.33654E-18 1.46475E-18
 -1      2118 9.50608E-05-2.81297E-05-2.86835E-05 7.59299E-08 1.41466E-18 1.03000E-18
 -1      2119 9.50847E-05-2.81651E-05-2.86808E-05-4.60533E-08 8.23074E-19-1.56853E-18
 -1      2120 9.50805E-05-2.81563E-05-2.86830E-05-1.97759E-08 1.65884E-18 7.50297E-19
 -1      2121 9.50511E-05-2.81126E-05-2.86865E-05-1.98889E-09-1.44003E-19 9.68984E-19
 -1      2122 9.51043E-05-2.82051E-05-2.86716E-05-9.97689E-08-9.24215E-19-4.46214E-18
 -1      2123 9.50927E-05-2.81813E-05-2.86776E-05-7.86214E-08-3.64933E-19-2.77384E-18
 -1      2124 9.50609E-05-2.81292E-05-2.86837E-05-7.99241E-08-1.10131E-18-3.29817E-18
 -1      2125 9.51356E-05-2.82687E-05-2.86572E-05-1.34206E-07-1.74607E-18-4.79495E-18
 -1      2126 9.51189E-05-2.82348E-05-2.86658E-05-1.22551E-07-9.42216E-19-5.63922E-18
 -1      2127 9.50886E-05-2.81770E-05-2.86753E-05-1.43175E-07-9.91030E-19-4.58159E-18
 -1      2128 9.51744E-05-2.83477E-05-2.86395E-05-1.43317E-07-2.11950E-18 1.27767E-18
 -1      2129 9.51551E-05-2.83085E-05-2.86494E-05-1.43477E-07-1.65753E-18-7.93492E-19
 -1      2130 9.51299E-05-2.82489E-05-2.86626E-05-1.80319E-07-3.00706E-19-2.51266E-18
 -1      2131 9.52133E-05-2.84282E-05-2.86213E-05-1.23980E-07-1.53728E-18 4.11752E-19
 -1      2132 9.51954E-05-2.83914E-05-2.86308E-05-1.36509E-07-1.80948E-18 7.36295E-19
 -1      2133 9.51788E-05-2.83353E-05-2.86470E-05-1.84172E-07-7.78458E-19 7.99300E-19
 -1      2134 9.52436E-05-2.85000E-05-2.86044E-05-8.00149E-08-9.48520E-19 2.17945E-19
 -1      2135 9.52322E-05-2.84698E-05-2.86125E-05-1.02675E-07-1.61814E-18-7.03025E-19
 -1      2136 9.52255E-05-2.84225E-05-2.86299E-05-1.53500E-07-1.21477E-18-2.32227E-19
 -1      2137 5.96223E-05-3.91074E-05-8.96779E-06 4.24335E-05 4.80691E-19-1.00156E-18
 -1      2138 4.44763E-05-3.94590E-05-3.00451E-06 3.53472E-05 5.50571E-19-1.24768E-18
 -1      2139 1.28502E-05-3.08412E-05 6.78829E-06 6.97429E-06 1.02756E-18 1.71312E-18
 -1      2140 1.25796E-05-3.12818E-05 6.99707E-06-3.16626E-06 1.42746E-18 2.87652E-18
 -1      2141 2.42781E-05-3.20442E-05 2.53419E-06 2.63324E-05-3.81165E-20-6.02664E-19
 -1      2142 1.72565E-05-3.40138E-05 5.96093E-06 1.64281E-05 3.19755E-19 4.72221E-19
 -1      2143 1.78525E-05-2.28933E-05 1.76602E-06 1.37921E-05-2.33358E-19 6.28498E-19
 -1      2144 9.61971E-05-4.22818E-05-2.29158E-05 4.31909E-05-3.98105E-20 3.67189E-19
 -1      2145 7.83198E-05-4.47798E-05-1.52048E-05 3.95491E-05 2.43945E-19-5.61053E-19
 -1      2146 1.31317E-04-4.25394E-05-3.76100E-05 3.55123E-05-3.21873E-19 1.73049E-18
 -1      2147 1.10315E-04-4.32964E-05-2.93321E-05 3.61815E-05-3.70153E-19 1.38913E-18
 -1      2148 1.16467E-04-5.41065E-05-2.65525E-05 3.43689E-05-9.73241E-19 7.18072E-19
 -1      2149 8.73309E-05-8.69607E-06-3.37917E-05-1.03363E-05-9.84610E-19-1.88798E-18
 -1      2150 8.80401E-05-9.24348E-06-3.38550E-05-1.19124E-05-1.14064E-18-1.62620E-18
 -1      2151 9.05264E-05-1.30018E-05-3.32523E-05-1.16037E-05-1.25803E-18-1.37334E-18
 -1      2152 8.87237E-05-1.09857E-05-3.33482E-05-9.18204E-06-9.41689E-19-1.80278E-18
 -1      2153 1.73389E-04-2.74848E-05-6.16972E-05 9.88076E-06 1.66040E-18-8.28398E-19
 -1      2154 1.65526E-04-2.96445E-05-5.75777E-05 1.79408E-05 1.31227E-18-1.80418E-19
 -1      2155 1.78426E-04-2.28020E-05-6.56160E-05-3.83699E-07 2.55126E-18-1.45917E-18
 -1      2156 1.71829E-04-2.12024E-05-6.39906E-05 5.43278E-06 2.30308E-18-9.59688E-19
 -1      2157 1.75586E-04-2.43091E-05-6.39262E-05-9.67307E-06 2.97139E-18-1.55791E-18
 -1      2158 1.80263E-04-2.42897E-05-6.58775E-05-2.20491E-06 2.79902E-18-7.06425E-19
 -1      2159 1.55308E-04-1.11487E-05-6.07139E-05 8.85895E-08 2.43903E-18-8.46848E-19
 -1      2160 1.60835E-04-3.05084E-05-5.54377E-05-2.02339E-05 2.41066E-18-1.51111E-18
 -1      2161 1.75382E-04-3.02028E-05-6.08744E-05-1.57850E-05 2.58853E-18-1.41497E-18
 -1      2162 1.36712E-04-3.83440E-05-4.22574E-05-2.98868E-05 2.21478E-18-2.75413E-18
 -1      2163 1.54383E-04-3.68583E-05-4.94166E-05-2.77698E-05 2.44057E-18-2.11081E-18
 -1      2164 1.04260E-04-4.24702E-05-2.71621E-05-3.77080E-05 2.15485E-18-2.71728E-18
 -1      2165 1.24083E-04-4.06705E-05-3.52037E-05-3.92343E-05 2.37974E-18-2.71389E-18
 -1      2166 7.36135E-05-4.37345E-05-1.33722E-05-4.06674E-05 1.88846E-18-1.98301E-18
 -1      2167 8.94727E-05-4.14024E-05-2.05632E-05-4.35333E-05 2.15655E-18-2.57689E-18
 -1      2168 1.09637E-04-5.19207E-05-2.48309E-05-3.74059E-05 5.57348E-19-1.27013E-18
 -1      2169 3.60102E-05-3.96621E-05 6.35207E-08-3.04716E-05 1.24514E-18-2.41182E-18
 -1      2170 5.11300E-05-3.85099E-05-6.11280E-06-3.94654E-05 1.25446E-18-1.70725E-18
 -1      2171 1.62870E-05-3.51686E-05 6.63180E-06-1.56348E-05 5.78947E-19-3.30258E-18
 -1      2172 2.36951E-05-3.52815E-05 3.81585E-06-2.47006E-05 1.72032E-18-2.98346E-18
 -1      2173 3.52662E-05-3.31416E-05-1.36797E-06-3.36793E-05 1.44631E-19-2.32595E-18
 -1      2174 1.27381E-05-3.44503E-05 7.83013E-06 6.21279E-06-1.10263E-18-5.45743E-18
 -1      2175 1.15110E-05-3.31136E-05 7.91443E-06-3.65188E-06-1.45213E-19-4.13098E-18
 -1      2176 2.70464E-05-3.68592E-05 2.94898E-06 2.45710E-05-2.33146E-18-4.37387E-18
 -1      2177 1.90946E-05-3.73165E-05 6.21032E-06 1.63021E-05-7.86258E-19-4.98140E-18
 -1      2178 5.71464E-05-4.03258E-05-7.81797E-06 3.80778E-05-2.88203E-18-3.54949E-18
 -1      2179 4.26962E-05-4.18631E-05-1.85968E-06 3.08216E-05-2.26285E-18-3.50989E-18
 -1      2180 9.45647E-05-4.49444E-05-2.14873E-05 4.17091E-05-2.73380E-18-3.41312E-18
 -1      2181 7.38186E-05-4.55680E-05-1.33780E-05 3.67803E-05-2.89092E-18-3.75701E-18
 -1      2182 7.76267E-05-4.85041E-05-1.26692E-05 4.11634E-05-9.32583E-19-2.38642E-18
 -1      2183 1.36492E-04-4.45259E-05-3.88254E-05 3.43959E-05-4.02425E-18-3.34790E-18
 -1      2184 1.16413E-04-4.69693E-05-3.03803E-05 3.26384E-05-3.42921E-18-3.46902E-18
 -1      2185 1.62975E-04-4.00062E-05-5.19512E-05 2.05635E-05-3.42101E-18-3.92515E-18
 -1      2186 1.46136E-04-4.11100E-05-4.50001E-05 2.58780E-05-4.33575E-18-3.54017E-18
 -1      2187 1.46467E-04-5.10816E-05-4.02838E-05 1.63175E-05-2.73803E-18-2.40684E-18
 -1      2188 1.81944E-04-3.11527E-05-6.30297E-05 9.07828E-06-3.19903E-18-3.21534E-18
 -1      2189 1.68135E-04-3.16443E-05-5.79755E-05 1.17518E-05-3.18866E-18-3.31105E-18
 -1      2190 1.90730E-04-2.77924E-05-6.81782E-05 8.12669E-07-3.06965E-18-2.15475E-18
 -1      2191 1.86448E-04-2.78968E-05-6.65984E-05 7.85716E-06-3.21745E-18-3.56707E-18
 -1      2192 1.80280E-04-2.60606E-05-6.50980E-05-6.45612E-06-3.25684E-18-1.32095E-18
 -1      2193 1.89322E-04-2.74243E-05-6.75919E-05-1.57374E-06-3.06287E-18-1.63832E-18
 -1      2194 1.67054E-04-3.47162E-05-5.60368E-05-1.81610E-05-2.58239E-18 5.55230E-19
 -1      2195 1.78031E-04-3.24332E-05-6.12551E-05-1.09558E-05-2.82697E-18-7.78423E-19
 -1      2196 1.41803E-04-4.27058E-05-4.26347E-05-2.48672E-05-2.49684E-18 8.42798E-19
 -1      2197 1.60891E-04-4.07223E-05-5.04274E-05-2.47633E-05-2.48678E-18 8.70750E-19
 -1      2198 1.05855E-04-4.63658E-05-2.62904E-05-3.54551E-05-1.50772E-18 2.39880E-18
 -1      2199 1.27318E-04-4.64068E-05-3.44644E-05-3.57030E-05-1.91472E-18 1.44419E-18
 -1      2200 7.00096E-05-4.47004E-05-1.21099E-05-3.65012E-05-1.04736E-18 2.18842E-18
 -1      2201 8.78519E-05-4.28321E-05-1.95438E-05-4.14007E-05-1.74150E-18 3.05461E-18
 -1      2202 3.83783E-05-4.09401E-05-4.14632E-07-2.91238E-05 7.00496E-19 1.92446E-18
 -1      2203 5.22380E-05-3.94890E-05-6.08088E-06-3.71821E-05-2.93073E-19 2.40303E-18
 -1      2204 1.66820E-05-3.62275E-05 6.85126E-06-1.41068E-05 1.52254E-18 2.63512E-18
 -1      2205 2.40446E-05-3.62988E-05 3.98567E-06-2.21885E-05 8.51268E-19 1.83256E-18
 -1      2206 1.61445E-04-3.51134E-05-5.30088E-05 2.47094E-05 7.87926E-19 2.48181E-19
 -1      2207 1.43243E-04-3.64747E-05-4.58025E-05 2.56103E-05 2.03076E-19 7.50471E-19
 -1      2208 1.55465E-04-3.17936E-05-5.20780E-05 5.42820E-06 1.15874E-18-1.12062E-18
 -1      2209 1.42244E-04-4.74357E-05-4.01711E-05 1.88755E-05-5.48666E-19 2.94767E-19
 -1      2210 9.71256E-05-2.42951E-05-3.12844E-05-9.86026E-06-1.28235E-18 8.07408E-19
 -1      2211 1.59568E-04-2.02851E-05-5.86020E-05-9.52642E-07 2.26835E-18 5.95041E-20
 -1      2212 9.63410E-05-2.30967E-05-3.14578E-05-1.01944E-05-1.35664E-18 3.64489E-20
 -1      2213 4.15474E-05-3.26917E-05-3.86600E-06 3.63138E-05-9.66888E-19-9.32160E-19
 -1      2214 8.21485E-05-4.81688E-05-1.46486E-05 4.28648E-05 4.23516E-22-9.69959E-19
 -1      2215 9.52528E-05-2.85126E-05-2.86026E-05-7.03715E-08-2.62637E-19 1.62809E-18
 -1      2216 1.72846E-05-2.47415E-05 2.60362E-06-1.07952E-05 1.96268E-18 2.37635E-18
 -1      2217 3.77854E-05-3.46635E-05-1.89486E-06-3.26318E-05 1.66018E-18 2.36873E-18
 -1      2218 7.25156E-05-4.68085E-05-1.13877E-05-4.06455E-05 5.63277E-19 2.08471E-18
 -1      2219 1.10185E-04-5.47618E-05-2.36843E-05-3.58436E-05-5.29396E-19 1.63880E-18
 -1      2220 1.41898E-04-5.31821E-05-3.76437E-05-1.98933E-05-1.03719E-18-3.24837E-19
 -1      2221 1.59379E-04-3.97329E-05-5.03949E-05-4.38697E-06-2.44231E-18-1.07319E-18
 -1      2222 1.65791E-04-2.41648E-05-5.95147E-05 1.31707E-06-3.07727E-18-1.47108E-18
 -1      2223 1.68261E-04-1.66597E-05-6.34854E-05 3.41505E-07-3.59015E-18-2.10009E-18
 -1      2224 1.59997E-04-3.69729E-05-5.19605E-05 2.68700E-06-3.25176E-18-2.28995E-18
 -1      2225 1.17193E-04-5.58504E-05-2.61980E-05 3.31988E-05-1.79486E-18-2.74058E-18
 -1      2226 4.26260E-05-3.68897E-05-3.02174E-06 3.49166E-05-8.06375E-19-3.68544E-18
 -1      2227 1.62164E-05-2.63325E-05 3.63361E-06-1.18705E-05-2.60992E-19-4.39695E-18
 -1      2228 6.87401E-05-4.39107E-05-1.09788E-05-4.18046E-05 1.06387E-18-1.44491E-18
 -1      2229 8.62676E-05-4.94900E-05-1.62446E-05-4.30255E-05-6.31040E-20-1.00572E-18
 -1      2230 6.49729E-05-4.14764E-05-9.65931E-06-4.35741E-05-4.28175E-19-9.15960E-19
 -1      2231 1.37423E-04-4.83333E-05-3.76931E-05-2.41830E-05 1.23857E-18-1.29765E-18
 -1      2232 1.56848E-04-1.76759E-05-5.87897E-05-3.82800E-07 2.05109E-18-1.64917E-18
 -1      2233 1.54408E-04-3.58065E-05-4.99993E-05-9.44988E-06 2.02176E-18-1.99900E-19
 -1      2234 1.84351E-05-2.77192E-05 3.19551E-06 1.47417E-05-3.64118E-19-5.27236E-18
 -1      2235 1.65563E-04-2.13310E-05-6.06166E-05-2.66948E-06-3.24498E-18-2.23913E-18
 -1      2236 9.52805E-05-2.63555E-05-2.95242E-05 3.95946E-06 9.54150E-19 7.92561E-19
 -1      2237 9.62103E-05-2.58386E-05-3.00856E-05 5.78996E-06 1.12637E-18 9.69072E-19
 -1      2238 8.80855E-05-1.09545E-05-3.30960E-05-3.51809E-06-2.80043E-19-1.83789E-18
 -1      2239 8.83367E-05-1.12434E-05-3.30765E-05-4.62839E-06-5.01629E-19-1.82237E-18
 -1      2240 8.87102E-05-1.17581E-05-3.30255E-05-5.61709E-06-5.49030E-19-1.81089E-18
 -1      2241 8.91343E-05-1.22529E-05-3.29938E-05-6.76732E-06-7.14720E-19-1.75760E-18
 -1      2242 8.98359E-05-1.35747E-05-3.26816E-05-4.68926E-06-4.92550E-19-1.73214E-18
 -1      2243 8.77060E-05-1.04570E-05-3.31406E-05 5.94500E-07 2.71330E-19-1.92245E-18
 -1      2244 8.77020E-05-1.04520E-05-3.31411E-05-4.76921E-07 1.28772E-19-1.96889E-18
 -1      2245 8.79025E-05-1.07008E-05-3.31205E-05 2.65324E-06 5.37303E-19-1.89719E-18
 -1      2246 8.77780E-05-1.05572E-05-3.31308E-05 1.57097E-06 3.83842E-19-1.93677E-18
 -1      2247 8.89829E-05-1.24409E-05-3.28054E-05 9.98834E-07 3.23096E-19-1.82187E-18
 -1      2248 8.83690E-05-1.12881E-05-3.30715E-05 4.71314E-06 7.55973E-19-1.67961E-18
 -1      2249 8.81133E-05-1.09929E-05-3.30918E-05 3.61989E-06 6.06427E-19-1.81636E-18
 -1      2250 8.92735E-05-1.28271E-05-3.27631E-05 2.87910E-06 5.42683E-19-1.78197E-18
 -1      2251 8.91880E-05-1.23263E-05-3.29856E-05 6.85071E-06 1.11755E-18-1.25418E-18
 -1      2252 8.87521E-05-1.18162E-05-3.30188E-05 5.69959E-06 9.55165E-19-1.49272E-18
 -1      2253 8.98737E-05-1.36294E-05-3.26741E-05 4.75996E-06 8.22215E-19-1.44780E-18
 -1      2254 9.04897E-05-1.39953E-05-3.28466E-05 8.97572E-06 1.41219E-18-8.73053E-19
 -1      2255 8.97972E-05-1.31606E-05-3.28987E-05 7.80568E-06 1.19244E-18-1.10555E-18
 -1      2256 9.08579E-05-1.49581E-05-3.25210E-05 6.60819E-06 1.15347E-18-1.05117E-18
 -1      2257 9.24946E-05-1.66189E-05-3.26178E-05 1.08649E-05 1.61134E-18-3.18273E-19
 -1      2258 9.14187E-05-1.52604E-05-3.27003E-05 9.78187E-06 1.46651E-18-5.93016E-19
 -1      2259 9.23193E-05-1.69823E-05-3.22664E-05 8.23871E-06 1.38436E-18-7.02908E-19
 -1      2260 9.43986E-05-2.70994E-05-2.88231E-05 1.44694E-06 8.00201E-19 5.27094E-19
 -1      2261 9.49379E-05-2.68702E-05-2.91002E-05 2.46087E-06 8.59077E-19 6.89448E-19
 -1      2262 9.54305E-05-2.58069E-05-2.98481E-05 4.04931E-06 1.02089E-18 1.90526E-19
 -1      2263 9.59622E-05-2.50605E-05-3.03418E-05-5.93544E-06-1.05585E-18-2.47544E-19
 -1      2264 9.53502E-05-2.58046E-05-2.98164E-05-3.98446E-06-9.93106E-19-2.44113E-19
 -1      2265 1.46489E-04-2.25357E-05-5.34363E-05 4.53685E-06 1.64536E-18 4.87044E-20
 -1      2266 1.44514E-04-1.53172E-05-5.59888E-05 5.17064E-06 1.73070E-18-8.00446E-20
 -1      2267 1.44402E-04-4.65735E-05-4.22556E-05 6.65057E-06-7.03051E-19-1.37113E-18
 -1      2268 1.35220E-04-5.32017E-05-3.53379E-05 1.44715E-05-1.13894E-18-3.80106E-19
 -1      2269 9.52563E-05-2.64832E-05-2.94191E-05-2.58542E-06-8.70421E-19-1.16460E-19
 -1      2270 9.48532E-05-2.68530E-05-2.91393E-05-1.46763E-06-7.29484E-19-2.22434E-19
 -1      2271 9.54352E-05-2.52787E-05-3.00733E-05-3.91094E-06-9.31640E-19-6.00641E-19
 -1      2272 9.46970E-05-2.71709E-05-2.89018E-05-5.39724E-07-6.74720E-19-1.23260E-19
 -1      2273 9.45209E-05-2.73832E-05-2.87669E-05 1.44845E-07-4.54059E-19-2.89243E-19
 -1      2274 9.52078E-05-2.65906E-05-2.94232E-05-1.40033E-06-6.41479E-19-5.21127E-19
 -1      2275 9.44291E-05-2.75519E-05-2.86391E-05 7.63049E-07-3.69052E-19-2.80829E-19
 -1      2276 9.44417E-05-2.76977E-05-2.85968E-05 1.20635E-06-3.66894E-19-4.68787E-19
 -1      2277 9.49942E-05-2.72715E-05-2.90389E-05 2.80811E-07-4.74085E-19-4.16777E-19
 -1      2278 9.44316E-05-2.77938E-05-2.85464E-05 1.63660E-06-3.46123E-19-6.08819E-19
 -1      2279 9.45866E-05-2.79072E-05-2.85679E-05 1.95226E-06-3.94366E-19-5.16387E-19
 -1      2280 9.49211E-05-2.76537E-05-2.88415E-05 1.42518E-06-5.63841E-19-5.61009E-19
 -1      2281 9.46515E-05-2.79639E-05-2.85739E-05 2.28332E-06-6.40149E-19-5.79815E-19
 -1      2282 9.49168E-05-2.80603E-05-2.86424E-05 2.54352E-06-6.06231E-19-6.03135E-19
 -1      2283 9.49948E-05-2.78680E-05-2.87787E-05 2.25814E-06-6.10771E-19-5.49985E-19
 -1      2284 9.50449E-05-2.80928E-05-2.86911E-05 2.83807E-06-3.30264E-19-7.39638E-19
 -1      2285 9.54034E-05-2.81812E-05-2.87973E-05 3.09220E-06-1.19941E-19-8.09385E-19
 -1      2286 9.51990E-05-2.79812E-05-2.88156E-05 2.93997E-06-5.40439E-19-9.55283E-19
 -1      2287 9.55854E-05-2.81981E-05-2.88802E-05 3.39606E-06-2.52958E-19-7.80829E-19
 -1      2288 9.60317E-05-2.82864E-05-2.90195E-05 3.67947E-06-3.68994E-19-8.25145E-19
 -1      2289 9.55146E-05-2.80278E-05-2.89294E-05 3.58610E-06-2.18910E-19-9.34597E-19
 -1      2290 9.62622E-05-2.82944E-05-2.91306E-05 4.02631E-06-3.34452E-19-7.76063E-19
 -1      2291 9.67999E-05-2.83920E-05-2.93012E-05 4.36384E-06-3.34268E-19-6.93567E-19
 -1      2292 9.59287E-05-2.80311E-05-2.91043E-05 4.28090E-06-4.41785E-19-6.62213E-19
 -1      2293 9.70784E-05-2.84000E-05-2.94362E-05 4.77685E-06-1.88530E-19-6.61726E-19
 -1      2294 9.77178E-05-2.85207E-05-2.96374E-05 5.18253E-06-1.39182E-19-3.57391E-19
 -1      2295 9.64368E-05-2.80132E-05-2.93289E-05 5.08450E-06-1.53174E-19-8.20811E-19
 -1      2296 9.80499E-05-2.85436E-05-2.97915E-05 5.67314E-06-2.77417E-19 1.05855E-19
 -1      2297 9.88066E-05-2.87092E-05-3.00219E-05 6.14625E-06 1.08361E-21 2.62643E-19
 -1      2298 9.70453E-05-2.80058E-05-2.95924E-05 6.03342E-06-2.81274E-20-1.40627E-19
 -1      2299 9.92084E-05-2.87745E-05-3.01887E-05 6.70940E-06 5.41638E-21 1.70655E-19
 -1      2300 1.00102E-04-2.90210E-05-3.04439E-05 7.22576E-06-5.03736E-20 9.29568E-20
 -1      2301 9.77767E-05-2.80625E-05-2.98818E-05 7.13514E-06-2.67295E-20-1.37518E-19
 -1      2302 1.00609E-04-2.91788E-05-3.06140E-05 7.83053E-06-2.61828E-19 9.80570E-20
 -1      2303 1.01666E-04-2.95646E-05-3.08847E-05 8.32789E-06-1.85843E-19-2.09228E-19
 -1      2304 9.86823E-05-2.82784E-05-3.01790E-05 8.35506E-06-2.49035E-19-3.28354E-19
 -1      2305 1.02349E-04-2.99008E-05-3.10452E-05 8.90159E-06-1.15650E-19-2.26956E-19
 -1      2306 1.03601E-04-3.05144E-05-3.13158E-05 9.25888E-06-3.02576E-19-4.00800E-19
 -1      2307 9.98660E-05-2.88176E-05-3.04599E-05 9.59347E-06-1.34456E-19 1.06689E-19
 -1      2308 1.04586E-04-3.11627E-05-3.14536E-05 9.66244E-06-6.00465E-19-4.89193E-19
 -1      2309 1.06072E-04-3.21203E-05-3.17031E-05 9.67675E-06-4.40863E-19-1.88036E-19
 -1      2310 1.01521E-04-2.99417E-05-3.06980E-05 1.06492E-05-5.01342E-19 4.09734E-20
 -1      2311 1.07557E-04-3.32532E-05-3.18143E-05 9.67047E-06-1.40579E-20-4.04796E-19
 -1      2312 1.09297E-04-3.46570E-05-3.20251E-05 9.04734E-06-2.08450E-21-1.89457E-20
 -1      2313 1.03968E-04-3.20146E-05-3.08776E-05 1.11655E-05-3.08642E-19-2.04724E-19
 -1      2314 1.11521E-04-3.64118E-05-3.21368E-05 8.25725E-06-3.16847E-19 3.58679E-19
 -1      2315 1.13443E-04-3.82170E-05-3.23149E-05 6.65432E-06-2.54682E-19 2.54765E-19
 -1      2316 1.07650E-04-3.54093E-05-3.10290E-05 1.05612E-05 4.84380E-20-2.56156E-19
 -1      2317 1.16527E-04-4.04771E-05-3.25232E-05 4.57907E-06 3.62057E-20 4.82382E-19
 -1      2318 1.18311E-04-4.21942E-05-3.27281E-05 1.77151E-06 5.41479E-19 3.90997E-19
 -1      2319 1.12966E-04-4.01792E-05-3.12941E-05 7.98263E-06-4.75695E-20 6.25427E-19
 -1      2320 1.21853E-04-4.41980E-05-3.32297E-05-1.91566E-06 1.32134E-18 3.69220E-19
 -1      2321 1.22830E-04-4.46491E-05-3.36043E-05-5.58918E-06 1.75319E-18 4.92814E-19
 -1      2322 1.19675E-04-4.52639E-05-3.20147E-05 2.42160E-06 1.10194E-18 6.21021E-19
 -1      2323 1.25302E-04-4.44705E-05-3.47145E-05-1.03796E-05 1.59740E-18 1.87843E-19
 -1      2324 1.24399E-04-4.21697E-05-3.53855E-05-1.32361E-05 1.36161E-18 5.91480E-19
 -1      2325 1.26177E-04-4.73926E-05-3.37792E-05-6.57141E-06 1.63550E-18 7.74598E-19
 -1      2326 1.24674E-04-3.86120E-05-3.70760E-05-1.67400E-05 4.38796E-19 3.02808E-19
 -1      2327 1.21755E-04-3.30401E-05-3.80202E-05-1.64872E-05-1.30972E-19 4.49907E-19
 -1      2328 1.28949E-04-4.29253E-05-3.71490E-05-1.48529E-05 6.97876E-19 4.65206E-19
 -1      2329 1.19182E-04-2.73024E-05-3.98031E-05-1.38428E-05-5.74659E-19 2.34420E-19
 -1      2330 1.16907E-04-2.27766E-05-4.04850E-05-9.09878E-06-1.49681E-18-3.07063E-19
 -1      2331 1.25556E-04-2.97479E-05-4.12758E-05-1.71517E-05-8.34275E-19 1.33143E-19
 -1      2332 1.15633E-04-2.03945E-05-4.11134E-05-1.28559E-06-2.27502E-18-1.40071E-18
 -1      2333 1.15974E-04-2.11978E-05-4.09999E-05 5.36525E-06-1.71709E-18-1.72274E-18
 -1      2334 1.21599E-04-1.92879E-05-4.42003E-05-5.90371E-06-2.31536E-18-1.97621E-18
 -1      2335 1.18157E-04-2.51350E-05-3.99451E-05 1.23305E-05-6.53009E-19-1.93746E-18
 -1      2336 1.20824E-04-3.05404E-05-3.91175E-05 1.58462E-05-4.58907E-19-1.71882E-18
 -1      2337 1.22292E-04-2.09495E-05-4.36710E-05 1.04601E-05-1.29818E-18-1.94193E-18
 -1      2338 1.23026E-04-3.61185E-05-3.72679E-05 1.65003E-05-6.62856E-19-2.16186E-18
 -1      2339 1.25251E-04-4.08986E-05-3.63772E-05 1.55509E-05-5.44219E-20-1.96567E-18
 -1      2340 1.27038E-04-3.40304E-05-4.00366E-05 1.77228E-05-8.90179E-19-2.80511E-18
 -1      2341 1.24558E-04-4.35659E-05-3.47938E-05 1.15359E-05 2.07763E-19-2.27898E-18
 -1      2342 1.24799E-04-4.50595E-05-3.42057E-05 8.06020E-06 1.18399E-19-2.21907E-18
 -1      2343 1.28720E-04-4.50321E-05-3.59533E-05 1.29275E-05-1.59454E-19-3.46503E-18
 -1      2344 1.21791E-04-4.42978E-05-3.33156E-05 3.49280E-06 4.43395E-19-1.75330E-18
 -1      2345 1.20514E-04-4.33478E-05-3.30135E-05-4.68834E-08 6.06429E-19-1.79545E-18
 -1      2346 1.24601E-04-4.73662E-05-3.31369E-05 3.57812E-06 3.37640E-19-3.30990E-18
 -1      2347 1.17043E-04-4.11340E-05-3.26266E-05-3.25654E-06 2.94278E-19-1.38136E-18
 -1      2348 1.15168E-04-3.93049E-05-3.24477E-05-5.72127E-06 1.67249E-19-7.68841E-19
 -1      2349 1.17822E-04-4.38821E-05-3.17643E-05-4.20865E-06 4.37607E-19-2.97959E-18
 -1      2350 1.12339E-04-3.71345E-05-3.22908E-05-7.34941E-06-4.34760E-19-1.02653E-18
 -1      2351 1.10473E-04-3.54235E-05-3.21171E-05-8.62752E-06-4.85917E-19-4.67843E-19
 -1      2352 1.11409E-04-3.86818E-05-3.12423E-05-8.76185E-06 1.42816E-19-2.56354E-18
 -1      2353 1.08494E-04-3.38424E-05-3.20212E-05-9.11810E-06-8.82198E-19-2.61070E-19
 -1      2354 1.06862E-04-3.25734E-05-3.18112E-05-9.49784E-06-1.37048E-18 3.32029E-19
 -1      2355 1.06602E-04-3.42640E-05-3.10534E-05-1.06197E-05-6.72077E-19-1.87668E-18
 -1      2356 1.05559E-04-3.15914E-05-3.17049E-05-9.31776E-06-1.36433E-18 6.17665E-19
 -1      2357 1.04193E-04-3.07490E-05-3.14628E-05-9.14133E-06-7.75814E-19 1.12718E-18
 -1      2358 1.03351E-04-3.12678E-05-3.09232E-05-1.07559E-05-1.04400E-18-5.28483E-19
 -1      2359 1.03331E-04-3.02040E-05-3.13309E-05-8.62344E-06-3.20952E-19 6.66955E-19
 -1      2360 1.02200E-04-2.96747E-05-3.10769E-05-8.16190E-06 5.26756E-19 2.39227E-19
 -1      2361 1.01215E-04-2.95009E-05-3.07510E-05-9.94676E-06-8.07543E-19-6.40467E-19
 -1      2362 1.01603E-04-2.94017E-05-3.09273E-05-7.51341E-06-5.46544E-19 4.91718E-19
 -1      2363 1.00671E-04-2.90766E-05-3.06815E-05-6.94594E-06-7.28519E-19-7.75333E-19
 -1      2364 9.97777E-05-2.85739E-05-3.05249E-05-8.70244E-06-2.34099E-19-1.19096E-18
 -1      2365 1.00231E-04-2.89564E-05-3.05277E-05-6.28544E-06-3.53776E-19 9.80785E-20
 -1      2366 9.94661E-05-2.87570E-05-3.03038E-05-5.71597E-06-7.19152E-19 3.47519E-19
 -1      2367 9.87577E-05-2.81515E-05-3.02654E-05-7.33096E-06-4.93296E-19-8.20807E-19
 -1      2368 9.91242E-05-2.87157E-05-3.01568E-05-5.10500E-06-9.16099E-19-2.53495E-19
 -1      2369 9.85028E-05-2.85922E-05-2.99620E-05-4.58611E-06-6.75155E-19-9.54450E-19
 -1      2370 9.79900E-05-2.80046E-05-2.99980E-05-6.00459E-06-9.89015E-19-2.03469E-19
 -1      2371 9.82281E-05-2.85883E-05-2.98290E-05-4.05170E-06-9.43940E-19-1.33854E-18
 -1      2372 9.77292E-05-2.85108E-05-2.96653E-05-3.60464E-06-8.32901E-19-2.04144E-18
 -1      2373 9.73862E-05-2.79950E-05-2.97429E-05-4.80945E-06-1.34985E-18-1.67100E-18
 -1      2374 9.75058E-05-2.85227E-05-2.95498E-05-3.15406E-06 5.04282E-19-2.54659E-18
 -1      2375 9.71108E-05-2.84738E-05-2.94159E-05-2.78265E-06 7.73844E-19-2.07135E-18
 -1      2376 9.69001E-05-2.80462E-05-2.95124E-05-3.77962E-06-6.08469E-19-2.48700E-18
 -1      2377 9.69295E-05-2.84910E-05-2.93188E-05-2.41263E-06 1.21992E-18-1.81495E-18
 -1      2378 9.66213E-05-2.84603E-05-2.92117E-05-2.11187E-06 1.56534E-18-7.74494E-19
 -1      2379 9.65066E-05-2.81185E-05-2.93125E-05-2.91947E-06 1.43967E-18-2.63930E-18
 -1      2380 9.64756E-05-2.84779E-05-2.91321E-05-1.81411E-06 1.62272E-18 8.74005E-20
 -1      2381 9.62389E-05-2.84591E-05-2.90482E-05-1.57520E-06 1.62333E-18 1.32619E-18
 -1      2382 9.61896E-05-2.81929E-05-2.91445E-05-2.21763E-06 2.22767E-18-1.51801E-18
 -1      2383 9.61236E-05-2.84751E-05-2.89844E-05-1.33948E-06 8.15936E-19 2.34299E-18
 -1      2384 9.59448E-05-2.84642E-05-2.89199E-05-1.15255E-06 1.26230E-18 1.91618E-18
 -1      2385 9.59374E-05-2.82609E-05-2.90069E-05-1.65548E-06 1.58336E-18 2.76619E-19
 -1      2386 9.58548E-05-2.84778E-05-2.88698E-05-9.68438E-07 2.04481E-18 1.54696E-18
 -1      2387 9.57223E-05-2.84721E-05-2.88211E-05-8.23891E-07 2.40059E-18 8.49326E-19
 -1      2388 9.57395E-05-2.83192E-05-2.88967E-05-1.21204E-06 1.20853E-18 6.49497E-19
 -1      2389 9.56532E-05-2.84832E-05-2.87825E-05-6.81784E-07 1.66533E-18 1.22077E-18
 -1      2390 9.55568E-05-2.84807E-05-2.87465E-05-5.71035E-07 9.80763E-19 2.57471E-18
 -1      2391 9.55866E-05-2.83674E-05-2.88101E-05-8.66730E-07 1.85479E-18 4.73886E-19
 -1      2392 9.55040E-05-2.84890E-05-2.87172E-05-4.62218E-07 1.33333E-18 2.74858E-18
 -1      2393 9.54357E-05-2.84885E-05-2.86912E-05-3.77796E-07 5.87586E-19 3.21239E-18
 -1      2394 9.54698E-05-2.84055E-05-2.87434E-05-6.00873E-07 1.13207E-18 1.09777E-18
 -1      2395 9.53957E-05-2.84953E-05-2.86692E-05-2.94865E-07-1.19656E-18 3.59703E-18
 -1      2396 9.53491E-05-2.84960E-05-2.86506E-05-2.31552E-07-1.30202E-18 3.37358E-18
 -1      2397 9.53810E-05-2.84345E-05-2.86924E-05-3.97767E-07-2.21674E-19 4.96542E-19
 -1      2398 9.38221E-05-2.77069E-05-2.83234E-05-1.01488E-06 2.16356E-19 1.28157E-19
 -1      2399 9.37871E-05-2.75844E-05-2.83472E-05-6.48588E-07 3.57732E-19 3.89537E-19
 -1      2400 9.40158E-05-2.79071E-05-2.83222E-05-1.63750E-06 1.64781E-19-2.31572E-19
 -1      2401 9.38194E-05-2.77892E-05-2.82844E-05-1.39353E-06 1.21347E-19-5.32061E-20
 -1      2402 9.44641E-05-2.77467E-05-2.86067E-05-1.23773E-06 4.46994E-19-3.54246E-19
 -1      2403 9.44318E-05-2.80981E-05-2.84192E-05-2.08584E-06 4.60111E-19-8.41791E-20
 -1      2404 9.41196E-05-2.79775E-05-2.83387E-05-1.90380E-06 2.97117E-19-2.14301E-19
 -1      2405 9.45877E-05-2.79646E-05-2.85636E-05-1.95797E-06 2.90949E-19-4.68176E-19
 -1      2406 9.50228E-05-2.82959E-05-2.85878E-05-2.45244E-06 5.59823E-19-2.34455E-20
 -1      2407 9.46209E-05-2.81674E-05-2.84756E-05-2.29607E-06 4.80707E-19 7.31800E-20
 -1      2408 9.48916E-05-2.81377E-05-2.86175E-05-2.49354E-06 3.45670E-19-5.16362E-19
 -1      2409 9.57625E-05-2.85137E-05-2.88116E-05-2.79249E-06 2.01813E-19 2.61356E-19
 -1      2410 9.52835E-05-2.83716E-05-2.86740E-05-2.64129E-06 5.19580E-19 2.46357E-19
 -1      2411 9.53450E-05-2.82971E-05-2.87420E-05-2.94203E-06 3.66721E-19-8.13438E-20
 -1      2412 9.66394E-05-2.87669E-05-2.90793E-05-3.13184E-06 5.09340E-19 4.09145E-19
 -1      2413 9.60885E-05-2.86034E-05-2.89206E-05-2.97832E-06 3.86411E-19 4.16645E-19
 -1      2414 9.59311E-05-2.84675E-05-2.89193E-05-3.36108E-06 1.90825E-19 3.49326E-19
 -1      2415 9.76505E-05-2.90751E-05-2.93817E-05-3.46824E-06 5.36456E-19 3.07299E-19
 -1      2416 9.70302E-05-2.88806E-05-2.92057E-05-3.31807E-06 6.05748E-19 4.33196E-19
 -1      2417 9.66457E-05-2.86752E-05-2.91361E-05-3.77513E-06 6.16436E-19-1.20835E-19
 -1      2418 9.87948E-05-2.94625E-05-2.97088E-05-3.76832E-06 9.98817E-19-3.27690E-20
 -1      2419 9.81096E-05-2.92258E-05-2.95203E-05-3.64227E-06 7.38228E-19 2.48465E-19
 -1      2420 9.74944E-05-2.89522E-05-2.93810E-05-4.17577E-06 7.75083E-19 3.10439E-20
 -1      2421 1.00066E-04-2.99569E-05-3.00465E-05-3.96218E-06 4.24984E-19-4.62808E-22
 -1      2422 9.93285E-05-2.96668E-05-2.98533E-05-3.89895E-06 7.91093E-19 2.36733E-19
 -1      2423 9.84900E-05-2.93388E-05-2.96422E-05-4.51811E-06 6.95103E-19 2.19656E-19
 -1      2424 1.01444E-04-3.05850E-05-3.03756E-05-3.93848E-06-2.32223E-19 4.23569E-19
 -1      2425 1.00681E-04-3.02335E-05-3.01894E-05-3.99649E-06 1.37168E-19 3.34382E-19
 -1      2426 9.96486E-05-2.98824E-05-2.99061E-05-4.71488E-06 1.85321E-19 2.79720E-19
 -1      2427 1.02885E-04-3.13603E-05-3.06710E-05-3.54542E-06-5.89631E-19 8.25984E-19
 -1      2428 1.02143E-04-3.09507E-05-3.05080E-05-3.80045E-06-5.44525E-19 5.85676E-19
 -1      2429 1.00983E-04-3.06307E-05-3.01576E-05-4.63167E-06-4.74203E-19 6.15556E-19
 -1      2430 1.04301E-04-3.22595E-05-3.09048E-05-2.60770E-06 7.57234E-20 7.48780E-19
 -1      2431 1.03656E-04-3.18192E-05-3.07843E-05-3.14065E-06-2.52732E-19 1.12004E-18
 -1      2432 1.02488E-04-3.16121E-05-3.03818E-05-4.08980E-06-3.97962E-19 8.34655E-19
 -1      2433 1.05542E-04-3.31830E-05-3.10524E-05-9.74590E-07 1.28243E-19 8.51668E-19
 -1      2434 1.05105E-04-3.27830E-05-3.09931E-05-1.84179E-06 2.71770E-19 9.17987E-19
 -1      2435 1.04117E-04-3.27964E-05-3.05700E-05-2.88863E-06 9.73840E-20 1.03752E-18
 -1      2436 1.06376E-04-3.39090E-05-3.11039E-05 1.38409E-06-4.72449E-19 1.13961E-18
 -1      2437 1.06285E-04-3.36810E-05-3.11176E-05 2.03654E-07-6.19724E-21 1.26353E-18
 -1      2438 1.05731E-04-3.40322E-05-3.07262E-05-8.66173E-07-3.41985E-19 1.21044E-18
 -1      2439 1.06496E-04-3.40768E-05-3.10748E-05 4.23390E-06-7.70876E-19 9.39925E-19
 -1      2440 1.06887E-04-3.42067E-05-3.11584E-05 2.90666E-06-7.60172E-19 8.96790E-19
 -1      2441 1.07053E-04-3.49802E-05-3.08753E-05 1.97964E-06-6.16218E-19 1.42541E-18
 -1      2442 1.05605E-04-3.32749E-05-3.10093E-05 6.93379E-06 3.64754E-20 1.06934E-18
 -1      2443 1.06544E-04-3.39343E-05-3.11399E-05 5.81942E-06-3.51201E-19 9.30950E-19
 -1      2444 1.07655E-04-3.51119E-05-3.10612E-05 5.31069E-06-4.36483E-19 1.15843E-18
 -1      2445 1.03633E-04-3.13149E-05-3.09657E-05 8.43772E-06 8.84955E-19 6.99616E-19
 -1      2446 1.05005E-04-3.25041E-05-3.11059E-05 8.03687E-06 3.16446E-19 7.01697E-19
 -1      2447 1.07075E-04-3.38736E-05-3.13309E-05 8.27685E-06 4.38396E-19 4.85430E-19
 -1      2448 1.01028E-04-2.86106E-05-3.09777E-05 7.66928E-06 9.10051E-19 1.35126E-18
 -1      2449 1.02467E-04-3.00066E-05-3.10909E-05 8.39396E-06 1.18949E-18 1.45036E-18
 -1      2450 1.05182E-04-3.11637E-05-3.16933E-05 9.56388E-06 7.07955E-19 9.75817E-19
 -1      2451 9.88218E-05-2.62750E-05-3.10334E-05 4.25902E-06 7.94749E-19 3.40649E-19
 -1      2452 9.97932E-05-2.72750E-05-3.10939E-05 6.10287E-06 1.18608E-18 1.14161E-18
 -1      2453 1.02579E-04-2.77607E-05-3.20733E-05 7.96836E-06 1.09000E-18 1.16410E-18
 -1      2454 9.81630E-05-2.55725E-05-3.10873E-05-8.43935E-07 1.31925E-19-1.01611E-18
 -1      2455 9.82336E-05-2.56410E-05-3.10904E-05 1.52187E-06 3.08102E-19-1.97666E-19
 -1      2456 1.00584E-04-2.52284E-05-3.23387E-05 3.38431E-06 9.56641E-19-5.05110E-20
 -1      2457 9.95016E-05-2.69626E-05-3.10990E-05-5.62689E-06-1.63537E-19-9.52234E-19
 -1      2458 9.86392E-05-2.60639E-05-3.10441E-05-3.66932E-06 6.90861E-21-1.04284E-18
 -1      2459 1.00447E-04-2.50557E-05-3.23584E-05-2.64783E-06 4.55313E-19-1.76599E-18
 -1      2460 1.02118E-04-2.96205E-05-3.11023E-05-8.29462E-06 5.79763E-19-8.51162E-19
 -1      2461 1.00706E-04-2.82445E-05-3.09911E-05-7.39976E-06 8.64933E-20-9.48210E-19
 -1      2462 1.02257E-04-2.73270E-05-3.21235E-05-7.55725E-06 9.53706E-20-1.52999E-18
 -1      2463 1.04766E-04-3.22134E-05-3.11254E-05-8.29225E-06 2.75393E-19 1.80736E-19
 -1      2464 1.03343E-04-3.09771E-05-3.09811E-05-8.53836E-06 5.38229E-19-4.87630E-19
 -1      2465 1.04878E-04-3.07096E-05-3.17597E-05-9.60030E-06 2.07417E-19-3.57722E-19
 -1      2466 1.06497E-04-3.38091E-05-3.11710E-05-6.29033E-06-4.31275E-19 1.11195E-18
 -1      2467 1.05463E-04-3.30769E-05-3.10302E-05-7.30102E-06-3.78187E-20 9.72824E-19
 -1      2468 1.06944E-04-3.35859E-05-3.14023E-05-8.66841E-06-2.18161E-19 8.35939E-19
 -1      2469 1.07032E-04-3.42294E-05-3.12075E-05-3.44812E-06-1.20813E-18 2.04391E-18
 -1      2470 1.06535E-04-3.40328E-05-3.11081E-05-4.72322E-06-8.11484E-19 1.38676E-18
 -1      2471 1.07730E-04-3.50272E-05-3.11307E-05-5.88080E-06-8.11224E-19 1.85744E-18
 -1      2472 1.06586E-04-3.37961E-05-3.11943E-05-7.24605E-07-2.65575E-19 1.20398E-18
 -1      2473 1.06580E-04-3.39776E-05-3.11605E-05-1.88815E-06-5.58711E-19 2.20418E-18
 -1      2474 1.07297E-04-3.50547E-05-3.09488E-05-2.58242E-06-1.13672E-18 2.74916E-18
 -1      2475 1.05529E-04-3.29403E-05-3.11047E-05 1.36836E-06-6.14833E-19-2.93452E-19
 -1      2476 1.05881E-04-3.33124E-05-3.11415E-05 5.02890E-07-3.14071E-19 7.79213E-19
 -1      2477 1.06086E-04-3.41833E-05-3.08148E-05 3.01806E-07-2.38719E-19 1.25556E-18
 -1      2478 1.04185E-04-3.19899E-05-3.09357E-05 2.69893E-06-1.48248E-18 5.51211E-19
 -1      2479 1.04752E-04-3.24131E-05-3.10324E-05 2.16753E-06-1.28319E-18 4.19917E-19
 -1      2480 1.04545E-04-3.29635E-05-3.06833E-05 2.37003E-06-1.32089E-18-7.40968E-20
 -1      2481 1.02777E-04-3.11260E-05-3.07031E-05 3.35523E-06 6.36720E-19 8.55977E-19
 -1      2482 1.03442E-04-3.15221E-05-3.08409E-05 3.10994E-06-7.47808E-19 4.65913E-19
 -1      2483 1.02976E-04-3.17644E-05-3.05265E-05 3.58861E-06-9.52874E-19 8.82115E-19
 -1      2484 1.01433E-04-3.04169E-05-3.04319E-05 3.50881E-06 2.14229E-18 5.65673E-19
 -1      2485 1.02114E-04-3.07534E-05-3.05908E-05 3.47218E-06 1.57201E-18 3.28817E-19
 -1      2486 1.01533E-04-3.07616E-05-3.03380E-05 4.10702E-06 1.16492E-18 7.79361E-19
 -1      2487 1.00220E-04-2.98687E-05-3.01474E-05 3.33447E-06 1.03141E-18 1.33882E-18
 -1      2488 1.00863E-04-3.01389E-05-3.03106E-05 3.43070E-06 1.64995E-18 1.36553E-18
 -1      2489 1.00276E-04-2.99986E-05-3.01255E-05 4.12635E-06 1.49943E-18 4.85580E-19
 -1      2490 9.91648E-05-2.94605E-05-2.98705E-05 2.97579E-06 1.08367E-19 1.64023E-18
 -1      2491 9.97401E-05-2.96698E-05-3.00257E-05 3.14396E-06 1.06475E-18 1.88334E-18
 -1      2492 9.92124E-05-2.94534E-05-2.99025E-05 3.83265E-06 1.02792E-18 1.53266E-18
 -1      2493 9.82729E-05-2.91642E-05-2.96155E-05 2.53687E-06 1.04071E-19 7.74118E-19
 -1      2494 9.87675E-05-2.93222E-05-2.97552E-05 2.73363E-06 1.33451E-19 1.56119E-18
 -1      2495 9.83296E-05-2.90816E-05-2.96829E-05 3.37218E-06 6.48658E-19 1.36268E-18
 -1      2496 9.75369E-05-2.89532E-05-2.93908E-05 2.08605E-06-1.12247E-18 7.31832E-19
 -1      2497 9.79486E-05-2.90701E-05-2.95113E-05 2.28353E-06 5.36174E-20 1.13534E-18
 -1      2498 9.76078E-05-2.88377E-05-2.94776E-05 2.84825E-06 3.80981E-20 3.30432E-19
 -1      2499 9.69427E-05-2.88056E-05-2.91996E-05 1.66384E-06-1.11781E-18 1.90207E-18
 -1      2500 9.72759E-05-2.88904E-05-2.93001E-05 1.84601E-06-1.79376E-18 8.82942E-19
 -1      2501 9.70256E-05-2.86837E-05-2.92935E-05 2.32738E-06-1.34262E-18 5.66193E-19
 -1      2502 9.64727E-05-2.87042E-05-2.90419E-05 1.29093E-06 1.63290E-19 2.15552E-18
 -1      2503 9.67357E-05-2.87644E-05-2.91232E-05 1.45003E-06 2.06324E-19 1.85690E-18
 -1      2504 9.65624E-05-2.85907E-05-2.91344E-05 1.84806E-06-4.21326E-19 1.34425E-18
 -1      2505 9.61085E-05-2.86359E-05-2.89153E-05 9.74868E-07 1.01264E-18 5.39737E-19
 -1      2506 9.63110E-05-2.86778E-05-2.89793E-05 1.10852E-06 5.71809E-20 1.45639E-18
 -1      2507 9.61992E-05-2.85378E-05-2.90010E-05 1.42907E-06 5.15201E-19 2.34831E-18
 -1      2508 9.58321E-05-2.85910E-05-2.88163E-05 7.15062E-07 1.11683E-18 1.60528E-18
 -1      2509 9.59843E-05-2.86194E-05-2.88653E-05 8.24184E-07 1.29060E-18 9.86269E-19
 -1      2510 9.59189E-05-2.85104E-05-2.88921E-05 1.07622E-06 1.11315E-18 7.16391E-19
 -1      2511 9.56269E-05-2.85623E-05-2.87408E-05 5.06260E-07 3.20926E-19 2.21276E-18
 -1      2512 9.57382E-05-2.85809E-05-2.87773E-05 5.93597E-07 5.43568E-19 2.30116E-18
 -1      2513 9.57059E-05-2.84984E-05-2.88055E-05 7.87405E-07 2.72335E-19 1.21161E-18
 -1      2514 9.54783E-05-2.85445E-05-2.86849E-05 3.41083E-07-8.72192E-19 4.34972E-18
 -1      2515 9.55570E-05-2.85562E-05-2.87113E-05 4.10113E-07-6.55601E-19 3.84487E-18
 -1      2516 9.55467E-05-2.84950E-05-2.87383E-05 5.56002E-07-7.51877E-19 3.44847E-18
 -1      2517 9.53736E-05-2.85345E-05-2.86445E-05 2.11491E-07-4.72356E-19 4.36717E-18
 -1      2518 9.54268E-05-2.85408E-05-2.86629E-05 2.65631E-07-4.68772E-19 4.96287E-18
 -1      2519 9.54290E-05-2.84957E-05-2.86872E-05 3.73974E-07-9.73196E-19 5.35001E-18
 -1      2520 9.53020E-05-2.85310E-05-2.86156E-05 1.12713E-07-2.47020E-19 5.52706E-18
 -1      2521 9.53366E-05-2.85330E-05-2.86282E-05 1.54055E-07-5.11490E-19 5.33616E-18
 -1      2522 9.53449E-05-2.85011E-05-2.86488E-05 2.31618E-07-9.81129E-19 5.52500E-18
 -1      2523 9.52763E-05-2.85352E-05-2.86022E-05 6.78167E-08 1.34104E-21 4.59482E-18
 -1      2524 9.50915E-05-2.81869E-05-2.86749E-05 2.15982E-07 2.48201E-18-2.51167E-18
 -1      2525 9.51206E-05-2.82270E-05-2.86680E-05 2.29001E-07 2.10734E-18-5.04349E-18
 -1      2526 9.50395E-05-2.81116E-05-2.86849E-05 1.58929E-07 2.68717E-18-8.44058E-19
 -1      2527 9.50620E-05-2.81422E-05-2.86797E-05 1.88212E-07 2.28649E-18-1.49403E-18
 -1      2528 9.50477E-05-2.81116E-05-2.86859E-05 2.42355E-07 2.71153E-18-2.02862E-18
 -1      2529 9.52183E-05-2.83786E-05-2.86464E-05 2.14779E-07 4.51783E-19-1.41013E-18
 -1      2530 9.52447E-05-2.84198E-05-2.86381E-05 1.94380E-07 3.17892E-19-6.52219E-19
 -1      2531 9.51549E-05-2.82803E-05-2.86618E-05 2.35573E-07 5.05570E-19-5.01586E-18
 -1      2532 9.51853E-05-2.83235E-05-2.86540E-05 2.30564E-07 3.97592E-19-3.02153E-18
 -1      2533 9.52031E-05-2.83229E-05-2.86624E-05 2.73268E-07-3.80028E-19-2.49187E-18
 -1      2534 9.51227E-05-2.82118E-05-2.86755E-05 2.80710E-07 1.59154E-18-3.33066E-18
 -1      2535 9.50075E-05-2.80652E-05-2.86909E-05 7.42277E-08 7.35745E-19 1.17931E-18
 -1      2536 9.50197E-05-2.80818E-05-2.86881E-05 1.14575E-07 1.32843E-18-4.82531E-21
 -1      2537 9.49895E-05-2.80354E-05-2.86932E-05 1.63560E-07 1.48320E-18-1.39541E-18
 -1      2538 9.50002E-05-2.80541E-05-2.86922E-05-2.36001E-08-7.78466E-19-6.78187E-19
 -1      2539 9.50003E-05-2.80542E-05-2.86921E-05 2.07076E-08-4.55043E-19 1.78421E-18
 -1      2540 9.49577E-05-2.79936E-05-2.86973E-05 5.72222E-08 2.43850E-19 2.37681E-19
 -1      2541 9.50192E-05-2.80800E-05-2.86887E-05-1.17735E-07-1.32262E-18-3.78590E-18
 -1      2542 9.50069E-05-2.80635E-05-2.86914E-05-7.73227E-08-5.46222E-19-2.77148E-18
 -1      2543 9.49571E-05-2.79919E-05-2.86977E-05-5.91910E-08-6.15047E-19-1.41775E-18
 -1      2544 9.50610E-05-2.81384E-05-2.86810E-05-1.90687E-07-1.88229E-19-4.13383E-18
 -1      2545 9.50386E-05-2.81083E-05-2.86859E-05-1.61801E-07-6.01769E-19-3.79574E-18
 -1      2546 9.49881E-05-2.80305E-05-2.86946E-05-1.65588E-07 4.01775E-20-3.70271E-18
 -1      2547 9.51206E-05-2.82233E-05-2.86696E-05-2.31632E-07 1.86015E-19-1.69965E-18
 -1      2548 9.50910E-05-2.81829E-05-2.86764E-05-2.18848E-07 7.25371E-19-4.43213E-18
 -1      2549 9.50461E-05-2.81048E-05-2.86880E-05-2.44888E-07 1.01322E-18-3.58887E-18
 -1      2550 9.51875E-05-2.83224E-05-2.86555E-05-2.31962E-07-1.86824E-19 1.33544E-18
 -1      2551 9.51560E-05-2.82777E-05-2.86634E-05-2.37980E-07-5.89999E-19 8.83489E-19
 -1      2552 9.51228E-05-2.82059E-05-2.86780E-05-2.83821E-07 3.24100E-19-1.49783E-18
 -1      2553 9.52481E-05-2.84215E-05-2.86390E-05-1.91772E-07-1.14192E-18-4.05643E-19
 -1      2554 9.52221E-05-2.83794E-05-2.86477E-05-2.15230E-07-1.09724E-18 3.07848E-19
 -1      2555 9.52057E-05-2.83199E-05-2.86648E-05-2.75350E-07-5.11290E-19-1.42353E-19
 -1      2556 9.98090E-05-5.26887E-05-2.00682E-05 4.05612E-05-7.48354E-19-1.84149E-18
 -1      2557 8.09266E-05-4.51634E-05-1.48357E-05 4.14520E-05-7.42636E-19-1.70592E-18
 -1      2558 9.52695E-05-2.85020E-05-2.86135E-05-1.01699E-07 1.10699E-20 2.00219E-18
 -1      2559 2.07872E-05-1.71240E-05-1.16460E-06-7.73544E-06 6.46127E-19 2.28657E-18
 -1      2560 2.58475E-05-2.24092E-05-1.28151E-06-2.08267E-05 1.04767E-18 2.22219E-18
 -1      2561 9.39218E-05-2.74658E-05-2.84662E-05-6.89782E-08 4.69473E-19 4.48333E-19
 -1      2562 9.41210E-05-2.73194E-05-2.85848E-05 5.24169E-07 6.55825E-19 5.02701E-19
 -1      2563 9.45618E-05-2.74289E-05-2.87868E-05-1.78478E-07 5.56762E-19-7.52205E-20
 -1      2564 2.51734E-05-1.94134E-05-2.18632E-06 2.11943E-05-6.16852E-19-1.49311E-18
 -1      2565 2.09811E-05-1.62642E-05-1.60065E-06 8.83402E-06-9.24060E-20 6.52215E-19
 -1      2566 1.27000E-04-5.69991E-05-3.01429E-05 2.64222E-05-1.71948E-18 8.19504E-19
 -1      2567 1.13561E-04-5.61295E-05-2.46650E-05 3.21375E-05-1.08420E-18-1.33514E-19
 -1      2568 1.12069E-04-5.59650E-05-2.38642E-05 3.13146E-05-2.02462E-18-1.52567E-18
 -1      2569 1.33774E-04-5.65846E-05-3.29508E-05 1.35931E-05-1.76352E-18-1.57781E-18
 -1      2570 1.47433E-04-2.91695E-05-5.12044E-05-3.21315E-06 8.06799E-19-1.99497E-18
 -1      2571 1.45713E-04-3.62812E-05-4.72069E-05-2.78682E-07-1.05879E-21-1.88550E-18
 -1      2572 3.58737E-05-2.76153E-05-3.35771E-06-2.88928E-05 1.42429E-18 1.95008E-18
 -1      2573 5.00110E-05-3.30845E-05-7.12397E-06-3.75331E-05 1.44038E-18 2.01149E-18
 -1      2574 3.83514E-05-2.21587E-05-6.37929E-06-2.55207E-05 6.64815E-19 2.32998E-18
 -1      2575 5.51336E-05-3.58189E-05-8.17678E-06 3.92023E-05 3.04720E-19-2.79648E-18
 -1      2576 3.95768E-05-2.96668E-05-4.05213E-06 3.13737E-05 5.62006E-19-3.81440E-18
 -1      2577 1.31718E-04-5.43060E-05-3.33338E-05-2.05195E-05-1.10114E-19-4.43845E-19
 -1      2578 1.41406E-04-5.03502E-05-3.93792E-05-1.29347E-05 6.05099E-19-2.07523E-19
 -1      2579 8.77647E-05-1.05387E-05-3.31328E-05-1.45324E-06 2.54495E-20-1.98639E-18
 -1      2580 8.78805E-05-1.06710E-05-3.31236E-05-2.53455E-06-1.53629E-19-1.90668E-18
 -1      2581 8.92482E-05-1.27917E-05-3.27678E-05-2.79001E-06-1.94348E-19-1.73974E-18
 -1      2582 8.89736E-05-1.24278E-05-3.28071E-05-8.93467E-07 2.47027E-20-1.83950E-18
 -1      2583 9.50843E-05-2.00033E-05-3.22259E-05-1.15569E-05-1.38360E-18-4.47379E-19
 -1      2584 9.55089E-05-2.33281E-05-3.09535E-05-7.73220E-06-1.21486E-18-3.42900E-19
 -1      2585 9.51070E-05-2.25238E-05-3.10979E-05-7.32508E-06-1.16636E-18-6.57068E-19
 -1      2586 9.32775E-05-1.76798E-05-3.24268E-05-1.10785E-05-1.31324E-18-8.85110E-19
 -1      2587 1.44694E-04-4.07172E-05-4.48017E-05-3.23159E-06 1.65844E-18 5.63489E-19
 -1      2588 1.48702E-04-3.29821E-05-5.00257E-05 1.03333E-06 1.87724E-18 6.88850E-19
 -1      2589 1.40020E-04-1.04473E-05-5.60503E-05 2.93678E-06 1.73218E-18-1.92594E-19
 -1      2590 1.37671E-04-8.84063E-06-5.58895E-05-4.53555E-07 1.62863E-18-7.83903E-19
 -1      2591 2.74831E-05-2.32754E-05-1.63629E-06 2.33242E-05-1.72371E-19-4.56191E-18
 -1      2592 1.98786E-05-1.91413E-05-1.09541E-07 1.02177E-05-4.75927E-19-4.76880E-18
 -1      2593 4.07463E-05-2.38752E-05-6.69431E-06 2.75397E-05 7.26013E-19-3.60010E-18
 -1      2594 1.41497E-04-1.24273E-05-5.59405E-05-5.02998E-06 1.76013E-18-1.32370E-18
 -1      2595 1.44769E-04-1.96972E-05-5.39296E-05-5.44618E-06 1.57358E-18-1.67098E-18
 -1      2596 1.09565E-04-5.47239E-05-2.35045E-05-3.50638E-05-3.35849E-19-4.62162E-19
 -1      2597 1.23748E-04-5.56884E-05-2.91709E-05-2.99537E-05 5.71747E-21-5.54383E-19
 -1      2598 1.31489E-04-5.80240E-05-3.13908E-05-1.88296E-05-7.08543E-19 4.00858E-19
 -1      2599 3.30352E-05-2.69708E-05-2.45057E-06-3.04660E-05-5.28337E-19-2.42463E-18
 -1      2600 4.57714E-05-3.20092E-05-5.79330E-06-3.85641E-05-7.64871E-19-1.39930E-18
 -1      2601 1.53269E-04-1.75919E-05-5.84477E-05-4.77832E-06-2.76260E-18-1.80852E-18
 -1      2602 1.49749E-04-2.10451E-05-5.54631E-05-8.06711E-06-3.17637E-18-1.86008E-18
 -1      2603 1.82704E-05-1.79497E-05 1.25957E-07-5.22552E-06-1.07375E-18-5.00342E-18
 -1      2604 2.34201E-05-2.05033E-05-1.01141E-06-2.02778E-05-4.35163E-19-4.08100E-18
 -1      2605 9.20058E-05-5.18269E-05-1.73649E-05 4.09696E-05 3.66342E-20-2.15479E-18
 -1      2606 7.52598E-05-4.56836E-05-1.24715E-05 4.02916E-05 2.86509E-19-2.00133E-18
 -1      2607 1.30346E-04-5.97878E-05-3.05290E-05 2.42510E-05-8.54868E-19-1.37039E-18
 -1      2608 1.11644E-04-5.78045E-05-2.30072E-05 3.20925E-05 4.23516E-20-1.97846E-18
 -1      2609 1.48191E-04-5.17614E-05-4.16746E-05 6.62476E-06-2.14289E-18-1.37579E-18
 -1      2610 1.41090E-04-5.68149E-05-3.63561E-05 1.22792E-05-1.50401E-18-1.33281E-18
 -1      2611 1.52505E-04-3.30278E-05-5.17206E-05-7.26376E-06-2.87674E-18-1.97846E-18
 -1      2612 1.50489E-04-4.26030E-05-4.64622E-05-2.97074E-06-2.44443E-18-1.99476E-18
 -1      2613 1.49361E-04-1.34726E-05-5.87083E-05 2.30272E-06-3.63801E-18-1.86665E-18
 -1      2614 1.51766E-04-1.44080E-05-5.92392E-05-1.17607E-06-3.18611E-18-2.09154E-18
 -1      2615 1.40159E-04-1.38330E-05-5.43205E-05-4.60522E-06-2.99214E-18-1.38289E-18
 -1      2616 1.49944E-04-2.65261E-05-5.32440E-05 8.71450E-06-2.82549E-18-2.42527E-18
 -1      2617 1.49470E-04-1.89621E-05-5.64939E-05 7.16828E-06-3.10925E-18-2.67027E-18
 -1      2618 1.50023E-04-4.44414E-05-4.54842E-05 1.88060E-06-1.71974E-18-2.47905E-18
 -1      2619 1.52721E-04-3.69121E-05-5.02376E-05 5.08434E-06-1.92012E-18-2.28402E-18
 -1      2620 1.35533E-04-5.80290E-05-3.31988E-05-1.74146E-05-2.15040E-19-4.42363E-19
 -1      2621 1.46989E-04-5.39032E-05-4.03055E-05-8.74032E-06-1.15165E-18-1.93589E-18
 -1      2622 1.05471E-04-5.61556E-05-2.11109E-05-3.51923E-05 5.02926E-19 1.33778E-18
 -1      2623 1.21172E-04-5.89269E-05-2.69890E-05-3.05387E-05 3.55542E-19 7.21460E-19
 -1      2624 6.93353E-05-4.30877E-05-1.10465E-05-4.01349E-05 2.09387E-18 2.24781E-18
 -1      2625 8.80678E-05-5.01435E-05-1.62791E-05-4.13220E-05 1.21041E-18 2.15175E-18
 -1      2626 1.01846E-04-5.44263E-05-1.99925E-05-3.59437E-05 2.03203E-18 1.44972E-18
 -1      2627 5.65305E-05-3.43426E-05-9.45304E-06 4.19083E-05-1.15493E-18-9.28136E-19
 -1      2628 3.80066E-05-2.63087E-05-4.62448E-06 3.17228E-05-1.44281E-18-1.91599E-18
 -1      2629 3.97466E-05-2.15066E-05-7.26527E-06 2.76054E-05-8.40998E-19-1.80884E-18
 -1      2630 9.63318E-05-2.50771E-05-3.05619E-05 7.40897E-06 1.31448E-18 1.09600E-18
 -1      2631 9.74201E-05-2.37611E-05-3.15889E-05 1.05198E-05 1.46224E-18 1.30507E-18
 -1      2632 9.58822E-05-2.12919E-05-3.20231E-05 1.17016E-05 1.61200E-18 7.22440E-19
 -1      2633 9.59144E-05-2.41357E-05-3.07961E-05 7.44532E-06 1.32210E-18 4.77663E-19
 -1      2634 9.07936E-05-1.48678E-05-3.25335E-05-6.53976E-06-7.32172E-19-1.59295E-18
 -1      2635 8.97329E-05-1.30656E-05-3.29100E-05-7.72300E-06-8.08514E-19-1.73376E-18
 -1      2636 9.04029E-05-1.38754E-05-3.28581E-05-8.88717E-06-1.01167E-18-1.66592E-18
 -1      2637 9.49100E-05-2.68864E-05-2.91670E-05 1.46036E-06 8.27488E-19 6.41727E-20
 -1      2638 9.42716E-05-1.90667E-05-3.22755E-05 1.13908E-05 1.60452E-18 1.56304E-19
 -1      2639 6.66527E-05-3.80042E-05-1.18347E-05-3.80804E-05 2.18047E-18 2.02102E-18
 -1      2640 1.31619E-04-6.06659E-05-3.02558E-05-1.91743E-05 3.36907E-19-7.84141E-19
 -1      2641 1.41266E-04-4.75206E-05-4.01890E-05-1.67482E-06 6.87844E-19 8.54021E-19
 -1      2642 1.31765E-04-1.20032E-05-5.16318E-05 6.05313E-06 1.18394E-18 2.79944E-19
 -1      2643 1.41018E-04-4.31156E-05-4.20329E-05-2.95944E-06-4.70315E-19-2.57096E-18
 -1      2644 1.46525E-04-5.10184E-05-4.08982E-05 2.26978E-06-1.02447E-18-2.97033E-18
 -1      2645 1.38319E-04-2.37963E-05-4.92622E-05-9.15855E-06 5.83394E-19-2.05649E-18
 -1      2646 1.38716E-04-1.52815E-05-5.30138E-05 7.50921E-06-2.67705E-18-2.74756E-18
 -1      2647 9.52840E-05-2.85080E-05-2.86183E-05 1.22743E-07-5.59770E-19 4.27743E-18
 -1      2648 9.52772E-05-2.84803E-05-2.86271E-05 1.53284E-07 1.14902E-19 2.67883E-18
 -1      2649 1.44755E-04-2.71924E-05-5.04311E-05-1.22797E-05-2.70606E-18-1.12550E-18
 -1      2650 7.61355E-05-4.05162E-05-1.48281E-05 3.99362E-05-1.54520E-18-1.99212E-18
 -1      2651 9.52999E-05-2.85047E-05-2.86255E-05-1.42594E-07-8.83110E-19 2.62026E-18
 -1      2652 9.52743E-05-2.84643E-05-2.86337E-05-1.71138E-07-1.02551E-18 1.14605E-18
 -1      2653 9.52769E-05-2.84203E-05-2.86520E-05-2.38826E-07-1.49253E-18 4.24923E-19
 -1      2654 9.53289E-05-2.85009E-05-2.86386E-05-1.86588E-07-1.11366E-18 3.19581E-18
 -1      2655 1.46148E-04-4.79455E-05-4.20831E-05-4.74527E-06-1.57294E-18-6.09017E-19
 -1      2656 2.48214E-05-1.48623E-05-3.71417E-06-3.10900E-08 1.20378E-19 1.92806E-18
 -1      2657 3.04015E-05-1.35169E-05-6.79617E-06-9.15521E-06-5.07743E-19 2.57074E-18
 -1      2658 3.06968E-05-1.27563E-05-7.12559E-06 6.09255E-06-2.31730E-19 1.88465E-19
 -1      2659 9.47500E-05-2.05621E-05-3.17507E-05 9.42313E-06 1.48070E-18 4.54883E-20
 -1      2660 1.36767E-04-6.09187E-05-3.24906E-05 1.28550E-05-4.46810E-20-8.03517E-19
 -1      2661 9.11871E-05-1.49438E-05-3.27294E-05-9.57204E-06-1.10140E-18-1.52551E-18
 -1      2662 9.22135E-05-1.62437E-05-3.26373E-05-1.06039E-05-1.24868E-18-1.21815E-18
 -1      2663 9.37080E-05-1.91513E-05-3.19377E-05-8.93127E-06-1.22003E-18-1.03588E-18
 -1      2664 9.21099E-05-1.67079E-05-3.22999E-05-8.03348E-06-9.97528E-19-1.39523E-18
 -1      2665 7.10584E-05-4.02454E-05-1.27484E-05 3.87972E-05 8.94467E-19-2.30965E-18
 -1      2666 1.09085E-04-5.66351E-05-2.22100E-05 3.28640E-05 8.67997E-19-1.56428E-18
 -1      2667 2.59883E-05-1.53999E-05-3.99860E-06 2.56166E-06-7.61311E-19-4.67541E-18
 -1      2668 1.03465E-04-5.40446E-05-2.09302E-05-3.82161E-05-5.86994E-19-4.41516E-19
 -1      2669 1.15893E-04-5.77609E-05-2.51560E-05-3.03139E-05-1.18214E-18-8.15269E-20
 -1      2670 9.53117E-05-5.06642E-05-1.86582E-05-3.99773E-05-9.69429E-19 8.32210E-20
 -1      2671 5.63969E-05-3.19082E-05-9.93402E-06-3.90142E-05-1.11417E-18-1.33958E-18
 -1      2672 5.95279E-05-3.72033E-05-9.25292E-06-4.12731E-05-7.58518E-19-8.82608E-19
 -1      2673 7.31704E-05-4.18599E-05-1.34505E-05-4.22279E-05-1.18860E-18-3.30131E-19
 -1      2674 1.40070E-04-2.75332E-05-4.83661E-05 8.40983E-06 1.35038E-18 2.58345E-19
 -1      2675 1.30552E-04-1.02294E-05-5.19376E-05-3.50796E-06 1.41857E-18 1.36690E-19
 -1      2676 3.40503E-05-2.09139E-05-5.15773E-06-2.50316E-05-1.24419E-18-3.20856E-18
 -1      2677 1.44041E-04-3.08678E-05-4.84132E-05 1.37070E-05-1.98481E-18-3.80508E-18
 -1      2678 9.52803E-05-2.84418E-05-2.86443E-05 2.16953E-07-6.06401E-19 1.95324E-18
 -1      2679 9.53250E-05-2.84584E-05-2.86585E-05-2.63251E-07-1.69553E-18 1.96524E-18
 -1      2680 9.45812E-05-2.14182E-05-3.13865E-05-7.37795E-06-1.09484E-18-8.98960E-19
 -1      2681 9.50264E-05-2.31329E-05-3.08071E-05-5.66265E-06-1.01645E-18-7.91360E-19
 -1      2682 9.37955E-05-2.00305E-05-3.16167E-05-7.22374E-06-1.01702E-18-1.07490E-18
 -1      2683 9.04176E-05-1.48158E-05-3.24227E-05 3.00685E-06 5.39947E-19-1.61669E-18
 -1      2684 9.02060E-05-1.45225E-05-3.24569E-05 2.11736E-06 4.55567E-19-1.71188E-18
 -1      2685 9.00544E-05-1.42983E-05-3.24869E-05 1.33718E-06 3.75665E-19-1.76532E-18
 -1      2686 8.99816E-05-1.41977E-05-3.24986E-05 4.31787E-07 2.55075E-19-1.74444E-18
 -1      2687 9.11952E-05-1.61251E-05-3.21585E-05 1.51003E-06 3.47594E-19-1.64335E-18
 -1      2688 9.21249E-05-1.73483E-05-3.20840E-05 6.15984E-06 1.19415E-18-9.45059E-19
 -1      2689 9.15703E-05-1.65172E-05-3.21892E-05 5.33796E-06 1.06374E-18-1.05978E-18
 -1      2690 9.35973E-05-1.96588E-05-3.17297E-05 7.27735E-06 1.38159E-18-5.95113E-19
 -1      2691 9.27871E-05-1.83693E-05-3.19116E-05 6.69653E-06 1.29400E-18-7.95897E-19
 -1      2692 9.34168E-05-1.96453E-05-3.15931E-05 5.37336E-06 1.18799E-18-7.19257E-19
 -1      2693 9.53214E-05-2.53260E-05-3.00081E-05 3.60455E-06 9.83908E-19-1.68882E-19
 -1      2694 9.56228E-05-2.44885E-05-3.04537E-05 5.28699E-06 1.08007E-18-6.38943E-20
 -1      2695 1.39878E-04-5.98167E-05-3.48170E-05 3.57677E-06 2.00482E-19 4.07740E-19
 -1      2696 1.31089E-04-5.94658E-05-3.01768E-05 1.27287E-05 6.00017E-19 2.02229E-20
 -1      2697 4.93875E-05-2.34078E-05-1.09934E-05 3.18205E-05-1.50158E-18-2.35496E-18
 -1      2698 3.83773E-05-1.63404E-05-8.85979E-06 2.05170E-05-1.20459E-18-2.68277E-18
 -1      2699 9.54602E-05-2.57340E-05-2.98581E-05-2.19980E-06-6.14305E-19-7.57998E-19
 -1      2700 9.53330E-05-2.62832E-05-2.96007E-05-1.11860E-06-5.35351E-19-6.97210E-19
 -1      2701 9.53697E-05-2.67630E-05-2.93807E-05-2.64749E-07-5.60784E-19-7.01595E-19
 -1      2702 9.52897E-05-2.70852E-05-2.92330E-05 4.62240E-07-5.42135E-19-7.97891E-19
 -1      2703 9.54784E-05-2.60125E-05-2.97773E-05-9.07718E-07-6.12478E-19-8.18905E-19
 -1      2704 9.52656E-05-2.73383E-05-2.90976E-05 1.07458E-06-5.61880E-19-7.92166E-19
 -1      2705 9.52608E-05-2.75244E-05-2.90280E-05 1.58770E-06-5.74827E-19-8.48597E-19
 -1      2706 9.54997E-05-2.68978E-05-2.94090E-05 6.30409E-07-5.64110E-19-9.31360E-19
 -1      2707 9.52281E-05-2.76440E-05-2.89567E-05 2.04800E-06-5.68979E-19-7.54032E-19
 -1      2708 9.52941E-05-2.77456E-05-2.89444E-05 2.44249E-06-7.21807E-19-8.75089E-19
 -1      2709 9.54558E-05-2.73679E-05-2.91880E-05 1.76652E-06-5.81191E-19-1.07770E-18
 -1      2710 9.52668E-05-2.77767E-05-2.89213E-05 2.82176E-06-6.00172E-19-8.99876E-19
 -1      2711 9.53937E-05-2.78214E-05-2.89522E-05 3.16649E-06-3.28583E-19-8.26645E-19
 -1      2712 9.54072E-05-2.75709E-05-2.90786E-05 2.65517E-06-5.24621E-19-9.90806E-19
 -1      2713 9.53731E-05-2.77889E-05-2.89653E-05 3.52088E-06-1.60086E-19-6.79307E-19
 -1      2714 9.55523E-05-2.77941E-05-2.90299E-05 3.86630E-06-1.66312E-19-6.49379E-19
 -1      2715 9.53682E-05-2.75874E-05-2.90532E-05 3.42678E-06-1.96459E-19-6.90936E-19
 -1      2716 9.55344E-05-2.77138E-05-2.90696E-05 4.23902E-06-3.40944E-19-6.15102E-19
 -1      2717 9.57611E-05-2.76932E-05-2.91608E-05 4.62183E-06-3.61867E-19-5.12799E-19
 -1      2718 9.53365E-05-2.74669E-05-2.90896E-05 4.18321E-06-1.49705E-19-2.66957E-19
 -1      2719 9.57412E-05-2.75786E-05-2.92186E-05 5.04524E-06-4.41051E-19-4.16710E-19
 -1      2720 9.60154E-05-2.75478E-05-2.93304E-05 5.49029E-06-2.82291E-19-6.87361E-19
 -1      2721 9.53041E-05-2.72458E-05-2.91689E-05 5.00169E-06-3.01374E-19-2.64536E-19
 -1      2722 9.59916E-05-2.74160E-05-2.93974E-05 5.98693E-06-1.11463E-19-4.02025E-19
 -1      2723 9.63196E-05-2.73982E-05-2.95234E-05 6.50637E-06 1.46949E-19-3.04225E-19
 -1      2724 9.52646E-05-2.69615E-05-2.92723E-05 5.93807E-06-8.44363E-20-4.14174E-19
 -1      2725 9.62985E-05-2.72778E-05-2.95892E-05 7.08849E-06 2.41663E-20-3.84671E-19
 -1      2726 9.66978E-05-2.73126E-05-2.97209E-05 7.67802E-06-2.97671E-19-3.82016E-19
 -1      2727 9.52222E-05-2.66671E-05-2.93792E-05 7.02801E-06-2.08701E-19-7.89117E-19
 -1      2728 9.67048E-05-2.72557E-05-2.97723E-05 8.34556E-06-8.36887E-20-3.93812E-19
 -1      2729 9.72134E-05-2.74115E-05-2.98984E-05 8.97714E-06 4.67853E-21-2.17565E-19
 -1      2730 9.52064E-05-2.64531E-05-2.94643E-05 8.28594E-06-6.60585E-20-3.56799E-19
 -1      2731 9.73112E-05-2.75100E-05-2.99198E-05 9.71309E-06 6.67976E-20-1.28049E-19
 -1      2732 9.80036E-05-2.79014E-05-3.00263E-05 1.03231E-05 1.54189E-19 1.98254E-19
 -1      2733 9.52997E-05-2.64772E-05-2.94968E-05 9.70149E-06 1.94291E-19-1.43214E-19
 -1      2734 9.83223E-05-2.83089E-05-3.00022E-05 1.10836E-05-3.25853E-19 1.94628E-19
 -1      2735 9.93318E-05-2.91130E-05-3.00764E-05 1.15552E-05-5.68083E-19 2.84993E-19
 -1      2736 9.56837E-05-2.70062E-05-2.94434E-05 1.12309E-05-1.77783E-19 3.96445E-20
 -1      2737 1.00111E-04-3.00610E-05-3.00001E-05 1.22459E-05-6.49738E-19 2.90095E-19
 -1      2738 1.01645E-04-3.15146E-05-3.00417E-05 1.23825E-05-6.57273E-19-5.15404E-20
 -1      2739 9.67100E-05-2.84612E-05-2.92790E-05 1.27738E-05-6.31672E-19 2.48009E-19
 -1      2740 1.03272E-04-3.32955E-05-2.99356E-05 1.28000E-05 1.61805E-20-1.68502E-19
 -1      2741 1.05585E-04-3.56184E-05-2.99813E-05 1.22918E-05 4.15417E-19 3.70411E-21
 -1      2742 9.89877E-05-3.14348E-05-2.90161E-05 1.41070E-05-4.28939E-19 1.78554E-19
 -1      2743 1.08568E-04-3.84507E-05-2.99411E-05 1.20088E-05 1.85007E-19 2.32079E-19
 -1      2744 1.11812E-04-4.15999E-05-3.01097E-05 1.04159E-05 3.57713E-19 4.28268E-19
 -1      2745 1.03419E-04-3.65628E-05-2.87690E-05 1.47070E-05 4.41647E-19-6.31304E-20
 -1      2746 1.16565E-04-4.52307E-05-3.03896E-05 8.64451E-06 9.18890E-19 9.11781E-19
 -1      2747 1.20342E-04-4.83497E-05-3.08383E-05 5.63443E-06 1.58215E-18 6.37204E-19
 -1      2748 1.10908E-04-4.40060E-05-2.88837E-05 1.34423E-05 9.85119E-19 3.38323E-19
 -1      2749 1.28671E-04-5.30852E-05-3.24180E-05 8.74118E-07 1.77939E-18 9.83723E-19
 -1      2750 1.32168E-04-5.25078E-05-3.42327E-05-4.98886E-06 1.43765E-18 1.17809E-18
 -1      2751 1.33409E-04-4.89738E-05-3.63409E-05-8.88118E-06 7.69536E-19 1.23577E-18
 -1      2752 1.37625E-04-3.92390E-05-4.25510E-05-1.62481E-05-9.26972E-19 4.66609E-19
 -1      2753 1.33840E-04-2.89038E-05-4.54452E-05-1.42543E-05-1.96363E-18-2.92862E-19
 -1      2754 1.27825E-04-1.73431E-05-4.79269E-05 8.11422E-06-1.75166E-18-2.95419E-18
 -1      2755 1.30366E-04-2.43574E-05-4.63720E-05 1.45182E-05-1.15249E-18-3.52170E-18
 -1      2756 1.32999E-04-4.74356E-05-3.68589E-05 1.16590E-05-5.11264E-19-3.59518E-18
 -1      2757 1.31881E-04-5.09905E-05-3.47315E-05 7.16696E-06 9.65535E-20-4.09489E-18
 -1      2758 1.26852E-04-5.08038E-05-3.26720E-05 1.54760E-06 4.65762E-19-4.03616E-18
 -1      2759 1.23703E-04-4.95998E-05-3.16277E-05-2.76692E-06 7.17116E-19-3.84793E-18
 -1      2760 1.30316E-04-5.33449E-05-3.30727E-05 6.00447E-07 1.18373E-19-4.01213E-18
 -1      2761 1.18077E-04-4.63323E-05-3.08229E-05-6.45160E-06 6.66602E-19-3.77249E-18
 -1      2762 1.14509E-04-4.31844E-05-3.04304E-05-9.12727E-06 6.90689E-19-3.51258E-18
 -1      2763 1.19460E-04-4.95020E-05-3.01476E-05-8.59242E-06 9.75464E-19-3.56342E-18
 -1      2764 1.10319E-04-3.98002E-05-3.02580E-05-1.05860E-05 5.42300E-20-3.09496E-18
 -1      2765 1.07412E-04-3.68607E-05-3.01490E-05-1.18063E-05-1.37802E-19-3.02348E-18
 -1      2766 1.09707E-04-4.17982E-05-2.92439E-05-1.28085E-05 5.37394E-19-2.88120E-18
 -1      2767 1.04834E-04-3.43832E-05-3.02010E-05-1.19627E-05-2.33000E-19-2.83520E-18
 -1      2768 1.02803E-04-3.23058E-05-3.01692E-05-1.22175E-05-4.51496E-19-2.31149E-18
 -1      2769 1.03096E-04-3.51412E-05-2.92134E-05-1.37719E-05-1.45844E-19-2.69508E-18
 -1      2770 1.01408E-04-3.08046E-05-3.02528E-05-1.17547E-05-6.90750E-19-2.29092E-18
 -1      2771 1.00071E-04-2.95408E-05-3.02099E-05-1.14551E-05-1.33798E-18-2.08262E-18
 -1      2772 9.92493E-05-3.06976E-05-2.94265E-05-1.31117E-05-5.29144E-19-3.08100E-18
 -1      2773 9.93915E-05-2.87652E-05-3.02570E-05-1.07384E-05-1.19704E-18-1.73902E-18
 -1      2774 9.85093E-05-2.80803E-05-3.01807E-05-1.01598E-05-5.87617E-19-1.78373E-18
 -1      2775 9.72427E-05-2.81780E-05-2.96199E-05-1.17670E-05-8.75868E-19-2.89525E-18
 -1      2776 9.82128E-05-2.77617E-05-3.01797E-05-9.37004E-06-4.83130E-19-2.72116E-18
 -1      2777 9.76046E-05-2.74366E-05-3.00756E-05-8.68499E-06-2.48917E-19-3.17726E-18
 -1      2778 9.62887E-05-2.69667E-05-2.97161E-05-1.01899E-05-9.72807E-19-3.05948E-18
 -1      2779 9.74903E-05-2.73728E-05-3.00363E-05-7.91391E-06-2.41107E-19-2.91710E-18
 -1      2780 9.70447E-05-2.72511E-05-2.99179E-05-7.22418E-06-9.62139E-20-2.20369E-18
 -1      2781 9.58749E-05-2.65407E-05-2.97150E-05-8.59983E-06-2.85603E-19-4.22791E-18
 -1      2782 9.70055E-05-2.73125E-05-2.98549E-05-6.51742E-06-7.39361E-19-2.49029E-18
 -1      2783 9.66610E-05-2.72966E-05-2.97345E-05-5.87837E-06-1.34063E-18-2.41557E-18
 -1      2784 9.57073E-05-2.65365E-05-2.96428E-05-7.10694E-06-6.20998E-19-3.27335E-18
 -1      2785 9.66459E-05-2.74086E-05-2.96606E-05-5.25640E-06-1.49776E-18-2.89079E-18
 -1      2786 9.63704E-05-2.74422E-05-2.95471E-05-4.69392E-06-1.70740E-18-3.24166E-18
 -1      2787 9.56361E-05-2.67312E-05-2.95288E-05-5.76588E-06-1.68121E-18-3.79468E-18
 -1      2788 9.63586E-05-2.75653E-05-2.94717E-05-4.16262E-06-1.19963E-18-2.62989E-18
 -1      2789 9.61355E-05-2.76181E-05-2.93701E-05-3.68470E-06 2.90909E-19-2.73352E-18
 -1      2790 9.55937E-05-2.69989E-05-2.93964E-05-4.59936E-06-1.23017E-18-2.75845E-18
 -1      2791 9.61206E-05-2.77337E-05-2.92990E-05-3.24138E-06 7.74497E-19-3.08673E-18
 -1      2792 9.59400E-05-2.77904E-05-2.92115E-05-2.84579E-06 1.36015E-18-2.98781E-18
 -1      2793 9.55543E-05-2.72743E-05-2.92622E-05-3.61025E-06 4.58811E-19-2.03812E-18
 -1      2794 9.59217E-05-2.78909E-05-2.91480E-05-2.48306E-06 1.88868E-18-2.52094E-18
 -1      2795 9.57770E-05-2.79442E-05-2.90748E-05-2.16230E-06 2.67635E-18-2.01147E-18
 -1      2796 9.55115E-05-2.75268E-05-2.91363E-05-2.78927E-06 1.83503E-18-2.61536E-18
 -1      2797 9.57570E-05-2.80278E-05-2.90201E-05-1.87046E-06 2.39415E-18-2.50044E-18
 -1      2798 9.56425E-05-2.80747E-05-2.89605E-05-1.61473E-06 1.43862E-18-1.39352E-18
 -1      2799 9.54664E-05-2.77446E-05-2.90239E-05-2.12025E-06 2.26240E-18-3.47464E-18
 -1      2800 9.56224E-05-2.81421E-05-2.89147E-05-1.38340E-06 9.75519E-19-1.22395E-18
 -1      2801 9.55332E-05-2.81816E-05-2.88671E-05-1.18240E-06 1.86845E-18-5.32684E-19
 -1      2802 9.54215E-05-2.79253E-05-2.89275E-05-1.58381E-06 1.66348E-18-2.56178E-18
 -1      2803 9.55140E-05-2.82346E-05-2.88298E-05-1.00136E-06 1.53859E-18-7.61980E-19
 -1      2804 9.54457E-05-2.82670E-05-2.87925E-05-8.45349E-07 1.41370E-18-1.24258E-18
 -1      2805 9.53792E-05-2.80711E-05-2.88469E-05-1.15978E-06 1.56413E-18-8.36616E-19
 -1      2806 9.54279E-05-2.83075E-05-2.87626E-05-7.05967E-07 1.46004E-18-1.74121E-18
 -1      2807 9.53756E-05-2.83325E-05-2.87339E-05-5.86041E-07 7.70617E-19-1.43393E-18
 -1      2808 9.53408E-05-2.81860E-05-2.87812E-05-8.29346E-07 1.42281E-18-2.88461E-18
 -1      2809 9.53597E-05-2.83637E-05-2.87102E-05-4.78785E-07 5.54111E-19-8.63469E-19
 -1      2810 9.53211E-05-2.83825E-05-2.86883E-05-3.88922E-07-8.42005E-19-8.31418E-19
 -1      2811 9.53056E-05-2.82737E-05-2.87284E-05-5.74724E-07 7.10519E-19-2.17473E-18
 -1      2812 9.50416E-05-2.79211E-05-2.87606E-05-2.15223E-06 3.50592E-19-6.88714E-19
 -1      2813 9.49377E-05-2.77970E-05-2.87642E-05-1.81709E-06 4.55793E-19-5.66253E-19
 -1      2814 9.49489E-05-2.76704E-05-2.88302E-05-1.38671E-06 4.89787E-19-6.40714E-19
 -1      2815 9.49458E-05-2.74917E-05-2.88912E-05-9.16486E-07 5.54771E-19-4.59839E-19
 -1      2816 9.52799E-05-2.75852E-05-2.90219E-05-1.57557E-06 5.07967E-19-9.09167E-19
 -1      2817 9.55923E-05-2.82152E-05-2.88683E-05-3.25384E-06 2.57448E-20 4.95973E-20
 -1      2818 9.53353E-05-2.81294E-05-2.88002E-05-3.02086E-06 1.70209E-19-2.46902E-19
 -1      2819 9.60353E-05-2.83413E-05-2.90037E-05-3.73670E-06 1.23126E-19 1.41519E-19
 -1      2820 9.57131E-05-2.82483E-05-2.89129E-05-3.51258E-06 8.36730E-20 7.08181E-20
 -1      2821 9.56347E-05-2.80844E-05-2.89559E-05-3.61403E-06-2.91554E-20-2.83300E-19
 -1      2822 9.65946E-05-2.85055E-05-2.91733E-05-4.21511E-06 6.35700E-19 7.50857E-20
 -1      2823 9.62068E-05-2.83861E-05-2.90662E-05-3.99436E-06 4.18871E-19 5.93529E-20
 -1      2824 9.59304E-05-2.81684E-05-2.90462E-05-4.16277E-06 3.08939E-19-3.95694E-19
 -1      2825 9.72875E-05-2.87557E-05-2.93642E-05-4.67782E-06 7.55261E-19 3.30842E-19
 -1      2826 9.68291E-05-2.85864E-05-2.92466E-05-4.47226E-06 6.50193E-19 3.50103E-19
 -1      2827 9.63381E-05-2.83014E-05-2.91641E-05-4.70810E-06 5.57394E-19 3.49945E-19
 -1      2828 9.81426E-05-2.91512E-05-2.95637E-05-5.07573E-06 5.17502E-19 6.21755E-19
 -1      2829 9.76059E-05-2.89034E-05-2.94421E-05-4.91686E-06 7.20102E-19 6.75732E-19
 -1      2830 9.68913E-05-2.85495E-05-2.92958E-05-5.23535E-06 5.09176E-19 8.23798E-19
 -1      2831 9.92002E-05-2.97633E-05-2.97590E-05-5.31560E-06-1.19200E-19 8.16021E-19
 -1      2832 9.85765E-05-2.94044E-05-2.96403E-05-5.25747E-06 3.23887E-19 8.58204E-19
 -1      2833 9.76428E-05-2.89950E-05-2.94289E-05-5.69021E-06 3.05630E-19 1.38823E-18
 -1      2834 1.00507E-04-3.06659E-05-2.99388E-05-5.25448E-06-6.79592E-19 9.32605E-19
 -1      2835 9.97914E-05-3.01659E-05-2.98300E-05-5.37492E-06-4.21059E-19 9.15400E-19
 -1      2836 9.86664E-05-2.97350E-05-2.95536E-05-5.97121E-06-2.36696E-19 1.46191E-18
 -1      2837 1.02099E-04-3.19095E-05-3.00979E-05-4.70062E-06-8.67344E-20 7.93288E-19
 -1      2838 1.01302E-04-3.12572E-05-3.00038E-05-5.09697E-06-6.00750E-19 9.36531E-19
 -1      2839 1.00053E-04-3.08678E-05-2.96666E-05-5.92173E-06-6.58359E-19 1.09782E-18
 -1      2840 1.03971E-04-3.34671E-05-3.02442E-05-3.43203E-06-1.72336E-19 1.36574E-18
 -1      2841 1.03135E-04-3.27006E-05-3.01640E-05-4.20444E-06-3.38052E-20 1.13380E-18
 -1      2842 1.01887E-04-3.24541E-05-2.97774E-05-5.32668E-06-3.92611E-19 1.33092E-18
 -1      2843 1.06004E-04-3.51422E-05-3.04085E-05-1.25412E-06-5.93914E-19 1.58022E-18
 -1      2844 1.05230E-04-3.43961E-05-3.03312E-05-2.46559E-06-1.99025E-19 1.43705E-18
 -1      2845 1.04196E-04-3.44388E-05-2.99185E-05-3.92613E-06-3.06822E-19 1.64805E-18
 -1      2846 1.07881E-04-3.64636E-05-3.06508E-05 1.87044E-06-3.05888E-19 1.45049E-18
 -1      2847 1.07355E-04-3.60123E-05-3.05526E-05 2.68708E-07-5.26422E-19 1.50863E-18
 -1      2848 1.06843E-04-3.65219E-05-3.01548E-05-1.47671E-06-3.08836E-19 1.08954E-18
 -1      2849 1.09040E-04-3.66601E-05-3.10501E-05 5.59618E-06-4.70217E-19 1.01800E-18
 -1      2850 1.09010E-04-3.68992E-05-3.09003E-05 3.86791E-06-4.12175E-19 1.35588E-18
 -1      2851 1.09384E-04-3.80210E-05-3.05841E-05 2.08024E-06-1.99355E-19 1.22888E-18
 -1      2852 1.08823E-04-3.49054E-05-3.16693E-05 8.95925E-06 9.12043E-19 1.14628E-18
 -1      2853 1.09488E-04-3.61812E-05-3.14439E-05 7.65493E-06 3.90442E-19 1.41788E-18
 -1      2854 1.11035E-04-3.79287E-05-3.13074E-05 6.31565E-06-1.24577E-19 1.33461E-18
 -1      2855 1.06912E-04-3.09947E-05-3.24849E-05 1.03120E-05 8.24957E-19 1.01091E-18
 -1      2856 1.08168E-04-3.31952E-05-3.22048E-05 1.01945E-05 1.03890E-18 1.13103E-18
 -1      2857 1.10840E-04-3.51763E-05-3.23760E-05 9.97657E-06 1.10752E-18 1.50065E-18
 -1      2858 1.04025E-04-2.61813E-05-3.32917E-05 8.13130E-06 1.66973E-18 4.75761E-19
 -1      2859 1.05352E-04-2.84743E-05-3.30427E-05 9.71119E-06 1.05539E-18 8.31495E-19
 -1      2860 1.08539E-04-2.99779E-05-3.36500E-05 1.09694E-05 1.41208E-18 1.08342E-18
 -1      2861 1.01969E-04-2.30669E-05-3.37976E-05 2.44608E-06 1.18767E-18 3.95293E-20
 -1      2862 1.02626E-04-2.41986E-05-3.36743E-05 5.33520E-06 1.62376E-18 4.91160E-19
 -1      2863 1.05383E-04-2.43863E-05-3.47467E-05 7.57454E-06 1.58177E-18 4.24536E-19
 -1      2864 1.02380E-04-2.37948E-05-3.37308E-05-4.56236E-06 3.50665E-19-8.58104E-19
 -1      2865 1.01832E-04-2.29014E-05-3.38280E-05-1.55464E-06 1.00578E-18-3.51631E-19
 -1      2866 1.03701E-04-2.17976E-05-3.51290E-05 5.36871E-07 1.18068E-18 8.62197E-19
 -1      2867 1.04944E-04-2.77918E-05-3.31525E-05-9.40186E-06-4.25560E-19-1.52300E-19
 -1      2868 1.03666E-04-2.55976E-05-3.33864E-05-7.58213E-06-4.27758E-19-7.65476E-19
 -1      2869 1.05040E-04-2.37578E-05-3.48619E-05-6.84697E-06 1.59656E-19 6.35182E-19
 -1      2870 1.07883E-04-3.26125E-05-3.23354E-05-1.04217E-05-2.80748E-19 7.76200E-19
 -1      2871 1.06565E-04-3.03342E-05-3.26104E-05-1.03163E-05-1.06440E-19 3.25532E-19
 -1      2872 1.08118E-04-2.91277E-05-3.38272E-05-1.08541E-05-1.05726E-18 7.48249E-19
 -1      2873 1.09459E-04-3.58865E-05-3.15695E-05-8.22106E-06-7.87708E-19 2.39169E-18
 -1      2874 1.08689E-04-3.44676E-05-3.17981E-05-9.39139E-06-4.74051E-19 1.64205E-18
 -1      2875 1.10658E-04-3.45676E-05-3.25670E-05-1.04018E-05-1.07051E-18 1.85620E-18
 -1      2876 1.09230E-04-3.68880E-05-3.10017E-05-4.54054E-06-9.37745E-19 2.04780E-18
 -1      2877 1.09160E-04-3.65263E-05-3.11561E-05-6.23099E-06-7.82348E-19 1.92711E-18
 -1      2878 1.11162E-04-3.76590E-05-3.14705E-05-7.02306E-06-6.55578E-19 3.11161E-18
 -1      2879 1.07711E-04-3.61568E-05-3.06431E-05-9.09890E-07-9.04447E-19 2.31609E-18
 -1      2880 1.08167E-04-3.65411E-05-3.07391E-05-2.52463E-06-7.23770E-19 2.39242E-18
 -1      2881 1.09729E-04-3.80736E-05-3.07037E-05-2.80501E-06-9.87875E-19 2.94202E-18
 -1      2882 1.05646E-04-3.45876E-05-3.04256E-05 1.89304E-06-1.51301E-19 1.74995E-18
 -1      2883 1.06376E-04-3.53146E-05-3.04947E-05 6.54145E-07-9.30132E-20 2.20827E-18
 -1      2884 1.07263E-04-3.67091E-05-3.02516E-05 8.25172E-07-3.43971E-20 2.14849E-18
 -1      2885 1.03567E-04-3.28699E-05-3.02746E-05 3.68095E-06-1.29356E-18 2.62691E-19
 -1      2886 1.04373E-04-3.36449E-05-3.03420E-05 2.89160E-06-1.83915E-19 9.32817E-19
 -1      2887 1.04614E-04-3.46404E-05-3.00105E-05 3.35439E-06 1.72245E-19 2.20307E-18
 -1      2888 1.01744E-04-3.13792E-05-3.01385E-05 4.57878E-06-4.91564E-20-1.08599E-18
 -1      2889 1.02512E-04-3.20489E-05-3.02169E-05 4.18517E-06-1.79502E-18-9.11930E-19
 -1      2890 1.02269E-04-3.26010E-05-2.98786E-05 4.79377E-06-6.93653E-19-1.36981E-18
 -1      2891 1.00251E-04-3.02399E-05-2.99933E-05 4.81602E-06 1.63031E-18-2.47729E-19
 -1      2892 1.00933E-04-3.07558E-05-3.00847E-05 4.71966E-06 9.69026E-19-3.63072E-19
 -1      2893 1.00399E-04-3.09392E-05-2.97849E-05 5.37661E-06-4.08572E-20-1.98258E-18
 -1      2894 9.90712E-05-2.94421E-05-2.98342E-05 4.61789E-06 7.93922E-19 9.18687E-19
 -1      2895 9.96531E-05-2.98101E-05-2.99343E-05 4.71870E-06 1.52878E-18 3.55323E-19
 -1      2896 9.89896E-05-2.97351E-05-2.96927E-05 5.36721E-06 1.22092E-18-4.12325E-19
 -1      2897 9.81520E-05-2.89224E-05-2.96663E-05 4.16747E-06 1.02730E-18 6.04613E-19
 -1      2898 9.86377E-05-2.91697E-05-2.97691E-05 4.38227E-06 9.25935E-19 1.26084E-18
 -1      2899 9.79594E-05-2.89395E-05-2.95886E-05 4.99040E-06 1.01682E-18 8.01295E-19
 -1      2900 9.74401E-05-2.86074E-05-2.94983E-05 3.59861E-06 7.83722E-19 6.54269E-19
 -1      2901 9.78393E-05-2.87648E-05-2.95978E-05 3.86593E-06 1.29127E-18 1.19773E-18
 -1      2902 9.72152E-05-2.84600E-05-2.94727E-05 4.41639E-06 1.01978E-18 6.09406E-19
 -1      2903 9.68895E-05-2.84333E-05-2.93381E-05 3.00134E-06-9.46961E-20 6.34908E-19
 -1      2904 9.72134E-05-2.85275E-05-2.94299E-05 3.27973E-06 2.20453E-19 6.09540E-19
 -1      2905 9.66779E-05-2.82038E-05-2.93506E-05 3.76423E-06 3.99677E-19 1.17951E-18
 -1      2906 9.64642E-05-2.83506E-05-2.91919E-05 2.43121E-06-1.18406E-18-4.03700E-20
 -1      2907 9.67237E-05-2.84026E-05-2.92733E-05 2.69525E-06-6.22553E-19 7.39245E-19
 -1      2908 9.62876E-05-2.80944E-05-2.92292E-05 3.11148E-06-8.19040E-19 1.30359E-18
 -1      2909 9.61368E-05-2.83241E-05-2.90632E-05 1.91875E-06-2.86167E-19 5.01507E-19
 -1      2910 9.63418E-05-2.83489E-05-2.91330E-05 2.15473E-06-1.01518E-18 2.81699E-20
 -1      2911 9.60017E-05-2.80747E-05-2.91145E-05 2.50450E-06-9.53174E-19 7.23078E-19
 -1      2912 9.58860E-05-2.83297E-05-2.89534E-05 1.47726E-06 1.08547E-18 8.71389E-19
 -1      2913 9.60456E-05-2.83379E-05-2.90115E-05 1.67948E-06 7.17396E-19 1.28002E-18
 -1      2914 9.57907E-05-2.81053E-05-2.90104E-05 1.96745E-06-2.68444E-19 5.08867E-19
 -1      2915 9.56953E-05-2.83515E-05-2.88622E-05 1.10897E-06 9.45496E-19 9.15501E-19
 -1      2916 9.58177E-05-2.83502E-05-2.89094E-05 1.27684E-06 1.23057E-18 7.16527E-19
 -1      2917 9.56338E-05-2.81601E-05-2.89193E-05 1.50944E-06 1.09864E-18-4.16283E-19
 -1      2918 9.55515E-05-2.83794E-05-2.87885E-05 8.09545E-07-4.17134E-19 7.34178E-19
 -1      2919 9.56438E-05-2.83735E-05-2.88258E-05 9.45465E-07 2.18143E-19 7.44135E-19
 -1      2920 9.55167E-05-2.82227E-05-2.88420E-05 1.13002E-06 4.98240E-19 1.21643E-18
 -1      2921 9.54437E-05-2.84071E-05-2.87303E-05 5.70929E-07-1.73666E-18 2.34064E-18
 -1      2922 9.55122E-05-2.83996E-05-2.87591E-05 6.78878E-07-1.27184E-18 1.19786E-18
 -1      2923 9.54285E-05-2.82831E-05-2.87780E-05 8.23153E-07-1.20478E-18 1.04139E-18
 -1      2924 9.53647E-05-2.84319E-05-2.86849E-05 3.84560E-07-1.44956E-18 3.18655E-18
 -1      2925 9.54136E-05-2.84248E-05-2.87068E-05 4.67654E-07-1.57351E-18 2.79294E-18
 -1      2926 9.53607E-05-2.83355E-05-2.87262E-05 5.79551E-07-2.18781E-18 5.43637E-19
 -1      2927 9.53022E-05-2.84388E-05-2.86550E-05 2.63069E-07-1.06376E-18 2.90706E-18
 -1      2928 9.53364E-05-2.84306E-05-2.86719E-05 3.29079E-07-1.59427E-18 2.57140E-18
 -1      2929 9.53039E-05-2.83648E-05-2.86901E-05 4.13623E-07-1.78355E-18-1.26254E-19
 -1      2930 9.52591E-05-2.83759E-05-2.86659E-05 3.04786E-07-9.94205E-19-3.73709E-19
 -1      2931 9.48834E-05-2.79080E-05-2.87049E-05 3.87498E-08 1.00951E-19 3.57704E-19
 -1      2932 9.48935E-05-2.79191E-05-2.87038E-05 1.00279E-07 8.77615E-19-5.09207E-19
 -1      2933 9.53089E-05-2.83953E-05-2.86755E-05-3.33722E-07-1.15623E-18-8.87775E-19
 -1      2934 9.52893E-05-2.84080E-05-2.86632E-05-2.84401E-07-1.39125E-18 2.00405E-20
 -1      2935 9.52548E-05-2.83648E-05-2.86683E-05-3.03332E-07-1.04810E-18-7.77558E-19
 -1      2936 9.52764E-05-2.83282E-05-2.86923E-05-4.08641E-07-4.40323E-19-1.34989E-18
 -1      2937 9.49836E-05-2.80271E-05-2.86975E-05 2.74494E-07 1.72890E-18-3.25257E-18
 -1      2938 9.50252E-05-2.80722E-05-2.86934E-05 3.07379E-07 2.76464E-18-2.89855E-18
 -1      2939 9.48920E-05-2.79157E-05-2.87048E-05-9.96161E-08-8.09471E-19-2.41660E-18
 -1      2940 9.48826E-05-2.79061E-05-2.87053E-05-3.77492E-08-6.75282E-19-1.12705E-18
 -1      2941 9.48178E-05-2.78177E-05-2.87123E-05 1.92685E-09-5.15702E-19-1.01704E-18
 -1      2942 9.49156E-05-2.79470E-05-2.87025E-05 1.70333E-07 8.12789E-19-1.37649E-18
 -1      2943 9.49437E-05-2.79770E-05-2.86999E-05 2.21630E-07 1.72074E-18-2.58603E-18
 -1      2944 9.49150E-05-2.79273E-05-2.87075E-05 2.89518E-07 1.41882E-18-2.98331E-18
 -1      2945 9.48440E-05-2.78480E-05-2.87107E-05 1.58166E-07 7.06515E-19-1.10853E-18
 -1      2946 9.49908E-05-2.72652E-05-2.90245E-05-3.11932E-07 5.95694E-19-4.70371E-19
 -1      2947 9.51027E-05-2.69829E-05-2.91670E-05 3.90456E-07 6.72549E-19-3.37021E-19
 -1      2948 9.53182E-05-2.71228E-05-2.92376E-05-4.63529E-07 6.59954E-19-7.18489E-19
 -1      2949 9.49398E-05-2.79682E-05-2.87021E-05-2.20965E-07 3.19637E-19-3.20442E-18
 -1      2950 9.49125E-05-2.79398E-05-2.87042E-05-1.69631E-07-1.62713E-19-1.61879E-18
 -1      2951 9.48405E-05-2.78404E-05-2.87124E-05-1.54375E-07-6.37980E-19-1.22113E-18
 -1      2952 9.50219E-05-2.80614E-05-2.86966E-05-3.09700E-07 1.43987E-18-4.02706E-18
 -1      2953 9.49796E-05-2.80166E-05-2.87003E-05-2.75812E-07 1.15561E-18-3.15588E-18
 -1      2954 9.49092E-05-2.79136E-05-2.87107E-05-2.88294E-07 6.33921E-19-2.73878E-18
 -1      2955 9.51241E-05-2.81833E-05-2.86880E-05-3.47321E-07 1.08271E-18 6.50042E-20
 -1      2956 9.50751E-05-2.81281E-05-2.86934E-05-3.38517E-07 1.77537E-18-2.72747E-18
 -1      2957 9.50156E-05-2.80306E-05-2.87067E-05-3.79278E-07 1.52141E-18-2.95085E-18
 -1      2958 9.52164E-05-2.83060E-05-2.86755E-05-3.27275E-07-2.58239E-19-1.33912E-18
 -1      2959 9.51698E-05-2.82472E-05-2.86827E-05-3.43300E-07 7.47528E-19-1.44647E-18
 -1      2960 9.51243E-05-2.81611E-05-2.86985E-05-4.04621E-07 4.82484E-19-1.23430E-18
 -1      2961 9.52238E-05-2.82873E-05-2.86867E-05-3.76220E-07 1.13478E-20-1.64882E-18
 -1      2962 1.28169E-04-1.43738E-05-4.95499E-05 1.31868E-06-2.42611E-18-1.92470E-18
 -1      2963 6.26529E-05-3.12325E-05-1.28414E-05-3.40462E-05 1.49851E-18 7.21037E-19
 -1      2964 7.96033E-05-4.14531E-05-1.62524E-05-3.78323E-05 2.52363E-18 1.60799E-18
 -1      2965 3.78726E-05-1.74140E-05-8.08128E-06-1.98436E-05 1.58395E-19 1.70381E-18
 -1      2966 4.67714E-05-2.31092E-05-9.87155E-06-2.90141E-05 6.18969E-19 1.21994E-18
 -1      2967 1.25078E-04-6.00699E-05-2.75600E-05-2.10847E-05 1.27701E-18-3.96676E-19
 -1      2968 1.36134E-04-6.04625E-05-3.29020E-05-1.07138E-05 1.06197E-19-2.50679E-18
 -1      2969 1.30466E-04-2.00414E-05-4.81675E-05-1.17080E-05-2.49610E-18-8.69082E-19
 -1      2970 9.52598E-05-2.80877E-05-2.87814E-05-2.74410E-06 3.19240E-19-6.50463E-19
 -1      2971 9.50732E-05-2.79919E-05-2.87436E-05-2.48018E-06 3.47985E-19-6.75655E-19
 -1      2972 9.53151E-05-2.78479E-05-2.89227E-05-2.39177E-06 2.93003E-19-7.44667E-19
 -1      2973 9.54322E-05-2.79946E-05-2.89085E-05-3.04159E-06 7.10693E-20-3.75515E-19
 -1      2974 1.28283E-04-1.59869E-05-4.85762E-05 1.00615E-05 1.07764E-18 5.24472E-19
 -1      2975 1.23038E-04-1.06763E-05-4.87453E-05 6.26948E-06 1.49205E-18 1.45618E-18
 -1      2976 9.53507E-05-2.41850E-05-3.04895E-05-4.54603E-06-8.88762E-19-7.42763E-19
 -1      2977 9.52999E-05-2.51110E-05-3.00912E-05-3.02180E-06-7.16095E-19-7.60677E-19
 -1      2978 9.53259E-05-2.47844E-05-3.02450E-05-2.70866E-06-6.39818E-19-9.01517E-19
 -1      2979 9.49070E-05-2.30409E-05-3.07894E-05-4.71825E-06-7.78085E-19-8.73880E-19
 -1      2980 1.35553E-04-3.26056E-05-4.43918E-05 1.05068E-05 1.07552E-18 1.15154E-18
 -1      2981 1.32037E-04-2.33483E-05-4.72806E-05 1.11949E-05 1.09161E-18 1.52572E-19
 -1      2982 1.25405E-04-2.15777E-05-4.49059E-05 1.15857E-05 1.04513E-18 1.19093E-18
 -1      2983 1.41855E-04-5.48023E-05-3.72635E-05 2.07837E-06-5.32122E-19-3.58761E-18
 -1      2984 1.42744E-04-4.68416E-05-4.15740E-05 1.02334E-05-9.24801E-19-4.01250E-18
 -1      2985 4.99142E-05-2.48187E-05-1.05099E-05 3.07805E-05 1.22312E-18-2.46741E-18
 -1      2986 3.95291E-05-1.84011E-05-8.45596E-06 2.16775E-05 4.32675E-19-2.76281E-18
 -1      2987 1.21519E-04-9.08143E-06-4.87927E-05-1.98938E-06 1.24344E-18 1.32425E-18
 -1      2988 1.25247E-04-1.26182E-05-4.87529E-05-8.19752E-06 1.44504E-18 6.22993E-19
 -1      2989 9.51523E-05-2.65753E-05-2.93928E-05 1.27046E-06 7.62484E-19-2.66176E-19
 -1      2990 9.53697E-05-2.60908E-05-2.96544E-05 2.34921E-06 8.23341E-19-1.94688E-19
 -1      2991 9.53551E-05-2.48845E-05-3.02011E-05 3.37119E-06 9.78459E-19-5.28135E-19
 -1      2992 9.53819E-05-2.63098E-05-2.96114E-05 1.12051E-06 8.24111E-19-6.09088E-19
 -1      2993 9.10946E-05-1.58005E-05-3.22960E-05 4.64926E-06 9.25377E-19-1.13611E-18
 -1      2994 9.07223E-05-1.52697E-05-3.23596E-05 3.76066E-06 6.84209E-19-1.31292E-18
 -1      2995 9.16397E-05-1.67917E-05-3.20613E-05 2.95559E-06 6.11798E-19-1.34387E-18
 -1      2996 9.23828E-05-1.79390E-05-3.18840E-05 4.29306E-06 8.83982E-19-9.64470E-19
 -1      2997 1.36684E-04-3.78313E-05-4.29543E-05-8.42228E-06-3.18749E-19-2.16226E-18
 -1      2998 1.36037E-04-4.60036E-05-3.87454E-05-3.55879E-06-8.32475E-19-2.32331E-18
 -1      2999 9.06887E-05-1.52175E-05-3.23677E-05-3.69763E-06-3.84067E-19-1.64939E-18
 -1      3000 9.10542E-05-1.57348E-05-3.23062E-05-4.58879E-06-5.16144E-19-1.57989E-18
 -1      3001 3.53805E-05-1.63007E-05-7.62002E-06-1.98867E-05-1.61508E-18-3.33159E-18
 -1      3002 4.41425E-05-2.25669E-05-8.76123E-06-3.06665E-05-1.79889E-18-2.10403E-18
 -1      3003 1.26567E-04-5.83052E-05-2.90414E-05-1.91659E-05-6.60792E-19 7.56506E-20
 -1      3004 1.31784E-04-5.69834E-05-3.24828E-05-1.20896E-05-5.73547E-19 1.85712E-19
 -1      3005 8.66274E-05-4.28410E-05-1.87781E-05 3.67960E-05-2.04765E-18-2.06898E-18
 -1      3006 6.73017E-05-3.22670E-05-1.42673E-05 3.64367E-05-2.12711E-18-1.14455E-18
 -1      3007 1.34883E-04-3.25011E-05-4.42380E-05 1.51707E-05-1.31534E-18-3.92970E-18
 -1      3008 1.16340E-04-5.84174E-05-2.53217E-05 2.70105E-05 9.72182E-19-1.21570E-18
 -1      3009 1.00964E-04-5.18967E-05-2.04482E-05 3.38149E-05 1.34043E-18-1.52007E-18
 -1      3010 3.12129E-05-1.39070E-05-6.98107E-06 1.01150E-05-5.79635E-19-4.09540E-18
 -1      3011 3.00343E-05-1.25937E-05-6.89713E-06-5.38417E-06-7.52046E-19-4.36836E-18
 -1      3012 4.17421E-05-1.54138E-05-1.06128E-05 1.40876E-05 4.80956E-20-2.85852E-18
 -1      3013 9.47616E-05-2.18532E-05-3.12521E-05 7.56453E-06 1.30520E-18-1.28501E-19
 -1      3014 8.29029E-05-4.39837E-05-1.66945E-05 3.84452E-05 1.28728E-18-1.46558E-18
 -1      3015 6.55458E-05-3.39942E-05-1.29464E-05 3.58493E-05 1.21560E-18-2.09048E-18
 -1      3016 1.29435E-04-1.98256E-05-4.76777E-05-1.11586E-05 6.53274E-19-5.58512E-19
 -1      3017 1.33800E-04-2.85564E-05-4.54258E-05-1.15412E-05 5.24102E-20-1.70148E-18
 -1      3018 1.30538E-04-3.30713E-05-4.19709E-05-1.19314E-05-4.40828E-19-6.62115E-19
 -1      3019 1.35906E-04-5.09915E-05-3.64387E-05-1.54466E-06 3.75553E-19 5.91441E-19
 -1      3020 1.37319E-04-4.31420E-05-4.09792E-05 5.56277E-06 1.20422E-18 7.67200E-19
 -1      3021 9.62256E-05-5.00179E-05-1.93756E-05-3.51448E-05 3.04741E-18 1.17669E-18
 -1      3022 1.11505E-04-5.71378E-05-2.34725E-05-3.11695E-05 2.00270E-18 1.11215E-18
 -1      3023 1.37129E-04-4.19481E-05-4.12524E-05 1.47633E-05-1.39983E-18-4.28567E-18
 -1      3024 1.32197E-04-3.82391E-05-4.04964E-05 1.00550E-05 1.06859E-18 9.52383E-19
 -1      3025 9.10433E-05-1.58994E-05-3.21907E-05 2.56726E-08 1.67206E-19-1.54921E-18
 -1      3026 8.99774E-05-1.41916E-05-3.24996E-05-3.53827E-07 8.07735E-20-1.65242E-18
 -1      3027 9.00421E-05-1.42792E-05-3.24896E-05-1.25946E-06-7.84713E-20-1.68119E-18
 -1      3028 1.23811E-04-5.76358E-05-2.81844E-05 1.70489E-05 1.21417E-18 1.19908E-20
 -1      3029 4.61352E-05-1.53621E-05-1.29884E-05 1.76919E-05-1.88588E-18-3.54515E-18
 -1      3030 3.77187E-05-1.36361E-05-9.72416E-06 1.34935E-05-1.09257E-18-2.23723E-18
 -1      3031 3.88619E-05-1.16519E-05-1.13052E-05 4.58284E-06-1.05790E-18-6.06370E-19
 -1      3032 9.15181E-05-1.64376E-05-3.22018E-05-5.28986E-06-6.08528E-19-1.50839E-18
 -1      3033 9.20678E-05-1.72550E-05-3.20975E-05-6.09961E-06-7.74987E-19-1.42727E-18
 -1      3034 9.23425E-05-1.78662E-05-3.18973E-05-4.24996E-06-4.91376E-19-1.41578E-18
 -1      3035 1.24091E-04-5.35711E-05-3.04657E-05 8.49025E-06 1.67211E-18 1.11231E-18
 -1      3036 1.40858E-04-5.08870E-05-3.88182E-05-5.40186E-06-2.30922E-19 4.37704E-19
 -1      3037 9.43470E-05-4.64345E-05-2.01004E-05 3.32053E-05 1.51079E-18-1.50790E-18
 -1      3038 9.50190E-05-2.80447E-05-2.87023E-05 3.76457E-07 1.75561E-18-1.80393E-18
 -1      3039 9.50767E-05-2.81378E-05-2.86899E-05 3.35129E-07 2.26659E-18-1.61868E-18
 -1      3040 9.51247E-05-2.81923E-05-2.86844E-05 3.44316E-07 2.52165E-19-1.59120E-18
 -1      3041 1.16206E-04-1.26144E-05-4.46594E-05 5.78817E-06 1.29278E-18 2.41713E-18
 -1      3042 1.19188E-04-1.05877E-05-4.70952E-05 2.04967E-06 1.37325E-18 1.85103E-18
 -1      3043 1.14586E-04-1.14064E-05-4.45230E-05-1.93472E-06 8.53068E-19 1.75213E-18
 -1      3044 9.51713E-05-2.82561E-05-2.86795E-05 3.41868E-07-4.76125E-19-2.94072E-18
 -1      3045 9.52177E-05-2.83130E-05-2.86725E-05 3.27633E-07-7.03819E-19-1.81375E-18
 -1      3046 9.52359E-05-2.83033E-05-2.86838E-05 3.80525E-07-1.19752E-18-1.93635E-18
 -1      3047 9.51331E-05-2.81764E-05-2.86947E-05 4.04293E-07 1.30990E-19-4.34240E-19
 -1      3048 9.12877E-05-4.47259E-05-1.96558E-05-3.30603E-05 2.33823E-18 1.13423E-18
 -1      3049 3.95965E-05-1.48295E-05-9.97267E-06-1.32546E-05-2.21446E-19 1.68602E-18
 -1      3050 1.19604E-04-5.78552E-05-2.64025E-05-2.24632E-05 1.84081E-18 9.14266E-20
 -1      3051 1.19667E-04-5.67762E-05-2.68093E-05-2.34221E-05-7.72812E-19-1.26605E-19
 -1      3052 6.12279E-05-2.69711E-05-1.41395E-05-2.97099E-05 8.24904E-19 1.84230E-19
 -1      3053 1.01412E-04-4.95265E-05-2.18686E-05 3.27328E-05-1.64367E-18-1.98699E-18
 -1      3054 9.11098E-05-4.22340E-05-2.08288E-05 3.20824E-05-1.40787E-18-1.35621E-18
 -1      3055 1.23426E-04-5.80274E-05-2.80579E-05 2.10238E-05-2.26306E-18-1.58125E-18
 -1      3056 1.10739E-04-5.38364E-05-2.42885E-05 2.78876E-05-2.02324E-18-1.74291E-18
 -1      3057 1.12438E-04-5.21765E-05-2.57393E-05 2.29284E-05-1.94023E-18-1.59597E-18
 -1      3058 1.36994E-04-5.68714E-05-3.43607E-05-1.71996E-06 3.45894E-19-3.21089E-18
 -1      3059 8.89000E-05-4.71950E-05-1.73846E-05-4.01496E-05-1.22174E-18 8.53386E-20
 -1      3060 1.01403E-04-5.18079E-05-2.14798E-05-3.47216E-05-1.35515E-18-2.01012E-19
 -1      3061 8.24503E-05-4.21532E-05-1.67846E-05-3.92227E-05-1.43784E-18-3.10914E-19
 -1      3062 5.36684E-05-2.69305E-05-1.09098E-05-3.39355E-05-1.84823E-18-1.51174E-18
 -1      3063 6.44062E-05-3.17159E-05-1.37921E-05-3.66045E-05-1.88809E-18-9.65406E-19
 -1      3064 5.35645E-05-2.28691E-05-1.27354E-05-2.93709E-05-1.97756E-18-1.52455E-18
 -1      3065 1.35218E-04-5.36529E-05-3.54392E-05 3.82496E-06-1.29387E-18-2.39933E-18
 -1      3066 1.29145E-04-5.66860E-05-3.11053E-05 1.34238E-05-1.95188E-18-1.96348E-18
 -1      3067 1.26859E-04-5.51887E-05-3.06489E-05 1.03194E-05-2.08649E-18-1.75966E-18
 -1      3068 1.33441E-04-4.82593E-05-3.65945E-05-3.28860E-06-1.15617E-18-1.88147E-18
 -1      3069 6.35726E-05-2.90331E-05-1.42189E-05 3.11260E-05 1.46526E-18-2.10297E-18
 -1      3070 9.44062E-05-2.13302E-05-3.13234E-05 6.88953E-06 1.29004E-18-4.21376E-19
 -1      3071 9.01846E-05-1.44899E-05-3.24617E-05-2.03677E-06-1.78297E-19-1.66653E-18
 -1      3072 9.03915E-05-1.47755E-05-3.24286E-05-2.94200E-06-3.48333E-19-1.64675E-18
 -1      3073 9.16101E-05-1.67422E-05-3.20696E-05-2.90142E-06-3.57770E-19-1.59611E-18
 -1      3074 9.11808E-05-1.61013E-05-3.21624E-05-1.45609E-06-1.67299E-19-1.58718E-18
 -1      3075 1.22503E-04-1.77579E-05-4.52535E-05-1.01657E-05 4.36328E-19 6.18969E-19
 -1      3076 3.68293E-05-1.38490E-05-9.23031E-06-1.23726E-05-1.57561E-18-3.51593E-18
 -1      3077 4.49751E-05-1.55719E-05-1.21839E-05-1.80083E-05-2.12495E-18-2.41563E-18
 -1      3078 3.96266E-05-1.19179E-05-1.15483E-05-5.01800E-06-1.17765E-18-3.33615E-18
 -1      3079 6.36217E-05-2.71091E-05-1.51840E-05 3.11081E-05-1.82737E-18-1.78798E-18
 -1      3080 1.31894E-04-5.31286E-05-3.38114E-05-3.34712E-06 5.77769E-20 3.95247E-19
 -1      3081 1.31134E-04-1.29699E-05-5.14193E-05-2.71711E-06-2.85492E-18-1.60333E-18
 -1      3082 1.32306E-04-1.54825E-05-5.07871E-05-7.40911E-06-2.92989E-18-1.25398E-18
 -1      3083 9.46617E-05-2.23243E-05-3.09925E-05 5.31754E-06 1.16891E-18-5.54983E-19
 -1      3084 9.42679E-05-2.16347E-05-3.11562E-05 4.53751E-06 1.09481E-18-5.73831E-19
 -1      3085 9.37477E-05-2.06114E-05-3.13472E-05 4.20431E-06 1.03784E-18-6.72284E-19
 -1      3086 1.23238E-04-2.57878E-05-4.19574E-05 1.35954E-05 1.07139E-18 1.00188E-18
 -1      3087 1.18917E-04-1.94161E-05-4.31737E-05 1.13662E-05 1.26462E-18 1.58374E-18
 -1      3088 9.56212E-05-2.63546E-05-2.96730E-05 1.61746E-07-5.41618E-19-9.17328E-19
 -1      3089 9.56040E-05-2.67270E-05-2.95238E-05 8.38257E-07-5.17507E-19-9.96910E-19
 -1      3090 9.55917E-05-2.70065E-05-2.93858E-05 1.38630E-06-5.89709E-19-9.78677E-19
 -1      3091 9.55626E-05-2.71985E-05-2.92996E-05 1.89950E-06-7.17358E-19-9.73598E-19
 -1      3092 9.56423E-05-2.65175E-05-2.96271E-05 9.83545E-07-5.61253E-19-1.00161E-18
 -1      3093 9.54772E-05-2.73053E-05-2.92129E-05 2.33686E-06-5.50103E-19-8.56547E-19
 -1      3094 9.54509E-05-2.73715E-05-2.91745E-05 2.75688E-06-2.58915E-19-8.12421E-19
 -1      3095 9.55500E-05-2.69756E-05-2.93912E-05 2.00291E-06-5.27268E-19-6.09913E-19
 -1      3096 9.53124E-05-2.73518E-05-2.91262E-05 3.13707E-06-7.06367E-20-7.94705E-19
 -1      3097 9.52908E-05-2.73254E-05-2.91234E-05 3.52131E-06-9.84461E-20-7.05239E-19
 -1      3098 9.53338E-05-2.71011E-05-2.92439E-05 2.84564E-06-1.78905E-19-6.15680E-19
 -1      3099 9.51054E-05-2.72090E-05-2.91022E-05 3.88969E-06-1.66115E-19-5.80201E-19
 -1      3100 9.50853E-05-2.71131E-05-2.91246E-05 4.28222E-06-2.19598E-19-4.29088E-19
 -1      3101 9.50183E-05-2.69753E-05-2.91610E-05 3.61029E-06-5.89894E-20-7.58706E-19
 -1      3102 9.48505E-05-2.69213E-05-2.91194E-05 4.67493E-06-1.35076E-19-3.75135E-19
 -1      3103 9.48275E-05-2.67754E-05-2.91576E-05 5.10846E-06-2.00157E-21-2.30005E-19
 -1      3104 9.46068E-05-2.66556E-05-2.91197E-05 4.37748E-06-3.10778E-20-6.27909E-19
 -1      3105 9.45378E-05-2.65280E-05-2.91568E-05 5.55369E-06-2.50199E-19 3.43916E-20
 -1      3106 9.45102E-05-2.63552E-05-2.92004E-05 6.05071E-06-1.48554E-19-1.59669E-19
 -1      3107 9.40915E-05-2.61886E-05-2.90967E-05 5.21072E-06-1.10950E-19-1.50310E-19
 -1      3108 9.41613E-05-2.60783E-05-2.91907E-05 6.57048E-06-1.29189E-19-4.24311E-19
 -1      3109 9.41360E-05-2.59136E-05-2.92279E-05 7.14376E-06-2.43047E-19-5.17596E-19
 -1      3110 9.34616E-05-2.56248E-05-2.90660E-05 6.15925E-06-2.52324E-19-6.15311E-20
 -1      3111 9.37327E-05-2.56493E-05-2.91929E-05 7.75676E-06-2.94419E-19-5.80881E-19
 -1      3112 9.37355E-05-2.55518E-05-2.92089E-05 8.40925E-06-3.80782E-20-3.67267E-19
 -1      3113 9.27159E-05-2.50360E-05-2.89967E-05 7.26356E-06-1.77898E-19-3.11115E-19
 -1      3114 9.33044E-05-2.53732E-05-2.91287E-05 9.13522E-06-2.22472E-20-5.99330E-19
 -1      3115 9.33987E-05-2.54446E-05-2.91060E-05 9.85957E-06 5.42709E-20-7.14319E-19
 -1      3116 9.18810E-05-2.45393E-05-2.88509E-05 8.56454E-06-1.46410E-19-1.05134E-18
 -1      3117 9.30111E-05-2.54762E-05-2.89577E-05 1.07254E-05 1.00451E-20-9.03911E-19
 -1      3118 9.33285E-05-2.58848E-05-2.88788E-05 1.15014E-05-3.20841E-19-7.88588E-19
 -1      3119 9.10446E-05-2.43324E-05-2.85833E-05 1.01182E-05-3.57802E-19-1.62462E-18
 -1      3120 9.31385E-05-2.63294E-05-2.86403E-05 1.25449E-05-5.17179E-19-6.84432E-19
 -1      3121 9.39229E-05-2.73383E-05-2.84968E-05 1.33287E-05-7.19968E-19-6.02458E-19
 -1      3122 9.04120E-05-2.47431E-05-2.81451E-05 1.20144E-05-1.74404E-19-1.69056E-18
 -1      3123 9.42303E-05-2.85038E-05-2.81579E-05 1.45853E-05-5.15043E-19-2.00212E-19
 -1      3124 9.58846E-05-3.04808E-05-2.79695E-05 1.52677E-05-2.14084E-19-1.05583E-19
 -1      3125 9.04011E-05-2.62970E-05-2.74970E-05 1.43826E-05-3.87013E-19-1.03291E-18
 -1      3126 9.72464E-05-3.27982E-05-2.75579E-05 1.66984E-05 2.11432E-19-2.18736E-19
 -1      3127 1.00303E-04-3.61464E-05-2.74157E-05 1.69912E-05 5.42445E-19-3.41607E-19
 -1      3128 9.17977E-05-2.97987E-05-2.66411E-05 1.73509E-05-1.70283E-19-3.16575E-19
 -1      3129 1.03647E-04-3.99435E-05-2.70864E-05 1.81356E-05 1.12745E-18-1.80478E-19
 -1      3130 1.08793E-04-4.48174E-05-2.72869E-05 1.72956E-05 1.74256E-18 3.32897E-19
 -1      3131 9.60924E-05-3.63597E-05-2.57213E-05 2.07342E-05 1.04538E-18-2.06213E-19
 -1      3132 1.01807E-04-4.84562E-05-2.28536E-05 2.87204E-05 1.50391E-18-1.48210E-18
 -1      3133 8.74402E-05-4.03414E-05-1.97053E-05 3.17872E-05 1.49316E-18-1.25178E-18
 -1      3134 1.23995E-04-1.85208E-05-4.56540E-05-1.00375E-05-2.22981E-18-1.78105E-18
 -1      3135 1.22868E-04-1.52950E-05-4.64600E-05-1.67860E-06-2.41669E-18-2.02948E-18
 -1      3136 1.29164E-04-4.19096E-05-3.73848E-05 9.41407E-06 9.90711E-19 1.28013E-18
 -1      3137 1.26621E-04-3.38503E-05-4.02451E-05 1.24628E-05 7.01555E-19 7.76094E-19
 -1      3138 1.21458E-04-3.12050E-05-3.88785E-05 1.28519E-05 8.39410E-19 8.44915E-19
 -1      3139 1.18585E-04-5.19340E-05-2.85489E-05-1.35526E-05 1.37608E-18-2.18711E-18
 -1      3140 1.12871E-04-4.72788E-05-2.78572E-05-1.58904E-05 1.42147E-18-1.97895E-18
 -1      3141 1.07362E-04-4.24470E-05-2.77605E-05-1.61504E-05 1.33671E-18-1.95927E-18
 -1      3142 1.03056E-04-3.81497E-05-2.76802E-05-1.67459E-05 4.81061E-19-1.43276E-18
 -1      3143 1.04284E-04-4.39315E-05-2.60182E-05-2.09544E-05 1.40811E-18-7.63891E-19
 -1      3144 1.00183E-04-3.47289E-05-2.79889E-05-1.57324E-05 2.25655E-20-1.35879E-18
 -1      3145 9.75279E-05-3.17916E-05-2.81229E-05-1.54305E-05-1.76130E-19-1.12982E-18
 -1      3146 9.63900E-05-3.48669E-05-2.64746E-05-1.88710E-05 6.37121E-19-6.06436E-19
 -1      3147 9.63353E-05-2.97880E-05-2.84729E-05-1.41701E-05-7.60013E-19-1.41096E-18
 -1      3148 9.49016E-05-2.80828E-05-2.86255E-05-1.35094E-05-9.08918E-19-1.60106E-18
 -1      3149 9.26471E-05-2.91193E-05-2.72762E-05-1.59626E-05-1.71413E-19 4.29087E-19
 -1      3150 9.45979E-05-2.70824E-05-2.89048E-05-1.23482E-05-1.03143E-18-2.44857E-18
 -1      3151 9.39000E-05-2.62233E-05-2.90091E-05-1.15622E-05-1.19061E-18-3.03551E-18
 -1      3152 9.13552E-05-2.60754E-05-2.79961E-05-1.33275E-05-1.45055E-18-6.05784E-19
 -1      3153 9.40277E-05-2.58553E-05-2.91969E-05-1.05481E-05-1.00966E-18-2.76181E-18
 -1      3154 9.37217E-05-2.55147E-05-2.92421E-05-9.74675E-06-1.22442E-18-3.06706E-18
 -1      3155 9.12889E-05-2.47297E-05-2.85265E-05-1.10929E-05-1.33264E-18-3.28785E-18
 -1      3156 9.40168E-05-2.55021E-05-2.93498E-05-8.86898E-06-6.75439E-19-3.17951E-18
 -1      3157 9.38976E-05-2.54493E-05-2.93469E-05-8.10583E-06-3.08777E-19-2.97167E-18
 -1      3158 9.17658E-05-2.43915E-05-2.88680E-05-9.21154E-06-5.28315E-19-3.26974E-18
 -1      3159 9.42251E-05-2.56135E-05-2.93946E-05-7.34525E-06-1.00300E-18-3.33190E-18
 -1      3160 9.41834E-05-2.57041E-05-2.93597E-05-6.64855E-06-6.70821E-19-3.24164E-18
 -1      3161 9.24125E-05-2.45898E-05-2.90581E-05-7.60461E-06-6.00261E-19-3.43559E-18
 -1      3162 9.44821E-05-2.59393E-05-2.93669E-05-5.99187E-06-9.23328E-19-2.94511E-18
 -1      3163 9.44658E-05-2.60895E-05-2.93142E-05-5.37584E-06-1.70841E-18-3.35080E-18
 -1      3164 9.30484E-05-2.50375E-05-2.91393E-05-6.21937E-06-5.10382E-19-3.63628E-18
 -1      3165 9.47137E-05-2.63375E-05-2.92966E-05-4.81417E-06-1.45256E-18-1.82724E-18
 -1      3166 9.47013E-05-2.65022E-05-2.92368E-05-4.28366E-06-2.77972E-19-1.27546E-18
 -1      3167 9.35986E-05-2.55691E-05-2.91488E-05-5.02649E-06-4.33625E-19-1.62003E-18
 -1      3168 9.48961E-05-2.67339E-05-2.92058E-05-3.80953E-06-1.15495E-22-1.54102E-18
 -1      3169 9.48810E-05-2.68905E-05-2.91458E-05-3.36283E-06 2.75250E-19-1.94941E-18
 -1      3170 9.40426E-05-2.60960E-05-2.91150E-05-4.00828E-06 1.31771E-20-9.91890E-19
 -1      3171 9.50283E-05-2.70934E-05-2.91092E-05-2.96852E-06 1.08215E-18-2.26656E-18
 -1      3172 9.50100E-05-2.72320E-05-2.90534E-05-2.59971E-06 2.20030E-18-2.91310E-18
 -1      3173 9.43855E-05-2.65750E-05-2.90581E-05-3.15058E-06 6.48160E-19-2.21910E-18
 -1      3174 9.51185E-05-2.74028E-05-2.90160E-05-2.27680E-06 2.49775E-18-2.82265E-18
 -1      3175 9.50985E-05-2.75204E-05-2.89665E-05-1.97757E-06 2.14420E-18-3.06649E-18
 -1      3176 9.46423E-05-2.69892E-05-2.89918E-05-2.43893E-06 1.99069E-18-3.41744E-18
 -1      3177 9.51764E-05-2.76600E-05-2.89314E-05-1.71710E-06 1.85791E-18-2.16708E-18
 -1      3178 9.51563E-05-2.77567E-05-2.88891E-05-1.47807E-06 1.47386E-18-2.73183E-18
 -1      3179 9.48298E-05-2.73353E-05-2.89246E-05-1.85759E-06 2.75997E-18-2.25962E-18
 -1      3180 9.52109E-05-2.78683E-05-2.88576E-05-1.27111E-06 1.38897E-18-1.64744E-18
 -1      3181 9.51917E-05-2.79456E-05-2.88223E-05-1.08292E-06 1.82862E-18-1.18461E-18
 -1      3182 9.49636E-05-2.76175E-05-2.88617E-05-1.38990E-06 1.92712E-18-2.03953E-18
 -1      3183 9.52291E-05-2.80345E-05-2.87951E-05-9.20202E-07 1.15423E-18-2.16352E-18
 -1      3184 9.52106E-05-2.80947E-05-2.87665E-05-7.76371E-07 5.50631E-19-2.02468E-18
 -1      3185 9.50570E-05-2.78425E-05-2.88054E-05-1.01905E-06 7.48030E-19-1.94970E-18
 -1      3186 9.52342E-05-2.81602E-05-2.87437E-05-6.48004E-07 1.40823E-18-3.16294E-18
 -1      3187 9.52195E-05-2.82076E-05-2.87204E-05-5.36093E-07 8.52223E-19-2.40637E-18
 -1      3188 9.51157E-05-2.80128E-05-2.87567E-05-7.30801E-07 4.84972E-19-2.85591E-18
 -1      3189 9.47646E-05-2.77500E-05-2.87208E-05-2.17819E-07-1.18186E-18-1.47075E-19
 -1      3190 9.47375E-05-2.77259E-05-2.87209E-05-1.39238E-07-1.47289E-18-3.21823E-19
 -1      3191 9.57771E-05-2.79307E-05-2.90701E-05-4.40347E-06 7.67554E-20-1.20396E-19
 -1      3192 9.56057E-05-2.78833E-05-2.90248E-05-4.11825E-06 1.27519E-19-3.37457E-19
 -1      3193 9.56207E-05-2.78941E-05-2.90196E-05-3.80885E-06 1.39077E-19-3.97292E-19
 -1      3194 9.55002E-05-2.78527E-05-2.89913E-05-3.51795E-06-3.74085E-20-1.60361E-19
 -1      3195 9.54224E-05-2.76535E-05-2.90476E-05-4.03724E-06 6.00819E-20-2.04308E-19
 -1      3196 9.64487E-05-2.82585E-05-2.92174E-05-5.59956E-06 1.81893E-19 8.30195E-19
 -1      3197 9.61277E-05-2.80884E-05-2.91598E-05-5.33349E-06 2.76885E-19 4.62916E-19
 -1      3198 9.70884E-05-2.87372E-05-2.92874E-05-6.13638E-06 2.25616E-20 1.15237E-18
 -1      3199 9.66491E-05-2.84326E-05-2.92328E-05-5.92197E-06 3.30191E-19 1.13262E-18
 -1      3200 9.58306E-05-2.79791E-05-2.90870E-05-6.04147E-06 1.11154E-20 5.10155E-19
 -1      3201 9.80614E-05-2.95848E-05-2.93434E-05-6.51838E-06-3.51830E-19 1.08042E-18
 -1      3202 9.74605E-05-2.90860E-05-2.92954E-05-6.41493E-06-6.12857E-20 1.27148E-18
 -1      3203 9.63903E-05-2.85442E-05-2.90892E-05-6.68628E-06 8.54395E-21 7.28066E-19
 -1      3204 9.95002E-05-3.09302E-05-2.93878E-05-6.59165E-06-5.87779E-19 7.75408E-19
 -1      3205 9.86893E-05-3.01806E-05-2.93449E-05-6.68638E-06-5.83011E-19 8.89237E-19
 -1      3206 9.73700E-05-2.95735E-05-2.90750E-05-7.20027E-06-3.81898E-19 6.25878E-19
 -1      3207 1.01541E-04-3.28623E-05-2.94422E-05-6.13384E-06-6.89419E-19 1.17513E-18
 -1      3208 1.00485E-04-3.18369E-05-2.93934E-05-6.54262E-06-6.58477E-19 8.70739E-19
 -1      3209 9.89553E-05-3.12244E-05-2.90567E-05-7.42356E-06-7.36151E-19 3.87457E-19
 -1      3210 1.04258E-04-3.53332E-05-2.95598E-05-4.85152E-06-2.63876E-19 1.07977E-18
 -1      3211 1.02973E-04-3.40955E-05-2.94791E-05-5.70897E-06-4.44057E-19 1.14300E-18
 -1      3212 1.01345E-04-3.35993E-05-2.90743E-05-7.10335E-06-5.27087E-19 5.86702E-19
 -1      3213 1.07527E-04-3.79896E-05-2.98387E-05-2.42231E-06-6.08420E-19 1.09316E-18
 -1      3214 1.06155E-04-3.67827E-05-2.96803E-05-3.84007E-06-2.68927E-19 1.30525E-18
 -1      3215 1.04665E-04-3.66183E-05-2.92120E-05-5.86937E-06-4.79488E-19 7.50220E-19
 -1      3216 1.10848E-04-3.99640E-05-3.04267E-05 1.34316E-06-4.45977E-19 1.10580E-18
 -1      3217 1.09707E-04-3.92978E-05-3.01263E-05-6.12734E-07-5.62441E-19 1.10399E-18
 -1      3218 1.08790E-04-3.97931E-05-2.96159E-05-3.26081E-06-5.53770E-19 1.25558E-18
 -1      3219 1.13146E-04-3.97983E-05-3.14736E-05 5.99706E-06 6.00326E-20 7.84162E-19
 -1      3220 1.12715E-04-4.03808E-05-3.09820E-05 3.92084E-06-2.18582E-19 1.18726E-18
 -1      3221 1.12941E-04-4.18956E-05-3.05000E-05 1.14509E-06-3.26746E-19 7.63931E-19
 -1      3222 1.13283E-04-3.60891E-05-3.30629E-05 1.03640E-05 8.77627E-19 8.62696E-19
 -1      3223 1.14061E-04-3.86196E-05-3.23576E-05 8.90573E-06 4.82987E-19 7.76072E-19
 -1      3224 1.15981E-04-4.11413E-05-3.21149E-05 6.83185E-06 2.17727E-19 8.08122E-19
 -1      3225 1.06569E-04-2.14334E-05-3.64689E-05 7.01774E-06 1.56227E-18 5.88701E-19
 -1      3226 1.08338E-04-2.46394E-05-3.60375E-05 9.97300E-06 1.62943E-18 9.83591E-19
 -1      3227 1.07364E-04-1.71293E-05-3.88285E-05-1.19339E-06 1.15523E-18 1.27745E-18
 -1      3228 1.07619E-04-1.75488E-05-3.87446E-05 3.26209E-06 1.26156E-18 9.63715E-19
 -1      3229 1.11814E-04-3.17029E-05-3.44893E-05-1.19987E-05-1.50349E-18 1.38262E-18
 -1      3230 1.10000E-04-2.76940E-05-3.52395E-05-1.13603E-05-9.31511E-19 1.19834E-18
 -1      3231 1.13927E-04-3.79462E-05-3.26307E-05-9.58399E-06-1.29457E-18 1.72544E-18
 -1      3232 1.12991E-04-3.52042E-05-3.33393E-05-1.08567E-05-1.67676E-18 1.52833E-18
 -1      3233 1.15464E-04-3.44728E-05-3.47110E-05-1.19910E-05-1.30022E-18 1.35753E-18
 -1      3234 1.13095E-04-4.03506E-05-3.11682E-05-4.74046E-06-1.11418E-18 2.79174E-18
 -1      3235 1.13353E-04-3.95024E-05-3.16953E-05-6.86227E-06-8.19660E-19 2.29143E-18
 -1      3236 1.16130E-04-4.06583E-05-3.23434E-05-7.50502E-06-1.30869E-18 1.48315E-18
 -1      3237 1.10186E-04-3.94804E-05-3.02527E-05-1.10443E-07-6.94198E-19 2.70148E-18
 -1      3238 1.11257E-04-4.00269E-05-3.05724E-05-2.10198E-06-1.13695E-18 2.74476E-18
 -1      3239 1.13504E-04-4.19182E-05-3.06899E-05-1.87761E-06-9.82795E-19 2.67977E-18
 -1      3240 1.06643E-04-3.70462E-05-2.97734E-05 3.23123E-06 1.13646E-20 2.39841E-18
 -1      3241 1.07999E-04-3.82207E-05-2.99409E-05 1.76762E-06 3.15007E-20 2.64571E-18
 -1      3242 1.09339E-04-4.00385E-05-2.97378E-05 2.57652E-06-3.67490E-19 2.75528E-18
 -1      3243 1.03386E-04-3.43074E-05-2.95620E-05 5.19152E-06 7.01049E-19 1.45122E-18
 -1      3244 1.04687E-04-3.55730E-05-2.96420E-05 4.30530E-06 8.23291E-19 2.27011E-18
 -1      3245 1.05148E-04-3.69014E-05-2.92947E-05 5.32456E-06 6.36771E-19 1.87403E-18
 -1      3246 1.00807E-04-3.19486E-05-2.94811E-05 6.04724E-06 9.95712E-20-9.60140E-19
 -1      3247 1.01884E-04-3.30186E-05-2.95237E-05 5.63471E-06 7.33038E-19 6.10894E-19
 -1      3248 1.01690E-04-3.37844E-05-2.91433E-05 6.63489E-06 1.16958E-18 1.49170E-19
 -1      3249 9.89320E-05-3.01861E-05-2.94444E-05 6.15809E-06 2.99542E-19-1.52021E-18
 -1      3250 9.97593E-05-3.09811E-05-2.94785E-05 6.08403E-06-5.71182E-19-1.85174E-18
 -1      3251 9.91671E-05-3.12770E-05-2.91259E-05 6.95347E-06 6.02895E-19-3.95624E-19
 -1      3252 9.76417E-05-2.89982E-05-2.94090E-05 5.80952E-06 8.32310E-19-5.71521E-19
 -1      3253 9.82511E-05-2.95348E-05-2.94475E-05 5.95381E-06 3.57081E-19-8.39227E-19
 -1      3254 9.74669E-05-2.94967E-05-2.91501E-05 6.67663E-06-2.67955E-19-6.06051E-19
 -1      3255 9.67861E-05-2.82746E-05-2.93581E-05 5.20852E-06 7.67755E-19 2.75644E-19
 -1      3256 9.72261E-05-2.86048E-05-2.94044E-05 5.47772E-06 1.06286E-18 5.47885E-19
 -1      3257 9.63923E-05-2.83575E-05-2.91703E-05 6.07001E-06 3.38021E-19-8.34343E-19
 -1      3258 9.62323E-05-2.78880E-05-2.92899E-05 4.49696E-06 5.32064E-19 2.50092E-18
 -1      3259 9.65483E-05-2.80691E-05-2.93424E-05 4.82397E-06 7.68695E-19 1.81499E-18
 -1      3260 9.57539E-05-2.77112E-05-2.91685E-05 5.30954E-06-3.06324E-20 1.37218E-18
 -1      3261 9.58789E-05-2.77273E-05-2.92093E-05 3.76700E-06 3.55828E-20 1.93962E-18
 -1      3262 9.61068E-05-2.78083E-05-2.92645E-05 4.10660E-06 6.50797E-19 2.26598E-18
 -1      3263 9.54001E-05-2.74102E-05-2.91427E-05 4.50680E-06 3.96434E-19 3.38685E-18
 -1      3264 9.56547E-05-2.77071E-05-2.91228E-05 3.07502E-06-9.00927E-19 1.79945E-18
 -1      3265 9.58206E-05-2.77254E-05-2.91774E-05 3.39888E-06-4.47255E-19 1.52440E-18
 -1      3266 9.52220E-05-2.73328E-05-2.90977E-05 3.72995E-06 1.07339E-19 2.90302E-18
 -1      3267 9.55123E-05-2.77665E-05-2.90366E-05 2.45227E-06-1.78961E-19 5.68862E-19
 -1      3268 9.56341E-05-2.77487E-05-2.90879E-05 2.74445E-06-5.42953E-19 6.68538E-19
 -1      3269 9.51465E-05-2.73884E-05-2.90405E-05 3.01821E-06-2.89361E-19 1.27454E-18
 -1      3270 9.54209E-05-2.78646E-05-2.89553E-05 1.91284E-06-2.26122E-19-5.17110E-19
 -1      3271 9.55112E-05-2.78287E-05-2.90016E-05 2.16603E-06-2.13836E-19 8.73320E-20
 -1      3272 9.51268E-05-2.75140E-05-2.89777E-05 2.39137E-06-1.76686E-19 7.64725E-20
 -1      3273 9.53610E-05-2.79754E-05-2.88819E-05 1.45938E-06 5.84253E-19 5.92506E-19
 -1      3274 9.54283E-05-2.79327E-05-2.89221E-05 1.67203E-06-2.03567E-19-3.07299E-19
 -1      3275 9.51344E-05-2.76682E-05-2.89146E-05 1.85614E-06-5.05833E-19-7.30049E-19
 -1      3276 9.53204E-05-2.80836E-05-2.88178E-05 1.08759E-06-9.32235E-19 1.95922E-18
 -1      3277 9.53708E-05-2.80409E-05-2.88518E-05 1.26164E-06 6.95616E-19 1.68396E-18
 -1      3278 9.51527E-05-2.78252E-05-2.88550E-05 1.41063E-06-6.65556E-19 1.49988E-18
 -1      3279 9.52907E-05-2.81794E-05-2.87636E-05 7.89596E-07-7.26818E-19 9.19275E-19
 -1      3280 9.53291E-05-2.81414E-05-2.87916E-05 9.29098E-07-1.06004E-18 1.80191E-18
 -1      3281 9.51725E-05-2.79702E-05-2.88012E-05 1.04846E-06-1.27484E-18 2.76568E-18
 -1      3282 9.52687E-05-2.82595E-05-2.87186E-05 5.55829E-07-1.38922E-18-3.79250E-19
 -1      3283 9.52971E-05-2.82286E-05-2.87413E-05 6.63943E-07-8.07140E-19 4.80498E-19
 -1      3284 9.51879E-05-2.80951E-05-2.87543E-05 7.59524E-07-3.89837E-19 6.14524E-20
 -1      3285 9.52390E-05-2.82855E-05-2.86939E-05 4.32091E-07-1.25771E-18-1.54706E-18
 -1      3286 9.52649E-05-2.82777E-05-2.87072E-05 4.94698E-07-1.69789E-18-1.28612E-18
 -1      3287 9.51905E-05-2.81753E-05-2.87214E-05 5.70680E-07-3.71520E-19-1.53101E-18
 -1      3288 9.51855E-05-2.82230E-05-2.87000E-05 4.53084E-07-9.15401E-19-2.06016E-18
 -1      3289 9.52345E-05-2.82672E-05-2.86994E-05-4.33919E-07 7.68310E-20-1.90112E-18
 -1      3290 9.20838E-05-1.77913E-05-3.18548E-05 1.62469E-06 4.00520E-19-1.51506E-18
 -1      3291 9.19423E-05-1.75682E-05-3.18876E-05 9.35849E-07 2.18077E-19-1.56126E-18
 -1      3292 9.48620E-05-2.78462E-05-2.87206E-05-3.69073E-07 1.04359E-18-2.31559E-18
 -1      3293 9.48091E-05-2.77975E-05-2.87214E-05-3.06384E-07-2.24325E-19-2.16282E-19
 -1      3294 9.47113E-05-2.76681E-05-2.87305E-05-3.00167E-07-9.55337E-19-1.28122E-19
 -1      3295 9.47232E-05-2.77119E-05-2.87202E-05-3.71448E-08-1.13508E-18-2.22195E-18
 -1      3296 9.47245E-05-2.77138E-05-2.87197E-05 4.83748E-08-3.87807E-19-1.47071E-18
 -1      3297 9.46450E-05-2.76059E-05-2.87286E-05-9.82257E-08-1.73001E-18-1.52518E-18
 -1      3298 9.50012E-05-2.79882E-05-2.87184E-05-4.66030E-07 1.64688E-18-2.13183E-18
 -1      3299 9.49318E-05-2.79222E-05-2.87207E-05-4.31596E-07 1.77651E-18-4.11825E-18
 -1      3300 9.48385E-05-2.77922E-05-2.87322E-05-4.60148E-07 1.49968E-18-2.02916E-18
 -1      3301 4.88028E-05-1.66531E-05-1.35984E-05 1.86241E-05 8.49468E-19-1.74605E-18
 -1      3302 4.26579E-05-1.23531E-05-1.24091E-05 7.06671E-06-3.95856E-20-2.87292E-18
 -1      3303 9.60366E-05-2.80244E-05-2.91408E-05-5.00494E-06 2.08352E-19 5.06253E-19
 -1      3304 9.58013E-05-2.79367E-05-2.90860E-05-4.72208E-06 1.54072E-19 3.62107E-19
 -1      3305 9.54327E-05-2.76508E-05-2.90535E-05-4.68852E-06-1.09386E-19 7.16780E-20
 -1      3306 9.55458E-05-2.77245E-05-2.90715E-05-5.36008E-06 1.58057E-19 3.49874E-19
 -1      3307 9.53420E-05-4.17677E-05-2.29763E-05 2.71236E-05-1.12438E-18-1.42830E-18
 -1      3308 8.45548E-05-3.55504E-05-2.05216E-05 2.98996E-05-1.58729E-18-1.16459E-18
 -1      3309 9.25848E-05-1.80545E-05-3.19599E-05-6.50217E-06-8.94098E-19-1.37530E-18
 -1      3310 9.32299E-05-1.90878E-05-3.18111E-05-7.00738E-06-9.96830E-19-1.25113E-18
 -1      3311 9.41367E-05-2.10636E-05-3.13051E-05-5.65777E-06-8.71582E-19-1.07497E-18
 -1      3312 9.32524E-05-1.93584E-05-3.16445E-05-5.21844E-06-7.70747E-19-1.21373E-18
 -1      3313 9.55024E-05-2.74557E-05-2.91631E-05-1.72497E-06 3.41266E-19-6.85227E-19
 -1      3314 9.55089E-05-2.72433E-05-2.92456E-05-1.22946E-06 5.08921E-19-6.13333E-19
 -1      3315 1.34231E-04-4.55669E-05-3.80614E-05 1.31241E-05-6.86785E-19-4.06343E-18
 -1      3316 1.37401E-04-5.22740E-05-3.68656E-05 7.22277E-06-2.24146E-19-3.65352E-18
 -1      3317 4.11580E-05-1.20808E-05-1.18893E-05-6.32218E-06-3.13429E-19 1.61995E-18
 -1      3318 4.66603E-05-1.56794E-05-1.30964E-05-1.69341E-05 3.68380E-19 8.20563E-19
 -1      3319 1.14180E-04-5.12929E-05-2.66391E-05 1.92814E-05 1.77750E-18 1.58303E-19
 -1      3320 9.54886E-05-2.51973E-05-3.01043E-05-1.47232E-06-6.45806E-19-9.60081E-19
 -1      3321 9.55180E-05-2.58354E-05-2.98763E-05-5.60037E-07-5.82867E-19-1.00642E-18
 -1      3322 9.55442E-05-2.55962E-05-2.99780E-05-3.22348E-07-5.66071E-19-1.03694E-18
 -1      3323 1.16339E-04-1.65846E-05-4.32350E-05-9.02366E-06 1.79359E-19 1.26544E-18
 -1      3324 1.20611E-04-2.22378E-05-4.24215E-05-1.28897E-05 1.63583E-19 8.04681E-19
 -1      3325 5.71279E-05-2.08213E-05-1.49713E-05-2.37670E-05 4.68727E-19 2.09852E-19
 -1      3326 6.96999E-05-2.87957E-05-1.75230E-05-2.90014E-05 5.38819E-19 4.15787E-19
 -1      3327 1.26917E-04-5.32068E-05-3.15893E-05-5.23326E-06-7.16537E-20 3.72218E-19
 -1      3328 1.29380E-04-4.90827E-05-3.48086E-05 3.06533E-06 7.41855E-19 1.06414E-18
 -1      3329 7.12073E-05-2.87251E-05-1.82896E-05 2.93108E-05-1.16329E-18-1.37066E-18
 -1      3330 5.86783E-05-2.05234E-05-1.56478E-05 2.49101E-05-8.89649E-19-2.40822E-18
 -1      3331 7.37884E-05-3.31517E-05-1.73787E-05 3.23955E-05 1.52895E-18-1.64314E-18
 -1      3332 6.04763E-05-2.39941E-05-1.51551E-05 2.68185E-05 1.55579E-18-1.92509E-18
 -1      3333 8.33391E-05-3.55703E-05-2.02280E-05 2.89683E-05 1.31949E-18-1.48067E-18
 -1      3334 1.08890E-04-5.10453E-05-2.43771E-05-2.54922E-05 2.07666E-18 9.34436E-19
 -1      3335 1.19693E-04-5.51469E-05-2.77617E-05-1.76907E-05 1.47590E-18-9.17151E-19
 -1      3336 8.32425E-05-3.59179E-05-1.97418E-05-3.02126E-05 4.52951E-19 2.46592E-19
 -1      3337 9.66060E-05-4.46192E-05-2.22584E-05-2.92958E-05 1.70952E-18 1.14995E-18
 -1      3338 1.00010E-04-4.35235E-05-2.40830E-05-2.46572E-05 1.11515E-18 3.52366E-19
 -1      3339 1.23908E-04-2.84085E-05-4.14359E-05-1.32594E-05-4.55121E-19 6.16958E-19
 -1      3340 1.27462E-04-3.57549E-05-3.94324E-05-1.21658E-05-6.80220E-19-1.93335E-19
 -1      3341 1.18769E-04-2.56212E-05-3.99713E-05-1.29295E-05-3.33519E-19 1.87059E-18
 -1      3342 9.52524E-05-2.40944E-05-3.04993E-05 3.82311E-06 9.93287E-19-5.63502E-19
 -1      3343 9.46531E-05-2.25096E-05-3.09039E-05 4.34734E-06 1.08589E-18-5.20649E-19
 -1      3344 9.49419E-05-2.33114E-05-3.06794E-05 3.19676E-06 9.46917E-19-4.97505E-19
 -1      3345 9.53062E-05-2.49943E-05-3.01451E-05 2.46814E-06 9.58505E-19-5.78051E-19
 -1      3346 1.14858E-04-5.54197E-05-2.50931E-05-2.67055E-05-1.06525E-18-5.62615E-19
 -1      3347 1.22480E-04-5.60755E-05-2.86198E-05-1.65975E-05-4.78759E-19-5.36304E-19
 -1      3348 1.07923E-04-5.19627E-05-2.37425E-05-2.85746E-05-9.66570E-19-3.92342E-19
 -1      3349 9.55070E-05-2.69532E-05-2.93842E-05-6.62926E-07 6.79219E-19-6.13722E-19
 -1      3350 9.55367E-05-2.65895E-05-2.95344E-05 2.70729E-08 7.39009E-19-5.22350E-19
 -1      3351 9.56341E-05-2.67753E-05-2.95165E-05-8.25456E-07 5.90987E-19-4.71894E-19
 -1      3352 9.18687E-05-1.74521E-05-3.19065E-05 3.68749E-07 1.26376E-19-1.46571E-18
 -1      3353 9.18653E-05-1.74462E-05-3.19074E-05-3.29232E-07-2.14625E-20-1.42696E-18
 -1      3354 9.27567E-05-1.89443E-05-3.16145E-05 5.34586E-07 8.69949E-20-1.38942E-18
 -1      3355 9.22687E-05-1.80840E-05-3.18059E-05-2.12240E-06-3.10934E-19-1.58426E-18
 -1      3356 9.25393E-05-1.85234E-05-3.17392E-05-2.77516E-06-4.04815E-19-1.47570E-18
 -1      3357 1.14905E-04-1.74156E-05-4.20836E-05 8.17751E-06 1.46293E-18 1.94447E-18
 -1      3358 9.33171E-05-1.98498E-05-3.15097E-05 3.85037E-06 9.23547E-19-7.71308E-19
 -1      3359 9.29079E-05-1.91379E-05-3.16263E-05 3.28959E-06 7.27453E-19-8.60959E-19
 -1      3360 9.42188E-05-2.15887E-05-3.11047E-05 3.17237E-06 9.23973E-19-6.17519E-19
 -1      3361 5.62050E-05-1.75591E-05-1.61805E-05 1.86064E-05-7.46342E-19-2.62596E-18
 -1      3362 9.28709E-05-1.90720E-05-3.16397E-05-3.25474E-06-4.45407E-19-1.39029E-18
 -1      3363 9.32768E-05-1.97523E-05-3.15281E-05-3.82576E-06-5.46521E-19-1.32809E-18
 -1      3364 9.35018E-05-2.02168E-05-3.13875E-05-2.43104E-06-4.65543E-19-1.41834E-18
 -1      3365 9.55024E-05-2.77222E-05-2.90459E-05-2.53414E-06 5.00243E-20-5.06230E-19
 -1      3366 9.54688E-05-2.76024E-05-2.90791E-05-2.15566E-06 2.95676E-19-5.94313E-19
 -1      3367 9.56098E-05-2.72982E-05-2.92817E-05-1.86833E-06 2.43866E-19-4.58556E-19
 -1      3368 1.28732E-04-5.70375E-05-3.05966E-05-8.67483E-06 1.05211E-18-2.68721E-18
 -1      3369 4.66934E-05-1.27478E-05-1.41218E-05 4.84198E-07-7.97905E-19-2.16248E-18
 -1      3370 9.49409E-05-2.79436E-05-2.87153E-05 4.28585E-07 1.44734E-19-2.83562E-18
 -1      3371 9.50080E-05-2.80100E-05-2.87127E-05 4.60268E-07 2.38969E-20-1.25205E-19
 -1      3372 9.46494E-05-2.76136E-05-2.87273E-05 1.16123E-07-2.36818E-19-2.23938E-18
 -1      3373 9.47425E-05-2.77350E-05-2.87192E-05 1.49126E-07 5.21030E-19-1.12900E-18
 -1      3374 9.47721E-05-2.77630E-05-2.87182E-05 2.27469E-07 7.33744E-19-1.19796E-18
 -1      3375 1.20408E-04-5.33057E-05-2.87612E-05-1.28687E-05-4.45883E-19-1.22328E-19
 -1      3376 1.25312E-04-5.45951E-05-3.03257E-05-9.01458E-06-1.36677E-19-1.27240E-19
 -1      3377 1.24272E-04-5.07183E-05-3.15840E-05-1.89313E-06 1.92449E-19 9.76775E-19
 -1      3378 7.79613E-05-2.97107E-05-2.06028E-05 2.58033E-05-8.76017E-19-1.46566E-18
 -1      3379 9.54693E-05-2.76473E-05-2.90707E-05-3.38659E-06-1.55982E-19-2.20211E-19
 -1      3380 9.55359E-05-2.78455E-05-2.90054E-05-3.20220E-06-2.80696E-19-1.71680E-19
 -1      3381 9.54600E-05-2.77802E-05-2.90027E-05-2.88575E-06-2.19603E-19-4.20155E-19
 -1      3382 1.10502E-04-2.88190E-05-3.49759E-05 1.14762E-05 1.47374E-18 9.84749E-19
 -1      3383 1.12199E-04-3.27267E-05-3.42152E-05 1.18769E-05 1.30986E-18 1.10298E-18
 -1      3384 1.07800E-04-2.36555E-05-3.62511E-05-9.23707E-06-4.47948E-19 1.36709E-18
 -1      3385 1.06178E-04-2.06296E-05-3.66512E-05-6.26540E-06 8.49786E-19 1.50960E-18
 -1      3386 7.82119E-05-3.03390E-05-2.02402E-05-2.61236E-05 1.32958E-19 5.84797E-19
 -1      3387 9.48187E-05-2.78157E-05-2.87178E-05 3.11868E-07 1.27778E-18-1.63424E-18
 -1      3388 9.48718E-05-2.78658E-05-2.87161E-05 3.71619E-07 1.29763E-18-2.68200E-18
 -1      3389 9.48520E-05-2.78207E-05-2.87263E-05 4.62543E-07-3.85793E-21-2.12040E-18
 -1      3390 9.47225E-05-2.76888E-05-2.87267E-05 3.11676E-07 8.01329E-19-1.50887E-18
 -1      3391 9.22954E-05-1.81282E-05-3.17982E-05 2.16471E-06 5.47395E-19-1.38921E-18
 -1      3392 9.30241E-05-1.93932E-05-3.15373E-05 1.54372E-06 4.32420E-19-1.32705E-18
 -1      3393 9.25711E-05-1.85781E-05-3.17291E-05 2.81807E-06 6.74165E-19-1.12843E-18
 -1      3394 9.51025E-05-2.80963E-05-2.87184E-05-5.04591E-07 6.51699E-19-1.52823E-18
 -1      3395 9.50213E-05-2.79791E-05-2.87335E-05-5.68313E-07 1.05941E-18-3.06146E-18
 -1      3396 9.51626E-05-2.81625E-05-2.87136E-05-4.99145E-07 7.06105E-19-2.74970E-18
 -1      3397 5.98746E-05-2.04613E-05-1.64891E-05 2.07312E-05 9.12043E-19-1.49824E-18
 -1      3398 1.10433E-04-1.61354E-05-4.06354E-05-4.47440E-06 5.90911E-19 1.76305E-18
 -1      3399 1.11815E-04-2.50730E-05-3.71811E-05-1.15998E-05-5.89376E-19 2.12445E-18
 -1      3400 1.12419E-04-2.68298E-05-3.67636E-05 1.16881E-05 1.48343E-18 1.15780E-18
 -1      3401 1.34218E-04-5.70912E-05-3.30669E-05-3.16073E-06 6.13437E-20-3.08241E-18
 -1      3402 1.16611E-04-5.27347E-05-2.74363E-05 1.73366E-05-1.40385E-18-1.32335E-18
 -1      3403 1.07908E-04-4.86224E-05-2.54064E-05 2.20937E-05-1.13284E-18-1.42491E-18
 -1      3404 9.54608E-05-2.61989E-05-2.96888E-05 6.65728E-07 8.04487E-19-5.87308E-19
 -1      3405 9.54869E-05-2.56295E-05-2.99247E-05 1.64133E-06 8.69921E-19-5.91877E-19
 -1      3406 9.53636E-05-2.49318E-05-3.02025E-05 1.99992E-06 8.69222E-19-4.78505E-19
 -1      3407 9.55599E-05-2.59861E-05-2.98246E-05 4.42989E-07 8.07117E-19-4.24343E-19
 -1      3408 9.41633E-05-2.13929E-05-3.11973E-05-4.59653E-06-7.42743E-19-1.05984E-18
 -1      3409 9.46371E-05-2.23149E-05-3.10011E-05-4.69448E-06-7.67647E-19-1.04887E-18
 -1      3410 9.49399E-05-2.32701E-05-3.06973E-05-3.65323E-06-6.26069E-19-9.73196E-19
 -1      3411 5.71560E-05-1.79537E-05-1.64321E-05-1.78047E-05 5.77253E-19 4.95514E-19
 -1      3412 7.70794E-05-3.72538E-05-1.65734E-05-3.66836E-05-1.79063E-18-5.03985E-19
 -1      3413 8.87721E-05-4.25977E-05-1.98895E-05-3.42740E-05-1.55690E-18-5.31831E-19
 -1      3414 7.30890E-05-3.22910E-05-1.71727E-05-3.32609E-05-2.13225E-18-7.06849E-19
 -1      3415 4.61945E-05-1.23853E-05-1.40361E-05 2.59493E-08-1.38691E-18-7.19766E-19
 -1      3416 1.03578E-04-4.67723E-05-2.43683E-05 2.53766E-05 1.90945E-18-6.87976E-19
 -1      3417 5.04582E-05-1.82584E-05-1.31928E-05-2.30818E-05-2.21102E-18-1.98905E-18
 -1      3418 5.76771E-05-2.23255E-05-1.49077E-05-2.67011E-05-2.15909E-18-1.32201E-18
 -1      3419 4.98940E-05-1.55585E-05-1.44185E-05-1.66706E-05-2.13304E-18-2.32151E-18
 -1      3420 1.15797E-04-3.59308E-05-3.42267E-05 1.13982E-05 7.53767E-19 7.38613E-19
 -1      3421 1.29611E-04-4.38746E-05-3.72015E-05-7.94752E-06-1.20247E-18-8.55424E-19
 -1      3422 1.29470E-04-4.94658E-05-3.43328E-05-2.13730E-06-1.53469E-18-1.11745E-18
 -1      3423 1.02031E-04-4.43776E-05-2.45754E-05 2.35760E-05-5.86411E-19-1.61643E-18
 -1      3424 9.46136E-05-3.84824E-05-2.41106E-05 2.28875E-05-5.73269E-20-1.26621E-18
 -1      3425 1.06459E-04-4.49767E-05-2.62846E-05 1.79524E-05 2.00237E-19-5.93231E-19
 -1      3426 1.13074E-04-1.66185E-05-4.17512E-05-7.71561E-06-6.34216E-20 1.62534E-18
 -1      3427 9.51130E-05-2.40815E-05-3.04535E-05-2.75494E-06-6.29296E-19-9.99656E-19
 -1      3428 1.26123E-04-4.46300E-05-3.49483E-05 7.17286E-06 7.50518E-19 1.16049E-18
 -1      3429 1.25049E-04-3.83494E-05-3.71166E-05-1.13366E-05-1.03327E-18 6.21246E-19
 -1      3430 9.50784E-05-2.38478E-05-3.05297E-05-2.31517E-06-5.94892E-19-9.94245E-19
 -1      3431 9.20654E-05-1.77603E-05-3.18602E-05-1.58183E-06-2.27448E-19-1.46924E-18
 -1      3432 9.30037E-05-1.93523E-05-3.15444E-05-1.51895E-06-2.34922E-19-1.42499E-18
 -1      3433 9.19312E-05-1.75496E-05-3.18908E-05-8.95441E-07-2.54714E-20-1.39513E-18
 -1      3434 9.55787E-05-2.66386E-05-2.95425E-05 1.58990E-06-4.02028E-19-6.69040E-19
 -1      3435 9.54951E-05-2.67978E-05-2.94439E-05 2.05281E-06-2.30346E-19-4.10252E-19
 -1      3436 9.53261E-05-2.68568E-05-2.93439E-05 2.42657E-06-3.15367E-19-4.19811E-19
 -1      3437 9.51880E-05-2.68610E-05-2.92827E-05 2.82398E-06-4.94226E-20-5.24546E-19
 -1      3438 9.53355E-05-2.65430E-05-2.94801E-05 2.03910E-06-1.52297E-19-3.23479E-19
 -1      3439 9.49206E-05-2.67685E-05-2.92111E-05 3.16147E-06-1.20315E-19-5.50454E-19
 -1      3440 9.47342E-05-2.66531E-05-2.91757E-05 3.53645E-06-1.37642E-19-6.44613E-19
 -1      3441 9.49058E-05-2.65352E-05-2.92985E-05 2.75337E-06-1.98771E-19-4.08059E-19
 -1      3442 9.43740E-05-2.64404E-05-2.91206E-05 3.87040E-06 5.78089E-20-8.74148E-19
 -1      3443 9.41373E-05-2.62318E-05-2.90995E-05 4.25744E-06 4.28906E-20-6.74431E-19
 -1      3444 9.42877E-05-2.62350E-05-2.91605E-05 3.41847E-06-8.69841E-20-6.57037E-19
 -1      3445 9.36803E-05-2.59238E-05-2.90479E-05 4.61500E-06 5.79105E-20-8.08236E-19
 -1      3446 9.33876E-05-2.56461E-05-2.90286E-05 5.04051E-06 4.03912E-21-8.17627E-19
 -1      3447 9.34821E-05-2.57025E-05-2.90410E-05 4.09125E-06 4.60241E-20-9.54111E-19
 -1      3448 9.28241E-05-2.52672E-05-2.89656E-05 5.44418E-06-3.17835E-19-8.18827E-19
 -1      3449 9.24709E-05-2.49493E-05-2.89337E-05 5.92862E-06-4.87191E-19-8.10200E-19
 -1      3450 9.24755E-05-2.49901E-05-2.89117E-05 4.81827E-06-2.77974E-19-1.18416E-18
 -1      3451 9.17890E-05-2.45307E-05-2.88413E-05 6.40034E-06-3.91090E-19-7.36721E-19
 -1      3452 9.13792E-05-2.42153E-05-2.87790E-05 6.96201E-06-1.04030E-19-6.60689E-19
 -1      3453 9.12454E-05-2.41548E-05-2.87388E-05 5.64074E-06-3.31087E-19-1.26036E-18
 -1      3454 9.05701E-05-2.38046E-05-2.86344E-05 7.53019E-06-1.98808E-19-1.00368E-18
 -1      3455 9.01289E-05-2.35608E-05-2.85203E-05 8.19173E-06-4.92925E-19-1.18416E-18
 -1      3456 8.97696E-05-2.32721E-05-2.84803E-05 6.60609E-06-3.97030E-19-7.30864E-19
 -1      3457 8.91948E-05-2.32343E-05-2.82948E-05 8.90456E-06-4.63843E-19-1.26241E-18
 -1      3458 8.87903E-05-2.31774E-05-2.81033E-05 9.70387E-06-3.51827E-19-1.26823E-18
 -1      3459 8.80370E-05-2.24555E-05-2.80834E-05 7.78906E-06-4.33703E-19-1.15555E-18
 -1      3460 8.77600E-05-2.30598E-05-2.77609E-05 1.06494E-05-2.72904E-19-1.19357E-18
 -1      3461 8.75423E-05-2.33794E-05-2.74659E-05 1.16515E-05-2.11296E-19-1.27800E-18
 -1      3462 8.60688E-05-2.18856E-05-2.74805E-05 9.32926E-06-4.01247E-19-7.35859E-19
 -1      3463 8.65003E-05-2.36701E-05-2.69635E-05 1.29891E-05-1.93540E-19-8.94221E-19
 -1      3464 8.67613E-05-2.46831E-05-2.65471E-05 1.42980E-05-2.59322E-19-5.67480E-19
 -1      3465 8.39510E-05-2.18503E-05-2.65867E-05 1.14858E-05 1.85981E-19-8.03602E-19
 -1      3466 8.59172E-05-2.56599E-05-2.58382E-05 1.62327E-05-2.26530E-19-1.58250E-19
 -1      3467 8.71622E-05-2.78743E-05-2.53053E-05 1.80061E-05 5.44980E-20-2.04051E-19
 -1      3468 8.19553E-05-2.28880E-05-2.52970E-05 1.46956E-05 7.41224E-20-5.79235E-19
 -1      3469 5.17301E-05-1.30136E-05-1.64164E-05 4.64393E-06-1.72742E-19-1.76532E-18
 -1      3470 4.98507E-05-1.26737E-05-1.55795E-05-6.09683E-06-1.09436E-18-1.89772E-18
 -1      3471 9.50704E-05-2.80863E-05-2.87092E-05 4.67413E-07 5.61200E-19 2.40314E-19
 -1      3472 9.51298E-05-2.81511E-05-2.87050E-05 4.66667E-07-9.51378E-20-5.28498E-19
 -1      3473 9.51282E-05-2.81259E-05-2.87149E-05 5.21654E-07-2.94547E-19-5.82422E-19
 -1      3474 9.49958E-05-2.79756E-05-2.87227E-05 5.27969E-07-3.94556E-19-7.23043E-19
 -1      3475 9.47974E-05-2.77297E-05-2.87448E-05-5.64367E-07 5.96002E-19-2.72371E-18
 -1      3476 9.47131E-05-2.76516E-05-2.87438E-05-5.02154E-07 3.40655E-19-1.55366E-18
 -1      3477 9.12867E-05-3.31666E-05-2.47921E-05-2.07925E-05 8.21840E-19-6.64868E-19
 -1      3478 8.85949E-05-2.95005E-05-2.52827E-05-1.90776E-05 3.70123E-19-1.99423E-19
 -1      3479 8.85577E-05-2.74652E-05-2.60838E-05-1.65716E-05 3.15220E-19-8.11889E-19
 -1      3480 8.73981E-05-2.55509E-05-2.65311E-05-1.51228E-05-3.80135E-19-5.67632E-19
 -1      3481 8.29241E-05-2.56224E-05-2.44839E-05-1.81813E-05 7.55514E-20-8.53055E-19
 -1      3482 8.80148E-05-2.45827E-05-2.71323E-05-1.33483E-05-1.47804E-18-2.26070E-19
 -1      3483 8.77420E-05-2.36914E-05-2.74808E-05-1.21496E-05-2.06452E-18-1.06299E-18
 -1      3484 8.36885E-05-2.29563E-05-2.60105E-05-1.38474E-05-4.93562E-19-1.83882E-18
 -1      3485 8.85917E-05-2.34243E-05-2.79024E-05-1.08913E-05-1.79264E-18-6.72822E-19
 -1      3486 8.87437E-05-2.31448E-05-2.81410E-05-9.91423E-06-1.39034E-18-9.97490E-19
 -1      3487 8.52842E-05-2.19982E-05-2.71010E-05-1.08660E-05-2.01365E-18 1.34467E-19
 -1      3488 8.96009E-05-2.32510E-05-2.84218E-05-8.97274E-06-1.78713E-18-1.38006E-18
 -1      3489 8.99129E-05-2.33060E-05-2.85682E-05-8.15421E-06-9.74056E-19-1.90948E-18
 -1      3490 8.70272E-05-2.19972E-05-2.78475E-05-8.77028E-06-1.76560E-18 4.55588E-19
 -1      3491 9.06882E-05-2.35991E-05-2.87448E-05-7.40778E-06-6.12294E-19-2.51379E-18
 -1      3492 9.10279E-05-2.38186E-05-2.88222E-05-6.70511E-06-9.36482E-19-2.59087E-18
 -1      3493 8.86637E-05-2.24969E-05-2.83367E-05-7.18503E-06-1.63025E-18-6.47339E-19
 -1      3494 9.16887E-05-2.41861E-05-2.89247E-05-6.08747E-06-1.69762E-19-3.14523E-18
 -1      3495 9.19966E-05-2.44704E-05-2.89547E-05-5.47854E-06 4.27092E-19-2.21151E-18
 -1      3496 9.00916E-05-2.32254E-05-2.86397E-05-5.90850E-06-9.52470E-19-1.39338E-18
 -1      3497 9.25390E-05-2.48478E-05-2.90066E-05-4.95598E-06 1.73886E-19-2.04516E-18
 -1      3498 9.27941E-05-2.51415E-05-2.90062E-05-4.43009E-06 1.10760E-19-1.78937E-18
 -1      3499 9.12830E-05-2.40219E-05-2.88123E-05-4.83730E-06 2.53580E-19-2.09385E-18
 -1      3500 9.32276E-05-2.54944E-05-2.90250E-05-3.98583E-06 2.23514E-19-1.66448E-18
 -1      3501 9.34280E-05-2.57689E-05-2.90067E-05-3.53668E-06 5.82263E-20-1.44054E-18
 -1      3502 9.22473E-05-2.47960E-05-2.88970E-05-3.92233E-06 4.08374E-19-2.29541E-18
 -1      3503 9.37673E-05-2.60813E-05-2.90050E-05-3.16122E-06 1.00390E-18-1.36771E-18
 -1      3504 9.39193E-05-2.63238E-05-2.89776E-05-2.78325E-06 1.67930E-18-1.28509E-18
 -1      3505 9.30103E-05-2.55007E-05-2.89246E-05-3.14022E-06 5.28578E-19-9.59088E-19
 -1      3506 9.41804E-05-2.65904E-05-2.89640E-05-2.46970E-06 9.38683E-19-1.25471E-18
 -1      3507 9.42925E-05-2.67968E-05-2.89332E-05-2.15673E-06 2.10237E-18-1.62366E-18
 -1      3508 9.36030E-05-2.61158E-05-2.89171E-05-2.47768E-06 1.32635E-18-2.71675E-19
 -1      3509 9.44905E-05-2.70184E-05-2.89137E-05-1.89872E-06 3.09104E-18-2.93122E-18
 -1      3510 9.45713E-05-2.71894E-05-2.88830E-05-1.64375E-06 2.58115E-18-2.16927E-18
 -1      3511 9.40562E-05-2.66367E-05-2.88897E-05-1.92424E-06 1.80995E-18-1.70118E-18
 -1      3512 9.47188E-05-2.73693E-05-2.88615E-05-1.43458E-06 2.16860E-18-2.93915E-18
 -1      3513 9.47761E-05-2.75080E-05-2.88330E-05-1.23004E-06 1.81525E-18-2.57866E-18
 -1      3514 9.43975E-05-2.70673E-05-2.88526E-05-1.46923E-06 2.02337E-18-4.06105E-18
 -1      3515 9.48840E-05-2.76511E-05-2.88117E-05-1.06259E-06 1.36959E-18-2.35293E-18
 -1      3516 9.49195E-05-2.77599E-05-2.87859E-05-8.98234E-07 1.59421E-19-2.97571E-18
 -1      3517 9.46489E-05-2.74150E-05-2.88125E-05-1.10114E-06 1.83257E-18-3.63570E-18
 -1      3518 9.49928E-05-2.78977E-05-2.87544E-05-6.86688E-07 5.99200E-19-2.94021E-18
 -1      3519 9.56125E-05-2.81798E-05-2.88886E-05-7.05667E-06-3.76044E-19 8.22283E-19
 -1      3520 9.52361E-05-2.77923E-05-2.89025E-05-6.73144E-06-1.03635E-19 6.06898E-19
 -1      3521 9.51624E-05-2.75825E-05-2.89531E-05-6.28294E-06-1.70762E-19 5.93629E-19
 -1      3522 9.49600E-05-2.73964E-05-2.89573E-05-5.93174E-06-7.75107E-20 3.97734E-19
 -1      3523 9.43030E-05-2.72043E-05-2.87651E-05-6.63577E-06-2.03075E-19 6.77785E-19
 -1      3524 9.81999E-05-3.11914E-05-2.87066E-05-8.25119E-06-9.02270E-19 1.28700E-19
 -1      3525 9.72001E-05-3.01295E-05-2.87257E-05-8.17229E-06-6.46658E-19 1.01941E-19
 -1      3526 1.00835E-04-3.39493E-05-2.86591E-05-8.27812E-06-6.67229E-19 5.12910E-19
 -1      3527 9.93757E-05-3.24541E-05-2.86452E-05-8.50781E-06-8.74544E-19 3.40197E-19
 -1      3528 9.73235E-05-3.14151E-05-2.82901E-05-9.39871E-06-1.04561E-18 2.43497E-20
 -1      3529 1.04655E-04-3.75502E-05-2.87668E-05-7.42342E-06-6.83691E-19 6.65625E-19
 -1      3530 1.02716E-04-3.57016E-05-2.86620E-05-8.16837E-06-6.86485E-19 6.59700E-19
 -1      3531 1.00310E-04-3.46757E-05-2.81922E-05-9.81728E-06-9.02067E-19 3.18584E-19
 -1      3532 1.09616E-04-4.14772E-05-2.92226E-05-5.07075E-06-3.81889E-19 9.02306E-19
 -1      3533 1.07352E-04-3.96502E-05-2.89302E-05-6.59460E-06-4.63135E-19 7.36274E-19
 -1      3534 1.04840E-04-3.89596E-05-2.83153E-05-9.28254E-06-7.43884E-19 2.01150E-19
 -1      3535 1.15260E-04-4.43487E-05-3.03599E-05-4.59252E-07-4.22921E-20 7.97750E-19
 -1      3536 1.13006E-04-4.34535E-05-2.97097E-05-3.14900E-06-2.37804E-19 1.07262E-18
 -1      3537 1.10850E-04-4.35485E-05-2.89298E-05-6.94294E-06-2.59670E-19 6.47199E-19
 -1      3538 1.20399E-04-4.56163E-05-3.20618E-05 3.14867E-06 3.25876E-19 1.33799E-18
 -1      3539 1.18856E-04-4.67253E-05-3.09000E-05-1.02109E-07 1.90119E-20 1.24597E-18
 -1      3540 1.26207E-04-4.90798E-05-3.30353E-05-1.71154E-06-1.81110E-18-9.10613E-19
 -1      3541 1.27990E-04-5.34164E-05-3.21919E-05 4.02004E-06-1.65081E-18-1.98926E-18
 -1      3542 1.22707E-04-5.35846E-05-2.95861E-05 1.04583E-05-2.09729E-18-1.36764E-18
 -1      3543 1.10851E-04-1.69105E-05-4.05303E-05 6.43613E-06 1.56987E-18 1.73390E-18
 -1      3544 1.13598E-04-2.24019E-05-3.92003E-05 1.17652E-05 1.48315E-18 1.63448E-18
 -1      3545 1.15833E-04-2.82567E-05-3.78239E-05 1.27503E-05 1.25189E-18 1.20263E-18
 -1      3546 1.07980E-04-4.00244E-05-2.90355E-05 6.01146E-06-2.46728E-19 1.63829E-18
 -1      3547 1.10246E-04-4.17949E-05-2.93576E-05 4.42991E-06-3.19735E-19 2.24281E-18
 -1      3548 1.03169E-04-3.60121E-05-2.87249E-05 7.76436E-06 1.04690E-18 8.14403E-19
 -1      3549 1.05191E-04-3.79109E-05-2.88428E-05 6.95024E-06 6.01048E-19 1.37315E-18
 -1      3550 1.05458E-04-3.93904E-05-2.83924E-05 8.92106E-06 6.41452E-19-2.84550E-22
 -1      3551 9.96364E-05-3.25921E-05-2.86954E-05 8.12591E-06 1.70586E-18 9.41576E-20
 -1      3552 1.01171E-04-3.41584E-05-2.87122E-05 7.88584E-06 1.33122E-18 5.26205E-19
 -1      3553 1.00650E-04-3.49053E-05-2.82365E-05 9.50437E-06 1.70544E-18 1.36733E-20
 -1      3554 9.72912E-05-3.01037E-05-2.87734E-05 7.76489E-06 3.87279E-19-2.99980E-19
 -1      3555 9.83561E-05-3.12419E-05-2.87528E-05 7.86275E-06 1.48045E-18-1.46686E-19
 -1      3556 9.74557E-05-3.14767E-05-2.83185E-05 9.09099E-06 1.77487E-18-3.60701E-19
 -1      3557 9.58560E-05-2.84633E-05-2.88727E-05 7.03065E-06-4.16964E-19 2.38240E-20
 -1      3558 9.65468E-05-2.92095E-05-2.88475E-05 7.31657E-06-4.14805E-19-1.11235E-19
 -1      3559 9.54893E-05-2.90938E-05-2.84819E-05 8.20171E-06 8.54329E-20 5.30294E-19
 -1      3560 9.50585E-05-2.74977E-05-2.89519E-05 6.14116E-06-6.21190E-20 7.50772E-20
 -1      3561 9.54793E-05-2.79360E-05-2.89370E-05 6.51946E-06 2.80423E-19-4.74873E-19
 -1      3562 9.44136E-05-2.76091E-05-2.86464E-05 7.14046E-06-2.77882E-19 4.71156E-19
 -1      3563 9.46755E-05-2.70180E-05-2.89974E-05 5.22189E-06-9.36721E-19 1.03187E-18
 -1      3564 9.49157E-05-2.72367E-05-2.89966E-05 5.63161E-06-9.40828E-19 3.28039E-19
 -1      3565 9.39243E-05-2.67995E-05-2.87759E-05 6.06598E-06-1.07189E-18 1.02409E-18
 -1      3566 9.45433E-05-2.68615E-05-2.90099E-05 4.34190E-06-3.84978E-20 1.75571E-18
 -1      3567 9.46696E-05-2.69349E-05-2.90218E-05 4.74553E-06-4.19684E-19 1.66190E-18
 -1      3568 9.37937E-05-2.64591E-05-2.88611E-05 5.05513E-06-9.85557E-19 1.15527E-18
 -1      3569 9.45519E-05-2.69043E-05-2.89961E-05 3.53840E-06-2.68285E-19 1.62802E-18
 -1      3570 9.46101E-05-2.68884E-05-2.90173E-05 3.91368E-06 4.31802E-19 2.06301E-18
 -1      3571 9.38646E-05-2.64201E-05-2.89055E-05 4.14101E-06 1.03526E-19 1.00312E-18
 -1      3572 9.46303E-05-2.70576E-05-2.89642E-05 2.82945E-06-9.00982E-20 2.45561E-19
 -1      3573 9.46503E-05-2.69923E-05-2.89909E-05 3.16439E-06 1.02758E-20 1.05203E-18
 -1      3574 9.40348E-05-2.65594E-05-2.89174E-05 3.33706E-06 7.62458E-20 8.79465E-19
 -1      3575 9.47356E-05-2.72616E-05-2.89216E-05 2.22096E-06 1.66054E-20 8.24073E-19
 -1      3576 9.47359E-05-2.71737E-05-2.89507E-05 2.51047E-06-4.40495E-20 3.98852E-19
 -1      3577 9.42412E-05-2.67911E-05-2.89060E-05 2.64566E-06 2.99107E-19-8.88268E-20
 -1      3578 9.48430E-05-2.74778E-05-2.88745E-05 1.71090E-06-1.80470E-18 6.74153E-19
 -1      3579 9.48348E-05-2.73844E-05-2.89034E-05 1.95463E-06-5.69483E-19 2.51368E-19
 -1      3580 9.44468E-05-2.70579E-05-2.88796E-05 2.06301E-06 5.47778E-21 1.63609E-18
 -1      3581 9.49396E-05-2.76832E-05-2.88273E-05 1.29221E-06-1.08140E-18 1.16303E-18
 -1      3582 9.49291E-05-2.75945E-05-2.88544E-05 1.49264E-06-1.67567E-18 6.77449E-19
 -1      3583 9.46321E-05-2.73241E-05-2.88451E-05 1.58088E-06-1.90947E-18-8.02765E-20
 -1      3584 9.50201E-05-2.78670E-05-2.87829E-05 9.56902E-07-5.29350E-19-3.68481E-19
 -1      3585 9.50110E-05-2.77887E-05-2.88071E-05 1.11603E-06-3.01803E-19 5.71527E-19
 -1      3586 9.47891E-05-2.75694E-05-2.88074E-05 1.18833E-06-6.19666E-19-7.56573E-19
 -1      3587 1.13629E-04-4.36810E-05-2.98996E-05 2.27103E-06-4.43918E-19 2.79684E-18
 -1      3588 1.15584E-04-4.43957E-05-3.05564E-05-2.65468E-07-5.16589E-19 2.75851E-18
 -1      3589 1.11731E-04-4.37917E-05-2.91368E-05 5.94297E-06-5.02512E-20 1.89062E-18
 -1      3590 9.45327E-05-2.74820E-05-2.87367E-05-1.66990E-07-1.36375E-18-4.57285E-19
 -1      3591 9.45145E-05-2.74682E-05-2.87356E-05-5.42780E-08-1.48290E-18-1.79264E-18
 -1      3592 9.65473E-05-2.93180E-05-2.88004E-05-7.76031E-06-3.83167E-19 3.54183E-19
 -1      3593 9.59110E-05-2.86385E-05-2.88228E-05-7.51391E-06-2.84404E-19 5.93270E-19
 -1      3594 9.46482E-05-2.78897E-05-2.86264E-05-7.59492E-06-2.05840E-19 2.60540E-19
 -1      3595 9.55562E-05-2.92149E-05-2.84590E-05-8.56114E-06-3.55016E-19-2.61753E-20
 -1      3596 9.47486E-05-3.75062E-05-2.42752E-05-2.32915E-05 9.59506E-19-3.37768E-19
 -1      3597 1.19187E-04-5.12417E-05-2.90319E-05 1.03034E-05-1.26870E-18-9.12202E-19
 -1      3598 9.37670E-05-2.06420E-05-3.13476E-05-4.32703E-06-6.09934E-19-1.07821E-18
 -1      3599 8.30703E-05-3.05913E-05-2.25331E-05 2.29704E-05-3.48262E-19-1.39783E-18
 -1      3600 7.34499E-05-2.42071E-05-2.07481E-05 2.18623E-05 4.18673E-19-1.87135E-18
 -1      3601 9.51884E-05-2.73741E-05-2.90578E-05-4.10450E-06-8.26626E-20 5.22776E-20
 -1      3602 9.52034E-05-2.73837E-05-2.90672E-05-3.77474E-06 6.49634E-20-1.06320E-19
 -1      3603 9.46070E-05-2.24864E-05-3.09023E-05-2.93324E-06-5.83334E-19-1.02419E-18
 -1      3604 9.50345E-05-2.38204E-05-3.05371E-05-1.65522E-06-5.49845E-19-1.02484E-18
 -1      3605 5.56546E-05-1.47524E-05-1.70852E-05-1.20183E-05-1.45637E-19-5.12455E-20
 -1      3606 6.30593E-05-1.96803E-05-1.86910E-05-1.89925E-05 5.18060E-19 1.21761E-21
 -1      3607 9.56389E-05-2.60201E-05-2.98308E-05 5.60548E-07-4.11564E-19-1.11678E-18
 -1      3608 9.56293E-05-2.63831E-05-2.96824E-05 1.14025E-06-4.91954E-19-9.29365E-19
 -1      3609 9.55515E-05-2.61794E-05-2.97289E-05 1.20723E-06-2.13214E-19-7.02004E-19
 -1      3610 9.54349E-05-2.48623E-05-3.02316E-05-7.47709E-07-6.34044E-19-1.00876E-18
 -1      3611 9.55388E-05-2.55107E-05-3.00219E-05-9.81603E-10-5.61802E-19-1.16988E-18
 -1      3612 9.55003E-05-2.53391E-05-3.00671E-05 1.82762E-07-4.96251E-19-8.81689E-19
 -1      3613 6.86015E-05-2.35118E-05-1.92225E-05 2.28225E-05 7.79826E-19-1.33747E-18
 -1      3614 5.92045E-05-1.69084E-05-1.79068E-05 1.52203E-05 1.73112E-19-1.03222E-18
 -1      3615 9.46297E-05-2.75677E-05-2.87404E-05-3.94410E-07 3.65637E-19 2.39390E-19
 -1      3616 9.45736E-05-2.75213E-05-2.87390E-05-2.96275E-07-3.53467E-19 6.53779E-19
 -1      3617 9.44477E-05-2.73654E-05-2.87463E-05-2.60743E-07 5.63381E-20 5.56457E-19
 -1      3618 9.45759E-05-2.74845E-05-2.87526E-05-5.08810E-07 5.67252E-19-8.16846E-19
 -1      3619 4.97673E-05-1.23843E-05-1.58353E-05 6.17152E-06-2.31156E-18-2.73279E-18
 -1      3620 5.08732E-05-1.26197E-05-1.63251E-05-4.20053E-06-1.21177E-18-3.94294E-19
 -1      3621 8.55087E-05-3.22074E-05-2.29631E-05-2.40094E-05 2.10474E-19 7.40095E-20
 -1      3622 9.56888E-05-2.66412E-05-2.95968E-05-1.01391E-06 4.76982E-19-4.98280E-19
 -1      3623 9.56838E-05-2.62543E-05-2.97472E-05-4.03400E-07 7.20905E-19-5.34416E-19
 -1      3624 1.01762E-04-4.80923E-05-2.26151E-05-3.00447E-05-1.24829E-18-6.00771E-19
 -1      3625 1.11755E-04-5.18392E-05-2.57388E-05-2.26456E-05-1.20615E-18-3.19510E-19
 -1      3626 9.57679E-05-4.35528E-05-2.21693E-05-2.94090E-05-1.59570E-18-9.25900E-19
 -1      3627 6.49325E-05-2.01054E-05-1.93101E-05 1.96005E-05 3.01921E-20-1.31947E-18
 -1      3628 5.55122E-05-1.49894E-05-1.70102E-05 1.34247E-05-1.28231E-18-2.62157E-18
 -1      3629 5.96834E-05-1.49268E-05-1.89228E-05 8.93321E-06-1.05824E-18-1.86350E-18
 -1      3630 7.15725E-05-2.17592E-05-2.12881E-05 1.79397E-05 2.11255E-19-1.17616E-18
 -1      3631 9.48354E-05-2.77244E-05-2.87611E-05-7.19792E-07 6.25834E-19-2.77052E-18
 -1      3632 1.19160E-04-3.42772E-05-3.64161E-05 1.25362E-05 7.31995E-19 1.07144E-18
 -1      3633 1.20233E-04-3.92889E-05-3.49456E-05 1.04322E-05 4.50142E-19 9.01729E-19
 -1      3634 9.48132E-05-2.31016E-05-3.07502E-05 2.50734E-06 9.32297E-19-5.62313E-19
 -1      3635 9.44770E-05-2.23220E-05-3.09211E-05 2.29716E-06 7.72743E-19-6.17433E-19
 -1      3636 9.55414E-05-2.75555E-05-2.91415E-05-2.68859E-06-5.33523E-20-3.87217E-19
 -1      3637 6.31236E-05-2.26137E-05-1.71270E-05-2.48178E-05-2.15160E-18-1.19728E-18
 -1      3638 6.73309E-05-2.69466E-05-1.67953E-05-2.99962E-05-2.02695E-18-7.53277E-19
 -1      3639 7.69860E-05-3.23140E-05-1.91689E-05-3.00472E-05-2.01340E-18-6.29584E-19
 -1      3640 9.45186E-05-2.74743E-05-2.87348E-05 8.32720E-08-1.48280E-18-3.24292E-18
 -1      3641 9.45420E-05-2.74964E-05-2.87345E-05 1.93774E-07-2.37641E-19-3.59916E-18
 -1      3642 9.44046E-05-2.73316E-05-2.87426E-05 1.86994E-08-1.15786E-18-1.87885E-18
 -1      3643 5.84390E-05-1.49490E-05-1.83865E-05 9.98967E-06 1.66654E-19-1.12176E-18
 -1      3644 5.92952E-05-1.40372E-05-1.93734E-05 3.67239E-06-1.57224E-19-1.30491E-18
 -1      3645 6.63650E-05-1.75690E-05-2.07284E-05 1.25169E-05 3.16780E-19-6.04384E-19
 -1      3646 8.71504E-05-3.00969E-05-2.43697E-05 2.07106E-05 5.47208E-19-3.07963E-19
 -1      3647 8.99723E-05-3.42942E-05-2.37728E-05 2.30194E-05 1.32259E-18-3.06480E-19
 -1      3648 9.53592E-05-2.74236E-05-2.91115E-05-3.44110E-06-9.10476E-20-2.69465E-19
 -1      3649 9.53943E-05-2.74015E-05-2.91395E-05-3.10009E-06-3.60288E-19-3.62831E-19
 -1      3650 9.50961E-05-2.71420E-05-2.91244E-05-3.50063E-06-1.99927E-19-2.73888E-19
 -1      3651 9.35160E-05-2.02672E-05-3.13755E-05 2.45395E-06 7.14084E-19-8.49730E-19
 -1      3652 9.36891E-05-2.07958E-05-3.12500E-05 1.42510E-06 4.51259E-19-1.18573E-18
 -1      3653 9.35095E-05-2.04734E-05-3.13095E-05 9.92962E-07 3.00548E-19-1.19784E-18
 -1      3654 9.40640E-05-2.15088E-05-3.10762E-05 5.91708E-07 1.60234E-19-1.04802E-18
 -1      3655 9.33877E-05-2.02648E-05-3.13503E-05 6.51867E-07 1.10688E-19-1.26399E-18
 -1      3656 9.33224E-05-2.01504E-05-3.13700E-05 1.81616E-07-7.79411E-21-1.28076E-18
 -1      3657 9.55725E-05-2.55403E-05-3.00132E-05 1.01299E-08 7.96579E-19-6.12862E-19
 -1      3658 9.55689E-05-2.57093E-05-2.99454E-05 2.33278E-07 8.17844E-19-6.01085E-19
 -1      3659 5.78310E-05-1.41325E-05-1.84858E-05-6.22077E-06-9.63374E-19-1.08388E-18
 -1      3660 9.54986E-05-2.52256E-05-3.01141E-05 9.34069E-07 7.67482E-19-6.43339E-19
 -1      3661 9.43034E-05-2.69461E-05-2.88719E-05-5.74252E-06-6.93940E-20 1.13593E-19
 -1      3662 9.50190E-05-2.73450E-05-2.89949E-05-5.51598E-06 9.36876E-20 2.23849E-20
 -1      3663 9.49273E-05-2.72822E-05-2.89936E-05-5.16715E-06 7.93700E-20 4.34533E-21
 -1      3664 1.17964E-04-4.86060E-05-2.98322E-05-5.35658E-06-1.52069E-19 8.83376E-19
 -1      3665 9.42079E-05-2.15980E-05-3.11082E-05-3.27570E-06-5.87153E-19-1.07154E-18
 -1      3666 1.17604E-04-3.08235E-05-3.75414E-05-1.34260E-05-7.60331E-19 2.09990E-18
 -1      3667 1.15259E-04-2.49826E-05-3.88810E-05-1.16400E-05-1.16149E-19 2.20696E-18
 -1      3668 7.54229E-05-2.54186E-05-2.10554E-05-2.23660E-05 2.96938E-19 1.79478E-19
 -1      3669 1.21511E-04-4.18462E-05-3.42431E-05-9.17888E-06-1.16000E-18 1.55428E-18
 -1      3670 1.20531E-04-3.72611E-05-3.58014E-05-1.09555E-05-1.23849E-18 1.60877E-18
 -1      3671 9.50838E-05-2.80201E-05-2.87430E-05 6.88747E-07-3.62018E-19-6.09682E-19
 -1      3672 9.50748E-05-2.79536E-05-2.87641E-05 8.15619E-07-9.63617E-19-2.47006E-19
 -1      3673 9.51295E-05-2.81002E-05-2.87261E-05 5.85339E-07 2.24448E-20-3.01758E-19
 -1      3674 8.67790E-05-3.47474E-05-2.22756E-05 2.57382E-05 1.39520E-18-6.49251E-19
 -1      3675 7.63008E-05-2.78508E-05-2.04024E-05 2.50360E-05 1.16192E-18-1.06980E-18
 -1      3676 9.27498E-05-1.89316E-05-3.16168E-05-5.06744E-07-5.49520E-20-1.38486E-18
 -1      3677 1.18424E-04-4.45274E-05-3.16602E-05-3.75217E-06-1.28088E-18 2.46683E-18
 -1      3678 1.19152E-04-4.28785E-05-3.27661E-05-6.60744E-06-1.12230E-18 2.54933E-18
 -1      3679 9.50556E-05-2.73151E-05-2.90248E-05-4.78902E-06 5.03477E-20-7.62991E-20
 -1      3680 9.50314E-05-2.73135E-05-2.90248E-05-4.45193E-06 2.70374E-20 5.16492E-20
 -1      3681 9.47847E-05-2.70405E-05-2.90347E-05-4.19407E-06 7.79172E-20-9.65656E-20
 -1      3682 9.44977E-05-2.69379E-05-2.89566E-05-4.93224E-06 1.60834E-20-1.80540E-19
 -1      3683 9.56517E-05-2.71504E-05-2.93591E-05-1.97326E-06 2.09184E-19-5.44068E-19
 -1      3684 9.56823E-05-2.69382E-05-2.94558E-05-1.50330E-06 2.71865E-19-4.99607E-19
 -1      3685 9.56817E-05-2.64591E-05-2.96673E-05-1.13343E-06 3.76252E-19-4.18666E-19
 -1      3686 8.93617E-05-3.36576E-05-2.37047E-05 2.21881E-05-3.29383E-20-4.66642E-19
 -1      3687 8.37361E-05-2.87038E-05-2.36644E-05 1.95294E-05 9.74397E-19-7.76240E-19
 -1      3688 9.47764E-05-3.61134E-05-2.50724E-05 1.92010E-05 8.68712E-19 3.54139E-19
 -1      3689 9.50158E-05-2.36944E-05-3.05671E-05-1.28774E-06-5.76782E-19-9.75010E-19
 -1      3690 5.20983E-05-1.38177E-05-1.60754E-05-1.04723E-05-1.45020E-18-1.48368E-18
 -1      3691 5.60864E-05-1.62664E-05-1.69413E-05-1.54671E-05-1.83048E-18-1.58956E-18
 -1      3692 5.66445E-05-1.40250E-05-1.80422E-05-6.16942E-06-4.76191E-19-1.32960E-18
 -1      3693 1.11036E-04-4.56921E-05-2.79554E-05 1.17426E-05 1.52929E-20 1.81586E-19
 -1      3694 1.05183E-04-4.17680E-05-2.72005E-05 1.36936E-05 9.55897E-19-3.43215E-19
 -1      3695 7.22558E-05-2.21265E-05-2.14120E-05-1.81728E-05-8.02034E-21 3.63827E-20
 -1      3696 9.34906E-05-2.04418E-05-3.13158E-05-9.75206E-07-1.07590E-19-1.19242E-18
 -1      3697 9.36679E-05-2.07618E-05-3.12591E-05-1.41236E-06-2.38562E-19-1.39659E-18
 -1      3698 1.23806E-04-4.61558E-05-3.33812E-05-4.87958E-06-1.31279E-18 1.46199E-18
 -1      3699 1.22683E-04-4.90582E-05-3.15402E-05 4.48842E-07-1.07808E-18 7.67544E-19
 -1      3700 9.47323E-05-2.76861E-05-2.87371E-05 5.06889E-07 8.92512E-19-1.03561E-18
 -1      3701 9.48191E-05-2.77615E-05-2.87373E-05 5.71153E-07-2.48659E-19-2.06852E-18
 -1      3702 7.45320E-05-2.41333E-05-2.14177E-05 2.03933E-05 6.71763E-19-8.81682E-19
 -1      3703 8.07851E-05-2.59784E-05-2.35457E-05 1.95738E-05 3.24311E-19-3.41910E-19
 -1      3704 9.50202E-05-2.79682E-05-2.87358E-05 6.34606E-07-5.16892E-19-2.69973E-19
 -1      3705 9.49125E-05-2.77778E-05-2.87701E-05 8.76691E-07-8.67460E-19-1.45465E-18
 -1      3706 1.18303E-04-4.65694E-05-3.07319E-05 6.24486E-07-6.56935E-19 2.63372E-18
 -1      3707 1.14391E-04-4.78542E-05-2.85114E-05 9.98245E-06-3.31746E-19 3.63440E-19
 -1      3708 9.53506E-05-2.47256E-05-3.02675E-05-1.61831E-07-5.01479E-19-8.00314E-19
 -1      3709 9.54616E-05-2.53207E-05-3.00675E-05 4.02274E-07-3.22197E-19-7.12479E-19
 -1      3710 9.55262E-05-2.73776E-05-2.92050E-05-2.75305E-06-3.06214E-19-2.97721E-19
 -1      3711 9.55671E-05-2.72833E-05-2.92616E-05-2.36947E-06 2.08575E-20-4.28830E-19
 -1      3712 9.55935E-05-2.69514E-05-2.94192E-05-2.04177E-06 3.51847E-20-4.78005E-19
 -1      3713 9.38800E-05-2.11487E-05-3.11770E-05-1.71038E-06-4.07147E-19-1.40218E-18
 -1      3714 9.41501E-05-2.16639E-05-3.10732E-05-2.06220E-06-5.18697E-19-1.29498E-18
 -1      3715 9.49433E-05-2.78908E-05-2.87385E-05 6.27781E-07-1.35639E-18-1.63409E-18
 -1      3716 9.49004E-05-2.63651E-05-2.93745E-05 2.24344E-06-2.64790E-19-3.94528E-19
 -1      3717 9.46327E-05-2.62886E-05-2.92922E-05 2.57594E-06-2.72913E-19-4.29093E-19
 -1      3718 9.42309E-05-2.61119E-05-2.91988E-05 2.83135E-06-3.62276E-20-5.04037E-19
 -1      3719 9.38698E-05-2.58987E-05-2.91316E-05 3.14868E-06 8.22242E-20-4.57852E-19
 -1      3720 9.42549E-05-2.59507E-05-2.92663E-05 2.31906E-06-1.50427E-19-3.83541E-19
 -1      3721 9.33402E-05-2.55895E-05-2.90437E-05 3.40058E-06 9.25907E-20-5.89234E-19
 -1      3722 9.28814E-05-2.52680E-05-2.89783E-05 3.72625E-06-1.59185E-19-8.04481E-19
 -1      3723 9.33350E-05-2.54692E-05-2.90763E-05 2.79944E-06 1.33640E-20-6.09176E-19
 -1      3724 9.22165E-05-2.48534E-05-2.88808E-05 3.99071E-06-4.02903E-19-6.29805E-19
 -1      3725 9.16500E-05-2.44501E-05-2.88016E-05 4.34324E-06-3.95301E-19-7.54680E-19
 -1      3726 9.21560E-05-2.47387E-05-2.88810E-05 3.27339E-06-1.84694E-19-5.95491E-19
 -1      3727 9.08320E-05-2.39553E-05-2.86761E-05 4.63469E-06-2.41506E-19-8.29946E-19
 -1      3728 9.01449E-05-2.35002E-05-2.85641E-05 5.03227E-06-1.74954E-19-6.51133E-19
 -1      3729 9.06931E-05-2.38130E-05-2.86466E-05 3.76547E-06-2.97024E-19-3.53617E-19
 -1      3730 8.91476E-05-2.29559E-05-2.83876E-05 5.36874E-06-4.10689E-19-7.95277E-19
 -1      3731 8.83291E-05-2.24896E-05-2.82190E-05 5.83564E-06-5.49602E-19-6.13063E-19
 -1      3732 8.89032E-05-2.27456E-05-2.83312E-05 4.30242E-06-4.78821E-19-6.01907E-19
 -1      3733 8.71140E-05-2.19349E-05-2.79612E-05 6.24770E-06-5.44273E-19-6.60286E-19
 -1      3734 8.61619E-05-2.15160E-05-2.77054E-05 6.82830E-06-3.88944E-19-5.38860E-19
 -1      3735 8.67232E-05-2.15979E-05-2.78809E-05 4.92403E-06-3.91656E-19-1.96610E-19
 -1      3736 8.46717E-05-2.10033E-05-2.73254E-05 7.38129E-06-4.19602E-19-7.33735E-19
 -1      3737 8.36065E-05-2.07254E-05-2.69428E-05 8.16408E-06-4.46811E-19-5.92120E-19
 -1      3738 8.40579E-05-2.04390E-05-2.72239E-05 5.71254E-06-5.05474E-19-5.85405E-19
 -1      3739 8.17616E-05-2.03334E-05-2.63824E-05 8.97922E-06-5.12902E-20-4.86308E-19
 -1      3740 8.06457E-05-2.03436E-05-2.58229E-05 1.01282E-05 4.64765E-19-7.10412E-19
 -1      3741 8.07739E-05-1.93694E-05-2.62581E-05 6.84020E-06-1.19624E-19-8.26370E-19
 -1      3742 7.82981E-05-2.01350E-05-2.49909E-05 1.14631E-05 4.88131E-19-1.11126E-18
 -1      3743 7.74630E-05-2.07877E-05-2.42138E-05 1.32262E-05 1.47619E-19-6.58930E-19
 -1      3744 7.66487E-05-1.85229E-05-2.48328E-05 8.61796E-06 1.82768E-19-1.07375E-18
 -1      3745 9.70904E-05-4.08020E-05-2.38306E-05 2.50062E-05 1.71651E-18-4.80903E-19
 -1      3746 1.21542E-04-4.42584E-05-3.30252E-05 6.18660E-06 5.79953E-19 1.26293E-18
 -1      3747 9.55501E-05-2.54902E-05-3.00330E-05-2.66083E-07 7.02041E-19-4.72798E-19
 -1      3748 9.54214E-05-2.48610E-05-3.02381E-05 3.75991E-07 7.30139E-19-5.42050E-19
 -1      3749 5.95102E-05-1.34605E-05-1.96386E-05-1.43141E-06-1.33674E-18-1.71167E-18
 -1      3750 6.24778E-05-1.53159E-05-2.02607E-05-8.83889E-06-7.05499E-19-1.03431E-18
 -1      3751 9.51263E-05-2.40693E-05-3.04471E-05 2.28923E-06 8.62580E-19-5.14227E-19
 -1      3752 9.53180E-05-2.46185E-05-3.02924E-05 1.43687E-06 8.62172E-19-6.76377E-19
 -1      3753 7.93651E-05-2.10269E-05-2.49786E-05-1.27677E-05-3.33250E-19-1.51045E-18
 -1      3754 8.02025E-05-2.04470E-05-2.56767E-05-1.10596E-05-1.06875E-18-1.06110E-18
 -1      3755 8.21561E-05-2.05446E-05-2.63883E-05-9.79994E-06-1.09614E-18-9.07252E-19
 -1      3756 8.30645E-05-2.05033E-05-2.68616E-05-8.69528E-06-1.49974E-18-5.06732E-19
 -1      3757 7.84248E-05-1.88336E-05-2.54718E-05-8.65179E-06-9.75710E-19-1.66871E-18
 -1      3758 8.46426E-05-2.08358E-05-2.73404E-05-7.85447E-06-1.82885E-18 2.43783E-19
 -1      3759 8.55280E-05-2.10735E-05-2.76580E-05-7.05524E-06-1.52583E-18-6.48609E-20
 -1      3760 8.19123E-05-1.95032E-05-2.66981E-05-6.81311E-06-1.22210E-18-1.50790E-18
 -1      3761 8.68060E-05-2.15287E-05-2.79760E-05-6.45106E-06-2.06882E-18 2.65293E-19
 -1      3762 8.75964E-05-2.19004E-05-2.81801E-05-5.82371E-06-1.93836E-18-1.04256E-19
 -1      3763 8.47363E-05-2.04381E-05-2.75197E-05-5.57912E-06-1.70494E-18-4.09762E-19
 -1      3764 8.86300E-05-2.23998E-05-2.83861E-05-5.34813E-06-1.51645E-18 7.23984E-20
 -1      3765 8.92993E-05-2.28196E-05-2.85097E-05-4.82512E-06-9.14906E-19-3.03063E-19
 -1      3766 8.70180E-05-2.14736E-05-2.80624E-05-4.65803E-06-1.59198E-18 2.30651E-20
 -1      3767 9.01317E-05-2.33143E-05-2.86378E-05-4.42599E-06-3.10027E-19-1.13074E-18
 -1      3768 9.06793E-05-2.37322E-05-2.87060E-05-3.97598E-06-9.86229E-20-1.61346E-18
 -1      3769 8.88591E-05-2.25166E-05-2.84110E-05-3.90239E-06-7.81436E-19-3.73859E-19
 -1      3770 9.13453E-05-2.41937E-05-2.87805E-05-3.63097E-06 9.07238E-19-1.44777E-18
 -1      3771 9.17822E-05-2.45818E-05-2.88116E-05-3.24097E-06 1.03316E-18-1.08979E-18
 -1      3772 9.03375E-05-2.35071E-05-2.86251E-05-3.24684E-06 5.15039E-19-1.64040E-18
 -1      3773 9.23097E-05-2.49942E-05-2.88501E-05-2.94124E-06 7.05051E-19-8.49007E-19
 -1      3774 9.26516E-05-2.53388E-05-2.88576E-05-2.60523E-06 1.01929E-18-3.10153E-19
 -1      3775 9.15153E-05-2.44096E-05-2.87470E-05-2.66838E-06 1.23093E-18-4.26543E-19
 -1      3776 9.30653E-05-2.56963E-05-2.88724E-05-2.34702E-06 1.22366E-18-3.36230E-19
 -1      3777 9.33285E-05-2.59928E-05-2.88656E-05-2.06166E-06 7.89365E-19-4.34281E-19
 -1      3778 9.24445E-05-2.52056E-05-2.88071E-05-2.15905E-06 5.34691E-19-4.53534E-19
 -1      3779 9.36491E-05-2.62947E-05-2.88656E-05-1.84263E-06 4.08948E-19 9.15876E-20
 -1      3780 9.38487E-05-2.65436E-05-2.88510E-05-1.60412E-06 1.52297E-18-1.78315E-18
 -1      3781 9.31696E-05-2.58895E-05-2.88270E-05-1.71754E-06 5.85459E-19 4.42669E-19
 -1      3782 9.40944E-05-2.67933E-05-2.88425E-05-1.42208E-06 1.55460E-18-2.50734E-18
 -1      3783 9.42431E-05-2.69973E-05-2.88243E-05-1.22631E-06 1.35491E-18-3.60045E-18
 -1      3784 9.37292E-05-2.64644E-05-2.88223E-05-1.34210E-06 7.33470E-19-1.01257E-19
 -1      3785 9.44294E-05-2.72005E-05-2.88114E-05-1.07731E-06 2.18923E-18-3.72794E-18
 -1      3786 9.45401E-05-2.73676E-05-2.87923E-05-9.19257E-07 2.52600E-18-2.99632E-18
 -1      3787 9.41558E-05-2.69386E-05-2.88036E-05-1.02992E-06 1.95808E-18-4.52928E-19
 -1      3788 9.33938E-05-2.66725E-05-2.85810E-05-6.74576E-06-5.52238E-20 7.49227E-20
 -1      3789 9.33208E-05-2.64799E-05-2.86512E-05-6.26991E-06-1.10556E-19 2.13764E-19
 -1      3790 1.14999E-04-5.20931E-05-2.69488E-05-1.85146E-05-8.37319E-19-2.88431E-19
 -1      3791 1.17929E-04-5.08134E-05-2.86476E-05-1.11879E-05-6.22463E-19 3.19967E-19
 -1      3792 9.92630E-05-3.46954E-05-2.76390E-05-1.14282E-05-1.24337E-18-3.48617E-19
 -1      3793 9.73407E-05-3.26825E-05-2.76755E-05-1.12298E-05-9.74293E-19-4.87007E-19
 -1      3794 9.61195E-05-3.10851E-05-2.78410E-05-1.04024E-05-1.00174E-18-3.08108E-19
 -1      3795 9.49290E-05-2.97101E-05-2.79362E-05-9.95200E-06-9.91362E-19-1.32367E-19
 -1      3796 9.45093E-05-3.09628E-05-2.72871E-05-1.19236E-05-9.70805E-19-6.35756E-19
 -1      3797 1.11398E-04-4.51475E-05-2.83406E-05-9.81061E-06-4.94356E-19 2.02204E-19
 -1      3798 1.07854E-04-4.26219E-05-2.78462E-05-1.14364E-05-9.20700E-19-1.01512E-20
 -1      3799 9.41729E-05-2.16473E-05-3.10899E-05-2.55872E-06-5.33942E-19-1.21078E-18
 -1      3800 9.43519E-05-2.20628E-05-3.09606E-05-1.12595E-06-3.05396E-19-1.16770E-18
 -1      3801 9.48255E-05-2.77440E-05-2.87500E-05 6.86701E-07-7.55702E-19-1.09572E-18
 -1      3802 1.08885E-04-4.85064E-05-2.58460E-05-2.06981E-05-1.10877E-18-3.81893E-19
 -1      3803 9.52291E-05-2.42786E-05-3.04023E-05 1.17302E-06 8.16494E-19-7.37026E-19
 -1      3804 1.13649E-04-4.74076E-05-2.83517E-05-1.04128E-05-3.09878E-19 1.56909E-19
 -1      3805 9.45733E-05-2.24737E-05-3.08823E-05-1.78352E-06-4.68092E-19-1.15509E-18
 -1      3806 9.75866E-05-3.29146E-05-2.76927E-05 1.10869E-05 1.56504E-18-3.66805E-20
 -1      3807 9.96624E-05-3.49989E-05-2.76714E-05 1.11967E-05 1.34178E-18-6.28757E-20
 -1      3808 9.47689E-05-2.76439E-05-2.87669E-05 8.18080E-07-1.40636E-19-7.30616E-19
 -1      3809 9.34860E-05-2.76544E-05-2.82105E-05 8.32666E-06 5.73400E-20 1.30096E-18
 -1      3810 9.42367E-05-2.85881E-05-2.81092E-05 8.87703E-06 3.01881E-19 1.57850E-18
 -1      3811 9.28687E-05-2.64958E-05-2.84480E-05 6.96547E-06-4.24346E-19 2.08861E-18
 -1      3812 9.32456E-05-2.70253E-05-2.83618E-05 7.53367E-06 2.99376E-20 1.97707E-18
 -1      3813 9.18129E-05-2.65061E-05-2.80049E-05 8.17028E-06-1.10193E-19 3.75417E-18
 -1      3814 9.27480E-05-2.59646E-05-2.86269E-05 5.74793E-06-1.18251E-18 1.64911E-18
 -1      3815 9.28902E-05-2.62087E-05-2.85648E-05 6.28079E-06-9.69519E-19 1.25273E-18
 -1      3816 9.16420E-05-2.56321E-05-2.82966E-05 6.63899E-06-2.72843E-19 3.13134E-18
 -1      3817 9.29018E-05-2.58393E-05-2.87478E-05 4.68486E-06-5.91241E-19 1.19382E-18
 -1      3818 9.29067E-05-2.58962E-05-2.87095E-05 5.16631E-06-8.01852E-19 7.96100E-19
 -1      3819 9.18471E-05-2.53194E-05-2.85130E-05 5.35932E-06-6.44556E-19 1.18904E-18
 -1      3820 9.31919E-05-2.59637E-05-2.88189E-05 3.77146E-06 1.76852E-19 1.15531E-18
 -1      3821 9.31240E-05-2.59065E-05-2.88007E-05 4.19572E-06-2.16931E-19 1.50974E-18
 -1      3822 9.22409E-05-2.53606E-05-2.86613E-05 4.29267E-06-6.25208E-19 8.08506E-19
 -1      3823 9.35305E-05-2.62255E-05-2.88515E-05 2.99743E-06 6.74560E-19 2.89787E-19
 -1      3824 9.34309E-05-2.61062E-05-2.88484E-05 3.36389E-06 4.50220E-19 1.14066E-18
 -1      3825 9.27080E-05-2.56102E-05-2.87531E-05 3.40871E-06 5.47970E-19-4.75834E-20
 -1      3826 9.38658E-05-2.65481E-05-2.88562E-05 2.34955E-06 4.48004E-19 4.74631E-20
 -1      3827 9.37590E-05-2.64016E-05-2.88635E-05 2.66052E-06 8.21793E-19-4.32228E-19
 -1      3828 9.31774E-05-2.59654E-05-2.88016E-05 2.67974E-06 6.34276E-19 5.33415E-19
 -1      3829 9.41705E-05-2.68828E-05-2.88426E-05 1.81478E-06-7.42964E-19-1.28986E-19
 -1      3830 9.40703E-05-2.67315E-05-2.88563E-05 2.07397E-06 1.65023E-19-3.07833E-19
 -1      3831 9.36102E-05-2.63580E-05-2.88189E-05 2.08206E-06 4.75625E-19-8.17717E-19
 -1      3832 9.44314E-05-2.71987E-05-2.88182E-05 1.37864E-06-1.76772E-18-5.04405E-19
 -1      3833 9.43442E-05-2.70557E-05-2.88352E-05 1.59245E-06-1.48953E-18 2.46192E-19
 -1      3834 9.39874E-05-2.67452E-05-2.88153E-05 1.59742E-06-1.28180E-18 6.61187E-20
 -1      3835 9.46413E-05-2.74778E-05-2.87880E-05 1.02519E-06-1.43966E-19-2.07200E-19
 -1      3836 9.45732E-05-2.73519E-05-2.88063E-05 1.20266E-06-9.34378E-19-3.79417E-19
 -1      3837 9.43007E-05-2.71013E-05-2.87987E-05 1.20971E-06-1.34550E-18 2.69314E-19
 -1      3838 1.19640E-04-4.91545E-05-3.02715E-05 4.30558E-06-1.09073E-18 5.61987E-19
 -1      3839 9.45979E-05-2.27923E-05-3.07809E-05-6.32430E-07-1.93153E-19-1.02178E-18
 -1      3840 9.47838E-05-2.31786E-05-3.06988E-05-8.26852E-07-3.53569E-19-1.06301E-18
 -1      3841 9.33183E-05-2.01434E-05-3.13713E-05-1.68724E-07-6.27131E-20-1.40926E-18
 -1      3842 9.33769E-05-2.02461E-05-3.13540E-05-6.38286E-07-1.10667E-19-1.37292E-18
 -1      3843 9.40491E-05-2.14780E-05-3.10816E-05-5.92321E-07-1.94906E-19-1.31088E-18
 -1      3844 9.39484E-05-2.12910E-05-3.11186E-05-8.60892E-10-7.41516E-21-1.24856E-18
 -1      3845 9.47114E-05-2.75679E-05-2.87739E-05-7.70394E-07 8.89010E-19-2.77688E-18
 -1      3846 9.45896E-05-2.75459E-05-2.87352E-05 3.19314E-07 1.59183E-19-2.26582E-18
 -1      3847 9.46499E-05-2.75993E-05-2.87354E-05 4.12073E-07 8.66061E-19-2.49258E-18
 -1      3848 9.46144E-05-2.75318E-05-2.87465E-05 5.26683E-07 5.41326E-19-1.57259E-18
 -1      3849 9.49878E-05-2.36948E-05-3.05656E-05-8.96980E-07-5.06232E-19-9.87759E-19
 -1      3850 9.52213E-05-2.42917E-05-3.04017E-05 7.35976E-07 7.78083E-19-6.97794E-19
 -1      3851 9.50241E-05-2.36836E-05-3.05816E-05 1.22867E-06 7.55950E-19-6.73508E-19
 -1      3852 9.52071E-05-2.42408E-05-3.04094E-05 4.37204E-07 6.39321E-19-5.51319E-19
 -1      3853 7.46483E-05-2.18553E-05-2.25776E-05 1.70581E-05 2.37963E-20-8.08321E-19
 -1      3854 6.77563E-05-1.74609E-05-2.13123E-05-1.30478E-05-4.24587E-19 1.57495E-19
 -1      3855 7.70721E-05-2.28279E-05-2.32756E-05-1.68296E-05-4.84744E-19 6.73007E-19
 -1      3856 7.74434E-05-2.12094E-05-2.42138E-05-1.42046E-05-2.38856E-19-2.99307E-19
 -1      3857 6.83294E-05-1.65640E-05-2.21955E-05-8.89544E-06-9.02828E-19-1.53357E-18
 -1      3858 1.11551E-04-2.03266E-05-3.94397E-05-1.02127E-05-2.08264E-19 2.07817E-18
 -1      3859 9.55154E-05-2.57754E-05-2.98858E-05 8.01044E-07-8.67545E-20-6.02956E-19
 -1      3860 9.54609E-05-2.60875E-05-2.97376E-05 1.26183E-06-2.96348E-21-4.93437E-19
 -1      3861 9.53874E-05-2.52246E-05-3.00676E-05 4.79312E-07-1.71392E-19-5.78933E-19
 -1      3862 9.49095E-05-2.96964E-05-2.79373E-05 9.76504E-06 9.20961E-19 7.39829E-19
 -1      3863 9.62184E-05-3.11642E-05-2.78483E-05 1.01933E-05 1.58876E-18 4.02134E-19
 -1      3864 9.45785E-05-3.09952E-05-2.72661E-05 1.19035E-05 1.20323E-18 1.14246E-18
 -1      3865 7.09878E-05-1.88550E-05-2.22899E-05 1.34440E-05 1.72625E-19-8.70247E-19
 -1      3866 1.03814E-04-3.91025E-05-2.76829E-05 1.15051E-05 6.56318E-19-2.72559E-19
 -1      3867 9.94064E-05-3.83428E-05-2.61676E-05 1.69882E-05 1.07009E-18-7.72742E-19
 -1      3868 9.37793E-05-3.38808E-05-2.57456E-05 1.68043E-05 9.39267E-19-1.06696E-19
 -1      3869 1.00801E-04-3.64985E-05-2.75181E-05 1.19817E-05 8.14440E-19-5.60412E-19
 -1      3870 1.09683E-04-4.66447E-05-2.70669E-05-1.55483E-05-6.12660E-19-1.39287E-19
 -1      3871 1.04252E-04-3.96058E-05-2.76817E-05-1.16247E-05-1.01466E-18-4.46555E-19
 -1      3872 1.01477E-04-3.70045E-05-2.75586E-05-1.20047E-05-1.19173E-18-7.29759E-19
 -1      3873 1.03426E-04-4.06279E-05-2.69757E-05-1.45641E-05-1.17803E-18-6.08954E-19
 -1      3874 8.89325E-05-3.79283E-05-2.14711E-05-2.91768E-05-1.71821E-18-7.44277E-19
 -1      3875 9.88721E-05-4.33792E-05-2.38077E-05-2.53001E-05-1.72833E-18-8.87849E-19
 -1      3876 9.46687E-05-2.27780E-05-3.08026E-05 1.59489E-06 7.40341E-19-6.39799E-19
 -1      3877 9.40431E-05-2.14300E-05-3.11350E-05 2.16291E-06 7.84754E-19-7.57591E-19
 -1      3878 9.37617E-05-2.08872E-05-3.12383E-05 1.77331E-06 6.41959E-19-1.09186E-18
 -1      3879 9.46612E-05-2.28238E-05-3.07872E-05 1.15762E-06 6.65768E-19-6.58098E-19
 -1      3880 9.53440E-05-2.62859E-05-2.95958E-05 1.58604E-06-7.00163E-20-4.33378E-19
 -1      3881 9.51713E-05-2.63784E-05-2.94862E-05 1.96257E-06-1.03201E-19-4.00918E-19
 -1      3882 9.49191E-05-2.61196E-05-2.94790E-05 1.79982E-06-2.07007E-19-4.45459E-19
 -1      3883 9.53124E-05-2.59139E-05-2.97392E-05 1.20640E-06 1.64015E-20-4.36188E-19
 -1      3884 9.45108E-05-2.73647E-05-2.87744E-05-7.43490E-07 1.22592E-18-2.37516E-18
 -1      3885 9.45717E-05-2.74496E-05-2.87677E-05 8.21170E-07-7.76645E-20 6.10867E-19
 -1      3886 9.43978E-05-2.72745E-05-2.87686E-05-6.25272E-07 1.08647E-18 2.01567E-19
 -1      3887 6.18539E-05-1.91888E-05-1.79421E-05-1.95976E-05-2.12293E-18-1.69137E-18
 -1      3888 6.89975E-05-2.35710E-05-1.95084E-05-2.27136E-05-1.91492E-18-1.26181E-18
 -1      3889 6.29439E-05-1.75210E-05-1.92948E-05-1.45705E-05-1.29489E-18-1.28355E-18
 -1      3890 9.42482E-05-2.71711E-05-2.87487E-05-4.51932E-08-5.76453E-19-1.03842E-18
 -1      3891 9.42526E-05-2.71808E-05-2.87478E-05 9.99609E-08-6.83828E-19-3.42002E-18
 -1      3892 9.53806E-05-2.71438E-05-2.92456E-05-2.80457E-06-2.50231E-19-3.71331E-19
 -1      3893 6.11498E-05-1.40153E-05-2.00431E-05 4.39486E-06-7.37511E-19-1.28359E-18
 -1      3894 6.54393E-05-1.49727E-05-2.15629E-05 1.33605E-06-5.96870E-19-1.11567E-18
 -1      3895 6.52798E-05-1.65651E-05-2.09470E-05 1.06931E-05 1.86536E-19-8.20603E-19
 -1      3896 9.44899E-05-2.25677E-05-3.08323E-05 4.99362E-07 2.60485E-19-7.88541E-19
 -1      3897 9.43864E-05-2.23665E-05-3.08740E-05 2.65151E-07 3.01826E-20-8.98060E-19
 -1      3898 9.42322E-05-2.18162E-05-3.10189E-05 1.16946E-06 5.62558E-19-9.42858E-19
 -1      3899 9.56468E-05-2.59965E-05-2.98467E-05-7.46270E-07 5.06703E-19-1.99874E-19
 -1      3900 9.55043E-05-2.53682E-05-3.00541E-05-4.15455E-07 4.83447E-19-2.39888E-19
 -1      3901 9.56440E-05-2.63628E-05-2.96967E-05-1.25517E-06 2.46289E-19-3.39896E-19
 -1      3902 9.26182E-05-2.59379E-05-2.85792E-05-5.83317E-06-2.81163E-19-5.58495E-19
 -1      3903 9.35632E-05-2.64570E-05-2.87497E-05-5.74694E-06-4.40447E-19 2.64346E-19
 -1      3904 9.36234E-05-2.64280E-05-2.88040E-05-5.31806E-06-3.20684E-19-1.79524E-19
 -1      3905 9.44226E-05-2.73176E-05-2.87604E-05 6.89110E-07-1.00844E-19-1.35588E-18
 -1      3906 9.42832E-05-2.71240E-05-2.87788E-05 8.99935E-07-1.17327E-18-6.97996E-19
 -1      3907 9.43214E-05-2.72269E-05-2.87572E-05 5.80074E-07-1.74624E-19-2.70623E-18
 -1      3908 9.32839E-05-2.68924E-05-2.84561E-05-7.36895E-06 2.59601E-20 3.07296E-20
 -1      3909 9.22442E-05-2.61399E-05-2.83372E-05-6.99733E-06 1.09139E-19-4.58987E-19
 -1      3910 9.35830E-05-2.73501E-05-2.83669E-05-7.88345E-06-1.09438E-19-1.94893E-19
 -1      3911 9.65403E-05-4.00036E-05-2.42527E-05-2.28884E-05-1.65269E-18-1.33224E-18
 -1      3912 1.03398E-04-4.49732E-05-2.49475E-05-2.25640E-05-1.52019E-18-9.10309E-19
 -1      3913 1.06607E-04-4.54976E-05-2.61067E-05-1.86336E-05-1.01214E-18-9.37048E-19
 -1      3914 9.78246E-05-3.50576E-05-2.69700E-05-1.37506E-05-1.15694E-18-1.24919E-18
 -1      3915 7.47226E-05-1.85309E-05-2.39323E-05-1.10098E-05-1.12389E-18-1.10923E-18
 -1      3916 9.43181E-05-2.72253E-05-2.87544E-05-3.64123E-07 1.09146E-18 1.38836E-18
 -1      3917 9.42693E-05-2.71888E-05-2.87517E-05-2.25922E-07-1.69927E-21 1.19769E-18
 -1      3918 9.41153E-05-2.70101E-05-2.87565E-05-1.46294E-07 5.16478E-19-2.15022E-19
 -1      3919 9.48150E-05-2.68616E-05-2.91197E-05-3.42934E-06-2.15007E-19-5.17646E-19
 -1      3920 9.49708E-05-2.68993E-05-2.91758E-05-3.08533E-06-2.73419E-19-6.07146E-19
 -1      3921 6.45903E-05-1.50104E-05-2.11393E-05 2.31005E-06 3.52432E-19-1.00720E-18
 -1      3922 6.00615E-05-1.39021E-05-1.95947E-05-2.41420E-06-3.38630E-19-1.26139E-18
 -1      3923 1.04039E-04-4.28680E-05-2.62345E-05-1.75531E-05-1.12400E-18-7.73905E-19
 -1      3924 9.44695E-05-2.25359E-05-3.08398E-05-5.19375E-07-2.48236E-19-1.25485E-18
 -1      3925 9.49028E-05-2.34892E-05-3.05904E-05-2.81312E-07-3.15283E-19-1.16015E-18
 -1      3926 9.43745E-05-2.23449E-05-3.08785E-05-2.79313E-07-2.05827E-19-1.39329E-18
 -1      3927 9.26471E-05-2.81797E-05-2.76456E-05 9.95108E-06 1.94564E-19 2.38192E-18
 -1      3928 9.44642E-05-2.73897E-05-2.87429E-05 2.93087E-07-1.36479E-18-3.55956E-18
 -1      3929 9.43676E-05-2.66866E-05-2.90010E-05-4.11814E-06-1.79198E-21-5.25019E-19
 -1      3930 9.45255E-05-2.67590E-05-2.90469E-05-3.76374E-06-7.45090E-20-5.80251E-19
 -1      3931 9.43946E-05-2.65140E-05-2.90901E-05-3.34718E-06-1.43539E-19-8.99661E-19
 -1      3932 9.51920E-05-2.42214E-05-3.04071E-05-3.80225E-07-4.61158E-19-9.30299E-19
 -1      3933 9.71459E-05-3.44260E-05-2.69186E-05 1.37392E-05 6.65682E-19-1.91969E-19
 -1      3934 6.14731E-05-1.48929E-05-1.99418E-05-6.66494E-06-4.05815E-19-7.73897E-19
 -1      3935 9.43771E-05-2.87294E-05-2.81104E-05-9.13448E-06-5.81330E-19-1.46407E-19
 -1      3936 9.37202E-05-2.78820E-05-2.82131E-05-8.61341E-06-2.27179E-19-9.36444E-20
 -1      3937 9.22316E-05-2.68556E-05-2.80342E-05-8.40209E-06-1.74303E-19-2.41307E-19
 -1      3938 8.26627E-05-3.32099E-05-2.10555E-05-2.70777E-05-1.78086E-18-1.10421E-18
 -1      3939 8.54398E-05-2.79939E-05-2.46129E-05 1.68734E-05 1.18675E-18-4.70818E-19
 -1      3940 8.05503E-05-2.50798E-05-2.36316E-05 1.71773E-05 7.39959E-19-1.45403E-18
 -1      3941 7.59360E-05-2.26640E-05-2.28654E-05 1.61277E-05 3.28973E-19-1.05630E-18
 -1      3942 6.96496E-05-1.87358E-05-2.16410E-05 1.37338E-05 2.72509E-19-7.09701E-19
 -1      3943 7.03279E-05-1.77802E-05-2.25477E-05 9.88000E-06-9.96488E-20-7.71290E-19
 -1      3944 7.77697E-05-2.23041E-05-2.38676E-05 1.39238E-05 2.75949E-19-1.18511E-18
 -1      3945 9.45315E-05-2.26207E-05-3.08297E-05 6.68412E-07 3.48440E-19-9.02902E-19
 -1      3946 9.48500E-05-2.33292E-05-3.06372E-05 3.11948E-07 2.54621E-19-6.45539E-19
 -1      3947 9.45797E-05-2.26905E-05-3.08154E-05 9.41564E-07 5.11911E-19-8.25682E-19
 -1      3948 9.28528E-05-2.83532E-05-2.76732E-05-1.00605E-05-7.36922E-19-2.85363E-19
 -1      3949 9.55051E-05-2.68000E-05-2.94466E-05-2.06142E-06-3.97181E-20-4.50779E-19
 -1      3950 9.55879E-05-2.66242E-05-2.95542E-05-1.64669E-06 1.00196E-19-4.37210E-19
 -1      3951 9.55419E-05-2.61908E-05-2.97189E-05-1.28836E-06 2.68452E-19-2.19315E-19
 -1      3952 9.52104E-05-2.69316E-05-2.92613E-05-2.76331E-06-2.35231E-19-6.22671E-19
 -1      3953 9.53414E-05-2.68872E-05-2.93378E-05-2.40166E-06-1.08275E-19-5.39866E-19
 -1      3954 9.53226E-05-2.65773E-05-2.94602E-05-2.02499E-06-2.55800E-21-6.81690E-19
 -1      3955 9.49214E-05-2.66493E-05-2.92576E-05-2.69080E-06-2.23926E-19-9.10738E-19
 -1      3956 6.94178E-05-1.68931E-05-2.25587E-05 8.76315E-06 1.19956E-19-1.07835E-18
 -1      3957 9.39890E-05-3.25809E-05-2.62741E-05 1.49149E-05 6.79605E-19-4.58774E-19
 -1      3958 8.96233E-05-3.04635E-05-2.52942E-05 1.68206E-05 8.42282E-19-1.79113E-19
 -1      3959 8.56699E-05-2.71245E-05-2.51988E-05 1.51141E-05 1.01483E-18-1.19607E-18
 -1      3960 9.28313E-05-3.12335E-05-2.64659E-05 1.40289E-05 9.49485E-19-3.83178E-19
 -1      3961 9.33950E-05-2.54747E-05-2.91145E-05 2.11013E-06-1.63669E-19-6.14516E-19
 -1      3962 9.28652E-05-2.51687E-05-2.90172E-05 2.32469E-06-8.66825E-20-5.58918E-19
 -1      3963 9.21941E-05-2.47798E-05-2.88998E-05 2.45074E-06-8.16563E-20-7.06645E-19
 -1      3964 9.15280E-05-2.43621E-05-2.87914E-05 2.65900E-06-1.88593E-19-7.39771E-19
 -1      3965 9.23406E-05-2.47927E-05-2.89370E-05 1.74098E-06-3.42241E-19-6.11179E-19
 -1      3966 9.06969E-05-2.38685E-05-2.86517E-05 2.77233E-06-2.01953E-19-5.58403E-19
 -1      3967 8.98759E-05-2.33634E-05-2.85136E-05 2.98284E-06-3.34196E-19-6.43621E-19
 -1      3968 9.08581E-05-2.39156E-05-2.86737E-05 1.91961E-06-1.83373E-19-1.21699E-18
 -1      3969 8.88595E-05-2.27908E-05-2.83301E-05 3.08681E-06-4.90044E-19-4.22784E-19
 -1      3970 8.78572E-05-2.22266E-05-2.81385E-05 3.30959E-06-4.61054E-19-1.45993E-19
 -1      3971 8.90367E-05-2.28513E-05-2.83439E-05 2.04686E-06-1.98829E-19-5.60722E-19
 -1      3972 8.66119E-05-2.15998E-05-2.78831E-05 3.40515E-06-5.49056E-19-2.74761E-19
 -1      3973 8.53865E-05-2.10047E-05-2.76070E-05 3.66015E-06-5.47071E-19-5.52432E-19
 -1      3974 8.68137E-05-2.16490E-05-2.78980E-05 2.12235E-06-5.21338E-19-1.41191E-19
 -1      3975 8.38396E-05-2.03449E-05-2.72422E-05 3.75574E-06-6.98736E-19-4.68917E-19
 -1      3976 8.23289E-05-1.97425E-05-2.68395E-05 4.08707E-06-6.61265E-19-8.43642E-19
 -1      3977 8.40783E-05-2.03504E-05-2.72701E-05 2.14068E-06-8.58429E-19-8.73098E-19
 -1      3978 8.03429E-05-1.90657E-05-2.63090E-05 4.23606E-06-8.03672E-20-7.97608E-19
 -1      3979 7.84708E-05-1.85072E-05-2.57164E-05 4.73576E-06 2.05571E-19-6.75006E-19
 -1      3980 8.06283E-05-1.89504E-05-2.63693E-05 2.10764E-06-2.48011E-19-3.09363E-19
 -1      3981 7.58216E-05-1.77822E-05-2.49346E-05 5.01613E-06 1.84772E-19-9.02396E-19
 -1      3982 7.36117E-05-1.73064E-05-2.40863E-05 5.80884E-06 1.02553E-19-1.19163E-18
 -1      3983 7.61284E-05-1.74850E-05-2.50518E-05 2.17734E-06 2.92532E-20-6.09293E-19
 -1      3984 7.52391E-05-1.75984E-05-2.47237E-05-6.35031E-06-9.75714E-19-1.27006E-18
 -1      3985 7.73026E-05-1.79562E-05-2.54943E-05-5.43097E-06-4.08224E-19-1.23451E-18
 -1      3986 9.11191E-05-2.74842E-05-2.72354E-05-1.05265E-05-5.48211E-19-7.85523E-19
 -1      3987 9.05785E-05-2.65638E-05-2.74453E-05-9.59409E-06-3.00651E-19-4.61810E-19
 -1      3988 9.24989E-05-3.00815E-05-2.66965E-05-1.29493E-05-8.46363E-19-9.56378E-19
 -1      3989 9.12891E-05-2.84990E-05-2.69131E-05-1.18897E-05-7.01404E-19-7.81421E-19
 -1      3990 8.87817E-05-2.66111E-05-2.66688E-05-1.14270E-05-4.99897E-19-1.13434E-18
 -1      3991 7.82453E-05-2.85414E-05-2.10139E-05-2.46404E-05-1.99405E-18-8.78717E-19
 -1      3992 8.76232E-05-3.40241E-05-2.29997E-05-2.37914E-05-1.89320E-18-8.64834E-19
 -1      3993 7.58276E-05-2.52682E-05-2.15549E-05-2.06274E-05-1.71565E-18-1.20441E-18
 -1      3994 7.96327E-05-1.85834E-05-2.61816E-05-5.04625E-06-6.48503E-19-1.17926E-18
 -1      3995 8.12512E-05-1.90732E-05-2.66908E-05-4.47580E-06-5.87491E-19-8.89073E-19
 -1      3996 7.73091E-05-1.75162E-05-2.55413E-05-2.86212E-06-3.68445E-19-3.71950E-19
 -1      3997 8.30028E-05-1.96859E-05-2.71508E-05-4.23092E-06-8.73203E-19-3.50352E-19
 -1      3998 8.42992E-05-2.02206E-05-2.74909E-05-3.82555E-06-1.35678E-18 8.40655E-20
 -1      3999 8.12691E-05-1.88444E-05-2.66979E-05-2.57709E-06-1.99216E-19-6.76257E-19
 -1      4000 8.56588E-05-2.08234E-05-2.77989E-05-3.63353E-06-1.83475E-18 1.28003E-18
 -1      4001 8.67021E-05-2.13639E-05-2.80219E-05-3.30643E-06-1.56698E-18 8.17071E-19
 -1      4002 8.43071E-05-2.01078E-05-2.74743E-05-2.37347E-06-1.02807E-18 9.89942E-19
 -1      4003 8.77758E-05-2.19396E-05-2.82254E-05-3.12967E-06-1.47027E-18 5.05206E-19
 -1      4004 8.86139E-05-2.24592E-05-2.83669E-05-2.84127E-06-7.58439E-19 2.03117E-19
 -1      4005 8.66922E-05-2.13088E-05-2.79936E-05-2.17891E-06-1.58136E-18 1.10464E-18
 -1      4006 8.94729E-05-2.29966E-05-2.84972E-05-2.66953E-06 2.28183E-19-3.25900E-19
 -1      4007 9.01423E-05-2.34780E-05-2.85821E-05-2.40797E-06 2.74890E-19-5.48442E-19
 -1      4008 8.85939E-05-2.24307E-05-2.83346E-05-1.95072E-06-6.96332E-19 1.62746E-18
 -1      4009 9.08283E-05-2.39639E-05-2.86615E-05-2.24312E-06 8.53288E-19-1.11500E-18
 -1      4010 9.13580E-05-2.43943E-05-2.87080E-05-2.00597E-06 1.02566E-18-1.18360E-18
 -1      4011 9.01163E-05-2.34626E-05-2.85500E-05-1.70537E-06 2.41264E-19 1.23808E-19
 -1      4012 9.19032E-05-2.48224E-05-2.87526E-05-1.84972E-06 1.06607E-18-8.76834E-19
 -1      4013 9.23189E-05-2.51986E-05-2.87734E-05-1.63807E-06 1.68784E-18-4.10606E-19
 -1      4014 9.13305E-05-2.43850E-05-2.86787E-05-1.45377E-06 1.22097E-18-1.33139E-18
 -1      4015 9.27488E-05-2.55670E-05-2.87945E-05-1.49698E-06 1.56085E-18 4.66112E-19
 -1      4016 9.30707E-05-2.58867E-05-2.87990E-05-1.31230E-06 6.35835E-19 7.70702E-19
 -1      4017 9.22936E-05-2.51925E-05-2.87480E-05-1.20619E-06 2.31759E-18-2.89977E-19
 -1      4018 9.34058E-05-2.61979E-05-2.88050E-05-1.18579E-06 1.00946E-19 1.43917E-18
 -1      4019 9.36542E-05-2.64657E-05-2.87998E-05-1.02948E-06 6.58452E-19 1.08300E-18
 -1      4020 9.30477E-05-2.58807E-05-2.87779E-05-9.78150E-07 9.23689E-19-2.94101E-19
 -1      4021 9.39114E-05-2.67199E-05-2.87968E-05-9.20817E-07 1.23847E-18 6.77325E-19
 -1      4022 9.40966E-05-2.69369E-05-2.87858E-05-7.89205E-07 1.63169E-18 3.25247E-19
 -1      4023 9.36335E-05-2.64638E-05-2.87830E-05-7.70692E-07 5.44097E-19 1.07405E-18
 -1      4024 9.22730E-05-3.61976E-05-2.39097E-05-2.26095E-05-1.78142E-18-1.56342E-18
 -1      4025 9.61740E-05-3.78085E-05-2.49715E-05-2.00970E-05-1.51247E-18-1.66035E-18
 -1      4026 8.74132E-05-3.20284E-05-2.37736E-05-2.10181E-05-1.77698E-18-1.38360E-18
 -1      4027 9.09640E-05-2.46496E-05-2.84327E-05 4.72382E-06-5.98189E-19 1.05114E-18
 -1      4028 9.08020E-05-2.46594E-05-2.83359E-05 5.29491E-06-1.18700E-22 1.97190E-18
 -1      4029 9.39256E-05-2.65124E-05-2.88840E-05-4.88075E-06-2.35220E-19-1.29843E-19
 -1      4030 9.40540E-05-2.65638E-05-2.89298E-05-4.49494E-06-5.30997E-20-2.07473E-19
 -1      4031 9.37903E-05-2.62696E-05-2.89359E-05-4.05642E-06-2.85999E-19-7.99890E-19
 -1      4032 9.31732E-05-2.60372E-05-2.87723E-05-4.86726E-06-3.47464E-19-9.88251E-20
 -1      4033 6.91153E-05-1.60012E-05-2.27218E-05 4.93015E-06 3.06855E-19-9.57554E-19
 -1      4034 6.91596E-05-1.58692E-05-2.28818E-05-4.86673E-07 1.10906E-19-6.74208E-19
 -1      4035 9.49504E-05-2.35182E-05-3.06047E-05 6.35134E-07 4.33434E-19-7.66148E-19
 -1      4036 9.51580E-05-2.42489E-05-3.03943E-05-1.49821E-07-2.60542E-19-8.14455E-19
 -1      4037 9.04000E-05-2.46677E-05-2.81843E-05 5.98577E-06 6.85700E-20 2.43129E-18
 -1      4038 9.03740E-05-2.48883E-05-2.80487E-05 6.68006E-06-4.07101E-20 3.09354E-18
 -1      4039 8.95458E-05-2.39512E-05-2.81078E-05 5.30460E-06 3.88525E-19 1.93836E-18
 -1      4040 1.00742E-04-3.95912E-05-2.61548E-05-1.71562E-05-1.39136E-18-1.10906E-18
 -1      4041 7.10878E-05-1.70584E-05-2.31812E-05-7.91165E-06-1.00295E-18-1.13042E-18
 -1      4042 7.28970E-05-1.71503E-05-2.39787E-05-6.86777E-06-1.34683E-18-1.48748E-18
 -1      4043 6.74347E-05-1.49038E-05-2.23044E-05-3.96986E-06-9.76536E-19-1.74129E-18
 -1      4044 9.43207E-05-2.58958E-05-2.93284E-05 1.73905E-06-2.48424E-19-5.12319E-19
 -1      4045 9.39187E-05-2.57325E-05-2.92268E-05 1.96992E-06-2.04847E-19-4.61853E-19
 -1      4046 9.35201E-05-2.54304E-05-2.91721E-05 1.51732E-06-3.00888E-19-5.29993E-19
 -1      4047 9.00533E-05-2.51163E-05-2.78419E-05 7.56161E-06-7.34218E-19 2.60815E-18
 -1      4048 9.02634E-05-2.56725E-05-2.76612E-05 8.43248E-06-4.40293E-19 2.52721E-18
 -1      4049 8.88065E-05-2.41000E-05-2.77313E-05 6.85971E-06-2.28121E-19 1.00720E-18
 -1      4050 9.16131E-05-2.49017E-05-2.86014E-05 3.71255E-06-2.21115E-19 6.31896E-19
 -1      4051 9.13886E-05-2.47839E-05-2.85378E-05 4.18242E-06-7.56866E-19 4.41155E-19
 -1      4052 9.03821E-05-2.41548E-05-2.83769E-05 4.10118E-06-7.50003E-20 1.83451E-18
 -1      4053 9.22624E-05-2.53000E-05-2.87073E-05 2.90162E-06 2.89689E-19 3.55885E-19
 -1      4054 9.20213E-05-2.51145E-05-2.86699E-05 3.28708E-06 3.12116E-19 5.88950E-20
 -1      4055 9.12169E-05-2.45640E-05-2.85590E-05 3.16728E-06 3.51291E-19 7.81266E-20
 -1      4056 9.28609E-05-2.57575E-05-2.87661E-05 2.25049E-06 1.08986E-18 5.52782E-19
 -1      4057 9.26307E-05-2.55449E-05-2.87481E-05 2.56653E-06 8.71029E-19 7.25451E-19
 -1      4058 9.19930E-05-2.50701E-05-2.86743E-05 2.44185E-06 7.50616E-19 9.37723E-19
 -1      4059 9.33868E-05-2.62218E-05-2.87912E-05 1.72807E-06 1.38552E-19 9.14070E-19
 -1      4060 9.31809E-05-2.60066E-05-2.87868E-05 1.98526E-06 1.31301E-18 6.42973E-19
 -1      4061 9.26791E-05-2.56042E-05-2.87402E-05 1.86981E-06 1.01362E-18 1.57173E-18
 -1      4062 9.38308E-05-2.66562E-05-2.87938E-05 1.31250E-06-1.27690E-18 1.55367E-19
 -1      4063 9.36552E-05-2.64553E-05-2.87982E-05 1.51946E-06-1.12676E-18 3.99314E-19
 -1      4064 9.32643E-05-2.61209E-05-2.87709E-05 1.42215E-06-5.80815E-19 1.66303E-18
 -1      4065 9.41397E-05-2.69844E-05-2.87833E-05 1.01322E-06-9.12037E-19-1.24568E-19
 -1      4066 9.39931E-05-2.68060E-05-2.87923E-05 1.17746E-06-7.27158E-19-7.14459E-20
 -1      4067 9.36833E-05-2.65300E-05-2.87778E-05 1.09682E-06-6.71344E-19-1.06375E-18
 -1      4068 9.39799E-05-2.68430E-05-2.87735E-05 8.59098E-07-7.09356E-19-2.51988E-18
 -1      4069 9.42145E-05-2.70716E-05-2.87741E-05-6.10941E-07 1.64539E-18 1.64997E-19
 -1      4070 9.43346E-05-2.22690E-05-3.08950E-05 1.17809E-07-2.68906E-21-1.10157E-18
 -1      4071 9.43300E-05-2.22628E-05-3.08964E-05-1.34330E-07-1.48037E-19-1.25982E-18
 -1      4072 9.47698E-05-2.31764E-05-3.06631E-05 8.08529E-08 6.77440E-21-8.59416E-19
 -1      4073 9.08755E-05-2.79556E-05-2.70121E-05 1.13437E-05 3.35678E-19 2.69065E-19
 -1      4074 9.21320E-05-2.95168E-05-2.68019E-05 1.24169E-05 6.44173E-19-4.42432E-19
 -1      4075 8.90627E-05-2.77859E-05-2.62145E-05 1.32913E-05 4.28647E-19-1.56424E-18
 -1      4076 9.01781E-05-2.61486E-05-2.74592E-05 9.27342E-06-4.27687E-19 1.36157E-18
 -1      4077 9.07654E-05-2.71249E-05-2.72482E-05 1.02796E-05-1.47495E-19 1.02305E-18
 -1      4078 8.83809E-05-2.57067E-05-2.68351E-05 1.05694E-05-6.02712E-19-1.52384E-18
 -1      4079 8.83957E-05-2.47324E-05-2.73028E-05 8.65535E-06-1.30240E-18 2.00621E-19
 -1      4080 9.51385E-05-2.41199E-05-3.04433E-05 2.82439E-07 4.41749E-19-6.40635E-19
 -1      4081 9.62328E-05-3.60440E-05-2.58055E-05-1.72853E-05-1.30601E-18-1.43995E-18
 -1      4082 9.42322E-05-2.71529E-05-2.87499E-05 2.70168E-07-1.01533E-18-4.28707E-18
 -1      4083 9.42869E-05-2.72069E-05-2.87513E-05 4.05612E-07-6.26421E-19-3.08656E-18
 -1      4084 9.40807E-05-2.69581E-05-2.87633E-05 5.67680E-07 2.44839E-19-3.64898E-18
 -1      4085 9.40693E-05-2.69668E-05-2.87554E-05 2.11249E-07-1.79696E-19-3.50400E-18
 -1      4086 9.50708E-05-3.38852E-05-2.61685E-05-1.55357E-05-9.23100E-19-1.43025E-18
 -1      4087 9.29088E-05-3.14623E-05-2.63288E-05-1.44805E-05-8.47017E-19-1.08508E-18
 -1      4088 8.92883E-05-2.88957E-05-2.59275E-05-1.44834E-05-5.45962E-19-1.77836E-18
 -1      4089 9.06120E-05-3.20922E-05-2.50787E-05-1.80210E-05-8.93299E-19-1.73419E-18
 -1      4090 6.73704E-05-1.63488E-05-2.17803E-05-6.97231E-06-3.73356E-19-5.73170E-19
 -1      4091 6.42542E-05-1.62841E-05-2.03938E-05-1.02606E-05-4.99041E-19-7.20507E-19
 -1      4092 6.83257E-05-1.90282E-05-2.12061E-05-1.42169E-05-8.80362E-19-8.05171E-19
 -1      4093 9.51243E-05-2.42270E-05-3.03886E-05-6.72647E-08-2.32722E-19-1.05710E-18
 -1      4094 9.52845E-05-2.46671E-05-3.02546E-05 1.25711E-07-1.61783E-19-9.36942E-19
 -1      4095 9.53345E-05-2.52020E-05-3.00666E-05 5.09136E-07-6.38390E-20-7.71711E-19
 -1      4096 9.50169E-05-2.39923E-05-3.04477E-05-3.74887E-08-2.04229E-19-1.27662E-18
 -1      4097 9.46349E-05-2.64148E-05-2.92363E-05-2.51972E-06-2.66536E-19-1.00268E-18
 -1      4098 9.48738E-05-2.64434E-05-2.93305E-05-2.19881E-06-1.51178E-19-8.97598E-19
 -1      4099 7.00485E-05-1.62559E-05-2.29987E-05-3.04247E-06-6.18979E-20-6.50774E-19
 -1      4100 7.18001E-05-1.74802E-05-2.33334E-05-6.54108E-06-2.59983E-19-2.80504E-19
 -1      4101 7.39345E-05-1.71110E-05-2.43389E-05-6.10603E-07-3.59592E-20-4.71524E-19
 -1      4102 7.27621E-05-1.62037E-05-2.40790E-05-3.28193E-06-7.25640E-19-6.22520E-19
 -1      4103 8.89139E-05-2.52329E-05-2.73011E-05-8.90639E-06-8.81291E-20-4.79444E-19
 -1      4104 9.07868E-05-2.60602E-05-2.77144E-05-8.52782E-06-2.24732E-19-4.53373E-19
 -1      4105 9.06559E-05-2.55983E-05-2.78949E-05-7.74619E-06-7.62587E-20-1.99980E-20
 -1      4106 9.40052E-05-2.68797E-05-2.87696E-05-4.99401E-07 8.61007E-19 1.31710E-18
 -1      4107 8.61652E-05-2.59682E-05-2.57719E-05 1.29462E-05 5.99724E-19-1.20755E-18
 -1      4108 8.26042E-05-2.36257E-05-2.51892E-05 1.26882E-05 8.19771E-19-1.61401E-18
 -1      4109 8.56357E-05-2.47647E-05-2.61710E-05 1.13109E-05 2.27143E-19-1.41624E-18
 -1      4110 9.47608E-05-2.31617E-05-3.06662E-05-1.16425E-07-1.22178E-19-1.20028E-18
 -1      4111 6.81307E-05-1.55253E-05-2.25703E-05 1.20198E-06-4.95878E-19-2.51953E-19
 -1      4112 9.46951E-05-2.59924E-05-2.94497E-05 1.57462E-06-2.58058E-19-6.04337E-19
 -1      4113 9.44061E-05-2.57589E-05-2.94108E-05 1.24579E-06-1.73440E-19-7.77759E-19
 -1      4114 9.49774E-05-2.59859E-05-2.95676E-05 1.30839E-06-1.19239E-19-6.23335E-19
 -1      4115 9.49790E-05-2.39191E-05-3.04613E-05 5.18432E-09 8.00476E-20-7.32881E-19
 -1      4116 9.49297E-05-2.38268E-05-3.04815E-05-4.99201E-08-5.40359E-20-9.02598E-19
 -1      4117 9.52512E-05-2.50377E-05-3.00916E-05 3.81756E-07 4.10533E-20-1.14888E-18
 -1      4118 9.53264E-05-2.55067E-05-2.99145E-05 7.00087E-07 1.20038E-19-7.75703E-19
 -1      4119 7.96858E-05-2.19561E-05-2.47193E-05 1.16218E-05 6.13470E-20-1.23211E-18
 -1      4120 7.60709E-05-1.96347E-05-2.40676E-05 1.04128E-05 1.07606E-19-1.38478E-18
 -1      4121 8.03062E-05-2.13883E-05-2.53424E-05 9.75032E-06-1.71833E-19-5.06862E-19
 -1      4122 9.52111E-05-2.57818E-05-2.97633E-05 1.01280E-06 1.06129E-19-6.96014E-19
 -1      4123 9.38904E-05-2.67898E-05-2.87566E-05 8.93287E-08 9.01874E-19-3.03140E-18
 -1      4124 9.38539E-05-2.67583E-05-2.87582E-05 2.66704E-07 8.45936E-19-3.60140E-18
 -1      4125 9.39796E-05-2.61913E-05-2.90503E-05-3.13294E-06-7.08950E-20-7.50496E-19
 -1      4126 9.42713E-05-2.63061E-05-2.91328E-05-2.80220E-06-1.76445E-19-9.37368E-19
 -1      4127 9.42388E-05-2.60979E-05-2.91988E-05-2.30290E-06-1.82186E-19-8.00141E-19
 -1      4128 9.39315E-05-2.68167E-05-2.87629E-05-3.05059E-07 1.03834E-18 2.40987E-18
 -1      4129 9.38968E-05-2.67976E-05-2.87591E-05-1.12741E-07 6.73415E-19-3.68867E-19
 -1      4130 9.36848E-05-2.65743E-05-2.87614E-05-7.61228E-08 1.20512E-18-7.84751E-19
 -1      4131 9.37906E-05-2.66543E-05-2.87720E-05-4.82485E-07 4.51467E-19 1.32813E-18
 -1      4132 9.53757E-05-2.48494E-05-3.02228E-05-1.12056E-07 4.55093E-19-4.65440E-19
 -1      4133 9.51287E-05-2.41698E-05-3.04087E-05 7.77588E-08 3.72262E-19-6.48732E-19
 -1      4134 9.54604E-05-2.54036E-05-3.00313E-05-5.92679E-07 3.94332E-19-3.91889E-19
 -1      4135 9.16750E-05-2.53340E-05-2.84198E-05-5.65103E-06 9.77732E-20-6.55492E-19
 -1      4136 9.19194E-05-2.53648E-05-2.85343E-05-5.13050E-06-1.32429E-19-1.60505E-19
 -1      4137 9.50850E-05-2.41379E-05-3.04144E-05-2.91766E-08 2.35746E-19-4.48542E-19
 -1      4138 9.10658E-05-2.54378E-05-2.81085E-05-6.92075E-06-4.86995E-20-1.61990E-19
 -1      4139 9.11806E-05-2.52848E-05-2.82535E-05-6.28311E-06-6.70223E-22-5.77553E-19
 -1      4140 8.95742E-05-2.46778E-05-2.78113E-05-6.98864E-06-1.79718E-19-2.24560E-19
 -1      4141 9.04986E-05-2.46661E-05-2.82093E-05-5.54057E-06 6.59520E-20-3.15081E-19
 -1      4142 9.52275E-05-2.46336E-05-3.02465E-05-1.83897E-07 1.50328E-19-3.91082E-19
 -1      4143 9.25797E-05-2.49587E-05-2.89860E-05 1.00587E-06-3.63646E-19-8.05349E-19
 -1      4144 9.19078E-05-2.45816E-05-2.88626E-05 1.07782E-06-5.02893E-19-1.11059E-18
 -1      4145 9.49756E-05-2.39472E-05-3.04461E-05-4.30878E-08-1.13246E-19-1.23041E-18
 -1      4146 9.51963E-05-2.45682E-05-3.02557E-05 1.32025E-07-2.58982E-20-1.25246E-18
 -1      4147 9.51903E-05-2.50048E-05-3.00926E-05 3.05941E-07 1.32752E-19-1.28002E-18
 -1      4148 9.11575E-05-2.41535E-05-2.87222E-05 1.03966E-06-4.59417E-19-1.08707E-18
 -1      4149 9.03123E-05-2.36710E-05-2.85757E-05 1.06875E-06-2.19978E-19-1.10151E-18
 -1      4150 9.15151E-05-2.43337E-05-2.87744E-05 2.96148E-07-5.30642E-19-8.59700E-19
 -1      4151 8.94023E-05-2.31513E-05-2.84025E-05 1.00413E-06 1.43346E-19-1.34911E-18
 -1      4152 8.83781E-05-2.25947E-05-2.82118E-05 9.90313E-07 2.88392E-20-7.95234E-19
 -1      4153 8.98293E-05-2.33576E-05-2.84554E-05 1.19487E-07-1.25009E-19-1.21037E-18
 -1      4154 8.72831E-05-2.20244E-05-2.79814E-05 8.49613E-07-3.56444E-19-7.93659E-19
 -1      4155 8.60236E-05-2.14127E-05-2.77179E-05 7.76221E-07-6.82656E-19-8.07845E-19
 -1      4156 8.78592E-05-2.22951E-05-2.80489E-05-2.27027E-07-1.04573E-19-1.51349E-18
 -1      4157 8.46905E-05-2.07988E-05-2.73996E-05 5.47894E-07-5.23403E-19-7.54014E-19
 -1      4158 8.31260E-05-2.01525E-05-2.70255E-05 4.08250E-07-5.38592E-19-3.29128E-19
 -1      4159 8.54568E-05-2.11354E-05-2.74985E-05-7.92056E-07-2.04341E-19-1.11371E-18
 -1      4160 8.14817E-05-1.95328E-05-2.65766E-05 7.86238E-08-4.53934E-19 1.02217E-20
 -1      4161 7.95864E-05-1.88509E-05-2.60510E-05-1.36824E-07 8.63411E-21 1.10139E-19
 -1      4162 8.24658E-05-1.99193E-05-2.67310E-05-1.67706E-06-1.81426E-19-2.38969E-19
 -1      4163 7.63796E-05-1.78304E-05-2.51273E-05-3.58265E-07 1.93296E-20-4.26758E-19
 -1      4164 8.62905E-05-2.52395E-05-2.61259E-05-1.15049E-05-5.81984E-20-9.58941E-19
 -1      4165 8.61839E-05-2.44215E-05-2.64961E-05-1.00397E-05 5.60710E-20-5.36796E-19
 -1      4166 9.51394E-05-2.64283E-05-2.94487E-05-1.92927E-06 9.25451E-20-7.11384E-19
 -1      4167 9.53010E-05-2.63191E-05-2.95654E-05-1.58767E-06 1.70365E-19-4.76167E-19
 -1      4168 9.48681E-05-2.61962E-05-2.94265E-05-1.76285E-06 9.64296E-21-6.46904E-19
 -1      4169 7.40600E-05-2.22859E-05-2.20246E-05-1.72331E-05-1.43350E-18-1.13631E-18
 -1      4170 8.11199E-05-2.69516E-05-2.32699E-05-1.89618E-05-1.59027E-18-7.62197E-19
 -1      4171 7.46023E-05-2.09967E-05-2.28993E-05-1.36056E-05-6.64034E-19-5.04099E-19
 -1      4172 7.56873E-05-1.72685E-05-2.50850E-05-1.98790E-07-5.05967E-19 2.39611E-19
 -1      4173 7.80392E-05-1.79363E-05-2.57916E-05-2.45163E-07-6.09706E-19-6.32235E-20
 -1      4174 8.00223E-05-1.85854E-05-2.63698E-05-6.08746E-07-3.77566E-19-5.07474E-19
 -1      4175 8.17863E-05-1.92179E-05-2.68412E-05-6.59613E-07-3.81818E-19-3.20020E-19
 -1      4176 7.91672E-05-1.83443E-05-2.59889E-05 1.79186E-06-9.04912E-19-2.73309E-19
 -1      4177 8.33147E-05-1.98222E-05-2.72356E-05-9.14888E-07 1.27914E-19-1.80891E-19
 -1      4178 8.46662E-05-2.04209E-05-2.75530E-05-9.36528E-07-2.19940E-19 7.61447E-19
 -1      4179 8.25938E-05-1.95625E-05-2.69568E-05 9.09661E-07 3.22248E-19-3.99821E-19
 -1      4180 8.58521E-05-2.09873E-05-2.78222E-05-1.06018E-06-8.56594E-19 8.30397E-19
 -1      4181 8.69407E-05-2.15548E-05-2.80343E-05-1.03231E-06-3.78061E-19 1.57252E-18
 -1      4182 8.51694E-05-2.06522E-05-2.76111E-05 3.57084E-07-1.06526E-19 1.43855E-19
 -1      4183 8.78982E-05-2.21095E-05-2.82135E-05-1.10251E-06-8.64553E-19 1.55757E-18
 -1      4184 8.87693E-05-2.26404E-05-2.83506E-05-1.04457E-06-5.43100E-19 1.64602E-18
 -1      4185 8.73275E-05-2.17658E-05-2.80612E-05-3.46258E-08-1.30187E-19 1.43550E-18
 -1      4186 8.95407E-05-2.31496E-05-2.84665E-05-1.06333E-06-2.36899E-19 1.00558E-18
 -1      4187 9.02352E-05-2.36336E-05-2.85513E-05-9.82666E-07-1.67085E-19 3.03273E-19
 -1      4188 8.90433E-05-2.28055E-05-2.83587E-05-2.60613E-07-1.27642E-18-3.77974E-19
 -1      4189 9.08597E-05-2.40932E-05-2.86236E-05-9.67041E-07 4.33132E-19-2.78982E-20
 -1      4190 9.14151E-05-2.45239E-05-2.86727E-05-8.70853E-07 1.26508E-18-3.69725E-19
 -1      4191 9.04267E-05-2.37705E-05-2.85493E-05-3.71055E-07 1.86837E-19 7.92073E-19
 -1      4192 9.19175E-05-2.49349E-05-2.87130E-05-8.49037E-07 2.16522E-18-7.59914E-19
 -1      4193 9.23481E-05-2.53065E-05-2.87375E-05-7.54346E-07 2.34587E-18-5.73293E-19
 -1      4194 9.15716E-05-2.46525E-05-2.86672E-05-4.07259E-07 1.44253E-18 1.33952E-19
 -1      4195 9.27512E-05-2.56591E-05-2.87579E-05-7.12419E-07 2.09379E-18-1.01118E-18
 -1      4196 9.30901E-05-2.59743E-05-2.87669E-05-6.22452E-07 1.46215E-18-3.39530E-20
 -1      4197 9.24522E-05-2.53962E-05-2.87293E-05-3.77059E-07 1.99954E-18 1.95582E-20
 -1      4198 9.35320E-05-2.63986E-05-2.87742E-05-5.59559E-07 6.58240E-19 7.58194E-19
 -1      4199 8.42260E-05-2.85445E-05-2.37773E-05-1.90255E-05-1.34787E-18-1.21186E-18
 -1      4200 8.81040E-05-3.06395E-05-2.45885E-05-1.82524E-05-1.06569E-18-1.81960E-18
 -1      4201 8.71625E-05-2.87618E-05-2.50472E-05-1.63601E-05-2.19037E-19-1.76077E-18
 -1      4202 8.20564E-05-2.58255E-05-2.41266E-05-1.64348E-05-1.05947E-18-1.27313E-18
 -1      4203 9.08877E-05-2.43183E-05-2.85445E-05 2.48419E-06 7.07802E-19 2.61702E-19
 -1      4204 9.04873E-05-2.40485E-05-2.84692E-05 2.86406E-06 3.51235E-19 7.08436E-19
 -1      4205 8.62232E-05-2.43175E-05-2.65217E-05 1.00206E-05-9.79321E-19-1.19804E-18
 -1      4206 8.37288E-05-2.25751E-05-2.61465E-05 9.45301E-06-8.98544E-19 2.25794E-19
 -1      4207 8.62517E-05-2.37861E-05-2.67891E-05 8.98269E-06-1.85046E-18-9.48770E-19
 -1      4208 9.54363E-05-2.61304E-05-2.97065E-05-1.30173E-06 1.41311E-19-4.04396E-19
 -1      4209 9.54974E-05-2.58333E-05-2.98558E-05-9.09490E-07 2.97769E-19-4.07170E-19
 -1      4210 9.53758E-05-2.53361E-05-3.00131E-05-6.25634E-07 2.72226E-19-3.65737E-19
 -1      4211 9.52615E-05-2.59654E-05-2.96918E-05-1.21556E-06 2.93495E-19-4.85286E-19
 -1      4212 7.29333E-05-1.80785E-05-2.35062E-05 8.07900E-06-8.27611E-20-6.42709E-19
 -1      4213 6.99675E-05-1.60120E-05-2.29504E-05 5.13583E-06-1.95332E-19-1.19590E-19
 -1      4214 7.09875E-05-1.60928E-05-2.35878E-05 3.17246E-07-1.07301E-19-1.70565E-20
 -1      4215 7.49470E-05-1.81665E-05-2.44113E-05 6.38712E-06-4.14480E-19-1.04528E-19
 -1      4216 8.87558E-05-2.32965E-05-2.80787E-05 4.33509E-06 5.87493E-19 4.51167E-19
 -1      4217 8.83687E-05-2.32056E-05-2.79128E-05 4.97822E-06 5.19000E-19 6.75151E-19
 -1      4218 8.75928E-05-2.30830E-05-2.76794E-05 5.75332E-06 1.06868E-19 2.01664E-19
 -1      4219 8.73120E-05-2.31940E-05-2.74576E-05 6.59154E-06-8.34632E-19-3.26722E-19
 -1      4220 8.69185E-05-2.23452E-05-2.76510E-05 4.72842E-06-9.55493E-20-9.55453E-19
 -1      4221 9.17923E-05-2.49369E-05-2.86617E-05 1.87639E-06 3.41194E-19 1.48850E-18
 -1      4222 9.14195E-05-2.46478E-05-2.86158E-05 2.16709E-06 5.78894E-19 4.26147E-19
 -1      4223 9.07536E-05-2.41276E-05-2.85329E-05 1.90777E-06 5.85239E-19 4.51272E-19
 -1      4224 9.25532E-05-2.55367E-05-2.87283E-05 1.41514E-06 8.43834E-20 1.97108E-18
 -1      4225 9.22290E-05-2.52520E-05-2.87040E-05 1.64674E-06 6.48095E-19 1.55681E-18
 -1      4226 9.17361E-05-2.48467E-05-2.86539E-05 1.39314E-06 2.68238E-19 9.83429E-19
 -1      4227 9.31874E-05-2.60931E-05-2.87599E-05 1.06080E-06 1.66360E-19-5.86144E-19
 -1      4228 9.29164E-05-2.58317E-05-2.87504E-05 1.24079E-06 7.48729E-19 9.46031E-19
 -1      4229 9.25276E-05-2.54950E-05-2.87204E-05 1.02160E-06 6.87690E-19-8.41409E-19
 -1      4230 9.37061E-05-2.55144E-05-2.92300E-05 9.01762E-07-2.72001E-19-1.02136E-18
 -1      4231 9.31889E-05-2.52710E-05-2.91124E-05 1.00820E-06-2.41736E-19-7.92655E-19
 -1      4232 9.28544E-05-2.50601E-05-2.90431E-05 3.73412E-07-4.20361E-19-1.02105E-18
 -1      4233 9.49375E-05-2.38724E-05-3.04648E-05-5.56645E-10-4.41264E-20-1.19749E-18
 -1      4234 8.98719E-05-2.37483E-05-2.83581E-05 3.28072E-06 5.44574E-21-1.94801E-21
 -1      4235 8.94578E-05-2.35387E-05-2.82432E-05 3.77131E-06 4.44036E-19 7.06749E-19
 -1      4236 8.96453E-05-2.34413E-05-2.83447E-05 2.57833E-06 2.35117E-19-7.91586E-19
 -1      4237 9.51398E-05-2.44638E-05-3.02740E-05-3.13867E-08 4.94442E-20-1.06119E-18
 -1      4238 9.50344E-05-2.56572E-05-2.97295E-05 8.19843E-07-1.73301E-20-8.68855E-19
 -1      4239 9.38718E-05-2.67610E-05-2.87603E-05 4.71273E-07 3.11274E-19-3.32369E-18
 -1      4240 9.38968E-05-2.67839E-05-2.87660E-05 6.58100E-07 1.94169E-19-3.31371E-18
 -1      4241 9.37582E-05-2.66283E-05-2.87690E-05 7.64628E-07-2.75665E-19-2.40824E-18
 -1      4242 9.36737E-05-2.65647E-05-2.87600E-05 3.47983E-07 6.83485E-19-2.74793E-18
 -1      4243 8.93786E-05-2.39605E-05-2.80243E-05-5.09331E-06 5.28304E-20-1.83745E-19
 -1      4244 8.98706E-05-2.41090E-05-2.82051E-05-4.51215E-06 1.35912E-19-1.72099E-19
 -1      4245 9.52835E-05-2.51440E-05-3.00628E-05-4.76576E-07 1.33768E-19-4.23910E-19
 -1      4246 9.15194E-05-2.49565E-05-2.85202E-05-4.43869E-06-3.22491E-19-2.96792E-19
 -1      4247 9.24345E-05-2.55298E-05-2.86656E-05-4.64138E-06-5.02932E-19-2.25977E-19
 -1      4248 9.27279E-05-2.56537E-05-2.87588E-05-4.21624E-06-4.37167E-19-4.73805E-19
 -1      4249 7.33514E-05-1.66823E-05-2.43396E-05 2.96735E-07 1.60233E-19 3.70279E-19
 -1      4250 9.51562E-05-2.49731E-05-3.00808E-05 1.05496E-07 1.05244E-19-1.17601E-18
 -1      4251 9.51869E-05-2.53372E-05-2.99257E-05 3.05711E-07 2.29587E-19-1.18801E-18
 -1      4252 9.46122E-05-2.60451E-05-2.93867E-05-1.52915E-06-7.52062E-20-2.99029E-19
 -1      4253 9.48765E-05-2.60332E-05-2.95106E-05-1.26089E-06 2.21590E-19-2.18890E-19
 -1      4254 8.70126E-05-2.41483E-05-2.69221E-05-8.68193E-06-3.86645E-20-4.94199E-19
 -1      4255 8.72286E-05-2.37932E-05-2.72237E-05-7.62030E-06 6.00546E-20-2.80643E-19
 -1      4256 8.45771E-05-2.29305E-05-2.64332E-05-8.63178E-06 1.06801E-19-2.07515E-19
 -1      4257 7.50283E-05-1.71790E-05-2.46791E-05 3.12953E-06-4.30370E-19 1.07351E-18
 -1      4258 9.49680E-05-2.56431E-05-2.97198E-05 5.46826E-07-1.97283E-20-1.10830E-18
 -1      4259 9.33024E-05-2.61854E-05-2.87598E-05-3.19135E-07 1.48687E-18-3.13316E-19
 -1      4260 8.21507E-05-2.11493E-05-2.62002E-05 7.37712E-06-1.33721E-18 4.16491E-19
 -1      4261 8.16076E-05-2.13494E-05-2.58222E-05 8.48200E-06-2.94891E-19 4.00746E-19
 -1      4262 7.92215E-05-1.97196E-05-2.54170E-05 7.34164E-06-1.20336E-18 2.67805E-19
 -1      4263 9.32294E-05-2.58545E-05-2.88686E-05-3.81136E-06-5.14158E-19-6.06859E-19
 -1      4264 9.35476E-05-2.60095E-05-2.89506E-05-3.44504E-06-2.93857E-19-7.17663E-19
 -1      4265 9.34531E-05-2.58006E-05-2.89887E-05-2.89561E-06-2.76653E-19-5.18586E-19
 -1      4266 9.24954E-05-2.53465E-05-2.87697E-05-3.58292E-06-6.17443E-19-3.01199E-19
 -1      4267 7.79336E-05-1.85160E-05-2.54035E-05-2.63822E-06-2.80692E-19-1.70838E-19
 -1      4268 8.83623E-05-2.28127E-05-2.80609E-05 3.48669E-06 2.52616E-19-1.30384E-18
 -1      4269 9.41715E-05-2.56880E-05-2.93574E-05 8.74255E-07-1.82642E-19-1.00480E-18
 -1      4270 9.38954E-05-2.55081E-05-2.92993E-05 3.82280E-07-2.40654E-19-1.06808E-18
 -1      4271 9.45583E-05-2.57666E-05-2.94820E-05 7.29611E-07-2.33701E-19-1.04035E-18
 -1      4272 9.35698E-05-2.64537E-05-2.87672E-05 8.38541E-07 1.08645E-19-2.22011E-18
 -1      4273 9.34085E-05-2.62838E-05-2.87670E-05 9.65321E-07 8.68044E-20-1.45694E-18
 -1      4274 9.31020E-05-2.60099E-05-2.87503E-05 7.79336E-07 1.36050E-18-1.80320E-18
 -1      4275 9.35102E-05-2.63974E-05-2.87603E-05 6.30062E-07 5.18391E-19-1.94222E-18
 -1      4276 8.85356E-05-2.37840E-05-2.77808E-05-5.82318E-06 3.00997E-20-2.83154E-19
 -1      4277 8.80059E-05-2.30904E-05-2.77757E-05-4.70648E-06 1.78326E-19-3.92117E-20
 -1      4278 8.81333E-05-2.38112E-05-2.75469E-05-6.59376E-06-3.43404E-21-2.75859E-19
 -1      4279 8.95825E-05-2.36702E-05-2.82181E-05-3.55214E-06-1.06246E-19-1.01468E-19
 -1      4280 9.06423E-05-2.43756E-05-2.83910E-05-3.97531E-06-1.04696E-19-1.30302E-19
 -1      4281 9.11336E-05-2.45994E-05-2.85313E-05-3.51924E-06-4.89699E-19-1.09635E-19
 -1      4282 8.64026E-05-2.33626E-05-2.70312E-05 8.03587E-06-2.25351E-18 2.56111E-19
 -1      4283 9.51516E-05-2.49537E-05-3.00966E-05-4.46440E-08 1.56410E-19-9.01286E-19
 -1      4284 9.38755E-05-2.58525E-05-2.91515E-05-1.98558E-06-4.35481E-19-3.91003E-19
 -1      4285 9.42384E-05-2.59751E-05-2.92615E-05-1.72101E-06-4.29156E-19-3.27398E-19
 -1      4286 9.42810E-05-2.58009E-05-2.93409E-05-1.22045E-06-1.17060E-19-1.94089E-19
 -1      4287 9.34828E-05-2.63766E-05-2.87567E-05 1.63420E-07 1.75371E-18-2.32786E-18
 -1      4288 9.34766E-05-2.63820E-05-2.87577E-05 3.85244E-07 3.99577E-19-1.54117E-18
 -1      4289 9.32865E-05-2.61959E-05-2.87549E-05 4.41144E-07 9.99339E-19-1.90568E-18
 -1      4290 9.34902E-05-2.63865E-05-2.87599E-05-6.15898E-08 1.76549E-18-6.89790E-19
 -1      4291 9.52321E-05-2.57190E-05-2.97959E-05-7.66273E-07 2.07926E-19-3.13206E-19
 -1      4292 9.51563E-05-2.51196E-05-3.00094E-05-3.44947E-07 1.37134E-19-4.43780E-19
 -1      4293 9.51186E-05-2.54996E-05-2.98308E-05-2.50466E-07 1.51325E-19-7.64338E-19
 -1      4294 9.50994E-05-2.59155E-05-2.96513E-05-1.05171E-06 2.47504E-19-4.35795E-19
 -1      4295 8.52496E-05-2.22328E-05-2.69854E-05 6.78378E-06-1.72132E-18-1.69593E-18
 -1      4296 7.57794E-05-1.88350E-05-2.43743E-05-6.76487E-06-1.40985E-19-6.60280E-20
 -1      4297 7.37003E-05-1.91167E-05-2.33293E-05-1.02541E-05-2.83449E-19-5.24796E-20
 -1      4298 9.48815E-05-2.57946E-05-2.96072E-05-8.19341E-07 1.19579E-19-3.29763E-19
 -1      4299 9.19349E-05-2.46482E-05-2.88426E-05-4.14857E-07-6.05118E-19-5.79393E-19
 -1      4300 9.11472E-05-2.42270E-05-2.86967E-05-4.89971E-07-3.99254E-19-4.71790E-19
 -1      4301 9.03792E-05-2.38846E-05-2.85039E-05-1.41427E-06-3.68509E-19-3.83487E-19
 -1      4302 8.94437E-05-2.34205E-05-2.83240E-05-1.61695E-06-1.58828E-19-4.25433E-19
 -1      4303 8.86168E-05-2.30409E-05-2.81266E-05-2.05786E-06 2.02523E-20-5.00458E-19
 -1      4304 8.75040E-05-2.25273E-05-2.78901E-05-2.35224E-06-3.12467E-21-5.36446E-19
 -1      4305 8.65946E-05-2.21965E-05-2.76301E-05-2.97591E-06-5.19242E-20-4.49225E-19
 -1      4306 8.52659E-05-2.16831E-05-2.73074E-05-3.42674E-06 3.08307E-20-2.31303E-19
 -1      4307 8.42918E-05-2.14555E-05-2.69602E-05-4.28971E-06 1.75717E-19-4.01170E-19
 -1      4308 8.27797E-05-2.09847E-05-2.65262E-05-4.96802E-06-1.16699E-19-1.81884E-19
 -1      4309 8.56164E-05-2.60117E-05-2.55730E-05-1.33761E-05-5.83856E-19-1.60355E-18
 -1      4310 8.29428E-05-2.37335E-05-2.54022E-05-1.18771E-05-1.54823E-19-6.77499E-19
 -1      4311 7.72269E-05-1.86479E-05-2.51275E-05 5.41234E-06-1.09283E-18-1.91406E-19
 -1      4312 7.81380E-05-2.22881E-05-2.40037E-05-1.31287E-05-4.78653E-19-2.86052E-19
 -1      4313 9.48001E-05-2.55680E-05-2.96634E-05 2.10424E-07-4.55590E-21-1.18536E-18
 -1      4314 9.17392E-05-2.48737E-05-2.86642E-05 8.46527E-07 3.43185E-19 5.70072E-19
 -1      4315 9.12642E-05-2.44868E-05-2.86146E-05 1.03284E-06 9.20750E-19 8.98577E-19
 -1      4316 8.21802E-05-1.97983E-05-2.67855E-05 2.67220E-06-1.01908E-19-3.89702E-19
 -1      4317 8.36212E-05-2.02708E-05-2.71625E-05 2.20653E-06-3.10220E-19-4.65870E-19
 -1      4318 8.55744E-05-2.12814E-05-2.75856E-05 2.48688E-06-2.45201E-19-7.47339E-19
 -1      4319 8.67410E-05-2.17864E-05-2.78494E-05 2.11158E-06-1.32669E-20-1.19098E-18
 -1      4320 8.74759E-05-2.21501E-05-2.80295E-05 1.64536E-06-6.23450E-20-5.97464E-19
 -1      4321 8.84185E-05-2.26326E-05-2.82073E-05 1.41545E-06-3.94197E-19-1.26583E-18
 -1      4322 8.90682E-05-2.30271E-05-2.83297E-05 1.08209E-06-6.87829E-19-2.63792E-19
 -1      4323 8.98402E-05-2.34892E-05-2.84467E-05 9.44880E-07-4.88646E-19-5.21798E-20
 -1      4324 9.11646E-05-2.43925E-05-2.86229E-05 3.59546E-08 1.61283E-18 4.75386E-19
 -1      4325 9.16800E-05-2.47947E-05-2.86708E-05 1.13659E-08 1.69449E-18 8.15200E-19
 -1      4326 9.22376E-05-2.52506E-05-2.87128E-05-9.65090E-09 1.52072E-18 3.45660E-20
 -1      4327 9.26361E-05-2.55964E-05-2.87343E-05-1.15172E-08 1.67018E-18-1.12211E-18
 -1      4328 8.48069E-05-2.13833E-05-2.72054E-05 4.68810E-06-5.05702E-19-2.45188E-18
 -1      4329 8.38085E-05-2.13467E-05-2.67654E-05 5.98030E-06-1.60890E-18-9.26189E-19
 -1      4330 9.30519E-05-2.59727E-05-2.87517E-05-7.15012E-08 2.04828E-18-1.08850E-18
 -1      4331 9.26554E-05-2.56272E-05-2.87309E-05 6.16186E-07 2.20665E-18-1.77030E-18
 -1      4332 9.22930E-05-2.53133E-05-2.87078E-05 7.55535E-07 1.31439E-18-4.71635E-19
 -1      4333 9.31794E-05-2.52857E-05-2.91054E-05-2.38416E-07-4.12300E-19-7.63138E-19
 -1      4334 9.25801E-05-2.49871E-05-2.89764E-05-2.72014E-07-5.48304E-19-6.81508E-19
 -1      4335 9.23637E-05-2.48962E-05-2.89085E-05-1.03979E-06-4.47094E-19-1.14492E-19
 -1      4336 7.85050E-05-1.88533E-05-2.56303E-05 4.43054E-06-1.21746E-18-2.47243E-19
 -1      4337 9.03973E-05-2.38748E-05-2.85259E-05 7.09997E-07-4.41073E-21 2.85874E-19
 -1      4338 8.58581E-05-2.71316E-05-2.51255E-05-1.50665E-05-4.68424E-19-1.99461E-18
 -1      4339 9.28949E-05-2.58212E-05-2.87393E-05 2.61595E-07 1.80765E-18-1.52399E-18
 -1      4340 8.04876E-05-1.93316E-05-2.62182E-05 3.67244E-06-7.18410E-19 2.34464E-20
 -1      4341 9.44651E-05-2.57428E-05-2.94517E-05-3.61446E-07-2.35496E-20-5.32997E-19
 -1      4342 9.47262E-05-2.57012E-05-2.95885E-05-1.72779E-07 1.36898E-20-7.57568E-19
 -1      4343 8.01936E-05-1.98577E-05-2.59086E-05-4.80421E-06-5.05852E-19-4.97268E-20
 -1      4344 7.71035E-05-1.89047E-05-2.49695E-05-5.49807E-06-1.69216E-19-1.91724E-20
 -1      4345 7.97568E-05-2.23632E-05-2.45813E-05-1.20680E-05-3.29562E-19-2.34553E-19
 -1      4346 8.06418E-05-2.17892E-05-2.52236E-05-1.00774E-05-2.54065E-19-3.47499E-20
 -1      4347 8.62902E-05-2.27200E-05-2.71900E-05-6.31714E-06 4.29571E-20-2.89668E-19
 -1      4348 8.47133E-05-2.09797E-05-2.73235E-05 3.09657E-06-4.93308E-19-1.42133E-18
 -1      4349 8.21228E-05-2.01911E-05-2.64932E-05 4.96961E-06-4.26605E-19-6.05660E-19
 -1      4350 9.19395E-05-2.50009E-05-2.86810E-05 4.03899E-07 1.57825E-18 8.49386E-20
 -1      4351 9.36173E-05-2.55097E-05-2.91932E-05-5.14589E-07-3.08959E-19-5.55612E-19
 -1      4352 9.34451E-05-2.54733E-05-2.91278E-05-1.14446E-06-5.14842E-19-1.44363E-19
 -1      4353 9.10164E-05-2.43034E-05-2.85992E-05 6.14515E-07 1.37916E-18 9.88682E-19
 -1      4354 9.40814E-05-2.56745E-05-2.93224E-05-4.82882E-07-1.65526E-19-4.99044E-19
 -1      4355 9.09933E-05-2.42563E-05-2.85880E-05-2.12354E-06-5.35666E-19 5.78763E-21
 -1      4356 7.88342E-05-2.05323E-05-2.49885E-05-8.75973E-06-2.02479E-19 9.98678E-20
 -1      4357 8.20846E-05-2.18906E-05-2.57677E-05-8.68077E-06-1.82461E-19-1.27156E-19
 -1      4358 9.33540E-05-2.56563E-05-2.90210E-05-2.31360E-06-2.36738E-19-1.87600E-19
 -1      4359 9.33922E-05-2.55307E-05-2.90800E-05-1.71287E-06-4.88663E-19 1.23707E-19
 -1      4360 9.29414E-05-2.52775E-05-2.89935E-05-1.43856E-06-4.64369E-19 7.19556E-20
 -1      4361 9.29082E-05-2.54542E-05-2.89129E-05-2.63679E-06-2.59062E-19 3.17054E-20
 -1      4362 8.09140E-05-2.42316E-05-2.42255E-05-1.48300E-05-7.32064E-19-9.74849E-19
 -1      4363 8.28844E-05-2.15867E-05-2.62268E-05-7.34640E-06 3.86211E-21-1.46598E-19
 -1      4364 9.17804E-05-2.47950E-05-2.87033E-05-2.59964E-06-6.39370E-19-1.58557E-19
 -1      4365 8.33747E-05-2.58343E-05-2.46817E-05-1.52034E-05-7.36842E-19-1.65550E-18
 -1      4366 9.23052E-05-2.50689E-05-2.88234E-05-2.26818E-06-4.16756E-19 9.27212E-20
 -1      4367 9.30665E-05-2.59912E-05-2.87480E-05 5.10581E-07 1.35184E-18-1.34629E-18
 -1      4368 9.22976E-05-2.49476E-05-2.88607E-05-1.66157E-06-3.09506E-19 1.22479E-19
 -3
    1PSTEP                         4           1           1          
  100CL  101 1.000000000        4368                     0    1           1
 -4  ERROR       1    1
 -5  STR(%)      1    1    0    0
 -1         1 4.85117E+01
 -1         2 2.48235E+01
 -1         3 4.83931E-03
 -1         4 5.81091E-03
 -1         5 1.40311E+01
 -1         6 1.31356E+01
 -1         7 1.31356E+01
 -1         8 3.62839E+00
 -1         9 1.79986E+00
 -1        10 1.27859E+00
 -1        11 1.03249E+00
 -1        12 8.87409E-01
 -1        13 7.94206E-01
 -1        14 7.37763E-01
 -1        15 7.39443E-01
 -1        16 7.98372E-01
 -1        17 8.88256E-01
 -1        18 1.04149E+00
 -1        19 1.29639E+00
 -1        20 1.80958E+00
 -1        21 3.47098E+00
 -1        22 8.61023E+00
 -1        23 1.31356E+01
 -1        24 4.34496E+00
 -1        25 3.36623E+00
 -1        26 2.13846E+00
 -1        27 1.41597E+00
 -1        28 1.09277E+00
 -1        29 8.71905E-01
 -1        30 7.12235E-01
 -1        31 5.93248E-01
 -1        32 5.03448E-01
 -1        33 5.15358E-01
 -1        34 5.99225E-01
 -1        35 6.98432E-01
 -1        36 8.03991E-01
 -1        37 9.68722E-01
 -1        38 1.23795E+00
 -1        39 1.56778E+00
 -1        40 1.88644E+00
 -1        41 2.03218E+00
 -1        42 2.03218E+00
 -1        43 1.96154E+00
 -1        44 2.28327E+00
 -1        45 3.80392E+00
 -1        46 5.57915E+00
 -1        47 5.58518E+00
 -1        48 5.58518E+00
 -1        49 5.26084E+00
 -1        50 3.10908E+00
 -1        51 2.06316E+00
 -1        52 1.97629E+00
 -1        53 2.00652E+00
 -1        54 2.00652E+00
 -1        55 1.79068E+00
 -1        56 1.45022E+00
 -1        57 1.15190E+00
 -1        58 8.90238E-01
 -1        59 7.02125E-01
 -1        60 5.77099E-01
 -1        61 4.59241E-01
 -1        62 3.56025E-01
 -1        63 2.69804E-01
 -1        64 2.00117E-01
 -1        65 1.45148E-01
 -1        66 1.12948E-01
 -1        67 9.23857E-02
 -1        68 7.32829E-02
 -1        69 5.49501E-02
 -1        70 3.59083E-02
 -1        71 1.93667E-02
 -1        72 1.40311E+01
 -1        73 3.42151E+00
 -1        74 2.44065E+00
 -1        75 1.69636E+00
 -1        76 1.19312E+00
 -1        77 9.94321E-01
 -1        78 8.41564E-01
 -1        79 7.22954E-01
 -1        80 6.29816E-01
 -1        81 5.55964E-01
 -1        82 4.95144E-01
 -1        83 4.58299E-01
 -1        84 4.81168E-01
 -1        85 4.85944E-01
 -1        86 4.88639E-01
 -1        87 5.70742E-01
 -1        88 6.89551E-01
 -1        89 7.42101E-01
 -1        90 9.51334E-01
 -1        91 1.06661E+00
 -1        92 1.18142E+00
 -1        93 1.38314E+00
 -1        94 1.85293E+00
 -1        95 2.44606E+00
 -1        96 2.64226E+00
 -1        97 2.91792E+00
 -1        98 2.91792E+00
 -1        99 2.49517E+00
 -1       100 1.66575E+00
 -1       101 1.07923E+00
 -1       102 7.29175E-01
 -1       103 7.80471E-01
 -1       104 8.53527E-01
 -1       105 8.53527E-01
 -1       106 8.12578E-01
 -1       107 7.09839E-01
 -1       108 5.96763E-01
 -1       109 4.88408E-01
 -1       110 3.81851E-01
 -1       111 2.86095E-01
 -1       112 2.25459E-01
 -1       113 1.75776E-01
 -1       114 1.32816E-01
 -1       115 9.71140E-02
 -1       116 6.82343E-02
 -1       117 4.76822E-02
 -1       118 3.91780E-02
 -1       119 2.80191E-02
 -1       120 1.66771E-02
 -1       121 4.83931E-03
 -1       122 6.14924E-03
 -1       123 6.14924E-03
 -1       124 4.75263E-03
 -1       125 1.97743E-03
 -1       126 4.04179E-03
 -1       127 5.68473E-03
 -1       128 6.21924E-03
 -1       129 6.21924E-03
 -1       130 5.65704E-03
 -1       131 3.97290E-03
 -1       132 2.29320E-03
 -1       133 5.15958E-03
 -1       134 6.19404E-03
 -1       135 6.19404E-03
 -1       136 6.65793E-03
 -1       137 2.50105E+01
 -1       138 4.71260E+01
 -1       139 4.71260E+01
 -1       140 2.06143E+01
 -1       141 1.18931E+01
 -1       142 1.25990E+01
 -1       143 1.25990E+01
 -1       144 1.18993E+01
 -1       145 1.18993E+01
 -1       146 1.17432E+01
 -1       147 2.34722E+01
 -1       148 4.77551E+01
 -1       149 4.77551E+01
 -1       150 2.54295E+01
 -1       151 2.54295E+01
 -1       152 2.49225E+01
 -1       153 4.85117E+01
 -1       154 2.19163E+01
 -1       155 1.23813E+01
 -1       156 1.23813E+01
 -1       157 1.21151E+01
 -1       158 1.28608E+01
 -1       159 1.28608E+01
 -1       160 1.22971E+01
 -1       161 2.55197E+01
 -1       162 3.01687E+01
 -1       163 3.01687E+01
 -1       164 2.47559E+01
 -1       165 6.03069E+00
 -1       166 2.27324E+00
 -1       167 1.49581E+00
 -1       168 1.14922E+00
 -1       169 9.61906E-01
 -1       170 8.52046E-01
 -1       171 7.81367E-01
 -1       172 7.39443E-01
 -1       173 7.84545E-01
 -1       174 8.54770E-01
 -1       175 9.70781E-01
 -1       176 1.16351E+00
 -1       177 1.51774E+00
 -1       178 2.24766E+00
 -1       179 3.90362E+00
 -1       180 1.40311E+01
 -1       181 4.34496E+00
 -1       182 3.36623E+00
 -1       183 2.13846E+00
 -1       184 1.46535E+00
 -1       185 1.09277E+00
 -1       186 8.71905E-01
 -1       187 7.12235E-01
 -1       188 5.93248E-01
 -1       189 5.03448E-01
 -1       190 4.49456E-01
 -1       191 5.15358E-01
 -1       192 5.99225E-01
 -1       193 6.98432E-01
 -1       194 9.07037E-01
 -1       195 1.12280E+00
 -1       196 1.30563E+00
 -1       197 1.56778E+00
 -1       198 1.88644E+00
 -1       199 2.03218E+00
 -1       200 1.96154E+00
 -1       201 1.89060E+00
 -1       202 2.28327E+00
 -1       203 3.80392E+00
 -1       204 5.57915E+00
 -1       205 5.58518E+00
 -1       206 5.26084E+00
 -1       207 3.17398E+00
 -1       208 2.06316E+00
 -1       209 1.97629E+00
 -1       210 1.88927E+00
 -1       211 2.00652E+00
 -1       212 1.79068E+00
 -1       213 1.47371E+00
 -1       214 1.26481E+00
 -1       215 1.07764E+00
 -1       216 8.69156E-01
 -1       217 6.71806E-01
 -1       218 5.01130E-01
 -1       219 3.61899E-01
 -1       220 2.75700E-01
 -1       221 2.10835E-01
 -1       222 1.58051E-01
 -1       223 1.16049E-01
 -1       224 9.23857E-02
 -1       225 7.32829E-02
 -1       226 5.49501E-02
 -1       227 3.59083E-02
 -1       228 2.09388E-02
 -1       229 3.42151E+00
 -1       230 2.44065E+00
 -1       231 1.69636E+00
 -1       232 1.19312E+00
 -1       233 9.94321E-01
 -1       234 8.41564E-01
 -1       235 7.22954E-01
 -1       236 6.29816E-01
 -1       237 5.55964E-01
 -1       238 4.95144E-01
 -1       239 4.39572E-01
 -1       240 4.58299E-01
 -1       241 4.81168E-01
 -1       242 4.85944E-01
 -1       243 4.88639E-01
 -1       244 5.70742E-01
 -1       245 6.89551E-01
 -1       246 7.42101E-01
 -1       247 9.51334E-01
 -1       248 1.06661E+00
 -1       249 1.18142E+00
 -1       250 1.38314E+00
 -1       251 1.85293E+00
 -1       252 2.44606E+00
 -1       253 2.64226E+00
 -1       254 2.91792E+00
 -1       255 2.49517E+00
 -1       256 1.66575E+00
 -1       257 1.07923E+00
 -1       258 6.99518E-01
 -1       259 7.29175E-01
 -1       260 7.80471E-01
 -1       261 8.53527E-01
 -1       262 8.12578E-01
 -1       263 7.09839E-01
 -1       264 5.96763E-01
 -1       265 4.95382E-01
 -1       266 3.99737E-01
 -1       267 3.09397E-01
 -1       268 2.30134E-01
 -1       269 1.75776E-01
 -1       270 1.32816E-01
 -1       271 9.73850E-02
 -1       272 7.06866E-02
 -1       273 4.91648E-02
 -1       274 3.91780E-02
 -1       275 2.80191E-02
 -1       276 1.66771E-02
 -1       277 9.35834E-03
 -1       278 1.10501E-02
 -1       279 1.10501E-02
 -1       280 7.28719E-03
 -1       281 8.13703E-03
 -1       282 1.15520E-02
 -1       283 1.30084E-02
 -1       284 1.30393E-02
 -1       285 1.30393E-02
 -1       286 1.15689E-02
 -1       287 8.23924E-03
 -1       288 7.84838E-03
 -1       289 1.18186E-02
 -1       290 1.18186E-02
 -1       291 1.17250E-02
 -1       292 3.27181E+01
 -1       293 2.77614E+01
 -1       294 4.71260E+01
 -1       295 2.10729E+01
 -1       296 1.14199E+01
 -1       297 1.18931E+01
 -1       298 1.25990E+01
 -1       299 1.16651E+01
 -1       300 1.18993E+01
 -1       301 1.17432E+01
 -1       302 1.16586E+01
 -1       303 2.39932E+01
 -1       304 4.77551E+01
 -1       305 2.87870E+01
 -1       306 2.90310E+01
 -1       307 2.90310E+01
 -1       308 3.00116E+01
 -1       309 4.85117E+01
 -1       310 2.41939E+01
 -1       311 1.13182E+01
 -1       312 1.23813E+01
 -1       313 1.21151E+01
 -1       314 1.16005E+01
 -1       315 1.28608E+01
 -1       316 1.18559E+01
 -1       317 1.22971E+01
 -1       318 2.66825E+01
 -1       319 3.15564E+01
 -1       320 3.15564E+01
 -1       321 3.27181E+01
 -1       322 1.04989E+00
 -1       323 2.44476E+00
 -1       324 7.80776E-01
 -1       325 6.85710E-01
 -1       326 6.20735E-01
 -1       327 5.74743E-01
 -1       328 5.77751E-01
 -1       329 6.23229E-01
 -1       330 6.91830E-01
 -1       331 7.88516E-01
 -1       332 9.24669E-01
 -1       333 1.14029E+00
 -1       334 1.30446E+00
 -1       335 2.18998E+00
 -1       336 1.89683E+00
 -1       337 1.74192E+00
 -1       338 1.27593E+00
 -1       339 9.09969E-01
 -1       340 6.99581E-01
 -1       341 5.98854E-01
 -1       342 5.06924E-01
 -1       343 4.23021E-01
 -1       344 3.45128E-01
 -1       345 3.97164E-01
 -1       346 4.64745E-01
 -1       347 5.98249E-01
 -1       348 7.97532E-01
 -1       349 1.00322E+00
 -1       350 1.19066E+00
 -1       351 1.33341E+00
 -1       352 1.50019E+00
 -1       353 1.56962E+00
 -1       354 1.57684E+00
 -1       355 1.57920E+00
 -1       356 1.71520E+00
 -1       357 2.25455E+00
 -1       358 3.02477E+00
 -1       359 3.83343E+00
 -1       360 3.76776E+00
 -1       361 2.79134E+00
 -1       362 2.04950E+00
 -1       363 1.71068E+00
 -1       364 1.48025E+00
 -1       365 1.60586E+00
 -1       366 1.56123E+00
 -1       367 1.45099E+00
 -1       368 1.30881E+00
 -1       369 1.16708E+00
 -1       370 9.81888E-01
 -1       371 7.90998E-01
 -1       372 6.15875E-01
 -1       373 4.66053E-01
 -1       374 3.43733E-01
 -1       375 2.47218E-01
 -1       376 1.73113E-01
 -1       377 1.17583E-01
 -1       378 8.31906E-02
 -1       379 5.99589E-02
 -1       380 4.29694E-02
 -1       381 3.03430E-02
 -1       382 1.96571E-02
 -1       383 1.14613E+00
 -1       384 8.87912E-01
 -1       385 6.90161E-01
 -1       386 5.50078E-01
 -1       387 5.05722E-01
 -1       388 4.60439E-01
 -1       389 4.16931E-01
 -1       390 3.75509E-01
 -1       391 3.59263E-01
 -1       392 3.87131E-01
 -1       393 4.37121E-01
 -1       394 5.18685E-01
 -1       395 5.70331E-01
 -1       396 5.70331E-01
 -1       397 5.62292E-01
 -1       398 4.63662E-01
 -1       399 4.54232E-01
 -1       400 6.52873E-01
 -1       401 1.08791E+00
 -1       402 1.46769E+00
 -1       403 1.59186E+00
 -1       404 1.59186E+00
 -1       405 1.58084E+00
 -1       406 1.77183E+00
 -1       407 1.68680E+00
 -1       408 1.26829E+00
 -1       409 8.32634E-01
 -1       410 5.38020E-01
 -1       411 4.36983E-01
 -1       412 5.57464E-01
 -1       413 6.02485E-01
 -1       414 6.22427E-01
 -1       415 5.80759E-01
 -1       416 5.19535E-01
 -1       417 4.52122E-01
 -1       418 3.74442E-01
 -1       419 2.97397E-01
 -1       420 2.27404E-01
 -1       421 1.68120E-01
 -1       422 1.29819E-01
 -1       423 9.73850E-02
 -1       424 7.06866E-02
 -1       425 4.91648E-02
 -1       426 3.21054E-02
 -1       427 2.08210E-02
 -1       428 1.11881E-02
 -1       429 1.33273E-02
 -1       430 1.75598E-02
 -1       431 1.75598E-02
 -1       432 1.15150E-02
 -1       433 1.68929E-02
 -1       434 1.96375E-02
 -1       435 1.96375E-02
 -1       436 1.97856E-02
 -1       437 1.97856E-02
 -1       438 1.73190E-02
 -1       439 1.18553E-02
 -1       440 1.41120E-02
 -1       441 1.81103E-02
 -1       442 2.77614E+01
 -1       443 3.27181E+01
 -1       444 3.11573E+01
 -1       445 1.64955E+01
 -1       446 9.21219E+00
 -1       447 9.05588E-01
 -1       448 9.47800E+00
 -1       449 1.16651E+01
 -1       450 1.11440E+01
 -1       451 9.39361E+00
 -1       452 6.86439E+00
 -1       453 1.04226E+01
 -1       454 1.68410E+01
 -1       455 2.87870E+01
 -1       456 3.23200E+01
 -1       457 3.23200E+01
 -1       458 2.83010E+01
 -1       459 3.00116E+01
 -1       460 1.73133E+01
 -1       461 1.05317E+01
 -1       462 6.87413E+00
 -1       463 9.83749E+00
 -1       464 1.02599E+01
 -1       465 1.05994E+01
 -1       466 8.75459E+00
 -1       467 7.44595E+00
 -1       468 1.07908E+01
 -1       469 1.85115E+01
 -1       470 3.15564E+01
 -1       471 2.91128E+01
 -1       472 7.42180E+00
 -1       473 1.57893E+01
 -1       474 1.05159E+00
 -1       475 4.77803E-01
 -1       476 5.04897E-01
 -1       477 4.17755E-01
 -1       478 4.45970E-01
 -1       479 4.78316E-01
 -1       480 5.05181E-01
 -1       481 5.05181E-01
 -1       482 5.94197E-01
 -1       483 8.87912E-01
 -1       484 7.80836E-01
 -1       485 6.97642E+00
 -1       486 4.58937E+00
 -1       487 6.92467E-01
 -1       488 5.65632E-01
 -1       489 4.34167E-01
 -1       490 3.83186E-01
 -1       491 3.22153E-01
 -1       492 2.50782E-01
 -1       493 2.57262E-01
 -1       494 3.21279E-01
 -1       495 4.80982E-01
 -1       496 6.63416E-01
 -1       497 8.66954E-01
 -1       498 1.08416E+00
 -1       499 1.29802E+00
 -1       500 1.47739E+00
 -1       501 1.72664E+00
 -1       502 2.10346E+00
 -1       503 2.49625E+00
 -1       504 3.54626E+00
 -1       505 2.25455E+00
 -1       506 3.95462E+00
 -1       507 5.48042E+00
 -1       508 6.13916E+00
 -1       509 5.19533E+00
 -1       510 3.34087E+00
 -1       511 2.89760E+00
 -1       512 2.51097E+00
 -1       513 2.06511E+00
 -1       514 1.74697E+00
 -1       515 1.55707E+00
 -1       516 1.40660E+00
 -1       517 1.22026E+00
 -1       518 1.00888E+00
 -1       519 8.05643E-01
 -1       520 6.32316E-01
 -1       521 4.85473E-01
 -1       522 3.65086E-01
 -1       523 2.68940E-01
 -1       524 1.93857E-01
 -1       525 1.39049E-01
 -1       526 9.76623E-02
 -1       527 6.69117E-02
 -1       528 4.46226E-02
 -1       529 2.98387E-02
 -1       530 5.30573E-01
 -1       531 4.65070E-01
 -1       532 3.92081E-01
 -1       533 3.16151E-01
 -1       534 2.53145E-01
 -1       535 2.83415E-01
 -1       536 3.09690E-01
 -1       537 3.76913E-01
 -1       538 4.53773E-01
 -1       539 5.18685E-01
 -1       540 5.70331E-01
 -1       541 5.70401E-01
 -1       542 5.28037E-01
 -1       543 6.15033E-01
 -1       544 6.36845E-01
 -1       545 9.41703E-01
 -1       546 1.25215E+00
 -1       547 1.46769E+00
 -1       548 1.59186E+00
 -1       549 1.59594E+00
 -1       550 1.58084E+00
 -1       551 1.50377E+00
 -1       552 1.28460E+00
 -1       553 9.51776E-01
 -1       554 6.64883E-01
 -1       555 6.21767E-01
 -1       556 5.36337E-01
 -1       557 5.96321E-01
 -1       558 5.91098E-01
 -1       559 5.53862E-01
 -1       560 5.08469E-01
 -1       561 4.52227E-01
 -1       562 3.85974E-01
 -1       563 3.16045E-01
 -1       564 2.49644E-01
 -1       565 1.90780E-01
 -1       566 1.41173E-01
 -1       567 1.01054E-01
 -1       568 6.98036E-02
 -1       569 4.64873E-02
 -1       570 3.30113E-02
 -1       571 2.35715E-02
 -1       572 2.22093E-02
 -1       573 2.68211E-02
 -1       574 1.77554E-02
 -1       575 1.83613E-02
 -1       576 2.74501E-02
 -1       577 2.75740E-02
 -1       578 2.75740E-02
 -1       579 2.75647E-02
 -1       580 2.32234E-02
 -1       581 1.91861E-02
 -1       582 1.76266E-02
 -1       583 1.35018E+01
 -1       584 2.91128E+01
 -1       585 6.90161E-01
 -1       586 3.11573E+01
 -1       587 7.22754E+00
 -1       588 5.11375E+00
 -1       589 2.15152E+01
 -1       590 2.03990E+01
 -1       591 4.55294E+00
 -1       592 4.45995E-01
 -1       593 8.64241E-01
 -1       594 4.93080E+00
 -1       595 8.73454E+00
 -1       596 2.83010E+01
 -1       597 7.08020E+00
 -1       598 8.32705E+00
 -1       599 2.10565E+01
 -1       600 7.72152E+00
 -1       601 3.23200E+01
 -1       602 1.29603E+01
 -1       603 9.33415E+00
 -1       604 5.56066E+00
 -1       605 5.48042E+00
 -1       606 8.79361E+00
 -1       607 7.65068E+00
 -1       608 5.19533E+00
 -1       609 6.95184E+00
 -1       610 9.00462E+00
 -1       611 1.41194E+01
 -1       612 2.12818E+01
 -1       613 1.31276E+00
 -1       614 5.04897E-01
 -1       615 1.96571E-02
 -1       616 1.91521E+01
 -1       617 4.60786E-01
 -1       618 1.00606E+01
 -1       619 1.28899E+01
 -1       620 3.38129E-01
 -1       621 3.50365E-01
 -1       622 3.29939E-01
 -1       623 3.59290E-01
 -1       624 3.40816E-01
 -1       625 5.23475E-01
 -1       626 6.98842E+00
 -1       627 1.47656E+01
 -1       628 3.70457E-01
 -1       629 3.38975E-01
 -1       630 2.72537E-01
 -1       631 2.16243E-01
 -1       632 1.62275E-01
 -1       633 1.30179E-01
 -1       634 2.18486E-01
 -1       635 3.47101E-01
 -1       636 5.00962E-01
 -1       637 6.85941E-01
 -1       638 9.12746E-01
 -1       639 1.18508E+00
 -1       640 1.52061E+00
 -1       641 1.91669E+00
 -1       642 2.32646E+00
 -1       643 3.01957E+00
 -1       644 4.32520E+00
 -1       645 2.89760E+00
 -1       646 4.58509E+00
 -1       647 3.59800E+00
 -1       648 2.69270E+00
 -1       649 2.10221E+00
 -1       650 1.75101E+00
 -1       651 1.41675E+00
 -1       652 1.12942E+00
 -1       653 8.91337E-01
 -1       654 6.97430E-01
 -1       655 5.40403E-01
 -1       656 4.14046E-01
 -1       657 3.13217E-01
 -1       658 2.33590E-01
 -1       659 1.71461E-01
 -1       660 1.23637E-01
 -1       661 8.74081E-02
 -1       662 6.06153E-02
 -1       663 4.05019E-02
 -1       664 2.86783E-01
 -1       665 3.39397E-01
 -1       666 1.72644E-01
 -1       667 1.78860E-01
 -1       668 2.31113E-01
 -1       669 3.24652E-01
 -1       670 4.13802E-01
 -1       671 4.89367E-01
 -1       672 5.65355E-01
 -1       673 6.64420E-01
 -1       674 7.35851E-01
 -1       675 7.85914E-01
 -1       676 1.01431E+00
 -1       677 1.06846E+00
 -1       678 1.46077E+00
 -1       679 1.34779E+00
 -1       680 1.83229E+00
 -1       681 2.99099E+00
 -1       682 3.13954E+00
 -1       683 1.93174E+00
 -1       684 1.39085E+00
 -1       685 1.35653E+00
 -1       686 1.11309E+00
 -1       687 1.03141E+00
 -1       688 8.22684E-01
 -1       689 7.72144E-01
 -1       690 7.12452E-01
 -1       691 6.26804E-01
 -1       692 5.47846E-01
 -1       693 4.88855E-01
 -1       694 4.18538E-01
 -1       695 3.46078E-01
 -1       696 2.77708E-01
 -1       697 2.16871E-01
 -1       698 1.65048E-01
 -1       699 1.22436E-01
 -1       700 8.84442E-02
 -1       701 6.21381E-02
 -1       702 4.19453E-02
 -1       703 2.56418E-02
 -1       704 3.79307E-02
 -1       705 2.65696E-02
 -1       706 3.48804E-02
 -1       707 3.85025E-02
 -1       708 3.79307E-02
 -1       709 4.28335E-01
 -1       710 3.85025E-02
 -1       711 3.66315E-02
 -1       712 3.52068E-02
 -1       713 2.65696E-02
 -1       714 1.17437E+01
 -1       715 1.39070E+01
 -1       716 6.09136E+00
 -1       717 2.35444E-01
 -1       718 5.03442E+00
 -1       719 3.74488E-01
 -1       720 3.49610E+00
 -1       721 4.13829E+00
 -1       722 1.40092E+01
 -1       723 5.35631E+00
 -1       724 4.95445E-01
 -1       725 3.59290E-01
 -1       726 2.32522E+00
 -1       727 3.57468E-01
 -1       728 1.56940E+01
 -1       729 5.81474E+00
 -1       730 1.17161E+01
 -1       731 8.48851E+00
 -1       732 1.20576E+01
 -1       733 1.12248E+01
 -1       734 4.03900E+00
 -1       735 3.15369E+00
 -1       736 7.90096E+00
 -1       737 3.29654E-01
 -1       738 1.07683E+01
 -1       739 3.57468E-01
 -1       740 2.65046E-02
 -1       741 4.29169E+00
 -1       742 2.29079E-02
 -1       743 7.24389E+00
 -1       744 6.41196E+00
 -1       745 9.66191E+00
 -1       746 9.12278E+00
 -1       747 3.38192E+00
 -1       748 3.49749E-01
 -1       749 1.20576E+01
 -1       750 5.49074E+00
 -1       751 2.44427E-01
 -1       752 3.25412E+00
 -1       753 1.95144E-01
 -1       754 1.60059E-01
 -1       755 1.10706E-01
 -1       756 1.31779E-01
 -1       757 1.94674E-01
 -1       758 2.97487E-01
 -1       759 4.46143E-01
 -1       760 6.28827E-01
 -1       761 8.47889E-01
 -1       762 1.10451E+00
 -1       763 1.41407E+00
 -1       764 1.90566E+00
 -1       765 2.70017E+00
 -1       766 3.89926E+00
 -1       767 5.02360E+00
 -1       768 6.82298E+00
 -1       769 2.30430E+00
 -1       770 5.37074E+00
 -1       771 4.04837E+00
 -1       772 3.33570E+00
 -1       773 2.37752E+00
 -1       774 1.71810E+00
 -1       775 1.30624E+00
 -1       776 1.03835E+00
 -1       777 8.16625E-01
 -1       778 6.29771E-01
 -1       779 4.77551E-01
 -1       780 3.56336E-01
 -1       781 2.61489E-01
 -1       782 1.88393E-01
 -1       783 1.33125E-01
 -1       784 9.39428E-02
 -1       785 6.47800E-02
 -1       786 5.35749E-02
 -1       787 5.29578E-02
 -1       788 1.73854E-01
 -1       789 1.05907E-01
 -1       790 3.67886E-01
 -1       791 4.76093E-01
 -1       792 5.84508E-01
 -1       793 6.93125E-01
 -1       794 8.72183E-01
 -1       795 1.04922E+00
 -1       796 1.18935E+00
 -1       797 1.53280E+00
 -1       798 1.46077E+00
 -1       799 2.30430E+00
 -1       800 2.99099E+00
 -1       801 2.32910E+00
 -1       802 1.88072E+00
 -1       803 1.69370E+00
 -1       804 1.63819E+00
 -1       805 1.19826E+00
 -1       806 1.10242E+00
 -1       807 9.26925E-01
 -1       808 7.59040E-01
 -1       809 6.45123E-01
 -1       810 5.49605E-01
 -1       811 4.57906E-01
 -1       812 3.70405E-01
 -1       813 2.92614E-01
 -1       814 2.28049E-01
 -1       815 1.74524E-01
 -1       816 1.31106E-01
 -1       817 9.66023E-02
 -1       818 6.97606E-02
 -1       819 4.87470E-02
 -1       820 3.19545E-02
 -1       821 2.75490E-01
 -1       822 5.29578E-02
 -1       823 5.11443E-02
 -1       824 5.75747E-02
 -1       825 1.00352E+01
 -1       826 2.66092E-01
 -1       827 7.13104E+00
 -1       828 3.02814E-01
 -1       829 2.09078E-01
 -1       830 1.03064E+01
 -1       831 1.95387E-01
 -1       832 3.47415E+00
 -1       833 8.61532E+00
 -1       834 2.41187E+00
 -1       835 1.07683E+01
 -1       836 9.20262E+00
 -1       837 7.33624E+00
 -1       838 2.97442E+00
 -1       839 2.66644E-01
 -1       840 6.60714E+00
 -1       841 2.53259E-01
 -1       842 2.62396E-01
 -1       843 2.75584E-01
 -1       844 2.73777E-01
 -1       845 2.75386E-01
 -1       846 1.50582E-01
 -1       847 4.37446E-02
 -1       848 5.08729E-02
 -1       849 3.04587E+00
 -1       850 1.04975E-01
 -1       851 2.21916E+00
 -1       852 3.18247E+00
 -1       853 5.07065E-02
 -1       854 2.75490E-01
 -1       855 4.09452E+00
 -1       856 2.44591E-01
 -1       857 2.47390E-01
 -1       858 7.85588E+00
 -1       859 7.07561E+00
 -1       860 2.32910E+00
 -1       861 3.66770E+00
 -1       862 2.75584E-01
 -1       863 1.20874E-01
 -1       864 1.48073E-01
 -1       865 1.85439E-01
 -1       866 2.70549E-01
 -1       867 4.01449E-01
 -1       868 5.66649E-01
 -1       869 7.77274E-01
 -1       870 1.05112E+00
 -1       871 1.41407E+00
 -1       872 1.90566E+00
 -1       873 2.59725E+00
 -1       874 3.97854E+00
 -1       875 6.50861E+00
 -1       876 3.83333E-02
 -1       877 7.32617E-02
 -1       878 7.25782E+00
 -1       879 3.26825E+00
 -1       880 2.33105E+00
 -1       881 1.71810E+00
 -1       882 1.30624E+00
 -1       883 9.94020E-01
 -1       884 7.56409E-01
 -1       885 5.74071E-01
 -1       886 4.33188E-01
 -1       887 3.24008E-01
 -1       888 2.39561E-01
 -1       889 1.74600E-01
 -1       890 1.25000E-01
 -1       891 8.81745E-02
 -1       892 5.69680E-01
 -1       893 4.41843E-01
 -1       894 9.44658E-01
 -1       895 1.17586E+00
 -1       896 1.51164E+00
 -1       897 1.91370E+00
 -1       898 2.33181E+00
 -1       899 3.04196E+00
 -1       900 2.70040E+00
 -1       901 1.77169E+00
 -1       902 1.21070E+00
 -1       903 1.00790E+00
 -1       904 8.16757E-01
 -1       905 6.43423E-01
 -1       906 5.10822E-01
 -1       907 4.07944E-01
 -1       908 3.30166E-01
 -1       909 2.65578E-01
 -1       910 2.07721E-01
 -1       911 1.58174E-01
 -1       912 1.17239E-01
 -1       913 8.40574E-02
 -1       914 2.49545E+00
 -1       915 7.34716E-02
 -1       916 7.47515E-01
 -1       917 4.96007E+00
 -1       918 1.75769E-01
 -1       919 1.22863E-01
 -1       920 7.25782E+00
 -1       921 1.10722E-01
 -1       922 1.02307E-01
 -1       923 7.10203E+00
 -1       924 7.34716E-02
 -1       925 9.01962E+00
 -1       926 1.46472E-01
 -1       927 6.23033E+00
 -1       928 9.01962E+00
 -1       929 1.65380E-01
 -1       930 7.07561E+00
 -1       931 9.28968E-02
 -1       932 6.17100E+00
 -1       933 5.02360E+00
 -1       934 1.26765E-01
 -1       935 1.95461E-01
 -1       936 1.95461E-01
 -1       937 1.39863E-01
 -1       938 3.40251E-01
 -1       939 5.96387E-02
 -1       940 1.88072E+00
 -1       941 2.48546E-01
 -1       942 1.21045E-01
 -1       943 3.15349E+00
 -1       944 6.50861E+00
 -1       945 1.95664E-01
 -1       946 1.16056E-01
 -1       947 8.45713E-02
 -1       948 1.11775E-01
 -1       949 1.92659E-01
 -1       950 1.89477E-01
 -1       951 2.34266E-01
 -1       952 3.24045E-01
 -1       953 4.53236E-01
 -1       954 6.20995E-01
 -1       955 8.47521E-01
 -1       956 1.17198E+00
 -1       957 1.66040E+00
 -1       958 2.45672E+00
 -1       959 3.97854E+00
 -1       960 8.11081E-02
 -1       961 5.58484E+00
 -1       962 2.75456E+00
 -1       963 2.21497E+00
 -1       964 1.55307E+00
 -1       965 1.11997E+00
 -1       966 8.29226E-01
 -1       967 6.23722E-01
 -1       968 4.72463E-01
 -1       969 3.57477E-01
 -1       970 2.68946E-01
 -1       971 2.00374E-01
 -1       972 1.47301E-01
 -1       973 1.06001E-01
 -1       974 5.75022E-01
 -1       975 3.25774E+00
 -1       976 2.02436E+00
 -1       977 1.35208E+00
 -1       978 2.62760E+00
 -1       979 1.86408E+00
 -1       980 1.09128E+00
 -1       981 7.87522E-01
 -1       982 6.19730E-01
 -1       983 5.00901E-01
 -1       984 4.07944E-01
 -1       985 3.24917E-01
 -1       986 2.53844E-01
 -1       987 1.94718E-01
 -1       988 1.46437E-01
 -1       989 1.21268E-01
 -1       990 1.19226E-01
 -1       991 1.95664E-01
 -1       992 1.16056E-01
 -1       993 1.07222E-01
 -1       994 5.13174E+00
 -1       995 1.21825E-01
 -1       996 1.61926E+00
 -1       997 2.64813E+00
 -1       998 2.28355E+00
 -1       999 6.30459E+00
 -1      1000 1.65380E-01
 -1      1001 1.61202E-01
 -1      1002 5.11032E+00
 -1      1003 8.78332E-02
 -1      1004 5.58484E+00
 -1      1005 1.20072E-01
 -1      1006 1.00484E-01
 -1      1007 4.41843E-01
 -1      1008 1.21268E-01
 -1      1009 7.43796E-01
 -1      1010 3.44004E+00
 -1      1011 8.78332E-02
 -1      1012 1.79392E-01
 -1      1013 4.65059E+00
 -1      1014 1.19557E-01
 -1      1015 2.48546E-01
 -1      1016 9.75981E-01
 -1      1017 2.49683E+00
 -1      1018 3.55738E+00
 -1      1019 1.07222E-01
 -1      1020 1.17478E-01
 -1      1021 1.52344E-01
 -1      1022 2.06737E+00
 -1      1023 3.03984E-01
 -1      1024 3.91048E-01
 -1      1025 5.00967E-01
 -1      1026 6.51752E-01
 -1      1027 8.63786E-01
 -1      1028 1.18115E+00
 -1      1029 2.02369E+00
 -1      1030 3.50364E+00
 -1      1031 2.05228E+00
 -1      1032 1.27973E+00
 -1      1033 1.73986E+00
 -1      1034 5.11032E+00
 -1      1035 1.50230E+00
 -1      1036 1.04419E+00
 -1      1037 7.61099E-01
 -1      1038 5.72143E-01
 -1      1039 4.38676E-01
 -1      1040 3.37458E-01
 -1      1041 2.58793E-01
 -1      1042 1.97127E-01
 -1      1043 1.70725E-01
 -1      1044 1.10632E-01
 -1      1045 2.67546E+00
 -1      1046 6.19730E-01
 -1      1047 3.40251E-01
 -1      1048 7.87522E-01
 -1      1049 2.73965E+00
 -1      1050 2.37790E-01
 -1      1051 1.10257E+00
 -1      1052 4.84994E-01
 -1      1053 3.76328E-01
 -1      1054 2.88442E-01
 -1      1055 2.19319E-01
 -1      1056 1.65047E-01
 -1      1057 1.26738E-01
 -1      1058 1.20072E-01
 -1      1059 1.70425E+00
 -1      1060 1.10506E+00
 -1      1061 9.28968E-02
 -1      1062 2.28355E+00
 -1      1063 4.65059E+00
 -1      1064 9.44945E-02
 -1      1065 1.93834E-01
 -1      1066 3.50364E+00
 -1      1067 9.72996E-01
 -1      1068 1.71629E+00
 -1      1069 2.37441E-01
 -1      1070 1.42973E-01
 -1      1071 1.80347E-01
 -1      1072 2.07933E+00
 -1      1073 8.47138E-02
 -1      1074 2.45342E-01
 -1      1075 1.73601E-01
 -1      1076 7.93862E-02
 -1      1077 5.75022E-01
 -1      1078 7.43796E-01
 -1      1079 3.48300E-01
 -1      1080 9.50707E-02
 -1      1081 4.36952E-01
 -1      1082 5.58513E-01
 -1      1083 7.58016E-01
 -1      1084 1.10754E+00
 -1      1085 2.02369E+00
 -1      1086 1.89684E+00
 -1      1087 1.53270E-01
 -1      1088 3.89436E+00
 -1      1089 1.53378E+00
 -1      1090 1.22985E+00
 -1      1091 1.11493E+00
 -1      1092 8.22560E-01
 -1      1093 6.03572E-01
 -1      1094 4.34650E-01
 -1      1095 2.87581E-01
 -1      1096 2.43565E-01
 -1      1097 1.73601E-01
 -1      1098 1.88652E+00
 -1      1099 6.03572E-01
 -1      1100 1.23561E+00
 -1      1101 1.42973E-01
 -1      1102 2.12395E+00
 -1      1103 1.11493E+00
 -1      1104 1.11493E+00
 -1      1105 4.34650E-01
 -1      1106 2.37974E-01
 -1      1107 1.69247E-01
 -1      1108 2.82611E-01
 -1      1109 8.22560E-01
 -1      1110 1.01721E-01
 -1      1111 7.58016E-01
 -1      1112 4.33714E-01
 -1      1113 2.47803E-01
 -1      1114 2.17518E-01
 -1      1115 1.59938E+00
 -1      1116 1.36614E+00
 -1      1117 3.38882E-01
 -1      1118 2.47803E-01
 -1      1119 1.27560E-01
 -1      1120 1.10754E+00
 -1      1121 5.25458E-01
 -1      1122 2.45342E-01
 -1      1123 1.73601E-01
 -1      1124 2.47803E-01
 -1      1125 2.79830E+00
 -1      1126 3.83404E-01
 -1      1127 1.88652E+00
 -1      1128 2.43565E-01
 -1      1129 9.92546E-01
 -1      1130 2.43565E-01
 -1      1131 3.08273E-01
 -1      1132 1.92018E+00
 -1      1133 3.08273E-01
 -1      1134 1.31356E+01
 -1      1135 8.38199E+00
 -1      1136 2.71413E+00
 -1      1137 1.53923E+00
 -1      1138 1.15554E+00
 -1      1139 9.59949E-01
 -1      1140 8.40807E-01
 -1      1141 7.65985E-01
 -1      1142 7.38603E-01
 -1      1143 7.68907E-01
 -1      1144 8.43314E-01
 -1      1145 9.64872E-01
 -1      1146 1.16894E+00
 -1      1147 1.55298E+00
 -1      1148 2.64028E+00
 -1      1149 6.04061E+00
 -1      1150 1.13207E+01
 -1      1151 1.31356E+01
 -1      1152 8.74027E+00
 -1      1153 3.85559E+00
 -1      1154 2.75235E+00
 -1      1155 1.77722E+00
 -1      1156 1.25437E+00
 -1      1157 9.82340E-01
 -1      1158 7.92070E-01
 -1      1159 6.52742E-01
 -1      1160 5.48348E-01
 -1      1161 5.09403E-01
 -1      1162 5.57292E-01
 -1      1163 6.48828E-01
 -1      1164 7.51211E-01
 -1      1165 8.86356E-01
 -1      1166 1.10334E+00
 -1      1167 1.40287E+00
 -1      1168 1.72711E+00
 -1      1169 1.95931E+00
 -1      1170 2.03218E+00
 -1      1171 1.99686E+00
 -1      1172 2.12241E+00
 -1      1173 3.04359E+00
 -1      1174 4.69153E+00
 -1      1175 5.58217E+00
 -1      1176 5.58518E+00
 -1      1177 5.42301E+00
 -1      1178 4.18496E+00
 -1      1179 2.58612E+00
 -1      1180 2.01972E+00
 -1      1181 1.99140E+00
 -1      1182 2.00652E+00
 -1      1183 1.89860E+00
 -1      1184 1.62045E+00
 -1      1185 1.30106E+00
 -1      1186 1.02107E+00
 -1      1187 7.96181E-01
 -1      1188 6.39612E-01
 -1      1189 5.18170E-01
 -1      1190 4.07633E-01
 -1      1191 3.12915E-01
 -1      1192 2.34961E-01
 -1      1193 1.72633E-01
 -1      1194 1.29048E-01
 -1      1195 1.02667E-01
 -1      1196 8.28343E-02
 -1      1197 6.41165E-02
 -1      1198 4.54292E-02
 -1      1199 2.76375E-02
 -1      1200 1.25888E-02
 -1      1201 1.40311E+01
 -1      1202 8.72632E+00
 -1      1203 2.93108E+00
 -1      1204 2.06850E+00
 -1      1205 1.44474E+00
 -1      1206 1.09372E+00
 -1      1207 9.17942E-01
 -1      1208 7.82259E-01
 -1      1209 6.76385E-01
 -1      1210 5.92890E-01
 -1      1211 5.25554E-01
 -1      1212 4.76722E-01
 -1      1213 4.69734E-01
 -1      1214 4.83556E-01
 -1      1215 4.87291E-01
 -1      1216 5.29690E-01
 -1      1217 6.30146E-01
 -1      1218 7.15826E-01
 -1      1219 8.46718E-01
 -1      1220 1.00897E+00
 -1      1221 1.12402E+00
 -1      1222 1.28228E+00
 -1      1223 1.61804E+00
 -1      1224 2.14949E+00
 -1      1225 2.54416E+00
 -1      1226 2.78009E+00
 -1      1227 2.91792E+00
 -1      1228 2.70655E+00
 -1      1229 2.08046E+00
 -1      1230 1.37249E+00
 -1      1231 9.04205E-01
 -1      1232 7.54823E-01
 -1      1233 8.16999E-01
 -1      1234 8.53527E-01
 -1      1235 8.33053E-01
 -1      1236 7.61209E-01
 -1      1237 6.53301E-01
 -1      1238 5.42585E-01
 -1      1239 4.35129E-01
 -1      1240 3.33973E-01
 -1      1241 2.55777E-01
 -1      1242 2.00617E-01
 -1      1243 1.54296E-01
 -1      1244 1.14965E-01
 -1      1245 8.26742E-02
 -1      1246 5.79583E-02
 -1      1247 4.34301E-02
 -1      1248 3.35985E-02
 -1      1249 2.23481E-02
 -1      1250 1.07582E-02
 -1      1251 4.83931E-03
 -1      1252 5.49427E-03
 -1      1253 6.14924E-03
 -1      1254 5.45094E-03
 -1      1255 3.36503E-03
 -1      1256 3.00961E-03
 -1      1257 4.86326E-03
 -1      1258 5.95198E-03
 -1      1259 6.21924E-03
 -1      1260 5.93814E-03
 -1      1261 4.81497E-03
 -1      1262 3.13305E-03
 -1      1263 3.72639E-03
 -1      1264 5.67681E-03
 -1      1265 6.19404E-03
 -1      1266 6.42598E-03
 -1      1267 6.23442E-03
 -1      1268 2.49170E+01
 -1      1269 3.60683E+01
 -1      1270 4.71260E+01
 -1      1271 3.38701E+01
 -1      1272 1.62537E+01
 -1      1273 1.22460E+01
 -1      1274 1.25990E+01
 -1      1275 1.22491E+01
 -1      1276 1.18993E+01
 -1      1277 1.18212E+01
 -1      1278 1.76077E+01
 -1      1279 3.56136E+01
 -1      1280 4.77551E+01
 -1      1281 3.65923E+01
 -1      1282 2.54295E+01
 -1      1283 2.51760E+01
 -1      1284 3.67171E+01
 -1      1285 4.85117E+01
 -1      1286 3.52140E+01
 -1      1287 1.71488E+01
 -1      1288 1.23813E+01
 -1      1289 1.22482E+01
 -1      1290 1.24879E+01
 -1      1291 1.28608E+01
 -1      1292 1.25790E+01
 -1      1293 1.89084E+01
 -1      1294 2.78442E+01
 -1      1295 3.01687E+01
 -1      1296 2.74623E+01
 -1      1297 2.47897E+01
 -1      1298 1.31356E+01
 -1      1299 4.82954E+00
 -1      1300 9.58314E+00
 -1      1301 2.03655E+00
 -1      1302 2.95082E+00
 -1      1303 4.15196E+00
 -1      1304 1.38720E+00
 -1      1305 1.64783E+00
 -1      1306 1.88452E+00
 -1      1307 1.09085E+00
 -1      1308 1.21391E+00
 -1      1309 1.32251E+00
 -1      1310 9.24657E-01
 -1      1311 9.97197E-01
 -1      1312 1.05556E+00
 -1      1313 8.23126E-01
 -1      1314 8.69727E-01
 -1      1315 9.06976E-01
 -1      1316 7.59565E-01
 -1      1317 7.87787E-01
 -1      1318 8.16707E-01
 -1      1319 7.39443E-01
 -1      1320 7.38603E-01
 -1      1321 7.60405E-01
 -1      1322 7.91458E-01
 -1      1323 7.61994E-01
 -1      1324 7.61994E-01
 -1      1325 8.71513E-01
 -1      1326 8.26571E-01
 -1      1327 8.19657E-01
 -1      1328 1.00613E+00
 -1      1329 9.29519E-01
 -1      1330 9.12775E-01
 -1      1331 1.22995E+00
 -1      1332 1.10250E+00
 -1      1333 1.06715E+00
 -1      1334 1.66366E+00
 -1      1335 1.40707E+00
 -1      1336 1.34062E+00
 -1      1337 2.85932E+00
 -1      1338 2.02862E+00
 -1      1339 1.88270E+00
 -1      1340 6.25693E+00
 -1      1341 3.68730E+00
 -1      1342 3.07564E+00
 -1      1343 1.40311E+01
 -1      1344 1.13207E+01
 -1      1345 8.96738E+00
 -1      1346 1.40311E+01
 -1      1347 8.74027E+00
 -1      1348 4.34496E+00
 -1      1349 3.85559E+00
 -1      1350 3.36623E+00
 -1      1351 3.85559E+00
 -1      1352 2.75235E+00
 -1      1353 2.13846E+00
 -1      1354 2.75235E+00
 -1      1355 1.80191E+00
 -1      1356 1.44066E+00
 -1      1357 1.80191E+00
 -1      1358 1.25437E+00
 -1      1359 1.09277E+00
 -1      1360 1.27906E+00
 -1      1361 9.82340E-01
 -1      1362 8.71905E-01
 -1      1363 9.82340E-01
 -1      1364 7.92070E-01
 -1      1365 7.12235E-01
 -1      1366 7.92070E-01
 -1      1367 6.52742E-01
 -1      1368 5.93248E-01
 -1      1369 6.52742E-01
 -1      1370 5.48348E-01
 -1      1371 5.03448E-01
 -1      1372 5.48348E-01
 -1      1373 4.76452E-01
 -1      1374 4.82407E-01
 -1      1375 4.76452E-01
 -1      1376 5.15358E-01
 -1      1377 5.57292E-01
 -1      1378 4.82407E-01
 -1      1379 5.99225E-01
 -1      1380 6.48828E-01
 -1      1381 5.57292E-01
 -1      1382 6.98432E-01
 -1      1383 7.51211E-01
 -1      1384 6.48828E-01
 -1      1385 8.55514E-01
 -1      1386 9.37879E-01
 -1      1387 8.02734E-01
 -1      1388 1.04576E+00
 -1      1389 1.18038E+00
 -1      1390 1.01492E+00
 -1      1391 1.27179E+00
 -1      1392 1.43671E+00
 -1      1393 1.21422E+00
 -1      1394 1.56778E+00
 -1      1395 1.72711E+00
 -1      1396 1.43671E+00
 -1      1397 1.88644E+00
 -1      1398 1.95931E+00
 -1      1399 1.72711E+00
 -1      1400 2.03218E+00
 -1      1401 2.03218E+00
 -1      1402 1.95931E+00
 -1      1403 1.99686E+00
 -1      1404 1.96154E+00
 -1      1405 1.99686E+00
 -1      1406 1.92607E+00
 -1      1407 2.08694E+00
 -1      1408 1.92607E+00
 -1      1409 2.28327E+00
 -1      1410 3.04359E+00
 -1      1411 2.08694E+00
 -1      1412 3.80392E+00
 -1      1413 4.69153E+00
 -1      1414 3.04359E+00
 -1      1415 5.57915E+00
 -1      1416 5.58217E+00
 -1      1417 4.69153E+00
 -1      1418 5.58518E+00
 -1      1419 5.58518E+00
 -1      1420 5.58217E+00
 -1      1421 5.42301E+00
 -1      1422 5.26084E+00
 -1      1423 5.42301E+00
 -1      1424 4.21741E+00
 -1      1425 3.14153E+00
 -1      1426 4.21741E+00
 -1      1427 2.58612E+00
 -1      1428 2.06316E+00
 -1      1429 2.61857E+00
 -1      1430 2.01972E+00
 -1      1431 1.97629E+00
 -1      1432 2.01972E+00
 -1      1433 1.93278E+00
 -1      1434 1.94790E+00
 -1      1435 1.93278E+00
 -1      1436 2.00652E+00
 -1      1437 2.00652E+00
 -1      1438 1.94790E+00
 -1      1439 1.89860E+00
 -1      1440 1.79068E+00
 -1      1441 1.89860E+00
 -1      1442 1.63219E+00
 -1      1443 1.46196E+00
 -1      1444 1.63219E+00
 -1      1445 1.35752E+00
 -1      1446 1.20835E+00
 -1      1447 1.36926E+00
 -1      1448 1.11477E+00
 -1      1449 9.83937E-01
 -1      1450 1.17122E+00
 -1      1451 8.79697E-01
 -1      1452 7.85640E-01
 -1      1453 9.73396E-01
 -1      1454 6.86965E-01
 -1      1455 6.24453E-01
 -1      1456 7.70481E-01
 -1      1457 5.39115E-01
 -1      1458 4.80186E-01
 -1      1459 5.86468E-01
 -1      1460 4.10570E-01
 -1      1461 3.58962E-01
 -1      1462 4.31514E-01
 -1      1463 3.15863E-01
 -1      1464 2.72752E-01
 -1      1465 3.18800E-01
 -1      1466 2.40320E-01
 -1      1467 2.05476E-01
 -1      1468 2.43268E-01
 -1      1469 1.79084E-01
 -1      1470 1.51599E-01
 -1      1471 1.84443E-01
 -1      1472 1.30598E-01
 -1      1473 1.14498E-01
 -1      1474 1.37050E-01
 -1      1475 1.02667E-01
 -1      1476 9.23857E-02
 -1      1477 1.04217E-01
 -1      1478 8.28343E-02
 -1      1479 7.32829E-02
 -1      1480 8.28343E-02
 -1      1481 6.41165E-02
 -1      1482 5.49501E-02
 -1      1483 6.41165E-02
 -1      1484 4.54292E-02
 -1      1485 3.59083E-02
 -1      1486 4.54292E-02
 -1      1487 2.84235E-02
 -1      1488 2.01527E-02
 -1      1489 2.84235E-02
 -1      1490 1.30123E-02
 -1      1491 1.37984E-02
 -1      1492 3.42151E+00
 -1      1493 8.72632E+00
 -1      1494 8.72632E+00
 -1      1495 2.44065E+00
 -1      1496 2.93108E+00
 -1      1497 2.93108E+00
 -1      1498 1.69636E+00
 -1      1499 2.06850E+00
 -1      1500 2.06850E+00
 -1      1501 1.19312E+00
 -1      1502 1.44474E+00
 -1      1503 1.44474E+00
 -1      1504 9.94321E-01
 -1      1505 1.09372E+00
 -1      1506 1.09372E+00
 -1      1507 8.41564E-01
 -1      1508 9.17942E-01
 -1      1509 9.17942E-01
 -1      1510 7.22954E-01
 -1      1511 7.82259E-01
 -1      1512 7.82259E-01
 -1      1513 6.29816E-01
 -1      1514 6.76385E-01
 -1      1515 6.76385E-01
 -1      1516 5.55964E-01
 -1      1517 5.92890E-01
 -1      1518 5.92890E-01
 -1      1519 4.95144E-01
 -1      1520 5.25554E-01
 -1      1521 5.25554E-01
 -1      1522 4.48936E-01
 -1      1523 4.67358E-01
 -1      1524 4.67358E-01
 -1      1525 4.69734E-01
 -1      1526 4.58299E-01
 -1      1527 4.48936E-01
 -1      1528 4.83556E-01
 -1      1529 4.81168E-01
 -1      1530 4.69734E-01
 -1      1531 4.87291E-01
 -1      1532 4.85944E-01
 -1      1533 4.83556E-01
 -1      1534 5.29690E-01
 -1      1535 4.88639E-01
 -1      1536 4.87291E-01
 -1      1537 6.30146E-01
 -1      1538 5.70742E-01
 -1      1539 5.29690E-01
 -1      1540 7.15826E-01
 -1      1541 6.89551E-01
 -1      1542 6.30146E-01
 -1      1543 8.46718E-01
 -1      1544 7.42101E-01
 -1      1545 7.15826E-01
 -1      1546 1.00897E+00
 -1      1547 9.51334E-01
 -1      1548 8.46718E-01
 -1      1549 1.12402E+00
 -1      1550 1.06661E+00
 -1      1551 1.00897E+00
 -1      1552 1.28228E+00
 -1      1553 1.18142E+00
 -1      1554 1.12402E+00
 -1      1555 1.61804E+00
 -1      1556 1.38314E+00
 -1      1557 1.28228E+00
 -1      1558 2.14949E+00
 -1      1559 1.85293E+00
 -1      1560 1.61804E+00
 -1      1561 2.54416E+00
 -1      1562 2.44606E+00
 -1      1563 2.14949E+00
 -1      1564 2.78009E+00
 -1      1565 2.64226E+00
 -1      1566 2.54416E+00
 -1      1567 2.91792E+00
 -1      1568 2.91792E+00
 -1      1569 2.78009E+00
 -1      1570 2.49517E+00
 -1      1571 2.70655E+00
 -1      1572 2.70655E+00
 -1      1573 1.66575E+00
 -1      1574 2.08046E+00
 -1      1575 2.08046E+00
 -1      1576 1.07923E+00
 -1      1577 1.37249E+00
 -1      1578 1.37249E+00
 -1      1579 7.14347E-01
 -1      1580 8.89376E-01
 -1      1581 8.89376E-01
 -1      1582 7.54823E-01
 -1      1583 7.29175E-01
 -1      1584 7.14347E-01
 -1      1585 8.16999E-01
 -1      1586 7.80471E-01
 -1      1587 7.54823E-01
 -1      1588 8.53527E-01
 -1      1589 8.53527E-01
 -1      1590 8.16999E-01
 -1      1591 8.12578E-01
 -1      1592 8.33053E-01
 -1      1593 8.33053E-01
 -1      1594 7.09839E-01
 -1      1595 7.61209E-01
 -1      1596 7.61209E-01
 -1      1597 5.96763E-01
 -1      1598 6.53301E-01
 -1      1599 6.53301E-01
 -1      1600 4.91895E-01
 -1      1601 5.46072E-01
 -1      1602 5.46072E-01
 -1      1603 3.90794E-01
 -1      1604 4.44072E-01
 -1      1605 4.47559E-01
 -1      1606 2.97746E-01
 -1      1607 3.45624E-01
 -1      1608 3.54567E-01
 -1      1609 2.27796E-01
 -1      1610 2.58115E-01
 -1      1611 2.69766E-01
 -1      1612 1.75776E-01
 -1      1613 2.00617E-01
 -1      1614 2.02955E-01
 -1      1615 1.32816E-01
 -1      1616 1.54296E-01
 -1      1617 1.54296E-01
 -1      1618 9.72495E-02
 -1      1619 1.15101E-01
 -1      1620 1.15101E-01
 -1      1621 6.94605E-02
 -1      1622 8.39003E-02
 -1      1623 8.40358E-02
 -1      1624 4.84235E-02
 -1      1625 5.86996E-02
 -1      1626 5.99257E-02
 -1      1627 3.91780E-02
 -1      1628 4.34301E-02
 -1      1629 4.41714E-02
 -1      1630 2.80191E-02
 -1      1631 3.35985E-02
 -1      1632 3.35985E-02
 -1      1633 1.66771E-02
 -1      1634 2.23481E-02
 -1      1635 2.23481E-02
 -1      1636 1.07582E-02
 -1      1637 7.75379E-03
 -1      1638 7.09882E-03
 -1      1639 8.59966E-03
 -1      1640 8.59966E-03
 -1      1641 1.02042E-02
 -1      1642 7.90136E-03
 -1      1643 8.59966E-03
 -1      1644 1.10501E-02
 -1      1645 4.63231E-03
 -1      1646 6.01991E-03
 -1      1647 9.16864E-03
 -1      1648 6.08941E-03
 -1      1649 5.05723E-03
 -1      1650 7.71211E-03
 -1      1651 8.61837E-03
 -1      1652 7.79690E-03
 -1      1653 9.84452E-03
 -1      1654 9.61382E-03
 -1      1655 9.34657E-03
 -1      1656 1.22802E-02
 -1      1657 9.62928E-03
 -1      1658 9.62928E-03
 -1      1659 1.30239E-02
 -1      1660 9.34818E-03
 -1      1661 9.62928E-03
 -1      1662 1.30393E-02
 -1      1663 7.77090E-03
 -1      1664 8.61297E-03
 -1      1665 1.23041E-02
 -1      1666 5.26622E-03
 -1      1667 6.10607E-03
 -1      1668 9.90407E-03
 -1      1669 6.50398E-03
 -1      1670 5.07079E-03
 -1      1671 8.04381E-03
 -1      1672 9.00632E-03
 -1      1673 8.48909E-03
 -1      1674 9.83349E-03
 -1      1675 9.00632E-03
 -1      1676 9.00632E-03
 -1      1677 1.18186E-02
 -1      1678 9.19146E-03
 -1      1679 8.95952E-03
 -1      1680 1.17718E-02
 -1      1681 1.63319E-02
 -1      1682 2.88643E+01
 -1      1683 2.87708E+01
 -1      1684 3.74437E+01
 -1      1685 2.63860E+01
 -1      1686 4.71260E+01
 -1      1687 4.71260E+01
 -1      1688 2.08436E+01
 -1      1689 3.40995E+01
 -1      1690 1.16565E+01
 -1      1691 1.60171E+01
 -1      1692 1.22460E+01
 -1      1693 1.18931E+01
 -1      1694 1.25990E+01
 -1      1695 1.25990E+01
 -1      1696 1.17822E+01
 -1      1697 1.21320E+01
 -1      1698 1.18993E+01
 -1      1699 1.18993E+01
 -1      1700 1.17432E+01
 -1      1701 1.18212E+01
 -1      1702 1.75654E+01
 -1      1703 1.17009E+01
 -1      1704 3.58742E+01
 -1      1705 2.37327E+01
 -1      1706 4.77551E+01
 -1      1707 4.77551E+01
 -1      1708 2.71082E+01
 -1      1709 3.82710E+01
 -1      1710 2.72302E+01
 -1      1711 2.72302E+01
 -1      1712 2.69767E+01
 -1      1713 2.72302E+01
 -1      1714 3.92616E+01
 -1      1715 2.74670E+01
 -1      1716 4.85117E+01
 -1      1717 4.85117E+01
 -1      1718 2.30551E+01
 -1      1719 3.63528E+01
 -1      1720 1.18498E+01
 -1      1721 1.66173E+01
 -1      1722 1.23813E+01
 -1      1723 1.23813E+01
 -1      1724 1.21151E+01
 -1      1725 1.22482E+01
 -1      1726 1.22306E+01
 -1      1727 1.18578E+01
 -1      1728 1.28608E+01
 -1      1729 1.28608E+01
 -1      1730 1.20765E+01
 -1      1731 1.23584E+01
 -1      1732 1.89084E+01
 -1      1733 1.22971E+01
 -1      1734 2.84256E+01
 -1      1735 2.61011E+01
 -1      1736 3.08625E+01
 -1      1737 3.08625E+01
 -1      1738 2.81562E+01
 -1      1739 3.08625E+01
 -1      1740 2.87708E+01
 -1      1741 2.87370E+01
 -1      1742 1.62464E+01
 -1      1743 3.40995E+01
 -1      1744 1.07582E-02
 -1      1745 1.30177E-02
 -1      1746 3.02397E+01
 -1      1747 3.74437E+01
 -1      1748 3.27181E+01
 -1      1749 1.16565E+01
 -1      1750 1.22460E+01
 -1      1751 1.21320E+01
 -1      1752 1.17822E+01
 -1      1753 1.18212E+01
 -1      1754 1.17009E+01
 -1      1755 1.78259E+01
 -1      1756 3.58742E+01
 -1      1757 3.82710E+01
 -1      1758 2.89090E+01
 -1      1759 2.90310E+01
 -1      1760 2.95213E+01
 -1      1761 3.92616E+01
 -1      1762 3.63528E+01
 -1      1763 1.77561E+01
 -1      1764 1.18498E+01
 -1      1765 1.22482E+01
 -1      1766 1.18578E+01
 -1      1767 1.22306E+01
 -1      1768 1.23584E+01
 -1      1769 1.20765E+01
 -1      1770 1.94898E+01
 -1      1771 2.91194E+01
 -1      1772 3.15564E+01
 -1      1773 3.21372E+01
 -1      1774 9.58314E+00
 -1      1775 1.27285E+00
 -1      1776 1.66157E+00
 -1      1777 2.35900E+00
 -1      1778 4.23772E+00
 -1      1779 1.74733E+00
 -1      1780 8.71341E-01
 -1      1781 9.64997E-01
 -1      1782 7.68878E-01
 -1      1783 8.23808E-01
 -1      1784 7.33243E-01
 -1      1785 7.01051E-01
 -1      1786 7.36390E-01
 -1      1787 6.53223E-01
 -1      1788 6.57093E-01
 -1      1789 6.78055E-01
 -1      1790 5.97739E-01
 -1      1791 6.81148E-01
 -1      1792 6.58597E-01
 -1      1793 5.76247E-01
 -1      1794 7.38999E-01
 -1      1795 7.03887E-01
 -1      1796 6.00490E-01
 -1      1797 8.31305E-01
 -1      1798 7.73300E-01
 -1      1799 6.57529E-01
 -1      1800 9.76012E-01
 -1      1801 8.79649E-01
 -1      1802 7.40173E-01
 -1      1803 1.22120E+00
 -1      1804 1.04409E+00
 -1      1805 8.56592E-01
 -1      1806 1.69397E+00
 -1      1807 1.32901E+00
 -1      1808 1.03248E+00
 -1      1809 2.60404E+00
 -1      1810 1.77606E+00
 -1      1811 1.22237E+00
 -1      1812 8.11056E+00
 -1      1813 3.04680E+00
 -1      1814 1.74722E+00
 -1      1815 2.80574E+00
 -1      1816 5.18782E+00
 -1      1817 2.16874E+00
 -1      1818 2.65917E+00
 -1      1819 2.04340E+00
 -1      1820 3.39486E+00
 -1      1821 2.55407E+00
 -1      1822 1.94019E+00
 -1      1823 1.70720E+00
 -1      1824 1.37064E+00
 -1      1825 1.50893E+00
 -1      1826 1.18766E+00
 -1      1827 1.00137E+00
 -1      1828 1.09295E+00
 -1      1829 8.96178E-01
 -1      1830 7.85743E-01
 -1      1831 8.04775E-01
 -1      1832 7.35379E-01
 -1      1833 6.55545E-01
 -1      1834 6.49217E-01
 -1      1835 6.09580E-01
 -1      1836 5.50086E-01
 -1      1837 5.52889E-01
 -1      1838 5.08134E-01
 -1      1839 4.63235E-01
 -1      1840 4.64972E-01
 -1      1841 4.24288E-01
 -1      1842 3.97292E-01
 -1      1843 3.84074E-01
 -1      1844 4.23310E-01
 -1      1845 4.56261E-01
 -1      1846 3.71146E-01
 -1      1847 4.90052E-01
 -1      1848 5.31985E-01
 -1      1849 4.30955E-01
 -1      1850 5.98737E-01
 -1      1851 6.48340E-01
 -1      1852 5.31497E-01
 -1      1853 7.47982E-01
 -1      1854 8.52285E-01
 -1      1855 6.97890E-01
 -1      1856 9.55128E-01
 -1      1857 1.06301E+00
 -1      1858 9.00375E-01
 -1      1859 1.15673E+00
 -1      1860 1.24815E+00
 -1      1861 1.09694E+00
 -1      1862 1.31952E+00
 -1      1863 1.45060E+00
 -1      1864 1.26204E+00
 -1      1865 1.53399E+00
 -1      1866 1.69331E+00
 -1      1867 1.41680E+00
 -1      1868 1.72803E+00
 -1      1869 1.80090E+00
 -1      1870 1.53491E+00
 -1      1871 1.80451E+00
 -1      1872 1.76919E+00
 -1      1873 1.57323E+00
 -1      1874 1.77037E+00
 -1      1875 1.73490E+00
 -1      1876 1.57802E+00
 -1      1877 1.80290E+00
 -1      1878 1.99924E+00
 -1      1879 1.64720E+00
 -1      1880 2.26891E+00
 -1      1881 3.02924E+00
 -1      1882 1.98488E+00
 -1      1883 3.41434E+00
 -1      1884 4.30196E+00
 -1      1885 2.63966E+00
 -1      1886 4.70629E+00
 -1      1887 4.70931E+00
 -1      1888 3.42910E+00
 -1      1889 4.67647E+00
 -1      1890 4.51430E+00
 -1      1891 3.80060E+00
 -1      1892 4.02609E+00
 -1      1893 2.98266E+00
 -1      1894 3.27955E+00
 -1      1895 2.61174E+00
 -1      1896 2.05633E+00
 -1      1897 2.42042E+00
 -1      1898 1.88692E+00
 -1      1899 1.84348E+00
 -1      1900 1.88009E+00
 -1      1901 1.72827E+00
 -1      1902 1.68476E+00
 -1      1903 1.59546E+00
 -1      1904 1.74757E+00
 -1      1905 1.80619E+00
 -1      1906 1.54305E+00
 -1      1907 1.78388E+00
 -1      1908 1.67596E+00
 -1      1909 1.58355E+00
 -1      1910 1.62083E+00
 -1      1911 1.46235E+00
 -1      1912 1.50611E+00
 -1      1913 1.39126E+00
 -1      1914 1.28681E+00
 -1      1915 1.37990E+00
 -1      1916 1.21595E+00
 -1      1917 1.12236E+00
 -1      1918 1.23795E+00
 -1      1919 1.02976E+00
 -1      1920 9.25522E-01
 -1      1921 1.07449E+00
 -1      1922 8.30077E-01
 -1      1923 7.31402E-01
 -1      1924 8.86443E-01
 -1      1925 6.43840E-01
 -1      1926 5.58502E-01
 -1      1927 7.03436E-01
 -1      1928 4.83592E-01
 -1      1929 4.13976E-01
 -1      1930 5.40964E-01
 -1      1931 3.52816E-01
 -1      1932 3.09717E-01
 -1      1933 4.04893E-01
 -1      1934 2.61459E-01
 -1      1935 2.29026E-01
 -1      1936 2.95475E-01
 -1      1937 1.91974E-01
 -1      1938 1.65582E-01
 -1      1939 2.10166E-01
 -1      1940 1.37817E-01
 -1      1941 1.16816E-01
 -1      1942 1.45348E-01
 -1      1943 9.96196E-02
 -1      1944 8.77881E-02
 -1      1945 1.00387E-01
 -1      1946 7.61723E-02
 -1      1947 6.66209E-02
 -1      1948 7.15747E-02
 -1      1949 5.81262E-02
 -1      1950 4.89597E-02
 -1      1951 5.14641E-02
 -1      1952 4.26465E-02
 -1      1953 3.31257E-02
 -1      1954 3.66562E-02
 -1      1955 2.77827E-02
 -1      1956 2.02980E-02
 -1      1957 1.56911E-02
 -1      1958 2.50001E-02
 -1      1959 1.42124E+00
 -1      1960 1.79339E+00
 -1      1961 1.52148E+00
 -1      1962 1.04051E+00
 -1      1963 1.29214E+00
 -1      1964 1.01702E+00
 -1      1965 8.42241E-01
 -1      1966 9.41639E-01
 -1      1967 7.89037E-01
 -1      1968 6.95821E-01
 -1      1969 7.72199E-01
 -1      1970 6.20120E-01
 -1      1971 6.14338E-01
 -1      1972 6.73643E-01
 -1      1973 5.27900E-01
 -1      1974 5.45128E-01
 -1      1975 5.91697E-01
 -1      1976 4.83080E-01
 -1      1977 4.86448E-01
 -1      1978 5.23374E-01
 -1      1979 4.38685E-01
 -1      1980 4.35326E-01
 -1      1981 4.65736E-01
 -1      1982 3.96220E-01
 -1      1983 3.99417E-01
 -1      1984 4.27203E-01
 -1      1985 3.67386E-01
 -1      1986 4.22715E-01
 -1      1987 4.13351E-01
 -1      1988 3.73197E-01
 -1      1989 4.59145E-01
 -1      1990 4.47710E-01
 -1      1991 4.12126E-01
 -1      1992 5.02315E-01
 -1      1993 4.99927E-01
 -1      1994 4.77903E-01
 -1      1995 5.29485E-01
 -1      1996 5.28138E-01
 -1      1997 5.44508E-01
 -1      1998 5.70536E-01
 -1      1999 5.29485E-01
 -1      2000 5.70331E-01
 -1      2001 6.25921E-01
 -1      2002 5.66517E-01
 -1      2003 5.66312E-01
 -1      2004 6.02882E-01
 -1      2005 5.76606E-01
 -1      2006 5.12977E-01
 -1      2007 7.02783E-01
 -1      2008 5.98166E-01
 -1      2009 4.58947E-01
 -1      2010 8.59740E-01
 -1      2011 8.02104E-01
 -1      2012 5.53552E-01
 -1      2013 1.13467E+00
 -1      2014 1.07726E+00
 -1      2015 8.70393E-01
 -1      2016 1.42542E+00
 -1      2017 1.32456E+00
 -1      2018 1.27780E+00
 -1      2019 1.72240E+00
 -1      2020 1.48750E+00
 -1      2021 1.52978E+00
 -1      2022 2.01896E+00
 -1      2023 1.72240E+00
 -1      2024 1.59186E+00
 -1      2025 2.11155E+00
 -1      2026 2.01345E+00
 -1      2027 1.58635E+00
 -1      2028 2.34487E+00
 -1      2029 2.20705E+00
 -1      2030 1.67633E+00
 -1      2031 2.09098E+00
 -1      2032 2.30236E+00
 -1      2033 1.72931E+00
 -1      2034 1.46702E+00
 -1      2035 1.88173E+00
 -1      2036 1.47754E+00
 -1      2037 9.55934E-01
 -1      2038 1.24919E+00
 -1      2039 1.05046E+00
 -1      2040 6.18769E-01
 -1      2041 8.08627E-01
 -1      2042 6.85327E-01
 -1      2043 5.83079E-01
 -1      2044 5.68251E-01
 -1      2045 4.87502E-01
 -1      2046 6.68967E-01
 -1      2047 6.43319E-01
 -1      2048 4.97224E-01
 -1      2049 7.28006E-01
 -1      2050 6.91478E-01
 -1      2051 5.79974E-01
 -1      2052 7.17503E-01
 -1      2053 7.37977E-01
 -1      2054 6.12456E-01
 -1      2055 6.45299E-01
 -1      2056 6.96669E-01
 -1      2057 6.01593E-01
 -1      2058 5.58149E-01
 -1      2059 6.14687E-01
 -1      2060 5.50147E-01
 -1      2061 4.73752E-01
 -1      2062 5.24442E-01
 -1      2063 4.85828E-01
 -1      2064 3.87089E-01
 -1      2065 4.34912E-01
 -1      2066 4.13282E-01
 -1      2067 3.03397E-01
 -1      2068 3.48567E-01
 -1      2069 3.35920E-01
 -1      2070 2.28769E-01
 -1      2071 2.68401E-01
 -1      2072 2.62401E-01
 -1      2073 1.71948E-01
 -1      2074 1.99127E-01
 -1      2075 1.97762E-01
 -1      2076 1.31318E-01
 -1      2077 1.52797E-01
 -1      2078 1.48970E-01
 -1      2079 9.73850E-02
 -1      2080 1.15101E-01
 -1      2081 1.13602E-01
 -1      2082 7.06866E-02
 -1      2083 8.40358E-02
 -1      2084 8.40358E-02
 -1      2085 4.91648E-02
 -1      2086 5.99257E-02
 -1      2087 5.99257E-02
 -1      2088 3.56417E-02
 -1      2089 4.06351E-02
 -1      2090 4.06351E-02
 -1      2091 2.44200E-02
 -1      2092 2.99995E-02
 -1      2093 2.64632E-02
 -1      2094 1.39326E-02
 -1      2095 1.96036E-02
 -1      2096 1.60046E-02
 -1      2097 1.02732E-02
 -1      2098 1.03072E-02
 -1      2099 1.21887E-02
 -1      2100 1.43050E-02
 -1      2101 1.43050E-02
 -1      2102 1.54435E-02
 -1      2103 1.43050E-02
 -1      2104 1.34591E-02
 -1      2105 1.43740E-02
 -1      2106 1.75598E-02
 -1      2107 9.82602E-03
 -1      2108 9.40111E-03
 -1      2109 1.24211E-02
 -1      2110 1.42224E-02
 -1      2111 1.25149E-02
 -1      2112 1.42039E-02
 -1      2113 1.63229E-02
 -1      2114 1.55947E-02
 -1      2115 1.82652E-02
 -1      2116 1.63384E-02
 -1      2117 1.63229E-02
 -1      2118 1.96375E-02
 -1      2119 1.64125E-02
 -1      2120 1.64125E-02
 -1      2121 1.97115E-02
 -1      2122 1.56773E-02
 -1      2123 1.64125E-02
 -1      2124 1.97856E-02
 -1      2125 1.27791E-02
 -1      2126 1.44440E-02
 -1      2127 1.85523E-02
 -1      2128 9.85186E-03
 -1      2129 1.00473E-02
 -1      2130 1.45872E-02
 -1      2131 1.29653E-02
 -1      2132 1.09802E-02
 -1      2133 1.29837E-02
 -1      2134 1.49645E-02
 -1      2135 1.49645E-02
 -1      2136 1.61112E-02
 -1      2137 3.74437E+01
 -1      2138 2.77614E+01
 -1      2139 3.27181E+01
 -1      2140 3.27181E+01
 -1      2141 2.94594E+01
 -1      2142 3.19377E+01
 -1      2143 3.19377E+01
 -1      2144 1.87842E+01
 -1      2145 3.18108E+01
 -1      2146 1.03160E+01
 -1      2147 1.51425E+01
 -1      2148 1.28539E+01
 -1      2149 1.02740E+00
 -1      2150 1.20070E+00
 -1      2151 9.77741E-01
 -1      2152 8.43182E-01
 -1      2153 1.10385E+01
 -1      2154 1.06855E+01
 -1      2155 1.16651E+01
 -1      2156 1.21320E+01
 -1      2157 1.15216E+01
 -1      2158 1.14045E+01
 -1      2159 1.14045E+01
 -1      2160 1.05684E+01
 -1      2161 1.06464E+01
 -1      2162 9.26151E+00
 -1      2163 9.30381E+00
 -1      2164 1.72079E+01
 -1      2165 1.10406E+01
 -1      2166 3.22980E+01
 -1      2167 2.04171E+01
 -1      2168 1.36318E+01
 -1      2169 2.87870E+01
 -1      2170 3.82710E+01
 -1      2171 3.06755E+01
 -1      2172 3.05535E+01
 -1      2173 3.05535E+01
 -1      2174 3.06755E+01
 -1      2175 3.06755E+01
 -1      2176 2.91563E+01
 -1      2177 2.86660E+01
 -1      2178 3.92616E+01
 -1      2179 3.00116E+01
 -1      2180 2.07536E+01
 -1      2181 3.29125E+01
 -1      2182 2.36624E+01
 -1      2183 1.09250E+01
 -1      2184 1.73628E+01
 -1      2185 9.62774E+00
 -1      2186 9.09619E+00
 -1      2187 8.70293E+00
 -1      2188 1.09763E+01
 -1      2189 1.11094E+01
 -1      2190 1.09302E+01
 -1      2191 1.11875E+01
 -1      2192 1.17301E+01
 -1      2193 1.10999E+01
 -1      2194 1.03053E+01
 -1      2195 1.08077E+01
 -1      2196 9.87154E+00
 -1      2197 9.65094E+00
 -1      2198 1.87366E+01
 -1      2199 1.15439E+01
 -1      2200 2.50340E+01
 -1      2201 2.25970E+01
 -1      2202 3.15564E+01
 -1      2203 3.15564E+01
 -1      2204 3.09154E+01
 -1      2205 3.03346E+01
 -1      2206 9.65742E+00
 -1      2207 9.42084E+00
 -1      2208 8.44990E+00
 -1      2209 8.31699E+00
 -1      2210 2.90549E+00
 -1      2211 1.02688E+01
 -1      2212 2.09334E+00
 -1      2213 2.94594E+01
 -1      2214 2.21285E+01
 -1      2215 1.49177E-02
 -1      2216 3.09154E+01
 -1      2217 3.03346E+01
 -1      2218 2.50340E+01
 -1      2219 1.46511E+01
 -1      2220 9.11835E+00
 -1      2221 8.10027E+00
 -1      2222 9.67700E+00
 -1      2223 1.04296E+01
 -1      2224 8.35581E+00
 -1      2225 1.39225E+01
 -1      2226 2.91563E+01
 -1      2227 3.23200E+01
 -1      2228 3.17722E+01
 -1      2229 1.63151E+01
 -1      2230 2.22881E+01
 -1      2231 8.64349E+00
 -1      2232 1.05715E+01
 -1      2233 8.12900E+00
 -1      2234 3.03105E+01
 -1      2235 1.00487E+01
 -1      2236 1.09886E+00
 -1      2237 1.47421E+00
 -1      2238 5.49269E-01
 -1      2239 5.81757E-01
 -1      2240 5.95304E-01
 -1      2241 6.42837E-01
 -1      2242 4.91350E-01
 -1      2243 4.97753E-01
 -1      2244 4.96249E-01
 -1      2245 5.34600E-01
 -1      2246 5.11860E-01
 -1      2247 4.31863E-01
 -1      2248 5.85073E-01
 -1      2249 5.50772E-01
 -1      2250 4.62143E-01
 -1      2251 6.46848E-01
 -1      2252 5.98505E-01
 -1      2253 4.91748E-01
 -1      2254 7.14925E-01
 -1      2255 6.46848E-01
 -1      2256 5.05181E-01
 -1      2257 8.67241E-01
 -1      2258 7.59433E-01
 -1      2259 5.49689E-01
 -1      2260 8.87912E-01
 -1      2261 1.01702E+00
 -1      2262 9.69750E-01
 -1      2263 1.26138E+00
 -1      2264 1.02838E+00
 -1      2265 8.18502E+00
 -1      2266 9.06019E+00
 -1      2267 6.00558E+00
 -1      2268 6.90078E+00
 -1      2269 9.84198E-01
 -1      2270 8.01218E-01
 -1      2271 7.36652E-01
 -1      2272 7.37800E-01
 -1      2273 6.32606E-01
 -1      2274 6.29049E-01
 -1      2275 5.66874E-01
 -1      2276 5.16510E-01
 -1      2277 4.99899E-01
 -1      2278 4.91020E-01
 -1      2279 4.45055E-01
 -1      2280 4.08677E-01
 -1      2281 4.14539E-01
 -1      2282 3.72587E-01
 -1      2283 3.52670E-01
 -1      2284 3.36901E-01
 -1      2285 2.97955E-01
 -1      2286 2.86468E-01
 -1      2287 3.01195E-01
 -1      2288 3.27213E-01
 -1      2289 2.54022E-01
 -1      2290 3.59222E-01
 -1      2291 3.93012E-01
 -1      2292 2.89271E-01
 -1      2293 4.72864E-01
 -1      2294 5.39615E-01
 -1      2295 4.01130E-01
 -1      2296 6.30832E-01
 -1      2297 7.30474E-01
 -1      2298 5.72199E-01
 -1      2299 8.32243E-01
 -1      2300 9.35086E-01
 -1      2301 7.65185E-01
 -1      2302 1.04369E+00
 -1      2303 1.13741E+00
 -1      2304 9.75559E-01
 -1      2305 1.24434E+00
 -1      2306 1.31571E+00
 -1      2307 1.19109E+00
 -1      2308 1.40540E+00
 -1      2309 1.48879E+00
 -1      2310 1.38770E+00
 -1      2311 1.61342E+00
 -1      2312 1.64813E+00
 -1      2313 1.60202E+00
 -1      2314 1.83654E+00
 -1      2315 1.84015E+00
 -1      2316 1.91505E+00
 -1      2317 2.03655E+00
 -1      2318 2.03773E+00
 -1      2319 2.29986E+00
 -1      2320 2.56273E+00
 -1      2321 2.63073E+00
 -1      2322 3.02126E+00
 -1      2323 1.98488E+00
 -1      2324 2.25455E+00
 -1      2325 2.90041E+00
 -1      2326 3.10459E+00
 -1      2327 3.48970E+00
 -1      2328 3.10459E+00
 -1      2329 4.25259E+00
 -1      2330 4.65693E+00
 -1      2331 4.71752E+00
 -1      2332 4.98630E+00
 -1      2333 4.95346E+00
 -1      2334 5.80979E+00
 -1      2335 4.48155E+00
 -1      2336 3.99334E+00
 -1      2337 5.66725E+00
 -1      2338 3.06610E+00
 -1      2339 2.69518E+00
 -1      2340 4.26810E+00
 -1      2341 2.47355E+00
 -1      2342 2.30414E+00
 -1      2343 3.11923E+00
 -1      2344 2.11082E+00
 -1      2345 1.99561E+00
 -1      2346 2.70428E+00
 -1      2347 1.77268E+00
 -1      2348 1.83549E+00
 -1      2349 2.28804E+00
 -1      2350 1.67642E+00
 -1      2351 1.65410E+00
 -1      2352 1.90604E+00
 -1      2353 1.55915E+00
 -1      2354 1.50403E+00
 -1      2355 1.65202E+00
 -1      2356 1.42879E+00
 -1      2357 1.35770E+00
 -1      2358 1.48183E+00
 -1      2359 1.26453E+00
 -1      2360 1.19367E+00
 -1      2361 1.31343E+00
 -1      2362 1.08798E+00
 -1      2363 9.95382E-01
 -1      2364 1.11457E+00
 -1      2365 8.93766E-01
 -1      2366 7.98321E-01
 -1      2367 9.07260E-01
 -1      2368 7.11657E-01
 -1      2369 6.24095E-01
 -1      2370 7.18980E-01
 -1      2371 5.50674E-01
 -1      2372 4.75763E-01
 -1      2373 5.58895E-01
 -1      2374 4.15570E-01
 -1      2375 3.54410E-01
 -1      2376 4.25280E-01
 -1      2377 3.06336E-01
 -1      2378 2.58079E-01
 -1      2379 3.17013E-01
 -1      2380 2.20537E-01
 -1      2381 1.83485E-01
 -1      2382 2.31398E-01
 -1      2383 1.56081E-01
 -1      2384 1.28316E-01
 -1      2385 1.66453E-01
 -1      2386 1.07623E-01
 -1      2387 9.04264E-02
 -1      2388 1.18356E-01
 -1      2389 7.50511E-02
 -1      2390 6.34353E-02
 -1      2391 8.22870E-02
 -1      2392 5.22907E-02
 -1      2393 4.37960E-02
 -1      2394 5.57671E-02
 -1      2395 3.64041E-02
 -1      2396 3.00909E-02
 -1      2397 3.72307E-02
 -1      2398 5.40325E-01
 -1      2399 6.10367E-01
 -1      2400 4.85396E-01
 -1      2401 5.07574E-01
 -1      2402 4.97821E-01
 -1      2403 4.26260E-01
 -1      2404 4.48901E-01
 -1      2405 4.28575E-01
 -1      2406 3.66541E-01
 -1      2407 3.88295E-01
 -1      2408 3.54116E-01
 -1      2409 3.14327E-01
 -1      2410 3.35038E-01
 -1      2411 2.84648E-01
 -1      2412 3.21339E-01
 -1      2413 3.29462E-01
 -1      2414 2.68280E-01
 -1      2415 3.48410E-01
 -1      2416 3.34476E-01
 -1      2417 2.96552E-01
 -1      2418 4.07017E-01
 -1      2419 3.82022E-01
 -1      2420 3.43302E-01
 -1      2421 4.86229E-01
 -1      2422 4.45447E-01
 -1      2423 4.15343E-01
 -1      2424 5.44508E-01
 -1      2425 5.18685E-01
 -1      2426 4.86229E-01
 -1      2427 5.70331E-01
 -1      2428 5.70331E-01
 -1      2429 5.44508E-01
 -1      2430 5.66346E-01
 -1      2431 5.70366E-01
 -1      2432 5.70366E-01
 -1      2433 4.95850E-01
 -1      2434 5.45165E-01
 -1      2435 5.49219E-01
 -1      2436 5.34632E-01
 -1      2437 5.39348E-01
 -1      2438 5.71535E-01
 -1      2439 6.44859E-01
 -1      2440 5.45538E-01
 -1      2441 6.25939E-01
 -1      2442 1.01481E+00
 -1      2443 7.97288E-01
 -1      2444 7.89274E-01
 -1      2445 1.35992E+00
 -1      2446 1.17003E+00
 -1      2447 1.09693E+00
 -1      2448 1.52978E+00
 -1      2449 1.46769E+00
 -1      2450 1.35992E+00
 -1      2451 1.59186E+00
 -1      2452 1.59186E+00
 -1      2453 1.52978E+00
 -1      2454 1.58839E+00
 -1      2455 1.59390E+00
 -1      2456 1.59390E+00
 -1      2457 1.67633E+00
 -1      2458 1.58084E+00
 -1      2459 1.58839E+00
 -1      2460 1.59528E+00
 -1      2461 1.63780E+00
 -1      2462 1.54230E+00
 -1      2463 1.27645E+00
 -1      2464 1.48570E+00
 -1      2465 1.39418E+00
 -1      2466 8.92205E-01
 -1      2467 1.11003E+00
 -1      2468 1.11819E+00
 -1      2469 6.01452E-01
 -1      2470 7.48758E-01
 -1      2471 8.08329E-01
 -1      2472 5.29375E-01
 -1      2473 5.79894E-01
 -1      2474 6.43325E-01
 -1      2475 5.46900E-01
 -1      2476 4.86660E-01
 -1      2477 5.79052E-01
 -1      2478 5.99403E-01
 -1      2479 5.76892E-01
 -1      2480 5.66329E-01
 -1      2481 6.06762E-01
 -1      2482 5.96791E-01
 -1      2483 5.93709E-01
 -1      2484 5.67310E-01
 -1      2485 5.88144E-01
 -1      2486 5.72480E-01
 -1      2487 5.14002E-01
 -1      2488 5.44614E-01
 -1      2489 5.31165E-01
 -1      2490 4.52174E-01
 -1      2491 4.85881E-01
 -1      2492 4.80348E-01
 -1      2493 3.80208E-01
 -1      2494 4.19048E-01
 -1      2495 4.19100E-01
 -1      2496 3.06721E-01
 -1      2497 3.45243E-01
 -1      2498 3.51009E-01
 -1      2499 2.38524E-01
 -1      2500 2.73521E-01
 -1      2501 2.82844E-01
 -1      2502 1.79450E-01
 -1      2503 2.09092E-01
 -1      2504 2.20212E-01
 -1      2505 1.35496E-01
 -1      2506 1.54647E-01
 -1      2507 1.65977E-01
 -1      2508 9.92196E-02
 -1      2509 1.15436E-01
 -1      2510 1.21113E-01
 -1      2511 7.02451E-02
 -1      2512 8.35943E-02
 -1      2513 8.54288E-02
 -1      2514 4.78261E-02
 -1      2515 5.85870E-02
 -1      2516 5.81454E-02
 -1      2517 3.25583E-02
 -1      2518 4.10880E-02
 -1      2519 3.97493E-02
 -1      2520 2.21962E-02
 -1      2521 2.78385E-02
 -1      2522 2.82914E-02
 -1      2523 1.91904E-02
 -1      2524 1.95511E-02
 -1      2525 1.68622E-02
 -1      2526 2.32293E-02
 -1      2527 2.18570E-02
 -1      2528 2.45152E-02
 -1      2529 1.55413E-02
 -1      2530 1.76576E-02
 -1      2531 1.49381E-02
 -1      2532 1.58443E-02
 -1      2533 1.80583E-02
 -1      2534 2.02853E-02
 -1      2535 2.35438E-02
 -1      2536 2.35438E-02
 -1      2537 2.71356E-02
 -1      2538 2.36798E-02
 -1      2539 2.36057E-02
 -1      2540 2.75121E-02
 -1      2541 2.36798E-02
 -1      2542 2.36798E-02
 -1      2543 2.75740E-02
 -1      2544 2.24419E-02
 -1      2545 2.36752E-02
 -1      2546 2.75694E-02
 -1      2547 1.75394E-02
 -1      2548 2.02712E-02
 -1      2549 2.53941E-02
 -1      2550 1.66490E-02
 -1      2551 1.55207E-02
 -1      2552 2.12047E-02
 -1      2553 1.78684E-02
 -1      2554 1.58693E-02
 -1      2555 1.84063E-02
 -1      2556 1.49987E+01
 -1      2557 2.06316E+01
 -1      2558 1.88837E-02
 -1      2559 3.09154E+01
 -1      2560 2.91128E+01
 -1      2561 6.90161E-01
 -1      2562 7.89037E-01
 -1      2563 6.10367E-01
 -1      2564 3.11573E+01
 -1      2565 3.19377E+01
 -1      2566 8.21986E+00
 -1      2567 1.18615E+01
 -1      2568 1.03647E+01
 -1      2569 5.90846E+00
 -1      2570 7.29587E+00
 -1      2571 6.26777E+00
 -1      2572 2.53140E+01
 -1      2573 2.65358E+01
 -1      2574 2.53140E+01
 -1      2575 2.52053E+01
 -1      2576 2.43500E+01
 -1      2577 7.48776E+00
 -1      2578 5.70866E+00
 -1      2579 5.10369E-01
 -1      2580 5.33365E-01
 -1      2581 4.61899E-01
 -1      2582 4.31875E-01
 -1      2583 1.65450E+00
 -1      2584 1.30308E+00
 -1      2585 8.22539E-01
 -1      2586 9.57068E-01
 -1      2587 5.89760E+00
 -1      2588 7.16221E+00
 -1      2589 9.93925E+00
 -1      2590 1.01998E+01
 -1      2591 2.83010E+01
 -1      2592 3.03105E+01
 -1      2593 2.43500E+01
 -1      2594 9.37264E+00
 -1      2595 8.27910E+00
 -1      2596 1.25840E+01
 -1      2597 9.37482E+00
 -1      2598 6.43999E+00
 -1      2599 2.66883E+01
 -1      2600 2.49217E+01
 -1      2601 8.99070E+00
 -1      2602 8.77951E+00
 -1      2603 3.23200E+01
 -1      2604 3.23200E+01
 -1      2605 1.51368E+01
 -1      2606 2.14859E+01
 -1      2607 9.93294E+00
 -1      2608 1.33237E+01
 -1      2609 6.21740E+00
 -1      2610 8.04620E+00
 -1      2611 7.65896E+00
 -1      2612 6.17727E+00
 -1      2613 9.69651E+00
 -1      2614 9.52674E+00
 -1      2615 8.25757E+00
 -1      2616 8.20263E+00
 -1      2617 9.12504E+00
 -1      2618 6.32064E+00
 -1      2619 6.97496E+00
 -1      2620 8.87130E+00
 -1      2621 7.19890E+00
 -1      2622 1.37581E+01
 -1      2623 9.89768E+00
 -1      2624 2.28379E+01
 -1      2625 1.63155E+01
 -1      2626 1.15620E+01
 -1      2627 2.45216E+01
 -1      2628 2.62196E+01
 -1      2629 2.62196E+01
 -1      2630 1.60479E+00
 -1      2631 1.75137E+00
 -1      2632 1.30861E+00
 -1      2633 1.18217E+00
 -1      2634 5.04897E-01
 -1      2635 6.42837E-01
 -1      2636 7.05243E-01
 -1      2637 7.89037E-01
 -1      2638 1.22652E+00
 -1      2639 1.78173E+01
 -1      2640 7.97823E+00
 -1      2641 4.74187E+00
 -1      2642 7.85548E+00
 -1      2643 4.85156E+00
 -1      2644 6.07359E+00
 -1      2645 6.09697E+00
 -1      2646 8.22214E+00
 -1      2647 2.05657E-02
 -1      2648 2.05657E-02
 -1      2649 6.60097E+00
 -1      2650 1.73918E+01
 -1      2651 1.96571E-02
 -1      2652 1.88837E-02
 -1      2653 1.86418E-02
 -1      2654 2.50001E-02
 -1      2655 5.52054E+00
 -1      2656 2.59351E+01
 -1      2657 2.41324E+01
 -1      2658 2.51547E+01
 -1      2659 9.53478E-01
 -1      2660 7.44740E+00
 -1      2661 6.83187E-01
 -1      2662 7.55340E-01
 -1      2663 6.62514E-01
 -1      2664 4.82842E-01
 -1      2665 1.66797E+01
 -1      2666 1.11472E+01
 -1      2667 3.03105E+01
 -1      2668 1.34508E+01
 -1      2669 9.19384E+00
 -1      2670 1.29250E+01
 -1      2671 1.69732E+01
 -1      2672 2.08384E+01
 -1      2673 1.43396E+01
 -1      2674 5.95361E+00
 -1      2675 7.90737E+00
 -1      2676 2.66883E+01
 -1      2677 6.42300E+00
 -1      2678 2.06634E-02
 -1      2679 2.47479E-02
 -1      2680 6.01185E-01
 -1      2681 5.59483E-01
 -1      2682 3.99457E-01
 -1      2683 4.14341E-01
 -1      2684 3.98168E-01
 -1      2685 3.87955E-01
 -1      2686 3.73847E-01
 -1      2687 3.40152E-01
 -1      2688 4.32235E-01
 -1      2689 4.32235E-01
 -1      2690 4.67507E-01
 -1      2691 4.22998E-01
 -1      2692 3.50053E-01
 -1      2693 7.05693E-01
 -1      2694 7.87531E-01
 -1      2695 6.27454E+00
 -1      2696 8.16128E+00
 -1      2697 1.80237E+01
 -1      2698 2.29615E+01
 -1      2699 5.31462E-01
 -1      2700 4.68045E-01
 -1      2701 4.52304E-01
 -1      2702 3.86571E-01
 -1      2703 3.54716E-01
 -1      2704 3.53352E-01
 -1      2705 3.27861E-01
 -1      2706 3.05756E-01
 -1      2707 2.99715E-01
 -1      2708 2.69198E-01
 -1      2709 2.44390E-01
 -1      2710 2.42214E-01
 -1      2711 2.06529E-01
 -1      2712 1.89259E-01
 -1      2713 1.90480E-01
 -1      2714 1.93720E-01
 -1      2715 1.46227E-01
 -1      2716 2.37874E-01
 -1      2717 2.69883E-01
 -1      2718 1.74332E-01
 -1      2719 3.34190E-01
 -1      2720 4.14041E-01
 -1      2721 2.82793E-01
 -1      2722 4.90972E-01
 -1      2723 5.82189E-01
 -1      2724 4.24031E-01
 -1      2725 6.74679E-01
 -1      2726 7.76447E-01
 -1      2727 5.93452E-01
 -1      2728 8.89850E-01
 -1      2729 9.98455E-01
 -1      2730 7.99344E-01
 -1      2731 1.13462E+00
 -1      2732 1.24155E+00
 -1      2733 1.04891E+00
 -1      2734 1.40931E+00
 -1      2735 1.49900E+00
 -1      2736 1.35284E+00
 -1      2737 1.69704E+00
 -1      2738 1.82167E+00
 -1      2739 1.71865E+00
 -1      2740 2.02655E+00
 -1      2741 2.21496E+00
 -1      2742 2.12157E+00
 -1      2743 2.56152E+00
 -1      2744 2.75791E+00
 -1      2745 2.67301E+00
 -1      2746 3.41073E+00
 -1      2747 3.93573E+00
 -1      2748 3.67238E+00
 -1      2749 5.26734E+00
 -1      2750 4.62149E+00
 -1      2751 5.47152E+00
 -1      2752 4.71752E+00
 -1      2753 5.48042E+00
 -1      2754 6.89492E+00
 -1      2755 6.42300E+00
 -1      2756 3.11923E+00
 -1      2757 2.89760E+00
 -1      2758 3.74135E+00
 -1      2759 3.54803E+00
 -1      2760 3.74135E+00
 -1      2761 3.05448E+00
 -1      2762 2.83156E+00
 -1      2763 4.09155E+00
 -1      2764 2.37890E+00
 -1      2765 2.21984E+00
 -1      2766 3.14535E+00
 -1      2767 1.92459E+00
 -1      2768 1.82964E+00
 -1      2769 2.39745E+00
 -1      2770 1.65404E+00
 -1      2771 1.57881E+00
 -1      2772 1.92661E+00
 -1      2773 1.41167E+00
 -1      2774 1.31850E+00
 -1      2775 1.58388E+00
 -1      2776 1.17484E+00
 -1      2777 1.06915E+00
 -1      2778 1.27308E+00
 -1      2779 9.50106E-01
 -1      2780 8.48490E-01
 -1      2781 1.01038E+00
 -1      2782 7.51537E-01
 -1      2783 6.64873E-01
 -1      2784 7.94383E-01
 -1      2785 5.86359E-01
 -1      2786 5.12938E-01
 -1      2787 6.18916E-01
 -1      2788 4.49759E-01
 -1      2789 3.89566E-01
 -1      2790 4.77224E-01
 -1      2791 3.39152E-01
 -1      2792 2.91079E-01
 -1      2793 3.63631E-01
 -1      2794 2.51265E-01
 -1      2795 2.13724E-01
 -1      2796 2.73404E-01
 -1      2797 1.82659E-01
 -1      2798 1.55255E-01
 -1      2799 2.02526E-01
 -1      2800 1.31343E-01
 -1      2801 1.10650E-01
 -1      2802 1.47549E-01
 -1      2803 9.25352E-02
 -1      2804 7.71599E-02
 -1      2805 1.05522E-01
 -1      2806 6.37635E-02
 -1      2807 5.26190E-02
 -1      2808 7.40117E-02
 -1      2809 4.25623E-02
 -1      2810 3.51703E-02
 -1      2811 5.05586E-02
 -1      2812 3.39432E-01
 -1      2813 3.75926E-01
 -1      2814 4.02233E-01
 -1      2815 4.34985E-01
 -1      2816 3.13090E-01
 -1      2817 2.12895E-01
 -1      2818 2.44398E-01
 -1      2819 2.31137E-01
 -1      2820 2.16002E-01
 -1      2821 1.75752E-01
 -1      2822 2.70401E-01
 -1      2823 2.57264E-01
 -1      2824 2.04986E-01
 -1      2825 3.50783E-01
 -1      2826 3.17171E-01
 -1      2827 2.77882E-01
 -1      2828 4.33788E-01
 -1      2829 3.95358E-01
 -1      2830 3.69227E-01
 -1      2831 5.04026E-01
 -1      2832 4.71570E-01
 -1      2833 4.51584E-01
 -1      2834 5.67843E-01
 -1      2835 5.42020E-01
 -1      2836 5.27361E-01
 -1      2837 6.17411E-01
 -1      2838 6.17376E-01
 -1      2839 6.14888E-01
 -1      2840 6.31944E-01
 -1      2841 6.53126E-01
 -1      2842 7.00136E-01
 -1      2843 7.00474E-01
 -1      2844 6.56976E-01
 -1      2845 7.60883E-01
 -1      2846 8.25575E-01
 -1      2847 8.14669E-01
 -1      2848 9.00110E-01
 -1      2849 1.00508E+00
 -1      2850 8.52655E-01
 -1      2851 1.04139E+00
 -1      2852 1.35646E+00
 -1      2853 1.20124E+00
 -1      2854 1.26462E+00
 -1      2855 1.40774E+00
 -1      2856 1.29997E+00
 -1      2857 1.40428E+00
 -1      2858 1.71208E+00
 -1      2859 1.64999E+00
 -1      2860 1.59004E+00
 -1      2861 2.29346E+00
 -1      2862 2.29142E+00
 -1      2863 2.41164E+00
 -1      2864 2.36019E+00
 -1      2865 2.36774E+00
 -1      2866 3.06526E+00
 -1      2867 1.71776E+00
 -1      2868 1.75629E+00
 -1      2869 2.53564E+00
 -1      2870 1.33772E+00
 -1      2871 1.44731E+00
 -1      2872 1.66130E+00
 -1      2873 1.15415E+00
 -1      2874 1.32057E+00
 -1      2875 1.37369E+00
 -1      2876 8.88985E-01
 -1      2877 1.03243E+00
 -1      2878 1.23481E+00
 -1      2879 8.26590E-01
 -1      2880 8.48148E-01
 -1      2881 1.07225E+00
 -1      2882 6.79510E-01
 -1      2883 7.22226E-01
 -1      2884 9.27049E-01
 -1      2885 6.84232E-01
 -1      2886 6.54240E-01
 -1      2887 7.97414E-01
 -1      2888 6.51775E-01
 -1      2889 6.54387E-01
 -1      2890 7.42298E-01
 -1      2891 5.90333E-01
 -1      2892 6.08951E-01
 -1      2893 6.69628E-01
 -1      2894 5.28157E-01
 -1      2895 5.50854E-01
 -1      2896 5.87325E-01
 -1      2897 4.70541E-01
 -1      2898 4.98662E-01
 -1      2899 5.18351E-01
 -1      2900 4.02256E-01
 -1      2901 4.35383E-01
 -1      2902 4.53697E-01
 -1      2903 3.31062E-01
 -1      2904 3.66026E-01
 -1      2905 3.82308E-01
 -1      2906 2.63676E-01
 -1      2907 2.96876E-01
 -1      2908 3.11893E-01
 -1      2909 2.03825E-01
 -1      2910 2.33257E-01
 -1      2911 2.47289E-01
 -1      2912 1.53110E-01
 -1      2913 1.77914E-01
 -1      2914 1.90959E-01
 -1      2915 1.11745E-01
 -1      2916 1.31804E-01
 -1      2917 1.43742E-01
 -1      2918 7.91239E-02
 -1      2919 9.47491E-02
 -1      2920 1.05440E-01
 -1      2921 5.43127E-02
 -1      2922 6.59708E-02
 -1      2923 7.52911E-02
 -1      2924 3.74783E-02
 -1      2925 4.42163E-02
 -1      2926 5.20417E-02
 -1      2927 2.46066E-02
 -1      2928 2.93265E-02
 -1      2929 3.37935E-02
 -1      2930 2.16986E-02
 -1      2931 3.27523E-02
 -1      2932 3.26904E-02
 -1      2933 2.82042E-02
 -1      2934 2.31134E-02
 -1      2935 2.20981E-02
 -1      2936 3.35357E-02
 -1      2937 3.08507E-02
 -1      2938 2.85448E-02
 -1      2939 3.30383E-02
 -1      2940 3.30383E-02
 -1      2941 3.82166E-02
 -1      2942 3.26904E-02
 -1      2943 3.23759E-02
 -1      2944 3.64055E-02
 -1      2945 3.79307E-02
 -1      2946 4.79454E-01
 -1      2947 5.59248E-01
 -1      2948 3.83866E-01
 -1      2949 3.30336E-02
 -1      2950 3.30383E-02
 -1      2951 3.85025E-02
 -1      2952 2.99274E-02
 -1      2953 3.20981E-02
 -1      2954 3.75670E-02
 -1      2955 2.71964E-02
 -1      2956 2.92151E-02
 -1      2957 3.59191E-02
 -1      2958 2.20981E-02
 -1      2959 2.28778E-02
 -1      2960 3.08882E-02
 -1      2961 2.65696E-02
 -1      2962 7.46639E+00
 -1      2963 1.66295E+01
 -1      2964 1.29316E+01
 -1      2965 2.15099E+01
 -1      2966 1.77111E+01
 -1      2967 7.54799E+00
 -1      2968 6.52160E+00
 -1      2969 6.60097E+00
 -1      2970 2.75798E-01
 -1      2971 3.13762E-01
 -1      2972 2.61114E-01
 -1      2973 2.04044E-01
 -1      2974 6.00542E+00
 -1      2975 6.88448E+00
 -1      2976 5.77662E-01
 -1      2977 5.33478E-01
 -1      2978 3.72473E-01
 -1      2979 3.56309E-01
 -1      2980 4.21345E+00
 -1      2981 5.23626E+00
 -1      2982 4.26526E+00
 -1      2983 5.54506E+00
 -1      2984 4.66681E+00
 -1      2985 1.72041E+01
 -1      2986 2.11551E+01
 -1      2987 7.04543E+00
 -1      2988 6.21825E+00
 -1      2989 5.92803E-01
 -1      2990 6.91678E-01
 -1      2991 5.09460E-01
 -1      2992 4.61890E-01
 -1      2993 4.32235E-01
 -1      2994 4.18803E-01
 -1      2995 3.54828E-01
 -1      2996 3.59290E-01
 -1      2997 3.71948E+00
 -1      2998 3.45730E+00
 -1      2999 4.17636E-01
 -1      3000 4.31183E-01
 -1      3001 2.40070E+01
 -1      3002 1.83753E+01
 -1      3003 7.07089E+00
 -1      3004 5.18384E+00
 -1      3005 1.26090E+01
 -1      3006 1.64990E+01
 -1      3007 5.19533E+00
 -1      3008 8.91133E+00
 -1      3009 1.07244E+01
 -1      3010 2.01793E+01
 -1      3011 2.21888E+01
 -1      3012 1.30334E+01
 -1      3013 8.22893E-01
 -1      3014 1.20925E+01
 -1      3015 1.58119E+01
 -1      3016 5.55960E+00
 -1      3017 4.57638E+00
 -1      3018 3.18211E+00
 -1      3019 3.85331E+00
 -1      3020 4.04224E+00
 -1      3021 1.10102E+01
 -1      3022 8.45279E+00
 -1      3023 4.26810E+00
 -1      3024 3.32489E+00
 -1      3025 3.29797E-01
 -1      3026 3.73705E-01
 -1      3027 3.87825E-01
 -1      3028 7.73847E+00
 -1      3029 1.27670E+01
 -1      3030 2.09628E+01
 -1      3031 1.49602E+01
 -1      3032 4.31183E-01
 -1      3033 4.31183E-01
 -1      3034 3.57468E-01
 -1      3035 5.65681E+00
 -1      3036 6.23442E+00
 -1      3037 9.85665E+00
 -1      3038 3.06925E-02
 -1      3039 2.43569E-02
 -1      3040 2.24329E-02
 -1      3041 4.66305E+00
 -1      3042 6.51311E+00
 -1      3043 4.82400E+00
 -1      3044 2.06346E-02
 -1      3045 2.03317E-02
 -1      3046 2.42748E-02
 -1      3047 2.47062E-02
 -1      3048 9.82234E+00
 -1      3049 1.65295E+01
 -1      3050 6.99616E+00
 -1      3051 7.93769E+00
 -1      3052 1.28254E+01
 -1      3053 1.03729E+01
 -1      3054 9.48001E+00
 -1      3055 6.81975E+00
 -1      3056 9.95690E+00
 -1      3057 6.82792E+00
 -1      3058 5.11482E+00
 -1      3059 1.27256E+01
 -1      3060 9.86127E+00
 -1      3061 1.12759E+01
 -1      3062 1.50896E+01
 -1      3063 1.10064E+01
 -1      3064 1.24084E+01
 -1      3065 3.98565E+00
 -1      3066 5.30473E+00
 -1      3067 4.89694E+00
 -1      3068 2.85357E+00
 -1      3069 1.26170E+01
 -1      3070 5.58836E-01
 -1      3071 3.97872E-01
 -1      3072 4.13776E-01
 -1      3073 3.53609E-01
 -1      3074 3.39702E-01
 -1      3075 4.69766E+00
 -1      3076 2.21888E+01
 -1      3077 1.38758E+01
 -1      3078 1.20576E+01
 -1      3079 1.32409E+01
 -1      3080 4.48421E+00
 -1      3081 7.14218E+00
 -1      3082 6.60613E+00
 -1      3083 4.32145E-01
 -1      3084 2.92622E-01
 -1      3085 3.01859E-01
 -1      3086 3.37511E+00
 -1      3087 4.14427E+00
 -1      3088 2.67060E-01
 -1      3089 2.33841E-01
 -1      3090 2.16298E-01
 -1      3091 1.88151E-01
 -1      3092 1.77602E-01
 -1      3093 1.63475E-01
 -1      3094 1.36490E-01
 -1      3095 1.35382E-01
 -1      3096 1.47027E-01
 -1      3097 1.30979E-01
 -1      3098 1.21242E-01
 -1      3099 1.62426E-01
 -1      3100 2.06580E-01
 -1      3101 1.63226E-01
 -1      3102 2.57987E-01
 -1      3103 3.22294E-01
 -1      3104 2.46080E-01
 -1      3105 3.96622E-01
 -1      3106 4.73553E-01
 -1      3107 3.71815E-01
 -1      3108 5.64895E-01
 -1      3109 6.57384E-01
 -1      3110 5.37485E-01
 -1      3111 7.66915E-01
 -1      3112 8.80318E-01
 -1      3113 7.38358E-01
 -1      3114 1.00863E+00
 -1      3115 1.14480E+00
 -1      3116 9.76201E-01
 -1      3117 1.29958E+00
 -1      3118 1.46734E+00
 -1      3119 1.25929E+00
 -1      3120 1.71313E+00
 -1      3121 1.91118E+00
 -1      3122 1.65987E+00
 -1      3123 2.30843E+00
 -1      3124 2.51331E+00
 -1      3125 2.30291E+00
 -1      3126 3.11286E+00
 -1      3127 3.45941E+00
 -1      3128 3.29971E+00
 -1      3129 4.02158E+00
 -1      3130 4.67440E+00
 -1      3131 4.46143E+00
 -1      3132 7.65575E+00
 -1      3133 9.02389E+00
 -1      3134 5.48558E+00
 -1      3135 5.81495E+00
 -1      3136 2.72899E+00
 -1      3137 2.90020E+00
 -1      3138 2.77921E+00
 -1      3139 4.97792E+00
 -1      3140 4.48437E+00
 -1      3141 3.82319E+00
 -1      3142 3.37053E+00
 -1      3143 4.70956E+00
 -1      3144 3.01420E+00
 -1      3145 2.71895E+00
 -1      3146 3.69203E+00
 -1      3147 2.23986E+00
 -1      3148 2.06427E+00
 -1      3149 2.85661E+00
 -1      3150 1.73456E+00
 -1      3151 1.56742E+00
 -1      3152 2.04781E+00
 -1      3153 1.36149E+00
 -1      3154 1.21783E+00
 -1      3155 1.51217E+00
 -1      3156 1.08388E+00
 -1      3157 9.64845E-01
 -1      3158 1.17230E+00
 -1      3159 8.53981E-01
 -1      3160 7.57027E-01
 -1      3161 9.27489E-01
 -1      3162 6.63601E-01
 -1      3163 5.85087E-01
 -1      3164 7.23198E-01
 -1      3165 5.08977E-01
 -1      3166 4.45798E-01
 -1      3167 5.53661E-01
 -1      3168 3.85191E-01
 -1      3169 3.34776E-01
 -1      3170 4.16943E-01
 -1      3171 2.87353E-01
 -1      3172 2.47540E-01
 -1      3173 3.08912E-01
 -1      3174 2.10992E-01
 -1      3175 1.79927E-01
 -1      3176 2.24941E-01
 -1      3177 1.52293E-01
 -1      3178 1.28381E-01
 -1      3179 1.60759E-01
 -1      3180 1.08790E-01
 -1      3181 9.06754E-02
 -1      3182 1.13534E-01
 -1      3183 7.60940E-02
 -1      3184 6.26977E-02
 -1      3185 7.93614E-02
 -1      3186 5.70951E-02
 -1      3187 4.70384E-02
 -1      3188 5.91774E-02
 -1      3189 4.57302E-02
 -1      3190 4.57302E-02
 -1      3191 2.02483E-01
 -1      3192 1.76357E-01
 -1      3193 1.42383E-01
 -1      3194 1.39275E-01
 -1      3195 1.39880E-01
 -1      3196 3.90844E-01
 -1      3197 3.46269E-01
 -1      3198 4.82730E-01
 -1      3199 4.44947E-01
 -1      3200 4.21989E-01
 -1      3201 5.74932E-01
 -1      3202 5.36937E-01
 -1      3203 5.30300E-01
 -1      3204 6.78773E-01
 -1      3205 6.29240E-01
 -1      3206 6.38816E-01
 -1      3207 8.04017E-01
 -1      3208 7.68302E-01
 -1      3209 7.82654E-01
 -1      3210 9.17567E-01
 -1      3211 8.92536E-01
 -1      3212 9.60701E-01
 -1      3213 1.10183E+00
 -1      3214 9.87633E-01
 -1      3215 1.11929E+00
 -1      3216 1.30063E+00
 -1      3217 1.27355E+00
 -1      3218 1.36108E+00
 -1      3219 1.46077E+00
 -1      3220 1.26462E+00
 -1      3221 1.49679E+00
 -1      3222 1.82604E+00
 -1      3223 1.88253E+00
 -1      3224 1.88253E+00
 -1      3225 2.99099E+00
 -1      3226 2.41164E+00
 -1      3227 3.71561E+00
 -1      3228 3.64134E+00
 -1      3229 1.85997E+00
 -1      3230 2.13042E+00
 -1      3231 1.61862E+00
 -1      3232 1.63578E+00
 -1      3233 2.10491E+00
 -1      3234 1.40339E+00
 -1      3235 1.52512E+00
 -1      3236 1.78721E+00
 -1      3237 1.33480E+00
 -1      3238 1.37564E+00
 -1      3239 1.66595E+00
 -1      3240 1.01047E+00
 -1      3241 1.11484E+00
 -1      3242 1.41823E+00
 -1      3243 9.37280E-01
 -1      3244 9.62550E-01
 -1      3245 1.15034E+00
 -1      3246 8.19689E-01
 -1      3247 8.49535E-01
 -1      3248 1.01467E+00
 -1      3249 6.92922E-01
 -1      3250 7.35746E-01
 -1      3251 8.42982E-01
 -1      3252 5.96484E-01
 -1      3253 6.35963E-01
 -1      3254 7.02081E-01
 -1      3255 5.19230E-01
 -1      3256 5.48725E-01
 -1      3257 5.97364E-01
 -1      3258 4.38222E-01
 -1      3259 4.73381E-01
 -1      3260 5.03756E-01
 -1      3261 3.58242E-01
 -1      3262 3.94472E-01
 -1      3263 4.14156E-01
 -1      3264 2.85161E-01
 -1      3265 3.19346E-01
 -1      3266 3.31510E-01
 -1      3267 2.22460E-01
 -1      3268 2.52878E-01
 -1      3269 2.60332E-01
 -1      3270 1.69786E-01
 -1      3271 1.95697E-01
 -1      3272 2.01286E-01
 -1      3273 1.26771E-01
 -1      3274 1.48077E-01
 -1      3275 1.52815E-01
 -1      3276 9.25232E-02
 -1      3277 1.09519E-01
 -1      3278 1.13854E-01
 -1      3279 6.59493E-02
 -1      3280 7.91024E-02
 -1      3281 8.31815E-02
 -1      3282 4.53462E-02
 -1      3283 5.54425E-02
 -1      3284 5.92538E-02
 -1      3285 2.87981E-02
 -1      3286 3.69499E-02
 -1      3287 4.03507E-02
 -1      3288 2.74312E-02
 -1      3289 3.35357E-02
 -1      3290 3.12928E-01
 -1      3291 3.02715E-01
 -1      3292 4.47946E-02
 -1      3293 4.57302E-02
 -1      3294 5.29578E-02
 -1      3295 4.48234E-02
 -1      3296 4.45375E-02
 -1      3297 5.20510E-02
 -1      3298 4.63908E-02
 -1      3299 4.71031E-02
 -1      3300 5.52662E-02
 -1      3301 1.20222E+01
 -1      3302 1.10464E+01
 -1      3303 2.95372E-01
 -1      3304 2.48602E-01
 -1      3305 2.19973E-01
 -1      3306 3.16989E-01
 -1      3307 7.18746E+00
 -1      3308 9.42358E+00
 -1      3309 4.03856E-01
 -1      3310 3.81800E-01
 -1      3311 3.20472E-01
 -1      3312 3.30141E-01
 -1      3313 2.47931E-01
 -1      3314 2.74237E-01
 -1      3315 3.73958E+00
 -1      3316 3.51794E+00
 -1      3317 1.47292E+01
 -1      3318 1.21067E+01
 -1      3319 6.40686E+00
 -1      3320 2.82922E-01
 -1      3321 2.67181E-01
 -1      3322 1.95265E-01
 -1      3323 4.41523E+00
 -1      3324 3.75658E+00
 -1      3325 1.12612E+01
 -1      3326 1.01795E+01
 -1      3327 4.11331E+00
 -1      3328 2.78278E+00
 -1      3329 1.12422E+01
 -1      3330 1.27670E+01
 -1      3331 1.02137E+01
 -1      3332 1.16059E+01
 -1      3333 8.01280E+00
 -1      3334 6.63585E+00
 -1      3335 5.73105E+00
 -1      3336 9.53998E+00
 -1      3337 7.61860E+00
 -1      3338 6.35349E+00
 -1      3339 3.50671E+00
 -1      3340 2.64982E+00
 -1      3341 3.22429E+00
 -1      3342 3.95059E-01
 -1      3343 3.03730E-01
 -1      3344 2.55536E-01
 -1      3345 3.81044E-01
 -1      3346 8.33389E+00
 -1      3347 6.21094E+00
 -1      3348 8.13453E+00
 -1      3349 2.96328E-01
 -1      3350 3.40797E-01
 -1      3351 2.31169E-01
 -1      3352 2.96168E-01
 -1      3353 2.96025E-01
 -1      3354 2.68943E-01
 -1      3355 3.12667E-01
 -1      3356 3.16526E-01
 -1      3357 3.77290E+00
 -1      3358 3.16533E-01
 -1      3359 3.16533E-01
 -1      3360 2.59102E-01
 -1      3361 1.07683E+01
 -1      3362 3.16427E-01
 -1      3363 3.16427E-01
 -1      3364 2.75485E-01
 -1      3365 1.93013E-01
 -1      3366 2.18683E-01
 -1      3367 1.79830E-01
 -1      3368 5.33822E+00
 -1      3369 1.10464E+01
 -1      3370 3.93125E-02
 -1      3371 3.51246E-02
 -1      3372 5.10086E-02
 -1      3373 4.44018E-02
 -1      3374 4.44018E-02
 -1      3375 4.82651E+00
 -1      3376 4.43031E+00
 -1      3377 2.72887E+00
 -1      3378 8.94969E+00
 -1      3379 1.05441E-01
 -1      3380 1.38810E-01
 -1      3381 1.70210E-01
 -1      3382 2.02572E+00
 -1      3383 1.78347E+00
 -1      3384 2.55711E+00
 -1      3385 3.16101E+00
 -1      3386 7.97578E+00
 -1      3387 4.43186E-02
 -1      3388 4.27934E-02
 -1      3389 4.72255E-02
 -1      3390 5.07897E-02
 -1      3391 3.12928E-01
 -1      3392 2.75490E-01
 -1      3393 3.17390E-01
 -1      3394 4.43908E-02
 -1      3395 5.55748E-02
 -1      3396 4.00722E-02
 -1      3397 9.61891E+00
 -1      3398 3.73708E+00
 -1      3399 2.75579E+00
 -1      3400 2.60507E+00
 -1      3401 4.49448E+00
 -1      3402 5.25324E+00
 -1      3403 5.66920E+00
 -1      3404 3.36463E-01
 -1      3405 3.70018E-01
 -1      3406 2.55618E-01
 -1      3407 2.48925E-01
 -1      3408 2.75102E-01
 -1      3409 2.92759E-01
 -1      3410 3.10939E-01
 -1      3411 9.46086E+00
 -1      3412 1.03729E+01
 -1      3413 8.75890E+00
 -1      3414 8.48933E+00
 -1      3415 1.05374E+01
 -1      3416 6.75606E+00
 -1      3417 1.13848E+01
 -1      3418 8.09920E+00
 -1      3419 9.56661E+00
 -1      3420 2.26173E+00
 -1      3421 2.32716E+00
 -1      3422 2.85551E+00
 -1      3423 5.45579E+00
 -1      3424 5.39937E+00
 -1      3425 3.88111E+00
 -1      3426 4.26939E+00
 -1      3427 3.08923E-01
 -1      3428 2.35808E+00
 -1      3429 2.65176E+00
 -1      3430 2.21388E-01
 -1      3431 3.12667E-01
 -1      3432 2.75584E-01
 -1      3433 3.02619E-01
 -1      3434 1.40467E-01
 -1      3435 1.15790E-01
 -1      3436 1.29389E-01
 -1      3437 1.39926E-01
 -1      3438 1.34474E-01
 -1      3439 1.58609E-01
 -1      3440 1.90057E-01
 -1      3441 1.66756E-01
 -1      3442 2.32612E-01
 -1      3443 2.84018E-01
 -1      3444 2.27994E-01
 -1      3445 3.49468E-01
 -1      3446 4.23796E-01
 -1      3447 3.35999E-01
 -1      3448 5.06396E-01
 -1      3449 5.97738E-01
 -1      3450 4.84049E-01
 -1      3451 7.03051E-01
 -1      3452 8.12582E-01
 -1      3453 6.71962E-01
 -1      3454 9.49504E-01
 -1      3455 1.07781E+00
 -1      3456 9.14196E-01
 -1      3457 1.25929E+00
 -1      3458 1.41407E+00
 -1      3459 1.23260E+00
 -1      3460 1.65987E+00
 -1      3461 1.90566E+00
 -1      3462 1.65987E+00
 -1      3463 2.25146E+00
 -1      3464 2.64871E+00
 -1      3465 2.25146E+00
 -1      3466 3.33935E+00
 -1      3467 3.93890E+00
 -1      3468 3.28789E+00
 -1      3469 8.27191E+00
 -1      3470 9.28311E+00
 -1      3471 3.24189E-02
 -1      3472 3.06206E-02
 -1      3473 3.51439E-02
 -1      3474 4.10389E-02
 -1      3475 6.54182E-02
 -1      3476 6.31098E-02
 -1      3477 5.65309E+00
 -1      3478 5.29676E+00
 -1      3479 3.30197E+00
 -1      3480 2.82288E+00
 -1      3481 5.26303E+00
 -1      3482 2.35429E+00
 -1      3483 2.02458E+00
 -1      3484 2.79965E+00
 -1      3485 1.71810E+00
 -1      3486 1.51217E+00
 -1      3487 2.02458E+00
 -1      3488 1.30624E+00
 -1      3489 1.17230E+00
 -1      3490 1.51217E+00
 -1      3491 1.01619E+00
 -1      3492 9.05322E-01
 -1      3493 1.15013E+00
 -1      3494 7.86517E-01
 -1      3495 6.93090E-01
 -1      3496 8.75215E-01
 -1      3497 6.01921E-01
 -1      3498 5.25811E-01
 -1      3499 6.65240E-01
 -1      3500 4.55369E-01
 -1      3501 3.94762E-01
 -1      3502 5.03630E-01
 -1      3503 3.40172E-01
 -1      3504 2.92749E-01
 -1      3505 3.78598E-01
 -1      3506 2.50525E-01
 -1      3507 2.13977E-01
 -1      3508 2.81785E-01
 -1      3509 1.81497E-01
 -1      3510 1.53862E-01
 -1      3511 2.07081E-01
 -1      3512 1.29062E-01
 -1      3513 1.09472E-01
 -1      3514 1.49800E-01
 -1      3515 9.10587E-02
 -1      3516 7.64773E-02
 -1      3517 1.06587E-01
 -1      3518 6.11774E-02
 -1      3519 5.77094E-01
 -1      3520 5.22886E-01
 -1      3521 4.58968E-01
 -1      3522 4.04864E-01
 -1      3523 5.05761E-01
 -1      3524 9.08420E-01
 -1      3525 8.18891E-01
 -1      3526 1.11254E+00
 -1      3527 1.02402E+00
 -1      3528 1.06026E+00
 -1      3529 1.35050E+00
 -1      3530 1.28043E+00
 -1      3531 1.34375E+00
 -1      3532 1.72325E+00
 -1      3533 1.55152E+00
 -1      3534 1.71267E+00
 -1      3535 1.89629E+00
 -1      3536 1.93231E+00
 -1      3537 2.12276E+00
 -1      3538 2.67508E+00
 -1      3539 2.25332E+00
 -1      3540 2.68553E+00
 -1      3541 3.21194E+00
 -1      3542 4.72696E+00
 -1      3543 3.64134E+00
 -1      3544 3.12255E+00
 -1      3545 2.73664E+00
 -1      3546 1.94933E+00
 -1      3547 2.16930E+00
 -1      3548 1.43705E+00
 -1      3549 1.48498E+00
 -1      3550 2.23605E+00
 -1      3551 1.06881E+00
 -1      3552 1.15656E+00
 -1      3553 1.49120E+00
 -1      3554 8.83468E-01
 -1      3555 9.67411E-01
 -1      3556 1.10930E+00
 -1      3557 7.30940E-01
 -1      3558 7.87898E-01
 -1      3559 9.12327E-01
 -1      3560 5.96514E-01
 -1      3561 6.44273E-01
 -1      3562 7.30090E-01
 -1      3563 4.84364E-01
 -1      3564 5.30214E-01
 -1      3565 5.77123E-01
 -1      3566 3.89175E-01
 -1      3567 4.32925E-01
 -1      3568 4.59383E-01
 -1      3569 3.11390E-01
 -1      3570 3.50286E-01
 -1      3571 3.69055E-01
 -1      3572 2.46813E-01
 -1      3573 2.79096E-01
 -1      3574 2.97872E-01
 -1      3575 1.91122E-01
 -1      3576 2.17885E-01
 -1      3577 2.36649E-01
 -1      3578 1.44640E-01
 -1      3579 1.66349E-01
 -1      3580 1.82947E-01
 -1      3581 1.06921E-01
 -1      3582 1.24172E-01
 -1      3583 1.37706E-01
 -1      3584 7.69090E-02
 -1      3585 9.03299E-02
 -1      3586 1.00648E-01
 -1      3587 2.06682E+00
 -1      3588 2.09458E+00
 -1      3589 2.59793E+00
 -1      3590 6.32147E-02
 -1      3591 6.23079E-02
 -1      3592 7.20320E-01
 -1      3593 6.66011E-01
 -1      3594 6.58597E-01
 -1      3595 8.46086E-01
 -1      3596 5.69230E+00
 -1      3597 3.56824E+00
 -1      3598 3.02429E-01
 -1      3599 6.04555E+00
 -1      3600 7.86421E+00
 -1      3601 1.74811E-01
 -1      3602 1.40838E-01
 -1      3603 1.85126E-01
 -1      3604 1.59125E-01
 -1      3605 8.78211E+00
 -1      3606 7.93657E+00
 -1      3607 1.52933E-01
 -1      3608 1.35391E-01
 -1      3609 1.15798E-01
 -1      3610 1.48847E-01
 -1      3611 1.48726E-01
 -1      3612 1.06515E-01
 -1      3613 8.15232E+00
 -1      3614 8.56861E+00
 -1      3615 6.32147E-02
 -1      3616 6.32147E-02
 -1      3617 7.34716E-02
 -1      3618 7.33667E-02
 -1      3619 9.89399E+00
 -1      3620 9.66301E+00
 -1      3621 7.29703E+00
 -1      3622 1.77775E-01
 -1      3623 1.99866E-01
 -1      3624 7.94612E+00
 -1      3625 6.41874E+00
 -1      3626 7.04310E+00
 -1      3627 9.89399E+00
 -1      3628 9.89399E+00
 -1      3629 9.01962E+00
 -1      3630 6.98984E+00
 -1      3631 7.28746E-02
 -1      3632 2.26173E+00
 -1      3633 2.30430E+00
 -1      3634 2.04904E-01
 -1      3635 2.19578E-01
 -1      3636 1.27779E-01
 -1      3637 7.07561E+00
 -1      3638 8.09920E+00
 -1      3639 7.46574E+00
 -1      3640 7.20206E-02
 -1      3641 7.18849E-02
 -1      3642 8.31842E-02
 -1      3643 8.10310E+00
 -1      3644 6.33981E+00
 -1      3645 6.63651E+00
 -1      3646 4.46143E+00
 -1      3647 5.02360E+00
 -1      3648 1.16336E-01
 -1      3649 1.15870E-01
 -1      3650 1.51267E-01
 -1      3651 2.74634E-01
 -1      3652 2.35476E-01
 -1      3653 2.35476E-01
 -1      3654 1.95461E-01
 -1      3655 2.35476E-01
 -1      3656 2.28928E-01
 -1      3657 1.43168E-01
 -1      3658 1.96561E-01
 -1      3659 8.13872E+00
 -1      3660 1.92227E-01
 -1      3661 3.91047E-01
 -1      3662 3.54068E-01
 -1      3663 3.03171E-01
 -1      3664 2.68884E+00
 -1      3665 2.61388E-01
 -1      3666 2.65176E+00
 -1      3667 3.07845E+00
 -1      3668 7.93657E+00
 -1      3669 2.10491E+00
 -1      3670 2.32910E+00
 -1      3671 5.41928E-02
 -1      3672 6.46996E-02
 -1      3673 4.35401E-02
 -1      3674 5.92329E+00
 -1      3675 7.11311E+00
 -1      3676 2.68990E-01
 -1      3677 1.78721E+00
 -1      3678 1.88072E+00
 -1      3679 2.57319E-01
 -1      3680 2.11200E-01
 -1      3681 2.12157E-01
 -1      3682 2.94398E-01
 -1      3683 1.35814E-01
 -1      3684 1.65061E-01
 -1      3685 1.33758E-01
 -1      3686 5.14226E+00
 -1      3687 4.05678E+00
 -1      3688 3.41060E+00
 -1      3689 1.12585E-01
 -1      3690 9.28311E+00
 -1      3691 6.79211E+00
 -1      3692 6.50861E+00
 -1      3693 3.39746E+00
 -1      3694 3.18405E+00
 -1      3695 7.25782E+00
 -1      3696 2.35624E-01
 -1      3697 2.35624E-01
 -1      3698 2.10491E+00
 -1      3699 2.46134E+00
 -1      3700 8.33813E-02
 -1      3701 7.99003E-02
 -1      3702 6.06281E+00
 -1      3703 4.50107E+00
 -1      3704 4.89860E-02
 -1      3705 7.18481E-02
 -1      3706 2.18809E+00
 -1      3707 3.29499E+00
 -1      3708 9.34390E-02
 -1      3709 9.76468E-02
 -1      3710 1.08375E-01
 -1      3711 1.31179E-01
 -1      3712 1.16410E-01
 -1      3713 2.34122E-01
 -1      3714 2.34023E-01
 -1      3715 5.16916E-02
 -1      3716 1.68775E-01
 -1      3717 1.87458E-01
 -1      3718 2.09853E-01
 -1      3719 2.52408E-01
 -1      3720 2.11872E-01
 -1      3721 2.97297E-01
 -1      3722 3.62747E-01
 -1      3723 2.79156E-01
 -1      3724 4.27342E-01
 -1      3725 5.09942E-01
 -1      3726 3.88640E-01
 -1      3727 5.93822E-01
 -1      3728 6.99135E-01
 -1      3729 5.37115E-01
 -1      3730 8.12398E-01
 -1      3731 9.49319E-01
 -1      3732 7.34258E-01
 -1      3733 1.11155E+00
 -1      3734 1.29303E+00
 -1      3735 1.00975E+00
 -1      3736 1.53724E+00
 -1      3737 1.78303E+00
 -1      3738 1.41619E+00
 -1      3739 2.18119E+00
 -1      3740 2.52699E+00
 -1      3741 2.05856E+00
 -1      3742 3.28789E+00
 -1      3743 3.97854E+00
 -1      3744 3.21763E+00
 -1      3745 5.92329E+00
 -1      3746 2.35808E+00
 -1      3747 1.13790E-01
 -1      3748 1.10486E-01
 -1      3749 7.30223E+00
 -1      3750 6.42133E+00
 -1      3751 2.44509E-01
 -1      3752 2.04985E-01
 -1      3753 3.01140E+00
 -1      3754 2.54281E+00
 -1      3755 2.27301E+00
 -1      3756 1.96654E+00
 -1      3757 2.48477E+00
 -1      3758 1.63558E+00
 -1      3759 1.42966E+00
 -1      3760 1.88402E+00
 -1      3761 1.21311E+00
 -1      3762 1.05700E+00
 -1      3763 1.33652E+00
 -1      3764 9.11623E-01
 -1      3765 7.92818E-01
 -1      3766 9.74599E-01
 -1      3767 6.90066E-01
 -1      3768 5.98896E-01
 -1      3769 7.26474E-01
 -1      3770 5.23267E-01
 -1      3771 4.52825E-01
 -1      3772 5.48092E-01
 -1      3773 3.95333E-01
 -1      3774 3.40743E-01
 -1      3775 4.14970E-01
 -1      3776 2.96477E-01
 -1      3777 2.54254E-01
 -1      3778 3.13212E-01
 -1      3779 2.19967E-01
 -1      3780 1.87487E-01
 -1      3781 2.34660E-01
 -1      3782 1.60951E-01
 -1      3783 1.36151E-01
 -1      3784 1.73837E-01
 -1      3785 1.15500E-01
 -1      3786 9.70876E-02
 -1      3787 1.26651E-01
 -1      3788 5.72351E-01
 -1      3789 5.08433E-01
 -1      3790 4.93244E+00
 -1      3791 3.15180E+00
 -1      3792 1.76800E+00
 -1      3793 1.60011E+00
 -1      3794 1.26397E+00
 -1      3795 1.14837E+00
 -1      3796 1.68822E+00
 -1      3797 2.47971E+00
 -1      3798 2.27065E+00
 -1      3799 1.99125E-01
 -1      3800 1.94162E-01
 -1      3801 8.78474E-02
 -1      3802 4.74403E+00
 -1      3803 1.52622E-01
 -1      3804 2.79478E+00
 -1      3805 1.57761E-01
 -1      3806 1.53739E+00
 -1      3807 1.81789E+00
 -1      3808 1.00057E-01
 -1      3809 9.54016E-01
 -1      3810 1.04959E+00
 -1      3811 7.15473E-01
 -1      3812 8.02140E-01
 -1      3813 9.39399E-01
 -1      3814 5.65276E-01
 -1      3815 6.31577E-01
 -1      3816 7.03626E-01
 -1      3817 4.54422E-01
 -1      3818 5.05861E-01
 -1      3819 5.60315E-01
 -1      3820 3.69055E-01
 -1      3821 4.07944E-01
 -1      3822 4.54422E-01
 -1      3823 2.95247E-01
 -1      3824 3.27541E-01
 -1      3825 3.66430E-01
 -1      3826 2.30782E-01
 -1      3827 2.59711E-01
 -1      3828 2.89380E-01
 -1      3829 1.76446E-01
 -1      3830 2.01219E-01
 -1      3831 2.24281E-01
 -1      3832 1.31838E-01
 -1      3833 1.52305E-01
 -1      3834 1.70577E-01
 -1      3835 1.02662E-01
 -1      3836 1.19253E-01
 -1      3837 1.33852E-01
 -1      3838 2.76871E+00
 -1      3839 1.57445E-01
 -1      3840 1.55943E-01
 -1      3841 2.29030E-01
 -1      3842 2.35624E-01
 -1      3843 1.95664E-01
 -1      3844 1.95562E-01
 -1      3845 8.07181E-02
 -1      3846 8.34645E-02
 -1      3847 8.33813E-02
 -1      3848 1.16056E-01
 -1      3849 1.47483E-01
 -1      3850 1.23543E-01
 -1      3851 1.36301E-01
 -1      3852 9.41651E-02
 -1      3853 5.54028E+00
 -1      3854 6.19478E+00
 -1      3855 6.19478E+00
 -1      3856 4.19999E+00
 -1      3857 5.35829E+00
 -1      3858 3.32831E+00
 -1      3859 1.16274E-01
 -1      3860 1.21350E-01
 -1      3861 1.03198E-01
 -1      3862 1.31358E+00
 -1      3863 1.41498E+00
 -1      3864 1.74167E+00
 -1      3865 5.54028E+00
 -1      3866 2.67427E+00
 -1      3867 3.15791E+00
 -1      3868 2.90081E+00
 -1      3869 2.20991E+00
 -1      3870 2.94267E+00
 -1      3871 2.09862E+00
 -1      3872 1.89760E+00
 -1      3873 2.45557E+00
 -1      3874 7.08023E+00
 -1      3875 6.26746E+00
 -1      3876 1.65380E-01
 -1      3877 2.19578E-01
 -1      3878 2.20435E-01
 -1      3879 1.36301E-01
 -1      3880 1.41038E-01
 -1      3881 1.54638E-01
 -1      3882 1.75340E-01
 -1      3883 1.41514E-01
 -1      3884 8.96312E-02
 -1      3885 1.18662E-01
 -1      3886 8.97361E-02
 -1      3887 6.09296E+00
 -1      3888 6.09296E+00
 -1      3889 5.80946E+00
 -1      3890 8.06524E-02
 -1      3891 9.03650E-02
 -1      3892 1.19270E-01
 -1      3893 7.30223E+00
 -1      3894 5.58484E+00
 -1      3895 7.30223E+00
 -1      3896 1.57767E-01
 -1      3897 1.57767E-01
 -1      3898 1.80420E-01
 -1      3899 1.23478E-01
 -1      3900 9.07962E-02
 -1      3901 1.10765E-01
 -1      3902 5.08433E-01
 -1      3903 4.41843E-01
 -1      3904 3.91047E-01
 -1      3905 1.18662E-01
 -1      3906 1.21268E-01
 -1      3907 1.18662E-01
 -1      3908 6.56738E-01
 -1      3909 6.59409E-01
 -1      3910 7.45655E-01
 -1      3911 4.87232E+00
 -1      3912 4.83519E+00
 -1      3913 3.34889E+00
 -1      3914 2.15395E+00
 -1      3915 3.94315E+00
 -1      3916 8.06524E-02
 -1      3917 8.06524E-02
 -1      3918 8.78332E-02
 -1      3919 1.77580E-01
 -1      3920 1.53078E-01
 -1      3921 5.41080E+00
 -1      3922 5.57960E+00
 -1      3923 3.03382E+00
 -1      3924 1.57610E-01
 -1      3925 1.19392E-01
 -1      3926 1.57610E-01
 -1      3927 1.35527E+00
 -1      3928 1.04476E-01
 -1      3929 2.48546E-01
 -1      3930 2.12157E-01
 -1      3931 2.13969E-01
 -1      3932 1.10766E-01
 -1      3933 2.25610E+00
 -1      3934 5.57960E+00
 -1      3935 9.60319E-01
 -1      3936 8.61748E-01
 -1      3937 8.59888E-01
 -1      3938 6.69010E+00
 -1      3939 2.82516E+00
 -1      3940 3.72845E+00
 -1      3941 4.25872E+00
 -1      3942 6.28850E+00
 -1      3943 4.57111E+00
 -1      3944 3.02710E+00
 -1      3945 1.51341E-01
 -1      3946 1.13647E-01
 -1      3947 1.36301E-01
 -1      3948 1.16403E+00
 -1      3949 1.14626E-01
 -1      3950 1.19261E-01
 -1      3951 1.08981E-01
 -1      3952 1.39554E-01
 -1      3953 1.32059E-01
 -1      3954 1.34911E-01
 -1      3955 1.65868E-01
 -1      3956 5.07477E+00
 -1      3957 2.35775E+00
 -1      3958 2.61043E+00
 -1      3959 2.28210E+00
 -1      3960 1.96572E+00
 -1      3961 2.69125E-01
 -1      3962 3.14015E-01
 -1      3963 3.57547E-01
 -1      3964 4.22142E-01
 -1      3965 3.47516E-01
 -1      3966 4.77101E-01
 -1      3967 5.60981E-01
 -1      3968 4.46008E-01
 -1      3969 6.36373E-01
 -1      3970 7.49636E-01
 -1      3971 5.76360E-01
 -1      3972 8.55654E-01
 -1      3973 1.01789E+00
 -1      3974 7.57769E-01
 -1      3975 1.17657E+00
 -1      3976 1.42077E+00
 -1      3977 1.02247E+00
 -1      3978 1.84205E+00
 -1      3979 2.24021E+00
 -1      3980 1.60242E+00
 -1      3981 2.98018E+00
 -1      3982 3.74109E+00
 -1      3983 2.76366E+00
 -1      3984 2.40342E+00
 -1      3985 2.13363E+00
 -1      3986 1.31591E+00
 -1      3987 1.12785E+00
 -1      3988 1.88211E+00
 -1      3989 1.54597E+00
 -1      3990 1.50980E+00
 -1      3991 6.09296E+00
 -1      3992 5.70745E+00
 -1      3993 5.11032E+00
 -1      3994 1.85864E+00
 -1      3995 1.52768E+00
 -1      3996 1.77729E+00
 -1      3997 1.29863E+00
 -1      3998 1.08208E+00
 -1      3999 1.27324E+00
 -1      4000 9.40535E-01
 -1      4001 7.95162E-01
 -1      4002 9.02644E-01
 -1      4003 7.00684E-01
 -1      4004 5.97932E-01
 -1      4005 6.66621E-01
 -1      4006 5.31199E-01
 -1      4007 4.55570E-01
 -1      4008 5.05410E-01
 -1      4009 4.04960E-01
 -1      4010 3.47468E-01
 -1      4011 3.88067E-01
 -1      4012 3.08135E-01
 -1      4013 2.63870E-01
 -1      4014 2.98126E-01
 -1      4015 2.33037E-01
 -1      4016 1.98750E-01
 -1      4017 2.27960E-01
 -1      4018 1.85549E-01
 -1      4019 1.59013E-01
 -1      4020 1.83926E-01
 -1      4021 1.28967E-01
 -1      4022 1.08316E-01
 -1      4023 1.40678E-01
 -1      4024 4.49002E+00
 -1      4025 3.05775E+00
 -1      4026 3.89289E+00
 -1      4027 5.60315E-01
 -1      4028 6.19730E-01
 -1      4029 3.40251E-01
 -1      4030 2.94398E-01
 -1      4031 2.94398E-01
 -1      4032 3.91047E-01
 -1      4033 4.83732E+00
 -1      4034 4.07711E+00
 -1      4035 1.07222E-01
 -1      4036 1.01899E-01
 -1      4037 7.03626E-01
 -1      4038 7.87522E-01
 -1      4039 7.03626E-01
 -1      4040 2.86180E+00
 -1      4041 3.93569E+00
 -1      4042 2.74711E+00
 -1      4043 4.16225E+00
 -1      4044 2.13634E-01
 -1      4045 2.36028E-01
 -1      4046 2.70887E-01
 -1      4047 9.45046E-01
 -1      4048 1.09692E+00
 -1      4049 9.45046E-01
 -1      4050 4.46469E-01
 -1      4051 4.92947E-01
 -1      4052 5.52362E-01
 -1      4053 3.50623E-01
 -1      4054 3.92136E-01
 -1      4055 4.30661E-01
 -1      4056 2.71143E-01
 -1      4057 3.06680E-01
 -1      4058 3.32385E-01
 -1      4059 2.07018E-01
 -1      4060 2.36581E-01
 -1      4061 2.53881E-01
 -1      4062 1.55742E-01
 -1      4063 1.79882E-01
 -1      4064 1.92183E-01
 -1      4065 1.24003E-01
 -1      4066 1.36587E-01
 -1      4067 1.45892E-01
 -1      4068 1.24003E-01
 -1      4069 9.69170E-02
 -1      4070 1.57767E-01
 -1      4071 1.57868E-01
 -1      4072 1.20072E-01
 -1      4073 1.66176E+00
 -1      4074 1.78417E+00
 -1      4075 1.88581E+00
 -1      4076 1.09817E+00
 -1      4077 1.36216E+00
 -1      4078 1.40466E+00
 -1      4079 1.10382E+00
 -1      4080 9.41651E-02
 -1      4081 2.47950E+00
 -1      4082 9.28968E-02
 -1      4083 1.04476E-01
 -1      4084 1.07082E-01
 -1      4085 9.03650E-02
 -1      4086 2.28355E+00
 -1      4087 2.15395E+00
 -1      4088 2.01170E+00
 -1      4089 2.47950E+00
 -1      4090 4.65059E+00
 -1      4091 5.57960E+00
 -1      4092 4.88045E+00
 -1      4093 1.06860E-01
 -1      4094 8.95329E-02
 -1      4095 1.08160E-01
 -1      4096 1.07026E-01
 -1      4097 1.86613E-01
 -1      4098 1.73089E-01
 -1      4099 4.07711E+00
 -1      4100 4.07711E+00
 -1      4101 3.50364E+00
 -1      4102 2.39596E+00
 -1      4103 1.12636E+00
 -1      4104 9.74488E-01
 -1      4105 8.58396E-01
 -1      4106 9.92326E-02
 -1      4107 1.89183E+00
 -1      4108 2.10656E+00
 -1      4109 1.71027E+00
 -1      4110 1.19815E-01
 -1      4111 4.16225E+00
 -1      4112 2.13459E-01
 -1      4113 2.37615E-01
 -1      4114 1.99321E-01
 -1      4115 1.31522E-01
 -1      4116 1.31522E-01
 -1      4117 1.37421E-01
 -1      4118 1.51086E-01
 -1      4119 2.28808E+00
 -1      4120 2.81836E+00
 -1      4121 1.89781E+00
 -1      4122 1.70775E-01
 -1      4123 8.62735E-02
 -1      4124 8.88053E-02
 -1      4125 2.46944E-01
 -1      4126 2.12367E-01
 -1      4127 2.19588E-01
 -1      4128 1.30717E-01
 -1      4129 1.30717E-01
 -1      4130 1.29157E-01
 -1      4131 1.42116E-01
 -1      4132 8.02471E-02
 -1      4133 9.33042E-02
 -1      4134 8.99353E-02
 -1      4135 5.75022E-01
 -1      4136 5.08433E-01
 -1      4137 9.97292E-02
 -1      4138 7.43796E-01
 -1      4139 6.59409E-01
 -1      4140 8.58396E-01
 -1      4141 6.59409E-01
 -1      4142 1.11179E-01
 -1      4143 3.26142E-01
 -1      4144 3.69674E-01
 -1      4145 1.07314E-01
 -1      4146 9.47826E-02
 -1      4147 1.37709E-01
 -1      4148 4.14000E-01
 -1      4149 4.68960E-01
 -1      4150 3.92626E-01
 -1      4151 5.29740E-01
 -1      4152 6.05132E-01
 -1      4153 4.97733E-01
 -1      4154 7.04884E-01
 -1      4155 8.10901E-01
 -1      4156 6.58264E-01
 -1      4157 9.85665E-01
 -1      4158 1.14435E+00
 -1      4159 9.32780E-01
 -1      4160 1.60242E+00
 -1      4161 2.02369E+00
 -1      4162 1.56562E+00
 -1      4163 2.76366E+00
 -1      4164 1.81835E+00
 -1      4165 1.58829E+00
 -1      4166 1.52807E-01
 -1      4167 1.35374E-01
 -1      4168 1.73552E-01
 -1      4169 4.50234E+00
 -1      4170 4.50234E+00
 -1      4171 4.27247E+00
 -1      4172 1.79303E+00
 -1      4173 1.51804E+00
 -1      4174 1.36607E+00
 -1      4175 1.13702E+00
 -1      4176 1.38181E+00
 -1      4177 1.07956E+00
 -1      4178 9.38012E-01
 -1      4179 1.17239E+00
 -1      4180 7.91829E-01
 -1      4181 6.97351E-01
 -1      4182 9.68743E-01
 -1      4183 5.87857E-01
 -1      4184 5.21124E-01
 -1      4185 7.13066E-01
 -1      4186 4.36663E-01
 -1      4187 3.86054E-01
 -1      4188 5.19111E-01
 -1      4189 3.12520E-01
 -1      4190 2.73187E-01
 -1      4191 3.61116E-01
 -1      4192 2.51179E-01
 -1      4193 2.20346E-01
 -1      4194 2.65573E-01
 -1      4195 1.85364E-01
 -1      4196 1.72163E-01
 -1      4197 2.08583E-01
 -1      4198 1.72163E-01
 -1      4199 3.49842E+00
 -1      4200 2.28099E+00
 -1      4201 2.08504E+00
 -1      4202 2.89044E+00
 -1      4203 4.89950E-01
 -1      4204 5.44283E-01
 -1      4205 1.46993E+00
 -1      4206 1.47595E+00
 -1      4207 1.17034E+00
 -1      4208 1.30225E-01
 -1      4209 1.21728E-01
 -1      4210 1.11179E-01
 -1      4211 1.48121E-01
 -1      4212 2.84067E+00
 -1      4213 3.85440E+00
 -1      4214 2.43180E+00
 -1      4215 2.10164E+00
 -1      4216 8.67328E-01
 -1      4217 9.51224E-01
 -1      4218 9.51224E-01
 -1      4219 1.10875E+00
 -1      4220 1.11493E+00
 -1      4221 3.61546E-01
 -1      4222 4.05489E-01
 -1      4223 5.19111E-01
 -1      4224 2.28646E-01
 -1      4225 2.63208E-01
 -1      4226 3.36312E-01
 -1      4227 1.67147E-01
 -1      4228 1.94283E-01
 -1      4229 2.03611E-01
 -1      4230 2.60201E-01
 -1      4231 2.93298E-01
 -1      4232 3.15456E-01
 -1      4233 1.07571E-01
 -1      4234 6.53777E-01
 -1      4235 7.21145E-01
 -1      4236 7.13066E-01
 -1      4237 1.19022E-01
 -1      4238 2.08894E-01
 -1      4239 9.73088E-02
 -1      4240 1.11494E-01
 -1      4241 1.14229E-01
 -1      4242 9.32172E-02
 -1      4243 7.50906E-01
 -1      4244 6.66519E-01
 -1      4245 1.42973E-01
 -1      4246 5.04368E-01
 -1      4247 4.37778E-01
 -1      4248 3.86982E-01
 -1      4249 2.08812E+00
 -1      4250 1.71437E-01
 -1      4251 2.14075E-01
 -1      4252 2.05676E-01
 -1      4253 1.85394E-01
 -1      4254 1.43955E+00
 -1      4255 1.28619E+00
 -1      4256 1.74811E+00
 -1      4257 1.82887E+00
 -1      4258 2.42622E-01
 -1      4259 1.73601E-01
 -1      4260 1.30087E+00
 -1      4261 1.54121E+00
 -1      4262 1.72274E+00
 -1      4263 3.39566E-01
 -1      4264 2.93714E-01
 -1      4265 2.92112E-01
 -1      4266 3.86298E-01
 -1      4267 2.76366E+00
 -1      4268 9.68743E-01
 -1      4269 2.42797E-01
 -1      4270 2.65207E-01
 -1      4271 2.42622E-01
 -1      4272 1.27149E-01
 -1      4273 1.46303E-01
 -1      4274 1.48404E-01
 -1      4275 1.14640E-01
 -1      4276 9.25670E-01
 -1      4277 9.32780E-01
 -1      4278 1.04027E+00
 -1      4279 6.41737E-01
 -1      4280 5.50240E-01
 -1      4281 4.79586E-01
 -1      4282 1.16909E+00
 -1      4283 1.95388E-01
 -1      4284 2.45342E-01
 -1      4285 2.19588E-01
 -1      4286 2.31430E-01
 -1      4287 1.29157E-01
 -1      4288 1.37661E-01
 -1      4289 1.50580E-01
 -1      4290 1.73601E-01
 -1      4291 1.95388E-01
 -1      4292 1.95388E-01
 -1      4293 2.47803E-01
 -1      4294 2.00537E-01
 -1      4295 1.17527E+00
 -1      4296 3.15097E+00
 -1      4297 3.72445E+00
 -1      4298 2.32661E-01
 -1      4299 3.65852E-01
 -1      4300 4.10178E-01
 -1      4301 4.81205E-01
 -1      4302 5.41985E-01
 -1      4303 6.58264E-01
 -1      4304 7.58016E-01
 -1      4305 9.32780E-01
 -1      4306 1.10754E+00
 -1      4307 1.35346E+00
 -1      4308 1.81153E+00
 -1      4309 1.81319E+00
 -1      4310 1.89168E+00
 -1      4311 1.80656E+00
 -1      4312 3.34633E+00
 -1      4313 2.47803E-01
 -1      4314 2.40769E-01
 -1      4315 3.39108E-01
 -1      4316 1.11120E+00
 -1      4317 1.05374E+00
 -1      4318 1.11493E+00
 -1      4319 9.68743E-01
 -1      4320 8.22560E-01
 -1      4321 7.13066E-01
 -1      4322 6.03572E-01
 -1      4323 5.19111E-01
 -1      4324 2.65573E-01
 -1      4325 2.43565E-01
 -1      4326 2.43565E-01
 -1      4327 2.08583E-01
 -1      4328 1.05374E+00
 -1      4329 1.11408E+00
 -1      4330 1.73601E-01
 -1      4331 2.06406E-01
 -1      4332 2.40769E-01
 -1      4333 2.95442E-01
 -1      4334 3.28286E-01
 -1      4335 3.45838E-01
 -1      4336 1.44996E+00
 -1      4337 4.34650E-01
 -1      4338 2.08504E+00
 -1      4339 2.08583E-01
 -1      4340 1.29799E+00
 -1      4341 2.32661E-01
 -1      4342 2.47803E-01
 -1      4343 1.97194E+00
 -1      4344 2.71191E+00
 -1      4345 2.34241E+00
 -1      4346 2.34757E+00
 -1      4347 1.35346E+00
 -1      4348 1.11493E+00
 -1      4349 1.17934E+00
 -1      4350 2.43565E-01
 -1      4351 2.63977E-01
 -1      4352 2.76807E-01
 -1      4353 3.61116E-01
 -1      4354 2.46573E-01
 -1      4355 4.54431E-01
 -1      4356 2.35924E+00
 -1      4357 1.90851E+00
 -1      4358 2.76807E-01
 -1      4359 2.76807E-01
 -1      4360 3.08273E-01
 -1      4361 3.23577E-01
 -1      4362 2.89044E+00
 -1      4363 1.75978E+00
 -1      4364 4.08559E-01
 -1      4365 1.88652E+00
 -1      4366 3.61143E-01
 -1      4367 1.71424E-01
 -1      4368 3.45838E-01
 -3
 9999
